x	y	stress_yy
 1.000000000000000e+00	 0.000000000000000e+00	-2.333766138242263e+01
 9.999652819873316e-01	 8.333048840547298e-03	-2.656467779338177e+01
 9.998606548526504e-01	 1.669391286202172e-02	-2.725783394568844e+01
 9.996854145678035e-01	 2.508186591579744e-02	-2.588867347219688e+01
 9.994388649236412e-01	 3.349616549931930e-02	-2.292300781706797e+01
 9.991203179452327e-01	 4.193605278629495e-02	-1.882020241602464e+01
 9.987290943103193e-01	 5.040075266753075e-02	-1.403245229623044e+01
 9.982645237707195e-01	 5.888947380262372e-02	-9.004047869371620e+00
 9.977259455763865e-01	 6.740140868271496e-02	-4.170631740266167e+00
 9.971127089018138e-01	 7.593573370450242e-02	 4.155260371277336e-02
 9.964241732744672e-01	 8.449160925570288e-02	 3.216419314525101e+00
 1.008823457328410e+00	 0.000000000000000e+00	-1.450678070326170e+01
 1.008788432982907e+00	 8.406575145132409e-03	-1.591380725982485e+01
 1.008682882675344e+00	 1.684121089620530e-02	-1.586421900859376e+01
 1.008506096165558e+00	 2.530317469758155e-02	-1.464312934452739e+01
 1.008257371101382e+00	 3.379171749539848e-02	-1.252944323922062e+01
 1.007936013437521e+00	 4.230607376802643e-02	-9.795359617962141e+00
 1.007541337857695e+00	 5.084546156726499e-02	-6.705869129289971e+00
 1.007072668199768e+00	 5.940908257049081e-02	-3.518247924577215e+00
 1.006529337883544e+00	 6.799612214396498e-02	-4.815480989073393e-01
 1.005910690340937e+00	 7.660574941749865e-02	 2.163914527940308e+00
 1.005216079448178e+00	 8.523711737066911e-02	 4.187074584558191e+00
 1.017646782159778e+00	 0.000000000000000e+00	-7.935007534776469e+00
 1.017611451486040e+00	 8.480100344912849e-03	-7.500209429084867e+00
 1.017504978019459e+00	 1.698850671730691e-02	-6.562910526244563e+00
 1.017326645307965e+00	 2.552448015460338e-02	-5.249024277576521e+00
 1.017075744856467e+00	 3.408726505170349e-02	-3.677949401104189e+00
 1.016751576549402e+00	 4.267608919171342e-02	-1.962260780586187e+00
 1.016353449076568e+00	 5.129016378750074e-02	-2.074008381414512e-01
 1.015880680361970e+00	 5.992868353429856e-02	 1.488628141845918e+00
 1.015332597995354e+00	 6.859082667356628e-02	 3.035570239068237e+00
 1.014708539666144e+00	 7.727575506830839e-02	 4.351220161176641e+00
 1.014007853599432e+00	 8.598261429004454e-02	 5.361725018893989e+00
 1.026469991993312e+00	 0.000000000000000e+00	-3.316315075373439e+00
 1.026434354995330e+00	 8.553624585774041e-03	-1.096623548088617e+00
 1.026326958381762e+00	 1.713580061756481e-02	 8.007247644849365e-01
 1.026147079488713e+00	 2.574578272591117e-02	 2.382512257142168e+00
 1.025894003678258e+00	 3.438280875453906e-02	 3.662176235532777e+00
 1.025567024764651e+00	 4.304609979135286e-02	 4.659956739259102e+00
 1.025165445443851e+00	 5.173486021035203e-02	 5.403039688959883e+00
 1.024688577726083e+00	 6.044827772469145e-02	 5.925695003544948e+00
 1.024135743371121e+00	 6.918552345109567e-02	 6.269409323854277e+00
 1.023506274325981e+00	 7.794575198583098e-02	 6.483012976042595e+00
 1.022799513164692e+00	 8.672810149242928e-02	 6.622800805701130e+00
 1.035293104328222e+00	 0.000000000000000e+00	-3.550975441194542e-01
 1.035257161009377e+00	 8.627148013601409e-03	 3.516478888242419e+00
 1.035148841259015e+00	 1.728309288921725e-02	 6.376065863616067e+00
 1.034967416201492e+00	 2.596708285055307e-02	 8.337339163865451e+00
 1.034712165056120e+00	 3.467834919020986e-02	 9.520607190909281e+00
 1.034382375567044e+00	 4.341610630094170e-02	 1.005282433979112e+01
 1.033977344436454e+00	 5.217955171793285e-02	 1.006759635933149e+01
 1.033496377760867e+00	 6.096786617231392e-02	 9.705177454575091e+00
 1.032938791470156e+00	 6.978021365613013e-02	 9.112458884249413e+00
 1.032303911768995e+00	 7.861574149896601e-02	 8.442948812681170e+00
 1.031591075580421e+00	 8.747358045642353e-02	 7.856743182576384e+00
 1.044116136663715e+00	 0.000000000000000e+00	 1.234270588314040e+00
 1.044079887026780e+00	 8.700670774280397e-03	 6.551221397399932e+00
 1.043970644147982e+00	 1.743038382450248e-02	 1.030746009634311e+01
 1.043787672939991e+00	 2.618838096757728e-02	 1.269843152545550e+01
 1.043530246479419e+00	 3.497388694502057e-02	 1.392603192710155e+01
 1.043197646440357e+00	 4.378610945447693e-02	 1.419851429416473e+01
 1.042789163531287e+00	 5.262423919235713e-02	 1.373038322346681e+01
 1.042304097935081e+00	 6.148744990781047e-02	 1.274227912079872e+01
 1.041741759751765e+00	 7.037489846824647e-02	 1.146085161012816e+01
 1.041101469443733e+00	 7.928572493661279e-02	 1.011862201296046e+01
 1.040382558283081e+00	 8.821905266062735e-02	 8.953834777994615e+00
 1.052939106499000e+00	 0.000000000000000e+00	 1.727853098256961e+00
 1.052902550546137e+00	 8.774193013696412e-03	 8.212633234397465e+00
 1.052792384545428e+00	 1.757767371565877e-02	 1.273443445484435e+01
 1.052607867197901e+00	 2.640967751603199e-02	 1.554600194924994e+01
 1.052348265437516e+00	 3.526942260527586e-02	 1.690619558761440e+01
 1.052012854868362e+00	 4.415610998595550e-02	 1.707981328040370e+01
 1.051600920205261e+00	 5.306892351573896e-02	 1.633740220293020e+01
 1.051111755717485e+00	 6.200702996182560e-02	 1.495505780768736e+01
 1.050544665675257e+00	 7.096957906702162e-02	 1.321421055916533e+01
 1.049898964798739e+00	 7.995570362767086e-02	 1.140140034427898e+01
 1.049173978709136e+00	 8.896451958364097e-02	 9.808038530884433e+00
 1.061762031333285e+00	 0.000000000000000e+00	 1.392549539035830e+00
 1.061725169066050e+00	 8.847714877734898e-03	 8.698944548149317e+00
 1.061614079948116e+00	 1.772496285492436e-02	 1.379189635102048e+01
 1.061428016468911e+00	 2.663097293496538e-02	 1.695761583330315e+01
 1.061166239419777e+00	 3.556495675728044e-02	 1.848793964638357e+01
 1.060828018334836e+00	 4.452610862937438e-02	 1.868009723891993e+01
 1.060412631935287e+00	 5.351360557019224e-02	 1.783646494245025e+01
 1.059919368576834e+00	 6.252660736500375e-02	 1.626430709655293e+01
 1.059347526699940e+00	 7.156425663203250e-02	 1.427550421287120e+01
 1.058696415282561e+00	 8.062567890103969e-02	 1.218626819913848e+01
 1.057965354295047e+00	 8.970998270406452e-02	 1.031684468686072e+01
 1.070584928665779e+00	 0.000000000000000e+00	 4.864730179479295e-01
 1.070547760085116e+00	 8.921236512281286e-03	 8.201866871653696e+00
 1.070435747852810e+00	 1.787225153453750e-02	 1.361032439400123e+01
 1.070248138246710e+00	 2.685226766342562e-02	 1.700830090543053e+01
 1.069984185915565e+00	 3.586048998733898e-02	 1.869723958736655e+01
 1.069643154323555e+00	 4.489610611873055e-02	 1.898330748062055e+01
 1.069224316198276e+00	 5.395828623783099e-02	 1.817711854708577e+01
 1.068726953981891e+00	 6.304618314798940e-02	 1.659344382693787e+01
 1.068150360285121e+00	 7.215893234285592e-02	 1.455090873845917e+01
 1.067493838343746e+00	 8.129565208561870e-02	 1.237167759069393e+01
 1.066756702477279e+00	 9.045544350049813e-02	 1.038112540286959e+01
 1.079407815995689e+00	 0.000000000000000e+00	-7.406906440716519e-01
 1.079370341101936e+00	 8.994758063220995e-03	 6.906859789206667e+00
 1.079257405756275e+00	 1.801954004673646e-02	 1.231594976592821e+01
 1.079068250024988e+00	 2.707356214046092e-02	 1.577065136431211e+01
 1.078802122414245e+00	 3.615602288175620e-02	 1.755924072791629e+01
 1.078458280318292e+00	 4.526610318802097e-02	 1.797392797365828e+01
 1.078035990471137e+00	 5.440296640076923e-02	 1.731057498105091e+01
 1.077534529401413e+00	 6.356575834142703e-02	 1.586840112670153e+01
 1.076953183890108e+00	 7.275360737906882e-02	 1.394967704220823e+01
 1.076291251430838e+00	 8.196562451030735e-02	 1.185940649601495e+01
 1.075548040692293e+00	 9.120090345154196e-02	 9.904996522768620e+00
 1.088230710822225e+00	 0.000000000000000e+00	-2.047341308388013e+00
 1.088192929615107e+00	 9.068279676439462e-03	 4.993384568923673e+00
 1.088079071155274e+00	 1.816682868375948e-02	 1.003092873214465e+01
 1.087888369297435e+00	 2.729485680511945e-02	 1.331492693045283e+01
 1.087620066405180e+00	 3.645155602683674e-02	 1.509829229175728e+01
 1.087273413802824e+00	 4.563610057124259e-02	 1.563696374157291e+01
 1.086847672230783e+00	 5.484764694112092e-02	 1.518964391934632e+01
 1.086342112304158e+00	 6.408533397596111e-02	 1.401752667339304e+01
 1.085756014974210e+00	 7.334828292024807e-02	 1.238401422698643e+01
 1.085088671992387e+00	 8.263559750400509e-02	 1.055442412800986e+01
 1.084339386376554e+00	 9.194636403579613e-02	 8.795686114876784e+00
 9.964241732744672e-01	 8.449160925570288e-02	 3.216419314525105e+00
 9.956595725195881e-01	 9.306963622590368e-02	 5.462914478040403e+00
 9.948183983547721e-01	 1.016674728801871e-01	 7.177419240119441e+00
 9.939000435131441e-01	 1.102842106753847e-01	 8.385276980021935e+00
 9.929039128517897e-01	 1.189189249707242e-01	 9.113046182328624e+00
 9.918294237927018e-01	 1.275706751727545e-01	 9.388493335659817e+00
 9.906760067638285e-01	 1.362385048931707e-01	 9.240584029810542e+00
 9.894431056398209e-01	 1.449214421196757e-01	 8.699472197498782e+00
 9.881301781820826e-01	 1.536184993999990e-01	 7.796487447906999e+00
 9.867366964777042e-01	 1.623286740391850e-01	 6.564120440394131e+00
 9.852621473768629e-01	 1.710509483102449e-01	 5.036006248167752e+00
 1.005216079448178e+00	 8.523711737066911e-02	 4.187074584558193e+00
 1.004444732270168e+00	 9.389083219510361e-02	 5.644293668898384e+00
 1.003596136039742e+00	 1.025645314936881e-01	 6.748390008109980e+00
 1.002669678131902e+00	 1.112572987067345e-01	 7.511843766864417e+00
 1.001664758152585e+00	 1.199682010349142e-01	 7.948178455515244e+00
 1.000580788383504e+00	 1.286962895854614e-01	 8.071966630168559e+00
 9.994171942270832e-01	 1.374405995313911e-01	 7.898834285798886e+00
 9.981734146511001e-01	 1.462001502838679e-01	 7.445463880571283e+00
 9.968489026326105e-01	 1.549739456778490e-01	 6.729595929355885e+00
 9.954431256007640e-01	 1.637609741711127e-01	 5.770029104437982e+00
 9.939555658780577e-01	 1.725602090567694e-01	 4.586618781649830e+00
 1.014007853599432e+00	 8.598261429004454e-02	 5.361725018893993e+00
 1.013229760099880e+00	 9.471201583233832e-02	 6.098917123410214e+00
 1.012373741915620e+00	 1.034615766361879e-01	 6.639806078439836e+00
 1.011439181063595e+00	 1.122303721255099e-01	 6.985835970993081e+00
 1.010425471898656e+00	 1.210174613425458e-01	 7.139346266792793e+00
 1.009332021562298e+00	 1.298218870953440e-01	 7.103588628196929e+00
 1.008158250431481e+00	 1.386426761183703e-01	 6.882742854259433e+00
 1.006903592567163e+00	 1.474788392463839e-01	 6.481931873892661e+00
 1.005567496162113e+00	 1.563293716017047e-01	 5.907235721894232e+00
 1.004149423987590e+00	 1.651932527949823e-01	 5.165704426577260e+00
 1.002648853838463e+00	 1.740694471395653e-01	 4.265369736916949e+00
 1.022799513164692e+00	 8.672810149242928e-02	 6.622800805701130e+00
 1.022014673431769e+00	 9.553318876629954e-02	 6.718398269050158e+00
 1.021151233390689e+00	 1.043586100868197e-01	 6.752497282689047e+00
 1.020208569700392e+00	 1.132034328616197e-01	 6.717285139587903e+00
 1.019186071464699e+00	 1.220667079746211e-01	 6.605719901348451e+00
 1.018083140684936e+00	 1.309474699347983e-01	 6.411556677054706e+00
 1.016899192712655e+00	 1.398447370381818e-01	 6.129373388796424e+00
 1.015633656702043e+00	 1.487575115432413e-01	 5.754595948456505e+00
 1.014285976061628e+00	 1.576847798597771e-01	 5.283522768256948e+00
 1.012855608904825e+00	 1.666255127514291e-01	 4.713348525632616e+00
 1.011342028498917e+00	 1.755786655519053e-01	 4.042187101264837e+00
 1.031591075580421e+00	 8.747358045642353e-02	 7.856743182576384e+00
 1.030799489688879e+00	 9.635435262567885e-02	 7.398045887615520e+00
 1.029928627873231e+00	 1.052556336247170e-01	 6.990672305234676e+00
 1.028977861434461e+00	 1.141764828449729e-01	 6.619285972309108e+00
 1.027946574225408e+00	 1.231159430121420e-01	 6.269219519560196e+00
 1.026834163107274e+00	 1.320730403362202e-01	 5.926508780127627e+00
 1.025640038406241e+00	 1.410467846748993e-01	 5.577926685737786e+00
 1.024363624369772e+00	 1.500361697104582e-01	 5.211016869497223e+00
 1.023004359622191e+00	 1.590401731402770e-01	 4.814126891483158e+00
 1.021561697619110e+00	 1.680577568810879e-01	 4.376441000607582e+00
 1.020035107100263e+00	 1.770878672870617e-01	 3.888012343720428e+00
 1.040382558283081e+00	 8.821905266062735e-02	 8.953834777994613e+00
 1.039584226294253e+00	 9.717550903916800e-02	 8.036707750857587e+00
 1.038705942771529e+00	 1.061526490290131e-01	 7.261775664168709e+00
 1.037747073657973e+00	 1.151495240054783e-01	 6.607866629508784e+00
 1.036706997555479e+00	 1.241651685361106e-01	 6.054398704783765e+00
 1.035585106185164e+00	 1.331986005320056e-01	 5.581420226207618e+00
 1.034380804847875e+00	 1.422488214125964e-01	 5.169650166110208e+00
 1.033093512884382e+00	 1.513148162840521e-01	 4.800518430837400e+00
 1.031722664134840e+00	 1.603955541314154e-01	 4.456206009522094e+00
 1.030267707397086e+00	 1.694899880245941e-01	 4.119684881173272e+00
 1.028728106883340e+00	 1.785970553383068e-01	 3.774757584378982e+00
 1.049173978709136e+00	 8.896451958364097e-02	 9.808038530884431e+00
 1.048368900670936e+00	 9.799665963545866e-02	 8.536622163720907e+00
 1.047483195493863e+00	 1.070496580788411e-01	 7.476351926817633e+00
 1.046516223763096e+00	 1.161225582730450e-01	 6.601865603036908e+00
 1.045467358829610e+00	 1.252143866275290e-01	 5.888333906244254e+00
 1.044335987274461e+00	 1.343241527545505e-01	 5.311505454501019e+00
 1.043121509373192e+00	 1.434508496353468e-01	 4.847751945506740e+00
 1.041823339559904e+00	 1.525934538000410e-01	 4.474113444583938e+00
 1.040440906890610e+00	 1.617509255214033e-01	 4.168343691509209e+00
 1.038973655505396e+00	 1.709222090225831e-01	 3.908955328655614e+00
 1.037421045088988e+00	 1.801062326989132e-01	 3.675264949253504e+00
 1.057965354295047e+00	 8.970998270406452e-02	 1.031684468686072e+01
 1.057153530241971e+00	 9.881780604324247e-02	 8.803276952920267e+00
 1.056260403448518e+00	 1.079466625533347e-01	 7.547916736938425e+00
 1.055285329142001e+00	 1.170955875775819e-01	 6.522814766002274e+00
 1.054227675422494e+00	 1.262635993673991e-01	 5.700519432412888e+00
 1.053086823731018e+00	 1.354496992362507e-01	 5.054124849246682e+00
 1.051862169317826e+00	 1.446528717272240e-01	 4.557319223648279e+00
 1.050553121710371e+00	 1.538720847944426e-01	 4.184433454952270e+00
 1.049159105180538e+00	 1.631062899984514e-01	 3.910489860367776e+00
 1.047679559210682e+00	 1.723544227156898e-01	 3.711250926741421e+00
 1.046113938958048e+00	 1.816154023621531e-01	 3.563267982881453e+00
 1.066756702477279e+00	 9.045544350049813e-02	 1.038112540286959e+01
 1.065938132430403e+00	 9.963894989121116e-02	 8.745275469213265e+00
 1.065037584043776e+00	 1.088436642316269e-01	 7.392834258685642e+00
 1.064054407186855e+00	 1.180686138489978e-01	 6.294828243265210e+00
 1.062987964708828e+00	 1.273128088367230e-01	 5.422767673083642e+00
 1.061837632910689e+00	 1.365752422095023e-01	 4.748696178154582e+00
 1.060602802017413e+00	 1.458548900723017e-01	 4.245240743210426e+00
 1.059282876649815e+00	 1.551507118032747e-01	 3.885661960319373e+00
 1.057877276295661e+00	 1.644616502507708e-01	 3.643904459335865e+00
 1.056385435779585e+00	 1.737866319445492e-01	 3.494647411772826e+00
 1.054806805731360e+00	 1.831245673212992e-01	 3.413354999400753e+00
 1.075548040692293e+00	 9.120090345154196e-02	 9.904996522768620e+00
 1.074722724659275e+00	 1.004600928080565e-01	 8.274209200087849e+00
 1.073814754687918e+00	 1.097406648928512e-01	 6.930200668393150e+00
 1.072823475289827e+00	 1.190416390172018e-01	 5.844496767979528e+00
 1.071748244063308e+00	 1.283620171165029e-01	 4.989114249508674e+00
 1.070588432169329e+00	 1.377007839067012e-01	 4.336610407654202e+00
 1.069343424807589e+00	 1.470569070546535e-01	 3.860133083942949e+00
 1.068012621692267e+00	 1.564293373625551e-01	 3.533470941792987e+00
 1.066595437527016e+00	 1.658170089665724e-01	 3.331103912004163e+00
 1.065091302478747e+00	 1.752188395497967e-01	 3.228253702366396e+00
 1.063499662649765e+00	 1.846337305696236e-01	 3.200934260646079e+00
 1.084339386376554e+00	 9.194636403579613e-02	 8.795686114876784e+00
 1.083507324351631e+00	 1.012812364224699e-01	 7.304536615868289e+00
 1.082591932789227e+00	 1.106376663161409e-01	 6.081733349260279e+00
 1.081592550843088e+00	 1.200146650121027e-01	 5.100787211312390e+00
 1.080508530860630e+00	 1.294112262877406e-01	 4.335727811545492e+00
 1.079339238862790e+00	 1.388263265602434e-01	 3.761151645347048e+00
 1.078084055023988e+00	 1.482589250583530e-01	 3.352270573359891e+00
 1.076742374151761e+00	 1.577079640083017e-01	 3.084960509732897e+00
 1.075313606165639e+00	 1.671723688340671e-01	 2.935810216559078e+00
 1.073797176574809e+00	 1.766510483720674e-01	 2.882170097236123e+00
 1.072192526954103e+00	 1.861428951003989e-01	 2.902200877082678e+00
 9.852621473768629e-01	 1.710509483102449e-01	 5.036006248167752e+00
 9.837063042735066e-01	 1.797828046792139e-01	 3.393850384286330e+00
 9.820684407268566e-01	 1.885246801511627e-01	 1.828755216303432e+00
 9.803480899544126e-01	 1.972755162273639e-01	 3.914793275804223e-01
 9.785448016382446e-01	 2.060342404108244e-01	-8.654621783965772e-01
 9.766581423474189e-01	 2.147997664840680e-01	-1.887824873693025e+00
 9.746876959562029e-01	 2.235709948004863e-01	-2.619665413388144e+00
 9.726330640575948e-01	 2.323468125892456e-01	-3.003375211077115e+00
 9.704938663716977e-01	 2.411260942737208e-01	-2.979717433962060e+00
 9.682697411484724e-01	 2.499077018034106e-01	-2.487867363983462e+00
 9.659603455643851e-01	 2.586904849992691e-01	-1.465456165971069e+00
 9.939555658780577e-01	 1.725602090567694e-01	 4.586618781649830e+00
 9.923859948590488e-01	 1.813691105874806e-01	 3.351429715980339e+00
 9.907336796932259e-01	 1.901881196242338e-01	 2.244579580022860e+00
 9.889981494794223e-01	 1.990161683287150e-01	 1.300243965652749e+00
 9.871789499263163e-01	 2.078521747408316e-01	 5.536408156317247e-01
 9.852756437785816e-01	 2.166950430589465e-01	 4.101000980413794e-02
 9.832878112387866e-01	 2.255436639337991e-01	-2.004092106161988e-01
 9.812150503845686e-01	 2.343969147761029e-01	-1.324030253659734e-01
 9.790569775806152e-01	 2.432536600777888e-01	 2.841899342873329e-01
 9.768132278849667e-01	 2.521127517468493e-01	 1.089449268404072e+00
 9.744834554491673e-01	 2.609730294557169e-01	 2.324341170056527e+00
 1.002648853838463e+00	 1.740694471395653e-01	 4.265369736916949e+00
 1.001065555109914e+00	 1.829553926750787e-01	 3.362410778184701e+00
 9.993987885418061e-01	 1.918515341183668e-01	 2.620090585436434e+00
 9.976480791143788e-01	 2.007567942916664e-01	 2.058653179346840e+00
 9.958129685629900e-01	 2.096700817719251e-01	 1.698792588875385e+00
 9.938930158079936e-01	 2.185902911734854e-01	 1.561638363123822e+00
 9.918877973803253e-01	 2.275163034445774e-01	 1.668739798337944e+00
 9.897969078423287e-01	 2.364469861776063e-01	 2.042048844316079e+00
 9.876199602033381e-01	 2.453811939332054e-01	 2.703901656104603e+00
 9.853565863295357e-01	 2.543177685780086e-01	 3.676998758749164e+00
 9.830064373476020e-01	 2.632555396360757e-01	 4.984383795038973e+00
 1.011342028498917e+00	 1.755786655519053e-01	 4.042187101264837e+00
 1.009745002239733e+00	 1.845416540880865e-01	 3.405595559333775e+00
 1.008063784457593e+00	 1.935149269326224e-01	 2.945618660029198e+00
 1.006297896014211e+00	 2.024973975684194e-01	 2.671161075303236e+00
 1.004446874671686e+00	 2.114879651095853e-01	 2.591104753391955e+00
 1.002510275526112e+00	 2.204855145865648e-01	 2.714299509986973e+00
 1.000487671436852e+00	 2.294889172452022e-01	 3.049553041147785e+00
 9.983786534510133e-01	 2.384970308597194e-01	 3.605620328599531e+00
 9.961828312226307e-01	 2.475087000595783e-01	 4.391192408509145e+00
 9.938998334260826e-01	 2.565227566701822e-01	 5.414884475515190e+00
 9.915293081632356e-01	 2.655380200673481e-01	 6.685223294710115e+00
 1.020035107100263e+00	 1.770878672870617e-01	 3.888012343720428e+00
 1.018424353462134e+00	 1.861278979725826e-01	 3.460496477752624e+00
 1.016728684625583e+00	 1.951783013660614e-01	 3.211811169360575e+00
 1.014947617333847e+00	 2.042379816111748e-01	 3.142056749979533e+00
 1.013080685375823e+00	 2.133058283592927e-01	 3.250955564359030e+00
 1.011127440023394e+00	 2.223807170570650e-01	 3.537846804293699e+00
 1.009087450464400e+00	 2.314615092480545e-01	 4.001681302512943e+00
 1.006960304230760e+00	 2.405470528884052e-01	 4.641016261214265e+00
 1.004745607621257e+00	 2.496361826765149e-01	 5.454009889250841e+00
 1.002442986118509e+00	 2.587277203966641e-01	 6.438415921715356e+00
 1.000052084799612e+00	 2.678204752765360e-01	 7.591577995616636e+00
 1.028728106883340e+00	 1.785970553383068e-01	 3.774757584378982e+00
 1.027103625990749e+00	 1.877141274746451e-01	 3.507306428042778e+00
 1.025393506230771e+00	 1.968416607177445e-01	 3.409619170834490e+00
 1.023597260228217e+00	 2.059785498721337e-01	 3.475471495621002e+00
 1.021714417798819e+00	 2.151236751265281e-01	 3.698021234332972e+00
 1.019744526390295e+00	 2.242759023438662e-01	 4.069806616828036e+00
 1.017687151519001e+00	 2.334340833655150e-01	 4.582744852359918e+00
 1.015541877201707e+00	 2.425970563296270e-01	 5.228131019466653e+00
 1.013308306381981e+00	 2.517636460036226e-01	 5.996637238936054e+00
 1.010986061350717e+00	 2.609326641307482e-01	 6.878312103544868e+00
 1.008574784160278e+00	 2.701029097906421e-01	 7.862580337517147e+00
 1.037421045088988e+00	 1.801062326989132e-01	 3.675264949253505e+00
 1.035782837039206e+00	 1.893003457403527e-01	 3.526870364250530e+00
 1.034058266458154e+00	 1.985050082867326e-01	 3.530284862023041e+00
 1.032246841852249e+00	 2.077191058034972e-01	 3.675385669372982e+00
 1.030348089064095e+00	 2.169415090167715e-01	 3.951305694530155e+00
 1.028361551717273e+00	 2.261710742058484e-01	 4.346434372799058e+00
 1.026286791656689e+00	 2.354066435099647e-01	 4.848419053424333e+00
 1.024123389383992e+00	 2.446470452493479e-01	 5.444166902332386e+00
 1.021870944487567e+00	 2.538910942605090e-01	 6.119847293812377e+00
 1.019529076066611e+00	 2.631375922457283e-01	 6.860894662795381e+00
 1.017097423148778e+00	 2.723853281366685e-01	 7.652011788199887e+00
 1.046113938958048e+00	 1.816154023621531e-01	 3.563267982881453e+00
 1.044462003821135e+00	 1.908865559157836e-01	 3.500658329987047e+00
 1.042722982492728e+00	 2.001683473720864e-01	 3.565329682949683e+00
 1.040896379360873e+00	 2.094596528574664e-01	 3.745635245235487e+00
 1.038981716295068e+00	 2.187593336355037e-01	 4.029168893923752e+00
 1.036978533094784e+00	 2.280662364018920e-01	 4.402767812629078e+00
 1.034886387933496e+00	 2.373791935937844e-01	 4.852515712488169e+00
 1.032704857797753e+00	 2.466970237135312e-01	 5.363746612259078e+00
 1.030433538920778e+00	 2.560185316667817e-01	 5.921049146780619e+00
 1.028072047210091e+00	 2.653425091148985e-01	 6.508271371445185e+00
 1.025620018668658e+00	 2.746677348416176e-01	 7.108526028966508e+00
 1.054806805731360e+00	 1.831245673212992e-01	 3.413354999400753e+00
 1.053141143550166e+00	 1.924727611470166e-01	 3.410739851624680e+00
 1.051387671519489e+00	 2.018316812728667e-01	 3.506543034429575e+00
 1.049545889909018e+00	 2.112001944862422e-01	 3.689918067257820e+00
 1.047615316615159e+00	 2.205771525882051e-01	 3.949353720936406e+00
 1.045595487613285e+00	 2.299613926908770e-01	 4.272677636979681e+00
 1.043485957405453e+00	 2.393517375293550e-01	 4.647060422040820e+00
 1.041286299463128e+00	 2.487469957881400e-01	 5.059020182519835e+00
 1.038996106664379e+00	 2.581459624420481e-01	 5.494427462566483e+00
 1.036614991725062e+00	 2.675474191115525e-01	 5.938510547176685e+00
 1.034142587623462e+00	 2.769501344324914e-01	 6.375861090786883e+00
 1.063499662649765e+00	 1.846337305696236e-01	 3.200934260646082e+00
 1.061820273439929e+00	 1.940589645801295e-01	 3.239759616206389e+00
 1.060052350723433e+00	 2.034950132881345e-01	 3.345971577058305e+00
 1.058195390651612e+00	 2.129407341420258e-01	 3.511799821165562e+00
 1.056248907147787e+00	 2.223949694803564e-01	 3.729011626940554e+00
 1.054212432363233e+00	 2.318565468316837e-01	 3.988915686431215e+00
 1.052085517128595e+00	 2.413242792290574e-01	 4.282366122920659e+00
 1.049867731400256e+00	 2.507969655391378e-01	 4.599766669502070e+00
 1.047558664701134e+00	 2.602733908059156e-01	 4.931074963687088e+00
 1.045157926555424e+00	 2.697523266089842e-01	 5.265806911862876e+00
 1.042665146916736e+00	 2.792325314362925e-01	 5.593041076450390e+00
 1.072192526954103e+00	 1.861428951003989e-01	 2.902200877082678e+00
 1.070499410704053e+00	 1.956451693612012e-01	 2.970914360815276e+00
 1.068717037289555e+00	 2.051583467169502e-01	 3.075909077749048e+00
 1.066844898743585e+00	 2.146812752770183e-01	 3.214719740493074e+00
 1.064882505016370e+00	 2.242127879174378e-01	 3.384727025619069e+00
 1.062829384435084e+00	 2.337517025831922e-01	 3.583160796431034e+00
 1.060685084158954e+00	 2.432968226052727e-01	 3.807103103471248e+00
 1.058449170629273e+00	 2.528469370324876e-01	 4.053490908503014e+00
 1.056121230013807e+00	 2.624008209779921e-01	 4.319118476697343e+00
 1.053700868645081e+00	 2.719572359804877e-01	 4.600639381044960e+00
 1.051187713452026e+00	 2.815149303800232e-01	 4.894568062639249e+00
 9.659603455643851e-01	 2.586904849992691e-01	-1.465456165971069e+00
 9.635653563227460e-01	 2.674732820350743e-01	-4.041535143413011e-02
 9.610844706690255e-01	 2.762549201886375e-01	 1.572573128705562e+00
 9.585174061376137e-01	 2.850342158783321e-01	 3.300859779960831e+00
 9.558639007082445e-01	 2.938099749412080e-01	 5.063729512123379e+00
 9.531237131637238e-01	 3.025809930437929e-01	 6.772365505827439e+00
 9.502966234386567e-01	 3.113460561054973e-01	 8.329822752894433e+00
 9.473824329586863e-01	 3.201039407344277e-01	 9.631011490669675e+00
 9.443809649697816e-01	 3.288534146753910e-01	 1.056269073833670e+01
 9.412920648570995e-01	 3.375932372698591e-01	 1.100347213036701e+01
 9.381156004529616e-01	 3.463221599276365e-01	 1.082383422885129e+01
 9.744834554491673e-01	 2.609730294557169e-01	 2.324341170056526e+00
 9.720673341239003e-01	 2.698333211268695e-01	 3.760249411019155e+00
 9.695645584832749e-01	 2.786924436906383e-01	 5.116225822619148e+00
 9.669748435693406e-01	 2.875492031220878e-01	 6.351874928500547e+00
 9.642979250498880e-01	 2.964023947215949e-01	 7.422100107904384e+00
 9.615335595793364e-01	 3.052508035292754e-01	 8.277079115415942e+00
 9.586815251505340e-01	 3.140932047521239e-01	 8.862244954794466e+00
 9.557416214369939e-01	 3.229283642036727e-01	 9.118272226602738e+00
 9.527136701250852e-01	 3.317550387559495e-01	 8.981069063324457e+00
 9.495975152357088e-01	 3.405719768035005e-01	 8.381774759400594e+00
 9.463930234349912e-01	 3.493779187392194e-01	 7.246763197136296e+00
 9.830064373476020e-01	 2.632555396360757e-01	 4.984383795038974e+00
 9.805691842556489e-01	 2.721933247787372e-01	 6.341147133139025e+00
 9.780445189564625e-01	 2.811299305890004e-01	 7.438814225678225e+00
 9.754321539997879e-01	 2.900641525987808e-01	 8.263919897030817e+00
 9.727318227415056e-01	 2.989947755719440e-01	 8.801112243202322e+00
 9.699432797076762e-01	 3.079205739223554e-01	 9.033137816953840e+00
 9.670663009494203e-01	 3.168403121447574e-01	 8.940828535147174e+00
 9.641006843881437e-01	 3.257527452582738e-01	 8.503090343353806e+00
 9.610462501506362e-01	 3.346566192623189e-01	 7.696893671965010e+00
 9.579028408935608e-01	 3.435506716046804e-01	 6.497265717323939e+00
 9.546703221168643e-01	 3.524336316615091e-01	 4.877284580771065e+00
 9.915293081632356e-01	 2.655380200673481e-01	 6.685223294710115e+00
 9.890709235796760e-01	 2.745532976713896e-01	 7.897505598419414e+00
 9.865243689069056e-01	 2.835673857181275e-01	 8.746700477558164e+00
 9.838893542023931e-01	 2.925790692964668e-01	 9.241063356771578e+00
 9.811656105101376e-01	 3.015871226339011e-01	 9.389237258275166e+00
 9.783528902278685e-01	 3.105903095181872e-01	 9.200245709230877e+00
 9.754509674650010e-01	 3.195873837319579e-01	 8.683484417940903e+00
 9.724596383908544e-01	 3.285770895000708e-01	 7.848711684823347e+00
 9.693787215726591e-01	 3.375581619494725e-01	 6.706037517594141e+00
 9.662080583028561e-01	 3.465293275813365e-01	 5.265911423884266e+00
 9.629475129152258e-01	 3.554893047552184e-01	 3.539108858670233e+00
 1.000052084799612e+00	 2.678204752765360e-01	 7.591577995616636e+00
 9.975725689576675e-01	 2.769132444855391e-01	 8.617876447113291e+00
 9.950041251529212e-01	 2.860048139124229e-01	 9.239189114434920e+00
 9.923464609505925e-01	 2.950939582032003e-01	 9.480392484403790e+00
 9.895993050828242e-01	 3.041794410491115e-01	 9.368494488530336e+00
 9.867624078190368e-01	 3.132600156119249e-01	 8.932633232749060e+00
 9.838355413269591e-01	 3.223344249622841e-01	 8.204072211958465e+00
 9.808185000238453e-01	 3.314014025309032e-01	 7.216191921635700e+00
 9.777111009173797e-01	 3.404596725723824e-01	 6.004477785568132e+00
 9.745131839357962e-01	 3.495079506414066e-01	 4.606504326067979e+00
 9.712246122467209e-01	 3.585449440810584e-01	 3.061915510902381e+00
 1.008574784160278e+00	 2.701029097906421e-01	 7.862580337517147e+00
 1.006074137251309e+00	 2.792731699018982e-01	 8.684418228766528e+00
 1.003483804512826e+00	 2.884422200062909e-01	 9.108826273212332e+00
 1.000803491017823e+00	 2.976088243070368e-01	 9.172308954532406e+00
 9.980329231866059e-01	 3.067717359592214e-01	 8.914724861135138e+00
 9.951718491603041e-01	 3.159296974987229e-01	 8.379289380207785e+00
 9.922200391649797e-01	 3.250814412842958e-01	 7.612572253179477e+00
 9.891772858658344e-01	 3.342256899526103e-01	 6.664489866349587e+00
 9.860434047110226e-01	 3.433611568860221e-01	 5.588292159578761e+00
 9.828182342645817e-01	 3.524865466928280e-01	 4.440544045787112e+00
 9.795016365279939e-01	 3.616005556997415e-01	 3.281101244541341e+00
 1.017097423148778e+00	 2.723853281366685e-01	 7.652011788199887e+00
 1.014575645322286e+00	 2.816330786011796e-01	 8.273165196362992e+00
 1.011963423804938e+00	 2.908796088341344e-01	 8.541683823255223e+00
 1.009260461177522e+00	 3.001236725960307e-01	 8.500810023909237e+00
 1.006466481548522e+00	 3.093640125058759e-01	 8.197850716927615e+00
 1.003581230930795e+00	 3.185993604737352e-01	 7.684182225316841e+00
 1.000604477608747e+00	 3.278284381465518e-01	 7.015249007489095e+00
 9.975360124955410e-01	 3.370499573670315e-01	 6.250556128636990e+00
 9.943756494798129e-01	 3.462626206453642e-01	 5.453655333278451e+00
 9.911232257614139e-01	 3.554651216435385e-01	 4.692124591156436e+00
 9.877786021756902e-01	 3.646561456719794e-01	 4.037541000852811e+00
 1.025620018668658e+00	 2.746677348416176e-01	 7.108526028966508e+00
 1.023077110032282e+00	 2.839929752640952e-01	 7.554282675599348e+00
 1.020442999847574e+00	 2.933169852303574e-01	 7.717629306741523e+00
 1.017717388203125e+00	 3.026385080582376e-01	 7.643755578931660e+00
 1.014899996895614e+00	 3.119562758307208e-01	 7.382122662887701e+00
 1.011990569809631e+00	 3.212690098321160e-01	 6.986468452851732e+00
 1.008988873287944e+00	 3.305754209976118e-01	 6.514806338791859e+00
 1.005894696491684e+00	 3.398742103760061e-01	 6.029417382900227e+00
 1.002707851749976e+00	 3.491640696053813e-01	 5.596835752943865e+00
 9.994281748984939e-01	 3.584436814014762e-01	 5.287827276981695e+00
 9.960555256064552e-01	 3.677117200584841e-01	 5.177360996748975e+00
 1.034142587623462e+00	 2.769501344324914e-01	 6.375861090786883e+00
 1.031578548242984e+00	 2.863528645713577e-01	 6.692309787591977e+00
 1.028922549459051e+00	 2.957543540293634e-01	 6.810582510375584e+00
 1.026174288868070e+00	 3.051533356817125e-01	 6.773121960198794e+00
 1.023333485954921e+00	 3.145485310754019e-01	 6.626354207082751e+00
 1.020399882475940e+00	 3.239386508690197e-01	 6.420692527627719e+00
 1.017373242832256e+00	 3.333223952860350e-01	 6.210535114171574e+00
 1.014253354432981e+00	 3.426984545813739e-01	 6.054256502750555e+00
 1.011040028047737e+00	 3.520655095210467e-01	 6.014192577858008e+00
 1.007733098148022e+00	 3.614222318745779e-01	 6.156619023564080e+00
 1.004332423236933e+00	 3.707672849199675e-01	 6.551751353538324e+00
 1.042665146916736e+00	 2.792325314362925e-01	 5.593041076450390e+00
 1.040079976816076e+00	 2.887127512036795e-01	 5.846390252180223e+00
 1.037402089457687e+00	 2.981917200655562e-01	 5.988759437147977e+00
 1.034631179945794e+00	 3.076681604545102e-01	 6.055243324439011e+00
 1.031766965453483e+00	 3.171407833815649e-01	 6.084144878599695e+00
 1.028809185608841e+00	 3.266082888796002e-01	 6.116976098172232e+00
 1.025757602871366e+00	 3.360693664603806e-01	 6.198453586752067e+00
 1.022612002898152e+00	 3.455226955849741e-01	 6.376488800059784e+00
 1.019372194899320e+00	 3.549669461473329e-01	 6.702172845971280e+00
 1.016038011982201e+00	 3.644007789707822e-01	 7.229755724672953e+00
 1.012609311483770e+00	 3.738228463171415e-01	 8.019287756670261e+00
 1.051187713452026e+00	 2.815149303800232e-01	 4.894568062639250e+00
 1.048581412613244e+00	 2.910726398417731e-01	 5.170491951604530e+00
 1.045881636661798e+00	 3.006290881733392e-01	 5.414904396735515e+00
 1.043088078209732e+00	 3.101829873646860e-01	 5.651041254575849e+00
 1.040200452118341e+00	 3.197330378908551e-01	 5.904092489196366e+00
 1.037218495887461e+00	 3.292779291590120e-01	 6.201198192053065e+00
 1.034141970034960e+00	 3.388163399692082e-01	 6.571440968200120e+00
 1.030970658465916e+00	 3.483469389886462e-01	 7.045834590808193e+00
 1.027704368830951e+00	 3.578683852392130e-01	 7.657308833217344e+00
 1.024342932873230e+00	 3.673793285980262e-01	 8.440690395692700e+00
 1.020886206763610e+00	 3.768784103107179e-01	 9.442979098346527e+00
 9.381156004529616e-01	 3.463221599276365e-01	 1.082383422885129e+01
 9.348508998318095e-01	 3.550404073758257e-01	 9.992907108404891e+00
 9.314984086111489e-01	 3.637452306608892e-01	 8.623421109804225e+00
 9.280580630371016e-01	 3.724353592601340e-01	 6.802741249136533e+00
 9.245298229341035e-01	 3.811095166967163e-01	 4.633447377898350e+00
 9.209136719525729e-01	 3.897664210659201e-01	 2.222415989026614e+00
 9.172096178030529e-01	 3.984047855712462e-01	-3.164420614854011e-01
 9.134176924764241e-01	 4.070233190699295e-01	-2.859176228814587e+00
 9.095379524497916e-01	 4.156207266274775e-01	-5.271830078488799e+00
 9.055704788776667e-01	 4.241957100808110e-01	-7.410489291273995e+00
 9.015153777680721e-01	 4.327469686095653e-01	-9.121344012736774e+00
 9.463930234349912e-01	 3.493779187392194e-01	 7.246763197136296e+00
 9.430995168686512e-01	 3.581730912730492e-01	 5.748474655476647e+00
 9.397174450860709e-01	 3.669547211961475e-01	 4.138434745987643e+00
 9.362467437708336e-01	 3.757215267753867e-01	 2.463260322452849e+00
 9.326873723928802e-01	 3.844722202709525e-01	 7.794086816226912e-01
 9.290393144583593e-01	 3.932055084672652e-01	-8.612533248934900e-01
 9.253025777458402e-01	 4.019200932137996e-01	-2.402864950878312e+00
 9.214771945284640e-01	 4.106146719754152e-01	-3.784601724253653e+00
 9.175632217816512e-01	 4.192879383917875e-01	-4.940693215577710e+00
 9.135607413759673e-01	 4.279385828455182e-01	-5.800447827893676e+00
 9.094698602547836e-01	 4.365652930384773e-01	-6.288284671448371e+00
 9.546703221168643e-01	 3.524336316615091e-01	 4.877284580771065e+00
 9.513480100376310e-01	 3.613057281255642e-01	 3.118074589207999e+00
 9.479363581370631e-01	 3.701641635330709e-01	 1.526310795258223e+00
 9.444353015362197e-01	 3.790076449406455e-01	 1.182785690864963e-01
 9.408447993505555e-01	 3.878348733456836e-01	-1.090628503105848e+00
 9.371648349419601e-01	 3.966445442219223e-01	-2.092895293660002e+00
 9.333954161570299e-01	 4.054353480649910e-01	-2.880219694605623e+00
 9.295365755511700e-01	 4.142059709475558e-01	-3.443510480082333e+00
 9.255883705981118e-01	 4.229550950836430e-01	-3.772891705639827e+00
 9.215508838844715e-01	 4.316813994017183e-01	-3.857708196581406e+00
 9.174242232889597e-01	 4.403835601260684e-01	-3.686532126632418e+00
 9.629475129152258e-01	 3.554893047552184e-01	 3.539108858670233e+00
 9.595963956982929e-01	 3.644383241466699e-01	 1.837969360680396e+00
 9.561551640650344e-01	 3.733735640373091e-01	 4.586094348325747e-01
 9.526237525739953e-01	 3.822937202736523e-01	-6.047769488781352e-01
 9.490021199861547e-01	 3.911974825904597e-01	-1.371907079101088e+00
 9.452902495191458e-01	 4.000835351509420e-01	-1.869279561224986e+00
 9.414881490875990e-01	 4.089505570970414e-01	-2.125896186197239e+00
 9.375958515291822e-01	 4.177972231093881e-01	-2.173259155520566e+00
 9.336134148159376e-01	 4.266222039765179e-01	-2.045364752201866e+00
 9.295409222505252e-01	 4.354241671729183e-01	-1.778693403394446e+00
 9.253784826469882e-01	 4.442017774454529e-01	-1.412196086804840e+00
 9.712246122467209e-01	 3.585449440810584e-01	 3.061915510902381e+00
 9.678446902101844e-01	 3.675708855496655e-01	 1.653369684173608e+00
 9.643738791708958e-01	 3.765829290745127e-01	 6.189877720517666e-01
 9.608121131248981e-01	 3.855797592921484e-01	-6.574402184148820e-02
 9.571593504787009e-01	 3.945600546748302e-01	-4.461599143844232e-01
 9.534155743056878e-01	 4.035224880753752e-01	-5.736115663790202e-01
 9.495807925885241e-01	 4.124657272821720e-01	-5.043786724275161e-01
 9.456550384471418e-01	 4.213884355839487e-01	-2.996615149857103e-01
 9.416383703518920e-01	 4.302892723438851e-01	-2.556652786771085e-02
 9.375308723214741e-01	 4.391668935826254e-01	 2.469152274611531e-01
 9.333326541052582e-01	 4.480199525697459e-01	 4.419367571001999e-01
 9.795016365279939e-01	 3.616005556997415e-01	 3.281101244541342e+00
 9.760929099328501e-01	 3.707034185478503e-01	 2.318070679360044e+00
 9.725925197555580e-01	 3.797922650103322e-01	 1.700901480555532e+00
 9.690003994296654e-01	 3.888657685138760e-01	 1.387736456820135e+00
 9.653165070072187e-01	 3.979225962683448e-01	 1.317819154223248e+00
 9.615408254173563e-01	 4.069614098162727e-01	 1.423894193302143e+00
 9.576733627107815e-01	 4.159808655926035e-01	 1.632208872761616e+00
 9.537141522896891e-01	 4.249796154942740e-01	 1.862523872464001e+00
 9.496632531227387e-01	 4.339563074592176e-01	 2.028133195724076e+00
 9.455207499446650e-01	 4.429095860543472e-01	 2.035893475245022e+00
 9.412867534401580e-01	 4.518380930720615e-01	 1.786262750698111e+00
 9.877786021756902e-01	 3.646561456719794e-01	 4.037541000852811e+00
 9.843410712258356e-01	 3.738359293545230e-01	 3.596007989828808e+00
 9.808111021199305e-01	 3.830015782104174e-01	 3.408107445741228e+00
 9.771886277290335e-01	 3.921517544565758e-01	 3.419709381926255e+00
 9.734736057507323e-01	 4.012851140405534e-01	 3.563633112078610e+00
 9.696660189699228e-01	 4.104003071946854e-01	 3.765469804265369e+00
 9.657658755053475e-01	 4.194959790005573e-01	 3.943584869863851e+00
 9.617732090414657e-01	 4.285707699634006e-01	 4.009130513064709e+00
 9.576880790452408e-01	 4.376233165959891e-01	 3.866068595941237e+00
 9.535105709674433e-01	 4.466522520115910e-01	 3.411203956557683e+00
 9.492407964280759e-01	 4.556562065255140e-01	 2.534228299334893e+00
 9.960555256064552e-01	 3.677117200584841e-01	 5.177360996748975e+00
 9.925891904486867e-01	 3.769684241829833e-01	 5.259104088239023e+00
 9.890296425649242e-01	 3.862108750404191e-01	 5.454240994757757e+00
 9.853768142637397e-01	 3.954377236379905e-01	 5.705419882770839e+00
 9.816306628882662e-01	 4.046476146610058e-01	 5.946766669079938e+00
 9.777911710791584e-01	 4.138391870316641e-01	 6.105276796796712e+00
 9.738583470231990e-01	 4.230110744782542e-01	 6.100818143678110e+00
 9.698322246871114e-01	 4.321619061143651e-01	 5.846144010859700e+00
 9.657128640361627e-01	 4.412903070276732e-01	 5.246916345675920e+00
 9.615003512371543e-01	 4.503948988778640e-01	 4.201739334830552e+00
 9.571947988454013e-01	 4.594743005032184e-01	 2.602203486028400e+00
 1.004332423236933e+00	 3.707672849199675e-01	 6.551751353538325e+00
 1.000837283960950e+00	 3.801009092465300e-01	 7.085777048003333e+00
 9.972481573914492e-01	 3.894201618659871e-01	 7.562408902333522e+00
 9.935649752745213e-01	 3.987236825758612e-01	 7.930851843061058e+00
 9.897876945988443e-01	 4.080101047992519e-01	 8.134096701744523e+00
 9.859162978608341e-01	 4.172780561482596e-01	 8.108914644043582e+00
 9.819507933153128e-01	 4.265261589979156e-01	 7.785860320665341e+00
 9.778912152112671e-01	 4.357530310702037e-01	 7.089283891175575e+00
 9.737376240122680e-01	 4.449572860277427e-01	 5.937352056957927e+00
 9.694901066011445e-01	 4.541375340766737e-01	 4.242078224212449e+00
 9.651487764685219e-01	 4.632923825782889e-01	 1.909361901836819e+00
 1.012609311483770e+00	 3.738228463171415e-01	 8.019287756670261e+00
 1.009085368122169e+00	 3.832333907584627e-01	 8.861719551455643e+00
 1.005466662900416e+00	 3.926294450527717e-01	 9.464802402934820e+00
 1.001753127002115e+00	 4.020096377879295e-01	 9.792289110405482e+00
 9.979447170614915e-01	 4.113725911248411e-01	 9.803426766591972e+00
 9.940414154307206e-01	 4.207169213655227e-01	 9.452953426108028e+00
 9.900432304326650e-01	 4.300412395317623e-01	 8.691101211618331e+00
 9.859501965985736e-01	 4.393441519539534e-01	 7.463605971593667e+00
 9.817623748903193e-01	 4.486242608696710e-01	 5.711723592642851e+00
 9.774798529067596e-01	 4.578801650315273e-01	 3.372253057956925e+00
 9.731027450738268e-01	 4.671104603238400e-01	 3.775663314380631e-01
 1.020886206763610e+00	 3.768784103107179e-01	 9.442979098346527e+00
 1.017333459291891e+00	 3.863658749320800e-01	 1.037960414804594e+01
 1.013685175392733e+00	 3.958387309664232e-01	 1.090232906836686e+01
 1.009941285687257e+00	 4.052955957919373e-01	 1.099589810144230e+01
 1.006101746455231e+00	 4.147350803073234e-01	 1.064304431211955e+01
 1.002166539904589e+00	 4.241557895045043e-01	 9.824489281143583e+00
 9.981356744262321e-01	 4.335563230520150e-01	 8.518945868848753e+00
 9.940091848336720e-01	 4.429352758886505e-01	 6.703124108635774e+00
 9.897871325870814e-01	 4.522912388269316e-01	 4.351740284214216e+00
 9.854696060013458e-01	 4.616227991659320e-01	 1.437529238979947e+00
 9.810567204377049e-01	 4.709285413129863e-01	-2.068740040023000e+00
 9.015153777680721e-01	 4.327469686095653e-01	-9.121344012736772e+00
 8.973734916289077e-01	 4.412717521407645e-01	-1.025683465676236e+01
 8.931442941867405e-01	 4.497702121745721e-01	-1.081093998587558e+01
 8.888279661850488e-01	 4.582410436156898e-01	-1.083824342687759e+01
 8.844247137540192e-01	 4.666829410531057e-01	-1.039890821474930e+01
 8.799347685068711e-01	 4.750945993647693e-01	-9.558647433810972e+00
 8.753583876192406e-01	 4.834747143274810e-01	-8.388685827499419e+00
 8.706958538913733e-01	 4.918219832314509e-01	-6.965713332995927e+00
 8.659474757928984e-01	 5.001351054989742e-01	-5.371830313237075e+00
 8.611135874899662e-01	 5.084127833066525e-01	-3.694484475492897e+00
 8.561945488545586e-01	 5.166537222105835e-01	-2.026399482651225e+00
 9.094698602547836e-01	 4.365652930384773e-01	-6.288284671448373e+00
 9.052914283598296e-01	 4.451652946325164e-01	-6.442335092939514e+00
 9.010249147741403e-01	 4.537387404645846e-01	-6.366205839831345e+00
 8.966705018359983e-01	 4.622843139239722e-01	-6.080187539332741e+00
 8.922283974943962e-01	 4.708006980814723e-01	-5.606486244968010e+00
 8.876988354062080e-01	 4.792865762993890e-01	-4.969209974931857e+00
 8.830820750162708e-01	 4.877406328468080e-01	-4.194352280097497e+00
 8.783784016201311e-01	 4.961615535195786e-01	-3.309772828403827e+00
 8.735881264092127e-01	 5.045480262644485e-01	-2.345174998726698e+00
 8.687115864981905e-01	 5.128987418067736e-01	-1.332080483878019e+00
 8.637491449343864e-01	 5.212123942812260e-01	-3.038009090504783e-01
 9.174242232889597e-01	 4.403835601260684e-01	-3.686532126632417e+00
 9.132092461870271e-01	 4.490587786537446e-01	-3.384643096315794e+00
 9.089054170182405e-01	 4.577072091584488e-01	-3.080921970111699e+00
 9.045129197156632e-01	 4.663275235142201e-01	-2.768143321092007e+00
 9.000319640470583e-01	 4.749183932738121e-01	-2.438042149965887e+00
 8.954627857129170e-01	 4.834784902840402e-01	-2.081313987678606e+00
 8.908056464272401e-01	 4.920064873064326e-01	-1.687616287267049e+00
 8.860608339808328e-01	 5.005010586426355e-01	-1.245571115935183e+00
 8.812286622868647e-01	 5.089608807640041e-01	-7.427691566529302e-01
 8.763094714084870e-01	 5.173846329448051e-01	-1.657750269237224e-01
 8.713036275683089e-01	 5.257709978984395e-01	 4.998660792912482e-01
 9.253784826469882e-01	 4.442017774454529e-01	-1.412196086804838e+00
 9.211269608144043e-01	 4.529522119266949e-01	-1.078176690478165e+00
 9.167858165489323e-01	 4.616756261270721e-01	-8.644915053433502e-01
 9.123552353783855e-01	 4.703706804055071e-01	-7.429908195416393e-01
 9.078354288892730e-01	 4.790360347968520e-01	-6.822270324537678e-01
 9.032266348256714e-01	 4.876703496325702e-01	-6.474654293555351e-01
 8.985291171707118e-01	 4.962722861667687e-01	-6.006995171550309e-01
 8.937431662104189e-01	 5.048405072070253e-01	-5.006709502417594e-01
 8.888690985796693e-01	 5.133736777494393e-01	-3.028940676344480e-01
 8.839072572900483e-01	 5.218704656173233e-01	 4.031494534491609e-02
 8.788580117394046e-01	 5.303295421029417e-01	 5.798042657030600e-01
 9.333326541052582e-01	 4.480199525697459e-01	 4.419367571001999e-01
 9.290445879458680e-01	 4.568456021736130e-01	 4.825029874004034e-01
 9.246661289961033e-01	 4.656439992413594e-01	 3.706412860111761e-01
 9.201974643785068e-01	 4.744137926169062e-01	 1.490126109944361e-01
 9.156388074983086e-01	 4.831536308173199e-01	-1.348502827683822e-01
 9.109903981431454e-01	 4.918621626588275e-01	-4.285614375257936e-01
 9.062525025652485e-01	 5.005380378882299e-01	-6.749071449297395e-01
 9.014254135458306e-01	 5.091799078191523e-01	-8.118782976409649e-01
 8.965094504414431e-01	 5.177864259725528e-01	-7.727096690816309e-01
 8.915049592120664e-01	 5.263562487209043e-01	-4.859261377618118e-01
 8.864123124307511e-01	 5.348880359354498e-01	 1.246041399505842e-01
 9.412867534401580e-01	 4.518380930720615e-01	 1.786262750698110e+00
 9.369621432853240e-01	 4.607389571167452e-01	 1.302698287478609e+00
 9.325463699896418e-01	 4.696123363722164e-01	 7.091201274585429e-01
 9.280396222703682e-01	 4.784568681674906e-01	 5.646018825030774e-02
 9.234421153514332e-01	 4.872711895019432e-01	-5.985764506383653e-01
 9.187540910640122e-01	 4.960539376766596e-01	-1.193535146426211e+00
 9.139758179294120e-01	 5.048037509312295e-01	-1.660243485423793e+00
 9.091075912240104e-01	 5.135192690854202e-01	-1.924851316115506e+00
 9.041497330260017e-01	 5.221991341851426e-01	-1.907879055204684e+00
 8.991025922437338e-01	 5.308419911521246e-01	-1.524274283899848e+00
 8.939665446254272e-01	 5.394464884366806e-01	-6.834766365493636e-01
 9.492407964280759e-01	 4.556562065255140e-01	 2.534228299334893e+00
 9.448796425366777e-01	 4.646322844783374e-01	 1.387581244110265e+00
 9.404265551594381e-01	 4.735806453905491e-01	 2.327992692603649e-01
 9.358817246083116e-01	 4.824999150763336e-01	-8.769880071762959e-01
 9.312453679259155e-01	 4.913887190174496e-01	-1.882637508953067e+00
 9.265177289869452e-01	 5.002456829999145e-01	-2.719018527203593e+00
 9.216990785817664e-01	 5.090694337561815e-01	-3.315047125708865e+00
 9.167897144818992e-01	 5.178585996122334e-01	-3.593729172847354e+00
 9.117899614871610e-01	 5.266118111390078e-01	-3.472212031761731e+00
 9.067001714542431e-01	 5.353277018075605e-01	-2.861844924559324e+00
 9.015207233065106e-01	 5.440049086473518e-01	-1.668247970437786e+00
 9.571947988454013e-01	 4.594743005032184e-01	 2.602203486028400e+00
 9.527971014038353e-01	 4.685255919806352e-01	 7.421993922490452e-01
 9.483067001353794e-01	 4.775489341672630e-01	-9.791401881944293e-01
 9.437237869466789e-01	 4.865429413625085e-01	-2.512399651842324e+00
 9.390485806990231e-01	 4.955062275305661e-01	-3.802559609817275e+00
 9.342813273106181e-01	 5.044374069424400e-01	-4.789022198413701e+00
 9.294222998408734e-01	 5.133350948234994e-01	-5.405644417756735e+00
 9.244717985564375e-01	 5.221979080059954e-01	-5.580779539704432e+00
 9.194301509787368e-01	 5.310244655859463e-01	-5.237326611723523e+00
 9.142977119127867e-01	 5.398133895837890e-01	-4.292788068813855e+00
 9.090748634570801e-01	 5.485633056081808e-01	-2.659335450718793e+00
 9.651487764685219e-01	 4.632923825782889e-01	 1.909361901836820e+00
 9.607145355907024e-01	 4.724188873458850e-01	-6.285187745783698e-01
 9.561868205473563e-01	 4.815172105732643e-01	-2.850079822379127e+00
 9.515658248398112e-01	 4.905859550450882e-01	-4.715375077823190e+00
 9.468517691480248e-01	 4.996237232080208e-01	-6.179903492791571e+00
 9.420449014337045e-01	 5.086291178180842e-01	-7.194631223030210e+00
 9.371454970252964e-01	 5.176007425935968e-01	-7.706020266863579e+00
 9.321538586845686e-01	 5.265372028731108e-01	-7.656063683930274e+00
 9.270703166545445e-01	 5.354371062777572e-01	-6.982327411830829e+00
 9.218952286885570e-01	 5.442990633773857e-01	-5.617998686770596e+00
 9.166289800602130e-01	 5.531216883598840e-01	-3.491941062352677e+00
 9.731027450738268e-01	 4.671104603238400e-01	 3.775663314380644e-01
 9.686319608011851e-01	 4.763121782963325e-01	-2.719758684158730e+00
 9.640669320252565e-01	 4.854854824794586e-01	-5.305858931594418e+00
 9.594078538420502e-01	 4.946289641431463e-01	-7.355861858505930e+00
 9.546549487501882e-01	 5.037412142165409e-01	-8.842017760424296e+00
 9.498084667548776e-01	 5.128208239406948e-01	-9.733715972859024e+00
 9.448686854535973e-01	 5.218663855268871e-01	-9.997505221457365e+00
 9.398359101032321e-01	 5.308764928199834e-01	-9.597118142438884e+00
 9.347104736684004e-01	 5.398497419662385e-01	-8.493499978366536e+00
 9.294927368507461e-01	 5.487847320849273e-01	-6.644841447127712e+00
 9.241830880989882e-01	 5.576800659431796e-01	-4.006615774778846e+00
 9.810567204377049e-01	 4.709285413129863e-01	-2.068740040023000e+00
 9.765493927391889e-01	 4.802054725542235e-01	-5.526814884113278e+00
 9.719470501989695e-01	 4.894537577567515e-01	-8.274674778451409e+00
 9.672498895077370e-01	 4.986719766757557e-01	-1.030797852941495e+01
 9.624581349827819e-01	 5.078587087228539e-01	-1.162180428734180e+01
 9.575720386728110e-01	 5.170125336241197e-01	-1.221065720115873e+01
 9.525918804443397e-01	 5.261320320837842e-01	-1.206847793472013e+01
 9.475179680493709e-01	 5.352157864530170e-01	-1.118865203405296e+01
 9.423506371741205e-01	 5.442623814031888e-01	-9.564020133797559e+00
 9.370902514685465e-01	 5.532704046029900e-01	-7.186888990317469e+00
 9.317372025564836e-01	 5.622384473987843e-01	-4.049043328227080e+00
 8.561945488545586e-01	 5.166537222105835e-01	-2.026399482651225e+00
 8.511907456626934e-01	 5.248566319374305e-01	-5.508748868555107e-01
 8.461025901846804e-01	 5.330202275143922e-01	 6.239140596953279e-01
 8.409305205124762e-01	 5.411432294266815e-01	 1.514136771349050e+00
 8.356750002871786e-01	 5.492243640870376e-01	 2.136101056950783e+00
 8.303365186157974e-01	 5.572623644660746e-01	 2.506231615395231e+00
 8.249155899695261e-01	 5.652559707219061e-01	 2.641048392324666e+00
 8.194127540634818e-01	 5.732039308284176e-01	 2.557144827677459e+00
 8.138285757179111e-01	 5.811050012015556e-01	 2.271166023315942e+00
 8.081636447008754e-01	 5.889579473229990e-01	 1.799786859413529e+00
 8.024185755524645e-01	 5.967615443605806e-01	 1.159690087660069e+00
 8.637491449343864e-01	 5.212123942812260e-01	-3.038009090504801e-01
 8.587011908977178e-01	 5.294876820298390e-01	 6.371419771808395e-01
 8.535681402961494e-01	 5.377233087419441e-01	 1.410650848654559e+00
 8.483504350871245e-01	 5.459179836130426e-01	 2.015161012433416e+00
 8.430485430026597e-01	 5.540704218184632e-01	 2.448352984391390e+00
 8.376629574653811e-01	 5.621793451492738e-01	 2.707153006870849e+00
 8.321941974858973e-01	 5.702434826474593e-01	 2.787734843104335e+00
 8.266428075414806e-01	 5.782615712397395e-01	 2.685522851031160e+00
 8.210093574360455e-01	 5.862323563693832e-01	 2.395196335601933e+00
 8.152944421414487e-01	 5.941545926253828e-01	 1.910695175090299e+00
 8.094986816201494e-01	 6.020270443683502e-01	 1.225226713337309e+00
 8.713036275683089e-01	 5.257709978984395e-01	 4.998660792912477e-01
 8.662115233500910e-01	 5.341186625824692e-01	 1.180794752938932e+00
 8.610335782993952e-01	 5.424263193485215e-01	 1.783823822396714e+00
 8.557702382390909e-01	 5.506926661025537e-01	 2.293332356559035e+00
 8.504219749920489e-01	 5.589164067826506e-01	 2.692253866039414e+00
 8.449892862964444e-01	 5.670962520004978e-01	 2.962094707266952e+00
 8.394726957022308e-01	 5.752309196821163e-01	 3.082954871938989e+00
 8.338727524487609e-01	 5.833191357072233e-01	 3.033551142107326e+00
 8.281900313235401e-01	 5.913596345465710e-01	 2.791242585211600e+00
 8.224251325021389e-01	 5.993511598966268e-01	 2.332058357407819e+00
 8.165786813693012e-01	 6.072924653109393e-01	 1.630727777596151e+00
 8.788580117394046e-01	 5.303295421029417e-01	 5.798042657030591e-01
 8.737217579152943e-01	 5.387495827795208e-01	 1.229591964652864e+00
 8.684989190008251e-01	 5.471292686611281e-01	 1.851806692077869e+00
 8.631899446842412e-01	 5.554672863643203e-01	 2.420342331291891e+00
 8.577953108792116e-01	 5.637623285900818e-01	 2.907155269812974e+00
 8.523155196394018e-01	 5.720130947708595e-01	 3.282296618457936e+00
 8.467510990540494e-01	 5.802182917168527e-01	 3.513947621566686e+00
 8.411026031245225e-01	 5.883766342609167e-01	 3.568458220940667e+00
 8.353706116218506e-01	 5.964868459014283e-01	 3.410388728318513e+00
 8.295557299252466e-01	 6.045476594424677e-01	 3.002554553478803e+00
 8.236585888416686e-01	 6.125578176306615e-01	 2.306073927380035e+00
 8.864123124307511e-01	 5.348880359354498e-01	 1.246041399505851e-01
 8.812319094888068e-01	 5.433804518051942e-01	 9.279873998706893e-01
 8.759641772068461e-01	 5.518321660067671e-01	 1.719320836302318e+00
 8.706095691384411e-01	 5.602418538674465e-01	 2.465480995540652e+00
 8.651685652880142e-01	 5.686081968512386e-01	 3.131110351306172e+00
 8.596416720246698e-01	 5.769298832114717e-01	 3.678659329457639e+00
 8.540294219768775e-01	 5.852056086426440e-01	 4.068432030861599e+00
 8.483323739079661e-01	 5.934340769308681e-01	 4.258635601909149e+00
 8.425511125724330e-01	 6.016140006022647e-01	 4.205433193236524e+00
 8.366862485530752e-01	 6.097441015686451e-01	 3.863000438319791e+00
 8.307384180790003e-01	 6.178231117698287e-01	 3.183585374806391e+00
 8.939665446254272e-01	 5.394464884366806e-01	-6.834766365493619e-01
 8.887419929661107e-01	 5.480112788436901e-01	 4.155936299387786e-01
 8.834293677238655e-01	 5.565350207124422e-01	 1.487589454814209e+00
 8.780291263175578e-01	 5.650163780810377e-01	 2.495738150100685e+00
 8.725417528423216e-01	 5.734540211766025e-01	 3.400928385347422e+00
 8.669677579826620e-01	 5.818466270734466e-01	 4.161758068575526e+00
 8.613076789062371e-01	 5.901928803504651e-01	 4.734586137596196e+00
 8.555620791382921e-01	 5.984914737471259e-01	 5.073588202643319e+00
 8.497315484167444e-01	 6.067411088173905e-01	 5.130815971768956e+00
 8.438167025279261e-01	 6.149404965808971e-01	 4.856260381020111e+00
 8.378181831230445e-01	 6.230883581707538e-01	 4.197918342080360e+00
 9.015207233065106e-01	 5.440049086473518e-01	-1.668247970437784e+00
 8.962520232426849e-01	 5.526420730792081e-01	-1.726153436037903e-01
 8.908945053582911e-01	 5.612378421051567e-01	 1.254483846633369e+00
 8.854486309374568e-01	 5.697908684741977e-01	 2.575899346674471e+00
 8.799148881660003e-01	 5.782998111766552e-01	 3.752226453627181e+00
 8.742937920437945e-01	 5.867633361078972e-01	 4.741855861114020e+00
 8.685858842776520e-01	 5.951801167312915e-01	 5.501027336666340e+00
 8.627917331547008e-01	 6.035488347397386e-01	 5.983887167587820e+00
 8.569119333962408e-01	 6.118681807151147e-01	 6.142549302726125e+00
 8.509471059921021e-01	 6.201368547849615e-01	 5.927160108217298e+00
 8.448978980155512e-01	 6.283535672757500e-01	 5.285966645999933e+00
 9.090748634570801e-01	 5.485633056081808e-01	-2.659335450718795e+00
 9.037620152140117e-01	 5.572728436959491e-01	-7.061116810986734e-01
 8.983596049165294e-01	 5.659406395119149e-01	 1.114662272976134e+00
 8.928680977140043e-01	 5.745653345160320e-01	 2.768636999398066e+00
 8.872879858829165e-01	 5.831455764618790e-01	 4.219478454609582e+00
 8.816197887384816e-01	 5.916800200659359e-01	 5.428915939018018e+00
 8.758640525266459e-01	 6.001673276760989e-01	 6.356793537896512e+00
 8.700213502963929e-01	 6.086061699387545e-01	 6.961124965033545e+00
 8.640922817523794e-01	 6.169952264637478e-01	 7.198151737596714e+00
 8.580774730879046e-01	 6.253331864865770e-01	 7.022404601953932e+00
 8.519775767982680e-01	 6.336187495271290e-01	 6.386768121581115e+00
 9.166289800602130e-01	 5.531216883598840e-01	-3.491941062352676e+00
 9.112719837755705e-01	 5.619035998781131e-01	-1.058630941805870e+00
 9.058246812049882e-01	 5.706434222597192e-01	 1.159701834796816e+00
 9.002875413630671e-01	 5.793397856756451e-01	 3.134596882751957e+00
 8.946610606169344e-01	 5.879913266427550e-01	 4.836061590922412e+00
 8.889457625971390e-01	 5.965966886986754e-01	 6.232613445804025e+00
 8.831421980887418e-01	 6.051545230758629e-01	 7.291325171236325e+00
 8.772509449025682e-01	 6.136634893742215e-01	 7.977872625784249e+00
 8.712726077266154e-01	 6.221222562315994e-01	 8.256585392263597e+00
 8.652078179576365e-01	 6.305295019914821e-01	 8.090499986400124e+00
 8.590572335129438e-01	 6.388839153672046e-01	 7.441415604229942e+00
 9.241830880989882e-01	 5.576800659431796e-01	-4.006615774778846e+00
 9.187819438228425e-01	 5.665343508099006e-01	-1.107998411408178e+00
 9.132897490300741e-01	 5.753461996755740e-01	 1.478223766533092e+00
 9.077069766005101e-01	 5.841142314221418e-01	 3.732480281074246e+00
 9.020341269919213e-01	 5.928370713297655e-01	 5.634300479213659e+00
 8.962717281501817e-01	 6.015133517572285e-01	 7.162346477241355e+00
 8.904203353994636e-01	 6.101417128215584e-01	 8.294447990580329e+00
 8.844805313124273e-01	 6.187208030761884e-01	 9.007639000275255e+00
 8.784529255604061e-01	 6.272492801869793e-01	 9.278196201532200e+00
 8.723381547435993e-01	 6.357258116054149e-01	 9.081679174050930e+00
 8.661368822013277e-01	 6.441490752382886e-01	 8.392972208315671e+00
 9.317372025564836e-01	 5.622384473987843e-01	-4.049043328227082e+00
 9.262919102513079e-01	 5.711651056755117e-01	-7.359640016299605e-01
 9.207548231981949e-01	 5.800489810864823e-01	 2.156012521459538e+00
 9.151264181422006e-01	 5.888886812246268e-01	 4.619122037600987e+00
 9.094071996317424e-01	 5.976828201333920e-01	 6.645509018006400e+00
 9.035976999280246e-01	 6.064300189927078e-01	 8.227246495611917e+00
 8.976984788943334e-01	 6.151289068041607e-01	 9.356356630613083e+00
 8.917101238651709e-01	 6.237781210747034e-01	 1.002483191898217e+01
 8.856332494952078e-01	 6.323763084981971e-01	 1.022465700517270e+01
 8.794684975880961e-01	 6.409221256341138e-01	 9.947831056948690e+00
 8.732165369051681e-01	 6.494142395826942e-01	 9.186390657075275e+00
 8.024185755524645e-01	 5.967615443605806e-01	 1.159690087660068e+00
 7.965930109800831e-01	 6.045158907765116e-01	 4.639369000422041e-01
 7.906885874742027e-01	 6.122184477348452e-01	-1.889398600422240e-01
 7.847059963145351e-01	 6.198680180939394e-01	-8.022278101612307e-01
 7.786459526990358e-01	 6.274634168227140e-01	-1.376269756875663e+00
 7.725091954758022e-01	 6.350034715981188e-01	-1.908446112780824e+00
 7.662964868572391e-01	 6.424870233956012e-01	-2.393161377669915e+00
 7.600086121167052e-01	 6.499129270719646e-01	-2.821834740661665e+00
 7.536463792678838e-01	 6.572800519400025e-01	-3.182894852976096e+00
 7.472106187271417e-01	 6.645872823343153e-01	-3.461778813668862e+00
 7.407021829591638e-01	 6.718335181677186e-01	-3.640935404032245e+00
 8.094986816201494e-01	 6.020270443683502e-01	 1.225226713337309e+00
 8.036217154269951e-01	 6.098498109292910e-01	 4.677532832663903e-01
 7.976651944919537e-01	 6.176203310709076e-01	-2.239865506101981e-01
 7.916298161942060e-01	 6.253373970885747e-01	-8.430816459740921e-01
 7.855163020422161e-01	 6.329998134950842e-01	-1.380637270997044e+00
 7.793253974032675e-01	 6.406063976233868e-01	-1.825774893684138e+00
 7.730578712151039e-01	 6.481559802222706e-01	-2.165634736277139e+00
 7.667145156799011e-01	 6.556474060443600e-01	-2.385381119344382e+00
 7.602961459408082e-01	 6.630795344258220e-01	-2.468210615534582e+00
 7.538035997413250e-01	 6.704512398571739e-01	-2.395363028195003e+00
 7.472377370678133e-01	 6.777614125446016e-01	-2.146135205151067e+00
 8.165786813693012e-01	 6.072924653109393e-01	 1.630727777596153e+00
 8.106503143273643e-01	 6.151836509892984e-01	 8.319922605798826e-01
 8.046416967455776e-01	 6.230221332934016e-01	 1.077711194121495e-01
 7.985535321025004e-01	 6.308066939558101e-01	-5.269352884581204e-01
 7.923865482170144e-01	 6.385361270333599e-01	-1.055958154350479e+00
 7.861414969754934e-01	 6.462092395151721e-01	-1.461974063790480e+00
 7.798191540409224e-01	 6.538248519235408e-01	-1.726520498790892e+00
 7.734203185441926e-01	 6.613817989070782e-01	-1.830012995434303e+00
 7.669458127578129e-01	 6.688789298254855e-01	-1.751763952724825e+00
 7.603964817523109e-01	 6.763151093253599e-01	-1.470003086124045e+00
 7.537731930356146e-01	 6.836892179064176e-01	-9.618995165693125e-01
 8.236585888416686e-01	 6.125578176306615e-01	 2.306073927380035e+00
 8.176788216209810e-01	 6.205174215345686e-01	 1.481265452185089e+00
 8.116181080715288e-01	 6.284238651151836e-01	 7.292537524525139e-01
 8.054771577711725e-01	 6.362759195424054e-01	 7.107463130225414e-02
 7.992567048491315e-01	 6.440723684172610e-01	-4.717393437334088e-01
 7.929575077107871e-01	 6.518120083851870e-01	-8.771834766087617e-01
 7.865803487442807e-01	 6.594936497421310e-01	-1.122806315473683e+00
 7.801260340091297e-01	 6.671161170328332e-01	-1.185735740453748e+00
 7.735953929071139e-01	 6.746782496406746e-01	-1.042705744081649e+00
 7.669892778356941e-01	 6.821789023684698e-01	-6.700838812688570e-01
 7.603085638242696e-01	 6.896169460096039e-01	-4.389936499563640e-02
 8.307384180790003e-01	 6.178231117698287e-01	 3.183585374806391e+00
 8.247072512476353e-01	 6.258511331431356e-01	 2.342804744862203e+00
 8.185944423062617e-01	 6.338255372491119e-01	 1.566060895981050e+00
 8.124007069319761e-01	 6.417450846951208e-01	 8.784251968725538e-01
 8.061267855642680e-01	 6.496085486265063e-01	 3.049350016976921e-01
 7.997734431274555e-01	 6.574147153451445e-01	-1.294385595284048e-01
 7.933414687347635e-01	 6.651623849207586e-01	-3.998227929198756e-01
 7.868316753742628e-01	 6.728503717943410e-01	-4.814756190497999e-01
 7.802448995769263e-01	 6.804775053730707e-01	-3.498176823718195e-01
 7.735820010670694e-01	 6.880426306160995e-01	 1.953564271093433e-02
 7.668438623954803e-01	 6.955446086105990e-01	 6.507423827516527e-01
 8.378181831230445e-01	 6.230883581707538e-01	 4.197918342080360e+00
 8.317356171471174e-01	 6.311847963930338e-01	 3.346351105018489e+00
 8.255707132862306e-01	 6.392271604080448e-01	 2.546357385542045e+00
 8.193241933166653e-01	 6.472142002607169e-01	 1.825096322025939e+00
 8.129968039881240e-01	 6.551446786408139e-01	 1.209300707943186e+00
 8.065893167438050e-01	 6.630173715067564e-01	 7.252403780924378e-01
 8.001025274219574e-01	 6.708310687021428e-01	 3.986861437441896e-01
 7.935372559391436e-01	 6.785845745643170e-01	 2.548743212225846e-01
 7.868943459554661e-01	 6.862767085243553e-01	 3.184718965267364e-01
 7.801746645220309e-01	 6.939063056978452e-01	 6.135423666405422e-01
 7.733791017109483e-01	 7.014722174658394e-01	 1.163512296192687e+00
 8.448978980155512e-01	 6.283535672757500e-01	 5.285966645999932e+00
 8.387639332592167e-01	 6.365184218622979e-01	 4.424048916548715e+00
 8.325469348478910e-01	 6.446287453048386e-01	 3.600765337091103e+00
 8.262476306569944e-01	 6.526832770859530e-01	 2.843465375297828e+00
 8.198667737464004e-01	 6.606807694399038e-01	 2.178815893675947e+00
 8.134051420781427e-01	 6.686199879817359e-01	 1.632763255464211e+00
 8.068635382154477e-01	 6.764997123290019e-01	 1.230496350044455e+00
 8.002427890033217e-01	 6.843187367154759e-01	 9.964105851069482e-01
 7.935437452309484e-01	 6.920758705962095e-01	 9.540728901053230e-01
 7.867672812761725e-01	 6.997699392433018e-01	 1.126187772785831e+00
 7.799142947323758e-01	 7.073997843317636e-01	 1.534564467788534e+00
 8.519775767982680e-01	 6.336187495271290e-01	 6.386768121581115e+00
 8.457922135237235e-01	 6.418520201289618e-01	 5.510345520516942e+00
 8.395231208276964e-01	 6.500303026523526e-01	 4.662261458370818e+00
 8.331710326847167e-01	 6.581523260175891e-01	 3.868206991472873e+00
 8.267367084647974e-01	 6.662168320034949e-01	 3.153068079601554e+00
 8.202209326487752e-01	 6.742225758817946e-01	 2.540889491204855e+00
 8.136245145248202e-01	 6.821683270440537e-01	 2.054839820360983e+00
 8.069482878663485e-01	 6.900528696205332e-01	 1.717177659749666e+00
 8.001931105915888e-01	 6.978750030903157e-01	 1.549218970746971e+00
 7.933598644050892e-01	 7.056335428820665e-01	 1.571305688554349e+00
 7.864494544214645e-01	 7.133273209648090e-01	 1.802775597047474e+00
 8.590572335129438e-01	 6.388839153672046e-01	 7.441415604229942e+00
 8.528204718804285e-01	 6.471856017710603e-01	 6.541895655060125e+00
 8.464992850621017e-01	 6.554318431634429e-01	 5.666079370930509e+00
 8.400944131315864e-01	 6.636213579023855e-01	 4.836197769268403e+00
 8.336066217690161e-01	 6.717528773113061e-01	 4.073685821252042e+00
 8.270367019740094e-01	 6.798251463186452e-01	 3.399151193261418e+00
 8.203854697596604e-01	 6.878369240900172e-01	 2.832344116178479e+00
 8.136537658277739e-01	 6.957869846522043e-01	 2.392128418220629e+00
 8.068424552256028e-01	 7.036741175083541e-01	 2.096453753701700e+00
 7.999524269843750e-01	 7.114971282437339e-01	 1.962329056807496e+00
 7.929845937399159e-01	 7.192548391214126e-01	 2.005797246162255e+00
 8.661368822013277e-01	 6.441490752382886e-01	 8.392972208315671e+00
 8.598487222691207e-01	 6.525191773666280e-01	 7.457470513722898e+00
 8.534754413875616e-01	 6.608333775509690e-01	 6.549616654650468e+00
 8.470177857293582e-01	 6.690903835871029e-01	 5.686425574230904e+00
 8.404765272847562e-01	 6.772889163430560e-01	 4.884254605087895e+00
 8.338524635721513e-01	 6.854277104040002e-01	 4.158780042537209e+00
 8.271464173295543e-01	 6.935055147096107e-01	 3.524974687825251e+00
 8.203592361871495e-01	 7.015210931832043e-01	 2.997086382942334e+00
 8.134917923212063e-01	 7.094732253520071e-01	 2.588617555452548e+00
 8.065449820896243e-01	 7.173607069579004e-01	 2.312305788706511e+00
 7.995197256494324e-01	 7.251823505580131e-01	 2.180105429761383e+00
 8.732165369051681e-01	 6.494142395826942e-01	 9.186390657075275e+00
 8.668769786295907e-01	 6.578527574936988e-01	 8.197871158789013e+00
 8.604516036405305e-01	 6.662349165277870e-01	 7.252346345401770e+00
 8.539411642097845e-01	 6.745594139185001e-01	 6.359903184165467e+00
 8.473464386377192e-01	 6.828249600784643e-01	 5.530236764726122e+00
 8.406682309615092e-01	 6.910302792495726e-01	 4.772637659526697e+00
 8.339073706440876e-01	 6.991741101455530e-01	 4.095979924637834e+00
 8.270647122440257e-01	 7.072552065862484e-01	 3.508709742908806e+00
 8.201411350666138e-01	 7.152723381229559e-01	 3.018834708751773e+00
 8.131375427964318e-01	 7.232242906541624e-01	 2.633913751362245e+00
 8.060548631117155e-01	 7.311098670310472e-01	 2.361047690753492e+00
 7.407021829591638e-01	 6.718335181677186e-01	-3.640935404032245e+00
 7.341230687229586e-01	 6.790164615925394e-01	-3.677338319870519e+00
 7.274730610723107e-01	 6.861362925476358e-01	-3.543427545884731e+00
 7.207530641401294e-01	 6.931919731627650e-01	-3.246448251127148e+00
 7.139640025157525e-01	 7.001824832538673e-01	-2.798829137439852e+00
 7.071068208180253e-01	 7.071068208180252e-01	-2.218173608800773e+00
 7.001824832538673e-01	 7.139640025157528e-01	-1.527243896842572e+00
 6.931919731627649e-01	 7.207530641401293e-01	-7.539381509940499e-01
 6.861362925476358e-01	 7.274730610723109e-01	 6.873948591122492e-02
 6.790164615925391e-01	 7.341230687229588e-01	 9.027157832888300e-01
 6.718335181677186e-01	 7.407021829591638e-01	 1.704892264017587e+00
 7.472377370678133e-01	 6.777614125446016e-01	-2.146135205151065e+00
 7.406005722975900e-01	 6.850077343654265e-01	-1.753878427612179e+00
 7.338918885878577e-01	 6.921903868461908e-01	-1.277929376649003e+00
 7.271125980490919e-01	 6.993083229590611e-01	-7.368135392656328e-01
 7.202636334286914e-01	 7.063605135184399e-01	-1.508006171872488e-01
 7.133459476802922e-01	 7.133459476802920e-01	 4.564989516756857e-01
 7.063605135184399e-01	 7.202636334286913e-01	 1.058158932972868e+00
 6.993083229590610e-01	 7.271125980490921e-01	 1.623966625483415e+00
 6.921903868461905e-01	 7.338918885878579e-01	 2.120456549026559e+00
 6.850077343654261e-01	 7.406005722975902e-01	 2.510948452254993e+00
 6.777614125446015e-01	 7.472377370678134e-01	 2.755949897160905e+00
 7.537731930356146e-01	 6.836892179064176e-01	-9.618995165693124e-01
 7.470779786030873e-01	 6.909989171712875e-01	-3.085621721112685e-01
 7.403106197153839e-01	 6.982443902341711e-01	 3.777767518486675e-01
 7.334720364604299e-01	 7.054245809097757e-01	 1.070364304084516e+00
 7.265631697435692e-01	 7.125384510110958e-01	 1.741101729413408e+00
 7.195849808531080e-01	 7.195849808531080e-01	 2.361710067277938e+00
 7.125384510110958e-01	 7.265631697435693e-01	 2.902156329681038e+00
 7.054245809097756e-01	 7.334720364604301e-01	 3.330687765439193e+00
 6.982443902341712e-01	 7.403106197153843e-01	 3.613868221923669e+00
 6.909989171712871e-01	 7.470779786030874e-01	 3.716891757240583e+00
 6.836892179064176e-01	 7.537731930356144e-01	 3.603574432219047e+00
 7.603085638242696e-01	 6.896169460096039e-01	-4.389936499563640e-02
 7.535553004860229e-01	 6.969900218922882e-01	 7.318559444711976e-01
 7.467292671850901e-01	 7.042983147183586e-01	 1.517151335012836e+00
 7.398313919867479e-01	 7.115407591451790e-01	 2.281256228331443e+00
 7.328626239541822e-01	 7.187163079844499e-01	 2.990575954520024e+00
 7.258239327102680e-01	 7.258239327102679e-01	 3.611981225357029e+00
 7.187163079844500e-01	 7.328626239541822e-01	 4.113362685331264e+00
 7.115407591451791e-01	 7.398313919867480e-01	 4.462180317948834e+00
 7.042983147183586e-01	 7.467292671850901e-01	 4.625673955302799e+00
 6.969900218922880e-01	 7.535553004860231e-01	 4.571014688886967e+00
 6.896169460096039e-01	 7.603085638242696e-01	 4.264880235257578e+00
 7.668438623954803e-01	 6.955446086105990e-01	 6.507423827516536e-01
 7.600325507929693e-01	 7.029810604105929e-01	 1.436734102137843e+00
 7.531478437271784e-01	 7.103521723055354e-01	 2.231336095967097e+00
 7.461906772406504e-01	 7.176568697955423e-01	 2.999752276659521e+00
 7.391620085543288e-01	 7.248940966911156e-01	 3.707510465097155e+00
 7.320628156255664e-01	 7.320628156255664e-01	 4.317996491489934e+00
 7.248940966911156e-01	 7.391620085543289e-01	 4.796756413646192e+00
 7.176568697955424e-01	 7.461906772406506e-01	 5.111265806085781e+00
 7.103521723055352e-01	 7.531478437271785e-01	 5.229910383392697e+00
 7.029810604105927e-01	 7.600325507929695e-01	 5.121729289866633e+00
 6.955446086105990e-01	 7.668438623954806e-01	 4.756404935329940e+00
 7.733791017109483e-01	 7.014722174658394e-01	 1.163512296192686e+00
 7.665097423704988e-01	 7.089720446083670e-01	 1.873145592072902e+00
 7.595663620718501e-01	 7.164059750024827e-01	 2.606846553449977e+00
 7.525499048347427e-01	 7.237729249911359e-01	 3.327494845285612e+00
 7.454613360378058e-01	 7.310718293837064e-01	 3.999132325524106e+00
 7.383016419727988e-01	 7.383016419727987e-01	 4.586770634196188e+00
 7.310718293837067e-01	 7.454613360378060e-01	 5.053829981071011e+00
 7.237729249911358e-01	 7.525499048347428e-01	 5.367568106701922e+00
 7.164059750024824e-01	 7.595663620718502e-01	 5.497828673242084e+00
 7.089720446083670e-01	 7.665097423704992e-01	 5.415819762016376e+00
 7.014722174658394e-01	 7.733791017109484e-01	 5.094134970960120e+00
 7.799142947323758e-01	 7.073997843317636e-01	 1.534564467788536e+00
 7.729868880651846e-01	 7.149629863677764e-01	 2.105974860169950e+00
 7.659848349493077e-01	 7.224597348159835e-01	 2.727353113839950e+00
 7.589090873816301e-01	 7.298889368622302e-01	 3.360988527710026e+00
 7.517606188984109e-01	 7.372495183148371e-01	 3.970814068533501e+00
 7.445404241257600e-01	 7.445404241257600e-01	 4.522406958205822e+00
 7.372495183148372e-01	 7.517606188984112e-01	 4.982551140858922e+00
 7.298889368622299e-01	 7.589090873816300e-01	 5.317495618661744e+00
 7.224597348159834e-01	 7.659848349493079e-01	 5.498301610240990e+00
 7.149629863677766e-01	 7.729868880651850e-01	 5.498512038389883e+00
 7.073997843317635e-01	 7.799142947323758e-01	 5.293529877145929e+00
 7.864494544214645e-01	 7.133273209648090e-01	 1.802775597047474e+00
 7.794640007235981e-01	 7.209538975709855e-01	 2.198008243941505e+00
 7.724032750897520e-01	 7.285134637528188e-01	 2.673804985694419e+00
 7.652682374939169e-01	 7.360049175390959e-01	 3.193561730468223e+00
 7.580598696299415e-01	 7.434271757371210e-01	 3.722492393725404e+00
 7.507791744582448e-01	 7.507791744582448e-01	 4.227402475875165e+00
 7.434271757371208e-01	 7.580598696299413e-01	 4.677851746873424e+00
 7.360049175390958e-01	 7.652682374939170e-01	 5.044594724044108e+00
 7.285134637528189e-01	 7.724032750897525e-01	 5.297924646505399e+00
 7.209538975709853e-01	 7.794640007235986e-01	 5.413539819757904e+00
 7.133273209648087e-01	 7.864494544214645e-01	 5.369545386799564e+00
 7.929845937399159e-01	 7.192548391214126e-01	 2.005797246162255e+00
 7.859410931923126e-01	 7.269447901001596e-01	 2.210020109822147e+00
 7.788216952233861e-01	 7.345671738197718e-01	 2.524542055100726e+00
 7.716273677842082e-01	 7.421208791520038e-01	 2.915504477870175e+00
 7.643591007261943e-01	 7.496048139031718e-01	 3.350258178902345e+00
 7.570179053440483e-01	 7.570179053440486e-01	 3.798903441057303e+00
 7.496048139031719e-01	 7.643591007261945e-01	 4.233931399051109e+00
 7.421208791520038e-01	 7.716273677842083e-01	 4.629762784409980e+00
 7.345671738197715e-01	 7.788216952233864e-01	 4.961111104170554e+00
 7.269447901001591e-01	 7.859410931923128e-01	 5.203207361752820e+00
 7.192548391214126e-01	 7.929845937399160e-01	 5.336655415418393e+00
 7.995197256494324e-01	 7.251823505580131e-01	 2.180105429761383e+00
 7.924181783178998e-01	 7.329356758374636e-01	 2.200854655282911e+00
 7.852401080804104e-01	 7.406208770236232e-01	 2.355401157958664e+00
 7.779864908651088e-01	 7.482368338312242e-01	 2.613541997216224e+00
 7.706583246809673e-01	 7.557824450656035e-01	 2.947125695792317e+00
 7.632566291569655e-01	 7.632566291569653e-01	 3.330647221396496e+00
 7.557824450656037e-01	 7.706583246809673e-01	 3.740215053095607e+00
 7.482368338312242e-01	 7.779864908651088e-01	 4.153583573657031e+00
 7.406208770236232e-01	 7.852401080804107e-01	 4.550182719531962e+00
 7.329356758374633e-01	 7.924181783179000e-01	 4.908449199549535e+00
 7.251823505580127e-01	 7.995197256494323e-01	 5.208872993261284e+00
 8.060548631117155e-01	 7.311098670310472e-01	 2.361047690753492e+00
 7.988952689469325e-01	 7.389265666650634e-01	 2.227503622932504e+00
 7.916585263910276e-01	 7.466745853711559e-01	 2.239176629440362e+00
 7.843456193492238e-01	 7.543527937070280e-01	 2.371598878189105e+00
 7.769575539880575e-01	 7.619600814770303e-01	 2.603147402151226e+00
 7.694953582707912e-01	 7.694953582707911e-01	 2.913324440523632e+00
 7.619600814770304e-01	 7.769575539880578e-01	 3.282721548465878e+00
 7.543527937070278e-01	 7.843456193492236e-01	 3.693046130849547e+00
 7.466745853711558e-01	 7.916585263910276e-01	 4.127146210737214e+00
 7.389265666650633e-01	 7.988952689469326e-01	 4.568886984797512e+00
 7.311098670310470e-01	 8.060548631117156e-01	 4.999770205119800e+00
 6.718335181677186e-01	 7.407021829591638e-01	 1.704892264017587e+00
 6.645872823343156e-01	 7.472106187271413e-01	 2.305353588345151e+00
 6.572800519400028e-01	 7.536463792678837e-01	 2.574500022837595e+00
 6.499129270719648e-01	 7.600086121167050e-01	 2.530565130395248e+00
 6.424870233956014e-01	 7.662964868572387e-01	 2.197355170595665e+00
 6.350034715981191e-01	 7.725091954758020e-01	 1.604197569065382e+00
 6.274634168227144e-01	 7.786459526990355e-01	 7.858818254322815e-01
 6.198680180939397e-01	 7.847059963145349e-01	-2.174069993653496e-01
 6.122184477348455e-01	 7.906885874742023e-01	-1.360162062098630e+00
 6.045158907765119e-01	 7.965930109800829e-01	-2.591635615004204e+00
 5.967615443605807e-01	 8.024185755524647e-01	-3.855926801958224e+00
 6.777614125446015e-01	 7.472377370678134e-01	 2.755949897160905e+00
 6.704512398571738e-01	 7.538035997413243e-01	 2.793418593944901e+00
 6.630795344258222e-01	 7.602961459408076e-01	 2.603381043670832e+00
 6.556474060443600e-01	 7.667145156799008e-01	 2.210501398426500e+00
 6.481559802222708e-01	 7.730578712151039e-01	 1.643418109639479e+00
 6.406063976233870e-01	 7.793253974032672e-01	 9.346912847135105e-01
 6.329998134950845e-01	 7.855163020422160e-01	 1.207447125639765e-01
 6.253373970885753e-01	 7.916298161942056e-01	-7.581973104543716e-01
 6.176203310709081e-01	 7.976651944919537e-01	-1.658178213275161e+00
 6.098498109292915e-01	 8.036217154269948e-01	-2.531582291566995e+00
 6.020270443683503e-01	 8.094986816201495e-01	-3.327212599450684e+00
 6.836892179064176e-01	 7.537731930356144e-01	 3.603574432219046e+00
 6.763151093253604e-01	 7.603964817523108e-01	 3.282288991431277e+00
 6.688789298254858e-01	 7.669458127578128e-01	 2.805086243526497e+00
 6.613817989070783e-01	 7.734203185441922e-01	 2.201711133922257e+00
 6.538248519235411e-01	 7.798191540409223e-01	 1.504509163466351e+00
 6.462092395151726e-01	 7.861414969754933e-01	 7.483732937239678e-01
 6.385361270333604e-01	 7.923865482170143e-01	-2.931255920352838e-02
 6.308066939558106e-01	 7.985535321025001e-01	-7.887333192519259e-01
 6.230221332934019e-01	 8.046416967455774e-01	-1.487705704560521e+00
 6.151836509892988e-01	 8.106503143273640e-01	-2.081744207131123e+00
 6.072924653109394e-01	 8.165786813693011e-01	-2.524129959011654e+00
 6.896169460096039e-01	 7.603085638242696e-01	 4.264880235257578e+00
 6.821789023684701e-01	 7.669892778356936e-01	 3.755335829440801e+00
 6.746782496406749e-01	 7.735953929071133e-01	 3.134569419071266e+00
 6.671161170328336e-01	 7.801260340091294e-01	 2.436080023250003e+00
 6.594936497421313e-01	 7.865803487442801e-01	 1.694814075110327e+00
 6.518120083851873e-01	 7.929575077107869e-01	 9.471125299961423e-01
 6.440723684172615e-01	 7.992567048491314e-01	 2.306561756725896e-01
 6.362759195424057e-01	 8.054771577711719e-01	-4.155907401685299e-01
 6.284238651151838e-01	 8.116181080715283e-01	-9.514384472593029e-01
 6.205174215345687e-01	 8.176788216209809e-01	-1.335531034913841e+00
 6.125578176306614e-01	 8.236585888416685e-01	-1.525407157136056e+00
 6.955446086105990e-01	 7.668438623954806e-01	 4.756404935329941e+00
 6.880426306160998e-01	 7.735820010670689e-01	 4.196502913954323e+00
 6.804775053730712e-01	 7.802448995769261e-01	 3.548324982730581e+00
 6.728503717943414e-01	 7.868316753742626e-01	 2.847819822495317e+00
 6.651623849207594e-01	 7.933414687347632e-01	 2.131447074418282e+00
 6.574147153451448e-01	 7.997734431274558e-01	 1.436125298616116e+00
 6.496085486265061e-01	 8.061267855642678e-01	 7.991794463270341e-01
 6.417450846951215e-01	 8.124007069319756e-01	 2.582879536927090e-01
 6.338255372491125e-01	 8.185944423062615e-01	-1.485704347695491e-01
 6.258511331431357e-01	 8.247072512476352e-01	-3.831700052441145e-01
 6.178231117698285e-01	 8.307384180790000e-01	-4.070914691546534e-01
 7.014722174658394e-01	 7.733791017109484e-01	 5.094134970960119e+00
 6.939063056978454e-01	 7.801746645220303e-01	 4.590283677374400e+00
 6.862767085243556e-01	 7.868943459554656e-01	 4.004323836733361e+00
 6.785845745643173e-01	 7.935372559391431e-01	 3.373370951919775e+00
 6.708310687021432e-01	 8.001025274219570e-01	 2.734327935819457e+00
 6.630173715067569e-01	 8.065893167438052e-01	 2.123834561410892e+00
 6.551446786408142e-01	 8.129968039881238e-01	 1.578217438994906e+00
 6.472142002607170e-01	 8.193241933166648e-01	 1.133440621984530e+00
 6.392271604080451e-01	 8.255707132862308e-01	 8.250569407398256e-01
 6.311847963930342e-01	 8.317356171471170e-01	 6.881601616640958e-01
 6.230883581707538e-01	 8.378181831230447e-01	 7.573380661889448e-01
 7.073997843317635e-01	 7.799142947323758e-01	 5.293529877145929e+00
 6.997699392433021e-01	 7.867672812761722e-01	 4.921699246988624e+00
 6.920758705962100e-01	 7.935437452309481e-01	 4.461952516981822e+00
 6.843187367154763e-01	 8.002427890033215e-01	 3.951310040822436e+00
 6.764997123290020e-01	 8.068635382154474e-01	 3.426065275831028e+00
 6.686199879817362e-01	 8.134051420781426e-01	 2.921736359237442e+00
 6.606807694399039e-01	 8.198667737464003e-01	 2.473018931126956e+00
 6.526832770859533e-01	 8.262476306569940e-01	 2.113740299422894e+00
 6.446287453048393e-01	 8.325469348478909e-01	 1.876815038946905e+00
 6.365184218622980e-01	 8.387639332592164e-01	 1.794202112950369e+00
 6.283535672757499e-01	 8.448978980155509e-01	 1.896863601566536e+00
 7.133273209648087e-01	 7.864494544214645e-01	 5.369545386799564e+00
 7.056335428820666e-01	 7.933598644050885e-01	 5.176277642766592e+00
 6.978750030903159e-01	 8.001931105915884e-01	 4.881955415663743e+00
 6.900528696205338e-01	 8.069482878663481e-01	 4.522262133480494e+00
 6.821683270440539e-01	 8.136245145248197e-01	 4.131845725603265e+00
 6.742225758817945e-01	 8.202209326487746e-01	 3.744272953871088e+00
 6.662168320034951e-01	 8.267367084647972e-01	 3.391985419519026e+00
 6.581523260175896e-01	 8.331710326847167e-01	 3.106257335913936e+00
 6.500303026523528e-01	 8.395231208276961e-01	 2.917155152821994e+00
 6.418520201289624e-01	 8.457922135237235e-01	 2.853499113480618e+00
 6.336187495271294e-01	 8.519775767982681e-01	 2.942826820999766e+00
 7.192548391214126e-01	 7.929845937399160e-01	 5.336655415418393e+00
 7.114971282437339e-01	 7.999524269843745e-01	 5.340034039082609e+00
 7.036741175083546e-01	 8.068424552256025e-01	 5.226379904185832e+00
 6.957869846522046e-01	 8.136537658277735e-01	 5.028817286014794e+00
 6.878369240900176e-01	 8.203854697596602e-01	 4.779328637972466e+00
 6.798251463186454e-01	 8.270367019740091e-01	 4.508712299998866e+00
 6.717528773113062e-01	 8.336066217690158e-01	 4.246542025455922e+00
 6.636213579023863e-01	 8.400944131315866e-01	 4.021128411478195e+00
 6.554318431634435e-01	 8.464992850621015e-01	 3.859482313353894e+00
 6.471856017710610e-01	 8.528204718804281e-01	 3.787280318769947e+00
 6.388839153672043e-01	 8.590572335129436e-01	 3.828832352751374e+00
 7.251823505580127e-01	 7.995197256494323e-01	 5.208872993261284e+00
 7.173607069579006e-01	 8.065449820896240e-01	 5.399452029257207e+00
 7.094732253520075e-01	 8.134917923212057e-01	 5.458524189734178e+00
 7.015210931832044e-01	 8.203592361871491e-01	 5.415451301779926e+00
 6.935055147096113e-01	 8.271464173295542e-01	 5.298546010867719e+00
 6.854277104040010e-01	 8.338524635721513e-01	 5.135033483416785e+00
 6.772889163430563e-01	 8.404765272847563e-01	 4.951014787269926e+00
 6.690903835871032e-01	 8.470177857293578e-01	 4.771432030748647e+00
 6.608333775509692e-01	 8.534754413875614e-01	 4.620035336790512e+00
 6.525191773666283e-01	 8.598487222691203e-01	 4.519351724226217e+00
 6.441490752382885e-01	 8.661368822013278e-01	 4.490655963536670e+00
 7.311098670310470e-01	 8.060548631117156e-01	 4.999770205119800e+00
 7.232242906541625e-01	 8.131375427964316e-01	 5.341465835794843e+00
 7.152723381229562e-01	 8.201411350666139e-01	 5.542887749633675e+00
 7.072552065862487e-01	 8.270647122440252e-01	 5.628450369330934e+00
 6.991741101455531e-01	 8.339073706440872e-01	 5.621807329654549e+00
 6.910302792495729e-01	 8.406682309615087e-01	 5.545817785250067e+00
 6.828249600784644e-01	 8.473464386377187e-01	 5.422513976109425e+00
 6.745594139185006e-01	 8.539411642097847e-01	 5.273070127577756e+00
 6.662349165277873e-01	 8.604516036405299e-01	 5.117772758445026e+00
 6.578527574936991e-01	 8.668769786295902e-01	 4.975992467050073e+00
 6.494142395826941e-01	 8.732165369051680e-01	 4.866157261427142e+00
 5.967615443605807e-01	 8.024185755524647e-01	-3.855926801958225e+00
 5.889579473229991e-01	 8.081636447008754e-01	-5.009387118383416e+00
 5.811050012015555e-01	 8.138285757179110e-01	-5.950708541541063e+00
 5.732039308284177e-01	 8.194127540634818e-01	-6.685006315410688e+00
 5.652559707219063e-01	 8.249155899695259e-01	-7.219985590274863e+00
 5.572623644660748e-01	 8.303365186157972e-01	-7.565914004683638e+00
 5.492243640870379e-01	 8.356750002871786e-01	-7.735590736040252e+00
 5.411432294266819e-01	 8.409305205124760e-01	-7.744312086030910e+00
 5.330202275143926e-01	 8.461025901846800e-01	-7.609833674245795e+00
 5.248566319374309e-01	 8.511907456626929e-01	-7.352329320270655e+00
 5.166537222105835e-01	 8.561945488545585e-01	-6.994346701243741e+00
 6.020270443683503e-01	 8.094986816201495e-01	-3.327212599450684e+00
 5.941545926253828e-01	 8.152944421414487e-01	-3.984962126012853e+00
 5.862323563693834e-01	 8.210093574360454e-01	-4.486061953181819e+00
 5.782615712397398e-01	 8.266428075414807e-01	-4.839828941784440e+00
 5.702434826474595e-01	 8.321941974858972e-01	-5.057586712619459e+00
 5.621793451492739e-01	 8.376629574653810e-01	-5.152637936195751e+00
 5.540704218184637e-01	 8.430485430026596e-01	-5.140233886635984e+00
 5.459179836130430e-01	 8.483504350871243e-01	-5.037541318284010e+00
 5.377233087419445e-01	 8.535681402961492e-01	-4.863606729258349e+00
 5.294876820298395e-01	 8.587011908977176e-01	-4.639318081734229e+00
 5.212123942812260e-01	 8.637491449343863e-01	-4.387364054108509e+00
 6.072924653109394e-01	 8.165786813693011e-01	-2.524129959011653e+00
 5.993511598966267e-01	 8.224251325021388e-01	-2.814574653030733e+00
 5.913596345465711e-01	 8.281900313235401e-01	-2.992618936603862e+00
 5.833191357072233e-01	 8.338727524487605e-01	-3.070608894644821e+00
 5.752309196821165e-01	 8.394726957022305e-01	-3.062380435900210e+00
 5.670962520004982e-01	 8.449892862964444e-01	-2.983232266366430e+00
 5.589164067826511e-01	 8.504219749920485e-01	-2.849896824899327e+00
 5.506926661025542e-01	 8.557702382390908e-01	-2.680509231170350e+00
 5.424263193485221e-01	 8.610335782993951e-01	-2.494574300601895e+00
 5.341186625824696e-01	 8.662115233500908e-01	-2.312931685266694e+00
 5.257709978984394e-01	 8.713036275683087e-01	-2.157719203951465e+00
 6.125578176306614e-01	 8.236585888416685e-01	-1.525407157136053e+00
 6.045476594424680e-01	 8.295557299252467e-01	-1.560328214433649e+00
 5.964868459014281e-01	 8.353706116218506e-01	-1.517373690951746e+00
 5.883766342609166e-01	 8.411026031245220e-01	-1.410770275184499e+00
 5.802182917168530e-01	 8.467510990540494e-01	-1.255782542349090e+00
 5.720130947708599e-01	 8.523155196394021e-01	-1.068687575838682e+00
 5.637623285900822e-01	 8.577953108792116e-01	-8.667481527187419e-01
 5.554672863643207e-01	 8.631899446842410e-01	-6.681845343448940e-01
 5.471292686611287e-01	 8.684989190008250e-01	-4.921449066224636e-01
 5.387495827795215e-01	 8.737217579152938e-01	-3.586745177871152e-01
 5.303295421029417e-01	 8.788580117394046e-01	-2.886835648464132e-01
 6.178231117698285e-01	 8.307384180790000e-01	-4.070914691546530e-01
 6.097441015686452e-01	 8.366862485530753e-01	-2.822129747075419e-01
 6.016140006022648e-01	 8.425511125724326e-01	-1.057230025701524e-01
 5.934340769308682e-01	 8.483323739079662e-01	 1.073968077474353e-01
 5.852056086426443e-01	 8.540294219768771e-01	 3.415150382399509e-01
 5.769298832114720e-01	 8.596416720246697e-01	 5.803732697107880e-01
 5.686081968512389e-01	 8.651685652880139e-01	 8.071097880528013e-01
 5.602418538674470e-01	 8.706095691384411e-01	 1.004284188203202e+00
 5.518321660067675e-01	 8.759641772068457e-01	 1.153902841861788e+00
 5.433804518051949e-01	 8.812319094888067e-01	 1.237445192503895e+00
 5.348880359354498e-01	 8.864123124307511e-01	 1.235890838726144e+00
 6.230883581707538e-01	 8.378181831230447e-01	 7.573380661889462e-01
 6.149404965808971e-01	 8.438167025279262e-01	 9.618054580676281e-01
 6.067411088173906e-01	 8.497315484167444e-01	 1.198466744382557e+00
 5.984914737471259e-01	 8.555620791382919e-01	 1.452688789112358e+00
 5.901928803504652e-01	 8.613076789062367e-01	 1.709514087984711e+00
 5.818466270734469e-01	 8.669677579826620e-01	 1.953680002085212e+00
 5.734540211766028e-01	 8.725417528423215e-01	 2.169638507086460e+00
 5.650163780810380e-01	 8.780291263175577e-01	 2.341576437256708e+00
 5.565350207124428e-01	 8.834293677238656e-01	 2.453436201446102e+00
 5.480112788436906e-01	 8.887419929661101e-01	 2.488936946300962e+00
 5.394464884366807e-01	 8.939665446254271e-01	 2.431596140037195e+00
 6.283535672757499e-01	 8.448978980155509e-01	 1.896863601566537e+00
 6.201368547849613e-01	 8.509471059921022e-01	 2.115701745320120e+00
 6.118681807151147e-01	 8.569119333962407e-01	 2.352795962835065e+00
 6.035488347397386e-01	 8.627917331547008e-01	 2.594943615222984e+00
 5.951801167312919e-01	 8.685858842776515e-01	 2.828881500919958e+00
 5.867633361078975e-01	 8.742937920437943e-01	 3.041300613537001e+00
 5.782998111766555e-01	 8.799148881659999e-01	 3.218861094383436e+00
 5.697908684741982e-01	 8.854486309374567e-01	 3.348207369971976e+00
 5.612378421051575e-01	 8.908945053582910e-01	 3.415983463309000e+00
 5.526420730792088e-01	 8.962520232426846e-01	 3.408848466247380e+00
 5.440049086473521e-01	 9.015207233065108e-01	 3.313492158647126e+00
 6.336187495271294e-01	 8.519775767982681e-01	 2.942826820999765e+00
 6.253331864865769e-01	 8.580774730879045e-01	 3.125310774852631e+00
 6.169952264637479e-01	 8.640922817523790e-01	 3.316271464173068e+00
 6.086061699387543e-01	 8.700213502963925e-01	 3.504997986143936e+00
 6.001673276760995e-01	 8.758640525266457e-01	 3.680922133499378e+00
 5.916800200659360e-01	 8.816197887384813e-01	 3.833627754584620e+00
 5.831455764618791e-01	 8.872879858829158e-01	 3.952860078381033e+00
 5.745653345160326e-01	 8.928680977140044e-01	 4.028535006637162e+00
 5.659406395119152e-01	 8.983596049165290e-01	 4.050748374010239e+00
 5.572728436959498e-01	 9.037620152140113e-01	 4.009785175832850e+00
 5.485633056081808e-01	 9.090748634570800e-01	 3.896128761785773e+00
 6.388839153672043e-01	 8.590572335129436e-01	 3.828832352751375e+00
 6.305295019914822e-01	 8.652078179576365e-01	 3.938251615484863e+00
 6.221222562315996e-01	 8.712726077266152e-01	 4.049249080220515e+00
 6.136634893742217e-01	 8.772509449025678e-01	 4.154646741099765e+00
 6.051545230758633e-01	 8.831421980887416e-01	 4.247553021526051e+00
 5.965966886986757e-01	 8.889457625971390e-01	 4.321365824093130e+00
 5.879913266427554e-01	 8.946610606169341e-01	 4.369775405877309e+00
 5.793397856756455e-01	 9.002875413630667e-01	 4.386767093747279e+00
 5.706434222597198e-01	 9.058246812049876e-01	 4.366623853192635e+00
 5.619035998781138e-01	 9.112719837755702e-01	 4.303928722931092e+00
 5.531216883598842e-01	 9.166289800602131e-01	 4.193567126239411e+00
 6.441490752382885e-01	 8.661368822013278e-01	 4.490655963536670e+00
 6.357258116054149e-01	 8.723381547435994e-01	 4.503855239650293e+00
 6.272492801869796e-01	 8.784529255604061e-01	 4.513379132188912e+00
 6.187208030761885e-01	 8.844805313124271e-01	 4.516604263700544e+00
 6.101417128215585e-01	 8.904203353994633e-01	 4.511278884969288e+00
 6.015133517572289e-01	 8.962717281501813e-01	 4.495518711834344e+00
 5.928370713297658e-01	 9.020341269919210e-01	 4.467802536783894e+00
 5.841142314221424e-01	 9.077069766005100e-01	 4.426967643167805e+00
 5.753461996755745e-01	 9.132897490300738e-01	 4.372205048620858e+00
 5.665343508099012e-01	 9.187819438228424e-01	 4.303054602913090e+00
 5.576800659431796e-01	 9.241830880989883e-01	 4.219399963963992e+00
 6.494142395826941e-01	 8.732165369051680e-01	 4.866157261427142e+00
 6.409221256341137e-01	 8.794684975880961e-01	 4.773095799104738e+00
 6.323763084981971e-01	 8.856332494952077e-01	 4.671554584269794e+00
 6.237781210747034e-01	 8.917101238651706e-01	 4.564467791827616e+00
 6.151289068041612e-01	 8.976984788943336e-01	 4.455168847245980e+00
 6.064300189927078e-01	 9.035976999280244e-01	 4.347378156336561e+00
 5.976828201333925e-01	 9.094071996317421e-01	 4.245190647175350e+00
 5.888886812246272e-01	 9.151264181422003e-01	 4.153063165871139e+00
 5.800489810864830e-01	 9.207548231981942e-01	 4.075801766357072e+00
 5.711651056755123e-01	 9.262919102513077e-01	 4.018548932691044e+00
 5.622384473987841e-01	 9.317372025564835e-01	 3.986770770524358e+00
 5.166537222105835e-01	 8.561945488545585e-01	-6.994346701243741e+00
 5.084127833066525e-01	 8.611135874899662e-01	-6.617692194734954e+00
 5.001351054989744e-01	 8.659474757928982e-01	-6.291519753129128e+00
 4.918219832314512e-01	 8.706958538913729e-01	-6.020998855378163e+00
 4.834747143274812e-01	 8.753583876192402e-01	-5.811091813033032e+00
 4.750945993647698e-01	 8.799347685068711e-01	-5.666547863999543e+00
 4.666829410531063e-01	 8.844247137540189e-01	-5.591897384238731e+00
 4.582410436156905e-01	 8.888279661850482e-01	-5.591446224455120e+00
 4.497702121745728e-01	 8.931442941867402e-01	-5.669270179569320e+00
 4.412717521407651e-01	 8.973734916289072e-01	-5.829209599482867e+00
 4.327469686095653e-01	 9.015153777680721e-01	-6.074864150315083e+00
 5.212123942812260e-01	 8.637491449343863e-01	-4.387364054108509e+00
 5.128987418067739e-01	 8.687115864981905e-01	-4.161103516592132e+00
 5.045480262644486e-01	 8.735881264092124e-01	-3.997015794284687e+00
 4.961615535195790e-01	 8.783784016201314e-01	-3.893627850704223e+00
 4.877406328468082e-01	 8.830820750162707e-01	-3.849246286692635e+00
 4.792865762993894e-01	 8.876988354062075e-01	-3.861960714955533e+00
 4.708006980814730e-01	 8.922283974943961e-01	-3.929647149843711e+00
 4.622843139239729e-01	 8.966705018359983e-01	-4.049971405643725e+00
 4.537387404645851e-01	 9.010249147741397e-01	-4.220392497860590e+00
 4.451652946325172e-01	 9.052914283598297e-01	-4.438166043171328e+00
 4.365652930384774e-01	 9.094698602547839e-01	-4.700347654897143e+00
 5.257709978984394e-01	 8.713036275683087e-01	-2.157719203951465e+00
 5.173846329448053e-01	 8.763094714084868e-01	-2.059351986237158e+00
 5.089608807640044e-01	 8.812286622868644e-01	-2.028715274617860e+00
 5.005010586426358e-01	 8.860608339808327e-01	-2.059434397719441e+00
 4.920064873064329e-01	 8.908056464272397e-01	-2.144918306749406e+00
 4.834784902840406e-01	 8.954627857129168e-01	-2.278369724350908e+00
 4.749183932738125e-01	 9.000319640470580e-01	-2.452795211220205e+00
 4.663275235142208e-01	 9.045129197156628e-01	-2.661015133934856e+00
 4.577072091584498e-01	 9.089054170182405e-01	-2.895673519048559e+00
 4.490587786537454e-01	 9.132092461870266e-01	-3.149247780109901e+00
 4.403835601260683e-01	 9.174242232889595e-01	-3.414058305860018e+00
 5.303295421029417e-01	 8.788580117394046e-01	-2.886835648464132e-01
 5.218704656173233e-01	 8.839072572900480e-01	-2.946542744557168e-01
 5.133736777494395e-01	 8.888690985796693e-01	-3.684257925460108e-01
 5.048405072070256e-01	 8.937431662104185e-01	-5.004172033892649e-01
 4.962722861667690e-01	 8.985291171707114e-01	-6.808521469669433e-01
 4.876703496325708e-01	 9.032266348256713e-01	-8.997732728615654e-01
 4.790360347968526e-01	 9.078354288892727e-01	-1.147056519511013e+00
 4.703706804055078e-01	 9.123552353783850e-01	-1.412425196354469e+00
 4.616756261270729e-01	 9.167858165489321e-01	-1.685463848337144e+00
 4.529522119266955e-01	 9.211269608144040e-01	-1.955631884176767e+00
 4.442017774454530e-01	 9.253784826469883e-01	-2.212276951735076e+00
 5.348880359354498e-01	 8.864123124307511e-01	 1.235890838726144e+00
 5.263562487209041e-01	 8.915049592120662e-01	 1.150155738920481e+00
 5.177864259725530e-01	 8.965094504414431e-01	 1.001413270808198e+00
 5.091799078191525e-01	 9.014254135458308e-01	 8.007991608598226e-01
 5.005380378882303e-01	 9.062525025652480e-01	 5.596069233894845e-01
 4.918621626588278e-01	 9.109903981431452e-01	 2.892715349428595e-01
 4.831536308173205e-01	 9.156388074983082e-01	 1.353370794386438e-03
 4.744137926169066e-01	 9.201974643785064e-01	-2.924775719145145e-01
 4.656439992413601e-01	 9.246661289961029e-01	-5.804571420638497e-01
 4.568456021736138e-01	 9.290445879458676e-01	-8.507421733413166e-01
 4.480199525697461e-01	 9.333326541052582e-01	-1.091425275996287e+00
 5.394464884366807e-01	 8.939665446254271e-01	 2.431596140037195e+00
 5.308419911521247e-01	 8.991025922437338e-01	 2.291653230359161e+00
 5.221991341851430e-01	 9.041497330260017e-01	 2.097757582117540e+00
 5.135192690854204e-01	 9.091075912240101e-01	 1.860990788488300e+00
 5.048037509312301e-01	 9.139758179294122e-01	 1.592538067504714e+00
 4.960539376766600e-01	 9.187540910640118e-01	 1.303672463266613e+00
 4.872711895019438e-01	 9.234421153514331e-01	 1.005739391945069e+00
 4.784568681674912e-01	 9.280396222703680e-01	 7.101415553652568e-01
 4.696123363722171e-01	 9.325463699896414e-01	 4.283242425509742e-01
 4.607389571167459e-01	 9.369621432853233e-01	 1.717610372181295e-01
 4.518380930720615e-01	 9.412867534401579e-01	-4.806005317975368e-02
 5.440049086473521e-01	 9.015207233065108e-01	 3.313492158647126e+00
 5.353277018075605e-01	 9.067001714542431e-01	 3.145847381813977e+00
 5.266118111390080e-01	 9.117899614871613e-01	 2.936983340772558e+00
 5.178585996122335e-01	 9.167897144818986e-01	 2.696359635990569e+00
 5.090694337561820e-01	 9.216990785817660e-01	 2.433469032602326e+00
 5.002456829999148e-01	 9.265177289869448e-01	 2.157824553337694e+00
 4.913887190174501e-01	 9.312453679259152e-01	 1.878946994287028e+00
 4.824999150763343e-01	 9.358817246083114e-01	 1.606352880770331e+00
 4.735806453905497e-01	 9.404265551594374e-01	 1.349542878042472e+00
 4.646322844783382e-01	 9.448796425366773e-01	 1.117990669045024e+00
 4.556562065255141e-01	 9.492407964280762e-01	 9.211323089266148e-01
 5.485633056081808e-01	 9.090748634570800e-01	 3.896128761785773e+00
 5.398133895837890e-01	 9.142977119127865e-01	 3.728205090688056e+00
 5.310244655859467e-01	 9.194301509787366e-01	 3.534911496878461e+00
 5.221979080059957e-01	 9.244717985564375e-01	 3.322557467651980e+00
 5.133350948234998e-01	 9.294222998408733e-01	 3.097399099774282e+00
 5.044374069424405e-01	 9.342813273106180e-01	 2.865631416469185e+00
 4.955062275305668e-01	 9.390485806990229e-01	 2.633381180774196e+00
 4.865429413625088e-01	 9.437237869466782e-01	 2.406700213295806e+00
 4.775489341672636e-01	 9.483067001353793e-01	 2.191559219782044e+00
 4.685255919806359e-01	 9.527971014038344e-01	 1.993842131356068e+00
 4.594743005032186e-01	 9.571947988454016e-01	 1.819340957732795e+00
 5.531216883598842e-01	 9.166289800602131e-01	 4.193567126239411e+00
 5.442990633773858e-01	 9.218952286885570e-01	 4.053673512414205e+00
 5.354371062777575e-01	 9.270703166545445e-01	 3.906830775770832e+00
 5.265372028731111e-01	 9.321538586845679e-01	 3.754708619573476e+00
 5.176007425935969e-01	 9.371454970252960e-01	 3.598820901713836e+00
 5.086291178180846e-01	 9.420449014337039e-01	 3.440525476573775e+00
 4.996237232080215e-01	 9.468517691480246e-01	 3.281024602413968e+00
 4.905859550450887e-01	 9.515658248398107e-01	 3.121365909402858e+00
 4.815172105732649e-01	 9.561868205473558e-01	 2.962443920769168e+00
 4.724188873458858e-01	 9.607145355907017e-01	 2.805002117000840e+00
 4.632923825782890e-01	 9.651487764685223e-01	 2.649635530537022e+00
 5.576800659431796e-01	 9.241830880989883e-01	 4.219399963963992e+00
 5.487847320849274e-01	 9.294927368507458e-01	 4.136701502772572e+00
 5.398497419662388e-01	 9.347104736684007e-01	 4.067519577668516e+00
 5.308764928199836e-01	 9.398359101032322e-01	 4.007431650847584e+00
 5.218663855268874e-01	 9.448686854535971e-01	 3.951741173438279e+00
 5.128208239406953e-01	 9.498084667548771e-01	 3.895487222528053e+00
 5.037412142165415e-01	 9.546549487501877e-01	 3.833454768630850e+00
 4.946289641431469e-01	 9.594078538420494e-01	 3.760185552152679e+00
 4.854854824794593e-01	 9.640669320252562e-01	 3.669989544822682e+00
 4.763121782963332e-01	 9.686319608011845e-01	 3.556956969578386e+00
 4.671104603238401e-01	 9.731027450738271e-01	 3.414970850035203e+00
 5.622384473987841e-01	 9.317372025564835e-01	 3.986770770524358e+00
 5.532704046029903e-01	 9.370902514685463e-01	 3.991260022692430e+00
 5.442623814031892e-01	 9.423506371741205e-01	 4.031266816612214e+00
 5.352157864530174e-01	 9.475179680493709e-01	 4.094859945347229e+00
 5.261320320837845e-01	 9.525918804443393e-01	 4.169700496846592e+00
 5.170125336241201e-01	 9.575720386728107e-01	 4.243063526846683e+00
 5.078587087228544e-01	 9.624581349827813e-01	 4.301860423016545e+00
 4.986719766757564e-01	 9.672498895077365e-01	 4.332661918743784e+00
 4.894537577567521e-01	 9.719470501989690e-01	 4.321721712470399e+00
 4.802054725542244e-01	 9.765493927391885e-01	 4.255000646155568e+00
 4.709285413129862e-01	 9.810567204377044e-01	 4.118191394276526e+00
 4.327469686095653e-01	 9.015153777680721e-01	-6.074864150315083e+00
 4.241957100808111e-01	 9.055704788776667e-01	-6.362761874860579e+00
 4.156207266274777e-01	 9.095379524497916e-01	-6.644410364958429e+00
 4.070233190699297e-01	 9.134176924764242e-01	-6.915955189462065e+00
 3.984047855712466e-01	 9.172096178030530e-01	-7.173693971382395e+00
 3.897664210659204e-01	 9.209136719525728e-01	-7.414078704114298e+00
 3.811095166967166e-01	 9.245298229341032e-01	-7.633717624802631e+00
 3.724353592601342e-01	 9.280580630371011e-01	-7.829376656338766e+00
 3.637452306608896e-01	 9.314984086111489e-01	-7.995553214495663e+00
 3.550404073758262e-01	 9.348508998318095e-01	-8.124256864617797e+00
 3.463221599276364e-01	 9.381156004529614e-01	-8.213522123775428e+00
 4.365652930384774e-01	 9.094698602547839e-01	-4.700347654897144e+00
 4.279385828455186e-01	 9.135607413759669e-01	-4.963482710839512e+00
 4.192879383917877e-01	 9.175632217816508e-01	-5.187695268073903e+00
 4.106146719754153e-01	 9.214771945284639e-01	-5.375553151053631e+00
 4.019200932138001e-01	 9.253025777458400e-01	-5.529815644248814e+00
 3.932055084672654e-01	 9.290393144583587e-01	-5.653426429423545e+00
 3.844722202709527e-01	 9.326873723928797e-01	-5.749506160485748e+00
 3.757215267753868e-01	 9.362467437708336e-01	-5.821344701315621e+00
 3.669547211961480e-01	 9.397174450860710e-01	-5.871729797261303e+00
 3.581730912730496e-01	 9.430995168686511e-01	-5.898259765212298e+00
 3.493779187392193e-01	 9.463930234349912e-01	-5.904062795117778e+00
 4.403835601260683e-01	 9.174242232889595e-01	-3.414058305860018e+00
 4.316813994017186e-01	 9.215508838844714e-01	-3.648676571647255e+00
 4.229550950836435e-01	 9.255883705981116e-01	-3.821559343078109e+00
 4.142059709475561e-01	 9.295365755511696e-01	-3.940048582836648e+00
 4.054353480649912e-01	 9.333954161570298e-01	-4.011700734480999e+00
 3.966445442219227e-01	 9.371648349419602e-01	-4.044272674285900e+00
 3.878348733456837e-01	 9.408447993505553e-01	-4.045707365787902e+00
 3.790076449406457e-01	 9.444353015362192e-01	-4.024119252859419e+00
 3.701641635330711e-01	 9.479363581370627e-01	-3.987776244132573e+00
 3.613057281255647e-01	 9.513480100376308e-01	-3.940594274076659e+00
 3.524336316615091e-01	 9.546703221168643e-01	-3.887759845906366e+00
 4.442017774454530e-01	 9.253784826469883e-01	-2.212276951735077e+00
 4.354241671729185e-01	 9.295409222505252e-01	-2.417482664902398e+00
 4.266222039765180e-01	 9.336134148159371e-01	-2.547290894963731e+00
 4.177972231093883e-01	 9.375958515291819e-01	-2.612213431416880e+00
 4.089505570970417e-01	 9.414881490875989e-01	-2.622983391451337e+00
 4.000835351509423e-01	 9.452902495191456e-01	-2.590536544290892e+00
 3.911974825904601e-01	 9.490021199861547e-01	-2.525992388298116e+00
 3.822937202736527e-01	 9.526237525739951e-01	-2.440635023625702e+00
 3.733735640373093e-01	 9.561551640650339e-01	-2.345893863752667e+00
 3.644383241466703e-01	 9.595963956982930e-01	-2.251355604963203e+00
 3.554893047552183e-01	 9.629475129152257e-01	-2.162759625486718e+00
 4.480199525697461e-01	 9.333326541052582e-01	-1.091425275996287e+00
 4.391668935826256e-01	 9.375308723214744e-01	-1.269083330935134e+00
 4.302892723438853e-01	 9.416383703518919e-01	-1.366147689106413e+00
 4.213884355839490e-01	 9.456550384471414e-01	-1.394737984342502e+00
 4.124657272821722e-01	 9.495807925885241e-01	-1.367186055248545e+00
 4.035224880753754e-01	 9.534155743056876e-01	-1.296014965586239e+00
 3.945600546748304e-01	 9.571593504787007e-01	-1.193917812624838e+00
 3.855797592921488e-01	 9.608121131248982e-01	-1.073736369785641e+00
 3.765829290745132e-01	 9.643738791708957e-01	-9.484396103727735e-01
 3.675708855496659e-01	 9.678446902101842e-01	-8.306523714405391e-01
 3.585449440810582e-01	 9.712246122467207e-01	-7.272849591857855e-01
 4.518380930720615e-01	 9.412867534401579e-01	-4.806005317975387e-02
 4.429095860543477e-01	 9.455207499446651e-01	-2.027024479576752e-01
 4.339563074592180e-01	 9.496632531227386e-01	-2.793584830002040e-01
 4.249796154942742e-01	 9.537141522896891e-01	-2.902345691409727e-01
 4.159808655926037e-01	 9.576733627107813e-01	-2.477244272760178e-01
 4.069614098162730e-01	 9.615408254173561e-01	-1.643880950671838e-01
 3.979225962683451e-01	 9.653165070072187e-01	-5.293074217243138e-02
 3.888657685138760e-01	 9.690003994296651e-01	 7.381865950257932e-02
 3.797922650103325e-01	 9.725925197555580e-01	 2.029287635661932e-01
 3.707034185478507e-01	 9.760929099328496e-01	 3.213873276586218e-01
 3.616005556997414e-01	 9.795016365279939e-01	 4.203667779928562e-01
 4.556562065255141e-01	 9.492407964280762e-01	 9.211323089266148e-01
 4.466522520115913e-01	 9.535105709674431e-01	 7.823960857221819e-01
 4.376233165959894e-01	 9.576880790452408e-01	 7.118755223576635e-01
 4.285707699634009e-01	 9.617732090414655e-01	 6.987589369484680e-01
 4.194959790005576e-01	 9.657658755053471e-01	 7.320878121796827e-01
 4.104003071946858e-01	 9.696660189699224e-01	 8.007755441844255e-01
 4.012851140405538e-01	 9.734736057507321e-01	 8.936263767798828e-01
 3.921517544565761e-01	 9.771886277290334e-01	 9.993544777333936e-01
 3.830015782104179e-01	 9.808111021199305e-01	 1.106603113159539e+00
 3.738359293545235e-01	 9.843410712258351e-01	 1.203963875758524e+00
 3.646561456719793e-01	 9.877786021756902e-01	 1.281825453959236e+00
 4.594743005032186e-01	 9.571947988454016e-01	 1.819340957732795e+00
 4.503948988778645e-01	 9.615003512371543e-01	 1.686909796933277e+00
 4.412903070276735e-01	 9.657128640361626e-01	 1.606379306718243e+00
 4.321619061143654e-01	 9.698322246871109e-01	 1.569775775462787e+00
 4.230110744782546e-01	 9.738583470231991e-01	 1.569034524600925e+00
 4.138391870316644e-01	 9.777911710791585e-01	 1.596014186130211e+00
 4.046476146610062e-01	 9.816306628882663e-01	 1.642511173610849e+00
 3.954377236379908e-01	 9.853768142637400e-01	 1.700274309791429e+00
 3.862108750404194e-01	 9.890296425649238e-01	 1.761019573232764e+00
 3.769684241829837e-01	 9.925891904486867e-01	 1.816444925711802e+00
 3.677117200584841e-01	 9.960555256064554e-01	 1.858649846135522e+00
 4.632923825782890e-01	 9.651487764685223e-01	 2.649635530537022e+00
 4.541375340766741e-01	 9.694901066011445e-01	 2.511499014510451e+00
 4.449572860277429e-01	 9.737376240122678e-01	 2.403002726068721e+00
 4.357530310702041e-01	 9.778912152112670e-01	 2.320417143074930e+00
 4.265261589979158e-01	 9.819507933153125e-01	 2.259992858282022e+00
 4.172780561482598e-01	 9.859162978608338e-01	 2.217968188659293e+00
 4.080101047992523e-01	 9.897876945988444e-01	 2.190577000415922e+00
 3.987236825758614e-01	 9.935649752745210e-01	 2.174056722570885e+00
 3.894201618659873e-01	 9.972481573914486e-01	 2.164656520875997e+00
 3.801009092465304e-01	 1.000837283960949e+00	 2.158645603015189e+00
 3.707672849199675e-01	 1.004332423236934e+00	 2.152321625280633e+00
 4.671104603238401e-01	 9.731027450738271e-01	 3.414970850035203e+00
 4.578801650315275e-01	 9.774798529067594e-01	 3.256788181718104e+00
 4.486242608696714e-01	 9.817623748903196e-01	 3.100619275245150e+00
 4.393441519539537e-01	 9.859501965985737e-01	 2.948349186156423e+00
 4.300412395317624e-01	 9.900432304326646e-01	 2.801929204844298e+00
 4.207169213655230e-01	 9.940414154307203e-01	 2.663375630097396e+00
 4.113725911248414e-01	 9.979447170614913e-01	 2.534768794431950e+00
 4.020096377879298e-01	 1.001753127002114e+00	 2.418252326996963e+00
 3.926294450527720e-01	 1.005466662900415e+00	 2.316032638424921e+00
 3.832333907584631e-01	 1.009085368122169e+00	 2.230378610726254e+00
 3.738228463171416e-01	 1.012609311483770e+00	 2.163621474196325e+00
 4.709285413129862e-01	 9.810567204377044e-01	 4.118191394276526e+00
 4.616227991659323e-01	 9.854696060013456e-01	 3.923367107889212e+00
 4.522912388269320e-01	 9.897871325870814e-01	 3.698124913827297e+00
 4.429352758886508e-01	 9.940091848336716e-01	 3.451300144504694e+00
 4.335563230520154e-01	 9.981356744262322e-01	 3.191895355144951e+00
 4.241557895045047e-01	 1.002166539904589e+00	 2.929068122226936e+00
 4.147350803073237e-01	 1.006101746455231e+00	 2.672119143525331e+00
 4.052955957919376e-01	 1.009941285687257e+00	 2.430480641653019e+00
 3.958387309664236e-01	 1.013685175392733e+00	 2.213705071137095e+00
 3.863658749320805e-01	 1.017333459291891e+00	 2.031454127301670e+00
 3.768784103107179e-01	 1.020886206763610e+00	 1.893488053595275e+00
 3.463221599276364e-01	 9.381156004529614e-01	-8.213522123775428e+00
 3.375932372698592e-01	 9.412920648570996e-01	-8.267730047640649e+00
 3.288534146753911e-01	 9.443809649697815e-01	-8.292028732763500e+00
 3.201039407344279e-01	 9.473824329586862e-01	-8.285791800666097e+00
 3.113460561054977e-01	 9.502966234386565e-01	-8.248269377621238e+00
 3.025809930437933e-01	 9.531237131637239e-01	-8.178593792464715e+00
 2.938099749412085e-01	 9.558639007082442e-01	-8.075785707766107e+00
 2.850342158783328e-01	 9.585174061376137e-01	-7.938760657120859e+00
 2.762549201886382e-01	 9.610844706690251e-01	-7.766335959604849e+00
 2.674732820350750e-01	 9.635653563227456e-01	-7.557237980897051e+00
 2.586904849992691e-01	 9.659603455643853e-01	-7.310109709248731e+00
 3.493779187392193e-01	 9.463930234349912e-01	-5.904062795117778e+00
 3.405719768035007e-01	 9.495975152357088e-01	-5.895351718680630e+00
 3.317550387559495e-01	 9.527136701250852e-01	-5.874393325203698e+00
 3.229283642036728e-01	 9.557416214369937e-01	-5.839977550379622e+00
 3.140932047521242e-01	 9.586815251505340e-01	-5.790723449437685e+00
 3.052508035292757e-01	 9.615335595793360e-01	-5.725086500409102e+00
 2.964023947215954e-01	 9.642979250498879e-01	-5.641366395298753e+00
 2.875492031220883e-01	 9.669748435693404e-01	-5.537715287804239e+00
 2.786924436906389e-01	 9.695645584832749e-01	-5.412146464405494e+00
 2.698333211268703e-01	 9.720673341238998e-01	-5.262543404040772e+00
 2.609730294557168e-01	 9.744834554491671e-01	-5.086669190202492e+00
 3.524336316615091e-01	 9.546703221168643e-01	-3.887759845906364e+00
 3.435506716046804e-01	 9.579028408935608e-01	-3.835279549842149e+00
 3.346566192623192e-01	 9.610462501506360e-01	-3.781954129020327e+00
 3.257527452582740e-01	 9.641006843881436e-01	-3.726454376843315e+00
 3.168403121447577e-01	 9.670663009494199e-01	-3.667246486434848e+00
 3.079205739223558e-01	 9.699432797076759e-01	-3.602600115957157e+00
 2.989947755719446e-01	 9.727318227415055e-01	-3.530596995576548e+00
 2.900641525987814e-01	 9.754321539997876e-01	-3.449140041884368e+00
 2.811299305890010e-01	 9.780445189564622e-01	-3.355962943637941e+00
 2.721933247787379e-01	 9.805691842556483e-01	-3.248640180977668e+00
 2.632555396360758e-01	 9.830064373476023e-01	-3.124597438796699e+00
 3.554893047552183e-01	 9.629475129152257e-01	-2.162759625486717e+00
 3.465293275813366e-01	 9.662080583028563e-01	-2.083784924639615e+00
 3.375581619494726e-01	 9.693787215726594e-01	-2.009568515829553e+00
 3.285770895000711e-01	 9.724596383908545e-01	-1.939113678679071e+00
 3.195873837319583e-01	 9.754509674650006e-01	-1.871198823597110e+00
 3.105903095181876e-01	 9.783528902278685e-01	-1.804385488156524e+00
 3.015871226339016e-01	 9.811656105101376e-01	-1.737026928113371e+00
 2.925790692964674e-01	 9.838893542023929e-01	-1.667277267311066e+00
 2.835673857181281e-01	 9.865243689069053e-01	-1.593101168622321e+00
 2.745532976713903e-01	 9.890709235796759e-01	-1.512283986228223e+00
 2.655380200673480e-01	 9.915293081632356e-01	-1.422442357931689e+00
 3.585449440810582e-01	 9.712246122467207e-01	-7.272849591857855e-01
 3.495079506414066e-01	 9.745131839357960e-01	-6.372764929555501e-01
 3.404596725723826e-01	 9.777111009173797e-01	-5.522764351956682e-01
 3.314014025309034e-01	 9.808185000238452e-01	-4.720597033772858e-01
 3.223344249622846e-01	 9.838355413269591e-01	-3.961693195154214e-01
 3.132600156119253e-01	 9.867624078190367e-01	-3.239235186193776e-01
 3.041794410491121e-01	 9.895993050828240e-01	-2.544235040870704e-01
 2.950939582032009e-01	 9.923464609505922e-01	-1.865618139812384e-01
 2.860048139124236e-01	 9.950041251529208e-01	-1.190312598489401e-01
 2.769132444855399e-01	 9.975725689576678e-01	-5.033439772198833e-02
 2.678204752765360e-01	 1.000052084799612e+00	 2.120651083041403e-02
 3.616005556997414e-01	 9.795016365279939e-01	 4.203667779928562e-01
 3.524865466928280e-01	 9.828182342645816e-01	 5.077044617945660e-01
 3.433611568860222e-01	 9.860434047110223e-01	 5.947062619509687e-01
 3.342256899526104e-01	 9.891772858658342e-01	 6.803985289124275e-01
 3.250814412842961e-01	 9.922200391649798e-01	 7.640334942885723e-01
 3.159296974987232e-01	 9.951718491603040e-01	 8.450838576971905e-01
 3.067717359592219e-01	 9.980329231866057e-01	 9.232366749954701e-01
 2.976088243070373e-01	 1.000803491017823e+00	 9.983865830244190e-01
 2.884422200062915e-01	 1.003483804512826e+00	 1.070628398487389e+00
 2.792731699018992e-01	 1.006074137251309e+00	 1.140249130814353e+00
 2.701029097906421e-01	 1.008574784160278e+00	 1.207719450825105e+00
 3.646561456719793e-01	 9.877786021756902e-01	 1.281825453959237e+00
 3.554651216435386e-01	 9.911232257614135e-01	 1.354488387366567e+00
 3.462626206453643e-01	 9.943756494798131e-01	 1.435994130756914e+00
 3.370499573670317e-01	 9.975360124955408e-01	 1.523754863907069e+00
 3.278284381465522e-01	 1.000604477608747e+00	 1.615389789316357e+00
 3.185993604737355e-01	 1.003581230930795e+00	 1.708722210480724e+00
 3.093640125058764e-01	 1.006466481548522e+00	 1.801775860444065e+00
 3.001236725960315e-01	 1.009260461177522e+00	 1.892770513602808e+00
 2.908796088341351e-01	 1.011963423804938e+00	 1.980116916478693e+00
 2.816330786011804e-01	 1.014575645322285e+00	 2.062411075641525e+00
 2.723853281366685e-01	 1.017097423148778e+00	 2.138427943156813e+00
 3.677117200584841e-01	 9.960555256064554e-01	 1.858649846135522e+00
 3.584436814014762e-01	 9.994281748984939e-01	 1.906281574847033e+00
 3.491640696053815e-01	 1.002707851749976e+00	 1.976038092246640e+00
 3.398742103760065e-01	 1.005894696491684e+00	 2.063313239544124e+00
 3.305754209976122e-01	 1.008988873287944e+00	 2.163676369006803e+00
 3.212690098321165e-01	 1.011990569809632e+00	 2.272872698894571e+00
 3.119562758307214e-01	 1.014899996895614e+00	 2.386822868070854e+00
 3.026385080582383e-01	 1.017717388203125e+00	 2.501621719908083e+00
 2.933169852303582e-01	 1.020442999847574e+00	 2.613536348120268e+00
 2.839929752640960e-01	 1.023077110032282e+00	 2.719003439894705e+00
 2.746677348416175e-01	 1.025620018668658e+00	 2.814625954150737e+00
 3.707672849199675e-01	 1.004332423236934e+00	 2.152321625280633e+00
 3.614222318745780e-01	 1.007733098148022e+00	 2.166170032819247e+00
 3.520655095210469e-01	 1.011040028047737e+00	 2.219131065553595e+00
 3.426984545813742e-01	 1.014253354432981e+00	 2.304194523982674e+00
 3.333223952860354e-01	 1.017373242832256e+00	 2.414474176459233e+00
 3.239386508690201e-01	 1.020399882475939e+00	 2.543219729458303e+00
 3.145485310754026e-01	 1.023333485954921e+00	 2.683820383372584e+00
 3.051533356817132e-01	 1.026174288868070e+00	 2.829807562895538e+00
 2.957543540293642e-01	 1.028922549459051e+00	 2.974856850385102e+00
 2.863528645713586e-01	 1.031578548242984e+00	 3.112789153643474e+00
 2.769501344324914e-01	 1.034142587623462e+00	 3.237571142302427e+00
 3.738228463171416e-01	 1.012609311483770e+00	 2.163621474196325e+00
 3.644007789707822e-01	 1.016038011982201e+00	 2.137123137127753e+00
 3.549669461473333e-01	 1.019372194899320e+00	 2.169413291330447e+00
 3.455226955849744e-01	 1.022612002898152e+00	 2.251342987503314e+00
 3.360693664603810e-01	 1.025757602871367e+00	 2.373175405110582e+00
 3.266082888796006e-01	 1.028809185608841e+00	 2.525258211461607e+00
 3.171407833815654e-01	 1.031766965453483e+00	 2.698031883523693e+00
 3.076681604545108e-01	 1.034631179945793e+00	 2.882037148818725e+00
 2.981917200655569e-01	 1.037402089457687e+00	 3.067921568414810e+00
 2.887127512036804e-01	 1.040079976816076e+00	 3.246445288400745e+00
 2.792325314362926e-01	 1.042665146916737e+00	 3.408485989318016e+00
 3.768784103107179e-01	 1.020886206763610e+00	 1.893488053595275e+00
 3.673793285980262e-01	 1.024342932873229e+00	 1.821997068944329e+00
 3.578683852392132e-01	 1.027704368830951e+00	 1.830877363863300e+00
 3.483469389886465e-01	 1.030970658465916e+00	 1.909532429104972e+00
 3.388163399692086e-01	 1.034141970034960e+00	 2.044990234937133e+00
 3.292779291590125e-01	 1.037218495887461e+00	 2.224300432797278e+00
 3.197330378908556e-01	 1.040200452118341e+00	 2.434548197973488e+00
 3.101829873646866e-01	 1.043088078209732e+00	 2.662867135018613e+00
 3.006290881733399e-01	 1.045881636661798e+00	 2.896451262398550e+00
 2.910726398417740e-01	 1.048581412613244e+00	 3.122566096620395e+00
 2.815149303800232e-01	 1.051187713452026e+00	 3.328558859537410e+00
 2.586904849992691e-01	 9.659603455643853e-01	-7.310109709248731e+00
 2.499077018034105e-01	 9.682697411484725e-01	-7.020397808621235e+00
 2.411260942737208e-01	 9.704938663716978e-01	-6.692772448501572e+00
 2.323468125892457e-01	 9.726330640575948e-01	-6.339538109513952e+00
 2.235709948004865e-01	 9.746876959562027e-01	-5.972834622620474e+00
 2.147997664840682e-01	 9.766581423474187e-01	-5.604625184414683e+00
 2.060342404108247e-01	 9.785448016382445e-01	-5.246685107402223e+00
 1.972755162273643e-01	 9.803480899544124e-01	-4.910591287231814e+00
 1.885246801511632e-01	 9.820684407268568e-01	-4.607712367459079e+00
 1.797828046792145e-01	 9.837063042735065e-01	-4.349199581221912e+00
 1.710509483102450e-01	 9.852621473768629e-01	-4.145978248188351e+00
 2.609730294557168e-01	 9.744834554491671e-01	-5.086669190202492e+00
 2.521127517468493e-01	 9.768132278849668e-01	-4.880007285371029e+00
 2.432536600777888e-01	 9.790569775806152e-01	-4.645166400276096e+00
 2.343969147761029e-01	 9.812150503845687e-01	-4.390448179445839e+00
 2.255436639337993e-01	 9.832878112387866e-01	-4.124060814565662e+00
 2.166950430589468e-01	 9.852756437785815e-01	-3.854110762530556e+00
 2.078521747408320e-01	 9.871789499263158e-01	-3.588595042783154e+00
 1.990161683287154e-01	 9.889981494794224e-01	-3.335394092936414e+00
 1.901881196242343e-01	 9.907336796932259e-01	-3.102265160618469e+00
 1.813691105874812e-01	 9.923859948590483e-01	-2.896836208618340e+00
 1.725602090567694e-01	 9.939555658780580e-01	-2.726600309723773e+00
 2.632555396360758e-01	 9.830064373476023e-01	-3.124597438796699e+00
 2.543177685780085e-01	 9.853565863295358e-01	-2.980635928407043e+00
 2.453811939332054e-01	 9.876199602033382e-01	-2.818564599537403e+00
 2.364469861776064e-01	 9.897969078423287e-01	-2.643190673043855e+00
 2.275163034445776e-01	 9.918877973803252e-01	-2.459283955678898e+00
 2.185902911734856e-01	 9.938930158079935e-01	-2.271571968840732e+00
 2.096700817719254e-01	 9.958129685629901e-01	-2.084735526940232e+00
 2.007567942916670e-01	 9.976480791143790e-01	-1.903404741181885e+00
 1.918515341183674e-01	 9.993987885418061e-01	-1.732155423790510e+00
 1.829553926750793e-01	 1.001065555109914e+00	-1.575505867145143e+00
 1.740694471395654e-01	 1.002648853838462e+00	-1.437913971896986e+00
 2.655380200673480e-01	 9.915293081632356e-01	-1.422442357931689e+00
 2.565227566701820e-01	 9.938998334260823e-01	-1.322672578056754e+00
 2.475087000595783e-01	 9.961828312226307e-01	-1.214943274498347e+00
 2.384970308597195e-01	 9.983786534510133e-01	-1.101063638577866e+00
 2.294889172452025e-01	 1.000487671436852e+00	-9.828465952681755e-01
 2.204855145865652e-01	 1.002510275526112e+00	-8.621070555015229e-01
 2.114879651095856e-01	 1.004446874671686e+00	-7.406605141278650e-01
 2.024973975684198e-01	 1.006297896014210e+00	-6.203219658914048e-01
 1.935149269326229e-01	 1.008063784457593e+00	-5.029051112769076e-01
 1.845416540880871e-01	 1.009745002239733e+00	-3.902218237630735e-01
 1.755786655519054e-01	 1.011342028498917e+00	-2.840818498950161e-01
 2.678204752765360e-01	 1.000052084799612e+00	 2.120651083041403e-02
 2.587277203966640e-01	 1.002442986118508e+00	 9.351602907543832e-02
 2.496361826765149e-01	 1.004745607621257e+00	 1.637983748546442e-01
 2.405470528884053e-01	 1.006960304230760e+00	 2.327576096980331e-01
 2.314615092480548e-01	 1.009087450464400e+00	 3.010675472297476e-01
 2.223807170570653e-01	 1.011127440023394e+00	 3.693706596539679e-01
 2.133058283592931e-01	 1.013080685375822e+00	 4.382767171681961e-01
 2.042379816111752e-01	 1.014947617333847e+00	 5.083611915966936e-01
 1.951783013660619e-01	 1.016728684625583e+00	 5.801634558425690e-01
 1.861278979725831e-01	 1.018424353462134e+00	 6.541848108571515e-01
 1.770878672870617e-01	 1.020035107100263e+00	 7.308863717263734e-01
 2.701029097906421e-01	 1.008574784160278e+00	 1.207719450825105e+00
 2.609326641307481e-01	 1.010986061350717e+00	 1.267584091041922e+00
 2.517636460036225e-01	 1.013308306381981e+00	 1.315834742177461e+00
 2.425970563296270e-01	 1.015541877201707e+00	 1.355215175825038e+00
 2.334340833655153e-01	 1.017687151519002e+00	 1.388426786653728e+00
 2.242759023438665e-01	 1.019744526390295e+00	 1.418124935379112e+00
 2.151236751265283e-01	 1.021714417798819e+00	 1.446915078153436e+00
 2.059785498721341e-01	 1.023597260228216e+00	 1.477348717558656e+00
 1.968416607177450e-01	 1.025393506230771e+00	 1.511919210524379e+00
 1.877141274746457e-01	 1.027103625990749e+00	 1.553057468415152e+00
 1.785970553383068e-01	 1.028728106883340e+00	 1.603127584245640e+00
 2.723853281366685e-01	 1.017097423148778e+00	 2.138427943156813e+00
 2.631375922457282e-01	 1.019529076066611e+00	 2.199205615317372e+00
 2.538910942605090e-01	 1.021870944487567e+00	 2.239410539900490e+00
 2.446470452493480e-01	 1.024123389383992e+00	 2.263363522515827e+00
 2.354066435099648e-01	 1.026286791656689e+00	 2.275345008641460e+00
 2.261710742058487e-01	 1.028361551717272e+00	 2.279589136230987e+00
 2.169415090167718e-01	 1.030348089064095e+00	 2.280277603436326e+00
 2.077191058034977e-01	 1.032246841852249e+00	 2.281533390753153e+00
 1.985050082867332e-01	 1.034058266458155e+00	 2.287414376907720e+00
 1.893003457403533e-01	 1.035782837039205e+00	 2.301906887586143e+00
 1.801062326989132e-01	 1.037421045088988e+00	 2.328919215671005e+00
 2.746677348416175e-01	 1.025620018668658e+00	 2.814625954150737e+00
 2.653425091148984e-01	 1.028072047210091e+00	 2.888073334804178e+00
 2.560185316667817e-01	 1.030433538920778e+00	 2.932837674716552e+00
 2.466970237135312e-01	 1.032704857797753e+00	 2.954364652636102e+00
 2.373791935937846e-01	 1.034886387933496e+00	 2.958075518840683e+00
 2.280662364018922e-01	 1.036978533094784e+00	 2.949359126107769e+00
 2.187593336355040e-01	 1.038981716295068e+00	 2.933563779980223e+00
 2.094596528574669e-01	 1.040896379360873e+00	 2.915988951993011e+00
 2.001683473720871e-01	 1.042722982492729e+00	 2.901876899449901e+00
 1.908865559157843e-01	 1.044462003821135e+00	 2.896404235019881e+00
 1.816154023621532e-01	 1.046113938958048e+00	 2.904673488871576e+00
 2.769501344324914e-01	 1.034142587623462e+00	 3.237571142302427e+00
 2.675474191115524e-01	 1.036614991725062e+00	 3.333897662657709e+00
 2.581459624420481e-01	 1.038996106664379e+00	 3.394492264682750e+00
 2.487469957881402e-01	 1.041286299463128e+00	 3.425483517793059e+00
 2.393517375293552e-01	 1.043485957405453e+00	 3.433005186663459e+00
 2.299613926908773e-01	 1.045595487613285e+00	 3.423186504971673e+00
 2.205771525882055e-01	 1.047615316615159e+00	 3.402142248370796e+00
 2.112001944862428e-01	 1.049545889909018e+00	 3.375962654950314e+00
 2.018316812728673e-01	 1.051387671519489e+00	 3.350703241320117e+00
 1.924727611470172e-01	 1.053141143550166e+00	 3.332374562068019e+00
 1.831245673212992e-01	 1.054806805731360e+00	 3.326931959710205e+00
 2.792325314362926e-01	 1.042665146916737e+00	 3.408485989318016e+00
 2.697523266089842e-01	 1.045157926555424e+00	 3.536405683668594e+00
 2.602733908059157e-01	 1.047558664701134e+00	 3.622811789767616e+00
 2.507969655391379e-01	 1.049867731400256e+00	 3.674083640950593e+00
 2.413242792290576e-01	 1.052085517128595e+00	 3.696648866629891e+00
 2.318565468316840e-01	 1.054212432363233e+00	 3.696972169010506e+00
 2.223949694803567e-01	 1.056248907147787e+00	 3.681543854980252e+00
 2.129407341420264e-01	 1.058195390651612e+00	 3.656868176266207e+00
 2.034950132881350e-01	 1.060052350723433e+00	 3.629451530813610e+00
 1.940589645801301e-01	 1.061820273439928e+00	 3.605790577931830e+00
 1.846337305696236e-01	 1.063499662649765e+00	 3.592360319075699e+00
 2.815149303800232e-01	 1.051187713452026e+00	 3.328558859537410e+00
 2.719572359804875e-01	 1.053700868645081e+00	 3.495340180085070e+00
 2.624008209779921e-01	 1.056121230013807e+00	 3.616292368205882e+00
 2.528469370324877e-01	 1.058449170629273e+00	 3.697622940842499e+00
 2.432968226052729e-01	 1.060685084158954e+00	 3.745644081451521e+00
 2.337517025831925e-01	 1.062829384435084e+00	 3.766760175776786e+00
 2.242127879174382e-01	 1.064882505016369e+00	 3.767455035004737e+00
 2.146812752770187e-01	 1.066844898743585e+00	 3.754278864464924e+00
 2.051583467169507e-01	 1.068717037289555e+00	 3.733835035931723e+00
 1.956451693612018e-01	 1.070499410704053e+00	 3.712766721180095e+00
 1.861428951003990e-01	 1.072192526954103e+00	 3.697743443761108e+00
 1.710509483102450e-01	 9.852621473768629e-01	-4.145978248188351e+00
 1.623286740391851e-01	 9.867366964777040e-01	-4.020439798482401e+00
 1.536184993999991e-01	 9.881301781820826e-01	-3.979840529984918e+00
 1.449214421196758e-01	 9.894431056398207e-01	-4.012061976641582e+00
 1.362385048931709e-01	 9.906760067638284e-01	-4.104896405478375e+00
 1.275706751727547e-01	 9.918294237927018e-01	-4.246066903902439e+00
 1.189189249707245e-01	 9.929039128517897e-01	-4.423247141789268e+00
 1.102842106753850e-01	 9.939000435131441e-01	-4.624080768515644e+00
 1.016674728801875e-01	 9.948183983547720e-01	-4.836200407249671e+00
 9.306963622590408e-02	 9.956595725195880e-01	-5.047246211041863e+00
 8.449160925570287e-02	 9.964241732744671e-01	-5.244883947567333e+00
 1.725602090567694e-01	 9.939555658780580e-01	-2.726600309723773e+00
 1.637609741711128e-01	 9.954431256007639e-01	-2.609819390652831e+00
 1.549739456778491e-01	 9.968489026326103e-01	-2.554704908716539e+00
 1.462001502838681e-01	 9.981734146511001e-01	-2.553404451116084e+00
 1.374405995313913e-01	 9.994171942270833e-01	-2.597959642535802e+00
 1.286962895854617e-01	 1.000580788383504e+00	-2.680321712940985e+00
 1.199682010349145e-01	 1.001664758152585e+00	-2.792366874964045e+00
 1.112572987067349e-01	 1.002669678131902e+00	-2.925911472903371e+00
 1.025645314936885e-01	 1.003596136039742e+00	-3.072726867241167e+00
 9.389083219510402e-02	 1.004444732270168e+00	-3.224554020556250e+00
 8.523711737066909e-02	 1.005216079448178e+00	-3.373117752761315e+00
 1.740694471395654e-01	 1.002648853838462e+00	-1.437913971896986e+00
 1.651932527949823e-01	 1.004149423987590e+00	-1.333512856552883e+00
 1.563293716017048e-01	 1.005567496162113e+00	-1.270737932671069e+00
 1.474788392463840e-01	 1.006903592567163e+00	-1.245295460328986e+00
 1.386426761183705e-01	 1.008158250431481e+00	-1.252776230379394e+00
 1.298218870953443e-01	 1.009332021562298e+00	-1.288667288426008e+00
 1.210174613425461e-01	 1.010425471898656e+00	-1.348363578243764e+00
 1.122303721255102e-01	 1.011439181063595e+00	-1.427179468174417e+00
 1.034615766361883e-01	 1.012373741915620e+00	-1.520360125691063e+00
 9.471201583233875e-02	 1.013229760099880e+00	-1.623092707090119e+00
 8.598261429004453e-02	 1.014007853599432e+00	-1.730517331119919e+00
 1.755786655519054e-01	 1.011342028498917e+00	-2.840818498950156e-01
 1.666255127514291e-01	 1.012855608904825e+00	-1.946325434681253e-01
 1.576847798597771e-01	 1.014285976061628e+00	-1.299629766399473e-01
 1.487575115432415e-01	 1.015633656702043e+00	-8.864807067977437e-02
 1.398447370381820e-01	 1.016899192712655e+00	-6.914479613551200e-02
 1.309474699347986e-01	 1.018083140684936e+00	-6.980071985079872e-02
 1.220667079746213e-01	 1.019186071464699e+00	-8.886255668471302e-02
 1.132034328616200e-01	 1.020208569700392e+00	-1.244846906096807e-01
 1.043586100868202e-01	 1.021151233390689e+00	-1.747376313651472e-01
 9.553318876629997e-02	 1.022014673431769e+00	-2.376163744551234e-01
 8.672810149242925e-02	 1.022799513164692e+00	-3.110486339806501e-01
 1.770878672870617e-01	 1.020035107100263e+00	 7.308863717263729e-01
 1.680577568810880e-01	 1.021561697619110e+00	 8.038260206056802e-01
 1.590401731402771e-01	 1.023004359622191e+00	 8.656758976822846e-01
 1.500361697104583e-01	 1.024363624369772e+00	 9.156656600400465e-01
 1.410467846748995e-01	 1.025640038406241e+00	 9.531385302073301e-01
 1.320730403362205e-01	 1.026834163107274e+00	 9.775452677168434e-01
 1.231159430121423e-01	 1.027946574225408e+00	 9.884380749695333e-01
 1.141764828449732e-01	 1.028977861434461e+00	 9.854644719410202e-01
 1.052556336247174e-01	 1.029928627873231e+00	 9.683611728743146e-01
 9.635435262567926e-02	 1.030799489688879e+00	 9.369479965932578e-01
 8.747358045642349e-02	 1.031591075580421e+00	 8.911218404629124e-01
 1.785970553383068e-01	 1.028728106883340e+00	 1.603127584245640e+00
 1.694899880245943e-01	 1.030267707397086e+00	 1.658979319833454e+00
 1.603955541314155e-01	 1.031722664134840e+00	 1.714310738605215e+00
 1.513148162840523e-01	 1.033093512884382e+00	 1.766813114648089e+00
 1.422488214125966e-01	 1.034380804847875e+00	 1.814280188874158e+00
 1.331986005320059e-01	 1.035585106185164e+00	 1.854604008935925e+00
 1.241651685361109e-01	 1.036706997555479e+00	 1.885770666394462e+00
 1.151495240054787e-01	 1.037747073657973e+00	 1.905855965251182e+00
 1.061526490290135e-01	 1.038705942771529e+00	 1.913021054612988e+00
 9.717550903916843e-02	 1.039584226294253e+00	 1.905508056800320e+00
 8.821905266062734e-02	 1.040382558283081e+00	 1.881635720642605e+00
 1.801062326989132e-01	 1.037421045088988e+00	 2.328919215671005e+00
 1.709222090225832e-01	 1.038973655505397e+00	 2.368051281622916e+00
 1.617509255214035e-01	 1.040440906890610e+00	 2.414146659164657e+00
 1.525934538000412e-01	 1.041823339559904e+00	 2.463999624358573e+00
 1.434508496353470e-01	 1.043121509373191e+00	 2.514489256774371e+00
 1.343241527545507e-01	 1.044335987274461e+00	 2.562576505391264e+00
 1.252143866275292e-01	 1.045467358829610e+00	 2.605301138330932e+00
 1.161225582730454e-01	 1.046516223763096e+00	 2.639778610462721e+00
 1.070496580788416e-01	 1.047483195493863e+00	 2.663196881581888e+00
 9.799665963545907e-02	 1.048368900670936e+00	 2.672813216398720e+00
 8.896451958364093e-02	 1.049173978709135e+00	 2.665950996003213e+00
 1.816154023621532e-01	 1.046113938958048e+00	 2.904673488871576e+00
 1.723544227156898e-01	 1.047679559210682e+00	 2.928368931991868e+00
 1.631062899984516e-01	 1.049159105180538e+00	 2.963458940434883e+00
 1.538720847944427e-01	 1.050553121710371e+00	 3.006467047926680e+00
 1.446528717272242e-01	 1.051862169317825e+00	 3.053977507754350e+00
 1.354496992362510e-01	 1.053086823731018e+00	 3.102632949841899e+00
 1.262635993673994e-01	 1.054227675422494e+00	 3.149131931562446e+00
 1.170955875775823e-01	 1.055285329142001e+00	 3.190226416616488e+00
 1.079466625533351e-01	 1.056260403448518e+00	 3.222719214913826e+00
 9.881780604324290e-02	 1.057153530241971e+00	 3.243461414878487e+00
 8.970998270406449e-02	 1.057965354295048e+00	 3.249349837964803e+00
 1.831245673212992e-01	 1.054806805731360e+00	 3.326931959710205e+00
 1.737866319445493e-01	 1.056385435779585e+00	 3.337358262216817e+00
 1.644616502507710e-01	 1.057877276295661e+00	 3.360590274816279e+00
 1.551507118032748e-01	 1.059282876649815e+00	 3.393492418013619e+00
 1.458548900723019e-01	 1.060602802017413e+00	 3.432959466993649e+00
 1.365752422095026e-01	 1.061837632910689e+00	 3.475914172329002e+00
 1.273128088367234e-01	 1.062987964708828e+00	 3.519304807365146e+00
 1.180686138489982e-01	 1.064054407186855e+00	 3.560102677258217e+00
 1.088436642316273e-01	 1.065037584043776e+00	 3.595299623146119e+00
 9.963894989121164e-02	 1.065938132430402e+00	 3.621905553308057e+00
 9.045544350049811e-02	 1.066756702477279e+00	 3.636946031428168e+00
 1.846337305696236e-01	 1.063499662649765e+00	 3.592360319075699e+00
 1.752188395497968e-01	 1.065091302478747e+00	 3.592540294613515e+00
 1.658170089665726e-01	 1.066595437527016e+00	 3.603948141249839e+00
 1.564293373625553e-01	 1.068012621692268e+00	 3.624386650907593e+00
 1.470569070546537e-01	 1.069343424807588e+00	 3.651652459882082e+00
 1.377007839067015e-01	 1.070588432169328e+00	 3.683533012637205e+00
 1.283620171165032e-01	 1.071748244063308e+00	 3.717803507971786e+00
 1.190416390172021e-01	 1.072823475289827e+00	 3.752223863535929e+00
 1.097406648928516e-01	 1.073814754687917e+00	 3.784535733026672e+00
 1.004600928080569e-01	 1.074722724659275e+00	 3.812459608609838e+00
 9.120090345154194e-02	 1.075548040692294e+00	 3.833692039216379e+00
 1.861428951003990e-01	 1.072192526954103e+00	 3.697743443761108e+00
 1.766510483720675e-01	 1.073797176574809e+00	 3.691527336090804e+00
 1.671723688340672e-01	 1.075313606165639e+00	 3.692002304833613e+00
 1.577079640083019e-01	 1.076742374151761e+00	 3.698493315987307e+00
 1.482589250583532e-01	 1.078084055023988e+00	 3.710276655692947e+00
 1.388263265602436e-01	 1.079339238862790e+00	 3.726575623310112e+00
 1.294112262877410e-01	 1.080508530860630e+00	 3.746556285033865e+00
 1.200146650121030e-01	 1.081592550843088e+00	 3.769323325395754e+00
 1.106376663161413e-01	 1.082591932789227e+00	 3.793916032134164e+00
 1.012812364224704e-01	 1.083507324351631e+00	 3.819304447928694e+00
 9.194636403579609e-02	 1.084339386376554e+00	 3.844385720386455e+00
 8.449160925570287e-02	 9.964241732744671e-01	-5.244883947567333e+00
 7.593573370450234e-02	 9.971127089018138e-01	-5.394196263559460e+00
 6.740140868271495e-02	 9.977259455763865e-01	-5.470498282942991e+00
 5.888947380262378e-02	 9.982645237707195e-01	-5.477388564273314e+00
 5.040075266753091e-02	 9.987290943103193e-01	-5.419312672847290e+00
 4.193605278629518e-02	 9.991203179452326e-01	-5.301538935365133e+00
 3.349616549931961e-02	 9.994388649236411e-01	-5.130133694508678e+00
 2.508186591579783e-02	 9.996854145678036e-01	-4.911936101199649e+00
 1.669391286202219e-02	 9.998606548526503e-01	-4.654532482778188e+00
 8.333048840547847e-03	 9.999652819873316e-01	-4.366230325740657e+00
 0.000000000000000e+00	 1.000000000000000e+00	-4.056031912114163e+00
 8.523711737066909e-02	 1.005216079448178e+00	-3.373117752761315e+00
 7.660574941749855e-02	 1.005910690340937e+00	-3.498781496659888e+00
 6.799612214396497e-02	 1.006529337883544e+00	-3.583584702389029e+00
 5.940908257049088e-02	 1.007072668199767e+00	-3.622266415998188e+00
 5.084546156726515e-02	 1.007541337857695e+00	-3.610327232067328e+00
 4.230607376802668e-02	 1.007936013437521e+00	-3.544018170740658e+00
 3.379171749539878e-02	 1.008257371101382e+00	-3.420328809085181e+00
 2.530317469758193e-02	 1.008506096165558e+00	-3.236974691876048e+00
 1.684121089620578e-02	 1.008682882675343e+00	-2.992384048267323e+00
 8.406575145132969e-03	 1.008788432982907e+00	-2.685683842080157e+00
 0.000000000000000e+00	 1.008823457328410e+00	-2.316685184710871e+00
 8.598261429004453e-02	 1.014007853599432e+00	-1.730517331119919e+00
 7.727575506830826e-02	 1.014708539666144e+00	-1.834926340277933e+00
 6.859082667356629e-02	 1.015332597995354e+00	-1.923360062513771e+00
 5.992868353429864e-02	 1.015880680361969e+00	-1.983502295479938e+00
 5.129016378750089e-02	 1.016353449076568e+00	-2.003711644047411e+00
 4.267608919171366e-02	 1.016751576549402e+00	-1.973021471639132e+00
 3.408726505170382e-02	 1.017075744856466e+00	-1.881138915069538e+00
 2.552448015460378e-02	 1.017326645307965e+00	-1.718442976668847e+00
 1.698850671730739e-02	 1.017504978019459e+00	-1.475981709566474e+00
 8.480100344913409e-03	 1.017611451486040e+00	-1.145468514023229e+00
 0.000000000000000e+00	 1.017646782159778e+00	-7.192775646783292e-01
 8.672810149242925e-02	 1.022799513164692e+00	-3.110486339806492e-01
 7.794575198583088e-02	 1.023506274325981e+00	-3.962382406008780e-01
 6.918552345109566e-02	 1.024135743371121e+00	-4.837943714992325e-01
 6.044827772469152e-02	 1.024688577726083e+00	-5.561016097526891e-01
 5.173486021035217e-02	 1.025165445443851e+00	-5.961314272181359e-01
 4.304609979135309e-02	 1.025567024764651e+00	-5.874511938821183e-01
 3.438280875453938e-02	 1.025894003678258e+00	-5.142321138467530e-01
 2.574578272591156e-02	 1.026147079488713e+00	-3.612560917213914e-01
 1.713580061756530e-02	 1.026326958381762e+00	-1.139215358945838e-01
 8.553624585774605e-03	 1.026434354995330e+00	 2.417518922153270e-01
 0.000000000000000e+00	 1.026469991993312e+00	 7.191195712817193e-01
 8.747358045642349e-02	 1.031591075580421e+00	 8.911218404629115e-01
 7.861574149896590e-02	 1.032303911768995e+00	 8.234617660268968e-01
 6.978021365613014e-02	 1.032938791470156e+00	 7.409403152028515e-01
 6.096786617231400e-02	 1.033496377760868e+00	 6.647626977629882e-01
 5.217955171793299e-02	 1.033977344436454e+00	 6.156362277582005e-01
 4.341610630094193e-02	 1.034382375567044e+00	 6.137542416768188e-01
 3.467834919021018e-02	 1.034712165056121e+00	 6.787811736917394e-01
 2.596708285055348e-02	 1.034967416201492e+00	 8.298387929344542e-01
 1.728309288921774e-02	 1.035148841259015e+00	 1.085493604555081e+00
 8.627148013601984e-03	 1.035257161009377e+00	 1.463745413224642e+00
 0.000000000000000e+00	 1.035293104328222e+00	 1.982017044738632e+00
 8.821905266062734e-02	 1.040382558283081e+00	 1.881635720642606e+00
 7.928572493661271e-02	 1.041101469443732e+00	 1.830148269909436e+00
 7.037489846824646e-02	 1.041741759751765e+00	 1.756478612655169e+00
 6.148744990781054e-02	 1.042304097935081e+00	 1.683757393192504e+00
 5.262423919235730e-02	 1.042789163531287e+00	 1.634707328601515e+00
 4.378610945447717e-02	 1.043197646440356e+00	 1.631622010153835e+00
 3.497388694502088e-02	 1.043530246479419e+00	 1.696345893177100e+00
 2.618838096757769e-02	 1.043787672939991e+00	 1.850255487726729e+00
 1.743038382450298e-02	 1.043970644147982e+00	 2.114241758905837e+00
 8.700670774280966e-03	 1.044079887026780e+00	 2.508693742220609e+00
 0.000000000000000e+00	 1.044116136663715e+00	 3.053483376042225e+00
 8.896451958364093e-02	 1.049173978709135e+00	 2.665950996003212e+00
 7.995570362767078e-02	 1.049898964798739e+00	 2.629600238450091e+00
 7.096957906702160e-02	 1.050544665675257e+00	 2.568270083237024e+00
 6.200702996182567e-02	 1.051111755717484e+00	 2.505395831651833e+00
 5.306892351573909e-02	 1.051600920205261e+00	 2.464095705656956e+00
 4.415610998595575e-02	 1.052012854868362e+00	 2.467146459510514e+00
 3.526942260527619e-02	 1.052348265437516e+00	 2.536960159559597e+00
 2.640967751603239e-02	 1.052607867197901e+00	 2.695562150736483e+00
 1.757767371565926e-02	 1.052792384545428e+00	 2.964570224543689e+00
 8.774193013696993e-03	 1.052902550546138e+00	 3.365174999636991e+00
 0.000000000000000e+00	 1.052939106499000e+00	 3.918121522604602e+00
 8.970998270406449e-02	 1.057965354295048e+00	 3.249349837964803e+00
 8.062567890103961e-02	 1.058696415282561e+00	 3.227409327510678e+00
 7.156425663203246e-02	 1.059347526699940e+00	 3.181587098243082e+00
 6.252660736500382e-02	 1.059919368576835e+00	 3.134044491629365e+00
 5.351360557019239e-02	 1.060412631935287e+00	 3.106717404168644e+00
 4.452610862937462e-02	 1.060828018334836e+00	 3.121290608220610e+00
 3.556495675728077e-02	 1.061166239419777e+00	 3.199173169846649e+00
 2.663097293496578e-02	 1.061428016468911e+00	 3.361474987108607e+00
 1.772496285492486e-02	 1.061614079948116e+00	 3.628984468435205e+00
 8.847714877735490e-03	 1.061725169066050e+00	 4.022147366890192e+00
 0.000000000000000e+00	 1.061762031333285e+00	 4.561046782594130e+00
 9.045544350049811e-02	 1.066756702477279e+00	 3.636946031428168e+00
 8.129565208561859e-02	 1.067493838343746e+00	 3.628987779134277e+00
 7.215893234285591e-02	 1.068150360285121e+00	 3.601532308349662e+00
 6.304618314798945e-02	 1.068726953981891e+00	 3.573929184308516e+00
 5.395828623783116e-02	 1.069224316198276e+00	 3.565394858031889e+00
 4.489610611873081e-02	 1.069643154323555e+00	 3.594987568319366e+00
 3.586048998733932e-02	 1.069984185915565e+00	 3.681583219406849e+00
 2.685226766342604e-02	 1.070248138246710e+00	 3.843852261418150e+00
 1.787225153453801e-02	 1.070435747852810e+00	 4.100237596936941e+00
 8.921236512281874e-03	 1.070547760085116e+00	 4.468933533274371e+00
 0.000000000000000e+00	 1.070584928665779e+00	 4.967865796475415e+00
 9.120090345154194e-02	 1.075548040692294e+00	 3.833692039216379e+00
 8.196562451030721e-02	 1.076291251430839e+00	 3.839575929415203e+00
 7.275360737906883e-02	 1.076953183890108e+00	 3.833045745437396e+00
 6.356575834142709e-02	 1.077534529401412e+00	 3.829140956521101e+00
 5.440296640076939e-02	 1.078035990471137e+00	 3.842860857587926e+00
 4.526610318802121e-02	 1.078458280318292e+00	 3.889141898124918e+00
 3.615602288175654e-02	 1.078802122414245e+00	 3.982835815884748e+00
 2.707356214046134e-02	 1.079068250024988e+00	 4.138688604997356e+00
 1.801954004673697e-02	 1.079257405756275e+00	 4.371320344443037e+00
 8.994758063221591e-03	 1.079370341101936e+00	 4.695205909231258e+00
 0.000000000000000e+00	 1.079407815995689e+00	 5.124656583268589e+00
 9.194636403579609e-02	 1.084339386376554e+00	 3.844385720386455e+00
 8.263559750400498e-02	 1.085088671992387e+00	 3.864249348749076e+00
 7.334828292024807e-02	 1.085756014974210e+00	 3.880911576793848e+00
 6.408533397596120e-02	 1.086342112304158e+00	 3.903641704803269e+00
 5.484764694112109e-02	 1.086847672230783e+00	 3.941762323206075e+00
 4.563610057124283e-02	 1.087273413802824e+00	 4.004630888641794e+00
 3.645155602683708e-02	 1.087620066405180e+00	 4.101621885158449e+00
 2.729485680511988e-02	 1.087888369297435e+00	 4.242109601400424e+00
 1.816682868375999e-02	 1.088079071155274e+00	 4.435451551280044e+00
 9.068279676440062e-03	 1.088192929615108e+00	 4.690972562286654e+00
 0.000000000000000e+00	 1.088230710822225e+00	 5.017949552515566e+00
 1.088230710822225e+00	 0.000000000000000e+00	-2.047341308388013e+00
 1.088192929615107e+00	 9.068279676439462e-03	 4.993384568923673e+00
 1.088079071155274e+00	 1.816682868375948e-02	 1.003092873214465e+01
 1.087888369297435e+00	 2.729485680511945e-02	 1.331492693045283e+01
 1.087620066405180e+00	 3.645155602683674e-02	 1.509829229175727e+01
 1.087273413802824e+00	 4.563610057124259e-02	 1.563696374157291e+01
 1.086847672230783e+00	 5.484764694112092e-02	 1.518964391934632e+01
 1.086342112304158e+00	 6.408533397596111e-02	 1.401752667339304e+01
 1.085756014974210e+00	 7.334828292024807e-02	 1.238401422698643e+01
 1.085088671992387e+00	 8.263559750400509e-02	 1.055442412800986e+01
 1.084339386376554e+00	 9.194636403579613e-02	 8.795686114876787e+00
 1.097055127299335e+00	 0.000000000000000e+00	-3.123721982292917e+00
 1.097017039726013e+00	 9.141813969514469e-03	 3.042969022161369e+00
 1.096902257992762e+00	 1.831414272286017e-02	 7.517673655368371e+00
 1.096710009741660e+00	 2.751618963533152e-02	 1.050568473078159e+01
 1.096439531192658e+00	 3.674714014106653e-02	 1.221462030449232e+01
 1.096090067599097e+00	 4.600616176616928e-02	 1.285420292100535e+01
 1.095660873706773e+00	 5.529240417350908e-02	 1.263603031823865e+01
 1.095151214216240e+00	 6.460499921942921e-02	 1.177333768110644e+01
 1.094560364248029e+00	 7.394306102259096e-02	 1.048075154083548e+01
 1.093887609810434e+00	 8.330568604516959e-02	 8.974035433563660e+00
 1.093132248269526e+00	 9.269195318661062e-02	 7.469827448473347e+00
 1.105879566280446e+00	 0.000000000000000e+00	-3.779196999073609e+00
 1.105841172340124e+00	 9.215348450025041e-03	 1.548500161888256e+00
 1.105725467331068e+00	 1.846145713748255e-02	 5.478546948559819e+00
 1.105531672682705e+00	 2.773752302978262e-02	 8.173745487569320e+00
 1.105259018471340e+00	 3.704272500886424e-02	 9.798360293922372e+00
 1.104906743879326e+00	 4.637622390458419e-02	 1.051792858590715e+01
 1.104474097657828e+00	 5.573716253987651e-02	 1.049906392087572e+01
 1.103960338592844e+00	 6.512466578791759e-02	 9.909253246288177e+00
 1.103364735974160e+00	 7.453784064152361e-02	 8.916647464680649e+00
 1.102686570066909e+00	 8.397577629500011e-02	 7.689845624231761e+00
 1.101925132585359e+00	 9.343754423865204e-02	 6.397672859810169e+00
 1.114704025265223e+00	 0.000000000000000e+00	-3.959139258718725e+00
 1.114665324957197e+00	 9.288883097171774e-03	 5.497160463719268e-01
 1.114548696670210e+00	 1.860877188594414e-02	 3.940392070285924e+00
 1.114353355621034e+00	 2.795885692582726e-02	 6.334999012997862e+00
 1.114078525742313e+00	 3.733831054654514e-02	 7.856336956758269e+00
 1.113723440145404e+00	 4.674628688169091e-02	 8.627738210054037e+00
 1.113287341586830e+00	 5.618192191424676e-02	 8.772904511624386e+00
 1.112769482938021e+00	 6.564433353420504e-02	 8.415739207200673e+00
 1.112169127658013e+00	 7.513262160851973e-02	 7.680174514142424e+00
 1.111485550268765e+00	 8.464586806360869e-02	 6.689994000400172e+00
 1.110718036832733e+00	 9.418313698061842e-02	 5.568647343294006e+00
 1.123528501753334e+00	 0.000000000000000e+00	-3.613539442677610e+00
 1.123489495076986e+00	 9.362417890155253e-03	 8.295938687891180e-02
 1.123371943510211e+00	 1.875608692656248e-02	 2.927749115022518e+00
 1.123175056057113e+00	 2.818019126081997e-02	 5.004005035253883e+00
 1.122898050506667e+00	 3.763389667042450e-02	 6.394907417307861e+00
 1.122540153899225e+00	 4.711635059269311e-02	 7.183515135138212e+00
 1.122100602996660e+00	 5.662668217064334e-02	 7.452635807256253e+00
 1.121578644755825e+00	 6.616400231107049e-02	 7.284692562850412e+00
 1.120973536804998e+00	 7.572740375505296e-02	 6.761587546360118e+00
 1.120284547922956e+00	 8.531596116110746e-02	 5.964562281325922e+00
 1.119510958520333e+00	 9.492873120120816e-02	 4.974055022328427e+00
 1.132352993244445e+00	 0.000000000000000e+00	-2.689746232140831e+00
 1.132313680199246e+00	 9.435952808176076e-03	 1.868769550318206e-01
 1.132195205351089e+00	 1.890340221765512e-02	 2.467103933028765e+00
 1.131996771491405e+00	 2.840152597211526e-02	 4.196908718437944e+00
 1.131717590265489e+00	 3.792948329681762e-02	 5.421670113150694e+00
 1.131356882642683e+00	 4.748641493279446e-02	 6.186076828412597e+00
 1.130913879390200e+00	 5.707144318308978e-02	 6.534030677475695e+00
 1.130387821550311e+00	 6.668367197129281e-02	 6.508547948109134e+00
 1.129777960920524e+00	 7.632218691259703e-02	 6.151659062293190e+00
 1.129083560536432e+00	 8.598605539760849e-02	 5.504306635538910e+00
 1.128303895156839e+00	 9.567432668911932e-02	 4.606242053143515e+00
 1.141177497238223e+00	 0.000000000000000e+00	-1.135624345792351e+00
 1.141137877823732e+00	 9.509487830434836e-03	 8.998169329020396e-01
 1.141018479692866e+00	 1.905071771753957e-02	 2.584832712020225e+00
 1.140818499424374e+00	 2.862286099706764e-02	 3.929890943533028e+00
 1.140537142519870e+00	 3.822507034203977e-02	 4.944347419589224e+00
 1.140173623877672e+00	 4.785647979719859e-02	 5.636382602658501e+00
 1.139727168270332e+00	 5.751620482560961e-02	 6.012937985882659e+00
 1.139197010825530e+00	 6.720334236765083e-02	 6.079652089837323e+00
 1.138582397510003e+00	 7.691697091262552e-02	 5.840796194867531e+00
 1.137882585616146e+00	 8.665615058322386e-02	 5.299209910332865e+00
 1.137096844250934e+00	 9.641992323305025e-02	 4.456236683931129e+00
 1.150002011234334e+00	 0.000000000000000e+00	 1.099439654449238e+00
 1.149962085450197e+00	 9.583022936132122e-03	 2.259016084283477e+00
 1.149841764035561e+00	 1.919803338453339e-02	 3.306555420331950e+00
 1.149640237356486e+00	 2.884419627303163e-02	 4.218677543517339e+00
 1.149356704770895e+00	 3.852065772240622e-02	 4.970455050094557e+00
 1.148990375106086e+00	 4.822654508110917e-02	 5.535381995884389e+00
 1.148540467139938e+00	 5.796096697222636e-02	 5.885343539055121e+00
 1.148006210085537e+00	 6.772301335292341e-02	 5.990586579751119e+00
 1.147386844078842e+00	 7.751175558661223e-02	 5.819691484798528e+00
 1.146681620669051e+00	 8.732624652806566e-02	 5.339544985025807e+00
 1.145889803311299e+00	 9.716552062169910e-02	 4.515314331629153e+00
 1.158826532732445e+00	 0.000000000000000e+00	 4.064595337658258e+00
 1.158786300578399e+00	 9.656558104468534e-03	 4.300641857418372e+00
 1.158665055879196e+00	 1.934534917695411e-02	 4.657164162655896e+00
 1.158461982788203e+00	 2.906553173736174e-02	 5.078555991504610e+00
 1.158176274519656e+00	 3.881624535423227e-02	 5.507309109412566e+00
 1.157807133829818e+00	 4.859661067972984e-02	 5.884014173428717e+00
 1.157353773501899e+00	 5.840572949696354e-02	 6.147363771439428e+00
 1.156815416834384e+00	 6.824268477988943e-02	 6.234157723947485e+00
 1.156191298132452e+00	 7.810654076603075e-02	 6.079310722950858e+00
 1.155480663202100e+00	 8.799634304224592e-02	 5.615862379014326e+00
 1.154682769846619e+00	 9.791111864376412e-02	 4.774989743655585e+00
 1.167651059232224e+00	 0.000000000000000e+00	 7.807583751069661e+00
 1.167610520708092e+00	 9.730093314644661e-03	 7.059832580008012e+00
 1.167488352723790e+00	 1.949266505311926e-02	 6.660850251512946e+00
 1.167283733219993e+00	 2.928686732741249e-02	 6.524391334222506e+00
 1.166995849267240e+00	 3.911183315383319e-02	 6.562032829893786e+00
 1.166623897550763e+00	 4.896667648826426e-02	 6.683207361653169e+00
 1.166167084859096e+00	 5.885049227384472e-02	 6.795239722958449e+00
 1.165624628576125e+00	 6.876235650132773e-02	 6.803386861387400e+00
 1.164995757176244e+00	 7.870132628235484e-02	 6.610881355445497e+00
 1.164279710722243e+00	 8.866643993587678e-02	 6.118978436417867e+00
 1.163475741365573e+00	 9.865671708794350e-02	 5.227006600556833e+00
 1.176475588233336e+00	 0.000000000000000e+00	 1.237479027800820e+01
 1.176434743339030e+00	 9.803628545861098e-03	 1.057073584659194e+01
 1.176311652069365e+00	 1.963998097134639e-02	 9.341130061837911e+00
 1.176105486152319e+00	 2.950820298053838e-02	 8.570641410427761e+00
 1.175815426514735e+00	 3.940742103752425e-02	 8.141563007673671e+00
 1.175440663770814e+00	 4.933674240191608e-02	 7.933878311578576e+00
 1.174980398714412e+00	 5.929525517689338e-02	 7.825331293989652e+00
 1.174433842814813e+00	 6.928202837001721e-02	 7.691501126747861e+00
 1.173800218715625e+00	 7.929611196705813e-02	 7.405881422003684e+00
 1.173078760736435e+00	 8.933653701907034e-02	 6.839964057076356e+00
 1.172268715376846e+00	 9.940231574293547e-02	 5.863327604821913e+00
 1.084339386376554e+00	 9.194636403579613e-02	 8.795686114876784e+00
 1.083507324351631e+00	 1.012812364224699e-01	 7.304536615868289e+00
 1.082591932789227e+00	 1.106376663161409e-01	 6.081733349260280e+00
 1.081592550843088e+00	 1.200146650121027e-01	 5.100787211312388e+00
 1.080508530860630e+00	 1.294112262877406e-01	 4.335727811545492e+00
 1.079339238862790e+00	 1.388263265602434e-01	 3.761151645347048e+00
 1.078084055023988e+00	 1.482589250583530e-01	 3.352270573359891e+00
 1.076742374151761e+00	 1.577079640083017e-01	 3.084960509732897e+00
 1.075313606165639e+00	 1.671723688340671e-01	 2.935810216559078e+00
 1.073797176574809e+00	 1.766510483720674e-01	 2.882170097236123e+00
 1.072192526954103e+00	 1.861428951003989e-01	 2.902200877082678e+00
 1.093132248269526e+00	 9.269195318661062e-02	 7.469827448473345e+00
 1.092293439089185e+00	 1.021025216562378e-01	 6.167330022583297e+00
 1.091370624655715e+00	 1.115348224417167e-01	 5.105391610293342e+00
 1.090363138764083e+00	 1.209878588209781e-01	 4.260270660745938e+00
 1.089270328509909e+00	 1.304606164119928e-01	 3.608777450942573e+00
 1.088091554773214e+00	 1.399520633317617e-01	 3.128319918057401e+00
 1.086826192702272e+00	 1.494611503694586e-01	 2.796949710212963e+00
 1.085473632197129e+00	 1.589868111738753e-01	 2.593408357498353e+00
 1.084033278392373e+00	 1.685279624553000e-01	 2.497173460311526e+00
 1.082504552138659e+00	 1.780835042019535e-01	 2.488504787575187e+00
 1.080886890482565e+00	 1.876523199110862e-01	 2.548490173039990e+00
 1.101925132585359e+00	 9.343754423865204e-02	 6.397672859810167e+00
 1.101079576232330e+00	 1.029238089842890e-01	 5.243833328903285e+00
 1.100149338908817e+00	 1.124319808550753e-01	 4.305665241009653e+00
 1.099133749050991e+00	 1.219610551115601e-01	 3.562236640774661e+00
 1.098032148502666e+00	 1.315100092122798e-01	 2.993190773136830e+00
 1.096843893002933e+00	 1.410778029740275e-01	 2.578789299438839e+00
 1.095568352673903e+00	 1.506633787463890e-01	 2.299955649861988e+00
 1.094204912508127e+00	 1.602656616006945e-01	 2.138318414173026e+00
 1.092752972855232e+00	 1.698835595335220e-01	 2.076254668125718e+00
 1.091211949907333e+00	 1.795159636848740e-01	 2.096933128383520e+00
 1.089581276182744e+00	 1.891617485711329e-01	 2.184357024555298e+00
 1.110718036832733e+00	 9.418313698061842e-02	 5.568647343294010e+00
 1.109865733291667e+00	 1.037450981738555e-01	 4.525411380700020e+00
 1.108928073061242e+00	 1.133291413019369e-01	 3.675588348133614e+00
 1.107904379218823e+00	 1.229342536080121e-01	 3.001116410189939e+00
 1.106793988356403e+00	 1.325594043911656e-01	 2.484522694670517e+00
 1.105596251072132e+00	 1.422035451679651e-01	 2.108963620654860e+00
 1.104310532461951e+00	 1.518656098483895e-01	 1.858265286924391e+00
 1.102936212610899e+00	 1.615445149262890e-01	 1.716963823434905e+00
 1.101472687083637e+00	 1.712391596845126e-01	 1.670345603938170e+00
 1.099919367413728e+00	 1.809484264148249e-01	 1.704487213429772e+00
 1.098275681591209e+00	 1.906711806527213e-01	 1.806295059885451e+00
 1.119510958520333e+00	 9.492873120120816e-02	 4.974055022328426e+00
 1.118651907777798e+00	 1.045663889921698e-01	 4.005104152267973e+00
 1.117706824625701e+00	 1.142263035280213e-01	 3.209591713649965e+00
 1.116675026782588e+00	 1.239074540344973e-01	 2.572416589078586e+00
 1.115555845588620e+00	 1.336088016512145e-01	 2.079074094619116e+00
 1.114348626500999e+00	 1.433292895944985e-01	 1.715692233693157e+00
 1.113052729589483e+00	 1.530678433347055e-01	 1.469067948405518e+00
 1.111667530031593e+00	 1.628233707881889e-01	 1.326703300503841e+00
 1.110192418607010e+00	 1.725947625240513e-01	 1.276811865954350e+00
 1.108626802190737e+00	 1.823808919858028e-01	 1.308281054316933e+00
 1.106970104244528e+00	 1.921806157280337e-01	 1.410896736705394e+00
 1.128303895156839e+00	 9.567432668911932e-02	 4.606242053143515e+00
 1.127438097201324e+00	 1.053876812064641e-01	 3.677496938278078e+00
 1.126485591114902e+00	 1.151234672790487e-01	 2.904231349817636e+00
 1.125445689257293e+00	 1.248806561151792e-01	 2.274342502728529e+00
 1.124317717716819e+00	 1.346582006949903e-01	 1.776319914119320e+00
 1.123101016809721e+00	 1.444550359345519e-01	 1.399277905670049e+00
 1.121794941579570e+00	 1.542700788645822e-01	 1.132988050584818e+00
 1.120398862296355e+00	 1.641022288239236e-01	 9.679115016993227e-01
 1.118912164954772e+00	 1.739503676679175e-01	 8.952311325688795e-01
 1.117334251771257e+00	 1.838133599918037e-01	 9.068834184290605e-01
 1.115664541679271e+00	 1.936900533692525e-01	 9.955899788851027e-01
 1.137096844250934e+00	 9.641992323305025e-02	 4.456236683931129e+00
 1.136224299072845e+00	 1.062089745839706e-01	 3.535289812757416e+00
 1.135264370041556e+00	 1.160206323007391e-01	 2.753692228446606e+00
 1.134216364157948e+00	 1.258538595742210e-01	 2.102401206476538e+00
 1.133079602258502e+00	 1.357076012250574e-01	 1.572952757663291e+00
 1.131853419518487e+00	 1.455807838690494e-01	 1.157490091492830e+00
 1.130537165955278e+00	 1.554723160972651e-01	 8.487919782957820e-01
 1.129130206931329e+00	 1.653810886710231e-01	 6.403009519690336e-01
 1.127631923656345e+00	 1.753059747318906e-01	 5.261512901605964e-01
 1.126041713688183e+00	 1.852458300268237e-01	 5.011967039015567e-01
 1.124358991432006e+00	 1.951994931485598e-01	 5.610376636124982e-01
 1.145889803311299e+00	 9.716552062169910e-02	 4.515314331629151e+00
 1.145010510902963e+00	 1.070302688919216e-01	 3.571339453234936e+00
 1.144043158918370e+00	 1.169177983388124e-01	 2.752178352366993e+00
 1.142987048999564e+00	 1.268270641357863e-01	 2.051909006205198e+00
 1.141841496731169e+00	 1.367570029439797e-01	 1.465165219592022e+00
 1.140605832147483e+00	 1.467065330789150e-01	 9.871607641434534e-01
 1.139279400239678e+00	 1.566745546919998e-01	 6.137133778056597e-01
 1.137861561462665e+00	 1.666599499670174e-01	 3.412685722742131e-01
 1.136351692241150e+00	 1.766615833317499e-01	 1.669231909200963e-01
 1.134749185474410e+00	 1.866783016848592e-01	 8.844865492809428e-02
 1.133053451039304e+00	 1.967089346381378e-01	 1.043138302677526e-01
 1.154682769846619e+00	 9.791111864376412e-02	 4.774989743655585e+00
 1.153796730202278e+00	 1.078515638975493e-01	 3.778686557278727e+00
 1.152821955258055e+00	 1.178149651389887e-01	 2.894030193125876e+00
 1.151757741297147e+00	 1.278002695240381e-01	 2.118278919638888e+00
 1.150603398652322e+00	 1.378064055543212e-01	 1.449214674064682e+00
 1.149358252216897e+00	 1.478322832450730e-01	 8.851625946246904e-01
 1.148021641955836e+00	 1.578767943080314e-01	 4.250103820752180e-01
 1.146592923416506e+00	 1.679388123494360e-01	 6.822744442891171e-02
 1.145071468238608e+00	 1.780171930832749e-01	-1.851162261532706e-01
 1.143456664662833e+00	 1.881107745599064e-01	-3.343315002437506e-01
 1.141747918037733e+00	 1.982183774101689e-01	-3.780919428694451e-01
 1.163475741365573e+00	 9.865671708794350e-02	 5.227006600556832e+00
 1.162582954481391e+00	 1.086728593680860e-01	 4.150547530622047e+00
 1.161600756573321e+00	 1.187121324469881e-01	 3.173718196424253e+00
 1.160528438565709e+00	 1.287734754631399e-01	 2.297015729526511e+00
 1.159365305539462e+00	 1.388558087586461e-01	 1.521419605150921e+00
 1.158110677246916e+00	 1.489580340484473e-01	 8.484062869858457e-01
 1.156763888626824e+00	 1.590790346046053e-01	 2.799636777351878e-01
 1.155324290319000e+00	 1.692176754558090e-01	-1.813946638244704e-01
 1.153791249178141e+00	 1.793728036022450e-01	-5.326155832689612e-01
 1.152164148786348e+00	 1.895432482459615e-01	-7.700927173979968e-01
 1.150442389963861e+00	 1.997278210368353e-01	-8.896532616857301e-01
 1.172268715376846e+00	 9.940231574293547e-02	 5.863327604821915e+00
 1.171369181250904e+00	 1.094941550707639e-01	 4.680306571626608e+00
 1.170379560376876e+00	 1.196093000085306e-01	 3.585836606491223e+00
 1.169299138320258e+00	 1.297466816772552e-01	 2.583711290850170e+00
 1.168127214910092e+00	 1.399052122595186e-01	 1.678156138581009e+00
 1.166863104757728e+00	 1.500837851699623e-01	 8.738380752281822e-01
 1.165506137775708e+00	 1.602812752409670e-01	 1.758747067956001e-01
 1.164055659696292e+00	 1.704965389236660e-01	-4.101566534890291e-01
 1.162511032589170e+00	 1.807284145044398e-01	-8.782102367913054e-01
 1.160871635377850e+00	 1.909757223370206e-01	-1.221763390023856e+00
 1.159136864354258e+00	 2.012372650903192e-01	-1.433808513517527e+00
 1.072192526954103e+00	 1.861428951003989e-01	 2.902200877082681e+00
 1.070499410704053e+00	 1.956451693612012e-01	 2.970914360815275e+00
 1.068717037289555e+00	 2.051583467169502e-01	 3.075909077749048e+00
 1.066844898743585e+00	 2.146812752770183e-01	 3.214719740493076e+00
 1.064882505016370e+00	 2.242127879174378e-01	 3.384727025619069e+00
 1.062829384435084e+00	 2.337517025831922e-01	 3.583160796431034e+00
 1.060685084158954e+00	 2.432968226052727e-01	 3.807103103471248e+00
 1.058449170629273e+00	 2.528469370324876e-01	 4.053490908503012e+00
 1.056121230013807e+00	 2.624008209779921e-01	 4.319118476697343e+00
 1.053700868645081e+00	 2.719572359804877e-01	 4.600639381044960e+00
 1.051187713452026e+00	 2.815149303800232e-01	 4.894568062639250e+00
 1.080886890482565e+00	 1.876523199110862e-01	 2.548490173039989e+00
 1.079180044824954e+00	 1.972316477090707e-01	 2.641040951349924e+00
 1.077383218220314e+00	 2.068219670147026e-01	 2.744471091625370e+00
 1.075495898582547e+00	 2.164221165967264e-01	 2.862214262038572e+00
 1.073517591888097e+00	 2.260309198670193e-01	 2.997891141475778e+00
 1.071447822639375e+00	 2.356471851853353e-01	 3.155311922370639e+00
 1.069286134323551e+00	 2.452697061789316e-01	 3.338478117359133e+00
 1.067032089866219e+00	 2.548972620770691e-01	 3.551583603707919e+00
 1.064685272079408e+00	 2.645286180603516e-01	 3.799014839009232e+00
 1.062245284103420e+00	 2.741625256248553e-01	 4.085350181535087e+00
 1.059711749841981e+00	 2.837977229609758e-01	 4.415358248923599e+00
 1.089581276182744e+00	 1.891617485711329e-01	 2.184357024555298e+00
 1.087860701082651e+00	 1.988181301028490e-01	 2.294900970677496e+00
 1.086049421251115e+00	 2.084855915551455e-01	 2.400522378859661e+00
 1.084146920482950e+00	 2.181629623561129e-01	 2.509555870958313e+00
 1.082152700780804e+00	 2.278490564534478e-01	 2.630824963719911e+00
 1.080066282822310e+00	 2.375426726216475e-01	 2.773644368977809e+00
 1.077887206422568e+00	 2.472425947842087e-01	 2.947821183653793e+00
 1.075615030991461e+00	 2.569475923508174e-01	 3.163654892156622e+00
 1.073249335985267e+00	 2.666564205694989e-01	 3.431936103763917e+00
 1.070789721352055e+00	 2.763678208936757e-01	 3.763943947972642e+00
 1.068235807970332e+00	 2.860805213640624e-01	 4.171442051630804e+00
 1.098275681591209e+00	 1.906711806527213e-01	 1.806295059885451e+00
 1.096541377017587e+00	 2.004046160928794e-01	 1.927916593600514e+00
 1.094715643926478e+00	 2.101492198667576e-01	 2.037640447279208e+00
 1.092797961993595e+00	 2.199038120617696e-01	 2.147725618179085e+00
 1.090787829247780e+00	 2.296671971614080e-01	 2.271183400321179e+00
 1.088684762541872e+00	 2.394381643548901e-01	 2.421779995096907e+00
 1.086488298018892e+00	 2.492154878619281e-01	 2.614037656820444e+00
 1.084197991573000e+00	 2.589979272726092e-01	 2.863234284874865e+00
 1.081813419304712e+00	 2.687842279023556e-01	 3.185401374447308e+00
 1.079334177969853e+00	 2.785731211619117e-01	 3.597320238641519e+00
 1.076759885421701e+00	 2.883633249422864e-01	 4.116516416022752e+00
 1.106970104244528e+00	 1.921806157280337e-01	 1.410896736705394e+00
 1.105222070170204e+00	 2.019911052295054e-01	 1.535642533261983e+00
 1.103381883790923e+00	 2.118128514780181e-01	 1.649593378758769e+00
 1.101449020663285e+00	 2.216446652202883e-01	 1.767976800443619e+00
 1.099422974842311e+00	 2.314853414755846e-01	 1.906998200645591e+00
 1.097303259356043e+00	 2.413336598478243e-01	 2.083844286781344e+00
 1.095089406675410e+00	 2.511883848529137e-01	 2.316684739888839e+00
 1.092780969178836e+00	 2.610482662613206e-01	 2.624672022798002e+00
 1.090377519611071e+00	 2.709120394558432e-01	 3.027939229644178e+00
 1.087878651535683e+00	 2.807784258045261e-01	 3.547595879515864e+00
 1.085283979780712e+00	 2.906461330486506e-01	 4.205721558629133e+00
 1.115664541679271e+00	 1.936900533692525e-01	 9.955899788851027e-01
 1.113902778080947e+00	 2.035775970630707e-01	 1.114039786473129e+00
 1.112048138388968e+00	 2.134764859174058e-01	 1.230364241113693e+00
 1.110100094040817e+00	 2.233855213382608e-01	 1.361824746315114e+00
 1.108058135117686e+00	 2.333034888806627e-01	 1.526663738266014e+00
 1.105921770822807e+00	 2.432291585632111e-01	 1.744447273566962e+00
 1.103690529955006e+00	 2.531612851979896e-01	 2.035946699704733e+00
 1.101363961376972e+00	 2.630986087358285e-01	 2.423107786181298e+00
 1.098941634477672e+00	 2.730398546268836e-01	 2.929049152251419e+00
 1.096423139628413e+00	 2.829837341964819e-01	 3.578058370174528e+00
 1.093808088631989e+00	 2.929289450361586e-01	 4.395585638792737e+00
 1.124358991432006e+00	 1.951994931485598e-01	 5.610376636124965e-01
 1.122583498290258e+00	 2.051640911439185e-01	 6.626317765446688e-01
 1.120714405265136e+00	 2.151401227133998e-01	 7.771496174145268e-01
 1.118751179674995e+00	 2.251263799222787e-01	 9.230150772967561e-01
 1.116693307627193e+00	 2.351216388613269e-01	 1.119964190514700e+00
 1.114540294500143e+00	 2.451246599638118e-01	 1.389051819653814e+00
 1.112291665420569e+00	 2.551341883379800e-01	 1.752656472415403e+00
 1.109946965735407e+00	 2.651489541150091e-01	 2.234440887764401e+00
 1.107505761477841e+00	 2.751676728123982e-01	 2.859164781851273e+00
 1.104967639826910e+00	 2.851890457127417e-01	 3.653121486723995e+00
 1.102332209560157e+00	 2.952117602578134e-01	 4.643972034023413e+00
 1.133053451039304e+00	 1.967089346381378e-01	 1.043138302677489e-01
 1.131264228338580e+00	 2.067505870223924e-01	 1.781178074500399e-01
 1.129380681963944e+00	 2.168037613944789e-01	 2.858726157074176e-01
 1.127402275114619e+00	 2.268672404789337e-01	 4.462340787157373e-01
 1.125328489924120e+00	 2.369397909022619e-01	 6.792836216950243e-01
 1.123158827946038e+00	 2.470201635123877e-01	 1.006537153457628e+00
 1.120892810634984e+00	 2.571070937137088e-01	 1.450951995098497e+00
 1.118529979822143e+00	 2.671993018177391e-01	 2.036931744354851e+00
 1.116069898184907e+00	 2.772954934093091e-01	 2.790328961474302e+00
 1.113512149710043e+00	 2.873943597282683e-01	 3.738445559505750e+00
 1.110856340149837e+00	 2.974945780666181e-01	 4.910029079413769e+00
 1.141747918037733e+00	 1.982183774101689e-01	-3.780919428694451e-01
 1.139944965766357e+00	 2.083370842488358e-01	-3.440013253153850e-01
 1.138046966029914e+00	 2.184674014891222e-01	-2.496092015954281e-01
 1.136053377908490e+00	 2.286081025148177e-01	-7.690450298496276e-02
 1.133963679561754e+00	 2.387579444881526e-01	 1.936270502169521e-01
 1.131777368718472e+00	 2.489156686717000e-01	 5.830145119434580e-01
 1.129493963161138e+00	 2.590800007660000e-01	 1.113811293626342e+00
 1.127113001205179e+00	 2.692496512628949e-01	 1.810102649400157e+00
 1.124634042172197e+00	 2.794233158145375e-01	 2.697510941573466e+00
 1.122056666856679e+00	 2.895996756180249e-01	 3.803198561382675e+00
 1.119380477985655e+00	 2.997773978155760e-01	 5.155868377053308e+00
 1.150442389963861e+00	 1.997278210368353e-01	-8.896532616857302e-01
 1.148625708114031e+00	 2.099235823735922e-01	-9.081588373293452e-01
 1.146713255007565e+00	 2.201310425258087e-01	-8.353227487755637e-01
 1.144704485605409e+00	 2.303489655365222e-01	-6.546376701956107e-01
 1.142598874093383e+00	 2.405760991036838e-01	-3.480507721761925e-01
 1.140395914375427e+00	 2.508111749045097e-01	 1.040510033471328e-01
 1.138095120561916e+00	 2.610529089356778e-01	 7.228537196216651e-01
 1.135696027452518e+00	 2.713000018693528e-01	 1.531127148357863e+00
 1.133198191013039e+00	 2.815511394250055e-01	 2.553233270933836e+00
 1.130601188845688e+00	 2.918049927569740e-01	 3.815132444875589e+00
 1.127904620652233e+00	 3.020602188576901e-01	 5.344387099473855e+00
 1.159136864354258e+00	 2.012372650903192e-01	-1.433808513517530e+00
 1.157306452922046e+00	 2.115100809470052e-01	-1.518724405232292e+00
 1.155379546441417e+00	 2.217946840330171e-01	-1.477183461240529e+00
 1.153355595754176e+00	 2.320898290506393e-01	-1.295023939303074e+00
 1.151234071072297e+00	 2.423942542335403e-01	-9.565311038725294e-01
 1.149014462474888e+00	 2.527066816735781e-01	-4.444188620249113e-01
 1.146696280400205e+00	 2.630258176635662e-01	 2.601867411494951e-01
 1.144279056132160e+00	 2.733503530559895e-01	 1.177762036790757e+00
 1.141762342280760e+00	 2.836789636376347e-01	 2.330398120515087e+00
 1.139145713255937e+00	 2.940103105200784e-01	 3.741810974581698e+00
 1.136428765734195e+00	 3.043430405459637e-01	 5.437349179791557e+00
 1.051187713452026e+00	 2.815149303800232e-01	 4.894568062639250e+00
 1.048581412613244e+00	 2.910726398417731e-01	 5.170491951604530e+00
 1.045881636661798e+00	 3.006290881733392e-01	 5.414904396735515e+00
 1.043088078209732e+00	 3.101829873646860e-01	 5.651041254575849e+00
 1.040200452118341e+00	 3.197330378908551e-01	 5.904092489196366e+00
 1.037218495887461e+00	 3.292779291590120e-01	 6.201198192053065e+00
 1.034141970034960e+00	 3.388163399692082e-01	 6.571440968200121e+00
 1.030970658465916e+00	 3.483469389886462e-01	 7.045834590808192e+00
 1.027704368830951e+00	 3.578683852392130e-01	 7.657308833217344e+00
 1.024342932873230e+00	 3.673793285980262e-01	 8.440690395692700e+00
 1.020886206763610e+00	 3.768784103107179e-01	 9.442979098346527e+00
 1.059711749841981e+00	 2.837977229609758e-01	 4.415358248923599e+00
 1.057084314620796e+00	 2.934329354814531e-01	 4.776933120948688e+00
 1.054362646301285e+00	 3.030668766452962e-01	 5.161229179151530e+00
 1.051546435002888e+00	 3.126982479980471e-01	 5.578483574566389e+00
 1.048635393274711e+00	 3.223257394769500e-01	 6.039509938667366e+00
 1.045629256487975e+00	 3.319480298616244e-01	 6.555689304994169e+00
 1.042527783218591e+00	 3.415637872385635e-01	 7.138959121449347e+00
 1.039330755619318e+00	 3.511716694792438e-01	 7.801800293311199e+00
 1.036037979781014e+00	 3.607703247316135e-01	 8.557222201870577e+00
 1.032649286082447e+00	 3.703583919246967e-01	 9.418745648994097e+00
 1.029164529528158e+00	 3.799345012860394e-01	 1.042432088861867e+01
 1.068235807970332e+00	 2.860805213640624e-01	 4.171442051630804e+00
 1.065587238312894e+00	 2.957932371409369e-01	 4.643089488849695e+00
 1.062843677569518e+00	 3.055046713346897e-01	 5.159337502316373e+00
 1.060004813367034e+00	 3.152135150464138e-01	 5.719573792176305e+00
 1.057070355942356e+00	 3.249184476755314e-01	 6.322609885952288e+00
 1.054040038538092e+00	 3.346181373740901e-01	 6.966667885448050e+00
 1.050913617788186e+00	 3.443112415149979e-01	 7.649366747345757e+00
 1.047690874093082e+00	 3.539964071739803e-01	 8.367708068835320e+00
 1.044371611983876e+00	 3.636722716250192e-01	 9.118061352453855e+00
 1.040955660474934e+00	 3.733374628490190e-01	 9.898655441191035e+00
 1.037442873404483e+00	 3.829906000554127e-01	 1.074165038971066e+01
 1.076759885421701e+00	 2.883633249422864e-01	 4.116516416022752e+00
 1.074090181280135e+00	 2.981535441512704e-01	 4.717720632506911e+00
 1.071324728063283e+00	 3.079424715506127e-01	 5.358122026808700e+00
 1.068463210905362e+00	 3.177287877969357e-01	 6.028367212644487e+00
 1.065505337731094e+00	 3.275111617518153e-01	 6.717595232480526e+00
 1.062450839654468e+00	 3.372882509397047e-01	 7.413421036351810e+00
 1.059299471367465e+00	 3.470587020199035e-01	 8.101919659574953e+00
 1.056051011518212e+00	 3.568211512723621e-01	 8.767611095264108e+00
 1.052705263078036e+00	 3.665742250970736e-01	 9.393445858763840e+00
 1.049262053696909e+00	 3.763165405267977e-01	 9.971611648737705e+00
 1.045721236046741e+00	 3.860467057528314e-01	 1.052283592620028e+01
 1.085283979780712e+00	 2.906461330486506e-01	 4.205721558629133e+00
 1.082593141113114e+00	 3.005138558434994e-01	 4.951184114708870e+00
 1.079805795379363e+00	 3.103802766021593e-01	 5.708068680818589e+00
 1.076921625221063e+00	 3.202440655367617e-01	 6.460349530998776e+00
 1.073940336250740e+00	 3.301038809710174e-01	 7.189779621932936e+00
 1.070861657453763e+00	 3.399583698017635e-01	 7.875871694044426e+00
 1.067685341580148e+00	 3.498061679746717e-01	 8.495880962227300e+00
 1.064411165525704e+00	 3.596459009738958e-01	 9.024789410041821e+00
 1.061038930701994e+00	 3.694761843254195e-01	 9.435291701163580e+00
 1.057568463394589e+00	 3.792956241138375e-01	 9.723727612158223e+00
 1.053999615109085e+00	 3.891028175122886e-01	 9.891762909261352e+00
 1.093808088631989e+00	 2.929289450361586e-01	 4.395585638792737e+00
 1.091096115402428e+00	 3.028741715486697e-01	 5.295374196070060e+00
 1.088286877114546e+00	 3.128180857984232e-01	 6.161195621529409e+00
 1.085380053917330e+00	 3.227593475530421e-01	 6.972382201126767e+00
 1.082375349111109e+00	 3.326966045983535e-01	 7.705545321072840e+00
 1.079272489552634e+00	 3.426284932035625e-01	 8.334555065872641e+00
 1.076071226049955e+00	 3.525536386006939e-01	 8.830522025533675e+00
 1.072771333746560e+00	 3.624706554780879e-01	 9.161781337120575e+00
 1.069372612494248e+00	 3.723781484877003e-01	 9.295271152308191e+00
 1.065874887214190e+00	 3.822747127659428e-01	 9.238465884167748e+00
 1.062278008245671e+00	 3.921589344677780e-01	 8.968489139472513e+00
 1.102332209560157e+00	 2.952117602578134e-01	 4.643972034023412e+00
 1.099599101738671e+00	 3.052344905978273e-01	 5.703663429217184e+00
 1.096767970865613e+00	 3.152558984484984e-01	 6.670995068761892e+00
 1.093838494597351e+00	 3.252746331329259e-01	 7.522650381901733e+00
 1.090810373922018e+00	 3.352893318990401e-01	 8.232303099424628e+00
 1.087683333567742e+00	 3.452986203883973e-01	 8.770596208166877e+00
 1.084457122400605e+00	 3.553011131193616e-01	 9.105123466170232e+00
 1.081131513811779e+00	 3.652954139844449e-01	 9.200413508509266e+00
 1.077706306093297e+00	 3.752801167615593e-01	 9.026851768008544e+00
 1.074181322801931e+00	 3.852538056389181e-01	 8.596741328306763e+00
 1.070556413110653e+00	 3.952150557532932e-01	 7.869392863926394e+00
 1.110856340149837e+00	 2.974945780666181e-01	 4.910029079413768e+00
 1.108102097712440e+00	 3.075948123220183e-01	 6.130846980249699e+00
 1.105249074229351e+00	 3.176937138614783e-01	 7.192377856725167e+00
 1.102296944864320e+00	 3.277899215635631e-01	 8.070613322051482e+00
 1.099245408293281e+00	 3.378820621382923e-01	 8.738454000517867e+00
 1.096094187115743e+00	 3.479687505995634e-01	 9.165688683378516e+00
 1.092843028255819e+00	 3.580485907520670e-01	 9.318976131878761e+00
 1.089491703352362e+00	 3.681201756924732e-01	 9.161829555842401e+00
 1.086040009137640e+00	 3.781820883246395e-01	 8.678502829729641e+00
 1.082487767804028e+00	 3.882329018885685e-01	 7.877018960555119e+00
 1.078834827358186e+00	 3.982711805028277e-01	 6.707313976502485e+00
 1.119380477985655e+00	 2.997773978155760e-01	 5.155868377053308e+00
 1.116605100914329e+00	 3.099551360522884e-01	 6.533831030335447e+00
 1.113730184802543e+00	 3.201315313464569e-01	 7.681785225545687e+00
 1.110755402321427e+00	 3.303052121321027e-01	 8.576957053874597e+00
 1.107680449834716e+00	 3.404747945813266e-01	 9.193352903944644e+00
 1.104505047813296e+00	 3.506388830803566e-01	 9.502074238893524e+00
 1.101228941239316e+00	 3.607960707202009e-01	 9.471382090164399e+00
 1.097851899999308e+00	 3.709449398016796e-01	 9.066642855456784e+00
 1.094373719265776e+00	 3.810840623545844e-01	 8.296971325520319e+00
 1.090794219866699e+00	 3.912120006706980e-01	 7.155407280529940e+00
 1.087113248642424e+00	 4.013273078503746e-01	 5.591688726497402e+00
 1.127904620652233e+00	 3.020602188576901e-01	 5.344387099473857e+00
 1.125108108934936e+00	 3.123154611196834e-01	 6.872247322599144e+00
 1.122211300181975e+00	 3.225693502125279e-01	 8.098987821217213e+00
 1.119213864571863e+00	 3.328205041256945e-01	 9.004939855650891e+00
 1.116115496156136e+00	 3.430675284933584e-01	 9.567794803283292e+00
 1.112915913277059e+00	 3.533090170740725e-01	 9.762590654100993e+00
 1.109614858974815e+00	 3.635435522451554e-01	 9.561655620846430e+00
 1.106212101383617e+00	 3.737697055115701e-01	 8.939365685286075e+00
 1.102707434116205e+00	 3.839860380290369e-01	 7.927624470118294e+00
 1.099100676636162e+00	 3.941911011411116e-01	 6.505747330676327e+00
 1.095391674617524e+00	 4.043834369299280e-01	 4.628678278746549e+00
 1.136428765734195e+00	 3.043430405459637e-01	 5.437349179791556e+00
 1.133611119364855e+00	 3.146757868552493e-01	 7.104123881425144e+00
 1.130692417964432e+00	 3.250071697687851e-01	 8.402774722094517e+00
 1.127672329218821e+00	 3.353357968314881e-01	 9.318587742964258e+00
 1.124550544867360e+00	 3.456602631396041e-01	 9.834728585700256e+00
 1.121326781123693e+00	 3.559791518240068e-01	 9.932232027459913e+00
 1.118000779086037e+00	 3.662910345483221e-01	 9.589993330791135e+00
 1.114572305136289e+00	 3.765944720216516e-01	 8.802524380510242e+00
 1.111041151327425e+00	 3.868880145256406e-01	 7.614501491392425e+00
 1.107407135758632e+00	 3.971702024556138e-01	 5.999697707568154e+00
 1.103670102937638e+00	 4.074395668754809e-01	 3.921291447797931e+00
 1.020886206763610e+00	 3.768784103107179e-01	 9.442979098346527e+00
 1.017333459291891e+00	 3.863658749320800e-01	 1.037960414804594e+01
 1.013685175392733e+00	 3.958387309664232e-01	 1.090232906836686e+01
 1.009941285687257e+00	 4.052955957919373e-01	 1.099589810144230e+01
 1.006101746455231e+00	 4.147350803073234e-01	 1.064304431211955e+01
 1.002166539904589e+00	 4.241557895045043e-01	 9.824489281143583e+00
 9.981356744262321e-01	 4.335563230520150e-01	 8.518945868848753e+00
 9.940091848336720e-01	 4.429352758886505e-01	 6.703124108635774e+00
 9.897871325870814e-01	 4.522912388269316e-01	 4.351740284214216e+00
 9.854696060013458e-01	 4.616227991659320e-01	 1.437529238979947e+00
 9.810567204377049e-01	 4.709285413129863e-01	-2.068740040023000e+00
 1.029164529528158e+00	 3.799345012860394e-01	 1.042432088861868e+01
 1.025582972978587e+00	 3.894988993535164e-01	 1.124559367553623e+01
 1.021905105300711e+00	 3.990485703735404e-01	 1.152590929845457e+01
 1.018130856553068e+00	 4.085821205126956e-01	 1.127216493220418e+01
 1.014260182660907e+00	 4.180981494055361e-01	 1.049188314593821e+01
 1.010293065687895e+00	 4.275952507319402e-01	 9.193214516466796e+00
 1.006229514092981e+00	 4.370720128052312e-01	 7.384939732965234e+00
 1.002069562971986e+00	 4.465270191706388e-01	 5.076471194685330e+00
 9.978132742834664e-01	 4.559588492136598e-01	 2.277854103989488e+00
 9.934607370584578e-01	 4.653660787778533e-01	-1.000232942363795e+00
 9.890120675936659e-01	 4.747472807915894e-01	-4.746477860234164e+00
 1.037442873404483e+00	 3.829906000554127e-01	 1.074165038971066e+01
 1.033832507703591e+00	 3.926319317651642e-01	 1.131203024359801e+01
 1.030125056171560e+00	 4.022584179667251e-01	 1.128346465759258e+01
 1.026320448304341e+00	 4.118686536150448e-01	 1.068102998020740e+01
 1.022418639672665e+00	 4.214612270805012e-01	 9.532575390450630e+00
 1.018419612195926e+00	 4.310347207308974e-01	 7.868727464699012e+00
 1.014323374401121e+00	 4.405877115243154e-01	 5.722891302283744e+00
 1.010129961666376e+00	 4.501187716123899e-01	 3.131248165024071e+00
 1.005839436448636e+00	 4.596264689535636e-01	 1.327495915610084e-01
 1.001451888495083e+00	 4.691093679358495e-01	-3.230892046931830e+00
 9.969674350378889e-01	 4.785660300086246e-01	-6.915216577269965e+00
 1.045721236046741e+00	 3.860467057528314e-01	 1.052283592620028e+01
 1.042082061129215e+00	 3.957649712792321e-01	 1.074263825390195e+01
 1.038345025675969e+00	 4.054682728364353e-01	 1.036373676590156e+01
 1.034510058620366e+00	 4.151551941677294e-01	 9.425498519031619e+00
 1.030577115178610e+00	 4.248243123792884e-01	 7.971729791009387e+00
 1.026546177125825e+00	 4.344741985268150e-01	 6.050681654511280e+00
 1.022417253057053e+00	 4.441034182131226e-01	 3.715049815678970e+00
 1.018190378632725e+00	 4.537105321962240e-01	 1.021968637014531e+00
 1.013865616808171e+00	 4.632940970074801e-01	-1.967000725882006e+00
 1.009443058046719e+00	 4.728526655793323e-01	-5.185888134532171e+00
 1.004922820516011e+00	 4.823847878821361e-01	-8.564338275581802e+00
 1.053999615109085e+00	 3.891028175122886e-01	 9.891762909261352e+00
 1.050331630917773e+00	 3.988980170079295e-01	 9.696032876033296e+00
 1.046565011484631e+00	 4.086781340731296e-01	 8.949572181663322e+00
 1.042699685180430e+00	 4.184417412394937e-01	 7.702232741978325e+00
 1.038735606866850e+00	 4.281874043489683e-01	 6.009498873239464e+00
 1.034672758174738e+00	 4.379136831451326e-01	 3.932492946687452e+00
 1.030511147767179e+00	 4.476191318755069e-01	 1.537973643782145e+00
 1.026250811586913e+00	 4.573022999044600e-01	-1.101673292201625e+00
 1.021891813087648e+00	 4.669617323362465e-01	-3.908451900221177e+00
 1.017434243448865e+00	 4.765959706477123e-01	-6.798780520465789e+00
 1.012878221773671e+00	 4.862035533301683e-01	-9.683524054607187e+00
 1.062278008245671e+00	 3.921589344677780e-01	 8.968489139472513e+00
 1.058581214731576e+00	 4.020310680634651e-01	 8.325919169609445e+00
 1.054785011268236e+00	 4.118880007672663e-01	 7.218152078383345e+00
 1.050889325663823e+00	 4.217282938990814e-01	 5.701798834027581e+00
 1.046894112425490e+00	 4.315505020366112e-01	 3.839830364046094e+00
 1.042799353039807e+00	 4.413531736112888e-01	 1.701582382467605e+00
 1.038605056237903e+00	 4.511348515153236e-01	-6.372482229933623e-01
 1.034311258244820e+00	 4.608940737194175e-01	-3.094615561647291e+00
 1.029918023012649e+00	 4.706293739006999e-01	-5.582145572036208e+00
 1.025425442437019e+00	 4.803392820804009e-01	-8.005165604694342e+00
 1.020833636556505e+00	 4.900223252707657e-01	-1.026274282958382e+01
 1.070556413110653e+00	 3.952150557532932e-01	 7.869392863926395e+00
 1.066830810232940e+00	 4.051641235580484e-01	 6.781281927503477e+00
 1.063005022697474e+00	 4.150978720093037e-01	 5.341211224662930e+00
 1.059078977749833e+00	 4.250148512152375e-01	 3.608902538374603e+00
 1.055052629542636e+00	 4.349136044892867e-01	 1.650706903748557e+00
 1.050925959418177e+00	 4.447926689507231e-01	-4.603922814119755e-01
 1.046698976175627e+00	 4.546505761364262e-01	-2.644785011345896e+00
 1.042371716322328e+00	 4.644858526234160e-01	-4.816249412847625e+00
 1.037944244308755e+00	 4.742970206616781e-01	-6.881975577090979e+00
 1.033416652746681e+00	 4.840825988168092e-01	-8.742598572915176e+00
 1.028789062610151e+00	 4.938411026219722e-01	-1.029224071595461e+01
 1.078834827358186e+00	 3.982711805028277e-01	 6.707313976502485e+00
 1.075080415084176e+00	 4.082971826038884e-01	 5.206566738155106e+00
 1.071225043443037e+00	 4.183077468896999e-01	 3.485246840980995e+00
 1.067268639117747e+00	 4.283014122567055e-01	 1.602613835022881e+00
 1.063211155906394e+00	 4.382767107540651e-01	-3.756253222647625e-01
 1.059052575006993e+00	 4.482321681888744e-01	-2.377315743816230e+00
 1.054792905286752e+00	 4.581663047426702e-01	-4.323862772777068e+00
 1.050432183535317e+00	 4.680776355987747e-01	-6.130248936940514e+00
 1.045970474701542e+00	 4.779646715800179e-01	-7.705059795634132e+00
 1.041407872113348e+00	 4.878259197963483e-01	-8.950518761742664e+00
 1.036744497680246e+00	 4.976598843018319e-01	-9.762530966039666e+00
 1.087113248642424e+00	 4.013273078503746e-01	 5.591688726497402e+00
 1.083330026947597e+00	 4.114302443131942e-01	 3.741852734640017e+00
 1.079445071175615e+00	 4.215176244989133e-01	 1.811717872540529e+00
 1.075458307446855e+00	 4.315879760922303e-01	-1.434186886744502e-01
 1.071369689204871e+00	 4.416398198780166e-01	-2.062438442212596e+00
 1.067179197503398e+00	 4.516716703511819e-01	-3.878404466235409e+00
 1.062886841277681e+00	 4.616820363379091e-01	-5.518572241685659e+00
 1.058492657599668e+00	 4.716694216278132e-01	-6.904408461524011e+00
 1.053996711916591e+00	 4.816323256165564e-01	-7.951617912018155e+00
 1.049399098272520e+00	 4.915692439584290e-01	-8.570178492841181e+00
 1.044699939512429e+00	 5.014786692283897e-01	-8.664384428557669e+00
 1.095391674617524e+00	 4.043834369299280e-01	 4.628678278746549e+00
 1.091579643485516e+00	 4.145633077981749e-01	 2.523017469917054e+00
 1.087665103565899e+00	 4.247275039274023e-01	 4.772351847664053e-01
 1.083647980416445e+00	 4.348745417905558e-01	-1.460763230662683e+00
 1.079528227126172e+00	 4.450029309082112e-01	-3.238314692431081e+00
 1.075305824604536e+00	 4.551111744630849e-01	-4.798005579971353e+00
 1.070980781854817e+00	 4.651977699259983e-01	-6.077685454905766e+00
 1.066553136231262e+00	 4.752612096928513e-01	-7.010487362845731e+00
 1.062022953679483e+00	 4.852999817321313e-01	-7.524854772227684e+00
 1.057390328959694e+00	 4.953125702424627e-01	-7.544575192644808e+00
 1.052655385852337e+00	 5.052974563196895e-01	-6.988820503354065e+00
 1.103670102937638e+00	 4.074395668754809e-01	 3.921291447797931e+00
 1.099829262360247e+00	 4.176963721710397e-01	 1.681894331327939e+00
 1.095885138284579e+00	 4.279373842656255e-01	-3.662568423316504e-01
 1.091837655705804e+00	 4.381611084204264e-01	-2.186009417828494e+00
 1.087686767358405e+00	 4.483660428917192e-01	-3.736947626465526e+00
 1.083432454007551e+00	 4.585506795500225e-01	-4.975404889842273e+00
 1.079074724724561e+00	 4.687135045107917e-01	-5.854480673045887e+00
 1.074613617145979e+00	 4.788529987762081e-01	-6.324061913784813e+00
 1.070049197715797e+00	 4.889676388875796e-01	-6.330849045636062e+00
 1.065381561910370e+00	 4.990558975878605e-01	-5.818386625290506e+00
 1.060610834445606e+00	 5.091162444937753e-01	-4.727098565352154e+00
 9.810567204377049e-01	 4.709285413129863e-01	-2.068740040022999e+00
 9.765493927391889e-01	 4.802054725542235e-01	-5.526814884113278e+00
 9.719470501989695e-01	 4.894537577567515e-01	-8.274674778451413e+00
 9.672498895077370e-01	 4.986719766757557e-01	-1.030797852941495e+01
 9.624581349827819e-01	 5.078587087228539e-01	-1.162180428734181e+01
 9.575720386728110e-01	 5.170125336241197e-01	-1.221065720115873e+01
 9.525918804443397e-01	 5.261320320837842e-01	-1.206847793472013e+01
 9.475179680493709e-01	 5.352157864530170e-01	-1.118865203405296e+01
 9.423506371741205e-01	 5.442623814031888e-01	-9.564020133797563e+00
 9.370902514685465e-01	 5.532704046029900e-01	-7.186888990317469e+00
 9.317372025564836e-01	 5.622384473987843e-01	-4.049043328227080e+00
 9.890120675936659e-01	 4.747472807915894e-01	-4.746477860234164e+00
 9.844681901667695e-01	 4.840994382732193e-01	-8.283410684223096e+00
 9.798285274268862e-01	 4.934227174267359e-01	-1.095315074878579e+01
 9.750932776596671e-01	 5.027156864906005e-01	-1.277260924263288e+01
 9.702626670013819e-01	 5.119769133569180e-01	-1.376048706602614e+01
 9.653369495445935e-01	 5.212049662348005e-01	-1.393727322269122e+01
 9.603164074252435e-01	 5.303984143194491e-01	-1.332524065193708e+01
 9.552013508908868e-01	 5.395558284663584e-01	-1.194843946695544e+01
 9.499921183498045e-01	 5.486757818700373e-01	-9.832687570852679e+00
 9.446890764007800e-01	 5.577568507466210e-01	-7.005558627782907e+00
 9.392926198433109e-01	 5.667976150197382e-01	-3.496367372577748e+00
 9.969674350378889e-01	 4.785660300086246e-01	-6.915216577269965e+00
 9.923870077893991e-01	 4.879934139223986e-01	-1.025753037008031e+01
 9.877100247546671e-01	 4.973916872180565e-01	-1.264846471672316e+01
 9.829366858143073e-01	 5.067594066173066e-01	-1.412232105170119e+01
 9.780672189235764e-01	 5.160951284927164e-01	-1.471710072135699e+01
 9.731018802188975e-01	 5.253974095364095e-01	-1.447449527679698e+01
 9.680409541056478e-01	 5.346648074345296e-01	-1.343987142789854e+01
 9.628847533269373e-01	 5.438958815468701e-01	-1.166225060628985e+01
 9.576336190131246e-01	 5.530891935910521e-01	-9.194283096071256e+00
 9.522879207118242e-01	 5.622433083306284e-01	-6.092216702275115e+00
 9.468480563982066e-01	 5.713567942664680e-01	-2.415859938600017e+00
 1.004922820516011e+00	 4.823847878821361e-01	-8.564338275581802e+00
 1.000305843363073e+00	 4.918873983985056e-01	-1.149637726826380e+01
 9.955915399488828e-01	 5.013606660062216e-01	-1.345565115461244e+01
 9.907801117490235e-01	 5.108031359102169e-01	-1.449008637631342e+01
 9.858717885377440e-01	 5.202133529634974e-01	-1.465276691401611e+01
 9.808668284953328e-01	 5.295898623411743e-01	-1.400191763150698e+01
 9.757655182966073e-01	 5.389312102203117e-01	-1.260088013612359e+01
 9.705681731802422e-01	 5.482359444649770e-01	-1.051808109028947e+01
 9.652751369986770e-01	 5.575026153158812e-01	-7.826992924054351e+00
 9.598867822483672e-01	 5.667297760839710e-01	-4.606086913958185e+00
 9.544035100801627e-01	 5.759159838473319e-01	-9.387786093654888e-01
 1.012878221773671e+00	 4.862035533301683e-01	-9.683524054607183e+00
 1.008224694643785e+00	 4.957813905982835e-01	-1.204563730729350e+01
 1.003473070776104e+00	 5.053296526667397e-01	-1.346672460335635e+01
 9.986235532411808e-01	 5.148468732236733e-01	-1.400466599638634e+01
 9.936763736322627e-01	 5.243315856025080e-01	-1.372351148810510e+01
 9.886317921735073e-01	 5.337823234613228e-01	-1.269345856098826e+01
 9.834900978091781e-01	 5.431976214680809e-01	-1.099082070872257e+01
 9.782516082735184e-01	 5.525760159911044e-01	-8.697986891381316e+00
 9.729166701410578e-01	 5.619160457941728e-01	-5.903371860162284e+00
 9.674856588570963e-01	 5.712162527356066e-01	-2.701357314987085e+00
 9.619589787481722e-01	 5.804751824706879e-01	 8.077761228385374e-01
 1.020833636556505e+00	 4.900223252707657e-01	-1.026274282958381e+01
 1.016143559387530e+00	 4.996753894184763e-01	-1.194953864160980e+01
 1.011354615002900e+00	 5.092986460751195e-01	-1.277079789182244e+01
 1.006467008068146e+00	 5.188906174120183e-01	-1.279077375773089e+01
 1.001480971995511e+00	 5.284498252429963e-01	-1.208046368175248e+01
 9.963967690530297e-01	 5.379747917090832e-01	-1.071758221687999e+01
 9.912146904544151e-01	 5.474640399691240e-01	-8.786523970615175e+00
 9.859350564294850e-01	 5.569160948956771e-01	-6.378316571004000e+00
 9.805582162748619e-01	 5.663294837755743e-01	-3.590563598375153e+00
 9.750845483846996e-01	 5.757027370144935e-01	-5.273774466800405e-01
 9.695144602612272e-01	 5.850343888448946e-01	 2.700697900893735e+00
 1.028789062610151e+00	 4.938411026219722e-01	-1.029224071595461e+01
 1.024062435350302e+00	 5.035693937558273e-01	-1.125090857767457e+01
 1.019236170395844e+00	 5.132676451068693e-01	-1.145419494370683e+01
 1.014310474007282e+00	 5.229343673295935e-01	-1.096923371180770e+01
 1.009285581415867e+00	 5.325680707182097e-01	-9.870046173807893e+00
 1.004161756933508e+00	 5.421672658966828e-01	-8.237510286731460e+00
 9.989392940433742e-01	 5.517304645147258e-01	-6.159319754088457e+00
 9.936185154708608e-01	 5.612561799491205e-01	-3.729932843013639e+00
 9.881997732346863e-01	 5.707429280097348e-01	-1.050510883359429e+00
 9.826834486778641e-01	 5.801892276495898e-01	 1.771153584175929e+00
 9.770699524783206e-01	 5.895936016783100e-01	 4.620719022344876e+00
 1.036744497680246e+00	 4.976598843018319e-01	-9.762530966039666e+00
 1.031981320288096e+00	 5.074634025070800e-01	-9.991227946980384e+00
 1.027117734721504e+00	 5.172366486374980e-01	-9.600558462327964e+00
 1.022153948835957e+00	 5.269781218307419e-01	-8.657130095611556e+00
 1.017090199681709e+00	 5.366863208613959e-01	-7.234156458429654e+00
 1.011926753614553e+00	 5.463597448363501e-01	-5.411423987644895e+00
 1.006663906387111e+00	 5.559968938961732e-01	-3.275248868995027e+00
 1.001301983220362e+00	 5.655962699218591e-01	-9.184240194608084e-01
 9.958413388551272e-01	 5.751563772463020e-01	 1.559843919296048e+00
 9.902823575832775e-01	 5.846757233698533e-01	 4.054007603611869e+00
 9.846254532584435e-01	 5.941528196792929e-01	 6.452262032834190e+00
 1.044699939512429e+00	 5.014786692283897e-01	-8.664384428557666e+00
 1.039900211956906e+00	 5.113574145689785e-01	-8.210683061940514e+00
 1.034999305746452e+00	 5.212056555425141e-01	-7.290952766147006e+00
 1.029997430331535e+00	 5.310218797698053e-01	-5.967950533014018e+00
 1.024894824581416e+00	 5.408045745058023e-01	-4.310340009436259e+00
 1.019691756895771e+00	 5.505522273403123e-01	-2.392656909863070e+00
 1.014388525296681e+00	 5.602633269047520e-01	-2.952654688720537e-01
 1.008985457500709e+00	 5.699363635843182e-01	 1.895694122404001e+00
 1.003482910970780e+00	 5.795698302349235e-01	 4.088367333821434e+00
 9.978812729476279e-01	 5.891622229042426e-01	 6.185255986682183e+00
 9.921809604605897e-01	 5.987120415562009e-01	 8.083298016726950e+00
 1.052655385852337e+00	 5.052974563196895e-01	-6.988820503354063e+00
 1.047819108112727e+00	 5.152514288382660e-01	-5.948215382417869e+00
 1.042880881237259e+00	 5.251746646974262e-01	-4.603962031329801e+00
 1.037840916271382e+00	 5.350656400011260e-01	-3.011722815856181e+00
 1.032699453903367e+00	 5.449228304846773e-01	-1.231955668388279e+00
 1.027456764576772e+00	 5.547447122207979e-01	 6.701208060539459e-01
 1.022113148583140e+00	 5.645297623317480e-01	 2.624569679376046e+00
 1.016668936134619e+00	 5.742764597069229e-01	 4.556785545592685e+00
 1.011124487416240e+00	 5.839832857252477e-01	 6.387551885993092e+00
 1.005480192617603e+00	 5.936487249817158e-01	 8.033105962502166e+00
 9.997364719437505e-01	 6.032712660173928e-01	 9.405211230938850e+00
 1.060610834445606e+00	 5.091162444937753e-01	-4.727098565352154e+00
 1.055738006511554e+00	 5.191454442116863e-01	-3.241569012990266e+00
 1.050762458960495e+00	 5.291436749777426e-01	-1.615784182298452e+00
 1.045684404432864e+00	 5.391094013790461e-01	 1.048543983992258e-01
 1.040504085435939e+00	 5.490410876312676e-01	 1.871666335649680e+00
 1.035221774457164e+00	 5.589371982900342e-01	 3.632726503817106e+00
 1.029837774057543e+00	 5.687961989684474e-01	 5.332904545026258e+00
 1.024352416944811e+00	 5.786165570600982e-01	 6.913909755361544e+00
 1.018766066026104e+00	 5.883967424669228e-01	 8.314341364634547e+00
 1.013079114439890e+00	 5.981352283312306e-01	 9.469744204758715e+00
 1.007291985566919e+00	 6.078304917712264e-01	 1.031266974920060e+01
 9.317372025564836e-01	 5.622384473987843e-01	-4.049043328227082e+00
 9.262919102513079e-01	 5.711651056755117e-01	-7.359640016299587e-01
 9.207548231981949e-01	 5.800489810864823e-01	 2.156012521459540e+00
 9.151264181422006e-01	 5.888886812246268e-01	 4.619122037600988e+00
 9.094071996317424e-01	 5.976828201333920e-01	 6.645509018006398e+00
 9.035976999280246e-01	 6.064300189927078e-01	 8.227246495611915e+00
 8.976984788943334e-01	 6.151289068041607e-01	 9.356356630613085e+00
 8.917101238651709e-01	 6.237781210747034e-01	 1.002483191898217e+01
 8.856332494952078e-01	 6.323763084981971e-01	 1.022465700517270e+01
 8.794684975880961e-01	 6.409221256341138e-01	 9.947831056948692e+00
 8.732165369051681e-01	 6.494142395826942e-01	 9.186390657075275e+00
 9.392926198433109e-01	 5.667976150197382e-01	-3.496367372577748e+00
 9.338031718950223e-01	 5.757966591884043e-01	 8.364891652060646e-02
 9.282211848391264e-01	 5.847525735667986e-01	 3.146255175987961e+00
 9.225471392865777e-01	 5.936639544568921e-01	 5.695887826655188e+00
 9.167815438771442e-01	 6.025294046634778e-01	 7.737713158846498e+00
 9.109249351881055e-01	 6.113475341857021e-01	 9.277633409755493e+00
 9.049778776226468e-01	 6.201169609077936e-01	 1.032229228577034e+01
 8.989409632779298e-01	 6.288363112883151e-01	 1.087907990878508e+01
 8.928148117928265e-01	 6.375042210472364e-01	 1.095613716469347e+01
 8.866000701753368e-01	 6.461193358501363e-01	 1.056235943144801e+01
 8.802974126097415e-01	 6.546803119888378e-01	 9.707399663295650e+00
 9.468480563982066e-01	 5.713567942664680e-01	-2.415859938600018e+00
 9.413144526941549e-01	 5.804282245116329e-01	 1.231266525865973e+00
 9.356875655209295e-01	 5.894561780411436e-01	 4.296307648361890e+00
 9.299678793553906e-01	 5.984392398659800e-01	 6.793861870152357e+00
 9.241559069286706e-01	 6.073760015522522e-01	 8.739929806264197e+00
 9.182521891341346e-01	 6.162650619182919e-01	 1.015190863637480e+01
 9.122572949148786e-01	 6.251050277309402e-01	 1.104858492754151e+01
 9.061718211307390e-01	 6.338945144003422e-01	 1.145012588033974e+01
 8.999963924047992e-01	 6.426321466725445e-01	 1.137806899115690e+01
 8.937316609494236e-01	 6.513165593192054e-01	 1.085531012457874e+01
 8.873783063718548e-01	 6.599463978237008e-01	 9.906089991015547e+00
 9.544035100801627e-01	 5.759159838473319e-01	-9.387786093654888e-01
 9.488257505202146e-01	 5.850598003330492e-01	 2.606451470657388e+00
 9.431539631278391e-01	 5.941597931769582e-01	 5.533397184632190e+00
 9.373886362458128e-01	 6.032145360990208e-01	 7.864836880389473e+00
 9.315302866966412e-01	 6.122226094266370e-01	 9.625476935670275e+00
 9.255794596897862e-01	 6.211826007972977e-01	 1.084193655446503e+01
 9.195367287082652e-01	 6.300931058604298e-01	 1.154273019974174e+01
 9.134026953745993e-01	 6.389527289777324e-01	 1.175824766469980e+01
 9.071779892960974e-01	 6.477600839213058e-01	 1.152073178743745e+01
 9.008632678894988e-01	 6.565137945688587e-01	 1.086425381666795e+01
 8.944592161850218e-01	 6.652124955952957e-01	 9.824686438868582e+00
 9.619589787481722e-01	 5.804751824706879e-01	 8.077761228385374e-01
 9.563370632447112e-01	 5.896913853405049e-01	 4.111955339309683e+00
 9.506203755440933e-01	 5.988634176416837e-01	 6.787071047185970e+00
 9.448094078550190e-01	 6.079898418031447e-01	 8.862154102586011e+00
 9.389046810913775e-01	 6.170692269135547e-01	 1.036854516467027e+01
 9.329067447787349e-01	 6.261001494295396e-01	 1.133987195907238e+01
 9.268161769400405e-01	 6.350811938830888e-01	 1.181202359726218e+01
 9.206335839605109e-01	 6.440109535874334e-01	 1.182312196260985e+01
 9.143596004316896e-01	 6.528880313407018e-01	 1.141349017779895e+01
 9.079948889747038e-01	 6.617110401266333e-01	 1.062561817210177e+01
 9.015401400427564e-01	 6.704786038116352e-01	 9.504125370877500e+00
 9.695144602612272e-01	 5.850343888448946e-01	 2.700697900893735e+00
 9.638483887391534e-01	 5.943229782218515e-01	 5.653593384798647e+00
 9.580868006539277e-01	 6.035670501027610e-01	 7.989105050177640e+00
 9.522301920801836e-01	 6.127651556254826e-01	 9.740641873508338e+00
 9.462790880231997e-01	 6.219158526399278e-01	 1.094416261517402e+01
 9.402340423246559e-01	 6.310177064218385e-01	 1.163814758226625e+01
 9.340956375474405e-01	 6.400692903857459e-01	 1.186356707928166e+01
 9.278644848394750e-01	 6.490691867963930e-01	 1.166384656420001e+01
 9.215412237765471e-01	 6.580159874779166e-01	 1.108482853200205e+01
 9.151265221841793e-01	 6.669082945200655e-01	 1.017473115223034e+01
 9.086210759385727e-01	 6.757447209807316e-01	 8.984103691708548e+00
 9.770699524783206e-01	 5.895936016783100e-01	 4.620719022344876e+00
 9.713597248750498e-01	 5.989545776649403e-01	 7.140124972483817e+00
 9.655532363415797e-01	 6.082706892276318e-01	 9.073416253750777e+00
 9.596509868184813e-01	 6.175404762131644e-01	 1.045655694609806e+01
 9.536535054024289e-01	 6.267624852326784e-01	 1.132816132122691e+01
 9.475613502512236e-01	 6.359352703810148e-01	 1.172946210857775e+01
 9.413751084677006e-01	 6.450573939552287e-01	 1.170427529110119e+01
 9.350953959624921e-01	 6.541274271715577e-01	 1.129896145312495e+01
 9.287228572956394e-01	 6.631439508801323e-01	 1.056238370746436e+01
 9.222581654970682e-01	 6.721055562766924e-01	 9.545862233713480e+00
 9.157020218659846e-01	 6.810108456105990e-01	 8.303125464402399e+00
 9.846254532584435e-01	 5.941528196792929e-01	 6.452262032834190e+00
 9.788710695239099e-01	 6.035861823576232e-01	 8.483139447982786e+00
 9.730196804912862e-01	 6.129743336837368e-01	 9.975979593864206e+00
 9.670717899670859e-01	 6.223158022133204e-01	 1.096752843166578e+01
 9.610279311393856e-01	 6.316091233187291e-01	 1.149714509961565e+01
 9.548886664821129e-01	 6.408528399138887e-01	 1.160676865837643e+01
 9.486545876380552e-01	 6.500455031783643e-01	 1.134088141561509e+01
 9.423263152805632e-01	 6.591856732798763e-01	 1.074646885502624e+01
 9.359044989539360e-01	 6.682719200945320e-01	 9.872976199749377e+00
 9.293898168925112e-01	 6.773028239240513e-01	 8.772261644727655e+00
 9.227829758185061e-01	 6.862769762092492e-01	 7.498546297115395e+00
 9.921809604605897e-01	 5.987120415562009e-01	 8.083298016726951e+00
 9.863824205572431e-01	 6.082177909877514e-01	 9.596947136434519e+00
 9.804861309872833e-01	 6.176779821385172e-01	 1.063474823812031e+01
 9.744925994231712e-01	 6.270911322730811e-01	 1.123250422024823e+01
 9.684023631443909e-01	 6.364557655250026e-01	 1.142845880535061e+01
 9.622159889409980e-01	 6.457704136272805e-01	 1.126326371427202e+01
 9.559340729957395e-01	 6.550336166419815e-01	 1.077994267415346e+01
 9.495572407446884e-01	 6.642439236882957e-01	 1.002385228655313e+01
 9.430861467164074e-01	 6.733998936682984e-01	 9.042639786166546e+00
 9.365214743496496e-01	 6.825000959896784e-01	 7.886197724613403e+00
 9.298639357896512e-01	 6.915431112846954e-01	 6.606615617703513e+00
 9.997364719437505e-01	 6.032712660173928e-01	 9.405211230938850e+00
 9.938937758465578e-01	 6.128494022431766e-01	 1.039847520192703e+01
 9.879525857138084e-01	 6.223816332594143e-01	 1.098957747065797e+01
 9.819134130839129e-01	 6.318664650395769e-01	 1.121169974814840e+01
 9.757767993277645e-01	 6.413024104784206e-01	 1.110015889883305e+01
 9.695433155515549e-01	 6.506879901280113e-01	 1.069237646713460e+01
 9.632135624779894e-01	 6.600217329329074e-01	 1.002784549524083e+01
 9.567881703058686e-01	 6.693021769637632e-01	 9.148094657781018e+00
 9.502677985480233e-01	 6.785278701486148e-01	 8.096649742144498e+00
 9.436531358476259e-01	 6.876973710011113e-01	 6.918992506164390e+00
 9.369448997729339e-01	 6.968092493449503e-01	 5.662516947804344e+00
 1.007291985566919e+00	 6.078304917712264e-01	 1.031266974920060e+01
 1.001405133263364e+00	 6.174810148117503e-01	 1.080716811212806e+01
 9.954190425550976e-01	 6.270852857138690e-01	 1.098215192098017e+01
 9.893342288464844e-01	 6.366417991599383e-01	 1.086654898953315e+01
 9.831512375998286e-01	 6.461490568059063e-01	 1.049098525590604e+01
 9.768706442374566e-01	 6.556055680229007e-01	 9.887758559731123e+00
 9.704930540220390e-01	 6.650098506379701e-01	 9.090810368703865e+00
 9.640191019151049e-01	 6.743604316732268e-01	 8.135695477699963e+00
 9.574494524137537e-01	 6.836558480826636e-01	 7.059549705264073e+00
 9.507847993655814e-01	 6.928946474858871e-01	 5.901055613814338e+00
 9.440258657618684e-01	 7.020753888980267e-01	 4.700406281379282e+00
 8.732165369051681e-01	 6.494142395826942e-01	 9.186390657075275e+00
 8.668769786295907e-01	 6.578527574936988e-01	 8.197871158789011e+00
 8.604516036405305e-01	 6.662349165277870e-01	 7.252346345401771e+00
 8.539411642097845e-01	 6.745594139185001e-01	 6.359903184165466e+00
 8.473464386377192e-01	 6.828249600784643e-01	 5.530236764726122e+00
 8.406682309615092e-01	 6.910302792495726e-01	 4.772637659526697e+00
 8.339073706440876e-01	 6.991741101455530e-01	 4.095979924637835e+00
 8.270647122440257e-01	 7.072552065862484e-01	 3.508709742908805e+00
 8.201411350666138e-01	 7.152723381229559e-01	 3.018834708751774e+00
 8.131375427964318e-01	 7.232242906541624e-01	 2.633913751362246e+00
 8.060548631117155e-01	 7.311098670310472e-01	 2.361047690753491e+00
 8.802974126097415e-01	 6.546803119888378e-01	 9.707399663295650e+00
 8.739064471263016e-01	 6.631872574819838e-01	 8.657507293223407e+00
 8.674289690452558e-01	 6.716373870864926e-01	 7.674450427262449e+00
 8.608657367385442e-01	 6.800293874718312e-01	 6.761105660270284e+00
 8.542175348177374e-01	 6.883619585934222e-01	 5.920252224640207e+00
 8.474851738399164e-01	 6.966338143480947e-01	 5.154570764165745e+00
 8.406694899940959e-01	 7.048436832218645e-01	 4.466642378840255e+00
 8.337713447684271e-01	 7.129903089293578e-01	 3.858947921607551e+00
 8.267916245984525e-01	 7.210724510442200e-01	 3.333867526087091e+00
 8.197312404966919e-01	 7.290888856198445e-01	 2.893680342429272e+00
 8.125911276638866e-01	 7.370384057997872e-01	 2.540564456727296e+00
 8.873783063718548e-01	 6.599463978237008e-01	 9.906089991015547e+00
 8.809359335494392e-01	 6.685217710735557e-01	 8.799662068752191e+00
 8.744063522435255e-01	 6.770398714218879e-01	 7.786629963228877e+00
 8.677903269262099e-01	 6.854993749740654e-01	 6.863762661335732e+00
 8.610886485202849e-01	 6.938989712282767e-01	 6.027958564475667e+00
 8.543021341027531e-01	 7.022373637362607e-01	 5.276254011348815e+00
 8.474316265887262e-01	 7.105132707562937e-01	 4.605831792245772e+00
 8.404779943959537e-01	 7.187254258977580e-01	 4.014029617962348e+00
 8.334421310902458e-01	 7.268725787566198e-01	 3.498348504873437e+00
 8.263249550120824e-01	 7.349534955411549e-01	 3.056461036297557e+00
 8.191274088847291e-01	 7.429669596872678e-01	 2.686076324052661e+00
 8.944592161850218e-01	 6.652124955952957e-01	 9.824686438868582e+00
 8.879654359070920e-01	 6.738562967570239e-01	 8.669182314558274e+00
 8.813837512581991e-01	 6.824423680033102e-01	 7.634857737061601e+00
 8.747149328106094e-01	 6.909693748753963e-01	 6.713450096992786e+00
 8.679597777983509e-01	 6.994359964142149e-01	 5.896986331715663e+00
 8.611191098183604e-01	 7.078409258263885e-01	 5.177799556645379e+00
 8.541937785118618e-01	 7.161828711424306e-01	 4.548545497637693e+00
 8.471846592262180e-01	 7.244605558664553e-01	 4.002218672614234e+00
 8.400926526575229e-01	 7.326727196167279e-01	 3.532168269242345e+00
 8.329186844742319e-01	 7.408181187563810e-01	 3.132113254140287e+00
 8.256637049221497e-01	 7.488955270136476e-01	 2.794083925851549e+00
 9.015401400427564e-01	 6.704786038116352e-01	 9.504125370877500e+00
 8.949949522073473e-01	 6.791908330209985e-01	 8.309544909103931e+00
 8.883611641121361e-01	 6.878448753000952e-01	 7.263702127411945e+00
 8.816395524295698e-01	 6.964393856260184e-01	 6.354352918783657e+00
 8.748309207049226e-01	 7.049730325824228e-01	 5.569637268972374e+00
 8.679360990550784e-01	 7.134444990307952e-01	 4.898102379304285e+00
 8.609559438473861e-01	 7.218524827738645e-01	 4.328725488129062e+00
 8.538913373588338e-01	 7.301956972104570e-01	 3.850936327004183e+00
 8.467431874158123e-01	 7.384728719811159e-01	 3.454639146445334e+00
 8.395124270147665e-01	 7.466827536038118e-01	 3.128928778191309e+00
 8.322000139240548e-01	 7.548241060990848e-01	 2.861868858706285e+00
 9.086210759385727e-01	 6.757447209807316e-01	 8.984103691708548e+00
 9.020244804582942e-01	 6.845253783540910e-01	 7.762908931981635e+00
 8.953385888281969e-01	 6.932473917815792e-01	 6.716380606619229e+00
 8.885641838209184e-01	 7.019094056761254e-01	 5.829318103606124e+00
 8.817020752929885e-01	 7.105100781640873e-01	 5.086934888469925e+00
 8.747530998812489e-01	 7.190480817617987e-01	 4.474886524230266e+00
 8.677181206791826e-01	 7.275221040441857e-01	 3.979298374549434e+00
 8.605980268934147e-01	 7.359308483047705e-01	 3.586792916973376e+00
 8.533937334806440e-01	 7.442730342063565e-01	 3.283977688374899e+00
 8.461061807653150e-01	 7.525473984217358e-01	 3.054594849218156e+00
 8.387363340383519e-01	 7.607526952637379e-01	 2.887117193641840e+00
 9.157020218659846e-01	 6.810108456105990e-01	 8.303125464402399e+00
 9.090540186680200e-01	 6.898599312449109e-01	 7.070165310589217e+00
 9.023160234292411e-01	 6.986499159170990e-01	 6.034810671578754e+00
 8.954888250224818e-01	 7.073794334759109e-01	 5.179905092886171e+00
 8.885732396155370e-01	 7.160471315903951e-01	 4.488672613777790e+00
 8.815701103652125e-01	 7.246516724317157e-01	 3.944749111984216e+00
 8.744803070911354e-01	 7.331917333469848e-01	 3.532213402202658e+00
 8.673047259295744e-01	 7.416660075244027e-01	 3.235573531410809e+00
 8.600442889675458e-01	 7.500732046490217e-01	 3.036009178396903e+00
 8.526999438575039e-01	 7.584120515484403e-01	 2.917529100852772e+00
 8.452726634129473e-01	 7.666812928277663e-01	 2.867577534195874e+00
 9.227829758185061e-01	 6.862769762092492e-01	 7.498546297115395e+00
 9.160835648446138e-01	 6.951944901820696e-01	 6.270984096087675e+00
 9.092934659381288e-01	 7.040524461759905e-01	 5.259658344505976e+00
 9.024134740720878e-01	 7.128494674755695e-01	 4.446433824035485e+00
 8.954444117255564e-01	 7.215841912925324e-01	 3.813459619365076e+00
 8.883871285753105e-01	 7.302552694528643e-01	 3.343202236602560e+00
 8.812425011671274e-01	 7.388613690758504e-01	 3.018478631155844e+00
 8.740114325669264e-01	 7.474011732443607e-01	 2.820164896839781e+00
 8.666948519920474e-01	 7.558733816656835e-01	 2.727550674198835e+00
 8.592937144229610e-01	 7.642767113222140e-01	 2.725881592316301e+00
 8.518090001957481e-01	 7.726098971113272e-01	 2.801058537950314e+00
 9.298639357896512e-01	 6.915431112846954e-01	 6.606615617703514e+00
 9.231131169961629e-01	 7.005290536541761e-01	 5.403859494916032e+00
 9.162709143777190e-01	 7.094549810275903e-01	 4.430384373034792e+00
 9.093381290075637e-01	 7.183195061252947e-01	 3.668030482438736e+00
 9.023155896760346e-01	 7.271212557016860e-01	 3.098764490600511e+00
 8.952041525798842e-01	 7.358588712375621e-01	 2.704712863740681e+00
 8.880047009910419e-01	 7.445310096243730e-01	 2.467344959509150e+00
 8.807181449050837e-01	 7.531363438396513e-01	 2.363199264915781e+00
 8.733454206696770e-01	 7.616735636129135e-01	 2.375087062501010e+00
 8.658874905933135e-01	 7.701413760813454e-01	 2.487544930712252e+00
 8.583453425346611e-01	 7.785385064345802e-01	 2.685426576844202e+00
 9.369448997729339e-01	 6.968092493449503e-01	 5.662516947804344e+00
 9.301426731307558e-01	 7.058636201498422e-01	 4.506152774510779e+00
 9.232483667708727e-01	 7.148575189412348e-01	 3.585288251268933e+00
 9.162627878667365e-01	 7.237895478752813e-01	 2.882671094469724e+00
 9.091867715199606e-01	 7.326583232490428e-01	 2.380956819415470e+00
 9.020211804472744e-01	 7.414624761981263e-01	 2.062704016588245e+00
 8.947669046467629e-01	 7.502006533861424e-01	 1.905019440276460e+00
 8.874248610436600e-01	 7.588715176852815e-01	 1.887610938520649e+00
 8.799959931159638e-01	 7.674737488472848e-01	 1.994595534209050e+00
 8.724812705001891e-01	 7.760060441641221e-01	 2.210163960010640e+00
 8.648816885775930e-01	 7.844671191176835e-01	 2.518603528932647e+00
 9.440258657618684e-01	 7.020753888980267e-01	 4.700406281379282e+00
 9.371722312564811e-01	 7.111981881576777e-01	 3.614133154765133e+00
 9.302258211404490e-01	 7.202600583862604e-01	 2.761550176115861e+00
 9.231874486874327e-01	 7.292595911757217e-01	 2.127223074812284e+00
 9.160579553103223e-01	 7.381953923657890e-01	 1.695346843941253e+00
 9.088382102458218e-01	 7.470660827468745e-01	 1.447012098687317e+00
 9.015291102181738e-01	 7.558702987547489e-01	 1.358982852541775e+00
 8.941315790822691e-01	 7.646066931562584e-01	 1.415636592258067e+00
 8.866465674464368e-01	 7.732739357253688e-01	 1.601564598865367e+00
 8.790750522752150e-01	 7.818707139088330e-01	 1.901145039454853e+00
 8.714180364724508e-01	 7.903957334807954e-01	 2.298564694695372e+00
 8.060548631117155e-01	 7.311098670310472e-01	 2.361047690753491e+00
 7.988952689469325e-01	 7.389265666650634e-01	 2.227503622932504e+00
 7.916585263910276e-01	 7.466745853711559e-01	 2.239176629440362e+00
 7.843456193492238e-01	 7.543527937070280e-01	 2.371598878189105e+00
 7.769575539880575e-01	 7.619600814770303e-01	 2.603147402151226e+00
 7.694953582707912e-01	 7.694953582707911e-01	 2.913324440523632e+00
 7.619600814770304e-01	 7.769575539880578e-01	 3.282721548465878e+00
 7.543527937070278e-01	 7.843456193492236e-01	 3.693046130849547e+00
 7.466745853711558e-01	 7.916585263910276e-01	 4.127146210737214e+00
 7.389265666650633e-01	 7.988952689469326e-01	 4.568886984797513e+00
 7.311098670310470e-01	 8.060548631117156e-01	 4.999770205119800e+00
 8.125911276638866e-01	 7.370384057997872e-01	 2.540564456727296e+00
 8.053734766547415e-01	 7.449184907183373e-01	 2.309767043112601e+00
 7.980780516614322e-01	 7.527293377782888e-01	 2.221963837835448e+00
 7.907058445676367e-01	 7.604698083787359e-01	 2.260503585748428e+00
 7.832578696988616e-01	 7.681387833214931e-01	 2.409527381363982e+00
 7.757351633540875e-01	 7.757351633540879e-01	 2.653651481836053e+00
 7.681387833214931e-01	 7.832578696988619e-01	 2.977988598452100e+00
 7.604698083787358e-01	 7.907058445676368e-01	 3.368168311171586e+00
 7.527293377782883e-01	 7.980780516614322e-01	 3.810356569927524e+00
 7.449184907183369e-01	 8.053734766547417e-01	 4.291274248812476e+00
 7.370384057997871e-01	 8.125911276638867e-01	 4.797592004465654e+00
 8.191274088847291e-01	 7.429669596872678e-01	 2.686076324052662e+00
 8.118517008831698e-01	 7.509104300520323e-01	 2.420159810298394e+00
 8.044975933028083e-01	 7.587841056260951e-01	 2.287082202184637e+00
 7.970660860057953e-01	 7.665868386499206e-01	 2.275735899840869e+00
 7.895582014766284e-01	 7.743175009227624e-01	 2.374989653359925e+00
 7.819749843500270e-01	 7.819749843500269e-01	 2.573704202219612e+00
 7.743175009227623e-01	 7.895582014766283e-01	 2.860747761966235e+00
 7.665868386499205e-01	 7.970660860057954e-01	 3.225011329479908e+00
 7.587841056260950e-01	 8.044975933028085e-01	 3.655423779071493e+00
 7.509104300520321e-01	 8.118517008831699e-01	 4.140966722668391e+00
 7.429669596872678e-01	 8.191274088847291e-01	 4.670689108427182e+00
 8.256637049221497e-01	 7.488955270136476e-01	 2.794083925851551e+00
 8.183299397965803e-01	 7.569023829683370e-01	 2.544683229270617e+00
 8.109171494961495e-01	 7.648388871989545e-01	 2.411301255858840e+00
 8.034263418614996e-01	 7.727038827873124e-01	 2.386983340030121e+00
 7.958585475361363e-01	 7.804962325300847e-01	 2.464374221343217e+00
 7.882148194905371e-01	 7.882148194905371e-01	 2.635728476346430e+00
 7.804962325300848e-01	 7.958585475361365e-01	 2.892921340868549e+00
 7.727038827873124e-01	 8.034263418614997e-01	 3.227459902016563e+00
 7.648388871989543e-01	 8.109171494961497e-01	 3.630494638983790e+00
 7.569023829683370e-01	 8.183299397965804e-01	 4.092831291677074e+00
 7.488955270136475e-01	 8.256637049221496e-01	 4.604943036134698e+00
 8.322000139240548e-01	 7.548241060990848e-01	 2.861868858706284e+00
 8.248081915593343e-01	 7.628943477694412e-01	 2.669831697446157e+00
 8.173367184224497e-01	 7.708936807812456e-01	 2.572111629536629e+00
 8.097866103325501e-01	 7.788209390576423e-01	 2.564877103288630e+00
 8.021589060921652e-01	 7.866749763927070e-01	 2.643617129584198e+00
 7.944546670075465e-01	 7.944546670075465e-01	 2.803147771939926e+00
 7.866749763927070e-01	 8.021589060921653e-01	 3.037619429534079e+00
 7.788209390576420e-01	 8.097866103325502e-01	 3.340524898451450e+00
 7.708936807812454e-01	 8.173367184224500e-01	 3.704708195443335e+00
 7.628943477694410e-01	 8.248081915593346e-01	 4.122374127593091e+00
 7.548241060990847e-01	 8.322000139240550e-01	 4.585098590419461e+00
 8.387363340383519e-01	 7.607526952637379e-01	 2.887117193641839e+00
 8.312864543357945e-01	 7.688863227575329e-01	 2.782511728420168e+00
 8.237562982627029e-01	 7.769484846573474e-01	 2.747696845793194e+00
 8.161468896167464e-01	 7.849380057276407e-01	 2.780955196162863e+00
 8.084592753594937e-01	 7.928537307598756e-01	 2.879707667666003e+00
 8.006945251329849e-01	 8.006945251329849e-01	 3.040517183728553e+00
 7.928537307598753e-01	 8.084592753594936e-01	 3.259093557151731e+00
 7.849380057276407e-01	 8.161468896167464e-01	 3.530299390051741e+00
 7.769484846573469e-01	 8.237562982627030e-01	 3.848157007503370e+00
 7.688863227575328e-01	 8.312864543357947e-01	 4.205856411305781e+00
 7.607526952637380e-01	 8.387363340383518e-01	 4.595764238902345e+00
 8.452726634129473e-01	 7.666812928277663e-01	 2.867577534195875e+00
 8.377647262903229e-01	 7.748783062348019e-01	 2.870025924787034e+00
 8.301758871979027e-01	 7.830032971116390e-01	 2.916906447464012e+00
 8.225071779118891e-01	 7.910550810640383e-01	 3.007627302357912e+00
 8.147596535529009e-01	 7.990324938808365e-01	 3.140647585009828e+00
 8.069343920987798e-01	 8.069343920987799e-01	 3.313479624680702e+00
 7.990324938808367e-01	 8.147596535529011e-01	 3.522692505475633e+00
 7.910550810640383e-01	 8.225071779118890e-01	 3.763916761767319e+00
 7.830032971116386e-01	 8.301758871979027e-01	 4.031850237698325e+00
 7.748783062348014e-01	 8.377647262903228e-01	 4.320265098871451e+00
 7.666812928277663e-01	 8.452726634129474e-01	 4.622015982708065e+00
 8.518090001957481e-01	 7.726098971113272e-01	 2.801058537950315e+00
 8.442430055872812e-01	 7.808702965034366e-01	 2.920057714191099e+00
 8.365954834090430e-01	 7.890581164284990e-01	 3.059230388202189e+00
 8.288674734157780e-01	 7.971721633335661e-01	 3.218141292604960e+00
 8.210600388871664e-01	 8.052112640048374e-01	 3.395412207791275e+00
 8.131742661368601e-01	 8.131742661368601e-01	 3.588724058743400e+00
 8.052112640048373e-01	 8.210600388871666e-01	 3.794820185275968e+00
 7.971721633335662e-01	 8.288674734157782e-01	 4.009510777465669e+00
 7.890581164284987e-01	 8.365954834090429e-01	 4.227678466370076e+00
 7.808702965034362e-01	 8.442430055872814e-01	 4.443285058513921e+00
 7.726098971113273e-01	 8.518090001957482e-01	 4.649379401031936e+00
 8.583453425346611e-01	 7.785385064345802e-01	 2.685426576844202e+00
 8.507212903910316e-01	 7.868622918656261e-01	 2.920656807958334e+00
 8.430150850771172e-01	 7.951129408923064e-01	 3.154774618005542e+00
 8.352277743262138e-01	 8.032892508029551e-01	 3.386551289343794e+00
 8.273604295770690e-01	 8.113900393811238e-01	 3.613913356926735e+00
 8.194141454791547e-01	 8.194141454791545e-01	 3.833945666354606e+00
 8.113900393811235e-01	 8.273604295770690e-01	 4.042895461843314e+00
 8.032892508029549e-01	 8.352277743262141e-01	 4.236177494291997e+00
 7.951129408923062e-01	 8.430150850771174e-01	 4.408380138286851e+00
 7.868622918656258e-01	 8.507212903910317e-01	 4.553272505575976e+00
 7.785385064345803e-01	 8.583453425346611e-01	 4.663812541289349e+00
 8.648816885775930e-01	 7.844671191176835e-01	 2.518603528932646e+00
 8.571995788659357e-01	 7.928542906235593e-01	 2.860225344114633e+00
 8.494346903831198e-01	 8.011677687874404e-01	 3.184237800549768e+00
 8.415880788409963e-01	 8.094063417389350e-01	 3.487687204036291e+00
 8.336608238373878e-01	 8.175688182589426e-01	 3.766963971928593e+00
 8.256540283575917e-01	 8.256540283575919e-01	 4.017807840567029e+00
 8.175688182589423e-01	 8.336608238373877e-01	 4.235313826523429e+00
 8.094063417389347e-01	 8.415880788409962e-01	 4.413938928413433e+00
 8.011677687874402e-01	 8.494346903831200e-01	 4.547509555275435e+00
 7.928542906235592e-01	 8.571995788659362e-01	 4.629229666814449e+00
 7.844671191176832e-01	 8.648816885775930e-01	 4.651689610152197e+00
 8.714180364724508e-01	 7.903957334807954e-01	 2.298564694695373e+00
 8.636778691763565e-01	 7.988462910794256e-01	 2.727504678886578e+00
 8.558542975080441e-01	 8.072225983982798e-01	 3.128889102951033e+00
 8.479483851579257e-01	 8.155234344082373e-01	 3.497125669853924e+00
 8.399612198829021e-01	 8.237475988875402e-01	 3.826244351137123e+00
 8.318939130041005e-01	 8.318939130041005e-01	 4.109905917745693e+00
 8.237475988875400e-01	 8.399612198829022e-01	 4.341410817436817e+00
 8.155234344082370e-01	 8.479483851579258e-01	 4.513708380266296e+00
 8.072225983982796e-01	 8.558542975080441e-01	 4.619406333759550e+00
 7.988462910794255e-01	 8.636778691763568e-01	 4.650780609545156e+00
 7.903957334807953e-01	 8.714180364724509e-01	 4.599785423455892e+00
 7.311098670310470e-01	 8.060548631117156e-01	 4.999770205119801e+00
 7.232242906541625e-01	 8.131375427964316e-01	 5.341465835794843e+00
 7.152723381229562e-01	 8.201411350666139e-01	 5.542887749633677e+00
 7.072552065862487e-01	 8.270647122440252e-01	 5.628450369330933e+00
 6.991741101455531e-01	 8.339073706440872e-01	 5.621807329654549e+00
 6.910302792495729e-01	 8.406682309615087e-01	 5.545817785250069e+00
 6.828249600784644e-01	 8.473464386377187e-01	 5.422513976109426e+00
 6.745594139185006e-01	 8.539411642097847e-01	 5.273070127577754e+00
 6.662349165277873e-01	 8.604516036405299e-01	 5.117772758445028e+00
 6.578527574936991e-01	 8.668769786295902e-01	 4.975992467050073e+00
 6.494142395826941e-01	 8.732165369051680e-01	 4.866157261427142e+00
 7.370384057997871e-01	 8.125911276638867e-01	 4.797592004465654e+00
 7.290888856198445e-01	 8.197312404966914e-01	 5.233240183360517e+00
 7.210724510442204e-01	 8.267916245984521e-01	 5.526729940692068e+00
 7.129903089293581e-01	 8.337713447684270e-01	 5.697439100095467e+00
 7.048436832218647e-01	 8.406694899940956e-01	 5.764343611055584e+00
 6.966338143480950e-01	 8.474851738399161e-01	 5.745988242916300e+00
 6.883619585934224e-01	 8.542175348177372e-01	 5.660458015957302e+00
 6.800293874718317e-01	 8.608657367385442e-01	 5.525350443568971e+00
 6.716373870864928e-01	 8.674289690452557e-01	 5.357748657249884e+00
 6.631872574819845e-01	 8.739064471263016e-01	 5.174195483548433e+00
 6.546803119888379e-01	 8.802974126097414e-01	 4.990668539178017e+00
 7.429669596872678e-01	 8.191274088847291e-01	 4.670689108427182e+00
 7.349534955411552e-01	 8.263249550120821e-01	 5.145581175593470e+00
 7.268725787566203e-01	 8.334421310902453e-01	 5.481246059761543e+00
 7.187254258977582e-01	 8.404779943959533e-01	 5.692765201748481e+00
 7.105132707562940e-01	 8.474316265887258e-01	 5.795367751150688e+00
 7.022373637362609e-01	 8.543021341027530e-01	 5.804161780625738e+00
 6.938989712282770e-01	 8.610886485202850e-01	 5.734108620312026e+00
 6.854993749740658e-01	 8.677903269262097e-01	 5.599997557556933e+00
 6.770398714218884e-01	 8.744063522435251e-01	 5.416420973027863e+00
 6.685217710735558e-01	 8.809359335494390e-01	 5.197749982531949e+00
 6.599463978237010e-01	 8.873783063718549e-01	 4.958110651821837e+00
 7.488955270136475e-01	 8.256637049221496e-01	 4.604943036134699e+00
 7.408181187563816e-01	 8.329186844742316e-01	 5.071336566369443e+00
 7.326727196167282e-01	 8.400926526575224e-01	 5.407690631386644e+00
 7.244605558664557e-01	 8.471846592262179e-01	 5.622970283936283e+00
 7.161828711424310e-01	 8.541937785118615e-01	 5.729569340032887e+00
 7.078409258263892e-01	 8.611191098183603e-01	 5.740018913012731e+00
 6.994359964142151e-01	 8.679597777983505e-01	 5.666963119220467e+00
 6.909693748753966e-01	 8.747149328106090e-01	 5.523135361232912e+00
 6.824423680033107e-01	 8.813837512581987e-01	 5.321334678857442e+00
 6.738562967570241e-01	 8.879654359070915e-01	 5.074402238438643e+00
 6.652124955952956e-01	 8.944592161850218e-01	 4.795198029642133e+00
 7.548241060990847e-01	 8.322000139240550e-01	 4.585098590419461e+00
 7.466827536038124e-01	 8.395124270147665e-01	 5.005324642009027e+00
 7.384728719811161e-01	 8.467431874158121e-01	 5.307292309696239e+00
 7.301956972104575e-01	 8.538913373588336e-01	 5.496339720216577e+00
 7.218524827738650e-01	 8.609559438473855e-01	 5.581187128856833e+00
 7.134444990307955e-01	 8.679360990550783e-01	 5.572631047739073e+00
 7.049730325824233e-01	 8.748309207049224e-01	 5.481788346244969e+00
 6.964393856260189e-01	 8.816395524295694e-01	 5.320073253870730e+00
 6.878448753000955e-01	 8.883611641121356e-01	 5.099174139122216e+00
 6.791908330209988e-01	 8.949949522073469e-01	 4.831030137186467e+00
 6.704786038116349e-01	 9.015401400427563e-01	 4.527807698278782e+00
 7.607526952637380e-01	 8.387363340383518e-01	 4.595764238902345e+00
 7.525473984217361e-01	 8.461061807653149e-01	 4.942615839341325e+00
 7.442730342063568e-01	 8.533937334806437e-01	 5.181869020629100e+00
 7.359308483047710e-01	 8.605980268934145e-01	 5.320913757496685e+00
 7.275221040441863e-01	 8.677181206791824e-01	 5.364027663510006e+00
 7.190480817617986e-01	 8.747530998812484e-01	 5.320485227301432e+00
 7.105100781640874e-01	 8.817020752929882e-01	 5.200650051348501e+00
 7.019094056761256e-01	 8.885641838209178e-01	 5.015338769382653e+00
 6.932473917815797e-01	 8.953385888281963e-01	 4.775797475105989e+00
 6.845253783540911e-01	 9.020244804582935e-01	 4.493677787087129e+00
 6.757447209807317e-01	 9.086210759385727e-01	 4.181012625296851e+00
 7.666812928277663e-01	 8.452726634129474e-01	 4.622015982708065e+00
 7.584120515484405e-01	 8.526999438575036e-01	 4.876940997249038e+00
 7.500732046490222e-01	 8.600442889675458e-01	 5.035075949637127e+00
 7.416660075244033e-01	 8.673047259295743e-01	 5.104542070129895e+00
 7.331917333469850e-01	 8.744803070911350e-01	 5.091483079944737e+00
 7.246516724317160e-01	 8.815701103652124e-01	 5.001507748467882e+00
 7.160471315903953e-01	 8.885732396155367e-01	 4.844940973985974e+00
 7.073794334759114e-01	 8.954888250224813e-01	 4.632708713688454e+00
 6.986499159170994e-01	 9.023160234292408e-01	 4.376269359408580e+00
 6.898599312449114e-01	 9.090540186680197e-01	 4.087588546305838e+00
 6.810108456105990e-01	 9.157020218659847e-01	 3.779113541008026e+00
 7.726098971113273e-01	 8.518090001957482e-01	 4.649379401031936e+00
 7.642767113222145e-01	 8.592937144229608e-01	 4.802214806241933e+00
 7.558733816656837e-01	 8.666948519920472e-01	 4.868482744837591e+00
 7.474011732443611e-01	 8.740114325669259e-01	 4.856853702832270e+00
 7.388613690758508e-01	 8.812425011671269e-01	 4.776548106155632e+00
 7.302552694528648e-01	 8.883871285753102e-01	 4.633086719572298e+00
 7.215841912925328e-01	 8.954444117255559e-01	 4.435407648299100e+00
 7.128494674755699e-01	 9.024134740720874e-01	 4.195238892340225e+00
 7.040524461759912e-01	 9.092934659381283e-01	 3.924892323498535e+00
 6.951944901820696e-01	 9.160835648446135e-01	 3.637236551842078e+00
 6.862769762092491e-01	 9.227829758185060e-01	 3.345669315423858e+00
 7.785385064345803e-01	 8.583453425346611e-01	 4.663812541289349e+00
 7.701413760813457e-01	 8.658874905933132e-01	 4.712528814726824e+00
 7.616735636129139e-01	 8.733454206696766e-01	 4.683374123967750e+00
 7.531363438396516e-01	 8.807181449050833e-01	 4.586439351166964e+00
 7.445310096243735e-01	 8.880047009910416e-01	 4.432539450314170e+00
 7.358588712375627e-01	 8.952041525798839e-01	 4.232093612228645e+00
 7.271212557016866e-01	 9.023155896760349e-01	 3.992176007936101e+00
 7.183195061252952e-01	 9.093381290075632e-01	 3.725292503479284e+00
 7.094549810275907e-01	 9.162709143777187e-01	 3.445236657587421e+00
 7.005290536541765e-01	 9.231131169961628e-01	 3.166356829835551e+00
 6.915431112846953e-01	 9.298639357896511e-01	 2.903525968235800e+00
 7.844671191176832e-01	 8.648816885775930e-01	 4.651689610152197e+00
 7.760060441641224e-01	 8.724812705001884e-01	 4.602144777741819e+00
 7.674737488472851e-01	 8.799959931159634e-01	 4.480987458507128e+00
 7.588715176852819e-01	 8.874248610436598e-01	 4.300583655251799e+00
 7.502006533861428e-01	 8.947669046467623e-01	 4.073989672651958e+00
 7.414624761981264e-01	 9.020211804472739e-01	 3.814930953397863e+00
 7.326583232490430e-01	 9.091867715199604e-01	 3.534775853938337e+00
 7.237895478752813e-01	 9.162627878667361e-01	 3.244567266666181e+00
 7.148575189412353e-01	 9.232483667708724e-01	 2.960168977225894e+00
 7.058636201498424e-01	 9.301426731307557e-01	 2.697974062178819e+00
 6.968092493449500e-01	 9.369448997729340e-01	 2.474844384072155e+00
 7.903957334807953e-01	 8.714180364724509e-01	 4.599785423455892e+00
 7.818707139088333e-01	 8.790750522752145e-01	 4.465488330187932e+00
 7.732739357253692e-01	 8.866465674464368e-01	 4.262514603972639e+00
 7.646066931562587e-01	 8.941315790822688e-01	 4.006344171373863e+00
 7.558702987547491e-01	 9.015291102181732e-01	 3.713067674458559e+00
 7.470660827468745e-01	 9.088382102458219e-01	 3.399361264663707e+00
 7.381953923657893e-01	 9.160579553103224e-01	 3.082164245331671e+00
 7.292595911757221e-01	 9.231874486874327e-01	 2.774121353894903e+00
 7.202600583862604e-01	 9.302258211404485e-01	 2.491879526561323e+00
 7.111981881576781e-01	 9.371722312564811e-01	 2.254430079923498e+00
 7.020753888980266e-01	 9.440258657618683e-01	 2.081126800949709e+00
 6.494142395826941e-01	 8.732165369051680e-01	 4.866157261427143e+00
 6.409221256341137e-01	 8.794684975880961e-01	 4.773095799104738e+00
 6.323763084981971e-01	 8.856332494952077e-01	 4.671554584269795e+00
 6.237781210747034e-01	 8.917101238651706e-01	 4.564467791827616e+00
 6.151289068041612e-01	 8.976984788943336e-01	 4.455168847245980e+00
 6.064300189927078e-01	 9.035976999280244e-01	 4.347378156336560e+00
 5.976828201333925e-01	 9.094071996317421e-01	 4.245190647175352e+00
 5.888886812246272e-01	 9.151264181422003e-01	 4.153063165871137e+00
 5.800489810864830e-01	 9.207548231981942e-01	 4.075801766357073e+00
 5.711651056755123e-01	 9.262919102513077e-01	 4.018548932691044e+00
 5.622384473987841e-01	 9.317372025564835e-01	 3.986770770524358e+00
 6.546803119888379e-01	 8.802974126097414e-01	 4.990668539178015e+00
 6.461193358501361e-01	 8.866000701753367e-01	 4.803796802985596e+00
 6.375042210472364e-01	 8.928148117928264e-01	 4.605120526636941e+00
 6.288363112883149e-01	 8.989409632779295e-01	 4.402943042173843e+00
 6.201169609077938e-01	 9.049778776226468e-01	 4.205960121111959e+00
 6.113475341857024e-01	 9.109249351881052e-01	 4.023240096132501e+00
 6.025294046634784e-01	 9.167815438771442e-01	 3.864203876994030e+00
 5.936639544568926e-01	 9.225471392865776e-01	 3.738604915056614e+00
 5.847525735667993e-01	 9.282211848391264e-01	 3.656509168914955e+00
 5.757966591884045e-01	 9.338031718950218e-01	 3.628275121559991e+00
 5.667976150197382e-01	 9.392926198433107e-01	 3.664533897245298e+00
 6.599463978237010e-01	 8.873783063718549e-01	 4.958110651821837e+00
 6.513165593192055e-01	 8.937316609494235e-01	 4.702617071875583e+00
 6.426321466725446e-01	 8.999963924047993e-01	 4.435033527904666e+00
 6.338945144003423e-01	 9.061718211307391e-01	 4.167684511588641e+00
 6.251050277309407e-01	 9.122572949148787e-01	 3.913268337518242e+00
 6.162650619182922e-01	 9.182521891341345e-01	 3.684831527910803e+00
 6.073760015522525e-01	 9.241559069286699e-01	 3.495743175789535e+00
 5.984392398659804e-01	 9.299678793553903e-01	 3.359669350681461e+00
 5.894561780411440e-01	 9.356875655209290e-01	 3.290547608658895e+00
 5.804282245116336e-01	 9.413144526941547e-01	 3.302561666113193e+00
 5.713567942664680e-01	 9.468480563982064e-01	 3.410116294028189e+00
 6.652124955952956e-01	 8.944592161850218e-01	 4.795198029642134e+00
 6.565137945688587e-01	 9.008632678894991e-01	 4.494425166483796e+00
 6.477600839213060e-01	 9.071779892960974e-01	 4.183950191360216e+00
 6.389527289777324e-01	 9.134026953745989e-01	 3.878802300189442e+00
 6.300931058604299e-01	 9.195367287082650e-01	 3.594354247467116e+00
 6.211826007972980e-01	 9.255794596897858e-01	 3.346292839131721e+00
 6.122226094266374e-01	 9.315302866966412e-01	 3.150589490326726e+00
 6.032145360990211e-01	 9.373886362458119e-01	 3.023470918795384e+00
 5.941597931769588e-01	 9.431539631278388e-01	 2.981390042102119e+00
 5.850598003330498e-01	 9.488257505202145e-01	 3.040997144111452e+00
 5.759159838473318e-01	 9.544035100801623e-01	 3.219111373190832e+00
 6.704786038116349e-01	 9.015401400427563e-01	 4.527807698278782e+00
 6.617110401266332e-01	 9.079948889747035e-01	 4.203308830369508e+00
 6.528880313407022e-01	 9.143596004316898e-01	 3.873814426540150e+00
 6.440109535874335e-01	 9.206335839605108e-01	 3.555772487017596e+00
 6.350811938830891e-01	 9.268161769400405e-01	 3.265932810998398e+00
 6.261001494295401e-01	 9.329067447787348e-01	 3.021315417597509e+00
 6.170692269135550e-01	 9.389046810913773e-01	 2.839179120343833e+00
 6.079898418031454e-01	 9.448094078550191e-01	 2.736990329693520e+00
 5.988634176416842e-01	 9.506203755440931e-01	 2.732392155201278e+00
 5.896913853405055e-01	 9.563370632447107e-01	 2.843173875928301e+00
 5.804751824706880e-01	 9.619589787481722e-01	 3.087240844397598e+00
 6.757447209807317e-01	 9.086210759385727e-01	 4.181012625296852e+00
 6.669082945200654e-01	 9.151265221841794e-01	 3.852606075341084e+00
 6.580159874779168e-01	 9.215412237765472e-01	 3.525885824734113e+00
 6.490691867963929e-01	 9.278644848394750e-01	 3.217462385431522e+00
 6.400692903857462e-01	 9.340956375474406e-01	 2.944194960964873e+00
 6.310177064218390e-01	 9.402340423246556e-01	 2.723159590977464e+00
 6.219158526399281e-01	 9.462790880231998e-01	 2.571617540203273e+00
 6.127651556254828e-01	 9.522301920801834e-01	 2.506984007182731e+00
 6.035670501027616e-01	 9.580868006539273e-01	 2.546797224912399e+00
 5.943229782218520e-01	 9.638483887391527e-01	 2.708688022297674e+00
 5.850343888448946e-01	 9.695144602612272e-01	 3.010349911736633e+00
 6.810108456105990e-01	 9.157020218659847e-01	 3.779113541008025e+00
 6.721055562766927e-01	 9.222581654970681e-01	 3.464934845024964e+00
 6.631439508801326e-01	 9.287228572956394e-01	 3.160766737379279e+00
 6.541274271715580e-01	 9.350953959624919e-01	 2.882154645132439e+00
 6.450573939552288e-01	 9.413751084677004e-01	 2.644828374409853e+00
 6.359352703810152e-01	 9.475613502512236e-01	 2.464671750332137e+00
 6.267624852326787e-01	 9.536535054024289e-01	 2.357692594560208e+00
 6.175404762131650e-01	 9.596509868184810e-01	 2.339993113692675e+00
 6.082706892276323e-01	 9.655532363415797e-01	 2.427740768414555e+00
 5.989545776649410e-01	 9.713597248750493e-01	 2.637139689728655e+00
 5.895936016783102e-01	 9.770699524783206e-01	 2.984402704825398e+00
 6.862769762092491e-01	 9.227829758185060e-01	 3.345669315423858e+00
 6.773028239240513e-01	 9.293898168925111e-01	 3.062221332906728e+00
 6.682719200945323e-01	 9.359044989539361e-01	 2.798428126955308e+00
 6.591856732798765e-01	 9.423263152805633e-01	 2.567570262718027e+00
 6.500455031783646e-01	 9.486545876380549e-01	 2.383037304803994e+00
 6.408528399138891e-01	 9.548886664821129e-01	 2.258300701427705e+00
 6.316091233187295e-01	 9.610279311393857e-01	 2.206887101641628e+00
 6.223158022133211e-01	 9.670717899670854e-01	 2.242352173994814e+00
 6.129743336837374e-01	 9.730196804912860e-01	 2.378254991395379e+00
 6.035861823576238e-01	 9.788710695239099e-01	 2.628133043175656e+00
 5.941528196792930e-01	 9.846254532584438e-01	 3.005477931382961e+00
 6.915431112846953e-01	 9.298639357896511e-01	 2.903525968235802e+00
 6.825000959896785e-01	 9.365214743496496e-01	 2.665727026502645e+00
 6.733998936682988e-01	 9.430861467164073e-01	 2.458234255751886e+00
 6.642439236882958e-01	 9.495572407446882e-01	 2.290890558892231e+00
 6.550336166419817e-01	 9.559340729957396e-01	 2.173561525156555e+00
 6.457704136272808e-01	 9.622159889409981e-01	 2.116113284965230e+00
 6.364557655250028e-01	 9.684023631443908e-01	 2.128390895684423e+00
 6.270911322730816e-01	 9.744925994231711e-01	 2.220197318903721e+00
 6.176779821385179e-01	 9.804861309872830e-01	 2.401273046097962e+00
 6.082177909877524e-01	 9.863824205572429e-01	 2.681276425575481e+00
 5.987120415562011e-01	 9.921809604605897e-01	 3.069764739473262e+00
 6.968092493449500e-01	 9.369448997729340e-01	 2.474844384072155e+00
 6.876973710011114e-01	 9.436531358476259e-01	 2.296074544990612e+00
 6.785278701486148e-01	 9.502677985480235e-01	 2.158966273931980e+00
 6.693021769637635e-01	 9.567881703058687e-01	 2.068778176947367e+00
 6.600217329329079e-01	 9.632135624779891e-01	 2.030694428994639e+00
 6.506879901280118e-01	 9.695433155515548e-01	 2.049809304364927e+00
 6.413024104784212e-01	 9.757767993277645e-01	 2.131112338173986e+00
 6.318664650395774e-01	 9.819134130839124e-01	 2.279474169046368e+00
 6.223816332594149e-01	 9.879525857138078e-01	 2.499633109183483e+00
 6.128494022431772e-01	 9.938937758465576e-01	 2.796182483887051e+00
 6.032712660173928e-01	 9.997364719437507e-01	 3.173558778335113e+00
 7.020753888980266e-01	 9.440258657618683e-01	 2.081126800949709e+00
 6.928946474858869e-01	 9.507847993655812e-01	 1.973272333592730e+00
 6.836558480826637e-01	 9.574494524137538e-01	 1.918844764631150e+00
 6.743604316732270e-01	 9.640191019151049e-01	 1.917397153860132e+00
 6.650098506379702e-01	 9.704930540220392e-01	 1.968300333386549e+00
 6.556055680229015e-01	 9.768706442374568e-01	 2.070735797429593e+00
 6.461490568059066e-01	 9.831512375998281e-01	 2.223689325748754e+00
 6.366417991599389e-01	 9.893342288464843e-01	 2.425945377579248e+00
 6.270852857138696e-01	 9.954190425550969e-01	 2.676082288859999e+00
 6.174810148117510e-01	 1.001405133263363e+00	 2.972468301290569e+00
 6.078304917712264e-01	 1.007291985566919e+00	 3.313258447379209e+00
 5.622384473987841e-01	 9.317372025564835e-01	 3.986770770524358e+00
 5.532704046029903e-01	 9.370902514685463e-01	 3.991260022692430e+00
 5.442623814031892e-01	 9.423506371741205e-01	 4.031266816612214e+00
 5.352157864530174e-01	 9.475179680493709e-01	 4.094859945347229e+00
 5.261320320837845e-01	 9.525918804443393e-01	 4.169700496846592e+00
 5.170125336241201e-01	 9.575720386728107e-01	 4.243063526846683e+00
 5.078587087228544e-01	 9.624581349827813e-01	 4.301860423016545e+00
 4.986719766757564e-01	 9.672498895077365e-01	 4.332661918743784e+00
 4.894537577567521e-01	 9.719470501989690e-01	 4.321721712470398e+00
 4.802054725542244e-01	 9.765493927391885e-01	 4.255000646155568e+00
 4.709285413129862e-01	 9.810567204377044e-01	 4.118191394276526e+00
 5.667976150197382e-01	 9.392926198433107e-01	 3.664533897245298e+00
 5.577568507466210e-01	 9.446890764007799e-01	 3.769316989276111e+00
 5.486757818700376e-01	 9.499921183498042e-01	 3.926996144061052e+00
 5.395558284663587e-01	 9.552013508908862e-01	 4.118488282510983e+00
 5.303984143194497e-01	 9.603164074252436e-01	 4.324180086287472e+00
 5.212049662348012e-01	 9.653369495445931e-01	 4.523961199819522e+00
 5.119769133569183e-01	 9.702626670013813e-01	 4.697258176013965e+00
 5.027156864906011e-01	 9.750932776596664e-01	 4.823069104795953e+00
 4.934227174267368e-01	 9.798285274268859e-01	 4.879998861229435e+00
 4.840994382732201e-01	 9.844681901667690e-01	 4.846294907781087e+00
 4.747472807915894e-01	 9.890120675936659e-01	 4.699883583311948e+00
 5.713567942664680e-01	 9.468480563982064e-01	 3.410116294028189e+00
 5.622433083306285e-01	 9.522879207118241e-01	 3.608469230704025e+00
 5.530891935910524e-01	 9.576336190131246e-01	 3.867391513395403e+00
 5.438958815468704e-01	 9.628847533269371e-01	 4.162722704243108e+00
 5.346648074345299e-01	 9.680409541056474e-01	 4.469686994426972e+00
 5.253974095364100e-01	 9.731018802188972e-01	 4.762934725794010e+00
 5.160951284927170e-01	 9.780672189235762e-01	 5.016584696040549e+00
 5.067594066173073e-01	 9.829366858143070e-01	 5.204267172665078e+00
 4.973916872180574e-01	 9.877100247546671e-01	 5.299167538565087e+00
 4.879934139223994e-01	 9.923870077893987e-01	 5.274070490039144e+00
 4.785660300086246e-01	 9.969674350378890e-01	 5.101404706086394e+00
 5.759159838473318e-01	 9.544035100801623e-01	 3.219111373190832e+00
 5.667297760839711e-01	 9.598867822483672e-01	 3.500837320775263e+00
 5.575026153158813e-01	 9.652751369986767e-01	 3.842200977978933e+00
 5.482359444649775e-01	 9.705681731802419e-01	 4.215988028909512e+00
 5.389312102203119e-01	 9.757655182966071e-01	 4.594320507704365e+00
 5.295898623411749e-01	 9.808668284953329e-01	 4.948703474102281e+00
 5.202133529634978e-01	 9.858717885377437e-01	 5.250072499998739e+00
 5.108031359102176e-01	 9.907801117490229e-01	 5.468841883559930e+00
 5.013606660062222e-01	 9.955915399488822e-01	 5.574953505113522e+00
 4.918873983985063e-01	 1.000305843363072e+00	 5.537926236929652e+00
 4.823847878821362e-01	 1.004922820516011e+00	 5.326905817162746e+00
 5.804751824706880e-01	 9.619589787481722e-01	 3.087240844397598e+00
 5.712162527356068e-01	 9.674856588570964e-01	 3.438778338930643e+00
 5.619160457941728e-01	 9.729166701410574e-01	 3.841482805000353e+00
 5.525760159911045e-01	 9.782516082735183e-01	 4.267060105502108e+00
 5.431976214680816e-01	 9.834900978091780e-01	 4.686540494243127e+00
 5.337823234613233e-01	 9.886317921735067e-01	 5.070327322235953e+00
 5.243315856025086e-01	 9.936763736322622e-01	 5.388246570128531e+00
 5.148468732236742e-01	 9.986235532411809e-01	 5.609597119924040e+00
 5.053296526667403e-01	 1.003473070776103e+00	 5.703201676716207e+00
 4.957813905982844e-01	 1.008224694643784e+00	 5.637458248998906e+00
 4.862035533301683e-01	 1.012878221773671e+00	 5.380392094217338e+00
 5.850343888448946e-01	 9.695144602612272e-01	 3.010349911736633e+00
 5.757027370144936e-01	 9.750845483846995e-01	 3.414876804685875e+00
 5.663294837755748e-01	 9.805582162748622e-01	 3.855593492739800e+00
 5.569160948956775e-01	 9.859350564294853e-01	 4.305052196759384e+00
 5.474640399691242e-01	 9.912146904544148e-01	 4.735153372725669e+00
 5.379747917090835e-01	 9.963967690530293e-01	 5.117193366642577e+00
 5.284498252429969e-01	 1.001480971995510e+00	 5.421912898604191e+00
 5.188906174120189e-01	 1.006467008068145e+00	 5.619546290919828e+00
 5.092986460751201e-01	 1.011354615002900e+00	 5.679871352635594e+00
 4.996753894184770e-01	 1.016143559387529e+00	 5.572259830495957e+00
 4.900223252707658e-01	 1.020833636556505e+00	 5.265728334367434e+00
 5.895936016783102e-01	 9.770699524783206e-01	 2.984402704825398e+00
 5.801892276495898e-01	 9.826834486778639e-01	 3.421936042893003e+00
 5.707429280097351e-01	 9.881997732346868e-01	 3.875176353110366e+00
 5.612561799491207e-01	 9.936185154708602e-01	 4.319402002552088e+00
 5.517304645147261e-01	 9.989392940433741e-01	 4.729298739993332e+00
 5.421672658966834e-01	 1.004161756933508e+00	 5.079003257133699e+00
 5.325680707182103e-01	 1.009285581415867e+00	 5.342147570035976e+00
 5.229343673295942e-01	 1.014310474007282e+00	 5.491904142521125e+00
 5.132676451068702e-01	 1.019236170395843e+00	 5.501031670520899e+00
 5.035693937558281e-01	 1.024062435350301e+00	 5.341921443899937e+00
 4.938411026219721e-01	 1.028789062610151e+00	 4.986644200030461e+00
 5.941528196792930e-01	 9.846254532584438e-01	 3.005477931382961e+00
 5.846757233698534e-01	 9.902823575832775e-01	 3.452969956708074e+00
 5.751563772463021e-01	 9.958413388551269e-01	 3.891150629137860e+00
 5.655962699218595e-01	 1.001301983220362e+00	 4.299859289172649e+00
 5.559968938961736e-01	 1.006663906387111e+00	 4.658436622019808e+00
 5.463597448363504e-01	 1.011926753614553e+00	 4.945761121436569e+00
 5.366863208613966e-01	 1.017090199681709e+00	 5.140286353008037e+00
 5.269781218307426e-01	 1.022153948835957e+00	 5.220078950500916e+00
 5.172366486374987e-01	 1.027117734721504e+00	 5.162857275955358e+00
 5.074634025070810e-01	 1.031981320288095e+00	 4.946030671424234e+00
 4.976598843018319e-01	 1.036744497680246e+00	 4.546739227758499e+00
 5.987120415562011e-01	 9.921809604605897e-01	 3.069764739473262e+00
 5.891622229042429e-01	 9.978812729476279e-01	 3.501195186549646e+00
 5.795698302349237e-01	 1.003482910970779e+00	 3.894701118886565e+00
 5.699363635843187e-01	 1.008985457500709e+00	 4.236474092257295e+00
 5.602633269047524e-01	 1.014388525296681e+00	 4.512335315056743e+00
 5.505522273403126e-01	 1.019691756895771e+00	 4.707762048459093e+00
 5.408045745058032e-01	 1.024894824581416e+00	 4.807914773542444e+00
 5.310218797698059e-01	 1.029997430331535e+00	 4.797665075921744e+00
 5.212056555425149e-01	 1.034999305746452e+00	 4.661624195157429e+00
 5.113574145689793e-01	 1.039900211956906e+00	 4.384172183126684e+00
 5.014786692283897e-01	 1.044699939512429e+00	 3.949487612673040e+00
 6.032712660173928e-01	 9.997364719437507e-01	 3.173558778335113e+00
 5.936487249817157e-01	 1.005480192617603e+00	 3.560023634644596e+00
 5.839832857252478e-01	 1.011124487416240e+00	 3.877268279061830e+00
 5.742764597069232e-01	 1.016668936134619e+00	 4.119585463019664e+00
 5.645297623317486e-01	 1.022113148583140e+00	 4.281059785756479e+00
 5.547447122207984e-01	 1.027456764576772e+00	 4.355581100735402e+00
 5.449228304846778e-01	 1.032699453903367e+00	 4.336858645015917e+00
 5.350656400011267e-01	 1.037840916271382e+00	 4.218435863968288e+00
 5.251746646974269e-01	 1.042880881237259e+00	 3.993705900098551e+00
 5.152514288382668e-01	 1.047819108112727e+00	 3.655927711277982e+00
 5.052974563196894e-01	 1.052655385852336e+00	 3.198242780362774e+00
 6.078304917712264e-01	 1.007291985566919e+00	 3.313258447379209e+00
 5.981352283312307e-01	 1.013079114439890e+00	 3.623055335980962e+00
 5.883967424669230e-01	 1.018766066026104e+00	 3.830538783123148e+00
 5.786165570600984e-01	 1.024352416944811e+00	 3.939810729292661e+00
 5.687961989684477e-01	 1.029837774057543e+00	 3.954960600946849e+00
 5.589371982900345e-01	 1.035221774457163e+00	 3.880062828290936e+00
 5.490410876312684e-01	 1.040504085435938e+00	 3.719175030583450e+00
 5.391094013790468e-01	 1.045684404432863e+00	 3.476336868110523e+00
 5.291436749777435e-01	 1.050762458960495e+00	 3.155569555943531e+00
 5.191454442116871e-01	 1.055738006511553e+00	 2.760876030660664e+00
 5.091162444937753e-01	 1.060610834445606e+00	 2.296241757395254e+00
 4.709285413129862e-01	 9.810567204377044e-01	 4.118191394276526e+00
 4.616227991659323e-01	 9.854696060013456e-01	 3.923367107889212e+00
 4.522912388269320e-01	 9.897871325870814e-01	 3.698124913827297e+00
 4.429352758886508e-01	 9.940091848336716e-01	 3.451300144504694e+00
 4.335563230520154e-01	 9.981356744262322e-01	 3.191895355144951e+00
 4.241557895045047e-01	 1.002166539904589e+00	 2.929068122226936e+00
 4.147350803073237e-01	 1.006101746455231e+00	 2.672119143525331e+00
 4.052955957919376e-01	 1.009941285687257e+00	 2.430480641653019e+00
 3.958387309664236e-01	 1.013685175392733e+00	 2.213705071137095e+00
 3.863658749320805e-01	 1.017333459291891e+00	 2.031454127301669e+00
 3.768784103107179e-01	 1.020886206763610e+00	 1.893488053595274e+00
 4.747472807915894e-01	 9.890120675936659e-01	 4.699883583311948e+00
 4.653660787778535e-01	 9.934607370584575e-01	 4.455344167515433e+00
 4.559588492136603e-01	 9.978132742834666e-01	 4.152333247753328e+00
 4.465270191706391e-01	 1.002069562971986e+00	 3.806274397752346e+00
 4.370720128052314e-01	 1.006229514092981e+00	 3.432849292417640e+00
 4.275952507319404e-01	 1.010293065687895e+00	 3.047975060008819e+00
 4.180981494055364e-01	 1.014260182660907e+00	 2.667781991992537e+00
 4.085821205126959e-01	 1.018130856553068e+00	 2.308591627671957e+00
 3.990485703735407e-01	 1.021905105300711e+00	 1.986895228359420e+00
 3.894988993535169e-01	 1.025582972978587e+00	 1.719332653620677e+00
 3.799345012860394e-01	 1.029164529528158e+00	 1.522671649984516e+00
 4.785660300086246e-01	 9.969674350378890e-01	 5.101404706086394e+00
 4.691093679358498e-01	 1.001451888495082e+00	 4.802016159697302e+00
 4.596264689535641e-01	 1.005839436448636e+00	 4.428546810939504e+00
 4.501187716123904e-01	 1.010129961666376e+00	 4.001002748081120e+00
 4.405877115243157e-01	 1.014323374401120e+00	 3.539704335495798e+00
 4.310347207308977e-01	 1.018419612195926e+00	 3.065256273015140e+00
 4.214612270805013e-01	 1.022418639672665e+00	 2.598518068040024e+00
 4.118686536150452e-01	 1.026320448304341e+00	 2.160574947719033e+00
 4.022584179667253e-01	 1.030125056171559e+00	 1.772709235804288e+00
 3.926319317651646e-01	 1.033832507703590e+00	 1.456372216180268e+00
 3.829906000554127e-01	 1.037442873404484e+00	 1.233156502540172e+00
 4.823847878821362e-01	 1.004922820516011e+00	 5.326905817162746e+00
 4.728526655793324e-01	 1.009443058046719e+00	 4.971832869027514e+00
 4.632940970074804e-01	 1.013865616808170e+00	 4.538395470732763e+00
 4.537105321962244e-01	 1.018190378632725e+00	 4.049226366444130e+00
 4.441034182131228e-01	 1.022417253057053e+00	 3.527294500939572e+00
 4.344741985268155e-01	 1.026546177125825e+00	 2.995870896833418e+00
 4.248243123792888e-01	 1.030577115178610e+00	 2.478494998755462e+00
 4.151551941677298e-01	 1.034510058620366e+00	 1.998941517071571e+00
 4.054682728364357e-01	 1.038345025675969e+00	 1.581187800762656e+00
 3.957649712792327e-01	 1.042082061129215e+00	 1.249381766189499e+00
 3.860467057528313e-01	 1.045721236046741e+00	 1.027810405674430e+00
 4.862035533301683e-01	 1.012878221773671e+00	 5.380392094217338e+00
 4.765959706477127e-01	 1.017434243448864e+00	 4.972963135988216e+00
 4.669617323362469e-01	 1.021891813087648e+00	 4.493128327464550e+00
 4.573022999044603e-01	 1.026250811586913e+00	 3.964239507356436e+00
 4.476191318755074e-01	 1.030511147767179e+00	 3.409972827389633e+00
 4.379136831451330e-01	 1.034672758174737e+00	 2.854293516700494e+00
 4.281874043489687e-01	 1.038735606866850e+00	 2.321421166607753e+00
 4.184417412394940e-01	 1.042699685180430e+00	 1.835795568749101e+00
 4.086781340731299e-01	 1.046565011484631e+00	 1.422043136420241e+00
 3.988980170079298e-01	 1.050331630917772e+00	 1.104943935891877e+00
 3.891028175122886e-01	 1.053999615109086e+00	 9.093993515166168e-01
 4.900223252707658e-01	 1.020833636556505e+00	 5.265728334367435e+00
 4.803392820804012e-01	 1.025425442437019e+00	 4.813305591246640e+00
 4.706293739007002e-01	 1.029918023012649e+00	 4.303628316607942e+00
 4.608940737194178e-01	 1.034311258244820e+00	 3.758906669884613e+00
 4.511348515153240e-01	 1.038605056237903e+00	 3.201629847999123e+00
 4.413531736112893e-01	 1.042799353039807e+00	 2.654532766135312e+00
 4.315505020366115e-01	 1.046894112425490e+00	 2.140563311644325e+00
 4.217282938990817e-01	 1.050889325663823e+00	 1.682850199648275e+00
 4.118880007672668e-01	 1.054785011268236e+00	 1.304671455665681e+00
 4.020310680634656e-01	 1.058581214731576e+00	 1.029423547445599e+00
 3.921589344677779e-01	 1.062278008245671e+00	 8.805911851773294e-01
 4.938411026219721e-01	 1.028789062610151e+00	 4.986644200030461e+00
 4.840825988168095e-01	 1.033416652746681e+00	 4.500498896096025e+00
 4.742970206616783e-01	 1.037944244308754e+00	 3.980426137234819e+00
 4.644858526234161e-01	 1.042371716322328e+00	 3.445678965801100e+00
 4.546505761364266e-01	 1.046698976175627e+00	 2.915711208748283e+00
 4.447926689507233e-01	 1.050925959418177e+00	 2.410149065144424e+00
 4.349136044892870e-01	 1.055052629542636e+00	 1.948763319020945e+00
 4.250148512152379e-01	 1.059078977749833e+00	 1.551442196919695e+00
 4.150978720093040e-01	 1.063005022697474e+00	 1.238164886261553e+00
 4.051641235580489e-01	 1.066830810232940e+00	 1.028975727548182e+00
 3.952150557532931e-01	 1.070556413110653e+00	 9.439590904358658e-01
 4.976598843018319e-01	 1.036744497680246e+00	 4.546739227758498e+00
 4.878259197963485e-01	 1.041407872113348e+00	 4.041931515547861e+00
 4.779646715800181e-01	 1.045970474701542e+00	 3.533713542931155e+00
 4.680776355987750e-01	 1.050432183535317e+00	 3.036609737455344e+00
 4.581663047426705e-01	 1.054792905286752e+00	 2.565234478482628e+00
 4.482321681888748e-01	 1.059052575006993e+00	 2.134271544179584e+00
 4.382767107540655e-01	 1.063211155906394e+00	 1.758454235588161e+00
 4.283014122567060e-01	 1.067268639117747e+00	 1.452546183216683e+00
 4.183077468897003e-01	 1.071225043443037e+00	 1.231322838434955e+00
 4.082971826038889e-01	 1.075080415084176e+00	 1.109553648966452e+00
 3.982711805028276e-01	 1.078834827358185e+00	 1.101984914953518e+00
 5.014786692283897e-01	 1.044699939512429e+00	 3.949487612673041e+00
 4.915692439584294e-01	 1.049399098272520e+00	 3.444751048967480e+00
 4.816323256165569e-01	 1.053996711916592e+00	 2.973356029127108e+00
 4.716694216278137e-01	 1.058492657599668e+00	 2.543369465323295e+00
 4.616820363379095e-01	 1.062886841277681e+00	 2.162805193725054e+00
 4.516716703511823e-01	 1.067179197503398e+00	 1.839614197216281e+00
 4.416398198780169e-01	 1.071369689204871e+00	 1.581675556596361e+00
 4.315879760922307e-01	 1.075458307446854e+00	 1.396788117095205e+00
 4.215176244989138e-01	 1.079445071175615e+00	 1.292662854053496e+00
 4.114302443131947e-01	 1.083330026947597e+00	 1.276915918845244e+00
 4.013273078503746e-01	 1.087113248642424e+00	 1.357062343562292e+00
 5.052974563196894e-01	 1.052655385852336e+00	 3.198242780362774e+00
 4.953125702424631e-01	 1.057390328959694e+00	 2.715873141641914e+00
 4.852999817321316e-01	 1.062022953679483e+00	 2.308904948747980e+00
 4.752612096928517e-01	 1.066553136231262e+00	 1.977260002783090e+00
 4.651977699259986e-01	 1.070980781854817e+00	 1.720632178712088e+00
 4.551111744630852e-01	 1.075305824604536e+00	 1.538491304701951e+00
 4.450029309082117e-01	 1.079528227126172e+00	 1.430087821101732e+00
 4.348745417905561e-01	 1.083647980416444e+00	 1.394458182652004e+00
 4.247275039274028e-01	 1.087665103565898e+00	 1.430430964791422e+00
 4.145633077981754e-01	 1.091579643485516e+00	 1.536633632467205e+00
 4.043834369299279e-01	 1.095391674617524e+00	 1.711499927661162e+00
 5.091162444937753e-01	 1.060610834445606e+00	 2.296241757395253e+00
 4.990558975878610e-01	 1.065381561910370e+00	 1.861989999266167e+00
 4.889676388875799e-01	 1.070049197715796e+00	 1.549609086178372e+00
 4.788529987762085e-01	 1.074613617145979e+00	 1.349228173413156e+00
 4.687135045107921e-01	 1.079074724724561e+00	 1.250542178678686e+00
 4.585506795500227e-01	 1.083432454007551e+00	 1.242832164679565e+00
 4.483660428917197e-01	 1.087686767358405e+00	 1.314986552341316e+00
 4.381611084204268e-01	 1.091837655705804e+00	 1.455523100444478e+00
 4.279373842656258e-01	 1.095885138284579e+00	 1.652611585046906e+00
 4.176963721710401e-01	 1.099829262360247e+00	 1.894097110016978e+00
 4.074395668754807e-01	 1.103670102937638e+00	 2.167523978271038e+00
 3.768784103107179e-01	 1.020886206763610e+00	 1.893488053595274e+00
 3.673793285980262e-01	 1.024342932873229e+00	 1.821997068944329e+00
 3.578683852392132e-01	 1.027704368830951e+00	 1.830877363863300e+00
 3.483469389886465e-01	 1.030970658465916e+00	 1.909532429104972e+00
 3.388163399692086e-01	 1.034141970034960e+00	 2.044990234937133e+00
 3.292779291590125e-01	 1.037218495887461e+00	 2.224300432797278e+00
 3.197330378908556e-01	 1.040200452118341e+00	 2.434548197973489e+00
 3.101829873646866e-01	 1.043088078209732e+00	 2.662867135018613e+00
 3.006290881733399e-01	 1.045881636661798e+00	 2.896451262398550e+00
 2.910726398417740e-01	 1.048581412613244e+00	 3.122566096620394e+00
 2.815149303800232e-01	 1.051187713452026e+00	 3.328558859537411e+00
 3.799345012860394e-01	 1.029164529528158e+00	 1.522671649984515e+00
 3.703583919246967e-01	 1.032649286082447e+00	 1.418367765890912e+00
 3.607703247316137e-01	 1.036037979781014e+00	 1.411570034304558e+00
 3.511716694792442e-01	 1.039330755619317e+00	 1.491611755958063e+00
 3.415637872385637e-01	 1.042527783218591e+00	 1.642607946817560e+00
 3.319480298616250e-01	 1.045629256487976e+00	 1.848637609127769e+00
 3.223257394769506e-01	 1.048635393274710e+00	 2.093762621861222e+00
 3.126982479980479e-01	 1.051546435002888e+00	 2.362045638395452e+00
 3.030668766452971e-01	 1.054362646301285e+00	 2.637567002145745e+00
 2.934329354814539e-01	 1.057084314620796e+00	 2.904440694979966e+00
 2.837977229609758e-01	 1.059711749841981e+00	 3.146829337042401e+00
 3.829906000554127e-01	 1.037442873404484e+00	 1.233156502540172e+00
 3.733374628490192e-01	 1.040955660474934e+00	 1.120944449007784e+00
 3.636722716250195e-01	 1.044371611983876e+00	 1.114273237336345e+00
 3.539964071739805e-01	 1.047690874093082e+00	 1.202995952166377e+00
 3.443112415149984e-01	 1.050913617788185e+00	 1.369798784228058e+00
 3.346181373740906e-01	 1.054040038538092e+00	 1.596817340409175e+00
 3.249184476755320e-01	 1.057070355942356e+00	 1.866137096054701e+00
 3.152135150464144e-01	 1.060004813367034e+00	 2.159814606208176e+00
 3.055046713346904e-01	 1.062843677569518e+00	 2.459897678596486e+00
 2.957932371409377e-01	 1.065587238312894e+00	 2.748444520281928e+00
 2.860805213640624e-01	 1.068235807970332e+00	 3.007541873991170e+00
 3.860467057528313e-01	 1.045721236046741e+00	 1.027810405674430e+00
 3.763165405267979e-01	 1.049262053696909e+00	 9.281894042971461e-01
 3.665742250970738e-01	 1.052705263078036e+00	 9.348143883879050e-01
 3.568211512723624e-01	 1.056051011518212e+00	 1.037083675646551e+00
 3.470587020199041e-01	 1.059299471367465e+00	 1.218214359360760e+00
 3.372882509397052e-01	 1.062450839654468e+00	 1.459399870529251e+00
 3.275111617518158e-01	 1.065505337731094e+00	 1.741769906639020e+00
 3.177287877969363e-01	 1.068463210905362e+00	 2.046413300104361e+00
 3.079424715506134e-01	 1.071324728063283e+00	 2.354399797125819e+00
 2.981535441512712e-01	 1.074090181280135e+00	 2.646800758483019e+00
 2.883633249422863e-01	 1.076759885421701e+00	 2.904708798082992e+00
 3.891028175122886e-01	 1.053999615109086e+00	 9.093993515166152e-01
 3.792956241138376e-01	 1.057568463394589e+00	 8.390911117646663e-01
 3.694761843254197e-01	 1.061038930701994e+00	 8.691302880350377e-01
 3.596459009738961e-01	 1.064411165525704e+00	 9.874628320407800e-01
 3.498061679746720e-01	 1.067685341580148e+00	 1.179753741616290e+00
 3.399583698017640e-01	 1.070861657453763e+00	 1.427230275002393e+00
 3.301038809710178e-01	 1.073940336250739e+00	 1.711061536998627e+00
 3.202440655367624e-01	 1.076921625221063e+00	 2.012381369844848e+00
 3.103802766021601e-01	 1.079805795379364e+00	 2.312310107912820e+00
 3.005138558435000e-01	 1.082593141113114e+00	 2.591975209781304e+00
 2.906461330486507e-01	 1.085283979780712e+00	 2.832530785735645e+00
 3.921589344677779e-01	 1.062278008245671e+00	 8.805911851773289e-01
 3.822747127659429e-01	 1.065874887214190e+00	 8.526584936089701e-01
 3.723781484877006e-01	 1.069372612494248e+00	 9.130504889330014e-01
 3.624706554780882e-01	 1.072771333746560e+00	 1.047901931620594e+00
 3.525536386006943e-01	 1.076071226049955e+00	 1.246552666885462e+00
 3.426284932035629e-01	 1.079272489552634e+00	 1.491426328043223e+00
 3.326966045983542e-01	 1.082375349111109e+00	 1.764701965938924e+00
 3.227593475530428e-01	 1.085380053917329e+00	 2.048546323297893e+00
 3.128180857984240e-01	 1.088286877114545e+00	 2.325133955953955e+00
 3.028741715486706e-01	 1.091096115402428e+00	 2.576666193899215e+00
 2.929289450361587e-01	 1.093808088631989e+00	 2.785388964800326e+00
 3.952150557532931e-01	 1.070556413110653e+00	 9.439590904358658e-01
 3.852538056389183e-01	 1.074181322801931e+00	 9.679197176091867e-01
 3.752801167615595e-01	 1.077706306093297e+00	 1.062071624319180e+00
 3.652954139844452e-01	 1.081131513811779e+00	 1.212341819982806e+00
 3.553011131193620e-01	 1.084457122400605e+00	 1.410973222022959e+00
 3.452986203883977e-01	 1.087683333567741e+00	 1.643366908824097e+00
 3.352893318990406e-01	 1.090810373922017e+00	 1.893658533065370e+00
 3.252746331329267e-01	 1.093838494597351e+00	 2.146011557349060e+00
 3.152558984484991e-01	 1.096767970865613e+00	 2.384634152750314e+00
 3.052344905978284e-01	 1.099599101738671e+00	 2.593794906422966e+00
 2.952117602578134e-01	 1.102332209560156e+00	 2.757837367874437e+00
 3.982711805028276e-01	 1.078834827358185e+00	 1.101984914953517e+00
 3.882329018885686e-01	 1.082487767804028e+00	 1.183921150853948e+00
 3.781820883246397e-01	 1.086040009137640e+00	 1.312408110934988e+00
 3.681201756924736e-01	 1.089491703352362e+00	 1.474887762484615e+00
 3.580485907520672e-01	 1.092843028255819e+00	 1.665593979017614e+00
 3.479687505995637e-01	 1.096094187115742e+00	 1.874680917985761e+00
 3.378820621382930e-01	 1.099245408293281e+00	 2.089164340981970e+00
 3.277899215635637e-01	 1.102296944864320e+00	 2.296144919628857e+00
 3.176937138614790e-01	 1.105249074229350e+00	 2.482820341675899e+00
 3.075948123220192e-01	 1.108102097712440e+00	 2.636496201994908e+00
 2.974945780666181e-01	 1.110856340149837e+00	 2.744595717399210e+00
 4.013273078503746e-01	 1.087113248642424e+00	 1.357062343562292e+00
 3.912120006706981e-01	 1.090794219866700e+00	 1.499726360822659e+00
 3.810840623545846e-01	 1.094373719265776e+00	 1.660423557237563e+00
 3.709449398016797e-01	 1.097851899999308e+00	 1.829786386756904e+00
 3.607960707202014e-01	 1.101228941239315e+00	 2.003200554915009e+00
 3.506388830803571e-01	 1.104505047813296e+00	 2.177236677231065e+00
 3.404747945813272e-01	 1.107680449834715e+00	 2.342707165723604e+00
 3.303052121321033e-01	 1.110755402321427e+00	 2.490567772791431e+00
 3.201315313464578e-01	 1.113730184802543e+00	 2.611639912489262e+00
 3.099551360522893e-01	 1.116605100914329e+00	 2.696884243589825e+00
 2.997773978155759e-01	 1.119380477985654e+00	 2.737982314879553e+00
 4.043834369299279e-01	 1.095391674617524e+00	 1.711499927661163e+00
 3.941911011411117e-01	 1.099100676636162e+00	 1.914415161317989e+00
 3.839860380290372e-01	 1.102707434116205e+00	 2.102580197125194e+00
 3.737697055115706e-01	 1.106212101383617e+00	 2.270909840060297e+00
 3.635435522451559e-01	 1.109614858974815e+00	 2.416776574995474e+00
 3.533090170740730e-01	 1.112915913277060e+00	 2.542964769662536e+00
 3.430675284933590e-01	 1.116115496156136e+00	 2.644785094878119e+00
 3.328205041256952e-01	 1.119213864571864e+00	 2.718056430444096e+00
 3.225693502125287e-01	 1.122211300181975e+00	 2.758981110332237e+00
 3.123154611196843e-01	 1.125108108934936e+00	 2.764012886588035e+00
 3.020602188576900e-01	 1.127904620652233e+00	 2.729841630816394e+00
 4.074395668754807e-01	 1.103670102937638e+00	 2.167523978271038e+00
 3.971702024556140e-01	 1.107407135758633e+00	 2.427082700898797e+00
 3.868880145256408e-01	 1.111041151327425e+00	 2.635434887958081e+00
 3.765944720216519e-01	 1.114572305136289e+00	 2.791926455321952e+00
 3.662910345483225e-01	 1.118000779086037e+00	 2.896971768894129e+00
 3.559791518240072e-01	 1.121326781123692e+00	 2.959273564146893e+00
 3.456602631396047e-01	 1.124550544867359e+00	 2.982015243671241e+00
 3.353357968314888e-01	 1.127672329218821e+00	 2.966811878345363e+00
 3.250071697687858e-01	 1.130692417964432e+00	 2.915634203400456e+00
 3.146757868552502e-01	 1.133611119364855e+00	 2.830783421275902e+00
 3.043430405459638e-01	 1.136428765734195e+00	 2.714866502571808e+00
 2.815149303800232e-01	 1.051187713452026e+00	 3.328558859537411e+00
 2.719572359804875e-01	 1.053700868645081e+00	 3.495340180085070e+00
 2.624008209779921e-01	 1.056121230013807e+00	 3.616292368205882e+00
 2.528469370324877e-01	 1.058449170629273e+00	 3.697622940842499e+00
 2.432968226052729e-01	 1.060685084158954e+00	 3.745644081451521e+00
 2.337517025831925e-01	 1.062829384435084e+00	 3.766760175776786e+00
 2.242127879174382e-01	 1.064882505016369e+00	 3.767455035004737e+00
 2.146812752770187e-01	 1.066844898743585e+00	 3.754278864464924e+00
 2.051583467169507e-01	 1.068717037289555e+00	 3.733835035931723e+00
 1.956451693612018e-01	 1.070499410704053e+00	 3.712766721180094e+00
 1.861428951003990e-01	 1.072192526954103e+00	 3.697743443761108e+00
 2.837977229609758e-01	 1.059711749841981e+00	 3.146829337042401e+00
 2.741625256248551e-01	 1.062245284103420e+00	 3.345888971043286e+00
 2.645286180603517e-01	 1.064685272079408e+00	 3.497092790565672e+00
 2.548972620770692e-01	 1.067032089866219e+00	 3.606253393987809e+00
 2.452697061789318e-01	 1.069286134323551e+00	 3.679345236261497e+00
 2.356471851853356e-01	 1.071447822639375e+00	 3.722491183899761e+00
 2.260309198670197e-01	 1.073517591888097e+00	 3.741948681620871e+00
 2.164221165967268e-01	 1.075495898582547e+00	 3.744095593744112e+00
 2.068219670147032e-01	 1.077383218220314e+00	 3.735415783373673e+00
 1.972316477090714e-01	 1.079180044824955e+00	 3.722484492031187e+00
 1.876523199110862e-01	 1.080886890482565e+00	 3.711953581718638e+00
 2.860805213640624e-01	 1.068235807970332e+00	 3.007541873991170e+00
 2.763678208936756e-01	 1.070789721352055e+00	 3.220660433522482e+00
 2.666564205694990e-01	 1.073249335985267e+00	 3.386675411833730e+00
 2.569475923508175e-01	 1.075615030991461e+00	 3.510976100756376e+00
 2.472425947842089e-01	 1.077887206422568e+00	 3.599159450390665e+00
 2.375426726216478e-01	 1.080066282822310e+00	 3.657015907400662e+00
 2.278490564534482e-01	 1.082152700780805e+00	 3.690514796889965e+00
 2.181629623561134e-01	 1.084146920482950e+00	 3.705789315372131e+00
 2.084855915551461e-01	 1.086049421251115e+00	 3.709121202340021e+00
 1.988181301028497e-01	 1.087860701082651e+00	 3.706925157592409e+00
 1.891617485711329e-01	 1.089581276182744e+00	 3.705733070808148e+00
 2.883633249422863e-01	 1.076759885421701e+00	 2.904708798082992e+00
 2.785731211619116e-01	 1.079334177969854e+00	 3.115557765474590e+00
 2.687842279023556e-01	 1.081813419304712e+00	 3.282534540147586e+00
 2.589979272726093e-01	 1.084197991573000e+00	 3.410578659010437e+00
 2.492154878619283e-01	 1.086488298018892e+00	 3.504871919631375e+00
 2.394381643548905e-01	 1.088684762541873e+00	 3.570823761208519e+00
 2.296671971614083e-01	 1.090787829247780e+00	 3.614056128566151e+00
 2.199038120617701e-01	 1.092797961993595e+00	 3.640387890606624e+00
 2.101492198667583e-01	 1.094715643926478e+00	 3.655818884688702e+00
 2.004046160928801e-01	 1.096541377017587e+00	 3.666513658089120e+00
 1.906711806527213e-01	 1.098275681591209e+00	 3.678784977049851e+00
 2.906461330486507e-01	 1.085283979780712e+00	 2.832530785735645e+00
 2.807784258045261e-01	 1.087878651535683e+00	 3.026614836567711e+00
 2.709120394558433e-01	 1.090377519611071e+00	 3.182246685561749e+00
 2.610482662613208e-01	 1.092780969178836e+00	 3.303891550698470e+00
 2.511883848529139e-01	 1.095089406675410e+00	 3.396280497554955e+00
 2.413336598478245e-01	 1.097303259356043e+00	 3.464395617704677e+00
 2.314853414755851e-01	 1.099422974842311e+00	 3.513454636983440e+00
 2.216446652202888e-01	 1.101449020663285e+00	 3.548895028474225e+00
 2.118128514780187e-01	 1.103381883790922e+00	 3.576357705157352e+00
 2.019911052295061e-01	 1.105222070170204e+00	 3.601670366892620e+00
 1.921806157280338e-01	 1.106970104244528e+00	 3.630830575762023e+00
 2.929289450361587e-01	 1.093808088631989e+00	 2.785388964800326e+00
 2.829837341964819e-01	 1.096423139628413e+00	 2.949990615445158e+00
 2.730398546268836e-01	 1.098941634477672e+00	 3.083466947444817e+00
 2.630986087358285e-01	 1.101363961376972e+00	 3.189786127235392e+00
 2.531612851979899e-01	 1.103690529955006e+00	 3.273194919189621e+00
 2.432291585632114e-01	 1.105921770822807e+00	 3.338203911695872e+00
 2.333034888806631e-01	 1.108058135117686e+00	 3.389572127212983e+00
 2.233855213382613e-01	 1.110100094040817e+00	 3.432291094095593e+00
 2.134764859174065e-01	 1.112048138388968e+00	 3.471564492544803e+00
 2.035775970630714e-01	 1.113902778080947e+00	 3.512805208567395e+00
 1.936900533692525e-01	 1.115664541679271e+00	 3.561667242200383e+00
 2.952117602578134e-01	 1.102332209560156e+00	 2.757837367874437e+00
 2.851890457127416e-01	 1.104967639826909e+00	 2.881963841158206e+00
 2.751676728123982e-01	 1.107505761477841e+00	 2.983925556447617e+00
 2.651489541150092e-01	 1.109946965735407e+00	 3.067172676568383e+00
 2.551341883379802e-01	 1.112291665420569e+00	 3.135406820491928e+00
 2.451246599638122e-01	 1.114540294500143e+00	 3.192512862828111e+00
 2.351216388613272e-01	 1.116693307627193e+00	 3.242842569719582e+00
 2.251263799222792e-01	 1.118751179674995e+00	 3.290995288427354e+00
 2.151401227134003e-01	 1.120714405265136e+00	 3.341766997823777e+00
 2.051640911439192e-01	 1.122583498290258e+00	 3.400132706508201e+00
 1.951994931485598e-01	 1.124358991432006e+00	 3.471229254546655e+00
 2.974945780666181e-01	 1.110856340149837e+00	 2.744595717399210e+00
 2.873943597282683e-01	 1.113512149710043e+00	 2.818737386139625e+00
 2.772954934093091e-01	 1.116069898184907e+00	 2.880701086507324e+00
 2.671993018177392e-01	 1.118529979822142e+00	 2.933583519158424e+00
 2.571070937137090e-01	 1.120892810634984e+00	 2.980739446849715e+00
 2.470201635123880e-01	 1.123158827946038e+00	 3.025761119515550e+00
 2.369397909022623e-01	 1.125328489924120e+00	 3.072460340057886e+00
 2.268672404789342e-01	 1.127402275114618e+00	 3.124850928793874e+00
 2.168037613944795e-01	 1.129380681963944e+00	 3.187131594231049e+00
 2.067505870223931e-01	 1.131264228338580e+00	 3.263669215474281e+00
 1.967089346381378e-01	 1.133053451039304e+00	 3.358982539414586e+00
 2.997773978155759e-01	 1.119380477985654e+00	 2.737982314879553e+00
 2.895996756180249e-01	 1.122056666856680e+00	 2.753304407668508e+00
 2.794233158145376e-01	 1.124634042172197e+00	 2.768254111146062e+00
 2.692496512628950e-01	 1.127113001205179e+00	 2.785380505944802e+00
 2.590800007660003e-01	 1.129493963161138e+00	 2.807462485941191e+00
 2.489156686717003e-01	 1.131777368718472e+00	 2.837491513208083e+00
 2.387579444881531e-01	 1.133963679561754e+00	 2.878654792687469e+00
 2.286081025148181e-01	 1.136053377908490e+00	 2.934318873460555e+00
 2.184674014891227e-01	 1.138046966029914e+00	 3.008013680878129e+00
 2.083370842488365e-01	 1.139944965766357e+00	 3.103416981426948e+00
 1.982183774101689e-01	 1.141747918037733e+00	 3.224339280047094e+00
 3.020602188576900e-01	 1.127904620652233e+00	 2.729841630816394e+00
 2.918049927569739e-01	 1.130601188845688e+00	 2.680581055559571e+00
 2.815511394250055e-01	 1.133198191013039e+00	 2.643657073382206e+00
 2.713000018693529e-01	 1.135696027452518e+00	 2.621050546813579e+00
 2.610529089356780e-01	 1.138095120561916e+00	 2.614935407434735e+00
 2.508111749045100e-01	 1.140395914375427e+00	 2.627662750863958e+00
 2.405760991036842e-01	 1.142598874093383e+00	 2.661745391943876e+00
 2.303489655365227e-01	 1.144704485605409e+00	 2.719842882966082e+00
 2.201310425258092e-01	 1.146713255007565e+00	 2.804746995115094e+00
 2.099235823735930e-01	 1.148625708114031e+00	 2.919367660904016e+00
 1.997278210368353e-01	 1.150442389963861e+00	 3.066719373210126e+00
 3.043430405459638e-01	 1.136428765734195e+00	 2.714866502571808e+00
 2.940103105200784e-01	 1.139145713255937e+00	 2.596785681526364e+00
 2.836789636376346e-01	 1.141762342280760e+00	 2.504413785835341e+00
 2.733503530559896e-01	 1.144279056132160e+00	 2.439146564173396e+00
 2.630258176635664e-01	 1.146696280400205e+00	 2.402525472606544e+00
 2.527066816735784e-01	 1.149014462474888e+00	 2.396223369276706e+00
 2.423942542335408e-01	 1.151234071072297e+00	 2.422030718904370e+00
 2.320898290506398e-01	 1.153355595754177e+00	 2.481842305233857e+00
 2.217946840330177e-01	 1.155379546441417e+00	 2.577644446848724e+00
 2.115100809470059e-01	 1.157306452922045e+00	 2.711502709354576e+00
 2.012372650903192e-01	 1.159136864354258e+00	 2.885550104760669e+00
 1.861428951003990e-01	 1.072192526954103e+00	 3.697743443761108e+00
 1.766510483720675e-01	 1.073797176574809e+00	 3.691527336090804e+00
 1.671723688340672e-01	 1.075313606165639e+00	 3.692002304833613e+00
 1.577079640083019e-01	 1.076742374151761e+00	 3.698493315987307e+00
 1.482589250583532e-01	 1.078084055023988e+00	 3.710276655692947e+00
 1.388263265602436e-01	 1.079339238862790e+00	 3.726575623310112e+00
 1.294112262877410e-01	 1.080508530860630e+00	 3.746556285033865e+00
 1.200146650121030e-01	 1.081592550843088e+00	 3.769323325395754e+00
 1.106376663161413e-01	 1.082591932789227e+00	 3.793916032134164e+00
 1.012812364224704e-01	 1.083507324351631e+00	 3.819304447928694e+00
 9.194636403579609e-02	 1.084339386376554e+00	 3.844385720386455e+00
 1.876523199110862e-01	 1.080886890482565e+00	 3.711953581718638e+00
 1.780835042019536e-01	 1.082504552138659e+00	 3.704900029249413e+00
 1.685279624553002e-01	 1.084033278392373e+00	 3.698606511016290e+00
 1.589868111738754e-01	 1.085473632197129e+00	 3.694015654589526e+00
 1.494611503694588e-01	 1.086826192702271e+00	 3.691981743267791e+00
 1.399520633317619e-01	 1.088091554773214e+00	 3.693264926849609e+00
 1.304606164119931e-01	 1.089270328509909e+00	 3.698525572625851e+00
 1.209878588209785e-01	 1.090363138764082e+00	 3.708318795630949e+00
 1.115348224417171e-01	 1.091370624655714e+00	 3.723089205113190e+00
 1.021025216562383e-01	 1.092293439089185e+00	 3.743165901972014e+00
 9.269195318661062e-02	 1.093132248269526e+00	 3.768757759580285e+00
 1.891617485711329e-01	 1.089581276182744e+00	 3.705733070808148e+00
 1.795159636848741e-01	 1.091211949907333e+00	 3.704042895720114e+00
 1.698835595335222e-01	 1.092752972855232e+00	 3.697454989964310e+00
 1.602656616006947e-01	 1.094204912508127e+00	 3.688150961467767e+00
 1.506633787463893e-01	 1.095568352673903e+00	 3.678195940812997e+00
 1.410778029740277e-01	 1.096843893002933e+00	 3.669531494302905e+00
 1.315100092122801e-01	 1.098032148502666e+00	 3.663968737775338e+00
 1.219610551115605e-01	 1.099133749050992e+00	 3.663181692207305e+00
 1.124319808550757e-01	 1.100149338908817e+00	 3.668700919875042e+00
 1.029238089842894e-01	 1.101079576232330e+00	 3.681907477423040e+00
 9.343754423865198e-02	 1.101925132585359e+00	 3.704027219662767e+00
 1.906711806527213e-01	 1.098275681591209e+00	 3.678784977049851e+00
 1.809484264148250e-01	 1.099919367413728e+00	 3.687883556478646e+00
 1.712391596845128e-01	 1.101472687083637e+00	 3.686875932647456e+00
 1.615445149262892e-01	 1.102936212610899e+00	 3.678812608097050e+00
 1.518656098483897e-01	 1.104310532461951e+00	 3.666610813339349e+00
 1.422035451679654e-01	 1.105596251072132e+00	 3.653046303528706e+00
 1.325594043911660e-01	 1.106793988356403e+00	 3.640745397502277e+00
 1.229342536080124e-01	 1.107904379218823e+00	 3.632177302539330e+00
 1.133291413019373e-01	 1.108928073061243e+00	 3.629646765741600e+00
 1.037450981738560e-01	 1.109865733291667e+00	 3.635287090344935e+00
 9.418313698061839e-02	 1.110718036832734e+00	 3.651053552557002e+00
 1.921806157280338e-01	 1.106970104244528e+00	 3.630830575762023e+00
 1.823808919858028e-01	 1.108626802190737e+00	 3.655392164959856e+00
 1.725947625240515e-01	 1.110192418607010e+00	 3.665258730380874e+00
 1.628233707881890e-01	 1.111667530031593e+00	 3.663992087010917e+00
 1.530678433347056e-01	 1.113052729589483e+00	 3.655058957838001e+00
 1.433292895944988e-01	 1.114348626500999e+00	 3.641755051902993e+00
 1.336088016512149e-01	 1.115555845588621e+00	 3.627198164795688e+00
 1.239074540344977e-01	 1.116675026782587e+00	 3.614329857608926e+00
 1.142263035280217e-01	 1.117706824625701e+00	 3.605909146703532e+00
 1.045663889921703e-01	 1.118651907777798e+00	 3.604506690435645e+00
 9.492873120120811e-02	 1.119510958520333e+00	 3.612499455475815e+00
 1.936900533692525e-01	 1.115664541679271e+00	 3.561667242200383e+00
 1.838133599918037e-01	 1.117334251771257e+00	 3.605822943200339e+00
 1.739503676679177e-01	 1.118912164954772e+00	 3.631633202619677e+00
 1.641022288239238e-01	 1.120398862296354e+00	 3.642824670582705e+00
 1.542700788645824e-01	 1.121794941579569e+00	 3.642973441289997e+00
 1.444550359345522e-01	 1.123101016809721e+00	 3.635496910272943e+00
 1.346582006949907e-01	 1.124317717716819e+00	 3.623646188685518e+00
 1.248806561151796e-01	 1.125445689257293e+00	 3.610499057581750e+00
 1.151234672790491e-01	 1.126485591114903e+00	 3.598953444524552e+00
 1.053876812064646e-01	 1.127438097201324e+00	 3.591721404435956e+00
 9.567432668911931e-02	 1.128303895156839e+00	 3.591323586320932e+00
 1.951994931485598e-01	 1.124358991432006e+00	 3.471229254546655e+00
 1.852458300268238e-01	 1.126041713688183e+00	 3.538731230812819e+00
 1.753059747318907e-01	 1.127631923656345e+00	 3.585184510072420e+00
 1.653810886710233e-01	 1.129130206931330e+00	 3.614087453590217e+00
 1.554723160972654e-01	 1.130537165955279e+00	 3.628802085499516e+00
 1.455807838690497e-01	 1.131853419518487e+00	 3.632545918389536e+00
 1.357076012250577e-01	 1.133079602258502e+00	 3.628384328215371e+00
 1.258538595742214e-01	 1.134216364157949e+00	 3.619223460524863e+00
 1.160206323007395e-01	 1.135264370041556e+00	 3.607803649440825e+00
 1.062089745839710e-01	 1.136224299072846e+00	 3.596693330455786e+00
 9.641992323305024e-02	 1.137096844250934e+00	 3.588283427878166e+00
 1.967089346381378e-01	 1.133053451039304e+00	 3.358982539414586e+00
 1.866783016848593e-01	 1.134749185474410e+00	 3.452909240254212e+00
 1.766615833317499e-01	 1.136351692241150e+00	 3.524171840571158e+00
 1.666599499670176e-01	 1.137861561462664e+00	 3.575696184535496e+00
 1.566745546920000e-01	 1.139279400239678e+00	 3.610296439416363e+00
 1.467065330789153e-01	 1.140605832147483e+00	 3.630667097591062e+00
 1.367570029439800e-01	 1.141841496731169e+00	 3.639375502222882e+00
 1.268270641357866e-01	 1.142987048999564e+00	 3.638854877762148e+00
 1.169177983388128e-01	 1.144043158918370e+00	 3.631397845945587e+00
 1.070302688919220e-01	 1.145010510902963e+00	 3.619150407669464e+00
 9.716552062169906e-02	 1.145889803311299e+00	 3.604106370980002e+00
 1.982183774101689e-01	 1.141747918037733e+00	 3.224339280047094e+00
 1.881107745599065e-01	 1.143456664662833e+00	 3.347134774928896e+00
 1.780171930832751e-01	 1.145071468238607e+00	 3.446890232407301e+00
 1.679388123494363e-01	 1.146592923416506e+00	 3.525621817463911e+00
 1.578767943080316e-01	 1.148021641955837e+00	 3.585268945613808e+00
 1.478322832450733e-01	 1.149358252216897e+00	 3.627686667995446e+00
 1.378064055543216e-01	 1.150603398652322e+00	 3.654638536744431e+00
 1.278002695240385e-01	 1.151757741297148e+00	 3.667789931075286e+00
 1.178149651389892e-01	 1.152821955258056e+00	 3.668701824120850e+00
 1.078515638975497e-01	 1.153796730202278e+00	 3.658824970388350e+00
 9.791111864376409e-02	 1.154682769846619e+00	 3.639494493672880e+00
 1.997278210368353e-01	 1.150442389963861e+00	 3.066719373210125e+00
 1.895432482459616e-01	 1.152164148786348e+00	 3.220213056924764e+00
 1.793728036022452e-01	 1.153791249178140e+00	 3.351677319741993e+00
 1.692176754558092e-01	 1.155324290318999e+00	 3.461888330418359e+00
 1.590790346046055e-01	 1.156763888626824e+00	 3.551590533601072e+00
 1.489580340484477e-01	 1.158110677246916e+00	 3.621489623309574e+00
 1.388558087586465e-01	 1.159365305539463e+00	 3.672245935787508e+00
 1.287734754631403e-01	 1.160528438565709e+00	 3.704468241522920e+00
 1.187121324469886e-01	 1.161600756573321e+00	 3.718707915992969e+00
 1.086728593680864e-01	 1.162582954481391e+00	 3.715453468635914e+00
 9.865671708794346e-02	 1.163475741365573e+00	 3.695125409674453e+00
 2.012372650903192e-01	 1.159136864354258e+00	 2.885550104760669e+00
 1.909757223370208e-01	 1.160871635377850e+00	 3.070975641425818e+00
 1.807284145044399e-01	 1.162511032589169e+00	 3.236911659673154e+00
 1.704965389236662e-01	 1.164055659696293e+00	 3.382570647034115e+00
 1.602812752409672e-01	 1.165506137775708e+00	 3.507188325688086e+00
 1.500837851699626e-01	 1.166863104757728e+00	 3.610017418377695e+00
 1.399052122595189e-01	 1.168127214910092e+00	 3.690321755449177e+00
 1.297466816772556e-01	 1.169299138320258e+00	 3.747370702287641e+00
 1.196093000085310e-01	 1.170379560376875e+00	 3.780433886336927e+00
 1.094941550707644e-01	 1.171369181250904e+00	 3.788776203004755e+00
 9.940231574293544e-02	 1.172268715376846e+00	 3.771653080041230e+00
 9.194636403579609e-02	 1.084339386376554e+00	 3.844385720386455e+00
 8.263559750400498e-02	 1.085088671992387e+00	 3.864249348749076e+00
 7.334828292024807e-02	 1.085756014974210e+00	 3.880911576793848e+00
 6.408533397596120e-02	 1.086342112304158e+00	 3.903641704803269e+00
 5.484764694112109e-02	 1.086847672230783e+00	 3.941762323206075e+00
 4.563610057124283e-02	 1.087273413802824e+00	 4.004630888641794e+00
 3.645155602683708e-02	 1.087620066405180e+00	 4.101621885158449e+00
 2.729485680511988e-02	 1.087888369297435e+00	 4.242109601400424e+00
 1.816682868375999e-02	 1.088079071155274e+00	 4.435451551280044e+00
 9.068279676440062e-03	 1.088192929615108e+00	 4.690972562286655e+00
 0.000000000000000e+00	 1.088230710822225e+00	 5.017949552515566e+00
 9.269195318661062e-02	 1.093132248269526e+00	 3.768757759580285e+00
 8.330568604516947e-02	 1.093887609810434e+00	 3.799306672110028e+00
 7.394306102259096e-02	 1.094560364248029e+00	 3.836367649261642e+00
 6.460499921942929e-02	 1.095151214216240e+00	 3.883321020362150e+00
 5.529240417350925e-02	 1.095660873706773e+00	 3.943681430865815e+00
 4.600616176616953e-02	 1.096090067599097e+00	 4.021084174945758e+00
 3.674714014106687e-02	 1.096439531192658e+00	 4.119271895145618e+00
 2.751618963533194e-02	 1.096710009741660e+00	 4.242081680458210e+00
 1.831414272286069e-02	 1.096902257992762e+00	 4.393432591134086e+00
 9.141813969515078e-03	 1.097017039726013e+00	 4.577313635469416e+00
 0.000000000000000e+00	 1.097055127299335e+00	 4.797772221062624e+00
 9.343754423865198e-02	 1.101925132585359e+00	 3.704027219662767e+00
 8.397577629499998e-02	 1.102686570066909e+00	 3.739106010705398e+00
 7.453784064152362e-02	 1.103364735974160e+00	 3.789477660621403e+00
 6.512466578791765e-02	 1.103960338592843e+00	 3.853815176864753e+00
 5.573716253987668e-02	 1.104474097657828e+00	 3.930981838911647e+00
 4.637622390458444e-02	 1.104906743879326e+00	 4.020021506862143e+00
 3.704272500886458e-02	 1.105259018471340e+00	 4.120149130313515e+00
 2.773752302978304e-02	 1.105531672682705e+00	 4.230741489070224e+00
 1.846145713748307e-02	 1.105725467331067e+00	 4.351328194409971e+00
 9.215348450025656e-03	 1.105841172340124e+00	 4.481582976779871e+00
 0.000000000000000e+00	 1.105879566280446e+00	 4.621315283274782e+00
 9.418313698061839e-02	 1.110718036832734e+00	 3.651053552557002e+00
 8.464586806360859e-02	 1.111485550268766e+00	 3.685617264560250e+00
 7.513262160851970e-02	 1.112169127658013e+00	 3.743092559348631e+00
 6.564433353420512e-02	 1.112769482938021e+00	 3.818593313549054e+00
 5.618192191424692e-02	 1.113287341586829e+00	 3.907450862215078e+00
 4.674628688169116e-02	 1.113723440145404e+00	 4.005212570916699e+00
 3.733831054654548e-02	 1.114078525742313e+00	 4.107636406491054e+00
 2.795885692582769e-02	 1.114353355621034e+00	 4.210685399896970e+00
 1.860877188594467e-02	 1.114548696670210e+00	 4.310522003500679e+00
 9.288883097172389e-03	 1.114665324957197e+00	 4.403502345894177e+00
 0.000000000000000e+00	 1.114704025265223e+00	 4.486170388469475e+00
 9.492873120120811e-02	 1.119510958520333e+00	 3.612499455475815e+00
 8.531596116110735e-02	 1.120284547922956e+00	 3.642937116657066e+00
 7.572740375505296e-02	 1.120973536804998e+00	 3.702383679861491e+00
 6.616400231107059e-02	 1.121578644755825e+00	 3.783507639939477e+00
 5.662668217064351e-02	 1.122100602996660e+00	 3.879209126793401e+00
 4.711635059269338e-02	 1.122540153899225e+00	 3.982617419601687e+00
 3.763389667042485e-02	 1.122898050506667e+00	 4.087088261154218e+00
 2.818019126082040e-02	 1.123175056057113e+00	 4.186200971548904e+00
 1.875608692656302e-02	 1.123371943510211e+00	 4.273755361542610e+00
 9.362417890155872e-03	 1.123489495076986e+00	 4.343768446898288e+00
 0.000000000000000e+00	 1.123528501753334e+00	 4.390470966498931e+00
 9.567432668911931e-02	 1.128303895156839e+00	 3.591323586320932e+00
 8.598605539760837e-02	 1.129083560536432e+00	 3.614763651187184e+00
 7.632218691259701e-02	 1.129777960920525e+00	 3.671572035820089e+00
 6.668367197129288e-02	 1.130387821550310e+00	 3.753074831860431e+00
 5.707144318308994e-02	 1.130913879390200e+00	 3.850816470981141e+00
 4.748641493279472e-02	 1.131356882642683e+00	 3.956559348699285e+00
 3.792948329681797e-02	 1.131717590265490e+00	 4.062283205971142e+00
 2.840152597211570e-02	 1.131996771491404e+00	 4.160184265123955e+00
 1.890340221765566e-02	 1.132195205351089e+00	 4.242674117928974e+00
 9.435952808176700e-03	 1.132313680199245e+00	 4.302378364876555e+00
 0.000000000000000e+00	 1.132352993244445e+00	 4.332135006386457e+00
 9.641992323305024e-02	 1.137096844250934e+00	 3.588283427878166e+00
 8.665615058322375e-02	 1.137882585616146e+00	 3.602883874499087e+00
 7.691697091262550e-02	 1.138582397510003e+00	 3.653247788334674e+00
 6.720334236765091e-02	 1.139197010825530e+00	 3.730433499774942e+00
 5.751620482560978e-02	 1.139727168270332e+00	 3.825681218633262e+00
 4.785647979719885e-02	 1.140173623877673e+00	 3.930414052598694e+00
 3.822507034204013e-02	 1.140537142519870e+00	 4.036238788636652e+00
 2.862286099706809e-02	 1.140818499424373e+00	 4.134946430812711e+00
 1.905071771754012e-02	 1.141018479692866e+00	 4.218512489404601e+00
 9.509487830435464e-03	 1.141137877823731e+00	 4.279097017566151e+00
 0.000000000000000e+00	 1.141177497238223e+00	 4.309044393658697e+00
 9.716552062169906e-02	 1.145889803311299e+00	 3.604106370980002e+00
 8.732624652806553e-02	 1.146681620669051e+00	 3.609027585502325e+00
 7.751175558661223e-02	 1.147386844078842e+00	 3.649919921365930e+00
 6.772301335292351e-02	 1.148006210085537e+00	 3.718624888743854e+00
 5.796096697222652e-02	 1.148540467139938e+00	 3.807106652502746e+00
 4.822654508110944e-02	 1.148990375106087e+00	 3.907453739569498e+00
 3.852065772240658e-02	 1.149356704770896e+00	 4.011880561312737e+00
 2.884419627303208e-02	 1.149640237356485e+00	 4.112728740955066e+00
 1.919803338453394e-02	 1.149841764035561e+00	 4.202468237494291e+00
 9.583022936132756e-03	 1.149962085450197e+00	 4.273698259088762e+00
 0.000000000000000e+00	 1.150002011234334e+00	 4.319147960830307e+00
 9.791111864376409e-02	 1.154682769846619e+00	 3.639494493672880e+00
 8.799634304224582e-02	 1.155480663202100e+00	 3.634869450828664e+00
 7.810654076603075e-02	 1.156191298132453e+00	 3.664019238222045e+00
 6.824268477988950e-02	 1.156815416834384e+00	 3.720596501209307e+00
 5.840572949696372e-02	 1.157353773501898e+00	 3.798294940232843e+00
 4.859661067973010e-02	 1.157807133829818e+00	 3.890851010349397e+00
 3.881624535423264e-02	 1.158176274519656e+00	 3.992045534164823e+00
 2.906553173736219e-02	 1.158461982788204e+00	 4.095705214355949e+00
 1.934534917695466e-02	 1.158665055879196e+00	 4.195704033426410e+00
 9.656558104469172e-03	 1.158786300578399e+00	 4.285964529835975e+00
 0.000000000000000e+00	 1.158826532732445e+00	 4.360458941665480e+00
 9.865671708794346e-02	 1.163475741365573e+00	 3.695125409674453e+00
 8.866643993587668e-02	 1.164279710722243e+00	 3.682030987040078e+00
 7.870132628235482e-02	 1.164995757176243e+00	 3.697901223099579e+00
 6.876235650132782e-02	 1.165624628576125e+00	 3.739205556229235e+00
 5.885049227384490e-02	 1.166167084859096e+00	 3.802350882885055e+00
 4.896667648826453e-02	 1.166623897550763e+00	 3.883682561273788e+00
 3.911183315383355e-02	 1.166995849267240e+00	 3.979485472589121e+00
 2.928686732741294e-02	 1.167283733219994e+00	 4.085985121782580e+00
 1.949266505311982e-02	 1.167488352723791e+00	 4.199348761244596e+00
 9.730093314645305e-03	 1.167610520708092e+00	 4.315686522216313e+00
 0.000000000000000e+00	 1.167651059232224e+00	 4.431052540768436e+00
 9.940231574293544e-02	 1.172268715376846e+00	 3.771653080041230e+00
 8.933653701907020e-02	 1.173078760736435e+00	 3.752082454761159e+00
 7.929611196705814e-02	 1.173800218715625e+00	 3.753848774748836e+00
 6.928202837001728e-02	 1.174433842814812e+00	 3.777222293743978e+00
 5.929525517689356e-02	 1.174980398714412e+00	 3.822285495313645e+00
 4.933674240191636e-02	 1.175440663770815e+00	 3.888932721152806e+00
 3.940742103752461e-02	 1.175815426514736e+00	 3.976870046331832e+00
 2.950820298053884e-02	 1.176105486152319e+00	 4.085615378877032e+00
 1.963998097134695e-02	 1.176311652069365e+00	 4.214498762350591e+00
 9.803628545861746e-03	 1.176434743339030e+00	 4.362662861432055e+00
 0.000000000000000e+00	 1.176475588233336e+00	 4.529063612452551e+00
 1.176475588233336e+00	 0.000000000000000e+00	 1.237479027800818e+01
 1.176434743339030e+00	 9.803628545861098e-03	 1.057073584659193e+01
 1.176311652069365e+00	 1.963998097134639e-02	 9.341130061837918e+00
 1.176105486152319e+00	 2.950820298053838e-02	 8.570641410427747e+00
 1.175815426514735e+00	 3.940742103752425e-02	 8.141563007673671e+00
 1.175440663770814e+00	 4.933674240191608e-02	 7.933878311578573e+00
 1.174980398714412e+00	 5.929525517689338e-02	 7.825331293989652e+00
 1.174433842814813e+00	 6.928202837001721e-02	 7.691501126747859e+00
 1.173800218715625e+00	 7.929611196705813e-02	 7.405881422003690e+00
 1.173078760736435e+00	 8.933653701907034e-02	 6.839964057076356e+00
 1.172268715376846e+00	 9.940231574293547e-02	 5.863327604821910e+00
 1.185298617647136e+00	 0.000000000000000e+00	 1.696738690652300e+01
 1.185257466434718e+00	 9.877151281161975e-03	 1.414480305053958e+01
 1.185133452036587e+00	 1.978727185593458e-02	 1.210243977750552e+01
 1.184925739969079e+00	 2.972950102159615e-02	 1.069962651364554e+01
 1.184633505016388e+00	 3.970295869113886e-02	 9.793179018397387e+00
 1.184255931722710e+00	 4.970674542905543e-02	 9.237494620530176e+00
 1.183792214888245e+00	 5.973994249974178e-02	 8.884652861355169e+00
 1.183241560068681e+00	 6.980161192876748e-02	 8.584521587206584e+00
 1.182603184077831e+00	 7.989079657725708e-02	 8.184868512095090e+00
 1.181876315493052e+00	 9.000652022961739e-02	 7.531478260298614e+00
 1.181060195163063e+00	 1.001477876948355e-01	 6.468274886847541e+00
 1.194121647061736e+00	 0.000000000000000e+00	 2.073831425274481e+01
 1.194080189531207e+00	 9.950674016655510e-03	 1.706008580575561e+01
 1.193955252004609e+00	 1.993456274082628e-02	 1.432901981672488e+01
 1.193745993786640e+00	 2.995079906299752e-02	 1.238496838775616e+01
 1.193451583518840e+00	 3.999849634507768e-02	 1.106517312387078e+01
 1.193071199675406e+00	 5.007674845645151e-02	 1.020438374680920e+01
 1.192604031062879e+00	 6.018462982274300e-02	 9.634982863818216e+00
 1.192049277323350e+00	 7.032119548754176e-02	 9.187116921527670e+00
 1.191406149440836e+00	 8.048548118733836e-02	 8.688833351673242e+00
 1.190673870250469e+00	 9.067650343990434e-02	 7.966223902407394e+00
 1.189851674950080e+00	 1.008932596463443e-01	 6.843574135217963e+00
 1.202944676476936e+00	 0.000000000000000e+00	 2.365878188898653e+01
 1.202902912628295e+00	 1.002419675229353e-02	 1.929837922745823e+01
 1.202777051973230e+00	 2.008185362594559e-02	 1.601228775583205e+01
 1.202566247604800e+00	 3.017209710465659e-02	 1.362660953505254e+01
 1.202269662021893e+00	 4.029403399925969e-02	 1.196477994150958e+01
 1.201886467628702e+00	 5.044675148404016e-02	 1.084770359109891e+01
 1.201415847238112e+00	 6.062931714585874e-02	 1.009389696661551e+01
 1.200856994578618e+00	 7.084077904633405e-02	 9.519637770130574e+00
 1.200209114804443e+00	 8.108016579733142e-02	 8.939120997049406e+00
 1.199471425008485e+00	 9.134648664999623e-02	 8.164621714125367e+00
 1.198643154737697e+00	 1.016387315975597e-01	 7.006664508535843e+00
 1.211767705892536e+00	 0.000000000000000e+00	 2.570091117681715e+01
 1.211725635725783e+00	 1.009771948802787e-02	 2.084206825276375e+01
 1.211598851942252e+00	 2.022914451121664e-02	 1.714395769689093e+01
 1.211386501423361e+00	 3.039339514648746e-02	 1.442452829551701e+01
 1.211087740525344e+00	 4.058957165360378e-02	 1.249904580576271e+01
 1.210701735582398e+00	 5.081675451175718e-02	 1.118024019707821e+01
 1.210227663413746e+00	 6.107400446905088e-02	 1.027845994738551e+01
 1.209664711834286e+00	 7.136036260513832e-02	 9.601833410633194e+00
 1.209012080168449e+00	 8.167485040726569e-02	 8.956437246457142e+00
 1.208268979766902e+00	 9.201646985995805e-02	 8.146471887271892e+00
 1.207434634525714e+00	 1.023842035485794e-01	 6.974444001971007e+00
 1.220590735308335e+00	 0.000000000000000e+00	 2.683770231042750e+01
 1.220548358823472e+00	 1.017124222381038e-02	 2.167410608997711e+01
 1.220420651911474e+00	 2.037643539656356e-02	 1.771602911037147e+01
 1.220206755242121e+00	 3.061469318840423e-02	 1.477873692850189e+01
 1.219905819028996e+00	 4.088510930802895e-02	 1.267483479171417e+01
 1.219517003536293e+00	 5.118675753953839e-02	 1.121442027639395e+01
 1.219039479589579e+00	 6.151869179228121e-02	 1.020524313780533e+01
 1.218472429090154e+00	 7.187994616394859e-02	 9.452872386697827e+00
 1.217815045532654e+00	 8.226953501717052e-02	 8.760870581392957e+00
 1.217066534525519e+00	 9.268645306985483e-02	 7.930975308212403e+00
 1.216226114313930e+00	 1.031296754995015e-01	 6.763287806439696e+00
 1.229413764724135e+00	 0.000000000000000e+00	 2.704300277898450e+01
 1.229371081921160e+00	 1.024476495959287e-02	 2.177799359592722e+01
 1.229242451880695e+00	 2.052372628191047e-02	 1.772077615887290e+01
 1.229027009060881e+00	 3.083599123032097e-02	 1.468927977851416e+01
 1.228723897532648e+00	 4.118064696245408e-02	 1.249883448204926e+01
 1.228332271490189e+00	 5.155676056731959e-02	 1.096232319864148e+01
 1.227851295765413e+00	 6.196337911551154e-02	 9.890341120476327e+00
 1.227280146346022e+00	 7.239952972275890e-02	 9.091362257194231e+00
 1.226618010896860e+00	 8.286421962707538e-02	 8.371913174427657e+00
 1.225864089284136e+00	 9.335643627975165e-02	 7.536753891288146e+00
 1.225017594102147e+00	 1.038751474504235e-01	 6.389065894917120e+00
 1.238236794139735e+00	 0.000000000000000e+00	 2.629147717719773e+01
 1.238193805018648e+00	 1.031828769532718e-02	 2.113775953505871e+01
 1.238064251849717e+00	 2.067101716718147e-02	 1.715073747790040e+01
 1.237847262879441e+00	 3.105728927215179e-02	 1.415623152090790e+01
 1.237541976036100e+00	 4.147618461679812e-02	 1.197756149018610e+01
 1.237147539443884e+00	 5.192676359503657e-02	 1.043569247304250e+01
 1.236663111941046e+00	 6.240806643870367e-02	 9.349387718208751e+00
 1.236087863601690e+00	 7.291911328156318e-02	 8.535368509560474e+00
 1.235420976260865e+00	 8.345890423700963e-02	 7.808481010053552e+00
 1.234661644042553e+00	 9.402641948971353e-02	 6.981870057120574e+00
 1.233809073890164e+00	 1.046206194014434e-01	 5.867159874436108e+00
 1.247059823554935e+00	 0.000000000000000e+00	 2.455857829732538e+01
 1.247016528115735e+00	 1.039181043096515e-02	 1.973794167661067e+01
 1.246886051818338e+00	 2.081830805230071e-02	 1.599870639106019e+01
 1.246667516697602e+00	 3.127858731381077e-02	 1.317969548353159e+01
 1.246360054539152e+00	 4.177172227098004e-02	 1.111736675165206e+01
 1.245962807397180e+00	 5.229676662262516e-02	 9.645946746993996e+00
 1.245474928116279e+00	 6.285275376181938e-02	 8.597571310750892e+00
 1.244895580856958e+00	 7.343869684035545e-02	 7.802432678756795e+00
 1.244223941624471e+00	 8.405358884700274e-02	 7.088933162497511e+00
 1.243459198800570e+00	 9.469640269980548e-02	 6.283845398143568e+00
 1.242600553677780e+00	 1.053660913526588e-01	 5.212479140141022e+00
 1.255882852969535e+00	 0.000000000000000e+00	 2.182051943960462e+01
 1.255839251212224e+00	 1.046533316645861e-02	 1.756356868866882e+01
 1.255707851786360e+00	 2.096559893719228e-02	 1.425772153831004e+01
 1.255487770515162e+00	 3.149988535521200e-02	 1.175980204059282e+01
 1.255178133041604e+00	 4.206725992491875e-02	 9.924440595102185e+00
 1.254778075349876e+00	 5.266676965002115e-02	 8.604190345250574e+00
 1.254286744290912e+00	 6.329744108482051e-02	 7.649649512040550e+00
 1.253703298111626e+00	 7.395828039912969e-02	 6.909589710881772e+00
 1.253026906987477e+00	 8.464827345708408e-02	 6.231090271960693e+00
 1.252256753557986e+00	 9.536638591009251e-02	 5.459678571335711e+00
 1.251392033464797e+00	 1.061115633041678e-01	 4.439476365722889e+00
 1.264705882383334e+00	 0.000000000000000e+00	 1.805424788160334e+01
 1.264661974307912e+00	 1.053885590175940e-02	 1.460014279017576e+01
 1.264529651753582e+00	 2.111288982178033e-02	 1.192105789709454e+01
 1.264308024331922e+00	 3.172118339626960e-02	 9.896707075218268e+00
 1.263996211543256e+00	 4.236279757853321e-02	 8.404817603743021e+00
 1.263593343301772e+00	 5.303677267716038e-02	 7.321223372174185e+00
 1.263098560464746e+00	 6.374212840766885e-02	 6.519963239208485e+00
 1.262511015365494e+00	 7.447786395787998e-02	 5.873384608339913e+00
 1.261829872349682e+00	 8.524295806728308e-02	 5.252252258431264e+00
 1.261054308314603e+00	 9.603636912063970e-02	 4.525862455894941e+00
 1.260183513251014e+00	 1.068570352560680e-01	 3.562162362645737e+00
 1.172268715376846e+00	 9.940231574293547e-02	 5.863327604821913e+00
 1.171369181250904e+00	 1.094941550707639e-01	 4.680306571626608e+00
 1.170379560376876e+00	 1.196093000085306e-01	 3.585836606491222e+00
 1.169299138320258e+00	 1.297466816772552e-01	 2.583711290850170e+00
 1.168127214910092e+00	 1.399052122595186e-01	 1.678156138581009e+00
 1.166863104757728e+00	 1.500837851699623e-01	 8.738380752281825e-01
 1.165506137775708e+00	 1.602812752409670e-01	 1.758747067955997e-01
 1.164055659696292e+00	 1.704965389236660e-01	-4.101566534890273e-01
 1.162511032589170e+00	 1.807284145044398e-01	-8.782102367913036e-01
 1.160871635377850e+00	 1.909757223370206e-01	-1.221763390023853e+00
 1.159136864354258e+00	 2.012372650903192e-01	-1.433808513517527e+00
 1.181060195163063e+00	 1.001477876948355e-01	 6.468274886847539e+00
 1.180153914941946e+00	 1.103153112067115e-01	 5.184712067249562e+00
 1.179156872363373e+00	 1.205063151100233e-01	 3.979836434238672e+00
 1.178068347634899e+00	 1.307197225096803e-01	 2.860254430860118e+00
 1.176887635334594e+00	 1.409544374301230e-01	 1.832957505749566e+00
 1.175614044933695e+00	 1.512093449871018e-01	 9.053270955088224e-01
 1.174246901319383e+00	 1.614833115747477e-01	 8.513939398738635e-02
 1.172785545317201e+00	 1.717751850680931e-01	-6.194301161064293e-01
 1.171229334212640e+00	 1.820837950411903e-01	-1.199802398648700e+00
 1.169577642271410e+00	 1.924079530009565e-01	-1.646990901064940e+00
 1.167829861257889e+00	 2.027464526368590e-01	-1.951597932618621e+00
 1.189851674950080e+00	 1.008932596463443e-01	 6.843574135217968e+00
 1.188938648633787e+00	 1.111364673421580e-01	 5.494426268047333e+00
 1.187934184350669e+00	 1.214033302109266e-01	 4.216208820481667e+00
 1.186837556950337e+00	 1.316927633414465e-01	 3.017334327864188e+00
 1.185648055759887e+00	 1.420036626000158e-01	 1.906569227178041e+00
 1.184364985110446e+00	 1.523349048034913e-01	 8.930359409432450e-01
 1.182987664863831e+00	 1.626853479077516e-01	-1.378523521125596e-02
 1.181515430938867e+00	 1.730538312117260e-01	-8.040544607100724e-01
 1.179947635836845e+00	 1.834391755771360e-01	-1.467570918297062e+00
 1.178283649165677e+00	 1.938401836640810e-01	-1.993771652031353e+00
 1.176522858162191e+00	 2.042556401825827e-01	-2.371730710180068e+00
 1.198643154737697e+00	 1.016387315975597e-01	 7.006664508535848e+00
 1.197723382326229e+00	 1.119576234772288e-01	 5.623177154388224e+00
 1.196711496338564e+00	 1.223003453113876e-01	 4.305678420375429e+00
 1.195606766266373e+00	 1.326658041727180e-01	 3.063403964468777e+00
 1.194408476185774e+00	 1.430528877693737e-01	 1.905927825841933e+00
 1.193115925287784e+00	 1.534604646193159e-01	 8.431631879471011e-01
 1.191728428408858e+00	 1.638873842401688e-01	-1.146370186138326e-01
 1.190245316561099e+00	 1.743324773547565e-01	-9.568796894986802e-01
 1.188665937461600e+00	 1.847945561124677e-01	-1.672631317592141e+00
 1.186989656060471e+00	 1.952724143265822e-01	-2.250617988340562e+00
 1.185215855066995e+00	 2.057648277276741e-01	-2.679225632101553e+00
 1.207434634525714e+00	 1.023842035485794e-01	 6.974444001971007e+00
 1.206508116019070e+00	 1.127787796120490e-01	 5.584252912862782e+00
 1.205488808326859e+00	 1.231973604115535e-01	 4.258611598838683e+00
 1.204375975582806e+00	 1.336388450036591e-01	 3.006618978715334e+00
 1.203168896612058e+00	 1.441021129383733e-01	 1.837712180886677e+00
 1.201866865465514e+00	 1.545860244347604e-01	 7.616675430989180e-01
 1.200469191954271e+00	 1.650894205721890e-01	-2.113984925853722e-01
 1.198975202183708e+00	 1.756111234973761e-01	-1.071028604178239e+00
 1.197384239086723e+00	 1.861499366473764e-01	-1.806423953599690e+00
 1.195695662955618e+00	 1.967046449886485e-01	-2.406443715940705e+00
 1.193908851972134e+00	 2.072740152723169e-01	-2.859604806374303e+00
 1.216226114313930e+00	 1.031296754995015e-01	 6.763287806439696e+00
 1.215292849712111e+00	 1.135999357467439e-01	 5.390516652198048e+00
 1.214266120315354e+00	 1.240943755115717e-01	 4.085028247123322e+00
 1.213145184899439e+00	 1.346118858344340e-01	 2.854847350145261e+00
 1.211929317038539e+00	 1.451513381071913e-01	 1.708351876719255e+00
 1.210617805643441e+00	 1.557115842500100e-01	 6.542756732290551e-01
 1.209209955499877e+00	 1.662914569040019e-01	-2.982887388164794e-01
 1.207705087806507e+00	 1.768897696397766e-01	-1.139887463585413e+00
 1.206102540712028e+00	 1.875053171820530e-01	-1.860702597496135e+00
 1.204401669850942e+00	 1.981368756504678e-01	-2.450549688695681e+00
 1.202601848877440e+00	 2.087832028166949e-01	-2.898875323296920e+00
 1.225017594102147e+00	 1.038751474504235e-01	 6.389065894917119e+00
 1.224077583405152e+00	 1.144210918814387e-01	 5.054420506930483e+00
 1.223043432303848e+00	 1.249913906115893e-01	 3.794613116091233e+00
 1.221914394216071e+00	 1.355849266652067e-01	 2.615678698769262e+00
 1.220689737465020e+00	 1.462005632760042e-01	 1.524035227382554e+00
 1.219368745821367e+00	 1.568371440652496e-01	 5.264897382963873e-01
 1.217950719045483e+00	 1.674934932357977e-01	-3.697555367241416e-01
 1.216434973429306e+00	 1.781684157821495e-01	-1.157096992304927e+00
 1.214820842337333e+00	 1.888606977166884e-01	-1.827523447803059e+00
 1.213107676746267e+00	 1.995691063122281e-01	-2.372609952422800e+00
 1.211294845782747e+00	 2.102923903609917e-01	-2.783511634633685e+00
 1.233809073890164e+00	 1.046206194014434e-01	 5.867159874436107e+00
 1.232862317097992e+00	 1.152422480162587e-01	 4.588019159377721e+00
 1.231820744292143e+00	 1.258884057117535e-01	 3.396726690306968e+00
 1.230683603532504e+00	 1.365579674961415e-01	 2.296433216250741e+00
 1.229450157891303e+00	 1.472497884449886e-01	 1.290716992411389e+00
 1.228119685999097e+00	 1.579627038806643e-01	 3.835946418793792e-01
 1.226691482590897e+00	 1.686955295677660e-01	-4.204678062337694e-01
 1.225164859051915e+00	 1.794470619246865e-01	-1.116543722772417e+00
 1.223539143962455e+00	 1.902160782514733e-01	-1.699234556290407e+00
 1.221813683641414e+00	 2.010013369741175e-01	-2.162658417818106e+00
 1.219987842687886e+00	 2.118015779053913e-01	-2.500438615856598e+00
 1.242600553677780e+00	 1.053660913526588e-01	 5.212479140141022e+00
 1.241647050790434e+00	 1.160634041513292e-01	 4.002982808721057e+00
 1.240598056280037e+00	 1.267854208122115e-01	 2.900415625689595e+00
 1.239452812848539e+00	 1.375310083274024e-01	 1.904170247520475e+00
 1.238210578317190e+00	 1.482990136143212e-01	 1.014125799451687e+00
 1.236870626176436e+00	 1.590882636964390e-01	 2.306650132679362e-01
 1.235432246135923e+00	 1.698975659000967e-01	-4.453083265592002e-01
 1.233894744674147e+00	 1.807257080675793e-01	-1.012351654345655e+00
 1.232257445587210e+00	 1.915714587865987e-01	-1.468465646110207e+00
 1.230519690536209e+00	 2.024335676363241e-01	-1.811076036075120e+00
 1.228680839592690e+00	 2.133107654500772e-01	-2.037015277640333e+00
 1.251392033464797e+00	 1.061115633041678e-01	 4.439476365722889e+00
 1.250431784482275e+00	 1.168845602867754e-01	 3.310609614389865e+00
 1.249375368267333e+00	 1.276824359131106e-01	 2.314422772189553e+00
 1.248222022163977e+00	 1.385040491591539e-01	 1.445696540015882e+00
 1.246970998742484e+00	 1.493482387841786e-01	 6.997712880653665e-01
 1.245621566353186e+00	 1.602138235127588e-01	 7.257193435801224e-02
 1.244173009680370e+00	 1.710996022329797e-01	-4.393667174067779e-01
 1.242624630295811e+00	 1.820043542110194e-01	-8.388742137552581e-01
 1.240975747211415e+00	 1.929268393222557e-01	-1.128118302871397e+00
 1.239225697430475e+00	 2.038657982990361e-01	-1.308578452475835e+00
 1.237373836496991e+00	 2.148199529952334e-01	-1.381019094681704e+00
 1.260183513251014e+00	 1.068570352560680e-01	 3.562162362645739e+00
 1.259216518173316e+00	 1.177057164227225e-01	 2.521837639423842e+00
 1.258152680253831e+00	 1.285794510145979e-01	 1.647196801757259e+00
 1.256991231478618e+00	 1.394770899915600e-01	 9.275741767775099e-01
 1.255731419166985e+00	 1.503974639547374e-01	 3.529509883384926e-01
 1.254372506529152e+00	 1.613393833298087e-01	-8.601057618826102e-02
 1.252913773224046e+00	 1.723016385666049e-01	-3.979326697864976e-01
 1.251354515916720e+00	 1.832830003551986e-01	-5.906865022164676e-01
 1.249694048834886e+00	 1.942822198586347e-01	-6.713565204422922e-01
 1.247931704324034e+00	 2.052980289624415e-01	-6.462041146118436e-01
 1.246066833400622e+00	 2.163291405410434e-01	-5.206309216980634e-01
 1.159136864354258e+00	 2.012372650903192e-01	-1.433808513517527e+00
 1.157306452922046e+00	 2.115100809470052e-01	-1.518724405232292e+00
 1.155379546441417e+00	 2.217946840330171e-01	-1.477183461240527e+00
 1.153355595754176e+00	 2.320898290506393e-01	-1.295023939303076e+00
 1.151234071072297e+00	 2.423942542335403e-01	-9.565311038725294e-01
 1.149014462474888e+00	 2.527066816735781e-01	-4.444188620249111e-01
 1.146696280400205e+00	 2.630258176635662e-01	 2.601867411494955e-01
 1.144279056132160e+00	 2.733503530559895e-01	 1.177762036790757e+00
 1.141762342280760e+00	 2.836789636376347e-01	 2.330398120515087e+00
 1.139145713255937e+00	 2.940103105200784e-01	 3.741810974581696e+00
 1.136428765734195e+00	 3.043430405459637e-01	 5.437349179791557e+00
 1.167829861257889e+00	 2.027464526368590e-01	-1.951597932618623e+00
 1.165985722576369e+00	 2.130963099192848e-01	-2.104382861674571e+00
 1.164044365177641e+00	 2.234580428298795e-01	-2.095675921954202e+00
 1.162005235785069e+00	 2.338303967317619e-01	-1.913884474875821e+00
 1.159867800637453e+00	 2.442121003959282e-01	-1.545899503840210e+00
 1.157631545989724e+00	 2.546018663305070e-01	-9.770741168544405e-01
 1.155295978608647e+00	 2.649983911260979e-01	-1.912037691081984e-01
 1.152860626262969e+00	 2.754003558171758e-01	 8.294916592164423e-01
 1.150325038207474e+00	 2.858064262595311e-01	 2.104383789209721e+00
 1.147688785660359e+00	 2.962152535236883e-01	 3.654449527741793e+00
 1.144951462273380e+00	 3.066254743042259e-01	 5.502282559578598e+00
 1.176522858162191e+00	 2.042556401825827e-01	-2.371730710180064e+00
 1.174664992231320e+00	 2.146825388907432e-01	-2.578653868768845e+00
 1.172709183914441e+00	 2.251214016259154e-01	-2.593752730978158e+00
 1.170654875816480e+00	 2.355709644120536e-01	-2.407629186467023e+00
 1.168501530203065e+00	 2.460299465574824e-01	-2.009458619229191e+00
 1.166248629504951e+00	 2.564970509866029e-01	-1.386966747811564e+00
 1.163895676817407e+00	 2.669709645878008e-01	-5.264080025564339e-01
 1.161442196394021e+00	 2.774503585775422e-01	 5.874544236308384e-01
 1.158887734134355e+00	 2.879338888806232e-01	 1.971366708373843e+00
 1.156231858064868e+00	 2.984201965265156e-01	 3.643600568301754e+00
 1.153474158812572e+00	 3.089079080617355e-01	 5.623967308906921e+00
 1.185215855066995e+00	 2.057648277276741e-01	-2.679225632101551e+00
 1.183344261886740e+00	 2.162687678615585e-01	-2.923252081992675e+00
 1.181374002651673e+00	 2.267847604212964e-01	-2.951114884067978e+00
 1.179304515848281e+00	 2.373115320916787e-01	-2.755247813699258e+00
 1.177135259769021e+00	 2.478477927183592e-01	-2.326800556923385e+00
 1.174865713020469e+00	 2.583922356420124e-01	-1.655615338351549e+00
 1.172495375026404e+00	 2.689435380488110e-01	-7.302048599723827e-01
 1.170023766525256e+00	 2.795003613372139e-01	 4.622683145524145e-01
 1.167450430061359e+00	 2.900613515010231e-01	 1.936010788660228e+00
 1.164774930469440e+00	 3.006251395286592e-01	 3.706615626686030e+00
 1.161996855351768e+00	 3.111903418185773e-01	 5.791077758348532e+00
 1.193908851972134e+00	 2.072740152723169e-01	-2.859604806374299e+00
 1.192023531542475e+00	 2.178549968319091e-01	-3.120491145238541e+00
 1.190038821389194e+00	 2.284481192161947e-01	-3.148119788947738e+00
 1.187954155880343e+00	 2.390520997708019e-01	-2.936405363367444e+00
 1.185768989335205e+00	 2.496656388787149e-01	-2.478172675274315e+00
 1.183482796536182e+00	 2.602874202968821e-01	-1.765134557804180e+00
 1.181095073235562e+00	 2.709161115092651e-01	-7.878707576652303e-01
 1.178605336656612e+00	 2.815503640963158e-01	 4.641920062742197e-01
 1.176013125988446e+00	 2.921888141208432e-01	 2.002798675830994e+00
 1.173318002874057e+00	 3.028300825302183e-01	 3.840883033210863e+00
 1.170519551890967e+00	 3.134727755748353e-01	 5.992583275905220e+00
 1.202601848877440e+00	 2.087832028166949e-01	-2.898875323296920e+00
 1.200702801198366e+00	 2.194412258019734e-01	-3.153261624836530e+00
 1.198703640126859e+00	 2.301114780107821e-01	-3.165756832984083e+00
 1.196603795912534e+00	 2.407926674495875e-01	-2.931416683069311e+00
 1.194402718901504e+00	 2.514834850387053e-01	-2.444452547680759e+00
 1.192099880051993e+00	 2.621826049513587e-01	-1.698211909788081e+00
 1.189694771444798e+00	 2.728886849692991e-01	-6.851595656919024e-01
 1.187186906788029e+00	 2.836003668549724e-01	 6.031403206375441e-01
 1.184575821915574e+00	 2.943162767401958e-01	 2.176041181917923e+00
 1.181861075278695e+00	 3.050350255312918e-01	 4.043829892513645e+00
 1.179042248430169e+00	 3.157552093305945e-01	 6.217741347965583e+00
 1.211294845782747e+00	 2.102923903609917e-01	-2.783511634633685e+00
 1.209382070854257e+00	 2.210274547719297e-01	-3.005009815846687e+00
 1.207368458864525e+00	 2.317748368052306e-01	-2.985623917602924e+00
 1.205253435944724e+00	 2.425332351282001e-01	-2.721222036667973e+00
 1.203036448467802e+00	 2.533013311984865e-01	-2.207123903213202e+00
 1.200716963567804e+00	 2.640777896055888e-01	-1.438085372550022e+00
 1.198294469654035e+00	 2.748612584290493e-01	-4.082832921188632e-01
 1.195768476919446e+00	 2.856503696133086e-01	 8.886991457772921e-01
 1.193138517842703e+00	 2.964437393591937e-01	 2.459886445865994e+00
 1.190404147683332e+00	 3.072399685319787e-01	 4.312924117777601e+00
 1.187564944969370e+00	 3.180376430859392e-01	 6.456091112441090e+00
 1.219987842687886e+00	 2.118015779053913e-01	-2.500438615856597e+00
 1.218061340509991e+00	 2.226136837419563e-01	-2.659717377115848e+00
 1.216033277602045e+00	 2.334381955997120e-01	-2.589904911229654e+00
 1.213903075976785e+00	 2.442738028068044e-01	-2.287363631617586e+00
 1.211670178033985e+00	 2.551191773582147e-01	-1.748253495552515e+00
 1.209334047083517e+00	 2.659729742597194e-01	-9.685218867427932e-01
 1.206894167863191e+00	 2.768338318886519e-01	 5.610652387594221e-02
 1.204350047050801e+00	 2.877003723714494e-01	 1.330139842722326e+00
 1.201701213769790e+00	 2.985712019779490e-01	 2.858328837148646e+00
 1.198947220087949e+00	 3.094449115323776e-01	 4.645676521764234e+00
 1.196087641508569e+00	 3.203200768409540e-01	 6.697447321523343e+00
 1.228680839592690e+00	 2.133107654500772e-01	-2.037015277640329e+00
 1.226740610165411e+00	 2.241999127122316e-01	-2.101881754052401e+00
 1.224698096339278e+00	 2.351015543943984e-01	-1.961347975263716e+00
 1.222552716008586e+00	 2.460143704855646e-01	-1.611963051012290e+00
 1.220303907599941e+00	 2.569370235180458e-01	-1.050468854267904e+00
 1.217951130599036e+00	 2.678681589138968e-01	-2.737966486753904e-01
 1.215493866072189e+00	 2.788064053482432e-01	 7.209367451666803e-01
 1.212931617182036e+00	 2.897503751295194e-01	 1.936433165211852e+00
 1.210263909696794e+00	 3.006986645965739e-01	 3.375217615081406e+00
 1.207490292492523e+00	 3.116498545325880e-01	 5.039642961837115e+00
 1.204610338047766e+00	 3.226025105957234e-01	 6.931894712780579e+00
 1.237373836496991e+00	 2.148199529952334e-01	-1.381019094681704e+00
 1.235419879820361e+00	 2.257861416829341e-01	-1.316497350383403e+00
 1.233362915076078e+00	 2.367649131894615e-01	-1.083244720154922e+00
 1.231202356039998e+00	 2.477549381646454e-01	-6.776995458675601e-01
 1.228937637165553e+00	 2.587548696781362e-01	-9.693687504683290e-02
 1.226568214114262e+00	 2.697633435682678e-01	 6.613268305744537e-01
 1.224093564280949e+00	 2.807789788079594e-01	 1.598729929236309e+00
 1.221513187313088e+00	 2.918003778876436e-01	 2.716262716662967e+00
 1.218826605623674e+00	 3.028261272151813e-01	 4.014265355844099e+00
 1.216033364897031e+00	 3.138547975327083e-01	 5.492426536316856e+00
 1.213133034586957e+00	 3.248849443503319e-01	 7.149782768508094e+00
 1.246066833400622e+00	 2.163291405410434e-01	-5.206309216980638e-01
 1.244099149474685e+00	 2.273723706542418e-01	-2.890374123172852e-01
 1.242027733812302e+00	 2.384282719850735e-01	 6.058984895521036e-02
 1.239851996070890e+00	 2.494955058442114e-01	 5.322108543730708e-01
 1.237571366730709e+00	 2.605727158386419e-01	 1.128656792092686e+00
 1.235185297629098e+00	 2.716585282229791e-01	 1.851615937582269e+00
 1.232693262489390e+00	 2.827515522679369e-01	 2.701621011408385e+00
 1.230094757443897e+00	 2.938503806459467e-01	 3.678037966888843e+00
 1.227389301550388e+00	 3.049535898338829e-01	 4.779056158550500e+00
 1.224576437301453e+00	 3.160597405328378e-01	 6.001679829656934e+00
 1.221655731126142e+00	 3.271673781048639e-01	 7.341720844366893e+00
 1.136428765734195e+00	 3.043430405459637e-01	 5.437349179791556e+00
 1.133611119364855e+00	 3.146757868552493e-01	 7.104123881425146e+00
 1.130692417964432e+00	 3.250071697687851e-01	 8.402774722094517e+00
 1.127672329218821e+00	 3.353357968314881e-01	 9.318587742964258e+00
 1.124550544867360e+00	 3.456602631396041e-01	 9.834728585700256e+00
 1.121326781123693e+00	 3.559791518240068e-01	 9.932232027459913e+00
 1.118000779086037e+00	 3.662910345483221e-01	 9.589993330791135e+00
 1.114572305136289e+00	 3.765944720216516e-01	 8.802524380510242e+00
 1.111041151327425e+00	 3.868880145256406e-01	 7.614501491392425e+00
 1.107407135758632e+00	 3.971702024556138e-01	 5.999697707568154e+00
 1.103670102937638e+00	 4.074395668754809e-01	 3.921291447797932e+00
 1.144951462273380e+00	 3.066254743042259e-01	 5.502282559578598e+00
 1.142112684843400e+00	 3.170357114902753e-01	 7.296055972623049e+00
 1.139172094515728e+00	 3.274445750557203e-01	 8.662876999752616e+00
 1.136129356484066e+00	 3.378506621026978e-01	 9.593841371591370e+00
 1.132984160175947e+00	 3.482525571913147e-01	 1.007854866254754e+01
 1.129736219676757e+00	 3.586488328265700e-01	 1.010509541480195e+01
 1.126385274143080e+00	 3.690380499602166e-01	 9.660069307516782e+00
 1.122931088204792e+00	 3.794187585073285e-01	 8.767826111121916e+00
 1.119373452355374e+00	 3.897894978773229e-01	 7.472194754691549e+00
 1.115712183329848e+00	 4.001487975191529e-01	 5.749564519687836e+00
 1.111947124469834e+00	 4.104951774803757e-01	 3.573448441957071e+00
 1.153474158812572e+00	 3.089079080617355e-01	 5.623967308906918e+00
 1.150614250321872e+00	 3.193956361245875e-01	 7.528220787265919e+00
 1.147651771066873e+00	 3.298819803419887e-01	 8.956417825233775e+00
 1.144586383749081e+00	 3.403655273732951e-01	 9.905344562140893e+00
 1.141417775484229e+00	 3.508448512424738e-01	 1.037092902655640e+01
 1.138145658229444e+00	 3.613185138286488e-01	 1.034823813111781e+01
 1.134769769199677e+00	 3.717850653716985e-01	 9.832455825334636e+00
 1.131289871272786e+00	 3.822430449926694e-01	 8.884527790054054e+00
 1.127705753382754e+00	 3.926909812287492e-01	 7.533587917736551e+00
 1.124017230900445e+00	 4.031273925825186e-01	 5.764495119132986e+00
 1.120224146001366e+00	 4.135507880851814e-01	 3.560775536843885e+00
 1.161996855351768e+00	 3.111903418185773e-01	 5.791077758348532e+00
 1.159115815800289e+00	 3.217555607582549e-01	 7.780049906288875e+00
 1.156131447617902e+00	 3.323193856276428e-01	 9.253823448569218e+00
 1.153043411013923e+00	 3.428803926433160e-01	 1.021475520109164e+01
 1.149851390792280e+00	 3.534371452931002e-01	 1.066499555285612e+01
 1.146555096781848e+00	 3.639881948302445e-01	 1.060648961400307e+01
 1.143154264255939e+00	 3.745320807827520e-01	 1.005005804062255e+01
 1.139648654340397e+00	 3.850673314776409e-01	 9.082531695774438e+00
 1.136038054409709e+00	 3.955924645798689e-01	 7.721041589040535e+00
 1.132322278470577e+00	 4.061059876456440e-01	 5.959800301995534e+00
 1.128501167532400e+00	 4.166063986898156e-01	 3.792332166427709e+00
 1.170519551890967e+00	 3.134727755748353e-01	 5.992583275905223e+00
 1.167617381278668e+00	 3.241154853913467e-01	 8.031545041911919e+00
 1.164611124168855e+00	 3.347567909127361e-01	 9.526358775476359e+00
 1.161500438278651e+00	 3.453952579127965e-01	 1.048483175748792e+01
 1.158285006100180e+00	 3.560294393432130e-01	 1.091523000383572e+01
 1.154964535334063e+00	 3.666578758313583e-01	 1.082628384968156e+01
 1.151538759311978e+00	 3.772790961933608e-01	 1.025331084035094e+01
 1.148007437407754e+00	 3.878916179622096e-01	 9.293814334894217e+00
 1.144370355436380e+00	 3.984939479306318e-01	 7.959211228612562e+00
 1.140627326040400e+00	 4.090845827084624e-01	 6.253037340240533e+00
 1.136778189063103e+00	 4.196620092941962e-01	 4.178799425039216e+00
 1.179042248430169e+00	 3.157552093305945e-01	 6.217741347965584e+00
 1.176118946757030e+00	 3.264754100239322e-01	 8.263261629965143e+00
 1.173090800719770e+00	 3.371941961973210e-01	 9.746101721379475e+00
 1.169957465543320e+00	 3.479101231817727e-01	 1.067939864877669e+01
 1.166718621408004e+00	 3.586217333928308e-01	 1.107742665654696e+01
 1.163373973886183e+00	 3.693275568319918e-01	 1.095560751118752e+01
 1.159923254367905e+00	 3.800261116035090e-01	 1.038351607704732e+01
 1.156366220474983e+00	 3.907159044463420e-01	 9.452352224677457e+00
 1.152702656462909e+00	 4.013954312809876e-01	 8.174964968286631e+00
 1.148932373610068e+00	 4.120631777709072e-01	 6.564182245811989e+00
 1.145055210593639e+00	 4.227176198982410e-01	 4.633476650219490e+00
 1.187564944969370e+00	 3.180376430859392e-01	 6.456091112441090e+00
 1.184620512235391e+00	 3.288353346560799e-01	 8.456293292596616e+00
 1.181570477270685e+00	 3.396316014814507e-01	 9.885918843415359e+00
 1.178414492807989e+00	 3.504249884502805e-01	 1.076331328162304e+01
 1.175152236715827e+00	 3.612140274419724e-01	 1.110865099147034e+01
 1.171783412438303e+00	 3.719972378321463e-01	 1.094548028344974e+01
 1.168307749423834e+00	 3.827731270131802e-01	 1.038369320466499e+01
 1.164725003542212e+00	 3.935401909300046e-01	 9.494050832378530e+00
 1.161034957489440e+00	 4.042969146308856e-01	 8.297304855330397e+00
 1.157237421179736e+00	 4.150417728329116e-01	 6.815543551210308e+00
 1.153332232124176e+00	 4.257732305018673e-01	 5.072187972123607e+00
 1.196087641508569e+00	 3.203200768409540e-01	 6.697447321523341e+00
 1.193122077713771e+00	 3.311952592878596e-01	 8.592257127945974e+00
 1.190050153821638e+00	 3.420690067651778e-01	 9.919442186676061e+00
 1.186871520072717e+00	 3.529398537183563e-01	 1.070243468415444e+01
 1.183585852023727e+00	 3.638063214906566e-01	 1.096720033982160e+01
 1.180192850990518e+00	 3.746669188318231e-01	 1.075354169315407e+01
 1.176692244479873e+00	 3.855201424223584e-01	 1.019851880946847e+01
 1.173083786609569e+00	 3.963644774131641e-01	 9.356676513947406e+00
 1.169367258516111e+00	 4.071983979802760e-01	 8.257291422336120e+00
 1.165542468749559e+00	 4.180203678944087e-01	 6.931679733280054e+00
 1.161609253654879e+00	 4.288288411049933e-01	 5.413192813115777e+00
 1.204610338047766e+00	 3.226025105957234e-01	 6.931894712780582e+00
 1.201623643192187e+00	 3.335551839193402e-01	 8.653279785822676e+00
 1.198529830372667e+00	 3.445064120485555e-01	 9.821047284547337e+00
 1.195328547337559e+00	 3.554547189860359e-01	 1.046359365081143e+01
 1.192019467331779e+00	 3.663986155389025e-01	 1.061256639239573e+01
 1.188602289542922e+00	 3.773365998310234e-01	 1.033364905508150e+01
 1.185076739536135e+00	 3.882671578310274e-01	 9.774268671495044e+00
 1.181442569677181e+00	 3.991887638957868e-01	 8.979791303555775e+00
 1.177699559543066e+00	 4.100998813291077e-01	 7.987971418655814e+00
 1.173847516319692e+00	 4.209989629553322e-01	 6.839320099774325e+00
 1.169886275185913e+00	 4.318844517075364e-01	 5.577100141919399e+00
 1.213133034586957e+00	 3.248849443503319e-01	 7.149782768508095e+00
 1.210125208670659e+00	 3.359151085505906e-01	 8.621984290730417e+00
 1.207009506923811e+00	 3.469438173316365e-01	 9.565832256382395e+00
 1.203785574602574e+00	 3.579695842533556e-01	 1.001456432541455e+01
 1.200453082640061e+00	 3.689909095867285e-01	 1.000539947839735e+01
 1.197011728095609e+00	 3.800062808297490e-01	 9.640339238801158e+00
 1.193461234592732e+00	 3.910141732391713e-01	 9.058762232141301e+00
 1.189801352745175e+00	 4.020130503778395e-01	 8.304690413745144e+00
 1.186031860570447e+00	 4.130013646773308e-01	 7.424308547901667e+00
 1.182152563890289e+00	 4.239775580156149e-01	 6.467288968403216e+00
 1.178163296717446e+00	 4.349400623094145e-01	 5.486786297680485e+00
 1.221655731126142e+00	 3.271673781048639e-01	 7.341720844366893e+00
 1.218626774149205e+00	 3.382750331816800e-01	 8.481477575736005e+00
 1.215489183475108e+00	 3.493812226144739e-01	 9.129597948917876e+00
 1.212242601867819e+00	 3.604844495203512e-01	 9.324037152205410e+00
 1.208886697948648e+00	 3.715832036341537e-01	 9.108432371946529e+00
 1.205421166648673e+00	 3.826759618280010e-01	 8.629451130834184e+00
 1.201845729649776e+00	 3.937611886467735e-01	 8.001309350372285e+00
 1.198160135813678e+00	 4.048373368592888e-01	 7.274342313823454e+00
 1.194364161598396e+00	 4.159028480248947e-01	 6.503117064710231e+00
 1.190457611461505e+00	 4.269561530751902e-01	 5.746432977577904e+00
 1.186440318249641e+00	 4.379956729105452e-01	 5.067316209607696e+00
 1.103670102937638e+00	 4.074395668754809e-01	 3.921291447797931e+00
 1.099829262360247e+00	 4.176963721710397e-01	 1.681894331327939e+00
 1.095885138284579e+00	 4.279373842656255e-01	-3.662568423316504e-01
 1.091837655705804e+00	 4.381611084204264e-01	-2.186009417828494e+00
 1.087686767358405e+00	 4.483660428917192e-01	-3.736947626465524e+00
 1.083432454007551e+00	 4.585506795500225e-01	-4.975404889842270e+00
 1.079074724724561e+00	 4.687135045107917e-01	-5.854480673045887e+00
 1.074613617145979e+00	 4.788529987762081e-01	-6.324061913784813e+00
 1.070049197715797e+00	 4.889676388875796e-01	-6.330849045636063e+00
 1.065381561910370e+00	 4.990558975878605e-01	-5.818386625290506e+00
 1.060610834445606e+00	 5.091162444937753e-01	-4.727098565352154e+00
 1.111947124469834e+00	 4.104951774803757e-01	 3.573448441957072e+00
 1.108077479342722e+00	 4.208289041295597e-01	 1.301939233733608e+00
 1.104103776138325e+00	 4.311467191359472e-01	-6.715915667261403e-01
 1.100025939289305e+00	 4.414471165508733e-01	-2.321896163485841e+00
 1.095843921175665e+00	 4.517285833682289e-01	-3.622070641129512e+00
 1.091557702418317e+00	 4.619896001482553e-01	-4.543585007256121e+00
 1.087167292156603e+00	 4.722286416529718e-01	-5.056302891710364e+00
 1.082672728309315e+00	 4.824441774927753e-01	-5.128503629938892e+00
 1.078074077818739e+00	 4.926346727837354e-01	-4.726906710417539e+00
 1.073371436877250e+00	 5.027985888150822e-01	-3.816698561440227e+00
 1.068564931136062e+00	 5.129343837263703e-01	-2.361561648022731e+00
 1.120224146001366e+00	 4.135507880851814e-01	 3.560775536843885e+00
 1.116325696324497e+00	 4.239614360880763e-01	 1.315176890117865e+00
 1.112322413991342e+00	 4.343560540063507e-01	-5.575230644521479e-01
 1.108214222872052e+00	 4.447331246814866e-01	-2.042963549224617e+00
 1.104001074992155e+00	 4.550911238449870e-01	-3.126942428754810e+00
 1.099682950828301e+00	 4.654285207468165e-01	-3.794721946610720e+00
 1.095259859587853e+00	 4.757437787955558e-01	-4.031382726104422e+00
 1.090731839471855e+00	 4.860353562098174e-01	-3.821872819970132e+00
 1.086098957920882e+00	 4.963017066804309e-01	-3.151030237732699e+00
 1.081361311843331e+00	 5.065412800429014e-01	-2.003605778583617e+00
 1.076519027825718e+00	 5.167525229596125e-01	-3.642861134811158e-01
 1.128501167532400e+00	 4.166063986898156e-01	 3.792332166427709e+00
 1.124573913305746e+00	 4.270939680464921e-01	 1.626561141850919e+00
 1.120541051843811e+00	 4.375653888767255e-01	-1.205240434991268e-01
 1.116402506454235e+00	 4.480191328121430e-01	-1.444292045516927e+00
 1.112158228808068e+00	 4.584536643218595e-01	-2.341149504308949e+00
 1.107808199237697e+00	 4.688674413455605e-01	-2.808789001159849e+00
 1.103352427018511e+00	 4.792589159383890e-01	-2.846421044889073e+00
 1.098790950633799e+00	 4.896265349271706e-01	-2.453987209278603e+00
 1.094123838022425e+00	 4.999687405774948e-01	-1.632573567958768e+00
 1.089351186808811e+00	 5.102839712711402e-01	-3.844506418972943e-01
 1.084473124514775e+00	 5.205706621933194e-01	 1.286909408959815e+00
 1.136778189063103e+00	 4.196620092941962e-01	 4.178799425039216e+00
 1.132822130286645e+00	 4.302265000047105e-01	 2.141988881654808e+00
 1.128759689695915e+00	 4.407747237469610e-01	 5.447529730173910e-01
 1.124590790036041e+00	 4.513051409427194e-01	-6.171803179540263e-01
 1.120315382623595e+00	 4.618162047987112e-01	-1.350223274768033e+00
 1.115933447646702e+00	 4.723063619443426e-01	-1.662955133000360e+00
 1.111444994448772e+00	 4.827740530813165e-01	-1.566146565045379e+00
 1.106850061795343e+00	 4.932177136446720e-01	-1.073187276119921e+00
 1.102148718123570e+00	 5.036357744747566e-01	-2.000101978827185e-01
 1.097341061773892e+00	 5.140266624996217e-01	 1.035604798449836e+00
 1.092427221203431e+00	 5.243888014273070e-01	 2.613584197330390e+00
 1.145055210593639e+00	 4.227176198982410e-01	 4.633476650219491e+00
 1.141070347267370e+00	 4.333590319626346e-01	 2.769946548234580e+00
 1.136978327547836e+00	 4.439840586169468e-01	 1.345487429203294e+00
 1.132779073617660e+00	 4.545911490730927e-01	 3.478958597225288e-01
 1.128472536438929e+00	 4.651787452754078e-01	-2.381077228247173e-01
 1.124058696055512e+00	 4.757452825430175e-01	-4.309066175310128e-01
 1.119537561878837e+00	 4.862891902241840e-01	-2.520119987310878e-01
 1.114909172956689e+00	 4.968088923621582e-01	 2.739165255714160e-01
 1.110173598224515e+00	 5.073028083720453e-01	 1.119034090817503e+00
 1.105330936738772e+00	 5.177693537281682e-01	 2.251571308897899e+00
 1.100381317891887e+00	 5.282069406613931e-01	 3.636696866561300e+00
 1.153332232124176e+00	 4.257732305018673e-01	 5.072187972123607e+00
 1.149318564248094e+00	 4.364915639201673e-01	 3.421583998507903e+00
 1.145196965399759e+00	 4.471933934865727e-01	 2.191560031496881e+00
 1.140967357199277e+00	 4.578771572031403e-01	 1.362938136116368e+00
 1.136629690254264e+00	 4.685412857518146e-01	 9.126923252254702e-01
 1.132183944464321e+00	 4.791842031414399e-01	 8.139209851187406e-01
 1.127630129308901e+00	 4.898043273668362e-01	 1.035823828667523e+00
 1.122968284118035e+00	 5.004000710794656e-01	 1.543683504568407e+00
 1.118198478325460e+00	 5.109698422691897e-01	 2.298851987058497e+00
 1.113320811703653e+00	 5.215120449566023e-01	 3.258741865824402e+00
 1.108335414580344e+00	 5.320250798953942e-01	 4.376625815644807e+00
 1.161609253654879e+00	 4.288288411049933e-01	 5.413192813115777e+00
 1.157566781228993e+00	 4.396240958772121e-01	 4.010619990740249e+00
 1.153415603251863e+00	 4.504027283557278e-01	 2.995456802580860e+00
 1.149155640781084e+00	 4.611631653327386e-01	 2.342493130602483e+00
 1.144786844069792e+00	 4.719038262277970e-01	 2.022060413068565e+00
 1.140309192873327e+00	 4.826231237394645e-01	 2.000005042709936e+00
 1.135722696739162e+00	 4.933194645091186e-01	 2.237667145184485e+00
 1.131027395279580e+00	 5.039912497964312e-01	 2.691864878517041e+00
 1.126223358426605e+00	 5.146368761660195e-01	 3.314884388654625e+00
 1.121310686668735e+00	 5.252547361847464e-01	 4.054475550240113e+00
 1.116289511269000e+00	 5.358432191291277e-01	 4.853853615190606e+00
 1.169886275185913e+00	 4.318844517075364e-01	 5.577100141919399e+00
 1.165814998210243e+00	 4.427566278336720e-01	 4.453251632997173e+00
 1.161634241104332e+00	 4.536120632243018e-01	 3.672177159066533e+00
 1.157343924363267e+00	 4.644491734617650e-01	 3.203562560031635e+00
 1.152943997885704e+00	 4.752663667032204e-01	 3.012184032238943e+00
 1.148434441282723e+00	 4.860620443369463e-01	 3.057883424528449e+00
 1.143815264169820e+00	 4.968346016508763e-01	 3.295549563241558e+00
 1.139086506441523e+00	 5.075824285128914e-01	 3.675105754444369e+00
 1.134248238528149e+00	 5.183039100623631e-01	 4.141503605048096e+00
 1.129300561634215e+00	 5.289974274124229e-01	 4.634723297417509e+00
 1.124243607958056e+00	 5.396613583624100e-01	 5.089780444442415e+00
 1.178163296717446e+00	 4.349400623094145e-01	 5.486786297680485e+00
 1.174063215192018e+00	 4.458891597894502e-01	 4.668067601907947e+00
 1.169852878957349e+00	 4.568213980921843e-01	 4.139145815068842e+00
 1.165532207946015e+00	 4.677351815900962e-01	 3.865517102729867e+00
 1.161101151702194e+00	 4.786289071779501e-01	 3.807473705255406e+00
 1.156559689692707e+00	 4.895009649337401e-01	 3.920082043054019e+00
 1.151907831601071e+00	 5.003497387919548e-01	 4.153167297502803e+00
 1.147145617604063e+00	 5.111736072286830e-01	 4.451304618875309e+00
 1.142273118630292e+00	 5.219709439580501e-01	 4.753817105319905e+00
 1.137290436600296e+00	 5.327401186394548e-01	 4.994780689121174e+00
 1.132197704647713e+00	 5.434794975950584e-01	 5.103036058115637e+00
 1.186440318249641e+00	 4.379956729105452e-01	 5.067316209607696e+00
 1.182311432174493e+00	 4.490216917444495e-01	 4.575964947617538e+00
 1.178071516811096e+00	 4.600307329592652e-01	 4.316128324836184e+00
 1.173720491529515e+00	 4.710211897176092e-01	 4.250013817282730e+00
 1.169258305519455e+00	 4.819914476518518e-01	 4.334485402847029e+00
 1.164684938103474e+00	 4.929398855297004e-01	 4.521045373410905e+00
 1.160000399033113e+00	 5.038648759321990e-01	 4.755822869502984e+00
 1.155204728767399e+00	 5.147647859436427e-01	 4.979569287426015e+00
 1.150297998733234e+00	 5.256379778529094e-01	 5.127660701132480e+00
 1.145280311567176e+00	 5.364828098656644e-01	 5.130107432920163e+00
 1.140151801338169e+00	 5.472976368268900e-01	 4.911570898261655e+00
 1.060610834445606e+00	 5.091162444937753e-01	-4.727098565352156e+00
 1.055738006511554e+00	 5.191454442116863e-01	-3.241569012990266e+00
 1.050762458960495e+00	 5.291436749777426e-01	-1.615784182298452e+00
 1.045684404432864e+00	 5.391094013790461e-01	 1.048543983992252e-01
 1.040504085435939e+00	 5.490410876312676e-01	 1.871666335649679e+00
 1.035221774457164e+00	 5.589371982900342e-01	 3.632726503817107e+00
 1.029837774057543e+00	 5.687961989684474e-01	 5.332904545026258e+00
 1.024352416944811e+00	 5.786165570600982e-01	 6.913909755361544e+00
 1.018766066026104e+00	 5.883967424669228e-01	 8.314341364634549e+00
 1.013079114439890e+00	 5.981352283312306e-01	 9.469744204758715e+00
 1.007291985566919e+00	 6.078304917712264e-01	 1.031266974920060e+01
 1.068564931136062e+00	 5.129343837263703e-01	-2.361561648022729e+00
 1.063655559218690e+00	 5.230387978599927e-01	-6.105079517689902e-01
 1.058642697334096e+00	 5.331120107887881e-01	 1.141078759539367e+00
 1.053526559717424e+00	 5.431524755849616e-01	 2.858903408323670e+00
 1.048307390694655e+00	 5.531586449465021e-01	 4.506992395057455e+00
 1.042985464796769e+00	 5.631289719139037e-01	 6.047726340326036e+00
 1.037561086853845e+00	 5.730619105930658e-01	 7.441875974146530e+00
 1.032034592068782e+00	 5.829559168837306e-01	 8.648641170612198e+00
 1.026406346070359e+00	 5.928094492127962e-01	 9.625693118009375e+00
 1.020676744945409e+00	 6.026209692718354e-01	 1.032921960640380e+01
 1.014846215249852e+00	 6.123889427581338e-01	 1.071397340633296e+01
 1.076519027825718e+00	 5.167525229596125e-01	-3.642861134811156e-01
 1.071573111925027e+00	 5.269321515089876e-01	 1.484204048392240e+00
 1.066522935706896e+00	 5.370803466005551e-01	 3.233326791513898e+00
 1.061368715001185e+00	 5.471955497916245e-01	 4.858495586456312e+00
 1.056110695952571e+00	 5.572762022625033e-01	 6.334814381464255e+00
 1.050749155135574e+00	 5.673207455385539e-01	 7.637108756110569e+00
 1.045284399649348e+00	 5.773276222184746e-01	 8.739958316759498e+00
 1.039716767191954e+00	 5.872952767081590e-01	 9.617730314533574e+00
 1.034046626113814e+00	 5.972221559594681e-01	 1.024461446202488e+01
 1.028274375450128e+00	 6.071067102132397e-01	 1.059465892037922e+01
 1.022400444931984e+00	 6.169473937458408e-01	 1.064180742362888e+01
 1.084473124514775e+00	 5.205706621933194e-01	 1.286909408959816e+00
 1.079490664630763e+00	 5.308255051584834e-01	 3.091621478664883e+00
 1.074403174079098e+00	 5.410486824128525e-01	 4.732129317150775e+00
 1.069210870284345e+00	 5.512386239988405e-01	 6.192189842596468e+00
 1.063914001209887e+00	 5.613937595790750e-01	 7.456391665322459e+00
 1.058512845473778e+00	 5.715125191637869e-01	 8.510184458414409e+00
 1.053007712444251e+00	 5.815933338444743e-01	 9.339907975305087e+00
 1.047398942314525e+00	 5.916346365331834e-01	 9.932820681427588e+00
 1.041686906156670e+00	 6.016348627067389e-01	 1.027712796549743e+01
 1.035872005954248e+00	 6.115924511552439e-01	 1.036200989432795e+01
 1.029954674613517e+00	 6.215058447341478e-01	 1.017764847334443e+01
 1.092427221203431e+00	 5.243888014273070e-01	 2.613584197330389e+00
 1.087408217336101e+00	 5.347188588082925e-01	 4.259393297762094e+00
 1.082283412450898e+00	 5.450170182254889e-01	 5.706605374861971e+00
 1.077053025567106e+00	 5.552816982064155e-01	 6.945987548207056e+00
 1.071717306466803e+00	 5.655113168960207e-01	 7.970055513336083e+00
 1.066276535811584e+00	 5.757042927894047e-01	 8.773100937488191e+00
 1.060731025238754e+00	 5.858590454708664e-01	 9.351217214480087e+00
 1.055081117436697e+00	 5.959739963586046e-01	 9.702323535999941e+00
 1.049327186199125e+00	 6.060475694544086e-01	 9.826187237381919e+00
 1.043469636457968e+00	 6.160781920976479e-01	 9.724444376659287e+00
 1.037508904294649e+00	 6.260642957228550e-01	 9.400618506379965e+00
 1.100381317891887e+00	 5.282069406613931e-01	 3.636696866561301e+00
 1.095325770041238e+00	 5.386122124582273e-01	 5.033812605413948e+00
 1.090163650822499e+00	 5.489853540382726e-01	 6.223896547466083e+00
 1.084895180849667e+00	 5.593247724141557e-01	 7.203423708588743e+00
 1.079520611723520e+00	 5.696288742131441e-01	 7.971313588129497e+00
 1.074040226149189e+00	 5.798960664152100e-01	 8.528955400577031e+00
 1.068454338033057e+00	 5.901247570974516e-01	 8.880230682105754e+00
 1.062763292558668e+00	 6.003133561842228e-01	 9.031533223153655e+00
 1.056967466241380e+00	 6.104602762022775e-01	 8.991786280761612e+00
 1.051067266961487e+00	 6.205639330402516e-01	 8.772457026956143e+00
 1.045063133975582e+00	 6.306227467117621e-01	 8.387568191987462e+00
 1.108335414580344e+00	 5.320250798953942e-01	 4.376625815644807e+00
 1.103243322746374e+00	 5.425055661080999e-01	 5.459864115723528e+00
 1.098043889194100e+00	 5.529536898510131e-01	 6.349236669539768e+00
 1.092737336132228e+00	 5.633678466218662e-01	 7.045654145027701e+00
 1.087323916980236e+00	 5.737464315302493e-01	 7.552949882580288e+00
 1.081803916486794e+00	 5.840878400410043e-01	 7.877902776006964e+00
 1.076177650827359e+00	 5.943904687240315e-01	 8.030256844306333e+00
 1.070445467680639e+00	 6.046527160098385e-01	 8.022737442954575e+00
 1.064607746283636e+00	 6.148729829501458e-01	 7.871064067229983e+00
 1.058664897465007e+00	 6.250496739828550e-01	 7.593959703904895e+00
 1.052617363656515e+00	 6.351811977006688e-01	 7.213156691432804e+00
 1.116289511269000e+00	 5.358432191291277e-01	 4.853853615190606e+00
 1.111160875451712e+00	 5.463989197577231e-01	 5.581269621841441e+00
 1.105924127565902e+00	 5.569220256635186e-01	 6.146018492316754e+00
 1.100579491414989e+00	 5.674109208293535e-01	 6.551538885929978e+00
 1.095127222237152e+00	 5.778639888471396e-01	 6.805120316525130e+00
 1.089567606824600e+00	 5.882796136665901e-01	 6.917259033263115e+00
 1.083900963621862e+00	 5.986561803504070e-01	 6.901674588661544e+00
 1.078127642802811e+00	 6.089920758352523e-01	 6.775322741894795e+00
 1.072248026326091e+00	 6.192856896978132e-01	 6.558404570062223e+00
 1.066262527968726e+00	 6.295354149252588e-01	 6.274371746344825e+00
 1.060171593337648e+00	 6.397396486893756e-01	 5.949927948466073e+00
 1.124243607958056e+00	 5.396613583624100e-01	 5.089780444442415e+00
 1.119078428157448e+00	 5.502922734069091e-01	 5.442175966627364e+00
 1.113804365938102e+00	 5.608903614755977e-01	 5.676060575699190e+00
 1.108421646698150e+00	 5.714539950364231e-01	 5.797721954692411e+00
 1.102930527494469e+00	 5.819815461636191e-01	 5.815444210660119e+00
 1.097331297162805e+00	 5.924713872917693e-01	 5.741600051035337e+00
 1.091624276416765e+00	 6.029218919763792e-01	 5.592035234639287e+00
 1.085809817925383e+00	 6.133314356602649e-01	 5.385875457367225e+00
 1.079888306368947e+00	 6.236983964450802e-01	 5.145532481078247e+00
 1.073860158472846e+00	 6.340211558672622e-01	 4.896706350829036e+00
 1.067725823019181e+00	 6.442980996776826e-01	 4.668383669104955e+00
 1.132197704647713e+00	 5.434794975950584e-01	 5.103036058115637e+00
 1.126995980863785e+00	 5.541856270554704e-01	 5.085308199425992e+00
 1.121684604310903e+00	 5.648586972870597e-01	 5.001691732109525e+00
 1.116263801981911e+00	 5.754970692428815e-01	 4.859484578957239e+00
 1.110733832752385e+00	 5.860991034794907e-01	 4.669091840381624e+00
 1.105094987501610e+00	 5.966631609163446e-01	 4.442856252168351e+00
 1.099347589212268e+00	 6.071876036017492e-01	 4.196160177164884e+00
 1.093491993048554e+00	 6.176707954846768e-01	 3.948278338948395e+00
 1.087528586412402e+00	 6.281111031917473e-01	 3.721604823461406e+00
 1.081457788977566e+00	 6.385068968086658e-01	 3.541653237658626e+00
 1.075280052701313e+00	 6.488565506653895e-01	 3.437053153539842e+00
 1.140151801338169e+00	 5.472976368268900e-01	 4.911570898261655e+00
 1.134913533570922e+00	 5.580789807032194e-01	 4.550574542794178e+00
 1.129564842684505e+00	 5.688270330977130e-01	 4.181659542229969e+00
 1.124105957266472e+00	 5.795401434485337e-01	 3.811758536817536e+00
 1.118537138011102e+00	 5.902166607945590e-01	 3.450558252034894e+00
 1.112858677841215e+00	 6.008549345401176e-01	 3.110503421836512e+00
 1.107070902008571e+00	 6.114533152263181e-01	 2.806234376577275e+00
 1.101174168172526e+00	 6.220101553082881e-01	 2.553803057607853e+00
 1.095168866456658e+00	 6.325238099376140e-01	 2.373298660948683e+00
 1.089055419483085e+00	 6.429926377492694e-01	 2.287657786638284e+00
 1.082834282384246e+00	 6.534150016522964e-01	 2.322560133883278e+00
 1.007291985566919e+00	 6.078304917712264e-01	 1.031266974920060e+01
 1.001405133263364e+00	 6.174810148117503e-01	 1.080716811212806e+01
 9.954190425550976e-01	 6.270852857138690e-01	 1.098215192098017e+01
 9.893342288464844e-01	 6.366417991599383e-01	 1.086654898953315e+01
 9.831512375998286e-01	 6.461490568059063e-01	 1.049098525590604e+01
 9.768706442374566e-01	 6.556055680229007e-01	 9.887758559731125e+00
 9.704930540220390e-01	 6.650098506379701e-01	 9.090810368703865e+00
 9.640191019151049e-01	 6.743604316732268e-01	 8.135695477699965e+00
 9.574494524137537e-01	 6.836558480826636e-01	 7.059549705264073e+00
 9.507847993655814e-01	 6.928946474858871e-01	 5.901055613814338e+00
 9.440258657618684e-01	 7.020753888980267e-01	 4.700406281379282e+00
 1.014846215249852e+00	 6.123889427581338e-01	 1.071397340633296e+01
 1.008915214243577e+00	 6.221118403124096e-01	 1.079546611488360e+01
 1.002884230589933e+00	 6.317881388583758e-01	 1.063566330420112e+01
 9.967537835585789e-01	 6.414163217891901e-01	 1.025888657964497e+01
 9.905244227025363e-01	 6.509948795239019e-01	 9.690685999298195e+00
 9.841967277595369e-01	 6.605223102546007e-01	 8.957818544318146e+00
 9.777713085314413e-01	 6.699971206927113e-01	 8.088225249126548e+00
 9.712488047417002e-01	 6.794178268136822e-01	 7.111007011745375e+00
 9.646298858708372e-01	 6.887829545993260e-01	 6.056399104657277e+00
 9.579152509699865e-01	 6.980910407770571e-01	 4.955744406556201e+00
 9.511056284525322e-01	 7.073406335552738e-01	 3.841465375269135e+00
 1.022400444931984e+00	 6.169473937458408e-01	 1.064180742362888e+01
 1.016425295222991e+00	 6.267426658138692e-01	 1.043297827870949e+01
 1.010349418623969e+00	 6.364909920036813e-01	 1.004580999016342e+01
 1.004173338269877e+00	 6.461908444192387e-01	 9.500898462016254e+00
 9.978976078044521e-01	 6.558407022426891e-01	 8.819662322695656e+00
 9.915228112808313e-01	 6.654390524870845e-01	 8.024325102628806e+00
 9.850495630400686e-01	 6.749843907482238e-01	 7.137896688494246e+00
 9.784785075675356e-01	 6.844752219548921e-01	 6.184154072582778e+00
 9.718103193271798e-01	 6.939100611167204e-01	 5.187621414435966e+00
 9.650457025736762e-01	 7.032874340689307e-01	 4.173549430551808e+00
 9.581853911425121e-01	 7.126058782131882e-01	 3.167894126490713e+00
 1.029954674613517e+00	 6.215058447341478e-01	 1.017764847334443e+01
 1.023935376201805e+00	 6.313734913159278e-01	 9.785179754645851e+00
 1.017814606657407e+00	 6.411938451495862e-01	 9.263345390879641e+00
 1.011592892980577e+00	 6.509653670498839e-01	 8.629872232181846e+00
 1.005270792905772e+00	 6.606865249620703e-01	 7.902967065817132e+00
 9.988488948015339e-01	 6.703557947201551e-01	 7.101301528261152e+00
 9.923278175481102e-01	 6.799716608043150e-01	 6.243996818283511e+00
 9.857082103927933e-01	 6.895326170966674e-01	 5.350608228653075e+00
 9.789907527829566e-01	 6.990371676346639e-01	 4.441109511628308e+00
 9.721761541768139e-01	 7.084838273613314e-01	 3.535877090833982e+00
 9.652651538319589e-01	 7.178711228716030e-01	 2.655674129480980e+00
 1.037508904294649e+00	 6.260642957228550e-01	 9.400618506379967e+00
 1.031445457180219e+00	 6.360043168183867e-01	 8.915656806969244e+00
 1.025279794690444e+00	 6.458966982958904e-01	 8.337562680641579e+00
 1.019012447690877e+00	 6.557398896809278e-01	 7.682027410049548e+00
 1.012643978006694e+00	 6.655323476818468e-01	 6.964941395174639e+00
 1.006174978321839e+00	 6.752725369536177e-01	 6.202380839905796e+00
 9.996060720557555e-01	 6.849589308607914e-01	 5.410594672639658e+00
 9.929379132176571e-01	 6.945900122388203e-01	 4.605991718700320e+00
 9.861711862383420e-01	 7.041642741529737e-01	 3.805128138928579e+00
 9.793066057795643e-01	 7.136802206540840e-01	 3.024695145228200e+00
 9.723449165210218e-01	 7.231363675303518e-01	 2.281507000204761e+00
 1.045063133975582e+00	 6.306227467117621e-01	 8.387568191987464e+00
 1.038955538158433e+00	 6.406351423210455e-01	 7.886173371715473e+00
 1.032744982723282e+00	 6.505995514423945e-01	 7.316345821003943e+00
 1.026432002400977e+00	 6.605144123121706e-01	 6.692552253880443e+00
 1.020017163107413e+00	 6.703781704018210e-01	 6.029238703427354e+00
 1.013501061841940e+00	 6.801892791872760e-01	 5.340818035256871e+00
 1.006884326563193e+00	 6.899462009174608e-01	 4.641658037815453e+00
 1.000167616042309e+00	 6.996474073811618e-01	 3.946070108492994e+00
 9.933516196935103e-01	 7.092913806714665e-01	 3.268298550254989e+00
 9.864370573820904e-01	 7.188766139470123e-01	 2.622510489133052e+00
 9.794246792098521e-01	 7.284016121892672e-01	 2.022786418428171e+00
 1.052617363656515e+00	 6.351811977006688e-01	 7.213156691432802e+00
 1.046465619136647e+00	 6.452659678237042e-01	 6.756734674995030e+00
 1.040210170756118e+00	 6.553024045888980e-01	 6.246218313432793e+00
 1.033851557111074e+00	 6.652889349434135e-01	 5.695638912922291e+00
 1.027390348208127e+00	 6.752239931217954e-01	 5.118847402621795e+00
 1.020827145362030e+00	 6.851060214209344e-01	 4.529501739459824e+00
 1.014162581070614e+00	 6.949334709741305e-01	 3.941055143431317e+00
 1.007397318866934e+00	 7.047048025235035e-01	 3.366745184545000e+00
 1.000532053148636e+00	 7.144184871899589e-01	 2.819583737679918e+00
 9.935675089845566e-01	 7.240730072399407e-01	 2.312347816583630e+00
 9.865044418985992e-01	 7.336668568481826e-01	 1.857571293108441e+00
 1.060171593337648e+00	 6.397396486893756e-01	 5.949927948466073e+00
 1.053975700115061e+00	 6.498967933261628e-01	 5.585648057752296e+00
 1.047675358789154e+00	 6.600052577352021e-01	 5.172389792956894e+00
 1.041271111821368e+00	 6.700634575744565e-01	 4.724517001559501e+00
 1.034763533309033e+00	 6.800698158415720e-01	 4.256112666487470e+00
 1.028153228882305e+00	 6.900227636543970e-01	 3.780965278293783e+00
 1.021440835578206e+00	 6.999207410306072e-01	 3.312556203444581e+00
 1.014627021691712e+00	 7.097621976656561e-01	 2.864048073012258e+00
 1.007712486603895e+00	 7.195455937082684e-01	 2.448274210732185e+00
 1.000697960587126e+00	 7.292694005326930e-01	 2.077729113888592e+00
 9.935842045874139e-01	 7.389321015069312e-01	 1.764559994878921e+00
 1.067725823019181e+00	 6.442980996776826e-01	 4.668383669104955e+00
 1.061485781093874e+00	 6.545276188282213e-01	 4.429581145317867e+00
 1.055140546822588e+00	 6.647081108811067e-01	 4.138800569745255e+00
 1.048690666532057e+00	 6.748379802051019e-01	 3.811485673151848e+00
 1.042136718410326e+00	 6.849156385609526e-01	 3.462757173834026e+00
 1.035479312402956e+00	 6.949395058874676e-01	 3.107397204576288e+00
 1.028719090086158e+00	 7.049080110866980e-01	 2.759834814268998e+00
 1.021856724516829e+00	 7.148195928074316e-01	 2.434132572611968e+00
 1.014892920059460e+00	 7.246727002262118e-01	 2.143974300713369e+00
 1.007828412189962e+00	 7.344657938250938e-01	 1.902653944605736e+00
 1.000663967276446e+00	 7.441973461653458e-01	 1.721684706365201e+00
 1.075280052701313e+00	 6.488565506653895e-01	 3.437053153539842e+00
 1.068995862073288e+00	 6.591584443296803e-01	 3.343617492328274e+00
 1.062605734856620e+00	 6.694109640264118e-01	 3.188164219524016e+00
 1.056110221243340e+00	 6.796125028351502e-01	 2.987944267341862e+00
 1.049509903512206e+00	 6.897614612797396e-01	 2.759900902171237e+00
 1.042805395924178e+00	 6.998562481199506e-01	 2.520651304677596e+00
 1.035997344594661e+00	 7.098952811422102e-01	 2.286469217067208e+00
 1.029086427342466e+00	 7.198769879486409e-01	 2.073268691036479e+00
 1.022073353515506e+00	 7.297998067436061e-01	 1.896588964206692e+00
 1.014958863793230e+00	 7.396621871169671e-01	 1.771580486937444e+00
 1.007743729965846e+00	 7.494625908232602e-01	 1.703990939618897e+00
 1.082834282384246e+00	 6.534150016522964e-01	 2.322560133883277e+00
 1.076505943053501e+00	 6.637892698303393e-01	 2.381309826299955e+00
 1.070070922891450e+00	 6.741138171709183e-01	 2.362008318114516e+00
 1.063529775955415e+00	 6.843870254644014e-01	 2.284421600492246e+00
 1.056883088614866e+00	 6.946072839977351e-01	 2.168080017931316e+00
 1.050131479446166e+00	 7.047729903516500e-01	 2.032256110530673e+00
 1.043275599103903e+00	 7.148825511969510e-01	 1.895943430847455e+00
 1.036316130168806e+00	 7.249343830890960e-01	 1.777836374922538e+00
 1.029253786972209e+00	 7.349269132602679e-01	 1.696311061399272e+00
 1.022089315397092e+00	 7.448585804081368e-01	 1.667274213807656e+00
 1.014823492655765e+00	 7.547278354805068e-01	 1.690933622218486e+00
 9.440258657618684e-01	 7.020753888980267e-01	 4.700406281379282e+00
 9.371722312564811e-01	 7.111981881576777e-01	 3.614133154765135e+00
 9.302258211404490e-01	 7.202600583862604e-01	 2.761550176115860e+00
 9.231874486874327e-01	 7.292595911757217e-01	 2.127223074812284e+00
 9.160579553103223e-01	 7.381953923657890e-01	 1.695346843941253e+00
 9.088382102458218e-01	 7.470660827468745e-01	 1.447012098687318e+00
 9.015291102181738e-01	 7.558702987547489e-01	 1.358982852541774e+00
 8.941315790822691e-01	 7.646066931562584e-01	 1.415636592258067e+00
 8.866465674464368e-01	 7.732739357253688e-01	 1.601564598865366e+00
 8.790750522752150e-01	 7.818707139088330e-01	 1.901145039454855e+00
 8.714180364724508e-01	 7.903957334807954e-01	 2.298564694695373e+00
 9.511056284525322e-01	 7.073406335552738e-01	 3.841465375269136e+00
 9.442005948199346e-01	 7.165318496413063e-01	 2.848225084395539e+00
 9.372020898020160e-01	 7.256616797563571e-01	 2.080203939296497e+00
 9.301109327716072e-01	 7.347287049299641e-01	 1.523824865546376e+00
 9.229279714517997e-01	 7.437315205462982e-01	 1.164177139233907e+00
 9.156540815981642e-01	 7.526687370523376e-01	 9.781468366911292e-01
 9.082901666599540e-01	 7.615389806577543e-01	 9.491280895697820e-01
 9.008371574205393e-01	 7.703408940257686e-01	 1.062750459257879e+00
 8.932960116173648e-01	 7.790731369542668e-01	 1.304124076886434e+00
 8.856677135417462e-01	 7.877343870464623e-01	 1.657859568903556e+00
 8.779532736188399e-01	 7.963233403704034e-01	 2.108088542869978e+00
 9.581853911425121e-01	 7.126058782131882e-01	 3.167894126490713e+00
 9.512289583827420e-01	 7.218655111255589e-01	 2.285592272456869e+00
 9.441783584629813e-01	 7.310633011270273e-01	 1.616362402354764e+00
 9.370344168552288e-01	 7.401978186847248e-01	 1.147678922999766e+00
 9.297979875927751e-01	 7.492676487272668e-01	 8.603757284441728e-01
 9.224699529500577e-01	 7.582713913582004e-01	 7.340982274159207e-01
 9.150512231013397e-01	 7.672076625610975e-01	 7.554604945594018e-01
 9.075427357584669e-01	 7.760750948955559e-01	 9.103401359276050e-01
 8.999454557880022e-01	 7.848723381833849e-01	 1.183875445055409e+00
 8.922603748080340e-01	 7.935980601842565e-01	 1.560484633115778e+00
 8.844885107650281e-01	 8.022509472601288e-01	 2.023885925152535e+00
 9.652651538319589e-01	 7.178711228716030e-01	 2.655674129480980e+00
 9.582573219450380e-01	 7.271991726102791e-01	 1.897919419417089e+00
 9.511546271234597e-01	 7.364649224981273e-01	 1.338641877537619e+00
 9.439579009383914e-01	 7.456669324398738e-01	 9.634763905566095e-01
 9.366680037333223e-01	 7.548037769085791e-01	 7.490045958129096e-01
 9.292858243015548e-01	 7.638740456643593e-01	 6.810680830459469e-01
 9.218122795423613e-01	 7.728763444646892e-01	 7.461639847369105e-01
 9.142483140960651e-01	 7.818092957655439e-01	 9.298758112266534e-01
 9.065948999583420e-01	 7.906715394126563e-01	 1.216891792247437e+00
 8.988530360740573e-01	 7.994617333221602e-01	 1.591024340491949e+00
 8.910237479109830e-01	 8.081785541499212e-01	 2.035230599473966e+00
 9.723449165210218e-01	 7.231363675303518e-01	 2.281507000204761e+00
 9.652856855069558e-01	 7.325328340953110e-01	 1.657737167391612e+00
 9.581308957835671e-01	 7.418665438695140e-01	 1.216471068724898e+00
 9.508813850211906e-01	 7.511360461952811e-01	 9.355794393378518e-01
 9.435380198735148e-01	 7.603399050901185e-01	 7.965689078890315e-01
 9.361016956527080e-01	 7.694766999707124e-01	 7.862330878723996e-01
 9.285733359830514e-01	 7.785450263684408e-01	 8.903399036997588e-01
 9.209538924333449e-01	 7.875434966356567e-01	 1.093649656394631e+00
 9.132443441283795e-01	 7.964707406420167e-01	 1.379934382370779e+00
 9.054456973397951e-01	 8.053254064601162e-01	 1.731998467643404e+00
 8.975589850566711e-01	 8.141061610397301e-01	 2.131700477866548e+00
 9.794246792098521e-01	 7.284016121892672e-01	 2.022786418428171e+00
 9.723140490686299e-01	 7.378664955804988e-01	 1.538389587975507e+00
 9.651071644434184e-01	 7.472681652410436e-01	 1.216535447587849e+00
 9.578048691037211e-01	 7.566051599508157e-01	 1.031981814359427e+00
 9.504080360134270e-01	 7.658760332717687e-01	 9.705326351424568e-01
 9.429175670035700e-01	 7.750793542771577e-01	 1.017709622900254e+00
 9.353343924234413e-01	 7.842137082722636e-01	 1.157973937336434e+00
 9.276594707703180e-01	 7.932776975058171e-01	 1.374746204651241e+00
 9.198937882981078e-01	 8.022699418713994e-01	 1.650427883458164e+00
 9.120383586052256e-01	 8.111890795980683e-01	 1.966423935607800e+00
 9.040942222020594e-01	 8.200337679295063e-01	 2.303166758623617e+00
 9.865044418985992e-01	 7.336668568481826e-01	 1.857571293108442e+00
 9.793424126301939e-01	 7.432001570656864e-01	 1.513364280881403e+00
 9.720834331031291e-01	 7.526697866125723e-01	 1.307861486595842e+00
 9.647283531860783e-01	 7.620742737063482e-01	 1.221606744581193e+00
 9.572780521531328e-01	 7.714121614534136e-01	 1.239284212764288e+00
 9.497334383541932e-01	 7.806820085835927e-01	 1.344520128319548e+00
 9.420954488635623e-01	 7.898823901760680e-01	 1.519904477774573e+00
 9.343650491069970e-01	 7.990118983759491e-01	 1.747014029971445e+00
 9.265432324675217e-01	 8.080691431007399e-01	 2.006436687197083e+00
 9.186310198703277e-01	 8.170527527359595e-01	 2.277797107661877e+00
 9.106294593471145e-01	 8.259613748191990e-01	 2.539783550531482e+00
 9.935842045874139e-01	 7.389321015069312e-01	 1.764559994878920e+00
 9.863707761917819e-01	 7.485338185507181e-01	 1.552911557189631e+00
 9.790597017628141e-01	 7.580714079839570e-01	 1.461889512873274e+00
 9.716518372683572e-01	 7.675433874617485e-01	 1.474253482792278e+00
 9.641480682927054e-01	 7.769482896349368e-01	 1.572103692392628e+00
 9.565493097046298e-01	 7.862846628899146e-01	 1.736560927135737e+00
 9.488565053034465e-01	 7.955510720797655e-01	 1.947792363132995e+00
 9.410706274433931e-01	 8.047460992459757e-01	 2.185038660140948e+00
 9.331926766366142e-01	 8.138683443299721e-01	 2.426642264510491e+00
 9.252236811350806e-01	 8.229164258737331e-01	 2.650076867752280e+00
 9.171646964918033e-01	 8.318889817087582e-01	 2.831977964631072e+00
 1.000663967276446e+00	 7.441973461653458e-01	 1.721684706365201e+00
 9.933991397535278e-01	 7.538674800354376e-01	 1.631143461711319e+00
 9.860359704225894e-01	 7.634730293550537e-01	 1.650858161580836e+00
 9.785753213506526e-01	 7.730125012168860e-01	 1.760566408905317e+00
 9.710180844322190e-01	 7.824844178162224e-01	 1.939131310925522e+00
 9.633651810549324e-01	 7.918873171960218e-01	 2.164571437594656e+00
 9.556175617431246e-01	 8.012197539832674e-01	 2.414091924940025e+00
 9.477762057795182e-01	 8.104803001158215e-01	 2.664116662963721e+00
 9.398421208053800e-01	 8.196675455590305e-01	 2.890321505877294e+00
 9.318163423994631e-01	 8.287800990113333e-01	 3.067668440884365e+00
 9.236999336360932e-01	 8.378165885981341e-01	 3.170440650354296e+00
 1.007743729965846e+00	 7.494625908232602e-01	 1.703990939618897e+00
 1.000427503315565e+00	 7.592011415196893e-01	 1.723663913091688e+00
 9.930122390825695e-01	 7.688746507257190e-01	 1.847776430403821e+00
 9.854988054330599e-01	 7.784816149716307e-01	 2.052005457873955e+00
 9.778881005717478e-01	 7.880205459971537e-01	 2.311337406732479e+00
 9.701810524051532e-01	 7.974899715018113e-01	 2.600104706105332e+00
 9.623786181826289e-01	 8.068884358864846e-01	 2.892023278911560e+00
 9.544817841153842e-01	 8.162145009854088e-01	 3.160230847929619e+00
 9.464915649738130e-01	 8.254667467878500e-01	 3.377325997966381e+00
 9.384090036634535e-01	 8.346437721487031e-01	 3.515407918982026e+00
 9.302351707799503e-01	 8.437441954872766e-01	 3.546116754183184e+00
 1.014823492655765e+00	 7.547278354805068e-01	 1.690933622218486e+00
 1.007455866878029e+00	 7.645348030033171e-01	 1.806747608631976e+00
 9.999885077428706e-01	 7.742762720958096e-01	 2.026396925629988e+00
 9.924222895156739e-01	 7.839507287258528e-01	 2.320817807546487e+00
 9.847581167113650e-01	 7.935566741776144e-01	 2.660493617466023e+00
 9.769969237553450e-01	 8.030926258071813e-01	 3.015499196174944e+00
 9.691396746219908e-01	 8.125571177893284e-01	 3.355545798369998e+00
 9.611873624510034e-01	 8.219487018546621e-01	 3.650026528869850e+00
 9.531410091419071e-01	 8.312659480163649e-01	 3.868062190860229e+00
 9.450016649270306e-01	 8.405074452857859e-01	 3.978547457767670e+00
 9.367704079233418e-01	 8.496718023761349e-01	 3.950197280198655e+00
 8.714180364724508e-01	 7.903957334807954e-01	 2.298564694695374e+00
 8.636778691763565e-01	 7.988462910794256e-01	 2.727504678886577e+00
 8.558542975080441e-01	 8.072225983982798e-01	 3.128889102951031e+00
 8.479483851579257e-01	 8.155234344082373e-01	 3.497125669853923e+00
 8.399612198829021e-01	 8.237475988875402e-01	 3.826244351137122e+00
 8.318939130041005e-01	 8.318939130041005e-01	 4.109905917745692e+00
 8.237475988875400e-01	 8.399612198829022e-01	 4.341410817436818e+00
 8.155234344082370e-01	 8.479483851579258e-01	 4.513708380266296e+00
 8.072225983982796e-01	 8.558542975080441e-01	 4.619406333759551e+00
 7.988462910794255e-01	 8.636778691763568e-01	 4.650780609545156e+00
 7.903957334807953e-01	 8.714180364724509e-01	 4.599785423455892e+00
 8.779532736188399e-01	 7.963233403704034e-01	 2.108088542869978e+00
 8.701550586043140e-01	 8.048372732902872e-01	 2.587793598141545e+00
 8.622728137228147e-01	 8.132763990872637e-01	 3.035567900186542e+00
 8.543076106419603e-01	 8.216394875750371e-01	 3.443293508061875e+00
 8.462605452763456e-01	 8.299253295307218e-01	 3.802772227392070e+00
 8.381327372815127e-01	 8.381327372815127e-01	 4.105737318258706e+00
 8.299253295307216e-01	 8.462605452763458e-01	 4.343865112810663e+00
 8.216394875750371e-01	 8.543076106419605e-01	 4.508786519096360e+00
 8.132763990872635e-01	 8.622728137228151e-01	 4.592098388654486e+00
 8.048372732902869e-01	 8.701550586043140e-01	 4.585374726506461e+00
 7.963233403704033e-01	 8.779532736188399e-01	 4.480177723362432e+00
 8.844885107650281e-01	 8.022509472601288e-01	 2.023885925152535e+00
 8.766322480321082e-01	 8.108282555012237e-01	 2.511449257748058e+00
 8.686913299374546e-01	 8.193301997762862e-01	 2.965478079301804e+00
 8.606668361258938e-01	 8.277555407418445e-01	 3.376440565090984e+00
 8.525598706697153e-01	 8.361030601738820e-01	 3.734972973798784e+00
 8.443715615588773e-01	 8.443715615588772e-01	 4.031893088353406e+00
 8.361030601738819e-01	 8.525598706697151e-01	 4.258213199807286e+00
 8.277555407418448e-01	 8.606668361258942e-01	 4.405152608081612e+00
 8.193301997762860e-01	 8.686913299374550e-01	 4.464149615218280e+00
 8.108282555012236e-01	 8.766322480321086e-01	 4.426872988672448e+00
 8.022509472601289e-01	 8.844885107650282e-01	 4.285232874138578e+00
 8.910237479109830e-01	 8.081785541499212e-01	 2.035230599473967e+00
 8.831094374596983e-01	 8.168192377121896e-01	 2.495202607136797e+00
 8.751098461519181e-01	 8.253840004653031e-01	 2.921825308200553e+00
 8.670260616096777e-01	 8.338715939086144e-01	 3.305242645516775e+00
 8.588591960629617e-01	 8.422807908169750e-01	 3.635966606655083e+00
 8.506103858361458e-01	 8.506103858361459e-01	 3.904890971241393e+00
 8.422807908169753e-01	 8.588591960629618e-01	 4.103304303990233e+00
 8.338715939086142e-01	 8.670260616096778e-01	 4.222902166873537e+00
 8.253840004653029e-01	 8.751098461519182e-01	 4.255798526324964e+00
 8.168192377121891e-01	 8.831094374596986e-01	 4.194536333909633e+00
 8.081785541499210e-01	 8.910237479109830e-01	 4.032097261484890e+00
 8.975589850566711e-01	 8.141061610397301e-01	 2.131700477866547e+00
 8.895866268870420e-01	 8.228102199231370e-01	 2.535871751805554e+00
 8.815283623661589e-01	 8.314378011542688e-01	 2.907714003711133e+00
 8.733852870932630e-01	 8.399876470753004e-01	 3.238115129335175e+00
 8.651585214560367e-01	 8.484585214599543e-01	 3.518483398416728e+00
 8.568492101132708e-01	 8.568492101132706e-01	 3.740760099221974e+00
 8.484585214599538e-01	 8.651585214560364e-01	 3.897431199943004e+00
 8.399876470753004e-01	 8.733852870932631e-01	 3.981538002285771e+00
 8.314378011542687e-01	 8.815283623661589e-01	 3.986686765532749e+00
 8.228102199231370e-01	 8.895866268870424e-01	 3.907057282390560e+00
 8.141061610397300e-01	 8.975589850566711e-01	 3.737410391016271e+00
 9.040942222020594e-01	 8.200337679295063e-01	 2.303166758623617e+00
 8.960638163140994e-01	 8.288012021340211e-01	 2.630358938593649e+00
 8.879468785801301e-01	 8.374916018431384e-01	 2.926151135573441e+00
 8.797445125766020e-01	 8.461037002418582e-01	 3.183222537004943e+00
 8.714578468488909e-01	 8.546362521027719e-01	 3.394878123688169e+00
 8.630880343902038e-01	 8.630880343902039e-01	 3.555058818885493e+00
 8.546362521027719e-01	 8.714578468488910e-01	 3.658350493161100e+00
 8.461037002418583e-01	 8.797445125766024e-01	 3.699991804420508e+00
 8.374916018431383e-01	 8.879468785801308e-01	 3.675880855930514e+00
 8.288012021340210e-01	 8.960638163140997e-01	 3.582580658474672e+00
 8.200337679295063e-01	 9.040942222020595e-01	 3.417323386221764e+00
 9.106294593471145e-01	 8.259613748191990e-01	 2.539783550531483e+00
 9.025410057408281e-01	 8.347921843447945e-01	 2.775647694993977e+00
 8.943653947937867e-01	 8.435454025318672e-01	 2.980049890948865e+00
 8.861037380596460e-01	 8.522197534082422e-01	 3.148487707020652e+00
 8.777571722414761e-01	 8.608139827453826e-01	 3.277143716239488e+00
 8.693268586668979e-01	 8.693268586668977e-01	 3.362891773258481e+00
 8.608139827453825e-01	 8.777571722414760e-01	 3.403302053116201e+00
 8.522197534082420e-01	 8.861037380596462e-01	 3.396644837368938e+00
 8.435454025318668e-01	 8.943653947937871e-01	 3.341893036954273e+00
 8.347921843447942e-01	 9.025410057408284e-01	 3.238723444731602e+00
 8.259613748191990e-01	 9.106294593471145e-01	 3.087516714258206e+00
 9.171646964918033e-01	 8.318889817087582e-01	 2.831977964631072e+00
 9.090181951671872e-01	 8.407831665554112e-01	 2.968800114819638e+00
 9.007839110070821e-01	 8.495992032204092e-01	 3.072233206410886e+00
 8.924629635423469e-01	 8.583358065744062e-01	 3.141600605343323e+00
 8.840564976337426e-01	 8.669917133877393e-01	 3.176924366427636e+00
 8.755656829433037e-01	 8.755656829433036e-01	 3.178926277953620e+00
 8.669917133877394e-01	 8.840564976337428e-01	 3.149027639830685e+00
 8.583358065744061e-01	 8.924629635423469e-01	 3.089347769648117e+00
 8.495992032204090e-01	 9.007839110070822e-01	 3.002701234665480e+00
 8.407831665554110e-01	 9.090181951671874e-01	 2.892593811394378e+00
 8.318889817087582e-01	 9.171646964918035e-01	 2.763217178092690e+00
 9.236999336360932e-01	 8.378165885981341e-01	 3.170440650354296e+00
 9.154953845931353e-01	 8.467741487658239e-01	 3.206954282977681e+00
 9.072024272199697e-01	 8.556530039087195e-01	 3.205437173979622e+00
 8.988221890246559e-01	 8.644518597403058e-01	 3.170026784921421e+00
 8.903558230256432e-01	 8.731694440297960e-01	 3.105528086736512e+00
 8.818045072193750e-01	 8.818045072193749e-01	 3.017408026290219e+00
 8.731694440297960e-01	 8.903558230256429e-01	 2.911788763905001e+00
 8.644518597403055e-01	 8.988221890246559e-01	 2.795439686979297e+00
 8.556530039087191e-01	 9.072024272199695e-01	 2.675768208406961e+00
 8.467741487658237e-01	 9.154953845931353e-01	 2.560809362080990e+00
 8.378165885981341e-01	 9.236999336360933e-01	 2.459214211329073e+00
 9.302351707799503e-01	 8.437441954872766e-01	 3.546116754183184e+00
 9.219725740186306e-01	 8.527651309759867e-01	 3.487321832509961e+00
 9.136209434324032e-01	 8.617068045967529e-01	 3.382314327395785e+00
 9.051814145065243e-01	 8.705679129058951e-01	 3.241015512511055e+00
 8.966551484171277e-01	 8.793471746715056e-01	 3.073938771593415e+00
 8.880433314950628e-01	 8.880433314950626e-01	 2.892176156385190e+00
 8.793471746715055e-01	 8.966551484171278e-01	 2.707383817695557e+00
 8.705679129058945e-01	 9.051814145065242e-01	 2.531766327619214e+00
 8.617068045967528e-01	 9.136209434324036e-01	 2.378059914341381e+00
 8.527651309759866e-01	 9.219725740186312e-01	 2.259514634326583e+00
 8.437441954872763e-01	 9.302351707799503e-01	 2.189875510011401e+00
 9.367704079233418e-01	 8.496718023761349e-01	 3.950197280198654e+00
 9.284497634436332e-01	 8.587561131858535e-01	 3.807185627441846e+00
 9.200394596443375e-01	 8.677606052844652e-01	 3.605436814482536e+00
 9.115406399879045e-01	 8.766839660711286e-01	 3.361607579042690e+00
 9.029544738081481e-01	 8.855249053128216e-01	 3.092827776159047e+00
 8.942821557703193e-01	 8.942821557703196e-01	 2.816677711373111e+00
 8.855249053128216e-01	 9.029544738081482e-01	 2.551164513237007e+00
 8.766839660711283e-01	 9.115406399879040e-01	 2.314697578211153e+00
 8.677606052844652e-01	 9.200394596443375e-01	 2.126063124115638e+00
 8.587561131858534e-01	 9.284497634436334e-01	 2.004397891318265e+00
 8.496718023761349e-01	 9.367704079233418e-01	 1.969162033783535e+00
 7.903957334807953e-01	 8.714180364724509e-01	 4.599785423455892e+00
 7.818707139088333e-01	 8.790750522752145e-01	 4.465488330187933e+00
 7.732739357253692e-01	 8.866465674464368e-01	 4.262514603972639e+00
 7.646066931562587e-01	 8.941315790822688e-01	 4.006344171373863e+00
 7.558702987547491e-01	 9.015291102181732e-01	 3.713067674458559e+00
 7.470660827468745e-01	 9.088382102458219e-01	 3.399361264663708e+00
 7.381953923657893e-01	 9.160579553103224e-01	 3.082164245331671e+00
 7.292595911757221e-01	 9.231874486874327e-01	 2.774121353894903e+00
 7.202600583862604e-01	 9.302258211404485e-01	 2.491879526561323e+00
 7.111981881576781e-01	 9.371722312564811e-01	 2.254430079923498e+00
 7.020753888980266e-01	 9.440258657618683e-01	 2.081126800949709e+00
 7.963233403704033e-01	 8.779532736188399e-01	 4.480177723362432e+00
 7.877343870464625e-01	 8.856677135417456e-01	 4.283647085831401e+00
 7.790731369542674e-01	 8.932960116173644e-01	 4.020603965057282e+00
 7.703408940257687e-01	 9.008371574205389e-01	 3.709447599561522e+00
 7.615389806577547e-01	 9.082901666599538e-01	 3.369084578499082e+00
 7.526687370523381e-01	 9.156540815981640e-01	 3.018899956963974e+00
 7.437315205462984e-01	 9.229279714517993e-01	 2.678727570409603e+00
 7.347287049299646e-01	 9.301109327716072e-01	 2.367162025100337e+00
 7.256616797563574e-01	 9.372020898020157e-01	 2.099536958711585e+00
 7.165318496413067e-01	 9.442005948199340e-01	 1.896679167368582e+00
 7.073406335552739e-01	 9.511056284525322e-01	 1.780084123257442e+00
 8.022509472601289e-01	 8.844885107650282e-01	 4.285232874138577e+00
 7.935980601842570e-01	 8.922603748080338e-01	 4.051119926634264e+00
 7.848723381833853e-01	 8.999454557880018e-01	 3.754959865705463e+00
 7.760750948955564e-01	 9.075427357584666e-01	 3.416872056657916e+00
 7.672076625610978e-01	 9.150512231013392e-01	 3.057377621081868e+00
 7.582713913582009e-01	 9.224699529500576e-01	 2.697368508207482e+00
 7.492676487272671e-01	 9.297979875927751e-01	 2.358075912730928e+00
 7.401978186847253e-01	 9.370344168552285e-01	 2.061025944579555e+00
 7.310633011270277e-01	 9.441783584629808e-01	 1.823804121034562e+00
 7.218655111255592e-01	 9.512289583827419e-01	 1.665247378903443e+00
 7.126058782131883e-01	 9.581853911425123e-01	 1.607814376354488e+00
 8.081785541499210e-01	 8.910237479109830e-01	 4.032097261484891e+00
 7.994617333221604e-01	 8.988530360740570e-01	 3.782315839411829e+00
 7.906715394126566e-01	 9.065948999583416e-01	 3.477173473058174e+00
 7.818092957655444e-01	 9.142483140960648e-01	 3.137335801316216e+00
 7.728763444646894e-01	 9.218122795423608e-01	 2.783762402885587e+00
 7.638740456643596e-01	 9.292858243015544e-01	 2.437675438326563e+00
 7.548037769085794e-01	 9.366680037333217e-01	 2.120527781830162e+00
 7.456669324398739e-01	 9.439579009383908e-01	 1.853970701351542e+00
 7.364649224981278e-01	 9.511546271234597e-01	 1.658989531763145e+00
 7.271991726102796e-01	 9.582573219450375e-01	 1.551750853990558e+00
 7.178711228716032e-01	 9.652651538319588e-01	 1.553363245538632e+00
 8.141061610397300e-01	 8.975589850566711e-01	 3.737410391016271e+00
 8.053254064601169e-01	 9.054456973397945e-01	 3.491216580838961e+00
 7.964707406420168e-01	 9.132443441283792e-01	 3.198490688844883e+00
 7.875434966356573e-01	 9.209538924333449e-01	 2.879295368996534e+00
 7.785450263684411e-01	 9.285733359830510e-01	 2.553877183759142e+00
 7.694766999707131e-01	 9.361016956527077e-01	 2.242636412115973e+00
 7.603399050901186e-01	 9.435380198735145e-01	 1.966096486489985e+00
 7.511360461952813e-01	 9.508813850211900e-01	 1.744873114818005e+00
 7.418665438695143e-01	 9.581308957835668e-01	 1.599643145343232e+00
 7.325328340953113e-01	 9.652856855069557e-01	 1.548061176274742e+00
 7.231363675303516e-01	 9.723449165210217e-01	 1.606104808662353e+00
 8.200337679295063e-01	 9.040942222020595e-01	 3.417323386221764e+00
 8.111890795980690e-01	 9.120383586052254e-01	 3.191392295722759e+00
 8.022699418713997e-01	 9.198937882981073e-01	 2.929824803174773e+00
 7.932776975058174e-01	 9.276594707703176e-01	 2.650955203141937e+00
 7.842137082722636e-01	 9.353343924234409e-01	 2.373189459815188e+00
 7.750793542771580e-01	 9.429175670035697e-01	 2.114977757426953e+00
 7.658760332717690e-01	 9.504080360134268e-01	 1.894786814757138e+00
 7.566051599508160e-01	 9.578048691037208e-01	 1.731072015018896e+00
 7.472681652410438e-01	 9.651071644434180e-01	 1.642249403534252e+00
 7.378664955804992e-01	 9.723140490686297e-01	 1.646297061924569e+00
 7.284016121892671e-01	 9.794246792098519e-01	 1.755730525765775e+00
 8.259613748191990e-01	 9.106294593471145e-01	 3.087516714258208e+00
 8.170527527359598e-01	 9.186310198703275e-01	 2.896016487017045e+00
 8.080691431007402e-01	 9.265432324675211e-01	 2.681768627608483e+00
 7.990118983759492e-01	 9.343650491069969e-01	 2.460276895656729e+00
 7.898823901760681e-01	 9.420954488635621e-01	 2.247002281182255e+00
 7.806820085835928e-01	 9.497334383541928e-01	 2.057339855564048e+00
 7.714121614534138e-01	 9.572780521531322e-01	 1.906595517823403e+00
 7.620742737063489e-01	 9.647283531860780e-01	 1.809962680027306e+00
 7.526697866125729e-01	 9.720834331031289e-01	 1.782498936557840e+00
 7.432001570656870e-01	 9.793424126301941e-01	 1.839102762798588e+00
 7.336668568481827e-01	 9.865044418985993e-01	 1.992238721474992e+00
 8.318889817087582e-01	 9.171646964918035e-01	 2.763217178092690e+00
 8.229164258737339e-01	 9.252236811350806e-01	 2.617880369913363e+00
 8.138683443299718e-01	 9.331926766366134e-01	 2.464606133483641e+00
 8.047460992459763e-01	 9.410706274433928e-01	 2.314988056174861e+00
 7.955510720797658e-01	 9.488565053034462e-01	 2.180460323351760e+00
 7.862846628899151e-01	 9.565493097046294e-01	 2.072280410259864e+00
 7.769482896349370e-01	 9.641480682927049e-01	 2.001511796557074e+00
 7.675433874617488e-01	 9.716518372683567e-01	 1.979006737289895e+00
 7.580714079839574e-01	 9.790597017628141e-01	 2.015389124912546e+00
 7.485338185507183e-01	 9.863707761917819e-01	 2.121037477626543e+00
 7.389321015069312e-01	 9.935842045874137e-01	 2.305924535589305e+00
 8.378165885981341e-01	 9.236999336360933e-01	 2.459214211329073e+00
 8.287800990113339e-01	 9.318163423994625e-01	 2.369406640513251e+00
 8.196675455590310e-01	 9.398421208053795e-01	 2.288323619997436e+00
 8.104803001158217e-01	 9.477762057795178e-01	 2.222590828503416e+00
 8.012197539832677e-01	 9.556175617431245e-01	 2.178555724323914e+00
 7.918873171960218e-01	 9.633651810549317e-01	 2.162277601241744e+00
 7.824844178162226e-01	 9.710180844322188e-01	 2.179517790554446e+00
 7.730125012168866e-01	 9.785753213506524e-01	 2.235730030522355e+00
 7.634730293550539e-01	 9.860359704225892e-01	 2.336051025230828e+00
 7.538674800354382e-01	 9.933991397535278e-01	 2.485291215439614e+00
 7.441973461653459e-01	 1.000663967276446e+00	 2.687925784476149e+00
 8.437441954872763e-01	 9.302351707799503e-01	 2.189875510011401e+00
 8.346437721487034e-01	 9.384090036634529e-01	 2.162662687871532e+00
 8.254667467878506e-01	 9.464915649738127e-01	 2.162620435172347e+00
 8.162145009854095e-01	 9.544817841153842e-01	 2.190370071593239e+00
 8.068884358864848e-01	 9.623786181826288e-01	 2.246133699070525e+00
 7.974899715018117e-01	 9.701810524051531e-01	 2.329733128066710e+00
 7.880205459971542e-01	 9.778881005717474e-01	 2.440589069588084e+00
 7.784816149716313e-01	 9.854988054330598e-01	 2.577720599325962e+00
 7.688746507257196e-01	 9.930122390825695e-01	 2.739744900867286e+00
 7.592011415196898e-01	 1.000427503315565e+00	 2.924877295434824e+00
 7.494625908232601e-01	 1.007743729965846e+00	 3.130931566068670e+00
 8.496718023761349e-01	 9.367704079233418e-01	 1.969162033783535e+00
 8.405074452857861e-01	 9.450016649270302e-01	 2.009373276594632e+00
 8.312659480163652e-01	 9.531410091419068e-01	 2.096919271540449e+00
 8.219487018546624e-01	 9.611873624510029e-01	 2.225401221419670e+00
 8.125571177893285e-01	 9.691396746219902e-01	 2.387897942190264e+00
 8.030926258071817e-01	 9.769969237553447e-01	 2.576975149583860e+00
 7.935566741776152e-01	 9.847581167113648e-01	 2.784695127335308e+00
 7.839507287258533e-01	 9.924222895156736e-01	 3.002626766021294e+00
 7.742762720958096e-01	 9.999885077428703e-01	 3.221855961993949e+00
 7.645348030033176e-01	 1.007455866878029e+00	 3.432996366371925e+00
 7.547278354805067e-01	 1.014823492655765e+00	 3.626200474503868e+00
 7.020753888980266e-01	 9.440258657618683e-01	 2.081126800949709e+00
 6.928946474858869e-01	 9.507847993655812e-01	 1.973272333592733e+00
 6.836558480826637e-01	 9.574494524137538e-01	 1.918844764631150e+00
 6.743604316732270e-01	 9.640191019151049e-01	 1.917397153860132e+00
 6.650098506379702e-01	 9.704930540220392e-01	 1.968300333386549e+00
 6.556055680229015e-01	 9.768706442374568e-01	 2.070735797429592e+00
 6.461490568059066e-01	 9.831512375998281e-01	 2.223689325748755e+00
 6.366417991599389e-01	 9.893342288464843e-01	 2.425945377579250e+00
 6.270852857138696e-01	 9.954190425550969e-01	 2.676082288860000e+00
 6.174810148117510e-01	 1.001405133263363e+00	 2.972468301290570e+00
 6.078304917712264e-01	 1.007291985566919e+00	 3.313258447379208e+00
 7.073406335552739e-01	 9.511056284525322e-01	 1.780084123257442e+00
 6.980910407770571e-01	 9.579152509699864e-01	 1.746622693921172e+00
 6.887829545993261e-01	 9.646298858708370e-01	 1.774867777202845e+00
 6.794178268136825e-01	 9.712488047417003e-01	 1.858845545704911e+00
 6.699971206927116e-01	 9.777713085314411e-01	 1.992305055312117e+00
 6.605223102546014e-01	 9.841967277595369e-01	 2.168719194978795e+00
 6.509948795239024e-01	 9.905244227025363e-01	 2.381286458193956e+00
 6.414163217891905e-01	 9.967537835585785e-01	 2.622933560404512e+00
 6.317881388583765e-01	 1.002884230589933e+00	 2.886318922443596e+00
 6.221118403124105e-01	 1.008915214243577e+00	 3.163837035649200e+00
 6.123889427581338e-01	 1.014846215249852e+00	 3.447623719897953e+00
 7.126058782131883e-01	 9.581853911425123e-01	 1.607814376354488e+00
 7.032874340689306e-01	 9.650457025736758e-01	 1.643404386640720e+00
 6.939100611167207e-01	 9.718103193271801e-01	 1.742365787223437e+00
 6.844752219548920e-01	 9.784785075675352e-01	 1.894635633168792e+00
 6.749843907482240e-01	 9.850495630400683e-01	 2.089814999223901e+00
 6.654390524870848e-01	 9.915228112808311e-01	 2.317175742807018e+00
 6.558407022426896e-01	 9.978976078044520e-01	 2.565668145574049e+00
 6.461908444192391e-01	 1.004173338269877e+00	 2.823929449240751e+00
 6.364909920036818e-01	 1.010349418623969e+00	 3.080293296982632e+00
 6.267426658138696e-01	 1.016425295222990e+00	 3.322800087267936e+00
 6.169473937458410e-01	 1.022400444931984e+00	 3.539208242428585e+00
 7.178711228716032e-01	 9.652651538319588e-01	 1.553363245538633e+00
 7.084838273613315e-01	 9.721761541768139e-01	 1.650591863395624e+00
 6.990371676346641e-01	 9.789907527829564e-01	 1.807079656918990e+00
 6.895326170966677e-01	 9.857082103927935e-01	 2.010079880676478e+00
 6.799716608043151e-01	 9.923278175481099e-01	 2.246486458502928e+00
 6.703557947201557e-01	 9.988488948015339e-01	 2.502844340699247e+00
 6.606865249620707e-01	 1.005270792905772e+00	 2.765360765924635e+00
 6.509653670498845e-01	 1.011592892980576e+00	 3.019917438817513e+00
 6.411938451495870e-01	 1.017814606657407e+00	 3.252083629917437e+00
 6.313734913159285e-01	 1.023935376201804e+00	 3.447130199892482e+00
 6.215058447341479e-01	 1.029954674613517e+00	 3.590044545434477e+00
 7.231363675303516e-01	 9.723449165210217e-01	 1.606104808662354e+00
 7.136802206540841e-01	 9.793066057795643e-01	 1.755546403615873e+00
 7.041642741529737e-01	 9.861711862383419e-01	 1.955171149000680e+00
 6.945900122388207e-01	 9.929379132176569e-01	 2.190922315594687e+00
 6.849589308607916e-01	 9.996060720557549e-01	 2.448395508634143e+00
 6.752725369536181e-01	 1.006174978321839e+00	 2.712850427180929e+00
 6.655323476818472e-01	 1.012643978006694e+00	 2.969223523877936e+00
 6.557398896809283e-01	 1.019012447690877e+00	 3.202141575404238e+00
 6.458966982958908e-01	 1.025279794690444e+00	 3.395936169386585e+00
 6.360043168183873e-01	 1.031445457180219e+00	 3.534659108862286e+00
 6.260642957228550e-01	 1.037508904294649e+00	 3.602098730650378e+00
 7.284016121892671e-01	 9.794246792098519e-01	 1.755730525765775e+00
 7.188766139470122e-01	 9.864370573820908e-01	 1.946002930348074e+00
 7.092913806714666e-01	 9.933516196935105e-01	 2.173208449735767e+00
 6.996474073811622e-01	 1.000167616042309e+00	 2.423323605328552e+00
 6.899462009174613e-01	 1.006884326563193e+00	 2.682023450322427e+00
 6.801892791872765e-01	 1.013501061841939e+00	 2.934692565351729e+00
 6.703781704018215e-01	 1.020017163107412e+00	 3.166436920143001e+00
 6.605144123121709e-01	 1.026432002400976e+00	 3.362096614650977e+00
 6.505995514423948e-01	 1.032744982723281e+00	 3.506259508514619e+00
 6.406351423210458e-01	 1.038955538158433e+00	 3.583275742921722e+00
 6.306227467117619e-01	 1.045063133975582e+00	 3.577273154131932e+00
 7.336668568481827e-01	 9.865044418985993e-01	 1.992238721474992e+00
 7.240730072399407e-01	 9.935675089845567e-01	 2.210057411610781e+00
 7.144184871899589e-01	 1.000532053148636e+00	 2.448152332367002e+00
 7.047048025235035e-01	 1.007397318866933e+00	 2.693846793131766e+00
 6.949334709741307e-01	 1.014162581070613e+00	 2.934242894729221e+00
 6.851060214209347e-01	 1.020827145362030e+00	 3.156229620810381e+00
 6.752239931217958e-01	 1.027390348208127e+00	 3.346491731151881e+00
 6.652889349434135e-01	 1.033851557111074e+00	 3.491519477335789e+00
 6.553024045888988e-01	 1.040210170756118e+00	 3.577619156591798e+00
 6.452659678237050e-01	 1.046465619136647e+00	 3.590924514748022e+00
 6.351811977006688e-01	 1.052617363656515e+00	 3.517409004296820e+00
 7.389321015069312e-01	 9.935842045874137e-01	 2.305924535589305e+00
 7.292694005326930e-01	 1.000697960587126e+00	 2.536154818070644e+00
 7.195455937082688e-01	 1.007712486603895e+00	 2.767342928941634e+00
 7.097621976656562e-01	 1.014627021691712e+00	 2.989443659776128e+00
 6.999207410306076e-01	 1.021440835578206e+00	 3.192304458803270e+00
 6.900227636543973e-01	 1.028153228882304e+00	 3.365668502138984e+00
 6.800698158415723e-01	 1.034763533309032e+00	 3.499178473426337e+00
 6.700634575744570e-01	 1.041271111821368e+00	 3.582381083172967e+00
 6.600052577352026e-01	 1.047675358789153e+00	 3.604732354333372e+00
 6.498967933261636e-01	 1.053975700115061e+00	 3.555603695772265e+00
 6.397396486893757e-01	 1.060171593337648e+00	 3.424288780195834e+00
 7.441973461653459e-01	 1.000663967276446e+00	 2.687925784476149e+00
 7.344657938250939e-01	 1.007828412189962e+00	 2.913077609488791e+00
 7.246727002262116e-01	 1.014892920059460e+00	 3.118487080420411e+00
 7.148195928074318e-01	 1.021856724516829e+00	 3.297441680085758e+00
 7.049080110866982e-01	 1.028719090086158e+00	 3.443824040491518e+00
 6.949395058874678e-01	 1.035479312402956e+00	 3.551552436086853e+00
 6.849156385609531e-01	 1.042136718410326e+00	 3.614577328660602e+00
 6.748379802051023e-01	 1.048690666532056e+00	 3.626878543959291e+00
 6.647081108811073e-01	 1.055140546822587e+00	 3.582463121131490e+00
 6.545276188282223e-01	 1.061485781093874e+00	 3.475363871119257e+00
 6.442980996776826e-01	 1.067725823019180e+00	 3.299638674956197e+00
 7.494625908232601e-01	 1.007743729965846e+00	 3.130931566068670e+00
 7.396621871169671e-01	 1.014958863793230e+00	 3.329934723935099e+00
 7.297998067436061e-01	 1.022073353515506e+00	 3.489646236628900e+00
 7.198769879486411e-01	 1.029086427342466e+00	 3.605531545083605e+00
 7.098952811422103e-01	 1.035997344594660e+00	 3.676770645314319e+00
 6.998562481199507e-01	 1.042805395924178e+00	 3.702749751160283e+00
 6.897614612797399e-01	 1.049509903512205e+00	 3.683048506864150e+00
 6.796125028351504e-01	 1.056110221243339e+00	 3.617427698388645e+00
 6.694109640264124e-01	 1.062605734856620e+00	 3.505817522891729e+00
 6.591584443296810e-01	 1.068995862073288e+00	 3.348306470727462e+00
 6.488565506653894e-01	 1.075280052701313e+00	 3.145130869061336e+00
 7.547278354805067e-01	 1.014823492655765e+00	 3.626200474503868e+00
 7.448585804081368e-01	 1.022089315397092e+00	 3.776928710168233e+00
 7.349269132602683e-01	 1.029253786972208e+00	 3.869224879201759e+00
 7.249343830890960e-01	 1.036316130168806e+00	 3.901755222129930e+00
 7.148825511969510e-01	 1.043275599103902e+00	 3.879454737380690e+00
 7.047729903516504e-01	 1.050131479446166e+00	 3.808443144791522e+00
 6.946072839977357e-01	 1.056883088614866e+00	 3.695223026173542e+00
 6.843870254644020e-01	 1.063529775955414e+00	 3.546655971850234e+00
 6.741138171709191e-01	 1.070070922891449e+00	 3.369939149683518e+00
 6.637892698303400e-01	 1.076505943053501e+00	 3.172582372930057e+00
 6.534150016522964e-01	 1.082834282384246e+00	 2.962385737871145e+00
 6.078304917712264e-01	 1.007291985566919e+00	 3.313258447379208e+00
 5.981352283312307e-01	 1.013079114439890e+00	 3.623055335980962e+00
 5.883967424669230e-01	 1.018766066026104e+00	 3.830538783123151e+00
 5.786165570600984e-01	 1.024352416944811e+00	 3.939810729292661e+00
 5.687961989684477e-01	 1.029837774057543e+00	 3.954960600946851e+00
 5.589371982900345e-01	 1.035221774457163e+00	 3.880062828290936e+00
 5.490410876312684e-01	 1.040504085435938e+00	 3.719175030583452e+00
 5.391094013790468e-01	 1.045684404432863e+00	 3.476336868110523e+00
 5.291436749777435e-01	 1.050762458960495e+00	 3.155569555943530e+00
 5.191454442116871e-01	 1.055738006511553e+00	 2.760876030660665e+00
 5.091162444937753e-01	 1.060610834445606e+00	 2.296241757395254e+00
 6.123889427581338e-01	 1.014846215249852e+00	 3.447623719897953e+00
 6.026209692718355e-01	 1.020676744945409e+00	 3.662286751823210e+00
 5.928094492127964e-01	 1.026406346070359e+00	 3.746845771058211e+00
 5.829559168837308e-01	 1.032034592068782e+00	 3.715006811318845e+00
 5.730619105930663e-01	 1.037561086853845e+00	 3.580651407598376e+00
 5.631289719139041e-01	 1.042985464796768e+00	 3.357818437981274e+00
 5.531586449465027e-01	 1.048307390694655e+00	 3.060686586010886e+00
 5.431524755849623e-01	 1.053526559717424e+00	 2.703557449113008e+00
 5.331120107887890e-01	 1.058642697334095e+00	 2.300839314132203e+00
 5.230387978599937e-01	 1.063655559218690e+00	 1.867031616631283e+00
 5.129343837263705e-01	 1.068564931136062e+00	 1.416710096263308e+00
 6.169473937458410e-01	 1.022400444931984e+00	 3.539208242428585e+00
 6.071067102132399e-01	 1.028274375450128e+00	 3.657961292567098e+00
 5.972221559594684e-01	 1.034046626113814e+00	 3.629799482109763e+00
 5.872952767081590e-01	 1.039716767191953e+00	 3.475977385291817e+00
 5.773276222184750e-01	 1.045284399649348e+00	 3.218065206608554e+00
 5.673207455385545e-01	 1.050749155135573e+00	 2.877918209362022e+00
 5.572762022625037e-01	 1.056110695952570e+00	 2.477646745832746e+00
 5.471955497916253e-01	 1.061368715001184e+00	 2.039586935344285e+00
 5.370803466005560e-01	 1.066522935706896e+00	 1.586272031648199e+00
 5.269321515089886e-01	 1.071573111925027e+00	 1.140404516215977e+00
 5.167525229596127e-01	 1.076519027825718e+00	 7.248289492079184e-01
 6.215058447341479e-01	 1.029954674613517e+00	 3.590044545434477e+00
 6.115924511552441e-01	 1.035872005954248e+00	 3.616014016477272e+00
 6.016348627067392e-01	 1.041686906156670e+00	 3.488012767984376e+00
 5.916346365331837e-01	 1.047398942314525e+00	 3.232835756312364e+00
 5.815933338444745e-01	 1.053007712444251e+00	 2.877686456617630e+00
 5.715125191637872e-01	 1.058512845473778e+00	 2.450137098608315e+00
 5.613937595790757e-01	 1.063914001209887e+00	 1.978089512817199e+00
 5.512386239988413e-01	 1.069210870284345e+00	 1.489736648892956e+00
 5.410486824128533e-01	 1.074403174079097e+00	 1.013524822197542e+00
 5.308255051584843e-01	 1.079490664630763e+00	 5.781167397562933e-01
 5.205706621933194e-01	 1.084473124514775e+00	 2.123553513661695e-01
 6.260642957228550e-01	 1.037508904294649e+00	 3.602098730650378e+00
 6.160781920976480e-01	 1.043469636457968e+00	 3.542198623815434e+00
 6.060475694544087e-01	 1.049327186199125e+00	 3.329837952864150e+00
 5.959739963586048e-01	 1.055081117436697e+00	 2.995389915328996e+00
 5.858590454708666e-01	 1.060731025238754e+00	 2.569682502246484e+00
 5.757042927894054e-01	 1.066276535811583e+00	 2.083952720582831e+00
 5.655113168960212e-01	 1.071717306466803e+00	 1.569801462687449e+00
 5.552816982064163e-01	 1.077053025567106e+00	 1.059149094025369e+00
 5.450170182254896e-01	 1.082283412450898e+00	 5.841918248830592e-01
 5.347188588082935e-01	 1.087408217336100e+00	 1.773589261364583e-01
 5.243888014273070e-01	 1.092427221203431e+00	-1.287291564461793e-01
 6.306227467117619e-01	 1.045063133975582e+00	 3.577273154131932e+00
 6.205639330402520e-01	 1.051067266961488e+00	 3.442094243725900e+00
 6.104602762022779e-01	 1.056967466241380e+00	 3.163376433558404e+00
 6.003133561842231e-01	 1.062763292558668e+00	 2.773153711844331e+00
 5.901247570974519e-01	 1.068454338033056e+00	 2.303915129194217e+00
 5.798960664152104e-01	 1.074040226149189e+00	 1.788556147352001e+00
 5.696288742131447e-01	 1.079520611723519e+00	 1.260330698874869e+00
 5.593247724141563e-01	 1.084895180849667e+00	 7.528040333388493e-01
 5.489853540382736e-01	 1.090163650822499e+00	 2.998064197753314e-01
 5.386122124582282e-01	 1.095325770041237e+00	-6.461223089077472e-02
 5.282069406613931e-01	 1.100381317891887e+00	-3.062267655786357e-01
 6.351811977006688e-01	 1.052617363656515e+00	 3.517409004296820e+00
 6.250496739828554e-01	 1.058664897465007e+00	 3.321111938654970e+00
 6.148729829501459e-01	 1.064607746283636e+00	 2.996487875319446e+00
 6.046527160098388e-01	 1.070445467680639e+00	 2.575357553859877e+00
 5.943904687240321e-01	 1.076177650827360e+00	 2.089951629415689e+00
 5.840878400410048e-01	 1.081803916486794e+00	 1.572862248688879e+00
 5.737464315302498e-01	 1.087323916980236e+00	 1.056995428000453e+00
 5.633678466218669e-01	 1.092737336132228e+00	 5.755243079669555e-01
 5.529536898510138e-01	 1.098043889194100e+00	 1.618433531674454e-01
 5.425055661081007e-01	 1.103243322746374e+00	-1.504764410513344e-01
 5.320250798953944e-01	 1.108335414580344e+00	-3.277312787200466e-01
 6.397396486893757e-01	 1.060171593337648e+00	 3.424288780195834e+00
 6.295354149252589e-01	 1.066262527968727e+00	 3.184500940392738e+00
 6.192856896978135e-01	 1.072248026326091e+00	 2.836799023490652e+00
 6.089920758352526e-01	 1.078127642802811e+00	 2.410958658639632e+00
 5.986561803504076e-01	 1.083900963621862e+00	 1.937075400816193e+00
 5.882796136665905e-01	 1.089567606824599e+00	 1.445519597407531e+00
 5.778639888471403e-01	 1.095127222237152e+00	 9.668921750024692e-01
 5.674109208293543e-01	 1.100579491414989e+00	 5.319814146046231e-01
 5.569220256635192e-01	 1.105924127565901e+00	 1.717207770188882e-01
 5.463989197577240e-01	 1.111160875451711e+00	-8.285221833843709e-02
 5.358432191291275e-01	 1.116289511269000e+00	-2.012147775125261e-01
 6.442980996776826e-01	 1.067725823019180e+00	 3.299638674956197e+00
 6.340211558672625e-01	 1.073860158472846e+00	 3.037354631030788e+00
 6.236983964450806e-01	 1.079888306368947e+00	 2.691712150013722e+00
 6.133314356602655e-01	 1.085809817925383e+00	 2.288650876540144e+00
 6.029218919763797e-01	 1.091624276416765e+00	 1.854296104516616e+00
 5.924713872917698e-01	 1.097331297162804e+00	 1.414919961082354e+00
 5.819815461636195e-01	 1.102930527494469e+00	 9.969036557574734e-01
 5.714539950364240e-01	 1.108421646698149e+00	 6.267008513960504e-01
 5.608903614755986e-01	 1.113804365938102e+00	 3.307240563823229e-01
 5.502922734069102e-01	 1.119078428157448e+00	 1.347142402759793e-01
 5.396613583624100e-01	 1.124243607958056e+00	 6.437601534682375e-02
 6.488565506653894e-01	 1.075280052701313e+00	 3.145130869061336e+00
 6.385068968086663e-01	 1.081457788977566e+00	 2.884616281380284e+00
 6.281111031917473e-01	 1.087528586412402e+00	 2.568413152752886e+00
 6.176707954846771e-01	 1.093491993048554e+00	 2.216874108902455e+00
 6.071876036017496e-01	 1.099347589212268e+00	 1.850359401448162e+00
 5.966631609163449e-01	 1.105094987501609e+00	 1.489207400492481e+00
 5.860991034794915e-01	 1.110733832752385e+00	 1.153706324039010e+00
 5.754970692428820e-01	 1.116263801981910e+00	 8.639577348266819e-01
 5.648586972870605e-01	 1.121684604310903e+00	 6.393779680293854e-01
 5.541856270554715e-01	 1.126995980863785e+00	 4.991412102597203e-01
 5.434794975950584e-01	 1.132197704647713e+00	 4.623855094032675e-01
 6.534150016522964e-01	 1.082834282384246e+00	 2.962385737871145e+00
 6.429926377492695e-01	 1.089055419483085e+00	 2.731084558696166e+00
 6.325238099376145e-01	 1.095168866456658e+00	 2.473879324590990e+00
 6.220101553082884e-01	 1.101174168172526e+00	 2.203823339830855e+00
 6.114533152263187e-01	 1.107070902008571e+00	 1.933756288819822e+00
 6.008549345401182e-01	 1.112858677841215e+00	 1.676311626161724e+00
 5.902166607945597e-01	 1.118537138011101e+00	 1.443932128935550e+00
 5.795401434485343e-01	 1.124105957266471e+00	 1.247928242080765e+00
 5.688270330977138e-01	 1.129564842684504e+00	 1.099222959503123e+00
 5.580789807032205e-01	 1.134913533570922e+00	 1.008567433239911e+00
 5.472976368268903e-01	 1.140151801338169e+00	 9.865407298909311e-01
 5.091162444937753e-01	 1.060610834445606e+00	 2.296241757395254e+00
 4.990558975878610e-01	 1.065381561910370e+00	 1.861989999266168e+00
 4.889676388875799e-01	 1.070049197715796e+00	 1.549609086178372e+00
 4.788529987762085e-01	 1.074613617145979e+00	 1.349228173413155e+00
 4.687135045107921e-01	 1.079074724724561e+00	 1.250542178678686e+00
 4.585506795500227e-01	 1.083432454007551e+00	 1.242832164679565e+00
 4.483660428917197e-01	 1.087686767358405e+00	 1.314986552341316e+00
 4.381611084204268e-01	 1.091837655705804e+00	 1.455523100444478e+00
 4.279373842656258e-01	 1.095885138284579e+00	 1.652611585046906e+00
 4.176963721710401e-01	 1.099829262360247e+00	 1.894097110016978e+00
 4.074395668754807e-01	 1.103670102937638e+00	 2.167523978271038e+00
 5.129343837263705e-01	 1.068564931136062e+00	 1.416710096263307e+00
 5.027985888150827e-01	 1.073371436877250e+00	 1.050496190289340e+00
 4.926346727837358e-01	 1.078074077818739e+00	 8.468831410957663e-01
 4.824441774927757e-01	 1.082672728309315e+00	 7.865755770468046e-01
 4.722286416529720e-01	 1.087167292156603e+00	 8.496451762634809e-01
 4.619896001482556e-01	 1.091557702418317e+00	 1.015567091002719e+00
 4.517285833682293e-01	 1.095843921175665e+00	 1.263257251618878e+00
 4.414471165508738e-01	 1.100025939289304e+00	 1.571110458726107e+00
 4.311467191359477e-01	 1.104103776138325e+00	 1.917039170135942e+00
 4.208289041295602e-01	 1.108077479342722e+00	 2.278512887481783e+00
 4.104951774803756e-01	 1.111947124469834e+00	 2.632559899793493e+00
 5.167525229596127e-01	 1.076519027825718e+00	 7.248289492079193e-01
 5.065412800429018e-01	 1.081361311843331e+00	 4.350541845972061e-01
 4.963017066804311e-01	 1.086098957920881e+00	 3.342427869206940e-01
 4.860353562098177e-01	 1.090731839471855e+00	 3.959921682737353e-01
 4.757437787955561e-01	 1.095259859587853e+00	 5.931140112260523e-01
 4.654285207468167e-01	 1.099682950828301e+00	 8.976830264408673e-01
 4.550911238449873e-01	 1.104001074992155e+00	 1.281086634747731e+00
 4.447331246814870e-01	 1.108214222872052e+00	 1.714075461052509e+00
 4.343560540063511e-01	 1.112322413991341e+00	 2.166738582668069e+00
 4.239614360880767e-01	 1.116325696324497e+00	 2.607495220911943e+00
 4.135507880851813e-01	 1.120224146001366e+00	 3.005096165713259e+00
 5.205706621933194e-01	 1.084473124514775e+00	 2.123553513661695e-01
 5.102839712711407e-01	 1.089351186808811e+00	 2.349005267963777e-03
 4.999687405774952e-01	 1.094123838022425e+00	-5.351022913723358e-03
 4.896265349271711e-01	 1.098790950633798e+00	 1.580088554659175e-01
 4.792589159383892e-01	 1.103352427018510e+00	 4.602890444690539e-01
 4.688674413455609e-01	 1.107808199237697e+00	 8.685141934814711e-01
 4.584536643218597e-01	 1.112158228808068e+00	 1.348879835141546e+00
 4.480191328121434e-01	 1.116402506454235e+00	 1.865693143757686e+00
 4.375653888767260e-01	 1.120541051843811e+00	 2.383249684488109e+00
 4.270939680464926e-01	 1.124573913305746e+00	 2.865818858439741e+00
 4.166063986898157e-01	 1.128501167532400e+00	 3.277223858549394e+00
 5.243888014273070e-01	 1.092427221203431e+00	-1.287291564461793e-01
 5.140266624996221e-01	 1.097341061773892e+00	-2.605623702585365e-01
 5.036357744747570e-01	 1.102148718123570e+00	-1.884570869448748e-01
 4.932177136446722e-01	 1.106850061795343e+00	 5.370750261540966e-02
 4.827740530813169e-01	 1.111444994448772e+00	 4.310916561761476e-01
 4.723063619443430e-01	 1.115933447646702e+00	 9.069687025671276e-01
 4.618162047987116e-01	 1.120315382623595e+00	 1.443879895239750e+00
 4.513051409427196e-01	 1.124590790036041e+00	 2.004370903777594e+00
 4.407747237469615e-01	 1.128759689695915e+00	 2.550387369390540e+00
 4.302265000047110e-01	 1.132822130286645e+00	 3.043338714772958e+00
 4.196620092941962e-01	 1.136778189063103e+00	 3.444161437624410e+00
 5.282069406613931e-01	 1.100381317891887e+00	-3.062267655786357e-01
 5.177693537281687e-01	 1.105330936738773e+00	-3.662646051523276e-01
 5.073028083720457e-01	 1.110173598224515e+00	-2.311714901858621e-01
 4.968088923621584e-01	 1.114909172956688e+00	 6.417944460951205e-02
 4.862891902241845e-01	 1.119537561878837e+00	 4.832144179379665e-01
 4.757452825430177e-01	 1.124058696055511e+00	 9.893881369316450e-01
 4.651787452754081e-01	 1.128472536438929e+00	 1.545445745929658e+00
 4.545911490730932e-01	 1.132779073617659e+00	 2.113460689990089e+00
 4.439840586169475e-01	 1.136978327547836e+00	 2.654900265139761e+00
 4.333590319626351e-01	 1.141070347267370e+00	 3.130690712850622e+00
 4.227176198982409e-01	 1.145055210593639e+00	 3.501281764938057e+00
 5.320250798953944e-01	 1.108335414580344e+00	-3.277312787200466e-01
 5.215120449566026e-01	 1.113320811703653e+00	-3.271302503887842e-01
 5.109698422691901e-01	 1.118198478325459e+00	-1.507159507125211e-01
 5.004000710794660e-01	 1.122968284118035e+00	 1.681721268171310e-01
 4.898043273668365e-01	 1.127630129308900e+00	 5.955324175404489e-01
 4.791842031414403e-01	 1.132183944464322e+00	 1.096589925973051e+00
 4.685412857518150e-01	 1.136629690254264e+00	 1.635860222832772e+00
 4.578771572031405e-01	 1.140967357199278e+00	 2.177213159465870e+00
 4.471933934865731e-01	 1.145196965399758e+00	 2.683936199867182e+00
 4.364915639201679e-01	 1.149318564248094e+00	 3.118797275494272e+00
 4.257732305018673e-01	 1.153332232124176e+00	 3.444107073118150e+00
 5.358432191291275e-01	 1.116289511269000e+00	-2.012147775125243e-01
 5.252547361847466e-01	 1.121310686668734e+00	-1.573677819865509e-01
 5.146368761660197e-01	 1.126223358426604e+00	 3.551337942572420e-02
 5.039912497964316e-01	 1.131027395279580e+00	 3.480100101115102e-01
 4.933194645091190e-01	 1.135722696739162e+00	 7.499417767966321e-01
 4.826231237394649e-01	 1.140309192873327e+00	 1.210425263707816e+00
 4.719038262277974e-01	 1.144786844069791e+00	 1.697932309361394e+00
 4.611631653327389e-01	 1.149155640781084e+00	 2.180348030652555e+00
 4.504027283557281e-01	 1.153415603251863e+00	 2.625028443883729e+00
 4.396240958772127e-01	 1.157566781228993e+00	 2.998857597376808e+00
 4.288288411049933e-01	 1.161609253654879e+00	 3.268304135332441e+00
 5.396613583624100e-01	 1.124243607958056e+00	 6.437601534682291e-02
 5.289974274124233e-01	 1.129300561634215e+00	 1.309669727841433e-01
 5.183039100623634e-01	 1.134248238528148e+00	 3.131235599587519e-01
 5.075824285128918e-01	 1.139086506441523e+00	 5.871915878886558e-01
 4.968346016508768e-01	 1.143815264169820e+00	 9.288741916668783e-01
 4.860620443369466e-01	 1.148434441282723e+00	 1.313281314833628e+00
 4.752663667032207e-01	 1.152943997885704e+00	 1.714978930287820e+00
 4.644491734617653e-01	 1.157343924363267e+00	 2.108037917452092e+00
 4.536120632243023e-01	 1.161634241104332e+00	 2.466082520307184e+00
 4.427566278336725e-01	 1.165814998210243e+00	 2.762338315818078e+00
 4.318844517075363e-01	 1.169886275185913e+00	 2.969679627158021e+00
 5.434794975950584e-01	 1.132197704647713e+00	 4.623855094032693e-01
 5.327401186394553e-01	 1.137290436600296e+00	 5.271004838939161e-01
 5.219709439580504e-01	 1.142273118630292e+00	 6.681782994666750e-01
 5.111736072286834e-01	 1.147145617604063e+00	 8.697032607816635e-01
 5.003497387919552e-01	 1.151907831601071e+00	 1.115278453377346e+00
 4.895009649337404e-01	 1.156559689692707e+00	 1.388062749094629e+00
 4.786289071779504e-01	 1.161101151702194e+00	 1.670807495335289e+00
 4.677351815900966e-01	 1.165532207946015e+00	 1.945892828478354e+00
 4.568213980921848e-01	 1.169852878957349e+00	 2.195363556530524e+00
 4.458891597894507e-01	 1.174063215192018e+00	 2.400964560792796e+00
 4.349400623094145e-01	 1.178163296717446e+00	 2.544175670966526e+00
 5.472976368268903e-01	 1.140151801338169e+00	 9.865407298909311e-01
 5.364828098656651e-01	 1.145280311567177e+00	 1.020585515172449e+00
 5.256379778529098e-01	 1.150297998733234e+00	 1.087155209272342e+00
 5.147647859436432e-01	 1.155204728767399e+00	 1.180002598921519e+00
 5.038648759321993e-01	 1.160000399033112e+00	 1.292602723285273e+00
 4.929398855297008e-01	 1.164684938103473e+00	 1.418174030081643e+00
 4.819914476518521e-01	 1.169258305519455e+00	 1.549699156162333e+00
 4.710211897176096e-01	 1.173720491529516e+00	 1.679945299009908e+00
 4.600307329592656e-01	 1.178071516811095e+00	 1.801484150117584e+00
 4.490216917444500e-01	 1.182311432174493e+00	 1.906711365630289e+00
 4.379956729105452e-01	 1.186440318249641e+00	 1.987865553910593e+00
 4.074395668754807e-01	 1.103670102937638e+00	 2.167523978271038e+00
 3.971702024556140e-01	 1.107407135758633e+00	 2.427082700898797e+00
 3.868880145256408e-01	 1.111041151327425e+00	 2.635434887958080e+00
 3.765944720216519e-01	 1.114572305136289e+00	 2.791926455321952e+00
 3.662910345483225e-01	 1.118000779086037e+00	 2.896971768894129e+00
 3.559791518240072e-01	 1.121326781123692e+00	 2.959273564146893e+00
 3.456602631396047e-01	 1.124550544867359e+00	 2.982015243671241e+00
 3.353357968314888e-01	 1.127672329218821e+00	 2.966811878345363e+00
 3.250071697687858e-01	 1.130692417964432e+00	 2.915634203400457e+00
 3.146757868552502e-01	 1.133611119364855e+00	 2.830783421275902e+00
 3.043430405459638e-01	 1.136428765734195e+00	 2.714866502571807e+00
 4.104951774803756e-01	 1.111947124469834e+00	 2.632559899793492e+00
 4.001487975191530e-01	 1.115712183329848e+00	 2.931148382307420e+00
 3.897894978773230e-01	 1.119373452355373e+00	 3.145463752647273e+00
 3.794187585073288e-01	 1.122931088204793e+00	 3.280320187097037e+00
 3.690380499602168e-01	 1.126385274143079e+00	 3.340940471739255e+00
 3.586488328265704e-01	 1.129736219676757e+00	 3.339582598625483e+00
 3.482525571913153e-01	 1.132984160175946e+00	 3.286687139859086e+00
 3.378506621026985e-01	 1.136129356484066e+00	 3.189115756979088e+00
 3.274445750557212e-01	 1.139172094515729e+00	 3.054172632707499e+00
 3.170357114902763e-01	 1.142112684843400e+00	 2.889570293666663e+00
 3.066254743042259e-01	 1.144951462273381e+00	 2.703396024607427e+00
 4.135507880851813e-01	 1.120224146001366e+00	 3.005096165713258e+00
 4.031273925825187e-01	 1.124017230900445e+00	 3.316417177340218e+00
 3.926909812287495e-01	 1.127705753382754e+00	 3.524270954044514e+00
 3.822430449926698e-01	 1.131289871272786e+00	 3.636587360990156e+00
 3.717850653716988e-01	 1.134769769199676e+00	 3.661701566119774e+00
 3.613185138286493e-01	 1.138145658229445e+00	 3.612523039105750e+00
 3.508448512424743e-01	 1.141417775484228e+00	 3.505464305506656e+00
 3.403655273732957e-01	 1.144586383749080e+00	 3.351028668212389e+00
 3.298819803419893e-01	 1.147651771066872e+00	 3.160136257974071e+00
 3.193956361245884e-01	 1.150614250321871e+00	 2.944178577913744e+00
 3.089079080617355e-01	 1.153474158812572e+00	 2.714978508233084e+00
 4.166063986898157e-01	 1.128501167532400e+00	 3.277223858549395e+00
 4.061059876456443e-01	 1.132322278470578e+00	 3.582193050794308e+00
 3.955924645798691e-01	 1.136038054409710e+00	 3.775970607524092e+00
 3.850673314776412e-01	 1.139648654340397e+00	 3.868032524388747e+00
 3.745320807827524e-01	 1.143154264255938e+00	 3.868323726823585e+00
 3.639881948302449e-01	 1.146555096781847e+00	 3.789289262385044e+00
 3.534371452931008e-01	 1.149851390792280e+00	 3.650358636096047e+00
 3.428803926433168e-01	 1.153043411013923e+00	 3.464655932357911e+00
 3.323193856276437e-01	 1.156131447617902e+00	 3.245039003316534e+00
 3.217555607582559e-01	 1.159115815800288e+00	 3.004885400755507e+00
 3.111903418185772e-01	 1.161996855351768e+00	 2.758048417606039e+00
 4.196620092941962e-01	 1.136778189063103e+00	 3.444161437624410e+00
 4.090845827084626e-01	 1.140627326040400e+00	 3.728534310620030e+00
 3.984939479306320e-01	 1.144370355436380e+00	 3.904570497630255e+00
 3.878916179622100e-01	 1.148007437407754e+00	 3.981759483442039e+00
 3.772790961933614e-01	 1.151538759311978e+00	 3.970096601950449e+00
 3.666578758313588e-01	 1.154964535334063e+00	 3.880746349383894e+00
 3.560294393432137e-01	 1.158285006100180e+00	 3.733027677111011e+00
 3.453952579127971e-01	 1.161500438278650e+00	 3.541744671748853e+00
 3.347567909127369e-01	 1.164611124168855e+00	 3.320052811316818e+00
 3.241154853913476e-01	 1.167617381278668e+00	 3.081661041440918e+00
 3.134727755748354e-01	 1.170519551890967e+00	 2.840786270015952e+00
 4.227176198982409e-01	 1.145055210593639e+00	 3.501281764938057e+00
 4.120631777709073e-01	 1.148932373610068e+00	 3.755512526449345e+00
 4.013954312809877e-01	 1.152702656462910e+00	 3.913976243045743e+00
 3.907159044463422e-01	 1.156366220474983e+00	 3.984679100272633e+00
 3.800261116035095e-01	 1.159923254367906e+00	 3.976143652633890e+00
 3.693275568319923e-01	 1.163373973886183e+00	 3.897442978992002e+00
 3.586217333928314e-01	 1.166718621408003e+00	 3.764788319550801e+00
 3.479101231817733e-01	 1.169957465543320e+00	 3.593697546986621e+00
 3.371941961973218e-01	 1.173090800719770e+00	 3.396020700373433e+00
 3.264754100239330e-01	 1.176118946757029e+00	 3.184180632020916e+00
 3.157552093305945e-01	 1.179042248430168e+00	 2.971128342551860e+00
 4.257732305018673e-01	 1.153332232124176e+00	 3.444107073118151e+00
 4.150417728329115e-01	 1.157237421179736e+00	 3.663212571021901e+00
 4.042969146308859e-01	 1.161034957489440e+00	 3.807995486336406e+00
 3.935401909300050e-01	 1.164725003542213e+00	 3.883516744102323e+00
 3.827731270131807e-01	 1.168307749423834e+00	 3.895338058447799e+00
 3.719972378321467e-01	 1.171783412438303e+00	 3.849504882783806e+00
 3.612140274419730e-01	 1.175152236715827e+00	 3.756629933821639e+00
 3.504249884502812e-01	 1.178414492807989e+00	 3.631585927766380e+00
 3.396316014814514e-01	 1.181570477270684e+00	 3.483469283904547e+00
 3.288353346560809e-01	 1.184620512235391e+00	 3.321835376054448e+00
 3.180376430859393e-01	 1.187564944969370e+00	 3.156775981243919e+00
 4.288288411049933e-01	 1.161609253654879e+00	 3.268304135332440e+00
 4.180203678944087e-01	 1.165542468749559e+00	 3.451732647679627e+00
 4.071983979802761e-01	 1.169367258516111e+00	 3.590341893380272e+00
 3.963644774131643e-01	 1.173083786609569e+00	 3.684819413552293e+00
 3.855201424223589e-01	 1.176692244479873e+00	 3.736312150411399e+00
 3.746669188318235e-01	 1.180192850990518e+00	 3.746415754451979e+00
 3.638063214906573e-01	 1.183585852023727e+00	 3.719226970016562e+00
 3.529398537183571e-01	 1.186871520072716e+00	 3.666162526481025e+00
 3.420690067651786e-01	 1.190050153821637e+00	 3.592620778243474e+00
 3.311952592878606e-01	 1.193122077713771e+00	 3.503743309748521e+00
 3.203200768409540e-01	 1.196087641508569e+00	 3.405204532506551e+00
 4.318844517075363e-01	 1.169886275185913e+00	 2.969679627158022e+00
 4.209989629553321e-01	 1.173847516319692e+00	 3.121184304618348e+00
 4.100998813291079e-01	 1.177699559543065e+00	 3.264638971905172e+00
 3.991887638957872e-01	 1.181442569677181e+00	 3.394962546401486e+00
 3.882671578310279e-01	 1.185076739536136e+00	 3.507466434234252e+00
 3.773365998310240e-01	 1.188602289542922e+00	 3.597852583622352e+00
 3.663986155389030e-01	 1.192019467331779e+00	 3.662951051008727e+00
 3.554547189860368e-01	 1.195328547337558e+00	 3.707873521207732e+00
 3.445064120485563e-01	 1.198529830372667e+00	 3.733404524547431e+00
 3.335551839193410e-01	 1.201623643192187e+00	 3.738759628191894e+00
 3.226025105957234e-01	 1.204610338047766e+00	 3.723671915587440e+00
 4.349400623094145e-01	 1.178163296717446e+00	 2.544175670966526e+00
 4.239775580156150e-01	 1.182152563890288e+00	 2.671692436546162e+00
 4.130013646773309e-01	 1.186031860570447e+00	 2.834423718028434e+00
 4.020130503778399e-01	 1.189801352745175e+00	 3.020156532171280e+00
 3.910141732391717e-01	 1.193461234592733e+00	 3.216978223950346e+00
 3.800062808297496e-01	 1.197011728095609e+00	 3.413285627674265e+00
 3.689909095867292e-01	 1.200453082640061e+00	 3.597882583298408e+00
 3.579695842533565e-01	 1.203785574602574e+00	 3.766870193186071e+00
 3.469438173316374e-01	 1.207009506923811e+00	 3.915468048617582e+00
 3.359151085505915e-01	 1.210125208670659e+00	 4.035486598068389e+00
 3.248849443503319e-01	 1.213133034586957e+00	 4.119226853675191e+00
 4.379956729105452e-01	 1.186440318249641e+00	 1.987865553910593e+00
 4.269561530751904e-01	 1.190457611461505e+00	 2.103395274361678e+00
 4.159028480248949e-01	 1.194364161598395e+00	 2.303150099197159e+00
 4.048373368592890e-01	 1.198160135813678e+00	 2.566452942047356e+00
 3.937611886467740e-01	 1.201845729649776e+00	 2.872809904966412e+00
 3.826759618280015e-01	 1.205421166648674e+00	 3.201932882086324e+00
 3.715832036341543e-01	 1.208886697948648e+00	 3.533761180735885e+00
 3.604844495203520e-01	 1.212242601867819e+00	 3.853020102495069e+00
 3.493812226144747e-01	 1.215489183475108e+00	 4.148187681194269e+00
 3.382750331816809e-01	 1.218626774149204e+00	 4.402283077042125e+00
 3.271673781048640e-01	 1.221655731126142e+00	 4.598716780333606e+00
 3.043430405459638e-01	 1.136428765734195e+00	 2.714866502571807e+00
 2.940103105200784e-01	 1.139145713255937e+00	 2.596785681526363e+00
 2.836789636376346e-01	 1.141762342280760e+00	 2.504413785835341e+00
 2.733503530559896e-01	 1.144279056132160e+00	 2.439146564173395e+00
 2.630258176635664e-01	 1.146696280400205e+00	 2.402525472606545e+00
 2.527066816735784e-01	 1.149014462474888e+00	 2.396223369276705e+00
 2.423942542335408e-01	 1.151234071072297e+00	 2.422030718904371e+00
 2.320898290506398e-01	 1.153355595754177e+00	 2.481842305233857e+00
 2.217946840330177e-01	 1.155379546441417e+00	 2.577644446848724e+00
 2.115100809470059e-01	 1.157306452922045e+00	 2.711502709354575e+00
 2.012372650903192e-01	 1.159136864354258e+00	 2.885550104760669e+00
 3.066254743042259e-01	 1.144951462273381e+00	 2.703396024607427e+00
 2.962152535236881e-01	 1.147688785660359e+00	 2.527101881304786e+00
 2.858064262595311e-01	 1.150325038207474e+00	 2.387190809714688e+00
 2.754003558171759e-01	 1.152860626262969e+00	 2.284668881645354e+00
 2.649983911260981e-01	 1.155295978608647e+00	 2.220639742569600e+00
 2.546018663305073e-01	 1.157631545989724e+00	 2.196291686590441e+00
 2.442121003959286e-01	 1.159867800637453e+00	 2.212885297993652e+00
 2.338303967317625e-01	 1.162005235785069e+00	 2.271741652895766e+00
 2.234580428298802e-01	 1.164044365177641e+00	 2.374231071738907e+00
 2.130963099192855e-01	 1.165985722576369e+00	 2.521762410914479e+00
 2.027464526368590e-01	 1.167829861257889e+00	 2.715772879613781e+00
 3.089079080617355e-01	 1.153474158812572e+00	 2.714978508233084e+00
 2.984201965265155e-01	 1.156231858064867e+00	 2.503557435677338e+00
 2.879338888806232e-01	 1.158887734134355e+00	 2.333498242655704e+00
 2.774503585775424e-01	 1.161442196394022e+00	 2.205817349376026e+00
 2.669709645878010e-01	 1.163895676817406e+00	 2.121589509825310e+00
 2.564970509866032e-01	 1.166248629504951e+00	 2.081935577060838e+00
 2.460299465574828e-01	 1.168501530203065e+00	 2.088010897056061e+00
 2.355709644120541e-01	 1.170654875816480e+00	 2.140994320844800e+00
 2.251214016259160e-01	 1.172709183914441e+00	 2.242077821854850e+00
 2.146825388907438e-01	 1.174664992231320e+00	 2.392456702778432e+00
 2.042556401825828e-01	 1.176522858162191e+00	 2.593320374089383e+00
 3.111903418185772e-01	 1.161996855351768e+00	 2.758048417606039e+00
 3.006251395286592e-01	 1.164774930469441e+00	 2.532607904226068e+00
 2.900613515010231e-01	 1.167450430061359e+00	 2.348113323631853e+00
 2.795003613372141e-01	 1.170023766525256e+00	 2.205981787889708e+00
 2.689435380488112e-01	 1.172495375026404e+00	 2.107658283112360e+00
 2.583922356420127e-01	 1.174865713020469e+00	 2.054603444167704e+00
 2.478477927183597e-01	 1.177135259769021e+00	 2.048282025093282e+00
 2.373115320916792e-01	 1.179304515848281e+00	 2.090152052032338e+00
 2.267847604212971e-01	 1.181374002651673e+00	 2.181654642525380e+00
 2.162687678615592e-01	 1.183344261886740e+00	 2.324204472337945e+00
 2.057648277276742e-01	 1.185215855066995e+00	 2.519180868678858e+00
 3.134727755748354e-01	 1.170519551890967e+00	 2.840786270015952e+00
 3.028300825302183e-01	 1.173318002874057e+00	 2.620511888971516e+00
 2.921888141208432e-01	 1.176013125988446e+00	 2.435664688580388e+00
 2.815503640963159e-01	 1.178605336656612e+00	 2.288443414513202e+00
 2.709161115092655e-01	 1.181095073235562e+00	 2.181052895803343e+00
 2.602874202968823e-01	 1.183482796536182e+00	 2.115691156878128e+00
 2.496656388787153e-01	 1.185768989335205e+00	 2.094537297616265e+00
 2.390520997708024e-01	 1.187954155880343e+00	 2.119740126144094e+00
 2.284481192161953e-01	 1.190038821389194e+00	 2.193407525937557e+00
 2.178549968319098e-01	 1.192023531542475e+00	 2.317596535999020e+00
 2.072740152723170e-01	 1.193908851972134e+00	 2.494304120427618e+00
 3.157552093305945e-01	 1.179042248430168e+00	 2.971128342551860e+00
 3.050350255312917e-01	 1.181861075278695e+00	 2.773338605180918e+00
 2.943162767401960e-01	 1.184575821915574e+00	 2.600638122932476e+00
 2.836003668549725e-01	 1.187186906788029e+00	 2.456379085024452e+00
 2.728886849692993e-01	 1.189694771444798e+00	 2.343906533772319e+00
 2.621826049513589e-01	 1.192099880051993e+00	 2.266544150434463e+00
 2.514834850387057e-01	 1.194402718901503e+00	 2.227580886562801e+00
 2.407926674495880e-01	 1.196603795912533e+00	 2.230258424279869e+00
 2.301114780107828e-01	 1.198703640126860e+00	 2.277759445558989e+00
 2.194412258019741e-01	 1.200702801198366e+00	 2.373196687608438e+00
 2.087832028166949e-01	 1.202601848877441e+00	 2.519602758850687e+00
 3.180376430859393e-01	 1.187564944969370e+00	 3.156775981243919e+00
 3.072399685319786e-01	 1.190404147683333e+00	 2.996975144922532e+00
 2.964437393591938e-01	 1.193138517842703e+00	 2.847382083572675e+00
 2.856503696133087e-01	 1.195768476919445e+00	 2.712865368262888e+00
 2.748612584290495e-01	 1.198294469654034e+00	 2.598281647048253e+00
 2.640777896055892e-01	 1.200716963567804e+00	 2.508459449490979e+00
 2.533013311984869e-01	 1.203036448467802e+00	 2.448183919315944e+00
 2.425332351282008e-01	 1.205253435944724e+00	 2.422182458129281e+00
 2.317748368052311e-01	 1.207368458864524e+00	 2.435111259551350e+00
 2.210274547719304e-01	 1.209382070854256e+00	 2.491542709926929e+00
 2.102923903609918e-01	 1.211294845782747e+00	 2.595953628972618e+00
 3.203200768409540e-01	 1.196087641508569e+00	 3.405204532506551e+00
 3.094449115323776e-01	 1.198947220087949e+00	 3.297133448690602e+00
 2.985712019779490e-01	 1.201701213769790e+00	 3.180113001727020e+00
 2.877003723714495e-01	 1.204350047050801e+00	 3.060882462032111e+00
 2.768338318886523e-01	 1.206894167863191e+00	 2.946172751050232e+00
 2.659729742597197e-01	 1.209334047083517e+00	 2.842687617471957e+00
 2.551191773582150e-01	 1.211670178033985e+00	 2.757085829361488e+00
 2.442738028068050e-01	 1.213903075976785e+00	 2.695964365414077e+00
 2.334381955997127e-01	 1.216033277602045e+00	 2.665842584721927e+00
 2.226136837419571e-01	 1.218061340509991e+00	 2.673147350992067e+00
 2.118015779053913e-01	 1.219987842687886e+00	 2.724199084128928e+00
 3.226025105957234e-01	 1.204610338047766e+00	 3.723671915587440e+00
 3.116498545325878e-01	 1.207490292492523e+00	 3.679356999557402e+00
 3.006986645965741e-01	 1.210263909696794e+00	 3.602920377628673e+00
 2.897503751295196e-01	 1.212931617182036e+00	 3.503317958154246e+00
 2.788064053482435e-01	 1.215493866072189e+00	 3.389509122872230e+00
 2.678681589138971e-01	 1.217951130599036e+00	 3.270434635804396e+00
 2.569370235180463e-01	 1.220303907599940e+00	 3.154995660979346e+00
 2.460143704855653e-01	 1.222552716008587e+00	 3.052033873267225e+00
 2.351015543943990e-01	 1.224698096339278e+00	 2.970312642471753e+00
 2.241999127122325e-01	 1.226740610165411e+00	 2.918499267109821e+00
 2.133107654500772e-01	 1.228680839592689e+00	 2.905148231017263e+00
 3.248849443503319e-01	 1.213133034586957e+00	 4.119226853675191e+00
 3.138547975327082e-01	 1.216033364897031e+00	 4.149027253496743e+00
 3.028261272151812e-01	 1.218826605623674e+00	 4.119771677199560e+00
 2.918003778876437e-01	 1.221513187313088e+00	 4.042970464093315e+00
 2.807789788079597e-01	 1.224093564280949e+00	 3.930157397777993e+00
 2.697633435682682e-01	 1.226568214114262e+00	 3.792863716473399e+00
 2.587548696781368e-01	 1.228937637165553e+00	 3.642593330228564e+00
 2.477549381646460e-01	 1.231202356039998e+00	 3.490799231125388e+00
 2.367649131894622e-01	 1.233362915076078e+00	 3.348861078117383e+00
 2.257861416829349e-01	 1.235419879820361e+00	 3.228063934115541e+00
 2.148199529952333e-01	 1.237373836496991e+00	 3.139578129346313e+00
 3.271673781048640e-01	 1.221655731126142e+00	 4.598716780333606e+00
 3.160597405328376e-01	 1.224576437301452e+00	 4.711369818761422e+00
 3.049535898338829e-01	 1.227389301550389e+00	 4.734517040415517e+00
 2.938503806459468e-01	 1.230094757443897e+00	 4.682553088151017e+00
 2.827515522679372e-01	 1.232693262489390e+00	 4.569924070778179e+00
 2.716585282229795e-01	 1.235185297629098e+00	 4.411097051155677e+00
 2.605727158386424e-01	 1.237571366730709e+00	 4.220530844360178e+00
 2.494955058442119e-01	 1.239851996070890e+00	 4.012648114623065e+00
 2.384282719850742e-01	 1.242027733812301e+00	 3.801808754886324e+00
 2.273723706542426e-01	 1.244099149474684e+00	 3.602284528453826e+00
 2.163291405410435e-01	 1.246066833400622e+00	 3.428234948299606e+00
 2.012372650903192e-01	 1.159136864354258e+00	 2.885550104760669e+00
 1.909757223370208e-01	 1.160871635377850e+00	 3.070975641425818e+00
 1.807284145044399e-01	 1.162511032589169e+00	 3.236911659673154e+00
 1.704965389236662e-01	 1.164055659696293e+00	 3.382570647034115e+00
 1.602812752409672e-01	 1.165506137775708e+00	 3.507188325688086e+00
 1.500837851699626e-01	 1.166863104757728e+00	 3.610017418377695e+00
 1.399052122595189e-01	 1.168127214910092e+00	 3.690321755449177e+00
 1.297466816772556e-01	 1.169299138320258e+00	 3.747370702287641e+00
 1.196093000085310e-01	 1.170379560376875e+00	 3.780433886336927e+00
 1.094941550707644e-01	 1.171369181250904e+00	 3.788776203004755e+00
 9.940231574293544e-02	 1.172268715376846e+00	 3.771653080041230e+00
 2.027464526368590e-01	 1.167829861257889e+00	 2.715772879613781e+00
 1.924079530009566e-01	 1.169577642271411e+00	 2.926360416289985e+00
 1.820837950411904e-01	 1.171229334212641e+00	 3.121011168158931e+00
 1.717751850680933e-01	 1.172785545317202e+00	 3.297432578970791e+00
 1.614833115747479e-01	 1.174246901319383e+00	 3.453409470705638e+00
 1.512093449871021e-01	 1.175614044933695e+00	 3.586798569493522e+00
 1.409544374301233e-01	 1.176887635334593e+00	 3.695523296384031e+00
 1.307197225096806e-01	 1.178068347634899e+00	 3.777568801635150e+00
 1.205063151100237e-01	 1.179156872363373e+00	 3.830977221272494e+00
 1.103153112067120e-01	 1.180153914941946e+00	 3.853843134944611e+00
 1.001477876948355e-01	 1.181060195163063e+00	 3.844309204554214e+00
 2.042556401825828e-01	 1.176522858162191e+00	 2.593320374089383e+00
 1.938401836640811e-01	 1.178283649165676e+00	 2.814971690340392e+00
 1.834391755771361e-01	 1.179947635836845e+00	 3.024542686512201e+00
 1.730538312117262e-01	 1.181515430938867e+00	 3.218665648119757e+00
 1.626853479077519e-01	 1.182987664863832e+00	 3.394093068154532e+00
 1.523349048034916e-01	 1.184364985110445e+00	 3.547692667797282e+00
 1.420036626000162e-01	 1.185648055759887e+00	 3.676442626659473e+00
 1.316927633414469e-01	 1.186837556950337e+00	 3.777427000383930e+00
 1.214033302109270e-01	 1.187934184350669e+00	 3.847831303648295e+00
 1.111364673421585e-01	 1.188938648633787e+00	 3.884938237026233e+00
 1.008932596463443e-01	 1.189851674950080e+00	 3.886123536756542e+00
 2.057648277276742e-01	 1.185215855066995e+00	 2.519180868678858e+00
 1.952724143265823e-01	 1.186989656060471e+00	 2.738203197652636e+00
 1.847945561124680e-01	 1.188665937461601e+00	 2.949157669933763e+00
 1.743324773547567e-01	 1.190245316561098e+00	 3.148022240587353e+00
 1.638873842401690e-01	 1.191728428408858e+00	 3.330926765302772e+00
 1.534604646193161e-01	 1.193115925287784e+00	 3.494148254498415e+00
 1.430528877693740e-01	 1.194408476185774e+00	 3.634106302356340e+00
 1.326658041727185e-01	 1.195606766266372e+00	 3.747358667537145e+00
 1.223003453113881e-01	 1.196711496338564e+00	 3.830596982641564e+00
 1.119576234772293e-01	 1.197723382326228e+00	 3.880642570006608e+00
 1.016387315975596e-01	 1.198643154737697e+00	 3.894442342134723e+00
 2.072740152723170e-01	 1.193908851972134e+00	 2.494304120427618e+00
 1.967046449886486e-01	 1.195695662955619e+00	 2.697398725342641e+00
 1.861499366473765e-01	 1.197384239086723e+00	 2.896450577686427e+00
 1.756111234973764e-01	 1.198975202183708e+00	 3.087195328249729e+00
 1.650894205721892e-01	 1.200469191954271e+00	 3.265541258173298e+00
 1.545860244347607e-01	 1.201866865465514e+00	 3.427564508785677e+00
 1.441021129383737e-01	 1.203168896612058e+00	 3.569504472268318e+00
 1.336388450036595e-01	 1.204375975582805e+00	 3.687759318575728e+00
 1.231973604115540e-01	 1.205488808326859e+00	 3.778881634429223e+00
 1.127787796120495e-01	 1.206508116019070e+00	 3.839574150807780e+00
 1.023842035485794e-01	 1.207434634525714e+00	 3.866685536160817e+00
 2.087832028166949e-01	 1.202601848877441e+00	 2.519602758850687e+00
 1.981368756504679e-01	 1.204401669850942e+00	 2.693853896413479e+00
 1.875053171820532e-01	 1.206102540712028e+00	 2.867960888918941e+00
 1.768897696397768e-01	 1.207705087806507e+00	 3.037820554132032e+00
 1.662914569040022e-01	 1.209209955499877e+00	 3.199512273779584e+00
 1.557115842500103e-01	 1.210617805643440e+00	 3.349292945137612e+00
 1.451513381071916e-01	 1.211929317038539e+00	 3.483592099620690e+00
 1.346118858344344e-01	 1.213145184899439e+00	 3.599007162234143e+00
 1.240943755115722e-01	 1.214266120315354e+00	 3.692298826187812e+00
 1.135999357467444e-01	 1.215292849712110e+00	 3.760386517632311e+00
 1.031296754995014e-01	 1.216226114313930e+00	 3.800343926346584e+00
 2.102923903609918e-01	 1.211294845782747e+00	 2.595953628972618e+00
 1.995691063122282e-01	 1.213107676746267e+00	 2.728817882179303e+00
 1.888606977166885e-01	 1.214820842337333e+00	 2.865175037220670e+00
 1.781684157821497e-01	 1.216434973429306e+00	 3.001478232778081e+00
 1.674934932357980e-01	 1.217950719045483e+00	 3.134362471114639e+00
 1.568371440652499e-01	 1.219368745821367e+00	 3.260639041041103e+00
 1.462005632760045e-01	 1.220689737465020e+00	 3.377290134123343e+00
 1.355849266652071e-01	 1.221914394216071e+00	 3.481463626179274e+00
 1.249913906115898e-01	 1.223043432303848e+00	 3.570467996570538e+00
 1.144210918814393e-01	 1.224077583405152e+00	 3.641767358488341e+00
 1.038751474504234e-01	 1.225017594102147e+00	 3.692976574342969e+00
 2.118015779053913e-01	 1.219987842687886e+00	 2.724199084128928e+00
 2.010013369741176e-01	 1.221813683641414e+00	 2.803495047778898e+00
 1.902160782514735e-01	 1.223539143962455e+00	 2.889528267960597e+00
 1.794470619246867e-01	 1.225164859051915e+00	 2.979695269850797e+00
 1.686955295677663e-01	 1.226691482590897e+00	 3.071563264946091e+00
 1.579627038806646e-01	 1.228119685999097e+00	 3.162863798589256e+00
 1.472497884449890e-01	 1.229450157891303e+00	 3.251486636835430e+00
 1.365579674961419e-01	 1.230683603532504e+00	 3.335473862644952e+00
 1.258884057117540e-01	 1.231820744292142e+00	 3.413014151839953e+00
 1.152422480162592e-01	 1.232862317097992e+00	 3.482437199961999e+00
 1.046206194014433e-01	 1.233809073890164e+00	 3.542208272097380e+00
 2.133107654500772e-01	 1.228680839592689e+00	 2.905148231017263e+00
 2.024335676363242e-01	 1.230519690536209e+00	 2.919046534092804e+00
 1.915714587865989e-01	 1.232257445587211e+00	 2.942406422235019e+00
 1.807257080675794e-01	 1.233894744674147e+00	 2.973947004963765e+00
 1.698975659000969e-01	 1.235432246135923e+00	 3.012536576240599e+00
 1.590882636964393e-01	 1.236870626176435e+00	 3.057185243233605e+00
 1.482990136143216e-01	 1.238210578317190e+00	 3.107037860179002e+00
 1.375310083274029e-01	 1.239452812848540e+00	 3.161367235015146e+00
 1.267854208122119e-01	 1.240598056280037e+00	 3.219567576881086e+00
 1.160634041513297e-01	 1.241647050790434e+00	 3.281148153253448e+00
 1.053660913526588e-01	 1.242600553677780e+00	 3.345727126420386e+00
 2.148199529952333e-01	 1.237373836496991e+00	 3.139578129346313e+00
 2.038657982990362e-01	 1.239225697430475e+00	 3.076591779191424e+00
 1.929268393222558e-01	 1.240975747211415e+00	 3.025147651033107e+00
 1.820043542110196e-01	 1.242624630295811e+00	 2.985658981519232e+00
 1.710996022329800e-01	 1.244173009680370e+00	 2.958656512825927e+00
 1.602138235127591e-01	 1.245621566353186e+00	 2.944779862781326e+00
 1.493482387841790e-01	 1.246970998742483e+00	 2.944769285307512e+00
 1.385040491591543e-01	 1.248222022163977e+00	 2.959457786292872e+00
 1.276824359131110e-01	 1.249375368267334e+00	 2.989763560363520e+00
 1.168845602867759e-01	 1.250431784482275e+00	 3.036682714660857e+00
 1.061115633041677e-01	 1.251392033464797e+00	 3.101282246630643e+00
 2.163291405410435e-01	 1.246066833400622e+00	 3.428234948299606e+00
 2.052980289624416e-01	 1.247931704324035e+00	 3.277209982267075e+00
 1.942822198586349e-01	 1.249694048834886e+00	 3.139044063028145e+00
 1.832830003551988e-01	 1.251354515916720e+00	 3.016208647117290e+00
 1.723016385666052e-01	 1.252913773224046e+00	 2.911250983697685e+00
 1.613393833298090e-01	 1.254372506529152e+00	 2.826783989555831e+00
 1.503974639547379e-01	 1.255731419166985e+00	 2.765476618911873e+00
 1.394770899915604e-01	 1.256991231478618e+00	 2.730044690339737e+00
 1.285794510145984e-01	 1.258152680253831e+00	 2.723242133361708e+00
 1.177057164227230e-01	 1.259216518173316e+00	 2.747852617853486e+00
 1.068570352560679e-01	 1.260183513251014e+00	 2.806681530244540e+00
 9.940231574293544e-02	 1.172268715376846e+00	 3.771653080041230e+00
 8.933653701907020e-02	 1.173078760736435e+00	 3.752082454761159e+00
 7.929611196705814e-02	 1.173800218715625e+00	 3.753848774748836e+00
 6.928202837001728e-02	 1.174433842814812e+00	 3.777222293743978e+00
 5.929525517689356e-02	 1.174980398714412e+00	 3.822285495313645e+00
 4.933674240191636e-02	 1.175440663770815e+00	 3.888932721152806e+00
 3.940742103752461e-02	 1.175815426514736e+00	 3.976870046331832e+00
 2.950820298053884e-02	 1.176105486152319e+00	 4.085615378877032e+00
 1.963998097134695e-02	 1.176311652069365e+00	 4.214498762350591e+00
 9.803628545861746e-03	 1.176434743339030e+00	 4.362662861432055e+00
 0.000000000000000e+00	 1.176475588233336e+00	 4.529063612452551e+00
 1.001477876948355e-01	 1.181060195163063e+00	 3.844309204554213e+00
 9.000652022961728e-02	 1.181876315493052e+00	 3.822656140486584e+00
 7.989079657725708e-02	 1.182603184077831e+00	 3.813275629141252e+00
 6.980161192876753e-02	 1.183241560068681e+00	 3.820293770375230e+00
 5.973994249974197e-02	 1.183792214888246e+00	 3.847528152020000e+00
 4.970674542905570e-02	 1.184255931722710e+00	 3.898485902804925e+00
 3.970295869113922e-02	 1.184633505016388e+00	 3.976362181733380e+00
 2.972950102159660e-02	 1.184925739969079e+00	 4.084039076951897e+00
 1.978727185593514e-02	 1.185133452036587e+00	 4.224084888300975e+00
 9.877151281162630e-03	 1.185257466434719e+00	 4.398753768957526e+00
 0.000000000000000e+00	 1.185298617647136e+00	 4.609985703452414e+00
 1.008932596463443e-01	 1.189851674950080e+00	 3.886123536756541e+00
 9.067650343990423e-02	 1.190673870250469e+00	 3.867826922453645e+00
 8.048548118733835e-02	 1.191406149440837e+00	 3.853141473334099e+00
 7.032119548754186e-02	 1.192049277323350e+00	 3.849202099519385e+00
 6.018462982274317e-02	 1.192604031062879e+00	 3.862744446415903e+00
 5.007674845645180e-02	 1.193071199675406e+00	 3.900101644463122e+00
 3.999849634507806e-02	 1.193451583518840e+00	 3.967201640624581e+00
 2.995079906299798e-02	 1.193745993786640e+00	 4.069565081151842e+00
 1.993456274082684e-02	 1.193955252004609e+00	 4.212303716221539e+00
 9.950674016656167e-03	 1.194080189531207e+00	 4.400119298200810e+00
 0.000000000000000e+00	 1.194121647061736e+00	 4.637302947138452e+00
 1.016387315975596e-01	 1.198643154737697e+00	 3.894442342134723e+00
 9.134648664999610e-02	 1.199471425008485e+00	 3.883832240312735e+00
 8.108016579733142e-02	 1.200209114804443e+00	 3.869057820586696e+00
 7.084077904633415e-02	 1.200856994578618e+00	 3.859432433385796e+00
 6.062931714585892e-02	 1.201415847238113e+00	 3.863808916722826e+00
 5.044675148404044e-02	 1.201886467628702e+00	 3.890575313300227e+00
 4.029403399926004e-02	 1.202269662021892e+00	 3.947651270920053e+00
 3.017209710465706e-02	 1.202566247604800e+00	 4.042485093041932e+00
 2.008185362594616e-02	 1.202777051973230e+00	 4.182051407376425e+00
 1.002419675229419e-02	 1.202902912628295e+00	 4.372849421539065e+00
 0.000000000000000e+00	 1.202944676476936e+00	 4.620901736644932e+00
 1.023842035485794e-01	 1.207434634525714e+00	 3.866685536160817e+00
 9.201646985995794e-02	 1.208268979766902e+00	 3.867016201852033e+00
 8.167485040726566e-02	 1.209012080168448e+00	 3.856761790024341e+00
 7.136036260513841e-02	 1.209664711834286e+00	 3.846599892491109e+00
 6.107400446905107e-02	 1.210227663413746e+00	 3.846715375898433e+00
 5.081675451175748e-02	 1.210701735582398e+00	 3.866795335138454e+00
 4.058957165360418e-02	 1.211087740525344e+00	 3.916024788370619e+00
 3.039339514648793e-02	 1.211386501423361e+00	 4.003083078620491e+00
 2.022914451121722e-02	 1.211598851942252e+00	 4.136140947994151e+00
 1.009771948802854e-02	 1.211725635725784e+00	 4.322858251715882e+00
 0.000000000000000e+00	 1.211767705892536e+00	 4.570382281106364e+00
 1.031296754995014e-01	 1.216226114313930e+00	 3.800343926346584e+00
 9.268645306985471e-02	 1.217066534525519e+00	 3.813825636816076e+00
 8.226953501717052e-02	 1.217815045532654e+00	 3.812111482834111e+00
 7.187994616394870e-02	 1.218472429090154e+00	 3.806444792462316e+00
 6.151869179228140e-02	 1.219039479589579e+00	 3.807572534382110e+00
 5.118675753953868e-02	 1.219517003536293e+00	 3.825739775064067e+00
 4.088510930802933e-02	 1.219905819028996e+00	 3.870684893049117e+00
 3.061469318840470e-02	 1.220206755242121e+00	 3.951635514236289e+00
 2.037643539656413e-02	 1.220420651911474e+00	 4.077305133217181e+00
 1.017124222381105e-02	 1.220548358823471e+00	 4.255890386946632e+00
 0.000000000000000e+00	 1.220590735308335e+00	 4.495068949047298e+00
 1.038751474504234e-01	 1.225017594102147e+00	 3.692976574342969e+00
 9.335643627975154e-02	 1.225864089284136e+00	 3.720806321646593e+00
 8.286421962707537e-02	 1.226618010896860e+00	 3.731081558316748e+00
 7.239952972275898e-02	 1.227280146346022e+00	 3.734828076924791e+00
 6.196337911551174e-02	 1.227851295765412e+00	 3.742599811710006e+00
 5.155676056731988e-02	 1.228332271490189e+00	 3.764473065533914e+00
 4.118064696245446e-02	 1.228723897532648e+00	 3.810041467092919e+00
 3.083599123032144e-02	 1.229027009060881e+00	 3.888411621996937e+00
 2.052372628191104e-02	 1.229242451880695e+00	 4.008199422595712e+00
 1.024476495959354e-02	 1.229371081921160e+00	 4.177526982811594e+00
 0.000000000000000e+00	 1.229413764724135e+00	 4.404020166387429e+00
 1.046206194014433e-01	 1.233809073890164e+00	 3.542208272097380e+00
 9.402641948971339e-02	 1.234661644042552e+00	 3.584599366620445e+00
 8.345890423700963e-02	 1.235420976260865e+00	 3.609758999826260e+00
 7.291911328156325e-02	 1.236087863601690e+00	 3.627726946196442e+00
 6.240806643870384e-02	 1.236663111941046e+00	 3.648123327579348e+00
 5.192676359503685e-02	 1.237147539443885e+00	 3.680142874617384e+00
 4.147618461679851e-02	 1.237541976036100e+00	 3.732549849650464e+00
 3.105728927215226e-02	 1.237847262879441e+00	 3.813673595192640e+00
 2.067101716718206e-02	 1.238064251849717e+00	 3.931404673532954e+00
 1.031828769532786e-02	 1.238193805018648e+00	 4.093191564564099e+00
 0.000000000000000e+00	 1.238236794139735e+00	 4.306037891277050e+00
 1.053660913526588e-01	 1.242600553677780e+00	 3.345727126420386e+00
 9.469640269980534e-02	 1.243459198800570e+00	 3.401937757342107e+00
 8.405358884700272e-02	 1.244223941624471e+00	 3.444339061193292e+00
 7.343869684035552e-02	 1.244895580856958e+00	 3.481230672090701e+00
 6.285275376181958e-02	 1.245474928116279e+00	 3.520572063474711e+00
 5.229676662262545e-02	 1.245962807397180e+00	 3.569977107433572e+00
 4.177172227098042e-02	 1.246360054539152e+00	 3.636709185208256e+00
 3.127858731381124e-02	 1.246667516697602e+00	 3.727676814229942e+00
 2.081830805230130e-02	 1.246886051818339e+00	 3.849429758726389e+00
 1.039181043096584e-02	 1.247016528115736e+00	 4.008155592709816e+00
 0.000000000000000e+00	 1.247059823554935e+00	 4.209676686720401e+00
 1.061115633041677e-01	 1.251392033464797e+00	 3.101282246630643e+00
 9.536638591009239e-02	 1.252256753557986e+00	 3.169643043000198e+00
 8.464827345708406e-02	 1.253026906987477e+00	 3.231121384756602e+00
 7.395828039912980e-02	 1.253703298111626e+00	 3.291536589676186e+00
 6.329744108482070e-02	 1.254286744290912e+00	 3.356474186468762e+00
 5.266676965002144e-02	 1.254778075349876e+00	 3.431281034233592e+00
 4.206725992491914e-02	 1.255178133041604e+00	 3.521060841689789e+00
 3.149988535521250e-02	 1.255487770515162e+00	 3.630670053542246e+00
 2.096559893719288e-02	 1.255707851786360e+00	 3.764714073309971e+00
 1.046533316645931e-02	 1.255839251212224e+00	 3.927543793990594e+00
 0.000000000000000e+00	 1.255882852969535e+00	 4.123252410766712e+00
 1.068570352560679e-01	 1.260183513251014e+00	 2.806681530244540e+00
 9.603636912063959e-02	 1.261054308314603e+00	 2.884622164221011e+00
 8.524295806728306e-02	 1.261829872349682e+00	 2.966506282622505e+00
 7.447786395788004e-02	 1.262511015365494e+00	 3.054946257351622e+00
 6.374212840766905e-02	 1.263098560464746e+00	 3.152453527277781e+00
 5.303677267716066e-02	 1.263593343301771e+00	 3.261434538943624e+00
 4.236279757853359e-02	 1.263996211543256e+00	 3.384186894919267e+00
 3.172118339627010e-02	 1.264308024331922e+00	 3.522895679917785e+00
 2.111288982178093e-02	 1.264529651753582e+00	 3.679629937083491e+00
 1.053885590176010e-02	 1.264661974307913e+00	 3.856339269229380e+00
 0.000000000000000e+00	 1.264705882383334e+00	 4.054850542944768e+00
 1.264705882383334e+00	 0.000000000000000e+00	 1.805424788160334e+01
 1.264661974307912e+00	 1.053885590175940e-02	 1.460014279017576e+01
 1.264529651753582e+00	 2.111288982178033e-02	 1.192105789709454e+01
 1.264308024331922e+00	 3.172118339626960e-02	 9.896707075218270e+00
 1.263996211543256e+00	 4.236279757853321e-02	 8.404817603743028e+00
 1.263593343301772e+00	 5.303677267716038e-02	 7.321223372174183e+00
 1.263098560464746e+00	 6.374212840766885e-02	 6.519963239208485e+00
 1.262511015365494e+00	 7.447786395787998e-02	 5.873384608339913e+00
 1.261829872349682e+00	 8.524295806728308e-02	 5.252252258431264e+00
 1.261054308314603e+00	 9.603636912063970e-02	 4.525862455894943e+00
 1.260183513251014e+00	 1.068570352560680e-01	 3.562162362645736e+00
 1.273528911796184e+00	 0.000000000000000e+00	 1.419238964497233e+01
 1.273484697402651e+00	 1.061237863683563e-02	 1.156754598337281e+01
 1.273351451719854e+00	 2.126018070601511e-02	 9.542244178723378e+00
 1.273128278147735e+00	 3.194248143692809e-02	 8.018043293423071e+00
 1.272814290043961e+00	 4.265833523177232e-02	 6.894711331587681e+00
 1.272408611252722e+00	 5.340677570400430e-02	 6.070296013639290e+00
 1.271910376637635e+00	 6.418681573034457e-02	 5.441199957640704e+00
 1.271318732618420e+00	 7.499744751660918e-02	 4.902260345389410e+00
 1.270632837710947e+00	 8.583764267762742e-02	 4.346833129185994e+00
 1.269851863070280e+00	 9.670635233149950e-02	 3.666881825253524e+00
 1.268974993036293e+00	 1.076025072084343e-01	 2.753070928960519e+00
 1.282351941208134e+00	 0.000000000000000e+00	 1.119530874192208e+01
 1.282307420496490e+00	 1.068590137172055e-02	 9.201745139038479e+00
 1.282173251685232e+00	 2.140747158995149e-02	 7.680327245483993e+00
 1.281948531962658e+00	 3.216377947725368e-02	 6.547652660414371e+00
 1.281632368543785e+00	 4.295387288470495e-02	 5.718666048455252e+00
 1.281223879202800e+00	 5.377677873061699e-02	 5.106714502230762e+00
 1.280722192809662e+00	 6.463150305290123e-02	 4.623606812512768e+00
 1.280126449870493e+00	 7.551703107535598e-02	 4.179676736766414e+00
 1.279435803071370e+00	 8.643232728813821e-02	 3.683850335691283e+00
 1.278649417825125e+00	 9.737633554267387e-02	 3.043717438520036e+00
 1.277766472820747e+00	 1.083479791612502e-01	 2.165607288089622e+00
 1.291174970619284e+00	 0.000000000000000e+00	 9.081754786972107e+00
 1.291130143589533e+00	 1.075942410646369e-02	 7.512550858697032e+00
 1.290995051649821e+00	 2.155476247367047e-02	 6.337025930920102e+00
 1.290768785776804e+00	 3.238507751734306e-02	 5.480156208873513e+00
 1.290450447042847e+00	 4.324941053742991e-02	 4.865346635812671e+00
 1.290039147152133e+00	 5.414678175708833e-02	 4.414477776337684e+00
 1.289534008980963e+00	 6.507619037541079e-02	 4.047956354561085e+00
 1.288934167121860e+00	 7.603661463416801e-02	 3.684769547253680e+00
 1.288238768431106e+00	 8.702701189883462e-02	 3.242543111316385e+00
 1.287446972579301e+00	 9.804631875415229e-02	 2.637603416626957e+00
 1.286557952604549e+00	 1.090934511144762e-01	 1.785043446073526e+00
 1.299998000029734e+00	 0.000000000000000e+00	 7.870036665827398e+00
 1.299952866681880e+00	 1.083294684111459e-02	 6.509560790121061e+00
 1.299816851613724e+00	 2.170205335725304e-02	 5.514051706090026e+00
 1.299589039590283e+00	 3.260637555729292e-02	 4.810347057217807e+00
 1.299268525541265e+00	 4.354494819004602e-02	 4.323739378741362e+00
 1.298854415100850e+00	 5.451678478350810e-02	 3.978021352351347e+00
 1.298345825151676e+00	 6.552087769794512e-02	 3.695534706694834e+00
 1.297741884372669e+00	 7.655619819309291e-02	 3.397222869807434e+00
 1.297041733790313e+00	 8.762169650973599e-02	 3.002687458681752e+00
 1.296244527332977e+00	 9.871630196592412e-02	 2.430248682860327e+00
 1.295349432387875e+00	 1.098389230680726e-01	 1.597009729654028e+00
 1.308821029439584e+00	 0.000000000000000e+00	 7.578037387376819e+00
 1.308775589773633e+00	 1.090646957572278e-02	 6.202166588539549e+00
 1.308638651577050e+00	 2.184934424078023e-02	 5.213108523066511e+00
 1.308409293403207e+00	 3.282767359719992e-02	 4.533184042374531e+00
 1.308086604039158e+00	 4.384048584265215e-02	 4.083140429766107e+00
 1.307669683049076e+00	 5.488678780996606e-02	 3.782201796948010e+00
 1.307157641321937e+00	 6.596556502057621e-02	 3.548123358494265e+00
 1.306549601623067e+00	 7.707578175217830e-02	 3.297249693058684e+00
 1.305844699149148e+00	 8.821638112086166e-02	 2.944577078555084e+00
 1.305042082086316e+00	 9.938628517797886e-02	 2.403819979639332e+00
 1.304140912170899e+00	 1.105843950219999e-01	 1.587481755930074e+00
 1.317644058848934e+00	 0.000000000000000e+00	 8.223228338886784e+00
 1.317598312864892e+00	 1.097999231033778e-02	 6.599560598247921e+00
 1.317460451539901e+00	 2.199663512433303e-02	 5.435892665307281e+00
 1.317229547215688e+00	 3.304897163716073e-02	 4.643785609779771e+00
 1.316904682536645e+00	 4.413602349534710e-02	 4.133144738735830e+00
 1.316484950996940e+00	 5.525679083655199e-02	 3.812281827277938e+00
 1.315969457491885e+00	 6.641025234337597e-02	 3.587981698020967e+00
 1.315357318873199e+00	 7.759536531147178e-02	 3.365573257578258e+00
 1.314647664507767e+00	 8.881106573223085e-02	 3.049005075481451e+00
 1.313839636839487e+00	 1.000562683903058e-01	 2.540925580972381e+00
 1.312932391953795e+00	 1.113298669762187e-01	 1.742767942038939e+00
 1.326467088257884e+00	 0.000000000000000e+00	 9.822682972178486e+00
 1.326421035955760e+00	 1.105351504500914e-02	 7.710742267639151e+00
 1.326282251502385e+00	 2.214392600799244e-02	 6.184092604576871e+00
 1.326049801027835e+00	 3.327026967727203e-02	 5.137423948627031e+00
 1.325722761033845e+00	 4.443156114822970e-02	 4.463635427058095e+00
 1.325300218944570e+00	 5.562679386335576e-02	 4.053916009826747e+00
 1.324781273661655e+00	 6.685493966641630e-02	 3.797830246611243e+00
 1.324165036123214e+00	 7.811494887102097e-02	 3.583409164181112e+00
 1.323450629866328e+00	 8.940575034386299e-02	 3.297246403984814e+00
 1.322637191592656e+00	 1.007262516028946e-01	 2.824599668201255e+00
 1.321723871736737e+00	 1.120753389306894e-01	 2.049497529721098e+00
 1.335290117666534e+00	 0.000000000000000e+00	 1.239308994710634e+01
 1.335243759046337e+00	 1.112703777978639e-02	 9.544524309986279e+00
 1.335104051464604e+00	 2.229121689183949e-02	 7.459388864118059e+00
 1.334870054839761e+00	 3.349156771763051e-02	 6.009519361022301e+00
 1.334540839530876e+00	 4.472709880139877e-02	 5.064773585736350e+00
 1.334115486892093e+00	 5.599679689046708e-02	 4.493137030260712e+00
 1.333593089831385e+00	 6.729962698976914e-02	 4.160834564140051e+00
 1.332972753373260e+00	 7.863453243087351e-02	 3.932448199489358e+00
 1.332253595224988e+00	 9.000043495577721e-02	 3.671041021089169e+00
 1.331434746345987e+00	 1.013962348157344e-01	 3.238287338355738e+00
 1.330515351519901e+00	 1.128208108853725e-01	 2.494609100955359e+00
 1.344113147074984e+00	 0.000000000000000e+00	 1.595076575727631e+01
 1.344066482136726e+00	 1.120056051471905e-02	 1.210953862165904e+01
 1.343925851426666e+00	 2.243850777595517e-02	 9.263453887785888e+00
 1.343690308651576e+00	 3.371286575833281e-02	 7.255634854299579e+00
 1.343358918027857e+00	 4.502263645495318e-02	 5.926988477737695e+00
 1.342930754839637e+00	 5.636679991797579e-02	 5.116342508021254e+00
 1.342404906001214e+00	 6.774431431350644e-02	 4.660589793949569e+00
 1.341780470623482e+00	 7.915411599107704e-02	 4.394839845796731e+00
 1.341056560583903e+00	 9.059511956799296e-02	 4.152577712706183e+00
 1.340232301099649e+00	 1.020662180288148e-01	 3.765830216052650e+00
 1.339306831303461e+00	 1.135662828402284e-01	 3.065339562102562e+00
 1.352936176483334e+00	 0.000000000000000e+00	 2.051166686163752e+01
 1.352889205227027e+00	 1.127408324985666e-02	 1.541424196884929e+01
 1.352747651388675e+00	 2.258579866042048e-02	 1.159795191487387e+01
 1.352510562463392e+00	 3.393416379947564e-02	 8.871470946310998e+00
 1.352176996524908e+00	 4.531817410899172e-02	 7.040968126234852e+00
 1.351746022787329e+00	 5.673680294597166e-02	 5.910282330801849e+00
 1.351216722171277e+00	 6.818900163770010e-02	 5.281105818243605e+00
 1.350588187874028e+00	 7.967369955167911e-02	 4.953176443999435e+00
 1.349859525943230e+00	 9.118980418052945e-02	 4.724478563129845e+00
 1.349029855853806e+00	 1.027362012421251e-01	 4.391452641390060e+00
 1.348098311087590e+00	 1.143117547952177e-01	 3.749213575171330e+00
 1.260183513251014e+00	 1.068570352560680e-01	 3.562162362645740e+00
 1.259216518173316e+00	 1.177057164227225e-01	 2.521837639423842e+00
 1.258152680253831e+00	 1.285794510145979e-01	 1.647196801757260e+00
 1.256991231478618e+00	 1.394770899915600e-01	 9.275741767775103e-01
 1.255731419166985e+00	 1.503974639547374e-01	 3.529509883384917e-01
 1.254372506529152e+00	 1.613393833298087e-01	-8.601057618826302e-02
 1.252913773224046e+00	 1.723016385666049e-01	-3.979326697864958e-01
 1.251354515916720e+00	 1.832830003551986e-01	-5.906865022164693e-01
 1.249694048834886e+00	 1.942822198586347e-01	-6.713565204422887e-01
 1.247931704324034e+00	 2.052980289624415e-01	-6.462041146118431e-01
 1.246066833400622e+00	 2.163291405410434e-01	-5.206309216980638e-01
 1.268974993036293e+00	 1.076025072084343e-01	 2.753070928960518e+00
 1.268001251863421e+00	 1.185268725592640e-01	 1.791020986092259e+00
 1.266929992239393e+00	 1.294764661167815e-01	 1.029424010613900e+00
 1.265760440792328e+00	 1.404501308247396e-01	 4.526118125061390e-01
 1.264491839590562e+00	 1.514466891261245e-01	 4.564369495452109e-02
 1.263123446704203e+00	 1.624649431477207e-01	-2.056509197638016e-01
 1.261654536766819e+00	 1.735036749011069e-01	-3.146290675135426e-01
 1.260084401536747e+00	 1.845616465002523e-01	-2.937900724095208e-01
 1.258412350457498e+00	 1.956376003958709e-01	-1.547306900230838e-01
 1.256637711216769e+00	 2.067302596266734e-01	 9.190036508143518e-02
 1.254759830303468e+00	 2.178383280876382e-01	 4.364484247396390e-01
 1.277766472820747e+00	 1.083479791612502e-01	 2.165607288089624e+00
 1.276785985552708e+00	 1.193480286963663e-01	 1.258528027105820e+00
 1.275707304224143e+00	 1.303734812196127e-01	 5.818542272661522e-01
 1.274529650105232e+00	 1.414231716586314e-01	 1.165994182811146e-01
 1.273252260013340e+00	 1.524959142982677e-01	-1.554417582957212e-01
 1.271874386878465e+00	 1.635905029664143e-01	-2.516450380044345e-01
 1.270395300308816e+00	 1.747057112363996e-01	-1.885070815531009e-01
 1.268814287156011e+00	 1.858402926460913e-01	 1.840486379298301e-02
 1.267130652079369e+00	 1.969929809338748e-01	 3.545041240905178e-01
 1.265343718108786e+00	 2.081624902916448e-01	 8.062365026399296e-01
 1.263452827205628e+00	 2.193475156349365e-01	 1.361132838384349e+00
 1.286557952604549e+00	 1.090934511144762e-01	 1.785043446073526e+00
 1.285570719241357e+00	 1.201691848339639e-01	 9.142310584800772e-01
 1.284484616208268e+00	 1.312704963230037e-01	 2.979140942112617e-01
 1.283298859417521e+00	 1.423962124931286e-01	-8.456498839869742e-02
 1.282012680435511e+00	 1.535451394710451e-01	-2.530557279019099e-01
 1.280625327052128e+00	 1.647160627857561e-01	-2.265479069030978e-01
 1.279136063850222e+00	 1.759077475723417e-01	-2.311873743208870e-02
 1.277544172774695e+00	 1.871189387925704e-01	 3.401209603023179e-01
 1.275848953700673e+00	 1.983483614725007e-01	 8.470815187153875e-01
 1.274049725000251e+00	 2.095947209572144e-01	 1.482750043650364e+00
 1.272145824107253e+00	 2.208567031828042e-01	 2.233246802566685e+00
 1.295349432387875e+00	 1.098389230680726e-01	 1.597009729654030e+00
 1.294355452929551e+00	 1.209903409719913e-01	 7.482299001735422e-01
 1.293261928191953e+00	 1.321675114268666e-01	 1.711563335300803e-01
 1.292068068729384e+00	 1.433692533281246e-01	-1.549283967512349e-01
 1.290773100857267e+00	 1.545943646443348e-01	-2.499333091685486e-01
 1.289376267225383e+00	 1.658416226056126e-01	-1.329066334014542e-01
 1.287876827391227e+00	 1.771097839087920e-01	 1.780177307114640e-01
 1.286274058392983e+00	 1.883975849395443e-01	 6.656748616051609e-01
 1.284567255321584e+00	 1.997037420116034e-01	 1.313924506646438e+00
 1.282755731891327e+00	 2.110269516232397e-01	 2.107707736767785e+00
 1.280838821008495e+00	 2.223658907311072e-01	 3.033104473159342e+00
 1.304140912170899e+00	 1.105843950219999e-01	 1.587481755930075e+00
 1.303140186617469e+00	 1.218114971103832e-01	 7.508433286763023e-01
 1.302039240175386e+00	 1.330645265311138e-01	 1.952546805674920e-01
 1.300837278041010e+00	 1.443422941635125e-01	-9.848536377498052e-02
 1.299533521278798e+00	 1.556435898180148e-01	-1.487954215959271e-01
 1.298127207398422e+00	 1.669671824258504e-01	 2.673887188892249e-02
 1.296617590932019e+00	 1.783118202456092e-01	 4.114165239105896e-01
 1.295003944011058e+00	 1.896762310868675e-01	 9.894740341037894e-01
 1.293285556942278e+00	 2.010591225510373e-01	 1.746139374193580e+00
 1.291461738782179e+00	 2.124591822895795e-01	 2.667687024079824e+00
 1.289531817909503e+00	 2.238750782797112e-01	 3.741493976819322e+00
 1.312932391953795e+00	 1.113298669762187e-01	 1.742767942038938e+00
 1.311924920305294e+00	 1.226326532490740e-01	 9.126008738148137e-01
 1.310816552158751e+00	 1.339615416356570e-01	 3.639990449960000e-01
 1.309606487352589e+00	 1.453153349991858e-01	 8.081955557557841e-02
 1.308293941700296e+00	 1.566928149919633e-01	 4.765018182439140e-02
 1.306878147571434e+00	 1.680927422463360e-01	 2.498552862805594e-01
 1.305358354472785e+00	 1.795138565826521e-01	 6.736230190553589e-01
 1.303733829629101e+00	 1.909548772343950e-01	 1.306013772619694e+00
 1.302003858562929e+00	 2.024145030906567e-01	 2.135009839112008e+00
 1.300167745672973e+00	 2.138914129560916e-01	 3.149566205340415e+00
 1.298224814810431e+00	 2.253842658284821e-01	 4.339662406088506e+00
 1.321723871736737e+00	 1.120753389306894e-01	 2.049497529721098e+00
 1.320709653993206e+00	 1.234538093879985e-01	 1.224234962817012e+00
 1.319593864142237e+00	 1.348585567404087e-01	 6.712908886763489e-01
 1.318375696664313e+00	 1.462883758350378e-01	 3.790895030103605e-01
 1.317054362121952e+00	 1.577420401660584e-01	 3.367079778586667e-01
 1.315629087744610e+00	 1.692183020669360e-01	 5.339153279253819e-01
 1.314099118013713e+00	 1.807158929197792e-01	 9.612126019707011e-01
 1.312463715247296e+00	 1.922335233819813e-01	 1.609874373905901e+00
 1.310722160183713e+00	 2.037698836303163e-01	 2.471991494938808e+00
 1.308873752563872e+00	 2.153236436226345e-01	 3.540515054009923e+00
 1.306917811711429e+00	 2.268934533772858e-01	 4.809301478905087e+00
 1.330515351519901e+00	 1.128208108853725e-01	 2.494609100955358e+00
 1.329494387681388e+00	 1.242749655270910e-01	 1.676673395577287e+00
 1.328371176126029e+00	 1.357555718452810e-01	 1.111138810289695e+00
 1.327144905976369e+00	 1.472614166709617e-01	 7.924731305485950e-01
 1.325814782543958e+00	 1.587912653401782e-01	 7.156938054693409e-01
 1.324380027918142e+00	 1.703438618875169e-01	 8.763972672158422e-01
 1.322839881554991e+00	 1.819179292568495e-01	 1.270789588613793e+00
 1.321193600865825e+00	 1.935121695294811e-01	 1.895718469442446e+00
 1.319440461804804e+00	 2.051252641698705e-01	 2.748706528487072e+00
 1.317579759455040e+00	 2.167558742890663e-01	 3.827985864202644e+00
 1.315610808612648e+00	 2.284026409259881e-01	 5.132533831793001e+00
 1.339306831303461e+00	 1.135662828402284e-01	 3.065339562102563e+00
 1.338279121370020e+00	 1.250961216662862e-01	 2.261032135905042e+00
 1.337148488110314e+00	 1.366525869501860e-01	 1.677654327241881e+00
 1.335914115288949e+00	 1.482344575068510e-01	 1.317162527720838e+00
 1.334575202966505e+00	 1.598404905142007e-01	 1.181934064265874e+00
 1.333130968092220e+00	 1.714694217079452e-01	 1.274784493984660e+00
 1.331580645096808e+00	 1.831199655937215e-01	 1.598986230341368e+00
 1.329923486484871e+00	 1.947908156767491e-01	 2.158288510196502e+00
 1.328158763426378e+00	 2.064806447091739e-01	 2.956938697946660e+00
 1.326285766346644e+00	 2.181881049552449e-01	 3.999704908740035e+00
 1.324303805514240e+00	 2.299118284744549e-01	 5.291899917611086e+00
 1.348098311087590e+00	 1.143117547952177e-01	 3.749213575171328e+00
 1.347063855059284e+00	 1.259172778055186e-01	 2.968608404333479e+00
 1.345925800095279e+00	 1.375496020550358e-01	 2.365047845835790e+00
 1.344683324602242e+00	 1.492074983425989e-01	 1.949391257144973e+00
 1.343335623389784e+00	 1.608897156880040e-01	 1.732764975953729e+00
 1.341881908267035e+00	 1.725949815280876e-01	 1.726565137957473e+00
 1.340321408639350e+00	 1.843220019302541e-01	 1.942461799409597e+00
 1.338653372104616e+00	 1.960694618236400e-01	 2.392404396408816e+00
 1.336877065048610e+00	 2.078360252480808e-01	 3.088628559693412e+00
 1.334991773238847e+00	 2.196203356210290e-01	 4.043664289542115e+00
 1.332996802416356e+00	 2.314210160225521e-01	 5.270345480260794e+00
 1.246066833400622e+00	 2.163291405410434e-01	-5.206309216980638e-01
 1.244099149474685e+00	 2.273723706542418e-01	-2.890374123172887e-01
 1.242027733812302e+00	 2.384282719850735e-01	 6.058984895520947e-02
 1.239851996070890e+00	 2.494955058442114e-01	 5.322108543730708e-01
 1.237571366730709e+00	 2.605727158386419e-01	 1.128656792092686e+00
 1.235185297629098e+00	 2.716585282229791e-01	 1.851615937582269e+00
 1.232693262489390e+00	 2.827515522679369e-01	 2.701621011408388e+00
 1.230094757443897e+00	 2.938503806459467e-01	 3.678037966888843e+00
 1.227389301550388e+00	 3.049535898338829e-01	 4.779056158550499e+00
 1.224576437301453e+00	 3.160597405328378e-01	 6.001679829656934e+00
 1.221655731126142e+00	 3.271673781048639e-01	 7.341720844366893e+00
 1.254759830303468e+00	 2.178383280876382e-01	 4.364484247396390e-01
 1.252778419128273e+00	 2.289585996262831e-01	 8.537365757003901e-01
 1.250692552547848e+00	 2.400916307813596e-01	 1.328334600613458e+00
 1.248501636101170e+00	 2.512360735243844e-01	 1.864609880972569e+00
 1.246205096295324e+00	 2.623905619996813e-01	 2.465347332637311e+00
 1.243802381143473e+00	 2.735537128781450e-01	 3.131726629988117e+00
 1.241292960697452e+00	 2.847241257282849e-01	 3.863301389842530e+00
 1.238676327574413e+00	 2.959003834045325e-01	 4.657980299634129e+00
 1.235951997476899e+00	 3.070810524527766e-01	 5.512010160907728e+00
 1.233119509705762e+00	 3.182646835330661e-01	 6.419960805540224e+00
 1.230178427665308e+00	 3.294498118594008e-01	 7.374711828359089e+00
 1.263452827205628e+00	 2.193475156349365e-01	 1.361132838384349e+00
 1.261457688781213e+00	 2.305448285989857e-01	 1.958226699481915e+00
 1.259357371282790e+00	 2.417549895782588e-01	 2.548462691248738e+00
 1.257151276130895e+00	 2.529766412051173e-01	 3.136360401891393e+00
 1.254838825859441e+00	 2.642084081612222e-01	 3.724526759949197e+00
 1.252419464657410e+00	 2.754488975337499e-01	 4.313627341572984e+00
 1.249892658905143e+00	 2.866966991890051e-01	 4.902360029285094e+00
 1.247257897704627e+00	 2.979503861634202e-01	 5.487431021132335e+00
 1.244514693403182e+00	 3.092085150718983e-01	 6.063533174803483e+00
 1.241662582109921e+00	 3.204696265334467e-01	 6.623326656699437e+00
 1.238701124204402e+00	 3.317322456140109e-01	 7.157421851205233e+00
 1.272145824107253e+00	 2.208567031828042e-01	 2.233246802566685e+00
 1.270136958433639e+00	 2.321310575722266e-01	 2.998849084728179e+00
 1.268022190017244e+00	 2.434183483756634e-01	 3.692770132704149e+00
 1.265800916160163e+00	 2.547172088863202e-01	 4.319437998961472e+00
 1.263472555423135e+00	 2.660262543231952e-01	 4.881159594215277e+00
 1.261036548170961e+00	 2.773440821897458e-01	 5.378088794773834e+00
 1.258492357112488e+00	 2.886692726500726e-01	 5.808197192693637e+00
 1.255839467834543e+00	 3.000003889226081e-01	 6.167247495530008e+00
 1.253077389329214e+00	 3.113359776912703e-01	 6.448769567245450e+00
 1.250205654513883e+00	 3.226745695340228e-01	 6.644039086334828e+00
 1.247223820743357e+00	 3.340146793687591e-01	 6.742058781528646e+00
 1.280838821008495e+00	 2.223658907311072e-01	 3.033104473159346e+00
 1.278816228085687e+00	 2.337172865458834e-01	 3.950659706002261e+00
 1.276687008751327e+00	 2.450817071734658e-01	 4.733768103621330e+00
 1.274450556189068e+00	 2.564577765679031e-01	 5.386533542420264e+00
 1.272106284986476e+00	 2.678441004855303e-01	 5.910850276331312e+00
 1.269653631684175e+00	 2.792392668460848e-01	 6.306370528692772e+00
 1.267092055319515e+00	 2.906418461114625e-01	 6.570474919127591e+00
 1.264421037964160e+00	 3.020503916820947e-01	 6.698245733604993e+00
 1.261640085254977e+00	 3.134634403109134e-01	 6.682443029775235e+00
 1.258748726917606e+00	 3.248795125348388e-01	 6.513483553261242e+00
 1.255746517282108e+00	 3.362971131237101e-01	 6.179422423978157e+00
 1.289531817909503e+00	 2.238750782797112e-01	 3.741493976819322e+00
 1.287495497737492e+00	 2.353035155198335e-01	 4.789333940467701e+00
 1.285351827485155e+00	 2.467450659715584e-01	 5.644660305516597e+00
 1.283100196217707e+00	 2.581983442497764e-01	 6.311030906825295e+00
 1.280740014549541e+00	 2.696619466481580e-01	 6.789823810231164e+00
 1.278270715197102e+00	 2.811344515027192e-01	 7.080207041887711e+00
 1.275691753526249e+00	 2.926144195731493e-01	 7.179111246877184e+00
 1.273002608093484e+00	 3.041003944418779e-01	 7.081205280270961e+00
 1.270202781180447e+00	 3.155909029308493e-01	 6.778874716848289e+00
 1.267291799321045e+00	 3.270844555359385e-01	 6.262203248402635e+00
 1.264269213820593e+00	 3.385795468789295e-01	 5.518956920064036e+00
 1.298224814810431e+00	 2.253842658284821e-01	 4.339662406088506e+00
 1.296174767389189e+00	 2.368897444939545e-01	 5.491147015742484e+00
 1.294016646218845e+00	 2.484084247698334e-01	 6.399321308188744e+00
 1.291749836246175e+00	 2.599389119318503e-01	 7.066985669033653e+00
 1.289373744112402e+00	 2.714797928110083e-01	 7.494907277163684e+00
 1.286887798709794e+00	 2.830296361596007e-01	 7.681794593829838e+00
 1.284291451732717e+00	 2.945869930351080e-01	 7.624274778569928e+00
 1.281584178222514e+00	 3.061503972019562e-01	 7.316874023782484e+00
 1.278765477105603e+00	 3.177183655510993e-01	 6.752000781941374e+00
 1.275834871724156e+00	 3.292893985373658e-01	 5.919931841300056e+00
 1.272791910358743e+00	 3.408619806344818e-01	 4.808801187582520e+00
 1.306917811711429e+00	 2.268934533772858e-01	 4.809301478905087e+00
 1.304854037040913e+00	 2.384759734681233e-01	 6.032955310235806e+00
 1.302681464952513e+00	 2.500717835681833e-01	 6.972275838389665e+00
 1.300399476274568e+00	 2.616794796140349e-01	 7.629104742519363e+00
 1.298007473675132e+00	 2.732976389740117e-01	 8.003512181315482e+00
 1.295504882222299e+00	 2.849248208166815e-01	 8.093778634355585e+00
 1.292891149938944e+00	 2.965595664973139e-01	 7.896379572326346e+00
 1.290165748351254e+00	 3.082003999623277e-01	 7.405972930281758e+00
 1.287328173030424e+00	 3.198458281716852e-01	 6.615389339422680e+00
 1.284377944126897e+00	 3.314943415391647e-01	 5.515625053895902e+00
 1.281314606896496e+00	 3.431444143904320e-01	 4.095837489946218e+00
 1.315610808612648e+00	 2.284026409259881e-01	 5.132533831793001e+00
 1.313533306692800e+00	 2.400622024422176e-01	 6.392178466535539e+00
 1.311346283686275e+00	 2.517351423665004e-01	 7.338678968127186e+00
 1.309049116302981e+00	 2.634200472962404e-01	 7.972726904715081e+00
 1.306641203237805e+00	 2.751154851370984e-01	 8.293617588322967e+00
 1.304121965734667e+00	 2.868200054739138e-01	 8.299241832061909e+00
 1.301490848144957e+00	 2.985321399597414e-01	 7.986080343879537e+00
 1.298747318479706e+00	 3.102504027229908e-01	 7.349200707133791e+00
 1.295890868954890e+00	 3.219732907926282e-01	 6.382256878739663e+00
 1.292921016529221e+00	 3.336992845413789e-01	 5.077491115829465e+00
 1.289837303433786e+00	 3.454268481468455e-01	 3.425738221910831e+00
 1.324303805514240e+00	 2.299118284744549e-01	 5.291899917611090e+00
 1.322212576344983e+00	 2.416484314161148e-01	 6.546782280484365e+00
 1.320011102420249e+00	 2.533985011646773e-01	 7.474297161259720e+00
 1.317698756331511e+00	 2.651606149783770e-01	 8.073804176341692e+00
 1.315274932800494e+00	 2.769333313001989e-01	 8.343754020237451e+00
 1.312739049246950e+00	 2.887151901312495e-01	 8.281692674118794e+00
 1.310090546350782e+00	 3.005047134223657e-01	 7.884267965364725e+00
 1.307328888607871e+00	 3.123004054839436e-01	 7.147238398316026e+00
 1.304453564878978e+00	 3.241007534139495e-01	 6.065484156083399e+00
 1.301464088931087e+00	 3.359042275440524e-01	 4.633020152631333e+00
 1.298359999970548e+00	 3.477092819037867e-01	 2.843010993646764e+00
 1.332996802416356e+00	 2.314210160225521e-01	 5.270345480260795e+00
 1.330891845997599e+00	 2.432346603896922e-01	 6.475262330533097e+00
 1.328675921154549e+00	 2.550618599626060e-01	 7.355490139197871e+00
 1.326348396360253e+00	 2.669011826603550e-01	 7.908884013828578e+00
 1.323908662363273e+00	 2.787511774632431e-01	 8.132988072405709e+00
 1.321356132759197e+00	 2.906103747886408e-01	 8.025054611409129e+00
 1.318690244556446e+00	 3.024772868851618e-01	 7.582065247229505e+00
 1.315910458735754e+00	 3.143504082451844e-01	 6.800753914959075e+00
 1.313016260802667e+00	 3.262282160356711e-01	 5.677631587375909e+00
 1.310007161332449e+00	 3.381091705472291e-01	 4.209012555521669e+00
 1.306882696506716e+00	 3.499917156613212e-01	 2.391042090827434e+00
 1.221655731126142e+00	 3.271673781048639e-01	 7.341720844366893e+00
 1.218626774149205e+00	 3.382750331816800e-01	 8.481477575736008e+00
 1.215489183475108e+00	 3.493812226144739e-01	 9.129597948917878e+00
 1.212242601867819e+00	 3.604844495203512e-01	 9.324037152205410e+00
 1.208886697948648e+00	 3.715832036341537e-01	 9.108432371946529e+00
 1.205421166648673e+00	 3.826759618280010e-01	 8.629451130834186e+00
 1.201845729649776e+00	 3.937611886467735e-01	 8.001309350372285e+00
 1.198160135813678e+00	 4.048373368592888e-01	 7.274342313823454e+00
 1.194364161598396e+00	 4.159028480248947e-01	 6.503117064710231e+00
 1.190457611461505e+00	 4.269561530751902e-01	 5.746432977577904e+00
 1.186440318249641e+00	 4.379956729105452e-01	 5.067316209607696e+00
 1.230178427665308e+00	 3.294498118594008e-01	 7.374711828359092e+00
 1.227128339627824e+00	 3.406349578126802e-01	 8.117705461805873e+00
 1.223968860026572e+00	 3.518186278971284e-01	 8.421244599097138e+00
 1.220699629133324e+00	 3.629993147870726e-01	 8.327212840755868e+00
 1.217320313257583e+00	 3.741754976812158e-01	 7.892877296890411e+00
 1.213830605202171e+00	 3.853456428258042e-01	 7.296301759812922e+00
 1.210230224707332e+00	 3.965082040538466e-01	 6.628329541635626e+00
 1.206518918882770e+00	 4.076616233401334e-01	 5.945711226332441e+00
 1.202696462627001e+00	 4.188043313717861e-01	 5.310061017196847e+00
 1.198762659033439e+00	 4.299347481340324e-01	 4.787857877885087e+00
 1.194717339782609e+00	 4.410512835108906e-01	 4.450439653959055e+00
 1.238701124204402e+00	 3.317322456140109e-01	 7.157421851205233e+00
 1.235629905106451e+00	 3.429948824436725e-01	 7.476161826190864e+00
 1.232448536578126e+00	 3.542560331796937e-01	 7.423905488168241e+00
 1.229156656398998e+00	 3.655141800536230e-01	 7.045026872361658e+00
 1.225753928566769e+00	 3.767677917280263e-01	 6.418922274422068e+00
 1.222240043755998e+00	 3.880153238232781e-01	 5.735437539187865e+00
 1.218614719765293e+00	 3.992552194605155e-01	 5.067535943987880e+00
 1.214877701952336e+00	 4.104859098205040e-01	 4.476024842036848e+00
 1.211028763656146e+00	 4.217058147181386e-01	 4.026971462879958e+00
 1.207067706605971e+00	 4.329133431922778e-01	 3.791704087124446e+00
 1.202994361316223e+00	 4.441068941105893e-01	 3.846805609348491e+00
 1.247223820743357e+00	 3.340146793687591e-01	 6.742058781528650e+00
 1.244131470585002e+00	 3.453548070747416e-01	 6.628150830743383e+00
 1.240928213129666e+00	 3.566934384622711e-01	 6.223468653525465e+00
 1.237613683664728e+00	 3.680290453201193e-01	 5.573462382120814e+00
 1.234187543876076e+00	 3.793600857747162e-01	 4.788883325828674e+00
 1.230649482310011e+00	 3.906850048205653e-01	 4.050351505421815e+00
 1.226999214823504e+00	 4.020022348669338e-01	 3.419194335412265e+00
 1.223236485022214e+00	 4.133101963005631e-01	 2.957954926890206e+00
 1.219361064685659e+00	 4.246072980641230e-01	 2.734600231120386e+00
 1.215372754178922e+00	 4.358919382501040e-01	 2.822521722678974e+00
 1.211271382850301e+00	 4.471625047098242e-01	 3.300528183222688e+00
 1.255746517282108e+00	 3.362971131237101e-01	 6.179422423978162e+00
 1.252633036063392e+00	 3.477147317059714e-01	 5.643060325054474e+00
 1.249407889681094e+00	 3.591308437449620e-01	 4.903520524732428e+00
 1.246070710930393e+00	 3.705439105866788e-01	 4.005953473870313e+00
 1.242621159185372e+00	 3.819523798214166e-01	 3.102332673262285e+00
 1.239058920864069e+00	 3.933546858178091e-01	 2.341761786180476e+00
 1.235383709881812e+00	 4.047492502732552e-01	 1.780883856543816e+00
 1.231595268092240e+00	 4.161344827804735e-01	 1.481693246443548e+00
 1.227693365715369e+00	 4.275087814099098e-01	 1.511543048522192e+00
 1.223677801752115e+00	 4.388705333076881e-01	 1.943144763225277e+00
 1.219548404384659e+00	 4.502181153087785e-01	 2.854560090754001e+00
 1.264269213820593e+00	 3.385795468789295e-01	 5.518956920064036e+00
 1.261134601541538e+00	 3.500746563374462e-01	 4.588431892065417e+00
 1.257887566232307e+00	 3.615682490278681e-01	 3.545429483349642e+00
 1.254527738195880e+00	 3.730587758534182e-01	 2.438911897886723e+00
 1.251054774494528e+00	 3.845446738682577e-01	 1.456191766763406e+00
 1.247468359418027e+00	 3.960243668151525e-01	 7.077056100490198e-01
 1.243768204940064e+00	 4.074962656796332e-01	 2.475879747854102e-01
 1.239954051162253e+00	 4.189587692603978e-01	 1.350354904431876e-01
 1.236025666745107e+00	 4.304102647556698e-01	 4.343124674889816e-01
 1.231982849325372e+00	 4.418491283652077e-01	 1.214749065149526e+00
 1.227825425919116e+00	 4.532737259076350e-01	 2.550731886479785e+00
 1.272791910358743e+00	 3.408619806344818e-01	 4.808801187582520e+00
 1.269636167019354e+00	 3.524345809692498e-01	 3.530028232342074e+00
 1.266367242783203e+00	 3.640056543110907e-01	 2.228426227616658e+00
 1.262984765461068e+00	 3.755736411204544e-01	 9.657211196121291e-01
 1.259488389803411e+00	 3.871369679153703e-01	-5.517945688721082e-02
 1.255877797971742e+00	 3.986940478127378e-01	-7.563704932570341e-01
 1.252152699998105e+00	 4.102432810862211e-01	-1.088218240615184e+00
 1.248312834232089e+00	 4.217830557404990e-01	-9.965382107226928e-01
 1.244357967774700e+00	 4.333117481015735e-01	-4.225921735621871e-01
 1.240287896898517e+00	 4.448277234228399e-01	 6.969080077305345e-01
 1.236102447453487e+00	 4.563293365065765e-01	 2.429789577372880e+00
 1.281314606896496e+00	 3.431444143904320e-01	 4.095837489946218e+00
 1.278137732496757e+00	 3.547945056014667e-01	 2.531898010918700e+00
 1.274846919333681e+00	 3.664430595947313e-01	 1.029681090749824e+00
 1.271441792725843e+00	 3.780885063879045e-01	-3.267740615148030e-01
 1.267922005111894e+00	 3.897292619628857e-01	-1.339896908040520e+00
 1.264287236525072e+00	 4.013637288107079e-01	-1.957524124814190e+00
 1.260537195055783e+00	 4.129902964931727e-01	-2.136484360764261e+00
 1.256671617301585e+00	 4.246073422209395e-01	-1.829786019044134e+00
 1.252690268803980e+00	 4.362132314477918e-01	-9.866176201214703e-01
 1.248592944471371e+00	 4.478063184807623e-01	 4.476458774938981e-01
 1.244379468987590e+00	 4.593849471057861e-01	 2.531430692704756e+00
 1.289837303433786e+00	 3.454268481468455e-01	 3.425738221910831e+00
 1.286639297973662e+00	 3.571544302341815e-01	 1.656438284067614e+00
 1.283326595883640e+00	 3.688804648788916e-01	 2.437845375155981e-02
 1.279898819990088e+00	 3.806033716558857e-01	-1.353990016638764e+00
 1.276355620419842e+00	 3.923215560109339e-01	-2.308470104602491e+00
 1.272696675077875e+00	 4.040334098092062e-01	-2.805233912551047e+00
 1.268921690112943e+00	 4.157373119006413e-01	-2.809504193913697e+00
 1.265030400370579e+00	 4.274316287018824e-01	-2.283630221079294e+00
 1.261022569832773e+00	 4.391147147944949e-01	-1.187092270741789e+00
 1.256897992043759e+00	 4.507849135391521e-01	 5.234890963082437e-01
 1.252656490521242e+00	 4.624405577054467e-01	 2.894338882078311e+00
 1.298359999970548e+00	 3.477092819037867e-01	 2.843010993646767e+00
 1.295140863449987e+00	 3.595143548674776e-01	 9.644546171879704e-01
 1.291806272432977e+00	 3.713178701636730e-01	-7.135001387295989e-01
 1.288355847253684e+00	 3.831182369245146e-01	-2.033529596918570e+00
 1.284789235727127e+00	 3.949138500596459e-01	-2.873723201561807e+00
 1.281106113630006e+00	 4.067030908083754e-01	-3.211319712272092e+00
 1.277306185169434e+00	 4.184843273087805e-01	-3.021838582704825e+00
 1.273389183438908e+00	 4.302559151834902e-01	-2.279086016910563e+00
 1.269354870860911e+00	 4.420161981418542e-01	-9.551643213996157e-01
 1.265203039615501e+00	 4.537635085981866e-01	 9.795153923001041e-01
 1.260933512054261e+00	 4.654961683057414e-01	 3.556217109259529e+00
 1.306882696506716e+00	 3.499917156613212e-01	 2.391042090827434e+00
 1.303642428925645e+00	 3.618742795014395e-01	 5.152189992046086e-01
 1.300285948981592e+00	 3.737552754491766e-01	-1.104993708189813e+00
 1.296812874516516e+00	 3.856331021939083e-01	-2.285110393602799e+00
 1.293222851033617e+00	 3.975061441091527e-01	-2.950719140389716e+00
 1.289515552181324e+00	 4.093727718083583e-01	-3.089865962775650e+00
 1.285690680225100e+00	 4.212313427177439e-01	-2.690241255765315e+00
 1.281747966506409e+00	 4.330802016659257e-01	-1.739193130891416e+00
 1.277687171888223e+00	 4.449176814900397e-01	-2.237423675063448e-01
 1.273508087186421e+00	 4.567421036580434e-01	 1.869401007498006e+00
 1.269210533586462e+00	 4.685517789068530e-01	 4.553819505909209e+00
 1.186440318249641e+00	 4.379956729105452e-01	 5.067316209607697e+00
 1.182311432174493e+00	 4.490216917444495e-01	 4.575964947617536e+00
 1.178071516811096e+00	 4.600307329592652e-01	 4.316128324836182e+00
 1.173720491529515e+00	 4.710211897176092e-01	 4.250013817282731e+00
 1.169258305519455e+00	 4.819914476518518e-01	 4.334485402847029e+00
 1.164684938103474e+00	 4.929398855297004e-01	 4.521045373410905e+00
 1.160000399033113e+00	 5.038648759321990e-01	 4.755822869502984e+00
 1.155204728767399e+00	 5.147647859436427e-01	 4.979569287426015e+00
 1.150297998733234e+00	 5.256379778529094e-01	 5.127660701132480e+00
 1.145280311567176e+00	 5.364828098656644e-01	 5.130107432920163e+00
 1.140151801338169e+00	 5.472976368268900e-01	 4.911570898261655e+00
 1.194717339782609e+00	 4.410512835108906e-01	 4.450439653959055e+00
 1.190559649157784e+00	 4.521542236986208e-01	 4.324991845702760e+00
 1.186290154665692e+00	 4.632400678254837e-01	 4.364880153369327e+00
 1.181908775113894e+00	 4.743071978442341e-01	 4.530252825234443e+00
 1.177415459337614e+00	 4.853539881248453e-01	 4.775929324438870e+00
 1.172810186515153e+00	 4.963788061247397e-01	 5.051386113683972e+00
 1.168092966466078e+00	 5.073800130715131e-01	 5.300749200006681e+00
 1.163263839931666e+00	 5.183559646576676e-01	 5.462793584652155e+00
 1.158322878837110e+00	 5.293050117468320e-01	 5.470949755369292e+00
 1.153270186534992e+00	 5.402255010909370e-01	 5.253317350224761e+00
 1.148105898029562e+00	 5.511157760577856e-01	 4.732686113258353e+00
 1.202994361316223e+00	 4.441068941105893e-01	 3.846805609348491e+00
 1.198807866141762e+00	 4.552867556521041e-01	 4.130427131355173e+00
 1.194508792521010e+00	 4.664494026909810e-01	 4.502627288925604e+00
 1.190097058699019e+00	 4.775932059701119e-01	 4.923038788858604e+00
 1.185572613156540e+00	 4.887165285970725e-01	 5.346134136939102e+00
 1.180935434927616e+00	 4.998177267189982e-01	 5.721215039851045e+00
 1.176185533899837e+00	 5.108951502100374e-01	 5.992408386084893e+00
 1.171322951096734e+00	 5.219471433708966e-01	 6.098668943313459e+00
 1.166347758941792e+00	 5.329720456399558e-01	 5.973788902370792e+00
 1.161260061503619e+00	 5.439681923154100e-01	 5.546414390115242e+00
 1.156059994721770e+00	 5.549339152878812e-01	 4.740069065079511e+00
 1.211271382850301e+00	 4.471625047098242e-01	 3.300528183222688e+00
 1.207056083126241e+00	 4.584192876050872e-01	 4.015243853386987e+00
 1.202727430376858e+00	 4.696587375559486e-01	 4.733978810643746e+00
 1.198285342284700e+00	 4.808792140954367e-01	 5.417360141230252e+00
 1.193729766976039e+00	 4.920790690687295e-01	 6.021175079284746e+00
 1.189060683340665e+00	 5.032566473126742e-01	 6.496363673559515e+00
 1.184278101334194e+00	 5.144102873479705e-01	 6.789017635588714e+00
 1.179382062262408e+00	 5.255383220835296e-01	 6.840385496641312e+00
 1.174372639047090e+00	 5.366390795324807e-01	 6.586884194189762e+00
 1.169249936472870e+00	 5.477108835392831e-01	 5.960117201541774e+00
 1.164014091414612e+00	 5.587520545173768e-01	 4.886899306706968e+00
 1.219548404384659e+00	 4.502181153087785e-01	 2.854560090754000e+00
 1.215304300111032e+00	 4.615518195577570e-01	 4.001827391161337e+00
 1.210946068233046e+00	 4.728680724205773e-01	 5.063454301065499e+00
 1.206473625870739e+00	 4.841652222204024e-01	 6.002539365046411e+00
 1.201886920795915e+00	 4.954416095400124e-01	 6.777811340703378e+00
 1.197185931754106e+00	 5.066955679059651e-01	 7.343624780589092e+00
 1.192370668768954e+00	 5.179254244855110e-01	 7.649961183716392e+00
 1.187441173428497e+00	 5.291295007957657e-01	 7.642435831253345e+00
 1.182397519152813e+00	 5.403061134246067e-01	 7.262310415541441e+00
 1.177239811442557e+00	 5.514535747627561e-01	 6.446511565652868e+00
 1.171968188107903e+00	 5.625701937464722e-01	 5.127655366333759e+00
 1.227825425919116e+00	 4.532737259076350e-01	 2.550731886479785e+00
 1.223552517095950e+00	 4.646843515103017e-01	 4.111995258235455e+00
 1.219164706089381e+00	 4.760774072850587e-01	 5.495486764892996e+00
 1.214661909456945e+00	 4.874512303452038e-01	 6.668221538703981e+00
 1.210044074615973e+00	 4.988041500111174e-01	 7.593462713479358e+00
 1.205311180167741e+00	 5.101344884990687e-01	 8.230719574904137e+00
 1.200463236203922e+00	 5.214405616228586e-01	 8.535750456252938e+00
 1.195500284594805e+00	 5.327206795078044e-01	 8.460570478863584e+00
 1.190422399258768e+00	 5.439731473165332e-01	 7.953464232738513e+00
 1.185229686412492e+00	 5.551962659860294e-01	 6.959003488281393e+00
 1.179922284801460e+00	 5.663883329753678e-01	 5.418070025412316e+00
 1.236102447453487e+00	 4.563293365065765e-01	 2.429789577372879e+00
 1.231800734080805e+00	 4.678168834629083e-01	 4.367016065912570e+00
 1.227383343945674e+00	 4.792867421495839e-01	 6.034425383931504e+00
 1.222850193043124e+00	 4.907372384700341e-01	 7.404363293884280e+00
 1.218201228436018e+00	 5.021666904822411e-01	 8.446187132916350e+00
 1.213436428581376e+00	 5.135734090921832e-01	 9.126266187359334e+00
 1.208555803638901e+00	 5.249556987602113e-01	 9.407985778163967e+00
 1.203559395761140e+00	 5.363118582198457e-01	 9.251755138846860e+00
 1.198447279364764e+00	 5.476401812084607e-01	 8.615019165412454e+00
 1.193219561382486e+00	 5.589389572093026e-01	 7.452274115288698e+00
 1.187876381495098e+00	 5.702064722042632e-01	 5.715087329556060e+00
 1.244379468987590e+00	 4.593849471057861e-01	 2.531430692704757e+00
 1.240048951065411e+00	 4.709494154157650e-01	 4.787627685816730e+00
 1.235601981801731e+00	 4.824960770143439e-01	 6.684538115844660e+00
 1.231038476629083e+00	 4.940232465950880e-01	 8.201222165485573e+00
 1.226358382255854e+00	 5.055292309535793e-01	 9.314659063187616e+00
 1.221561676994814e+00	 5.170123296855063e-01	 9.999749340174358e+00
 1.216648371073698e+00	 5.284708358977686e-01	 1.022931955559017e+01
 1.211618506927306e+00	 5.399030369320887e-01	 9.974129551068355e+00
 1.206472159470610e+00	 5.513072151005886e-01	 9.202882296151879e+00
 1.201209436352352e+00	 5.626816484327760e-01	 7.882236385894072e+00
 1.195830478188635e+00	 5.740246114333587e-01	 5.976821251612495e+00
 1.252656490521242e+00	 4.624405577054467e-01	 2.894338882078310e+00
 1.248297168049579e+00	 4.740819473690587e-01	 5.394054648537940e+00
 1.243820619657364e+00	 4.857054118795300e-01	 7.450014143946262e+00
 1.239226760214626e+00	 4.973092547205594e-01	 9.049346315754692e+00
 1.234515536075286e+00	 5.088917714253288e-01	 1.017814868994972e+01
 1.229686925407861e+00	 5.204512502792356e-01	 1.082149117140843e+01
 1.224740938508116e+00	 5.319859730357289e-01	 1.096342086309422e+01
 1.219677618093109e+00	 5.434942156447331e-01	 1.058696794264907e+01
 1.214497039576115e+00	 5.549742489931168e-01	 9.674152637674942e+00
 1.209199311321902e+00	 5.664243396566493e-01	 8.205993343603897e+00
 1.203784574881888e+00	 5.778427506628541e-01	 6.162515930491199e+00
 1.260933512054261e+00	 4.654961683057414e-01	 3.556217109259528e+00
 1.256545385033123e+00	 4.772144793229773e-01	 6.206024813449474e+00
 1.252039257512380e+00	 4.889147467453337e-01	 8.334966184872671e+00
 1.247415043799562e+00	 5.005952628466426e-01	 9.939564615424853e+00
 1.242672689894119e+00	 5.122543118976854e-01	 1.101650188264912e+01
 1.237812173820320e+00	 5.238901708735690e-01	 1.156262315659243e+01
 1.232833505941960e+00	 5.355011101742917e-01	 1.157494137159094e+01
 1.227736729258357e+00	 5.470853943579782e-01	 1.105064097634681e+01
 1.222521919681086e+00	 5.586412828862450e-01	 9.987081081373685e+00
 1.217189186290948e+00	 5.701670308811225e-01	 8.381798028575599e+00
 1.211738671574672e+00	 5.816608898929493e-01	 6.232507413343060e+00
 1.269210533586462e+00	 4.685517789068530e-01	 4.553819505909209e+00
 1.264793602015855e+00	 4.803470112777081e-01	 7.242785342967553e+00
 1.260257895366589e+00	 4.921240816119458e-01	 9.343432660624467e+00
 1.255603327383696e+00	 5.038812709735316e-01	 1.086297706556148e+01
 1.250829843712159e+00	 5.156168523708458e-01	 1.181012089138570e+01
 1.245937422231995e+00	 5.273290914687045e-01	 1.219505907743528e+01
 1.240926073375035e+00	 5.390162473136549e-01	 1.202948255575788e+01
 1.235795840422856e+00	 5.506765730720238e-01	 1.132657913200512e+01
 1.230546799785333e+00	 5.623083167801735e-01	 1.010103185504314e+01
 1.225179061259301e+00	 5.739097221063956e-01	 8.369014879226214e+00
 1.219692768266804e+00	 5.854790291238445e-01	 6.148186832464871e+00
 1.140151801338169e+00	 5.472976368268900e-01	 4.911570898261655e+00
 1.134913533570922e+00	 5.580789807032194e-01	 4.550574542794178e+00
 1.129564842684505e+00	 5.688270330977130e-01	 4.181659542229970e+00
 1.124105957266472e+00	 5.795401434485337e-01	 3.811758536817536e+00
 1.118537138011102e+00	 5.902166607945590e-01	 3.450558252034893e+00
 1.112858677841215e+00	 6.008549345401176e-01	 3.110503421836512e+00
 1.107070902008571e+00	 6.114533152263181e-01	 2.806234376577274e+00
 1.101174168172526e+00	 6.220101553082881e-01	 2.553803057607857e+00
 1.095168866456658e+00	 6.325238099376140e-01	 2.373298660948683e+00
 1.089055419483085e+00	 6.429926377492694e-01	 2.287657786638283e+00
 1.082834282384246e+00	 6.534150016522964e-01	 2.322560133883279e+00
 1.148105898029562e+00	 5.511157760577856e-01	 4.732686113258353e+00
 1.142831086278996e+00	 5.619723343500329e-01	 4.057287028550279e+00
 1.137445081059043e+00	 5.727953689074317e-01	 3.431970771431681e+00
 1.131948112551971e+00	 5.835832176532515e-01	 2.862559973171889e+00
 1.126340443270758e+00	 5.943342181086932e-01	 2.357164021609635e+00
 1.120622368181761e+00	 6.050467081629568e-01	 1.926179791665152e+00
 1.114794214805816e+00	 6.157190268499535e-01	 1.582289031473844e+00
 1.108856343297441e+00	 6.263495151309660e-01	 1.340270541964077e+00
 1.102809146501857e+00	 6.369365166825475e-01	 1.215301221605153e+00
 1.096653049989549e+00	 6.474783786889398e-01	 1.225876252480051e+00
 1.090388512068123e+00	 6.579734526382700e-01	 1.393217174291945e+00
 1.156059994721770e+00	 5.549339152878812e-01	 4.740069065079511e+00
 1.150748638987892e+00	 5.658656879960468e-01	 3.769235140082464e+00
 1.145325319434410e+00	 5.767637047163499e-01	 2.903593870631910e+00
 1.139790267838306e+00	 5.876262918571695e-01	 2.147517051310230e+00
 1.134143748531256e+00	 5.984517754220279e-01	 1.507179582966923e+00
 1.128386058523156e+00	 6.092384817849962e-01	 9.905573930136387e-01
 1.122517527603915e+00	 6.199847384727891e-01	 6.074226381043728e-01
 1.116538518423214e+00	 6.306888749528436e-01	 3.693362124151653e-01
 1.110449426547919e+00	 6.413492234266810e-01	 2.896215142706660e-01
 1.104250680496879e+00	 6.519641196278099e-01	 3.815960296596750e-01
 1.097942741752867e+00	 6.625319036234437e-01	 6.605270157185763e-01
 1.164014091414612e+00	 5.587520545173768e-01	 4.886899306706967e+00
 1.158666191697431e+00	 5.697590416414604e-01	 3.643157166542490e+00
 1.153205557810433e+00	 5.807320405246689e-01	 2.556613402462794e+00
 1.147632423125309e+00	 5.916693660604879e-01	 1.629856778385583e+00
 1.141947053792436e+00	 6.025693327347621e-01	 8.667793708974785e-01
 1.136149748865245e+00	 6.134302554064358e-01	 2.725720558637352e-01
 1.130240840402720e+00	 6.242504500950247e-01	-1.462820679036179e-01
 1.124220693549705e+00	 6.350282347741220e-01	-3.820162811503343e-01
 1.118089706594707e+00	 6.457619301702145e-01	-4.255908297456732e-01
 1.111848311004940e+00	 6.564498605660801e-01	-2.667054441247347e-01
 1.105496971438344e+00	 6.670903546080174e-01	 1.049177779233119e-01
 1.171968188107903e+00	 5.625701937464722e-01	 5.127655366333759e+00
 1.166583744407436e+00	 5.736523952864742e-01	 3.636992331895369e+00
 1.161085796186939e+00	 5.847003763325871e-01	 2.352222522709795e+00
 1.155474578412816e+00	 5.957124402634059e-01	 1.273827888388046e+00
 1.149750359054139e+00	 6.066868900470965e-01	 4.030779280579030e-01
 1.143913439207876e+00	 6.176220290274752e-01	-2.579768860481224e-01
 1.137964153202087e+00	 6.285161617168603e-01	-7.065130656123102e-01
 1.131902868676772e+00	 6.393675945949999e-01	-9.389433937579308e-01
 1.125729986642083e+00	 6.501746369133482e-01	-9.509274877268907e-01
 1.119445941513597e+00	 6.609356015039503e-01	-7.373835764272194e-01
 1.113051201124420e+00	 6.716488055921910e-01	-2.925014280037330e-01
 1.179922284801460e+00	 5.663883329753678e-01	 5.418070025412316e+00
 1.174501297117727e+00	 5.775457489312879e-01	 3.709839264748552e+00
 1.168966034563758e+00	 5.886687121403056e-01	 2.252684449086714e+00
 1.163316733700660e+00	 5.997555144661237e-01	 1.044665124864786e+00
 1.157553664316206e+00	 6.108044473592312e-01	 8.409682462592372e-02
 1.151677129550899e+00	 6.218138026483148e-01	-6.304572075022674e-01
 1.145687466001867e+00	 6.327818733384957e-01	-1.100194961188673e+00
 1.139585043804274e+00	 6.437069544156779e-01	-1.326085212917993e+00
 1.133370266689911e+00	 6.545873436562815e-01	-1.308877619318070e+00
 1.127043572022716e+00	 6.654213424416205e-01	-1.049113279738918e+00
 1.120605430810964e+00	 6.762072565761650e-01	-5.471356937193126e-01
 1.187876381495098e+00	 5.702064722042632e-01	 5.715087329556061e+00
 1.182418849828129e+00	 5.814391025761014e-01	 3.821916070606599e+00
 1.176846272940716e+00	 5.926370479480242e-01	 2.221295409763401e+00
 1.171158888988677e+00	 6.037985886688417e-01	 9.085548881615354e-01
 1.165356969578480e+00	 6.149220046713653e-01	-1.212671656274842e-01
 1.159440819894159e+00	 6.260055762691541e-01	-8.734332489537017e-01
 1.153410778801916e+00	 6.370475849601311e-01	-1.353516232385487e+00
 1.147267218932070e+00	 6.480463142363558e-01	-1.567408764807749e+00
 1.141010546738053e+00	 6.590000503992147e-01	-1.521332457273877e+00
 1.134641202532164e+00	 6.699070833792907e-01	-1.221846764094761e+00
 1.128159660497840e+00	 6.807657075601384e-01	-6.758574776516868e-01
 1.195830478188635e+00	 5.740246114333587e-01	 5.976821251612494e+00
 1.190336402538461e+00	 5.853324562211150e-01	 3.934521931942744e+00
 1.184726511317642e+00	 5.966053837559427e-01	 2.222349002748119e+00
 1.179001044276700e+00	 6.078416628717598e-01	 8.326021836538894e-01
 1.173160274840800e+00	 6.190395619836996e-01	-2.432726913479074e-01
 1.167204510237504e+00	 6.301973498901932e-01	-1.014694272357287e+00
 1.161134091602085e+00	 6.413132965819665e-01	-1.491955462104138e+00
 1.154949394060018e+00	 6.523856740572336e-01	-1.686232265708355e+00
 1.148650826786372e+00	 6.634127571423485e-01	-1.609591631147985e+00
 1.142238833041805e+00	 6.743928243171609e-01	-1.274998188762642e+00
 1.135713890184916e+00	 6.853241585443121e-01	-6.963197974892557e-01
 1.203784574881888e+00	 5.778427506628541e-01	 6.162515930491198e+00
 1.198253955248546e+00	 5.892258098665284e-01	 4.010000165422654e+00
 1.192606749694363e+00	 6.005737195642609e-01	 2.221101900870774e+00
 1.186843199564566e+00	 6.118847370750775e-01	 7.847988107959512e-01
 1.180963580103007e+00	 6.231571192964340e-01	-3.113633070932898e-01
 1.174968200580783e+00	 6.343891235116323e-01	-1.081281766597739e+00
 1.168857404402229e+00	 6.455790082042018e-01	-1.540306607795098e+00
 1.162631569187978e+00	 6.567250338785113e-01	-1.705248489931640e+00
 1.156291106834732e+00	 6.678254638858818e-01	-1.594384760698636e+00
 1.149836463551505e+00	 6.788785652554309e-01	-1.227463600359783e+00
 1.143268119872058e+00	 6.898826095288855e-01	-6.257061399868133e-01
 1.211738671574672e+00	 5.816608898929493e-01	 6.232507413343060e+00
 1.206171507958207e+00	 5.931191635125417e-01	 4.011702669326628e+00
 1.200486988070708e+00	 6.045420553731793e-01	 2.183740840538619e+00
 1.194685354852107e+00	 6.159278112789953e-01	 7.339927359732611e-01
 1.188766885364944e+00	 6.272746766097681e-01	-3.541958668122464e-01
 1.182731890923842e+00	 6.385808971336716e-01	-1.099515750787167e+00
 1.176580717202202e+00	 6.498447198270372e-01	-1.522703350995824e+00
 1.170313744315808e+00	 6.610643937003891e-01	-1.646547294830064e+00
 1.163931386882993e+00	 6.722381706300147e-01	-1.495892278294745e+00
 1.157434094061130e+00	 6.833643061943009e-01	-1.097640167158595e+00
 1.150822349559133e+00	 6.944410605140587e-01	-4.807482141472100e-01
 1.219692768266804e+00	 5.854790291238445e-01	 6.148186832464871e+00
 1.214089060667263e+00	 5.970125171593550e-01	 3.903955697710098e+00
 1.208367226446505e+00	 6.085103911828973e-01	 2.077350835663358e+00
 1.202527510139158e+00	 6.199708854837129e-01	 6.498585951218567e-01
 1.196570190626451e+00	 6.313922339239018e-01	-3.996678770611204e-01
 1.190495581266530e+00	 6.427726707565107e-01	-1.095020121174764e+00
 1.184304030001858e+00	 6.541104314506720e-01	-1.462642568995315e+00
 1.177995919443366e+00	 6.654037535230667e-01	-1.531637341365972e+00
 1.171571666931022e+00	 6.766508773749481e-01	-1.333765515515040e+00
 1.165031724570545e+00	 6.878500471339707e-01	-9.034447417075397e-01
 1.158376579246009e+00	 6.989995115000320e-01	-2.777430926184173e-01
 1.082834282384246e+00	 6.534150016522964e-01	 2.322560133883278e+00
 1.076505943053501e+00	 6.637892698303393e-01	 2.381309826299958e+00
 1.070070922891450e+00	 6.741138171709183e-01	 2.362008318114516e+00
 1.063529775955415e+00	 6.843870254644014e-01	 2.284421600492245e+00
 1.056883088614866e+00	 6.946072839977351e-01	 2.168080017931316e+00
 1.050131479446166e+00	 7.047729903516500e-01	 2.032256110530674e+00
 1.043275599103903e+00	 7.148825511969510e-01	 1.895943430847453e+00
 1.036316130168806e+00	 7.249343830890960e-01	 1.777836374922540e+00
 1.029253786972209e+00	 7.349269132602679e-01	 1.696311061399271e+00
 1.022089315397092e+00	 7.448585804081368e-01	 1.667274213807656e+00
 1.014823492655765e+00	 7.547278354805068e-01	 1.690933622218484e+00
 1.090388512068123e+00	 6.579734526382700e-01	 1.393217174291944e+00
 1.084016024034659e+00	 6.684200953300652e-01	 1.591545157008806e+00
 1.077536110927221e+00	 6.788166703144929e-01	 1.694623848387817e+00
 1.070949330668425e+00	 6.891615480927239e-01	 1.724598437774749e+00
 1.064256273718450e+00	 6.994531067148073e-01	 1.703481224178221e+00
 1.057457562969055e+00	 7.096897325824356e-01	 1.653125971489508e+00
 1.050553853614018e+00	 7.198698212507918e-01	 1.595203104979348e+00
 1.043545832995979e+00	 7.299917782286703e-01	 1.551175794067181e+00
 1.036434220429690e+00	 7.400540197760759e-01	 1.542276960841718e+00
 1.029219767001664e+00	 7.500549736984856e-01	 1.578321306349669e+00
 1.021903255346308e+00	 7.599930801369752e-01	 1.666833670252984e+00
 1.097942741752867e+00	 6.625319036234437e-01	 6.605270157185763e-01
 1.091526105016681e+00	 6.730509208289913e-01	 9.762751511157595e-01
 1.085001298963854e+00	 6.835195234572684e-01	 1.182656611875950e+00
 1.078368885382286e+00	 6.939360707202499e-01	 1.303242777718424e+00
 1.071629458822871e+00	 7.042989294310876e-01	 1.361580190736053e+00
 1.064783646492761e+00	 7.146064748124378e-01	 1.381162797942719e+00
 1.057832108124917e+00	 7.248570913038612e-01	 1.385404904749532e+00
 1.050775535823896e+00	 7.350491733674904e-01	 1.397614887561969e+00
 1.043614653887864e+00	 7.451811262911517e-01	 1.438289972531329e+00
 1.036350218606865e+00	 7.552513669881316e-01	 1.510615687009188e+00
 1.028983018037402e+00	 7.652583247927758e-01	 1.634946221700447e+00
 1.105496971438344e+00	 6.670903546080174e-01	 1.049177779233119e-01
 1.099036185999435e+00	 6.776817463273176e-01	 5.179000797388282e-01
 1.092466487001211e+00	 6.882223765994447e-01	 8.106236615963971e-01
 1.085788440096861e+00	 6.987105933471784e-01	 1.007153469656061e+00
 1.079002643927987e+00	 7.091447521467743e-01	 1.131642898957279e+00
 1.072109730017137e+00	 7.195232170418521e-01	 1.208305281158131e+00
 1.065110362636457e+00	 7.298443613563518e-01	 1.261385955827945e+00
 1.058005238652415e+00	 7.401065685057445e-01	 1.315134974482933e+00
 1.050795087346593e+00	 7.503082328056783e-01	 1.381077308248650e+00
 1.043480670212565e+00	 7.604477602772499e-01	 1.468606513825763e+00
 1.036062780728931e+00	 7.705235694480761e-01	 1.603703117025129e+00
 1.113051201124420e+00	 6.716488055921910e-01	-2.925014280037330e-01
 1.106546266982786e+00	 6.823125718252437e-01	 1.992956086284778e-01
 1.099931675039156e+00	 6.929252297412211e-01	 5.634594443826253e-01
 1.093207994812010e+00	 7.034851159737091e-01	 8.234843996013730e-01
 1.086375829033657e+00	 7.139905748620659e-01	 1.003223105981833e+00
 1.079435813542042e+00	 7.244399592708750e-01	 1.126707177628748e+00
 1.072388617148494e+00	 7.348316314084572e-01	 1.218119744928669e+00
 1.065234941481394e+00	 7.451639636436211e-01	 1.298916826784448e+00
 1.057975520805739e+00	 7.554353393198385e-01	 1.371321829568340e+00
 1.050611121818636e+00	 7.656441535660167e-01	 1.456612027653883e+00
 1.043142543420778e+00	 7.757888141030427e-01	 1.581297659269926e+00
 1.120605430810964e+00	 6.762072565761650e-01	-5.471356937193135e-01
 1.114056347966599e+00	 6.869433973229701e-01	 4.153063909189125e-03
 1.107396863077554e+00	 6.976280828827985e-01	 4.264993920591389e-01
 1.100627549527593e+00	 7.082596386000406e-01	 7.397301396863103e-01
 1.093749014139739e+00	 7.188363975771588e-01	 9.661502220154370e-01
 1.086761897067330e+00	 7.293567014997019e-01	 1.128727602293735e+00
 1.079666871660883e+00	 7.398189014603694e-01	 1.250709035519501e+00
 1.072464644310690e+00	 7.502213587813089e-01	 1.342254708859257e+00
 1.065155954265166e+00	 7.605624458338158e-01	 1.409731533116752e+00
 1.057741573424948e+00	 7.708405468546072e-01	 1.478824123023499e+00
 1.050222306112825e+00	 7.810540587578422e-01	 1.575692833436364e+00
 1.128159660497840e+00	 6.807657075601384e-01	-6.758574776516890e-01
 1.121566428950742e+00	 6.915742228206959e-01	-8.035502522076032e-02
 1.114862051116267e+00	 7.023309360243754e-01	 3.860600459578578e-01
 1.108047104243473e+00	 7.130341612263716e-01	 7.437121030794351e-01
 1.101122199246091e+00	 7.236822202922523e-01	 1.010517602774261e+00
 1.094087980592859e+00	 7.342734437285288e-01	 1.206921639117768e+00
 1.086945126173480e+00	 7.448061715122818e-01	 1.351813101954684e+00
 1.079694347140162e+00	 7.552787539189969e-01	 1.442647357804969e+00
 1.072336387724735e+00	 7.656895523477931e-01	 1.496985247769015e+00
 1.064872025031371e+00	 7.760369401431979e-01	 1.539312755484461e+00
 1.057302068804957e+00	 7.863193034126421e-01	 1.594629216060929e+00
 1.135713890184916e+00	 6.853241585443121e-01	-6.963197974892557e-01
 1.129076509935079e+00	 6.962050483186220e-01	-6.925918606458681e-02
 1.122327239155160e+00	 7.070337891661519e-01	 4.317292639174730e-01
 1.115466658959509e+00	 7.178086838529022e-01	 8.243850570619364e-01
 1.108495384352572e+00	 7.285280430075431e-01	 1.126671237763669e+00
 1.101414064118486e+00	 7.391901859575513e-01	 1.354031254249782e+00
 1.094223380686142e+00	 7.497934415643868e-01	 1.511561894080767e+00
 1.086924049969666e+00	 7.603361490568736e-01	 1.597698638584060e+00
 1.079516821184309e+00	 7.708166588619533e-01	 1.633733778709340e+00
 1.072002476637777e+00	 7.812333334319643e-01	 1.642030193049191e+00
 1.064381831497056e+00	 7.915845480676086e-01	 1.645632589412360e+00
 1.143268119872058e+00	 6.898826095288855e-01	-6.257061399868122e-01
 1.136586590919476e+00	 7.008358738169480e-01	 2.196874339921484e-02
 1.129792427194096e+00	 7.117366423083283e-01	 5.504570224043637e-01
 1.122886213675563e+00	 7.225832064798309e-01	 9.736721791646739e-01
 1.115868569459039e+00	 7.333738657232296e-01	 1.306191861974168e+00
 1.108740147644065e+00	 7.441069281869657e-01	 1.561113301980059e+00
 1.101501635198725e+00	 7.547807116168771e-01	 1.724758263950293e+00
 1.094153752799062e+00	 7.653935441951275e-01	 1.805065458903078e+00
 1.086697254643750e+00	 7.759437653764797e-01	 1.820601025688241e+00
 1.079132928244035e+00	 7.864297267210824e-01	 1.790815118944881e+00
 1.071461594189006e+00	 7.968497927229087e-01	 1.736021273973466e+00
 1.150822349559133e+00	 6.944410605140587e-01	-4.807482141472100e-01
 1.144096671903800e+00	 7.054666993158739e-01	 1.782616701109060e-01
 1.137257615232939e+00	 7.164394954511032e-01	 7.289630166882582e-01
 1.130305768391496e+00	 7.273577291073564e-01	 1.180625413379376e+00
 1.123241754565352e+00	 7.382196884395098e-01	 1.543328239423632e+00
 1.116066231169455e+00	 7.490236704169675e-01	 1.816547919982697e+00
 1.108779889711084e+00	 7.597679816699466e-01	 1.986445462675144e+00
 1.101383455628205e+00	 7.704509393339470e-01	 2.062456215914118e+00
 1.093877688102920e+00	 7.810708718915549e-01	 2.058185076663198e+00
 1.086263379850017e+00	 7.916261200107276e-01	 1.989396592508392e+00
 1.078541356880689e+00	 8.021150373787092e-01	 1.872913192152045e+00
 1.158376579246009e+00	 6.989995115000320e-01	-2.777430926184177e-01
 1.151606752887915e+00	 7.100975248155994e-01	 3.849415257300429e-01
 1.144722803271552e+00	 7.211423485946773e-01	 9.543072268203343e-01
 1.137725323107168e+00	 7.321322517356784e-01	 1.434178883134893e+00
 1.130614939671369e+00	 7.430655111565818e-01	 1.828402473034058e+00
 1.123392314694512e+00	 7.539404126477526e-01	 2.116107628959631e+00
 1.116058144223075e+00	 7.647552517237869e-01	 2.292873125982883e+00
 1.108613158456955e+00	 7.755083344735211e-01	 2.367629322678914e+00
 1.101058121561683e+00	 7.861979784073621e-01	 2.347059277947436e+00
 1.093393831455592e+00	 7.968225133010768e-01	 2.241397874700161e+00
 1.085621119571988e+00	 8.073802820351770e-01	 2.063232675491692e+00
 1.014823492655765e+00	 7.547278354805068e-01	 1.690933622218485e+00
 1.007455866878029e+00	 7.645348030033171e-01	 1.806747608631976e+00
 9.999885077428706e-01	 7.742762720958096e-01	 2.026396925629987e+00
 9.924222895156739e-01	 7.839507287258528e-01	 2.320817807546489e+00
 9.847581167113650e-01	 7.935566741776144e-01	 2.660493617466022e+00
 9.769969237553450e-01	 8.030926258071813e-01	 3.015499196174944e+00
 9.691396746219908e-01	 8.125571177893284e-01	 3.355545798369998e+00
 9.611873624510034e-01	 8.219487018546621e-01	 3.650026528869849e+00
 9.531410091419071e-01	 8.312659480163649e-01	 3.868062190860229e+00
 9.450016649270306e-01	 8.405074452857859e-01	 3.978547457767671e+00
 9.367704079233418e-01	 8.496718023761349e-01	 3.950197280198654e+00
 1.021903255346308e+00	 7.599930801369752e-01	 1.666833670252986e+00
 1.014484230441013e+00	 7.698684644862169e-01	 1.853104408224902e+00
 1.006964776403574e+00	 7.796778934652291e-01	 2.145477187432056e+00
 9.993457735985644e-01	 7.894198424794652e-01	 2.510724649778644e+00
 9.916281328511281e-01	 7.990928023575281e-01	 2.915415658154175e+00
 9.838127951055509e-01	 8.086952801120634e-01	 3.325966710575051e+00
 9.759007310612396e-01	 8.182257996917395e-01	 3.708693606322238e+00
 9.678929407863931e-01	 8.276829027235307e-01	 4.029863263375199e+00
 9.597904533096691e-01	 8.370651492445328e-01	 4.255745586377805e+00
 9.515943261901918e-01	 8.463711184225460e-01	 4.352665284621763e+00
 9.433056450662566e-01	 8.555994092646793e-01	 4.287053540097530e+00
 1.028983018037402e+00	 7.652583247927758e-01	 1.634946221700447e+00
 1.021512594004457e+00	 7.752021259684926e-01	 1.859292354667335e+00
 1.013941045064636e+00	 7.850795148340746e-01	 2.191455730309448e+00
 1.006269257681702e+00	 7.948889562325552e-01	 2.595846073150672e+00
 9.984981489910247e-01	 8.046289305369722e-01	 3.036888269842287e+00
 9.906286664557780e-01	 8.142979344165282e-01	 3.479078294104526e+00
 9.826617875004017e-01	 8.238944815937811e-01	 3.887039082065205e+00
 9.745985191215946e-01	 8.334171035920709e-01	 4.225576248121018e+00
 9.664398974771549e-01	 8.428643504724043e-01	 4.459733531979461e+00
 9.581869874530051e-01	 8.522347915590314e-01	 4.554847868414876e+00
 9.498408822087722e-01	 8.615270161529561e-01	 4.476603972484483e+00
 1.036062780728931e+00	 7.705235694480761e-01	 1.603703117025129e+00
 1.028540957568261e+00	 7.805357874503007e-01	 1.837583533886250e+00
 1.020917313725976e+00	 7.904811362024879e-01	 2.179817954441083e+00
 1.013192741765033e+00	 8.003580699852531e-01	 2.594217732358869e+00
 1.005368165131026e+00	 8.101650587160644e-01	 3.044798607869261e+00
 9.974445378060230e-01	 8.199005887206797e-01	 3.495838618830561e+00
 9.894228439394991e-01	 8.295631634955454e-01	 3.911935693875757e+00
 9.813040974566558e-01	 8.391513044603643e-01	 4.258064812814961e+00
 9.730893416444341e-01	 8.486635517000538e-01	 4.499634620551323e+00
 9.647796487155581e-01	 8.580984646953105e-01	 4.602543382205218e+00
 9.563761193509887e-01	 8.674546230410330e-01	 4.533234168932244e+00
 1.043142543420778e+00	 7.757888141030427e-01	 1.581297659269925e+00
 1.035569321132326e+00	 7.858694489317968e-01	 1.799907733338668e+00
 1.027893582387516e+00	 7.958827575706146e-01	 2.125620209697126e+00
 1.020116225848501e+00	 8.058271837376898e-01	 2.523377467209682e+00
 1.012238181271103e+00	 8.157011868949218e-01	 2.958486201723075e+00
 1.004260409156283e+00	 8.255032430246221e-01	 3.396674827507136e+00
 9.961839003785548e-01	 8.352318453971241e-01	 3.804150325362484e+00
 9.880096757916245e-01	 8.448855053284937e-01	 4.147654421811593e+00
 9.797387858115763e-01	 8.544627529275555e-01	 4.394518985364204e+00
 9.713723099779371e-01	 8.639621378314525e-01	 4.512720527788463e+00
 9.629113564930061e-01	 8.733822299289763e-01	 4.470933700615289e+00
 1.050222306112825e+00	 7.810540587578422e-01	 1.575692833436366e+00
 1.042597684696553e+00	 7.912031104131366e-01	 1.757864179142960e+00
 1.034869851049178e+00	 8.012843789385971e-01	 2.043504476455796e+00
 1.027039709932053e+00	 8.112962974899961e-01	 2.400382320035596e+00
 1.019108197411227e+00	 8.212373150736622e-01	 2.796761669343685e+00
 1.011076280506557e+00	 8.311058973284604e-01	 3.201456272851524e+00
 1.002944956817593e+00	 8.409005272986109e-01	 3.583883336050945e+00
 9.947152541265479e-01	 8.506197061965409e-01	 3.914116321065148e+00
 9.863882299786499e-01	 8.602619541549832e-01	 4.162936767680394e+00
 9.779649712402301e-01	 8.698258109675258e-01	 4.301885027999752e+00
 9.694465936349229e-01	 8.793098368168527e-01	 4.303309809654834e+00
 1.057302068804957e+00	 7.863193034126421e-01	 1.594629216060930e+00
 1.049626048260840e+00	 7.965367718944765e-01	 1.722732822357125e+00
 1.041846119710883e+00	 8.066860003065802e-01	 1.947712477567550e+00
 1.033963194015633e+00	 8.167654112423022e-01	 2.241824890633230e+00
 1.025978213551370e+00	 8.267734432524022e-01	 2.577924701008596e+00
 1.017892151856842e+00	 8.367085516322990e-01	 2.929513485441838e+00
 1.009706013256637e+00	 8.465692092000973e-01	 3.270787837881228e+00
 1.001420832461473e+00	 8.563539070645878e-01	 3.576686417796912e+00
 9.930376741457240e-01	 8.660611553824104e-01	 3.822935864622608e+00
 9.845576325025225e-01	 8.756894841035987e-01	 3.986095478785416e+00
 9.759818307768401e-01	 8.852374437047291e-01	 4.043600572894353e+00
 1.064381831497056e+00	 7.915845480676086e-01	 1.645632589412360e+00
 1.056654411825089e+00	 8.018704333759725e-01	 1.705485195397250e+00
 1.048822388372552e+00	 8.120876216747063e-01	 1.852099247953575e+00
 1.040886678099189e+00	 8.222345249947390e-01	 2.063849059570005e+00
 1.032848229691502e+00	 8.323095714312597e-01	 2.319781346809966e+00
 1.024708023207134e+00	 8.423112059362412e-01	 2.599656406151791e+00
 1.016467069695709e+00	 8.522378911016759e-01	 2.883988224126982e+00
 1.008126410796449e+00	 8.620881079327173e-01	 3.154083428602954e+00
 9.996871183128678e-01	 8.718603566099119e-01	 3.392078990816827e+00
 9.911502937649018e-01	 8.815531572397404e-01	 3.580978590854599e+00
 9.825170679188570e-01	 8.911650505926724e-01	 3.704687562670666e+00
 1.071461594189006e+00	 7.968497927229087e-01	 1.736021273973466e+00
 1.063682775389200e+00	 8.072040948577802e-01	 1.716794858478682e+00
 1.055798657034108e+00	 8.174892430431202e-01	 1.770146186925060e+00
 1.047810162182663e+00	 8.277036387474366e-01	 1.882165109074653e+00
 1.039718245831595e+00	 8.378456996103520e-01	 2.039660639935427e+00
 1.031523894557432e+00	 8.479138602403927e-01	 2.230191917141283e+00
 1.023228126134833e+00	 8.579065730034401e-01	 2.442097985314197e+00
 1.014831989131521e+00	 8.678223088010109e-01	 2.664526329840306e+00
 1.006336562480151e+00	 8.776595578375613e-01	 2.887460085550221e+00
 9.977429550274552e-01	 8.874168303760197e-01	 3.101743849145620e+00
 9.890523050610736e-01	 8.970926574807490e-01	 3.299108027847033e+00
 1.078541356880689e+00	 8.021150373787092e-01	 1.872913192152045e+00
 1.070711138953074e+00	 8.125377563400561e-01	 1.767047454919502e+00
 1.062774925695471e+00	 8.228908644119648e-01	 1.714973616993065e+00
 1.054733646266003e+00	 8.331727525005264e-01	 1.712064269193422e+00
 1.046588261971619e+00	 8.433818277897960e-01	 1.754430586272685e+00
 1.038339765907732e+00	 8.535165145448569e-01	 1.838940703634301e+00
 1.029989182574033e+00	 8.635752549054815e-01	 1.963236844902451e+00
 1.021537567466739e+00	 8.735565096695507e-01	 2.125751142352228e+00
 1.012986006647641e+00	 8.834587590654330e-01	 2.325720095518295e+00
 1.004335616290269e+00	 8.932805035125048e-01	 2.563197616859410e+00
 9.955875422035889e-01	 9.030202643690258e-01	 2.839066617152863e+00
 1.085621119571988e+00	 8.073802820351770e-01	 2.063232675491693e+00
 1.077739502516610e+00	 8.178714178229555e-01	 1.866350393161702e+00
 1.069751194356563e+00	 8.282924857813846e-01	 1.699352871698083e+00
 1.061657130349154e+00	 8.386418662541383e-01	 1.568432715448860e+00
 1.053458278111545e+00	 8.489179559697088e-01	 1.480513549266085e+00
 1.045155637258033e+00	 8.591191688497392e-01	 1.443253477034613e+00
 1.036750239013331e+00	 8.692439368078929e-01	 1.465047245782545e+00
 1.028243145802149e+00	 8.792907105384193e-01	 1.555027080920705e+00
 1.019635450815409e+00	 8.892579602936008e-01	 1.723062161666392e+00
 1.010928277553431e+00	 8.991441766492650e-01	 1.979756709415838e+00
 1.002122779346504e+00	 9.089478712575699e-01	 2.336446665724714e+00
 9.367704079233418e-01	 8.496718023761349e-01	 3.950197280198655e+00
 9.284497634436332e-01	 8.587561131858535e-01	 3.807185627441847e+00
 9.200394596443375e-01	 8.677606052844652e-01	 3.605436814482537e+00
 9.115406399879045e-01	 8.766839660711286e-01	 3.361607579042691e+00
 9.029544738081481e-01	 8.855249053128216e-01	 3.092827776159047e+00
 8.942821557703193e-01	 8.942821557703196e-01	 2.816677711373111e+00
 8.855249053128216e-01	 9.029544738081482e-01	 2.551164513237007e+00
 8.766839660711283e-01	 9.115406399879040e-01	 2.314697578211153e+00
 8.677606052844652e-01	 9.200394596443375e-01	 2.126063124115639e+00
 8.587561131858534e-01	 9.284497634436334e-01	 2.004397891318265e+00
 8.496718023761349e-01	 9.367704079233418e-01	 1.969162033783536e+00
 9.433056450662566e-01	 8.555994092646793e-01	 4.287053540097530e+00
 9.349269528681248e-01	 8.647470953953964e-01	 4.085907098665939e+00
 9.264579758557512e-01	 8.738144059718300e-01	 3.813506558901153e+00
 9.178998654687733e-01	 8.828000192359826e-01	 3.492664490452962e+00
 9.092537991986805e-01	 8.917026359537202e-01	 3.146521476096680e+00
 9.005209800451207e-01	 9.005209800451206e-01	 2.798514991662874e+00
 8.917026359537202e-01	 9.092537991986804e-01	 2.472347528640872e+00
 8.828000192359825e-01	 9.178998654687734e-01	 2.191954006258755e+00
 8.738144059718299e-01	 9.264579758557512e-01	 1.981468522543384e+00
 8.647470953953961e-01	 9.349269528681250e-01	 1.865190496470585e+00
 8.555994092646789e-01	 9.433056450662566e-01	 1.867550255810434e+00
 9.498408822087722e-01	 8.615270161529561e-01	 4.476603972484481e+00
 9.414041422921891e-01	 8.707380776046652e-01	 4.251957987046530e+00
 9.328764920667283e-01	 8.798682066589015e-01	 3.948317431709014e+00
 9.242590909492125e-01	 8.889160724005157e-01	 3.592579474573889e+00
 9.155531245888028e-01	 8.978803665942670e-01	 3.211815219434233e+00
 9.067598043195394e-01	 9.067598043195393e-01	 2.833232959861470e+00
 8.978803665942670e-01	 9.155531245888026e-01	 2.484140890013020e+00
 8.889160724005154e-01	 9.242590909492127e-01	 2.191909327956463e+00
 8.798682066589014e-01	 9.328764920667287e-01	 1.983932509611823e+00
 8.707380776046647e-01	 9.414041422921891e-01	 1.887590013601871e+00
 8.615270161529561e-01	 9.498408822087723e-01	 1.930207879360127e+00
 9.563761193509887e-01	 8.674546230410330e-01	 4.533234168932244e+00
 9.478813317159320e-01	 8.767290598137282e-01	 4.316109071795522e+00
 9.392950082773779e-01	 8.859220073457531e-01	 4.016870497906853e+00
 9.306183164293290e-01	 8.950321255648077e-01	 3.664469958360557e+00
 9.218524499786171e-01	 9.040580972345493e-01	 3.287869945043846e+00
 9.129986285936698e-01	 9.129986285936695e-01	 2.916004353615791e+00
 9.040580972345493e-01	 9.218524499786170e-01	 2.577738587839616e+00
 8.950321255648074e-01	 9.306183164293292e-01	 2.301829405372736e+00
 8.859220073457528e-01	 9.392950082773779e-01	 2.116884567014857e+00
 8.767290598137280e-01	 9.478813317159325e-01	 2.051322353184870e+00
 8.674546230410328e-01	 9.563761193509887e-01	 2.133331013030009e+00
 9.629113564930061e-01	 8.733822299289763e-01	 4.470933700615287e+00
 9.543585211394608e-01	 8.827200420226536e-01	 4.288833523534940e+00
 9.457135244878090e-01	 8.919758080324571e-01	 4.025971798602747e+00
 9.369775419092313e-01	 9.011481787289394e-01	 3.711363988681543e+00
 9.281517753682257e-01	 9.102358278746556e-01	 3.373864798426800e+00
 9.192374528676087e-01	 9.192374528676086e-01	 3.042128529098856e+00
 9.102358278746558e-01	 9.281517753682260e-01	 2.744569349848333e+00
 9.011481787289390e-01	 9.369775419092313e-01	 2.509321545247253e+00
 8.919758080324569e-01	 9.457135244878091e-01	 2.364199800310978e+00
 8.827200420226536e-01	 9.543585211394611e-01	 2.336659585607792e+00
 8.733822299289763e-01	 9.629113564930061e-01	 2.453757706268762e+00
 9.694465936349229e-01	 8.793098368168527e-01	 4.303309809654834e+00
 9.608357105628825e-01	 8.887110242315107e-01	 4.180317289259187e+00
 9.521320406981307e-01	 8.980296087190884e-01	 3.982239287762125e+00
 9.433367673890262e-01	 9.072642318929911e-01	 3.736203616544330e+00
 9.344511007577324e-01	 9.164135585146743e-01	 3.468996896703868e+00
 9.254762771414523e-01	 9.254762771414523e-01	 3.207027577712129e+00
 9.164135585146742e-01	 9.344511007577320e-01	 2.976289118052327e+00
 9.072642318929910e-01	 9.433367673890262e-01	 2.802323382684272e+00
 8.980296087190881e-01	 9.521320406981308e-01	 2.710184313216158e+00
 8.887110242315106e-01	 9.608357105628831e-01	 2.724401927594625e+00
 8.793098368168526e-01	 9.694465936349231e-01	 2.868946706935129e+00
 9.759818307768401e-01	 8.852374437047291e-01	 4.043600572894353e+00
 9.673128999863048e-01	 8.947020064403680e-01	 4.000469082676029e+00
 9.585505569084526e-01	 9.040834094057193e-01	 3.892109512964533e+00
 9.496959928688209e-01	 9.133802850570429e-01	 3.741848168126808e+00
 9.407504261472385e-01	 9.225912891546927e-01	 3.572481125871948e+00
 9.317151014152957e-01	 9.317151014152956e-01	 3.406242621662116e+00
 9.225912891546927e-01	 9.407504261472386e-01	 3.264773850910187e+00
 9.133802850570429e-01	 9.496959928688209e-01	 3.169092234323456e+00
 9.040834094057193e-01	 9.585505569084530e-01	 3.139561192343363e+00
 8.947020064403676e-01	 9.673128999863054e-01	 3.195860475139338e+00
 8.852374437047289e-01	 9.759818307768400e-01	 3.356957095028996e+00
 9.825170679188570e-01	 8.911650505926724e-01	 3.704687562670665e+00
 9.737900894098337e-01	 9.006929886492934e-01	 3.758929998301857e+00
 9.649690731188835e-01	 9.101372100924239e-01	 3.761844052087263e+00
 9.560552183487234e-01	 9.194963382211753e-01	 3.731077407886255e+00
 9.470497515368475e-01	 9.287690197947991e-01	 3.683549968825703e+00
 9.379539256892346e-01	 9.379539256892346e-01	 3.635430280083859e+00
 9.287690197947989e-01	 9.470497515368473e-01	 3.602112635465537e+00
 9.194963382211746e-01	 9.560552183487231e-01	 3.598194899130100e+00
 9.101372100924237e-01	 9.649690731188838e-01	 3.637457073966897e+00
 9.006929886492934e-01	 9.737900894098341e-01	 3.732840648196010e+00
 8.911650505926724e-01	 9.825170679188571e-01	 3.896428751800475e+00
 9.890523050610736e-01	 8.970926574807490e-01	 3.299108027847033e+00
 9.802672788335767e-01	 9.066839708583566e-01	 3.465082766713889e+00
 9.713875893295331e-01	 9.161910107792749e-01	 3.597535717206104e+00
 9.624144438288397e-01	 9.256123913854671e-01	 3.706594598738551e+00
 9.533490769266617e-01	 9.349467504350817e-01	 3.801453362722228e+00
 9.441927499633654e-01	 9.441927499633652e-01	 3.890359297823917e+00
 9.349467504350812e-01	 9.533490769266614e-01	 3.980601095129273e+00
 9.256123913854669e-01	 9.624144438288401e-01	 4.078497886102069e+00
 9.161910107792747e-01	 9.713875893295333e-01	 4.189389265892215e+00
 9.066839708583559e-01	 9.802672788335772e-01	 4.317626314205643e+00
 8.970926574807490e-01	 9.890523050610733e-01	 4.466563625599409e+00
 9.955875422035889e-01	 9.030202643690258e-01	 2.839066617152863e+00
 9.867444682576400e-01	 9.126749530676246e-01	 3.128060667449528e+00
 9.778061055405098e-01	 9.222448114663463e-01	 3.405114536410285e+00
 9.687736693092788e-01	 9.317284445499999e-01	 3.671029464038216e+00
 9.596484023167835e-01	 9.411244810756280e-01	 3.925458584341764e+00
 9.504315742377832e-01	 9.504315742377832e-01	 4.166907329409892e+00
 9.411244810756282e-01	 9.596484023167835e-01	 4.392735079521477e+00
 9.317284445499999e-01	 9.687736693092789e-01	 4.599158049277886e+00
 9.222448114663458e-01	 9.778061055405101e-01	 4.781253398925458e+00
 9.126749530676247e-01	 9.867444682576409e-01	 4.932964559268367e+00
 9.030202643690258e-01	 9.955875422035888e-01	 5.047107757856627e+00
 1.002122779346504e+00	 9.089478712575699e-01	 2.336446665724715e+00
 9.932216576821324e-01	 9.186659352771679e-01	 2.756756115182114e+00
 9.842246217519234e-01	 9.282986121537109e-01	 3.190353523671132e+00
 9.751328947901475e-01	 9.378444977148536e-01	 3.626941055843349e+00
 9.659477277073155e-01	 9.473022117165263e-01	 4.054850162167059e+00
 9.566703985125847e-01	 9.566703985125846e-01	 4.461057871123490e+00
 9.473022117165264e-01	 9.659477277073159e-01	 4.831204623497753e+00
 9.378444977148535e-01	 9.751328947901475e-01	 5.149613611453976e+00
 9.282986121537108e-01	 9.842246217519237e-01	 5.399311583767875e+00
 9.186659352771674e-01	 9.932216576821324e-01	 5.562051077397312e+00
 9.089478712575698e-01	 1.002122779346504e+00	 5.618334034498185e+00
 8.496718023761349e-01	 9.367704079233418e-01	 1.969162033783535e+00
 8.405074452857861e-01	 9.450016649270302e-01	 2.009373276594632e+00
 8.312659480163652e-01	 9.531410091419068e-01	 2.096919271540449e+00
 8.219487018546624e-01	 9.611873624510029e-01	 2.225401221419670e+00
 8.125571177893285e-01	 9.691396746219902e-01	 2.387897942190264e+00
 8.030926258071817e-01	 9.769969237553447e-01	 2.576975149583860e+00
 7.935566741776152e-01	 9.847581167113648e-01	 2.784695127335307e+00
 7.839507287258533e-01	 9.924222895156736e-01	 3.002626766021294e+00
 7.742762720958096e-01	 9.999885077428703e-01	 3.221855961993949e+00
 7.645348030033176e-01	 1.007455866878029e+00	 3.432996366371925e+00
 7.547278354805067e-01	 1.014823492655765e+00	 3.626200474503868e+00
 8.555994092646789e-01	 9.433056450662566e-01	 1.867550255810434e+00
 8.463711184225464e-01	 9.515943261901914e-01	 1.973031965917412e+00
 8.370651492445332e-01	 9.597904533096687e-01	 2.141440951104939e+00
 8.276829027235312e-01	 9.678929407863927e-01	 2.359831854436821e+00
 8.182257996917399e-01	 9.759007310612396e-01	 2.614647020683474e+00
 8.086952801120642e-01	 9.838127951055508e-01	 2.891735403400634e+00
 7.990928023575288e-01	 9.916281328511279e-01	 3.176371926204832e+00
 7.894198424794654e-01	 9.993457735985641e-01	 3.453277271278884e+00
 7.796778934652294e-01	 1.006964776403574e+00	 3.706638068632666e+00
 7.698684644862173e-01	 1.014484230441013e+00	 3.920127460156190e+00
 7.599930801369751e-01	 1.021903255346308e+00	 4.076926013025463e+00
 8.615270161529561e-01	 9.498408822087723e-01	 1.930207879360126e+00
 8.522347915590320e-01	 9.581869874530049e-01	 2.091402537936226e+00
 8.428643504724047e-01	 9.664398974771545e-01	 2.321188067097470e+00
 8.334171035920713e-01	 9.745985191215947e-01	 2.601994458979748e+00
 8.238944815937815e-01	 9.826617875004013e-01	 2.915617572600467e+00
 8.142979344165284e-01	 9.906286664557773e-01	 3.243244725581708e+00
 8.046289305369726e-01	 9.984981489910245e-01	 3.565480730378535e+00
 7.948889562325555e-01	 1.006269257681702e+00	 3.862374337315706e+00
 7.850795148340747e-01	 1.013941045064636e+00	 4.113445047359386e+00
 7.752021259684930e-01	 1.021512594004457e+00	 4.297710258216193e+00
 7.652583247927758e-01	 1.028983018037402e+00	 4.393712708051127e+00
 8.674546230410328e-01	 9.563761193509887e-01	 2.133331013030011e+00
 8.580984646953110e-01	 9.647796487155580e-01	 2.337917904783136e+00
 8.486635517000543e-01	 9.730893416444338e-01	 2.608137264132824e+00
 8.391513044603649e-01	 9.813040974566558e-01	 2.923676000732948e+00
 8.295631634955454e-01	 9.894228439394983e-01	 3.263632243113003e+00
 8.199005887206799e-01	 9.974445378060225e-01	 3.606544713429993e+00
 8.101650587160646e-01	 1.005368165131026e+00	 3.930422455564087e+00
 8.003580699852534e-01	 1.013192741765032e+00	 4.212774873311668e+00
 7.904811362024884e-01	 1.020917313725975e+00	 4.430642036314190e+00
 7.805357874503013e-01	 1.028540957568261e+00	 4.560625212298319e+00
 7.705235694480760e-01	 1.036062780728931e+00	 4.578917585182405e+00
 8.733822299289763e-01	 9.629113564930061e-01	 2.453757706268762e+00
 8.639621378314527e-01	 9.713723099779367e-01	 2.686727851236991e+00
 8.544627529275558e-01	 9.797387858115761e-01	 2.975021473917203e+00
 8.448855053284938e-01	 9.880096757916240e-01	 3.297424725303433e+00
 8.352318453971246e-01	 9.961839003785545e-01	 3.632246648615339e+00
 8.255032430246227e-01	 1.004260409156283e+00	 3.957349468735218e+00
 8.157011868949223e-01	 1.012238181271103e+00	 4.250179063138982e+00
 8.058271837376902e-01	 1.020116225848501e+00	 4.487795570656249e+00
 7.958827575706149e-01	 1.027893582387516e+00	 4.646904095669858e+00
 7.858694489317971e-01	 1.035569321132326e+00	 4.703885466690215e+00
 7.757888141030426e-01	 1.043142543420778e+00	 4.634827009602448e+00
 8.793098368168526e-01	 9.694465936349231e-01	 2.868946706935130e+00
 8.698258109675260e-01	 9.779649712402294e-01	 3.112675264902464e+00
 8.602619541549834e-01	 9.863882299786495e-01	 3.395304813946458e+00
 8.506197061965413e-01	 9.947152541265475e-01	 3.696524884418309e+00
 8.409005272986111e-01	 1.002944956817593e+00	 3.995725051665805e+00
 8.311058973284610e-01	 1.011076280506557e+00	 4.272023304183296e+00
 8.212373150736625e-01	 1.019108197411227e+00	 4.504294341477484e+00
 8.112962974899967e-01	 1.027039709932052e+00	 4.671197762648107e+00
 8.012843789385975e-01	 1.034869851049177e+00	 4.751206108477214e+00
 7.912031104131372e-01	 1.042597684696552e+00	 4.722632721649431e+00
 7.810540587578422e-01	 1.050222306112825e+00	 4.563659391572793e+00
 8.852374437047289e-01	 9.759818307768400e-01	 3.356957095028996e+00
 8.756894841035990e-01	 9.845576325025219e-01	 3.591273344017683e+00
 8.660611553824107e-01	 9.930376741457235e-01	 3.843158517223039e+00
 8.563539070645882e-01	 1.001420832461473e+00	 4.094972499948764e+00
 8.465692092000975e-01	 1.009706013256636e+00	 4.329017035496344e+00
 8.367085516322992e-01	 1.017892151856841e+00	 4.527559367557041e+00
 8.267734432524030e-01	 1.025978213551370e+00	 4.672855481352082e+00
 8.167654112423023e-01	 1.033963194015633e+00	 4.747172914219101e+00
 8.066860003065806e-01	 1.041846119710883e+00	 4.732813108786731e+00
 7.965367718944770e-01	 1.049626048260839e+00	 4.612133284323861e+00
 7.863193034126421e-01	 1.057302068804957e+00	 4.367567804285908e+00
 8.911650505926724e-01	 9.825170679188571e-01	 3.896428751800475e+00
 8.815531572397407e-01	 9.911502937649013e-01	 4.098683737372273e+00
 8.718603566099122e-01	 9.996871183128673e-01	 4.293437844987860e+00
 8.620881079327176e-01	 1.008126410796448e+00	 4.467452117439805e+00
 8.522378911016765e-01	 1.016467069695709e+00	 4.607735131550530e+00
 8.423112059362416e-01	 1.024708023207134e+00	 4.701559140996062e+00
 8.323095714312596e-01	 1.032848229691502e+00	 4.736475408437426e+00
 8.222345249947395e-01	 1.040886678099188e+00	 4.700328712349622e+00
 8.120876216747067e-01	 1.048822388372552e+00	 4.581271017153639e+00
 8.018704333759732e-01	 1.056654411825089e+00	 4.367774298435087e+00
 7.915845480676086e-01	 1.064381831497056e+00	 4.048642518155092e+00
 8.970926574807490e-01	 9.890523050610733e-01	 4.466563625599409e+00
 8.874168303760203e-01	 9.977429550274547e-01	 4.611695573224095e+00
 8.776595578375619e-01	 1.006336562480150e+00	 4.721659937000903e+00
 8.678223088010112e-01	 1.014831989131521e+00	 4.789314503379019e+00
 8.579065730034405e-01	 1.023228126134833e+00	 4.808133355970913e+00
 8.479138602403929e-01	 1.031523894557431e+00	 4.772212774842844e+00
 8.378456996103520e-01	 1.039718245831594e+00	 4.676275837899820e+00
 8.277036387474371e-01	 1.047810162182663e+00	 4.515675729391885e+00
 8.174892430431208e-01	 1.055798657034108e+00	 4.286397764684391e+00
 8.072040948577810e-01	 1.063682775389200e+00	 3.985060144457143e+00
 7.968497927229088e-01	 1.071461594189006e+00	 3.608913455407609e+00
 9.030202643690258e-01	 9.955875422035888e-01	 5.047107757856627e+00
 8.932805035125053e-01	 1.004335616290269e+00	 5.107705336367031e+00
 8.834587590654333e-01	 1.012986006647641e+00	 5.103982556291528e+00
 8.735565096695510e-01	 1.021537567466739e+00	 5.036555242841398e+00
 8.635752549054820e-01	 1.029989182574032e+00	 4.907086613270542e+00
 8.535165145448574e-01	 1.038339765907732e+00	 4.718280217727414e+00
 8.433818277897962e-01	 1.046588261971618e+00	 4.473871017893815e+00
 8.331727525005270e-01	 1.054733646266004e+00	 4.178614632978264e+00
 8.228908644119652e-01	 1.062774925695471e+00	 3.838274787772505e+00
 8.125377563400564e-01	 1.070711138953073e+00	 3.459609002457619e+00
 8.021150373787090e-01	 1.078541356880688e+00	 3.050352568644160e+00
 9.089478712575698e-01	 1.002122779346504e+00	 5.618334034498185e+00
 8.991441766492652e-01	 1.010928277553431e+00	 5.564697554632602e+00
 8.892579602936015e-01	 1.019635450815408e+00	 5.417183687547705e+00
 8.792907105384193e-01	 1.028243145802148e+00	 5.185794196409285e+00
 8.692439368078930e-01	 1.036750239013330e+00	 4.882070927603725e+00
 8.591191688497395e-01	 1.045155637258033e+00	 4.519073106543556e+00
 8.489179559697093e-01	 1.053458278111545e+00	 4.111352130518522e+00
 8.386418662541389e-01	 1.061657130349154e+00	 3.674923917563621e+00
 8.282924857813851e-01	 1.069751194356563e+00	 3.227238876603026e+00
 8.178714178229560e-01	 1.077739502516610e+00	 2.787149570176546e+00
 8.073802820351771e-01	 1.085621119571988e+00	 2.374876146836474e+00
 7.547278354805067e-01	 1.014823492655765e+00	 3.626200474503868e+00
 7.448585804081368e-01	 1.022089315397092e+00	 3.776928710168233e+00
 7.349269132602683e-01	 1.029253786972208e+00	 3.869224879201760e+00
 7.249343830890960e-01	 1.036316130168806e+00	 3.901755222129931e+00
 7.148825511969510e-01	 1.043275599103902e+00	 3.879454737380691e+00
 7.047729903516504e-01	 1.050131479446166e+00	 3.808443144791522e+00
 6.946072839977357e-01	 1.056883088614866e+00	 3.695223026173541e+00
 6.843870254644020e-01	 1.063529775955414e+00	 3.546655971850235e+00
 6.741138171709191e-01	 1.070070922891449e+00	 3.369939149683518e+00
 6.637892698303400e-01	 1.076505943053501e+00	 3.172582372930056e+00
 6.534150016522964e-01	 1.082834282384246e+00	 2.962385737871144e+00
 7.599930801369751e-01	 1.021903255346308e+00	 4.076926013025463e+00
 7.500549736984857e-01	 1.029219767001664e+00	 4.159282910661623e+00
 7.400540197760755e-01	 1.036434220429689e+00	 4.168089951985340e+00
 7.299917782286705e-01	 1.043545832995979e+00	 4.109636663568500e+00
 7.198698212507919e-01	 1.050553853614017e+00	 3.991973435372306e+00
 7.096897325824361e-01	 1.057457562969055e+00	 3.827669371362120e+00
 6.994531067148078e-01	 1.064256273718450e+00	 3.629843136792711e+00
 6.891615480927246e-01	 1.070949330668424e+00	 3.412128027253653e+00
 6.788166703144934e-01	 1.077536110927221e+00	 3.188637352067928e+00
 6.684200953300659e-01	 1.084016024034658e+00	 2.973930229379226e+00
 6.579734526382700e-01	 1.090388512068123e+00	 2.782977884695180e+00
 7.652583247927758e-01	 1.028983018037402e+00	 4.393712708051127e+00
 7.552513669881317e-01	 1.036350218606865e+00	 4.394028140853178e+00
 7.451811262911519e-01	 1.043614653887863e+00	 4.315834613315529e+00
 7.350491733674905e-01	 1.050775535823896e+00	 4.173500284090454e+00
 7.248570913038613e-01	 1.057832108124917e+00	 3.976764210215059e+00
 7.146064748124382e-01	 1.064783646492761e+00	 3.741960637276631e+00
 7.042989294310881e-01	 1.071629458822871e+00	 3.486962098644424e+00
 6.939360707202505e-01	 1.078368885382286e+00	 3.230241656587881e+00
 6.835195234572690e-01	 1.085001298963853e+00	 2.990830209386364e+00
 6.730509208289919e-01	 1.091526105016681e+00	 2.788274192784735e+00
 6.625319036234436e-01	 1.097942741752867e+00	 2.642593782662988e+00
 7.705235694480760e-01	 1.036062780728931e+00	 4.578917585182405e+00
 7.604477602772499e-01	 1.043480670212565e+00	 4.490664488985530e+00
 7.503082328056780e-01	 1.050795087346593e+00	 4.328973959757609e+00
 7.401065685057446e-01	 1.058005238652415e+00	 4.112453069671015e+00
 7.298443613563523e-01	 1.065110362636457e+00	 3.855450819904115e+00
 7.195232170418527e-01	 1.072109730017137e+00	 3.574001940589742e+00
 7.091447521467750e-01	 1.079002643927987e+00	 3.288910593522419e+00
 6.987105933471792e-01	 1.085788440096860e+00	 3.021598564193536e+00
 6.882223765994452e-01	 1.092466487001210e+00	 2.794057564383921e+00
 6.776817463273181e-01	 1.099036185999434e+00	 2.628801980910903e+00
 6.670903546080175e-01	 1.105496971438344e+00	 2.548822186833598e+00
 7.757888141030426e-01	 1.043142543420778e+00	 4.634827009602449e+00
 7.656441535660167e-01	 1.050611121818636e+00	 4.458427058722419e+00
 7.554353393198389e-01	 1.057975520805739e+00	 4.222182932163050e+00
 7.451639636436213e-01	 1.065234941481394e+00	 3.945975780382204e+00
 7.348316314084578e-01	 1.072388617148494e+00	 3.649078302194194e+00
 7.244399592708751e-01	 1.079435813542041e+00	 3.345868565018905e+00
 7.139905748620663e-01	 1.086375829033657e+00	 3.057417091282906e+00
 7.034851159737097e-01	 1.093207994812009e+00	 2.806243138061921e+00
 6.929252297412218e-01	 1.099931675039156e+00	 2.615383104584618e+00
 6.823125718252444e-01	 1.106546266982785e+00	 2.508341431992912e+00
 6.716488055921910e-01	 1.113051201124420e+00	 2.509204975662919e+00
 7.810540587578422e-01	 1.050222306112825e+00	 4.563659391572793e+00
 7.708405468546071e-01	 1.057741573424948e+00	 4.306295211399049e+00
 7.605624458338160e-01	 1.065155954265166e+00	 4.009714981844525e+00
 7.502213587813091e-01	 1.072464644310690e+00	 3.693527746119706e+00
 7.398189014603694e-01	 1.079666871660882e+00	 3.378133198393268e+00
 7.293567014997020e-01	 1.086761897067330e+00	 3.079047285860032e+00
 7.188363975771592e-01	 1.093749014139738e+00	 2.813628741462995e+00
 7.082596386000413e-01	 1.100627549527593e+00	 2.603681768070694e+00
 6.976280828827991e-01	 1.107396863077553e+00	 2.471410886205988e+00
 6.869433973229708e-01	 1.114056347966599e+00	 2.439812094937855e+00
 6.762072565761650e-01	 1.120605430810964e+00	 2.534518746794390e+00
 7.863193034126421e-01	 1.057302068804957e+00	 4.367567804285909e+00
 7.760369401431978e-01	 1.064872025031372e+00	 4.043001457742303e+00
 7.656895523477931e-01	 1.072336387724735e+00	 3.705434995595024e+00
 7.552787539189970e-01	 1.079694347140162e+00	 3.372709251093453e+00
 7.448061715122820e-01	 1.086945126173480e+00	 3.063306975640513e+00
 7.342734437285291e-01	 1.094087980592859e+00	 2.794456737450178e+00
 7.236822202922524e-01	 1.101122199246091e+00	 2.578131438311502e+00
 7.130341612263726e-01	 1.108047104243473e+00	 2.432901400092720e+00
 7.023309360243760e-01	 1.114862051116267e+00	 2.379115565868416e+00
 6.915742228206970e-01	 1.121566428950742e+00	 2.439814173266676e+00
 6.807657075601384e-01	 1.128159660497840e+00	 2.633815289218847e+00
 7.915845480676086e-01	 1.064381831497056e+00	 4.048642518155092e+00
 7.812333334319643e-01	 1.072002476637777e+00	 3.677040015382970e+00
 7.708166588619533e-01	 1.079516821184309e+00	 3.322832551815300e+00
 7.603361490568736e-01	 1.086924049969666e+00	 3.000629729096317e+00
 7.497934415643868e-01	 1.094223380686142e+00	 2.725425846630396e+00
 7.391901859575517e-01	 1.101414064118486e+00	 2.512466981217522e+00
 7.285280430075435e-01	 1.108495384352571e+00	 2.370969097720550e+00
 7.178086838529029e-01	 1.115466658959509e+00	 2.313619705040398e+00
 7.070337891661529e-01	 1.122327239155159e+00	 2.359346755828355e+00
 6.962050483186232e-01	 1.129076509935079e+00	 2.521957651794190e+00
 6.853241585443119e-01	 1.135713890184916e+00	 2.814684352000165e+00
 7.968497927229088e-01	 1.071461594189006e+00	 3.608913455407609e+00
 7.864297267210824e-01	 1.079132928244035e+00	 3.216675047618628e+00
 7.759437653764797e-01	 1.086697254643750e+00	 2.875034671338732e+00
 7.653935441951274e-01	 1.094153752799061e+00	 2.593939884066490e+00
 7.547807116168773e-01	 1.101501635198725e+00	 2.383393293296186e+00
 7.441069281869658e-01	 1.108740147644065e+00	 2.253431626846099e+00
 7.333738657232303e-01	 1.115868569459039e+00	 2.213286669831591e+00
 7.225832064798315e-01	 1.122886213675563e+00	 2.269455010418529e+00
 7.117366423083287e-01	 1.129792427194095e+00	 2.428964624290021e+00
 7.008358738169486e-01	 1.136586590919476e+00	 2.698543770552736e+00
 6.898826095288855e-01	 1.143268119872059e+00	 3.084539861867190e+00
 8.021150373787090e-01	 1.078541356880688e+00	 3.050352568644160e+00
 7.916261200107274e-01	 1.086263379850017e+00	 2.669948598074641e+00
 7.810708718915552e-01	 1.093877688102920e+00	 2.374818086173314e+00
 7.704509393339471e-01	 1.101383455628205e+00	 2.168847099556560e+00
 7.597679816699467e-01	 1.108779889711083e+00	 2.055575561878608e+00
 7.490236704169676e-01	 1.116066231169455e+00	 2.040109352416506e+00
 7.382196884395104e-01	 1.123241754565352e+00	 2.130109147858181e+00
 7.273577291073572e-01	 1.130305768391495e+00	 2.319289810681313e+00
 7.164394954511041e-01	 1.137257615232938e+00	 2.603668306266530e+00
 7.054666993158746e-01	 1.144096671903799e+00	 2.981574469126252e+00
 6.944410605140588e-01	 1.150822349559133e+00	 3.450625066243732e+00
 8.073802820351771e-01	 1.085621119571988e+00	 2.374876146836474e+00
 7.968225133010767e-01	 1.093393831455592e+00	 2.044688235146708e+00
 7.861979784073625e-01	 1.101058121561683e+00	 1.834621048168195e+00
 7.755083344735213e-01	 1.108613158456955e+00	 1.741130264950393e+00
 7.647552517237872e-01	 1.116058144223075e+00	 1.761917729401215e+00
 7.539404126477530e-01	 1.123392314694512e+00	 1.897739417088702e+00
 7.430655111565820e-01	 1.130614939671368e+00	 2.141427288440019e+00
 7.321322517356790e-01	 1.137725323107168e+00	 2.480966986529742e+00
 7.211423485946780e-01	 1.144722803271552e+00	 2.898769857066254e+00
 7.100975248156002e-01	 1.151606752887915e+00	 3.382761418545089e+00
 6.989995115000320e-01	 1.158376579246008e+00	 3.920017437258679e+00
 6.534150016522964e-01	 1.082834282384246e+00	 2.962385737871144e+00
 6.429926377492695e-01	 1.089055419483085e+00	 2.731084558696167e+00
 6.325238099376145e-01	 1.095168866456658e+00	 2.473879324590990e+00
 6.220101553082884e-01	 1.101174168172526e+00	 2.203823339830852e+00
 6.114533152263187e-01	 1.107070902008571e+00	 1.933756288819822e+00
 6.008549345401182e-01	 1.112858677841215e+00	 1.676311626161725e+00
 5.902166607945597e-01	 1.118537138011101e+00	 1.443932128935550e+00
 5.795401434485343e-01	 1.124105957266471e+00	 1.247928242080764e+00
 5.688270330977138e-01	 1.129564842684504e+00	 1.099222959503123e+00
 5.580789807032205e-01	 1.134913533570922e+00	 1.008567433239910e+00
 5.472976368268903e-01	 1.140151801338169e+00	 9.865407298909293e-01
 6.579734526382700e-01	 1.090388512068123e+00	 2.782977884695180e+00
 6.474783786889399e-01	 1.096653049989549e+00	 2.606442602553724e+00
 6.369365166825477e-01	 1.102809146501857e+00	 2.428812247465524e+00
 6.263495151309662e-01	 1.108856343297441e+00	 2.255767418624464e+00
 6.157190268499539e-01	 1.114794214805816e+00	 2.092767396451588e+00
 6.050467081629576e-01	 1.120622368181762e+00	 1.944908312778452e+00
 5.943342181086939e-01	 1.126340443270758e+00	 1.815569315912381e+00
 5.835832176532523e-01	 1.131948112551971e+00	 1.707684447305326e+00
 5.727953689074324e-01	 1.137445081059043e+00	 1.623860044671702e+00
 5.619723343500340e-01	 1.142831086278996e+00	 1.566387993222073e+00
 5.511157760577856e-01	 1.148105898029562e+00	 1.537258880273270e+00
 6.625319036234436e-01	 1.097942741752867e+00	 2.642593782662988e+00
 6.519641196278100e-01	 1.104250680496879e+00	 2.538604675944521e+00
 6.413492234266811e-01	 1.110449426547919e+00	 2.447735635113180e+00
 6.306888749528441e-01	 1.116538518423214e+00	 2.370481560563960e+00
 6.199847384727896e-01	 1.122517527603914e+00	 2.306323311878931e+00
 6.092384817849968e-01	 1.128386058523155e+00	 2.252714657195255e+00
 5.984517754220283e-01	 1.134143748531256e+00	 2.206609355410429e+00
 5.876262918571703e-01	 1.139790267838305e+00	 2.164497051314900e+00
 5.767637047163509e-01	 1.145325319434410e+00	 2.122427152467215e+00
 5.658656879960478e-01	 1.150748638987891e+00	 2.076032674887457e+00
 5.549339152878812e-01	 1.156059994721770e+00	 2.020553987385598e+00
 6.670903546080175e-01	 1.105496971438344e+00	 2.548822186833598e+00
 6.564498605660802e-01	 1.111848311004940e+00	 2.529584435271770e+00
 6.457619301702147e-01	 1.118089706594706e+00	 2.529726200446337e+00
 6.350282347741222e-01	 1.124220693549705e+00	 2.544609219112276e+00
 6.242504500950249e-01	 1.130240840402720e+00	 2.567678207995865e+00
 6.134302554064364e-01	 1.136149748865244e+00	 2.591773012471156e+00
 6.025693327347629e-01	 1.141947053792436e+00	 2.609160165300975e+00
 5.916693660604884e-01	 1.147632423125309e+00	 2.611564581309020e+00
 5.807320405246695e-01	 1.153205557810433e+00	 2.590201294261449e+00
 5.697590416414613e-01	 1.158666191697431e+00	 2.535807147030817e+00
 5.587520545173768e-01	 1.164014091414612e+00	 2.438672351145881e+00
 6.716488055921910e-01	 1.113051201124420e+00	 2.509204975662919e+00
 6.609356015039505e-01	 1.119445941513596e+00	 2.583884656816546e+00
 6.501746369133485e-01	 1.125729986642083e+00	 2.674957954879315e+00
 6.393675945950001e-01	 1.131902868676772e+00	 2.773546342893562e+00
 6.285161617168606e-01	 1.137964153202086e+00	 2.870086934527075e+00
 6.176220290274759e-01	 1.143913439207876e+00	 2.954369056427161e+00
 6.066868900470973e-01	 1.149750359054139e+00	 3.015571039473648e+00
 5.957124402634065e-01	 1.155474578412815e+00	 3.042297120571185e+00
 5.847003763325881e-01	 1.161085796186939e+00	 3.022614351483017e+00
 5.736523952864750e-01	 1.166583744407435e+00	 2.944089416373106e+00
 5.625701937464723e-01	 1.171968188107903e+00	 2.793825265138237e+00
 6.762072565761650e-01	 1.120605430810964e+00	 2.534518746794390e+00
 6.654213424416208e-01	 1.127043572022716e+00	 2.705729365077691e+00
 6.545873436562818e-01	 1.133370266689911e+00	 2.881943364749802e+00
 6.437069544156783e-01	 1.139585043804274e+00	 3.052738747881699e+00
 6.327818733384960e-01	 1.145687466001867e+00	 3.207013204260948e+00
 6.218138026483151e-01	 1.151677129550898e+00	 3.333023389655454e+00
 6.108044473592317e-01	 1.157553664316206e+00	 3.418424364960929e+00
 5.997555144661247e-01	 1.163316733700660e+00	 3.450309082370942e+00
 5.886687121403065e-01	 1.168966034563758e+00	 3.415247809937096e+00
 5.775457489312886e-01	 1.174501297117728e+00	 3.299327391424485e+00
 5.663883329753677e-01	 1.179922284801459e+00	 3.088190244171844e+00
 6.807657075601384e-01	 1.128159660497840e+00	 2.633815289218847e+00
 6.699070833792907e-01	 1.134641202532164e+00	 2.897734015908092e+00
 6.590000503992155e-01	 1.141010546738053e+00	 3.149249444081823e+00
 6.480463142363562e-01	 1.147267218932070e+00	 3.377780725186956e+00
 6.370475849601315e-01	 1.153410778801915e+00	 3.572122313770870e+00
 6.260055762691543e-01	 1.159440819894158e+00	 3.720483439916081e+00
 6.149220046713660e-01	 1.165356969578479e+00	 3.810527642133640e+00
 6.037985886688425e-01	 1.171158888988676e+00	 3.829412245926124e+00
 5.926370479480252e-01	 1.176846272940715e+00	 3.763827678843127e+00
 5.814391025761023e-01	 1.182418849828129e+00	 3.600036518777725e+00
 5.702064722042633e-01	 1.187876381495098e+00	 3.323912178438777e+00
 6.853241585443119e-01	 1.135713890184916e+00	 2.814684352000165e+00
 6.743928243171610e-01	 1.142238833041805e+00	 3.162470173842626e+00
 6.634127571423486e-01	 1.148650826786372e+00	 3.475507165438229e+00
 6.523856740572339e-01	 1.154949394060018e+00	 3.744409727373501e+00
 6.413132965819671e-01	 1.161134091602085e+00	 3.959274122197921e+00
 6.301973498901938e-01	 1.167204510237504e+00	 4.109715658654438e+00
 6.190395619837005e-01	 1.173160274840799e+00	 4.184905793856865e+00
 6.078416628717603e-01	 1.179001044276700e+00	 4.173609042223089e+00
 5.966053837559435e-01	 1.184726511317641e+00	 4.064219585990191e+00
 5.853324562211158e-01	 1.190336402538461e+00	 3.844797488459466e+00
 5.740246114333589e-01	 1.195830478188636e+00	 3.503104417689292e+00
 6.898826095288855e-01	 1.143268119872059e+00	 3.084539861867190e+00
 6.788785652554312e-01	 1.149836463551505e+00	 3.502466431818358e+00
 6.678254638858820e-01	 1.156291106834731e+00	 3.859408878745307e+00
 6.567250338785118e-01	 1.162631569187978e+00	 4.148501231716406e+00
 6.455790082042023e-01	 1.168857404402230e+00	 4.362516276159328e+00
 6.343891235116330e-01	 1.174968200580782e+00	 4.493897996129911e+00
 6.231571192964345e-01	 1.180963580103007e+00	 4.534793750241110e+00
 6.118847370750783e-01	 1.186843199564566e+00	 4.477086078139542e+00
 6.005737195642621e-01	 1.192606749694363e+00	 4.312424040863951e+00
 5.892258098665293e-01	 1.198253955248546e+00	 4.032254005145065e+00
 5.778427506628540e-01	 1.203784574881888e+00	 3.627849788660723e+00
 6.944410605140588e-01	 1.150822349559133e+00	 3.450625066243732e+00
 6.833643061943010e-01	 1.157434094061130e+00	 3.920209258162146e+00
 6.722381706300153e-01	 1.163931386882994e+00	 4.299705796779433e+00
 6.610643937003894e-01	 1.170313744315807e+00	 4.586063772269239e+00
 6.498447198270376e-01	 1.176580717202203e+00	 4.776077669474391e+00
 6.385808971336721e-01	 1.182731890923841e+00	 4.866412642353561e+00
 6.272746766097687e-01	 1.188766885364944e+00	 4.853629296325702e+00
 6.159278112789961e-01	 1.194685354852107e+00	 4.734207887919524e+00
 6.045420553731801e-01	 1.200486988070708e+00	 4.504571858027886e+00
 5.931191635125428e-01	 1.206171507958206e+00	 4.161110622210903e+00
 5.816608898929495e-01	 1.211738671574672e+00	 3.700201548827488e+00
 6.989995115000320e-01	 1.158376579246008e+00	 3.920017437258679e+00
 6.878500471339709e-01	 1.165031724570546e+00	 4.418143774167616e+00
 6.766508773749484e-01	 1.171571666931022e+00	 4.795205544273298e+00
 6.654037535230670e-01	 1.177995919443366e+00	 5.053234133036160e+00
 6.541104314506725e-01	 1.184304030001858e+00	 5.194362126989267e+00
 6.427726707565111e-01	 1.190495581266529e+00	 5.220839021701583e+00
 6.313922339239028e-01	 1.196570190626451e+00	 5.135046170692750e+00
 6.199708854837138e-01	 1.202527510139157e+00	 4.939510901623026e+00
 6.085103911828983e-01	 1.208367226446504e+00	 4.636919733442578e+00
 5.970125171593559e-01	 1.214089060667263e+00	 4.230130635756157e+00
 5.854790291238445e-01	 1.219692768266804e+00	 3.722184279378920e+00
 5.472976368268903e-01	 1.140151801338169e+00	 9.865407298909293e-01
 5.364828098656651e-01	 1.145280311567177e+00	 1.020585515172449e+00
 5.256379778529098e-01	 1.150297998733234e+00	 1.087155209272342e+00
 5.147647859436432e-01	 1.155204728767399e+00	 1.180002598921520e+00
 5.038648759321993e-01	 1.160000399033112e+00	 1.292602723285274e+00
 4.929398855297008e-01	 1.164684938103473e+00	 1.418174030081643e+00
 4.819914476518521e-01	 1.169258305519455e+00	 1.549699156162333e+00
 4.710211897176096e-01	 1.173720491529516e+00	 1.679945299009908e+00
 4.600307329592656e-01	 1.178071516811095e+00	 1.801484150117584e+00
 4.490216917444500e-01	 1.182311432174493e+00	 1.906711365630290e+00
 4.379956729105452e-01	 1.186440318249641e+00	 1.987865553910593e+00
 5.511157760577856e-01	 1.148105898029562e+00	 1.537258880273270e+00
 5.402255010909374e-01	 1.153270186534992e+00	 1.517965835293711e+00
 5.293050117468323e-01	 1.158322878837109e+00	 1.491171540094054e+00
 5.183559646576681e-01	 1.163263839931666e+00	 1.460338202184737e+00
 5.073800130715136e-01	 1.168092966466078e+00	 1.428856071617919e+00
 4.963788061247401e-01	 1.172810186515153e+00	 1.400048524001994e+00
 4.853539881248457e-01	 1.177415459337614e+00	 1.377176707435607e+00
 4.743071978442345e-01	 1.181908775113894e+00	 1.363443746368191e+00
 4.632400678254841e-01	 1.186290154665692e+00	 1.361998499668296e+00
 4.521542236986212e-01	 1.190559649157783e+00	 1.375938874294854e+00
 4.410512835108905e-01	 1.194717339782609e+00	 1.408314699894730e+00
 5.549339152878812e-01	 1.156059994721770e+00	 2.020553987385598e+00
 5.439681923154103e-01	 1.161260061503619e+00	 1.936741576229429e+00
 5.329720456399563e-01	 1.166347758941792e+00	 1.816261092023076e+00
 5.219471433708970e-01	 1.171322951096733e+00	 1.670491296360908e+00
 5.108951502100378e-01	 1.176185533899837e+00	 1.510908037000571e+00
 4.998177267189987e-01	 1.180935434927616e+00	 1.349076131738703e+00
 4.887165285970730e-01	 1.185572613156541e+00	 1.196640759971334e+00
 4.775932059701123e-01	 1.190097058699019e+00	 1.065318376894905e+00
 4.664494026909816e-01	 1.194508792521009e+00	 9.668871694220689e-01
 4.552867556521047e-01	 1.198807866141762e+00	 9.131770767960460e-01
 4.441068941105891e-01	 1.202994361316223e+00	 9.160594025583888e-01
 5.587520545173768e-01	 1.164014091414612e+00	 2.438672351145881e+00
 5.477108835392834e-01	 1.169249936472870e+00	 2.283029664750086e+00
 5.366390795324810e-01	 1.174372639047090e+00	 2.071409381854634e+00
 5.255383220835299e-01	 1.179382062262408e+00	 1.821352923340974e+00
 5.144102873479709e-01	 1.184278101334194e+00	 1.550631559882370e+00
 5.032566473126745e-01	 1.189060683340665e+00	 1.277227936166981e+00
 4.920790690687298e-01	 1.193729766976039e+00	 1.019317050808932e+00
 4.808792140954370e-01	 1.198285342284699e+00	 7.952467242934622e-01
 4.696587375559491e-01	 1.202727430376858e+00	 6.235175913502039e-01
 4.584192876050875e-01	 1.207056083126241e+00	 5.227626579429658e-01
 4.471625047098243e-01	 1.211271382850301e+00	 5.117264665814987e-01
 5.625701937464723e-01	 1.171968188107903e+00	 2.793825265138237e+00
 5.514535747627566e-01	 1.177239811442557e+00	 2.562806520816048e+00
 5.403061134246070e-01	 1.182397519152813e+00	 2.265383063510051e+00
 5.291295007957659e-01	 1.187441173428498e+00	 1.923542990906171e+00
 5.179254244855115e-01	 1.192370668768955e+00	 1.559601188456799e+00
 5.066955679059654e-01	 1.197185931754105e+00	 1.196173299898996e+00
 4.954416095400128e-01	 1.201886920795915e+00	 8.561491056312558e-01
 4.841652222204029e-01	 1.206473625870738e+00	 5.626653541724000e-01
 4.728680724205780e-01	 1.210946068233045e+00	 3.390780959872439e-01
 4.615518195577575e-01	 1.215304300111032e+00	 2.089345727359014e-01
 4.502181153087785e-01	 1.219548404384660e+00	 1.959447184634122e-01
 5.663883329753677e-01	 1.179922284801459e+00	 3.088190244171844e+00
 5.551962659860299e-01	 1.185229686412492e+00	 2.781912884413854e+00
 5.439731473165337e-01	 1.190422399258768e+00	 2.406737436841281e+00
 5.327206795078050e-01	 1.195500284594805e+00	 1.987419581818058e+00
 5.214405616228590e-01	 1.200463236203922e+00	 1.549103342402121e+00
 5.101344884990692e-01	 1.205311180167740e+00	 1.117290274478063e+00
 4.988041500111179e-01	 1.210044074615973e+00	 7.178080210131690e-01
 4.874512303452040e-01	 1.214661909456945e+00	 3.767782840716455e-01
 4.760774072850592e-01	 1.219164706089380e+00	 1.205842723780544e-01
 4.646843515103022e-01	 1.223552517095950e+00	-2.416231393974844e-02
 4.532737259076349e-01	 1.227825425919116e+00	-3.065469629393958e-02
 5.702064722042633e-01	 1.187876381495098e+00	 3.323912178438776e+00
 5.589389572093032e-01	 1.193219561382486e+00	 2.946058425718383e+00
 5.476401812084610e-01	 1.198447279364764e+00	 2.503823633309186e+00
 5.363118582198462e-01	 1.203559395761140e+00	 2.023087868718036e+00
 5.249556987602118e-01	 1.208555803638902e+00	 1.530146145306418e+00
 5.135734090921836e-01	 1.213436428581375e+00	 1.051675573605922e+00
 5.021666904822414e-01	 1.218201228436018e+00	 6.147018370448147e-01
 4.907372384700345e-01	 1.222850193043124e+00	 2.465650497080586e-01
 4.792867421495842e-01	 1.227383343945673e+00	-2.511494191386299e-02
 4.678168834629091e-01	 1.231800734080805e+00	-1.724737472334439e-01
 4.563293365065764e-01	 1.236102447453487e+00	-1.674380403337448e-01
 5.740246114333589e-01	 1.195830478188636e+00	 3.503104417689293e+00
 5.626816484327765e-01	 1.201209436352352e+00	 3.060826148669262e+00
 5.513072151005890e-01	 1.206472159470611e+00	 2.564795493579954e+00
 5.399030369320893e-01	 1.211618506927306e+00	 2.040408653190061e+00
 5.284708358977690e-01	 1.216648371073698e+00	 1.513468845858600e+00
 5.170123296855066e-01	 1.221561676994815e+00	 1.010154130700843e+00
 5.055292309535798e-01	 1.226358382255854e+00	 5.569845194026098e-01
 4.940232465950885e-01	 1.231038476629083e+00	 1.807884339123392e-01
 4.824960770143443e-01	 1.235601981801731e+00	-9.133142816928885e-02
 4.709494154157655e-01	 1.240048951065411e+00	-2.320327544332792e-01
 4.593849471057860e-01	 1.244379468987590e+00	-2.137687347912995e-01
 5.778427506628540e-01	 1.203784574881888e+00	 3.627849788660723e+00
 5.664243396566497e-01	 1.209199311321903e+00	 3.131676597516616e+00
 5.549742489931171e-01	 1.214497039576115e+00	 2.597616151289034e+00
 5.434942156447334e-01	 1.219677618093109e+00	 2.049006546369142e+00
 5.319859730357294e-01	 1.224740938508116e+00	 1.509550846826174e+00
 5.204512502792359e-01	 1.229686925407861e+00	 1.003288260012489e+00
 5.088917714253292e-01	 1.234515536075286e+00	 5.545645689304471e-01
 4.973092547205598e-01	 1.239226760214626e+00	 1.880018738574315e-01
 4.857054118795305e-01	 1.243820619657364e+00	-7.153229934357230e-02
 4.740819473690592e-01	 1.248297168049579e+00	-1.989564622148459e-01
 4.624405577054466e-01	 1.252656490521242e+00	-1.690071317675413e-01
 5.816608898929495e-01	 1.211738671574672e+00	 3.700201548827489e+00
 5.701670308811227e-01	 1.217189186290947e+00	 3.163951875389169e+00
 5.586412828862454e-01	 1.222521919681086e+00	 2.610064336474152e+00
 5.470853943579786e-01	 1.227736729258357e+00	 2.058277807566762e+00
 5.355011101742919e-01	 1.232833505941960e+00	 1.528620359840978e+00
 5.238901708735695e-01	 1.237812173820320e+00	 1.041386439509039e+00
 5.122543118976859e-01	 1.242672689894119e+00	 6.171132758467823e-01
 5.005952628466430e-01	 1.247415043799562e+00	 2.765565613608347e-01
 4.889147467453342e-01	 1.252039257512381e+00	 4.066545291328538e-02
 4.772144793229778e-01	 1.256545385033123e+00	-6.944305236733272e-02
 4.654961683057414e-01	 1.260933512054261e+00	-3.251030791401599e-02
 5.854790291238445e-01	 1.219692768266804e+00	 3.722184279378919e+00
 5.739097221063959e-01	 1.225179061259301e+00	 3.162879483466426e+00
 5.623083167801739e-01	 1.230546799785333e+00	 2.609740411474127e+00
 5.506765730720242e-01	 1.235795840422856e+00	 2.077397856524095e+00
 5.390162473136554e-01	 1.240926073375034e+00	 1.580662703074768e+00
 5.273290914687052e-01	 1.245937422231995e+00	 1.134511732802181e+00
 5.156168523708461e-01	 1.250829843712159e+00	 7.540726347997879e-01
 5.038812709735320e-01	 1.255603327383696e+00	 4.546082502706192e-01
 4.921240816119464e-01	 1.260257895366589e+00	 2.515000877376063e-01
 4.803470112777085e-01	 1.264793602015854e+00	 1.602311503245432e-01
 4.685517789068528e-01	 1.269210533586462e+00	 1.963681218338892e-01
 4.379956729105452e-01	 1.186440318249641e+00	 1.987865553910593e+00
 4.269561530751904e-01	 1.190457611461505e+00	 2.103395274361678e+00
 4.159028480248949e-01	 1.194364161598395e+00	 2.303150099197159e+00
 4.048373368592890e-01	 1.198160135813678e+00	 2.566452942047356e+00
 3.937611886467740e-01	 1.201845729649776e+00	 2.872809904966412e+00
 3.826759618280015e-01	 1.205421166648674e+00	 3.201932882086324e+00
 3.715832036341543e-01	 1.208886697948648e+00	 3.533761180735885e+00
 3.604844495203520e-01	 1.212242601867819e+00	 3.853020102495070e+00
 3.493812226144747e-01	 1.215489183475108e+00	 4.148187681194269e+00
 3.382750331816809e-01	 1.218626774149204e+00	 4.402283077042125e+00
 3.271673781048640e-01	 1.221655731126142e+00	 4.598716780333606e+00
 4.410512835108905e-01	 1.194717339782609e+00	 1.408314699894730e+00
 4.299347481340324e-01	 1.198762659033439e+00	 1.525486772947557e+00
 4.188043313717864e-01	 1.202696462627001e+00	 1.772548465657988e+00
 4.076616233401339e-01	 1.206518918882770e+00	 2.120618342809768e+00
 3.965082040538469e-01	 1.210230224707332e+00	 2.540879228829858e+00
 3.853456428258048e-01	 1.213830605202171e+00	 3.004614056799013e+00
 3.741754976812163e-01	 1.217320313257583e+00	 3.483240620869186e+00
 3.629993147870733e-01	 1.220699629133323e+00	 3.950798486248706e+00
 3.518186278971292e-01	 1.223968860026572e+00	 4.388202924970944e+00
 3.406349578126811e-01	 1.227128339627824e+00	 4.770404307265465e+00
 3.294498118594009e-01	 1.230178427665308e+00	 5.072165867614460e+00
 4.441068941105891e-01	 1.202994361316223e+00	 9.160594025583888e-01
 4.329133431922779e-01	 1.207067706605971e+00	 1.045003427742043e+00
 4.217058147181388e-01	 1.211028763656146e+00	 1.338075042798013e+00
 4.104859098205044e-01	 1.214877701952336e+00	 1.759993529625524e+00
 3.992552194605159e-01	 1.218614719765293e+00	 2.275444585439202e+00
 3.880153238232784e-01	 1.222240043755997e+00	 2.849126726846416e+00
 3.767677917280269e-01	 1.225753928566769e+00	 3.445796504541796e+00
 3.655141800536237e-01	 1.229156656398998e+00	 4.031347282814862e+00
 3.542560331796946e-01	 1.232448536578125e+00	 4.579782890425832e+00
 3.429948824436736e-01	 1.235629905106451e+00	 5.060378036815376e+00
 3.317322456140108e-01	 1.238701124204401e+00	 5.441145621447869e+00
 4.471625047098243e-01	 1.211271382850301e+00	 5.117264665814977e-01
 4.358919382501041e-01	 1.215372754178922e+00	 6.589339432893832e-01
 4.246072980641233e-01	 1.219361064685659e+00	 9.938482625493328e-01
 4.133101963005635e-01	 1.223236485022213e+00	 1.476555761461502e+00
 4.020022348669342e-01	 1.226999214823503e+00	 2.067032225576913e+00
 3.906850048205658e-01	 1.230649482310011e+00	 2.725197189072571e+00
 3.793600857747169e-01	 1.234187543876076e+00	 3.410966973704312e+00
 3.680290453201201e-01	 1.237613683664727e+00	 4.084541627567461e+00
 3.566934384622720e-01	 1.240928213129667e+00	 4.713743823019003e+00
 3.453548070747426e-01	 1.244131470585002e+00	 5.264456267665292e+00
 3.340146793687590e-01	 1.247223820743356e+00	 5.699798801264072e+00
 4.502181153087785e-01	 1.219548404384660e+00	 1.959447184634122e-01
 4.388705333076882e-01	 1.223677801752115e+00	 3.643667946019264e-01
 4.275087814099100e-01	 1.227693365715369e+00	 7.341631796220756e-01
 4.161344827804738e-01	 1.231595268092240e+00	 1.262515930856701e+00
 4.047492502732557e-01	 1.235383709881812e+00	 1.906440263771060e+00
 3.933546858178097e-01	 1.239058920864068e+00	 2.622844119719834e+00
 3.819523798214172e-01	 1.242621159185372e+00	 3.368586421282016e+00
 3.705439105866795e-01	 1.246070710930393e+00	 4.100533974703022e+00
 3.591308437449630e-01	 1.249407889681094e+00	 4.781152666124491e+00
 3.477147317059725e-01	 1.252633036063392e+00	 5.375100996538126e+00
 3.362971131237101e-01	 1.255746517282108e+00	 5.842425274576502e+00
 4.532737259076349e-01	 1.227825425919116e+00	-3.065469629393891e-02
 4.418491283652077e-01	 1.231982849325372e+00	 1.584872466105702e-01
 4.304102647556700e-01	 1.236025666745106e+00	 5.534859148456543e-01
 4.189587692603980e-01	 1.239954051162252e+00	 1.110311097256820e+00
 4.074962656796337e-01	 1.243768204940064e+00	 1.784729932011217e+00
 3.960243668151529e-01	 1.247468359418026e+00	 2.532369143035212e+00
 3.845446738682584e-01	 1.251054774494528e+00	 3.308775933165663e+00
 3.730587758534189e-01	 1.254527738195879e+00	 4.069477491231162e+00
 3.615682490278689e-01	 1.257887566232307e+00	 4.773319487562171e+00
 3.500746563374471e-01	 1.261134601541538e+00	 5.384977914457335e+00
 3.385795468789294e-01	 1.264269213820592e+00	 5.863477406215400e+00
 4.563293365065764e-01	 1.236102447453487e+00	-1.674380403337457e-01
 4.448277234228400e-01	 1.240287896898517e+00	 3.857448192361468e-02
 4.333117481015738e-01	 1.244357967774700e+00	 4.464483112266838e-01
 4.217830557404992e-01	 1.248312834232088e+00	 1.012597310670072e+00
 4.102432810862217e-01	 1.252152699998105e+00	 1.693217176021150e+00
 3.986940478127382e-01	 1.255877797971742e+00	 2.444347770741703e+00
 3.871369679153711e-01	 1.259488389803412e+00	 3.221934106895643e+00
 3.755736411204552e-01	 1.262984765461068e+00	 3.981885930480958e+00
 3.640056543110916e-01	 1.266367242783203e+00	 4.681790232869282e+00
 3.524345809692508e-01	 1.269636167019354e+00	 5.286950380147701e+00
 3.408619806344817e-01	 1.272791910358743e+00	 5.757555651862253e+00
 4.593849471057860e-01	 1.244379468987590e+00	-2.137687347913007e-01
 4.478063184807623e-01	 1.248592944471371e+00	 1.998831849193916e-03
 4.362132314477919e-01	 1.252690268803979e+00	 4.078427928178637e-01
 4.246073422209399e-01	 1.256671617301585e+00	 9.622427121253020e-01
 4.129902964931731e-01	 1.260537195055783e+00	 1.623464578137648e+00
 4.013637288107085e-01	 1.264287236525072e+00	 2.349620695106013e+00
 3.897292619628863e-01	 1.267922005111894e+00	 3.098728229499197e+00
 3.780885063879053e-01	 1.271441792725844e+00	 3.828766374604068e+00
 3.664430595947322e-01	 1.274846919333681e+00	 4.498339790095993e+00
 3.547945056014679e-01	 1.278137732496757e+00	 5.074073654533151e+00
 3.431444143904321e-01	 1.281314606896496e+00	 5.519404346371008e+00
 4.624405577054466e-01	 1.252656490521242e+00	-1.690071317675413e-01
 4.507849135391522e-01	 1.256897992043758e+00	 4.621910590515887e-02
 4.391147147944954e-01	 1.261022569832773e+00	 4.326174170166116e-01
 4.274316287018828e-01	 1.265030400370579e+00	 9.523208981287130e-01
 4.157373119006417e-01	 1.268921690112944e+00	 1.567273591687694e+00
 4.040334098092068e-01	 1.272696675077875e+00	 2.239285419246640e+00
 3.923215560109345e-01	 1.276355620419842e+00	 2.930085797867382e+00
 3.806033716558865e-01	 1.279898819990087e+00	 3.601375911668677e+00
 3.688804648788925e-01	 1.283326595883639e+00	 4.214965351713752e+00
 3.571544302341825e-01	 1.286639297973663e+00	 4.739589384252740e+00
 3.454268481468454e-01	 1.289837303433786e+00	 5.143907677864485e+00
 4.654961683057414e-01	 1.260933512054261e+00	-3.251030791401599e-02
 4.537635085981868e-01	 1.265203039615501e+00	 1.687800152891710e-01
 4.420161981418543e-01	 1.269354870860911e+00	 5.158711114039062e-01
 4.302559151834904e-01	 1.273389183438908e+00	 9.761045369870892e-01
 4.184843273087810e-01	 1.277306185169434e+00	 1.516677072549664e+00
 4.067030908083760e-01	 1.281106113630006e+00	 2.104688209184660e+00
 3.949138500596467e-01	 1.284789235727127e+00	 2.707186365931348e+00
 3.831182369245153e-01	 1.288355847253684e+00	 3.291213821888933e+00
 3.713178701636737e-01	 1.291806272432977e+00	 3.823850352425459e+00
 3.595143548674786e-01	 1.295140863449986e+00	 4.276920322750638e+00
 3.477092819037867e-01	 1.298359999970547e+00	 4.626085839067852e+00
 4.685517789068528e-01	 1.269210533586462e+00	 1.963681218338891e-01
 4.567421036580435e-01	 1.273508087186421e+00	 3.673096860191085e-01
 4.449176814900399e-01	 1.277687171888223e+00	 6.528490866985617e-01
 4.330802016659260e-01	 1.281747966506409e+00	 1.027059225499498e+00
 4.212313427177444e-01	 1.285690680225100e+00	 1.463932094331104e+00
 4.093727718083590e-01	 1.289515552181324e+00	 1.937416352949429e+00
 3.975061441091533e-01	 1.293222851033616e+00	 2.421453703718341e+00
 3.856331021939091e-01	 1.296812874516516e+00	 2.890014063148570e+00
 3.737552754491775e-01	 1.300285948981592e+00	 3.317129534766223e+00
 3.618742795014405e-01	 1.303642428925645e+00	 3.679665278092499e+00
 3.499917156613211e-01	 1.306882696506716e+00	 3.961091347786218e+00
 3.271673781048640e-01	 1.221655731126142e+00	 4.598716780333606e+00
 3.160597405328376e-01	 1.224576437301452e+00	 4.711369818761422e+00
 3.049535898338829e-01	 1.227389301550389e+00	 4.734517040415517e+00
 2.938503806459468e-01	 1.230094757443897e+00	 4.682553088151017e+00
 2.827515522679372e-01	 1.232693262489390e+00	 4.569924070778179e+00
 2.716585282229795e-01	 1.235185297629098e+00	 4.411097051155677e+00
 2.605727158386424e-01	 1.237571366730709e+00	 4.220530844360178e+00
 2.494955058442119e-01	 1.239851996070890e+00	 4.012648114623065e+00
 2.384282719850742e-01	 1.242027733812301e+00	 3.801808754886324e+00
 2.273723706542426e-01	 1.244099149474684e+00	 3.602284528453826e+00
 2.163291405410435e-01	 1.246066833400622e+00	 3.428234948299606e+00
 3.294498118594009e-01	 1.230178427665308e+00	 5.072165867614460e+00
 3.182646835330660e-01	 1.233119509705763e+00	 5.260886616047941e+00
 3.070810524527766e-01	 1.235951997476899e+00	 5.331889575063352e+00
 2.959003834045326e-01	 1.238676327574413e+00	 5.302217075043393e+00
 2.847241257282851e-01	 1.241292960697452e+00	 5.188991060347083e+00
 2.735537128781454e-01	 1.243802381143473e+00	 5.009378325597385e+00
 2.623905619996818e-01	 1.246205096295324e+00	 4.780557160802245e+00
 2.512360735243849e-01	 1.248501636101169e+00	 4.519685396203641e+00
 2.400916307813604e-01	 1.250692552547848e+00	 4.243869832559068e+00
 2.289585996262840e-01	 1.252778419128273e+00	 3.970137037852381e+00
 2.178383280876382e-01	 1.254759830303468e+00	 3.715405487204362e+00
 3.317322456140108e-01	 1.238701124204401e+00	 5.441145621447869e+00
 3.204696265334466e-01	 1.241662582109921e+00	 5.686004363644420e+00
 3.092085150718984e-01	 1.244514693403182e+00	 5.792541129747351e+00
 2.979503861634202e-01	 1.247257897704627e+00	 5.779659507389939e+00
 2.866966991890053e-01	 1.249892658905143e+00	 5.666363137043319e+00
 2.754488975337502e-01	 1.252419464657410e+00	 5.471717847584740e+00
 2.642084081612228e-01	 1.254838825859441e+00	 5.214815285598448e+00
 2.529766412051179e-01	 1.257151276130895e+00	 4.914738030026330e+00
 2.417549895782596e-01	 1.259357371282790e+00	 4.590526178305050e+00
 2.305448285989865e-01	 1.261457688781213e+00	 4.261145385149686e+00
 2.193475156349365e-01	 1.263452827205628e+00	 3.945456330669346e+00
 3.340146793687590e-01	 1.247223820743356e+00	 5.699798801264072e+00
 3.226745695340228e-01	 1.250205654513883e+00	 5.982801737600976e+00
 3.113359776912703e-01	 1.253077389329215e+00	 6.114159300304523e+00
 3.000003889226082e-01	 1.255839467834543e+00	 6.113866803702496e+00
 2.886692726500729e-01	 1.258492357112488e+00	 6.002032380241338e+00
 2.773440821897460e-01	 1.261036548170960e+00	 5.798837153991252e+00
 2.660262543231956e-01	 1.263472555423134e+00	 5.524496979167457e+00
 2.547172088863207e-01	 1.265800916160163e+00	 5.199225734534303e+00
 2.434183483756641e-01	 1.268022190017244e+00	 4.843200158848251e+00
 2.321310575722274e-01	 1.270136958433638e+00	 4.476526207311817e+00
 2.208567031828043e-01	 1.272145824107253e+00	 4.119206904352053e+00
 3.362971131237101e-01	 1.255746517282108e+00	 5.842425274576502e+00
 3.248795125348387e-01	 1.258748726917606e+00	 6.147460577645504e+00
 3.134634403109134e-01	 1.261640085254977e+00	 6.294489945863252e+00
 3.020503916820948e-01	 1.264421037964160e+00	 6.303847328269511e+00
 2.906418461114627e-01	 1.267092055319514e+00	 6.195984617477295e+00
 2.792392668460852e-01	 1.269653631684175e+00	 5.991430987711733e+00
 2.678441004855307e-01	 1.272106284986477e+00	 5.710753855771213e+00
 2.564577765679037e-01	 1.274450556189068e+00	 5.374521453561246e+00
 2.450817071734665e-01	 1.276687008751327e+00	 5.003266994970558e+00
 2.337172865458843e-01	 1.278816228085687e+00	 4.617454414528946e+00
 2.223658907311072e-01	 1.280838821008494e+00	 4.237445650506896e+00
 3.385795468789294e-01	 1.264269213820592e+00	 5.863477406215400e+00
 3.270844555359385e-01	 1.267291799321045e+00	 6.176263007734708e+00
 3.155909029308493e-01	 1.270202781180447e+00	 6.331335741813250e+00
 3.041003944418780e-01	 1.273002608093483e+00	 6.348631093126698e+00
 2.926144195731495e-01	 1.275691753526249e+00	 6.248200007524950e+00
 2.811344515027196e-01	 1.278270715197102e+00	 6.050168509501664e+00
 2.696619466481583e-01	 1.280740014549541e+00	 5.774698987348310e+00
 2.581983442497768e-01	 1.283100196217706e+00	 5.441953130969352e+00
 2.467450659715589e-01	 1.285351827485155e+00	 5.072056501341499e+00
 2.353035155198344e-01	 1.287495497737492e+00	 4.685064705185696e+00
 2.238750782797112e-01	 1.289531817909503e+00	 4.300931143581670e+00
 3.408619806344817e-01	 1.272791910358743e+00	 5.757555651862253e+00
 3.292893985373657e-01	 1.275834871724156e+00	 6.065588689765427e+00
 3.177183655510993e-01	 1.278765477105603e+00	 6.222554806884388e+00
 3.061503972019563e-01	 1.281584178222514e+00	 6.247269486551935e+00
 2.945869930351083e-01	 1.284291451732716e+00	 6.158653613253692e+00
 2.830296361596010e-01	 1.286887798709794e+00	 5.975694473072633e+00
 2.714797928110087e-01	 1.289373744112402e+00	 5.717408453666985e+00
 2.599389119318509e-01	 1.291749836246175e+00	 5.402805423632702e+00
 2.484084247698341e-01	 1.294016646218845e+00	 5.050854765054074e+00
 2.368897444939551e-01	 1.296174767389189e+00	 4.680453027606420e+00
 2.253842658284822e-01	 1.298224814810431e+00	 4.310393167739693e+00
 3.431444143904321e-01	 1.281314606896496e+00	 5.519404346371008e+00
 3.314943415391646e-01	 1.284377944126897e+00	 5.811912204244743e+00
 3.198458281716852e-01	 1.287328173030424e+00	 5.966059400882791e+00
 3.082003999623278e-01	 1.290165748351254e+00	 5.998835026848536e+00
 2.965595664973141e-01	 1.292891149938944e+00	 5.927315964743168e+00
 2.849248208166819e-01	 1.295504882222298e+00	 5.768630365153628e+00
 2.732976389740122e-01	 1.298007473675132e+00	 5.539922841296135e+00
 2.616794796140355e-01	 1.300399476274568e+00	 5.258321355635962e+00
 2.500717835681840e-01	 1.302681464952513e+00	 4.940905765719939e+00
 2.384759734681241e-01	 1.304854037040913e+00	 4.604677991053093e+00
 2.268934533772859e-01	 1.306917811711429e+00	 4.266533758080169e+00
 3.454268481468454e-01	 1.289837303433786e+00	 5.143907677864485e+00
 3.336992845413788e-01	 1.292921016529221e+00	 5.411800552044779e+00
 3.219732907926282e-01	 1.295890868954890e+00	 5.559814689814135e+00
 3.102504027229908e-01	 1.298747318479706e+00	 5.602421140245588e+00
 2.985321399597416e-01	 1.301490848144957e+00	 5.554153613104229e+00
 2.868200054739142e-01	 1.304121965734667e+00	 5.429575512137747e+00
 2.751154851370989e-01	 1.306641203237804e+00	 5.243248693761153e+00
 2.634200472962410e-01	 1.309049116302981e+00	 5.009703916406791e+00
 2.517351423665012e-01	 1.311346283686275e+00	 4.743412939826623e+00
 2.400622024422184e-01	 1.313533306692799e+00	 4.458762228322687e+00
 2.284026409259882e-01	 1.315610808612648e+00	 4.170028207235557e+00
 3.477092819037867e-01	 1.298359999970547e+00	 4.626085839067852e+00
 3.359042275440521e-01	 1.301464088931087e+00	 4.861910771676713e+00
 3.241007534139496e-01	 1.304453564878978e+00	 5.001837575296573e+00
 3.123004054839438e-01	 1.307328888607872e+00	 5.057141961806043e+00
 3.005047134223661e-01	 1.310090546350782e+00	 5.039129675431917e+00
 2.887151901312500e-01	 1.312739049246950e+00	 4.959108154848590e+00
 2.769333313001993e-01	 1.315274932800494e+00	 4.828359915126510e+00
 2.651606149783776e-01	 1.317698756331511e+00	 4.658117605357423e+00
 2.533985011646780e-01	 1.320011102420249e+00	 4.459540691917287e+00
 2.416484314161156e-01	 1.322212576344983e+00	 4.243693712167660e+00
 2.299118284744549e-01	 1.324303805514240e+00	 4.021526038936498e+00
 3.499917156613211e-01	 1.306882696506716e+00	 3.961091347786218e+00
 3.381091705472289e-01	 1.310007161332449e+00	 4.158987666808778e+00
 3.262282160356712e-01	 1.313016260802667e+00	 4.290195585326622e+00
 3.143504082451845e-01	 1.315910458735754e+00	 4.362132158290699e+00
 3.024772868851621e-01	 1.318690244556447e+00	 4.382204371294153e+00
 2.906103747886412e-01	 1.321356132759197e+00	 4.357786492880829e+00
 2.787511774632436e-01	 1.323908662363273e+00	 4.296199129130425e+00
 2.669011826603555e-01	 1.326348396360253e+00	 4.204689925476617e+00
 2.550618599626067e-01	 1.328675921154549e+00	 4.090415855019903e+00
 2.432346603896930e-01	 1.330891845997599e+00	 3.960427027646857e+00
 2.314210160225521e-01	 1.332996802416356e+00	 3.821651950051947e+00
 2.163291405410435e-01	 1.246066833400622e+00	 3.428234948299606e+00
 2.052980289624416e-01	 1.247931704324035e+00	 3.277209982267075e+00
 1.942822198586349e-01	 1.249694048834886e+00	 3.139044063028145e+00
 1.832830003551988e-01	 1.251354515916720e+00	 3.016208647117290e+00
 1.723016385666052e-01	 1.252913773224046e+00	 2.911250983697686e+00
 1.613393833298090e-01	 1.254372506529152e+00	 2.826783989555831e+00
 1.503974639547379e-01	 1.255731419166985e+00	 2.765476618911873e+00
 1.394770899915604e-01	 1.256991231478618e+00	 2.730044690339738e+00
 1.285794510145984e-01	 1.258152680253831e+00	 2.723242133361708e+00
 1.177057164227230e-01	 1.259216518173316e+00	 2.747852617853487e+00
 1.068570352560679e-01	 1.260183513251014e+00	 2.806681530244540e+00
 2.178383280876382e-01	 1.254759830303468e+00	 3.715405487204362e+00
 2.067302596266735e-01	 1.256637711216769e+00	 3.480885319128811e+00
 1.956376003958711e-01	 1.258412350457499e+00	 3.259631277532175e+00
 1.845616465002525e-01	 1.260084401536747e+00	 3.056142043368862e+00
 1.735036749011071e-01	 1.261654536766819e+00	 2.874950130348882e+00
 1.624649431477210e-01	 1.263123446704203e+00	 2.720610306693987e+00
 1.514466891261248e-01	 1.264491839590562e+00	 2.597688616490022e+00
 1.404501308247401e-01	 1.265760440792328e+00	 2.510751959950675e+00
 1.294764661167819e-01	 1.266929992239393e+00	 2.464358192097343e+00
 1.185268725592645e-01	 1.268001251863421e+00	 2.463046699869457e+00
 1.076025072084343e-01	 1.268974993036293e+00	 2.511329418484961e+00
 2.193475156349365e-01	 1.263452827205628e+00	 3.945456330669346e+00
 2.081624902916449e-01	 1.265343718108786e+00	 3.647164360206189e+00
 1.969929809338750e-01	 1.267130652079369e+00	 3.361635624497957e+00
 1.858402926460915e-01	 1.268814287156010e+00	 3.094980239340932e+00
 1.747057112363997e-01	 1.270395300308815e+00	 2.853309538145127e+00
 1.635905029664146e-01	 1.271874386878464e+00	 2.642723356913393e+00
 1.524959142982680e-01	 1.273252260013340e+00	 2.469298005151610e+00
 1.414231716586319e-01	 1.274529650105232e+00	 2.339074878977656e+00
 1.303734812196132e-01	 1.275707304224143e+00	 2.258049672840383e+00
 1.193480286963668e-01	 1.276785985552708e+00	 2.232162146742322e+00
 1.083479791612502e-01	 1.277766472820746e+00	 2.267286406655320e+00
 2.208567031828043e-01	 1.272145824107253e+00	 4.119206904352053e+00
 2.095947209572145e-01	 1.274049725000251e+00	 3.776425942289202e+00
 1.983483614725010e-01	 1.275848953700673e+00	 3.445094387059075e+00
 1.871189387925707e-01	 1.277544172774695e+00	 3.132525966524037e+00
 1.759077475723419e-01	 1.279136063850222e+00	 2.846012205339840e+00
 1.647160627857564e-01	 1.280625327052128e+00	 2.592808887345786e+00
 1.535451394710454e-01	 1.282012680435511e+00	 2.380123271983635e+00
 1.423962124931290e-01	 1.283298859417521e+00	 2.215102017891731e+00
 1.312704963230042e-01	 1.284484616208267e+00	 2.104819766953354e+00
 1.201691848339644e-01	 1.285570719241357e+00	 2.056268342567780e+00
 1.090934511144761e-01	 1.286557952604549e+00	 2.076346516732501e+00
 2.223658907311072e-01	 1.280838821008494e+00	 4.237445650506896e+00
 2.110269516232398e-01	 1.282755731891327e+00	 3.869029957494477e+00
 1.997037420116036e-01	 1.284567255321584e+00	 3.510035362870191e+00
 1.883975849395445e-01	 1.286274058392983e+00	 3.168579125104404e+00
 1.771097839087924e-01	 1.287876827391228e+00	 2.852741926192305e+00
 1.658416226056129e-01	 1.289376267225383e+00	 2.570553823479225e+00
 1.545943646443351e-01	 1.290773100857267e+00	 2.329981005578351e+00
 1.433692533281250e-01	 1.292068068729384e+00	 2.138913302326914e+00
 1.321675114268671e-01	 1.293261928191953e+00	 2.005152398883566e+00
 1.209903409719918e-01	 1.294355452929550e+00	 1.936400704600782e+00
 1.098389230680726e-01	 1.295349432387875e+00	 1.940250828182895e+00
 2.238750782797112e-01	 1.289531817909503e+00	 4.300931143581670e+00
 2.124591822895797e-01	 1.291461738782180e+00	 3.925318030570788e+00
 2.010591225510374e-01	 1.293285556942277e+00	 3.556477194612127e+00
 1.896762310868678e-01	 1.295003944011057e+00	 3.202936866541574e+00
 1.783118202456095e-01	 1.296617590932019e+00	 2.873183231739856e+00
 1.669671824258507e-01	 1.298127207398421e+00	 2.575646181360110e+00
 1.556435898180152e-01	 1.299533521278798e+00	 2.318685899875035e+00
 1.443422941635130e-01	 1.300837278041010e+00	 2.110580235605295e+00
 1.330645265311142e-01	 1.302039240175386e+00	 1.959512801106312e+00
 1.218114971103837e-01	 1.303140186617469e+00	 1.873561750896864e+00
 1.105843950219999e-01	 1.304140912170899e+00	 1.860689184981187e+00
 2.253842658284822e-01	 1.298224814810431e+00	 4.310393167739694e+00
 2.138914129560918e-01	 1.300167745672973e+00	 3.945614174913202e+00
 2.024145030906569e-01	 1.302003858562929e+00	 3.584429692379664e+00
 1.909548772343953e-01	 1.303733829629101e+00	 3.235393677294855e+00
 1.795138565826523e-01	 1.305358354472785e+00	 2.907021336783706e+00
 1.680927422463364e-01	 1.306878147571434e+00	 2.607774986583996e+00
 1.566928149919637e-01	 1.308293941700295e+00	 2.346050760593360e+00
 1.453153349991863e-01	 1.309606487352589e+00	 2.130166114607397e+00
 1.339615416356575e-01	 1.310816552158751e+00	 1.968348067845534e+00
 1.226326532490746e-01	 1.311924920305294e+00	 1.868722126576993e+00
 1.113298669762187e-01	 1.312932391953795e+00	 1.839301835252123e+00
 2.268934533772859e-01	 1.306917811711429e+00	 4.266533758080169e+00
 2.153236436226346e-01	 1.308873752563872e+00	 3.930225428277264e+00
 2.037698836303164e-01	 1.310722160183712e+00	 3.593894148329874e+00
 1.922335233819814e-01	 1.312463715247295e+00	 3.265741463645131e+00
 1.807158929197795e-01	 1.314099118013713e+00	 2.953942092799088e+00
 1.692183020669363e-01	 1.315629087744610e+00	 2.666630199759179e+00
 1.577420401660588e-01	 1.317054362121952e+00	 2.411886514137925e+00
 1.462883758350382e-01	 1.318375696664313e+00	 2.197726239297487e+00
 1.348585567404092e-01	 1.319593864142237e+00	 2.032087688560539e+00
 1.234538093879990e-01	 1.320709653993206e+00	 1.922821590642747e+00
 1.120753389306894e-01	 1.321723871736737e+00	 1.877681006672536e+00
 2.284026409259882e-01	 1.315610808612648e+00	 4.170028207235557e+00
 2.167558742890663e-01	 1.317579759455040e+00	 3.879442469131750e+00
 2.051252641698707e-01	 1.319440461804804e+00	 3.584863643949022e+00
 1.935121695294813e-01	 1.321193600865824e+00	 3.293769637561343e+00
 1.819179292568498e-01	 1.322839881554992e+00	 3.013631946495744e+00
 1.703438618875172e-01	 1.324380027918142e+00	 2.751902648143699e+00
 1.587912653401786e-01	 1.325814782543958e+00	 2.516002218859697e+00
 1.472614166709622e-01	 1.327144905976369e+00	 2.313308116197728e+00
 1.357555718452815e-01	 1.328371176126029e+00	 2.151144062134640e+00
 1.242749655270916e-01	 1.329494387681388e+00	 2.036769965166457e+00
 1.128208108853724e-01	 1.330515351519901e+00	 1.977372420605098e+00
 2.299118284744549e-01	 1.324303805514240e+00	 4.021526038936497e+00
 2.181881049552451e-01	 1.326285766346644e+00	 3.793540214539564e+00
 2.064806447091740e-01	 1.328158763426378e+00	 3.557323350276820e+00
 1.947908156767493e-01	 1.329923486484871e+00	 3.319265203563567e+00
 1.831199655937218e-01	 1.331580645096808e+00	 3.085777903769150e+00
 1.714694217079456e-01	 1.333130968092220e+00	 2.863283963172325e+00
 1.598404905142011e-01	 1.334575202966505e+00	 2.658205078566212e+00
 1.482344575068515e-01	 1.335914115288949e+00	 2.476951656089179e+00
 1.366525869501864e-01	 1.337148488110314e+00	 2.325912992652722e+00
 1.250961216662868e-01	 1.338279121370020e+00	 2.211448048585579e+00
 1.135662828402284e-01	 1.339306831303460e+00	 2.139876747779208e+00
 2.314210160225521e-01	 1.332996802416356e+00	 3.821651950051947e+00
 2.196203356210291e-01	 1.334991773238847e+00	 3.672778400409707e+00
 2.078360252480811e-01	 1.336877065048610e+00	 3.511250821409655e+00
 1.960694618236402e-01	 1.338653372104617e+00	 3.342012846537141e+00
 1.843220019302544e-01	 1.340321408639350e+00	 3.170067498796416e+00
 1.725949815280879e-01	 1.341881908267035e+00	 3.000466523604485e+00
 1.608897156880044e-01	 1.343335623389784e+00	 2.838300458177927e+00
 1.492074983425993e-01	 1.344683324602242e+00	 2.688689366203432e+00
 1.375496020550363e-01	 1.345925800095279e+00	 2.556774167608271e+00
 1.259172778055192e-01	 1.347063855059284e+00	 2.447708494739903e+00
 1.143117547952176e-01	 1.348098311087590e+00	 2.366651008187598e+00
 1.068570352560679e-01	 1.260183513251014e+00	 2.806681530244540e+00
 9.603636912063959e-02	 1.261054308314603e+00	 2.884622164221011e+00
 8.524295806728306e-02	 1.261829872349682e+00	 2.966506282622505e+00
 7.447786395788004e-02	 1.262511015365494e+00	 3.054946257351622e+00
 6.374212840766905e-02	 1.263098560464746e+00	 3.152453527277781e+00
 5.303677267716066e-02	 1.263593343301771e+00	 3.261434538943624e+00
 4.236279757853359e-02	 1.263996211543256e+00	 3.384186894919267e+00
 3.172118339627010e-02	 1.264308024331922e+00	 3.522895679917785e+00
 2.111288982178093e-02	 1.264529651753582e+00	 3.679629937083491e+00
 1.053885590176010e-02	 1.264661974307913e+00	 3.856339269229380e+00
 0.000000000000000e+00	 1.264705882383334e+00	 4.054850542944768e+00
 1.076025072084343e-01	 1.268974993036293e+00	 2.511329418484961e+00
 9.670635233149935e-02	 1.269851863070280e+00	 2.594329188872113e+00
 8.583764267762742e-02	 1.270632837710947e+00	 2.693812618653975e+00
 7.499744751660925e-02	 1.271318732618420e+00	 2.809218776857312e+00
 6.418681573034478e-02	 1.271910376637635e+00	 2.940017848823419e+00
 5.340677570400457e-02	 1.272408611252722e+00	 3.085707917552212e+00
 4.265833523177270e-02	 1.272814290043961e+00	 3.245811760307112e+00
 3.194248143692859e-02	 1.273128278147734e+00	 3.419873633262068e+00
 2.126018070601572e-02	 1.273351451719854e+00	 3.607456019608663e+00
 1.061237863683633e-02	 1.273484697402651e+00	 3.808136319231170e+00
 0.000000000000000e+00	 1.273528911796184e+00	 4.021503461519425e+00
 1.083479791612502e-01	 1.277766472820746e+00	 2.267286406655320e+00
 9.737633554267376e-02	 1.278649417825125e+00	 2.349869280202084e+00
 8.643232728813821e-02	 1.279435803071370e+00	 2.460459541745467e+00
 7.551703107535605e-02	 1.280126449870493e+00	 2.596098139810485e+00
 6.463150305290143e-02	 1.280722192809661e+00	 2.753961637277449e+00
 5.377677873061730e-02	 1.281223879202800e+00	 2.931359613521521e+00
 4.295387288470533e-02	 1.281632368543785e+00	 3.125731929055142e+00
 3.216377947725417e-02	 1.281948531962658e+00	 3.334645827221409e+00
 2.140747158995209e-02	 1.282173251685232e+00	 3.555792850425348e+00
 1.068590137172126e-02	 1.282307420496491e+00	 3.786985551371004e+00
 0.000000000000000e+00	 1.282351941208134e+00	 4.026153983520383e+00
 1.090934511144761e-01	 1.286557952604549e+00	 2.076346516732501e+00
 9.804631875415215e-02	 1.287446972579301e+00	 2.153635472702809e+00
 8.702701189883458e-02	 1.288238768431105e+00	 2.269015265644641e+00
 7.603661463416812e-02	 1.288934167121860e+00	 2.417889356790941e+00
 6.507619037541097e-02	 1.289534008980963e+00	 2.595874192404940e+00
 5.414678175708864e-02	 1.290039147152133e+00	 2.798797009541089e+00
 4.324941053743030e-02	 1.290450447042847e+00	 3.022693390712874e+00
 3.238507751734357e-02	 1.290768785776804e+00	 3.263804542888686e+00
 2.155476247367107e-02	 1.290995051649820e+00	 3.518574279441142e+00
 1.075942410646440e-02	 1.291130143589533e+00	 3.783645686915221e+00
 0.000000000000000e+00	 1.291174970619284e+00	 4.055857462483319e+00
 1.098389230680726e-01	 1.295349432387875e+00	 1.940250828182894e+00
 9.871630196592401e-02	 1.296244527332976e+00	 2.007952307305705e+00
 8.762169650973596e-02	 1.297041733790313e+00	 2.121975468452127e+00
 7.655619819309299e-02	 1.297741884372669e+00	 2.276832753098293e+00
 6.552087769794535e-02	 1.298345825151676e+00	 2.467300243516336e+00
 5.451678478350840e-02	 1.298854415100849e+00	 2.688415657620470e+00
 4.354494819004644e-02	 1.299268525541265e+00	 2.935476017830557e+00
 3.260637555729342e-02	 1.299589039590283e+00	 3.204034969359945e+00
 2.170205335725366e-02	 1.299816851613725e+00	 3.489899726768923e+00
 1.083294684111531e-02	 1.299952866681880e+00	 3.789127631091080e+00
 0.000000000000000e+00	 1.299998000029734e+00	 4.098022304067084e+00
 1.105843950219999e-01	 1.304140912170899e+00	 1.860689184981187e+00
 9.938628517797872e-02	 1.305042082086316e+00	 1.915078064633073e+00
 8.821638112086165e-02	 1.305844699149148e+00	 2.021765666191219e+00
 7.707578175217837e-02	 1.306549601623066e+00	 2.175106083520454e+00
 6.596556502057642e-02	 1.307157641321937e+00	 2.369741393495551e+00
 5.488678780996634e-02	 1.307669683049075e+00	 2.600599628006085e+00
 4.384048584265256e-02	 1.308086604039157e+00	 2.862892383351329e+00
 3.282767359720042e-02	 1.308409293403207e+00	 3.152112041536730e+00
 2.184934424078084e-02	 1.308638651577050e+00	 3.464028581613242e+00
 1.090646957572350e-02	 1.308775589773633e+00	 3.794685962861344e+00
 0.000000000000000e+00	 1.308821029439584e+00	 4.140398066042647e+00
 1.113298669762187e-01	 1.312932391953795e+00	 1.839301835252123e+00
 1.000562683903057e-01	 1.313839636839487e+00	 1.877206909461156e+00
 8.881106573223085e-02	 1.314647664507767e+00	 1.970743491723701e+00
 7.759536531147186e-02	 1.315357318873199e+00	 2.114826562655614e+00
 6.641025234337615e-02	 1.315969457491884e+00	 2.304657505174032e+00
 5.525679083655230e-02	 1.316484950996940e+00	 2.535721844318077e+00
 4.413602349534752e-02	 1.316904682536645e+00	 2.803786625660240e+00
 3.304897163716124e-02	 1.317229547215688e+00	 3.104897405049710e+00
 2.199663512433365e-02	 1.317460451539901e+00	 3.435374826219781e+00
 1.097999231033851e-02	 1.317598312864892e+00	 3.791810766615033e+00
 0.000000000000000e+00	 1.317644058848934e+00	 4.171064036380352e+00
 1.120753389306894e-01	 1.321723871736737e+00	 1.877681006672536e+00
 1.007262516028944e-01	 1.322637191592656e+00	 1.896470950529336e+00
 8.940575034386296e-02	 1.323450629866328e+00	 1.971200883419192e+00
 7.811494887102105e-02	 1.324165036123214e+00	 2.098052814719820e+00
 6.685493966641651e-02	 1.324781273661655e+00	 2.273468032735373e+00
 5.562679386335605e-02	 1.325300218944569e+00	 2.494144405549116e+00
 4.443156114823011e-02	 1.325722761033844e+00	 2.757033359071346e+00
 3.327026967727255e-02	 1.326049801027835e+00	 3.059336502385055e+00
 2.214392600799307e-02	 1.326282251502384e+00	 3.398501874408958e+00
 1.105351504500987e-02	 1.326421035955760e+00	 3.772219789854434e+00
 0.000000000000000e+00	 1.326467088257884e+00	 4.178418267174959e+00
 1.128208108853724e-01	 1.330515351519901e+00	 1.977372420605098e+00
 1.013962348157342e-01	 1.331434746345987e+00	 1.974942219611097e+00
 9.000043495577721e-02	 1.332253595224988e+00	 2.025366187752299e+00
 7.863453243087361e-02	 1.332972753373260e+00	 2.126786746564190e+00
 6.729962698976935e-02	 1.333593089831386e+00	 2.277553300693110e+00
 5.599679689046736e-02	 1.334115486892093e+00	 2.476218895532794e+00
 4.472709880139920e-02	 1.334540839530876e+00	 2.721536627651210e+00
 3.349156771763102e-02	 1.334870054839761e+00	 3.012455774607294e+00
 2.229121689184013e-02	 1.335104051464604e+00	 3.348117614768575e+00
 1.112703777978712e-02	 1.335243759046337e+00	 3.727850911800096e+00
 0.000000000000000e+00	 1.335290117666534e+00	 4.151167043324435e+00
 1.135662828402284e-01	 1.339306831303460e+00	 2.139876747779208e+00
 1.020662180288146e-01	 1.340232301099649e+00	 2.114634573556812e+00
 9.059511956799295e-02	 1.341056560583903e+00	 2.135406179782730e+00
 7.915411599107712e-02	 1.341780470623482e+00	 2.202975347430562e+00
 6.774431431350665e-02	 1.342404906001215e+00	 2.318255732850724e+00
 5.636679991797610e-02	 1.342930754839637e+00	 2.482286680457631e+00
 4.502263645495359e-02	 1.343358918027858e+00	 2.696228900387753e+00
 3.371286575833333e-02	 1.343690308651576e+00	 2.961359973367387e+00
 2.243850777595580e-02	 1.343925851426666e+00	 3.279069649101481e+00
 1.120056051471979e-02	 1.344066482136725e+00	 3.650854908627221e+00
 0.000000000000000e+00	 1.344113147074984e+00	 4.078314765985798e+00
 1.143117547952176e-01	 1.348098311087590e+00	 2.366651008187598e+00
 1.027362012421250e-01	 1.349029855853806e+00	 2.317505522824749e+00
 9.118980418052944e-02	 1.349859525943230e+00	 2.303428005267185e+00
 7.967369955167920e-02	 1.350588187874028e+00	 2.328512418790034e+00
 6.818900163770034e-02	 1.351216722171277e+00	 2.396881033527546e+00
 5.673680294597199e-02	 1.351746022787329e+00	 2.512679194972389e+00
 4.531817410899213e-02	 1.352176996524908e+00	 2.680070105817000e+00
 3.393416379947616e-02	 1.352510562463393e+00	 2.903229578161533e+00
 2.258579866042112e-02	 1.352747651388675e+00	 3.186340717214986e+00
 1.127408324985740e-02	 1.352889205227027e+00	 3.533588501792428e+00
 0.000000000000000e+00	 1.352936176483334e+00	 3.949154231873525e+00
 1.352936176483334e+00	 0.000000000000000e+00	 2.051166686163752e+01
 1.352889205227027e+00	 1.127408324985666e-02	 1.541424196884929e+01
 1.352747651388675e+00	 2.258579866042048e-02	 1.159795191487387e+01
 1.352510562463392e+00	 3.393416379947564e-02	 8.871470946310991e+00
 1.352176996524908e+00	 4.531817410899172e-02	 7.040968126234852e+00
 1.351746022787329e+00	 5.673680294597166e-02	 5.910282330801840e+00
 1.351216722171277e+00	 6.818900163770010e-02	 5.281105818243604e+00
 1.350588187874028e+00	 7.967369955167911e-02	 4.953176443999436e+00
 1.349859525943230e+00	 9.118980418052945e-02	 4.724478563129845e+00
 1.349029855853806e+00	 1.027362012421251e-01	 4.391452641390059e+00
 1.348098311087590e+00	 1.143117547952177e-01	 3.749213575171330e+00
 1.361760705896667e+00	 0.000000000000000e+00	 2.508377561432084e+01
 1.361713428270247e+00	 1.134761848484702e-02	 1.879477804948642e+01
 1.361570951146700e+00	 2.273311458624149e-02	 1.404558870999154e+01
 1.361332315808420e+00	 3.415549946404613e-02	 1.061515113871082e+01
 1.360996574185418e+00	 4.561376200799330e-02	 8.279677315999560e+00
 1.360562789420742e+00	 5.710686887879947e-02	 6.812856396911373e+00
 1.360030036440317e+00	 6.863376456377379e-02	 5.986073247456283e+00
 1.359397402526789e+00	 8.019337144721007e-02	 5.568636841718576e+00
 1.358663987896998e+00	 9.178458989584184e-02	 5.328018546192775e+00
 1.357828906282633e+00	 1.034062983596298e-01	 5.030100295051803e+00
 1.356891285513662e+00	 1.150573534881408e-01	 4.439432635917097e+00
 1.370585235310001e+00	 0.000000000000000e+00	 2.863779807013686e+01
 1.370537651313480e+00	 1.142115372004104e-02	 2.156355801205923e+01
 1.370394250904771e+00	 2.288043051240713e-02	 1.617790801655039e+01
 1.370154069153548e+00	 3.437683512904651e-02	 1.224496592254120e+01
 1.369816151846095e+00	 4.590934990746143e-02	 9.526064779074773e+00
 1.369379556054403e+00	 5.747693481208903e-02	 7.779980819419031e+00
 1.368843350709689e+00	 6.907852749027030e-02	 6.763171884960652e+00
 1.368206617179968e+00	 8.071304334309815e-02	 6.230026354667636e+00
 1.367468449851268e+00	 9.237937561142637e-02	 5.933122598811822e+00
 1.366627956712044e+00	 1.040763954773102e-01	 5.623498951342297e+00
 1.365684259940387e+00	 1.158029521811391e-01	 5.050934169432402e+00
 1.379409764723334e+00	 0.000000000000000e+00	 3.113686854630475e+01
 1.379361874356723e+00	 1.149468895538780e-02	 2.369571101191679e+01
 1.379217550662885e+00	 2.302774643883125e-02	 1.798144025231601e+01
 1.378975822498765e+00	 3.459817079436932e-02	 1.375795704419292e+01
 1.378635729506922e+00	 4.620493780727946e-02	 1.078649459589259e+01
 1.378196322688281e+00	 5.784700074572489e-02	 8.825851407853534e+00
 1.377656664979350e+00	 6.952329041708381e-02	 7.632634663721971e+00
 1.377015831833514e+00	 8.123271523925400e-02	 6.961514207763371e+00
 1.376272911805979e+00	 9.297416132721503e-02	 6.565487126670415e+00
 1.375427007141962e+00	 1.047464925951222e-01	 6.196152929122865e+00
 1.374477234367676e+00	 1.165485508741936e-01	 5.603999290099077e+00
 1.388234294136667e+00	 0.000000000000000e+00	 3.254512268126766e+01
 1.388186097399976e+00	 1.156822419083639e-02	 2.516704656955375e+01
 1.388040850421034e+00	 2.317506236542768e-02	 1.944309135544035e+01
 1.387797575844059e+00	 3.481950645990708e-02	 1.515126059918036e+01
 1.387455307167877e+00	 4.650052570733075e-02	 1.206717532682517e+01
 1.387013089322345e+00	 5.821706667959157e-02	 9.964297575565780e+00
 1.386469979249262e+00	 6.996805334410877e-02	 8.614163986711622e+00
 1.385825046487373e+00	 8.175238713558843e-02	 7.786629507601075e+00
 1.385077373761063e+00	 9.356894704313973e-02	 7.250121226981129e+00
 1.384226057572308e+00	 1.054165897130219e-01	 6.771902344411851e+00
 1.383270208795438e+00	 1.172941495672857e-01	 6.118346248632377e+00
 1.397058823550000e+00	 0.000000000000000e+00	 3.282766580645038e+01
 1.397010320443238e+00	 1.164175942633589e-02	 2.595403288062727e+01
 1.396864150179216e+00	 2.332237829211027e-02	 2.055013055070519e+01
 1.396619329189418e+00	 3.504084212555231e-02	 1.642210353420434e+01
 1.396274884828940e+00	 4.679611360749868e-02	 1.337416428913682e+01
 1.395829855956568e+00	 5.858713261357373e-02	 1.120879318809265e+01
 1.395283293519384e+00	 7.041281627123945e-02	 9.726947698766724e+00
 1.394634261141493e+00	 8.227205903201212e-02	 8.728280643695518e+00
 1.393881835716456e+00	 9.416373275913247e-02	 8.011367577173459e+00
 1.393025108003004e+00	 1.060866868309656e-01	 7.373943295288361e+00
 1.392063183223582e+00	 1.180397482603965e-01	 6.613147471347947e+00
 1.405883352963333e+00	 0.000000000000000e+00	 3.195054250907220e+01
 1.405834543486506e+00	 1.171529466183539e-02	 2.603377594291926e+01
 1.405687449937423e+00	 2.346969421879286e-02	 2.129017857705719e+01
 1.405441082534831e+00	 3.526217779119753e-02	 1.756780028228780e+01
 1.405094462490091e+00	 4.709170150766660e-02	 1.471337167528609e+01
 1.404646622590918e+00	 5.895719854755587e-02	 1.257246700678373e+01
 1.404096607789674e+00	 7.085757919837009e-02	 1.098967446246626e+01
 1.403443475795821e+00	 8.279173092843582e-02	 9.808773966605957e+00
 1.402686297672092e+00	 9.475851847512520e-02	 8.872922546783000e+00
 1.401824158433973e+00	 1.067567839489093e-01	 8.024847299154615e+00
 1.400856157652018e+00	 1.187853469535073e-01	 7.107045973219716e+00
 1.414707882376666e+00	 0.000000000000000e+00	 2.988070733400879e+01
 1.414658766529780e+00	 1.178882989728398e-02	 2.538399946457506e+01
 1.414510749695649e+00	 2.361701014538929e-02	 2.165119635629377e+01
 1.414262835880286e+00	 3.548351345673529e-02	 1.858574952517471e+01
 1.413914040151312e+00	 4.738728940771791e-02	 1.609056451950775e+01
 1.413463389225367e+00	 5.932726448142257e-02	 1.406811274536366e+01
 1.412909922060092e+00	 7.130234212539499e-02	 1.242054856404688e+01
 1.412252690450304e+00	 8.331140282477023e-02	 1.104983177452142e+01
 1.411490759627908e+00	 9.535330419104993e-02	 9.857855566462590e+00
 1.410623208865135e+00	 1.074268810668091e-01	 8.746580015002433e+00
 1.409649132080654e+00	 1.195309456465994e-01	 7.618171172072652e+00
 1.423532411789999e+00	 0.000000000000000e+00	 2.658599657527626e+01
 1.423482989573057e+00	 1.186236513263074e-02	 2.398302551971508e+01
 1.423334049453891e+00	 2.376432607181340e-02	 2.162147408375721e+01
 1.423084589225772e+00	 3.570484912205811e-02	 1.947343107747091e+01
 1.422733617812583e+00	 4.768287730753594e-02	 1.751137051925821e+01
 1.422280155859884e+00	 5.969733041505841e-02	 1.570819875622882e+01
 1.421723236330597e+00	 7.174710505220856e-02	 1.403730417409365e+01
 1.421061905104891e+00	 8.383107472092610e-02	 1.247260963831564e+01
 1.420295221583836e+00	 9.594808990683856e-02	 1.098862778635305e+01
 1.419422259296415e+00	 1.080969781846211e-01	 9.560519281712375e+00
 1.418442106509400e+00	 1.202765443396539e-01	 8.164154129898861e+00
 1.432356941203333e+00	 0.000000000000000e+00	 2.203510111014723e+01
 1.432307212616338e+00	 1.193590036782476e-02	 2.180975591919019e+01
 1.432157349212142e+00	 2.391164199797905e-02	 2.118962072283863e+01
 1.431906342571277e+00	 3.592618478705849e-02	 2.022840288727820e+01
 1.431553195473883e+00	 4.797846520700406e-02	 1.898128171778585e+01
 1.431096922494441e+00	 6.006739634834795e-02	 1.750487736244674e+01
 1.430536550601150e+00	 7.219186797870504e-02	 1.585721908651961e+01
 1.429871119759527e+00	 8.435074661681413e-02	 1.409771309360270e+01
 1.429099683539813e+00	 9.654287562242309e-02	 1.228711005446139e+01
 1.428221309727733e+00	 1.087670753023014e-01	 1.048747250188280e+01
 1.427235080938167e+00	 1.210221430326522e-01	 8.762142246003933e+00
 1.441181470616666e+00	 0.000000000000000e+00	 1.619754023120871e+01
 1.441131435659620e+00	 1.200943560281512e-02	 1.884365426582826e+01
 1.440980648970397e+00	 2.405895792380007e-02	 2.034455388598450e+01
 1.440728095916789e+00	 3.614752045162897e-02	 2.084829814832859e+01
 1.440372773135193e+00	 4.827405310600565e-02	 2.050565805377997e+01
 1.439913689129008e+00	 6.043746228117578e-02	 1.946999385064660e+01
 1.439349864871708e+00	 7.263663090477876e-02	 1.789712795819804e+01
 1.438680334414161e+00	 8.487041851234511e-02	 1.594521372692659e+01
 1.437904145495773e+00	 9.713766133773551e-02	 1.377460024419488e+01
 1.437020360159012e+00	 1.094371724198062e-01	 1.154769339924338e+01
 1.436028055366862e+00	 1.217677417255753e-01	 9.428813425480389e+00
 1.348098311087590e+00	 1.143117547952177e-01	 3.749213575171328e+00
 1.347063855059284e+00	 1.259172778055186e-01	 2.968608404333478e+00
 1.345925800095279e+00	 1.375496020550358e-01	 2.365047845835790e+00
 1.344683324602242e+00	 1.492074983425989e-01	 1.949391257144973e+00
 1.343335623389784e+00	 1.608897156880040e-01	 1.732764975953731e+00
 1.341881908267035e+00	 1.725949815280876e-01	 1.726565137957473e+00
 1.340321408639350e+00	 1.843220019302541e-01	 1.942461799409598e+00
 1.338653372104616e+00	 1.960694618236400e-01	 2.392404396408816e+00
 1.336877065048610e+00	 2.078360252480808e-01	 3.088628559693412e+00
 1.334991773238847e+00	 2.196203356210290e-01	 4.043664289542115e+00
 1.332996802416356e+00	 2.314210160225521e-01	 5.270345480260797e+00
 1.356891285513662e+00	 1.150573534881408e-01	 4.439432635917097e+00
 1.355850082243650e+00	 1.267385735496547e-01	 3.683551223250943e+00
 1.354704604313630e+00	 1.384467696614800e-01	 3.060431539001696e+00
 1.353454024771420e+00	 1.501807046049924e-01	 2.589111558867918e+00
 1.352097533174766e+00	 1.619391192404801e-01	 2.288729636670527e+00
 1.350634336191817e+00	 1.737207327044974e-01	 2.178513410819559e+00
 1.349063658201715e+00	 1.855242426247840e-01	 2.277770022982500e+00
 1.347384741894797e+00	 1.973483253529379e-01	 2.605877703410493e+00
 1.345596848871830e+00	 2.091916362150056e-01	 3.182278764273118e+00
 1.343699260241742e+00	 2.210528097801407e-01	 4.026474028182088e+00
 1.341691277217250e+00	 2.329304601474621e-01	 5.158018703891057e+00
 1.365684259940387e+00	 1.158029521811391e-01	 5.050934169432402e+00
 1.364636309428726e+00	 1.275598692937682e-01	 4.305559805454603e+00
 1.363483408532734e+00	 1.393439372678097e-01	 3.661400126304672e+00
 1.362224724941377e+00	 1.511539108671872e-01	 3.142863789540983e+00
 1.360859442960541e+00	 1.629885227926834e-01	 2.774293085112173e+00
 1.359386764117389e+00	 1.748464838805716e-01	 2.579942476686153e+00
 1.357805907764853e+00	 1.867264833189294e-01	 2.583958549378983e+00
 1.356116111685718e+00	 1.986271888818178e-01	 2.810361437804255e+00
 1.354316632695745e+00	 2.105472471814965e-01	 3.283027795079018e+00
 1.352406747245272e+00	 2.224852839388230e-01	 4.025675348992298e+00
 1.350385752018702e+00	 2.344399042719690e-01	 5.061849076018273e+00
 1.374477234367676e+00	 1.165485508741936e-01	 5.603999290099075e+00
 1.373422536614409e+00	 1.283811650378647e-01	 4.849449895704423e+00
 1.372262212752476e+00	 1.402411048740537e-01	 4.178099030912849e+00
 1.370995425111989e+00	 1.521271171292333e-01	 3.616974511610487e+00
 1.369621352746975e+00	 1.640379263446819e-01	 3.192870878192274e+00
 1.368139192043613e+00	 1.759722350563939e-01	 2.932321078218393e+00
 1.366548157328623e+00	 1.879287240127860e-01	 2.861569735814426e+00
 1.364847481477240e+00	 1.999060524103841e-01	 3.006548098205334e+00
 1.363036416520218e+00	 2.119028581476623e-01	 3.392850736048270e+00
 1.361114234249305e+00	 2.239177580971832e-01	 4.045714059285975e+00
 1.359080226820593e+00	 2.359493483961734e-01	 4.989996694126326e+00
 1.383270208795438e+00	 1.172941495672857e-01	 6.118346248632380e+00
 1.382208763800598e+00	 1.292024607819500e-01	 5.329608465570835e+00
 1.381041016972741e+00	 1.411382724802404e-01	 4.620359948727312e+00
 1.379766125283133e+00	 1.531003233911800e-01	 4.017551126611716e+00
 1.378383262533936e+00	 1.650873298965438e-01	 3.547732061004429e+00
 1.376891619970350e+00	 1.770979862320484e-01	 3.237020738663663e+00
 1.375290406892884e+00	 1.891309647064503e-01	 3.111073215664842e+00
 1.373578851269221e+00	 2.011849159387414e-01	 3.195055718271390e+00
 1.371756200345110e+00	 2.132584691136113e-01	 3.513618789817198e+00
 1.369821721253712e+00	 2.253502322553288e-01	 4.090873557365970e+00
 1.367774701622807e+00	 2.374587925201763e-01	 4.950370174946311e+00
 1.392063183223582e+00	 1.180397482603965e-01	 6.613147471347947e+00
 1.390994990987188e+00	 1.300237565260295e-01	 5.760006601683230e+00
 1.389819821193415e+00	 1.420354400863985e-01	 4.997710216017536e+00
 1.388536825454683e+00	 1.540735296530771e-01	 4.350488397804467e+00
 1.387145172321294e+00	 1.661367334483376e-01	 3.842003565299605e+00
 1.385644047897464e+00	 1.782237374076190e-01	 3.495318802235348e+00
 1.384032656457494e+00	 1.903332054000184e-01	 3.332868391983816e+00
 1.382310221061520e+00	 2.024637794669941e-01	 3.376430669692578e+00
 1.380475984170284e+00	 2.146140800794518e-01	 3.647103291511947e+00
 1.378529208258362e+00	 2.267827064133670e-01	 4.165281003291997e+00
 1.376469176425223e+00	 2.389682366440784e-01	 4.950635973051012e+00
 1.400856157652018e+00	 1.187853469535073e-01	 7.107045973219716e+00
 1.399781218174077e+00	 1.308450522701092e-01	 6.154211927379258e+00
 1.398598625414386e+00	 1.429326076925566e-01	 5.319381846636355e+00
 1.397307525626517e+00	 1.550467359149742e-01	 4.621474753432259e+00
 1.395907082108914e+00	 1.671861370001314e-01	 4.078674472790187e+00
 1.394396475824816e+00	 1.793494885831896e-01	 3.708401394974135e+00
 1.392774906022312e+00	 1.915354460935865e-01	 3.527286876904304e+00
 1.391041590853995e+00	 2.037426429952470e-01	 3.551150404513232e+00
 1.389195767995604e+00	 2.159696910452924e-01	 3.794979621662157e+00
 1.387236695263126e+00	 2.282151805714052e-01	 4.272913313213333e+00
 1.385163651227726e+00	 2.404776807679804e-01	 4.998227410417569e+00
 1.409649132080654e+00	 1.195309456465994e-01	 7.618171172072652e+00
 1.408567445361161e+00	 1.316663480141944e-01	 6.525400578129114e+00
 1.407377429635538e+00	 1.438297752987433e-01	 5.594320253243566e+00
 1.406078225798511e+00	 1.560199421769210e-01	 4.835998380185044e+00
 1.404668991896667e+00	 1.682355405519934e-01	 4.260600149183487e+00
 1.403148903752267e+00	 1.804752397588441e-01	 3.877366309563604e+00
 1.401517155587198e+00	 1.927376867872509e-01	 3.694594879286792e+00
 1.399772960646505e+00	 2.050215065236042e-01	 3.719626139432707e+00
 1.397915551820929e+00	 2.173253020112413e-01	 3.958831022640332e+00
 1.395944182267874e+00	 2.296476547295507e-01	 4.417602984967416e+00
 1.393858126030195e+00	 2.419871248919833e-01	 5.100353429574913e+00
 1.418442106509400e+00	 1.202765443396539e-01	 8.164154129898861e+00
 1.417353672548340e+00	 1.324876437582909e-01	 6.886368750100237e+00
 1.416156233856758e+00	 1.447269429049873e-01	 5.831192666250702e+00
 1.414848925970540e+00	 1.569931484389670e-01	 4.999353115969665e+00
 1.413430901684418e+00	 1.692849441039919e-01	 4.390506254553505e+00
 1.411901331679679e+00	 1.816009909346664e-01	 4.003225817398871e+00
 1.410259405152009e+00	 1.939399274811075e-01	 3.834995542859523e+00
 1.408504330438909e+00	 2.063003700521705e-01	 3.882205484601598e+00
 1.406635335646124e+00	 2.186809129774071e-01	 4.140152322811785e+00
 1.404651669272474e+00	 2.310801288879110e-01	 4.603043762264027e+00
 1.402552600832516e+00	 2.434965690161877e-01	 5.264007082328062e+00
 1.427235080938167e+00	 1.210221430326522e-01	 8.762142246003934e+00
 1.426139899735509e+00	 1.333089395024044e-01	 7.249543840271159e+00
 1.424935038077931e+00	 1.456241105113170e-01	 6.038396263523480e+00
 1.423619626142480e+00	 1.579663547011619e-01	 5.116644150643439e+00
 1.422192811472035e+00	 1.703343476561950e-01	 4.470992635385206e+00
 1.420653759606916e+00	 1.827267421107406e-01	 4.086909411045820e+00
 1.419001654716606e+00	 1.951421681752528e-01	 3.948631236984213e+00
 1.417235700231067e+00	 2.075792335810503e-01	 4.039175019305914e+00
 1.415355119471049e+00	 2.200365239438981e-01	 4.340353572373022e+00
 1.413359156276798e+00	 2.325126030465932e-01	 4.832796144413948e+00
 1.411247075634568e+00	 2.450060131406946e-01	 5.495973765458841e+00
 1.436028055366862e+00	 1.217677417255753e-01	 9.428813425480389e+00
 1.434926126922566e+00	 1.341302352465405e-01	 7.626995195603362e+00
 1.433713842298945e+00	 1.465212781177613e-01	 6.224066023240938e+00
 1.432390326314207e+00	 1.589395609635554e-01	 5.192793542942534e+00
 1.430954721259390e+00	 1.713837512086713e-01	 4.504537103361774e+00
 1.429406187533840e+00	 1.838524932871505e-01	 4.129266480073453e+00
 1.427743904280846e+00	 1.963444088697827e-01	 4.035585802077520e+00
 1.425967070022837e+00	 2.088580971103483e-01	 4.190762816814112e+00
 1.424074903295569e+00	 2.213921349108228e-01	 4.560763594661711e+00
 1.422066643280715e+00	 2.339450772057049e-01	 5.110292748219140e+00
 1.419941550436235e+00	 2.465154572656048e-01	 5.802839214245388e+00
 1.332996802416356e+00	 2.314210160225521e-01	 5.270345480260794e+00
 1.330891845997599e+00	 2.432346603896922e-01	 6.475262330533097e+00
 1.328675921154549e+00	 2.550618599626060e-01	 7.355490139197873e+00
 1.326348396360253e+00	 2.669011826603550e-01	 7.908884013828578e+00
 1.323908662363273e+00	 2.787511774632431e-01	 8.132988072405709e+00
 1.321356132759197e+00	 2.906103747886408e-01	 8.025054611409132e+00
 1.318690244556446e+00	 3.024772868851618e-01	 7.582065247229503e+00
 1.315910458735754e+00	 3.143504082451844e-01	 6.800753914959071e+00
 1.313016260802667e+00	 3.262282160356711e-01	 5.677631587375912e+00
 1.310007161332449e+00	 3.381091705472291e-01	 4.209012555521666e+00
 1.306882696506716e+00	 3.499917156613212e-01	 2.391042090827430e+00
 1.341691277217250e+00	 2.329304601474621e-01	 5.158018703891055e+00
 1.339572591215119e+00	 2.448211590379683e-01	 6.286265747295147e+00
 1.337342212996833e+00	 2.567255015481719e-01	 7.105441343995042e+00
 1.334999506916314e+00	 2.686420462563683e-01	 7.611992630038134e+00
 1.332543859748294e+00	 2.805693326785685e-01	 7.802655141372231e+00
 1.329974681263546e+00	 2.925058816467714e-01	 7.674486962737824e+00
 1.327291404798392e+00	 3.044501957057145e-01	 7.224904473289961e+00
 1.324493487817822e+00	 3.164007595280839e-01	 6.451719536638310e+00
 1.321580412471606e+00	 3.283560403481451e-01	 5.353177960864713e+00
 1.318551686142743e+00	 3.403144884137317e-01	 3.927999031834113e+00
 1.315406841987608e+00	 3.522745374565047e-01	 2.175415900909812e+00
 1.350385752018702e+00	 2.344399042719690e-01	 5.061849076018276e+00
 1.348253336433106e+00	 2.464076576858904e-01	 6.110354068208249e+00
 1.346008504839481e+00	 2.583891431334531e-01	 6.871349055379541e+00
 1.343650617472627e+00	 2.703829098521834e-01	 7.340224221831845e+00
 1.341179057133447e+00	 2.823874878937942e-01	 7.513151480842175e+00
 1.338593229767909e+00	 2.944013885049102e-01	 7.387131172342523e+00
 1.335892565040231e+00	 3.064231045263880e-01	 6.960040074006622e+00
 1.333076516899666e+00	 3.184511108112181e-01	 6.230680542726213e+00
 1.330144564140208e+00	 3.304838646609647e-01	 5.198830580381343e+00
 1.327096210952599e+00	 3.425198062806841e-01	 3.865294594663907e+00
 1.323930987467973e+00	 3.545573592522309e-01	 2.231954602657454e+00
 1.359080226820593e+00	 2.359493483961734e-01	 4.989996694126328e+00
 1.356934081651459e+00	 2.479941563335470e-01	 5.958931507802447e+00
 1.354674796682413e+00	 2.600527847185212e-01	 6.665632793796506e+00
 1.352301728029138e+00	 2.721237734478502e-01	 7.104771392845946e+00
 1.349814254518708e+00	 2.842056431089465e-01	 7.272188438198183e+00
 1.347211778272284e+00	 2.962968953630575e-01	 7.164952201457726e+00
 1.344493725281991e+00	 3.083960133471566e-01	 6.781416061243106e+00
 1.341659545981341e+00	 3.205014620945352e-01	 6.121277386533896e+00
 1.338708715808558e+00	 3.326116889740540e-01	 5.185637102503359e+00
 1.335640735762127e+00	 3.447251241479888e-01	 3.977059682509231e+00
 1.332455132947942e+00	 3.568401810483847e-01	 2.499633285917142e+00
 1.367774701622807e+00	 2.374587925201763e-01	 4.950370174946313e+00
 1.365614826870076e+00	 2.495806549810267e-01	 5.843074730975639e+00
 1.363341088525549e+00	 2.617164263034472e-01	 6.500366151335483e+00
 1.360952838585789e+00	 2.738646370434186e-01	 6.916520437855445e+00
 1.358449451904044e+00	 2.860237983240513e-01	 7.087268941677052e+00
 1.355830326776671e+00	 2.981924022212138e-01	 7.009862987315692e+00
 1.353094885523699e+00	 3.103689221679942e-01	 6.683139521132912e+00
 1.350242575062906e+00	 3.225518133779834e-01	 6.107587556552526e+00
 1.347272867476741e+00	 3.347395132873366e-01	 5.285415163199604e+00
 1.344185260571436e+00	 3.469304420155475e-01	 4.220616721962457e+00
 1.340979278427648e+00	 3.591230028448507e-01	 2.919040142946791e+00
 1.376469176425223e+00	 2.389682366440784e-01	 4.950635973051015e+00
 1.374295572088858e+00	 2.511671536284180e-01	 5.773544934240508e+00
 1.372007380368809e+00	 2.633800678883028e-01	 6.387289838466629e+00
 1.369603949142525e+00	 2.756055006389392e-01	 6.786063547336968e+00
 1.367084649289429e+00	 2.878419535391354e-01	 6.965697045670469e+00
 1.364448875281071e+00	 3.000879090793797e-01	 6.923729503769830e+00
 1.361696045765385e+00	 3.123418309888749e-01	 6.659479357406092e+00
 1.358825604144416e+00	 3.246021646615113e-01	 6.174116163805283e+00
 1.355837019144840e+00	 3.368673376007368e-01	 5.470732965638201e+00
 1.352729785380635e+00	 3.491357598832633e-01	 4.554418868702525e+00
 1.349503423907224e+00	 3.614058246415133e-01	 3.432331512829290e+00
 1.385163651227726e+00	 2.404776807679804e-01	 4.998227410417569e+00
 1.382976317307702e+00	 2.527536522758093e-01	 5.760799540118157e+00
 1.380673672212114e+00	 2.650437094731589e-01	 6.337824314049082e+00
 1.378255059699290e+00	 2.773463642344620e-01	 6.723710633762273e+00
 1.375719846674832e+00	 2.896601087542244e-01	 6.914587204895491e+00
 1.373067423785480e+00	 3.019834159375556e-01	 6.908375726911210e+00
 1.370297206007076e+00	 3.143147398097730e-01	 6.704865185077938e+00
 1.367408633225929e+00	 3.266525159450666e-01	 6.305786994392878e+00
 1.364401170812940e+00	 3.389951619141786e-01	 5.714890717655875e+00
 1.361274310189836e+00	 3.513410777510383e-01	 4.938020052381373e+00
 1.358027569386798e+00	 3.636886464382575e-01	 3.983188753858969e+00
 1.393858126030195e+00	 2.419871248919833e-01	 5.100353429574911e+00
 1.391657062526507e+00	 2.543401509232892e-01	 5.815003521566884e+00
 1.389339964055382e+00	 2.667073510580869e-01	 6.363082016803573e+00
 1.386906170256031e+00	 2.790872278300369e-01	 6.739500796135490e+00
 1.384355044060224e+00	 2.914782639693448e-01	 6.940873289268745e+00
 1.381685972289901e+00	 3.038789227957421e-01	 6.965588509820559e+00
 1.378898366248802e+00	 3.162876486306630e-01	 6.813886367926890e+00
 1.375991662307500e+00	 3.287028672285981e-01	 6.487934006912730e+00
 1.372965322481124e+00	 3.411229862275858e-01	 5.991902881781151e+00
 1.369818834999145e+00	 3.535463956187748e-01	 5.332046268462415e+00
 1.366551714866505e+00	 3.659714682349678e-01	 4.516776864075377e+00
 1.402552600832516e+00	 2.434965690161877e-01	 5.264007082328062e+00
 1.400337807745173e+00	 2.559266495709461e-01	 5.946040372495552e+00
 1.398006255898535e+00	 2.683709926431582e-01	 6.473879215537947e+00
 1.395557280812689e+00	 2.808280914257144e-01	 6.843213438465662e+00
 1.392990241445578e+00	 2.932964191845226e-01	 7.051317350729362e+00
 1.390304520794330e+00	 3.057744296539397e-01	 7.097122370391914e+00
 1.387499526490589e+00	 3.182605574515185e-01	 6.981291193515429e+00
 1.384574691389187e+00	 3.307532185120538e-01	 6.706293255439681e+00
 1.381529474149479e+00	 3.432508105408824e-01	 6.276481202543862e+00
 1.378363359808673e+00	 3.557517134863754e-01	 5.698168062892970e+00
 1.375075860346475e+00	 3.682542900315289e-01	 4.979704774076235e+00
 1.411247075634568e+00	 2.450060131406946e-01	 5.495973765458840e+00
 1.409018552963599e+00	 2.575131482188688e-01	 6.163522739621076e+00
 1.406672547741491e+00	 2.700346342284438e-01	 6.680747494563319e+00
 1.404208391369210e+00	 2.825689550215446e-01	 7.044379057094400e+00
 1.401625438830864e+00	 2.951145743997843e-01	 7.252518152702650e+00
 1.398923069298769e+00	 3.076699365121487e-01	 7.304704195970296e+00
 1.396100686732467e+00	 3.202334662723139e-01	 7.201986179814416e+00
 1.393157720471047e+00	 3.328035697953820e-01	 6.946995219706967e+00
 1.390093625818086e+00	 3.453786348539923e-01	 6.544018477540391e+00
 1.386907884618530e+00	 3.579570313537424e-01	 5.999074158159294e+00
 1.383600005826839e+00	 3.705371118278250e-01	 5.320004739108619e+00
 1.419941550436235e+00	 2.465154572656048e-01	 5.802839214245390e+00
 1.417699298181683e+00	 2.590996468671456e-01	 6.476802730181017e+00
 1.415338839584173e+00	 2.716982758140153e-01	 6.993944889931892e+00
 1.412859501925539e+00	 2.843098186175775e-01	 7.352289711066077e+00
 1.410260636216053e+00	 2.969327296151559e-01	 7.550919472371865e+00
 1.407541617803216e+00	 3.095654433703699e-01	 7.590037868361688e+00
 1.404701846974463e+00	 3.222063750930234e-01	 7.471035507782971e+00
 1.401740749553137e+00	 3.348539210785311e-01	 7.196557525026516e+00
 1.398657777487031e+00	 3.475064591668399e-01	 6.770573040368054e+00
 1.395452409428825e+00	 3.601623492207781e-01	 6.198446171792797e+00
 1.392124151307731e+00	 3.728199336237416e-01	 5.492548112774409e+00
 1.306882696506716e+00	 3.499917156613212e-01	 2.391042090827430e+00
 1.303642428925645e+00	 3.618742795014395e-01	 5.152189992046048e-01
 1.300285948981592e+00	 3.737552754491766e-01	-1.104993708189813e+00
 1.296812874516516e+00	 3.856331021939083e-01	-2.285110393602799e+00
 1.293222851033617e+00	 3.975061441091527e-01	-2.950719140389716e+00
 1.289515552181324e+00	 4.093727718083583e-01	-3.089865962775650e+00
 1.285690680225100e+00	 4.212313427177439e-01	-2.690241255765315e+00
 1.281747966506409e+00	 4.330802016659257e-01	-1.739193130891418e+00
 1.277687171888223e+00	 4.449176814900397e-01	-2.237423675063461e-01
 1.273508087186421e+00	 4.567421036580434e-01	 1.869401007498007e+00
 1.269210533586462e+00	 4.685517789068530e-01	 4.553819505909209e+00
 1.315406841987608e+00	 3.522745374565047e-01	 2.175415900909812e+00
 1.312145439753444e+00	 3.642346053473769e-01	 3.901593394141891e-01
 1.308767067160938e+00	 3.761930951192264e-01	-1.098594334835811e+00
 1.305271339559416e+00	 3.881483950168897e-01	-2.098213111669969e+00
 1.301657900139864e+00	 4.000988788759703e-01	-2.572998556605884e+00
 1.297926420422076e+00	 4.120429066822527e-01	-2.521533325731339e+00
 1.294076600729533e+00	 4.239788251482766e-01	-1.943378391418823e+00
 1.290108170651366e+00	 4.359049683068131e-01	-8.390934894173646e-01
 1.286020889490769e+00	 4.478196581209375e-01	 7.897424657981644e-01
 1.281814546699208e+00	 4.597212051103917e-01	 2.940511025618797e+00
 1.277488962295819e+00	 4.716079089938833e-01	 5.609533945143127e+00
 1.323930987467973e+00	 3.545573592522309e-01	 2.231954602657458e+00
 1.320648450580642e+00	 3.665949311939358e-01	 5.797179755789740e-01
 1.317248185339625e+00	 3.786309147899633e-01	-7.512545869314344e-01
 1.313729804601611e+00	 3.906636878406111e-01	-1.578670226448399e+00
 1.310092949245371e+00	 4.026916136435698e-01	-1.894597135642716e+00
 1.306337288662063e+00	 4.147130415569600e-01	-1.705983540995291e+00
 1.302462521233183e+00	 4.267263075796452e-01	-1.021824339609730e+00
 1.298468374795530e+00	 4.387297349485515e-01	 1.468126622202868e-01
 1.294354607092516e+00	 4.507216347526958e-01	 1.786761855398574e+00
 1.290121006211195e+00	 4.627003065636054e-01	 3.882736340561313e+00
 1.285767391004374e+00	 4.746640390817800e-01	 6.417305911397250e+00
 1.332455132947942e+00	 3.568401810483847e-01	 2.499633285917139e+00
 1.329151461407391e+00	 3.689552570409886e-01	 1.006974515583475e+00
 1.325729303517818e+00	 3.810687344612502e-01	-1.505927821505004e-01
 1.322188269643277e+00	 3.931789806649302e-01	-8.204122937126270e-01
 1.318527998350322e+00	 4.052843484118061e-01	-1.010961211646635e+00
 1.314748156901475e+00	 4.173831764323361e-01	-7.354144216778119e-01
 1.310848441736247e+00	 4.294737900117074e-01	-9.799746016011301e-03
 1.306828578939100e+00	 4.415545015910020e-01	 1.146971326679016e+00
 1.302688324693665e+00	 4.536236113851781e-01	 2.713075238637593e+00
 1.298427465722582e+00	 4.656794080175501e-01	 4.663750373797274e+00
 1.294045819712330e+00	 4.777201691704104e-01	 6.971273570530389e+00
 1.340979278427648e+00	 3.591230028448507e-01	 2.919040142946791e+00
 1.337654472233839e+00	 3.713155828884063e-01	 1.597800384718582e+00
 1.334210421695680e+00	 3.835065541329500e-01	 6.180353088520880e-01
 1.330646734684588e+00	 3.956942734897049e-01	 8.505371078171443e-02
 1.326963047454904e+00	 4.078770831805354e-01	-1.507468704560871e-02
 1.323159025140505e+00	 4.200533113082371e-01	 3.003561416939970e-01
 1.319234362238919e+00	 4.322212724443209e-01	 1.010651706318841e+00
 1.315188783082273e+00	 4.443792682340243e-01	 2.091683058565509e+00
 1.311022042294415e+00	 4.565255880182477e-01	 3.515855833931345e+00
 1.306733925233569e+00	 4.686585094720913e-01	 5.252082378149745e+00
 1.302324248419886e+00	 4.807762992596409e-01	 7.265757063564745e+00
 1.349503423907224e+00	 3.614058246415133e-01	 3.432331512829290e+00
 1.346157483060137e+00	 3.736759087360607e-01	 2.286837495638643e+00
 1.342691539873378e+00	 3.859443738049259e-01	 1.471465370678236e+00
 1.339105199725725e+00	 3.982095663147932e-01	 1.048568143947748e+00
 1.335398096559300e+00	 4.104698179496136e-01	 1.002463418487718e+00
 1.331569893379343e+00	 4.227234461845191e-01	 1.313815158789783e+00
 1.327620282741396e+00	 4.349687548773435e-01	 1.959594600765921e+00
 1.323548987225249e+00	 4.472040348774795e-01	 2.913044362542517e+00
 1.319355759894965e+00	 4.594275646517680e-01	 4.143645867090131e+00
 1.315040384744357e+00	 4.716376109270947e-01	 5.617090189086795e+00
 1.310602677127242e+00	 4.838324293493378e-01	 7.295252439722983e+00
 1.358027569386798e+00	 3.636886464382575e-01	 3.983188753858969e+00
 1.354660493886436e+00	 3.760362345838234e-01	 3.005234588543659e+00
 1.351172658051076e+00	 3.883821934770403e-01	 2.328656103374522e+00
 1.347563664766861e+00	 4.007248591400526e-01	 1.983245292480419e+00
 1.343833145663696e+00	 4.130625527188962e-01	 1.953364310861257e+00
 1.339980761618180e+00	 4.253935810610378e-01	 2.219682311986721e+00
 1.336006203243873e+00	 4.377162373106330e-01	 2.759135645761392e+00
 1.331909191368224e+00	 4.500288015212276e-01	 3.544891264328500e+00
 1.327689477495516e+00	 4.623295412856020e-01	 4.546313447896348e+00
 1.323346844255144e+00	 4.746167123824256e-01	 5.728933964380253e+00
 1.318881105834598e+00	 4.868885594393678e-01	 7.054425778189182e+00
 1.366551714866505e+00	 3.659714682349678e-01	 4.516776864075375e+00
 1.363163504712884e+00	 3.783965604315659e-01	 3.684061936304145e+00
 1.359653776228939e+00	 3.908200131491567e-01	 3.110623318775082e+00
 1.356022129808173e+00	 4.032401519653414e-01	 2.804402690231781e+00
 1.352268194768276e+00	 4.156552874882393e-01	 2.751577529908555e+00
 1.348391629857210e+00	 4.280637159376496e-01	 2.934840401741246e+00
 1.344392123746545e+00	 4.404637197440472e-01	 3.333359976771336e+00
 1.340269395511398e+00	 4.528535681651291e-01	 3.922744959712489e+00
 1.336023195096266e+00	 4.652315179196131e-01	 4.675011024882793e+00
 1.331653303766132e+00	 4.775958138379501e-01	 5.558550868973607e+00
 1.327159534542153e+00	 4.899446895295974e-01	 6.538107490354156e+00
 1.375075860346475e+00	 3.682542900315289e-01	 4.979704774076235e+00
 1.371666515539633e+00	 3.807568862791604e-01	 4.256133657429189e+00
 1.368134894407131e+00	 3.932578328211374e-01	 3.740376462946404e+00
 1.364480594849838e+00	 4.057554447905173e-01	 3.429493037806797e+00
 1.360703243873228e+00	 4.182480222574983e-01	 3.313221703250188e+00
 1.356802498096622e+00	 4.307338508142103e-01	 3.378268348837042e+00
 1.352778044249608e+00	 4.432112021774436e-01	 3.608269795547412e+00
 1.348629599654967e+00	 4.556783348090447e-01	 3.983759451412968e+00
 1.344356912697415e+00	 4.681334945536647e-01	 4.482135349828843e+00
 1.339959763277518e+00	 4.805749152935332e-01	 5.077630664043814e+00
 1.335437963250109e+00	 4.930008196198934e-01	 5.741286794713732e+00
 1.383600005826839e+00	 3.705371118278250e-01	 5.320004739108620e+00
 1.380169526366831e+00	 3.831172121264778e-01	 4.655954324068817e+00
 1.376616012585818e+00	 3.956956524928459e-01	 4.142857460105343e+00
 1.372939059892033e+00	 4.082707376154379e-01	 3.778038612155531e+00
 1.369138292978735e+00	 4.208407570265293e-01	 3.556517831578232e+00
 1.365213366336608e+00	 4.334039856905756e-01	 3.470976643241276e+00
 1.361163964753259e+00	 4.459586846106806e-01	 3.511725245875324e+00
 1.356989803799132e+00	 4.585031014528347e-01	 3.666671088052518e+00
 1.352690630299162e+00	 4.710354711876198e-01	 3.921288886866327e+00
 1.348266222789505e+00	 4.835540167490409e-01	 4.258592161263612e+00
 1.343716391958665e+00	 4.960569497101225e-01	 4.659106356974587e+00
 1.392124151307731e+00	 3.728199336237416e-01	 5.492548112774409e+00
 1.388672537194630e+00	 3.854775379733900e-01	 4.819667508310988e+00
 1.385097130765164e+00	 3.981334721641446e-01	 4.244881778507372e+00
 1.381397524934934e+00	 4.107860304399616e-01	 3.771568059435801e+00
 1.377573342084982e+00	 4.234334917951880e-01	 3.401724996864706e+00
 1.373624234577360e+00	 4.360741205666020e-01	 3.135945134702887e+00
 1.369549885257692e+00	 4.487061670436154e-01	 2.973387429956291e+00
 1.365350007944089e+00	 4.613278680963596e-01	 2.911749923720694e+00
 1.361024347901708e+00	 4.739374478213423e-01	 2.947242604277090e+00
 1.356572682302292e+00	 4.865331182043387e-01	 3.074560505180330e+00
 1.351994820668021e+00	 4.991130798001510e-01	 3.286857088288106e+00
 1.269210533586462e+00	 4.685517789068530e-01	 4.553819505909209e+00
 1.264793602015855e+00	 4.803470112777081e-01	 7.242785342967553e+00
 1.260257895366589e+00	 4.921240816119458e-01	 9.343432660624467e+00
 1.255603327383696e+00	 5.038812709735316e-01	 1.086297706556149e+01
 1.250829843712159e+00	 5.156168523708458e-01	 1.181012089138570e+01
 1.245937422231995e+00	 5.273290914687045e-01	 1.219505907743528e+01
 1.240926073375035e+00	 5.390162473136549e-01	 1.202948255575788e+01
 1.235795840422856e+00	 5.506765730720238e-01	 1.132657913200512e+01
 1.230546799785333e+00	 5.623083167801735e-01	 1.010103185504314e+01
 1.225179061259301e+00	 5.739097221063956e-01	 8.369014879226214e+00
 1.219692768266804e+00	 5.854790291238445e-01	 6.148186832464871e+00
 1.277488962295819e+00	 4.716079089938833e-01	 5.609533945143127e+00
 1.273043221278675e+00	 4.834800757957715e-01	 8.216027461083758e+00
 1.268477930472135e+00	 4.953339620991682e-01	 1.019134518637540e+01
 1.263793003058634e+00	 5.071678377562655e-01	 1.155275063407083e+01
 1.258988384328630e+00	 5.189799645111296e-01	 1.232024865102033e+01
 1.254064052017868e+00	 5.307685967163623e-01	 1.251659198783819e+01
 1.249020016626222e+00	 5.425319820631296e-01	 1.216728361195377e+01
 1.243856321717579e+00	 5.542683623240222e-01	 1.130057472357509e+01
 1.238573044200203e+00	 5.659759741082082e-01	 9.947458446650153e+00
 1.233170294587080e+00	 5.776530496282919e-01	 8.141659179370224e+00
 1.227648217235732e+00	 5.892978174782922e-01	 5.919617601361782e+00
 1.285767391004374e+00	 4.746640390817800e-01	 6.417305911397250e+00
 1.281292840540695e+00	 4.866131403147009e-01	 8.838274298538792e+00
 1.276697965576881e+00	 4.985438425872536e-01	 1.061987412411541e+01
 1.271982678732776e+00	 5.104544045398592e-01	 1.178687764908480e+01
 1.267146924944311e+00	 5.223430766522678e-01	 1.236777028997129e+01
 1.262190681802957e+00	 5.342081019648687e-01	 1.239475785290751e+01
 1.257113959876638e+00	 5.460477168134459e-01	 1.190376812871586e+01
 1.251916803011547e+00	 5.578601515768560e-01	 1.093444678872876e+01
 1.246599288614339e+00	 5.696436314370714e-01	 9.530147535866071e+00
 1.241161527914155e+00	 5.813963771510109e-01	 7.737916480596949e+00
 1.235603666203993e+00	 5.931166058335577e-01	 5.608470726744413e+00
 1.294045819712330e+00	 4.777201691704104e-01	 6.971273570530390e+00
 1.289542459802115e+00	 4.897462048343620e-01	 9.129885247356825e+00
 1.284918000681028e+00	 5.017537230760660e-01	 1.067061784014531e+01
 1.280172354406320e+00	 5.137409713241714e-01	 1.162326152536479e+01
 1.275305465559397e+00	 5.257061887941143e-01	 1.202201243230196e+01
 1.270317311587458e+00	 5.376476072140717e-01	 1.190548051651187e+01
 1.265207903126474e+00	 5.495634515644462e-01	 1.131669079141990e+01
 1.259977284304949e+00	 5.614519408303607e-01	 1.030307784337642e+01
 1.254625533027926e+00	 5.733112887665924e-01	 8.916473572215118e+00
 1.249152761240702e+00	 5.851397046743750e-01	 7.213088116466059e+00
 1.243559115171751e+00	 5.969353941894570e-01	 5.253483939756405e+00
 1.302324248419886e+00	 4.807762992596409e-01	 7.265757063564745e+00
 1.297792079063135e+00	 4.928792693546206e-01	 9.110733821312335e+00
 1.293138035784776e+00	 5.049636035654682e-01	 1.038414746984041e+01
 1.288362030079466e+00	 5.170275381090620e-01	 1.111836237449540e+01
 1.283464006174087e+00	 5.290693009365243e-01	 1.135056629177680e+01
 1.278443941371567e+00	 5.410871124638198e-01	 1.112277885986196e+01
 1.273301846375924e+00	 5.530791863159725e-01	 1.048185281975903e+01
 1.268037765597974e+00	 5.650437300843711e-01	 9.479467883670184e+00
 1.262651777441146e+00	 5.769789460965996e-01	 8.172117185198966e+00
 1.257143994566896e+00	 5.888830321982061e-01	 6.621086264477634e+00
 1.251514564139175e+00	 6.007541825458070e-01	 4.892424560046953e+00
 1.310602677127242e+00	 4.838324293493378e-01	 7.295252439722983e+00
 1.306041698323956e+00	 4.960123338753425e-01	 8.800222577468476e+00
 1.301358070888324e+00	 5.081734840553237e-01	 9.800038829056206e+00
 1.296551705752413e+00	 5.203141048943898e-01	 1.032724194629688e+01
 1.291622546788580e+00	 5.324324130793512e-01	 1.041934172520519e+01
 1.286570571155480e+00	 5.445266177139613e-01	 1.011882609350870e+01
 1.281395789625182e+00	 5.565949210678663e-01	 9.473162672930663e+00
 1.276098246890808e+00	 5.686355193387226e-01	 8.534792729733935e+00
 1.270678021854183e+00	 5.806466034269213e-01	 7.361117445746738e+00
 1.265135227892915e+00	 5.926263597223278e-01	 6.014476461231326e+00
 1.259470013106432e+00	 6.045729709024250e-01	 4.562118660418725e+00
 1.318881105834598e+00	 4.868885594393678e-01	 7.054425778189182e+00
 1.314291317584775e+00	 4.991453983963934e-01	 8.217297434048813e+00
 1.309578105991872e+00	 5.113833645454955e-01	 8.956903080044228e+00
 1.304741381425359e+00	 5.236006716800142e-01	 9.303606832035342e+00
 1.299781087403072e+00	 5.357955252224491e-01	 9.292619202409862e+00
 1.294697200939394e+00	 5.479661229643449e-01	 8.964006766648751e+00
 1.289489732874439e+00	 5.601106558199700e-01	 8.362694416871966e+00
 1.284158728183644e+00	 5.722273085932503e-01	 7.538460118330325e+00
 1.278704266267219e+00	 5.843142607573861e-01	 6.545922103612679e+00
 1.273126461218933e+00	 5.963696872465615e-01	 5.444518458530881e+00
 1.267425462073689e+00	 6.083917592591278e-01	 4.298479073157750e+00
 1.327159534542153e+00	 4.899446895295974e-01	 6.538107490354156e+00
 1.322540936845796e+00	 5.022784629176393e-01	 7.380461411000960e+00
 1.317798141095619e+00	 5.145932450358471e-01	 7.892416206261792e+00
 1.312931057098506e+00	 5.268872384657945e-01	 8.099850005328207e+00
 1.307939628017762e+00	 5.391586373656728e-01	 8.033099783790338e+00
 1.302823830723504e+00	 5.514056282148184e-01	 7.726971593411590e+00
 1.297583676123889e+00	 5.636263905721249e-01	 7.220743855629797e+00
 1.292219209476668e+00	 5.758190978477895e-01	 6.558163642756256e+00
 1.286730510680439e+00	 5.879819180878233e-01	 5.787435889101540e+00
 1.281117694545127e+00	 6.001130147707301e-01	 4.961205492877458e+00
 1.275380911041114e+00	 6.122105476157323e-01	 4.136532288624617e+00
 1.335437963250109e+00	 4.930008196198934e-01	 5.741286794713732e+00
 1.330790556107215e+00	 5.054115274389456e-01	 6.307787818304707e+00
 1.326018176199766e+00	 5.178031255262414e-01	 6.643347347762895e+00
 1.321120732772049e+00	 5.301738052515904e-01	 6.767090772879867e+00
 1.316098168632849e+00	 5.425217495088762e-01	 6.701953191939882e+00
 1.310950460508004e+00	 5.548451334652303e-01	 6.474690190856814e+00
 1.305677619373726e+00	 5.671421253241734e-01	 6.115882523889280e+00
 1.300279690770070e+00	 5.794108871021756e-01	 5.659934633385182e+00
 1.294756755094026e+00	 5.916495754180610e-01	 5.145066963119596e+00
 1.289108927871674e+00	 6.038563422946560e-01	 4.613302037202852e+00
 1.283336360008872e+00	 6.160293359720556e-01	 4.110444294178345e+00
 1.343716391958665e+00	 4.960569497101225e-01	 4.659106356974587e+00
 1.339040175369236e+00	 5.085445919601784e-01	 5.016932915841853e+00
 1.334238211304513e+00	 5.210130060165420e-01	 5.245586046309780e+00
 1.329310408446192e+00	 5.334603720372607e-01	 5.355213203625753e+00
 1.324256709248529e+00	 5.458848616519133e-01	 5.358864059512581e+00
 1.319077090293094e+00	 5.582846387154288e-01	 5.272501818744312e+00
 1.313771562624141e+00	 5.706578600759569e-01	 5.115009632901556e+00
 1.308340172064038e+00	 5.830026763562437e-01	 4.908192067670205e+00
 1.302782999508162e+00	 5.953172327479281e-01	 4.676771595408905e+00
 1.297100161198749e+00	 6.075996698181616e-01	 4.448380100300072e+00
 1.291291808977132e+00	 6.198481243279141e-01	 4.253545399135682e+00
 1.351994820668021e+00	 4.991130798001510e-01	 3.286857088288105e+00
 1.347289794632056e+00	 5.116776564812034e-01	 3.525148067478674e+00
 1.342458246410059e+00	 5.242228865066122e-01	 3.734168446937793e+00
 1.337500084121130e+00	 5.367469388226648e-01	 3.912903101504765e+00
 1.332415249865001e+00	 5.492479737946389e-01	 4.062076431512758e+00
 1.327203720078967e+00	 5.617241439652626e-01	 4.184164206725903e+00
 1.321865505875329e+00	 5.741735948273180e-01	 4.283402057535268e+00
 1.316400653358761e+00	 5.865944656098289e-01	 4.365790594071346e+00
 1.310809243923032e+00	 5.989848900772532e-01	 4.439097146911013e+00
 1.305091394526529e+00	 6.113429973410692e-01	 4.512854136203162e+00
 1.299247257946061e+00	 6.236669126831257e-01	 4.598354089228836e+00
 1.219692768266804e+00	 5.854790291238445e-01	 6.148186832464871e+00
 1.214089060667263e+00	 5.970125171593550e-01	 3.903955697710098e+00
 1.208367226446505e+00	 6.085103911828973e-01	 2.077350835663358e+00
 1.202527510139158e+00	 6.199708854837129e-01	 6.498585951218563e-01
 1.196570190626451e+00	 6.313922339239018e-01	-3.996678770611202e-01
 1.190495581266530e+00	 6.427726707565107e-01	-1.095020121174764e+00
 1.184304030001858e+00	 6.541104314506720e-01	-1.462642568995315e+00
 1.177995919443366e+00	 6.654037535230667e-01	-1.531637341365971e+00
 1.171571666931022e+00	 6.766508773749481e-01	-1.333765515515040e+00
 1.165031724570545e+00	 6.878500471339707e-01	-9.034447417075394e-01
 1.158376579246009e+00	 6.989995115000320e-01	-2.777430926184168e-01
 1.227648217235732e+00	 5.892978174782922e-01	 5.919617601361782e+00
 1.222007959440318e+00	 6.009065327169382e-01	 3.723229736982613e+00
 1.216248804542540e+00	 6.124794016511175e-01	 1.954981278950306e+00
 1.210370998671997e+00	 6.240146470532215e-01	 5.930916462407687e-01
 1.204374822528908e+00	 6.355104912657149e-01	-3.873843148555394e-01
 1.198260591515288e+00	 6.469651570245579e-01	-1.014567934556884e+00
 1.192028655843047e+00	 6.583768682897299e-01	-1.319764306085878e+00
 1.185679400618684e+00	 6.697438510821117e-01	-1.337465717555655e+00
 1.179213245904258e+00	 6.810643343259736e-01	-1.105350795585744e+00
 1.172630646754338e+00	 6.923365506962912e-01	-6.642792313427386e-01
 1.165932093228688e+00	 7.035587374701054e-01	-5.828196481164813e-02
 1.235603666203993e+00	 5.931166058335577e-01	 5.608470726744413e+00
 1.229926858212748e+00	 6.048005482753342e-01	 3.543900481570301e+00
 1.224130382638001e+00	 6.164484121201466e-01	 1.895936429823272e+00
 1.218214487204311e+00	 6.280584086235363e-01	 6.410197861956677e-01
 1.212179454430893e+00	 6.396287486083320e-01	-2.479369255771400e-01
 1.206025601763627e+00	 6.511576432934074e-01	-8.015622510978706e-01
 1.199753281683865e+00	 6.626433051295887e-01	-1.054033668408351e+00
 1.193362881793672e+00	 6.740839486419573e-01	-1.043080788589472e+00
 1.186854824877197e+00	 6.854777912777997e-01	-8.099837510137488e-01
 1.180229568937855e+00	 6.968230542594114e-01	-3.995666755615404e-01
 1.173487607211099e+00	 7.081179634409790e-01	 1.398139599280092e-01
 1.243559115171751e+00	 5.969353941894570e-01	 5.253483939756405e+00
 1.237845756984708e+00	 6.086945638343547e-01	 3.387365605406469e+00
 1.232011960733027e+00	 6.204174225897930e-01	 1.907134455364654e+00
 1.226057975736233e+00	 6.321021701944629e-01	 7.889119733556402e-01
 1.219984086332526e+00	 6.437470059515563e-01	 5.091917928258471e-03
 1.213790612011652e+00	 6.553501295628618e-01	-4.756734813868615e-01
 1.207477907524403e+00	 6.669097419700498e-01	-6.884825509077708e-01
 1.201046362968413e+00	 6.784240462024042e-01	-6.721882668709773e-01
 1.194496403849912e+00	 6.898912482302257e-01	-4.693972656707422e-01
 1.187828491121165e+00	 7.013095578231323e-01	-1.264636246989878e-01
 1.181043121193310e+00	 7.126771894124521e-01	 3.065227254397599e-01
 1.251514564139175e+00	 6.007541825458070e-01	 4.892424560046955e+00
 1.245764655756356e+00	 6.125885793938126e-01	 3.274490773884848e+00
 1.239893538827766e+00	 6.243864330598659e-01	 1.995327111289583e+00
 1.233901464267892e+00	 6.361459317658068e-01	 1.032164328644124e+00
 1.227788718233922e+00	 6.478652632951917e-01	 3.584693939708079e-01
 1.221555622259467e+00	 6.595426158327222e-01	-5.607038842274026e-02
 1.215202533364756e+00	 6.711761788109144e-01	-2.455584485331319e-01
 1.208729844142988e+00	 6.827641437632522e-01	-2.478950536017004e-01
 1.202137982822479e+00	 6.943047051830522e-01	-1.047782850586991e-01
 1.195427413304337e+00	 7.057960613872530e-01	 1.383002634858486e-01
 1.188598635175388e+00	 7.172364153843258e-01	 4.320652138975229e-01
 1.259470013106432e+00	 6.045729709024250e-01	 4.562118660418725e+00
 1.253683554527847e+00	 6.164825949535203e-01	 3.225624836198276e+00
 1.247775116922360e+00	 6.283554435301736e-01	 2.167103260722457e+00
 1.241744952799420e+00	 6.401896933373744e-01	 1.366294255105617e+00
 1.235593350135202e+00	 6.519835206390420e-01	 7.992992005851454e-01
 1.229320632507176e+00	 6.637351021027911e-01	 4.385619502868390e-01
 1.222927159205015e+00	 6.754426156519830e-01	 2.528548417115868e-01
 1.216413325317481e+00	 6.871042413243023e-01	 2.072694785904274e-01
 1.209779561794972e+00	 6.987181621360791e-01	 2.632124468025225e-01
 1.203026335487441e+00	 7.102825649515739e-01	 3.784061242219243e-01
 1.196154149157399e+00	 7.217956413563996e-01	 5.068947386314907e-01
 1.267425462073689e+00	 6.083917592591278e-01	 4.298479073157750e+00
 1.261602453299338e+00	 6.203766105132895e-01	 3.260614383516505e+00
 1.255656695016955e+00	 6.323244540005248e-01	 2.428892196402842e+00
 1.249588441330948e+00	 6.442334549089713e-01	 1.786934712846789e+00
 1.243397982036480e+00	 6.561017779829106e-01	 1.315008946761381e+00
 1.237085642754886e+00	 6.679275883728708e-01	 9.900047869734907e-01
 1.230651785045276e+00	 6.797090524930577e-01	 7.854172262633141e-01
 1.224096806491974e+00	 6.914443388853547e-01	 6.713329304685969e-01
 1.217421140767466e+00	 7.031316190891076e-01	 6.144213177803113e-01
 1.210625257670545e+00	 7.147690685158951e-01	 5.779303145375383e-01
 1.203709663139410e+00	 7.263548673284732e-01	 5.216869490925655e-01
 1.275380911041114e+00	 6.122105476157323e-01	 4.136532288624617e+00
 1.269521352070985e+00	 6.242706260729334e-01	 3.398817700696009e+00
 1.263538273111693e+00	 6.362934644707280e-01	 2.786966774907013e+00
 1.257431929862607e+00	 6.482772164804029e-01	 2.289828642571357e+00
 1.251202613937877e+00	 6.602200353266016e-01	 1.893337947887332e+00
 1.244850653002701e+00	 6.721200746427631e-01	 1.580488927731671e+00
 1.238376410885629e+00	 6.839754893339386e-01	 1.331312997152589e+00
 1.231780287666549e+00	 6.957844364462097e-01	 1.122860016691739e+00
 1.225062719740032e+00	 7.075450760419362e-01	 9.291834161946868e-01
 1.218224179853717e+00	 7.192555720800158e-01	 7.213293474041216e-01
 1.211265177121488e+00	 7.309140933003470e-01	 4.673300343351205e-01
 1.283336360008872e+00	 6.160293359720556e-01	 4.110444294178343e+00
 1.277440250842946e+00	 6.281646416322637e-01	 3.659118137842184e+00
 1.271419851206720e+00	 6.402624749405923e-01	 3.247446371045783e+00
 1.265275418394528e+00	 6.523209780514754e-01	 2.870823531264227e+00
 1.259007245839510e+00	 6.643382926699181e-01	 2.522325407865699e+00
 1.252615663250726e+00	 6.763125609122710e-01	 2.192678511359294e+00
 1.246101036726167e+00	 6.882419261744271e-01	 1.870232161455109e+00
 1.239463768841290e+00	 7.001245340066681e-01	 1.540933371822806e+00
 1.232704298712748e+00	 7.119585329943660e-01	 1.188304709857373e+00
 1.225823102037028e+00	 7.237420756437369e-01	 7.934253092891330e-01
 1.218820691103700e+00	 7.354733192718207e-01	 3.349152120696868e-01
 1.291291808977132e+00	 6.198481243279141e-01	 4.253545399135680e+00
 1.285359149615375e+00	 6.320586571910932e-01	 4.059936926746143e+00
 1.279301429302179e+00	 6.442314854099265e-01	 3.816299660197663e+00
 1.273118906926843e+00	 6.563647396219948e-01	 3.525866113899039e+00
 1.266811877741495e+00	 6.684565500126637e-01	 3.190298971234925e+00
 1.260380673499065e+00	 6.805050471811952e-01	 2.809655318997041e+00
 1.253825662566985e+00	 6.925083630143244e-01	 2.382352390131317e+00
 1.247147250016277e+00	 7.044646315665298e-01	 1.905134993144981e+00
 1.240345877685687e+00	 7.163719899461964e-01	 1.373044809262036e+00
 1.233422024220544e+00	 7.282285792068580e-01	 7.793917402758468e-01
 1.226376205086111e+00	 7.400325452426939e-01	 1.157274909753519e-01
 1.299247257946061e+00	 6.236669126831257e-01	 4.598354089228836e+00
 1.293278048388431e+00	 6.359526727492338e-01	 4.619245465993853e+00
 1.287183007398215e+00	 6.482004958785387e-01	 4.499347235955834e+00
 1.280962395459681e+00	 6.604085011917664e-01	 4.250997205342302e+00
 1.274616509643952e+00	 6.725748073546428e-01	 3.885863629438620e+00
 1.268145683747824e+00	 6.846975334493388e-01	 3.414903591819831e+00
 1.261550288408174e+00	 6.967747998534314e-01	 2.848321559710840e+00
 1.254830731191596e+00	 7.088047291255957e-01	 2.195528292996102e+00
 1.247987456658923e+00	 7.207854468972283e-01	 1.465100289893071e+00
 1.241020946404337e+00	 7.327150827691791e-01	 6.647399569291716e-01
 1.233931719068790e+00	 7.445917712127675e-01	-2.016983252695827e-01
 1.158376579246009e+00	 6.989995115000320e-01	-2.777430926184173e-01
 1.151606752887915e+00	 7.100975248155994e-01	 3.849415257300443e-01
 1.144722803271552e+00	 7.211423485946773e-01	 9.543072268203319e-01
 1.137725323107168e+00	 7.321322517356784e-01	 1.434178883134893e+00
 1.130614939671369e+00	 7.430655111565818e-01	 1.828402473034059e+00
 1.123392314694512e+00	 7.539404126477526e-01	 2.116107628959632e+00
 1.116058144223075e+00	 7.647552517237869e-01	 2.292873125982883e+00
 1.108613158456955e+00	 7.755083344735211e-01	 2.367629322678914e+00
 1.101058121561683e+00	 7.861979784073621e-01	 2.347059277947436e+00
 1.093393831455592e+00	 7.968225133010768e-01	 2.241397874700159e+00
 1.085621119571988e+00	 8.073802820351770e-01	 2.063232675491693e+00
 1.165932093228688e+00	 7.035587374701054e-01	-5.828196481164799e-02
 1.159118110662097e+00	 7.147291376038305e-01	 5.793307140969396e-01
 1.152189260467951e+00	 7.258460012721898e-01	 1.144496794379593e+00
 1.145146139222464e+00	 7.369075860824796e-01	 1.635505884820494e+00
 1.137989378293664e+00	 7.479121577138692e-01	 2.042797086100526e+00
 1.130719643728060e+00	 7.588579907757849e-01	 2.337200222406845e+00
 1.123337636112105e+00	 7.697433696653098e-01	 2.519150753456797e+00
 1.115844090408439e+00	 7.805665894227380e-01	 2.592878642387864e+00
 1.108239775766874e+00	 7.913259565844316e-01	 2.563552458551862e+00
 1.100525495310181e+00	 8.020197900321118e-01	 2.434177579189247e+00
 1.092702085894701e+00	 8.126464218377238e-01	 2.211824183676470e+00
 1.173487607211099e+00	 7.081179634409790e-01	 1.398139599280087e-01
 1.166629468436006e+00	 7.193607503928615e-01	 7.068059837408331e-01
 1.159655717664057e+00	 7.305496539505018e-01	 1.229053342700615e+00
 1.152566955337439e+00	 7.416829204300776e-01	 1.699747246960703e+00
 1.145363816915610e+00	 7.527588042719483e-01	 2.088449816674058e+00
 1.138046972761229e+00	 7.637755689046011e-01	 2.373814265282047e+00
 1.130617128000730e+00	 7.747314876076042e-01	 2.554057154954968e+00
 1.123075022359500e+00	 7.856248443727101e-01	 2.628782242932236e+00
 1.115421429971638e+00	 7.964539347622329e-01	 2.598989593804162e+00
 1.107657159164353e+00	 8.072170667638509e-01	 2.466565807622499e+00
 1.099783052217030e+00	 8.179125616409383e-01	 2.231361061085543e+00
 1.181043121193310e+00	 7.126771894124521e-01	 3.065227254397604e-01
 1.174140826209707e+00	 7.239923631824924e-01	 7.652020767874073e-01
 1.167122174859945e+00	 7.352533066294128e-01	 1.212578813954054e+00
 1.159987771452176e+00	 7.464582547782729e-01	 1.631765579415842e+00
 1.152738255537295e+00	 7.576054508306215e-01	 1.979783350063747e+00
 1.145374301794115e+00	 7.686931470340049e-01	 2.243820739817656e+00
 1.137896619889056e+00	 7.797196055504780e-01	 2.417787829575021e+00
 1.130305954310250e+00	 7.906830993232478e-01	 2.497006502764067e+00
 1.122603084176091e+00	 8.015819129405842e-01	 2.478226014237233e+00
 1.114788823018229e+00	 8.124143434961176e-01	 2.359637194335062e+00
 1.106864018539093e+00	 8.231787014446537e-01	 2.140118789394286e+00
 1.188598635175388e+00	 7.172364153843258e-01	 4.320652138975225e-01
 1.181652183983273e+00	 7.286239759725235e-01	 7.523942122817808e-01
 1.174588632055685e+00	 7.399569593087233e-01	 1.099541035430935e+00
 1.167408587566755e+00	 7.512335891268664e-01	 1.438669280246061e+00
 1.160112694158807e+00	 7.624520973896903e-01	 1.730849663701060e+00
 1.152701630826816e+00	 7.736107251638005e-01	 1.964632126085666e+00
 1.145176111777187e+00	 7.847077234937369e-01	 2.130020588933529e+00
 1.137536886260803e+00	 7.957413542741626e-01	 2.218393024688581e+00
 1.129784738380351e+00	 8.067098911193008e-01	 2.222522694956717e+00
 1.121920486871926e+00	 8.176116202287359e-01	 2.136598129456688e+00
 1.113944984861004e+00	 8.284448412487024e-01	 1.956241776929425e+00
 1.196154149157399e+00	 7.217956413563996e-01	 5.068947386314899e-01
 1.189163541756770e+00	 7.332555887627544e-01	 6.662939519126329e-01
 1.182055089251353e+00	 7.446606119882333e-01	 8.913940359087210e-01
 1.174829403681256e+00	 7.560089234756590e-01	 1.129815227285107e+00
 1.167487132780236e+00	 7.672987439489568e-01	 1.355341627882948e+00
 1.160028959859431e+00	 7.785283032937919e-01	 1.553216787087059e+00
 1.152455603665230e+00	 7.896958414371891e-01	 1.709931824213518e+00
 1.144767818211272e+00	 8.007996092252666e-01	 1.813252553934765e+00
 1.136966392584535e+00	 8.118378692982010e-01	 1.852245615793304e+00
 1.129052150725564e+00	 8.228088969615299e-01	 1.817303532805697e+00
 1.121025951182882e+00	 8.337109810529183e-01	 1.700168622242451e+00
 1.203709663139410e+00	 7.263548673284732e-01	 5.216869490925654e-01
 1.196674899530268e+00	 7.378872015529856e-01	 5.048451397976447e-01
 1.189521546447022e+00	 7.493642646677441e-01	 5.869829651753147e-01
 1.182250219795759e+00	 7.607842578244517e-01	 7.143213452647909e-01
 1.174861571401671e+00	 7.721453905082239e-01	 8.666041653222643e-01
 1.167356288892055e+00	 7.834458814237835e-01	 1.026112808115131e+00
 1.159735095553291e+00	 7.946839593806407e-01	 1.176212156953790e+00
 1.151998750161769e+00	 8.058578641763703e-01	 1.301381566923743e+00
 1.144148046788762e+00	 8.169658474771009e-01	 1.387245116504536e+00
 1.136183814579263e+00	 8.280061736943243e-01	 1.420601058817856e+00
 1.128106917504843e+00	 8.389771208571345e-01	 1.389450389113635e+00
 1.211265177121488e+00	 7.309140933003470e-01	 4.673300343351210e-01
 1.204186257303834e+00	 7.425188143430166e-01	 2.653996103031920e-01
 1.196988003642765e+00	 7.540679173470547e-01	 1.899696769695632e-01
 1.189671035910344e+00	 7.655595921730454e-01	 2.010739331866856e-01
 1.182236010023199e+00	 7.769920370672927e-01	 2.776449887699854e-01
 1.174683617924788e+00	 7.883634595535789e-01	 3.994413142222819e-01
 1.167014587441475e+00	 7.996720773239000e-01	 5.470815004885494e-01
 1.159229682112407e+00	 8.109161191272857e-01	 7.020782359399336e-01
 1.151329700993149e+00	 8.220938256558181e-01	 8.468719196665255e-01
 1.143315478433141e+00	 8.332034504269424e-01	 9.648638263925169e-01
 1.135187883827004e+00	 8.442432606611832e-01	 1.040448734826576e+00
 1.218820691103700e+00	 7.354733192718207e-01	 3.349152120696868e-01
 1.211697615077536e+00	 7.471504271326477e-01	-6.012185864235495e-02
 1.204454460838656e+00	 7.587715700259655e-01	-2.959790359065047e-01
 1.197091852025092e+00	 7.703349265212405e-01	-4.012652853916547e-01
 1.189610448644911e+00	 7.818386836259658e-01	-3.988550649813354e-01
 1.182010946957726e+00	 7.932810376829830e-01	-3.110807115628962e-01
 1.174294079329890e+00	 8.046601952667729e-01	-1.596964423877230e-01
 1.166460614063299e+00	 8.159743740778236e-01	 3.415779678692754e-02
 1.158511355197814e+00	 8.272218038341690e-01	 2.499925547537496e-01
 1.150447142287318e+00	 8.384007271592092e-01	 4.680050823048840e-01
 1.142268850149480e+00	 8.495094004648984e-01	 6.691154327564415e-01
 1.226376205086111e+00	 7.400325452426939e-01	 1.157274909753523e-01
 1.219208972851445e+00	 7.517820399216786e-01	-4.754484422206171e-01
 1.211920918034766e+00	 7.634752227042773e-01	-8.672909438934047e-01
 1.204512668140084e+00	 7.751102608688384e-01	-1.084252377205857e+00
 1.196984887266893e+00	 7.866853301840449e-01	-1.150532087305860e+00
 1.189338275990966e+00	 7.981986158117989e-01	-1.090128087736898e+00
 1.181573571218639e+00	 8.096483132090674e-01	-9.268002212172204e-01
 1.173691546014558e+00	 8.210326290277947e-01	-6.840326548242897e-01
 1.165693009402874e+00	 8.323497820119703e-01	-3.849957907670030e-01
 1.157578806141913e+00	 8.435980038909480e-01	-5.250767987057081e-02
 1.149349816472390e+00	 8.547755402681128e-01	 2.910049694220641e-01
 1.233931719068790e+00	 7.445917712127675e-01	-2.016983252695822e-01
 1.226720330625627e+00	 7.564136527099095e-01	-9.827729099643066e-01
 1.219387375231171e+00	 7.681788753817900e-01	-1.520485632272596e+00
 1.211933484255399e+00	 7.798855952156397e-01	-1.839654667904730e+00
 1.204359325889236e+00	 7.915319767413326e-01	-1.965329519610427e+00
 1.196665605024608e+00	 8.031161939398310e-01	-1.922755551064541e+00
 1.188853063107831e+00	 8.146364311505905e-01	-1.737337196013861e+00
 1.180922477966298e+00	 8.260908839770120e-01	-1.434599913669477e+00
 1.172874663608447e+00	 8.374777601890396e-01	-1.040150968770916e+00
 1.164710469997046e+00	 8.487952806219833e-01	-5.796391219867572e-01
 1.156430782795849e+00	 8.600416800706597e-01	-7.871332331034853e-02
 1.085621119571988e+00	 8.073802820351770e-01	 2.063232675491693e+00
 1.077739502516610e+00	 8.178714178229555e-01	 1.866350393161702e+00
 1.069751194356563e+00	 8.282924857813846e-01	 1.699352871698083e+00
 1.061657130349154e+00	 8.386418662541383e-01	 1.568432715448860e+00
 1.053458278111545e+00	 8.489179559697088e-01	 1.480513549266085e+00
 1.045155637258033e+00	 8.591191688497392e-01	 1.443253477034611e+00
 1.036750239013331e+00	 8.692439368078929e-01	 1.465047245782543e+00
 1.028243145802149e+00	 8.792907105384193e-01	 1.555027080920705e+00
 1.019635450815409e+00	 8.892579602936008e-01	 1.723062161666391e+00
 1.010928277553431e+00	 8.991441766492650e-01	 1.979756709415838e+00
 1.002122779346504e+00	 9.089478712575699e-01	 2.336446665724715e+00
 1.092702085894701e+00	 8.126464218377238e-01	 2.211824183676470e+00
 1.084769060973243e+00	 8.232059860834416e-01	 1.943288020297439e+00
 1.076728649054170e+00	 8.336950254822073e-01	 1.680116655291047e+00
 1.068581791495002e+00	 8.441119098134868e-01	 1.438978570716899e+00
 1.060329462224184e+00	 8.544550253484324e-01	 1.237240374475452e+00
 1.051972667375996e+00	 8.647227756634913e-01	 1.092955612462893e+00
 1.043512444901313e+00	 8.749135824444839e-01	 1.024852277482701e+00
 1.034949864154511e+00	 8.850258862803126e-01	 1.052319003689038e+00
 1.026286025456847e+00	 8.950581474454797e-01	 1.195389938973803e+00
 1.017522059636673e+00	 9.050088466705939e-01	 1.474728291498145e+00
 1.008659127546873e+00	 9.148764859000650e-01	 1.911608550489991e+00
 1.099783052217030e+00	 8.179125616409383e-01	 2.231361061085544e+00
 1.091798619429549e+00	 8.285405543445518e-01	 1.930203815903982e+00
 1.083706103751525e+00	 8.390975651836055e-01	 1.613904316864705e+00
 1.075506452640689e+00	 8.495819533733578e-01	 1.307424352172523e+00
 1.067200646336763e+00	 8.599920947276259e-01	 1.036367238529014e+00
 1.058789697494005e+00	 8.703263824776633e-01	 8.269548366013061e-01
 1.050274650789446e+00	 8.805832280814486e-01	 7.060032963796932e-01
 1.041656582507124e+00	 8.907610620225399e-01	 7.008975398937443e-01
 1.032936600098626e+00	 9.008583345976631e-01	 8.395644924286323e-01
 1.024115841720328e+00	 9.108735166922100e-01	 1.150445077165265e+00
 1.015195475747708e+00	 9.208051005428431e-01	 1.662464992042065e+00
 1.106864018539093e+00	 8.231787014446537e-01	 2.140118789394285e+00
 1.098828177885637e+00	 8.338751226061306e-01	 1.842401537993265e+00
 1.090683558448726e+00	 8.445001048854348e-01	 1.512707836040009e+00
 1.082431113786299e+00	 8.550519969336218e-01	 1.182150433170924e+00
 1.074071830449349e+00	 8.655291641071742e-01	 8.824036109010598e-01
 1.065606727612108e+00	 8.759299892921527e-01	 6.456712204797541e-01
 1.057036856677760e+00	 8.862528737186978e-01	 5.046535253057260e-01
 1.048363300859998e+00	 8.964962377650252e-01	 4.925128695748271e-01
 1.039587174740738e+00	 9.066585217500860e-01	 6.428381984452902e-01
 1.030709623804376e+00	 9.167381867140567e-01	 9.896084586960190e-01
 1.021731823948975e+00	 9.267337151858555e-01	 1.567154912609002e+00
 1.113944984861004e+00	 8.284448412487024e-01	 1.956241776929424e+00
 1.105857736341615e+00	 8.392096908680210e-01	 1.694790026821595e+00
 1.097661013145873e+00	 8.499026445875523e-01	 1.388209130893608e+00
 1.089355774931916e+00	 8.605220404941488e-01	 1.071319584528438e+00
 1.080943014562009e+00	 8.710662334869599e-01	 7.797403867672902e-01
 1.072423757730353e+00	 8.815335961068571e-01	 5.495108179436925e-01
 1.063799062566284e+00	 8.919225193561429e-01	 4.170512095341898e-01
 1.055070019213145e+00	 9.022314135076923e-01	 4.191226657948830e-01
 1.046237749383177e+00	 9.124587089026823e-01	 5.927857720651495e-01
 1.037303405888794e+00	 9.226028567360767e-01	 9.753583281377634e-01
 1.028268172150642e+00	 9.326623298290513e-01	 1.604372148656281e+00
 1.121025951182882e+00	 8.337109810529183e-01	 1.700168622242451e+00
 1.112887294797594e+00	 8.445442591300674e-01	 1.502026080700098e+00
 1.104638467843062e+00	 8.553051842898136e-01	 1.251790254036083e+00
 1.096280436077623e+00	 8.659920840548078e-01	 9.828842705270269e-01
 1.087814198674808e+00	 8.766033028668675e-01	 7.326540745026283e-01
 1.079240787848789e+00	 8.871372029216741e-01	 5.388665690181345e-01
 1.070561268455048e+00	 8.975921649936949e-01	 4.395370933805778e-01
 1.061776737566577e+00	 9.079665892504643e-01	 4.728860350123449e-01
 1.052888324025938e+00	 9.182588960553872e-01	 6.772945949447007e-01
 1.043897187973562e+00	 9.284675267582144e-01	 1.091259750173819e+00
 1.034804520352675e+00	 9.385909444723801e-01	 1.753348459409350e+00
 1.128106917504843e+00	 8.389771208571345e-01	 1.389450389113636e+00
 1.119916853253684e+00	 8.498788273921142e-01	 1.281021416663394e+00
 1.111615922540391e+00	 8.607077239920758e-01	 1.114553503258270e+00
 1.103205097223503e+00	 8.714621276154693e-01	 9.245936900596938e-01
 1.094685382787814e+00	 8.821403722467804e-01	 7.453108456106665e-01
 1.086057817967464e+00	 8.927408097365023e-01	 6.141191895925182e-01
 1.077323474344080e+00	 9.032618106312649e-01	 5.685420123688392e-01
 1.068483455920302e+00	 9.137017649932652e-01	 6.461577063715402e-01
 1.059538898669014e+00	 9.240590832081345e-01	 8.845554284627020e-01
 1.050490970058658e+00	 9.343321967804127e-01	 1.321290157904425e+00
 1.041340868555041e+00	 9.445195591157927e-01	 1.993837196414256e+00
 1.135187883827004e+00	 8.442432606611832e-01	 1.040448734826577e+00
 1.126946411709993e+00	 8.552133956540047e-01	 1.046583071677735e+00
 1.118593377237960e+00	 8.661102636941952e-01	 9.894643218153162e-01
 1.110129758369640e+00	 8.769321711760028e-01	 9.040005740461143e-01
 1.101556566901094e+00	 8.876774416265821e-01	 8.217704530924417e-01
 1.092874848086427e+00	 8.983444165512375e-01	 7.756380480246676e-01
 1.084085680233411e+00	 9.089314562687643e-01	 8.005845959185505e-01
 1.075190174274334e+00	 9.194369407360174e-01	 9.314824590416573e-01
 1.066189473312398e+00	 9.298592703608585e-01	 1.203053495131613e+00
 1.057084752144061e+00	 9.401968668026147e-01	 1.649827048710074e+00
 1.047877216757708e+00	 9.504481737592384e-01	 2.306097605273955e+00
 1.142268850149480e+00	 8.495094004648984e-01	 6.691154327564424e-01
 1.133975970166631e+00	 8.605479639155836e-01	 8.120345890860498e-01
 1.125570831935865e+00	 8.715128033960280e-01	 8.885904106818516e-01
 1.117054419516118e+00	 8.824022147362781e-01	 9.297828225101034e-01
 1.108427751014714e+00	 8.932145110061565e-01	 9.659900239646613e-01
 1.099691878205725e+00	 9.039480233657788e-01	 1.023782029232933e+00
 1.090847886123069e+00	 9.146011019061032e-01	 1.132269075758365e+00
 1.081896892628682e+00	 9.251721164786458e-01	 1.321589777276564e+00
 1.072840047956085e+00	 9.356594575134944e-01	 1.621559912332702e+00
 1.063678534229750e+00	 9.460615368247648e-01	 2.061636158498061e+00
 1.054413564960641e+00	 9.563767884026672e-01	 2.670879732129638e+00
 1.149349816472390e+00	 8.547755402681128e-01	 2.910049694220641e-01
 1.141005528623706e+00	 8.658825321766943e-01	 5.903671526979520e-01
 1.132548286634205e+00	 8.769153430974306e-01	 8.220680905783568e-01
 1.123979080663019e+00	 8.878722582961649e-01	 1.011244223054619e+00
 1.115298935128740e+00	 8.987515803853878e-01	 1.182444712514310e+00
 1.106508908325406e+00	 9.095516301800235e-01	 1.358900386816930e+00
 1.097610092013084e+00	 9.202707475431937e-01	 1.560283195507101e+00
 1.088603610983357e+00	 9.309072922210734e-01	 1.809388723375565e+00
 1.079490622600068e+00	 9.414596446659764e-01	 2.129123463181751e+00
 1.070272316315703e+00	 9.519262068468061e-01	 2.541860093703048e+00
 1.060949913163808e+00	 9.623054030460286e-01	 3.069409908807963e+00
 1.156430782795849e+00	 8.600416800706597e-01	-7.871332331034830e-02
 1.148035087081331e+00	 8.712171004371816e-01	 3.942497503586970e-01
 1.139525741333079e+00	 8.823178827982596e-01	 7.997816137366365e-01
 1.130903741810428e+00	 8.933423018555334e-01	 1.155269508749447e+00
 1.122170119243239e+00	 9.042886497641590e-01	 1.477270329476557e+00
 1.113325938445521e+00	 9.151552369938694e-01	 1.781495050592062e+00
 1.104372297903486e+00	 9.259403931799466e-01	 2.081396217087653e+00
 1.095310329338370e+00	 9.366424679632234e-01	 2.387963019207293e+00
 1.086141197244342e+00	 9.472598318182393e-01	 2.715062690076768e+00
 1.076866098401900e+00	 9.577908768686814e-01	 3.076007401422822e+00
 1.067486261367175e+00	 9.682340176892731e-01	 3.483376791833082e+00
 1.002122779346504e+00	 9.089478712575699e-01	 2.336446665724715e+00
 9.932216576821324e-01	 9.186659352771679e-01	 2.756756115182115e+00
 9.842246217519234e-01	 9.282986121537109e-01	 3.190353523671133e+00
 9.751328947901475e-01	 9.378444977148536e-01	 3.626941055843349e+00
 9.659477277073155e-01	 9.473022117165263e-01	 4.054850162167059e+00
 9.566703985125847e-01	 9.566703985125846e-01	 4.461057871123490e+00
 9.473022117165264e-01	 9.659477277073159e-01	 4.831204623497753e+00
 9.378444977148535e-01	 9.751328947901475e-01	 5.149613611453976e+00
 9.282986121537108e-01	 9.842246217519237e-01	 5.399311583767875e+00
 9.186659352771674e-01	 9.932216576821324e-01	 5.562051077397312e+00
 9.089478712575698e-01	 1.002122779346504e+00	 5.618334034498185e+00
 1.008659127546873e+00	 9.148764859000650e-01	 1.911608550489990e+00
 9.996999482954076e-01	 9.246579360151217e-01	 2.457541740546870e+00
 9.906442291770862e-01	 9.343534420492922e-01	 3.036661584458020e+00
 9.814932014047273e-01	 9.439615906715130e-01	 3.628185591639683e+00
 9.722481240479092e-01	 9.534809926350680e-01	 4.209793153078540e+00
 9.629102834516077e-01	 9.629102834516078e-01	 4.757656926413830e+00
 9.534809926350680e-01	 9.722481240479094e-01	 5.246475980704138e+00
 9.439615906715128e-01	 9.814932014047274e-01	 5.649510637638829e+00
 9.343534420492920e-01	 9.906442291770864e-01	 5.938618944301046e+00
 9.246579360151211e-01	 9.996999482954079e-01	 6.084294711124378e+00
 9.148764859000647e-01	 1.008659127546873e+00	 6.055707047405293e+00
 1.015195475747708e+00	 9.208051005428431e-01	 1.662464992042065e+00
 1.006178238909177e+00	 9.306499367533715e-01	 2.313850746236406e+00
 9.970638366027488e-01	 9.404082719451956e-01	 3.005454884800832e+00
 9.878535080197955e-01	 9.500786836285274e-01	 3.708954902716846e+00
 9.785485203889676e-01	 9.596597735540032e-01	 4.394440457258894e+00
 9.691501683910624e-01	 9.691501683910624e-01	 5.030455709079027e+00
 9.596597735540031e-01	 9.785485203889677e-01	 5.584043474734081e+00
 9.500786836285269e-01	 9.878535080197955e-01	 6.020791108559966e+00
 9.404082719451952e-01	 9.970638366027489e-01	 6.304878030133851e+00
 9.306499367533715e-01	 1.006178238909177e+00	 6.399124812135807e+00
 9.208051005428434e-01	 1.015195475747708e+00	 6.265043742224204e+00
 1.021731823948975e+00	 9.267337151858555e-01	 1.567154912609001e+00
 1.012656529523399e+00	 9.366419374918723e-01	 2.300290221533386e+00
 1.003483444028865e+00	 9.464631018413752e-01	 3.069814863090175e+00
 9.942138146353041e-01	 9.561957765858524e-01	 3.842754025595333e+00
 9.848489167304412e-01	 9.658385544732850e-01	 4.584611528584476e+00
 9.753900533308997e-01	 9.753900533308998e-01	 5.259419028722551e+00
 9.658385544732850e-01	 9.848489167304412e-01	 5.829786924672453e+00
 9.561957765858522e-01	 9.942138146353041e-01	 6.256956866979831e+00
 9.464631018413751e-01	 1.003483444028866e+00	 6.500855777679130e+00
 9.366419374918719e-01	 1.012656529523399e+00	 6.520151283238559e+00
 9.267337151858556e-01	 1.021731823948975e+00	 6.272308463633856e+00
 1.028268172150642e+00	 9.326623298290513e-01	 1.604372148656282e+00
 1.019134820138031e+00	 9.426339382305761e-01	 2.392112338152345e+00
 1.009903051455389e+00	 9.525179317377864e-01	 3.203507155650568e+00
 1.000574121251205e+00	 9.623128695434424e-01	 4.003761703682863e+00
 9.911493130722817e-01	 9.720173353928681e-01	 4.756740914630846e+00
 9.816299382710727e-01	 9.816299382710726e-01	 5.425021574830942e+00
 9.720173353928683e-01	 9.911493130722820e-01	 5.969945772463350e+00
 9.623128695434424e-01	 1.000574121251205e+00	 6.351675670377075e+00
 9.525179317377862e-01	 1.009903051455389e+00	 6.529249504284272e+00
 9.426339382305754e-01	 1.019134820138031e+00	 6.460638706314443e+00
 9.326623298290513e-01	 1.028268172150642e+00	 6.102806053744530e+00
 1.034804520352675e+00	 9.385909444723801e-01	 1.753348459409350e+00
 1.025613110753034e+00	 9.486259389694366e-01	 2.565194522083824e+00
 1.016322658882274e+00	 9.585727616343844e-01	 3.380960542994735e+00
 1.006934427867449e+00	 9.684299625012517e-01	 4.166809673330381e+00
 9.974497094144402e-01	 9.781961163127045e-01	 4.887859401019735e+00
 9.878698232115333e-01	 9.878698232115332e-01	 5.508232389831094e+00
 9.781961163127043e-01	 9.974497094144402e-01	 5.991108305896483e+00
 9.684299625012516e-01	 1.006934427867449e+00	 6.298776534789827e+00
 9.585727616343842e-01	 1.016322658882275e+00	 6.392689692518047e+00
 9.486259389694363e-01	 1.025613110753034e+00	 6.233517834286292e+00
 9.385909444723801e-01	 1.034804520352675e+00	 5.781203265661774e+00
 1.041340868555041e+00	 9.445195591157927e-01	 1.993837196414256e+00
 1.032091401368364e+00	 9.546179397084080e-01	 2.796020393411949e+00
 1.022742266309475e+00	 9.646275915311237e-01	 3.577246710294319e+00
 1.013294734483988e+00	 9.745470554592351e-01	 4.307362751374542e+00
 1.003750105756869e+00	 9.843748972327480e-01	 4.955575887316375e+00
 9.941097081522333e-01	 9.941097081522332e-01	 5.490499948365374e+00
 9.843748972327480e-01	 1.003750105756869e+00	 5.880201308936129e+00
 9.745470554592351e-01	 1.013294734483988e+00	 6.092245275477721e+00
 9.646275915311233e-01	 1.022742266309476e+00	 6.093742691036275e+00
 9.546179397084076e-01	 1.032091401368365e+00	 5.851396671679159e+00
 9.445195591157927e-01	 1.041340868555041e+00	 5.331549391925336e+00
 1.047877216757708e+00	 9.504481737592384e-01	 2.306097605273954e+00
 1.038569691983982e+00	 9.606099404474433e-01	 3.061661440574849e+00
 1.029161873736945e+00	 9.706824214279591e-01	 3.768060786516485e+00
 1.019655041100774e+00	 9.806641484173471e-01	 4.401499689172132e+00
 1.010050502099517e+00	 9.905536781529529e-01	 4.938059962536284e+00
 1.000349593093125e+00	 1.000349593093125e+00	 5.353737816316936e+00
 9.905536781529527e-01	 1.010050502099517e+00	 5.624480120735671e+00
 9.806641484173469e-01	 1.019655041100774e+00	 5.726220235810279e+00
 9.706824214279587e-01	 1.029161873736945e+00	 5.634913335670372e+00
 9.606099404474431e-01	 1.038569691983983e+00	 5.326571161741347e+00
 9.504481737592383e-01	 1.047877216757708e+00	 4.777296142105925e+00
 1.054413564960641e+00	 9.563767884026672e-01	 2.670879732129638e+00
 1.045047982599846e+00	 9.666019411864963e-01	 3.339759397198756e+00
 1.035581481164638e+00	 9.767372513248455e-01	 3.929702628438915e+00
 1.026015347717758e+00	 9.867812413755426e-01	 4.425894759866955e+00
 1.016350898442337e+00	 9.967324590732713e-01	 4.814025149904301e+00
 1.006589478034160e+00	 1.006589478034160e+00	 5.080310864428678e+00
 9.967324590732715e-01	 1.016350898442337e+00	 5.211519085603903e+00
 9.867812413755424e-01	 1.026015347717758e+00	 5.194988196215095e+00
 9.767372513248452e-01	 1.035581481164638e+00	 5.018647494201737e+00
 9.666019411864960e-01	 1.045047982599847e+00	 4.671035497199168e+00
 9.563767884026670e-01	 1.054413564960641e+00	 4.141316802143054e+00
 1.060949913163808e+00	 9.623054030460286e-01	 3.069409908807964e+00
 1.051526273215915e+00	 9.725939419255205e-01	 3.608509291208285e+00
 1.042001088592507e+00	 9.827920812217376e-01	 4.039058817420871e+00
 1.032375654334891e+00	 9.928983343337757e-01	 4.357800047269417e+00
 1.022651294785281e+00	 1.002911239993658e+00	 4.562712792005456e+00
 1.012829362975292e+00	 1.012829362975292e+00	 4.653022012600263e+00
 1.002911239993658e+00	 1.022651294785281e+00	 4.629202377065019e+00
 9.928983343337756e-01	 1.032375654334891e+00	 4.492980455422287e+00
 9.827920812217376e-01	 1.042001088592508e+00	 4.247334538114552e+00
 9.725939419255204e-01	 1.051526273215915e+00	 3.896492070878366e+00
 9.623054030460286e-01	 1.060949913163808e+00	 3.445924706400453e+00
 1.067486261367175e+00	 9.682340176892731e-01	 3.483376791833083e+00
 1.058004563832146e+00	 9.785859426644694e-01	 3.846643137399202e+00
 1.048420696020508e+00	 9.888469111185910e-01	 4.073585338381944e+00
 1.038735960952127e+00	 9.990154272920019e-01	 4.175028406277757e+00
 1.028951691128298e+00	 1.009090020914066e+00	 4.163876548880504e+00
 1.019069247916471e+00	 1.019069247916471e+00	 4.055099482118759e+00
 1.009090020914065e+00	 1.028951691128298e+00	 3.865715179979119e+00
 9.990154272920018e-01	 1.038735960952127e+00	 3.614769076621382e+00
 9.888469111185908e-01	 1.048420696020508e+00	 3.323309744458448e+00
 9.785859426644695e-01	 1.058004563832147e+00	 3.014361081629428e+00
 9.682340176892732e-01	 1.067486261367175e+00	 2.712891051899196e+00
 9.089478712575698e-01	 1.002122779346504e+00	 5.618334034498185e+00
 8.991441766492652e-01	 1.010928277553431e+00	 5.564697554632601e+00
 8.892579602936015e-01	 1.019635450815408e+00	 5.417183687547705e+00
 8.792907105384193e-01	 1.028243145802148e+00	 5.185794196409285e+00
 8.692439368078930e-01	 1.036750239013330e+00	 4.882070927603726e+00
 8.591191688497395e-01	 1.045155637258033e+00	 4.519073106543555e+00
 8.489179559697093e-01	 1.053458278111545e+00	 4.111352130518522e+00
 8.386418662541389e-01	 1.061657130349154e+00	 3.674923917563621e+00
 8.282924857813851e-01	 1.069751194356563e+00	 3.227238876603026e+00
 8.178714178229560e-01	 1.077739502516610e+00	 2.787149570176546e+00
 8.073802820351771e-01	 1.085621119571988e+00	 2.374876146836474e+00
 9.148764859000647e-01	 1.008659127546873e+00	 6.055707047405292e+00
 9.050088466705943e-01	 1.017522059636672e+00	 5.867802189545206e+00
 8.950581474454802e-01	 1.026286025456847e+00	 5.568109836826719e+00
 8.850258862803128e-01	 1.034949864154510e+00	 5.175138026229462e+00
 8.749135824444843e-01	 1.043512444901312e+00	 4.709363668425713e+00
 8.647227756634916e-01	 1.051972667375995e+00	 4.193195622382640e+00
 8.544550253484329e-01	 1.060329462224184e+00	 3.650934707273734e+00
 8.441119098134873e-01	 1.068581791495002e+00	 3.108730737363568e+00
 8.336950254822076e-01	 1.076728649054170e+00	 2.594536672824929e+00
 8.232059860834420e-01	 1.084769060973243e+00	 2.138059986430532e+00
 8.126464218377240e-01	 1.092702085894701e+00	 1.770711352703652e+00
 9.208051005428434e-01	 1.015195475747708e+00	 6.265043742224203e+00
 9.108735166922103e-01	 1.024115841720328e+00	 5.941792814289562e+00
 9.008583345976640e-01	 1.032936600098625e+00	 5.509583068973872e+00
 8.907610620225402e-01	 1.041656582507123e+00	 4.992106166041455e+00
 8.805832280814487e-01	 1.050274650789446e+00	 4.415263939106742e+00
 8.703263824776638e-01	 1.058789697494004e+00	 3.807122729656027e+00
 8.599920947276266e-01	 1.067200646336762e+00	 3.197864335329211e+00
 8.495819533733584e-01	 1.075506452640689e+00	 2.619733674614713e+00
 8.390975651836059e-01	 1.083706103751524e+00	 2.106983278013683e+00
 8.285405543445524e-01	 1.091798619429549e+00	 1.695814723271523e+00
 8.179125616409386e-01	 1.099783052217030e+00	 1.424317139432167e+00
 9.267337151858556e-01	 1.021731823948975e+00	 6.272308463633856e+00
 9.167381867140570e-01	 1.030709623804375e+00	 5.824037566913268e+00
 9.066585217500864e-01	 1.039587174740737e+00	 5.287047058543076e+00
 8.964962377650260e-01	 1.048363300859998e+00	 4.686957559481259e+00
 8.862528737186982e-01	 1.057036856677760e+00	 4.051656035404899e+00
 8.759299892921532e-01	 1.065606727612107e+00	 3.411246810524994e+00
 8.655291641071746e-01	 1.074071830449349e+00	 2.797999107009563e+00
 8.550519969336224e-01	 1.082431113786299e+00	 2.246291218549646e+00
 8.445001048854353e-01	 1.090683558448726e+00	 1.792551434713679e+00
 8.338751226061308e-01	 1.098828177885637e+00	 1.475195840467226e+00
 8.231787014446538e-01	 1.106864018539093e+00	 1.334563122561900e+00
 9.326623298290513e-01	 1.028268172150642e+00	 6.102806053744530e+00
 9.226028567360773e-01	 1.037303405888794e+00	 5.550955025214381e+00
 9.124587089026830e-01	 1.046237749383177e+00	 4.944790441163279e+00
 9.022314135076929e-01	 1.055070019213145e+00	 4.308673483537137e+00
 8.919225193561432e-01	 1.063799062566284e+00	 3.669105021789358e+00
 8.815335961068574e-01	 1.072423757730353e+00	 3.054678668140207e+00
 8.710662334869606e-01	 1.080943014562008e+00	 2.496030501959860e+00
 8.605220404941492e-01	 1.089355774931916e+00	 2.025785568174086e+00
 8.499026445875526e-01	 1.097661013145872e+00	 1.678501262515586e+00
 8.392096908680213e-01	 1.105857736341615e+00	 1.490607723997186e+00
 8.284448412487024e-01	 1.113944984861005e+00	 1.501187805765022e+00
 9.385909444723801e-01	 1.034804520352675e+00	 5.781203265661773e+00
 9.284675267582145e-01	 1.043897187973561e+00	 5.158044778643794e+00
 9.182588960553877e-01	 1.052888324025938e+00	 4.525983871206992e+00
 9.079665892504648e-01	 1.061776737566576e+00	 3.904998474004506e+00
 8.975921649936953e-01	 1.070561268455048e+00	 3.316898963185961e+00
 8.871372029216748e-01	 1.079240787848789e+00	 2.785288561511987e+00
 8.766033028668681e-01	 1.087814198674808e+00	 2.335520782098826e+00
 8.659920840548084e-01	 1.096280436077622e+00	 1.994654006128994e+00
 8.553051842898138e-01	 1.104638467843061e+00	 1.791403293209378e+00
 8.445442591300677e-01	 1.112887294797594e+00	 1.756434145679090e+00
 8.337109810529183e-01	 1.121025951182882e+00	 1.931052655170610e+00
 9.445195591157927e-01	 1.041340868555041e+00	 5.331549391925335e+00
 9.343321967804130e-01	 1.050490970058658e+00	 4.679916870088836e+00
 9.240590832081343e-01	 1.059538898669013e+00	 4.072715704981780e+00
 9.137017649932655e-01	 1.068483455920302e+00	 3.522479730682963e+00
 9.032618106312653e-01	 1.077323474344080e+00	 3.043089587135651e+00
 8.927408097365024e-01	 1.086057817967464e+00	 2.649745715719198e+00
 8.821403722467805e-01	 1.094685382787814e+00	 2.358938998827529e+00
 8.714621276154698e-01	 1.103205097223502e+00	 2.188419111385589e+00
 8.607077239920764e-01	 1.111615922540391e+00	 2.157189884664007e+00
 8.498788273921146e-01	 1.119916853253683e+00	 2.293892529030705e+00
 8.389771208571342e-01	 1.128106917504843e+00	 2.625505071094943e+00
 9.504481737592383e-01	 1.047877216757708e+00	 4.777296142105924e+00
 9.401968668026153e-01	 1.057084752144061e+00	 4.150320156886090e+00
 9.298592703608588e-01	 1.066189473312398e+00	 3.626026369460802e+00
 9.194369407360182e-01	 1.075190174274333e+00	 3.206505068697216e+00
 9.089314562687643e-01	 1.084085680233410e+00	 2.894531444901427e+00
 8.983444165512381e-01	 1.092874848086426e+00	 2.693556374030655e+00
 8.876774416265826e-01	 1.101556566901094e+00	 2.607695673088752e+00
 8.769321711760032e-01	 1.110129758369640e+00	 2.641717861475655e+00
 8.661102636941956e-01	 1.118593377237960e+00	 2.807415028512661e+00
 8.552133956540052e-01	 1.126946411709992e+00	 3.119785611448530e+00
 8.442432606611833e-01	 1.135187883827004e+00	 3.584056951443106e+00
 9.563767884026670e-01	 1.054413564960641e+00	 4.141316802143054e+00
 9.460615368247652e-01	 1.063678534229749e+00	 3.602169637961900e+00
 9.356594575134948e-01	 1.072840047956085e+00	 3.225941473592989e+00
 9.251721164786462e-01	 1.081896892628681e+00	 3.001339479031897e+00
 9.146011019061038e-01	 1.090847886123069e+00	 2.916919636661067e+00
 9.039480233657795e-01	 1.099691878205725e+00	 2.961100455211893e+00
 8.932145110061570e-01	 1.108427751014714e+00	 3.122176205867826e+00
 8.824022147362783e-01	 1.117054419516117e+00	 3.392470241753096e+00
 8.715128033960283e-01	 1.125570831935865e+00	 3.771814906890866e+00
 8.605479639155839e-01	 1.133975970166630e+00	 4.247629231428958e+00
 8.495094004648983e-01	 1.142268850149480e+00	 4.806229611718560e+00
 9.623054030460286e-01	 1.060949913163808e+00	 3.445924706400453e+00
 9.519262068468063e-01	 1.070272316315703e+00	 3.067572791689649e+00
 9.414596446659769e-01	 1.079490622600068e+00	 2.911503716421483e+00
 9.309072922210736e-01	 1.088603610983356e+00	 2.950160358260688e+00
 9.202707475431936e-01	 1.097610092013084e+00	 3.154826162711816e+00
 9.095516301800242e-01	 1.106508908325406e+00	 3.495666876171169e+00
 8.987515803853882e-01	 1.115298935128739e+00	 3.943878092316134e+00
 8.878722582961653e-01	 1.123979080663019e+00	 4.480848012900291e+00
 8.769153430974311e-01	 1.132548286634205e+00	 5.074881086641160e+00
 8.658825321766948e-01	 1.141005528623706e+00	 5.690602430164963e+00
 8.547755402681128e-01	 1.149349816472390e+00	 6.291552793778673e+00
 9.682340176892732e-01	 1.067486261367175e+00	 2.712891051899196e+00
 9.577908768686817e-01	 1.076866098401900e+00	 2.577854966867177e+00
 9.472598318182397e-01	 1.086141197244342e+00	 2.720803643582709e+00
 9.366424679632236e-01	 1.095310329338370e+00	 3.095091464511721e+00
 9.259403931799469e-01	 1.104372297903486e+00	 3.651734959580569e+00
 9.151552369938699e-01	 1.113325938445520e+00	 4.340089051192422e+00
 9.042886497641597e-01	 1.122170119243239e+00	 5.119746263260123e+00
 8.933423018555336e-01	 1.130903741810428e+00	 5.939534084093562e+00
 8.823178827982596e-01	 1.139525741333079e+00	 6.740500568494841e+00
 8.712171004371820e-01	 1.148035087081330e+00	 7.461557059733499e+00
 8.600416800706600e-01	 1.156430782795849e+00	 8.039563701664346e+00
 8.073802820351771e-01	 1.085621119571988e+00	 2.374876146836474e+00
 7.968225133010767e-01	 1.093393831455592e+00	 2.044688235146708e+00
 7.861979784073625e-01	 1.101058121561683e+00	 1.834621048168195e+00
 7.755083344735213e-01	 1.108613158456955e+00	 1.741130264950392e+00
 7.647552517237872e-01	 1.116058144223075e+00	 1.761917729401214e+00
 7.539404126477530e-01	 1.123392314694512e+00	 1.897739417088702e+00
 7.430655111565820e-01	 1.130614939671368e+00	 2.141427288440019e+00
 7.321322517356790e-01	 1.137725323107168e+00	 2.480966986529742e+00
 7.211423485946780e-01	 1.144722803271552e+00	 2.898769857066254e+00
 7.100975248156002e-01	 1.151606752887915e+00	 3.382761418545090e+00
 6.989995115000320e-01	 1.158376579246008e+00	 3.920017437258679e+00
 8.126464218377240e-01	 1.092702085894701e+00	 1.770711352703652e+00
 8.020197900321115e-01	 1.100525495310181e+00	 1.532863996191403e+00
 7.913259565844319e-01	 1.108239775766875e+00	 1.436864557261033e+00
 7.805665894227382e-01	 1.115844090408439e+00	 1.474566793684609e+00
 7.697433696653099e-01	 1.123337636112106e+00	 1.641433972497437e+00
 7.588579907757853e-01	 1.130719643728060e+00	 1.923896454049681e+00
 7.479121577138694e-01	 1.137989378293664e+00	 2.306306309016980e+00
 7.369075860824801e-01	 1.145146139222463e+00	 2.771065190569139e+00
 7.258460012721907e-01	 1.152189260467951e+00	 3.291466457190267e+00
 7.147291376038313e-01	 1.159118110662096e+00	 3.844314561337161e+00
 7.035587374701054e-01	 1.165932093228688e+00	 4.407281112107156e+00
 8.179125616409386e-01	 1.099783052217030e+00	 1.424317139432167e+00
 8.072170667638509e-01	 1.107657159164353e+00	 1.310166113048902e+00
 7.964539347622335e-01	 1.115421429971638e+00	 1.337952024118657e+00
 7.856248443727102e-01	 1.123075022359500e+00	 1.501680396201620e+00
 7.747314876076047e-01	 1.130617128000730e+00	 1.785497200145988e+00
 7.637755689046014e-01	 1.138046972761229e+00	 2.170798928891372e+00
 7.527588042719486e-01	 1.145363816915609e+00	 2.637431174932932e+00
 7.416829204300779e-01	 1.152566955337439e+00	 3.163723616448665e+00
 7.305496539505022e-01	 1.159655717664057e+00	 3.721645888842587e+00
 7.193607503928622e-01	 1.166629468436005e+00	 4.278852471113102e+00
 7.081179634409789e-01	 1.173487607211099e+00	 4.807579684681619e+00
 8.231787014446538e-01	 1.106864018539093e+00	 1.334563122561899e+00
 8.124143434961176e-01	 1.114788823018229e+00	 1.361190783897627e+00
 8.015819129405842e-01	 1.122603084176091e+00	 1.516203517503202e+00
 7.906830993232478e-01	 1.130305954310250e+00	 1.785134206755809e+00
 7.797196055504780e-01	 1.137896619889056e+00	 2.149973580123301e+00
 7.686931470340052e-01	 1.145374301794115e+00	 2.591048602958822e+00
 7.576054508306217e-01	 1.152738255537294e+00	 3.087057427442447e+00
 7.464582547782734e-01	 1.159987771452176e+00	 3.615106776344765e+00
 7.352533066294134e-01	 1.167122174859944e+00	 4.149353195459094e+00
 7.239923631824934e-01	 1.174140826209707e+00	 4.654365514510706e+00
 7.126771894124521e-01	 1.181043121193310e+00	 5.099470431986044e+00
 8.284448412487024e-01	 1.113944984861005e+00	 1.501187805765022e+00
 8.176116202287358e-01	 1.121920486871926e+00	 1.677456222038746e+00
 8.067098911193010e-01	 1.129784738380351e+00	 1.944536227546462e+00
 7.957413542741629e-01	 1.137536886260803e+00	 2.288011008430073e+00
 7.847077234937372e-01	 1.145176111777187e+00	 2.691853351284032e+00
 7.736107251638008e-01	 1.152701630826816e+00	 3.138454863070633e+00
 7.624520973896907e-01	 1.160112694158807e+00	 3.608657622279396e+00
 7.512335891268671e-01	 1.167408587566755e+00	 4.081788203731841e+00
 7.399569593087237e-01	 1.174588632055685e+00	 4.535667730175735e+00
 7.286239759725242e-01	 1.181652183983273e+00	 4.939676978242403e+00
 7.172364153843257e-01	 1.188598635175388e+00	 5.262075493879771e+00
 8.337109810529183e-01	 1.121025951182882e+00	 1.931052655170610e+00
 8.228088969615299e-01	 1.129052150725564e+00	 2.244789432183349e+00
 8.118378692982010e-01	 1.136966392584536e+00	 2.595806680451632e+00
 8.007996092252667e-01	 1.144767818211272e+00	 2.974327028216407e+00
 7.896958414371892e-01	 1.152455603665230e+00	 3.369214647349625e+00
 7.785283032937923e-01	 1.160028959859430e+00	 3.767995911073434e+00
 7.672987439489576e-01	 1.167487132780236e+00	 4.156882228673146e+00
 7.560089234756597e-01	 1.174829403681255e+00	 4.520795016406099e+00
 7.446606119882341e-01	 1.182055089251353e+00	 4.843392757161488e+00
 7.332555887627554e-01	 1.189163541756770e+00	 5.104415867908693e+00
 7.217956413563998e-01	 1.196154149157399e+00	 5.275063209212605e+00
 8.389771208571342e-01	 1.128106917504843e+00	 2.625505071094943e+00
 8.280061736943244e-01	 1.136183814579263e+00	 3.048235717174400e+00
 8.169658474771012e-01	 1.144148046788762e+00	 3.443552430420580e+00
 8.058578641763705e-01	 1.151998750161769e+00	 3.809001957097798e+00
 7.946839593806412e-01	 1.159735095553291e+00	 4.141188672720890e+00
 7.834458814237838e-01	 1.167356288892055e+00	 4.435781404462706e+00
 7.721453905082244e-01	 1.174861571401670e+00	 4.687521990226061e+00
 7.607842578244524e-01	 1.182250219795758e+00	 4.890235560825984e+00
 7.493642646677448e-01	 1.189521546447022e+00	 5.036842525541208e+00
 7.378872015529861e-01	 1.196674899530267e+00	 5.118990693389607e+00
 7.263548673284734e-01	 1.203709663139410e+00	 5.118630118476812e+00
 8.442432606611833e-01	 1.135187883827004e+00	 3.584056951443105e+00
 8.332034504269425e-01	 1.143315478433141e+00	 4.073211909592749e+00
 8.220938256558182e-01	 1.151329700993149e+00	 4.461970127552267e+00
 8.109161191272857e-01	 1.159229682112406e+00	 4.757830081999314e+00
 7.996720773238999e-01	 1.167014587441475e+00	 4.967926171280647e+00
 7.883634595535792e-01	 1.174683617924787e+00	 5.099016484712292e+00
 7.769920370672930e-01	 1.182236010023199e+00	 5.157471683822680e+00
 7.655595921730458e-01	 1.189671035910344e+00	 5.149265019580878e+00
 7.540679173470552e-01	 1.196988003642765e+00	 5.079963504176959e+00
 7.425188143430175e-01	 1.204186257303833e+00	 4.954720250431790e+00
 7.309140933003472e-01	 1.211265177121489e+00	 4.773483603876151e+00
 8.495094004648983e-01	 1.142268850149480e+00	 4.806229611718560e+00
 8.384007271592091e-01	 1.150447142287318e+00	 5.305494158717743e+00
 8.272218038341691e-01	 1.158511355197814e+00	 5.625894391584060e+00
 8.159743740778236e-01	 1.166460614063299e+00	 5.787452481361496e+00
 8.046601952667733e-01	 1.174294079329889e+00	 5.810565132080244e+00
 7.932810376829832e-01	 1.182010946957725e+00	 5.715967133096158e+00
 7.818386836259662e-01	 1.189610448644910e+00	 5.524695215906299e+00
 7.703349265212415e-01	 1.197091852025092e+00	 5.258052287344107e+00
 7.587715700259661e-01	 1.204454460838655e+00	 4.937572106542013e+00
 7.471504271326483e-01	 1.211697615077536e+00	 4.584984468394774e+00
 7.354733192718205e-01	 1.218820691103700e+00	 4.220825139154546e+00
 8.547755402681128e-01	 1.149349816472390e+00	 6.291552793778673e+00
 8.435980038909481e-01	 1.157578806141913e+00	 6.731206159313918e+00
 8.323497820119703e-01	 1.165693009402874e+00	 6.910777456724091e+00
 8.210326290277951e-01	 1.173691546014558e+00	 6.865330238467761e+00
 8.096483132090680e-01	 1.181573571218639e+00	 6.631199678569605e+00
 7.981986158117992e-01	 1.189338275990966e+00	 6.245926796754000e+00
 7.866853301840454e-01	 1.196984887266893e+00	 5.748191998449244e+00
 7.751102608688389e-01	 1.204512668140084e+00	 5.177748060606779e+00
 7.634752227042780e-01	 1.211920918034767e+00	 4.575352689970016e+00
 7.517820399216792e-01	 1.219208972851444e+00	 3.982700776827588e+00
 7.400325452426939e-01	 1.226376205086111e+00	 3.442334122890114e+00
 8.600416800706600e-01	 1.156430782795849e+00	 8.039563701664346e+00
 8.487952806219835e-01	 1.164710469997046e+00	 8.336807803306851e+00
 8.374777601890396e-01	 1.172874663608447e+00	 8.292669554525320e+00
 8.260908839770124e-01	 1.180922477966298e+00	 7.959718628903588e+00
 8.146364311505910e-01	 1.188853063107831e+00	 7.392850090642495e+00
 8.031161939398316e-01	 1.196665605024608e+00	 6.649184230556872e+00
 7.915319767413330e-01	 1.204359325889236e+00	 5.787964549767241e+00
 7.798855952156404e-01	 1.211933484255399e+00	 4.870454089168121e+00
 7.681788753817906e-01	 1.219387375231171e+00	 3.959830300896027e+00
 7.564136527099106e-01	 1.226720330625627e+00	 3.121078655689483e+00
 7.445917712127673e-01	 1.233931719068790e+00	 2.420885177261975e+00
 6.989995115000320e-01	 1.158376579246008e+00	 3.920017437258679e+00
 6.878500471339709e-01	 1.165031724570546e+00	 4.418143774167615e+00
 6.766508773749484e-01	 1.171571666931022e+00	 4.795205544273298e+00
 6.654037535230670e-01	 1.177995919443366e+00	 5.053234133036159e+00
 6.541104314506725e-01	 1.184304030001858e+00	 5.194362126989268e+00
 6.427726707565111e-01	 1.190495581266529e+00	 5.220839021701583e+00
 6.313922339239028e-01	 1.196570190626451e+00	 5.135046170692751e+00
 6.199708854837138e-01	 1.202527510139157e+00	 4.939510901623026e+00
 6.085103911828983e-01	 1.208367226446504e+00	 4.636919733442578e+00
 5.970125171593559e-01	 1.214089060667263e+00	 4.230130635756157e+00
 5.854790291238445e-01	 1.219692768266804e+00	 3.722184279378919e+00
 7.035587374701054e-01	 1.165932093228688e+00	 4.407281112107156e+00
 6.923365506962912e-01	 1.172630646754337e+00	 4.893268781723977e+00
 6.810643343259738e-01	 1.179213245904258e+00	 5.235188091568167e+00
 6.697438510821119e-01	 1.185679400618684e+00	 5.439922540488948e+00
 6.583768682897304e-01	 1.192028655843047e+00	 5.514691702916830e+00
 6.469651570245585e-01	 1.198260591515288e+00	 5.467057897507725e+00
 6.355104912657158e-01	 1.204374822528908e+00	 5.304931849884486e+00
 6.240146470532223e-01	 1.210370998671996e+00	 5.036577291553090e+00
 6.124794016511185e-01	 1.216248804542540e+00	 4.670614444887416e+00
 6.009065327169392e-01	 1.222007959440318e+00	 4.216022352063155e+00
 5.892978174782924e-01	 1.227648217235732e+00	 3.682140013918134e+00
 7.081179634409789e-01	 1.173487607211099e+00	 4.807579684681619e+00
 6.968230542594117e-01	 1.180229568937854e+00	 5.233653772287677e+00
 6.854777912777998e-01	 1.186854824877196e+00	 5.508639387379288e+00
 6.740839486419578e-01	 1.193362881793672e+00	 5.642586556280682e+00
 6.626433051295890e-01	 1.199753281683864e+00	 5.646026247256358e+00
 6.511576432934081e-01	 1.206025601763627e+00	 5.529971413267084e+00
 6.396287486083325e-01	 1.212179454430894e+00	 5.305916862699720e+00
 6.280584086235375e-01	 1.218214487204311e+00	 4.985837909242537e+00
 6.164484121201476e-01	 1.224130382638000e+00	 4.582187760300807e+00
 6.048005482753354e-01	 1.229926858212747e+00	 4.107893611717140e+00
 5.931166058335577e-01	 1.235603666203992e+00	 3.576351425017015e+00
 7.126771894124521e-01	 1.181043121193310e+00	 5.099470431986044e+00
 7.013095578231324e-01	 1.187828491121165e+00	 5.428815315991647e+00
 6.898912482302260e-01	 1.194496403849912e+00	 5.614275065643390e+00
 6.784240462024044e-01	 1.201046362968413e+00	 5.667418185415584e+00
 6.669097419700504e-01	 1.207477907524403e+00	 5.600350073077956e+00
 6.553501295628622e-01	 1.213790612011651e+00	 5.425711812615871e+00
 6.437470059515569e-01	 1.219984086332526e+00	 5.156677708926596e+00
 6.321021701944637e-01	 1.226057975736232e+00	 4.806951517957309e+00
 6.204174225897942e-01	 1.232011960733026e+00	 4.390761334531406e+00
 6.086945638343557e-01	 1.237845756984707e+00	 3.922853108830044e+00
 5.969353941894570e-01	 1.243559115171751e+00	 3.418482771295364e+00
 7.172364153843257e-01	 1.188598635175388e+00	 5.262075493879771e+00
 7.057960613872531e-01	 1.195427413304337e+00	 5.468556794039846e+00
 6.943047051830527e-01	 1.202137982822479e+00	 5.550864250883945e+00
 6.827641437632525e-01	 1.208729844142988e+00	 5.520473372427322e+00
 6.711761788109148e-01	 1.215202533364756e+00	 5.389364662074653e+00
 6.595426158327228e-01	 1.221555622259466e+00	 5.170023501361588e+00
 6.478652632951922e-01	 1.227788718233922e+00	 4.875438767412591e+00
 6.361459317658077e-01	 1.233901464267892e+00	 4.519100134733407e+00
 6.243864330598669e-01	 1.239893538827765e+00	 4.114994019844172e+00
 6.125885793938138e-01	 1.245764655756356e+00	 3.677598136300166e+00
 6.007541825458069e-01	 1.251514564139175e+00	 3.221874636773823e+00
 7.217956413563998e-01	 1.196154149157399e+00	 5.275063209212605e+00
 7.102825649515742e-01	 1.203026335487442e+00	 5.342958587081942e+00
 6.987181621360801e-01	 1.209779561794972e+00	 5.317227185150786e+00
 6.871042413243027e-01	 1.216413325317481e+00	 5.207675683381929e+00
 6.754426156519835e-01	 1.222927159205015e+00	 5.024497049175897e+00
 6.637351021027919e-01	 1.229320632507176e+00	 4.778274814145537e+00
 6.519835206390427e-01	 1.235593350135202e+00	 4.479986156919150e+00
 6.401896933373754e-01	 1.241744952799419e+00	 4.141003731052066e+00
 6.283554435301745e-01	 1.247775116922360e+00	 3.773096186278867e+00
 6.164825949535212e-01	 1.253683554527846e+00	 3.388427340667161e+00
 6.045729709024250e-01	 1.259470013106432e+00	 2.999553970672161e+00
 7.263548673284734e-01	 1.203709663139410e+00	 5.118630118476812e+00
 7.147690685158953e-01	 1.210625257670545e+00	 5.042368598175959e+00
 7.031316190891078e-01	 1.217421140767465e+00	 4.912232910847329e+00
 6.914443388853548e-01	 1.224096806491974e+00	 4.734819817159869e+00
 6.797090524930580e-01	 1.230651785045275e+00	 4.516907860749793e+00
 6.679275883728715e-01	 1.237085642754886e+00	 4.265469308720268e+00
 6.561017779829115e-01	 1.243397982036480e+00	 3.987681047099505e+00
 6.442334549089721e-01	 1.249588441330948e+00	 3.690934353365130e+00
 6.323244540005256e-01	 1.255656695016954e+00	 3.382843477513397e+00
 6.203766105132907e-01	 1.261602453299338e+00	 3.071252972736189e+00
 6.083917592591278e-01	 1.267425462073689e+00	 2.764243726507344e+00
 7.309140933003472e-01	 1.211265177121489e+00	 4.773483603876151e+00
 7.192555720800161e-01	 1.218224179853718e+00	 4.557393095730882e+00
 7.075450760419366e-01	 1.225062719740032e+00	 4.334797007007245e+00
 6.957844364462100e-01	 1.231780287666549e+00	 4.107574953472465e+00
 6.839754893339389e-01	 1.238376410885629e+00	 3.877499021521819e+00
 6.721200746427641e-01	 1.244850653002701e+00	 3.646256608469923e+00
 6.602200353266021e-01	 1.251202613937876e+00	 3.415472443610763e+00
 6.482772164804037e-01	 1.257431929862607e+00	 3.186729688803817e+00
 6.362934644707289e-01	 1.263538273111692e+00	 2.961590026881659e+00
 6.242706260729346e-01	 1.269521352070985e+00	 2.741612655989419e+00
 6.122105476157323e-01	 1.275380911041113e+00	 2.528372117987772e+00
 7.354733192718205e-01	 1.218820691103700e+00	 4.220825139154546e+00
 7.237420756437370e-01	 1.225823102037027e+00	 3.878887862547417e+00
 7.119585329943662e-01	 1.232704298712748e+00	 3.583879376703701e+00
 7.001245340066686e-01	 1.239463768841290e+00	 3.331487944700198e+00
 6.882419261744276e-01	 1.246101036726167e+00	 3.116921144587170e+00
 6.763125609122714e-01	 1.252615663250725e+00	 2.934942812778077e+00
 6.643382926699184e-01	 1.259007245839509e+00	 2.779909470181090e+00
 6.523209780514763e-01	 1.265275418394528e+00	 2.645806100147042e+00
 6.402624749405932e-01	 1.271419851206719e+00	 2.526281156972419e+00
 6.281646416322649e-01	 1.277440250842945e+00	 2.414680693710354e+00
 6.160293359720557e-01	 1.283336360008872e+00	 2.304081508333760e+00
 7.400325452426939e-01	 1.226376205086111e+00	 3.442334122890114e+00
 7.282285792068580e-01	 1.233422024220544e+00	 2.997949637757753e+00
 7.163719899461964e-01	 1.240345877685686e+00	 2.658482083387453e+00
 7.044646315665303e-01	 1.247147250016277e+00	 2.411986358289893e+00
 6.925083630143247e-01	 1.253825662566985e+00	 2.245580618185211e+00
 6.805050471811960e-01	 1.260380673499065e+00	 2.145500493882122e+00
 6.684565500126647e-01	 1.266811877741495e+00	 2.097153169327618e+00
 6.563647396219955e-01	 1.273118906926842e+00	 2.085171152940068e+00
 6.442314854099271e-01	 1.279301429302179e+00	 2.093465585081896e+00
 6.320586571910940e-01	 1.285359149615374e+00	 2.105278934715688e+00
 6.198481243279141e-01	 1.291291808977132e+00	 2.103236948833560e+00
 7.445917712127673e-01	 1.233931719068790e+00	 2.420885177261975e+00
 7.327150827691792e-01	 1.241020946404336e+00	 1.905907839112983e+00
 7.207854468972287e-01	 1.247987456658922e+00	 1.557647234059940e+00
 7.088047291255960e-01	 1.254830731191595e+00	 1.354381376118192e+00
 6.967747998534317e-01	 1.261550288408174e+00	 1.273646402235946e+00
 6.846975334493393e-01	 1.268145683747823e+00	 1.291578297939777e+00
 6.725748073546437e-01	 1.274616509643952e+00	 1.382987842358695e+00
 6.604085011917672e-01	 1.280962395459682e+00	 1.521435656532059e+00
 6.482004958785397e-01	 1.287183007398215e+00	 1.679307155701187e+00
 6.359526727492348e-01	 1.293278048388430e+00	 1.827887216615061e+00
 6.236669126831258e-01	 1.299247257946061e+00	 1.937434381670606e+00
 5.854790291238445e-01	 1.219692768266804e+00	 3.722184279378920e+00
 5.739097221063959e-01	 1.225179061259301e+00	 3.162879483466425e+00
 5.623083167801739e-01	 1.230546799785333e+00	 2.609740411474126e+00
 5.506765730720242e-01	 1.235795840422856e+00	 2.077397856524094e+00
 5.390162473136554e-01	 1.240926073375034e+00	 1.580662703074768e+00
 5.273290914687052e-01	 1.245937422231995e+00	 1.134511732802181e+00
 5.156168523708461e-01	 1.250829843712159e+00	 7.540726347997879e-01
 5.038812709735320e-01	 1.255603327383696e+00	 4.546082502706192e-01
 4.921240816119464e-01	 1.260257895366589e+00	 2.515000877376063e-01
 4.803470112777085e-01	 1.264793602015854e+00	 1.602311503245460e-01
 4.685517789068528e-01	 1.269210533586462e+00	 1.963681218338891e-01
 5.892978174782924e-01	 1.227648217235732e+00	 3.682140013918134e+00
 5.776530496282924e-01	 1.233170294587080e+00	 3.122600349565073e+00
 5.659759741082085e-01	 1.238573044200203e+00	 2.590954897605606e+00
 5.542683623240225e-01	 1.243856321717579e+00	 2.096454332556314e+00
 5.425319820631298e-01	 1.249020016626222e+00	 1.648418582283704e+00
 5.307685967163628e-01	 1.254064052017867e+00	 1.256231729468210e+00
 5.189799645111298e-01	 1.258988384328630e+00	 9.293360869570751e-01
 5.071678377562659e-01	 1.263793003058634e+00	 6.772254632225476e-01
 4.953339620991686e-01	 1.268477930472135e+00	 5.094376405244292e-01
 4.834800757957720e-01	 1.273043221278675e+00	 4.355460944510228e-01
 4.716079089938832e-01	 1.277488962295819e+00	 4.651509892432946e-01
 5.931166058335577e-01	 1.235603666203992e+00	 3.576351425017015e+00
 5.813963771510112e-01	 1.241161527914155e+00	 3.040519144898054e+00
 5.696436314370721e-01	 1.246599288614339e+00	 2.547590234105303e+00
 5.578601515768564e-01	 1.251916803011547e+00	 2.102367383804629e+00
 5.460477168134463e-01	 1.257113959876637e+00	 1.709641129189533e+00
 5.342081019648690e-01	 1.262190681802957e+00	 1.374192189967012e+00
 5.223430766522682e-01	 1.267146924944311e+00	 1.100792938522266e+00
 5.104544045398597e-01	 1.271982678732776e+00	 8.942080009088598e-01
 4.985438425872541e-01	 1.276697965576881e+00	 7.591940027078625e-01
 4.866131403147014e-01	 1.281292840540695e+00	 7.004984783967988e-01
 4.746640390817801e-01	 1.285767391004374e+00	 7.228579691291344e-01
 5.969353941894570e-01	 1.243559115171751e+00	 3.418482771295363e+00
 5.851397046743755e-01	 1.249152761240702e+00	 2.926492612405663e+00
 5.733112887665927e-01	 1.254625533027926e+00	 2.486359243968745e+00
 5.614519408303611e-01	 1.259977284304949e+00	 2.099349554915106e+00
 5.495634515644466e-01	 1.265207903126473e+00	 1.766665968224393e+00
 5.376476072140721e-01	 1.270317311587458e+00	 1.489454582807783e+00
 5.257061887941151e-01	 1.275305465559397e+00	 1.268812381122845e+00
 5.137409713241720e-01	 1.280172354406320e+00	 1.105793499459334e+00
 5.017537230760667e-01	 1.284918000681029e+00	 1.001414565229356e+00
 4.897462048343625e-01	 1.289542459802115e+00	 9.566591126908905e-01
 4.777201691704104e-01	 1.294045819712330e+00	 9.724810952928509e-01
 6.007541825458069e-01	 1.251514564139175e+00	 3.221874636773823e+00
 5.888830321982068e-01	 1.257143994566896e+00	 2.790150703079122e+00
 5.769789460965999e-01	 1.262651777441146e+00	 2.413827889024539e+00
 5.650437300843714e-01	 1.268037765597972e+00	 2.091530013271105e+00
 5.530791863159727e-01	 1.273301846375924e+00	 1.821792897545188e+00
 5.410871124638202e-01	 1.278443941371568e+00	 1.603076690752162e+00
 5.290693009365246e-01	 1.283464006174087e+00	 1.433777181179141e+00
 5.170275381090624e-01	 1.288362030079466e+00	 1.312236088354827e+00
 5.049636035654689e-01	 1.293138035784776e+00	 1.236750334009905e+00
 4.928792693546211e-01	 1.297792079063135e+00	 1.205580299152596e+00
 4.807762992596409e-01	 1.302324248419886e+00	 1.216957081503363e+00
 6.045729709024250e-01	 1.259470013106432e+00	 2.999553970672161e+00
 5.926263597223281e-01	 1.265135227892915e+00	 2.640903609109356e+00
 5.806466034269215e-01	 1.270678021854182e+00	 2.336419829275087e+00
 5.686355193387228e-01	 1.276098246890808e+00	 2.082957151321774e+00
 5.565949210678668e-01	 1.281395789625182e+00	 1.877287034829998e+00
 5.445266177139618e-01	 1.286570571155480e+00	 1.716112783986564e+00
 5.324324130793515e-01	 1.291622546788580e+00	 1.596083347548206e+00
 5.203141048943902e-01	 1.296551705752412e+00	 1.513806002601058e+00
 5.081734840553243e-01	 1.301358070888324e+00	 1.465857919464812e+00
 4.960123338753431e-01	 1.306041698323955e+00	 1.448796613116920e+00
 4.838324293493376e-01	 1.310602677127242e+00	 1.459169294181708e+00
 6.083917592591278e-01	 1.267425462073689e+00	 2.764243726507343e+00
 5.963696872465618e-01	 1.273126461218933e+00	 2.487948510817995e+00
 5.843142607573865e-01	 1.278704266267219e+00	 2.260420790403724e+00
 5.722273085932504e-01	 1.284158728183643e+00	 2.077601071966402e+00
 5.601106558199702e-01	 1.289489732874439e+00	 1.935379902137038e+00
 5.479661229643452e-01	 1.294697200939394e+00	 1.829613770104428e+00
 5.357955252224496e-01	 1.299781087403072e+00	 1.756139796098275e+00
 5.236006716800146e-01	 1.304741381425359e+00	 1.710789194967174e+00
 5.113833645454962e-01	 1.309578105991872e+00	 1.689399512879984e+00
 4.991453983963941e-01	 1.314291317584775e+00	 1.687825643636796e+00
 4.868885594393675e-01	 1.318881105834597e+00	 1.701949639159492e+00
 6.122105476157323e-01	 1.275380911041113e+00	 2.528372117987771e+00
 6.001130147707305e-01	 1.281117694545127e+00	 2.340276049868531e+00
 5.879819180878236e-01	 1.286730510680439e+00	 2.191982747825426e+00
 5.758190978477898e-01	 1.292219209476668e+00	 2.079355962100853e+00
 5.636263905721253e-01	 1.297583676123889e+00	 1.998270452486973e+00
 5.514056282148188e-01	 1.302823830723503e+00	 1.944627321911486e+00
 5.391586373656733e-01	 1.307939628017762e+00	 1.914368011347867e+00
 5.268872384657949e-01	 1.312931057098505e+00	 1.903486948286380e+00
 5.145932450358476e-01	 1.317798141095619e+00	 1.908042850223455e+00
 5.022784629176400e-01	 1.322540936845795e+00	 1.924168693496902e+00
 4.899446895295974e-01	 1.327159534542153e+00	 1.948080366263164e+00
 6.160293359720557e-01	 1.283336360008872e+00	 2.304081508333760e+00
 6.038563422946563e-01	 1.289108927871674e+00	 2.206676540636330e+00
 5.916495754180615e-01	 1.294756755094025e+00	 2.137127935242133e+00
 5.794108871021758e-01	 1.300279690770069e+00	 2.092042359179877e+00
 5.671421253241739e-01	 1.305677619373726e+00	 2.068126040698029e+00
 5.548451334652307e-01	 1.310950460508004e+00	 2.062197984016189e+00
 5.425217495088764e-01	 1.316098168632848e+00	 2.071201705297289e+00
 5.301738052515907e-01	 1.321120732772049e+00	 2.092215487815789e+00
 5.178031255262420e-01	 1.326018176199766e+00	 2.122461163936984e+00
 5.054115274389462e-01	 1.330790556107216e+00	 2.159311440782833e+00
 4.930008196198934e-01	 1.335437963250109e+00	 2.200295795289122e+00
 6.198481243279141e-01	 1.291291808977132e+00	 2.103236948833560e+00
 6.075996698181618e-01	 1.297100161198748e+00	 2.095745931030156e+00
 5.953172327479285e-01	 1.302782999508162e+00	 2.101752685272043e+00
 5.830026763562438e-01	 1.308340172064037e+00	 2.119409315409542e+00
 5.706578600759575e-01	 1.313771562624142e+00	 2.147083340878363e+00
 5.582846387154294e-01	 1.319077090293093e+00	 2.183367259120828e+00
 5.458848616519137e-01	 1.324256709248528e+00	 2.227086473573282e+00
 5.334603720372609e-01	 1.329310408446191e+00	 2.277305593653267e+00
 5.210130060165425e-01	 1.334238211304513e+00	 2.333333123226363e+00
 5.085445919601789e-01	 1.339040175369236e+00	 2.394724563663224e+00
 4.960569497101224e-01	 1.343716391958665e+00	 2.461283966759916e+00
 6.236669126831258e-01	 1.299247257946061e+00	 1.937434381670606e+00
 6.113429973410696e-01	 1.305091394526528e+00	 2.015891523505481e+00
 5.989848900772535e-01	 1.310809243923031e+00	 2.091631109351151e+00
 5.865944656098293e-01	 1.316400653358761e+00	 2.165136463958275e+00
 5.741735948273184e-01	 1.321865505875329e+00	 2.237249212862530e+00
 5.617241439652630e-01	 1.327203720078967e+00	 2.309173674883768e+00
 5.492479737946393e-01	 1.332415249865001e+00	 2.382479449002905e+00
 5.367469388226653e-01	 1.337500084121130e+00	 2.459102213208462e+00
 5.242228865066125e-01	 1.342458246410058e+00	 2.541342763343059e+00
 5.116776564812040e-01	 1.347289794632056e+00	 2.631864329961674e+00
 4.991130798001508e-01	 1.351994820668021e+00	 2.733688220684856e+00
 4.685517789068528e-01	 1.269210533586462e+00	 1.963681218338892e-01
 4.567421036580435e-01	 1.273508087186421e+00	 3.673096860191076e-01
 4.449176814900399e-01	 1.277687171888223e+00	 6.528490866985626e-01
 4.330802016659260e-01	 1.281747966506409e+00	 1.027059225499497e+00
 4.212313427177444e-01	 1.285690680225100e+00	 1.463932094331101e+00
 4.093727718083590e-01	 1.289515552181324e+00	 1.937416352949429e+00
 3.975061441091533e-01	 1.293222851033616e+00	 2.421453703718341e+00
 3.856331021939091e-01	 1.296812874516516e+00	 2.890014063148572e+00
 3.737552754491775e-01	 1.300285948981592e+00	 3.317129534766223e+00
 3.618742795014405e-01	 1.303642428925645e+00	 3.679665278092499e+00
 3.499917156613211e-01	 1.306882696506716e+00	 3.961091347786219e+00
 4.716079089938832e-01	 1.277488962295819e+00	 4.651509892432945e-01
 4.597212051103918e-01	 1.281814546699208e+00	 5.977826273833231e-01
 4.478196581209375e-01	 1.286020889490769e+00	 8.139619412285981e-01
 4.359049683068133e-01	 1.290108170651366e+00	 1.094718660183400e+00
 4.239788251482772e-01	 1.294076600729533e+00	 1.421068348389636e+00
 4.120429066822531e-01	 1.297926420422076e+00	 1.774039626240794e+00
 4.000988788759711e-01	 1.301657900139864e+00	 2.134700259072682e+00
 3.881483950168906e-01	 1.305271339559416e+00	 2.484182128885522e+00
 3.761930951192273e-01	 1.308767067160938e+00	 2.803705109539697e+00
 3.642346053473779e-01	 1.312145439753444e+00	 3.075965779191879e+00
 3.522745374565047e-01	 1.315406841987608e+00	 3.291535272816123e+00
 4.746640390817801e-01	 1.285767391004374e+00	 7.228579691291344e-01
 4.627003065636055e-01	 1.290121006211195e+00	 8.206285056728108e-01
 4.507216347526961e-01	 1.294354607092516e+00	 9.763233488752512e-01
 4.387297349485518e-01	 1.298468374795530e+00	 1.176889842014652e+00
 4.267263075796457e-01	 1.302462521233183e+00	 1.409314264527001e+00
 4.147130415569605e-01	 1.306337288662063e+00	 1.660640240719181e+00
 4.026916136435705e-01	 1.310092949245371e+00	 1.917986073993608e+00
 3.906636878406118e-01	 1.313729804601611e+00	 2.168561036627236e+00
 3.786309147899642e-01	 1.317248185339625e+00	 2.399680649426863e+00
 3.665949311939369e-01	 1.320648450580642e+00	 2.599275686706172e+00
 3.545573592522309e-01	 1.323930987467973e+00	 2.763095513624624e+00
 4.777201691704104e-01	 1.294045819712330e+00	 9.724810952928500e-01
 4.656794080175501e-01	 1.298427465722582e+00	 1.040268258319775e+00
 4.536236113851783e-01	 1.302688324693665e+00	 1.145331898076014e+00
 4.415545015910023e-01	 1.306828578939100e+00	 1.279518810565063e+00
 4.294737900117078e-01	 1.310848441736247e+00	 1.434754340113517e+00
 4.173831764323366e-01	 1.314748156901475e+00	 1.603053500626781e+00
 4.052843484118068e-01	 1.318527998350322e+00	 1.776531069133938e+00
 3.931789806649311e-01	 1.322188269643276e+00	 1.947410693792524e+00
 3.810687344612511e-01	 1.325729303517817e+00	 2.108033062566142e+00
 3.689552570409896e-01	 1.329151461407391e+00	 2.250930795422670e+00
 3.568401810483847e-01	 1.332455132947942e+00	 2.375258225400879e+00
 4.807762992596409e-01	 1.302324248419886e+00	 1.216957081503362e+00
 4.686585094720915e-01	 1.306733925233570e+00	 1.261030417642369e+00
 4.565255880182480e-01	 1.311022042294415e+00	 1.326268085301273e+00
 4.443792682340249e-01	 1.315188783082273e+00	 1.408418693043741e+00
 4.322212724443213e-01	 1.319234362238919e+00	 1.503335671074078e+00
 4.200533113082377e-01	 1.323159025140504e+00	 1.606982612907857e+00
 4.078770831805363e-01	 1.326963047454903e+00	 1.715437624638099e+00
 3.956942734897058e-01	 1.330646734684588e+00	 1.824896734057187e+00
 3.835065541329510e-01	 1.334210421695680e+00	 1.931676415772194e+00
 3.713155828884073e-01	 1.337654472233839e+00	 2.032215291788595e+00
 3.591230028448506e-01	 1.340979278427649e+00	 2.127528119663927e+00
 4.838324293493376e-01	 1.310602677127242e+00	 1.459169294181708e+00
 4.716376109270947e-01	 1.315040384744356e+00	 1.487154279676482e+00
 4.594275646517683e-01	 1.319355759894966e+00	 1.524298317112225e+00
 4.472040348774798e-01	 1.323548987225248e+00	 1.569274193484401e+00
 4.349687548773438e-01	 1.327620282741396e+00	 1.620872599049511e+00
 4.227234461845196e-01	 1.331569893379342e+00	 1.678003180235216e+00
 4.104698179496143e-01	 1.335398096559300e+00	 1.739694624061177e+00
 3.982095663147940e-01	 1.339105199725725e+00	 1.805093834405617e+00
 3.859443738049267e-01	 1.342691539873378e+00	 1.873464264235881e+00
 3.736759087360618e-01	 1.346157483060137e+00	 1.944183471136236e+00
 3.614058246415134e-01	 1.349503423907223e+00	 2.019428700037106e+00
 4.868885594393675e-01	 1.318881105834597e+00	 1.701949639159491e+00
 4.746167123824258e-01	 1.323346844255143e+00	 1.722792942925233e+00
 4.623295412856021e-01	 1.327689477495516e+00	 1.744478751609347e+00
 4.500288015212279e-01	 1.331909191368224e+00	 1.767645903790341e+00
 4.377162373106335e-01	 1.336006203243872e+00	 1.793051175240019e+00
 4.253935810610385e-01	 1.339980761618180e+00	 1.821567517257858e+00
 4.130625527188969e-01	 1.343833145663695e+00	 1.854181339117830e+00
 4.007248591400536e-01	 1.347563664766861e+00	 1.891988901043265e+00
 3.883821934770414e-01	 1.351172658051076e+00	 1.936191887887146e+00
 3.760362345838244e-01	 1.354660493886435e+00	 1.988092236858898e+00
 3.636886464382575e-01	 1.358027569386798e+00	 2.050502507001332e+00
 4.899446895295974e-01	 1.327159534542153e+00	 1.948080366263164e+00
 4.775958138379504e-01	 1.331653303766131e+00	 1.972016222705649e+00
 4.652315179196134e-01	 1.336023195096266e+00	 1.991758986283400e+00
 4.528535681651295e-01	 1.340269395511398e+00	 2.008974444415093e+00
 4.404637197440476e-01	 1.344392123746545e+00	 2.025433448934109e+00
 4.280637159376501e-01	 1.348391629857209e+00	 2.043008797787839e+00
 4.156552874882399e-01	 1.352268194768276e+00	 2.063671162210524e+00
 4.032401519653424e-01	 1.356022129808173e+00	 2.089484129894730e+00
 3.908200131491575e-01	 1.359653776228938e+00	 2.122598438494956e+00
 3.783965604315673e-01	 1.363163504712884e+00	 2.165245476985044e+00
 3.659714682349676e-01	 1.366551714866505e+00	 2.220311371233049e+00
 4.930008196198934e-01	 1.335437963250109e+00	 2.200295795289122e+00
 4.805749152935335e-01	 1.339959763277518e+00	 2.238813446490674e+00
 4.681334945536649e-01	 1.344356912697414e+00	 2.270985598933443e+00
 4.556783348090451e-01	 1.348629599654967e+00	 2.298584442070378e+00
 4.432112021774441e-01	 1.352778044249608e+00	 2.323461588330115e+00
 4.307338508142108e-01	 1.356802498096622e+00	 2.347545040261615e+00
 4.182480222574991e-01	 1.360703243873228e+00	 2.372835193341519e+00
 4.057554447905181e-01	 1.364480594849838e+00	 2.401399947128917e+00
 3.932578328211385e-01	 1.368134894407131e+00	 2.435369001376999e+00
 3.807568862791614e-01	 1.371666515539633e+00	 2.476927416993685e+00
 3.682542900315289e-01	 1.375075860346475e+00	 2.528436675151652e+00
 4.960569497101224e-01	 1.343716391958665e+00	 2.461283966759916e+00
 4.835540167490411e-01	 1.348266222789505e+00	 2.527096135377714e+00
 4.710354711876202e-01	 1.352690630299162e+00	 2.586905547988339e+00
 4.585031014528350e-01	 1.356989803799131e+00	 2.641688351489449e+00
 4.459586846106810e-01	 1.361163964753259e+00	 2.692461840882001e+00
 4.334039856905763e-01	 1.365213366336608e+00	 2.740282938450088e+00
 4.208407570265301e-01	 1.369138292978735e+00	 2.786245687687455e+00
 4.082707376154387e-01	 1.372939059892032e+00	 2.831477834884509e+00
 3.956956524928468e-01	 1.376616012585818e+00	 2.877136575400983e+00
 3.831172121264788e-01	 1.380169526366831e+00	 2.924403545098122e+00
 3.705371118278250e-01	 1.383600005826839e+00	 2.974479140193043e+00
 4.991130798001508e-01	 1.351994820668021e+00	 2.733688220684856e+00
 4.865331182043390e-01	 1.356572682302293e+00	 2.840700576564832e+00
 4.739374478213425e-01	 1.361024347901707e+00	 2.944169438257306e+00
 4.613278680963599e-01	 1.365350007944089e+00	 3.043390127929534e+00
 4.487061670436159e-01	 1.369549885257692e+00	 3.137648340047204e+00
 4.360741205666026e-01	 1.373624234577360e+00	 3.226221544049155e+00
 4.234334917951887e-01	 1.377573342084982e+00	 3.308379369808630e+00
 4.107860304399624e-01	 1.381397524934933e+00	 3.383383047115454e+00
 3.981334721641456e-01	 1.385097130765164e+00	 3.450483974778581e+00
 3.854775379733910e-01	 1.388672537194630e+00	 3.508921498636256e+00
 3.728199336237416e-01	 1.392124151307731e+00	 3.557919980767572e+00
 3.499917156613211e-01	 1.306882696506716e+00	 3.961091347786219e+00
 3.381091705472289e-01	 1.310007161332449e+00	 4.158987666808777e+00
 3.262282160356712e-01	 1.313016260802667e+00	 4.290195585326622e+00
 3.143504082451845e-01	 1.315910458735754e+00	 4.362132158290700e+00
 3.024772868851621e-01	 1.318690244556447e+00	 4.382204371294153e+00
 2.906103747886412e-01	 1.321356132759197e+00	 4.357786492880829e+00
 2.787511774632436e-01	 1.323908662363273e+00	 4.296199129130425e+00
 2.669011826603555e-01	 1.326348396360253e+00	 4.204689925476617e+00
 2.550618599626067e-01	 1.328675921154549e+00	 4.090415855019903e+00
 2.432346603896930e-01	 1.330891845997599e+00	 3.960427027646857e+00
 2.314210160225521e-01	 1.332996802416356e+00	 3.821651950051947e+00
 3.522745374565047e-01	 1.315406841987608e+00	 3.291535272816123e+00
 3.403144884137317e-01	 1.318551686142743e+00	 3.454126229870455e+00
 3.283560403481451e-01	 1.321580412471606e+00	 3.578606562002078e+00
 3.164007595280842e-01	 1.324493487817822e+00	 3.668545716502388e+00
 3.044501957057148e-01	 1.327291404798392e+00	 3.727464965081623e+00
 2.925058816467719e-01	 1.329974681263546e+00	 3.758820446977673e+00
 2.805693326785690e-01	 1.332543859748293e+00	 3.765987895933948e+00
 2.686420462563690e-01	 1.334999506916314e+00	 3.752248985034419e+00
 2.567255015481725e-01	 1.337342212996832e+00	 3.720779217860785e+00
 2.448211590379691e-01	 1.339572591215119e+00	 3.674637289697430e+00
 2.329304601474622e-01	 1.341691277217250e+00	 3.616755838541054e+00
 3.545573592522309e-01	 1.323930987467973e+00	 2.763095513624624e+00
 3.425198062806841e-01	 1.327096210952599e+00	 2.899248202834678e+00
 3.304838646609647e-01	 1.330144564140208e+00	 3.019796594223377e+00
 3.184511108112183e-01	 1.333076516899666e+00	 3.125130837118747e+00
 3.064231045263883e-01	 1.335892565040230e+00	 3.215566172266739e+00
 2.944013885049106e-01	 1.338593229767908e+00	 3.291330618476709e+00
 2.823874878937946e-01	 1.341179057133447e+00	 3.352554334921345e+00
 2.703829098521839e-01	 1.343650617472627e+00	 3.399260583331768e+00
 2.583891431334537e-01	 1.346008504839481e+00	 3.431358208923314e+00
 2.464076576858912e-01	 1.348253336433106e+00	 3.448635554302471e+00
 2.344399042719691e-01	 1.350385752018702e+00	 3.450755716827904e+00
 3.568401810483847e-01	 1.332455132947942e+00	 2.375258225400879e+00
 3.447251241479886e-01	 1.335640735762127e+00	 2.492052081387478e+00
 3.326116889740540e-01	 1.338708715808558e+00	 2.610053716391832e+00
 3.205014620945353e-01	 1.341659545981341e+00	 2.727128462734952e+00
 3.083960133471568e-01	 1.344493725281991e+00	 2.841051249705589e+00
 2.962968953630578e-01	 1.347211778272284e+00	 2.949497899024308e+00
 2.842056431089469e-01	 1.349814254518708e+00	 3.050038097897311e+00
 2.721237734478507e-01	 1.352301728029137e+00	 3.140129965357161e+00
 2.600527847185219e-01	 1.354674796682413e+00	 3.217116122245065e+00
 2.479941563335479e-01	 1.356934081651459e+00	 3.278221170703882e+00
 2.359493483961735e-01	 1.359080226820593e+00	 3.320550485409120e+00
 3.591230028448506e-01	 1.340979278427649e+00	 2.127528119663927e+00
 3.469304420155475e-01	 1.344185260571437e+00	 2.230298182769963e+00
 3.347395132873366e-01	 1.347272867476741e+00	 2.345761674565133e+00
 3.225518133779837e-01	 1.350242575062906e+00	 2.469900111368432e+00
 3.103689221679943e-01	 1.353094885523699e+00	 2.598600218326900e+00
 2.981924022212141e-01	 1.355830326776671e+00	 2.727647811244835e+00
 2.860237983240519e-01	 1.358449451904044e+00	 2.852723368049228e+00
 2.738646370434192e-01	 1.360952838585789e+00	 2.969399198230842e+00
 2.617164263034480e-01	 1.363341088525549e+00	 3.073138113265662e+00
 2.495806549810275e-01	 1.365614826870076e+00	 3.159293496581443e+00
 2.374587925201764e-01	 1.367774701622806e+00	 3.223110668072605e+00
 3.614058246415134e-01	 1.349503423907223e+00	 2.019428700037106e+00
 3.491357598832633e-01	 1.352729785380636e+00	 2.111807418686797e+00
 3.368673376007369e-01	 1.355837019144840e+00	 2.223397538919064e+00
 3.246021646615114e-01	 1.358825604144416e+00	 2.348924619812460e+00
 3.123418309888752e-01	 1.361696045765385e+00	 2.483026017539103e+00
 3.000879090793801e-01	 1.364448875281070e+00	 2.620246343098947e+00
 2.878419535391358e-01	 1.367084649289429e+00	 2.755034631813121e+00
 2.756055006389397e-01	 1.369603949142524e+00	 2.881743126725513e+00
 2.633800678883034e-01	 1.372007380368809e+00	 2.994627572681555e+00
 2.511671536284188e-01	 1.374295572088857e+00	 3.087848913403926e+00
 2.389682366440784e-01	 1.376469176425223e+00	 3.155476280349556e+00
 3.636886464382575e-01	 1.358027569386798e+00	 2.050502507001332e+00
 3.513410777510382e-01	 1.361274310189836e+00	 2.134460130804220e+00
 3.389951619141786e-01	 1.364401170812940e+00	 2.239529421095535e+00
 3.266525159450667e-01	 1.367408633225928e+00	 2.359795023275665e+00
 3.143147398097734e-01	 1.370297206007076e+00	 2.489270816845837e+00
 3.019834159375560e-01	 1.373067423785480e+00	 2.621895950319071e+00
 2.896601087542249e-01	 1.375719846674832e+00	 2.751532620057719e+00
 2.773463642344626e-01	 1.378255059699291e+00	 2.871965490146924e+00
 2.650437094731596e-01	 1.380673672212113e+00	 2.976902644933710e+00
 2.527536522758100e-01	 1.382976317307702e+00	 3.059977961349249e+00
 2.404776807679804e-01	 1.385163651227725e+00	 3.114754784568803e+00
 3.659714682349676e-01	 1.366551714866505e+00	 2.220311371233049e+00
 3.535463956187747e-01	 1.369818834999146e+00	 2.296194986102645e+00
 3.411229862275859e-01	 1.372965322481125e+00	 2.390814291855310e+00
 3.287028672285982e-01	 1.375991662307499e+00	 2.498215565354948e+00
 3.162876486306632e-01	 1.378898366248802e+00	 2.612402477804128e+00
 3.038789227957426e-01	 1.381685972289900e+00	 2.727331719581898e+00
 2.914782639693453e-01	 1.384355044060225e+00	 2.836910411192607e+00
 2.790872278300376e-01	 1.386906170256031e+00	 2.934995193527870e+00
 2.667073510580876e-01	 1.389339964055382e+00	 3.015392885012008e+00
 2.543401509232899e-01	 1.391657062526507e+00	 3.071862588572305e+00
 2.419871248919833e-01	 1.393858126030196e+00	 3.098119127731600e+00
 3.682542900315289e-01	 1.375075860346475e+00	 2.528436675151652e+00
 3.557517134863752e-01	 1.378363359808674e+00	 2.595007929484631e+00
 3.432508105408824e-01	 1.381529474149479e+00	 2.673995894681175e+00
 3.307532185120539e-01	 1.384574691389187e+00	 2.759998832684621e+00
 3.182605574515188e-01	 1.387499526490589e+00	 2.847611159799670e+00
 3.057744296539400e-01	 1.390304520794330e+00	 2.931417685441543e+00
 2.932964191845232e-01	 1.392990241445579e+00	 3.005989689172773e+00
 2.808280914257150e-01	 1.395557280812689e+00	 3.065882726438524e+00
 2.683709926431588e-01	 1.398006255898535e+00	 3.105636047573847e+00
 2.559266495709470e-01	 1.400337807745173e+00	 3.119773509857893e+00
 2.434965690161878e-01	 1.402552600832516e+00	 3.102805858612398e+00
 3.705371118278250e-01	 1.383600005826839e+00	 2.974479140193043e+00
 3.579570313537422e-01	 1.386907884618530e+00	 3.028951191166311e+00
 3.453786348539923e-01	 1.390093625818086e+00	 3.085902751191276e+00
 3.328035697953822e-01	 1.393157720471047e+00	 3.141063008883202e+00
 3.202334662723141e-01	 1.396100686732467e+00	 3.190206063435825e+00
 3.076699365121491e-01	 1.398923069298769e+00	 3.229143294391252e+00
 2.951145743997849e-01	 1.401625438830864e+00	 3.253717149718578e+00
 2.825689550215451e-01	 1.404208391369210e+00	 3.259796723046020e+00
 2.700346342284445e-01	 1.406672547741491e+00	 3.243275002669670e+00
 2.575131482188697e-01	 1.409018552963599e+00	 3.200067669940655e+00
 2.450060131406947e-01	 1.411247075634568e+00	 3.126113320668574e+00
 3.728199336237416e-01	 1.392124151307731e+00	 3.557919980767572e+00
 3.601623492207781e-01	 1.395452409428825e+00	 3.596132346502605e+00
 3.475064591668398e-01	 1.398657777487031e+00	 3.623446254425739e+00
 3.348539210785312e-01	 1.401740749553137e+00	 3.637429242682690e+00
 3.222063750930237e-01	 1.404701846974463e+00	 3.635612305635928e+00
 3.095654433703703e-01	 1.407541617803216e+00	 3.615620009745864e+00
 2.969327296151564e-01	 1.410260636216053e+00	 3.575161048396943e+00
 2.843098186175781e-01	 1.412859501925538e+00	 3.512020657368029e+00
 2.716982758140161e-01	 1.415338839584173e+00	 3.424054772648260e+00
 2.590996468671465e-01	 1.417699298181683e+00	 3.309185807005348e+00
 2.465154572656048e-01	 1.419941550436234e+00	 3.165399917509090e+00
 2.314210160225521e-01	 1.332996802416356e+00	 3.821651950051947e+00
 2.196203356210291e-01	 1.334991773238847e+00	 3.672778400409707e+00
 2.078360252480811e-01	 1.336877065048610e+00	 3.511250821409655e+00
 1.960694618236402e-01	 1.338653372104617e+00	 3.342012846537141e+00
 1.843220019302544e-01	 1.340321408639350e+00	 3.170067498796416e+00
 1.725949815280879e-01	 1.341881908267035e+00	 3.000466523604485e+00
 1.608897156880044e-01	 1.343335623389784e+00	 2.838300458177927e+00
 1.492074983425993e-01	 1.344683324602242e+00	 2.688689366203432e+00
 1.375496020550363e-01	 1.345925800095279e+00	 2.556774167608271e+00
 1.259172778055192e-01	 1.347063855059284e+00	 2.447708494739903e+00
 1.143117547952176e-01	 1.348098311087590e+00	 2.366651008187598e+00
 2.329304601474622e-01	 1.341691277217250e+00	 3.616755838541054e+00
 2.210528097801408e-01	 1.343699260241742e+00	 3.544636458721575e+00
 2.091916362150057e-01	 1.345596848871830e+00	 3.456191897314779e+00
 1.973483253529381e-01	 1.347384741894796e+00	 3.354916687252357e+00
 1.855242426247843e-01	 1.349063658201715e+00	 3.244399634426560e+00
 1.737207327044978e-01	 1.350634336191816e+00	 3.128314562203578e+00
 1.619391192404805e-01	 1.352097533174766e+00	 3.010411739376628e+00
 1.501807046049928e-01	 1.353454024771419e+00	 2.894509916282196e+00
 1.384467696614805e-01	 1.354704604313630e+00	 2.784488895066062e+00
 1.267385735496553e-01	 1.355850082243650e+00	 2.684282561832641e+00
 1.150573534881408e-01	 1.356891285513661e+00	 2.597872310601062e+00
 2.344399042719691e-01	 1.350385752018702e+00	 3.450755716827904e+00
 2.224852839388230e-01	 1.352406747245271e+00	 3.435152048015699e+00
 2.105472471814967e-01	 1.354316632695745e+00	 3.401079700055274e+00
 1.986271888818180e-01	 1.356116111685718e+00	 3.350928220979911e+00
 1.867264833189296e-01	 1.357805907764853e+00	 3.287203981833863e+00
 1.748464838805718e-01	 1.359386764117388e+00	 3.212522213200321e+00
 1.629885227926837e-01	 1.360859442960541e+00	 3.129599691031699e+00
 1.511539108671877e-01	 1.362224724941377e+00	 3.041247991988532e+00
 1.393439372678103e-01	 1.363483408532734e+00	 2.950367239976410e+00
 1.275598692937688e-01	 1.364636309428726e+00	 2.859940267553489e+00
 1.158029521811390e-01	 1.365684259940387e+00	 2.773027118323379e+00
 2.359493483961735e-01	 1.359080226820593e+00	 3.320550485409120e+00
 2.239177580971834e-01	 1.361114234249305e+00	 3.342373131419601e+00
 2.119028581476625e-01	 1.363036416520218e+00	 3.344951872490525e+00
 1.999060524103843e-01	 1.364847481477240e+00	 3.329909210401012e+00
 1.879287240127863e-01	 1.366548157328623e+00	 3.298994835500230e+00
 1.759722350563943e-01	 1.368139192043613e+00	 3.254078838237237e+00
 1.640379263446822e-01	 1.369621352746974e+00	 3.197145554598594e+00
 1.521271171292337e-01	 1.370995425111989e+00	 3.130287960691361e+00
 1.402411048740542e-01	 1.372262212752476e+00	 3.055702533393313e+00
 1.283811650378653e-01	 1.373422536614409e+00	 2.975684496195639e+00
 1.165485508741936e-01	 1.374477234367676e+00	 2.892623372043158e+00
 2.374587925201764e-01	 1.367774701622806e+00	 3.223110668072605e+00
 2.253502322553289e-01	 1.369821721253712e+00	 3.264389809330530e+00
 2.132584691136115e-01	 1.371756200345110e+00	 3.286862909217739e+00
 2.011849159387416e-01	 1.373578851269221e+00	 3.291717331180235e+00
 1.891309647064506e-01	 1.375290406892884e+00	 3.280265952896136e+00
 1.770979862320488e-01	 1.376891619970350e+00	 3.253941438374889e+00
 1.650873298965443e-01	 1.378383262533937e+00	 3.214291147144795e+00
 1.531003233911805e-01	 1.379766125283133e+00	 3.162972590343365e+00
 1.411382724802409e-01	 1.381041016972741e+00	 3.101749345392348e+00
 1.292024607819506e-01	 1.382208763800598e+00	 3.032487343347075e+00
 1.172941495672856e-01	 1.383270208795438e+00	 2.957151445913281e+00
 2.389682366440784e-01	 1.376469176425223e+00	 3.155476280349555e+00
 2.267827064133671e-01	 1.378529208258362e+00	 3.199333080832618e+00
 2.146140800794520e-01	 1.380475984170285e+00	 3.225883683182681e+00
 2.024637794669945e-01	 1.382310221061520e+00	 3.236206331153260e+00
 1.903332054000187e-01	 1.384032656457494e+00	 3.231491208908606e+00
 1.782237374076194e-01	 1.385644047897464e+00	 3.213035661829794e+00
 1.661367334483380e-01	 1.387145172321294e+00	 3.182240076001281e+00
 1.540735296530776e-01	 1.388536825454683e+00	 3.140604320312353e+00
 1.420354400863991e-01	 1.389819821193416e+00	 3.089724657140432e+00
 1.300237565260302e-01	 1.390994990987188e+00	 3.031291030180163e+00
 1.180397482603965e-01	 1.392063183223582e+00	 2.967084641095397e+00
 2.404776807679804e-01	 1.385163651227725e+00	 3.114754784568803e+00
 2.282151805714054e-01	 1.387236695263126e+00	 3.145373657312494e+00
 2.159696910452925e-01	 1.389195767995604e+00	 3.161100994959429e+00
 2.037426429952471e-01	 1.391041590853994e+00	 3.163226187709018e+00
 1.915354460935869e-01	 1.392774906022312e+00	 3.153125229219610e+00
 1.793494885831899e-01	 1.394396475824815e+00	 3.132256776819937e+00
 1.671861370001318e-01	 1.395907082108914e+00	 3.102158910245901e+00
 1.550467359149747e-01	 1.397307525626517e+00	 3.064446486496805e+00
 1.429326076925572e-01	 1.398598625414386e+00	 3.020808990586253e+00
 1.308450522701098e-01	 1.399781218174077e+00	 2.973008784733206e+00
 1.187853469535073e-01	 1.400856157652018e+00	 2.922879661848778e+00
 2.419871248919833e-01	 1.393858126030196e+00	 3.098119127731600e+00
 2.296476547295508e-01	 1.395944182267873e+00	 3.100720825993652e+00
 2.173253020112415e-01	 1.397915551820929e+00	 3.091617143709013e+00
 2.050215065236043e-01	 1.399772960646505e+00	 3.072623263444950e+00
 1.927376867872511e-01	 1.401517155587198e+00	 3.045604003553789e+00
 1.804752397588445e-01	 1.403148903752267e+00	 3.012470611041357e+00
 1.682355405519939e-01	 1.404668991896667e+00	 2.975178310903527e+00
 1.560199421769214e-01	 1.406078225798511e+00	 2.935724502721884e+00
 1.438297752987439e-01	 1.407377429635539e+00	 2.896147497621794e+00
 1.316663480141950e-01	 1.408567445361161e+00	 2.858525691625394e+00
 1.195309456465994e-01	 1.409649132080654e+00	 2.824977074925965e+00
 2.434965690161878e-01	 1.402552600832516e+00	 3.102805858612398e+00
 2.310801288879112e-01	 1.404651669272474e+00	 3.063621361223236e+00
 2.186809129774073e-01	 1.406635335646124e+00	 3.016549518875910e+00
 2.063003700521708e-01	 1.408504330438910e+00	 2.964240460170061e+00
 1.939399274811078e-01	 1.410259405152009e+00	 2.909345479669067e+00
 1.816009909346668e-01	 1.411901331679679e+00	 2.854514459223746e+00
 1.692849441039923e-01	 1.413430901684418e+00	 2.802394121654451e+00
 1.569931484389674e-01	 1.414848925970539e+00	 2.755627000313085e+00
 1.447269429049878e-01	 1.416156233856758e+00	 2.716851010473844e+00
 1.324876437582916e-01	 1.417353672548340e+00	 2.688699511575031e+00
 1.202765443396539e-01	 1.418442106509400e+00	 2.673801752999610e+00
 2.450060131406947e-01	 1.411247075634568e+00	 3.126113320668574e+00
 2.325126030465934e-01	 1.413359156276798e+00	 3.032358481451330e+00
 2.200365239438982e-01	 1.415355119471049e+00	 2.935030211727852e+00
 2.075792335810506e-01	 1.417235700231067e+00	 2.837917371326926e+00
 1.951421681752531e-01	 1.419001654716606e+00	 2.744750138920391e+00
 1.827267421107409e-01	 1.420653759606916e+00	 2.659197960141709e+00
 1.703343476561955e-01	 1.422192811472036e+00	 2.584868421754165e+00
 1.579663547011624e-01	 1.423619626142480e+00	 2.525306927651194e+00
 1.456241105113176e-01	 1.424935038077932e+00	 2.483997054997505e+00
 1.333089395024050e-01	 1.426139899735509e+00	 2.464361472023421e+00
 1.210221430326521e-01	 1.427235080938167e+00	 2.469763302809417e+00
 2.465154572656048e-01	 1.419941550436234e+00	 3.165399917509089e+00
 2.339450772057051e-01	 1.422066643280715e+00	 3.005250849943979e+00
 2.213921349108230e-01	 1.424074903295569e+00	 2.846205645888039e+00
 2.088580971103485e-01	 1.425967070022836e+00	 2.693490432900101e+00
 1.963444088697830e-01	 1.427743904280846e+00	 2.552201554186356e+00
 1.838524932871508e-01	 1.429406187533840e+00	 2.427303944390708e+00
 1.713837512086717e-01	 1.430954721259390e+00	 2.323630542784147e+00
 1.589395609635559e-01	 1.432390326314207e+00	 2.245882611423889e+00
 1.465212781177617e-01	 1.433713842298944e+00	 2.198630828461916e+00
 1.341302352465411e-01	 1.434926126922566e+00	 2.186317030102977e+00
 1.217677417255753e-01	 1.436028055366862e+00	 2.213256478684122e+00
 1.143117547952176e-01	 1.348098311087590e+00	 2.366651008187598e+00
 1.027362012421250e-01	 1.349029855853806e+00	 2.317505522824749e+00
 9.118980418052944e-02	 1.349859525943230e+00	 2.303428005267185e+00
 7.967369955167920e-02	 1.350588187874028e+00	 2.328512418790034e+00
 6.818900163770034e-02	 1.351216722171277e+00	 2.396881033527546e+00
 5.673680294597199e-02	 1.351746022787329e+00	 2.512679194972388e+00
 4.531817410899213e-02	 1.352176996524908e+00	 2.680070105817001e+00
 3.393416379947616e-02	 1.352510562463393e+00	 2.903229578161533e+00
 2.258579866042112e-02	 1.352747651388675e+00	 3.186340717214986e+00
 1.127408324985740e-02	 1.352889205227027e+00	 3.533588501792428e+00
 0.000000000000000e+00	 1.352936176483334e+00	 3.949154231873525e+00
 1.150573534881408e-01	 1.356891285513661e+00	 2.597872310601062e+00
 1.034062983596297e-01	 1.357828906282633e+00	 2.528590923216143e+00
 9.178458989584180e-02	 1.358663987896997e+00	 2.481982645901569e+00
 8.019337144721018e-02	 1.359397402526789e+00	 2.465365870488892e+00
 6.863376456377401e-02	 1.360030036440318e+00	 2.485984716403863e+00
 5.710686887879979e-02	 1.360562789420742e+00	 2.551002886275050e+00
 4.561376200799373e-02	 1.360996574185418e+00	 2.667497681386869e+00
 3.415549946404665e-02	 1.361332315808420e+00	 2.842454128560135e+00
 2.273311458624213e-02	 1.361570951146700e+00	 3.082759174188242e+00
 1.134761848484777e-02	 1.361713428270247e+00	 3.395195905392827e+00
 0.000000000000000e+00	 1.361760705896667e+00	 3.786437763290499e+00
 1.158029521811390e-01	 1.365684259940387e+00	 2.773027118323379e+00
 1.040763954773100e-01	 1.366627956712044e+00	 2.691591970398437e+00
 9.237937561142637e-02	 1.367468449851268e+00	 2.622047843274961e+00
 8.071304334309824e-02	 1.368206617179969e+00	 2.574113688534044e+00
 6.907852749027049e-02	 1.368843350709689e+00	 2.557353636064775e+00
 5.747693481208934e-02	 1.369379556054403e+00	 2.581170395358578e+00
 4.590934990746186e-02	 1.369816151846096e+00	 2.654798923670278e+00
 3.437683512904705e-02	 1.370154069153548e+00	 2.787300307578359e+00
 2.288043051240778e-02	 1.370394250904771e+00	 2.987555808725991e+00
 1.142115372004180e-02	 1.370537651313480e+00	 3.264261028876176e+00
 0.000000000000000e+00	 1.370585235310001e+00	 3.625920154561877e+00
 1.165485508741936e-01	 1.374477234367676e+00	 2.892623372043158e+00
 1.047464925951220e-01	 1.375427007141962e+00	 2.806539273448003e+00
 9.297416132721502e-02	 1.376272911805979e+00	 2.723429434898334e+00
 8.123271523925410e-02	 1.377015831833514e+00	 2.654603859914441e+00
 6.952329041708402e-02	 1.377656664979350e+00	 2.611158889643842e+00
 5.784700074572520e-02	 1.378196322688281e+00	 2.603970605524692e+00
 4.620493780727990e-02	 1.378635729506922e+00	 2.643688566717309e+00
 3.459817079436985e-02	 1.378975822498765e+00	 2.740729824168551e+00
 2.302774643883191e-02	 1.379217550662885e+00	 2.905273157587101e+00
 1.149468895538856e-02	 1.379361874356723e+00	 3.147253486132886e+00
 0.000000000000000e+00	 1.379409764723334e+00	 3.476356408944258e+00
 1.172941495672856e-01	 1.383270208795438e+00	 2.957151445913281e+00
 1.054165897130218e-01	 1.384226057572308e+00	 2.873458685965300e+00
 9.356894704313973e-02	 1.385077373761063e+00	 2.785934915433242e+00
 8.175238713558854e-02	 1.385825046487373e+00	 2.706685664282022e+00
 6.996805334410898e-02	 1.386469979249262e+00	 2.647565354838385e+00
 5.821706667959189e-02	 1.387013089322345e+00	 2.620171158735260e+00
 4.650052570733119e-02	 1.387455307167877e+00	 2.635837217753550e+00
 3.481950645990762e-02	 1.387797575844059e+00	 2.705629166133027e+00
 2.317506236542835e-02	 1.388040850421035e+00	 2.840338896561294e+00
 1.156822419083716e-02	 1.388186097399976e+00	 3.050479516805803e+00
 0.000000000000000e+00	 1.388234294136667e+00	 3.346280449500508e+00
 1.180397482603965e-01	 1.392063183223582e+00	 2.967084641095398e+00
 1.060866868309655e-01	 1.393025108003004e+00	 2.892371394413463e+00
 9.416373275913247e-02	 1.393881835716456e+00	 2.809373324170135e+00
 8.227205903201222e-02	 1.394634261141493e+00	 2.730209576585490e+00
 7.041281627123964e-02	 1.395283293519384e+00	 2.666731835124626e+00
 5.858713261357405e-02	 1.395829855956567e+00	 2.630519081982363e+00
 4.679611360749912e-02	 1.396274884828940e+00	 2.632872714161014e+00
 3.504084212555285e-02	 1.396619329189418e+00	 2.684811947786432e+00
 2.332237829211093e-02	 1.396864150179216e+00	 2.797069449228403e+00
 1.164175942633666e-02	 1.397010320443238e+00	 2.980087136635467e+00
 0.000000000000000e+00	 1.397058823550000e+00	 3.244012101320326e+00
 1.187853469535073e-01	 1.400856157652018e+00	 2.922879661848778e+00
 1.067567839489092e-01	 1.401824158433973e+00	 2.863294004009426e+00
 9.475851847512520e-02	 1.402686297672092e+00	 2.793555137409749e+00
 8.279173092843589e-02	 1.403443475795821e+00	 2.725027173857646e+00
 7.085757919837028e-02	 1.404096607789674e+00	 2.668811199844552e+00
 5.895719854755618e-02	 1.404646622590918e+00	 2.635741390293298e+00
 4.709170150766706e-02	 1.405094462490092e+00	 2.636381429489596e+00
 3.526217779119808e-02	 1.405441082534831e+00	 2.681021169274175e+00
 2.346969421879353e-02	 1.405687449937423e+00	 2.779673459836856e+00
 1.171529466183616e-02	 1.405834543486506e+00	 2.942071093843040e+00
 0.000000000000000e+00	 1.405883352963333e+00	 3.177663810780909e+00
 1.195309456465994e-01	 1.409649132080654e+00	 2.824977074925965e+00
 1.074268810668089e-01	 1.410623208865136e+00	 2.786238622274653e+00
 9.535330419104994e-02	 1.411490759627908e+00	 2.738292165533570e+00
 8.331140282477031e-02	 1.412252690450304e+00	 2.690991045975087e+00
 7.130234212539524e-02	 1.412909922060092e+00	 2.653950519388527e+00
 5.932726448142290e-02	 1.413463389225367e+00	 2.636545667390802e+00
 4.738728940771835e-02	 1.413914040151313e+00	 2.647909530724707e+00
 3.548351345673584e-02	 1.414262835880286e+00	 2.696931391404385e+00
 2.361701014538997e-02	 1.414510749695649e+00	 2.792255136234475e+00
 1.178882989728476e-02	 1.414658766529779e+00	 2.942277640020247e+00
 0.000000000000000e+00	 1.414707882376666e+00	 3.155147113329608e+00
 1.202765443396539e-01	 1.418442106509400e+00	 2.673801752999610e+00
 1.080969781846209e-01	 1.419422259296415e+00	 2.661212940347143e+00
 9.594808990683856e-02	 1.420295221583836e+00	 2.643397454560079e+00
 8.383107472092620e-02	 1.421061905104891e+00	 2.627954710217997e+00
 7.174710505220881e-02	 1.421723236330597e+00	 2.622291195686651e+00
 5.969733041505874e-02	 1.422280155859884e+00	 2.633620624978200e+00
 4.768287730753638e-02	 1.422733617812583e+00	 2.668964188926187e+00
 3.570484912205867e-02	 1.423084589225772e+00	 2.735150829659692e+00
 2.376432607181408e-02	 1.423334049453891e+00	 2.838817468490417e+00
 1.186236513263152e-02	 1.423482989573057e+00	 2.986409123575479e+00
 0.000000000000000e+00	 1.423532411789999e+00	 3.184178860700955e+00
 1.210221430326521e-01	 1.427235080938167e+00	 2.469763302809417e+00
 1.087670753023013e-01	 1.428221309727733e+00	 2.488220312151393e+00
 9.654287562242307e-02	 1.429099683539813e+00	 2.508685191993416e+00
 8.435074661681423e-02	 1.429871119759527e+00	 2.535772529466344e+00
 7.219186797870526e-02	 1.430536550601150e+00	 2.573969088211235e+00
 6.006739634834829e-02	 1.431096922494441e+00	 2.627636641571444e+00
 4.797846520700449e-02	 1.431553195473883e+00	 2.701014745249684e+00
 3.592618478705905e-02	 1.431906342571277e+00	 2.798223370874269e+00
 2.391164199797973e-02	 1.432157349212141e+00	 2.923265328569353e+00
 1.193590036782555e-02	 1.432307212616338e+00	 3.080028413388302e+00
 0.000000000000000e+00	 1.432356941203333e+00	 3.272287217942628e+00
 1.217677417255753e-01	 1.436028055366862e+00	 2.213256478684121e+00
 1.094371724198060e-01	 1.437020360159012e+00	 2.267259831518276e+00
 9.713766133773548e-02	 1.437904145495773e+00	 2.333970616780632e+00
 8.487041851234521e-02	 1.438680334414162e+00	 2.414299633876622e+00
 7.263663090477897e-02	 1.439349864871708e+00	 2.509114635682950e+00
 6.043746228117610e-02	 1.439913689129008e+00	 2.619246281754793e+00
 4.827405310600610e-02	 1.440372773135193e+00	 2.745493834262839e+00
 3.614752045162955e-02	 1.440728095916790e+00	 2.888630515890884e+00
 2.405895792380075e-02	 1.440980648970397e+00	 3.049408456156146e+00
 1.200943560281591e-02	 1.441131435659619e+00	 3.228563159950296e+00
 0.000000000000000e+00	 1.441181470616666e+00	 3.426817440116820e+00
 1.441181470616666e+00	 0.000000000000000e+00	 1.619754023120871e+01
 1.441131435659620e+00	 1.200943560281512e-02	 1.884365426582826e+01
 1.440980648970397e+00	 2.405895792380007e-02	 2.034455388598450e+01
 1.440728095916789e+00	 3.614752045162897e-02	 2.084829814832860e+01
 1.440372773135193e+00	 4.827405310600565e-02	 2.050565805377998e+01
 1.439913689129008e+00	 6.043746228117578e-02	 1.946999385064660e+01
 1.439349864871708e+00	 7.263663090477876e-02	 1.789712795819804e+01
 1.438680334414161e+00	 8.487041851234511e-02	 1.594521372692659e+01
 1.437904145495773e+00	 9.713766133773551e-02	 1.377460024419488e+01
 1.437020360159012e+00	 1.094371724198062e-01	 1.154769339924338e+01
 1.436028055366862e+00	 1.217677417255753e-01	 9.428813425480385e+00
 1.450004500024999e+00	 0.000000000000000e+00	 1.001734469625665e+01
 1.449954158749978e+00	 1.208295833795273e-02	 1.553399610881305e+01
 1.449802448932670e+00	 2.420624880826541e-02	 1.917451389461567e+01
 1.449548349729178e+00	 3.636881849277188e-02	 2.117703197023420e+01
 1.449190851633198e+00	 4.856959076004437e-02	 2.178356660672742e+01
 1.448728957078083e+00	 6.080746530917199e-02	 2.123980490128942e+01
 1.448161681043600e+00	 7.308131822897299e-02	 1.979488527211987e+01
 1.447488051666967e+00	 8.539000207294811e-02	 1.770117023326335e+01
 1.446707110857749e+00	 9.773234595027337e-02	 1.521401170614376e+01
 1.445817914916132e+00	 1.101071556331185e-01	 1.259150913728831e+01
 1.444819535154164e+00	 1.225132136805673e-01	 1.009426070327635e+01
 1.458827529433332e+00	 0.000000000000000e+00	 4.494421529180466e+00
 1.458776881840336e+00	 1.215648107288541e-02	 1.237158938934830e+01
 1.458624248894937e+00	 2.435353969238123e-02	 1.779486080841042e+01
 1.458368603541552e+00	 3.659011653347470e-02	 2.107161806210529e+01
 1.458008930131178e+00	 4.886512841359994e-02	 2.251400837815628e+01
 1.457544225027117e+00	 6.117746833668301e-02	 2.243866224955633e+01
 1.456973497215430e+00	 7.352600555271431e-02	 2.116640100097728e+01
 1.456295768919688e+00	 8.590958563315805e-02	 1.902193390080507e+01
 1.455510076219609e+00	 9.832703056249868e-02	 1.633354511719747e+01
 1.454615469673103e+00	 1.107771388462125e-01	 1.343277083515629e+01
 1.453611014941278e+00	 1.232586856354421e-01	 1.065406686902844e+01
 1.467650558841666e+00	 0.000000000000000e+00	-3.149667079479821e-01
 1.467599604930690e+00	 1.223000380766271e-02	 9.399566434156576e+00
 1.467446048857192e+00	 2.450083057622867e-02	 1.623542900869603e+01
 1.467188857353902e+00	 3.681141457383452e-02	 2.054881361233933e+01
 1.466827008629116e+00	 4.916066606677223e-02	 2.270127656926151e+01
 1.466359492976088e+00	 6.154747136380066e-02	 2.305940456432316e+01
 1.465785313387171e+00	 7.397069287607808e-02	 2.199446857842533e+01
 1.465103486172292e+00	 8.642916919302795e-02	 1.988206544959143e+01
 1.464313041581324e+00	 9.892171517443897e-02	 1.710174739355131e+01
 1.463413024429894e+00	 1.114471220590895e-01	 1.403663984036849e+01
 1.462402494728179e+00	 1.240041575901763e-01	 1.107304796526186e+01
 1.476473588250000e+00	 0.000000000000000e+00	-4.355842249428584e+00
 1.476422328021041e+00	 1.230352654233416e-02	 6.660071753995146e+00
 1.476267848819432e+00	 2.464812145988886e-02	 1.452536727365921e+01
 1.476009111166218e+00	 3.703271261394845e-02	 1.962498839558845e+01
 1.475645087126997e+00	 4.945620371966111e-02	 2.234956177957011e+01
 1.475174760924975e+00	 6.191747439061665e-02	 2.309502990016189e+01
 1.474597129558798e+00	 7.441538019913965e-02	 2.226227045029572e+01
 1.473911203424750e+00	 8.694875275261103e-02	 2.025670225741697e+01
 1.473116006942859e+00	 9.951639978612177e-02	 1.748787807508387e+01
 1.472210579186475e+00	 1.121171052717507e-01	 1.436906463824501e+01
 1.471193974514841e+00	 1.247496295447467e-01	 1.131681039452778e+01
 1.485296617658333e+00	 0.000000000000000e+00	-7.577363655487923e+00
 1.485245051111386e+00	 1.237704927694933e-02	 4.191606046574792e+00
 1.485089648781651e+00	 2.479541234344295e-02	 1.269080953084011e+01
 1.484829364978490e+00	 3.725401065391361e-02	 1.831421643317660e+01
 1.484463165624805e+00	 4.975174137236636e-02	 2.146151409745326e+01
 1.483990028873754e+00	 6.228747741722281e-02	 2.253772872010018e+01
 1.483408945730283e+00	 7.486006752197447e-02	 2.195283216409275e+01
 1.482718920677030e+00	 8.746833631196034e-02	 2.012133467744644e+01
 1.481918972304183e+00	 1.001110843975746e-01	 1.746186377830223e+01
 1.481008133942816e+00	 1.127870884841971e-01	 1.439675684704724e+01
 1.479985454301237e+00	 1.254951014991298e-01	 1.135172689847367e+01
 1.494119647066666e+00	 0.000000000000000e+00	-9.952289374522497e+00
 1.494067774201724e+00	 1.245057201155776e-02	 2.010482441648390e+00
 1.493911448743844e+00	 2.494270322697205e-02	 1.073707746273445e+01
 1.493649618790708e+00	 3.747530869382706e-02	 1.661113047600942e+01
 1.493281244122523e+00	 5.004727902498787e-02	 2.002176502595776e+01
 1.492805296822407e+00	 6.265748044371092e-02	 2.136321889038214e+01
 1.492220761901599e+00	 7.530475484465779e-02	 2.103445555238909e+01
 1.491526637929102e+00	 8.798791987112899e-02	 1.943876190265123e+01
 1.490721937665264e+00	 1.007057690088250e-01	 1.698333243342746e+01
 1.489805688698884e+00	 1.134570716964300e-01	 1.407884022742127e+01
 1.488776934087341e+00	 1.262405734533023e-01	 1.113899508766762e+01
 1.502942676475000e+00	 0.000000000000000e+00	-1.144029761681279e+01
 1.502890497292054e+00	 1.252409474620898e-02	 1.458720278137751e-01
 1.502733248706007e+00	 2.508999411055729e-02	 8.681846073213269e+00
 1.502469872602863e+00	 3.769660673378596e-02	 1.452192170815039e+01
 1.502099322620138e+00	 5.034281667762547e-02	 1.802538890274070e+01
 1.501620564770908e+00	 6.302748347017276e-02	 1.955617810116050e+01
 1.501032578072720e+00	 7.574944216726513e-02	 1.948249501758054e+01
 1.500334355180934e+00	 8.850750343017012e-02	 1.817644276357857e+01
 1.499524903026068e+00	 1.013004536199004e-01	 1.601363156094393e+01
 1.498603243454649e+00	 1.141270549084504e-01	 1.337277633367068e+01
 1.497568413873128e+00	 1.269860454072408e-01	 1.063528251435854e+01
 1.511765705883333e+00	 0.000000000000000e+00	-1.199754434304180e+01
 1.511713220382374e+00	 1.259761748095257e-02	-1.369346729698613e+00
 1.511555048668135e+00	 2.523728499427981e-02	 6.546856101636804e+00
 1.511290126414943e+00	 3.791790477388735e-02	 1.205736448338014e+01
 1.510917401117631e+00	 5.063835433037900e-02	 1.547271216744975e+01
 1.510435832719239e+00	 6.339748649670010e-02	 1.710735395177744e+01
 1.509844394243618e+00	 7.619412948987175e-02	 1.727934229093835e+01
 1.509142072432498e+00	 8.902708698913683e-02	 1.630999310757896e+01
 1.508327868386564e+00	 1.018951382308284e-01	 1.452354104403784e+01
 1.507400798210079e+00	 1.147970381202597e-01	 1.224678443015978e+01
 1.506359893658572e+00	 1.277315173609220e-01	 9.808720281421211e+00
 1.520588735291667e+00	 0.000000000000000e+00	-1.158129237512224e+01
 1.520535943472684e+00	 1.267114021583806e-02	-2.503130661072546e+00
 1.520376848630222e+00	 2.538457587822075e-02	 4.353287777546867e+00
 1.520110380226940e+00	 3.813920281422837e-02	 9.227942651281658e+00
 1.519735479614989e+00	 5.093389198334832e-02	 1.236402789972064e+01
 1.519251100667376e+00	 6.376748952338472e-02	 1.400769680517174e+01
 1.518656210414268e+00	 7.663881681255306e-02	 1.440779873771960e+01
 1.517949789683762e+00	 8.954667054808223e-02	 1.381560773135837e+01
 1.517130833746720e+00	 1.024898228416366e-01	 1.248454310915539e+01
 1.516198352965144e+00	 1.154670213318588e-01	 1.066988240717103e+01
 1.515151373443646e+00	 1.284769893143225e-01	 8.628466880083860e+00
 1.529411764700000e+00	 0.000000000000000e+00	-1.014987946979882e+01
 1.529358666562982e+00	 1.274466295091500e-02	-3.224247510931506e+00
 1.529198648592264e+00	 2.553186676246121e-02	 2.121777529833591e+00
 1.528930634038844e+00	 3.836050085490612e-02	 6.043858698437908e+00
 1.528553558112195e+00	 5.122942963663325e-02	 8.699597728897494e+00
 1.528066368615300e+00	 6.413749255031843e-02	 1.024835503757336e+01
 1.527468026584641e+00	 7.708350413538451e-02	 1.085106475544025e+01
 1.526757506934695e+00	 9.006625410705946e-02	 1.067004497566056e+01
 1.525933799106504e+00	 1.030845074523524e-01	 9.868803406088908e+00
 1.524995907719813e+00	 1.161370045432491e-01	 8.611838641718579e+00
 1.523942853228325e+00	 1.292224612674189e-01	 7.064437298828997e+00
 1.436028055366862e+00	 1.217677417255753e-01	 9.428813425480389e+00
 1.434926126922566e+00	 1.341302352465405e-01	 7.626995195603362e+00
 1.433713842298945e+00	 1.465212781177613e-01	 6.224066023240937e+00
 1.432390326314207e+00	 1.589395609635554e-01	 5.192793542942534e+00
 1.430954721259390e+00	 1.713837512086713e-01	 4.504537103361774e+00
 1.429406187533840e+00	 1.838524932871505e-01	 4.129266480073454e+00
 1.427743904280846e+00	 1.963444088697827e-01	 4.035585802077519e+00
 1.425967070022837e+00	 2.088580971103483e-01	 4.190762816814113e+00
 1.424074903295569e+00	 2.213921349108228e-01	 4.560763594661711e+00
 1.422066643280715e+00	 2.339450772057049e-01	 5.110292748219138e+00
 1.419941550436235e+00	 2.465154572656048e-01	 5.802839214245386e+00
 1.444819535154164e+00	 1.225132136805673e-01	 1.009426070327635e+01
 1.443710860615085e+00	 1.349513913857765e-01	 8.007330937308627e+00
 1.442491154287129e+00	 1.474182932226157e-01	 6.414574235772914e+00
 1.441159535630586e+00	 1.599126017993089e-01	 5.274121116025889e+00
 1.439715141685538e+00	 1.724329763824814e-01	 4.542557634223040e+00
 1.438157127711246e+00	 1.849780531073007e-01	 4.174960930959939e+00
 1.436484667825659e+00	 1.975464452063243e-01	 4.124940728738220e+00
 1.434696955644506e+00	 2.101367432572489e-01	 4.344686901635223e+00
 1.432793204919374e+00	 2.227475154497403e-01	 4.785023211511869e+00
 1.430772650174155e+00	 2.353773078714999e-01	 5.395467277137711e+00
 1.428634547339286e+00	 2.480246448137129e-01	 6.124296812818311e+00
 1.453611014941278e+00	 1.232586856354421e-01	 1.065406686902844e+01
 1.452495594307371e+00	 1.357725475249968e-01	 8.348649173791561e+00
 1.451268466275036e+00	 1.483153083275529e-01	 6.609743835727664e+00
 1.449928744946638e+00	 1.608856426352379e-01	 5.384240359155371e+00
 1.448475562111318e+00	 1.734822015565514e-01	 4.617412523748171e+00
 1.446908067888245e+00	 1.861036129277840e-01	 4.252967916962391e+00
 1.445225431370034e+00	 1.987484815432583e-01	 4.233104016287180e+00
 1.443426841265723e+00	 2.114153894045852e-01	 4.498570938067664e+00
 1.441511506542723e+00	 2.241028959891168e-01	 4.988740941667685e+00
 1.439478657067153e+00	 2.368095385377551e-01	 5.641684747757332e+00
 1.437327544241933e+00	 2.495338323622575e-01	 6.394254697602250e+00
 1.462402494728179e+00	 1.240041575901763e-01	 1.107304796526186e+01
 1.461280327999410e+00	 1.365937036641575e-01	 8.617369148163217e+00
 1.460045778262658e+00	 1.492123234325125e-01	 6.778137288632854e+00
 1.458697954262377e+00	 1.618586834712698e-01	 5.494335748736220e+00
 1.457235982536756e+00	 1.745314267308000e-01	 4.703324866751075e+00
 1.455659008064882e+00	 1.872291727485144e-01	 4.340902657278927e+00
 1.453966194914036e+00	 1.999505178804970e-01	 4.341372520673000e+00
 1.452156726886562e+00	 2.126940355522700e-01	 4.637618075733716e+00
 1.450229808165704e+00	 2.254582765288694e-01	 5.161185199946270e+00
 1.448184663959808e+00	 2.382417692043941e-01	 5.842371329775151e+00
 1.446020541144276e+00	 2.510430199111707e-01	 6.610322039769363e+00
 1.471193974514841e+00	 1.247496295447467e-01	 1.131681039452778e+01
 1.470065061691183e+00	 1.374148598032147e-01	 8.780658494920271e+00
 1.468823090249994e+00	 1.501093385374342e-01	 6.889011961615862e+00
 1.467467163577812e+00	 1.628317243073319e-01	 5.576223113753215e+00
 1.465996402961881e+00	 1.755806519051462e-01	 4.775076983334543e+00
 1.464409948241202e+00	 1.883547325694054e-01	 4.416860390156449e+00
 1.462706958457724e+00	 2.011525542179523e-01	 4.431438348661501e+00
 1.460886612507100e+00	 2.139726817002169e-01	 4.747337918696345e+00
 1.458948109788406e+00	 2.268136570689153e-01	 5.291839581036827e+00
 1.456890670852216e+00	 2.396739998713407e-01	 5.991076185255028e+00
 1.454713538046414e+00	 2.525522074603852e-01	 6.770139482138235e+00
 1.479985454301237e+00	 1.254951014991298e-01	 1.135172689847367e+01
 1.478849795382674e+00	 1.382360159421242e-01	 8.806410575368000e+00
 1.477600402237040e+00	 1.510063536422580e-01	 6.912299187500597e+00
 1.476236372892955e+00	 1.638047651433517e-01	 5.602330757316590e+00
 1.474756823386720e+00	 1.766298770795088e-01	 4.807993882481118e+00
 1.473160888417249e+00	 1.894802923903707e-01	 4.459402418332331e+00
 1.471447722001160e+00	 2.023545905555362e-01	 4.485377679553629e+00
 1.469616498127414e+00	 2.152513278483388e-01	 4.813538271925892e+00
 1.467666411410917e+00	 2.281690376091719e-01	 5.370397632692461e+00
 1.465596677744474e+00	 2.411062305385187e-01	 6.081469323500051e+00
 1.463406534948448e+00	 2.540613950098333e-01	 6.871380083163926e+00
 1.488776934087341e+00	 1.262405734533023e-01	 1.113899508766762e+01
 1.487634529073866e+00	 1.390571720808424e-01	 8.659336529442367e+00
 1.486377714223790e+00	 1.519033687469234e-01	 6.816317254286678e+00
 1.485005582207817e+00	 1.647778059792566e-01	 5.544601380469571e+00
 1.483517243811300e+00	 1.776791022538064e-01	 4.777596684818155e+00
 1.481911828593068e+00	 1.906058522113243e-01	 4.447529368536334e+00
 1.480188485544405e+00	 2.035566268931603e-01	 4.485640020354708e+00
 1.478346383747578e+00	 2.165299739965488e-01	 4.822317222382501e+00
 1.476384713033325e+00	 2.295244181495560e-01	 5.386757861360101e+00
 1.474302684636675e+00	 2.425384612058515e-01	 6.107339584504874e+00
 1.472099531850478e+00	 2.555705825594476e-01	 6.911750285646957e+00
 1.497568413873128e+00	 1.269860454072408e-01	 1.063528251435854e+01
 1.496419262764743e+00	 1.398783282193253e-01	 8.297548087283317e+00
 1.495155026210242e+00	 1.528003838513703e-01	 6.561626737926134e+00
 1.493774791522410e+00	 1.657508468149740e-01	 5.367020379675995e+00
 1.492277664235650e+00	 1.787283274279578e-01	 4.652226500318222e+00
 1.490662768768704e+00	 1.917314120321797e-01	 4.354812733536095e+00
 1.488929249087520e+00	 2.047586632307369e-01	 4.411497737267199e+00
 1.487076269367669e+00	 2.178086201447603e-01	 4.758238590502732e+00
 1.485103014655718e+00	 2.308797986899850e-01	 5.330324929430323e+00
 1.483008691528920e+00	 2.439706918732630e-01	 6.062480053157776e+00
 1.480792528752603e+00	 2.570797701091606e-01	 6.888990909141716e+00
 1.506359893658572e+00	 1.277315173609220e-01	 9.808720281421211e+00
 1.505203996455288e+00	 1.406994843575289e-01	 7.690541715638339e+00
 1.503932338196390e+00	 1.536973989555383e-01	 6.119273780860822e+00
 1.502544000836743e+00	 1.667238876504313e-01	 5.042300310178124e+00
 1.501038084659796e+00	 1.797775526018820e-01	 4.406315010164866e+00
 1.499413708944202e+00	 1.928569718528507e-01	 4.157393165314440e+00
 1.497670012630567e+00	 2.059606995681778e-01	 4.241069130833670e+00
 1.495806154987764e+00	 2.190872662928862e-01	 4.602419819076775e+00
 1.493821316278185e+00	 2.322351792303760e-01	 5.186154395839248e+00
 1.491714698421303e+00	 2.454029225406767e-01	 5.936710413788068e+00
 1.489485525654923e+00	 2.585889576589046e-01	 6.798356621344286e+00
 1.515151373443646e+00	 1.284769893143225e-01	 8.628466880083860e+00
 1.513988730145483e+00	 1.415206404954093e-01	 6.809274943820855e+00
 1.512709650182231e+00	 1.545944140593672e-01	 5.462452352856729e+00
 1.511313210150828e+00	 1.676969284855557e-01	 4.546255880133576e+00
 1.509798505083769e+00	 1.808267777754979e-01	 4.018628167602598e+00
 1.508164649119607e+00	 1.939825316732512e-01	 3.837263915485943e+00
 1.506410776173607e+00	 2.071627359053949e-01	 3.959681194552283e+00
 1.504536040607938e+00	 2.203659124408398e-01	 4.343298080643291e+00
 1.502539617900812e+00	 2.335905597706460e-01	 4.945514823564250e+00
 1.500420705313920e+00	 2.468351532080164e-01	 5.723801775544681e+00
 1.498178522557537e+00	 2.600981452086121e-01	 6.635793317641545e+00
 1.523942853228325e+00	 1.292224612674189e-01	 7.064437298828997e+00
 1.522773463835312e+00	 1.423417966329227e-01	 5.625428596180211e+00
 1.521486962167761e+00	 1.554914291627968e-01	 4.565035479528426e+00
 1.520082419464678e+00	 1.686699693202748e-01	 3.855326807743956e+00
 1.518558925507593e+00	 1.818760029487239e-01	 3.468494333378785e+00
 1.516915589294964e+00	 1.951080914932945e-01	 3.376910752758100e+00
 1.515151539716700e+00	 2.083647722423001e-01	 3.553192067765303e+00
 1.513265926228268e+00	 2.216445585885343e-01	 3.970264452774520e+00
 1.511257919523691e+00	 2.349459403107124e-01	 4.601435835295812e+00
 1.509126712206869e+00	 2.482673838752059e-01	 5.420472414342806e+00
 1.506871519460547e+00	 2.616073327582156e-01	 6.401680356152223e+00
 1.419941550436235e+00	 2.465154572656048e-01	 5.802839214245390e+00
 1.417699298181683e+00	 2.590996468671456e-01	 6.476802730181017e+00
 1.415338839584173e+00	 2.716982758140153e-01	 6.993944889931890e+00
 1.412859501925539e+00	 2.843098186175775e-01	 7.352289711066077e+00
 1.410260636216053e+00	 2.969327296151559e-01	 7.550919472371863e+00
 1.407541617803216e+00	 3.095654433703699e-01	 7.590037868361690e+00
 1.404701846974463e+00	 3.222063750930234e-01	 7.471035507782971e+00
 1.401740749553137e+00	 3.348539210785311e-01	 7.196557525026518e+00
 1.398657777487031e+00	 3.475064591668399e-01	 6.770573040368054e+00
 1.395452409428825e+00	 3.601623492207781e-01	 6.198446171792797e+00
 1.392124151307731e+00	 3.728199336237416e-01	 5.492548112774407e+00
 1.428634547339286e+00	 2.480246448137129e-01	 6.124296812818310e+00
 1.426378567834983e+00	 2.606858758407348e-01	 6.810160054790601e+00
 1.424003658318955e+00	 2.733616346119617e-01	 7.326309768819368e+00
 1.421509141954604e+00	 2.860503862995889e-01	 7.672142022325406e+00
 1.418894365779036e+00	 2.987505757782654e-01	 7.847751300926129e+00
 1.416158701315582e+00	 3.114606280278791e-01	 7.853986848024683e+00
 1.413301545180189e+00	 3.241789485560169e-01	 7.692511844880420e+00
 1.410322319681045e+00	 3.369039238400809e-01	 7.365865215297497e+00
 1.407220473410729e+00	 3.496339217890198e-01	 6.877525804574966e+00
 1.403995481830190e+00	 3.623672922246060e-01	 6.231978647567852e+00
 1.400646847843902e+00	 3.751023673821690e-01	 5.455753388147721e+00
 1.437327544241933e+00	 2.495338323622575e-01	 6.394254697602252e+00
 1.435057837487939e+00	 2.622721048147099e-01	 7.083139889310607e+00
 1.432668477053472e+00	 2.750249934102204e-01	 7.588272986518235e+00
 1.430158781983499e+00	 2.877909539818219e-01	 7.910337963795369e+00
 1.427528095341957e+00	 3.005684219414936e-01	 8.050356321588774e+00
 1.424775784828000e+00	 3.133558126853973e-01	 8.009736832435131e+00
 1.421901243386087e+00	 3.261515220189086e-01	 7.790328637754443e+00
 1.418903889809247e+00	 3.389539266014224e-01	 7.394477494392597e+00
 1.415783169334836e+00	 3.517613844108948e-01	 6.825084933992171e+00
 1.412538554232072e+00	 3.645722352280479e-01	 6.085670061798631e+00
 1.409169544380683e+00	 3.773848011401508e-01	 5.226746383765865e+00
 1.446020541144276e+00	 2.510430199111707e-01	 6.610322039769363e+00
 1.443737107140646e+00	 2.638583337890138e-01	 7.297570203537727e+00
 1.441333295787813e+00	 2.766883522087470e-01	 7.785975811279952e+00
 1.438808422012302e+00	 2.895315216642453e-01	 8.077428825633049e+00
 1.436161824904879e+00	 3.023862681048232e-01	 8.173794679870641e+00
 1.433392868340518e+00	 3.152509973429212e-01	 8.076957651256633e+00
 1.430500941592184e+00	 3.281240954817086e-01	 7.788868108995040e+00
 1.427485459937747e+00	 3.410039293625784e-01	 7.311593450770577e+00
 1.424345865259336e+00	 3.538888470324986e-01	 6.647372504121504e+00
 1.421081626634435e+00	 3.667771782311470e-01	 5.798673130673451e+00
 1.417692240918024e+00	 3.796672348977363e-01	 4.849743502908446e+00
 1.454713538046414e+00	 2.525522074603852e-01	 6.770139482138235e+00
 1.452416376793205e+00	 2.654445627635899e-01	 7.455219299738006e+00
 1.449998114522070e+00	 2.783517110074970e-01	 7.925407649393913e+00
 1.447458062041092e+00	 2.912720893468280e-01	 8.183720694601361e+00
 1.444795554467864e+00	 3.042041142682368e-01	 8.232786736846165e+00
 1.442009951853179e+00	 3.171461820004475e-01	 8.074883435682811e+00
 1.439100639798507e+00	 3.300966689444270e-01	 7.711979441644244e+00
 1.436067030066553e+00	 3.430539321235716e-01	 7.145780270597410e+00
 1.432908561184218e+00	 3.560163096538652e-01	 6.377778208679928e+00
 1.429624699037249e+00	 3.689821212339457e-01	 5.409305996931712e+00
 1.426214937455878e+00	 3.819496686549755e-01	 4.367938894241216e+00
 1.463406534948448e+00	 2.540613950098333e-01	 6.871380083163924e+00
 1.461095646445711e+00	 2.670307917383813e-01	 7.557799860926794e+00
 1.458662933256330e+00	 2.800150698064257e-01	 8.012413254930868e+00
 1.456107702069947e+00	 2.930126570295386e-01	 8.239284884374108e+00
 1.453429284030977e+00	 3.060219604317169e-01	 8.241726781000807e+00
 1.450627035366032e+00	 3.190413666579726e-01	 8.022329674649839e+00
 1.447700338005082e+00	 3.320692424070740e-01	 7.582999244393129e+00
 1.444648600195670e+00	 3.451039348844240e-01	 6.924997178299186e+00
 1.441471257109468e+00	 3.581437722750282e-01	 6.048986843583483e+00
 1.438167771440481e+00	 3.711870642364872e-01	 4.955665909675380e+00
 1.434737633994194e+00	 3.842321024119174e-01	 3.823535063656258e+00
 1.472099531850478e+00	 2.555705825594476e-01	 6.911750285646953e+00
 1.469774916098262e+00	 2.686170207133314e-01	 7.606972919722457e+00
 1.467327751990686e+00	 2.816784286054890e-01	 8.052699754137270e+00
 1.464757342098945e+00	 2.947532247123460e-01	 8.253968072713883e+00
 1.462063013594281e+00	 3.078398065952465e-01	 8.214696337245014e+00
 1.459244118879119e+00	 3.209365513154929e-01	 7.937709756505531e+00
 1.456300036211935e+00	 3.340418158696594e-01	 7.424771388449539e+00
 1.453230170325106e+00	 3.471539376451588e-01	 6.676618632851735e+00
 1.450033953035072e+00	 3.602712348960211e-01	 5.693004928516728e+00
 1.446710843844101e+00	 3.733920072388143e-01	 4.481135587827026e+00
 1.443260330532925e+00	 3.865145361686117e-01	 3.257772380554652e+00
 1.480792528752603e+00	 2.570797701091606e-01	 6.888990909141712e+00
 1.478454185750956e+00	 2.702032496883832e-01	 7.604351751033790e+00
 1.475992570725226e+00	 2.833417874046418e-01	 8.051843492091095e+00
 1.473406982128165e+00	 2.964937923952187e-01	 8.237402157562382e+00
 1.470696743157837e+00	 3.096576527588080e-01	 8.165477089641060e+00
 1.467861202392488e+00	 3.228317359730054e-01	 7.839051017271209e+00
 1.464899734419093e+00	 3.360143893321935e-01	 7.259666241888133e+00
 1.461811740454865e+00	 3.492039404057983e-01	 6.427456810383111e+00
 1.458596648961017e+00	 3.623986975168775e-01	 5.341186501516678e+00
 1.455253916248075e+00	 3.755969502409699e-01	 4.023435913660797e+00
 1.451783027072022e+00	 3.887969699251082e-01	 2.710957524002540e+00
 1.489485525654923e+00	 2.585889576589046e-01	 6.798356621344286e+00
 1.487133455403890e+00	 2.717894786634799e-01	 7.550352631166321e+00
 1.484657389460042e+00	 2.850051462038400e-01	 8.014958657799742e+00
 1.482056622157686e+00	 2.982343600781260e-01	 8.199003530252639e+00
 1.479330472721711e+00	 3.114754989223839e-01	 8.107563433616516e+00
 1.476478285906183e+00	 3.247269206305063e-01	 7.744010315645986e+00
 1.473499432626582e+00	 3.379869627946863e-01	 7.109599326089022e+00
 1.470393310584955e+00	 3.512539431663654e-01	 6.203783402234587e+00
 1.467159344887289e+00	 3.645261601376317e-01	 5.024258120346242e+00
 1.463796988652372e+00	 3.778018932429967e-01	 3.617581244028389e+00
 1.460305723611435e+00	 3.910794036814559e-01	 2.222490912070792e+00
 1.498178522557537e+00	 2.600981452086121e-01	 6.635793317641546e+00
 1.495812725057163e+00	 2.733757076385648e-01	 7.443713023972518e+00
 1.493322208195223e+00	 2.866685050030388e-01	 7.944491949719998e+00
 1.490706262187585e+00	 2.999749277610363e-01	 8.145822009420060e+00
 1.487964202285964e+00	 3.132933450859572e-01	 8.053128889982744e+00
 1.485095369420251e+00	 3.266221052879923e-01	 7.669569826535626e+00
 1.482099130834428e+00	 3.399595362571476e-01	 6.996040135417926e+00
 1.478974880715383e+00	 3.533039459268825e-01	 6.031350756274970e+00
 1.475722040813876e+00	 3.666536227583171e-01	 4.772343102864598e+00
 1.472340061056959e+00	 3.800068362449376e-01	 3.297807719605569e+00
 1.468828420151117e+00	 3.933618374377046e-01	 1.830893155656530e+00
 1.506871519460547e+00	 2.616073327582156e-01	 6.401680356152221e+00
 1.504491994710871e+00	 2.749619366135812e-01	 7.288135921806099e+00
 1.501987026930858e+00	 2.883318638021939e-01	 7.847083834853520e+00
 1.499355902217941e+00	 3.017154954439185e-01	 8.087035379161129e+00
 1.496597931850662e+00	 3.151111912495104e-01	 8.013864939983852e+00
 1.493712452934736e+00	 3.285172899454601e-01	 7.630799113499063e+00
 1.490698829042657e+00	 3.419321097195878e-01	 6.938414889435297e+00
 1.487556450846153e+00	 3.553539486873724e-01	 5.934647485069608e+00
 1.484284736740762e+00	 3.687810853789671e-01	 4.614808420725362e+00
 1.480883133461804e+00	 3.822117792468355e-01	 3.097595922988562e+00
 1.477351116691019e+00	 3.956442711939038e-01	 1.573830576181028e+00
 1.392124151307731e+00	 3.728199336237416e-01	 5.492548112774409e+00
 1.388672537194630e+00	 3.854775379733900e-01	 4.819667508310990e+00
 1.385097130765164e+00	 3.981334721641446e-01	 4.244881778507374e+00
 1.381397524934934e+00	 4.107860304399616e-01	 3.771568059435801e+00
 1.377573342084982e+00	 4.234334917951880e-01	 3.401724996864704e+00
 1.373624234577360e+00	 4.360741205666020e-01	 3.135945134702887e+00
 1.369549885257692e+00	 4.487061670436154e-01	 2.973387429956289e+00
 1.365350007944089e+00	 4.613278680963596e-01	 2.911749923720694e+00
 1.361024347901708e+00	 4.739374478213423e-01	 2.947242604277090e+00
 1.356572682302292e+00	 4.865331182043387e-01	 3.074560505180330e+00
 1.351994820668021e+00	 4.991130798001510e-01	 3.286857088288106e+00
 1.400646847843902e+00	 3.751023673821690e-01	 5.455753388147721e+00
 1.397174102670292e+00	 3.878374626085382e-01	 4.725727390045298e+00
 1.393576807313785e+00	 4.005708774511668e-01	 4.056588542850550e+00
 1.389854552197771e+00	 4.133008957112291e-01	 3.457610062362707e+00
 1.386006957391479e+00	 4.260257858469312e-01	 2.937667381389485e+00
 1.382033673128686e+00	 4.387438015691746e-01	 2.505218068041852e+00
 1.377934380313367e+00	 4.514531824554967e-01	 2.168280621623075e+00
 1.373708791011600e+00	 4.641521545819985e-01	 1.934412139975484e+00
 1.369356648929030e+00	 4.768389311729584e-01	 1.810684860588115e+00
 1.364877729873223e+00	 4.895117132677778e-01	 1.803661586616248e+00
 1.360271842200234e+00	 5.021686904049041e-01	 1.919370018175181e+00
 1.409169544380683e+00	 3.773848011401508e-01	 5.226746383765863e+00
 1.405675668146641e+00	 3.901973872432065e-01	 4.427049441089659e+00
 1.402056483863154e+00	 4.030082827376973e-01	 3.669932639020311e+00
 1.398311579461407e+00	 4.158157609820120e-01	 2.968826931684519e+00
 1.394440572698812e+00	 4.286180798982108e-01	 2.337622348428341e+00
 1.390443111680873e+00	 4.414134825713149e-01	 1.790655744002452e+00
 1.386318875369919e+00	 4.542001978669813e-01	 1.342696344193275e+00
 1.382067574079997e+00	 4.669764410672792e-01	 1.008929047711921e+00
 1.377688949957241e+00	 4.797404145242503e-01	 8.049354552362307e-01
 1.373182777445042e+00	 4.924903083309190e-01	 7.466726071077270e-01
 1.368548863733329e+00	 5.052243010093732e-01	 8.504494222732686e-01
 1.417692240918024e+00	 3.796672348977363e-01	 4.849743502908443e+00
 1.414177233623615e+00	 3.925573118774478e-01	 3.971797979351205e+00
 1.410536160413200e+00	 4.054456880237910e-01	 3.134968322717296e+00
 1.406768606725760e+00	 4.183306262523644e-01	 2.355132604526939e+00
 1.402874188006888e+00	 4.312103739490789e-01	 1.649362588694179e+00
 1.398852550233826e+00	 4.440831635730726e-01	 1.035919615648178e+00
 1.394703370427249e+00	 4.569472132781184e-01	 5.342473648448486e-01
 1.390426357149177e+00	 4.698007275522471e-01	 1.649614260109966e-01
 1.386021250986234e+00	 4.826418978752632e-01	-5.016437906403914e-02
 1.381487825017637e+00	 4.954689033938084e-01	-8.821497026864811e-02
 1.376825885267192e+00	 5.082799116136080e-01	 7.484568816812254e-02
 1.426214937455878e+00	 3.819496686549755e-01	 4.367938894241219e+00
 1.422678799101151e+00	 3.949172365113159e-01	 3.407020995666810e+00
 1.419015836963849e+00	 4.078830933095025e-01	 2.500588379318678e+00
 1.415225633990747e+00	 4.208454915223405e-01	 1.665282673196206e+00
 1.411307803315623e+00	 4.338026679995892e-01	 9.195531443052849e-01
 1.407261988787449e+00	 4.467528445744983e-01	 2.836610187658410e-01
 1.403087865485256e+00	 4.596942286889545e-01	-2.203200732916015e-01
 1.398785140219034e+00	 4.726250140369487e-01	-5.685076256145422e-01
 1.394353552015900e+00	 4.855433812260422e-01	-7.352178414647295e-01
 1.389792872590895e+00	 4.984474984564927e-01	-6.929773486197175e-01
 1.385102906801707e+00	 5.113355222176582e-01	-4.125391013380261e-01
 1.434737633994194e+00	 3.842321024119174e-01	 3.823535063656258e+00
 1.431180364579188e+00	 3.972771611448641e-01	 2.778683488755179e+00
 1.427495513515028e+00	 4.103204985948865e-01	 1.814558723517814e+00
 1.423682661256284e+00	 4.233603567919950e-01	 9.469088108059902e-01
 1.419741418624923e+00	 4.363949620497934e-01	 1.937842425536055e-01
 1.415671427341645e+00	 4.494225255756421e-01	-4.244489820853334e-01
 1.411472360543840e+00	 4.624412440995386e-01	-8.851007655478648e-01
 1.407143923289466e+00	 4.754493005214298e-01	-1.163152910600575e+00
 1.402685853046132e+00	 4.884448645766331e-01	-1.231259818464722e+00
 1.398097920164706e+00	 5.014260935190179e-01	-1.059753981464953e+00
 1.393379928336755e+00	 5.143911328215736e-01	-6.166563502542659e-01
 1.443260330532925e+00	 3.865145361686117e-01	 3.257772380554655e+00
 1.439681930057662e+00	 3.996370857781455e-01	 2.131699596662735e+00
 1.435975190066661e+00	 4.127579038799979e-01	 1.123551749139300e+00
 1.432139688522289e+00	 4.258752220613821e-01	 2.465519516934954e-01
 1.428175033934699e+00	 4.389872560997450e-01	-4.833970607293976e-01
 1.424080865896321e+00	 4.520922065765548e-01	-1.047690833699872e+00
 1.419856855602901e+00	 4.651882595099180e-01	-1.425005993480343e+00
 1.415502706360367e+00	 4.782735870057365e-01	-1.591288091487988e+00
 1.411018154076820e+00	 4.913463479270807e-01	-1.519744624747875e+00
 1.406402967738958e+00	 5.044046885814304e-01	-1.180843348994042e+00
 1.401656949872222e+00	 5.174467434254036e-01	-5.423159851921291e-01
 1.451783027072022e+00	 3.887969699251082e-01	 2.710957524002540e+00
 1.448183495536510e+00	 4.019970104112138e-01	 1.509963574159886e+00
 1.444454866618676e+00	 4.151953091648915e-01	 4.731784804890689e-01
 1.440596715788680e+00	 4.283900873305558e-01	-3.903057222054174e-01
 1.436608649244861e+00	 4.415795501494959e-01	-1.068456379290411e+00
 1.432490304451380e+00	 4.547618875772862e-01	-1.546268775892295e+00
 1.428241350662339e+00	 4.679352749201410e-01	-1.805739867624940e+00
 1.423861489431633e+00	 4.810978734899148e-01	-1.825847348742038e+00
 1.419350455107859e+00	 4.942478312774303e-01	-1.582534209432723e+00
 1.414708015313537e+00	 5.073832836437764e-01	-1.048698918460547e+00
 1.409933971407990e+00	 5.205023540291984e-01	-1.941913509282068e-01
 1.460305723611435e+00	 3.910794036814559e-01	 2.222490912070792e+00
 1.456685061015671e+00	 4.043569350441220e-01	 9.563796632341669e-01
 1.452934543170999e+00	 4.176327144496221e-01	-9.198042579906396e-02
 1.449053743055374e+00	 4.309049525995711e-01	-9.192099402406226e-01
 1.445042264555320e+00	 4.441718441990992e-01	-1.518842589422071e+00
 1.440899743006728e+00	 4.574315685778870e-01	-1.881284122151964e+00
 1.436625845722053e+00	 4.706822903302550e-01	-1.993776528679675e+00
 1.432220272503162e+00	 4.839221599740107e-01	-1.840367713527662e+00
 1.427682756139140e+00	 4.971493146277277e-01	-1.401886808718894e+00
 1.423013062888334e+00	 5.103618787061026e-01	-6.559252811868967e-01
 1.418210992943944e+00	 5.235579646330074e-01	 4.231760285349980e-01
 1.468828420151117e+00	 3.933618374377046e-01	 1.830893155656530e+00
 1.465186626495083e+00	 4.067168596769236e-01	 5.128909016389376e-01
 1.461414219723556e+00	 4.200701197342445e-01	-5.283447817312785e-01
 1.457510770322288e+00	 4.334198178684820e-01	-1.296704600674998e+00
 1.453475879865985e+00	 4.467641382486076e-01	-1.792959473310961e+00
 1.449309181562268e+00	 4.601012495784074e-01	-2.014709498710387e+00
 1.445010340781943e+00	 4.734293057403083e-01	-1.956338172248068e+00
 1.440579055574847e+00	 4.867464464580702e-01	-1.608972047065150e+00
 1.436015057170553e+00	 5.000507979780174e-01	-9.604460267972077e-01
 1.431318110463235e+00	 5.133404737684550e-01	 4.725540993477217e-03
 1.426488014479968e+00	 5.266135752368805e-01	 1.305371817948502e+00
 1.477351116691019e+00	 3.956442711939038e-01	 1.573830576181030e+00
 1.473688191974681e+00	 4.090767843096721e-01	 2.205069123814201e-01
 1.469893896276274e+00	 4.225075250188132e-01	-7.933060272017018e-01
 1.465967797589340e+00	 4.359346831373429e-01	-1.480303082684695e+00
 1.461909495176767e+00	 4.493564322980735e-01	-1.850138370348421e+00
 1.457718620117905e+00	 4.627709305788975e-01	-1.909364003317582e+00
 1.453394835841910e+00	 4.761763211503487e-01	-1.661373863884720e+00
 1.448937838646586e+00	 4.895707329421396e-01	-1.106352640454995e+00
 1.444347358201994e+00	 5.029522813283457e-01	-2.412303277286578e-01
 1.439623158038130e+00	 5.163190688308801e-01	 9.403576267014566e-01
 1.434765036015943e+00	 5.296691858408672e-01	 2.448104362627689e+00
 1.351994820668021e+00	 4.991130798001510e-01	 3.286857088288106e+00
 1.347289794632056e+00	 5.116776564812034e-01	 3.525148067478674e+00
 1.342458246410059e+00	 5.242228865066122e-01	 3.734168446937793e+00
 1.337500084121130e+00	 5.367469388226648e-01	 3.912903101504765e+00
 1.332415249865001e+00	 5.492479737946389e-01	 4.062076431512757e+00
 1.327203720078967e+00	 5.617241439652626e-01	 4.184164206725903e+00
 1.321865505875329e+00	 5.741735948273180e-01	 4.283402057535268e+00
 1.316400653358761e+00	 5.865944656098289e-01	 4.365790594071344e+00
 1.310809243923032e+00	 5.989848900772532e-01	 4.439097146911013e+00
 1.305091394526529e+00	 6.113429973410692e-01	 4.512854136203162e+00
 1.299247257946061e+00	 6.236669126831257e-01	 4.598354089228836e+00
 1.360271842200234e+00	 5.021686904049041e-01	 1.919370018175182e+00
 1.355538011614799e+00	 5.148101884395315e-01	 2.128223657454472e+00
 1.350676884264278e+00	 5.274322213766832e-01	 2.388689066761132e+00
 1.345688367705273e+00	 5.400329469527966e-01	 2.688948959441286e+00
 1.340572403683049e+00	 5.526105142707648e-01	 3.017731736716305e+00
 1.335328968490650e+00	 5.651630645630412e-01	 3.364323094633162e+00
 1.329958073308411e+00	 5.776887319689727e-01	 3.718575864439054e+00
 1.324459764523265e+00	 5.901856443258015e-01	 4.070918093180358e+00
 1.318834124027283e+00	 6.026519239727486e-01	 4.412359381970700e+00
 1.313081269494885e+00	 6.150856885675708e-01	 4.734495510032810e+00
 1.307201354638195e+00	 6.274850519149480e-01	 5.029511383223835e+00
 1.368548863733329e+00	 5.052243010093732e-01	 8.504494222732679e-01
 1.363786228598419e+00	 5.179427203975734e-01	 1.097832892300897e+00
 1.358895522119368e+00	 5.306415562464517e-01	 1.446335073604166e+00
 1.353876651290278e+00	 5.433189550825974e-01	 1.876177505788041e+00
 1.348729557501946e+00	 5.559730547465211e-01	 2.367122377585591e+00
 1.343454216903165e+00	 5.686019851604045e-01	 2.898482385476235e+00
 1.338050640742303e+00	 5.812038691101618e-01	 3.449130134043652e+00
 1.332518875688554e+00	 5.937768230412558e-01	 3.997507109384126e+00
 1.326859004132289e+00	 6.063189578676739e-01	 4.521632265658902e+00
 1.321071144463957e+00	 6.188283797934518e-01	 4.999110273590109e+00
 1.315155451330999e+00	 6.313031911461060e-01	 5.407139488254501e+00
 1.376825885267192e+00	 5.082799116136080e-01	 7.484568816812254e-02
 1.372034445582796e+00	 5.210752523553851e-01	 4.159145118180814e-01
 1.367114159975201e+00	 5.338508911159826e-01	 8.792298649210259e-01
 1.362064934876010e+00	 5.466049632121424e-01	 1.439843333230593e+00
 1.356886711321549e+00	 5.593355952219954e-01	 2.071528550586503e+00
 1.351579465316364e+00	 5.720409057574534e-01	 2.746787810042568e+00
 1.346143208176854e+00	 5.847190062510002e-01	 3.436859249738132e+00
 1.340577986854469e+00	 5.973680017563207e-01	 4.111724667721224e+00
 1.334883884237883e+00	 6.099859917621706e-01	 4.740118027366827e+00
 1.329061019433578e+00	 6.225710710188680e-01	 5.289534722308299e+00
 1.323109548024305e+00	 6.351213303767657e-01	 5.726241676843195e+00
 1.385102906801707e+00	 5.113355222176582e-01	-4.125391013380233e-01
 1.380282662567807e+00	 5.242077843130228e-01	 6.486305377679136e-02
 1.375332797831650e+00	 5.370602259853402e-01	 6.601849146526062e-01
 1.370253218462333e+00	 5.498909713415067e-01	 1.346050765087302e+00
 1.365043865141720e+00	 5.626981356972758e-01	 2.093172469611918e+00
 1.359704713730101e+00	 5.754798263542893e-01	 2.870351349836190e+00
 1.354235775611909e+00	 5.882341433916031e-01	 3.644481395703900e+00
 1.348637098020853e+00	 6.009591804711256e-01	 4.380553887170504e+00
 1.342908764343907e+00	 6.136530256563816e-01	 5.041663508412325e+00
 1.337050894403583e+00	 6.263137622439738e-01	 5.589016043041778e+00
 1.331063644717947e+00	 6.389394696070935e-01	 5.981937744866028e+00
 1.393379928336755e+00	 5.143911328215736e-01	-6.166563502542662e-01
 1.388530879553332e+00	 5.273403162705426e-01	 2.751452358865580e-02
 1.383551435688585e+00	 5.402695608545892e-01	 7.626784244112881e-01
 1.378441502049116e+00	 5.531769794707668e-01	 1.561727582432660e+00
 1.373201018962316e+00	 5.660606761724497e-01	 2.395189226389747e+00
 1.367829962144228e+00	 5.789187469510134e-01	 3.231221249362158e+00
 1.362328343047315e+00	 5.917492805320850e-01	 4.035609699246995e+00
 1.356696209187545e+00	 6.045503591857986e-01	 4.771768189128134e+00
 1.350933644450194e+00	 6.173200595504500e-01	 5.400739329046569e+00
 1.345040769373806e+00	 6.300564534689248e-01	 5.881198286652745e+00
 1.339017741411758e+00	 6.427576088372554e-01	 6.169458589831480e+00
 1.401656949872222e+00	 5.174467434254036e-01	-5.423159851921300e-01
 1.396779096539246e+00	 5.304728482279999e-01	 2.871325325254845e-01
 1.391770073545880e+00	 5.434788957237946e-01	 1.160834690041919e+00
 1.386629785636222e+00	 5.564629875999971e-01	 2.054599639195451e+00
 1.381358172783197e+00	 5.694232166476052e-01	 2.941598638552692e+00
 1.375955210558596e+00	 5.823576675477268e-01	 3.792353044223078e+00
 1.370420910482918e+00	 5.952644176725620e-01	 4.574724346991034e+00
 1.364755320354389e+00	 6.081415379004698e-01	 5.253906369186821e+00
 1.358958524556584e+00	 6.209870934445169e-01	 5.792419741148789e+00
 1.353030644344081e+00	 6.337991446938755e-01	 6.150108783224803e+00
 1.346971838105572e+00	 6.465757480674170e-01	 6.284140924944327e+00
 1.409933971407990e+00	 5.205023540291984e-01	-1.941913509282067e-01
 1.405027313525431e+00	 5.336053801854511e-01	 8.273948852349329e-01
 1.399988711403406e+00	 5.466882305930209e-01	 1.829404154163701e+00
 1.394818069223517e+00	 5.597489957292734e-01	 2.793166328744574e+00
 1.389515326604221e+00	 5.727857571228300e-01	 3.697278044785997e+00
 1.384080458973060e+00	 5.857965881445307e-01	 4.517581563287743e+00
 1.378513477918565e+00	 5.987795548131480e-01	 5.227145634915705e+00
 1.372814431521223e+00	 6.117327166152673e-01	 5.796248496745356e+00
 1.366983404662913e+00	 6.246541273387262e-01	 6.192363138435149e+00
 1.361020519314243e+00	 6.375418359189816e-01	 6.380144981718295e+00
 1.354925934799222e+00	 6.503938872977448e-01	 6.321422123379137e+00
 1.418210992943944e+00	 5.235579646330074e-01	 4.231760285349980e-01
 1.413275530511764e+00	 5.367379121429522e-01	 1.632380598199281e+00
 1.408207349261037e+00	 5.498975654623327e-01	 2.743744116670965e+00
 1.403006352810868e+00	 5.630350038586714e-01	 3.746676867178589e+00
 1.397672480425248e+00	 5.761482975982117e-01	 4.627936008364396e+00
 1.392205707387471e+00	 5.892355087415261e-01	 5.371593865139826e+00
 1.386606045354103e+00	 6.022946919539591e-01	 5.959007914092203e+00
 1.380873542687891e+00	 6.153238953303208e-01	 6.368792608631402e+00
 1.375008284769019e+00	 6.283211612332196e-01	 6.576793197324353e+00
 1.369010394284127e+00	 6.412845271443973e-01	 6.556061696731586e+00
 1.362880031492541e+00	 6.542120265284050e-01	 6.276835187448800e+00
 1.426488014479968e+00	 5.266135752368805e-01	 1.305371817948503e+00
 1.421523747498121e+00	 5.398704441005584e-01	 2.686557331635709e+00
 1.416425987118643e+00	 5.531069003317950e-01	 3.879800076470244e+00
 1.411194636398139e+00	 5.663210119882667e-01	 4.885107360149601e+00
 1.405829634246136e+00	 5.795108380738383e-01	 5.700086892185453e+00
 1.400330955801682e+00	 5.926744293388141e-01	 6.319903070863334e+00
 1.394698612789377e+00	 6.058098290951096e-01	 6.737234395739733e+00
 1.388932653854234e+00	 6.189150740457590e-01	 6.942232164491929e+00
 1.383033164874738e+00	 6.319881951281399e-01	 6.922480622848597e+00
 1.377000269253567e+00	 6.450272183702782e-01	 6.662958745837404e+00
 1.370834128185363e+00	 6.580301657595632e-01	 6.146003837599456e+00
 1.434765036015943e+00	 5.296691858408672e-01	 2.448104362627688e+00
 1.429771964484384e+00	 5.430029760583268e-01	 3.974769218144937e+00
 1.424644624976097e+00	 5.563162352014722e-01	 5.214087678966409e+00
 1.419382919985196e+00	 5.696070201181342e-01	 6.179138621583821e+00
 1.413986788066745e+00	 5.828733785497976e-01	 6.881026270109307e+00
 1.408456204215545e+00	 5.961133499364961e-01	 7.328823056971483e+00
 1.402791180224236e+00	 6.093249662367151e-01	 7.529512780904719e+00
 1.396991765020092e+00	 6.225062527617111e-01	 7.487934233192553e+00
 1.391058044979909e+00	 6.356552290236296e-01	 7.206725475180853e+00
 1.384990144222398e+00	 6.487699095967792e-01	 6.686268961726614e+00
 1.378788224877522e+00	 6.618483049913858e-01	 5.924637716397998e+00
 1.299247257946061e+00	 6.236669126831257e-01	 4.598354089228836e+00
 1.293278048388431e+00	 6.359526727492338e-01	 4.619245465993853e+00
 1.287183007398215e+00	 6.482004958785387e-01	 4.499347235955833e+00
 1.280962395459681e+00	 6.604085011917664e-01	 4.250997205342302e+00
 1.274616509643952e+00	 6.725748073546428e-01	 3.885863629438620e+00
 1.268145683747824e+00	 6.846975334493388e-01	 3.414903591819832e+00
 1.261550288408174e+00	 6.967747998534314e-01	 2.848321559710839e+00
 1.254830731191596e+00	 7.088047291255957e-01	 2.195528292996101e+00
 1.247987456658923e+00	 7.207854468972283e-01	 1.465100289893071e+00
 1.241020946404337e+00	 7.327150827691791e-01	 6.647399569291716e-01
 1.233931719068790e+00	 7.445917712127675e-01	-2.016983252695822e-01
 1.307201354638195e+00	 6.274850519149480e-01	 5.029511383223836e+00
 1.301195601097489e+00	 6.398460263967237e-01	 5.193322819826327e+00
 1.295063245774014e+00	 6.521688316887333e-01	 5.140669768355661e+00
 1.288804550746734e+00	 6.644515753968039e-01	 4.892469450123532e+00
 1.282419814905460e+00	 6.766923646689785e-01	 4.469863166880722e+00
 1.275909374090512e+00	 6.888893070722947e-01	 3.894169331335028e+00
 1.269273601207829e+00	 7.010405114771260e-01	 3.186835351379263e+00
 1.262512906319155e+00	 7.131440889482984e-01	 2.369388544159208e+00
 1.255627736706952e+00	 7.251981536421688e-01	 1.463386264333347e+00
 1.248618576913754e+00	 7.372008237088500e-01	 4.903654382501635e-01
 1.241485948755668e+00	 7.491502221987406e-01	-5.421906567944363e-01
 1.315155451330999e+00	 6.313031911461060e-01	 5.407139488254500e+00
 1.309113153807163e+00	 6.437393800435134e-01	 5.631739268132073e+00
 1.302943484150369e+00	 6.561371674981971e-01	 5.592107520109745e+00
 1.296646706034283e+00	 6.684946496010876e-01	 5.315470106060063e+00
 1.290223120167402e+00	 6.808099219825431e-01	 4.830008829168615e+00
 1.283673064433576e+00	 6.930810806944678e-01	 4.164810732781000e+00
 1.276996914007808e+00	 7.053062231000301e-01	 3.349815168469918e+00
 1.270195081446992e+00	 7.174834487702054e-01	 2.415758808193258e+00
 1.263268016755224e+00	 7.296108603863104e-01	 1.394118785907917e+00
 1.256216207423393e+00	 7.416865646477211e-01	 3.168654790978871e-01
 1.249040178442763e+00	 7.537086731839141e-01	-8.160631689971797e-01
 1.323109548024305e+00	 6.351213303767657e-01	 5.726241676843197e+00
 1.317030706517287e+00	 6.476327336897769e-01	 5.941609715055449e+00
 1.310823722527118e+00	 6.601055033071137e-01	 5.870320009225848e+00
 1.304488861322167e+00	 6.725377238048067e-01	 5.543678226775672e+00
 1.298026425429625e+00	 6.849274792955309e-01	 4.994518085878280e+00
 1.291436754776868e+00	 6.972728543160536e-01	 4.257148522409210e+00
 1.284720226807968e+00	 7.095719347223406e-01	 3.367297777258768e+00
 1.277877256574971e+00	 7.218228085915146e-01	 2.362054577756336e+00
 1.270908296803611e+00	 7.340235671298536e-01	 1.279806599267390e+00
 1.263813837933131e+00	 7.461723055859921e-01	 1.542619660598080e-01
 1.256594408129957e+00	 7.582671241684877e-01	-1.017402201096625e+00
 1.331063644717947e+00	 6.389394696070935e-01	 5.981937744866027e+00
 1.324948259227697e+00	 6.515260873356906e-01	 6.129872455083532e+00
 1.318703960904099e+00	 6.640738391156649e-01	 5.991558297294349e+00
 1.312331016610230e+00	 6.765807980081493e-01	 5.600192862167853e+00
 1.305829730691974e+00	 6.890450366081329e-01	 4.990916120230539e+00
 1.299200445120239e+00	 7.014646279372480e-01	 4.200757039781536e+00
 1.292443539608166e+00	 7.138376463442555e-01	 3.268576509704294e+00
 1.285559431702958e+00	 7.261621684124262e-01	 2.235006739943091e+00
 1.278548576851983e+00	 7.384362738729969e-01	 1.142387326091055e+00
 1.271411468442847e+00	 7.506580465238639e-01	 1.498245849079605e-02
 1.264148637817135e+00	 7.628255751526610e-01	-1.140439982480307e+00
 1.339017741411758e+00	 6.427576088372554e-01	 6.169458589831478e+00
 1.332865811938225e+00	 6.554194409814287e-01	 6.203292319483304e+00
 1.326584199281147e+00	 6.680421749240338e-01	 5.971674883259849e+00
 1.320173171898311e+00	 6.806238722113037e-01	 5.507547908332702e+00
 1.313633035954296e+00	 6.931625939205427e-01	 4.846053875058723e+00
 1.306964135463542e+00	 7.056564015582467e-01	 4.024483752158674e+00
 1.300166852408262e+00	 7.181033579659729e-01	 3.082220552528054e+00
 1.293241606830815e+00	 7.305015282331389e-01	 2.060678981610983e+00
 1.286188856900212e+00	 7.428489806159404e-01	 1.002329542059276e+00
 1.279009098952417e+00	 7.551437874615352e-01	-8.649949008845836e-02
 1.271702867504179e+00	 7.673840261366348e-01	-1.179550483663349e+00
 1.346971838105572e+00	 6.465757480674170e-01	 6.284140924944325e+00
 1.340783364648704e+00	 6.593127946271666e-01	 6.168463653015193e+00
 1.334464437658099e+00	 6.720105107324028e-01	 5.826133186480670e+00
 1.328015327186251e+00	 6.846669464144581e-01	 5.287726369260955e+00
 1.321436341216435e+00	 6.972801512329521e-01	 4.586125395405285e+00
 1.314727825806627e+00	 7.098481751792459e-01	 3.756468011602899e+00
 1.307890165208112e+00	 7.223690695876901e-01	 2.836093485124048e+00
 1.300923781958410e+00	 7.348408880538512e-01	 1.864484508432988e+00
 1.293829136948170e+00	 7.472616873588841e-01	 8.746367360043227e-01
 1.286606729461719e+00	 7.596295283992066e-01	-1.360568508310287e-01
 1.279257097190972e+00	 7.719424771206083e-01	-1.129245419361835e+00
 1.354925934799222e+00	 6.503938872977448e-01	 6.321422123379137e+00
 1.348700917358971e+00	 6.632061482730800e-01	 6.031813127902730e+00
 1.342344676034793e+00	 6.759788465409542e-01	 5.570016635958261e+00
 1.335857482473890e+00	 6.887100206178008e-01	 4.962174054482387e+00
 1.329239646478238e+00	 7.013977085455541e-01	 4.236684496657413e+00
 1.322491516149348e+00	 7.140399488004402e-01	 3.424159085920611e+00
 1.315613478007577e+00	 7.266347812096051e-01	 2.557371097171635e+00
 1.308605957085606e+00	 7.391802478747629e-01	 1.671202105884475e+00
 1.301469416995727e+00	 7.516743941020277e-01	 7.785373526549257e-01
 1.294204359970631e+00	 7.641152693370780e-01	-1.198991478751190e-01
 1.286811326877398e+00	 7.765009281047822e-01	-9.841703974283422e-01
 1.362880031492541e+00	 6.542120265284050e-01	 6.276835187448800e+00
 1.356618470068860e+00	 6.670995019193440e-01	 5.799602401711129e+00
 1.350224914411064e+00	 6.799471823498704e-01	 5.218037381831206e+00
 1.343699637761070e+00	 6.927530948215201e-01	 4.551812735707649e+00
 1.337042951739551e+00	 7.055152658585415e-01	 3.822660785780817e+00
 1.330255206491554e+00	 7.182317224220262e-01	 3.054333493116663e+00
 1.323336790806513e+00	 7.309004928319160e-01	 2.272558515384556e+00
 1.316288132212268e+00	 7.435196076960724e-01	 1.503420538702944e+00
 1.309109697042756e+00	 7.560871008455708e-01	 7.338036364329004e-01
 1.301801990479030e+00	 7.686010102753500e-01	-2.456284111138540e-02
 1.294365556563339e+00	 7.810593790893557e-01	-7.391012076909798e-01
 1.370834128185363e+00	 6.580301657595632e-01	 6.146003837599455e+00
 1.364536022778204e+00	 6.709928555661338e-01	 5.477930625480459e+00
 1.358105152786751e+00	 6.839155181593350e-01	 4.784544644481471e+00
 1.351541793047632e+00	 6.967961690258044e-01	 4.077052784446989e+00
 1.344846257000220e+00	 7.096328231721070e-01	 3.368375061932684e+00
 1.338018896833100e+00	 7.224234960441999e-01	 2.673111667655611e+00
 1.331060103604780e+00	 7.351662044548202e-01	 2.007506667462986e+00
 1.323970307338263e+00	 7.478589675179796e-01	 1.379248102394847e+00
 1.316749977089128e+00	 7.604998075897129e-01	 7.597439818406315e-01
 1.309399620986795e+00	 7.730867512142210e-01	 1.630979509907826e-01
 1.301919786248680e+00	 7.856178300745295e-01	-3.889402450126516e-01
 1.378788224877522e+00	 6.618483049913858e-01	 5.924637716397999e+00
 1.372453575486838e+00	 6.748862092136243e-01	 5.072736808164974e+00
 1.365985391161689e+00	 6.878838539695299e-01	 4.283532715892170e+00
 1.359383948333416e+00	 7.008392432308417e-01	 3.557805311570535e+00
 1.352649562260090e+00	 7.137503804864426e-01	 2.897554121522219e+00
 1.345782587173836e+00	 7.266152696671558e-01	 2.305973985519309e+00
 1.338783416402234e+00	 7.394319160785153e-01	 1.787428110020485e+00
 1.331652482463453e+00	 7.521983273406829e-01	 1.321211140905813e+00
 1.324390257134714e+00	 7.649125143346539e-01	 8.752160944550529e-01
 1.316997251493802e+00	 7.775724921538925e-01	 4.559204022312719e-01
 1.309474015933302e+00	 7.901762810605032e-01	 7.128693884984627e-02
 1.233931719068790e+00	 7.445917712127675e-01	-2.016983252695825e-01
 1.226720330625627e+00	 7.564136527099095e-01	-9.827729099643066e-01
 1.219387375231171e+00	 7.681788753817900e-01	-1.520485632272596e+00
 1.211933484255399e+00	 7.798855952156397e-01	-1.839654667904731e+00
 1.204359325889236e+00	 7.915319767413326e-01	-1.965329519610427e+00
 1.196665605024608e+00	 8.031161939398310e-01	-1.922755551064540e+00
 1.188853063107831e+00	 8.146364311505905e-01	-1.737337196013861e+00
 1.180922477966298e+00	 8.260908839770120e-01	-1.434599913669475e+00
 1.172874663608447e+00	 8.374777601890396e-01	-1.040150968770917e+00
 1.164710469997046e+00	 8.487952806219833e-01	-5.796391219867569e-01
 1.156430782795849e+00	 8.600416800706597e-01	-7.871332331034764e-02
 1.241485948755668e+00	 7.491502221987406e-01	-5.421906567944363e-01
 1.234230411609748e+00	 7.610444782096354e-01	-1.468436234326473e+00
 1.226852563269797e+00	 7.728817285253641e-01	-2.115796913322405e+00
 1.219353038971102e+00	 7.846601178439617e-01	-2.508975661987041e+00
 1.211732510995317e+00	 7.963777994584040e-01	-2.673290222851237e+00
 1.203991688549784e+00	 8.080329361706164e-01	-2.634638999570750e+00
 1.196131317620026e+00	 8.196237012044315e-01	-2.419465055474306e+00
 1.188152180795367e+00	 8.311482791165865e-01	-2.054718289779195e+00
 1.180055097067682e+00	 8.426048667048470e-01	-1.567815866073840e+00
 1.171840921603290e+00	 8.539916739123325e-01	-9.866009761663588e-01
 1.163510545488063e+00	 8.653069247271276e-01	-3.393000306638585e-01
 1.249040178442763e+00	 7.537086731839141e-01	-8.160631689971788e-01
 1.241740492594098e+00	 7.656753037085610e-01	-1.820097571030800e+00
 1.234317751308680e+00	 7.775845816681388e-01	-2.524236424986608e+00
 1.226772593687102e+00	 7.894346404714876e-01	-2.952463710829165e+00
 1.219105696101743e+00	 8.012236221746841e-01	-3.129681197231974e+00
 1.211317772075357e+00	 8.129496784006183e-01	-3.081676162880361e+00
 1.203409572132667e+00	 8.246109712575002e-01	-2.835086779600391e+00
 1.195381883624928e+00	 8.362056742554060e-01	-2.417365218158356e+00
 1.187235530527446e+00	 8.477319732199223e-01	-1.856738547280043e+00
 1.178971373210091e+00	 8.591880672019779e-01	-1.182167505975899e+00
 1.170590308180842e+00	 8.705721693829283e-01	-4.233032385762560e-01
 1.256594408129957e+00	 7.582671241684877e-01	-1.017402201096625e+00
 1.249250573578565e+00	 7.703061292068869e-01	-2.041541372859919e+00
 1.241782939347714e+00	 7.822874348103155e-01	-2.757984277899864e+00
 1.234192148403295e+00	 7.942091630984160e-01	-3.189405217483332e+00
 1.226478881208410e+00	 8.060694448903711e-01	-3.359619853810968e+00
 1.218643855601222e+00	 8.178664206300325e-01	-3.293555242280168e+00
 1.210687826645653e+00	 8.295982413099909e-01	-3.017217188129099e+00
 1.202611586454881e+00	 8.412630693936600e-01	-2.557654983228814e+00
 1.194415963987641e+00	 8.528590797344487e-01	-1.942923589298271e+00
 1.186101824817347e+00	 8.643844604910956e-01	-1.202043344175751e+00
 1.177670070874088e+00	 8.758374140382281e-01	-3.649572779274998e-01
 1.264148637817135e+00	 7.628255751526610e-01	-1.140439982480307e+00
 1.256760654563039e+00	 7.749369547048129e-01	-2.136466342307655e+00
 1.249248127386789e+00	 7.869902879520921e-01	-2.828934276612022e+00
 1.241611703119574e+00	 7.989836857249464e-01	-3.238630495238974e+00
 1.233852066315215e+00	 8.109152676056622e-01	-3.387628166435572e+00
 1.225969939127280e+00	 8.227831628590550e-01	-3.299259731509127e+00
 1.217966081158882e+00	 8.345855113620958e-01	-2.998086817817675e+00
 1.209841289285125e+00	 8.463204645315365e-01	-2.509867300776207e+00
 1.201596397448167e+00	 8.579861862486090e-01	-1.861519576659747e+00
 1.193232276424960e+00	 8.695808537798625e-01	-1.081084118945991e+00
 1.184749833567700e+00	 8.811026586931948e-01	-1.976824017017849e-01
 1.271702867504179e+00	 7.673840261366348e-01	-1.179550483663347e+00
 1.264270735547405e+00	 7.795677802025393e-01	-2.108488153898151e+00
 1.256713315425795e+00	 7.916931410936690e-01	-2.748702588629670e+00
 1.249031257835833e+00	 8.037582083512776e-01	-3.118527468061150e+00
 1.241225251422054e+00	 8.157610903207552e-01	-3.237650498262126e+00
 1.233296022653427e+00	 8.276999050878820e-01	-3.127089474751725e+00
 1.225244335672256e+00	 8.395727814140082e-01	-2.809165328700158e+00
 1.217070992115560e+00	 8.513778596692244e-01	-2.307472201344814e+00
 1.208776830908922e+00	 8.631132927625864e-01	-1.646844603690978e+00
 1.200362728032829e+00	 8.747772470684529e-01	-8.533217299165884e-01
 1.191829596261578e+00	 8.863679033479945e-01	 4.589099593986462e-02
 1.279257097190972e+00	 7.719424771206083e-01	-1.129245419361835e+00
 1.271780816531552e+00	 7.841986057002657e-01	-1.961142084915375e+00
 1.264178503464626e+00	 7.963959942352459e-01	-2.528636110909057e+00
 1.256450812551968e+00	 8.085327309776091e-01	-2.847054889935261e+00
 1.248598436528824e+00	 8.206069130358484e-01	-2.933070800697917e+00
 1.240622106179562e+00	 8.326166473167089e-01	-2.804680982250394e+00
 1.232522590185671e+00	 8.445600514659205e-01	-2.481184084438544e+00
 1.224300694946086e+00	 8.564352548069122e-01	-1.983154035052536e+00
 1.215957264369807e+00	 8.682403992765634e-01	-1.332410875831773e+00
 1.207493179640854e+00	 8.799736403570438e-01	-5.519887309909994e-01
 1.198909358955622e+00	 8.916331480027943e-01	 3.338990167205281e-01
 1.286811326877398e+00	 7.765009281047822e-01	-9.841703974283422e-01
 1.279290897515368e+00	 7.888294311981917e-01	-1.697885558306609e+00
 1.271643691503172e+00	 8.010988473770230e-01	-2.179820546232468e+00
 1.263870367267871e+00	 8.133072536041394e-01	-2.441755102887711e+00
 1.255971621635421e+00	 8.254527357511396e-01	-2.496729210554074e+00
 1.247948189705582e+00	 8.375333895457318e-01	-2.359027034043511e+00
 1.239800844699027e+00	 8.495473215180253e-01	-2.044157940706950e+00
 1.231530397776602e+00	 8.614926499447889e-01	-1.568834633929532e+00
 1.223137697830722e+00	 8.733675057907241e-01	-9.509484471172257e-01
 1.214623631248936e+00	 8.851700336458100e-01	-2.095418566685623e-01
 1.205989121649732e+00	 8.968983926577605e-01	 6.352217162601377e-01
 1.294365556563339e+00	 7.810593790893557e-01	-7.391012076909798e-01
 1.286800978498739e+00	 7.934602566965178e-01	-1.322100601347536e+00
 1.279108879541324e+00	 8.058017005191993e-01	-1.713088201320366e+00
 1.271289921983438e+00	 8.180817762310685e-01	-1.919766352528822e+00
 1.263344806741741e+00	 8.302985584668264e-01	-1.950938069994561e+00
 1.255274273231384e+00	 8.424501317751462e-01	-1.816495600911548e+00
 1.247079099212222e+00	 8.545345915705165e-01	-1.527406273963698e+00
 1.238760100607008e+00	 8.665500450830430e-01	-1.095695666198913e+00
 1.230318131291566e+00	 8.784946123052505e-01	-5.344281291148414e-01
 1.221754082856973e+00	 8.903664269349285e-01	 1.423152731438957e-01
 1.213068884343809e+00	 9.021636373130613e-01	 9.194613495012856e-01
 1.301919786248680e+00	 7.856178300745295e-01	-3.889402450126518e-01
 1.294311059481555e+00	 7.980910821954439e-01	-8.370962234898243e-01
 1.286574067578974e+00	 8.105045536619746e-01	-1.139025517980831e+00
 1.278709476698562e+00	 8.228562988585943e-01	-1.297834679089916e+00
 1.270717991847681e+00	 8.351443811831071e-01	-1.317497392724966e+00
 1.262600356756868e+00	 8.473668740051485e-01	-1.202848110264014e+00
 1.254357353725156e+00	 8.595218616235856e-01	-9.595732814641288e-01
 1.245989803437203e+00	 8.716074402218629e-01	-5.942002153198013e-01
 1.237498564752240e+00	 8.836217188203265e-01	-1.140836049689445e-01
 1.228884534464867e+00	 8.955628202245741e-01	 4.726102364637585e-01
 1.220148647037751e+00	 9.074288819688617e-01	 1.156921371566262e+00
 1.309474015933302e+00	 7.901762810605032e-01	 7.128693884984627e-02
 1.301821140463702e+00	 8.027219076951697e-01	-2.461107166546197e-01
 1.294039255616013e+00	 8.152074068055490e-01	-4.679803480766604e-01
 1.286129031413138e+00	 8.276308214869168e-01	-5.923254010963854e-01
 1.278091176953135e+00	 8.399902039001789e-01	-6.177097987829240e-01
 1.269926440281931e+00	 8.522836162359335e-01	-5.432570834195435e-01
 1.261635608237728e+00	 8.645091316774267e-01	-3.686475819425769e-01
 1.253219506267087e+00	 8.766648353614377e-01	-9.411361509838501e-02
 1.244678998212643e+00	 8.887488253361341e-01	 2.795672193477133e-01
 1.236014986072517e+00	 9.007592135149234e-01	 7.510806488809489e-01
 1.227228409731459e+00	 9.126941266253302e-01	 1.318586163539015e+00
 1.156430782795849e+00	 8.600416800706597e-01	-7.871332331034764e-02
 1.148035087081331e+00	 8.712171004371816e-01	 3.942497503586977e-01
 1.139525741333079e+00	 8.823178827982596e-01	 7.997816137366365e-01
 1.130903741810428e+00	 8.933423018555334e-01	 1.155269508749447e+00
 1.122170119243239e+00	 9.042886497641590e-01	 1.477270329476557e+00
 1.113325938445521e+00	 9.151552369938694e-01	 1.781495050592061e+00
 1.104372297903486e+00	 9.259403931799466e-01	 2.081396217087652e+00
 1.095310329338370e+00	 9.366424679632234e-01	 2.387963019207292e+00
 1.086141197244342e+00	 9.472598318182393e-01	 2.715062690076767e+00
 1.076866098401900e+00	 9.577908768686814e-01	 3.076007401422821e+00
 1.067486261367175e+00	 9.682340176892731e-01	 3.483376791833082e+00
 1.163510545488063e+00	 8.653069247271276e-01	-3.393000306638564e-01
 1.155063450646077e+00	 8.765507619200822e-01	 2.941686853298636e-01
 1.146502009995716e+00	 8.877195041676862e-01	 8.594057659912615e-01
 1.137827225895479e+00	 8.988114156091701e-01	 1.365756165929798e+00
 1.129040135385428e+00	 9.098247779441305e-01	 1.821508745796054e+00
 1.120141809798434e+00	 9.207578912988645e-01	 2.233891328991906e+00
 1.111133354345720e+00	 9.316090750825535e-01	 2.609067686414693e+00
 1.102015907676997e+00	 9.423766688324032e-01	 2.949818125681450e+00
 1.092790641415547e+00	 9.530590330468713e-01	 3.258469441492115e+00
 1.083458759668644e+00	 9.636545500061029e-01	 3.539091766950088e+00
 1.074021498513723e+00	 9.741616245787251e-01	 3.794872255442341e+00
 1.170590308180842e+00	 8.705721693829283e-01	-4.233032385762560e-01
 1.162091814211381e+00	 8.818844234023586e-01	 3.307142649258876e-01
 1.153478278658884e+00	 8.931211255365393e-01	 1.012893469932106e+00
 1.144750709981022e+00	 9.042805293622875e-01	 1.625797402719433e+00
 1.135910151528057e+00	 9.153609061236397e-01	 2.170762896254972e+00
 1.126957681151730e+00	 9.263605456034574e-01	 2.647904839725741e+00
 1.117894410788274e+00	 9.372777569848159e-01	 3.056122648651570e+00
 1.108721486015878e+00	 9.481108697012941e-01	 3.392953617824620e+00
 1.099440085586944e+00	 9.588582342752672e-01	 3.651953771764446e+00
 1.090051420935520e+00	 9.695182231433344e-01	 3.828163368372601e+00
 1.080556735660355e+00	 9.800892314680262e-01	 3.916993600606866e+00
 1.177670070874088e+00	 8.758374140382281e-01	-3.649572779274998e-01
 1.169120177777142e+00	 8.872180848841675e-01	 4.721470206668538e-01
 1.160454547322483e+00	 8.985227469049618e-01	 1.231878348799496e+00
 1.151674194066956e+00	 9.097496431150145e-01	 1.911257297202718e+00
 1.142780167671029e+00	 9.208970343028016e-01	 2.505963114685435e+00
 1.133773552505311e+00	 9.319631999077448e-01	 3.010345730022758e+00
 1.124655467231051e+00	 9.429464388868150e-01	 3.417440205781252e+00
 1.115427064354921e+00	 9.538450705699615e-01	 3.718983546013260e+00
 1.106089529758441e+00	 9.646574355034747e-01	 3.904823985899293e+00
 1.096644082202444e+00	 9.753818962804091e-01	 3.961438415511278e+00
 1.087091972806987e+00	 9.860168383571938e-01	 3.877556874213040e+00
 1.184749833567700e+00	 8.811026586931948e-01	-1.976824017017847e-01
 1.176148541343259e+00	 8.925517463656647e-01	 6.874821786576457e-01
 1.167430815986413e+00	 9.039243682730971e-01	 1.488668375183525e+00
 1.158597678153183e+00	 9.152187568674810e-01	 2.198573465177641e+00
 1.149650183814242e+00	 9.264331624817297e-01	 2.808492506551625e+00
 1.140589423859077e+00	 9.375658542118251e-01	 3.308336726264532e+00
 1.131416523673954e+00	 9.486151207886326e-01	 3.686654471633025e+00
 1.122132642694029e+00	 9.595792714384703e-01	 3.930654633932225e+00
 1.112738973929948e+00	 9.704566367315428e-01	 4.026232445469387e+00
 1.103236743469326e+00	 9.812455694173582e-01	 3.956702265275526e+00
 1.093627209953537e+00	 9.919444452462444e-01	 3.703718308889274e+00
 1.191829596261578e+00	 8.863679033479945e-01	 4.589099593986301e-02
 1.183176904909634e+00	 8.978854078470058e-01	 9.464672247921843e-01
 1.174407084650574e+00	 9.093259896410880e-01	 1.756225843946472e+00
 1.165521162239601e+00	 9.206878706198163e-01	 2.464740049440796e+00
 1.156520199957599e+00	 9.319692906605380e-01	 3.060173547950387e+00
 1.147405295212932e+00	 9.431685085157975e-01	 3.529303920283362e+00
 1.138177580116887e+00	 9.542838026903513e-01	 3.857548599031175e+00
 1.128838221033110e+00	 9.653134723068855e-01	 4.028993359198422e+00
 1.119388418101373e+00	 9.762558379595201e-01	 4.026423212157701e+00
 1.109829404736078e+00	 9.871092425542138e-01	 3.831322907542353e+00
 1.100162447099921e+00	 9.978720521351953e-01	 3.421994622042829e+00
 1.198909358955622e+00	 8.916331480027943e-01	 3.338990167205281e-01
 1.190205268476166e+00	 9.032190693283465e-01	 1.219560263259201e+00
 1.181383353314868e+00	 9.147276110090786e-01	 2.008148053537283e+00
 1.172444646326112e+00	 9.261569843721487e-01	 2.687291310998736e+00
 1.163390216101001e+00	 9.375054188393419e-01	 3.243255159058686e+00
 1.154221166566777e+00	 9.487711628197595e-01	 3.660967882171384e+00
 1.144938636559754e+00	 9.599524845920514e-01	 3.924050473423395e+00
 1.135543799372068e+00	 9.710476731752720e-01	 4.014848658788031e+00
 1.126037862272624e+00	 9.820550391874548e-01	 3.914467279613209e+00
 1.116422066002613e+00	 9.929729156910094e-01	 3.602806906956025e+00
 1.106697684246055e+00	 1.003799659024063e+00	 3.058282615547411e+00
 1.205989121649732e+00	 8.968983926577605e-01	 6.352217162601379e-01
 1.197233632042755e+00	 9.085527308098434e-01	 1.477909135750929e+00
 1.188359621979193e+00	 9.201292323772123e-01	 2.218648666587911e+00
 1.179368130412618e+00	 9.316260981246085e-01	 2.844285797470839e+00
 1.170260232244350e+00	 9.430415470182544e-01	 3.340400232531502e+00
 1.161037037920516e+00	 9.543738171238091e-01	 3.691335086182891e+00
 1.151699693002458e+00	 9.656211664938156e-01	 3.880228558680399e+00
 1.142249377710810e+00	 9.767818740436952e-01	 3.889047975728812e+00
 1.132687306443609e+00	 9.878542404153952e-01	 3.698626066975673e+00
 1.123014727268843e+00	 9.988365888277762e-01	 3.288699350374091e+00
 1.113232921391856e+00	 1.009727265912864e+00	 2.637948482224269e+00
 1.213068884343809e+00	 9.021636373130613e-01	 9.194613495012856e-01
 1.204261995609301e+00	 9.138863922916518e-01	 1.693331270296596e+00
 1.195335890643451e+00	 9.255308537456317e-01	 2.362539722039937e+00
 1.186291614499018e+00	 9.370952118773249e-01	 2.914291065103155e+00
 1.177130248387545e+00	 9.485776751973894e-01	 3.334673598263433e+00
 1.167852909274049e+00	 9.599764714280448e-01	 3.608689636938617e+00
 1.158460749444903e+00	 9.712898483957252e-01	 3.720287888849729e+00
 1.148954956049241e+00	 9.825160749122200e-01	 3.652398005509530e+00
 1.139336750614238e+00	 9.936534416433901e-01	 3.386967179668959e+00
 1.129607388534680e+00	 1.004700261964547e+00	 2.904998651251395e+00
 1.119768158537242e+00	 1.015654872801615e+00	 2.186591977407899e+00
 1.220148647037751e+00	 9.074288819688617e-01	 1.156921371566262e+00
 1.211290359175705e+00	 9.192200537739282e-01	 1.838294230086302e+00
 1.202312159307539e+00	 9.309324751144801e-01	 2.415214272338917e+00
 1.193215098585211e+00	 9.425643256304265e-01	 2.876368931907361e+00
 1.184000264530489e+00	 9.541138033768618e-01	 3.209530406790398e+00
 1.174668780627279e+00	 9.655791257325644e-01	 3.401585283734936e+00
 1.165221805886993e+00	 9.769585302978617e-01	 3.438566199935645e+00
 1.155660534387266e+00	 9.882502757809111e-01	 3.305685417414275e+00
 1.145986194784419e+00	 9.994526428714876e-01	 2.987370177506941e+00
 1.136200049800036e+00	 1.010563935101354e+00	 2.467299695690390e+00
 1.126303395682128e+00	 1.021582479690333e+00	 1.728443650508440e+00
 1.227228409731459e+00	 9.126941266253302e-01	 1.318586163539015e+00
 1.218318722741866e+00	 9.245537152568284e-01	 1.885896934017519e+00
 1.209288427971361e+00	 9.363340964839008e-01	 2.352629620454494e+00
 1.200138582671100e+00	 9.480334393840433e-01	 2.710061240476806e+00
 1.190870280673080e+00	 9.596499315567852e-01	 2.948804914425790e+00
 1.181484651980107e+00	 9.711817800374664e-01	 3.058837711323307e+00
 1.171982862328630e+00	 9.826272122003074e-01	 3.029530196050082e+00
 1.162366112724793e+00	 9.939844766498344e-01	 2.849677551794441e+00
 1.152635638954060e+00	 1.005251844099736e+00	 2.507532144482090e+00
 1.142792711064822e+00	 1.016427608238230e+00	 1.990837389253749e+00
 1.132838632826431e+00	 1.027510086579036e+00	 1.286862773161597e+00
 1.067486261367175e+00	 9.682340176892731e-01	 3.483376791833083e+00
 1.058004563832146e+00	 9.785859426644694e-01	 3.846643137399201e+00
 1.048420696020508e+00	 9.888469111185910e-01	 4.073585338381944e+00
 1.038735960952127e+00	 9.990154272920019e-01	 4.175028406277757e+00
 1.028951691128298e+00	 1.009090020914066e+00	 4.163876548880504e+00
 1.019069247916471e+00	 1.019069247916471e+00	 4.055099482118759e+00
 1.009090020914065e+00	 1.028951691128298e+00	 3.865715179979119e+00
 9.990154272920018e-01	 1.038735960952127e+00	 3.614769076621382e+00
 9.888469111185908e-01	 1.048420696020508e+00	 3.323309744458448e+00
 9.785859426644695e-01	 1.058004563832147e+00	 3.014361081629428e+00
 9.682340176892732e-01	 1.067486261367175e+00	 2.712891051899196e+00
 1.074021498513723e+00	 9.741616245787251e-01	 3.794872255442341e+00
 1.064481753260220e+00	 9.845769248752173e-01	 3.955889622786653e+00
 1.054839212235358e+00	 9.949007118074958e-01	 3.965477757304916e+00
 1.045095186436212e+00	 1.005131480458752e+00	 3.848086603102068e+00
 1.035251016521766e+00	 1.015267751557224e+00	 3.631034073937593e+00
 1.025308072193884e+00	 1.025308072193884e+00	 3.344472304381302e+00
 1.015267751557224e+00	 1.035251016521766e+00	 3.021349189043482e+00
 1.005131480458752e+00	 1.045095186436212e+00	 2.697365258557463e+00
 9.949007118074955e-01	 1.054839212235358e+00	 2.410925953026029e+00
 9.845769248752170e-01	 1.064481753260220e+00	 2.203089365576746e+00
 9.741616245787251e-01	 1.074021498513723e+00	 2.117509540461032e+00
 1.080556735660355e+00	 9.800892314680262e-01	 3.916993600606867e+00
 1.070958942688337e+00	 9.905679070858453e-01	 3.876431938960887e+00
 1.061257728450222e+00	 1.000954512496305e+00	 3.689428131899785e+00
 1.051454411920286e+00	 1.011247533625426e+00	 3.390691283209162e+00
 1.041550341915204e+00	 1.021445482200321e+00	 3.018379045350994e+00
 1.031546896471251e+00	 1.031546896471251e+00	 2.614048596761355e+00
 1.021445482200321e+00	 1.041550341915204e+00	 2.222602050068835e+00
 1.011247533625427e+00	 1.051454411920286e+00	 1.892226366174110e+00
 1.000954512496305e+00	 1.061257728450222e+00	 1.674327862954676e+00
 9.905679070858451e-01	 1.070958942688337e+00	 1.623461421018001e+00
 9.800892314680263e-01	 1.080556735660355e+00	 1.797254502368488e+00
 1.087091972806987e+00	 9.860168383571938e-01	 3.877556874213040e+00
 1.077436132116420e+00	 9.965588892963561e-01	 3.644308958503093e+00
 1.067676244665028e+00	 1.007008313185007e+00	 3.286312778515405e+00
 1.057813637404285e+00	 1.017363586792000e+00	 2.845232767574007e+00
 1.047849667308557e+00	 1.027623212843323e+00	 2.366556859840470e+00
 1.037785720748525e+00	 1.037785720748526e+00	 1.899536930950505e+00
 1.027623212843322e+00	 1.047849667308557e+00	 1.497123102497012e+00
 1.017363586792000e+00	 1.057813637404286e+00	 1.215892003324010e+00
 1.007008313185007e+00	 1.067676244665028e+00	 1.115969095640549e+00
 9.965588892963556e-01	 1.077436132116421e+00	 1.260945188798601e+00
 9.860168383571939e-01	 1.087091972806987e+00	 1.717787278148275e+00
 1.093627209953537e+00	 9.919444452462444e-01	 3.703718308889274e+00
 1.083913321544392e+00	 1.002549871506752e+00	 3.294703642222665e+00
 1.074094760879704e+00	 1.013062113873592e+00	 2.796036872328314e+00
 1.064172862888146e+00	 1.023479639958449e+00	 2.253094392472065e+00
 1.054148992701770e+00	 1.033800943486192e+00	 1.715247928393121e+00
 1.044024545025664e+00	 1.044024545025664e+00	 1.235799131041633e+00
 1.033800943486192e+00	 1.054148992701770e+00	 8.719077534536102e-01
 1.023479639958449e+00	 1.064172862888146e+00	 6.845135145852729e-01
 1.013062113873591e+00	 1.074094760879704e+00	 7.382517686278086e-01
 1.002549871506751e+00	 1.083913321544392e+00	 1.101363113791550e+00
 9.919444452462445e-01	 1.093627209953537e+00	 1.845597089720942e+00
 1.100162447099921e+00	 9.978720521351953e-01	 3.421994622042829e+00
 1.090390510972175e+00	 1.008540853717035e+00	 2.861969173906443e+00
 1.080513277094179e+00	 1.019115914562047e+00	 2.257564014546109e+00
 1.070532088371804e+00	 1.029595693124751e+00	 1.654683149877198e+00
 1.060448318094786e+00	 1.039978674128896e+00	 1.103197076415858e+00
 1.050263369302618e+00	 1.050263369302618e+00	 6.568761675994412e-01
 1.039978674128896e+00	 1.060448318094786e+00	 3.733176492515037e-01
 1.029595693124751e+00	 1.070532088371805e+00	 3.138662687717149e-01
 1.019115914562046e+00	 1.080513277094179e+00	 5.435287784264718e-01
 1.008540853717034e+00	 1.090390510972174e+00	 1.130882368673654e+00
 9.978720521351953e-01	 1.100162447099921e+00	 2.147977202717101e+00
 1.106697684246055e+00	 1.003799659024063e+00	 3.058282615547411e+00
 1.096867700399689e+00	 1.014531835927208e+00	 2.379654189051204e+00
 1.086931793308381e+00	 1.025169715250360e+00	 1.708944772058868e+00
 1.076891313855196e+00	 1.035711746290880e+00	 1.089459262347133e+00
 1.066747643487552e+00	 1.046156404771397e+00	 5.682419223649368e-01
 1.056502193579344e+00	 1.056502193579344e+00	 1.960131544614064e-01
 1.046156404771397e+00	 1.066747643487552e+00	 2.710015239252772e-02
 1.035711746290880e+00	 1.076891313855196e+00	 1.193615274155827e-01
 1.025169715250361e+00	 1.086931793308381e+00	 5.341060226138850e-01
 1.014531835927207e+00	 1.096867700399689e+00	 1.336005444209264e+00
 1.003799659024063e+00	 1.106697684246055e+00	 2.593001953455334e+00
 1.113232921391856e+00	 1.009727265912864e+00	 2.637948482224269e+00
 1.103344889826858e+00	 1.020522818137272e+00	 1.880527134811665e+00
 1.093350309522240e+00	 1.031223515938523e+00	 1.187344231766396e+00
 1.083250539338258e+00	 1.041827799456814e+00	 5.959647361835820e-01
 1.073046968880010e+00	 1.052334135413661e+00	 1.473402768319978e-01
 1.062741017855794e+00	 1.062741017855794e+00	-1.143165148579408e-01
 1.052334135413661e+00	 1.073046968880010e+00	-1.415928473913478e-01
 1.041827799456814e+00	 1.083250539338258e+00	 1.160579152787518e-01
 1.031223515938523e+00	 1.093350309522240e+00	 7.122445637168716e-01
 1.020522818137272e+00	 1.103344889826858e+00	 1.703561090981997e+00
 1.009727265912864e+00	 1.113232921391856e+00	 3.150086083988174e+00
 1.119768158537242e+00	 1.015654872801615e+00	 2.186591977407899e+00
 1.109822079253605e+00	 1.026513800347230e+00	 1.396599796659309e+00
 1.099768825735684e+00	 1.037277316626523e+00	 7.290686098364993e-01
 1.089609764820927e+00	 1.047943852622529e+00	 2.118509346099604e-01
 1.079346294272108e+00	 1.058511866055653e+00	-1.234033978936121e-01
 1.068979842131924e+00	 1.068979842131924e+00	-2.423878560065614e-01
 1.058511866055653e+00	 1.079346294272107e+00	-1.081867608487773e-01
 1.047943852622529e+00	 1.089609764820926e+00	 3.186725091533463e-01
 1.037277316626523e+00	 1.099768825735684e+00	 1.080162737254375e+00
 1.026513800347230e+00	 1.109822079253605e+00	 2.220695598218168e+00
 1.015654872801615e+00	 1.119768158537242e+00	 3.796739325024777e+00
 1.126303395682128e+00	 1.021582479690333e+00	 1.728443650508440e+00
 1.116299268679850e+00	 1.032504782557086e+00	 9.594385784917984e-01
 1.106187341948641e+00	 1.043331117314347e+00	 3.695909542819434e-01
 1.095968990303136e+00	 1.054059905788001e+00	-2.609478922789543e-02
 1.085645619663787e+00	 1.064689596697337e+00	-2.087124296243280e-01
 1.075218666407687e+00	 1.075218666407687e+00	-1.572017743584541e-01
 1.064689596697337e+00	 1.085645619663787e+00	 1.513332602737835e-01
 1.054059905788000e+00	 1.095968990303137e+00	 7.415915604566876e-01
 1.043331117314347e+00	 1.106187341948641e+00	 1.640038206210692e+00
 1.032504782557085e+00	 1.116299268679850e+00	 2.878329287679951e+00
 1.021582479690333e+00	 1.126303395682128e+00	 4.505866094197210e+00
 1.132838632826431e+00	 1.027510086579036e+00	 1.286862773161598e+00
 1.122776458105517e+00	 1.038495764766839e+00	 6.000661288487511e-01
 1.112605858161041e+00	 1.049384918001987e+00	 1.435907465166056e-01
 1.102328215784825e+00	 1.060175958953205e+00	-8.192336147028978e-02
 1.091944945054995e+00	 1.070867327338678e+00	-7.411324303492117e-02
 1.081457490683039e+00	 1.081457490683039e+00	 1.715366946721052e-01
 1.070867327338677e+00	 1.091944945054995e+00	 6.604392946569309e-01
 1.060175958953205e+00	 1.102328215784825e+00	 1.398880866410830e+00
 1.049384918001987e+00	 1.112605858161041e+00	 2.394296873124123e+00
 1.038495764766839e+00	 1.122776458105517e+00	 3.671369038584524e+00
 1.027510086579036e+00	 1.132838632826431e+00	 5.248557123230309e+00
 9.682340176892732e-01	 1.067486261367175e+00	 2.712891051899196e+00
 9.577908768686817e-01	 1.076866098401900e+00	 2.577854966867177e+00
 9.472598318182397e-01	 1.086141197244342e+00	 2.720803643582709e+00
 9.366424679632236e-01	 1.095310329338370e+00	 3.095091464511721e+00
 9.259403931799469e-01	 1.104372297903486e+00	 3.651734959580569e+00
 9.151552369938699e-01	 1.113325938445520e+00	 4.340089051192422e+00
 9.042886497641597e-01	 1.122170119243239e+00	 5.119746263260124e+00
 8.933423018555336e-01	 1.130903741810428e+00	 5.939534084093562e+00
 8.823178827982596e-01	 1.139525741333079e+00	 6.740500568494840e+00
 8.712171004371820e-01	 1.148035087081330e+00	 7.461557059733499e+00
 8.600416800706600e-01	 1.156430782795849e+00	 8.039563701664346e+00
 9.741616245787251e-01	 1.074021498513723e+00	 2.117509540461032e+00
 9.636545500061029e-01	 1.083458759668643e+00	 2.284171062594151e+00
 9.530590330468716e-01	 1.092790641415546e+00	 2.761492669083642e+00
 9.423766688324036e-01	 1.102015907676997e+00	 3.485043205611344e+00
 9.316090750825543e-01	 1.111133354345720e+00	 4.386950506313299e+00
 9.207578912988649e-01	 1.120141809798433e+00	 5.406074825303505e+00
 9.098247779441311e-01	 1.129040135385428e+00	 6.477187135355102e+00
 8.988114156091702e-01	 1.137827225895479e+00	 7.521482860022142e+00
 8.877195041676870e-01	 1.146502009995716e+00	 8.456959482425940e+00
 8.765507619200824e-01	 1.155063450646077e+00	 9.198535357463037e+00
 8.653069247271273e-01	 1.163510545488063e+00	 9.658172756054602e+00
 9.800892314680263e-01	 1.080556735660355e+00	 1.797254502368488e+00
 9.695182231433349e-01	 1.090051420935520e+00	 2.281133030259575e+00
 9.588582342752678e-01	 1.099440085586944e+00	 3.071393173795869e+00
 9.481108697012945e-01	 1.108721486015878e+00	 4.091134565517609e+00
 9.372777569848162e-01	 1.117894410788274e+00	 5.264991957903321e+00
 9.263605456034578e-01	 1.126957681151730e+00	 6.521749927472788e+00
 9.153609061236404e-01	 1.135910151528057e+00	 7.771807231094566e+00
 9.042805293622878e-01	 1.144750709981022e+00	 8.920812546363525e+00
 8.931211255365400e-01	 1.153478278658883e+00	 9.870516259972179e+00
 8.818844234023591e-01	 1.162091814211381e+00	 1.051891530847330e+01
 8.705721693829281e-01	 1.170590308180842e+00	 1.076040312470676e+01
 9.860168383571939e-01	 1.087091972806987e+00	 1.717787278148275e+00
 9.753818962804095e-01	 1.096644082202443e+00	 2.515888634505177e+00
 9.646574355034749e-01	 1.106089529758441e+00	 3.584433533984113e+00
 9.538450705699616e-01	 1.115427064354920e+00	 4.841626363169847e+00
 9.429464388868155e-01	 1.124655467231050e+00	 6.214697099754748e+00
 9.319631999077452e-01	 1.133773552505310e+00	 7.612440473427791e+00
 9.208970343028015e-01	 1.142780167671028e+00	 8.935844953782214e+00
 9.097496431150143e-01	 1.151674194066955e+00	 1.008142060435990e+01
 8.985227469049623e-01	 1.160454547322482e+00	 1.094135385517617e+01
 8.872180848841679e-01	 1.169120177777141e+00	 1.140366817702122e+01
 8.758374140382283e-01	 1.177670070874088e+00	 1.135239040792220e+01
 9.919444452462445e-01	 1.093627209953537e+00	 1.845597089720942e+00
 9.812455694173584e-01	 1.103236743469325e+00	 2.936855932983671e+00
 9.704566367315433e-01	 1.112738973929948e+00	 4.236467826685492e+00
 9.595792714384708e-01	 1.122132642694029e+00	 5.672606865528224e+00
 9.486151207886331e-01	 1.131416523673954e+00	 7.161169284787126e+00
 9.375658542118255e-01	 1.140589423859076e+00	 8.605249528564773e+00
 9.264331624817299e-01	 1.149650183814241e+00	 9.903150582397600e+00
 9.152187568674813e-01	 1.158597678153182e+00	 1.094853787605867e+01
 9.039243682730975e-01	 1.167430815986412e+00	 1.163059956506029e+01
 8.925517463656650e-01	 1.176148541343259e+00	 1.183421294570395e+01
 8.811026586931948e-01	 1.184749833567700e+00	 1.144011674466027e+01
 9.978720521351953e-01	 1.100162447099921e+00	 2.147977202717101e+00
 9.871092425542144e-01	 1.109829404736077e+00	 3.493686295482460e+00
 9.762558379595202e-01	 1.119388418101372e+00	 4.972324426689856e+00
 9.653134723068858e-01	 1.128838221033109e+00	 6.514453143604618e+00
 9.542838026903514e-01	 1.138177580116886e+00	 8.031282756900344e+00
 9.431685085157979e-01	 1.147405295212931e+00	 9.429003634124973e+00
 9.319692906605388e-01	 1.156520199957599e+00	 1.060913769149965e+01
 9.206878706198163e-01	 1.165521162239601e+00	 1.146868826785360e+01
 9.093259896410884e-01	 1.174407084650574e+00	 1.190029626128881e+01
 8.978854078470058e-01	 1.183176904909634e+00	 1.179240229197072e+01
 8.863679033479948e-01	 1.191829596261578e+00	 1.102941464062280e+01
 1.003799659024063e+00	 1.106697684246055e+00	 2.593001953455334e+00
 9.929729156910099e-01	 1.116422066002613e+00	 4.140861676443469e+00
 9.820550391874551e-01	 1.126037862272623e+00	 5.733956965376081e+00
 9.710476731752724e-01	 1.135543799372068e+00	 7.298481943117148e+00
 9.599524845920520e-01	 1.144938636559753e+00	 8.753629674645021e+00
 9.487711628197597e-01	 1.154221166566777e+00	 1.001420122030866e+01
 9.375054188393421e-01	 1.163390216101001e+00	 1.099073628439070e+01
 9.261569843721493e-01	 1.172444646326112e+00	 1.158964985422293e+01
 9.147276110090794e-01	 1.181383353314868e+00	 1.171337463260365e+01
 9.032190693283471e-01	 1.190205268476166e+00	 1.126050905273630e+01
 8.916331480027944e-01	 1.198909358955622e+00	 1.012597065170878e+01
 1.009727265912864e+00	 1.113232921391856e+00	 3.150086083988173e+00
 9.988365888277767e-01	 1.123014727268842e+00	 4.837823868877564e+00
 9.878542404153958e-01	 1.132687306443609e+00	 6.461567513748606e+00
 9.767818740436959e-01	 1.142249377710809e+00	 7.957612790200074e+00
 9.656211664938161e-01	 1.151699693002457e+00	 9.258468993528645e+00
 9.543738171238096e-01	 1.161037037920515e+00	 1.029296282878670e+01
 9.430415470182546e-01	 1.170260232244349e+00	 1.098634756913835e+01
 9.316260981246093e-01	 1.179368130412618e+00	 1.126041734330448e+01
 9.201292323772127e-01	 1.188359621979193e+00	 1.103362639649955e+01
 9.085527308098439e-01	 1.197233632042755e+00	 1.022121315703876e+01
 8.968983926577605e-01	 1.205989121649732e+00	 8.735328928781364e+00
 1.015654872801615e+00	 1.119768158537242e+00	 3.796739325024776e+00
 1.004700261964548e+00	 1.129607388534679e+00	 5.538089251975942e+00
 9.936534416433908e-01	 1.139336750614238e+00	 7.096743470505321e+00
 9.825160749122203e-01	 1.148954956049240e+00	 8.426320536561830e+00
 9.712898483957254e-01	 1.158460749444902e+00	 9.477677131025045e+00
 9.599764714280448e-01	 1.167852909274048e+00	 1.019898307068963e+01
 9.485776751973897e-01	 1.177130248387545e+00	 1.053580031033859e+01
 9.370952118773251e-01	 1.186291614499017e+00	 1.043116584867200e+01
 9.255308537456318e-01	 1.195335890643450e+00	 9.825678440540459e+00
 9.138863922916524e-01	 1.204261995609301e+00	 8.657589007621059e+00
 9.021636373130609e-01	 1.213068884343809e+00	 6.862894629414591e+00
 1.021582479690333e+00	 1.126303395682128e+00	 4.505866094197210e+00
 1.010563935101354e+00	 1.136200049800035e+00	 6.196038592073503e+00
 9.994526428714882e-01	 1.145986194784418e+00	 7.582416697617237e+00
 9.882502757809116e-01	 1.155660534387266e+00	 8.640589549788936e+00
 9.769585302978622e-01	 1.165221805886992e+00	 9.344700341880596e+00
 9.655791257325650e-01	 1.174668780627278e+00	 9.667484249585348e+00
 9.541138033768621e-01	 1.184000264530488e+00	 9.580308692619411e+00
 9.425643256304270e-01	 1.193215098585211e+00	 9.053215914260210e+00
 9.309324751144803e-01	 1.202312159307539e+00	 8.054967855560237e+00
 9.192200537739287e-01	 1.211290359175705e+00	 6.553093293203021e+00
 9.074288819688618e-01	 1.220148647037751e+00	 4.513937202022972e+00
 1.027510086579036e+00	 1.132838632826431e+00	 5.248557123230307e+00
 1.016427608238230e+00	 1.142792711064822e+00	 6.767093548494680e+00
 1.005251844099737e+00	 1.152635638954059e+00	 7.862824063760165e+00
 9.939844766498350e-01	 1.162366112724792e+00	 8.537869482361211e+00
 9.826272122003075e-01	 1.171982862328630e+00	 8.794508734652359e+00
 9.711817800374670e-01	 1.181484651980107e+00	 8.635171582210004e+00
 9.596499315567855e-01	 1.190870280673080e+00	 8.062431634837871e+00
 9.480334393840437e-01	 1.200138582671100e+00	 7.078999741833872e+00
 9.363340964839015e-01	 1.209288427971361e+00	 5.687717824731771e+00
 9.245537152568286e-01	 1.218318722741866e+00	 3.891553214052515e+00
 9.126941266253301e-01	 1.227228409731459e+00	 1.693593547528505e+00
 8.600416800706600e-01	 1.156430782795849e+00	 8.039563701664346e+00
 8.487952806219835e-01	 1.164710469997046e+00	 8.336807803306852e+00
 8.374777601890396e-01	 1.172874663608447e+00	 8.292669554525322e+00
 8.260908839770124e-01	 1.180922477966298e+00	 7.959718628903588e+00
 8.146364311505910e-01	 1.188853063107831e+00	 7.392850090642495e+00
 8.031161939398316e-01	 1.196665605024608e+00	 6.649184230556872e+00
 7.915319767413330e-01	 1.204359325889236e+00	 5.787964549767242e+00
 7.798855952156404e-01	 1.211933484255399e+00	 4.870454089168121e+00
 7.681788753817906e-01	 1.219387375231171e+00	 3.959830300896027e+00
 7.564136527099106e-01	 1.226720330625627e+00	 3.121078655689483e+00
 7.445917712127673e-01	 1.233931719068790e+00	 2.420885177261975e+00
 8.653069247271273e-01	 1.163510545488063e+00	 9.658172756054602e+00
 8.539916739123324e-01	 1.171840921603290e+00	 9.725655953297650e+00
 8.426048667048471e-01	 1.180055097067682e+00	 9.395058467954614e+00
 8.311482791165866e-01	 1.188152180795367e+00	 8.735047896145472e+00
 8.196237012044317e-01	 1.196131317620025e+00	 7.817601255742978e+00
 8.080329361706170e-01	 1.203991688549784e+00	 6.717872733045911e+00
 7.963777994584046e-01	 1.211732510995316e+00	 5.514058484505108e+00
 7.846601178439622e-01	 1.219353038971101e+00	 4.287258755368075e+00
 7.728817285253647e-01	 1.226852563269796e+00	 3.121337576595528e+00
 7.610444782096362e-01	 1.234230411609747e+00	 2.102780300250090e+00
 7.491502221987406e-01	 1.241485948755668e+00	 1.320549231794800e+00
 8.705721693829281e-01	 1.170590308180842e+00	 1.076040312470676e+01
 8.591880672019779e-01	 1.178971373210090e+00	 1.053149630066608e+01
 8.477319732199229e-01	 1.187235530527447e+00	 9.891859456079851e+00
 8.362056742554064e-01	 1.195381883624928e+00	 8.921088632078829e+00
 8.246109712575002e-01	 1.203409572132666e+00	 7.702781042472558e+00
 8.129496784006186e-01	 1.211317772075356e+00	 6.324380274207575e+00
 8.012236221746847e-01	 1.219105696101742e+00	 4.877017777455064e+00
 7.894346404714880e-01	 1.226772593687101e+00	 3.455350952367124e+00
 7.775845816681398e-01	 1.234317751308680e+00	 2.157398139922676e+00
 7.656753037085618e-01	 1.241740492594097e+00	 1.084370823909407e+00
 7.537086731839142e-01	 1.249040178442763e+00	 3.405033499839111e-01
 8.758374140382283e-01	 1.177670070874088e+00	 1.135239040792220e+01
 8.643844604910956e-01	 1.186101824817347e+00	 1.078518396179005e+01
 8.528590797344487e-01	 1.194415963987641e+00	 9.833544467227526e+00
 8.412630693936601e-01	 1.202611586454881e+00	 8.582930989657218e+00
 8.295982413099912e-01	 1.210687826645653e+00	 7.123206648193673e+00
 8.178664206300330e-01	 1.218643855601222e+00	 5.548470712348450e+00
 8.060694448903716e-01	 1.226478881208410e+00	 3.956886547273512e+00
 7.942091630984167e-01	 1.234192148403294e+00	 2.450505741302286e+00
 7.822874348103162e-01	 1.241782939347714e+00	 1.135088750385000e+00
 7.703061292068878e-01	 1.249250573578565e+00	 1.199223940167509e-01
 7.582671241684876e-01	 1.256594408129957e+00	-4.823654635349561e-01
 8.811026586931948e-01	 1.184749833567700e+00	 1.144011674466027e+01
 8.695808537798625e-01	 1.193232276424960e+00	 1.051683009031535e+01
 8.579861862486091e-01	 1.201596397448166e+00	 9.269373001341705e+00
 8.463204645315366e-01	 1.209841289285125e+00	 7.784103716565769e+00
 8.345855113620964e-01	 1.217966081158883e+00	 6.151901868108763e+00
 8.227831628590555e-01	 1.225969939127280e+00	 4.467996818556690e+00
 8.109152676056628e-01	 1.233852066315215e+00	 2.831791727087250e+00
 7.989836857249468e-01	 1.241611703119573e+00	 1.346683686746110e+00
 7.869902879520926e-01	 1.249248127386788e+00	 1.198802759089466e-01
 7.749369547048136e-01	 1.256760654563038e+00	-7.377871330454427e-01
 7.628255751526610e-01	 1.264148637817135e+00	-1.112052965652196e+00
 8.863679033479948e-01	 1.191829596261578e+00	 1.102941464062279e+01
 8.747772470684528e-01	 1.200362728032830e+00	 9.755823241002364e+00
 8.631132927625864e-01	 1.208776830908922e+00	 8.247427386950466e+00
 8.513778596692244e-01	 1.217070992115560e+00	 6.586619796557809e+00
 8.395727814140084e-01	 1.225244335672256e+00	 4.860149628536282e+00
 8.276999050878825e-01	 1.233296022653427e+00	 3.158956308155110e+00
 8.157610903207556e-01	 1.241225251422054e+00	 1.577999281312007e+00
 8.037582083512785e-01	 1.249031257835833e+00	 2.160840292317437e-01
 7.916931410936698e-01	 1.256713315425795e+00	-8.243153233075721e-01
 7.795677802025399e-01	 1.264270735547404e+00	-1.437236473732236e+00
 7.673840261366348e-01	 1.271702867504179e+00	-1.513412150133798e+00
 8.916331480027944e-01	 1.198909358955622e+00	 1.012597065170878e+01
 8.799736403570438e-01	 1.207493179640855e+00	 8.530849967413024e+00
 8.682403992765638e-01	 1.215957264369807e+00	 6.814646798812877e+00
 8.564352548069125e-01	 1.224300694946086e+00	 5.051020464064974e+00
 8.445600514659207e-01	 1.232522590185671e+00	 3.317542649099966e+00
 8.326166473167093e-01	 1.240622106179561e+00	 1.695545876968924e+00
 8.206069130358490e-01	 1.248598436528824e+00	 2.699684205793960e-01
 8.085327309776097e-01	 1.256450812551967e+00	-8.708040363726491e-01
 7.963959942352468e-01	 1.264178503464626e+00	-1.635099685925857e+00
 7.841986057002668e-01	 1.271780816531551e+00	-1.928124526691348e+00
 7.719424771206084e-01	 1.279257097190972e+00	-1.652128637789071e+00
 8.968983926577605e-01	 1.205989121649732e+00	 8.735328928781366e+00
 8.851700336458100e-01	 1.214623631248936e+00	 6.869914684923418e+00
 8.733675057907243e-01	 1.223137697830722e+00	 5.016860067998650e+00
 8.614926499447891e-01	 1.231530397776602e+00	 3.236417658929993e+00
 8.495473215180260e-01	 1.239800844699027e+00	 1.592032310721810e+00
 8.375333895457321e-01	 1.247948189705582e+00	 1.502133243979955e-01
 8.254527357511400e-01	 1.255971621635420e+00	-1.019596102962150e+00
 8.133072536041404e-01	 1.263870367267871e+00	-1.845151898801537e+00
 8.010988473770236e-01	 1.271643691503171e+00	-2.251544346748876e+00
 7.888294311981927e-01	 1.279290897515368e+00	-2.161335274229367e+00
 7.765009281047821e-01	 1.286811326877398e+00	-1.494696943862240e+00
 9.021636373130609e-01	 1.213068884343809e+00	 6.862894629414591e+00
 8.903664269349282e-01	 1.221754082856973e+00	 4.800358829076563e+00
 8.784946123052503e-01	 1.230318131291566e+00	 2.898817333733247e+00
 8.665500450830431e-01	 1.238760100607008e+00	 1.200534984988225e+00
 8.545345915705167e-01	 1.247079099212222e+00	-2.500241972802323e-01
 8.424501317751466e-01	 1.255274273231384e+00	-1.406292158544554e+00
 8.302985584668269e-01	 1.263344806741740e+00	-2.219693541547292e+00
 8.180817762310687e-01	 1.271289921983438e+00	-2.639743810437593e+00
 8.058017005192001e-01	 1.279108879541323e+00	-2.614148574536963e+00
 7.934602566965188e-01	 1.286800978498739e+00	-2.088903923100411e+00
 7.810593790893557e-01	 1.294365556563339e+00	-1.008397586809058e+00
 9.074288819688618e-01	 1.220148647037751e+00	 4.513937202022972e+00
 8.955628202245742e-01	 1.228884534464867e+00	 2.348879337897394e+00
 8.836217188203263e-01	 1.237498564752240e+00	 5.042205840538236e-01
 8.716074402218631e-01	 1.245989803437203e+00	-1.000252766730567e+00
 8.595218616235862e-01	 1.254357353725156e+00	-2.143818381092957e+00
 8.473668740051490e-01	 1.262600356756868e+00	-2.904871461693354e+00
 8.351443811831075e-01	 1.270717991847680e+00	-3.260978464110646e+00
 8.228562988585950e-01	 1.278709476698562e+00	-3.188930838706137e+00
 8.105045536619754e-01	 1.286574067578973e+00	-2.664798687784503e+00
 7.980910821954449e-01	 1.294311059481554e+00	-1.663984234278871e+00
 7.856178300745293e-01	 1.301919786248680e+00	-1.612750042832745e-01
 9.126941266253301e-01	 1.227228409731459e+00	 1.693593547528505e+00
 9.007592135149235e-01	 1.236014986072517e+00	-4.584535145298948e-01
 8.887488253361341e-01	 1.244678998212643e+00	-2.124246869850781e+00
 8.766648353614378e-01	 1.253219506267087e+00	-3.310881472217469e+00
 8.645091316774273e-01	 1.261635608237728e+00	-4.026046530634199e+00
 8.522836162359341e-01	 1.269926440281931e+00	-4.278028717597596e+00
 8.399902039001794e-01	 1.278091176953135e+00	-4.075713763687463e+00
 8.276308214869176e-01	 1.286129031413138e+00	-3.428586421324038e+00
 8.152074068055497e-01	 1.294039255616013e+00	-2.346728788773210e+00
 8.027219076951706e-01	 1.301821140463702e+00	-8.408169937014782e-01
 7.901762810605031e-01	 1.309474015933302e+00	 1.077883756265331e+00
 7.445917712127673e-01	 1.233931719068790e+00	 2.420885177261975e+00
 7.327150827691792e-01	 1.241020946404336e+00	 1.905907839112983e+00
 7.207854468972287e-01	 1.247987456658922e+00	 1.557647234059940e+00
 7.088047291255960e-01	 1.254830731191595e+00	 1.354381376118191e+00
 6.967747998534317e-01	 1.261550288408174e+00	 1.273646402235945e+00
 6.846975334493393e-01	 1.268145683747823e+00	 1.291578297939776e+00
 6.725748073546437e-01	 1.274616509643952e+00	 1.382987842358695e+00
 6.604085011917672e-01	 1.280962395459682e+00	 1.521435656532058e+00
 6.482004958785397e-01	 1.287183007398215e+00	 1.679307155701187e+00
 6.359526727492348e-01	 1.293278048388430e+00	 1.827887216615061e+00
 6.236669126831258e-01	 1.299247257946061e+00	 1.937434381670606e+00
 7.491502221987406e-01	 1.241485948755668e+00	 1.320549231794800e+00
 7.372008237088502e-01	 1.248618576913754e+00	 8.083938167298532e-01
 7.251981536421693e-01	 1.255627736706952e+00	 5.123169907180176e-01
 7.131440889482986e-01	 1.262512906319155e+00	 3.995186863755747e-01
 7.010405114771265e-01	 1.269273601207829e+00	 4.386472461974774e-01
 6.888893070722950e-01	 1.275909374090512e+00	 5.964677289757244e-01
 6.766923646689793e-01	 1.282419814905460e+00	 8.379565061222327e-01
 6.644515753968044e-01	 1.288804550746734e+00	 1.126396338866890e+00
 6.521688316887340e-01	 1.295063245774013e+00	 1.423471697145201e+00
 6.398460263967248e-01	 1.301195601097489e+00	 1.689364091500829e+00
 6.274850519149480e-01	 1.307201354638196e+00	 1.882847200391945e+00
 7.537086731839142e-01	 1.249040178442763e+00	 3.405033499839111e-01
 7.416865646477211e-01	 1.256216207423393e+00	-7.068171069619417e-02
 7.296108603863108e-01	 1.263268016755224e+00	-2.436216199159207e-01
 7.174834487702058e-01	 1.270195081446992e+00	-2.212959539285853e-01
 7.053062231000307e-01	 1.276996914007808e+00	-4.117560439401946e-02
 6.930810806944683e-01	 1.283673064433576e+00	 2.570961968987552e-01
 6.808099219825439e-01	 1.290223120167401e+00	 6.317644151813490e-01
 6.684946496010884e-01	 1.296646706034282e+00	 1.039071609421187e+00
 6.561371674981981e-01	 1.302943484150369e+00	 1.433367787071418e+00
 6.437393800435145e-01	 1.309113153807163e+00	 1.767220459278360e+00
 6.313031911461059e-01	 1.315155451330999e+00	 1.991524650384526e+00
 7.582671241684876e-01	 1.256594408129957e+00	-4.823654635349561e-01
 7.461723055859923e-01	 1.263813837933131e+00	-7.108644820297509e-01
 7.340235671298537e-01	 1.270908296803611e+00	-7.061386215075470e-01
 7.218228085915153e-01	 1.277877256574971e+00	-5.164094903945813e-01
 7.095719347223410e-01	 1.284720226807967e+00	-1.838957555742324e-01
 6.972728543160539e-01	 1.291436754776867e+00	 2.482535687561557e-01
 6.849274792955314e-01	 1.298026425429625e+00	 7.345933277124798e-01
 6.725377238048077e-01	 1.304488861322167e+00	 1.227500293571370e+00
 6.601055033071146e-01	 1.310823722527118e+00	 1.677291787586058e+00
 6.476327336897780e-01	 1.317030706517287e+00	 2.032344580002624e+00
 6.351213303767658e-01	 1.323109548024305e+00	 2.239213804343622e+00
 7.628255751526610e-01	 1.264148637817135e+00	-1.112052965652196e+00
 7.506580465238640e-01	 1.271411468442847e+00	-1.092930994289703e+00
 7.384362738729970e-01	 1.278548576851983e+00	-8.712886890886801e-01
 7.261621684124268e-01	 1.285559431702957e+00	-4.939564503447128e-01
 7.138376463442561e-01	 1.292443539608166e+00	-7.140725504702961e-03
 7.014646279372486e-01	 1.299200445120239e+00	 5.453474981687144e-01
 6.890450366081335e-01	 1.305829730691974e+00	 1.117353983889548e+00
 6.765807980081501e-01	 1.312331016610229e+00	 1.660502395502156e+00
 6.640738391156659e-01	 1.318703960904098e+00	 2.124315978054592e+00
 6.515260873356915e-01	 1.324948259227696e+00	 2.456339485445345e+00
 6.389394696070935e-01	 1.331063644717947e+00	 2.602261084128089e+00
 7.673840261366348e-01	 1.271702867504179e+00	-1.513412150133798e+00
 7.551437874615354e-01	 1.279009098952417e+00	-1.198724187318777e+00
 7.428489806159407e-01	 1.286188856900212e+00	-7.349740495889484e-01
 7.305015282331393e-01	 1.293241606830815e+00	-1.618661330292652e-01
 7.181033579659735e-01	 1.300166852408261e+00	 4.718940015949779e-01
 7.056564015582472e-01	 1.306964135463541e+00	 1.124384346673261e+00
 6.931625939205430e-01	 1.313633035954295e+00	 1.751663797724483e+00
 6.806238722113045e-01	 1.320173171898310e+00	 2.307655310904062e+00
 6.680421749240347e-01	 1.326584199281146e+00	 2.744264993102470e+00
 6.554194409814297e-01	 1.332865811938223e+00	 3.011501299931173e+00
 6.427576088372554e-01	 1.339017741411759e+00	 3.057594074093541e+00
 7.719424771206084e-01	 1.279257097190972e+00	-1.652128637789071e+00
 7.596295283992071e-01	 1.286606729461719e+00	-1.010517489223317e+00
 7.472616873588845e-01	 1.293829136948169e+00	-2.919411214458465e-01
 7.348408880538514e-01	 1.300923781958409e+00	 4.721304248175608e-01
 7.223690695876908e-01	 1.307890165208112e+00	 1.236431390682980e+00
 7.098481751792464e-01	 1.314727825806627e+00	 1.961950753576320e+00
 6.972801512329527e-01	 1.321436341216434e+00	 2.609825313138395e+00
 6.846669464144590e-01	 1.328015327186250e+00	 3.139270857581832e+00
 6.720105107324037e-01	 1.334464437658099e+00	 3.507693071793762e+00
 6.593127946271679e-01	 1.340783364648703e+00	 3.670798306866754e+00
 6.465757480674172e-01	 1.346971838105572e+00	 3.582703957575503e+00
 7.765009281047821e-01	 1.286811326877398e+00	-1.494696943862240e+00
 7.641152693370783e-01	 1.294204359970631e+00	-5.110028763120771e-01
 7.516743941020281e-01	 1.301469416995727e+00	 4.617019132580324e-01
 7.391802478747633e-01	 1.308605957085606e+00	 1.400493698842993e+00
 7.266347812096058e-01	 1.315613478007577e+00	 2.270099721022543e+00
 7.140399488004410e-01	 1.322491516149347e+00	 3.035195827673447e+00
 7.013977085455552e-01	 1.329239646478238e+00	 3.664805392860003e+00
 6.887100206178017e-01	 1.335857482473890e+00	 4.126373090364526e+00
 6.759788465409552e-01	 1.342344676034792e+00	 4.385862084655881e+00
 6.632061482730812e-01	 1.348700917358970e+00	 4.407850730321543e+00
 6.503938872977449e-01	 1.354925934799222e+00	 4.155628550916944e+00
 7.810593790893557e-01	 1.294365556563339e+00	-1.008397586809058e+00
 7.686010102753500e-01	 1.301801990479030e+00	 3.167206384732836e-01
 7.560871008455708e-01	 1.309109697042756e+00	 1.529492251367877e+00
 7.435196076960728e-01	 1.316288132212268e+00	 2.616283796034355e+00
 7.309004928319163e-01	 1.323336790806513e+00	 3.556919882823639e+00
 7.182317224220268e-01	 1.330255206491554e+00	 4.321813935430140e+00
 7.055152658585422e-01	 1.337042951739551e+00	 4.890215110215866e+00
 6.927530948215209e-01	 1.343699637761070e+00	 5.240676868278282e+00
 6.799471823498716e-01	 1.350224914411064e+00	 5.350720306774229e+00
 6.670995019193453e-01	 1.356618470068859e+00	 5.196911202449766e+00
 6.542120265284048e-01	 1.362880031492542e+00	 4.754935910629855e+00
 7.856178300745293e-01	 1.301919786248680e+00	-1.612750042832745e-01
 7.730867512142211e-01	 1.309399620986794e+00	 1.489158106041911e+00
 7.604998075897130e-01	 1.316749977089128e+00	 2.914882206545754e+00
 7.478589675179800e-01	 1.323970307338262e+00	 4.113726587949270e+00
 7.351662044548206e-01	 1.331060103604779e+00	 5.081293087875394e+00
 7.224234960442003e-01	 1.338018896833099e+00	 5.800028061401625e+00
 7.096328231721077e-01	 1.344846257000220e+00	 6.260290315265162e+00
 6.967961690258050e-01	 1.351541793047631e+00	 6.454567143429871e+00
 6.839155181593362e-01	 1.358105152786750e+00	 6.374881906656507e+00
 6.709928555661349e-01	 1.364536022778204e+00	 6.012845888899167e+00
 6.580301657595633e-01	 1.370834128185364e+00	 5.359708490414199e+00
 7.901762810605031e-01	 1.309474015933302e+00	 1.077883756265331e+00
 7.775724921538926e-01	 1.316997251493802e+00	 3.022429347152470e+00
 7.649125143346542e-01	 1.324390257134714e+00	 4.621240955437326e+00
 7.521983273406831e-01	 1.331652482463453e+00	 5.885858923970765e+00
 7.394319160785158e-01	 1.338783416402234e+00	 6.827988977454604e+00
 7.266152696671564e-01	 1.345782587173835e+00	 7.448573717786002e+00
 7.137503804864437e-01	 1.352649562260090e+00	 7.749872848050974e+00
 7.008392432308426e-01	 1.359383948333415e+00	 7.741078942458940e+00
 6.878838539695308e-01	 1.365985391161689e+00	 7.431607121964527e+00
 6.748862092136254e-01	 1.372453575486838e+00	 6.831116245637426e+00
 6.618483049913858e-01	 1.378788224877522e+00	 5.949527825831292e+00
 6.236669126831258e-01	 1.299247257946061e+00	 1.937434381670606e+00
 6.113429973410696e-01	 1.305091394526528e+00	 2.015891523505482e+00
 5.989848900772535e-01	 1.310809243923031e+00	 2.091631109351150e+00
 5.865944656098293e-01	 1.316400653358761e+00	 2.165136463958275e+00
 5.741735948273184e-01	 1.321865505875329e+00	 2.237249212862530e+00
 5.617241439652630e-01	 1.327203720078967e+00	 2.309173674883767e+00
 5.492479737946393e-01	 1.332415249865001e+00	 2.382479449002905e+00
 5.367469388226653e-01	 1.337500084121130e+00	 2.459102213208462e+00
 5.242228865066125e-01	 1.342458246410058e+00	 2.541342763343059e+00
 5.116776564812040e-01	 1.347289794632056e+00	 2.631864329961674e+00
 4.991130798001508e-01	 1.351994820668021e+00	 2.733688220684856e+00
 6.274850519149480e-01	 1.307201354638196e+00	 1.882847200391945e+00
 6.150856885675712e-01	 1.313081269494886e+00	 2.017451864082381e+00
 6.026519239727491e-01	 1.318834124027283e+00	 2.136496483957209e+00
 5.901856443258018e-01	 1.324459764523265e+00	 2.242880457910195e+00
 5.776887319689732e-01	 1.329958073308410e+00	 2.339997628646613e+00
 5.651630645630416e-01	 1.335328968490650e+00	 2.431735470449686e+00
 5.526105142707654e-01	 1.340572403683049e+00	 2.522472306205314e+00
 5.400329469527970e-01	 1.345688367705273e+00	 2.617072583389080e+00
 5.274322213766837e-01	 1.350676884264278e+00	 2.720880248546670e+00
 5.148101884395320e-01	 1.355538011614798e+00	 2.839710270127449e+00
 5.021686904049041e-01	 1.360271842200233e+00	 2.979838369306258e+00
 6.313031911461059e-01	 1.315155451330999e+00	 1.991524650384527e+00
 6.188283797934524e-01	 1.321071144463957e+00	 2.132545810081541e+00
 6.063189578676741e-01	 1.326859004132288e+00	 2.252876963257315e+00
 5.937768230412560e-01	 1.332518875688554e+00	 2.357238589443864e+00
 5.812038691101622e-01	 1.338050640742303e+00	 2.450941790830055e+00
 5.686019851604048e-01	 1.343454216903165e+00	 2.539883696612277e+00
 5.559730547465216e-01	 1.348729557501946e+00	 2.630540762854055e+00
 5.433189550825979e-01	 1.353876651290278e+00	 2.729960004915718e+00
 5.306415562464522e-01	 1.358895522119367e+00	 2.845748210736473e+00
 5.179427203975739e-01	 1.363786228598419e+00	 2.986059193937979e+00
 5.052243010093732e-01	 1.368548863733329e+00	 3.159579155816151e+00
 6.351213303767658e-01	 1.323109548024305e+00	 2.239213804343622e+00
 6.225710710188684e-01	 1.329061019433578e+00	 2.342503012372345e+00
 6.099859917621709e-01	 1.334883884237883e+00	 2.426917774003644e+00
 5.973680017563212e-01	 1.340577986854469e+00	 2.498418222429644e+00
 5.847190062510004e-01	 1.346143208176854e+00	 2.563611791535361e+00
 5.720409057574538e-01	 1.351579465316364e+00	 2.629746246085544e+00
 5.593355952219958e-01	 1.356886711321549e+00	 2.704700501702785e+00
 5.466049632121427e-01	 1.362064934876010e+00	 2.796973277324258e+00
 5.338508911159829e-01	 1.367114159975201e+00	 2.915669634447062e+00
 5.210752523553858e-01	 1.372034445582796e+00	 3.070485468528725e+00
 5.082799116136081e-01	 1.376825885267193e+00	 3.271690028346379e+00
 6.389394696070935e-01	 1.331063644717947e+00	 2.602261084128090e+00
 6.263137622439744e-01	 1.337050894403583e+00	 2.629119652841623e+00
 6.136530256563820e-01	 1.342908764343907e+00	 2.645116090008111e+00
 6.009591804711257e-01	 1.348637098020852e+00	 2.656881990614662e+00
 5.882341433916033e-01	 1.354235775611909e+00	 2.671713884476833e+00
 5.754798263542896e-01	 1.359704713730101e+00	 2.697565285816615e+00
 5.626981356972761e-01	 1.365043865141720e+00	 2.743036455609776e+00
 5.498909713415072e-01	 1.370253218462333e+00	 2.817361922312787e+00
 5.370602259853408e-01	 1.375332797831649e+00	 2.930395818607025e+00
 5.242077843130235e-01	 1.380282662567807e+00	 3.092595103238644e+00
 5.113355222176582e-01	 1.385102906801707e+00	 3.315000747824587e+00
 6.427576088372554e-01	 1.339017741411759e+00	 3.057594074093541e+00
 6.300564534689254e-01	 1.345040769373805e+00	 2.974644264342561e+00
 6.173200595504501e-01	 1.350933644450194e+00	 2.894310314449768e+00
 6.045503591857989e-01	 1.356696209187545e+00	 2.823340007651118e+00
 5.917492805320858e-01	 1.362328343047314e+00	 2.769125098017234e+00
 5.789187469510138e-01	 1.367829962144227e+00	 2.739693758634886e+00
 5.660606761724502e-01	 1.373201018962316e+00	 2.743700693903262e+00
 5.531769794707670e-01	 1.378441502049116e+00	 2.790414961796840e+00
 5.402695608545897e-01	 1.383551435688585e+00	 2.889705564387458e+00
 5.273403162705431e-01	 1.388530879553331e+00	 3.052024876752760e+00
 5.143911328215734e-01	 1.393379928336755e+00	 3.288389995565947e+00
 6.465757480674172e-01	 1.346971838105572e+00	 3.582703957575503e+00
 6.337991446938762e-01	 1.353030644344081e+00	 3.361764033007951e+00
 6.209870934445172e-01	 1.358958524556584e+00	 3.161669723014518e+00
 6.081415379004701e-01	 1.364755320354388e+00	 2.988742335337919e+00
 5.952644176725624e-01	 1.370420910482918e+00	 2.849888022377254e+00
 5.823576675477273e-01	 1.375955210558597e+00	 2.752591993188426e+00
 5.694232166476056e-01	 1.381358172783197e+00	 2.704910368987510e+00
 5.564629875999976e-01	 1.386629785636222e+00	 2.715459725593106e+00
 5.434788957237950e-01	 1.391770073545879e+00	 2.793404379105385e+00
 5.304728482280007e-01	 1.396779096539246e+00	 2.948441483360990e+00
 5.174467434254035e-01	 1.401656949872221e+00	 3.190784019263658e+00
 6.503938872977449e-01	 1.354925934799222e+00	 4.155628550916946e+00
 6.375418359189817e-01	 1.361020519314243e+00	 3.773591563106523e+00
 6.246541273387267e-01	 1.366983404662914e+00	 3.434684453040494e+00
 6.117327166152677e-01	 1.372814431521223e+00	 3.144271699465730e+00
 5.987795548131486e-01	 1.378513477918565e+00	 2.908205763842529e+00
 5.857965881445312e-01	 1.384080458973060e+00	 2.732824417718476e+00
 5.727857571228303e-01	 1.389515326604221e+00	 2.624945720715086e+00
 5.597489957292741e-01	 1.394818069223517e+00	 2.591860687514624e+00
 5.466882305930215e-01	 1.399988711403406e+00	 2.641323695523231e+00
 5.336053801854517e-01	 1.405027313525431e+00	 2.781540697548367e+00
 5.205023540291984e-01	 1.409933971407990e+00	 3.021155315800697e+00
 6.542120265284048e-01	 1.362880031492542e+00	 4.754935910629857e+00
 6.412845271443978e-01	 1.369010394284127e+00	 4.193652085547622e+00
 6.283211612332199e-01	 1.375008284769019e+00	 3.701155824535199e+00
 6.153238953303212e-01	 1.380873542687891e+00	 3.281336443151211e+00
 6.022946919539597e-01	 1.386606045354103e+00	 2.938437059146696e+00
 5.892355087415264e-01	 1.392205707387471e+00	 2.677056373430868e+00
 5.761482975982123e-01	 1.397672480425248e+00	 2.502148136165748e+00
 5.630350038586721e-01	 1.403006352810868e+00	 2.419018328717489e+00
 5.498975654623333e-01	 1.408207349261036e+00	 2.433320105915629e+00
 5.367379121429527e-01	 1.413275530511763e+00	 2.551046556167778e+00
 5.235579646330074e-01	 1.418210992943944e+00	 2.778521349378502e+00
 6.580301657595633e-01	 1.370834128185364e+00	 5.359708490414200e+00
 6.450272183702787e-01	 1.377000269253567e+00	 4.605871092016583e+00
 6.319881951281403e-01	 1.383033164874738e+00	 3.949186979586012e+00
 6.189150740457597e-01	 1.388932653854234e+00	 3.391563708015730e+00
 6.058098290951102e-01	 1.394698612789377e+00	 2.935091543525832e+00
 5.926744293388148e-01	 1.400330955801682e+00	 2.582051023420167e+00
 5.795108380738389e-01	 1.405829634246136e+00	 2.334918262582798e+00
 5.663210119882670e-01	 1.411194636398138e+00	 2.196368027192775e+00
 5.531069003317955e-01	 1.416425987118642e+00	 2.169274610304308e+00
 5.398704441005593e-01	 1.421523747498121e+00	 2.256710557481685e+00
 5.266135752368805e-01	 1.426488014479967e+00	 2.461943303528493e+00
 6.618483049913858e-01	 1.378788224877522e+00	 5.949527825831294e+00
 6.487699095967796e-01	 1.384990144222397e+00	 4.994562377554112e+00
 6.356552290236301e-01	 1.391058044979909e+00	 4.167173827308472e+00
 6.225062527617115e-01	 1.396991765020092e+00	 3.466792834009210e+00
 6.093249662367155e-01	 1.402791180224235e+00	 2.892825166239907e+00
 5.961133499364965e-01	 1.408456204215545e+00	 2.444666353288853e+00
 5.828733785497980e-01	 1.413986788066745e+00	 2.121714171320724e+00
 5.696070201181347e-01	 1.419382919985196e+00	 1.923378972348573e+00
 5.563162352014727e-01	 1.424644624976096e+00	 1.849091878289532e+00
 5.430029760583274e-01	 1.429771964484383e+00	 1.898310876391901e+00
 5.296691858408672e-01	 1.434765036015944e+00	 2.070524865638532e+00
 4.991130798001508e-01	 1.351994820668021e+00	 2.733688220684856e+00
 4.865331182043390e-01	 1.356572682302293e+00	 2.840700576564831e+00
 4.739374478213425e-01	 1.361024347901707e+00	 2.944169438257307e+00
 4.613278680963599e-01	 1.365350007944089e+00	 3.043390127929535e+00
 4.487061670436159e-01	 1.369549885257692e+00	 3.137648340047204e+00
 4.360741205666026e-01	 1.373624234577360e+00	 3.226221544049155e+00
 4.234334917951887e-01	 1.377573342084982e+00	 3.308379369808631e+00
 4.107860304399624e-01	 1.381397524934933e+00	 3.383383047115454e+00
 3.981334721641456e-01	 1.385097130765164e+00	 3.450483974778581e+00
 3.854775379733910e-01	 1.388672537194630e+00	 3.508921498636255e+00
 3.728199336237416e-01	 1.392124151307731e+00	 3.557919980767572e+00
 5.021686904049041e-01	 1.360271842200233e+00	 2.979838369306258e+00
 4.895117132677779e-01	 1.364877729873223e+00	 3.133161443402767e+00
 4.768389311729586e-01	 1.369356648929030e+00	 3.285491664361508e+00
 4.641521545819990e-01	 1.373708791011600e+00	 3.434190777485774e+00
 4.514531824554971e-01	 1.377934380313367e+00	 3.576561777464987e+00
 4.387438015691752e-01	 1.382033673128686e+00	 3.709853560789009e+00
 4.260257858469319e-01	 1.386006957391479e+00	 3.831264519073435e+00
 4.133008957112301e-01	 1.389854552197771e+00	 3.937945142606440e+00
 4.005708774511679e-01	 1.393576807313784e+00	 4.026999708078312e+00
 3.878374626085394e-01	 1.397174102670292e+00	 4.095487128407346e+00
 3.751023673821690e-01	 1.400646847843902e+00	 4.140421045830137e+00
 5.052243010093732e-01	 1.368548863733329e+00	 3.159579155816151e+00
 4.924903083309190e-01	 1.373182777445042e+00	 3.354124229421071e+00
 4.797404145242506e-01	 1.377688949957241e+00	 3.548768593295854e+00
 4.669764410672796e-01	 1.382067574079997e+00	 3.739302526990234e+00
 4.542001978669820e-01	 1.386318875369919e+00	 3.921424027119276e+00
 4.414134825713155e-01	 1.390443111680873e+00	 4.090745966589734e+00
 4.286180798982113e-01	 1.394440572698812e+00	 4.242802144023994e+00
 4.158157609820129e-01	 1.398311579461406e+00	 4.373052292172405e+00
 4.030082827376984e-01	 1.402056483863154e+00	 4.476886119029378e+00
 3.901973872432076e-01	 1.405675668146641e+00	 4.549626459573977e+00
 3.773848011401508e-01	 1.409169544380683e+00	 4.586531619539594e+00
 5.082799116136081e-01	 1.376825885267193e+00	 3.271690028346379e+00
 4.954689033938086e-01	 1.381487825017637e+00	 3.501425060605096e+00
 4.826418978752635e-01	 1.386021250986234e+00	 3.731226253336677e+00
 4.698007275522475e-01	 1.390426357149176e+00	 3.955667336562770e+00
 4.569472132781189e-01	 1.394703370427249e+00	 4.169211654453448e+00
 4.440831635730731e-01	 1.398852550233825e+00	 4.366221095636990e+00
 4.312103739490798e-01	 1.402874188006889e+00	 4.540963854158766e+00
 4.183306262523653e-01	 1.406768606725761e+00	 4.687621090755961e+00
 4.054456880237921e-01	 1.410536160413200e+00	 4.800292569303961e+00
 3.925573118774490e-01	 1.414177233623615e+00	 4.873001347734347e+00
 3.796672348977365e-01	 1.417692240918024e+00	 4.899697606422490e+00
 5.113355222176582e-01	 1.385102906801707e+00	 3.315000747824587e+00
 4.984474984564929e-01	 1.389792872590896e+00	 3.572972490228353e+00
 4.855433812260426e-01	 1.394353552015900e+00	 3.830177149004245e+00
 4.726250140369492e-01	 1.398785140219034e+00	 4.080319801548587e+00
 4.596942286889552e-01	 1.403087865485256e+00	 4.316992309177919e+00
 4.467528445744989e-01	 1.407261988787448e+00	 4.533683289799797e+00
 4.338026679995901e-01	 1.411307803315623e+00	 4.723786852849420e+00
 4.208454915223415e-01	 1.415225633990746e+00	 4.880610168423158e+00
 4.078830933095035e-01	 1.419015836963849e+00	 4.997379947983952e+00
 3.949172365113172e-01	 1.422678799101151e+00	 5.067247918684139e+00
 3.819496686549754e-01	 1.426214937455878e+00	 5.083295377246328e+00
 5.143911328215734e-01	 1.393379928336755e+00	 3.288389995565947e+00
 5.014260935190180e-01	 1.398097920164706e+00	 3.566745481455488e+00
 4.884448645766332e-01	 1.402685853046131e+00	 3.843017855102967e+00
 4.754493005214303e-01	 1.407143923289465e+00	 4.110384589232694e+00
 4.624412440995391e-01	 1.411472360543840e+00	 4.361922230586305e+00
 4.494225255756428e-01	 1.415671427341645e+00	 4.590616693051080e+00
 4.363949620497943e-01	 1.419741418624923e+00	 4.789372235833913e+00
 4.233603567919959e-01	 1.423682661256284e+00	 4.951019202257927e+00
 4.103204985948876e-01	 1.427495513515027e+00	 5.068320600448120e+00
 3.972771611448651e-01	 1.431180364579188e+00	 5.133977612056316e+00
 3.842321024119175e-01	 1.434737633994194e+00	 5.140634119252748e+00
 5.174467434254035e-01	 1.401656949872221e+00	 3.190784019263657e+00
 5.044046885814306e-01	 1.406402967738958e+00	 3.480791451325504e+00
 4.913463479270809e-01	 1.411018154076820e+00	 3.767226686709590e+00
 4.782735870057369e-01	 1.415502706360367e+00	 4.043073957840155e+00
 4.651882595099187e-01	 1.419856855602901e+00	 4.301243833453357e+00
 4.520922065765555e-01	 1.424080865896321e+00	 4.534583116916297e+00
 4.389872560997457e-01	 1.428175033934699e+00	 4.735883343530363e+00
 4.258752220613828e-01	 1.432139688522289e+00	 4.897887957417044e+00
 4.127579038799990e-01	 1.435975190066661e+00	 5.013298254509438e+00
 3.996370857781466e-01	 1.439681930057661e+00	 5.074778183258101e+00
 3.865145361686117e-01	 1.443260330532925e+00	 5.074958098902610e+00
 5.205023540291984e-01	 1.409933971407990e+00	 3.021155315800697e+00
 5.073832836437766e-01	 1.414708015313537e+00	 3.313224373593184e+00
 4.942478312774308e-01	 1.419350455107859e+00	 3.600361441988594e+00
 4.810978734899151e-01	 1.423861489431633e+00	 3.875685354440728e+00
 4.679352749201415e-01	 1.428241350662339e+00	 4.132283371203056e+00
 4.547618875772868e-01	 1.432490304451380e+00	 4.363219974030908e+00
 4.415795501494966e-01	 1.436608649244861e+00	 4.561544164959665e+00
 4.283900873305568e-01	 1.440596715788680e+00	 4.720295356146376e+00
 4.151953091648925e-01	 1.444454866618676e+00	 4.832507943914853e+00
 4.019970104112149e-01	 1.448183495536511e+00	 4.891214665418299e+00
 3.887969699251081e-01	 1.451783027072022e+00	 4.889448840727605e+00
 5.235579646330074e-01	 1.418210992943944e+00	 2.778521349378502e+00
 5.103618787061026e-01	 1.423013062888333e+00	 3.062222938023899e+00
 4.971493146277278e-01	 1.427682756139139e+00	 3.340057214859271e+00
 4.839221599740112e-01	 1.432220272503161e+00	 3.605599088534149e+00
 4.706822903302555e-01	 1.436625845722054e+00	 3.852448673189776e+00
 4.574315685778877e-01	 1.440899743006728e+00	 4.074238277023873e+00
 4.441718441991001e-01	 1.445042264555320e+00	 4.264637791167983e+00
 4.309049525995721e-01	 1.449053743055374e+00	 4.417358573616047e+00
 4.176327144496232e-01	 1.452934543170999e+00	 4.526155929314847e+00
 4.043569350441231e-01	 1.456685061015672e+00	 4.584830292978028e+00
 3.910794036814558e-01	 1.460305723611435e+00	 4.587227225715031e+00
 5.266135752368805e-01	 1.426488014479967e+00	 2.461943303528493e+00
 5.133404737684552e-01	 1.431318110463235e+00	 2.726028763849290e+00
 5.000507979780178e-01	 1.436015057170554e+00	 2.984024274677475e+00
 4.867464464580708e-01	 1.440579055574847e+00	 3.230276078242073e+00
 4.734293057403088e-01	 1.445010340781943e+00	 3.459226953082227e+00
 4.601012495784080e-01	 1.449309181562269e+00	 3.665420700073612e+00
 4.467641382486084e-01	 1.453475879865985e+00	 3.843504916138324e+00
 4.334198178684830e-01	 1.457510770322289e+00	 3.988232159484426e+00
 4.200701197342454e-01	 1.461414219723556e+00	 4.094459616804973e+00
 4.067168596769248e-01	 1.465186626495083e+00	 4.157147388482231e+00
 3.933618374377046e-01	 1.468828420151117e+00	 4.171355512493436e+00
 5.296691858408672e-01	 1.434765036015944e+00	 2.070524865638532e+00
 5.163190688308803e-01	 1.439623158038130e+00	 2.302944665196717e+00
 5.029522813283460e-01	 1.444347358201994e+00	 2.530046010225947e+00
 4.895707329421400e-01	 1.448937838646585e+00	 2.747255666174593e+00
 4.761763211503492e-01	 1.453394835841910e+00	 2.950182685478595e+00
 4.627709305788981e-01	 1.457718620117905e+00	 3.134619700605327e+00
 4.493564322980741e-01	 1.461909495176767e+00	 3.296542383272988e+00
 4.359346831373438e-01	 1.465967797589339e+00	 3.432107184151719e+00
 4.225075250188142e-01	 1.469893896276274e+00	 3.537647474136949e+00
 4.090767843096734e-01	 1.473688191974680e+00	 3.609668214057535e+00
 3.956442711939038e-01	 1.477351116691019e+00	 3.644839284436112e+00
 3.728199336237416e-01	 1.392124151307731e+00	 3.557919980767572e+00
 3.601623492207781e-01	 1.395452409428825e+00	 3.596132346502605e+00
 3.475064591668398e-01	 1.398657777487031e+00	 3.623446254425739e+00
 3.348539210785312e-01	 1.401740749553137e+00	 3.637429242682690e+00
 3.222063750930237e-01	 1.404701846974463e+00	 3.635612305635928e+00
 3.095654433703703e-01	 1.407541617803216e+00	 3.615620009745864e+00
 2.969327296151564e-01	 1.410260636216053e+00	 3.575161048396942e+00
 2.843098186175781e-01	 1.412859501925538e+00	 3.512020657368029e+00
 2.716982758140161e-01	 1.415338839584173e+00	 3.424054772648260e+00
 2.590996468671465e-01	 1.417699298181683e+00	 3.309185807005348e+00
 2.465154572656048e-01	 1.419941550436234e+00	 3.165399917509089e+00
 3.751023673821690e-01	 1.400646847843902e+00	 4.140421045830137e+00
 3.623672922246058e-01	 1.403995481830190e+00	 4.159120749394754e+00
 3.496339217890197e-01	 1.407220473410729e+00	 4.153973694039887e+00
 3.369039238400812e-01	 1.410322319681046e+00	 4.124684000273788e+00
 3.241789485560170e-01	 1.413301545180189e+00	 4.070621122645784e+00
 3.114606280278794e-01	 1.416158701315581e+00	 3.991299995207508e+00
 2.987505757782659e-01	 1.418894365779036e+00	 3.886368327847481e+00
 2.860503862995896e-01	 1.421509141954604e+00	 3.755595843425573e+00
 2.733616346119624e-01	 1.424003658318955e+00	 3.598865336185480e+00
 2.606858758407357e-01	 1.426378567834983e+00	 3.416165426342965e+00
 2.480246448137129e-01	 1.428634547339286e+00	 3.207584881293361e+00
 3.773848011401508e-01	 1.409169544380683e+00	 4.586531619539594e+00
 3.645722352280478e-01	 1.412538554232072e+00	 4.585393089012181e+00
 3.517613844108948e-01	 1.415783169334836e+00	 4.551395510971226e+00
 3.389539266014226e-01	 1.418903889809247e+00	 4.486155271491294e+00
 3.261515220189089e-01	 1.421901243386087e+00	 4.390480143827441e+00
 3.133558126853977e-01	 1.424775784828000e+00	 4.265357318813177e+00
 3.005684219414941e-01	 1.427528095341957e+00	 4.111938322844336e+00
 2.877909539818225e-01	 1.430158781983499e+00	 3.931525963193345e+00
 2.750249934102211e-01	 1.432668477053471e+00	 3.725563178291347e+00
 2.622721048147107e-01	 1.435057837487939e+00	 3.495623664774945e+00
 2.495338323622575e-01	 1.437327544241933e+00	 3.243404148420807e+00
 3.796672348977365e-01	 1.417692240918024e+00	 4.899697606422490e+00
 3.667771782311469e-01	 1.421081626634435e+00	 4.880050029098372e+00
 3.538888470324986e-01	 1.424345865259336e+00	 4.822111321622629e+00
 3.410039293625786e-01	 1.427485459937747e+00	 4.729140067090126e+00
 3.281240954817088e-01	 1.430500941592184e+00	 4.602990418682926e+00
 3.152509973429217e-01	 1.433392868340518e+00	 4.445712079234903e+00
 3.023862681048236e-01	 1.436161824904879e+00	 4.259533713147677e+00
 2.895315216642460e-01	 1.438808422012302e+00	 4.046848478593114e+00
 2.766883522087478e-01	 1.441333295787813e+00	 3.810201553186203e+00
 2.638583337890147e-01	 1.443737107140646e+00	 3.552279520237390e+00
 2.510430199111707e-01	 1.446020541144276e+00	 3.275901477831127e+00
 3.819496686549754e-01	 1.426214937455878e+00	 5.083295377246328e+00
 3.689821212339457e-01	 1.429624699037249e+00	 5.048080974680180e+00
 3.560163096538653e-01	 1.432908561184218e+00	 4.972375668595790e+00
 3.430539321235716e-01	 1.436067030066553e+00	 4.860766369882391e+00
 3.300966689444273e-01	 1.439100639798507e+00	 4.715769675079012e+00
 3.171461820004478e-01	 1.442009951853179e+00	 4.540096214784706e+00
 3.042041142682372e-01	 1.444795554467864e+00	 4.336633424165249e+00
 2.912720893468286e-01	 1.447458062041092e+00	 4.108430533180357e+00
 2.783517110074977e-01	 1.449998114522070e+00	 3.858685643652870e+00
 2.654445627635908e-01	 1.452416376793205e+00	 3.590734754019620e+00
 2.525522074603853e-01	 1.454713538046414e+00	 3.308042587581445e+00
 3.842321024119175e-01	 1.434737633994194e+00	 5.140634119252748e+00
 3.711870642364873e-01	 1.438167771440482e+00	 5.094355781558887e+00
 3.581437722750282e-01	 1.441471257109468e+00	 5.008303068066926e+00
 3.451039348844241e-01	 1.444648600195670e+00	 4.887998802194309e+00
 3.320692424070742e-01	 1.447700338005082e+00	 4.736258326366508e+00
 3.190413666579729e-01	 1.450627035366032e+00	 4.556059575774119e+00
 3.060219604317175e-01	 1.453429284030977e+00	 4.350538496249451e+00
 2.930126570295394e-01	 1.456107702069947e+00	 4.122974356311897e+00
 2.800150698064265e-01	 1.458662933256330e+00	 3.876777244353903e+00
 2.670307917383822e-01	 1.461095646445711e+00	 3.615477603959760e+00
 2.540613950098334e-01	 1.463406534948448e+00	 3.342717655197196e+00
 3.865145361686117e-01	 1.443260330532925e+00	 5.074958098902610e+00
 3.733920072388143e-01	 1.446710843844101e+00	 5.023526050936998e+00
 3.602712348960211e-01	 1.450033953035072e+00	 4.935872892379166e+00
 3.471539376451588e-01	 1.453230170325105e+00	 4.817644105319872e+00
 3.340418158696596e-01	 1.456300036211934e+00	 4.671725277281352e+00
 3.209365513154934e-01	 1.459244118879119e+00	 4.500975792232566e+00
 3.078398065952469e-01	 1.462063013594280e+00	 4.308377755504222e+00
 2.947532247123467e-01	 1.464757342098945e+00	 4.097022484326089e+00
 2.816784286054896e-01	 1.467327751990686e+00	 3.870099286789465e+00
 2.686170207133323e-01	 1.469774916098262e+00	 3.630886372805078e+00
 2.555705825594477e-01	 1.472099531850478e+00	 3.382743735373664e+00
 3.887969699251081e-01	 1.451783027072022e+00	 4.889448840727605e+00
 3.755969502409698e-01	 1.455253916248075e+00	 4.840276052824280e+00
 3.623986975168776e-01	 1.458596648961016e+00	 4.760934094621075e+00
 3.492039404057984e-01	 1.461811740454865e+00	 4.656356438695011e+00
 3.360143893321938e-01	 1.464899734419093e+00	 4.529273536894777e+00
 3.228317359730058e-01	 1.467861202392487e+00	 4.382047945392623e+00
 3.096576527588085e-01	 1.470696743157837e+00	 4.217113294257007e+00
 2.964937923952194e-01	 1.473406982128165e+00	 4.036962806253833e+00
 2.833417874046426e-01	 1.475992570725226e+00	 3.844140212402677e+00
 2.702032496883841e-01	 1.478454185750956e+00	 3.641232896866100e+00
 2.570797701091607e-01	 1.480792528752603e+00	 3.430867098423826e+00
 3.910794036814558e-01	 1.460305723611435e+00	 4.587227225715031e+00
 3.778018932429966e-01	 1.463796988652372e+00	 4.549236092583557e+00
 3.645261601376318e-01	 1.467159344887289e+00	 4.489209781644231e+00
 3.512539431663655e-01	 1.470393310584955e+00	 4.410642506155252e+00
 3.379869627946864e-01	 1.473499432626582e+00	 4.315845646493392e+00
 3.247269206305067e-01	 1.476478285906183e+00	 4.206314050957256e+00
 3.114754989223844e-01	 1.479330472721710e+00	 4.083545768970411e+00
 2.982343600781267e-01	 1.482056622157686e+00	 3.949045142966828e+00
 2.850051462038407e-01	 1.484657389460041e+00	 3.804598490658287e+00
 2.717894786634808e-01	 1.487133455403891e+00	 3.651688457761698e+00
 2.585889576589047e-01	 1.489485525654923e+00	 3.491613341211531e+00
 3.933618374377046e-01	 1.468828420151117e+00	 4.171355512493436e+00
 3.800068362449374e-01	 1.472340061056958e+00	 4.154941667109707e+00
 3.666536227583171e-01	 1.475722040813875e+00	 4.126301641673668e+00
 3.533039459268826e-01	 1.478974880715383e+00	 4.086866516298226e+00
 3.399595362571478e-01	 1.482099130834428e+00	 4.038244521187512e+00
 3.266221052879927e-01	 1.485095369420250e+00	 3.981177169837240e+00
 3.132933450859577e-01	 1.487964202285965e+00	 3.915941318201281e+00
 2.999749277610369e-01	 1.490706262187585e+00	 3.842447394943160e+00
 2.866685050030396e-01	 1.493322208195222e+00	 3.760518561577419e+00
 2.733757076385657e-01	 1.495812725057163e+00	 3.669901463545673e+00
 2.600981452086121e-01	 1.498178522557537e+00	 3.570276954722581e+00
 3.956442711939038e-01	 1.477351116691019e+00	 3.644839284436112e+00
 3.822117792468353e-01	 1.480883133461804e+00	 3.661836460998789e+00
 3.687810853789673e-01	 1.484284736740762e+00	 3.678034006012161e+00
 3.553539486873725e-01	 1.487556450846154e+00	 3.692839046947514e+00
 3.419321097195881e-01	 1.490698829042657e+00	 3.706636783985290e+00
 3.285172899454604e-01	 1.493712452934736e+00	 3.717897106974078e+00
 3.151111912495110e-01	 1.496597931850662e+00	 3.724894107946928e+00
 3.017154954439191e-01	 1.499355902217940e+00	 3.725720935567928e+00
 2.883318638021947e-01	 1.501987026930858e+00	 3.718304718067717e+00
 2.749619366135821e-01	 1.504491994710871e+00	 3.700421509943064e+00
 2.616073327582157e-01	 1.506871519460547e+00	 3.669711219360860e+00
 2.465154572656048e-01	 1.419941550436234e+00	 3.165399917509090e+00
 2.339450772057051e-01	 1.422066643280715e+00	 3.005250849943979e+00
 2.213921349108230e-01	 1.424074903295569e+00	 2.846205645888039e+00
 2.088580971103485e-01	 1.425967070022836e+00	 2.693490432900101e+00
 1.963444088697830e-01	 1.427743904280846e+00	 2.552201554186357e+00
 1.838524932871508e-01	 1.429406187533840e+00	 2.427303944390708e+00
 1.713837512086717e-01	 1.430954721259390e+00	 2.323630542784147e+00
 1.589395609635559e-01	 1.432390326314207e+00	 2.245882611423889e+00
 1.465212781177617e-01	 1.433713842298944e+00	 2.198630828461916e+00
 1.341302352465411e-01	 1.434926126922566e+00	 2.186317030102977e+00
 1.217677417255753e-01	 1.436028055366862e+00	 2.213256478684122e+00
 2.480246448137129e-01	 1.428634547339286e+00	 3.207584881293361e+00
 2.353773078715000e-01	 1.430772650174154e+00	 2.986219439676283e+00
 2.227475154497405e-01	 1.432793204919373e+00	 2.769671035345960e+00
 2.101367432572491e-01	 1.434696955644506e+00	 2.564599766320780e+00
 1.975464452063245e-01	 1.436484667825658e+00	 2.377467316594132e+00
 1.849780531073011e-01	 1.438157127711246e+00	 2.214535724865837e+00
 1.724329763824818e-01	 1.439715141685539e+00	 2.081867301126996e+00
 1.599126017993094e-01	 1.441159535630586e+00	 1.985325550379109e+00
 1.474182932226162e-01	 1.442491154287129e+00	 1.930576965465557e+00
 1.349513913857771e-01	 1.443710860615085e+00	 1.923093554435897e+00
 1.225132136805673e-01	 1.444819535154164e+00	 1.968155971989215e+00
 2.495338323622575e-01	 1.437327544241933e+00	 3.243404148420807e+00
 2.368095385377553e-01	 1.439478657067154e+00	 2.981182806945729e+00
 2.241028959891169e-01	 1.441511506542723e+00	 2.725458910466620e+00
 2.114153894045854e-01	 1.443426841265723e+00	 2.484028057091717e+00
 1.987484815432586e-01	 1.445225431370035e+00	 2.264434757157092e+00
 1.861036129277844e-01	 1.446908067888245e+00	 2.073971624260706e+00
 1.734822015565518e-01	 1.448475562111318e+00	 1.919679805414908e+00
 1.608856426352384e-01	 1.449928744946638e+00	 1.808350501618311e+00
 1.483153083275534e-01	 1.451268466275035e+00	 1.746527432958749e+00
 1.357725475249974e-01	 1.452495594307371e+00	 1.740510105948555e+00
 1.232586856354421e-01	 1.453611014941279e+00	 1.796357745096742e+00
 2.510430199111707e-01	 1.446020541144276e+00	 3.275901477831127e+00
 2.382417692043942e-01	 1.448184663959809e+00	 2.991466060287497e+00
 2.254582765288696e-01	 1.450229808165704e+00	 2.713427144823861e+00
 2.126940355522703e-01	 1.452156726886562e+00	 2.450421299205517e+00
 1.999505178804973e-01	 1.453966194914036e+00	 2.210797075884765e+00
 1.872291727485147e-01	 1.455659008064883e+00	 2.002614656600746e+00
 1.745314267308005e-01	 1.457235982536756e+00	 1.833646808358838e+00
 1.618586834712703e-01	 1.458697954262377e+00	 1.711380994409014e+00
 1.492123234325130e-01	 1.460045778262658e+00	 1.643022486793590e+00
 1.365937036641581e-01	 1.461280327999410e+00	 1.635498330795779e+00
 1.240041575901763e-01	 1.462402494728179e+00	 1.695462016125459e+00
 2.525522074603853e-01	 1.454713538046414e+00	 3.308042587581445e+00
 2.396739998713409e-01	 1.456890670852216e+00	 3.018356700197693e+00
 2.268136570689155e-01	 1.458948109788406e+00	 2.733430615116550e+00
 2.139726817002172e-01	 1.460886612507100e+00	 2.462451172751704e+00
 2.011525542179526e-01	 1.462706958457724e+00	 2.214295811566993e+00
 1.883547325694058e-01	 1.464409948241202e+00	 1.997532699422339e+00
 1.755806519051467e-01	 1.465996402961881e+00	 1.820422229736976e+00
 1.628317243073325e-01	 1.467467163577811e+00	 1.690919718696458e+00
 1.501093385374348e-01	 1.468823090249994e+00	 1.616679142846020e+00
 1.374148598032152e-01	 1.470065061691183e+00	 1.605057760371292e+00
 1.247496295447467e-01	 1.471193974514840e+00	 1.663121464097427e+00
 2.540613950098334e-01	 1.463406534948448e+00	 3.342717655197196e+00
 2.411062305385188e-01	 1.465596677744473e+00	 3.063105875292798e+00
 2.281690376091720e-01	 1.467666411410917e+00	 2.785321391233756e+00
 2.152513278483389e-01	 1.469616498127414e+00	 2.518814348917521e+00
 2.023545905555364e-01	 1.471447722001160e+00	 2.272719445530689e+00
 1.894802923903711e-01	 1.473160888417249e+00	 2.055856582754039e+00
 1.766298770795092e-01	 1.474756823386719e+00	 1.876732919576429e+00
 1.638047651433523e-01	 1.476236372892955e+00	 1.743546153828411e+00
 1.510063536422585e-01	 1.477600402237040e+00	 1.664188864853829e+00
 1.382360159421248e-01	 1.478849795382675e+00	 1.646253753917961e+00
 1.254951014991298e-01	 1.479985454301237e+00	 1.697039623931046e+00
 2.555705825594477e-01	 1.472099531850478e+00	 3.382743735373664e+00
 2.425384612058516e-01	 1.474302684636676e+00	 3.126929599176473e+00
 2.295244181495562e-01	 1.476384713033325e+00	 2.868948924132568e+00
 2.165299739965491e-01	 1.478346383747577e+00	 2.618231823549193e+00
 2.035566268931606e-01	 1.480188485544405e+00	 2.383902058246404e+00
 1.906058522113247e-01	 1.481911828593068e+00	 2.174780839725369e+00
 1.776791022538068e-01	 1.483517243811300e+00	 1.999425579541119e+00
 1.647778059792572e-01	 1.485005582207817e+00	 1.866033351872363e+00
 1.519033687469240e-01	 1.486377714223790e+00	 1.782495514888052e+00
 1.390571720808430e-01	 1.487634529073867e+00	 1.756430674888723e+00
 1.262405734533023e-01	 1.488776934087341e+00	 1.795189290686773e+00
 2.570797701091607e-01	 1.480792528752603e+00	 3.430867098423825e+00
 2.439706918732630e-01	 1.483008691528920e+00	 3.211069172864065e+00
 2.308797986899852e-01	 1.485103014655718e+00	 2.984459355606984e+00
 2.178086201447604e-01	 1.487076269367669e+00	 2.760077940881605e+00
 2.047586632307373e-01	 1.488929249087520e+00	 2.546689445297470e+00
 1.917314120321801e-01	 1.490662768768704e+00	 2.352799410099635e+00
 1.787283274279582e-01	 1.492277664235650e+00	 2.186657844643834e+00
 1.657508468149745e-01	 1.493774791522410e+00	 2.056262906248650e+00
 1.528003838513708e-01	 1.495155026210242e+00	 1.969364791234198e+00
 1.398783282193259e-01	 1.496419262764743e+00	 1.933469812932329e+00
 1.269860454072408e-01	 1.497568413873128e+00	 1.955844643451230e+00
 2.585889576589047e-01	 1.489485525654923e+00	 3.491613341211531e+00
 2.454029225406767e-01	 1.491714698421302e+00	 3.319238162345799e+00
 2.322351792303761e-01	 1.493821316278184e+00	 3.134372263118328e+00
 2.190872662928865e-01	 1.495806154987764e+00	 2.945481722614105e+00
 2.059606995681781e-01	 1.497670012630567e+00	 2.760815856631142e+00
 1.928569718528511e-01	 1.499413708944202e+00	 2.588410183461752e+00
 1.797775526018825e-01	 1.501038084659796e+00	 2.436089600404899e+00
 1.667238876504317e-01	 1.502544000836743e+00	 2.311471746301981e+00
 1.536973989555389e-01	 1.503932338196390e+00	 2.221970526404178e+00
 1.406994843575295e-01	 1.505203996455287e+00	 2.174799776917741e+00
 1.277315173609220e-01	 1.506359893658572e+00	 2.176977047628457e+00
 2.600981452086121e-01	 1.498178522557537e+00	 3.570276954722581e+00
 2.468351532080165e-01	 1.500420705313920e+00	 3.454128136088805e+00
 2.335905597706462e-01	 1.502539617900812e+00	 3.319386446054832e+00
 2.203659124408400e-01	 1.504536040607938e+00	 3.173690290870386e+00
 2.071627359053952e-01	 1.506410776173607e+00	 3.024521702557491e+00
 1.939825316732516e-01	 1.508164649119607e+00	 2.879209082488955e+00
 1.808267777754982e-01	 1.509798505083768e+00	 2.744930085191807e+00
 1.676969284855562e-01	 1.511313210150828e+00	 2.628714619607097e+00
 1.545944140593678e-01	 1.512709650182231e+00	 2.537447946140026e+00
 1.415206404954100e-01	 1.513988730145483e+00	 2.477873848951964e+00
 1.284769893143224e-01	 1.515151373443647e+00	 2.456597864072870e+00
 2.616073327582157e-01	 1.506871519460547e+00	 3.669711219360860e+00
 2.482673838752059e-01	 1.509126712206869e+00	 3.617113049118927e+00
 2.349459403107126e-01	 1.511257919523690e+00	 3.539620971019030e+00
 2.216445585885345e-01	 1.513265926228268e+00	 3.443782174128492e+00
 2.083647722423004e-01	 1.515151539716700e+00	 3.336062692410173e+00
 1.951080914932949e-01	 1.516915589294963e+00	 3.222849919521862e+00
 1.818760029487244e-01	 1.518558925507594e+00	 3.110455174755922e+00
 1.686699693202753e-01	 1.520082419464677e+00	 3.005116299794590e+00
 1.554914291627973e-01	 1.521486962167761e+00	 2.913000267163631e+00
 1.423417966329233e-01	 1.522773463835312e+00	 2.840205782481198e+00
 1.292224612674189e-01	 1.523942853228325e+00	 2.792765863811908e+00
 1.217677417255753e-01	 1.436028055366862e+00	 2.213256478684122e+00
 1.094371724198060e-01	 1.437020360159012e+00	 2.267259831518276e+00
 9.713766133773548e-02	 1.437904145495773e+00	 2.333970616780632e+00
 8.487041851234521e-02	 1.438680334414162e+00	 2.414299633876622e+00
 7.263663090477897e-02	 1.439349864871708e+00	 2.509114635682950e+00
 6.043746228117610e-02	 1.439913689129008e+00	 2.619246281754793e+00
 4.827405310600610e-02	 1.440372773135193e+00	 2.745493834262839e+00
 3.614752045162955e-02	 1.440728095916790e+00	 2.888630515890884e+00
 2.405895792380075e-02	 1.440980648970397e+00	 3.049408456156146e+00
 1.200943560281591e-02	 1.441131435659619e+00	 3.228563159950296e+00
 0.000000000000000e+00	 1.441181470616666e+00	 3.426817440116820e+00
 1.225132136805673e-01	 1.444819535154164e+00	 1.968155971989215e+00
 1.101071556331183e-01	 1.445817914916131e+00	 2.054282716485188e+00
 9.773234595027336e-02	 1.446707110857748e+00	 2.164729731949238e+00
 8.539000207294824e-02	 1.447488051666967e+00	 2.296731451860248e+00
 7.308131822897321e-02	 1.448161681043600e+00	 2.447564826890390e+00
 6.080746530917232e-02	 1.448728957078083e+00	 2.614558406977843e+00
 4.856959076004481e-02	 1.449190851633198e+00	 2.795100967417870e+00
 3.636881849277245e-02	 1.449548349729178e+00	 2.986649595923046e+00
 2.420624880826609e-02	 1.449802448932670e+00	 3.186737165425761e+00
 1.208295833795353e-02	 1.449954158749978e+00	 3.392979125315196e+00
 0.000000000000000e+00	 1.450004500024999e+00	 3.603079552372451e+00
 1.232586856354421e-01	 1.453611014941279e+00	 1.796357745096742e+00
 1.107771388462124e-01	 1.454615469673103e+00	 1.904028240741647e+00
 9.832703056249870e-02	 1.455510076219609e+00	 2.045747435276223e+00
 8.590958563315816e-02	 1.456295768919688e+00	 2.215829069964085e+00
 7.352600555271452e-02	 1.456973497215430e+00	 2.408697243553775e+00
 6.117746833668336e-02	 1.457544225027118e+00	 2.618898208364297e+00
 4.886512841360040e-02	 1.458008930131178e+00	 2.841111544099654e+00
 3.659011653347526e-02	 1.458368603541552e+00	 3.070160623606620e+00
 2.435353969238192e-02	 1.458624248894937e+00	 3.301022293167856e+00
 1.215648107288622e-02	 1.458776881840336e+00	 3.528835698389880e+00
 0.000000000000000e+00	 1.458827529433332e+00	 3.748910195838891e+00
 1.240041575901763e-01	 1.462402494728179e+00	 1.695462016125459e+00
 1.114471220590894e-01	 1.463413024429894e+00	 1.814826745235341e+00
 9.892171517443898e-02	 1.464313041581324e+00	 1.975919891290712e+00
 8.642916919302808e-02	 1.465103486172293e+00	 2.170876992127894e+00
 7.397069287607830e-02	 1.465785313387171e+00	 2.391994308811555e+00
 6.154747136380100e-02	 1.466359492976088e+00	 2.631742926293368e+00
 4.916066606677269e-02	 1.466827008629116e+00	 2.882782097565277e+00
 3.681141457383508e-02	 1.467188857353902e+00	 3.137971742329206e+00
 2.450083057622936e-02	 1.467446048857193e+00	 3.390384020102517e+00
 1.223000380766352e-02	 1.467599604930691e+00	 3.633313906661203e+00
 0.000000000000000e+00	 1.467650558841666e+00	 3.860288712306274e+00
 1.247496295447467e-01	 1.471193974514840e+00	 1.663121464097427e+00
 1.121171052717505e-01	 1.472210579186476e+00	 1.785044196634491e+00
 9.951639978612176e-02	 1.473116006942859e+00	 1.954166027280376e+00
 8.694875275261116e-02	 1.473911203424750e+00	 2.161173893899602e+00
 7.441538019913987e-02	 1.474597129558798e+00	 2.396948591711759e+00
 6.191747439061700e-02	 1.475174760924974e+00	 2.652580774421095e+00
 4.945620371966154e-02	 1.475645087126997e+00	 2.919386096301599e+00
 3.703271261394902e-02	 1.476009111166218e+00	 3.188919402611180e+00
 2.464812145988957e-02	 1.476267848819432e+00	 3.452987885090427e+00
 1.230352654233498e-02	 1.476422328021041e+00	 3.703663128766767e+00
 0.000000000000000e+00	 1.476473588250000e+00	 3.933291986327592e+00
 1.254951014991298e-01	 1.479985454301237e+00	 1.697039623931046e+00
 1.127870884841970e-01	 1.481008133942816e+00	 1.813081079396037e+00
 1.001110843975746e-01	 1.481918972304183e+00	 1.979427163302389e+00
 8.746833631196044e-02	 1.482718920677030e+00	 2.186034425897653e+00
 7.486006752197466e-02	 1.483408945730283e+00	 2.423068087374749e+00
 6.228747741722318e-02	 1.483990028873754e+00	 2.680923246617550e+00
 4.975174137236683e-02	 1.484463165624805e+00	 2.950240262516283e+00
 3.725401065391418e-02	 1.484829364978490e+00	 3.221918720766489e+00
 2.479541234344365e-02	 1.485089648781651e+00	 3.487130605433439e+00
 1.237704927695015e-02	 1.485245051111386e+00	 3.737332672057369e+00
 0.000000000000000e+00	 1.485296617658333e+00	 3.964278021575898e+00
 1.262405734533023e-01	 1.488776934087341e+00	 1.795189290686773e+00
 1.134570716964298e-01	 1.489805688698884e+00	 1.897572666617137e+00
 1.007057690088250e-01	 1.490721937665264e+00	 2.050838841965424e+00
 8.798791987112910e-02	 1.491526637929102e+00	 2.244936692862571e+00
 7.530475484465803e-02	 1.492220761901599e+00	 2.470027106617166e+00
 6.265748044371126e-02	 1.492805296822406e+00	 2.716498867032303e+00
 5.004727902498833e-02	 1.493281244122523e+00	 2.974983747443969e+00
 3.747530869382763e-02	 1.493649618790708e+00	 3.236370803787308e+00
 2.494270322697275e-02	 1.493911448743844e+00	 3.491819862152298e+00
 1.245057201155858e-02	 1.494067774201724e+00	 3.732774197371671e+00
 0.000000000000000e+00	 1.494119647066666e+00	 3.950972401702014e+00
 1.269860454072408e-01	 1.497568413873128e+00	 1.955844643451230e+00
 1.141270549084503e-01	 1.498603243454648e+00	 2.037289431183453e+00
 1.013004536199004e-01	 1.499524903026068e+00	 2.167571904641147e+00
 8.850750343017022e-02	 1.500334355180935e+00	 2.337339990052544e+00
 7.574944216726533e-02	 1.501032578072720e+00	 2.537434053486643e+00
 6.302748347017310e-02	 1.501620564770908e+00	 2.758902700313749e+00
 5.034281667762593e-02	 1.502099322620138e+00	 2.993017804798093e+00
 3.769660673378654e-02	 1.502469872602863e+00	 3.231288761512816e+00
 2.508999411055800e-02	 1.502733248706007e+00	 3.465475952416824e+00
 1.252409474620982e-02	 1.502890497292054e+00	 3.687603425509098e+00
 0.000000000000000e+00	 1.502942676475000e+00	 3.889970783469906e+00
 1.277315173609220e-01	 1.506359893658572e+00	 2.176977047628457e+00
 1.147970381202595e-01	 1.507400798210079e+00	 2.230820764223639e+00
 1.018951382308284e-01	 1.508327868386564e+00	 2.328695842528369e+00
 8.902708698913693e-02	 1.509142072432499e+00	 2.462637640251492e+00
 7.619412948987196e-02	 1.509844394243618e+00	 2.624837985742895e+00
 6.339748649670046e-02	 1.510435832719239e+00	 2.807660463454142e+00
 5.063835433037947e-02	 1.510917401117631e+00	 3.003654983752969e+00
 3.791790477388794e-02	 1.511290126414943e+00	 3.205571627863852e+00
 2.523728499428053e-02	 1.511555048668135e+00	 3.406373760804832e+00
 1.259761748095341e-02	 1.511713220382374e+00	 3.599250407217964e+00
 0.000000000000000e+00	 1.511765705883333e+00	 3.777627887420159e+00
 1.284769893143224e-01	 1.515151373443647e+00	 2.456597864072870e+00
 1.154670213318587e-01	 1.516198352965144e+00	 2.476789499929438e+00
 1.024898228416366e-01	 1.517130833746721e+00	 2.533302867260516e+00
 8.954667054808234e-02	 1.517949789683762e+00	 2.620237977027191e+00
 7.663881681255330e-02	 1.518656210414267e+00	 2.731799159449922e+00
 6.376748952338508e-02	 1.519251100667377e+00	 2.862309410918966e+00
 5.093389198334878e-02	 1.519735479614989e+00	 3.006224111004327e+00
 3.813920281422896e-02	 1.520110380226940e+00	 3.158144099121305e+00
 2.538457587822146e-02	 1.520376848630222e+00	 3.312828102408214e+00
 1.267114021583890e-02	 1.520535943472684e+00	 3.465204508308871e+00
 0.000000000000000e+00	 1.520588735291667e+00	 3.610382477676545e+00
 1.292224612674189e-01	 1.523942853228325e+00	 2.792765863811908e+00
 1.161370045432490e-01	 1.524995907719813e+00	 2.773851586043972e+00
 1.030845074523524e-01	 1.525933799106504e+00	 2.780507282510662e+00
 9.006625410705957e-02	 1.526757506934695e+00	 2.809563936678330e+00
 7.708350413538470e-02	 1.527468026584641e+00	 2.857888728457480e+00
 6.413749255031878e-02	 1.528066368615300e+00	 2.922398021521621e+00
 5.122942963663374e-02	 1.528553558112195e+00	 3.000069837715035e+00
 3.836050085490671e-02	 1.528930634038844e+00	 3.087955806593733e+00
 2.553186676246194e-02	 1.529198648592264e+00	 3.183192580002739e+00
 1.274466295091584e-02	 1.529358666562981e+00	 3.283012703394014e+00
 0.000000000000000e+00	 1.529411764700000e+00	 3.384754937769058e+00
 1.529411764700000e+00	 0.000000000000000e+00	-1.014987946979882e+01
 1.529358666562982e+00	 1.274466295091500e-02	-3.224247510931506e+00
 1.529198648592264e+00	 2.553186676246121e-02	 2.121777529833595e+00
 1.528930634038844e+00	 3.836050085490612e-02	 6.043858698437908e+00
 1.528553558112195e+00	 5.122942963663325e-02	 8.699597728897498e+00
 1.528066368615300e+00	 6.413749255031843e-02	 1.024835503757337e+01
 1.527468026584641e+00	 7.708350413538451e-02	 1.085106475544025e+01
 1.526757506934695e+00	 9.006625410705946e-02	 1.067004497566056e+01
 1.525933799106504e+00	 1.030845074523524e-01	 9.868803406088903e+00
 1.524995907719813e+00	 1.161370045432491e-01	 8.611838641718576e+00
 1.523942853228325e+00	 1.292224612674189e-01	 7.064437298828999e+00
 1.538234794108333e+00	 0.000000000000000e+00	-8.166151200472150e+00
 1.538181389653267e+00	 1.281818568621664e-02	-3.559240960486577e+00
 1.538020448554259e+00	 2.567915764705614e-02	 1.385310020753163e-01
 1.537750887850649e+00	 3.858179889598697e-02	 2.995970743955958e+00
 1.537371636609242e+00	 5.152496729030299e-02	 5.082578438105728e+00
 1.536881636562999e+00	 6.450749557756599e-02	 6.468448023416512e+00
 1.536279842754725e+00	 7.752819145842066e-02	 7.224165382032815e+00
 1.535565224185284e+00	 9.058583766610895e-02	 7.420705193945303e+00
 1.534736764465901e+00	 1.036791920629995e-01	 7.129326624664216e+00
 1.533793462474074e+00	 1.168069877544365e-01	 6.421468020486934e+00
 1.532734333012602e+00	 1.299679332201999e-01	 5.368640805853832e+00
 1.547057823516667e+00	 0.000000000000000e+00	-6.133373898139787e+00
 1.547004112743540e+00	 1.289170842171107e-02	-3.572105918193216e+00
 1.546842248516213e+00	 2.582644853195545e-02	-1.342613699572506e+00
 1.546571141662372e+00	 3.880309693741444e-02	 5.496069187108450e-01
 1.546189715106154e+00	 5.182050494430411e-02	 2.098823038489974e+00
 1.545696904510509e+00	 6.487749860508427e-02	 3.299036320790599e+00
 1.545091658924568e+00	 7.797287878163378e-02	 4.143956036019327e+00
 1.544372941435584e+00	 9.110542122522094e-02	 4.626973663072427e+00
 1.543539729824974e+00	 1.042738766735866e-01	 4.741139155237111e+00
 1.542591017227994e+00	 1.174769709654459e-01	 4.479139003748095e+00
 1.541525812796541e+00	 1.307134051727029e-01	 3.833276244071712e+00
 1.555880852925000e+00	 0.000000000000000e+00	-4.071033380986316e+00
 1.555826835833806e+00	 1.296523115735006e-02	-3.287998514986139e+00
 1.555664048478137e+00	 2.597373941708294e-02	-2.349527213498281e+00
 1.555391395474032e+00	 3.902439497910137e-02	-1.323076844206965e+00
 1.555007793602967e+00	 5.211604259855248e-02	-2.769634621586805e-01
 1.554512172457877e+00	 6.524750163280306e-02	 7.196741673093481e-01
 1.553903475094228e+00	 7.841756610497526e-02	 1.596914301603608e+00
 1.553180658685667e+00	 9.162500478437288e-02	 2.284095789330000e+00
 1.552342695183805e+00	 1.048685612841183e-01	 2.709865550038639e+00
 1.551388571981657e+00	 1.181469541763072e-01	 2.802230049327815e+00
 1.550317292580228e+00	 1.314588771249771e-01	 2.488610862795201e+00
 1.564703882333334e+00	 0.000000000000000e+00	-1.998262710776050e+00
 1.564649558924067e+00	 1.303875389308542e-02	-2.731576247354369e+00
 1.564485848440042e+00	 2.612103030236232e-02	-2.909503256204619e+00
 1.564211649285652e+00	 3.924569302096055e-02	-2.649332179153304e+00
 1.563825872099711e+00	 5.241158025296400e-02	-2.069525985923224e+00
 1.563327440405151e+00	 6.561750466065225e-02	-1.289629372876639e+00
 1.562715291263768e+00	 7.886225342839656e-02	-4.301704567627027e-01
 1.561988375935605e+00	 9.214458834354233e-02	 3.874430734010090e-01
 1.561145660542473e+00	 1.054632458945994e-01	 1.041033376106276e+00
 1.560186126735150e+00	 1.188169373870501e-01	 1.407767482941692e+00
 1.559108772363745e+00	 1.322043490770718e-01	 1.364277969741488e+00
 1.573526911741667e+00	 0.000000000000000e+00	 6.614791654515528e-02
 1.573472282014323e+00	 1.311227662886893e-02	-1.927011679124360e+00
 1.573307648401937e+00	 2.626832118771735e-02	-3.049274275082868e+00
 1.573031903097250e+00	 3.946699106290481e-02	-3.455834166996038e+00
 1.572643950596423e+00	 5.270711790745457e-02	-3.303073903358159e+00
 1.572142708352377e+00	 6.598750768856169e-02	-2.748422120793806e+00
 1.571527107433246e+00	 7.930694075184921e-02	-1.950204695486557e+00
 1.570796093185471e+00	 9.266417190270682e-02	-1.067489221402881e+00
 1.569948625901061e+00	 1.060579305050347e-01	-2.599228356399488e-01
 1.568983681488556e+00	 1.194869205977046e-01	 3.124365902164747e-01
 1.567900252147179e+00	 1.329498210290364e-01	 4.892958765799085e-01
 1.582349941150001e+00	 0.000000000000000e+00	 2.103741611075050e+00
 1.582295005104582e+00	 1.318579936465236e-02	-8.980056851185783e-01
 1.582129448363831e+00	 2.641561207307176e-02	-2.795026578437158e+00
 1.581852156908849e+00	 3.968828910484695e-02	-3.768696684947455e+00
 1.581462029093134e+00	 5.300265556194007e-02	-4.001295069903185e+00
 1.580957976299604e+00	 6.635751071646118e-02	-3.675820108061932e+00
 1.580338923602726e+00	 7.975162807528464e-02	-2.975798046597549e+00
 1.579603810435338e+00	 9.318375546184382e-02	-2.085084333738694e+00
 1.578751591259648e+00	 1.066526151154288e-01	-1.187657787613402e+00
 1.577781236241964e+00	 1.201569038083003e-01	-4.674076803401279e-01
 1.576691731930612e+00	 1.336952929809201e-01	-1.079138115499116e-01
 1.591172970558334e+00	 0.000000000000000e+00	 4.096385547165063e+00
 1.591117728194842e+00	 1.325932210038751e-02	 3.321997455266530e-01
 1.590951248325736e+00	 2.656290295834931e-02	-2.172414963047840e+00
 1.590672410720468e+00	 3.990958714669979e-02	-3.613487247704325e+00
 1.590280107589879e+00	 5.329819321633645e-02	-4.187369398826257e+00
 1.589773244246877e+00	 6.672751374428061e-02	-4.090518531006884e+00
 1.589150739772265e+00	 8.019631539865428e-02	-3.519270435731324e+00
 1.588411527685275e+00	 9.370333902093092e-02	-2.669606204264493e+00
 1.587554556618317e+00	 1.072472997257866e-01	-1.736911753391722e+00
 1.586578790995455e+00	 1.208268870188671e-01	-9.157303883156400e-01
 1.585483211714131e+00	 1.344407649327723e-01	-3.995085370821236e-01
 1.599995999966668e+00	 0.000000000000000e+00	 6.026262027344599e+00
 1.599940451285107e+00	 1.333284483602616e-02	 1.740809129393333e+00
 1.599773048287660e+00	 2.671019384347373e-02	-1.206576858669438e+00
 1.599492664532128e+00	 4.013088518837613e-02	-3.015241359532327e+00
 1.599098186086692e+00	 5.359373087055953e-02	-3.883981988587188e+00
 1.598588512194245e+00	 6.709751677194979e-02	-4.010802347800711e+00
 1.597962555941925e+00	 8.064100272190966e-02	-3.592658972468975e+00
 1.597219244935359e+00	 9.422292257994562e-02	-2.825201613598144e+00
 1.596357521977147e+00	 1.078419843361127e-01	-1.902507050731161e+00
 1.595376345749119e+00	 1.214968702294347e-01	-1.016806631881558e+00
 1.594274691497817e+00	 1.351862368846424e-01	-3.582077372906447e-01
 1.608819029375000e+00	 0.000000000000000e+00	 7.875859840217608e+00
 1.608763174375381e+00	 1.340636757152011e-02	 3.305461515903336e+00
 1.608594848249615e+00	 2.685748472836876e-02	 7.785399199382503e-02
 1.608312918343851e+00	 4.035218322978882e-02	-1.998476396065246e+00
 1.607916264583604e+00	 5.388926852452527e-02	-3.113335821724871e+00
 1.607403780141754e+00	 6.746751979939858e-02	-3.454556532332551e+00
 1.606774372111768e+00	 8.108569004500223e-02	-3.207724621771613e+00
 1.606026962185658e+00	 9.474250613886548e-02	-2.555902260584691e+00
 1.605160487336220e+00	 1.084366689464120e-01	-1.679344644574626e+00
 1.604173900503039e+00	 1.221668534400330e-01	-7.552119239895680e-01
 1.603066171281756e+00	 1.359317088365797e-01	 4.272362549738751e-02
 1.617642058783334e+00	 0.000000000000000e+00	 9.627965901114520e+00
 1.617585897465666e+00	 1.347989030682115e-02	 5.004218905995582e+00
 1.617416648211609e+00	 2.700477561295814e-02	 1.656734300099349e+00
 1.617133172155657e+00	 4.057348127085064e-02	-5.872050337772032e-01
 1.616734343080650e+00	 5.418480617814950e-02	-1.897164051626729e+00
 1.616219048089453e+00	 6.783752282655682e-02	-2.439275997914797e+00
 1.615586188281852e+00	 8.153037736788341e-02	-2.375958664866460e+00
 1.614834679436247e+00	 9.526208969766795e-02	-1.865626783148510e+00
 1.613963452695617e+00	 1.090313535566891e-01	-1.062400875088452e+00
 1.612971455257299e+00	 1.228368366506917e-01	-1.158129010757364e-01
 1.611857651066033e+00	 1.366771807886334e-01	 8.294909729995628e-01
 1.523942853228325e+00	 1.292224612674189e-01	 7.064437298828997e+00
 1.522773463835312e+00	 1.423417966329227e-01	 5.625428596180211e+00
 1.521486962167761e+00	 1.554914291627968e-01	 4.565035479528426e+00
 1.520082419464678e+00	 1.686699693202748e-01	 3.855326807743956e+00
 1.518558925507593e+00	 1.818760029487239e-01	 3.468494333378783e+00
 1.516915589294964e+00	 1.951080914932945e-01	 3.376910752758100e+00
 1.515151539716700e+00	 2.083647722423001e-01	 3.553192067765304e+00
 1.513265926228268e+00	 2.216445585885343e-01	 3.970264452774520e+00
 1.511257919523691e+00	 2.349459403107124e-01	 4.601435835295808e+00
 1.509126712206869e+00	 2.482673838752059e-01	 5.420472414342806e+00
 1.506871519460547e+00	 2.616073327582156e-01	 6.401680356152223e+00
 1.532734333012602e+00	 1.299679332201999e-01	 5.368640805853832e+00
 1.531558197524774e+00	 1.431629527700425e-01	 4.314335703372606e+00
 1.530264274152987e+00	 1.563884442657875e-01	 3.545604990270768e+00
 1.528851628778306e+00	 1.696430101545384e-01	 3.049025052528436e+00
 1.527319345931298e+00	 1.829252281215018e-01	 2.811667471368364e+00
 1.525666529470308e+00	 1.962336513129165e-01	 2.821146522354553e+00
 1.523892303259896e+00	 2.095668085788252e-01	 3.065670193253591e+00
 1.521995811848809e+00	 2.229232047359000e-01	 3.534094912397230e+00
 1.519976221146880e+00	 2.363013208505065e-01	 4.215984196750505e+00
 1.517832719100216e+00	 2.496996145421798e-01	 5.101671446793014e+00
 1.515564516364018e+00	 2.631165203076562e-01	 6.182327133499889e+00
 1.541525812796541e+00	 1.307134051727029e-01	 3.833276244071712e+00
 1.540342931213930e+00	 1.439841089068119e-01	 3.098321552992436e+00
 1.539041586137960e+00	 1.572854593683831e-01	 2.574057345751323e+00
 1.537620838091754e+00	 1.706160509883859e-01	 2.260066803069736e+00
 1.536079766354907e+00	 1.839744532938632e-01	 2.156612065209514e+00
 1.534417469645651e+00	 1.973592111321385e-01	 2.264668980490308e+00
 1.532633066803184e+00	 2.107688449149806e-01	 2.585964760535350e+00
 1.530725697469535e+00	 2.242018508829359e-01	 3.123018740108853e+00
 1.528694522770340e+00	 2.376567013900171e-01	 3.879186459156231e+00
 1.526538725993905e+00	 2.511318452089189e-01	 4.858707304928575e+00
 1.524257513267884e+00	 2.646257078569091e-01	 6.066755972704001e+00
 1.550317292580228e+00	 1.314588771249771e-01	 2.488610862795203e+00
 1.549127664902857e+00	 1.448052650432917e-01	 2.019401623576695e+00
 1.547818898122744e+00	 1.581824744706480e-01	 1.700909445660120e+00
 1.546390047405068e+00	 1.715890918218794e-01	 1.544243555216433e+00
 1.544840186778444e+00	 1.850236784658628e-01	 1.561189583806918e+00
 1.543168409820990e+00	 1.984847709510043e-01	 1.764229390141432e+00
 1.541373830346542e+00	 2.119708812507966e-01	 2.166563355525149e+00
 1.539455583090400e+00	 2.254804970296583e-01	 2.782135364746887e+00
 1.537412824394003e+00	 2.390120819292469e-01	 3.625660706120625e+00
 1.535244732887851e+00	 2.525640758754146e-01	 4.712657146941360e+00
 1.532950510172048e+00	 2.661348954059583e-01	 6.059479463589203e+00
 1.559108772363745e+00	 1.322043490770718e-01	 1.364277969741487e+00
 1.557912398591630e+00	 1.456264211795426e-01	 1.118700302449690e+00
 1.556596210107402e+00	 1.590794895726466e-01	 9.756021157706871e-01
 1.555159256718291e+00	 1.725621326550807e-01	 9.561574702741797e-01
 1.553600607201934e+00	 1.860729036375550e-01	 1.082030132043829e+00
 1.551919349996329e+00	 1.996103307695573e-01	 1.375376314408267e+00
 1.550114593889945e+00	 2.131729175863033e-01	 1.858849637442833e+00
 1.548185468711358e+00	 2.267591431760834e-01	 2.555608538575496e+00
 1.546131126017801e+00	 2.403674624681988e-01	 3.489326391730313e+00
 1.543950739781968e+00	 2.539963065416586e-01	 4.684204617182092e+00
 1.541643507076409e+00	 2.676440829547878e-01	 6.164989089510182e+00
 1.567900252147179e+00	 1.329498210290364e-01	 4.892958765799085e-01
 1.566697132280327e+00	 1.464475773156253e-01	 4.364769565922937e-01
 1.565373522091997e+00	 1.599765046744435e-01	 4.465312442188680e-01
 1.563928466031469e+00	 1.735351734880518e-01	 5.492555295266563e-01
 1.562361027625399e+00	 1.871221288089941e-01	 7.745675905049527e-01
 1.560670290171667e+00	 2.007358905878409e-01	 1.152489723925178e+00
 1.558855357433371e+00	 2.143749539215312e-01	 1.713134413330628e+00
 1.556915354332362e+00	 2.280377893222275e-01	 2.486692396689669e+00
 1.554849427641667e+00	 2.417228430068758e-01	 3.503423422414303e+00
 1.552656746676170e+00	 2.554285372076424e-01	 4.793650009296658e+00
 1.550336503980869e+00	 2.691532705033813e-01	 6.387754553266916e+00
 1.576691731930612e+00	 1.336952929809201e-01	-1.079138115499099e-01
 1.575481865969024e+00	 1.472687334516005e-01	 1.215110441968159e-02
 1.574150834076592e+00	 1.608735197761031e-01	 1.610778440964715e-01
 1.572697675344646e+00	 1.745082143208546e-01	 3.758625085261171e-01
 1.571121448048864e+00	 1.881713539802348e-01	 6.930735360054288e-01
 1.569421230347005e+00	 2.018614504058985e-01	 1.148813913179181e+00
 1.567596120976798e+00	 2.155769902565102e-01	 1.778685616088396e+00
 1.565645239953366e+00	 2.293164354681070e-01	 2.617756580446096e+00
 1.563567729265533e+00	 2.430782235452809e-01	 3.700530528590343e+00
 1.561362753570373e+00	 2.568607678733579e-01	 5.060920009443854e+00
 1.559029500885329e+00	 2.706624580517230e-01	 6.732223037195888e+00
 1.585483211714131e+00	 1.344407649327723e-01	-3.995085370821205e-01
 1.584266599657797e+00	 1.480898895875289e-01	-1.156732766345123e-01
 1.582928146061250e+00	 1.617705348776899e-01	 1.656370840360255e-01
 1.581466884657870e+00	 1.754812551535511e-01	 4.872128169670447e-01
 1.579881868472353e+00	 1.892205791513314e-01	 8.906899902501163e-01
 1.578172170522343e+00	 2.029870102237736e-01	 1.416489271970465e+00
 1.576336884520201e+00	 2.167790265912708e-01	 2.103757228587731e+00
 1.574375125574324e+00	 2.305950816137379e-01	 2.990310461251625e+00
 1.572286030889332e+00	 2.444336040834169e-01	 4.112582953659819e+00
 1.570068760464489e+00	 2.582929985387966e-01	 5.505577035894129e+00
 1.567722497789690e+00	 2.721716455997967e-01	 7.202818399992942e+00
 1.594274691497817e+00	 1.351862368846424e-01	-3.582077372906456e-01
 1.593051333346724e+00	 1.489110457234711e-01	 9.081572663387361e-02
 1.591705458046034e+00	 1.626675499792682e-01	 5.056463266253115e-01
 1.590236093971183e+00	 1.764542959862032e-01	 9.334812479322061e-01
 1.588642288895891e+00	 1.902698043223387e-01	 1.419461041860252e+00
 1.586923110697683e+00	 2.041125700415096e-01	 2.006582956209376e+00
 1.585077648063559e+00	 2.179810629258432e-01	 2.735617194548309e+00
 1.583105011195189e+00	 2.318737277591367e-01	 3.645026499436805e+00
 1.581004332512994e+00	 2.457889846212868e-01	 4.770889486704091e+00
 1.578774767358435e+00	 2.597252292039502e-01	 6.146828190588151e+00
 1.576415494693854e+00	 2.736808331475863e-01	 7.803940312708435e+00
 1.603066171281756e+00	 1.359317088365797e-01	 4.272362549738684e-02
 1.601836067035879e+00	 1.497322018594880e-01	 6.686606410162070e-01
 1.600482770031007e+00	 1.635645650809027e-01	 1.225612212740194e+00
 1.599005303284632e+00	 1.774273368188728e-01	 1.763812678382215e+00
 1.597402709319500e+00	 1.913190294933108e-01	 2.330363385018746e+00
 1.595674050873025e+00	 2.052381298591499e-01	 2.969118500303417e+00
 1.593818411606847e+00	 2.191830992602576e-01	 3.720574355074618e+00
 1.591834896815916e+00	 2.331523739043194e-01	 4.621762771419127e+00
 1.589722634136455e+00	 2.471443651588933e-01	 5.706148864076282e+00
 1.587480774252124e+00	 2.611574598688103e-01	 7.003533837553828e+00
 1.585108491597720e+00	 2.751900206950757e-01	 8.539963336250308e+00
 1.611857651066033e+00	 1.366771807886334e-01	 8.294909729995616e-01
 1.610620800725342e+00	 1.505533579956402e-01	 1.654156516275458e+00
 1.609260082016233e+00	 1.644615801826577e-01	 2.369136828226254e+00
 1.607774512598260e+00	 1.784003776516219e-01	 3.026350760930280e+00
 1.606163129743204e+00	 1.923682546643022e-01	 3.673335816098473e+00
 1.604424991048371e+00	 2.063636896767381e-01	 4.353104411545683e+00
 1.602559175150043e+00	 2.203851355945442e-01	 5.104004448053827e+00
 1.600564782436457e+00	 2.344310200493024e-01	 5.959584696910054e+00
 1.598440935759645e+00	 2.484997456962395e-01	 6.948465563984982e+00
 1.596186781145472e+00	 2.625896905333687e-01	 8.094215822426126e+00
 1.593801488501192e+00	 2.766992082422489e-01	 9.415235942627525e+00
 1.506871519460547e+00	 2.616073327582156e-01	 6.401680356152221e+00
 1.504491994710871e+00	 2.749619366135812e-01	 7.288135921806098e+00
 1.501987026930858e+00	 2.883318638021939e-01	 7.847083834853522e+00
 1.499355902217941e+00	 3.017154954439185e-01	 8.087035379161131e+00
 1.496597931850662e+00	 3.151111912495104e-01	 8.013864939983852e+00
 1.493712452934736e+00	 3.285172899454601e-01	 7.630799113499061e+00
 1.490698829042657e+00	 3.419321097195878e-01	 6.938414889435297e+00
 1.487556450846153e+00	 3.553539486873724e-01	 5.934647485069608e+00
 1.484284736740762e+00	 3.687810853789671e-01	 4.614808420725362e+00
 1.480883133461804e+00	 3.822117792468355e-01	 3.097595922988564e+00
 1.477351116691019e+00	 3.956442711939038e-01	 1.573830576181028e+00
 1.515564516364018e+00	 2.631165203076562e-01	 6.182327133499889e+00
 1.513171264365079e+00	 2.765481655884783e-01	 7.177621090470167e+00
 1.510651845667007e+00	 2.899952226012651e-01	 7.820593747296821e+00
 1.508005542248800e+00	 3.034560631267443e-01	 8.120369060541940e+00
 1.505231661415838e+00	 3.169290374130278e-01	 8.083153033976751e+00
 1.502329536449663e+00	 3.304124746029069e-01	 7.712215994421324e+00
 1.499298527251279e+00	 3.439046831820169e-01	 7.007884170850287e+00
 1.496138020977260e+00	 3.574039514478567e-01	 5.967541184146224e+00
 1.492847432667928e+00	 3.709085479996148e-01	 4.585868313550785e+00
 1.489426205866871e+00	 3.844167222487312e-01	 3.028663063902267e+00
 1.485873813231091e+00	 3.979267049501003e-01	 1.438815673164510e+00
 1.524257513267884e+00	 2.646257078569091e-01	 6.066755972703999e+00
 1.521850534019712e+00	 2.781343945632309e-01	 7.195311204348662e+00
 1.519316664403591e+00	 2.916585814002298e-01	 7.940610140745401e+00
 1.516655182280088e+00	 3.051966308094968e-01	 8.312024880911645e+00
 1.513865390981419e+00	 3.187468835765006e-01	 8.315905836057871e+00
 1.510946619964957e+00	 3.323076592603330e-01	 7.955560771732924e+00
 1.507898225460224e+00	 3.458772566444446e-01	 7.231243216911519e+00
 1.504719591108642e+00	 3.594539542083549e-01	 6.140150867681249e+00
 1.501410128595314e+00	 3.730360106202865e-01	 4.682483892860716e+00
 1.497969278272108e+00	 3.866216652506579e-01	 3.061828845661261e+00
 1.494396509771284e+00	 4.002091387063300e-01	 1.376144050127906e+00
 1.532950510172048e+00	 2.661348954059583e-01	 6.059479463589201e+00
 1.530529803674665e+00	 2.797206235378198e-01	 7.329269612458994e+00
 1.527981483140501e+00	 2.933219401990699e-01	 8.181978265570645e+00
 1.525304822311696e+00	 3.069371984921623e-01	 8.626871879961767e+00
 1.522499120547301e+00	 3.205647297399217e-01	 8.670266878745130e+00
 1.519563703480526e+00	 3.342028439177395e-01	 8.315509018829324e+00
 1.516497923669408e+00	 3.478498301068810e-01	 7.562962023689542e+00
 1.513301161240221e+00	 3.615039569688852e-01	 6.410006120370742e+00
 1.509972824522857e+00	 3.751634732410087e-01	 4.870443969256224e+00
 1.506512350677455e+00	 3.888266082526465e-01	 3.169837533637871e+00
 1.502919206311548e+00	 4.024915724626263e-01	 1.370680748339271e+00
 1.541643507076409e+00	 2.676440829547878e-01	 6.164989089510182e+00
 1.539209073329832e+00	 2.813068525122256e-01	 7.567907494384561e+00
 1.536646301877631e+00	 2.949852989977672e-01	 8.520186432858303e+00
 1.533954462343517e+00	 3.086777661747270e-01	 9.030643483871946e+00
 1.531132850113384e+00	 3.223825759032839e-01	 9.105391352053504e+00
 1.528180786996274e+00	 3.360980285751274e-01	 8.747821080344959e+00
 1.525097621878746e+00	 3.498224035693362e-01	 7.958594261111688e+00
 1.521882731371925e+00	 3.635539597294664e-01	 6.735644887766914e+00
 1.518535520450489e+00	 3.772909358618070e-01	 5.113962658485150e+00
 1.515055423082858e+00	 3.910315512547280e-01	 3.326012509633530e+00
 1.511441902851829e+00	 4.047740062190222e-01	 1.408047837297248e+00
 1.550336503980869e+00	 2.691532705033813e-01	 6.387754553266915e+00
 1.547888342985106e+00	 2.828930814864292e-01	 7.899972415425079e+00
 1.545311120614868e+00	 2.966486577963034e-01	 8.931345835416813e+00
 1.542604102375442e+00	 3.104183338571770e-01	 9.489910635513176e+00
 1.539766579679564e+00	 3.242004220665801e-01	 9.581414591708107e+00
 1.536797870512107e+00	 3.379932132324981e-01	 9.209307971412047e+00
 1.533697320088152e+00	 3.517949770318198e-01	 8.374742639240147e+00
 1.530464301503676e+00	 3.656039624901167e-01	 7.076580367180292e+00
 1.527098216378146e+00	 3.794183984827072e-01	 5.378014580391017e+00
 1.523598495488259e+00	 3.932364942569337e-01	 3.504229980708435e+00
 1.519964599392081e+00	 4.070564399755509e-01	 1.474141250519249e+00
 1.559029500885329e+00	 2.706624580517230e-01	 6.732223037195890e+00
 1.556567612640379e+00	 2.844793104604115e-01	 8.314537167418845e+00
 1.553975939352105e+00	 2.983120165946605e-01	 9.392170937451480e+00
 1.551253742407366e+00	 3.121589015394983e-01	 9.972055707596537e+00
 1.548400309245738e+00	 3.260182682298032e-01	 1.005942149570050e+01
 1.545414954027930e+00	 3.398883978898523e-01	 9.657798281649210e+00
 1.542297018297540e+00	 3.537675504943419e-01	 8.769025286572177e+00
 1.539045871635399e+00	 3.676539652508549e-01	 7.393268848765151e+00
 1.535660912305761e+00	 3.815458611037352e-01	 5.628312402853785e+00
 1.532141567893601e+00	 3.954414372592944e-01	 3.678902389654535e+00
 1.528487295932251e+00	 4.093388737322460e-01	 1.555122057782070e+00
 1.567722497789690e+00	 2.721716455997967e-01	 7.202818399992941e+00
 1.565246882295545e+00	 2.860655394341532e-01	 8.800988884148081e+00
 1.562640758089232e+00	 2.999753753928205e-01	 9.879960410830389e+00
 1.559903382439181e+00	 3.138994692216772e-01	 1.044524716837703e+01
 1.557034038811805e+00	 3.278361143929458e-01	 1.050141683315163e+01
 1.554032037543648e+00	 3.417835825471916e-01	 1.005210604487769e+01
 1.550896716506826e+00	 3.557401239569126e-01	 9.100043101077613e+00
 1.547627441767019e+00	 3.697039680116990e-01	 7.647078469902017e+00
 1.544223608233268e+00	 3.836733237249167e-01	 5.831285173034058e+00
 1.540684640298826e+00	 3.976463802618416e-01	 3.824962420508141e+00
 1.537009992472289e+00	 4.116213074891404e-01	 1.637408073842355e+00
 1.576415494693854e+00	 2.736808331475863e-01	 7.803940312708435e+00
 1.573926151950498e+00	 2.876517684076353e-01	 9.349018420726770e+00
 1.571305576826140e+00	 3.016387341907649e-01	 1.037257859684299e+01
 1.568553022470778e+00	 3.156400369036998e-01	 1.087841497086070e+01
 1.565667768377662e+00	 3.296539605560009e-01	 1.087029641103650e+01
 1.562649121059167e+00	 3.436787672045165e-01	 1.035199953728495e+01
 1.559496414715924e+00	 3.577126974195415e-01	 9.327348036420831e+00
 1.556209011898460e+00	 3.717539707726680e-01	 7.801628270097230e+00
 1.552786304160604e+00	 3.858007863462778e-01	 5.954057405529529e+00
 1.549227712703878e+00	 3.998513232646058e-01	 3.917847576132144e+00
 1.545532689012145e+00	 4.139037412462675e-01	 1.707665790647000e+00
 1.585108491597720e+00	 2.751900206950757e-01	 8.539963336250311e+00
 1.582605421605131e+00	 2.892379973808384e-01	 9.948609986837671e+00
 1.579970395562720e+00	 3.033020929884759e-01	 1.084843747327529e+01
 1.577202662502051e+00	 3.173806045855524e-01	 1.124122663773842e+01
 1.574301497943207e+00	 3.314718067189618e-01	 1.112981906583380e+01
 1.571266204574391e+00	 3.455739518618284e-01	 1.051817096838898e+01
 1.568096112924747e+00	 3.596852708822387e-01	 9.411412287461943e+00
 1.564790582029647e+00	 3.738039735337799e-01	 7.824300941086820e+00
 1.561349000087700e+00	 3.879282489678443e-01	 5.964428898384076e+00
 1.557770785108700e+00	 4.020562662676186e-01	 3.933485305903997e+00
 1.554055385551768e+00	 4.161861750036604e-01	 1.752802620613134e+00
 1.593801488501192e+00	 2.766992082422489e-01	 9.415235942627525e+00
 1.591284691259338e+00	 2.908242263537434e-01	 1.059003102412340e+01
 1.588635214298862e+00	 3.049654517859350e-01	 1.128647910750811e+01
 1.585852302532892e+00	 3.191211722672210e-01	 1.150406401548182e+01
 1.582935227508338e+00	 3.332896528818207e-01	 1.124457944860321e+01
 1.579883288089227e+00	 3.474691365191284e-01	 1.051220703071324e+01
 1.576695811133212e+00	 3.616578443450141e-01	 9.313598340698828e+00
 1.573372152160505e+00	 3.758539762950537e-01	 7.678773281268619e+00
 1.569911696014492e+00	 3.900557115896419e-01	 5.830855249158478e+00
 1.566313857513235e+00	 4.042612092709107e-01	 3.848278662505169e+00
 1.562578082091108e+00	 4.184686087613524e-01	 1.759959439099905e+00
 1.477351116691019e+00	 3.956442711939038e-01	 1.573830576181028e+00
 1.473688191974681e+00	 4.090767843096721e-01	 2.205069123814163e-01
 1.469893896276274e+00	 4.225075250188132e-01	-7.933060272017023e-01
 1.465967797589340e+00	 4.359346831373429e-01	-1.480303082684695e+00
 1.461909495176767e+00	 4.493564322980735e-01	-1.850138370348419e+00
 1.457718620117905e+00	 4.627709305788975e-01	-1.909364003317582e+00
 1.453394835841910e+00	 4.761763211503487e-01	-1.661373863884717e+00
 1.448937838646586e+00	 4.895707329421396e-01	-1.106352640454994e+00
 1.444347358201994e+00	 5.029522813283457e-01	-2.412303277286587e-01
 1.439623158038130e+00	 5.163190688308801e-01	 9.403576267014566e-01
 1.434765036015943e+00	 5.296691858408672e-01	 2.448104362627689e+00
 1.485873813231091e+00	 3.979267049501003e-01	 1.438815673164514e+00
 1.482189757454407e+00	 4.114367089424172e-01	 3.909226311741643e-02
 1.478373572829083e+00	 4.249449303033787e-01	-9.579654006545488e-01
 1.474424824856452e+00	 4.384495484062021e-01	-1.573431949273526e+00
 1.470343110487583e+00	 4.519487263475422e-01	-1.825948800119074e+00
 1.466128058673551e+00	 4.654406115793988e-01	-1.731255571133553e+00
 1.461779330901862e+00	 4.789233365604130e-01	-1.302111198369925e+00
 1.457296621718283e+00	 4.923950194262511e-01	-5.482338230545389e-01
 1.452679659233362e+00	 5.058537646787410e-01	 5.237541612770511e-01
 1.447928205612917e+00	 5.192976638934051e-01	 1.910375709425247e+00
 1.443042057551770e+00	 5.327247964449955e-01	 3.611343196878586e+00
 1.494396509771284e+00	 4.002091387063300e-01	 1.376144050127903e+00
 1.490691322934210e+00	 4.137966335751939e-01	-1.023301184967131e-01
 1.486853249381933e+00	 4.273823355879717e-01	-1.116606086598265e+00
 1.482881852123574e+00	 4.409644136750840e-01	-1.695888818379038e+00
 1.478776725798381e+00	 4.545410203970290e-01	-1.866683302052869e+00
 1.474537497229151e+00	 4.681102925799150e-01	-1.652011864975479e+00
 1.470163825961741e+00	 4.816703519704926e-01	-1.072805556198062e+00
 1.465655404789880e+00	 4.952193059103833e-01	-1.473204077785306e-01
 1.461011960264602e+00	 5.087552480291690e-01	 1.108990312312361e+00
 1.456233253187544e+00	 5.222762589559825e-01	 2.683532142364980e+00
 1.451319079087398e+00	 5.357804070492050e-01	 4.566620352466592e+00
 1.502919206311548e+00	 4.024915724626263e-01	 1.370680748339269e+00
 1.499192888414045e+00	 4.161565582080342e-01	-2.071956061558344e-01
 1.495332925934780e+00	 4.298197408726190e-01	-1.263620045475885e+00
 1.491338879390661e+00	 4.434792789440071e-01	-1.833570466832428e+00
 1.487210341109111e+00	 4.571333144465414e-01	-1.950058438714352e+00
 1.482946935784657e+00	 4.707799735804412e-01	-1.644050824654647e+00
 1.478548321021499e+00	 4.844173673805686e-01	-9.439697962768250e-01
 1.474014187861330e+00	 4.980435923945019e-01	 1.253256589688645e-01
 1.469344261295668e+00	 5.116567313795788e-01	 1.540485631263295e+00
 1.464538300761969e+00	 5.252548540185451e-01	 3.280504300218932e+00
 1.459596100622796e+00	 5.388360176534135e-01	 5.326866907253749e+00
 1.511441902851829e+00	 4.047740062190222e-01	 1.408047837297246e+00
 1.507694453893865e+00	 4.185164828409695e-01	-2.770728980442803e-01
 1.503812602487579e+00	 4.322571461573475e-01	-1.390259228162504e+00
 1.499795906657667e+00	 4.459941442129894e-01	-1.970812610382826e+00
 1.495643956419731e+00	 4.597256084960870e-01	-2.056631213485381e+00
 1.491356374340022e+00	 4.734496545809723e-01	-1.684134244515359e+00
 1.486932816081087e+00	 4.871643827906212e-01	-8.881871891399564e-01
 1.482372970932584e+00	 5.008678788785714e-01	 2.979718599102847e-01
 1.477676562326512e+00	 5.145582147299196e-01	 1.843683393674051e+00
 1.472843348336149e+00	 5.282334490810264e-01	 3.721522840961518e+00
 1.467873122157928e+00	 5.418916282575386e-01	 5.904738985356102e+00
 1.519964599392081e+00	 4.070564399755509e-01	 1.474141250519249e+00
 1.516196019373624e+00	 4.208764074740315e-01	-3.135469919909886e-01
 1.512292279040284e+00	 4.346945514421832e-01	-1.487722610341848e+00
 1.508252933924546e+00	 4.485090094820496e-01	-2.090586757890082e+00
 1.504077571730192e+00	 4.623179025456737e-01	-2.163617217824951e+00
 1.499765812895198e+00	 4.761193355815033e-01	-1.747499061377428e+00
 1.495317311140457e+00	 4.899113982006308e-01	-8.820553675017369e-01
 1.490731754003591e+00	 5.036921653625575e-01	 3.938218455532532e-01
 1.486008863357089e+00	 5.174596980801405e-01	 2.042240315624531e+00
 1.481148395910044e+00	 5.312120441433594e-01	 4.026383359722388e+00
 1.476150143692762e+00	 5.449472388614981e-01	 6.312624472400086e+00
 1.528487295932251e+00	 4.093388737322460e-01	 1.555122057782070e+00
 1.524697584853275e+00	 4.232363321072520e-01	-3.182197314557271e-01
 1.520771955592850e+00	 4.371319567271527e-01	-1.547460170846291e+00
 1.516709961191254e+00	 4.510238747512060e-01	-2.176301191641587e+00
 1.512511187040448e+00	 4.649101965953087e-01	-2.248516948955215e+00
 1.508175251450137e+00	 4.787890165820285e-01	-1.807894404861905e+00
 1.503701806199560e+00	 4.926584136105780e-01	-8.981730209909080e-01
 1.499090537074308e+00	 5.065164518464248e-01	 4.370163205662547e-01
 1.494341164387353e+00	 5.203611814301908e-01	 2.154213036887569e+00
 1.489453443483610e+00	 5.341906392054776e-01	 4.210189060987116e+00
 1.484427165227262e+00	 5.480028494652097e-01	 6.562011400217719e+00
 1.537009992472289e+00	 4.116213074891404e-01	 1.637408073842354e+00
 1.533199150332770e+00	 4.255962567406624e-01	-2.927102841596664e-01
 1.529251632145231e+00	 4.395693620122826e-01	-1.561166776093604e+00
 1.525166988457745e+00	 4.535387400204767e-01	-2.211789591934694e+00
 1.520944802350455e+00	 4.675024906450000e-01	-2.289389240411874e+00
 1.516584690004791e+00	 4.814586975825433e-01	-1.839712616374624e+00
 1.512086301258349e+00	 4.954054290204439e-01	-9.093951263578828e-01
 1.507449320144682e+00	 5.093407383301388e-01	 4.540890478496378e-01
 1.502673465417256e+00	 5.232626647800198e-01	 2.202478453865615e+00
 1.497758491056808e+00	 5.371692342673142e-01	 4.286777533812499e+00
 1.492704186761395e+00	 5.510584600685913e-01	 6.657311328087436e+00
 1.545532689012145e+00	 4.139037412462675e-01	 1.707665790647000e+00
 1.541700715812064e+00	 4.279561813742943e-01	-2.386555559619131e-01
 1.537731308697385e+00	 4.420067672975994e-01	-1.520776214804375e+00
 1.533624015723975e+00	 4.560536052898805e-01	-2.181299982751889e+00
 1.529378417660164e+00	 4.700947846947551e-01	-2.264836423415082e+00
 1.524994128559113e+00	 4.841283785830425e-01	-1.817971944767971e+00
 1.520470796316772e+00	 4.981524444302082e-01	-8.892377849286772e-01
 1.515808103214667e+00	 5.121650248136645e-01	 4.709250604790358e-01
 1.511005766446753e+00	 5.261641481295766e-01	 2.210203920300749e+00
 1.506063538629595e+00	 5.401478293288025e-01	 4.274455474222085e+00
 1.500981208295128e+00	 5.541140706715605e-01	 6.607749642644038e+00
 1.554055385551768e+00	 4.161861750036604e-01	 1.752802620613130e+00
 1.550202281291109e+00	 4.303161060081796e-01	-1.577105424692604e-01
 1.546210985249265e+00	 4.444441725831297e-01	-1.418455377231906e+00
 1.542081042989899e+00	 4.585684705594355e-01	-2.069483986203397e+00
 1.537812032969530e+00	 4.726870787445818e-01	-2.153989918260209e+00
 1.533403567113055e+00	 4.867980595835208e-01	-1.718299749821913e+00
 1.528855291374783e+00	 5.008994598398521e-01	-8.118603259657273e-01
 1.524166886284214e+00	 5.149893112969672e-01	 5.127783588046586e-01
 1.519338067475797e+00	 5.290656314788104e-01	 2.199984642992591e+00
 1.514368586201928e+00	 5.431264243898751e-01	 4.191071028832855e+00
 1.509258229828425e+00	 5.571696812740350e-01	 6.424324328377774e+00
 1.562578082091108e+00	 4.184686087613524e-01	 1.759959439099905e+00
 1.558703846769861e+00	 4.326760306423498e-01	-5.154862075811772e-02
 1.554690661800825e+00	 4.468815778688999e-01	-1.246598573389696e+00
 1.550538070255469e+00	 4.610833358291598e-01	-1.861386373949932e+00
 1.546245648278505e+00	 4.752793727944876e-01	-1.936496239311962e+00
 1.541813005666570e+00	 4.894677405839732e-01	-1.516916194156748e+00
 1.537239786432334e+00	 5.036464752493558e-01	-6.520479310853211e-01
 1.532525669353274e+00	 5.178135977800120e-01	 6.042890964567582e-01
 1.527670368504342e+00	 5.319671148276703e-01	 2.193859410438904e+00
 1.522673633773767e+00	 5.461050194504661e-01	 4.054019115931628e+00
 1.517535251361254e+00	 5.602252918759326e-01	 6.117729402285834e+00
 1.434765036015943e+00	 5.296691858408672e-01	 2.448104362627688e+00
 1.429771964484384e+00	 5.430029760583268e-01	 3.974769218144936e+00
 1.424644624976097e+00	 5.563162352014722e-01	 5.214087678966411e+00
 1.419382919985196e+00	 5.696070201181342e-01	 6.179138621583823e+00
 1.413986788066745e+00	 5.828733785497976e-01	 6.881026270109307e+00
 1.408456204215545e+00	 5.961133499364961e-01	 7.328823056971483e+00
 1.402791180224236e+00	 6.093249662367151e-01	 7.529512780904717e+00
 1.396991765020092e+00	 6.225062527617111e-01	 7.487934233192553e+00
 1.391058044979909e+00	 6.356552290236296e-01	 7.206725475180852e+00
 1.384990144222398e+00	 6.487699095967792e-01	 6.686268961726615e+00
 1.378788224877522e+00	 6.618483049913858e-01	 5.924637716397998e+00
 1.443042057551770e+00	 5.327247964449955e-01	 3.611343196878587e+00
 1.438020181470444e+00	 5.461355080162867e-01	 5.269432752801245e+00
 1.432863262833292e+00	 5.595255700713999e-01	 6.543483982218618e+00
 1.427571203571930e+00	 5.728930282483168e-01	 7.459621519812642e+00
 1.422143941886962e+00	 5.862359190261399e-01	 8.042519318671669e+00
 1.416581452628946e+00	 5.995522705346319e-01	 8.315331132285712e+00
 1.410883747658562e+00	 6.128401033788453e-01	 8.299620339195624e+00
 1.405050876185350e+00	 6.260974314782569e-01	 8.015289289950267e+00
 1.399082925084413e+00	 6.393222629197791e-01	 7.480508370423368e+00
 1.392980019190502e+00	 6.525126008239998e-01	 6.711644989545194e+00
 1.386742321568902e+00	 6.656664442239804e-01	 5.723192713013299e+00
 1.451319079087398e+00	 5.357804070492050e-01	 4.566620352466591e+00
 1.446268398456265e+00	 5.492680399743678e-01	 6.355790249388141e+00
 1.441081900690200e+00	 5.627349049414969e-01	 7.677753308292465e+00
 1.435759487158325e+00	 5.761790363787239e-01	 8.569209096706530e+00
 1.430301095706789e+00	 5.895984595027685e-01	 9.065958253166135e+00
 1.424706701041903e+00	 6.029911911331179e-01	 9.202824078047531e+00
 1.418976315092390e+00	 6.163552405213902e-01	 9.013572517299743e+00
 1.413109987350058e+00	 6.296886101952824e-01	 8.530830722020507e+00
 1.407107805188320e+00	 6.429892968164693e-01	 7.786004383472040e+00
 1.400969894157965e+00	 6.562552920518180e-01	 6.809194059420671e+00
 1.394696418259602e+00	 6.694845834572226e-01	 5.629110723487057e+00
 1.459596100622796e+00	 5.388360176534135e-01	 5.326866907253752e+00
 1.454516615441825e+00	 5.524005719324726e-01	 7.238136524893129e+00
 1.449300538546812e+00	 5.659442398116526e-01	 8.613231187557362e+00
 1.443947770744394e+00	 5.794650445092336e-01	 9.496995547499054e+00
 1.438458249526254e+00	 5.929609999795480e-01	 9.933954634422573e+00
 1.432831949454466e+00	 6.064301117318081e-01	 9.968230008242147e+00
 1.427068882525793e+00	 6.198703776641961e-01	 9.643453359631792e+00
 1.421169098514310e+00	 6.332797889126242e-01	 9.002677739240042e+00
 1.415132685291742e+00	 6.466563307135295e-01	 8.088286615268316e+00
 1.408959769124917e+00	 6.599979832800562e-01	 6.941900977609900e+00
 1.402650514949769e+00	 6.733027226909291e-01	 5.604284724783287e+00
 1.467873122157928e+00	 5.418916282575386e-01	 5.904738985356103e+00
 1.462764832427099e+00	 5.555331038905043e-01	 7.920683041098991e+00
 1.457519176403125e+00	 5.691535746817571e-01	 9.346345898560148e+00
 1.452136054330145e+00	 5.827510526397216e-01	 1.023232751170390e+01
 1.446615403345389e+00	 5.963235404563441e-01	 1.062951485018459e+01
 1.440957197866686e+00	 6.098690323305578e-01	 1.058899603341433e+01
 1.435161449958843e+00	 6.233855148071071e-01	 1.016197097172259e+01
 1.429228209678199e+00	 6.368709676301186e-01	 9.399658688091430e+00
 1.423157565394793e+00	 6.503233646107893e-01	 8.353201514874783e+00
 1.416949644091493e+00	 6.637406745085374e-01	 7.073566380540480e+00
 1.410604611639553e+00	 6.771208619249164e-01	 5.611443421690963e+00
 1.476150143692762e+00	 5.449472388614981e-01	 6.312624472400085e+00
 1.471013049412068e+00	 5.586656358483663e-01	 8.407559121365626e+00
 1.465737814259127e+00	 5.723629095516990e-01	 9.873614617269981e+00
 1.460324337915590e+00	 5.860370607700659e-01	 1.076479561159026e+01
 1.454772557164222e+00	 5.996860809330222e-01	 1.113602752525485e+01
 1.449082446278614e+00	 6.133079529292218e-01	 1.104307205042229e+01
 1.443254017391610e+00	 6.269006519499691e-01	 1.054243822282041e+01
 1.437287320841819e+00	 6.404621463476019e-01	 9.691289225473367e+00
 1.431182445497588e+00	 6.539903985080776e-01	 8.547345107577067e+00
 1.424939519057823e+00	 6.674833657370838e-01	 7.168781624987210e+00
 1.418558708329102e+00	 6.809390011590023e-01	 5.614125431112912e+00
 1.484427165227262e+00	 5.480028494652097e-01	 6.562011400217717e+00
 1.479261266396708e+00	 5.617981678059614e-01	 8.702813089722699e+00
 1.473956452114813e+00	 5.755722444213687e-01	 1.019163965643194e+01
 1.468512621500738e+00	 5.893230689001427e-01	 1.108422623326213e+01
 1.462929710982784e+00	 6.030486214094474e-01	 1.143725131058377e+01
 1.457207694690301e+00	 6.167468735276552e-01	 1.130889503046527e+01
 1.451346584824168e+00	 6.304157890926269e-01	 1.075875404824593e+01
 1.445346432005262e+00	 6.440533250649119e-01	 9.847751175015178e+00
 1.439207325600238e+00	 6.576574324052227e-01	 8.638039968805163e+00
 1.432929394024040e+00	 6.712260569655181e-01	 7.192904467006746e+00
 1.426512805018568e+00	 6.847571403930037e-01	 5.576654276907033e+00
 1.492704186761395e+00	 5.510584600685913e-01	 6.657311328087438e+00
 1.487509483380995e+00	 5.649306997631929e-01	 8.807470992293716e+00
 1.482175089970177e+00	 5.787815792906554e-01	 1.029706333934875e+01
 1.476700905085600e+00	 5.926090770298296e-01	 1.118067354092914e+01
 1.471086864801106e+00	 6.064111618854858e-01	 1.151730303659581e+01
 1.465332943101795e+00	 6.201857941257121e-01	 1.136537378604892e+01
 1.459439152256588e+00	 6.339309262349258e-01	 1.078538532822449e+01
 1.453405543168622e+00	 6.476445037818844e-01	 9.839872039447645e+00
 1.447232205702859e+00	 6.613244663020543e-01	 8.593312914930010e+00
 1.440919268990278e+00	 6.749687481936627e-01	 7.112035499020384e+00
 1.434466901708098e+00	 6.885752796267373e-01	 5.464114163823186e+00
 1.500981208295128e+00	 5.541140706715605e-01	 6.607749642644039e+00
 1.495757700364910e+00	 5.680632317199641e-01	 8.717531355532882e+00
 1.490393727825208e+00	 5.819909141594484e-01	 1.017973498482816e+01
 1.484889188670185e+00	 5.958950851590029e-01	 1.104331143714345e+01
 1.479244018619216e+00	 6.097737023610023e-01	 1.136064621669879e+01
 1.473458191513149e+00	 6.236247147232478e-01	 1.119187419840500e+01
 1.467531719688943e+00	 6.374460633767114e-01	 1.059734932094916e+01
 1.461464654331994e+00	 6.512356824983567e-01	 9.639105143710243e+00
 1.455257085805564e+00	 6.649915001984019e-01	 8.381873383268518e+00
 1.448909143956669e+00	 6.787114394213397e-01	 6.892995315785571e+00
 1.442420998397841e+00	 6.923934188600199e-01	 5.242326500468717e+00
 1.509258229828425e+00	 5.571696812740350e-01	 6.424324328377773e+00
 1.504005917348429e+00	 5.711957636761779e-01	 8.435974517560121e+00
 1.498612365679901e+00	 5.852002490276377e-01	 9.831106166666229e+00
 1.493077472254505e+00	 5.991810932875401e-01	 1.065297511618133e+01
 1.487401172437143e+00	 6.131362428358620e-01	 1.094849121410487e+01
 1.481583439924415e+00	 6.270636353201173e-01	 1.076820387991479e+01
 1.475624287121304e+00	 6.409612005178288e-01	 1.017019662860210e+01
 1.469523765495467e+00	 6.548268612141651e-01	 9.217510384586854e+00
 1.463281965908466e+00	 6.686585340940939e-01	 7.973092474844620e+00
 1.456899018923344e+00	 6.824541306483726e-01	 6.503302381280211e+00
 1.450375095087947e+00	 6.962115580926687e-01	 4.877827142553727e+00
 1.517535251361254e+00	 5.602252918759326e-01	 6.117729402285834e+00
 1.512254134331529e+00	 5.743282956317375e-01	 7.966040576359335e+00
 1.506831003534249e+00	 5.884095838951129e-01	 9.247548867124431e+00
 1.501265755838570e+00	 6.024671014153181e-01	 9.997640904961544e+00
 1.495558326254919e+00	 6.164987833099306e-01	 1.025611067434106e+01
 1.489708688335641e+00	 6.305025559161748e-01	 1.006716463056499e+01
 1.483716854553744e+00	 6.444763376581230e-01	 9.479420087009480e+00
 1.477582876659139e+00	 6.584180399291462e-01	 8.547735563718293e+00
 1.471306846011681e+00	 6.723255679889599e-01	 7.336982634608005e+00
 1.464888893890439e+00	 6.861968218745834e-01	 5.911151569745251e+00
 1.458329191778564e+00	 7.000296973245008e-01	 4.337844328921869e+00
 1.378788224877522e+00	 6.618483049913858e-01	 5.924637716397999e+00
 1.372453575486838e+00	 6.748862092136243e-01	 5.072736808164977e+00
 1.365985391161689e+00	 6.878838539695299e-01	 4.283532715892169e+00
 1.359383948333416e+00	 7.008392432308417e-01	 3.557805311570535e+00
 1.352649562260090e+00	 7.137503804864426e-01	 2.897554121522219e+00
 1.345782587173836e+00	 7.266152696671558e-01	 2.305973985519309e+00
 1.338783416402234e+00	 7.394319160785153e-01	 1.787428110020485e+00
 1.331652482463453e+00	 7.521983273406829e-01	 1.321211140905813e+00
 1.324390257134714e+00	 7.649125143346539e-01	 8.752160944550521e-01
 1.316997251493802e+00	 7.775724921538925e-01	 4.559204022312716e-01
 1.309474015933302e+00	 7.901762810605032e-01	 7.128693884984705e-02
 1.386742321568902e+00	 6.656664442239804e-01	 5.723192713013297e+00
 1.380371128194650e+00	 6.787795628619303e-01	 4.705499759585194e+00
 1.373865629535772e+00	 6.918521897805751e-01	 3.833173781564866e+00
 1.367226103618319e+00	 7.048823174367571e-01	 3.096736782555136e+00
 1.360452867519065e+00	 7.178679378016770e-01	 2.487404757807435e+00
 1.353546277513669e+00	 7.308070432910249e-01	 1.997071566164930e+00
 1.346506729198790e+00	 7.436976277031334e-01	 1.616536662233135e+00
 1.339334657587757e+00	 7.565376871643147e-01	 1.294611906908854e+00
 1.332030537179435e+00	 7.693252210805265e-01	 1.004975832871360e+00
 1.324594881999977e+00	 7.820582330944966e-01	 7.410342316349732e-01
 1.317028245617134e+00	 7.947347320474100e-01	 4.968912743418412e-01
 1.394696418259602e+00	 6.694845834572226e-01	 5.629110723487059e+00
 1.388288680901750e+00	 6.826729165109249e-01	 4.467976419611432e+00
 1.381745867909117e+00	 6.958205255923418e-01	 3.517384506715826e+00
 1.375068258902466e+00	 7.089253916434194e-01	 2.759850954623817e+00
 1.368256172777272e+00	 7.219854951176778e-01	 2.178140807379613e+00
 1.361309967852731e+00	 7.349988169156747e-01	 1.755258004800798e+00
 1.354230041994578e+00	 7.479633393285418e-01	 1.464139979738445e+00
 1.347016832711303e+00	 7.608770469887427e-01	 1.238755006034851e+00
 1.339670817223418e+00	 7.737379278271983e-01	 1.055232588058191e+00
 1.332192512505436e+00	 7.865439740359003e-01	 8.962776783488028e-01
 1.324582475300281e+00	 7.992931830351171e-01	 7.448914735591521e-01
 1.402650514949769e+00	 6.733027226909291e-01	 5.604284724783287e+00
 1.396206233608299e+00	 6.865662701604206e-01	 4.322043612007633e+00
 1.389626106281897e+00	 6.997888614046390e-01	 3.299131197593272e+00
 1.382910414186040e+00	 7.129684658506356e-01	 2.512273258428135e+00
 1.376059478034899e+00	 7.261030524342491e-01	 1.938079534097808e+00
 1.369073658191210e+00	 7.391905905409075e-01	 1.553037253845654e+00
 1.361953354789785e+00	 7.522290509545413e-01	 1.307665569909919e+00
 1.354699007834274e+00	 7.652164068137669e-01	 1.137506528992293e+00
 1.347311097266834e+00	 7.781506345744689e-01	 1.016847769149159e+00
 1.339790143010344e+00	 7.910297149779046e-01	 9.203424672050076e-01
 1.332136704982894e+00	 8.038516340234235e-01	 8.226020474125113e-01
 1.410604611639553e+00	 6.771208619249164e-01	 5.611443421690963e+00
 1.404123786314461e+00	 6.904596238102296e-01	 4.230409433135009e+00
 1.397506344654285e+00	 7.037571972172749e-01	 3.142181966112520e+00
 1.390752569469218e+00	 7.170115400582103e-01	 2.319877281591350e+00
 1.383862783292130e+00	 7.302206097511948e-01	 1.736209379771922e+00
 1.376837348529294e+00	 7.433823641665254e-01	 1.362115792267923e+00
 1.369676667584597e+00	 7.564947625809333e-01	 1.125357447962848e+00
 1.362381182956852e+00	 7.695557666391879e-01	 9.750907899326297e-01
 1.354951377309859e+00	 7.825633413221388e-01	 8.808829802148919e-01
 1.347387773514863e+00	 7.955154559203084e-01	 8.119437146098091e-01
 1.339690934665124e+00	 8.084100850121306e-01	 7.371662799045473e-01
 1.418558708329102e+00	 6.809390011590023e-01	 5.614125431112912e+00
 1.412041339020397e+00	 6.943529774601643e-01	 4.156587412331855e+00
 1.405386583026458e+00	 7.077255330300590e-01	 3.011081567090751e+00
 1.398594724752184e+00	 7.210546142659503e-01	 2.149260960638249e+00
 1.391666088549151e+00	 7.343381670683184e-01	 1.542168165105832e+00
 1.384601038867169e+00	 7.475741377923304e-01	 1.151273238375715e+00
 1.377399980379199e+00	 7.607604742075187e-01	 8.959419945997760e-01
 1.370063358079217e+00	 7.738951264648061e-01	 7.360800386770014e-01
 1.362591657352667e+00	 7.869760480700073e-01	 6.385941689092460e-01
 1.354985404019159e+00	 8.000011968629120e-01	 5.698190414996638e-01
 1.347245164347121e+00	 8.129685360010375e-01	 4.955608063666902e-01
 1.426512805018568e+00	 6.847571403930037e-01	 5.576654276907033e+00
 1.419958891726272e+00	 6.982463311100371e-01	 4.064871481826271e+00
 1.413266821398584e+00	 7.116938688427993e-01	 2.871127020555440e+00
 1.406436880035119e+00	 7.250976884736610e-01	 1.967723510871151e+00
 1.399469393806150e+00	 7.384557243854234e-01	 1.326221959580958e+00
 1.392364729205024e+00	 7.517659114181249e-01	 8.944038219604078e-01
 1.385123293173778e+00	 7.650261858340986e-01	 5.986142545975925e-01
 1.377745533201551e+00	 7.782344862904220e-01	 4.053845117121021e-01
 1.370231937395432e+00	 7.913887548178756e-01	 2.814259656433876e-01
 1.362583034523394e+00	 8.044869378055158e-01	 1.927277109390871e-01
 1.354799394029036e+00	 8.175269869899446e-01	 1.046000337088858e-01
 1.434466901708098e+00	 6.885752796267373e-01	 5.464114163823186e+00
 1.427876444432247e+00	 7.021396847596603e-01	 3.920311724765059e+00
 1.421147059770840e+00	 7.156622046553046e-01	 2.688343988661026e+00
 1.414279035318203e+00	 7.291407626811482e-01	 1.743243065556233e+00
 1.407272699063309e+00	 7.425732817023141e-01	 1.058603953275814e+00
 1.400128419543044e+00	 7.559576850437106e-01	 5.664082793228642e-01
 1.392846605968520e+00	 7.692918974604742e-01	 2.130246856937831e-01
 1.385427708324037e+00	 7.825738461158362e-01	-3.175719119425802e-02
 1.377872217438328e+00	 7.958014615655431e-01	-1.989937941081114e-01
 1.370180665027733e+00	 8.089726787479194e-01	-3.205502105958643e-01
 1.362353623711018e+00	 8.220854379786513e-01	-4.290595911860289e-01
 1.442420998397841e+00	 6.923934188600199e-01	 5.242326500468717e+00
 1.435793997138486e+00	 7.060330384088467e-01	 3.688690871329377e+00
 1.429027298143399e+00	 7.196305404673842e-01	 2.429463878090950e+00
 1.422121190601619e+00	 7.331838368882182e-01	 1.444454997046486e+00
 1.415076004320817e+00	 7.466908390187935e-01	 7.061880520822109e-01
 1.407892109881419e+00	 7.601494586688904e-01	 1.427350510117273e-01
 1.400569918763610e+00	 7.735576090864466e-01	-2.807336596094540e-01
 1.393109883446856e+00	 7.869132059408491e-01	-5.897874173261917e-01
 1.385512497481530e+00	 8.002141683128107e-01	-8.108593714370727e-01
 1.377778295532340e+00	 8.134584196899231e-01	-9.712146691620867e-01
 1.369907853393219e+00	 8.266438889669586e-01	-1.098915459060642e+00
 1.450375095087947e+00	 6.962115580926687e-01	 4.877827142553727e+00
 1.443711549845151e+00	 7.099263920574083e-01	 3.336501514225422e+00
 1.436907536516434e+00	 7.235988762788464e-01	 2.061901640101619e+00
 1.429963345885546e+00	 7.372269110946765e-01	 1.040630893669629e+00
 1.422879309578859e+00	 7.508083963346656e-01	 2.403068606990190e-01
 1.415655800220335e+00	 7.643412322934658e-01	-4.006350056829887e-01
 1.408293231559236e+00	 7.778233207118169e-01	-9.021375359420203e-01
 1.400792058570189e+00	 7.912525657652609e-01	-1.282838470319052e+00
 1.393152777525212e+00	 8.046268750594778e-01	-1.562192256326593e+00
 1.385375926037378e+00	 8.179441606313270e-01	-1.760446417396562e+00
 1.377462083075788e+00	 8.312023399546654e-01	-1.898614816269712e+00
 1.458329191778564e+00	 7.000296973245008e-01	 4.337844328921869e+00
 1.451629102552406e+00	 7.138197457051577e-01	 2.830924016090465e+00
 1.444787774890119e+00	 7.275672120895003e-01	 1.553734241578972e+00
 1.437805501170166e+00	 7.412699853003292e-01	 5.016030677283675e-01
 1.430682614837620e+00	 7.549259536497341e-01	-3.661652915188878e-01
 1.423419490559979e+00	 7.685330059172392e-01	-1.087203409541554e+00
 1.416016544355583e+00	 7.820890323363864e-01	-1.670245506557765e+00
 1.408474233694218e+00	 7.955919255888726e-01	-2.124741329917718e+00
 1.400793057569549e+00	 8.090395818053450e-01	-2.460846137134177e+00
 1.392973556543012e+00	 8.224299015719309e-01	-2.689407787501098e+00
 1.385016312758878e+00	 8.357607909415733e-01	-2.821950917794735e+00
 1.309474015933302e+00	 7.901762810605032e-01	 7.128693884984716e-02
 1.301821140463702e+00	 8.027219076951697e-01	-2.461107166546189e-01
 1.294039255616013e+00	 8.152074068055490e-01	-4.679803480766620e-01
 1.286129031413138e+00	 8.276308214869168e-01	-5.923254010963845e-01
 1.278091176953135e+00	 8.399902039001789e-01	-6.177097987829240e-01
 1.269926440281931e+00	 8.522836162359335e-01	-5.432570834195427e-01
 1.261635608237728e+00	 8.645091316774267e-01	-3.686475819425777e-01
 1.253219506267087e+00	 8.766648353614377e-01	-9.411361509838390e-02
 1.244678998212643e+00	 8.887488253361341e-01	 2.795672193477149e-01
 1.236014986072517e+00	 9.007592135149234e-01	 7.510806488809489e-01
 1.227228409731459e+00	 9.126941266253302e-01	 1.318586163539015e+00
 1.317028245617134e+00	 7.947347320474100e-01	 4.968912743418412e-01
 1.309331221445109e+00	 8.073527331958290e-01	 2.835090880491193e-01
 1.301504443652370e+00	 8.199102599500554e-01	 1.200629983242608e-01
 1.293548586127093e+00	 8.324053441161684e-01	 1.331518623046457e-02
 1.285464362058033e+00	 8.448360266181746e-01	-3.023771148082333e-02
 1.277252523806497e+00	 8.572003584676333e-01	-4.368913620881321e-03
 1.268913862749860e+00	 8.694964017321672e-01	 9.687576855581093e-02
 1.260449209096579e+00	 8.817222305018921e-01	 2.791767533957352e-01
 1.251859431672694e+00	 8.938759318527958e-01	 5.479410447529599e-01
 1.243145437679840e+00	 9.059556068060929e-01	 9.083040871730705e-01
 1.234308172424851e+00	 9.179593712825771e-01	 1.365133076402216e+00
 1.324582475300281e+00	 7.992931830351171e-01	 7.448914735591521e-01
 1.316841302425870e+00	 8.119835586972877e-01	 5.971302883832906e-01
 1.308969631688123e+00	 8.246131130953608e-01	 4.671640836731653e-01
 1.300968140840490e+00	 8.371798667462164e-01	 3.653601078517179e-01
 1.292837547162419e+00	 8.496818493369616e-01	 3.020197073500759e-01
 1.284578607330597e+00	 8.621171007001166e-01	 2.873699638328497e-01
 1.276192117261567e+00	 8.744836717876796e-01	 3.315566454499951e-01
 1.267678911925683e+00	 8.867796256431015e-01	 4.446384604368559e-01
 1.259039865132385e+00	 8.990030383701902e-01	 6.365825920913373e-01
 1.250275889286823e+00	 9.111520000979663e-01	 9.172614849537954e-01
 1.241387935117909e+00	 9.232246159404913e-01	 1.296450842965456e+00
 1.332136704982894e+00	 8.038516340234235e-01	 8.226020474125113e-01
 1.324351383406119e+00	 8.166143841993467e-01	 7.103623136908797e-01
 1.316434819723388e+00	 8.293159662412655e-01	 5.958214542070966e-01
 1.308387695553425e+00	 8.419543893768620e-01	 4.918125222361137e-01
 1.300210732266370e+00	 8.545276720563417e-01	 4.112080978428228e-01
 1.291904690854288e+00	 8.670338429331873e-01	 3.669089808148853e-01
 1.283470371772889e+00	 8.794709418437703e-01	 3.718340777744666e-01
 1.274908614754424e+00	 8.918370207848774e-01	 4.389114746772008e-01
 1.266220298591729e+00	 9.041301448881338e-01	 5.810706766435068e-01
 1.257406340893468e+00	 9.163483933903669e-01	 8.112359878958396e-01
 1.248467697810633e+00	 9.284898605989058e-01	 1.142320995552706e+00
 1.339690934665124e+00	 8.084100850121306e-01	 7.371662799045473e-01
 1.331861464385989e+00	 8.212452097018050e-01	 6.384562023364215e-01
 1.323900007758282e+00	 8.340188193875695e-01	 5.280198682398418e-01
 1.315807250265996e+00	 8.467289120079050e-01	 4.200376891335688e-01
 1.307583917369962e+00	 8.593734947761186e-01	 3.287418711161763e-01
 1.299230774377627e+00	 8.719505851666497e-01	 2.684032603133030e-01
 1.290748626283865e+00	 8.844582119002470e-01	 2.533194020085431e-01
 1.282138317582823e+00	 8.968944159270301e-01	 2.978038066756790e-01
 1.273400732050734e+00	 9.092572514064431e-01	 4.161764066089406e-01
 1.264536792499779e+00	 9.215447866831195e-01	 6.227551774184412e-01
 1.255547460503024e+00	 9.337551052576544e-01	 9.318488893764563e-01
 1.347245164347121e+00	 8.129685360010375e-01	 4.955608063666897e-01
 1.339371545365616e+00	 8.258760352044638e-01	 3.963144377247536e-01
 1.331365195792919e+00	 8.387216725340733e-01	 2.852445008104859e-01
 1.323226804978296e+00	 8.515034346391478e-01	 1.767806671558761e-01
 1.314957102473272e+00	 8.642193174960928e-01	 8.532453822846797e-02
 1.306556857900669e+00	 8.768673274003077e-01	 2.523573001751034e-02
 1.298026880794533e+00	 8.894454819569168e-01	 1.081932904345539e-02
 1.289368020410903e+00	 9.019518110693714e-01	 5.631471414538747e-02
 1.280581165509415e+00	 9.143843579249360e-01	 1.758857283389355e-01
 1.271667244105759e+00	 9.267411799760478e-01	 3.836121750602881e-01
 1.262627223195081e+00	 9.390203499165696e-01	 6.934826032875672e-01
 1.354799394029036e+00	 8.175269869899446e-01	 1.046000337088867e-01
 1.346881626345133e+00	 8.305068607071227e-01	-1.499549339350315e-03
 1.338830383827416e+00	 8.434245256805770e-01	-1.115053312353262e-01
 1.330646359690425e+00	 8.562779572703907e-01	-2.118165848060028e-01
 1.322330287576376e+00	 8.690651402160674e-01	-2.890316447890721e-01
 1.313882941423474e+00	 8.817840696339661e-01	-3.299615074306189e-01
 1.305305135304933e+00	 8.944327520135860e-01	-3.216417637768972e-01
 1.296597723238691e+00	 9.070092062117130e-01	-2.513428720331231e-01
 1.287761598967780e+00	 9.195114644434285e-01	-1.065787852520661e-01
 1.278797695711410e+00	 9.319375732689762e-01	 1.248860385789199e-01
 1.269706985886806e+00	 9.442855945754851e-01	 4.550312063295817e-01
 1.362353623711018e+00	 8.220854379786513e-01	-4.290595911860293e-01
 1.354391707324675e+00	 8.351376862095812e-01	-5.407521989988001e-01
 1.346295571861889e+00	 8.481273788268814e-01	-6.417029051166894e-01
 1.338065914402476e+00	 8.610524799014340e-01	-7.201986791880520e-01
 1.329703472679351e+00	 8.739109629358442e-01	-7.649866892733880e-01
 1.321209024946097e+00	 8.867008118674287e-01	-7.652865186687710e-01
 1.312583389815104e+00	 8.994200220700627e-01	-7.108002854625456e-01
 1.303827426066207e+00	 9.120666013538659e-01	-5.917206707866216e-01
 1.294942032425843e+00	 9.246385709617381e-01	-3.987368737210665e-01
 1.285928147316737e+00	 9.371339665617289e-01	-1.230385227322333e-01
 1.276786748578197e+00	 9.495508392342334e-01	 2.436824147131889e-01
 1.369907853393219e+00	 8.266438889669586e-01	-1.098915459060642e+00
 1.361901788304375e+00	 8.397685117116401e-01	-1.207530949019973e+00
 1.353760759896453e+00	 8.528302319727858e-01	-1.285281271148234e+00
 1.345485469114547e+00	 8.658270025320798e-01	-1.323380822262957e+00
 1.337076657782270e+00	 8.787567856552245e-01	-1.313854518269646e+00
 1.328535108468596e+00	 8.916175541004997e-01	-1.249547570749001e+00
 1.319861644325085e+00	 9.044072921261535e-01	-1.124132600280017e+00
 1.311057128893476e+00	 9.171239964956415e-01	-9.321140939004308e-01
 1.302122465883613e+00	 9.297656774796815e-01	-6.688302274967890e-01
 1.293058598921742e+00	 9.423303598541299e-01	-3.304520872303195e-01
 1.283866511269256e+00	 9.548160838926484e-01	 8.601966274145625e-02
 1.377462083075788e+00	 8.312023399546654e-01	-1.898614816269711e+00
 1.369411869284369e+00	 8.443993372130992e-01	-1.988235657959353e+00
 1.361225947931225e+00	 8.575330851180918e-01	-2.022620857917369e+00
 1.352905023826734e+00	 8.706015251621280e-01	-1.996933366405163e+00
 1.344449842885214e+00	 8.836026083740119e-01	-1.907585218608172e+00
 1.335861191991027e+00	 8.965342963329830e-01	-1.752243822806400e+00
 1.327139898834915e+00	 9.093945621816663e-01	-1.529834885260117e+00
 1.318286831720522e+00	 9.221813916368512e-01	-1.240541981503431e+00
 1.309302899341102e+00	 9.348927839970761e-01	-8.858027987980280e-01
 1.300189050526428e+00	 9.475267531460032e-01	-4.683020894876620e-01
 1.290946273959983e+00	 9.600813285505631e-01	 8.038610182962119e-03
 1.385016312758878e+00	 8.357607909415733e-01	-2.821950917794735e+00
 1.376921950264790e+00	 8.490301627137588e-01	-2.869570313501267e+00
 1.368691135966320e+00	 8.622359382625984e-01	-2.834537487338360e+00
 1.360324578539134e+00	 8.753760477913800e-01	-2.716966871884906e+00
 1.351823027988257e+00	 8.884484310920081e-01	-2.518747877515526e+00
 1.343187275513448e+00	 9.014510385646831e-01	-2.243546653041973e+00
 1.334418153344632e+00	 9.143818322364075e-01	-1.896803650020552e+00
 1.325516534547367e+00	 9.272387867773062e-01	-1.485727003549635e+00
 1.316483332798322e+00	 9.400198905137382e-01	-1.019281759393426e+00
 1.307319502130800e+00	 9.527231464371733e-01	-5.081749942047332e-01
 1.298026036650376e+00	 9.653465732078103e-01	 3.516310760932662e-02
 1.227228409731459e+00	 9.126941266253302e-01	 1.318586163539015e+00
 1.218318722741866e+00	 9.245537152568284e-01	 1.885896934017518e+00
 1.209288427971361e+00	 9.363340964839008e-01	 2.352629620454495e+00
 1.200138582671100e+00	 9.480334393840433e-01	 2.710061240476807e+00
 1.190870280673080e+00	 9.596499315567852e-01	 2.948804914425790e+00
 1.181484651980107e+00	 9.711817800374664e-01	 3.058837711323307e+00
 1.171982862328630e+00	 9.826272122003074e-01	 3.029530196050082e+00
 1.162366112724793e+00	 9.939844766498344e-01	 2.849677551794441e+00
 1.152635638954060e+00	 1.005251844099736e+00	 2.507532144482090e+00
 1.142792711064822e+00	 1.016427608238230e+00	 1.990837389253750e+00
 1.132838632826431e+00	 1.027510086579036e+00	 1.286862773161599e+00
 1.234308172424851e+00	 9.179593712825771e-01	 1.365133076402215e+00
 1.225347086307702e+00	 9.298873767404560e-01	 1.826488756390896e+00
 1.216264696634833e+00	 9.417357178539901e-01	 2.193486283103545e+00
 1.207062066756604e+00	 9.535025531382606e-01	 2.460321412445167e+00
 1.197740296815246e+00	 9.651860597372364e-01	 2.620792166546094e+00
 1.188300523332462e+00	 9.767844343428165e-01	 2.668324460702347e+00
 1.178743918769747e+00	 9.882958941031162e-01	 2.595999072836897e+00
 1.169071691061755e+00	 9.997186775190332e-01	 2.396579828867854e+00
 1.159285083123101e+00	 1.011051045328170e+00	 2.062542870600453e+00
 1.149385372328986e+00	 1.022291281375197e+00	 1.586106866714152e+00
 1.139373869970101e+00	 1.033437693467736e+00	 9.592640221338309e-01
 1.241387935117909e+00	 9.232246159404913e-01	 1.296450842965455e+00
 1.232375449873197e+00	 9.352210382247070e-01	 1.685358844096224e+00
 1.223240965297948e+00	 9.471373392246524e-01	 1.986451198434910e+00
 1.213985550841725e+00	 9.589716668929941e-01	 2.196409255317322e+00
 1.204610312956998e+00	 9.707221879181396e-01	 2.311762488866230e+00
 1.195116394684370e+00	 9.823870886485513e-01	 2.328912338706275e+00
 1.185504975210384e+00	 9.939645760062389e-01	 2.244157064912408e+00
 1.175777269398207e+00	 1.005452878388470e+00	 2.053717489248107e+00
 1.165934527291609e+00	 1.016850246556763e+00	 1.753763488495285e+00
 1.155978033592601e+00	 1.028154954512245e+00	 1.340441100166064e+00
 1.145909107113222e+00	 1.039365300356437e+00	 8.099000961561929e-01
 1.248467697810633e+00	 9.284898605989058e-01	 1.142320995552706e+00
 1.239403813438355e+00	 9.405546997094260e-01	 1.488033520737447e+00
 1.230217233960716e+00	 9.525389605957433e-01	 1.752479366383241e+00
 1.220909034926485e+00	 9.644407806481131e-01	 1.934397438078066e+00
 1.211480329098371e+00	 9.762583160993819e-01	 2.032600569984078e+00
 1.201932266035883e+00	 9.879897429545742e-01	 2.045998009296170e+00
 1.192266031650608e+00	 9.996332579095951e-01	 1.973618616796131e+00
 1.182482847734234e+00	 1.011187079258084e+00	 1.814634653574274e+00
 1.172583971459682e+00	 1.022649447785477e+00	 1.568386018185425e+00
 1.162570694855779e+00	 1.034018627649354e+00	 1.234404793464801e+00
 1.152444344255910e+00	 1.045292907245138e+00	 8.124399579896131e-01
 1.255547460503024e+00	 9.337551052576544e-01	 9.318488893764558e-01
 1.246432177003179e+00	 9.458883611944567e-01	 1.259459358226142e+00
 1.237193502623148e+00	 9.579405819671213e-01	 1.512049627779763e+00
 1.227832519010907e+00	 9.699098944034904e-01	 1.689993111300867e+00
 1.218350345239403e+00	 9.817944442808502e-01	 1.793943143941568e+00
 1.208748137387051e+00	 9.935923972607894e-01	 1.824854538166977e+00
 1.199027088090488e+00	 1.005301939813108e+00	 1.784005587040951e+00
 1.189188426069918e+00	 1.016921280127817e+00	 1.673020382806571e+00
 1.179233415627417e+00	 1.028448649014271e+00	 1.493891312774898e+00
 1.169163356118627e+00	 1.039882300786502e+00	 1.249001589900206e+00
 1.158979581398281e+00	 1.051220514133840e+00	 9.411476716123556e-01
 1.262627223195081e+00	 9.390203499165696e-01	 6.934826032875675e-01
 1.253460540567672e+00	 9.512220226796436e-01	 1.024019397208721e+00
 1.244169771285253e+00	 9.633422033386418e-01	 1.285178004417509e+00
 1.234756003095011e+00	 9.753790081589960e-01	 1.478548170066966e+00
 1.225220361380129e+00	 9.873305724624319e-01	 1.606185982627234e+00
 1.215564008737927e+00	 9.991950515671001e-01	 1.670634924836236e+00
 1.205788144530093e+00	 1.010970621716699e+00	 1.674947133940480e+00
 1.195894004405344e+00	 1.022655480997609e+00	 1.622704735368936e+00
 1.185882859794912e+00	 1.034247850243104e+00	 1.518041108881749e+00
 1.175756017381255e+00	 1.045745973923671e+00	 1.365661941946607e+00
 1.165514818540451e+00	 1.057148121022542e+00	 1.170865921655879e+00
 1.269706985886806e+00	 9.442855945754851e-01	 4.550312063295807e-01
 1.260488904131836e+00	 9.565556841648301e-01	 8.055488233346393e-01
 1.251146039947044e+00	 9.687438247101628e-01	 1.091430591697498e+00
 1.241679487178819e+00	 9.808481219145021e-01	 1.315069172796584e+00
 1.232090377520585e+00	 9.928667006440136e-01	 1.479490653899766e+00
 1.222379880088564e+00	 1.004797705873412e+00	 1.588375516620165e+00
 1.212549200969489e+00	 1.016639303620289e+00	 1.646079605521946e+00
 1.202599582740595e+00	 1.028389681867401e+00	 1.657654957074881e+00
 1.192532303962266e+00	 1.040047051471937e+00	 1.628870344313091e+00
 1.182348678643772e+00	 1.051609647060840e+00	 1.566231388545802e+00
 1.172050055682539e+00	 1.063075727911243e+00	 1.477000086337917e+00
 1.276786748578197e+00	 9.495508392342334e-01	 2.436824147131885e-01
 1.267517267695675e+00	 9.618893456498609e-01	 6.273501204870466e-01
 1.258122308608529e+00	 9.741454460815405e-01	 9.499360212209286e-01
 1.248602971262355e+00	 9.863172356698795e-01	 1.214226929347664e+00
 1.238960393660808e+00	 9.984028288254821e-01	 1.423791054526291e+00
 1.229195751439012e+00	 1.010400360179626e+00	 1.582999309081778e+00
 1.219310257408746e+00	 1.022307985523802e+00	 1.697046433657252e+00
 1.209305161075755e+00	 1.034123882737134e+00	 1.771971798682522e+00
 1.199181748129577e+00	 1.045846252700731e+00	 1.814679732612785e+00
 1.188941339906288e+00	 1.057473320197989e+00	 1.832959224103643e+00
 1.178585292824659e+00	 1.069003334799945e+00	 1.835502842408123e+00
 1.283866511269256e+00	 9.548160838926484e-01	 8.601966274145625e-02
 1.274545631259191e+00	 9.672230071345801e-01	 5.122077211654483e-01
 1.265098577269720e+00	 9.795470674526320e-01	 8.793975099286456e-01
 1.255526455345638e+00	 9.917863494249991e-01	 1.190365771148267e+00
 1.245830409800833e+00	 1.003938957006725e+00	 1.448799726626955e+00
 1.236011622789324e+00	 1.016003014485649e+00	 1.659319137332397e+00
 1.226071313847931e+00	 1.027976667427159e+00	 1.827498032133391e+00
 1.216010739410909e+00	 1.039858083606749e+00	 1.959885956151509e+00
 1.205831192296940e+00	 1.051645453929444e+00	 2.064028584565826e+00
 1.195534001168910e+00	 1.063336993335098e+00	 2.148487544079966e+00
 1.185120529966928e+00	 1.074930941688647e+00	 2.222859281569840e+00
 1.290946273959983e+00	 9.600813285505631e-01	 8.038610182961176e-03
 1.281573994822387e+00	 9.725566686188315e-01	 4.824021733238832e-01
 1.272074845930627e+00	 9.849486888232941e-01	 8.981045116589805e-01
 1.262449939428692e+00	 9.972554631797322e-01	 1.257512515568913e+00
 1.252700425940696e+00	 1.009475085187628e+00	 1.564013965936653e+00
 1.242827494139551e+00	 1.021605668791384e+00	 1.822040762376395e+00
 1.232832370287113e+00	 1.033645349330281e+00	 2.037091698529421e+00
 1.222716317746139e+00	 1.045592284476185e+00	 2.215754628891296e+00
 1.212480636464455e+00	 1.057444655158037e+00	 2.365727867178697e+00
 1.202126662431749e+00	 1.069200666472146e+00	 2.495840652713728e+00
 1.191655767109463e+00	 1.080858548577347e+00	 2.616072518742379e+00
 1.298026036650376e+00	 9.653465732078103e-01	 3.516310760932700e-02
 1.288602358385265e+00	 9.778903301024591e-01	 5.597238421259778e-01
 1.279051114591260e+00	 9.903503101933834e-01	 1.023943986303572e+00
 1.269373423511538e+00	 1.002724576933950e+00	 1.429385136208320e+00
 1.259570442080433e+00	 1.015011213368079e+00	 1.778721729831834e+00
 1.249643365489745e+00	 1.027208323096735e+00	 2.075765856506273e+00
 1.239593426726359e+00	 1.039314031233090e+00	 2.325491519754499e+00
 1.229421896081530e+00	 1.051326485345384e+00	 2.534058191494986e+00
 1.219130080632221e+00	 1.063243856386471e+00	 2.708833491068135e+00
 1.208719323694913e+00	 1.075064339609113e+00	 2.858414819056975e+00
 1.198191004252381e+00	 1.086786155466048e+00	 2.992649773384900e+00
 1.132838632826431e+00	 1.027510086579036e+00	 1.286862773161598e+00
 1.122776458105517e+00	 1.038495764766839e+00	 6.000661288487511e-01
 1.112605858161041e+00	 1.049384918001987e+00	 1.435907465166065e-01
 1.102328215784825e+00	 1.060175958953205e+00	-8.192336147028967e-02
 1.091944945054995e+00	 1.070867327338678e+00	-7.411324303492062e-02
 1.081457490683039e+00	 1.081457490683039e+00	 1.715366946721052e-01
 1.070867327338677e+00	 1.091944945054995e+00	 6.604392946569310e-01
 1.060175958953205e+00	 1.102328215784825e+00	 1.398880866410831e+00
 1.049384918001987e+00	 1.112605858161041e+00	 2.394296873124123e+00
 1.038495764766839e+00	 1.122776458105517e+00	 3.671369038584525e+00
 1.027510086579036e+00	 1.132838632826431e+00	 5.248557123230308e+00
 1.139373869970101e+00	 1.033437693467736e+00	 9.592640221338309e-01
 1.129253647530560e+00	 1.044486746976497e+00	 3.927737721289053e-01
 1.119024374372843e+00	 1.055438718689437e+00	 9.358205074090709e-02
 1.108687441265957e+00	 1.066292012118133e+00	 4.791403867509614e-02
 1.098244270445701e+00	 1.077045057979658e+00	 2.419355936417735e-01
 1.087696314957954e+00	 1.087696314957954e+00	 6.632119675438640e-01
 1.077045057979658e+00	 1.098244270445701e+00	 1.299582789001086e+00
 1.066292012118133e+00	 1.108687441265958e+00	 2.138831785963798e+00
 1.055438718689437e+00	 1.119024374372843e+00	 3.176707348912043e+00
 1.044486746976496e+00	 1.129253647530560e+00	 4.419430064812516e+00
 1.033437693467736e+00	 1.139373869970101e+00	 5.855351125437165e+00
 1.145909107113222e+00	 1.039365300356437e+00	 8.099000961561933e-01
 1.135730836955065e+00	 1.050477729186075e+00	 3.703208519390491e-01
 1.125442890584133e+00	 1.061492519376731e+00	 2.156470208745369e-01
 1.115046666746616e+00	 1.072408065282828e+00	 3.201255133259509e-01
 1.104543595835981e+00	 1.083222788620335e+00	 6.569847225159304e-01
 1.093935139232501e+00	 1.093935139232501e+00	 1.199685825178737e+00
 1.083222788620335e+00	 1.104543595835981e+00	 1.921687435702019e+00
 1.072408065282828e+00	 1.115046666746616e+00	 2.797612178324477e+00
 1.061492519376731e+00	 1.125442890584134e+00	 3.819743831577315e+00
 1.050477729186075e+00	 1.135730836955066e+00	 4.964725751420803e+00
 1.039365300356437e+00	 1.145909107113222e+00	 6.202903750550553e+00
 1.152444344255910e+00	 1.045292907245138e+00	 8.124399579896131e-01
 1.142208026379153e+00	 1.056468711395594e+00	 5.007863580883771e-01
 1.131861406795029e+00	 1.067546320063906e+00	 4.751180145133748e-01
 1.121405892226911e+00	 1.078524118447347e+00	 7.003118314178258e-01
 1.110842921225937e+00	 1.089400519260783e+00	 1.139489796636640e+00
 1.100173963506769e+00	 1.100173963506769e+00	 1.754915058400819e+00
 1.089400519260783e+00	 1.110842921225936e+00	 2.508856853198150e+00
 1.078524118447347e+00	 1.121405892226911e+00	 3.375569567263039e+00
 1.067546320063906e+00	 1.131861406795029e+00	 4.329534918801511e+00
 1.056468711395593e+00	 1.142208026379153e+00	 5.329138048082603e+00
 1.045292907245138e+00	 1.152444344255910e+00	 6.331268757438201e+00
 1.158979581398281e+00	 1.051220514133840e+00	 9.411476716123565e-01
 1.148685215802940e+00	 1.062459693605073e+00	 7.529710875191107e-01
 1.138279923005648e+00	 1.073600120751002e+00	 8.381117612974377e-01
 1.127765117706955e+00	 1.084640171611749e+00	 1.154652924295170e+00
 1.117142246615671e+00	 1.095578249901076e+00	 1.658463711838478e+00
 1.106412787780847e+00	 1.106412787780847e+00	 2.303458212647135e+00
 1.095578249901076e+00	 1.117142246615671e+00	 3.048134963131643e+00
 1.084640171611749e+00	 1.127765117706955e+00	 3.866442957121587e+00
 1.073600120751001e+00	 1.138279923005648e+00	 4.712057410804993e+00
 1.062459693605073e+00	 1.148685215802941e+00	 5.534041551140151e+00
 1.051220514133840e+00	 1.158979581398281e+00	 6.279582477799946e+00
 1.165514818540451e+00	 1.057148121022542e+00	 1.170865921655880e+00
 1.155162405226548e+00	 1.068450675814532e+00	 1.096377639271649e+00
 1.144698439216106e+00	 1.079653921438058e+00	 1.271507631573982e+00
 1.134124343186860e+00	 1.090756224776091e+00	 1.650077799900323e+00
 1.123441572005285e+00	 1.101755980541289e+00	 2.183414851338250e+00
 1.112651612054825e+00	 1.112651612054825e+00	 2.820727954914057e+00
 1.101755980541289e+00	 1.123441572005284e+00	 3.527735376857173e+00
 1.090756224776090e+00	 1.134124343186860e+00	 4.263377188539980e+00
 1.079653921438057e+00	 1.144698439216106e+00	 4.973139944543798e+00
 1.068450675814532e+00	 1.155162405226549e+00	 5.600317087984918e+00
 1.057148121022542e+00	 1.165514818540452e+00	 6.086088879932195e+00
 1.172050055682539e+00	 1.063075727911243e+00	 1.477000086337917e+00
 1.161639594650095e+00	 1.074441658023991e+00	 1.501191081283752e+00
 1.151116955426522e+00	 1.085707722125113e+00	 1.742926635073771e+00
 1.140483568666735e+00	 1.096872277940430e+00	 2.154256647131428e+00
 1.129740897394881e+00	 1.107933711181497e+00	 2.684630551501634e+00
 1.118890436328793e+00	 1.118890436328793e+00	 3.288339022824084e+00
 1.107933711181497e+00	 1.129740897394881e+00	 3.930919415207543e+00
 1.096872277940430e+00	 1.140483568666735e+00	 4.559655639657310e+00
 1.085707722125113e+00	 1.151116955426522e+00	 5.118466501235698e+00
 1.074441658023991e+00	 1.161639594650096e+00	 5.548364841544385e+00
 1.063075727911243e+00	 1.172050055682539e+00	 5.788163788223156e+00
 1.178585292824659e+00	 1.069003334799945e+00	 1.835502842408123e+00
 1.168116784073700e+00	 1.080432640233470e+00	 1.938260262946002e+00
 1.157535471637011e+00	 1.091761522812206e+00	 2.220711121264133e+00
 1.146842794146693e+00	 1.102988331104825e+00	 2.635580577016579e+00
 1.136040222784560e+00	 1.114111441821773e+00	 3.134131400590126e+00
 1.125129260602840e+00	 1.125129260602840e+00	 3.684675406098205e+00
 1.114111441821773e+00	 1.136040222784560e+00	 4.241155493256364e+00
 1.102988331104825e+00	 1.146842794146693e+00	 4.748695779630888e+00
 1.091761522812206e+00	 1.157535471637012e+00	 5.153579792131799e+00
 1.080432640233470e+00	 1.168116784073701e+00	 5.398117032726135e+00
 1.069003334799945e+00	 1.178585292824659e+00	 5.422338291149480e+00
 1.185120529966928e+00	 1.074930941688647e+00	 2.222859281569841e+00
 1.174593973497482e+00	 1.086423622442988e+00	 2.379079748486536e+00
 1.163953987847693e+00	 1.097815323499378e+00	 2.673905154293656e+00
 1.153202019626845e+00	 1.109104384269333e+00	 3.063142037548066e+00
 1.142339548174426e+00	 1.120289172462195e+00	 3.510238843176617e+00
 1.131368084877056e+00	 1.131368084877056e+00	 3.986121847382105e+00
 1.120289172462194e+00	 1.142339548174426e+00	 4.441395072794730e+00
 1.109104384269333e+00	 1.153202019626845e+00	 4.824044864579868e+00
 1.097815323499378e+00	 1.163953987847693e+00	 5.083884527234083e+00
 1.086423622442988e+00	 1.174593973497482e+00	 5.169050177882527e+00
 1.074930941688647e+00	 1.185120529966928e+00	 5.024321369098609e+00
 1.191655767109463e+00	 1.080858548577347e+00	 2.616072518742378e+00
 1.181071162921560e+00	 1.092414604652565e+00	 2.795772347351374e+00
 1.170372504058683e+00	 1.103869124186667e+00	 3.072235536630599e+00
 1.159561245107302e+00	 1.115220437434012e+00	 3.408652924243840e+00
 1.148638873564579e+00	 1.126466903102834e+00	 3.786225986450559e+00
 1.137606909151529e+00	 1.137606909151529e+00	 4.169556921380709e+00
 1.126466903102834e+00	 1.148638873564579e+00	 4.515487066512637e+00
 1.115220437434012e+00	 1.159561245107302e+00	 4.779002394646425e+00
 1.103869124186666e+00	 1.170372504058683e+00	 4.914650571451977e+00
 1.092414604652565e+00	 1.181071162921561e+00	 4.880196937610811e+00
 1.080858548577348e+00	 1.191655767109464e+00	 4.629021771967729e+00
 1.198191004252381e+00	 1.086786155466048e+00	 2.992649773384900e+00
 1.187548352346055e+00	 1.098405586862223e+00	 3.161072218786543e+00
 1.176791020270100e+00	 1.109922924874111e+00	 3.386093456627640e+00
 1.165920470588176e+00	 1.121336490598920e+00	 3.648633216169700e+00
 1.154938198955122e+00	 1.132644633743766e+00	 3.934755387890076e+00
 1.143845733426350e+00	 1.143845733426350e+00	 4.212340103414100e+00
 1.132644633743766e+00	 1.154938198955122e+00	 4.447750259093951e+00
 1.121336490598919e+00	 1.165920470588176e+00	 4.606034710916763e+00
 1.109922924874111e+00	 1.176791020270100e+00	 4.651015992495931e+00
 1.098405586862222e+00	 1.187548352346055e+00	 4.550157572491186e+00
 1.086786155466048e+00	 1.198191004252381e+00	 4.270569175182025e+00
 1.027510086579036e+00	 1.132838632826431e+00	 5.248557123230307e+00
 1.016427608238230e+00	 1.142792711064822e+00	 6.767093548494680e+00
 1.005251844099737e+00	 1.152635638954059e+00	 7.862824063760167e+00
 9.939844766498350e-01	 1.162366112724792e+00	 8.537869482361209e+00
 9.826272122003075e-01	 1.171982862328630e+00	 8.794508734652359e+00
 9.711817800374670e-01	 1.181484651980107e+00	 8.635171582210004e+00
 9.596499315567855e-01	 1.190870280673080e+00	 8.062431634837871e+00
 9.480334393840437e-01	 1.200138582671100e+00	 7.078999741833871e+00
 9.363340964839015e-01	 1.209288427971361e+00	 5.687717824731771e+00
 9.245537152568286e-01	 1.218318722741866e+00	 3.891553214052515e+00
 9.126941266253301e-01	 1.227228409731459e+00	 1.693593547528505e+00
 1.033437693467736e+00	 1.139373869970101e+00	 5.855351125437165e+00
 1.022291281375197e+00	 1.149385372328985e+00	 7.116255331534266e+00
 1.011051045328171e+00	 1.159285083123100e+00	 7.859790325352858e+00
 9.997186775190335e-01	 1.169071691061754e+00	 8.114296539889756e+00
 9.882958941031171e-01	 1.178743918769747e+00	 7.909857206863055e+00
 9.767844343428174e-01	 1.188300523332462e+00	 7.278246010434226e+00
 9.651860597372367e-01	 1.197740296815246e+00	 6.252873034332065e+00
 9.535025531382613e-01	 1.207062066756603e+00	 4.868729160768873e+00
 9.417357178539907e-01	 1.216264696634832e+00	 3.162329078606497e+00
 9.298873767404562e-01	 1.225347086307701e+00	 1.171653056630753e+00
 9.179593712825768e-01	 1.234308172424850e+00	-1.063912364450230e+00
 1.039365300356437e+00	 1.145909107113222e+00	 6.202903750550552e+00
 1.028154954512246e+00	 1.155978033592601e+00	 7.176284348879783e+00
 1.016850246556764e+00	 1.165934527291609e+00	 7.578132697397339e+00
 1.005452878388470e+00	 1.175777269398208e+00	 7.457942892039185e+00
 9.939645760062396e-01	 1.185504975210383e+00	 6.868214188078342e+00
 9.823870886485516e-01	 1.195116394684369e+00	 5.864361924273833e+00
 9.707221879181400e-01	 1.204610312956998e+00	 4.504625142489033e+00
 9.589716668929942e-01	 1.213985550841725e+00	 2.849971132436114e+00
 9.471373392246524e-01	 1.223240965297948e+00	 9.639971328719737e-01
 9.352210382247075e-01	 1.232375449873196e+00	-1.087170578628063e+00
 9.232246159404913e-01	 1.241387935117908e+00	-3.234979975235251e+00
 1.045292907245138e+00	 1.152444344255910e+00	 6.331268757438201e+00
 1.034018627649354e+00	 1.162570694855779e+00	 7.004009324235062e+00
 1.022649447785478e+00	 1.172583971459681e+00	 7.086336675806517e+00
 1.011187079258085e+00	 1.182482847734234e+00	 6.643924684717008e+00
 9.996332579095959e-01	 1.192266031650607e+00	 5.746396080499004e+00
 9.879897429545744e-01	 1.201932266035882e+00	 4.467204891880574e+00
 9.762583160993820e-01	 1.211480329098371e+00	 2.883514394471271e+00
 9.644407806481138e-01	 1.220909034926485e+00	 1.076070849300203e+00
 9.525389605957438e-01	 1.230217233960716e+00	-8.709266788431145e-01
 9.405546997094262e-01	 1.239403813438355e+00	-2.869960131781470e+00
 9.284898605989058e-01	 1.248467697810633e+00	-4.830329604021744e+00
 1.051220514133840e+00	 1.158979581398281e+00	 6.279582477799946e+00
 1.039882300786503e+00	 1.169163356118626e+00	 6.654963020300898e+00
 1.028448649014271e+00	 1.179233415627417e+00	 6.451328740422913e+00
 1.016921280127817e+00	 1.189188426069917e+00	 5.745649397832538e+00
 1.005301939813108e+00	 1.199027088090488e+00	 4.619472219223591e+00
 9.935923972607900e-01	 1.208748137387051e+00	 3.158784024879072e+00
 9.817944442808508e-01	 1.218350345239403e+00	 1.453868075136987e+00
 9.699098944034910e-01	 1.227832519010907e+00	-4.008440375096707e-01
 9.579405819671214e-01	 1.237193502623147e+00	-2.306925120208499e+00
 9.458883611944573e-01	 1.246432177003179e+00	-4.162109401369176e+00
 9.337551052576544e-01	 1.255547460503023e+00	-5.860453505558194e+00
 1.057148121022542e+00	 1.165514818540452e+00	 6.086088879932194e+00
 1.045745973923672e+00	 1.175756017381254e+00	 6.183417898492103e+00
 1.034247850243104e+00	 1.185882859794912e+00	 5.738519374041760e+00
 1.022655480997610e+00	 1.195894004405343e+00	 4.834863045187063e+00
 1.010970621716699e+00	 1.205788144530092e+00	 3.560813135089839e+00
 9.991950515671009e-01	 1.215564008737927e+00	 2.009478249030047e+00
 9.873305724624323e-01	 1.225220361380129e+00	 2.785556073881839e-01
 9.753790081589967e-01	 1.234756003095011e+00	-1.529830035158763e+00
 9.633422033386424e-01	 1.244169771285253e+00	-3.309292428213358e+00
 9.512220226796441e-01	 1.253460540567672e+00	-4.949354461982830e+00
 9.390203499165697e-01	 1.262627223195081e+00	-6.335623038514393e+00
 1.063075727911243e+00	 1.172050055682539e+00	 5.788163788223156e+00
 1.051609647060841e+00	 1.182348678643772e+00	 5.642420579573192e+00
 1.040047051471938e+00	 1.192532303962266e+00	 5.011844635831775e+00
 1.028389681867402e+00	 1.202599582740594e+00	 3.981695788586769e+00
 1.016639303620290e+00	 1.212549200969488e+00	 2.642137195885147e+00
 1.004797705873412e+00	 1.222379880088564e+00	 1.088081019628953e+00
 9.928667006440139e-01	 1.232090377520585e+00	-5.809715483312898e-01
 9.808481219145028e-01	 1.241679487178819e+00	-2.261095550699548e+00
 9.687438247101636e-01	 1.251146039947044e+00	-3.844112454118958e+00
 9.565556841648307e-01	 1.260488904131836e+00	-5.217764893962710e+00
 9.442855945754851e-01	 1.269706985886806e+00	-6.265895602518857e+00
 1.069003334799945e+00	 1.178585292824659e+00	 5.422338291149480e+00
 1.057473320197990e+00	 1.188941339906287e+00	 5.083825151755041e+00
 1.045846252700731e+00	 1.199181748129576e+00	 4.333806345265731e+00
 1.034123882737135e+00	 1.209305161075755e+00	 3.254706027730722e+00
 1.022307985523803e+00	 1.219310257408746e+00	 1.933555688869205e+00
 1.010400360179627e+00	 1.229195751439012e+00	 4.618435420083216e-01
 9.984028288254823e-01	 1.238960393660807e+00	-1.064641329479028e+00
 9.863172356698798e-01	 1.248602971262355e+00	-2.545969713645119e+00
 9.741454460815411e-01	 1.258122308608529e+00	-3.878237539651258e+00
 9.618893456498615e-01	 1.267517267695675e+00	-4.953735313105291e+00
 9.495508392342339e-01	 1.276786748578197e+00	-5.661121352844363e+00
 1.074930941688647e+00	 1.185120529966928e+00	 5.024321369098609e+00
 1.063336993335098e+00	 1.195534001168910e+00	 4.558325370741608e+00
 1.051645453929444e+00	 1.205831192296939e+00	 3.765510930195758e+00
 1.039858083606749e+00	 1.216010739410908e+00	 2.720923024710514e+00
 1.027976667427159e+00	 1.226071313847931e+00	 1.503616404776384e+00
 1.016003014485650e+00	 1.236011622789324e+00	 1.965165548480052e-01
 1.003938957006725e+00	 1.245830409800832e+00	-1.113723790268541e+00
 9.917863494249995e-01	 1.255526455345638e+00	-2.336872237796025e+00
 9.795470674526328e-01	 1.265098577269720e+00	-3.379268100052497e+00
 9.672230071345804e-01	 1.274545631259191e+00	-4.143977188800962e+00
 9.548160838926487e-01	 1.283866511269256e+00	-4.530949701323656e+00
 1.080858548577348e+00	 1.191655767109464e+00	 4.629021771967730e+00
 1.069200666472146e+00	 1.202126662431748e+00	 4.115485794264251e+00
 1.057444655158038e+00	 1.212480636464455e+00	 3.366706990356058e+00
 1.045592284476185e+00	 1.222716317746139e+00	 2.445888119376348e+00
 1.033645349330281e+00	 1.232832370287112e+00	 1.419345780824431e+00
 1.021605668791385e+00	 1.242827494139550e+00	 3.563907314664522e-01
 1.009475085187628e+00	 1.252700425940695e+00	-6.707950546654065e-01
 9.972554631797325e-01	 1.262449939428692e+00	-1.587284282424213e+00
 9.849486888232947e-01	 1.272074845930627e+00	-2.315532886855235e+00
 9.725566686188319e-01	 1.281573994822386e+00	-2.775510939528278e+00
 9.600813285505632e-01	 1.290946273959983e+00	-2.884835611701660e+00
 1.086786155466048e+00	 1.198191004252381e+00	 4.270569175182025e+00
 1.075064339609114e+00	 1.208719323694913e+00	 3.803771891784137e+00
 1.063243856386472e+00	 1.219130080632220e+00	 3.195821625338248e+00
 1.051326485345384e+00	 1.229421896081530e+00	 2.493694589371010e+00
 1.039314031233091e+00	 1.239593426726358e+00	 1.746289657746848e+00
 1.027208323096735e+00	 1.249643365489745e+00	 1.004335751858343e+00
 1.015011213368080e+00	 1.259570442080433e+00	 3.202975435943447e-01
 1.002724576933951e+00	 1.269373423511538e+00	-2.517202746582636e-01
 9.903503101933842e-01	 1.279051114591260e+00	-6.560699044271221e-01
 9.778903301024598e-01	 1.288602358385265e+00	-8.356582951154394e-01
 9.653465732078104e-01	 1.298026036650377e+00	-7.320456972716793e-01
 9.126941266253301e-01	 1.227228409731459e+00	 1.693593547528505e+00
 9.007592135149235e-01	 1.236014986072517e+00	-4.584535145298950e-01
 8.887488253361341e-01	 1.244678998212643e+00	-2.124246869850781e+00
 8.766648353614378e-01	 1.253219506267087e+00	-3.310881472217470e+00
 8.645091316774273e-01	 1.261635608237728e+00	-4.026046530634200e+00
 8.522836162359341e-01	 1.269926440281931e+00	-4.278028717597596e+00
 8.399902039001794e-01	 1.278091176953135e+00	-4.075713763687463e+00
 8.276308214869176e-01	 1.286129031413138e+00	-3.428586421324038e+00
 8.152074068055497e-01	 1.294039255616013e+00	-2.346728788773210e+00
 8.027219076951706e-01	 1.301821140463702e+00	-8.408169937014784e-01
 7.901762810605031e-01	 1.309474015933302e+00	 1.077883756265331e+00
 9.179593712825768e-01	 1.234308172424850e+00	-1.063912364450230e+00
 9.059556068060932e-01	 1.243145437679841e+00	-3.084181718683143e+00
 8.938759318527958e-01	 1.251859431672693e+00	-4.477933057079654e+00
 8.817222305018924e-01	 1.260449209096579e+00	-5.278609974860220e+00
 8.694964017321677e-01	 1.268913862749860e+00	-5.521753208697869e+00
 8.572003584676338e-01	 1.277252523806497e+00	-5.244954082070291e+00
 8.448360266181751e-01	 1.285464362058033e+00	-4.487804610183428e+00
 8.324053441161692e-01	 1.293548586127093e+00	-3.291844344361571e+00
 8.199102599500563e-01	 1.301504443652369e+00	-1.700504046583416e+00
 8.073527331958299e-01	 1.309331221445109e+00	 2.409537046456913e-01
 7.947347320474101e-01	 1.317028245617134e+00	 2.485496865714113e+00
 9.232246159404913e-01	 1.241387935117908e+00	-3.234979975235252e+00
 9.111520000979662e-01	 1.250275889286824e+00	-5.032217280510885e+00
 8.990030383701904e-01	 1.259039865132385e+00	-6.113906101232981e+00
 8.867796256431019e-01	 1.267678911925684e+00	-6.534497486059529e+00
 8.744836717876799e-01	 1.276192117261567e+00	-6.351724831830861e+00
 8.621171007001169e-01	 1.284578607330597e+00	-5.626517454990311e+00
 8.496818493369620e-01	 1.292837547162419e+00	-4.422909452536059e+00
 8.371798667462170e-01	 1.300968140840489e+00	-2.807944009997915e+00
 8.246131130953616e-01	 1.308969631688123e+00	-8.515733267775916e-01
 8.119835586972889e-01	 1.316841302425870e+00	 1.373445658444858e+00
 7.992931830351171e-01	 1.324582475300281e+00	 3.791659547709797e+00
 9.284898605989058e-01	 1.248467697810633e+00	-4.830329604021744e+00
 9.163483933903672e-01	 1.257406340893469e+00	-6.338394213865203e+00
 9.041301448881336e-01	 1.266220298591729e+00	-7.087855407898184e+00
 8.918370207848774e-01	 1.274908614754423e+00	-7.148932231944227e+00
 8.794709418437707e-01	 1.283470371772889e+00	-6.595997157088799e+00
 8.670338429331876e-01	 1.291904690854288e+00	-5.507459566918324e+00
 8.545276720563426e-01	 1.300210732266370e+00	-3.965643517861157e+00
 8.419543893768623e-01	 1.308387695553425e+00	-2.056659988434394e+00
 8.293159662412662e-01	 1.316434819723388e+00	 1.297261523780759e-01
 8.166143841993475e-01	 1.324351383406118e+00	 2.500234213606954e+00
 8.038516340234237e-01	 1.332136704982894e+00	 4.958210530542089e+00
 9.337551052576544e-01	 1.255547460503023e+00	-5.860453505558196e+00
 9.215447866831196e-01	 1.264536792499779e+00	-7.037751713886013e+00
 9.092572514064435e-01	 1.273400732050735e+00	-7.454227353961148e+00
 8.968944159270301e-01	 1.282138317582822e+00	-7.190727449103975e+00
 8.844582119002473e-01	 1.290748626283865e+00	-6.332812865421379e+00
 8.719505851666500e-01	 1.299230774377626e+00	-4.970621407622177e+00
 8.593734947761192e-01	 1.307583917369962e+00	-3.198724522086354e+00
 8.467289120079058e-01	 1.315807250265995e+00	-1.115977862173649e+00
 8.340188193875699e-01	 1.323900007758281e+00	 1.174634013727153e+00
 8.212452097018060e-01	 1.331861464385989e+00	 3.566158526133028e+00
 8.084100850121306e-01	 1.339690934665124e+00	 5.947841241141106e+00
 9.390203499165697e-01	 1.262627223195081e+00	-6.335623038514392e+00
 9.267411799760478e-01	 1.271667244105759e+00	-7.164557219578997e+00
 9.143843579249360e-01	 1.280581165509415e+00	-7.266260919460347e+00
 9.019518110693717e-01	 1.289368020410903e+00	-6.727166325101379e+00
 8.894454819569170e-01	 1.298026880794533e+00	-5.638672616782428e+00
 8.768673274003085e-01	 1.306556857900669e+00	-4.096998270460830e+00
 8.642193174960935e-01	 1.314957102473272e+00	-2.203026649135202e+00
 8.515034346391487e-01	 1.323226804978296e+00	-6.214515842767371e-02
 8.387216725340740e-01	 1.331365195792919e+00	 2.215921742291503e+00
 8.258760352044646e-01	 1.339371545365615e+00	 4.517285366574194e+00
 8.129685360010376e-01	 1.347245164347121e+00	 6.724071144221591e+00
 9.442855945754851e-01	 1.269706985886806e+00	-6.265895602518857e+00
 9.319375732689762e-01	 1.278797695711410e+00	-6.752328713521376e+00
 9.195114644434282e-01	 1.287761598967780e+00	-6.576022136249557e+00
 9.070092062117132e-01	 1.296597723238690e+00	-5.824045444544238e+00
 8.944327520135863e-01	 1.305305135304933e+00	-4.588384406394823e+00
 8.817840696339667e-01	 1.313882941423474e+00	-2.965791998061583e+00
 8.690651402160680e-01	 1.322330287576376e+00	-1.057632733716024e+00
 8.562779572703911e-01	 1.330646359690425e+00	 1.030279412824294e+00
 8.434245256805779e-01	 1.338830383827416e+00	 3.187849201415570e+00
 8.305068607071231e-01	 1.346881626345132e+00	 5.300874125633497e+00
 8.175269869899446e-01	 1.354799394029036e+00	 7.251223896605882e+00
 9.495508392342339e-01	 1.276786748578197e+00	-5.661121352844363e+00
 9.371339665617289e-01	 1.285928147316737e+00	-5.833856288305741e+00
 9.246385709617380e-01	 1.294942032425842e+00	-5.434437399393801e+00
 9.120666013538661e-01	 1.303827426066207e+00	-4.545716798723641e+00
 8.994200220700630e-01	 1.312583389815105e+00	-3.255111288110169e+00
 8.867008118674292e-01	 1.321209024946097e+00	-1.654461499106639e+00
 8.739109629358442e-01	 1.329703472679350e+00	 1.601152825583326e-01
 8.610524799014349e-01	 1.338065914402476e+00	 2.088378349362104e+00
 8.481273788268821e-01	 1.346295571861889e+00	 4.026122585955613e+00
 8.351376862095822e-01	 1.354391707324674e+00	 5.865342974288041e+00
 8.220854379786514e-01	 1.362353623711018e+00	 7.494404285085507e+00
 9.548160838926487e-01	 1.283866511269256e+00	-4.530949701323657e+00
 9.423303598541299e-01	 1.293058598921742e+00	-4.441223008025468e+00
 9.297656774796816e-01	 1.302122465883613e+00	-3.891325685198038e+00
 9.171239964956415e-01	 1.311057128893476e+00	-2.955128414264983e+00
 9.044072921261541e-01	 1.319861644325085e+00	-1.710417527893964e+00
 8.916175541005001e-01	 1.328535108468596e+00	-2.387716029648987e-01
 8.787567856552255e-01	 1.337076657782270e+00	 1.374567555069435e+00
 8.658270025320803e-01	 1.345485469114547e+00	 3.040829312972033e+00
 8.528302319727866e-01	 1.353760759896453e+00	 4.667853757044242e+00
 8.397685117116412e-01	 1.361901788304374e+00	 6.160236133867311e+00
 8.266438889669584e-01	 1.369907853393219e+00	 7.419475917577335e+00
 9.600813285505632e-01	 1.290946273959983e+00	-2.884835611701659e+00
 9.475267531460031e-01	 1.300189050526428e+00	-2.605825091864723e+00
 9.348927839970761e-01	 1.309302899341102e+00	-1.995429717840586e+00
 9.221813916368514e-01	 1.318286831720522e+00	-1.113863653806050e+00
 9.093945621816664e-01	 1.327139898834914e+00	-2.431324770195253e-02
 8.965342963329834e-01	 1.335861191991027e+00	 1.207159684023221e+00
 8.836026083740131e-01	 1.344449842885214e+00	 2.511719136385416e+00
 8.706015251621286e-01	 1.352905023826733e+00	 3.817860591308495e+00
 8.575330851180926e-01	 1.361225947931225e+00	 5.051520905393156e+00
 8.443993372131001e-01	 1.369411869284368e+00	 6.136192213478392e+00
 8.312023399546657e-01	 1.377462083075788e+00	 6.993039638656964e+00
 9.653465732078104e-01	 1.298026036650377e+00	-7.320456972716793e-01
 9.527231464371734e-01	 1.307319502130800e+00	-3.583914456734119e-01
 9.400198905137386e-01	 1.316483332798322e+00	 2.055538752466379e-01
 9.272387867773065e-01	 1.325516534547367e+00	 9.178207605968465e-01
 9.143818322364077e-01	 1.334418153344632e+00	 1.734702382616798e+00
 9.014510385646834e-01	 1.343187275513448e+00	 2.610815459583784e+00
 8.884484310920087e-01	 1.351823027988257e+00	 3.499164311800766e+00
 8.753760477913806e-01	 1.360324578539132e+00	 4.351208007887761e+00
 8.622359382625994e-01	 1.368691135966320e+00	 5.116930492412131e+00
 8.490301627137596e-01	 1.376921950264789e+00	 5.744913574027255e+00
 8.357607909415732e-01	 1.385016312758878e+00	 6.182412641813235e+00
 7.901762810605031e-01	 1.309474015933302e+00	 1.077883756265331e+00
 7.775724921538926e-01	 1.316997251493802e+00	 3.022429347152469e+00
 7.649125143346542e-01	 1.324390257134714e+00	 4.621240955437328e+00
 7.521983273406831e-01	 1.331652482463453e+00	 5.885858923970765e+00
 7.394319160785158e-01	 1.338783416402234e+00	 6.827988977454604e+00
 7.266152696671564e-01	 1.345782587173835e+00	 7.448573717786002e+00
 7.137503804864437e-01	 1.352649562260090e+00	 7.749872848050974e+00
 7.008392432308426e-01	 1.359383948333415e+00	 7.741078942458937e+00
 6.878838539695308e-01	 1.365985391161689e+00	 7.431607121964528e+00
 6.748862092136254e-01	 1.372453575486838e+00	 6.831116245637425e+00
 6.618483049913858e-01	 1.378788224877522e+00	 5.949527825831293e+00
 7.947347320474101e-01	 1.317028245617134e+00	 2.485496865714113e+00
 7.820582330944967e-01	 1.324594881999977e+00	 4.631346703136771e+00
 7.693252210805268e-01	 1.332030537179435e+00	 6.325055429864668e+00
 7.565376871643154e-01	 1.339334657587757e+00	 7.591597699494839e+00
 7.436976277031341e-01	 1.346506729198790e+00	 8.456983180781211e+00
 7.308070432910254e-01	 1.353546277513669e+00	 8.942686950107944e+00
 7.178679378016779e-01	 1.360452867519065e+00	 9.062210197319425e+00
 7.048823174367581e-01	 1.367226103618319e+00	 8.840635688335631e+00
 6.918521897805761e-01	 1.373865629535772e+00	 8.304418225777974e+00
 6.787795628619315e-01	 1.380371128194650e+00	 7.480898745950733e+00
 6.656664442239804e-01	 1.386742321568902e+00	 6.398292412755334e+00
 7.992931830351171e-01	 1.324582475300281e+00	 3.791659547709797e+00
 7.865439740359006e-01	 1.332192512505436e+00	 6.007125207117266e+00
 7.737379278271984e-01	 1.339670817223418e+00	 7.698441500816708e+00
 7.608770469887430e-01	 1.347016832711303e+00	 8.901284482637614e+00
 7.479633393285424e-01	 1.354230041994578e+00	 9.652978615124997e+00
 7.349988169156754e-01	 1.361309967852731e+00	 9.990623433901732e+00
 7.219854951176785e-01	 1.368256172777272e+00	 9.939509369279785e+00
 7.089253916434206e-01	 1.375068258902466e+00	 9.535426254864880e+00
 6.958205255923428e-01	 1.381745867909116e+00	 8.818353993042315e+00
 6.826729165109264e-01	 1.388288680901750e+00	 7.829663419805772e+00
 6.694845834572227e-01	 1.394696418259602e+00	 6.612079984898831e+00
 8.038516340234237e-01	 1.332136704982894e+00	 4.958210530542089e+00
 7.910297149779048e-01	 1.339790143010344e+00	 7.130533813451660e+00
 7.781506345744692e-01	 1.347311097266834e+00	 8.738201414422640e+00
 7.652164068137673e-01	 1.354699007834274e+00	 9.824913055444959e+00
 7.522290509545420e-01	 1.361953354789784e+00	 1.043646383481623e+01
 7.391905905409083e-01	 1.369073658191210e+00	 1.062054116132659e+01
 7.261030524342501e-01	 1.376059478034898e+00	 1.041492780194958e+01
 7.129684658506364e-01	 1.382910414186039e+00	 9.861002294476299e+00
 6.997888614046400e-01	 1.389626106281897e+00	 9.008818669257730e+00
 6.865662701604218e-01	 1.396206233608299e+00	 7.910190628240063e+00
 6.733027226909291e-01	 1.402650514949769e+00	 6.618637156042578e+00
 8.084100850121306e-01	 1.339690934665124e+00	 5.947841241141106e+00
 7.955154559203086e-01	 1.347387773514863e+00	 7.982768073768035e+00
 7.825633413221392e-01	 1.354951377309859e+00	 9.441203301926020e+00
 7.695557666391883e-01	 1.362381182956852e+00	 1.037224651487798e+01
 7.564947625809341e-01	 1.369676667584597e+00	 1.082737498974850e+01
 7.433823641665259e-01	 1.376837348529294e+00	 1.086035528503135e+01
 7.302206097511953e-01	 1.383862783292129e+00	 1.052088302829477e+01
 7.170115400582112e-01	 1.390752569469217e+00	 9.852123202325782e+00
 7.037571972172763e-01	 1.397506344654285e+00	 8.910429120303366e+00
 6.904596238102308e-01	 1.404123786314460e+00	 7.754533983851230e+00
 6.771208619249167e-01	 1.410604611639553e+00	 6.445098667423677e+00
 8.129685360010376e-01	 1.347245164347121e+00	 6.724071144221591e+00
 8.000011968629125e-01	 1.354985404019159e+00	 8.545437432559559e+00
 7.869760480700081e-01	 1.362591657352667e+00	 9.804378599980398e+00
 7.738951264648064e-01	 1.370063358079217e+00	 1.055282302100087e+01
 7.607604742075191e-01	 1.377399980379199e+00	 1.084519614343017e+01
 7.475741377923311e-01	 1.384601038867169e+00	 1.073832616065017e+01
 7.343381670683192e-01	 1.391666088549151e+00	 1.028907255202156e+01
 7.210546142659512e-01	 1.398594724752184e+00	 9.542777539078681e+00
 7.077255330300599e-01	 1.405386583026457e+00	 8.557036195491563e+00
 6.943529774601656e-01	 1.412041339020397e+00	 7.394040088630531e+00
 6.809390011590026e-01	 1.418558708329103e+00	 6.118003977009318e+00
 8.175269869899446e-01	 1.354799394029036e+00	 7.251223896605882e+00
 8.044869378055161e-01	 1.362583034523394e+00	 8.800552937901232e+00
 7.913887548178761e-01	 1.370231937395432e+00	 9.824719547307907e+00
 7.782344862904226e-01	 1.377745533201551e+00	 1.037596134290422e+01
 7.650261858340990e-01	 1.385123293173777e+00	 1.050897116637564e+01
 7.517659114181253e-01	 1.392364729205023e+00	 1.028080231720530e+01
 7.384557243854243e-01	 1.399469393806149e+00	 9.750493033731393e+00
 7.250976884736618e-01	 1.406436880035118e+00	 8.966203713501256e+00
 7.116938688428003e-01	 1.413266821398584e+00	 7.981745353606571e+00
 6.982463311100385e-01	 1.419958891726272e+00	 6.859367590309319e+00
 6.847571403930037e-01	 1.426512805018568e+00	 5.663313273750878e+00
 8.220854379786514e-01	 1.362353623711018e+00	 7.494404285085507e+00
 8.089726787479197e-01	 1.370180665027734e+00	 8.730515351176445e+00
 7.958014615655435e-01	 1.377872217438328e+00	 9.499276754759501e+00
 7.825738461158364e-01	 1.385427708324037e+00	 9.850766210214578e+00
 7.692918974604748e-01	 1.392846605968519e+00	 9.837315223904447e+00
 7.559576850437113e-01	 1.400128419543043e+00	 9.513419320880923e+00
 7.425732817023147e-01	 1.407272699063309e+00	 8.935647378432819e+00
 7.291407626811492e-01	 1.414279035318203e+00	 8.154909953594199e+00
 7.156622046553058e-01	 1.421147059770840e+00	 7.216936580539181e+00
 7.021396847596617e-01	 1.427876444432247e+00	 6.180505583673331e+00
 6.885752796267371e-01	 1.434466901708098e+00	 5.106422939140387e+00
 8.266438889669584e-01	 1.369907853393219e+00	 7.419475917577335e+00
 8.134584196899231e-01	 1.377778295532340e+00	 8.318103640412970e+00
 8.002141683128110e-01	 1.385512497481530e+00	 8.825156845943120e+00
 7.869132059408492e-01	 1.393109883446855e+00	 8.986133477697370e+00
 7.735576090864471e-01	 1.400569918763610e+00	 8.848425874006333e+00
 7.601494586688906e-01	 1.407892109881418e+00	 8.461241366464616e+00
 7.466908390187942e-01	 1.415076004320817e+00	 7.875522391261351e+00
 7.331838368882193e-01	 1.422121190601618e+00	 7.140693593733851e+00
 7.196305404673856e-01	 1.429027298143399e+00	 6.294283625863842e+00
 7.060330384088480e-01	 1.435793997138485e+00	 5.386791382131960e+00
 6.923934188600199e-01	 1.442420998397841e+00	 4.472180477406284e+00
 8.312023399546657e-01	 1.377462083075788e+00	 6.993039638656964e+00
 8.179441606313274e-01	 1.385375926037378e+00	 7.546463842502349e+00
 8.046268750594782e-01	 1.393152777525212e+00	 7.799520165712714e+00
 7.912525657652613e-01	 1.400792058570189e+00	 7.790755110128285e+00
 7.778233207118174e-01	 1.408293231559235e+00	 7.560093790241826e+00
 7.643412322934664e-01	 1.415655800220334e+00	 7.148776232428252e+00
 7.508083963346665e-01	 1.422879309578859e+00	 6.599293745944479e+00
 7.372269110946775e-01	 1.429963345885546e+00	 5.954659704082492e+00
 7.235988762788474e-01	 1.436907536516434e+00	 5.244772584507802e+00
 7.099263920574095e-01	 1.443711549845151e+00	 4.506927683721212e+00
 6.962115580926688e-01	 1.450375095087947e+00	 3.784898934749727e+00
 8.357607909415732e-01	 1.385016312758878e+00	 6.182412641813235e+00
 8.224299015719309e-01	 1.392973556543011e+00	 6.399098280220239e+00
 8.090395818053454e-01	 1.400793057569549e+00	 6.419578553927734e+00
 7.955919255888730e-01	 1.408474233694218e+00	 6.273123994297022e+00
 7.820890323363869e-01	 1.416016544355583e+00	 5.989713123996085e+00
 7.685330059172397e-01	 1.423419490559979e+00	 5.599989736878518e+00
 7.549259536497352e-01	 1.430682614837620e+00	 5.135220960323172e+00
 7.412699853003305e-01	 1.437805501170166e+00	 4.627256123932632e+00
 7.275672120895014e-01	 1.444787774890119e+00	 4.098719848518831e+00
 7.138197457051589e-01	 1.451629102552406e+00	 3.568999154662979e+00
 7.000296973245008e-01	 1.458329191778564e+00	 3.068370827132135e+00
 6.618483049913858e-01	 1.378788224877522e+00	 5.949527825831292e+00
 6.487699095967796e-01	 1.384990144222397e+00	 4.994562377554112e+00
 6.356552290236301e-01	 1.391058044979909e+00	 4.167173827308472e+00
 6.225062527617115e-01	 1.396991765020092e+00	 3.466792834009210e+00
 6.093249662367155e-01	 1.402791180224235e+00	 2.892825166239907e+00
 5.961133499364965e-01	 1.408456204215545e+00	 2.444666353288853e+00
 5.828733785497980e-01	 1.413986788066745e+00	 2.121714171320724e+00
 5.696070201181347e-01	 1.419382919985196e+00	 1.923378972348573e+00
 5.563162352014727e-01	 1.424644624976096e+00	 1.849091878289532e+00
 5.430029760583274e-01	 1.429771964484383e+00	 1.898310876391901e+00
 5.296691858408672e-01	 1.434765036015944e+00	 2.070524865638532e+00
 6.656664442239804e-01	 1.386742321568902e+00	 6.398292412755333e+00
 6.525126008240003e-01	 1.392980019190503e+00	 5.273730742097707e+00
 6.393222629197794e-01	 1.399082925084413e+00	 4.303558407830494e+00
 6.260974314782574e-01	 1.405050876185350e+00	 3.484658679097311e+00
 6.128401033788459e-01	 1.410883747658563e+00	 2.813686495779986e+00
 5.995522705346324e-01	 1.416581452628946e+00	 2.287090301796344e+00
 5.862359190261404e-01	 1.422143941886962e+00	 1.901131792933310e+00
 5.728930282483172e-01	 1.427571203571930e+00	 1.651903574054671e+00
 5.595255700714005e-01	 1.432863262833292e+00	 1.535344735620908e+00
 5.461355080162874e-01	 1.438020181470444e+00	 1.547254373950607e+00
 5.327247964449955e-01	 1.443042057551770e+00	 1.683303093464698e+00
 6.694845834572227e-01	 1.394696418259602e+00	 6.612079984898831e+00
 6.562552920518185e-01	 1.400969894157965e+00	 5.382498260455131e+00
 6.429892968164699e-01	 1.407107805188320e+00	 4.325772112443686e+00
 6.296886101952830e-01	 1.413109987350059e+00	 3.436578096836414e+00
 6.163552405213909e-01	 1.418976315092390e+00	 2.709205266567386e+00
 6.029911911331183e-01	 1.424706701041903e+00	 2.137583072963052e+00
 5.895984595027690e-01	 1.430301095706788e+00	 1.715307216699301e+00
 5.761790363787246e-01	 1.435759487158326e+00	 1.435663432817205e+00
 5.627349049414975e-01	 1.441081900690199e+00	 1.291649209953802e+00
 5.492680399743685e-01	 1.446268398456265e+00	 1.275993458964598e+00
 5.357804070492048e-01	 1.451319079087398e+00	 1.381174160452745e+00
 6.733027226909291e-01	 1.402650514949769e+00	 6.618637156042578e+00
 6.599979832800569e-01	 1.408959769124917e+00	 5.342771699859433e+00
 6.466563307135300e-01	 1.415132685291741e+00	 4.250630887567212e+00
 6.332797889126243e-01	 1.421169098514310e+00	 3.335016441997239e+00
 6.198703776641965e-01	 1.427068882525793e+00	 2.588227219342287e+00
 6.064301117318085e-01	 1.432831949454466e+00	 2.002092076490658e+00
 5.929609999795484e-01	 1.438458249526254e+00	 1.568000678716881e+00
 5.794650445092341e-01	 1.443947770744395e+00	 1.276932224451633e+00
 5.659442398116531e-01	 1.449300538546813e+00	 1.119482080051508e+00
 5.524005719324733e-01	 1.454516615441825e+00	 1.085886333077941e+00
 5.388360176534135e-01	 1.459596100622796e+00	 1.166044287493656e+00
 6.771208619249167e-01	 1.410604611639553e+00	 6.445098667423678e+00
 6.637406745085377e-01	 1.416949644091492e+00	 5.175978897120395e+00
 6.503233646107899e-01	 1.423157565394793e+00	 4.094587676409963e+00
 6.368709676301190e-01	 1.429228209678199e+00	 3.192175172787059e+00
 6.233855148071075e-01	 1.435161449958841e+00	 2.459416689739374e+00
 6.098690323305584e-01	 1.440957197866686e+00	 1.886449409397094e+00
 5.963235404563446e-01	 1.446615403345389e+00	 1.462907022444427e+00
 5.827510526397223e-01	 1.452136054330145e+00	 1.177952216685107e+00
 5.691535746817576e-01	 1.457519176403124e+00	 1.020307012473749e+00
 5.555331038905049e-01	 1.462764832427100e+00	 9.782809494222997e-01
 5.418916282575384e-01	 1.467873122157929e+00	 1.039797144282932e+00
 6.809390011590026e-01	 1.418558708329103e+00	 6.118003977009320e+00
 6.674833657370843e-01	 1.424939519057822e+00	 4.903081690168667e+00
 6.539903985080778e-01	 1.431182445497587e+00	 3.873742167007820e+00
 6.404621463476025e-01	 1.437287320841818e+00	 3.019998884043499e+00
 6.269006519499696e-01	 1.443254017391609e+00	 2.331261389446556e+00
 6.133079529292226e-01	 1.449082446278614e+00	 1.796374841805084e+00
 5.996860809330227e-01	 1.454772557164222e+00	 1.403657339358570e+00
 5.860370607700663e-01	 1.460324337915590e+00	 1.140935008225624e+00
 5.723629095516996e-01	 1.465737814259127e+00	 9.955748356358703e-01
 5.586656358483669e-01	 1.471013049412068e+00	 9.545152510244295e-01
 5.449472388614981e-01	 1.476150143692762e+00	 1.004294473966136e+00
 6.847571403930037e-01	 1.426512805018568e+00	 5.663313273750878e+00
 6.712260569655186e-01	 1.432929394024040e+00	 4.544588398056314e+00
 6.576574324052233e-01	 1.439207325600238e+00	 3.603850196300430e+00
 6.440533250649124e-01	 1.445346432005262e+00	 2.830182088343276e+00
 6.304157890926273e-01	 1.451346584824167e+00	 2.212077011641135e+00
 6.167468735276558e-01	 1.457207694690300e+00	 1.737478688061570e+00
 6.030486214094480e-01	 1.462929710982785e+00	 1.393820540902269e+00
 5.893230689001431e-01	 1.468512621500738e+00	 1.168062230209332e+00
 5.755722444213691e-01	 1.473956452114813e+00	 1.046723792694817e+00
 5.617981678059620e-01	 1.479261266396707e+00	 1.015917390091600e+00
 5.480028494652096e-01	 1.484427165227262e+00	 1.061489796140198e+00
 6.885752796267371e-01	 1.434466901708098e+00	 5.106422939140388e+00
 6.749687481936630e-01	 1.440919268990278e+00	 4.120565866942592e+00
 6.613244663020548e-01	 1.447232205702859e+00	 3.300332823600564e+00
 6.476445037818852e-01	 1.453405543168623e+00	 2.634175754812566e+00
 6.339309262349262e-01	 1.459439152256587e+00	 2.110011667525495e+00
 6.201857941257128e-01	 1.465332943101795e+00	 1.715264567640461e+00
 6.064111618854863e-01	 1.471086864801106e+00	 1.436904864391159e+00
 5.926090770298299e-01	 1.476700905085600e+00	 1.261486211487200e+00
 5.787815792906560e-01	 1.482175089970176e+00	 1.175181379490101e+00
 5.649306997631937e-01	 1.487509483380995e+00	 1.164091937781786e+00
 5.510584600685913e-01	 1.492704186761395e+00	 1.214409670176841e+00
 6.923934188600199e-01	 1.442420998397841e+00	 4.472180477406284e+00
 6.787114394213402e-01	 1.448909143956669e+00	 3.650651098820573e+00
 6.649915001984027e-01	 1.455257085805564e+00	 2.978285086219723e+00
 6.512356824983572e-01	 1.461464654331993e+00	 2.443193614993841e+00
 6.374460633767118e-01	 1.467531719688942e+00	 2.033050160483814e+00
 6.236247147232484e-01	 1.473458191513149e+00	 1.735132060084710e+00
 6.097737023610023e-01	 1.479244018619215e+00	 1.536359315429056e+00
 5.958950851590034e-01	 1.484889188670185e+00	 1.423305263864428e+00
 5.819909141594490e-01	 1.490393727825208e+00	 1.382549197699281e+00
 5.680632317199648e-01	 1.495757700364909e+00	 1.400914583231425e+00
 5.541140706715604e-01	 1.500981208295127e+00	 1.464914890364228e+00
 6.962115580926688e-01	 1.450375095087947e+00	 3.784898934749727e+00
 6.824541306483731e-01	 1.456899018923345e+00	 3.154062479005573e+00
 6.686585340940945e-01	 1.463281965908467e+00	 2.652484449454247e+00
 6.548268612141656e-01	 1.469523765495468e+00	 2.268218244713350e+00
 6.409612005178291e-01	 1.475624287121304e+00	 1.989018104095369e+00
 6.270636353201177e-01	 1.481583439924414e+00	 1.802379140910003e+00
 6.131362428358624e-01	 1.487401172437143e+00	 1.695297629590274e+00
 5.991810932875407e-01	 1.493077472254505e+00	 1.655256400814964e+00
 5.852002490276385e-01	 1.498612365679901e+00	 1.670080900720740e+00
 5.711957636761784e-01	 1.504005917348428e+00	 1.727356340577372e+00
 5.571696812740350e-01	 1.509258229828425e+00	 1.814437011539451e+00
 7.000296973245008e-01	 1.458329191778564e+00	 3.068370827132134e+00
 6.861968218745838e-01	 1.464888893890438e+00	 2.649610617706522e+00
 6.723255679889603e-01	 1.471306846011681e+00	 2.337398962602976e+00
 6.584180399291466e-01	 1.477582876659139e+00	 2.120006930504166e+00
 6.444763376581236e-01	 1.483716854553744e+00	 1.985494199215831e+00
 6.305025559161753e-01	 1.489708688335640e+00	 1.921273836507462e+00
 6.164987833099310e-01	 1.495558326254919e+00	 1.916094293463417e+00
 6.024671014153186e-01	 1.501265755838569e+00	 1.958954539653832e+00
 5.884095838951133e-01	 1.506831003534249e+00	 2.038758727909709e+00
 5.743282956317380e-01	 1.512254134331529e+00	 2.144321579489650e+00
 5.602252918759325e-01	 1.517535251361254e+00	 2.264373832115242e+00
 5.296691858408672e-01	 1.434765036015944e+00	 2.070524865638532e+00
 5.163190688308803e-01	 1.439623158038130e+00	 2.302944665196717e+00
 5.029522813283460e-01	 1.444347358201994e+00	 2.530046010225947e+00
 4.895707329421400e-01	 1.448937838646585e+00	 2.747255666174592e+00
 4.761763211503492e-01	 1.453394835841910e+00	 2.950182685478595e+00
 4.627709305788981e-01	 1.457718620117905e+00	 3.134619700605327e+00
 4.493564322980741e-01	 1.461909495176767e+00	 3.296542383272987e+00
 4.359346831373438e-01	 1.465967797589339e+00	 3.432107184151719e+00
 4.225075250188142e-01	 1.469893896276274e+00	 3.537647474136949e+00
 4.090767843096734e-01	 1.473688191974680e+00	 3.609668214057535e+00
 3.956442711939038e-01	 1.477351116691019e+00	 3.644839284436112e+00
 5.327247964449955e-01	 1.443042057551770e+00	 1.683303093464698e+00
 5.192976638934053e-01	 1.447928205612917e+00	 1.879245535266506e+00
 5.058537646787414e-01	 1.452679659233363e+00	 2.071452307614528e+00
 4.923950194262516e-01	 1.457296621718283e+00	 2.256527883598245e+00
 4.789233365604134e-01	 1.461779330901862e+00	 2.431344007752473e+00
 4.654406115793993e-01	 1.466128058673551e+00	 2.593037654187614e+00
 4.519487263475430e-01	 1.470343110487583e+00	 2.739007030767567e+00
 4.384495484062030e-01	 1.474424824856452e+00	 2.866905754387004e+00
 4.249449303033795e-01	 1.478373572829082e+00	 2.974635329385220e+00
 4.114367089424183e-01	 1.482189757454407e+00	 3.060356756578392e+00
 3.979267049501003e-01	 1.485873813231091e+00	 3.123203807094200e+00
 5.357804070492048e-01	 1.451319079087398e+00	 1.381174160452745e+00
 5.222762589559826e-01	 1.456233253187544e+00	 1.544083484458944e+00
 5.087552480291694e-01	 1.461011960264603e+00	 1.705082078415307e+00
 4.952193059103838e-01	 1.465655404789880e+00	 1.861843195184187e+00
 4.816703519704932e-01	 1.470163825961741e+00	 2.012376614153479e+00
 4.681102925799156e-01	 1.474537497229151e+00	 2.155023663726043e+00
 4.545410203970298e-01	 1.478776725798380e+00	 2.288450181255703e+00
 4.409644136750849e-01	 1.482881852123574e+00	 2.411712262749665e+00
 4.273823355879728e-01	 1.486853249381933e+00	 2.525035178152936e+00
 4.137966335751952e-01	 1.490691322934210e+00	 2.628289761338792e+00
 4.002091387063301e-01	 1.494396509771284e+00	 2.721269959722800e+00
 5.388360176534135e-01	 1.459596100622796e+00	 1.166044287493657e+00
 5.252548540185452e-01	 1.464538300761968e+00	 1.300092063622135e+00
 5.116567313795790e-01	 1.469344261295668e+00	 1.433998312519105e+00
 4.980435923945024e-01	 1.474014187861330e+00	 1.566398971093487e+00
 4.844173673805691e-01	 1.478548321021499e+00	 1.696320230435000e+00
 4.707799735804418e-01	 1.482946935784657e+00	 1.823241528421039e+00
 4.571333144465422e-01	 1.487210341109111e+00	 1.947907885343660e+00
 4.434792789440081e-01	 1.491338879390661e+00	 2.070868061926488e+00
 4.298197408726202e-01	 1.495332925934780e+00	 2.192656039746582e+00
 4.161565582080354e-01	 1.499192888414045e+00	 2.314038080168158e+00
 4.024915724626263e-01	 1.502919206311548e+00	 2.436000552989879e+00
 5.418916282575384e-01	 1.467873122157929e+00	 1.039797144282932e+00
 5.282334490810263e-01	 1.472843348336149e+00	 1.149865796321470e+00
 5.145582147299198e-01	 1.477676562326513e+00	 1.261215089305389e+00
 5.008678788785720e-01	 1.482372970932583e+00	 1.373360871528436e+00
 4.871643827906217e-01	 1.486932816081087e+00	 1.487043678001894e+00
 4.734496545809729e-01	 1.491356374340022e+00	 1.603226077027608e+00
 4.597256084960878e-01	 1.495643956419731e+00	 1.722838010687082e+00
 4.459941442129904e-01	 1.499795906657666e+00	 1.847090110405302e+00
 4.322571461573484e-01	 1.503812602487578e+00	 1.977459914622629e+00
 4.185164828409708e-01	 1.507694453893865e+00	 2.115678008161234e+00
 4.047740062190222e-01	 1.511441902851830e+00	 2.263714109569948e+00
 5.449472388614981e-01	 1.476150143692762e+00	 1.004294473966136e+00
 5.312120441433595e-01	 1.481148395910043e+00	 1.095961303406252e+00
 5.174596980801408e-01	 1.486008863357090e+00	 1.190147360457797e+00
 5.036921653625578e-01	 1.490731754003592e+00	 1.287956244115434e+00
 4.899113982006313e-01	 1.495317311140457e+00	 1.390440089564743e+00
 4.761193355815037e-01	 1.499765812895197e+00	 1.498969398423155e+00
 4.623179025456745e-01	 1.504077571730192e+00	 1.615220244492405e+00
 4.485090094820507e-01	 1.508252933924546e+00	 1.741159292559932e+00
 4.346945514421844e-01	 1.512292279040283e+00	 1.879028720621335e+00
 4.208764074740328e-01	 1.516196019373624e+00	 2.031331073859611e+00
 4.070564399755510e-01	 1.519964599392081e+00	 2.200814078313714e+00
 5.480028494652096e-01	 1.484427165227262e+00	 1.061489796140198e+00
 5.341906392054778e-01	 1.489453443483611e+00	 1.141995119048446e+00
 5.203611814301912e-01	 1.494341164387353e+00	 1.225892550694767e+00
 5.065164518464250e-01	 1.499090537074308e+00	 1.314503083564815e+00
 4.926584136105788e-01	 1.503701806199560e+00	 1.409481226407393e+00
 4.787890165820292e-01	 1.508175251450136e+00	 1.512799392777790e+00
 4.649101965953096e-01	 1.512511187040449e+00	 1.626732153472578e+00
 4.510238747512069e-01	 1.516709961191254e+00	 1.753840382765040e+00
 4.371319567271537e-01	 1.520771955592849e+00	 1.896955327961604e+00
 4.232363321072532e-01	 1.524697584853274e+00	 2.059162631382393e+00
 4.093388737322460e-01	 1.528487295932251e+00	 2.243786333424157e+00
 5.510584600685913e-01	 1.492704186761395e+00	 1.214409670176841e+00
 5.371692342673143e-01	 1.497758491056808e+00	 1.291547213895526e+00
 5.232626647800200e-01	 1.502673465417256e+00	 1.371390617681940e+00
 5.093407383301393e-01	 1.507449320144682e+00	 1.455766852860751e+00
 4.954054290204444e-01	 1.512086301258349e+00	 1.546819519337675e+00
 4.814586975825439e-01	 1.516584690004791e+00	 1.646992725714089e+00
 4.675024906450008e-01	 1.520944802350454e+00	 1.759014864788612e+00
 4.535387400204777e-01	 1.525166988457745e+00	 1.885882314297129e+00
 4.395693620122836e-01	 1.529251632145231e+00	 2.030843092306325e+00
 4.255962567406635e-01	 1.533199150332770e+00	 2.197380496215000e+00
 4.116213074891404e-01	 1.537009992472289e+00	 2.389196753830868e+00
 5.541140706715604e-01	 1.500981208295127e+00	 1.464914890364228e+00
 5.401478293288025e-01	 1.506063538629595e+00	 1.546762092646104e+00
 5.261641481295767e-01	 1.511005766446753e+00	 1.629195828832347e+00
 5.121650248136650e-01	 1.515808103214667e+00	 1.714451384357074e+00
 4.981524444302087e-01	 1.520470796316772e+00	 1.805048677897383e+00
 4.841283785830433e-01	 1.524994128559112e+00	 1.903776030642636e+00
 4.700947846947560e-01	 1.529378417660163e+00	 2.013673875598452e+00
 4.560536052898813e-01	 1.533624015723974e+00	 2.138018435813857e+00
 4.420067672976006e-01	 1.537731308697385e+00	 2.280305399933488e+00
 4.279561813742956e-01	 1.541700715812063e+00	 2.444233622970383e+00
 4.139037412462674e-01	 1.545532689012144e+00	 2.633688879667125e+00
 5.571696812740350e-01	 1.509258229828425e+00	 1.814437011539451e+00
 5.431264243898752e-01	 1.514368586201928e+00	 1.909733427664323e+00
 5.290656314788106e-01	 1.519338067475797e+00	 2.001805103765097e+00
 5.149893112969677e-01	 1.524166886284214e+00	 2.093200325567190e+00
 5.008994598398526e-01	 1.528855291374784e+00	 2.186705072049981e+00
 4.867980595835216e-01	 1.533403567113055e+00	 2.285327067664553e+00
 4.726870787445826e-01	 1.537812032969529e+00	 2.392279832280248e+00
 4.585684705594363e-01	 1.542081042989898e+00	 2.510966755888112e+00
 4.444441725831308e-01	 1.546210985249264e+00	 2.644965224547790e+00
 4.303161060081809e-01	 1.550202281291109e+00	 2.798010823511348e+00
 4.161861750036603e-01	 1.554055385551768e+00	 2.973981642889351e+00
 5.602252918759325e-01	 1.517535251361254e+00	 2.264373832115242e+00
 5.461050194504662e-01	 1.522673633773767e+00	 2.382507171627842e+00
 5.319671148276707e-01	 1.527670368504342e+00	 2.491659315261380e+00
 5.178135977800125e-01	 1.532525669353275e+00	 2.594598533424920e+00
 5.036464752493562e-01	 1.537239786432333e+00	 2.694269064620335e+00
 4.894677405839741e-01	 1.541813005666570e+00	 2.793775840699335e+00
 4.752793727944883e-01	 1.546245648278505e+00	 2.896369280487944e+00
 4.610833358291607e-01	 1.550538070255469e+00	 3.005430176053172e+00
 4.468815778689010e-01	 1.554690661800824e+00	 3.124454695288584e+00
 4.326760306423511e-01	 1.558703846769861e+00	 3.257039523892833e+00
 4.184686087613524e-01	 1.562578082091108e+00	 3.406867169208668e+00
 3.956442711939038e-01	 1.477351116691019e+00	 3.644839284436112e+00
 3.822117792468353e-01	 1.480883133461804e+00	 3.661836460998789e+00
 3.687810853789673e-01	 1.484284736740762e+00	 3.678034006012162e+00
 3.553539486873725e-01	 1.487556450846154e+00	 3.692839046947514e+00
 3.419321097195881e-01	 1.490698829042657e+00	 3.706636783985291e+00
 3.285172899454604e-01	 1.493712452934736e+00	 3.717897106974078e+00
 3.151111912495110e-01	 1.496597931850662e+00	 3.724894107946928e+00
 3.017154954439191e-01	 1.499355902217940e+00	 3.725720935567928e+00
 2.883318638021947e-01	 1.501987026930858e+00	 3.718304718067717e+00
 2.749619366135821e-01	 1.504491994710871e+00	 3.700421509943064e+00
 2.616073327582157e-01	 1.506871519460547e+00	 3.669711219360860e+00
 3.979267049501003e-01	 1.485873813231091e+00	 3.123203807094200e+00
 3.844167222487311e-01	 1.489426205866871e+00	 3.181464695842041e+00
 3.709085479996148e-01	 1.492847432667928e+00	 3.249274437205521e+00
 3.574039514478568e-01	 1.496138020977261e+00	 3.322609014647484e+00
 3.439046831820171e-01	 1.499298527251279e+00	 3.400708162690171e+00
 3.304124746029072e-01	 1.502329536449662e+00	 3.480433304898751e+00
 3.169290374130285e-01	 1.505231661415839e+00	 3.558360638778068e+00
 3.034560631267449e-01	 1.508005542248799e+00	 3.630803949040523e+00
 2.899952226012659e-01	 1.510651845667006e+00	 3.693833661412673e+00
 2.765481655884793e-01	 1.513171264365078e+00	 3.743295933803246e+00
 2.631165203076562e-01	 1.515564516364017e+00	 3.774831734769846e+00
 4.002091387063301e-01	 1.494396509771284e+00	 2.721269959722800e+00
 3.866216652506577e-01	 1.497969278272107e+00	 2.819576310908317e+00
 3.730360106202864e-01	 1.501410128595314e+00	 2.933436277512159e+00
 3.594539542083551e-01	 1.504719591108642e+00	 3.056666659470210e+00
 3.458772566444450e-01	 1.507898225460224e+00	 3.187454361555279e+00
 3.323076592603333e-01	 1.510946619964957e+00	 3.321553287867122e+00
 3.187468835765012e-01	 1.513865390981419e+00	 3.454274946415647e+00
 3.051966308094975e-01	 1.516655182280088e+00	 3.580604067705155e+00
 2.916585814002307e-01	 1.519316664403590e+00	 3.695220901974953e+00
 2.781343945632320e-01	 1.521850534019712e+00	 3.792523565056517e+00
 2.646257078569091e-01	 1.524257513267884e+00	 3.866650377160995e+00
 4.024915724626263e-01	 1.502919206311548e+00	 2.436000552989879e+00
 3.888266082526464e-01	 1.506512350677455e+00	 2.570699473039545e+00
 3.751634732410087e-01	 1.509972824522856e+00	 2.723691866741406e+00
 3.615039569688854e-01	 1.513301161240222e+00	 2.887298186580267e+00
 3.478498301068813e-01	 1.516497923669408e+00	 3.058678762470476e+00
 3.342028439177397e-01	 1.519563703480526e+00	 3.232976790931454e+00
 3.205647297399223e-01	 1.522499120547302e+00	 3.404663980539367e+00
 3.069371984921631e-01	 1.525304822311696e+00	 3.567837821768909e+00
 2.933219401990707e-01	 1.527981483140502e+00	 3.716246249166565e+00
 2.797206235378206e-01	 1.530529803674665e+00	 3.843312361052470e+00
 2.661348954059583e-01	 1.532950510172047e+00	 3.942159136809714e+00
 4.047740062190222e-01	 1.511441902851830e+00	 2.263714109569948e+00
 3.910315512547278e-01	 1.515055423082858e+00	 2.429473055337640e+00
 3.772909358618069e-01	 1.518535520450489e+00	 2.613412725107590e+00
 3.635539597294665e-01	 1.521882731371924e+00	 2.806968352850706e+00
 3.498224035693366e-01	 1.525097621878746e+00	 3.006373986085754e+00
 3.360980285751278e-01	 1.528180786996274e+00	 3.206614480352187e+00
 3.223825759032845e-01	 1.531132850113384e+00	 3.401738506215101e+00
 3.086777661747279e-01	 1.533954462343517e+00	 3.585389823178573e+00
 2.949852989977679e-01	 1.536646301877630e+00	 3.750833437026623e+00
 2.813068525122265e-01	 1.539209073329832e+00	 3.890981821260924e+00
 2.676440829547879e-01	 1.541643507076409e+00	 3.998421139796650e+00
 4.070564399755510e-01	 1.519964599392081e+00	 2.200814078313714e+00
 3.932364942569336e-01	 1.523598495488259e+00	 2.390658776104449e+00
 3.794183984827072e-01	 1.527098216378146e+00	 2.596121867411036e+00
 3.656039624901168e-01	 1.530464301503675e+00	 2.808315438767219e+00
 3.517949770318200e-01	 1.533697320088152e+00	 3.022716570077526e+00
 3.379932132324985e-01	 1.536797870512107e+00	 3.234562590079401e+00
 3.242004220665807e-01	 1.539766579679563e+00	 3.437887945202789e+00
 3.104183338571776e-01	 1.542604102375442e+00	 3.626308053010338e+00
 2.966486577963042e-01	 1.545311120614868e+00	 3.793046093484100e+00
 2.828930814864300e-01	 1.547888342985105e+00	 3.930959868632427e+00
 2.691532705033814e-01	 1.550336503980869e+00	 4.032568666026673e+00
 4.093388737322460e-01	 1.528487295932251e+00	 2.243786333424157e+00
 3.954414372592944e-01	 1.532141567893601e+00	 2.449137654113744e+00
 3.815458611037352e-01	 1.535660912305761e+00	 2.665489472409540e+00
 3.676539652508549e-01	 1.539045871635399e+00	 2.884146386081688e+00
 3.537675504943423e-01	 1.542297018297540e+00	 3.100061823171571e+00
 3.398883978898529e-01	 1.545414954027931e+00	 3.309097735566048e+00
 3.260182682298037e-01	 1.548400309245738e+00	 3.505675387913811e+00
 3.121589015394989e-01	 1.551253742407367e+00	 3.683799304748270e+00
 2.983120165946614e-01	 1.553975939352105e+00	 3.837083842853303e+00
 2.844793104604125e-01	 1.556567612640378e+00	 3.958779833825772e+00
 2.706624580517231e-01	 1.559029500885329e+00	 4.041801232229255e+00
 4.116213074891404e-01	 1.537009992472289e+00	 2.389196753830868e+00
 3.976463802618413e-01	 1.540684640298826e+00	 2.599906578987425e+00
 3.836733237249167e-01	 1.544223608233268e+00	 2.815328693613906e+00
 3.697039680116991e-01	 1.547627441767019e+00	 3.027432094781289e+00
 3.557401239569128e-01	 1.550896716506826e+00	 3.230938848100937e+00
 3.417835825471919e-01	 1.554032037543648e+00	 3.422671898029961e+00
 3.278361143929464e-01	 1.557034038811805e+00	 3.597832769394069e+00
 3.138994692216779e-01	 1.559903382439181e+00	 3.751224777401115e+00
 2.999753753928214e-01	 1.562640758089232e+00	 3.877278536390789e+00
 2.860655394341541e-01	 1.565246882295545e+00	 3.970077538310035e+00
 2.721716455997967e-01	 1.567722497789690e+00	 4.023383737418351e+00
 4.139037412462674e-01	 1.545532689012144e+00	 2.633688879667125e+00
 3.998513232646057e-01	 1.549227712703878e+00	 2.838074992233285e+00
 3.858007863462779e-01	 1.552786304160603e+00	 3.039591606048195e+00
 3.717539707726681e-01	 1.556209011898460e+00	 3.231285983859191e+00
 3.577126974195418e-01	 1.559496414715923e+00	 3.408045726977631e+00
 3.436787672045168e-01	 1.562649121059167e+00	 3.567907572584994e+00
 3.296539605560016e-01	 1.565667768377662e+00	 3.707256203001412e+00
 3.156400369037006e-01	 1.568553022470778e+00	 3.822095812673161e+00
 3.016387341907656e-01	 1.571305576826140e+00	 3.908090605970275e+00
 2.876517684076362e-01	 1.573926151950498e+00	 3.960588472524455e+00
 2.736808331475863e-01	 1.576415494693853e+00	 3.974644668400748e+00
 4.161861750036603e-01	 1.554055385551768e+00	 2.973981642889351e+00
 4.020562662676184e-01	 1.557770785108700e+00	 3.158861674695675e+00
 3.879282489678443e-01	 1.561349000087700e+00	 3.332365283755145e+00
 3.738039735337803e-01	 1.564790582029647e+00	 3.488951310270147e+00
 3.596852708822389e-01	 1.568096112924747e+00	 3.624244862842958e+00
 3.455739518618289e-01	 1.571266204574392e+00	 3.737593073950685e+00
 3.314718067189623e-01	 1.574301497943207e+00	 3.827001465723530e+00
 3.173806045855531e-01	 1.577202662502051e+00	 3.890069770659424e+00
 3.033020929884768e-01	 1.579970395562720e+00	 3.924105536149514e+00
 2.892379973808393e-01	 1.582605421605131e+00	 3.926145065446994e+00
 2.751900206950757e-01	 1.585108491597720e+00	 3.892974363027507e+00
 4.184686087613524e-01	 1.562578082091108e+00	 3.406867169208668e+00
 4.042612092709105e-01	 1.566313857513235e+00	 3.557591636356253e+00
 3.900557115896419e-01	 1.569911696014492e+00	 3.687868003054849e+00
 3.758539762950538e-01	 1.573372152160505e+00	 3.793888321672019e+00
 3.616578443450143e-01	 1.576695811133211e+00	 3.872558471434017e+00
 3.474691365191289e-01	 1.579883288089228e+00	 3.924677993724073e+00
 3.332896528818214e-01	 1.582935227508337e+00	 3.950279629346704e+00
 3.191211722672218e-01	 1.585852302532892e+00	 3.948946038776148e+00
 3.049654517859358e-01	 1.588635214298862e+00	 3.920030450108547e+00
 2.908242263537443e-01	 1.591284691259338e+00	 3.862674042081608e+00
 2.766992082422489e-01	 1.593801488501192e+00	 3.775823328984285e+00
 2.616073327582157e-01	 1.506871519460547e+00	 3.669711219360860e+00
 2.482673838752059e-01	 1.509126712206869e+00	 3.617113049118927e+00
 2.349459403107126e-01	 1.511257919523690e+00	 3.539620971019030e+00
 2.216445585885345e-01	 1.513265926228268e+00	 3.443782174128492e+00
 2.083647722423004e-01	 1.515151539716700e+00	 3.336062692410173e+00
 1.951080914932949e-01	 1.516915589294963e+00	 3.222849919521862e+00
 1.818760029487244e-01	 1.518558925507594e+00	 3.110455174755922e+00
 1.686699693202753e-01	 1.520082419464677e+00	 3.005116299794590e+00
 1.554914291627973e-01	 1.521486962167761e+00	 2.913000267163631e+00
 1.423417966329233e-01	 1.522773463835312e+00	 2.840205782481198e+00
 1.292224612674189e-01	 1.523942853228325e+00	 2.792765863811908e+00
 2.631165203076562e-01	 1.515564516364017e+00	 3.774831734769846e+00
 2.496996145421800e-01	 1.517832719100216e+00	 3.779245296852213e+00
 2.363013208505068e-01	 1.519976221146880e+00	 3.753908801067135e+00
 2.229232047359003e-01	 1.521995811848809e+00	 3.704176861543262e+00
 2.095668085788256e-01	 1.523892303259896e+00	 3.635397324097416e+00
 1.962336513129168e-01	 1.525666529470308e+00	 3.552913706238506e+00
 1.829252281215022e-01	 1.527319345931298e+00	 3.462067596154066e+00
 1.696430101545389e-01	 1.528851628778306e+00	 3.368200992655699e+00
 1.563884442657881e-01	 1.530264274152987e+00	 3.276658569382951e+00
 1.431629527700431e-01	 1.531558197524774e+00	 3.192789847885138e+00
 1.299679332201999e-01	 1.532734333012601e+00	 3.121951265511171e+00
 2.646257078569091e-01	 1.524257513267884e+00	 3.866650377160995e+00
 2.511318452089191e-01	 1.526538725993905e+00	 3.909865602769842e+00
 2.376567013900173e-01	 1.528694522770340e+00	 3.921230872279172e+00
 2.242018508829361e-01	 1.530725697469535e+00	 3.904966809232460e+00
 2.107688449149809e-01	 1.532633066803184e+00	 3.865345389731152e+00
 1.973592111321389e-01	 1.534417469645651e+00	 3.806692619779521e+00
 1.839744532938637e-01	 1.536079766354907e+00	 3.733391091720016e+00
 1.706160509883864e-01	 1.537620838091754e+00	 3.649882403253450e+00
 1.572854593683837e-01	 1.539041586137960e+00	 3.560669423979452e+00
 1.439841089068125e-01	 1.540342931213930e+00	 3.470318395822647e+00
 1.307134051727029e-01	 1.541525812796541e+00	 3.383460855123109e+00
 2.661348954059583e-01	 1.532950510172047e+00	 3.942159136809714e+00
 2.525640758754147e-01	 1.535244732887851e+00	 4.007782004002859e+00
 2.390120819292470e-01	 1.537412824394003e+00	 4.041924787223969e+00
 2.254804970296585e-01	 1.539455583090400e+00	 4.047732807379298e+00
 2.119708812507968e-01	 1.541373830346541e+00	 4.028444770006080e+00
 1.984847709510047e-01	 1.543168409820991e+00	 3.987395988977965e+00
 1.850236784658633e-01	 1.544840186778444e+00	 3.928021421567750e+00
 1.715890918218799e-01	 1.546390047405068e+00	 3.853858499103009e+00
 1.581824744706486e-01	 1.547818898122745e+00	 3.768549739011558e+00
 1.448052650432924e-01	 1.549127664902857e+00	 3.675845125598099e+00
 1.314588771249771e-01	 1.550317292580228e+00	 3.579604248414098e+00
 2.676440829547879e-01	 1.541643507076409e+00	 3.998421139796650e+00
 2.539963065416587e-01	 1.543950739781967e+00	 4.071832547297647e+00
 2.403674624681990e-01	 1.546131126017801e+00	 4.116323494808345e+00
 2.267591431760836e-01	 1.548185468711358e+00	 4.134022788904333e+00
 2.131729175863037e-01	 1.550114593889945e+00	 4.127178737249323e+00
 1.996103307695577e-01	 1.551919349996329e+00	 4.098163224635444e+00
 1.860729036375554e-01	 1.553600607201934e+00	 4.049475544701525e+00
 1.725621326550812e-01	 1.555159256718291e+00	 3.983745971536082e+00
 1.590794895726473e-01	 1.556596210107402e+00	 3.903739057055700e+00
 1.456264211795432e-01	 1.557912398591630e+00	 3.812356641711685e+00
 1.322043490770718e-01	 1.559108772363745e+00	 3.712640567712468e+00
 2.691532705033814e-01	 1.550336503980869e+00	 4.032568666026673e+00
 2.554285372076425e-01	 1.552656746676170e+00	 4.100884463471933e+00
 2.417228430068760e-01	 1.554849427641667e+00	 4.144755439563673e+00
 2.280377893222278e-01	 1.556915354332362e+00	 4.165352772058834e+00
 2.143749539215315e-01	 1.558855357433372e+00	 4.163977509991931e+00
 2.007358905878413e-01	 1.560670290171667e+00	 4.142065805047962e+00
 1.871221288089945e-01	 1.562361027625399e+00	 4.101193854885209e+00
 1.735351734880523e-01	 1.563928466031469e+00	 4.043082541821850e+00
 1.599765046744442e-01	 1.565373522091998e+00	 3.969601752109122e+00
 1.464475773156259e-01	 1.566697132280327e+00	 3.882774362798030e+00
 1.329498210290364e-01	 1.567900252147179e+00	 3.784779884959675e+00
 2.706624580517231e-01	 1.559029500885329e+00	 4.041801232229255e+00
 2.568607678733580e-01	 1.561362753570373e+00	 4.093833368297974e+00
 2.430782235452811e-01	 1.563567729265533e+00	 4.127544704873438e+00
 2.293164354681073e-01	 1.565645239953367e+00	 4.143207770538431e+00
 2.155769902565106e-01	 1.567596120976798e+00	 4.141219754698954e+00
 2.018614504058989e-01	 1.569421230347005e+00	 4.122109194377590e+00
 1.881713539802353e-01	 1.571121448048864e+00	 4.086542341079820e+00
 1.745082143208551e-01	 1.572697675344647e+00	 4.035329189595865e+00
 1.608735197761037e-01	 1.574150834076592e+00	 3.969429152537463e+00
 1.472687334516011e-01	 1.575481865969024e+00	 3.889956366319209e+00
 1.336952929809201e-01	 1.576691731930613e+00	 3.798184616170806e+00
 2.721716455997967e-01	 1.567722497789690e+00	 4.023383737418351e+00
 2.582929985387967e-01	 1.570068760464489e+00	 4.049602488786984e+00
 2.444336040834171e-01	 1.572286030889331e+00	 4.065011150376669e+00
 2.305950816137382e-01	 1.574375125574324e+00	 4.069042672377770e+00
 2.167790265912712e-01	 1.576336884520202e+00	 4.061234036709285e+00
 2.029870102237739e-01	 1.578172170522343e+00	 4.041234696476598e+00
 1.892205791513319e-01	 1.579881868472354e+00	 4.008814675377018e+00
 1.754812551535516e-01	 1.581466884657869e+00	 3.963872306612758e+00
 1.617705348776905e-01	 1.582928146061250e+00	 3.906441592937931e+00
 1.480898895875295e-01	 1.584266599657797e+00	 3.836699171506050e+00
 1.344407649327723e-01	 1.585483211714131e+00	 3.754970869190565e+00
 2.736808331475863e-01	 1.576415494693853e+00	 3.974644668400748e+00
 2.597252292039504e-01	 1.578774767358436e+00	 3.967141913894360e+00
 2.457889846212869e-01	 1.581004332512994e+00	 3.957470543772488e+00
 2.318737277591369e-01	 1.583105011195190e+00	 3.944283088831213e+00
 2.179810629258437e-01	 1.585077648063559e+00	 3.926300222345866e+00
 2.041125700415098e-01	 1.586923110697683e+00	 3.902321246655887e+00
 1.902698043223391e-01	 1.588642288895891e+00	 3.871234231227477e+00
 1.764542959862037e-01	 1.590236093971183e+00	 3.832025778705126e+00
 1.626675499792689e-01	 1.591705458046034e+00	 3.783790397661753e+00
 1.489110457234718e-01	 1.593051333346724e+00	 3.725739462931214e+00
 1.351862368846424e-01	 1.594274691497817e+00	 3.657209746547507e+00
 2.751900206950757e-01	 1.585108491597720e+00	 3.892974363027507e+00
 2.611574598688104e-01	 1.587480774252124e+00	 3.845427868708410e+00
 2.471443651588935e-01	 1.589722634136455e+00	 3.805234687240517e+00
 2.331523739043196e-01	 1.591834896815916e+00	 3.770326174391960e+00
 2.191830992602580e-01	 1.593818411606847e+00	 3.738650834070740e+00
 2.052381298591504e-01	 1.595674050873026e+00	 3.708187143779652e+00
 1.913190294933112e-01	 1.597402709319500e+00	 3.676956034639921e+00
 1.774273368188733e-01	 1.599005303284631e+00	 3.643032998704936e+00
 1.635645650809033e-01	 1.600482770031007e+00	 3.604559798619805e+00
 1.497322018594886e-01	 1.601836067035880e+00	 3.559755756993435e+00
 1.359317088365796e-01	 1.603066171281757e+00	 3.506928605130436e+00
 2.766992082422489e-01	 1.593801488501192e+00	 3.775823328984285e+00
 2.625896905333688e-01	 1.596186781145472e+00	 3.683462011225807e+00
 2.484997456962398e-01	 1.598440935759645e+00	 3.608611538682729e+00
 2.344310200493027e-01	 1.600564782436457e+00	 3.548541419051472e+00
 2.203851355945446e-01	 1.602559175150043e+00	 3.500472360477739e+00
 2.063636896767386e-01	 1.604424991048371e+00	 3.461591724965067e+00
 1.923682546643027e-01	 1.606163129743204e+00	 3.429068650910236e+00
 1.784003776516225e-01	 1.607774512598260e+00	 3.400068812963169e+00
 1.644615801826584e-01	 1.609260082016233e+00	 3.371768789880214e+00
 1.505533579956408e-01	 1.610620800725342e+00	 3.341370013492326e+00
 1.366771807886333e-01	 1.611857651066033e+00	 3.306112274335466e+00
 1.292224612674189e-01	 1.523942853228325e+00	 2.792765863811908e+00
 1.161370045432490e-01	 1.524995907719813e+00	 2.773851586043972e+00
 1.030845074523524e-01	 1.525933799106504e+00	 2.780507282510662e+00
 9.006625410705957e-02	 1.526757506934695e+00	 2.809563936678330e+00
 7.708350413538470e-02	 1.527468026584641e+00	 2.857888728457480e+00
 6.413749255031878e-02	 1.528066368615300e+00	 2.922398021521621e+00
 5.122942963663374e-02	 1.528553558112195e+00	 3.000069837715035e+00
 3.836050085490671e-02	 1.528930634038844e+00	 3.087955806593733e+00
 2.553186676246194e-02	 1.529198648592264e+00	 3.183192580002739e+00
 1.274466295091584e-02	 1.529358666562981e+00	 3.283012703394014e+00
 0.000000000000000e+00	 1.529411764700000e+00	 3.384754937769058e+00
 1.299679332201999e-01	 1.532734333012601e+00	 3.121951265511171e+00
 1.168069877544363e-01	 1.533793462474074e+00	 3.066311493683924e+00
 1.036791920629995e-01	 1.534736764465901e+00	 3.024310001309114e+00
 9.058583766610906e-02	 1.535565224185284e+00	 2.995715243076012e+00
 7.752819145842089e-02	 1.536279842754725e+00	 2.980261796597844e+00
 6.450749557756634e-02	 1.536881636562999e+00	 2.977661767464403e+00
 5.152496729030349e-02	 1.537371636609242e+00	 2.987615806921132e+00
 3.858179889598756e-02	 1.537750887850650e+00	 3.009823728786194e+00
 2.567915764705685e-02	 1.538020448554258e+00	 3.043994713916768e+00
 1.281818568621749e-02	 1.538181389653266e+00	 3.089857092185615e+00
 0.000000000000000e+00	 1.538234794108333e+00	 3.147167693947580e+00
 1.307134051727029e-01	 1.541525812796541e+00	 3.383460855123109e+00
 1.174769709654458e-01	 1.542591017227994e+00	 3.300377888511716e+00
 1.042738766735866e-01	 1.543539729824975e+00	 3.219892497866651e+00
 9.110542122522107e-02	 1.544372941435584e+00	 3.144466632305409e+00
 7.797287878163402e-02	 1.545091658924567e+00	 3.076470124668034e+00
 6.487749860508464e-02	 1.545696904510509e+00	 3.018190488045891e+00
 5.182050494430460e-02	 1.546189715106154e+00	 2.971842436592685e+00
 3.880309693741504e-02	 1.546571141662372e+00	 2.939577116245758e+00
 2.582644853195619e-02	 1.546842248516213e+00	 2.923491032535733e+00
 1.289170842171192e-02	 1.547004112743540e+00	 2.925634664169575e+00
 0.000000000000000e+00	 1.547057823516667e+00	 2.948020752937204e+00
 1.314588771249771e-01	 1.550317292580228e+00	 3.579604248414098e+00
 1.181469541763070e-01	 1.551388571981657e+00	 3.477562199627820e+00
 1.048685612841183e-01	 1.552342695183805e+00	 3.368141692613639e+00
 9.162500478437302e-02	 1.553180658685667e+00	 3.256257441014068e+00
 7.841756610497545e-02	 1.553903475094228e+00	 3.146685493415737e+00
 6.524750163280341e-02	 1.554512172457876e+00	 3.044071395609282e+00
 5.211604259855294e-02	 1.555007793602966e+00	 2.952938175026878e+00
 3.902439497910197e-02	 1.555391395474033e+00	 2.877694132446978e+00
 2.597373941708367e-02	 1.555664048478137e+00	 2.822640427466309e+00
 1.296523115735092e-02	 1.555826835833806e+00	 2.791978445611593e+00
 0.000000000000000e+00	 1.555880852925000e+00	 2.789816936682960e+00
 1.322043490770718e-01	 1.559108772363745e+00	 3.712640567712468e+00
 1.188169373870500e-01	 1.560186126735149e+00	 3.599343179423827e+00
 1.054632458945994e-01	 1.561145660542473e+00	 3.469925723256437e+00
 9.214458834354247e-02	 1.561988375935605e+00	 3.331518120739495e+00
 7.886225342839680e-02	 1.562715291263768e+00	 3.191076629387559e+00
 6.561750466065261e-02	 1.563327440405150e+00	 3.055390345446950e+00
 5.241158025296448e-02	 1.563825872099712e+00	 2.931087613072483e+00
 3.924569302096115e-02	 1.564211649285652e+00	 2.824642324927568e+00
 2.612103030236307e-02	 1.564485848440041e+00	 2.742380100481210e+00
 1.303875389308628e-02	 1.564649558924066e+00	 2.690484329521427e+00
 0.000000000000000e+00	 1.564703882333334e+00	 2.675002069986376e+00
 1.329498210290364e-01	 1.567900252147179e+00	 3.784779884959675e+00
 1.194869205977044e-01	 1.568983681488557e+00	 3.667167846238243e+00
 1.060579305050347e-01	 1.569948625901061e+00	 3.526094496585318e+00
 9.266417190270691e-02	 1.570796093185471e+00	 3.370670510485599e+00
 7.930694075184948e-02	 1.571527107433247e+00	 3.209809311868803e+00
 6.598750768856204e-02	 1.572142708352377e+00	 3.052231892585462e+00
 5.270711790745506e-02	 1.572643950596423e+00	 2.906471608038568e+00
 3.946699106290542e-02	 1.573031903097251e+00	 2.780878935305811e+00
 2.626832118771809e-02	 1.573307648401937e+00	 2.683626180247276e+00
 1.311227662886979e-02	 1.573472282014324e+00	 2.622712121221516e+00
 0.000000000000000e+00	 1.573526911741667e+00	 2.605966578484090e+00
 1.336952929809201e-01	 1.576691731930613e+00	 3.798184616170806e+00
 1.201569038083001e-01	 1.577781236241964e+00	 3.682452395224034e+00
 1.066526151154288e-01	 1.578751591259648e+00	 3.537480221624195e+00
 9.318375546184397e-02	 1.579603810435338e+00	 3.374128100030303e+00
 7.975162807528487e-02	 1.580338923602726e+00	 3.203046476136497e+00
 6.635751071646155e-02	 1.580957976299603e+00	 3.034679346595748e+00
 5.300265556194057e-02	 1.581462029093134e+00	 2.879267403410197e+00
 3.968828910484756e-02	 1.581852156908849e+00	 2.746851198899646e+00
 2.641561207307251e-02	 1.582129448363831e+00	 2.647274318408840e+00
 1.318579936465323e-02	 1.582295005104581e+00	 2.590186548932524e+00
 0.000000000000000e+00	 1.582349941150001e+00	 2.585047033165212e+00
 1.344407649327723e-01	 1.585483211714131e+00	 3.754970869190565e+00
 1.208268870188669e-01	 1.586578790995455e+00	 3.646583078661634e+00
 1.072472997257866e-01	 1.587554556618316e+00	 3.504897924846699e+00
 9.370333902093100e-02	 1.588411527685276e+00	 3.342296284324229e+00
 8.019631539865456e-02	 1.589150739772266e+00	 3.170948313168872e+00
 6.672751374428097e-02	 1.589773244246877e+00	 3.002814824505128e+00
 5.329819321633694e-02	 1.590280107589879e+00	 2.849648744533735e+00
 3.990958714670042e-02	 1.590672410720468e+00	 2.722996634350904e+00
 2.656290295835006e-02	 1.590951248325736e+00	 2.634200265827646e+00
 1.325932210038839e-02	 1.591117728194842e+00	 2.594398240733713e+00
 0.000000000000000e+00	 1.591172970558334e+00	 2.614527643502583e+00
 1.351862368846424e-01	 1.594274691497817e+00	 3.657209746547507e+00
 1.214968702294345e-01	 1.595376345749119e+00	 3.560917056896999e+00
 1.078419843361127e-01	 1.596357521977147e+00	 3.429145948150667e+00
 9.422292257994572e-02	 1.597219244935359e+00	 3.275572609324259e+00
 8.064100272190992e-02	 1.597962555941926e+00	 3.113672365948053e+00
 6.709751677195017e-02	 1.598588512194245e+00	 2.956719301884496e+00
 5.359373087056002e-02	 1.599098186086691e+00	 2.817785990427558e+00
 4.013088518837676e-02	 1.599492664532128e+00	 2.709743323640677e+00
 2.671019384347448e-02	 1.599773048287660e+00	 2.645260429745369e+00
 1.333284483602705e-02	 1.599940451285107e+00	 2.636804669196217e+00
 0.000000000000000e+00	 1.599995999966668e+00	 2.696641701181405e+00
 1.359317088365796e-01	 1.603066171281757e+00	 3.506928605130436e+00
 1.221668534400328e-01	 1.604173900503038e+00	 3.426783221032414e+00
 1.084366689464120e-01	 1.605160487336221e+00	 3.311006430253114e+00
 9.474250613886555e-02	 1.606026962185658e+00	 3.174347009590864e+00
 8.108569004500246e-02	 1.606774372111768e+00	 3.031373622486711e+00
 6.746751979939895e-02	 1.607403780141754e+00	 2.896472662180715e+00
 5.388926852452577e-02	 1.607916264583604e+00	 2.783846221866719e+00
 4.035218322978945e-02	 1.608312918343851e+00	 2.707510182864544e+00
 2.685748472836951e-02	 1.608594848249614e+00	 2.681292412601092e+00
 1.340636757152100e-02	 1.608763174375381e+00	 2.718831064930013e+00
 0.000000000000000e+00	 1.608819029375000e+00	 2.833572976321812e+00
 1.366771807886333e-01	 1.611857651066033e+00	 3.306112274335466e+00
 1.228368366506916e-01	 1.612971455257300e+00	 3.245482988448434e+00
 1.090313535566891e-01	 1.613963452695617e+00	 3.151245772138649e+00
 9.526208969766804e-02	 1.614834679436247e+00	 3.039002037963737e+00
 8.153037736788364e-02	 1.615586188281853e+00	 2.924204605703929e+00
 6.783752282655720e-02	 1.616219048089453e+00	 2.822153744361227e+00
 5.418480617815002e-02	 1.616734343080651e+00	 2.747993345884013e+00
 4.057348127085128e-02	 1.617133172155657e+00	 2.716707224120616e+00
 2.700477561295891e-02	 1.617416648211609e+00	 2.743115533204122e+00
 1.347989030682204e-02	 1.617585897465666e+00	 2.841871300231628e+00
 0.000000000000000e+00	 1.617642058783334e+00	 3.027457068009053e+00
 1.617642058783334e+00	 0.000000000000000e+00	 9.627965901114514e+00
 1.617585897465666e+00	 1.347989030682115e-02	 5.004218905995582e+00
 1.617416648211609e+00	 2.700477561295814e-02	 1.656734300099349e+00
 1.617133172155657e+00	 4.057348127085064e-02	-5.872050337772032e-01
 1.616734343080650e+00	 5.418480617814950e-02	-1.897164051626729e+00
 1.616219048089453e+00	 6.783752282655682e-02	-2.439275997914797e+00
 1.615586188281852e+00	 8.153037736788341e-02	-2.375958664866459e+00
 1.614834679436247e+00	 9.526208969766795e-02	-1.865626783148508e+00
 1.613963452695617e+00	 1.090313535566891e-01	-1.062400875088453e+00
 1.612971455257299e+00	 1.228368366506917e-01	-1.158129010757381e-01
 1.611857651066033e+00	 1.366771807886334e-01	 8.294909729995620e-01
 1.626466587363230e+00	 0.000000000000000e+00	 1.132698761893144e+01
 1.626410119675477e+00	 1.355342553456704e-02	 6.672139087390487e+00
 1.626239947136310e+00	 2.715209152423106e-02	 3.212209443820246e+00
 1.625954924667503e+00	 4.079481691352500e-02	 7.985039793155959e-01
 1.625553919908178e+00	 5.448039404787752e-02	-7.131644039897838e-01
 1.625035813890140e+00	 6.820758872271934e-02	-1.462191223958920e+00
 1.624399501718476e+00	 8.197514024990128e-02	-1.582893977651526e+00
 1.623643893256957e+00	 9.578176154176929e-02	-1.204223613085984e+00
 1.622767913817755e+00	 1.096261392132306e-01	-4.494743049895309e-01
 1.621770504854973e+00	 1.235069337021329e-01	 5.640080766614022e-01
 1.620650624661481e+00	 1.374227794082651e-01	 1.725118421689708e+00
 1.635291110942501e+00	 0.000000000000000e+00	 1.297378623283462e+01
 1.635234336884848e+00	 1.362696072045005e-02	 8.136743061823173e+00
 1.635063241061123e+00	 2.729940735172182e-02	 4.447350694240487e+00
 1.634776672180379e+00	 4.101615243043206e-02	 1.780529457392385e+00
 1.634373491738018e+00	 5.477598174977760e-02	 1.660435563487583e-02
 1.633852574694785e+00	 6.857765440890817e-02	-9.584167975061875e-01
 1.633212810161064e+00	 8.241990287970458e-02	-1.252564183996925e+00
 1.632453102085998e+00	 9.630143309131031e-02	-9.676261463294089e-01
 1.631572369950946e+00	 1.102209245327511e-01	-1.988691410495769e-01
 1.630569549466778e+00	 1.241770303739671e-01	 9.652420959736825e-01
 1.629443593274491e+00	 1.381683776055684e-01	 2.443323756956534e+00
 1.644115624520522e+00	 0.000000000000000e+00	 1.448816339315738e+01
 1.644058544093324e+00	 1.370049582284849e-02	 9.366463281116326e+00
 1.643886524986109e+00	 2.744672301203027e-02	 5.370469470027748e+00
 1.643598409695212e+00	 4.123748769624271e-02	 2.398300240584444e+00
 1.643193053572317e+00	 5.507156911644759e-02	 3.539223117757624e-01
 1.642669325507112e+00	 6.894771967551033e-02	-8.525870139692469e-01
 1.642026108615282e+00	 8.286466500533883e-02	-1.304777743799515e+00
 1.641262300931342e+00	 9.682110405187060e-02	-1.079565565201114e+00
 1.640376816105841e+00	 1.108157091782467e-01	-2.469711359404965e-01
 1.639368584106420e+00	 1.248471262864970e-01	 1.130139272620090e+00
 1.638236551922202e+00	 1.389139749580493e-01	 2.996311354880262e+00
 1.652940123096667e+00	 0.000000000000000e+00	 1.579155104766292e+01
 1.652882736300451e+00	 1.377403080014068e-02	 1.033034339180260e+01
 1.652709793911329e+00	 2.759403842175629e-02	 5.989655006147625e+00
 1.652420132212929e+00	 4.145882258562784e-02	 2.690375506144092e+00
 1.652012600413221e+00	 5.536715598048526e-02	 3.592383746753963e-01
 1.651486061330844e+00	 6.931778431291304e-02	-1.070942926673395e+00
 1.650839392086791e+00	 8.330942637484934e-02	-1.661039681315846e+00
 1.650071484800959e+00	 9.734077412902960e-02	-1.465373908892743e+00
 1.649181247293090e+00	 1.114104928127139e-01	-5.314860556316812e-01
 1.648167603787603e+00	 1.255172210600252e-01	 1.100095194333196e+00
 1.647029495621756e+00	 1.396595710432135e-01	 3.396080577731883e+00
 1.661764601670313e+00	 0.000000000000000e+00	 1.680696816258591e+01
 1.661706908505775e+00	 1.384756561070495e-02	 1.099802227032941e+01
 1.661533042836846e+00	 2.774135349749974e-02	 6.312780735947017e+00
 1.661241834734455e+00	 4.168015697325835e-02	 2.694468524920606e+00
 1.660832127262873e+00	 5.566274217448843e-02	 9.170643633726652e-02
 1.660302777169703e+00	 6.968784811150329e-02	-1.541288765487424e+00
 1.659652655581256e+00	 8.375418673628164e-02	-2.244505549168944e+00
 1.658880648702818e+00	 9.786044302836691e-02	-2.051940546969160e+00
 1.657985658523342e+00	 1.120052750991488e-01	-9.914036168528515e-01
 1.656966603524032e+00	 1.261873143148546e-01	 9.156745777293480e-01
 1.655822419390292e+00	 1.404051654385669e-01	 3.654432099567218e+00
 1.670589055240833e+00	 0.000000000000000e+00	 1.745897881176199e+01
 1.670531055708842e+00	 1.392110021291962e-02	 1.133971856292606e+01
 1.670356266762721e+00	 2.788866815586049e-02	 6.347510471018774e+00
 1.670063512260718e+00	 4.190149073380513e-02	 2.447469665452722e+00
 1.669651629123421e+00	 5.595832753105487e-02	-3.907796192018785e-01
 1.669119468027414e+00	 7.005791086166832e-02	-2.192949737856484e+00
 1.668465894104338e+00	 8.419894583768114e-02	-2.979936854740423e+00
 1.667689787644890e+00	 9.838011045546205e-02	-2.767670038804099e+00
 1.666790044807246e+00	 1.126000557005478e-01	-1.566962577904619e+00
 1.665765578329411e+00	 1.268574056712876e-01	 6.166341601835459e-01
 1.664615318244948e+00	 1.411507577216153e-01	 3.782974010323126e+00
 1.679413478807604e+00	 0.000000000000000e+00	 1.767365158368051e+01
 1.679355172909198e+00	 1.399463456516301e-02	 1.132621571161829e+01
 1.679179460689016e+00	 2.803598231343839e-02	 6.101304386256738e+00
 1.678885159792644e+00	 4.212282374193910e-02	 1.985468673250262e+00
 1.678471100997010e+00	 5.625391188278244e-02	-1.031552009369701e+00
 1.677936128907697e+00	 7.042797235379507e-02	-2.956731161559070e+00
 1.677279102661701e+00	 8.464370342709324e-02	-3.793657895336716e+00
 1.676498896635147e+00	 9.889977611589459e-02	-3.542441328140413e+00
 1.675594401155452e+00	 1.131948342799072e-01	-2.199616940535803e+00
 1.674564523217445e+00	 1.275274947496271e-01	 2.419448547120506e-01
 1.673408187202868e+00	 1.418963474698645e-01	 3.793127706527888e+00
 1.688237867370000e+00	 0.000000000000000e+00	 1.737852025838242e+01
 1.688179255106389e+00	 1.406816862581345e-02	 1.092884744865943e+01
 1.688002619615791e+00	 2.818329588683332e-02	 5.581424817199471e+00
 1.687706772331160e+00	 4.234415587233111e-02	 1.343776251701552e+00
 1.687290537885786e+00	 5.654949506226892e-02	-1.775136210077175e+00
 1.686752754814276e+00	 7.079803237827080e-02	-3.764878880621884e+00
 1.686092276259008e+00	 8.508845925256343e-02	-4.613513950754323e+00
 1.685307970681557e+00	 9.941943971524404e-02	-4.307568224085046e+00
 1.684398722578610e+00	 1.137896105002232e-01	-2.832003222371798e+00
 1.683363433201838e+00	 1.281975811701757e-01	-1.701868052652040e-01
 1.682201021281189e+00	 1.426419342608202e-01	 3.696133576401237e+00
 1.697062215927397e+00	 0.000000000000000e+00	 1.650254570812450e+01
 1.697003297299960e+00	 1.414170235324925e-02	 1.011948374236821e+01
 1.696825738543109e+00	 2.833060879264513e-02	 4.794941876466044e+00
 1.696528344877194e+00	 4.256548699965210e-02	 5.569449699362237e-01
 1.696109934791894e+00	 5.684507690211212e-02	-2.567219137674407e+00
 1.695569340750875e+00	 7.116809072548257e-02	-4.551040917841875e+00
 1.694905409901922e+00	 8.553321306213711e-02	-5.368830783998585e+00
 1.694117004792092e+00	 9.993910095908996e-02	-4.995761121868744e+00
 1.693203004087369e+00	 1.143843840244923e-01	-3.407908761056510e+00
 1.692162303296296e+00	 1.288676645532361e-01	-5.822979055236877e-01
 1.690993815497055e+00	 1.433875176719886e-01	 3.503056486797187e+00
 1.705886519479168e+00	 0.000000000000000e+00	 1.497607897762653e+01
 1.705827294489459e+00	 1.421523570584876e-02	 8.870517178079570e+00
 1.705648812471032e+00	 2.847792094747371e-02	 3.748738895811653e+00
 1.705349872431669e+00	 4.278681699857291e-02	-3.412104780676197e-01
 1.704929286717479e+00	 5.714065723490981e-02	-3.354618318852144e+00
 1.704385881721215e+00	 7.153814718581744e-02	-5.250230319283873e+00
 1.703718498596106e+00	 8.597796460385973e-02	-5.990375402942520e+00
 1.702925993974722e+00	 1.004587595530119e-01	-5.541089918626039e+00
 1.702007240692379e+00	 1.149791545157106e-01	-3.872241012873209e+00
 1.700961128514523e+00	 1.295377445191110e-01	-9.576490502974502e-01
 1.699786564867602e+00	 1.441330972808752e-01	 3.224791079135360e+00
 1.611857651066033e+00	 1.366771807886334e-01	 8.294909729995614e-01
 1.610620800725342e+00	 1.505533579956402e-01	 1.654156516275458e+00
 1.609260082016233e+00	 1.644615801826577e-01	 2.369136828226254e+00
 1.607774512598260e+00	 1.784003776516219e-01	 3.026350760930279e+00
 1.606163129743204e+00	 1.923682546643022e-01	 3.673335816098472e+00
 1.604424991048371e+00	 2.063636896767381e-01	 4.353104411545683e+00
 1.602559175150043e+00	 2.203851355945442e-01	 5.104004448053827e+00
 1.600564782436457e+00	 2.344310200493024e-01	 5.959584696910056e+00
 1.598440935759645e+00	 2.484997456962395e-01	 6.948465563984984e+00
 1.596186781145472e+00	 2.625896905333687e-01	 8.094215822426127e+00
 1.593801488501192e+00	 2.766992082422489e-01	 9.415235942627525e+00
 1.620650624661481e+00	 1.374227794082651e-01	 1.725118421689708e+00
 1.619407027079671e+00	 1.513746536593318e-01	 2.823245791755732e+00
 1.618038885405196e+00	 1.653587477015729e-01	 3.755809407468889e+00
 1.616545211938770e+00	 1.793735838194572e-01	 4.575160731700919e+00
 1.614925038700317e+00	 1.934176581152332e-01	 5.328103045898394e+00
 1.613177418146170e+00	 2.074894407446446e-01	 6.055721348166587e+00
 1.611301423886408e+00	 2.215873761736283e-01	 6.793217283053247e+00
 1.609296151401727e+00	 2.357098834562133e-01	 7.569749683858702e+00
 1.607160718759159e+00	 2.498553565338243e-01	 8.408281345606222e+00
 1.604894267325988e+00	 2.640221645561615e-01	 9.325432684697224e+00
 1.602495962481167e+00	 2.782086522238208e-01	 1.033134297951254e+01
 1.629443593274491e+00	 1.381683776055684e-01	 2.443323756956534e+00
 1.628193248455343e+00	 1.521959488578245e-01	 3.914671084811701e+00
 1.626817683819643e+00	 1.662559147122843e-01	 5.146177635896051e+00
 1.625315906309269e+00	 1.803467894359614e-01	 6.189483918539909e+00
 1.623686942692302e+00	 1.944670609715952e-01	 7.089847355283343e+00
 1.621929840284107e+00	 2.086151911746459e-01	 7.885954133670023e+00
 1.620043667668570e+00	 2.227896160713845e-01	 8.609736579980183e+00
 1.618027515418851e+00	 2.369887461383005e-01	 9.286196678773454e+00
 1.615880496816994e+00	 2.512109666030279e-01	 9.933236400103098e+00
 1.613601748571710e+00	 2.654546377669675e-01	 1.056149553585330e+01
 1.611190431533655e+00	 2.797180953497652e-01	 1.117419778658176e+01
 1.638236551922202e+00	 1.389139749580493e-01	 2.996311354880262e+00
 1.636979459873319e+00	 1.530172431257230e-01	 4.909351938193514e+00
 1.635596472284742e+00	 1.671530807064029e-01	 6.496090382882579e+00
 1.634086590739525e+00	 1.813199939496616e-01	 7.806340988239063e+00
 1.632448836753914e+00	 1.955164626387451e-01	 8.883028565175035e+00
 1.630682252502318e+00	 2.097409403288453e-01	 9.761990480793463e+00
 1.628785901542440e+00	 2.239918546065830e-01	 1.047178447840784e+01
 1.626758869539914e+00	 2.382676073709237e-01	 1.103350291954939e+01
 1.624600264991807e+00	 2.525665751357271e-01	 1.146059413514557e+01
 1.622309219948267e+00	 2.668871093541108e-01	 1.175869161435504e+01
 1.619884890731665e+00	 2.812275367647870e-01	 1.192545180121544e+01
 1.647029495621756e+00	 1.396595710432135e-01	 3.396080577731883e+00
 1.645765656354561e+00	 1.538385359976326e-01	 5.788677478560928e+00
 1.644375245825661e+00	 1.680502451755395e-01	 7.762406615114751e+00
 1.642857260259301e+00	 1.822931968090853e-01	 9.364168533958772e+00
 1.641210715919905e+00	 1.965658625220402e-01	 1.063379304639766e+01
 1.639434649840937e+00	 2.108666875693464e-01	 1.160383962962980e+01
 1.637528120553928e+00	 2.251940910979935e-01	 1.229940361842383e+01
 1.635490208817002e+00	 2.395464664294424e-01	 1.273792883927115e+01
 1.633320018342258e+00	 2.539221813637981e-01	 1.292902738124457e+01
 1.631016676521292e+00	 2.683195785059148e-01	 1.287430724080996e+01
 1.628579335148205e+00	 2.827369756135909e-01	 1.256720862131310e+01
 1.655822419390292e+00	 1.404051654385669e-01	 3.654432099567217e+00
 1.654551832920027e+00	 1.546598270081577e-01	 6.534494705529684e+00
 1.653153999467569e+00	 1.689474076113055e-01	 8.902969170499874e+00
 1.651627909898363e+00	 1.832663974627599e-01	 1.080278187154335e+01
 1.649972575225027e+00	 1.976152600268374e-01	 1.226992909010106e+01
 1.648187027340098e+00	 2.119924322582525e-01	 1.333328385600163e+01
 1.646270319748946e+00	 2.263963248643860e-01	 1.401440836087823e+01
 1.644221528302200e+00	 2.408253225892167e-01	 1.432737258023250e+01
 1.642039751927005e+00	 2.552777845191178e-01	 1.427857978726415e+01
 1.639724113356420e+00	 2.697520444107033e-01	 1.386659968633541e+01
 1.637273759856283e+00	 2.842464110408821e-01	 1.308200993927318e+01
 1.664615318244948e+00	 1.411507577216153e-01	 3.782974010323125e+00
 1.663337984590680e+00	 1.554811156919036e-01	 7.129097124631094e+00
 1.661932728235633e+00	 1.698445675053118e-01	 9.876579329732778e+00
 1.660398534686476e+00	 1.842395953592128e-01	 1.206333897506169e+01
 1.658734409704035e+00	 1.986646545584939e-01	 1.372082364635996e+01
 1.656939380039935e+00	 2.131181737576670e-01	 1.487383146396578e+01
 1.655012494173407e+00	 2.275985552245304e-01	 1.554033749440793e+01
 1.652952823047595e+00	 2.421041751256061e-01	 1.573132588382165e+01
 1.650759460804705e+00	 2.566333838335624e-01	 1.545062836715986e+01
 1.648431525519279e+00	 2.711845062568001e-01	 1.469476985367210e+01
 1.645968159928908e+00	 2.857558421913653e-01	 1.345282183637262e+01
 1.673408187202868e+00	 1.418963474698645e-01	 3.793127706527889e+00
 1.672124106387480e+00	 1.563024015834751e-01	 7.555213711567029e+00
 1.670711427155022e+00	 1.707417243491695e-01	 1.064297215626484e+01
 1.669169129653405e+00	 1.852127899469711e-01	 1.308830550979911e+01
 1.667496214391682e+00	 1.997140455223665e-01	 1.491742038078385e+01
 1.665691702980585e+00	 2.142439114296938e-01	 1.615067120803666e+01
 1.663754638873219e+00	 2.288007814971963e-01	 1.680240837473340e+01
 1.661684088105270e+00	 2.433830233139704e-01	 1.688083130584407e+01
 1.659479140034019e+00	 2.579889785390085e-01	 1.638784715575873e+01
 1.657138908075503e+00	 2.726169632325287e-01	 1.531893574127903e+01
 1.654662530439087e+00	 2.872652682097453e-01	 1.366302142437465e+01
 1.682201021281189e+00	 1.426419342608202e-01	 3.696133576401237e+00
 1.680910193331387e+00	 1.571236842174772e-01	 7.795998195669464e+00
 1.679490091250905e+00	 1.716388776344895e-01	 1.116279257664514e+01
 1.677939689828916e+00	 1.861859806745624e-01	 1.382142092266839e+01
 1.676257984322722e+00	 2.007634323238126e-01	 1.579217900106663e+01
 1.674443991202181e+00	 2.153696446364358e-01	 1.709062809298711e+01
 1.672496748894298e+00	 2.300030030011540e-01	 1.772747244399945e+01
 1.670415318527312e+00	 2.446618664296693e-01	 1.770844070895717e+01
 1.668198784673604e+00	 2.593445678673327e-01	 1.703417193315685e+01
 1.665846256090725e+00	 2.740494145262128e-01	 1.570010666189005e+01
 1.663356866459828e+00	 2.887746882407271e-01	 1.369638382174644e+01
 1.690993815497055e+00	 1.433875176719886e-01	 3.503056486797187e+00
 1.689696240443363e+00	 1.579449631285147e-01	 7.835018650975439e+00
 1.688268715548449e+00	 1.725360268528830e-01	 1.139757217436407e+01
 1.686710210242772e+00	 1.871591669905140e-01	 1.420766555167231e+01
 1.685019714531905e+00	 2.018128143681890e-01	 1.627903580739800e+01
 1.683196239744859e+00	 2.164953727399969e-01	 1.762212050124836e+01
 1.681238819282553e+00	 2.312052190551732e-01	 1.824397208009911e+01
 1.679146509365806e+00	 2.459407037480627e-01	 1.814817498589755e+01
 1.676918389782119e+00	 2.607001510504113e-01	 1.733476597898623e+01
 1.674553564630576e+00	 2.754818593261764e-01	 1.580015818819271e+01
 1.672051163064140e+00	 2.902841014290156e-01	 1.353706945239230e+01
 1.699786564867602e+00	 1.441330972808752e-01	 3.224791079135360e+00
 1.698482242744367e+00	 1.587662378511926e-01	 7.656247383807552e+00
 1.697047295072823e+00	 1.734331714959610e-01	 1.130970667143868e+01
 1.695480685924739e+00	 1.881323483433532e-01	 1.419322871762828e+01
 1.693781400053988e+00	 2.028621910608528e-01	 1.631336542256064e+01
 1.691948443648752e+00	 2.176210951024801e-01	 1.767511859999440e+01
 1.689980845083896e+00	 2.324074289780237e-01	 1.828189872798504e+01
 1.687877655672838e+00	 2.472195345445101e-01	 1.813548496909338e+01
 1.685637950418222e+00	 2.620557273201210e-01	 1.723598681940848e+01
 1.683260828760689e+00	 2.769142968207428e-01	 1.558180779942089e+01
 1.680745415325032e+00	 2.917935069193159e-01	 1.316961165531002e+01
 1.593801488501192e+00	 2.766992082422489e-01	 9.415235942627525e+00
 1.591284691259338e+00	 2.908242263537434e-01	 1.059003102412340e+01
 1.588635214298862e+00	 3.049654517859350e-01	 1.128647910750811e+01
 1.585852302532892e+00	 3.191211722672210e-01	 1.150406401548181e+01
 1.582935227508338e+00	 3.332896528818207e-01	 1.124457944860321e+01
 1.579883288089227e+00	 3.474691365191284e-01	 1.051220703071324e+01
 1.576695811133212e+00	 3.616578443450141e-01	 9.313598340698828e+00
 1.573372152160505e+00	 3.758539762950537e-01	 7.678773281268620e+00
 1.569911696014492e+00	 3.900557115896419e-01	 5.830855249158478e+00
 1.566313857513235e+00	 4.042612092709107e-01	 3.848278662505170e+00
 1.562578082091108e+00	 4.184686087613524e-01	 1.759959439099905e+00
 1.602495962481167e+00	 2.782086522238208e-01	 1.033134297951254e+01
 1.599965435657536e+00	 2.924107248516120e-01	 1.117192843148759e+01
 1.597301505323543e+00	 3.066290932139739e-01	 1.158651817314204e+01
 1.594503412273176e+00	 3.208620356985422e-01	 1.157244277030877e+01
 1.591570424079493e+00	 3.351078079252470e-01	 1.113050931642838e+01
 1.588501835781692e+00	 3.493646431981160e-01	 1.026510185889860e+01
 1.585296970565304e+00	 3.636307529791469e-01	 8.984284634616943e+00
 1.581955180434782e+00	 3.779043273842289e-01	 7.337882916573409e+00
 1.578475846877712e+00	 3.921835357010632e-01	 5.552004857287902e+00
 1.574858381519876e+00	 4.064665269290135e-01	 3.688504652145795e+00
 1.571102226770384e+00	 4.207514303407746e-01	 1.783408125271791e+00
 1.611190431533655e+00	 2.797180953497652e-01	 1.117419778658176e+01
 1.608646175135986e+00	 2.939972224501950e-01	 1.160402175266278e+01
 1.605967791436650e+00	 3.082927336990454e-01	 1.168051071909725e+01
 1.603154517110488e+00	 3.226028981431904e-01	 1.139939717701310e+01
 1.600205615756710e+00	 3.369259619382693e-01	 1.076073174443039e+01
 1.597120378589678e+00	 3.512601488029425e-01	 9.768999169805593e+00
 1.593898125122802e+00	 3.656036604953347e-01	 8.433236247318334e+00
 1.590538203844771e+00	 3.799546773116462e-01	 6.826323480966778e+00
 1.587039992887372e+00	 3.943113586068852e-01	 5.165190001623588e+00
 1.583402900684101e+00	 4.086718433376451e-01	 3.500152518589053e+00
 1.579626366618807e+00	 4.230342506268229e-01	 1.872487747264246e+00
 1.619884890731665e+00	 2.812275367647870e-01	 1.192545180121544e+01
 1.617326904775478e+00	 2.955837182505238e-01	 1.189365275480996e+01
 1.614634067727157e+00	 3.099563722984526e-01	 1.159579837692584e+01
 1.611805612142400e+00	 3.243437586146905e-01	 1.102656259053309e+01
 1.608840797646567e+00	 3.387441138905927e-01	 1.018545759324706e+01
 1.605738911629190e+00	 3.531556522594577e-01	 9.076958696287283e+00
 1.602499269931555e+00	 3.675765657755433e-01	 7.710630454686597e+00
 1.599121217526589e+00	 3.820050249153675e-01	 6.184921967354576e+00
 1.595604129190281e+00	 3.964391791012510e-01	 4.696734336546575e+00
 1.591947410163843e+00	 4.108771572470237e-01	 3.289329711202464e+00
 1.588150496805859e+00	 4.253170683257905e-01	 2.007385883337002e+00
 1.628579335148205e+00	 2.827369756135909e-01	 1.256720862131310e+01
 1.626007619656798e+00	 2.971702113536303e-01	 1.204806034859747e+01
 1.623300329284035e+00	 3.116200080694980e-01	 1.135918534582044e+01
 1.620456692466479e+00	 3.260846161265676e-01	 1.049472318939326e+01
 1.617475964855642e+00	 3.405622627519219e-01	 9.453853951841065e+00
 1.614357430016230e+00	 3.550511524935114e-01	 8.240925194866623e+00
 1.611100400117410e+00	 3.695494677017393e-01	 6.865579907428113e+00
 1.607704216616352e+00	 3.840553690334547e-01	 5.453586776781147e+00
 1.604168250933248e+00	 3.985669959783040e-01	 4.172349940907431e+00
 1.600491905117031e+00	 4.130824674073677e-01	 3.061961429152033e+00
 1.596674612501020e+00	 4.275998821439713e-01	 2.168659288933255e+00
 1.637273759856283e+00	 2.842464110408821e-01	 1.308200993927318e+01
 1.634688314860732e+00	 2.987567008605458e-01	 1.207438077015598e+01
 1.631966571196259e+00	 3.132836400694843e-01	 1.099694959302114e+01
 1.629107753180294e+00	 3.278254696923462e-01	 9.843830955940744e+00
 1.626111112490514e+00	 3.423804074919620e-01	 8.614067651862239e+00
 1.622975928866803e+00	 3.569466484309533e-01	 7.311753243490451e+00
 1.619701510806219e+00	 3.715223651558893e-01	 5.946854430543108e+00
 1.616287196250179e+00	 3.861057085039698e-01	 4.671331164366589e+00
 1.612732353263084e+00	 4.006948080321880e-01	 3.617152703893110e+00
 1.609036380701594e+00	 4.152877725688949e-01	 2.823794707917578e+00
 1.605198708873770e+00	 4.298826907876586e-01	 2.337223449668358e+00
 1.645968159928908e+00	 2.857558421913653e-01	 1.345282183637262e+01
 1.643368985468068e+00	 3.003431858723023e-01	 1.197964766497791e+01
 1.640632788552800e+00	 3.149472673557145e-01	 1.053485359941991e+01
 1.637758789381415e+00	 3.295663183255516e-01	 9.113023947038998e+00
 1.634746235657761e+00	 3.441985470804180e-01	 7.713247919967350e+00
 1.631594403296914e+00	 3.588421389976334e-01	 6.339231127154173e+00
 1.628302597123831e+00	 3.734952570199594e-01	 5.004452591732024e+00
 1.624870151564186e+00	 3.881560421649748e-01	 3.876295980570583e+00
 1.621296431326598e+00	 4.028226140570464e-01	 3.055677263595659e+00
 1.617580832075464e+00	 4.174930714818240e-01	 2.580402418314846e+00
 1.613722781093592e+00	 4.321654929631462e-01	 2.494342508896342e+00
 1.654662530439087e+00	 2.872652682097453e-01	 1.366302142437465e+01
 1.652049626559594e+00	 3.019296654899313e-01	 1.177079207741106e+01
 1.649298976442632e+00	 3.166108889854911e-01	 9.998154667102611e+00
 1.646409796167410e+00	 3.313071610397084e-01	 8.340643881308340e+00
 1.643381329463962e+00	 3.460166804869948e-01	 6.797568199789112e+00
 1.640212848422567e+00	 3.607376231194011e-01	 5.372103844938029e+00
 1.636903654196095e+00	 3.754681421759162e-01	 4.084163525140591e+00
 1.633453077694489e+00	 3.902063688545312e-01	 3.105771733630848e+00
 1.629860480270600e+00	 4.049504128470224e-01	 2.511891514689782e+00
 1.626125254396569e+00	 4.196983628963729e-01	 2.337187181236408e+00
 1.622246824329965e+00	 4.344482873767272e-01	 2.621619556120740e+00
 1.663356866459828e+00	 2.887746882407271e-01	 1.369638382174644e+01
 1.660730233216095e+00	 3.035161388144645e-01	 1.145464234924560e+01
 1.657965129954727e+00	 3.182745040161170e-01	 9.411614804872789e+00
 1.655060768635849e+00	 3.330479968483417e-01	 7.564253067918309e+00
 1.652016389015695e+00	 3.478348066813974e-01	 5.912247173928665e+00
 1.648831259359766e+00	 3.626330997221065e-01	 4.458095270596818e+00
 1.645504677148861e+00	 3.774410195057262e-01	 3.230357654293914e+00
 1.642035969777207e+00	 3.922566874107016e-01	 2.396219997942954e+00
 1.638424495241900e+00	 4.070782031962595e-01	 2.009210700942268e+00
 1.634669642822839e+00	 4.219036455627596e-01	 2.099385201187762e+00
 1.630770833752373e+00	 4.367310727346956e-01	 2.700987263086443e+00
 1.672051163064140e+00	 2.902841014290156e-01	 1.353706945239230e+01
 1.669410800518359e+00	 3.051026049469336e-01	 1.103792393075051e+01
 1.666631244178060e+00	 3.199381115048950e-01	 8.799510207138695e+00
 1.663711701884300e+00	 3.347888247649764e-01	 6.820650700904365e+00
 1.660651409419539e+00	 3.496529246333306e-01	 5.101569015088974e+00
 1.657449631224517e+00	 3.645285677315994e-01	 3.643929497519616e+00
 1.654105661107979e+00	 3.794138878913558e-01	 2.486435258517974e+00
 1.650618822948456e+00	 3.943069966715473e-01	 1.783294192123505e+00
 1.646988471387306e+00	 4.092059838989013e-01	 1.570511107621669e+00
 1.643213992512206e+00	 4.241089182312025e-01	 1.872070021566747e+00
 1.639294804530294e+00	 4.390138477433446e-01	 2.714698854935743e+00
 1.680745415325032e+00	 2.917935069193159e-01	 1.316961165531002e+01
 1.678091323547173e+00	 3.066890629883703e-01	 1.052725910738028e+01
 1.675297314201602e+00	 3.216017105091277e-01	 8.185640340913018e+00
 1.672362591010333e+00	 3.365296438031375e-01	 6.145888541990570e+00
 1.669286385782073e+00	 3.514710333124996e-01	 4.408902894267113e+00
 1.666067959132822e+00	 3.664240260737297e-01	 2.975351397603138e+00
 1.662706601199298e+00	 3.813867462147712e-01	 1.894850741553819e+00
 1.659201632344353e+00	 3.963572954751306e-01	 1.301859749514644e+00
 1.655552403853629e+00	 4.113337537490910e-01	 1.218143368255855e+00
 1.651758298622600e+00	 4.263141796519203e-01	 1.660156204512409e+00
 1.647818731833210e+00	 4.412966111089680e-01	 2.645319404329396e+00
 1.562578082091108e+00	 4.184686087613524e-01	 1.759959439099905e+00
 1.558703846769861e+00	 4.326760306423498e-01	-5.154862075811817e-02
 1.554690661800825e+00	 4.468815778688999e-01	-1.246598573389698e+00
 1.550538070255469e+00	 4.610833358291598e-01	-1.861386373949932e+00
 1.546245648278505e+00	 4.752793727944876e-01	-1.936496239311962e+00
 1.541813005666570e+00	 4.894677405839732e-01	-1.516916194156746e+00
 1.537239786432334e+00	 5.036464752493558e-01	-6.520479310853211e-01
 1.532525669353274e+00	 5.178135977800120e-01	 6.042890964567582e-01
 1.527670368504342e+00	 5.319671148276703e-01	 2.193859410438904e+00
 1.522673633773767e+00	 5.461050194504661e-01	 4.054019115931627e+00
 1.517535251361254e+00	 5.602252918759326e-01	 6.117729402285833e+00
 1.571102226770384e+00	 4.207514303407746e-01	 1.783408125271793e+00
 1.567206856798041e+00	 4.350363562651544e-01	 1.600041986561362e-01
 1.563171779182520e+00	 4.493193973084392e-01	-9.033069630840231e-01
 1.558996534502674e+00	 4.635986284142490e-01	-1.438394013234241e+00
 1.554680696591020e+00	 4.778721073160304e-01	-1.482637134790141e+00
 1.550223873115576e+00	 4.921378752052116e-01	-1.078966301699076e+00
 1.545625706147051e+00	 5.063939574198565e-01	-2.758926465952217e-01
 1.540885872710607e+00	 5.206383641534992e-01	 8.724672025754389e-01
 1.536004085321435e+00	 5.348690911838103e-01	 2.306373933775879e+00
 1.530980092503372e+00	 5.490841206207129e-01	 3.960455605108494e+00
 1.525813679289818e+00	 5.632814216735341e-01	 5.763705015065383e+00
 1.579626366618807e+00	 4.230342506268229e-01	 1.872487747264246e+00
 1.575709862007344e+00	 4.373966805506522e-01	 5.272890571263094e-01
 1.571652891757734e+00	 4.517572153667169e-01	-3.362014731437970e-01
 1.567454993956215e+00	 4.661139195741107e-01	-7.458663129283785e-01
 1.563115740123116e+00	 4.804648403683796e-01	-7.358673957946762e-01
 1.558634735797844e+00	 4.948080083133009e-01	-3.467011863927769e-01
 1.554011621109148e+00	 5.091414380332737e-01	 3.747539812819811e-01
 1.549246071329882e+00	 5.234631289260001e-01	 1.375198471996085e+00
 1.544337797415481e+00	 5.377710658951049e-01	 2.594879979328835e+00
 1.539286546525394e+00	 5.520632201023093e-01	 3.967570350258480e+00
 1.534092102526720e+00	 5.663375497387464e-01	 5.420550713192782e+00
 1.588150496805859e+00	 4.253170683257905e-01	 2.007385883337001e+00
 1.584212857579237e+00	 4.397570021612192e-01	 1.004634753255937e+00
 1.580133994720345e+00	 4.541950306622045e-01	 3.890150430464447e-01
 1.575913443822824e+00	 4.686292078833300e-01	 1.363005148163712e-01
 1.571550774094812e+00	 4.830575704822554e-01	 2.155689963015948e-01
 1.567045588947110e+00	 4.974781383951229e-01	 5.891363602007691e-01
 1.562397526566516e+00	 5.118889155326829e-01	 1.212498698004693e+00
 1.557606260473578e+00	 5.262878904968218e-01	 2.034282890050057e+00
 1.552671500063979e+00	 5.406730373171337e-01	 2.996205750434399e+00
 1.547592991132789e+00	 5.550423162071548e-01	 4.033041901436514e+00
 1.542370516380803e+00	 5.693936743398390e-01	 5.072600507326121e+00
 1.596674612501020e+00	 4.275998821439713e-01	 2.168659288933256e+00
 1.592715838695181e+00	 4.421173197592319e-01	 1.547289674114941e+00
 1.588615083264239e+00	 4.566328418133744e-01	 1.207985572618031e+00
 1.584371879309232e+00	 4.711444919164912e-01	 1.129857943882794e+00
 1.579985793726124e+00	 4.856502961883770e-01	 1.285253020430307e+00
 1.575456427797111e+00	 5.001482639375592e-01	 1.639681128987478e+00
 1.570783417767045e+00	 5.146363883611601e-01	 2.151753805763409e+00
 1.565966435404172e+00	 5.291126472652710e-01	 2.773129415593103e+00
 1.561005188544430e+00	 5.435750038054763e-01	 3.448467460992632e+00
 1.555899421618507e+00	 5.580214072471477e-01	 4.115391742567676e+00
 1.550648916160909e+00	 5.724497937450826e-01	 4.704462506822710e+00
 1.605198708873770e+00	 4.298826907876586e-01	 2.337223449668359e+00
 1.601218800536641e+00	 4.444776320070666e-01	 2.111396849264189e+00
 1.597096152583294e+00	 4.590706474386978e-01	 2.057662802312273e+00
 1.592830295622173e+00	 4.736597702481790e-01	 2.158161108629163e+00
 1.588420794237072e+00	 4.882430160174646e-01	 2.388542019952772e+00
 1.583867247581586e+00	 5.028183834274921e-01	 2.717895643326188e+00
 1.579169289958625e+00	 5.173838549617816e-01	 3.108689375094097e+00
 1.574326591384141e+00	 5.319373976306545e-01	 3.516713567325681e+00
 1.569338858134331e+00	 5.464769637157119e-01	 3.891035604579586e+00
 1.564205833275506e+00	 5.610004915341873e-01	 4.173962544111719e+00
 1.558927297175879e+00	 5.755059062227464e-01	 4.301012447034511e+00
 1.613722781093592e+00	 4.321654929631462e-01	 2.494342508896341e+00
 1.609721738285084e+00	 4.468379375670998e-01	 2.653969840412007e+00
 1.605577197871394e+00	 4.615084461566470e-01	 2.876274169936353e+00
 1.601288687968381e+00	 4.761750414529781e-01	 3.146126222897648e+00
 1.596855770847671e+00	 4.908357285002375e-01	 3.442522698899900e+00
 1.592278043534270e+00	 5.054884953518033e-01	 3.738521943957302e+00
 1.587555138389146e+00	 5.201313137776232e-01	 4.001187029551934e+00
 1.582686723675965e+00	 5.347621399922793e-01	 4.191536416660457e+00
 1.577672504111181e+00	 5.493789154034200e-01	 4.264502359116719e+00
 1.572512221396736e+00	 5.639795673801717e-01	 4.168897176043151e+00
 1.567205654734554e+00	 5.785620100411010e-01	 3.847387497730100e+00
 1.622246824329965e+00	 4.344482873767272e-01	 2.621619556120737e+00
 1.618224647121973e+00	 4.491982351017074e-01	 3.132869436060499e+00
 1.614058214322420e+00	 4.639462365856935e-01	 3.603288064456088e+00
 1.609747051554588e+00	 4.786903041054734e-01	 4.020189390613341e+00
 1.605290718777939e+00	 4.934284321674158e-01	 4.365965651937700e+00
 1.600688810888898e+00	 5.081585981973746e-01	 4.618034948911903e+00
 1.595940958306500e+00	 5.228787632517605e-01	 4.748795245748804e+00
 1.591046827542119e+00	 5.375868727494517e-01	 4.725584935543350e+00
 1.586006121752479e+00	 5.522808572241801e-01	 4.510650085437339e+00
 1.580818581275152e+00	 5.669586330970007e-01	 4.061118453245285e+00
 1.575483984145777e+00	 5.816181034684160e-01	 3.328980342308180e+00
 1.630770833752373e+00	 4.367310727346956e-01	 2.700987263086441e+00
 1.626727522228772e+00	 4.515585232732663e-01	 3.506781121774614e+00
 1.622539197130253e+00	 4.663840173443090e-01	 4.179381132820147e+00
 1.618205381587525e+00	 4.812055567802494e-01	 4.708266757205337e+00
 1.613725633247896e+00	 4.960211255497193e-01	 5.079281372101379e+00
 1.609099544879210e+00	 5.108286904510881e-01	 5.274597330936366e+00
 1.604326744958575e+00	 5.256262018272696e-01	 5.272686113461911e+00
 1.599406898245083e+00	 5.404115943014789e-01	 5.048293649784006e+00
 1.594339706335727e+00	 5.551827875335718e-01	 4.572420879825703e+00
 1.589124908203710e+00	 5.699376869965725e-01	 3.812309586575620e+00
 1.583762280718390e+00	 5.846741847729618e-01	 2.731433517897722e+00
 1.639294804530294e+00	 4.390138477433446e-01	 2.714698854935742e+00
 1.635230358786947e+00	 4.539188007441525e-01	 3.735193297925239e+00
 1.631020141488776e+00	 4.688217870509657e-01	 4.546406653349353e+00
 1.626663673273927e+00	 4.837207980518907e-01	 5.139715953183649e+00
 1.622160509477558e+00	 4.986138071778677e-01	 5.504477682660741e+00
 1.617510240738942e+00	 5.134987705998255e-01	 5.628015857350745e+00
 1.612712493593262e+00	 5.283736279472265e-01	 5.495613502812685e+00
 1.607766931047334e+00	 5.432363030476676e-01	 5.090507550500338e+00
 1.602673253138420e+00	 5.580847046871741e-01	 4.393887142258679e+00
 1.597431197475362e+00	 5.729167273907858e-01	 3.384895313968789e+00
 1.592040539761233e+00	 5.877302522230078e-01	 2.040634006846550e+00
 1.647818731833210e+00	 4.412966111089680e-01	 2.645319404329396e+00
 1.643733151977962e+00	 4.562790661767426e-01	 3.778376217916342e+00
 1.639501042591871e+00	 4.712595443241352e-01	 4.647363937178714e+00
 1.635121921820524e+00	 4.862360264949822e-01	 5.245298783214449e+00
 1.630595342686944e+00	 5.012064755825806e-01	 5.565118541691010e+00
 1.625920893701830e+00	 5.161688371304689e-01	 5.599699139528481e+00
 1.621098199458452e+00	 5.311210400547071e-01	 5.341872587699960e+00
 1.616126921211349e+00	 5.460609973873246e-01	 4.784446218235642e+00
 1.611006757438059e+00	 5.609866070405668e-01	 3.920223123656211e+00
 1.605737444383062e+00	 5.758957525915405e-01	 2.742023686998546e+00
 1.600318756583150e+00	 5.907863040868249e-01	 1.242708070492500e+00
 1.517535251361254e+00	 5.602252918759326e-01	 6.117729402285833e+00
 1.512254134331529e+00	 5.743282956317375e-01	 7.966040576359335e+00
 1.506831003534249e+00	 5.884095838951129e-01	 9.247548867124431e+00
 1.501265755838570e+00	 6.024671014153181e-01	 9.997640904961546e+00
 1.495558326254919e+00	 6.164987833099306e-01	 1.025611067434106e+01
 1.489708688335641e+00	 6.305025559161748e-01	 1.006716463056499e+01
 1.483716854553744e+00	 6.444763376581230e-01	 9.479420087009480e+00
 1.477582876659139e+00	 6.584180399291462e-01	 8.547735563718293e+00
 1.471306846011681e+00	 6.723255679889599e-01	 7.336982634608006e+00
 1.464888893890439e+00	 6.861968218745834e-01	 5.911151569745251e+00
 1.458329191778564e+00	 7.000296973245008e-01	 4.337844328921869e+00
 1.525813679289818e+00	 5.632814216735341e-01	 5.763705015065383e+00
 1.520503752816078e+00	 5.774613598530635e-01	 7.359482329409690e+00
 1.515051037864169e+00	 5.916194640783085e-01	 8.456031450360179e+00
 1.509455430740640e+00	 6.057536678867566e-01	 9.080158588327263e+00
 1.503716866101382e+00	 6.198618951316699e-01	 9.263717142059761e+00
 1.497835317354450e+00	 6.339420608380589e-01	 9.043632131970648e+00
 1.491810797040888e+00	 6.479920720746154e-01	 8.461917291216341e+00
 1.485643357192900e+00	 6.620098288409743e-01	 7.565684520742952e+00
 1.479333089668717e+00	 6.759932249696560e-01	 6.407734516977631e+00
 1.472880126463550e+00	 6.899401490419939e-01	 5.053314709315488e+00
 1.466284639996011e+00	 7.038484853173357e-01	 3.568563094216475e+00
 1.534092102526720e+00	 5.663375497387464e-01	 5.420550713192783e+00
 1.528753366625351e+00	 5.805944222983290e-01	 6.674252230201329e+00
 1.523271067535659e+00	 5.948293424418540e-01	 7.510269068657844e+00
 1.517645101001581e+00	 6.090402324950414e-01	 7.947552174010157e+00
 1.511875401324467e+00	 6.232250050468431e-01	 8.010489057872954e+00
 1.505961941768080e+00	 6.373815638100609e-01	 7.728943802619564e+00
 1.499904734941495e+00	 6.515078044980087e-01	 7.138289405373563e+00
 1.493703833159206e+00	 6.656016157165922e-01	 6.279432131008641e+00
 1.487359328777816e+00	 6.796608798711410e-01	 5.198827546418425e+00
 1.480871354508670e+00	 6.936834740873061e-01	 3.948538232219302e+00
 1.474240083705840e+00	 7.076672711453058e-01	 2.593135795593934e+00
 1.542370516380803e+00	 5.693936743398390e-01	 5.072600507326120e+00
 1.537002971084515e+00	 5.837274811922245e-01	 5.922260671650239e+00
 1.531491087890640e+00	 5.980392171669248e-01	 6.445780435233814e+00
 1.525834761980506e+00	 6.123267933779026e-01	 6.654970358516257e+00
 1.520033927300916e+00	 6.265881111498114e-01	 6.567219189968149e+00
 1.514088556971340e+00	 6.408210628832548e-01	 6.205545734699252e+00
 1.507998663668878e+00	 6.550235329361828e-01	 5.598643036250293e+00
 1.501764299990313e+00	 6.691933985207813e-01	 4.780914514583841e+00
 1.495385558790614e+00	 6.833285306152008e-01	 3.792501705196255e+00
 1.488862573497258e+00	 6.974267948894225e-01	 2.679303248000680e+00
 1.482195518399771e+00	 7.114860526445453e-01	 1.492984780293554e+00
 1.550648916160909e+00	 5.724497937450826e-01	 4.704462506822711e+00
 1.545252561518732e+00	 5.868605347594412e-01	 5.115103844732160e+00
 1.539711094271035e+00	 6.012490864346952e-01	 5.297266685381927e+00
 1.534024409036530e+00	 6.156133486730686e-01	 5.256326011929612e+00
 1.528192439407473e+00	 6.299512115349341e-01	 5.003131502699479e+00
 1.522215158359038e+00	 6.442605561087159e-01	 4.554067593875721e+00
 1.516092578636350e+00	 6.585392553970166e-01	 3.931106119093699e+00
 1.509824753118475e+00	 6.727851752183220e-01	 3.161851152279415e+00
 1.503411775158746e+00	 6.869961751236214e-01	 2.279575680830718e+00
 1.496853778900772e+00	 7.011701093272450e-01	 1.323249738851349e+00
 1.490150939569523e+00	 7.153048276511899e-01	 3.375596347603382e-01
 1.558927297175879e+00	 5.755059062227464e-01	 4.301012447034511e+00
 1.553502133253170e+00	 5.899935812246702e-01	 4.264073061907896e+00
 1.547931082018768e+00	 6.044589484263408e-01	 4.098634245187732e+00
 1.542214037528769e+00	 6.188998965182695e-01	 3.804330335247137e+00
 1.536350933020881e+00	 6.333143042965717e-01	 3.385924341581827e+00
 1.530341741325984e+00	 6.477000415375185e-01	 2.853372568247207e+00
 1.524186475257223e+00	 6.620549698883894e-01	 2.221882365683233e+00
 1.517885187975948e+00	 6.763769437739950e-01	 1.511962630454018e+00
 1.511437973333853e+00	 6.906638113181893e-01	 7.494666715980607e-01
 1.504844966190669e+00	 7.049134152796751e-01	-3.437293665409058e-02
 1.498106342706818e+00	 7.191235940013742e-01	-8.029178929445013e-01
 1.567205654734554e+00	 5.785620100411010e-01	 3.847387497730100e+00
 1.561751681612993e+00	 5.931266188126015e-01	 3.380163866039632e+00
 1.556151046475760e+00	 6.076688013230365e-01	 2.883017061246471e+00
 1.550403642816337e+00	 6.221864350512336e-01	 2.350526025552721e+00
 1.544509403517884e+00	 6.366773875290850e-01	 1.781812344412529e+00
 1.538468301266987e+00	 6.511395172207374e-01	 1.180605833250518e+00
 1.532280348944810e+00	 6.655706744181810e-01	 5.553040897283734e-01
 1.525945599994987e+00	 6.799687021525819e-01	-8.097436597461405e-02
 1.519464148767568e+00	 6.943314371206906e-01	-7.103437432250479e-01
 1.512836130838410e+00	 7.086567106256150e-01	-1.310111806630568e+00
 1.506061723303376e+00	 7.229423495312334e-01	-1.852748255551306e+00
 1.575483984145777e+00	 5.816181034684160e-01	 3.328980342308181e+00
 1.570001201923368e+00	 5.962596457479266e-01	 2.474084932637287e+00
 1.564370982983933e+00	 6.108786433059569e-01	 1.682798214782331e+00
 1.558593220258347e+00	 6.254729624096913e-01	 9.453194853741604e-01
 1.552667846275225e+00	 6.400404593268340e-01	 2.555671251929746e-01
 1.546594833576855e+00	 6.545789812094476e-01	-3.887584131051941e-01
 1.540374195112425e+00	 6.690863669942703e-01	-9.861165309358155e-01
 1.534005984607846e+00	 6.835604483188631e-01	-1.531073688327487e+00
 1.527490296911529e+00	 6.979990504529110e-01	-2.014256257200004e+00
 1.520827268315452e+00	 7.123999932439664e-01	-2.422309396882365e+00
 1.514017076850916e+00	 7.267610920769028e-01	-2.737862326727687e+00
 1.583762280718390e+00	 5.846741847729618e-01	 2.731433517897724e+00
 1.578250689509457e+00	 5.993926602553357e-01	 1.556266772940108e+00
 1.572590886885210e+00	 6.140884725562775e-01	 5.296309425909094e-01
 1.566782765213917e+00	 6.287594767313712e-01	-3.619878889475722e-01
 1.560826256669648e+00	 6.434035177841784e-01	-1.129443224426425e+00
 1.554721333650398e+00	 6.580184315547234e-01	-1.780871292569879e+00
 1.548468009173378e+00	 6.726020456245368e-01	-2.321637698381092e+00
 1.542066337246781e+00	 6.871521802376196e-01	-2.754287927443722e+00
 1.535516413217374e+00	 7.016666492366371e-01	-3.078502054956420e+00
 1.528818374093255e+00	 7.161432610136317e-01	-3.291054016467656e+00
 1.521972398841161e+00	 7.305798194745170e-01	-3.385775801550405e+00
 1.592040539761233e+00	 5.877302522230078e-01	 2.040634006846550e+00
 1.586500139696427e+00	 6.025256605595203e-01	 6.368702450293171e-01
 1.580810753521514e+00	 6.172982872551731e-01	-5.455409137066942e-01
 1.574972273042159e+00	 6.320459761540024e-01	-1.523169306496516e+00
 1.568984630077895e+00	 6.467665609954794e-01	-2.311215773310345e+00
 1.562847796882426e+00	 6.614578663076398e-01	-2.923464916607696e+00
 1.556561786540984e+00	 6.761177083168597e-01	-3.372239690239331e+00
 1.550126653344047e+00	 6.907438958736325e-01	-3.668358128578615e+00
 1.543542493136738e+00	 7.053342313936549e-01	-3.821092538102992e+00
 1.536809443643275e+00	 7.198865118135123e-01	-3.838131483178874e+00
 1.529927684765830e+00	 7.343985295602113e-01	-3.725544905456068e+00
 1.600318756583150e+00	 5.907863040868249e-01	 1.242708070492502e+00
 1.594749547809442e+00	 6.056586448851704e-01	-2.742051201333425e-01
 1.589030578234766e+00	 6.205080855838191e-01	-1.512463009497336e+00
 1.583161739102190e+00	 6.353324588153144e-01	-2.491043036624407e+00
 1.577142961876711e+00	 6.501295870550968e-01	-3.229075487516120e+00
 1.570974218667745e+00	 6.648972835192715e-01	-3.745809336094997e+00
 1.564655522628555e+00	 6.796333530791189e-01	-4.060577954622827e+00
 1.558186928331899e+00	 6.943355931916823e-01	-4.192764963404713e+00
 1.551568532121260e+00	 7.090017948457507e-01	-4.161770504449145e+00
 1.544800472436973e+00	 7.236297435225104e-01	-3.986978237018753e+00
 1.537882930116643e+00	 7.382172201701207e-01	-3.687723364500479e+00
 1.458329191778564e+00	 7.000296973245008e-01	 4.337844328921868e+00
 1.451629102552406e+00	 7.138197457051577e-01	 2.830924016090465e+00
 1.444787774890119e+00	 7.275672120895003e-01	 1.553734241578971e+00
 1.437805501170166e+00	 7.412699853003292e-01	 5.016030677283668e-01
 1.430682614837620e+00	 7.549259536497341e-01	-3.661652915188879e-01
 1.423419490559979e+00	 7.685330059172392e-01	-1.087203409541555e+00
 1.416016544355583e+00	 7.820890323363864e-01	-1.670245506557767e+00
 1.408474233694218e+00	 7.955919255888726e-01	-2.124741329917718e+00
 1.400793057569549e+00	 8.090395818053450e-01	-2.460846137134177e+00
 1.392973556543012e+00	 8.224299015719309e-01	-2.689407787501098e+00
 1.385016312758878e+00	 8.357607909415733e-01	-2.821950917794736e+00
 1.466284639996011e+00	 7.038484853173357e-01	 3.568563094216475e+00
 1.459548000577180e+00	 7.177137608940228e-01	 2.134753085347871e+00
 1.452669352241098e+00	 7.315362221819188e-01	 8.907589433015974e-01
 1.445648988961213e+00	 7.453137464869757e-01	-1.623864846862078e-01
 1.438487246001606e+00	 7.590442106016481e-01	-1.067890491679834e+00
 1.431184500073661e+00	 7.727254917883754e-01	-1.838444319643961e+00
 1.423741169465178e+00	 7.863554687715474e-01	-2.473129022481209e+00
 1.416157714141530e+00	 7.999320227370634e-01	-2.971588652341292e+00
 1.408434635818488e+00	 8.134530383385862e-01	-3.334031450509951e+00
 1.400572478006355e+00	 8.269164047095668e-01	-3.561228400261134e+00
 1.392571826025109e+00	 8.403200164800926e-01	-3.654509101281480e+00
 1.474240083705840e+00	 7.076672711453058e-01	 2.593135795593933e+00
 1.467466894115124e+00	 7.216077738753871e-01	 1.280790931215401e+00
 1.460550925126458e+00	 7.355052300243319e-01	 1.211934430419719e-01
 1.453492472308269e+00	 7.493575053812495e-01	-8.852323401807005e-01
 1.446291872743647e+00	 7.631624652189664e-01	-1.774006462255769e+00
 1.438949505187860e+00	 7.769179752828448e-01	-2.539613689504361e+00
 1.431465790198168e+00	 7.906219027881273e-01	-3.172471430326568e+00
 1.423841190235528e+00	 8.042721174249227e-01	-3.663411975365523e+00
 1.416076209737817e+00	 8.178664923699179e-01	-4.003693864776573e+00
 1.408171395164201e+00	 8.314029053038924e-01	-4.185010854477802e+00
 1.400127335010365e+00	 8.448792394340858e-01	-4.199498426523357e+00
 1.482195518399771e+00	 7.114860526445453e-01	 1.492984780293555e+00
 1.475385778678659e+00	 7.255017824427503e-01	 3.402253235291210e-01
 1.468432489079756e+00	 7.394742333677343e-01	-6.941107455814772e-01
 1.461335946766467e+00	 7.534012596917782e-01	-1.616078953104621e+00
 1.454096490640893e+00	 7.672807151680944e-01	-2.443931897320518e+00
 1.446714501502178e+00	 7.811104540249799e-01	-3.160397985109016e+00
 1.439190402177040e+00	 7.948883319685445e-01	-3.748208514763329e+00
 1.431524657622020e+00	 8.086122071931201e-01	-4.190365920122675e+00
 1.423717774997096e+00	 8.222799413984306e-01	-4.470164291751512e+00
 1.415770303710294e+00	 8.358894008125978e-01	-4.571207717838559e+00
 1.407682835433004e+00	 8.494384572200259e-01	-4.477426376904297e+00
 1.490150939569523e+00	 7.153048276511899e-01	 3.375596347603391e-01
 1.483304649780203e+00	 7.293957843896119e-01	-6.177989795348453e-01
 1.476314039634549e+00	 7.434432299631210e-01	-1.496841146322591e+00
 1.469179407890946e+00	 7.574450071271901e-01	-2.305163069892487e+00
 1.461901095270492e+00	 7.713989581154368e-01	-3.037958717355470e+00
 1.454479484616214e+00	 7.853029256391135e-01	-3.671137912919234e+00
 1.446915001024281e+00	 7.991547538952182e-01	-4.180711651268598e+00
 1.439208111946813e+00	 8.129522895823248e-01	-4.542822643029226e+00
 1.431359327265885e+00	 8.266933829232151e-01	-4.733773976199849e+00
 1.423369199338379e+00	 8.403758886933724e-01	-4.730055801845445e+00
 1.415238323011382e+00	 8.539976672543874e-01	-4.508369964483535e+00
 1.498106342706818e+00	 7.191235940013742e-01	-8.029178929445013e-01
 1.491223502932177e+00	 7.332897775094712e-01	-1.537392496715428e+00
 1.484195572324397e+00	 7.474122175614871e-01	-2.233258821970828e+00
 1.477022851236836e+00	 7.614887453961123e-01	-2.903785013768279e+00
 1.469705682209594e+00	 7.755171917273981e-01	-3.517229167151544e+00
 1.462244450129569e+00	 7.894953877495785e-01	-4.042811327382227e+00
 1.454639582362379e+00	 8.034211661505669e-01	-4.450776512914994e+00
 1.446891548855716e+00	 8.172923621332060e-01	-4.711366324744883e+00
 1.439000862213744e+00	 8.311068144433613e-01	-4.794854743064240e+00
 1.430968077742198e+00	 8.448623664039067e-01	-4.671582136598362e+00
 1.422793793463853e+00	 8.585568669536435e-01	-4.311987394783518e+00
 1.506061723303376e+00	 7.229423495312334e-01	-1.852748255551305e+00
 1.499142333646998e+00	 7.371837595958279e-01	-2.357718688103137e+00
 1.492077082682854e+00	 7.513811939138264e-01	-2.859544633258115e+00
 1.484866272359275e+00	 7.655324722071728e-01	-3.365965014774124e+00
 1.477510247035349e+00	 7.796354136703829e-01	-3.843713642775449e+00
 1.470009393641844e+00	 7.936878379807087e-01	-4.247016683817163e+00
 1.462364141813821e+00	 8.076875663170096e-01	-4.539612139156011e+00
 1.454574963994535e+00	 8.216324223864327e-01	-4.686787838278407e+00
 1.446642375510236e+00	 8.355202334579608e-01	-4.653739241728833e+00
 1.438566934615496e+00	 8.493488314018902e-01	-4.405609761455393e+00
 1.430349242508775e+00	 8.631160537342678e-01	-3.907529367472075e+00
 1.514017076850916e+00	 7.267610920769028e-01	-2.737862326727689e+00
 1.507061137437086e+00	 7.410777284421817e-01	-3.014151842425855e+00
 1.499958566243481e+00	 7.553501567711348e-01	-3.323894264267517e+00
 1.492709666813395e+00	 7.695761852689991e-01	-3.658691010255394e+00
 1.485314785324906e+00	 7.837536216107969e-01	-3.982367159271348e+00
 1.477774310752641e+00	 7.978802739568360e-01	-4.255957016673761e+00
 1.470088675001094e+00	 8.119539519769651e-01	-4.428830353330437e+00
 1.462258353009080e+00	 8.259724678826740e-01	-4.460079589664592e+00
 1.454283862824919e+00	 8.399336374661037e-01	-4.310761187421179e+00
 1.446165765652017e+00	 8.538352811450131e-01	-3.941763338318571e+00
 1.437904665864503e+00	 8.676752250127346e-01	-3.313850026284284e+00
 1.521972398841161e+00	 7.305798194745170e-01	-3.385775801550405e+00
 1.514979909814860e+00	 7.449716818420312e-01	-3.445857826272432e+00
 1.507840018539832e+00	 7.593191038844065e-01	-3.571791358690770e+00
 1.500553030154332e+00	 7.736198822902188e-01	-3.739545555978479e+00
 1.493119292655413e+00	 7.878718132150444e-01	-3.910431766323534e+00
 1.485539197061559e+00	 8.020726933022940e-01	-4.044868091711695e+00
 1.477813177546687e+00	 8.162203207128523e-01	-4.100435516158127e+00
 1.469941711545156e+00	 8.303124961625994e-01	-4.022430524911740e+00
 1.461925319827353e+00	 8.443470239668803e-01	-3.766255599850005e+00
 1.453764566545504e+00	 8.583217130909651e-01	-3.289474594007897e+00
 1.445460059249392e+00	 8.722343782055169e-01	-2.549417570973992e+00
 1.529927684765830e+00	 7.343985295602113e-01	-3.725544905456068e+00
 1.522898646292739e+00	 7.488656175888769e-01	-3.592277759483536e+00
 1.515721435105468e+00	 7.632880330046365e-01	-3.549832586050605e+00
 1.508396357937219e+00	 7.776635609794600e-01	-3.564113364731864e+00
 1.500923764604023e+00	 7.919899861495301e-01	-3.594825079537376e+00
 1.493304048168200e+00	 8.062650936414156e-01	-3.600638740168131e+00
 1.485537645073085e+00	 8.204866701070902e-01	-3.539243621280978e+00
 1.477625035248573e+00	 8.346525047668775e-01	-3.365221297179710e+00
 1.469566742187101e+00	 8.487603904593822e-01	-3.020559039173402e+00
 1.461363332989701e+00	 8.628081246974364e-01	-2.457987597921252e+00
 1.453015418381801e+00	 8.767935107290888e-01	-1.632324543554086e+00
 1.537882930116643e+00	 7.382172201701207e-01	-3.687723364500477e+00
 1.530817342383143e+00	 7.527595334762179e-01	-3.392307368688925e+00
 1.523602811473945e+00	 7.672569418828201e-01	-3.205698500780518e+00
 1.516239645717194e+00	 7.817072190453502e-01	-3.088876272948662e+00
 1.508728196747882e+00	 7.961081380806593e-01	-3.000836551054875e+00
 1.501068859672164e+00	 8.104574725985342e-01	-2.899405818628538e+00
 1.493262073202777e+00	 8.247529977420973e-01	-2.741295063577522e+00
 1.485308319765139e+00	 8.389924912361780e-01	-2.482156645922532e+00
 1.477208125573723e+00	 8.531737344426989e-01	-2.074009839388480e+00
 1.468962060678353e+00	 8.672945134221165e-01	-1.456363880920510e+00
 1.460570738980083e+00	 8.813526199999246e-01	-5.802978005790023e-01
 1.385016312758878e+00	 8.357607909415733e-01	-2.821950917794734e+00
 1.376921950264790e+00	 8.490301627137588e-01	-2.869570313501267e+00
 1.368691135966320e+00	 8.622359382625984e-01	-2.834537487338360e+00
 1.360324578539134e+00	 8.753760477913800e-01	-2.716966871884906e+00
 1.351823027988257e+00	 8.884484310920081e-01	-2.518747877515525e+00
 1.343187275513448e+00	 9.014510385646831e-01	-2.243546653041973e+00
 1.334418153344632e+00	 9.143818322364075e-01	-1.896803650020553e+00
 1.325516534547367e+00	 9.272387867773062e-01	-1.485727003549635e+00
 1.316483332798322e+00	 9.400198905137382e-01	-1.019281759393426e+00
 1.307319502130800e+00	 9.527231464371733e-01	-5.081749942047342e-01
 1.298026036650376e+00	 9.653465732078103e-01	 3.516310760932662e-02
 1.392571826025109e+00	 8.403200164800926e-01	-3.654509101281480e+00
 1.384433307326690e+00	 8.536617750635985e-01	-3.628063028120237e+00
 1.376157592454760e+00	 8.669395904949169e-01	-3.497237032088981e+00
 1.367745393950933e+00	 8.801513816862189e-01	-3.267220633748152e+00
 1.359197465911648e+00	 8.932950771906035e-01	-2.945482465411160e+00
 1.350514603852795e+00	 9.063686162273336e-01	-2.541767123033218e+00
 1.341697644544260e+00	 9.193699497059010e-01	-2.068087013425363e+00
 1.332747465814330e+00	 9.322970412478896e-01	-1.538709213611112e+00
 1.323664986323940e+00	 9.451478682056157e-01	-9.701373780687437e-01
 1.314451165310814e+00	 9.579204226765062e-01	-3.810887484535008e-01
 1.305107002303551e+00	 9.706127125121943e-01	 2.075336609270382e-01
 1.400127335010365e+00	 8.448792394340858e-01	-4.199498426523355e+00
 1.391944660132547e+00	 8.582933847878872e-01	-4.068683876858378e+00
 1.383624044712497e+00	 8.716432400608570e-01	-3.824138570255499e+00
 1.375166205157784e+00	 8.849267128740599e-01	-3.475390232375294e+00
 1.366571899656258e+00	 8.981417205417938e-01	-3.034620364715384e+00
 1.357841928039947e+00	 9.112861911023913e-01	-2.516656458326938e+00
 1.348977131618701e+00	 9.243580643478408e-01	-1.938958575563148e+00
 1.339978392983535e+00	 9.373552928511949e-01	-1.321600321542002e+00
 1.330846635779655e+00	 9.502758429907313e-01	-6.872442475026447e-01
 1.321582824449209e+00	 9.631176959698434e-01	-6.111174865200414e-02
 1.312187963943819e+00	 9.758788488316039e-01	 5.290524606684563e-01
 1.407682835433004e+00	 8.494384572200259e-01	-4.477426376904297e+00
 1.399456004425755e+00	 8.629249892620728e-01	-4.221017381235477e+00
 1.391090488508389e+00	 8.763468842950405e-01	-3.852030619860602e+00
 1.382587007954426e+00	 8.897020386488994e-01	-3.383608059432335e+00
 1.373946325043128e+00	 9.029883583991610e-01	-2.831792063328383e+00
 1.365169243922662e+00	 9.162037604032416e-01	-2.215513235035471e+00
 1.356256610442838e+00	 9.293461733356397e-01	-1.556572181753118e+00
 1.347209311957400e+00	 9.424135387208866e-01	-8.796152256323975e-01
 1.338028277095824e+00	 9.554038119632393e-01	-2.121041117903802e-01
 1.328714475504677e+00	 9.683149633720676e-01	 4.157202161192846e-01
 1.319268917558604e+00	 9.811449791818985e-01	 9.708796805628434e-01
 1.415238323011382e+00	 8.539976672543874e-01	-4.508369964483535e+00
 1.406967335949710e+00	 8.675565858616047e-01	-4.114023709665702e+00
 1.398556919611293e+00	 8.810505205320885e-01	-3.616923413129588e+00
 1.390007798135601e+00	 8.944773563047353e-01	-3.033113960114476e+00
 1.381320737893303e+00	 9.078349880162894e-01	-2.381660606485233e+00
 1.372496547348698e+00	 9.211213213432713e-01	-1.684632716933804e+00
 1.363536076891557e+00	 9.343342738427080e-01	-9.670811535356882e-01
 1.354440218638345e+00	 9.474717759906313e-01	-2.570093486717828e-01
 1.345209906202802e+00	 9.605317722172934e-01	 4.146618810580298e-01
 1.335846114435910e+00	 9.735122219380624e-01	 1.014135700786081e+00
 1.326349859135333e+00	 9.864111005789371e-01	 1.504786701754018e+00
 1.422793793463853e+00	 8.585568669536435e-01	-4.311987394783518e+00
 1.414478650447807e+00	 8.721881719619314e-01	-3.776055478104534e+00
 1.406023333790067e+00	 8.857541461066222e-01	-3.154069771291342e+00
 1.397428571496050e+00	 8.992526631355648e-01	-2.464279127726598e+00
 1.388695134027825e+00	 9.126816066467631e-01	-1.727947464875923e+00
 1.379823834165816e+00	 9.260388711358668e-01	-9.693336598153550e-01
 1.370815526839743e+00	 9.393223630424579e-01	-2.156650016960164e-01
 1.361671108928788e+00	 9.525300017940931e-01	 5.028957573937838e-01
 1.352391519030945e+00	 9.656597208470472e-01	 1.153289688534797e+00
 1.342977737201602e+00	 9.787094687227104e-01	 1.699607221364289e+00
 1.333430784661431e+00	 9.916772100385802e-01	 2.103139818248142e+00
 1.430349242508775e+00	 8.631160537342678e-01	-3.907529367472075e+00
 1.421989943663440e+00	 8.768197449385009e-01	-3.234874024098981e+00
 1.413489726813570e+00	 8.904577583532622e-01	-2.497985323824969e+00
 1.404849323830514e+00	 9.040279564353855e-01	-1.716629247052941e+00
 1.396069509267736e+00	 9.175282115441656e-01	-9.134575889410557e-01
 1.387151100221771e+00	 9.309564069944144e-01	-1.139842721715945e-01
 1.378094956162280e+00	 9.443104381083003e-01	 6.534447017850267e-01
 1.368901978731147e+00	 9.575882132649376e-01	 1.357687613150975e+00
 1.359573111510609e+00	 9.707876549466550e-01	 1.964849622905945e+00
 1.350109339760446e+00	 9.839067007808964e-01	 2.438331514024630e+00
 1.340511690124322e+00	 9.969433045766869e-01	 2.738884455491850e+00
 1.437904665864503e+00	 8.676752250127346e-01	-3.313850026284284e+00
 1.429501211340003e+00	 8.814513021667627e-01	-2.517665173547052e+00
 1.420956094450658e+00	 8.951613546066303e-01	-1.682468096186699e+00
 1.412270050933736e+00	 9.088032334981945e-01	-8.288669140573075e-01
 1.403443859434079e+00	 9.223747999620809e-01	 1.989632081876147e-02
 1.394478341364324e+00	 9.358739261323001e-01	 8.379726368706802e-01
 1.385374360734054e+00	 9.492984962136471e-01	 1.596939262013463e+00
 1.376132823947842e+00	 9.626464075368303e-01	 2.265838790188579e+00
 1.366754679572149e+00	 9.759155716102704e-01	 2.811224313210097e+00
 1.357240918071134e+00	 9.891039151675020e-01	 3.197210412598563e+00
 1.347592571511432e+00	 1.002209381209118e+00	 3.385529883265692e+00
 1.445460059249392e+00	 8.722343782055169e-01	-2.549417570973993e+00
 1.437012449220893e+00	 8.860828410221652e-01	-1.651054518665778e+00
 1.428422432470189e+00	 8.998649322013471e-01	-7.406174890485333e-01
 1.419690748600457e+00	 9.135784916179892e-01	 1.611066416924969e-01
 1.410818180347898e+00	 9.272213691540918e-01	 1.031070298925164e+00
 1.401805553441232e+00	 9.407914257629103e-01	 1.843995292710686e+00
 1.392653736429950e+00	 9.542865345319089e-01	 2.572408580146446e+00
 1.383363640481291e+00	 9.677045817434362e-01	 3.186683638015475e+00
 1.373936219145922e+00	 9.810434679320476e-01	 3.655087353987991e+00
 1.364372468092358e+00	 9.943011089374115e-01	 3.943832321967893e+00
 1.354673424810187e+00	 1.007475436951730e+00	 4.017134404862498e+00
 1.453015418381801e+00	 8.767935107290888e-01	-1.632324543554086e+00
 1.444523653049504e+00	 8.907143588801568e-01	-6.611222249004736e-01
 1.435888736641022e+00	 9.045684884720345e-01	 2.951473288746264e-01
 1.427111412625418e+00	 9.183537280887676e-01	 1.216170506576643e+00
 1.418192467830235e+00	 9.320679163737829e-01	 2.079866327988606e+00
 1.409132732300255e+00	 9.457089030996315e-01	 2.862419345120080e+00
 1.399933079124852e+00	 9.592745502364981e-01	 3.538317624710708e+00
 1.390594424233912e+00	 9.727627330184206e-01	 4.080395732268796e+00
 1.381117726162284e+00	 9.861713410061395e-01	 4.459882615823587e+00
 1.371503985782812e+00	 9.994982791455084e-01	 4.646454265715696e+00
 1.361754246008011e+00	 1.012741468820386e+00	 4.608291005268103e+00
 1.460570738980083e+00	 8.813526199999246e-01	-5.802978005790023e-01
 1.452034818569231e+00	 8.953458531161863e-01	 4.265826162238616e-01
 1.443355002732013e+00	 9.092720207533125e-01	 1.393069593244054e+00
 1.434532038803360e+00	 9.231289402045261e-01	 2.299963680197517e+00
 1.425566717702133e+00	 9.369144388747375e-01	 3.126910253480811e+00
 1.416459873789150e+00	 9.506263553558497e-01	 3.852434985531833e+00
 1.407212384693646e+00	 9.642625405008262e-01	 4.453983628117820e+00
 1.397825171108125e+00	 9.778208584954495e-01	 4.907966018175459e+00
 1.388299196551591e+00	 9.912991879267010e-01	 5.189804193807482e+00
 1.378635467101188e+00	 1.004695422846675e+00	 5.273984487308301e+00
 1.368835031092330e+00	 1.018007473830945e+00	 5.134113441774383e+00
 1.298026036650376e+00	 9.653465732078103e-01	 3.516310760932742e-02
 1.288602358385265e+00	 9.778903301024591e-01	 5.597238421259783e-01
 1.279051114591260e+00	 9.903503101933834e-01	 1.023943986303573e+00
 1.269373423511538e+00	 1.002724576933950e+00	 1.429385136208319e+00
 1.259570442080433e+00	 1.015011213368079e+00	 1.778721729831834e+00
 1.249643365489745e+00	 1.027208323096735e+00	 2.075765856506273e+00
 1.239593426726359e+00	 1.039314031233090e+00	 2.325491519754499e+00
 1.229421896081530e+00	 1.051326485345384e+00	 2.534058191494986e+00
 1.219130080632221e+00	 1.063243856386471e+00	 2.708833491068134e+00
 1.208719323694913e+00	 1.075064339609113e+00	 2.858414819056975e+00
 1.198191004252381e+00	 1.086786155466048e+00	 2.992649773384900e+00
 1.305107002303551e+00	 9.706127125121943e-01	 2.075336609270383e-01
 1.295631916177420e+00	 9.832248978583730e-01	 7.583268972803988e-01
 1.286028568629475e+00	 9.957528493832745e-01	 1.248479410786692e+00
 1.276298084003108e+00	 1.008194619976057e+00	 1.678513674299055e+00
 1.266441625543942e+00	 1.020548282223301e+00	 2.050123626447081e+00
 1.256460394963762e+00	 1.032811929380773e+00	 2.366201341538368e+00
 1.246355631975619e+00	 1.044983676333802e+00	 2.630863108047852e+00
 1.236128613800440e+00	 1.057061660545278e+00	 2.849474746654677e+00
 1.225780654645524e+00	 1.069044042990277e+00	 3.028675994234995e+00
 1.215313105155390e+00	 1.080929009076339e+00	 3.176403776660962e+00
 1.204727351835412e+00	 1.092714769548452e+00	 3.301914190737297e+00
 1.312187963943819e+00	 9.758788488316039e-01	 5.290524606684559e-01
 1.302661469985817e+00	 9.885594625905887e-01	 1.063718316139965e+00
 1.293006018713498e+00	 1.001155385511013e+00	 1.541934638268543e+00
 1.283222740570472e+00	 1.013664659917829e+00	 1.963112461676715e+00
 1.273312805113630e+00	 1.026085347940282e+00	 2.327844886940547e+00
 1.263277420574739e+00	 1.038415532488947e+00	 2.637935757416908e+00
 1.253117833393007e+00	 1.050653318221314e+00	 2.896427768640371e+00
 1.242835327719017e+00	 1.062796832494929e+00	 3.107629834110500e+00
 1.232431224890399e+00	 1.074844226307089e+00	 3.277143526498542e+00
 1.221906882879699e+00	 1.086793675220122e+00	 3.411888409540735e+00
 1.211263695714876e+00	 1.098643380271268e+00	 3.520126073197154e+00
 1.319268917558604e+00	 9.811449791818985e-01	 9.708796805628434e-01
 1.309691015827007e+00	 9.938940212761895e-01	 1.454771095263651e+00
 1.299983460889407e+00	 1.006557915515162e+00	 1.890214457390898e+00
 1.290147389289607e+00	 1.019134693659575e+00	 2.275440590805116e+00
 1.280183976895768e+00	 1.031622407381351e+00	 2.609825462244725e+00
 1.270094438459620e+00	 1.044019129245879e+00	 2.893921010658472e+00
 1.259880027146516e+00	 1.056322953682820e+00	 3.129485501409288e+00
 1.249542034036682e+00	 1.068531997944388e+00	 3.319513221848607e+00
 1.239081787598070e+00	 1.080644403050114e+00	 3.468263329589899e+00
 1.228500653131234e+00	 1.092658334717119e+00	 3.581287660702054e+00
 1.217800032186712e+00	 1.104571984274907e+00	 3.665457302050007e+00
 1.326349859135333e+00	 9.864111005789371e-01	 1.504786701754018e+00
 1.316720549717547e+00	 9.992285708922567e-01	 1.910805324937119e+00
 1.306960891203272e+00	 1.011960436334287e+00	 2.279521237199233e+00
 1.297072026236494e+00	 1.024604718101607e+00	 2.607919741153530e+00
 1.287055136996626e+00	 1.037159457408831e+00	 2.894047325277446e+00
 1.276911444755347e+00	 1.049622716476184e+00	 3.137044790513193e+00
 1.266642209404138e+00	 1.061992579505511e+00	 3.337180061863150e+00
 1.256248728952858e+00	 1.074267153643709e+00	 3.495880493974641e+00
 1.245732338999760e+00	 1.086444569932559e+00	 3.615764474016769e+00
 1.235094412173392e+00	 1.098522984243988e+00	 3.700672120562058e+00
 1.224336357546852e+00	 1.110500578199781e+00	 3.755694873747286e+00
 1.333430784661431e+00	 9.916772100385802e-01	 2.103139818248141e+00
 1.323750067673990e+00	 1.004563108415874e+00	 2.411576275789224e+00
 1.313938305701167e+00	 1.017362944906950e+00	 2.696347008490287e+00
 1.303996647487112e+00	 1.030074730144233e+00	 2.953129870879857e+00
 1.293926281522473e+00	 1.042696494885050e+00	 3.178533390894801e+00
 1.283728435598860e+00	 1.055226291004481e+00	 3.370132337736046e+00
 1.273404376333869e+00	 1.067662192476579e+00	 3.526503202180729e+00
 1.262955408666967e+00	 1.080002296342945e+00	 3.647259390651988e+00
 1.252382875326693e+00	 1.092244723667627e+00	 3.733085927998244e+00
 1.241688156269569e+00	 1.104387620477386e+00	 3.785773458722415e+00
 1.230872668091234e+00	 1.116429158686304e+00	 3.811062015540869e+00
 1.340511690124322e+00	 9.969433045766869e-01	 2.738884455491851e+00
 1.330779565712892e+00	 1.009897630824122e+00	 2.937262860446746e+00
 1.320915700429165e+00	 1.022765438171716e+00	 3.127465794324336e+00
 1.310921249117441e+00	 1.035544726687763e+00	 3.303805043959310e+00
 1.300797406579578e+00	 1.048233516672332e+00	 3.461346469649274e+00
 1.290545407127104e+00	 1.060829849655387e+00	 3.595948157519778e+00
 1.280166524103702e+00	 1.073331789383216e+00	 3.704298778670811e+00
 1.269662069378431e+00	 1.085737422792146e+00	 3.783955948522926e+00
 1.259033392810093e+00	 1.098044860968527e+00	 3.833384372636191e+00
 1.248281881683161e+00	 1.110252240093970e+00	 3.851993559305175e+00
 1.237408960115793e+00	 1.122357722374885e+00	 3.852569842834075e+00
 1.347592571511432e+00	 1.002209381209118e+00	 3.385529883265692e+00
 1.337809039850808e+00	 1.015232135094084e+00	 3.468456456475555e+00
 1.327893071433340e+00	 1.028167913067147e+00	 3.559926180566193e+00
 1.317845827203458e+00	 1.041014704632506e+00	 3.652829387791479e+00
 1.307668508274213e+00	 1.053770519633005e+00	 3.740588254112851e+00
 1.297362355477020e+00	 1.066433389253523e+00	 3.817197678635033e+00
 1.286928648881630e+00	 1.079001367012613e+00	 3.877266730549067e+00
 1.276368707286673e+00	 1.091472529741369e+00	 3.916060448925833e+00
 1.265683887681183e+00	 1.103844978548464e+00	 3.929541772624793e+00
 1.254875584677564e+00	 1.116116839770399e+00	 3.916754692764267e+00
 1.243945229916464e+00	 1.128286265905938e+00	 3.896667663535427e+00
 1.354673424810187e+00	 1.007475436951730e+00	 4.017134404862498e+00
 1.344838486104291e+00	 1.020566618202843e+00	 3.986150077429505e+00
 1.334870414759766e+00	 1.033570366531807e+00	 3.981044117698518e+00
 1.324770377821145e+00	 1.046484660878773e+00	 3.993233176525489e+00
 1.314539582712644e+00	 1.059307500629393e+00	 4.014398336575844e+00
 1.304179276785549e+00	 1.072036906623503e+00	 4.036528860738501e+00
 1.293690746835649e+00	 1.084670922151964e+00	 4.051966934723759e+00
 1.283075318591113e+00	 1.097207613940664e+00	 4.053453180916901e+00
 1.272334356171187e+00	 1.109645073120645e+00	 4.034172711412574e+00
 1.261469261516174e+00	 1.121981416183330e+00	 3.998663266231337e+00
 1.250481473789183e+00	 1.134214785919873e+00	 3.959406871737190e+00
 1.361754246008011e+00	 1.012741468820386e+00	 4.608291005268104e+00
 1.351867900489896e+00	 1.025901077127479e+00	 4.471727879375938e+00
 1.341847726454515e+00	 1.038972795504262e+00	 4.378395945515244e+00
 1.331694897046479e+00	 1.051954592326871e+00	 4.318189035540811e+00
 1.321410626001145e+00	 1.064844456523824e+00	 4.280953256981697e+00
 1.310996167189634e+00	 1.077640398589949e+00	 4.256533751728123e+00
 1.300452814133752e+00	 1.090340451588458e+00	 4.234822941087549e+00
 1.289781899491176e+00	 1.102942672140085e+00	 4.205810025814043e+00
 1.278984794511330e+00	 1.115445141398275e+00	 4.161269541213523e+00
 1.268062908462387e+00	 1.127845966009419e+00	 4.111953162882672e+00
 1.257017688029886e+00	 1.140143279057105e+00	 4.056487862505001e+00
 1.368835031092330e+00	 1.018007473830945e+00	 5.134113441774383e+00
 1.358897279024179e+00	 1.031235508845077e+00	 4.906954990786179e+00
 1.348825002563662e+00	 1.044375196923073e+00	 4.739811632648725e+00
 1.338619380955441e+00	 1.057424495877113e+00	 4.621008262708828e+00
 1.328281634245983e+00	 1.070381384178622e+00	 4.538465580005294e+00
 1.317813022826219e+00	 1.083243861977478e+00	 4.479749996947222e+00
 1.307214846943933e+00	 1.096009952109289e+00	 4.432125592627114e+00
 1.296488446186282e+00	 1.108677701089683e+00	 4.382607869703422e+00
 1.285635198932836e+00	 1.121245180094562e+00	 4.326806478885153e+00
 1.274656521779600e+00	 1.133710485925326e+00	 4.270479695702900e+00
 1.263553868934508e+00	 1.146071741958044e+00	 4.203269914416182e+00
 1.198191004252381e+00	 1.086786155466048e+00	 2.992649773384900e+00
 1.187548352346055e+00	 1.098405586862223e+00	 3.161072218786543e+00
 1.176791020270100e+00	 1.109922924874111e+00	 3.386093456627640e+00
 1.165920470588176e+00	 1.121336490598920e+00	 3.648633216169700e+00
 1.154938198955122e+00	 1.132644633743766e+00	 3.934755387890076e+00
 1.143845733426350e+00	 1.143845733426350e+00	 4.212340103414100e+00
 1.132644633743766e+00	 1.154938198955122e+00	 4.447750259093950e+00
 1.121336490598919e+00	 1.165920470588176e+00	 4.606034710916763e+00
 1.109922924874111e+00	 1.176791020270100e+00	 4.651015992495931e+00
 1.098405586862222e+00	 1.187548352346055e+00	 4.550157572491186e+00
 1.086786155466048e+00	 1.198191004252381e+00	 4.270569175182025e+00
 1.204727351835412e+00	 1.092714769548452e+00	 3.301914190737297e+00
 1.194026642347475e+00	 1.104397587034142e+00	 3.438515555337835e+00
 1.183210627088950e+00	 1.115977754197759e+00	 3.600656229138949e+00
 1.172280776602042e+00	 1.127453582977790e+00	 3.788101143014063e+00
 1.161238594700656e+00	 1.138823414078712e+00	 3.983881682490391e+00
 1.150085617776020e+00	 1.150085617776020e+00	 4.165414473634449e+00
 1.138823414078712e+00	 1.161238594700656e+00	 4.309343662282594e+00
 1.127453582977790e+00	 1.172280776602042e+00	 4.391575599388571e+00
 1.115977754197758e+00	 1.183210627088951e+00	 4.387314014188673e+00
 1.104397587034142e+00	 1.194026642347476e+00	 4.272554229260916e+00
 1.092714769548452e+00	 1.204727351835411e+00	 4.029078696112167e+00
 1.211263695714876e+00	 1.098643380271268e+00	 3.520126073197154e+00
 1.200504928678265e+00	 1.110389583810643e+00	 3.622235660146635e+00
 1.189630230270434e+00	 1.122032580090466e+00	 3.735449398162380e+00
 1.178641079012137e+00	 1.133570671890515e+00	 3.862100777031720e+00
 1.167538986876340e+00	 1.145002190912624e+00	 3.988466522149438e+00
 1.156325498590087e+00	 1.156325498590087e+00	 4.100476341240424e+00
 1.145002190912624e+00	 1.167538986876340e+00	 4.183790029269104e+00
 1.133570671890515e+00	 1.178641079012137e+00	 4.223820135716986e+00
 1.122032580090466e+00	 1.189630230270434e+00	 4.205754383864344e+00
 1.110389583810642e+00	 1.200504928678265e+00	 4.114595109190257e+00
 1.098643380271268e+00	 1.211263695714876e+00	 3.940934004990924e+00
 1.217800032186712e+00	 1.104571984274907e+00	 3.665457302050007e+00
 1.206983207667255e+00	 1.116381573796204e+00	 3.734088049538103e+00
 1.196049826176641e+00	 1.128087399121099e+00	 3.808784185119333e+00
 1.185001374214159e+00	 1.139687753870663e+00	 3.886912216562791e+00
 1.173839371911833e+00	 1.151180960744101e+00	 3.961620922699559e+00
 1.162565372332510e+00	 1.162565372332510e+00	 4.026192379169844e+00
 1.151180960744100e+00	 1.173839371911833e+00	 4.074055016129047e+00
 1.139687753870664e+00	 1.185001374214159e+00	 4.098795849640521e+00
 1.128087399121098e+00	 1.196049826176641e+00	 4.094171849273396e+00
 1.116381573796204e+00	 1.206983207667256e+00	 4.054120410540198e+00
 1.104571984274908e+00	 1.217800032186712e+00	 3.974431990601547e+00
 1.224336357546852e+00	 1.110500578199781e+00	 3.755694873747286e+00
 1.213461475643280e+00	 1.122373553595308e+00	 3.797020436142989e+00
 1.202469411169660e+00	 1.134142207858521e+00	 3.838408389379157e+00
 1.191361658603809e+00	 1.145804825451803e+00	 3.878447249472686e+00
 1.180139746236791e+00	 1.157359720071738e+00	 3.916155367558337e+00
 1.168805235467249e+00	 1.168805235467249e+00	 3.951023687238132e+00
 1.157359720071739e+00	 1.180139746236792e+00	 3.983020445259462e+00
 1.145804825451803e+00	 1.191361658603810e+00	 4.012594534897645e+00
 1.134142207858521e+00	 1.202469411169661e+00	 4.040677508692567e+00
 1.122373553595307e+00	 1.213461475643280e+00	 4.068684204482925e+00
 1.110500578199782e+00	 1.224336357546852e+00	 4.098526736725944e+00
 1.230872668091234e+00	 1.116429158686304e+00	 3.811062015540869e+00
 1.219939728935172e+00	 1.128365519812435e+00	 3.828980368178489e+00
 1.208888981611582e+00	 1.140197002871597e+00	 3.841672806508065e+00
 1.197721928576787e+00	 1.151921883167503e+00	 3.852259816968319e+00
 1.186440106280875e+00	 1.163538465394137e+00	 3.864588477995090e+00
 1.175045084458263e+00	 1.175045084458263e+00	 3.883231945035922e+00
 1.163538465394137e+00	 1.186440106280875e+00	 3.913487227620428e+00
 1.151921883167503e+00	 1.197721928576787e+00	 3.961371238608306e+00
 1.140197002871598e+00	 1.208888981611583e+00	 4.033615103845767e+00
 1.128365519812435e+00	 1.219939728935172e+00	 4.137656728697200e+00
 1.116429158686304e+00	 1.230872668091235e+00	 4.281631626230139e+00
 1.237408960115793e+00	 1.122357722374885e+00	 3.852569842834075e+00
 1.226417963871765e+00	 1.134357469052068e+00	 3.847463664650026e+00
 1.215308533864497e+00	 1.146251780729193e+00	 3.835542420975689e+00
 1.204082180528792e+00	 1.158038923551330e+00	 3.823556180147432e+00
 1.192740448473742e+00	 1.169717193209894e+00	 3.819155442890239e+00
 1.181284915769513e+00	 1.181284915769513e+00	 3.830885403921767e+00
 1.169717193209894e+00	 1.192740448473742e+00	 3.868178226182564e+00
 1.158038923551331e+00	 1.204082180528792e+00	 3.941343316131920e+00
 1.146251780729193e+00	 1.215308533864497e+00	 4.061555597387777e+00
 1.134357469052067e+00	 1.226417963871766e+00	 4.240841788938313e+00
 1.122357722374885e+00	 1.237408960115793e+00	 4.492064703153576e+00
 1.243945229916464e+00	 1.128286265905938e+00	 3.896667663535427e+00
 1.232896176781893e+00	 1.140349397918687e+00	 3.869579829767612e+00
 1.221728064290493e+00	 1.152306538000173e+00	 3.836607280107452e+00
 1.210442410855525e+00	 1.164155943136855e+00	 3.807204800163738e+00
 1.199040769245050e+00	 1.175895900017607e+00	 3.791816216789003e+00
 1.187524725864957e+00	 1.187524725864957e+00	 3.801864723992005e+00
 1.175895900017607e+00	 1.199040769245051e+00	 3.849741062719167e+00
 1.164155943136855e+00	 1.210442410855525e+00	 3.948789548983229e+00
 1.152306538000173e+00	 1.221728064290494e+00	 4.113291954151361e+00
 1.140349397918687e+00	 1.232896176781894e+00	 4.358449250637490e+00
 1.128286265905937e+00	 1.243945229916464e+00	 4.700361245711977e+00
 1.250481473789183e+00	 1.134214785919873e+00	 3.959406871737190e+00
 1.239374363994389e+00	 1.146341303016773e+00	 3.912062906978218e+00
 1.228147569251661e+00	 1.158361271253401e+00	 3.861093060891532e+00
 1.216802615952685e+00	 1.170272938457645e+00	 3.817745942435969e+00
 1.205341065024458e+00	 1.182074582315874e+00	 3.794263494682724e+00
 1.193764511208554e+00	 1.193764511208554e+00	 3.803868661664147e+00
 1.182074582315875e+00	 1.205341065024458e+00	 3.860750869990234e+00
 1.170272938457645e+00	 1.216802615952685e+00	 3.980049323486882e+00
 1.158361271253401e+00	 1.228147569251662e+00	 4.177834118706770e+00
 1.146341303016773e+00	 1.239374363994389e+00	 4.471085198850469e+00
 1.134214785919873e+00	 1.250481473789183e+00	 4.877669173352293e+00
 1.257017688029886e+00	 1.140143279057105e+00	 4.056487862505001e+00
 1.245852521838084e+00	 1.152333180950808e+00	 3.991282027903031e+00
 1.234567045110091e+00	 1.164415977057743e+00	 3.924871340767262e+00
 1.223162792215972e+00	 1.176389906047268e+00	 3.869401014895232e+00
 1.211641332241624e+00	 1.188253236603295e+00	 3.837930471600277e+00
 1.200004268264265e+00	 1.200004268264265e+00	 3.844419613274975e+00
 1.188253236603295e+00	 1.211641332241624e+00	 3.903712991280800e+00
 1.176389906047268e+00	 1.223162792215972e+00	 4.031521867947103e+00
 1.164415977057743e+00	 1.234567045110091e+00	 4.244404182089843e+00
 1.152333180950808e+00	 1.245852521838085e+00	 4.559742437177581e+00
 1.140143279057105e+00	 1.257017688029886e+00	 4.995719541016725e+00
 1.263553868934508e+00	 1.146071741958044e+00	 4.203269914416182e+00
 1.252330646641814e+00	 1.158325028325273e+00	 4.123251667173586e+00
 1.240986488227872e+00	 1.170470651982062e+00	 4.043469583060993e+00
 1.229522936041086e+00	 1.182506842439293e+00	 3.976081649852113e+00
 1.217941567326206e+00	 1.194431859378467e+00	 3.933998394758133e+00
 1.206243993496050e+00	 1.206243993496050e+00	 3.930869019870808e+00
 1.194431859378466e+00	 1.217941567326207e+00	 3.981065629173193e+00
 1.182506842439293e+00	 1.229522936041086e+00	 4.099665546198927e+00
 1.170470651982062e+00	 1.240986488227873e+00	 4.302431730848881e+00
 1.158325028325273e+00	 1.252330646641815e+00	 4.605791313397461e+00
 1.146071741958044e+00	 1.263553868934508e+00	 5.026812273276566e+00
 1.086786155466048e+00	 1.198191004252381e+00	 4.270569175182025e+00
 1.075064339609114e+00	 1.208719323694913e+00	 3.803771891784137e+00
 1.063243856386472e+00	 1.219130080632220e+00	 3.195821625338249e+00
 1.051326485345384e+00	 1.229421896081530e+00	 2.493694589371010e+00
 1.039314031233091e+00	 1.239593426726358e+00	 1.746289657746848e+00
 1.027208323096735e+00	 1.249643365489745e+00	 1.004335751858343e+00
 1.015011213368080e+00	 1.259570442080433e+00	 3.202975435943447e-01
 1.002724576933951e+00	 1.269373423511538e+00	-2.517202746582636e-01
 9.903503101933842e-01	 1.279051114591260e+00	-6.560699044271223e-01
 9.778903301024598e-01	 1.288602358385265e+00	-8.356582951154398e-01
 9.653465732078104e-01	 1.298026036650377e+00	-7.320456972716793e-01
 1.092714769548452e+00	 1.204727351835411e+00	 4.029078696112167e+00
 1.080929009076340e+00	 1.215313105155390e+00	 3.673744470243937e+00
 1.069044042990278e+00	 1.225780654645523e+00	 3.257860712057542e+00
 1.057061660545279e+00	 1.236128613800439e+00	 2.811325261969961e+00
 1.044983676333803e+00	 1.246355631975619e+00	 2.364727080519197e+00
 1.032811929380773e+00	 1.256460394963761e+00	 1.949282299302328e+00
 1.020548282223301e+00	 1.266441625543941e+00	 1.596770214990293e+00
 1.008194619976057e+00	 1.276298084003107e+00	 1.339469425271257e+00
 9.957528493832748e-01	 1.286028568629474e+00	 1.210094299827736e+00
 9.832248978583736e-01	 1.295631916177421e+00	 1.241731972854524e+00
 9.706127125121946e-01	 1.305107002303552e+00	 1.467780036227378e+00
 1.098643380271268e+00	 1.211263695714876e+00	 3.940934004990925e+00
 1.086793675220123e+00	 1.221906882879699e+00	 3.716360739878529e+00
 1.074844226307090e+00	 1.232431224890399e+00	 3.487339025780513e+00
 1.062796832494929e+00	 1.242835327719016e+00	 3.269293069086497e+00
 1.050653318221315e+00	 1.253117833393007e+00	 3.077318027910242e+00
 1.038415532488948e+00	 1.263277420574739e+00	 2.926140264005586e+00
 1.026085347940283e+00	 1.273312805113630e+00	 2.830078891993677e+00
 1.013664659917829e+00	 1.283222740570471e+00	 2.803008781112013e+00
 1.001155385511013e+00	 1.293006018713498e+00	 2.858325156384105e+00
 9.885594625905887e-01	 1.302661469985816e+00	 3.008909937052838e+00
 9.758788488316041e-01	 1.312187963943819e+00	 3.267099940382248e+00
 1.104571984274908e+00	 1.217800032186712e+00	 3.974431990601548e+00
 1.092658334717119e+00	 1.228500653131234e+00	 3.890415828936315e+00
 1.080644403050115e+00	 1.239081787598070e+00	 3.836720368846428e+00
 1.068531997944389e+00	 1.249542034036681e+00	 3.816855813745226e+00
 1.056322953682821e+00	 1.259880027146515e+00	 3.833192219480688e+00
 1.044019129245879e+00	 1.270094438459620e+00	 3.886939526025897e+00
 1.031622407381351e+00	 1.280183976895768e+00	 3.978129969953142e+00
 1.019134693659576e+00	 1.290147389289606e+00	 4.105602997956449e+00
 1.006557915515163e+00	 1.299983460889407e+00	 4.266992791285661e+00
 9.938940212761899e-01	 1.309691015827007e+00	 4.458718499892793e+00
 9.811449791818985e-01	 1.319268917558604e+00	 4.675977273437353e+00
 1.110500578199782e+00	 1.224336357546852e+00	 4.098526736725944e+00
 1.098522984243988e+00	 1.235094412173392e+00	 4.155564527943508e+00
 1.086444569932559e+00	 1.245732338999760e+00	 4.259462987691259e+00
 1.074267153643709e+00	 1.256248728952857e+00	 4.404333813816505e+00
 1.061992579505512e+00	 1.266642209404137e+00	 4.582544273333713e+00
 1.049622716476184e+00	 1.276911444755346e+00	 4.784712633331512e+00
 1.037159457408832e+00	 1.287055136996625e+00	 4.999706787625875e+00
 1.024604718101608e+00	 1.297072026236494e+00	 5.214646173109879e+00
 1.011960436334287e+00	 1.306960891203271e+00	 5.414907057729176e+00
 9.992285708922573e-01	 1.316720549717546e+00	 5.584131269391859e+00
 9.864111005789371e-01	 1.326349859135333e+00	 5.704238421973378e+00
 1.116429158686304e+00	 1.230872668091235e+00	 4.281631626230139e+00
 1.104387620477386e+00	 1.241688156269569e+00	 4.472297765777016e+00
 1.092244723667627e+00	 1.252382875326692e+00	 4.709992449083004e+00
 1.080002296342945e+00	 1.262955408666967e+00	 4.983080950076388e+00
 1.067662192476579e+00	 1.273404376333868e+00	 5.276604670775559e+00
 1.055226291004481e+00	 1.283728435598860e+00	 5.573467399672738e+00
 1.042696494885051e+00	 1.293926281522472e+00	 5.854445545451369e+00
 1.030074730144233e+00	 1.303996647487111e+00	 6.098202191310426e+00
 1.017362944906951e+00	 1.313938305701166e+00	 6.281305032927603e+00
 1.004563108415874e+00	 1.323750067673990e+00	 6.378248249357283e+00
 9.916772100385803e-01	 1.333430784661431e+00	 6.361478341934530e+00
 1.122357722374885e+00	 1.237408960115793e+00	 4.492064703153576e+00
 1.110252240093970e+00	 1.248281881683160e+00	 4.801919823512942e+00
 1.098044860968527e+00	 1.259033392810092e+00	 5.143675367582663e+00
 1.085737422792147e+00	 1.269662069378431e+00	 5.505456622972559e+00
 1.073331789383216e+00	 1.280166524103701e+00	 5.867611632042532e+00
 1.060829849655388e+00	 1.290545407127104e+00	 6.208160361651442e+00
 1.048233516672333e+00	 1.300797406579578e+00	 6.502811977855021e+00
 1.035544726687763e+00	 1.310921249117440e+00	 6.724986216480785e+00
 1.022765438171716e+00	 1.320915700429164e+00	 6.845838902684383e+00
 1.009897630824123e+00	 1.330779565712892e+00	 6.834291658182035e+00
 9.969433045766871e-01	 1.340511690124322e+00	 6.657065819966942e+00
 1.128286265905937e+00	 1.243945229916464e+00	 4.700361245711977e+00
 1.116116839770399e+00	 1.254875584677563e+00	 5.105321538154048e+00
 1.103844978548465e+00	 1.265683887681182e+00	 5.516793953030261e+00
 1.091472529741369e+00	 1.276368707286672e+00	 5.924798584787948e+00
 1.079001367012614e+00	 1.286928648881630e+00	 6.308783869699548e+00
 1.066433389253523e+00	 1.297362355477019e+00	 6.644671063494917e+00
 1.053770519633005e+00	 1.307668508274211e+00	 6.906078751945251e+00
 1.041014704632506e+00	 1.317845827203458e+00	 7.064346758151414e+00
 1.028167913067147e+00	 1.327893071433339e+00	 7.088564219475404e+00
 1.015232135094085e+00	 1.337809039850808e+00	 6.945601871550323e+00
 1.002209381209118e+00	 1.347592571511432e+00	 6.600148561672256e+00
 1.134214785919873e+00	 1.250481473789183e+00	 4.877669173352293e+00
 1.121981416183330e+00	 1.261469261516173e+00	 5.343160751932193e+00
 1.109645073120645e+00	 1.272334356171187e+00	 5.786521348154888e+00
 1.097207613940664e+00	 1.283075318591113e+00	 6.195396615281319e+00
 1.084670922151964e+00	 1.293690746835649e+00	 6.554294187707411e+00
 1.072036906623504e+00	 1.304179276785548e+00	 6.839777139355134e+00
 1.059307500629394e+00	 1.314539582712644e+00	 7.026303566120164e+00
 1.046484660878773e+00	 1.324770377821144e+00	 7.086248291605747e+00
 1.033570366531808e+00	 1.334870414759765e+00	 6.989928520427680e+00
 1.020566618202843e+00	 1.344838486104291e+00	 6.705633484545429e+00
 1.007475436951731e+00	 1.354673424810187e+00	 6.199658113103890e+00
 1.140143279057105e+00	 1.257017688029886e+00	 4.995719541016725e+00
 1.127845966009420e+00	 1.268062908462386e+00	 5.478768761185262e+00
 1.115445141398276e+00	 1.278984794511330e+00	 5.909879401781096e+00
 1.102942672140085e+00	 1.289781899491176e+00	 6.272467010209313e+00
 1.090340451588459e+00	 1.300452814133751e+00	 6.559243895483195e+00
 1.077640398589949e+00	 1.310996167189634e+00	 6.751130164204774e+00
 1.064844456523824e+00	 1.321410626001144e+00	 6.826307923198861e+00
 1.051954592326872e+00	 1.331694897046479e+00	 6.761254411667262e+00
 1.038972795504262e+00	 1.341847726454515e+00	 6.530760292149226e+00
 1.025901077127480e+00	 1.351867900489896e+00	 6.107951488842199e+00
 1.012741468820386e+00	 1.361754246008010e+00	 5.464314621571859e+00
 1.146071741958044e+00	 1.263553868934508e+00	 5.026812273276566e+00
 1.133710485925327e+00	 1.274656521779599e+00	 5.476252433231008e+00
 1.121245180094562e+00	 1.285635198932835e+00	 5.843128314715363e+00
 1.108677701089684e+00	 1.296488446186282e+00	 6.112127853395802e+00
 1.096009952109290e+00	 1.307214846943932e+00	 6.279638007544607e+00
 1.083243861977478e+00	 1.317813022826219e+00	 6.337232245596014e+00
 1.070381384178622e+00	 1.328281634245983e+00	 6.269656553738563e+00
 1.057424495877114e+00	 1.338619380955441e+00	 6.060511500876997e+00
 1.044375196923074e+00	 1.348825002563662e+00	 5.692258269900903e+00
 1.031235508845077e+00	 1.358897279024178e+00	 5.146227560843150e+00
 1.018007473830945e+00	 1.368835031092329e+00	 4.402631441572384e+00
 9.653465732078104e-01	 1.298026036650377e+00	-7.320456972716797e-01
 9.527231464371734e-01	 1.307319502130800e+00	-3.583914456734119e-01
 9.400198905137386e-01	 1.316483332798322e+00	 2.055538752466384e-01
 9.272387867773065e-01	 1.325516534547367e+00	 9.178207605968465e-01
 9.143818322364077e-01	 1.334418153344632e+00	 1.734702382616798e+00
 9.014510385646834e-01	 1.343187275513448e+00	 2.610815459583783e+00
 8.884484310920087e-01	 1.351823027988257e+00	 3.499164311800766e+00
 8.753760477913806e-01	 1.360324578539132e+00	 4.351208007887762e+00
 8.622359382625994e-01	 1.368691135966320e+00	 5.116930492412131e+00
 8.490301627137596e-01	 1.376921950264789e+00	 5.744913574027255e+00
 8.357607909415732e-01	 1.385016312758878e+00	 6.182412641813235e+00
 9.706127125121946e-01	 1.305107002303552e+00	 1.467780036227378e+00
 9.579204226765063e-01	 1.314451165310814e+00	 1.841326571164917e+00
 9.451478682056158e-01	 1.323664986323940e+00	 2.278040356636236e+00
 9.322970412478898e-01	 1.332747465814330e+00	 2.754848148206034e+00
 9.193699497059011e-01	 1.341697644544260e+00	 3.248204750269930e+00
 9.063686162273341e-01	 1.350514603852795e+00	 3.734116590805738e+00
 8.932950771906041e-01	 1.359197465911647e+00	 4.188167072285470e+00
 8.801513816862198e-01	 1.367745393950933e+00	 4.585543677257374e+00
 8.669395904949175e-01	 1.376157592454760e+00	 4.901066796665914e+00
 8.536617750635996e-01	 1.384433307326689e+00	 5.109220238659543e+00
 8.403200164800926e-01	 1.392571826025108e+00	 5.184183365504733e+00
 9.758788488316041e-01	 1.312187963943819e+00	 3.267099940382248e+00
 9.631176959698434e-01	 1.321582824449209e+00	 3.571110952843123e+00
 9.502758429907315e-01	 1.330846635779655e+00	 3.846125190258229e+00
 9.373552928511951e-01	 1.339978392983535e+00	 4.084770542408898e+00
 9.243580643478413e-01	 1.348977131618700e+00	 4.280241102727016e+00
 9.112861911023920e-01	 1.357841928039947e+00	 4.426289625600088e+00
 8.981417205417940e-01	 1.366571899656257e+00	 4.517220613439502e+00
 8.849267128740603e-01	 1.375166205157783e+00	 4.547884074828318e+00
 8.716432400608579e-01	 1.383624044712497e+00	 4.513669985976436e+00
 8.582933847878884e-01	 1.391944660132546e+00	 4.410503478581054e+00
 8.448792394340859e-01	 1.400127335010365e+00	 4.234840768080447e+00
 9.811449791818985e-01	 1.319268917558604e+00	 4.675977273437352e+00
 9.683149633720676e-01	 1.328714475504677e+00	 4.857812574529146e+00
 9.554038119632393e-01	 1.338028277095824e+00	 4.949919198854965e+00
 9.424135387208870e-01	 1.347209311957400e+00	 4.957489737417188e+00
 9.293461733356401e-01	 1.356256610442838e+00	 4.887096331917693e+00
 9.162037604032420e-01	 1.365169243922661e+00	 4.746658131701575e+00
 9.029883583991613e-01	 1.373946325043128e+00	 4.545408496485327e+00
 8.897020386489001e-01	 1.382587007954425e+00	 4.293862036610794e+00
 8.763468842950412e-01	 1.391090488508388e+00	 4.003781574443696e+00
 8.629249892620739e-01	 1.399456004425755e+00	 3.688145102235322e+00
 8.494384572200260e-01	 1.407682835433004e+00	 3.361112803357153e+00
 9.864111005789371e-01	 1.326349859135333e+00	 5.704238421973378e+00
 9.735122219380625e-01	 1.335846114435911e+00	 5.727687232305151e+00
 9.605317722172935e-01	 1.345209906202802e+00	 5.628655376357560e+00
 9.474717759906314e-01	 1.354440218638345e+00	 5.421821144667079e+00
 9.343342738427083e-01	 1.363536076891557e+00	 5.123833274359324e+00
 9.211213213432717e-01	 1.372496547348698e+00	 4.753259464479095e+00
 9.078349880162899e-01	 1.381320737893303e+00	 4.330534013484298e+00
 8.944773563047360e-01	 1.390007798135600e+00	 3.877904708789609e+00
 8.810505205320893e-01	 1.398556919611293e+00	 3.419379090699227e+00
 8.675565858616057e-01	 1.406967335949710e+00	 2.980670205244566e+00
 8.539976672543873e-01	 1.415238323011382e+00	 2.589141952413960e+00
 9.916772100385803e-01	 1.333430784661431e+00	 6.361478341934530e+00
 9.787094687227104e-01	 1.342977737201603e+00	 6.206410589419437e+00
 9.656597208470472e-01	 1.352391519030944e+00	 5.920711339004604e+00
 9.525300017940932e-01	 1.361671108928788e+00	 5.525521781721530e+00
 9.393223630424582e-01	 1.370815526839742e+00	 5.044324305406186e+00
 9.260388711358674e-01	 1.379823834165815e+00	 4.502878070074537e+00
 9.126816066467638e-01	 1.388695134027825e+00	 3.929153340188634e+00
 8.992526631355656e-01	 1.397428571496049e+00	 3.353264729657830e+00
 8.857541461066231e-01	 1.406023333790067e+00	 2.807403508062025e+00
 8.721881719619323e-01	 1.414478650447806e+00	 2.325769108889056e+00
 8.585568669536435e-01	 1.422793793463853e+00	 1.944499972607683e+00
 9.969433045766871e-01	 1.340511690124322e+00	 6.657065819966942e+00
 9.839067007808963e-01	 1.350109339760446e+00	 6.319092642325026e+00
 9.707876549466550e-01	 1.359573111510609e+00	 5.863631058938767e+00
 9.575882132649380e-01	 1.368901978731147e+00	 5.315317368509364e+00
 9.443104381083008e-01	 1.378094956162280e+00	 4.701281926765133e+00
 9.309564069944146e-01	 1.387151100221770e+00	 4.051077727673057e+00
 9.175282115441665e-01	 1.396069509267736e+00	 3.396607632647677e+00
 9.040279564353864e-01	 1.404849323830514e+00	 2.772050417466748e+00
 8.904577583532634e-01	 1.413489726813569e+00	 2.213785799055806e+00
 8.768197449385021e-01	 1.421989943663439e+00	 1.760318596382203e+00
 8.631160537342678e-01	 1.430349242508775e+00	 1.452202171476115e+00
 1.002209381209118e+00	 1.347592571511432e+00	 6.600148561672254e+00
 9.891039151675021e-01	 1.357240918071134e+00	 6.090291724127241e+00
 9.759155716102704e-01	 1.366754679572149e+00	 5.494145906606983e+00
 9.626464075368305e-01	 1.376132823947842e+00	 4.836928563648238e+00
 9.492984962136473e-01	 1.385374360734054e+00	 4.146288384208315e+00
 9.358739261323006e-01	 1.394478341364323e+00	 3.452232769821443e+00
 9.223747999620814e-01	 1.403443859434079e+00	 2.787054106314937e+00
 9.088032334981953e-01	 1.412270050933735e+00	 2.185255000659848e+00
 8.951613546066312e-01	 1.420956094450657e+00	 1.683472646412182e+00
 8.814513021667640e-01	 1.429501211340003e+00	 1.320402472705623e+00
 8.676752250127349e-01	 1.437904665864503e+00	 1.136721222966346e+00
 1.007475436951731e+00	 1.354673424810187e+00	 6.199658113103890e+00
 9.943011089374117e-01	 1.364372468092358e+00	 5.544028062329677e+00
 9.810434679320473e-01	 1.373936219145922e+00	 4.848195027192215e+00
 9.677045817434365e-01	 1.383363640481290e+00	 4.135096372234820e+00
 9.542865345319093e-01	 1.392653736429950e+00	 3.429824350874924e+00
 9.407914257629109e-01	 1.401805553441232e+00	 2.759558318087867e+00
 9.272213691540926e-01	 1.410818180347898e+00	 2.153496134787941e+00
 9.135784916179900e-01	 1.419690748600456e+00	 1.642784925437661e+00
 8.998649322013481e-01	 1.428422432470189e+00	 1.260451341344779e+00
 8.860828410221659e-01	 1.437012449220892e+00	 1.041331472695139e+00
 8.722343782055170e-01	 1.445460059249393e+00	 1.022000542698835e+00
 1.012741468820386e+00	 1.361754246008010e+00	 5.464314621571859e+00
 9.994982791455084e-01	 1.371503985782812e+00	 4.703796907067427e+00
 9.861713410061398e-01	 1.381117726162284e+00	 3.960945075258696e+00
 9.727627330184212e-01	 1.390594424233912e+00	 3.253606755183198e+00
 9.592745502364989e-01	 1.399933079124852e+00	 2.601296710085363e+00
 9.457089030996320e-01	 1.409132732300254e+00	 2.025139569810613e+00
 9.320679163737833e-01	 1.418192467830235e+00	 1.547812403772090e+00
 9.183537280887681e-01	 1.427111412625417e+00	 1.193487274151857e+00
 9.045684884720355e-01	 1.435888736641021e+00	 9.877738986026701e-01
 8.907143588801576e-01	 1.444523653049503e+00	 9.576625410443342e-01
 8.767935107290891e-01	 1.453015418381801e+00	 1.131467238284880e+00
 1.018007473830945e+00	 1.368835031092329e+00	 4.402631441572384e+00
 1.004695422846676e+00	 1.378635467101188e+00	 3.592581245347688e+00
 9.912991879267010e-01	 1.388299196551591e+00	 2.866809330795363e+00
 9.778208584954495e-01	 1.397825171108125e+00	 2.235314468952640e+00
 9.642625405008268e-01	 1.407212384693646e+00	 1.709065470191897e+00
 9.506263553558507e-01	 1.416459873789150e+00	 1.299960170208494e+00
 9.369144388747381e-01	 1.425566717702133e+00	 1.020785154392659e+00
 9.231289402045267e-01	 1.434532038803360e+00	 8.851763266446770e-01
 9.092720207533138e-01	 1.443355002732014e+00	 9.075804165949128e-01
 8.953458531161874e-01	 1.452034818569230e+00	 1.103217506916480e+00
 8.813526199999249e-01	 1.460570738980084e+00	 1.488044650054732e+00
 8.357607909415732e-01	 1.385016312758878e+00	 6.182412641813235e+00
 8.224299015719309e-01	 1.392973556543011e+00	 6.399098280220240e+00
 8.090395818053454e-01	 1.400793057569549e+00	 6.419578553927734e+00
 7.955919255888730e-01	 1.408474233694218e+00	 6.273123994297022e+00
 7.820890323363869e-01	 1.416016544355583e+00	 5.989713123996085e+00
 7.685330059172397e-01	 1.423419490559979e+00	 5.599989736878517e+00
 7.549259536497352e-01	 1.430682614837620e+00	 5.135220960323172e+00
 7.412699853003305e-01	 1.437805501170166e+00	 4.627256123932632e+00
 7.275672120895014e-01	 1.444787774890119e+00	 4.098719848518829e+00
 7.138197457051589e-01	 1.451629102552406e+00	 3.568999154662979e+00
 7.000296973245008e-01	 1.458329191778564e+00	 3.068370827132135e+00
 8.403200164800926e-01	 1.392571826025108e+00	 5.184183365504733e+00
 8.269164047095671e-01	 1.400572478006355e+00	 5.127720998702690e+00
 8.134530383385865e-01	 1.408434635818488e+00	 4.972076879097349e+00
 7.999320227370638e-01	 1.416157714141530e+00	 4.736970244484843e+00
 7.863554687715479e-01	 1.423741169465177e+00	 4.442142186820270e+00
 7.727254917883762e-01	 1.431184500073661e+00	 4.107334636027268e+00
 7.590442106016489e-01	 1.438487246001606e+00	 3.752270852732033e+00
 7.453137464869763e-01	 1.445648988961212e+00	 3.396637407864547e+00
 7.315362221819197e-01	 1.452669352241097e+00	 3.055412532662295e+00
 7.177137608940241e-01	 1.459548000577179e+00	 2.731500956386953e+00
 7.038484853173357e-01	 1.466284639996012e+00	 2.440232754394183e+00
 8.448792394340859e-01	 1.400127335010365e+00	 4.234840768080447e+00
 8.314029053038926e-01	 1.408171395164200e+00	 4.004551935255606e+00
 8.178664923699180e-01	 1.416076209737817e+00	 3.747802126325241e+00
 8.042721174249234e-01	 1.423841190235528e+00	 3.476482760685057e+00
 7.906219027881279e-01	 1.431465790198168e+00	 3.201943157875836e+00
 7.769179752828455e-01	 1.438949505187860e+00	 2.934987441214688e+00
 7.631624652189676e-01	 1.446291872743647e+00	 2.685873557693742e+00
 7.493575053812503e-01	 1.453492472308268e+00	 2.464314353780241e+00
 7.355052300243327e-01	 1.460550925126457e+00	 2.278016825942741e+00
 7.216077738753884e-01	 1.467466894115123e+00	 2.119359196420536e+00
 7.076672711453056e-01	 1.474240083705840e+00	 1.989588672390251e+00
 8.494384572200260e-01	 1.407682835433004e+00	 3.361112803357153e+00
 8.358894008125980e-01	 1.415770303710294e+00	 3.043196738474990e+00
 8.222799413984310e-01	 1.423717774997096e+00	 2.749222400088590e+00
 8.086122071931203e-01	 1.431524657622020e+00	 2.484942863956864e+00
 7.948883319685447e-01	 1.439190402177039e+00	 2.255126058284468e+00
 7.811104540249806e-01	 1.446714501502177e+00	 2.063565839997094e+00
 7.672807151680953e-01	 1.454096490640892e+00	 1.913095676499938e+00
 7.534012596917795e-01	 1.461335946766468e+00	 1.805604841827730e+00
 7.394742333677352e-01	 1.468432489079755e+00	 1.741976732187362e+00
 7.255017824427517e-01	 1.475385778678658e+00	 1.709740815151914e+00
 7.114860526445453e-01	 1.482195518399771e+00	 1.696984934963350e+00
 8.539976672543873e-01	 1.415238323011382e+00	 2.589141952413960e+00
 8.403758886933725e-01	 1.423369199338379e+00	 2.256956842462488e+00
 8.266933829232153e-01	 1.431359327265884e+00	 1.978740477805512e+00
 8.129522895823253e-01	 1.439208111946813e+00	 1.755763793301361e+00
 7.991547538952187e-01	 1.446915001024281e+00	 1.587989185345992e+00
 7.853029256391143e-01	 1.454479484616213e+00	 1.474092049753480e+00
 7.713989581154376e-01	 1.461901095270491e+00	 1.411485297180963e+00
 7.574450071271909e-01	 1.469179407890945e+00	 1.396346731802936e+00
 7.434432299631220e-01	 1.476314039634548e+00	 1.423649168298362e+00
 7.293957843896132e-01	 1.483304649780203e+00	 1.480157171417837e+00
 7.153048276511897e-01	 1.490150939569523e+00	 1.540383880037107e+00
 8.585568669536435e-01	 1.422793793463853e+00	 1.944499972607683e+00
 8.448623664039071e-01	 1.430968077742198e+00	 1.658836760628543e+00
 8.311068144433615e-01	 1.439000862213744e+00	 1.438694773637659e+00
 8.172923621332062e-01	 1.446891548855715e+00	 1.282486445452949e+00
 8.034211661505677e-01	 1.454639582362379e+00	 1.187110714365716e+00
 7.894953877495794e-01	 1.462244450129568e+00	 1.147981346954712e+00
 7.755171917273989e-01	 1.469705682209594e+00	 1.159058495304014e+00
 7.614887453961133e-01	 1.477022851236836e+00	 1.212883357589458e+00
 7.474122175614880e-01	 1.484195572324396e+00	 1.300250671639268e+00
 7.332897775094723e-01	 1.491223502932176e+00	 1.404805289974247e+00
 7.191235940013743e-01	 1.498106342706818e+00	 1.498653195244044e+00
 8.631160537342678e-01	 1.430349242508775e+00	 1.452202171476115e+00
 8.493488314018908e-01	 1.438566934615497e+00	 1.261551139886763e+00
 8.355202334579608e-01	 1.446642375510236e+00	 1.131360262649344e+00
 8.216324223864331e-01	 1.454574963994535e+00	 1.058775240061718e+00
 8.076875663170102e-01	 1.462364141813821e+00	 1.039340556606908e+00
 7.936878379807095e-01	 1.470009393641845e+00	 1.067030949643612e+00
 7.796354136703839e-01	 1.477510247035349e+00	 1.134286252093311e+00
 7.655324722071737e-01	 1.484866272359274e+00	 1.231430144970729e+00
 7.513811939138275e-01	 1.492077082682854e+00	 1.344077073040607e+00
 7.371837595958292e-01	 1.499142333646997e+00	 1.460159230709583e+00
 7.229423495312334e-01	 1.506061723303375e+00	 1.553072450734427e+00
 8.676752250127349e-01	 1.437904665864503e+00	 1.136721222966346e+00
 8.538352811450133e-01	 1.446165765652017e+00	 1.077531584041033e+00
 8.399336374661037e-01	 1.454283862824918e+00	 1.058949366791956e+00
 8.259724678826744e-01	 1.462258353009079e+00	 1.078414105684294e+00
 8.119539519769657e-01	 1.470088675001095e+00	 1.131792463991644e+00
 7.978802739568368e-01	 1.477774310752640e+00	 1.213409240189129e+00
 7.837536216107979e-01	 1.485314785324906e+00	 1.315227345685134e+00
 7.695761852690001e-01	 1.492709666813394e+00	 1.424162814810532e+00
 7.553501567711358e-01	 1.499958566243480e+00	 1.530665954259692e+00
 7.410777284421829e-01	 1.507061137437085e+00	 1.624771965945626e+00
 7.267610920769029e-01	 1.514017076850916e+00	 1.685304281497346e+00
 8.722343782055170e-01	 1.445460059249393e+00	 1.022000542698835e+00
 8.583217130909654e-01	 1.453764566545504e+00	 1.118933254800170e+00
 8.443470239668807e-01	 1.461925319827353e+00	 1.223612804121964e+00
 8.303124961625998e-01	 1.469941711545156e+00	 1.335302582191449e+00
 8.162203207128530e-01	 1.477813177546687e+00	 1.451836371564544e+00
 8.020726933022949e-01	 1.485539197061559e+00	 1.568627105192467e+00
 7.878718132150452e-01	 1.493119292655414e+00	 1.675726155414388e+00
 7.736198822902197e-01	 1.500553030154331e+00	 1.767323626192183e+00
 7.593191038844079e-01	 1.507840018539832e+00	 1.837316376779714e+00
 7.449716818420326e-01	 1.514979909814860e+00	 1.878477648560186e+00
 7.305798194745172e-01	 1.521972398841161e+00	 1.877383894862428e+00
 8.767935107290891e-01	 1.453015418381801e+00	 1.131467238284880e+00
 8.628081246974363e-01	 1.461363332989701e+00	 1.397641258505630e+00
 8.487603904593822e-01	 1.469566742187101e+00	 1.627440402601980e+00
 8.346525047668777e-01	 1.477625035248573e+00	 1.823452035383368e+00
 8.204866701070908e-01	 1.485537645073084e+00	 1.986019301169787e+00
 8.062650936414162e-01	 1.493304048168199e+00	 2.109789035957176e+00
 7.919899861495309e-01	 1.500923764604022e+00	 2.194180656959156e+00
 7.776635609794609e-01	 1.508396357937219e+00	 2.238663297429310e+00
 7.632880330046380e-01	 1.515721435105468e+00	 2.241780701869933e+00
 7.488656175888779e-01	 1.522898646292738e+00	 2.201177669432278e+00
 7.343985295602115e-01	 1.529927684765830e+00	 2.111708898369518e+00
 8.813526199999249e-01	 1.460570738980084e+00	 1.488044650054732e+00
 8.672945134221165e-01	 1.468962060678352e+00	 1.925276826323930e+00
 8.531737344426994e-01	 1.477208125573723e+00	 2.272461879779428e+00
 8.389924912361787e-01	 1.485308319765138e+00	 2.535985631847555e+00
 8.247529977420975e-01	 1.493262073202776e+00	 2.716198298197980e+00
 8.104574725985347e-01	 1.501068859672163e+00	 2.818838565700470e+00
 7.961081380806602e-01	 1.508728196747882e+00	 2.850301355365862e+00
 7.817072190453511e-01	 1.516239645717194e+00	 2.816374700609722e+00
 7.672569418828216e-01	 1.523602811473945e+00	 2.722253146775198e+00
 7.527595334762194e-01	 1.530817342383143e+00	 2.572551384489256e+00
 7.382172201701207e-01	 1.537882930116643e+00	 2.371029436449415e+00
 7.000296973245008e-01	 1.458329191778564e+00	 3.068370827132134e+00
 6.861968218745838e-01	 1.464888893890438e+00	 2.649610617706521e+00
 6.723255679889603e-01	 1.471306846011681e+00	 2.337398962602977e+00
 6.584180399291466e-01	 1.477582876659139e+00	 2.120006930504166e+00
 6.444763376581236e-01	 1.483716854553744e+00	 1.985494199215831e+00
 6.305025559161753e-01	 1.489708688335640e+00	 1.921273836507462e+00
 6.164987833099310e-01	 1.495558326254919e+00	 1.916094293463417e+00
 6.024671014153186e-01	 1.501265755838569e+00	 1.958954539653832e+00
 5.884095838951133e-01	 1.506831003534249e+00	 2.038758727909709e+00
 5.743282956317380e-01	 1.512254134331529e+00	 2.144321579489650e+00
 5.602252918759325e-01	 1.517535251361254e+00	 2.264373832115241e+00
 7.038484853173357e-01	 1.466284639996012e+00	 2.440232754394182e+00
 6.899401490419942e-01	 1.472880126463550e+00	 2.217384386804476e+00
 6.759932249696565e-01	 1.479333089668717e+00	 2.080141483894926e+00
 6.620098288409746e-01	 1.485643357192899e+00	 2.016630290564019e+00
 6.479920720746157e-01	 1.491810797040887e+00	 2.014622563975701e+00
 6.339420608380593e-01	 1.497835317354450e+00	 2.063861294332848e+00
 6.198618951316702e-01	 1.503716866101382e+00	 2.154283134523775e+00
 6.057536678867569e-01	 1.509455430740640e+00	 2.275886744493234e+00
 5.916194640783091e-01	 1.515051037864169e+00	 2.418734355034991e+00
 5.774613598530639e-01	 1.520503752816078e+00	 2.572953246654666e+00
 5.632814216735341e-01	 1.525813679289818e+00	 2.728737145402860e+00
 7.076672711453056e-01	 1.474240083705840e+00	 1.989588672390251e+00
 6.936834740873067e-01	 1.480871354508670e+00	 1.914824054016293e+00
 6.796608798711417e-01	 1.487359328777816e+00	 1.909279066750184e+00
 6.656016157165926e-01	 1.493703833159206e+00	 1.960913464351901e+00
 6.515078044980092e-01	 1.499904734941495e+00	 2.059851378675960e+00
 6.373815638100612e-01	 1.505961941768080e+00	 2.196427693818539e+00
 6.232250050468437e-01	 1.511875401324467e+00	 2.361174065556151e+00
 6.090402324950419e-01	 1.517645101001581e+00	 2.544817727362919e+00
 5.948293424418547e-01	 1.523271067535658e+00	 2.738280073934706e+00
 5.805944222983297e-01	 1.528753366625351e+00	 2.932675030897144e+00
 5.663375497387463e-01	 1.534092102526720e+00	 3.119307219296366e+00
 7.114860526445453e-01	 1.482195518399771e+00	 1.696984934963350e+00
 6.974267948894233e-01	 1.488862573497258e+00	 1.724531150608836e+00
 6.833285306152012e-01	 1.495385558790613e+00	 1.809886706741884e+00
 6.691933985207817e-01	 1.501764299990313e+00	 1.943019995580369e+00
 6.550235329361833e-01	 1.507998663668878e+00	 2.114209141229412e+00
 6.408210628832554e-01	 1.514088556971340e+00	 2.314039401537272e+00
 6.265881111498115e-01	 1.520033927300915e+00	 2.533400211593223e+00
 6.123267933779030e-01	 1.525834761980506e+00	 2.763481882513413e+00
 5.980392171669252e-01	 1.531491087890640e+00	 2.995771969121349e+00
 5.837274811922253e-01	 1.537002971084514e+00	 3.222051320122776e+00
 5.693936743398391e-01	 1.542370516380803e+00	 3.434389824399235e+00
 7.153048276511897e-01	 1.490150939569523e+00	 1.540383880037108e+00
 7.011701093272453e-01	 1.496853778900771e+00	 1.628467633960476e+00
 6.869961751236221e-01	 1.503411775158746e+00	 1.769607903113088e+00
 6.727851752183224e-01	 1.509824753118475e+00	 1.953658979011094e+00
 6.585392553970170e-01	 1.516092578636349e+00	 2.170866072583154e+00
 6.442605561087161e-01	 1.522215158359038e+00	 2.411861512815571e+00
 6.299512115349345e-01	 1.528192439407473e+00	 2.667660498791647e+00
 6.156133486730692e-01	 1.534024409036530e+00	 2.929656421862698e+00
 6.012490864346958e-01	 1.539711094271035e+00	 3.189615774746092e+00
 5.868605347594419e-01	 1.545252561518732e+00	 3.439672664430019e+00
 5.724497937450824e-01	 1.550648916160909e+00	 3.672322945873772e+00
 7.191235940013743e-01	 1.498106342706818e+00	 1.498653195244045e+00
 7.049134152796757e-01	 1.504844966190669e+00	 1.611312190292914e+00
 6.906638113181898e-01	 1.511437973333853e+00	 1.776470529594818e+00
 6.763769437739957e-01	 1.517885187975948e+00	 1.983728807377821e+00
 6.620549698883899e-01	 1.524186475257223e+00	 2.223129940966956e+00
 6.477000415375186e-01	 1.530341741325984e+00	 2.485154832349286e+00
 6.333143042965722e-01	 1.536350933020881e+00	 2.760717524519575e+00
 6.188998965182698e-01	 1.542214037528769e+00	 3.041159870852493e+00
 6.044589484263413e-01	 1.547931082018767e+00	 3.318245735876213e+00
 5.899935812246709e-01	 1.553502133253170e+00	 3.584154745976149e+00
 5.755059062227464e-01	 1.558927297175879e+00	 3.831475608733167e+00
 7.229423495312334e-01	 1.506061723303375e+00	 1.553072450734427e+00
 7.086567106256154e-01	 1.512836130838410e+00	 1.658070492699226e+00
 6.943314371206910e-01	 1.519464148767568e+00	 1.818746451716165e+00
 6.799687021525825e-01	 1.525945599994986e+00	 2.024311740671019e+00
 6.655706744181815e-01	 1.532280348944810e+00	 2.264442012552582e+00
 6.511395172207378e-01	 1.538468301266987e+00	 2.529272944850138e+00
 6.366773875290852e-01	 1.544509403517884e+00	 2.809395489531244e+00
 6.221864350512342e-01	 1.550403642816336e+00	 3.095850606782360e+00
 6.076688013230372e-01	 1.556151046475759e+00	 3.380123500869435e+00
 5.931266188126023e-01	 1.561751681612993e+00	 3.654137376676067e+00
 5.785620100411009e-01	 1.567205654734554e+00	 3.910246735702685e+00
 7.267610920769029e-01	 1.514017076850916e+00	 1.685304281497345e+00
 7.123999932439670e-01	 1.520827268315453e+00	 1.754053471349954e+00
 6.979990504529114e-01	 1.527490296911529e+00	 1.884944667184053e+00
 6.835604483188636e-01	 1.534005984607846e+00	 2.066668640469895e+00
 6.690863669942707e-01	 1.540374195112425e+00	 2.288373123895318e+00
 6.545789812094478e-01	 1.546594833576855e+00	 2.539659372428577e+00
 6.400404593268342e-01	 1.552667846275225e+00	 2.810578189958437e+00
 6.254729624096917e-01	 1.558593220258347e+00	 3.091625438070305e+00
 6.108786433059578e-01	 1.564370982983933e+00	 3.373737043710729e+00
 5.962596457479271e-01	 1.570001201923367e+00	 3.648283522718787e+00
 5.816181034684160e-01	 1.575483984145777e+00	 3.907064036461011e+00
 7.305798194745172e-01	 1.521972398841161e+00	 1.877383894862428e+00
 7.161432610136320e-01	 1.528818374093254e+00	 1.884868868064461e+00
 7.016666492366378e-01	 1.535516413217374e+00	 1.963804654986984e+00
 6.871521802376204e-01	 1.542066337246781e+00	 2.102233863308523e+00
 6.726020456245372e-01	 1.548468009173378e+00	 2.288619871722903e+00
 6.580184315547238e-01	 1.554721333650398e+00	 2.511844815556075e+00
 6.434035177841789e-01	 1.560826256669648e+00	 2.761207066943562e+00
 6.287594767313717e-01	 1.566782765213916e+00	 3.026418222953134e+00
 6.140884725562782e-01	 1.572590886885209e+00	 3.297599615224648e+00
 5.993926602553366e-01	 1.578250689509457e+00	 3.565278354929198e+00
 5.846741847729616e-01	 1.583762280718389e+00	 3.820382927122698e+00
 7.343985295602115e-01	 1.529927684765830e+00	 2.111708898369519e+00
 7.198865118135128e-01	 1.536809443643275e+00	 2.036413047715666e+00
 7.053342313936555e-01	 1.543542493136738e+00	 2.044289925656713e+00
 6.907438958736327e-01	 1.550126653344047e+00	 2.122610307312824e+00
 6.761177083168599e-01	 1.556561786540984e+00	 2.259000915820625e+00
 6.614578663076400e-01	 1.562847796882425e+00	 2.441444474580851e+00
 6.467665609954798e-01	 1.568984630077895e+00	 2.658279311829198e+00
 6.320459761540028e-01	 1.574972273042159e+00	 2.898198526201867e+00
 6.172982872551739e-01	 1.580810753521514e+00	 3.150248722121473e+00
 6.025256605595208e-01	 1.586500139696426e+00	 3.403828324043039e+00
 5.877302522230080e-01	 1.592040539761234e+00	 3.648685478869616e+00
 7.382172201701207e-01	 1.537882930116643e+00	 2.371029436449415e+00
 7.236297435225110e-01	 1.544800472436972e+00	 2.194863057204094e+00
 7.090017948457513e-01	 1.551568532121260e+00	 2.115581765433435e+00
 6.943355931916827e-01	 1.558186928331899e+00	 2.119564606582446e+00
 6.796333530791191e-01	 1.564655522628554e+00	 2.193453390937099e+00
 6.648972835192718e-01	 1.570974218667745e+00	 2.324155448895943e+00
 6.501295870550970e-01	 1.577142961876710e+00	 2.498846024905318e+00
 6.353324588153149e-01	 1.583161739102190e+00	 2.704970312486287e+00
 6.205080855838198e-01	 1.589030578234767e+00	 2.930245132878471e+00
 6.056586448851712e-01	 1.594749547809442e+00	 3.162660260001463e+00
 5.907863040868248e-01	 1.600318756583150e+00	 3.390479394684740e+00
 5.602252918759325e-01	 1.517535251361254e+00	 2.264373832115242e+00
 5.461050194504662e-01	 1.522673633773767e+00	 2.382507171627842e+00
 5.319671148276707e-01	 1.527670368504342e+00	 2.491659315261380e+00
 5.178135977800125e-01	 1.532525669353275e+00	 2.594598533424919e+00
 5.036464752493562e-01	 1.537239786432333e+00	 2.694269064620335e+00
 4.894677405839741e-01	 1.541813005666570e+00	 2.793775840699334e+00
 4.752793727944883e-01	 1.546245648278505e+00	 2.896369280487944e+00
 4.610833358291607e-01	 1.550538070255469e+00	 3.005430176053173e+00
 4.468815778689010e-01	 1.554690661800824e+00	 3.124454695288584e+00
 4.326760306423511e-01	 1.558703846769861e+00	 3.257039523892832e+00
 4.184686087613524e-01	 1.562578082091108e+00	 3.406867169208667e+00
 5.632814216735341e-01	 1.525813679289818e+00	 2.728737145402860e+00
 5.490841206207130e-01	 1.530980092503372e+00	 2.873173261318950e+00
 5.348690911838104e-01	 1.536004085321435e+00	 3.001808063639364e+00
 5.206383641534996e-01	 1.540885872710607e+00	 3.117589736241269e+00
 5.063939574198570e-01	 1.545625706147051e+00	 3.223578933082699e+00
 4.921378752052123e-01	 1.550223873115576e+00	 3.322934266845378e+00
 4.778721073160311e-01	 1.554680696591020e+00	 3.418897937488920e+00
 4.635986284142499e-01	 1.558996534502674e+00	 3.514781522061635e+00
 4.493193973084404e-01	 1.563171779182520e+00	 3.613951946459767e+00
 4.350363562651558e-01	 1.567206856798041e+00	 3.719817659179450e+00
 4.207514303407747e-01	 1.571102226770384e+00	 3.835815026462623e+00
 5.663375497387463e-01	 1.534092102526720e+00	 3.119307219296366e+00
 5.520632201023095e-01	 1.539286546525394e+00	 3.286891578567813e+00
 5.377710658951050e-01	 1.544337797415481e+00	 3.431963547264941e+00
 5.234631289260004e-01	 1.549246071329882e+00	 3.557662077720788e+00
 5.091414380332743e-01	 1.554011621109148e+00	 3.667186170175177e+00
 4.948080083133017e-01	 1.558634735797844e+00	 3.763780919024101e+00
 4.804648403683806e-01	 1.563115740123116e+00	 3.850723759491612e+00
 4.661139195741118e-01	 1.567454993956215e+00	 3.931310933671528e+00
 4.517572153667179e-01	 1.571652891757733e+00	 4.008844194186428e+00
 4.373966805506534e-01	 1.575709862007345e+00	 4.086617763026250e+00
 4.230342506268229e-01	 1.579626366618807e+00	 4.167905562456450e+00
 5.693936743398391e-01	 1.542370516380803e+00	 3.434389824399235e+00
 5.550423162071549e-01	 1.547592991132789e+00	 3.621578926262122e+00
 5.406730373171339e-01	 1.552671500063979e+00	 3.779834829043431e+00
 5.262878904968222e-01	 1.557606260473578e+00	 3.912497439456490e+00
 5.118889155326835e-01	 1.562397526566516e+00	 4.022925244042757e+00
 4.974781383951237e-01	 1.567045588947110e+00	 4.114481709448418e+00
 4.830575704822563e-01	 1.571550774094812e+00	 4.190521932688535e+00
 4.686292078833309e-01	 1.575913443822823e+00	 4.254379558473969e+00
 4.541950306622056e-01	 1.580133994720345e+00	 4.309353979940143e+00
 4.397570021612204e-01	 1.584212857579236e+00	 4.358697838401189e+00
 4.253170683257905e-01	 1.588150496805859e+00	 4.405604837057512e+00
 5.724497937450824e-01	 1.550648916160909e+00	 3.672322945873772e+00
 5.580214072471477e-01	 1.555899421618508e+00	 3.875193151077500e+00
 5.435750038054766e-01	 1.561005188544430e+00	 4.043176966399254e+00
 5.291126472652714e-01	 1.565966435404172e+00	 4.179824782594183e+00
 5.146363883611608e-01	 1.570783417767045e+00	 4.288674937183431e+00
 5.001482639375601e-01	 1.575456427797112e+00	 4.373240267336822e+00
 4.856502961883779e-01	 1.579985793726124e+00	 4.436994951445287e+00
 4.711444919164921e-01	 1.584371879309231e+00	 4.483361655108836e+00
 4.566328418133755e-01	 1.588615083264238e+00	 4.515698996500656e+00
 4.421173197592332e-01	 1.592715838695180e+00	 4.537289345331259e+00
 4.275998821439713e-01	 1.596674612501019e+00	 4.551326968922959e+00
 5.755059062227464e-01	 1.558927297175879e+00	 3.831475608733167e+00
 5.610004915341872e-01	 1.564205833275505e+00	 4.045731750523178e+00
 5.464769637157124e-01	 1.569338858134331e+00	 4.219789503063182e+00
 5.319373976306551e-01	 1.574326591384141e+00	 4.357418626972314e+00
 5.173838549617822e-01	 1.579169289958625e+00	 4.462356915105961e+00
 5.028183834274927e-01	 1.583867247581586e+00	 4.538296698739646e+00
 4.882430160174654e-01	 1.588420794237071e+00	 4.588871670364873e+00
 4.736597702481799e-01	 1.592830295622174e+00	 4.617644037989554e+00
 4.590706474386991e-01	 1.597096152583294e+00	 4.628092025052334e+00
 4.444776320070679e-01	 1.601218800536641e+00	 4.623597729307543e+00
 4.298826907876586e-01	 1.605198708873770e+00	 4.607435353314377e+00
 5.785620100411009e-01	 1.567205654734554e+00	 3.910246735702685e+00
 5.639795673801719e-01	 1.572512221396735e+00	 4.131230519622182e+00
 5.493789154034203e-01	 1.577672504111181e+00	 4.307515004306155e+00
 5.347621399922795e-01	 1.582686723675964e+00	 4.443097574279049e+00
 5.201313137776238e-01	 1.587555138389146e+00	 4.541934336347224e+00
 5.054884953518040e-01	 1.592278043534268e+00	 4.607926381855760e+00
 4.908357285002384e-01	 1.596855770847669e+00	 4.644906382779034e+00
 4.761750414529792e-01	 1.601288687968382e+00	 4.656625536217874e+00
 4.615084461566480e-01	 1.605577197871394e+00	 4.646740871081649e+00
 4.468379375671011e-01	 1.609721738285083e+00	 4.618802929974701e+00
 4.321654929631460e-01	 1.613722781093591e+00	 4.576243838579026e+00
 5.816181034684160e-01	 1.575483984145777e+00	 3.907064036461011e+00
 5.669586330970008e-01	 1.580818581275152e+00	 4.129762235777751e+00
 5.522808572241804e-01	 1.586006121752480e+00	 4.304237634031334e+00
 5.375868727494523e-01	 1.591046827542120e+00	 4.434722873616758e+00
 5.228787632517612e-01	 1.595940958306500e+00	 4.525410502337079e+00
 5.081585981973755e-01	 1.600688810888898e+00	 4.580438796542025e+00
 4.934284321674168e-01	 1.605290718777939e+00	 4.603877924701203e+00
 4.786903041054745e-01	 1.609747051554588e+00	 4.599716466171288e+00
 4.639462365856944e-01	 1.614058214322419e+00	 4.571848299122522e+00
 4.491982351017086e-01	 1.618224647121972e+00	 4.524059870830758e+00
 4.344482873767272e-01	 1.622246824329965e+00	 4.460017862816059e+00
 5.846741847729616e-01	 1.583762280718389e+00	 3.820382927122697e+00
 5.699376869965725e-01	 1.589124908203710e+00	 4.039435380438111e+00
 5.551827875335719e-01	 1.594339706335727e+00	 4.207881772202538e+00
 5.404115943014792e-01	 1.599406898245083e+00	 4.330197027932063e+00
 5.256262018272702e-01	 1.604326744958575e+00	 4.410827545661183e+00
 5.108286904510888e-01	 1.609099544879210e+00	 4.454176386772542e+00
 4.960211255497203e-01	 1.613725633247896e+00	 4.464588803316055e+00
 4.812055567802505e-01	 1.618205381587525e+00	 4.446338117268160e+00
 4.663840173443101e-01	 1.622539197130253e+00	 4.403611966395013e+00
 4.515585232732676e-01	 1.626727522228771e+00	 4.340498930632908e+00
 4.367310727346956e-01	 1.630770833752372e+00	 4.260975552182504e+00
 5.877302522230080e-01	 1.592040539761234e+00	 3.648685478869616e+00
 5.729167273907859e-01	 1.597431197475362e+00	 3.858392896229572e+00
 5.580847046871743e-01	 1.602673253138420e+00	 4.016410671150020e+00
 5.432363030476680e-01	 1.607766931047333e+00	 4.127462439832357e+00
 5.283736279472270e-01	 1.612712493593261e+00	 4.196265155332919e+00
 5.134987705998262e-01	 1.617510240738941e+00	 4.227513454855718e+00
 4.986138071778686e-01	 1.622160509477558e+00	 4.225864349118948e+00
 4.837207980518917e-01	 1.626663673273926e+00	 4.195922250435888e+00
 4.688217870509668e-01	 1.631020141488776e+00	 4.142224355380813e+00
 4.539188007441537e-01	 1.635230358786946e+00	 4.069226397176162e+00
 4.390138477433446e-01	 1.639294804530294e+00	 3.981288782234305e+00
 5.907863040868248e-01	 1.600318756583150e+00	 3.390479394684740e+00
 5.758957525915404e-01	 1.605737444383062e+00	 3.584810978282655e+00
 5.609866070405670e-01	 1.611006757438059e+00	 3.727825149355146e+00
 5.460609973873252e-01	 1.616126921211349e+00	 3.824500095372382e+00
 5.311210400547076e-01	 1.621098199458451e+00	 3.879839337742626e+00
 5.161688371304696e-01	 1.625920893701830e+00	 3.898855086267176e+00
 5.012064755825815e-01	 1.630595342686943e+00	 3.886551890855606e+00
 4.862360264949831e-01	 1.635121921820524e+00	 3.847910608826826e+00
 4.712595443241364e-01	 1.639501042591871e+00	 3.787872705377007e+00
 4.562790661767438e-01	 1.643733151977961e+00	 3.711324904084349e+00
 4.412966111089681e-01	 1.647818731833210e+00	 3.623084203639233e+00
 4.184686087613524e-01	 1.562578082091108e+00	 3.406867169208667e+00
 4.042612092709105e-01	 1.566313857513235e+00	 3.557591636356253e+00
 3.900557115896419e-01	 1.569911696014492e+00	 3.687868003054849e+00
 3.758539762950538e-01	 1.573372152160505e+00	 3.793888321672019e+00
 3.616578443450143e-01	 1.576695811133211e+00	 3.872558471434017e+00
 3.474691365191289e-01	 1.579883288089228e+00	 3.924677993724073e+00
 3.332896528818214e-01	 1.582935227508337e+00	 3.950279629346704e+00
 3.191211722672218e-01	 1.585852302532892e+00	 3.948946038776148e+00
 3.049654517859358e-01	 1.588635214298862e+00	 3.920030450108547e+00
 2.908242263537443e-01	 1.591284691259338e+00	 3.862674042081608e+00
 2.766992082422489e-01	 1.593801488501192e+00	 3.775823328984285e+00
 4.207514303407747e-01	 1.571102226770384e+00	 3.835815026462623e+00
 4.064665269290134e-01	 1.574858381519876e+00	 3.944633933167653e+00
 3.921835357010634e-01	 1.578475846877712e+00	 4.025271840269073e+00
 3.779043273842290e-01	 1.581955180434782e+00	 4.075658107203711e+00
 3.636307529791473e-01	 1.585296970565305e+00	 4.094154092470720e+00
 3.493646431981165e-01	 1.588501835781693e+00	 4.082867761418723e+00
 3.351078079252475e-01	 1.591570424079493e+00	 4.043875359104706e+00
 3.208620356985429e-01	 1.594503412273176e+00	 3.978752794220263e+00
 3.066290932139747e-01	 1.597301505323544e+00	 3.888911237685897e+00
 2.924107248516131e-01	 1.599965435657535e+00	 3.775610875387751e+00
 2.782086522238209e-01	 1.602495962481166e+00	 3.639974659180232e+00
 4.230342506268229e-01	 1.579626366618807e+00	 4.167905562456450e+00
 4.086718433376451e-01	 1.583402900684102e+00	 4.235723510357936e+00
 3.943113586068853e-01	 1.587039992887372e+00	 4.270444149581215e+00
 3.799546773116462e-01	 1.590538203844771e+00	 4.271428282882620e+00
 3.656036604953350e-01	 1.593898125122802e+00	 4.238309066171244e+00
 3.512601488029429e-01	 1.597120378589678e+00	 4.174076284595859e+00
 3.369259619382698e-01	 1.600205615756710e+00	 4.082486423463165e+00
 3.226028981431911e-01	 1.603154517110489e+00	 3.966750148898135e+00
 3.082927336990464e-01	 1.605967791436651e+00	 3.829967166357443e+00
 2.939972224501960e-01	 1.608646175135986e+00	 3.675137014137179e+00
 2.797180953497652e-01	 1.611190431533655e+00	 3.505169850350346e+00
 4.253170683257905e-01	 1.588150496805859e+00	 4.405604837057512e+00
 4.108771572470237e-01	 1.591947410163843e+00	 4.434476283126663e+00
 3.964391791012510e-01	 1.595604129190281e+00	 4.427866511877713e+00
 3.820050249153676e-01	 1.599121217526589e+00	 4.386267673528523e+00
 3.675765657755436e-01	 1.602499269931554e+00	 4.310376483082606e+00
 3.531556522594581e-01	 1.605738911629189e+00	 4.203697392381585e+00
 3.387441138905933e-01	 1.608840797646567e+00	 4.071288155932827e+00
 3.243437586146913e-01	 1.611805612142400e+00	 3.917641948628906e+00
 3.099563722984534e-01	 1.614634067727157e+00	 3.747183954068289e+00
 2.955837182505248e-01	 1.617326904775478e+00	 3.564279863707005e+00
 2.812275367647871e-01	 1.619884890731665e+00	 3.373244363520166e+00
 4.275998821439713e-01	 1.596674612501019e+00	 4.551326968922959e+00
 4.130824674073675e-01	 1.600491905117031e+00	 4.544432050770236e+00
 3.985669959783042e-01	 1.604168250933248e+00	 4.501926265220651e+00
 3.840553690334549e-01	 1.607704216616352e+00	 4.425138656890644e+00
 3.695494677017397e-01	 1.611100400117410e+00	 4.315598847904821e+00
 3.550511524935119e-01	 1.614357430016230e+00	 4.177013370848588e+00
 3.405622627519225e-01	 1.617475964855642e+00	 4.015348929563752e+00
 3.260846161265684e-01	 1.620456692466479e+00	 3.836035065533562e+00
 3.116200080694989e-01	 1.623300329284035e+00	 3.644465598044711e+00
 2.971702113536312e-01	 1.626007619656798e+00	 3.446005487810850e+00
 2.827369756135910e-01	 1.628579335148205e+00	 3.245997680990849e+00
 4.298826907876586e-01	 1.605198708873770e+00	 4.607435353314377e+00
 4.152877725688948e-01	 1.609036380701594e+00	 4.569056371152577e+00
 4.006948080321881e-01	 1.612732353263084e+00	 4.496918875091117e+00
 3.861057085039700e-01	 1.616287196250179e+00	 4.392899872046660e+00
 3.715223651558897e-01	 1.619701510806219e+00	 4.259105164984661e+00
 3.569466484309538e-01	 1.622975928866803e+00	 4.099197890343810e+00
 3.423804074919626e-01	 1.626111112490514e+00	 3.919632970309453e+00
 3.278254696923469e-01	 1.629107753180294e+00	 3.726441953529816e+00
 3.132836400694852e-01	 1.631966571196258e+00	 3.525636532131169e+00
 2.987567008605469e-01	 1.634688314860732e+00	 3.323220231065966e+00
 2.842464110408821e-01	 1.637273759856283e+00	 3.125194261255348e+00
 4.321654929631460e-01	 1.613722781093591e+00	 4.576243838579026e+00
 4.174930714818238e-01	 1.617580832075464e+00	 4.511742373257265e+00
 4.028226140570464e-01	 1.621296431326598e+00	 4.417050227209611e+00
 3.881560421649748e-01	 1.624870151564185e+00	 4.294308839851916e+00
 3.734952570199596e-01	 1.628302597123831e+00	 4.145907817681826e+00
 3.588421389976337e-01	 1.631594403296914e+00	 3.975318838297248e+00
 3.441985470804185e-01	 1.634746235657761e+00	 3.789003079634908e+00
 3.295663183255523e-01	 1.637758789381415e+00	 3.593283121373622e+00
 3.149472673557154e-01	 1.640632788552800e+00	 3.394443714403072e+00
 3.003431858723034e-01	 1.643368985468068e+00	 3.198772288874565e+00
 2.857558421913652e-01	 1.645968159928908e+00	 3.012564462459344e+00
 4.344482873767272e-01	 1.622246824329965e+00	 4.460017862816059e+00
 4.196983628963727e-01	 1.626125254396569e+00	 4.375812510093848e+00
 4.049504128470223e-01	 1.629860480270600e+00	 4.266438845775030e+00
 3.902063688545315e-01	 1.633453077694489e+00	 4.134024498665818e+00
 3.754681421759165e-01	 1.636903654196095e+00	 3.980951828412917e+00
 3.607376231194017e-01	 1.640212848422567e+00	 3.810341060978549e+00
 3.460166804869954e-01	 1.643381329463962e+00	 3.628223269696873e+00
 3.313071610397092e-01	 1.646409796167410e+00	 3.440889526271698e+00
 3.166108889854919e-01	 1.649298976442632e+00	 3.254558647612551e+00
 3.019296654899323e-01	 1.652049626559593e+00	 3.075453226551931e+00
 2.872652682097454e-01	 1.654662530439087e+00	 2.909805435560429e+00
 4.367310727346956e-01	 1.630770833752372e+00	 4.260975552182504e+00
 4.219036455627593e-01	 1.634669642822839e+00	 4.164520254136963e+00
 4.070782031962595e-01	 1.638424495241900e+00	 4.049118039844656e+00
 3.922566874107019e-01	 1.642035969777207e+00	 3.916609658448154e+00
 3.774410195057264e-01	 1.645504677148861e+00	 3.769084468781752e+00
 3.626330997221071e-01	 1.648831259359767e+00	 3.609129017523524e+00
 3.478348066813979e-01	 1.652016389015695e+00	 3.441961314286528e+00
 3.330479968483425e-01	 1.655060768635849e+00	 3.273504890962863e+00
 3.182745040161179e-01	 1.657965129954727e+00	 3.109579334917626e+00
 3.035161388144657e-01	 1.660730233216094e+00	 2.955999449552777e+00
 2.887746882407271e-01	 1.663356866459827e+00	 2.818581988291287e+00
 4.390138477433446e-01	 1.639294804530294e+00	 3.981288782234305e+00
 4.241089182312024e-01	 1.643213992512207e+00	 3.881051737385798e+00
 4.092059838989013e-01	 1.646988471387306e+00	 3.769037980465527e+00
 3.943069966715474e-01	 1.650618822948456e+00	 3.646533376189465e+00
 3.794138878913559e-01	 1.654105661107979e+00	 3.515053712762492e+00
 3.645285677315999e-01	 1.657449631224517e+00	 3.376449349414966e+00
 3.496529246333312e-01	 1.660651409419539e+00	 3.234791218591978e+00
 3.347888247649772e-01	 1.663711701884300e+00	 3.095287947046000e+00
 3.199381115048958e-01	 1.666631244178060e+00	 2.963032173243965e+00
 3.051026049469347e-01	 1.669410800518359e+00	 2.843093626571071e+00
 2.902841014290157e-01	 1.672051163064140e+00	 2.740527420986672e+00
 4.412966111089681e-01	 1.647818731833210e+00	 3.623084203639233e+00
 4.263141796519200e-01	 1.651758298622600e+00	 3.528527338046165e+00
 4.113337537490910e-01	 1.655552403853629e+00	 3.430067711059208e+00
 3.963572954751309e-01	 1.659201632344353e+00	 3.328173255517664e+00
 3.813867462147714e-01	 1.662706601199298e+00	 3.223510693897270e+00
 3.664240260737301e-01	 1.666067959132822e+00	 3.116973368471078e+00
 3.514710333125002e-01	 1.669286385782073e+00	 3.011195610712003e+00
 3.365296438031382e-01	 1.672362591010333e+00	 2.910314607217944e+00
 3.216017105091286e-01	 1.675297314201602e+00	 2.818373786531201e+00
 3.066890629883714e-01	 1.678091323547173e+00	 2.739366067215035e+00
 2.917935069193159e-01	 1.680745415325032e+00	 2.677244335290269e+00
 2.766992082422489e-01	 1.593801488501192e+00	 3.775823328984285e+00
 2.625896905333688e-01	 1.596186781145472e+00	 3.683462011225807e+00
 2.484997456962398e-01	 1.598440935759645e+00	 3.608611538682729e+00
 2.344310200493027e-01	 1.600564782436457e+00	 3.548541419051472e+00
 2.203851355945446e-01	 1.602559175150043e+00	 3.500472360477739e+00
 2.063636896767386e-01	 1.604424991048371e+00	 3.461591724965067e+00
 1.923682546643027e-01	 1.606163129743204e+00	 3.429068650910235e+00
 1.784003776516225e-01	 1.607774512598260e+00	 3.400068812963168e+00
 1.644615801826584e-01	 1.609260082016233e+00	 3.371768789880214e+00
 1.505533579956408e-01	 1.610620800725342e+00	 3.341370013492326e+00
 1.366771807886333e-01	 1.611857651066033e+00	 3.306112274335466e+00
 2.782086522238209e-01	 1.602495962481166e+00	 3.639974659180232e+00
 2.640221645561616e-01	 1.604894267325989e+00	 3.507804923176978e+00
 2.498553565338244e-01	 1.607160718759159e+00	 3.402147433008580e+00
 2.357098834562135e-01	 1.609296151401727e+00	 3.319722136087758e+00
 2.215873761736286e-01	 1.611301423886408e+00	 3.257131897181538e+00
 2.074894407446450e-01	 1.613177418146170e+00	 3.210880507499692e+00
 1.934176581152337e-01	 1.614925038700317e+00	 3.177390382088382e+00
 1.793735838194578e-01	 1.616545211938770e+00	 3.153019909179535e+00
 1.653587477015736e-01	 1.618038885405196e+00	 3.134080417748749e+00
 1.513746536593325e-01	 1.619407027079671e+00	 3.116852732121974e+00
 1.374227794082650e-01	 1.620650624661481e+00	 3.097603285035799e+00
 2.797180953497652e-01	 1.611190431533655e+00	 3.505169850350346e+00
 2.654546377669676e-01	 1.613601748571710e+00	 3.346162681656411e+00
 2.512109666030281e-01	 1.615880496816994e+00	 3.220024229554995e+00
 2.369887461383008e-01	 1.618027515418851e+00	 3.123087948628063e+00
 2.227896160713848e-01	 1.620043667668570e+00	 3.051512069705152e+00
 2.086151911746463e-01	 1.621929840284108e+00	 3.001299734620285e+00
 1.944670609715957e-01	 1.623686942692302e+00	 2.968318836279311e+00
 1.803467894359619e-01	 1.625315906309269e+00	 2.948321523824845e+00
 1.662559147122849e-01	 1.626817683819643e+00	 2.936963335402960e+00
 1.521959488578252e-01	 1.628193248455343e+00	 2.929821923741684e+00
 1.381683776055684e-01	 1.629443593274491e+00	 2.922415342436815e+00
 2.812275367647871e-01	 1.619884890731665e+00	 3.373244363520166e+00
 2.668871093541109e-01	 1.622309219948267e+00	 3.199172766555063e+00
 2.525665751357273e-01	 1.624600264991807e+00	 3.061896760098027e+00
 2.382676073709239e-01	 1.626758869539914e+00	 2.957522915994066e+00
 2.239918546065833e-01	 1.628785901542439e+00	 2.881934485925098e+00
 2.097409403288457e-01	 1.630682252502318e+00	 2.830813235981642e+00
 1.955164626387456e-01	 1.632448836753914e+00	 2.799661001377589e+00
 1.813199939496622e-01	 1.634086590739525e+00	 2.783820917910315e+00
 1.671530807064034e-01	 1.635596472284742e+00	 2.778498289584553e+00
 1.530172431257238e-01	 1.636979459873319e+00	 2.778781054625813e+00
 1.389139749580493e-01	 1.638236551922203e+00	 2.779659814898582e+00
 2.827369756135910e-01	 1.628579335148205e+00	 3.245997680990849e+00
 2.683195785059148e-01	 1.631016676521293e+00	 3.067462163616447e+00
 2.539221813637983e-01	 1.633320018342258e+00	 2.927430240374275e+00
 2.395464664294427e-01	 1.635490208817003e+00	 2.821937826529412e+00
 2.251940910979939e-01	 1.637528120553927e+00	 2.746759370347770e+00
 2.108666875693468e-01	 1.639434649840937e+00	 2.697430965696855e+00
 1.965658625220407e-01	 1.641210715919905e+00	 2.669273197449870e+00
 1.822931968090859e-01	 1.642857260259301e+00	 2.657413673784114e+00
 1.680502451755402e-01	 1.644375245825661e+00	 2.656809202364141e+00
 1.538385359976332e-01	 1.645765656354560e+00	 2.662267570293189e+00
 1.396595710432135e-01	 1.647029495621756e+00	 2.668468890591570e+00
 2.842464110408821e-01	 1.637273759856283e+00	 3.125194261255348e+00
 2.697520444107036e-01	 1.639724113356420e+00	 2.951647647876507e+00
 2.552777845191180e-01	 1.642039751927004e+00	 2.816300003743016e+00
 2.408253225892169e-01	 1.644221528302201e+00	 2.715269501239599e+00
 2.263963248643863e-01	 1.646270319748946e+00	 2.644384555484254e+00
 2.119924322582529e-01	 1.648187027340098e+00	 2.599207797152948e+00
 1.976152600268379e-01	 1.649972575225027e+00	 2.575059788595429e+00
 1.832663974627605e-01	 1.651627909898363e+00	 2.567042435490467e+00
 1.689474076113062e-01	 1.653153999467569e+00	 2.570062049256646e+00
 1.546598270081584e-01	 1.654551832920027e+00	 2.578852018396473e+00
 1.404051654385669e-01	 1.655822419390291e+00	 2.587995049896505e+00
 2.857558421913652e-01	 1.645968159928908e+00	 3.012564462459344e+00
 2.711845062568002e-01	 1.648431525519280e+00	 2.852336056992555e+00
 2.566333838335626e-01	 1.650759460804705e+00	 2.728191242229467e+00
 2.421041751256064e-01	 1.652952823047595e+00	 2.636480118514301e+00
 2.275985552245307e-01	 1.655012494173407e+00	 2.573244504281312e+00
 2.131181737576675e-01	 1.656939380039935e+00	 2.534242355193621e+00
 1.986646545584943e-01	 1.658734409704035e+00	 2.514971934888214e+00
 1.842395953592133e-01	 1.660398534686476e+00	 2.510695688396591e+00
 1.698445675053125e-01	 1.661932728235633e+00	 2.516463772331573e+00
 1.554811156919043e-01	 1.663337984590680e+00	 2.527137198945410e+00
 1.411507577216152e-01	 1.664615318244948e+00	 2.537410554161046e+00
 2.872652682097454e-01	 1.654662530439087e+00	 2.909805435560429e+00
 2.726169632325288e-01	 1.657138908075503e+00	 2.770124554831973e+00
 2.579889785390088e-01	 1.659479140034020e+00	 2.662798754678551e+00
 2.433830233139706e-01	 1.661684088105270e+00	 2.584556559159174e+00
 2.288007814971968e-01	 1.663754638873220e+00	 2.531809362469708e+00
 2.142439114296942e-01	 1.665691702980585e+00	 2.500675884298712e+00
 1.997140455223670e-01	 1.667496214391682e+00	 2.487006382930678e+00
 1.852127899469717e-01	 1.669169129653405e+00	 2.486406576647069e+00
 1.707417243491701e-01	 1.670711427155022e+00	 2.494261227034598e+00
 1.563024015834758e-01	 1.672124106387480e+00	 2.505757340861295e+00
 1.418963474698644e-01	 1.673408187202868e+00	 2.515906950213341e+00
 2.887746882407271e-01	 1.663356866459827e+00	 2.818581988291287e+00
 2.740494145262130e-01	 1.665846256090725e+00	 2.705600885676358e+00
 2.593445678673329e-01	 1.668198784673604e+00	 2.619826701760032e+00
 2.446618664296696e-01	 1.670415318527313e+00	 2.558509770996215e+00
 2.300030030011544e-01	 1.672496748894298e+00	 2.518584039738590e+00
 2.153696446364362e-01	 1.674443991202181e+00	 2.496691151447402e+00
 2.007634323238131e-01	 1.676257984322721e+00	 2.489204293610685e+00
 1.861859806745630e-01	 1.677939689828916e+00	 2.492251757065949e+00
 1.716388776344902e-01	 1.679490091250905e+00	 2.501740161490674e+00
 1.571236842174779e-01	 1.680910193331387e+00	 2.513377303902065e+00
 1.426419342608202e-01	 1.682201021281190e+00	 2.522694590057367e+00
 2.902841014290157e-01	 1.672051163064140e+00	 2.740527420986672e+00
 2.754818593261765e-01	 1.674553564630576e+00	 2.659343619381872e+00
 2.607001510504114e-01	 1.676918389782119e+00	 2.598988367576307e+00
 2.459407037480629e-01	 1.679146509365806e+00	 2.557374152322799e+00
 2.312052190551735e-01	 1.681238819282553e+00	 2.532107318689842e+00
 2.164953727399972e-01	 1.683196239744858e+00	 2.520511382406263e+00
 2.018128143681895e-01	 1.685019714531905e+00	 2.519650105711394e+00
 1.871591669905145e-01	 1.686710210242772e+00	 2.526350288183552e+00
 1.725360268528837e-01	 1.688268715548449e+00	 2.537224227109751e+00
 1.579449631285154e-01	 1.689696240443363e+00	 2.548691805037056e+00
 1.433875176719885e-01	 1.690993815497054e+00	 2.557002165198927e+00
 2.917935069193159e-01	 1.680745415325032e+00	 2.677244335290269e+00
 2.769142968207429e-01	 1.683260828760689e+00	 2.631922387822456e+00
 2.620557273201212e-01	 1.685637950418222e+00	 2.600005927634964e+00
 2.472195345445104e-01	 1.687877655672838e+00	 2.580206953548458e+00
 2.324074289780241e-01	 1.689980845083896e+00	 2.570950990569531e+00
 2.176210951024806e-01	 1.691948443648752e+00	 2.570399230235620e+00
 2.028621910608533e-01	 1.693781400053988e+00	 2.576470434079641e+00
 1.881323483433538e-01	 1.695480685924739e+00	 2.586862553119892e+00
 1.734331714959617e-01	 1.697047295072823e+00	 2.599074019364735e+00
 1.587662378511934e-01	 1.698482242744367e+00	 2.610424668388527e+00
 1.441330972808751e-01	 1.699786564867602e+00	 2.618076255073888e+00
 1.366771807886333e-01	 1.611857651066033e+00	 3.306112274335466e+00
 1.228368366506916e-01	 1.612971455257300e+00	 3.245482988448434e+00
 1.090313535566891e-01	 1.613963452695617e+00	 3.151245772138649e+00
 9.526208969766804e-02	 1.614834679436247e+00	 3.039002037963737e+00
 8.153037736788364e-02	 1.615586188281853e+00	 2.924204605703929e+00
 6.783752282655720e-02	 1.616219048089453e+00	 2.822153744361227e+00
 5.418480617815002e-02	 1.616734343080651e+00	 2.747993345884013e+00
 4.057348127085128e-02	 1.617133172155657e+00	 2.716707224120616e+00
 2.700477561295891e-02	 1.617416648211609e+00	 2.743115533204122e+00
 1.347989030682204e-02	 1.617585897465666e+00	 2.841871300231628e+00
 0.000000000000000e+00	 1.617642058783334e+00	 3.027457068009053e+00
 1.374227794082650e-01	 1.620650624661481e+00	 3.097603285035799e+00
 1.235069337021328e-01	 1.621770504854973e+00	 3.055624460328630e+00
 1.096261392132307e-01	 1.622767913817755e+00	 2.983497721702567e+00
 9.578176154176940e-02	 1.623643893256957e+00	 2.897350938161980e+00
 8.197514024990150e-02	 1.624399501718475e+00	 2.813198470417447e+00
 6.820758872271974e-02	 1.625035813890140e+00	 2.746935712301086e+00
 5.448039404787802e-02	 1.625553919908178e+00	 2.714333756125793e+00
 4.079481691352561e-02	 1.625954924667502e+00	 2.731034177909970e+00
 2.715209152423184e-02	 1.626239947136311e+00	 2.812543939038926e+00
 1.355342553456794e-02	 1.626410119675477e+00	 2.974230401540842e+00
 0.000000000000000e+00	 1.626466587363230e+00	 3.231316454991924e+00
 1.381683776055684e-01	 1.629443593274491e+00	 2.922415342436815e+00
 1.241770303739670e-01	 1.630569549466778e+00	 2.894839614115840e+00
 1.102209245327511e-01	 1.631572369950946e+00	 2.841053356133123e+00
 9.630143309131045e-02	 1.632453102085998e+00	 2.777281537260604e+00
 8.241990287970483e-02	 1.633212810161064e+00	 2.719667145180086e+00
 6.857765440890855e-02	 1.633852574694785e+00	 2.684264847405528e+00
 5.477598174977812e-02	 1.634373491738018e+00	 2.687034756342890e+00
 4.101615243043270e-02	 1.634776672180379e+00	 2.743836296276853e+00
 2.729940735172260e-02	 1.635063241061123e+00	 2.870422170712496e+00
 1.362696072045095e-02	 1.635234336884847e+00	 3.082432429091583e+00
 0.000000000000000e+00	 1.635291110942501e+00	 3.395388632707006e+00
 1.389139749580493e-01	 1.638236551922203e+00	 2.779659814898582e+00
 1.248471262864969e-01	 1.639368584106420e+00	 2.762847119750186e+00
 1.108157091782467e-01	 1.640376816105841e+00	 2.724060258662276e+00
 9.682110405187071e-02	 1.641262300931342e+00	 2.679199499650353e+00
 8.286466500533905e-02	 1.642026108615281e+00	 2.644111125412601e+00
 6.894771967551071e-02	 1.642669325507112e+00	 2.634580828113346e+00
 5.507156911644809e-02	 1.643193053572317e+00	 2.666327176575539e+00
 4.123748769624335e-02	 1.643598409695213e+00	 2.754995154993174e+00
 2.744672301203106e-02	 1.643886524986108e+00	 2.916149772941158e+00
 1.370049582284940e-02	 1.644058544093324e+00	 3.165269747074790e+00
 0.000000000000000e+00	 1.644115624520522e+00	 3.517741255720752e+00
 1.396595710432135e-01	 1.647029495621756e+00	 2.668468890591570e+00
 1.255172210600251e-01	 1.648167603787604e+00	 2.659373311557724e+00
 1.114104928127138e-01	 1.649181247293090e+00	 2.632664320685322e+00
 9.734077412902969e-02	 1.650071484800958e+00	 2.603503077761539e+00
 8.330942637484956e-02	 1.650839392086791e+00	 2.587021246940504e+00
 6.931778431291342e-02	 1.651486061330844e+00	 2.598314734128576e+00
 5.536715598048577e-02	 1.652012600413220e+00	 2.652437453228025e+00
 4.145882258562848e-02	 1.652420132212929e+00	 2.764395121129803e+00
 2.759403842175708e-02	 1.652709793911330e+00	 2.949139082079159e+00
 1.377403080014159e-02	 1.652882736300450e+00	 3.221560162713581e+00
 0.000000000000000e+00	 1.652940123096667e+00	 3.596482559925846e+00
 1.404051654385669e-01	 1.655822419390291e+00	 2.587995049896505e+00
 1.261873143148544e-01	 1.656966603524032e+00	 2.584152009575962e+00
 1.120052750991488e-01	 1.657985658523342e+00	 2.567009810641232e+00
 9.786044302836701e-02	 1.658880648702817e+00	 2.550583331427829e+00
 8.375418673628189e-02	 1.659652655581255e+00	 2.548878963083866e+00
 6.968784811150369e-02	 1.660302777169703e+00	 2.575889292803835e+00
 5.566274217448894e-02	 1.660832127262873e+00	 2.645587760645749e+00
 4.168015697325902e-02	 1.661241834734456e+00	 2.771923290064891e+00
 2.774135349750053e-02	 1.661533042836846e+00	 2.968814893134891e+00
 1.384756561070587e-02	 1.661706908505775e+00	 3.250146252201501e+00
 0.000000000000000e+00	 1.661764601670313e+00	 3.629760280649093e+00
 1.411507577216152e-01	 1.664615318244948e+00	 2.537410554161046e+00
 1.268574056712874e-01	 1.665765578329411e+00	 2.536924346271244e+00
 1.126000557005477e-01	 1.666790044807246e+00	 2.527239440516107e+00
 9.838011045546215e-02	 1.667689787644890e+00	 2.520824340165150e+00
 8.419894583768139e-02	 1.668465894104338e+00	 2.530156612878740e+00
 7.005791086166871e-02	 1.669119468027414e+00	 2.567719117659601e+00
 5.595832753105540e-02	 1.669651629123421e+00	 2.645996138483707e+00
 4.190149073380579e-02	 1.670063512260719e+00	 2.777469424453394e+00
 2.788866815586128e-02	 1.670356266762721e+00	 2.974614137295255e+00
 1.392110021292054e-02	 1.670531055708842e+00	 3.249894707936325e+00
 0.000000000000000e+00	 1.670589055240833e+00	 3.615760604945695e+00
 1.418963474698644e-01	 1.673408187202868e+00	 2.515906950213341e+00
 1.275274947496269e-01	 1.674564523217445e+00	 2.517438598449915e+00
 1.131948342799072e-01	 1.675594401155453e+00	 2.513494430056688e+00
 9.889977611589473e-02	 1.676498896635146e+00	 2.514603408625300e+00
 8.464370342709347e-02	 1.677279102661701e+00	 2.531317680755123e+00
 7.042797235379547e-02	 1.677936128907696e+00	 2.574210939327655e+00
 5.625391188278296e-02	 1.678471100997010e+00	 2.653876615020642e+00
 4.212282374193975e-02	 1.678885159792645e+00	 2.780925895085739e+00
 2.803598231343919e-02	 1.679179460689016e+00	 2.965985569572780e+00
 1.399463456516394e-02	 1.679355172909198e+00	 3.219695706268392e+00
 0.000000000000000e+00	 1.679413478807604e+00	 3.552707156826367e+00
 1.426419342608202e-01	 1.682201021281190e+00	 2.522694590057367e+00
 1.281975811701755e-01	 1.683363433201838e+00	 2.525450024173584e+00
 1.137896105002232e-01	 1.684398722578610e+00	 2.525914568777156e+00
 9.941943971524417e-02	 1.685307970681557e+00	 2.532291265472957e+00
 8.508845925256367e-02	 1.686092276259008e+00	 2.552817047982912e+00
 7.079803237827123e-02	 1.686752754814276e+00	 2.595763829194758e+00
 5.654949506226945e-02	 1.687290537885786e+00	 2.669439326566480e+00
 4.234415587233178e-02	 1.687706772331161e+00	 2.782187623566512e+00
 2.818329588683412e-02	 1.688002619615791e+00	 2.942389466206064e+00
 1.406816862581438e-02	 1.688179255106389e+00	 3.158462295015030e+00
 0.000000000000000e+00	 1.688237867370000e+00	 3.438860014215870e+00
 1.433875176719885e-01	 1.690993815497054e+00	 2.557002165198927e+00
 1.288676645532359e-01	 1.692162303296296e+00	 2.560720704496659e+00
 1.143843840244923e-01	 1.693203004087369e+00	 2.564638275839066e+00
 9.993910095909007e-02	 1.694117004792092e+00	 2.574252255924510e+00
 8.553321306213733e-02	 1.694905409901922e+00	 2.595101236184315e+00
 7.116809072548295e-02	 1.695569340750875e+00	 2.632769416011300e+00
 5.684507690211263e-02	 1.696109934791894e+00	 2.692890633104667e+00
 4.256548699965275e-02	 1.696528344877193e+00	 2.781152026747011e+00
 2.833060879264594e-02	 1.696825738543109e+00	 2.903297331459474e+00
 1.414170235325019e-02	 1.697003297299960e+00	 3.065129800023731e+00
 0.000000000000000e+00	 1.697062215927397e+00	 3.272514756491445e+00
 1.441330972808751e-01	 1.699786564867602e+00	 2.618076255073888e+00
 1.295377445191109e-01	 1.700961128514523e+00	 2.623019389851832e+00
 1.149791545157106e-01	 1.702007240692378e+00	 2.629802657880985e+00
 1.004587595530120e-01	 1.702925993974722e+00	 2.640844528177319e+00
 8.597796460385999e-02	 1.703718498596106e+00	 2.658608643198922e+00
 7.153814718581784e-02	 1.704385881721215e+00	 2.685612095718602e+00
 5.714065723491034e-02	 1.704929286717479e+00	 2.724433230305121e+00
 4.278681699857358e-02	 1.705349872431669e+00	 2.777718962848112e+00
 2.847792094747452e-02	 1.705648812471032e+00	 2.848191613482726e+00
 1.421523570584970e-02	 1.705827294489458e+00	 2.938655250096248e+00
 0.000000000000000e+00	 1.705886519479168e+00	 3.052001541497071e+00
 1.705886519479168e+00	 0.000000000000000e+00	 1.497607897762653e+01
 1.705827294489459e+00	 1.421523570584876e-02	 8.870517178079570e+00
 1.705648812471032e+00	 2.847792094747371e-02	 3.748738895811646e+00
 1.705349872431669e+00	 4.278681699857291e-02	-3.412104780676199e-01
 1.704929286717479e+00	 5.714065723490981e-02	-3.354618318852144e+00
 1.704385881721215e+00	 7.153814718581744e-02	-5.250230319283873e+00
 1.703718498596106e+00	 8.597796460385973e-02	-5.990375402942520e+00
 1.702925993974722e+00	 1.004587595530119e-01	-5.541089918626039e+00
 1.702007240692379e+00	 1.149791545157106e-01	-3.872241012873209e+00
 1.700961128514523e+00	 1.295377445191110e-01	-9.576490502974488e-01
 1.699786564867602e+00	 1.441330972808752e-01	 3.224791079135359e+00
 1.714709275570436e+00	 0.000000000000000e+00	 1.296901283298952e+01
 1.714649744272165e+00	 1.428875616361442e-02	 7.372861568983366e+00
 1.714470339154033e+00	 2.862520726952074e-02	 2.655586348378586e+00
 1.714169853012344e+00	 4.300810818478416e-02	-1.118120174168606e+00
 1.713747092050717e+00	 5.743618573424850e-02	-3.889438150018055e+00
 1.713200876592064e+00	 7.190813875230691e-02	-5.605625135833476e+00
 1.712530041796110e+00	 8.642263815292325e-02	-6.220219021462662e+00
 1.711733438381984e+00	 1.009783270182689e-01	-5.693239070622498e+00
 1.710809933355354e+00	 1.155738207063259e-01	-3.991384833545485e+00
 1.709758410739589e+00	 1.302077069777980e-01	-1.088232660265924e+00
 1.708577772310391e+00	 1.448785461426520e-01	 3.035570490215385e+00
 1.723531991670303e+00	 0.000000000000000e+00	 1.081285710509986e+01
 1.723472154064846e+00	 1.436227628832694e-02	 5.901992389857820e+00
 1.723291825851158e+00	 2.877249292428796e-02	 1.748226357792876e+00
 1.722989793614098e+00	 4.322939836835290e-02	-1.573278320750347e+00
 1.722564857414828e+00	 5.773171289448438e-02	-3.995247217104755e+00
 1.722015831506448e+00	 7.227812864217469e-02	-5.458558109116801e+00
 1.721341545055211e+00	 8.686730968682753e-02	-5.912502415518033e+00
 1.720540842866837e+00	 1.014978921288509e-01	-5.315043783985620e+00
 1.719612586117377e+00	 1.161684842018142e-01	-3.633073489148791e+00
 1.718555653088150e+00	 1.308776664000112e-01	-8.426622639456751e-01
 1.717368939904148e+00	 1.456239916257571e-01	 3.070691848010890e+00
 1.732354677776619e+00	 0.000000000000000e+00	 8.679634905365939e+00
 1.732294533865007e+00	 1.443579616324962e-02	 4.556704518919526e+00
 1.732113282558871e+00	 2.891977807859532e-02	 1.063362203648159e+00
 1.731809704231650e+00	 4.345068779993982e-02	-1.720823650986225e+00
 1.731382592802073e+00	 5.802723905039318e-02	-3.725668970917997e+00
 1.730830756453453e+00	 7.264811727457615e-02	-4.890677821838821e+00
 1.730153018358598e+00	 8.731197970936237e-02	-5.165343017920176e+00
 1.729348217409838e+00	 1.020174554734268e-01	-4.509443133155576e+00
 1.728415208953636e+00	 1.167631456759571e-01	-2.893335503518972e+00
 1.727352865529281e+00	 1.315476235448692e-01	-2.982447735648136e-01
 1.726160077611077e+00	 1.463694345748584e-01	 3.283453496395324e+00
 1.741177343887234e+00	 0.000000000000000e+00	 6.737802406177345e+00
 1.741116893670152e+00	 1.450931587164573e-02	 3.433731867107097e+00
 1.740934719273633e+00	 2.906706289926280e-02	 6.369147356719003e-01
 1.740629594859717e+00	 4.367197673020553e-02	-1.574628513395216e+00
 1.740200308204713e+00	 5.832276453675059e-02	-3.133243567296771e+00
 1.739645661422168e+00	 7.301810506866685e-02	-3.981966626068383e+00
 1.738964471691459e+00	 8.775664872431757e-02	-4.074845025773720e+00
 1.738155571991545e+00	 1.025370176406653e-01	-3.377253720282218e+00
 1.737217811839318e+00	 1.173578058025365e-01	-1.866207176395322e+00
 1.736150058032053e+00	 1.322175791714904e-01	 4.693337985886697e-01
 1.734951195393385e+00	 1.471148758346237e-01	 3.628160816431694e+00
 1.750000000000000e+00	 0.000000000000000e+00	 5.152338682789660e+00
 1.749939243477787e+00	 1.458283549677856e-02	 2.627799507074310e+00
 1.749756145991908e+00	 2.921434755311032e-02	 5.040424819037304e-01
 1.749449475493014e+00	 4.389326540981060e-02	-1.148305034248636e+00
 1.749018013615008e+00	 5.861828968833231e-02	-2.269454494432296e+00
 1.748460556401677e+00	 7.338809244360212e-02	-2.810781877166055e+00
 1.747775915038981e+00	 8.820131723548300e-02	-2.735149332966366e+00
 1.746962916592515e+00	 1.030565792192351e-01	-2.017222351485425e+00
 1.746020404749609e+00	 1.179524652553341e-01	-6.437820049866253e-01
 1.744947240565538e+00	 1.328875340389930e-01	 1.385968212261863e+00
 1.743742303213276e+00	 1.478603162497211e-01	 4.060101468344799e+00
 1.758822656112766e+00	 0.000000000000000e+00	 4.084832829895622e+00
 1.758761593285413e+00	 1.465635512191138e-02	 2.231674220523463e+00
 1.758577572710158e+00	 2.936163220695785e-02	 6.991611458643536e-01
 1.758269356126260e+00	 4.411455408941568e-02	-4.552110951074688e-01
 1.757835719025220e+00	 5.891381483991402e-02	-1.184754395901628e+00
 1.757275451381068e+00	 7.375807981853734e-02	-1.453895922066854e+00
 1.756587358386351e+00	 8.864598574664836e-02	-1.238481955230552e+00
 1.755770261193304e+00	 1.035761407978049e-01	-5.260771248927443e-01
 1.754822997659698e+00	 1.185471247081317e-01	 6.837413811631419e-01
 1.753744423098810e+00	 1.335574889064958e-01	 2.379095072966897e+00
 1.752533411032956e+00	 1.486057566648185e-01	 4.535521365388728e+00
 1.767645322223381e+00	 0.000000000000000e+00	 3.693568448792430e+00
 1.767583953090539e+00	 1.472987483030750e-02	 2.336213519553758e+00
 1.767399009424846e+00	 2.950891702762532e-02	 1.255962514237454e+00
 1.767089246754171e+00	 4.433584301968137e-02	 4.915438680245749e-01
 1.766653434427608e+00	 5.920934032627143e-02	 7.140988230457168e-02
 1.766090356349428e+00	 7.412806761262804e-02	 1.346511426823360e-02
 1.765398811718757e+00	 8.909065476160360e-02	 3.247989992000173e-01
 1.764577615774469e+00	 1.040957029650434e-01	 1.001423013678433e+00
 1.763625600544772e+00	 1.191417848347111e-01	 2.028012719712862e+00
 1.762541615600941e+00	 1.342274445331169e-01	 3.377655065076839e+00
 1.761324528814632e+00	 1.493511979245839e-01	 5.011601353869503e+00
 1.776468008329698e+00	 0.000000000000000e+00	 4.133605597223305e+00
 1.776406332890666e+00	 1.480339470523017e-02	 3.030413195464685e+00
 1.776220466132433e+00	 2.965620218193269e-02	 2.207432795718510e+00
 1.775909157371466e+00	 4.455713245126831e-02	 1.679093237705201e+00
 1.775471169814435e+00	 5.950486648218025e-02	 1.450572993609792e+00
 1.774905281295844e+00	 7.449805624502953e-02	 1.517583702172146e+00
 1.774210285021387e+00	 8.953532478413845e-02	 1.866157762435695e+00
 1.773384990316567e+00	 1.046152663096193e-01	 2.472440193760048e+00
 1.772428223380018e+00	 1.197364463088540e-01	 3.302484999261880e+00
 1.771338828041004e+00	 1.348974016779749e-01	 4.312056303711628e+00
 1.770115666520508e+00	 1.500966408736851e-01	 5.446434574609897e+00
 1.785290724429565e+00	 0.000000000000000e+00	 5.556860290302100e+00
 1.785228742683300e+00	 1.487691482994270e-02	 4.401453446336337e+00
 1.785041952829383e+00	 2.980348783669991e-02	 3.585870410866702e+00
 1.784729097972858e+00	 4.477842263483706e-02	 3.094807754236086e+00
 1.784288935177959e+00	 5.980039364241613e-02	 2.905227515465689e+00
 1.783720236209402e+00	 7.486804613489732e-02	 2.986214399981954e+00
 1.783021788279429e+00	 8.997999631804272e-02	 3.298836694402409e+00
 1.782192394800156e+00	 1.051348314202014e-01	 3.796010970497809e+00
 1.781230876140625e+00	 1.203311098043423e-01	 4.422370679079719e+00
 1.780136070388071e+00	 1.355673611001882e-01	 5.114138766450331e+00
 1.778906834112791e+00	 1.508420863567903e-01	 5.799004482128785e+00
 1.794113480520832e+00	 0.000000000000000e+00	 8.112181637425461e+00
 1.794051192465945e+00	 1.495043528770836e-02	 6.534743632666084e+00
 1.793863479512158e+00	 2.995077415874692e-02	 5.422903252009207e+00
 1.793549078553066e+00	 4.499971382104827e-02	 4.726290215283637e+00
 1.793106740510443e+00	 6.009592214175480e-02	 4.388801071716772e+00
 1.792535231079187e+00	 7.523803770138675e-02	 4.348548427351229e+00
 1.791833331478071e+00	 9.042466986710623e-02	 4.537813377999431e+00
 1.790999839205791e+00	 1.056543988854583e-01	 4.883001052682189e+00
 1.790033568801779e+00	 1.209257759949575e-01	 5.304599198531769e+00
 1.788933352611214e+00	 1.362373235588751e-01	 5.717139767451789e+00
 1.787698041553686e+00	 1.515875352185671e-01	 6.029163498743657e+00
 1.699786564867602e+00	 1.441330972808752e-01	 3.224791079135359e+00
 1.698482242744367e+00	 1.587662378511926e-01	 7.656247383807552e+00
 1.697047295072823e+00	 1.734331714959610e-01	 1.130970667143868e+01
 1.695480685924739e+00	 1.881323483433532e-01	 1.419322871762829e+01
 1.693781400053988e+00	 2.028621910608528e-01	 1.631336542256064e+01
 1.691948443648752e+00	 2.176210951024801e-01	 1.767511859999440e+01
 1.689980845083896e+00	 2.324074289780237e-01	 1.828189872798504e+01
 1.687877655672838e+00	 2.472195345445101e-01	 1.813548496909338e+01
 1.685637950418222e+00	 2.620557273201210e-01	 1.723598681940848e+01
 1.683260828760689e+00	 2.769142968207428e-01	 1.558180779942089e+01
 1.680745415325032e+00	 2.917935069193159e-01	 1.316961165531002e+01
 1.708577772310391e+00	 1.448785461426520e-01	 3.035570490215385e+00
 1.707266704300739e+00	 1.595873685525808e-01	 7.397010462948691e+00
 1.705824335154196e+00	 1.743301588129325e-01	 1.100194870465208e+01
 1.704249623584781e+00	 1.891053590360332e-01	 1.385019152139373e+01
 1.702541549095582e+00	 2.039113837314954e-01	 1.594173542650095e+01
 1.700699112734855e+00	 2.187466200547206e-01	 1.727676992663253e+01
 1.698721337852288e+00	 2.336094280775254e-01	 1.785567985702551e+01
 1.696607270854759e+00	 2.484981410811179e-01	 1.767904747230142e+01
 1.694355981960888e+00	 2.634110658716374e-01	 1.674765455241385e+01
 1.691966565953688e+00	 2.783464831184465e-01	 1.506248483897152e+01
 1.689438142930575e+00	 2.933026477153374e-01	 1.262472717499815e+01
 1.717368939904148e+00	 1.456239916257571e-01	 3.070691848010890e+00
 1.716051126038605e+00	 1.604084955322307e-01	 7.196131656753286e+00
 1.714601335450664e+00	 1.752271420643226e-01	 1.061145546436869e+01
 1.713018521496617e+00	 1.900783653185445e-01	 1.331037251215447e+01
 1.711301658428788e+00	 2.049605716466695e-01	 1.528816745937797e+01
 1.709449742155527e+00	 2.198721399055145e-01	 1.654173898474103e+01
 1.707461791001365e+00	 2.348114217289573e-01	 1.706963669713026e+01
 1.705336846466656e+00	 2.497767418224219e-01	 1.687209647860504e+01
 1.703073973986022e+00	 2.647663982800406e-01	 1.595107443762285e+01
 1.700672263684863e+00	 2.797786629246871e-01	 1.431027970832104e+01
 1.698130831133237e+00	 2.948117816710418e-01	 1.195520639195568e+01
 1.726160077611077e+00	 1.463694345748584e-01	 3.283453496395324e+00
 1.724835517912544e+00	 1.612296197205770e-01	 7.040529062629101e+00
 1.723378305908415e+00	 1.761241222665267e-01	 1.015282345091880e+01
 1.721787389597272e+00	 1.910513682934287e-01	 1.261006404712755e+01
 1.720061737980688e+00	 2.060097559952411e-01	 1.440462931097295e+01
 1.718200341827125e+00	 2.209976559302208e-01	 1.553161409610649e+01
 1.716202214435967e+00	 2.360134112943326e-01	 1.598889221045792e+01
 1.714066392401066e+00	 2.510553382172411e-01	 1.577717627414321e+01
 1.711791936373050e+00	 2.661217260810984e-01	 1.490007498937251e+01
 1.709377931819725e+00	 2.812108378623158e-01	 1.336414799698308e+01
 1.706823489783799e+00	 2.963209104964882e-01	 1.117895855714816e+01
 1.734951195393385e+00	 1.471148758346237e-01	 3.628160816431694e+00
 1.733619889877132e+00	 1.620507420480541e-01	 6.917451184565332e+00
 1.732155256473636e+00	 1.770211004359399e-01	 9.640421687842949e+00
 1.730556237823766e+00	 1.920243690632273e-01	 1.178489270376823e+01
 1.728821797678364e+00	 2.070589379660760e-01	 1.334210504186488e+01
 1.726950921666006e+00	 2.221231694041990e-01	 1.430680296888310e+01
 1.724942618060941e+00	 2.372153981356642e-01	 1.467731357433170e+01
 1.722795918550523e+00	 2.523339317143948e-01	 1.445562248561189e+01
 1.720509879001397e+00	 2.674770508105788e-01	 1.364744600149566e+01
 1.718083580223781e+00	 2.826430095541833e-01	 1.226229977545533e+01
 1.715516128733043e+00	 2.978300359017357e-01	 1.031356424610001e+01
 1.743742303213276e+00	 1.478603162497211e-01	 4.060101468344799e+00
 1.742404251886952e+00	 1.628718634450967e-01	 6.814469087211748e+00
 1.740932197092512e+00	 1.779180775889574e-01	 9.088397752051671e+00
 1.739325076113126e+00	 1.929973687304822e-01	 1.086983612894469e+01
 1.737581847448898e+00	 2.081081187480401e-01	 1.215061957518096e+01
 1.735701491588527e+00	 2.232486816028079e-01	 1.292656193781207e+01
 1.733683011781130e+00	 2.384173836149654e-01	 1.319754295990242e+01
 1.731525434807559e+00	 2.536125237627017e-01	 1.296759127321810e+01
 1.729227811750488e+00	 2.688323740042501e-01	 1.224496301812291e+01
 1.726789218762543e+00	 2.840751796231408e-01	 1.104221619700199e+01
 1.724208757831753e+00	 2.993391595968430e-01	 9.376280936280894e+00
 1.752533411032956e+00	 1.486057566648185e-01	 4.535521365388730e+00
 1.751188613896581e+00	 1.636929848421391e-01	 6.719468764913350e+00
 1.749709137711230e+00	 1.788150547419742e-01	 8.510683593614216e+00
 1.748093914402372e+00	 1.939703683977349e-01	 9.899239344671255e+00
 1.746341897219373e+00	 2.091572995299990e-01	 1.087926250468217e+01
 1.744452061511046e+00	 2.243741938014068e-01	 1.144902427394107e+01
 1.742423405501375e+00	 2.396193690942492e-01	 1.161102732735533e+01
 1.740254951064713e+00	 2.548911158109811e-01	 1.137208758153625e+01
 1.737945744499749e+00	 2.701876971978801e-01	 1.074341099843768e+01
 1.735494857301518e+00	 2.855073496920395e-01	 9.740665524461368e+00
 1.732901386930710e+00	 3.008482832918692e-01	 8.384048335876161e+00
 1.761324528814632e+00	 1.493511979245839e-01	 5.011601353869503e+00
 1.759972985860596e+00	 1.645141071696161e-01	 6.620643718146086e+00
 1.758486088275977e+00	 1.797120329113855e-01	 7.921001152582569e+00
 1.756862762628529e+00	 1.949433691675272e-01	 8.906830529518967e+00
 1.755101956916870e+00	 2.102064815008186e-01	 9.576211146746390e+00
 1.753202641349922e+00	 2.254997072753549e-01	 9.931227596562401e+00
 1.751163809126523e+00	 2.408213559355289e-01	 9.978047272228704e+00
 1.748984477214517e+00	 2.561697093080520e-01	 9.726992481363565e+00
 1.746663687128603e+00	 2.715430219272368e-01	 9.192607203678381e+00
 1.744200505706216e+00	 2.869395213837301e-01	 8.393718602221616e+00
 1.741594025880697e+00	 3.023574086968733e-01	 7.353493472580773e+00
 1.770115666520508e+00	 1.500966408736851e-01	 5.446434574609898e+00
 1.768757377733578e+00	 1.653352313579620e-01	 6.506487730099598e+00
 1.767263058732940e+00	 1.806090131135865e-01	 7.332867779959701e+00
 1.765631630728619e+00	 1.959163721424007e-01	 7.925736294055469e+00
 1.763862036468471e+00	 2.112556658493647e-01	 8.288752862707387e+00
 1.761953241021510e+00	 2.266252233000113e-01	 8.429140418777138e+00
 1.759904232561414e+00	 2.420233455008174e-01	 8.357744956028696e+00
 1.757714023149506e+00	 2.574483057027334e-01	 8.089089634345632e+00
 1.755381649516477e+00	 2.728983497280881e-01	 7.641423333545588e+00
 1.752906173842148e+00	 2.883716963210640e-01	 7.036763792700558e+00
 1.750286684532495e+00	 3.038665375219142e-01	 6.300935550708087e+00
 1.778906834112791e+00	 1.508420863567903e-01	 5.799004482128785e+00
 1.777541799470105e+00	 1.661563583376114e-01	 6.365787836442968e+00
 1.776040059028305e+00	 1.815059963649723e-01	 6.759601469636470e+00
 1.774400528639666e+00	 1.968893784248969e-01	 6.988496467934747e+00
 1.772622145801259e+00	 2.123048537645031e-01	 7.063306676950512e+00
 1.770703870442168e+00	 2.277507431507352e-01	 6.997687856837944e+00
 1.768644685710895e+00	 2.432253391521282e-01	 6.808151152997059e+00
 1.766443598762214e+00	 2.587269064438442e-01	 6.514090910875098e+00
 1.764099641542794e+00	 2.742536821362022e-01	 6.137806938088132e+00
 1.761611871574821e+00	 2.898038761268918e-01	 5.704521395889742e+00
 1.758979372736888e+00	 3.053756714770509e-01	 5.242390584569018e+00
 1.787698041553686e+00	 1.515875352185671e-01	 6.029163498743657e+00
 1.786326261024755e+00	 1.669774890389988e-01	 6.187617481580089e+00
 1.784817099108259e+00	 1.824029836819379e-01	 6.214325907847725e+00
 1.783169466298693e+00	 1.978623891175576e-01	 6.127078415555310e+00
 1.781382294842314e+00	 2.133540464350997e-01	 5.945444215160165e+00
 1.779454539528256e+00	 2.288762681028857e-01	 5.690776532227453e+00
 1.777385178479808e+00	 2.444273382514740e-01	 5.386211443626559e+00
 1.775173213945176e+00	 2.600055129802037e-01	 5.056661190553444e+00
 1.772817673086980e+00	 2.756090206873468e-01	 4.728802130105866e+00
 1.770317608769745e+00	 2.912360624240647e-01	 4.431057569784334e+00
 1.767672100344656e+00	 3.068848122723423e-01	 4.193575815757121e+00
 1.680745415325032e+00	 2.917935069193159e-01	 1.316961165531002e+01
 1.678091323547173e+00	 3.066890629883703e-01	 1.052725910738028e+01
 1.675297314201602e+00	 3.216017105091277e-01	 8.185640340913018e+00
 1.672362591010333e+00	 3.365296438031375e-01	 6.145888541990570e+00
 1.669286385782073e+00	 3.514710333124996e-01	 4.408902894267115e+00
 1.666067959132822e+00	 3.664240260737297e-01	 2.975351397603140e+00
 1.662706601199298e+00	 3.813867462147712e-01	 1.894850741553819e+00
 1.659201632344353e+00	 3.963572954751306e-01	 1.301859749514644e+00
 1.655552403853629e+00	 4.113337537490910e-01	 1.218143368255856e+00
 1.651758298622600e+00	 4.263141796519203e-01	 1.660156204512409e+00
 1.647818731833210e+00	 4.412966111089680e-01	 2.645319404329395e+00
 1.689438142930575e+00	 2.933026477153374e-01	 1.262472717499815e+01
 1.686770324328197e+00	 3.082752428232585e-01	 9.967921886249158e+00
 1.683961864511827e+00	 3.232650177790162e-01	 7.626674511150346e+00
 1.681011963085166e+00	 3.382701575652768e-01	 5.603983773203711e+00
 1.677919847883867e+00	 3.532888231617539e-01	 3.900979577731357e+00
 1.674684775699870e+00	 3.683191520215244e-01	 2.516889419692574e+00
 1.671306032998505e+00	 3.833592585706100e-01	 1.512320644883358e+00
 1.667782936627572e+00	 3.984072347308051e-01	 9.969477304284062e-01
 1.664114834517587e+00	 4.134611504656967e-01	 9.816061291420746e-01
 1.660301106372383e+00	 4.285190543498037e-01	 1.474761953434671e+00
 1.656341164349248e+00	 4.435789741607188e-01	 2.484071898091680e+00
 1.698130831133237e+00	 2.948117816710418e-01	 1.195520639195568e+01
 1.695449285768520e+00	 3.098614154685692e-01	 9.398090049577608e+00
 1.692626375546808e+00	 3.249283175096468e-01	 7.149629636892890e+00
 1.689661295953505e+00	 3.400106634381059e-01	 5.213387708394161e+00
 1.686553270851235e+00	 3.551066047713227e-01	 3.589717528498803e+00
 1.683301553207896e+00	 3.702142693789844e-01	 2.275699984507292e+00
 1.679905425817454e+00	 3.853317619852417e-01	 1.342341286924516e+00
 1.676364202012672e+00	 4.004571646942260e-01	 8.712416856681755e-01
 1.672677226368962e+00	 4.155885375388806e-01	 8.656372962387122e-01
 1.668843875398534e+00	 4.307239190530262e-01	 1.326545621407196e+00
 1.664863558234037e+00	 4.458613268665516e-01	 2.252729433273189e+00
 1.706823489783799e+00	 2.963209104964882e-01	 1.117895855714816e+01
 1.704128217703386e+00	 3.114475827216699e-01	 8.814024918901467e+00
 1.701290857125424e+00	 3.265916115857996e-01	 6.734110738401441e+00
 1.698310599417042e+00	 3.417511633939107e-01	 4.942069609008350e+00
 1.695186664467848e+00	 3.569243802010779e-01	 3.436496824276636e+00
 1.691918301421715e+00	 3.721093802936368e-01	 2.212535164093556e+00
 1.688504789401261e+00	 3.873042586939051e-01	 1.347637729014649e+00
 1.684945438224232e+00	 4.025070876883903e-01	 8.961173360128352e-01
 1.681239589110945e+00	 4.177159173794298e-01	 8.554031440766909e-01
 1.677386615382003e+00	 4.329287762601861e-01	 1.219612579115855e+00
 1.673385923145432e+00	 4.481436718128828e-01	 1.979490277152905e+00
 1.715516128733043e+00	 2.978300359017357e-01	 1.031356424610001e+01
 1.712807129968037e+00	 3.130337463799280e-01	 8.212086753179497e+00
 1.709955319066555e+00	 3.282549018922546e-01	 6.360146854837997e+00
 1.706959883277467e+00	 3.434916594049757e-01	 4.758644791503519e+00
 1.703820038517378e+00	 3.587421515108909e-01	 3.403462136110835e+00
 1.700535030106145e+00	 3.740044869130089e-01	 2.288930337208839e+00
 1.697104133495052e+00	 3.892767509318406e-01	 1.491640489480896e+00
 1.693526654986833e+00	 4.045570060362953e-01	 1.043478439792129e+00
 1.689801932446728e+00	 4.198432923981320e-01	 9.363167849704599e-01
 1.685929336003742e+00	 4.351336284698814e-01	 1.157929871968836e+00
 1.681908268741285e+00	 4.504260115861295e-01	 1.691925127703003e+00
 1.724208757831753e+00	 2.993391595968430e-01	 9.376280936280896e+00
 1.721486032397711e+00	 3.146199082407106e-01	 7.588728994810006e+00
 1.718619771189080e+00	 3.299181903137919e-01	 6.008176511156646e+00
 1.715609157336470e+00	 3.452321534435868e-01	 4.632353881836922e+00
 1.712453402783494e+00	 3.605599207606334e-01	 3.453498350174037e+00
 1.709151749026000e+00	 3.758995913846277e-01	 2.465637816293969e+00
 1.705703467843944e+00	 3.912492409342873e-01	 1.738467101449738e+00
 1.702107862025056e+00	 4.066069220609381e-01	 1.285742924704827e+00
 1.698364266079504e+00	 4.219706650057746e-01	 1.094031501944048e+00
 1.694472046944702e+00	 4.373384781807103e-01	 1.145329385541191e+00
 1.690430604679450e+00	 4.527083487727079e-01	 1.416992745544331e+00
 1.732901386930710e+00	 3.008482832918692e-01	 8.384048335876161e+00
 1.730164934827652e+00	 3.162060701013855e-01	 6.940492602328165e+00
 1.727284223311878e+00	 3.315814787351915e-01	 5.659033529229246e+00
 1.724258431395744e+00	 3.469726474820292e-01	 4.533042593575095e+00
 1.721086767049868e+00	 3.623776900101769e-01	 3.550206814007651e+00
 1.717768467946097e+00	 3.777946958560200e-01	 2.704137405681081e+00
 1.714302802193058e+00	 3.932217309364849e-01	 2.052904260152072e+00
 1.710689069063482e+00	 4.086568380853161e-01	 1.595829472911000e+00
 1.706926599712465e+00	 4.240980376131451e-01	 1.314434319149289e+00
 1.703014757885835e+00	 4.395433278912708e-01	 1.185510953033405e+00
 1.698952940617783e+00	 4.549906859590346e-01	 1.181055152660647e+00
 1.741594025880697e+00	 3.023574086968733e-01	 7.353493472580773e+00
 1.738843847093102e+00	 3.177922337593199e-01	 6.264000466605562e+00
 1.735948685253829e+00	 3.332447690412335e-01	 5.293933170941533e+00
 1.732907715256979e+00	 3.487131434925884e-01	 4.431142011022574e+00
 1.729720141100172e+00	 3.641954613193933e-01	 3.657882185045819e+00
 1.726385196631251e+00	 3.796898024747132e-01	 2.966628983898448e+00
 1.722902146287515e+00	 3.951942231736733e-01	 2.400390538964726e+00
 1.719270285826692e+00	 4.107067564324263e-01	 1.947144543436903e+00
 1.715488943048805e+00	 4.262254126310313e-01	 1.583639801411428e+00
 1.711557478508091e+00	 4.417481801001611e-01	 1.282045406782458e+00
 1.707475286214137e+00	 4.572730257315262e-01	 1.009892413123505e+00
 1.750286684532495e+00	 3.038665375219142e-01	 6.300935550708087e+00
 1.747522779029300e+00	 3.193784010118813e-01	 5.555951907492213e+00
 1.744613166833812e+00	 3.349080631166978e-01	 4.894458601478756e+00
 1.741557018721864e+00	 3.504536434475494e-01	 4.297649359506797e+00
 1.738353534718078e+00	 3.660132367481540e-01	 3.741489860129579e+00
 1.735001944846279e+00	 3.815849133882341e-01	 3.216013980204655e+00
 1.731501509872435e+00	 3.971667198810918e-01	 2.746999654260668e+00
 1.727851522039264e+00	 4.127566794252661e-01	 2.313569816571716e+00
 1.724051305791712e+00	 4.283527924702203e-01	 1.887984074876112e+00
 1.720100218492421e+00	 4.439530373059796e-01	 1.438377575787548e+00
 1.715997651126365e+00	 4.595553706765994e-01	 9.287170104706577e-01
 1.758979372736888e+00	 3.053756714770509e-01	 5.242390584569018e+00
 1.756201740471491e+00	 3.209645736564372e-01	 4.813117247963271e+00
 1.753277677870706e+00	 3.365713628463647e-01	 4.442547661487347e+00
 1.750206351592092e+00	 3.521941493191978e-01	 4.104109245664699e+00
 1.746986957687255e+00	 3.678310183563307e-01	 3.766643965561318e+00
 1.743618722355998e+00	 3.834800307441098e-01	 3.415877431868159e+00
 1.740100902692939e+00	 3.991392232939802e-01	 3.059424259936557e+00
 1.736432787425782e+00	 4.148066093868323e-01	 2.669450045546287e+00
 1.732613697644382e+00	 4.304801795414998e-01	 2.214019061052967e+00
 1.728642987519778e+00	 4.461579020073241e-01	 1.657829231134059e+00
 1.724520045012323e+00	 4.618377233806708e-01	 9.621878358013030e-01
 1.767672100344656e+00	 3.068848122723423e-01	 4.193575815757121e+00
 1.764880741254913e+00	 3.225507534903543e-01	 4.032332462939861e+00
 1.761942228183390e+00	 3.382346701150138e-01	 3.920479937238007e+00
 1.758855723669352e+00	 3.539346630798190e-01	 3.822595351247719e+00
 1.755620419791376e+00	 3.696488082037950e-01	 3.699585888053957e+00
 1.752235538925222e+00	 3.853751566898675e-01	 3.530470602046710e+00
 1.748700334494149e+00	 4.011117356475780e-01	 3.304960253244527e+00
 1.745014091710825e+00	 4.168565486401224e-01	 2.989581301370649e+00
 1.741176128310005e+00	 4.326075762556573e-01	 2.548506916857624e+00
 1.737185795271111e+00	 4.483627767027928e-01	 1.943601981128583e+00
 1.733042477529863e+00	 4.641200864301568e-01	 1.134423800095236e+00
 1.647818731833210e+00	 4.412966111089680e-01	 2.645319404329398e+00
 1.643733151977962e+00	 4.562790661767426e-01	 3.778376217916342e+00
 1.639501042591871e+00	 4.712595443241352e-01	 4.647363937178715e+00
 1.635121921820524e+00	 4.862360264949822e-01	 5.245298783214448e+00
 1.630595342686944e+00	 5.012064755825806e-01	 5.565118541691010e+00
 1.625920893701830e+00	 5.161688371304689e-01	 5.599699139528481e+00
 1.621098199458452e+00	 5.311210400547071e-01	 5.341872587699960e+00
 1.616126921211349e+00	 5.460609973873246e-01	 4.784446218235642e+00
 1.611006757438059e+00	 5.609866070405668e-01	 3.920223123656212e+00
 1.605737444383062e+00	 5.758957525915405e-01	 2.742023686998547e+00
 1.600318756583150e+00	 5.907863040868249e-01	 1.242708070492502e+00
 1.656341164349248e+00	 4.435789741607188e-01	 2.484071898091680e+00
 1.652234454088311e+00	 4.586389177044359e-01	 3.610742765801549e+00
 1.647980456453456e+00	 4.736968741032095e-01	 4.446841615618810e+00
 1.643578687098146e+00	 4.887508138584320e-01	 4.987047061353499e+00
 1.639028696733660e+00	 5.037986893275994e-01	 5.227880880579694e+00
 1.634330071742502e+00	 5.188384354287178e-01	 5.167752811377128e+00
 1.629482434776356e+00	 5.338679703663182e-01	 4.807004699278774e+00
 1.624485445337789e+00	 5.488851963787497e-01	 4.147953837558376e+00
 1.619338800344882e+00	 5.638880005063789e-01	 3.194935325574671e+00
 1.614042234677985e+00	 5.788742553802928e-01	 1.954343251497297e+00
 1.608595521707807e+00	 5.938418200310728e-01	 4.346704875344608e-01
 1.664863558234037e+00	 4.458613268665516e-01	 2.252729433273189e+00
 1.660735717663242e+00	 4.609987585349868e-01	 3.268051742939838e+00
 1.656459831878910e+00	 4.761341928339932e-01	 3.994427364958331e+00
 1.652035414042385e+00	 4.912655898225607e-01	 4.428489220973926e+00
 1.647462012553212e+00	 5.063908913224280e-01	 4.570272811510287e+00
 1.642739211665698e+00	 5.215080216261104e-01	 4.423283272533954e+00
 1.637866632089948e+00	 5.366148882266542e-01	 3.994560152002698e+00
 1.632843931576560e+00	 5.517093825687712e-01	 3.294739680996528e+00
 1.627670805484157e+00	 5.667893808209925e-01	 2.338114296636832e+00
 1.622346987328963e+00	 5.818527446684303e-01	 1.142689156812189e+00
 1.616872249315604e+00	 5.968973221257119e-01	-2.697646300875331e-01
 1.673385923145432e+00	 4.481436718128828e-01	 1.979490277152905e+00
 1.669236952336652e+00	 4.633585913426253e-01	 2.802347462406285e+00
 1.664939178477311e+00	 4.785715032785140e-01	 3.360353404920954e+00
 1.660492112236637e+00	 4.937803572371674e-01	 3.652376723042634e+00
 1.655895299702445e+00	 5.089830845045967e-01	 3.681889553582531e+00
 1.651148323000847e+00	 5.241775987478600e-01	 3.457050964849567e+00
 1.646250800900371e+00	 5.393617967485482e-01	 2.990786842360910e+00
 1.641202389399645e+00	 5.545335591577688e-01	 2.300865969585499e+00
 1.636002782297841e+00	 5.696907512722504e-01	 1.409972009289928e+00
 1.630651711747051e+00	 5.848312238311610e-01	 3.457710746091083e-01
 1.625148948785818e+00	 5.999528138332071e-01	-8.590254369723934e-01
 1.681908268741285e+00	 4.504260115861295e-01	 1.691925127703003e+00
 1.677738167742438e+00	 4.657184188015822e-01	 2.264562792514481e+00
 1.673418505857737e+00	 4.810088081988005e-01	 2.613371669059611e+00
 1.668948791264298e+00	 4.962951189520506e-01	 2.739727135687545e+00
 1.664328567738204e+00	 5.115752718116370e-01	 2.650454187414317e+00
 1.659557415277376e+00	 5.268471698191787e-01	 2.357921357863280e+00
 1.654634950708765e+00	 5.421086990448331e-01	 1.880130246779896e+00
 1.649560828279031e+00	 5.573577293461230e-01	 1.240800339401380e+00
 1.644334740227887e+00	 5.725921151479938e-01	 4.694487873682193e-01
 1.638956417343301e+00	 5.878096962436918e-01	-3.985351953025833e-01
 1.633425629497728e+00	 6.030082986160218e-01	-1.321821683228227e+00
 1.690430604679450e+00	 4.527083487727079e-01	 1.416992745544328e+00
 1.686239373514498e+00	 4.680782435860881e-01	 1.704547128125426e+00
 1.681897823629267e+00	 4.834461103568807e-01	 1.820791221705849e+00
 1.677405460708763e+00	 4.988098778170094e-01	 1.769868097645650e+00
 1.672761826217336e+00	 5.141674561810792e-01	 1.561865262429972e+00
 1.667966498024715e+00	 5.295167378652795e-01	 1.212913295695343e+00
 1.663019091016273e+00	 5.448555982283418e-01	 7.452796042726078e-01
 1.657919257686699e+00	 5.601818963342132e-01	 1.874569585019551e-01
 1.652666688716252e+00	 5.754934757360649e-01	-4.257535397386224e-01
 1.647261113528766e+00	 5.907881652812301e-01	-1.053165424199484e+00
 1.641702300830611e+00	 6.060637799366203e-01	-1.647136149223194e+00
 1.698952940617783e+00	 4.549906859590346e-01	 1.181055152660646e+00
 1.694740579286728e+00	 4.704380683703731e-01	 1.171093557399615e+00
 1.690377141400980e+00	 4.858834125147833e-01	 1.048514586861489e+00
 1.685862130153426e+00	 5.013246366818425e-01	 8.204799981297346e-01
 1.681195084696685e+00	 5.167596405504542e-01	 5.002430131225113e-01
 1.676375580772290e+00	 5.321863059113747e-01	 1.072459335908218e-01
 1.671403231324035e+00	 5.476024974119074e-01	-3.327872424772983e-01
 1.666277687094635e+00	 5.630060633224198e-01	-7.877635408839399e-01
 1.660998637204889e+00	 5.783948363243064e-01	-1.219139422966102e+00
 1.655565809714499e+00	 5.937666343189831e-01	-1.581845261329112e+00
 1.649978972163745e+00	 6.091192612574668e-01	-1.824216268171533e+00
 1.707475286214137e+00	 4.572730257315262e-01	 1.009892413123505e+00
 1.703241794693026e+00	 4.727978958286677e-01	 7.119652523163063e-01
 1.698856468781952e+00	 4.883207174345360e-01	 3.610730273401888e-01
 1.694318809181683e+00	 5.038393983963487e-01	-3.236258169204165e-02
 1.689628352733099e+00	 5.193518278572928e-01	-4.520257667290351e-01
 1.684784673049533e+00	 5.348558769826773e-01	-8.756156862178551e-01
 1.679787381133194e+00	 5.503493997083625e-01	-1.274760300342463e+00
 1.674636125974823e+00	 5.658302335111224e-01	-1.614935273178063e+00
 1.669330595135754e+00	 5.812962002005597e-01	-1.855388286367222e+00
 1.663870515311554e+00	 5.967451067321586e-01	-1.949069127003905e+00
 1.658255652876409e+00	 6.121747460410251e-01	-1.842565929876250e+00
 1.715997651126365e+00	 4.595553706765994e-01	 9.287170104706586e-01
 1.711743029367289e+00	 4.751577286352023e-01	 3.739211101532101e-01
 1.707335815381264e+00	 4.907580278781677e-01	-1.783391890647161e-01
 1.702775507376929e+00	 5.063541658103270e-01	-7.141506222160059e-01
 1.698061639883421e+00	 5.219440210391257e-01	-1.214244144862999e+00
 1.693193784385869e+00	 5.375254541043998e-01	-1.653916371645532e+00
 1.688171549944891e+00	 5.530963082305402e-01	-2.002955127924784e+00
 1.682994583799245e+00	 5.686544101007009e-01	-2.225569413210461e+00
 1.677662571950802e+00	 5.841975706526670e-01	-2.280324095003809e+00
 1.672175239730982e+00	 5.997235858959632e-01	-2.120079671315204e+00
 1.666532352347879e+00	 6.152302377497595e-01	-1.691937459215478e+00
 1.724520045012323e+00	 4.618377233806708e-01	 9.621878358013054e-01
 1.720244292943415e+00	 4.775175694642075e-01	 2.027406720403065e-01
 1.715815190807992e+00	 4.931953466077065e-01	-5.078315010705095e-01
 1.711232234322559e+00	 5.088689417735761e-01	-1.151901572258069e+00
 1.706494955704498e+00	 5.245362230334839e-01	-1.707362721204235e+00
 1.701602924310728e+00	 5.401950403017549e-01	-2.147567785099717e+00
 1.696555747260267e+00	 5.558432260912735e-01	-2.441271743111457e+00
 1.691353070039889e+00	 5.714785962915360e-01	-2.552577574431959e+00
 1.685994577091986e+00	 5.870989509684701e-01	-2.440885767385728e+00
 1.680479992383838e+00	 6.027020751856048e-01	-2.060847778691169e+00
 1.674809079957435e+00	 6.182857398461339e-01	-1.362323763208724e+00
 1.733042477529863e+00	 4.641200864301568e-01	 1.134423800095236e+00
 1.728745595055301e+00	 4.798774209899135e-01	 2.432483436680156e-01
 1.724294604671216e+00	 4.956326763851802e-01	-5.667847091359106e-01
 1.719688999601968e+00	 5.113837291358949e-01	-1.274121369229785e+00
 1.714928309753177e+00	 5.271284367778979e-01	-1.853938505031227e+00
 1.710012102353537e+00	 5.428646385999550e-01	-2.278106671059851e+00
 1.704939982580465e+00	 5.585901564033950e-01	-2.515154694174993e+00
 1.699711594168736e+00	 5.743027952840064e-01	-2.530236214620267e+00
 1.694326620001263e+00	 5.900003444358111e-01	-2.285098403114846e+00
 1.688784782681174e+00	 6.056805779762906e-01	-1.738053099304570e+00
 1.683085845084354e+00	 6.213412557926126e-01	-8.439506407413554e-01
 1.600318756583150e+00	 5.907863040868249e-01	 1.242708070492501e+00
 1.594749547809442e+00	 6.056586448851704e-01	-2.742051201333434e-01
 1.589030578234766e+00	 6.205080855838191e-01	-1.512463009497336e+00
 1.583161739102190e+00	 6.353324588153144e-01	-2.491043036624407e+00
 1.577142961876711e+00	 6.501295870550968e-01	-3.229075487516120e+00
 1.570974218667745e+00	 6.648972835192715e-01	-3.745809336094997e+00
 1.564655522628555e+00	 6.796333530791189e-01	-4.060577954622829e+00
 1.558186928331899e+00	 6.943355931916823e-01	-4.192764963404713e+00
 1.551568532121260e+00	 7.090017948457507e-01	-4.161770504449144e+00
 1.544800472436973e+00	 7.236297435225104e-01	-3.986978237018753e+00
 1.537882930116643e+00	 7.382172201701207e-01	-3.687723364500477e+00
 1.608595521707807e+00	 5.938418200310728e-01	 4.346704875344608e-01
 1.602997509277234e+00	 6.087910798001855e-01	-1.059123112589611e+00
 1.597248961490656e+00	 6.237173210315192e-01	-2.241209557196785e+00
 1.591349769028650e+00	 6.386183651480929e-01	-3.132281835751529e+00
 1.585299863001743e+00	 6.534920233632905e-01	-3.754672184839148e+00
 1.579099215375095e+00	 6.683360975832727e-01	-4.132331445959952e+00
 1.572747839369985e+00	 6.831483813262159e-01	-4.290806380412905e+00
 1.566245789841413e+00	 6.979266606577132e-01	-4.257215170153886e+00
 1.559593163631132e+00	 7.126687151416503e-01	-4.060221351917203e+00
 1.552790099895475e+00	 7.273723188058236e-01	-3.730006448816316e+00
 1.545836780407322e+00	 7.420352411215599e-01	-3.298448781821536e+00
 1.616872249315604e+00	 5.968973221257119e-01	-2.697646300875323e-01
 1.611245433358750e+00	 6.119235005170082e-01	-1.617768088678959e+00
 1.605467307494346e+00	 6.269265419329606e-01	-2.648778836758431e+00
 1.599537761840478e+00	 6.419042565871179e-01	-3.384472903551241e+00
 1.593456727153211e+00	 6.568544444308595e-01	-3.849354842753268e+00
 1.587224175253451e+00	 6.717748960604545e-01	-4.070748059160884e+00
 1.580840119430500e+00	 6.866633936410271e-01	-4.078781548509856e+00
 1.574304614821597e+00	 7.015177118467740e-01	-3.906373248292130e+00
 1.567617758766773e+00	 7.163356188167297e-01	-3.589210218731449e+00
 1.560779691138358e+00	 7.311148771253555e-01	-3.165725893117915e+00
 1.553790594644505e+00	 7.458532447671977e-01	-2.680033836468793e+00
 1.625148948785818e+00	 5.999528138332071e-01	-8.590254369723912e-01
 1.619493329400616e+00	 6.150559105852523e-01	-1.966335430791016e+00
 1.613685625558930e+00	 6.301357519247762e-01	-2.774766378954174e+00
 1.607725726816363e+00	 6.451901368558953e-01	-3.306257357811965e+00
 1.601613563574521e+00	 6.602168540680251e-01	-3.586471252642440e+00
 1.595349107510062e+00	 6.752136828475820e-01	-3.644793526686007e+00
 1.588932371980313e+00	 6.901783940066796e-01	-3.514326224985042e+00
 1.582363412404756e+00	 7.051087508281577e-01	-3.231877389426300e+00
 1.575642326621699e+00	 7.200025100262405e-01	-2.837946085274978e+00
 1.568769255219473e+00	 7.348574227220940e-01	-2.376703262031863e+00
 1.561744381841501e+00	 7.496712354335255e-01	-1.904472145802383e+00
 1.633425629497728e+00	 6.030082986160218e-01	-1.321821683228227e+00
 1.627741206749456e+00	 6.181883135545332e-01	-2.120736815131433e+00
 1.621903924997503e+00	 6.333449546435992e-01	-2.658006974364761e+00
 1.615913673234995e+00	 6.484760096779303e-01	-2.955126583118495e+00
 1.609770381509082e+00	 6.635792560850070e-01	-3.037918233145072e+00
 1.603474021352178e+00	 6.786524618414203e-01	-2.936537391843500e+00
 1.597024606189638e+00	 6.936933864063001e-01	-2.685471527247296e+00
 1.590422191723191e+00	 7.086997816711573e-01	-2.323533816627445e+00
 1.583666876289425e+00	 7.236693929254333e-01	-1.893851629261726e+00
 1.576758801192669e+00	 7.385999598370276e-01	-1.443849998429695e+00
 1.569698151011624e+00	 7.534892174470363e-01	-1.041529076764987e+00
 1.641702300830611e+00	 6.060637799366203e-01	-1.647136149223196e+00
 1.635989074751892e+00	 6.213207129744660e-01	-2.096605704716003e+00
 1.630122215123158e+00	 6.365541537260619e-01	-2.336591992936655e+00
 1.624101610375062e+00	 6.517618787767294e-01	-2.387449151663154e+00
 1.617927190200303e+00	 6.669416542920266e-01	-2.274175934881820e+00
 1.611598925987050e+00	 6.820912369387343e-01	-2.026423871148496e+00
 1.605116831228692e+00	 6.972083748230155e-01	-1.678499384533106e+00
 1.598480961909206e+00	 7.122908084450653e-01	-1.269360040797668e+00
 1.591691416863465e+00	 7.273362716695597e-01	-8.426051087208928e-01
 1.584748338111799e+00	 7.423424927111454e-01	-4.467029969964720e-01
 1.577651911168186e+00	 7.573071951342214e-01	-1.595418246980336e-01
 1.649978972163745e+00	 6.091192612574668e-01	-1.824216268171534e+00
 1.644236942754549e+00	 6.244531123946657e-01	-1.909302600557514e+00
 1.638340505248992e+00	 6.397633528087979e-01	-1.847886099723685e+00
 1.632289547515254e+00	 6.550477478757979e-01	-1.658496845679903e+00
 1.626083998891588e+00	 6.703040524993036e-01	-1.364341019454277e+00
 1.619723830621925e+00	 6.855300120362899e-01	-9.933100490541265e-01
 1.613209056267688e+00	 7.007233632399521e-01	-5.779836184052387e-01
 1.606539732095105e+00	 7.158818352191755e-01	-1.556267094201940e-01
 1.599715957437335e+00	 7.310031504138707e-01	 2.318191244845542e-01
 1.592737875030714e+00	 7.460850255854347e-01	 5.353116236241855e-01
 1.585605671324500e+00	 7.611251728215738e-01	 6.745450417972773e-01
 1.658255652876409e+00	 6.121747460410251e-01	-1.842565929876248e+00
 1.652484820104049e+00	 6.275855153647469e-01	-1.573920059481700e+00
 1.646558804688096e+00	 6.429725555284406e-01	-1.228543387982113e+00
 1.640477493934259e+00	 6.583336206986412e-01	-8.224698130285839e-01
 1.634240816826348e+00	 6.736664545170594e-01	-3.761587522348611e-01
 1.627848744464055e+00	 6.889687910308514e-01	 8.549716831396692e-02
 1.621301290476840e+00	 7.042383556402374e-01	 5.331703082840564e-01
 1.614598511413189e+00	 7.194728660627809e-01	 9.331019028879886e-01
 1.607740507104548e+00	 7.346700333136170e-01	 1.247111432536891e+00
 1.600727421003264e+00	 7.498275627008844e-01	 1.426132218015864e+00
 1.593559440493879e+00	 7.649431548355849e-01	 1.395145095852247e+00
 1.666532352347879e+00	 6.152302377497595e-01	-1.691937459215478e+00
 1.660732716147017e+00	 6.307179254343253e-01	-1.105287486665671e+00
 1.654777122753566e+00	 6.461817655216219e-01	-5.145229499363044e-01
 1.648665458910769e+00	 6.616195009687654e-01	 6.747911380882132e-02
 1.642397653247990e+00	 6.770288641555141e-01	 6.239459531150421e-01
 1.635973676720688e+00	 6.924075778191846e-01	 1.134205297071182e+00
 1.629393543026364e+00	 7.077533560069982e-01	 1.573686827456104e+00
 1.622657308995762e+00	 7.230639050451743e-01	 1.913928714584311e+00
 1.615765074958621e+00	 7.383369245240503e-01	 2.122588974799746e+00
 1.608716985083301e+00	 7.535701082984831e-01	 2.151650742933190e+00
 1.601513227689634e+00	 7.687611455027475e-01	 1.937996590069084e+00
 1.674809079957435e+00	 6.182857398461339e-01	-1.362323763208727e+00
 1.668980640230075e+00	 6.338503461530152e-01	-5.179757106670766e-01
 1.662995468758496e+00	 6.493909864249758e-01	 2.588960952807136e-01
 1.656853451723470e+00	 6.649053924096762e-01	 9.592209062670293e-01
 1.650554517399921e+00	 6.803912852248885e-01	 1.570838501979725e+00
 1.644098636599075e+00	 6.958463762980542e-01	 2.078501675518592e+00
 1.637485823086475e+00	 7.112683683233613e-01	 2.463883042240117e+00
 1.630716133975127e+00	 7.266549562356488e-01	 2.705585922627368e+00
 1.623789670093067e+00	 7.420038282004217e-01	 2.779054698939635e+00
 1.616706576324676e+00	 7.573126666192189e-01	 2.639245185821011e+00
 1.609467041925078e+00	 7.725791491495535e-01	 2.240129981373006e+00
 1.683085845084354e+00	 6.213412557926126e-01	-8.439506407413546e-01
 1.677228601699849e+00	 6.369827810704320e-01	 1.736986516003071e-01
 1.671213852015979e+00	 6.526002218751347e-01	 1.057100097785009e+00
 1.665041481651053e+00	 6.681912987448789e-01	 1.801627607876011e+00
 1.658711418525549e+00	 6.837537215354029e-01	 2.400645563003470e+00
 1.652223633306464e+00	 6.992851903642255e-01	 2.845519980155304e+00
 1.645578139827386e+00	 7.147833965724529e-01	 3.125632700899640e+00
 1.638774995483586e+00	 7.302460237034971e-01	 3.228398309388416e+00
 1.631814301601403e+00	 7.456707484979819e-01	 3.137917565160970e+00
 1.624696203781240e+00	 7.610552419040804e-01	 2.817743295350697e+00
 1.617420892213523e+00	 7.763971701024949e-01	 2.239836408759009e+00
 1.537882930116643e+00	 7.382172201701207e-01	-3.687723364500477e+00
 1.530817342383143e+00	 7.527595334762179e-01	-3.392307368688925e+00
 1.523602811473945e+00	 7.672569418828201e-01	-3.205698500780518e+00
 1.516239645717194e+00	 7.817072190453502e-01	-3.088876272948664e+00
 1.508728196747882e+00	 7.961081380806593e-01	-3.000836551054875e+00
 1.501068859672164e+00	 8.104574725985342e-01	-2.899405818628537e+00
 1.493262073202777e+00	 8.247529977420973e-01	-2.741295063577522e+00
 1.485308319765139e+00	 8.389924912361780e-01	-2.482156645922531e+00
 1.477208125573723e+00	 8.531737344426989e-01	-2.074009839388478e+00
 1.468962060678353e+00	 8.672945134221165e-01	-1.456363880920511e+00
 1.460570738980083e+00	 8.813526199999246e-01	-5.802978005790012e-01
 1.545836780407322e+00	 7.420352411215599e-01	-3.298448781821536e+00
 1.538734649822780e+00	 7.566527665132639e-01	-2.902838687597918e+00
 1.531482805736143e+00	 7.712251547596105e-01	-2.624257750765381e+00
 1.524081558070217e+00	 7.857501680014974e-01	-2.423169191007332e+00
 1.516531260278639e+00	 8.002255678384668e-01	-2.258709209818321e+00
 1.508832309511039e+00	 8.146491163655438e-01	-2.088738371786430e+00
 1.500985146749157e+00	 8.290185772190212e-01	-1.869896247710761e+00
 1.492990256913498e+00	 8.433317166302503e-01	-1.557659242096295e+00
 1.484848168940095e+00	 8.575863044864871e-01	-1.106401513728377e+00
 1.476559455827043e+00	 8.717801153978217e-01	-4.660426186822447e-01
 1.468124734650470e+00	 8.859109297691988e-01	 4.252996292670721e-01
 1.553790594644505e+00	 7.458532447671977e-01	-2.680033836468794e+00
 1.546651921374522e+00	 7.605459819035407e-01	-2.260445273667411e+00
 1.539362764279550e+00	 7.751933496497118e-01	-1.956200390999436e+00
 1.531923434877050e+00	 7.897930986321384e-01	-1.728753816833977e+00
 1.524334288439294e+00	 8.043429789331048e-01	-1.538179724216693e+00
 1.516595724159373e+00	 8.188407411329298e-01	-1.343223002255596e+00
 1.508708185288027e+00	 8.332841373611287e-01	-1.101353811511952e+00
 1.500672159240829e+00	 8.476709223556291e-01	-7.688254460028530e-01
 1.492488177675361e+00	 8.619988545290729e-01	-3.007354101024298e-01
 1.484156816537980e+00	 8.762656970412377e-01	 3.489103955615753e-01
 1.475678696079867e+00	 8.904692188765717e-01	 1.231743540467553e+00
 1.561744381841501e+00	 7.496712354335255e-01	-1.904472145802385e+00
 1.554569166010277e+00	 7.644391840587833e-01	-1.523752277624616e+00
 1.547242696033798e+00	 7.791615310498432e-01	-1.248259131594853e+00
 1.539765285024175e+00	 7.938360155187009e-01	-1.041167950039329e+00
 1.532137290072307e+00	 8.084603760304231e-01	-8.642728849501322e-01
 1.524359112414744e+00	 8.230323516506624e-01	-6.780372041934877e-01
 1.516431197571211e+00	 8.375496830021967e-01	-4.416469230994589e-01
 1.508354035452344e+00	 8.520101133295683e-01	-1.130677844658534e-01
 1.500128160437264e+00	 8.664113895708461e-01	 3.508945046312437e-01
 1.491754151420574e+00	 8.807512634355336e-01	 9.945308853373893e-01
 1.483232631828501e+00	 8.950274924876223e-01	 1.863162529242904e+00
 1.569698151011624e+00	 7.534892174470363e-01	-1.041529076764989e+00
 1.562486392701951e+00	 7.683323773907269e-01	-7.501747164215431e-01
 1.555122609928514e+00	 7.831297034567219e-01	-5.461968843444416e-01
 1.547607117398071e+00	 7.978789232426116e-01	-3.952058808194472e-01
 1.539940274020142e+00	 8.125777637962718e-01	-2.614825257280601e-01
 1.532122483074731e+00	 8.272239526687130e-01	-1.080266515291763e-01
 1.524154192350537e+00	 8.418152189760019e-01	 1.033910171144148e-01
 1.516035894253259e+00	 8.563492944693228e-01	 4.121736732486201e-01
 1.507768125883542e+00	 8.708239146121964e-01	 8.588400180655968e-01
 1.499351469084235e+00	 8.852368196638790e-01	 1.484962737526052e+00
 1.490786550456598e+00	 8.995857557679301e-01	 2.333103985278691e+00
 1.577651911168186e+00	 7.573071951342214e-01	-1.595418246980312e-01
 1.570403610421449e+00	 7.722255663111065e-01	 4.052291085243187e-03
 1.563002514893328e+00	 7.870978713670665e-01	 1.051690451680541e-01
 1.555448940885220e+00	 8.019218263852984e-01	 1.750631051174374e-01
 1.547743249125264e+00	 8.166951468964999e-01	 2.462153106250862e-01
 1.539885844936908e+00	 8.314155489370509e-01	 3.522866346978246e-01
 1.531877178377833e+00	 8.460807501163210e-01	 5.280688763859649e-01
 1.523717744348785e+00	 8.606884706921472e-01	 8.094321600942305e-01
 1.515408082671938e+00	 8.752364346535142e-01	 1.233269331331217e+00
 1.506948778138374e+00	 8.897223708094435e-01	 1.837437353431869e+00
 1.498340460524385e+00	 9.041440138830750e-01	 2.660695824244370e+00
 1.585605671324500e+00	 7.611251728215738e-01	 6.745450417972758e-01
 1.578320828140682e+00	 7.761187552316575e-01	 6.838441921002476e-01
 1.570882419857871e+00	 7.910660392775954e-01	 6.619434852716233e-01
 1.563290764372101e+00	 8.059647295281894e-01	 6.362767684068281e-01
 1.555546224230132e+00	 8.208125299969571e-01	 6.353495903722266e-01
 1.547649206798856e+00	 8.356071452056480e-01	 6.886963511371382e-01
 1.539600164404925e+00	 8.503462812569315e-01	 8.268343796161286e-01
 1.531399594444139e+00	 8.650276469152958e-01	 1.081215013574007e+00
 1.523048039460192e+00	 8.796489546951893e-01	 1.484171769816093e+00
 1.514546087192402e+00	 8.942079219553957e-01	 2.068865707413932e+00
 1.505894370592088e+00	 9.087022719986346e-01	 2.869228101021135e+00
 1.593559440493879e+00	 7.649431548355849e-01	 1.395145095852248e+00
 1.586238054831554e+00	 7.800119485641144e-01	 1.235238539701440e+00
 1.578762333751769e+00	 7.950342116850261e-01	 1.081130620397512e+00
 1.571132596745197e+00	 8.100076372527115e-01	 9.557624854264110e-01
 1.563349208177210e+00	 8.249299177634930e-01	 8.829418778496265e-01
 1.555412577458151e+00	 8.397987462244746e-01	 8.873042008952088e-01
 1.547323159183641e+00	 8.546118172316092e-01	 9.942707861725451e-01
 1.539081453244534e+00	 8.693668280560232e-01	 1.230004437226876e+00
 1.530688004906044e+00	 8.840614797376110e-01	 1.621362334521002e+00
 1.522143404855727e+00	 8.986934781849051e-01	 2.195846402158838e+00
 1.513448289219931e+00	 9.132605352801891e-01	 2.981551250659991e+00
 1.601513227689634e+00	 7.687611455027475e-01	 1.937996590069084e+00
 1.594155299465974e+00	 7.839051507202124e-01	 1.605367373975610e+00
 1.586642265504654e+00	 7.990023930860769e-01	 1.320611883439157e+00
 1.578974446890986e+00	 8.140505541402923e-01	 1.101520326766511e+00
 1.571152209808963e+00	 8.290473148619573e-01	 9.664942822558769e-01
 1.563175965712369e+00	 8.439903567435010e-01	 9.345123984304755e-01
 1.555046171465808e+00	 8.588773628741321e-01	 1.025093650516177e+00
 1.546763329455181e+00	 8.737060190315838e-01	 1.258258222700209e+00
 1.538327987667236e+00	 8.884740147811697e-01	 1.654486099629108e+00
 1.529740739737763e+00	 9.031790445811413e-01	 2.234673464377902e+00
 1.521002224968144e+00	 9.178188088933179e-01	 3.020087013655507e+00
 1.609467041925078e+00	 7.725791491495535e-01	 2.240129981373006e+00
 1.602072571015848e+00	 7.877983661116872e-01	 1.742430415164254e+00
 1.594522224046154e+00	 8.029705879774656e-01	 1.339124494933599e+00
 1.586816323695951e+00	 8.180934847723598e-01	 1.042206627036556e+00
 1.578955237967851e+00	 8.331647259582001e-01	 8.639777497761776e-01
 1.570939380359091e+00	 8.481819815126986e-01	 8.170163830442931e-01
 1.562769210003252e+00	 8.631429230182764e-01	 9.141476637111241e-01
 1.554445231781298e+00	 8.780452247592319e-01	 1.168410433779332e+00
 1.545967996401508e+00	 8.928865648262553e-01	 1.593022461644397e+00
 1.537338100447917e+00	 9.076646262272738e-01	 2.201343889968711e+00
 1.528556186396950e+00	 9.223770980035991e-01	 3.006839016599600e+00
 1.617420892213523e+00	 7.763971701024949e-01	 2.239836408759011e+00
 1.609989878453082e+00	 7.916915991502730e-01	 1.595669040671387e+00
 1.602402218305899e+00	 8.069388008559107e-01	 1.096240626641153e+00
 1.594658236046571e+00	 8.221364337303407e-01	 7.471180289736168e-01
 1.586758301496337e+00	 8.372821557180704e-01	 5.538206890693044e-01
 1.578702830195891e+00	 8.523736252820372e-01	 5.217977337344393e-01
 1.570492283547801e+00	 8.674085024978190e-01	 6.564035730111748e-01
 1.562127168928098e+00	 8.823844501562221e-01	 9.628720536898563e-01
 1.553608039766600e+00	 8.972991348732569e-01	 1.446289245241550e+00
 1.544935495595602e+00	 9.121502282064712e-01	 2.111564947322427e+00
 1.536110182066576e+00	 9.269354077766122e-01	 2.963403020158478e+00
 1.460570738980083e+00	 8.813526199999246e-01	-5.802978005790010e-01
 1.452034818569231e+00	 8.953458531161863e-01	 4.265826162238615e-01
 1.443355002732013e+00	 9.092720207533125e-01	 1.393069593244054e+00
 1.434532038803360e+00	 9.231289402045261e-01	 2.299963680197517e+00
 1.425566717702133e+00	 9.369144388747375e-01	 3.126910253480811e+00
 1.416459873789150e+00	 9.506263553558497e-01	 3.852434985531833e+00
 1.407212384693646e+00	 9.642625405008262e-01	 4.453983628117819e+00
 1.397825171108125e+00	 9.778208584954495e-01	 4.907966018175459e+00
 1.388299196551591e+00	 9.912991879267010e-01	 5.189804193807482e+00
 1.378635467101188e+00	 1.004695422846675e+00	 5.273984487308302e+00
 1.368835031092330e+00	 1.018007473830945e+00	 5.134113441774383e+00
 1.468124734650470e+00	 8.859109297691988e-01	 4.252996292670721e-01
 1.459544666904305e+00	 8.999765351569259e-01	 1.434536855022737e+00
 1.450819959512134e+00	 9.139747282064182e-01	 2.383522591079301e+00
 1.441951363674070e+00	 9.279033149220556e-01	 3.254426057002132e+00
 1.432939674399574e+00	 9.417601114722038e-01	 4.028876975152961e+00
 1.423785730364742e+00	 9.555429452700802e-01	 4.688003242073135e+00
 1.414490413737870e+00	 9.692496560533729e-01	 5.212472139051255e+00
 1.405054649973241e+00	 9.828780969615490e-01	 5.582534979349585e+00
 1.395479407573138e+00	 9.964261356097552e-01	 5.778075069636168e+00
 1.385765697818091e+00	 1.009891655158237e+00	 5.778658843570510e+00
 1.375914574465458e+00	 1.023272555376175e+00	 5.563590006350751e+00
 1.475678696079867e+00	 8.904692188765717e-01	 1.231743540467553e+00
 1.467054481198550e+00	 9.046071962076796e-01	 2.222851659824697e+00
 1.458284882454965e+00	 9.186774143430325e-01	 3.141400845503497e+00
 1.449370654914387e+00	 9.326776679982201e-01	 3.970806129218594e+00
 1.440312597676858e+00	 9.466057621051132e-01	 4.694448619367849e+00
 1.431111553733727e+00	 9.604595128982916e-01	 5.295714894871178e+00
 1.421768409792328e+00	 9.742367490002224e-01	 5.758039316050560e+00
 1.412284096068702e+00	 9.879353125041045e-01	 6.064949140702656e+00
 1.402659586048385e+00	 1.001553060053302e+00	 6.200112314382283e+00
 1.392895896215265e+00	 1.015087863916258e+00	 6.147387785146934e+00
 1.382994085748618e+00	 1.028537613055813e+00	 5.890878174738805e+00
 1.483232631828501e+00	 8.950274924876223e-01	 1.863162529242904e+00
 1.474564269962160e+00	 9.092378415160540e-01	 2.821767462922897e+00
 1.465749780019818e+00	 9.233800844923938e-01	 3.701104418557354e+00
 1.456789920931904e+00	 9.374520048434779e-01	 4.486128326144875e+00
 1.447685495889017e+00	 9.514513962647224e-01	 5.161741675310727e+00
 1.438437352197751e+00	 9.653760638121085e-01	 5.713250280491255e+00
 1.429046381104456e+00	 9.792238249929172e-01	 6.126406369017712e+00
 1.419513517586915e+00	 9.929925108541201e-01	 6.387453996209835e+00
 1.409839740113895e+00	 1.006679967067332e+00	 6.483176649483527e+00
 1.400026070372627e+00	 1.020284055009235e+00	 6.400946885240758e+00
 1.390073572964280e+00	 1.033802652836363e+00	 6.128777824593690e+00
 1.490786550456598e+00	 8.995857557679301e-01	 2.333103985278691e+00
 1.482074041705324e+00	 9.138684763296547e-01	 3.260856726217403e+00
 1.473214660666004e+00	 9.280827439837377e-01	 4.096326477942362e+00
 1.464209170134208e+00	 9.422263308682883e-01	 4.836657205261819e+00
 1.455058377391087e+00	 9.562970194422910e-01	 5.468090926301801e+00
 1.445763134058461e+00	 9.702926035831553e-01	 5.977517255814648e+00
 1.436324335921691e+00	 9.842108896830017e-01	 6.352562208407688e+00
 1.426742922720285e+00	 9.980496977425981e-01	 6.581633745506274e+00
 1.417019877906233e+00	 1.011806862461838e+00	 6.653969179799771e+00
 1.407156228370093e+00	 1.025480234325661e+00	 6.559684275659403e+00
 1.397153044134917e+00	 1.039067680684324e+00	 6.289823866554605e+00
 1.498340460524385e+00	 9.041440138830750e-01	 2.660695824244370e+00
 1.489583804938235e+00	 9.184991058960881e-01	 3.560704055725108e+00
 1.480679532852836e+00	 9.327853981463010e-01	 4.360070878432883e+00
 1.471628410928892e+00	 9.470006514831086e-01	 5.057916384230046e+00
 1.462431250538099e+00	 9.611426371290773e-01	 5.650068948470577e+00
 1.453088907617503e+00	 9.752091377830566e-01	 6.124670481587508e+00
 1.443602282491466e+00	 9.891979487220194e-01	 6.470781734544728e+00
 1.433972319661219e+00	 1.003106878900542e+00	 6.678427813151430e+00
 1.424200007561964e+00	 1.016933752046808e+00	 6.738645370886907e+00
 1.414286378287581e+00	 1.030676407754032e+00	 6.643531314634049e+00
 1.404232507283000e+00	 1.044332702566201e+00	 6.386292840211835e+00
 1.505894370592088e+00	 9.087022719986346e-01	 2.869228101021135e+00
 1.497093568171084e+00	 9.231297354629593e-01	 3.743660802143381e+00
 1.488144405039622e+00	 9.374880523093198e-01	 4.519136330835185e+00
 1.479047651723543e+00	 9.517749720983979e-01	 5.184706894980276e+00
 1.469804123685088e+00	 9.659882548163403e-01	 5.743505014602560e+00
 1.460414681176524e+00	 9.801256719834367e-01	 6.190130117939828e+00
 1.450880229061219e+00	 9.941850077615138e-01	 6.514643569341917e+00
 1.441201716602122e+00	 1.008164060058956e+00	 6.708146864266372e+00
 1.431380137217650e+00	 1.022060641632236e+00	 6.762828600031787e+00
 1.421416528205009e+00	 1.035872581182843e+00	 6.672012929068557e+00
 1.411311970431000e+00	 1.049597724448495e+00	 6.430209308298221e+00
 1.513448289219931e+00	 9.132605352801891e-01	 2.981551250659991e+00
 1.504603339914063e+00	 9.277603702778745e-01	 3.837859259202865e+00
 1.495609285685678e+00	 9.421907118020318e-01	 4.597095595204086e+00
 1.486466900925753e+00	 9.565492981246134e-01	 5.248187129903020e+00
 1.477177005187087e+00	 9.708338779953380e-01	 5.783503424083765e+00
 1.467740463037171e+00	 9.850422117559205e-01	 6.208599952560245e+00
 1.458158183878383e+00	 9.991720724530285e-01	 6.517047250040913e+00
 1.448431121735399e+00	 1.013221246948842e+00	 6.700488334262576e+00
 1.438560275009860e+00	 1.027187537028112e+00	 6.751623296042760e+00
 1.428546686202294e+00	 1.041068760500588e+00	 6.664257642670691e+00
 1.418391441601388e+00	 1.054862752297708e+00	 6.433352056202675e+00
 1.521002224968144e+00	 9.178188088933179e-01	 3.020087013655507e+00
 1.512113128677363e+00	 9.323910155884400e-01	 3.870898153229368e+00
 1.503074183250311e+00	 9.468933819536728e-01	 4.625251156268195e+00
 1.493886166943114e+00	 9.613236349722156e-01	 5.272545252034657e+00
 1.484549903399128e+00	 9.756795121573290e-01	 5.803414901873450e+00
 1.475066261501091e+00	 9.899587626721326e-01	 6.214084981387411e+00
 1.465436155190395e+00	 1.004159148448107e+00	 6.510229903803360e+00
 1.455660543253458e+00	 1.018278445301203e+00	 6.684551489670799e+00
 1.445740429075154e+00	 1.032314444044426e+00	 6.729627682191214e+00
 1.435676860359353e+00	 1.046264951595763e+00	 6.639007300960650e+00
 1.425470928816637e+00	 1.060127792080343e+00	 6.407260103618802e+00
 1.528556186396950e+00	 9.223770980035991e-01	 3.006839016599598e+00
 1.519622942971177e+00	 9.370216766422617e-01	 3.869855783653596e+00
 1.510539106192834e+00	 9.515960680934792e-01	 4.634392254113049e+00
 1.501305458183212e+00	 9.660979880516606e-01	 5.290207792109668e+00
 1.491922826676247e+00	 9.805251627935724e-01	 5.828083698486175e+00
 1.482392084869929e+00	 9.948753303036967e-01	 6.239823174916650e+00
 1.472714151244691e+00	 1.009146241398292e+00	 6.525782421235318e+00
 1.462889989348705e+00	 1.023335660847044e+00	 6.688852036401475e+00
 1.452920607550100e+00	 1.037441368491171e+00	 6.720946136126213e+00
 1.442807058756104e+00	 1.051461160356861e+00	 6.614626503714060e+00
 1.432550440099217e+00	 1.065392849762901e+00	 6.363238534870799e+00
 1.536110182066576e+00	 9.269354077766122e-01	 2.963403020158480e+00
 1.527132791305695e+00	 9.416523586869447e-01	 3.861302754157356e+00
 1.518004062972558e+00	 9.562987755506877e-01	 4.654727410150788e+00
 1.508724783053639e+00	 9.708723627734075e-01	 5.333685925116607e+00
 1.499295783373475e+00	 9.853708353953261e-01	 5.888895000125962e+00
 1.489717941445333e+00	 9.997919202222378e-01	 6.311775946597909e+00
 1.479992180288704e+00	 1.014133356955129e+00	 6.594665146209810e+00
 1.470119468213546e+00	 1.028392899317367e+00	 6.741336291121114e+00
 1.460100818571260e+00	 1.042568316178337e+00	 6.749201180036003e+00
 1.449937289472463e+00	 1.056657392672377e+00	 6.609111754977868e+00
 1.439629983471600e+00	 1.070657931311884e+00	 6.312364154199035e+00
 1.368835031092330e+00	 1.018007473830945e+00	 5.134113441774383e+00
 1.358897279024179e+00	 1.031235508845077e+00	 4.906954990786180e+00
 1.348825002563662e+00	 1.044375196923073e+00	 4.739811632648724e+00
 1.338619380955441e+00	 1.057424495877113e+00	 4.621008262708830e+00
 1.328281634245983e+00	 1.070381384178622e+00	 4.538465580005294e+00
 1.317813022826219e+00	 1.083243861977478e+00	 4.479749996947221e+00
 1.307214846943933e+00	 1.096009952109289e+00	 4.432125592627114e+00
 1.296488446186282e+00	 1.108677701089683e+00	 4.382607869703422e+00
 1.285635198932836e+00	 1.121245180094562e+00	 4.326806478885153e+00
 1.274656521779600e+00	 1.133710485925326e+00	 4.270479695702899e+00
 1.263553868934508e+00	 1.146071741958044e+00	 4.203269914416182e+00
 1.375914574465458e+00	 1.023272555376175e+00	 5.563590006350750e+00
 1.365925424862099e+00	 1.036569005097845e+00	 5.273697266743561e+00
 1.355801055113290e+00	 1.049776650957703e+00	 5.055641418107125e+00
 1.345542650562677e+00	 1.062893440205820e+00	 4.896562833501375e+00
 1.335151437566738e+00	 1.075917340858361e+00	 4.782868707927066e+00
 1.324628683035069e+00	 1.088846342722065e+00	 4.700285717069737e+00
 1.313975693940261e+00	 1.101678458406729e+00	 4.633915239167298e+00
 1.303193816797736e+00	 1.114411724324639e+00	 4.569170878447297e+00
 1.292284437115965e+00	 1.127044201675902e+00	 4.508759789250234e+00
 1.281248978817504e+00	 1.139573977418654e+00	 4.445779335960838e+00
 1.270088903631367e+00	 1.151999165223144e+00	 4.366062040511816e+00
 1.382994085748618e+00	 1.028537613055813e+00	 5.890878174738806e+00
 1.372953538843014e+00	 1.041902477174947e+00	 5.569147904642707e+00
 1.362777076042019e+00	 1.055178080508667e+00	 5.323014755880147e+00
 1.352465888788236e+00	 1.068362359744984e+00	 5.139237306320714e+00
 1.342021209748127e+00	 1.081453272444846e+00	 5.003610171896248e+00
 1.331444312349928e+00	 1.094448798071896e+00	 4.901018477537945e+00
 1.320736510291013e+00	 1.107346939010167e+00	 4.815495271338709e+00
 1.309899157015040e+00	 1.120145721568647e+00	 4.736730374105465e+00
 1.298933645159349e+00	 1.132843196971690e+00	 4.666807006913134e+00
 1.287841405973020e+00	 1.145437442334210e+00	 4.591387345811323e+00
 1.276623908706116e+00	 1.157926561620675e+00	 4.494446830344271e+00
 1.390073572964280e+00	 1.033802652836363e+00	 6.128777824593691e+00
 1.379981628931149e+00	 1.047235931120395e+00	 5.798059531058305e+00
 1.369753073255039e+00	 1.060579491696971e+00	 5.539971253570117e+00
 1.359389103477492e+00	 1.073831260692069e+00	 5.341678168896202e+00
 1.348890958574938e+00	 1.086989185211458e+00	 5.189247887730078e+00
 1.338259918494237e+00	 1.100051234375721e+00	 5.067705810188985e+00
 1.327497303657517e+00	 1.113015400343153e+00	 4.961363164047359e+00
 1.316604474436657e+00	 1.125879699319483e+00	 4.869400754383740e+00
 1.305582830597845e+00	 1.138642172553339e+00	 4.785521151622556e+00
 1.294433810716664e+00	 1.151300887316448e+00	 4.694031547985060e+00
 1.283158891564200e+00	 1.163853937867530e+00	 4.578498161873905e+00
 1.397153044134917e+00	 1.039067680684324e+00	 6.289823866554605e+00
 1.387009703090728e+00	 1.052569372978205e+00	 5.965083817909966e+00
 1.376729054657538e+00	 1.065980890643620e+00	 5.704586613402720e+00
 1.366312302475823e+00	 1.079300149244544e+00	 5.496678370018760e+00
 1.355760691831964e+00	 1.092525085431585e+00	 5.328570215885043e+00
 1.345075509191430e+00	 1.105653657982287e+00	 5.186393611778817e+00
 1.334258081701098e+00	 1.118683848829236e+00	 5.059406779318548e+00
 1.323309776661051e+00	 1.131613664074918e+00	 4.951131073306047e+00
 1.312232000966312e+00	 1.144441134992262e+00	 4.849775163107594e+00
 1.301026200518949e+00	 1.157164319009825e+00	 4.740696502991155e+00
 1.289693859611062e+00	 1.169781300680601e+00	 4.608479240810396e+00
 1.404232507283000e+00	 1.044332702566201e+00	 6.386292840211835e+00
 1.394037769285973e+00	 1.057902808792391e+00	 6.074773969619070e+00
 1.383705028154707e+00	 1.071382283469621e+00	 5.814971692295902e+00
 1.373235493628604e+00	 1.084769031599873e+00	 5.597173626950799e+00
 1.362630417303992e+00	 1.098060979378610e+00	 5.410590182825108e+00
 1.351891092164948e+00	 1.111256075240345e+00	 5.243410460225317e+00
 1.341018852083084e+00	 1.124352290891966e+00	 5.095230761475824e+00
 1.330015071286687e+00	 1.137347622332728e+00	 4.966181702670954e+00
 1.318881163799606e+00	 1.150240090859871e+00	 4.844735248291278e+00
 1.307618582850391e+00	 1.163027744058796e+00	 4.718617962915246e+00
 1.296228820252147e+00	 1.175708656776781e+00	 4.574838769218601e+00
 1.411311970431000e+00	 1.049597724448495e+00	 6.430209308298220e+00
 1.401065835481108e+00	 1.063236244606966e+00	 6.131587133416340e+00
 1.390681001651735e+00	 1.076783676295980e+00	 5.869271589345512e+00
 1.380158684781212e+00	 1.090237913955525e+00	 5.636238844079167e+00
 1.369500142775814e+00	 1.103596873325917e+00	 5.424539877255429e+00
 1.358706675138226e+00	 1.116858492498644e+00	 5.227520853557877e+00
 1.347779622464802e+00	 1.130020732954891e+00	 5.053670962852697e+00
 1.336720365912028e+00	 1.143081580590686e+00	 4.899117438613324e+00
 1.325530326632585e+00	 1.156039046727581e+00	 4.755854460888067e+00
 1.314210965181505e+00	 1.168891169107819e+00	 4.615277524275951e+00
 1.302763780892899e+00	 1.181636012872962e+00	 4.468207261390122e+00
 1.418391441601388e+00	 1.054862752297708e+00	 6.433352056202676e+00
 1.408093909640356e+00	 1.068569686465945e+00	 6.139886735501880e+00
 1.397656983053812e+00	 1.082185075243703e+00	 5.865664759760883e+00
 1.387081883779023e+00	 1.095706802508965e+00	 5.607084638894876e+00
 1.376369876032220e+00	 1.109132773546891e+00	 5.359865015067476e+00
 1.365522265834702e+00	 1.122460916105931e+00	 5.127318982652824e+00
 1.354540400507578e+00	 1.135689181441560e+00	 4.919854913245731e+00
 1.343425668135538e+00	 1.148815545346567e+00	 4.734800846424264e+00
 1.332179497000107e+00	 1.161838009166804e+00	 4.568866505240453e+00
 1.320803354982806e+00	 1.174754600801347e+00	 4.418397472968581e+00
 1.309298748938762e+00	 1.187563375686034e+00	 4.279393501832537e+00
 1.425470928816637e+00	 1.060127792080343e+00	 6.407260103618801e+00
 1.415121999727941e+00	 1.073903140413343e+00	 6.103944745651139e+00
 1.404632980266128e+00	 1.087586486433797e+00	 5.802362154321942e+00
 1.394005098467412e+00	 1.101175703457661e+00	 5.503053971540581e+00
 1.383239624857998e+00	 1.114668686314918e+00	 5.206966557190130e+00
 1.372337871977815e+00	 1.128063352410956e+00	 4.929607669201860e+00
 1.361301193872737e+00	 1.141357642775523e+00	 4.679195523196331e+00
 1.350130985555682e+00	 1.154549523098144e+00	 4.458385835320930e+00
 1.338828682437029e+00	 1.167636984748952e+00	 4.269779756577630e+00
 1.327395759724808e+00	 1.180618045783837e+00	 4.115935814605079e+00
 1.315833731795180e+00	 1.193490751932892e+00	 3.999381140435553e+00
 1.432550440099217e+00	 1.065392849762901e+00	 6.363238534870799e+00
 1.422150113708087e+00	 1.079236612493172e+00	 6.027943872757115e+00
 1.411609001193872e+00	 1.092987915987266e+00	 5.677606383466949e+00
 1.400928336691757e+00	 1.106644622999078e+00	 5.317618874315808e+00
 1.390109397037940e+00	 1.120204617903380e+00	 4.958188519187292e+00
 1.379153501291003e+00	 1.133665807762470e+00	 4.621440786332238e+00
 1.368062010221609e+00	 1.147026123380327e+00	 4.317385005132921e+00
 1.356836325770924e+00	 1.160283520343190e+00	 4.055311455189637e+00
 1.345477890478210e+00	 1.173435980045439e+00	 3.844871490191717e+00
 1.333988186878027e+00	 1.186481510699745e+00	 3.696081483827415e+00
 1.322368736867599e+00	 1.199418148330425e+00	 3.619325420071940e+00
 1.439629983471600e+00	 1.070657931311884e+00	 6.312364154199035e+00
 1.429178259545016e+00	 1.084570108749448e+00	 5.915979693700087e+00
 1.418585053742233e+00	 1.098389370025116e+00	 5.489670905154370e+00
 1.407851606297432e+00	 1.112113567330683e+00	 5.044430416338966e+00
 1.396979200356835e+00	 1.125740574585664e+00	 4.603502952477308e+00
 1.385969161497703e+00	 1.139268288509219e+00	 4.190118059216601e+00
 1.374822857215517e+00	 1.152694629679524e+00	 3.820389004856465e+00
 1.363541696379728e+00	 1.166017543579481e+00	 3.511295907643476e+00
 1.352127128658505e+00	 1.179235001627677e+00	 3.280682312325854e+00
 1.340580643912978e+00	 1.192345002193526e+00	 3.147249726427441e+00
 1.328903771561460e+00	 1.205345571595528e+00	 3.130550032080166e+00
 1.263553868934508e+00	 1.146071741958044e+00	 4.203269914416182e+00
 1.252330646641814e+00	 1.158325028325273e+00	 4.123251667173587e+00
 1.240986488227872e+00	 1.170470651982062e+00	 4.043469583060993e+00
 1.229522936041086e+00	 1.182506842439293e+00	 3.976081649852113e+00
 1.217941567326206e+00	 1.194431859378467e+00	 3.933998394758133e+00
 1.206243993496050e+00	 1.206243993496050e+00	 3.930869019870809e+00
 1.194431859378466e+00	 1.217941567326207e+00	 3.981065629173193e+00
 1.182506842439293e+00	 1.229522936041086e+00	 4.099665546198927e+00
 1.170470651982062e+00	 1.240986488227873e+00	 4.302431730848880e+00
 1.158325028325273e+00	 1.252330646641815e+00	 4.605791313397461e+00
 1.146071741958044e+00	 1.263553868934508e+00	 5.026812273276566e+00
 1.270088903631367e+00	 1.151999165223144e+00	 4.366062040511816e+00
 1.258807635418717e+00	 1.164315824948562e+00	 4.270539887207559e+00
 1.247404805609481e+00	 1.176524265137518e+00	 4.177091196099914e+00
 1.235881964529000e+00	 1.188622706144024e+00	 4.097140054115504e+00
 1.224240697579443e+00	 1.200609398648756e+00	 4.042654327859284e+00
 1.212482624507759e+00	 1.212482624507759e+00	 4.026132778510266e+00
 1.200609398648756e+00	 1.224240697579443e+00	 4.060590531927113e+00
 1.188622706144024e+00	 1.235881964529000e+00	 4.159542900365845e+00
 1.176524265137517e+00	 1.247404805609482e+00	 4.336987561313805e+00
 1.164315824948561e+00	 1.258807635418717e+00	 4.607385108153731e+00
 1.151999165223144e+00	 1.270088903631367e+00	 4.985637996622136e+00
 1.276623908706116e+00	 1.157926561620675e+00	 4.494446830344271e+00
 1.265284594836632e+00	 1.170306594417003e+00	 4.381162653245242e+00
 1.253823093898073e+00	 1.182577850853358e+00	 4.274208404456131e+00
 1.242240964192679e+00	 1.194738542126929e+00	 4.183663131270981e+00
 1.230539799279995e+00	 1.206786909917608e+00	 4.119928689718130e+00
 1.218721227241065e+00	 1.218721227241065e+00	 4.093718820283677e+00
 1.206786909917608e+00	 1.230539799279995e+00	 4.116046858234170e+00
 1.194738542126929e+00	 1.242240964192679e+00	 4.198212070536551e+00
 1.182577850853358e+00	 1.253823093898074e+00	 4.351784620127709e+00
 1.170306594417002e+00	 1.265284594836632e+00	 4.588589167160370e+00
 1.157926561620675e+00	 1.276623908706116e+00	 4.920687125785008e+00
 1.283158891564200e+00	 1.163853937867530e+00	 4.578498161873904e+00
 1.271761532235222e+00	 1.176297343519296e+00	 4.449047695773572e+00
 1.260241360366823e+00	 1.188631415989463e+00	 4.332450156364483e+00
 1.248599942238107e+00	 1.200854357318428e+00	 4.236839209600710e+00
 1.236838879565968e+00	 1.212964400185335e+00	 4.170438260389548e+00
 1.224959808765511e+00	 1.224959808765511e+00	 4.141552462052921e+00
 1.212964400185335e+00	 1.236838879565968e+00	 4.158559655374784e+00
 1.200854357318428e+00	 1.248599942238107e+00	 4.229900223115737e+00
 1.188631415989462e+00	 1.260241360366824e+00	 4.364065854258138e+00
 1.176297343519296e+00	 1.271761532235223e+00	 4.569587220767404e+00
 1.163853937867530e+00	 1.283158891564200e+00	 4.855020578254550e+00
 1.289693859611062e+00	 1.169781300680601e+00	 4.608479240810396e+00
 1.278238454954155e+00	 1.182288079044142e+00	 4.468234277608527e+00
 1.266659612288909e+00	 1.194684967405711e+00	 4.349482136973172e+00
 1.254958905871271e+00	 1.206970158648941e+00	 4.257821342432533e+00
 1.243137945575468e+00	 1.219141876452249e+00	 4.198695098372479e+00
 1.231198376150641e+00	 1.231198376150641e+00	 4.177387197853283e+00
 1.219141876452249e+00	 1.243137945575468e+00	 4.199017170448926e+00
 1.206970158648941e+00	 1.254958905871272e+00	 4.268534648171122e+00
 1.194684967405710e+00	 1.266659612288908e+00	 4.390712935528486e+00
 1.182288079044141e+00	 1.278238454954156e+00	 4.570141777922097e+00
 1.169781300680601e+00	 1.289693859611061e+00	 4.811219330830472e+00
 1.296228820252147e+00	 1.175708656776781e+00	 4.574838769218601e+00
 1.284715370333094e+00	 1.188278807780237e+00	 4.432871336298264e+00
 1.273077856937502e+00	 1.200738511961980e+00	 4.323006806074748e+00
 1.261317862298157e+00	 1.213085953048889e+00	 4.247729168257282e+00
 1.249437004446598e+00	 1.225319345718662e+00	 4.209110155754820e+00
 1.237436936465997e+00	 1.237436936465997e+00	 4.208810007340596e+00
 1.225319345718662e+00	 1.249437004446599e+00	 4.248077796078734e+00
 1.213085953048889e+00	 1.261317862298158e+00	 4.327751292065883e+00
 1.200738511961980e+00	 1.273077856937503e+00	 4.448256335611752e+00
 1.188278807780237e+00	 1.284715370333095e+00	 4.609605704744833e+00
 1.175708656776781e+00	 1.296228820252147e+00	 4.811397468819337e+00
 1.302763780892899e+00	 1.181636012872962e+00	 4.468207261390122e+00
 1.291192285711706e+00	 1.194269536516284e+00	 4.337215714120171e+00
 1.279496101585782e+00	 1.206792056518153e+00	 4.250763466111445e+00
 1.267676818724751e+00	 1.219201747448692e+00	 4.207650745985244e+00
 1.255736063317465e+00	 1.231496814984886e+00	 4.205996815377077e+00
 1.243675496781125e+00	 1.243675496781125e+00	 4.243246534979980e+00
 1.231496814984886e+00	 1.255736063317465e+00	 4.316176837247324e+00
 1.219201747448691e+00	 1.267676818724751e+00	 4.420903063118960e+00
 1.206792056518152e+00	 1.279496101585782e+00	 4.552885127266618e+00
 1.194269536516284e+00	 1.291192285711706e+00	 4.706933483709815e+00
 1.181636012872962e+00	 1.302763780892899e+00	 4.877214871168722e+00
 1.309298748938762e+00	 1.187563375686034e+00	 4.279393501832537e+00
 1.297669208429653e+00	 1.200260272040981e+00	 4.175630472624201e+00
 1.285914353506923e+00	 1.212845607934105e+00	 4.130528359425018e+00
 1.274035782357038e+00	 1.225317548778769e+00	 4.138644366252619e+00
 1.262035129326172e+00	 1.237674291251232e+00	 4.193574352795025e+00
 1.249914064165568e+00	 1.249914064165567e+00	 4.287966144561526e+00
 1.237674291251232e+00	 1.262035129326172e+00	 4.413533105604450e+00
 1.225317548778769e+00	 1.274035782357039e+00	 4.561067918317470e+00
 1.212845607934105e+00	 1.285914353506924e+00	 4.720456521487281e+00
 1.200260272040981e+00	 1.297669208429654e+00	 4.880692164707169e+00
 1.187563375686034e+00	 1.309298748938762e+00	 5.029889544387884e+00
 1.315833731795180e+00	 1.193490751932892e+00	 3.999381140435553e+00
 1.304146145826603e+00	 1.206251021143027e+00	 3.942583288798341e+00
 1.292332619974102e+00	 1.218899173069718e+00	 3.960114793763667e+00
 1.280394760401003e+00	 1.231433363969541e+00	 4.041740339653622e+00
 1.268334209610826e+00	 1.243851781518014e+00	 4.175971325712310e+00
 1.256152645688868e+00	 1.256152645688868e+00	 4.350086853446381e+00
 1.243851781518013e+00	 1.268334209610826e+00	 4.550155347319043e+00
 1.231433363969541e+00	 1.280394760401004e+00	 4.761056738786042e+00
 1.218899173069718e+00	 1.292332619974102e+00	 4.966505149851783e+00
 1.206251021143026e+00	 1.304146145826603e+00	 5.149072018813886e+00
 1.193490751932891e+00	 1.315833731795180e+00	 5.290209617591058e+00
 1.322368736867599e+00	 1.199418148330425e+00	 3.619325420071940e+00
 1.310623105242220e+00	 1.212241790611122e+00	 3.632644930049960e+00
 1.298750908260492e+00	 1.224952758784869e+00	 3.737373295099645e+00
 1.286753760062633e+00	 1.237549199951429e+00	 3.917942762740666e+00
 1.274633311309532e+00	 1.250029292785542e+00	 4.157228893448671e+00
 1.262391248420571e+00	 1.262391248420571e+00	 4.436580150772498e+00
 1.250029292785542e+00	 1.274633311309532e+00	 4.735848510316703e+00
 1.237549199951429e+00	 1.286753760062633e+00	 5.033421001412402e+00
 1.224952758784869e+00	 1.298750908260493e+00	 5.306252100986527e+00
 1.212241790611121e+00	 1.310623105242220e+00	 5.529896905171201e+00
 1.199418148330425e+00	 1.322368736867598e+00	 5.678545010509693e+00
 1.328903771561460e+00	 1.205345571595528e+00	 3.130550032080166e+00
 1.317100094016168e+00	 1.218232587233964e+00	 3.240487805309554e+00
 1.305169225639270e+00	 1.231006371939438e+00	 3.460191786850228e+00
 1.293112788547912e+00	 1.243665063654852e+00	 3.768231262603206e+00
 1.280932441560393e+00	 1.256206832054128e+00	 4.141304068909551e+00
 1.268629879430219e+00	 1.268629879430219e+00	 4.554275703683508e+00
 1.256206832054128e+00	 1.280932441560393e+00	 4.980219856511710e+00
 1.243665063654852e+00	 1.293112788547913e+00	 5.390460253737419e+00
 1.231006371939438e+00	 1.305169225639270e+00	 5.754613719712089e+00
 1.218232587233963e+00	 1.317100094016168e+00	 6.040634360955472e+00
 1.205345571595528e+00	 1.328903771561460e+00	 6.214858785852614e+00
 1.146071741958044e+00	 1.263553868934508e+00	 5.026812273276566e+00
 1.133710485925327e+00	 1.274656521779599e+00	 5.476252433231008e+00
 1.121245180094562e+00	 1.285635198932835e+00	 5.843128314715363e+00
 1.108677701089684e+00	 1.296488446186282e+00	 6.112127853395803e+00
 1.096009952109290e+00	 1.307214846943932e+00	 6.279638007544607e+00
 1.083243861977478e+00	 1.317813022826219e+00	 6.337232245596014e+00
 1.070381384178622e+00	 1.328281634245983e+00	 6.269656553738561e+00
 1.057424495877114e+00	 1.338619380955441e+00	 6.060511500876997e+00
 1.044375196923074e+00	 1.348825002563662e+00	 5.692258269900903e+00
 1.031235508845077e+00	 1.358897279024178e+00	 5.146227560843151e+00
 1.018007473830945e+00	 1.368835031092329e+00	 4.402631441572385e+00
 1.151999165223144e+00	 1.270088903631367e+00	 4.985637996622136e+00
 1.139573977418655e+00	 1.281248978817504e+00	 5.371874491605087e+00
 1.127044201675902e+00	 1.292284437115965e+00	 5.649457978805644e+00
 1.114411724324640e+00	 1.303193816797736e+00	 5.808352271448947e+00
 1.101678458406729e+00	 1.313975693940260e+00	 5.843709217170666e+00
 1.088846342722065e+00	 1.324628683035068e+00	 5.760734778368931e+00
 1.075917340858362e+00	 1.335151437566738e+00	 5.552406056276944e+00
 1.062893440205821e+00	 1.345542650562677e+00	 5.210508580943789e+00
 1.049776650957704e+00	 1.355801055113290e+00	 4.726282420617028e+00
 1.036569005097846e+00	 1.365925424862099e+00	 4.090416326508292e+00
 1.023272555376175e+00	 1.375914574465458e+00	 3.293044120687644e+00
 1.157926561620675e+00	 1.276623908706116e+00	 4.920687125785007e+00
 1.145437442334210e+00	 1.287841405973020e+00	 5.242573186425554e+00
 1.132843196971690e+00	 1.298933645159349e+00	 5.437102912477130e+00
 1.120145721568648e+00	 1.309899157015040e+00	 5.499340028585253e+00
 1.107346939010167e+00	 1.320736510291012e+00	 5.425393243015575e+00
 1.094448798071897e+00	 1.331444312349929e+00	 5.226595807789820e+00
 1.081453272444846e+00	 1.342021209748126e+00	 4.907049913614711e+00
 1.068362359744984e+00	 1.352465888788236e+00	 4.465870104845507e+00
 1.055178080508667e+00	 1.362777076042019e+00	 3.902138692827046e+00
 1.041902477174947e+00	 1.372953538843014e+00	 3.214886580355565e+00
 1.028537613055813e+00	 1.382994085748617e+00	 2.403075730594858e+00
 1.163853937867530e+00	 1.283158891564200e+00	 4.855020578254550e+00
 1.151300887316449e+00	 1.294433810716663e+00	 5.113653216978750e+00
 1.138642172553339e+00	 1.305582830597845e+00	 5.232405109786729e+00
 1.125879699319483e+00	 1.316604474436656e+00	 5.210926282878829e+00
 1.113015400343154e+00	 1.327497303657516e+00	 5.049488239039299e+00
 1.100051234375721e+00	 1.338259918494236e+00	 4.757331930521542e+00
 1.086989185211459e+00	 1.348890958574938e+00	 4.352420777506965e+00
 1.073831260692070e+00	 1.359389103477492e+00	 3.840592327823882e+00
 1.060579491696971e+00	 1.369753073255038e+00	 3.227847546466723e+00
 1.047235931120395e+00	 1.379981628931149e+00	 2.520557471122453e+00
 1.033802652836363e+00	 1.390073572964280e+00	 1.725433291793476e+00
 1.169781300680601e+00	 1.289693859611061e+00	 4.811219330830472e+00
 1.157164319009826e+00	 1.301026200518948e+00	 5.009893404535955e+00
 1.144441134992262e+00	 1.312232000966311e+00	 5.061159151418236e+00
 1.131613664074918e+00	 1.323309776661050e+00	 4.968747784448615e+00
 1.118683848829237e+00	 1.334258081701098e+00	 4.737412576652300e+00
 1.105653657982288e+00	 1.345075509191430e+00	 4.374974926583878e+00
 1.092525085431586e+00	 1.355760691831963e+00	 3.906940860472803e+00
 1.079300149244544e+00	 1.366312302475822e+00	 3.348358896842404e+00
 1.065980890643620e+00	 1.376729054657537e+00	 2.711237860808781e+00
 1.052569372978206e+00	 1.387009703090727e+00	 2.008300517562343e+00
 1.039067680684324e+00	 1.397153044134917e+00	 1.252942778508467e+00
 1.175708656776781e+00	 1.296228820252147e+00	 4.811397468819336e+00
 1.163027744058797e+00	 1.307618582850391e+00	 4.955560887707134e+00
 1.150240090859872e+00	 1.318881163799605e+00	 4.948626928565822e+00
 1.137347622332729e+00	 1.330015071286686e+00	 4.797911204464837e+00
 1.124352290891966e+00	 1.341018852083083e+00	 4.512069698645005e+00
 1.111256075240345e+00	 1.351891092164947e+00	 4.101081586798627e+00
 1.098060979378610e+00	 1.362630417303992e+00	 3.588631455408625e+00
 1.084769031599873e+00	 1.373235493628604e+00	 3.002547887164482e+00
 1.071382283469622e+00	 1.383705028154706e+00	 2.359950904981337e+00
 1.057902808792391e+00	 1.394037769285972e+00	 1.678939936991166e+00
 1.044332702566201e+00	 1.404232507283000e+00	 9.785452368883831e-01
 1.181636012872962e+00	 1.302763780892899e+00	 4.877214871168722e+00
 1.168891169107819e+00	 1.314210965181504e+00	 4.974424918874700e+00
 1.156039046727581e+00	 1.325530326632585e+00	 4.919551951737780e+00
 1.143081580590687e+00	 1.336720365912027e+00	 4.723007361691148e+00
 1.130020732954891e+00	 1.347779622464801e+00	 4.396779799022812e+00
 1.116858492498644e+00	 1.358706675138226e+00	 3.954412132019740e+00
 1.103596873325918e+00	 1.369500142775814e+00	 3.415122159184151e+00
 1.090237913955525e+00	 1.380158684781211e+00	 2.816238617962214e+00
 1.076783676295981e+00	 1.390681001651735e+00	 2.181444180254520e+00
 1.063236244606966e+00	 1.401065835481107e+00	 1.533252955814157e+00
 1.049597724448495e+00	 1.411311970431000e+00	 8.952930126413143e-01
 1.187563375686034e+00	 1.309298748938762e+00	 5.029889544387884e+00
 1.174754600801347e+00	 1.320803354982805e+00	 5.089770275782467e+00
 1.161838009166804e+00	 1.332179497000106e+00	 4.998173259124265e+00
 1.148815545346567e+00	 1.343425668135537e+00	 4.768125050910150e+00
 1.135689181441561e+00	 1.354540400507577e+00	 4.414385767532496e+00
 1.122460916105931e+00	 1.365522265834702e+00	 3.953421147012579e+00
 1.109132773546892e+00	 1.376369876032219e+00	 3.403659810612250e+00
 1.095706802508965e+00	 1.387081883779022e+00	 2.802218254705945e+00
 1.082185075243703e+00	 1.397656983053812e+00	 2.182995138581294e+00
 1.068569686465946e+00	 1.408093909640356e+00	 1.571970102639844e+00
 1.054862752297708e+00	 1.418391441601388e+00	 9.963460842301268e-01
 1.193490751932891e+00	 1.315833731795180e+00	 5.290209617591060e+00
 1.180618045783838e+00	 1.327395759724808e+00	 5.324410301793580e+00
 1.167636984748952e+00	 1.338828682437029e+00	 5.208238938588389e+00
 1.154549523098144e+00	 1.350130985555682e+00	 4.956864487209468e+00
 1.141357642775523e+00	 1.361301193872737e+00	 4.587266001269921e+00
 1.128063352410957e+00	 1.372337871977816e+00	 4.118200748631435e+00
 1.114668686314918e+00	 1.383239624857997e+00	 3.570168780618721e+00
 1.101175703457661e+00	 1.394005098467411e+00	 2.972988205773555e+00
 1.087586486433797e+00	 1.404632980266128e+00	 2.371704781698373e+00
 1.073903140413343e+00	 1.415121999727941e+00	 1.795775484562511e+00
 1.060127792080343e+00	 1.425470928816637e+00	 1.274968497901988e+00
 1.199418148330425e+00	 1.322368736867598e+00	 5.678545010509693e+00
 1.186481510699746e+00	 1.333988186878026e+00	 5.700699587794243e+00
 1.173435980045439e+00	 1.345477890478209e+00	 5.573019276781490e+00
 1.160283520343191e+00	 1.356836325770923e+00	 5.312350379551773e+00
 1.147026123380328e+00	 1.368062010221608e+00	 4.937346864278060e+00
 1.133665807762470e+00	 1.379153501291003e+00	 4.468435490758399e+00
 1.120204617903381e+00	 1.390109397037939e+00	 3.927777354032588e+00
 1.106644622999078e+00	 1.400928336691756e+00	 3.340770320422592e+00
 1.092987915987266e+00	 1.411609001193872e+00	 2.754501144920923e+00
 1.079236612493173e+00	 1.422150113708087e+00	 2.205307047172625e+00
 1.065392849762901e+00	 1.432550440099217e+00	 1.724524900975932e+00
 1.205345571595528e+00	 1.328903771561460e+00	 6.214858785852613e+00
 1.192345002193527e+00	 1.340580643912977e+00	 6.240546308208081e+00
 1.179235001627678e+00	 1.352127128658504e+00	 6.115319548350492e+00
 1.166017543579482e+00	 1.363541696379727e+00	 5.857244646520502e+00
 1.152694629679524e+00	 1.374822857215517e+00	 5.486114807379510e+00
 1.139268288509220e+00	 1.385969161497703e+00	 5.023413370364690e+00
 1.125740574585664e+00	 1.396979200356834e+00	 4.492273372259081e+00
 1.112113567330684e+00	 1.407851606297432e+00	 3.917433722474387e+00
 1.098389370025117e+00	 1.418585053742233e+00	 3.338142669601242e+00
 1.084570108749449e+00	 1.429178259545016e+00	 2.801156818829968e+00
 1.070657931311884e+00	 1.439629983471600e+00	 2.338477169952974e+00
 1.018007473830945e+00	 1.368835031092329e+00	 4.402631441572385e+00
 1.004695422846676e+00	 1.378635467101188e+00	 3.592581245347688e+00
 9.912991879267010e-01	 1.388299196551591e+00	 2.866809330795365e+00
 9.778208584954495e-01	 1.397825171108125e+00	 2.235314468952641e+00
 9.642625405008268e-01	 1.407212384693646e+00	 1.709065470191897e+00
 9.506263553558507e-01	 1.416459873789150e+00	 1.299960170208494e+00
 9.369144388747381e-01	 1.425566717702133e+00	 1.020785154392659e+00
 9.231289402045267e-01	 1.434532038803360e+00	 8.851763266446773e-01
 9.092720207533138e-01	 1.443355002732014e+00	 9.075804165949128e-01
 8.953458531161874e-01	 1.452034818569230e+00	 1.103217506916480e+00
 8.813526199999249e-01	 1.460570738980084e+00	 1.488044650054732e+00
 1.023272555376175e+00	 1.375914574465458e+00	 3.293044120687644e+00
 1.009891655158237e+00	 1.385765697818092e+00	 2.483996669976203e+00
 9.964261356097555e-01	 1.395479407573138e+00	 1.820529977795080e+00
 9.828780969615492e-01	 1.405054649973241e+00	 1.304133281517935e+00
 9.692496560533734e-01	 1.414490413737869e+00	 9.365232259530448e-01
 9.555429452700807e-01	 1.423785730364742e+00	 7.196205249014067e-01
 9.417601114722048e-01	 1.432939674399574e+00	 6.555283146251709e-01
 9.279033149220564e-01	 1.441951363674069e+00	 7.465122688131886e-01
 9.139747282064189e-01	 1.450819959512134e+00	 9.949825307459854e-01
 8.999765351569268e-01	 1.459544666904304e+00	 1.403477504405292e+00
 8.859109297691987e-01	 1.468124734650470e+00	 1.974649532338380e+00
 1.028537613055813e+00	 1.382994085748617e+00	 2.403075730594859e+00
 1.015087863916258e+00	 1.392895896215265e+00	 1.625895638896515e+00
 1.001553060053302e+00	 1.402659586048384e+00	 1.039409971176124e+00
 9.879353125041048e-01	 1.412284096068702e+00	 6.379833058723889e-01
 9.742367490002228e-01	 1.421768409792328e+00	 4.155808265912845e-01
 9.604595128982922e-01	 1.431111553733727e+00	 3.657598267571556e-01
 9.466057621051136e-01	 1.440312597676857e+00	 4.816637244744895e-01
 9.326776679982206e-01	 1.449370654914388e+00	 7.560186266146539e-01
 9.186774143430335e-01	 1.458284882454964e+00	 1.181132465665027e+00
 9.046071962076807e-01	 1.467054481198550e+00	 1.748896717417923e+00
 8.904692188765717e-01	 1.475678696079867e+00	 2.450790692231442e+00
 1.033802652836363e+00	 1.390073572964280e+00	 1.725433291793476e+00
 1.020284055009235e+00	 1.400026070372627e+00	 1.003085944358155e+00
 1.006679967067333e+00	 1.409839740113895e+00	 5.020655581365748e-01
 9.929925108541205e-01	 1.419513517586915e+00	 2.109723877078001e-01
 9.792238249929176e-01	 1.429046381104456e+00	 1.174951275543133e-01
 9.653760638121091e-01	 1.438437352197751e+00	 2.084144528795596e-01
 9.514513962647230e-01	 1.447685495889017e+00	 4.696097548310340e-01
 9.374520048434789e-01	 1.456789920931903e+00	 8.860690844255696e-01
 9.233800844923945e-01	 1.465749780019818e+00	 1.441902302599177e+00
 9.092378415160550e-01	 1.474564269962159e+00	 2.120357417017937e+00
 8.950274924876224e-01	 1.483232631828501e+00	 2.903612548659887e+00
 1.039067680684324e+00	 1.397153044134917e+00	 1.252942778508467e+00
 1.025480234325661e+00	 1.407156228370093e+00	 6.006546976351497e-01
 1.011806862461838e+00	 1.417019877906233e+00	 1.875181777121837e-01
 9.980496977425986e-01	 1.426742922720285e+00	-2.294564302313368e-03
 9.842108896830023e-01	 1.436324335921691e+00	 1.407843067376700e-02
 9.702926035831555e-01	 1.445763134058460e+00	 2.182016589467853e-01
 9.562970194422918e-01	 1.455058377391087e+00	 5.903586947403452e-01
 9.422263308682891e-01	 1.464209170134207e+00	 1.109572471873734e+00
 9.280827439837385e-01	 1.473214660666003e+00	 1.753629283738752e+00
 9.138684763296557e-01	 1.482074041705323e+00	 2.499080253907587e+00
 8.995857557679303e-01	 1.490786550456598e+00	 3.314870329420205e+00
 1.044332702566201e+00	 1.404232507283000e+00	 9.785452368883829e-01
 1.030676407754032e+00	 1.414286378287581e+00	 4.039603965116924e-01
 1.016933752046808e+00	 1.424200007561963e+00	 7.518335037719082e-02
 1.003106878900542e+00	 1.433972319661218e+00	-2.672900652231675e-02
 9.891979487220198e-01	 1.443602282491466e+00	 7.768358562159128e-02
 9.752091377830571e-01	 1.453088907617503e+00	 3.663040434764198e-01
 9.611426371290783e-01	 1.462431250538098e+00	 8.154613974649706e-01
 9.470006514831094e-01	 1.471628410928890e+00	 1.399958395774970e+00
 9.327853981463018e-01	 1.480679532852835e+00	 2.093103218644898e+00
 9.184991058960887e-01	 1.489583804938234e+00	 2.861707515807560e+00
 9.041440138830749e-01	 1.498340460524385e+00	 3.669613611133117e+00
 1.049597724448495e+00	 1.411311970431000e+00	 8.952930126413143e-01
 1.035872581182843e+00	 1.421416528205009e+00	 3.986252248379376e-01
 1.022060641632236e+00	 1.431380137217650e+00	 1.448598958960803e-01
 1.008164060058956e+00	 1.441201716602121e+00	 1.132282099907966e-01
 9.941850077615139e-01	 1.450880229061218e+00	 2.811895341759913e-01
 9.801256719834371e-01	 1.460414681176524e+00	 6.244544740932976e-01
 9.659882548163409e-01	 1.469804123685087e+00	 1.117012382927503e+00
 9.517749720983987e-01	 1.479047651723542e+00	 1.731163298465713e+00
 9.374880523093211e-01	 1.488144405039623e+00	 2.434107523328485e+00
 9.231297354629600e-01	 1.497093568171083e+00	 3.186317816745612e+00
 9.087022719986347e-01	 1.505894370592087e+00	 3.955617428872664e+00
 1.054862752297708e+00	 1.418391441601388e+00	 9.963460842301268e-01
 1.041068760500589e+00	 1.428546686202294e+00	 5.705275759597342e-01
 1.027187537028111e+00	 1.438560275009859e+00	 3.767194678464501e-01
 1.013221246948842e+00	 1.448431121735399e+00	 3.935941941488206e-01
 9.991720724530286e-01	 1.458158183878383e+00	 5.979872816835735e-01
 9.850422117559210e-01	 1.467740463037170e+00	 9.649214595122572e-01
 9.708338779953384e-01	 1.477177005187086e+00	 1.467635380443717e+00
 9.565492981246145e-01	 1.486466900925753e+00	 2.075674449427761e+00
 9.421907118020330e-01	 1.495609285685677e+00	 2.748999050827745e+00
 9.277603702778756e-01	 1.504603339914062e+00	 3.454949002681603e+00
 9.132605352801892e-01	 1.513448289219931e+00	 4.160888328592282e+00
 1.060127792080343e+00	 1.425470928816637e+00	 1.274968497901988e+00
 1.046264951595763e+00	 1.435676860359353e+00	 9.057947921552096e-01
 1.032314444044426e+00	 1.445740429075154e+00	 7.512963936951016e-01
 1.018278445301203e+00	 1.455660543253458e+00	 7.908317403236841e-01
 1.004159148448107e+00	 1.465436155190395e+00	 1.001966280730016e+00
 9.899587626721327e-01	 1.475066261501090e+00	 1.360494951597993e+00
 9.756795121573298e-01	 1.484549903399127e+00	 1.839732531613907e+00
 9.613236349722157e-01	 1.493886166943112e+00	 2.402101643194156e+00
 9.468933819536737e-01	 1.503074183250311e+00	 3.015595700508974e+00
 9.323910155884413e-01	 1.512113128677363e+00	 3.649984057944754e+00
 9.178188088933178e-01	 1.521002224968144e+00	 4.273659294541183e+00
 1.065392849762901e+00	 1.432550440099217e+00	 1.724524900975932e+00
 1.051461160356861e+00	 1.442807058756104e+00	 1.390796112522626e+00
 1.037441368491171e+00	 1.452920607550099e+00	 1.249477809751953e+00
 1.023335660847045e+00	 1.462889989348706e+00	 1.281837411718423e+00
 1.009146241398293e+00	 1.472714151244691e+00	 1.467501212626786e+00
 9.948753303036972e-01	 1.482392084869929e+00	 1.784408339572026e+00
 9.805251627935732e-01	 1.491922826676246e+00	 2.200553199334561e+00
 9.660979880516615e-01	 1.501305458183212e+00	 2.685188873496971e+00
 9.515960680934802e-01	 1.510539106192833e+00	 3.212192282742860e+00
 9.370216766422629e-01	 1.519622942971177e+00	 3.754143297642828e+00
 9.223770980035991e-01	 1.528556186396949e+00	 4.282384852243899e+00
 1.070657931311884e+00	 1.439629983471600e+00	 2.338477169952974e+00
 1.056657392672377e+00	 1.449937289472463e+00	 2.012135822063747e+00
 1.042568316178337e+00	 1.460100818571260e+00	 1.852494080748923e+00
 1.028392899317367e+00	 1.470119468213545e+00	 1.843929969180291e+00
 1.014133356955129e+00	 1.479992180288705e+00	 1.969439152891833e+00
 9.997919202222384e-01	 1.489717941445333e+00	 2.205312293282899e+00
 9.853708353953267e-01	 1.499295783373474e+00	 2.522642290788478e+00
 9.708723627734085e-01	 1.508724783053639e+00	 2.900620437690456e+00
 9.562987755506887e-01	 1.518004062972557e+00	 3.317500532940325e+00
 9.416523586869459e-01	 1.527132791305695e+00	 3.750476816509050e+00
 9.269354077766124e-01	 1.536110182066576e+00	 4.175736340985242e+00
 8.813526199999249e-01	 1.460570738980084e+00	 1.488044650054732e+00
 8.672945134221165e-01	 1.468962060678352e+00	 1.925276826323932e+00
 8.531737344426994e-01	 1.477208125573723e+00	 2.272461879779429e+00
 8.389924912361787e-01	 1.485308319765138e+00	 2.535985631847555e+00
 8.247529977420975e-01	 1.493262073202776e+00	 2.716198298197981e+00
 8.104574725985347e-01	 1.501068859672163e+00	 2.818838565700471e+00
 7.961081380806602e-01	 1.508728196747882e+00	 2.850301355365862e+00
 7.817072190453511e-01	 1.516239645717194e+00	 2.816374700609722e+00
 7.672569418828216e-01	 1.523602811473945e+00	 2.722253146775198e+00
 7.527595334762194e-01	 1.530817342383143e+00	 2.572551384489256e+00
 7.382172201701207e-01	 1.537882930116643e+00	 2.371029436449415e+00
 8.859109297691987e-01	 1.468124734650470e+00	 1.974649532338380e+00
 8.717801153978220e-01	 1.476559455827043e+00	 2.553310470098582e+00
 8.575863044864874e-01	 1.484848168940095e+00	 2.990108648860109e+00
 8.433317166302509e-01	 1.492990256913498e+00	 3.290645954399258e+00
 8.290185772190218e-01	 1.500985146749157e+00	 3.466302122425529e+00
 8.146491163655446e-01	 1.508832309511038e+00	 3.529960455305621e+00
 8.002255678384677e-01	 1.516531260278639e+00	 3.494261889490339e+00
 7.857501680014982e-01	 1.524081558070216e+00	 3.371605316757750e+00
 7.712251547596115e-01	 1.531482805736142e+00	 3.174147775740353e+00
 7.566527665132655e-01	 1.538734649822780e+00	 2.913804532686707e+00
 7.420352411215601e-01	 1.545836780407322e+00	 2.602249072255501e+00
 8.904692188765717e-01	 1.475678696079867e+00	 2.450790692231442e+00
 8.762656970412380e-01	 1.484156816537981e+00	 3.121291392192514e+00
 8.619988545290732e-01	 1.492488177675362e+00	 3.605081403460765e+00
 8.476709223556296e-01	 1.500672159240829e+00	 3.917088870379867e+00
 8.332841373611295e-01	 1.508708185288026e+00	 4.074822452730044e+00
 8.188407411329303e-01	 1.516595724159373e+00	 4.095873432693091e+00
 8.043429789331058e-01	 1.524334288439293e+00	 3.997905992829191e+00
 7.897930986321395e-01	 1.531923434877049e+00	 3.798647008337944e+00
 7.751933496497130e-01	 1.539362764279550e+00	 3.515875392983868e+00
 7.605459819035419e-01	 1.546651921374522e+00	 3.167411040633434e+00
 7.458532447671977e-01	 1.553790594644504e+00	 2.771103406498642e+00
 8.950274924876224e-01	 1.483232631828501e+00	 2.903612548659887e+00
 8.807512634355339e-01	 1.491754151420575e+00	 3.617058491541751e+00
 8.664113895708463e-01	 1.500128160437264e+00	 4.115471463287901e+00
 8.520101133295689e-01	 1.508354035452344e+00	 4.419305515333608e+00
 8.375496830021971e-01	 1.516431197571210e+00	 4.549375622531628e+00
 8.230323516506631e-01	 1.524359112414744e+00	 4.526840817819330e+00
 8.084603760304244e-01	 1.532137290072307e+00	 4.373186506917274e+00
 7.938360155187019e-01	 1.539765285024174e+00	 4.110206017363375e+00
 7.791615310498444e-01	 1.547242696033797e+00	 3.759981439557287e+00
 7.644391840587847e-01	 1.554569166010276e+00	 3.344863820378328e+00
 7.496712354335257e-01	 1.561744381841501e+00	 2.887452772349147e+00
 8.995857557679303e-01	 1.490786550456598e+00	 3.314870329420205e+00
 8.852368196638791e-01	 1.499351469084235e+00	 4.032703974369886e+00
 8.708239146121972e-01	 1.507768125883543e+00	 4.520644269134777e+00
 8.563492944693235e-01	 1.516035894253259e+00	 4.801190909485969e+00
 8.418152189760024e-01	 1.524154192350537e+00	 4.897408079453829e+00
 8.272239526687135e-01	 1.532122483074730e+00	 4.832902063552515e+00
 8.125777637962726e-01	 1.539940274020142e+00	 4.631797804263873e+00
 7.978789232426124e-01	 1.547607117398071e+00	 4.318714472755040e+00
 7.831297034567231e-01	 1.555122609928513e+00	 3.918740124497079e+00
 7.683323773907280e-01	 1.562486392701949e+00	 3.457405514619182e+00
 7.534892174470363e-01	 1.569698151011624e+00	 2.960657150463757e+00
 9.041440138830749e-01	 1.498340460524385e+00	 3.669613611133117e+00
 8.897223708094438e-01	 1.506948778138374e+00	 4.362176575059222e+00
 8.752364346535145e-01	 1.515408082671938e+00	 4.819963723380920e+00
 8.606884706921478e-01	 1.523717744348785e+00	 5.066546919561360e+00
 8.460807501163218e-01	 1.531877178377833e+00	 5.126201178380059e+00
 8.314155489370515e-01	 1.539885844936908e+00	 5.023878879159411e+00
 8.166951468965006e-01	 1.547743249125263e+00	 4.785182752087933e+00
 8.019218263852995e-01	 1.555448940885219e+00	 4.436337715074860e+00
 7.870978713670681e-01	 1.563002514893328e+00	 4.004161642531546e+00
 7.722255663111076e-01	 1.570403610421449e+00	 3.516035150870036e+00
 7.573071951342214e-01	 1.577651911168186e+00	 2.999870488333493e+00
 9.087022719986347e-01	 1.505894370592087e+00	 3.955617428872664e+00
 8.942079219553956e-01	 1.514546087192401e+00	 4.599533003801996e+00
 8.796489546951897e-01	 1.523048039460192e+00	 5.012792814092012e+00
 8.650276469152963e-01	 1.531399594444139e+00	 5.219085153733761e+00
 8.503462812569321e-01	 1.539600164404925e+00	 5.242875851620217e+00
 8.356071452056488e-01	 1.547649206798855e+00	 5.109381190050971e+00
 8.208125299969579e-01	 1.555546224230132e+00	 4.844539486309628e+00
 8.059647295281903e-01	 1.563290764372100e+00	 4.474981420032412e+00
 7.910660392775967e-01	 1.570882419857870e+00	 4.027999193257882e+00
 7.761187552316586e-01	 1.578320828140681e+00	 3.531514613627170e+00
 7.611251728215739e-01	 1.585605671324500e+00	 3.014046194183337e+00
 9.132605352801892e-01	 1.513448289219931e+00	 4.160888328592282e+00
 8.986934781849053e-01	 1.522143404855727e+00	 4.738935883250064e+00
 8.840614797376112e-01	 1.530688004906044e+00	 5.098494243616599e+00
 8.693668280560238e-01	 1.539081453244533e+00	 5.262429792085031e+00
 8.546118172316102e-01	 1.547323159183640e+00	 5.254397160533554e+00
 8.397987462244753e-01	 1.555412577458151e+00	 5.098812939569004e+00
 8.249299177634937e-01	 1.563349208177210e+00	 4.820828002495471e+00
 8.100076372527125e-01	 1.571132596745196e+00	 4.446298527864604e+00
 7.950342116850274e-01	 1.578762333751769e+00	 4.001755808793752e+00
 7.800119485641155e-01	 1.586238054831553e+00	 3.514374940955252e+00
 7.649431548355849e-01	 1.593559440493879e+00	 3.011942484238704e+00
 9.178188088933178e-01	 1.521002224968144e+00	 4.273659294541183e+00
 9.031790445811415e-01	 1.529740739737763e+00	 4.774651770799649e+00
 8.884740147811701e-01	 1.538327987667236e+00	 5.076431061548582e+00
 8.737060190315843e-01	 1.546763329455182e+00	 5.200120354853782e+00
 8.588773628741327e-01	 1.555046171465807e+00	 5.167578732780922e+00
 8.439903567435021e-01	 1.563175965712369e+00	 5.001377738366517e+00
 8.290473148619583e-01	 1.571152209808962e+00	 4.724776570186291e+00
 8.140505541402934e-01	 1.578974446890986e+00	 4.361695985405914e+00
 7.990023930860779e-01	 1.586642265504654e+00	 3.936690996627645e+00
 7.839051507202141e-01	 1.594155299465974e+00	 3.474922451658541e+00
 7.687611455027474e-01	 1.601513227689634e+00	 3.002127588509097e+00
 9.223770980035991e-01	 1.528556186396949e+00	 4.282384852243899e+00
 9.076646262272738e-01	 1.537338100447917e+00	 4.701049263554044e+00
 8.928865648262556e-01	 1.545967996401507e+00	 4.945967301927406e+00
 8.780452247592323e-01	 1.554445231781298e+00	 5.035614410665799e+00
 8.631429230182767e-01	 1.562769210003252e+00	 4.989087089215699e+00
 8.481819815126992e-01	 1.570939380359090e+00	 4.826084366714684e+00
 8.331647259582009e-01	 1.578955237967850e+00	 4.566887976783784e+00
 8.180934847723605e-01	 1.586816323695950e+00	 4.232341307395507e+00
 8.029705879774670e-01	 1.594522224046154e+00	 3.843827204126014e+00
 7.877983661116885e-01	 1.602072571015847e+00	 3.423244708957861e+00
 7.725791491495536e-01	 1.609467041925078e+00	 2.992984820035396e+00
 9.269354077766124e-01	 1.536110182066576e+00	 4.175736340985242e+00
 9.121502282064713e-01	 1.544935495595601e+00	 4.512597183126123e+00
 8.972991348732574e-01	 1.553608039766600e+00	 4.706468624556775e+00
 8.823844501562227e-01	 1.562127168928098e+00	 4.772290226853719e+00
 8.674085024978194e-01	 1.570492283547801e+00	 4.725445864263176e+00
 8.523736252820379e-01	 1.578702830195891e+00	 4.581752134858702e+00
 8.372821557180713e-01	 1.586758301496337e+00	 4.357445606926710e+00
 8.221364337303418e-01	 1.594658236046570e+00	 4.069168963309261e+00
 8.069388008559120e-01	 1.602402218305899e+00	 3.733956110900928e+00
 7.916915991502745e-01	 1.609989878453082e+00	 3.369216326360974e+00
 7.763971701024950e-01	 1.617420892213523e+00	 2.992717512352030e+00
 7.382172201701207e-01	 1.537882930116643e+00	 2.371029436449415e+00
 7.236297435225110e-01	 1.544800472436972e+00	 2.194863057204095e+00
 7.090017948457513e-01	 1.551568532121260e+00	 2.115581765433434e+00
 6.943355931916827e-01	 1.558186928331899e+00	 2.119564606582446e+00
 6.796333530791191e-01	 1.564655522628554e+00	 2.193453390937099e+00
 6.648972835192718e-01	 1.570974218667745e+00	 2.324155448895943e+00
 6.501295870550970e-01	 1.577142961876710e+00	 2.498846024905318e+00
 6.353324588153149e-01	 1.583161739102190e+00	 2.704970312486287e+00
 6.205080855838198e-01	 1.589030578234767e+00	 2.930245132878472e+00
 6.056586448851712e-01	 1.594749547809442e+00	 3.162660260001463e+00
 5.907863040868248e-01	 1.600318756583150e+00	 3.390479394684740e+00
 7.420352411215601e-01	 1.545836780407322e+00	 2.602249072255501e+00
 7.273723188058242e-01	 1.552790099895475e+00	 2.330000795903967e+00
 7.126687151416508e-01	 1.559593163631131e+00	 2.167100931859438e+00
 6.979266606577137e-01	 1.566245789841412e+00	 2.099067806621541e+00
 6.831483813262161e-01	 1.572747839369985e+00	 2.111663430028000e+00
 6.683360975832732e-01	 1.579099215375095e+00	 2.190819742841770e+00
 6.534920233632909e-01	 1.585299863001742e+00	 2.322643759720885e+00
 6.386183651480936e-01	 1.591349769028650e+00	 2.493422441216992e+00
 6.237173210315201e-01	 1.597248961490656e+00	 2.689627290926818e+00
 6.087910798001863e-01	 1.602997509277233e+00	 2.897918674044601e+00
 5.938418200310727e-01	 1.608595521707807e+00	 3.105149853782132e+00
 7.458532447671977e-01	 1.553790594644504e+00	 2.771103406498642e+00
 7.311148771253558e-01	 1.560779691138358e+00	 2.425835644882917e+00
 7.163356188167301e-01	 1.567617758766773e+00	 2.199202756232434e+00
 7.015177118467748e-01	 1.574304614821597e+00	 2.075209140440846e+00
 6.866633936410276e-01	 1.580840119430500e+00	 2.039088158890618e+00
 6.717748960604549e-01	 1.587224175253450e+00	 2.076164699786742e+00
 6.568544444308601e-01	 1.593456727153210e+00	 2.171862334012661e+00
 6.419042565871184e-01	 1.599537761840478e+00	 2.311710276795408e+00
 6.269265419329615e-01	 1.605467307494346e+00	 2.481350146240956e+00
 6.119235005170091e-01	 1.611245433358750e+00	 2.666542509868072e+00
 5.968973221257120e-01	 1.616872249315604e+00	 2.853173210447300e+00
 7.496712354335257e-01	 1.561744381841501e+00	 2.887452772349147e+00
 7.348574227220943e-01	 1.568769255219472e+00	 2.489885245623081e+00
 7.200025100262408e-01	 1.575642326621699e+00	 2.217501619060946e+00
 7.051087508281582e-01	 1.582363412404755e+00	 2.051990687059402e+00
 6.901783940066800e-01	 1.588932371980312e+00	 1.978401934469272e+00
 6.752136828475825e-01	 1.595349107510062e+00	 1.981814991293817e+00
 6.602168540680257e-01	 1.601613563574521e+00	 2.047348072029323e+00
 6.451901368558957e-01	 1.607725726816363e+00	 2.160166286519066e+00
 6.301357519247769e-01	 1.613685625558930e+00	 2.305489809645362e+00
 6.150559105852531e-01	 1.619493329400616e+00	 2.468601897189962e+00
 5.999528138332071e-01	 1.625148948785818e+00	 2.634856735323692e+00
 7.534892174470363e-01	 1.569698151011624e+00	 2.960657150463757e+00
 7.385999598370280e-01	 1.576758801192669e+00	 2.529501931899687e+00
 7.236693929254339e-01	 1.583666876289425e+00	 2.227485804385238e+00
 7.086997816711579e-01	 1.590422191723191e+00	 2.033321763161810e+00
 6.936933864063007e-01	 1.597024606189638e+00	 1.932213933738257e+00
 6.786524618414209e-01	 1.603474021352178e+00	 1.909352068056780e+00
 6.635792560850077e-01	 1.609770381509082e+00	 1.949920544538141e+00
 6.484760096779308e-01	 1.615913673234994e+00	 2.039107294346669e+00
 6.333449546435997e-01	 1.621903924997502e+00	 2.162112638779713e+00
 6.181883135545339e-01	 1.627741206749455e+00	 2.304158022624937e+00
 6.030082986160217e-01	 1.633425629497728e+00	 2.450494628404174e+00
 7.573071951342214e-01	 1.577651911168186e+00	 2.999870488333493e+00
 7.423424927111456e-01	 1.584748338111799e+00	 2.551981965143677e+00
 7.273362716695602e-01	 1.591691416863465e+00	 2.234520203084022e+00
 7.122908084450659e-01	 1.598480961909206e+00	 2.023020800928103e+00
 6.972083748230158e-01	 1.605116831228691e+00	 1.903069351738417e+00
 6.820912369387350e-01	 1.611598925987050e+00	 1.860314820487571e+00
 6.669416542920269e-01	 1.617927190200302e+00	 1.880372830887664e+00
 6.517618787767300e-01	 1.624101610375061e+00	 1.948834479864798e+00
 6.365541537260625e-01	 1.630122215123159e+00	 2.051275105829211e+00
 6.213207129744667e-01	 1.635989074751893e+00	 2.173262994398827e+00
 6.060637799366202e-01	 1.641702300830610e+00	 2.300368005246060e+00
 7.611251728215739e-01	 1.585605671324500e+00	 3.014046194183338e+00
 7.460850255854350e-01	 1.592737875030713e+00	 2.565132420735092e+00
 7.310031504138708e-01	 1.599715957437334e+00	 2.243848928254386e+00
 7.158818352191763e-01	 1.606539732095104e+00	 2.024817163131151e+00
 7.007233632399525e-01	 1.613209056267687e+00	 1.893450557661654e+00
 6.855300120362904e-01	 1.619723830621925e+00	 1.836200213819067e+00
 6.703040524993042e-01	 1.626083998891588e+00	 1.839471767843935e+00
 6.550477478757982e-01	 1.632289547515253e+00	 1.889633372182158e+00
 6.397633528087988e-01	 1.638340505248991e+00	 1.973023664340261e+00
 6.244531123946662e-01	 1.644236942754548e+00	 2.075959706420802e+00
 6.091192612574667e-01	 1.649978972163745e+00	 2.184744879041695e+00
 7.649431548355849e-01	 1.593559440493879e+00	 3.011942484238704e+00
 7.498275627008849e-01	 1.600727421003264e+00	 2.575867486045814e+00
 7.346700333136174e-01	 1.607740507104548e+00	 2.260597845742548e+00
 7.194728660627816e-01	 1.614598511413189e+00	 2.042352897693139e+00
 7.042383556402380e-01	 1.621301290476840e+00	 1.905778210444272e+00
 6.889687910308518e-01	 1.627848744464054e+00	 1.838463898605351e+00
 6.736664545170600e-01	 1.634240816826348e+00	 1.827958185651229e+00
 6.583336206986419e-01	 1.640477493934260e+00	 1.861773838916096e+00
 6.429725555284411e-01	 1.646558804688096e+00	 1.927394615141004e+00
 6.275855153647476e-01	 1.652484820104049e+00	 2.012281701723199e+00
 6.121747460410250e-01	 1.658255652876409e+00	 2.103880138678577e+00
 7.687611455027474e-01	 1.601513227689634e+00	 3.002127588509097e+00
 7.535701082984835e-01	 1.608716985083301e+00	 2.590768034499322e+00
 7.383369245240510e-01	 1.615765074958621e+00	 2.289777022779722e+00
 7.230639050451747e-01	 1.622657308995762e+00	 2.079184433804672e+00
 7.077533560069987e-01	 1.629393543026364e+00	 1.942412335271138e+00
 6.924075778191850e-01	 1.635973676720688e+00	 1.868520797465583e+00
 6.770288641555144e-01	 1.642397653247990e+00	 1.846547131750124e+00
 6.616195009687661e-01	 1.648665458910769e+00	 1.865510070429328e+00
 6.461817655216227e-01	 1.654777122753565e+00	 1.914413971384289e+00
 6.307179254343258e-01	 1.660732716147016e+00	 1.982253035278438e+00
 6.152302377497595e-01	 1.666532352347879e+00	 2.058015522917245e+00
 7.725791491495536e-01	 1.609467041925078e+00	 2.992984820035396e+00
 7.573126666192194e-01	 1.616706576324677e+00	 2.616268819234289e+00
 7.420038282004221e-01	 1.623789670093067e+00	 2.336339308853541e+00
 7.266549562356495e-01	 1.630716133975127e+00	 2.138784221626068e+00
 7.112683683233616e-01	 1.637485823086475e+00	 2.005653362336867e+00
 6.958463762980548e-01	 1.644098636599074e+00	 1.927745668884066e+00
 6.803912852248891e-01	 1.650554517399922e+00	 1.895928082568293e+00
 6.649053924096767e-01	 1.656853451723470e+00	 1.901080559468170e+00
 6.493909864249762e-01	 1.662995468758495e+00	 1.934097322730378e+00
 6.338503461530158e-01	 1.668980640230076e+00	 1.985888136201748e+00
 6.182857398461339e-01	 1.674809079957435e+00	 2.047379590809912e+00
 7.763971701024950e-01	 1.617420892213523e+00	 2.992717512352030e+00
 7.610552419040807e-01	 1.624696203781240e+00	 2.658662420469675e+00
 7.456707484979823e-01	 1.631814301601403e+00	 2.405681643597450e+00
 7.302460237034977e-01	 1.638774995483586e+00	 2.224542317510066e+00
 7.147833965724535e-01	 1.645578139827385e+00	 2.097743129156070e+00
 6.992851903642262e-01	 1.652223633306464e+00	 2.017473648846194e+00
 6.837537215354034e-01	 1.658711418525549e+00	 1.976765143782441e+00
 6.681912987448795e-01	 1.665041481651053e+00	 1.968708076347344e+00
 6.526002218751353e-01	 1.671213852015979e+00	 1.986449698685335e+00
 6.369827810704327e-01	 1.677228601699848e+00	 2.023191669347940e+00
 6.213412557926123e-01	 1.683085845084353e+00	 2.072187688477775e+00
 5.907863040868248e-01	 1.600318756583150e+00	 3.390479394684741e+00
 5.758957525915404e-01	 1.605737444383062e+00	 3.584810978282655e+00
 5.609866070405670e-01	 1.611006757438059e+00	 3.727825149355146e+00
 5.460609973873252e-01	 1.616126921211349e+00	 3.824500095372382e+00
 5.311210400547076e-01	 1.621098199458451e+00	 3.879839337742626e+00
 5.161688371304696e-01	 1.625920893701830e+00	 3.898855086267175e+00
 5.012064755825815e-01	 1.630595342686943e+00	 3.886551890855606e+00
 4.862360264949831e-01	 1.635121921820524e+00	 3.847910608826826e+00
 4.712595443241364e-01	 1.639501042591871e+00	 3.787872705377007e+00
 4.562790661767438e-01	 1.643733151977961e+00	 3.711324904084349e+00
 4.412966111089681e-01	 1.647818731833210e+00	 3.623084203639233e+00
 5.938418200310727e-01	 1.608595521707807e+00	 3.105149853782133e+00
 5.788742553802930e-01	 1.614042234677985e+00	 3.280953696148007e+00
 5.638880005063792e-01	 1.619338800344882e+00	 3.407085191967458e+00
 5.488851963787501e-01	 1.624485445337789e+00	 3.488680629947153e+00
 5.338679703663187e-01	 1.629482434776356e+00	 3.530936838806855e+00
 5.188384354287184e-01	 1.634330071742502e+00	 3.539093600393109e+00
 5.037986893276002e-01	 1.639028696733660e+00	 3.518416329425823e+00
 4.887508138584330e-01	 1.643578687098145e+00	 3.474179039881145e+00
 4.736968741032108e-01	 1.647980456453455e+00	 3.411647617307158e+00
 4.586389177044372e-01	 1.652234454088310e+00	 3.336063415692515e+00
 4.435789741607188e-01	 1.656341164349249e+00	 3.252627196859632e+00
 5.968973221257120e-01	 1.616872249315604e+00	 2.853173210447300e+00
 5.818527446684305e-01	 1.622346987328963e+00	 3.010598309896523e+00
 5.667893808209928e-01	 1.627670805484157e+00	 3.120925790319479e+00
 5.517093825687714e-01	 1.632843931576559e+00	 3.189253926951878e+00
 5.366148882266547e-01	 1.637866632089948e+00	 3.220773050930981e+00
 5.215080216261112e-01	 1.642739211665698e+00	 3.220747349896498e+00
 5.063908913224290e-01	 1.647462012553212e+00	 3.194496903312457e+00
 4.912655898225618e-01	 1.652035414042385e+00	 3.147379973689051e+00
 4.761341928339942e-01	 1.656459831878909e+00	 3.084775574227892e+00
 4.609987585349881e-01	 1.660735717663242e+00	 3.012066332788292e+00
 4.458613268665516e-01	 1.664863558234037e+00	 2.934621671472077e+00
 5.999528138332071e-01	 1.625148948785818e+00	 2.634856735323692e+00
 5.848312238311610e-01	 1.630651711747050e+00	 2.774364300868129e+00
 5.696907512722506e-01	 1.636002782297840e+00	 2.870192772740421e+00
 5.545335591577693e-01	 1.641202389399646e+00	 2.927209476829232e+00
 5.393617967485489e-01	 1.646250800900371e+00	 2.950401655285393e+00
 5.241775987478607e-01	 1.651148323000847e+00	 2.944857980749636e+00
 5.089830845045978e-01	 1.655895299702445e+00	 2.915750272111403e+00
 4.937803572371684e-01	 1.660492112236637e+00	 2.868315433653343e+00
 4.785715032785152e-01	 1.664939178477311e+00	 2.807837638846428e+00
 4.633585913426267e-01	 1.669236952336652e+00	 2.739630779500836e+00
 4.481436718128829e-01	 1.673385923145431e+00	 2.669021200441564e+00
 6.030082986160217e-01	 1.633425629497728e+00	 2.450494628404174e+00
 5.878096962436921e-01	 1.638956417343300e+00	 2.572852416706923e+00
 5.725921151479941e-01	 1.644334740227887e+00	 2.655709296077196e+00
 5.573577293461232e-01	 1.649560828279030e+00	 2.703511821030216e+00
 5.421086990448337e-01	 1.654634950708765e+00	 2.720850701185117e+00
 5.268471698191795e-01	 1.659557415277376e+00	 2.712442352629076e+00
 5.115752718116380e-01	 1.664328567738204e+00	 2.683110616350332e+00
 4.962951189520516e-01	 1.668948791264298e+00	 2.637768665773156e+00
 4.810088081988015e-01	 1.673418505857737e+00	 2.581401124919061e+00
 4.657184188015836e-01	 1.677738167742438e+00	 2.519046418238910e+00
 4.504260115861295e-01	 1.681908268741285e+00	 2.455779372705762e+00
 6.060637799366202e-01	 1.641702300830610e+00	 2.300368005246060e+00
 5.907881652812302e-01	 1.647261113528765e+00	 2.406644817674636e+00
 5.754934757360652e-01	 1.652666688716251e+00	 2.478276108428415e+00
 5.601818963342136e-01	 1.657919257686699e+00	 2.519100889122600e+00
 5.448555982283425e-01	 1.663019091016272e+00	 2.533122977176183e+00
 5.295167378652802e-01	 1.667966498024714e+00	 2.524492905248584e+00
 5.141674561810801e-01	 1.672761826217335e+00	 2.497489962016484e+00
 4.988098778170105e-01	 1.677405460708763e+00	 2.456504386007824e+00
 4.834461103568818e-01	 1.681897823629267e+00	 2.406019733796640e+00
 4.680782435860895e-01	 1.686239373514497e+00	 2.350595443478688e+00
 4.527083487727080e-01	 1.690430604679451e+00	 2.294849613989248e+00
 6.091192612574667e-01	 1.649978972163745e+00	 2.184744879041694e+00
 5.937666343189832e-01	 1.655565809714499e+00	 2.276305214148290e+00
 5.783948363243070e-01	 1.660998637204889e+00	 2.338671799715875e+00
 5.630060633224202e-01	 1.666277687094635e+00	 2.374892321665373e+00
 5.476024974119078e-01	 1.671403231324035e+00	 2.388196367040770e+00
 5.321863059113755e-01	 1.676375580772290e+00	 2.381978009937106e+00
 5.167596405504552e-01	 1.681195084696685e+00	 2.359778491778148e+00
 5.013246366818435e-01	 1.685862130153426e+00	 2.325269016853464e+00
 4.858834125147845e-01	 1.690377141400979e+00	 2.282233683720611e+00
 4.704380683703745e-01	 1.694740579286728e+00	 2.234552572805768e+00
 4.549906859590346e-01	 1.698952940617783e+00	 2.186185010289397e+00
 6.121747460410250e-01	 1.658255652876409e+00	 2.103880138678577e+00
 5.967451067321587e-01	 1.663870515311554e+00	 2.182378995600799e+00
 5.812962002005601e-01	 1.669330595135754e+00	 2.237653040510924e+00
 5.658302335111228e-01	 1.674636125974823e+00	 2.271777779339633e+00
 5.503493997083629e-01	 1.679787381133194e+00	 2.287024191241975e+00
 5.348558769826780e-01	 1.684784673049532e+00	 2.285842306971944e+00
 5.193518278572937e-01	 1.689628352733098e+00	 2.270844843359608e+00
 5.038393983963497e-01	 1.694318809181683e+00	 2.244790913504369e+00
 4.883207174345374e-01	 1.698856468781952e+00	 2.210569832117619e+00
 4.727978958286690e-01	 1.703241794693026e+00	 2.171185035301793e+00
 4.572730257315263e-01	 1.707475286214137e+00	 2.129738133934043e+00
 6.152302377497595e-01	 1.666532352347879e+00	 2.058015522917245e+00
 5.997235858959635e-01	 1.672175239730982e+00	 2.125393351351506e+00
 5.841975706526672e-01	 1.677662571950801e+00	 2.175954809515894e+00
 5.686544101007016e-01	 1.682994583799245e+00	 2.210625238807078e+00
 5.530963082305408e-01	 1.688171549944890e+00	 2.230535534308631e+00
 5.375254541044006e-01	 1.693193784385869e+00	 2.237007029157039e+00
 5.219440210391266e-01	 1.698061639883421e+00	 2.231536395511081e+00
 5.063541658103280e-01	 1.702775507376928e+00	 2.215780579955930e+00
 4.907580278781689e-01	 1.707335815381264e+00	 2.191541791130488e+00
 4.751577286352038e-01	 1.711743029367290e+00	 2.160752557361682e+00
 4.595553706765995e-01	 1.715997651126365e+00	 2.125460872114568e+00
 6.182857398461339e-01	 1.674809079957435e+00	 2.047379590809913e+00
 6.027020751856050e-01	 1.680479992383838e+00	 2.105857383361486e+00
 5.870989509684704e-01	 1.685994577091986e+00	 2.154290610085061e+00
 5.714785962915362e-01	 1.691353070039888e+00	 2.192279275748116e+00
 5.558432260912740e-01	 1.696555747260267e+00	 2.219635558640134e+00
 5.401950403017557e-01	 1.701602924310728e+00	 2.236370312116219e+00
 5.245362230334848e-01	 1.706494955704498e+00	 2.242679541997193e+00
 5.088689417735772e-01	 1.711232234322558e+00	 2.238930875391584e+00
 4.931953466077078e-01	 1.715815190807992e+00	 2.225650036613789e+00
 4.775175694642090e-01	 1.720244292943415e+00	 2.203507346024262e+00
 4.618377233806708e-01	 1.724520045012323e+00	 2.173304257801759e+00
 6.213412557926123e-01	 1.683085845084353e+00	 2.072187688477775e+00
 6.056805779762906e-01	 1.688784782681174e+00	 2.124262211337683e+00
 5.900003444358113e-01	 1.694326620001263e+00	 2.173352676153756e+00
 5.743027952840069e-01	 1.699711594168735e+00	 2.217561335513365e+00
 5.585901564033956e-01	 1.704939982580464e+00	 2.255205805192151e+00
 5.428646385999558e-01	 1.710012102353537e+00	 2.284807491752874e+00
 5.271284367778988e-01	 1.714928309753176e+00	 2.305079954010679e+00
 5.113837291358960e-01	 1.719688999601967e+00	 2.314917211182390e+00
 4.956326763851813e-01	 1.724294604671215e+00	 2.313382010813113e+00
 4.798774209899149e-01	 1.728745595055301e+00	 2.299694069895286e+00
 4.641200864301568e-01	 1.733042477529863e+00	 2.273218302955579e+00
 4.412966111089681e-01	 1.647818731833210e+00	 3.623084203639233e+00
 4.263141796519200e-01	 1.651758298622600e+00	 3.528527338046165e+00
 4.113337537490910e-01	 1.655552403853629e+00	 3.430067711059208e+00
 3.963572954751309e-01	 1.659201632344353e+00	 3.328173255517664e+00
 3.813867462147714e-01	 1.662706601199298e+00	 3.223510693897270e+00
 3.664240260737301e-01	 1.666067959132822e+00	 3.116973368471079e+00
 3.514710333125002e-01	 1.669286385782073e+00	 3.011195610712003e+00
 3.365296438031382e-01	 1.672362591010333e+00	 2.910314607217944e+00
 3.216017105091286e-01	 1.675297314201602e+00	 2.818373786531201e+00
 3.066890629883714e-01	 1.678091323547173e+00	 2.739366067215035e+00
 2.917935069193159e-01	 1.680745415325032e+00	 2.677244335290269e+00
 4.435789741607188e-01	 1.656341164349249e+00	 3.252627196859632e+00
 4.285190543498036e-01	 1.660301106372383e+00	 3.168794836357282e+00
 4.134611504656968e-01	 1.664114834517588e+00	 3.088267705627465e+00
 3.984072347308053e-01	 1.667782936627572e+00	 3.010703773101945e+00
 3.833592585706105e-01	 1.671306032998505e+00	 2.935923618863084e+00
 3.683191520215247e-01	 1.674684775699870e+00	 2.863906625164455e+00
 3.532888231617544e-01	 1.677919847883867e+00	 2.795887643692359e+00
 3.382701575652775e-01	 1.681011963085166e+00	 2.734861257907019e+00
 3.232650177790171e-01	 1.683961864511827e+00	 2.683802427011556e+00
 3.082752428232595e-01	 1.686770324328196e+00	 2.645603431148297e+00
 2.933026477153374e-01	 1.689438142930575e+00	 2.623086667138939e+00
 4.458613268665516e-01	 1.664863558234037e+00	 2.934621671472077e+00
 4.307239190530261e-01	 1.668843875398534e+00	 2.861268201792681e+00
 4.155885375388807e-01	 1.672677226368962e+00	 2.796611360958023e+00
 4.004571646942260e-01	 1.676364202012672e+00	 2.739771617000649e+00
 3.853317619852419e-01	 1.679905425817453e+00	 2.689998133150306e+00
 3.702142693789848e-01	 1.683301553207896e+00	 2.646658630489521e+00
 3.551066047713233e-01	 1.686553270851235e+00	 2.609940921133455e+00
 3.400106634381067e-01	 1.689661295953505e+00	 2.581906551860727e+00
 3.249283175096477e-01	 1.692626375546808e+00	 2.564738779647798e+00
 3.098614154685703e-01	 1.695449285768520e+00	 2.560506285258142e+00
 2.948117816710419e-01	 1.698130831133236e+00	 2.571177938679944e+00
 4.481436718128829e-01	 1.673385923145431e+00	 2.669021200441564e+00
 4.329287762601861e-01	 1.677386615382004e+00	 2.605571168993115e+00
 4.177159173794299e-01	 1.681239589110945e+00	 2.554474467008772e+00
 4.025070876883904e-01	 1.684945438224232e+00	 2.514582175923247e+00
 3.873042586939053e-01	 1.688504789401261e+00	 2.484842405547004e+00
 3.721093802936372e-01	 1.691918301421715e+00	 2.464291061283671e+00
 3.569243802010784e-01	 1.695186664467848e+00	 2.452445538732102e+00
 3.417511633939113e-01	 1.698310599417042e+00	 2.450629401654004e+00
 3.265916115858005e-01	 1.701290857125424e+00	 2.460507370399224e+00
 3.114475827216708e-01	 1.704128217703386e+00	 2.483597160266921e+00
 2.963209104964883e-01	 1.706823489783799e+00	 2.521286678153077e+00
 4.504260115861295e-01	 1.681908268741285e+00	 2.455779372705762e+00
 4.351336284698812e-01	 1.685929336003742e+00	 2.401334669931303e+00
 4.198432923981320e-01	 1.689801932446728e+00	 2.361245511631211e+00
 4.045570060362953e-01	 1.693526654986833e+00	 2.334357441498223e+00
 3.892767509318409e-01	 1.697104133495052e+00	 2.319583602823625e+00
 3.740044869130095e-01	 1.700535030106144e+00	 2.315896062387456e+00
 3.587421515108914e-01	 1.703820038517377e+00	 2.322513072797112e+00
 3.434916594049765e-01	 1.706959883277466e+00	 2.340228392094922e+00
 3.282549018922555e-01	 1.709955319066555e+00	 2.370449432086376e+00
 3.130337463799290e-01	 1.712807129968036e+00	 2.414411257751564e+00
 2.978300359017357e-01	 1.715516128733043e+00	 2.473189064310986e+00
 4.527083487727080e-01	 1.690430604679451e+00	 2.294849613989248e+00
 4.373384781807100e-01	 1.694472046944703e+00	 2.248196489041403e+00
 4.219706650057747e-01	 1.698364266079504e+00	 2.216325212175913e+00
 4.066069220609382e-01	 1.702107862025056e+00	 2.198335456288700e+00
 3.912492409342875e-01	 1.705703467843943e+00	 2.193367291859889e+00
 3.758995913846281e-01	 1.709151749026000e+00	 2.200592688043757e+00
 3.605599207606341e-01	 1.712453402783493e+00	 2.219275996637949e+00
 3.452321534435876e-01	 1.715609157336470e+00	 2.249921250578059e+00
 3.299181903137928e-01	 1.718619771189080e+00	 2.293922457384390e+00
 3.146199082407117e-01	 1.721486032397711e+00	 2.352496112214132e+00
 2.993391595968430e-01	 1.724208757831753e+00	 2.426668721769156e+00
 4.549906859590346e-01	 1.698952940617783e+00	 2.186185010289397e+00
 4.395433278912707e-01	 1.703014757885835e+00	 2.145800926213771e+00
 4.240980376131453e-01	 1.706926599712466e+00	 2.119126058874922e+00
 4.086568380853162e-01	 1.710689069063482e+00	 2.105769776282459e+00
 3.932217309364851e-01	 1.714302802193057e+00	 2.105356857796473e+00
 3.777946958560204e-01	 1.717768467946096e+00	 2.117518796181728e+00
 3.623776900101776e-01	 1.721086767049868e+00	 2.141887112952694e+00
 3.469726474820300e-01	 1.724258431395743e+00	 2.178944331948252e+00
 3.315814787351925e-01	 1.727284223311878e+00	 2.230299763961802e+00
 3.162060701013867e-01	 1.730164934827652e+00	 2.297411262124687e+00
 3.008482832918693e-01	 1.732901386930710e+00	 2.381516521415143e+00
 4.572730257315263e-01	 1.707475286214137e+00	 2.129738133934043e+00
 4.417481801001611e-01	 1.711557478508091e+00	 2.093798467372478e+00
 4.262254126310313e-01	 1.715488943048804e+00	 2.069071869581596e+00
 4.107067564324265e-01	 1.719270285826692e+00	 2.055928947342210e+00
 3.951942231736736e-01	 1.722902146287515e+00	 2.054732937643205e+00
 3.796898024747137e-01	 1.726385196631251e+00	 2.065830437643238e+00
 3.641954613193938e-01	 1.729720141100172e+00	 2.089519001650404e+00
 3.487131434925890e-01	 1.732907715256978e+00	 2.126552117362565e+00
 3.332447690412345e-01	 1.735948685253828e+00	 2.178970071336180e+00
 3.177922337593210e-01	 1.738843847093101e+00	 2.248727929620117e+00
 3.023574086968734e-01	 1.741594025880697e+00	 2.337530385698048e+00
 4.595553706765995e-01	 1.715997651126365e+00	 2.125460872114568e+00
 4.439530373059795e-01	 1.720100218492422e+00	 2.091845462364394e+00
 4.283527924702204e-01	 1.724051305791712e+00	 2.065597355464841e+00
 4.127566794252662e-01	 1.727851522039265e+00	 2.048095995122670e+00
 3.971667198810920e-01	 1.731501509872435e+00	 2.040692868798536e+00
 3.815849133882345e-01	 1.735001944846279e+00	 2.044701295641425e+00
 3.660132367481546e-01	 1.738353534718077e+00	 2.061363482566028e+00
 3.504536434475501e-01	 1.741557018721864e+00	 2.092016726658936e+00
 3.349080631166989e-01	 1.744613166833812e+00	 2.139337089035201e+00
 3.193784010118823e-01	 1.747522779029301e+00	 2.206028708554569e+00
 3.038665375219142e-01	 1.750286684532495e+00	 2.294515098626639e+00
 4.618377233806708e-01	 1.724520045012323e+00	 2.173304257801759e+00
 4.461579020073239e-01	 1.728642987519778e+00	 2.139603809899441e+00
 4.304801795414998e-01	 1.732613697644382e+00	 2.108147697271115e+00
 4.148066093868325e-01	 1.736432787425782e+00	 2.081567927980386e+00
 3.991392232939805e-01	 1.740100902692939e+00	 2.062450151956024e+00
 3.834800307441104e-01	 1.743618722355998e+00	 2.053322140030991e+00
 3.678310183563314e-01	 1.746986957687255e+00	 2.056631092546678e+00
 3.521941493191987e-01	 1.750206351592091e+00	 2.074627443759097e+00
 3.365713628463656e-01	 1.753277677870706e+00	 2.110819115667797e+00
 3.209645736564382e-01	 1.756201740471491e+00	 2.168907260609580e+00
 3.053756714770509e-01	 1.758979372736888e+00	 2.252282120311301e+00
 4.641200864301568e-01	 1.733042477529863e+00	 2.273218302955579e+00
 4.483627767027926e-01	 1.737185795271111e+00	 2.236740649291260e+00
 4.326075762556573e-01	 1.741176128310005e+00	 2.196178131781915e+00
 4.168565486401227e-01	 1.745014091710825e+00	 2.155655252420897e+00
 4.011117356475782e-01	 1.748700334494148e+00	 2.119233927895099e+00
 3.853751566898679e-01	 1.752235538925222e+00	 2.090900295872826e+00
 3.696488082037957e-01	 1.755620419791376e+00	 2.074550576409453e+00
 3.539346630798197e-01	 1.758855723669352e+00	 2.073690254652497e+00
 3.382346701150147e-01	 1.761942228183390e+00	 2.092848648525798e+00
 3.225507534903555e-01	 1.764880741254913e+00	 2.136968019183173e+00
 3.068848122723423e-01	 1.767672100344656e+00	 2.210649405891225e+00
 2.917935069193159e-01	 1.680745415325032e+00	 2.677244335290269e+00
 2.769142968207429e-01	 1.683260828760689e+00	 2.631922387822456e+00
 2.620557273201212e-01	 1.685637950418222e+00	 2.600005927634964e+00
 2.472195345445104e-01	 1.687877655672838e+00	 2.580206953548458e+00
 2.324074289780241e-01	 1.689980845083896e+00	 2.570950990569531e+00
 2.176210951024806e-01	 1.691948443648752e+00	 2.570399230235620e+00
 2.028621910608533e-01	 1.693781400053988e+00	 2.576470434079640e+00
 1.881323483433538e-01	 1.695480685924739e+00	 2.586862553119892e+00
 1.734331714959617e-01	 1.697047295072823e+00	 2.599074019364735e+00
 1.587662378511934e-01	 1.698482242744367e+00	 2.610424668388527e+00
 1.441330972808751e-01	 1.699786564867602e+00	 2.618076255073888e+00
 2.933026477153374e-01	 1.689438142930575e+00	 2.623086667138939e+00
 2.783464831184466e-01	 1.691966565953688e+00	 2.612617063598235e+00
 2.634110658716375e-01	 1.694355981960888e+00	 2.608492347679885e+00
 2.484981410811182e-01	 1.696607270854758e+00	 2.610172575738983e+00
 2.336094280775258e-01	 1.698721337852289e+00	 2.616855053668121e+00
 2.187466200547211e-01	 1.700699112734856e+00	 2.627495268422050e+00
 2.039113837314958e-01	 1.702541549095582e+00	 2.640827577903518e+00
 1.891053590360338e-01	 1.704249623584780e+00	 2.655385613723111e+00
 1.743301588129330e-01	 1.705824335154196e+00	 2.669522354427001e+00
 1.595873685525815e-01	 1.707266704300739e+00	 2.681429829845906e+00
 1.448785461426520e-01	 1.708577772310391e+00	 2.689158420244663e+00
 2.948117816710419e-01	 1.698130831133236e+00	 2.571177938679944e+00
 2.797786629246872e-01	 1.700672263684863e+00	 2.590325566295835e+00
 2.647663982800408e-01	 1.703073973986022e+00	 2.610356032780816e+00
 2.497767418224222e-01	 1.705336846466656e+00	 2.631241926231971e+00
 2.348114217289577e-01	 1.707461791001365e+00	 2.652715563787598e+00
 2.198721399055148e-01	 1.709449742155527e+00	 2.674289035231088e+00
 2.049605716466700e-01	 1.711301658428788e+00	 2.695273993659131e+00
 1.900783653185451e-01	 1.713018521496616e+00	 2.714801149042148e+00
 1.752271420643233e-01	 1.714601335450664e+00	 2.731839423604031e+00
 1.604084955322314e-01	 1.716051126038605e+00	 2.745214731020844e+00
 1.456239916257571e-01	 1.717368939904149e+00	 2.753628344472734e+00
 2.963209104964883e-01	 1.706823489783799e+00	 2.521286678153077e+00
 2.812108378623159e-01	 1.709377931819725e+00	 2.565049326439611e+00
 2.661217260810986e-01	 1.711791936373050e+00	 2.605762418193283e+00
 2.510553382172414e-01	 1.714066392401066e+00	 2.643679226904927e+00
 2.360134112943329e-01	 1.716202214435967e+00	 2.678833996453140e+00
 2.209976559302213e-01	 1.718200341827125e+00	 2.711061415048992e+00
 2.060097559952416e-01	 1.720061737980688e+00	 2.740015818453307e+00
 1.910513682934293e-01	 1.721787389597271e+00	 2.765190079320011e+00
 1.761241222665274e-01	 1.723378305908415e+00	 2.785934142656682e+00
 1.612296197205777e-01	 1.724835517912544e+00	 2.801473170499902e+00
 1.463694345748583e-01	 1.726160077611077e+00	 2.810925261966911e+00
 2.978300359017357e-01	 1.715516128733043e+00	 2.473189064310986e+00
 2.826430095541834e-01	 1.718083580223782e+00	 2.536792656364104e+00
 2.674770508105791e-01	 1.720509879001397e+00	 2.594876434897206e+00
 2.523339317143950e-01	 1.722795918550522e+00	 2.647746117759976e+00
 2.372153981356646e-01	 1.724942618060942e+00	 2.695508402033442e+00
 2.221231694041994e-01	 1.726950921666006e+00	 2.738090183990486e+00
 2.070589379660766e-01	 1.728821797678364e+00	 2.775257484085393e+00
 1.920243690632279e-01	 1.730556237823766e+00	 2.806634034563558e+00
 1.770211004359405e-01	 1.732155256473636e+00	 2.831719490479680e+00
 1.620507420480548e-01	 1.733619889877132e+00	 2.849907228073965e+00
 1.471148758346237e-01	 1.734951195393385e+00	 2.860501697569204e+00
 2.993391595968430e-01	 1.724208757831753e+00	 2.426668721769156e+00
 2.840751796231410e-01	 1.726789218762543e+00	 2.505562671812088e+00
 2.688323740042503e-01	 1.729227811750488e+00	 2.577862521880019e+00
 2.536125237627020e-01	 1.731525434807560e+00	 2.643701726228729e+00
 2.384173836149657e-01	 1.733683011781130e+00	 2.703033500305696e+00
 2.232486816028083e-01	 1.735701491588526e+00	 2.755650099865731e+00
 2.081081187480406e-01	 1.737581847448899e+00	 2.801201774461420e+00
 1.929973687304829e-01	 1.739325076113126e+00	 2.839215353351871e+00
 1.779180775889581e-01	 1.740932197092512e+00	 2.869112425150485e+00
 1.628718634450974e-01	 1.742404251886952e+00	 2.890227075769230e+00
 1.478603162497211e-01	 1.743742303213276e+00	 2.901823152399610e+00
 3.008482832918693e-01	 1.732901386930710e+00	 2.381516521415143e+00
 2.855073496920396e-01	 1.735494857301518e+00	 2.471369214884851e+00
 2.701876971978803e-01	 1.737945744499749e+00	 2.554884637136758e+00
 2.548911158109815e-01	 1.740254951064713e+00	 2.631802733572363e+00
 2.396193690942495e-01	 1.742423405501375e+00	 2.701700771450431e+00
 2.243741938014072e-01	 1.744452061511047e+00	 2.764012988810149e+00
 2.091572995299995e-01	 1.746341897219373e+00	 2.818049880744716e+00
 1.939703683977355e-01	 1.748093914402372e+00	 2.863017081237686e+00
 1.788150547419749e-01	 1.749709137711230e+00	 2.898033802153258e+00
 1.636929848421399e-01	 1.751188613896581e+00	 2.922150794303179e+00
 1.486057566648185e-01	 1.752533411032956e+00	 2.934367798786366e+00
 3.023574086968734e-01	 1.741594025880697e+00	 2.337530385698048e+00
 2.869395213837304e-01	 1.744200505706217e+00	 2.434224778296587e+00
 2.715430219272370e-01	 1.746663687128603e+00	 2.526106267431775e+00
 2.561697093080523e-01	 1.748984477214517e+00	 2.612303438479195e+00
 2.408213559355292e-01	 1.751163809126522e+00	 2.691798543601948e+00
 2.254997072753554e-01	 1.753202641349921e+00	 2.763447828694789e+00
 2.102064815008191e-01	 1.755101956916870e+00	 2.826001454322939e+00
 1.949433691675278e-01	 1.756862762628529e+00	 2.878122968756601e+00
 1.797120329113862e-01	 1.758486088275977e+00	 2.918408294701700e+00
 1.645141071696168e-01	 1.759972985860596e+00	 2.945404194775032e+00
 1.493511979245838e-01	 1.761324528814632e+00	 2.957626184155512e+00
 3.038665375219142e-01	 1.750286684532495e+00	 2.294515098626639e+00
 2.883716963210641e-01	 1.752906173842148e+00	 2.394144430886740e+00
 2.728983497280884e-01	 1.755381649516476e+00	 2.491690436865178e+00
 2.574483057027337e-01	 1.757714023149505e+00	 2.585455817957501e+00
 2.420233455008178e-01	 1.759904232561414e+00	 2.673612077074933e+00
 2.266252233000118e-01	 1.761953241021510e+00	 2.754220829429924e+00
 2.112556658493652e-01	 1.763862036468471e+00	 2.825254657668256e+00
 1.959163721424012e-01	 1.765631630728619e+00	 2.884617469058075e+00
 1.806090131135872e-01	 1.767263058732940e+00	 2.930164316087760e+00
 1.653352313579627e-01	 1.768757377733578e+00	 2.959720645407880e+00
 1.500966408736851e-01	 1.770115666520508e+00	 2.971100943566463e+00
 3.053756714770509e-01	 1.758979372736888e+00	 2.252282120311301e+00
 2.898038761268919e-01	 1.761611871574821e+00	 2.351145744345688e+00
 2.742536821362024e-01	 1.764099641542793e+00	 2.451799714285070e+00
 2.587269064438446e-01	 1.766443598762214e+00	 2.551509585617807e+00
 2.432253391521285e-01	 1.768644685710895e+00	 2.647423645382915e+00
 2.277507431507357e-01	 1.770703870442168e+00	 2.736595510270359e+00
 2.123048537645037e-01	 1.772622145801259e+00	 2.816006213164156e+00
 1.968893784248975e-01	 1.774400528639667e+00	 2.882585735171699e+00
 1.815059963649729e-01	 1.776040059028305e+00	 2.933233943985948e+00
 1.661563583376121e-01	 1.777541799470105e+00	 2.964840903166928e+00
 1.508420863567902e-01	 1.778906834112791e+00	 2.974306520592815e+00
 3.068848122723423e-01	 1.767672100344656e+00	 2.210649405891225e+00
 2.912360624240649e-01	 1.770317608769745e+00	 2.305248721111165e+00
 2.756090206873471e-01	 1.772817673086979e+00	 2.406596219585371e+00
 2.600055129802040e-01	 1.775173213945177e+00	 2.510712247434636e+00
 2.444273382514744e-01	 1.777385178479808e+00	 2.613512613159691e+00
 2.288762681028862e-01	 1.779454539528256e+00	 2.710832774226248e+00
 2.133540464351001e-01	 1.781382294842315e+00	 2.798451449969702e+00
 1.978623891175583e-01	 1.783169466298693e+00	 2.872113616921716e+00
 1.824029836819386e-01	 1.784817099108259e+00	 2.927552846645841e+00
 1.669774890389995e-01	 1.786326261024755e+00	 2.960512950085267e+00
 1.515875352185671e-01	 1.787698041553686e+00	 2.966768896259652e+00
 1.441330972808751e-01	 1.699786564867602e+00	 2.618076255073888e+00
 1.295377445191109e-01	 1.700961128514523e+00	 2.623019389851832e+00
 1.149791545157106e-01	 1.702007240692378e+00	 2.629802657880985e+00
 1.004587595530120e-01	 1.702925993974722e+00	 2.640844528177319e+00
 8.597796460385999e-02	 1.703718498596106e+00	 2.658608643198922e+00
 7.153814718581784e-02	 1.704385881721215e+00	 2.685612095718602e+00
 5.714065723491034e-02	 1.704929286717479e+00	 2.724433230305120e+00
 4.278681699857358e-02	 1.705349872431669e+00	 2.777718962848112e+00
 2.847792094747452e-02	 1.705648812471032e+00	 2.848191613482726e+00
 1.421523570584970e-02	 1.705827294489458e+00	 2.938655250096248e+00
 0.000000000000000e+00	 1.705886519479168e+00	 3.052001541497071e+00
 1.448785461426520e-01	 1.708577772310391e+00	 2.689158420244663e+00
 1.302077069777978e-01	 1.709758410739589e+00	 2.695536677852657e+00
 1.155738207063259e-01	 1.710809933355354e+00	 2.704430737067597e+00
 1.009783270182690e-01	 1.711733438381984e+00	 2.715376649857579e+00
 8.642263815292352e-02	 1.712530041796110e+00	 2.727956079676340e+00
 7.190813875230727e-02	 1.713200876592063e+00	 2.741808337683477e+00
 5.743618573424903e-02	 1.713747092050717e+00	 2.756641838398183e+00
 4.300810818478481e-02	 1.714169853012343e+00	 2.772244965810411e+00
 2.862520726952154e-02	 1.714470339154033e+00	 2.788496343173471e+00
 1.428875616361536e-02	 1.714649744272164e+00	 2.805374501801653e+00
 0.000000000000000e+00	 1.714709275570436e+00	 2.822966946349529e+00
 1.456239916257571e-01	 1.717368939904149e+00	 2.753628344472734e+00
 1.308776664000111e-01	 1.718555653088151e+00	 2.761116984361740e+00
 1.161684842018141e-01	 1.719612586117377e+00	 2.770896134693518e+00
 1.014978921288511e-01	 1.720540842866837e+00	 2.780372233128080e+00
 8.686730968682779e-02	 1.721341545055211e+00	 2.786994117811016e+00
 7.227812864217506e-02	 1.722015831506447e+00	 2.788268006289320e+00
 5.773171289448491e-02	 1.722564857414828e+00	 2.781771814372016e+00
 4.322939836835357e-02	 1.722989793614098e+00	 2.765168803998560e+00
 2.877249292428877e-02	 1.723291825851158e+00	 2.736220551598735e+00
 1.436227628832789e-02	 1.723472154064845e+00	 2.692799230742316e+00
 0.000000000000000e+00	 1.723531991670303e+00	 2.632899205229223e+00
 1.463694345748583e-01	 1.726160077611077e+00	 2.810925261966911e+00
 1.315476235448691e-01	 1.727352865529281e+00	 2.818989378292099e+00
 1.167631456759571e-01	 1.728415208953636e+00	 2.828335514347566e+00
 1.020174554734269e-01	 1.729348217409838e+00	 2.834981407143933e+00
 8.731197970936264e-02	 1.730153018358599e+00	 2.834980396905957e+00
 7.264811727457655e-02	 1.730830756453453e+00	 2.824438539041993e+00
 5.802723905039373e-02	 1.731382592802073e+00	 2.799531002034117e+00
 4.345068779994050e-02	 1.731809704231651e+00	 2.756517738799101e+00
 2.891977807859615e-02	 1.732113282558871e+00	 2.691758421652584e+00
 1.443579616325058e-02	 1.732294533865007e+00	 2.601726633481792e+00
 0.000000000000000e+00	 1.732354677776619e+00	 2.483023310227297e+00
 1.471148758346237e-01	 1.734951195393385e+00	 2.860501697569204e+00
 1.322175791714902e-01	 1.736150058032052e+00	 2.868400320530918e+00
 1.173578058025364e-01	 1.737217811839318e+00	 2.875904633965083e+00
 1.025370176406654e-01	 1.738155571991545e+00	 2.878372934989525e+00
 8.775664872431782e-02	 1.738964471691459e+00	 2.871188801981391e+00
 7.301810506866725e-02	 1.739645661422167e+00	 2.849779536828944e+00
 5.832276453675114e-02	 1.740200308204714e+00	 2.809633864327452e+00
 4.367197673020620e-02	 1.740629594859717e+00	 2.746318875201198e+00
 2.906706289926362e-02	 1.740934719273633e+00	 2.655496201920587e+00
 1.450931587164670e-02	 1.741116893670152e+00	 2.532937419056475e+00
 0.000000000000000e+00	 1.741177343887234e+00	 2.374538662497113e+00
 1.478603162497211e-01	 1.743742303213276e+00	 2.901823152399610e+00
 1.328875340389929e-01	 1.744947240565538e+00	 2.908613246720162e+00
 1.179524652553341e-01	 1.746020404749609e+00	 2.912777885791129e+00
 1.030565792192352e-01	 1.746962916592514e+00	 2.909733764797851e+00
 8.820131723548325e-02	 1.747775915038981e+00	 2.894909073982206e+00
 7.338809244360252e-02	 1.748460556401677e+00	 2.863762475140778e+00
 5.861828968833286e-02	 1.749018013615008e+00	 2.811801331524431e+00
 4.389326540981127e-02	 1.749449475493014e+00	 2.734599176996213e+00
 2.921434755311115e-02	 1.749756145991908e+00	 2.627812413038042e+00
 1.458283549677953e-02	 1.749939243477786e+00	 2.487196224814225e+00
 0.000000000000000e+00	 1.750000000000000e+00	 2.308619710115154e+00
 1.486057566648185e-01	 1.752533411032956e+00	 2.934367798786366e+00
 1.335574889064956e-01	 1.753744423098810e+00	 2.938908162493668e+00
 1.185471247081317e-01	 1.754822997659698e+00	 2.938147850143659e+00
 1.035761407978050e-01	 1.755770261193304e+00	 2.928268594370335e+00
 8.864598574664863e-02	 1.756587358386351e+00	 2.905446431726959e+00
 7.375807981853776e-02	 1.757275451381068e+00	 2.865870423997867e+00
 5.891381483991457e-02	 1.757835719025220e+00	 2.805760653993458e+00
 4.411455408941636e-02	 1.758269356126260e+00	 2.721385481500812e+00
 2.936163220695867e-02	 1.758577572710158e+00	 2.609078047785026e+00
 1.465635512191236e-02	 1.758761593285413e+00	 2.465252019642270e+00
 0.000000000000000e+00	 1.758822656112766e+00	 2.286416566598374e+00
 1.493511979245838e-01	 1.761324528814632e+00	 2.957626184155512e+00
 1.342274445331167e-01	 1.762541615600941e+00	 2.958581250732694e+00
 1.191417848347111e-01	 1.763625600544772e+00	 2.951224862491504e+00
 1.040957029650435e-01	 1.764577615774469e+00	 2.933199448822612e+00
 8.909065476160387e-02	 1.765398811718757e+00	 2.902121205185613e+00
 7.412806761262845e-02	 1.766090356349429e+00	 2.855597776276214e+00
 5.920934032627197e-02	 1.766653434427608e+00	 2.791245259377447e+00
 4.433584301968205e-02	 1.767089246754171e+00	 2.706704513820882e+00
 2.950891702762615e-02	 1.767399009424845e+00	 2.599656765139018e+00
 1.472987483030848e-02	 1.767583953090539e+00	 2.467838495028432e+00
 0.000000000000000e+00	 1.767645322223381e+00	 2.309055610758812e+00
 1.500966408736851e-01	 1.770115666520508e+00	 2.971100943566463e+00
 1.348974016779748e-01	 1.771338828041004e+00	 2.966944490419708e+00
 1.197364463088540e-01	 1.772428223380018e+00	 2.951236593381475e+00
 1.046152663096194e-01	 1.773384990316567e+00	 2.923765270800623e+00
 8.953532478413871e-02	 1.774210285021388e+00	 2.884268479689792e+00
 7.449805624502995e-02	 1.774905281295844e+00	 2.832449984138809e+00
 5.950486648218080e-02	 1.775471169814435e+00	 2.767994614030248e+00
 4.455713245126898e-02	 1.775909157371465e+00	 2.690582900672461e+00
 2.965620218193353e-02	 1.776220466132433e+00	 2.599905078496912e+00
 1.480339470523116e-02	 1.776406332890666e+00	 2.495674444381915e+00
 0.000000000000000e+00	 1.776468008329698e+00	 2.377640068549250e+00
 1.508420863567902e-01	 1.778906834112791e+00	 2.974306520592815e+00
 1.355673611001880e-01	 1.780136070388071e+00	 2.963325286686821e+00
 1.203311098043423e-01	 1.781230876140625e+00	 2.937427640767377e+00
 1.051348314202015e-01	 1.782192394800156e+00	 2.899221522829517e+00
 8.997999631804297e-02	 1.783021788279429e+00	 2.851237750695141e+00
 7.486804613489774e-02	 1.783720236209401e+00	 2.795943303290487e+00
 5.980039364241670e-02	 1.784288935177960e+00	 2.735754088562923e+00
 4.477842263483776e-02	 1.784729097972858e+00	 2.673047183775596e+00
 2.980348783670076e-02	 1.785041952829383e+00	 2.610172538269861e+00
 1.487691482994369e-02	 1.785228742683300e+00	 2.549464131022976e+00
 0.000000000000000e+00	 1.785290724429565e+00	 2.493250577527510e+00
 1.515875352185671e-01	 1.787698041553686e+00	 2.966768896259652e+00
 1.362373235588749e-01	 1.788933352611214e+00	 2.947066111671139e+00
 1.209257759949575e-01	 1.790033568801779e+00	 2.909059134311449e+00
 1.056543988854585e-01	 1.790999839205792e+00	 2.858839801375184e+00
 9.042466986710648e-02	 1.791833331478070e+00	 2.802392588730338e+00
 7.523803770138718e-02	 1.792535231079186e+00	 2.745604544785468e+00
 6.009592214175536e-02	 1.793106740510443e+00	 2.694274827357887e+00
 4.499971382104898e-02	 1.793549078553067e+00	 2.654123832836232e+00
 2.995077415874777e-02	 1.793863479512159e+00	 2.630801909046353e+00
 1.495043528770935e-02	 1.794051192465945e+00	 2.629897645234516e+00
 0.000000000000000e+00	 1.794113480520832e+00	 2.656945734542232e+00
 1.794113480520832e+00	 0.000000000000000e+00	 8.112181637425461e+00
 1.794051192465945e+00	 1.495043528770836e-02	 6.534743632666083e+00
 1.793863479512158e+00	 2.995077415874692e-02	 5.422903252009208e+00
 1.793549078553066e+00	 4.499971382104827e-02	 4.726290215283637e+00
 1.793106740510443e+00	 6.009592214175480e-02	 4.388801071716774e+00
 1.792535231079187e+00	 7.523803770138675e-02	 4.348548427351229e+00
 1.791833331478071e+00	 9.042466986710623e-02	 4.537813377999431e+00
 1.790999839205791e+00	 1.056543988854583e-01	 4.883001052682189e+00
 1.790033568801779e+00	 1.209257759949575e-01	 5.304599198531768e+00
 1.788933352611214e+00	 1.362373235588751e-01	 5.717139767451786e+00
 1.787698041553686e+00	 1.515875352185671e-01	 6.029163498743657e+00
 1.802937784072603e+00	 0.000000000000000e+00	 1.149107402984727e+01
 1.802875189655369e+00	 1.502396864030362e-02	 9.202493363038249e+00
 1.802686553439808e+00	 3.009808631356830e-02	 7.544172680387946e+00
 1.802370606106978e+00	 4.522104381996007e-02	 6.431614691119250e+00
 1.801926092435116e+00	 6.039150247454263e-02	 5.776656321410191e+00
 1.801351772048239e+00	 7.560809416171167e-02	 5.487510824562207e+00
 1.800646420170603e+00	 9.086942140881944e-02	 5.468812507914982e+00
 1.799808828386452e+00	 1.061740574793719e-01	 5.621663810160006e+00
 1.798837805404581e+00	 1.215205464861688e-01	 5.843684486175484e+00
 1.797732177827113e+00	 1.369074035247444e-01	 6.029062683296885e+00
 1.796490790921936e+00	 1.523331148274494e-01	 6.068607724759625e+00
 1.811762132630000e+00	 0.000000000000000e+00	 1.516576458079467e+01
 1.811699231848858e+00	 1.509750236770970e-02	 1.203896365135758e+01
 1.811509672366819e+00	 3.024539921932970e-02	 9.706954170149906e+00
 1.811192178652375e+00	 4.544237494721785e-02	 8.058194132447815e+00
 1.810745489340192e+00	 6.068708431431658e-02	 6.979194269597922e+00
 1.810168357983385e+00	 7.597815250885374e-02	 6.354636550943717e+00
 1.809459553811654e+00	 9.131417521832746e-02	 6.067494727682007e+00
 1.808617862494764e+00	 1.066937187231593e-01	 5.999156505255801e+00
 1.807642086910848e+00	 1.221153200103886e-01	 6.029546952504690e+00
 1.806531047918943e+00	 1.375774869077655e-01	 6.037252780774930e+00
 1.805283585135210e+00	 1.530786982385879e-01	 5.899647156596924e+00
 1.820586521192396e+00	 0.000000000000000e+00	 1.895811894808086e+01
 1.820523314045960e+00	 1.517103642827948e-02	 1.492436292709767e+01
 1.820332831293267e+00	 3.039271279258782e-02	 1.184189210075195e+01
 1.820013791190213e+00	 4.566370707743835e-02	 9.579083256597412e+00
 1.819564926227870e+00	 6.098266749361515e-02	 8.003739089502787e+00
 1.818984983888418e+00	 7.634821253314039e-02	 6.983266756397334e+00
 1.818272727406976e+00	 9.175893104361936e-02	 6.384857911832988e+00
 1.817426936538807e+00	 1.072133823223500e-01	 6.075669687960148e+00
 1.816446408331353e+00	 1.227100962305709e-01	 5.923006102978361e+00
 1.815329957900539e+00	 1.382475733282074e-01	 5.794499405998550e+00
 1.814076419210772e+00	 1.538242850294628e-01	 5.558290895914697e+00
 1.829410944759166e+00	 0.000000000000000e+00	 2.269336416031506e+01
 1.829347431246227e+00	 1.524457078036579e-02	 1.774115829851802e+01
 1.829156025219229e+00	 3.054002694989930e-02	 1.388093742003335e+01
 1.828835438721452e+00	 4.588504008523830e-02	 1.096784409168066e+01
 1.828384398100345e+00	 6.127825184497686e-02	 8.857478067315077e+00
 1.827801644767130e+00	 7.671827402489902e-02	 7.406118705715073e+00
 1.827085935962325e+00	 9.220368863268434e-02	 6.470948321600281e+00
 1.826236045526661e+00	 1.077330479824734e-01	 5.910275834192937e+00
 1.825250764676867e+00	 1.233048748096698e-01	 5.583760097758828e+00
 1.824128902785732e+00	 1.389176624063391e-01	 5.352632322025306e+00
 1.822869288165890e+00	 1.545698747775544e-01	 5.079917019964634e+00
 1.838235398329687e+00	 0.000000000000000e+00	 2.620000797094996e+01
 1.838171578449207e+00	 1.531810538232149e-02	 2.037402159954205e+01
 1.837979249144781e+00	 3.068734160782080e-02	 1.575731672771532e+01
 1.837657116247048e+00	 4.610637384523443e-02	 1.219853438600974e+01
 1.837203899959812e+00	 6.157383720094010e-02	 9.547465573911001e+00
 1.836618335623317e+00	 7.708833677445702e-02	 7.655301497743952e+00
 1.835899174483453e+00	 9.264844773351147e-02	 6.374884207151106e+00
 1.835045184466402e+00	 1.082527154090590e-01	 5.560956919013019e+00
 1.834055150958159e+00	 1.238996554106393e-01	 5.070413337943973e+00
 1.832927877588356e+00	 1.395877537624296e-01	 4.762545306236246e+00
 1.831662187017830e+00	 1.553154670603430e-01	 4.499288146313313e+00
 1.847059876903333e+00	 0.000000000000000e+00	 2.930976051452982e+01
 1.846995750654451e+00	 1.539164019249942e-02	 2.270977697664418e+01
 1.846802498070001e+00	 3.083465668290898e-02	 1.740550224070978e+01
 1.846478818767959e+00	 4.632770823204344e-02	 1.324569634666247e+01
 1.846023426808468e+00	 6.186942339404342e-02	 1.008062692011399e+01
 1.845435051460771e+00	 7.745840057214178e-02	 7.762331330994658e+00
 1.844712437976115e+00	 9.309320809408997e-02	 6.144878729091088e+00
 1.843854348366112e+00	 1.087723843076360e-01	 5.084631193204121e+00
 1.842859562186001e+00	 1.244944376964336e-01	 4.440503251875228e+00
 1.841726877322242e+00	 1.402578470167478e-01	 4.074219058335102e+00
 1.840455110783858e+00	 1.560610614553088e-01	 3.850566533776330e+00
 1.855884375479479e+00	 0.000000000000000e+00	 3.186128566619106e+01
 1.855819942861508e+00	 1.546517516925245e-02	 2.464086800953995e+01
 1.855625766994964e+00	 3.098197209172050e-02	 1.876418965871935e+01
 1.855300541285142e+00	 4.654904312028212e-02	 1.408670751719015e+01
 1.854842973648509e+00	 6.216501025682523e-02	 1.046542457872703e+01
 1.854251787283286e+00	 7.782846520828068e-02	 7.759141450063957e+00
 1.853525721446064e+00	 9.353796946240889e-02	 5.828707655311435e+00
 1.852663532233867e+00	 1.092920543837340e-01	 4.537272250513251e+00
 1.851663993371164e+00	 1.250892213300065e-01	 3.750526308020806e+00
 1.850525897001225e+00	 1.409279417895628e-01	 3.336743441807382e+00
 1.849248054481242e+00	 1.568066575399323e-01	 3.167328734927805e+00
 1.864708889057499e+00	 0.000000000000000e+00	 3.372232010348689e+01
 1.864644150069929e+00	 1.553871027093341e-02	 2.608637684667697e+01
 1.864449050919747e+00	 3.112928775081202e-02	 1.979651009940325e+01
 1.864122278799557e+00	 4.677037838456715e-02	 1.472132428052521e+01
 1.863662535482128e+00	 6.246059762182402e-02	 1.073066508689215e+01
 1.863068538094658e+00	 7.819853047320120e-02	 7.695848411065569e+00
 1.862339019899055e+00	 9.398273158645745e-02	 5.489888868594662e+00
 1.861472731077748e+00	 1.098117253428823e-01	 3.987727495850579e+00
 1.860468439524420e+00	 1.256840059743123e-01	 3.066458162904098e+00
 1.859324931639138e+00	 1.415980377011436e-01	 2.605552225106014e+00
 1.858041013127248e+00	 1.575522548916935e-01	 2.487080915493597e+00
 1.873533412636770e+00	 0.000000000000000e+00	 3.474463918681476e+01
 1.873468367279264e+00	 1.561224545589516e-02	 2.694925145057497e+01
 1.873272344844427e+00	 3.127660357674020e-02	 2.044981713562439e+01
 1.872944026312159e+00	 4.699171389951528e-02	 1.513442628351649e+01
 1.872482107311525e+00	 6.275618532157827e-02	 1.089177655862450e+01
 1.871885298898677e+00	 7.856859615723068e-02	 7.611363844278950e+00
 1.871152328340842e+00	 9.442749421422478e-02	 5.183672303766449e+00
 1.870281939905831e+00	 1.103313968906103e-01	 3.500363524316934e+00
 1.869272895656538e+00	 1.262787912923049e-01	 2.454464347514928e+00
 1.868123976249811e+00	 1.422681343717592e-01	 1.940552970249162e+00
 1.866833981739142e+00	 1.582978530880728e-01	 1.854942880152517e+00
 1.882357941216666e+00	 0.000000000000000e+00	 3.477763643725758e+01
 1.882292589489063e+00	 1.568578068249056e-02	 2.712919510203272e+01
 1.882095643769081e+00	 3.142391948606171e-02	 2.066724013334921e+01
 1.881765778823908e+00	 4.721304953974327e-02	 1.530558298189959e+01
 1.881301684138893e+00	 6.305177318862648e-02	 1.095768316385839e+01
 1.880702064699139e+00	 7.893866205069652e-02	 7.536784944874372e+00
 1.879965641777177e+00	 9.487225709369997e-02	 4.956053371866321e+00
 1.879091153726199e+00	 1.108510687324475e-01	 3.128709352211473e+00
 1.878077356778291e+00	 1.268735769469385e-01	 1.968163467702199e+00
 1.876923025847079e+00	 1.429382314216786e-01	 1.388148193471207e+00
 1.875626955334190e+00	 1.590434517065505e-01	 1.302848173902104e+00
 1.787698041553686e+00	 1.515875352185671e-01	 6.029163498743658e+00
 1.786326261024755e+00	 1.669774890389988e-01	 6.187617481580092e+00
 1.784817099108259e+00	 1.824029836819379e-01	 6.214325907847725e+00
 1.783169466298693e+00	 1.978623891175576e-01	 6.127078415555310e+00
 1.781382294842314e+00	 2.133540464350997e-01	 5.945444215160164e+00
 1.779454539528256e+00	 2.288762681028857e-01	 5.690776532227453e+00
 1.777385178479808e+00	 2.444273382514740e-01	 5.386211443626559e+00
 1.775173213945176e+00	 2.600055129802037e-01	 5.056661190553445e+00
 1.772817673086980e+00	 2.756090206873468e-01	 4.728802130105867e+00
 1.770317608769745e+00	 2.912360624240647e-01	 4.431057569784334e+00
 1.767672100344656e+00	 3.068848122723423e-01	 4.193575815757121e+00
 1.796490790921936e+00	 1.523331148274494e-01	 6.068607724759626e+00
 1.795112263323674e+00	 1.677987637616727e-01	 5.933995049299971e+00
 1.793595678630914e+00	 1.833001283250068e-01	 5.689254283921347e+00
 1.791939941979431e+00	 1.988355704703719e-01	 5.361752824270580e+00
 1.790143980363745e+00	 2.144034231277070e-01	 4.979589424187557e+00
 1.788206743432129e+00	 2.300019904652596e-01	 4.571562989187188e+00
 1.786127204281779e+00	 2.456295481741353e-01	 4.167135864451627e+00
 1.783904360253470e+00	 2.612843437763503e-01	 3.796391757338832e+00
 1.781537233724924e+00	 2.769645969566062e-01	 3.489988516687008e+00
 1.779024872902189e+00	 2.926684999179882e-01	 3.279106077760852e+00
 1.776366352608243e+00	 3.083942177617580e-01	 3.195389972148436e+00
 1.805283585135210e+00	 1.530786982385879e-01	 5.899647156596926e+00
 1.803898310433295e+00	 1.686200426726874e-01	 5.585328482772447e+00
 1.802374302926518e+00	 1.841972775433771e-01	 5.168540008484304e+00
 1.800710462391899e+00	 1.998087567862867e-01	 4.684100908022399e+00
 1.798905710572194e+00	 2.154528051720141e-01	 4.166708695445916e+00
 1.796958991974783e+00	 2.311277185686937e-01	 3.650878967439496e+00
 1.794869274670746e+00	 2.468317642279395e-01	 3.170879630024147e+00
 1.792635551093389e+00	 2.625631810944035e-01	 2.760659793125232e+00
 1.790256838835518e+00	 2.783201801391766e-01	 2.453773603023643e+00
 1.787732181444672e+00	 2.941009447172261e-01	 2.283299373159002e+00
 1.785060649215598e+00	 3.099036309490485e-01	 2.281754468172453e+00
 1.814076419210772e+00	 1.538242850294628e-01	 5.558290895914697e+00
 1.812684397374696e+00	 1.694413253066293e-01	 5.158190292875751e+00
 1.811152967020335e+00	 1.850944308286472e-01	 4.652847193498124e+00
 1.809481022565932e+00	 2.007819475138219e-01	 4.082443180022316e+00
 1.807667480502450e+00	 2.165021919733756e-01	 3.486378676811871e+00
 1.805711280196355e+00	 2.322534517752947e-01	 2.903190185054897e+00
 1.803611384692580e+00	 2.480339857316648e-01	 2.370461879080637e+00
 1.801366781516948e+00	 2.638420242097387e-01	 1.924731779629411e+00
 1.798976483477317e+00	 2.796757694669589e-01	 1.601392809122648e+00
 1.796439529462697e+00	 2.955333960101377e-01	 1.434589128230742e+00
 1.793754985239578e+00	 3.114130509789675e-01	 1.457108251406952e+00
 1.822869288165890e+00	 1.545698747775544e-01	 5.079917019964634e+00
 1.821470519168950e+00	 1.702626111980846e-01	 4.668899758791747e+00
 1.819931665937626e+00	 1.859915876724152e-01	 4.142894424963285e+00
 1.818251617531361e+00	 2.017551421014973e-01	 3.545391547635622e+00
 1.816429285189302e+00	 2.175515829371460e-01	 2.918632885051503e+00
 1.814463603136981e+00	 2.333791894471684e-01	 2.303512638627900e+00
 1.812353529393162e+00	 2.492362120040901e-01	 1.739472794853008e+00
 1.810098046576164e+00	 2.651208723977317e-01	 1.264392829080730e+00
 1.807696162708878e+00	 2.810313641718543e-01	 9.144740986205067e-01
 1.805146912021767e+00	 2.969658529850817e-01	 7.241193505376309e-01
 1.802449355753047e+00	 3.129224769962685e-01	 7.258078718758396e-01
 1.831662187017830e+00	 1.553154670603430e-01	 4.499288146313313e+00
 1.830256670837134e+00	 1.710838998816394e-01	 4.133529236555068e+00
 1.828710394703656e+00	 1.868887475662795e-01	 3.639453454094181e+00
 1.827022242318018e+00	 2.027283399978324e-01	 3.061842041914003e+00
 1.825191119667539e+00	 2.186009774686797e-01	 2.443950145557746e+00
 1.823215955836795e+00	 2.345049309464211e-01	 1.827398440332157e+00
 1.821095703818368e+00	 2.504384423639941e-01	 1.252058540952119e+00
 1.818829341323052e+00	 2.663997249337579e-01	 7.559324339402975e-01
 1.816415871588759e+00	 2.823869634857640e-01	 3.750262699249367e-01
 1.813854324187387e+00	 2.983983148304172e-01	 1.432189547279794e-01
 1.811143755828862e+00	 3.144319081457049e-01	 9.212608433384872e-02
 1.840455110783858e+00	 1.560610614553088e-01	 3.850566533776330e+00
 1.839042847400324e+00	 1.719051908918804e-01	 3.567910263957301e+00
 1.837489148343687e+00	 1.877859100018383e-01	 3.143347897861348e+00
 1.835792891955739e+00	 2.037015406513474e-01	 2.620967721894671e+00
 1.833952978971950e+00	 2.196503749733315e-01	 2.043243324181971e+00
 1.831968333335933e+00	 2.356306756351590e-01	 1.450922015897124e+00
 1.829837903014075e+00	 2.516406761301552e-01	 8.829065780938126e-01
 1.827560660809629e+00	 2.676785810931931e-01	 3.761305680998985e-01
 1.825135605175517e+00	 2.837425666405889e-01	-3.457248016642334e-02
 1.822561761025060e+00	 2.998307807345035e-01	-3.166055221725879e-01
 1.819838180539883e+00	 3.159413435720306e-01	-4.397495851617981e-01
 1.849248054481242e+00	 1.568066575399323e-01	 3.167328734927805e+00
 1.847829043879594e+00	 1.727264837633934e-01	 2.987639468554776e+00
 1.846267921882982e+00	 1.886830744706899e-01	 2.655451948592294e+00
 1.844563561474353e+00	 2.046747435105618e-01	 2.212211747879973e+00
 1.842714858137325e+00	 2.206997748564558e-01	 1.697848341491845e+00
 1.840720730674533e+00	 2.367564228754885e-01	 1.150666651565735e+00
 1.838580122026158e+00	 2.528429126213521e-01	 6.072313490734986e-01
 1.836292000087911e+00	 2.689574401514129e-01	 1.022441279450401e-01
 1.833855358527708e+00	 2.850981728682301e-01	-3.315857293600364e-01
 1.831269217600288e+00	 3.012632498856995e-01	-6.636770666682055e-01
 1.828532624958970e+00	 3.174507824199989e-01	-8.657183071521610e-01
 1.858041013127248e+00	 1.575522548916935e-01	 2.487080915493595e+00
 1.856615255296021e+00	 1.735477780307652e-01	 2.410498286236088e+00
 1.855046710346803e+00	 1.895802404644325e-01	 2.177665780291638e+00
 1.853334245903695e+00	 2.056479480239954e-01	 1.825465991398355e+00
 1.851476752198452e+00	 2.217491765234071e-01	 1.389513460155408e+00
 1.849473142892728e+00	 2.378821720295156e-01	 9.037113785405331e-01
 1.847322355900494e+00	 2.540451511563633e-01	 4.007603198681720e-01
 1.845023354209912e+00	 2.702363013837927e-01	-8.800629789546566e-02
 1.842575126703891e+00	 2.864537814005889e-01	-5.329297479241912e-01
 1.839976688978579e+00	 3.026957214723643e-01	-9.061552004254607e-01
 1.837227084158984e+00	 3.189602238343635e-01	-1.181767449955530e+00
 1.866833981739142e+00	 1.582978530880728e-01	 1.854942880152517e+00
 1.865401476670680e+00	 1.743690732285816e-01	 1.863649347404216e+00
 1.863825508760415e+00	 1.904774074746644e-01	 1.721508630861529e+00
 1.862104940273597e+00	 2.066211536401683e-01	 1.458962102330744e+00
 1.860238656190121e+00	 2.227985793795398e-01	 1.105645711454659e+00
 1.858225565030656e+00	 2.390079224593465e-01	 6.903151211427292e-01
 1.856064599682962e+00	 2.552473910539676e-01	 2.407642812722997e-01
 1.853754718227649e+00	 2.715151640657081e-01	-2.162628179894743e-01
 1.851294904762621e+00	 2.878093914695661e-01	-6.551841702335761e-01
 1.848684170225434e+00	 3.041281946828569e-01	-1.052042861989549e+00
 1.845921553212783e+00	 3.204696669598779e-01	-1.383974112973709e+00
 1.875626955334190e+00	 1.590434517065505e-01	 1.302848173902105e+00
 1.874187703024645e+00	 1.751903688914292e-01	 1.362654311538258e+00
 1.872604312149079e+00	 1.913745749929839e-01	 1.289680989004317e+00
 1.870875639613893e+00	 2.075943598076000e-01	 1.106076299390468e+00
 1.869000565147121e+00	 2.238479828302088e-01	 8.338101091654551e-01
 1.866977992128452e+00	 2.401336735270876e-01	 4.946226121833750e-01
 1.864806848419438e+00	 2.564496316329435e-01	 1.099660975756052e-01
 1.862486087193140e+00	 2.727940274725351e-01	-2.990603689760707e-01
 1.860014687762457e+00	 2.891650023070629e-01	-7.117836649846918e-01
 1.857391656406358e+00	 3.055606687055365e-01	-1.108037060482333e+00
 1.854616027193228e+00	 3.219791109412959e-01	-1.468248739753194e+00
 1.767672100344656e+00	 3.068848122723423e-01	 4.193575815757121e+00
 1.764880741254913e+00	 3.225507534903543e-01	 4.032332462939861e+00
 1.761942228183390e+00	 3.382346701150138e-01	 3.920479937238007e+00
 1.758855723669352e+00	 3.539346630798190e-01	 3.822595351247719e+00
 1.755620419791376e+00	 3.696488082037950e-01	 3.699585888053957e+00
 1.752235538925222e+00	 3.853751566898675e-01	 3.530470602046710e+00
 1.748700334494149e+00	 4.011117356475780e-01	 3.304960253244527e+00
 1.745014091710825e+00	 4.168565486401224e-01	 2.989581301370649e+00
 1.741176128310005e+00	 4.326075762556573e-01	 2.548506916857622e+00
 1.737185795271111e+00	 4.483627767027928e-01	 1.943601981128583e+00
 1.733042477529863e+00	 4.641200864301568e-01	 1.134423800095236e+00
 1.776366352608243e+00	 3.083942177617580e-01	 3.195389972148436e+00
 1.773561264286633e+00	 3.241372115306150e-01	 3.227448210863045e+00
 1.770608298209911e+00	 3.398982691177453e-01	 3.314772545631350e+00
 1.767506612798326e+00	 3.556754821161409e-01	 3.413644931874674e+00
 1.764255396156726e+00	 3.714669168807957e-01	 3.477708244406506e+00
 1.760853866836163e+00	 3.872706150295302e-01	 3.477339415011826e+00
 1.757301274587891e+00	 4.030845939682787e-01	 3.386873295221811e+00
 1.753596901108929e+00	 4.189068474408174e-01	 3.168572706105024e+00
 1.749740060778345e+00	 4.347353461028813e-01	 2.783473781673755e+00
 1.745730101383382e+00	 4.505680381205852e-01	 2.191407328531195e+00
 1.741566404834599e+00	 4.664028497930368e-01	 1.351024527209656e+00
 1.785060649215598e+00	 3.099036309490485e-01	 2.281754468172453e+00
 1.782241831592177e+00	 3.257236776617571e-01	 2.427025524320120e+00
 1.779274412436605e+00	 3.415618766048292e-01	 2.643382806038641e+00
 1.776157546050095e+00	 3.574163100307003e-01	 2.880970938635681e+00
 1.772890416563749e+00	 3.732850348302820e-01	 3.088283882583716e+00
 1.769472238703889e+00	 3.891660830362387e-01	 3.225600648734718e+00
 1.765902258549744e+00	 4.050574623508447e-01	 3.256582281486716e+00
 1.762179754282671e+00	 4.209571566984042e-01	 3.140659751560179e+00
 1.758304036926028e+00	 4.368631268021764e-01	 2.836912673201390e+00
 1.754274451074868e+00	 4.527733107857277e-01	 2.304110960611709e+00
 1.750090375614572e+00	 4.686856247985898e-01	 1.500760212936117e+00
 1.793754985239578e+00	 3.114130509789675e-01	 1.457108251406951e+00
 1.790922438252172e+00	 3.273101509848771e-01	 1.649326597389368e+00
 1.787940565952282e+00	 3.432254916336510e-01	 1.935264187737676e+00
 1.784808518522069e+00	 3.591571458371234e-01	 2.261052489576970e+00
 1.781525476118869e+00	 3.751031610220786e-01	 2.571644507833728e+00
 1.778090649644257e+00	 3.910615596359786e-01	 2.816731214926499e+00
 1.774503281505424e+00	 4.070303396773920e-01	 2.953536832743985e+00
 1.770762646368043e+00	 4.230074752511032e-01	 2.940014624102050e+00
 1.766868051899751e+00	 4.389909171478490e-01	 2.734441826472404e+00
 1.762818839503396e+00	 4.549785934485991e-01	 2.295476184861294e+00
 1.758614385039166e+00	 4.709684101532610e-01	 1.582215763324834e+00
 1.802449355753047e+00	 3.129224769962685e-01	 7.258078718758405e-01
 1.799603079347242e+00	 3.288966306010713e-01	 9.122483098829601e-01
 1.796606753845749e+00	 3.448891132615959e-01	 1.218780726118438e+00
 1.793459525311652e+00	 3.608979885490363e-01	 1.589614675198129e+00
 1.790160569928509e+00	 3.769212944260097e-01	 1.967245911705151e+00
 1.786709094773127e+00	 3.929570437547357e-01	 2.291356583255284e+00
 1.783104338580646e+00	 4.090032248300363e-01	 2.516372833940766e+00
 1.779345572501041e+00	 4.250578019371356e-01	 2.600096666161016e+00
 1.775432100846214e+00	 4.411187159342062e-01	 2.501131216885402e+00
 1.771363261826792e+00	 4.571838848595787e-01	 2.178946793696496e+00
 1.767138428277760e+00	 4.732512045634946e-01	 1.593949901853459e+00
 1.811143755828862e+00	 3.144319081457049e-01	 9.212608433384872e-02
 1.808283749958020e+00	 3.304831156114362e-01	 2.333270199144519e-01
 1.805272971205817e+00	 3.465527405460495e-01	 5.217165598993048e-01
 1.802110561516253e+00	 3.626388371800650e-01	 9.016413786814070e-01
 1.798795693099089e+00	 3.787394340118994e-01	 1.313736662970409e+00
 1.795327569206358e+00	 3.948525343184955e-01	 1.689270764387284e+00
 1.791705424901127e+00	 4.109761166908936e-01	 1.982931622565536e+00
 1.787928527817661e+00	 4.271081355947222e-01	 2.153669264039408e+00
 1.783996178912116e+00	 4.432465219555545e-01	 2.161515629496697e+00
 1.779907713202884e+00	 4.593891837690459e-01	 1.967654785827395e+00
 1.775662500499735e+00	 4.755340067357352e-01	 1.534496003004808e+00
 1.819838180539883e+00	 3.159413435720306e-01	-4.397495851617981e-01
 1.816964445165127e+00	 3.320696051170678e-01	-3.702568633357530e-01
 1.813939213121292e+00	 3.482163725443969e-01	-1.287148945927254e-01
 1.810761622233280e+00	 3.643796907438359e-01	 2.313876314790890e-01
 1.807430840737038e+00	 3.805575787495722e-01	 6.489768682264972e-01
 1.803946068059810e+00	 3.967480302532436e-01	 1.049455750727049e+00
 1.800306535592583e+00	 4.129490141420798e-01	 1.390278659608023e+00
 1.796511507453898e+00	 4.291584750620841e-01	 1.632816286393603e+00
 1.792560281244154e+00	 4.453743340062008e-01	 1.739607390398131e+00
 1.788452188789497e+00	 4.615944889273798e-01	 1.674427904846979e+00
 1.784186596874472e+00	 4.778168153764275e-01	 1.402362942216947e+00
 1.828532624958970e+00	 3.174507824199989e-01	-8.657183071521610e-01
 1.825645160049192e+00	 3.336560982190630e-01	-8.816745193115545e-01
 1.822605474680987e+00	 3.498800083140239e-01	-7.058621199765776e-01
 1.819412702560138e+00	 3.661205482539751e-01	-3.876084802597413e-01
 1.816066007948776e+00	 3.823757276088526e-01	 1.005642530050121e-02
 1.812564586449340e+00	 3.986435304849657e-01	 4.101004328316277e-01
 1.808907665780729e+00	 4.149219160657105e-01	 7.747217003261078e-01
 1.805094506545749e+00	 4.312088191774424e-01	 1.068958088280185e+00
 1.801124402989027e+00	 4.475021508804514e-01	 1.258908771377041e+00
 1.796996683744460e+00	 4.637997990849598e-01	 1.311797001093225e+00
 1.792710712571352e+00	 4.800996291920159e-01	 1.196035961656038e+00
 1.837227084158984e+00	 3.189602238343635e-01	-1.181767449955530e+00
 1.834325889690843e+00	 3.352425940185181e-01	-1.284444561151600e+00
 1.831271750973707e+00	 3.515436469123155e-01	-1.183627013556921e+00
 1.828063797594234e+00	 3.678614087241088e-01	-9.225143435209696e-01
 1.824701189840726e+00	 3.841938795595647e-01	-5.666872138062016e-01
 1.821183119490811e+00	 4.005390339396475e-01	-1.913809912043977e-01
 1.817508810591282e+00	 4.168948213439020e-01	 1.718284813179313e-01
 1.813677520229209e+00	 4.332591667790174e-01	 4.928670950938872e-01
 1.809688539293435e+00	 4.496299713726133e-01	 7.424240786314704e-01
 1.805541193225597e+00	 4.660051129921649e-01	 8.920032226081385e-01
 1.801234842759755e+00	 4.823824468889450e-01	 9.139775512818291e-01
 1.845921553212783e+00	 3.204696669598779e-01	-1.383974112973708e+00
 1.843006629170708e+00	 3.368290916165294e-01	-1.562429079330611e+00
 1.839938037088262e+00	 3.532072873966573e-01	-1.536456731038244e+00
 1.836714902432977e+00	 3.696022711678629e-01	-1.341191766171767e+00
 1.833336381519313e+00	 3.860120335715329e-01	-1.045651754330991e+00
 1.829801662300079e+00	 4.024345395432744e-01	-7.183310967462713e-01
 1.826109965149958e+00	 4.188677288587697e-01	-3.835560602209915e-01
 1.822260543640271e+00	 4.353095167050305e-01	-6.531701981301219e-02
 1.818252685304075e+00	 4.517577942769935e-01	 2.126714359082584e-01
 1.814085712390736e+00	 4.682104293993746e-01	 4.270050407968726e-01
 1.809758982609063e+00	 4.846652671736595e-01	 5.546283446950748e-01
 1.854616027193228e+00	 3.219791109412959e-01	-1.468248739753194e+00
 1.851687373569412e+00	 3.384155901141933e-01	-1.699829877311967e+00
 1.848604328113462e+00	 3.548709288244347e-01	-1.739335847414885e+00
 1.845366012173774e+00	 3.713431345988638e-01	-1.612329699713025e+00
 1.841971578090960e+00	 3.878301886145815e-01	-1.391953229017345e+00
 1.838420209993003e+00	 4.043300462218324e-01	-1.134831787974556e+00
 1.834711124582473e+00	 4.208406374924301e-01	-8.572930197716109e-01
 1.830843571914933e+00	 4.373598677937027e-01	-5.760725505565527e-01
 1.826816836167647e+00	 4.538856183878984e-01	-3.083057279565038e-01
 1.822630236397704e+00	 4.704157470569681e-01	-7.151488381849247e-02
 1.818283127288656e+00	 4.869480887526040e-01	 1.164080292740099e-01
 1.733042477529863e+00	 4.641200864301568e-01	 1.134423800095236e+00
 1.728745595055301e+00	 4.798774209899135e-01	 2.432483436680147e-01
 1.724294604671216e+00	 4.956326763851802e-01	-5.667847091359095e-01
 1.719688999601968e+00	 5.113837291358949e-01	-1.274121369229785e+00
 1.714928309753177e+00	 5.271284367778979e-01	-1.853938505031227e+00
 1.710012102353537e+00	 5.428646385999550e-01	-2.278106671059851e+00
 1.704939982580465e+00	 5.585901564033950e-01	-2.515154694174996e+00
 1.699711594168736e+00	 5.743027952840064e-01	-2.530236214620267e+00
 1.694326620001263e+00	 5.900003444358111e-01	-2.285098403114849e+00
 1.688784782681174e+00	 6.056805779762906e-01	-1.738053099304570e+00
 1.683085845084354e+00	 6.213412557926126e-01	-8.439506407413545e-01
 1.741566404834599e+00	 4.664028497930368e-01	 1.351024527209657e+00
 1.737248388248177e+00	 4.822376864200964e-01	 4.134193718407675e-01
 1.732775505776295e+00	 4.980704336564107e-01	-4.265374560571993e-01
 1.728147248150731e+00	 5.138989575776163e-01	-1.143912364343207e+00
 1.723363142964937e+00	 5.297211051818782e-01	-1.711781672683737e+00
 1.718422755319014e+00	 5.455347051305395e-01	-2.101218289313751e+00
 1.713325688448433e+00	 5.613375685114939e-01	-2.281278690878107e+00
 1.708071584335666e+00	 5.771274896249299e-01	-2.218990341697449e+00
 1.702660124303875e+00	 5.929022467910560e-01	-1.879339715300288e+00
 1.697091029591799e+00	 6.086596031793869e-01	-1.225261107752807e+00
 1.691364061909009e+00	 6.243973076591316e-01	-2.176264589711659e-01
 1.750090375614572e+00	 4.686856247985898e-01	 1.500760212936114e+00
 1.745751224808450e+00	 4.845979638882660e-01	 5.904714497777730e-01
 1.741256450137057e+00	 5.005082033608793e-01	-2.178076090675218e-01
 1.736605539839576e+00	 5.164141988477118e-01	-8.970522563748893e-01
 1.731798019197280e+00	 5.323137868091998e-01	-1.419332218476552e+00
 1.726833451181668e+00	 5.482047852792105e-01	-1.755817469503578e+00
 1.721711437086255e+00	 5.640849946321488e-01	-1.876783068602944e+00
 1.716431617141206e+00	 5.799521983725480e-01	-1.751613106391470e+00
 1.710993671109924e+00	 5.958041639467488e-01	-1.348803875741402e+00
 1.705397318866751e+00	 6.116386435762436e-01	-6.359664111822360e-01
 1.699642320954944e+00	 6.274533751122271e-01	 4.201714294853184e-01
 1.758614385039166e+00	 4.709684101532610e-01	 1.582215763324832e+00
 1.754254099917486e+00	 4.869582520569317e-01	 7.576790373128719e-01
 1.749737432947277e+00	 5.029459841171647e-01	 3.045737673518323e-02
 1.745063869875115e+00	 5.189294515208410e-01	-5.716006203134540e-01
 1.740232933670093e+00	 5.349064801906228e-01	-1.020632755424229e+00
 1.735244185175092e+00	 5.508748775328534e-01	-1.288783511149536e+00
 1.730097223741669e+00	 5.668324332084014e-01	-1.348222248086777e+00
 1.724791687847675e+00	 5.827769199260977e-01	-1.171159364612758e+00
 1.719327255696745e+00	 5.987060942583666e-01	-7.298604971922985e-01
 1.713703645798822e+00	 6.146176974786299e-01	 3.341129238251084e-03
 1.707920617530850e+00	 6.305094564200207e-01	 1.056034059483460e+00
 1.767138428277760e+00	 4.732512045634946e-01	 1.593949901853457e+00
 1.762757008756646e+00	 4.893185495886022e-01	 8.985867475595120e-01
 1.758218449400724e+00	 5.053837745438453e-01	 2.898173862774587e-01
 1.753522233463964e+00	 5.214447141716648e-01	-2.049320808669144e-01
 1.748667881603261e+00	 5.374991838569074e-01	-5.589233027575271e-01
 1.743654952532881e+00	 5.535449803783530e-01	-7.461357955605470e-01
 1.738483043662412e+00	 5.695798826832934e-01	-7.412940400837602e-01
 1.733151791717387e+00	 5.856016526848158e-01	-5.198915772330164e-01
 1.727660873341673e+00	 6.016080360813869e-01	-5.821215282118875e-02
 1.722010005680807e+00	 6.175967631983170e-01	 6.666520031627174e-01
 1.716198946945416e+00	 6.335655498506330e-01	 1.676784643509474e+00
 1.775662500499735e+00	 4.755340067357352e-01	 1.534496003004806e+00
 1.771259946507290e+00	 4.916788551457862e-01	 9.970032297756832e-01
 1.766699494691173e+00	 5.078215732594996e-01	 5.323280041800422e-01
 1.761980625812735e+00	 5.239599853748425e-01	 1.662479613458010e-01
 1.757102858216673e+00	 5.400918963388135e-01	-7.665965172644551e-02
 1.752065748488628e+00	 5.562150923025945e-01	-1.730533370024649e-01
 1.746868892096222e+00	 5.723273414998669e-01	-1.008589205927615e-01
 1.741511924012661e+00	 5.884263950479396e-01	 1.607026580365254e-01
 1.735994519322042e+00	 6.045099877712874e-01	 6.310913078022766e-01
 1.730316393805499e+00	 6.205758390470735e-01	 1.328427427657469e+00
 1.724477304507334e+00	 6.366216536721855e-01	 2.269475120672832e+00
 1.784186596874472e+00	 4.778168153764275e-01	 1.402362942216947e+00
 1.779762908350782e+00	 4.940391673909927e-01	 1.036995269615514e+00
 1.775180564012395e+00	 5.102593788827063e-01	 7.305292521505709e-01
 1.770439042128041e+00	 5.264752637050345e-01	 5.058881007014269e-01
 1.765537858730214e+00	 5.426846161671013e-01	 3.844688438510402e-01
 1.760476568275929e+00	 5.588852117924632e-01	 3.861062780934803e-01
 1.755254764290835e+00	 5.750748081011636e-01	 5.290413009237411e-01
 1.749872079995814e+00	 5.912511454147059e-01	 8.298936349908062e-01
 1.744328188915190e+00	 6.074119476835451e-01	 1.303638914173976e+00
 1.738622805465689e+00	 6.235549233366698e-01	 1.963590064367104e+00
 1.732755685525294e+00	 6.396777661527995e-01	 2.821382873196209e+00
 1.792710712571352e+00	 4.800996291920159e-01	 1.196035961656039e+00
 1.788265889468485e+00	 4.963994849867308e-01	 1.002882099553569e+00
 1.783661652558164e+00	 5.126971900320439e-01	 8.574346915694373e-01
 1.778897477616497e+00	 5.289905477369012e-01	 7.785761780887603e-01
 1.773972878363771e+00	 5.452773418725307e-01	 7.835220332135637e-01
 1.768887407128378e+00	 5.615553373348441e-01	 8.877885435816661e-01
 1.763640655493990e+00	 5.778222809302256e-01	 1.105165400190401e+00
 1.758232254929163e+00	 5.940759021843520e-01	 1.447693108908471e+00
 1.752661877398449e+00	 6.103139141736381e-01	 1.925645186122338e+00
 1.746929235954171e+00	 6.265340143788759e-01	 2.547515065936957e+00
 1.741034085307989e+00	 6.427338855605964e-01	 3.320007604814632e+00
 1.801234842759755e+00	 4.823824468889450e-01	 9.139775512818287e-01
 1.796768885041758e+00	 4.987598065955091e-01	 8.792299125393994e-01
 1.792142755522252e+00	 5.151350053260909e-01	 8.865208792106767e-01
 1.787355927484714e+00	 5.315058360451024e-01	 9.495249971671884e-01
 1.782407912337233e+00	 5.478700719858620e-01	 1.080292272091288e+00
 1.777298260279568e+00	 5.642254674166222e-01	 1.289224258175827e+00
 1.772026560953423e+00	 5.805697584300946e-01	 1.585055224257625e+00
 1.766592444075025e+00	 5.969006637561151e-01	 1.974838390268058e+00
 1.760995580049157e+00	 6.132158855970431e-01	 2.463937185809858e+00
 1.755235680563738e+00	 6.295131104854617e-01	 3.056021440796190e+00
 1.749312499164107e+00	 6.457900101636972e-01	 3.753068375704661e+00
 1.809758982609063e+00	 4.846652671736595e-01	 5.546283446950748e-01
 1.805271890251967e+00	 5.011201308798364e-01	 6.508465721993790e-01
 1.800623868098430e+00	 5.175728233834260e-01	 7.917171644910863e-01
 1.795814386939307e+00	 5.340211272042982e-01	 9.845584900936987e-01
 1.790842955870483e+00	 5.504628050378552e-01	 1.235288246275796e+00
 1.785709122963095e+00	 5.668956005246829e-01	 1.548412303340860e+00
 1.780412475916871e+00	 5.833172390438123e-01	 1.927018726471952e+00
 1.774952642695718e+00	 5.997254285292316e-01	 2.372776944979540e+00
 1.769329292144649e+00	 6.161178603092384e-01	 2.885941995967403e+00
 1.763542134587182e+00	 6.324922099681967e-01	 3.465363725813890e+00
 1.757590922402342e+00	 6.488461382302234e-01	 4.108500788763945e+00
 1.818283127288656e+00	 4.869480887526040e-01	 1.164080292740099e-01
 1.813774900280472e+00	 5.034804565022218e-01	 3.027765131509079e-01
 1.809104985480471e+00	 5.200106428226275e-01	 5.473958170727553e-01
 1.804272851186890e+00	 5.365364197891487e-01	 8.500983180139017e-01
 1.799278004183412e+00	 5.530555395592704e-01	 1.209719298308364e+00
 1.794119990412552e+00	 5.695657351459109e-01	 1.624102956398531e+00
 1.788798395632072e+00	 5.860647212144210e-01	 2.090113532317586e+00
 1.783312846053559e+00	 6.025501949029394e-01	 2.603651484550022e+00
 1.777663008962260e+00	 6.190198366657010e-01	 3.159674610399343e+00
 1.771848593317296e+00	 6.354713111388515e-01	 3.752223956729676e+00
 1.765869350331383e+00	 6.519022680282957e-01	 4.374454322253966e+00
 1.683085845084354e+00	 6.213412557926126e-01	-8.439506407413554e-01
 1.677228601699849e+00	 6.369827810704320e-01	 1.736986516003071e-01
 1.671213852015979e+00	 6.526002218751347e-01	 1.057100097785009e+00
 1.665041481651053e+00	 6.681912987448789e-01	 1.801627607876012e+00
 1.658711418525549e+00	 6.837537215354029e-01	 2.400645563003470e+00
 1.652223633306464e+00	 6.992851903642255e-01	 2.845519980155303e+00
 1.645578139827386e+00	 7.147833965724529e-01	 3.125632700899641e+00
 1.638774995483586e+00	 7.302460237034971e-01	 3.228398309388416e+00
 1.631814301601403e+00	 7.456707484979819e-01	 3.137917565160969e+00
 1.624696203781240e+00	 7.610552419040804e-01	 2.817743295350696e+00
 1.617420892213523e+00	 7.763971701024949e-01	 2.239836408759010e+00
 1.691364061909009e+00	 6.243973076591316e-01	-2.176264589711677e-01
 1.685478009815265e+00	 6.401157653989908e-01	 8.858775241272129e-01
 1.679433676731163e+00	 6.558100202067585e-01	 1.800414441918438e+00
 1.673230947712444e+00	 6.714777814091277e-01	 2.525884627464693e+00
 1.666869750325086e+00	 6.871167475978315e-01	 3.061314861118144e+00
 1.660350055091832e+00	 7.027246075784859e-01	 3.404878799767383e+00
 1.653671875914328e+00	 7.182990413371282e-01	 3.553919060250346e+00
 1.646835270470162e+00	 7.338377210237484e-01	 3.504970614740888e+00
 1.639840340584065e+00	 7.493383119520894e-01	 3.250151199635650e+00
 1.632687232572591e+00	 7.647984736149539e-01	 2.765470770936395e+00
 1.625376137561633e+00	 7.802158607142236e-01	 2.039011489423783e+00
 1.699642320954944e+00	 6.274533751122271e-01	 4.201714294853202e-01
 1.693727460004945e+00	 6.432487657064578e-01	 1.543991845577039e+00
 1.687653543369646e+00	 6.590198349090151e-01	 2.439434113143010e+00
 1.681420455542223e+00	 6.747642808350729e-01	 3.110459983272098e+00
 1.675028123734150e+00	 6.904797908123047e-01	 3.561134453913068e+00
 1.668476518323915e+00	 7.061640423343688e-01	 3.795654263041909e+00
 1.661765653281227e+00	 7.218147040321778e-01	 3.818376869351053e+00
 1.654895586565994e+00	 7.374294366622454e-01	 3.633849535302291e+00
 1.647866420501339e+00	 7.530058941113775e-01	 3.240470983164522e+00
 1.640678302119975e+00	 7.685417244169505e-01	 2.627658561480236e+00
 1.633331423483267e+00	 7.840345708019715e-01	 1.796175492982949e+00
 1.707920617530850e+00	 6.305094564200207e-01	 1.056034059483461e+00
 1.701976947593920e+00	 6.463817802173634e-01	 2.148202987770443e+00
 1.695873447273244e+00	 6.622296641629146e-01	 2.985663565026095e+00
 1.689610000499428e+00	 6.780507951602820e-01	 3.575980106337412e+00
 1.683186534129443e+00	 6.938428492730280e-01	 3.927639380824477e+00
 1.676603018397522e+00	 7.096034926828038e-01	 4.050085982642035e+00
 1.669859467341436e+00	 7.253303826653485e-01	 3.953757224598274e+00
 1.662955939203413e+00	 7.410211685836475e-01	 3.650113888042498e+00
 1.655892536804974e+00	 7.566734928975217e-01	 3.142665139250097e+00
 1.648669407894992e+00	 7.722849921888694e-01	 2.434134884060948e+00
 1.641286745470310e+00	 7.878532982017723e-01	 1.535062496269001e+00
 1.716198946945416e+00	 6.335655498506330e-01	 1.676784643509475e+00
 1.710226467907224e+00	 6.495148071562377e-01	 2.698647138344500e+00
 1.704093383783774e+00	 6.654395061494696e-01	 3.450367905042934e+00
 1.697799577943102e+00	 6.813373225223234e-01	 3.942660973128565e+00
 1.691344976887671e+00	 6.972059210742070e-01	 4.187825993253265e+00
 1.684729550707461e+00	 7.130429566747216e-01	 4.199789314203810e+00
 1.677953313508303e+00	 7.288460752443860e-01	 3.994143818017605e+00
 1.671016323814749e+00	 7.446129147526156e-01	 3.587786199093715e+00
 1.663918684946717e+00	 7.603411062321973e-01	 2.989890925864282e+00
 1.656660545369243e+00	 7.760282748095092e-01	 2.214173950879903e+00
 1.649242099014651e+00	 7.916720407496621e-01	 1.278970631595125e+00
 1.724477304507334e+00	 6.366216536721855e-01	 2.269475120672831e+00
 1.718476016269890e+00	 6.526478447476121e-01	 3.195438247162314e+00
 1.712313348243052e+00	 6.686493590496899e-01	 3.844581206253259e+00
 1.705989183232283e+00	 6.846238610587631e-01	 4.230320753264599e+00
 1.699503447385540e+00	 7.005690043100479e-01	 4.368167912778508e+00
 1.692856110648541e+00	 7.164824323610515e-01	 4.275773603899378e+00
 1.686047187195182e+00	 7.323617797770374e-01	 3.972972458193726e+00
 1.679076735832334e+00	 7.482046731338077e-01	 3.480720101198775e+00
 1.671944860378315e+00	 7.640087320370795e-01	 2.814689981353059e+00
 1.664651710014327e+00	 7.797715701576683e-01	 1.996509447339906e+00
 1.657197479608172e+00	 7.954907962816750e-01	 1.050772709536755e+00
 1.732755685525294e+00	 6.396777661527995e-01	 2.821382873196209e+00
 1.726725588006950e+00	 6.557808912160165e-01	 3.638670960747487e+00
 1.720533335992895e+00	 6.718592210445868e-01	 4.179114657011788e+00
 1.714178811726014e+00	 6.879104089071703e-01	 4.458392174674006e+00
 1.707661940999752e+00	 7.039320970747547e-01	 4.494631615492703e+00
 1.700982693615570e+00	 7.199219177927243e-01	 4.308459999957998e+00
 1.694141083815422e+00	 7.358774942710485e-01	 3.923050121996799e+00
 1.687137170688498e+00	 7.517964416918844e-01	 3.362560308273306e+00
 1.679971058551517e+00	 7.676763682338440e-01	 2.649003220992954e+00
 1.672642897301842e+00	 7.835148761121460e-01	 1.809347613537777e+00
 1.665152882742761e+00	 7.993095626338458e-01	 8.729265260610211e-01
 1.741034085307989e+00	 6.427338855605964e-01	 3.320007604814633e+00
 1.734975178443437e+00	 6.589139447859820e-01	 4.028423545099503e+00
 1.728753342375118e+00	 6.750690903151718e-01	 4.464564554035755e+00
 1.722368458783333e+00	 6.911969642051115e-01	 4.645934615504004e+00
 1.715820453107013e+00	 7.072951974625338e-01	 4.592691654794954e+00
 1.709109295003357e+00	 7.233614110206694e-01	 4.327698842539211e+00
 1.702234998782373e+00	 7.393932167341655e-01	 3.876573552593412e+00
 1.695197623815573e+00	 7.553882183915052e-01	 3.266332309245981e+00
 1.687997274918069e+00	 7.713440127441658e-01	 2.524185299089384e+00
 1.680634102703389e+00	 7.872581905517401e-01	 1.680379942311074e+00
 1.673108303910304e+00	 8.031283376422097e-01	 7.674848644643039e-01
 1.749312499164107e+00	 6.457900101636972e-01	 3.753068375704661e+00
 1.743224782904385e+00	 6.620470036820394e-01	 4.364760797230742e+00
 1.736973362731538e+00	 6.782789650424554e-01	 4.711320143948482e+00
 1.730558119763282e+00	 6.944835250901548e-01	 4.811645931742742e+00
 1.723978979084028e+00	 7.106583035675909e-01	 4.687345534512422e+00
 1.717235910206709e+00	 7.268009100958163e-01	 4.362786645807031e+00
 1.710328927509388e+00	 7.429089451741350e-01	 3.865157266050134e+00
 1.703258090645889e+00	 7.589800011973302e-01	 3.224457211313882e+00
 1.696023504929720e+00	 7.750116634897204e-01	 2.471018650944996e+00
 1.688625321690569e+00	 7.910015113552501e-01	 1.636795506485130e+00
 1.681063738602686e+00	 8.069471191428014e-01	 7.561052021827204e-01
 1.757590922402342e+00	 6.488461382302234e-01	 4.108500788763945e+00
 1.751474396714826e+00	 6.651800661287188e-01	 4.647736945749797e+00
 1.745193392403971e+00	 6.814888434074490e-01	 4.929571318225291e+00
 1.738747790024900e+00	 6.977700896998675e-01	 4.973874029178247e+00
 1.732137514307501e+00	 7.140214134841311e-01	 4.803128243773576e+00
 1.725362534620436e+00	 7.302404130690962e-01	 4.442482685531484e+00
 1.718422865409816e+00	 7.464246775987030e-01	 3.920075763436086e+00
 1.711318566611778e+00	 7.625717880740187e-01	 3.268766154840188e+00
 1.704049744038217e+00	 7.786793183921834e-01	 2.519727128488194e+00
 1.696616549734979e+00	 7.947448364014740e-01	 1.705292927492373e+00
 1.689019182311793e+00	 8.107659049716559e-01	 8.600591321642107e-01
 1.765869350331383e+00	 6.519022680282957e-01	 4.374454322253966e+00
 1.759724015199794e+00	 6.683131303505517e-01	 4.877398540804015e+00
 1.753413426734233e+00	 6.846987235911637e-01	 5.129316166281804e+00
 1.746937464927228e+00	 7.010566561718174e-01	 5.150628187994016e+00
 1.740296054154137e+00	 7.173845253063597e-01	 4.964126464626735e+00
 1.733489163639346e+00	 7.336799179914384e-01	 4.595025205045462e+00
 1.726516807897010e+00	 7.499404120156162e-01	 4.072256852489009e+00
 1.719379047145570e+00	 7.661635769862305e-01	 3.430514313890044e+00
 1.712075987695309e+00	 7.823469753732302e-01	 2.699989242838803e+00
 1.704607782308222e+00	 7.984881635692114e-01	 1.912091997081786e+00
 1.696974630529512e+00	 8.145846929648082e-01	 1.100241508127872e+00
 1.617420892213523e+00	 7.763971701024949e-01	 2.239836408759010e+00
 1.609989878453082e+00	 7.916915991502730e-01	 1.595669040671387e+00
 1.602402218305899e+00	 8.069388008559107e-01	 1.096240626641151e+00
 1.594658236046571e+00	 8.221364337303407e-01	 7.471180289736152e-01
 1.586758301496337e+00	 8.372821557180704e-01	 5.538206890693071e-01
 1.578702830195891e+00	 8.523736252820372e-01	 5.217977337344402e-01
 1.570492283547801e+00	 8.674085024978190e-01	 6.564035730111748e-01
 1.562127168928098e+00	 8.823844501562221e-01	 9.628720536898563e-01
 1.553608039766600e+00	 8.972991348732569e-01	 1.446289245241549e+00
 1.544935495595602e+00	 9.121502282064712e-01	 2.111564947322427e+00
 1.536110182066576e+00	 9.269354077766122e-01	 2.963403020158481e+00
 1.625376137561633e+00	 7.802158607142236e-01	 2.039011489423783e+00
 1.617908574540580e+00	 7.955855150394799e-01	 1.283884824751345e+00
 1.610283594671409e+00	 8.109077097360987e-01	 7.198494559100563e-01
 1.602501523823640e+00	 8.261800917984519e-01	 3.463352282867522e-01
 1.594562733637453e+00	 8.414003076516984e-01	 1.623730867399049e-01
 1.586467641697350e+00	 8.565660042419762e-01	 1.665779684737184e-01
 1.578216711675283e+00	 8.716748301359977e-01	 3.571306869537558e-01
 1.569810453442782e+00	 8.867244366290573e-01	 7.317588685628845e-01
 1.561249423151682e+00	 9.017124788604670e-01	 1.287717015550263e+00
 1.552534223283045e+00	 9.166366169353817e-01	 2.021765780504574e+00
 1.543665502663949e+00	 9.314945170519777e-01	 2.930150548999475e+00
 1.633331423483267e+00	 7.840345708019715e-01	 1.796175492982948e+00
 1.625827311015202e+00	 7.994794507884304e-01	 9.707414690521275e-01
 1.618165011233726e+00	 8.148766388585917e-01	 3.717695399275319e-01
 1.610344851603284e+00	 8.302237704901996e-01	-6.253853619090144e-03
 1.602367205583006e+00	 8.455184805890036e-01	-1.695391501643708e-01
 1.594232492801211e+00	 8.607584045842814e-01	-1.250062267566237e-01
 1.585941179199240e+00	 8.759411795338146e-01	 1.197024443941988e-01
 1.577493777144135e+00	 8.910644452373244e-01	 5.562081020112890e-01
 1.568890845509755e+00	 9.061258453573618e-01	 1.175381536305626e+00
 1.560132989725942e+00	 9.211230285466261e-01	 1.967328546804062e+00
 1.551220861795396e+00	 9.360536495806617e-01	 2.921375111130593e+00
 1.641286745470310e+00	 7.878532982017723e-01	 1.535062496269000e+00
 1.633746083389548e+00	 8.033734041905228e-01	 6.731513025768083e-01
 1.626046463526597e+00	 8.188455859742730e-01	 6.274262399681962e-02
 1.618188214940832e+00	 8.342674675140894e-01	-3.054458876357667e-01
 1.610171712910338e+00	 8.496366721962542e-01	-4.416384724321014e-01
 1.601997379107259e+00	 8.649508239331301e-01	-3.570105020797589e-01
 1.593665681742335e+00	 8.802075482735139e-01	-6.369799315761261e-02
 1.585177135678125e+00	 8.954044735214981e-01	 4.251926659788532e-01
 1.576532302510527e+00	 9.105392318628177e-01	 1.095574845840151e+00
 1.567731790618172e+00	 9.256094604976628e-01	 1.932371745863197e+00
 1.558776255179390e+00	 9.406128027788884e-01	 2.919506496284153e+00
 1.649242099014651e+00	 7.916720407496621e-01	 1.278970631595125e+00
 1.641664887176220e+00	 8.072673730391527e-01	 4.077227305736114e-01
 1.633927947083770e+00	 8.228145488340280e-01	-1.966740873628773e-01
 1.626031609391615e+00	 8.383111805786261e-01	-5.461149685769970e-01
 1.617976251196791e+00	 8.537548801397167e-01	-6.536295215532288e-01
 1.609762296215283e+00	 8.691432599127000e-01	-5.333889557017509e-01
 1.601390214927231e+00	 8.844739339373399e-01	-2.007132568690830e-01
 1.592860524690725e+00	 8.997445190220527e-01	 3.279216614264773e-01
 1.584173789823706e+00	 9.149526358757109e-01	 1.034876902850716e+00
 1.575330621653610e+00	 9.300959102459478e-01	 1.901343711650948e+00
 1.566331678534406e+00	 9.451719740628823e-01	 2.907336867381832e+00
 1.657197479608172e+00	 7.954907962816750e-01	 1.050772709536755e+00
 1.649583717887820e+00	 8.111613551277174e-01	 1.907676654609238e-01
 1.641809457438996e+00	 8.267835251887402e-01	-3.961033898322609e-01
 1.633875030510958e+00	 8.423549073923153e-01	-7.232106721736439e-01
 1.625780816019710e+00	 8.578731020856597e-01	-8.051995005349175e-01
 1.617527239725068e+00	 8.733357101471682e-01	-6.579965440378002e-01
 1.609114774376592e+00	 8.887403341075366e-01	-2.988159549994748e-01
 1.600543939827905e+00	 9.040845792794623e-01	 2.538346749287088e-01
 1.591815303119002e+00	 9.193660548949177e-01	 9.801486093529104e-01
 1.582929478526133e+00	 9.345823752489378e-01	 1.859014596947730e+00
 1.573887127578916e+00	 9.497311608488682e-01	 2.868011931329762e+00
 1.665152882742761e+00	 7.993095626338458e-01	 8.729265260610213e-01
 1.657502571036947e+00	 8.150553482496138e-01	 3.830873263326517e-02
 1.649690990126024e+00	 8.307525127892950e-01	-5.253436819062290e-01
 1.641718473854194e+00	 8.463986456636626e-01	-8.317561817070889e-01
 1.633585402956432e+00	 8.619913357003486e-01	-8.960185488998734e-01
 1.625292205236402e+00	 8.775281722607137e-01	-7.345914384031716e-01
 1.616839355713080e+00	 8.930067463663480e-01	-3.653127538283201e-01
 1.608227376735635e+00	 9.084246518342023e-01	 1.925962215178753e-01
 1.599456838066123e+00	 9.237794864193145e-01	 9.185250156422392e-01
 1.590528356929616e+00	 9.390688529640905e-01	 1.790468568883581e+00
 1.581442598031394e+00	 9.542903605530698e-01	 2.785022343499789e+00
 1.673108303910304e+00	 8.031283376422097e-01	 7.674848644643059e-01
 1.665421442136204e+00	 8.189493501982381e-01	-3.391374139140779e-02
 1.657572540678602e+00	 8.347215093865761e-01	-5.743647059601542e-01
 1.649561934976651e+00	 8.504423931011736e-01	-8.668464819732529e-01
 1.641390007584303e+00	 8.661095786500523e-01	-9.257401217267172e-01
 1.633057188349071e+00	 8.817206438775129e-01	-7.668373300383238e-01
 1.624563954559359e+00	 8.972731682960193e-01	-4.073483585260109e-01
 1.615910831059886e+00	 9.127647342267473e-01	 1.340903289326963e-01
 1.607098390334780e+00	 9.281929279477776e-01	 8.374087012337619e-01
 1.598127252557938e+00	 9.435553408488627e-01	 1.681096208539529e+00
 1.588998085610311e+00	 9.588495705917116e-01	 2.642195338156407e+00
 1.681063738602686e+00	 8.069471191428014e-01	 7.561052021827213e-01
 1.673340326698193e+00	 8.228433587669878e-01	-1.043495130561245e-02
 1.665454104630480e+00	 8.386905127314682e-01	-5.333034232020909e-01
 1.657405409433659e+00	 8.544861474133527e-01	-8.236466183546490e-01
 1.649194625480663e+00	 8.702278286010372e-01	-8.940013725993633e-01
 1.640822184662861e+00	 8.859131226217444e-01	-7.583056851703710e-01
 1.632288566538091e+00	 9.015395974787935e-01	-4.319093972636407e-01
 1.623594298446628e+00	 9.171048239975716e-01	 6.841525860901859e-02
 1.614739955594678e+00	 9.326063769791830e-01	 7.244633259786276e-01
 1.605726161104973e+00	 9.480418363607115e-01	 1.516587107885076e+00
 1.596553586034144e+00	 9.634087883810178e-01	 2.423686577381570e+00
 1.689019182311793e+00	 8.107659049716559e-01	 8.600591321642124e-01
 1.681259220235513e+00	 8.267373717492592e-01	 1.239409610846526e-01
 1.673335677515406e+00	 8.426595205748560e-01	-3.924600181149641e-01
 1.665248892780547e+00	 8.585299063087067e-01	-6.973900188631826e-01
 1.656999252222854e+00	 8.743460832195703e-01	-8.004235403338472e-01
 1.648587189777560e+00	 8.901056061175850e-01	-7.124779517494468e-01
 1.640013187271940e+00	 9.058060314969151e-01	-4.458282117365727e-01
 1.631277774541833e+00	 9.214449186871494e-01	-1.412164107231634e-02
 1.622381529515527e+00	 9.370198310124075e-01	 5.676073457745698e-01
 1.613325078264600e+00	 9.525283369570938e-01	 1.282922657576975e+00
 1.604109095021363e+00	 9.679680113372132e-01	 2.113972211328748e+00
 1.696974630529512e+00	 8.145846929648082e-01	 1.100241508127872e+00
 1.689178118260765e+00	 8.306313869384492e-01	 3.841472840373558e-01
 1.681217254867131e+00	 8.466285306676240e-01	-1.422940281562705e-01
 1.673092380572644e+00	 8.625736674957397e-01	-4.833768770937447e-01
 1.664803883388218e+00	 8.784643401719195e-01	-6.446123393588570e-01
 1.656352199292954e+00	 8.942980919892130e-01	-6.327477194363054e-01
 1.647737812383569e+00	 9.100724679326290e-01	-4.557865571568269e-01
 1.638961254991470e+00	 9.257850158359557e-01	-1.230089535990182e-01
 1.630023107767036e+00	 9.414332875463270e-01	 3.550078874968006e-01
 1.620923999730693e+00	 9.570148400954669e-01	 9.663690193887347e-01
 1.611664608290443e+00	 9.725272368765220e-01	 1.697841142906105e+00
 1.536110182066576e+00	 9.269354077766122e-01	 2.963403020158479e+00
 1.527132791305695e+00	 9.416523586869447e-01	 3.861302754157355e+00
 1.518004062972558e+00	 9.562987755506877e-01	 4.654727410150788e+00
 1.508724783053639e+00	 9.708723627734075e-01	 5.333685925116608e+00
 1.499295783373475e+00	 9.853708353953261e-01	 5.888895000125962e+00
 1.489717941445333e+00	 9.997919202222378e-01	 6.311775946597909e+00
 1.479992180288704e+00	 1.014133356955129e+00	 6.594665146209810e+00
 1.470119468213546e+00	 1.028392899317367e+00	 6.741336291121114e+00
 1.460100818571260e+00	 1.042568316178337e+00	 6.749201180036003e+00
 1.449937289472463e+00	 1.056657392672377e+00	 6.609111754977868e+00
 1.439629983471600e+00	 1.070657931311884e+00	 6.312364154199035e+00
 1.543665502663949e+00	 9.314945170519777e-01	 2.930150548999475e+00
 1.534643956824760e+00	 9.462838529277522e-01	 3.871236303762547e+00
 1.525470329063080e+00	 9.610023078369365e-01	 4.699329220621051e+00
 1.516145409231251e+00	 9.756475748942754e-01	 5.404474557747453e+00
 1.506670033245125e+00	 9.902173579014734e-01	 5.977097102742428e+00
 1.497045082934008e+00	 1.004709372483678e+00	 6.407995123577349e+00
 1.487271485857252e+00	 1.019121347224653e+00	 6.688333233955061e+00
 1.477350215087430e+00	 1.033451024799512e+00	 6.811141061019495e+00
 1.467282288960102e+00	 1.047696163103880e+00	 6.780195630145365e+00
 1.457068770790184e+00	 1.061854536378336e+00	 6.587508320057071e+00
 1.446710768555018e+00	 1.075923936326990e+00	 6.222016438426260e+00
 1.551220861795396e+00	 9.360536495806617e-01	 2.921375111130593e+00
 1.542155160652689e+00	 9.509153707911350e-01	 3.895634340057668e+00
 1.532936633233446e+00	 9.657058641132331e-01	 4.748845760546183e+00
 1.523566073255896e+00	 9.804228113708188e-01	 5.470777764168500e+00
 1.514044320727234e+00	 9.950639051270245e-01	 6.051321772910208e+00
 1.504372261792829e+00	 1.009626849826293e+00	 6.480484210625661e+00
 1.494550828551916e+00	 1.024109362935106e+00	 6.748377713314872e+00
 1.484580998839716e+00	 1.038509176080270e+00	 6.845211711909381e+00
 1.474463795975967e+00	 1.052824036183593e+00	 6.765205074187845e+00
 1.464200288479920e+00	 1.067051706591839e+00	 6.508706074091518e+00
 1.453791589751842e+00	 1.081189968200777e+00	 6.063320193614486e+00
 1.558776255179390e+00	 9.406128027788884e-01	 2.919506496284153e+00
 1.549666398532978e+00	 9.555469096522795e-01	 3.915954827752729e+00
 1.540402971252602e+00	 9.704094417139244e-01	 4.784731551312742e+00
 1.530986770922394e+00	 9.851980694967543e-01	 5.515020791141969e+00
 1.521418641640915e+00	 9.999104743252769e-01	 6.095944227868801e+00
 1.511699473869616e+00	 1.014544349463179e+00	 6.516551997378777e+00
 1.501830204247639e+00	 1.029097401259614e+00	 6.765813058102142e+00
 1.491811815372873e+00	 1.043567350293024e+00	 6.832605168197970e+00
 1.481645335549267e+00	 1.057951932511356e+00	 6.705704621541383e+00
 1.471331838500422e+00	 1.072248900367507e+00	 6.381073768207629e+00
 1.460872443049564e+00	 1.086456023948855e+00	 5.852531951634583e+00
 1.566331678534406e+00	 9.451719740628823e-01	 2.907336867381831e+00
 1.557177666209127e+00	 9.601784668863710e-01	 3.914036798616110e+00
 1.547869338889494e+00	 9.751130379733581e-01	 4.788822181809000e+00
 1.538407498025565e+00	 9.899733465657978e-01	 5.519991151691354e+00
 1.528792991807278e+00	 1.004757062749529e+00	 6.095664253991256e+00
 1.519026715012187e+00	 1.019461868607437e+00	 6.503775169594850e+00
 1.509109608819361e+00	 1.034085459371301e+00	 6.732061042771986e+00
 1.499042660589376e+00	 1.048625544571160e+00	 6.768052560548217e+00
 1.488826903610410e+00	 1.063079849181050e+00	 6.599063937742921e+00
 1.478463416810444e+00	 1.077446114759960e+00	 6.212811419321613e+00
 1.467953324435676e+00	 1.091722100586833e+00	 5.605588420370084e+00
 1.573887127578916e+00	 9.497311608488682e-01	 2.868011931329762e+00
 1.564688959424633e+00	 9.648100398685951e-01	 3.872091040801145e+00
 1.555335731913071e+00	 9.798166502258812e-01	 4.743324964929902e+00
 1.545828250360228e+00	 9.947486398716654e-01	 5.468829700111478e+00
 1.536167367047434e+00	 1.009603667653077e+00	 6.035498153977367e+00
 1.526353981068362e+00	 1.024379404472165e+00	 6.429991584225542e+00
 1.516389038142021e+00	 1.039073534443294e+00	 6.638730683678252e+00
 1.506273530391697e+00	 1.053683756048060e+00	 6.647886462272963e+00
 1.496008496089809e+00	 1.068207783286553e+00	 6.443371084248092e+00
 1.485595019368734e+00	 1.082643346823816e+00	 6.010828825282648e+00
 1.475034229897670e+00	 1.096988195130322e+00	 5.338114056952140e+00
 1.581442598031394e+00	 9.542903605530698e-01	 2.785022343499789e+00
 1.572200273922992e+00	 9.694416259741379e-01	 3.772691035011770e+00
 1.562802146092280e+00	 9.845202758058416e-01	 4.630809841271863e+00
 1.553249023721202e+00	 9.995239467080732e-01	 5.345021941642901e+00
 1.543541763182496e+00	 1.014450286289221e+00	 5.900770903242730e+00
 1.533681267885961e+00	 1.029296954270462e+00	 6.283293715214814e+00
 1.523668488090563e+00	 1.044061623648717e+00	 6.477613418610683e+00
 1.513504420682306e+00	 1.058741981857107e+00	 6.468531484187043e+00
 1.503190108917871e+00	 1.073335731921745e+00	 6.240620098270934e+00
 1.492726642134045e+00	 1.087840593613695e+00	 5.778214523611936e+00
 1.482115155423036e+00	 1.102254304594929e+00	 5.065405707748684e+00
 1.588998085610311e+00	 9.588495705917116e-01	 2.642195338156407e+00
 1.579711605447703e+00	 9.740732225781839e-01	 3.598764129331301e+00
 1.570268577196068e+00	 9.892239120475869e-01	 4.434200521831198e+00
 1.560669813903308e+00	 1.004299264368737e+00	 5.132389569039818e+00
 1.550916176033572e+00	 1.019296915911257e+00	 5.677108508576364e+00
 1.541008571312801e+00	 1.034214515215427e+00	 6.052022264373655e+00
 1.530947954539925e+00	 1.049049724160696e+00	 6.240678401600757e+00
 1.520735327363677e+00	 1.063800219131686e+00	 6.226501686324644e+00
 1.510371738025008e+00	 1.078463692180506e+00	 5.992788410120724e+00
 1.499858281065129e+00	 1.093037852184217e+00	 5.522700647054312e+00
 1.489196096999267e+00	 1.107520425996264e+00	 4.799260616488430e+00
 1.596553586034144e+00	 9.634087883810178e-01	 2.423686577381571e+00
 1.587222949742264e+00	 9.787048270559200e-01	 3.333582944847249e+00
 1.577735020993383e+00	 9.939275562854638e-01	 4.136765861827714e+00
 1.568090616701363e+00	 1.009074590147373e+00	 4.815082218552728e+00
 1.558290601421774e+00	 1.024143553772483e+00	 5.350430562402414e+00
 1.548335887196703e+00	 1.039132084520157e+00	 5.724759931892659e+00
 1.538227433365048e+00	 1.054037833152356e+00	 5.920067909201530e+00
 1.527966246338281e+00	 1.068858465005180e+00	 5.918398040734196e+00
 1.517553379341630e+00	 1.083591661156715e+00	 5.701836784175381e+00
 1.506989932120735e+00	 1.098235119590002e+00	 5.252510148315040e+00
 1.496277050613855e+00	 1.112786556349938e+00	 4.552668967957310e+00
 1.604109095021363e+00	 9.679680113372132e-01	 2.113972211328749e+00
 1.594734302550172e+00	 9.833364367825309e-01	 2.960757004500636e+00
 1.585201473253172e+00	 9.986312058538210e-01	 3.722111458072174e+00
 1.575511427910188e+00	 1.013849921337697e+00	 4.377569438129889e+00
 1.565665035168214e+00	 1.028990197126197e+00	 4.906942986230543e+00
 1.555663211385484e+00	 1.044049659397754e+00	 5.290325341259036e+00
 1.545506920440873e+00	 1.059025947796823e+00	 5.508092854589863e+00
 1.535197173508592e+00	 1.073916716610972e+00	 5.540905943681730e+00
 1.524735028798148e+00	 1.088719635944252e+00	 5.369709238994238e+00
 1.514121591259616e+00	 1.103432392885668e+00	 4.975731087750196e+00
 1.503358012254291e+00	 1.118052692671558e+00	 4.341926669791622e+00
 1.611664608290443e+00	 9.725272368765220e-01	 1.697841142906104e+00
 1.602245659614925e+00	 9.879680491332032e-01	 2.464224577871594e+00
 1.592667929744381e+00	 1.003334858087005e+00	 3.174171462578995e+00
 1.582932243324602e+00	 1.018625255233427e+00	 3.804632860909161e+00
 1.573039473094003e+00	 1.033836843225697e+00	 4.333130957120795e+00
 1.562990539726966e+00	 1.048967237061314e+00	 4.737767113540444e+00
 1.552786411642341e+00	 1.064014065267221e+00	 4.997228405975441e+00
 1.542428104777079e+00	 1.078974971082447e+00	 5.090792775657214e+00
 1.531916682324971e+00	 1.093847613636997e+00	 4.998332947260522e+00
 1.521253254440523e+00	 1.108629669125836e+00	 4.700319272152249e+00
 1.510438977908069e+00	 1.123318831976734e+00	 4.182065022263195e+00
 1.439629983471600e+00	 1.070657931311884e+00	 6.312364154199035e+00
 1.429178259545016e+00	 1.084570108749448e+00	 5.915979693700087e+00
 1.418585053742233e+00	 1.098389370025116e+00	 5.489670905154370e+00
 1.407851606297432e+00	 1.112113567330683e+00	 5.044430416338966e+00
 1.396979200356835e+00	 1.125740574585664e+00	 4.603502952477308e+00
 1.385969161497703e+00	 1.139268288509219e+00	 4.190118059216601e+00
 1.374822857215517e+00	 1.152694629679524e+00	 3.820389004856465e+00
 1.363541696379728e+00	 1.166017543579481e+00	 3.511295907643476e+00
 1.352127128658505e+00	 1.179235001627677e+00	 3.280682312325855e+00
 1.340580643912978e+00	 1.192345002193526e+00	 3.147249726427441e+00
 1.328903771561460e+00	 1.205345571595528e+00	 3.130550032080166e+00
 1.446710768555018e+00	 1.075923936326990e+00	 6.222016438426261e+00
 1.436207638078101e+00	 1.089904540471294e+00	 5.741978357329583e+00
 1.425562329849847e+00	 1.103791771447829e+00	 5.223440202269682e+00
 1.414776090204504e+00	 1.117583470884436e+00	 4.684814510884766e+00
 1.403850208599420e+00	 1.131277502243543e+00	 4.158937102293829e+00
 1.392786017131682e+00	 1.144871751899366e+00	 3.670003037351918e+00
 1.381584890022769e+00	 1.158364130202484e+00	 3.241011000306547e+00
 1.370248243071623e+00	 1.171752572530697e+00	 2.896304922429525e+00
 1.358777533076577e+00	 1.185035040325052e+00	 2.661562176926409e+00
 1.347174257226612e+00	 1.198209522109982e+00	 2.563778998681101e+00
 1.335439952462451e+00	 1.211274034496471e+00	 2.631253054264759e+00
 1.453791589751842e+00	 1.081189968200777e+00	 6.063320193614486e+00
 1.443237052462367e+00	 1.095238999400726e+00	 5.493213894420657e+00
 1.432539641542876e+00	 1.109194200424686e+00	 4.884634640240386e+00
 1.421700609427711e+00	 1.123053402336496e+00	 4.265127597112507e+00
 1.410721251885383e+00	 1.136814458141450e+00	 3.670053609392482e+00
 1.399602907532831e+00	 1.150475243868766e+00	 3.126245046399741e+00
 1.388346957317566e+00	 1.164033659641381e+00	 2.662053307878848e+00
 1.376954823968062e+00	 1.177487630731942e+00	 2.307501656498745e+00
 1.365427971412847e+00	 1.190835108603911e+00	 2.094266800372991e+00
 1.353767904168788e+00	 1.204074071936691e+00	 2.055657181929860e+00
 1.341976166699057e+00	 1.217202527633707e+00	 2.226587905624069e+00
 1.460872443049564e+00	 1.086456023948855e+00	 5.852531951634583e+00
 1.450266498714448e+00	 1.100573482514591e+00	 5.193321491999456e+00
 1.439516984867485e+00	 1.114596653894036e+00	 4.502801136126478e+00
 1.428625160043144e+00	 1.128523358586982e+00	 3.817449984970223e+00
 1.417592326321118e+00	 1.142351439141542e+00	 3.170328305626656e+00
 1.406419828838237e+00	 1.156078761241895e+00	 2.591760450179730e+00
 1.395109055268068e+00	 1.169703214783290e+00	 2.113938725531710e+00
 1.383661435268645e+00	 1.183222714933180e+00	 1.770903641344937e+00
 1.372078439898727e+00	 1.196635203177400e+00	 1.598520636154174e+00
 1.360361581003097e+00	 1.209938648350282e+00	 1.634453206092622e+00
 1.348512410567412e+00	 1.223131047647648e+00	 1.918132373273555e+00
 1.467953324435676e+00	 1.091722100586833e+00	 5.605588420370085e+00
 1.457295972850974e+00	 1.105907986789738e+00	 4.865475322290880e+00
 1.446494355869842e+00	 1.119999128794229e+00	 4.108135373649112e+00
 1.435549738126890e+00	 1.133993336536009e+00	 3.373236583557501e+00
 1.424463428013025e+00	 1.147888442105974e+00	 2.692585641111462e+00
 1.413236777184987e+00	 1.161682300843225e+00	 2.098825916698241e+00
 1.401871180042429e+00	 1.175372792415285e+00	 1.626499296365584e+00
 1.390368073172970e+00	 1.188957821884376e+00	 1.312023408604012e+00
 1.378728934765629e+00	 1.202435320758665e+00	 1.193665237036997e+00
 1.366955283993134e+00	 1.215803248027381e+00	 1.311511045119263e+00
 1.355048680363653e+00	 1.229059591178706e+00	 1.707432551936204e+00
 1.475034229897670e+00	 1.096988195130322e+00	 5.338114056952140e+00
 1.464325470888582e+00	 1.111242509203015e+00	 4.532400253840988e+00
 1.453471750596112e+00	 1.125401622063611e+00	 3.728407545253713e+00
 1.442474339755039e+00	 1.139463333083694e+00	 2.963332943895424e+00
 1.431334553067501e+00	 1.153425463896903e+00	 2.269015379578362e+00
 1.420053748710169e+00	 1.167285859497232e+00	 1.679094860612118e+00
 1.408633327808805e+00	 1.181042389324441e+00	 1.228991602405019e+00
 1.397074733880639e+00	 1.194692948335492e+00	 9.558817497420403e-01
 1.385379452244967e+00	 1.208235458060854e+00	 8.986696063149466e-01
 1.373549009402492e+00	 1.221667867644615e+00	 1.097956297198326e+00
 1.361584972383916e+00	 1.234988154867292e+00	 1.596004802929299e+00
 1.482115155423036e+00	 1.102254304594929e+00	 5.065405707748685e+00
 1.471354988843903e+00	 1.116577046731271e+00	 4.217480382892738e+00
 1.460449165092463e+00	 1.130804130640535e+00	 3.390687002791022e+00
 1.449398961003681e+00	 1.144933345130152e+00	 2.617990871687340e+00
 1.438205697590944e+00	 1.158962501376486e+00	 1.931188845406527e+00
 1.426870739550870e+00	 1.172889434028388e+00	 1.363613444876091e+00
 1.415395494735353e+00	 1.186712002297834e+00	 9.501116506158797e-01
 1.403781413591250e+00	 1.200428091036492e+00	 7.270206262778455e-01
 1.392029988568154e+00	 1.214035611797111e+00	 7.321402828211365e-01
 1.380142753494762e+00	 1.227532503878613e+00	 1.004702606556760e+00
 1.368121282924333e+00	 1.240916735353818e+00	 1.585337686809962e+00
 1.489196096999267e+00	 1.107520425996264e+00	 4.799260616488430e+00
 1.478384522733568e+00	 1.121911596351353e+00	 3.943380021073589e+00
 1.467426595405061e+00	 1.136206651463346e+00	 3.121524010383660e+00
 1.456323597948904e+00	 1.150403369575501e+00	 2.366883624298771e+00
 1.445076857689750e+00	 1.164499551406878e+00	 1.710074737165295e+00
 1.433687745844180e+00	 1.178493021261167e+00	 1.182836156159356e+00
 1.422157676990231e+00	 1.192381628122537e+00	 8.180093646477637e-01
 1.410488108504401e+00	 1.206163246737341e+00	 6.495157420976657e-01
 1.398680539966603e+00	 1.219835778680583e+00	 7.123311685057185e-01
 1.386736512533540e+00	 1.233397153406000e+00	 1.042457932076237e+00
 1.374657608281044e+00	 1.246845329278696e+00	 1.676893870527611e+00
 1.496277050613855e+00	 1.112786556349938e+00	 4.552668967957310e+00
 1.485414068574213e+00	 1.127246155040111e+00	 3.730557761234799e+00
 1.474404037580072e+00	 1.141609181470395e+00	 2.946963101091987e+00
 1.463248246666797e+00	 1.155873403319857e+00	 2.239120705647377e+00
 1.451948029470316e+00	 1.170036610850236e+00	 1.636054521942335e+00
 1.440504763727184e+00	 1.184096618020045e+00	 1.166640968065823e+00
 1.428919870741593e+00	 1.198051263585625e+00	 8.603026952813039e-01
 1.417194814819693e+00	 1.211898412188002e+00	 7.469887889824239e-01
 1.405331102671727e+00	 1.225635955424417e+00	 8.571531070434020e-01
 1.393330282782418e+00	 1.239261812903405e+00	 1.221730667753729e+00
 1.381193944750181e+00	 1.252773933282339e+00	 1.872112009898860e+00
 1.503358012254291e+00	 1.118052692671558e+00	 4.341926669791622e+00
 1.492443622382469e+00	 1.132580719774393e+00	 3.596647998658378e+00
 1.481381487663662e+00	 1.147011717600031e+00	 2.892556084811718e+00
 1.470172903233450e+00	 1.161343443263336e+00	 2.263262272179424e+00
 1.458819209039041e+00	 1.175573676568716e+00	 1.738937424195561e+00
 1.447321789336972e+00	 1.189700221129493e+00	 1.344344105665399e+00
 1.435682072157595e+00	 1.203720905474172e+00	 1.104091362073356e+00
 1.423901528736725e+00	 1.217633584138439e+00	 1.042619376050308e+00
 1.411981672914939e+00	 1.231436138741759e+00	 1.184183221619219e+00
 1.399924060504986e+00	 1.245126479047455e+00	 1.552835619844119e+00
 1.387730288627881e+00	 1.258702544005156e+00	 2.172408608189161e+00
 1.510438977908069e+00	 1.123318831976734e+00	 4.182065022263195e+00
 1.499473180174970e+00	 1.137915287531046e+00	 3.562237402189833e+00
 1.488358941701999e+00	 1.152414256790601e+00	 2.981740378998517e+00
 1.477097563724953e+00	 1.166813486306054e+00	 2.467333162616646e+00
 1.465690392502321e+00	 1.181110745424474e+00	 2.047975022353334e+00
 1.454138818810631e+00	 1.195303827413987e+00	 1.744714424338287e+00
 1.442444277406394e+00	 1.209390550575254e+00	 1.575970238224812e+00
 1.430608246455096e+00	 1.223368759338615e+00	 1.559156653416739e+00
 1.418632246927650e+00	 1.237236325345754e+00	 1.710674019734522e+00
 1.406517841964842e+00	 1.250991148514776e+00	 2.045899845341185e+00
 1.394266636210279e+00	 1.264631158087561e+00	 2.579179851554724e+00
 1.328903771561460e+00	 1.205345571595528e+00	 3.130550032080166e+00
 1.317100094016168e+00	 1.218232587233964e+00	 3.240487805309553e+00
 1.305169225639270e+00	 1.231006371939438e+00	 3.460191786850228e+00
 1.293112788547912e+00	 1.243665063654852e+00	 3.768231262603206e+00
 1.280932441560393e+00	 1.256206832054128e+00	 4.141304068909552e+00
 1.268629879430219e+00	 1.268629879430219e+00	 4.554275703683508e+00
 1.256206832054128e+00	 1.280932441560393e+00	 4.980219856511710e+00
 1.243665063654852e+00	 1.293112788547913e+00	 5.390460253737419e+00
 1.231006371939438e+00	 1.305169225639270e+00	 5.754613719712087e+00
 1.218232587233963e+00	 1.317100094016168e+00	 6.040634360955471e+00
 1.205345571595528e+00	 1.328903771561460e+00	 6.214858785852614e+00
 1.335439952462451e+00	 1.211274034496471e+00	 2.631253054264759e+00
 1.323578218816319e+00	 1.224224434607888e+00	 2.860497847328209e+00
 1.311588668753623e+00	 1.237061046862685e+00	 3.211806497685846e+00
 1.299472932369836e+00	 1.249782000045293e+00	 3.658405810900134e+00
 1.287232676642098e+00	 1.262385454827237e+00	 4.171395767357043e+00
 1.274869604659506e+00	 1.274869604659506e+00	 4.719797408516930e+00
 1.262385454827237e+00	 1.287232676642098e+00	 5.270602456902822e+00
 1.249782000045293e+00	 1.299472932369836e+00	 5.788824549343637e+00
 1.237061046862685e+00	 1.311588668753623e+00	 6.237551967807057e+00
 1.224224434607888e+00	 1.323578218816319e+00	 6.578001757414154e+00
 1.211274034496471e+00	 1.335439952462451e+00	 6.769575126860113e+00
 1.341976166699057e+00	 1.217202527633707e+00	 2.226587905624069e+00
 1.330056376655977e+00	 1.230216312541315e+00	 2.584974353491620e+00
 1.318008144608183e+00	 1.243115752665815e+00	 3.065531153651567e+00
 1.305833108629521e+00	 1.255898967633128e+00	 3.637692580056519e+00
 1.293532943856018e+00	 1.268564109112330e+00	 4.268640040690746e+00
 1.281109361712400e+00	 1.281109361712400e+00	 4.923356344491226e+00
 1.268564109112330e+00	 1.293532943856017e+00	 5.564681832368897e+00
 1.255898967633128e+00	 1.305833108629521e+00	 6.153372239568947e+00
 1.243115752665815e+00	 1.318008144608184e+00	 6.648158161452032e+00
 1.230216312541315e+00	 1.330056376655977e+00	 7.005806000096619e+00
 1.217202527633707e+00	 1.341976166699057e+00	 7.181180274848121e+00
 1.348512410567412e+00	 1.223131047647648e+00	 1.918132373273554e+00
 1.336534563864171e+00	 1.236208217638752e+00	 2.405437044757945e+00
 1.324427649565231e+00	 1.249170485917754e+00	 3.004490303547308e+00
 1.312193313722846e+00	 1.262015962952014e+00	 3.682458046937150e+00
 1.299833239631967e+00	 1.274742791408118e+00	 4.404255356080999e+00
 1.287349147052996e+00	 1.287349147052996e+00	 5.132604770058318e+00
 1.274742791408118e+00	 1.299833239631967e+00	 5.828096371302388e+00
 1.262015962952014e+00	 1.312193313722847e+00	 6.449249541539547e+00
 1.249170485917754e+00	 1.324427649565231e+00	 6.952576252630623e+00
 1.236208217638751e+00	 1.336534563864170e+00	 7.292645762443924e+00
 1.223131047647648e+00	 1.348512410567413e+00	 7.422150592054713e+00
 1.355048680363653e+00	 1.229059591178706e+00	 1.707432551936204e+00
 1.343012776769932e+00	 1.242200146504712e+00	 2.313568398536357e+00
 1.330847179987044e+00	 1.255225243187424e+00	 3.012133510869458e+00
 1.318553544045686e+00	 1.268132982535606e+00	 3.769524270863929e+00
 1.306133560399765e+00	 1.280921498213315e+00	 4.550015165327543e+00
 1.293588957145393e+00	 1.293588957145393e+00	 5.315818714160212e+00
 1.280921498213315e+00	 1.306133560399765e+00	 6.027146975361457e+00
 1.268132982535605e+00	 1.318553544045686e+00	 6.642274482057578e+00
 1.255225243187424e+00	 1.330847179987044e+00	 7.117602472776797e+00
 1.242200146504711e+00	 1.343012776769932e+00	 7.407724282716504e+00
 1.229059591178706e+00	 1.355048680363653e+00	 7.465491770699073e+00
 1.361584972383916e+00	 1.234988154867292e+00	 1.596004802929299e+00
 1.349491011702289e+00	 1.248192095743705e+00	 2.301210954998086e+00
 1.337266732235900e+00	 1.261280021043750e+00	 3.072228776741980e+00
 1.324913795993914e+00	 1.274250022917558e+00	 3.876159190549793e+00
 1.312433902589228e+00	 1.287100226026631e+00	 4.678235820688245e+00
 1.299828788453687e+00	 1.299828788453687e+00	 5.441884242785303e+00
 1.287100226026631e+00	 1.312433902589228e+00	 6.128782394969933e+00
 1.274250022917558e+00	 1.324913795993915e+00	 6.698922006096549e+00
 1.261280021043750e+00	 1.337266732235901e+00	 7.110670903617128e+00
 1.248192095743705e+00	 1.349491011702289e+00	 7.320836071310904e+00
 1.234988154867292e+00	 1.361584972383916e+00	 7.284727335165671e+00
 1.368121282924333e+00	 1.240916735353818e+00	 1.585337686809962e+00
 1.355969264990275e+00	 1.254184061960244e+00	 2.360364729986624e+00
 1.343686302674079e+00	 1.267334816055656e+00	 3.168856180407460e+00
 1.331274065963408e+00	 1.280367080631528e+00	 3.980067227913238e+00
 1.318734262630171e+00	 1.293278971346777e+00	 4.761764865624937e+00
 1.306068637441975e+00	 1.306068637441975e+00	 5.480284147567267e+00
 1.293278971346777e+00	 1.318734262630171e+00	 6.100585013462169e+00
 1.280367080631528e+00	 1.331274065963408e+00	 6.586309540425178e+00
 1.267334816055655e+00	 1.343686302674080e+00	 6.899839489926360e+00
 1.254184061960244e+00	 1.355969264990276e+00	 7.002354027510694e+00
 1.240916735353818e+00	 1.368121282924333e+00	 6.853887502327861e+00
 1.374657608281044e+00	 1.246845329278696e+00	 1.676893870527611e+00
 1.362447532962918e+00	 1.260176041758838e+00	 2.483184730970180e+00
 1.350105887663859e+00	 1.273389624792064e+00	 3.286401730043631e+00
 1.337634350350043e+00	 1.286484152211171e+00	 4.059380188578371e+00
 1.325034636952411e+00	 1.299457730672467e+00	 4.773969688016729e+00
 1.312308500574354e+00	 1.312308500574354e+00	 5.401085042414726e+00
 1.299457730672467e+00	 1.325034636952411e+00	 5.910757064979650e+00
 1.286484152211171e+00	 1.337634350350043e+00	 6.272182997252127e+00
 1.273389624792063e+00	 1.350105887663859e+00	 6.453776479526962e+00
 1.260176041758837e+00	 1.362447532962919e+00	 6.423216952077916e+00
 1.246845329278697e+00	 1.374657608281044e+00	 6.147498388117238e+00
 1.381193944750181e+00	 1.252773933282339e+00	 1.872112009898860e+00
 1.368925811949249e+00	 1.266168031743997e+00	 2.661978572611863e+00
 1.356525483567518e+00	 1.279444443821899e+00	 3.409551416942458e+00
 1.343994645549694e+00	 1.292601234190142e+00	 4.092648449249552e+00
 1.331335021985766e+00	 1.305636500502410e+00	 4.688726523859703e+00
 1.318548374314922e+00	 1.318548374314922e+00	 5.174924854687947e+00
 1.305636500502410e+00	 1.331335021985766e+00	 5.528107271786945e+00
 1.292601234190142e+00	 1.343994645549694e+00	 5.724903203352405e+00
 1.279444443821899e+00	 1.356525483567518e+00	 5.741747276414367e+00
 1.266168031743997e+00	 1.368925811949250e+00	 5.554917442603204e+00
 1.252773933282338e+00	 1.381193944750181e+00	 5.140571548892483e+00
 1.387730288627881e+00	 1.258702544005156e+00	 2.172408608189161e+00
 1.375404098278298e+00	 1.272160028520235e+00	 2.889204188661043e+00
 1.362945086747335e+00	 1.285499269714085e+00	 3.523285466349251e+00
 1.350354947958237e+00	 1.298718323102097e+00	 4.058832422516057e+00
 1.337635414160051e+00	 1.311815277335320e+00	 4.480409799920396e+00
 1.324788255127775e+00	 1.324788255127775e+00	 4.773000697943279e+00
 1.311815277335320e+00	 1.337635414160052e+00	 4.922037887211349e+00
 1.298718323102097e+00	 1.350354947958238e+00	 4.913432740680514e+00
 1.285499269714085e+00	 1.362945086747336e+00	 4.733601693419045e+00
 1.272160028520235e+00	 1.375404098278298e+00	 4.369490159022158e+00
 1.258702544005156e+00	 1.387730288627881e+00	 3.808593846590461e+00
 1.394266636210279e+00	 1.264631158087561e+00	 2.579179851554724e+00
 1.381882388279096e+00	 1.278152028692061e+00	 3.157467636991991e+00
 1.369364693565589e+00	 1.291554099037546e+00	 3.612872778508835e+00
 1.356715253971548e+00	 1.304835415480692e+00	 3.937294289994421e+00
 1.343935809905084e+00	 1.317994057669907e+00	 4.123881804240078e+00
 1.331028139477010e+00	 1.331028139477010e+00	 4.167057113750138e+00
 1.317994057669907e+00	 1.343935809905085e+00	 4.062532130924585e+00
 1.304835415480692e+00	 1.356715253971548e+00	 3.807323184997404e+00
 1.291554099037545e+00	 1.369364693565589e+00	 3.399761591322818e+00
 1.278152028692060e+00	 1.381882388279097e+00	 2.839500447175562e+00
 1.264631158087562e+00	 1.394266636210279e+00	 2.127517627052047e+00
 1.205345571595528e+00	 1.328903771561460e+00	 6.214858785852614e+00
 1.192345002193527e+00	 1.340580643912977e+00	 6.240546308208081e+00
 1.179235001627678e+00	 1.352127128658504e+00	 6.115319548350493e+00
 1.166017543579482e+00	 1.363541696379727e+00	 5.857244646520502e+00
 1.152694629679524e+00	 1.374822857215517e+00	 5.486114807379509e+00
 1.139268288509220e+00	 1.385969161497703e+00	 5.023413370364688e+00
 1.125740574585664e+00	 1.396979200356834e+00	 4.492273372259083e+00
 1.112113567330684e+00	 1.407851606297432e+00	 3.917433722474386e+00
 1.098389370025117e+00	 1.418585053742233e+00	 3.338142669601242e+00
 1.084570108749449e+00	 1.429178259545016e+00	 2.801156818829968e+00
 1.070657931311884e+00	 1.439629983471600e+00	 2.338477169952974e+00
 1.211274034496471e+00	 1.335439952462451e+00	 6.769575126860114e+00
 1.198209522109982e+00	 1.347174257226611e+00	 6.791770533748948e+00
 1.185035040325052e+00	 1.358777533076577e+00	 6.663728916516344e+00
 1.171752572530697e+00	 1.370248243071622e+00	 6.404260656530660e+00
 1.158364130202485e+00	 1.381584890022768e+00	 6.033775814083525e+00
 1.144871751899366e+00	 1.392786017131682e+00	 5.574246044353182e+00
 1.131277502243543e+00	 1.403850208599420e+00	 5.049163140193835e+00
 1.117583470884436e+00	 1.414776090204503e+00	 4.483494325088960e+00
 1.103791771447830e+00	 1.425562329849847e+00	 3.907925711570366e+00
 1.089904540471294e+00	 1.436207638078100e+00	 3.374264549653210e+00
 1.075923936326989e+00	 1.446710768555017e+00	 2.917512823519433e+00
 1.217202527633707e+00	 1.341976166699057e+00	 7.181180274848122e+00
 1.204074071936692e+00	 1.353767904168787e+00	 7.171998344199261e+00
 1.190835108603912e+00	 1.365427971412846e+00	 7.018935479667672e+00
 1.177487630731942e+00	 1.376954823968060e+00	 6.741053482471574e+00
 1.164033659641382e+00	 1.388346957317566e+00	 6.358870665936696e+00
 1.150475243868767e+00	 1.399602907532831e+00	 5.894323480288978e+00
 1.136814458141450e+00	 1.410721251885382e+00	 5.370724914860943e+00
 1.123053402336496e+00	 1.421700609427711e+00	 4.812719802395955e+00
 1.109194200424686e+00	 1.432539641542875e+00	 4.246530437351415e+00
 1.095238999400726e+00	 1.443237052462367e+00	 3.719096900300488e+00
 1.081189968200777e+00	 1.453791589751842e+00	 3.272534778173360e+00
 1.223131047647648e+00	 1.348512410567413e+00	 7.422150592054713e+00
 1.209938648350283e+00	 1.360361581003097e+00	 7.358177809121333e+00
 1.196635203177400e+00	 1.372078439898725e+00	 7.162151756819532e+00
 1.183222714933181e+00	 1.383661435268644e+00	 6.852901956998410e+00
 1.169703214783291e+00	 1.395109055268068e+00	 6.450555630683271e+00
 1.156078761241896e+00	 1.406419828838236e+00	 5.976499887178033e+00
 1.142351439141542e+00	 1.417592326321117e+00	 5.453340856994357e+00
 1.128523358586982e+00	 1.428625160043143e+00	 4.904859893158706e+00
 1.114596653894037e+00	 1.439516984867485e+00	 4.355966978843013e+00
 1.100573482514591e+00	 1.450266498714447e+00	 3.841736984204240e+00
 1.086456023948855e+00	 1.460872443049564e+00	 3.412592685921324e+00
 1.229059591178706e+00	 1.355048680363653e+00	 7.465491770699073e+00
 1.215803248027382e+00	 1.366955283993134e+00	 7.327699574421978e+00
 1.202435320758666e+00	 1.378728934765628e+00	 7.074950033105432e+00
 1.188957821884376e+00	 1.390368073172970e+00	 6.725365636542904e+00
 1.175372792415286e+00	 1.401871180042428e+00	 6.298192247583581e+00
 1.161682300843226e+00	 1.413236777184986e+00	 5.813762703424930e+00
 1.147888442105974e+00	 1.424463428013025e+00	 5.293457542825145e+00
 1.133993336536010e+00	 1.435549738126889e+00	 4.759662982181290e+00
 1.119999128794229e+00	 1.446494355869842e+00	 4.235726276739463e+00
 1.105907986789738e+00	 1.457295972850975e+00	 3.748114877022806e+00
 1.091722100586834e+00	 1.467953324435676e+00	 3.346525968236464e+00
 1.234988154867292e+00	 1.361584972383916e+00	 7.284727335165671e+00
 1.221667867644616e+00	 1.373549009402491e+00	 7.058387434032395e+00
 1.208235458060854e+00	 1.385379452244967e+00	 6.739254904606942e+00
 1.194692948335492e+00	 1.397074733880638e+00	 6.344279227151307e+00
 1.181042389324442e+00	 1.408633327808805e+00	 5.891343546379860e+00
 1.167285859497232e+00	 1.420053748710168e+00	 5.399230525366415e+00
 1.153425463896904e+00	 1.431334553067501e+00	 4.887585522993834e+00
 1.139463333083695e+00	 1.442474339755039e+00	 4.376877214832488e+00
 1.125401622063612e+00	 1.453471750596112e+00	 3.888355790559969e+00
 1.111242509203016e+00	 1.464325470888582e+00	 3.444008873511305e+00
 1.096988195130322e+00	 1.475034229897669e+00	 3.082967961096652e+00
 1.240916735353818e+00	 1.368121282924333e+00	 6.853887502327861e+00
 1.227532503878613e+00	 1.380142753494762e+00	 6.528489200569942e+00
 1.214035611797111e+00	 1.392029988568154e+00	 6.137336065734280e+00
 1.200428091036492e+00	 1.403781413591249e+00	 5.695747199046020e+00
 1.186712002297834e+00	 1.415395494735354e+00	 5.219770403644485e+00
 1.172889434028388e+00	 1.426870739550870e+00	 4.726151124206417e+00
 1.158962501376486e+00	 1.438205697590943e+00	 4.232298923120768e+00
 1.144933345130153e+00	 1.449398961003680e+00	 3.756251608594136e+00
 1.130804130640535e+00	 1.460449165092463e+00	 3.316637143188055e+00
 1.116577046731271e+00	 1.471354988843902e+00	 2.932633473658769e+00
 1.102254304594929e+00	 1.482115155423035e+00	 2.630321312859407e+00
 1.246845329278697e+00	 1.374657608281044e+00	 6.147498388117238e+00
 1.233397153406001e+00	 1.386736512533540e+00	 5.716667865049400e+00
 1.219835778680584e+00	 1.398680539966603e+00	 5.251801331094101e+00
 1.206163246737342e+00	 1.410488108504401e+00	 4.766138583633073e+00
 1.192381628122537e+00	 1.422157676990230e+00	 4.273428031933038e+00
 1.178493021261168e+00	 1.433687745844179e+00	 3.787899548399176e+00
 1.164499551406879e+00	 1.445076857689749e+00	 3.324235084629730e+00
 1.150403369575502e+00	 1.456323597948904e+00	 2.897537161710288e+00
 1.136206651463347e+00	 1.467426595405061e+00	 2.523295357189262e+00
 1.121911596351354e+00	 1.478384522733568e+00	 2.217350923429060e+00
 1.107520425996265e+00	 1.489196096999267e+00	 1.992619610190820e+00
 1.252773933282338e+00	 1.381193944750181e+00	 5.140571548892483e+00
 1.239261812903406e+00	 1.393330282782417e+00	 4.601993036083689e+00
 1.225635955424418e+00	 1.405331102671726e+00	 4.065589884085424e+00
 1.211898412188003e+00	 1.417194814819693e+00	 3.542081946911924e+00
 1.198051263585625e+00	 1.428919870741592e+00	 3.042462597337749e+00
 1.184096618020045e+00	 1.440504763727184e+00	 2.577976308637451e+00
 1.170036610850236e+00	 1.451948029470316e+00	 2.160094244473501e+00
 1.155873403319858e+00	 1.463248246666797e+00	 1.800487959008130e+00
 1.141609181470396e+00	 1.474404037580072e+00	 1.511001322183922e+00
 1.127246155040112e+00	 1.485414068574213e+00	 1.302542854978520e+00
 1.112786556349938e+00	 1.496277050613855e+00	 1.174779359808530e+00
 1.258702544005156e+00	 1.387730288627881e+00	 3.808593846590461e+00
 1.245126479047455e+00	 1.399924060504985e+00	 3.163932649372576e+00
 1.231436138741759e+00	 1.411981672914938e+00	 2.561965744754151e+00
 1.217633584138439e+00	 1.423901528736724e+00	 2.010460533470926e+00
 1.203720905474172e+00	 1.435682072157594e+00	 1.517207961199640e+00
 1.189700221129493e+00	 1.447321789336972e+00	 1.090005642708481e+00
 1.175573676568716e+00	 1.458819209039040e+00	 7.366392524589991e-01
 1.161343443263336e+00	 1.470172903233450e+00	 4.648622749597209e-01
 1.147011717600031e+00	 1.481381487663662e+00	 2.823742208955398e-01
 1.132580719774393e+00	 1.492443622382469e+00	 1.884822140535390e-01
 1.118052692671557e+00	 1.503358012254291e+00	 1.816618731477643e-01
 1.264631158087562e+00	 1.394266636210279e+00	 2.127517627052048e+00
 1.250991148514777e+00	 1.406517841964841e+00	 1.382344938620472e+00
 1.237236325345755e+00	 1.418632246927651e+00	 7.245114497144780e-01
 1.223368759338615e+00	 1.430608246455096e+00	 1.584075754672791e-01
 1.209390550575255e+00	 1.442444277406394e+00	-3.118174581038060e-01
 1.195303827413988e+00	 1.454138818810630e+00	-6.822661424179947e-01
 1.181110745424474e+00	 1.465690392502321e+00	-9.493046750825770e-01
 1.166813486306055e+00	 1.477097563724952e+00	-1.109576325951475e+00
 1.152414256790601e+00	 1.488358941701999e+00	-1.163168154531636e+00
 1.137915287531047e+00	 1.499473180174970e+00	-1.120053363689712e+00
 1.123318831976734e+00	 1.510438977908068e+00	-9.797489646822748e-01
 1.070657931311884e+00	 1.439629983471600e+00	 2.338477169952974e+00
 1.056657392672377e+00	 1.449937289472463e+00	 2.012135822063747e+00
 1.042568316178337e+00	 1.460100818571260e+00	 1.852494080748923e+00
 1.028392899317367e+00	 1.470119468213545e+00	 1.843929969180291e+00
 1.014133356955129e+00	 1.479992180288705e+00	 1.969439152891833e+00
 9.997919202222384e-01	 1.489717941445333e+00	 2.205312293282900e+00
 9.853708353953267e-01	 1.499295783373474e+00	 2.522642290788477e+00
 9.708723627734085e-01	 1.508724783053639e+00	 2.900620437690456e+00
 9.562987755506887e-01	 1.518004062972557e+00	 3.317500532940324e+00
 9.416523586869459e-01	 1.527132791305695e+00	 3.750476816509050e+00
 9.269354077766124e-01	 1.536110182066576e+00	 4.175736340985242e+00
 1.075923936326989e+00	 1.446710768555017e+00	 2.917512823519433e+00
 1.061854536378336e+00	 1.457068770790184e+00	 2.585347034101445e+00
 1.047696163103880e+00	 1.467282288960102e+00	 2.396062163214956e+00
 1.033451024799512e+00	 1.477350215087430e+00	 2.337374875904715e+00
 1.019121347224654e+00	 1.487271485857252e+00	 2.393291848727222e+00
 1.004709372483679e+00	 1.497045082934007e+00	 2.538062055264175e+00
 9.902173579014739e-01	 1.506670033245124e+00	 2.755086368267625e+00
 9.756475748942761e-01	 1.516145409231250e+00	 3.028202486983855e+00
 9.610023078369375e-01	 1.525470329063079e+00	 3.340407937704548e+00
 9.462838529277534e-01	 1.534643956824760e+00	 3.673903999246027e+00
 9.314945170519781e-01	 1.543665502663949e+00	 4.010139540471220e+00
 1.081189968200777e+00	 1.453791589751842e+00	 3.272534778173360e+00
 1.067051706591839e+00	 1.464200288479920e+00	 2.942418225403090e+00
 1.052824036183593e+00	 1.474463795975967e+00	 2.737168987935258e+00
 1.038509176080270e+00	 1.484580998839715e+00	 2.646377866975252e+00
 1.024109362935107e+00	 1.494550828551916e+00	 2.648372429483204e+00
 1.009626849826293e+00	 1.504372261792829e+00	 2.728132293641262e+00
 9.950639051270254e-01	 1.514044320727234e+00	 2.873706129724577e+00
 9.804228113708195e-01	 1.523566073255896e+00	 3.072494023641497e+00
 9.657058641132339e-01	 1.532936633233445e+00	 3.311285105282840e+00
 9.509153707911361e-01	 1.542155160652688e+00	 3.576294851525196e+00
 9.360536495806618e-01	 1.551220861795396e+00	 3.853202006856058e+00
 1.086456023948855e+00	 1.460872443049564e+00	 3.412592685921324e+00
 1.072248900367507e+00	 1.471331838500423e+00	 3.094960514218034e+00
 1.057951932511357e+00	 1.481645335549267e+00	 2.889305444959263e+00
 1.043567350293024e+00	 1.491811815372873e+00	 2.779624401039692e+00
 1.029097401259614e+00	 1.501830204247639e+00	 2.749737583854532e+00
 1.014544349463180e+00	 1.511699473869615e+00	 2.790657363012751e+00
 9.999104743252775e-01	 1.521418641640915e+00	 2.892906310879658e+00
 9.851980694967550e-01	 1.530986770922394e+00	 3.046550567617524e+00
 9.704094417139253e-01	 1.540402971252601e+00	 3.241232670935609e+00
 9.555469096522805e-01	 1.549666398532978e+00	 3.466203797136009e+00
 9.406128027788887e-01	 1.558776255179391e+00	 3.710355368041292e+00
 1.091722100586834e+00	 1.467953324435676e+00	 3.346525968236464e+00
 1.077446114759960e+00	 1.478463416810444e+00	 3.054325508914323e+00
 1.063079849181050e+00	 1.488826903610410e+00	 2.861581170907525e+00
 1.048625544571160e+00	 1.499042660589376e+00	 2.750185333284906e+00
 1.034085459371302e+00	 1.509109608819360e+00	 2.712318081720702e+00
 1.019461868607437e+00	 1.519026715012187e+00	 2.740473264098889e+00
 1.004757062749529e+00	 1.528792991807277e+00	 2.826807207826756e+00
 9.899733465657985e-01	 1.538407498025565e+00	 2.963169014629297e+00
 9.751130379733587e-01	 1.547869338889493e+00	 3.141130093674841e+00
 9.601784668863719e-01	 1.557177666209127e+00	 3.352012887820711e+00
 9.451719740628828e-01	 1.566331678534407e+00	 3.586918756322843e+00
 1.096988195130322e+00	 1.475034229897669e+00	 3.082967961096652e+00
 1.082643346823816e+00	 1.485595019368734e+00	 2.830355275374353e+00
 1.068207783286553e+00	 1.496008496089809e+00	 2.663188587473060e+00
 1.053683756048060e+00	 1.506273530391696e+00	 2.572170915951570e+00
 1.039073534443295e+00	 1.516389038142022e+00	 2.550752727675455e+00
 1.024379404472166e+00	 1.526353981068362e+00	 2.592125725495733e+00
 1.009603667653078e+00	 1.536167367047434e+00	 2.689252405798919e+00
 9.947486398716660e-01	 1.545828250360228e+00	 2.834894724704472e+00
 9.798166502258819e-01	 1.555335731913070e+00	 3.021641823802185e+00
 9.648100398685961e-01	 1.564688959424632e+00	 3.241936775642358e+00
 9.497311608488682e-01	 1.573887127578916e+00	 3.488102318241586e+00
 1.102254304594929e+00	 1.482115155423035e+00	 2.630321312859407e+00
 1.087840593613695e+00	 1.492726642134045e+00	 2.428304002293221e+00
 1.073335731921745e+00	 1.503190108917871e+00	 2.306824042616259e+00
 1.058741981857107e+00	 1.513504420682307e+00	 2.259417558528540e+00
 1.044061623648717e+00	 1.523668488090562e+00	 2.279396295436737e+00
 1.029296954270462e+00	 1.533681267885960e+00	 2.359878079960271e+00
 1.014450286289221e+00	 1.543541763182495e+00	 2.493816312210607e+00
 9.995239467080739e-01	 1.553249023721201e+00	 2.674028432927878e+00
 9.845202758058428e-01	 1.562802146092279e+00	 2.893223318565364e+00
 9.694416259741384e-01	 1.572200273922991e+00	 3.144027567197481e+00
 9.542903605530698e-01	 1.581442598031394e+00	 3.419010647617632e+00
 1.107520425996265e+00	 1.489196096999267e+00	 1.992619610190821e+00
 1.093037852184217e+00	 1.499858281065129e+00	 1.858201650955956e+00
 1.078463692180506e+00	 1.510371738025008e+00	 1.804939279043387e+00
 1.063800219131686e+00	 1.520735327363677e+00	 1.825495336181389e+00
 1.049049724160697e+00	 1.530947954539924e+00	 1.912327262237557e+00
 1.034214515215427e+00	 1.541008571312801e+00	 2.057718942020306e+00
 1.019296915911257e+00	 1.550916176033571e+00	 2.253811500446371e+00
 1.004299264368738e+00	 1.560669813903307e+00	 2.492632988264874e+00
 9.892239120475878e-01	 1.570268577196068e+00	 2.766126910952014e+00
 9.740732225781852e-01	 1.579711605447702e+00	 3.066179563574689e+00
 9.588495705917117e-01	 1.588998085610312e+00	 3.384646144300173e+00
 1.112786556349938e+00	 1.496277050613855e+00	 1.174779359808530e+00
 1.098235119590002e+00	 1.506989932120735e+00	 1.130555614370917e+00
 1.083591661156715e+00	 1.517553379341630e+00	 1.169748256459467e+00
 1.068858465005180e+00	 1.527966246338281e+00	 1.283715311417063e+00
 1.054037833152356e+00	 1.538227433365047e+00	 1.463355349778626e+00
 1.039132084520158e+00	 1.548335887196702e+00	 1.699369693444612e+00
 1.024143553772484e+00	 1.558290601421774e+00	 1.982295870622327e+00
 1.009074590147374e+00	 1.568090616701362e+00	 2.302539926116603e+00
 9.939275562854648e-01	 1.577735020993382e+00	 2.650407536449394e+00
 9.787048270559210e-01	 1.587222949742263e+00	 3.016133889812742e+00
 9.634087883810180e-01	 1.596553586034144e+00	 3.389912301068351e+00
 1.118052692671557e+00	 1.503358012254291e+00	 1.816618731477643e-01
 1.103432392885668e+00	 1.514121591259616e+00	 2.556743256714712e-01
 1.088719635944252e+00	 1.524735028798148e+00	 4.132338074884903e-01
 1.073916716610972e+00	 1.535197173508591e+00	 6.471366750981986e-01
 1.059025947796823e+00	 1.545506920440872e+00	 9.460288780759717e-01
 1.044049659397754e+00	 1.555663211385484e+00	 1.298291782864897e+00
 1.028990197126198e+00	 1.565665035168214e+00	 1.692079633312447e+00
 1.013849921337699e+00	 1.575511427910187e+00	 2.115355880048671e+00
 9.986312058538218e-01	 1.585201473253171e+00	 2.555928322417221e+00
 9.833364367825321e-01	 1.594734302550171e+00	 3.001483017470495e+00
 9.679680113372134e-01	 1.604109095021363e+00	 3.439616921027568e+00
 1.123318831976734e+00	 1.510438977908068e+00	-9.797489646822748e-01
 1.108629669125836e+00	 1.521253254440523e+00	-7.563269876557027e-01
 1.093847613636997e+00	 1.531916682324970e+00	-4.528458673236961e-01
 1.078974971082447e+00	 1.542428104777079e+00	-7.142628730796310e-02
 1.064014065267222e+00	 1.552786411642340e+00	 3.736419382986246e-01
 1.048967237061315e+00	 1.562990539726966e+00	 8.676938456044991e-01
 1.033836843225698e+00	 1.573039473094003e+00	 1.395732122007244e+00
 1.018625255233428e+00	 1.582932243324601e+00	 1.942468837932377e+00
 1.003334858087006e+00	 1.592667929744381e+00	 2.492366044546055e+00
 9.879680491332047e-01	 1.602245659614925e+00	 3.029675183785443e+00
 9.725272368765219e-01	 1.611664608290443e+00	 3.538475267756508e+00
 9.269354077766124e-01	 1.536110182066576e+00	 4.175736340985242e+00
 9.121502282064713e-01	 1.544935495595601e+00	 4.512597183126123e+00
 8.972991348732574e-01	 1.553608039766600e+00	 4.706468624556775e+00
 8.823844501562227e-01	 1.562127168928098e+00	 4.772290226853720e+00
 8.674085024978194e-01	 1.570492283547801e+00	 4.725445864263176e+00
 8.523736252820379e-01	 1.578702830195891e+00	 4.581752134858701e+00
 8.372821557180713e-01	 1.586758301496337e+00	 4.357445606926710e+00
 8.221364337303418e-01	 1.594658236046570e+00	 4.069168963309261e+00
 8.069388008559120e-01	 1.602402218305899e+00	 3.733956110900928e+00
 7.916915991502745e-01	 1.609989878453082e+00	 3.369216326360974e+00
 7.763971701024950e-01	 1.617420892213523e+00	 2.992717512352030e+00
 9.314945170519781e-01	 1.543665502663949e+00	 4.010139540471220e+00
 9.166366169353819e-01	 1.552534223283045e+00	 4.280762506396129e+00
 9.017124788604672e-01	 1.561249423151681e+00	 4.437589989811670e+00
 8.867244366290579e-01	 1.569810453442782e+00	 4.491978977858400e+00
 8.716748301359981e-01	 1.578216711675283e+00	 4.455540290654187e+00
 8.565660042419773e-01	 1.586467641697350e+00	 4.340134203410839e+00
 8.414003076516988e-01	 1.594562733637452e+00	 4.157865053111103e+00
 8.261800917984530e-01	 1.602501523823640e+00	 3.921074880773789e+00
 8.109077097360999e-01	 1.610283594671408e+00	 3.642336164775218e+00
 7.955855150394812e-01	 1.617908574540580e+00	 3.334443704545781e+00
 7.802158607142238e-01	 1.625376137561632e+00	 3.010405717210633e+00
 9.360536495806618e-01	 1.551220861795396e+00	 3.853202006856058e+00
 9.211230285466265e-01	 1.560132989725943e+00	 4.082286931935284e+00
 9.061258453573621e-01	 1.568890845509755e+00	 4.219284204247415e+00
 8.910644452373246e-01	 1.577493777144135e+00	 4.272744953007416e+00
 8.759411795338151e-01	 1.585941179199239e+00	 4.251317577791769e+00
 8.607584045842821e-01	 1.594232492801210e+00	 4.163749114424699e+00
 8.455184805890048e-01	 1.602367205583006e+00	 4.018885705478684e+00
 8.302237704902008e-01	 1.610344851603284e+00	 3.825672217537623e+00
 8.148766388585932e-01	 1.618165011233725e+00	 3.593151051800858e+00
 7.994794507884322e-01	 1.625827311015201e+00	 3.330460198452875e+00
 7.840345708019715e-01	 1.633331423483266e+00	 3.046830588474983e+00
 9.406128027788887e-01	 1.558776255179391e+00	 3.710355368041292e+00
 9.256094604976632e-01	 1.567731790618172e+00	 3.919458704354671e+00
 9.105392318628179e-01	 1.576532302510526e+00	 4.051213201933199e+00
 8.954044735214983e-01	 1.585177135678125e+00	 4.112128140216836e+00
 8.802075482735146e-01	 1.593665681742335e+00	 4.108687116910461e+00
 8.649508239331309e-01	 1.601997379107259e+00	 4.047353702458302e+00
 8.496366721962550e-01	 1.610171712910337e+00	 3.934576290091039e+00
 8.342674675140902e-01	 1.618188214940832e+00	 3.776792177519869e+00
 8.188455859742743e-01	 1.626046463526596e+00	 3.580430920788129e+00
 8.033734041905242e-01	 1.633746083389547e+00	 3.351917004642711e+00
 7.878532982017724e-01	 1.641286745470310e+00	 3.097671877041652e+00
 9.451719740628828e-01	 1.566331678534407e+00	 3.586918756322843e+00
 9.300959102459481e-01	 1.575330621653610e+00	 3.794513795494358e+00
 9.149526358757110e-01	 1.584173789823705e+00	 3.933036844915950e+00
 8.997445190220529e-01	 1.592860524690725e+00	 4.007706885383444e+00
 8.844739339373405e-01	 1.601390214927231e+00	 4.023627574011735e+00
 8.691432599127007e-01	 1.609762296215283e+00	 3.985795743869656e+00
 8.537548801397180e-01	 1.617976251196792e+00	 3.899109161228898e+00
 8.383111805786272e-01	 1.626031609391613e+00	 3.768373573217458e+00
 8.228145488340287e-01	 1.633927947083769e+00	 3.598309083126131e+00
 8.072673730391542e-01	 1.641664887176219e+00	 3.393555894481699e+00
 7.916720407496620e-01	 1.649242099014650e+00	 3.158679468260560e+00
 9.497311608488682e-01	 1.573887127578916e+00	 3.488102318241586e+00
 9.345823752489382e-01	 1.582929478526132e+00	 3.709637941709962e+00
 9.193660548949181e-01	 1.591815303119002e+00	 3.864413726719539e+00
 9.040845792794627e-01	 1.600543939827904e+00	 3.957097694994291e+00
 8.887403341075369e-01	 1.609114774376591e+00	 3.992185918459655e+00
 8.733357101471693e-01	 1.617527239725068e+00	 3.974012432114479e+00
 8.578731020856605e-01	 1.625780816019709e+00	 3.906758437817766e+00
 8.423549073923166e-01	 1.633875030510957e+00	 3.794460831269186e+00
 8.267835251887414e-01	 1.641809457438995e+00	 3.641020088960273e+00
 8.111613551277187e-01	 1.649583717887819e+00	 3.450207555759388e+00
 7.954907962816750e-01	 1.657197479608172e+00	 3.225672177062073e+00
 9.542903605530698e-01	 1.581442598031394e+00	 3.419010647617632e+00
 9.390688529640909e-01	 1.590528356929616e+00	 3.666968645952286e+00
 9.237794864193151e-01	 1.599456838066124e+00	 3.845001975416757e+00
 9.084246518342031e-01	 1.608227376735635e+00	 3.957955066427314e+00
 8.930067463663489e-01	 1.616839355713080e+00	 4.010476500896479e+00
 8.775281722607142e-01	 1.625292205236401e+00	 4.007028917681282e+00
 8.619913357003499e-01	 1.633585402956432e+00	 3.951898213676738e+00
 8.463986456636637e-01	 1.641718473854193e+00	 3.849202075080724e+00
 8.307525127892962e-01	 1.649690990126023e+00	 3.702897877908412e+00
 8.150553482496149e-01	 1.657502571036946e+00	 3.516790000752660e+00
 7.993095626338458e-01	 1.665152882742761e+00	 3.294536596064126e+00
 9.588495705917117e-01	 1.588998085610312e+00	 3.384646144300173e+00
 9.435553408488632e-01	 1.598127252557937e+00	 3.668597145793667e+00
 9.281929279477784e-01	 1.607098390334780e+00	 3.874460056275372e+00
 9.127647342267482e-01	 1.615910831059886e+00	 4.007971345012344e+00
 8.972731682960196e-01	 1.624563954559358e+00	 4.074680178831950e+00
 8.817206438775137e-01	 1.633057188349071e+00	 4.079956910510115e+00
 8.661095786500534e-01	 1.641390007584303e+00	 4.029000839132783e+00
 8.504423931011745e-01	 1.649561934976651e+00	 3.926847281946418e+00
 8.347215093865773e-01	 1.657572540678602e+00	 3.778374001835822e+00
 8.189493501982394e-01	 1.665421442136204e+00	 3.588307038526084e+00
 8.031283376422099e-01	 1.673108303910304e+00	 3.361225994894846e+00
 9.634087883810180e-01	 1.596553586034144e+00	 3.389912301068351e+00
 9.480418363607116e-01	 1.605726161104973e+00	 3.716570348510147e+00
 9.326063769791836e-01	 1.614739955594677e+00	 3.952447573978904e+00
 9.171048239975721e-01	 1.623594298446629e+00	 4.104876606957754e+00
 9.015395974787940e-01	 1.632288566538091e+00	 4.181043488321817e+00
 8.859131226217450e-01	 1.640822184662861e+00	 4.187993342822843e+00
 8.702278286010379e-01	 1.649194625480662e+00	 4.132635271635634e+00
 8.544861474133538e-01	 1.657405409433658e+00	 4.021746512200393e+00
 8.386905127314694e-01	 1.665454104630480e+00	 3.861975917302378e+00
 8.228433587669889e-01	 1.673340326698192e+00	 3.659846809339803e+00
 8.069471191428015e-01	 1.681063738602686e+00	 3.421759269032287e+00
 9.679680113372134e-01	 1.604109095021363e+00	 3.439616921027568e+00
 9.525283369570939e-01	 1.613325078264599e+00	 3.812892734287026e+00
 9.370198310124079e-01	 1.622381529515527e+00	 4.078626074422349e+00
 9.214449186871499e-01	 1.631277774541833e+00	 4.246438567279541e+00
 9.058060314969160e-01	 1.640013187271940e+00	 4.325877860209351e+00
 8.901056061175857e-01	 1.648587189777560e+00	 4.326419090369073e+00
 8.743460832195711e-01	 1.656999252222853e+00	 4.257465493096609e+00
 8.585299063087077e-01	 1.665248892780546e+00	 4.128348208020832e+00
 8.426595205748574e-01	 1.673335677515406e+00	 3.948325345383770e+00
 8.267373717492604e-01	 1.681259220235511e+00	 3.726580379116215e+00
 8.107659049716560e-01	 1.689019182311793e+00	 3.472219936526541e+00
 9.725272368765219e-01	 1.611664608290443e+00	 3.538475267756508e+00
 9.570148400954672e-01	 1.620923999730693e+00	 3.959528228574125e+00
 9.414332875463274e-01	 1.630023107767037e+00	 4.252659846082230e+00
 9.257850158359563e-01	 1.638961254991470e+00	 4.430462511903044e+00
 9.100724679326296e-01	 1.647737812383568e+00	 4.505558879461045e+00
 8.942980919892135e-01	 1.656352199292953e+00	 4.490597750166565e+00
 8.784643401719208e-01	 1.664803883388219e+00	 4.398248991758329e+00
 8.625736674957413e-01	 1.673092380572644e+00	 4.241197559600009e+00
 8.466285306676252e-01	 1.681217254867130e+00	 4.032136696654486e+00
 8.306313869384504e-01	 1.689178118260764e+00	 3.783760391992578e+00
 8.145846929648080e-01	 1.696974630529512e+00	 3.508755181029550e+00
 7.763971701024950e-01	 1.617420892213523e+00	 2.992717512352030e+00
 7.610552419040807e-01	 1.624696203781240e+00	 2.658662420469675e+00
 7.456707484979823e-01	 1.631814301601403e+00	 2.405681643597450e+00
 7.302460237034977e-01	 1.638774995483586e+00	 2.224542317510066e+00
 7.147833965724535e-01	 1.645578139827385e+00	 2.097743129156070e+00
 6.992851903642262e-01	 1.652223633306464e+00	 2.017473648846194e+00
 6.837537215354034e-01	 1.658711418525549e+00	 1.976765143782441e+00
 6.681912987448795e-01	 1.665041481651053e+00	 1.968708076347344e+00
 6.526002218751353e-01	 1.671213852015979e+00	 1.986449698685335e+00
 6.369827810704327e-01	 1.677228601699848e+00	 2.023191669347940e+00
 6.213412557926123e-01	 1.683085845084353e+00	 2.072187688477775e+00
 7.802158607142238e-01	 1.625376137561632e+00	 3.010405717210633e+00
 7.647984736149546e-01	 1.632687232572591e+00	 2.716905369456585e+00
 7.493383119520900e-01	 1.639840340584065e+00	 2.489508915337301e+00
 7.338377210237491e-01	 1.646835270470162e+00	 2.322978265790520e+00
 7.182990413371285e-01	 1.653671875914327e+00	 2.202015959065431e+00
 7.027246075784864e-01	 1.660350055091831e+00	 2.119415122327792e+00
 6.871167475978319e-01	 1.666869750325087e+00	 2.070311873042737e+00
 6.714777814091282e-01	 1.673230947712444e+00	 2.049951706111806e+00
 6.558100202067592e-01	 1.679433676731162e+00	 2.053683429687138e+00
 6.401157653989918e-01	 1.685478009815265e+00	 2.076953118495620e+00
 6.243973076591317e-01	 1.691364061909010e+00	 2.115298086294855e+00
 7.840345708019715e-01	 1.633331423483266e+00	 3.046830588474983e+00
 7.685417244169512e-01	 1.640678302119976e+00	 2.783668999888070e+00
 7.530058941113781e-01	 1.647866420501339e+00	 2.574781648699294e+00
 7.374294366622458e-01	 1.654895586565994e+00	 2.417533734818937e+00
 7.218147040321784e-01	 1.661765653281227e+00	 2.299939170250341e+00
 7.061640423343696e-01	 1.668476518323915e+00	 2.214371519562560e+00
 6.904797908123053e-01	 1.675028123734150e+00	 2.157625769312345e+00
 6.747642808350736e-01	 1.681420455542223e+00	 2.126649986979269e+00
 6.590198349090155e-01	 1.687653543369646e+00	 2.118536294817652e+00
 6.432487657064586e-01	 1.693727460004945e+00	 2.130511854146805e+00
 6.274533751122271e-01	 1.699642320954944e+00	 2.159929865769589e+00
 7.878532982017724e-01	 1.641286745470310e+00	 3.097671877041654e+00
 7.722849921888700e-01	 1.648669407894992e+00	 2.855776821657774e+00
 7.566734928975223e-01	 1.655892536804974e+00	 2.659303913023794e+00
 7.410211685836481e-01	 1.662955939203413e+00	 2.506981178191309e+00
 7.253303826653491e-01	 1.669859467341436e+00	 2.390962476375098e+00
 7.096034926828045e-01	 1.676603018397521e+00	 2.302328681620816e+00
 6.938428492730284e-01	 1.683186534129443e+00	 2.239091825422749e+00
 6.780507951602825e-01	 1.689610000499428e+00	 2.199456962820116e+00
 6.622296641629153e-01	 1.695873447273244e+00	 2.181808211760681e+00
 6.463817802173640e-01	 1.701976947593920e+00	 2.184697457037441e+00
 6.305094564200205e-01	 1.707920617530850e+00	 2.206833063784899e+00
 7.916720407496620e-01	 1.649242099014650e+00	 3.158679468260560e+00
 7.760282748095095e-01	 1.656660545369243e+00	 2.930099832719689e+00
 7.603411062321977e-01	 1.663918684946716e+00	 2.740907789261284e+00
 7.446129147526158e-01	 1.671016323814749e+00	 2.590476497520317e+00
 7.288460752443867e-01	 1.677953313508303e+00	 2.474531349766246e+00
 7.130429566747222e-01	 1.684729550707461e+00	 2.383258715553441e+00
 6.972059210742078e-01	 1.691344976887671e+00	 2.315074453179379e+00
 6.813373225223240e-01	 1.697799577943102e+00	 2.269001759050097e+00
 6.654395061494700e-01	 1.704093383783774e+00	 2.244272214835837e+00
 6.495148071562385e-01	 1.710226467907224e+00	 2.240312894244953e+00
 6.335655498506328e-01	 1.716198946945416e+00	 2.256733469254799e+00
 7.954907962816750e-01	 1.657197479608172e+00	 3.225672177062073e+00
 7.797715701576688e-01	 1.664651710014326e+00	 3.003555820513420e+00
 7.640087320370800e-01	 1.671944860378315e+00	 2.817453101632776e+00
 7.482046731338080e-01	 1.679076735832334e+00	 2.666980930276205e+00
 7.323617797770379e-01	 1.686047187195182e+00	 2.550086648848422e+00
 7.164824323610521e-01	 1.692856110648541e+00	 2.457119867370309e+00
 7.005690043100482e-01	 1.699503447385540e+00	 2.385917538657855e+00
 6.846238610587639e-01	 1.705989183232284e+00	 2.335888760209738e+00
 6.686493590496905e-01	 1.712313348243052e+00	 2.306674698038645e+00
 6.526478447476127e-01	 1.718476016269890e+00	 2.298134774098789e+00
 6.366216536721854e-01	 1.724477304507334e+00	 2.310332839564027e+00
 7.993095626338458e-01	 1.665152882742761e+00	 3.294536596064126e+00
 7.835148761121464e-01	 1.672642897301841e+00	 3.073108701388100e+00
 7.676763682338448e-01	 1.679971058551517e+00	 2.886827174472123e+00
 7.517964416918849e-01	 1.687137170688498e+00	 2.735157688962373e+00
 7.358774942710489e-01	 1.694141083815421e+00	 2.617064251266112e+00
 7.199219177927247e-01	 1.700982693615570e+00	 2.523856393837687e+00
 7.039320970747552e-01	 1.707661940999752e+00	 2.451944491259062e+00
 6.879104089071707e-01	 1.714178811726014e+00	 2.400697777957952e+00
 6.718592210445877e-01	 1.720533335992894e+00	 2.369735646774100e+00
 6.557808912160171e-01	 1.726725588006950e+00	 2.358913589594785e+00
 6.396777661527996e-01	 1.732755685525294e+00	 2.368309106759905e+00
 8.031283376422099e-01	 1.673108303910304e+00	 3.361225994894846e+00
 7.872581905517405e-01	 1.680634102703388e+00	 3.135767896757741e+00
 7.713440127441661e-01	 1.687997274918069e+00	 2.946944613408593e+00
 7.553882183915058e-01	 1.695197623815573e+00	 2.793681874030955e+00
 7.393932167341662e-01	 1.702234998782373e+00	 2.674894692510694e+00
 7.233614110206696e-01	 1.709109295003356e+00	 2.583398433140688e+00
 7.072951974625343e-01	 1.715820453107013e+00	 2.513458286736620e+00
 6.911969642051119e-01	 1.722368458783333e+00	 2.463984209804218e+00
 6.750690903151726e-01	 1.728753342375117e+00	 2.434148858664809e+00
 6.589139447859829e-01	 1.734975178443437e+00	 2.423373950700270e+00
 6.427338855605965e-01	 1.741034085307989e+00	 2.431316573841777e+00
 8.069471191428015e-01	 1.681063738602686e+00	 3.421759269032286e+00
 7.910015113552504e-01	 1.688625321690568e+00	 3.188587744767901e+00
 7.750116634897211e-01	 1.696023504929720e+00	 2.995747110078764e+00
 7.589800011973308e-01	 1.703258090645889e+00	 2.841240604721675e+00
 7.429089451741354e-01	 1.710328927509388e+00	 2.723094643941057e+00
 7.268009100958170e-01	 1.717235910206709e+00	 2.635661874455828e+00
 7.106583035675916e-01	 1.723978979084028e+00	 2.570741504402627e+00
 6.944835250901553e-01	 1.730558119763281e+00	 2.526279188891560e+00
 6.782789650424560e-01	 1.736973362731537e+00	 2.500582153800338e+00
 6.620470036820399e-01	 1.743224782904384e+00	 2.492214805922676e+00
 6.457900101636972e-01	 1.749312499164107e+00	 2.499986101480474e+00
 8.107659049716560e-01	 1.689019182311793e+00	 3.472219936526541e+00
 7.947448364014750e-01	 1.696616549734980e+00	 3.228666946299071e+00
 7.786793183921839e-01	 1.704049744038217e+00	 3.031203269586986e+00
 7.625717880740189e-01	 1.711318566611777e+00	 2.876533162938988e+00
 7.464246775987037e-01	 1.718422865409816e+00	 2.761374225283955e+00
 7.302404130690966e-01	 1.725362534620436e+00	 2.680548226476682e+00
 7.140214134841314e-01	 1.732137514307500e+00	 2.624056358710068e+00
 6.977700896998681e-01	 1.738747790024899e+00	 2.588089725130817e+00
 6.814888434074495e-01	 1.745193392403969e+00	 2.569677574781079e+00
 6.651800661287196e-01	 1.751474396714826e+00	 2.566109653500186e+00
 6.488461382302230e-01	 1.757590922402342e+00	 2.574925285487999e+00
 8.145846929648080e-01	 1.696974630529512e+00	 3.508755181029550e+00
 7.984881635692119e-01	 1.704607782308222e+00	 3.253148044175628e+00
 7.823469753732306e-01	 1.712075987695308e+00	 3.051308459962630e+00
 7.661635769862309e-01	 1.719379047145569e+00	 2.898271149733569e+00
 7.499404120156170e-01	 1.726516807897009e+00	 2.789066257580947e+00
 7.336799179914387e-01	 1.733489163639346e+00	 2.717944484934418e+00
 7.173845253063604e-01	 1.740296054154137e+00	 2.673644725402641e+00
 7.010566561718182e-01	 1.746937464927227e+00	 2.649898837975940e+00
 6.846987235911640e-01	 1.753413426734232e+00	 2.642051576896663e+00
 6.683131303505522e-01	 1.759724015199794e+00	 2.645706742559943e+00
 6.519022680282955e-01	 1.765869350331382e+00	 2.656718625345587e+00
 6.213412557926123e-01	 1.683085845084353e+00	 2.072187688477774e+00
 6.056805779762906e-01	 1.688784782681174e+00	 2.124262211337683e+00
 5.900003444358113e-01	 1.694326620001263e+00	 2.173352676153757e+00
 5.743027952840069e-01	 1.699711594168735e+00	 2.217561335513365e+00
 5.585901564033956e-01	 1.704939982580464e+00	 2.255205805192151e+00
 5.428646385999558e-01	 1.710012102353537e+00	 2.284807491752874e+00
 5.271284367778988e-01	 1.714928309753176e+00	 2.305079954010679e+00
 5.113837291358960e-01	 1.719688999601967e+00	 2.314917211182391e+00
 4.956326763851813e-01	 1.724294604671215e+00	 2.313382010813113e+00
 4.798774209899149e-01	 1.728745595055301e+00	 2.299694069895286e+00
 4.641200864301568e-01	 1.733042477529863e+00	 2.273218302955578e+00
 6.243973076591317e-01	 1.691364061909010e+00	 2.115298086294855e+00
 6.086596031793871e-01	 1.697091029591799e+00	 2.162599945842580e+00
 5.929022467910563e-01	 1.702660124303875e+00	 2.213372702786348e+00
 5.771274896249304e-01	 1.708071584335666e+00	 2.264312081839348e+00
 5.613375685114946e-01	 1.713325688448432e+00	 2.312329651779950e+00
 5.455347051305403e-01	 1.718422755319014e+00	 2.354543122726523e+00
 5.297211051818791e-01	 1.723363142964937e+00	 2.388266539882676e+00
 5.138989575776174e-01	 1.728147248150730e+00	 2.411000383790651e+00
 4.980704336564119e-01	 1.732775505776294e+00	 2.420421587565052e+00
 4.822376864200977e-01	 1.737248388248176e+00	 2.414373482065834e+00
 4.664028497930368e-01	 1.741566404834599e+00	 2.390855680498246e+00
 6.274533751122271e-01	 1.699642320954944e+00	 2.159929865769589e+00
 6.116386435762436e-01	 1.705397318866750e+00	 2.202961027840627e+00
 5.958041639467491e-01	 1.710993671109925e+00	 2.254476264107352e+00
 5.799521983725485e-01	 1.716431617141206e+00	 2.310114875394360e+00
 5.640849946321495e-01	 1.721711437086255e+00	 2.365730499932527e+00
 5.482047852792112e-01	 1.726833451181668e+00	 2.417382861910870e+00
 5.323137868092009e-01	 1.731798019197281e+00	 2.461329389486728e+00
 5.164141988477129e-01	 1.736605539839575e+00	 2.494016709925288e+00
 5.005082033608804e-01	 1.741256450137056e+00	 2.512072030104963e+00
 4.845979638882673e-01	 1.745751224808450e+00	 2.512294411248419e+00
 4.686856247985899e-01	 1.750090375614572e+00	 2.491645947408844e+00
 6.305094564200205e-01	 1.707920617530850e+00	 2.206833063784899e+00
 6.146176974786302e-01	 1.713703645798822e+00	 2.245973875853814e+00
 5.987060942583668e-01	 1.719327255696745e+00	 2.297187036008160e+00
 5.827769199260981e-01	 1.724791687847674e+00	 2.355400368163327e+00
 5.668324332084019e-01	 1.730097223741669e+00	 2.415752569642251e+00
 5.508748775328540e-01	 1.735244185175092e+00	 2.473585996202189e+00
 5.349064801906237e-01	 1.740232933670093e+00	 2.524439299803002e+00
 5.189294515208421e-01	 1.745063869875114e+00	 2.564039924830593e+00
 5.029459841171660e-01	 1.749737432947276e+00	 2.588296469158380e+00
 4.869582520569332e-01	 1.754254099917486e+00	 2.593290917161794e+00
 4.709684101532611e-01	 1.758614385039167e+00	 2.575270752582922e+00
 6.335655498506328e-01	 1.716198946945416e+00	 2.256733469254799e+00
 6.175967631983170e-01	 1.722010005680807e+00	 2.292245823639636e+00
 6.016080360813871e-01	 1.727660873341673e+00	 2.342010431576005e+00
 5.856016526848165e-01	 1.733151791717387e+00	 2.400583528406850e+00
 5.695798826832941e-01	 1.738483043662412e+00	 2.462726831184584e+00
 5.535449803783536e-01	 1.743654952532880e+00	 2.523400948903913e+00
 5.374991838569083e-01	 1.748667881603261e+00	 2.577758638967043e+00
 5.214447141716657e-01	 1.753522233463964e+00	 2.621137914043818e+00
 5.053837745438465e-01	 1.758218449400724e+00	 2.649055004234654e+00
 4.893185495886034e-01	 1.762757008756645e+00	 2.657197180257198e+00
 4.732512045634947e-01	 1.767138428277760e+00	 2.641415444245487e+00
 6.366216536721854e-01	 1.724477304507334e+00	 2.310332839564027e+00
 6.205758390470735e-01	 1.730316393805499e+00	 2.342363278892345e+00
 6.045099877712876e-01	 1.735994519322042e+00	 2.389433710080249e+00
 5.884263950479400e-01	 1.741511924012661e+00	 2.446063705582498e+00
 5.723273414998675e-01	 1.746868892096221e+00	 2.506971029264851e+00
 5.562150923025951e-01	 1.752065748488628e+00	 2.567065264044660e+00
 5.400918963388144e-01	 1.757102858216673e+00	 2.621441289376909e+00
 5.239599853748436e-01	 1.761980625812735e+00	 2.665372611599513e+00
 5.078215732595008e-01	 1.766699494691173e+00	 2.694304550946176e+00
 4.916788551457875e-01	 1.771259946507289e+00	 2.703847289901733e+00
 4.755340067357353e-01	 1.775662500499735e+00	 2.689768788500910e+00
 6.396777661527996e-01	 1.732755685525294e+00	 2.368309106759905e+00
 6.235549233366701e-01	 1.738622805465690e+00	 2.396891873495675e+00
 6.074119476835455e-01	 1.744328188915189e+00	 2.439926079081079e+00
 5.912511454147064e-01	 1.749872079995813e+00	 2.492224689798825e+00
 5.750748081011644e-01	 1.755254764290835e+00	 2.548789703014088e+00
 5.588852117924640e-01	 1.760476568275929e+00	 2.604805587834547e+00
 5.426846161671021e-01	 1.765537858730214e+00	 2.655632589266717e+00
 5.264752637050356e-01	 1.770439042128041e+00	 2.696799898132904e+00
 5.102593788827076e-01	 1.775180564012396e+00	 2.723998689829415e+00
 4.940391673909943e-01	 1.779762908350782e+00	 2.733075035900017e+00
 4.778168153764275e-01	 1.784186596874472e+00	 2.720022693355786e+00
 6.427338855605965e-01	 1.741034085307989e+00	 2.431316573841777e+00
 6.265340143788761e-01	 1.746929235954171e+00	 2.456376605612636e+00
 6.103139141736383e-01	 1.752661877398449e+00	 2.493938789893902e+00
 5.940759021843525e-01	 1.758232254929162e+00	 2.539434765988147e+00
 5.778222809302264e-01	 1.763640655493990e+00	 2.588474201976224e+00
 5.615553373348446e-01	 1.768887407128377e+00	 2.636837647359029e+00
 5.452773418725317e-01	 1.773972878363771e+00	 2.680469272801617e+00
 5.289905477369020e-01	 1.778897477616496e+00	 2.715469498889830e+00
 5.126971900320451e-01	 1.783661652558164e+00	 2.738087516621397e+00
 4.963994849867320e-01	 1.788265889468484e+00	 2.744713703246862e+00
 4.800996291920160e-01	 1.792710712571352e+00	 2.731871938036344e+00
 6.457900101636972e-01	 1.749312499164107e+00	 2.499986101480474e+00
 6.295131104854617e-01	 1.755235680563737e+00	 2.521341973886953e+00
 6.132158855970437e-01	 1.760995580049157e+00	 2.551905226633753e+00
 5.969006637561154e-01	 1.766592444075025e+00	 2.588046762977310e+00
 5.805697584300950e-01	 1.772026560953422e+00	 2.626302698223341e+00
 5.642254674166229e-01	 1.777298260279568e+00	 2.663366226605671e+00
 5.478700719858631e-01	 1.782407912337232e+00	 2.696079408747002e+00
 5.315058360451034e-01	 1.787355927484714e+00	 2.721424881649904e+00
 5.151350053260922e-01	 1.792142755522251e+00	 2.736517493947256e+00
 4.987598065955106e-01	 1.796768885041758e+00	 2.738595870007514e+00
 4.823824468889452e-01	 1.801234842759755e+00	 2.725013907428745e+00
 6.488461382302230e-01	 1.757590922402342e+00	 2.574925285487999e+00
 6.324922099681970e-01	 1.763542134587182e+00	 2.592292104020966e+00
 6.161178603092389e-01	 1.769329292144649e+00	 2.614240989055911e+00
 5.997254285292322e-01	 1.774952642695718e+00	 2.638398097628954e+00
 5.833172390438129e-01	 1.780412475916870e+00	 2.662540194731093e+00
 5.668956005246835e-01	 1.785709122963094e+00	 2.684585139916028e+00
 5.504628050378562e-01	 1.790842955870483e+00	 2.702582337762968e+00
 5.340211272042992e-01	 1.795814386939306e+00	 2.714703154569885e+00
 5.175728233834274e-01	 1.800623868098429e+00	 2.719231304376156e+00
 5.011201308798379e-01	 1.805271890251967e+00	 2.714553208226463e+00
 4.846652671736595e-01	 1.809758982609063e+00	 2.699148331477364e+00
 6.519022680282955e-01	 1.765869350331382e+00	 2.656718625345587e+00
 6.354713111388517e-01	 1.771848593317297e+00	 2.669710867984696e+00
 6.190198366657016e-01	 1.777663008962260e+00	 2.681343969400826e+00
 6.025501949029400e-01	 1.783312846053559e+00	 2.690810814219539e+00
 5.860647212144215e-01	 1.788798395632072e+00	 2.697438530141189e+00
 5.695657351459118e-01	 1.794119990412552e+00	 2.700677202951198e+00
 5.530555395592713e-01	 1.799278004183412e+00	 2.700088608373258e+00
 5.365364197891498e-01	 1.804272851186889e+00	 2.695334963953609e+00
 5.200106428226289e-01	 1.809104985480471e+00	 2.686167704804543e+00
 5.034804565022232e-01	 1.813774900280471e+00	 2.672416287768996e+00
 4.869480887526040e-01	 1.818283127288656e+00	 2.653977029382117e+00
 4.641200864301568e-01	 1.733042477529863e+00	 2.273218302955578e+00
 4.483627767027926e-01	 1.737185795271111e+00	 2.236740649291260e+00
 4.326075762556573e-01	 1.741176128310005e+00	 2.196178131781914e+00
 4.168565486401227e-01	 1.745014091710825e+00	 2.155655252420897e+00
 4.011117356475782e-01	 1.748700334494148e+00	 2.119233927895099e+00
 3.853751566898679e-01	 1.752235538925222e+00	 2.090900295872826e+00
 3.696488082037957e-01	 1.755620419791376e+00	 2.074550576409452e+00
 3.539346630798197e-01	 1.758855723669352e+00	 2.073690254652497e+00
 3.382346701150147e-01	 1.761942228183390e+00	 2.092848648525798e+00
 3.225507534903555e-01	 1.764880741254913e+00	 2.136968019183173e+00
 3.068848122723423e-01	 1.767672100344656e+00	 2.210649405891225e+00
 4.664028497930368e-01	 1.741566404834599e+00	 2.390855680498246e+00
 4.505680381205852e-01	 1.745730101383383e+00	 2.350935555269690e+00
 4.347353461028813e-01	 1.749740060778345e+00	 2.300675752326721e+00
 4.189068474408177e-01	 1.753596901108930e+00	 2.245632558580898e+00
 4.030845939682791e-01	 1.757301274587891e+00	 2.191286995387615e+00
 3.872706150295307e-01	 1.760853866836164e+00	 2.143029948670318e+00
 3.714669168807962e-01	 1.764255396156726e+00	 2.106147658038645e+00
 3.556754821161418e-01	 1.767506612798326e+00	 2.085452892875582e+00
 3.398982691177462e-01	 1.770608298209911e+00	 2.086403994525124e+00
 3.241372115306161e-01	 1.773561264286633e+00	 2.115138148438065e+00
 3.083942177617581e-01	 1.776366352608244e+00	 2.177427391836860e+00
 4.686856247985899e-01	 1.750090375614572e+00	 2.491645947408844e+00
 4.527733107857274e-01	 1.754274451074868e+00	 2.449723186644383e+00
 4.368631268021764e-01	 1.758304036926028e+00	 2.392526277049777e+00
 4.209571566984043e-01	 1.762179754282670e+00	 2.326687266258562e+00
 4.050574623508451e-01	 1.765902258549744e+00	 2.258755149968780e+00
 3.891660830362392e-01	 1.769472238703889e+00	 2.195179679773842e+00
 3.732850348302827e-01	 1.772890416563749e+00	 2.142295562758458e+00
 3.574163100307011e-01	 1.776157546050095e+00	 2.105946633753071e+00
 3.415618766048302e-01	 1.779274412436605e+00	 2.092193410374351e+00
 3.257236776617582e-01	 1.782241831592177e+00	 2.108023363700172e+00
 3.099036309490487e-01	 1.785060649215597e+00	 2.160060990486491e+00
 4.709684101532611e-01	 1.758614385039167e+00	 2.575270752582922e+00
 4.549785934485989e-01	 1.762818839503396e+00	 2.532624907128061e+00
 4.389909171478490e-01	 1.766868051899751e+00	 2.471104948845577e+00
 4.230074752511032e-01	 1.770762646368043e+00	 2.398067648939883e+00
 4.070303396773924e-01	 1.774503281505424e+00	 2.320783779797898e+00
 3.910615596359792e-01	 1.778090649644257e+00	 2.246420951726681e+00
 3.751031610220792e-01	 1.781525476118869e+00	 2.182026860118107e+00
 3.591571458371241e-01	 1.784808518522068e+00	 2.134185201389939e+00
 3.432254916336520e-01	 1.787940565952282e+00	 2.109264265167122e+00
 3.273101509848783e-01	 1.790922438252171e+00	 2.114753690723568e+00
 3.114130509789675e-01	 1.793754985239579e+00	 2.157816416806692e+00
 4.732512045634947e-01	 1.767138428277760e+00	 2.641415444245487e+00
 4.571838848595786e-01	 1.771363261826792e+00	 2.599169485495604e+00
 4.411187159342062e-01	 1.775432100846214e+00	 2.535797820982709e+00
 4.250578019371358e-01	 1.779345572501041e+00	 2.459035796611388e+00
 4.090032248300366e-01	 1.783104338580646e+00	 2.376534598863758e+00
 3.929570437547362e-01	 1.786709094773127e+00	 2.295843469030577e+00
 3.769212944260102e-01	 1.790160569928508e+00	 2.224392332516080e+00
 3.608979885490370e-01	 1.793459525311652e+00	 2.169203948840734e+00
 3.448891132615969e-01	 1.796606753845749e+00	 2.136684948066663e+00
 3.288966306010724e-01	 1.799603079347243e+00	 2.134478608955195e+00
 3.129224769962685e-01	 1.802449355753047e+00	 2.169976726222544e+00
 4.755340067357353e-01	 1.775662500499735e+00	 2.689768788500910e+00
 4.593891837690458e-01	 1.779907713202884e+00	 2.648892741171927e+00
 4.432465219555546e-01	 1.783996178912116e+00	 2.586001336607354e+00
 4.271081355947225e-01	 1.787928527817661e+00	 2.508867138365764e+00
 4.109761166908940e-01	 1.791705424901127e+00	 2.425185124161828e+00
 3.948525343184959e-01	 1.795327569206358e+00	 2.342554623619302e+00
 3.787394340118999e-01	 1.798795693099090e+00	 2.268461661821211e+00
 3.626388371800658e-01	 1.802110561516254e+00	 2.210059292888883e+00
 3.465527405460505e-01	 1.805272971205816e+00	 2.173544326038408e+00
 3.304831156114372e-01	 1.808283749958018e+00	 2.166366554600003e+00
 3.144319081457050e-01	 1.811143755828862e+00	 2.195841387501304e+00
 4.778168153764275e-01	 1.784186596874472e+00	 2.720022693355786e+00
 4.615944889273797e-01	 1.788452188789497e+00	 2.681337197520393e+00
 4.453743340062008e-01	 1.792560281244154e+00	 2.621121917976584e+00
 4.291584750620844e-01	 1.796511507453899e+00	 2.546849976501870e+00
 4.129490141420800e-01	 1.800306535592582e+00	 2.465928165800282e+00
 3.967480302532441e-01	 1.803946068059810e+00	 2.385678954301008e+00
 3.805575787495729e-01	 1.807430840737038e+00	 2.313322873644611e+00
 3.643796907438367e-01	 1.810761622233279e+00	 2.255828163418112e+00
 3.482163725443980e-01	 1.813939213121293e+00	 2.218951215653334e+00
 3.320696051170690e-01	 1.816964445165126e+00	 2.209604436590027e+00
 3.159413435720306e-01	 1.819838180539884e+00	 2.234725866668600e+00
 4.800996291920160e-01	 1.792710712571352e+00	 2.731871938036344e+00
 4.637997990849597e-01	 1.796996683744460e+00	 2.696051742579453e+00
 4.475021508804515e-01	 1.801124402989027e+00	 2.640575565101505e+00
 4.312088191774423e-01	 1.805094506545749e+00	 2.572285031740543e+00
 4.149219160657108e-01	 1.808907665780728e+00	 2.497971329608602e+00
 3.986435304849662e-01	 1.812564586449341e+00	 2.424357619708240e+00
 3.823757276088534e-01	 1.816066007948775e+00	 2.358081795681255e+00
 3.661205482539759e-01	 1.819412702560137e+00	 2.305607466893274e+00
 3.498800083140248e-01	 1.822605474680986e+00	 2.272033868495989e+00
 3.336560982190642e-01	 1.825645160049192e+00	 2.263397165030622e+00
 3.174507824199989e-01	 1.828532624958971e+00	 2.285961221592291e+00
 4.823824468889452e-01	 1.801234842759755e+00	 2.725013907428745e+00
 4.660051129921649e-01	 1.805541193225597e+00	 2.692591297004505e+00
 4.496299713726133e-01	 1.809688539293435e+00	 2.643787463492485e+00
 4.332591667790175e-01	 1.813677520229208e+00	 2.584484999191805e+00
 4.168948213439022e-01	 1.817508810591282e+00	 2.520536531838509e+00
 4.005390339396478e-01	 1.821183119490810e+00	 2.457747884312068e+00
 3.841938795595654e-01	 1.824701189840726e+00	 2.401861529658865e+00
 3.678614087241095e-01	 1.828063797594234e+00	 2.358513563485954e+00
 3.515436469123164e-01	 1.831271750973706e+00	 2.331939469729537e+00
 3.352425940185192e-01	 1.834325889690844e+00	 2.326967191712638e+00
 3.189602238343636e-01	 1.837227084158984e+00	 2.348893706882313e+00
 4.846652671736595e-01	 1.809758982609063e+00	 2.699148331477364e+00
 4.682104293993744e-01	 1.814085712390736e+00	 2.670516488981425e+00
 4.517577942769935e-01	 1.818252685304075e+00	 2.630191600710355e+00
 4.353095167050307e-01	 1.822260543640271e+00	 2.582774114723098e+00
 4.188677288587699e-01	 1.826109965149957e+00	 2.532859525562321e+00
 4.024345395432750e-01	 1.829801662300079e+00	 2.485022617073406e+00
 3.860120335715336e-01	 1.833336381519313e+00	 2.443801936449018e+00
 3.696022711678638e-01	 1.836714902432977e+00	 2.413681757397927e+00
 3.532072873966583e-01	 1.839938037088262e+00	 2.397833649386422e+00
 3.368290916165305e-01	 1.843006629170708e+00	 2.399554062295281e+00
 3.204696669598779e-01	 1.845921553212783e+00	 2.422884388768684e+00
 4.869480887526040e-01	 1.818283127288656e+00	 2.653977029382117e+00
 4.704157470569679e-01	 1.822630236397705e+00	 2.629393335886854e+00
 4.538856183878984e-01	 1.826816836167647e+00	 2.599230391438393e+00
 4.373598677937028e-01	 1.830843571914933e+00	 2.566487731390902e+00
 4.208406374924303e-01	 1.834711124582473e+00	 2.534189438388800e+00
 4.043300462218327e-01	 1.838420209993003e+00	 2.505369802320609e+00
 3.878301886145822e-01	 1.841971578090959e+00	 2.483059133912262e+00
 3.713431345988646e-01	 1.845366012173774e+00	 2.470269747645688e+00
 3.548709288244357e-01	 1.848604328113462e+00	 2.468900005969762e+00
 3.384155901141945e-01	 1.851687373569411e+00	 2.480413979778854e+00
 3.219791109412959e-01	 1.854616027193228e+00	 2.507330149371044e+00
 3.068848122723423e-01	 1.767672100344656e+00	 2.210649405891225e+00
 2.912360624240649e-01	 1.770317608769745e+00	 2.305248721111165e+00
 2.756090206873471e-01	 1.772817673086979e+00	 2.406596219585371e+00
 2.600055129802040e-01	 1.775173213945177e+00	 2.510712247434636e+00
 2.444273382514744e-01	 1.777385178479808e+00	 2.613512613159691e+00
 2.288762681028862e-01	 1.779454539528256e+00	 2.710832774226248e+00
 2.133540464351001e-01	 1.781382294842315e+00	 2.798451449969701e+00
 1.978623891175583e-01	 1.783169466298693e+00	 2.872113616921716e+00
 1.824029836819386e-01	 1.784817099108259e+00	 2.927552846645841e+00
 1.669774890389995e-01	 1.786326261024755e+00	 2.960512950085267e+00
 1.515875352185671e-01	 1.787698041553686e+00	 2.966768896259652e+00
 3.083942177617581e-01	 1.776366352608244e+00	 2.177427391836860e+00
 2.926684999179884e-01	 1.779024872902190e+00	 2.265848927910783e+00
 2.769645969566065e-01	 1.781537233724924e+00	 2.365901317409588e+00
 2.612843437763506e-01	 1.783904360253470e+00	 2.472428002006556e+00
 2.456295481741357e-01	 1.786127204281780e+00	 2.580178247906800e+00
 2.300019904652600e-01	 1.788206743432129e+00	 2.683832902980956e+00
 2.144034231277075e-01	 1.790143980363745e+00	 2.778029521155483e+00
 1.988355704703725e-01	 1.791939941979430e+00	 2.857386809165386e+00
 1.833001283250075e-01	 1.793595678630914e+00	 2.916528354939225e+00
 1.677987637616735e-01	 1.795112263323673e+00	 2.950105600975842e+00
 1.523331148274494e-01	 1.796490790921936e+00	 2.952820030073698e+00
 3.099036309490487e-01	 1.785060649215597e+00	 2.160060990486491e+00
 2.941009447172263e-01	 1.787732181444672e+00	 2.241961316059013e+00
 2.783201801391768e-01	 1.790256838835518e+00	 2.339184608081982e+00
 2.625631810944037e-01	 1.792635551093389e+00	 2.445737117470504e+00
 2.468317642279399e-01	 1.794869274670746e+00	 2.555537767704138e+00
 2.311277185686942e-01	 1.796958991974783e+00	 2.662445148191236e+00
 2.154528051720147e-01	 1.798905710572194e+00	 2.760283828092492e+00
 1.998087567862874e-01	 1.800710462391899e+00	 2.842869944875765e+00
 1.841972775433778e-01	 1.802374302926518e+00	 2.904036026192236e+00
 1.686200426726882e-01	 1.803898310433295e+00	 2.937655007902123e+00
 1.530786982385879e-01	 1.805283585135209e+00	 2.937663415222882e+00
 3.114130509789675e-01	 1.793754985239579e+00	 2.157816416806692e+00
 2.955333960101378e-01	 1.796439529462697e+00	 2.233022967166988e+00
 2.796757694669592e-01	 1.798976483477317e+00	 2.326063537180041e+00
 2.638420242097390e-01	 1.801366781516948e+00	 2.430441997756879e+00
 2.480339857316652e-01	 1.803611384692580e+00	 2.539578273354492e+00
 2.322534517752951e-01	 1.805711280196355e+00	 2.646836239914395e+00
 2.165021919733761e-01	 1.807667480502450e+00	 2.745550908621663e+00
 2.007819475138224e-01	 1.809481022565931e+00	 2.829054849085031e+00
 1.850944308286478e-01	 1.811152967020334e+00	 2.890703809985279e+00
 1.694413253066301e-01	 1.812684397374696e+00	 2.923901499601467e+00
 1.538242850294628e-01	 1.814076419210772e+00	 2.922123492887876e+00
 3.129224769962685e-01	 1.802449355753047e+00	 2.169976726222544e+00
 2.969658529850819e-01	 1.805146912021767e+00	 2.238484505294634e+00
 2.810313641718545e-01	 1.807696162708877e+00	 2.326165595408507e+00
 2.651208723977320e-01	 1.810098046576164e+00	 2.426351489911260e+00
 2.492362120040906e-01	 1.812353529393163e+00	 2.532289695861904e+00
 2.333791894471688e-01	 1.814463603136980e+00	 2.637172207496700e+00
 2.175515829371465e-01	 1.816429285189302e+00	 2.734163242929896e+00
 2.017551421014978e-01	 1.818251617531361e+00	 2.816426197180428e+00
 1.859915876724159e-01	 1.819931665937626e+00	 2.877149769166091e+00
 1.702626111980854e-01	 1.821470519168950e+00	 2.909573224767941e+00
 1.545698747775543e-01	 1.822869288165889e+00	 2.907010762426195e+00
 3.144319081457050e-01	 1.811143755828862e+00	 2.195841387501304e+00
 2.983983148304175e-01	 1.813854324187387e+00	 2.257809755427719e+00
 2.823869634857643e-01	 1.816415871588759e+00	 2.339128066806998e+00
 2.663997249337583e-01	 1.818829341323053e+00	 2.433280723919468e+00
 2.504384423639945e-01	 1.821095703818368e+00	 2.533664727531935e+00
 2.345049309464215e-01	 1.823215955836794e+00	 2.633618399400149e+00
 2.186009774686803e-01	 1.825191119667539e+00	 2.726449357371687e+00
 2.027283399978331e-01	 1.827022242318018e+00	 2.805461695831204e+00
 1.868887475662803e-01	 1.828710394703656e+00	 2.863982328860107e+00
 1.710838998816402e-01	 1.830256670837135e+00	 2.895386458018999e+00
 1.553154670603430e-01	 1.831662187017830e+00	 2.893122131090587e+00
 3.159413435720306e-01	 1.819838180539884e+00	 2.234725866668600e+00
 2.998307807345036e-01	 1.822561761025059e+00	 2.290475410659813e+00
 2.837425666405891e-01	 1.825135605175517e+00	 2.364597783210516e+00
 2.676785810931935e-01	 1.827560660809629e+00	 2.451050956273294e+00
 2.516406761301556e-01	 1.829837903014074e+00	 2.543698754303946e+00
 2.356306756351595e-01	 1.831968333335933e+00	 2.636339501819084e+00
 2.196503749733321e-01	 1.833952978971950e+00	 2.722733924767466e+00
 2.037015406513480e-01	 1.835792891955738e+00	 2.796632258269483e+00
 1.877859100018390e-01	 1.837489148343687e+00	 2.851800517963501e+00
 1.719051908918811e-01	 1.839042847400324e+00	 2.882045896785075e+00
 1.560610614553088e-01	 1.840455110783858e+00	 2.881241253481433e+00
 3.174507824199989e-01	 1.828532624958971e+00	 2.285961221592291e+00
 3.012632498856996e-01	 1.831269217600288e+00	 2.335970707790953e+00
 2.850981728682304e-01	 1.833855358527709e+00	 2.402230884755685e+00
 2.689574401514132e-01	 1.836292000087910e+00	 2.479489417152965e+00
 2.528429126213524e-01	 1.838580122026157e+00	 2.562389789274612e+00
 2.367564228754889e-01	 1.840720730674532e+00	 2.645499556126905e+00
 2.206997748564563e-01	 1.842714858137325e+00	 2.723337861295347e+00
 2.046747435105624e-01	 1.844563561474353e+00	 2.790402174112154e+00
 1.886830744706905e-01	 1.846267921882982e+00	 2.841194203367846e+00
 1.727264837633943e-01	 1.847829043879594e+00	 2.870244949422649e+00
 1.568066575399322e-01	 1.849248054481242e+00	 2.872138861073183e+00
 3.189602238343636e-01	 1.837227084158984e+00	 2.348893706882313e+00
 3.026957214723645e-01	 1.839976688978579e+00	 2.393797111065885e+00
 2.864537814005891e-01	 1.842575126703891e+00	 2.451692586233734e+00
 2.702363013837929e-01	 1.845023354209911e+00	 2.518429161107413e+00
 2.540451511563637e-01	 1.847322355900495e+00	 2.589738407373513e+00
 2.378821720295160e-01	 1.849473142892728e+00	 2.661261975191392e+00
 2.217491765234075e-01	 1.851476752198452e+00	 2.728578420088619e+00
 2.056479480239961e-01	 1.853334245903695e+00	 2.787221289227851e+00
 1.895802404644332e-01	 1.855046710346803e+00	 2.832695952406123e+00
 1.735477780307659e-01	 1.856615255296021e+00	 2.860536011023649e+00
 1.575522548916935e-01	 1.858041013127248e+00	 2.866319359377299e+00
 3.204696669598779e-01	 1.845921553212783e+00	 2.422884388768684e+00
 3.041281946828570e-01	 1.848684170225434e+00	 2.463468003784985e+00
 2.878093914695663e-01	 1.851294904762620e+00	 2.512656949098518e+00
 2.715151640657085e-01	 1.853754718227649e+00	 2.567710175355898e+00
 2.552473910539679e-01	 1.856064599682962e+00	 2.625735616447497e+00
 2.390079224593470e-01	 1.858225565030656e+00	 2.683718354322367e+00
 2.227985793795404e-01	 1.860238656190121e+00	 2.738569827679893e+00
 2.066211536401689e-01	 1.862104940273597e+00	 2.787154853540090e+00
 1.904774074746651e-01	 1.863825508760415e+00	 2.826316483564323e+00
 1.743690732285824e-01	 1.865401476670680e+00	 2.852899274104439e+00
 1.582978530880727e-01	 1.866833981739142e+00	 2.863771076754724e+00
 3.219791109412959e-01	 1.854616027193228e+00	 2.507330149371044e+00
 3.055606687055367e-01	 1.857391656406358e+00	 2.544571346313795e+00
 2.891650023070632e-01	 1.860014687762456e+00	 2.584884470325326e+00
 2.727940274725352e-01	 1.862486087193140e+00	 2.627194946262612e+00
 2.564496316329439e-01	 1.864806848419438e+00	 2.670282280707481e+00
 2.401336735270881e-01	 1.866977992128452e+00	 2.712808349432617e+00
 2.238479828302094e-01	 1.869000565147120e+00	 2.753343806654425e+00
 2.075943598076006e-01	 1.870875639613892e+00	 2.790392729210852e+00
 1.913745749929846e-01	 1.872604312149079e+00	 2.822415609280065e+00
 1.751903688914300e-01	 1.874187703024645e+00	 2.847850808856082e+00
 1.590434517065504e-01	 1.875626955334190e+00	 2.865134587983066e+00
 1.515875352185671e-01	 1.787698041553686e+00	 2.966768896259652e+00
 1.362373235588749e-01	 1.788933352611214e+00	 2.947066111671139e+00
 1.209257759949575e-01	 1.790033568801779e+00	 2.909059134311449e+00
 1.056543988854585e-01	 1.790999839205792e+00	 2.858839801375184e+00
 9.042466986710648e-02	 1.791833331478070e+00	 2.802392588730338e+00
 7.523803770138718e-02	 1.792535231079186e+00	 2.745604544785468e+00
 6.009592214175536e-02	 1.793106740510443e+00	 2.694274827357887e+00
 4.499971382104898e-02	 1.793549078553067e+00	 2.654123832836232e+00
 2.995077415874777e-02	 1.793863479512159e+00	 2.630801909046353e+00
 1.495043528770935e-02	 1.794051192465945e+00	 2.629897645234516e+00
 0.000000000000000e+00	 1.794113480520832e+00	 2.656945734542232e+00
 1.523331148274494e-01	 1.796490790921936e+00	 2.952820030073699e+00
 1.369074035247442e-01	 1.797732177827113e+00	 2.924603313882610e+00
 1.215205464861688e-01	 1.798837805404580e+00	 2.875256752569292e+00
 1.061740574793720e-01	 1.799808828386452e+00	 2.814238794276187e+00
 9.086942140881972e-02	 1.800646420170603e+00	 2.750872990881831e+00
 7.560809416171207e-02	 1.801351772048239e+00	 2.694354632271334e+00
 6.039150247454317e-02	 1.801926092435115e+00	 2.653757097318300e+00
 4.522104381996076e-02	 1.802370606106978e+00	 2.638037912501642e+00
 3.009808631356915e-02	 1.802686553439808e+00	 2.656044510966670e+00
 1.502396864030461e-02	 1.802875189655369e+00	 2.716519686617728e+00
 0.000000000000000e+00	 1.802937784072603e+00	 2.828106739556008e+00
 1.530786982385879e-01	 1.805283585135209e+00	 2.937663415222882e+00
 1.375774869077654e-01	 1.806531047918943e+00	 2.903391970465060e+00
 1.221153200103886e-01	 1.807642086910848e+00	 2.846205774889946e+00
 1.066937187231594e-01	 1.808617862494764e+00	 2.778045608471066e+00
 9.131417521832773e-02	 1.809459553811653e+00	 2.710698308471816e+00
 7.597815250885417e-02	 1.810168357983386e+00	 2.655800960585418e+00
 6.068708431431715e-02	 1.810745489340192e+00	 2.624844887425017e+00
 4.544237494721856e-02	 1.811192178652375e+00	 2.629179426639177e+00
 3.024539921933057e-02	 1.811509672366819e+00	 2.680015492651117e+00
 1.509750236771070e-02	 1.811699231848858e+00	 2.788428917635586e+00
 0.000000000000000e+00	 1.811762132630000e+00	 2.965363568902849e+00
 1.538242850294628e-01	 1.814076419210772e+00	 2.922123492887876e+00
 1.382475733282073e-01	 1.815329957900539e+00	 2.884290815658419e+00
 1.227100962305709e-01	 1.816446408331353e+00	 2.822739544387622e+00
 1.072133823223502e-01	 1.817426936538807e+00	 2.751021458214307e+00
 9.175893104361964e-02	 1.818272727406976e+00	 2.682523728036430e+00
 7.634821253314082e-02	 1.818984983888418e+00	 2.630471514053742e+00
 6.098266749361573e-02	 1.819564926227870e+00	 2.607930408481590e+00
 4.566370707743905e-02	 1.820013791190213e+00	 2.627808716786968e+00
 3.039271279258867e-02	 1.820332831293267e+00	 2.702859572424114e+00
 1.517103642828048e-02	 1.820523314045961e+00	 2.845682881564846e+00
 0.000000000000000e+00	 1.820586521192396e+00	 3.068727095766324e+00
 1.545698747775543e-01	 1.822869288165889e+00	 2.907010762426195e+00
 1.389176624063389e-01	 1.824128902785731e+00	 2.868143827497468e+00
 1.233048748096698e-01	 1.825250764676867e+00	 2.805676969083470e+00
 1.077330479824736e-01	 1.826236045526661e+00	 2.733914326799927e+00
 9.220368863268462e-02	 1.827085935962324e+00	 2.666993042003212e+00
 7.671827402489943e-02	 1.827801644767130e+00	 2.618885104469525e+00
 6.127825184497742e-02	 1.828384398100345e+00	 2.603399059497694e+00
 4.588504008523901e-02	 1.828835438721451e+00	 2.634181569588367e+00
 3.054002694990016e-02	 1.829156025219229e+00	 2.724718826447718e+00
 1.524457078036680e-02	 1.829347431246227e+00	 2.888337810548051e+00
 0.000000000000000e+00	 1.829410944759166e+00	 3.138207396878910e+00
 1.553154670603430e-01	 1.831662187017830e+00	 2.893122131090587e+00
 1.395877537624294e-01	 1.832927877588356e+00	 2.855780598115151e+00
 1.238996554106393e-01	 1.834055150958159e+00	 2.795822885068961e+00
 1.082527154090591e-01	 1.835045184466403e+00	 2.727459300855915e+00
 9.264844773351176e-02	 1.835899174483453e+00	 2.664738938333054e+00
 7.708833677445745e-02	 1.836618335623317e+00	 2.621551606191194e+00
 6.157383720094068e-02	 1.837203899959812e+00	 2.611629604187189e+00
 4.610637384523512e-02	 1.837657116247048e+00	 2.648549336410107e+00
 3.068734160782166e-02	 1.837979249144782e+00	 2.745732758893756e+00
 1.531810538232251e-02	 1.838171578449207e+00	 2.916448659402020e+00
 0.000000000000000e+00	 1.838235398329687e+00	 3.173813768630517e+00
 1.560610614553088e-01	 1.840455110783858e+00	 2.881241253481433e+00
 1.402578470167476e-01	 1.841726877322242e+00	 2.848016693246315e+00
 1.244944376964336e-01	 1.842859562186001e+00	 2.793968409121573e+00
 1.087723843076361e-01	 1.843854348366112e+00	 2.732378894957261e+00
 9.309320809409025e-02	 1.844712437976115e+00	 2.676383281791833e+00
 7.745840057214219e-02	 1.845435051460771e+00	 2.638972184457825e+00
 6.186942339404398e-02	 1.846023426808468e+00	 2.632994342381688e+00
 4.632770823204415e-02	 1.846478818767959e+00	 2.671159049519638e+00
 3.083465668290985e-02	 1.846802498070001e+00	 2.766038370101191e+00
 1.539164019250044e-02	 1.846995750654450e+00	 2.930069138459328e+00
 0.000000000000000e+00	 1.847059876903333e+00	 3.175554742719924e+00
 1.568066575399322e-01	 1.849248054481242e+00	 2.872138861073183e+00
 1.409279417895626e-01	 1.850525897001225e+00	 2.845654001289569e+00
 1.250892213300065e-01	 1.851663993371164e+00	 2.800891281122150e+00
 1.092920543837341e-01	 1.852663532233867e+00	 2.749378190820392e+00
 9.353796946240919e-02	 1.853525721446064e+00	 2.702513490244933e+00
 7.782846520828113e-02	 1.854251787283287e+00	 2.671588975635911e+00
 6.216501025682580e-02	 1.854842973648508e+00	 2.667780898119319e+00
 4.654904312028284e-02	 1.855300541285142e+00	 2.702152454405325e+00
 3.098197209172137e-02	 1.855625766994964e+00	 2.785656536376372e+00
 1.546517516925347e-02	 1.855819942861508e+00	 2.929138413645181e+00
 0.000000000000000e+00	 1.855884375479479e+00	 3.143338410428324e+00
 1.575522548916935e-01	 1.858041013127248e+00	 2.866319359377299e+00
 1.415980377011434e-01	 1.859324931639138e+00	 2.849067530616054e+00
 1.256840059743122e-01	 1.860468439524419e+00	 2.816758219562348e+00
 1.098117253428824e-01	 1.861472731077748e+00	 2.778379555397641e+00
 9.398273158645773e-02	 1.862339019899055e+00	 2.742826224339451e+00
 7.819853047320163e-02	 1.863068538094658e+00	 2.718904875248459e+00
 6.246059762182463e-02	 1.863662535482129e+00	 2.715339151240220e+00
 4.677037838456789e-02	 1.864122278799557e+00	 2.740774428596580e+00
 3.112928775081290e-02	 1.864449050919747e+00	 2.803782338519264e+00
 1.553871027093444e-02	 1.864644150069929e+00	 2.912865141323900e+00
 0.000000000000000e+00	 1.864708889057499e+00	 3.076460016579976e+00
 1.582978530880727e-01	 1.866833981739142e+00	 2.863771076754724e+00
 1.422681343717590e-01	 1.868123976249811e+00	 2.858279297067402e+00
 1.262787912923049e-01	 1.869272895656538e+00	 2.841636996320055e+00
 1.103313968906104e-01	 1.870281939905831e+00	 2.819491548158386e+00
 9.442749421422506e-02	 1.871152328340841e+00	 2.797433545649082e+00
 7.856859615723111e-02	 1.871885298898677e+00	 2.781005022491980e+00
 6.275618532157888e-02	 1.872482107311525e+00	 2.775707182455730e+00
 4.699171389951602e-02	 1.872944026312160e+00	 2.787007720524476e+00
 3.127660357674109e-02	 1.873272344844427e+00	 2.820347813479926e+00
 1.561224545589620e-02	 1.873468367279264e+00	 2.881148851678221e+00
 0.000000000000000e+00	 1.873533412636770e+00	 2.974818977648910e+00
 1.590434517065504e-01	 1.875626955334190e+00	 2.865134587983066e+00
 1.429382314216784e-01	 1.876923025847079e+00	 2.873995471767012e+00
 1.268735769469384e-01	 1.878077356778291e+00	 2.876228705027303e+00
 1.108510687324477e-01	 1.879091153726199e+00	 2.873357093537634e+00
 9.487225709370022e-02	 1.879965641777177e+00	 2.866890925980406e+00
 7.893866205069694e-02	 1.880702064699139e+00	 2.858339792207155e+00
 6.305177318862708e-02	 1.881301684138893e+00	 2.849223761907182e+00
 4.721304953974399e-02	 1.881765778823908e+00	 2.841084009167704e+00
 3.142391948606261e-02	 1.882095643769081e+00	 2.835492962690006e+00
 1.568578068249159e-02	 1.882292589489063e+00	 2.834064055493772e+00
 0.000000000000000e+00	 1.882357941216666e+00	 2.838461141822440e+00
 1.882357941216666e+00	 0.000000000000000e+00	 3.477763643725758e+01
 1.882292589489063e+00	 1.568578068249056e-02	 2.712919510203272e+01
 1.882095643769081e+00	 3.142391948606171e-02	 2.066724013334921e+01
 1.881765778823908e+00	 4.721304953974327e-02	 1.530558298189959e+01
 1.881301684138893e+00	 6.305177318862648e-02	 1.095768316385839e+01
 1.880702064699139e+00	 7.893866205069652e-02	 7.536784944874374e+00
 1.879965641777177e+00	 9.487225709369997e-02	 4.956053371866320e+00
 1.879091153726199e+00	 1.108510687324475e-01	 3.128709352211473e+00
 1.878077356778291e+00	 1.268735769469385e-01	 1.968163467702199e+00
 1.876923025847079e+00	 1.429382314216786e-01	 1.388148193471207e+00
 1.875626955334190e+00	 1.590434517065505e-01	 1.302848173902105e+00
 1.891180970624999e+00	 0.000000000000000e+00	 3.407472360659501e+01
 1.891115312579360e+00	 1.575930341640359e-02	 2.678640862410766e+01
 1.890917443731123e+00	 3.157121036829688e-02	 2.054432750902939e+01
 1.890586032635812e+00	 4.743434757785371e-02	 1.528869398003039e+01
 1.890119762636100e+00	 6.334731083901778e-02	 1.095837292202666e+01
 1.889517332647063e+00	 7.930866507460144e-02	 7.490961180668129e+00
 1.888777457947550e+00	 9.531694441351364e-02	 4.822867591287274e+00
 1.887898870977132e+00	 1.113706522885186e-01	 2.889392026781717e+00
 1.886880322138074e+00	 1.274682615549137e-01	 1.624803239237705e+00
 1.885720580601748e+00	 1.436082146305012e-01	 9.624152551506482e-01
 1.884418435118870e+00	 1.597889236572119e-01	 8.346620679676104e-01
 1.900004000033333e+00	 0.000000000000000e+00	 3.303854617588330e+01
 1.899938035669670e+00	 1.583282615033130e-02	 2.617574392215315e+01
 1.899739243693211e+00	 3.171850125053537e-02	 2.022467051085840e+01
 1.899406286447809e+00	 4.765564561593599e-02	 1.514719727198372e+01
 1.898937841133457e+00	 6.364284848933535e-02	 1.090309717465589e+01
 1.898332600595200e+00	 7.967866809837910e-02	 7.450081197689991e+00
 1.897589274118200e+00	 9.576163173314470e-02	 4.743833800997127e+00
 1.896706588228396e+00	 1.118902358443561e-01	 2.738047349934630e+00
 1.895683287498230e+00	 1.280629461626155e-01	 1.384455337052407e+00
 1.894518135356813e+00	 1.442781978390277e-01	 6.328642324872429e-01
 1.893209914903944e+00	 1.605343956075780e-01	 4.311837797278337e-01
 1.908827029441666e+00	 0.000000000000000e+00	 3.174372632286214e+01
 1.908760758759990e+00	 1.590634888430188e-02	 2.533982916392165e+01
 1.908561043655338e+00	 3.186579213283049e-02	 1.972407780921178e+01
 1.908226540259889e+00	 4.787694365406539e-02	 1.487533404373021e+01
 1.907755919630951e+00	 6.393838613967308e-02	 1.076985686739629e+01
 1.907147868543532e+00	 8.004867112213844e-02	 7.381305808790810e+00
 1.906401090289097e+00	 9.620631905271350e-02	 4.680743185989499e+00
 1.905514305479960e+00	 1.124098194000881e-01	 2.636635217035144e+00
 1.904486252858727e+00	 1.286576307701752e-01	 1.214851876496853e+00
 1.903315690112244e+00	 1.449481810473887e-01	 3.786653826455759e-01
 1.902001394689388e+00	 1.612798675577750e-01	 8.874718639414869e-02
 1.917650058849999e+00	 0.000000000000000e+00	 3.026354534144012e+01
 1.917583481850319e+00	 1.597987161834349e-02	 2.432053302293936e+01
 1.917382843617501e+00	 3.201308301523558e-02	 1.905808512070329e+01
 1.917046794072044e+00	 4.809824169231717e-02	 1.446746281015755e+01
 1.916573998128565e+00	 6.423392379012477e-02	 1.053706293132977e+01
 1.915963136492034e+00	 8.041867414598838e-02	 7.252399516220569e+00
 1.915212906460218e+00	 9.665100637234036e-02	 4.596084089421056e+00
 1.914322022731792e+00	 1.129294029558424e-01	 2.547804677970968e+00
 1.913289218219532e+00	 1.292523153777245e-01	 1.084303461386003e+00
 1.912113244868009e+00	 1.456181642557153e-01	 1.793529816724697e-01
 1.910792874475175e+00	 1.620253395079285e-01	-1.962691795237863e-01
 1.926473088258333e+00	 0.000000000000000e+00	 2.866997434718278e+01
 1.926406204940658e+00	 1.605339435248433e-02	 2.315898196444928e+01
 1.926204643579694e+00	 3.216037389780393e-02	 1.824196126183342e+01
 1.925867047884262e+00	 4.831953973076658e-02	 1.391805645623906e+01
 1.925392076626284e+00	 6.452946144078428e-02	 1.018352656308364e+01
 1.924778404440686e+00	 8.078867717003781e-02	 7.031716312727716e+00
 1.924024722631534e+00	 9.709569369214555e-02	 4.453025646316002e+00
 1.923129739983864e+00	 1.134489865117469e-01	 2.434877743587656e+00
 1.922092183580612e+00	 1.298469999853945e-01	 9.616855306749112e-01
 1.920910799624076e+00	 1.462881474641382e-01	 1.481660515260241e-02
 1.919584354261279e+00	 1.627708114581646e-01	-4.274434968140288e-01
 1.935296117666666e+00	 0.000000000000000e+00	 2.703370414287898e+01
 1.935228928031002e+00	 1.612691708675258e-02	 2.189557705859785e+01
 1.935026443541912e+00	 3.230766478058891e-02	 1.729071403738980e+01
 1.934687301696533e+00	 4.854083776948886e-02	 1.322169935991564e+01
 1.934210155124092e+00	 6.482499909174548e-02	 9.688449772209182e+00
 1.933593672389465e+00	 8.115868019439562e-02	 6.688185873229707e+00
 1.932836538803020e+00	 9.754038101224943e-02	 4.215401868097835e+00
 1.931937457236144e+00	 1.139685700679294e-01	 2.261833639372905e+00
 1.930895148941935e+00	 1.304416845933169e-01	 8.164250842271126e-01
 1.929708354380417e+00	 1.469581306727882e-01	-1.347073454970626e-01
 1.928375834047675e+00	 1.635162834086093e-01	-6.083119759536810e-01
 1.944119147074999e+00	 0.000000000000000e+00	 2.542417427086831e+01
 1.944051651121354e+00	 1.620043982117643e-02	 2.057001033588431e+01
 1.943848243504153e+00	 3.245495566364379e-02	 1.621909596884834e+01
 1.943507555508850e+00	 4.876213580855929e-02	 1.237308459409424e+01
 1.943028233621972e+00	 6.512053674310217e-02	 9.031416187334671e+00
 1.942408940338352e+00	 8.152868321917076e-02	 6.191300124648484e+00
 1.941648354974646e+00	 9.798506833277225e-02	 3.847696163624311e+00
 1.940745174488602e+00	 1.144881536245179e-01	 1.993293492181691e+00
 1.939698114303471e+00	 1.310363692016230e-01	 6.184877756321123e-01
 1.938505909136998e+00	 1.476281138817963e-01	-2.886438788967116e-01
 1.937167313834337e+00	 1.642617553593884e-01	-7.423701347625999e-01
 1.952942176483333e+00	 0.000000000000000e+00	 2.390960127784827e+01
 1.952874374211709e+00	 1.627396255578405e-02	 1.922128069934836e+01
 1.952670043466408e+00	 3.260224654702193e-02	 1.504160986783588e+01
 1.952327809321199e+00	 4.898343384805312e-02	 1.136701120526111e+01
 1.951846312119910e+00	 6.541607439494819e-02	 8.192382112908861e+00
 1.951224208287323e+00	 8.189868624447208e-02	 5.511100181950328e+00
 1.950460171146388e+00	 9.842975565383434e-02	 3.315026282923120e+00
 1.949552891741205e+00	 1.150077371816401e-01	 1.594505436307482e+00
 1.948501079665185e+00	 1.316310538104442e-01	 3.383653604651231e-01
 1.947303463893790e+00	 1.482980970912932e-01	-4.660874192588795e-01
 1.945958793621237e+00	 1.650072273106281e-01	-8.330740307350832e-01
 1.961765205891666e+00	 0.000000000000000e+00	 2.255700621695409e+01
 1.961697097302065e+00	 1.634748529060362e-02	 1.788770940745095e+01
 1.961491843428675e+00	 3.274953743077662e-02	 1.377251425953147e+01
 1.961148063133574e+00	 4.920473188804563e-02	 1.019838156629808e+01
 1.960664390617890e+00	 6.571161204737740e-02	 7.151667828645831e+00
 1.960039476236356e+00	 8.226868927040855e-02	 4.618163638861396e+00
 1.959271987318218e+00	 9.887444297555595e-02	 2.583129670319511e+00
 1.958360608993926e+00	 1.155273207394240e-01	 1.031330125697638e+00
 1.957304045027047e+00	 1.322257384199121e-01	-5.293651120250065e-02
 1.956101018650761e+00	 1.489680803014100e-01	-6.858095888804800e-01
 1.954750273408352e+00	 1.657526992624541e-01	-8.838414514129568e-01
 1.970588235300000e+00	 0.000000000000000e+00	 2.143224141101634e+01
 1.970519820392425e+00	 1.642100802566334e-02	 1.660695514110351e+01
 1.970313643390948e+00	 3.289682831496119e-02	 1.242582866070983e+01
 1.969968316945962e+00	 4.942602992861205e-02	 8.862198801175751e+00
 1.969482469115896e+00	 6.600714970048366e-02	 5.889949124064742e+00
 1.968854744185433e+00	 8.263869229708914e-02	 3.483592202142789e+00
 1.968083803490109e+00	 9.931913029805751e-02	 1.618349214125112e+00
 1.967168326246733e+00	 1.160469042979975e-01	 2.702266395834041e-01
 1.966107010389023e+00	 1.328204230301581e-01	-5.839101688303634e-01
 1.964898573407881e+00	 1.496380635122773e-01	-9.662667745621665e-01
 1.963541753195655e+00	 1.664981712149926e-01	-8.980530641149925e-01
 1.875626955334190e+00	 1.590434517065505e-01	 1.302848173902105e+00
 1.874187703024645e+00	 1.751903688914292e-01	 1.362654311538258e+00
 1.872604312149079e+00	 1.913745749929839e-01	 1.289680989004316e+00
 1.870875639613893e+00	 2.075943598076000e-01	 1.106076299390468e+00
 1.869000565147121e+00	 2.238479828302088e-01	 8.338101091654555e-01
 1.866977992128452e+00	 2.401336735270876e-01	 4.946226121833750e-01
 1.864806848419438e+00	 2.564496316329435e-01	 1.099660975756052e-01
 1.862486087193140e+00	 2.727940274725351e-01	-2.990603689760705e-01
 1.860014687762457e+00	 2.891650023070629e-01	-7.117836649846918e-01
 1.857391656406358e+00	 3.055606687055365e-01	-1.108037060482334e+00
 1.854616027193228e+00	 3.219791109412959e-01	-1.468248739753194e+00
 1.884418435118870e+00	 1.597889236572119e-01	 8.346620679676104e-01
 1.882972436714475e+00	 1.760115250265634e-01	 8.956200284618649e-01
 1.881381624134609e+00	 1.922715900940228e-01	 8.537478806679693e-01
 1.879644848927742e+00	 2.085674006398712e-01	 7.228270412708402e-01
 1.877760985570946e+00	 2.248972080009056e-01	 5.170612280936711e-01
 1.875728932303808e+00	 2.412592333445181e-01	 2.510480532608916e-01
 1.873547611962533e+00	 2.576516679671723e-01	-6.025636472820128e-02
 1.871215972813470e+00	 2.740726736175319e-01	-4.015801110371962e-01
 1.868732989385335e+00	 2.905203828444762e-01	-7.573858632287259e-01
 1.866097663299309e+00	 3.069928993702055e-01	-1.111929331117772e+00
 1.863309024096240e+00	 3.234882984886234e-01	-1.449326136105683e+00
 1.893209914903944e+00	 1.605343956075780e-01	 4.311837797278337e-01
 1.891757170404670e+00	 1.768326811614318e-01	 4.512662349028400e-01
 1.890158936120451e+00	 1.931686051948514e-01	 4.049260865652036e-01
 1.888414058241827e+00	 2.095404414720083e-01	 2.992391817935651e-01
 1.886521405994919e+00	 2.259464331715612e-01	 1.420756926058682e-01
 1.884479872479216e+00	 2.423847931620121e-01	-5.791210092153776e-02
 1.882288375505576e+00	 2.588537043015761e-01	-2.913090646821205e-01
 1.879945858433651e+00	 2.753513197628177e-01	-5.479638694495544e-01
 1.877451291007973e+00	 2.918757633822889e-01	-8.170234395370864e-01
 1.874803670191940e+00	 3.084251300353768e-01	-1.086975593509814e+00
 1.872002020998873e+00	 3.249974860365428e-01	-1.345700296816151e+00
 1.902001394689388e+00	 1.612798675577750e-01	 8.874718639414914e-02
 1.900541904095215e+00	 1.776538372961512e-01	 4.406559901832297e-02
 1.898936248106599e+00	 1.940656202955728e-01	-2.801394979584182e-02
 1.897183267556163e+00	 2.105134823040985e-01	-1.254898396495472e-01
 1.895281826419069e+00	 2.269956583422437e-01	-2.454205948738766e-01
 1.893230812654720e+00	 2.435103529796167e-01	-3.839277048614725e-01
 1.891029139048634e+00	 2.600557406361796e-01	-5.362053992939529e-01
 1.888675744053763e+00	 2.766299659083937e-01	-6.965377589924925e-01
 1.886169592630466e+00	 2.932311439204797e-01	-8.583235617147644e-01
 1.883509677084360e+00	 3.098573607010063e-01	-1.014109281188796e+00
 1.880695017901244e+00	 3.265066735849895e-01	-1.155630676820803e+00
 1.910792874475175e+00	 1.620253395079285e-01	-1.962691795237859e-01
 1.909326637786092e+00	 1.784749934308381e-01	-3.118013863103863e-01
 1.907713560093051e+00	 1.949626353962909e-01	-4.168596192381575e-01
 1.905952476870757e+00	 2.114865231362290e-01	-5.129143582818396e-01
 1.904042246843425e+00	 2.280448835130215e-01	-6.005752199248708e-01
 1.901981752830368e+00	 2.446359127973791e-01	-6.795911196073849e-01
 1.899769902591771e+00	 2.612577769710079e-01	-7.488571691056128e-01
 1.897405629673888e+00	 2.779086120542619e-01	-8.064286889125871e-01
 1.894887894252909e+00	 2.945865244590271e-01	-8.495427356608725e-01
 1.892215683976677e+00	 3.112895913670508e-01	-8.746475650501301e-01
 1.889388014803469e+00	 3.280158611338988e-01	-8.774404714321302e-01
 1.919584354261279e+00	 1.627708114581646e-01	-4.274434968140286e-01
 1.918111371477284e+00	 1.792961495656094e-01	-6.024400005571997e-01
 1.916490872079803e+00	 1.958596504971091e-01	-7.339435875072264e-01
 1.914721686185623e+00	 2.124595639684870e-01	-8.253233936709127e-01
 1.912802667268015e+00	 2.290941086839626e-01	-8.793892723611613e-01
 1.910732693006208e+00	 2.457614726153465e-01	-8.983959837232020e-01
 1.908510666135051e+00	 2.624598133060859e-01	-8.840537620841071e-01
 1.906135515294109e+00	 2.791872582004242e-01	-8.375456269737150e-01
 1.903606195875401e+00	 2.959419049979102e-01	-7.595518249073345e-01
 1.900921690869000e+00	 3.127218220334664e-01	-6.502818108354422e-01
 1.898081011705663e+00	 3.295250486832059e-01	-5.095142003550038e-01
 1.928375834047675e+00	 1.635162834086093e-01	-6.083119759536806e-01
 1.926896105168775e+00	 1.801173057005816e-01	-8.142350570769539e-01
 1.925268184066851e+00	 1.967566655981312e-01	-9.521315666575874e-01
 1.923490895500773e+00	 2.134326048009596e-01	-1.025724011952390e+00
 1.921563087692869e+00	 2.301433338551352e-01	-1.038697891691733e+00
 1.919483633182285e+00	 2.468870324335661e-01	-9.947165449501219e-01
 1.917251429678539e+00	 2.636618496414380e-01	-8.974418841451911e-01
 1.914865400914505e+00	 2.804659043468823e-01	-7.505613502973212e-01
 1.912324497498038e+00	 2.972972855371075e-01	-5.578214511059687e-01
 1.909627697761435e+00	 3.141540527002096e-01	-3.230682655326476e-01
 1.906774008607944e+00	 3.310342362328462e-01	-5.029532223815050e-02
 1.937167313834337e+00	 1.642617553593884e-01	-7.423701347625999e-01
 1.935680838860548e+00	 1.809384618358714e-01	-9.338448238542595e-01
 1.934045496054190e+00	 1.976536806994605e-01	-1.044810406725865e+00
 1.932260104816218e+00	 2.144056456337339e-01	-1.077825126174683e+00
 1.930323508118016e+00	 2.311925590266076e-01	-1.036151324995513e+00
 1.928234573358647e+00	 2.480125922520850e-01	-9.237875347542914e-01
 1.925992193222301e+00	 2.648638859770895e-01	-7.455058189450222e-01
 1.923595286535160e+00	 2.817445504936383e-01	-5.068946675289105e-01
 1.921042799120914e+00	 2.986526660765980e-01	-2.144077633637550e-01
 1.918333704654092e+00	 3.155862833672365e-01	 1.245810345770677e-01
 1.915467005510425e+00	 3.325434237827546e-01	 5.017161212110356e-01
 1.945958793621237e+00	 1.650072273106281e-01	-8.330740307350835e-01
 1.944465572552588e+00	 1.817596179715958e-01	-9.481950984405493e-01
 1.942822808041816e+00	 1.985506958012007e-01	-9.858764975617098e-01
 1.941029314131968e+00	 2.153786864668973e-01	-9.460217209091585e-01
 1.939083928543483e+00	 2.322417841984477e-01	-8.301964810077449e-01
 1.936985513535340e+00	 2.491381520709504e-01	-6.416845685905946e-01
 1.934732956766399e+00	 2.660659223130650e-01	-3.855482002013089e-01
 1.932325172156156e+00	 2.830231966406935e-01	-6.869309742370515e-02
 1.929761100744129e+00	 3.000080466163604e-01	 3.000614352401361e-01
 1.927039711547079e+00	 3.170185140345035e-01	 7.099071412356894e-01
 1.924160002413225e+00	 3.340526113328665e-01	 1.147965832481705e+00
 1.954750273408352e+00	 1.657526992624541e-01	-8.838414514129561e-01
 1.953250306244875e+00	 1.825807741078712e-01	-8.444734322241323e-01
 1.951600120029727e+00	 1.994477109034553e-01	-7.497244710515991e-01
 1.949798523448037e+00	 2.163517273005370e-01	-5.953794877684481e-01
 1.947844348969299e+00	 2.332910093707239e-01	-3.800589647948188e-01
 1.945736453712412e+00	 2.502637118902095e-01	-1.053050553329943e-01
 1.943473720310901e+00	 2.672679586493892e-01	 2.243287195908845e-01
 1.941055057777571e+00	 2.843018427880500e-01	 6.011840105160924e-01
 1.938479402367777e+00	 3.013634271563733e-01	 1.014400215199513e+00
 1.935745718440505e+00	 3.184507447019673e-01	 1.449812863645245e+00
 1.932852999316459e+00	 3.355617988831173e-01	 1.889847557787578e+00
 1.963541753195655e+00	 1.664981712149926e-01	-8.980530641149933e-01
 1.962035039937395e+00	 1.834019302448144e-01	-6.101234993537629e-01
 1.960377432017917e+00	 2.003447260063280e-01	-3.112361943210809e-01
 1.958567732764435e+00	 2.173247681347400e-01	 8.380141045187472e-03
 1.956604769395495e+00	 2.343402345435043e-01	 3.542744220444505e-01
 1.954487393889909e+00	 2.513892717099096e-01	 7.276504000876833e-01
 1.952214483855871e+00	 2.684699949860874e-01	 1.125241319607710e+00
 1.949784943399491e+00	 2.855804889357098e-01	 1.539181927208048e+00
 1.947197703991955e+00	 3.027188076966157e-01	 1.956877713031471e+00
 1.944451725334479e+00	 3.198829753695840e-01	 2.360871236540535e+00
 1.941545996220244e+00	 3.370709864334422e-01	 2.728705359736572e+00
 1.854616027193228e+00	 3.219791109412959e-01	-1.468248739753194e+00
 1.851687373569412e+00	 3.384155901141933e-01	-1.699829877311967e+00
 1.848604328113462e+00	 3.548709288244347e-01	-1.739335847414885e+00
 1.845366012173774e+00	 3.713431345988638e-01	-1.612329699713025e+00
 1.841971578090960e+00	 3.878301886145815e-01	-1.391953229017344e+00
 1.838420209993003e+00	 4.043300462218324e-01	-1.134831787974556e+00
 1.834711124582473e+00	 4.208406374924301e-01	-8.572930197716120e-01
 1.830843571914933e+00	 4.373598677937027e-01	-5.760725505565525e-01
 1.826816836167647e+00	 4.538856183878984e-01	-3.083057279565040e-01
 1.822630236397704e+00	 4.704157470569681e-01	-7.151488381849258e-02
 1.818283127288656e+00	 4.869480887526040e-01	 1.164080292740099e-01
 1.863309024096240e+00	 3.234882984886234e-01	-1.449326136105683e+00
 1.860366643223122e+00	 3.400018190873033e-01	-1.684243900142809e+00
 1.857269146849096e+00	 3.565342876221557e-01	-1.751277264512543e+00
 1.854015652204112e+00	 3.730837022808532e-01	-1.667012537615041e+00
 1.850605307655608e+00	 3.896480347778188e-01	-1.508726278162899e+00
 1.847037293507387e+00	 4.062252308795626e-01	-1.320032755007433e+00
 1.843310822790522e+00	 4.228132109556790e-01	-1.109453304587710e+00
 1.839425142045411e+00	 4.394098705554803e-01	-8.864383243421317e-01
 1.835379532094092e+00	 4.560130810102132e-01	-6.614976226021472e-01
 1.831173308801916e+00	 4.726206900607705e-01	-4.462093494019937e-01
 1.826805823827681e+00	 4.892305225107746e-01	-2.532236434995243e-01
 1.872002020998873e+00	 3.249974860365428e-01	-1.345700296816151e+00
 1.869045912876419e+00	 3.415880480610784e-01	-1.524256691189305e+00
 1.865933965584301e+00	 3.581976464205966e-01	-1.565886160382950e+00
 1.862665292234023e+00	 3.748242699636000e-01	-1.481764202681024e+00
 1.859239037219846e+00	 3.914658809418339e-01	-1.353922978809439e+00
 1.855654377021386e+00	 4.081204155380744e-01	-1.212873815190358e+00
 1.851910520998216e+00	 4.247857844196964e-01	-1.060264763467429e+00
 1.848006712175566e+00	 4.414598733179969e-01	-8.995259848341769e-01
 1.843942228020241e+00	 4.581405436332218e-01	-7.357518319491705e-01
 1.839716381205850e+00	 4.748256330652056e-01	-5.752132706503390e-01
 1.835328520366439e+00	 4.915129562695016e-01	-4.257282662676747e-01
 1.880695017901244e+00	 3.265066735849895e-01	-1.155630676820804e+00
 1.877725182529421e+00	 3.431742770354342e-01	-1.235895615289699e+00
 1.874598784319196e+00	 3.598610052196566e-01	-1.213478406264110e+00
 1.871314932263623e+00	 3.765648376469893e-01	-1.097655212141507e+00
 1.867872766783782e+00	 3.932837271065004e-01	-9.751241365867995e-01
 1.864271460535099e+00	 4.100156001972329e-01	-8.649462166421290e-01
 1.860510219205645e+00	 4.267583578843425e-01	-7.635213405018486e-01
 1.856588282305478e+00	 4.435098760811119e-01	-6.687828627238344e-01
 1.852504923946168e+00	 4.602680062567869e-01	-5.802350307283902e-01
 1.848259453609578e+00	 4.770305760701435e-01	-4.994708814846394e-01
 1.843851216904998e+00	 4.937953900286675e-01	-4.304626978821500e-01
 1.889388014803469e+00	 3.280158611338988e-01	-8.774404714321300e-01
 1.886404452182247e+00	 3.447605060102871e-01	-8.349244780062112e-01
 1.883263603053897e+00	 3.615243640192350e-01	-7.241602913416683e-01
 1.879964572293025e+00	 3.783054053309060e-01	-5.562123926154724e-01
 1.876506496347521e+00	 3.951015732716919e-01	-4.216812773673708e-01
 1.872888544048626e+00	 4.119107848569036e-01	-3.296902228361078e-01
 1.869109917412900e+00	 4.287309313494783e-01	-2.726415573790886e-01
 1.865169852435230e+00	 4.455598788446854e-01	-2.444657111314126e-01
 1.861067619871948e+00	 4.623954688807709e-01	-2.406639412506759e-01
 1.856802526013169e+00	 4.792355190754544e-01	-2.583485434505175e-01
 1.852373913443422e+00	 4.960778237881541e-01	-2.962803945291272e-01
 1.898081011705663e+00	 3.295250486832059e-01	-5.095142003550039e-01
 1.895083721835017e+00	 3.463467349855531e-01	-3.368471655300724e-01
 1.891928421788526e+00	 3.631877228192311e-01	-1.275133062667062e-01
 1.888614212322343e+00	 3.800459730152350e-01	 1.018139208664774e-01
 1.885140225911173e+00	 3.969194194372820e-01	 2.579339699179279e-01
 1.881505627562064e+00	 4.138059695169516e-01	 3.398219413003615e-01
 1.877709615620070e+00	 4.307035048149640e-01	 3.578457530826551e-01
 1.873751422564904e+00	 4.476098816085765e-01	 3.210578635351531e-01
 1.869630315797655e+00	 4.645229315050365e-01	 2.371526070223080e-01
 1.865345598416690e+00	 4.814404620810083e-01	 1.124257364389236e-01
 1.860896609981780e+00	 4.983602575478439e-01	-4.826367857285585e-02
 1.906774008607944e+00	 3.310342362328462e-01	-5.029532223815081e-02
 1.903762991487849e+00	 3.479329639611483e-01	 2.430876364283315e-01
 1.900593240523198e+00	 3.648510816195437e-01	 5.473953327058918e-01
 1.897263852351691e+00	 3.817865406998611e-01	 8.364326961578847e-01
 1.893773955474843e+00	 3.987372656031441e-01	 1.016152089273945e+00
 1.890122711075513e+00	 4.157011541772421e-01	 1.091505939221656e+00
 1.886309313827246e+00	 4.326760782806602e-01	 1.074427963609718e+00
 1.882332992694578e+00	 4.496598843726447e-01	 9.759545349907468e-01
 1.878193011723362e+00	 4.666503941294464e-01	 8.061873944887992e-01
 1.873888670820212e+00	 4.836454050866755e-01	 5.742580933839436e-01
 1.869419306520137e+00	 5.006426913076192e-01	 2.882942939369475e-01
 1.915467005510425e+00	 3.325434237827546e-01	 5.017161212110354e-01
 1.912442261140863e+00	 3.495191929369890e-01	 8.898818912250420e-01
 1.909258059258034e+00	 3.665144404200725e-01	 1.272002488874806e+00
 1.905913492381182e+00	 3.835271083846696e-01	 1.608395470854718e+00
 1.902407685038640e+00	 4.005551117691519e-01	 1.806285673557638e+00
 1.898739794589072e+00	 4.175963388376407e-01	 1.874243337654127e+00
 1.894909012034517e+00	 4.346486517464275e-01	 1.824585985950754e+00
 1.890914562824337e+00	 4.517098871367495e-01	 1.669355612487430e+00
 1.886755707649143e+00	 4.687778567538631e-01	 1.420292047997023e+00
 1.882431743223803e+00	 4.858503480923257e-01	 1.088807404286082e+00
 1.877942003058562e+00	 5.029251250673622e-01	 6.859616990484398e-01
 1.924160002413225e+00	 3.340526113328665e-01	 1.147965832481705e+00
 1.921121530794179e+00	 3.511054219129908e-01	 1.588783822046672e+00
 1.917922877993149e+00	 3.681777992207165e-01	 2.018239229132242e+00
 1.914563132410930e+00	 3.852676760695452e-01	 2.379180060308569e+00
 1.911041414602669e+00	 4.023729579351785e-01	 2.582509949098483e+00
 1.907356878102840e+00	 4.194915234980123e-01	 2.637860202728537e+00
 1.903508710241975e+00	 4.366212252121263e-01	 2.556772202863610e+00
 1.899496132954261e+00	 4.537598899007507e-01	 2.351335581693907e+00
 1.895318403575075e+00	 4.709053193781491e-01	 2.034177471588551e+00
 1.890974815627531e+00	 4.880552910978292e-01	 1.618452015138794e+00
 1.886464699597119e+00	 5.052075588269552e-01	 1.117830195581738e+00
 1.932852999316459e+00	 3.355617988831173e-01	 1.889847557787577e+00
 1.929800800447914e+00	 3.526916508890702e-01	 2.325283679748045e+00
 1.926587696728664e+00	 3.698411580213750e-01	 2.758521256847969e+00
 1.923212772441050e+00	 3.870082437543728e-01	 3.110974692906544e+00
 1.919675144167039e+00	 4.041908041010981e-01	 3.299843812377236e+00
 1.915973961616915e+00	 4.213867081582223e-01	 3.333106259056279e+00
 1.912108408449707e+00	 4.385937986776169e-01	 3.220388979770147e+00
 1.908077703084432e+00	 4.558098926645076e-01	 2.972891207570972e+00
 1.903881099501229e+00	 4.730327820021673e-01	 2.603394786960545e+00
 1.899517888031467e+00	 4.902602341030561e-01	 2.126273772407756e+00
 1.894987396135878e+00	 5.074899925862805e-01	 1.557503306953447e+00
 1.941545996220244e+00	 3.370709864334422e-01	 2.728705359736573e+00
 1.938480070102190e+00	 3.542778798651433e-01	 3.085109662840423e+00
 1.935252515464695e+00	 3.715045168219472e-01	 3.465389237795289e+00
 1.931862412471655e+00	 3.887488114390375e-01	 3.766662559226356e+00
 1.928308873731856e+00	 4.060086502667835e-01	 3.914131362715064e+00
 1.924591045131398e+00	 4.232818928181366e-01	 3.911634594105429e+00
 1.920708106657807e+00	 4.405663721427606e-01	 3.765767737910122e+00
 1.916659273214932e+00	 4.578598954278800e-01	 3.485921181629935e+00
 1.912443795427681e+00	 4.751602446257804e-01	 3.084316767670977e+00
 1.908060960435679e+00	 4.924651771078769e-01	 2.576042463806598e+00
 1.903510092674904e+00	 5.097724263452202e-01	 1.979085094175617e+00
 1.818283127288656e+00	 4.869480887526040e-01	 1.164080292740099e-01
 1.813774900280472e+00	 5.034804565022218e-01	 3.027765131509077e-01
 1.809104985480471e+00	 5.200106428226275e-01	 5.473958170727551e-01
 1.804272851186890e+00	 5.365364197891487e-01	 8.500983180139015e-01
 1.799278004183412e+00	 5.530555395592704e-01	 1.209719298308364e+00
 1.794119990412552e+00	 5.695657351459109e-01	 1.624102956398531e+00
 1.788798395632072e+00	 5.860647212144210e-01	 2.090113532317587e+00
 1.783312846053559e+00	 6.025501949029394e-01	 2.603651484550021e+00
 1.777663008962260e+00	 6.190198366657010e-01	 3.159674610399343e+00
 1.771848593317296e+00	 6.354713111388515e-01	 3.752223956729677e+00
 1.765869350331383e+00	 6.519022680282957e-01	 4.374454322253967e+00
 1.826805823827681e+00	 4.892305225107746e-01	-2.532236434995243e-01
 1.822276465758901e+00	 5.058403811368120e-01	-3.376784697699495e-02
 1.817584662031687e+00	 5.224480481087361e-01	 2.652259499080366e-01
 1.812729878452084e+00	 5.390512850591123e-01	 6.363220842336748e-01
 1.807711619491975e+00	 5.556478336093043e-01	 1.071533920261448e+00
 1.802529428965615e+00	 5.722354161463736e-01	 1.562347577997978e+00
 1.797182890689137e+00	 5.888117366238169e-01	 2.099750670767699e+00
 1.791671629122110e+00	 6.053744813857633e-01	 2.674265953375523e+00
 1.785995309990285e+00	 6.219213200142381e-01	 3.275989736253268e+00
 1.780153640888623e+00	 6.384499061990339e-01	 3.894634874096552e+00
 1.774146371863731e+00	 6.549578786297220e-01	 4.519578090236909e+00
 1.835328520366439e+00	 4.915129562695016e-01	-4.257282662676756e-01
 1.830778031237056e+00	 5.082003057718679e-01	-2.292066749748434e-01
 1.826064338582611e+00	 5.248854533952091e-01	 6.976725124893723e-02
 1.821186905716960e+00	 5.415661503293331e-01	 4.580263466969170e-01
 1.816145234800188e+00	 5.582401276594871e-01	 9.222058308392475e-01
 1.810938867518299e+00	 5.749050971468807e-01	 1.448781494666374e+00
 1.805567385745794e+00	 5.915587520331596e-01	 2.024112866340169e+00
 1.800030412190233e+00	 6.081987678684503e-01	 2.634491229020890e+00
 1.794327611017873e+00	 6.248228033625711e-01	 3.266192315837960e+00
 1.788458688459521e+00	 6.414285012589674e-01	 3.905533458397754e+00
 1.782423393395677e+00	 6.580134892308822e-01	 4.538934916311329e+00
 1.843851216904998e+00	 4.937953900286675e-01	-4.304626978821491e-01
 1.839279596715006e+00	 5.105602304072889e-01	-3.003571678024013e-01
 1.834544015133317e+00	 5.273228586819669e-01	-4.472989830862240e-02
 1.829643932981598e+00	 5.440810155997551e-01	 3.190357910824135e-01
 1.824578850108139e+00	 5.608324217097863e-01	 7.736203648185355e-01
 1.819348306070697e+00	 5.775747781474236e-01	 1.301817483060421e+00
 1.813951880802146e+00	 5.943057674424644e-01	 1.886588438801174e+00
 1.808389195258034e+00	 6.110230543510344e-01	 2.511121470828900e+00
 1.802659912045135e+00	 6.277242867107512e-01	 3.158895753337586e+00
 1.796763736030097e+00	 6.444070963187151e-01	 3.813749812665842e+00
 1.790700414927322e+00	 6.610690998318429e-01	 4.459954071006339e+00
 1.852373913443422e+00	 4.960778237881541e-01	-2.962803945291281e-01
 1.847781162192821e+00	 5.129201550429737e-01	-2.637712216459445e-01
 1.843023691683877e+00	 5.297602639689291e-01	-8.395050843996188e-02
 1.838100960246077e+00	 5.465958808703203e-01	 2.230669750579795e-01
 1.833012465415917e+00	 5.634247157601698e-01	 6.374103018109538e-01
 1.827757744622905e+00	 5.802444591479938e-01	 1.139499988357750e+00
 1.822336375858294e+00	 5.970527828517453e-01	 1.710110573736684e+00
 1.816747978325622e+00	 6.138473408335514e-01	 2.330438179717869e+00
 1.810992213072177e+00	 6.306257700588299e-01	 2.982172835207068e+00
 1.805068783600458e+00	 6.473856913783389e-01	 3.647575295542131e+00
 1.798977436458766e+00	 6.641247104326712e-01	 4.309558034960016e+00
 1.860896609981780e+00	 4.983602575478439e-01	-4.826367857285585e-02
 1.856282727670566e+00	 5.152800796788221e-01	-1.348391414006214e-01
 1.851503368234364e+00	 5.321976692560152e-01	-5.351551249582731e-02
 1.846557987510477e+00	 5.491107461409722e-01	 1.737319424514918e-01
 1.841446080723607e+00	 5.660170098106045e-01	 5.249629876133790e-01
 1.836167183175018e+00	 5.829141401485834e-01	 9.795151041938005e-01
 1.830720870914339e+00	 5.997997982610178e-01	 1.517169504660429e+00
 1.825106761393103e+00	 6.166716273160361e-01	 2.118223918609444e+00
 1.819324514099112e+00	 6.335272534068580e-01	 2.763570318030588e+00
 1.813373831170712e+00	 6.503642864379001e-01	 3.434777299046539e+00
 1.807254457990109e+00	 6.671803210334327e-01	 4.114176782869256e+00
 1.869419306520137e+00	 5.006426913076192e-01	 2.882942939369466e-01
 1.864784293148312e+00	 5.176400043147329e-01	 7.549408350126030e-02
 1.859983044784852e+00	 5.346350745431454e-01	 4.449092907264252e-02
 1.855015014774876e+00	 5.516256114116537e-01	 1.751210217216628e-01
 1.849879696031298e+00	 5.686093038610581e-01	 4.474273091822474e-01
 1.844576621727132e+00	 5.855838211491839e-01	 8.392003308053257e-01
 1.839105365970385e+00	 6.025468136702953e-01	 1.329824415917583e+00
 1.833465544460584e+00	 6.194959137985229e-01	 1.899775714447237e+00
 1.827656815126045e+00	 6.364287367548868e-01	 2.530123177160097e+00
 1.821678878740966e+00	 6.533428814974618e-01	 3.202613684887476e+00
 1.815531479521452e+00	 6.702359316341945e-01	 3.899761742476068e+00
 1.877942003058562e+00	 5.029251250673622e-01	 6.859616990484394e-01
 1.873285858626127e+00	 5.199999289506052e-01	 3.523613528328964e-01
 1.868462721335411e+00	 5.370724798302392e-01	 2.088793740726402e-01
 1.863472042039355e+00	 5.541404766823075e-01	 2.369669453477175e-01
 1.858313311339076e+00	 5.712015979114976e-01	 4.184647242255081e-01
 1.852986060279340e+00	 5.882535021497867e-01	 7.356422545802540e-01
 1.847489861026533e+00	 6.052938290795933e-01	 1.169715075256202e+00
 1.841824327528172e+00	 6.223202002810472e-01	 1.699918151923529e+00
 1.835989116153088e+00	 6.393302201029678e-01	 2.308368526911880e+00
 1.829983926311327e+00	 6.563214765570854e-01	 2.977846890161343e+00
 1.823808501052896e+00	 6.732915422350229e-01	 3.691799438916666e+00
 1.886464699597119e+00	 5.052075588269552e-01	 1.117830195581737e+00
 1.881787424104077e+00	 5.223598535863381e-01	 6.804245639544854e-01
 1.876942397886117e+00	 5.395098851172165e-01	 4.345355922971013e-01
 1.871929069303992e+00	 5.566553419528767e-01	 3.646460776660382e-01
 1.866746926647027e+00	 5.737938919618902e-01	 4.554619955279033e-01
 1.861395498831739e+00	 5.909231831503838e-01	 6.919459978404511e-01
 1.855874356082885e+00	 6.080408444889259e-01	 1.059352835251367e+00
 1.850183110595975e+00	 6.251444867636436e-01	 1.543016168665839e+00
 1.844321417180349e+00	 6.422317034511513e-01	 2.124359222710825e+00
 1.838288973881903e+00	 6.593000716168336e-01	 2.786757712899648e+00
 1.832085522584540e+00	 6.763471528359838e-01	 3.515324834385829e+00
 1.894987396135878e+00	 5.074899925862805e-01	 1.557503306953447e+00
 1.890288989582232e+00	 5.247197782218312e-01	 1.044650307940585e+00
 1.885422074437041e+00	 5.419472904039975e-01	 7.164594787937872e-01
 1.880386096568869e+00	 5.591702072233043e-01	 5.618432248713112e-01
 1.875180541955240e+00	 5.763861860122034e-01	 5.696852287503977e-01
 1.869804937384422e+00	 5.935928641509662e-01	 7.288648992529895e-01
 1.864258851139542e+00	 6.107878598983075e-01	 1.028283912021664e+00
 1.858541893664097e+00	 6.279687732463468e-01	 1.456894945016676e+00
 1.852653718207937e+00	 6.451331867994891e-01	 2.003732719168283e+00
 1.846594021452801e+00	 6.622786666767680e-01	 2.655158787545336e+00
 1.840362544116487e+00	 6.794027634371440e-01	 3.394934372711413e+00
 1.903510092674904e+00	 5.097724263452202e-01	 1.979085094175617e+00
 1.898790555060662e+00	 5.270797028569836e-01	 1.430303118930980e+00
 1.893901750988258e+00	 5.443846956905017e-01	 1.049769975792532e+00
 1.888843123834064e+00	 5.616850724935336e-01	 8.322073827525577e-01
 1.883614157263803e+00	 5.789784800624048e-01	 7.719715934469079e-01
 1.878214375937486e+00	 5.962625451515265e-01	 8.630656840925370e-01
 1.872643346196608e+00	 6.135348753077534e-01	 1.099154160759521e+00
 1.866900676732649e+00	 6.307930597291920e-01	 1.473580017228252e+00
 1.860986019235964e+00	 6.480346701480327e-01	 1.979384381098245e+00
 1.854899069024128e+00	 6.652572617369513e-01	 2.609328892656085e+00
 1.848639565648836e+00	 6.824583740385707e-01	 3.354798738090405e+00
 1.765869350331383e+00	 6.519022680282957e-01	 4.374454322253966e+00
 1.759724015199794e+00	 6.683131303505517e-01	 4.877398540804015e+00
 1.753413426734233e+00	 6.846987235911637e-01	 5.129316166281804e+00
 1.746937464927228e+00	 7.010566561718174e-01	 5.150628187994015e+00
 1.740296054154137e+00	 7.173845253063597e-01	 4.964126464626736e+00
 1.733489163639346e+00	 7.336799179914384e-01	 4.595025205045462e+00
 1.726516807897010e+00	 7.499404120156162e-01	 4.072256852489010e+00
 1.719379047145570e+00	 7.661635769862305e-01	 3.430514313890045e+00
 1.712075987695309e+00	 7.823469753732302e-01	 2.699989242838803e+00
 1.704607782308222e+00	 7.984881635692114e-01	 1.912091997081785e+00
 1.696974630529512e+00	 8.145846929648082e-01	 1.100241508127872e+00
 1.774146371863731e+00	 6.549578786297220e-01	 4.519578090236910e+00
 1.767972232182473e+00	 6.714456623056039e-01	 5.014785901944948e+00
 1.761632064588246e+00	 6.879080584581186e-01	 5.264035195972379e+00
 1.755125748511073e+00	 7.043426642990833e-01	 5.288023017068721e+00
 1.748453207971837e+00	 7.207470657799385e-01	 5.109497414268287e+00
 1.741614412050666e+00	 7.371188385870379e-01	 4.753307404573173e+00
 1.734609375329743e+00	 7.534555491554897e-01	 4.249823505829481e+00
 1.727438158309759e+00	 7.697547557008282e-01	 3.634068779733850e+00
 1.720100867799294e+00	 7.860140092677468e-01	 2.934387102805295e+00
 1.712597657276366e+00	 8.022308547950969e-01	 2.180531774113762e+00
 1.704928727221485e+00	 8.184028321963254e-01	 1.403933272934228e+00
 1.782423393395677e+00	 6.580134892308822e-01	 4.538934916311329e+00
 1.776220449164800e+00	 6.745781942604032e-01	 5.038003674233972e+00
 1.769850702441976e+00	 6.911173933248602e-01	 5.296161508015244e+00
 1.763314032094718e+00	 7.076286724261931e-01	 5.334248425090693e+00
 1.756610361789429e+00	 7.241096062534321e-01	 5.174826548046129e+00
 1.749739660461979e+00	 7.405577591826311e-01	 4.842228680256405e+00
 1.742701942762565e+00	 7.569706862954361e-01	 4.369681729100308e+00
 1.735497269474131e+00	 7.733459344155724e-01	 3.790583351673098e+00
 1.728125747903544e+00	 7.896810431624701e-01	 3.131497436457325e+00
 1.720587532244843e+00	 8.059735460212316e-01	 2.420348821681436e+00
 1.712882823913839e+00	 8.222209714281085e-01	 1.686400441633974e+00
 1.790700414927322e+00	 6.610690998318429e-01	 4.459954071006339e+00
 1.784468666146862e+00	 6.777107262150124e-01	 4.972234881574314e+00
 1.778069340295493e+00	 6.943267281914407e-01	 5.248568871296158e+00
 1.771502315678212e+00	 7.109146805531854e-01	 5.309805988722220e+00
 1.764767515606941e+00	 7.274721467268629e-01	 5.178180404524229e+00
 1.757864908873280e+00	 7.439966797782196e-01	 4.877727248562968e+00
 1.750794510195449e+00	 7.604858234354371e-01	 4.445240980298659e+00
 1.743556380638632e+00	 7.769371131304262e-01	 3.910816213030264e+00
 1.736150628007981e+00	 7.933480770573488e-01	 3.299361849513864e+00
 1.728577407213554e+00	 8.097162372475533e-01	 2.636803935718161e+00
 1.720836920606459e+00	 8.260391106600911e-01	 1.950059897812757e+00
 1.798977436458766e+00	 6.641247104326712e-01	 4.309558034960017e+00
 1.792716883128748e+00	 6.808432581694953e-01	 4.842203556245956e+00
 1.786287978148868e+00	 6.975360630579137e-01	 5.143721274969931e+00
 1.779690599261606e+00	 7.142006886800998e-01	 5.234838098098994e+00
 1.772924669424397e+00	 7.308346872002509e-01	 5.137318276521738e+00
 1.765990157284573e+00	 7.474356003738056e-01	 4.875809900617080e+00
 1.758887077628368e+00	 7.640009605754744e-01	 4.489684130275736e+00
 1.751615491803209e+00	 7.805282918453531e-01	 4.005348154855326e+00
 1.744175508112531e+00	 7.970151109523312e-01	 3.445894883986849e+00
 1.736567282182402e+00	 8.134589284739997e-01	 2.835082291992949e+00
 1.728791017299227e+00	 8.298572498922063e-01	 2.197305444006621e+00
 1.807254457990109e+00	 6.671803210334327e-01	 4.114176782869254e+00
 1.800965100110545e+00	 6.839757901239151e-01	 4.672188170832960e+00
 1.794506616002171e+00	 7.007453979243333e-01	 5.003685480004539e+00
 1.787878882844947e+00	 7.174866968069751e-01	 5.129139599792951e+00
 1.781081823241821e+00	 7.341972276736178e-01	 5.069702917475096e+00
 1.774115405695855e+00	 7.508745209693893e-01	 4.851928872897135e+00
 1.766979645061297e+00	 7.675160977155304e-01	 4.515972783391804e+00
 1.759674602967811e+00	 7.841194705603169e-01	 4.084586745909748e+00
 1.752200388217115e+00	 8.006821448473654e-01	 3.578887010213841e+00
 1.744557157151288e+00	 8.172016197005080e-01	 3.020295233394152e+00
 1.736745113992029e+00	 8.336753891243879e-01	 2.430508357944861e+00
 1.815531479521452e+00	 6.702359316341945e-01	 3.899761742476069e+00
 1.809213317092343e+00	 6.871083220783347e-01	 4.486034771511831e+00
 1.802725253855475e+00	 7.039547327907528e-01	 4.850143299211595e+00
 1.796067166428287e+00	 7.207727049338504e-01	 5.012169196177370e+00
 1.789238977059240e+00	 7.375597681469845e-01	 4.992511032899758e+00
 1.782240654107128e+00	 7.543134415649738e-01	 4.821273838128199e+00
 1.775072212494208e+00	 7.710312348555861e-01	 4.536852442973898e+00
 1.767733714132385e+00	 7.877106492752801e-01	 4.158770378428424e+00
 1.760225268321657e+00	 8.043491787423995e-01	 3.706007526379259e+00
 1.752547032120114e+00	 8.209443109270164e-01	 3.197481997136781e+00
 1.744699210684749e+00	 8.374935283565698e-01	 2.652017921862285e+00
 1.823808501052896e+00	 6.732915422350229e-01	 3.691799438916666e+00
 1.817461534074229e+00	 6.902408540328180e-01	 4.307169822191477e+00
 1.810943891708848e+00	 7.071640676572262e-01	 4.704403614391477e+00
 1.804255450011673e+00	 7.240587130607646e-01	 4.903060608936236e+00
 1.797396130876680e+00	 7.409223086203730e-01	 4.922646176420541e+00
 1.790365902518390e+00	 7.577523621605593e-01	 4.798778619099811e+00
 1.783164779927075e+00	 7.745463719956235e-01	 4.564857526506721e+00
 1.775792825296878e+00	 7.913018279902072e-01	 4.237972193605112e+00
 1.768250148426081e+00	 8.080162126373820e-01	 3.834807368462906e+00
 1.760536907088782e+00	 8.246870021534625e-01	 3.371611383801898e+00
 1.752653307377271e+00	 8.413116675886849e-01	 2.864161925736708e+00
 1.832085522584540e+00	 6.763471528359838e-01	 3.515324834385829e+00
 1.825709751056291e+00	 6.933733859874273e-01	 4.158612768650886e+00
 1.819162529562362e+00	 7.103734025238065e-01	 4.587414138909632e+00
 1.812443733595157e+00	 7.273447211877574e-01	 4.820633514179190e+00
 1.805553284694165e+00	 7.442848490938035e-01	 4.877520457505844e+00
 1.798491150929641e+00	 7.611912827561479e-01	 4.799127093438908e+00
 1.791257347359871e+00	 7.780615091356247e-01	 4.612316235309986e+00
 1.783851936461238e+00	 7.948930067050608e-01	 4.332103890605882e+00
 1.776275028530309e+00	 8.116832465322605e-01	 3.972721833449105e+00
 1.768526782057194e+00	 8.284296933797841e-01	 3.547583370048230e+00
 1.760607404069479e+00	 8.451298068206674e-01	 3.069247145276451e+00
 1.840362544116487e+00	 6.794027634371440e-01	 3.394934372711413e+00
 1.833957968038617e+00	 6.965059179422266e-01	 4.062988331493044e+00
 1.827381167416087e+00	 7.135827373905478e-01	 4.519772933721506e+00
 1.820632017178787e+00	 7.306307293148669e-01	 4.783404256356302e+00
 1.813710438511722e+00	 7.476473895672974e-01	 4.874337167377636e+00
 1.806616399340881e+00	 7.646302033517413e-01	 4.836758930002417e+00
 1.799349914792569e+00	 7.815766462755710e-01	 4.691355283282650e+00
 1.791911047625413e+00	 7.984841854198050e-01	 4.450919422777258e+00
 1.784299908634266e+00	 8.153502804269840e-01	 4.127073218527078e+00
 1.776516657025253e+00	 8.321723846059189e-01	 3.730230666768585e+00
 1.768561500761259e+00	 8.489479460524503e-01	 3.269559795453035e+00
 1.848639565648836e+00	 6.824583740385707e-01	 3.354798738090405e+00
 1.842206185021296e+00	 6.996384498972793e-01	 4.042538536417010e+00
 1.835599805270095e+00	 7.167920722575036e-01	 4.521739684576074e+00
 1.828820300762612e+00	 7.339167374421329e-01	 4.809596347907762e+00
 1.821867592329375e+00	 7.510099300408764e-01	 4.929508905168556e+00
 1.814741647752110e+00	 7.680691239473409e-01	 4.925875162166513e+00
 1.807442482225145e+00	 7.850917834154445e-01	 4.813904489131742e+00
 1.799970158789351e+00	 8.020753641344032e-01	 4.604018584584980e+00
 1.792324788737874e+00	 8.190173143215005e-01	 4.305073378915609e+00
 1.784506531992859e+00	 8.359150758318045e-01	 3.924320224401915e+00
 1.776515597452493e+00	 8.527660852839679e-01	 3.467365960344696e+00
 1.696974630529512e+00	 8.145846929648082e-01	 1.100241508127872e+00
 1.689178118260765e+00	 8.306313869384492e-01	 3.841472840373558e-01
 1.681217254867131e+00	 8.466285306676240e-01	-1.422940281562683e-01
 1.673092380572644e+00	 8.625736674957397e-01	-4.833768770937459e-01
 1.664803883388218e+00	 8.784643401719195e-01	-6.446123393588543e-01
 1.656352199292954e+00	 8.942980919892130e-01	-6.327477194363054e-01
 1.647737812383569e+00	 9.100724679326290e-01	-4.557865571568285e-01
 1.638961254991470e+00	 9.257850158359557e-01	-1.230089535990203e-01
 1.630023107767036e+00	 9.414332875463270e-01	 3.550078874967998e-01
 1.620923999730693e+00	 9.570148400954669e-01	 9.663690193887347e-01
 1.611664608290443e+00	 9.725272368765220e-01	 1.697841142906104e+00
 1.704928727221485e+00	 8.184028321963254e-01	 1.403933272934228e+00
 1.697095670969706e+00	 8.345247405858770e-01	 7.060385839988041e-01
 1.689097493242846e+00	 8.505968664779323e-01	 1.664814457820298e-01
 1.680934535859641e+00	 8.666167417010110e-01	-2.151705434310616e-01
 1.672607188649691e+00	 8.825818974865597e-01	-4.404114824769614e-01
 1.664115889635622e+00	 8.984898656125029e-01	-5.118213734940718e-01
 1.655461125183213e+00	 9.143381795566544e-01	-4.330910665180608e-01
 1.646643430119026e+00	 9.301243756589617e-01	-2.090478473245717e-01
 1.637663387815065e+00	 9.458459942915269e-01	 1.543184416531607e-01
 1.628521630240110e+00	 9.615005810353460e-01	 6.498288722266673e-01
 1.619218837977321e+00	 9.770856878626532e-01	 1.269088632387501e+00
 1.712882823913839e+00	 8.222209714281085e-01	 1.686400441633973e+00
 1.705013223679053e+00	 8.384180942335565e-01	 1.015612136115478e+00
 1.696977731618971e+00	 8.545652022884529e-01	 4.754329329854721e-01
 1.688776691147035e+00	 8.706598159064300e-01	 6.808515852079811e-02
 1.680410493911535e+00	 8.866994548012653e-01	-2.050784520851800e-01
 1.671879579978630e+00	 9.026816392357642e-01	-3.436016027984232e-01
 1.663184437983164e+00	 9.186038911805489e-01	-3.479523879732232e-01
 1.654325605246851e+00	 9.344637354817299e-01	-2.195522489380707e-01
 1.645303667863333e+00	 9.502587010363841e-01	 3.919417798619532e-02
 1.636119260749749e+00	 9.659863219747828e-01	 4.248684518049928e-01
 1.626773067664415e+00	 9.816441388482542e-01	 9.330071007101978e-01
 1.720836920606459e+00	 8.260391106600911e-01	 1.950059897812757e+00
 1.712930776388675e+00	 8.423114478814255e-01	 1.312673991377581e+00
 1.704857969995367e+00	 8.585335380991310e-01	 7.822944287940583e-01
 1.696618846434682e+00	 8.747028901119597e-01	 3.626076347680155e-01
 1.688213799173609e+00	 8.908170121160215e-01	 5.665941472567676e-02
 1.679643270321835e+00	 9.068734128590045e-01	-1.331725866721565e-01
 1.670907750783279e+00	 9.228696028043454e-01	-2.052079285764647e-01
 1.662007780374811e+00	 9.388030953043197e-01	-1.584938216174739e-01
 1.652943947911714e+00	 9.546714077809840e-01	 7.163134031823837e-03
 1.643716891259486e+00	 9.704720629138887e-01	 2.911640514312066e-01
 1.634327297351610e+00	 9.862025898334583e-01	 6.920838483245003e-01
 1.728791017299227e+00	 8.298572498922063e-01	 2.197305444006623e+00
 1.720848329098446e+00	 8.462048015294210e-01	 1.597055305275857e+00
 1.712738208371899e+00	 8.625018739099153e-01	 1.084863241220160e+00
 1.704461001722444e+00	 8.787459643175632e-01	 6.647055301526190e-01
 1.696017104435768e+00	 8.949345694308106e-01	 3.401833652745148e-01
 1.687406960665095e+00	 9.110651864822303e-01	 1.144965527043172e-01
 1.678631063583420e+00	 9.271353144280755e-01	-9.584723997331818e-03
 1.669689955502773e+00	 9.431424551267908e-01	-2.974998018314551e-02
 1.660584227960080e+00	 9.590841145254129e-01	 5.581976374435149e-02
 1.651314521769201e+00	 9.749578038527736e-01	 2.484185757291318e-01
 1.641881527038787e+00	 9.907610408183972e-01	 5.487807521285120e-01
 1.736745113992029e+00	 8.336753891243879e-01	 2.430508357944862e+00
 1.728765881808237e+00	 8.500981551774791e-01	 1.868611761564510e+00
 1.720618446748428e+00	 8.664702097207524e-01	 1.380998509644226e+00
 1.712303157010177e+00	 8.827890385232040e-01	 9.707765764439217e-01
 1.703820409697871e+00	 8.990521267456166e-01	 6.409806501609657e-01
 1.695170651008271e+00	 9.152569601054497e-01	 3.945489881060041e-01
 1.686354376383450e+00	 9.314010260517734e-01	 2.342978730286424e-01
 1.677372130630603e+00	 9.474818149492026e-01	 1.628937554629012e-01
 1.668224508008301e+00	 9.634968212697557e-01	 1.828231866619487e-01
 1.658912152278770e+00	 9.794435447915477e-01	 2.963606661575113e-01
 1.649435756725832e+00	 9.953194918032041e-01	 5.055345470694682e-01
 1.744699210684749e+00	 8.374935283565698e-01	 2.652017921862283e+00
 1.736683434517918e+00	 8.539915088255371e-01	 2.127222999537169e+00
 1.728498685124819e+00	 8.704385455315894e-01	 1.668619751237361e+00
 1.720145312297740e+00	 8.868321127288447e-01	 1.277305485953235e+00
 1.711623714959772e+00	 9.031696840604224e-01	 9.546419988470953e-01
 1.702934341351219e+00	 9.194487337286685e-01	 7.022374861822411e-01
 1.694077689183231e+00	 9.356667376754709e-01	 5.219255627785800e-01
 1.685054305758168e+00	 9.518211747716140e-01	 4.157414556988739e-01
 1.675864788056249e+00	 9.679095280140982e-01	 3.858954688247486e-01
 1.666509782788071e+00	 9.839292857303222e-01	 4.347438337435289e-01
 1.656989986412625e+00	 9.998779427880106e-01	 5.647570827725295e-01
 1.752653307377271e+00	 8.413116675886849e-01	 2.864161925736708e+00
 1.744600987227362e+00	 8.578848624735322e-01	 2.372792044703298e+00
 1.736378923500933e+00	 8.744068813423735e-01	 1.945705434230967e+00
 1.727987467584991e+00	 8.908751869344482e-01	 1.580861889225344e+00
 1.719427020221330e+00	 9.072872413752120e-01	 1.276859150148817e+00
 1.710698031693797e+00	 9.236405073518947e-01	 1.032921765540813e+00
 1.701801001982623e+00	 9.399324492992017e-01	 8.488865252889010e-01
 1.692736480885333e+00	 9.561605345940853e-01	 7.251845237954875e-01
 1.683505068103797e+00	 9.723222347585270e-01	 6.628199344366300e-01
 1.674107413296981e+00	 9.884150266692067e-01	 6.633455988028962e-01
 1.664544216099050e+00	 1.004436393772950e+00	 7.288355559891855e-01
 1.760607404069479e+00	 8.451298068206674e-01	 3.069247145276451e+00
 1.752518539936439e+00	 8.617782161214010e-01	 2.605244742757491e+00
 1.744259161876635e+00	 8.783752171530522e-01	 2.210291577183738e+00
 1.735829622871788e+00	 8.949182611399782e-01	 1.878098315413283e+00
 1.727230325482402e+00	 9.114047986899676e-01	 1.603422435899552e+00
 1.718461722035865e+00	 9.278322809751353e-01	 1.382065912125664e+00
 1.709524314781487e+00	 9.441981609229977e-01	 1.210868901978994e+00
 1.700418656011965e+00	 9.604998944166752e-01	 1.087699484284871e+00
 1.691145348150817e+00	 9.767349415031269e-01	 1.011439507298581e+00
 1.681705043805379e+00	 9.929007676083125e-01	 9.819666374243665e-01
 1.672098445784992e+00	 1.008994844758154e+00	 1.000132719630154e+00
 1.768561500761259e+00	 8.489479460524503e-01	 3.269559795453036e+00
 1.760436092645022e+00	 8.656715697690809e-01	 2.824529196738722e+00
 1.752139400251785e+00	 8.823435529635717e-01	 2.460470373427738e+00
 1.743671778157990e+00	 8.989613353453968e-01	 2.165748213991903e+00
 1.735033630742844e+00	 9.155223560046739e-01	 1.930218416112773e+00
 1.726225412377278e+00	 9.320240545983967e-01	 1.745235850083866e+00
 1.717247627579685e+00	 9.484638725468920e-01	 1.603658330423258e+00
 1.708100831137931e+00	 9.648392542394437e-01	 1.499845815644226e+00
 1.698785628197180e+00	 9.811476482479842e-01	 1.429655081074739e+00
 1.689302674313143e+00	 9.973865085477501e-01	 1.390429934505302e+00
 1.679652675470333e+00	 1.013553295743755e+00	 1.380987069119082e+00
 1.776515597452493e+00	 8.527660852839679e-01	 3.467365960344697e+00
 1.768353645352981e+00	 8.695649234165084e-01	 3.030615207278894e+00
 1.760019638626250e+00	 8.863118887738806e-01	 2.694388839904438e+00
 1.751513933443456e+00	 9.030044095506682e-01	 2.440624016515043e+00
 1.742836936002513e+00	 9.196399133193138e-01	 2.253227564028711e+00
 1.733989102717897e+00	 9.362158282216865e-01	 2.118096866383425e+00
 1.724970940377082e+00	 9.527295841709179e-01	 2.023135530605935e+00
 1.715783006263097e+00	 9.691786140624498e-01	 1.958263825905837e+00
 1.706425908242760e+00	 9.855603549931850e-01	 1.915423917488572e+00
 1.696900304820150e+00	 1.001872249487630e+00	 1.888579943133141e+00
 1.687206905154955e+00	 1.018111746729887e+00	 1.873713006777703e+00
 1.611664608290443e+00	 9.725272368765220e-01	 1.697841142906104e+00
 1.602245659614925e+00	 9.879680491332032e-01	 2.464224577871595e+00
 1.592667929744381e+00	 1.003334858087005e+00	 3.174171462578995e+00
 1.582932243324602e+00	 1.018625255233427e+00	 3.804632860909162e+00
 1.573039473094003e+00	 1.033836843225697e+00	 4.333130957120795e+00
 1.562990539726966e+00	 1.048967237061314e+00	 4.737767113540444e+00
 1.552786411642341e+00	 1.064014065267221e+00	 4.997228405975441e+00
 1.542428104777079e+00	 1.078974971082447e+00	 5.090792775657214e+00
 1.531916682324971e+00	 1.093847613636997e+00	 4.998332947260522e+00
 1.521253254440523e+00	 1.108629669125836e+00	 4.700319272152249e+00
 1.510438977908069e+00	 1.123318831976734e+00	 4.182065022263196e+00
 1.619218837977321e+00	 9.770856878626532e-01	 1.269088632387501e+00
 1.609755740599045e+00	 9.925988746330442e-01	 1.943535162653239e+00
 1.600133117783002e+00	 1.008037711230660e+00	 2.593662436249255e+00
 1.590351798040284e+00	 1.023399777861803e+00	 3.194365253082644e+00
 1.580412658200036e+00	 1.038682665942803e+00	 3.721393452307256e+00
 1.570316623252049e+00	 1.053883979292119e+00	 4.151364223125086e+00
 1.560064666154375e+00	 1.069001335321072e+00	 4.461772483348789e+00
 1.549657807605893e+00	 1.084032366222025e+00	 4.630999459656121e+00
 1.539097115783824e+00	 1.098974720152806e+00	 4.638319615187610e+00
 1.528383706046224e+00	 1.113826062416185e+00	 4.464092148647147e+00
 1.517518740599537e+00	 1.128584076633202e+00	 4.097081137726482e+00
 1.626773067664415e+00	 9.816441388482542e-01	 9.330071007101978e-01
 1.617265821583394e+00	 9.972297001322822e-01	 1.512020316250124e+00
 1.607598305821880e+00	 1.012740564373654e+00	 2.096070800758799e+00
 1.597771352756269e+00	 1.028174300489476e+00	 2.659303070445164e+00
 1.587785843306425e+00	 1.043528488659176e+00	 3.176917169645898e+00
 1.577642706777550e+00	 1.058800721522175e+00	 3.625182840716732e+00
 1.567342920666891e+00	 1.073988605374169e+00	 3.981451452260766e+00
 1.556887510435255e+00	 1.089089761360856e+00	 4.224165819558873e+00
 1.546277549243292e+00	 1.104101826667885e+00	 4.332868063611270e+00
 1.535514157652602e+00	 1.119022455705831e+00	 4.289694989167787e+00
 1.524598503291736e+00	 1.133849321289002e+00	 4.085156387718801e+00
 1.634327297351610e+00	 9.862025898334583e-01	 6.920838483245005e-01
 1.624775902567862e+00	 1.001860525631068e+00	 1.174764602812700e+00
 1.615063493860911e+00	 1.017443417516154e+00	 1.687966072204887e+00
 1.605190907472450e+00	 1.032948823116622e+00	 2.206369823423843e+00
 1.595159028413066e+00	 1.048374311375000e+00	 2.705830796445016e+00
 1.584968790303364e+00	 1.063717463751668e+00	 3.163390957357715e+00
 1.574621175179788e+00	 1.078975875426700e+00	 3.557290500137117e+00
 1.564117213265066e+00	 1.094147156499127e+00	 3.866976735708934e+00
 1.553457982703275e+00	 1.109228933182416e+00	 4.073110820099322e+00
 1.542644609259557e+00	 1.124218848994950e+00	 4.161424658668267e+00
 1.531678265984568e+00	 1.139114565944303e+00	 4.122401850156506e+00
 1.641881527038787e+00	 9.907610408183972e-01	 5.487807521285120e-01
 1.632285983552334e+00	 1.006491351129553e+00	 9.367790340597573e-01
 1.622528681899983e+00	 1.022146270658324e+00	 1.375816533558057e+00
 1.612610462188723e+00	 1.037723345743415e+00	 1.842380905232037e+00
 1.602532213519856e+00	 1.053220134090457e+00	 2.314169149427309e+00
 1.592294873829391e+00	 1.068634205980787e+00	 2.770098390279643e+00
 1.581899429692964e+00	 1.083963145478854e+00	 3.190314091921881e+00
 1.571346916095225e+00	 1.099204551637025e+00	 3.556195860900326e+00
 1.560638416163673e+00	 1.114356039696582e+00	 3.850567613203392e+00
 1.549775060866989e+00	 1.129415242283717e+00	 4.063726313735265e+00
 1.538758028677931e+00	 1.144379810599269e+00	 4.185386934527320e+00
 1.649435756725832e+00	 9.953194918032041e-01	 5.055345470694682e-01
 1.639796064536700e+00	 1.011122176627887e+00	 8.030024173026807e-01
 1.629993869938989e+00	 1.026849123800328e+00	 1.165991180754038e+00
 1.620030016904980e+00	 1.042497868370034e+00	 1.574045659808255e+00
 1.609905398626689e+00	 1.058065956805731e+00	 2.007874880760873e+00
 1.599620957355527e+00	 1.073550948209718e+00	 2.449357636073726e+00
 1.589177684206319e+00	 1.088950415530820e+00	 2.881545472582219e+00
 1.578576618925632e+00	 1.104261946774735e+00	 3.288663267912351e+00
 1.567818849624387e+00	 1.119483146210567e+00	 3.657391049755477e+00
 1.556905512474797e+00	 1.134611635572308e+00	 3.981348408872945e+00
 1.545837791371726e+00	 1.149645055254069e+00	 4.251128312346244e+00
 1.656989986412625e+00	 9.998779427880106e-01	 5.647570827725282e-01
 1.647306145520848e+00	 1.015753002126221e+00	 7.783026487626215e-01
 1.637459057977820e+00	 1.031551976942333e+00	 1.064761597157559e+00
 1.627449571621117e+00	 1.047272390996652e+00	 1.407969374236776e+00
 1.617278583733465e+00	 1.062911779521005e+00	 1.792800117918252e+00
 1.606947040881672e+00	 1.078467690438650e+00	 2.205164680471147e+00
 1.596455938719752e+00	 1.093937685582786e+00	 2.632006162628734e+00
 1.585806321756186e+00	 1.109319341912445e+00	 3.061293140267431e+00
 1.574999283085314e+00	 1.124610252724550e+00	 3.485117953205242e+00
 1.564035964082883e+00	 1.139808028860900e+00	 3.899335211501128e+00
 1.552917554065853e+00	 1.154910299908869e+00	 4.297079125902004e+00
 1.664544216099050e+00	 1.004436393772950e+00	 7.288355559891846e-01
 1.654816226504664e+00	 1.020383827624706e+00	 8.674779539175803e-01
 1.644924246016367e+00	 1.036254830084502e+00	 1.078303758673209e+00
 1.634869126337027e+00	 1.052046913623446e+00	 1.350655198048084e+00
 1.624651768840077e+00	 1.067757602236462e+00	 1.674708039465582e+00
 1.614273124407722e+00	 1.083384432667768e+00	 2.041459766111470e+00
 1.603734193233162e+00	 1.098924955634940e+00	 2.442715446872713e+00
 1.593036024586787e+00	 1.114376737050343e+00	 2.871228048767542e+00
 1.582179716546356e+00	 1.129737359238717e+00	 3.325384114570408e+00
 1.571166415691146e+00	 1.145004422149667e+00	 3.803019496754237e+00
 1.559997316760212e+00	 1.160175544563835e+00	 4.301118466453299e+00
 1.672098445784992e+00	 1.008994844758154e+00	 1.000132719630155e+00
 1.662326307488035e+00	 1.025014653123492e+00	 1.075258076554286e+00
 1.652389434054523e+00	 1.040957683227002e+00	 1.212699771696037e+00
 1.642288681052605e+00	 1.056821436250591e+00	 1.408505991711320e+00
 1.632024953946423e+00	 1.072603424952286e+00	 1.659274388806860e+00
 1.621599207933577e+00	 1.088301174897262e+00	 1.962128119626511e+00
 1.611012447746446e+00	 1.103912225687471e+00	 2.314689856632770e+00
 1.600265727417335e+00	 1.119434132188614e+00	 2.715988170413875e+00
 1.589360150007411e+00	 1.134864465753248e+00	 3.169993209996182e+00
 1.578296867299485e+00	 1.150200815438786e+00	 3.678015416395134e+00
 1.567077079454702e+00	 1.165440789219135e+00	 4.241541113353779e+00
 1.679652675470333e+00	 1.013553295743755e+00	 1.380987069119082e+00
 1.669836388470852e+00	 1.029645478622731e+00	 1.406305418139230e+00
 1.659854622092178e+00	 1.045660536369997e+00	 1.473939546015663e+00
 1.649708235767744e+00	 1.061595958878264e+00	 1.587826106547177e+00
 1.639398139052400e+00	 1.077449247668659e+00	 1.752088927836216e+00
 1.628925291459133e+00	 1.093217917127318e+00	 1.971000639320132e+00
 1.618290702259505e+00	 1.108899495740568e+00	 2.248942645596935e+00
 1.607495430247728e+00	 1.124491527327446e+00	 2.592571704248845e+00
 1.596540583468382e+00	 1.139991572268327e+00	 3.010912417036655e+00
 1.585427318907801e+00	 1.155397208728432e+00	 3.510211536361998e+00
 1.574156842149224e+00	 1.170706033874936e+00	 4.097047525890874e+00
 1.687206905154955e+00	 1.018111746729887e+00	 1.873713006777704e+00
 1.677346469453000e+00	 1.034276304122572e+00	 1.865216129065388e+00
 1.667319810129224e+00	 1.050363389513653e+00	 1.867922404712155e+00
 1.657127790482340e+00	 1.066370481506641e+00	 1.894823098210018e+00
 1.646771324157903e+00	 1.082295070385765e+00	 1.958656832380749e+00
 1.636251374984289e+00	 1.098134659358124e+00	 2.071854544678180e+00
 1.625568956772238e+00	 1.113886765794420e+00	 2.246563153819030e+00
 1.614725133077868e+00	 1.129548922467025e+00	 2.497996908372803e+00
 1.603721016929166e+00	 1.145118678784137e+00	 2.840268125399135e+00
 1.592557770515995e+00	 1.160593602018781e+00	 3.285764037663216e+00
 1.581236604843679e+00	 1.175971278531404e+00	 3.846734079918356e+00
 1.510438977908069e+00	 1.123318831976734e+00	 4.182065022263195e+00
 1.499473180174970e+00	 1.137915287531046e+00	 3.562237402189833e+00
 1.488358941701999e+00	 1.152414256790601e+00	 2.981740378998517e+00
 1.477097563724953e+00	 1.166813486306054e+00	 2.467333162616646e+00
 1.465690392502321e+00	 1.181110745424474e+00	 2.047975022353334e+00
 1.454138818810631e+00	 1.195303827413987e+00	 1.744714424338287e+00
 1.442444277406394e+00	 1.209390550575254e+00	 1.575970238224812e+00
 1.430608246455096e+00	 1.223368759338615e+00	 1.559156653416738e+00
 1.418632246927650e+00	 1.237236325345754e+00	 1.710674019734522e+00
 1.406517841964842e+00	 1.250991148514776e+00	 2.045899845341186e+00
 1.394266636210279e+00	 1.264631158087561e+00	 2.579179851554724e+00
 1.517518740599537e+00	 1.128584076633202e+00	 4.097081137726482e+00
 1.506501543738727e+00	 1.143248949013946e+00	 3.636912100113553e+00
 1.495335210363370e+00	 1.157815878160022e+00	 3.206262128664693e+00
 1.484021047808442e+00	 1.172282600059670e+00	 2.827379445541158e+00
 1.472560408642650e+00	 1.186646873604397e+00	 2.522255518618965e+00
 1.460954690161394e+00	 1.200906481718889e+00	 2.310251998432977e+00
 1.449205333846210e+00	 1.215059232477700e+00	 2.203374608018096e+00
 1.437313824791073e+00	 1.229102960207538e+00	 2.211646405064923e+00
 1.425281691096022e+00	 1.243035526574004e+00	 2.343269514151792e+00
 1.413110503228631e+00	 1.256854821651652e+00	 2.604625015283455e+00
 1.400801873353830e+00	 1.270558764976264e+00	 3.000274004331363e+00
 1.524598503291736e+00	 1.133849321289002e+00	 4.085156387718801e+00
 1.513529907303260e+00	 1.148582610496222e+00	 3.795169733918087e+00
 1.502311479025553e+00	 1.163217499528870e+00	 3.518139882940614e+00
 1.490944531892771e+00	 1.177751713812772e+00	 3.272389965219360e+00
 1.479430424783833e+00	 1.192183001783869e+00	 3.073912211360115e+00
 1.467770561513018e+00	 1.206509136023409e+00	 2.937820329503403e+00
 1.455966390286883e+00	 1.220727914379837e+00	 2.872028514768674e+00
 1.444019403127893e+00	 1.234837161076229e+00	 2.879934406911939e+00
 1.431931135265215e+00	 1.248834727802100e+00	 2.962487442808204e+00
 1.419703164493211e+00	 1.262718494788459e+00	 3.118197072230275e+00
 1.407337110498131e+00	 1.276486371864982e+00	 3.343143005165049e+00
 1.531678265984568e+00	 1.139114565944303e+00	 4.122401850156506e+00
 1.520558270868471e+00	 1.153916271978030e+00	 4.005594184877575e+00
 1.509287747688447e+00	 1.168619120897289e+00	 3.880672022535585e+00
 1.497868015977838e+00	 1.183220827565488e+00	 3.762083300011498e+00
 1.486300440925771e+00	 1.197719129963005e+00	 3.661399381502244e+00
 1.474586432865403e+00	 1.212111790327644e+00	 3.587629740109142e+00
 1.462727446728315e+00	 1.226396596281746e+00	 3.545799416758330e+00
 1.450724981465461e+00	 1.240571361944754e+00	 3.533761772410352e+00
 1.438580579435138e+00	 1.254633929030095e+00	 3.546149075480469e+00
 1.426295825758493e+00	 1.268582167925229e+00	 3.574712244406193e+00
 1.413872347643098e+00	 1.282413978753733e+00	 3.608339469202505e+00
 1.538758028677931e+00	 1.144379810599269e+00	 4.185386934527320e+00
 1.527586634434259e+00	 1.159249933459527e+00	 4.237365927570193e+00
 1.516264016351956e+00	 1.174020742265423e+00	 4.257850556678808e+00
 1.504791500063544e+00	 1.188689941317948e+00	 4.257462131928187e+00
 1.493170457068364e+00	 1.203255258141917e+00	 4.243644699441607e+00
 1.481402304218453e+00	 1.217714444631694e+00	 4.220629978786261e+00
 1.469488503170413e+00	 1.232065278183510e+00	 4.189227854411074e+00
 1.457430559803687e+00	 1.246305562813177e+00	 4.143435482921637e+00
 1.445230023605701e+00	 1.260433130258036e+00	 4.072493645325778e+00
 1.432888487024391e+00	 1.274445841061997e+00	 3.962496339993568e+00
 1.420407584788649e+00	 1.288341585642535e+00	 3.796416971834166e+00
 1.545837791371726e+00	 1.149645055254069e+00	 4.251128312346244e+00
 1.534614998000523e+00	 1.164583594940868e+00	 4.460247771158492e+00
 1.523240285015977e+00	 1.179422363633412e+00	 4.614344620627494e+00
 1.511714984149790e+00	 1.194159055070281e+00	 4.720260807351442e+00
 1.500040473211515e+00	 1.208791386320720e+00	 4.781534601193068e+00
 1.488218175572069e+00	 1.223317098935656e+00	 4.798369929863197e+00
 1.476249559613076e+00	 1.237733960085210e+00	 4.767513373436467e+00
 1.464136138142472e+00	 1.252039763681564e+00	 4.679816789155612e+00
 1.451879467776811e+00	 1.266232331485970e+00	 4.520170158244261e+00
 1.439481148290814e+00	 1.280309514198792e+00	 4.270100889142487e+00
 1.426942821934699e+00	 1.294269192531402e+00	 3.907931442463941e+00
 1.552917554065853e+00	 1.154910299908869e+00	 4.297079125902004e+00
 1.541643361567165e+00	 1.169917256422209e+00	 4.644570965832253e+00
 1.530216553680411e+00	 1.184823985001404e+00	 4.915484399366181e+00
 1.518638468236475e+00	 1.199628168822615e+00	 5.112927996990387e+00
 1.506910489355124e+00	 1.214327514499528e+00	 5.236752912685111e+00
 1.495034046926153e+00	 1.228919753239628e+00	 5.283527040053524e+00
 1.483010616056212e+00	 1.243402641986929e+00	 5.246514456110016e+00
 1.470841716481725e+00	 1.257773964549979e+00	 5.114309957516619e+00
 1.458528911948376e+00	 1.272031532713947e+00	 4.868229454146801e+00
 1.446073809557678e+00	 1.286173187335648e+00	 4.486299419566651e+00
 1.433478059081167e+00	 1.300196799420353e+00	 3.943442548381740e+00
 1.559997316760212e+00	 1.160175544563835e+00	 4.301118466453299e+00
 1.548671725134085e+00	 1.175250917903706e+00	 4.761221662813074e+00
 1.537192822345158e+00	 1.190225606369539e+00	 5.127245463958189e+00
 1.525561952323501e+00	 1.205097282575082e+00	 5.398609802573107e+00
 1.513780505499092e+00	 1.219863642678457e+00	 5.571694551535520e+00
 1.501849918280609e+00	 1.234522407543708e+00	 5.639818885760284e+00
 1.489771672499723e+00	 1.249071323888746e+00	 5.593225679131764e+00
 1.477547294821350e+00	 1.263508165418487e+00	 5.418851350395219e+00
 1.465178356120306e+00	 1.277830733942015e+00	 5.096116512121070e+00
 1.452666470824892e+00	 1.292036860472597e+00	 4.600083861477579e+00
 1.440013296227967e+00	 1.306124406309403e+00	 3.903515069049146e+00
 1.567077079454702e+00	 1.165440789219135e+00	 4.241541113353779e+00
 1.555700088701180e+00	 1.180584579385515e+00	 4.781627716739985e+00
 1.544169091010119e+00	 1.195627227737962e+00	 5.216233507499086e+00
 1.532485436410767e+00	 1.210566396327809e+00	 5.541133296146667e+00
 1.520650521643320e+00	 1.225399770857619e+00	 5.749448738290033e+00
 1.508665789635336e+00	 1.240125061847996e+00	 5.831633282730613e+00
 1.496532728943512e+00	 1.254740005790745e+00	 5.775461662845462e+00
 1.484252873161254e+00	 1.269242366287154e+00	 5.566024076741362e+00
 1.471827800292510e+00	 1.283629935170223e+00	 5.183662991778628e+00
 1.459259132092370e+00	 1.297900533609671e+00	 4.600661077762160e+00
 1.446548533375018e+00	 1.312052013198571e+00	 3.788720261096813e+00
 1.574156842149224e+00	 1.170706033874936e+00	 4.097047525890874e+00
 1.562728452268355e+00	 1.185918240867792e+00	 4.677745819656772e+00
 1.551145359675193e+00	 1.201028849106815e+00	 5.149669468092181e+00
 1.539408920498175e+00	 1.216035510080927e+00	 5.504990478366161e+00
 1.527520537787710e+00	 1.230935899037128e+00	 5.733782635196810e+00
 1.515481660990239e+00	 1.245727716152589e+00	 5.824012412176689e+00
 1.503293785387483e+00	 1.260408687693009e+00	 5.761533696953486e+00
 1.490958451501341e+00	 1.274976567156046e+00	 5.530086467375315e+00
 1.478477244464895e+00	 1.289429136398619e+00	 5.111080003342836e+00
 1.465851793360023e+00	 1.303764206746903e+00	 4.477449515456630e+00
 1.453083770522235e+00	 1.317979620087872e+00	 3.599637214321716e+00
 1.581236604843679e+00	 1.175971278531404e+00	 3.846734079918356e+00
 1.569756815835507e+00	 1.191251902350693e+00	 4.422048956208398e+00
 1.558121628340282e+00	 1.206430470476242e+00	 4.895375026716071e+00
 1.546332404585625e+00	 1.221504623834564e+00	 5.255322642641080e+00
 1.534390553932164e+00	 1.236472027217100e+00	 5.489125399117222e+00
 1.522297532345219e+00	 1.251330370457584e+00	 5.582637383190750e+00
 1.510054841831539e+00	 1.266077369595616e+00	 5.520333270211618e+00
 1.497664029841520e+00	 1.280710768025226e+00	 5.285311396097337e+00
 1.485126688637370e+00	 1.295228337627252e+00	 4.859299921343755e+00
 1.472444454627765e+00	 1.309627879884325e+00	 4.220075974710154e+00
 1.459619007669536e+00	 1.323907226977324e+00	 3.336854198961629e+00
 1.394266636210279e+00	 1.264631158087561e+00	 2.579179851554724e+00
 1.381882388279096e+00	 1.278152028692061e+00	 3.157467636991992e+00
 1.369364693565589e+00	 1.291554099037546e+00	 3.612872778508835e+00
 1.356715253971548e+00	 1.304835415480692e+00	 3.937294289994421e+00
 1.343935809905084e+00	 1.317994057669907e+00	 4.123881804240078e+00
 1.331028139477010e+00	 1.331028139477010e+00	 4.167057113750138e+00
 1.317994057669907e+00	 1.343935809905085e+00	 4.062532130924585e+00
 1.304835415480692e+00	 1.356715253971548e+00	 3.807323184997404e+00
 1.291554099037545e+00	 1.369364693565589e+00	 3.399761591322818e+00
 1.278152028692060e+00	 1.381882388279097e+00	 2.839500447175562e+00
 1.264631158087562e+00	 1.394266636210279e+00	 2.127517627052047e+00
 1.400801873353830e+00	 1.270558764976264e+00	 3.000274004331364e+00
 1.388359577704215e+00	 1.284143010901814e+00	 3.387999585205859e+00
 1.375783209777603e+00	 1.297607899725179e+00	 3.622314526735711e+00
 1.363074479452979e+00	 1.310951468645877e+00	 3.702832323566190e+00
 1.350235135296129e+00	 1.324171788311199e+00	 3.631254891991357e+00
 1.337266963752267e+00	 1.337266963752267e+00	 3.411382021070834e+00
 1.324171788311199e+00	 1.350235135296129e+00	 3.049115978974640e+00
 1.310951468645877e+00	 1.363074479452979e+00	 2.552461212375305e+00
 1.297607899725179e+00	 1.375783209777604e+00	 1.931519097782181e+00
 1.284143010901814e+00	 1.388359577704215e+00	 1.198477725106364e+00
 1.270558764976264e+00	 1.400801873353830e+00	 3.675967153214605e-01
 1.407337110498131e+00	 1.276486371864982e+00	 3.343143005165050e+00
 1.394836767130033e+00	 1.290133993111668e+00	 3.515767226303223e+00
 1.382201725990261e+00	 1.303661700412999e+00	 3.521044944855289e+00
 1.369433704934989e+00	 1.317067521811333e+00	 3.364970683390742e+00
 1.356534460687683e+00	 1.330349518952845e+00	 3.056291181022350e+00
 1.343505788027957e+00	 1.343505788027958e+00	 2.606504893491871e+00
 1.330349518952846e+00	 1.356534460687683e+00	 2.029855628555589e+00
 1.317067521811333e+00	 1.369433704934989e+00	 1.343320271004895e+00
 1.303661700412999e+00	 1.382201725990261e+00	 5.665905751241038e-01
 1.290133993111668e+00	 1.394836767130033e+00	-2.779509738672520e-01
 1.276486371864982e+00	 1.407337110498131e+00	-1.165261203960567e+00
 1.413872347643098e+00	 1.282413978753733e+00	 3.608339469202506e+00
 1.401313956556475e+00	 1.296124975321627e+00	 3.553770450821387e+00
 1.388620242203491e+00	 1.309715501100996e+00	 3.332339805925479e+00
 1.375792930417513e+00	 1.323183574977036e+00	 2.955111741453927e+00
 1.362833786079690e+00	 1.336527249594811e+00	 2.436394124584837e+00
 1.349744612304036e+00	 1.349744612304036e+00	 1.793730152865410e+00
 1.336527249594811e+00	 1.362833786079690e+00	 1.047883382098576e+00
 1.323183574977036e+00	 1.375792930417513e+00	 2.228160789450748e-01
 1.309715501100996e+00	 1.388620242203492e+00	-6.543391094162361e-01
 1.296124975321626e+00	 1.401313956556475e+00	-1.553314150594070e+00
 1.282413978753734e+00	 1.413872347643098e+00	-2.440747243548965e+00
 1.420407584788649e+00	 1.288341585642535e+00	 3.796416971834166e+00
 1.407791145983461e+00	 1.302115957531690e+00	 3.514781564665744e+00
 1.395038758417221e+00	 1.315769301789156e+00	 3.079058620006216e+00
 1.382152155900488e+00	 1.329299628142963e+00	 2.504092385698843e+00
 1.369133111472095e+00	 1.342704980237059e+00	 1.808291488919899e+00
 1.355983436580455e+00	 1.355983436580455e+00	 1.013614880172352e+00
 1.342704980237059e+00	 1.369133111472094e+00	 1.455505980805136e-01
 1.329299628142963e+00	 1.382152155900489e+00	-7.669126692993584e-01
 1.315769301789156e+00	 1.395038758417222e+00	-1.691321224107108e+00
 1.302115957531690e+00	 1.407791145983461e+00	-2.591799169639559e+00
 1.288341585642535e+00	 1.420407584788649e+00	-3.429098335902688e+00
 1.426942821934699e+00	 1.294269192531402e+00	 3.907931442463941e+00
 1.414268335410914e+00	 1.308106939741863e+00	 3.411351930598093e+00
 1.401457274631381e+00	 1.321823102477469e+00	 2.783655608077788e+00
 1.388511381383852e+00	 1.335415681309091e+00	 2.042198420419578e+00
 1.375432436864842e+00	 1.348882710879555e+00	 1.208052284200169e+00
 1.362222260857169e+00	 1.362222260857169e+00	 3.059873918020957e-01
 1.348882710879555e+00	 1.375432436864842e+00	-6.355529611743789e-01
 1.335415681309090e+00	 1.388511381383852e+00	-1.584485045204895e+00
 1.321823102477469e+00	 1.401457274631381e+00	-2.505124854401267e+00
 1.308106939741863e+00	 1.414268335410915e+00	-3.358235715870034e+00
 1.294269192531402e+00	 1.426942821934699e+00	-4.101083286305971e+00
 1.433478059081167e+00	 1.300196799420353e+00	 3.943442548381738e+00
 1.420745524838758e+00	 1.314097921952147e+00	 3.255818456431697e+00
 1.407875790845899e+00	 1.327876903165925e+00	 2.468190404283493e+00
 1.394870606867539e+00	 1.341531734475394e+00	 1.599178601353717e+00
 1.381731762257876e+00	 1.355060441522263e+00	 6.711032610287289e-01
 1.368461085134135e+00	 1.368461085134135e+00	-2.900346635630355e-01
 1.355060441522264e+00	 1.381731762257876e+00	-1.254580282162696e+00
 1.341531734475394e+00	 1.394870606867540e+00	-2.189259126652662e+00
 1.327876903165925e+00	 1.407875790845899e+00	-3.057219056939538e+00
 1.314097921952146e+00	 1.420745524838758e+00	-3.818079674851987e+00
 1.300196799420352e+00	 1.433478059081167e+00	-4.427989178847140e+00
 1.440013296227967e+00	 1.306124406309403e+00	 3.903515069049149e+00
 1.427222714266913e+00	 1.320088904162543e+00	 3.060309934798811e+00
 1.414294307060703e+00	 1.333930703854511e+00	 2.154338495122414e+00
 1.401229832351486e+00	 1.347647787641850e+00	 1.204258317074416e+00
 1.388031087651143e+00	 1.361238172165149e+00	 2.322449862922094e-01
 1.374699909411304e+00	 1.374699909411304e+00	-7.360266722335369e-01
 1.361238172165149e+00	 1.388031087651143e+00	-1.671408737444637e+00
 1.347647787641850e+00	 1.401229832351486e+00	-2.541313720531484e+00
 1.333930703854511e+00	 1.414294307060703e+00	-3.309755470876565e+00
 1.320088904162542e+00	 1.427222714266913e+00	-3.937397423606660e+00
 1.306124406309403e+00	 1.440013296227967e+00	-4.381608124049240e+00
 1.446548533375018e+00	 1.312052013198571e+00	 3.788720261096812e+00
 1.433699903695301e+00	 1.326079886373054e+00	 2.836753239180260e+00
 1.420712823275722e+00	 1.339984504543216e+00	 1.863401403907245e+00
 1.407589057835629e+00	 1.353763840808436e+00	 8.861529278631961e-01
 1.394330413044587e+00	 1.367415902808178e+00	-7.433248833390893e-02
 1.380938733688632e+00	 1.380938733688631e+00	-9.942398722939889e-01
 1.367415902808178e+00	 1.394330413044587e+00	-1.846622192141970e+00
 1.353763840808435e+00	 1.407589057835629e+00	-2.601430552276549e+00
 1.339984504543216e+00	 1.420712823275722e+00	-3.225551372070321e+00
 1.326079886373053e+00	 1.433699903695301e+00	-3.682850518748230e+00
 1.312052013198571e+00	 1.446548533375018e+00	-3.934224337352325e+00
 1.453083770522235e+00	 1.317979620087872e+00	 3.599637214321715e+00
 1.440177093123845e+00	 1.332070868583682e+00	 2.596879380717461e+00
 1.427131339490886e+00	 1.346038305232031e+00	 1.616316628501771e+00
 1.413948283319904e+00	 1.359879893975125e+00	 6.730807728421924e-01
 1.400629738438151e+00	 1.373593633451312e+00	-2.150343524080742e-01
 1.387177557966071e+00	 1.387177557966071e+00	-1.027584605732960e+00
 1.373593633451312e+00	 1.400629738438151e+00	-1.741493564922107e+00
 1.359879893975124e+00	 1.413948283319904e+00	-2.331076907647924e+00
 1.346038305232029e+00	 1.427131339490886e+00	-2.768073156197520e+00
 1.332070868583682e+00	 1.440177093123845e+00	-3.021680769497964e+00
 1.317979620087872e+00	 1.453083770522235e+00	-3.058601538036426e+00
 1.459619007669536e+00	 1.323907226977324e+00	 3.336854198961630e+00
 1.446654282552467e+00	 1.338061850794431e+00	 2.352229430165978e+00
 1.433549855706123e+00	 1.352092105920942e+00	 1.433667340066469e+00
 1.420307508804248e+00	 1.365995947141896e+00	 5.927758557584890e-01
 1.406929063831782e+00	 1.379771364094519e+00	-1.568461449127810e-01
 1.393416382243579e+00	 1.393416382243579e+00	-7.996139922821677e-01
 1.379771364094519e+00	 1.406929063831782e+00	-1.317967829228652e+00
 1.365995947141896e+00	 1.420307508804248e+00	-1.692388712579715e+00
 1.352092105920941e+00	 1.433549855706123e+00	-1.901420237356415e+00
 1.338061850794431e+00	 1.446654282552468e+00	-1.921695683517467e+00
 1.323907226977324e+00	 1.459619007669536e+00	-1.727970658545543e+00
 1.264631158087562e+00	 1.394266636210279e+00	 2.127517627052047e+00
 1.250991148514777e+00	 1.406517841964841e+00	 1.382344938620472e+00
 1.237236325345755e+00	 1.418632246927651e+00	 7.245114497144785e-01
 1.223368759338615e+00	 1.430608246455096e+00	 1.584075754672789e-01
 1.209390550575255e+00	 1.442444277406394e+00	-3.118174581038073e-01
 1.195303827413988e+00	 1.454138818810630e+00	-6.822661424179949e-01
 1.181110745424474e+00	 1.465690392502321e+00	-9.493046750825771e-01
 1.166813486306055e+00	 1.477097563724952e+00	-1.109576325951475e+00
 1.152414256790601e+00	 1.488358941701999e+00	-1.163168154531636e+00
 1.137915287531047e+00	 1.499473180174970e+00	-1.120053363689711e+00
 1.123318831976734e+00	 1.510438977908068e+00	-9.797489646822755e-01
 1.270558764976264e+00	 1.400801873353830e+00	 3.675967153214605e-01
 1.256854821651652e+00	 1.413110503228630e+00	-4.436238663204878e-01
 1.243035526574004e+00	 1.425281691096021e+00	-1.126946297692746e+00
 1.229102960207538e+00	 1.437313824791072e+00	-1.681273001889855e+00
 1.215059232477701e+00	 1.449205333846210e+00	-2.105995117700581e+00
 1.200906481718890e+00	 1.460954690161393e+00	-2.400996856009238e+00
 1.186646873604398e+00	 1.472560408642650e+00	-2.566661067861812e+00
 1.172282600059671e+00	 1.484021047808442e+00	-2.604287469856323e+00
 1.157815878160022e+00	 1.495335210363369e+00	-2.526690245887223e+00
 1.143248949013947e+00	 1.506501543738727e+00	-2.341541576175663e+00
 1.128584076633202e+00	 1.517518740599537e+00	-2.052068296562599e+00
 1.276486371864982e+00	 1.407337110498131e+00	-1.165261203960568e+00
 1.262718494788460e+00	 1.419703164493210e+00	-1.986382188548924e+00
 1.248834727802101e+00	 1.431931135265215e+00	-2.650794895153348e+00
 1.234837161076230e+00	 1.444019403127892e+00	-3.160115386007717e+00
 1.220727914379838e+00	 1.455966390286883e+00	-3.516647243666359e+00
 1.206509136023409e+00	 1.467770561513017e+00	-3.723380898746175e+00
 1.192183001783870e+00	 1.479430424783833e+00	-3.783993983650464e+00
 1.177751713812773e+00	 1.490944531892771e+00	-3.708504522327511e+00
 1.163217499528870e+00	 1.502311479025552e+00	-3.513248922371857e+00
 1.148582610496223e+00	 1.513529907303260e+00	-3.205096083104992e+00
 1.133849321289002e+00	 1.524598503291737e+00	-2.791343876457024e+00
 1.282413978753734e+00	 1.413872347643098e+00	-2.440747243548965e+00
 1.268582167925230e+00	 1.426295825758493e+00	-3.222438668975875e+00
 1.254633929030096e+00	 1.438580579435138e+00	-3.829748463647761e+00
 1.240571361944754e+00	 1.450724981465461e+00	-4.266437726478580e+00
 1.226396596281747e+00	 1.462727446728315e+00	-4.537105575287312e+00
 1.212111790327645e+00	 1.474586432865403e+00	-4.647184579822381e+00
 1.197719129963005e+00	 1.486300440925770e+00	-4.604334789907595e+00
 1.183220827565489e+00	 1.497868015977837e+00	-4.428157261116119e+00
 1.168619120897289e+00	 1.509287747688448e+00	-4.130285251775807e+00
 1.153916271978031e+00	 1.520558270868470e+00	-3.720390493175429e+00
 1.139114565944302e+00	 1.531678265984568e+00	-3.208965213712626e+00
 1.288341585642535e+00	 1.420407584788649e+00	-3.429098335902687e+00
 1.274445841061997e+00	 1.432888487024390e+00	-4.128722771355443e+00
 1.260433130258036e+00	 1.445230023605700e+00	-4.646828312484475e+00
 1.246305562813177e+00	 1.457430559803686e+00	-4.988762891834982e+00
 1.232065278183511e+00	 1.469488503170412e+00	-5.160815061217884e+00
 1.217714444631694e+00	 1.481402304218452e+00	-5.170206654820952e+00
 1.203255258141917e+00	 1.493170457068364e+00	-5.033182392346419e+00
 1.188689941317948e+00	 1.504791500063543e+00	-4.767806346470099e+00
 1.174020742265423e+00	 1.516264016351956e+00	-4.385071728451020e+00
 1.159249933459528e+00	 1.527586634434258e+00	-3.896888744138538e+00
 1.144379810599269e+00	 1.538758028677931e+00	-3.316080520084652e+00
 1.294269192531402e+00	 1.426942821934699e+00	-4.101083286305970e+00
 1.280309514198793e+00	 1.439481148290814e+00	-4.682573708110748e+00
 1.266232331485971e+00	 1.451879467776810e+00	-5.085354480067942e+00
 1.252039763681564e+00	 1.464136138142472e+00	-5.315812371978882e+00
 1.237733960085210e+00	 1.476249559613076e+00	-5.381329874953888e+00
 1.223317098935656e+00	 1.488218175572068e+00	-5.292827481917671e+00
 1.208791386320720e+00	 1.500040473211514e+00	-5.072056545462751e+00
 1.194159055070281e+00	 1.511714984149789e+00	-4.731897899470111e+00
 1.179422363633414e+00	 1.523240285015977e+00	-4.284716643123859e+00
 1.164583594940869e+00	 1.534614998000523e+00	-3.743850397659982e+00
 1.149645055254069e+00	 1.545837791371726e+00	-3.123602710679778e+00
 1.300196799420352e+00	 1.433478059081167e+00	-4.427989178847140e+00
 1.286173187335648e+00	 1.446073809557677e+00	-4.861729640530216e+00
 1.272031532713948e+00	 1.458528911948376e+00	-5.128937477622209e+00
 1.257773964549979e+00	 1.470841716481724e+00	-5.236500319106598e+00
 1.243402641986929e+00	 1.483010616056212e+00	-5.192433172545924e+00
 1.228919753239628e+00	 1.495034046926153e+00	-5.015382269153614e+00
 1.214327514499529e+00	 1.506910489355123e+00	-4.722164357699461e+00
 1.199628168822616e+00	 1.518638468236475e+00	-4.324766669663664e+00
 1.184823985001405e+00	 1.530216553680411e+00	-3.836168368514788e+00
 1.169917256422210e+00	 1.541643361567165e+00	-3.270335824392091e+00
 1.154910299908869e+00	 1.552917554065853e+00	-2.642215275478321e+00
 1.306124406309403e+00	 1.440013296227967e+00	-4.381608124049240e+00
 1.292036860472598e+00	 1.452666470824892e+00	-4.644317144620468e+00
 1.277830733942016e+00	 1.465178356120306e+00	-4.761470229428873e+00
 1.263508165418488e+00	 1.477547294821350e+00	-4.739927722733472e+00
 1.249071323888747e+00	 1.489771672499722e+00	-4.591092720476905e+00
 1.234522407543709e+00	 1.501849918280608e+00	-4.335439582968482e+00
 1.219863642678458e+00	 1.513780505499092e+00	-3.984661425987785e+00
 1.205097282575082e+00	 1.525561952323500e+00	-3.550639151883786e+00
 1.190225606369540e+00	 1.537192822345158e+00	-3.046219563440436e+00
 1.175250917903707e+00	 1.548671725134084e+00	-2.485211282747483e+00
 1.160175544563835e+00	 1.559997316760212e+00	-1.882378025546622e+00
 1.312052013198571e+00	 1.446548533375018e+00	-3.934224337352326e+00
 1.297900533609672e+00	 1.459259132092369e+00	-4.008840934220264e+00
 1.283629935170224e+00	 1.471827800292509e+00	-3.967120203366654e+00
 1.269242366287155e+00	 1.484252873161254e+00	-3.815751947820763e+00
 1.254740005790747e+00	 1.496532728943512e+00	-3.572342854198761e+00
 1.240125061847997e+00	 1.508665789635337e+00	-3.250582622066776e+00
 1.225399770857620e+00	 1.520650521643320e+00	-2.860653633837323e+00
 1.210566396327810e+00	 1.532485436410767e+00	-2.413636653858379e+00
 1.195627227737962e+00	 1.544169091010119e+00	-1.921511297974224e+00
 1.180584579385516e+00	 1.555700088701180e+00	-1.397153894733988e+00
 1.165440789219135e+00	 1.567077079454702e+00	-8.543327179022666e-01
 1.317979620087872e+00	 1.453083770522235e+00	-3.058601538036426e+00
 1.303764206746904e+00	 1.465851793360023e+00	-2.934173833279811e+00
 1.289429136398620e+00	 1.478477244464894e+00	-2.730321725767702e+00
 1.274976567156046e+00	 1.490958451501341e+00	-2.456599370218417e+00
 1.260408687693009e+00	 1.503293785387482e+00	-2.129813560119018e+00
 1.245727716152589e+00	 1.515481660990238e+00	-1.758409968247221e+00
 1.230935899037129e+00	 1.527520537787710e+00	-1.351198936250884e+00
 1.216035510080927e+00	 1.539408920498174e+00	-9.177783161589617e-01
 1.201028849106816e+00	 1.551145359675193e+00	-4.685371021517895e-01
 1.185918240867793e+00	 1.562728452268355e+00	-1.465652209184398e-02
 1.170706033874936e+00	 1.574156842149224e+00	 4.318914371477657e-01
 1.323907226977324e+00	 1.459619007669536e+00	-1.727970658545542e+00
 1.309627879884325e+00	 1.472444454627764e+00	-1.399546989501423e+00
 1.295228337627253e+00	 1.485126688637369e+00	-1.036362123715152e+00
 1.280710768025226e+00	 1.497664029841519e+00	-6.525579982542662e-01
 1.266077369595616e+00	 1.510054841831538e+00	-2.572215413819748e-01
 1.251330370457585e+00	 1.522297532345218e+00	 1.434640485208445e-01
 1.236472027217101e+00	 1.534390553932163e+00	 5.426908681233514e-01
 1.221504623834565e+00	 1.546332404585624e+00	 9.330159140178784e-01
 1.206430470476243e+00	 1.558121628340281e+00	 1.306353059384136e+00
 1.191251902350694e+00	 1.569756815835506e+00	 1.653967454142596e+00
 1.175971278531404e+00	 1.581236604843679e+00	 1.966472382513271e+00
 1.123318831976734e+00	 1.510438977908068e+00	-9.797489646822750e-01
 1.108629669125836e+00	 1.521253254440523e+00	-7.563269876557027e-01
 1.093847613636997e+00	 1.531916682324970e+00	-4.528458673236961e-01
 1.078974971082447e+00	 1.542428104777079e+00	-7.142628730796358e-02
 1.064014065267222e+00	 1.552786411642340e+00	 3.736419382986247e-01
 1.048967237061315e+00	 1.562990539726966e+00	 8.676938456044992e-01
 1.033836843225698e+00	 1.573039473094003e+00	 1.395732122007244e+00
 1.018625255233428e+00	 1.582932243324601e+00	 1.942468837932377e+00
 1.003334858087006e+00	 1.592667929744381e+00	 2.492366044546055e+00
 9.879680491332047e-01	 1.602245659614925e+00	 3.029675183785443e+00
 9.725272368765219e-01	 1.611664608290443e+00	 3.538475267756508e+00
 1.128584076633202e+00	 1.517518740599537e+00	-2.052068296562598e+00
 1.113826062416185e+00	 1.528383706046224e+00	-1.675727314628515e+00
 1.098974720152806e+00	 1.539097115783824e+00	-1.227401990977734e+00
 1.084032366222025e+00	 1.549657807605892e+00	-7.016802242726350e-01
 1.069001335321073e+00	 1.560064666154375e+00	-1.151341393365922e-01
 1.053883979292120e+00	 1.570316623252049e+00	 5.145950021549387e-01
 1.038682665942804e+00	 1.580412658200036e+00	 1.169421974184586e+00
 1.023399777861804e+00	 1.590351798040284e+00	 1.830864705652126e+00
 1.008037711230661e+00	 1.600133117783001e+00	 2.480090327000171e+00
 9.925988746330451e-01	 1.609755740599044e+00	 3.097960082364353e+00
 9.770856878626532e-01	 1.619218837977321e+00	 3.665073056324169e+00
 1.133849321289002e+00	 1.524598503291737e+00	-2.791343876457023e+00
 1.119022455705831e+00	 1.535514157652602e+00	-2.291007560566962e+00
 1.104101826667885e+00	 1.546277549243292e+00	-1.726605959544270e+00
 1.089089761360856e+00	 1.556887510435254e+00	-1.091482329450842e+00
 1.073988605374169e+00	 1.567342920666890e+00	-4.000155157464583e-01
 1.058800721522175e+00	 1.577642706777549e+00	 3.280268389080988e-01
 1.043528488659177e+00	 1.587785843306425e+00	 1.072350154722560e+00
 1.028174300489477e+00	 1.597771352756268e+00	 1.812184025318415e+00
 1.012740564373655e+00	 1.607598305821879e+00	 2.526332287642082e+00
 9.972297001322832e-01	 1.617265821583393e+00	 3.193221983842049e+00
 9.816441388482543e-01	 1.626773067664415e+00	 3.790951158865170e+00
 1.139114565944302e+00	 1.531678265984568e+00	-3.208965213712626e+00
 1.124218848994950e+00	 1.542644609259557e+00	-2.615284930144231e+00
 1.109228933182416e+00	 1.553457982703275e+00	-1.964091944551456e+00
 1.094147156499128e+00	 1.564117213265066e+00	-1.254838563680298e+00
 1.078975875426700e+00	 1.574621175179788e+00	-4.949728526187701e-01
 1.063717463751669e+00	 1.584968790303364e+00	 2.944490670935913e-01
 1.048374311375001e+00	 1.595159028413066e+00	 1.091789554341015e+00
 1.032948823116623e+00	 1.605190907472450e+00	 1.874883164722889e+00
 1.017443417516155e+00	 1.615063493860909e+00	 2.621089328990514e+00
 1.001860525631069e+00	 1.624775902567861e+00	 3.307343923258713e+00
 9.862025898334583e-01	 1.634327297351610e+00	 3.910209672065495e+00
 1.144379810599269e+00	 1.538758028677931e+00	-3.316080520084652e+00
 1.129415242283717e+00	 1.549775060866989e+00	-2.660927374867039e+00
 1.114356039696582e+00	 1.560638416163673e+00	-1.954017710093253e+00
 1.099204551637025e+00	 1.571346916095226e+00	-1.205492241599939e+00
 1.083963145478855e+00	 1.581899429692963e+00	-4.137151355451665e-01
 1.068634205980788e+00	 1.592294873829391e+00	 4.005747655087352e-01
 1.053220134090458e+00	 1.602532213519856e+00	 1.215251012921270e+00
 1.037723345743416e+00	 1.612610462188722e+00	 2.007634145853016e+00
 1.022146270658325e+00	 1.622528681899982e+00	 2.754545574109482e+00
 1.006491351129554e+00	 1.632285983552334e+00	 3.432360326077673e+00
 9.907610408183973e-01	 1.641881527038787e+00	 4.017058602771277e+00
 1.149645055254069e+00	 1.545837791371726e+00	-3.123602710679778e+00
 1.134611635572308e+00	 1.556905512474797e+00	-2.440045102372491e+00
 1.119483146210567e+00	 1.567818849624386e+00	-1.712241787049476e+00
 1.104261946774735e+00	 1.578576618925632e+00	-9.569288773502607e-01
 1.088950415530820e+00	 1.589177684206319e+00	-1.696945173644319e-01
 1.073550948209719e+00	 1.599620957355527e+00	 6.333657057136298e-01
 1.058065956805731e+00	 1.609905398626689e+00	 1.430478974252236e+00
 1.042497868370034e+00	 1.620030016904980e+00	 2.199320784928450e+00
 1.026849123800329e+00	 1.629993869938989e+00	 2.917068642300734e+00
 1.011122176627888e+00	 1.639796064536699e+00	 3.560454564432291e+00
 9.953194918032041e-01	 1.649435756725832e+00	 4.105816344131793e+00
 1.154910299908869e+00	 1.552917554065853e+00	-2.642215275478322e+00
 1.139808028860899e+00	 1.564035964082883e+00	-1.964496939209776e+00
 1.124610252724551e+00	 1.574999283085313e+00	-1.251655684088572e+00
 1.109319341912446e+00	 1.585806321756186e+00	-5.223808730973178e-01
 1.093937685582786e+00	 1.596455938719752e+00	 2.238889953261979e-01
 1.078467690438650e+00	 1.606947040881672e+00	 9.800278291489835e-01
 1.062911779521005e+00	 1.617278583733464e+00	 1.725447283366254e+00
 1.047272390996653e+00	 1.627449571621117e+00	 2.439034961414892e+00
 1.031551976942334e+00	 1.637459057977820e+00	 3.099206536031119e+00
 1.015753002126222e+00	 1.647306145520847e+00	 3.683956602884697e+00
 9.998779427880107e-01	 1.656989986412625e+00	 4.170908215702321e+00
 1.160175544563835e+00	 1.559997316760212e+00	-1.882378025546622e+00
 1.145004422149667e+00	 1.571166415691145e+00	-1.245896554588748e+00
 1.129737359238717e+00	 1.582179716546355e+00	-5.846265570368776e-01
 1.114376737050343e+00	 1.593036024586787e+00	 8.443700360121525e-02
 1.098924955634941e+00	 1.603734193233161e+00	 7.540830075117770e-01
 1.083384432667769e+00	 1.614273124407722e+00	 1.428006871352142e+00
 1.067757602236463e+00	 1.624651768840077e+00	 2.088355121936269e+00
 1.052046913623446e+00	 1.634869126337026e+00	 2.716073011920098e+00
 1.036254830084503e+00	 1.644924246016368e+00	 3.291684635562738e+00
 1.020383827624707e+00	 1.654816226504663e+00	 3.795340730853415e+00
 1.004436393772950e+00	 1.664544216099050e+00	 4.206865065476453e+00
 1.165440789219135e+00	 1.567077079454702e+00	-8.543327179022666e-01
 1.150200815438786e+00	 1.578296867299485e+00	-2.956185494914413e-01
 1.134864465753249e+00	 1.589360150007411e+00	 2.767313248444935e-01
 1.119434132188614e+00	 1.600265727417334e+00	 8.483637798762921e-01
 1.103912225687472e+00	 1.611012447746446e+00	 1.408178348151628e+00
 1.088301174897263e+00	 1.621599207933576e+00	 1.964984128620906e+00
 1.072603424952286e+00	 1.632024953946423e+00	 2.507623077369805e+00
 1.056821436250592e+00	 1.642288681052604e+00	 3.019932245024349e+00
 1.040957683227003e+00	 1.652389434054522e+00	 3.485402797881255e+00
 1.025014653123494e+00	 1.662326307488035e+00	 3.887223378971267e+00
 1.008994844758154e+00	 1.672098445784992e+00	 4.208321931890509e+00
 1.170706033874936e+00	 1.574156842149224e+00	 4.318914371477662e-01
 1.155397208728432e+00	 1.585427318907801e+00	 8.751955846142710e-01
 1.139991572268328e+00	 1.596540583468382e+00	 1.320550332615503e+00
 1.124491527327446e+00	 1.607495430247728e+00	 1.756957963280367e+00
 1.108899495740569e+00	 1.618290702259505e+00	 2.173704824994451e+00
 1.093217917127319e+00	 1.628925291459132e+00	 2.578872362642028e+00
 1.077449247668659e+00	 1.639398139052400e+00	 2.971889341392523e+00
 1.061595958878265e+00	 1.649708235767744e+00	 3.340307573238681e+00
 1.045660536369998e+00	 1.659854622092177e+00	 3.671432556640474e+00
 1.029645478622732e+00	 1.669836388470851e+00	 3.952361016731594e+00
 1.013553295743755e+00	 1.679652675470332e+00	 4.170016763913525e+00
 1.175971278531404e+00	 1.581236604843679e+00	 1.966472382513271e+00
 1.160593602018781e+00	 1.592557770515995e+00	 2.255631633372458e+00
 1.145118678784137e+00	 1.603721016929166e+00	 2.535203365817609e+00
 1.129548922467025e+00	 1.614725133077867e+00	 2.798248653651145e+00
 1.113886765794420e+00	 1.625568956772238e+00	 3.037949104763616e+00
 1.098134659358124e+00	 1.636251374984289e+00	 3.257811838762277e+00
 1.082295070385766e+00	 1.646771324157903e+00	 3.470006034063750e+00
 1.066370481506642e+00	 1.657127790482339e+00	 3.667088258422534e+00
 1.050363389513654e+00	 1.667319810129223e+00	 3.841014419958170e+00
 1.034276304122573e+00	 1.677346469452999e+00	 3.983648128877564e+00
 1.018111746729887e+00	 1.687206905154955e+00	 4.086789197403451e+00
 9.725272368765219e-01	 1.611664608290443e+00	 3.538475267756508e+00
 9.570148400954672e-01	 1.620923999730693e+00	 3.959528228574124e+00
 9.414332875463274e-01	 1.630023107767037e+00	 4.252659846082230e+00
 9.257850158359563e-01	 1.638961254991470e+00	 4.430462511903044e+00
 9.100724679326296e-01	 1.647737812383568e+00	 4.505558879461045e+00
 8.942980919892135e-01	 1.656352199292953e+00	 4.490597750166565e+00
 8.784643401719208e-01	 1.664803883388219e+00	 4.398248991758329e+00
 8.625736674957413e-01	 1.673092380572644e+00	 4.241197559600009e+00
 8.466285306676252e-01	 1.681217254867130e+00	 4.032136696654486e+00
 8.306313869384504e-01	 1.689178118260764e+00	 3.783760391992578e+00
 8.145846929648080e-01	 1.696974630529512e+00	 3.508755181029550e+00
 9.770856878626532e-01	 1.619218837977321e+00	 3.665073056324169e+00
 9.615005810353462e-01	 1.628521630240110e+00	 4.121890293776849e+00
 9.458459942915274e-01	 1.637663387815064e+00	 4.432184172554181e+00
 9.301243756589621e-01	 1.646643430119025e+00	 4.611459457886841e+00
 9.143381795566552e-01	 1.655461125183214e+00	 4.675360142194728e+00
 8.984898656125033e-01	 1.664115889635621e+00	 4.639659727570666e+00
 8.825818974865609e-01	 1.672607188649691e+00	 4.520250425078391e+00
 8.666167417010120e-01	 1.680934535859640e+00	 4.333131355021000e+00
 8.505968664779338e-01	 1.689097493242845e+00	 4.094395837394663e+00
 8.345247405858784e-01	 1.697095670969706e+00	 3.820217865956158e+00
 8.184028321963256e-01	 1.704928727221486e+00	 3.526837862696762e+00
 9.816441388482543e-01	 1.626773067664415e+00	 3.790951158865170e+00
 9.659863219747833e-01	 1.636119260749749e+00	 4.261663274555040e+00
 9.502587010363843e-01	 1.645303667863334e+00	 4.573887225628802e+00
 9.344637354817303e-01	 1.654325605246850e+00	 4.745258071789537e+00
 9.186038911805495e-01	 1.663184437983163e+00	 4.793637228267744e+00
 9.026816392357647e-01	 1.671879579978629e+00	 4.737098462875723e+00
 8.866994548012662e-01	 1.680410493911535e+00	 4.593912707378920e+00
 8.706598159064309e-01	 1.688776691147034e+00	 4.382531778488351e+00
 8.545652022884538e-01	 1.696977731618970e+00	 4.121571108979206e+00
 8.384180942335583e-01	 1.705013223679052e+00	 3.829791593749211e+00
 8.222209714281083e-01	 1.712882823913839e+00	 3.526080659041550e+00
 9.862025898334583e-01	 1.634327297351610e+00	 3.910209672065495e+00
 9.704720629138888e-01	 1.643716891259486e+00	 4.375152021999002e+00
 9.546714077809845e-01	 1.652943947911714e+00	 4.675939317182255e+00
 9.388030953043199e-01	 1.662007780374810e+00	 4.831566787248573e+00
 9.228696028043460e-01	 1.670907750783278e+00	 4.861321497281113e+00
 9.068734128590051e-01	 1.679643270321834e+00	 4.784765366473907e+00
 8.908170121160226e-01	 1.688213799173608e+00	 4.621716911356916e+00
 8.747028901119608e-01	 1.696618846434682e+00	 4.392231817843180e+00
 8.585335380991325e-01	 1.704857969995367e+00	 4.116582451710427e+00
 8.423114478814271e-01	 1.712930776388675e+00	 3.815236421548166e+00
 8.260391106600912e-01	 1.720836920606458e+00	 3.508834311678215e+00
 9.907610408183973e-01	 1.641881527038787e+00	 4.017058602771277e+00
 9.749578038527736e-01	 1.651314521769201e+00	 4.458729997258751e+00
 9.590841145254130e-01	 1.660584227960079e+00	 4.736544271491775e+00
 9.431424551267915e-01	 1.669689955502773e+00	 4.870098439771589e+00
 9.271353144280760e-01	 1.678631063583420e+00	 4.879325368719014e+00
 9.110651864822312e-01	 1.687406960665095e+00	 4.784475113529982e+00
 8.949345694308115e-01	 1.696017104435768e+00	 4.606094901684359e+00
 8.787459643175644e-01	 1.704461001722444e+00	 4.365007875146047e+00
 8.625018739099167e-01	 1.712738208371898e+00	 4.082290707608865e+00
 8.462048015294223e-01	 1.720848329098446e+00	 3.779250217885603e+00
 8.298572498922062e-01	 1.728791017299227e+00	 3.477399104102118e+00
 9.953194918032041e-01	 1.649435756725832e+00	 4.105816344131793e+00
 9.794435447915480e-01	 1.658912152278770e+00	 4.508838662051347e+00
 9.634968212697558e-01	 1.668224508008300e+00	 4.753939586760176e+00
 9.474818149492031e-01	 1.677372130630603e+00	 4.860571060956808e+00
 9.314010260517740e-01	 1.686354376383450e+00	 4.848543615647898e+00
 9.152569601054503e-01	 1.695170651008270e+00	 4.738007309118713e+00
 8.990521267456177e-01	 1.703820409697870e+00	 4.549431248789973e+00
 8.827890385232054e-01	 1.712303157010177e+00	 4.303581811620399e+00
 8.664702097207534e-01	 1.720618446748428e+00	 4.021499684405370e+00
 8.500981551774804e-01	 1.728765881808236e+00	 3.724475850003341e+00
 8.336753891243880e-01	 1.736745113992029e+00	 3.434026649192295e+00
 9.998779427880107e-01	 1.656989986412625e+00	 4.170908215702321e+00
 9.839292857303223e-01	 1.666509782788071e+00	 4.521986907712021e+00
 9.679095280140989e-01	 1.675864788056249e+00	 4.726396613674610e+00
 9.518211747716145e-01	 1.685054305758168e+00	 4.802708672007627e+00
 9.356667376754718e-01	 1.694077689183231e+00	 4.769854643599758e+00
 9.194487337286694e-01	 1.702934341351218e+00	 4.647108127927112e+00
 9.031696840604232e-01	 1.711623714959771e+00	 4.454065109934128e+00
 8.868321127288457e-01	 1.720145312297739e+00	 4.210622955819803e+00
 8.704385455315907e-01	 1.728498685124818e+00	 3.936958181745289e+00
 8.539915088255383e-01	 1.736683434517917e+00	 3.653503124315534e+00
 8.374935283565700e-01	 1.744699210684749e+00	 3.380921645481867e+00
 1.004436393772950e+00	 1.664544216099050e+00	 4.206865065476453e+00
 9.884150266692072e-01	 1.674107413296981e+00	 4.494750521566115e+00
 9.723222347585273e-01	 1.683505068103797e+00	 4.652220750459253e+00
 9.561605345940860e-01	 1.692736480885333e+00	 4.696242076564392e+00
 9.399324492992021e-01	 1.701801001982622e+00	 4.644121755111761e+00
 9.236405073518955e-01	 1.710698031693796e+00	 4.513491929330722e+00
 9.072872413752125e-01	 1.719427020221330e+00	 4.322292078616783e+00
 8.908751869344493e-01	 1.727987467584990e+00	 4.088750076188689e+00
 8.744068813423749e-01	 1.736378923500933e+00	 3.831361980805985e+00
 8.578848624735339e-01	 1.744600987227362e+00	 3.568870692122457e+00
 8.413116675886849e-01	 1.752653307377271e+00	 3.320243603189895e+00
 1.008994844758154e+00	 1.672098445784992e+00	 4.208321931890509e+00
 9.929007676083129e-01	 1.681705043805379e+00	 4.423771689442805e+00
 9.767349415031276e-01	 1.691145348150817e+00	 4.529751653902265e+00
 9.604998944166758e-01	 1.700418656011965e+00	 4.540909652876446e+00
 9.441981609229979e-01	 1.709524314781486e+00	 4.472194400376714e+00
 9.278322809751357e-01	 1.718461722035863e+00	 4.338842848623977e+00
 9.114047986899687e-01	 1.727230325482402e+00	 4.156366003320588e+00
 8.949182611399791e-01	 1.735829622871788e+00	 3.940533319143066e+00
 8.783752171530532e-01	 1.744259161876634e+00	 3.707355798485787e+00
 8.617782161214028e-01	 1.752518539936439e+00	 3.473067921674769e+00
 8.451298068206675e-01	 1.760607404069479e+00	 3.254108540971305e+00
 1.013553295743755e+00	 1.679652675470332e+00	 4.170016763913525e+00
 9.973865085477501e-01	 1.689302674313143e+00	 4.305758533193899e+00
 9.811476482479849e-01	 1.698785628197181e+00	 4.357363465854368e+00
 9.648392542394443e-01	 1.708100831137931e+00	 4.336458145336451e+00
 9.484638725468924e-01	 1.717247627579685e+00	 4.254909414442808e+00
 9.320240545983974e-01	 1.726225412377277e+00	 4.124816365156070e+00
 9.155223560046748e-01	 1.735033630742843e+00	 3.958500776556231e+00
 8.989613353453980e-01	 1.743671778157989e+00	 3.768496113758047e+00
 8.823435529635734e-01	 1.752139400251785e+00	 3.567535207280573e+00
 8.656715697690824e-01	 1.760436092645021e+00	 3.368536737648619e+00
 8.489479460524506e-01	 1.768561500761259e+00	 3.184590654307701e+00
 1.018111746729887e+00	 1.687206905154955e+00	 4.086789197403451e+00
 1.001872249487630e+00	 1.696900304820150e+00	 4.137484682122117e+00
 9.855603549931854e-01	 1.706425908242760e+00	 4.133465054716215e+00
 9.691786140624503e-01	 1.715783006263096e+00	 4.082643455397915e+00
 9.527295841709187e-01	 1.724970940377081e+00	 3.993092241385419e+00
 9.362158282216873e-01	 1.733989102717897e+00	 3.873040848097469e+00
 9.196399133193149e-01	 1.742836936002513e+00	 3.730872095141190e+00
 9.030044095506687e-01	 1.751513933443456e+00	 3.575117044109791e+00
 8.863118887738816e-01	 1.760019638626248e+00	 3.414448521924252e+00
 8.695649234165100e-01	 1.768353645352981e+00	 3.257673429053637e+00
 8.527660852839681e-01	 1.776515597452493e+00	 3.113723956428766e+00
 8.145846929648080e-01	 1.696974630529512e+00	 3.508755181029550e+00
 7.984881635692119e-01	 1.704607782308222e+00	 3.253148044175628e+00
 7.823469753732306e-01	 1.712075987695308e+00	 3.051308459962630e+00
 7.661635769862309e-01	 1.719379047145569e+00	 2.898271149733570e+00
 7.499404120156170e-01	 1.726516807897009e+00	 2.789066257580947e+00
 7.336799179914387e-01	 1.733489163639346e+00	 2.717944484934418e+00
 7.173845253063604e-01	 1.740296054154137e+00	 2.673644725402641e+00
 7.010566561718182e-01	 1.746937464927227e+00	 2.649898837975940e+00
 6.846987235911640e-01	 1.753413426734232e+00	 2.642051576896663e+00
 6.683131303505522e-01	 1.759724015199794e+00	 2.645706742559943e+00
 6.519022680282955e-01	 1.765869350331382e+00	 2.656718625345587e+00
 8.184028321963256e-01	 1.704928727221486e+00	 3.526837862696762e+00
 8.022308547950975e-01	 1.712597657276366e+00	 3.262065929922403e+00
 7.860140092677473e-01	 1.720100867799294e+00	 3.058557233555407e+00
 7.697547557008287e-01	 1.727438158309759e+00	 2.909681799399579e+00
 7.534555491554902e-01	 1.734609375329742e+00	 2.808783869155924e+00
 7.371188385870384e-01	 1.741614412050667e+00	 2.749009724631429e+00
 7.207470657799391e-01	 1.748453207971837e+00	 2.718528041733525e+00
 7.043426642990840e-01	 1.755125748511074e+00	 2.708405407846503e+00
 6.879080584581196e-01	 1.761632064588246e+00	 2.712288913734737e+00
 6.714456623056047e-01	 1.767972232182473e+00	 2.724080371715407e+00
 6.549578786297219e-01	 1.774146371863731e+00	 2.737930204846978e+00
 8.222209714281083e-01	 1.712882823913839e+00	 3.526080659041550e+00
 8.059735460212321e-01	 1.720587532244843e+00	 3.258607229534923e+00
 7.896810431624707e-01	 1.728125747903544e+00	 3.057743357390887e+00
 7.733459344155730e-01	 1.735497269474130e+00	 2.915566549733692e+00
 7.569706862954365e-01	 1.742701942762564e+00	 2.824108783108064e+00
 7.405577591826318e-01	 1.749739660461978e+00	 2.775370652457086e+00
 7.241096062534327e-01	 1.756610361789429e+00	 2.757806369118634e+00
 7.076286724261937e-01	 1.763314032094718e+00	 2.760093048713857e+00
 6.911173933248609e-01	 1.769850702441975e+00	 2.774552068540913e+00
 6.745781942604039e-01	 1.776220449164800e+00	 2.793754206120773e+00
 6.580134892308822e-01	 1.782423393395677e+00	 2.810515497495751e+00
 8.260391106600912e-01	 1.720836920606458e+00	 3.508834311678215e+00
 8.097162372475537e-01	 1.728577407213554e+00	 3.244633914284172e+00
 7.933480770573491e-01	 1.736150628007981e+00	 3.050297680245837e+00
 7.769371131304268e-01	 1.743556380638631e+00	 2.916977576755117e+00
 7.604858234354377e-01	 1.750794510195449e+00	 2.835761749149146e+00
 7.439966797782203e-01	 1.757864908873280e+00	 2.797690240423998e+00
 7.274721467268634e-01	 1.764767515606941e+00	 2.791783003206430e+00
 7.109146805531861e-01	 1.771502315678212e+00	 2.805059102655855e+00
 6.943267281914413e-01	 1.778069340295493e+00	 2.828757190442333e+00
 6.777107262150133e-01	 1.784468666146862e+00	 2.854482608287660e+00
 6.610690998318431e-01	 1.790700414927322e+00	 2.874081150893177e+00
 8.298572498922062e-01	 1.728791017299227e+00	 3.477399104102117e+00
 8.134589284740003e-01	 1.736567282182402e+00	 3.221965580761033e+00
 7.970151109523318e-01	 1.744175508112531e+00	 3.037615710353835e+00
 7.805282918453533e-01	 1.751615491803208e+00	 2.914937802191644e+00
 7.640009605754752e-01	 1.758887077628368e+00	 2.844439502562262e+00
 7.474356003738059e-01	 1.765990157284572e+00	 2.816564265103231e+00
 7.308346872002515e-01	 1.772924669424396e+00	 2.820738752100229e+00
 7.142006886801003e-01	 1.779690599261606e+00	 2.843383199373396e+00
 6.975360630579145e-01	 1.786287978148868e+00	 2.874807033591392e+00
 6.808432581694961e-01	 1.792716883128747e+00	 2.906010501424212e+00
 6.641247104326711e-01	 1.798977436458766e+00	 2.928228062955130e+00
 8.336753891243880e-01	 1.736745113992029e+00	 3.434026649192294e+00
 8.172016197005085e-01	 1.744557157151287e+00	 3.192381013340366e+00
 8.006821448473660e-01	 1.752200388217115e+00	 3.021058976604639e+00
 7.841194705603172e-01	 1.759674602967811e+00	 2.910442074978736e+00
 7.675160977155310e-01	 1.766979645061297e+00	 2.850815785353439e+00
 7.508745209693901e-01	 1.774115405695855e+00	 2.832386218327816e+00
 7.341972276736185e-01	 1.781081823241821e+00	 2.844931987956253e+00
 7.174866968069756e-01	 1.787878882844947e+00	 2.875127217147792e+00
 7.007453979243340e-01	 1.794506616002171e+00	 2.912590838080965e+00
 6.839757901239162e-01	 1.800965100110545e+00	 2.948073178665341e+00
 6.671803210334328e-01	 1.807254457990109e+00	 2.972551125581055e+00
 8.374935283565700e-01	 1.744699210684749e+00	 3.380921645481867e+00
 8.209443109270168e-01	 1.752547032120114e+00	 3.157619721054840e+00
 8.043491787424001e-01	 1.760225268321657e+00	 3.001956369138389e+00
 7.877106492752806e-01	 1.767733714132384e+00	 2.904458336543344e+00
 7.710312348555869e-01	 1.775072212494209e+00	 2.855542355045520e+00
 7.543134415649742e-01	 1.782240654107128e+00	 2.845531531452155e+00
 7.375597681469854e-01	 1.789238977059240e+00	 2.864598692583096e+00
 7.207727049338508e-01	 1.796067166428286e+00	 2.900335240425990e+00
 7.039547327907537e-01	 1.802725253855474e+00	 2.941984209825764e+00
 6.871083220783356e-01	 1.809213317092342e+00	 2.980396113380102e+00
 6.702359316341945e-01	 1.815531479521452e+00	 3.006638971344869e+00
 8.413116675886849e-01	 1.752653307377271e+00	 3.320243603189895e+00
 8.246870021534630e-01	 1.760536907088782e+00	 3.119383449691847e+00
 8.080162126373823e-01	 1.768250148426080e+00	 2.981605459989628e+00
 7.913018279902077e-01	 1.775792825296878e+00	 2.897928770388813e+00
 7.745463719956243e-01	 1.783164779927075e+00	 2.859249981506935e+00
 7.577523621605597e-01	 1.790365902518389e+00	 2.856358723570929e+00
 7.409223086203739e-01	 1.797396130876680e+00	 2.879952780205099e+00
 7.240587130607654e-01	 1.804255450011673e+00	 2.919033514140235e+00
 7.071640676572267e-01	 1.810943891708847e+00	 2.962848999441951e+00
 6.902408540328184e-01	 1.817461534074229e+00	 3.002694770521563e+00
 6.732915422350230e-01	 1.823808501052896e+00	 3.030073723111570e+00
 8.451298068206675e-01	 1.760607404069479e+00	 3.254108540971305e+00
 8.284296933797848e-01	 1.768526782057194e+00	 3.079337669898135e+00
 8.116832465322612e-01	 1.776275028530309e+00	 2.961273804413084e+00
 7.948930067050616e-01	 1.783851936461238e+00	 2.891770936477410e+00
 7.780615091356252e-01	 1.791257347359871e+00	 2.862549432194839e+00
 7.611912827561486e-01	 1.798491150929640e+00	 2.865210253393237e+00
 7.442848490938040e-01	 1.805553284694165e+00	 2.891248769865602e+00
 7.273447211877578e-01	 1.812443733595157e+00	 2.931230394865211e+00
 7.103734025238072e-01	 1.819162529562361e+00	 2.975033180156625e+00
 6.933733859874279e-01	 1.825709751056291e+00	 3.014674418985969e+00
 6.763471528359838e-01	 1.832085522584540e+00	 3.042430746486517e+00
 8.489479460524506e-01	 1.768561500761259e+00	 3.184590654307701e+00
 8.321723846059192e-01	 1.776516657025253e+00	 3.039113042047748e+00
 8.153502804269847e-01	 1.784299908634265e+00	 2.942200223499540e+00
 7.984841854198054e-01	 1.791911047625413e+00	 2.886878890889981e+00
 7.815766462755713e-01	 1.799349914792569e+00	 2.866032446177268e+00
 7.646302033517420e-01	 1.806616399340881e+00	 2.872413362969776e+00
 7.476473895672979e-01	 1.813710438511721e+00	 2.898655177453732e+00
 7.306307293148674e-01	 1.820632017178786e+00	 2.936916298911906e+00
 7.135827373905486e-01	 1.827381167416087e+00	 2.978370724777304e+00
 6.965059179422274e-01	 1.833957968038617e+00	 3.016029944948953e+00
 6.794027634371442e-01	 1.840362544116487e+00	 3.043278405008147e+00
 8.527660852839681e-01	 1.776515597452493e+00	 3.113723956428765e+00
 8.359150758318051e-01	 1.784506531992859e+00	 3.000306858602839e+00
 8.190173143215014e-01	 1.792324788737874e+00	 2.925596068669496e+00
 8.020753641344036e-01	 1.799970158789352e+00	 2.884124291224897e+00
 7.850917834154448e-01	 1.807442482225144e+00	 2.870272697287248e+00
 7.680691239473414e-01	 1.814741647752109e+00	 2.878280913529083e+00
 7.510099300408769e-01	 1.821867592329375e+00	 2.902256685016496e+00
 7.339167374421334e-01	 1.828820300762612e+00	 2.936063647453762e+00
 7.167920722575044e-01	 1.835599805270095e+00	 2.972681481750447e+00
 6.996384498972799e-01	 1.842206185021295e+00	 3.006445666147955e+00
 6.824583740385706e-01	 1.848639565648836e+00	 3.032177817997512e+00
 6.519022680282955e-01	 1.765869350331382e+00	 2.656718625345587e+00
 6.354713111388517e-01	 1.771848593317297e+00	 2.669710867984696e+00
 6.190198366657016e-01	 1.777663008962260e+00	 2.681343969400827e+00
 6.025501949029400e-01	 1.783312846053559e+00	 2.690810814219539e+00
 5.860647212144215e-01	 1.788798395632072e+00	 2.697438530141189e+00
 5.695657351459118e-01	 1.794119990412552e+00	 2.700677202951198e+00
 5.530555395592713e-01	 1.799278004183412e+00	 2.700088608373258e+00
 5.365364197891498e-01	 1.804272851186889e+00	 2.695334963953609e+00
 5.200106428226289e-01	 1.809104985480471e+00	 2.686167704804543e+00
 5.034804565022232e-01	 1.813774900280471e+00	 2.672416287768996e+00
 4.869480887526040e-01	 1.818283127288656e+00	 2.653977029382117e+00
 6.549578786297219e-01	 1.774146371863731e+00	 2.737930204846978e+00
 6.384499061990342e-01	 1.780153640888624e+00	 2.746975585739809e+00
 6.219213200142383e-01	 1.785995309990285e+00	 2.748574616794055e+00
 6.053744813857638e-01	 1.791671629122109e+00	 2.743482665725685e+00
 5.888117366238175e-01	 1.797182890689137e+00	 2.732574541181046e+00
 5.722354161463743e-01	 1.802529428965615e+00	 2.716831406081082e+00
 5.556478336093053e-01	 1.807711619491974e+00	 2.697327759331286e+00
 5.390512850591133e-01	 1.812729878452083e+00	 2.675218489950626e+00
 5.224480481087375e-01	 1.817584662031686e+00	 2.651726008231018e+00
 5.058403811368134e-01	 1.822276465758901e+00	 2.628127459196193e+00
 4.892305225107745e-01	 1.826805823827681e+00	 2.605742024369417e+00
 6.580134892308822e-01	 1.782423393395677e+00	 2.810515497495752e+00
 6.414285012589676e-01	 1.788458688459521e+00	 2.816829965660955e+00
 6.248228033625713e-01	 1.794327611017873e+00	 2.810640083215284e+00
 6.081987678684507e-01	 1.800030412190232e+00	 2.793950080305057e+00
 5.915587520331601e-01	 1.805567385745794e+00	 2.768873654696716e+00
 5.749050971468814e-01	 1.810938867518298e+00	 2.737619410373817e+00
 5.582401276594879e-01	 1.816145234800187e+00	 2.702476403505935e+00
 5.415661503293344e-01	 1.821186905716960e+00	 2.665799800429276e+00
 5.248854533952103e-01	 1.826064338582610e+00	 2.629996652786481e+00
 5.082003057718694e-01	 1.830778031237055e+00	 2.597511795584027e+00
 4.915129562695016e-01	 1.835328520366439e+00	 2.570813874623564e+00
 6.610690998318431e-01	 1.790700414927322e+00	 2.874081150893177e+00
 6.444070963187153e-01	 1.796763736030097e+00	 2.878749541533855e+00
 6.277242867107518e-01	 1.802659912045134e+00	 2.866910188240474e+00
 6.110230543510350e-01	 1.808389195258034e+00	 2.841506685340657e+00
 5.943057674424651e-01	 1.813951880802145e+00	 2.805586899923564e+00
 5.775747781474243e-01	 1.819348306070697e+00	 2.762287260383534e+00
 5.608324217097872e-01	 1.824578850108139e+00	 2.714817178908791e+00
 5.440810155997560e-01	 1.829643932981597e+00	 2.666443612863804e+00
 5.273228586819682e-01	 1.834544015133316e+00	 2.620475770501736e+00
 5.105602304072903e-01	 1.839279596715006e+00	 2.580249967038137e+00
 4.937953900286674e-01	 1.843851216904997e+00	 2.549114637802681e+00
 6.641247104326711e-01	 1.798977436458766e+00	 2.928228062955129e+00
 6.473856913783390e-01	 1.805068783600458e+00	 2.932207471823448e+00
 6.306257700588300e-01	 1.810992213072177e+00	 2.916755271009733e+00
 6.138473408335520e-01	 1.816747978325622e+00	 2.885448964879343e+00
 5.970527828517465e-01	 1.822336375858293e+00	 2.841969864732744e+00
 5.802444591479949e-01	 1.827757744622905e+00	 2.790086549813131e+00
 5.634247157601709e-01	 1.833012465415916e+00	 2.733638476481094e+00
 5.465958808703215e-01	 1.838100960246076e+00	 2.676519740536634e+00
 5.297602639689301e-01	 1.843023691683876e+00	 2.622662998167636e+00
 5.129201550429753e-01	 1.847781162192820e+00	 2.576023551612172e+00
 4.960778237881540e-01	 1.852373913443422e+00	 2.540563587681162e+00
 6.671803210334328e-01	 1.807254457990109e+00	 2.972551125581055e+00
 6.503642864379001e-01	 1.813373831170712e+00	 2.976674224986271e+00
 6.335272534068583e-01	 1.819324514099111e+00	 2.959545828109504e+00
 6.166716273160365e-01	 1.825106761393103e+00	 2.925075862761332e+00
 5.997997982610184e-01	 1.830720870914339e+00	 2.877282278414883e+00
 5.829141401485844e-01	 1.836167183175019e+00	 2.820274000065789e+00
 5.660170098106057e-01	 1.841446080723607e+00	 2.758234032209721e+00
 5.491107461409732e-01	 1.846557987510475e+00	 2.695402717674007e+00
 5.321976692560165e-01	 1.851503368234363e+00	 2.636061156578417e+00
 5.152800796788236e-01	 1.856282727670566e+00	 2.584487545469649e+00
 4.983602575478438e-01	 1.860896609981779e+00	 2.545039323398676e+00
 6.702359316341945e-01	 1.815531479521452e+00	 3.006638971344869e+00
 6.533428814974620e-01	 1.821678878740965e+00	 3.011617269553507e+00
 6.364287367548873e-01	 1.827656815126044e+00	 2.994652157675881e+00
 6.194959137985235e-01	 1.833465544460584e+00	 2.959688393074729e+00
 6.025468136702961e-01	 1.839105365970385e+00	 2.910787602498726e+00
 5.855838211491849e-01	 1.844576621727132e+00	 2.852111047100161e+00
 5.686093038610591e-01	 1.849879696031297e+00	 2.787902527328256e+00
 5.516256114116549e-01	 1.855015014774876e+00	 2.722433793882221e+00
 5.346350745431466e-01	 1.859983044784851e+00	 2.659992575053435e+00
 5.176400043147342e-01	 1.864784293148311e+00	 2.605107873042255e+00
 5.006426913076193e-01	 1.869419306520137e+00	 2.562306784979269e+00
 6.732915422350230e-01	 1.823808501052896e+00	 3.030073723111570e+00
 6.563214765570855e-01	 1.829983926311328e+00	 3.036500768832899e+00
 6.393302201029681e-01	 1.835989116153088e+00	 3.021444009521083e+00
 6.223202002810477e-01	 1.841824327528172e+00	 2.988589257702164e+00
 6.052938290795936e-01	 1.847489861026532e+00	 2.941752629349064e+00
 5.882535021497876e-01	 1.852986060279340e+00	 2.884855764516888e+00
 5.712015979114985e-01	 1.858313311339075e+00	 2.821729638678751e+00
 5.541404766823086e-01	 1.863472042039354e+00	 2.756543970698066e+00
 5.370724798302403e-01	 1.868462721335410e+00	 2.693643997721754e+00
 5.199999289506066e-01	 1.873285858626126e+00	 2.637384761933336e+00
 5.029251250673623e-01	 1.877942003058562e+00	 2.592109607978422e+00
 6.763471528359838e-01	 1.832085522584540e+00	 3.042430746486517e+00
 6.593000716168337e-01	 1.838288973881903e+00	 3.050785280082956e+00
 6.422317034511515e-01	 1.844321417180349e+00	 3.039290241092264e+00
 6.251444867636440e-01	 1.850183110595974e+00	 3.011082470734891e+00
 6.080408444889266e-01	 1.855874356082885e+00	 2.969324881374170e+00
 5.909231831503844e-01	 1.861395498831738e+00	 2.917199352378608e+00
 5.737938919618912e-01	 1.866746926647026e+00	 2.858437062116559e+00
 5.566553419528779e-01	 1.871929069303992e+00	 2.796867039886106e+00
 5.395098851172180e-01	 1.876942397886117e+00	 2.736366643342566e+00
 5.223598535863397e-01	 1.881787424104077e+00	 2.680838732001809e+00
 5.052075588269552e-01	 1.886464699597119e+00	 2.634190374902594e+00
 6.794027634371442e-01	 1.840362544116487e+00	 3.043278405008147e+00
 6.622786666767680e-01	 1.846594021452800e+00	 3.053927458018542e+00
 6.451331867994894e-01	 1.852653718207937e+00	 3.047552665174914e+00
 6.279687732463471e-01	 1.858541893664097e+00	 3.026077399223996e+00
 6.107878598983082e-01	 1.864258851139542e+00	 2.991924289748122e+00
 5.935928641509671e-01	 1.869804937384422e+00	 2.947961158295006e+00
 5.763861860122044e-01	 1.875180541955239e+00	 2.897174504615878e+00
 5.591702072233057e-01	 1.880386096568869e+00	 2.842643975039104e+00
 5.419472904039987e-01	 1.885422074437041e+00	 2.787518408755704e+00
 5.247197782218328e-01	 1.890288989582232e+00	 2.734993454406426e+00
 5.074899925862805e-01	 1.894987396135878e+00	 2.688290737873703e+00
 6.824583740385706e-01	 1.848639565648836e+00	 3.032177817997512e+00
 6.652572617369515e-01	 1.854899069024128e+00	 3.045281289776843e+00
 6.480346701480332e-01	 1.860986019235963e+00	 3.044783458485977e+00
 6.307930597291923e-01	 1.866900676732648e+00	 3.032000464485613e+00
 6.135348753077542e-01	 1.872643346196608e+00	 3.008568116135825e+00
 5.962625451515272e-01	 1.878214375937486e+00	 2.976292114314044e+00
 5.789784800624057e-01	 1.883614157263803e+00	 2.937121615680605e+00
 5.616850724935349e-01	 1.888843123834063e+00	 2.893124382603288e+00
 5.443846956905031e-01	 1.893901750988257e+00	 2.846463522333990e+00
 5.270797028569850e-01	 1.898790555060661e+00	 2.799375805539060e+00
 5.097724263452204e-01	 1.903510092674904e+00	 2.754151542557972e+00
 4.869480887526040e-01	 1.818283127288656e+00	 2.653977029382117e+00
 4.704157470569679e-01	 1.822630236397705e+00	 2.629393335886854e+00
 4.538856183878984e-01	 1.826816836167647e+00	 2.599230391438393e+00
 4.373598677937028e-01	 1.830843571914933e+00	 2.566487731390902e+00
 4.208406374924303e-01	 1.834711124582473e+00	 2.534189438388800e+00
 4.043300462218327e-01	 1.838420209993003e+00	 2.505369802320609e+00
 3.878301886145822e-01	 1.841971578090959e+00	 2.483059133912263e+00
 3.713431345988646e-01	 1.845366012173774e+00	 2.470269747645688e+00
 3.548709288244357e-01	 1.848604328113462e+00	 2.468900005969762e+00
 3.384155901141945e-01	 1.851687373569411e+00	 2.480413979778854e+00
 3.219791109412959e-01	 1.854616027193228e+00	 2.507330149371044e+00
 4.892305225107745e-01	 1.826805823827681e+00	 2.605742024369417e+00
 4.726206900607703e-01	 1.831173308801916e+00	 2.584345842174226e+00
 4.560130810102133e-01	 1.835379532094092e+00	 2.563714665199727e+00
 4.394098705554804e-01	 1.839425142045410e+00	 2.545239380440155e+00
 4.228132109556794e-01	 1.843310822790522e+00	 2.530364953541741e+00
 4.062252308795631e-01	 1.847037293507387e+00	 2.520577531630982e+00
 3.896480347778194e-01	 1.850605307655607e+00	 2.517391621180146e+00
 3.730837022808540e-01	 1.854015652204112e+00	 2.522355746176839e+00
 3.565342876221567e-01	 1.857269146849096e+00	 2.536158473095347e+00
 3.400018190873044e-01	 1.860366643223122e+00	 2.558445621036804e+00
 3.234882984886233e-01	 1.863309024096240e+00	 2.590079484120875e+00
 4.915129562695016e-01	 1.835328520366439e+00	 2.570813874623564e+00
 4.748256330652054e-01	 1.839716381205851e+00	 2.550893810220034e+00
 4.581405436332219e-01	 1.843942228020241e+00	 2.537099010253282e+00
 4.414598733179971e-01	 1.848006712175566e+00	 2.529508876046303e+00
 4.247857844196967e-01	 1.851910520998216e+00	 2.528282069428029e+00
 4.081204155380748e-01	 1.855654377021385e+00	 2.533697141615106e+00
 3.914658809418343e-01	 1.859239037219845e+00	 2.546085873869873e+00
 3.748242699636008e-01	 1.862665292234023e+00	 2.565749369014771e+00
 3.581976464205976e-01	 1.865933965584300e+00	 2.592276030877231e+00
 3.415880480610795e-01	 1.869045912876419e+00	 2.623837607672022e+00
 3.249974860365428e-01	 1.872002020998873e+00	 2.659926604960312e+00
 4.937953900286674e-01	 1.843851216904997e+00	 2.549114637802681e+00
 4.770305760701433e-01	 1.848259453609578e+00	 2.529221586349528e+00
 4.602680062567868e-01	 1.852504923946168e+00	 2.519810623585435e+00
 4.435098760811120e-01	 1.856588282305477e+00	 2.519996794114564e+00
 4.267583578843429e-01	 1.860510219205645e+00	 2.529000246844173e+00
 4.100156001972335e-01	 1.864271460535099e+00	 2.546079251460221e+00
 3.932837271065011e-01	 1.867872766783782e+00	 2.570535735139427e+00
 3.765648376469900e-01	 1.871314932263623e+00	 2.601706261530766e+00
 3.598610052196576e-01	 1.874598784319194e+00	 2.638409406242743e+00
 3.431742770354353e-01	 1.877725182529420e+00	 2.677697192886693e+00
 3.265066735849897e-01	 1.880695017901245e+00	 2.717921900933215e+00
 4.960778237881540e-01	 1.852373913443422e+00	 2.540563587681162e+00
 4.792355190754543e-01	 1.856802526013169e+00	 2.519525515499207e+00
 4.623954688807710e-01	 1.861067619871948e+00	 2.512392684757074e+00
 4.455598788446856e-01	 1.865169852435230e+00	 2.517548995170927e+00
 4.287309313494787e-01	 1.869109917412900e+00	 2.533456325128545e+00
 4.119107848569040e-01	 1.872888544048625e+00	 2.558644774147685e+00
 3.951015732716926e-01	 1.876506496347521e+00	 2.591703709216065e+00
 3.783054053309068e-01	 1.879964572293025e+00	 2.631273555731924e+00
 3.615243640192359e-01	 1.883263603053898e+00	 2.675648704986291e+00
 3.447605060102883e-01	 1.886404452182246e+00	 2.721108740704076e+00
 3.280158611338989e-01	 1.889388014803469e+00	 2.765094491505256e+00
 4.983602575478438e-01	 1.860896609981779e+00	 2.545039323398676e+00
 4.814404620810082e-01	 1.865345598416690e+00	 2.521991399434518e+00
 4.645229315050365e-01	 1.869630315797655e+00	 2.515229587303601e+00
 4.476098816085765e-01	 1.873751422564903e+00	 2.522664954081148e+00
 4.307035048149643e-01	 1.877709615620070e+00	 2.542296061334798e+00
 4.138059695169521e-01	 1.881505627562064e+00	 2.572199762923487e+00
 3.969194194372828e-01	 1.885140225911173e+00	 2.610522817625168e+00
 3.800459730152358e-01	 1.888614212322343e+00	 2.655474253884850e+00
 3.631877228192321e-01	 1.891928421788526e+00	 2.705061088696624e+00
 3.463467349855543e-01	 1.895083721835016e+00	 2.755134293831787e+00
 3.295250486832060e-01	 1.898081011705663e+00	 2.802452635884288e+00
 5.006426913076193e-01	 1.869419306520137e+00	 2.562306784979269e+00
 4.836454050866754e-01	 1.873888670820212e+00	 2.536630797982870e+00
 4.666503941294464e-01	 1.878193011723362e+00	 2.528551165602784e+00
 4.496598843726448e-01	 1.882332992694578e+00	 2.535786459104505e+00
 4.326760782806605e-01	 1.886309313827246e+00	 2.556147841469028e+00
 4.157011541772427e-01	 1.890122711075513e+00	 2.587530159429964e+00
 3.987372656031449e-01	 1.893773955474844e+00	 2.627903873842989e+00
 3.817865406998620e-01	 1.897263852351690e+00	 2.675307762283920e+00
 3.648510816195448e-01	 1.900593240523199e+00	 2.727691191425079e+00
 3.479329639611495e-01	 1.903762991487849e+00	 2.780813990979927e+00
 3.310342362328462e-01	 1.906774008607944e+00	 2.830984130338643e+00
 5.029251250673623e-01	 1.877942003058562e+00	 2.592109607978422e+00
 4.858503480923255e-01	 1.882431743223802e+00	 2.563434224516681e+00
 4.687778567538631e-01	 1.886755707649143e+00	 2.552577318946078e+00
 4.517098871367496e-01	 1.890914562824337e+00	 2.557341602958013e+00
 4.346486517464278e-01	 1.894909012034517e+00	 2.575623097299732e+00
 4.175963388376412e-01	 1.898739794589072e+00	 2.605402259224573e+00
 4.005551117691525e-01	 1.902407685038639e+00	 2.644735984280797e+00
 3.835271083846704e-01	 1.905913492381181e+00	 2.691750412969510e+00
 3.665144404200736e-01	 1.909258059258034e+00	 2.744561523924225e+00
 3.495191929369901e-01	 1.912442261140863e+00	 2.799166471879769e+00
 3.325434237827546e-01	 1.915467005510426e+00	 2.851656693894506e+00
 5.052075588269552e-01	 1.886464699597119e+00	 2.634190374902594e+00
 4.880552910978292e-01	 1.890974815627532e+00	 2.602386658478305e+00
 4.709053193781492e-01	 1.895318403575075e+00	 2.587518293428268e+00
 4.537598899007508e-01	 1.899496132954260e+00	 2.587745133121289e+00
 4.366212252121265e-01	 1.903508710241975e+00	 2.601316715163848e+00
 4.194915234980127e-01	 1.907356878102840e+00	 2.626563167685600e+00
 4.023729579351792e-01	 1.911041414602669e+00	 2.661887038420888e+00
 3.852676760695460e-01	 1.914563132410930e+00	 2.705755973777297e+00
 3.681777992207175e-01	 1.917922877993149e+00	 2.756672865850018e+00
 3.511054219129919e-01	 1.921121530794178e+00	 2.811189270391956e+00
 3.340526113328665e-01	 1.924160002413225e+00	 2.865418342779952e+00
 5.074899925862805e-01	 1.894987396135878e+00	 2.688290737873703e+00
 4.902602341030561e-01	 1.899517888031467e+00	 2.653467749145195e+00
 4.730327820021674e-01	 1.903881099501229e+00	 2.633574960130106e+00
 4.558098926645078e-01	 1.908077703084432e+00	 2.627398796270635e+00
 4.385937986776174e-01	 1.912108408449707e+00	 2.633807437020853e+00
 4.213867081582230e-01	 1.915973961616915e+00	 2.651741246607517e+00
 4.041908041010985e-01	 1.919675144167038e+00	 2.680204188446059e+00
 3.870082437543736e-01	 1.923212772441049e+00	 2.718256147085907e+00
 3.698411580213761e-01	 1.926587696728663e+00	 2.765004646306403e+00
 3.526916508890713e-01	 1.929800800447914e+00	 2.817859196079116e+00
 3.355617988831173e-01	 1.932852999316460e+00	 2.873197753969817e+00
 5.097724263452204e-01	 1.903510092674904e+00	 2.754151542557972e+00
 4.924651771078767e-01	 1.908060960435679e+00	 2.716652018134578e+00
 4.751602446257804e-01	 1.912443795427681e+00	 2.690939089710103e+00
 4.578598954278802e-01	 1.916659273214932e+00	 2.676691677026373e+00
 4.405663721427611e-01	 1.920708106657808e+00	 2.673658253997868e+00
 4.232818928181369e-01	 1.924591045131397e+00	 2.681646551777732e+00
 4.060086502667843e-01	 1.928308873731856e+00	 2.700514318691667e+00
 3.887488114390382e-01	 1.931862412471655e+00	 2.730161057617147e+00
 3.715045168219482e-01	 1.935252515464695e+00	 2.770520657179996e+00
 3.542778798651443e-01	 1.938480070102190e+00	 2.820132704604503e+00
 3.370709864334423e-01	 1.941545996220245e+00	 2.875904618173138e+00
 3.219791109412959e-01	 1.854616027193228e+00	 2.507330149371044e+00
 3.055606687055367e-01	 1.857391656406358e+00	 2.544571346313795e+00
 2.891650023070632e-01	 1.860014687762456e+00	 2.584884470325326e+00
 2.727940274725352e-01	 1.862486087193140e+00	 2.627194946262612e+00
 2.564496316329439e-01	 1.864806848419438e+00	 2.670282280707481e+00
 2.401336735270881e-01	 1.866977992128452e+00	 2.712808349432617e+00
 2.238479828302094e-01	 1.869000565147120e+00	 2.753343806654425e+00
 2.075943598076006e-01	 1.870875639613892e+00	 2.790392729210852e+00
 1.913745749929846e-01	 1.872604312149079e+00	 2.822415609280065e+00
 1.751903688914300e-01	 1.874187703024645e+00	 2.847850808856082e+00
 1.590434517065504e-01	 1.875626955334190e+00	 2.865134587983066e+00
 3.234882984886233e-01	 1.863309024096240e+00	 2.590079484120875e+00
 3.069928993702057e-01	 1.866097663299308e+00	 2.625079123460480e+00
 2.905203828444765e-01	 1.868732989385335e+00	 2.657497731747659e+00
 2.740726736175322e-01	 1.871215972813470e+00	 2.687959729006406e+00
 2.576516679671727e-01	 1.873547611962533e+00	 2.716929258940822e+00
 2.412592333445186e-01	 1.875728932303808e+00	 2.744736488869723e+00
 2.248972080009062e-01	 1.877760985570946e+00	 2.771602062061751e+00
 2.085674006398718e-01	 1.879644848927742e+00	 2.797659821812024e+00
 1.922715900940236e-01	 1.881381624134609e+00	 2.822977926812709e+00
 1.760115250265642e-01	 1.882972436714475e+00	 2.847578476682465e+00
 1.597889236572118e-01	 1.884418435118870e+00	 2.871455764997113e+00
 3.249974860365428e-01	 1.872002020998873e+00	 2.659926604960312e+00
 3.084251300353769e-01	 1.874803670191940e+00	 2.693751257564524e+00
 2.918757633822891e-01	 1.877451291007973e+00	 2.720338648070926e+00
 2.753513197628181e-01	 1.879945858433651e+00	 2.741695498894297e+00
 2.588537043015764e-01	 1.882288375505576e+00	 2.759656367223329e+00
 2.423847931620126e-01	 1.884479872479215e+00	 2.775908268894125e+00
 2.259464331715617e-01	 1.886521405994918e+00	 2.792013473903080e+00
 2.095404414720090e-01	 1.888414058241828e+00	 2.809430599062212e+00
 1.931686051948520e-01	 1.890158936120450e+00	 2.829534123266082e+00
 1.768326811614326e-01	 1.891757170404670e+00	 2.853632449882284e+00
 1.605343956075780e-01	 1.893209914903944e+00	 2.882984638964969e+00
 3.265066735849897e-01	 1.880695017901245e+00	 2.717921900933215e+00
 3.098573607010064e-01	 1.883509677084360e+00	 2.751541111456377e+00
 2.932311439204799e-01	 1.886169592630466e+00	 2.774238608830657e+00
 2.766299659083941e-01	 1.888675744053763e+00	 2.789091195430659e+00
 2.600557406361800e-01	 1.891029139048634e+00	 2.798994064527301e+00
 2.435103529796172e-01	 1.893230812654720e+00	 2.806684056302346e+00
 2.269956583422443e-01	 1.895281826419068e+00	 2.814761093444542e+00
 2.105134823040992e-01	 1.897183267556163e+00	 2.825707927957175e+00
 1.940656202955735e-01	 1.898936248106599e+00	 2.841908330546391e+00
 1.776538372961520e-01	 1.900541904095215e+00	 2.865663852751752e+00
 1.612798675577749e-01	 1.902001394689388e+00	 2.899209289895396e+00
 3.280158611338989e-01	 1.889388014803469e+00	 2.765094491505256e+00
 3.112895913670510e-01	 1.892215683976677e+00	 2.799382938531747e+00
 2.945865244590273e-01	 1.894887894252909e+00	 2.820012454420472e+00
 2.779086120542623e-01	 1.897405629673888e+00	 2.830822091785462e+00
 2.612577769710084e-01	 1.899769902591771e+00	 2.835462271838419e+00
 2.446359127973796e-01	 1.901981752830368e+00	 2.837416977512661e+00
 2.280448835130220e-01	 1.904042246843425e+00	 2.840024122891759e+00
 2.114865231362296e-01	 1.905952476870757e+00	 2.846494236668126e+00
 1.949626353962916e-01	 1.907713560093051e+00	 2.859927596889026e+00
 1.784749934308389e-01	 1.909326637786092e+00	 2.883329952807031e+00
 1.620253395079284e-01	 1.910792874475175e+00	 2.919626967311533e+00
 3.295250486832060e-01	 1.898081011705663e+00	 2.802452635884288e+00
 3.127218220334665e-01	 1.900921690869000e+00	 2.838192254378325e+00
 2.959419049979104e-01	 1.903606195875402e+00	 2.858458799481546e+00
 2.791872582004246e-01	 1.906135515294109e+00	 2.867550061264464e+00
 2.624598133060862e-01	 1.908510666135051e+00	 2.869570574873882e+00
 2.457614726153469e-01	 1.910732693006207e+00	 2.868453052534583e+00
 2.290941086839632e-01	 1.912802667268016e+00	 2.867977977435610e+00
 2.124595639684876e-01	 1.914721686185623e+00	 2.871791503294987e+00
 1.958596504971099e-01	 1.916490872079803e+00	 2.883421802740212e+00
 1.792961495656101e-01	 1.918111371477284e+00	 2.906294005987312e+00
 1.627708114581645e-01	 1.919584354261280e+00	 2.943743868722162e+00
 3.310342362328462e-01	 1.906774008607944e+00	 2.830984130338643e+00
 3.141540527002098e-01	 1.909627697761435e+00	 2.868866197552763e+00
 2.972972855371077e-01	 1.912324497498037e+00	 2.890360346870523e+00
 2.804659043468828e-01	 1.914865400914506e+00	 2.899923836011476e+00
 2.636618496414384e-01	 1.917251429678539e+00	 2.901818420861807e+00
 2.468870324335666e-01	 1.919483633182285e+00	 2.900131324954660e+00
 2.301433338551358e-01	 1.921563087692869e+00	 2.898794345346369e+00
 2.134326048009602e-01	 1.923490895500773e+00	 2.901601244728159e+00
 1.967566655981319e-01	 1.925268184066851e+00	 2.912223578787136e+00
 1.801173057005824e-01	 1.926896105168775e+00	 2.934225105978522e+00
 1.635162834086092e-01	 1.928375834047675e+00	 2.971074924070632e+00
 3.325434237827546e-01	 1.915467005510426e+00	 2.851656693894506e+00
 3.155862833672366e-01	 1.918333704654092e+00	 2.892283879852595e+00
 2.986526660765982e-01	 1.921042799120914e+00	 2.916484192505173e+00
 2.817445504936386e-01	 1.923595286535161e+00	 2.928579258189438e+00
 2.648638859770899e-01	 1.925992193222300e+00	 2.932695309570500e+00
 2.480125922520855e-01	 1.928234573358647e+00	 2.932783988065310e+00
 2.311925590266081e-01	 1.930323508118015e+00	 2.932641246178192e+00
 2.144056456337346e-01	 1.932260104816217e+00	 2.935924505615275e+00
 1.976536806994613e-01	 1.934045496054190e+00	 2.946168226068290e+00
 1.809384618358723e-01	 1.935680838860549e+00	 2.966798037526707e+00
 1.642617553593884e-01	 1.937167313834336e+00	 3.001143585971481e+00
 3.340526113328665e-01	 1.924160002413225e+00	 2.865418342779952e+00
 3.170185140345038e-01	 1.927039711547080e+00	 2.909306726415335e+00
 3.000080466163605e-01	 1.929761100744128e+00	 2.937582121376266e+00
 2.830231966406938e-01	 1.932325172156155e+00	 2.954139523878200e+00
 2.660659223130654e-01	 1.934732956766400e+00	 2.962680978769496e+00
 2.491381520709509e-01	 1.936985513535340e+00	 2.966736507258462e+00
 2.322417841984482e-01	 1.939083928543483e+00	 2.969683087143744e+00
 2.153786864668980e-01	 1.941029314131968e+00	 2.974761847429699e+00
 1.985506958012014e-01	 1.942822808041816e+00	 2.985093638098266e+00
 1.817596179715965e-01	 1.944465572552587e+00	 3.003693133614946e+00
 1.650072273106280e-01	 1.945958793621237e+00	 3.033481625551719e+00
 3.355617988831173e-01	 1.932852999316460e+00	 2.873197753969817e+00
 3.184507447019675e-01	 1.935745718440506e+00	 2.920778805964930e+00
 3.013634271563735e-01	 1.938479402367776e+00	 2.954390895003792e+00
 2.843018427880504e-01	 1.941055057777572e+00	 2.977215419918286e+00
 2.672679586493897e-01	 1.943473720310901e+00	 2.992245584297622e+00
 2.502637118902101e-01	 1.945736453712412e+00	 3.002307738801740e+00
 2.332910093707245e-01	 1.947844348969300e+00	 3.010080717716512e+00
 2.163517273005377e-01	 1.949798523448037e+00	 3.018113337637487e+00
 1.994477109034560e-01	 1.951600120029727e+00	 3.028840224943539e+00
 1.825807741078719e-01	 1.953250306244875e+00	 3.044596136382174e+00
 1.657526992624541e-01	 1.954750273408352e+00	 3.067628933720357e+00
 3.370709864334423e-01	 1.941545996220245e+00	 2.875904618173139e+00
 3.198829753695842e-01	 1.944451725334479e+00	 2.927527151514486e+00
 3.027188076966160e-01	 1.947197703991955e+00	 2.967632530605619e+00
 2.855804889357101e-01	 1.949784943399491e+00	 2.998405553921715e+00
 2.684699949860878e-01	 1.952214483855871e+00	 3.021849874907091e+00
 2.513892717099102e-01	 1.954487393889909e+00	 3.039810045110506e+00
 2.343402345435050e-01	 1.956604769395496e+00	 3.053991482516446e+00
 2.173247681347407e-01	 1.958567732764435e+00	 3.065978538959827e+00
 2.003447260063288e-01	 1.960377432017918e+00	 3.077250839188130e+00
 1.834019302448152e-01	 1.962035039937395e+00	 3.089198061666597e+00
 1.664981712149926e-01	 1.963541753195654e+00	 3.103133327696062e+00
 1.590434517065504e-01	 1.875626955334190e+00	 2.865134587983066e+00
 1.429382314216784e-01	 1.876923025847079e+00	 2.873995471767012e+00
 1.268735769469384e-01	 1.878077356778291e+00	 2.876228705027303e+00
 1.108510687324477e-01	 1.879091153726199e+00	 2.873357093537634e+00
 9.487225709370022e-02	 1.879965641777177e+00	 2.866890925980406e+00
 7.893866205069694e-02	 1.880702064699139e+00	 2.858339792207155e+00
 6.305177318862708e-02	 1.881301684138893e+00	 2.849223761907182e+00
 4.721304953974399e-02	 1.881765778823908e+00	 2.841084009167704e+00
 3.142391948606261e-02	 1.882095643769081e+00	 2.835492962690006e+00
 1.568578068249159e-02	 1.882292589489063e+00	 2.834064055493772e+00
 0.000000000000000e+00	 1.882357941216666e+00	 2.838461141822441e+00
 1.597889236572118e-01	 1.884418435118870e+00	 2.871455764997113e+00
 1.436082146305011e-01	 1.885720580601749e+00	 2.894662317702093e+00
 1.274682615549137e-01	 1.886880322138074e+00	 2.915533666967110e+00
 1.113706522885187e-01	 1.887898870977132e+00	 2.931480344052976e+00
 9.531694441351392e-02	 1.888777457947550e+00	 2.939944790596496e+00
 7.930866507460187e-02	 1.889517332647062e+00	 2.938416763222710e+00
 6.334731083901836e-02	 1.890119762636099e+00	 2.924447950770545e+00
 4.743434757785443e-02	 1.890586032635811e+00	 2.895665891698358e+00
 3.157121036829778e-02	 1.890917443731123e+00	 2.849787273554963e+00
 1.575930341640463e-02	 1.891115312579360e+00	 2.784630690495502e+00
 0.000000000000000e+00	 1.891180970624999e+00	 2.698128928708714e+00
 1.605343956075780e-01	 1.893209914903944e+00	 2.882984638964969e+00
 1.442781978390275e-01	 1.894518135356813e+00	 2.917829408947451e+00
 1.280629461626155e-01	 1.895683287498231e+00	 2.953628634737325e+00
 1.118902358443562e-01	 1.896706588228395e+00	 2.984472504541920e+00
 9.576163173314500e-02	 1.897589274118199e+00	 3.004520411566791e+00
 7.967866809837955e-02	 1.898332600595201e+00	 3.008019151455015e+00
 6.364284848933595e-02	 1.898937841133457e+00	 2.989320214267629e+00
 4.765564561593674e-02	 1.899406286447809e+00	 2.942896261025496e+00
 3.171850125053627e-02	 1.899739243693211e+00	 2.863356869122243e+00
 1.583282615033235e-02	 1.899938035669670e+00	 2.745463624971604e+00
 0.000000000000000e+00	 1.900004000033333e+00	 2.584144636082279e+00
 1.612798675577749e-01	 1.902001394689388e+00	 2.899209289895396e+00
 1.449481810473886e-01	 1.903315690112244e+00	 2.942860232311779e+00
 1.286576307701753e-01	 1.904486252858727e+00	 2.989809239324542e+00
 1.124098194000882e-01	 1.905514305479959e+00	 3.031607131618915e+00
 9.620631905271379e-02	 1.906401090289098e+00	 3.059904186431003e+00
 8.004867112213891e-02	 1.907147868543532e+00	 3.066470339602382e+00
 6.393838613967366e-02	 1.907755919630951e+00	 3.043214393629146e+00
 4.787694365406614e-02	 1.908226540259889e+00	 2.982202324549938e+00
 3.186579213283140e-02	 1.908561043655338e+00	 2.875674774709970e+00
 1.590634888430292e-02	 1.908760758759990e+00	 2.716063812386066e+00
 0.000000000000000e+00	 1.908827029441666e+00	 2.496009032965535e+00
 1.620253395079284e-01	 1.910792874475175e+00	 2.919626967311534e+00
 1.456181642557152e-01	 1.912113244868008e+00	 2.969129751194569e+00
 1.292523153777245e-01	 1.913289218219532e+00	 3.023383845312166e+00
 1.129294029558426e-01	 1.914322022731792e+00	 3.072170929737629e+00
 9.665100637234066e-02	 1.915212906460218e+00	 3.105395437674717e+00
 8.041867414598883e-02	 1.915963136492034e+00	 3.113105979109805e+00
 6.423392379012537e-02	 1.916573998128565e+00	 3.085515711244395e+00
 4.809824169231792e-02	 1.917046794072044e+00	 3.013021751747593e+00
 3.201308301523648e-02	 1.917382843617501e+00	 2.886223724896859e+00
 1.597987161834455e-02	 1.917583481850320e+00	 2.695941524451474e+00
 0.000000000000000e+00	 1.917650058849999e+00	 2.433232370626015e+00
 1.627708114581645e-01	 1.919584354261280e+00	 2.943743868722162e+00
 1.462881474641380e-01	 1.920910799624077e+00	 2.996024133246146e+00
 1.298469999853945e-01	 1.922092183580612e+00	 3.053673251324841e+00
 1.134489865117470e-01	 1.923129739983864e+00	 3.105463443366173e+00
 9.709569369214588e-02	 1.924024722631535e+00	 3.140306110970902e+00
 8.078867717003825e-02	 1.924778404440686e+00	 3.147273704241710e+00
 6.452946144078488e-02	 1.925392076626283e+00	 3.115620505802562e+00
 4.831953973076732e-02	 1.925867047884262e+00	 3.034802431134315e+00
 3.216037389780486e-02	 1.926204643579694e+00	 2.894495938630232e+00
 1.605339435248539e-02	 1.926406204940658e+00	 2.684616136314196e+00
 0.000000000000000e+00	 1.926473088258333e+00	 2.395334165438276e+00
 1.635162834086092e-01	 1.928375834047675e+00	 2.971074924070632e+00
 1.469581306727880e-01	 1.929708354380417e+00	 3.022940485420446e+00
 1.304416845933169e-01	 1.930895148941936e+00	 3.080010398629513e+00
 1.139685700679296e-01	 1.931937457236145e+00	 3.130796757559693e+00
 9.754038101224971e-02	 1.932836538803019e+00	 3.163960481663118e+00
 8.115868019439608e-02	 1.933593672389465e+00	 3.168332853970098e+00
 6.482499909174606e-02	 1.934210155124091e+00	 3.132935974677123e+00
 4.854083776948961e-02	 1.934687301696534e+00	 3.047002233878618e+00
 3.230766478058984e-02	 1.935026443541913e+00	 2.899992900486197e+00
 1.612691708675365e-02	 1.935228928031003e+00	 2.681615917615869e+00
 0.000000000000000e+00	 1.935296117666666e+00	 2.381842987685438e+00
 1.642617553593884e-01	 1.937167313834336e+00	 3.001143585971481e+00
 1.476281138817961e-01	 1.938505909136998e+00	 3.049286596185597e+00
 1.310363692016229e-01	 1.939698114303471e+00	 3.101740087633986e+00
 1.144881536245180e-01	 1.940745174488602e+00	 3.147495206663565e+00
 9.798506833277253e-02	 1.941648354974646e+00	 3.175694869228599e+00
 8.152868321917121e-02	 1.942408940338352e+00	 3.175654201429823e+00
 6.512053674310277e-02	 1.943028233621972e+00	 3.136879923323176e+00
 4.876213580856004e-02	 1.943507555508849e+00	 3.049088783851257e+00
 3.245495566364472e-02	 1.943848243504153e+00	 2.902225147886516e+00
 1.620043982117750e-02	 1.944051651121353e+00	 2.686477829244474e+00
 0.000000000000000e+00	 1.944119147074999e+00	 2.392296256111650e+00
 1.650072273106280e-01	 1.945958793621237e+00	 3.033481625551719e+00
 1.482980970912930e-01	 1.947303463893789e+00	 3.074480684666015e+00
 1.316310538104442e-01	 1.948501079665185e+00	 3.118218702033276e+00
 1.150077371816403e-01	 1.949552891741206e+00	 3.154895090890024e+00
 9.842975565383462e-02	 1.950460171146388e+00	 3.174857359468839e+00
 8.189868624447254e-02	 1.951224208287323e+00	 3.168619690701683e+00
 6.541607439494881e-02	 1.951846312119910e+00	 3.126880521465949e+00
 4.898343384805388e-02	 1.952327809321200e+00	 3.040539233907932e+00
 3.260224654702285e-02	 1.952670043466408e+00	 2.900712064083803e+00
 1.627396255578512e-02	 1.952874374211707e+00	 2.698747325595097e+00
 0.000000000000000e+00	 1.952942176483333e+00	 2.426240038043612e+00
 1.657526992624541e-01	 1.954750273408352e+00	 3.067628933720357e+00
 1.489680803014097e-01	 1.956101018650761e+00	 3.097951156497716e+00
 1.322257384199121e-01	 1.957304045027046e+00	 3.128813940362962e+00
 1.155273207394242e-01	 1.958360608993926e+00	 3.152344400520418e+00
 9.887444297555625e-02	 1.959271987318218e+00	 3.160807534184412e+00
 8.226868927040905e-02	 1.960039476236356e+00	 3.146622180692615e+00
 6.571161204737802e-02	 1.960664390617890e+00	 3.102376065866656e+00
 4.920473188804639e-02	 1.961148063133574e+00	 3.020840048208988e+00
 3.274953743077755e-02	 1.961491843428675e+00	 2.894981676733449e+00
 1.634748529060471e-02	 1.961697097302066e+00	 2.717978162166904e+00
 0.000000000000000e+00	 1.961765205891666e+00	 2.483228854905816e+00
 1.664981712149926e-01	 1.963541753195654e+00	 3.103133327696062e+00
 1.496380635122771e-01	 1.964898573407881e+00	 3.119136366186520e+00
 1.328204230301581e-01	 1.966107010389023e+00	 3.132904554727339e+00
 1.160469042979976e-01	 1.967168326246733e+00	 3.139202547493999e+00
 9.931913029805782e-02	 1.968083803490110e+00	 3.132916208099482e+00
 8.263869229708956e-02	 1.968854744185433e+00	 3.109065195890612e+00
 6.600714970048427e-02	 1.969482469115895e+00	 3.062814749459599e+00
 4.942602992861282e-02	 1.969968316945963e+00	 2.989486790386862e+00
 3.289682831496212e-02	 1.970313643390948e+00	 2.884570461877169e+00
 1.642100802566443e-02	 1.970519820392425e+00	 2.743732208329100e+00
 0.000000000000000e+00	 1.970588235300000e+00	 2.562825492960502e+00
 1.970588235300000e+00	 0.000000000000000e+00	 2.143224141101634e+01
 1.970519820392425e+00	 1.642100802566334e-02	 1.660695514110351e+01
 1.970313643390948e+00	 3.289682831496119e-02	 1.242582866070983e+01
 1.969968316945962e+00	 4.942602992861205e-02	 8.862198801175751e+00
 1.969482469115896e+00	 6.600714970048366e-02	 5.889949124064742e+00
 1.968854744185433e+00	 8.263869229708914e-02	 3.483592202142789e+00
 1.968083803490109e+00	 9.931913029805751e-02	 1.618349214125112e+00
 1.967168326246733e+00	 1.160469042979975e-01	 2.702266395834041e-01
 1.966107010389023e+00	 1.328204230301581e-01	-5.839101688303634e-01
 1.964898573407881e+00	 1.496380635122773e-01	-9.662667745621665e-01
 1.963541753195655e+00	 1.664981712149926e-01	-8.980530641149925e-01
 1.979411264708333e+00	 0.000000000000000e+00	 2.015865543151276e+01
 1.979342543482784e+00	 1.649453076097796e-02	 1.512161387602575e+01
 1.979135443353222e+00	 3.304411919960481e-02	 1.083436072112586e+01
 1.978788570758354e+00	 4.964732796979519e-02	 7.257128555025762e+00
 1.978300547613911e+00	 6.630268735432222e-02	 4.351880837520477e+00
 1.977670012134527e+00	 8.300869532457990e-02	 2.082438204107790e+00
 1.976895619662033e+00	 9.976381762141422e-02	 4.146017540021583e-01
 1.975976043499590e+00	 1.165664878574424e-01	-6.837269585613777e-01
 1.974909975751075e+00	 1.334151076412680e-01	-1.242429521474923e+00
 1.973696128165110e+00	 1.503080467239820e-01	-1.289058159868776e+00
 1.972333232983107e+00	 1.672436431683274e-01	-8.487274582510208e-01
 1.988234294116667e+00	 0.000000000000000e+00	 1.835784136903897e+01
 1.988165266573141e+00	 1.656805349650859e-02	 1.319674422227285e+01
 1.987957243315492e+00	 3.319141008463999e-02	 8.872132086172915e+00
 1.987608824570739e+00	 4.986862601150802e-02	 5.336235784178633e+00
 1.987118626111917e+00	 6.659822500879423e-02	 2.544039293035241e+00
 1.986485280083611e+00	 8.337869835277670e-02	 4.534397081515555e-01
 1.985707435833949e+00	 1.002085049455213e-01	-9.745961922310873e-01
 1.984783760752450e+00	 1.170860714176574e-01	-1.775879117460668e+00
 1.983712941113145e+00	 1.340097922531461e-01	-1.982848515416607e+00
 1.982493682922379e+00	 1.509780299364346e-01	-1.624428269078722e+00
 1.981124712770631e+00	 1.679891151223749e-01	-7.258872247859056e-01
 1.997057323525000e+00	 0.000000000000000e+00	 1.609135434683335e+01
 1.996987989663497e+00	 1.664157623220292e-02	 1.090228879592302e+01
 1.996779043277752e+00	 3.333870096997509e-02	 6.613815899752815e+00
 1.996429078383105e+00	 5.008992405363105e-02	 3.175186743915492e+00
 1.995936704609892e+00	 6.689376266376228e-02	 5.392672845765243e-01
 1.995300548032656e+00	 8.374870138153247e-02	-1.337278307646873e+00
 1.994519252005821e+00	 1.006531922702292e-01	-2.493808144631865e+00
 1.993591478005259e+00	 1.176056549784952e-01	-2.965527330592230e+00
 1.992515906475166e+00	 1.346044768656508e-01	-2.783317270310418e+00
 1.991291237679609e+00	 1.516480131495014e-01	-1.973569981335854e+00
 1.989916192558135e+00	 1.687345870770098e-01	-5.580278376098332e-01
 2.005880352933334e+00	 0.000000000000000e+00	 1.341969749014198e+01
 2.005810712753848e+00	 1.671509896800864e-02	 8.306982531548355e+00
 2.005600843239997e+00	 3.348599185551849e-02	 4.132786801595942e+00
 2.005249332195440e+00	 5.031122209604479e-02	 8.483246589301969e-01
 2.004754783107819e+00	 6.718930031908894e-02	-1.590872243770666e+00
 2.004115815981632e+00	 8.411870441070034e-02	-3.224758442411660e+00
 2.003331068177603e+00	 1.010978795953879e-01	-4.088582478461430e+00
 2.002399195257965e+00	 1.181252385398082e-01	-4.212699446985214e+00
 2.001318871837074e+00	 1.351991614786409e-01	-3.622388686235165e+00
 2.000088792436723e+00	 1.523179963630490e-01	-2.337677039803096e+00
 1.998707672345530e+00	 1.694800590321063e-01	-3.731681446759432e-01
 2.014703382341667e+00	 0.000000000000000e+00	 1.040234496139589e+01
 2.014633435844194e+00	 1.678862170387343e-02	 5.478379025745577e+00
 2.014422643202223e+00	 3.363328274117855e-02	 1.501149175163457e+00
 2.014069586007733e+00	 5.053252013862973e-02	-1.571301559495166e+00
 2.013572861605677e+00	 6.748483797463685e-02	-3.776068477066610e+00
 2.012931083930510e+00	 8.448870744013323e-02	-5.145185643958840e+00
 2.012142884349258e+00	 1.015425669208479e-01	-5.705431213198739e+00
 2.011206912510516e+00	 1.186448221014493e-01	-5.478138031967663e+00
 2.010121837198803e+00	 1.357938460919748e-01	-4.479009958665463e+00
 2.008886347193643e+00	 1.529879795769438e-01	-2.717944330970581e+00
 2.007499152132723e+00	 1.702255309875390e-01	-1.988610486793525e-01
 2.023526411750000e+00	 0.000000000000000e+00	 7.097764392761212e+00
 2.023456158934532e+00	 1.686214443974498e-02	 2.482876191570120e+00
 2.023244443164422e+00	 3.378057362686362e-02	-1.210235343121361e+00
 2.022889839819972e+00	 5.075381818126642e-02	-4.011909346849918e+00
 2.022390940103445e+00	 6.778037563026854e-02	-5.947235732664268e+00
 2.021746351879260e+00	 8.485871046968424e-02	-7.035862638217321e+00
 2.020954700520745e+00	 1.019872542464594e-01	-7.291809353456939e+00
 2.020014629762858e+00	 1.191644056632711e-01	-6.723285132955494e+00
 2.018924802560290e+00	 1.363885307055112e-01	-5.332514310050918e+00
 2.017683901950290e+00	 1.536579627910522e-01	-3.115568149837466e+00
 2.016290631919625e+00	 1.709710029431824e-01	-6.220389987595620e-02
 2.032349441158334e+00	 0.000000000000000e+00	 3.563438734375521e+00
 2.032278882024863e+00	 1.693566717557098e-02	-6.142587551858458e-01
 2.032066243126591e+00	 3.392786451248211e-02	-3.931721070866835e+00
 2.031710093632146e+00	 5.097511622383536e-02	-6.402955246481973e+00
 2.031209018601105e+00	 6.807591328584661e-02	-8.036487165243607e+00
 2.030561619827852e+00	 8.522871349920640e-02	-8.835185996588150e+00
 2.029766516692022e+00	 1.024319415720726e-01	-8.796094765032080e+00
 2.028822347014941e+00	 1.196839892251263e-01	-7.910267437974931e+00
 2.027727767921467e+00	 1.369832153191087e-01	-6.162612931418615e+00
 2.026481456706587e+00	 1.543279460052406e-01	-3.531746451397147e+00
 2.025082111706145e+00	 1.717164748989107e-01	 1.015139020921563e-02
 2.041172470566667e+00	 0.000000000000000e+00	-1.441124640498401e-01
 2.041101605115184e+00	 1.700918991129913e-02	-3.748864957654140e+00
 2.040888043088722e+00	 3.407515539794231e-02	-6.594852181258552e+00
 2.040530347444243e+00	 5.119641426621703e-02	-8.675108376392446e+00
 2.040027097098637e+00	 6.837145094123367e-02	-9.977109152495618e+00
 2.039376887776257e+00	 8.559871652855275e-02	-1.048262282193976e+01
 2.038578332863048e+00	 1.028766288975378e-01	-1.016756856989186e+01
 2.037630064266710e+00	 1.202035727868675e-01	-9.001881815034324e+00
 2.036530733282270e+00	 1.375778999326259e-01	-6.949387127644724e+00
 2.035279011462456e+00	 1.549979292193754e-01	-3.967679088840316e+00
 2.033873591492191e+00	 1.724619468545988e-01	-8.011494258959750e-03
 2.049995499975000e+00	 0.000000000000000e+00	-3.969312321190632e+00
 2.049924328205493e+00	 1.708271264687711e-02	-6.857864207969746e+00
 2.049709843050813e+00	 3.422244628315263e-02	-9.132337278233669e+00
 2.049350601256250e+00	 5.141771230829197e-02	-1.076022458047757e+01
 2.048845175596020e+00	 6.866698859629229e-02	-1.170353634094868e+01
 2.048192155724445e+00	 8.596871955757628e-02	-1.191868803460060e+01
 2.047390149033785e+00	 1.033213162227052e-01	-1.135639604446978e+01
 2.046437781518113e+00	 1.207231563483473e-01	-9.961581220872201e+00
 2.045333698642635e+00	 1.381725845459214e-01	-7.673280660259387e+00
 2.044076566217819e+00	 1.556679124333231e-01	-4.424568038876014e+00
 2.042665071277676e+00	 1.732074188101208e-01	-1.424828539559615e-01
 2.058818529383334e+00	 0.000000000000000e+00	-7.857506425147470e+00
 2.058747051295792e+00	 1.715623538225260e-02	-9.879237846917881e+00
 2.058531643012857e+00	 3.436973716802146e-02	-1.147802462507500e+01
 2.058170855068159e+00	 5.163901034994070e-02	-1.259132124368513e+01
 2.057663254093237e+00	 6.896252625088510e-02	-1.315132733213600e+01
 2.057007423672389e+00	 8.633872258613008e-02	-1.308492224035133e+01
 2.056201965204191e+00	 1.037660035474252e-01	-1.231360800616677e+01
 2.055245498769098e+00	 1.212427399094184e-01	-1.075346096800011e+01
 2.054136664002496e+00	 1.387672691588538e-01	-8.315092281858448e+00
 2.052874120972598e+00	 1.563378956469501e-01	-4.903617614556959e+00
 2.051456551062507e+00	 1.739528907653515e-01	-4.186363002905071e-01
 1.963541753195655e+00	 1.664981712149926e-01	-8.980530641149933e-01
 1.962035039937395e+00	 1.834019302448144e-01	-6.101234993537629e-01
 1.960377432017917e+00	 2.003447260063280e-01	-3.112361943210809e-01
 1.958567732764435e+00	 2.173247681347400e-01	 8.380141045187472e-03
 1.956604769395495e+00	 2.343402345435043e-01	 3.542744220444505e-01
 1.954487393889909e+00	 2.513892717099096e-01	 7.276504000876833e-01
 1.952214483855871e+00	 2.684699949860874e-01	 1.125241319607710e+00
 1.949784943399491e+00	 2.855804889357098e-01	 1.539181927208048e+00
 1.947197703991955e+00	 3.027188076966157e-01	 1.956877713031471e+00
 1.944451725334479e+00	 3.198829753695840e-01	 2.360871236540535e+00
 1.941545996220244e+00	 3.370709864334422e-01	 2.728705359736572e+00
 1.972333232983107e+00	 1.672436431683274e-01	-8.487274582510208e-01
 1.970819773630115e+00	 1.842230863825027e-01	-2.077727476163825e-01
 1.969154744006365e+00	 2.012417411098860e-01	 3.756851242147093e-01
 1.967336942081150e+00	 2.182978089695609e-01	 9.170433146284920e-01
 1.965365189822070e+00	 2.353894597168285e-01	 1.426179527158196e+00
 1.963238334067847e+00	 2.525148315300733e-01	 1.907294259837980e+00
 1.960955247401336e+00	 2.696720313231641e-01	 2.358751469812830e+00
 1.958514829021956e+00	 2.868591350836591e-01	 2.772917637349562e+00
 1.955916005616716e+00	 3.040741882370558e-01	 3.135999185330845e+00
 1.953157732229060e+00	 3.213152060373045e-01	 3.427878181430143e+00
 1.950238993124648e+00	 3.385801739837758e-01	 3.621946219658750e+00
 1.981124712770631e+00	 1.679891151223749e-01	-7.258872247859061e-01
 1.979604507322948e+00	 1.850442425208570e-01	 3.545907510170341e-01
 1.977932055994974e+00	 2.021387562140528e-01	 1.289705813866475e+00
 1.976106151398081e+00	 2.192708498049244e-01	 2.099218709625524e+00
 1.974125610248917e+00	 2.364386848906215e-01	 2.796463100673217e+00
 1.971989274246110e+00	 2.536403913506257e-01	 3.388162634143756e+00
 1.969696010947182e+00	 2.708740676605446e-01	 3.874247134449812e+00
 1.967244714644846e+00	 2.881377812318237e-01	 4.247667959072817e+00
 1.964634307241942e+00	 3.054295687776203e-01	 4.494212528550134e+00
 1.961863739124130e+00	 3.227474367050577e-01	 4.592318011512989e+00
 1.958931990029550e+00	 3.400893615340513e-01	 4.512884113712571e+00
 1.989916192558135e+00	 1.687345870770098e-01	-5.580278376098330e-01
 1.988389241015790e+00	 1.858653986597584e-01	 1.022011280788520e+00
 1.986709367983631e+00	 2.030357713187153e-01	 2.355430285358205e+00
 1.984875360715103e+00	 2.202438906407224e-01	 3.465119086739524e+00
 1.982886030675901e+00	 2.374879100647797e-01	 4.367018875645552e+00
 1.980740214424560e+00	 2.547659511714677e-01	 5.069923714389071e+00
 1.978436774493257e+00	 2.720761039981343e-01	 5.575281700433365e+00
 1.975974600268007e+00	 2.894164273801139e-01	 5.876995775824704e+00
 1.973352608867469e+00	 3.067849493182255e-01	 5.961224227185355e+00
 1.970569746019525e+00	 3.241796673727672e-01	 5.806180889566902e+00
 1.967624986934786e+00	 3.415985490842008e-01	 5.381935034081123e+00
 1.998707672345530e+00	 1.694800590321063e-01	-3.731681446759436e-01
 1.997173974708539e+00	 1.866865547990883e-01	 1.740473049103487e+00
 1.995486679972220e+00	 2.039327864237606e-01	 3.498760875179896e+00
 1.993644570032090e+00	 2.212169314768472e-01	 4.926507349183360e+00
 1.991646451102887e+00	 2.385371352391998e-01	 6.041436725647714e+00
 1.989491154603049e+00	 2.558915109925001e-01	 6.853981238581320e+00
 1.987177538039408e+00	 2.732781403358382e-01	 7.367076603387434e+00
 1.984704485891279e+00	 2.906950735284401e-01	 7.575957368053866e+00
 1.982070910493136e+00	 3.081403298587879e-01	 7.467952171079395e+00
 1.979275752915078e+00	 3.256118980403568e-01	 7.022278930821892e+00
 1.976317983840187e+00	 3.431077366341572e-01	 6.209839956039843e+00
 2.007499152132723e+00	 1.702255309875390e-01	-1.988610486793523e-01
 2.005958708401092e+00	 1.875077109387282e-01	 2.456879433052085e+00
 2.004263991960627e+00	 2.048298015290760e-01	 4.646869342668460e+00
 2.002413779348917e+00	 2.221899723131905e-01	 6.396662624366779e+00
 2.000406871529739e+00	 2.395863604137781e-01	 7.724965674475906e+00
 1.998242094781434e+00	 2.570170708136236e-01	 8.643436780504942e+00
 1.995918301585487e+00	 2.744801766735620e-01	 9.156485254306082e+00
 1.993434371514504e+00	 2.919737196767124e-01	 9.261070340659904e+00
 1.990789212118780e+00	 3.094957103992237e-01	 8.946499950724224e+00
 1.987981759810624e+00	 3.270441287077500e-01	 8.194229235496801e+00
 1.985010980745589e+00	 3.446169241838526e-01	 6.977658977933390e+00
 2.016290631919625e+00	 1.709710029431824e-01	-6.220389987595620e-02
 2.014743442093345e+00	 1.883288670785593e-01	 3.119032779101608e+00
 2.013041303948737e+00	 2.057268166345483e-01	 5.728169124962193e+00
 2.011182988665458e+00	 2.231630131496444e-01	 7.790347247270777e+00
 2.009167291956323e+00	 2.406355855884111e-01	 9.324477890221646e+00
 2.006993034959571e+00	 2.581426306347390e-01	 1.034305304457154e+01
 2.004659065131339e+00	 2.756822130112106e-01	 1.085195793171948e+01
 2.002164257137524e+00	 2.932523658248414e-01	 1.085028241409619e+01
 1.999507513744238e+00	 3.108510909394492e-01	 1.033013185260321e+01
 1.996687766705998e+00	 3.284763593748701e-01	 9.276437395936567e+00
 1.993703977650824e+00	 3.461261117332197e-01	 7.666765648463519e+00
 2.025082111706145e+00	 1.717164748989107e-01	 1.015139020921563e-02
 2.023528175785197e+00	 1.891500232184631e-01	 3.675614739149649e+00
 2.021818615936437e+00	 2.066238317400649e-01	 6.672288326797500e+00
 2.019952197981589e+00	 2.241360539861011e-01	 9.023774618107074e+00
 2.017927712382503e+00	 2.416848107629952e-01	 1.074843363379423e+01
 2.015743975137318e+00	 2.592681904557470e-01	 1.185921813580356e+01
 2.013399828676815e+00	 2.768842493486894e-01	 1.236350761002429e+01
 2.010894142760184e+00	 2.945310119727374e-01	 1.226294105288104e+01
 2.008225815369348e+00	 3.122064714793808e-01	 1.155324853329973e+01
 2.005393773601034e+00	 3.299085900416410e-01	 1.022408146392766e+01
 2.002396974555725e+00	 3.476352992821909e-01	 8.258841475595228e+00
 2.033873591492191e+00	 1.724619468545988e-01	-8.011494258959528e-03
 2.032312909476544e+00	 1.899711793583208e-01	 4.076167126708295e+00
 2.030595927923613e+00	 2.075208468455127e-01	 7.410043422914017e+00
 2.028721407297184e+00	 2.251090948224524e-01	 1.001457790780957e+01
 2.026688132808145e+00	 2.427340359374269e-01	 1.190684713301479e+01
 2.024494915314527e+00	 2.603937502765484e-01	 1.309991077544657e+01
 2.022140592221762e+00	 2.780862856859037e-01	 1.360267669565241e+01
 2.019624028382323e+00	 2.958096581203107e-01	 1.341976390617878e+01
 2.016944116993947e+00	 3.135618520189347e-01	 1.255136335183465e+01
 2.014099780495567e+00	 3.313408207079863e-01	 1.099309636426766e+01
 2.011089971460127e+00	 3.491444868306984e-01	 8.735870611586702e+00
 2.042665071277676e+00	 1.732074188101208e-01	-1.424828539559597e-01
 2.041097643167284e+00	 1.907923354980139e-01	 4.271073277550000e+00
 2.039373239910149e+00	 2.084178619507789e-01	 7.873413651597730e+00
 2.037490616612118e+00	 2.260821356585905e-01	 1.068177958581398e+01
 2.035448553233113e+00	 2.437832611116027e-01	 1.271125335439589e+01
 2.033245855491058e+00	 2.615193100970440e-01	 1.397466643372031e+01
 2.030881355766028e+00	 2.792883220227587e-01	 1.448250464372690e+01
 2.028353914003786e+00	 2.970883042674717e-01	 1.424281003598547e+01
 2.025662418617874e+00	 3.149172325580274e-01	 1.326107934040185e+01
 2.022805787389431e+00	 3.327730513738292e-01	 1.154015874114473e+01
 2.019782968363860e+00	 3.506536743786751e-01	 9.080134708836770e+00
 2.051456551062507e+00	 1.739528907653515e-01	-4.186363002905071e-01
 2.049882376857315e+00	 1.916134916374238e-01	 4.211539899681050e+00
 2.048150551895931e+00	 2.093148770557507e-01	 7.995516078629874e+00
 2.046259825926267e+00	 2.270551764944074e-01	 1.094576174545843e+01
 2.044208973657273e+00	 2.448324862854191e-01	 1.307467564567856e+01
 2.041996795666765e+00	 2.626448699171346e-01	 1.439454435219651e+01
 2.039622119309464e+00	 2.804903583591599e-01	 1.491749642879218e+01
 2.037083799624415e+00	 2.983669504141306e-01	 1.465545190929237e+01
 2.034380720240965e+00	 3.162726130965752e-01	 1.362006679435077e+01
 2.031511794282461e+00	 3.342052820390937e-01	 1.182267222434375e+01
 2.028475965266763e+00	 3.521628619260533e-01	 9.274207941425939e+00
 1.941545996220244e+00	 3.370709864334422e-01	 2.728705359736573e+00
 1.938480070102190e+00	 3.542778798651433e-01	 3.085109662840423e+00
 1.935252515464695e+00	 3.715045168219472e-01	 3.465389237795289e+00
 1.931862412471655e+00	 3.887488114390375e-01	 3.766662559226356e+00
 1.928308873731856e+00	 4.060086502667835e-01	 3.914131362715064e+00
 1.924591045131398e+00	 4.232818928181366e-01	 3.911634594105429e+00
 1.920708106657807e+00	 4.405663721427606e-01	 3.765767737910122e+00
 1.916659273214932e+00	 4.578598954278800e-01	 3.485921181629935e+00
 1.912443795427681e+00	 4.751602446257804e-01	 3.084316767670977e+00
 1.908060960435679e+00	 4.924651771078769e-01	 2.576042463806598e+00
 1.903510092674904e+00	 5.097724263452202e-01	 1.979085094175617e+00
 1.950238993124648e+00	 3.385801739837758e-01	 3.621946219658752e+00
 1.947159339757076e+00	 3.558641088411304e-01	 3.797540624203002e+00
 1.943917334201315e+00	 3.731678756223417e-01	 4.041221671796155e+00
 1.940512052502813e+00	 3.904893791234378e-01	 4.227925899022988e+00
 1.936942603297183e+00	 4.078264964321268e-01	 4.290101874867023e+00
 1.933208128646343e+00	 4.251770774776411e-01	 4.226857191592964e+00
 1.929307804866323e+00	 4.425389456074416e-01	 4.041169193671513e+00
 1.925240843345804e+00	 4.599098981907534e-01	 3.739949933626025e+00
 1.921006491354468e+00	 4.772877072488776e-01	 3.334108315832678e+00
 1.916604032840201e+00	 4.946701201121875e-01	 2.838609296467991e+00
 1.912032789214229e+00	 5.120548601036816e-01	 2.272530019677403e+00
 1.958931990029550e+00	 3.400893615340513e-01	 4.512884113712571e+00
 1.955838609412455e+00	 3.574503378169704e-01	 4.407650748805194e+00
 1.952582152938404e+00	 3.748312344225044e-01	 4.429965378423225e+00
 1.949161692534410e+00	 3.922299468075285e-01	 4.436575659461787e+00
 1.945576332862909e+00	 4.096443425970912e-01	 4.366969532933839e+00
 1.941825212161644e+00	 4.270722621367091e-01	 4.215801734104058e+00
 1.937907503075148e+00	 4.445115190716422e-01	 3.982355712642591e+00
 1.933822413476946e+00	 4.619599009531187e-01	 3.670628488294495e+00
 1.929569187281490e+00	 4.794151698714577e-01	 3.289412027573883e+00
 1.925147105244934e+00	 4.968750631159928e-01	 2.852370964375644e+00
 1.920555485753756e+00	 5.143372938616730e-01	 2.378116499914297e+00
 1.967624986934786e+00	 3.415985490842008e-01	 5.381935034081124e+00
 1.964517879068161e+00	 3.590365667926065e-01	 4.924897258632557e+00
 1.961246971675803e+00	 3.764945932223906e-01	 4.665162976999861e+00
 1.957811332566286e+00	 3.939705144912779e-01	 4.445504148085390e+00
 1.954210062428879e+00	 4.114621887616586e-01	 4.212025654221360e+00
 1.950442295677148e+00	 4.289674467953352e-01	 3.955196678144358e+00
 1.946507201284140e+00	 4.464840925353690e-01	 3.670522970799877e+00
 1.942403983608214e+00	 4.640099037149928e-01	 3.358644969586190e+00
 1.938131883208609e+00	 4.815426324935459e-01	 3.025432101168296e+00
 1.933690177649742e+00	 4.990800061193236e-01	 2.682073063794081e+00
 1.929078182293349e+00	 5.166197276192274e-01	 2.345161896994854e+00
 1.976317983840187e+00	 3.431077366341572e-01	 6.209839956039844e+00
 1.973197148724028e+00	 3.606227957679817e-01	 5.358555090488105e+00
 1.969911790413346e+00	 3.781579520219558e-01	 4.779784223778795e+00
 1.966460972598281e+00	 3.957110821746541e-01	 4.306692189065632e+00
 1.962843791994938e+00	 4.132800349258104e-01	 3.891398399741977e+00
 1.959059379192707e+00	 4.308626314535145e-01	 3.520442796265565e+00
 1.955106899493149e+00	 4.484566659986286e-01	 3.185461721078027e+00
 1.950985553739471e+00	 4.660599064763932e-01	 2.883292715672589e+00
 1.946694579135689e+00	 4.836700951151673e-01	 2.616075494049555e+00
 1.942233250054491e+00	 5.012849491222111e-01	 2.391348876754675e+00
 1.937600878832876e+00	 5.189021613763783e-01	 2.222143482884555e+00
 1.985010980745589e+00	 3.446169241838526e-01	 6.977658977933390e+00
 1.981876418379890e+00	 3.622090247430395e-01	 5.717722384408709e+00
 1.978576609150870e+00	 3.798213108211553e-01	 4.806238971955336e+00
 1.975110612630236e+00	 3.974516498576258e-01	 4.071229464458501e+00
 1.971477521560928e+00	 4.150978810895282e-01	 3.470078588299137e+00
 1.967676462708170e+00	 4.327578161112408e-01	 2.985642551312036e+00
 1.963706597702032e+00	 4.504292394614277e-01	 2.605588812063423e+00
 1.959567123870574e+00	 4.681099092373365e-01	 2.322501024553880e+00
 1.955257275062591e+00	 4.857975577363481e-01	 2.133980477231471e+00
 1.950776322459048e+00	 5.034898921246862e-01	 2.042743816886184e+00
 1.946123575372203e+00	 5.211845951331590e-01	 2.056716861230322e+00
 1.993703977650824e+00	 3.461261117332197e-01	 7.666765648463521e+00
 1.990555688035582e+00	 3.637952537177229e-01	 6.011325865950249e+00
 1.987241427888211e+00	 3.814846696199445e-01	 4.776389781668700e+00
 1.983760252661990e+00	 3.991922175401612e-01	 3.789334311308870e+00
 1.980111251126696e+00	 4.169157272527940e-01	 3.011944822167347e+00
 1.976293546223384e+00	 4.346530007685088e-01	 2.423628688004229e+00
 1.972306295910644e+00	 4.524018129237728e-01	 2.007977379842201e+00
 1.968148694001381e+00	 4.701599119978401e-01	 1.752865078763198e+00
 1.963819970989180e+00	 4.879250203571130e-01	 1.650544424907816e+00
 1.959319394863277e+00	 5.056948351267798e-01	 1.697739216632244e+00
 1.954646271911197e+00	 5.234670288896022e-01	 1.895733886854162e+00
 2.002396974555725e+00	 3.476352992821909e-01	 8.258841475595228e+00
 1.999234957690937e+00	 3.653814826919749e-01	 6.248126125567406e+00
 1.995906246625206e+00	 3.831480284182786e-01	 4.721564190627247e+00
 1.992409892693384e+00	 4.009327852222285e-01	 3.510372991141907e+00
 1.988744980692086e+00	 4.187335734155892e-01	 2.579787945288063e+00
 1.984910629738201e+00	 4.365481854253137e-01	 1.905992065642852e+00
 1.980905994118838e+00	 4.543743863856706e-01	 1.468386238129050e+00
 1.976730264131752e+00	 4.722099147579211e-01	 1.249675074113458e+00
 1.972382666915315e+00	 4.900524829774880e-01	 1.235950862474487e+00
 1.967862467267044e+00	 5.078997781285233e-01	 1.416775475871420e+00
 1.963168968449725e+00	 5.257494626457417e-01	 1.785260098181410e+00
 2.011089971460127e+00	 3.491444868306984e-01	 8.735870611586703e+00
 2.007914227345791e+00	 3.669677116657392e-01	 6.436722798201976e+00
 2.004571065361692e+00	 3.848113872161132e-01	 4.672566655626932e+00
 2.001059532724257e+00	 4.026733529037965e-01	 3.282878447804831e+00
 1.997378710256942e+00	 4.205514195778954e-01	 2.235334854177429e+00
 1.993527713252470e+00	 4.384433700816494e-01	 1.503108754896376e+00
 1.989505692326468e+00	 4.563469598471275e-01	 1.061288490935021e+00
 1.985311834261547e+00	 4.742599175175962e-01	 8.869445765711648e-01
 1.980945362840864e+00	 4.921799455974982e-01	 9.591957954116044e-01
 1.976405539670214e+00	 5.101047211299473e-01	 1.259274591262050e+00
 1.971691664987653e+00	 5.280318964016106e-01	 1.770591677341073e+00
 2.019782968363860e+00	 3.506536743786751e-01	 9.080134708836770e+00
 2.016593496999975e+00	 3.685539406389585e-01	 6.585559646086501e+00
 2.013235884097506e+00	 3.864747460134034e-01	 4.659690174877730e+00
 2.009709172754451e+00	 4.044139205848329e-01	 3.154568569074314e+00
 2.006012439821110e+00	 4.223692657396942e-01	 2.039271681047583e+00
 2.002144796766039e+00	 4.403385547375105e-01	 1.284166420842616e+00
 1.998105390533390e+00	 4.583195333081502e-01	 8.598993911979091e-01
 1.993893404390623e+00	 4.763099202768828e-01	 7.374381305111135e-01
 1.989508058765687e+00	 4.943074082171689e-01	 8.881133406924451e-01
 1.984948612072654e+00	 5.123096641310829e-01	 1.283662084968774e+00
 1.980214361524848e+00	 5.303143301572421e-01	 1.896271952167778e+00
 2.028475965266763e+00	 3.521628619260533e-01	 9.274207941425939e+00
 2.025272766653326e+00	 3.701401696115764e-01	 6.702929547667130e+00
 2.021900702832483e+00	 3.881381048101049e-01	 4.712727600713477e+00
 2.018358812783806e+00	 4.061544882653070e-01	 3.172363966915374e+00
 2.014646169384433e+00	 4.241871119009676e-01	 2.051266367973627e+00
 2.010761880278761e+00	 4.422337393928923e-01	 1.317190013675736e+00
 2.006705088739459e+00	 4.602921067687453e-01	 9.362034679942135e-01
 2.002474974518841e+00	 4.783599230357982e-01	 8.726981408098013e-01
 1.998070754689647e+00	 4.964348708365260e-01	 1.089400681641176e+00
 1.993491684474229e+00	 5.145146071319616e-01	 1.547388350788631e+00
 1.988737058061177e+00	 5.325967639126696e-01	 2.206107453848337e+00
 1.903510092674904e+00	 5.097724263452202e-01	 1.979085094175617e+00
 1.898790555060662e+00	 5.270797028569836e-01	 1.430303118930980e+00
 1.893901750988258e+00	 5.443846956905017e-01	 1.049769975792532e+00
 1.888843123834064e+00	 5.616850724935336e-01	 8.322073827525577e-01
 1.883614157263803e+00	 5.789784800624048e-01	 7.719715934469079e-01
 1.878214375937486e+00	 5.962625451515265e-01	 8.630656840925370e-01
 1.872643346196608e+00	 6.135348753077534e-01	 1.099154160759521e+00
 1.866900676732649e+00	 6.307930597291920e-01	 1.473580017228252e+00
 1.860986019235964e+00	 6.480346701480327e-01	 1.979384381098245e+00
 1.854899069024128e+00	 6.652572617369513e-01	 2.609328892656085e+00
 1.848639565648836e+00	 6.824583740385707e-01	 3.354798738090405e+00
 1.912032789214229e+00	 5.120548601036816e-01	 2.272530019677403e+00
 1.907292120539398e+00	 5.294396274917157e-01	 1.749757204450057e+00
 1.902381427539802e+00	 5.468221009766666e-01	 1.370376541604746e+00
 1.897300151099619e+00	 5.641999377635201e-01	 1.135364140181379e+00
 1.892047772572763e+00	 5.815707741124688e-01	 1.045006532736411e+00
 1.886623814490985e+00	 5.989322261520573e-01	 1.098900260062665e+00
 1.881027841254142e+00	 6.162818907172745e-01	 1.295953977039364e+00
 1.875259459801693e+00	 6.336173462122059e-01	 1.634393237216305e+00
 1.869318320264493e+00	 6.509361534968209e-01	 2.111768121782798e+00
 1.863204116595952e+00	 6.682358567974318e-01	 2.724963885984900e+00
 1.856916587181651e+00	 6.855139846403154e-01	 3.470214802693703e+00
 1.920555485753756e+00	 5.143372938616730e-01	 2.378116499914297e+00
 1.915793686018341e+00	 5.317995521260379e-01	 1.946781261597543e+00
 1.910861104091576e+00	 5.492595062625016e-01	 1.628539797239464e+00
 1.905757178365433e+00	 5.667148030332706e-01	 1.430147811274756e+00
 1.900481387882018e+00	 5.841630681623998e-01	 1.357456258053878e+00
 1.895033253044816e+00	 6.016019071525602e-01	 1.415400231086062e+00
 1.889412336312042e+00	 6.190289061268681e-01	 1.607990457655941e+00
 1.883618242871130e+00	 6.364416326953832e-01	 1.938307578615273e+00
 1.877650621293430e+00	 6.538376368458485e-01	 2.408499401960957e+00
 1.871509164168183e+00	 6.712144518582038e-01	 3.019781326945277e+00
 1.865193608714851e+00	 6.885695952423758e-01	 3.772440142771993e+00
 1.929078182293349e+00	 5.166197276192274e-01	 2.345161896994854e+00
 1.924295251497358e+00	 5.341594767599817e-01	 2.053540583597021e+00
 1.919340780643440e+00	 5.516969115480334e-01	 1.840793048035051e+00
 1.914214205631366e+00	 5.692296683028057e-01	 1.718983833734438e+00
 1.908915003191424e+00	 5.867553622122095e-01	 1.699165525816124e+00
 1.903442691598834e+00	 6.042715881530377e-01	 1.791358935215480e+00
 1.897796831370164e+00	 6.217759215365296e-01	 2.004535856538141e+00
 1.891977025940817e+00	 6.392659191787129e-01	 2.346604596529000e+00
 1.885982922322637e+00	 6.567391201950973e-01	 2.824398479740248e+00
 1.879814211740690e+00	 6.741930469192483e-01	 3.443667546984821e+00
 1.873470630248318e+00	 6.916252058447343e-01	 4.209073670303908e+00
 1.937600878832876e+00	 5.189021613763783e-01	 2.222143482884555e+00
 1.932796816976314e+00	 5.365194013935788e-01	 2.101662792740183e+00
 1.927820457195261e+00	 5.541343168332896e-01	 2.023407474160368e+00
 1.922671232897280e+00	 5.717445335721453e-01	 2.004284127951978e+00
 1.917348618500843e+00	 5.893476562619099e-01	 2.060187198398325e+00
 1.911852130152897e+00	 6.069412691534936e-01	 2.205972426484708e+00
 1.906181326428364e+00	 6.245229369462532e-01	 2.455432729998759e+00
 1.900335809010612e+00	 6.420902056621810e-01	 2.821276719371393e+00
 1.894315223351975e+00	 6.596406035445503e-01	 3.315110068864381e+00
 1.888119259313345e+00	 6.771716419805456e-01	 3.947419972727130e+00
 1.881747651781935e+00	 6.946808164473743e-01	 4.727562925081503e+00
 1.946123575372203e+00	 5.211845951331590e-01	 2.056716861230322e+00
 1.941298382455075e+00	 5.388793260268609e-01	 2.122249573292825e+00
 1.936300133746901e+00	 5.565717221182966e-01	 2.192397759464725e+00
 1.931128260163035e+00	 5.742593988413098e-01	 2.288447208255909e+00
 1.925782233810132e+00	 5.919399503115128e-01	 2.430777425446809e+00
 1.920261568706862e+00	 6.096109501539300e-01	 2.638830314786211e+00
 1.914565821486496e+00	 6.272699523560333e-01	 2.931081024118965e+00
 1.908694592080373e+00	 6.449144921457759e-01	 3.325011172746236e+00
 1.902647524381308e+00	 6.625420868941899e-01	 3.837084687725295e+00
 1.896424306886016e+00	 6.801502370420770e-01	 4.482726487995204e+00
 1.890024673315585e+00	 6.977364270502797e-01	 5.276304265507411e+00
 1.954646271911197e+00	 5.234670288896022e-01	 1.895733886854162e+00
 1.949799947933507e+00	 5.412392506598598e-01	 2.145888075712145e+00
 1.944779810298225e+00	 5.590091274030821e-01	 2.363527549947005e+00
 1.939585287428495e+00	 5.767742641103191e-01	 2.573858266713361e+00
 1.934215849119149e+00	 5.945322443610296e-01	 2.801390925277816e+00
 1.928671007260585e+00	 6.122806311543501e-01	 3.069906817943325e+00
 1.922950316544420e+00	 6.300169677658647e-01	 3.402425471002645e+00
 1.917053375149956e+00	 6.477387786294845e-01	 3.821174293441627e+00
 1.910979825410497e+00	 6.654435702439987e-01	 4.347560464313970e+00
 1.904729354458575e+00	 6.831288321038235e-01	 5.002145302199569e+00
 1.898301694849150e+00	 7.007920376534326e-01	 5.804621371767809e+00
 1.963168968449725e+00	 5.257494626457417e-01	 1.785260098181411e+00
 1.958301513411475e+00	 5.435991752926068e-01	 2.202662002163616e+00
 1.953259486849095e+00	 5.614465326876726e-01	 2.552314747022290e+00
 1.948042314693518e+00	 5.792891293791932e-01	 2.862889230319988e+00
 1.942649464427752e+00	 5.971245384104724e-01	 3.162676363320390e+00
 1.937080445813921e+00	 6.149503121547569e-01	 3.479552019528246e+00
 1.931334811601989e+00	 6.327639831757417e-01	 3.840943284515203e+00
 1.925412158219222e+00	 6.505630651132944e-01	 4.273796221684053e+00
 1.919312126439404e+00	 6.683450535939598e-01	 4.804545383254833e+00
 1.913034402030891e+00	 6.861074271657653e-01	 5.459085309704345e+00
 1.906578716382512e+00	 7.038476482568162e-01	 6.262744273978085e+00
 1.971691664987653e+00	 5.280318964016106e-01	 1.770591677341072e+00
 1.966803078888847e+00	 5.459590999251343e-01	 2.322162382980655e+00
 1.961739163399377e+00	 5.638839379720954e-01	 2.774036640583968e+00
 1.956499341957966e+00	 5.818039946479524e-01	 3.157898792383357e+00
 1.951083079735801e+00	 5.997168324598532e-01	 3.505471824667329e+00
 1.945489884366729e+00	 6.176199931551537e-01	 3.848483326200609e+00
 1.939719306659061e+00	 6.355109985856590e-01	 4.218632146444460e+00
 1.933770941288024e+00	 6.533873515971929e-01	 4.647555960206876e+00
 1.927644427467892e+00	 6.712465369440548e-01	 5.166799961547379e+00
 1.921339449602834e+00	 6.890860222278832e-01	 5.807786925314428e+00
 1.914855737915554e+00	 7.069032588604145e-01	 6.601788889417647e+00
 1.980214361524848e+00	 5.303143301572421e-01	 1.896271952167778e+00
 1.975304644365486e+00	 5.483190245574735e-01	 2.533498053378206e+00
 1.970218839948934e+00	 5.663213432563775e-01	 3.043734886688149e+00
 1.964956369221702e+00	 5.843188599166166e-01	 3.461232418877346e+00
 1.959516695043154e+00	 6.023091265091832e-01	 3.820800377898780e+00
 1.953899322918863e+00	 6.202896741555429e-01	 4.157777118555594e+00
 1.948103801715490e+00	 6.382580139956113e-01	 4.507998474334391e+00
 1.942129724356225e+00	 6.562116380811678e-01	 4.907766789081529e+00
 1.935976728495822e+00	 6.741480202942665e-01	 5.393820340098745e+00
 1.929644497174275e+00	 6.920646172901584e-01	 6.003303381540029e+00
 1.923132759448157e+00	 7.099588694642095e-01	 6.773737053515532e+00
 1.988737058061177e+00	 5.325967639126696e-01	 2.206107453848340e+00
 1.983806209841261e+00	 5.506789491896563e-01	 2.865305839411965e+00
 1.978698516497631e+00	 5.687587485405461e-01	 3.376220334521692e+00
 1.973413396484585e+00	 5.868337251852063e-01	 3.775222330518280e+00
 1.967950310349670e+00	 6.049014205584747e-01	 4.099865727440624e+00
 1.962308761470183e+00	 6.229593551559282e-01	 4.388860589676481e+00
 1.956488296771135e+00	 6.410050294055930e-01	 4.682045962541758e+00
 1.950488507423679e+00	 6.590359245652063e-01	 5.020362025640181e+00
 1.944309029523059e+00	 6.770495036445779e-01	 5.445821778574862e+00
 1.937949544745086e+00	 6.950432123525722e-01	 6.001482473786315e+00
 1.931409780980206e+00	 7.130144800681855e-01	 6.731417029775373e+00
 1.848639565648836e+00	 6.824583740385707e-01	 3.354798738090405e+00
 1.842206185021296e+00	 6.996384498972793e-01	 4.042538536417010e+00
 1.835599805270095e+00	 7.167920722575036e-01	 4.521739684576074e+00
 1.828820300762612e+00	 7.339167374421329e-01	 4.809596347907762e+00
 1.821867592329375e+00	 7.510099300408764e-01	 4.929508905168556e+00
 1.814741647752110e+00	 7.680691239473409e-01	 4.925875162166513e+00
 1.807442482225145e+00	 7.850917834154445e-01	 4.813904489131742e+00
 1.799970158789351e+00	 8.020753641344032e-01	 4.604018584584980e+00
 1.792324788737874e+00	 8.190173143215005e-01	 4.305073378915609e+00
 1.784506531992859e+00	 8.359150758318045e-01	 3.924320224401915e+00
 1.776515597452493e+00	 8.527660852839679e-01	 3.467365960344696e+00
 1.856916587181651e+00	 6.855139846403154e-01	 3.470214802693705e+00
 1.850454402004383e+00	 7.027709818526354e-01	 4.174080886298232e+00
 1.843818443124431e+00	 7.200014071247187e-01	 4.671708155550342e+00
 1.837008584346666e+00	 7.372027455695898e-01	 4.976331693026112e+00
 1.830024746147141e+00	 7.543724705145618e-01	 5.116177372588855e+00
 1.822866896163328e+00	 7.715080445429551e-01	 5.132325295693400e+00
 1.815535049657578e+00	 7.886069205552394e-01	 5.035538122201085e+00
 1.808029269953017e+00	 8.056665428488362e-01	 4.833796842656618e+00
 1.800349668841084e+00	 8.226843482157801e-01	 4.533177169396242e+00
 1.792496406959950e+00	 8.396577670574028e-01	 4.137809261435662e+00
 1.784469694143107e+00	 8.565842245151777e-01	 3.649836678769314e+00
 1.865193608714851e+00	 6.885695952423758e-01	 3.772440142771993e+00
 1.858702618987810e+00	 7.059035138082984e-01	 4.487156618877487e+00
 1.852037080979040e+00	 7.232107419922021e-01	 4.996435206666014e+00
 1.845196867930909e+00	 7.404887536972563e-01	 5.311058929694643e+00
 1.838181899965001e+00	 7.577350109883825e-01	 5.460743993420095e+00
 1.830992144574534e+00	 7.749469651386214e-01	 5.479193557563050e+00
 1.823627617089888e+00	 7.921220576950020e-01	 5.374052811464772e+00
 1.816088381116449e+00	 8.092577215631579e-01	 5.150874543042365e+00
 1.808374548943953e+00	 8.263513821098806e-01	 4.813083257965569e+00
 1.800486281926599e+00	 8.434004582827749e-01	 4.361934971971563e+00
 1.792423790833194e+00	 8.604023637461387e-01	 3.796476444877615e+00
 1.873470630248318e+00	 6.916252058447343e-01	 4.209073670303907e+00
 1.866950835971476e+00	 7.090360457642576e-01	 4.936020685800840e+00
 1.860255718833843e+00	 7.264200768599559e-01	 5.447676632048212e+00
 1.853385151515288e+00	 7.437747618251467e-01	 5.759108841940832e+00
 1.846339053782927e+00	 7.610975514623681e-01	 5.910034445672210e+00
 1.839117392985728e+00	 7.783858857343849e-01	 5.917036664900390e+00
 1.831720184522106e+00	 7.956371948347916e-01	 5.785176955911519e+00
 1.824147492279707e+00	 8.128489002774392e-01	 5.517596545831358e+00
 1.816399429046567e+00	 8.300184160038826e-01	 5.115200885814325e+00
 1.808476156892919e+00	 8.471431495080044e-01	 4.576621030414737e+00
 1.800377887522883e+00	 8.642205029769344e-01	 3.898174529775525e+00
 1.881747651781935e+00	 6.946808164473743e-01	 4.727562925081503e+00
 1.875199052955281e+00	 7.121685777205033e-01	 5.466441519473526e+00
 1.868474356688762e+00	 7.296294117279802e-01	 5.978061497120986e+00
 1.861573435099748e+00	 7.470607699532755e-01	 6.277782766102483e+00
 1.854496207600891e+00	 7.644600919365476e-01	 6.412695549238964e+00
 1.847242641396912e+00	 7.818248063302898e-01	 6.397301204652507e+00
 1.839812751954262e+00	 7.991523319746668e-01	 6.225438041414437e+00
 1.832206603442847e+00	 8.164400789917516e-01	 5.896990515843083e+00
 1.824424309149011e+00	 8.336854498978674e-01	 5.410480263301124e+00
 1.816466031859018e+00	 8.508858407331766e-01	 4.762164655361092e+00
 1.808331984212309e+00	 8.680386422076479e-01	 3.946000716753167e+00
 1.890024673315585e+00	 6.977364270502797e-01	 5.276304265507411e+00
 1.883447269939126e+00	 7.153011096770259e-01	 6.024938307593291e+00
 1.876692994543716e+00	 7.328387465962762e-01	 6.533598556285517e+00
 1.869761718684233e+00	 7.503467780816572e-01	 6.819576560719046e+00
 1.862653361418864e+00	 7.678226324109497e-01	 6.929706790085898e+00
 1.855367889808084e+00	 7.852637269263816e-01	 6.873877235014431e+00
 1.847905319386383e+00	 8.026674691146874e-01	 6.652145176867055e+00
 1.840265714605928e+00	 8.200312577061675e-01	 6.252751977054665e+00
 1.832449189251368e+00	 8.373524837919140e-01	 5.670400700848681e+00
 1.824455906825007e+00	 8.546285319583766e-01	 4.899228375986975e+00
 1.816286080901601e+00	 8.718567814383628e-01	 3.931201262642920e+00
 1.898301694849150e+00	 7.007920376534326e-01	 5.804621371767808e+00
 1.891695486922907e+00	 7.184336416338153e-01	 6.558989837188406e+00
 1.884911632398626e+00	 7.360480814648447e-01	 7.061264564495950e+00
 1.877950002268689e+00	 7.536327862103063e-01	 7.332444834501572e+00
 1.870810515236819e+00	 7.711851728856052e-01	 7.415014028570530e+00
 1.863493138219246e+00	 7.887026475227036e-01	 7.312815673533877e+00
 1.855997886818497e+00	 8.061826062549119e-01	 7.025594133040219e+00
 1.848324825769005e+00	 8.236224364207564e-01	 6.549229748311870e+00
 1.840474069353725e+00	 8.410195176861033e-01	 5.866959040150037e+00
 1.832445781790996e+00	 8.583712231836887e-01	 4.968832003142098e+00
 1.824240177590894e+00	 8.756749206691622e-01	 3.845194953629780e+00
 1.906578716382512e+00	 7.038476482568162e-01	 6.262744273978085e+00
 1.899943703906525e+00	 7.215661735908613e-01	 7.017012726510702e+00
 1.893130270253413e+00	 7.392574163336867e-01	 7.508982229872162e+00
 1.886138285853059e+00	 7.569187943392364e-01	 7.765237215457665e+00
 1.878967669054727e+00	 7.745477133605426e-01	 7.819550808725515e+00
 1.871618386630398e+00	 7.921415681193017e-01	 7.671247340627283e+00
 1.864090454250636e+00	 8.096977433953995e-01	 7.317618638421873e+00
 1.856383936932138e+00	 8.272136151355908e-01	 6.754085276711574e+00
 1.848498949456167e+00	 8.446865515805155e-01	 5.972658376558814e+00
 1.840435656757095e+00	 8.621139144091977e-01	 4.952344798924821e+00
 1.832194274280319e+00	 8.794930599001302e-01	 3.679569252643011e+00
 1.914855737915554e+00	 7.069032588604145e-01	 6.601788889417647e+00
 1.908191920889882e+00	 7.246987055481543e-01	 7.348340185096107e+00
 1.901348908107999e+00	 7.424667512028029e-01	 7.825887165763142e+00
 1.894326569437291e+00	 7.602048024684630e-01	 8.067678771458160e+00
 1.887124822872560e+00	 7.779102538357913e-01	 8.095089505808819e+00
 1.879743635041538e+00	 7.955804887162194e-01	 7.904308154151115e+00
 1.872183021682827e+00	 8.132128805362090e-01	 7.490107760722935e+00
 1.864443048095384e+00	 8.308047938507415e-01	 6.845824158905276e+00
 1.856523829558777e+00	 8.483535854752309e-01	 5.963335420875421e+00
 1.848425531723414e+00	 8.658566056349889e-01	 4.831477838734243e+00
 1.840148370970008e+00	 8.833111991313497e-01	 3.426076535558606e+00
 1.923132759448157e+00	 7.099588694642095e-01	 6.773737053515532e+00
 1.916440137872873e+00	 7.278312375056845e-01	 7.503201286080518e+00
 1.909567545962300e+00	 7.456760860721946e-01	 7.963201991812769e+00
 1.902514853021330e+00	 7.634908105979997e-01	 8.190350940949939e+00
 1.895281976690290e+00	 7.812727943113806e-01	 8.194223046503826e+00
 1.887868883452669e+00	 7.990194093135027e-01	 7.967896108128787e+00
 1.880275589115100e+00	 8.167280176773999e-01	 7.503562798914448e+00
 1.872502159258801e+00	 8.343959725662805e-01	 6.792520436762086e+00
 1.864548709661641e+00	 8.520206193703300e-01	 5.825161083938297e+00
 1.856415406690063e+00	 8.695992968611462e-01	 4.590961991972478e+00
 1.848102467660094e+00	 8.871293383629042e-01	 3.076630413535695e+00
 1.931409780980206e+00	 7.130144800681855e-01	 6.731417029775372e+00
 1.924688354855402e+00	 7.309637694634421e-01	 7.432700735404133e+00
 1.917786183816244e+00	 7.488854209418625e-01	 7.871827732936929e+00
 1.910703136605119e+00	 7.667768187278619e-01	 8.084672958509179e+00
 1.903439130507891e+00	 7.846353347873409e-01	 8.070347103830073e+00
 1.895994131863790e+00	 8.024583299111958e-01	 7.818654722532595e+00
 1.888368156547483e+00	 8.202431548190312e-01	 7.319151106612968e+00
 1.880561270422445e+00	 8.379871512822787e-01	 6.561144982776852e+00
 1.872573589764845e+00	 8.556876532658934e-01	 5.533700822221715e+00
 1.864405281657153e+00	 8.733419880877550e-01	 4.225640749092077e+00
 1.856056564350709e+00	 8.909474775948771e-01	 2.625546035686571e+00
 1.776515597452493e+00	 8.527660852839679e-01	 3.467365960344697e+00
 1.768353645352981e+00	 8.695649234165084e-01	 3.030615207278894e+00
 1.760019638626250e+00	 8.863118887738806e-01	 2.694388839904438e+00
 1.751513933443456e+00	 9.030044095506682e-01	 2.440624016515043e+00
 1.742836936002513e+00	 9.196399133193138e-01	 2.253227564028711e+00
 1.733989102717897e+00	 9.362158282216865e-01	 2.118096866383425e+00
 1.724970940377082e+00	 9.527295841709179e-01	 2.023135530605935e+00
 1.715783006263097e+00	 9.691786140624498e-01	 1.958263825905837e+00
 1.706425908242760e+00	 9.855603549931850e-01	 1.915423917488572e+00
 1.696900304820150e+00	 1.001872249487630e+00	 1.888579943133141e+00
 1.687206905154955e+00	 1.018111746729887e+00	 1.873713006777703e+00
 1.784469694143107e+00	 8.565842245151777e-01	 3.649836678769315e+00
 1.776271198060235e+00	 8.734582770636438e-01	 3.188034349376230e+00
 1.767899876999939e+00	 8.902802245839441e-01	 2.853166772702191e+00
 1.759356088728096e+00	 9.070474837557672e-01	 2.620895500068114e+00
 1.750640241261322e+00	 9.237574706338767e-01	 2.469280480692821e+00
 1.741752793057634e+00	 9.404076018450087e-01	 2.378812879625066e+00
 1.732694253173587e+00	 9.569952957950965e-01	 2.332442103452571e+00
 1.723465181387379e+00	 9.735179738857331e-01	 2.315597006231759e+00
 1.714066188287475e+00	 9.899730617387847e-01	 2.316201275731088e+00
 1.704497935326324e+00	 1.006357990428024e+00	 2.324683027804134e+00
 1.694761134838787e+00	 1.022670197716636e+00	 2.333978664329264e+00
 1.792423790833194e+00	 8.604023637461387e-01	 3.796476444877614e+00
 1.784188750766886e+00	 8.773516307105389e-01	 3.262471190401110e+00
 1.775780115372968e+00	 8.942485603938041e-01	 2.886400227417312e+00
 1.767198244012032e+00	 9.110905579607247e-01	 2.639014489319708e+00
 1.758443546519395e+00	 9.278750279483767e-01	 2.493757905108539e+00
 1.749516483396619e+00	 9.445993754683620e-01	 2.426809135314588e+00
 1.740417565969336e+00	 9.612610074194075e-01	 2.417117099084817e+00
 1.731147356510909e+00	 9.778573337092544e-01	 2.446430248616509e+00
 1.721706468331452e+00	 9.943857684847280e-01	 2.499319575875410e+00
 1.712095565831782e+00	 1.010843731368860e+00	 2.563195365396499e+00
 1.702315364521933e+00	 1.027228648703915e+00	 2.628317735763999e+00
 1.800377887522883e+00	 8.642205029769344e-01	 3.898174529775525e+00
 1.792106303473086e+00	 8.812449843572696e-01	 3.255633389378997e+00
 1.783660353745503e+00	 8.982168962035235e-01	 2.804861440117816e+00
 1.775040399295439e+00	 9.151336321655826e-01	 2.513046907894168e+00
 1.766246851776918e+00	 9.319925852628342e-01	 2.350232684390220e+00
 1.757280173735038e+00	 9.487911490917404e-01	 2.289363991871594e+00
 1.748140878764512e+00	 9.655267190438193e-01	 2.306329574720778e+00
 1.738829531633867e+00	 9.821966935329549e-01	 2.379996364244199e+00
 1.729346748374864e+00	 9.987984752309285e-01	 2.492237592933205e+00
 1.719693196336689e+00	 1.015329472310028e+00	 2.627954364137042e+00
 1.709869594204548e+00	 1.031787099691592e+00	 2.775090712833206e+00
 1.808331984212309e+00	 8.680386422076479e-01	 3.946000716753167e+00
 1.800023856178985e+00	 8.851383380039110e-01	 3.169218603167632e+00
 1.791540592117708e+00	 9.021852320131636e-01	 2.619152917856504e+00
 1.782882554578495e+00	 9.191767063703843e-01	 2.260760314724027e+00
 1.774050157034071e+00	 9.361101425772700e-01	 2.061882039326612e+00
 1.765043864073077e+00	 9.529829227151395e-01	 1.993294555465754e+00
 1.755864191559301e+00	 9.697924306682997e-01	 2.028753585183787e+00
 1.746511706756435e+00	 9.865360533567757e-01	 2.145031505636511e+00
 1.736987028417887e+00	 1.003211181977301e+00	 2.321948076634587e+00
 1.727290826841209e+00	 1.019815213251417e+00	 2.542394503108663e+00
 1.717423823886777e+00	 1.036345550679533e+00	 2.792350867168909e+00
 1.816286080901601e+00	 8.718567814383628e-01	 3.931201262642920e+00
 1.807941408884735e+00	 8.890316916505393e-01	 3.004914586500413e+00
 1.799420830489747e+00	 9.061535678227851e-01	 2.339711002175226e+00
 1.790724709861372e+00	 9.232197805751722e-01	 1.899630249221798e+00
 1.781853462291037e+00	 9.402276998917033e-01	 1.651496003319718e+00
 1.772807554410919e+00	 9.571746963385540e-01	 1.564966519184363e+00
 1.763587504353886e+00	 9.740581422928172e-01	 1.612578723598773e+00
 1.754193881878793e+00	 9.908754131806579e-01	 1.769785705503285e+00
 1.744627308460692e+00	 1.007623888723759e+00	 2.014987580874904e+00
 1.734888457345503e+00	 1.024300954192916e+00	 2.329555741052431e+00
 1.724978053568774e+00	 1.040904001667607e+00	 2.697850524023889e+00
 1.824240177590894e+00	 8.756749206691622e-01	 3.845194953629781e+00
 1.815858961590483e+00	 8.929250452972296e-01	 2.764399277696822e+00
 1.807301068861785e+00	 9.101219036324504e-01	 1.976809327147386e+00
 1.798566865144247e+00	 9.272628547799895e-01	 1.446846397693463e+00
 1.789656767547998e+00	 9.443452572061556e-01	 1.141485627260170e+00
 1.780571244748752e+00	 9.613664699619794e-01	 1.030303730970814e+00
 1.771310817148454e+00	 9.783238539173404e-01	 1.085520371970363e+00
 1.761876057001123e+00	 9.952147730045421e-01	 1.282033124983563e+00
 1.752267588503455e+00	 1.012036595470219e+00	 1.597446020570116e+00
 1.742486087849738e+00	 1.028786695134416e+00	 2.012091689203045e+00
 1.732532283250688e+00	 1.045462452655680e+00	 2.509047155360449e+00
 1.832194274280319e+00	 8.794930599001302e-01	 3.679569252643011e+00
 1.823776514296382e+00	 8.968183989440567e-01	 2.449340870473416e+00
 1.815181307233987e+00	 9.140902394422210e-01	 1.540562175163858e+00
 1.806409020427296e+00	 9.313059289848786e-01	 9.193185864258175e-01
 1.797460072805135e+00	 9.484628145206460e-01	 5.538909574523884e-01
 1.788334935086760e+00	 9.655582435854104e-01	 4.147974985769813e-01
 1.779034129943188e+00	 9.825895655418369e-01	 4.748296704585423e-01
 1.769558232123606e+00	 9.995541328283698e-01	 7.090820201080652e-01
 1.759907868546351e+00	 1.016449302216593e+00	 1.094975964204032e+00
 1.750083718354078e+00	 1.033272436075806e+00	 1.612277555327446e+00
 1.740086512932670e+00	 1.050020903643622e+00	 2.243109297776355e+00
 1.840148370970008e+00	 8.833111991313497e-01	 3.426076535558606e+00
 1.831694067002582e+00	 9.007117525910970e-01	 2.061397872277371e+00
 1.823061545606518e+00	 9.180585752521578e-01	 1.040927733556201e+00
 1.814251175710693e+00	 9.353490031898828e-01	 3.336826066922784e-01
 1.805263378062631e+00	 9.525803718351958e-01	-8.961120654456334e-02
 1.796098625425127e+00	 9.697500172088421e-01	-2.564843605147470e-01
 1.786757442738275e+00	 9.868552771662759e-01	-1.926967861374064e-01
 1.777240407246422e+00	 1.003893492652082e+00	 7.778443500846455e-02
 1.767548148589553e+00	 1.020862008962797e+00	 5.328016700643299e-01
 1.757681348858684e+00	 1.037758177016974e+00	 1.152017865889440e+00
 1.747640742614871e+00	 1.054579354631298e+00	 1.916922300567735e+00
 1.848102467660094e+00	 8.871293383629042e-01	 3.076630413535694e+00
 1.839611619709233e+00	 9.046051062384257e-01	 1.602219149547513e+00
 1.830941783979543e+00	 9.220269110623232e-01	 4.877112550438354e-01
 1.822093330994613e+00	 9.393920773950442e-01	-2.936941232598028e-01
 1.813066683320668e+00	 9.566979291498247e-01	-7.676997675297407e-01
 1.803862315764040e+00	 9.739417908322702e-01	-9.588887165155836e-01
 1.794480755533899e+00	 9.911209887906253e-01	-8.907075164679579e-01
 1.784922582369755e+00	 1.008232852475620e+00	-5.854543698948627e-01
 1.775188428633234e+00	 1.025274715708745e+00	-6.427212611164745e-02
 1.765278979363722e+00	 1.042243917957811e+00	 6.528539730232327e-01
 1.755194972297440e+00	 1.059137805618577e+00	 1.547093909045374e+00
 1.856056564350709e+00	 8.909474775948771e-01	 2.625546035686570e+00
 1.847529172416486e+00	 9.084984598861181e-01	 1.073443960294889e+00
 1.838822022353228e+00	 9.259952468727786e-01	-1.094318751097886e-01
 1.829935486279233e+00	 9.434351516004069e-01	-9.467070543506286e-01
 1.820869988579429e+00	 9.608154864645534e-01	-1.459401993324105e+00
 1.811626006103686e+00	 9.781335644556893e-01	-1.668168564682331e+00
 1.802204068330247e+00	 9.953867004148540e-01	-1.593286977360169e+00
 1.792604757493784e+00	 1.012572212298924e+00	-1.254666746776815e+00
 1.782828708677572e+00	 1.029687422454352e+00	-6.718516646245616e-01
 1.772876609869356e+00	 1.046729658898207e+00	 1.359713527712425e-01
 1.762749201980530e+00	 1.063696256605328e+00	 1.149959688045872e+00
 1.687206905154955e+00	 1.018111746729887e+00	 1.873713006777704e+00
 1.677346469453000e+00	 1.034276304122572e+00	 1.865216129065388e+00
 1.667319810129224e+00	 1.050363389513653e+00	 1.867922404712155e+00
 1.657127790482340e+00	 1.066370481506641e+00	 1.894823098210018e+00
 1.646771324157903e+00	 1.082295070385765e+00	 1.958656832380749e+00
 1.636251374984289e+00	 1.098134659358124e+00	 2.071854544678180e+00
 1.625568956772238e+00	 1.113886765794420e+00	 2.246563153819030e+00
 1.614725133077868e+00	 1.129548922467025e+00	 2.497996908372803e+00
 1.603721016929166e+00	 1.145118678784137e+00	 2.840268125399135e+00
 1.592557770515995e+00	 1.160593602018781e+00	 3.285764037663216e+00
 1.581236604843679e+00	 1.175971278531404e+00	 3.846734079918356e+00
 1.694761134838787e+00	 1.022670197716636e+00	 2.333978664329264e+00
 1.684856550434408e+00	 1.038907129623116e+00	 2.321427454629641e+00
 1.674784998165587e+00	 1.055066242658078e+00	 2.282649435991638e+00
 1.664547345196320e+00	 1.071145004135839e+00	 2.239409167972321e+00
 1.654144509262857e+00	 1.087140893103726e+00	 2.212783126288862e+00
 1.643577458508968e+00	 1.103051401589804e+00	 2.223088247218426e+00
 1.632847211284564e+00	 1.118874035849150e+00	 2.290369057883912e+00
 1.621954835907669e+00	 1.134606317607475e+00	 2.437097621916169e+00
 1.610901450389679e+00	 1.150245785300797e+00	 2.682777677761273e+00
 1.599688222123976e+00	 1.165789995309950e+00	 3.045740429419328e+00
 1.588316367537974e+00	 1.181236523188651e+00	 3.543660135084873e+00
 1.702315364521933e+00	 1.027228648703915e+00	 2.628317735763999e+00
 1.692366631415170e+00	 1.043537955124262e+00	 2.649781704293628e+00
 1.682250186201349e+00	 1.059769095803164e+00	 2.607456898913103e+00
 1.671966899909744e+00	 1.075919526765739e+00	 2.530178048639604e+00
 1.661517694367309e+00	 1.091986715822421e+00	 2.445741660223931e+00
 1.650903542033195e+00	 1.107968143822233e+00	 2.380820901859990e+00
 1.640125465796491e+00	 1.123861305904635e+00	 2.362218105771809e+00
 1.629184538737123e+00	 1.139663712748673e+00	 2.417420815722473e+00
 1.618081883849891e+00	 1.155372891818188e+00	 2.570649328882705e+00
 1.606818673731701e+00	 1.170986388601824e+00	 2.845025876231091e+00
 1.595396130232051e+00	 1.186501767846565e+00	 3.262596781313320e+00
 1.709869594204548e+00	 1.031787099691592e+00	 2.775090712833206e+00
 1.699876712395419e+00	 1.048168780625861e+00	 2.862777535453775e+00
 1.689715374236622e+00	 1.064471948948745e+00	 2.850087208101397e+00
 1.679386454622709e+00	 1.080694049396168e+00	 2.771243545537628e+00
 1.668890879471329e+00	 1.096832538541664e+00	 2.659166546265515e+00
 1.658229625557020e+00	 1.112884886055224e+00	 2.545397293060446e+00
 1.647403720308047e+00	 1.128848575960685e+00	 2.462162012087588e+00
 1.636414241566234e+00	 1.144721107890431e+00	 2.440101078819800e+00
 1.625262317309789e+00	 1.160499998336127e+00	 2.507326353356620e+00
 1.613949125339137e+00	 1.176182781894224e+00	 2.690615270679374e+00
 1.602475892925860e+00	 1.191767012504980e+00	 3.015349698091128e+00
 1.717423823886777e+00	 1.036345550679533e+00	 2.792350867168909e+00
 1.707386793375291e+00	 1.052799606127761e+00	 2.972708838286750e+00
 1.697180562271525e+00	 1.069174802094656e+00	 3.018160989209178e+00
 1.686806009335308e+00	 1.085468572026947e+00	 2.966660796979800e+00
 1.676264064574992e+00	 1.101678361261275e+00	 2.854676127038478e+00
 1.665555709080496e+00	 1.117801628288591e+00	 2.717338340896158e+00
 1.654681974819259e+00	 1.133835846017113e+00	 2.590265164159335e+00
 1.643643944395010e+00	 1.149778503032563e+00	 2.506266006828859e+00
 1.632442750769359e+00	 1.165627104854430e+00	 2.496203821870998e+00
 1.621079576946250e+00	 1.181379175186976e+00	 2.589392250247001e+00
 1.609555655619353e+00	 1.197032257163728e+00	 2.813528137011071e+00
 1.724978053568774e+00	 1.040904001667607e+00	 2.697850524023888e+00
 1.714896874354919e+00	 1.057430431629812e+00	 2.991668726567434e+00
 1.704645750306170e+00	 1.073877655240733e+00	 3.119179213165600e+00
 1.694225564047638e+00	 1.090243094657903e+00	 3.120426986774958e+00
 1.683637249678369e+00	 1.106524183981068e+00	 3.033872709489702e+00
 1.672881792603672e+00	 1.122718370522144e+00	 2.896916826531919e+00
 1.661960229330158e+00	 1.138823116073728e+00	 2.746603675212646e+00
 1.650873647223457e+00	 1.154835898174882e+00	 2.617035655295940e+00
 1.639623184228585e+00	 1.170754211372916e+00	 2.540628927538325e+00
 1.628210028553009e+00	 1.186575568479903e+00	 2.548130876066766e+00
 1.616635418312479e+00	 1.202297501822644e+00	 2.668548438600991e+00
 1.732532283250688e+00	 1.045462452655680e+00	 2.509047155360450e+00
 1.722406955334436e+00	 1.062061257131862e+00	 2.931553407020281e+00
 1.712110938340675e+00	 1.078580508386809e+00	 3.160525256991531e+00
 1.701645118759792e+00	 1.095017617288860e+00	 3.236482019962394e+00
 1.691010434781536e+00	 1.111370006700862e+00	 3.198342528437664e+00
 1.680207876126600e+00	 1.127635112755698e+00	 3.084340089660772e+00
 1.669238483840770e+00	 1.143810386130344e+00	 2.931264440425831e+00
 1.658103350051580e+00	 1.159893293317201e+00	 2.773521985029251e+00
 1.646803617687455e+00	 1.175881317891402e+00	 2.643901280995417e+00
 1.635340480159378e+00	 1.191771961772831e+00	 2.573497244678281e+00
 1.623715181005190e+00	 1.207562746481559e+00	 2.591637433711146e+00
 1.740086512932670e+00	 1.050020903643622e+00	 2.243109297776356e+00
 1.729917036313979e+00	 1.066692082633762e+00	 2.804065930893979e+00
 1.719576126375154e+00	 1.083283361532720e+00	 3.149466893411654e+00
 1.709064673471866e+00	 1.099792139919640e+00	 3.318709162890850e+00
 1.698383619884564e+00	 1.116215829420472e+00	 3.349721527126273e+00
 1.687533959649329e+00	 1.132551854989064e+00	 3.279823937420738e+00
 1.676516738351125e+00	 1.148797656186771e+00	 3.144344195777896e+00
 1.665333052879389e+00	 1.164950688459332e+00	 2.976828299681732e+00
 1.653984051145953e+00	 1.181008424409705e+00	 2.809273175222389e+00
 1.642470931765327e+00	 1.196968355065582e+00	 2.672051034829740e+00
 1.630794943697434e+00	 1.212827991140307e+00	 2.593835732967915e+00
 1.747640742614871e+00	 1.054579354631298e+00	 1.916922300567735e+00
 1.737427117293680e+00	 1.071322908135361e+00	 2.620719831322887e+00
 1.727041314409724e+00	 1.087986214678301e+00	 3.093158211417252e+00
 1.716484228183955e+00	 1.104566662550068e+00	 3.370935648718812e+00
 1.705756804987528e+00	 1.121061652139717e+00	 3.489530958139092e+00
 1.694860043171911e+00	 1.137468597222056e+00	 3.483591767934259e+00
 1.683794992861250e+00	 1.153784926242821e+00	 3.385948579604586e+00
 1.672562755706888e+00	 1.170008083601091e+00	 3.228048675814572e+00
 1.661164484604067e+00	 1.186135530927643e+00	 3.039949820996978e+00
 1.649601383370821e+00	 1.202164748357982e+00	 2.850246991289980e+00
 1.637874706389165e+00	 1.218093235798722e+00	 2.686000907679917e+00
 1.755194972297440e+00	 1.059137805618577e+00	 1.547093909045374e+00
 1.744937198273674e+00	 1.075953733636508e+00	 2.392842649914745e+00
 1.734506502444499e+00	 1.092689067823387e+00	 2.998641469859062e+00
 1.723903782896154e+00	 1.109341185179969e+00	 3.396933249377911e+00
 1.713129990090498e+00	 1.125907474858411e+00	 3.619187638623123e+00
 1.702186126694397e+00	 1.142385339454485e+00	 3.695873695289580e+00
 1.691073247371174e+00	 1.158772196298307e+00	 3.656191196781132e+00
 1.679792458534083e+00	 1.175065478742289e+00	 3.528267385668262e+00
 1.668344918061780e+00	 1.191262637445034e+00	 3.339089553868578e+00
 1.656731834975827e+00	 1.207361141649855e+00	 3.114436347568634e+00
 1.644954469080330e+00	 1.223358480456637e+00	 2.878810565467860e+00
 1.762749201980530e+00	 1.063696256605328e+00	 1.149959688045872e+00
 1.752447279254096e+00	 1.080584559137052e+00	 2.131579355887181e+00
 1.741971690479596e+00	 1.097391920967813e+00	 2.872848886078143e+00
 1.731323337608558e+00	 1.114115707809167e+00	 3.400418802853406e+00
 1.720503175193552e+00	 1.130753297576373e+00	 3.740094709846749e+00
 1.709512210216838e+00	 1.147302081686165e+00	 3.916905675920245e+00
 1.698351501880926e+00	 1.163759466353038e+00	 3.955192685452428e+00
 1.687022161360983e+00	 1.180122873882741e+00	 3.878558312859461e+00
 1.675525351519082e+00	 1.196389743961696e+00	 3.709804013506849e+00
 1.663862286580313e+00	 1.212557534941026e+00	 3.470868189376772e+00
 1.652034231770882e+00	 1.228623725113884e+00	 3.182765323775633e+00
 1.581236604843679e+00	 1.175971278531404e+00	 3.846734079918356e+00
 1.569756815835507e+00	 1.191251902350693e+00	 4.422048956208398e+00
 1.558121628340282e+00	 1.206430470476242e+00	 4.895375026716071e+00
 1.546332404585625e+00	 1.221504623834564e+00	 5.255322642641080e+00
 1.534390553932164e+00	 1.236472027217100e+00	 5.489125399117222e+00
 1.522297532345219e+00	 1.251330370457584e+00	 5.582637383190750e+00
 1.510054841831539e+00	 1.266077369595616e+00	 5.520333270211618e+00
 1.497664029841520e+00	 1.280710768025226e+00	 5.285311396097337e+00
 1.485126688637370e+00	 1.295228337627252e+00	 4.859299921343755e+00
 1.472444454627765e+00	 1.309627879884325e+00	 4.220075974710154e+00
 1.459619007669536e+00	 1.323907226977324e+00	 3.336854198961629e+00
 1.588316367537974e+00	 1.181236523188651e+00	 3.543660135084873e+00
 1.576785179402541e+00	 1.196585563834321e+00	 4.075750383224236e+00
 1.565097897005287e+00	 1.211832091846338e+00	 4.520225353742267e+00
 1.553255888673019e+00	 1.226973737588806e+00	 4.862564687380180e+00
 1.541260570076582e+00	 1.242008155397609e+00	 5.087623493008773e+00
 1.529113403700177e+00	 1.256933024763047e+00	 5.179635410614704e+00
 1.516815898275585e+00	 1.271746051498620e+00	 5.122217510900049e+00
 1.504369608181692e+00	 1.286444968894735e+00	 4.898377150105589e+00
 1.491776132809844e+00	 1.301027538856150e+00	 4.490520888849579e+00
 1.479037115895506e+00	 1.315491553021954e+00	 3.880263518213754e+00
 1.466154244816837e+00	 1.329834833866933e+00	 3.040363705268813e+00
 1.595396130232051e+00	 1.186501767846565e+00	 3.262596781313320e+00
 1.583813542969390e+00	 1.201919225318573e+00	 3.729387132512260e+00
 1.572074165670134e+00	 1.217233713217009e+00	 4.125880563601680e+00
 1.560179372760274e+00	 1.232442851343566e+00	 4.435240684399318e+00
 1.548130586220875e+00	 1.247544283578577e+00	 4.640655395771717e+00
 1.535929275055025e+00	 1.262535679068910e+00	 4.725344359963186e+00
 1.523576954719528e+00	 1.277414733401964e+00	 4.672567437357836e+00
 1.511075186521768e+00	 1.292179169764523e+00	 4.465634202282383e+00
 1.498425576982225e+00	 1.306826740085268e+00	 4.087914642130832e+00
 1.485629777163158e+00	 1.321355226159749e+00	 3.522851134700583e+00
 1.472689481964054e+00	 1.335762440756658e+00	 2.750836310474412e+00
 1.602475892925860e+00	 1.191767012504980e+00	 3.015349698091128e+00
 1.590841906535989e+00	 1.207252886803293e+00	 3.399583129761946e+00
 1.579050434334744e+00	 1.222635334588108e+00	 3.732519146145977e+00
 1.567102856847306e+00	 1.237911965098715e+00	 3.995809895735851e+00
 1.555000602364956e+00	 1.253080411759889e+00	 4.171678178729762e+00
 1.542745146409667e+00	 1.268138333375069e+00	 4.242927926971249e+00
 1.530338011163272e+00	 1.283083415305555e+00	 4.192954920820243e+00
 1.517780764861653e+00	 1.297913370634511e+00	 4.005757852393536e+00
 1.505075021154423e+00	 1.312625941314540e+00	 3.665949837502523e+00
 1.492222438430636e+00	 1.327218899297652e+00	 3.158770470430703e+00
 1.479224719111105e+00	 1.341690047646450e+00	 2.469881936672147e+00
 1.609555655619353e+00	 1.197032257163728e+00	 2.813528137011071e+00
 1.597870270102277e+00	 1.212586548288325e+00	 3.102680605866469e+00
 1.586026702999048e+00	 1.228036955959495e+00	 3.359974904792765e+00
 1.574026340934035e+00	 1.243381078854122e+00	 3.566346362678577e+00
 1.561870618508737e+00	 1.258616539941428e+00	 3.703745780767812e+00
 1.549561017764014e+00	 1.273740987681423e+00	 3.755151534216651e+00
 1.537099067606728e+00	 1.288752097209307e+00	 3.704581320835897e+00
 1.524486343201255e+00	 1.303647571504623e+00	 3.537103666105013e+00
 1.511724465326346e+00	 1.318425142543899e+00	 3.238849287379136e+00
 1.498815099697849e+00	 1.333082572435607e+00	 2.797022412947963e+00
 1.485759956257906e+00	 1.347617654536259e+00	 2.199912143310321e+00
 1.616635418312479e+00	 1.202297501822644e+00	 2.668548438600991e+00
 1.604898633668189e+00	 1.217920209773513e+00	 2.854745455254687e+00
 1.593002971662969e+00	 1.233438577331024e+00	 3.027743670056770e+00
 1.580949825020376e+00	 1.248850192609657e+00	 3.168546484289600e+00
 1.568740634652129e+00	 1.264152668123079e+00	 3.259516958093367e+00
 1.556376889117973e+00	 1.279343641987868e+00	 3.284390155194413e+00
 1.543860124049799e+00	 1.294420779113129e+00	 3.228284683922547e+00
 1.531191921540481e+00	 1.309381772374784e+00	 3.077713546057229e+00
 1.518373909497903e+00	 1.324224343773282e+00	 2.820594399549674e+00
 1.505407760964712e+00	 1.338946245573559e+00	 2.446259334550823e+00
 1.492295193404373e+00	 1.353545261426035e+00	 1.945464254496414e+00
 1.623715181005190e+00	 1.207562746481559e+00	 2.591637433711146e+00
 1.611926997233663e+00	 1.223253871258701e+00	 2.671572430256170e+00
 1.599979240326434e+00	 1.238840198702553e+00	 2.754989813328513e+00
 1.587873309106248e+00	 1.254319306365189e+00	 2.823736373230071e+00
 1.575610650795045e+00	 1.269688796304723e+00	 2.861263001293771e+00
 1.563192760471453e+00	 1.284946296294302e+00	 2.852635908697779e+00
 1.550621180492393e+00	 1.300089461016934e+00	 2.784546728633313e+00
 1.537897499879237e+00	 1.315115973244915e+00	 2.645321618610460e+00
 1.525023353669004e+00	 1.330023545002623e+00	 2.424929474596026e+00
 1.512000422231134e+00	 1.344809918711451e+00	 2.114989362427603e+00
 1.498830430550423e+00	 1.359472868315728e+00	 1.708777264600421e+00
 1.630794943697434e+00	 1.212827991140307e+00	 2.593835732967915e+00
 1.618955360798635e+00	 1.228587532743732e+00	 2.568690176482222e+00
 1.606955508989369e+00	 1.244241820073938e+00	 2.560552566970809e+00
 1.594796793191571e+00	 1.259788420120589e+00	 2.552878995657621e+00
 1.582480666937397e+00	 1.275224924486247e+00	 2.530875226761024e+00
 1.570008631824363e+00	 1.290548950600624e+00	 2.481505430486324e+00
 1.557382236934418e+00	 1.305758142920632e+00	 2.393499623524307e+00
 1.544603078217432e+00	 1.320850174114942e+00	 2.257359941863483e+00
 1.531672797839558e+00	 1.335822746231854e+00	 2.065365865766070e+00
 1.518593083497030e+00	 1.350673591849224e+00	 1.811578510599122e+00
 1.505365667695974e+00	 1.365400475205287e+00	 1.491844089911753e+00
 1.637874706389165e+00	 1.218093235798722e+00	 2.686000907679917e+00
 1.625983724363042e+00	 1.233921194228452e+00	 2.561366114033326e+00
 1.613931777651700e+00	 1.249643441445034e+00	 2.462952156594020e+00
 1.601720277276259e+00	 1.265257533875727e+00	 2.376581101729323e+00
 1.589350683079096e+00	 1.280761052667533e+00	 2.289872249311888e+00
 1.576824503176610e+00	 1.296151604906731e+00	 2.192247028980323e+00
 1.564143293375780e+00	 1.311426824824133e+00	 2.074932564290685e+00
 1.551308656554971e+00	 1.326584374984788e+00	 1.930964040353888e+00
 1.538322242009472e+00	 1.341621947460913e+00	 1.755186005463985e+00
 1.525185744762312e+00	 1.356537264986825e+00	 1.544252730877946e+00
 1.511900904840941e+00	 1.371328082094663e+00	 1.296627745373180e+00
 1.644954469080330e+00	 1.223358480456637e+00	 2.878810565467860e+00
 1.633012087926821e+00	 1.239254855712704e+00	 2.664611169178283e+00
 1.620908046313353e+00	 1.255045062815700e+00	 2.480395751168226e+00
 1.608643761360232e+00	 1.270726647630473e+00	 2.315099953018813e+00
 1.596220699220055e+00	 1.286297180848464e+00	 2.159407042595336e+00
 1.583640374528104e+00	 1.301754259212521e+00	 2.005747631488484e+00
 1.570904349816387e+00	 1.317095506727351e+00	 1.848298156121905e+00
 1.558014234891763e+00	 1.332318575854376e+00	 1.682978271662065e+00
 1.544971686178657e+00	 1.347421148689733e+00	 1.507447302376672e+00
 1.531778406026890e+00	 1.362400938124194e+00	 1.321099885284664e+00
 1.518436141985242e+00	 1.377255688983805e+00	 1.125060935890683e+00
 1.652034231770882e+00	 1.228623725113884e+00	 3.182765323775633e+00
 1.640040451489909e+00	 1.244588517196332e+00	 2.893184360990648e+00
 1.627884314974253e+00	 1.260446684185791e+00	 2.630783236437914e+00
 1.615567245443407e+00	 1.276195761384695e+00	 2.388349852940208e+00
 1.603090715360185e+00	 1.291833309028926e+00	 2.160273793654022e+00
 1.590456245878753e+00	 1.307356913517891e+00	 1.942539527253150e+00
 1.577665406256145e+00	 1.322764188630196e+00	 1.732718607119983e+00
 1.564719813227715e+00	 1.338052776723630e+00	 1.529961029962223e+00
 1.551621130347021e+00	 1.353220349918248e+00	 1.334985913117953e+00
 1.538371067290680e+00	 1.368264611261278e+00	 1.150071642278085e+00
 1.524971379128793e+00	 1.383183295872664e+00	 9.790456325095439e-01
 1.459619007669536e+00	 1.323907226977324e+00	 3.336854198961630e+00
 1.446654282552467e+00	 1.338061850794431e+00	 2.352229430165978e+00
 1.433549855706123e+00	 1.352092105920942e+00	 1.433667340066469e+00
 1.420307508804248e+00	 1.365995947141896e+00	 5.927758557584890e-01
 1.406929063831782e+00	 1.379771364094519e+00	-1.568461449127810e-01
 1.393416382243579e+00	 1.393416382243579e+00	-7.996139922821677e-01
 1.379771364094519e+00	 1.406929063831782e+00	-1.317967829228652e+00
 1.365995947141896e+00	 1.420307508804248e+00	-1.692388712579715e+00
 1.352092105920941e+00	 1.433549855706123e+00	-1.901420237356415e+00
 1.338061850794431e+00	 1.446654282552468e+00	-1.921695683517467e+00
 1.323907226977324e+00	 1.459619007669536e+00	-1.727970658545543e+00
 1.466154244816837e+00	 1.329834833866933e+00	 3.040363705268813e+00
 1.453131471981090e+00	 1.344052833005293e+00	 2.126015216249977e+00
 1.439968371921361e+00	 1.358145906609932e+00	 1.315903762364698e+00
 1.426666734288595e+00	 1.372112000308721e+00	 6.177290304649422e-01
 1.413228389225423e+00	 1.385949094737759e+00	 4.047607272398496e-02
 1.399655206521105e+00	 1.399655206521105e+00	-4.055826360041330e-01
 1.385949094737759e+00	 1.413228389225422e+00	-7.088896666896729e-01
 1.372112000308721e+00	 1.426666734288596e+00	-8.566096972822423e-01
 1.358145906609932e+00	 1.439968371921361e+00	-8.346412088942989e-01
 1.344052833005293e+00	 1.453131471981090e+00	-6.276328346018356e-01
 1.329834833866932e+00	 1.466154244816837e+00	-2.190043534395900e-01
 1.472689481964054e+00	 1.335762440756658e+00	 2.750836310474412e+00
 1.459608661409634e+00	 1.350043815216231e+00	 1.930228746704324e+00
 1.446386888136528e+00	 1.364199707298964e+00	 1.242350134846338e+00
 1.433025959772882e+00	 1.378228053475556e+00	 6.913730935448408e-01
 1.419527714619014e+00	 1.392126825380985e+00	 2.821410323079141e-01
 1.405894030798598e+00	 1.405894030798598e+00	 2.017676092838067e-02
 1.392126825380985e+00	 1.419527714619015e+00	-8.831263807073908e-02
 1.378228053475556e+00	 1.433025959772882e+00	-3.643475469827326e-02
 1.364199707298963e+00	 1.446386888136529e+00	 1.833853280819263e-01
 1.350043815216230e+00	 1.459608661409634e+00	 5.793983050186029e-01
 1.335762440756657e+00	 1.472689481964054e+00	 1.160520000554566e+00
 1.479224719111105e+00	 1.341690047646450e+00	 2.469881936672147e+00
 1.466085850838023e+00	 1.356034797427197e+00	 1.759533025098946e+00
 1.452805404351552e+00	 1.370253507987989e+00	 1.201810344537726e+00
 1.439385185257041e+00	 1.384344106642355e+00	 7.977334004753962e-01
 1.425827040012498e+00	 1.398304556024148e+00	 5.484681091013737e-01
 1.412132855076003e+00	 1.412132855076003e+00	 4.553413006407109e-01
 1.398304556024148e+00	 1.425827040012498e+00	 5.198521447572938e-01
 1.384344106642355e+00	 1.439385185257041e+00	 7.436804045706273e-01
 1.370253507987989e+00	 1.452805404351553e+00	 1.128691448249946e+00
 1.356034797427197e+00	 1.466085850838023e+00	 1.676937970036089e+00
 1.341690047646450e+00	 1.479224719111105e+00	 2.390658395734718e+00
 1.485759956257906e+00	 1.347617654536259e+00	 2.199912143310321e+00
 1.472563040266178e+00	 1.362025779638146e+00	 1.608711070881713e+00
 1.459223920566363e+00	 1.376307308676963e+00	 1.183311918459727e+00
 1.445744410741009e+00	 1.390460159809072e+00	 9.211434411048903e-01
 1.432126365405813e+00	 1.404482286667198e+00	 8.201503166436227e-01
 1.418371679353267e+00	 1.418371679353267e+00	 8.780083909901224e-01
 1.404482286667198e+00	 1.432126365405813e+00	 1.092141875315561e+00
 1.390460159809072e+00	 1.445744410741010e+00	 1.459737890341380e+00
 1.376307308676963e+00	 1.459223920566363e+00	 1.977758274618373e+00
 1.362025779638146e+00	 1.472563040266179e+00	 2.642948595986568e+00
 1.347617654536259e+00	 1.485759956257906e+00	 3.451175321657356e+00
 1.492295193404373e+00	 1.353545261426035e+00	 1.945464254496414e+00
 1.479040229694022e+00	 1.368016761849031e+00	 1.472664931145816e+00
 1.465642436780887e+00	 1.382361109365842e+00	 1.176102778879449e+00
 1.452103636224718e+00	 1.396576212975658e+00	 1.046239754736507e+00
 1.438425690798901e+00	 1.410660017310085e+00	 1.078247794934219e+00
 1.424610503630336e+00	 1.424610503630336e+00	 1.266688216719690e+00
 1.410660017310085e+00	 1.438425690798901e+00	 1.605533912802732e+00
 1.396576212975658e+00	 1.452103636224718e+00	 2.088189284407114e+00
 1.382361109365842e+00	 1.465642436780888e+00	 2.707507819169618e+00
 1.368016761849031e+00	 1.479040229694022e+00	 3.455807242159685e+00
 1.353545261426034e+00	 1.492295193404373e+00	 4.320729989994766e+00
 1.498830430550423e+00	 1.359472868315728e+00	 1.708777264600420e+00
 1.485517419121476e+00	 1.374007744059806e+00	 1.347252481671957e+00
 1.472060952995053e+00	 1.388414910054578e+00	 1.169648110664190e+00
 1.458462861708104e+00	 1.402692266142069e+00	 1.157957005553601e+00
 1.444725016191701e+00	 1.416837747952759e+00	 1.304181496362582e+00
 1.430849327907154e+00	 1.430849327907154e+00	 1.600296435017193e+00
 1.416837747952760e+00	 1.444725016191701e+00	 2.037437882795253e+00
 1.402692266142068e+00	 1.458462861708104e+00	 2.605927537975725e+00
 1.388414910054578e+00	 1.472060952995054e+00	 3.295295064419073e+00
 1.374007744059805e+00	 1.485517419121477e+00	 4.093764135055390e+00
 1.359472868315728e+00	 1.498830430550423e+00	 4.980571812547669e+00
 1.505365667695974e+00	 1.365400475205287e+00	 1.491844089911754e+00
 1.491994608548464e+00	 1.379998726270423e+00	 1.230951918032330e+00
 1.478479469208790e+00	 1.394468710743127e+00	 1.153627337325752e+00
 1.464822087191101e+00	 1.408808319308257e+00	 1.241523213508760e+00
 1.451024341584154e+00	 1.423015478595172e+00	 1.479727063369184e+00
 1.437088152183668e+00	 1.437088152183668e+00	 1.858147088654269e+00
 1.423015478595172e+00	 1.451024341584154e+00	 2.365688011051275e+00
 1.408808319308256e+00	 1.464822087191101e+00	 2.990279107511848e+00
 1.394468710743127e+00	 1.478479469208790e+00	 3.718900278563934e+00
 1.379998726270422e+00	 1.491994608548465e+00	 4.534086879287957e+00
 1.365400475205287e+00	 1.505365667695974e+00	 5.412487322558691e+00
 1.511900904840941e+00	 1.371328082094663e+00	 1.296627745373180e+00
 1.498471797974906e+00	 1.385989708480836e+00	 1.119661851179217e+00
 1.484897985422025e+00	 1.400522511431443e+00	 1.118606025503361e+00
 1.471181312673642e+00	 1.414924372474174e+00	 1.282455135967107e+00
 1.457323666976201e+00	 1.429193209237272e+00	 1.587008892031627e+00
 1.443326976459824e+00	 1.443326976459824e+00	 2.019945730116954e+00
 1.429193209237272e+00	 1.457323666976200e+00	 2.568535683359561e+00
 1.414924372474174e+00	 1.471181312673642e+00	 3.218996321763495e+00
 1.400522511431443e+00	 1.484897985422025e+00	 3.956178973245992e+00
 1.385989708480836e+00	 1.498471797974906e+00	 4.756393413967237e+00
 1.371328082094663e+00	 1.511900904840942e+00	 5.598598497733705e+00
 1.518436141985242e+00	 1.377255688983805e+00	 1.125060935890683e+00
 1.504948987400725e+00	 1.391980690691000e+00	 1.009060504250161e+00
 1.491316501634686e+00	 1.406576312119480e+00	 1.058375727515527e+00
 1.477540538155662e+00	 1.421040425639775e+00	 1.266553795556870e+00
 1.463622992367781e+00	 1.435370939879010e+00	 1.608494375968899e+00
 1.449565800735567e+00	 1.449565800735567e+00	 2.065782750365686e+00
 1.435370939879009e+00	 1.463622992367781e+00	 2.624642224617877e+00
 1.421040425639776e+00	 1.477540538155663e+00	 3.270249973002858e+00
 1.406576312119480e+00	 1.491316501634687e+00	 3.984007906930662e+00
 1.391980690690999e+00	 1.504948987400726e+00	 4.740871983749190e+00
 1.377255688983805e+00	 1.518436141985242e+00	 5.521354534191252e+00
 1.524971379128793e+00	 1.383183295872664e+00	 9.790456325095439e-01
 1.511426176825844e+00	 1.397971672900867e+00	 8.949026083587494e-01
 1.497735017846702e+00	 1.412630112807195e+00	 9.640229065709849e-01
 1.483899763637098e+00	 1.427156478805014e+00	 1.180268167728693e+00
 1.469922317758837e+00	 1.441548670520337e+00	 1.526988325148875e+00
 1.455804625010844e+00	 1.455804625010844e+00	 1.976126906080610e+00
 1.441548670520337e+00	 1.469922317758837e+00	 2.513071890558900e+00
 1.427156478805014e+00	 1.483899763637098e+00	 3.122468336910864e+00
 1.412630112807194e+00	 1.497735017846702e+00	 3.781331167119311e+00
 1.397971672900867e+00	 1.511426176825845e+00	 4.468069169634869e+00
 1.383183295872664e+00	 1.524971379128793e+00	 5.163523797571154e+00
 1.323907226977324e+00	 1.459619007669536e+00	-1.727970658545542e+00
 1.309627879884325e+00	 1.472444454627764e+00	-1.399546989501423e+00
 1.295228337627253e+00	 1.485126688637369e+00	-1.036362123715152e+00
 1.280710768025226e+00	 1.497664029841519e+00	-6.525579982542662e-01
 1.266077369595616e+00	 1.510054841831538e+00	-2.572215413819748e-01
 1.251330370457585e+00	 1.522297532345218e+00	 1.434640485208445e-01
 1.236472027217101e+00	 1.534390553932163e+00	 5.426908681233514e-01
 1.221504623834565e+00	 1.546332404585624e+00	 9.330159140178784e-01
 1.206430470476243e+00	 1.558121628340281e+00	 1.306353059384136e+00
 1.191251902350694e+00	 1.569756815835506e+00	 1.653967454142596e+00
 1.175971278531404e+00	 1.581236604843679e+00	 1.966472382513271e+00
 1.329834833866932e+00	 1.466154244816837e+00	-2.190043534395895e-01
 1.315491553021954e+00	 1.479037115895505e+00	 2.924082631942095e-01
 1.301027538856151e+00	 1.491776132809843e+00	 7.902150231983702e-01
 1.286444968894736e+00	 1.504369608181692e+00	 1.262513290429662e+00
 1.271746051498621e+00	 1.516815898275585e+00	 1.705399560708022e+00
 1.256933024763049e+00	 1.529113403700177e+00	 2.114787911694962e+00
 1.242008155397609e+00	 1.541260570076581e+00	 2.486141706398758e+00
 1.226973737588806e+00	 1.553255888673018e+00	 2.814458438438706e+00
 1.211832091846339e+00	 1.565097897005287e+00	 3.094256804266811e+00
 1.196585563834322e+00	 1.576785179402540e+00	 3.319566063157766e+00
 1.181236523188651e+00	 1.588316367537974e+00	 3.483917727789293e+00
 1.335762440756657e+00	 1.472689481964054e+00	 1.160520000554566e+00
 1.321355226159749e+00	 1.485629777163158e+00	 1.813207290304164e+00
 1.306826740085268e+00	 1.498425576982224e+00	 2.407970001565133e+00
 1.292179169764524e+00	 1.511075186521768e+00	 2.940234046052355e+00
 1.277414733401964e+00	 1.523576954719527e+00	 3.408196989388201e+00
 1.262535679068911e+00	 1.535929275055025e+00	 3.809793594138017e+00
 1.247544283578578e+00	 1.548130586220875e+00	 4.142674085459606e+00
 1.232442851343567e+00	 1.560179372760274e+00	 4.404184421984710e+00
 1.217233713217009e+00	 1.572074165670134e+00	 4.591348659665606e+00
 1.201919225318574e+00	 1.583813542969390e+00	 4.700853478117597e+00
 1.186501767846565e+00	 1.595396130232050e+00	 4.729034920763521e+00
 1.341690047646450e+00	 1.479224719111105e+00	 2.390658395734718e+00
 1.327218899297653e+00	 1.492222438430635e+00	 3.143410895970334e+00
 1.312625941314540e+00	 1.505075021154422e+00	 3.803090427575540e+00
 1.297913370634512e+00	 1.517780764861653e+00	 4.369557175038044e+00
 1.283083415305556e+00	 1.530338011163272e+00	 4.842792213948185e+00
 1.268138333375069e+00	 1.542745146409667e+00	 5.222676490204151e+00
 1.253080411759890e+00	 1.555000602364956e+00	 5.508964826432683e+00
 1.237911965098716e+00	 1.567102856847306e+00	 5.701261801916956e+00
 1.222635334588109e+00	 1.579050434334744e+00	 5.798999602344804e+00
 1.207252886803294e+00	 1.590841906535989e+00	 5.801417917236450e+00
 1.191767012504980e+00	 1.602475892925860e+00	 5.707545944422239e+00
 1.347617654536259e+00	 1.485759956257906e+00	 3.451175321657356e+00
 1.333082572435608e+00	 1.498815099697849e+00	 4.266409383455303e+00
 1.318425142543900e+00	 1.511724465326345e+00	 4.962030994174738e+00
 1.303647571504624e+00	 1.524486343201255e+00	 5.539653804271872e+00
 1.288752097209308e+00	 1.537099067606727e+00	 6.000977835200063e+00
 1.273740987681423e+00	 1.549561017764014e+00	 6.347757767127498e+00
 1.258616539941429e+00	 1.561870618508737e+00	 6.581772856581947e+00
 1.243381078854123e+00	 1.574026340934034e+00	 6.704798607092814e+00
 1.228036955959496e+00	 1.586026702999048e+00	 6.718580297363896e+00
 1.212586548288326e+00	 1.597870270102276e+00	 6.624808452775309e+00
 1.197032257163729e+00	 1.609555655619353e+00	 6.425096327229614e+00
 1.353545261426034e+00	 1.492295193404373e+00	 4.320729989994766e+00
 1.338946245573560e+00	 1.505407760964711e+00	 5.166153942258102e+00
 1.324224343773282e+00	 1.518373909497903e+00	 5.871506737899032e+00
 1.309381772374785e+00	 1.531191921540480e+00	 6.439907621264569e+00
 1.294420779113130e+00	 1.543860124049798e+00	 6.874712962782216e+00
 1.279343641987868e+00	 1.556376889117973e+00	 7.179480744067707e+00
 1.264152668123079e+00	 1.568740634652129e+00	 7.357936555511561e+00
 1.248850192609658e+00	 1.580949825020375e+00	 7.413941237576100e+00
 1.233438577331025e+00	 1.593002971662969e+00	 7.351460278198389e+00
 1.217920209773513e+00	 1.604898633668188e+00	 7.174535059648854e+00
 1.202297501822644e+00	 1.616635418312479e+00	 6.887256029088872e+00
 1.359472868315728e+00	 1.498830430550423e+00	 4.980571812547669e+00
 1.344809918711451e+00	 1.512000422231134e+00	 5.826897981345244e+00
 1.330023545002623e+00	 1.525023353669003e+00	 6.518486447012616e+00
 1.315115973244917e+00	 1.537897499879237e+00	 7.059909327639222e+00
 1.300089461016935e+00	 1.550621180492393e+00	 7.456118678783808e+00
 1.284946296294302e+00	 1.563192760471453e+00	 7.712407331430502e+00
 1.269688796304724e+00	 1.575610650795045e+00	 7.834371136532782e+00
 1.254319306365190e+00	 1.587873309106248e+00	 7.827872755212114e+00
 1.238840198702554e+00	 1.599979240326434e+00	 7.699007114515358e+00
 1.223253871258701e+00	 1.611926997233662e+00	 7.454068629244265e+00
 1.207562746481559e+00	 1.623715181005190e+00	 7.099520270913560e+00
 1.365400475205287e+00	 1.505365667695974e+00	 5.412487322558691e+00
 1.350673591849225e+00	 1.518593083497030e+00	 6.233189621076932e+00
 1.335822746231855e+00	 1.531672797839557e+00	 6.890186206651260e+00
 1.320850174114943e+00	 1.544603078217431e+00	 7.389451202497214e+00
 1.305758142920632e+00	 1.557382236934418e+00	 7.737473585067160e+00
 1.290548950600625e+00	 1.570008631824362e+00	 7.941214528632353e+00
 1.275224924486247e+00	 1.582480666937396e+00	 8.008066062126671e+00
 1.259788420120590e+00	 1.594796793191570e+00	 7.945811184834617e+00
 1.244241820073938e+00	 1.606955508989369e+00	 7.762585567979920e+00
 1.228587532743733e+00	 1.618955360798634e+00	 7.466840949508964e+00
 1.212827991140307e+00	 1.630794943697435e+00	 7.067310309523131e+00
 1.371328082094663e+00	 1.511900904840942e+00	 5.598598497733705e+00
 1.356537264986826e+00	 1.525185744762312e+00	 6.369864345241028e+00
 1.341621947460914e+00	 1.538322242009472e+00	 6.974063076829063e+00
 1.326584374984789e+00	 1.551308656554971e+00	 7.418521772339557e+00
 1.311426824824134e+00	 1.564143293375780e+00	 7.711209431757262e+00
 1.296151604906731e+00	 1.576824503176609e+00	 7.860690978541514e+00
 1.280761052667533e+00	 1.589350683079095e+00	 7.876082492471808e+00
 1.265257533875728e+00	 1.601720277276258e+00	 7.767007825783931e+00
 1.249643441445035e+00	 1.613931777651700e+00	 7.543556736455144e+00
 1.233921194228453e+00	 1.625983724363042e+00	 7.216244652328720e+00
 1.218093235798723e+00	 1.637874706389165e+00	 6.795974159517602e+00
 1.377255688983805e+00	 1.518436141985242e+00	 5.521354534191253e+00
 1.362400938124195e+00	 1.531778406026890e+00	 6.222037808372209e+00
 1.347421148689733e+00	 1.544971686178656e+00	 6.757808899305886e+00
 1.332318575854376e+00	 1.558014234891763e+00	 7.137300584334533e+00
 1.317095506727351e+00	 1.570904349816386e+00	 7.369906824452936e+00
 1.301754259212522e+00	 1.583640374528103e+00	 7.465733576889159e+00
 1.286297180848465e+00	 1.596220699220054e+00	 7.435550766041346e+00
 1.270726647630473e+00	 1.608643761360231e+00	 7.290745573425900e+00
 1.255045062815701e+00	 1.620908046313352e+00	 7.043277186945367e+00
 1.239254855712705e+00	 1.633012087926821e+00	 6.705633129181848e+00
 1.223358480456637e+00	 1.644954469080331e+00	 6.290787263728959e+00
 1.383183295872664e+00	 1.524971379128793e+00	 5.163523797571153e+00
 1.368264611261278e+00	 1.538371067290679e+00	 5.775098793699026e+00
 1.353220349918248e+00	 1.551621130347021e+00	 6.229344229451719e+00
 1.338052776723630e+00	 1.564719813227714e+00	 6.536153079832155e+00
 1.322764188630196e+00	 1.577665406256143e+00	 6.706291007799913e+00
 1.307356913517892e+00	 1.590456245878752e+00	 6.751344135001800e+00
 1.291833309028926e+00	 1.603090715360185e+00	 6.683667911308479e+00
 1.276195761384695e+00	 1.615567245443407e+00	 6.516337250372816e+00
 1.260446684185792e+00	 1.627884314974253e+00	 6.263098077621803e+00
 1.244588517196333e+00	 1.640040451489909e+00	 5.938320416021705e+00
 1.228623725113884e+00	 1.652034231770882e+00	 5.556953113792394e+00
 1.175971278531404e+00	 1.581236604843679e+00	 1.966472382513271e+00
 1.160593602018781e+00	 1.592557770515995e+00	 2.255631633372458e+00
 1.145118678784137e+00	 1.603721016929166e+00	 2.535203365817609e+00
 1.129548922467025e+00	 1.614725133077867e+00	 2.798248653651145e+00
 1.113886765794420e+00	 1.625568956772238e+00	 3.037949104763616e+00
 1.098134659358124e+00	 1.636251374984289e+00	 3.257811838762277e+00
 1.082295070385766e+00	 1.646771324157903e+00	 3.470006034063750e+00
 1.066370481506642e+00	 1.657127790482339e+00	 3.667088258422534e+00
 1.050363389513654e+00	 1.667319810129223e+00	 3.841014419958170e+00
 1.034276304122573e+00	 1.677346469452999e+00	 3.983648128877564e+00
 1.018111746729887e+00	 1.687206905154955e+00	 4.086789197403451e+00
 1.181236523188651e+00	 1.588316367537974e+00	 3.483917727789294e+00
 1.165789995309951e+00	 1.599688222123976e+00	 3.607187967659539e+00
 1.150245785300797e+00	 1.610901450389679e+00	 3.711750295841324e+00
 1.134606317607475e+00	 1.621954835907669e+00	 3.794644467611741e+00
 1.118874035849151e+00	 1.632847211284564e+00	 3.853174711709955e+00
 1.103051401589804e+00	 1.643577458508968e+00	 3.888702452645829e+00
 1.087140893103727e+00	 1.654144509262857e+00	 3.920585096752696e+00
 1.071145004135839e+00	 1.664547345196320e+00	 3.948949508593319e+00
 1.055066242658079e+00	 1.674784998165586e+00	 3.970311093234893e+00
 1.038907129623117e+00	 1.684856550434408e+00	 3.981207734202908e+00
 1.022670197716636e+00	 1.694761134838787e+00	 3.978221032416454e+00
 1.186501767846565e+00	 1.595396130232050e+00	 4.729034920763521e+00
 1.170986388601823e+00	 1.606818673731701e+00	 4.703641432818143e+00
 1.155372891818188e+00	 1.618081883849891e+00	 4.654957611627929e+00
 1.139663712748673e+00	 1.629184538737122e+00	 4.583153090161770e+00
 1.123861305904635e+00	 1.640125465796491e+00	 4.488772050761840e+00
 1.107968143822234e+00	 1.650903542033194e+00	 4.373272740948577e+00
 1.091986715822421e+00	 1.661517694367308e+00	 4.256443554615803e+00
 1.075919526765740e+00	 1.671966899909743e+00	 4.147674936283491e+00
 1.059769095803165e+00	 1.682250186201348e+00	 4.047040348307753e+00
 1.043537955124264e+00	 1.692366631415169e+00	 3.954724673106322e+00
 1.027228648703915e+00	 1.702315364521934e+00	 3.871039765054798e+00
 1.191767012504980e+00	 1.602475892925860e+00	 5.707545944422240e+00
 1.176182781894224e+00	 1.613949125339137e+00	 5.552579789177308e+00
 1.160499998336127e+00	 1.625262317309789e+00	 5.373833342849789e+00
 1.144721107890431e+00	 1.636414241566234e+00	 5.173769299262791e+00
 1.128848575960686e+00	 1.647403720308046e+00	 4.955301394380529e+00
 1.112884886055225e+00	 1.658229625557020e+00	 4.721772886524833e+00
 1.096832538541665e+00	 1.668890879471328e+00	 4.487773375152045e+00
 1.080694049396169e+00	 1.679386454622708e+00	 4.272841895032943e+00
 1.064471948948746e+00	 1.689715374236622e+00	 4.079794689739639e+00
 1.048168780625862e+00	 1.699876712395418e+00	 3.911450094878024e+00
 1.031787099691592e+00	 1.709869594204547e+00	 3.770812640754743e+00
 1.197032257163729e+00	 1.609555655619353e+00	 6.425096327229613e+00
 1.181379175186976e+00	 1.621079576946250e+00	 6.161481802995445e+00
 1.165627104854430e+00	 1.632442750769358e+00	 5.877251874615602e+00
 1.149778503032564e+00	 1.643643944395009e+00	 5.576337252226816e+00
 1.133835846017113e+00	 1.654681974819259e+00	 5.263162872744267e+00
 1.117801628288591e+00	 1.665555709080496e+00	 4.942623981683817e+00
 1.101678361261276e+00	 1.676264064574992e+00	 4.624602392911578e+00
 1.085468572026949e+00	 1.686806009335308e+00	 4.333873670163017e+00
 1.069174802094657e+00	 1.697180562271523e+00	 4.077029060268131e+00
 1.052799606127762e+00	 1.707386793375290e+00	 3.858520297819767e+00
 1.036345550679533e+00	 1.717423823886777e+00	 3.683020728303471e+00
 1.202297501822644e+00	 1.616635418312479e+00	 6.887256029088872e+00
 1.186575568479903e+00	 1.628210028553008e+00	 6.537718867554660e+00
 1.170754211372916e+00	 1.639623184228585e+00	 6.173956133089952e+00
 1.154835898174882e+00	 1.650873647223456e+00	 5.800553069873483e+00
 1.138823116073729e+00	 1.661960229330158e+00	 5.422599295185462e+00
 1.122718370522145e+00	 1.672881792603671e+00	 5.045663903213949e+00
 1.106524183981069e+00	 1.683637249678369e+00	 4.676799186777172e+00
 1.090243094657904e+00	 1.694225564047637e+00	 4.340044108287176e+00
 1.073877655240733e+00	 1.704645750306169e+00	 4.047065079739163e+00
 1.057430431629813e+00	 1.714896874354918e+00	 3.802960440072007e+00
 1.040904001667607e+00	 1.724978053568774e+00	 3.613061970393700e+00
 1.207562746481559e+00	 1.623715181005190e+00	 7.099520270913560e+00
 1.191771961772830e+00	 1.635340480159378e+00	 6.688556548965801e+00
 1.175881317891401e+00	 1.646803617687454e+00	 6.272559681413482e+00
 1.159893293317201e+00	 1.658103350051580e+00	 5.855967320946410e+00
 1.143810386130344e+00	 1.669238483840769e+00	 5.443698866089833e+00
 1.127635112755698e+00	 1.680207876126599e+00	 5.041130997415750e+00
 1.111370006700863e+00	 1.691010434781535e+00	 4.654074577836649e+00
 1.095017617288860e+00	 1.701645118759792e+00	 4.300482148095105e+00
 1.078580508386809e+00	 1.712110938340675e+00	 3.998095195192064e+00
 1.062061257131863e+00	 1.722406955334436e+00	 3.751688175052635e+00
 1.045462452655680e+00	 1.732532283250688e+00	 3.566254175690475e+00
 1.212827991140307e+00	 1.630794943697435e+00	 7.067310309523130e+00
 1.196968355065582e+00	 1.642470931765327e+00	 6.621156058971774e+00
 1.181008424409705e+00	 1.653984051145953e+00	 6.181548728649933e+00
 1.164950688459333e+00	 1.665333052879389e+00	 5.751987409819838e+00
 1.148797656186772e+00	 1.676516738351124e+00	 5.336397798464131e+00
 1.132551854989065e+00	 1.687533959649328e+00	 4.939109564555683e+00
 1.116215829420473e+00	 1.698383619884563e+00	 4.564835214913913e+00
 1.099792139919641e+00	 1.709064673471866e+00	 4.224176255412651e+00
 1.083283361532721e+00	 1.719576126375154e+00	 3.938186744798400e+00
 1.066692082633763e+00	 1.729917036313978e+00	 3.711517213799134e+00
 1.050020903643622e+00	 1.740086512932670e+00	 3.547837954189899e+00
 1.218093235798723e+00	 1.637874706389165e+00	 6.795974159517602e+00
 1.202164748357982e+00	 1.649601383370821e+00	 6.342575656959303e+00
 1.186135530927644e+00	 1.661164484604067e+00	 5.909284054391489e+00
 1.170008083601092e+00	 1.672562755706888e+00	 5.497879870422038e+00
 1.153784926242822e+00	 1.683794992861249e+00	 5.110482828269325e+00
 1.137468597222056e+00	 1.694860043171911e+00	 4.749532449166205e+00
 1.121061652139717e+00	 1.705756804987527e+00	 4.417770304847950e+00
 1.104566662550069e+00	 1.716484228183955e+00	 4.119978765435763e+00
 1.087986214678302e+00	 1.727041314409724e+00	 3.875285938262522e+00
 1.071322908135362e+00	 1.737427117293679e+00	 3.689160816428276e+00
 1.054579354631298e+00	 1.747640742614871e+00	 3.562979597586556e+00
 1.223358480456637e+00	 1.644954469080331e+00	 6.290787263728959e+00
 1.207361141649855e+00	 1.656731834975827e+00	 5.859771983311247e+00
 1.191262637445034e+00	 1.668344918061780e+00	 5.464002851564118e+00
 1.175065478742290e+00	 1.679792458534084e+00	 5.102772569201018e+00
 1.158772196298307e+00	 1.691073247371174e+00	 4.775593632508813e+00
 1.142385339454486e+00	 1.702186126694397e+00	 4.482183532567671e+00
 1.125907474858412e+00	 1.713129990090498e+00	 4.222451814889490e+00
 1.109341185179970e+00	 1.723903782896154e+00	 3.996610134936811e+00
 1.092689067823388e+00	 1.734506502444499e+00	 3.817221756202405e+00
 1.075953733636509e+00	 1.744937198273673e+00	 3.691235214850289e+00
 1.059137805618578e+00	 1.755194972297440e+00	 3.616773906308553e+00
 1.228623725113884e+00	 1.652034231770882e+00	 5.556953113792394e+00
 1.212557534941026e+00	 1.663862286580313e+00	 5.179601326160206e+00
 1.196389743961696e+00	 1.675525351519081e+00	 4.853820489886786e+00
 1.180122873882741e+00	 1.687022161360984e+00	 4.575656819861308e+00
 1.163759466353039e+00	 1.698351501880926e+00	 4.341225153958941e+00
 1.147302081686166e+00	 1.709512210216838e+00	 4.146700130545322e+00
 1.130753297576374e+00	 1.720503175193551e+00	 3.988309463419084e+00
 1.114115707809168e+00	 1.731323337608557e+00	 3.862329235406920e+00
 1.097391920967814e+00	 1.741971690479595e+00	 3.771709770943438e+00
 1.080584559137054e+00	 1.752447279254095e+00	 3.724262968801467e+00
 1.063696256605328e+00	 1.762749201980530e+00	 3.714246964821533e+00
 1.018111746729887e+00	 1.687206905154955e+00	 4.086789197403451e+00
 1.001872249487630e+00	 1.696900304820150e+00	 4.137484682122117e+00
 9.855603549931854e-01	 1.706425908242760e+00	 4.133465054716215e+00
 9.691786140624503e-01	 1.715783006263096e+00	 4.082643455397915e+00
 9.527295841709187e-01	 1.724970940377081e+00	 3.993092241385419e+00
 9.362158282216873e-01	 1.733989102717897e+00	 3.873040848097469e+00
 9.196399133193149e-01	 1.742836936002513e+00	 3.730872095141190e+00
 9.030044095506687e-01	 1.751513933443456e+00	 3.575117044109791e+00
 8.863118887738816e-01	 1.760019638626248e+00	 3.414448521924252e+00
 8.695649234165100e-01	 1.768353645352981e+00	 3.257673429053637e+00
 8.527660852839681e-01	 1.776515597452493e+00	 3.113723956428766e+00
 1.022670197716636e+00	 1.694761134838787e+00	 3.978221032416454e+00
 1.006357990428024e+00	 1.704497935326324e+00	 3.952582198191905e+00
 9.899730617387850e-01	 1.714066188287475e+00	 3.900544206284819e+00
 9.735179738857336e-01	 1.723465181387379e+00	 3.826319391170034e+00
 9.569952957950972e-01	 1.732694253173586e+00	 3.734195597548355e+00
 9.404076018450096e-01	 1.741752793057634e+00	 3.628539946860532e+00
 9.237574706338777e-01	 1.750640241261321e+00	 3.513801047647504e+00
 9.070474837557683e-01	 1.759356088728095e+00	 3.394509750873593e+00
 8.902802245839454e-01	 1.767899876999938e+00	 3.275278558268524e+00
 8.734582770636449e-01	 1.776271198060234e+00	 3.160799797556928e+00
 8.565842245151780e-01	 1.784469694143108e+00	 3.055842683119799e+00
 1.027228648703915e+00	 1.702315364521934e+00	 3.871039765054798e+00
 1.010843731368860e+00	 1.712095565831782e+00	 3.789386990603978e+00
 9.943857684847284e-01	 1.721706468331452e+00	 3.703701661863903e+00
 9.778573337092549e-01	 1.731147356510909e+00	 3.615199144757938e+00
 9.612610074194082e-01	 1.740417565969336e+00	 3.525101513143182e+00
 9.445993754683630e-01	 1.749516483396619e+00	 3.434646067210665e+00
 9.278750279483776e-01	 1.758443546519395e+00	 3.345092287510246e+00
 9.110905579607256e-01	 1.767198244012031e+00	 3.257727321875378e+00
 8.942485603938056e-01	 1.775780115372968e+00	 3.173870109673292e+00
 8.773516307105402e-01	 1.784188750766886e+00	 3.094874253808741e+00
 8.604023637461388e-01	 1.792423790833194e+00	 3.022129755758429e+00
 1.031787099691592e+00	 1.709869594204547e+00	 3.770812640754743e+00
 1.015329472310029e+00	 1.719693196336689e+00	 3.651733381894310e+00
 9.987984752309287e-01	 1.729346748374865e+00	 3.545267368233603e+00
 9.821966935329554e-01	 1.738829531633867e+00	 3.450326926739490e+00
 9.655267190438198e-01	 1.748140878764512e+00	 3.365777088370009e+00
 9.487911490917418e-01	 1.757280173735038e+00	 3.290447712963098e+00
 9.319925852628353e-01	 1.766246851776917e+00	 3.223144034262389e+00
 9.151336321655836e-01	 1.775040399295439e+00	 3.162655720565218e+00
 8.982168962035247e-01	 1.783660353745502e+00	 3.107764553825153e+00
 8.812449843572712e-01	 1.792106303473086e+00	 3.057250836215498e+00
 8.642205029769344e-01	 1.800377887522883e+00	 3.009898638156796e+00
 1.036345550679533e+00	 1.717423823886777e+00	 3.683020728303471e+00
 1.019815213251417e+00	 1.727290826841209e+00	 3.543398996261197e+00
 1.003211181977301e+00	 1.736987028417887e+00	 3.427539977721148e+00
 9.865360533567764e-01	 1.746511706756435e+00	 3.332737162454314e+00
 9.697924306683005e-01	 1.755864191559300e+00	 3.256197434584097e+00
 9.529829227151404e-01	 1.765043864073076e+00	 3.195055666437652e+00
 9.361101425772709e-01	 1.774050157034071e+00	 3.146387709788373e+00
 9.191767063703854e-01	 1.782882554578494e+00	 3.107221880228821e+00
 9.021852320131646e-01	 1.791540592117707e+00	 3.074549037941341e+00
 8.851383380039127e-01	 1.800023856178985e+00	 3.045331374461048e+00
 8.680386422076478e-01	 1.808331984212308e+00	 3.016510020146608e+00
 1.040904001667607e+00	 1.724978053568774e+00	 3.613061970393700e+00
 1.024300954192917e+00	 1.734888457345504e+00	 3.468107130747335e+00
 1.007623888723760e+00	 1.744627308460692e+00	 3.352788627826586e+00
 9.908754131806581e-01	 1.754193881878792e+00	 3.263455764051542e+00
 9.740581422928178e-01	 1.763587504353885e+00	 3.196346518864600e+00
 9.571746963385549e-01	 1.772807554410919e+00	 3.147603481728338e+00
 9.402276998917043e-01	 1.781853462291037e+00	 3.113288152519663e+00
 9.232197805751732e-01	 1.790724709861371e+00	 3.089393707346920e+00
 9.061535678227867e-01	 1.799420830489746e+00	 3.071856335513648e+00
 8.890316916505411e-01	 1.807941408884734e+00	 3.056565259813368e+00
 8.718567814383629e-01	 1.816286080901601e+00	 3.039371557561315e+00
 1.045462452655680e+00	 1.732532283250688e+00	 3.566254175690475e+00
 1.028786695134416e+00	 1.742486087849739e+00	 3.429529085320611e+00
 1.012036595470219e+00	 1.752267588503456e+00	 3.323254694821308e+00
 9.952147730045425e-01	 1.761876057001122e+00	 3.243501389374472e+00
 9.783238539173406e-01	 1.771310817148453e+00	 3.186218006175604e+00
 9.613664699619803e-01	 1.780571244748752e+00	 3.147247984316070e+00
 9.443452572061566e-01	 1.789656767547997e+00	 3.122343844823674e+00
 9.272628547799905e-01	 1.798566865144247e+00	 3.107180103202775e+00
 9.101219036324519e-01	 1.807301068861784e+00	 3.097364724666228e+00
 8.929250452972309e-01	 1.815858961590483e+00	 3.088449238827947e+00
 8.756749206691625e-01	 1.824240177590894e+00	 3.075937635922480e+00
 1.050020903643622e+00	 1.740086512932670e+00	 3.547837954189899e+00
 1.033272436075806e+00	 1.750083718354078e+00	 3.431286453103778e+00
 1.016449302216594e+00	 1.759907868546351e+00	 3.341153522111814e+00
 9.995541328283705e-01	 1.769558232123605e+00	 3.273886688082895e+00
 9.825895655418375e-01	 1.779034129943188e+00	 3.225816099193882e+00
 9.655582435854111e-01	 1.788334935086759e+00	 3.193169776832896e+00
 9.484628145206473e-01	 1.797460072805134e+00	 3.172087153186395e+00
 9.313059289848798e-01	 1.806409020427295e+00	 3.158631003184690e+00
 9.140902394422225e-01	 1.815181307233987e+00	 3.148797887471634e+00
 8.968183989440586e-01	 1.823776514296382e+00	 3.138527229738411e+00
 8.794930599001300e-01	 1.832194274280319e+00	 3.123709157111222e+00
 1.054579354631298e+00	 1.747640742614871e+00	 3.562979597586556e+00
 1.037758177016974e+00	 1.757681348858684e+00	 3.476953371960676e+00
 1.020862008962798e+00	 1.767548148589553e+00	 3.408676124133762e+00
 1.003893492652083e+00	 1.777240407246422e+00	 3.355619535401336e+00
 9.868552771662767e-01	 1.786757442738276e+00	 3.315156375875461e+00
 9.697500172088429e-01	 1.796098625425127e+00	 3.284573750792991e+00
 9.525803718351967e-01	 1.805263378062631e+00	 3.261084580802708e+00
 9.353490031898837e-01	 1.814251175710692e+00	 3.241837433249256e+00
 9.180585752521593e-01	 1.823061545606518e+00	 3.223924829592066e+00
 9.007117525910985e-01	 1.831694067002581e+00	 3.204390160848329e+00
 8.833111991313498e-01	 1.840148370970008e+00	 3.180233348330076e+00
 1.059137805618578e+00	 1.755194972297440e+00	 3.616773906308553e+00
 1.042243917957811e+00	 1.765278979363722e+00	 3.570058738604813e+00
 1.025274715708746e+00	 1.775188428633234e+00	 3.527990866515053e+00
 1.008232852475620e+00	 1.784922582369755e+00	 3.489704253867163e+00
 9.911209887906262e-01	 1.794480755533900e+00	 3.454266624830394e+00
 9.739417908322711e-01	 1.803862315764040e+00	 3.420689604112153e+00
 9.566979291498261e-01	 1.813066683320668e+00	 3.387937032202087e+00
 9.393920773950454e-01	 1.822093330994612e+00	 3.354931583029607e+00
 9.220269110623245e-01	 1.830941783979543e+00	 3.320559819634635e+00
 9.046051062384273e-01	 1.839611619709232e+00	 3.283675830263029e+00
 8.871293383629040e-01	 1.848102467660094e+00	 3.243103592684779e+00
 1.063696256605328e+00	 1.762749201980530e+00	 3.714246964821533e+00
 1.046729658898207e+00	 1.772876609869357e+00	 3.714088386356046e+00
 1.029687422454353e+00	 1.782828708677572e+00	 3.701245123221512e+00
 1.012572212298925e+00	 1.792604757493784e+00	 3.677142823440164e+00
 9.953867004148546e-01	 1.802204068330247e+00	 3.643187678573290e+00
 9.781335644556902e-01	 1.811626006103685e+00	 3.600772364243325e+00
 9.608154864645549e-01	 1.820869988579429e+00	 3.551280089549933e+00
 9.434351516004084e-01	 1.829935486279232e+00	 3.496086895090599e+00
 9.259952468727801e-01	 1.838822022353227e+00	 3.436562347630625e+00
 9.084984598861195e-01	 1.847529172416485e+00	 3.374068786321931e+00
 8.909474775948772e-01	 1.856056564350709e+00	 3.309862083597440e+00
 8.527660852839681e-01	 1.776515597452493e+00	 3.113723956428765e+00
 8.359150758318051e-01	 1.784506531992859e+00	 3.000306858602839e+00
 8.190173143215014e-01	 1.792324788737874e+00	 2.925596068669496e+00
 8.020753641344036e-01	 1.799970158789352e+00	 2.884124291224897e+00
 7.850917834154448e-01	 1.807442482225144e+00	 2.870272697287248e+00
 7.680691239473414e-01	 1.814741647752109e+00	 2.878280913529083e+00
 7.510099300408769e-01	 1.821867592329375e+00	 2.902256685016496e+00
 7.339167374421334e-01	 1.828820300762612e+00	 2.936063647453762e+00
 7.167920722575044e-01	 1.835599805270095e+00	 2.972681481750447e+00
 6.996384498972799e-01	 1.842206185021295e+00	 3.006445666147955e+00
 6.824583740385706e-01	 1.848639565648836e+00	 3.032177817997512e+00
 8.565842245151780e-01	 1.784469694143108e+00	 3.055842683119799e+00
 8.396577670574036e-01	 1.792496406959950e+00	 2.972861804465621e+00
 8.226843482157804e-01	 1.800349668841083e+00	 2.918602390051479e+00
 8.056665428488365e-01	 1.808029269953017e+00	 2.889152095061525e+00
 7.886069205552402e-01	 1.815535049657577e+00	 2.880441294245823e+00
 7.715080445429554e-01	 1.822866896163327e+00	 2.888250559150482e+00
 7.543724705145624e-01	 1.830024746147141e+00	 2.908217852141865e+00
 7.372027455695904e-01	 1.837008584346666e+00	 2.935824158465178e+00
 7.200014071247192e-01	 1.843818443124430e+00	 2.965959296985837e+00
 7.027709818526362e-01	 1.850454402004382e+00	 2.994390215861016e+00
 6.855139846403153e-01	 1.856916587181651e+00	 3.017141074642009e+00
 8.604023637461388e-01	 1.792423790833194e+00	 3.022129755758429e+00
 8.434004582827754e-01	 1.800486281926599e+00	 2.963884791137655e+00
 8.263513821098809e-01	 1.808374548943953e+00	 2.925822631377235e+00
 8.092577215631587e-01	 1.816088381116450e+00	 2.905355580948265e+00
 7.921220576950027e-01	 1.823627617089888e+00	 2.899736465964521e+00
 7.749469651386222e-01	 1.830992144574534e+00	 2.906063830136651e+00
 7.577350109883830e-01	 1.838181899965001e+00	 2.921286882307025e+00
 7.404887536972570e-01	 1.845196867930910e+00	 2.942210255354768e+00
 7.232107419922029e-01	 1.852037080979040e+00	 2.965360898983982e+00
 7.059035138082992e-01	 1.858702618987810e+00	 2.987249559236174e+00
 6.885695952423757e-01	 1.865193608714851e+00	 3.005114776362591e+00
 8.642205029769344e-01	 1.800377887522883e+00	 3.009898638156796e+00
 8.471431495080048e-01	 1.808476156892918e+00	 2.970729379497218e+00
 8.300184160038834e-01	 1.816399429046566e+00	 2.944674182220225e+00
 8.128489002774396e-01	 1.824147492279707e+00	 2.930242895530308e+00
 7.956371948347921e-01	 1.831720184522107e+00	 2.925787202876325e+00
 7.783858857343856e-01	 1.839117392985728e+00	 2.929503764738080e+00
 7.610975514623687e-01	 1.846339053782927e+00	 2.939437139355337e+00
 7.437747618251471e-01	 1.853385151515288e+00	 2.953454243863163e+00
 7.264200768599567e-01	 1.860255718833843e+00	 2.968574265658154e+00
 7.090360457642585e-01	 1.866950835971476e+00	 2.982867199266948e+00
 6.916252058447343e-01	 1.873470630248318e+00	 2.995256096772477e+00
 8.680386422076478e-01	 1.808331984212308e+00	 3.016510020146609e+00
 8.508858407331772e-01	 1.816466031859018e+00	 2.990794373407433e+00
 8.336854498978677e-01	 1.824424309149010e+00	 2.972617282984511e+00
 8.164400789917521e-01	 1.832206603442847e+00	 2.961362185392779e+00
 7.991523319746678e-01	 1.839812751954262e+00	 2.956259136770301e+00
 7.818248063302906e-01	 1.847242641396911e+00	 2.956386128010065e+00
 7.644600919365478e-01	 1.854496207600891e+00	 2.960586227749373e+00
 7.470607699532762e-01	 1.861573435099747e+00	 2.966725200026872e+00
 7.296294117279808e-01	 1.868474356688762e+00	 2.973390143430616e+00
 7.121685777205041e-01	 1.875199052955282e+00	 2.980147140853785e+00
 6.946808164473743e-01	 1.881747651781935e+00	 2.986856125624536e+00
 8.718567814383629e-01	 1.816286080901601e+00	 3.039371557561315e+00
 8.546285319583773e-01	 1.824455906825007e+00	 3.021523559993334e+00
 8.373524837919145e-01	 1.832449189251368e+00	 3.007154774134693e+00
 8.200312577061676e-01	 1.840265714605927e+00	 2.996301365105294e+00
 8.026674691146880e-01	 1.847905319386382e+00	 2.988854338702105e+00
 7.852637269263818e-01	 1.855367889808084e+00	 2.984416960112152e+00
 7.678226324109505e-01	 1.862653361418864e+00	 2.981623151451259e+00
 7.503467780816581e-01	 1.869761718684233e+00	 2.979790421451460e+00
 7.328387465962768e-01	 1.876692994543716e+00	 2.978446887102089e+00
 7.153011096770268e-01	 1.883447269939126e+00	 2.978037730129197e+00
 6.977364270502795e-01	 1.890024673315585e+00	 2.979218249916631e+00
 8.756749206691625e-01	 1.824240177590894e+00	 3.075937635922480e+00
 8.583712231836894e-01	 1.832445781790996e+00	 3.060405473123152e+00
 8.410195176861038e-01	 1.840474069353725e+00	 3.045831867897663e+00
 8.236224364207566e-01	 1.848324825769005e+00	 3.032687906743156e+00
 8.061826062549124e-01	 1.855997886818497e+00	 3.021127087668753e+00
 7.887026475227042e-01	 1.863493138219246e+00	 3.010376505958764e+00
 7.711851728856056e-01	 1.870810515236819e+00	 3.000347752304123e+00
 7.536327862103069e-01	 1.877950002268689e+00	 2.991031326910055e+00
 7.360480814648452e-01	 1.884911632398625e+00	 2.982408496649998e+00
 7.184336416338161e-01	 1.891695486922907e+00	 2.975506732531537e+00
 7.007920376534325e-01	 1.898301694849150e+00	 2.971658307554719e+00
 8.794930599001300e-01	 1.832194274280319e+00	 3.123709157111222e+00
 8.621139144091986e-01	 1.840435656757095e+00	 3.104973179389424e+00
 8.446865515805162e-01	 1.848498949456167e+00	 3.086235941753998e+00
 8.272136151355911e-01	 1.856383936932139e+00	 3.067990227060977e+00
 8.096977433954000e-01	 1.864090454250636e+00	 3.049853504863845e+00
 7.921415681193020e-01	 1.871618386630397e+00	 3.032080813157850e+00
 7.745477133605432e-01	 1.878967669054727e+00	 3.014992577058425e+00
 7.569187943392373e-01	 1.886138285853060e+00	 2.998870826036592e+00
 7.392574163336874e-01	 1.893130270253413e+00	 2.983964564615660e+00
 7.215661735908618e-01	 1.899943703906525e+00	 2.971541376955225e+00
 7.038476482568163e-01	 1.906578716382512e+00	 2.963504745549451e+00
 8.833111991313498e-01	 1.840148370970008e+00	 3.180233348330076e+00
 8.658566056349893e-01	 1.848425531723414e+00	 3.152804085910137e+00
 8.483535854752317e-01	 1.856523829558777e+00	 3.125812653199028e+00
 8.308047938507421e-01	 1.864443048095384e+00	 3.099048515898349e+00
 8.132128805362095e-01	 1.872183021682827e+00	 3.072856919495187e+00
 7.955804887162202e-01	 1.879743635041538e+00	 3.047653882544965e+00
 7.779102538357916e-01	 1.887124822872560e+00	 3.023834290075829e+00
 7.602048024684636e-01	 1.894326569437291e+00	 3.001772425504901e+00
 7.424667512028035e-01	 1.901348908107998e+00	 2.981822223757611e+00
 7.246987055481553e-01	 1.908191920889881e+00	 2.965148407734169e+00
 7.069032588604145e-01	 1.914855737915554e+00	 2.954098782609102e+00
 8.871293383629040e-01	 1.848102467660094e+00	 3.243103592684779e+00
 8.695992968611470e-01	 1.856415406690063e+00	 3.201373670080292e+00
 8.520206193703309e-01	 1.864548709661641e+00	 3.161510122862274e+00
 8.343959725662811e-01	 1.872502159258800e+00	 3.123692467027782e+00
 8.167280176774003e-01	 1.880275589115099e+00	 3.088188414963018e+00
 7.990194093135032e-01	 1.887868883452669e+00	 3.055265658291053e+00
 7.812727943113812e-01	 1.895281976690290e+00	 3.025192694408873e+00
 7.634908105980003e-01	 1.902514853021329e+00	 2.998239348225979e+00
 7.456760860721953e-01	 1.909567545962300e+00	 2.974676957347343e+00
 7.278312375056852e-01	 1.916440137872873e+00	 2.955354144222087e+00
 7.099588694642096e-01	 1.923132759448157e+00	 2.942794575996268e+00
 8.909474775948772e-01	 1.856056564350709e+00	 3.309862083597440e+00
 8.733419880877556e-01	 1.864405281657153e+00	 3.247769061770124e+00
 8.556876532658938e-01	 1.872573589764845e+00	 3.191169621936071e+00
 8.379871512822794e-01	 1.880561270422445e+00	 3.139931412395786e+00
 8.202431548190318e-01	 1.888368156547483e+00	 3.093946132556818e+00
 8.024583299111965e-01	 1.895994131863790e+00	 3.053130980239607e+00
 7.846353347873413e-01	 1.903439130507890e+00	 3.017429767580656e+00
 7.667768187278625e-01	 1.910703136605119e+00	 2.986813665173218e+00
 7.488854209418633e-01	 1.917786183816243e+00	 2.961281541777963e+00
 7.309637694634429e-01	 1.924688354855402e+00	 2.941204547741908e+00
 7.130144800681852e-01	 1.931409780980207e+00	 2.928959392520528e+00
 6.824583740385706e-01	 1.848639565648836e+00	 3.032177817997512e+00
 6.652572617369515e-01	 1.854899069024128e+00	 3.045281289776843e+00
 6.480346701480332e-01	 1.860986019235963e+00	 3.044783458485977e+00
 6.307930597291923e-01	 1.866900676732648e+00	 3.032000464485613e+00
 6.135348753077542e-01	 1.872643346196608e+00	 3.008568116135825e+00
 5.962625451515272e-01	 1.878214375937486e+00	 2.976292114314044e+00
 5.789784800624057e-01	 1.883614157263803e+00	 2.937121615680605e+00
 5.616850724935349e-01	 1.888843123834063e+00	 2.893124382603288e+00
 5.443846956905031e-01	 1.893901750988257e+00	 2.846463522333990e+00
 5.270797028569850e-01	 1.898790555060661e+00	 2.799375805539060e+00
 5.097724263452204e-01	 1.903510092674904e+00	 2.754151542557972e+00
 6.855139846403153e-01	 1.856916587181651e+00	 3.017141074642009e+00
 6.682358567974321e-01	 1.863204116595952e+00	 3.031053679417413e+00
 6.509361534968212e-01	 1.869318320264493e+00	 3.035979539031398e+00
 6.336173462122061e-01	 1.875259459801692e+00	 3.032170197242456e+00
 6.162818907172751e-01	 1.881027841254142e+00	 3.020097996943762e+00
 5.989322261520581e-01	 1.886623814490985e+00	 3.000428839061798e+00
 5.815707741124698e-01	 1.892047772572763e+00	 2.973996527684716e+00
 5.641999377635212e-01	 1.897300151099619e+00	 2.941778715281112e+00
 5.468221009766679e-01	 1.902381427539802e+00	 2.904874448377379e+00
 5.294396274917170e-01	 1.907292120539397e+00	 2.864483301301912e+00
 5.120548601036816e-01	 1.912032789214229e+00	 2.821886073636235e+00
 6.885695952423757e-01	 1.865193608714851e+00	 3.005114776362591e+00
 6.712144518582039e-01	 1.871509164168183e+00	 3.018374252546435e+00
 6.538376368458487e-01	 1.877650621293430e+00	 3.027145160945685e+00
 6.364416326953839e-01	 1.883618242871130e+00	 3.030616820192129e+00
 6.190289061268688e-01	 1.889412336312042e+00	 3.028217041531062e+00
 6.016019071525610e-01	 1.895033253044815e+00	 3.019585584301815e+00
 5.841630681624008e-01	 1.900481387882017e+00	 3.004549222941595e+00
 5.667148030332719e-01	 1.905757178365433e+00	 2.983098437328009e+00
 5.492595062625030e-01	 1.910861104091575e+00	 2.955365724466829e+00
 5.317995521260396e-01	 1.915793686018341e+00	 2.921605516482285e+00
 5.143372938616730e-01	 1.920555485753755e+00	 2.882175677636014e+00
 6.916252058447343e-01	 1.873470630248318e+00	 2.995256096772477e+00
 6.741930469192484e-01	 1.879814211740690e+00	 3.006891068542157e+00
 6.567391201950976e-01	 1.885982922322636e+00	 3.018247850883072e+00
 6.392659191787133e-01	 1.891977025940817e+00	 3.027576320447827e+00
 6.217759215365304e-01	 1.897796831370164e+00	 3.033377370668520e+00
 6.042715881530389e-01	 1.903442691598834e+00	 3.034376994291808e+00
 5.867553622122104e-01	 1.908915003191423e+00	 3.029502012656779e+00
 5.692296683028069e-01	 1.914214205631365e+00	 3.017857461371515e+00
 5.516969115480349e-01	 1.919340780643440e+00	 2.998705627896563e+00
 5.341594767599832e-01	 1.924295251497357e+00	 2.971446723182249e+00
 5.166197276192274e-01	 1.929078182293349e+00	 2.935601156991968e+00
 6.946808164473743e-01	 1.881747651781935e+00	 2.986856125624536e+00
 6.771716419805458e-01	 1.888119259313344e+00	 2.996257175908661e+00
 6.596406035445508e-01	 1.894315223351976e+00	 3.009253885837942e+00
 6.420902056621818e-01	 1.900335809010613e+00	 3.023278143128564e+00
 6.245229369462538e-01	 1.906181326428363e+00	 3.036020242355085e+00
 6.069412691534942e-01	 1.911852130152897e+00	 3.045403525393766e+00
 5.893476562619110e-01	 1.917348618500842e+00	 3.049560713751814e+00
 5.717445335721467e-01	 1.922671232897279e+00	 3.046811940164209e+00
 5.541343168332908e-01	 1.927820457195260e+00	 3.035644472330169e+00
 5.365194013935801e-01	 1.932796816976313e+00	 3.014694107965164e+00
 5.189021613763785e-01	 1.937600878832876e+00	 2.982728207525624e+00
 6.977364270502795e-01	 1.890024673315585e+00	 2.979218249916631e+00
 6.801502370420770e-01	 1.896424306886015e+00	 2.986130882674690e+00
 6.625420868941903e-01	 1.902647524381308e+00	 3.000128666069577e+00
 6.449144921457762e-01	 1.908694592080372e+00	 3.017945647401337e+00
 6.272699523560339e-01	 1.914565821486497e+00	 3.036576571062031e+00
 6.096109501539307e-01	 1.920261568706861e+00	 3.053252008114016e+00
 5.919399503115138e-01	 1.925782233810131e+00	 3.065415232820127e+00
 5.742593988413109e-01	 1.931128260163035e+00	 3.070700851118108e+00
 5.565717221182981e-01	 1.936300133746901e+00	 3.066915171135637e+00
 5.388793260268625e-01	 1.941298382455074e+00	 3.052018291789805e+00
 5.211845951331590e-01	 1.946123575372203e+00	 3.024107872370426e+00
 7.007920376534325e-01	 1.898301694849150e+00	 2.971658307554719e+00
 6.831288321038235e-01	 1.904729354458575e+00	 2.976176027820281e+00
 6.654435702439991e-01	 1.910979825410497e+00	 2.990837085913005e+00
 6.477387786294851e-01	 1.917053375149957e+00	 3.011796557787721e+00
 6.300169677658654e-01	 1.922950316544420e+00	 3.035467440153617e+00
 6.122806311543508e-01	 1.928671007260584e+00	 3.058496200778897e+00
 5.945322443610307e-01	 1.934215849119148e+00	 3.077740140737538e+00
 5.767742641103203e-01	 1.939585287428494e+00	 3.090246571084568e+00
 5.590091274030835e-01	 1.944779810298224e+00	 3.093233791140489e+00
 5.412392506598613e-01	 1.949799947933506e+00	 3.084073841134147e+00
 5.234670288896022e-01	 1.954646271911197e+00	 3.060276988461737e+00
 7.038476482568163e-01	 1.906578716382512e+00	 2.963504745549451e+00
 6.861074271657656e-01	 1.913034402030891e+00	 2.966062253699923e+00
 6.683450535939601e-01	 1.919312126439404e+00	 2.981343902539977e+00
 6.505630651132948e-01	 1.925412158219221e+00	 3.005043410878662e+00
 6.327639831757422e-01	 1.931334811601990e+00	 3.033104607691592e+00
 6.149503121547579e-01	 1.937080445813921e+00	 3.061697335100409e+00
 5.971245384104735e-01	 1.942649464427751e+00	 3.087195238211351e+00
 5.792891293791944e-01	 1.948042314693518e+00	 3.106155441676006e+00
 5.614465326876741e-01	 1.953259486849095e+00	 3.115300097097983e+00
 5.435991752926084e-01	 1.958301513411475e+00	 3.111499770576534e+00
 5.257494626457417e-01	 1.963168968449725e+00	 3.091758625817879e+00
 7.069032588604145e-01	 1.914855737915554e+00	 2.954098782609102e+00
 6.890860222278834e-01	 1.921339449602834e+00	 2.955465279432085e+00
 6.712465369440550e-01	 1.927644427467893e+00	 2.971614102732260e+00
 6.533873515971935e-01	 1.933770941288025e+00	 2.997893997596541e+00
 6.355109985856596e-01	 1.939719306659061e+00	 3.029891005823846e+00
 6.176199931551547e-01	 1.945489884366728e+00	 3.063404653877073e+00
 5.997168324598541e-01	 1.951083079735801e+00	 3.094426112542187e+00
 5.818039946479535e-01	 1.956499341957966e+00	 3.119118325415738e+00
 5.638839379720969e-01	 1.961739163399377e+00	 3.133798087145634e+00
 5.459590999251359e-01	 1.966803078888846e+00	 3.134920037092614e+00
 5.280318964016106e-01	 1.971691664987653e+00	 3.119062519830156e+00
 7.099588694642096e-01	 1.923132759448157e+00	 2.942794575996268e+00
 6.920646172901587e-01	 1.929644497174276e+00	 2.944067175226020e+00
 6.741480202942667e-01	 1.935976728495822e+00	 2.961613267727000e+00
 6.562116380811681e-01	 1.942129724356224e+00	 2.990551801138460e+00
 6.382580139956119e-01	 1.948103801715490e+00	 3.026221233950325e+00
 6.202896741555440e-01	 1.953899322918863e+00	 3.064155941067047e+00
 6.023091265091846e-01	 1.959516695043154e+00	 3.100064685863344e+00
 5.843188599166177e-01	 1.964956369221701e+00	 3.129811152992183e+00
 5.663213432563791e-01	 1.970218839948934e+00	 3.149396519527230e+00
 5.483190245574751e-01	 1.975304644365486e+00	 3.154944026317772e+00
 5.303143301572421e-01	 1.980214361524848e+00	 3.142685496772692e+00
 7.130144800681852e-01	 1.931409780980207e+00	 2.928959392520528e+00
 6.950432123525723e-01	 1.937949544745086e+00	 2.931556637617594e+00
 6.770495036445784e-01	 1.944309029523059e+00	 2.951307936191996e+00
 6.590359245652068e-01	 1.950488507423679e+00	 2.983216430730490e+00
 6.410050294055939e-01	 1.956488296771135e+00	 3.022482045853042e+00
 6.229593551559293e-01	 1.962308761470184e+00	 3.064478044462206e+00
 6.049014205584760e-01	 1.967950310349670e+00	 3.104729755113308e+00
 5.868337251852073e-01	 1.973413396484584e+00	 3.138895461884295e+00
 5.687587485405474e-01	 1.978698516497631e+00	 3.162749430840631e+00
 5.506789491896580e-01	 1.983806209841261e+00	 3.172167031015965e+00
 5.325967639126695e-01	 1.988737058061177e+00	 3.163111892735275e+00
 5.097724263452204e-01	 1.903510092674904e+00	 2.754151542557972e+00
 4.924651771078767e-01	 1.908060960435679e+00	 2.716652018134578e+00
 4.751602446257804e-01	 1.912443795427681e+00	 2.690939089710103e+00
 4.578598954278802e-01	 1.916659273214932e+00	 2.676691677026373e+00
 4.405663721427611e-01	 1.920708106657808e+00	 2.673658253997868e+00
 4.232818928181369e-01	 1.924591045131397e+00	 2.681646551777732e+00
 4.060086502667843e-01	 1.928308873731856e+00	 2.700514318691667e+00
 3.887488114390382e-01	 1.931862412471655e+00	 2.730161057617147e+00
 3.715045168219482e-01	 1.935252515464695e+00	 2.770520657179996e+00
 3.542778798651443e-01	 1.938480070102190e+00	 2.820132704604503e+00
 3.370709864334423e-01	 1.941545996220245e+00	 2.875904618173138e+00
 5.120548601036816e-01	 1.912032789214229e+00	 2.821886073636235e+00
 4.946701201121874e-01	 1.916604032840201e+00	 2.782540727682001e+00
 4.772877072488776e-01	 1.921006491354468e+00	 2.751417119900122e+00
 4.599098981907536e-01	 1.925240843345804e+00	 2.729163216643801e+00
 4.425389456074418e-01	 1.929307804866323e+00	 2.716482935810324e+00
 4.251770774776416e-01	 1.933208128646343e+00	 2.714125052925131e+00
 4.078264964321275e-01	 1.936942603297183e+00	 2.722873242013167e+00
 3.904893791234387e-01	 1.940512052502813e+00	 2.743537168462182e+00
 3.731678756223426e-01	 1.943917334201314e+00	 2.776944546686256e+00
 3.558641088411316e-01	 1.947159339757076e+00	 2.822805898447987e+00
 3.385801739837758e-01	 1.950238993124647e+00	 2.878714177255215e+00
 5.143372938616730e-01	 1.920555485753755e+00	 2.882175677636014e+00
 4.968750631159927e-01	 1.925147105244934e+00	 2.842047959003704e+00
 4.794151698714576e-01	 1.929569187281490e+00	 2.806888597727325e+00
 4.619599009531188e-01	 1.933822413476946e+00	 2.778204969763233e+00
 4.445115190716425e-01	 1.937907503075149e+00	 2.757548223719709e+00
 4.270722621367097e-01	 1.941825212161644e+00	 2.746501501872391e+00
 4.096443425970919e-01	 1.945576332862909e+00	 2.746669371016598e+00
 3.922299468075293e-01	 1.949161692534409e+00	 2.759668376817719e+00
 3.748312344225054e-01	 1.952582152938404e+00	 2.787118630739271e+00
 3.574503378169717e-01	 1.955838609412455e+00	 2.829768278497475e+00
 3.400893615340512e-01	 1.958931990029550e+00	 2.885890946103474e+00
 5.166197276192274e-01	 1.929078182293349e+00	 2.935601156991968e+00
 4.990800061193236e-01	 1.933690177649742e+00	 2.895604058487458e+00
 4.815426324935459e-01	 1.938131883208610e+00	 2.857640488471720e+00
 4.640099037149931e-01	 1.942403983608215e+00	 2.823968886083850e+00
 4.464840925353693e-01	 1.946507201284139e+00	 2.796880682701753e+00
 4.289674467953358e-01	 1.950442295677148e+00	 2.778687949460471e+00
 4.114621887616591e-01	 1.954210062428879e+00	 2.771712326847145e+00
 3.939705144912787e-01	 1.957811332566286e+00	 2.778275146316694e+00
 3.764945932223915e-01	 1.961246971675802e+00	 2.800688649112125e+00
 3.590365667926076e-01	 1.964517879068161e+00	 2.840604553638981e+00
 3.415985490842010e-01	 1.967624986934785e+00	 2.896968791558424e+00
 5.189021613763785e-01	 1.937600878832876e+00	 2.982728207525624e+00
 5.012849491222109e-01	 1.942233250054491e+00	 2.943626773622184e+00
 4.836700951151674e-01	 1.946694579135689e+00	 2.903949594783251e+00
 4.660599064763934e-01	 1.950985553739471e+00	 2.866599093519076e+00
 4.484566659986289e-01	 1.955106899493149e+00	 2.834501277518454e+00
 4.308626314535149e-01	 1.959059379192707e+00	 2.810592924917754e+00
 4.132800349258109e-01	 1.962843791994937e+00	 2.797810121135747e+00
 3.957110821746551e-01	 1.966460972598282e+00	 2.799078053325740e+00
 3.781579520219569e-01	 1.969911790413346e+00	 2.817301963563446e+00
 3.606227957679829e-01	 1.973197148724028e+00	 2.854903553351923e+00
 3.431077366341572e-01	 1.976317983840187e+00	 2.911487147020202e+00
 5.211845951331590e-01	 1.946123575372203e+00	 3.024107872370426e+00
 5.034898921246862e-01	 1.950776322459048e+00	 2.986521630835099e+00
 4.857975577363481e-01	 1.955257275062592e+00	 2.946082861493651e+00
 4.681099092373366e-01	 1.959567123870573e+00	 2.906232133563923e+00
 4.504292394614280e-01	 1.963706597702032e+00	 2.870425542732040e+00
 4.327578161112414e-01	 1.967676462708169e+00	 2.842121545113724e+00
 4.150978810895289e-01	 1.971477521560928e+00	 2.824769209579408e+00
 3.974516498576267e-01	 1.975110612630235e+00	 2.821797790424115e+00
 3.798213108211564e-01	 1.978576609150870e+00	 2.836607517263199e+00
 3.622090247430407e-01	 1.981876418379890e+00	 2.872258041462433e+00
 3.446169241838526e-01	 1.985010980745589e+00	 2.928990808484548e+00
 5.234670288896022e-01	 1.954646271911197e+00	 3.060276988461737e+00
 5.056948351267798e-01	 1.959319394863277e+00	 3.024682307547321e+00
 4.879250203571132e-01	 1.963819970989180e+00	 2.984297676234761e+00
 4.701599119978404e-01	 1.968148694001381e+00	 2.942997193977717e+00
 4.524018129237732e-01	 1.972306295910643e+00	 2.904663751450714e+00
 4.346530007685095e-01	 1.976293546223384e+00	 2.873175623855359e+00
 4.169157272527949e-01	 1.980111251126696e+00	 2.852394546756463e+00
 3.991922175401620e-01	 1.983760252661990e+00	 2.846155172178481e+00
 3.814846696199455e-01	 1.987241427888211e+00	 2.858255797431336e+00
 3.637952537177240e-01	 1.990555688035582e+00	 2.892264533869803e+00
 3.461261117332197e-01	 1.993703977650823e+00	 2.949029735144236e+00
 5.257494626457417e-01	 1.963168968449725e+00	 3.091758625817879e+00
 5.078997781285232e-01	 1.967862467267044e+00	 3.058490998623815e+00
 4.900524829774880e-01	 1.972382666915316e+00	 3.018842165990793e+00
 4.722099147579212e-01	 1.976730264131752e+00	 2.977016338863742e+00
 4.543743863856709e-01	 1.980905994118837e+00	 2.937221082844773e+00
 4.365481854253142e-01	 1.984910629738201e+00	 2.903653781224850e+00
 4.187335734155900e-01	 1.988744980692086e+00	 2.880489642139325e+00
 4.009327852222294e-01	 1.992409892693384e+00	 2.871871143143930e+00
 3.831480284182797e-01	 1.995906246625206e+00	 2.881898801091764e+00
 3.653814826919763e-01	 1.999234957690937e+00	 2.914523120125352e+00
 3.476352992821909e-01	 2.002396974555725e+00	 2.971158854417095e+00
 5.280318964016106e-01	 1.971691664987653e+00	 3.119062519830156e+00
 5.101047211299472e-01	 1.976405539670215e+00	 3.088318777387137e+00
 4.921799455974982e-01	 1.980945362840864e+00	 3.049955489707557e+00
 4.742599175175964e-01	 1.985311834261547e+00	 3.008404736224683e+00
 4.563469598471280e-01	 1.989505692326468e+00	 2.968097788470299e+00
 4.384433700816499e-01	 1.993527713252470e+00	 2.933451552957556e+00
 4.205514195778962e-01	 1.997378710256942e+00	 2.908856617268451e+00
 4.026733529037974e-01	 2.001059532724258e+00	 2.898666788023752e+00
 3.848113872161142e-01	 2.004571065361692e+00	 2.907190003847381e+00
 3.669677116657404e-01	 2.007914227345791e+00	 2.938637288747147e+00
 3.491444868306985e-01	 2.011089971460127e+00	 2.994937871266820e+00
 5.303143301572421e-01	 1.980214361524848e+00	 3.142685496772692e+00
 5.123096641310828e-01	 1.984948612072654e+00	 3.114525951358818e+00
 4.943074082171690e-01	 1.989508058765687e+00	 3.077868127077506e+00
 4.763099202768831e-01	 1.993893404390623e+00	 3.037270883069813e+00
 4.583195333081506e-01	 1.998105390533390e+00	 2.997289357436385e+00
 4.403385547375112e-01	 2.002144796766040e+00	 2.962461499858826e+00
 4.223692657396950e-01	 2.006012439821109e+00	 2.937296264052633e+00
 4.044139205848339e-01	 2.009709172754451e+00	 2.926263343923023e+00
 3.864747460134044e-01	 2.013235884097506e+00	 2.933784331585154e+00
 3.685539406389596e-01	 2.016593496999975e+00	 2.964213756157880e+00
 3.506536743786751e-01	 2.019782968363861e+00	 3.019931081687130e+00
 5.325967639126695e-01	 1.988737058061177e+00	 3.163111892735275e+00
 5.145146071319613e-01	 1.993491684474228e+00	 3.137462412886560e+00
 4.964348708365260e-01	 1.998070754689647e+00	 3.102802163615227e+00
 4.783599230357983e-01	 2.002474974518841e+00	 3.063716828147396e+00
 4.602921067687459e-01	 2.006705088739458e+00	 3.024786680450519e+00
 4.422337393928928e-01	 2.010761880278762e+00	 2.990573317258634e+00
 4.241871119009684e-01	 2.014646169384433e+00	 2.965608104161625e+00
 4.061544882653080e-01	 2.018358812783806e+00	 2.954382214633164e+00
 3.881381048101060e-01	 2.021900702832483e+00	 2.961338135023333e+00
 3.701401696115776e-01	 2.025272766653326e+00	 2.990862299137385e+00
 3.521628619260533e-01	 2.028475965266763e+00	 3.045707190224406e+00
 3.370709864334423e-01	 1.941545996220245e+00	 2.875904618173139e+00
 3.198829753695842e-01	 1.944451725334479e+00	 2.927527151514486e+00
 3.027188076966160e-01	 1.947197703991955e+00	 2.967632530605619e+00
 2.855804889357101e-01	 1.949784943399491e+00	 2.998405553921715e+00
 2.684699949860878e-01	 1.952214483855871e+00	 3.021849874907091e+00
 2.513892717099102e-01	 1.954487393889909e+00	 3.039810045110506e+00
 2.343402345435050e-01	 1.956604769395496e+00	 3.053991482516446e+00
 2.173247681347407e-01	 1.958567732764435e+00	 3.065978538959827e+00
 2.003447260063288e-01	 1.960377432017918e+00	 3.077250839188130e+00
 1.834019302448152e-01	 1.962035039937395e+00	 3.089198061666597e+00
 1.664981712149926e-01	 1.963541753195654e+00	 3.103133327696062e+00
 3.385801739837758e-01	 1.950238993124647e+00	 2.878714177255215e+00
 3.213152060373046e-01	 1.953157732229060e+00	 2.934306722195859e+00
 3.040741882370560e-01	 1.955916005616716e+00	 2.981001476911088e+00
 2.868591350836596e-01	 1.958514829021956e+00	 3.019914608702896e+00
 2.696720313231646e-01	 1.960955247401336e+00	 3.051989650567442e+00
 2.525148315300738e-01	 1.963238334067846e+00	 3.078020286202704e+00
 2.353894597168291e-01	 1.965365189822070e+00	 3.098670987378395e+00
 2.182978089695616e-01	 1.967336942081151e+00	 3.114495683726369e+00
 2.012417411098868e-01	 1.969154744006365e+00	 3.125954643588531e+00
 1.842230863825036e-01	 1.970819773630115e+00	 3.133429741961159e+00
 1.672436431683273e-01	 1.972333232983107e+00	 3.137238287889091e+00
 3.400893615340512e-01	 1.958931990029550e+00	 2.885890946103474e+00
 3.227474367050578e-01	 1.961863739124130e+00	 2.944996205570958e+00
 3.054295687776205e-01	 1.964634307241942e+00	 2.997383443799734e+00
 2.881377812318240e-01	 1.967244714644846e+00	 3.043235379935674e+00
 2.708740676605449e-01	 1.969696010947181e+00	 3.082571254904110e+00
 2.536403913506262e-01	 1.971989274246110e+00	 3.115270156462702e+00
 2.364386848906221e-01	 1.974125610248917e+00	 3.141092126925342e+00
 2.192708498049250e-01	 1.976106151398081e+00	 3.159697240129903e+00
 2.021387562140536e-01	 1.977932055994974e+00	 3.170662832686551e+00
 1.850442425208578e-01	 1.979604507322948e+00	 3.173499071797151e+00
 1.679891151223749e-01	 1.981124712770631e+00	 3.167663038073186e+00
 3.415985490842010e-01	 1.967624986934785e+00	 2.896968791558424e+00
 3.241796673727674e-01	 1.970569746019525e+00	 2.959100680713512e+00
 3.067849493182258e-01	 1.973352608867469e+00	 3.016281814057621e+00
 2.894164273801143e-01	 1.975974600268006e+00	 3.067894949709359e+00
 2.720761039981348e-01	 1.978436774493256e+00	 3.113169177416164e+00
 2.547659511714682e-01	 1.980740214424560e+00	 3.151203582232683e+00
 2.374879100647804e-01	 1.982886030675900e+00	 3.180988624291671e+00
 2.202438906407231e-01	 1.984875360715103e+00	 3.201425428101345e+00
 2.030357713187161e-01	 1.986709367983631e+00	 3.211343173134666e+00
 1.858653986597592e-01	 1.988389241015790e+00	 3.209514774564007e+00
 1.687345870770097e-01	 1.989916192558135e+00	 3.194671038935015e+00
 3.431077366341572e-01	 1.976317983840187e+00	 2.911487147020202e+00
 3.256118980403570e-01	 1.979275752915078e+00	 2.976131776107142e+00
 3.081403298587881e-01	 1.982070910493136e+00	 3.037206955888950e+00
 2.906950735284403e-01	 1.984704485891279e+00	 3.093427309799990e+00
 2.732781403358386e-01	 1.987177538039408e+00	 3.143364265009146e+00
 2.558915109925006e-01	 1.989491154603049e+00	 3.185469853676727e+00
 2.385371352392004e-01	 1.991646451102887e+00	 3.218098166808670e+00
 2.212169314768480e-01	 1.993644570032091e+00	 3.239524661352442e+00
 2.039327864237614e-01	 1.995486679972220e+00	 3.247963519360997e+00
 1.866865547990892e-01	 1.997173974708539e+00	 3.241583254954480e+00
 1.694800590321062e-01	 1.998707672345530e+00	 3.218520760535418e+00
 3.446169241838526e-01	 1.985010980745589e+00	 2.928990808484548e+00
 3.270441287077501e-01	 1.987981759810624e+00	 2.995607456582827e+00
 3.094957103992240e-01	 1.990789212118780e+00	 3.059676011287426e+00
 2.919737196767128e-01	 1.993434371514504e+00	 3.119373161325521e+00
 2.744801766735623e-01	 1.995918301585487e+00	 3.172743542102684e+00
 2.570170708136242e-01	 1.998242094781434e+00	 3.217723473829560e+00
 2.395863604137787e-01	 2.000406871529739e+00	 3.252162291804995e+00
 2.221899723131911e-01	 2.002413779348917e+00	 3.273841477063097e+00
 2.048298015290768e-01	 2.004263991960626e+00	 3.280491793605425e+00
 1.875077109387290e-01	 2.005958708401091e+00	 3.269808635141561e+00
 1.702255309875389e-01	 2.007499152132723e+00	 3.239465779752457e+00
 3.461261117332197e-01	 1.993703977650823e+00	 2.949029735144236e+00
 3.284763593748703e-01	 1.996687766705998e+00	 3.017051815175959e+00
 3.108510909394495e-01	 1.999507513744238e+00	 3.083212689393662e+00
 2.932523658248417e-01	 2.002164257137524e+00	 3.145279719184324e+00
 2.756822130112110e-01	 2.004659065131339e+00	 3.200900035067923e+00
 2.581426306347395e-01	 2.006993034959572e+00	 3.247624011289198e+00
 2.406355855884116e-01	 2.009167291956322e+00	 3.282926275151473e+00
 2.231630131496452e-01	 2.011182988665458e+00	 3.304224467217590e+00
 2.057268166345491e-01	 2.013041303948738e+00	 3.308895966332117e+00
 1.883288670785601e-01	 2.014743442093345e+00	 3.294292789900160e+00
 1.709710029431823e-01	 2.016290631919625e+00	 3.257754875096767e+00
 3.476352992821909e-01	 2.002396974555725e+00	 2.971158854417095e+00
 3.299085900416411e-01	 2.005393773601034e+00	 3.039994869753321e+00
 3.122064714793811e-01	 2.008225815369348e+00	 3.107347064686969e+00
 2.945310119727377e-01	 2.010894142760184e+00	 3.170700521131554e+00
 2.768842493486897e-01	 2.013399828676814e+00	 3.227432600863051e+00
 2.592681904557474e-01	 2.015743975137317e+00	 3.274835956442884e+00
 2.416848107629957e-01	 2.017927712382503e+00	 3.310139022466690e+00
 2.241360539861018e-01	 2.019952197981589e+00	 3.330524211539816e+00
 2.066238317400656e-01	 2.021818615936437e+00	 3.333144037007031e+00
 1.891500232184639e-01	 2.023528175785197e+00	 3.315135380705696e+00
 1.717164748989107e-01	 2.025082111706145e+00	 3.273632118978976e+00
 3.491444868306985e-01	 2.011089971460127e+00	 2.994937871266820e+00
 3.313408207079864e-01	 2.014099780495567e+00	 3.063972364265839e+00
 3.135618520189350e-01	 2.016944116993947e+00	 3.131615379865385e+00
 2.958096581203110e-01	 2.019624028382323e+00	 3.195195241352979e+00
 2.780862856859040e-01	 2.022140592221762e+00	 3.251945759740008e+00
 2.603937502765490e-01	 2.024494915314528e+00	 3.299028581119301e+00
 2.427340359374274e-01	 2.026688132808145e+00	 3.333552962902960e+00
 2.251090948224531e-01	 2.028721407297184e+00	 3.352593211978892e+00
 2.075208468455135e-01	 2.030595927923613e+00	 3.353204015229401e+00
 1.899711793583216e-01	 2.032312909476545e+00	 3.332433888840493e+00
 1.724619468545988e-01	 2.033873591492191e+00	 3.287336967506320e+00
 3.506536743786751e-01	 2.019782968363861e+00	 3.019931081687130e+00
 3.327730513738294e-01	 2.022805787389431e+00	 3.088525574487540e+00
 3.149172325580277e-01	 2.025662418617873e+00	 3.155559853272519e+00
 2.970883042674720e-01	 2.028353914003787e+00	 3.218329508400920e+00
 2.792883220227592e-01	 2.030881355766028e+00	 3.274049531899723e+00
 2.615193100970445e-01	 2.033245855491057e+00	 3.319875801563831e+00
 2.437832611116033e-01	 2.035448553233113e+00	 3.352923945434916e+00
 2.260821356585912e-01	 2.037490616612119e+00	 3.370285828698590e+00
 2.084178619507796e-01	 2.039373239910148e+00	 3.369043902206441e+00
 1.907923354980147e-01	 2.041097643167284e+00	 3.346283647537873e+00
 1.732074188101208e-01	 2.042665071277676e+00	 3.299104347882890e+00
 3.521628619260533e-01	 2.028475965266763e+00	 3.045707190224406e+00
 3.342052820390940e-01	 2.031511794282461e+00	 3.113201118106341e+00
 3.162726130965756e-01	 2.034380720240966e+00	 3.178728490735025e+00
 2.983669504141310e-01	 2.037083799624414e+00	 3.239674727361338e+00
 2.804903583591603e-01	 2.039622119309464e+00	 3.293359277977250e+00
 2.626448699171351e-01	 2.041996795666766e+00	 3.337056044637320e+00
 2.448324862854198e-01	 2.044208973657273e+00	 3.368011137575588e+00
 2.270551764944082e-01	 2.046259825926268e+00	 3.383458217525441e+00
 2.093148770557514e-01	 2.048150551895931e+00	 3.380631672561106e+00
 1.916134916374246e-01	 2.049882376857315e+00	 3.356777873192874e+00
 1.739528907653514e-01	 2.051456551062507e+00	 3.309164743485399e+00
 1.664981712149926e-01	 1.963541753195654e+00	 3.103133327696062e+00
 1.496380635122771e-01	 1.964898573407881e+00	 3.119136366186520e+00
 1.328204230301581e-01	 1.966107010389023e+00	 3.132904554727339e+00
 1.160469042979976e-01	 1.967168326246733e+00	 3.139202547493999e+00
 9.931913029805782e-02	 1.968083803490110e+00	 3.132916208099482e+00
 8.263869229708956e-02	 1.968854744185433e+00	 3.109065195890612e+00
 6.600714970048427e-02	 1.969482469115895e+00	 3.062814749459599e+00
 4.942602992861282e-02	 1.969968316945963e+00	 2.989486790386862e+00
 3.289682831496212e-02	 1.970313643390948e+00	 2.884570461877169e+00
 1.642100802566443e-02	 1.970519820392425e+00	 2.743732208329100e+00
 0.000000000000000e+00	 1.970588235300000e+00	 2.562825492960502e+00
 1.672436431683273e-01	 1.972333232983107e+00	 3.137238287889091e+00
 1.503080467239818e-01	 1.973696128165110e+00	 3.137686638185680e+00
 1.334151076412680e-01	 1.974909975751075e+00	 3.133217193391934e+00
 1.165664878574426e-01	 1.975976043499590e+00	 3.121380312312539e+00
 9.976381762141452e-02	 1.976895619662033e+00	 3.099828540889061e+00
 8.300869532458036e-02	 1.977670012134527e+00	 3.066325656191832e+00
 6.630268735432285e-02	 1.978300547613911e+00	 3.018755028372926e+00
 4.964732796979596e-02	 1.978788570758354e+00	 2.955127429138553e+00
 3.304411919960574e-02	 1.979135443353222e+00	 2.873588406359890e+00
 1.649453076097905e-02	 1.979342543482784e+00	 2.772425335236358e+00
 0.000000000000000e+00	 1.979411264708333e+00	 2.650074246922702e+00
 1.679891151223749e-01	 1.981124712770631e+00	 3.167663038073186e+00
 1.509780299364344e-01	 1.982493682922379e+00	 3.153887976549312e+00
 1.340097922531461e-01	 1.983712941113145e+00	 3.133202236475887e+00
 1.170860714176576e-01	 1.984783760752450e+00	 3.105538551582786e+00
 1.002085049455216e-01	 1.985707435833949e+00	 3.070914509747150e+00
 8.337869835277716e-02	 1.986485280083611e+00	 3.029438466234673e+00
 6.659822500879485e-02	 1.987118626111916e+00	 2.981314883136950e+00
 4.986862601150879e-02	 1.987608824570739e+00	 2.926849228963599e+00
 3.319141008464092e-02	 1.987957243315492e+00	 2.866452562845391e+00
 1.656805349650968e-02	 1.988165266573141e+00	 2.800645918036929e+00
 0.000000000000000e+00	 1.988234294116667e+00	 2.730064589340474e+00
 1.687345870770097e-01	 1.989916192558135e+00	 3.194671038935015e+00
 1.516480131495013e-01	 1.991291237679609e+00	 3.168134050265394e+00
 1.346044768656508e-01	 1.992515906475166e+00	 3.133325689102857e+00
 1.176056549784953e-01	 1.993591478005259e+00	 3.092163461756669e+00
 1.006531922702295e-01	 1.994519252005821e+00	 3.046634056840916e+00
 8.374870138153295e-02	 1.995300548032656e+00	 2.998796535258528e+00
 6.689376266376290e-02	 1.995936704609892e+00	 2.950785042232564e+00
 5.008992405363184e-02	 1.996429078383105e+00	 2.904811180605780e+00
 3.333870096997602e-02	 1.996779043277751e+00	 2.863166174584655e+00
 1.664157623220401e-02	 1.996987989663497e+00	 2.828222942794413e+00
 0.000000000000000e+00	 1.997057323525000e+00	 2.802438188900437e+00
 1.694800590321062e-01	 1.998707672345530e+00	 3.218520760535418e+00
 1.523179963630489e-01	 2.000088792436724e+00	 3.180811280723280e+00
 1.351991614786409e-01	 2.001318871837074e+00	 3.134045059846720e+00
 1.181252385398084e-01	 2.002399195257965e+00	 3.081732407437355e+00
 1.010978795953882e-01	 2.003331068177603e+00	 3.027438776939382e+00
 8.411870441070078e-02	 2.004115815981633e+00	 2.974785635917021e+00
 6.718930031908958e-02	 2.004754783107819e+00	 2.927450941902759e+00
 5.031122209604558e-02	 2.005249332195440e+00	 2.889169368234667e+00
 3.348599185551944e-02	 2.005600843239997e+00	 2.863732413664920e+00
 1.671509896800975e-02	 2.005810712753848e+00	 2.854988518689734e+00
 0.000000000000000e+00	 2.005880352933334e+00	 2.866843300415963e+00
 1.702255309875389e-01	 2.007499152132723e+00	 3.239465779752457e+00
 1.529879795769437e-01	 2.008886347193643e+00	 3.192298990749934e+00
 1.357938460919748e-01	 2.010121837198804e+00	 3.135809538803158e+00
 1.186448221014495e-01	 2.011206912510516e+00	 3.074714108095640e+00
 1.015425669208482e-01	 2.012142884349258e+00	 3.013772094540622e+00
 8.448870744013372e-02	 2.012931083930511e+00	 2.957784555726783e+00
 6.748483797463746e-02	 2.013572861605677e+00	 2.911592837965123e+00
 5.053252013863051e-02	 2.014069586007733e+00	 2.880077029781067e+00
 3.363328274117951e-02	 2.014422643202223e+00	 2.868154380128494e+00
 1.678862170387454e-02	 2.014633435844194e+00	 2.880777808268153e+00
 0.000000000000000e+00	 2.014703382341667e+00	 2.922934620613416e+00
 1.709710029431823e-01	 2.016290631919625e+00	 3.257754875096767e+00
 1.536579627910520e-01	 2.017683901950290e+00	 3.202969549692730e+00
 1.363885307055112e-01	 2.018924802560289e+00	 3.139060170966852e+00
 1.191644056632713e-01	 2.020014629762859e+00	 3.071568819879647e+00
 1.019872542464597e-01	 2.020954700520745e+00	 3.006069436352991e+00
 8.485871046968470e-02	 2.021746351879260e+00	 2.948165244548451e+00
 6.778037563026917e-02	 2.022390940103445e+00	 2.903485914697332e+00
 5.075381818126721e-02	 2.022889839819972e+00	 2.877684615693942e+00
 3.378057362686460e-02	 2.023244443164422e+00	 2.876435101115034e+00
 1.686214443974610e-02	 2.023456158934532e+00	 2.905428959511239e+00
 0.000000000000000e+00	 2.023526411750000e+00	 2.970373147691145e+00
 1.717164748989107e-01	 2.025082111706145e+00	 3.273632118978976e+00
 1.543279460052404e-01	 2.026481456706588e+00	 3.213188514668993e+00
 1.369832153191087e-01	 2.027727767921467e+00	 3.144230025057000e+00
 1.196839892251265e-01	 2.028822347014941e+00	 3.072748512667020e+00
 1.024319415720729e-01	 2.029766516692021e+00	 3.004758399271562e+00
 8.522871349920687e-02	 2.030561619827852e+00	 2.946292958220547e+00
 6.807591328584725e-02	 2.031209018601106e+00	 2.903400390884604e+00
 5.097511622383614e-02	 2.031710093632146e+00	 2.882139846166811e+00
 3.392786451248306e-02	 2.032066243126590e+00	 2.888577530026580e+00
 1.693566717557211e-02	 2.032278882024863e+00	 2.928783039678467e+00
 0.000000000000000e+00	 2.032349441158334e+00	 3.008826044536648e+00
 1.724619468545988e-01	 2.033873591492191e+00	 3.287336967506320e+00
 1.549979292193752e-01	 2.035279011462456e+00	 3.223314768098248e+00
 1.375778999326259e-01	 2.036530733282270e+00	 3.151744357928763e+00
 1.202035727868676e-01	 2.037630064266709e+00	 3.078697042503479e+00
 1.028766288975381e-01	 2.038578332863048e+00	 3.010258913986124e+00
 8.559871652855321e-02	 2.039376887776258e+00	 2.952526398462618e+00
 6.837145094123431e-02	 2.040027097098637e+00	 2.911601623114959e+00
 5.119641426621782e-02	 2.040530347444243e+00	 2.893587766879917e+00
 3.407515539794327e-02	 2.040888043088722e+00	 2.904584545714615e+00
 1.700918991130026e-02	 2.041101605115184e+00	 2.950683970864803e+00
 0.000000000000000e+00	 2.041172470566667e+00	 3.037966505491200e+00
 1.732074188101208e-01	 2.042665071277676e+00	 3.299104347882890e+00
 1.556679124333229e-01	 2.044076566217819e+00	 3.233700651629177e+00
 1.381725845459214e-01	 2.045333698642635e+00	 3.162020774703797e+00
 1.207231563483474e-01	 2.046437781518113e+00	 3.089850319566823e+00
 1.033213162227055e-01	 2.047390149033785e+00	 3.022983404352282e+00
 8.596871955757676e-02	 2.048192155724446e+00	 2.967217849160047e+00
 6.866698859629294e-02	 2.048845175596020e+00	 2.928350206405256e+00
 5.141771230829277e-02	 2.049350601256251e+00	 2.912170803302906e+00
 3.422244628315362e-02	 2.049709843050813e+00	 2.924458951688580e+00
 1.708271264687824e-02	 2.049924328205494e+00	 2.970978467222671e+00
 0.000000000000000e+00	 2.049995499975000e+00	 3.057473626555077e+00
 1.739528907653514e-01	 2.051456551062507e+00	 3.309164743485399e+00
 1.563378956469499e-01	 2.052874120972599e+00	 3.244692096569416e+00
 1.387672691588538e-01	 2.054136664002496e+00	 3.175469384748099e+00
 1.212427399094186e-01	 2.055245498769098e+00	 3.106636471790523e+00
 1.037660035474255e-01	 2.056201965204191e+00	 3.043336942652823e+00
 8.633872258613057e-02	 2.057007423672388e+00	 2.990713309139056e+00
 6.896252625088575e-02	 2.057663254093237e+00	 2.953902072238002e+00
 5.163901034994151e-02	 2.058170855068159e+00	 2.938028813601162e+00
 3.436973716802243e-02	 2.058531643012857e+00	 2.948203475345077e+00
 1.715623538225374e-02	 2.058747051295792e+00	 2.989515973798262e+00
 0.000000000000000e+00	 2.058818529383334e+00	 3.067032278930122e+00
 2.058818529383334e+00	 0.000000000000000e+00	-7.857506425147466e+00
 2.058747051295792e+00	 1.715623538225260e-02	-9.879237846917878e+00
 2.058531643012857e+00	 3.436973716802146e-02	-1.147802462507500e+01
 2.058170855068159e+00	 5.163901034994070e-02	-1.259132124368513e+01
 2.057663254093237e+00	 6.896252625088510e-02	-1.315132733213600e+01
 2.057007423672389e+00	 8.633872258613008e-02	-1.308492224035133e+01
 2.056201965204191e+00	 1.037660035474252e-01	-1.231360800616677e+01
 2.055245498769098e+00	 1.212427399094184e-01	-1.075346096800011e+01
 2.054136664002496e+00	 1.387672691588538e-01	-8.315092281858448e+00
 2.052874120972598e+00	 1.563378956469501e-01	-4.903617614556959e+00
 2.051456551062507e+00	 1.739528907653515e-01	-4.186363002905071e-01
 2.067643058796667e+00	 0.000000000000000e+00	-1.101019055289206e+01
 2.067571274338999e+00	 1.722977061700544e-02	-1.223484492330216e+01
 2.067354942770832e+00	 3.451705309343959e-02	-1.322969571787420e+01
 2.066992608413081e+00	 5.186034601400614e-02	-1.390319934933604e+01
 2.066482831753568e+00	 6.925811414933346e-02	-1.415888072923369e+01
 2.065824190305540e+00	 8.670878851840116e-02	-1.389531553939804e+01
 2.065015279472878e+00	 1.042107664729740e-01	-1.300612160288380e+01
 2.064054713421412e+00	 1.217624118044820e-01	-1.137995954436009e+01
 2.062941125955724e+00	 1.393620548737723e-01	-8.900542933358622e+00
 2.061673171400800e+00	 1.570079927641407e-01	-5.446658114199126e+00
 2.060249525487874e+00	 1.746984894580363e-01	-8.921939394186682e-01
 2.076467588210001e+00	 0.000000000000000e+00	-1.274142521934138e+01
 2.076395497382196e+00	 1.730330585155438e-02	-1.345625819209284e+01
 2.076178242528763e+00	 3.466436901851108e-02	-1.408929238643557e+01
 2.075814361757913e+00	 5.208168167763481e-02	-1.452646576666519e+01
 2.075302409413750e+00	 6.955370204729899e-02	-1.464914711328073e+01
 2.074640956938473e+00	 8.707885445017870e-02	-1.433415867375801e+01
 2.073828593741268e+00	 1.046555293980448e-01	-1.345380837825369e+01
 2.072863928073350e+00	 1.222820836991005e-01	-1.187593175089436e+01
 2.071745587908495e+00	 1.399568405882870e-01	-9.463943648817967e+00
 2.070472221828470e+00	 1.576780898809677e-01	-6.076899969710514e+00
 2.069042499912646e+00	 1.754440881503876e-01	-1.569569479914733e+00
 2.085292117623334e+00	 0.000000000000000e+00	-1.316656708491623e+01
 2.085219720425382e+00	 1.737684108595038e-02	-1.364697201577326e+01
 2.085001542286666e+00	 3.481168494332260e-02	-1.414770131206908e+01
 2.084636115102676e+00	 5.230301734093597e-02	-1.453856083767698e+01
 2.084121987073818e+00	 6.984928994490247e-02	-1.468518812293311e+01
 2.083457723571238e+00	 8.744892038158603e-02	-1.444910813594758e+01
 2.082641908009435e+00	 1.051002923227571e-01	-1.368779884400004e+01
 2.081673142725004e+00	 1.228017555933854e-01	-1.225476664013229e+01
 2.080550049860926e+00	 1.405516263024989e-01	-9.999631710220973e+00
 2.079271272255744e+00	 1.583481869975220e-01	-6.768223423123319e+00
 2.077835474336971e+00	 1.761896868424884e-01	-2.402685836736736e+00
 2.094116647036667e+00	 0.000000000000000e+00	-1.239899863924384e+01
 2.094043943468564e+00	 1.745037632024442e-02	-1.290871527476112e+01
 2.093824842044546e+00	 3.495900086796078e-02	-1.349426428569624e+01
 2.093457868447397e+00	 5.252435300401877e-02	-1.401561405865401e+01
 2.092941564733811e+00	 7.014487784226459e-02	-1.432900360807800e+01
 2.092274490203895e+00	 8.781898631274664e-02	-1.428702426663317e+01
 2.091455222277453e+00	 1.055450552472305e-01	-1.373871115203424e+01
 2.090482357376469e+00	 1.233214274874477e-01	-1.252964443363670e+01
 2.089354511813128e+00	 1.411464120165089e-01	-1.050206042149666e+01
 2.088070322682753e+00	 1.590182841138945e-01	-7.494972507219981e+00
 2.086628448760997e+00	 1.769352855344224e-01	-3.344301995667772e+00
 2.102941176450000e+00	 0.000000000000000e+00	-1.055016962204172e+01
 2.102868166511744e+00	 1.752391155448750e-02	-1.134148850535580e+01
 2.102648141802415e+00	 3.510631679251230e-02	-1.221681079595639e+01
 2.102279621792095e+00	 5.274568866699238e-02	-1.303247181866979e+01
 2.101761142393767e+00	 7.044046573950599e-02	-1.364155418599873e+01
 2.101091256836495e+00	 8.818905224378382e-02	-1.389398826254960e+01
 2.100268536545397e+00	 1.059898181715844e-01	-1.363666215496462e+01
 2.099291572027842e+00	 1.238410993813988e-01	-1.271354120257802e+01
 2.098158973765217e+00	 1.417411977304180e-01	-1.096579694319050e+01
 2.096869373109628e+00	 1.596883812301762e-01	-8.231945534838388e+00
 2.095421423184876e+00	 1.776808842262730e-01	-4.347995624260176e+00
 2.111765705863333e+00	 0.000000000000000e+00	-7.729637405471106e+00
 2.111692389554924e+00	 1.759744678873057e-02	-9.043600106466046e+00
 2.111471441560285e+00	 3.525363271706382e-02	-1.040168979993088e+01
 2.111101375136792e+00	 5.296702432996599e-02	-1.166272444191474e+01
 2.110580720053723e+00	 7.073605363674738e-02	-1.268278323072824e+01
 2.109908023469095e+00	 8.855911817482100e-02	-1.331531875599350e+01
 2.109081850813340e+00	 1.064345810959382e-01	-1.341127818641008e+01
 2.108100786679215e+00	 1.243607712753499e-01	-1.281923342702049e+01
 2.106963435717304e+00	 1.423359834443270e-01	-1.138552017627232e+01
 2.105668423536505e+00	 1.603584783464578e-01	-8.954385820093304e+00
 2.104214397608754e+00	 1.784264829181235e-01	-5.368146110672466e+00
 2.120590235276666e+00	 0.000000000000000e+00	-4.045106368209655e+00
 2.120516612598105e+00	 1.767098202302463e-02	-6.111701642236957e+00
 2.120294741318165e+00	 3.540094864170201e-02	-8.133800700294163e+00
 2.119923128481511e+00	 5.318835999304879e-02	-9.978732554114774e+00
 2.119400297713716e+00	 7.103164153410949e-02	-1.151163831210368e+01
 2.118724790101751e+00	 8.892918410598157e-02	-1.259558797837235e+01
 2.117895165081359e+00	 1.068793440204116e-01	-1.309170556928035e+01
 2.116910001330680e+00	 1.248804431694123e-01	-1.285930243745330e+01
 2.115767897669507e+00	 1.429307691583371e-01	-1.175601869364873e+01
 2.114467473963513e+00	 1.610285754628304e-01	-9.637972624757801e+00
 2.113007372032781e+00	 1.791720816100575e-01	-6.359918017934696e+00
 2.129414764689999e+00	 0.000000000000000e+00	 3.975337095057050e-01
 2.129340835641293e+00	 1.774451725742063e-02	-2.640822266807836e+00
 2.129118041076065e+00	 3.554826456651351e-02	-5.496623551913570e+00
 2.128744881826276e+00	 5.340969565634995e-02	-8.051652792649865e+00
 2.128219875373785e+00	 7.132722943171296e-02	-1.018609210048409e+01
 2.127541556734517e+00	 8.929925003738894e-02	-1.177863751987456e+01
 2.126708479349526e+00	 1.073241069451239e-01	-1.270662085991358e+01
 2.125719215982335e+00	 1.254001150636971e-01	-1.284613874198306e+01
 2.124572359621937e+00	 1.435255548725490e-01	-1.207218871799669e+01
 2.123266524390786e+00	 1.616986725793848e-01	-1.025881232327403e+01
 2.121800346457106e+00	 1.799176803021584e-01	-7.279244941591337e+00
 2.138239294103332e+00	 0.000000000000000e+00	 5.494170201582651e+00
 2.138165058684489e+00	 1.781805249196956e-02	 1.275597703438851e+00
 2.137941340833998e+00	 3.569558049158501e-02	-2.572248520157540e+00
 2.137566635171108e+00	 5.363103131997866e-02	-5.951462879333232e+00
 2.137039453033966e+00	 7.162281732967855e-02	-8.763162752568636e+00
 2.136358323367448e+00	 8.966931596916647e-02	-1.090759369692839e+01
 2.135521793617915e+00	 1.077688698701947e-01	-1.228424083570265e+01
 2.134528430634272e+00	 1.259197869583157e-01	-1.279194624248983e+01
 2.133376821574709e+00	 1.441203405870637e-01	-1.232903214457941e+01
 2.132065574818457e+00	 1.623687696962117e-01	-1.079342978007630e+01
 2.130593320881878e+00	 1.806632789945096e-01	-8.082813759068292e+00
 2.147063823516666e+00	 0.000000000000000e+00	 1.114243111517164e+01
 2.146989281727697e+00	 1.789158772672240e-02	 5.545674045612568e+00
 2.146764640591973e+00	 3.584289641700315e-02	 5.585953875586309e-01
 2.146388388516029e+00	 5.385236698404408e-02	-3.746986074186381e+00
 2.145859030694298e+00	 7.191840522812687e-02	-7.298933793244028e+00
 2.145175090000602e+00	 9.003938190143755e-02	-1.002488253873433e+01
 2.144335107886603e+00	 1.082136327957435e-01	-1.185233223359045e+01
 2.143337645286588e+00	 1.264394588533793e-01	-1.270874634294247e+01
 2.142181283527938e+00	 1.447151263019822e-01	-1.252165460775110e+01
 2.140864625246658e+00	 1.630388668134023e-01	-1.121875993311914e+01
 2.139386295307245e+00	 1.814088776871945e-01	-8.728049259494469e+00
 2.051456551062507e+00	 1.739528907653515e-01	-4.186363002905071e-01
 2.049882376857315e+00	 1.916134916374238e-01	 4.211539899681048e+00
 2.048150551895931e+00	 2.093148770557507e-01	 7.995516078629874e+00
 2.046259825926267e+00	 2.270551764944074e-01	 1.094576174545843e+01
 2.044208973657273e+00	 2.448324862854191e-01	 1.307467564567856e+01
 2.041996795666765e+00	 2.626448699171346e-01	 1.439454435219651e+01
 2.039622119309464e+00	 2.804903583591599e-01	 1.491749642879218e+01
 2.037083799624415e+00	 2.983669504141306e-01	 1.465545190929237e+01
 2.034380720240965e+00	 3.162726130965752e-01	 1.362006679435077e+01
 2.031511794282461e+00	 3.342052820390937e-01	 1.182267222434375e+01
 2.028475965266763e+00	 3.521628619260533e-01	 9.274207941425940e+00
 2.060249525487874e+00	 1.746984894580363e-01	-8.921939394186686e-01
 2.058668604040913e+00	 1.924347873813847e-01	 3.829491437790861e+00
 2.056929356113464e+00	 2.102120446620651e-01	 7.700778716418322e+00
 2.055030526094590e+00	 2.280283827566950e-01	 1.072916403726373e+01
 2.052970883441376e+00	 2.458818898377876e-01	 1.292415566224082e+01
 2.050749223590655e+00	 2.637706210934052e-01	 1.429728317430647e+01
 2.048364368870937e+00	 2.816925990534855e-01	 1.486210094431412e+01
 2.045815169413713e+00	 2.996458139431212e-01	 1.463418549994923e+01
 2.043100504063327e+00	 3.176282240630477e-01	 1.363112638862229e+01
 2.040219281284530e+00	 3.356377561975623e-01	 1.187251008068200e+01
 2.037170440066873e+00	 3.536723060500791e-01	 9.379896411847593e+00
 2.069042499912646e+00	 1.754440881503876e-01	-1.569569479914734e+00
 2.067454831223859e+00	 1.932560831250240e-01	 3.135064382592277e+00
 2.065708160330302e+00	 2.111092122680537e-01	 7.013603457463411e+00
 2.063801226262183e+00	 2.290015890186395e-01	 1.006919299972309e+01
 2.061732793224723e+00	 2.469312933897866e-01	 1.230870242794521e+01
 2.059501651513772e+00	 2.648963722692743e-01	 1.374277654659509e+01
 2.057106618431624e+00	 2.828948397473754e-01	 1.438588001022954e+01
 2.054546539202219e+00	 3.009246774716440e-01	 1.425633457688489e+01
 2.051820287884890e+00	 3.189838350290254e-01	 1.337634865250535e+01
 2.048926768285800e+00	 3.370702303555184e-01	 1.177203858060868e+01
 2.045864914866182e+00	 3.551817501735879e-01	 9.473441081833718e+00
 2.077835474336971e+00	 1.761896868424884e-01	-2.402685836736736e+00
 2.076241058406319e+00	 1.940773788684221e-01	 2.196390255877220e+00
 2.074486964546619e+00	 2.120063798737980e-01	 6.016785174267399e+00
 2.072571926429228e+00	 2.299747952803273e-01	 9.057897106443091e+00
 2.070494703007504e+00	 2.479806969415096e-01	 1.132419264941740e+01
 2.068254079436308e+00	 2.660221234448447e-01	 1.282529153314757e+01
 2.065848867991720e+00	 2.840970804409430e-01	 1.357604384064122e+01
 2.063277908990127e+00	 3.022035409998225e-01	 1.359659920362949e+01
 2.060540071705855e+00	 3.203394459946423e-01	 1.291246740554588e+01
 2.057634255286470e+00	 3.385027045131051e-01	 1.155456977370652e+01
 2.054559389664892e+00	 3.566911942967295e-01	 9.559280690863446e+00
 2.086628448760997e+00	 1.769352855344224e-01	-3.344301995667772e+00
 2.085027285588453e+00	 1.948986746116594e-01	 1.080425084168132e+00
 2.083265768762588e+00	 2.129035474793797e-01	 4.791695473134117e+00
 2.081342626595910e+00	 2.309480015418445e-01	 7.785745760215311e+00
 2.079256612789907e+00	 2.490301004930505e-01	 1.006486038284556e+01
 2.077006507358456e+00	 2.671478746202191e-01	 1.163748139640131e+01
 2.074591117551423e+00	 2.852993211343013e-01	 1.251831027223874e+01
 2.072009278777640e+00	 3.034824045277809e-01	 1.272840115554366e+01
 2.069259855526420e+00	 3.216950569600323e-01	 1.229524496441727e+01
 2.066341742286739e+00	 3.399351786704650e-01	 1.125284365955014e+01
 2.063253864463201e+00	 3.582006384196532e-01	 9.641773959852451e+00
 2.095421423184876e+00	 1.776808842262730e-01	-4.347995624260176e+00
 2.093813512770422e+00	 1.957199703548164e-01	-1.470260044775089e-01
 2.092044572978384e+00	 2.138007150848803e-01	 3.418312594408468e+00
 2.090113326762409e+00	 2.319212078032777e-01	 6.341662585739456e+00
 2.088018522572121e+00	 2.500795040445029e-01	 8.623331802690105e+00
 2.085758935280412e+00	 2.682736257955009e-01	 1.027041992091105e+01
 2.083333367110929e+00	 2.865015618275639e-01	 1.129693671889215e+01
 2.080740648564953e+00	 3.047612680556430e-01	 1.172391157887613e+01
 2.077979639346784e+00	 3.230506679253297e-01	 1.157949357912136e+01
 2.075049229286808e+00	 3.413676528277410e-01	 1.089904147397545e+01
 2.071948339261310e+00	 3.597100825425086e-01	 9.725202801883123e+00
 2.104214397608754e+00	 1.784264829181235e-01	-5.368146110672466e+00
 2.102599739952394e+00	 1.965412660979735e-01	-1.421284790551460e+00
 2.100823377194180e+00	 2.146978826903816e-01	 1.975250574742899e+00
 2.098884026928908e+00	 2.328944140647129e-01	 4.813057901367837e+00
 2.096780432354335e+00	 2.511289075959603e-01	 7.090659114623978e+00
 2.094511363202366e+00	 2.693993769707924e-01	 8.813634894879701e+00
 2.092075616670435e+00	 2.877038025208437e-01	 9.994751345953169e+00
 2.089472018352266e+00	 3.060401315835327e-01	 1.065407797992880e+01
 2.086699423167150e+00	 3.244062788906682e-01	 1.081909635817655e+01
 2.083756716286878e+00	 3.428001269850761e-01	 1.052479867168621e+01
 2.080642814059420e+00	 3.612195266654452e-01	 9.813775485053199e+00
 2.113007372032781e+00	 1.791720816100575e-01	-6.359918017934696e+00
 2.111385967134528e+00	 1.973625618412110e-01	-2.678776562389543e+00
 2.109602181410150e+00	 2.155950502959652e-01	 5.397876928879368e-01
 2.107654727095589e+00	 2.338676203262365e-01	 3.285860393785345e+00
 2.105542342136737e+00	 2.521783111475165e-01	 5.556353637631338e+00
 2.103263791124515e+00	 2.705251281461971e-01	 7.355140773989221e+00
 2.100817866230138e+00	 2.889060432142541e-01	 8.693183486993284e+00
 2.098203388139777e+00	 3.073189951115737e-01	 9.588650563843119e+00
 2.095419206987715e+00	 3.257618898561822e-01	 1.006702769767872e+01
 2.092464203287147e+00	 3.442326011426128e-01	 1.016121761404381e+01
 2.089337288857729e+00	 3.627289707886123e-01	 9.911629748838022e+00
 2.121800346457106e+00	 1.799176803021584e-01	-7.279244941591337e+00
 2.120172194316986e+00	 1.981838575846094e-01	-3.857007287584726e+00
 2.118380985626466e+00	 2.164922179017126e-01	-8.121057802094478e-01
 2.116425427262635e+00	 2.348408265879351e-01	 1.844548018746695e+00
 2.114304251919518e+00	 2.532277146992651e-01	 4.108418079366946e+00
 2.112016219047050e+00	 2.716508793218174e-01	 5.981470551250913e+00
 2.109560115790234e+00	 2.901082839079083e-01	 7.472293324955285e+00
 2.106934757927686e+00	 3.085978586398903e-01	 8.596207941874390e+00
 2.104138990808679e+00	 3.271175008220056e-01	 9.375373228626760e+00
 2.101171690287817e+00	 3.456650753004945e-01	 9.838879970592670e+00
 2.098031763656439e+00	 3.642384149121597e-01	 1.002283587531539e+01
 2.130593320881878e+00	 1.806632789945096e-01	-8.082813759068294e+00
 2.128958421499933e+00	 1.990051533282493e-01	-4.894541339990321e+00
 2.127159789843305e+00	 2.173893855077057e-01	-2.005740506901439e+00
 2.125196127430228e+00	 2.358140328498946e-01	 5.721781502297718e-01
 2.123066161702865e+00	 2.542771182512998e-01	 2.833378028081504e+00
 2.120768646970167e+00	 2.727766304977565e-01	 4.777706855813928e+00
 2.118302365350920e+00	 2.913105246019196e-01	 6.410800858968377e+00
 2.115666127716191e+00	 3.098767221686060e-01	 7.744182225397847e+00
 2.112858774630242e+00	 3.284731117882725e-01	 8.795349296430587e+00
 2.109879177289086e+00	 3.470975494588635e-01	 9.587858842591521e+00
 2.106726238455749e+00	 3.657478590362366e-01	 1.015139971655665e+01
 2.139386295307245e+00	 1.814088776871945e-01	-8.728049259494469e+00
 2.137744648683532e+00	 1.998264490722111e-01	-5.730979766329347e+00
 2.135938594060838e+00	 2.182865531140259e-01	-2.967681664492412e+00
 2.133966827598551e+00	 2.367872391122015e-01	-4.495830003717758e-01
 2.131828071486969e+00	 2.553265218037142e-01	 1.816312683653208e+00
 2.129521074894057e+00	 2.739023816741171e-01	 3.827512302914099e+00
 2.127044614912394e+00	 2.925127652964011e-01	 5.586114177378628e+00
 2.124397497505491e+00	 3.111555856978451e-01	 7.098883524290954e+00
 2.121578558452605e+00	 3.298287227551169e-01	 8.377321986060258e+00
 2.118586664291155e+00	 3.485300236178631e-01	 9.437730616548587e+00
 2.115420713255859e+00	 3.672573031609928e-01	 1.030126567944660e+01
 2.028475965266763e+00	 3.521628619260533e-01	 9.274207941425940e+00
 2.025272766653326e+00	 3.701401696115764e-01	 6.702929547667130e+00
 2.021900702832483e+00	 3.881381048101049e-01	 4.712727600713477e+00
 2.018358812783806e+00	 4.061544882653070e-01	 3.172363966915375e+00
 2.014646169384433e+00	 4.241871119009676e-01	 2.051266367973628e+00
 2.010761880278761e+00	 4.422337393928923e-01	 1.317190013675736e+00
 2.006705088739459e+00	 4.602921067687453e-01	 9.362034679942126e-01
 2.002474974518841e+00	 4.783599230357982e-01	 8.726981408098009e-01
 1.998070754689647e+00	 4.964348708365260e-01	 1.089400681641176e+00
 1.993491684474229e+00	 5.145146071319616e-01	 1.547388350788631e+00
 1.988737058061177e+00	 5.325967639126696e-01	 2.206107453848337e+00
 2.037170440066873e+00	 3.536723060500791e-01	 9.379896411847591e+00
 2.033953511870113e+00	 3.717266682586763e-01	 6.875782824905055e+00
 2.030566994674092e+00	 3.898017463941682e-01	 4.936736250374904e+00
 2.027009923339256e+00	 4.078953518594775e-01	 3.450345416008396e+00
 2.023281366768910e+00	 4.260052671141150e-01	 2.385977115077099e+00
 2.019380428782637e+00	 4.441292462485367e-01	 1.709410009402132e+00
 2.015306248981001e+00	 4.622650155865509e-01	 1.382807562552398e+00
 2.011058003600574e+00	 4.804102743157578e-01	 1.364695584476517e+00
 2.006634906358315e+00	 4.985626951459567e-01	 1.609944543250053e+00
 2.002036209284311e+00	 5.167199249954290e-01	 2.069756808948574e+00
 1.997261203541910e+00	 5.348795857049577e-01	 2.691659004382049e+00
 2.045864914866182e+00	 3.551817501735879e-01	 9.473441081833721e+00
 2.042634257086100e+00	 3.733131669052712e-01	 7.168604366738301e+00
 2.039233286514900e+00	 3.914653879777524e-01	 5.384637207490403e+00
 2.035661033893906e+00	 4.096362154532062e-01	 4.026757418716309e+00
 2.031916564152587e+00	 4.278234223268679e-01	 3.064933349146061e+00
 2.027998977285713e+00	 4.460247531038403e-01	 2.464046866559413e+00
 2.023907409221743e+00	 4.642379244040728e-01	 2.183838806616431e+00
 2.019641032681508e+00	 4.824606255954923e-01	 2.178860408799227e+00
 2.015199058026183e+00	 5.006905194552196e-01	 2.398430967090778e+00
 2.010580734093593e+00	 5.189252428587805e-01	 2.786601932043320e+00
 2.005785349021840e+00	 5.371624074971756e-01	 3.282127710163738e+00
 2.054559389664892e+00	 3.566911942967295e-01	 9.559280690863448e+00
 2.051315002301486e+00	 3.748996655515140e-01	 7.556905558776688e+00
 2.047899578355109e+00	 3.931290295610114e-01	 6.008332987100253e+00
 2.044312144447956e+00	 4.113770790466464e-01	 4.835104148447770e+00
 2.040551761535664e+00	 4.296415775393758e-01	 4.008470199573643e+00
 2.036617525788189e+00	 4.479202599589470e-01	 3.493490569260679e+00
 2.032508569461885e+00	 4.662108332214486e-01	 3.248957110931112e+00
 2.028224061761841e+00	 4.845109768751312e-01	 3.227325221235743e+00
 2.023763209693450e+00	 5.028183437644346e-01	 3.374652206017111e+00
 2.019125258902276e+00	 5.211305607221275e-01	 3.630543184090504e+00
 2.014309494501172e+00	 5.394452292894243e-01	 3.928104828483431e+00
 2.063253864463201e+00	 3.582006384196532e-01	 9.641773959852451e+00
 2.059995747516472e+00	 3.764861641975579e-01	 8.016649532635553e+00
 2.056565870194917e+00	 3.947926711441001e-01	 6.760556938175205e+00
 2.052963255001605e+00	 4.131179426399513e-01	 5.810032114545578e+00
 2.049186958918340e+00	 4.314597327517884e-01	 5.138288293644616e+00
 2.045236074290263e+00	 4.498157668140014e-01	 4.711631514137268e+00
 2.041109729701627e+00	 4.681837420388157e-01	 4.489369617377253e+00
 2.036807090841774e+00	 4.865613281548041e-01	 4.423728793711255e+00
 2.032327361360318e+00	 5.049461680737224e-01	 4.459777996266641e+00
 2.027669783710558e+00	 5.233358785855805e-01	 4.535361548714915e+00
 2.022833639980103e+00	 5.417280510818046e-01	 4.581040282993226e+00
 2.071948339261310e+00	 3.597100825425086e-01	 9.725202801883123e+00
 2.068676492731258e+00	 3.780726628435567e-01	 8.524221665473414e+00
 2.065232162034526e+00	 3.964563127271726e-01	 7.594856105131759e+00
 2.061614365555055e+00	 4.148588062332741e-01	 6.887306446078425e+00
 2.057822156300817e+00	 4.332778879642556e-01	 6.377425311309618e+00
 2.053854622792139e+00	 4.517112736691478e-01	 6.033829182939526e+00
 2.049710889941170e+00	 4.701566508563120e-01	 5.817798333165018e+00
 2.045390119921507e+00	 4.886116794346401e-01	 5.683184497859875e+00
 2.040891513026985e+00	 5.070739923832034e-01	 5.576326627647538e+00
 2.036214308518640e+00	 5.255411964492500e-01	 5.435975061356178e+00
 2.031357785458835e+00	 5.440108728744170e-01	 5.193224476912097e+00
 2.080642814059420e+00	 3.612195266654452e-01	 9.813775485053194e+00
 2.077357237946044e+00	 3.796591614896633e-01	 9.056421077451734e+00
 2.073898453874134e+00	 3.981199543103834e-01	 8.465574508537951e+00
 2.070265476108505e+00	 4.165996698267676e-01	 8.003787758750963e+00
 2.066457353683294e+00	 4.350960431769266e-01	 7.650228240611982e+00
 2.062473171294014e+00	 4.536067805245310e-01	 7.376881586978556e+00
 2.058312050180712e+00	 4.721295596740745e-01	 7.148448561789077e+00
 2.053973149001240e+00	 4.906620307147687e-01	 6.922249515790726e+00
 2.049455664693653e+00	 5.092018166929979e-01	 6.648136721995206e+00
 2.044758833326722e+00	 5.277465143132476e-01	 6.268414936645517e+00
 2.039881930937567e+00	 5.462936946673629e-01	 5.717770542659065e+00
 2.089337288857729e+00	 3.627289707886123e-01	 9.911629748838022e+00
 2.086037983161030e+00	 3.812456601360313e-01	 9.590452331963709e+00
 2.082564745713942e+00	 3.997835958938872e-01	 9.327836832798855e+00
 2.078916586662154e+00	 4.183405334205854e-01	 9.097409587946084e+00
 2.075092551065970e+00	 4.369141983899517e-01	 8.882326313357302e+00
 2.071091719796090e+00	 4.555022873802948e-01	 8.658995460925357e+00
 2.066913210420454e+00	 4.741024684922414e-01	 8.396978107536224e+00
 2.062556178081173e+00	 4.927123819953196e-01	 8.058894803787696e+00
 2.058019816360520e+00	 5.113296410032265e-01	 7.600339699266330e+00
 2.053303358135004e+00	 5.299518321776834e-01	 6.969802273614770e+00
 2.048406076416498e+00	 5.485765164607425e-01	 6.108597015201542e+00
 2.098031763656439e+00	 3.642384149121597e-01	 1.002283587531539e+01
 2.094718728376417e+00	 3.828321587828140e-01	 1.010391733274880e+01
 2.091231037554151e+00	 4.014472374778383e-01	 1.013753250901608e+01
 2.087567697216205e+00	 4.200813970148803e-01	 1.010715637147688e+01
 2.083727748449047e+00	 4.387323536034800e-01	 1.000060460129278e+01
 2.079710268298565e+00	 4.573977942365838e-01	 9.799757184229632e+00
 2.075514370660597e+00	 4.760753773109498e-01	 9.480467231105651e+00
 2.071139207161506e+00	 4.947627332764222e-01	 9.012475787101216e+00
 2.066583968027788e+00	 5.134574653140096e-01	 8.359332911323190e+00
 2.061847882943687e+00	 5.321571500426682e-01	 7.478325321974877e+00
 2.056930221895829e+00	 5.508593382546569e-01	 6.320410916826889e+00
 2.106726238455749e+00	 3.657478590362366e-01	 1.015139971655665e+01
 2.103399473592404e+00	 3.844186574301646e-01	 1.057480741220536e+01
 2.099897329394959e+00	 4.031108790623909e-01	 1.085130018160468e+01
 2.096218807770854e+00	 4.218222606098053e-01	 1.097304196616732e+01
 2.092362945832724e+00	 4.405505088176614e-01	 1.093317825371481e+01
 2.088328816801641e+00	 4.592933010935424e-01	 1.072010440913787e+01
 2.084115530901338e+00	 4.780482861303370e-01	 1.031738933464287e+01
 2.079722236242440e+00	 4.968130845582060e-01	 9.703703764711495e+00
 2.075148119695656e+00	 5.155852896254678e-01	 8.852753424119614e+00
 2.070392407752969e+00	 5.343624679083132e-01	 7.733217293255994e+00
 2.065454367375761e+00	 5.531421600492069e-01	 6.308691241452501e+00
 2.115420713255859e+00	 3.672573031609928e-01	 1.030126567944660e+01
 2.112080218809191e+00	 3.860051560782366e-01	 1.098149560540091e+01
 2.108563621236568e+00	 4.047745206476998e-01	 1.142651254762668e+01
 2.104869918326306e+00	 4.235631242055140e-01	 1.163608868290343e+01
 2.100998143217202e+00	 4.423686640326460e-01	 1.160936735805081e+01
 2.096947365305518e+00	 4.611888079513150e-01	 1.134229837498166e+01
 2.092716691142881e+00	 4.800211949505413e-01	 1.082758235520206e+01
 2.088305265324173e+00	 4.988634358408002e-01	 1.005461800363713e+01
 2.083712271364325e+00	 5.177131139377213e-01	 9.009452429633194e+00
 2.078936932563052e+00	 5.365677857747292e-01	 7.674734701132349e+00
 2.073978512856493e+00	 5.554249818444937e-01	 6.029672826978670e+00
 1.988737058061177e+00	 5.325967639126696e-01	 2.206107453848338e+00
 1.983806209841261e+00	 5.506789491896563e-01	 2.865305839411965e+00
 1.978698516497631e+00	 5.687587485405461e-01	 3.376220334521691e+00
 1.973413396484585e+00	 5.868337251852063e-01	 3.775222330518281e+00
 1.967950310349670e+00	 6.049014205584747e-01	 4.099865727440624e+00
 1.962308761470183e+00	 6.229593551559282e-01	 4.388860589676481e+00
 1.956488296771135e+00	 6.410050294055930e-01	 4.682045962541758e+00
 1.950488507423679e+00	 6.590359245652063e-01	 5.020362025640181e+00
 1.944309029523059e+00	 6.770495036445779e-01	 5.445821778574861e+00
 1.937949544745086e+00	 6.950432123525722e-01	 6.001482473786316e+00
 1.931409780980206e+00	 7.130144800681855e-01	 6.731417029775373e+00
 1.997261203541910e+00	 5.348795857049577e-01	 2.691659004382050e+00
 1.992309220668944e+00	 5.530392750329843e-01	 3.285202144026317e+00
 1.987179634676896e+00	 5.711965682083980e-01	 3.721041722196224e+00
 1.981871861527434e+00	 5.893490180064977e-01	 4.036943385445652e+00
 1.976385359455892e+00	 6.074941553241785e-01	 4.272445140667171e+00
 1.970719629710934e+00	 6.256294900293221e-01	 4.468836238594277e+00
 1.964874217275590e+00	 6.437525118362468e-01	 4.669134440258074e+00
 1.958848711568684e+00	 6.618606912068137e-01	 4.918061824705095e+00
 1.952642747125680e+00	 6.799514802767427e-01	 5.262019317765501e+00
 1.946256004257984e+00	 6.980223138066511e-01	 5.749060142693395e+00
 1.939688209689715e+00	 7.160706101572964e-01	 6.428862413874875e+00
 2.005785349021840e+00	 5.371624074971756e-01	 3.282127710163738e+00
 2.000812231495826e+00	 5.553996008762783e-01	 3.721608746765045e+00
 1.995660752855364e+00	 5.736343878762442e-01	 4.009467587568201e+00
 1.990330326569490e+00	 5.918643108278056e-01	 4.183861015425538e+00
 1.984820408561330e+00	 6.100868900899152e-01	 4.285141934081254e+00
 1.979130497950917e+00	 6.282996249027633e-01	 4.355842485101378e+00
 1.973260137779301e+00	 6.464999942669614e-01	 4.440654974819484e+00
 1.967208915712976e+00	 6.646854578484974e-01	 4.586410757492732e+00
 1.960976464727635e+00	 6.828534569090018e-01	 4.842057243842697e+00
 1.954562463770272e+00	 7.010014152608478e-01	 5.258633226738008e+00
 1.947966638398685e+00	 7.191267402465555e-01	 5.889242737736590e+00
 2.014309494501172e+00	 5.394452292894243e-01	 3.928104828483431e+00
 2.009315242322110e+00	 5.577599267196292e-01	 4.144631448792889e+00
 2.004141871033233e+00	 5.760722075441648e-01	 4.229085525921204e+00
 1.998788791610951e+00	 5.943796036491991e-01	 4.219026753073530e+00
 1.993255457666181e+00	 6.126796248557445e-01	 4.154470090592797e+00
 1.987541366190324e+00	 6.309697597763001e-01	 4.077872129021332e+00
 1.981646058282454e+00	 6.492474766977745e-01	 4.034114892819099e+00
 1.975569119856737e+00	 6.675102244902823e-01	 4.070487224218953e+00
 1.969310182329090e+00	 6.857554335413676e-01	 4.236663910920178e+00
 1.962868923282101e+00	 7.039805167151612e-01	 4.584682745168983e+00
 1.956245067107252e+00	 7.221828703359467e-01	 5.168919725029644e+00
 2.022833639980103e+00	 5.417280510818046e-01	 4.581040282993227e+00
 2.017818253147993e+00	 5.601202525631275e-01	 4.524905693469199e+00
 2.012622989210703e+00	 5.785100272122409e-01	 4.367717855138299e+00
 2.007247256652015e+00	 5.968948964707489e-01	 4.145465795702544e+00
 2.001690506770640e+00	 6.152723596217257e-01	 3.896689794565033e+00
 1.995952234429347e+00	 6.336398946499822e-01	 3.662470011710182e+00
 1.990031978785235e+00	 6.519949591287233e-01	 3.486412390022293e+00
 1.983929324000143e+00	 6.703349911321941e-01	 3.414631969180796e+00
 1.977643899930212e+00	 6.886574101738524e-01	 3.495733774466653e+00
 1.971175382793627e+00	 7.069596181695894e-01	 3.780791468655447e+00
 1.964523495815548e+00	 7.252390004254544e-01	 4.323323979421837e+00
 2.031357785458835e+00	 5.440108728744170e-01	 5.193224476912096e+00
 2.026321263973674e+00	 5.624805784068644e-01	 4.833585205732101e+00
 2.021104107387973e+00	 5.809478468805528e-01	 4.413416361960410e+00
 2.015705721692882e+00	 5.994101892925254e-01	 3.966177144436176e+00
 2.010125555874903e+00	 6.178650943879190e-01	 3.527812255570172e+00
 2.004363102668178e+00	 6.363100295238575e-01	 3.136741822567895e+00
 1.998417899287829e+00	 6.547424415598448e-01	 2.833848625599970e+00
 1.992289528143369e+00	 6.731597577742570e-01	 2.662462775052917e+00
 1.985977617531167e+00	 6.915593868064690e-01	 2.668344005911713e+00
 1.979481842305000e+00	 7.099387196241318e-01	 2.899661782879721e+00
 1.972801924523711e+00	 7.282951305150630e-01	 3.406973434795713e+00
 2.039881930937567e+00	 5.462936946673629e-01	 5.717770542659065e+00
 2.034824274799357e+00	 5.648409042509300e-01	 5.042330895467212e+00
 2.029585225565243e+00	 5.833856665491816e-01	 4.354457157789165e+00
 2.024164186733747e+00	 6.019254821145991e-01	 3.684133716300003e+00
 2.018560604979166e+00	 6.204578291543844e-01	 3.063604386284242e+00
 2.012773970907009e+00	 6.389801643979751e-01	 2.527362658423165e+00
 2.006803819790424e+00	 6.574899239911769e-01	 2.112139485369643e+00
 2.000649732286595e+00	 6.759845244164968e-01	 1.856888759547211e+00
 1.994311335132122e+00	 6.944613634392292e-01	 1.802770659993284e+00
 1.987788301816373e+00	 7.129178210787869e-01	 1.993133072063887e+00
 1.981080353231873e+00	 7.313512606047566e-01	 2.473491309182676e+00
 2.048406076416498e+00	 5.485765164607425e-01	 6.108597015201542e+00
 2.043327285625239e+00	 5.672012300954161e-01	 5.123300017171914e+00
 2.038066343742712e+00	 5.858234862182075e-01	 4.179335640844547e+00
 2.032622651774812e+00	 6.044407749370398e-01	 3.302282430078101e+00
 2.026995654083625e+00	 6.230505639211810e-01	 2.519593338770352e+00
 2.021184839146032e+00	 6.416502992723842e-01	 1.860585342989157e+00
 2.015189740293205e+00	 6.602374064227561e-01	 1.356427023687265e+00
 2.009009936430000e+00	 6.788092910589392e-01	 1.040124286019176e+00
 2.002645052733243e+00	 6.973633400721456e-01	 9.465044078751901e-01
 1.996094761327899e+00	 7.158969225335539e-01	 1.112198636414521e+00
 1.989358781940170e+00	 7.344073906945200e-01	 1.575623576871758e+00
 2.056930221895829e+00	 5.508593382546569e-01	 6.320410916826889e+00
 2.051830296451523e+00	 5.695615559404130e-01	 5.049135578479722e+00
 2.046547461920581e+00	 5.882613058877115e-01	 3.876761561591010e+00
 2.041081116816273e+00	 6.069560677599187e-01	 2.823544266695191e+00
 2.035430703188476e+00	 6.256432986883688e-01	 1.911070903257664e+00
 2.029595707385439e+00	 6.443204341471325e-01	 1.162248513350922e+00
 2.023575660796358e+00	 6.629848888546198e-01	 6.012905933102912e-01
 2.017370140573761e+00	 6.816340577016080e-01	 2.537024992192669e-01
 2.010978770334698e+00	 7.002653167052311e-01	 1.462658486312520e-01
 2.004401220839730e+00	 7.188760239884309e-01	 3.070221570062763e-01
 1.997637210648736e+00	 7.374635207843371e-01	 7.652559726702854e-01
 2.065454367375761e+00	 5.531421600492069e-01	 6.308691241452501e+00
 2.060333307278406e+00	 5.719218817860114e-01	 4.792955990355920e+00
 2.055028580099048e+00	 5.906991255577745e-01	 3.435654188449445e+00
 2.049539581858329e+00	 6.094713605833055e-01	 2.250814304861005e+00
 2.043865752293914e+00	 6.282360334560075e-01	 1.253097773389186e+00
 2.038006575625422e+00	 6.469905690222695e-01	 4.577844802143691e-01
 2.031961581300069e+00	 6.657323712868055e-01	-1.192423277524097e-01
 2.025730344718055e+00	 6.844588243445296e-01	-4.615115029811476e-01
 2.019312487936653e+00	 7.031672933384970e-01	-5.519795887233159e-01
 2.012707680352018e+00	 7.218551254434172e-01	-3.730462788219897e-01
 2.005915639357706e+00	 7.405196508741925e-01	 9.343054183203225e-02
 2.073978512856493e+00	 5.554249818444937e-01	 6.029672826978670e+00
 2.068836318106088e+00	 5.742822076323024e-01	 4.328344952010900e+00
 2.063509698278315e+00	 5.931369452284766e-01	 2.845137570909187e+00
 2.057998046901178e+00	 6.119866534072709e-01	 1.586961732687986e+00
 2.052300801400137e+00	 6.308287682241573e-01	 5.605076817794536e-01
 2.046417443866173e+00	 6.496607038978439e-01	-2.277731315738789e-01
 2.040347501804525e+00	 6.684798537193505e-01	-7.716856036870959e-01
 2.034090548863060e+00	 6.872835909877286e-01	-1.065307851416093e+00
 2.027646205539275e+00	 7.060692699719570e-01	-1.103007140873245e+00
 2.021014139864915e+00	 7.248342268985118e-01	-8.794545789140071e-01
 2.014194068067215e+00	 7.435757809640704e-01	-3.888698744527304e-01
 1.931409780980206e+00	 7.130144800681855e-01	 6.731417029775374e+00
 1.924688354855402e+00	 7.309637694634421e-01	 7.432700735404133e+00
 1.917786183816244e+00	 7.488854209418625e-01	 7.871827732936931e+00
 1.910703136605119e+00	 7.667768187278619e-01	 8.084672958509179e+00
 1.903439130507891e+00	 7.846353347873409e-01	 8.070347103830075e+00
 1.895994131863790e+00	 8.024583299111958e-01	 7.818654722532594e+00
 1.888368156547483e+00	 8.202431548190312e-01	 7.319151106612968e+00
 1.880561270422445e+00	 8.379871512822787e-01	 6.561144982776852e+00
 1.872573589764845e+00	 8.556876532658934e-01	 5.533700822221718e+00
 1.864405281657153e+00	 8.733419880877550e-01	 4.225640749092075e+00
 1.856056564350709e+00	 8.909474775948771e-01	 2.625546035686571e+00
 1.939688209689715e+00	 7.160706101572964e-01	 6.428862413874876e+00
 1.932937974118424e+00	 7.340968339837993e-01	 7.096974746945728e+00
 1.926006218922043e+00	 7.520953014314645e-01	 7.517328911903052e+00
 1.918892812280358e+00	 7.700633855129514e-01	 7.721549044948835e+00
 1.911597671124698e+00	 7.879984469298634e-01	 7.700398131676863e+00
 1.904120761650013e+00	 8.058978351609011e-01	 7.440813169545801e+00
 1.896462099799011e+00	 8.237588895703063e-01	 6.930127926244193e+00
 1.888621751717463e+00	 8.415789405357922e-01	 6.156088169489716e+00
 1.880599834179923e+00	 8.593553105951374e-01	 5.106865774571320e+00
 1.872396514985003e+00	 8.770853156105536e-01	 3.771071663217158e+00
 1.864012013319517e+00	 8.947662659499382e-01	 2.137767531180192e+00
 1.947966638398685e+00	 7.191267402465555e-01	 5.889242737736590e+00
 1.941187593380994e+00	 7.372298985043433e-01	 6.526726870826645e+00
 1.934226254027490e+00	 7.553051819212971e-01	 6.935685090296741e+00
 1.927082487955355e+00	 7.733499522983185e-01	 7.140607159050779e+00
 1.919756211741378e+00	 7.913615590727094e-01	 7.126763713057794e+00
 1.912247391436232e+00	 8.093373404109726e-01	 6.879185075763838e+00
 1.904556043050652e+00	 8.272746243219816e-01	 6.383860271311890e+00
 1.896682233012715e+00	 8.451707297897306e-01	 5.627762337449347e+00
 1.888626078595345e+00	 8.630229679248169e-01	 4.598871861508579e+00
 1.880387748313307e+00	 8.808286431337822e-01	 3.286198666487429e+00
 1.871967462288870e+00	 8.985850543054005e-01	 1.679801578962558e+00
 1.956245067107252e+00	 7.221828703359467e-01	 5.168919725029644e+00
 1.949437212643225e+00	 7.403629630250422e-01	 5.778740056398664e+00
 1.942446289132673e+00	 7.585150624113133e-01	 6.183012718966202e+00
 1.935272163630169e+00	 7.766365190839003e-01	 6.396143602009333e+00
 1.927914752357967e+00	 7.947246712158029e-01	 6.400811487663794e+00
 1.920374021222447e+00	 8.127768456613205e-01	 6.181085631463550e+00
 1.912649986302385e+00	 8.307903590739587e-01	 5.722472527582575e+00
 1.904742714308149e+00	 8.487625190439885e-01	 5.011948873449184e+00
 1.896652323011041e+00	 8.666906252548237e-01	 4.037992183268082e+00
 1.888378981641965e+00	 8.845719706573315e-01	 2.790608955996074e+00
 1.879922911258653e+00	 9.024038426611642e-01	 1.261360308829615e+00
 1.964523495815548e+00	 7.252390004254544e-01	 4.323323979421837e+00
 1.957686831905231e+00	 7.434960275458661e-01	 4.909616398388934e+00
 1.950666324237679e+00	 7.617249429014670e-01	 5.314472891804025e+00
 1.943461839304864e+00	 7.799230858696361e-01	 5.541529442796676e+00
 1.936073292974493e+00	 7.980877833590673e-01	 5.573032677161622e+00
 1.928500651008666e+00	 8.162163509118574e-01	 5.393021369478388e+00
 1.920743929554185e+00	 8.343060938261391e-01	 4.987367375326022e+00
 1.912803195603715e+00	 8.523543082984602e-01	 4.343813834825678e+00
 1.904678567426931e+00	 8.703582825850483e-01	 3.452010530931709e+00
 1.896370214970877e+00	 8.883152981810956e-01	 2.303546291566513e+00
 1.887878360228749e+00	 9.062226310171286e-01	 8.919783309446070e-01
 1.972801924523711e+00	 7.282951305150630e-01	 3.406973434795713e+00
 1.965936451167123e+00	 7.466290920667822e-01	 3.975423270350035e+00
 1.958886359342599e+00	 7.649348233917110e-01	 4.384291189912002e+00
 1.951651514979499e+00	 7.832096526554629e-01	 4.629229732833098e+00
 1.944231833590993e+00	 8.014508955024265e-01	 4.693060278311302e+00
 1.936627280794890e+00	 8.196558561624929e-01	 4.560706939291297e+00
 1.928837872806026e+00	 8.378218285784241e-01	 4.219240741741581e+00
 1.920863676899359e+00	 8.559460975530399e-01	 3.657920672668838e+00
 1.912704811842940e+00	 8.740259399153826e-01	 2.868231468226333e+00
 1.904361448299948e+00	 8.920586257049669e-01	 1.843918019565732e+00
 1.895833809199044e+00	 9.100414193731937e-01	 5.810162809938038e-01
 1.981080353231873e+00	 7.313512606047566e-01	 2.473491309182674e+00
 1.974186070429016e+00	 7.497621565877612e-01	 3.030174855384960e+00
 1.967106394447519e+00	 7.681447038819986e-01	 3.445777032464620e+00
 1.959841190654136e+00	 7.864962194413193e-01	 3.710822243303268e+00
 1.952390374207497e+00	 8.048140076458040e-01	 3.809686804509744e+00
 1.944753910581124e+00	 8.230953614131398e-01	 3.729081465295119e+00
 1.936931816057885e+00	 8.413375633307143e-01	 3.458096383390594e+00
 1.928924158195032e+00	 8.595378868076216e-01	 2.988242641093194e+00
 1.920731056258989e+00	 8.776935972457170e-01	 2.313490165770161e+00
 1.912352681629079e+00	 8.958019532288382e-01	 1.430301925996223e+00
 1.903789258169420e+00	 9.138602077292585e-01	 3.376642819962630e-01
 1.989358781940170e+00	 7.344073906945200e-01	 1.575623576871758e+00
 1.982435689691021e+00	 7.528952211087712e-01	 2.126965504505374e+00
 1.975326429552528e+00	 7.713545843722834e-01	 2.551342548640603e+00
 1.968030866328837e+00	 7.897827862271430e-01	 2.837015739025223e+00
 1.960548914824040e+00	 8.081771197891241e-01	 2.970881588912358e+00
 1.952880540367373e+00	 8.265348666637086e-01	 2.942324501334631e+00
 1.945025759309738e+00	 8.448532980829113e-01	 2.743260109411852e+00
 1.936984639490681e+00	 8.631296760621002e-01	 2.368174901712896e+00
 1.928757300675005e+00	 8.813612545759445e-01	 1.814161994977476e+00
 1.920343914958172e+00	 8.995452807526023e-01	 1.080952923838544e+00
 1.911744707139762e+00	 9.176789960852230e-01	 1.709453251954010e-01
 1.997637210648736e+00	 7.374635207843371e-01	 7.652559726702841e-01
 1.990685308953253e+00	 7.560282856297815e-01	 1.317999917370993e+00
 1.983546464657714e+00	 7.745644648625190e-01	 1.752520984515544e+00
 1.976220542003663e+00	 7.930693530128724e-01	 2.057667802314922e+00
 1.968707455440654e+00	 8.115402319323102e-01	 2.223807661853033e+00
 1.961007170153640e+00	 8.299743719141104e-01	 2.243871593240770e+00
 1.953119702561558e+00	 8.483690328349164e-01	 2.113393655940799e+00
 1.945045120786256e+00	 8.667214653163697e-01	 1.830546332164407e+00
 1.936783545090910e+00	 8.850289119059541e-01	 1.396171888594622e+00
 1.928335148287128e+00	 9.032886082761525e-01	 8.138095794540883e-01
 1.919700156109956e+00	 9.214977844409867e-01	 8.971857238001402e-02
 2.005915639357706e+00	 7.405196508741925e-01	 9.343054183203048e-02
 1.998934928215824e+00	 7.591613501507609e-01	 6.546113167058063e-01
 1.991766499763166e+00	 7.777743453526579e-01	 1.099984658350970e+00
 1.984410217678675e+00	 7.963559197984450e-01	 1.421802219847739e+00
 1.976865996057371e+00	 8.149033440752861e-01	 1.614838214858436e+00
 1.969133799939929e+00	 8.334138771642571e-01	 1.676429460682041e+00
 1.961213645813324e+00	 8.518847675866305e-01	 1.606508221808884e+00
 1.953105602081704e+00	 8.703132545703245e-01	 1.407631047224673e+00
 1.944809789506627e+00	 8.886965692356383e-01	 1.085003474607923e+00
 1.936326381615850e+00	 9.070319357993809e-01	 6.465004826961940e-01
 1.927655605079885e+00	 9.253165727964493e-01	 1.026825819040780e-01
 2.014194068067215e+00	 7.435757809640704e-01	-3.888698744527308e-01
 2.007184547478847e+00	 7.622944146716788e-01	 1.872791785354257e-01
 1.999986534868971e+00	 7.809842258426540e-01	 6.435624772711985e-01
 1.992599893353933e+00	 7.996424865837992e-01	 9.776259450882613e-01
 1.985024536674227e+00	 8.182664562179760e-01	 1.189572663152446e+00
 1.977260429726245e+00	 8.368533824140595e-01	 1.281990809285738e+00
 1.969307589065010e+00	 8.554005023379549e-01	 1.259977675267786e+00
 1.961166083376974e+00	 8.739050438238590e-01	 1.131159640795265e+00
 1.952836033922081e+00	 8.923642265648891e-01	 9.057079900451390e-01
 1.944317614944240e+00	 9.107752633221808e-01	 5.963504652269134e-01
 1.935611054049432e+00	 9.291353611515104e-01	 2.183784606012054e-01
 1.856056564350709e+00	 8.909474775948771e-01	 2.625546035686571e+00
 1.847529172416486e+00	 9.084984598861181e-01	 1.073443960294890e+00
 1.838822022353228e+00	 9.259952468727786e-01	-1.094318751097886e-01
 1.829935486279233e+00	 9.434351516004069e-01	-9.467070543506295e-01
 1.820869988579429e+00	 9.608154864645534e-01	-1.459401993324106e+00
 1.811626006103686e+00	 9.781335644556893e-01	-1.668168564682331e+00
 1.802204068330247e+00	 9.953867004148540e-01	-1.593286977360169e+00
 1.792604757493784e+00	 1.012572212298924e+00	-1.254666746776814e+00
 1.782828708677572e+00	 1.029687422454352e+00	-6.718516646245598e-01
 1.772876609869356e+00	 1.046729658898207e+00	 1.359713527712427e-01
 1.762749201980530e+00	 1.063696256605328e+00	 1.149959688045871e+00
 1.864012013319517e+00	 8.947662659499382e-01	 2.137767531180192e+00
 1.855448071189168e+00	 9.123924754440570e-01	 5.496202065323146e-01
 1.846703600448590e+00	 9.299642573411303e-01	-6.578937411347158e-01
 1.837778974811067e+00	 9.474789131698542e-01	-1.514829374435751e+00
 1.828674620480534e+00	 9.649337438061401e-01	-2.039083162052932e+00
 1.819391016350745e+00	 9.823260507233702e-01	-2.247335857815851e+00
 1.809928694169406e+00	 9.996531372534282e-01	-2.156666142415724e+00
 1.800288238666776e+00	 1.016912309857390e+00	-1.784564591428067e+00
 1.790470287648234e+00	 1.034100879404719e+00	-1.148950796027868e+00
 1.780475532050395e+00	 1.051216162459804e+00	-2.681934804893613e-01
 1.770304715960357e+00	 1.068255482574626e+00	 8.388665682122893e-01
 1.871967462288870e+00	 8.985850543054005e-01	 1.679801578962559e+00
 1.863366969962474e+00	 9.162864910023476e-01	 1.146428814270977e-01
 1.854585178544640e+00	 9.339332678097632e-01	-1.075861190028795e+00
 1.845622463343635e+00	 9.515226747394960e-01	-1.908051636449995e+00
 1.836479252382404e+00	 9.690520011478224e-01	-2.408424113683574e+00
 1.827156026598584e+00	 9.865185369910400e-01	-2.591472860921187e+00
 1.817653320009345e+00	 1.003919574091880e+00	-2.471844115484936e+00
 1.807971719840529e+00	 1.021252407415621e+00	-2.065256477969642e+00
 1.798111866619622e+00	 1.038514336354744e+00	-1.388528155362074e+00
 1.788074454232105e+00	 1.055702666020960e+00	-4.596064712291610e-01
 1.777860229940787e+00	 1.072814708543394e+00	 7.024005711750717e-01
 1.879922911258653e+00	 9.024038426611642e-01	 1.261360308829616e+00
 1.871285868736274e+00	 9.201805065609013e-01	-2.291276936468938e-01
 1.862466756641240e+00	 9.379022782786074e-01	-1.360504866146770e+00
 1.853465951876797e+00	 9.555664363092834e-01	-2.141074001934880e+00
 1.844283884284900e+00	 9.731702584895766e-01	-2.587761567798840e+00
 1.834921036847070e+00	 9.907110232587019e-01	-2.724774412211582e+00
 1.825377945849936e+00	 1.008186010930241e+00	-2.565381835938944e+00
 1.815655201014926e+00	 1.025592504973677e+00	-2.124168195744361e+00
 1.805753445591633e+00	 1.042927793304513e+00	-1.417364942735886e+00
 1.795673376414403e+00	 1.060189169581784e+00	-4.628876640704014e-01
 1.785415743921752e+00	 1.077373934511765e+00	 7.196254257845305e-01
 1.887878360228749e+00	 9.062226310171286e-01	 8.919783309446070e-01
 1.879204767510441e+00	 9.240745221196309e-01	-4.817455911075874e-01
 1.870348334738253e+00	 9.418712887475919e-01	-1.516734639780787e+00
 1.861309440410412e+00	 9.596101978791686e-01	-2.219026903453199e+00
 1.852088516187881e+00	 9.772885158313785e-01	-2.597069145143259e+00
 1.842686047096064e+00	 9.949035095263580e-01	-2.671012719949593e+00
 1.833102571691050e+00	 1.012452447768540e+00	-2.463378579271016e+00
 1.823338682189851e+00	 1.029932602531615e+00	-1.988250195230817e+00
 1.813395024564165e+00	 1.047341250254110e+00	-1.261778835573407e+00
 1.803272298597203e+00	 1.064675673142387e+00	-3.022310023189652e-01
 1.792971257903185e+00	 1.081933160479871e+00	 8.699678400461583e-01
 1.895833809199044e+00	 9.100414193731937e-01	 5.810162809938038e-01
 1.887123666284845e+00	 9.279685376784483e-01	-6.432784400047988e-01
 1.878229912835541e+00	 9.458402992166461e-01	-1.552647432729417e+00
 1.869152928944340e+00	 9.636539594491023e-01	-2.151943981782404e+00
 1.859893148091208e+00	 9.814067731732050e-01	-2.448733385044633e+00
 1.850451057345432e+00	 9.990959957940110e-01	-2.453546612932083e+00
 1.840827197532559e+00	 1.016718884606808e+00	-2.191482067682741e+00
 1.831022163365186e+00	 1.034272700089496e+00	-1.683988027290175e+00
 1.821036603537113e+00	 1.051754707203622e+00	-9.476342221984224e-01
 1.810871220780415e+00	 1.069162176702880e+00	-1.413819058281973e-03
 1.800526771885018e+00	 1.086492386447844e+00	 1.133209291466153e+00
 1.903789258169420e+00	 9.138602077292585e-01	 3.376642819962630e-01
 1.895042565059360e+00	 9.318625532372659e-01	-7.138073133753577e-01
 1.886111490932971e+00	 9.498093096857011e-01	-1.476219925611691e+00
 1.876996417478440e+00	 9.676977210190363e-01	-1.954309399249623e+00
 1.867697779994740e+00	 9.855250305150310e-01	-2.155716132012375e+00
 1.858216067595038e+00	 1.003288482061664e+00	-2.091017479759284e+00
 1.848551823374337e+00	 1.020985321445077e+00	-1.774898340952435e+00
 1.838705644540815e+00	 1.038612797647376e+00	-1.237412534972889e+00
 1.828678182510376e+00	 1.056168164153135e+00	-5.003521936541944e-01
 1.818470142963956e+00	 1.073648680263372e+00	 4.161938943852033e-01
 1.808082285867186e+00	 1.091051612415817e+00	 1.489478007377019e+00
 1.911744707139762e+00	 9.176789960852230e-01	 1.709453251954001e-01
 1.902961463833854e+00	 9.357565687959954e-01	-6.934266127401494e-01
 1.893993069030402e+00	 9.537783201546851e-01	-1.295311221355598e+00
 1.884839906012572e+00	 9.717414825889213e-01	-1.640381940541606e+00
 1.875502411898339e+00	 9.896432878568331e-01	-1.737299427901568e+00
 1.865981077844747e+00	 1.007480968329320e+00	-1.597743675358102e+00
 1.856276449216255e+00	 1.025251758283376e+00	-1.236443284010469e+00
 1.846389125716622e+00	 1.042952895205315e+00	-6.741098050940515e-01
 1.836319761483851e+00	 1.060581621102732e+00	 5.507969919743361e-02
 1.826069065147739e+00	 1.078135183823976e+00	 9.276204361187965e-01
 1.815637799849618e+00	 1.095610838383923e+00	 1.919241129708160e+00
 1.919700156109956e+00	 9.214977844409867e-01	 8.971857238001490e-02
 1.910880362608200e+00	 9.396505843545492e-01	-5.822439498254748e-01
 1.901874647127701e+00	 9.577473306235291e-01	-1.017665436662062e+00
 1.892683394546596e+00	 9.757852441587090e-01	-1.224199835302850e+00
 1.883307043801862e+00	 9.937615451985873e-01	-1.212462007771371e+00
 1.873746088094421e+00	 1.011673454596982e+00	-9.960571915356771e-01
 1.864001075058185e+00	 1.029518195121736e+00	-5.916076427223196e-01
 1.854072606892488e+00	 1.047292992763371e+00	-1.877636902191360e-02
 1.843961340457435e+00	 1.064995078052501e+00	 6.940979164883094e-01
 1.833667987331677e+00	 1.082621687384800e+00	 1.510283551231843e+00
 1.823193313832248e+00	 1.100170064352294e+00	 2.403297058849658e+00
 1.927655605079885e+00	 9.253165727964493e-01	 1.026825819040780e-01
 1.918799261382271e+00	 9.435445999128399e-01	-3.803800255889809e-01
 1.909756225224729e+00	 9.617163410921622e-01	-6.509142235236882e-01
 1.900526883080371e+00	 9.798290057283510e-01	-7.195854553946361e-01
 1.891111675705172e+00	 9.978798025402695e-01	-5.998857022456128e-01
 1.881511098343927e+00	 1.015865940864652e+00	-3.081579359058959e-01
 1.871725700899998e+00	 1.033784631960188e+00	 1.363820930282222e-01
 1.861756088068298e+00	 1.051633090321602e+00	 7.116268151755876e-01
 1.851602919431023e+00	 1.069408535002526e+00	 1.392553621482068e+00
 1.841266909515684e+00	 1.087108190945955e+00	 2.141981793151222e+00
 1.830748827815011e+00	 1.104729290321062e+00	 2.922767971434667e+00
 1.935611054049432e+00	 9.291353611515104e-01	 2.183784606012054e-01
 1.926718160155936e+00	 9.474386154707789e-01	-8.796850662747646e-02
 1.917637803321350e+00	 9.656853515605142e-01	-2.025792228118910e-01
 1.908370371613757e+00	 9.838727672977978e-01	-1.401498904202410e-01
 1.898916307608127e+00	 1.001998059881856e+00	 8.203832405177836e-02
 1.889276108593128e+00	 1.020058427132333e+00	 4.441021795005595e-01
 1.879450326741568e+00	 1.038051068798763e+00	 9.235416357683501e-01
 1.869439569243934e+00	 1.055973187880068e+00	 1.495227582583233e+00
 1.859244498404515e+00	 1.073821991952893e+00	 2.131392089826233e+00
 1.848865831699675e+00	 1.091594694507553e+00	 2.800886082939721e+00
 1.838304341797836e+00	 1.109288516290360e+00	 3.459092507035578e+00
 1.762749201980530e+00	 1.063696256605328e+00	 1.149959688045873e+00
 1.752447279254096e+00	 1.080584559137052e+00	 2.131579355887181e+00
 1.741971690479596e+00	 1.097391920967813e+00	 2.872848886078143e+00
 1.731323337608558e+00	 1.114115707809167e+00	 3.400418802853406e+00
 1.720503175193552e+00	 1.130753297576373e+00	 3.740094709846749e+00
 1.709512210216838e+00	 1.147302081686165e+00	 3.916905675920245e+00
 1.698351501880926e+00	 1.163759466353038e+00	 3.955192685452428e+00
 1.687022161360983e+00	 1.180122873882741e+00	 3.878558312859461e+00
 1.675525351519082e+00	 1.196389743961696e+00	 3.709804013506848e+00
 1.663862286580313e+00	 1.212557534941026e+00	 3.470868189376771e+00
 1.652034231770882e+00	 1.228623725113884e+00	 3.182765323775633e+00
 1.770304715960357e+00	 1.068255482574626e+00	 8.388665682122879e-01
 1.759958637025422e+00	 1.085216171924466e+00	 1.927659561890908e+00
 1.749438147673221e+00	 1.102095573644475e+00	 2.780506901689121e+00
 1.738744153721231e+00	 1.118891042155094e+00	 3.418146068686011e+00
 1.727877613813429e+00	 1.135599944132772e+00	 3.860503295885069e+00
 1.716839539248212e+00	 1.152219659813304e+00	 4.127333527783517e+00
 1.705630993768050e+00	 1.168747584293672e+00	 4.238119820929332e+00
 1.694253093310836e+00	 1.185181128831082e+00	 4.211963047006568e+00
 1.682707005722908e+00	 1.201517722137913e+00	 4.067526533826824e+00
 1.670993950433781e+00	 1.217754811671241e+00	 3.822981030777814e+00
 1.659115198092679e+00	 1.233889864915653e+00	 3.495950284252854e+00
 1.777860229940787e+00	 1.072814708543394e+00	 7.024005711750719e-01
 1.767469994797264e+00	 1.089847784711276e+00	 1.853285562951616e+00
 1.756904604867259e+00	 1.106799226320477e+00	 2.773113224115626e+00
 1.746164969834201e+00	 1.123666376500318e+00	 3.477926996985438e+00
 1.735252052433484e+00	 1.140446590688437e+00	 3.983146023825063e+00
 1.724166868279639e+00	 1.157137237939693e+00	 4.304651389505365e+00
 1.712910485655099e+00	 1.173735702233551e+00	 4.458336662422267e+00
 1.701484025260491e+00	 1.190239383778676e+00	 4.460032190054614e+00
 1.689888659926420e+00	 1.206645700313400e+00	 4.325455158550340e+00
 1.678125614286827e+00	 1.222952088400753e+00	 4.070159567264485e+00
 1.666196164413961e+00	 1.239156004716755e+00	 3.709486398560100e+00
 1.785415743921752e+00	 1.077373934511765e+00	 7.196254257845307e-01
 1.774981352569573e+00	 1.094479397497635e+00	 1.891758516292463e+00
 1.764371062061685e+00	 1.111502878995983e+00	 2.837776403310757e+00
 1.753585785947471e+00	 1.128441710845013e+00	 3.570130751196639e+00
 1.742626491053740e+00	 1.145293237243554e+00	 4.101290214104088e+00
 1.731494197311164e+00	 1.162054816065520e+00	 4.444547492461103e+00
 1.720189977542146e+00	 1.178723820172865e+00	 4.613459793698759e+00
 1.708714957210041e+00	 1.195297638725709e+00	 4.621803121052197e+00
 1.697070314129733e+00	 1.211773678488339e+00	 4.483525833012633e+00
 1.685257278139585e+00	 1.228149365129737e+00	 4.212701748761493e+00
 1.673277130734878e+00	 1.244422144517355e+00	 3.823483078216419e+00
 1.792971257903185e+00	 1.081933160479871e+00	 8.699678400461593e-01
 1.782492710342305e+00	 1.099111010283692e+00	 2.026670074702919e+00
 1.771837519256474e+00	 1.116206531671159e+00	 2.961757697442698e+00
 1.761006602061037e+00	 1.133217045189357e+00	 3.685297291082413e+00
 1.750000929674220e+00	 1.150139883798303e+00	 4.208324169207067e+00
 1.738821526342836e+00	 1.166972394190972e+00	 4.542789295582232e+00
 1.727469469429260e+00	 1.183711938111802e+00	 4.701151595480304e+00
 1.715945889159581e+00	 1.200355893672370e+00	 4.696334168014740e+00
 1.704251968332960e+00	 1.216901656662912e+00	 4.541679439243884e+00
 1.692388941992190e+00	 1.233346641858371e+00	 4.250903532569250e+00
 1.680358097055581e+00	 1.249688284317622e+00	 3.838050136893229e+00
 1.800526771885018e+00	 1.086492386447844e+00	 1.133209291466153e+00
 1.790004068115412e+00	 1.103742623069598e+00	 2.241895654568477e+00
 1.779303976451604e+00	 1.120910184346170e+00	 3.132491653297360e+00
 1.768427418174900e+00	 1.137992379533524e+00	 3.814133042034424e+00
 1.757375368294947e+00	 1.154986530352869e+00	 4.297753852085556e+00
 1.746148855374703e+00	 1.171889972316237e+00	 4.595221004648742e+00
 1.734748961316511e+00	 1.188700056050550e+00	 4.719118431936585e+00
 1.723176821109203e+00	 1.205414148618842e+00	 4.682703282623656e+00
 1.711433622536215e+00	 1.222029634837304e+00	 4.499860774666192e+00
 1.699520605844772e+00	 1.238543918586828e+00	 4.185057976762463e+00
 1.687439063376218e+00	 1.254954424117722e+00	 3.753296804253680e+00
 1.808082285867186e+00	 1.091051612415817e+00	 1.489478007377019e+00
 1.797515425888848e+00	 1.108374235855505e+00	 2.521587856313080e+00
 1.786770433647050e+00	 1.125613837021181e+00	 3.337656459225093e+00
 1.775848234289060e+00	 1.142767713877692e+00	 3.947506653213035e+00
 1.764749806915944e+00	 1.159833176907435e+00	 4.363199627678480e+00
 1.753476184406809e+00	 1.176807550441501e+00	 4.597761133184953e+00
 1.742028453203972e+00	 1.193688173989298e+00	 4.665108861650923e+00
 1.730407753059001e+00	 1.210472403565315e+00	 4.580006726764722e+00
 1.718615276739613e+00	 1.227157613011695e+00	 4.358017534630153e+00
 1.706652269697467e+00	 1.243741195315285e+00	 4.015454334188504e+00
 1.694520029696938e+00	 1.260220563917822e+00	 3.569330742037183e+00
 1.815637799849618e+00	 1.095610838383923e+00	 1.919241129708160e+00
 1.805026783662566e+00	 1.113005848641562e+00	 2.850153765900333e+00
 1.794236890842787e+00	 1.130317489696357e+00	 3.565142549707435e+00
 1.783269050403514e+00	 1.147543048222036e+00	 4.076444841928623e+00
 1.772124245537235e+00	 1.164679823462184e+00	 4.398393065696157e+00
 1.760803513439203e+00	 1.181725128566953e+00	 4.546400103746362e+00
 1.749307945091712e+00	 1.198676291928235e+00	 4.536911872343793e+00
 1.737638685009065e+00	 1.215530658511974e+00	 4.387357770561100e+00
 1.725796930943267e+00	 1.232285591186268e+00	 4.116099298678932e+00
 1.713783933550406e+00	 1.248938472043919e+00	 3.742377147048080e+00
 1.701600996017893e+00	 1.265486703718089e+00	 3.286257062324356e+00
 1.823193313832248e+00	 1.100170064352294e+00	 2.403297058849659e+00
 1.812538141436519e+00	 1.117637461427920e+00	 3.212110701980380e+00
 1.801703348038793e+00	 1.135021142371863e+00	 3.803047448550441e+00
 1.790689866518263e+00	 1.152318382566732e+00	 4.192128321761983e+00
 1.779498684158843e+00	 1.169526470017301e+00	 4.397173802890279e+00
 1.768130842471933e+00	 1.186642706692780e+00	 4.437197888426063e+00
 1.756587436979800e+00	 1.203664409867549e+00	 4.332355138665226e+00
 1.744869616959493e+00	 1.220588913459008e+00	 4.103885401567071e+00
 1.732978585147292e+00	 1.237413569361207e+00	 3.774056520431906e+00
 1.720915597403722e+00	 1.254135748772903e+00	 3.366105342041552e+00
 1.708681962339231e+00	 1.270752843518689e+00	 2.904177347918783e+00
 1.830748827815011e+00	 1.104729290321062e+00	 2.922767971434667e+00
 1.820049499210662e+00	 1.122269074214731e+00	 3.592295370993343e+00
 1.809169805235041e+00	 1.139724795047865e+00	 4.039670720694063e+00
 1.798110682633305e+00	 1.157093716911955e+00	 4.285887812004418e+00
 1.786873122780791e+00	 1.174373116572966e+00	 4.353486463091000e+00
 1.775458171505045e+00	 1.191560284819168e+00	 4.266281687447114e+00
 1.763866928868310e+00	 1.208652527807428e+00	 4.049303302389368e+00
 1.752100548910374e+00	 1.225647168406602e+00	 3.728733044800238e+00
 1.740160239351801e+00	 1.242541547536694e+00	 3.331839520983068e+00
 1.728047261257549e+00	 1.259333025502415e+00	 2.886911326064128e+00
 1.715762928661102e+00	 1.276018983319791e+00	 2.423188674784724e+00
 1.838304341797836e+00	 1.109288516290360e+00	 3.459092507035578e+00
 1.827560856984948e+00	 1.126900687002145e+00	 3.975828005694093e+00
 1.816636262431510e+00	 1.144428447724527e+00	 4.263509029512142e+00
 1.805531498748641e+00	 1.161869051257882e+00	 4.349200126077907e+00
 1.794247561403101e+00	 1.179219763129365e+00	 4.261377633348948e+00
 1.782785500538586e+00	 1.196477862946308e+00	 4.029843644745218e+00
 1.771146420757310e+00	 1.213640645748062e+00	 3.685656274366637e+00
 1.759331480861803e+00	 1.230705423354943e+00	 3.261057293300113e+00
 1.747341893556909e+00	 1.247669525712911e+00	 2.789397485713144e+00
 1.735178925112020e+00	 1.264530302232631e+00	 2.305060082434681e+00
 1.722843894983654e+00	 1.281285123121560e+00	 1.843382636481612e+00
 1.652034231770882e+00	 1.228623725113884e+00	 3.182765323775633e+00
 1.640040451489909e+00	 1.244588517196332e+00	 2.893184360990648e+00
 1.627884314974253e+00	 1.260446684185791e+00	 2.630783236437915e+00
 1.615567245443407e+00	 1.276195761384695e+00	 2.388349852940208e+00
 1.603090715360185e+00	 1.291833309028926e+00	 2.160273793654022e+00
 1.590456245878753e+00	 1.307356913517891e+00	 1.942539527253150e+00
 1.577665406256145e+00	 1.322764188630196e+00	 1.732718607119983e+00
 1.564719813227715e+00	 1.338052776723630e+00	 1.529961029962222e+00
 1.551621130347021e+00	 1.353220349918248e+00	 1.334985913117953e+00
 1.538371067290680e+00	 1.368264611261278e+00	 1.150071642278085e+00
 1.524971379128793e+00	 1.383183295872664e+00	 9.790456325095439e-01
 1.659115198092679e+00	 1.233889864915653e+00	 3.495950284252854e+00
 1.647070009945780e+00	 1.249923085456091e+00	 3.146234810503287e+00
 1.634861769671204e+00	 1.265849223885944e+00	 2.819226323098206e+00
 1.622491906588665e+00	 1.281665804943434e+00	 2.511371116925788e+00
 1.609961899472268e+00	 1.297370378407102e+00	 2.220523021548646e+00
 1.597273275996167e+00	 1.312960520331156e+00	 1.945930195473176e+00
 1.584427612143568e+00	 1.328433834266354e+00	 1.688221215158001e+00
 1.571426531579497e+00	 1.343787952465138e+00	 1.449390640640514e+00
 1.558271704987856e+00	 1.359020537069780e+00	 1.232784232696950e+00
 1.544964849373297e+00	 1.374129281282284e+00	 1.043083988039178e+00
 1.531507727328530e+00	 1.389111910514845e+00	 8.862931492622120e-01
 1.666196164413961e+00	 1.239156004716755e+00	 3.709486398560100e+00
 1.654099568401059e+00	 1.255257653715226e+00	 3.312858562280579e+00
 1.641839224367501e+00	 1.271251763585521e+00	 2.938451496090387e+00
 1.629416567733224e+00	 1.287135848501651e+00	 2.585257477121190e+00
 1.616833083583618e+00	 1.302907447784808e+00	 2.253481619039748e+00
 1.604090306112832e+00	 1.318564127144003e+00	 1.944523780336447e+00
 1.591189818030238e+00	 1.334103479902143e+00	 1.660960074748044e+00
 1.578133249930532e+00	 1.349523128206319e+00	 1.406524179790057e+00
 1.564922279627960e+00	 1.364820724221016e+00	 1.186088631574907e+00
 1.551558631455213e+00	 1.379993951303016e+00	 1.005646284779547e+00
 1.538044075527599e+00	 1.395040525156758e+00	 8.722921058777557e-01
 1.673277130734878e+00	 1.244422144517355e+00	 3.823483078216419e+00
 1.661129126855909e+00	 1.260592221973893e+00	 3.392706042546227e+00
 1.648816679063320e+00	 1.276654303284669e+00	 2.987678615368271e+00
 1.636341228877267e+00	 1.292605892059475e+00	 2.608840844806333e+00
 1.623704267694428e+00	 1.308444517162163e+00	 2.257650346531868e+00
 1.610907336228940e+00	 1.324167733956537e+00	 1.936560839214597e+00
 1.597952023916344e+00	 1.339773125537655e+00	 1.649000596180374e+00
 1.584839968281008e+00	 1.355258303947252e+00	 1.399351021002502e+00
 1.571572854267518e+00	 1.370620911372030e+00	 1.192925546089746e+00
 1.558152413536601e+00	 1.385858621323542e+00	 1.035949043100453e+00
 1.544580423726169e+00	 1.400969139798472e+00	 9.355379222873190e-01
 1.680358097055581e+00	 1.249688284317622e+00	 3.838050136893229e+00
 1.668158685310495e+00	 1.265926790232248e+00	 3.385435082451257e+00
 1.655794133758834e+00	 1.282056842983528e+00	 2.966141524147100e+00
 1.643265890020974e+00	 1.298075935617038e+00	 2.580973033905078e+00
 1.630575451804882e+00	 1.313981586539283e+00	 2.231554893035995e+00
 1.617724366344679e+00	 1.329771340768862e+00	 1.920310756378126e+00
 1.604714229802077e+00	 1.345442771172981e+00	 1.650439553412687e+00
 1.591546686631111e+00	 1.360993479688022e+00	 1.425892843502376e+00
 1.578223428906711e+00	 1.376421098522895e+00	 1.251352832848432e+00
 1.564746195617638e+00	 1.391723291343930e+00	 1.132211249584826e+00
 1.551116771924405e+00	 1.406897754440051e+00	 1.074549260709263e+00
 1.687439063376218e+00	 1.254954424117722e+00	 3.753296804253680e+00
 1.675188243764978e+00	 1.271261358490446e+00	 3.290709757130364e+00
 1.662771588454217e+00	 1.287459382682243e+00	 2.873086723633972e+00
 1.650190551164529e+00	 1.303545979174471e+00	 2.500524286851790e+00
 1.637446635915166e+00	 1.319518655916285e+00	 2.173744273633295e+00
 1.624541396460240e+00	 1.335374947581082e+00	 1.894070037508818e+00
 1.611476435687626e+00	 1.351112416808215e+00	 1.663403306060113e+00
 1.598253404981029e+00	 1.366728655428708e+00	 1.484201817003746e+00
 1.584874003545722e+00	 1.382221285673687e+00	 1.359457956778641e+00
 1.571339977698499e+00	 1.397587961364249e+00	 1.292678603286458e+00
 1.557653120122475e+00	 1.412826369081563e+00	 1.287866360703612e+00
 1.694520029696938e+00	 1.260220563917822e+00	 3.569330742037183e+00
 1.682217802219523e+00	 1.276595926748645e+00	 3.108199231052177e+00
 1.669749043149644e+00	 1.292861922380958e+00	 2.707772057855152e+00
 1.657115212308113e+00	 1.309016022731904e+00	 2.366381813986255e+00
 1.644317820025469e+00	 1.325055725293288e+00	 2.082789243403227e+00
 1.631358426575810e+00	 1.340978554393303e+00	 1.856160622992477e+00
 1.618238641573180e+00	 1.356782062443449e+00	 1.686046041736913e+00
 1.604960123330950e+00	 1.372463831169396e+00	 1.572358807621741e+00
 1.591524578184734e+00	 1.388021472824479e+00	 1.515356199946777e+00
 1.577933759779361e+00	 1.403452631384569e+00	 1.515621771582624e+00
 1.564189468320544e+00	 1.418754983723077e+00	 1.574049390950694e+00
 1.701600996017893e+00	 1.265486703718089e+00	 3.286257062324356e+00
 1.689247360674293e+00	 1.281930495006999e+00	 2.837576609480580e+00
 1.676726497845287e+00	 1.298264462079817e+00	 2.469465408285888e+00
 1.664039873451907e+00	 1.314486066289466e+00	 2.177448346082966e+00
 1.651189004135976e+00	 1.330592794670409e+00	 1.957280727336681e+00
 1.638175456691582e+00	 1.346582161205628e+00	 1.804928219445146e+00
 1.625000847458929e+00	 1.362451708078776e+00	 1.716548038157534e+00
 1.611666841681061e+00	 1.378199006910165e+00	 1.688471604226316e+00
 1.598175152823929e+00	 1.393821659975345e+00	 1.717188890538259e+00
 1.584527541860397e+00	 1.409317301404957e+00	 1.799334664827164e+00
 1.570725816518780e+00	 1.424683598364656e+00	 1.931676817267594e+00
 1.708681962339231e+00	 1.270752843518689e+00	 2.904177347918783e+00
 1.696276919129450e+00	 1.287265063265666e+00	 2.478517795869556e+00
 1.683703952541321e+00	 1.303667001778964e+00	 2.157443397998850e+00
 1.670964534596094e+00	 1.319956109847291e+00	 1.932640699634195e+00
 1.658060188246877e+00	 1.336129864047763e+00	 1.795828265770825e+00
 1.644992486807742e+00	 1.352185768018162e+00	 1.738740648944397e+00
 1.631763053345063e+00	 1.368121353714287e+00	 1.753113944424311e+00
 1.618373560031548e+00	 1.383934182651099e+00	 1.830673164645585e+00
 1.604825727463490e+00	 1.399621847126358e+00	 1.963121651415783e+00
 1.591121323941786e+00	 1.415181971425482e+00	 2.142132729259024e+00
 1.577262164717349e+00	 1.430612213006369e+00	 2.359343786392273e+00
 1.715762928661102e+00	 1.276018983319791e+00	 2.423188674784724e+00
 1.703306477585158e+00	 1.292599631524800e+00	 2.030700355020585e+00
 1.690681407237921e+00	 1.309069541478542e+00	 1.770990105056282e+00
 1.677889195740855e+00	 1.325426153405507e+00	 1.630888354518618e+00
 1.664931372358356e+00	 1.341666933425470e+00	 1.597058474897690e+00
 1.651809516924482e+00	 1.357789374831009e+00	 1.655986215454738e+00
 1.638525259231771e+00	 1.373790999350076e+00	 1.793971080948087e+00
 1.625080278382599e+00	 1.389669358392279e+00	 1.997119881146242e+00
 1.611476302103599e+00	 1.405422034277594e+00	 2.251342667690607e+00
 1.597715106023702e+00	 1.421046641446214e+00	 2.542351257639989e+00
 1.583798512916420e+00	 1.436540827648282e+00	 2.855660525080624e+00
 1.722843894983654e+00	 1.281285123121560e+00	 1.843382636481612e+00
 1.710336036041581e+00	 1.297934199784559e+00	 1.493802381836748e+00
 1.697658861935259e+00	 1.314472081178694e+00	 1.309395784880249e+00
 1.684813856886373e+00	 1.330896196964246e+00	 1.271132043699503e+00
 1.671802556470602e+00	 1.347204002803646e+00	 1.359613521913006e+00
 1.658626547041991e+00	 1.363392981644274e+00	 1.555072087952734e+00
 1.645287465119243e+00	 1.379460644986235e+00	 1.837367757466249e+00
 1.631786996734402e+00	 1.395404534133789e+00	 2.185989864636817e+00
 1.618126876744440e+00	 1.411222221429127e+00	 2.580060972760749e+00
 1.604308888106322e+00	 1.426911311467221e+00	 2.998343717112111e+00
 1.590334861116157e+00	 1.442469442290463e+00	 3.419250754076990e+00
 1.524971379128793e+00	 1.383183295872664e+00	 9.790456325095439e-01
 1.511426176825844e+00	 1.397971672900867e+00	 8.949026083587494e-01
 1.497735017846702e+00	 1.412630112807195e+00	 9.640229065709853e-01
 1.483899763637098e+00	 1.427156478805014e+00	 1.180268167728693e+00
 1.469922317758837e+00	 1.441548670520337e+00	 1.526988325148875e+00
 1.455804625010844e+00	 1.455804625010844e+00	 1.976126906080610e+00
 1.441548670520337e+00	 1.469922317758837e+00	 2.513071890558900e+00
 1.427156478805014e+00	 1.483899763637098e+00	 3.122468336910864e+00
 1.412630112807194e+00	 1.497735017846702e+00	 3.781331167119311e+00
 1.397971672900867e+00	 1.511426176825845e+00	 4.468069169634870e+00
 1.383183295872664e+00	 1.524971379128793e+00	 5.163523797571154e+00
 1.531507727328530e+00	 1.389111910514845e+00	 8.862931492622120e-01
 1.517904467438496e+00	 1.403963673638498e+00	 8.199977878194611e-01
 1.504154625271265e+00	 1.418684942702428e+00	 8.935744763435245e-01
 1.490260070251113e+00	 1.433273571761289e+00	 1.100558215323873e+00
 1.476222714098909e+00	 1.447727451438451e+00	 1.431036120251916e+00
 1.462044509949393e+00	 1.462044509949392e+00	 1.854933228656144e+00
 1.447727451438451e+00	 1.476222714098909e+00	 2.353070331740823e+00
 1.433273571761289e+00	 1.490260070251114e+00	 2.908397617653364e+00
 1.418684942702428e+00	 1.504154625271265e+00	 3.497141572968527e+00
 1.403963673638497e+00	 1.517904467438496e+00	 4.100823614112366e+00
 1.389111910514845e+00	 1.531507727328529e+00	 4.700827374121628e+00
 1.538044075527599e+00	 1.395040525156758e+00	 8.722921058777553e-01
 1.524382758050524e+00	 1.409955674375853e+00	 8.292547104220565e-01
 1.510574232695254e+00	 1.424739772597365e+00	 9.108950034253100e-01
 1.496620376864607e+00	 1.439390664717236e+00	 1.110751816690808e+00
 1.482523110438513e+00	 1.453906232356196e+00	 1.420867475166069e+00
 1.468284394887525e+00	 1.468284394887524e+00	 1.819765340961393e+00
 1.453906232356197e+00	 1.482523110438513e+00	 2.278887761532015e+00
 1.439390664717236e+00	 1.496620376864607e+00	 2.777920970027040e+00
 1.424739772597364e+00	 1.510574232695254e+00	 3.296570161877124e+00
 1.409955674375853e+00	 1.524382758050525e+00	 3.817832234457065e+00
 1.395040525156758e+00	 1.538044075527600e+00	 4.324005460156148e+00
 1.544580423726169e+00	 1.400969139798472e+00	 9.355379222873188e-01
 1.530861048662085e+00	 1.415947675113002e+00	 9.215856435008969e-01
 1.516993840118813e+00	 1.430794602492080e+00	 1.015384929698819e+00
 1.502980683477710e+00	 1.445507757672938e+00	 1.210804853991606e+00
 1.488823506777766e+00	 1.460085013273664e+00	 1.500332356220837e+00
 1.474524279825343e+00	 1.474524279825343e+00	 1.871719446030336e+00
 1.460085013273664e+00	 1.488823506777766e+00	 2.291158303557775e+00
 1.445507757672938e+00	 1.502980683477709e+00	 2.733750629129192e+00
 1.430794602492080e+00	 1.516993840118813e+00	 3.183125041972603e+00
 1.415947675113002e+00	 1.530861048662086e+00	 3.623440048624188e+00
 1.400969139798471e+00	 1.544580423726169e+00	 4.038276748956632e+00
 1.551116771924405e+00	 1.406897754440051e+00	 1.074549260709263e+00
 1.537339339273335e+00	 1.421939675850015e+00	 1.095919062781873e+00
 1.523413447542084e+00	 1.436849432386648e+00	 1.206452757569877e+00
 1.509340990090551e+00	 1.451624850628474e+00	 1.400672077831583e+00
 1.495123903116784e+00	 1.466263794190947e+00	 1.671837296757248e+00
 1.480764164762955e+00	 1.480764164762955e+00	 2.011916990116851e+00
 1.466263794190948e+00	 1.495123903116784e+00	 2.391147864022736e+00
 1.451624850628474e+00	 1.509340990090551e+00	 2.778568218210508e+00
 1.436849432386648e+00	 1.523413447542084e+00	 3.160269708280213e+00
 1.421939675850014e+00	 1.537339339273335e+00	 3.521932851366791e+00
 1.406897754440051e+00	 1.551116771924405e+00	 3.848785565748231e+00
 1.557653120122475e+00	 1.412826369081563e+00	 1.287866360703612e+00
 1.543817629884428e+00	 1.427931676586959e+00	 1.351198125910709e+00
 1.529833054965211e+00	 1.442904262281142e+00	 1.483513687515596e+00
 1.515701296703261e+00	 1.457741943583929e+00	 1.680305932940313e+00
 1.501424299455686e+00	 1.472442575108139e+00	 1.935933204620378e+00
 1.487004049700462e+00	 1.487004049700461e+00	 2.242966663503879e+00
 1.472442575108139e+00	 1.501424299455685e+00	 2.580782694826090e+00
 1.457741943583929e+00	 1.515701296703262e+00	 2.915024225431467e+00
 1.442904262281142e+00	 1.529833054965211e+00	 3.231422804118944e+00
 1.427931676586958e+00	 1.543817629884429e+00	 3.517537275719552e+00
 1.412826369081564e+00	 1.557653120122475e+00	 3.760602243185092e+00
 1.564189468320544e+00	 1.418754983723077e+00	 1.574049390950694e+00
 1.550295920495522e+00	 1.433923677323902e+00	 1.686379159086031e+00
 1.536252662388339e+00	 1.448959092175636e+00	 1.845988264498287e+00
 1.522061603315973e+00	 1.463859036539385e+00	 2.049655387896555e+00
 1.507724695794586e+00	 1.478621356025330e+00	 2.293157761785762e+00
 1.493243934637968e+00	 1.493243934637968e+00	 2.568324187523224e+00
 1.478621356025330e+00	 1.507724695794586e+00	 2.861970159150796e+00
 1.463859036539384e+00	 1.522061603315973e+00	 3.145737460275340e+00
 1.448959092175635e+00	 1.536252662388339e+00	 3.399957854969021e+00
 1.433923677323901e+00	 1.550295920495522e+00	 3.614420819410378e+00
 1.418754983723076e+00	 1.564189468320544e+00	 3.778723453900807e+00
 1.570725816518780e+00	 1.424683598364656e+00	 1.931676817267594e+00
 1.556774211106772e+00	 1.439915678060915e+00	 2.100430156416563e+00
 1.542672269811611e+00	 1.455013922070203e+00	 2.293301032988098e+00
 1.528421909928814e+00	 1.469976129494921e+00	 2.508664768780011e+00
 1.514025092133605e+00	 1.484800136942613e+00	 2.743810232761323e+00
 1.499483819575579e+00	 1.499483819575579e+00	 2.989207821578450e+00
 1.484800136942613e+00	 1.514025092133605e+00	 3.237366423577353e+00
 1.469976129494921e+00	 1.528421909928815e+00	 3.473294490212077e+00
 1.455013922070203e+00	 1.542672269811610e+00	 3.669202975614331e+00
 1.439915678060914e+00	 1.556774211106772e+00	 3.816691837223178e+00
 1.424683598364656e+00	 1.570725816518780e+00	 3.908072501375544e+00
 1.577262164717349e+00	 1.430612213006369e+00	 2.359343786392273e+00
 1.563252501718332e+00	 1.445907678798064e+00	 2.592329291634055e+00
 1.549091877235168e+00	 1.461068751964919e+00	 2.824879200345573e+00
 1.534782216541917e+00	 1.476093222450622e+00	 3.057272596637201e+00
 1.520325488472857e+00	 1.490978917860081e+00	 3.287235047035383e+00
 1.505723704513398e+00	 1.505723704513398e+00	 3.506755099286635e+00
 1.490978917860081e+00	 1.520325488472857e+00	 3.712803061478679e+00
 1.476093222450622e+00	 1.534782216541917e+00	 3.900249058187772e+00
 1.461068751964918e+00	 1.549091877235169e+00	 4.042440551336902e+00
 1.445907678798064e+00	 1.563252501718333e+00	 4.128399500301163e+00
 1.430612213006369e+00	 1.577262164717350e+00	 4.153499570330620e+00
 1.583798512916420e+00	 1.436540827648282e+00	 2.855660525080624e+00
 1.569730792330361e+00	 1.451899679535419e+00	 3.161063441806077e+00
 1.555511484659158e+00	 1.467123581859856e+00	 3.440151308323632e+00
 1.541142523155410e+00	 1.482210315406569e+00	 3.695400072488002e+00
 1.526625884812461e+00	 1.497157698777827e+00	 3.923751522803804e+00
 1.511963589451530e+00	 1.511963589451530e+00	 4.122049324162995e+00
 1.497157698777826e+00	 1.526625884812461e+00	 4.290584961168230e+00
 1.482210315406569e+00	 1.541142523155411e+00	 4.429157603476387e+00
 1.467123581859856e+00	 1.555511484659158e+00	 4.522906893914688e+00
 1.451899679535419e+00	 1.569730792330361e+00	 4.553533723347259e+00
 1.436540827648282e+00	 1.583798512916420e+00	 4.519781937821290e+00
 1.590334861116157e+00	 1.442469442290463e+00	 3.419250754076990e+00
 1.576209082943013e+00	 1.457891680273050e+00	 3.805626722704386e+00
 1.561931092083721e+00	 1.473178411755090e+00	 4.138545912456643e+00
 1.547502829769426e+00	 1.488327408362844e+00	 4.422069334042340e+00
 1.532926281152534e+00	 1.503336479695941e+00	 4.653804747671595e+00
 1.518203474390078e+00	 1.518203474390078e+00	 4.836121187292114e+00
 1.503336479695941e+00	 1.532926281152534e+00	 4.972376166774463e+00
 1.488327408362844e+00	 1.547502829769426e+00	 5.065593131255677e+00
 1.473178411755089e+00	 1.561931092083721e+00	 5.113791873149316e+00
 1.457891680273049e+00	 1.576209082943013e+00	 5.096025060647024e+00
 1.442469442290463e+00	 1.590334861116157e+00	 5.011624146160084e+00
 1.383183295872664e+00	 1.524971379128793e+00	 5.163523797571153e+00
 1.368264611261278e+00	 1.538371067290679e+00	 5.775098793699026e+00
 1.353220349918248e+00	 1.551621130347021e+00	 6.229344229451719e+00
 1.338052776723630e+00	 1.564719813227714e+00	 6.536153079832153e+00
 1.322764188630196e+00	 1.577665406256143e+00	 6.706291007799913e+00
 1.307356913517892e+00	 1.590456245878752e+00	 6.751344135001800e+00
 1.291833309028926e+00	 1.603090715360185e+00	 6.683667911308479e+00
 1.276195761384695e+00	 1.615567245443407e+00	 6.516337250372816e+00
 1.260446684185792e+00	 1.627884314974253e+00	 6.263098077621802e+00
 1.244588517196333e+00	 1.640040451489909e+00	 5.938320416021707e+00
 1.228623725113884e+00	 1.652034231770882e+00	 5.556953113792394e+00
 1.389111910514845e+00	 1.531507727328529e+00	 4.700827374121628e+00
 1.374129281282285e+00	 1.544964849373297e+00	 5.215999219612313e+00
 1.359020537069781e+00	 1.558271704987856e+00	 5.584647026394458e+00
 1.343787952465139e+00	 1.571426531579496e+00	 5.817783749172835e+00
 1.328433834266355e+00	 1.584427612143567e+00	 5.927389505713598e+00
 1.312960520331156e+00	 1.597273275996165e+00	 5.926356593868943e+00
 1.297370378407103e+00	 1.609961899472267e+00	 5.828435572542203e+00
 1.281665804943435e+00	 1.622491906588665e+00	 5.648182579768672e+00
 1.265849223885945e+00	 1.634861769671203e+00	 5.400908039766316e+00
 1.249923085456091e+00	 1.647070009945780e+00	 5.102626889215703e+00
 1.233889864915654e+00	 1.659115198092679e+00	 4.770010431339157e+00
 1.395040525156758e+00	 1.538044075527600e+00	 4.324005460156148e+00
 1.379993951303018e+00	 1.551558631455213e+00	 4.745518912023255e+00
 1.364820724221017e+00	 1.564922279627959e+00	 5.032184758049953e+00
 1.349523128206319e+00	 1.578133249930531e+00	 5.195901667501918e+00
 1.334103479902144e+00	 1.591189818030237e+00	 5.249603723131107e+00
 1.318564127144004e+00	 1.604090306112832e+00	 5.207203111715158e+00
 1.302907447784809e+00	 1.616833083583618e+00	 5.083533881340676e+00
 1.287135848501651e+00	 1.629416567733224e+00	 4.894296943676892e+00
 1.271251763585522e+00	 1.641839224367500e+00	 4.656006477565970e+00
 1.255257653715227e+00	 1.654099568401058e+00	 4.385937868059214e+00
 1.239156004716755e+00	 1.666196164413961e+00	 4.102077292737452e+00
 1.400969139798471e+00	 1.544580423726169e+00	 4.038276748956632e+00
 1.385858621323543e+00	 1.558152413536601e+00	 4.369616735924934e+00
 1.370620911372031e+00	 1.571572854267517e+00	 4.578357369167415e+00
 1.355258303947253e+00	 1.584839968281007e+00	 4.677052099889617e+00
 1.339773125537656e+00	 1.597952023916344e+00	 4.679332025392087e+00
 1.324167733956538e+00	 1.610907336228940e+00	 4.599846677046417e+00
 1.308444517162163e+00	 1.623704267694428e+00	 4.454205915340109e+00
 1.292605892059476e+00	 1.636341228877266e+00	 4.258923114424030e+00
 1.276654303284669e+00	 1.648816679063319e+00	 4.031359795995956e+00
 1.260592221973893e+00	 1.661129126855908e+00	 3.789671849474612e+00
 1.244422144517355e+00	 1.673277130734878e+00	 3.552757452449837e+00
 1.406897754440051e+00	 1.551116771924405e+00	 3.848785565748231e+00
 1.391723291343931e+00	 1.564746195617638e+00	 4.094164380214340e+00
 1.376421098522896e+00	 1.578223428906710e+00	 4.229469949464412e+00
 1.360993479688022e+00	 1.591546686631110e+00	 4.267682850930616e+00
 1.345442771172981e+00	 1.604714229802077e+00	 4.222877725789068e+00
 1.329771340768863e+00	 1.617724366344680e+00	 4.110162585051394e+00
 1.313981586539284e+00	 1.630575451804881e+00	 3.945619300427780e+00
 1.298075935617039e+00	 1.643265890020974e+00	 3.746245465704835e+00
 1.282056842983527e+00	 1.655794133758833e+00	 3.529897791018068e+00
 1.265926790232248e+00	 1.668158685310494e+00	 3.315237168758844e+00
 1.249688284317622e+00	 1.680358097055581e+00	 3.121675526133412e+00
 1.412826369081564e+00	 1.557653120122475e+00	 3.760602243185092e+00
 1.397587961364249e+00	 1.571339977698499e+00	 3.924947000857862e+00
 1.382221285673688e+00	 1.584874003545722e+00	 3.991733539568663e+00
 1.366728655428709e+00	 1.598253404981029e+00	 3.974145129721287e+00
 1.351112416808216e+00	 1.611476435687625e+00	 3.886449907078039e+00
 1.335374947581083e+00	 1.624541396460239e+00	 3.743939114456063e+00
 1.319518655916286e+00	 1.637446635915165e+00	 3.562866643137914e+00
 1.303545979174471e+00	 1.650190551164529e+00	 3.360390062175125e+00
 1.287459382682243e+00	 1.662771588454217e+00	 3.154513299555365e+00
 1.271261358490447e+00	 1.675188243764978e+00	 2.964031114723632e+00
 1.254954424117723e+00	 1.687439063376218e+00	 2.808475477395635e+00
 1.418754983723076e+00	 1.564189468320544e+00	 3.778723453900807e+00
 1.403452631384569e+00	 1.577933759779360e+00	 3.867663814448510e+00
 1.388021472824480e+00	 1.591524578184733e+00	 3.871265883337736e+00
 1.372463831169396e+00	 1.604960123330949e+00	 3.802694359831384e+00
 1.356782062443449e+00	 1.618238641573180e+00	 3.676164189198458e+00
 1.340978554393303e+00	 1.631358426575810e+00	 3.506878154368573e+00
 1.325055725293289e+00	 1.644317820025468e+00	 3.310965919349222e+00
 1.309016022731904e+00	 1.657115212308112e+00	 3.105424714151396e+00
 1.292861922380959e+00	 1.669749043149643e+00	 2.908061825833969e+00
 1.276595926748645e+00	 1.682217802219523e+00	 2.737439034877323e+00
 1.260220563917822e+00	 1.694520029696938e+00	 2.612819110638760e+00
 1.424683598364656e+00	 1.570725816518780e+00	 3.908072501375544e+00
 1.409317301404957e+00	 1.584527541860397e+00	 3.927928643601169e+00
 1.393821659975345e+00	 1.598175152823928e+00	 3.874092128120108e+00
 1.378199006910166e+00	 1.611666841681060e+00	 3.759490935873396e+00
 1.362451708078776e+00	 1.625000847458929e+00	 3.598043444770730e+00
 1.346582161205629e+00	 1.638175456691581e+00	 3.404595782572166e+00
 1.330592794670409e+00	 1.651189004135976e+00	 3.194860820557928e+00
 1.314486066289467e+00	 1.664039873451907e+00	 2.985358998434529e+00
 1.298264462079818e+00	 1.676726497845286e+00	 2.793361144780837e+00
 1.281930495007000e+00	 1.689247360674292e+00	 2.636833430939231e+00
 1.265486703718089e+00	 1.701600996017893e+00	 2.534384569816000e+00
 1.430612213006369e+00	 1.577262164717350e+00	 4.153499570330620e+00
 1.415181971425483e+00	 1.591121323941786e+00	 4.111270415584583e+00
 1.399621847126359e+00	 1.604825727463489e+00	 4.006145474468957e+00
 1.383934182651099e+00	 1.618373560031547e+00	 3.850600928220203e+00
 1.368121353714287e+00	 1.631763053345062e+00	 3.658018463887124e+00
 1.352185768018162e+00	 1.644992486807741e+00	 3.442622796675415e+00
 1.336129864047763e+00	 1.658060188246876e+00	 3.219421058957802e+00
 1.319956109847291e+00	 1.670964534596094e+00	 3.004144246240949e+00
 1.303667001778964e+00	 1.683703952541321e+00	 2.813190883144031e+00
 1.287265063265667e+00	 1.696276919129449e+00	 2.663573044967241e+00
 1.270752843518689e+00	 1.708681962339230e+00	 2.572864842928410e+00
 1.436540827648282e+00	 1.583798512916420e+00	 4.519781937821290e+00
 1.421046641446214e+00	 1.597715106023701e+00	 4.423133615542453e+00
 1.405422034277595e+00	 1.611476302103599e+00	 4.273267776770331e+00
 1.389669358392280e+00	 1.625080278382598e+00	 4.081996737369987e+00
 1.373790999350076e+00	 1.638525259231769e+00	 3.861928569662177e+00
 1.357789374831010e+00	 1.651809516924482e+00	 3.626405199482913e+00
 1.341666933425470e+00	 1.664931372358356e+00	 3.389442632518195e+00
 1.325426153405508e+00	 1.677889195740855e+00	 3.165673499192458e+00
 1.309069541478542e+00	 1.690681407237920e+00	 2.970292078979603e+00
 1.292599631524802e+00	 1.703306477585158e+00	 2.819001936370717e+00
 1.276018983319791e+00	 1.715762928661101e+00	 2.727966272097387e+00
 1.442469442290463e+00	 1.590334861116157e+00	 5.011624146160084e+00
 1.426911311467222e+00	 1.604308888106321e+00	 4.868878695611469e+00
 1.411222221429127e+00	 1.618126876744440e+00	 4.681210096199345e+00
 1.395404534133789e+00	 1.631786996734401e+00	 4.459557699408609e+00
 1.379460644986235e+00	 1.645287465119242e+00	 4.215522185960443e+00
 1.363392981644275e+00	 1.658626547041991e+00	 3.961304639904502e+00
 1.347204002803646e+00	 1.671802556470602e+00	 3.709648051211983e+00
 1.330896196964247e+00	 1.684813856886373e+00	 3.473781434284470e+00
 1.314472081178695e+00	 1.697658861935258e+00	 3.267366720128351e+00
 1.297934199784560e+00	 1.710336036041580e+00	 3.104448550071537e+00
 1.281285123121559e+00	 1.722843894983654e+00	 2.999407069052532e+00
 1.228623725113884e+00	 1.652034231770882e+00	 5.556953113792394e+00
 1.212557534941026e+00	 1.663862286580313e+00	 5.179601326160205e+00
 1.196389743961696e+00	 1.675525351519081e+00	 4.853820489886786e+00
 1.180122873882741e+00	 1.687022161360984e+00	 4.575656819861308e+00
 1.163759466353039e+00	 1.698351501880926e+00	 4.341225153958942e+00
 1.147302081686166e+00	 1.709512210216838e+00	 4.146700130545322e+00
 1.130753297576374e+00	 1.720503175193551e+00	 3.988309463419084e+00
 1.114115707809168e+00	 1.731323337608557e+00	 3.862329235406920e+00
 1.097391920967814e+00	 1.741971690479595e+00	 3.771709770943438e+00
 1.080584559137054e+00	 1.752447279254095e+00	 3.724262968801467e+00
 1.063696256605328e+00	 1.762749201980530e+00	 3.714246964821533e+00
 1.233889864915654e+00	 1.659115198092679e+00	 4.770010431339157e+00
 1.217754811671241e+00	 1.670993950433781e+00	 4.461499460019083e+00
 1.201517722137913e+00	 1.682707005722907e+00	 4.219190868516183e+00
 1.185181128831082e+00	 1.694253093310836e+00	 4.035819342039072e+00
 1.168747584293673e+00	 1.705630993768050e+00	 3.904035187143050e+00
 1.152219659813305e+00	 1.716839539248212e+00	 3.816401637270562e+00
 1.135599944132772e+00	 1.727877613813429e+00	 3.765394496638062e+00
 1.118891042155095e+00	 1.738744153721230e+00	 3.743404027728197e+00
 1.102095573644476e+00	 1.749438147673221e+00	 3.745432965265306e+00
 1.085216171924467e+00	 1.759958637025421e+00	 3.776795027717194e+00
 1.068255482574626e+00	 1.770304715960357e+00	 3.829254467834582e+00
 1.239156004716755e+00	 1.666196164413961e+00	 4.102077292737452e+00
 1.222952088400753e+00	 1.678125614286827e+00	 3.859176949690863e+00
 1.206645700313399e+00	 1.689888659926420e+00	 3.693030628094147e+00
 1.190239383778677e+00	 1.701484025260491e+00	 3.593678463180894e+00
 1.173735702233552e+00	 1.712910485655100e+00	 3.550951045885351e+00
 1.157137237939694e+00	 1.724166868279638e+00	 3.554471793061414e+00
 1.140446590688438e+00	 1.735252052433483e+00	 3.593661869226049e+00
 1.123666376500318e+00	 1.746164969834201e+00	 3.657747551016514e+00
 1.106799226320477e+00	 1.756904604867258e+00	 3.736347793609704e+00
 1.089847784711278e+00	 1.767469994797263e+00	 3.829952523417668e+00
 1.072814708543394e+00	 1.777860229940787e+00	 3.929911826209397e+00
 1.244422144517355e+00	 1.673277130734878e+00	 3.552757452449837e+00
 1.228149365129738e+00	 1.685257278139586e+00	 3.370471286751846e+00
 1.211773678488339e+00	 1.697070314129733e+00	 3.271765225410623e+00
 1.195297638725710e+00	 1.708714957210041e+00	 3.244593131891242e+00
 1.178723820172866e+00	 1.720189977542146e+00	 3.276601751105641e+00
 1.162054816065520e+00	 1.731494197311164e+00	 3.355137089587544e+00
 1.145293237243554e+00	 1.742626491053740e+00	 3.467253532884541e+00
 1.128441710845014e+00	 1.753585785947470e+00	 3.599725579156641e+00
 1.111502878995984e+00	 1.764371062061683e+00	 3.739062049754402e+00
 1.094479397497636e+00	 1.774981352569573e+00	 3.879147833723663e+00
 1.077373934511765e+00	 1.785415743921752e+00	 4.012708703684026e+00
 1.249688284317622e+00	 1.680358097055581e+00	 3.121675526133412e+00
 1.233346641858371e+00	 1.692388941992189e+00	 2.993271103762502e+00
 1.216901656662912e+00	 1.704251968332960e+00	 2.951895637471787e+00
 1.200355893672370e+00	 1.715945889159581e+00	 2.984016437949976e+00
 1.183711938111802e+00	 1.727469469429259e+00	 3.075723473568709e+00
 1.166972394190973e+00	 1.738821526342836e+00	 3.212738714300422e+00
 1.150139883798304e+00	 1.750000929674219e+00	 3.380428371303363e+00
 1.133217045189358e+00	 1.761006602061036e+00	 3.563817900817106e+00
 1.116206531671160e+00	 1.771837519256473e+00	 3.747609622183890e+00
 1.099111010283693e+00	 1.782492710342304e+00	 3.919895323467713e+00
 1.081933160479871e+00	 1.792971257903185e+00	 4.074217350977630e+00
 1.254954424117723e+00	 1.687439063376218e+00	 2.808475477395636e+00
 1.238543918586828e+00	 1.699520605844772e+00	 2.725514050604869e+00
 1.222029634837303e+00	 1.711433622536215e+00	 2.729995753524624e+00
 1.205414148618842e+00	 1.723176821109202e+00	 2.807492643061777e+00
 1.188700056050550e+00	 1.734748961316512e+00	 2.943156323243606e+00
 1.171889972316237e+00	 1.746148855374703e+00	 3.121729215053217e+00
 1.154986530352870e+00	 1.757375368294946e+00	 3.327558853379837e+00
 1.137992379533525e+00	 1.768427418174900e+00	 3.544615071218769e+00
 1.120910184346171e+00	 1.779303976451603e+00	 3.756509911841179e+00
 1.103742623069600e+00	 1.790004068115411e+00	 3.947810560424127e+00
 1.086492386447844e+00	 1.800526771885019e+00	 4.111092194102665e+00
 1.260220563917822e+00	 1.694520029696938e+00	 2.612819110638760e+00
 1.243741195315285e+00	 1.706652269697467e+00	 2.565184692530984e+00
 1.227157613011695e+00	 1.718615276739613e+00	 2.602709801279026e+00
 1.210472403565315e+00	 1.730407753059001e+00	 2.710654255229533e+00
 1.193688173989298e+00	 1.742028453203972e+00	 2.873841188731618e+00
 1.176807550441501e+00	 1.753476184406809e+00	 3.076669218333077e+00
 1.159833176907436e+00	 1.764749806915944e+00	 3.303127740774439e+00
 1.142767713877693e+00	 1.775848234289059e+00	 3.536815216229468e+00
 1.125613837021182e+00	 1.786770433647050e+00	 3.760960270262816e+00
 1.108374235855506e+00	 1.797515425888847e+00	 3.958609571721762e+00
 1.091051612415817e+00	 1.808082285867185e+00	 4.120069453465403e+00
 1.265486703718089e+00	 1.701600996017893e+00	 2.534384569816000e+00
 1.248938472043919e+00	 1.713783933550405e+00	 2.510312429290476e+00
 1.232285591186269e+00	 1.725796930943267e+00	 2.566749806331621e+00
 1.215530658511975e+00	 1.737638685009066e+00	 2.689219145481096e+00
 1.198676291928235e+00	 1.749307945091711e+00	 2.862816625304605e+00
 1.181725128566953e+00	 1.760803513439203e+00	 3.072224199543821e+00
 1.164679823462185e+00	 1.772124245537235e+00	 3.301724848220346e+00
 1.147543048222037e+00	 1.783269050403514e+00	 3.535220887260429e+00
 1.130317489696358e+00	 1.794236890842786e+00	 3.756255164691673e+00
 1.113005848641563e+00	 1.805026783662565e+00	 3.948034952677617e+00
 1.095610838383923e+00	 1.815637799849618e+00	 4.097966792859858e+00
 1.270752843518689e+00	 1.708681962339230e+00	 2.572864842928410e+00
 1.254135748772903e+00	 1.720915597403722e+00	 2.558969434726361e+00
 1.237413569361207e+00	 1.732978585147291e+00	 2.618893083828368e+00
 1.220588913459008e+00	 1.744869616959493e+00	 2.738987705720989e+00
 1.203664409867549e+00	 1.756587436979800e+00	 2.905215790143630e+00
 1.186642706692780e+00	 1.768130842471933e+00	 3.103161303829296e+00
 1.169526470017301e+00	 1.779498684158842e+00	 3.318043855056350e+00
 1.152318382566733e+00	 1.790689866518262e+00	 3.534735965490761e+00
 1.135021142371864e+00	 1.801703348038791e+00	 3.737783273764630e+00
 1.117637461427922e+00	 1.812538141436519e+00	 3.911427475983341e+00
 1.100170064352294e+00	 1.823193313832249e+00	 4.041682997489912e+00
 1.276018983319791e+00	 1.715762928661101e+00	 2.727966272097387e+00
 1.259333025502415e+00	 1.728047261257548e+00	 2.709268616247932e+00
 1.242541547536694e+00	 1.740160239351801e+00	 2.755979761435145e+00
 1.225647168406602e+00	 1.752100548910374e+00	 2.855840046519487e+00
 1.208652527807429e+00	 1.763866928868309e+00	 2.996263423414673e+00
 1.191560284819169e+00	 1.775458171505045e+00	 3.164346215977513e+00
 1.174373116572967e+00	 1.786873122780790e+00	 3.346879166503632e+00
 1.157093716911956e+00	 1.798110682633304e+00	 3.530362613994837e+00
 1.139724795047866e+00	 1.809169805235040e+00	 3.701024626837374e+00
 1.122269074214732e+00	 1.820049499210662e+00	 3.844841892826202e+00
 1.104729290321062e+00	 1.830748827815010e+00	 3.948197680182918e+00
 1.281285123121559e+00	 1.722843894983654e+00	 2.999407069052532e+00
 1.264530302232631e+00	 1.735178925112020e+00	 2.959361593609515e+00
 1.247669525712911e+00	 1.747341893556909e+00	 2.974910332715711e+00
 1.230705423354944e+00	 1.759331480861804e+00	 3.035733233689969e+00
 1.213640645748062e+00	 1.771146420757310e+00	 3.131272873862689e+00
 1.196477862946308e+00	 1.782785500538586e+00	 3.250740077993484e+00
 1.179219763129366e+00	 1.794247561403101e+00	 3.383122823254838e+00
 1.161869051257883e+00	 1.805531498748640e+00	 3.517198276394376e+00
 1.144428447724528e+00	 1.816636262431509e+00	 3.641547785690610e+00
 1.126900687002146e+00	 1.827560856984948e+00	 3.744574630182315e+00
 1.109288516290361e+00	 1.838304341797836e+00	 3.814571014985793e+00
 1.063696256605328e+00	 1.762749201980530e+00	 3.714246964821533e+00
 1.046729658898207e+00	 1.772876609869357e+00	 3.714088386356046e+00
 1.029687422454353e+00	 1.782828708677572e+00	 3.701245123221512e+00
 1.012572212298925e+00	 1.792604757493784e+00	 3.677142823440164e+00
 9.953867004148546e-01	 1.802204068330247e+00	 3.643187678573290e+00
 9.781335644556902e-01	 1.811626006103685e+00	 3.600772364243325e+00
 9.608154864645549e-01	 1.820869988579429e+00	 3.551280089549933e+00
 9.434351516004084e-01	 1.829935486279232e+00	 3.496086895090599e+00
 9.259952468727801e-01	 1.838822022353227e+00	 3.436562347630625e+00
 9.084984598861195e-01	 1.847529172416485e+00	 3.374068786321931e+00
 8.909474775948772e-01	 1.856056564350709e+00	 3.309862083597440e+00
 1.068255482574626e+00	 1.770304715960357e+00	 3.829254467834582e+00
 1.051216162459804e+00	 1.780475532050394e+00	 3.872465939706208e+00
 1.034100879404719e+00	 1.790470287648233e+00	 3.885562742785379e+00
 1.016912309857390e+00	 1.800288238666776e+00	 3.872338846239266e+00
 9.996531372534292e-01	 1.809928694169406e+00	 3.836617883566572e+00
 9.823260507233711e-01	 1.819391016350745e+00	 3.782254715654352e+00
 9.649337438061413e-01	 1.828674620480534e+00	 3.713135034213735e+00
 9.474789131698553e-01	 1.837778974811066e+00	 3.633173158099817e+00
 9.299642573411318e-01	 1.846703600448590e+00	 3.546308183458516e+00
 9.123924754440587e-01	 1.855448071189167e+00	 3.456448182617349e+00
 8.947662659499381e-01	 1.864012013319517e+00	 3.366991476311815e+00
 1.072814708543394e+00	 1.777860229940787e+00	 3.929911826209397e+00
 1.055702666020960e+00	 1.788074454232105e+00	 4.004641155663776e+00
 1.038514336354744e+00	 1.798111866619622e+00	 4.035636173257539e+00
 1.021252407415621e+00	 1.807971719840528e+00	 4.028592362945038e+00
 1.003919574091881e+00	 1.817653320009344e+00	 3.989274651576639e+00
 9.865185369910409e-01	 1.827156026598584e+00	 3.923515325253506e+00
 9.690520011478235e-01	 1.836479252382404e+00	 3.837209920038456e+00
 9.515226747394969e-01	 1.845622463343634e+00	 3.736311251236869e+00
 9.339332678097648e-01	 1.854585178544640e+00	 3.626804794769650e+00
 9.162864910023489e-01	 1.863366969962473e+00	 3.514348878396228e+00
 8.985850543054007e-01	 1.871967462288870e+00	 3.404552262524820e+00
 1.077373934511765e+00	 1.785415743921752e+00	 4.012708703684026e+00
 1.060189169581784e+00	 1.795673376414403e+00	 4.108241681912233e+00
 1.042927793304513e+00	 1.805753445591633e+00	 4.150086202446637e+00
 1.025592504973677e+00	 1.815655201014926e+00	 4.145379077419356e+00
 1.008186010930241e+00	 1.825377945849935e+00	 4.101357075244655e+00
 9.907110232587029e-01	 1.834921036847070e+00	 4.025351914695518e+00
 9.731702584895774e-01	 1.844283884284899e+00	 3.924783169765977e+00
 9.555664363092848e-01	 1.853465951876796e+00	 3.807147577048821e+00
 9.379022782786087e-01	 1.862466756641239e+00	 3.679831532504872e+00
 9.201805065609027e-01	 1.871285868736273e+00	 3.550017706625640e+00
 9.024038426611642e-01	 1.879922911258652e+00	 3.424958139802353e+00
 1.081933160479871e+00	 1.792971257903185e+00	 4.074217350977630e+00
 1.064675673142387e+00	 1.803272298597202e+00	 4.180957258858784e+00
 1.047341250254111e+00	 1.813395024564164e+00	 4.227577592908993e+00
 1.029932602531616e+00	 1.823338682189851e+00	 4.222202821194204e+00
 1.012452447768540e+00	 1.833102571691049e+00	 4.173078692270188e+00
 9.949035095263590e-01	 1.842686047096064e+00	 4.088565025147721e+00
 9.772885158313799e-01	 1.852088516187880e+00	 3.977126388001269e+00
 9.596101978791698e-01	 1.861309440410411e+00	 3.847319164265230e+00
 9.418712887475928e-01	 1.870348334738252e+00	 3.707449748337372e+00
 9.240745221196324e-01	 1.879204767510440e+00	 3.565763109086799e+00
 9.062226310171289e-01	 1.887878360228749e+00	 3.430594953147674e+00
 1.086492386447844e+00	 1.800526771885019e+00	 4.111092194102665e+00
 1.069162176702880e+00	 1.810871220780415e+00	 4.220539701708505e+00
 1.051754707203623e+00	 1.821036603537113e+00	 4.266819406446992e+00
 1.034272700089496e+00	 1.831022163365186e+00	 4.258596171369739e+00
 1.016718884606809e+00	 1.840827197532559e+00	 4.204668350023387e+00
 9.990959957940119e-01	 1.850451057345432e+00	 4.113959084293030e+00
 9.814067731732061e-01	 1.859893148091208e+00	 3.995606343762532e+00
 9.636539594491035e-01	 1.869152928944339e+00	 3.858633904707299e+00
 9.458402992166475e-01	 1.878229912835541e+00	 3.711777769057385e+00
 9.279685376784500e-01	 1.887123666284845e+00	 3.563867204160079e+00
 9.100414193731938e-01	 1.895833809199044e+00	 3.423821031213446e+00
 1.091051612415817e+00	 1.808082285867185e+00	 4.120069453465403e+00
 1.073648680263373e+00	 1.818470142963956e+00	 4.224802903082127e+00
 1.056168164153135e+00	 1.828678182510376e+00	 4.266565340179732e+00
 1.038612797647377e+00	 1.838705644540815e+00	 4.254121072329677e+00
 1.020985321445077e+00	 1.848551823374337e+00	 4.196371067377823e+00
 1.003288482061665e+00	 1.858216067595038e+00	 4.102466932567030e+00
 9.855250305150323e-01	 1.867697779994740e+00	 3.981729125496068e+00
 9.676977210190376e-01	 1.876996417478440e+00	 3.842932909101340e+00
 9.498093096857024e-01	 1.886111490932969e+00	 3.694910453451201e+00
 9.318625532372673e-01	 1.895042565059359e+00	 3.546586048982128e+00
 9.138602077292586e-01	 1.903789258169420e+00	 3.406967501159951e+00
 1.095610838383923e+00	 1.815637799849618e+00	 4.097966792859858e+00
 1.078135183823976e+00	 1.826069065147739e+00	 4.191622855580824e+00
 1.060581621102733e+00	 1.836319761483851e+00	 4.225614073850810e+00
 1.042952895205316e+00	 1.846389125716622e+00	 4.208369461164541e+00
 1.025251758283376e+00	 1.856276449216254e+00	 4.148535045308596e+00
 1.007480968329322e+00	 1.865981077844747e+00	 4.055257987156759e+00
 9.896432878568346e-01	 1.875502411898338e+00	 3.936969585759832e+00
 9.717414825889225e-01	 1.884839906012572e+00	 3.802038024642693e+00
 9.537783201546869e-01	 1.893993069030402e+00	 3.658919352408484e+00
 9.357565687959974e-01	 1.902961463833853e+00	 3.516149881733540e+00
 9.176789960852232e-01	 1.911744707139762e+00	 3.382338582781456e+00
 1.100170064352294e+00	 1.823193313832249e+00	 4.041682997489912e+00
 1.082621687384800e+00	 1.833667987331677e+00	 4.118937693721338e+00
 1.064995078052501e+00	 1.843961340457434e+00	 4.142809628048903e+00
 1.047292992763372e+00	 1.854072606892489e+00	 4.120991175936252e+00
 1.029518195121736e+00	 1.864001075058184e+00	 4.061911141719129e+00
 1.011673454596983e+00	 1.873746088094420e+00	 3.973355283078161e+00
 9.937615451985884e-01	 1.883307043801862e+00	 3.862788885042097e+00
 9.757852441587102e-01	 1.892683394546595e+00	 3.737751865020296e+00
 9.577473306235308e-01	 1.901874647127700e+00	 3.605852851328557e+00
 9.396505843545510e-01	 1.910880362608200e+00	 3.474763344632870e+00
 9.214977844409867e-01	 1.919700156109956e+00	 3.352211862501730e+00
 1.104729290321062e+00	 1.830748827815010e+00	 3.948197680182918e+00
 1.087108190945956e+00	 1.841266909515684e+00	 4.004747754683676e+00
 1.069408535002526e+00	 1.851602919431023e+00	 4.017041733027901e+00
 1.051633090321603e+00	 1.861756088068297e+00	 3.992154681785956e+00
 1.033784631960189e+00	 1.871725700899998e+00	 3.937012053499648e+00
 1.015865940864653e+00	 1.881511098343927e+00	 3.857769979444703e+00
 9.978798025402706e-01	 1.891111675705171e+00	 3.760634363739333e+00
 9.798290057283521e-01	 1.900526883080370e+00	 3.651857825586469e+00
 9.617163410921636e-01	 1.909756225224728e+00	 3.537736295336795e+00
 9.435445999128415e-01	 1.918799261382270e+00	 3.424605688194692e+00
 9.253165727964494e-01	 1.927655605079884e+00	 3.318838547820404e+00
 1.109288516290361e+00	 1.838304341797836e+00	 3.814571014985793e+00
 1.091594694507553e+00	 1.848865831699674e+00	 3.847115657332007e+00
 1.073821991952893e+00	 1.859244498404515e+00	 3.847629223263577e+00
 1.055973187880068e+00	 1.869439569243934e+00	 3.821845312739809e+00
 1.038051068798763e+00	 1.879450326741568e+00	 3.774308255774200e+00
 1.020058427132334e+00	 1.889276108593128e+00	 3.709506181173261e+00
 1.001998059881857e+00	 1.898916307608127e+00	 3.631939402793430e+00
 9.838727672977994e-01	 1.908370371613757e+00	 3.546120084098784e+00
 9.656853515605157e-01	 1.917637803321349e+00	 3.456572097805516e+00
 9.474386154707806e-01	 1.926718160155935e+00	 3.367830957290125e+00
 9.291353611515103e-01	 1.935611054049432e+00	 3.284443702772304e+00
 8.909474775948772e-01	 1.856056564350709e+00	 3.309862083597440e+00
 8.733419880877556e-01	 1.864405281657153e+00	 3.247769061770124e+00
 8.556876532658938e-01	 1.872573589764845e+00	 3.191169621936071e+00
 8.379871512822794e-01	 1.880561270422445e+00	 3.139931412395787e+00
 8.202431548190318e-01	 1.888368156547483e+00	 3.093946132556819e+00
 8.024583299111965e-01	 1.895994131863790e+00	 3.053130980239607e+00
 7.846353347873413e-01	 1.903439130507890e+00	 3.017429767580656e+00
 7.667768187278625e-01	 1.910703136605119e+00	 2.986813665173218e+00
 7.488854209418633e-01	 1.917786183816243e+00	 2.961281541777963e+00
 7.309637694634429e-01	 1.924688354855402e+00	 2.941204547741908e+00
 7.130144800681852e-01	 1.931409780980207e+00	 2.928959392520528e+00
 8.947662659499381e-01	 1.864012013319517e+00	 3.366991476311815e+00
 8.770853156105543e-01	 1.872396514985003e+00	 3.283947404155610e+00
 8.593553105951380e-01	 1.880599834179922e+00	 3.210618828702034e+00
 8.415789405357927e-01	 1.888621751717463e+00	 3.146419421620006e+00
 8.237588895703066e-01	 1.896462099799010e+00	 3.090811502576190e+00
 8.058978351609019e-01	 1.904120761650014e+00	 3.043307937561652e+00
 7.879984469298640e-01	 1.911597671124698e+00	 3.003473638459777e+00
 7.700633855129519e-01	 1.918892812280358e+00	 2.970926622037890e+00
 7.520953014314652e-01	 1.926006218922042e+00	 2.945338594616743e+00
 7.340968339838003e-01	 1.932937974118424e+00	 2.926597460716377e+00
 7.160706101572966e-01	 1.939688209689715e+00	 2.916712163108638e+00
 8.985850543054007e-01	 1.871967462288870e+00	 3.404552262524820e+00
 8.808286431337827e-01	 1.880387748313307e+00	 3.304946776099736e+00
 8.630229679248178e-01	 1.888626078595345e+00	 3.218629679680325e+00
 8.451707297897312e-01	 1.896682233012714e+00	 3.144661843530192e+00
 8.272746243219822e-01	 1.904556043050652e+00	 3.082172915002588e+00
 8.093373404109732e-01	 1.912247391436232e+00	 3.030363609082420e+00
 7.913615590727103e-01	 1.919756211741379e+00	 2.988507538987819e+00
 7.733499522983188e-01	 1.927082487955355e+00	 2.955952543487768e+00
 7.553051819212977e-01	 1.934226254027489e+00	 2.932121476036858e+00
 7.372298985043443e-01	 1.941187593380994e+00	 2.916557613680494e+00
 7.191267402465555e-01	 1.947966638398685e+00	 2.910798373689662e+00
 9.024038426611642e-01	 1.879922911258652e+00	 3.424958139802353e+00
 8.845719706573320e-01	 1.888378981641964e+00	 3.313193323734026e+00
 8.666906252548241e-01	 1.896652323011041e+00	 3.217593565298263e+00
 8.487625190439888e-01	 1.904742714308148e+00	 3.136966878990988e+00
 8.307903590739594e-01	 1.912649986302385e+00	 3.070205764208755e+00
 8.127768456613212e-01	 1.920374021222447e+00	 3.016289830029944e+00
 7.947246712158034e-01	 1.927914752357966e+00	 2.974287904970345e+00
 7.766365190839010e-01	 1.935272163630169e+00	 2.943359586772343e+00
 7.585150624113142e-01	 1.942446289132672e+00	 2.922756196102096e+00
 7.403629630250433e-01	 1.949437212643225e+00	 2.911821545056857e+00
 7.221828703359465e-01	 1.956245067107251e+00	 2.911525941941697e+00
 9.062226310171289e-01	 1.887878360228749e+00	 3.430594953147674e+00
 8.883152981810960e-01	 1.896370214970877e+00	 3.311085195721034e+00
 8.703582825850489e-01	 1.904678567426931e+00	 3.209874511678493e+00
 8.523543082984606e-01	 1.912803195603714e+00	 3.125616793321039e+00
 8.343060938261400e-01	 1.920743929554184e+00	 3.057061750264624e+00
 8.162163509118578e-01	 1.928500651008666e+00	 3.003057811314469e+00
 7.980877833590678e-01	 1.936073292974493e+00	 2.962554462245421e+00
 7.799230858696367e-01	 1.943461839304863e+00	 2.934603972880505e+00
 7.617249429014677e-01	 1.950666324237680e+00	 2.918362476038343e+00
 7.434960275458669e-01	 1.957686831905231e+00	 2.913090370202722e+00
 7.252390004254544e-01	 1.964523495815548e+00	 2.919201447855699e+00
 9.100414193731938e-01	 1.895833809199044e+00	 3.423821031213446e+00
 8.920586257049673e-01	 1.904361448299948e+00	 3.300992909752190e+00
 8.740259399153831e-01	 1.912704811842939e+00	 3.197809560822289e+00
 8.559460975530405e-01	 1.920863676899360e+00	 3.112868293114859e+00
 8.378218285784246e-01	 1.928837872806025e+00	 3.044869234920512e+00
 8.196558561624937e-01	 1.936627280794890e+00	 2.992618456779948e+00
 8.014508955024269e-01	 1.944231833590993e+00	 2.955030486911965e+00
 7.832096526554635e-01	 1.951651514979499e+00	 2.931130171070887e+00
 7.649348233917118e-01	 1.958886359342598e+00	 2.920053838024867e+00
 7.466290920667832e-01	 1.965936451167123e+00	 2.921049741491696e+00
 7.282951305150627e-01	 1.972801924523710e+00	 2.934130642288254e+00
 9.138602077292586e-01	 1.903789258169420e+00	 3.406967501159951e+00
 8.958019532288388e-01	 1.912352681629080e+00	 3.285259697387761e+00
 8.776935972457179e-01	 1.920731056258989e+00	 3.183709129246402e+00
 8.595378868076224e-01	 1.928924158195032e+00	 3.100952882055777e+00
 8.413375633307147e-01	 1.936931816057884e+00	 3.035733577554258e+00
 8.230953614131402e-01	 1.944753910581124e+00	 2.986902661838633e+00
 8.048140076458048e-01	 1.952390374207497e+00	 2.953423048814741e+00
 7.864962194413198e-01	 1.959841190654135e+00	 2.934371068996817e+00
 7.681447038819993e-01	 1.967106394447518e+00	 2.928937683390306e+00
 7.497621565877620e-01	 1.974186070429015e+00	 2.936428932197938e+00
 7.313512606047566e-01	 1.981080353231873e+00	 2.956618950986829e+00
 9.176789960852232e-01	 1.911744707139762e+00	 3.382338582781456e+00
 8.995452807526031e-01	 1.920343914958172e+00	 3.266201827869836e+00
 8.813612545759445e-01	 1.928757300675005e+00	 3.169857345701168e+00
 8.631296760621006e-01	 1.936984639490681e+00	 3.092077196331605e+00
 8.448532980829121e-01	 1.945025759309737e+00	 3.031737451665989e+00
 8.265348666637092e-01	 1.952880540367373e+00	 2.987821594030495e+00
 8.081771197891249e-01	 1.960548914824041e+00	 2.959423238773622e+00
 7.897827862271437e-01	 1.968030866328837e+00	 2.945748128844882e+00
 7.713545843722842e-01	 1.975326429552527e+00	 2.946115359550776e+00
 7.528952211087722e-01	 1.982435689691021e+00	 2.959957802049649e+00
 7.344073906945200e-01	 1.989358781940170e+00	 2.986971974219429e+00
 9.214977844409867e-01	 1.919700156109956e+00	 3.352211862501730e+00
 9.032886082761531e-01	 1.928335148287128e+00	 3.246108911518203e+00
 8.850289119059546e-01	 1.936783545090909e+00	 3.158512368576318e+00
 8.667214653163703e-01	 1.945045120786256e+00	 3.088423320244497e+00
 8.483690328349168e-01	 1.953119702561557e+00	 3.034941142484645e+00
 8.299743719141109e-01	 1.961007170153640e+00	 2.997266956032129e+00
 8.115402319323108e-01	 1.968707455440654e+00	 2.974706380028626e+00
 7.930693530128730e-01	 1.976220542003663e+00	 2.966671529893216e+00
 7.745644648625198e-01	 1.983546464657714e+00	 2.972682216016722e+00
 7.560282856297825e-01	 1.990685308953253e+00	 2.992366310580098e+00
 7.374635207843369e-01	 1.997637210648736e+00	 3.025495982136090e+00
 9.253165727964494e-01	 1.927655605079884e+00	 3.318838547820404e+00
 9.070319357993816e-01	 1.936326381615849e+00	 3.227244183298542e+00
 8.886965692356391e-01	 1.944809789506627e+00	 3.151906683581547e+00
 8.703132545703250e-01	 1.953105602081704e+00	 3.092149082587416e+00
 8.518847675866309e-01	 1.961213645813324e+00	 3.047382826231939e+00
 8.334138771642573e-01	 1.969133799939929e+00	 3.017111231621890e+00
 8.149033440752865e-01	 1.976865996057371e+00	 3.000932224356641e+00
 7.963559197984457e-01	 1.984410217678674e+00	 2.998540297881691e+00
 7.777743453526587e-01	 1.991766499763165e+00	 3.009727649784378e+00
 7.591613501507617e-01	 1.998934928215824e+00	 3.034384460989441e+00
 7.405196508741924e-01	 2.005915639357707e+00	 3.072498405985461e+00
 9.291353611515103e-01	 1.935611054049432e+00	 3.284443702772304e+00
 9.107752633221814e-01	 1.944317614944239e+00	 3.211844767133617e+00
 8.923642265648896e-01	 1.952836033922081e+00	 3.152247382268765e+00
 8.739050438238596e-01	 1.961166083376974e+00	 3.105388334340152e+00
 8.554005023379557e-01	 1.969307589065009e+00	 3.071078831571168e+00
 8.368533824140600e-01	 1.977260429726245e+00	 3.049207915091585e+00
 8.182664562179768e-01	 1.985024536674226e+00	 3.039745133300914e+00
 7.996424865837999e-01	 1.992599893353934e+00	 3.042742421573154e+00
 7.809842258426549e-01	 1.999986534868971e+00	 3.058335140417079e+00
 7.622944146716795e-01	 2.007184547478847e+00	 3.086742236622510e+00
 7.435757809640703e-01	 2.014194068067215e+00	 3.128265503362708e+00
 7.130144800681852e-01	 1.931409780980207e+00	 2.928959392520528e+00
 6.950432123525723e-01	 1.937949544745086e+00	 2.931556637617594e+00
 6.770495036445784e-01	 1.944309029523059e+00	 2.951307936191996e+00
 6.590359245652068e-01	 1.950488507423679e+00	 2.983216430730490e+00
 6.410050294055939e-01	 1.956488296771135e+00	 3.022482045853042e+00
 6.229593551559293e-01	 1.962308761470184e+00	 3.064478044462206e+00
 6.049014205584760e-01	 1.967950310349670e+00	 3.104729755113308e+00
 5.868337251852073e-01	 1.973413396484584e+00	 3.138895461884295e+00
 5.687587485405474e-01	 1.978698516497631e+00	 3.162749430840631e+00
 5.506789491896580e-01	 1.983806209841261e+00	 3.172167031015965e+00
 5.325967639126695e-01	 1.988737058061177e+00	 3.163111892735275e+00
 7.160706101572966e-01	 1.939688209689715e+00	 2.916712163108638e+00
 6.980223138066514e-01	 1.946256004257983e+00	 2.922366497310251e+00
 6.799514802767430e-01	 1.952642747125680e+00	 2.945489520638545e+00
 6.618606912068142e-01	 1.958848711568683e+00	 2.981035484468255e+00
 6.437525118362473e-01	 1.964874217275590e+00	 3.024132400911098e+00
 6.256294900293229e-01	 1.970719629710934e+00	 3.070058657849637e+00
 6.074941553241796e-01	 1.976385359455892e+00	 3.114221914212975e+00
 5.893490180064991e-01	 1.981871861527434e+00	 3.152140263826144e+00
 5.711965682083997e-01	 1.987179634676896e+00	 3.179425638458106e+00
 5.530392750329859e-01	 1.992309220668944e+00	 3.191769404032252e+00
 5.348795857049577e-01	 1.997261203541909e+00	 3.184930088420143e+00
 7.191267402465555e-01	 1.947966638398685e+00	 2.910798373689662e+00
 7.010014152608480e-01	 1.954562463770271e+00	 2.921057800611996e+00
 6.828534569090022e-01	 1.960976464727635e+00	 2.948649274987273e+00
 6.646854578484978e-01	 1.967208915712976e+00	 2.988498500834568e+00
 6.464999942669621e-01	 1.973260137779301e+00	 3.035686234917878e+00
 6.282996249027640e-01	 1.979130497950916e+00	 3.085424844574534e+00
 6.100868900899165e-01	 1.984820408561330e+00	 3.133037253457929e+00
 5.918643108278066e-01	 1.990330326569490e+00	 3.173938260767362e+00
 5.736343878762455e-01	 1.995660752855363e+00	 3.203618201297910e+00
 5.553996008762799e-01	 2.000812231495826e+00	 3.217628896484668e+00
 5.371624074971756e-01	 2.005785349021840e+00	 3.211571830613956e+00
 7.221828703359465e-01	 1.956245067107251e+00	 2.911525941941697e+00
 7.039805167151613e-01	 1.962868923282101e+00	 2.927513403267215e+00
 6.857554335413678e-01	 1.969310182329089e+00	 2.960306492704238e+00
 6.675102244902829e-01	 1.975569119856737e+00	 3.004822283044474e+00
 6.492474766977752e-01	 1.981646058282454e+00	 3.056118455459622e+00
 6.309697597763010e-01	 1.987541366190324e+00	 3.109369684840266e+00
 6.126796248557453e-01	 1.993255457666180e+00	 3.159846519453593e+00
 5.943796036492004e-01	 1.998788791610951e+00	 3.202896737919644e+00
 5.760722075441662e-01	 2.004141871033232e+00	 3.233929147721260e+00
 5.577599267196307e-01	 2.009315242322109e+00	 3.248399771797112e+00
 5.394452292894243e-01	 2.014309494501172e+00	 3.241800353295819e+00
 7.252390004254544e-01	 1.964523495815548e+00	 2.919201447855699e+00
 7.069596181695899e-01	 1.971175382793628e+00	 2.941620990090228e+00
 6.886574101738531e-01	 1.977643899930212e+00	 2.979990484009199e+00
 6.703349911321946e-01	 1.983929324000142e+00	 3.029237869521431e+00
 6.519949591287238e-01	 1.990031978785234e+00	 3.084421464836169e+00
 6.336398946499827e-01	 1.995952234429347e+00	 3.140706064818595e+00
 6.152723596217269e-01	 2.001690506770640e+00	 3.193341638882652e+00
 5.968948964707501e-01	 2.007247256652015e+00	 3.237644609029688e+00
 5.785100272122423e-01	 2.012622989210702e+00	 3.268981669302247e+00
 5.601202525631289e-01	 2.017818253147991e+00	 3.282756089737780e+00
 5.417280510818046e-01	 2.022833639980103e+00	 3.274396430956732e+00
 7.282951305150627e-01	 1.972801924523710e+00	 2.934130642288254e+00
 7.099387196241320e-01	 1.979481842305000e+00	 2.963273415694802e+00
 6.915593868064692e-01	 1.985977617531167e+00	 3.007240770654421e+00
 6.731597577742576e-01	 1.992289528143369e+00	 3.060990604442088e+00
 6.547424415598457e-01	 1.998417899287829e+00	 3.119605127917218e+00
 6.363100295238585e-01	 2.004363102668178e+00	 3.178266563177800e+00
 6.178650943879204e-01	 2.010125555874903e+00	 3.232235544865441e+00
 5.994101892925267e-01	 2.015705721692881e+00	 3.276832203518584e+00
 5.809478468805542e-01	 2.021104107387972e+00	 3.307419889465247e+00
 5.624805784068659e-01	 2.026321263973674e+00	 3.319391477033140e+00
 5.440108728744172e-01	 2.031357785458835e+00	 3.308158171414497e+00
 7.313512606047566e-01	 1.981080353231873e+00	 2.956618950986829e+00
 7.129178210787871e-01	 1.987788301816374e+00	 2.992369044451849e+00
 6.944613634392295e-01	 1.994311335132122e+00	 3.041607283150242e+00
 6.759845244164977e-01	 2.000649732286595e+00	 3.099340213413502e+00
 6.574899239911773e-01	 2.006803819790424e+00	 3.160696747289169e+00
 6.389801643979762e-01	 2.012773970907008e+00	 3.220903346536390e+00
 6.204578291543853e-01	 2.018560604979166e+00	 3.275262013363441e+00
 6.019254821146002e-01	 2.024164186733747e+00	 3.319131064269685e+00
 5.833856665491830e-01	 2.029585225565243e+00	 3.347908642870368e+00
 5.648409042509318e-01	 2.034824274799356e+00	 3.357018908329259e+00
 5.462936946673629e-01	 2.039881930937566e+00	 3.341900818082322e+00
 7.344073906945200e-01	 1.989358781940170e+00	 2.986971974219429e+00
 7.158969225335540e-01	 1.996094761327899e+00	 3.028812089697458e+00
 6.973633400721461e-01	 2.002645052733242e+00	 3.082650560365730e+00
 6.788092910589397e-01	 2.009009936430000e+00	 3.143560884133414e+00
 6.602374064227566e-01	 2.015189740293205e+00	 3.206741045480193e+00
 6.416502992723850e-01	 2.021184839146032e+00	 3.267488073582584e+00
 6.230505639211821e-01	 2.026995654083625e+00	 3.321175509333406e+00
 6.044407749370410e-01	 2.032622651774811e+00	 3.363233755754925e+00
 5.858234862182089e-01	 2.038066343742712e+00	 3.389133265233733e+00
 5.672012300954179e-01	 2.043327285625240e+00	 3.394370497199378e+00
 5.485765164607425e-01	 2.048406076416498e+00	 3.374456561415873e+00
 7.374635207843369e-01	 1.997637210648736e+00	 3.025495982136090e+00
 7.188760239884310e-01	 2.004401220839729e+00	 3.072512952213188e+00
 7.002653167052314e-01	 2.010978770334698e+00	 3.129941951435833e+00
 6.816340577016087e-01	 2.017370140573761e+00	 3.192941351888980e+00
 6.629848888546206e-01	 2.023575660796358e+00	 3.256800154058012e+00
 6.443204341471334e-01	 2.029595707385439e+00	 3.316911807607908e+00
 6.256432986883700e-01	 2.035430703188476e+00	 3.368751042349057e+00
 6.069560677599199e-01	 2.041081116816272e+00	 3.407853682199611e+00
 5.882613058877131e-01	 2.046547461920581e+00	 3.429799393279950e+00
 5.695615559404148e-01	 2.051830296451522e+00	 3.430197296906075e+00
 5.508593382546569e-01	 2.056930221895830e+00	 3.404674359272360e+00
 7.405196508741924e-01	 2.005915639357707e+00	 3.072498405985461e+00
 7.218551254434173e-01	 2.012707680352017e+00	 3.123388557999496e+00
 7.031672933384974e-01	 2.019312487936653e+00	 3.183063819908129e+00
 6.844588243445301e-01	 2.025730344718054e+00	 3.246784989754070e+00
 6.657323712868063e-01	 2.031961581300068e+00	 3.309953609402151e+00
 6.469905690222701e-01	 2.038006575625421e+00	 3.368084937212052e+00
 6.282360334560089e-01	 2.043865752293914e+00	 3.416784031417072e+00
 6.094713605833069e-01	 2.049539581858328e+00	 3.451724915495604e+00
 5.906991255577758e-01	 2.055028580099048e+00	 3.468632774534025e+00
 5.719218817860132e-01	 2.060333307278405e+00	 3.463269110636290e+00
 5.531421600492071e-01	 2.065454367375761e+00	 3.431419765924262e+00
 7.435757809640703e-01	 2.014194068067215e+00	 3.128265503362708e+00
 7.248342268985118e-01	 2.021014139864915e+00	 3.181362695362726e+00
 7.060692699719573e-01	 2.027646205539275e+00	 3.241609750064976e+00
 6.872835909877293e-01	 2.034090548863059e+00	 3.304409903350146e+00
 6.684798537193514e-01	 2.040347501804524e+00	 3.365298354958248e+00
 6.496607038978447e-01	 2.046417443866173e+00	 3.419937104943733e+00
 6.308287682241586e-01	 2.052300801400137e+00	 3.464090178722648e+00
 6.119866534072722e-01	 2.057998046901178e+00	 3.493602032582566e+00
 5.931369452284784e-01	 2.063509698278315e+00	 3.504379086669656e+00
 5.742822076323040e-01	 2.068836318106088e+00	 3.492374310936714e+00
 5.554249818444938e-01	 2.073978512856493e+00	 3.453574769478799e+00
 5.325967639126695e-01	 1.988737058061177e+00	 3.163111892735275e+00
 5.145146071319613e-01	 1.993491684474228e+00	 3.137462412886560e+00
 4.964348708365260e-01	 1.998070754689647e+00	 3.102802163615227e+00
 4.783599230357983e-01	 2.002474974518841e+00	 3.063716828147396e+00
 4.602921067687459e-01	 2.006705088739458e+00	 3.024786680450519e+00
 4.422337393928928e-01	 2.010761880278762e+00	 2.990573317258635e+00
 4.241871119009684e-01	 2.014646169384433e+00	 2.965608104161625e+00
 4.061544882653080e-01	 2.018358812783806e+00	 2.954382214633164e+00
 3.881381048101060e-01	 2.021900702832483e+00	 2.961338135023333e+00
 3.701401696115776e-01	 2.025272766653326e+00	 2.990862299137385e+00
 3.521628619260533e-01	 2.028475965266763e+00	 3.045707190224406e+00
 5.348795857049577e-01	 1.997261203541909e+00	 3.184930088420143e+00
 5.167199249954286e-01	 2.002036209284311e+00	 3.160938870095110e+00
 4.985626951459570e-01	 2.006634906358315e+00	 3.127663495776590e+00
 4.804102743157581e-01	 2.011058003600574e+00	 3.089665040066075e+00
 4.622650155865514e-01	 2.015306248981001e+00	 3.051497799867652e+00
 4.441292462485375e-01	 2.019380428782637e+00	 3.017696294228848e+00
 4.260052671141157e-01	 2.023281366768909e+00	 2.992764032162493e+00
 4.078953518594782e-01	 2.027009923339256e+00	 2.981163922147934e+00
 3.898017463941693e-01	 2.030566994674091e+00	 2.987310191023963e+00
 3.717266682586777e-01	 2.033953511870113e+00	 3.015561675293117e+00
 3.536723060500792e-01	 2.037170440066873e+00	 3.068979701534408e+00
 5.371624074971756e-01	 2.005785349021840e+00	 3.211571830613956e+00
 5.189252428587804e-01	 2.010580734093594e+00	 3.187788956305265e+00
 5.006905194552195e-01	 2.015199058026183e+00	 3.154554269369198e+00
 4.824606255954924e-01	 2.019641032681508e+00	 3.116400598806404e+00
 4.642379244040731e-01	 2.023907409221744e+00	 3.077852053430266e+00
 4.460247531038409e-01	 2.027998977285713e+00	 3.043411316961947e+00
 4.278234223268686e-01	 2.031916564152587e+00	 3.017548766751650e+00
 4.096362154532071e-01	 2.035661033893906e+00	 3.004693284481310e+00
 3.914653879777533e-01	 2.039233286514900e+00	 3.009224621077195e+00
 3.733131669052723e-01	 2.042634257086099e+00	 3.035467173267458e+00
 3.551817501735882e-01	 2.045864914866183e+00	 3.086736453693773e+00
 5.394452292894243e-01	 2.014309494501172e+00	 3.241800353295819e+00
 5.211305607221273e-01	 2.019125258902276e+00	 3.216911556397450e+00
 5.028183437644348e-01	 2.023763209693450e+00	 3.182506184663344e+00
 4.845109768751313e-01	 2.028224061761840e+00	 3.143085198598754e+00
 4.662108332214490e-01	 2.032508569461885e+00	 3.103138313796100e+00
 4.479202599589476e-01	 2.036617525788188e+00	 3.067131619068506e+00
 4.296415775393765e-01	 2.040551761535664e+00	 3.039497075617373e+00
 4.113770790466473e-01	 2.044312144447956e+00	 3.024623760075880e+00
 3.931290295610125e-01	 2.047899578355109e+00	 3.026850708000224e+00
 3.748996655515152e-01	 2.051315002301485e+00	 3.050461209484345e+00
 3.566911942967296e-01	 2.054559389664892e+00	 3.098971695167743e+00
 5.417280510818046e-01	 2.022833639980103e+00	 3.274396430956732e+00
 5.233358785855803e-01	 2.027669783710558e+00	 3.247220457023603e+00
 5.049461680737224e-01	 2.032327361360318e+00	 3.210563318645987e+00
 4.865613281548043e-01	 2.036807090841774e+00	 3.168890497500086e+00
 4.681837420388162e-01	 2.041109729701628e+00	 3.126653114991004e+00
 4.498157668140020e-01	 2.045236074290263e+00	 3.088275901561795e+00
 4.314597327517893e-01	 2.049186958918340e+00	 3.058147106241619e+00
 4.131179426399521e-01	 2.052963255001604e+00	 3.040610203588408e+00
 3.947926711441010e-01	 2.056565870194917e+00	 3.039957248765639e+00
 3.764861641975592e-01	 2.059995747516472e+00	 3.060423726492047e+00
 3.582006384196533e-01	 2.063253864463201e+00	 3.105676422203625e+00
 5.440108728744172e-01	 2.031357785458835e+00	 3.308158171414497e+00
 5.255411964492500e-01	 2.036214308518641e+00	 3.277644171234507e+00
 5.070739923832034e-01	 2.040891513026985e+00	 3.237781980651881e+00
 4.886116794346402e-01	 2.045390119921506e+00	 3.192998003246045e+00
 4.701566508563123e-01	 2.049710889941169e+00	 3.147700567724160e+00
 4.517112736691485e-01	 2.053854622792138e+00	 3.106268276902597e+00
 4.332778879642563e-01	 2.057822156300817e+00	 3.073040357964426e+00
 4.148588062332750e-01	 2.061614365555055e+00	 3.052308865286661e+00
 3.964563127271736e-01	 2.065232162034525e+00	 3.048312580565695e+00
 3.780726628435581e-01	 2.068676492731258e+00	 3.065232449862143e+00
 3.597100825425086e-01	 2.071948339261310e+00	 3.106838360946949e+00
 5.462936946673629e-01	 2.039881930937566e+00	 3.341900818082322e+00
 5.277465143132475e-01	 2.044758833326723e+00	 3.307125771439981e+00
 5.092018166929980e-01	 2.049455664693653e+00	 3.263230575240903e+00
 4.906620307147689e-01	 2.053973149001240e+00	 3.214598965296191e+00
 4.721295596740751e-01	 2.058312050180712e+00	 3.165592279876509e+00
 4.536067805245315e-01	 2.062473171294014e+00	 3.120538217229512e+00
 4.350960431769275e-01	 2.066457353683294e+00	 3.083721657277864e+00
 4.165996698267688e-01	 2.070265476108505e+00	 3.059377392751019e+00
 3.981199543103845e-01	 2.073898453874133e+00	 3.051684608286840e+00
 3.796591614896646e-01	 2.077357237946044e+00	 3.064762940823184e+00
 3.612195266654453e-01	 2.080642814059420e+00	 3.102441949266705e+00
 5.485765164607425e-01	 2.048406076416498e+00	 3.374456561415873e+00
 5.299518321776832e-01	 2.053303358135004e+00	 3.334622730459149e+00
 5.113296410032266e-01	 2.058019816360521e+00	 3.285989472110556e+00
 4.927123819953200e-01	 2.062556178081173e+00	 3.232894272892086e+00
 4.741024684922417e-01	 2.066913210420454e+00	 3.179647282011508e+00
 4.555022873802952e-01	 2.071091719796089e+00	 3.130520506652845e+00
 4.369141983899525e-01	 2.075092551065971e+00	 3.089739136255520e+00
 4.183405334205864e-01	 2.078916586662154e+00	 3.061474834813501e+00
 3.997835958938883e-01	 2.082564745713942e+00	 3.049840833353344e+00
 3.812456601360327e-01	 2.086037983161031e+00	 3.058888649423729e+00
 3.627289707886124e-01	 2.089337288857729e+00	 3.092468318298279e+00
 5.508593382546569e-01	 2.056930221895830e+00	 3.404674359272360e+00
 5.321571500426681e-01	 2.061847882943687e+00	 3.359106770426255e+00
 5.134574653140097e-01	 2.066583968027788e+00	 3.305150882839458e+00
 4.947627332764225e-01	 2.071139207161506e+00	 3.247094358953690e+00
 4.760753773109500e-01	 2.075514370660596e+00	 3.189191957762845e+00
 4.573977942365843e-01	 2.079710268298565e+00	 3.135655197494229e+00
 4.387323536034809e-01	 2.083727748449047e+00	 3.090644214026562e+00
 4.200813970148811e-01	 2.087567697216204e+00	 3.058261647669654e+00
 4.014472374778394e-01	 2.091231037554150e+00	 3.042548383900327e+00
 3.828321587828153e-01	 2.094718728376416e+00	 3.047480968209677e+00
 3.642384149121597e-01	 2.098031763656439e+00	 3.076895273712172e+00
 5.531421600492071e-01	 2.065454367375761e+00	 3.431419765924262e+00
 5.343624679083131e-01	 2.070392407752969e+00	 3.379563719324936e+00
 5.155852896254677e-01	 2.075148119695656e+00	 3.319818744264645e+00
 4.968130845582062e-01	 2.079722236242439e+00	 3.256419109645465e+00
 4.780482861303374e-01	 2.084115530901338e+00	 3.193559978957877e+00
 4.592933010935429e-01	 2.088328816801641e+00	 3.135387570357939e+00
 4.405505088176623e-01	 2.092362945832725e+00	 3.085991581206278e+00
 4.218222606098063e-01	 2.096218807770854e+00	 3.049399703100137e+00
 4.031108790623920e-01	 2.099897329394959e+00	 3.029574046237882e+00
 3.844186574301659e-01	 2.103399473592404e+00	 3.030409286400811e+00
 3.657478590362367e-01	 2.106726238455749e+00	 3.055697276716474e+00
 5.554249818444938e-01	 2.073978512856493e+00	 3.453574769478799e+00
 5.365677857747290e-01	 2.078936932563052e+00	 3.394993374931511e+00
 5.177131139377212e-01	 2.083712271364324e+00	 3.329108608301606e+00
 4.988634358408005e-01	 2.088305265324173e+00	 3.260097779449070e+00
 4.800211949505416e-01	 2.092716691142881e+00	 3.192092245340862e+00
 4.611888079513155e-01	 2.096947365305516e+00	 3.129168097923722e+00
 4.423686640326468e-01	 2.100998143217203e+00	 3.075339187198308e+00
 4.235631242055150e-01	 2.104869918326305e+00	 3.034552298741719e+00
 4.047745206477009e-01	 2.108563621236568e+00	 3.010684297568955e+00
 3.860051560782379e-01	 2.112080218809191e+00	 3.007541044552319e+00
 3.672573031609927e-01	 2.115420713255858e+00	 3.028845424800739e+00
 3.521628619260533e-01	 2.028475965266763e+00	 3.045707190224406e+00
 3.342052820390940e-01	 2.031511794282461e+00	 3.113201118106341e+00
 3.162726130965756e-01	 2.034380720240966e+00	 3.178728490735025e+00
 2.983669504141310e-01	 2.037083799624414e+00	 3.239674727361339e+00
 2.804903583591603e-01	 2.039622119309464e+00	 3.293359277977250e+00
 2.626448699171351e-01	 2.041996795666766e+00	 3.337056044637320e+00
 2.448324862854198e-01	 2.044208973657273e+00	 3.368011137575589e+00
 2.270551764944082e-01	 2.046259825926268e+00	 3.383458217525441e+00
 2.093148770557514e-01	 2.048150551895931e+00	 3.380631672561106e+00
 1.916134916374246e-01	 2.049882376857315e+00	 3.356777873192874e+00
 1.739528907653514e-01	 2.051456551062507e+00	 3.309164743485399e+00
 3.536723060500792e-01	 2.037170440066873e+00	 3.068979701534408e+00
 3.356377561975625e-01	 2.040219281284530e+00	 3.134709534835220e+00
 3.176282240630479e-01	 2.043100504063327e+00	 3.198042183054778e+00
 2.996458139431216e-01	 2.045815169413713e+00	 3.256509583403468e+00
 2.816925990534858e-01	 2.048364368870937e+00	 3.307592315443207e+00
 2.637706210934058e-01	 2.050749223590655e+00	 3.348738858923842e+00
 2.458818898377882e-01	 2.052970883441376e+00	 3.377382142242872e+00
 2.280283827566957e-01	 2.055030526094590e+00	 3.390953642570960e+00
 2.102120446620659e-01	 2.056929356113464e+00	 3.386895295327539e+00
 1.924347873813856e-01	 2.058668604040913e+00	 3.362669465796734e+00
 1.746984894580363e-01	 2.060249525487874e+00	 3.315767229367645e+00
 3.551817501735882e-01	 2.045864914866183e+00	 3.086736453693773e+00
 3.370702303555186e-01	 2.048926768285800e+00	 3.150113641475557e+00
 3.189838350290257e-01	 2.051820287884890e+00	 3.210823701810101e+00
 3.009246774716443e-01	 2.054546539202218e+00	 3.266537062851951e+00
 2.828948397473759e-01	 2.057106618431624e+00	 3.314886657083304e+00
 2.648963722692748e-01	 2.059501651513772e+00	 3.353486013214313e+00
 2.469312933897871e-01	 2.061732793224723e+00	 3.379944594470462e+00
 2.290015890186401e-01	 2.063801226262182e+00	 3.391880654106884e+00
 2.111092122680545e-01	 2.065708160330302e+00	 3.386931875355462e+00
 1.932560831250248e-01	 2.067454831223859e+00	 3.362764057801342e+00
 1.754440881503875e-01	 2.069042499912646e+00	 3.317078105528347e+00
 3.566911942967296e-01	 2.054559389664892e+00	 3.098971695167742e+00
 3.385027045131052e-01	 2.057634255286469e+00	 3.159501703976717e+00
 3.203394459946425e-01	 2.060540071705855e+00	 3.217235860056477e+00
 3.022035409998227e-01	 2.063277908990127e+00	 3.269975426232369e+00
 2.840970804409434e-01	 2.065848867991720e+00	 3.315497299361040e+00
 2.660221234448452e-01	 2.068254079436308e+00	 3.351570932556216e+00
 2.479806969415102e-01	 2.070494703007503e+00	 3.375972459496864e+00
 2.299747952803279e-01	 2.072571926429228e+00	 3.386496301621846e+00
 2.120063798737988e-01	 2.074486964546619e+00	 3.380964535098609e+00
 1.940773788684229e-01	 2.076241058406318e+00	 3.357234288921884e+00
 1.761896868424884e-01	 2.077835474336970e+00	 3.313203438481171e+00
 3.582006384196533e-01	 2.063253864463201e+00	 3.105676422203625e+00
 3.399351786704651e-01	 2.066341742286739e+00	 3.162957732565302e+00
 3.216950569600325e-01	 2.069259855526419e+00	 3.217436458131342e+00
 3.034824045277811e-01	 2.072009278777640e+00	 3.267037410519265e+00
 2.852993211343018e-01	 2.074591117551423e+00	 3.309673450134691e+00
 2.671478746202196e-01	 2.077006507358456e+00	 3.343261233688695e+00
 2.490301004930512e-01	 2.079256612789907e+00	 3.365734119419648e+00
 2.309480015418452e-01	 2.081342626595910e+00	 3.375052520959989e+00
 2.129035474793806e-01	 2.083265768762590e+00	 3.369211996581657e+00
 1.948986746116602e-01	 2.085027285588452e+00	 3.346249354691958e+00
 1.769352855344224e-01	 2.086628448760998e+00	 3.304247049066785e+00
 3.597100825425086e-01	 2.071948339261310e+00	 3.106838360946950e+00
 3.413676528277411e-01	 2.075049229286808e+00	 3.160561497945692e+00
 3.230506679253299e-01	 2.077979639346785e+00	 3.211578327268015e+00
 3.047612680556432e-01	 2.080740648564952e+00	 3.257930293588069e+00
 2.865015618275644e-01	 2.083333367110929e+00	 3.297658607471701e+00
 2.682736257955012e-01	 2.085758935280411e+00	 3.328818811846858e+00
 2.500795040445034e-01	 2.088018522572120e+00	 3.349492461723866e+00
 2.319212078032784e-01	 2.090113326762409e+00	 3.357796218417924e+00
 2.138007150848811e-01	 2.092044572978385e+00	 3.351888655023028e+00
 1.957199703548173e-01	 2.093813512770423e+00	 3.329975063685744e+00
 1.776808842262729e-01	 2.095421423184876e+00	 3.290310547466451e+00
 3.612195266654453e-01	 2.080642814059420e+00	 3.102441949266705e+00
 3.428001269850763e-01	 2.083756716286878e+00	 3.152388546466569e+00
 3.244062788906685e-01	 2.086699423167150e+00	 3.199809371587976e+00
 3.060401315835329e-01	 2.089472018352266e+00	 3.242855956611788e+00
 2.877038025208442e-01	 2.092075616670436e+00	 3.279690636125779e+00
 2.693993769707930e-01	 2.094511363202366e+00	 3.308499925096916e+00
 2.511289075959609e-01	 2.096780432354334e+00	 3.327504965357485e+00
 2.328944140647136e-01	 2.098884026928908e+00	 3.334969352550467e+00
 2.146978826903825e-01	 2.100823377194181e+00	 3.329204650471940e+00
 1.965412660979743e-01	 2.102599739952393e+00	 3.308573893201089e+00
 1.784264829181235e-01	 2.104214397608754e+00	 3.271493367262383e+00
 3.627289707886124e-01	 2.089337288857729e+00	 3.092468318298279e+00
 3.442326011426131e-01	 2.092464203287147e+00	 3.138510214283467e+00
 3.257618898561826e-01	 2.095419206987716e+00	 3.182272608518765e+00
 3.073189951115741e-01	 2.098203388139777e+00	 3.222010944461996e+00
 2.889060432142544e-01	 2.100817866230138e+00	 3.256001841744901e+00
 2.705251281461976e-01	 2.103263791124514e+00	 3.282555276274174e+00
 2.521783111475171e-01	 2.105542342136737e+00	 3.300023784425152e+00
 2.338676203262373e-01	 2.107654727095588e+00	 3.306809013751800e+00
 2.155950502959660e-01	 2.109602181410150e+00	 3.301365937517472e+00
 1.973625618412119e-01	 2.111385967134527e+00	 3.282205043448483e+00
 1.791720816100575e-01	 2.113007372032781e+00	 3.247892798572765e+00
 3.642384149121597e-01	 2.098031763656439e+00	 3.076895273712172e+00
 3.456650753004947e-01	 2.101171690287817e+00	 3.118993640546557e+00
 3.271175008220060e-01	 2.104138990808680e+00	 3.159106207683163e+00
 3.085978586398906e-01	 2.106934757927686e+00	 3.195586524172342e+00
 2.901082839079087e-01	 2.109560115790234e+00	 3.226819042875965e+00
 2.716508793218180e-01	 2.112016219047050e+00	 3.251230092593389e+00
 2.532277146992657e-01	 2.114304251919518e+00	 3.267295829569449e+00
 2.348408265879358e-01	 2.116425427262635e+00	 3.273547501676737e+00
 2.164922179017134e-01	 2.118380985626467e+00	 3.268574353125568e+00
 1.981838575846104e-01	 2.120172194316987e+00	 3.251024490289078e+00
 1.799176803021584e-01	 2.121800346457106e+00	 3.219604020288104e+00
 3.657478590362367e-01	 2.106726238455749e+00	 3.055697276716474e+00
 3.470975494588637e-01	 2.109879177289086e+00	 3.093901779641742e+00
 3.284731117882728e-01	 2.112858774630243e+00	 3.130443528303848e+00
 3.098767221686065e-01	 2.115666127716192e+00	 3.163768741520343e+00
 2.913105246019199e-01	 2.118302365350920e+00	 3.192363640829817e+00
 2.727766304977570e-01	 2.120768646970166e+00	 3.214764202998710e+00
 2.542771182513003e-01	 2.123066161702865e+00	 3.229562847106419e+00
 2.358140328498953e-01	 2.125196127430227e+00	 3.235412400564367e+00
 2.173893855077065e-01	 2.127159789843305e+00	 3.231027682658120e+00
 1.990051533282502e-01	 2.128958421499934e+00	 3.215185036563869e+00
 1.806632789945095e-01	 2.130593320881877e+00	 3.186720131435031e+00
 3.672573031609927e-01	 2.115420713255858e+00	 3.028845424800739e+00
 3.485300236178633e-01	 2.118586664291156e+00	 3.063293412512388e+00
 3.298287227551172e-01	 2.121578558452605e+00	 3.096413155166111e+00
 3.111555856978455e-01	 2.124397497505492e+00	 3.126738475781654e+00
 2.925127652964016e-01	 2.127044614912394e+00	 3.152851687468134e+00
 2.739023816741177e-01	 2.129521074894057e+00	 3.173392113318243e+00
 2.553265218037148e-01	 2.131828071486968e+00	 3.187061495979988e+00
 2.367872391122023e-01	 2.133966827598550e+00	 3.192626652524475e+00
 2.182865531140267e-01	 2.135938594060838e+00	 3.188919724126335e+00
 1.998264490722119e-01	 2.137744648683531e+00	 3.174836362054397e+00
 1.814088776871944e-01	 2.139386295307245e+00	 3.149332181692563e+00
 1.739528907653514e-01	 2.051456551062507e+00	 3.309164743485399e+00
 1.563378956469499e-01	 2.052874120972599e+00	 3.244692096569416e+00
 1.387672691588538e-01	 2.054136664002496e+00	 3.175469384748099e+00
 1.212427399094186e-01	 2.055245498769098e+00	 3.106636471790523e+00
 1.037660035474255e-01	 2.056201965204191e+00	 3.043336942652823e+00
 8.633872258613057e-02	 2.057007423672388e+00	 2.990713309139056e+00
 6.896252625088575e-02	 2.057663254093237e+00	 2.953902072238002e+00
 5.163901034994151e-02	 2.058170855068159e+00	 2.938028813601162e+00
 3.436973716802243e-02	 2.058531643012857e+00	 2.948203475345077e+00
 1.715623538225374e-02	 2.058747051295792e+00	 2.989515973798262e+00
 0.000000000000000e+00	 2.058818529383334e+00	 3.067032278930122e+00
 1.746984894580363e-01	 2.060249525487874e+00	 3.315767229367645e+00
 1.570079927641405e-01	 2.061673171400800e+00	 3.253658132734011e+00
 1.393620548737723e-01	 2.062941125955724e+00	 3.188335609158930e+00
 1.217624118044821e-01	 2.064054713421412e+00	 3.124135358723772e+00
 1.042107664729743e-01	 2.065015279472879e+00	 3.065393453949893e+00
 8.670878851840166e-02	 2.065824190305541e+00	 3.016441698351650e+00
 6.925811414933408e-02	 2.066482831753568e+00	 2.981602849271597e+00
 5.186034601400691e-02	 2.066992608413080e+00	 2.965185881909013e+00
 3.451705309344057e-02	 2.067354942770832e+00	 2.971481457766794e+00
 1.722977061700658e-02	 2.067571274338999e+00	 3.004757746770776e+00
 0.000000000000000e+00	 2.067643058796667e+00	 3.069256738020944e+00
 1.754440881503875e-01	 2.069042499912646e+00	 3.317078105528347e+00
 1.576780898809675e-01	 2.070472221828471e+00	 3.257767739991277e+00
 1.399568405882869e-01	 2.071745587908495e+00	 3.196600087984141e+00
 1.222820836991007e-01	 2.072863928073350e+00	 3.137146559373784e+00
 1.046555293980451e-01	 2.073828593741268e+00	 3.082977012241131e+00
 8.707885445017917e-02	 2.074640956938473e+00	 3.037655153283504e+00
 6.955370204729965e-02	 2.075302409413749e+00	 3.004733811547686e+00
 5.208168167763563e-02	 2.075814361757912e+00	 2.987750267079984e+00
 3.466436901851208e-02	 2.076178242528764e+00	 2.990221801973679e+00
 1.730330585155552e-02	 2.076395497382195e+00	 3.015641626899728e+00
 0.000000000000000e+00	 2.076467588210001e+00	 3.067475321485390e+00
 1.761896868424884e-01	 2.077835474336970e+00	 3.313203438481171e+00
 1.583481869975218e-01	 2.079271272255743e+00	 3.257066968098102e+00
 1.405516263024989e-01	 2.080550049860926e+00	 3.200277504488869e+00
 1.228017555933855e-01	 2.081673142725004e+00	 3.145681711689785e+00
 1.051002923227574e-01	 2.082641908009435e+00	 3.096124189809186e+00
 8.744892038158651e-02	 2.083457723571238e+00	 3.054442805982585e+00
 6.984928994490312e-02	 2.084121987073818e+00	 3.023463909177175e+00
 5.230301734093679e-02	 2.084636115102677e+00	 3.005997615337219e+00
 3.481168494332357e-02	 2.085001542286665e+00	 3.004833334821209e+00
 1.737684108595153e-02	 2.085219720425383e+00	 3.022735699247459e+00
 0.000000000000000e+00	 2.085292117623334e+00	 3.062441029701785e+00
 1.769352855344224e-01	 2.086628448760998e+00	 3.304247049066785e+00
 1.590182841138943e-01	 2.088070322682753e+00	 3.251600687288460e+00
 1.411464120165089e-01	 2.089354511813128e+00	 3.199381930951900e+00
 1.233214274874479e-01	 2.090482357376469e+00	 3.149751926239907e+00
 1.055450552472308e-01	 2.091455222277454e+00	 3.104870643090354e+00
 8.781898631274709e-02	 2.092274490203895e+00	 3.066892025133228e+00
 7.014487784226525e-02	 2.092941564733812e+00	 3.037959035493365e+00
 5.252435300401959e-02	 2.093457868447397e+00	 3.020198790087813e+00
 3.495900086796176e-02	 2.093824842044545e+00	 3.015717955055255e+00
 1.745037632024558e-02	 2.094043943468565e+00	 3.026598569665279e+00
 0.000000000000000e+00	 2.094116647036667e+00	 3.054894440434920e+00
 1.776808842262729e-01	 2.095421423184876e+00	 3.290310547466451e+00
 1.596883812301760e-01	 2.096869373109628e+00	 3.241412603233431e+00
 1.417411977304180e-01	 2.098158973765217e+00	 3.193926833494712e+00
 1.238410993813990e-01	 2.099291572027842e+00	 3.149367790669044e+00
 1.059898181715847e-01	 2.100268536545396e+00	 3.109251126354331e+00
 8.818905224378430e-02	 2.101091256836494e+00	 3.075088448379999e+00
 7.044046573950664e-02	 2.101761142393767e+00	 3.048382087267691e+00
 5.274568866699318e-02	 2.102279621792094e+00	 3.030619969099912e+00
 3.510631679251330e-02	 2.102648141802415e+00	 3.023270776338271e+00
 1.752391155448866e-02	 2.102868166511744e+00	 3.027779562371436e+00
 0.000000000000000e+00	 2.102941176450000e+00	 3.045563969480015e+00
 1.784264829181235e-01	 2.104214397608754e+00	 3.271493367262383e+00
 1.603584783464577e-01	 2.105668423536505e+00	 3.226545271573956e+00
 1.423359834443270e-01	 2.106963435717304e+00	 3.183925076755075e+00
 1.243607712753501e-01	 2.108100786679214e+00	 3.144539374023938e+00
 1.064345810959385e-01	 2.109081850813341e+00	 3.109299505029352e+00
 8.855911817482148e-02	 2.109908023469094e+00	 3.079116013835742e+00
 7.073605363674806e-02	 2.110580720053723e+00	 3.054893023413938e+00
 5.296702432996681e-02	 2.111101375136791e+00	 3.037522739243310e+00
 3.525363271706484e-02	 2.111471441560285e+00	 3.027880266689857e+00
 1.759744678873173e-02	 2.111692389554924e+00	 3.026818912575433e+00
 0.000000000000000e+00	 2.111765705863333e+00	 3.035166124771620e+00
 1.791720816100575e-01	 2.113007372032781e+00	 3.247892798572765e+00
 1.610285754628302e-01	 2.114467473963513e+00	 3.207040112038737e+00
 1.429307691583371e-01	 2.115767897669508e+00	 3.169388928409851e+00
 1.248804431694124e-01	 2.116910001330680e+00	 3.135276230949340e+00
 1.068793440204119e-01	 2.117895165081359e+00	 3.105048768683123e+00
 8.892918410598209e-02	 2.118724790101751e+00	 3.079056990797573e+00
 7.103164153411014e-02	 2.119400297713716e+00	 3.057648922224987e+00
 5.318835999304961e-02	 2.119923128481511e+00	 3.041164188864452e+00
 3.540094864170301e-02	 2.120294741318164e+00	 3.029928384446151e+00
 1.767098202302579e-02	 2.120516612598105e+00	 3.024247954293102e+00
 0.000000000000000e+00	 2.120590235276666e+00	 3.024405754147840e+00
 1.799176803021584e-01	 2.121800346457106e+00	 3.219604020288104e+00
 1.616986725793845e-01	 2.123266524390786e+00	 3.182937422159324e+00
 1.435255548725490e-01	 2.124572359621937e+00	 3.150330063551182e+00
 1.254001150636973e-01	 2.125719215982335e+00	 3.121587405759050e+00
 1.073241069451242e-01	 2.126708479349526e+00	 3.096531043669473e+00
 8.929925003738945e-02	 2.127541556734517e+00	 3.074992009693776e+00
 7.132722943171366e-02	 2.128219875373785e+00	 3.056804037184618e+00
 5.340969565635077e-02	 2.128744881826276e+00	 3.041796997864554e+00
 3.554826456651451e-02	 2.129118041076065e+00	 3.029790710839000e+00
 1.774451725742180e-02	 2.129340835641293e+00	 3.020589303491853e+00
 0.000000000000000e+00	 2.129414764689999e+00	 3.013976286953992e+00
 1.806632789945095e-01	 2.130593320881877e+00	 3.186720131435031e+00
 1.623687696962115e-01	 2.132065574818457e+00	 3.154276390594041e+00
 1.441203405870637e-01	 2.133376821574709e+00	 3.126759568920541e+00
 1.259197869583158e-01	 2.134528430634272e+00	 3.103481436385294e+00
 1.077688698701950e-01	 2.135521793617915e+00	 3.083777605450445e+00
 8.966931596916697e-02	 2.136358323367449e+00	 3.067000091283804e+00
 7.162281732967921e-02	 2.137039453033965e+00	 3.052509851395562e+00
 5.363103131997948e-02	 2.137566635171108e+00	 3.039669525547122e+00
 3.569558049158602e-02	 2.137941340833998e+00	 3.027836579292562e+00
 1.781805249197074e-02	 2.138165058684489e+00	 3.016357036701088e+00
 0.000000000000000e+00	 2.138239294103332e+00	 3.004559969663534e+00
 1.814088776871944e-01	 2.139386295307245e+00	 3.149332181692563e+00
 1.630388668134021e-01	 2.140864625246658e+00	 3.121095110072006e+00
 1.447151263019822e-01	 2.142181283527937e+00	 3.098687947004517e+00
 1.264394588533794e-01	 2.143337645286587e+00	 3.080966358210188e+00
 1.082136327957438e-01	 2.144335107886604e+00	 3.066818890603070e+00
 9.003938190143806e-02	 2.145175090000602e+00	 3.055158675132976e+00
 7.191840522812755e-02	 2.145859030694298e+00	 3.044915130663627e+00
 5.385236698404491e-02	 2.146388388516030e+00	 3.035025896299092e+00
 3.584289641700417e-02	 2.146764640591973e+00	 3.024429201531796e+00
 1.789158772672358e-02	 2.146989281727696e+00	 3.012056865218151e+00
 0.000000000000000e+00	 2.147063823516666e+00	 2.996828095688544e+00
 2.147063823516666e+00	 0.000000000000000e+00	 1.114243111517164e+01
 2.146989281727697e+00	 1.789158772672240e-02	 5.545674045612571e+00
 2.146764640591973e+00	 3.584289641700315e-02	 5.585953875586309e-01
 2.146388388516029e+00	 5.385236698404408e-02	-3.746986074186381e+00
 2.145859030694298e+00	 7.191840522812687e-02	-7.298933793244026e+00
 2.145175090000602e+00	 9.003938190143755e-02	-1.002488253873433e+01
 2.144335107886603e+00	 1.082136327957435e-01	-1.185233223359045e+01
 2.143337645286588e+00	 1.264394588533793e-01	-1.270874634294247e+01
 2.142181283527938e+00	 1.447151263019822e-01	-1.252165460775110e+01
 2.140864625246658e+00	 1.630388668134023e-01	-1.121875993311914e+01
 2.139386295307245e+00	 1.814088776871945e-01	-8.728049259494471e+00
 2.155886852925016e+00	 0.000000000000000e+00	 1.648557205519731e+01
 2.155812004818010e+00	 1.796511046209789e-02	 9.547194944705703e+00
 2.155586440554033e+00	 3.599018730187193e-02	 3.463518672533805e+00
 2.155208642327952e+00	 5.407366502569269e-02	-1.720686292290479e+00
 2.154677109191528e+00	 7.221394288271948e-02	-5.960970191010714e+00
 2.153990357948555e+00	 9.040938492999101e-02	-9.213275015036945e+00
 2.153146924057020e+00	 1.086583201204628e-01	-1.143400885847631e+01
 2.152145362537581e+00	 1.269590424144494e-01	-1.258012334341863e+01
 2.150984248887804e+00	 1.453098109149132e-01	-1.260919388710256e+01
 2.149662180001442e+00	 1.637088500270273e-01	-1.147950259712484e+01
 2.148177775092080e+00	 1.821543496424223e-01	-9.150123602695656e+00
 2.164709882333466e+00	 0.000000000000000e+00	 2.076835692088826e+01
 2.164634727908435e+00	 1.803863319767585e-02	 1.274609408362744e+01
 2.164408240516233e+00	 3.613747818708211e-02	 5.784861927478569e+00
 2.164028896140064e+00	 5.429496306776715e-02	-9.386247378701018e-02
 2.163495187689004e+00	 7.250948053777691e-02	-4.869484872639747e+00
 2.162805625896828e+00	 9.077938795901222e-02	-8.522349865117516e+00
 2.161958740227829e+00	 1.091030074456263e-01	-1.103379893533018e+01
 2.160953079789044e+00	 1.274786259759229e-01	-1.238623025805418e+01
 2.159787214248219e+00	 1.459044955281991e-01	-1.256316000169942e+01
 2.158459734756845e+00	 1.643788332409613e-01	-1.154928489346270e+01
 2.156969254877593e+00	 1.828998215979255e-01	-9.330545833079462e+00
 2.173532911742116e+00	 0.000000000000000e+00	 2.403839126587999e+01
 2.173457450999069e+00	 1.811215593340394e-02	 1.518113785648360e+01
 2.173230040478665e+00	 3.628476907254193e-02	 7.552993512774961e+00
 2.172849149952441e+00	 5.451626111014748e-02	 1.155848637738385e+00
 2.172313266186794e+00	 7.280501819316076e-02	-4.009775745785133e+00
 2.171620893845463e+00	 9.114939098835227e-02	-7.944771988024469e+00
 2.170770556399055e+00	 1.095476947710806e-01	-1.065149070878624e+01
 2.169760797040980e+00	 1.279982095376466e-01	-1.213378629872343e+01
 2.168590179609160e+00	 1.464991801416903e-01	-1.239706273999614e+01
 2.167257289512821e+00	 1.650488164550589e-01	-1.144831948268978e+01
 2.165760734663721e+00	 1.836452935535623e-01	-9.296197140412147e+00
 2.182355941151066e+00	 0.000000000000000e+00	 2.634253930185466e+01
 2.182280174090007e+00	 1.818567866922985e-02	 1.689048496021077e+01
 2.182051840441417e+00	 3.643205995815960e-02	 8.797801408934010e+00
 2.181669403765162e+00	 5.473755915271377e-02	 2.050451712487794e+00
 2.181131344684955e+00	 7.310055584873260e-02	-3.367382219856226e+00
 2.180436161794501e+00	 9.151939401786215e-02	-7.473334584657072e+00
 2.179582372570720e+00	 1.099923820966725e-01	-1.028689057551031e+01
 2.178568514293389e+00	 1.285177930994679e-01	-1.182942088572548e+01
 2.177393144970602e+00	 1.470938647552370e-01	-1.212421550862658e+01
 2.176054844269327e+00	 1.657187996691748e-01	-1.119651654527193e+01
 2.174552214450399e+00	 1.843907655091912e-01	-9.073549758610628e+00
 2.191178970560415e+00	 0.000000000000000e+00	 2.772693882401132e+01
 2.191102897181349e+00	 1.825920140510125e-02	 1.791169853840310e+01
 2.190873640404581e+00	 3.657935084384342e-02	 9.548702724158378e+00
 2.190489657578304e+00	 5.495885719534612e-02	 2.611599835271255e+00
 2.189949423183549e+00	 7.339609350435398e-02	-2.928080598524132e+00
 2.189251429743987e+00	 9.188939704739298e-02	-7.100956846528858e+00
 2.188394188742844e+00	 1.104370694222489e-01	-9.939822988732692e+00
 2.187376231546269e+00	 1.290373766612339e-01	-1.147967570440931e+01
 2.186196110332526e+00	 1.476885493686899e-01	-1.175773949447482e+01
 2.184852399026318e+00	 1.663887828831639e-01	-1.081349001969901e+01
 2.183343694237561e+00	 1.851362374646702e-01	-8.688675267949630e+00
 2.200001999970266e+00	 0.000000000000000e+00	 2.823701577739046e+01
 2.199925620273190e+00	 1.833272414096580e-02	 1.828175803300253e+01
 2.199695440368243e+00	 3.672664172950156e-02	 9.834652973430670e+00
 2.199309911391945e+00	 5.518015523792461e-02	 2.860601338551263e+00
 2.198767501682639e+00	 7.369163115988650e-02	-2.677879581877808e+00
 2.198066697693963e+00	 9.225940007679573e-02	-6.820681698233434e+00
 2.197206004915452e+00	 1.108817567476566e-01	-9.610130362314939e+00
 2.196183948799623e+00	 1.295569602227918e-01	-1.109100670853756e+01
 2.194999075694908e+00	 1.482832339818991e-01	-1.131056772165308e+01
 2.193649953783748e+00	 1.670587660968804e-01	-1.031856368422234e+01
 2.192135174025141e+00	 1.858817094198578e-01	-8.167252689733440e+00
 2.208825029380716e+00	 0.000000000000000e+00	 2.791749847409520e+01
 2.208748343365628e+00	 1.840624687677118e-02	 1.803707075201989e+01
 2.208517240332494e+00	 3.687393261504230e-02	 9.684155135514192e+00
 2.208130165206160e+00	 5.540145328032932e-02	 2.818426472402827e+00
 2.207585580182284e+00	 7.398716881519168e-02	-2.603015875163706e+00
 2.206881965644471e+00	 9.262940310592145e-02	-6.625673592111323e+00
 2.206017821088564e+00	 1.113264440727425e-01	-9.297672974363971e+00
 2.204991666053448e+00	 1.300765437839886e-01	-1.066978607187885e+01
 2.203802041057728e+00	 1.488779185947151e-01	-1.079544900632472e+01
 2.202447508541579e+00	 1.677287493101794e-01	-9.730777086586414e+00
 2.200926653813076e+00	 1.866271813746121e-01	-7.534576379236015e+00
 2.217648058791865e+00	 0.000000000000000e+00	 2.681243147113177e+01
 2.217571066458761e+00	 1.847976961246507e-02	 1.721348316119580e+01
 2.217339040297423e+00	 3.702122350037385e-02	 9.125268494052872e+00
 2.216950419021027e+00	 5.562275132244034e-02	 2.505713915931083e+00
 2.216403658682547e+00	 7.428270647013119e-02	-2.689949901140909e+00
 2.215697233595557e+00	 9.299940613462128e-02	-6.509216353663890e+00
 2.214829637262203e+00	 1.117711313973532e-01	-9.002328870405828e+00
 2.213799383307747e+00	 1.305961273446716e-01	-1.022230408946992e+01
 2.212605006420962e+00	 1.494726032069882e-01	-1.022495181221746e+01
 2.211245063299760e+00	 1.683987325229155e-01	-9.068891325988861e+00
 2.209718133601300e+00	 1.873726533287918e-01	-6.815563722526704e+00
 2.226471088203815e+00	 0.000000000000000e+00	 2.496347289299866e+01
 2.226393789552685e+00	 1.855329234799514e-02	 1.584466820205340e+01
 2.226160840263118e+00	 3.716851438540449e-02	 8.184206901996260e+00
 2.225770672836623e+00	 5.584404936413773e-02	 1.941669035106288e+00
 2.225221737183490e+00	 7.457824412456648e-02	-2.926123632506623e+00
 2.224512501547259e+00	 9.336940916274614e-02	-6.465137031124044e+00
 2.223641453436392e+00	 1.122158187213357e-01	-8.724151159050244e+00
 2.222607100562519e+00	 1.311157109046881e-01	-9.754783278308006e+00
 2.221407971784588e+00	 1.500672878185689e-01	-9.611468009581971e+00
 2.220042618058251e+00	 1.690687157349433e-01	-8.351394691367304e+00
 2.218509613389748e+00	 1.881181252822547e-01	-6.034762642622758e+00
 2.235294117616666e+00	 0.000000000000000e+00	 2.240179950371463e+01
 2.235216512647500e+00	 1.862681508330905e-02	 1.395416612014772e+01
 2.234982640229673e+00	 3.731580527004243e-02	 6.877377438120574e+00
 2.234590926653027e+00	 5.606534740530161e-02	 1.136044544139881e+00
 2.234039815685173e+00	 7.487378177835924e-02	-3.307965724776092e+00
 2.233327769499625e+00	 9.373941219014720e-02	-6.495566211951779e+00
 2.232453269611153e+00	 1.126605060445367e-01	-8.470481944571546e+00
 2.231414817817765e+00	 1.316352944638850e-01	-9.279279576308777e+00
 2.230210937148586e+00	 1.506619724293075e-01	-8.971393640716498e+00
 2.228840172817007e+00	 1.697386989461175e-01	-7.599149495250627e+00
 2.227301093178355e+00	 1.888635972348596e-01	-5.217782844815257e+00
 2.139386295307245e+00	 1.814088776871945e-01	-8.728049259494469e+00
 2.137744648683532e+00	 1.998264490722111e-01	-5.730979766329346e+00
 2.135938594060838e+00	 2.182865531140259e-01	-2.967681664492412e+00
 2.133966827598551e+00	 2.367872391122015e-01	-4.495830003717762e-01
 2.131828071486969e+00	 2.553265218037142e-01	 1.816312683653208e+00
 2.129521074894057e+00	 2.739023816741171e-01	 3.827512302914099e+00
 2.127044614912394e+00	 2.925127652964011e-01	 5.586114177378628e+00
 2.124397497505491e+00	 3.111555856978451e-01	 7.098883524290954e+00
 2.121578558452605e+00	 3.298287227551169e-01	 8.377321986060259e+00
 2.118586664291155e+00	 3.485300236178631e-01	 9.437730616548587e+00
 2.115420713255859e+00	 3.672573031609928e-01	 1.030126567944660e+01
 2.148177775092080e+00	 1.821543496424223e-01	-9.150123602695658e+00
 2.146529382373564e+00	 2.006476052116181e-01	-6.295063075070813e+00
 2.144715906046622e+00	 2.191835682189999e-01	-3.625179454096345e+00
 2.142736036912700e+00	 2.377602799480361e-01	-1.151623941835935e+00
 2.140588491911129e+00	 2.563757469775795e-01	 1.117630994946978e+00
 2.138272015069765e+00	 2.750279414943086e-01	 3.177850730409202e+00
 2.135785378455829e+00	 2.937148016329822e-01	 5.027593834186826e+00
 2.133127383126119e+00	 3.124342318447950e-01	 6.668763301862791e+00
 2.130296860075697e+00	 3.311841032941044e-01	 8.106653223132820e+00
 2.127292671184186e+00	 3.499622542837595e-01	 9.349990380527215e+00
 2.124113710158760e+00	 3.687664907092441e-01	 1.041097019920982e+01
 2.156969254877593e+00	 1.828998215979255e-01	-9.330545833079459e+00
 2.155314116064326e+00	 2.014687613512871e-01	-6.577441893692934e+00
 2.153493218033174e+00	 2.200805833242418e-01	-3.978354802311248e+00
 2.151505246227645e+00	 2.387333207841608e-01	-1.544038586723756e+00
 2.149348912336104e+00	 2.574249721517705e-01	 7.168379285808932e-01
 2.147022955246299e+00	 2.761535013148723e-01	 2.797726493190120e+00
 2.144526142000099e+00	 2.949168379699883e-01	 4.694232198298649e+00
 2.141857268747582e+00	 3.137128779922271e-01	 6.404143335278493e+00
 2.139015161699622e+00	 3.325394838336319e-01	 7.927457972115674e+00
 2.135998678078050e+00	 3.513944849502514e-01	 9.266406803020816e+00
 2.132806707062495e+00	 3.702756782581408e-01	 1.042547175128092e+01
 2.165760734663721e+00	 1.836452935535623e-01	-9.296197140412149e+00
 2.164098849755733e+00	 2.022899174910777e-01	-6.610601542903519e+00
 2.162270530020391e+00	 2.209775984296105e-01	-4.063161611276897e+00
 2.160274455543268e+00	 2.397063616204323e-01	-1.664110478145501e+00
 2.158109332761763e+00	 2.584741973261401e-01	 5.774612806105011e-01
 2.155773895423520e+00	 2.772790611356551e-01	 2.653620369589096e+00
 2.153266905545051e+00	 2.961188743072610e-01	 4.557603935326844e+00
 2.150587154369724e+00	 3.149915241399767e-01	 6.283830919967372e+00
 2.147733463324223e+00	 3.338948643735286e-01	 7.827911291847329e+00
 2.144704684972583e+00	 3.528267156171619e-01	 9.186652763557682e+00
 2.141499703966895e+00	 3.717848658075003e-01	 1.035762437500626e+01
 2.174552214450399e+00	 1.843907655091912e-01	-9.073549758610628e+00
 2.172883583447700e+00	 2.031110736308498e-01	-6.426528188320102e+00
 2.171047842008173e+00	 2.218746135349653e-01	-3.914998026600165e+00
 2.169043664859453e+00	 2.406794024567073e-01	-1.548544456336688e+00
 2.166869753187978e+00	 2.595234225005410e-01	 6.635968026370085e-01
 2.164524835601286e+00	 2.784046209565050e-01	 2.712536633011219e+00
 2.162007669090537e+00	 2.973209106446422e-01	 4.589729032325561e+00
 2.159317039992388e+00	 3.162701702878790e-01	 6.286966805805000e+00
 2.156451764949334e+00	 3.352502449136231e-01	 7.796376175202260e+00
 2.153410691867619e+00	 3.542589462843135e-01	 9.110409962314520e+00
 2.150192700871797e+00	 3.732940533571398e-01	 1.021998538672714e+01
 2.183343694237561e+00	 1.851362374646702e-01	-8.688675267949629e+00
 2.181668317140144e+00	 2.039322297704632e-01	-6.056718859489695e+00
 2.179825153996416e+00	 2.227716286401655e-01	-3.568717477223378e+00
 2.177812874176083e+00	 2.416524432928424e-01	-1.233478022334486e+00
 2.175630173614619e+00	 2.605726476748258e-01	 9.398972120137953e-01
 2.173275775779456e+00	 2.795301807772695e-01	 2.941993133936084e+00
 2.170748432636405e+00	 2.985229469819732e-01	 4.763064649280104e+00
 2.168046925615416e+00	 3.175488164357696e-01	 6.393019515118590e+00
 2.165170066574794e+00	 3.366056254537444e-01	 7.821401029520124e+00
 2.162116698762993e+00	 3.556911769515287e-01	 9.037370257296185e+00
 2.158885697777032e+00	 3.748032409068762e-01	 1.002556086589134e+01
 2.192135174025141e+00	 1.858817094198578e-01	-8.167252689733438e+00
 2.190453050832980e+00	 2.047533859097776e-01	-5.532191218412843e+00
 2.188602465985023e+00	 2.236686437450699e-01	-3.058639438422811e+00
 2.186582083493046e+00	 2.426254841286944e-01	-7.544924150257551e-01
 2.184390594041556e+00	 2.616218728488473e-01	 1.371561481810626e+00
 2.182026715957890e+00	 2.806557405977962e-01	 3.310011638168317e+00
 2.179489196182510e+00	 2.997249833190961e-01	 5.050497186703677e+00
 2.176776811238651e+00	 3.188274625834834e-01	 6.581779820037855e+00
 2.173888368200441e+00	 3.379610059937213e-01	 7.891717243023417e+00
 2.170822705658540e+00	 3.571234076186305e-01	 8.967236997588317e+00
 2.167578694682434e+00	 3.763124284565266e-01	 9.787171473004667e+00
 2.200926653813076e+00	 1.866271813746121e-01	-7.534576379236015e+00
 2.199237784526123e+00	 2.055745420486529e-01	-4.883493084575976e+00
 2.197379777973891e+00	 2.245656588495380e-01	-2.418559925680334e+00
 2.195351292810220e+00	 2.435985249641197e-01	-1.466234095807598e-01
 2.193151014468660e+00	 2.626710980224581e-01	 1.924324402712638e+00
 2.190777656136448e+00	 2.817813004179327e-01	 3.785108414172450e+00
 2.188229959728697e+00	 3.009270196558522e-01	 5.425334563298654e+00
 2.185506696861939e+00	 3.201061087308563e-01	 6.833355374735930e+00
 2.182606669826112e+00	 3.393163865333828e-01	 7.996236834820282e+00
 2.179528712554093e+00	 3.585556382854416e-01	 8.899726352793337e+00
 2.176271691587835e+00	 3.778216160059086e-01	 9.517452740029244e+00
 2.209718133601300e+00	 1.873726533287918e-01	-6.815563722526704e+00
 2.208022518219492e+00	 2.063956981869490e-01	-4.140711723273252e+00
 2.206157089962917e+00	 2.254626739534285e-01	-1.681761726921918e+00
 2.204120502127490e+00	 2.445715657989752e-01	 5.556281549681629e-01
 2.201911434895801e+00	 2.637203231955108e-01	 2.564446409281640e+00
 2.199528596314987e+00	 2.829068602375265e-01	 4.336285062554952e+00
 2.196970723274818e+00	 3.021290559920834e-01	 5.861298697832363e+00
 2.194236582485118e+00	 3.213847548777231e-01	 7.128165498246878e+00
 2.191324971451645e+00	 3.406717670725576e-01	 8.124050186164375e+00
 2.188234719449488e+00	 3.599878689517844e-01	 8.834568638756064e+00
 2.184964688493071e+00	 3.793308035548390e-01	 9.228858989837084e+00
 2.218509613389748e+00	 1.881181252822547e-01	-6.034762642622761e+00
 2.216807251912999e+00	 2.072168543245254e-01	-3.333482903784716e+00
 2.214934401952002e+00	 2.263596890566009e-01	-8.810243803817747e-01
 2.212889711444741e+00	 2.455446066331173e-01	 1.318286111488968e+00
 2.210671855322850e+00	 2.647695483678583e-01	 3.258703663245621e+00
 2.208279536493369e+00	 2.840324200564252e-01	 4.933019580976400e+00
 2.205711486820725e+00	 3.033310923276313e-01	 6.332518189562574e+00
 2.202966468108035e+00	 3.226634010239193e-01	 7.446936103683313e+00
 2.200043273076878e+00	 3.420271476110746e-01	 8.264423850718240e+00
 2.196940726344561e+00	 3.614200996174821e-01	 8.771509639682341e+00
 2.193657685397974e+00	 3.808399911031352e-01	 8.933667154267951e+00
 2.227301093178355e+00	 1.888635972348596e-01	-5.217782844815257e+00
 2.225591985606564e+00	 2.080380104612422e-01	-2.491570776334200e+00
 2.223711713941045e+00	 2.272567041589144e-01	-4.873649278758901e-02
 2.221658920761857e+00	 2.465176474664031e-01	 2.107888956578123e+00
 2.219432275749678e+00	 2.658187735393531e-01	 3.974378386715408e+00
 2.217030476671453e+00	 2.851579798744763e-01	 5.545257657989139e+00
 2.214452250366266e+00	 3.045331286623377e-01	 6.813521191726362e+00
 2.211696353730532e+00	 3.239420471692804e-01	 7.770694769808419e+00
 2.208761574701650e+00	 3.433825281487632e-01	 8.406798441637312e+00
 2.205646733239143e+00	 3.628523302823570e-01	 8.710311926750482e+00
 2.202350682302377e+00	 3.823491786506144e-01	 8.643980493592467e+00
 2.115420713255859e+00	 3.672573031609928e-01	 1.030126567944660e+01
 2.112080218809191e+00	 3.860051560782366e-01	 1.098149560540090e+01
 2.108563621236568e+00	 4.047745206476998e-01	 1.142651254762668e+01
 2.104869918326306e+00	 4.235631242055140e-01	 1.163608868290343e+01
 2.100998143217202e+00	 4.423686640326460e-01	 1.160936735805081e+01
 2.096947365305518e+00	 4.611888079513150e-01	 1.134229837498166e+01
 2.092716691142881e+00	 4.800211949505413e-01	 1.082758235520206e+01
 2.088305265324173e+00	 4.988634358408002e-01	 1.005461800363713e+01
 2.083712271364325e+00	 5.177131139377213e-01	 9.009452429633194e+00
 2.078936932563052e+00	 5.365677857747292e-01	 7.674734701132348e+00
 2.073978512856493e+00	 5.554249818444937e-01	 6.029672826978670e+00
 2.124113710158760e+00	 3.687664907092441e-01	 1.041097019920982e+01
 2.120759488462541e+00	 3.875913850520200e-01	 1.124569773393532e+01
 2.117228439971545e+00	 4.064378794458986e-01	 1.177757172529407e+01
 2.113519558355659e+00	 4.253036918878404e-01	 1.201249126857582e+01
 2.109631872780525e+00	 4.441865101961342e-01	 1.195548305256147e+01
 2.105564448818238e+00	 4.630839926092652e-01	 1.161000988874811e+01
 2.101316389348949e+00	 4.819937684140336e-01	 1.097793724459710e+01
 2.096886835452392e+00	 5.009134386028998e-01	 1.005950086511292e+01
 2.092274967288285e+00	 5.198405765604910e-01	 8.853275566114000e+00
 2.087480004964628e+00	 5.387727287791740e-01	 7.356145303019631e+00
 2.082501209392824e+00	 5.577074156035491e-01	 5.563274640506347e+00
 2.132806707062495e+00	 3.702756782581408e-01	 1.042547175128092e+01
 2.129438758116726e+00	 3.891776140264905e-01	 1.132152253668734e+01
 2.125893258707358e+00	 4.081012382448166e-01	 1.187227279768459e+01
 2.122169198385853e+00	 4.270442595709091e-01	 1.208788106822632e+01
 2.118265602344693e+00	 4.460043563603793e-01	 1.197836809595724e+01
 2.114181532331809e+00	 4.649791772679778e-01	 1.155359942064551e+01
 2.109916087555876e+00	 4.839663418782847e-01	 1.082327119321894e+01
 2.105468405581475e+00	 5.029634413657451e-01	 9.796895499089686e+00
 2.100837663213118e+00	 5.219680391839848e-01	 8.483785203967376e+00
 2.096023077367081e+00	 5.409776717843123e-01	 6.893038362958372e+00
 2.091023905930038e+00	 5.599898493632576e-01	 5.033522257638071e+00
 2.141499703966895e+00	 3.717848658075003e-01	 1.035762437500626e+01
 2.138118027771579e+00	 3.907638430014604e-01	 1.123571259676091e+01
 2.134558077443845e+00	 4.097645970442629e-01	 1.174792512933732e+01
 2.130818838416728e+00	 4.287848272545272e-01	 1.190736382980826e+01
 2.126899331909553e+00	 4.478222025251862e-01	 1.172816085132537e+01
 2.122798615846085e+00	 4.668743619272565e-01	 1.122548268173507e+01
 2.118515785763518e+00	 4.859389153430989e-01	 1.041553238847507e+01
 2.114049975711286e+00	 5.050134441291420e-01	 9.315550009135897e+00
 2.109400359138693e+00	 5.240955018080113e-01	 7.943811049994079e+00
 2.104566149770289e+00	 5.431826147899551e-01	 6.319623079373271e+00
 2.099546602468018e+00	 5.622722831234357e-01	 4.463320428735941e+00
 2.150192700871797e+00	 3.732940533571398e-01	 1.021998538672714e+01
 2.146797297426935e+00	 3.923500719767423e-01	 1.101459856544021e+01
 2.143222896180841e+00	 4.114279558440463e-01	 1.144125638695523e+01
 2.139468478448125e+00	 4.305253949385006e-01	 1.151533840183796e+01
 2.135533061474949e+00	 4.496400486903596e-01	 1.125421203948026e+01
 2.131415699360915e+00	 4.687695465869062e-01	 1.067725132174563e+01
 2.127115483971732e+00	 4.879114888082806e-01	 9.805852696461338e+00
 2.122631545841692e+00	 5.070634468928968e-01	 8.663447881859618e+00
 2.117963055064880e+00	 5.262229644323784e-01	 7.275513637586513e+00
 2.113109222174130e+00	 5.453875577959153e-01	 5.669578404223209e+00
 2.108069299006646e+00	 5.645547168838998e-01	 3.875225781259858e+00
 2.158885697777032e+00	 3.748032409068762e-01	 1.002556086589135e+01
 2.155476567082626e+00	 3.939363009521487e-01	 1.068410768064637e+01
 2.151887714918184e+00	 4.130913146439760e-01	 1.098842443104107e+01
 2.148118118479883e+00	 4.322659626226354e-01	 1.095551109591923e+01
 2.144166791040727e+00	 4.514578948557044e-01	 1.060510067228799e+01
 2.140032782876149e+00	 4.706647312467305e-01	 9.959689535916342e+00
 2.135715182180379e+00	 4.898840622736348e-01	 9.044564048460671e+00
 2.131213115972556e+00	 5.091134496568155e-01	 7.887823263238591e+00
 2.126525750991552e+00	 5.283504270568947e-01	 6.520397607730601e+00
 2.121652294578479e+00	 5.475925008020039e-01	 4.976063448810433e+00
 2.116591995545806e+00	 5.668371506444664e-01	 3.291453476452378e+00
 2.167578694682434e+00	 3.763124284565266e-01	 9.787171473004664e+00
 2.164155836738488e+00	 3.955225299274924e-01	 1.026977207124469e+01
 2.160552533655710e+00	 4.147546734438609e-01	 1.042502891130585e+01
 2.156767758511844e+00	 4.340065303067386e-01	 1.027090969263284e+01
 2.152800520606734e+00	 4.532757410210251e-01	 9.828649590566577e+00
 2.148649866391642e+00	 4.725599159065340e-01	 9.122790259178128e+00
 2.144314880389316e+00	 4.918566357389660e-01	 8.181214419013449e+00
 2.139794686103742e+00	 5.111634524207040e-01	 7.035175852130707e+00
 2.135088446918580e+00	 5.304778896813689e-01	 5.719324654059025e+00
 2.130195366983215e+00	 5.497974438080335e-01	 4.271727621650035e+00
 2.125114692085380e+00	 5.691195844049511e-01	 2.733883687089250e+00
 2.176271691587835e+00	 3.778216160059086e-01	 9.517452740029245e+00
 2.172835106394356e+00	 3.971087589025857e-01	 9.796736853190749e+00
 2.169217352393255e+00	 4.164180322435097e-01	 9.786122574132389e+00
 2.165417398543849e+00	 4.357470979906162e-01	 9.503897100762472e+00
 2.161434250172814e+00	 4.550935871861269e-01	 8.971940617618335e+00
 2.157266949907243e+00	 4.744551005661207e-01	 8.215770959211719e+00
 2.152914578598399e+00	 4.938292092040787e-01	 7.264583406979943e+00
 2.148376256235115e+00	 5.132134551843685e-01	 6.151285421667696e+00
 2.143651142845835e+00	 5.326053523056093e-01	 4.912526141349600e+00
 2.138738439388215e+00	 5.520023868138155e-01	 3.588720505892145e+00
 2.133637388625251e+00	 5.714020181651709e-01	 2.224067901298687e+00
 2.184964688493071e+00	 3.793308035548390e-01	 9.228858989837086e+00
 2.181514376050063e+00	 3.986949878772416e-01	 9.289768023312172e+00
 2.177882171130657e+00	 4.180813910427317e-01	 9.106222290113587e+00
 2.174067038575738e+00	 4.374876656740749e-01	 8.696184679511996e+00
 2.170067979738813e+00	 4.569114333508142e-01	 8.081329339098868e+00
 2.165884033422805e+00	 4.763502852252949e-01	 7.287089039553976e+00
 2.161514276807488e+00	 4.958017826687776e-01	 6.342697430651304e+00
 2.156957826366540e+00	 5.152634579476147e-01	 5.281225978896668e+00
 2.152213838773188e+00	 5.347328149294246e-01	 4.139615406562879e+00
 2.147281511793357e+00	 5.542073298191619e-01	 2.958701483549630e+00
 2.142160085165303e+00	 5.736844519249417e-01	 1.783235057293589e+00
 2.193657685397974e+00	 3.808399911031352e-01	 8.933667154267951e+00
 2.190193645705442e+00	 4.002812168512723e-01	 8.773260156339738e+00
 2.186546989867752e+00	 4.197447498413360e-01	 8.419319809429874e+00
 2.182716678607350e+00	 4.392282333569208e-01	 7.888845233062222e+00
 2.178701709304576e+00	 4.587292795148922e-01	 7.202459519588100e+00
 2.174501116938178e+00	 4.782454698838605e-01	 6.384456863569198e+00
 2.170113975016439e+00	 4.977743561328674e-01	 5.462844547615056e+00
 2.165539396497882e+00	 5.173134607102490e-01	 4.469379572703644e+00
 2.160776534700510e+00	 5.368602775526229e-01	 3.439599751225643e+00
 2.155824584198518e+00	 5.564122728238846e-01	 2.412849113555390e+00
 2.150682781705418e+00	 5.759668856840802e-01	 1.432297513707124e+00
 2.202350682302377e+00	 3.823491786506144e-01	 8.643980493592466e+00
 2.198872915360330e+00	 4.018674458244905e-01	 8.271243910623971e+00
 2.195211808604378e+00	 4.214081086391313e-01	 7.758892252585845e+00
 2.191366318638528e+00	 4.409688010389605e-01	 7.122325686520517e+00
 2.187335438869950e+00	 4.605471256781652e-01	 6.380277165900884e+00
 2.183118200453215e+00	 4.801406545416224e-01	 5.554856409761006e+00
 2.178713673225113e+00	 4.997469295961529e-01	 4.671588909743228e+00
 2.174120966629006e+00	 5.193634634720777e-01	 3.759449759736805e+00
 2.169339230627674e+00	 5.389877401750129e-01	 2.850892133687714e+00
 2.164367656603575e+00	 5.586172158277958e-01	 1.981870270450307e+00
 2.159205478245480e+00	 5.782493194424025e-01	 1.191856860073167e+00
 2.073978512856493e+00	 5.554249818444937e-01	 6.029672826978670e+00
 2.068836318106088e+00	 5.742822076323024e-01	 4.328344952010900e+00
 2.063509698278315e+00	 5.931369452284766e-01	 2.845137570909187e+00
 2.057998046901178e+00	 6.119866534072709e-01	 1.586961732687986e+00
 2.052300801400137e+00	 6.308287682241573e-01	 5.605076817794541e-01
 2.046417443866173e+00	 6.496607038978439e-01	-2.277731315738802e-01
 2.040347501804525e+00	 6.684798537193505e-01	-7.716856036870964e-01
 2.034090548863060e+00	 6.872835909877286e-01	-1.065307851416092e+00
 2.027646205539275e+00	 7.060692699719570e-01	-1.103007140873249e+00
 2.021014139864915e+00	 7.248342268985118e-01	-8.794545789140090e-01
 2.014194068067215e+00	 7.435757809640704e-01	-3.888698744527299e-01
 2.082501209392824e+00	 5.577074156035491e-01	 5.563274640506347e+00
 2.077337883581865e+00	 5.766421322680707e-01	 3.754566962936970e+00
 2.071989374827014e+00	 5.955743505160948e-01	 2.214513358706026e+00
 2.066455074164067e+00	 6.145015186790967e-01	 9.430545199747390e-01
 2.060734416706659e+00	 6.334210622764097e-01	-6.095313442381212e-02
 2.054826882417499e+00	 6.523303849008688e-01	-7.997592112732077e-01
 2.048731996860177e+00	 6.712268691316222e-01	-1.276739633697777e+00
 2.042449331930523e+00	 6.901078774736942e-01	-1.496415198190375e+00
 2.035978506566521e+00	 7.089707533238360e-01	-1.464468100590997e+00
 2.029319187435735e+00	 7.278128219621544e-01	-1.187756109193353e+00
 2.022471089599275e+00	 7.466313915689744e-01	-6.710874364036673e-01
 2.091023905930038e+00	 5.599898493632576e-01	 5.033522257638071e+00
 2.085839449058531e+00	 5.790020569044437e-01	 3.195508404870229e+00
 2.080469051376604e+00	 5.980117558042611e-01	 1.660464202250651e+00
 2.074912101427842e+00	 6.170163839514069e-01	 4.225234623895792e-01
 2.069168032014060e+00	 6.360133563290774e-01	-5.259941497868426e-01
 2.063236320969690e+00	 6.550000659042351e-01	-1.194608269832399e+00
 2.057116491916669e+00	 6.739738845441572e-01	-1.594700677282515e+00
 2.050808114998790e+00	 6.929321639598428e-01	-1.739535530405488e+00
 2.044310807594524e+00	 7.118722366758172e-01	-1.644276667759914e+00
 2.037624235007253e+00	 7.307914170258170e-01	-1.326001627959483e+00
 2.030748111131956e+00	 7.496870021738173e-01	-7.963815077531433e-01
 2.099546602468018e+00	 5.622722831234357e-01	 4.463320428735941e+00
 2.094341014535971e+00	 5.813619815412434e-01	 2.662203848796481e+00
 2.088948727926975e+00	 6.004491610928040e-01	 1.183684732518626e+00
 2.083369128692399e+00	 6.195312492240379e-01	 1.723896635386668e-02
 2.077601647322239e+00	 6.386056503820055e-01	-8.500690968982205e-01
 2.071645759522648e+00	 6.576697469077983e-01	-1.433614833794374e+00
 2.065500986973908e+00	 6.767208999568233e-01	-1.751238564560091e+00
 2.059166898067780e+00	 6.957564504460559e-01	-1.823267462866456e+00
 2.052643108623211e+00	 7.147737200277960e-01	-1.672533812893299e+00
 2.045929282579404e+00	 7.337700120894125e-01	-1.324389241364992e+00
 2.039025132665209e+00	 7.527426127785313e-01	-7.937579140327482e-01
 2.108069299006646e+00	 5.645547168838998e-01	 3.875225781259858e+00
 2.102842580014074e+00	 5.837219061782911e-01	 2.165530816226537e+00
 2.097428404478017e+00	 6.028865663815512e-01	 7.848786680395979e-01
 2.091826155957633e+00	 6.220461144968252e-01	-2.807780289253957e-01
 2.086035262631094e+00	 6.411979444350389e-01	-1.048364158810216e+00
 2.080055198076276e+00	 6.603394279114135e-01	-1.537713009818612e+00
 2.073885482031808e+00	 6.794679153694878e-01	-1.771593680958824e+00
 2.067525681137406e+00	 6.985807369322143e-01	-1.775734666765235e+00
 2.060975409652505e+00	 7.176752033796687e-01	-1.578843251419468e+00
 2.054234330152124e+00	 7.367486071528544e-01	-1.212620319278307e+00
 2.047302154198982e+00	 7.557982233830479e-01	-6.917632153524670e-01
 2.116591995545806e+00	 5.668371506444664e-01	 3.291453476452378e+00
 2.111344145492725e+00	 5.860818308154090e-01	 1.716212502490468e+00
 2.105908081029622e+00	 6.053239716703315e-01	 4.647581029545167e-01
 2.100283183223440e+00	 6.245609797696056e-01	-4.793597052064243e-01
 2.094468877940526e+00	 6.437902384880226e-01	-1.135804076258544e+00
 2.088464636630480e+00	 6.630091089149367e-01	-1.527484562485821e+00
 2.082269977090273e+00	 6.822149307820182e-01	-1.680586538543223e+00
 2.075884464207586e+00	 7.014050234181988e-01	-1.624596463655255e+00
 2.069307710682332e+00	 7.205766867313318e-01	-1.392322595985225e+00
 2.062539377725350e+00	 7.397272022160553e-01	-1.019910748520360e+00
 2.055579175733224e+00	 7.588538339872994e-01	-5.184941120991875e-01
 2.125114692085380e+00	 5.691195844049511e-01	 2.733883687089250e+00
 2.119845710971815e+00	 5.884417554524179e-01	 1.324820414504577e+00
 2.114387757581683e+00	 6.077613769589731e-01	 2.240427909366772e-01
 2.108740210489716e+00	 6.270758450422144e-01	-5.861949536111110e-01
 2.102902493250435e+00	 6.463825325408021e-01	-1.127058131818749e+00
 2.096874075185164e+00	 6.656787899182228e-01	-1.423166822972365e+00
 2.090654472149216e+00	 6.849619461942816e-01	-1.502627143646699e+00
 2.084243247278234e+00	 7.042293099038901e-01	-1.397058192518957e+00
 2.077640011712617e+00	 7.234781700826811e-01	-1.141614269831545e+00
 2.070844425299015e+00	 7.427057972789289e-01	-7.746709318491224e-01
 2.063856197267884e+00	 7.619094445912181e-01	-3.016066205590287e-01
 2.133637388625251e+00	 5.714020181651709e-01	 2.224067901298687e+00
 2.128347276451229e+00	 5.908016800891406e-01	 1.001776925403236e+00
 2.122867434134091e+00	 6.101987822473041e-01	 6.345942509154412e-02
 2.117197237756355e+00	 6.295907103144880e-01	-6.088328994986951e-01
 2.111336108560720e+00	 6.489748265932219e-01	-1.036546014440221e+00
 2.105283513740229e+00	 6.683484709211277e-01	-1.244660433324198e+00
 2.099038967208545e+00	 6.877089616061454e-01	-1.261724166505082e+00
 2.092602030349270e+00	 7.070535963891693e-01	-1.119881356273067e+00
 2.085972312743283e+00	 7.263796534336128e-01	-8.548961879220420e-01
 2.079149472873056e+00	 7.456843923413875e-01	-5.041677202595678e-01
 2.072133218802911e+00	 7.649650551947358e-01	-6.832502489616667e-02
 2.142160085165303e+00	 5.736844519249417e-01	 1.783235057293589e+00
 2.136848841930855e+00	 5.931616047253985e-01	 7.573577483507463e-01
 2.131347110686737e+00	 6.126361875351529e-01	-1.625908605181725e-02
 2.125654265023253e+00	 6.321055755862620e-01	-5.546863655840248e-01
 2.119769723871279e+00	 6.515671206451272e-01	-8.784435676897758e-01
 2.113692952295582e+00	 6.710181519235066e-01	-1.011536930907727e+00
 2.107423462268170e+00	 6.904559770174771e-01	-9.814939184059125e-01
 2.100960813420607e+00	 7.098778828739175e-01	-8.193935538536874e-01
 2.094304613774258e+00	 7.292811367840228e-01	-5.598922122922709e-01
 2.087454520447409e+00	 7.486629874033446e-01	-2.362563565794198e-01
 2.080410240338255e+00	 7.680206657977842e-01	 1.545493882825098e-01
 2.150682781705418e+00	 5.759668856840802e-01	 1.432297513707123e+00
 2.145350407410583e+00	 5.955215293610134e-01	 6.016943317742600e-01
 2.139826787239514e+00	 6.150735928223476e-01	-1.437434635020973e-02
 2.134111292290306e+00	 6.346204408573730e-01	-4.310352750127388e-01
 2.128203339182012e+00	 6.541594146963634e-01	-6.666884249292726e-01
 2.122102390851126e+00	 6.736878329252148e-01	-7.430461774720812e-01
 2.115807957328000e+00	 6.932029924281443e-01	-6.851691416921577e-01
 2.109319596492164e+00	 7.127021693580154e-01	-5.214982038297467e-01
 2.102636914805465e+00	 7.321826201338077e-01	-2.838823878824916e-01
 2.095759568022010e+00	 7.516415824647141e-01	 1.559436910092082e-03
 2.088687261873863e+00	 7.710762764002955e-01	 3.406298067468205e-01
 2.159205478245480e+00	 5.782493194424025e-01	 1.191856860073167e+00
 2.153851972890299e+00	 5.978814539958068e-01	 5.447761781903178e-01
 2.148306463792314e+00	 6.175109981087173e-01	 6.985679644912923e-02
 2.142568319557409e+00	 6.371353061276571e-01	-2.450299960529334e-01
 2.136636954492820e+00	 6.567517087467752e-01	-4.149855345530620e-01
 2.130511829406764e+00	 6.763575139261084e-01	-4.581236371153750e-01
 2.124192452387945e+00	 6.959500078380145e-01	-3.956076177917667e-01
 2.117678379563856e+00	 7.155264558413442e-01	-2.516840653041503e-01
 2.110969215836830e+00	 7.350841034828632e-01	-5.371296491945232e-02
 2.104064615596794e+00	 7.546201775254083e-01	 1.822002135377933e-01
 2.096964283409688e+00	 7.741318870022024e-01	 4.639355750055140e-01
 2.014194068067215e+00	 7.435757809640704e-01	-3.888698744527299e-01
 2.007184547478847e+00	 7.622944146716788e-01	 1.872791785354242e-01
 1.999986534868971e+00	 7.809842258426540e-01	 6.435624772711985e-01
 1.992599893353933e+00	 7.996424865837992e-01	 9.776259450882613e-01
 1.985024536674227e+00	 8.182664562179760e-01	 1.189572663152445e+00
 1.977260429726245e+00	 8.368533824140595e-01	 1.281990809285737e+00
 1.969307589065010e+00	 8.554005023379549e-01	 1.259977675267786e+00
 1.961166083376974e+00	 8.739050438238590e-01	 1.131159640795266e+00
 1.952836033922081e+00	 8.923642265648891e-01	 9.057079900451409e-01
 1.944317614944240e+00	 9.107752633221808e-01	 5.963504652269134e-01
 1.935611054049432e+00	 9.291353611515104e-01	 2.183784606012054e-01
 2.022471089599275e+00	 7.466313915689744e-01	-6.710874364036673e-01
 2.015432764461386e+00	 7.654269466301140e-01	-8.444055215086466e-02
 2.008205172722931e+00	 7.841935607127992e-01	 3.771993404231433e-01
 2.000788176937756e+00	 8.029284947139812e-01	 7.166761973966633e-01
 1.993181690491892e+00	 8.216289966941377e-01	 9.391835356310073e-01
 1.985385678137485e+00	 8.402923030118693e-01	 1.052283314750760e+00
 1.977400156497592e+00	 8.589156394796459e-01	 1.065920897587034e+00
 1.969225194540931e+00	 8.774962225398828e-01	 9.924359809312964e-01
 1.960860914025747e+00	 8.960312604604593e-01	 8.465693964605132e-01
 1.952307489911985e+00	 9.145179545487901e-01	 6.454656903545902e-01
 1.943565150740947e+00	 9.329535003834831e-01	 4.086713994264392e-01
 2.030748111131956e+00	 7.496870021738173e-01	-7.963815077531451e-01
 2.023680981444456e+00	 7.685594785884093e-01	-2.126025948371474e-01
 2.016423810577315e+00	 7.874028955827291e-01	 2.450187736695875e-01
 2.008976460521891e+00	 8.062145028438797e-01	 5.831533182368004e-01
 2.001338844309751e+00	 8.249915371699555e-01	 8.107095197508690e-01
 1.993510926548799e+00	 8.437312236092845e-01	 9.388453073448422e-01
 1.985492723930135e+00	 8.624307766209049e-01	 9.809758566398072e-01
 1.977284305704739e+00	 8.810874012554500e-01	 9.527774013589674e-01
 1.968885794129171e+00	 8.996982943555670e-01	 8.721869694306164e-01
 1.960297364879411e+00	 9.182606457749486e-01	 7.593979634823088e-01
 1.951519247432082e+00	 9.367716396150376e-01	 6.368515150344040e-01
 2.039025132665209e+00	 7.527426127785313e-01	-7.937579140327464e-01
 2.031929198428021e+00	 7.716920105465177e-01	-2.242676704809126e-01
 2.024642448432109e+00	 7.906122304524191e-01	 2.219704090306141e-01
 2.017164744106341e+00	 8.095005109734911e-01	 5.541003015398805e-01
 2.009495998127826e+00	 8.283540776454471e-01	 7.833877900238201e-01
 2.001636174960232e+00	 8.471701442063436e-01	 9.232268069213877e-01
 1.993585291362701e+00	 8.659459137617870e-01	 9.891419517702755e-01
 1.985343416868482e+00	 8.846785799706316e-01	 9.987870944929329e-01
 1.976910674232447e+00	 9.033653282502914e-01	 9.719399840607049e-01
 1.968287239846621e+00	 9.220033370007406e-01	 9.304927910760861e-01
 1.959473344122953e+00	 9.405897788462569e-01	 8.984385222342537e-01
 2.047302154198982e+00	 7.557982233830479e-01	-6.917632153524669e-01
 2.040177415412047e+00	 7.748245425043910e-01	-1.460692033410418e-01
 2.032861086287296e+00	 7.938215653218436e-01	 2.833981580376216e-01
 2.025353027691110e+00	 8.127865191028123e-01	 6.069200670654830e-01
 2.017653151946145e+00	 8.317166181206312e-01	 8.367794677821567e-01
 2.009761423371831e+00	 8.506090648030845e-01	 9.872638864069904e-01
 2.001677858795353e+00	 8.694610509023473e-01	 1.074664537125873e+00
 1.993402528032240e+00	 8.882697586854972e-01	 1.117271614828021e+00
 1.984935554335675e+00	 9.070323621447128e-01	 1.135365700503760e+00
 1.976277114813727e+00	 9.257460282262511e-01	 1.151205213753418e+00
 1.967427440813676e+00	 9.444079180772248e-01	 1.189009856200256e+00
 2.055579175733224e+00	 7.588538339872994e-01	-5.184941120991867e-01
 2.048425632396499e+00	 7.779570744619830e-01	-4.222079216369953e-03
 2.041079724142859e+00	 7.970309001909767e-01	 4.050321221879515e-01
 2.033541311276201e+00	 8.160725272318403e-01	 7.193680665538273e-01
 2.025810305764729e+00	 8.350791585955256e-01	 9.507629558198369e-01
 2.017886671783635e+00	 8.540479853995451e-01	 1.113072773520698e+00
 2.009770426228157e+00	 8.729761880426430e-01	 1.222029834850436e+00
 2.001461639196094e+00	 8.918609374001163e-01	 1.295236653810773e+00
 1.992960434438949e+00	 9.106993960389111e-01	 1.352156056522622e+00
 1.984266989780838e+00	 9.294887194515642e-01	 1.414097478348811e+00
 1.975381537504368e+00	 9.482260573080245e-01	 1.504199391644894e+00
 2.063856197267884e+00	 7.619094445912181e-01	-3.016066205590287e-01
 2.056673849381341e+00	 7.810896064192457e-01	 1.754688109711831e-01
 2.049298361998782e+00	 8.002402350597938e-01	 5.629807021229012e-01
 2.041729594861618e+00	 8.193585353605715e-01	 8.695450720197695e-01
 2.033967459583602e+00	 8.384416990701486e-01	 1.105527437803885e+00
 2.026011920195694e+00	 8.574869059957645e-01	 1.283044098963904e+00
 2.017862993661176e+00	 8.764913251827290e-01	 1.415959975379240e+00
 2.009520750360128e+00	 8.954521161145592e-01	 1.519882921234230e+00
 2.000985314542367e+00	 9.143664299329661e-01	 1.612154444646955e+00
 1.992256864748060e+00	 9.332314106767650e-01	 1.711836771157384e+00
 1.983335634195144e+00	 9.520441965387395e-01	 1.839696198124662e+00
 2.072133218802911e+00	 7.649650551947358e-01	-6.832502489616757e-02
 2.064922066366541e+00	 7.842221383761329e-01	 3.676002362463811e-01
 2.057516999855050e+00	 8.034495699282691e-01	 7.337228999728114e-01
 2.049917878447365e+00	 8.226445434890033e-01	 1.035890141095442e+00
 2.042124613402789e+00	 8.418042395445188e-01	 1.281566537849808e+00
 2.034137168608048e+00	 8.609258265917804e-01	 1.479837286985838e+00
 2.025955561094475e+00	 8.800064623226614e-01	 1.641408161281044e+00
 2.017579861524422e+00	 8.990432948288959e-01	 1.778602130177004e+00
 2.009010194646027e+00	 9.180334638269577e-01	 1.905352571560397e+00
 2.000246739715504e+00	 9.369741019019382e-01	 2.037193010646366e+00
 1.991289730886122e+00	 9.558623357694527e-01	 2.191243330468494e+00
 2.080410240338255e+00	 7.680206657977842e-01	 1.545493882825080e-01
 2.073170283352062e+00	 7.873546703325958e-01	 5.471624934929780e-01
 2.065735637711644e+00	 8.066589047963771e-01	 8.941008094892258e-01
 2.058106162033445e+00	 8.259305516171316e-01	 1.197173754491365e+00
 2.050281767222315e+00	 8.451667800186544e-01	 1.459672135799903e+00
 2.042262417020745e+00	 8.643647471876307e-01	 1.686375084358384e+00
 2.034048128528116e+00	 8.835215994624956e-01	 1.883553951207220e+00
 2.025638972689056e+00	 9.026344735431960e-01	 2.058973082603254e+00
 2.017035074750024e+00	 9.217004977209656e-01	 2.221887397427187e+00
 2.008236614683276e+00	 9.407167931271685e-01	 2.383036697978220e+00
 1.999243827577417e+00	 9.596804750002486e-01	 2.554636653350340e+00
 2.088687261873863e+00	 7.710762764002955e-01	 3.406298067468204e-01
 2.081418500337869e+00	 7.904872022885883e-01	 6.895314725811406e-01
 2.073954275568549e+00	 8.098682396640930e-01	 1.021312288754925e+00
 2.066294445619862e+00	 8.292165597449541e-01	 1.332491120800726e+00
 2.058438921042203e+00	 8.485293204925737e-01	 1.620928333885646e+00
 2.050387665433826e+00	 8.678036677833542e-01	 1.885838223922251e+00
 2.042140695962164e+00	 8.870367366022874e-01	 2.127798660615676e+00
 2.033698083854115e+00	 9.062256522575299e-01	 2.348757852830825e+00
 2.025059954854456e+00	 9.253675316150700e-01	 2.552038152941267e+00
 2.016226489651488e+00	 9.444594843525407e-01	 2.742336823741702e+00
 2.007197924269145e+00	 9.634986142312094e-01	 2.925723699059177e+00
 2.096964283409688e+00	 7.741318870022024e-01	 4.639355750055140e-01
 2.089666717323930e+00	 7.936197342440635e-01	 7.704609132612737e-01
 2.082172913425751e+00	 8.130775745313916e-01	 1.092903810427535e+00
 2.074482729206619e+00	 8.325025678724669e-01	 1.421255644024014e+00
 2.066596074862476e+00	 8.518918609662948e-01	 1.746705570591176e+00
 2.058512913847339e+00	 8.712425883789894e-01	 2.061660218985166e+00
 2.050233263396684e+00	 8.905518737420933e-01	 2.359760876043487e+00
 2.041757195019681e+00	 9.098168309719679e-01	 2.635898066164102e+00
 2.033084834959419e+00	 9.290345655093508e-01	 2.886223431950195e+00
 2.024216364620247e+00	 9.482021755781400e-01	 3.108158829338006e+00
 2.015152020961425e+00	 9.673167534624195e-01	 3.300402557549071e+00
 1.935611054049432e+00	 9.291353611515104e-01	 2.183784606012054e-01
 1.926718160155936e+00	 9.474386154707789e-01	-8.796850662747668e-02
 1.917637803321350e+00	 9.656853515605142e-01	-2.025792228118906e-01
 1.908370371613757e+00	 9.838727672977978e-01	-1.401498904202407e-01
 1.898916307608127e+00	 1.001998059881856e+00	 8.203832405177813e-02
 1.889276108593128e+00	 1.020058427132333e+00	 4.441021795005582e-01
 1.879450326741568e+00	 1.038051068798763e+00	 9.235416357683508e-01
 1.869439569243934e+00	 1.055973187880068e+00	 1.495227582583233e+00
 1.859244498404515e+00	 1.073821991952893e+00	 2.131392089826232e+00
 1.848865831699675e+00	 1.091594694507553e+00	 2.800886082939720e+00
 1.838304341797836e+00	 1.109288516290360e+00	 3.459092507035578e+00
 1.943565150740947e+00	 9.329535003834831e-01	 4.086713994264402e-01
 1.934635712864383e+00	 9.513319691184711e-01	 2.529954455888265e-01
 1.925518041696562e+00	 9.696536873709692e-01	 2.698270080733771e-01
 1.916212526900262e+00	 9.879158415031603e-01	 4.407891052770504e-01
 1.906719612869136e+00	 1.006115617196585e+00	 7.452043317325975e-01
 1.897039798935374e+00	 1.024250200755752e+00	 1.160085002133332e+00
 1.887173639540842e+00	 1.042316780422991e+00	 1.660125340074179e+00
 1.877121744371174e+00	 1.060312547703372e+00	 2.217695762717337e+00
 1.866884778452287e+00	 1.078234698698499e+00	 2.802839313849998e+00
 1.856463462208891e+00	 1.096080435447949e+00	 3.383270299146849e+00
 1.845858571484564e+00	 1.113846967277110e+00	 3.921677273367490e+00
 1.951519247432082e+00	 9.367716396150376e-01	 6.368515150344035e-01
 1.942553265572416e+00	 9.552253227657993e-01	 5.998153089290374e-01
 1.933398280071349e+00	 9.736220231811342e-01	 7.148780173506032e-01
 1.924054682186348e+00	 9.919589157083222e-01	 9.616782244060135e-01
 1.914522918129753e+00	 1.010233174511214e+00	 1.317818158509322e+00
 1.904803489277268e+00	 1.028441974379180e+00	 1.758858604590408e+00
 1.894896952339819e+00	 1.046582492047340e+00	 2.258315521366447e+00
 1.884803919498182e+00	 1.064651907526910e+00	 2.787658402866372e+00
 1.874525058499899e+00	 1.082647405444447e+00	 3.316310425274962e+00
 1.864061092718026e+00	 1.100566176388786e+00	 3.811650422168835e+00
 1.853412801171289e+00	 1.118405418264389e+00	 4.238644179350811e+00
 1.959473344122953e+00	 9.405897788462569e-01	 8.984385222342541e-01
 1.950470818280154e+00	 9.591186764128397e-01	 9.511288192708542e-01
 1.941278518445825e+00	 9.775903589910715e-01	 1.133984937000127e+00
 1.931896837472129e+00	 9.960019899133258e-01	 1.426337196914673e+00
 1.922326223390080e+00	 1.014350731825763e+00	 1.805723327674357e+00
 1.912567179618903e+00	 1.032633748002612e+00	 2.247885676154702e+00
 1.902620265138577e+00	 1.050848203671779e+00	 2.726769785645025e+00
 1.892486094625017e+00	 1.068991267350622e+00	 3.214524372370396e+00
 1.882165338547392e+00	 1.087060112190651e+00	 3.681502734050644e+00
 1.871658723227099e+00	 1.105051917329954e+00	 4.096265626915065e+00
 1.860967030858012e+00	 1.122963869252066e+00	 4.424522996764142e+00
 1.967427440813676e+00	 9.444079180772248e-01	 1.189009856200256e+00
 1.958388370987716e+00	 9.630120300596674e-01	 1.305580527535268e+00
 1.949158756820112e+00	 9.815586948008418e-01	 1.528520380961389e+00
 1.939738992757716e+00	 1.000045064118215e+00	 1.838507799510297e+00
 1.930129528650220e+00	 1.018468289140254e+00	 2.214652194969440e+00
 1.920330869960368e+00	 1.036825521626043e+00	 2.634491065232152e+00
 1.910343577937188e+00	 1.055113915296276e+00	 3.073988082601569e+00
 1.900168269751738e+00	 1.073330627174449e+00	 3.507532240183685e+00
 1.889805618594804e+00	 1.091472818937026e+00	 3.907938086754494e+00
 1.879256353736129e+00	 1.109537658271343e+00	 4.246447083925726e+00
 1.868521260544733e+00	 1.127522320240007e+00	 4.490543508190320e+00
 1.975381537504368e+00	 9.482260573080245e-01	 1.504199391644894e+00
 1.966305923695221e+00	 9.669053837063573e-01	 1.661821547547980e+00
 1.957038995194323e+00	 9.855270306105074e-01	 1.899819109341532e+00
 1.947581148043220e+00	 1.004088138323032e+00	 2.201855317291125e+00
 1.937932833910279e+00	 1.022585846454706e+00	 2.550228082187483e+00
 1.928094560301754e+00	 1.041017295249468e+00	 2.925864453001493e+00
 1.918066890735730e+00	 1.059379626920799e+00	 3.308315780990121e+00
 1.907850444878401e+00	 1.077669986998334e+00	 3.675753607305615e+00
 1.897445898642177e+00	 1.095885525683485e+00	 4.004966305163255e+00
 1.886853984245140e+00	 1.114023399212843e+00	 4.271288865504967e+00
 1.876075490231453e+00	 1.132080771228081e+00	 4.445129608924439e+00
 1.983335634195144e+00	 9.520441965387395e-01	 1.839696198124662e+00
 1.974223476402787e+00	 9.707987373529852e-01	 2.018509315429166e+00
 1.964919233568579e+00	 9.894953664201290e-01	 2.249178682248317e+00
 1.955423303328753e+00	 1.008131212527820e+00	 2.519969975957022e+00
 1.945736139170353e+00	 1.026703403769140e+00	 2.817967365323979e+00
 1.935858250643150e+00	 1.045209068872882e+00	 3.129062968754827e+00
 1.925790203534276e+00	 1.063645338545317e+00	 3.437946676155070e+00
 1.915532620005068e+00	 1.082009346822216e+00	 3.728096365311372e+00
 1.905086178689550e+00	 1.100298232429944e+00	 3.981768548494995e+00
 1.894451614754149e+00	 1.118509140154342e+00	 4.179525875752988e+00
 1.883629719918174e+00	 1.136639222216155e+00	 4.296552504954056e+00
 1.991289730886122e+00	 9.558623357694527e-01	 2.191243330468494e+00
 1.982141029110534e+00	 9.746920909996273e-01	 2.374307360188910e+00
 1.972799471942996e+00	 9.934637022297690e-01	 2.577860103536949e+00
 1.963265458614427e+00	 1.012174286732622e+00	 2.796368345421740e+00
 1.953539444430550e+00	 1.030820961083575e+00	 3.023281518548281e+00
 1.943621940984647e+00	 1.049400842496282e+00	 3.251013748559257e+00
 1.933513516332905e+00	 1.067911050169797e+00	 3.470925931612677e+00
 1.923214795131795e+00	 1.086348706646036e+00	 3.673307883049606e+00
 1.912726458736965e+00	 1.104710939176316e+00	 3.847360601456313e+00
 1.902049245263181e+00	 1.122994881095731e+00	 3.979912383913081e+00
 1.891183949604895e+00	 1.141197673204096e+00	 4.052934167189110e+00
 1.999243827577417e+00	 9.596804750002486e-01	 2.554636653350340e+00
 1.990058581818582e+00	 9.785854446463579e-01	 2.727885085216541e+00
 1.980679710317691e+00	 9.974320380394882e-01	 2.887088454752646e+00
 1.971107613900354e+00	 1.016217360937480e+00	 3.034494715623277e+00
 1.961342749690970e+00	 1.034938518398033e+00	 3.171479115225923e+00
 1.951385631326335e+00	 1.053592616119660e+00	 3.298516438818402e+00
 1.941236829131689e+00	 1.072176761794209e+00	 3.415152956523717e+00
 1.930896970258641e+00	 1.090688066469737e+00	 3.519978123507007e+00
 1.920366738784460e+00	 1.109123645922516e+00	 3.610596090160868e+00
 1.909646875772254e+00	 1.127480622036900e+00	 3.681064430183339e+00
 1.898738179291617e+00	 1.145756124191772e+00	 3.722250719827406e+00
 2.007197924269145e+00	 9.634986142312094e-01	 2.925723699059176e+00
 1.997976134527049e+00	 9.824787982932531e-01	 3.077917560361402e+00
 1.988559948692782e+00	 1.001400373849349e+00	 3.178053519539972e+00
 1.978949769186645e+00	 1.020260435142437e+00	 3.237722445303680e+00
 1.969146054951716e+00	 1.039056075712533e+00	 3.267767787182798e+00
 1.959149321668304e+00	 1.057784389743013e+00	 3.278245646261986e+00
 1.948960141930705e+00	 1.076442473418519e+00	 3.278384220834635e+00
 1.938579145385666e+00	 1.095027426293259e+00	 3.276542692777411e+00
 1.928007018832077e+00	 1.113536352668460e+00	 3.280115952521402e+00
 1.917244506281389e+00	 1.131966362977736e+00	 3.291445086247182e+00
 1.906292408978343e+00	 1.150314575179052e+00	 3.312335764682393e+00
 2.015152020961425e+00	 9.673167534624195e-01	 3.300402557549071e+00
 2.005893687236054e+00	 9.863721519403884e-01	 3.423085324312868e+00
 1.996440187068388e+00	 1.005368709659412e+00	 3.451910398783148e+00
 1.986791924473414e+00	 1.024303509347537e+00	 3.409355284505128e+00
 1.976949360212890e+00	 1.043173633027096e+00	 3.317256143365530e+00
 1.966913012010647e+00	 1.061976163366336e+00	 3.196753335844064e+00
 1.956683454730029e+00	 1.080708185042699e+00	 3.068236009810605e+00
 1.946261320512928e+00	 1.099366786116542e+00	 2.951285823011459e+00
 1.935647298879856e+00	 1.117949059414060e+00	 2.864173997159444e+00
 1.924842136790607e+00	 1.136452103918131e+00	 2.819367893082223e+00
 1.913846638665072e+00	 1.154873026165801e+00	 2.830883643242455e+00
 1.838304341797836e+00	 1.109288516290360e+00	 3.459092507035578e+00
 1.827560856984948e+00	 1.126900687002145e+00	 3.975828005694093e+00
 1.816636262431510e+00	 1.144428447724527e+00	 4.263509029512142e+00
 1.805531498748641e+00	 1.161869051257882e+00	 4.349200126077907e+00
 1.794247561403101e+00	 1.179219763129365e+00	 4.261377633348948e+00
 1.782785500538586e+00	 1.196477862946308e+00	 4.029843644745217e+00
 1.771146420757310e+00	 1.213640645748062e+00	 3.685656274366637e+00
 1.759331480861803e+00	 1.230705423354943e+00	 3.261057293300113e+00
 1.747341893556909e+00	 1.247669525712911e+00	 2.789397485713144e+00
 1.735178925112020e+00	 1.264530302232631e+00	 2.305060082434681e+00
 1.722843894983654e+00	 1.281285123121560e+00	 1.843382636481612e+00
 1.845858571484564e+00	 1.113846967277110e+00	 3.921677273367490e+00
 1.835070937968959e+00	 1.131531512502689e+00	 4.293991540327719e+00
 1.824101450470054e+00	 1.149131300868953e+00	 4.432813373615004e+00
 1.812951053464272e+00	 1.166643573887080e+00	 4.370615207123302e+00
 1.801620746509102e+00	 1.184065585847327e+00	 4.141297132262837e+00
 1.790111584063650e+00	 1.201394605177988e+00	 3.780111424324688e+00
 1.778424675269332e+00	 1.218627915802793e+00	 3.323583982764652e+00
 1.766561183690609e+00	 1.235762818495394e+00	 2.809433043886946e+00
 1.754522327015755e+00	 1.252796632229572e+00	 2.276485536030930e+00
 1.742309376717713e+00	 1.269726695523801e+00	 1.764591456725198e+00
 1.729923657675115e+00	 1.286550367778807e+00	 1.314536658302155e+00
 1.853412801171289e+00	 1.118405418264389e+00	 4.238644179350811e+00
 1.842581018953048e+00	 1.136162338003836e+00	 4.493585425573139e+00
 1.831566638508754e+00	 1.153834154014039e+00	 4.518292945588757e+00
 1.820370608180139e+00	 1.171418096516981e+00	 4.348268261760420e+00
 1.808993931615413e+00	 1.188911408566021e+00	 4.020621987992393e+00
 1.797437667589097e+00	 1.206311347410417e+00	 3.573826151455527e+00
 1.785702929781807e+00	 1.223615185858278e+00	 3.047629722575668e+00
 1.773790886519932e+00	 1.240820213636592e+00	 2.482971361706225e+00
 1.761702760475180e+00	 1.257923738746963e+00	 1.921889769667151e+00
 1.749439828324040e+00	 1.274923088815674e+00	 1.407432038937038e+00
 1.737003420367256e+00	 1.291815612436721e+00	 9.835604094765866e-01
 1.860967030858012e+00	 1.122963869252066e+00	 4.424522996764142e+00
 1.850091099937194e+00	 1.140793163505434e+00	 4.582898537156495e+00
 1.839031826547572e+00	 1.158537007159620e+00	 4.527081274768054e+00
 1.827790162896181e+00	 1.176192619147409e+00	 4.288026428815221e+00
 1.816367116721958e+00	 1.193757231285266e+00	 3.903868556022988e+00
 1.804763751114833e+00	 1.211228089643409e+00	 3.414095805945951e+00
 1.792981184294625e+00	 1.228602455914329e+00	 2.859462434334944e+00
 1.781020589349650e+00	 1.245877608778351e+00	 2.281898520173835e+00
 1.768883193935048e+00	 1.263050845264901e+00	 1.724417286351495e+00
 1.756570279930857e+00	 1.280119482108074e+00	 1.231020433667371e+00
 1.744083183059930e+00	 1.297080857095136e+00	 8.466019051158709e-01
 1.868521260544733e+00	 1.127522320240007e+00	 4.490543508190320e+00
 1.857601180921378e+00	 1.145423989007335e+00	 4.572097155210931e+00
 1.846497014586467e+00	 1.163239860305531e+00	 4.466197895367487e+00
 1.835209717612342e+00	 1.180967141778190e+00	 4.195662025152082e+00
 1.823740301828660e+00	 1.198603054004876e+00	 3.795478924542548e+00
 1.812089834640766e+00	 1.216144831876776e+00	 3.303975609951177e+00
 1.800259438807678e+00	 1.233589725970756e+00	 2.760720336870903e+00
 1.788250292179642e+00	 1.250935003920483e+00	 2.206432202728978e+00
 1.776063627395229e+00	 1.268177951783206e+00	 1.682888391313264e+00
 1.763700731538021e+00	 1.285315875400826e+00	 1.232829476999184e+00
 1.751162945752986e+00	 1.302346101753885e+00	 8.998632142048664e-01
 1.876075490231453e+00	 1.132080771228081e+00	 4.445129608924439e+00
 1.865111261905582e+00	 1.150054814509385e+00	 4.473626455332784e+00
 1.853962202625403e+00	 1.167942713451607e+00	 4.342779250362847e+00
 1.842629272328563e+00	 1.185741664409146e+00	 4.076853548079962e+00
 1.831113486935444e+00	 1.203448876724669e+00	 3.699821464330615e+00
 1.819415918166803e+00	 1.221061574110329e+00	 3.246468107059514e+00
 1.807537693320858e+00	 1.238576996027372e+00	 2.753010526040850e+00
 1.795479995009785e+00	 1.255992399062802e+00	 2.256780620446341e+00
 1.783244060855584e+00	 1.273305058301691e+00	 1.796135239798255e+00
 1.770831183145389e+00	 1.290512268693754e+00	 1.410364424775105e+00
 1.758242708446275e+00	 1.307611346412800e+00	 1.139598217322716e+00
 1.883629719918174e+00	 1.136639222216155e+00	 4.296552504954056e+00
 1.872621342889786e+00	 1.154685640011436e+00	 4.294982500531943e+00
 1.861427390664340e+00	 1.172645566597684e+00	 4.167608447607338e+00
 1.850048827044785e+00	 1.190516187040101e+00	 3.937186634694191e+00
 1.838486672042233e+00	 1.208294699444463e+00	 3.621191346063427e+00
 1.826742001692850e+00	 1.225978316343882e+00	 3.244523219725206e+00
 1.814815947834057e+00	 1.243564266083988e+00	 2.837908562985679e+00
 1.802709697839955e+00	 1.261049794205120e+00	 2.433141630369450e+00
 1.790424494315982e+00	 1.278432164820177e+00	 2.063000493329288e+00
 1.777961634752816e+00	 1.295708661986680e+00	 1.761161163244704e+00
 1.765322471139646e+00	 1.312876591071715e+00	 1.562110396763146e+00
 1.891183949604895e+00	 1.141197673204096e+00	 4.052934167189110e+00
 1.880131423873971e+00	 1.159316465513336e+00	 4.043324420630741e+00
 1.868892578703238e+00	 1.177348419743595e+00	 3.948351325822877e+00
 1.857468381760953e+00	 1.195290709670882e+00	 3.783493309036322e+00
 1.845859857148952e+00	 1.213140522164074e+00	 3.563811025946131e+00
 1.834068085218814e+00	 1.230895058577249e+00	 3.301038285653598e+00
 1.822094202347163e+00	 1.248551536140415e+00	 3.016958052196057e+00
 1.809939400670032e+00	 1.266107189347253e+00	 2.735701854545245e+00
 1.797604927776289e+00	 1.283559271338480e+00	 2.482335987381669e+00
 1.785092086360161e+00	 1.300905055279432e+00	 2.282784441460165e+00
 1.772402233832950e+00	 1.318141835730464e+00	 2.163750658148927e+00
 1.898738179291617e+00	 1.145756124191772e+00	 3.722250719827406e+00
 1.887641504858117e+00	 1.163947291014934e+00	 3.725681094658459e+00
 1.876357766742059e+00	 1.182051272889176e+00	 3.690963552370471e+00
 1.864887936477006e+00	 1.200065232301310e+00	 3.624101383723970e+00
 1.853233042255522e+00	 1.217986344883317e+00	 3.531893412495091e+00
 1.841394168744601e+00	 1.235811800810240e+00	 3.418858073724443e+00
 1.829372456860071e+00	 1.253538806196465e+00	 3.291670209674009e+00
 1.817169103499892e+00	 1.271164584489011e+00	 3.164635799739973e+00
 1.804785361236369e+00	 1.288686377856418e+00	 3.053001410155996e+00
 1.792222537967280e+00	 1.306101448571833e+00	 2.972826124814345e+00
 1.779481996526039e+00	 1.323407080388878e+00	 2.940915182663434e+00
 1.906292408978343e+00	 1.150314575179052e+00	 3.312335764682393e+00
 1.895151585842206e+00	 1.168578116516081e+00	 3.348954195881358e+00
 1.883822954780765e+00	 1.186754126034262e+00	 3.401290896271421e+00
 1.872307491192888e+00	 1.204839754931210e+00	 3.463851638503655e+00
 1.860606227361870e+00	 1.222832167602012e+00	 3.531809636973387e+00
 1.848720252270120e+00	 1.240728543042670e+00	 3.600774780020605e+00
 1.836650711372670e+00	 1.258526076251949e+00	 3.663523421464372e+00
 1.824398806329413e+00	 1.276221979630209e+00	 3.720104977817603e+00
 1.811965794696090e+00	 1.293813484373809e+00	 3.773862992140134e+00
 1.799352989574029e+00	 1.311297841863705e+00	 3.828903469134837e+00
 1.786561759218760e+00	 1.328672325046793e+00	 3.890043309050067e+00
 1.913846638665072e+00	 1.154873026165801e+00	 2.830883643242455e+00
 1.902661666826218e+00	 1.173208942016625e+00	 2.919921181605294e+00
 1.891288142819316e+00	 1.191456979178688e+00	 3.085071905981158e+00
 1.879727045908540e+00	 1.209614277560408e+00	 3.307345067724191e+00
 1.867979412467919e+00	 1.227677990319973e+00	 3.568270355701890e+00
 1.856046335795278e+00	 1.245645285274350e+00	 3.849948539143009e+00
 1.843928965884853e+00	 1.263513346306681e+00	 4.133962792822004e+00
 1.831628509158474e+00	 1.281279374770660e+00	 4.402257026762239e+00
 1.819146228155318e+00	 1.298940590890470e+00	 4.643792206162473e+00
 1.806483441180266e+00	 1.316494235154875e+00	 4.848657414766271e+00
 1.793641521910966e+00	 1.333937569704040e+00	 5.007615444557272e+00
 1.722843894983654e+00	 1.281285123121560e+00	 1.843382636481612e+00
 1.710336036041581e+00	 1.297934199784559e+00	 1.493802381836749e+00
 1.697658861935259e+00	 1.314472081178694e+00	 1.309395784880249e+00
 1.684813856886373e+00	 1.330896196964246e+00	 1.271132043699503e+00
 1.671802556470602e+00	 1.347204002803646e+00	 1.359613521913006e+00
 1.658626547041991e+00	 1.363392981644274e+00	 1.555072087952734e+00
 1.645287465119243e+00	 1.379460644986235e+00	 1.837367757466249e+00
 1.631786996734402e+00	 1.395404534133789e+00	 2.185989864636817e+00
 1.618126876744440e+00	 1.411222221429127e+00	 2.580060972760749e+00
 1.604308888106322e+00	 1.426911311467221e+00	 2.998343717112112e+00
 1.590334861116157e+00	 1.442469442290463e+00	 3.419250754076990e+00
 1.729923657675115e+00	 1.286550367778807e+00	 1.314536658302155e+00
 1.717364399605329e+00	 1.303267861268188e+00	 1.013905094422009e+00
 1.704635130596620e+00	 1.319873702548785e+00	 9.067735859413479e-01
 1.691737340969855e+00	 1.336365310718468e+00	 9.686984728697552e-01
 1.678672572610923e+00	 1.352740130984107e+00	 1.174688579796932e+00
 1.665442418392746e+00	 1.368995635949644e+00	 1.499207884879773e+00
 1.652048521559052e+00	 1.385129326889079e+00	 1.916180826836134e+00
 1.638492575070372e+00	 1.401138735003042e+00	 2.399000472564392e+00
 1.624776320912806e+00	 1.417021422657641e+00	 2.920539751543102e+00
 1.610901549370107e+00	 1.432774984604303e+00	 3.453165944822303e+00
 1.596870098259705e+00	 1.448397049179322e+00	 3.968758596311722e+00
 1.737003420367256e+00	 1.291815612436721e+00	 9.835604094765871e-01
 1.724392763169800e+00	 1.308601522752440e+00	 7.338095941454073e-01
 1.711611399258739e+00	 1.325275323919451e+00	 6.938027290970727e-01
 1.698660825054121e+00	 1.341834424473213e+00	 8.355592849966977e-01
 1.685542588752047e+00	 1.358276259165039e+00	 1.130409154849378e+00
 1.672258289744316e+00	 1.374598290255434e+00	 1.548999090693652e+00
 1.658809577999677e+00	 1.390798008792296e+00	 2.061302053947093e+00
 1.645198153407151e+00	 1.406872935872629e+00	 2.636629703021068e+00
 1.631425765081967e+00	 1.422820623886461e+00	 3.243648224473882e+00
 1.617494210634661e+00	 1.438638657741673e+00	 3.850397694705900e+00
 1.603405335403986e+00	 1.454324656068464e+00	 4.424315138136333e+00
 1.744083183059930e+00	 1.297080857095136e+00	 8.466019051158713e-01
 1.731421126734840e+00	 1.313935184237158e+00	 6.486240656626707e-01
 1.718587667921462e+00	 1.330676945290548e+00	 6.649424205284751e-01
 1.705584309139019e+00	 1.347303538228351e+00	 8.658927824125828e-01
 1.692412604893825e+00	 1.363812387346324e+00	 1.221017624538314e+00
 1.679074161096556e+00	 1.380200944561541e+00	 1.699073739452811e+00
 1.665570634440982e+00	 1.396466690695798e+00	 2.268043028298406e+00
 1.651903731744612e+00	 1.412607136742474e+00	 2.895146649330397e+00
 1.638075209251801e+00	 1.428619825115519e+00	 3.546862736344712e+00
 1.624086871899873e+00	 1.444502330879274e+00	 4.188947877601017e+00
 1.609940572548900e+00	 1.460252262957840e+00	 4.786462523905182e+00
 1.751162945752986e+00	 1.302346101753885e+00	 8.998632142048655e-01
 1.738449490300299e+00	 1.319268845722191e+00	 7.535265767967494e-01
 1.725563936584634e+00	 1.336078566661932e+00	 8.147313261757607e-01
 1.712507793224396e+00	 1.352772651983751e+00	 1.053960424903637e+00
 1.699282621036108e+00	 1.369348515527848e+00	 1.440837721237244e+00
 1.685890032449323e+00	 1.385803598867863e+00	 1.944134300542470e+00
 1.672331690882829e+00	 1.402135372599496e+00	 2.531778125585166e+00
 1.658609310082624e+00	 1.418341337612502e+00	 3.170867203771858e+00
 1.644724653422189e+00	 1.434419026344752e+00	 3.827686500658212e+00
 1.630679533165634e+00	 1.450366004017048e+00	 4.467728798262568e+00
 1.616475809694347e+00	 1.466179869847399e+00	 5.055719674041120e+00
 1.758242708446275e+00	 1.307611346412800e+00	 1.139598217322716e+00
 1.745477853866021e+00	 1.324602507207378e+00	 1.043762487645663e+00
 1.732540205248102e+00	 1.341480188033461e+00	 1.137784759763090e+00
 1.719431277310100e+00	 1.358241765739284e+00	 1.394103916743120e+00
 1.706152637178747e+00	 1.374884643709492e+00	 1.784271630816246e+00
 1.692705903802472e+00	 1.391406253174298e+00	 2.278954893736230e+00
 1.679092747325082e+00	 1.407804054503300e+00	 2.847941936414869e+00
 1.665314888421059e+00	 1.424075538482633e+00	 3.460151789323661e+00
 1.651374097593011e+00	 1.440218227574093e+00	 4.083647715876175e+00
 1.637272194431832e+00	 1.456229677154939e+00	 4.685654729629711e+00
 1.623011046840228e+00	 1.472107476737092e+00	 5.232581382803536e+00
 1.765322471139646e+00	 1.312876591071715e+00	 1.562110396763146e+00
 1.752506217431852e+00	 1.329936168692566e+00	 1.514641900159482e+00
 1.739516473911709e+00	 1.346881809404990e+00	 1.628791916309080e+00
 1.726354761395976e+00	 1.363710879494819e+00	 1.880742341352349e+00
 1.713022653321593e+00	 1.380420771891143e+00	 2.245797138311966e+00
 1.699521775155861e+00	 1.397008907480743e+00	 2.698378548280353e+00
 1.685853803767603e+00	 1.413472736407122e+00	 3.212026733669575e+00
 1.672020466759789e+00	 1.429809739352794e+00	 3.759403122541851e+00
 1.658023541764149e+00	 1.446017428803475e+00	 4.312297703352732e+00
 1.643864855698359e+00	 1.462093350292891e+00	 4.841640497576948e+00
 1.629546283986442e+00	 1.478035083626868e+00	 5.317517413782962e+00
 1.772402233832950e+00	 1.318141835730464e+00	 2.163750658148927e+00
 1.759534580997640e+00	 1.335269830177598e+00	 2.161537147055201e+00
 1.746492742575304e+00	 1.352283430776377e+00	 2.282513149850912e+00
 1.733278245481874e+00	 1.369179993250225e+00	 2.508369342258187e+00
 1.719892669464497e+00	 1.385956900072682e+00	 2.819964819360524e+00
 1.706337646509344e+00	 1.402611561787096e+00	 3.197314504770179e+00
 1.692614860210256e+00	 1.419141418310874e+00	 3.619579977433631e+00
 1.678726045098686e+00	 1.435543940222906e+00	 4.065064006705714e+00
 1.664672985935481e+00	 1.451816630032835e+00	 4.511209066346993e+00
 1.650457516965104e+00	 1.467957023430847e+00	 4.934600075857293e+00
 1.636081521132888e+00	 1.483962690516677e+00	 5.310842226610292e+00
 1.779481996526039e+00	 1.323407080388878e+00	 2.940915182663434e+00
 1.766562944563231e+00	 1.340603491662318e+00	 2.979880318974172e+00
 1.753469011238729e+00	 1.357685052147477e+00	 3.093777294151288e+00
 1.740201729567638e+00	 1.374649107005374e+00	 3.271550349058077e+00
 1.726762685607308e+00	 1.391493028253994e+00	 3.501395276119219e+00
 1.713153517862779e+00	 1.408214216093255e+00	 3.770735558627481e+00
 1.699375916652905e+00	 1.424810100214466e+00	 4.066201856441426e+00
 1.685431623437618e+00	 1.441278141092894e+00	 4.373615154387318e+00
 1.671322430106890e+00	 1.457615831262106e+00	 4.677973869528935e+00
 1.657050178231957e+00	 1.473820696568750e+00	 4.963445190953771e+00
 1.642616758279468e+00	 1.489890297406469e+00	 5.211835521612157e+00
 1.786561759218760e+00	 1.328672325046793e+00	 3.890043309050066e+00
 1.773591308128472e+00	 1.345937153146570e+00	 3.965160828821341e+00
 1.760445279901834e+00	 1.363086673518147e+00	 4.057479025195988e+00
 1.747125213653118e+00	 1.380118220760135e+00	 4.164919847144391e+00
 1.733632701749878e+00	 1.397029156434963e+00	 4.284776416443425e+00
 1.719969389216021e+00	 1.413816870399117e+00	 4.413675444025284e+00
 1.706136973095411e+00	 1.430478782117809e+00	 4.547542865032604e+00
 1.692137201776460e+00	 1.447012341962681e+00	 4.681573038629542e+00
 1.677971874278255e+00	 1.463415032491225e+00	 4.810201838410702e+00
 1.663642839498809e+00	 1.479684369706544e+00	 4.927083936565864e+00
 1.649151995426080e+00	 1.495817904296194e+00	 5.020534378712461e+00
 1.793641521910966e+00	 1.333937569704040e+00	 5.007615444557272e+00
 1.780619671693210e+00	 1.351270814630199e+00	 5.112923012259295e+00
 1.767421548564461e+00	 1.368488294888244e+00	 5.168576264327812e+00
 1.754048697738162e+00	 1.385587334514377e+00	 5.183178689979515e+00
 1.740502717892060e+00	 1.402565284615472e+00	 5.164860775123982e+00
 1.726785260568927e+00	 1.419419524704581e+00	 5.121226257143062e+00
 1.712898029537639e+00	 1.436147464020815e+00	 5.059301414634394e+00
 1.698842780115081e+00	 1.452746542832192e+00	 4.985487771943087e+00
 1.684621318449455e+00	 1.469214233720123e+00	 4.905518578153547e+00
 1.670235500765549e+00	 1.485548042844174e+00	 4.824051394458573e+00
 1.655687232572625e+00	 1.501745511185803e+00	 4.737189346210114e+00
 1.590334861116157e+00	 1.442469442290463e+00	 3.419250754076990e+00
 1.576209082943013e+00	 1.457891680273050e+00	 3.805626722704386e+00
 1.561931092083721e+00	 1.473178411755090e+00	 4.138545912456643e+00
 1.547502829769426e+00	 1.488327408362844e+00	 4.422069334042340e+00
 1.532926281152534e+00	 1.503336479695941e+00	 4.653804747671595e+00
 1.518203474390078e+00	 1.518203474390078e+00	 4.836121187292113e+00
 1.503336479695941e+00	 1.532926281152534e+00	 4.972376166774462e+00
 1.488327408362844e+00	 1.547502829769426e+00	 5.065593131255677e+00
 1.473178411755089e+00	 1.561931092083721e+00	 5.113791873149316e+00
 1.457891680273049e+00	 1.576209082943013e+00	 5.096025060647024e+00
 1.442469442290463e+00	 1.590334861116157e+00	 5.011624146160084e+00
 1.596870098259705e+00	 1.448397049179322e+00	 3.968758596311722e+00
 1.582686272368129e+00	 1.463882662482917e+00	 4.425193417720523e+00
 1.568349608295735e+00	 1.479232212442803e+00	 4.804492350258398e+00
 1.553862055250860e+00	 1.494443461528082e+00	 5.110585629458641e+00
 1.539225606543589e+00	 1.509514210337267e+00	 5.344458312547670e+00
 1.524442298665355e+00	 1.524442298665355e+00	 5.512402379498981e+00
 1.509514210337267e+00	 1.539225606543589e+00	 5.620611470643092e+00
 1.494443461528083e+00	 1.553862055250861e+00	 5.675092459714216e+00
 1.479232212442803e+00	 1.568349608295735e+00	 5.681335444000530e+00
 1.463882662482917e+00	 1.582686272368130e+00	 5.625556749407314e+00
 1.448397049179321e+00	 1.596870098259705e+00	 5.502440130289680e+00
 1.603405335403986e+00	 1.454324656068464e+00	 4.424315138136333e+00
 1.589163461793934e+00	 1.469873644693080e+00	 4.921261769198827e+00
 1.574768124508386e+00	 1.485286013130841e+00	 5.325021486632054e+00
 1.560221280732874e+00	 1.500559514693683e+00	 5.637995445853631e+00
 1.545524931935164e+00	 1.515691940979004e+00	 5.865989118317509e+00
 1.530681122941096e+00	 1.530681122941096e+00	 6.017339187762770e+00
 1.515691940979004e+00	 1.545524931935164e+00	 6.100307022801779e+00
 1.500559514693683e+00	 1.560221280732874e+00	 6.123087525625055e+00
 1.485286013130840e+00	 1.574768124508386e+00	 6.093816368833345e+00
 1.469873644693080e+00	 1.589163461793934e+00	 6.011830732627138e+00
 1.454324656068464e+00	 1.603405335403986e+00	 5.864399511689937e+00
 1.609940572548900e+00	 1.460252262957840e+00	 4.786462523905182e+00
 1.595640651220338e+00	 1.475864626903494e+00	 5.295932370535000e+00
 1.581186640721594e+00	 1.491339813819156e+00	 5.702366173499224e+00
 1.566580506215397e+00	 1.506675567859600e+00	 6.008467170325964e+00
 1.551824257327200e+00	 1.521869671621101e+00	 6.223151366375640e+00
 1.536919947217245e+00	 1.536919947217245e+00	 6.355969398860848e+00
 1.521869671621100e+00	 1.551824257327200e+00	 6.416491404699149e+00
 1.506675567859599e+00	 1.566580506215397e+00	 6.414314583480712e+00
 1.491339813819156e+00	 1.581186640721594e+00	 6.359068933371851e+00
 1.475864626903493e+00	 1.595640651220339e+00	 6.258411200671516e+00
 1.460252262957839e+00	 1.609940572548900e+00	 6.099972830370533e+00
 1.616475809694347e+00	 1.466179869847399e+00	 5.055719674041120e+00
 1.602117840647250e+00	 1.481855609114111e+00	 5.551254552286288e+00
 1.587605156935277e+00	 1.497393614507704e+00	 5.939612790234272e+00
 1.572939731698358e+00	 1.512791621025784e+00	 6.226069722313552e+00
 1.558123582719631e+00	 1.528047402263506e+00	 6.420590419951655e+00
 1.543158771493746e+00	 1.543158771493746e+00	 6.533217422666905e+00
 1.528047402263506e+00	 1.558123582719632e+00	 6.574079959795965e+00
 1.512791621025784e+00	 1.572939731698359e+00	 6.553401308969220e+00
 1.497393614507703e+00	 1.587605156935277e+00	 6.481504147038025e+00
 1.481855609114111e+00	 1.602117840647250e+00	 6.368813771319331e+00
 1.466179869847399e+00	 1.616475809694348e+00	 6.211590844980829e+00
 1.623011046840228e+00	 1.472107476737092e+00	 5.232581382803536e+00
 1.608595030074581e+00	 1.487846591324885e+00	 5.688408801909311e+00
 1.594023673149356e+00	 1.503447415196439e+00	 6.039864596739968e+00
 1.579298957181686e+00	 1.518907674192191e+00	 6.294775198724316e+00
 1.564422908112395e+00	 1.534225132906170e+00	 6.462845646249508e+00
 1.549397595770543e+00	 1.549397595770543e+00	 6.553897231666445e+00
 1.534225132906170e+00	 1.564422908112395e+00	 6.577877733899220e+00
 1.518907674192191e+00	 1.579298957181686e+00	 6.544869646717739e+00
 1.503447415196439e+00	 1.594023673149357e+00	 6.465096253384304e+00
 1.487846591324885e+00	 1.608595030074581e+00	 6.348925421421788e+00
 1.472107476737092e+00	 1.623011046840228e+00	 6.201643874845519e+00
 1.629546283986442e+00	 1.478035083626868e+00	 5.317517413782962e+00
 1.615072219502239e+00	 1.493837573535769e+00	 5.708633164941093e+00
 1.600442189363751e+00	 1.509501215885315e+00	 6.006144405126713e+00
 1.585658182665308e+00	 1.525023727358770e+00	 6.218461487912610e+00
 1.570722233505427e+00	 1.540402863549040e+00	 6.354353222812326e+00
 1.555636420047579e+00	 1.555636420047579e+00	 6.422715262447000e+00
 1.540402863549040e+00	 1.570722233505427e+00	 6.432582377515640e+00
 1.525023727358770e+00	 1.585658182665308e+00	 6.393138622319632e+00
 1.509501215885314e+00	 1.600442189363750e+00	 6.313725234692257e+00
 1.493837573535769e+00	 1.615072219502240e+00	 6.203846138040121e+00
 1.478035083626868e+00	 1.629546283986441e+00	 6.072481125704615e+00
 1.636081521132888e+00	 1.483962690516677e+00	 5.310842226610291e+00
 1.621549408930136e+00	 1.499828555746719e+00	 5.613730213626946e+00
 1.606860705578380e+00	 1.515555016574287e+00	 5.841396877694287e+00
 1.592017408149153e+00	 1.531139780525477e+00	 6.000914853373228e+00
 1.577021558898665e+00	 1.546580594192068e+00	 6.099448909113173e+00
 1.561875244324799e+00	 1.561875244324799e+00	 6.144273280226379e+00
 1.546580594192068e+00	 1.577021558898666e+00	 6.142787011286348e+00
 1.531139780525477e+00	 1.592017408149154e+00	 6.102527119643667e+00
 1.515555016574287e+00	 1.606860705578380e+00	 6.031179415191067e+00
 1.499828555746718e+00	 1.621549408930137e+00	 5.936586836130815e+00
 1.483962690516677e+00	 1.636081521132888e+00	 5.826755186092231e+00
 1.642616758279468e+00	 1.489890297406469e+00	 5.211835521612157e+00
 1.628026598358182e+00	 1.505819537957685e+00	 5.405444563877545e+00
 1.613279221793163e+00	 1.521608817263309e+00	 5.548490802148550e+00
 1.598376633633152e+00	 1.537255833692263e+00	 5.645832487996140e+00
 1.583320884292047e+00	 1.552758324835201e+00	 5.702370784340256e+00
 1.568114068602146e+00	 1.568114068602146e+00	 5.723071207448365e+00
 1.552758324835201e+00	 1.583320884292047e+00	 5.712983055531509e+00
 1.537255833692263e+00	 1.598376633633152e+00	 5.677256624392597e+00
 1.521608817263308e+00	 1.613279221793163e+00	 5.621158034688557e+00
 1.505819537957684e+00	 1.628026598358182e+00	 5.550081520701110e+00
 1.489890297406469e+00	 1.642616758279468e+00	 5.469559056858171e+00
 1.649151995426080e+00	 1.495817904296194e+00	 5.020534378712461e+00
 1.634503787786285e+00	 1.511810520168621e+00	 5.085464759889284e+00
 1.619697738008020e+00	 1.527662617952335e+00	 5.130221344684218e+00
 1.604735859117230e+00	 1.543371886859082e+00	 5.156825039698666e+00
 1.589620209685509e+00	 1.558936055478388e+00	 5.167261952314831e+00
 1.574352892879563e+00	 1.574352892879563e+00	 5.163509917443147e+00
 1.558936055478388e+00	 1.589620209685508e+00	 5.147563024900229e+00
 1.543371886859082e+00	 1.604735859117230e+00	 5.121453934847302e+00
 1.527662617952335e+00	 1.619697738008020e+00	 5.087273793436342e+00
 1.511810520168621e+00	 1.634503787786285e+00	 5.047189586805864e+00
 1.495817904296194e+00	 1.649151995426080e+00	 5.003458798618837e+00
 1.655687232572625e+00	 1.501745511185803e+00	 4.737189346210114e+00
 1.640980977214357e+00	 1.517801502379484e+00	 4.655425145797028e+00
 1.626116254222871e+00	 1.533716418641320e+00	 4.589312281545899e+00
 1.611095084601319e+00	 1.549487940025887e+00	 4.537419109226374e+00
 1.595919535078986e+00	 1.565113786121580e+00	 4.498173214449649e+00
 1.580591717156995e+00	 1.580591717156995e+00	 4.469893994117396e+00
 1.565113786121580e+00	 1.595919535078986e+00	 4.450823289090498e+00
 1.549487940025886e+00	 1.611095084601319e+00	 4.439153840703601e+00
 1.533716418641319e+00	 1.626116254222872e+00	 4.433055369023525e+00
 1.517801502379483e+00	 1.640980977214357e+00	 4.430698097352523e+00
 1.501745511185803e+00	 1.655687232572625e+00	 4.430273575185987e+00
 1.442469442290463e+00	 1.590334861116157e+00	 5.011624146160084e+00
 1.426911311467222e+00	 1.604308888106321e+00	 4.868878695611469e+00
 1.411222221429127e+00	 1.618126876744440e+00	 4.681210096199345e+00
 1.395404534133789e+00	 1.631786996734401e+00	 4.459557699408609e+00
 1.379460644986235e+00	 1.645287465119242e+00	 4.215522185960443e+00
 1.363392981644275e+00	 1.658626547041991e+00	 3.961304639904503e+00
 1.347204002803646e+00	 1.671802556470602e+00	 3.709648051211983e+00
 1.330896196964247e+00	 1.684813856886373e+00	 3.473781434284469e+00
 1.314472081178695e+00	 1.697658861935258e+00	 3.267366720128351e+00
 1.297934199784560e+00	 1.710336036041580e+00	 3.104448550071537e+00
 1.281285123121559e+00	 1.722843894983654e+00	 2.999407069052531e+00
 1.448397049179321e+00	 1.596870098259705e+00	 5.502440130289679e+00
 1.432774984604304e+00	 1.610901549370106e+00	 5.325358177309926e+00
 1.417021422657642e+00	 1.624776320912806e+00	 5.109888705909633e+00
 1.401138735003042e+00	 1.638492575070372e+00	 4.866034294259281e+00
 1.385129326889079e+00	 1.652048521559052e+00	 4.604321864281942e+00
 1.368995635949644e+00	 1.665442418392745e+00	 4.335742825908112e+00
 1.352740130984108e+00	 1.678672572610922e+00	 4.071695955896124e+00
 1.336365310718469e+00	 1.691737340969854e+00	 3.823933196582627e+00
 1.319873702548785e+00	 1.704635130596619e+00	 3.604508528978152e+00
 1.303267861268188e+00	 1.717364399605328e+00	 3.425730043486033e+00
 1.286550367778807e+00	 1.729923657675114e+00	 3.300115300437477e+00
 1.454324656068464e+00	 1.603405335403986e+00	 5.864399511689937e+00
 1.438638657741674e+00	 1.617494210634660e+00	 5.666988557443853e+00
 1.422820623886462e+00	 1.631425765081967e+00	 5.435918265551672e+00
 1.406872935872630e+00	 1.645198153407151e+00	 5.180332751071213e+00
 1.390798008792297e+00	 1.658809577999677e+00	 4.909782759640320e+00
 1.374598290255435e+00	 1.672258289744316e+00	 4.634166669153457e+00
 1.358276259165040e+00	 1.685542588752046e+00	 4.363674509481323e+00
 1.341834424473214e+00	 1.698660825054120e+00	 4.108735184018227e+00
 1.325275323919451e+00	 1.711611399258738e+00	 3.879967044634800e+00
 1.308601522752441e+00	 1.724392763169799e+00	 3.688131939236476e+00
 1.291815612436721e+00	 1.737003420367256e+00	 3.544092818829098e+00
 1.460252262957839e+00	 1.609940572548900e+00	 6.099972830370532e+00
 1.444502330879274e+00	 1.624086871899872e+00	 5.895135037153320e+00
 1.428619825115520e+00	 1.638075209251800e+00	 5.659779398945869e+00
 1.412607136742475e+00	 1.651903731744611e+00	 5.402268566480015e+00
 1.396466690695799e+00	 1.665570634440981e+00	 5.131273200946676e+00
 1.380200944561542e+00	 1.679074161096556e+00	 4.855713621810786e+00
 1.363812387346325e+00	 1.692412604893824e+00	 4.584704733810559e+00
 1.347303538228352e+00	 1.705584309139018e+00	 4.327504415813089e+00
 1.330676945290548e+00	 1.718587667921462e+00	 4.093465520758762e+00
 1.313935184237159e+00	 1.731421126734840e+00	 3.891991602334146e+00
 1.297080857095136e+00	 1.744083183059930e+00	 3.732496450522859e+00
 1.466179869847399e+00	 1.616475809694348e+00	 6.211590844980829e+00
 1.450366004017048e+00	 1.630679533165633e+00	 6.011140584643357e+00
 1.434419026344753e+00	 1.644724653422189e+00	 5.781944586776516e+00
 1.418341337612502e+00	 1.658609310082623e+00	 5.531659746859996e+00
 1.402135372599496e+00	 1.672331690882828e+00	 5.268171266819874e+00
 1.385803598867864e+00	 1.685890032449323e+00	 4.999534739133582e+00
 1.369348515527848e+00	 1.699282621036107e+00	 4.733921749172284e+00
 1.352772651983752e+00	 1.712507793224395e+00	 4.479569177804997e+00
 1.336078566661932e+00	 1.725563936584634e+00	 4.244732351640156e+00
 1.319268845722192e+00	 1.738449490300298e+00	 4.037642153495379e+00
 1.302346101753885e+00	 1.751162945752986e+00	 3.866466171027249e+00
 1.472107476737092e+00	 1.623011046840228e+00	 6.201643874845519e+00
 1.456229677154939e+00	 1.637272194431832e+00	 6.016324923274630e+00
 1.440218227574093e+00	 1.651374097593011e+00	 5.802876873250813e+00
 1.424075538482634e+00	 1.665314888421059e+00	 5.568325305622452e+00
 1.407804054503300e+00	 1.679092747325081e+00	 5.319863145099072e+00
 1.391406253174298e+00	 1.692705903802472e+00	 5.064792972208412e+00
 1.374884643709493e+00	 1.706152637178747e+00	 4.810473070704629e+00
 1.358241765739285e+00	 1.719431277310099e+00	 4.564267392264258e+00
 1.341480188033461e+00	 1.732540205248101e+00	 4.333499584473431e+00
 1.324602507207379e+00	 1.745477853866019e+00	 4.125411192155630e+00
 1.307611346412800e+00	 1.758242708446275e+00	 3.947124106283054e+00
 1.478035083626868e+00	 1.629546283986441e+00	 6.072481125704615e+00
 1.462093350292891e+00	 1.643864855698358e+00	 5.911983511911247e+00
 1.446017428803476e+00	 1.658023541764148e+00	 5.723028571850377e+00
 1.429809739352794e+00	 1.672020466759789e+00	 5.512083764736365e+00
 1.413472736407123e+00	 1.685853803767603e+00	 5.285741500013169e+00
 1.397008907480743e+00	 1.699521775155860e+00	 5.050661470114521e+00
 1.380420771891143e+00	 1.713022653321593e+00	 4.813516914295277e+00
 1.363710879494819e+00	 1.726354761395975e+00	 4.580944995639994e+00
 1.346881809404991e+00	 1.739516473911709e+00	 4.359501436360772e+00
 1.329936168692567e+00	 1.752506217431851e+00	 4.155619519394588e+00
 1.312876591071716e+00	 1.765322471139646e+00	 3.975573527378125e+00
 1.483962690516677e+00	 1.636081521132888e+00	 5.826755186092230e+00
 1.467957023430847e+00	 1.650457516965103e+00	 5.699386517743937e+00
 1.451816630032835e+00	 1.664672985935481e+00	 5.542839970202964e+00
 1.435543940222906e+00	 1.678726045098685e+00	 5.362751660354595e+00
 1.419141418310875e+00	 1.692614860210256e+00	 5.165203846794273e+00
 1.402611561787097e+00	 1.706337646509344e+00	 4.956321891231460e+00
 1.385956900072683e+00	 1.719892669464496e+00	 4.742220511712464e+00
 1.369179993250226e+00	 1.733278245481873e+00	 4.528954324015280e+00
 1.352283430776377e+00	 1.746492742575303e+00	 4.322472815913010e+00
 1.335269830177598e+00	 1.759534580997639e+00	 4.128579860775471e+00
 1.318141835730464e+00	 1.772402233832951e+00	 3.952897838940010e+00
 1.489890297406469e+00	 1.642616758279468e+00	 5.469559056858170e+00
 1.473820696568751e+00	 1.657050178231957e+00	 5.379777781799869e+00
 1.457615831262107e+00	 1.671322430106890e+00	 5.262738034099948e+00
 1.441278141092895e+00	 1.685431623437618e+00	 5.120142052432686e+00
 1.424810100214467e+00	 1.699375916652904e+00	 4.957650933529190e+00
 1.408214216093256e+00	 1.713153517862778e+00	 4.780962723440989e+00
 1.391493028253995e+00	 1.726762685607307e+00	 4.595758434711237e+00
 1.374649107005375e+00	 1.740201729567638e+00	 4.407652506057500e+00
 1.357685052147477e+00	 1.753469011238729e+00	 4.222147849320731e+00
 1.340603491662319e+00	 1.766562944563231e+00	 4.044595589101755e+00
 1.323407080388879e+00	 1.779481996526039e+00	 3.880159561383231e+00
 1.495817904296194e+00	 1.649151995426080e+00	 5.003458798618837e+00
 1.479684369706545e+00	 1.663642839498807e+00	 4.954373777343466e+00
 1.463415032491225e+00	 1.677971874278254e+00	 4.883135110684991e+00
 1.447012341962682e+00	 1.692137201776459e+00	 4.784063038231206e+00
 1.430478782117809e+00	 1.706136973095410e+00	 4.662485130049491e+00
 1.413816870399118e+00	 1.719969389216020e+00	 4.523777612977852e+00
 1.397029156434963e+00	 1.733632701749877e+00	 4.373310927866798e+00
 1.380118220760136e+00	 1.747125213653118e+00	 4.216399863256908e+00
 1.363086673518147e+00	 1.760445279901833e+00	 4.058258410772539e+00
 1.345937153146571e+00	 1.773591308128471e+00	 3.903959447094270e+00
 1.328672325046793e+00	 1.786561759218760e+00	 3.758399307182323e+00
 1.501745511185803e+00	 1.655687232572625e+00	 4.430273575185987e+00
 1.485548042844174e+00	 1.670235500765547e+00	 4.425177072070498e+00
 1.469214233720123e+00	 1.684621318449455e+00	 4.404427630838272e+00
 1.452746542832192e+00	 1.698842780115080e+00	 4.354316269595387e+00
 1.436147464020815e+00	 1.712898029537638e+00	 4.279108823667045e+00
 1.419419524704582e+00	 1.726785260568927e+00	 4.183963701691567e+00
 1.402565284615473e+00	 1.740502717892059e+00	 4.074062249895310e+00
 1.385587334514378e+00	 1.754048697738161e+00	 3.954558317253036e+00
 1.368488294888244e+00	 1.767421548564461e+00	 3.830532657101107e+00
 1.351270814630200e+00	 1.780619671693210e+00	 3.706952269991612e+00
 1.333937569704040e+00	 1.793641521910966e+00	 3.588634751336276e+00
 1.281285123121559e+00	 1.722843894983654e+00	 2.999407069052532e+00
 1.264530302232631e+00	 1.735178925112020e+00	 2.959361593609515e+00
 1.247669525712911e+00	 1.747341893556909e+00	 2.974910332715711e+00
 1.230705423354944e+00	 1.759331480861804e+00	 3.035733233689969e+00
 1.213640645748062e+00	 1.771146420757310e+00	 3.131272873862689e+00
 1.196477862946308e+00	 1.782785500538586e+00	 3.250740077993484e+00
 1.179219763129366e+00	 1.794247561403101e+00	 3.383122823254838e+00
 1.161869051257883e+00	 1.805531498748640e+00	 3.517198276394376e+00
 1.144428447724528e+00	 1.816636262431509e+00	 3.641547785690610e+00
 1.126900687002146e+00	 1.827560856984948e+00	 3.744574630182315e+00
 1.109288516290361e+00	 1.838304341797836e+00	 3.814571014985792e+00
 1.286550367778807e+00	 1.729923657675114e+00	 3.300115300437477e+00
 1.269726695523801e+00	 1.742309376717713e+00	 3.231062390747002e+00
 1.252796632229572e+00	 1.754522327015755e+00	 3.208083626709320e+00
 1.235762818495395e+00	 1.766561183690609e+00	 3.222940926038242e+00
 1.218627915802794e+00	 1.778424675269332e+00	 3.267252634387662e+00
 1.201394605177988e+00	 1.790111584063650e+00	 3.332495755596345e+00
 1.184065585847327e+00	 1.801620746509102e+00	 3.410011467162684e+00
 1.166643573887081e+00	 1.812951053464272e+00	 3.491013766314977e+00
 1.149131300868954e+00	 1.824101450470053e+00	 3.566601069565038e+00
 1.131531512502690e+00	 1.835070937968958e+00	 3.627770568058584e+00
 1.113846967277110e+00	 1.845858571484564e+00	 3.665435122482957e+00
 1.291815612436721e+00	 1.737003420367256e+00	 3.544092818829098e+00
 1.274923088815674e+00	 1.749439828324040e+00	 3.448837721396742e+00
 1.257923738746963e+00	 1.761702760475180e+00	 3.391793582015198e+00
 1.240820213636592e+00	 1.773790886519932e+00	 3.366545958239003e+00
 1.223615185858279e+00	 1.785702929781807e+00	 3.366614474219065e+00
 1.206311347410418e+00	 1.797437667589096e+00	 3.385452161748602e+00
 1.188911408566022e+00	 1.808993931615413e+00	 3.416448105254997e+00
 1.171418096516982e+00	 1.820370608180138e+00	 3.452933235719345e+00
 1.153834154014040e+00	 1.831566638508753e+00	 3.488189095507718e+00
 1.136162338003837e+00	 1.842581018953047e+00	 3.515459375048898e+00
 1.118405418264389e+00	 1.853412801171289e+00	 3.527983215337471e+00
 1.297080857095136e+00	 1.744083183059930e+00	 3.732496450522860e+00
 1.280119482108074e+00	 1.756570279930858e+00	 3.614671709528467e+00
 1.263050845264901e+00	 1.768883193935049e+00	 3.528666196952513e+00
 1.245877608778351e+00	 1.781020589349650e+00	 3.469634127042490e+00
 1.228602455914329e+00	 1.792981184294625e+00	 3.432725373664141e+00
 1.211228089643410e+00	 1.804763751114833e+00	 3.413082417398070e+00
 1.193757231285266e+00	 1.816367116721957e+00	 3.405840636300722e+00
 1.176192619147410e+00	 1.827790162896181e+00	 3.406131783792392e+00
 1.158537007159621e+00	 1.839031826547572e+00	 3.409090473577730e+00
 1.140793163505436e+00	 1.850091099937193e+00	 3.409863469943200e+00
 1.122963869252066e+00	 1.860967030858012e+00	 3.404304152147540e+00
 1.302346101753885e+00	 1.751162945752986e+00	 3.866466171027249e+00
 1.285315875400826e+00	 1.763700731538021e+00	 3.730518990210180e+00
 1.268177951783205e+00	 1.776063627395229e+00	 3.621288432077978e+00
 1.250935003920484e+00	 1.788250292179642e+00	 3.535245672664478e+00
 1.233589725970756e+00	 1.800259438807678e+00	 3.468903206334554e+00
 1.216144831876776e+00	 1.812089834640766e+00	 3.418809891523207e+00
 1.198603054004877e+00	 1.823740301828660e+00	 3.381549400812921e+00
 1.180967141778191e+00	 1.835209717612342e+00	 3.353741916159157e+00
 1.163239860305532e+00	 1.846497014586467e+00	 3.332048885917157e+00
 1.145423989007336e+00	 1.857601180921378e+00	 3.313452980248260e+00
 1.127522320240007e+00	 1.868521260544733e+00	 3.296197902826859e+00
 1.307611346412800e+00	 1.758242708446275e+00	 3.947124106283054e+00
 1.290512268693754e+00	 1.770831183145389e+00	 3.798303992199243e+00
 1.273305058301691e+00	 1.783244060855584e+00	 3.672207714408037e+00
 1.255992399062802e+00	 1.795479995009785e+00	 3.566374946004079e+00
 1.238576996027372e+00	 1.807537693320858e+00	 3.478416511869383e+00
 1.221061574110330e+00	 1.819415918166802e+00	 3.406008023054355e+00
 1.203448876724670e+00	 1.831113486935444e+00	 3.346886997082231e+00
 1.185741664409146e+00	 1.842629272328562e+00	 3.298853301201607e+00
 1.167942713451609e+00	 1.853962202625403e+00	 3.259808003411339e+00
 1.150054814509386e+00	 1.865111261905581e+00	 3.229022256412838e+00
 1.132080771228081e+00	 1.876075490231453e+00	 3.205129403902532e+00
 1.312876591071716e+00	 1.765322471139646e+00	 3.975573527378125e+00
 1.295708661986680e+00	 1.777961634752817e+00	 3.819920207562239e+00
 1.278432164820176e+00	 1.790424494315982e+00	 3.683931423664996e+00
 1.261049794205121e+00	 1.802709697839955e+00	 3.565970054315722e+00
 1.243564266083988e+00	 1.814815947834057e+00	 3.464484244949093e+00
 1.225978316343883e+00	 1.826742001692850e+00	 3.378000118300101e+00
 1.208294699444464e+00	 1.838486672042232e+00	 3.305118073276903e+00
 1.190516187040102e+00	 1.850048827044785e+00	 3.244512504319629e+00
 1.172645566597685e+00	 1.861427390664339e+00	 3.195660173987903e+00
 1.154685640011437e+00	 1.872621342889786e+00	 3.158693364025766e+00
 1.136639222216155e+00	 1.883629719918174e+00	 3.132525396518136e+00
 1.318141835730464e+00	 1.772402233832951e+00	 3.952897838940010e+00
 1.300905055279432e+00	 1.785092086360161e+00	 3.797229448686632e+00
 1.283559271338480e+00	 1.797604927776289e+00	 3.658926361050282e+00
 1.266107189347253e+00	 1.809939400670031e+00	 3.536932485938063e+00
 1.248551536140415e+00	 1.822094202347163e+00	 3.430275501263606e+00
 1.230895058577249e+00	 1.834068085218813e+00	 3.338059124563916e+00
 1.213140522164075e+00	 1.845859857148951e+00	 3.259459096278638e+00
 1.195290709670882e+00	 1.857468381760951e+00	 3.193957804954885e+00
 1.177348419743596e+00	 1.868892578703237e+00	 3.142407128477626e+00
 1.159316465513337e+00	 1.880131423873970e+00	 3.104513278214934e+00
 1.141197673204096e+00	 1.891183949604895e+00	 3.079775309204579e+00
 1.323407080388879e+00	 1.779481996526039e+00	 3.880159561383230e+00
 1.306101448571832e+00	 1.792222537967280e+00	 3.732061093036134e+00
 1.288686377856418e+00	 1.804785361236369e+00	 3.599618201031827e+00
 1.271164584489011e+00	 1.817169103499892e+00	 3.482116714663481e+00
 1.253538806196465e+00	 1.829372456860070e+00	 3.378909221076548e+00
 1.235811800810241e+00	 1.841394168744602e+00	 3.289407380614082e+00
 1.217986344883318e+00	 1.853233042255522e+00	 3.213090788055217e+00
 1.200065232301311e+00	 1.864887936477005e+00	 3.150665024071245e+00
 1.182051272889177e+00	 1.876357766742058e+00	 3.102552951059060e+00
 1.163947291014936e+00	 1.887641504858116e+00	 3.068482059601950e+00
 1.145756124191772e+00	 1.898738179291618e+00	 3.048232132312779e+00
 1.328672325046793e+00	 1.786561759218760e+00	 3.758399307182323e+00
 1.311297841863705e+00	 1.799352989574029e+00	 3.626211315990032e+00
 1.293813484373809e+00	 1.811965794696090e+00	 3.508390926617103e+00
 1.276221979630209e+00	 1.824398806329413e+00	 3.404329784313135e+00
 1.258526076251950e+00	 1.836650711372670e+00	 3.313453871007364e+00
 1.240728543042670e+00	 1.848720252270120e+00	 3.235216344649400e+00
 1.222832167602012e+00	 1.860606227361869e+00	 3.169596873981706e+00
 1.204839754931211e+00	 1.872307491192887e+00	 3.117462153740625e+00
 1.186754126034263e+00	 1.883822954780764e+00	 3.078547911140844e+00
 1.168578116516082e+00	 1.895151585842205e+00	 3.052553944601565e+00
 1.150314575179052e+00	 1.906292408978342e+00	 3.039213284339268e+00
 1.333937569704040e+00	 1.793641521910966e+00	 3.588634751336276e+00
 1.316494235154875e+00	 1.806483441180266e+00	 3.481442312096457e+00
 1.298940590890470e+00	 1.819146228155318e+00	 3.387586248568670e+00
 1.281279374770660e+00	 1.831628509158474e+00	 3.306330874064948e+00
 1.263513346306681e+00	 1.843928965884853e+00	 3.236927104633374e+00
 1.245645285274350e+00	 1.856046335795278e+00	 3.178708551069156e+00
 1.227677990319974e+00	 1.867979412467918e+00	 3.132186992253469e+00
 1.209614277560409e+00	 1.879727045908540e+00	 3.097092662592509e+00
 1.191456979178689e+00	 1.891288142819314e+00	 3.072789714536056e+00
 1.173208942016627e+00	 1.902661666826218e+00	 3.058638422806455e+00
 1.154873026165801e+00	 1.913846638665072e+00	 3.054001470368873e+00
 1.109288516290361e+00	 1.838304341797836e+00	 3.814571014985792e+00
 1.091594694507553e+00	 1.848865831699674e+00	 3.847115657332007e+00
 1.073821991952893e+00	 1.859244498404515e+00	 3.847629223263577e+00
 1.055973187880068e+00	 1.869439569243934e+00	 3.821845312739809e+00
 1.038051068798763e+00	 1.879450326741568e+00	 3.774308255774200e+00
 1.020058427132334e+00	 1.889276108593128e+00	 3.709506181173261e+00
 1.001998059881857e+00	 1.898916307608127e+00	 3.631939402793430e+00
 9.838727672977994e-01	 1.908370371613757e+00	 3.546120084098784e+00
 9.656853515605157e-01	 1.917637803321349e+00	 3.456572097805516e+00
 9.474386154707806e-01	 1.926718160155935e+00	 3.367830957290125e+00
 9.291353611515103e-01	 1.935611054049432e+00	 3.284443702772304e+00
 1.113846967277110e+00	 1.845858571484564e+00	 3.665435122482957e+00
 1.096080435447949e+00	 1.856463462208892e+00	 3.676022887667211e+00
 1.078234698698499e+00	 1.866884778452287e+00	 3.667406282703845e+00
 1.060312547703372e+00	 1.877121744371174e+00	 3.642802264137939e+00
 1.042316780422992e+00	 1.887173639540842e+00	 3.605004283509651e+00
 1.024250200755753e+00	 1.897039798935372e+00	 3.556776474129754e+00
 1.006115617196586e+00	 1.906719612869135e+00	 3.500856365276594e+00
 9.879158415031618e-01	 1.916212526900261e+00	 3.439957932914166e+00
 9.696536873709707e-01	 1.925518041696562e+00	 3.376774848129237e+00
 9.513319691184728e-01	 1.934635712864383e+00	 3.313983790110334e+00
 9.329535003834832e-01	 1.943565150740947e+00	 3.254247697142174e+00
 1.118405418264389e+00	 1.853412801171289e+00	 3.527983215337471e+00
 1.100566176388786e+00	 1.864061092718026e+00	 3.523561270496480e+00
 1.082647405444448e+00	 1.874525058499898e+00	 3.509337323497290e+00
 1.064651907526910e+00	 1.884803919498182e+00	 3.487416837356445e+00
 1.046582492047341e+00	 1.894896952339820e+00	 3.459222828254642e+00
 1.028441974379181e+00	 1.904803489277268e+00	 3.426113600642232e+00
 1.010233174511215e+00	 1.914522918129752e+00	 3.389388352452869e+00
 9.919589157083232e-01	 1.924054682186347e+00	 3.350293126101398e+00
 9.736220231811357e-01	 1.933398280071347e+00	 3.310026957040803e+00
 9.552253227658015e-01	 1.942553265572416e+00	 3.269748077554440e+00
 9.367716396150375e-01	 1.951519247432082e+00	 3.230580040425406e+00
 1.122963869252066e+00	 1.860967030858012e+00	 3.404304152147540e+00
 1.105051917329954e+00	 1.871658723227098e+00	 3.390438262551004e+00
 1.087060112190651e+00	 1.882165338547391e+00	 3.373404014076174e+00
 1.068991267350623e+00	 1.892486094625017e+00	 3.355112519211147e+00
 1.050848203671780e+00	 1.902620265138577e+00	 3.335923584443080e+00
 1.032633748002613e+00	 1.912567179618902e+00	 3.316103629984491e+00
 1.014350731825765e+00	 1.922326223390080e+00	 3.295833707867649e+00
 9.960019899133274e-01	 1.931896837472129e+00	 3.275217871588301e+00
 9.775903589910730e-01	 1.941278518445825e+00	 3.254291740350685e+00
 9.591186764128414e-01	 1.950470818280153e+00	 3.233031107142299e+00
 9.405897788462569e-01	 1.959473344122953e+00	 3.211360447147259e+00
 1.127522320240007e+00	 1.868521260544733e+00	 3.296197902826859e+00
 1.109537658271344e+00	 1.879256353736129e+00	 3.277288021907835e+00
 1.091472818937026e+00	 1.889805618594803e+00	 3.259594718062040e+00
 1.073330627174450e+00	 1.900168269751737e+00	 3.245328865950150e+00
 1.055113915296277e+00	 1.910343577937188e+00	 3.234090178972806e+00
 1.036825521626044e+00	 1.920330869960368e+00	 3.225362979448600e+00
 1.018468289140255e+00	 1.930129528650220e+00	 3.218526155650876e+00
 1.000045064118216e+00	 1.939738992757714e+00	 3.212863472662885e+00
 9.815586948008433e-01	 1.949158756820110e+00	 3.207574072072046e+00
 9.630120300596692e-01	 1.958388370987716e+00	 3.201783001975574e+00
 9.444079180772249e-01	 1.967427440813676e+00	 3.194551626363602e+00
 1.132080771228081e+00	 1.876075490231453e+00	 3.205129403902532e+00
 1.114023399212843e+00	 1.886853984245140e+00	 3.184678635993270e+00
 1.095885525683485e+00	 1.897445898642176e+00	 3.167903753679606e+00
 1.077669986998335e+00	 1.907850444878401e+00	 3.157520603446492e+00
 1.059379626920800e+00	 1.918066890735729e+00	 3.152729143045441e+00
 1.041017295249469e+00	 1.928094560301753e+00	 3.152537287324761e+00
 1.022585846454707e+00	 1.937932833910278e+00	 3.155833602739543e+00
 1.004088138323034e+00	 1.947581148043218e+00	 3.161399086137024e+00
 9.855270306105088e-01	 1.957038995194323e+00	 3.167919123807633e+00
 9.669053837063589e-01	 1.966305923695220e+00	 3.173995465201839e+00
 9.482260573080243e-01	 1.975381537504368e+00	 3.178158053618894e+00
 1.136639222216155e+00	 1.883629719918174e+00	 3.132525396518136e+00
 1.118509140154343e+00	 1.894451614754150e+00	 3.113070360754484e+00
 1.100298232429944e+00	 1.905086178689550e+00	 3.098330655159544e+00
 1.082009346822217e+00	 1.915532620005067e+00	 3.091156733628110e+00
 1.063645338545318e+00	 1.925790203534276e+00	 3.090868893754103e+00
 1.045209068872883e+00	 1.935858250643149e+00	 3.096300298434478e+00
 1.026703403769141e+00	 1.945736139170353e+00	 3.106156955786259e+00
 1.008131212527822e+00	 1.955423303328752e+00	 3.119030496689197e+00
 9.894953664201306e-01	 1.964919233568579e+00	 3.133411121202331e+00
 9.707987373529871e-01	 1.974223476402786e+00	 3.147700541858714e+00
 9.520441965387395e-01	 1.983335634195144e+00	 3.160224760059385e+00
 1.141197673204096e+00	 1.891183949604895e+00	 3.079775309204579e+00
 1.122994881095732e+00	 1.902049245263181e+00	 3.063153131437608e+00
 1.104710939176317e+00	 1.912726458736964e+00	 3.050879436074081e+00
 1.086348706646037e+00	 1.923214795131794e+00	 3.045719646970232e+00
 1.067911050169798e+00	 1.933513516332904e+00	 3.047558725146295e+00
 1.049400842496282e+00	 1.943621940984646e+00	 3.055352761865817e+00
 1.030820961083577e+00	 1.953539444430550e+00	 3.067928952342914e+00
 1.012174286732623e+00	 1.963265458614426e+00	 3.083998906933752e+00
 9.934637022297703e-01	 1.972799471942995e+00	 3.102172116984404e+00
 9.746920909996287e-01	 1.982141029110534e+00	 3.120969397611819e+00
 9.558623357694527e-01	 1.991289730886122e+00	 3.138836138221868e+00
 1.145756124191772e+00	 1.898738179291618e+00	 3.048232132312779e+00
 1.127480622036900e+00	 1.909646875772254e+00	 3.035611272719406e+00
 1.109123645922517e+00	 1.920366738784460e+00	 3.025557854551118e+00
 1.090688066469738e+00	 1.930896970258641e+00	 3.020704240881017e+00
 1.072176761794210e+00	 1.941236829131688e+00	 3.021867808497508e+00
 1.053592616119660e+00	 1.951385631326334e+00	 3.028421340570422e+00
 1.034938518398034e+00	 1.961342749690969e+00	 3.039613005921544e+00
 1.016217360937481e+00	 1.971107613900353e+00	 3.054579742778337e+00
 9.974320380394895e-01	 1.980679710317690e+00	 3.072360780132870e+00
 9.785854446463594e-01	 1.990058581818581e+00	 3.091911113915920e+00
 9.596804750002484e-01	 1.999243827577417e+00	 3.112114764033350e+00
 1.150314575179052e+00	 1.906292408978342e+00	 3.039213284339268e+00
 1.131966362977736e+00	 1.917244506281389e+00	 3.031104129112685e+00
 1.113536352668460e+00	 1.928007018832077e+00	 3.022356258104215e+00
 1.095027426293259e+00	 1.938579145385666e+00	 3.015617043816654e+00
 1.076442473418520e+00	 1.948960141930704e+00	 3.012884201539931e+00
 1.057784389743014e+00	 1.959149321668304e+00	 3.014257532493130e+00
 1.039056075712534e+00	 1.969146054951715e+00	 3.019702064547283e+00
 1.020260435142439e+00	 1.978949769186645e+00	 3.029081473645233e+00
 1.001400373849350e+00	 1.988559948692782e+00	 3.042171200723677e+00
 9.824787982932547e-01	 1.997976134527048e+00	 3.058671499143449e+00
 9.634986142312095e-01	 2.007197924269145e+00	 3.078220234571670e+00
 1.154873026165801e+00	 1.913846638665072e+00	 3.054001470368873e+00
 1.136452103918131e+00	 1.924842136790607e+00	 3.050266697315475e+00
 1.117949059414061e+00	 1.935647298879856e+00	 3.041210295968479e+00
 1.099366786116543e+00	 1.946261320512928e+00	 3.029975344967078e+00
 1.080708185042699e+00	 1.956683454730028e+00	 3.019713866398199e+00
 1.061976163366337e+00	 1.966913012010647e+00	 3.011636602915060e+00
 1.043173633027097e+00	 1.976949360212890e+00	 3.006717482430177e+00
 1.024303509347539e+00	 1.986791924473413e+00	 3.005844447145542e+00
 1.005368709659413e+00	 1.996440187068386e+00	 3.009831710020924e+00
 9.863721519403903e-01	 2.005893687236055e+00	 3.019431915238897e+00
 9.673167534624196e-01	 2.015152020961425e+00	 3.035348021151544e+00
 9.291353611515103e-01	 1.935611054049432e+00	 3.284443702772304e+00
 9.107752633221814e-01	 1.944317614944239e+00	 3.211844767133617e+00
 8.923642265648896e-01	 1.952836033922081e+00	 3.152247382268765e+00
 8.739050438238596e-01	 1.961166083376974e+00	 3.105388334340153e+00
 8.554005023379557e-01	 1.969307589065009e+00	 3.071078831571168e+00
 8.368533824140600e-01	 1.977260429726245e+00	 3.049207915091585e+00
 8.182664562179768e-01	 1.985024536674226e+00	 3.039745133300914e+00
 7.996424865837999e-01	 1.992599893353934e+00	 3.042742421573154e+00
 7.809842258426549e-01	 1.999986534868971e+00	 3.058335140417079e+00
 7.622944146716795e-01	 2.007184547478847e+00	 3.086742236622510e+00
 7.435757809640703e-01	 2.014194068067215e+00	 3.128265503362708e+00
 9.329535003834832e-01	 1.943565150740947e+00	 3.254247697142174e+00
 9.145179545487909e-01	 1.952307489911985e+00	 3.201684653421793e+00
 8.960312604604603e-01	 1.960860914025748e+00	 3.158710441354716e+00
 8.774962225398832e-01	 1.969225194540931e+00	 3.125439256649376e+00
 8.589156394796467e-01	 1.977400156497592e+00	 3.102045019128672e+00
 8.402923030118700e-01	 1.985385678137485e+00	 3.088764810547676e+00
 8.216289966941384e-01	 1.993181690491892e+00	 3.085901560166389e+00
 8.029284947139819e-01	 2.000788176937756e+00	 3.093825917612677e+00
 7.841935607128003e-01	 2.008205172722930e+00	 3.112977264217887e+00
 7.654269466301148e-01	 2.015432764461386e+00	 3.143863825784114e+00
 7.466313915689743e-01	 2.022471089599275e+00	 3.187061861545332e+00
 9.367716396150375e-01	 1.951519247432082e+00	 3.230580040425407e+00
 9.182606457749493e-01	 1.960297364879410e+00	 3.195681118314691e+00
 8.996982943555677e-01	 1.968885794129170e+00	 3.167685897703710e+00
 8.810874012554506e-01	 1.977284305704739e+00	 3.146923665651349e+00
 8.624307766209054e-01	 1.985492723930135e+00	 3.133771385072005e+00
 8.437312236092854e-01	 1.993510926548799e+00	 3.128657361219993e+00
 8.249915371699561e-01	 2.001338844309750e+00	 3.132064132319354e+00
 8.062145028438803e-01	 2.008976460521890e+00	 3.144530521328166e+00
 7.874028955827300e-01	 2.016423810577315e+00	 3.166652797857092e+00
 7.685594785884102e-01	 2.023680981444456e+00	 3.199084911425764e+00
 7.496870021738175e-01	 2.030748111131957e+00	 3.242537769433189e+00
 9.405897788462569e-01	 1.959473344122953e+00	 3.211360447147259e+00
 9.220033370007412e-01	 1.968287239846621e+00	 3.191805966047866e+00
 9.033653282502921e-01	 1.976910674232447e+00	 3.177212723186112e+00
 8.846785799706322e-01	 1.985343416868481e+00	 3.167964671553247e+00
 8.659459137617872e-01	 1.993585291362700e+00	 3.164484021716643e+00
 8.471701442063441e-01	 2.001636174960232e+00	 3.167235337897942e+00
 8.283540776454476e-01	 2.009495998127826e+00	 3.176728826747266e+00
 8.095005109734916e-01	 2.017164744106341e+00	 3.193522752998745e+00
 7.906122304524200e-01	 2.024642448432109e+00	 3.218224928632645e+00
 7.716920105465183e-01	 2.031929198428021e+00	 3.251493234748005e+00
 7.527426127785311e-01	 2.039025132665209e+00	 3.294035147958701e+00
 9.444079180772249e-01	 1.967427440813676e+00	 3.194551626363602e+00
 9.257460282262515e-01	 1.976277114813727e+00	 3.188073497440677e+00
 9.070323621447138e-01	 1.984935554335675e+00	 3.185371624913881e+00
 8.882697586854974e-01	 1.993402528032239e+00	 3.186726060596365e+00
 8.694610509023480e-01	 2.001677858795353e+00	 3.192448306355698e+00
 8.506090648030851e-01	 2.009761423371830e+00	 3.202886039973214e+00
 8.317166181206317e-01	 2.017653151946145e+00	 3.218426994416373e+00
 8.127865191028130e-01	 2.025353027691109e+00	 3.239501921647309e+00
 7.938215653218446e-01	 2.032861086287296e+00	 3.266586584966608e+00
 7.748245425043920e-01	 2.040177415412047e+00	 3.300202736911560e+00
 7.557982233830478e-01	 2.047302154198982e+00	 3.340918052781143e+00
 9.482260573080243e-01	 1.975381537504368e+00	 3.178158053618894e+00
 9.294887194515647e-01	 1.984266989780837e+00	 3.182539322391066e+00
 9.106993960389117e-01	 1.992960434438949e+00	 3.190283903302977e+00
 8.918609374001168e-01	 2.001461639196095e+00	 3.201411204328386e+00
 8.729761880426438e-01	 2.009770426228158e+00	 3.215967867988341e+00
 8.540479853995462e-01	 2.017886671783635e+00	 3.234033326466903e+00
 8.350791585955262e-01	 2.025810305764729e+00	 3.255724463028250e+00
 8.160725272318409e-01	 2.033541311276201e+00	 3.281199307537050e+00
 7.970309001909780e-01	 2.041079724142859e+00	 3.310659707223139e+00
 7.779570744619838e-01	 2.048425632396498e+00	 3.344352927319932e+00
 7.588538339872994e-01	 2.055579175733224e+00	 3.382572149730020e+00
 9.520441965387395e-01	 1.983335634195144e+00	 3.160224760059385e+00
 9.332314106767655e-01	 1.992256864748059e+00	 3.173299188987027e+00
 9.143664299329669e-01	 2.000985314542367e+00	 3.190110326092045e+00
 8.954521161145595e-01	 2.009520750360127e+00	 3.210261984034241e+00
 8.764913251827298e-01	 2.017862993661176e+00	 3.233383568256631e+00
 8.574869059957652e-01	 2.026011920195693e+00	 3.259136660147409e+00
 8.384416990701492e-01	 2.033967459583602e+00	 3.287220651567087e+00
 8.193585353605723e-01	 2.041729594861619e+00	 3.317377354961610e+00
 8.002402350597947e-01	 2.049298361998782e+00	 3.349394527111790e+00
 7.810896064192467e-01	 2.056673849381341e+00	 3.383108258553921e+00
 7.619094445912177e-01	 2.063856197267883e+00	 3.418404194727697e+00
 9.558623357694527e-01	 1.991289730886122e+00	 3.138836138221868e+00
 9.369741019019390e-01	 2.000246739715503e+00	 3.158487828770223e+00
 9.180334638269583e-01	 2.009010194646027e+00	 3.183050017871262e+00
 8.990432948288964e-01	 2.017579861524421e+00	 3.211557729901716e+00
 8.800064623226619e-01	 2.025955561094475e+00	 3.243072496193339e+00
 8.609258265917812e-01	 2.034137168608049e+00	 3.276690164372708e+00
 8.418042395445197e-01	 2.042124613402790e+00	 3.311547696307762e+00
 8.226445434890037e-01	 2.049917878447365e+00	 3.346828875041012e+00
 8.034495699282699e-01	 2.057516999855049e+00	 3.381768855436184e+00
 7.842221383761333e-01	 2.064922066366540e+00	 3.415657507772170e+00
 7.649650551947357e-01	 2.072133218802911e+00	 3.447841518066002e+00
 9.596804750002484e-01	 1.999243827577417e+00	 3.112114764033350e+00
 9.407167931271693e-01	 2.008236614683276e+00	 3.136277817701486e+00
 9.217004977209663e-01	 2.017035074750023e+00	 3.167339364688971e+00
 9.026344735431970e-01	 2.025638972689057e+00	 3.203614174511027e+00
 8.835215994624964e-01	 2.034048128528116e+00	 3.243446976396068e+00
 8.643647471876317e-01	 2.042262417020744e+00	 3.285221692302820e+00
 8.451667800186552e-01	 2.050281767222315e+00	 3.327369587965375e+00
 8.259305516171324e-01	 2.058106162033445e+00	 3.368376258244670e+00
 8.066589047963781e-01	 2.065735637711644e+00	 3.406787377955591e+00
 7.873546703325968e-01	 2.073170283352061e+00	 3.441213164397381e+00
 7.680206657977842e-01	 2.080410240338255e+00	 3.470331512915416e+00
 9.634986142312095e-01	 2.007197924269145e+00	 3.078220234571670e+00
 9.444594843525417e-01	 2.016226489651488e+00	 3.104878452392715e+00
 9.253675316150708e-01	 2.025059954854455e+00	 3.141250933318096e+00
 9.062256522575305e-01	 2.033698083854115e+00	 3.184782420251325e+00
 8.870367366022883e-01	 2.042140695962163e+00	 3.232953590255055e+00
 8.678036677833550e-01	 2.050387665433826e+00	 3.283291908138992e+00
 8.485293204925743e-01	 2.058438921042202e+00	 3.333381319677400e+00
 8.292165597449546e-01	 2.066294445619862e+00	 3.380870696371452e+00
 8.098682396640938e-01	 2.073954275568549e+00	 3.423480959134332e+00
 7.904872022885893e-01	 2.081418500337870e+00	 3.459010823913976e+00
 7.710762764002956e-01	 2.088687261873864e+00	 3.485341127949539e+00
 9.673167534624196e-01	 2.015152020961425e+00	 3.035348021151544e+00
 9.482021755781406e-01	 2.024216364620247e+00	 3.062534641182958e+00
 9.290345655093517e-01	 2.033084834959419e+00	 3.103092404776655e+00
 9.098168309719685e-01	 2.041757195019680e+00	 3.153447920278763e+00
 8.905518737420935e-01	 2.050233263396683e+00	 3.210072209873867e+00
 8.712425883789897e-01	 2.058512913847339e+00	 3.269493380057367e+00
 8.518918609662952e-01	 2.066596074862476e+00	 3.328308045518726e+00
 8.325025678724677e-01	 2.074482729206619e+00	 3.383191413725562e+00
 8.130775745313923e-01	 2.082172913425751e+00	 3.430905953560819e+00
 7.936197342440642e-01	 2.089666717323930e+00	 3.468308587608211e+00
 7.741318870022023e-01	 2.096964283409688e+00	 3.492356363971067e+00
 7.435757809640703e-01	 2.014194068067215e+00	 3.128265503362708e+00
 7.248342268985118e-01	 2.021014139864915e+00	 3.181362695362726e+00
 7.060692699719573e-01	 2.027646205539275e+00	 3.241609750064976e+00
 6.872835909877293e-01	 2.034090548863059e+00	 3.304409903350146e+00
 6.684798537193514e-01	 2.040347501804524e+00	 3.365298354958248e+00
 6.496607038978447e-01	 2.046417443866173e+00	 3.419937104943733e+00
 6.308287682241586e-01	 2.052300801400137e+00	 3.464090178722648e+00
 6.119866534072722e-01	 2.057998046901178e+00	 3.493602032582566e+00
 5.931369452284784e-01	 2.063509698278315e+00	 3.504379086669656e+00
 5.742822076323040e-01	 2.068836318106088e+00	 3.492374310936714e+00
 5.554249818444938e-01	 2.073978512856493e+00	 3.453574769478799e+00
 7.466313915689743e-01	 2.022471089599275e+00	 3.187061861545332e+00
 7.278128219621546e-01	 2.029319187435735e+00	 3.240497055406797e+00
 7.089707533238362e-01	 2.035978506566521e+00	 3.299384068422051e+00
 6.901078774736948e-01	 2.042449331930523e+00	 3.359373521496205e+00
 6.712268691316229e-01	 2.048731996860176e+00	 3.416202356226686e+00
 6.523303849008698e-01	 2.054826882417499e+00	 3.465747655159792e+00
 6.334210622764110e-01	 2.060734416706659e+00	 3.504000902391009e+00
 6.145015186790980e-01	 2.066455074164066e+00	 3.527045527205040e+00
 5.955743505160963e-01	 2.071989374827015e+00	 3.531037675833480e+00
 5.766421322680724e-01	 2.077337883581866e+00	 3.512190134272254e+00
 5.577074156035490e-01	 2.082501209392824e+00	 3.466759304480407e+00
 7.496870021738175e-01	 2.030748111131957e+00	 3.242537769433189e+00
 7.307914170258173e-01	 2.037624235007253e+00	 3.294637735782360e+00
 7.118722366758174e-01	 2.044310807594524e+00	 3.350364744376147e+00
 6.929321639598434e-01	 2.050808114998791e+00	 3.405746223884295e+00
 6.739738845441580e-01	 2.057116491916668e+00	 3.456835430914762e+00
 6.550000659042363e-01	 2.063236320969690e+00	 3.499835844018476e+00
 6.360133563290785e-01	 2.069168032014058e+00	 3.531074357927250e+00
 6.170163839514079e-01	 2.074912101427841e+00	 3.546977872145345e+00
 5.980117558042625e-01	 2.080469051376603e+00	 3.544053216980211e+00
 5.790020569044455e-01	 2.085839449058531e+00	 3.518870337332201e+00
 5.599898493632576e-01	 2.091023905930038e+00	 3.468048633355609e+00
 7.527426127785311e-01	 2.039025132665209e+00	 3.294035147958702e+00
 7.337700120894128e-01	 2.045929282579404e+00	 3.343369528322123e+00
 7.147737200277963e-01	 2.052643108623211e+00	 3.394389534068071e+00
 6.957564504460566e-01	 2.059166898067780e+00	 3.443598981247479e+00
 6.767208999568241e-01	 2.065500986973908e+00	 3.487480838159285e+00
 6.576697469077992e-01	 2.071645759522647e+00	 3.522675127062409e+00
 6.386056503820067e-01	 2.077601647322238e+00	 3.545950950728002e+00
 6.195312492240390e-01	 2.083369128692399e+00	 3.554182033424786e+00
 6.004491610928053e-01	 2.088948727926974e+00	 3.544325717372590e+00
 5.813619815412450e-01	 2.094341014535971e+00	 3.513405332278509e+00
 5.622722831234357e-01	 2.099546602468017e+00	 3.458495833752670e+00
 7.557982233830478e-01	 2.047302154198982e+00	 3.340918052781143e+00
 7.367486071528546e-01	 2.054234330152124e+00	 3.386291271380696e+00
 7.176752033796692e-01	 2.060975409652505e+00	 3.431304871023257e+00
 6.985807369322148e-01	 2.067525681137406e+00	 3.473006463481742e+00
 6.794679153694884e-01	 2.073885482031807e+00	 3.508420970568597e+00
 6.603394279114148e-01	 2.080055198076276e+00	 3.534733961139985e+00
 6.411979444350400e-01	 2.086035262631093e+00	 3.549262409222236e+00
 6.220461144968267e-01	 2.091826155957634e+00	 3.549429095445837e+00
 6.028865663815528e-01	 2.097428404478016e+00	 3.532740590711529e+00
 5.837219061782924e-01	 2.102842580014072e+00	 3.496768736912975e+00
 5.645547168838998e-01	 2.108069299006645e+00	 3.439135517088462e+00
 7.588538339872994e-01	 2.055579175733224e+00	 3.382572149730020e+00
 7.397272022160557e-01	 2.062539377725350e+00	 3.423016065748593e+00
 7.205766867313325e-01	 2.069307710682332e+00	 3.460966150337602e+00
 7.014050234181992e-01	 2.075884464207585e+00	 3.494047385671915e+00
 6.822149307820189e-01	 2.082269977090273e+00	 3.519937755268081e+00
 6.630091089149375e-01	 2.088464636630480e+00	 3.536476253268204e+00
 6.437902384880239e-01	 2.094468877940526e+00	 3.541632273973935e+00
 6.245609797696066e-01	 2.100283183223440e+00	 3.533478782388493e+00
 6.053239716703330e-01	 2.105908081029622e+00	 3.510169202518792e+00
 5.860818308154102e-01	 2.111344145492724e+00	 3.469917935384691e+00
 5.668371506444664e-01	 2.116591995545806e+00	 3.410984395572568e+00
 7.619094445912177e-01	 2.063856197267883e+00	 3.418404194727697e+00
 7.427057972789288e-01	 2.070844425299015e+00	 3.453168244498544e+00
 7.234781700826816e-01	 2.077640011712617e+00	 3.483238013053767e+00
 7.042293099038908e-01	 2.084243247278234e+00	 3.506804852408659e+00
 6.849619461942821e-01	 2.090654472149216e+00	 3.522313051513468e+00
 6.656787899182237e-01	 2.096874075185163e+00	 3.528361804525326e+00
 6.463825325408030e-01	 2.102902493250435e+00	 3.523676380471112e+00
 6.270758450422157e-01	 2.108740210489715e+00	 3.507079972153641e+00
 6.077613769589745e-01	 2.114387757581683e+00	 3.477469407140022e+00
 5.884417554524196e-01	 2.119845710971814e+00	 3.433794629812681e+00
 5.691195844049511e-01	 2.125114692085379e+00	 3.375041839671154e+00
 7.649650551947357e-01	 2.072133218802911e+00	 3.447841518066002e+00
 7.456843923413877e-01	 2.079149472873056e+00	 3.476393227094207e+00
 7.263796534336132e-01	 2.085972312743284e+00	 3.497994630722594e+00
 7.070535963891698e-01	 2.092602030349270e+00	 3.511366700444420e+00
 6.877089616061461e-01	 2.099038967208545e+00	 3.515829044967835e+00
 6.683484709211283e-01	 2.105283513740229e+00	 3.510846749112231e+00
 6.489748265932230e-01	 2.111336108560719e+00	 3.496003335777992e+00
 6.295907103144891e-01	 2.117197237756355e+00	 3.470971203061887e+00
 6.101987822473055e-01	 2.122867434134090e+00	 3.435486076602504e+00
 5.908016800891424e-01	 2.128347276451228e+00	 3.389325383077795e+00
 5.714020181651709e-01	 2.133637388625251e+00	 3.332290426278220e+00
 7.680206657977842e-01	 2.080410240338255e+00	 3.470331512915416e+00
 7.486629874033452e-01	 2.087454520447410e+00	 3.492376696757495e+00
 7.292811367840235e-01	 2.094304613774259e+00	 3.505119990144343e+00
 7.098778828739182e-01	 2.100960813420608e+00	 3.507825839734586e+00
 6.904559770174782e-01	 2.107423462268170e+00	 3.500768638735271e+00
 6.710181519235073e-01	 2.113692952295582e+00	 3.484383988717078e+00
 6.515671206451283e-01	 2.119769723871279e+00	 3.459214989221032e+00
 6.321055755862635e-01	 2.125654265023253e+00	 3.425881173509634e+00
 6.126361875351543e-01	 2.131347110686737e+00	 3.385051621554440e+00
 5.931616047254004e-01	 2.136848841930856e+00	 3.337422153029694e+00
 5.736844519249419e-01	 2.142160085165303e+00	 3.283696477852774e+00
 7.710762764002956e-01	 2.088687261873864e+00	 3.485341127949539e+00
 7.516415824647140e-01	 2.095759568022009e+00	 3.500821509588409e+00
 7.321826201338077e-01	 2.102636914805464e+00	 3.504508178284857e+00
 7.127021693580159e-01	 2.109319596492163e+00	 3.496280592908450e+00
 6.932029924281451e-01	 2.115807957328000e+00	 3.477415841241039e+00
 6.736878329252156e-01	 2.122102390851125e+00	 3.449423622313499e+00
 6.541594146963646e-01	 2.128203339182012e+00	 3.413906897274406e+00
 6.346204408573745e-01	 2.134111292290305e+00	 3.372529234777685e+00
 6.150735928223491e-01	 2.139826787239513e+00	 3.326986504505413e+00
 5.955215293610149e-01	 2.145350407410582e+00	 3.278982818347138e+00
 5.759668856840803e-01	 2.150682781705418e+00	 3.230210592772699e+00
 7.741318870022023e-01	 2.096964283409688e+00	 3.492356363971067e+00
 7.546201775254084e-01	 2.104064615596794e+00	 3.501445996742181e+00
 7.350841034828635e-01	 2.110969215836829e+00	 3.496063667361695e+00
 7.155264558413447e-01	 2.117678379563855e+00	 3.476835033213555e+00
 6.959500078380153e-01	 2.124192452387945e+00	 3.446056151045459e+00
 6.763575139261093e-01	 2.130511829406764e+00	 3.406413371518425e+00
 6.567517087467765e-01	 2.136636954492820e+00	 3.360668782805110e+00
 6.371353061276586e-01	 2.142568319557409e+00	 3.311625877181576e+00
 6.175109981087186e-01	 2.148306463792312e+00	 3.262099745580744e+00
 5.978814539958085e-01	 2.153851972890297e+00	 3.214891696282126e+00
 5.782493194424027e-01	 2.159205478245480e+00	 3.172768167147908e+00
 5.554249818444938e-01	 2.073978512856493e+00	 3.453574769478799e+00
 5.365677857747290e-01	 2.078936932563052e+00	 3.394993374931511e+00
 5.177131139377212e-01	 2.083712271364324e+00	 3.329108608301606e+00
 4.988634358408005e-01	 2.088305265324173e+00	 3.260097779449070e+00
 4.800211949505416e-01	 2.092716691142881e+00	 3.192092245340862e+00
 4.611888079513155e-01	 2.096947365305516e+00	 3.129168097923722e+00
 4.423686640326468e-01	 2.100998143217203e+00	 3.075339187198308e+00
 4.235631242055150e-01	 2.104869918326305e+00	 3.034552298741719e+00
 4.047745206477009e-01	 2.108563621236568e+00	 3.010684297568955e+00
 3.860051560782379e-01	 2.112080218809191e+00	 3.007541044552319e+00
 3.672573031609927e-01	 2.115420713255858e+00	 3.028845424800739e+00
 5.577074156035490e-01	 2.082501209392824e+00	 3.466759304480407e+00
 5.387727287791739e-01	 2.087480004964628e+00	 3.402211342681603e+00
 5.198405765604912e-01	 2.092274967288285e+00	 3.331220495471145e+00
 5.009134386029001e-01	 2.096886835452392e+00	 3.257847681828849e+00
 4.819937684140340e-01	 2.101316389348949e+00	 3.186099850340326e+00
 4.630839926092659e-01	 2.105564448818237e+00	 3.119921306872869e+00
 4.441865101961348e-01	 2.109631872780525e+00	 3.063187449164763e+00
 4.253036918878415e-01	 2.113519558355659e+00	 3.019700720500997e+00
 4.064378794458997e-01	 2.117228439971545e+00	 2.993188587128226e+00
 3.875913850520212e-01	 2.120759488462540e+00	 2.987303338275691e+00
 3.687664907092441e-01	 2.124113710158760e+00	 3.005621078757823e+00
 5.599898493632576e-01	 2.091023905930038e+00	 3.468048633355609e+00
 5.409776717843121e-01	 2.096023077367081e+00	 3.399431645762172e+00
 5.219680391839850e-01	 2.100837663213118e+00	 3.325677607086190e+00
 5.029634413657452e-01	 2.105468405581474e+00	 3.250616641054134e+00
 4.839663418782852e-01	 2.109916087555875e+00	 3.178015190112820e+00
 4.649791772679783e-01	 2.114181532331809e+00	 3.111568175993479e+00
 4.460043563603800e-01	 2.118265602344693e+00	 3.054893638866817e+00
 4.270442595709101e-01	 2.122169198385853e+00	 3.011529659796476e+00
 4.081012382448178e-01	 2.125893258707358e+00	 2.984933363520572e+00
 3.891776140264916e-01	 2.129438758116725e+00	 2.978481792696709e+00
 3.702756782581408e-01	 2.132806707062494e+00	 2.995474431790638e+00
 5.622722831234357e-01	 2.099546602468017e+00	 3.458495833752670e+00
 5.431826147899550e-01	 2.104566149770289e+00	 3.387740658918937e+00
 5.240955018080113e-01	 2.109400359138693e+00	 3.313570251791880e+00
 5.050134441291421e-01	 2.114049975711286e+00	 3.239470892371976e+00
 4.859389153430992e-01	 2.118515785763518e+00	 3.168853770389893e+00
 4.668743619272572e-01	 2.122798615846085e+00	 3.105048171190254e+00
 4.478222025251871e-01	 2.126899331909553e+00	 3.051297211902250e+00
 4.287848272545282e-01	 2.130818838416728e+00	 3.010755924745995e+00
 4.097645970442639e-01	 2.134558077443845e+00	 2.986491476492979e+00
 3.907638430014616e-01	 2.138118027771578e+00	 2.981485307103817e+00
 3.717848658075005e-01	 2.141499703966896e+00	 2.998636966367447e+00
 5.645547168838998e-01	 2.108069299006645e+00	 3.439135517088462e+00
 5.453875577959152e-01	 2.113109222174130e+00	 3.368205173588607e+00
 5.262229644323784e-01	 2.117963055064880e+00	 3.295968591668322e+00
 5.070634468928970e-01	 2.122631545841692e+00	 3.225456491815014e+00
 4.879114888082811e-01	 2.127115483971733e+00	 3.159611392119844e+00
 4.687695465869067e-01	 2.131415699360915e+00	 3.101282011283145e+00
 4.496400486903603e-01	 2.135533061474950e+00	 3.053220293674628e+00
 4.305253949385014e-01	 2.139468478448124e+00	 3.018080845042825e+00
 4.114279558440475e-01	 2.143222896180841e+00	 2.998422559491147e+00
 3.923500719767436e-01	 2.146797297426934e+00	 2.996712212247965e+00
 3.732940533571398e-01	 2.150192700871797e+00	 3.015329788516051e+00
 5.668371506444664e-01	 2.116591995545806e+00	 3.410984395572568e+00
 5.475925008020039e-01	 2.121652294578479e+00	 3.341872961715992e+00
 5.283504270568947e-01	 2.126525750991552e+00	 3.273923193336929e+00
 5.091134496568157e-01	 2.131213115972555e+00	 3.209599845555072e+00
 4.898840622736351e-01	 2.135715182180379e+00	 3.151264650489330e+00
 4.706647312467312e-01	 2.140032782876150e+00	 3.101172128581523e+00
 4.514578948557051e-01	 2.144166791040728e+00	 3.061468093868073e+00
 4.322659626226364e-01	 2.148118118479883e+00	 3.034190633142800e+00
 4.130913146439771e-01	 2.151887714918184e+00	 3.021273330834088e+00
 3.939363009521499e-01	 2.155476567082625e+00	 3.024550505242647e+00
 3.748032409068762e-01	 2.158885697777032e+00	 3.045764217508205e+00
 5.691195844049511e-01	 2.125114692085379e+00	 3.375041839671154e+00
 5.497974438080334e-01	 2.130195366983215e+00	 3.309773329778261e+00
 5.304778896813690e-01	 2.135088446918580e+00	 3.248465569283093e+00
 5.111634524207040e-01	 2.139794686103742e+00	 3.192908229713300e+00
 4.918566357389663e-01	 2.144314880389316e+00	 3.144771424861899e+00
 4.725599159065345e-01	 2.148649866391642e+00	 3.105603121043886e+00
 4.532757410210260e-01	 2.152800520606734e+00	 3.076829313373827e+00
 4.340065303067395e-01	 2.156767758511844e+00	 3.059756738955786e+00
 4.147546734438620e-01	 2.160552533655709e+00	 3.055577889620635e+00
 3.955225299274938e-01	 2.164155836738488e+00	 3.065378080586891e+00
 3.763124284565266e-01	 2.167578694682433e+00	 3.090144327116406e+00
 5.714020181651709e-01	 2.133637388625251e+00	 3.332290426278220e+00
 5.520023868138153e-01	 2.138738439388215e+00	 3.272917663290082e+00
 5.326053523056095e-01	 2.143651142845835e+00	 3.220608709668877e+00
 5.132134551843687e-01	 2.148376256235116e+00	 3.176370300893926e+00
 4.938292092040790e-01	 2.152914578598399e+00	 3.141071359887100e+00
 4.744551005661213e-01	 2.157266949907243e+00	 3.115442196258455e+00
 4.550935871861274e-01	 2.161434250172813e+00	 3.100076543879743e+00
 4.357470979906173e-01	 2.165417398543849e+00	 3.095436198223208e+00
 4.164180322435109e-01	 2.169217352393255e+00	 3.101858006515114e+00
 3.971087589025871e-01	 2.172835106394356e+00	 3.119562957419759e+00
 3.778216160059087e-01	 2.176271691587835e+00	 3.148667112644518e+00
 5.736844519249419e-01	 2.142160085165303e+00	 3.283696477852774e+00
 5.542073298191618e-01	 2.147281511793357e+00	 3.232299962054943e+00
 5.347328149294247e-01	 2.152213838773188e+00	 3.191347604900485e+00
 5.152634579476149e-01	 2.156957826366540e+00	 3.160956597699764e+00
 4.958017826687779e-01	 2.161514276807488e+00	 3.141086338026365e+00
 4.763502852252953e-01	 2.165884033422805e+00	 3.131539607472444e+00
 4.569114333508149e-01	 2.170067979738812e+00	 3.131966660327147e+00
 4.374876656740759e-01	 2.174067038575736e+00	 3.141871974757340e+00
 4.180813910427328e-01	 2.177882171130657e+00	 3.160623409554739e+00
 3.986949878772429e-01	 2.181514376050062e+00	 3.187463503111062e+00
 3.793308035548391e-01	 2.184964688493071e+00	 3.221522646946025e+00
 5.759668856840803e-01	 2.150682781705418e+00	 3.230210592772699e+00
 5.564122728238846e-01	 2.155824584198517e+00	 3.188897366419055e+00
 5.368602775526230e-01	 2.160776534700510e+00	 3.161659759206998e+00
 5.173134607102493e-01	 2.165539396497882e+00	 3.147620033479789e+00
 4.977743561328677e-01	 2.170113975016440e+00	 3.145720943733646e+00
 4.782454698838611e-01	 2.174501116938178e+00	 3.154729081890494e+00
 4.587292795148928e-01	 2.178701709304576e+00	 3.173241206432638e+00
 4.392282333569216e-01	 2.182716678607349e+00	 3.199693296712864e+00
 4.197447498413371e-01	 2.186546989867752e+00	 3.232372065116955e+00
 4.002812168512736e-01	 2.190193645705442e+00	 3.269428653290282e+00
 3.808399911031353e-01	 2.193657685397974e+00	 3.308894234298516e+00
 5.782493194424027e-01	 2.159205478245480e+00	 3.172768167147908e+00
 5.586172158277957e-01	 2.164367656603575e+00	 3.143670674776720e+00
 5.389877401750129e-01	 2.169339230627673e+00	 3.132505695478713e+00
 5.193634634720780e-01	 2.174120966629006e+00	 3.137296380550938e+00
 4.997469295961534e-01	 2.178713673225113e+00	 3.155862919521253e+00
 4.801406545416229e-01	 2.183118200453216e+00	 3.185828241456039e+00
 4.605471256781661e-01	 2.187335438869950e+00	 3.224626773466869e+00
 4.409688010389614e-01	 2.191366318638528e+00	 3.269515987055306e+00
 4.214081086391326e-01	 2.195211808604377e+00	 3.317590454180331e+00
 4.018674458244917e-01	 2.198872915360329e+00	 3.365798128411702e+00
 3.823491786506145e-01	 2.202350682302378e+00	 3.410958562193503e+00
 3.672573031609927e-01	 2.115420713255858e+00	 3.028845424800739e+00
 3.485300236178633e-01	 2.118586664291156e+00	 3.063293412512388e+00
 3.298287227551172e-01	 2.121578558452605e+00	 3.096413155166111e+00
 3.111555856978455e-01	 2.124397497505492e+00	 3.126738475781654e+00
 2.925127652964016e-01	 2.127044614912394e+00	 3.152851687468134e+00
 2.739023816741177e-01	 2.129521074894057e+00	 3.173392113318243e+00
 2.553265218037148e-01	 2.131828071486968e+00	 3.187061495979988e+00
 2.367872391122023e-01	 2.133966827598550e+00	 3.192626652524475e+00
 2.182865531140267e-01	 2.135938594060838e+00	 3.188919724126335e+00
 1.998264490722119e-01	 2.137744648683531e+00	 3.174836362054397e+00
 1.814088776871944e-01	 2.139386295307245e+00	 3.149332181692563e+00
 3.687664907092441e-01	 2.124113710158760e+00	 3.005621078757823e+00
 3.499622542837598e-01	 2.127292671184187e+00	 3.036985529375639e+00
 3.311841032941045e-01	 2.130296860075696e+00	 3.067070565629203e+00
 3.124342318447953e-01	 2.133127383126118e+00	 3.094528112094719e+00
 2.937148016329827e-01	 2.135785378455830e+00	 3.118067891672807e+00
 2.750279414943093e-01	 2.138272015069765e+00	 3.136464620984078e+00
 2.563757469775800e-01	 2.140588491911129e+00	 3.148562050586763e+00
 2.377602799480368e-01	 2.142736036912699e+00	 3.153274217210441e+00
 2.191835682190007e-01	 2.144715906046622e+00	 3.149584268751088e+00
 2.006476052116190e-01	 2.146529382373564e+00	 3.136541214359543e+00
 1.821543496424223e-01	 2.148177775092080e+00	 3.113254941742830e+00
 3.702756782581408e-01	 2.132806707062494e+00	 2.995474431790637e+00
 3.513944849502517e-01	 2.135998678078050e+00	 3.024786051316195e+00
 3.325394838336322e-01	 2.139015161699623e+00	 3.052316639157146e+00
 3.137128779922275e-01	 2.141857268747582e+00	 3.076901615337774e+00
 2.949168379699886e-01	 2.144526142000098e+00	 3.097445749767807e+00
 2.761535013148728e-01	 2.147022955246298e+00	 3.112928862639669e+00
 2.574249721517711e-01	 2.149348912336103e+00	 3.122408324961465e+00
 2.387333207841614e-01	 2.151505246227644e+00	 3.125018738425027e+00
 2.200805833242426e-01	 2.153493218033174e+00	 3.119969166995911e+00
 2.014687613512880e-01	 2.155314116064326e+00	 3.106538283789309e+00
 1.828998215979255e-01	 2.156969254877594e+00	 3.084067786130121e+00
 3.717848658075005e-01	 2.141499703966896e+00	 2.998636966367447e+00
 3.528267156171620e-01	 2.144704684972582e+00	 3.026750814711892e+00
 3.338948643735288e-01	 2.147733463324223e+00	 3.052062215255858e+00
 3.149915241399771e-01	 2.150587154369724e+00	 3.073654388066618e+00
 2.961188743072615e-01	 2.153266905545051e+00	 3.090694126094401e+00
 2.772790611356556e-01	 2.155773895423519e+00	 3.102435399944117e+00
 2.584741973261407e-01	 2.158109332761764e+00	 3.108220148058825e+00
 2.397063616204330e-01	 2.160274455543267e+00	 3.107476214151472e+00
 2.209775984296113e-01	 2.162270530020390e+00	 3.099712816331114e+00
 2.022899174910786e-01	 2.164098849755733e+00	 3.084513923119509e+00
 1.836452935535623e-01	 2.165760734663722e+00	 3.061529900418070e+00
 3.732940533571398e-01	 2.150192700871797e+00	 3.015329788516051e+00
 3.542589462843137e-01	 2.153410691867619e+00	 3.042931367650593e+00
 3.352502449136233e-01	 2.156451764949333e+00	 3.066216784373449e+00
 3.162701702878793e-01	 2.159317039992388e+00	 3.084582858254017e+00
 2.973209106446425e-01	 2.162007669090537e+00	 3.097524737633715e+00
 2.784046209565056e-01	 2.164524835601285e+00	 3.104638944949961e+00
 2.595234225005417e-01	 2.166869753187978e+00	 3.105622285543325e+00
 2.406794024567081e-01	 2.169043664859453e+00	 3.100267872217109e+00
 2.218746135349662e-01	 2.171047842008172e+00	 3.088458662475134e+00
 2.031110736308507e-01	 2.172883583447700e+00	 3.070158895669864e+00
 1.843907655091911e-01	 2.174552214450399e+00	 3.045403805668505e+00
 3.748032409068762e-01	 2.158885697777032e+00	 3.045764217508205e+00
 3.556911769515290e-01	 2.162116698762993e+00	 3.073374980133147e+00
 3.366056254537447e-01	 2.165170066574794e+00	 3.094688450944832e+00
 3.175488164357699e-01	 2.168046925615417e+00	 3.109484405087236e+00
 2.985229469819736e-01	 2.170748432636406e+00	 3.117652052209949e+00
 2.795301807772702e-01	 2.173275775779456e+00	 3.119198240102943e+00
 2.605726476748265e-01	 2.175630173614619e+00	 3.114244310712293e+00
 2.416524432928432e-01	 2.177812874176085e+00	 3.103020040999580e+00
 2.227716286401662e-01	 2.179825153996416e+00	 3.085855078474755e+00
 2.039322297704642e-01	 2.181668317140143e+00	 3.063168271078101e+00
 1.851362374646701e-01	 2.183343694237561e+00	 3.035455278956007e+00
 3.763124284565266e-01	 2.167578694682433e+00	 3.090144327116406e+00
 3.571234076186307e-01	 2.170822705658540e+00	 3.118124653428758e+00
 3.379610059937216e-01	 2.173888368200441e+00	 3.137383896818998e+00
 3.188274625834839e-01	 2.176776811238652e+00	 3.148157286129692e+00
 2.997249833190964e-01	 2.179489196182509e+00	 3.150793188796719e+00
 2.806557405977968e-01	 2.182026715957890e+00	 3.145775940848643e+00
 2.616218728488479e-01	 2.184390594041556e+00	 3.133720478300986e+00
 2.426254841286951e-01	 2.186582083493045e+00	 3.115364023068992e+00
 2.236686437450708e-01	 2.188602465985022e+00	 3.091555246560956e+00
 2.047533859097785e-01	 2.190453050832980e+00	 3.063241323481969e+00
 1.858817094198578e-01	 2.192135174025141e+00	 3.031453275722892e+00
 3.778216160059087e-01	 2.176271691587835e+00	 3.148667112644518e+00
 3.585556382854418e-01	 2.179528712554094e+00	 3.177219128606372e+00
 3.393163865333830e-01	 2.182606669826111e+00	 3.194208345058449e+00
 3.201061087308567e-01	 2.185506696861939e+00	 3.200400565808680e+00
 3.009270196558527e-01	 2.188229959728696e+00	 3.196667819867831e+00
 2.817813004179333e-01	 2.190777656136448e+00	 3.184038500773055e+00
 2.626710980224587e-01	 2.193151014468659e+00	 3.163689601089195e+00
 2.435985249641205e-01	 2.195351292810219e+00	 3.136935971683904e+00
 2.245656588495387e-01	 2.197379777973890e+00	 3.105217042702541e+00
 2.055745420486539e-01	 2.199237784526123e+00	 3.070081432041828e+00
 1.866271813746121e-01	 2.200926653813077e+00	 3.033169853923149e+00
 3.793308035548391e-01	 2.184964688493071e+00	 3.221522646946025e+00
 3.599878689517845e-01	 2.188234719449488e+00	 3.250692894265080e+00
 3.406717670725579e-01	 2.191324971451645e+00	 3.265065524100340e+00
 3.213847548777234e-01	 2.194236582485119e+00	 3.266014045192037e+00
 3.021290559920838e-01	 2.196970723274818e+00	 3.254998075735434e+00
 2.829068602375269e-01	 2.199528596314987e+00	 3.233656059206548e+00
 2.637203231955114e-01	 2.201911434895801e+00	 3.203794929231419e+00
 2.445715657989760e-01	 2.204120502127490e+00	 3.167376770061705e+00
 2.254626739534294e-01	 2.206157089962917e+00	 3.126502923782572e+00
 2.063956981869499e-01	 2.208022518219492e+00	 3.083395983738722e+00
 1.873726533287917e-01	 2.209718133601299e+00	 3.040380099905539e+00
 3.808399911031353e-01	 2.193657685397974e+00	 3.308894234298516e+00
 3.614200996174822e-01	 2.196940726344560e+00	 3.338576193485774e+00
 3.420271476110751e-01	 2.200043273076879e+00	 3.349857632269265e+00
 3.226634010239198e-01	 2.202966468108035e+00	 3.344798193018149e+00
 3.033310923276318e-01	 2.205711486820724e+00	 3.325508450820483e+00
 2.840324200564257e-01	 2.208279536493369e+00	 3.294302331222868e+00
 2.647695483678589e-01	 2.210671855322849e+00	 3.253684032234799e+00
 2.455446066331181e-01	 2.212889711444741e+00	 3.206331913346381e+00
 2.263596890566018e-01	 2.214934401952002e+00	 3.155079817324829e+00
 2.072168543245263e-01	 2.216807251913000e+00	 3.102896278384636e+00
 1.881181252822547e-01	 2.218509613389748e+00	 3.052862055987530e+00
 3.823491786506145e-01	 2.202350682302378e+00	 3.410958562193503e+00
 3.628523302823573e-01	 2.205646733239143e+00	 3.440895030025445e+00
 3.433825281487635e-01	 2.208761574701650e+00	 3.448485302632010e+00
 3.239420471692807e-01	 2.211696353730531e+00	 3.436554077944614e+00
 3.045331286623382e-01	 2.214452250366265e+00	 3.407925711802164e+00
 2.851579798744769e-01	 2.217030476671454e+00	 3.365654499967063e+00
 2.658187735393538e-01	 2.219432275749678e+00	 3.313008683512018e+00
 2.465176474664039e-01	 2.221658920761856e+00	 3.253451393199175e+00
 2.272567041589152e-01	 2.223711713941045e+00	 3.190600042181018e+00
 2.080380104612432e-01	 2.225591985606564e+00	 3.128220430537715e+00
 1.888635972348596e-01	 2.227301093178355e+00	 3.070260982659106e+00
 1.814088776871944e-01	 2.139386295307245e+00	 3.149332181692563e+00
 1.630388668134021e-01	 2.140864625246658e+00	 3.121095110072006e+00
 1.447151263019822e-01	 2.142181283527937e+00	 3.098687947004517e+00
 1.264394588533794e-01	 2.143337645286587e+00	 3.080966358210188e+00
 1.082136327957438e-01	 2.144335107886604e+00	 3.066818890603070e+00
 9.003938190143806e-02	 2.145175090000602e+00	 3.055158675132976e+00
 7.191840522812755e-02	 2.145859030694298e+00	 3.044915130663628e+00
 5.385236698404491e-02	 2.146388388516030e+00	 3.035025896299092e+00
 3.584289641700417e-02	 2.146764640591973e+00	 3.024429201531796e+00
 1.789158772672358e-02	 2.146989281727696e+00	 3.012056865218151e+00
 0.000000000000000e+00	 2.147063823516666e+00	 2.996828095688544e+00
 1.821543496424223e-01	 2.148177775092080e+00	 3.113254941742830e+00
 1.637088500270271e-01	 2.149662180001442e+00	 3.088529940414346e+00
 1.453098109149132e-01	 2.150984248887804e+00	 3.070647409446745e+00
 1.269590424144496e-01	 2.152145362537580e+00	 3.058025564680070e+00
 1.086583201204632e-01	 2.153146924057020e+00	 3.049124300911109e+00
 9.040938492999151e-02	 2.153990357948556e+00	 3.042435985788936e+00
 7.221394288272016e-02	 2.154677109191527e+00	 3.036476278362051e+00
 5.407366502569354e-02	 2.155208642327952e+00	 3.029775206394051e+00
 3.599018730187295e-02	 2.155586440554033e+00	 3.020868717961894e+00
 1.796511046209908e-02	 2.155812004818010e+00	 3.008290903914213e+00
 0.000000000000000e+00	 2.155886852925016e+00	 2.990567068500009e+00
 1.828998215979255e-01	 2.156969254877594e+00	 3.084067786130121e+00
 1.643788332409611e-01	 2.158459734756845e+00	 3.061566515721537e+00
 1.459044955281991e-01	 2.159787214248219e+00	 3.047070062602659e+00
 1.274786259759230e-01	 2.160953079789044e+00	 3.038559204264643e+00
 1.091030074456266e-01	 2.161958740227829e+00	 3.034063402434314e+00
 9.077938795901273e-02	 2.162805625896829e+00	 3.031650697600276e+00
 7.250948053777760e-02	 2.163495187689005e+00	 3.029417654141190e+00
 5.429496306776798e-02	 2.164028896140064e+00	 3.025479596924627e+00
 3.613747818708313e-02	 2.164408240516233e+00	 3.017961361065699e+00
 1.803863319767704e-02	 2.164634727908436e+00	 3.004988757016940e+00
 0.000000000000000e+00	 2.164709882333466e+00	 2.984680933314553e+00
 1.836452935535623e-01	 2.165760734663722e+00	 3.061529900418070e+00
 1.650488164550587e-01	 2.167257289512821e+00	 3.040035813899863e+00
 1.464991801416902e-01	 2.168590179609160e+00	 3.027832477142006e+00
 1.279982095376468e-01	 2.169760797040981e+00	 3.022463664545902e+00
 1.095476947710809e-01	 2.170770556399055e+00	 3.021527060060181e+00
 9.114939098835277e-02	 2.171620893845462e+00	 3.022663260570243e+00
 7.280501819316147e-02	 2.172313266186795e+00	 3.023544858205851e+00
 5.451626111014831e-02	 2.172849149952441e+00	 3.021865849235875e+00
 3.628476907254295e-02	 2.173230040478665e+00	 3.015331597451939e+00
 1.811215593340515e-02	 2.173457450999069e+00	 3.001649559831140e+00
 0.000000000000000e+00	 2.173532911742116e+00	 2.978520961831387e+00
 1.843907655091911e-01	 2.174552214450399e+00	 3.045403805668505e+00
 1.657187996691746e-01	 2.176054844269327e+00	 3.023771062940278e+00
 1.470938647552370e-01	 2.177393144970603e+00	 3.012812792792269e+00
 1.285177930994681e-01	 2.178568514293390e+00	 3.009636626537470e+00
 1.099923820966728e-01	 2.179582372570720e+00	 3.011407562661240e+00
 9.151939401786265e-02	 2.180436161794501e+00	 3.015336085957733e+00
 7.310055584873329e-02	 2.181131344684955e+00	 3.018666396295799e+00
 5.473755915271462e-02	 2.181669403765163e+00	 3.018665001536785e+00
 3.643205995816066e-02	 2.182051840441418e+00	 3.012609908758046e+00
 1.818567866923106e-02	 2.182280174090007e+00	 2.997780627218784e+00
 0.000000000000000e+00	 2.182355941151066e+00	 2.971449175465623e+00
 1.851362374646701e-01	 2.183343694237561e+00	 3.035455278956007e+00
 1.663887828831636e-01	 2.184852399026318e+00	 3.012607685728823e+00
 1.476885493686899e-01	 2.186196110332526e+00	 3.001890678756229e+00
 1.290373766612340e-01	 2.187376231546269e+00	 2.999977032105726e+00
 1.104370694222492e-01	 2.188394188742845e+00	 3.003598589005796e+00
 9.188939704739348e-02	 2.189251429743987e+00	 3.009533502257380e+00
 7.339609350435468e-02	 2.189949423183549e+00	 3.014593617412847e+00
 5.495885719534697e-02	 2.190489657578305e+00	 3.015612260153425e+00
 3.657935084384444e-02	 2.190873640404580e+00	 3.009432668313718e+00
 1.825920140510245e-02	 2.191102897181349e+00	 2.992897287666013e+00
 0.000000000000000e+00	 2.191178970560415e+00	 2.962838128923631e+00
 1.858817094198578e-01	 2.192135174025141e+00	 3.031453275722892e+00
 1.670587660968802e-01	 2.193649953783749e+00	 3.006383246134959e+00
 1.482832339818991e-01	 2.194999075694908e+00	 2.994947295049018e+00
 1.295569602227919e-01	 2.196183948799623e+00	 2.993385052154731e+00
 1.108817567476570e-01	 2.197206004915452e+00	 2.997995174477846e+00
 9.225940007679623e-02	 2.198066697693962e+00	 3.005121712233797e+00
 7.369163115988717e-02	 2.198767501682638e+00	 3.011140653044664e+00
 5.518015523792547e-02	 2.199309911391945e+00	 3.012446912917512e+00
 3.672664172950261e-02	 2.199695440368243e+00	 3.005442020772678e+00
 1.833272414096701e-02	 2.199925620273190e+00	 2.986522721343107e+00
 0.000000000000000e+00	 2.200001999970266e+00	 2.952070698986155e+00
 1.866271813746121e-01	 2.200926653813077e+00	 3.033169853923149e+00
 1.677287493101792e-01	 2.202447508541578e+00	 3.004937396342163e+00
 1.488779185947151e-01	 2.203802041057728e+00	 2.991865254729037e+00
 1.300765437839888e-01	 2.204991666053447e+00	 2.989762055553552e+00
 1.113264440727428e-01	 2.206017821088564e+00	 2.994493678583535e+00
 9.262940310592198e-02	 2.206881965644472e+00	 3.001968750980357e+00
 7.398716881519238e-02	 2.207585580182284e+00	 3.008124357843541e+00
 5.540145328033015e-02	 2.208130165206159e+00	 3.008912244630739e+00
 3.687393261504335e-02	 2.208517240332494e+00	 3.000285764629566e+00
 1.840624687677240e-02	 2.208748343365628e+00	 2.978187802045785e+00
 0.000000000000000e+00	 2.208825029380716e+00	 2.938539878353538e+00
 1.873726533287917e-01	 2.209718133601299e+00	 3.040380099905539e+00
 1.683987325229153e-01	 2.211245063299761e+00	 3.008111825386093e+00
 1.494726032069882e-01	 2.212605006420961e+00	 2.992528586997802e+00
 1.305961273446718e-01	 2.213799383307746e+00	 2.989010578785411e+00
 1.117711313973535e-01	 2.214829637262203e+00	 2.992991753222260e+00
 9.299940613462176e-02	 2.215697233595556e+00	 2.999944444974055e+00
 7.428270647013184e-02	 2.216403658682547e+00	 3.005364251719542e+00
 5.562275132244118e-02	 2.216950419021026e+00	 3.004755454546992e+00
 3.702122350037491e-02	 2.217339040297422e+00	 2.993617237541737e+00
 1.847976961246629e-02	 2.217571066458761e+00	 2.967430942909755e+00
 0.000000000000000e+00	 2.217648058791865e+00	 2.921648574412090e+00
 1.881181252822547e-01	 2.218509613389748e+00	 3.052862055987530e+00
 1.690687157349431e-01	 2.220042618058251e+00	 3.015750208866936e+00
 1.500672878185688e-01	 2.221407971784588e+00	 2.996822701144672e+00
 1.311157109046882e-01	 2.222607100562518e+00	 2.991033965017081e+00
 1.122158187213360e-01	 2.223641453436392e+00	 2.993385459380313e+00
 9.336940916274668e-02	 2.224512501547260e+00	 2.998913959038209e+00
 7.457824412456718e-02	 2.225221737183489e+00	 3.002669042232026e+00
 5.584404936413859e-02	 2.225770672836623e+00	 2.999699072439837e+00
 3.716851438540554e-02	 2.226160840263118e+00	 2.985039506415994e+00
 1.855329234799637e-02	 2.226393789552686e+00	 2.953701784867825e+00
 0.000000000000000e+00	 2.226471088203815e+00	 2.900662747150128e+00
 1.888635972348596e-01	 2.227301093178355e+00	 3.070260982659106e+00
 1.697386989461173e-01	 2.228840172817007e+00	 3.027526950643114e+00
 1.506619724293075e-01	 2.230210937148586e+00	 3.004457493800777e+00
 1.316352944638852e-01	 2.231414817817765e+00	 2.995577378347069e+00
 1.126605060445370e-01	 2.232453269611154e+00	 2.995441640926840e+00
 9.373941219014767e-02	 2.233327769499624e+00	 2.998622698308836e+00
 7.487378177835993e-02	 2.234039815685173e+00	 2.999698226748460e+00
 5.606534740530249e-02	 2.234590926653027e+00	 2.993239737160838e+00
 3.731580527004347e-02	 2.234982640229672e+00	 2.973801776297215e+00
 1.862681508331029e-02	 2.235216512647499e+00	 2.935911688412574e+00
 0.000000000000000e+00	 2.235294117616666e+00	 2.874059876318598e+00
 2.235294117616666e+00	 0.000000000000000e+00	 2.240179950371463e+01
 2.235216512647500e+00	 1.862681508330905e-02	 1.395416612014772e+01
 2.234982640229673e+00	 3.731580527004243e-02	 6.877377438120574e+00
 2.234590926653027e+00	 5.606534740530161e-02	 1.136044544139881e+00
 2.234039815685173e+00	 7.487378177835924e-02	-3.307965724776092e+00
 2.233327769499625e+00	 9.373941219014720e-02	-6.495566211951779e+00
 2.232453269611153e+00	 1.126605060445367e-01	-8.470481944571546e+00
 2.231414817817765e+00	 1.316352944638850e-01	-9.279279576308777e+00
 2.230210937148586e+00	 1.506619724293075e-01	-8.971393640716498e+00
 2.228840172817007e+00	 1.697386989461175e-01	-7.599149495250627e+00
 2.227301093178355e+00	 1.888635972348596e-01	-5.217782844815257e+00
 2.244117147030466e+00	 0.000000000000000e+00	 1.962885786813099e+01
 2.244039235743250e+00	 1.870033781837215e-02	 1.192583517889983e+01
 2.243804440197124e+00	 3.746309615422733e-02	 5.490264953356063e+00
 2.243411180470269e+00	 5.628664544585382e-02	 2.935879801772822e-01
 2.242857894187618e+00	 7.516931943142009e-02	-3.695507755581470e+00
 2.242143037452658e+00	 9.410941521672932e-02	-6.511131423368859e+00
 2.241265085786478e+00	 1.131051933668598e-01	-8.190230936270817e+00
 2.240222535073461e+00	 1.321548780221675e-01	-8.772631635500595e+00
 2.239013902512914e+00	 1.512566570391123e-01	-8.301071932285046e+00
 2.237637727575971e+00	 1.704086821563503e-01	-6.821235777041325e+00
 2.236092572967051e+00	 1.896090691865214e-01	-4.381781834402142e+00
 2.252940176445066e+00	 0.000000000000000e+00	 1.712062189147365e+01
 2.252861958839785e+00	 1.877386055322048e-02	 1.012863569054167e+01
 2.252626240165328e+00	 3.761038703802465e-02	 4.302789653872109e+00
 2.252231434288208e+00	 5.650794348588324e-02	-3.783922522345610e-01
 2.251675972690686e+00	 7.546485708385607e-02	-3.939263237902678e+00
 2.250958305406227e+00	 9.447941824261315e-02	-6.407110026386237e+00
 2.250076901962240e+00	 1.135498806884351e-01	-7.812206524758176e+00
 2.249030252329490e+00	 1.326744615796722e-01	-8.187864669840613e+00
 2.247816867877463e+00	 1.518513416481237e-01	-7.570482295241042e+00
 2.246435282335047e+00	 1.710786653657839e-01	-5.999587872785062e+00
 2.244884052755747e+00	 1.903545411373832e-01	-3.517881989910068e+00
 2.261763205860265e+00	 0.000000000000000e+00	 1.487666448799245e+01
 2.261684681936913e+00	 1.884738328790770e-02	 8.570264691538080e+00
 2.261448040134089e+00	 3.775767792153130e-02	 3.329141100247906e+00
 2.261051688106653e+00	 5.672924152552061e-02	-8.608518343798975e-01
 2.260494051194197e+00	 7.576039473582347e-02	-4.016976148856465e+00
 2.259773573360162e+00	 9.484942126797326e-02	-6.159681734860682e+00
 2.258888718138284e+00	 1.139945680094496e-01	-7.312675066598782e+00
 2.257837969585706e+00	 1.331940451365935e-01	-7.502985107313053e+00
 2.256619833242108e+00	 1.524460262565401e-01	-6.761026218093647e+00
 2.255232837094122e+00	 1.717486485746182e-01	-5.120657899096680e+00
 2.253675532544351e+00	 1.911000130876450e-01	-2.619241201106306e+00
 2.270586235275865e+00	 0.000000000000000e+00	 1.289656661742724e+01
 2.270507405034428e+00	 1.892090602248753e-02	 7.258300196542526e+00
 2.270269840103212e+00	 3.790496880484414e-02	 2.583288230082419e+00
 2.269871941925419e+00	 5.695053956489655e-02	-1.135043109499753e+00
 2.269312129697973e+00	 7.605593238747844e-02	-3.906737522178853e+00
 2.268588841314298e+00	 9.521942429298426e-02	-5.745398001761515e+00
 2.267700534314453e+00	 1.144392553300903e-01	-6.668273574534592e+00
 2.266645686841974e+00	 1.337136286931258e-01	-6.696343145365749e+00
 2.265422798606722e+00	 1.530407108645598e-01	-5.854396245202574e+00
 2.264030391853086e+00	 1.724186317830529e-01	-4.171110480332684e+00
 2.262467012332769e+00	 1.918454850375069e-01	-1.679125491123438e+00
 2.279409264691664e+00	 0.000000000000000e+00	 1.117991712930040e+01
 2.279330128132136e+00	 1.899442875701364e-02	 6.200203496567557e+00
 2.279091640072504e+00	 3.805225968806008e-02	 2.078983618717536e+00
 2.278692195744318e+00	 5.717183760414182e-02	-1.182509352708991e+00
 2.278130208201834e+00	 7.635147003897721e-02	-3.586978743574073e+00
 2.277404109268463e+00	 9.558942731782064e-02	-5.141174836072087e+00
 2.276512350490592e+00	 1.148839426505439e-01	-5.856002553106504e+00
 2.275453404098145e+00	 1.342332122494636e-01	-5.746626103184816e+00
 2.274225763971176e+00	 1.536353954723810e-01	-4.832570344107020e+00
 2.272827946611831e+00	 1.730886149912878e-01	-3.137818629551219e+00
 2.271258492120908e+00	 1.925909569871686e-01	-6.909069094979670e-01
 2.288232294107464e+00	 0.000000000000000e+00	 9.726312610811602e+00
 2.288152851229837e+00	 1.906795149153976e-02	 5.403321403991280e+00
 2.287913440041769e+00	 3.819955057127600e-02	 1.829767641407255e+00
 2.287512449563160e+00	 5.739313564338704e-02	-9.850791734369551e-01
 2.286948286705601e+00	 7.664700769047590e-02	-3.036465001102391e+00
 2.286219377222491e+00	 9.595943034265697e-02	-4.324285785758171e+00
 2.285324166666547e+00	 1.153286299709976e-01	-4.853218999860660e+00
 2.284261121354082e+00	 1.347527958058014e-01	-4.632851927541670e+00
 2.283028729335348e+00	 1.542300800802023e-01	-3.677806402877434e+00
 2.281625501370243e+00	 1.737585981995226e-01	-2.007859724402413e+00
 2.280049971908674e+00	 1.933364289368304e-01	 3.519385264931073e-01
 2.297055323523064e+00	 0.000000000000000e+00	 8.535357238238278e+00
 2.296975574327333e+00	 1.914147422611955e-02	 4.874888445829583e+00
 2.296735240010814e+00	 3.834684145458878e-02	 1.848972539583223e+00
 2.296332703381759e+00	 5.761443368276292e-02	-5.248610468297312e-01
 2.295766365209095e+00	 7.694254534213078e-02	-2.234288886438439e+00
 2.295034645176212e+00	 9.632943336766780e-02	-3.272355082337691e+00
 2.294135982842159e+00	 1.157733172916381e-01	-3.637629567686749e+00
 2.293068838609642e+00	 1.352723793623336e-01	-3.334362848084350e+00
 2.291831694699106e+00	 1.548247646882218e-01	-2.372636853994786e+00
 2.290423056128215e+00	 1.744285814079572e-01	-7.685115753970588e-01
 2.288841451695976e+00	 1.940819008866921e-01	 1.455832843495230e+00
 2.305878352938263e+00	 0.000000000000000e+00	 7.606662631747346e+00
 2.305798297424424e+00	 1.921499696080672e-02	 4.622029006659680e+00
 2.305557039979444e+00	 3.849413233809533e-02	 2.149726393784743e+00
 2.305152957199925e+00	 5.783573172240011e-02	 2.157620293405151e-01
 2.304584443712138e+00	 7.723808299409803e-02	-1.159864142958633e+00
 2.303849913129459e+00	 9.669943639302774e-02	-1.963350942724321e+00
 2.302947799017274e+00	 1.162180046126525e-01	-2.187283883972022e+00
 2.301876555864682e+00	 1.357919629192546e-01	-1.830819178069586e+00
 2.300634660062327e+00	 1.554194492966379e-01	-8.998634213677681e-01
 2.299220610885634e+00	 1.750985646167913e-01	 5.927514159212581e-01
 2.297632931482718e+00	 1.948273728369538e-01	 2.627098077998874e+00
 2.314701382352864e+00	 0.000000000000000e+00	 6.939847713527495e+00
 2.314621020520913e+00	 1.928851969565496e-02	 4.651759422537888e+00
 2.314378839947464e+00	 3.864142322189251e-02	 2.744957005744351e+00
 2.313973211017472e+00	 5.805702976242937e-02	 1.254137755608216e+00
 2.313402522214548e+00	 7.753362064653381e-02	 2.070804432592741e-01
 2.312665181082062e+00	 9.706943941891133e-02	-3.755790241474841e-01
 2.311759615191734e+00	 1.166626919342275e-01	-4.805680223876396e-01
 2.310684273119061e+00	 1.363115464767589e-01	-1.021932566554051e-01
 2.309437625424885e+00	 1.560141339056490e-01	 7.574480127974994e-01
 2.308018165642393e+00	 1.757685478262246e-01	 2.088262011298912e+00
 2.306424411268809e+00	 1.955728447878152e-01	 3.871958197741481e+00
 2.323524411766664e+00	 0.000000000000000e+00	 6.534538569154135e+00
 2.323443743616602e+00	 1.936204243071796e-02	 4.970990027215371e+00
 2.323200639914680e+00	 3.878871410607723e-02	 3.647395692043099e+00
 2.322793464834211e+00	 5.827832780298133e-02	 2.607349632835877e+00
 2.322220600716149e+00	 7.782915829959436e-02	 1.886507013324376e+00
 2.321480449033855e+00	 9.743944244549314e-02	 1.512323971919227e+00
 2.320571431365386e+00	 1.171073792565502e-01	 1.503801876750778e+00
 2.319491990372638e+00	 1.368311300350412e-01	 1.871236471008831e+00
 2.318240590786651e+00	 1.566088185154535e-01	 2.615972424460815e+00
 2.316815720398378e+00	 1.764385310364570e-01	 3.730163804915825e+00
 2.315215891054155e+00	 1.963183167394767e-01	 5.196540979772500e+00
 2.227301093178355e+00	 1.888635972348596e-01	-5.217782844815257e+00
 2.225591985606564e+00	 2.080380104612422e-01	-2.491570776334200e+00
 2.223711713941045e+00	 2.272567041589144e-01	-4.873649278758901e-02
 2.221658920761857e+00	 2.465176474664031e-01	 2.107888956578123e+00
 2.219432275749678e+00	 2.658187735393531e-01	 3.974378386715408e+00
 2.217030476671453e+00	 2.851579798744763e-01	 5.545257657989139e+00
 2.214452250366266e+00	 3.045331286623377e-01	 6.813521191726362e+00
 2.211696353730532e+00	 3.239420471692804e-01	 7.770694769808419e+00
 2.208761574701650e+00	 3.433825281487632e-01	 8.406798441637312e+00
 2.205646733239143e+00	 3.628523302823570e-01	 8.710311926750482e+00
 2.202350682302377e+00	 3.823491786506144e-01	 8.643980493592467e+00
 2.236092572967051e+00	 1.896090691865214e-01	-4.381781834402142e+00
 2.234376719300101e+00	 2.088591665970157e-01	-1.636472841051706e+00
 2.232489025929950e+00	 2.281537192602845e-01	 7.933419674786203e-01
 2.230428130078733e+00	 2.474906882987458e-01	 2.906042866085955e+00
 2.228192696176172e+00	 2.668679987099058e-01	 4.698886505255246e+00
 2.225781416849120e+00	 2.862835396915860e-01	 6.167959730307722e+00
 2.223193013911316e+00	 3.057351649961033e-01	 7.308133990353586e+00
 2.220426239352480e+00	 3.252206933137013e-01	 8.113084649131769e+00
 2.217479876325830e+00	 3.447379086855121e-01	 8.575310451276010e+00
 2.214352740133107e+00	 3.642845609462930e-01	 8.685696988637433e+00
 2.211043679206151e+00	 3.838583661971546e-01	 8.404657908335272e+00
 2.244884052755747e+00	 1.903545411373832e-01	-3.517881989910068e+00
 2.243161452993536e+00	 2.096803227319892e-01	-7.664269926326818e-01
 2.241266337918653e+00	 2.290507343608546e-01	 1.642541244288263e+00
 2.239197339395315e+00	 2.484637291302883e-01	 3.708026567393052e+00
 2.236953116602291e+00	 2.679172238796573e-01	 5.428168408065853e+00
 2.234532357026340e+00	 2.874090995078937e-01	 6.800200489455946e+00
 2.231933777455860e+00	 3.069372013290654e-01	 7.820409941809290e+00
 2.229156124973871e+00	 3.264993394573168e-01	 8.484096831038681e+00
 2.226198177949418e+00	 3.460932892214528e-01	 8.785534096599294e+00
 2.223058747026457e+00	 3.657167916094170e-01	 8.717927885806063e+00
 2.219736676109307e+00	 3.853675537428786e-01	 8.239407861894501e+00
 2.253675532544351e+00	 1.911000130876450e-01	-2.619241201106306e+00
 2.251946186686788e+00	 2.105014788663626e-01	 1.183574807655815e-01
 2.250043649907096e+00	 2.299477494608246e-01	 2.492571958742274e+00
 2.247966548711565e+00	 2.494367699612299e-01	 4.502438933147507e+00
 2.245713537028012e+00	 2.689664490488068e-01	 6.146457096245305e+00
 2.243283297203106e+00	 2.885346593235973e-01	 7.422552879576641e+00
 2.240674540999906e+00	 3.081392376614207e-01	 8.328046391804984e+00
 2.237886010594730e+00	 3.277779856003211e-01	 8.859617533956195e+00
 2.234916479572447e+00	 3.474486697567768e-01	 9.013272269822856e+00
 2.231764753919240e+00	 3.671490222719178e-01	 8.784309020044963e+00
 2.228429673011896e+00	 3.868767412879703e-01	 8.128336998194708e+00
 2.262467012332769e+00	 1.918454850375069e-01	-1.679125491123438e+00
 2.260730920379786e+00	 2.113226350003361e-01	 1.017673002296940e+00
 2.258820961895221e+00	 2.308447645603939e-01	 3.337241286710962e+00
 2.256735758027442e+00	 2.504098107917702e-01	 5.278066151057353e+00
 2.254473957453314e+00	 2.700156742175535e-01	 6.838489468924013e+00
 2.252034237379414e+00	 2.896602191388949e-01	 8.016683124919544e+00
 2.249415304543460e+00	 3.093412739933654e-01	 8.810623877266648e+00
 2.246615896215076e+00	 3.290566317429090e-01	 9.218068121382528e+00
 2.243634781194953e+00	 3.488040502916763e-01	 9.236526509685399e+00
 2.240470760811494e+00	 3.685812529339828e-01	 8.863238373236685e+00
 2.237122669913967e+00	 3.883859288326131e-01	 8.051430227364355e+00
 2.271258492120908e+00	 1.925909569871686e-01	-6.909069094979671e-01
 2.269515654072454e+00	 2.121437911341094e-01	 1.931313696794213e+00
 2.267598273882971e+00	 2.317417796597629e-01	 4.170451124257470e+00
 2.265504967342906e+00	 2.513828516221088e-01	 6.023867312364788e+00
 2.263234377878171e+00	 2.710648993860958e-01	 7.489238559009828e+00
 2.260785177555253e+00	 2.907857789539846e-01	 8.564541750632662e+00
 2.258156068086532e+00	 3.105433103250964e-01	 9.248040238115927e+00
 2.255345781834930e+00	 3.303352778852747e-01	 9.538269296940383e+00
 2.252353082816967e+00	 3.501594308263425e-01	 9.434021100097004e+00
 2.249176767703267e+00	 3.700134835958008e-01	 8.934329122202977e+00
 2.245815666815571e+00	 3.898951163769912e-01	 7.990203893010540e+00
 2.280049971908674e+00	 1.933364289368304e-01	 3.519385264931071e-01
 2.278300387764714e+00	 2.129649472678827e-01	 2.859075381897290e+00
 2.276375585870287e+00	 2.326387947591311e-01	 4.986196296138782e+00
 2.274274176657915e+00	 2.523558924524452e-01	 6.728971125010993e+00
 2.271994798302561e+00	 2.721141245546330e-01	 8.083909040538002e+00
 2.269536117730619e+00	 2.919113387690642e-01	 9.048358175893377e+00
 2.266896831629128e+00	 3.117453466568098e-01	 9.620504589694391e+00
 2.264075667454317e+00	 3.316139240276127e-01	 9.799370457745663e+00
 2.261071384438525e+00	 3.515148113609675e-01	 9.584811389800093e+00
 2.257882774594597e+00	 3.714457142575597e-01	 8.977383059618665e+00
 2.254508663716754e+00	 3.914043039212879e-01	 7.926526828686448e+00
 2.288841451695976e+00	 1.940819008866921e-01	 1.455832843495230e+00
 2.287085121456494e+00	 2.137861034018557e-01	 3.800755559919601e+00
 2.285152897857111e+00	 2.335358098586986e-01	 5.778562806226093e+00
 2.283043385972432e+00	 2.533289332829788e-01	 7.382672703286913e+00
 2.280755218726461e+00	 2.731633497233641e-01	 8.607932840407225e+00
 2.278287057905504e+00	 2.930368985843319e-01	 9.450635432613522e+00
 2.275637595171260e+00	 3.129473829887026e-01	 9.908531435192231e+00
 2.272805553073255e+00	 3.328925701701175e-01	 9.980843489024954e+00
 2.269789686059659e+00	 3.528701918957428e-01	 9.668277559190347e+00
 2.266588781485531e+00	 3.728779449194479e-01	 8.972352775354771e+00
 2.263201660617569e+00	 3.929134914656874e-01	 7.842548434765232e+00
 2.297632931482718e+00	 1.948273728369538e-01	 2.627098077998875e+00
 2.295869855147715e+00	 2.146072595362286e-01	 4.756153410434101e+00
 2.293930209843388e+00	 2.344328249586651e-01	 6.541726128721205e+00
 2.291812595286414e+00	 2.543019741139095e-01	 7.974430431920256e+00
 2.289515639149849e+00	 2.742125748924880e-01	 9.046964851706894e+00
 2.287037998079901e+00	 2.941624583999852e-01	 9.754145006355380e+00
 2.284378358712933e+00	 3.141494193209708e-01	 1.009293491433037e+01
 2.281535438691769e+00	 3.341712163129840e-01	 1.006247670241394e+01
 2.278507987680400e+00	 3.542255724308603e-01	 9.664118531591855e+00
 2.275294788376108e+00	 3.743101755816535e-01	 8.899864964530590e+00
 2.271894657518064e+00	 3.944226790103731e-01	 7.720693297423133e+00
 2.306424411268809e+00	 1.955728447878152e-01	 3.871958197741482e+00
 2.304654588838302e+00	 2.154284156712012e-01	 5.725069783559201e+00
 2.302707521829056e+00	 2.353298400592305e-01	 7.269949539081228e+00
 2.300581804599821e+00	 2.552750149454366e-01	 8.493862902614183e+00
 2.298276059572699e+00	 2.752618000622036e-01	 9.386878745924481e+00
 2.295788938253805e+00	 2.952880182162226e-01	 9.941921796198088e+00
 2.293119122254157e+00	 3.153514556538114e-01	 1.015482318466181e+01
 2.290265324309880e+00	 3.354498624564059e-01	 1.002436891410218e+01
 2.287226289300784e+00	 3.555809529665117e-01	 9.552346025132591e+00
 2.284000795266373e+00	 3.757424062443644e-01	 8.740862476113358e+00
 2.280587654418288e+00	 3.959318665555291e-01	 7.543655930182739e+00
 2.315215891054155e+00	 1.963183167394767e-01	 5.196540979772501e+00
 2.313439322528182e+00	 2.162495718069737e-01	 6.707307193925999e+00
 2.311484833814060e+00	 2.362268551605946e-01	 7.957582483595513e+00
 2.309351013912615e+00	 2.562480557777598e-01	 8.930745921110818e+00
 2.307036479994991e+00	 2.763110252327098e-01	 9.613762881404849e+00
 2.304539878427208e+00	 2.964135780332421e-01	 9.997259190391944e+00
 2.301859885794940e+00	 3.165534919874207e-01	 1.007559293196570e+01
 2.298995209927609e+00	 3.367285086005783e-01	 9.846923659108153e+00
 2.295944590920845e+00	 3.569363335028883e-01	 9.313278741483071e+00
 2.292706802156369e+00	 3.771746369077693e-01	 8.476579614257318e+00
 2.289280651318292e+00	 3.974410541013390e-01	 7.294395634759129e+00
 2.202350682302377e+00	 3.823491786506144e-01	 8.643980493592466e+00
 2.198872915360330e+00	 4.018674458244905e-01	 8.271243910623971e+00
 2.195211808604378e+00	 4.214081086391313e-01	 7.758892252585845e+00
 2.191366318638528e+00	 4.409688010389605e-01	 7.122325686520517e+00
 2.187335438869950e+00	 4.605471256781652e-01	 6.380277165900884e+00
 2.183118200453215e+00	 4.801406545416224e-01	 5.554856409761006e+00
 2.178713673225113e+00	 4.997469295961529e-01	 4.671588909743228e+00
 2.174120966629006e+00	 5.193634634720777e-01	 3.759449759736805e+00
 2.169339230627674e+00	 5.389877401750129e-01	 2.850892133687714e+00
 2.164367656603575e+00	 5.586172158277958e-01	 1.981870270450307e+00
 2.159205478245480e+00	 5.782493194424025e-01	 1.191856860073167e+00
 2.211043679206151e+00	 3.838583661971546e-01	 8.404657908335272e+00
 2.207552185014594e+00	 4.034536747967697e-01	 7.835613465847346e+00
 2.203876627340406e+00	 4.230714674359873e-01	 7.179159585615213e+00
 2.200015958669147e+00	 4.427093687200601e-01	 6.448888411313166e+00
 2.195969168434814e+00	 4.623649718404974e-01	 5.661327337296747e+00
 2.191735283967799e+00	 4.820358391984421e-01	 4.835978171683231e+00
 2.187313371433395e+00	 5.017195030584951e-01	 3.995351602007394e+00
 2.182702536759802e+00	 5.214134662329620e-01	 3.164996769583642e+00
 2.177901926554573e+00	 5.411152027964576e-01	 2.373525790245141e+00
 2.172910729008428e+00	 5.608221588307604e-01	 1.652633093084453e+00
 2.167728174785390e+00	 5.805317531997775e-01	 1.037109485024773e+00
 2.219736676109307e+00	 3.853675537428786e-01	 8.239407861894501e+00
 2.216231454668255e+00	 4.050399037682275e-01	 7.490904248058230e+00
 2.212541446075853e+00	 4.247348262320155e-01	 6.702309502419050e+00
 2.208665598699224e+00	 4.444499364003254e-01	 5.885620416377694e+00
 2.204602897999183e+00	 4.641828180019889e-01	 5.055361674716796e+00
 2.200352367481941e+00	 4.839310238544147e-01	 4.228619773477296e+00
 2.195913069641293e+00	 5.036920765199840e-01	 3.425072516002949e+00
 2.191284106890273e+00	 5.234634689929881e-01	 2.667013905379909e+00
 2.186464622481203e+00	 5.432426654170399e-01	 1.979374283705973e+00
 2.181453801413066e+00	 5.630271018328600e-01	 1.389735603274122e+00
 2.176250871325130e+00	 5.828141869562861e-01	 9.283417516758465e-01
 2.228429673011896e+00	 3.868767412879703e-01	 8.128336998194712e+00
 2.224910724321362e+00	 4.066261327390417e-01	 7.219995509429474e+00
 2.221206264810777e+00	 4.263981850273884e-01	 6.313582476517734e+00
 2.217315238728812e+00	 4.461905040799224e-01	 5.419910037964457e+00
 2.213236627563108e+00	 4.660006641627988e-01	 4.551763863259440e+00
 2.208969450995687e+00	 4.858262085096929e-01	 3.724005642759319e+00
 2.204512767848845e+00	 5.056646499807667e-01	 2.953660230329038e+00
 2.199865677020447e+00	 5.255134717522968e-01	 2.259935429929196e+00
 2.195027318407586e+00	 5.453701280368966e-01	 1.664237331571964e+00
 2.189996873817498e+00	 5.652320448342281e-01	 1.190181095889299e+00
 2.184773567864700e+00	 5.850966207120616e-01	 8.635971242282992e-01
 2.237122669913967e+00	 3.883859288326131e-01	 8.051430227364355e+00
 2.233589993973972e+00	 4.082123617093915e-01	 7.005306097035740e+00
 2.229871083545230e+00	 4.280615438222784e-01	 5.998066937409298e+00
 2.225964878757964e+00	 4.479310717590170e-01	 5.039272782433303e+00
 2.221870357126637e+00	 4.678185103230863e-01	 4.140105078431232e+00
 2.217586534509080e+00	 4.877213931644289e-01	 3.313518858759486e+00
 2.213112466056088e+00	 5.076372234409893e-01	 2.574155301433881e+00
 2.208447247150357e+00	 5.275634745110300e-01	 1.938303109653994e+00
 2.203590014333742e+00	 5.474975906561652e-01	 1.423999914055160e+00
 2.198539946221737e+00	 5.674369878349999e-01	 1.051038153945664e+00
 2.193296264404102e+00	 5.873790544672368e-01	 8.409666790220740e-01
 2.245815666815571e+00	 3.898951163769912e-01	 7.990203893010542e+00
 2.242269263626135e+00	 4.097985906794548e-01	 6.830375322048024e+00
 2.238535902279266e+00	 4.297249026168576e-01	 5.741048191924953e+00
 2.234614518786735e+00	 4.496716394377748e-01	 4.730882686864788e+00
 2.230504086689820e+00	 4.696363564830106e-01	 3.809720556177890e+00
 2.226203618022165e+00	 4.896165778187760e-01	 2.988592958485966e+00
 2.221712164263061e+00	 5.096097969007987e-01	 2.279727526358886e+00
 2.217028817280029e+00	 5.296134772693292e-01	 1.696763873814339e+00
 2.212152710259690e+00	 5.496250532749829e-01	 1.254630281822129e+00
 2.207083018625792e+00	 5.696419308353097e-01	 9.694389564393724e-01
 2.201818960943336e+00	 5.896614882219459e-01	 8.585876635682546e-01
 2.254508663716754e+00	 3.914043039212879e-01	 7.926526828686445e+00
 2.250948533277908e+00	 4.113848196494101e-01	 6.679325392987466e+00
 2.247200721012941e+00	 4.313882614112983e-01	 5.528757946535662e+00
 2.243264158815177e+00	 4.514122071163618e-01	 4.482793453506194e+00
 2.239137816252706e+00	 4.714542026427306e-01	 3.550133072273802e+00
 2.234820701534987e+00	 4.915117624728866e-01	 2.740210710539091e+00
 2.230311862469800e+00	 5.115823703603417e-01	 2.063191562163251e+00
 2.225610387409495e+00	 5.316634800273357e-01	 1.529968552217927e+00
 2.220715406185453e+00	 5.517525158934872e-01	 1.152177994089611e+00
 2.215626091029675e+00	 5.718468738352920e-01	 9.425776084601210e-01
 2.210341657482404e+00	 5.919439219763216e-01	 9.146420708866319e-01
 2.263201660617569e+00	 3.929134914656874e-01	 7.842548434765232e+00
 2.259627802929341e+00	 4.129710486194358e-01	 6.536524380188280e+00
 2.255865539746309e+00	 4.330516202057732e-01	 5.347648344540562e+00
 2.251913798843343e+00	 4.531527747949438e-01	 4.283404572539831e+00
 2.247771545815349e+00	 4.732720488024059e-01	 3.351550035043516e+00
 2.243437785047590e+00	 4.934069471269135e-01	 2.560107267982286e+00
 2.238911560676343e+00	 5.135549438197650e-01	 1.917355611196052e+00
 2.234191957538781e+00	 5.337134827851908e-01	 1.431820793930616e+00
 2.229278102111049e+00	 5.538799785118151e-01	 1.112262820205944e+00
 2.224169163433396e+00	 5.740518168350810e-01	 9.676621143122057e-01
 2.218864354021304e+00	 5.942263557304976e-01	 1.007355228735535e+00
 2.271894657518064e+00	 3.944226790103731e-01	 7.720693297423133e+00
 2.268307072580489e+00	 4.145572775897104e-01	 6.386581492965687e+00
 2.264530358479425e+00	 4.347149790004542e-01	 5.184380642489400e+00
 2.260563438871286e+00	 4.548933424736864e-01	 4.121294675279213e+00
 2.256405275377793e+00	 4.750898949621955e-01	 3.204330751048813e+00
 2.252054868560017e+00	 4.953021317810093e-01	 2.440283958188403e+00
 2.247511258882727e+00	 5.155275172792153e-01	 1.835720835531355e+00
 2.242773527667920e+00	 5.357634855430364e-01	 1.396961685415928e+00
 2.237840798036501e+00	 5.560074411301041e-01	 1.130061652103196e+00
 2.232712235836968e+00	 5.762567598348117e-01	 1.040790546441707e+00
 2.227387050560041e+00	 5.965087894846076e-01	 1.134611405029005e+00
 2.280587654418288e+00	 3.959318665555291e-01	 7.543655930182741e+00
 2.276986342231405e+00	 4.161435065604120e-01	 6.214342464235679e+00
 2.273195177212341e+00	 4.363783377955139e-01	 5.025821198830885e+00
 2.269213078899060e+00	 4.566339101527555e-01	 3.985218087179230e+00
 2.265039004940091e+00	 4.769077411222584e-01	 3.098982858139040e+00
 2.260671952072315e+00	 4.971973164353271e-01	 2.372865151850267e+00
 2.256110957088990e+00	 5.175000907388390e-01	 1.811889907892372e+00
 2.251355097796940e+00	 5.378134883010134e-01	 1.420331995525161e+00
 2.246403493961826e+00	 5.581349037484913e-01	 1.201690081696710e+00
 2.241255308240398e+00	 5.784617028346182e-01	 1.158659739126486e+00
 2.235909747098612e+00	 5.987912232387845e-01	 1.293105803879500e+00
 2.289280651318292e+00	 3.974410541013390e-01	 7.294395634759128e+00
 2.285665611882141e+00	 4.177297355317194e-01	 6.004885039730964e+00
 2.281859995945115e+00	 4.380416965911244e-01	 4.859037553337105e+00
 2.277862718926717e+00	 4.583744778323171e-01	 3.864101458702868e+00
 2.273672734502291e+00	 4.787255872827543e-01	 3.026159468409059e+00
 2.269289035584527e+00	 4.990925010900192e-01	 2.350095878112533e+00
 2.264710655295170e+00	 5.194726641987831e-01	 1.839563407051710e+00
 2.259936667925870e+00	 5.398634910592639e-01	 1.496949737539284e+00
 2.254966189887047e+00	 5.602623663671141e-01	 1.323343771518524e+00
 2.249798380643699e+00	 5.806666458346353e-01	 1.318501628686914e+00
 2.244432443637021e+00	 6.010736569931620e-01	 1.480812417553638e+00
 2.159205478245480e+00	 5.782493194424025e-01	 1.191856860073167e+00
 2.153851972890299e+00	 5.978814539958068e-01	 5.447761781903178e-01
 2.148306463792314e+00	 6.175109981087173e-01	 6.985679644912923e-02
 2.142568319557409e+00	 6.371353061276571e-01	-2.450299960529334e-01
 2.136636954492820e+00	 6.567517087467752e-01	-4.149855345530620e-01
 2.130511829406764e+00	 6.763575139261084e-01	-4.581236371153750e-01
 2.124192452387945e+00	 6.959500078380145e-01	-3.956076177917667e-01
 2.117678379563856e+00	 7.155264558413442e-01	-2.516840653041503e-01
 2.110969215836830e+00	 7.350841034828632e-01	-5.371296491945232e-02
 2.104064615596794e+00	 7.546201775254083e-01	 1.822002135377933e-01
 2.096964283409688e+00	 7.741318870022024e-01	 4.639355750055140e-01
 2.167728174785390e+00	 5.805317531997775e-01	 1.037109485024773e+00
 2.162353538369905e+00	 6.002413786296527e-01	 5.540701392327287e-01
 2.156786140345039e+00	 6.199484033941401e-01	 2.012397336533516e-01
 2.151025346824470e+00	 6.396501713970000e-01	-3.028281933504751e-02
 2.145070569803611e+00	 6.593440027962573e-01	-1.520108684591555e-01
 2.138921267962409e+00	 6.790271949260904e-01	-1.781100543728431e-01
 2.132576947447920e+00	 6.986970232470009e-01	-1.254361048619150e-01
 2.126037162635602e+00	 7.183507423238277e-01	-1.357000842541178e-02
 2.119301516868275e+00	 7.379855868311253e-01	 1.351498550824310e-01
 2.112369663171695e+00	 7.575987725853763e-01	 3.161470550495253e-01
 2.105241304945670e+00	 7.771874976034668e-01	 5.376581992691134e-01
 2.176250871325130e+00	 5.828141869562861e-01	 9.283417516758461e-01
 2.170855103849378e+00	 6.026013032626328e-01	 5.897598741322247e-01
 2.165265816897661e+00	 6.223858086787024e-01	 3.440034742545919e-01
 2.159482374091446e+00	 6.421650366654905e-01	 1.848178584686404e-01
 2.153504185114336e+00	 6.619362968449013e-01	 1.036914378808351e-01
 2.147330706518005e+00	 6.816968759252564e-01	 8.981618126478752e-02
 2.140961442507862e+00	 7.014440386552008e-01	 1.300497070689413e-01
 2.134395945707334e+00	 7.211750288055653e-01	 2.088793966874660e-01
 2.127633817899733e+00	 7.408870701786925e-01	 3.083911505844987e-01
 2.120674710746636e+00	 7.605773676447120e-01	 4.357086260717316e-01
 2.113518326481731e+00	 7.802431082041758e-01	 5.967115476033620e-01
 2.184773567864700e+00	 5.850966207120616e-01	 8.635971242282992e-01
 2.179356669328708e+00	 6.049612278948818e-01	 6.508291698080475e-01
 2.173745493450157e+00	 6.248232139625390e-01	 4.980416928650779e-01
 2.167939401358311e+00	 6.446799019332675e-01	 4.010525732139349e-01
 2.161937800424958e+00	 6.645285908928492e-01	 3.537732594166441e-01
 2.155740145073506e+00	 6.843665569237496e-01	 3.481703562196623e-01
 2.149345937567717e+00	 7.041910540627589e-01	 3.742282672587356e-01
 2.142754728778989e+00	 7.239993152866984e-01	 4.199132708918927e-01
 2.135966118931131e+00	 7.437885535257021e-01	 4.717635426893505e-01
 2.128979758321541e+00	 7.635559627035452e-01	 5.467823197668535e-01
 2.121795348017791e+00	 7.832987188044471e-01	 6.479093975766612e-01
 2.193296264404102e+00	 5.873790544672368e-01	 8.409666790220736e-01
 2.187858234807885e+00	 6.073211525265333e-01	 7.362930693361429e-01
 2.182225170002508e+00	 6.272606192457870e-01	 6.632632158137453e-01
 2.176396428625035e+00	 6.471947672004699e-01	 6.192010557640932e-01
 2.170371415735438e+00	 6.671208849402420e-01	 5.998697527523360e-01
 2.164149583628863e+00	 6.870362379217134e-01	 5.994350636858248e-01
 2.157730432627428e+00	 7.069380694698192e-01	 6.104291899827508e-01
 2.151113511850506e+00	 7.268236017673706e-01	 6.237154856908242e-01
 2.144298419962396e+00	 7.466900368722920e-01	 6.307169878091221e-01
 2.137284805896334e+00	 7.665345577620064e-01	 6.551635263207081e-01
 2.130072369553765e+00	 7.863543294043980e-01	 6.979488221312549e-01
 2.201818960943336e+00	 5.896614882219459e-01	 8.585876635682541e-01
 2.196359800286902e+00	 6.096810771577217e-01	 8.451966524075445e-01
 2.190704846554698e+00	 6.296980245285821e-01	 8.395910141293035e-01
 2.184853455891589e+00	 6.497096324672363e-01	 8.400414308138342e-01
 2.178805031045740e+00	 6.697131789872224e-01	 8.435987563677658e-01
 2.172559022184031e+00	 6.897059189192922e-01	 8.460598030673681e-01
 2.166114927686940e+00	 7.096850848765250e-01	 8.419330532925708e-01
 2.159472294921818e+00	 7.296478882477234e-01	 8.244046637191187e-01
 2.152630720993461e+00	 7.495915202186001e-01	 7.900919222694252e-01
 2.145589853470935e+00	 7.695131528202246e-01	 7.665474850923384e-01
 2.138349391089572e+00	 7.894099400041462e-01	 7.534123313271048e-01
 2.210341657482404e+00	 5.919439219763216e-01	 9.146420708866323e-01
 2.204861365765748e+00	 6.120410017885809e-01	 9.766138247749758e-01
 2.199184523106704e+00	 6.321354298110605e-01	 1.026961199372636e+00
 2.193310483157944e+00	 6.522244977337061e-01	 1.064349412551012e+00
 2.187238646355822e+00	 6.723054730339305e-01	 1.086560181743424e+00
 2.180968460738960e+00	 6.923755999166283e-01	 1.090460564413014e+00
 2.174499422746198e+00	 7.124321002830208e-01	 1.071971176838568e+00
 2.167831077992863e+00	 7.324721747278994e-01	 1.026034152285372e+00
 2.160963022024254e+00	 7.524930035647647e-01	 9.546440825909346e-01
 2.153894901045267e+00	 7.724917478783297e-01	 8.865310973664466e-01
 2.146626412625126e+00	 7.924655506038091e-01	 8.207699681406808e-01
 2.218864354021304e+00	 5.942263557304976e-01	 1.007355228735535e+00
 2.213362931244413e+00	 6.144009264192449e-01	 1.129646116445919e+00
 2.207664199658510e+00	 6.345728350933587e-01	 1.225322022242371e+00
 2.201767510424072e+00	 6.547393630000171e-01	 1.292897497242078e+00
 2.195672261665650e+00	 6.748977670805086e-01	 1.330335395634496e+00
 2.189377899293605e+00	 6.950452809138656e-01	 1.335019398250151e+00
 2.182883917805144e+00	 7.151791156894508e-01	 1.303725379319856e+00
 2.176189861063577e+00	 7.352964612080412e-01	 1.232591970694406e+00
 2.169295323054702e+00	 7.553944869109229e-01	 1.129046012833613e+00
 2.162199948619255e+00	 7.754703429364523e-01	 1.020614700767841e+00
 2.154903434160346e+00	 7.955211612035042e-01	 9.063813595538581e-01
 2.227387050560041e+00	 5.965087894846076e-01	 1.134611405029005e+00
 2.221864496722889e+00	 6.167608510498479e-01	 1.303421488388753e+00
 2.216143876210095e+00	 6.370102403756125e-01	 1.434632873879382e+00
 2.210224537689943e+00	 6.572542282663094e-01	 1.526454152822924e+00
 2.204105876975182e+00	 6.774900611270980e-01	 1.576486593730082e+00
 2.197787337847918e+00	 6.977149619111476e-01	 1.582083971209898e+00
 2.191268412863725e+00	 7.179261310959584e-01	 1.540327716106542e+00
 2.184548644133896e+00	 7.381207476882907e-01	 1.448000732052396e+00
 2.177627624084736e+00	 7.582959702572132e-01	 1.317888540611051e+00
 2.170504996192819e+00	 7.784489379947216e-01	 1.174203806364829e+00
 2.163180455695149e+00	 7.985767718033497e-01	 1.016497724130697e+00
 2.235909747098612e+00	 5.987912232387845e-01	 1.293105803879500e+00
 2.230366062201168e+00	 6.191207756805243e-01	 1.495969013057671e+00
 2.224623552761442e+00	 6.394476456579581e-01	 1.654750379038891e+00
 2.218681564955530e+00	 6.597690935327210e-01	 1.765783005575627e+00
 2.212539492284381e+00	 6.800823551738397e-01	 1.826556165928301e+00
 2.206196776401852e+00	 7.003846429086179e-01	 1.833967107821920e+00
 2.199652907921884e+00	 7.206731465026877e-01	 1.784860197564175e+00
 2.192907427203757e+00	 7.409450341687903e-01	 1.676120302673511e+00
 2.185959925114283e+00	 7.611974536037730e-01	 1.525682222611007e+00
 2.178810043765883e+00	 7.814275330532678e-01	 1.352610799456694e+00
 2.171457477229453e+00	 8.016323824034624e-01	 1.157263837242982e+00
 2.244432443637021e+00	 6.010736569931620e-01	 1.480812417553637e+00
 2.238867627679239e+00	 6.214807003114081e-01	 1.705003310888586e+00
 2.233103229312530e+00	 6.418850509405317e-01	 1.883649360258424e+00
 2.227138592220802e+00	 6.622839587993911e-01	 2.011102858411237e+00
 2.220973107593212e+00	 6.826746492208766e-01	 2.082066053450012e+00
 2.214606214955360e+00	 7.030543239064198e-01	 2.092946318847134e+00
 2.208037402979564e+00	 7.234201619097830e-01	 2.040354488592576e+00
 2.201266210273095e+00	 7.437693206496828e-01	 1.921167906004842e+00
 2.194292226143276e+00	 7.640989369507408e-01	 1.756858760432403e+00
 2.187115091338370e+00	 7.844061281122209e-01	 1.561056605010973e+00
 2.179734498763173e+00	 8.046879930039602e-01	 1.334719955070141e+00
 2.096964283409688e+00	 7.741318870022024e-01	 4.639355750055140e-01
 2.089666717323930e+00	 7.936197342440635e-01	 7.704609132612737e-01
 2.082172913425751e+00	 8.130775745313916e-01	 1.092903810427535e+00
 2.074482729206619e+00	 8.325025678724669e-01	 1.421255644024014e+00
 2.066596074862476e+00	 8.518918609662948e-01	 1.746705570591176e+00
 2.058512913847339e+00	 8.712425883789894e-01	 2.061660218985166e+00
 2.050233263396684e+00	 8.905518737420933e-01	 2.359760876043487e+00
 2.041757195019681e+00	 9.098168309719679e-01	 2.635898066164102e+00
 2.033084834959419e+00	 9.290345655093508e-01	 2.886223431950195e+00
 2.024216364620247e+00	 9.482021755781400e-01	 3.108158829338006e+00
 2.015152020961425e+00	 9.673167534624195e-01	 3.300402557549071e+00
 2.105241304945670e+00	 7.771874976034668e-01	 5.376581992691138e-01
 2.097914934310198e+00	 7.967522661989974e-01	 8.011216037845360e-01
 2.090391551283217e+00	 8.162869093982641e-01	 1.113678903170778e+00
 2.082671012793703e+00	 8.357885759996773e-01	 1.458893335603147e+00
 2.074753228683139e+00	 8.552544014398380e-01	 1.821374747854823e+00
 2.066638162261302e+00	 8.746815089745683e-01	 2.186806407403429e+00
 2.058325830831710e+00	 8.940670108819563e-01	 2.541969596021885e+00
 2.049816306185801e+00	 9.134080096865614e-01	 2.874765877858249e+00
 2.041109715064977e+00	 9.327015994038659e-01	 3.174236939935416e+00
 2.032206239589626e+00	 9.519448668040253e-01	 3.430581908600979e+00
 2.023106117654333e+00	 9.711348926939367e-01	 3.635172051734388e+00
 2.113518326481731e+00	 7.802431082041758e-01	 5.967115476033624e-01
 2.106163151296597e+00	 7.998847981534668e-01	 8.138231501497554e-01
 2.098610189140870e+00	 8.194962442647727e-01	 1.108804972648833e+00
 2.090859296381036e+00	 8.390745841266308e-01	 1.460205956773048e+00
 2.082910382504116e+00	 8.586169419132337e-01	 1.847459428459944e+00
 2.074763410675642e+00	 8.781204295701044e-01	 2.250914993191455e+00
 2.066418398267171e+00	 8.975821480218732e-01	 2.651868489030539e+00
 2.057875417352409e+00	 9.169991884012930e-01	 3.032589884917185e+00
 2.049134595171063e+00	 9.363686332985853e-01	 3.376349016040733e+00
 2.040196114559561e+00	 9.556875580301594e-01	 3.667439053107083e+00
 2.031060214347808e+00	 9.749530319257198e-01	 3.891197608011231e+00
 2.121795348017791e+00	 7.832987188044471e-01	 6.479093975766608e-01
 2.114411368283038e+00	 8.030173301075727e-01	 8.162073661598501e-01
 2.106828826998620e+00	 8.227055791309988e-01	 1.086525117160734e+00
 2.099047579968525e+00	 8.423605922533854e-01	 1.433794324388023e+00
 2.091067536325311e+00	 8.619794823865142e-01	 1.833657832126517e+00
 2.082888659090261e+00	 8.815593501656063e-01	 2.262504611604962e+00
 2.074510965702970e+00	 9.010972851618294e-01	 2.697503038755506e+00
 2.065934528519404e+00	 9.205903671161279e-01	 3.116632378280346e+00
 2.057159475277577e+00	 9.400356671934588e-01	 3.498712362818825e+00
 2.048185989529951e+00	 9.594302492564801e-01	 3.823430760478165e+00
 2.039014311041749e+00	 9.787711711577023e-01	 4.071368829160061e+00
 2.130072369553765e+00	 7.863543294043980e-01	 6.979488221312549e-01
 2.122659585269433e+00	 8.061498620614146e-01	 8.157860411804867e-01
 2.115047464856373e+00	 8.259149139970212e-01	 1.054942622853749e+00
 2.107235863556076e+00	 8.456466003799971e-01	 1.388113447815402e+00
 2.099224690146626e+00	 8.653420228597112e-01	 1.788520427406800e+00
 2.091013907505060e+00	 8.849982707610811e-01	 2.229948512767514e+00
 2.082603533139006e+00	 9.046124223018099e-01	 2.686780276143169e+00
 2.073993639686687e+00	 9.241815458310307e-01	 3.134028949908268e+00
 2.065184355384421e+00	 9.437027010884341e-01	 3.547369812144822e+00
 2.056175864500698e+00	 9.631729404829252e-01	 3.903169811623659e+00
 2.046968407736055e+00	 9.825893103898174e-01	 4.178515329740822e+00
 2.138349391089572e+00	 7.894099400041462e-01	 7.534123313271051e-01
 2.130907802255696e+00	 8.092823940150938e-01	 8.199433448859552e-01
 2.123266102714041e+00	 8.291242488629199e-01	 1.022023563233895e+00
 2.115424147143592e+00	 8.489326085065225e-01	 1.331475249906611e+00
 2.107381843967966e+00	 8.687045633328575e-01	 1.720452695765180e+00
 2.099139155919944e+00	 8.884371913565374e-01	 2.161477285482852e+00
 2.090696100575181e+00	 9.081275594418005e-01	 2.627471374572165e+00
 2.082052750854160e+00	 9.277727245459665e-01	 3.091790865975562e+00
 2.073209235491492e+00	 9.473697349834601e-01	 3.528256378162216e+00
 2.064165739471699e+00	 9.669156317094326e-01	 3.911182900281029e+00
 2.054922504430628e+00	 9.864074496219990e-01	 4.215407834223530e+00
 2.146626412625126e+00	 7.924655506038091e-01	 8.207699681406810e-01
 2.139156019241738e+00	 8.124149259687111e-01	 8.359381801280168e-01
 2.131484740571531e+00	 8.323335837287748e-01	 9.955993424463815e-01
 2.123612430730982e+00	 8.522186166330189e-01	 1.272051229080774e+00
 2.115538997789235e+00	 8.720671038059853e-01	 1.637717835925643e+00
 2.107264404334813e+00	 8.918761119519827e-01	 2.065181522398603e+00
 2.098788668011396e+00	 9.116426965817848e-01	 2.527214189503767e+00
 2.090111862021722e+00	 9.313639032609002e-01	 2.996807389827974e+00
 2.081234115598693e+00	 9.510367688784852e-01	 3.447201267550259e+00
 2.072155614442857e+00	 9.706583229359402e-01	 3.851912229819991e+00
 2.062876601125368e+00	 9.902255888541810e-01	 4.184759254821801e+00
 2.154903434160346e+00	 7.955211612035042e-01	 9.063813595538581e-01
 2.147404236227473e+00	 8.155474579223665e-01	 8.709064853223425e-01
 2.139703378428752e+00	 8.355429185946655e-01	 9.833691838375778e-01
 2.131800714318151e+00	 8.555046247595425e-01	 1.217875064104298e+00
 2.123696151610336e+00	 8.754296442791267e-01	 1.548439410093156e+00
 2.115389652749569e+00	 8.953150325474253e-01	 1.949014428098096e+00
 2.106881235447553e+00	 9.151578337217492e-01	 2.393515744103708e+00
 2.098170973189272e+00	 9.349550819757962e-01	 2.855848056054032e+00
 2.089258995705922e+00	 9.547038027734583e-01	 3.309929848259920e+00
 2.080145489414070e+00	 9.744010141623854e-01	 3.729717078190608e+00
 2.070830697820173e+00	 9.940437280862964e-01	 4.089225749575109e+00
 2.163180455695149e+00	 7.985767718033497e-01	 1.016497724130697e+00
 2.155652453212812e+00	 8.186799898761611e-01	 9.318634877049585e-01
 2.147922016285612e+00	 8.387522534606721e-01	 9.929025652644481e-01
 2.139988997905005e+00	 8.587906328861497e-01	 1.176845163101258e+00
 2.131853305431173e+00	 8.787921847523142e-01	 1.460603933605753e+00
 2.123514901164115e+00	 8.987539531428733e-01	 1.820794371649161e+00
 2.114973802883553e+00	 9.186729708616779e-01	 2.233754662282277e+00
 2.106230084356713e+00	 9.385462606906195e-01	 2.675564896980533e+00
 2.097283875813081e+00	 9.583708366683281e-01	 3.122065577831712e+00
 2.088135364385238e+00	 9.781437053887059e-01	 3.548875331868774e+00
 2.078784794514945e+00	 9.978618673182788e-01	 3.931407761208729e+00
 2.171457477229453e+00	 8.016323824034624e-01	 1.157263837242982e+00
 2.163900670197668e+00	 8.218125218301948e-01	 1.025705908769384e+00
 2.156140654142022e+00	 8.419615883268748e-01	 1.031641602572032e+00
 2.148177281491449e+00	 8.620766410128976e-01	 1.156727158282684e+00
 2.140010459251650e+00	 8.821547252255802e-01	 1.382063409526689e+00
 2.131640149578353e+00	 9.021928737383342e-01	 1.688207385091713e+00
 2.123066370319295e+00	 9.221881080015564e-01	 2.055183550556115e+00
 2.114289195523944e+00	 9.421374394053350e-01	 2.462494622861940e+00
 2.105308755920068e+00	 9.620378705630429e-01	 2.889131892372863e+00
 2.096125239356263e+00	 9.818863966148395e-01	 3.313584989626306e+00
 2.086738891209582e+00	 1.001680006550062e+00	 3.713851037284441e+00
 2.179734498763173e+00	 8.046879930039602e-01	 1.334719955070141e+00
 2.172148887181955e+00	 8.249450537845692e-01	 1.159214123155566e+00
 2.164359291997888e+00	 8.451709231933534e-01	 1.106903382617044e+00
 2.156365565077391e+00	 8.653626491398434e-01	 1.165156347837444e+00
 2.148167613071671e+00	 8.855172656989569e-01	 1.320537809640410e+00
 2.139765397992186e+00	 9.056317943338167e-01	 1.558809609301379e+00
 2.131158937754682e+00	 9.257032451413696e-01	 1.864931330091665e+00
 2.122348306690867e+00	 9.457286181199076e-01	 2.223060756993707e+00
 2.113333636026786e+00	 9.657049044575522e-01	 2.616554057240384e+00
 2.104115114327044e+00	 9.856290878407244e-01	 3.027965636927521e+00
 2.094692987903987e+00	 1.005498145781579e+00	 3.439047632139232e+00
 2.015152020961425e+00	 9.673167534624195e-01	 3.300402557549071e+00
 2.005893687236054e+00	 9.863721519403884e-01	 3.423085324312868e+00
 1.996440187068388e+00	 1.005368709659412e+00	 3.451910398783148e+00
 1.986791924473414e+00	 1.024303509347537e+00	 3.409355284505128e+00
 1.976949360212890e+00	 1.043173633027096e+00	 3.317256143365530e+00
 1.966913012010647e+00	 1.061976163366336e+00	 3.196753335844064e+00
 1.956683454730029e+00	 1.080708185042699e+00	 3.068236009810605e+00
 1.946261320512928e+00	 1.099366786116542e+00	 2.951285823011459e+00
 1.935647298879856e+00	 1.117949059414060e+00	 2.864173997159444e+00
 1.924842136790607e+00	 1.136452103918131e+00	 2.819367893082223e+00
 1.913846638665072e+00	 1.154873026165801e+00	 2.830883643242455e+00
 2.023106117654333e+00	 9.711348926939367e-01	 3.635172051734388e+00
 2.013811239945681e+00	 9.902655055878161e-01	 3.733007434775480e+00
 2.004320425444586e+00	 1.009337045469721e+00	 3.696547326620248e+00
 1.994634079760735e+00	 1.028346583552808e+00	 3.558783062158051e+00
 1.984752665474563e+00	 1.047291190341735e+00	 3.352164658991577e+00
 1.974676702353419e+00	 1.066167936989625e+00	 3.108532222227802e+00
 1.964406767529707e+00	 1.084973896666724e+00	 2.859046083116975e+00
 1.953943495640461e+00	 1.103706145939547e+00	 2.634115775500113e+00
 1.943287578927816e+00	 1.122361766159259e+00	 2.462068383928113e+00
 1.932439767299915e+00	 1.140937844858008e+00	 2.365748186591953e+00
 1.921400868351795e+00	 1.159431477151930e+00	 2.370732973612052e+00
 2.031060214347808e+00	 9.749530319257198e-01	 3.891197608011231e+00
 2.021728792655865e+00	 9.941588592354959e-01	 3.978852487047734e+00
 2.012200663821316e+00	 1.013305381280240e+00	 3.898622440808588e+00
 2.002476235048544e+00	 1.032389657758226e+00	 3.691752896559091e+00
 1.992555970736670e+00	 1.051408747656441e+00	 3.399054971107949e+00
 1.982440392696559e+00	 1.070359710612884e+00	 3.060825863391221e+00
 1.972130080329678e+00	 1.089239608290614e+00	 2.716767687887248e+00
 1.961625670768205e+00	 1.108045505762309e+00	 2.405904866776357e+00
 1.950927858975904e+00	 1.126774472904106e+00	 2.163960555983395e+00
 1.940037397809262e+00	 1.145423585797430e+00	 2.022733876836544e+00
 1.928955098038472e+00	 1.163989928137512e+00	 2.016927558407073e+00
 2.039014311041749e+00	 9.787711711577023e-01	 4.071368829160061e+00
 2.029646345366507e+00	 9.980522128833647e-01	 4.161605879303552e+00
 2.020080902198479e+00	 1.017273717090919e+00	 4.057416475976075e+00
 2.010318390336745e+00	 1.036432731963755e+00	 3.806066656430962e+00
 2.000359275999113e+00	 1.055526304971193e+00	 3.454502103526393e+00
 1.990204083039975e+00	 1.074551484236118e+00	 3.049260628905133e+00
 1.979853393129854e+00	 1.093505319914399e+00	 2.636382825506748e+00
 1.969307845896078e+00	 1.112384865584881e+00	 2.261304974488767e+00
 1.958568139024043e+00	 1.131187179648680e+00	 1.964520074516591e+00
 1.947635028318585e+00	 1.149909326736499e+00	 1.785424429642940e+00
 1.936509327725052e+00	 1.168548379122663e+00	 1.765404583429210e+00
 2.046968407736055e+00	 9.825893103898174e-01	 4.178515329740822e+00
 2.037563898077505e+00	 1.001945566531359e+00	 4.282222198808082e+00
 2.027961140575972e+00	 1.021242052901702e+00	 4.172205429189132e+00
 2.018160545625237e+00	 1.040475806169355e+00	 3.899544033377114e+00
 2.008162581261798e+00	 1.059643862285976e+00	 3.515117542111349e+00
 1.997967773383570e+00	 1.078743257859332e+00	 3.069513660828638e+00
 1.987576705930144e+00	 1.097771031538108e+00	 2.612933845307325e+00
 1.976990021023997e+00	 1.116724225407317e+00	 2.194776523679839e+00
 1.966208419072159e+00	 1.135599886393057e+00	 1.858485047837659e+00
 1.955232658827821e+00	 1.154395067675310e+00	 1.648981624385542e+00
 1.944063557411484e+00	 1.173106830107501e+00	 1.612150977993151e+00
 2.054922504430628e+00	 9.864074496219990e-01	 4.215407834223529e+00
 2.045481450788762e+00	 1.005838920179418e+00	 4.341625760452115e+00
 2.035841378953698e+00	 1.025210388712538e+00	 4.242260598789915e+00
 2.026002700913923e+00	 1.044518880374991e+00	 3.970022148807724e+00
 2.015965886524625e+00	 1.063761419600771e+00	 3.577548485456218e+00
 2.005731463727252e+00	 1.082935031482530e+00	 3.117311851656467e+00
 1.995300018730459e+00	 1.102036743161770e+00	 2.641522241143332e+00
 1.984672196151880e+00	 1.121063585229672e+00	 2.200989965520033e+00
 1.973848699120177e+00	 1.140012593137313e+00	 1.840661261829966e+00
 1.962830289336903e+00	 1.158880808613961e+00	 1.608628837333471e+00
 1.951617787097718e+00	 1.177665281092140e+00	 1.553202973494360e+00
 2.062876601125368e+00	 9.902255888541810e-01	 4.184759254821800e+00
 2.053399003500176e+00	 1.009732273827475e+00	 4.340711138078454e+00
 2.043721617331558e+00	 1.029178724523373e+00	 4.266848627726667e+00
 2.033844856202704e+00	 1.048561954580625e+00	 4.015355175488211e+00
 2.023769191787500e+00	 1.067878976915561e+00	 3.638477118558448e+00
 2.013495154070926e+00	 1.087126805105718e+00	 3.188430851706139e+00
 2.003023331530710e+00	 1.106302454785413e+00	 2.717307481731226e+00
 1.992354371279641e+00	 1.125402945051998e+00	 2.274771164516080e+00
 1.981488979168024e+00	 1.144425299881529e+00	 1.905921345751646e+00
 1.970427919845770e+00	 1.163366549552554e+00	 1.659650357234457e+00
 1.959172016783703e+00	 1.182223732076696e+00	 1.584645688268222e+00
 2.070830697820173e+00	 9.940437280862964e-01	 4.089225749575109e+00
 2.061316556211649e+00	 1.013625627475470e+00	 4.280343688794016e+00
 2.051601855709449e+00	 1.033147060334154e+00	 4.245231551255563e+00
 2.041687011491481e+00	 1.052605028786220e+00	 4.033413973317226e+00
 2.031572497050323e+00	 1.071996534230328e+00	 3.694619908875297e+00
 2.021258844414498e+00	 1.091318578728901e+00	 3.278694105153381e+00
 2.010746644330807e+00	 1.110568166409069e+00	 2.835505873844745e+00
 2.000036546407199e+00	 1.129742304874350e+00	 2.411012213367568e+00
 1.989129259215624e+00	 1.148838006625779e+00	 2.049203972432946e+00
 1.978025550354356e+00	 1.167852290491185e+00	 1.797390732268338e+00
 1.966726246469390e+00	 1.186782183061286e+00	 1.702612738033615e+00
 2.078784794514945e+00	 9.978618673182788e-01	 3.931407761208729e+00
 2.069234108923079e+00	 1.017518981123339e+00	 4.161360070455552e+00
 2.059482094087275e+00	 1.037115396144829e+00	 4.176666848897786e+00
 2.049529166780155e+00	 1.056648102991737e+00	 4.022085738952946e+00
 2.039375802313002e+00	 1.076114091545055e+00	 3.742726924160708e+00
 2.029022534757877e+00	 1.095510352352083e+00	 3.383971913948509e+00
 2.018469957130661e+00	 1.114833878032765e+00	 2.991246011368163e+00
 2.007718721534471e+00	 1.134081664696781e+00	 2.604670629738140e+00
 1.996769539262902e+00	 1.153250713370142e+00	 2.265513091948270e+00
 1.985623180862599e+00	 1.172338031429952e+00	 2.017254147529603e+00
 1.974280476154727e+00	 1.191340634046026e+00	 1.903285871235025e+00
 2.086738891209582e+00	 1.001680006550062e+00	 3.713851037284441e+00
 2.077151661634368e+00	 1.021412334771018e+00	 3.984568752511359e+00
 2.067362332464935e+00	 1.041083731955344e+00	 4.060407500537905e+00
 2.057371322068627e+00	 1.060691177197140e+00	 3.979273668918331e+00
 2.047179107575436e+00	 1.080231648859723e+00	 3.779581171502431e+00
 2.036786225100966e+00	 1.099702125975270e+00	 3.500180528870066e+00
 2.026193269930182e+00	 1.119099589656531e+00	 3.179611356118159e+00
 2.015400896661373e+00	 1.138421024519345e+00	 2.850768586025561e+00
 2.004409819309784e+00	 1.157663420114694e+00	 2.549917197869247e+00
 1.993220811370433e+00	 1.176823772368955e+00	 2.314703832224312e+00
 1.981834705839663e+00	 1.195899085031030e+00	 2.182894628618767e+00
 2.094692987903987e+00	 1.005498145781579e+00	 3.439047632139232e+00
 2.085069214345415e+00	 1.025305688418445e+00	 3.750750520375631e+00
 2.075242570842331e+00	 1.045052067765647e+00	 3.895702046553886e+00
 2.065213477356800e+00	 1.064734251402391e+00	 3.902896635827205e+00
 2.054982412837529e+00	 1.084349206174316e+00	 3.801997956995813e+00
 2.044549915443673e+00	 1.103893899598468e+00	 3.623281266994410e+00
 2.033916582729284e+00	 1.123365301280397e+00	 3.395959018433946e+00
 2.023083071787823e+00	 1.142760384342097e+00	 3.144392171253134e+00
 2.012050099356196e+00	 1.162076126859514e+00	 2.897548625232866e+00
 2.000818441877797e+00	 1.181309513308291e+00	 2.685261495791134e+00
 1.989388935524150e+00	 1.200457536016417e+00	 2.537716026398823e+00
 1.913846638665072e+00	 1.154873026165801e+00	 2.830883643242455e+00
 1.902661666826218e+00	 1.173208942016625e+00	 2.919921181605294e+00
 1.891288142819316e+00	 1.191456979178688e+00	 3.085071905981158e+00
 1.879727045908540e+00	 1.209614277560408e+00	 3.307345067724191e+00
 1.867979412467919e+00	 1.227677990319973e+00	 3.568270355701890e+00
 1.856046335795278e+00	 1.245645285274350e+00	 3.849948539143009e+00
 1.843928965884853e+00	 1.263513346306681e+00	 4.133962792822004e+00
 1.831628509158474e+00	 1.281279374770660e+00	 4.402257026762239e+00
 1.819146228155318e+00	 1.298940590890470e+00	 4.643792206162473e+00
 1.806483441180266e+00	 1.316494235154875e+00	 4.848657414766271e+00
 1.793641521910966e+00	 1.333937569704040e+00	 5.007615444557272e+00
 1.921400868351795e+00	 1.159431477151930e+00	 2.370732973612052e+00
 1.910171747810132e+00	 1.177839767516462e+00	 2.512723704189375e+00
 1.898753330857676e+00	 1.196159832322338e+00	 2.788895262385055e+00
 1.887146600623915e+00	 1.214388800188779e+00	 3.167119381069303e+00
 1.875352597573609e+00	 1.232523813037072e+00	 3.615638292837502e+00
 1.863372419320002e+00	 1.250562027505147e+00	 4.103134139442977e+00
 1.851207220396538e+00	 1.268500616360523e+00	 4.598790825810397e+00
 1.838858211986984e+00	 1.286336769910229e+00	 5.070699508169112e+00
 1.826326661613955e+00	 1.304067697406268e+00	 5.491670187059416e+00
 1.813613892785886e+00	 1.321690628445213e+00	 5.838116747632144e+00
 1.800721284602547e+00	 1.339202814360497e+00	 6.087083953170341e+00
 1.928955098038472e+00	 1.163989928137512e+00	 2.016927558407073e+00
 1.917681828793916e+00	 1.182470593015675e+00	 2.195041627822412e+00
 1.906218518895826e+00	 1.200862685465300e+00	 2.554329445698557e+00
 1.894566155339006e+00	 1.219163322816412e+00	 3.052205822732011e+00
 1.882725782678945e+00	 1.237369635753398e+00	 3.646319004300628e+00
 1.870698502844313e+00	 1.255478769735147e+00	 4.294635292460680e+00
 1.858485474907758e+00	 1.273487886413557e+00	 4.955523820111718e+00
 1.846087914814986e+00	 1.291394165048992e+00	 5.587565363402834e+00
 1.833507095072052e+00	 1.309194803921275e+00	 6.150225060562691e+00
 1.820744344390948e+00	 1.326887021734783e+00	 6.608329949322439e+00
 1.807801047293561e+00	 1.344468059016220e+00	 6.927907666353986e+00
 1.936509327725052e+00	 1.168548379122663e+00	 1.765404583429210e+00
 1.925191909777535e+00	 1.187101418514392e+00	 1.963893436432298e+00
 1.913683706933751e+00	 1.205565538607712e+00	 2.379515993050521e+00
 1.901985710053817e+00	 1.223937845443448e+00	 2.961879583097708e+00
 1.890098967783955e+00	 1.242215458469090e+00	 3.660700670157269e+00
 1.878024586368254e+00	 1.260395511964490e+00	 4.425901156732468e+00
 1.865763729418575e+00	 1.278475156465919e+00	 5.207705096959532e+00
 1.853317617642557e+00	 1.296451560187076e+00	 5.956735407279238e+00
 1.840687528529700e+00	 1.314321910435607e+00	 6.624035320392934e+00
 1.827874795995547e+00	 1.332083415023695e+00	 7.164410257479085e+00
 1.814880809984109e+00	 1.349733303671310e+00	 7.535527390122390e+00
 1.944063557411484e+00	 1.173106830107501e+00	 1.612150977993151e+00
 1.932701990760956e+00	 1.191732244012742e+00	 1.816330998487868e+00
 1.921148894971435e+00	 1.210268391749708e+00	 2.262612809897656e+00
 1.909405264768351e+00	 1.228712368070029e+00	 2.895415026390968e+00
 1.897472152888661e+00	 1.247061281184294e+00	 3.659153752220026e+00
 1.885350669891869e+00	 1.265312254193315e+00	 4.498347064867652e+00
 1.873041983929049e+00	 1.283462426517742e+00	 5.357720120736717e+00
 1.860547320469775e+00	 1.301508955324611e+00	 6.182310453860091e+00
 1.847867961986985e+00	 1.319449016949386e+00	 6.917591021634957e+00
 1.835005247599781e+00	 1.337279808312057e+00	 7.511372764775138e+00
 1.821960572674290e+00	 1.354998548325865e+00	 7.915279368113139e+00
 1.951617787097718e+00	 1.177665281092140e+00	 1.553202973494360e+00
 1.940212071744144e+00	 1.196363069510854e+00	 1.749439473711241e+00
 1.928614083008861e+00	 1.214971244891428e+00	 2.201794437095749e+00
 1.916824819482612e+00	 1.233486890696295e+00	 2.852086320950717e+00
 1.904845337993084e+00	 1.251907103899148e+00	 3.642031980971173e+00
 1.892676753415201e+00	 1.270228996421762e+00	 4.513355851136444e+00
 1.880320238439241e+00	 1.288449696569163e+00	 5.407899920964899e+00
 1.867777023296715e+00	 1.306566350461724e+00	 6.267734065953093e+00
 1.855048395443998e+00	 1.324576123462730e+00	 7.035266279737410e+00
 1.842135699203746e+00	 1.342476201599982e+00	 7.654135034477512e+00
 1.829040335364204e+00	 1.360263792979988e+00	 8.072395987879595e+00
 1.959172016783703e+00	 1.182223732076696e+00	 1.584645688268221e+00
 1.947722152727065e+00	 1.200993895008855e+00	 1.760337238443533e+00
 1.936079271046015e+00	 1.219674098033007e+00	 2.195252328697129e+00
 1.924244374196605e+00	 1.238261413322389e+00	 2.831168072231457e+00
 1.912218523097251e+00	 1.256752926613798e+00	 3.609673337354929e+00
 1.900002836938293e+00	 1.275145738649970e+00	 4.472279166431277e+00
 1.887598492949212e+00	 1.293436966620314e+00	 5.360530127103854e+00
 1.875006726123453e+00	 1.311623745598542e+00	 6.216116142187811e+00
 1.862228828900827e+00	 1.329703229975759e+00	 6.980984336936682e+00
 1.849266150807539e+00	 1.347672594887578e+00	 7.597517681365452e+00
 1.836120098053952e+00	 1.365529037633778e+00	 8.012006450120010e+00
 1.966726246469390e+00	 1.186782183061286e+00	 1.702612738033615e+00
 1.955232233709683e+00	 1.205624720506876e+00	 1.846175829162225e+00
 1.943544459082879e+00	 1.224376951174583e+00	 2.241195140185490e+00
 1.931663928910332e+00	 1.243035935948451e+00	 2.831935958456534e+00
 1.919591708201184e+00	 1.261598749328382e+00	 3.562401029576246e+00
 1.907328920461187e+00	 1.280062480878080e+00	 4.376438780940338e+00
 1.894876747459023e+00	 1.298424236671334e+00	 5.217852572814141e+00
 1.882236428950067e+00	 1.316681140735194e+00	 6.030510519092495e+00
 1.869409262357561e+00	 1.334830336488594e+00	 6.758455411928880e+00
 1.856396602411258e+00	 1.352868988174956e+00	 7.346014279302139e+00
 1.843199860743632e+00	 1.370794282287334e+00	 7.739137401839729e+00
 1.974280476154727e+00	 1.191340634046026e+00	 1.903285871235025e+00
 1.962742314691966e+00	 1.210255546005045e+00	 2.004139903663382e+00
 1.951009647119439e+00	 1.229079804316292e+00	 2.337849026868270e+00
 1.939083483623798e+00	 1.247810458574623e+00	 2.853667368852177e+00
 1.926964893304907e+00	 1.266444572043045e+00	 3.500524465039457e+00
 1.914655003983927e+00	 1.284979223106230e+00	 4.227127874861851e+00
 1.902155001968735e+00	 1.303411506722354e+00	 4.982066881709396e+00
 1.889466131776633e+00	 1.321738535871809e+00	 5.713916819328290e+00
 1.876589695814288e+00	 1.339957443001354e+00	 6.371343559603240e+00
 1.863527054014999e+00	 1.358065381462227e+00	 6.903207691417501e+00
 1.850279623433346e+00	 1.376059526940758e+00	 7.258713534412406e+00
 1.981834705839663e+00	 1.195899085031030e+00	 2.182894628618767e+00
 1.970252395673880e+00	 1.214886371503490e+00	 2.231447219437316e+00
 1.958474835155678e+00	 1.233782657458274e+00	 2.483457952155041e+00
 1.946503038337006e+00	 1.252584981201045e+00	 2.895642044392774e+00
 1.934338078408444e+00	 1.271290394757927e+00	 3.424340217555943e+00
 1.921981087506555e+00	 1.289895965334562e+00	 4.025612317477860e+00
 1.909433256478409e+00	 1.308398776773510e+00	 4.655332035091805e+00
 1.896695834603225e+00	 1.326795931008512e+00	 5.269282276264715e+00
 1.883770129271097e+00	 1.345084549514157e+00	 5.823250721724559e+00
 1.870657505618858e+00	 1.363261774749500e+00	 6.273125112745349e+00
 1.857359386123191e+00	 1.381324771594149e+00	 6.574987795997224e+00
 1.989388935524150e+00	 1.200457536016417e+00	 2.537716026398824e+00
 1.977762476655390e+00	 1.219517197002342e+00	 2.525348628780136e+00
 1.965940023191580e+00	 1.238485510600662e+00	 2.676284005458744e+00
 1.953922593049960e+00	 1.257359503827861e+00	 2.957142720990368e+00
 1.941711263511819e+00	 1.276136217473172e+00	 3.334132989945995e+00
 1.929307171029115e+00	 1.294812707563214e+00	 3.773131934895914e+00
 1.916711510988107e+00	 1.313386046824939e+00	 4.239767922148811e+00
 1.903925537429925e+00	 1.331853326145434e+00	 4.699503535524451e+00
 1.890950562728077e+00	 1.350211656027125e+00	 5.117718740294663e+00
 1.877787957222933e+00	 1.368458168036886e+00	 5.459793784239450e+00
 1.864439148813270e+00	 1.386590016247609e+00	 5.691191380611560e+00
 1.793641521910966e+00	 1.333937569704040e+00	 5.007615444557272e+00
 1.780619671693210e+00	 1.351270814630199e+00	 5.112923012259295e+00
 1.767421548564461e+00	 1.368488294888244e+00	 5.168576264327812e+00
 1.754048697738162e+00	 1.385587334514377e+00	 5.183178689979515e+00
 1.740502717892060e+00	 1.402565284615472e+00	 5.164860775123982e+00
 1.726785260568927e+00	 1.419419524704581e+00	 5.121226257143062e+00
 1.712898029537639e+00	 1.436147464020815e+00	 5.059301414634394e+00
 1.698842780115081e+00	 1.452746542832192e+00	 4.985487771943087e+00
 1.684621318449455e+00	 1.469214233720123e+00	 4.905518578153547e+00
 1.670235500765549e+00	 1.485548042844174e+00	 4.824051394458573e+00
 1.655687232572625e+00	 1.501745511185803e+00	 4.737189346210114e+00
 1.800721284602547e+00	 1.339202814360497e+00	 6.087083953170340e+00
 1.787648035257332e+00	 1.356604476113089e+00	 6.216128543610138e+00
 1.774397817226498e+00	 1.373889916257660e+00	 6.230623424518849e+00
 1.760972181822651e+00	 1.391056448268004e+00	 6.149708672174810e+00
 1.747372734033735e+00	 1.408101412795434e+00	 5.992213014128677e+00
 1.733601131921385e+00	 1.425022179009569e+00	 5.776584020319947e+00
 1.719659085979478e+00	 1.441816145923415e+00	 5.520821138816967e+00
 1.705548358453376e+00	 1.458480743701365e+00	 5.242411989787819e+00
 1.691270762620391e+00	 1.475013434948751e+00	 4.958272311218625e+00
 1.676828162032080e+00	 1.491411715981592e+00	 4.682440683369647e+00
 1.662222469719014e+00	 1.507673118075252e+00	 4.421405562534403e+00
 1.807801047293561e+00	 1.344468059016220e+00	 6.927907666353986e+00
 1.794676398820894e+00	 1.361938137595289e+00	 7.074429981071349e+00
 1.781374085887994e+00	 1.379291537626440e+00	 7.054174996774213e+00
 1.767895665906628e+00	 1.396525562021053e+00	 6.894854649587230e+00
 1.754242750174934e+00	 1.413637540974881e+00	 6.624006942495401e+00
 1.740417003273408e+00	 1.430624833314105e+00	 6.268912685214831e+00
 1.726420142420930e+00	 1.447484827825629e+00	 5.856514930823564e+00
 1.712253936791332e+00	 1.464214944570216e+00	 5.413341552553381e+00
 1.697920206791036e+00	 1.480812636177113e+00	 4.965431384011255e+00
 1.683420823298369e+00	 1.497275389118798e+00	 4.532442900608896e+00
 1.668757706865203e+00	 1.513600724964534e+00	 4.132293981613130e+00
 1.814880809984109e+00	 1.349733303671310e+00	 7.535527390122390e+00
 1.801704762383994e+00	 1.367271799076890e+00	 7.693366789814009e+00
 1.788350354549037e+00	 1.384693158994662e+00	 7.644654450270766e+00
 1.774819149990168e+00	 1.401994675773593e+00	 7.423732621415295e+00
 1.761112766315720e+00	 1.419173669153872e+00	 7.064882964532489e+00
 1.747232874625044e+00	 1.436227487618241e+00	 6.602232434795427e+00
 1.733181198862023e+00	 1.453153509727497e+00	 6.069661754969903e+00
 1.718959515128960e+00	 1.469949145438773e+00	 5.500716949531796e+00
 1.704569650961385e+00	 1.486611837405231e+00	 4.927905997128860e+00
 1.690013484564393e+00	 1.503139062255801e+00	 4.374520835862886e+00
 1.675292944011158e+00	 1.519528331853648e+00	 3.869327742348533e+00
 1.821960572674290e+00	 1.354998548325865e+00	 7.915279368113138e+00
 1.808733125946728e+00	 1.372605460557982e+00	 8.078371088439347e+00
 1.795326623209718e+00	 1.390094780362409e+00	 8.007378541729832e+00
 1.781742634073352e+00	 1.407463789525695e+00	 7.741355572626633e+00
 1.767982782456155e+00	 1.424709797332467e+00	 7.319384875516022e+00
 1.754048745976337e+00	 1.441830141922026e+00	 6.780475595355197e+00
 1.739942255302785e+00	 1.458822191629058e+00	 6.163463456188668e+00
 1.725665093466270e+00	 1.475683346307066e+00	 5.506913908489524e+00
 1.711219095131432e+00	 1.492411038633125e+00	 4.846160358538993e+00
 1.696606145830132e+00	 1.509002735392614e+00	 4.209105427385770e+00
 1.681828181156845e+00	 1.525455938742596e+00	 3.631963982585503e+00
 1.829040335364204e+00	 1.360263792979988e+00	 8.072395987879595e+00
 1.815761489509192e+00	 1.377939122038655e+00	 8.234768377315625e+00
 1.802302891870125e+00	 1.395496401729758e+00	 8.147558001371131e+00
 1.788666118156256e+00	 1.412932903277429e+00	 7.852634060046524e+00
 1.774852798596301e+00	 1.430245925510728e+00	 7.391960297427137e+00
 1.760864617327334e+00	 1.447432796225509e+00	 6.807486878457368e+00
 1.746703311743244e+00	 1.464490873530353e+00	 6.141044771824318e+00
 1.732370671803273e+00	 1.481417547175127e+00	 5.434243148077801e+00
 1.717868539301168e+00	 1.498210239860813e+00	 4.721515249930775e+00
 1.703198807095564e+00	 1.514866408529244e+00	 4.036597248543260e+00
 1.688363418302234e+00	 1.531383545631376e+00	 3.419645037762192e+00
 1.836120098053952e+00	 1.365529037633778e+00	 8.012006450120012e+00
 1.822789853071486e+00	 1.383272783518999e+00	 8.167778229035150e+00
 1.809279160530349e+00	 1.400898023096792e+00	 8.070298181676474e+00
 1.795589602238957e+00	 1.418402017028866e+00	 7.762376763291005e+00
 1.781722814736224e+00	 1.435782053688712e+00	 7.286961082752349e+00
 1.767680488678083e+00	 1.453035450528743e+00	 6.687023595182517e+00
 1.753464368183430e+00	 1.470159555431423e+00	 6.005453320829183e+00
 1.739076250139979e+00	 1.487151748042984e+00	 5.284160812513706e+00
 1.724517983470590e+00	 1.504009441088318e+00	 4.555258127935066e+00
 1.709791468360668e+00	 1.520730081665703e+00	 3.857367990488007e+00
 1.694898655447289e+00	 1.537311152519990e+00	 3.231799642571790e+00
 1.843199860743632e+00	 1.370794282287334e+00	 7.739137401839729e+00
 1.829818216633706e+00	 1.388606444999106e+00	 7.882514942010564e+00
 1.816255429190478e+00	 1.406299644463590e+00	 7.780599669963291e+00
 1.802513086321534e+00	 1.423871130780076e+00	 7.475291001489459e+00
 1.788592830875984e+00	 1.441318181866483e+00	 7.008643687205934e+00
 1.774496360028629e+00	 1.458638104831776e+00	 6.422755843424458e+00
 1.760225424623369e+00	 1.475828237332307e+00	 5.759659570970384e+00
 1.745781828476398e+00	 1.492885948910667e+00	 5.057966054184158e+00
 1.731167427639690e+00	 1.509808642315658e+00	 4.348634388652554e+00
 1.716384129625421e+00	 1.526593754802000e+00	 3.671761941070766e+00
 1.701433892591978e+00	 1.543238759408437e+00	 3.067844135554981e+00
 1.850279623433346e+00	 1.376059526940758e+00	 7.258713534412406e+00
 1.836846580195948e+00	 1.393940106479063e+00	 7.383988158197018e+00
 1.823231697850602e+00	 1.411701265830231e+00	 7.283358865737198e+00
 1.809436570404062e+00	 1.429340244531128e+00	 6.995983216713604e+00
 1.795462847015646e+00	 1.446854310044099e+00	 6.561169512207406e+00
 1.781312231379016e+00	 1.464240759134659e+00	 6.018266668957388e+00
 1.766986481063092e+00	 1.481496919233046e+00	 5.406556782197979e+00
 1.752487406812542e+00	 1.498620149778209e+00	 4.757702082994822e+00
 1.737816871808461e+00	 1.515607843542854e+00	 4.102849101691198e+00
 1.722976790889804e+00	 1.532457427938146e+00	 3.480097460089270e+00
 1.707969129736268e+00	 1.549166366296717e+00	 2.927183666545187e+00
 1.857359386123191e+00	 1.381324771594149e+00	 6.574987795997224e+00
 1.843874943758311e+00	 1.399273767958964e+00	 6.677103445898826e+00
 1.830207966510811e+00	 1.417102887196798e+00	 6.583368523764417e+00
 1.816360054486623e+00	 1.434809358282093e+00	 6.328959425002150e+00
 1.802332863155270e+00	 1.452390438221620e+00	 5.948605217921271e+00
 1.788128102729292e+00	 1.469843413437442e+00	 5.477052200974249e+00
 1.773747537502624e+00	 1.487165601133679e+00	 4.948146115966340e+00
 1.759192985148420e+00	 1.504354350645638e+00	 4.385360149124519e+00
 1.744466315976898e+00	 1.521407044769926e+00	 3.819068734479547e+00
 1.729569452153795e+00	 1.538321101074150e+00	 3.282668450972869e+00
 1.714504366880125e+00	 1.555093973184831e+00	 2.809213406891304e+00
 1.864439148813270e+00	 1.386590016247609e+00	 5.691191380611560e+00
 1.850903307320891e+00	 1.404607429438896e+00	 5.766662848587448e+00
 1.837184235171193e+00	 1.422504508563369e+00	 5.685318263774587e+00
 1.823283538569292e+00	 1.440278472033041e+00	 5.478625635841642e+00
 1.809202879294923e+00	 1.457926566399106e+00	 5.174923007642082e+00
 1.794943974079505e+00	 1.475446067740176e+00	 4.802521762775651e+00
 1.780508593941997e+00	 1.492834283034248e+00	 4.386323409769807e+00
 1.765898563484045e+00	 1.510088551512984e+00	 3.942881372789519e+00
 1.751115760144993e+00	 1.527206245996894e+00	 3.498422867114993e+00
 1.736162113417373e+00	 1.544184774210023e+00	 3.079745828998582e+00
 1.721039604023517e+00	 1.561021580072778e+00	 2.713319762384815e+00
 1.655687232572625e+00	 1.501745511185803e+00	 4.737189346210114e+00
 1.640980977214357e+00	 1.517801502379484e+00	 4.655425145797028e+00
 1.626116254222871e+00	 1.533716418641320e+00	 4.589312281545899e+00
 1.611095084601319e+00	 1.549487940025887e+00	 4.537419109226374e+00
 1.595919535078986e+00	 1.565113786121580e+00	 4.498173214449649e+00
 1.580591717156995e+00	 1.580591717156995e+00	 4.469893994117396e+00
 1.565113786121580e+00	 1.595919535078986e+00	 4.450823289090498e+00
 1.549487940025886e+00	 1.611095084601319e+00	 4.439153840703601e+00
 1.533716418641319e+00	 1.626116254222872e+00	 4.433055369023525e+00
 1.517801502379483e+00	 1.640980977214357e+00	 4.430698097352523e+00
 1.501745511185803e+00	 1.655687232572625e+00	 4.430273575185987e+00
 1.662222469719014e+00	 1.507673118075252e+00	 4.421405562534403e+00
 1.647458166642315e+00	 1.523792484590229e+00	 4.199230378468304e+00
 1.632534770437641e+00	 1.539770219330222e+00	 4.027779911601128e+00
 1.617454310085350e+00	 1.555603993192633e+00	 3.902161979382863e+00
 1.602218860472419e+00	 1.571291516764728e+00	 3.817232392595037e+00
 1.586830541434388e+00	 1.586830541434388e+00	 3.767633662736297e+00
 1.571291516764728e+00	 1.602218860472420e+00	 3.747831816190241e+00
 1.555603993192633e+00	 1.617454310085350e+00	 3.752151072767651e+00
 1.539770219330221e+00	 1.632534770437640e+00	 3.774806172046199e+00
 1.523792484590228e+00	 1.647458166642315e+00	 3.809932158148730e+00
 1.507673118075252e+00	 1.662222469719015e+00	 3.851611461973465e+00
 1.668757706865203e+00	 1.513600724964534e+00	 4.132293981613130e+00
 1.653935356070108e+00	 1.529783466800842e+00	 3.798769526495092e+00
 1.638953286652277e+00	 1.545824020019018e+00	 3.544418755550904e+00
 1.623813535569272e+00	 1.561720046359288e+00	 3.361478147698572e+00
 1.608518185865760e+00	 1.577469247407792e+00	 3.241838440207887e+00
 1.593069365711697e+00	 1.593069365711697e+00	 3.177088642580506e+00
 1.577469247407792e+00	 1.608518185865761e+00	 3.158558186407360e+00
 1.561720046359288e+00	 1.623813535569272e+00	 3.177356955068703e+00
 1.545824020019018e+00	 1.638953286652278e+00	 3.224412963598565e+00
 1.529783466800841e+00	 1.653935356070109e+00	 3.290507486929966e+00
 1.513600724964534e+00	 1.668757706865203e+00	 3.366307463833063e+00
 1.675292944011158e+00	 1.519528331853648e+00	 3.869327742348532e+00
 1.660412545497697e+00	 1.535774449011314e+00	 3.452612294128115e+00
 1.645371802866735e+00	 1.551877820707688e+00	 3.137074799096637e+00
 1.630172761053036e+00	 1.567836099525825e+00	 2.912662296814129e+00
 1.614817511258964e+00	 1.583646978050739e+00	 2.768899737218963e+00
 1.599308189988881e+00	 1.599308189988881e+00	 2.694938487863929e+00
 1.583646978050739e+00	 1.614817511258964e+00	 2.679602980017405e+00
 1.567836099525824e+00	 1.630172761053037e+00	 2.711435225066166e+00
 1.551877820707688e+00	 1.645371802866736e+00	 2.778736959802436e+00
 1.535774449011313e+00	 1.660412545497698e+00	 2.869609207812582e+00
 1.519528331853649e+00	 1.675292944011158e+00	 2.971989074063202e+00
 1.681828181156845e+00	 1.525455938742596e+00	 3.631963982585503e+00
 1.666889734925040e+00	 1.541765431221634e+00	 3.159326828997590e+00
 1.651790319080969e+00	 1.557931621396212e+00	 2.803604052974523e+00
 1.636531986536599e+00	 1.573952152692216e+00	 2.553027963572142e+00
 1.621116836651983e+00	 1.589824708693531e+00	 2.395349706993234e+00
 1.605547014265897e+00	 1.605547014265897e+00	 2.317891460260509e+00
 1.589824708693531e+00	 1.621116836651983e+00	 2.307596740393908e+00
 1.573952152692216e+00	 1.636531986536599e+00	 2.351078549386236e+00
 1.557931621396211e+00	 1.651790319080969e+00	 2.434665103173313e+00
 1.541765431221633e+00	 1.666889734925041e+00	 2.544442922232143e+00
 1.525455938742596e+00	 1.681828181156845e+00	 2.666297092161840e+00
 1.688363418302234e+00	 1.531383545631376e+00	 3.419645037762192e+00
 1.673366924352097e+00	 1.547756413431792e+00	 2.917480657739485e+00
 1.658208835294932e+00	 1.563985422084572e+00	 2.541873278564766e+00
 1.642891212019911e+00	 1.580068205858431e+00	 2.279908105430855e+00
 1.627416162044774e+00	 1.596002439336134e+00	 2.118147272146085e+00
 1.611785838542706e+00	 1.611785838542706e+00	 2.042684920464095e+00
 1.596002439336134e+00	 1.627416162044774e+00	 2.039200345363015e+00
 1.580068205858431e+00	 1.642891212019911e+00	 2.093008916702044e+00
 1.563985422084572e+00	 1.658208835294933e+00	 2.189110516407339e+00
 1.547756413431791e+00	 1.673366924352097e+00	 2.312235260642225e+00
 1.531383545631376e+00	 1.688363418302234e+00	 2.446886308040841e+00
 1.694898655447289e+00	 1.537311152519990e+00	 3.231799642571791e+00
 1.679844113778824e+00	 1.553747395641779e+00	 2.725641630911425e+00
 1.664627351508581e+00	 1.570039222772748e+00	 2.349760727817655e+00
 1.649250437502926e+00	 1.586184259024445e+00	 2.090655685019459e+00
 1.633715487437289e+00	 1.602180169978511e+00	 1.934277331175438e+00
 1.618024662819265e+00	 1.618024662819265e+00	 1.866085742139477e+00
 1.602180169978511e+00	 1.633715487437289e+00	 1.871105401478629e+00
 1.586184259024445e+00	 1.649250437502926e+00	 1.933978053071060e+00
 1.570039222772747e+00	 1.664627351508581e+00	 2.039012977224038e+00
 1.553747395641777e+00	 1.679844113778824e+00	 2.170234452984123e+00
 1.537311152519990e+00	 1.694898655447289e+00	 2.311426201898595e+00
 1.701433892591978e+00	 1.543238759408437e+00	 3.067844135554981e+00
 1.686321303205182e+00	 1.559738377851583e+00	 2.582378876949536e+00
 1.671045867721866e+00	 1.576093023460720e+00	 2.225156897112051e+00
 1.655609662985597e+00	 1.592300312190228e+00	 1.982644272347984e+00
 1.640014812829485e+00	 1.608357900620628e+00	 1.840751255350608e+00
 1.624263487095532e+00	 1.624263487095532e+00	 1.784890747663213e+00
 1.608357900620628e+00	 1.640014812829485e+00	 1.800034660602419e+00
 1.592300312190227e+00	 1.655609662985597e+00	 1.870767859126558e+00
 1.576093023460720e+00	 1.671045867721867e+00	 1.981339413699271e+00
 1.559738377851583e+00	 1.686321303205183e+00	 2.115710917423413e+00
 1.543238759408437e+00	 1.701433892591978e+00	 2.257601659330584e+00
 1.707969129736268e+00	 1.549166366296717e+00	 2.927183666545187e+00
 1.692798492631129e+00	 1.565729360061197e+00	 2.486263764924560e+00
 1.677464383934746e+00	 1.582146824148469e+00	 2.165965294673870e+00
 1.661968888467875e+00	 1.598416365355750e+00	 1.953268664199513e+00
 1.646314138221316e+00	 1.614535631262448e+00	 1.834607405316187e+00
 1.630502311371466e+00	 1.630502311371466e+00	 1.795927165071356e+00
 1.614535631262447e+00	 1.646314138221315e+00	 1.822742458191943e+00
 1.598416365355751e+00	 1.661968888467876e+00	 1.900190868538564e+00
 1.582146824148469e+00	 1.677464383934746e+00	 2.013084419540376e+00
 1.565729360061197e+00	 1.692798492631130e+00	 2.145957866864794e+00
 1.549166366296717e+00	 1.707969129736268e+00	 2.283113701270420e+00
 1.714504366880125e+00	 1.555093973184831e+00	 2.809213406891304e+00
 1.699275682056624e+00	 1.571720342270610e+00	 2.435870875863237e+00
 1.683882900147171e+00	 1.588200624835976e+00	 2.170103221193449e+00
 1.668328113949717e+00	 1.604532418520987e+00	 1.999945520247215e+00
 1.652613463612735e+00	 1.620713361903935e+00	 1.912911666885596e+00
 1.636741135647025e+00	 1.636741135647025e+00	 1.896053105649060e+00
 1.620713361903935e+00	 1.652613463612734e+00	 1.936015172718612e+00
 1.604532418520987e+00	 1.668328113949717e+00	 2.019090727177522e+00
 1.588200624835976e+00	 1.683882900147172e+00	 2.131270788772136e+00
 1.571720342270609e+00	 1.699275682056624e+00	 2.258291932771682e+00
 1.555093973184831e+00	 1.714504366880125e+00	 2.385680228366424e+00
 1.721039604023517e+00	 1.561021580072778e+00	 2.713319762384815e+00
 1.705752871481626e+00	 1.577711324479812e+00	 2.429778982408073e+00
 1.690301416359099e+00	 1.594254425523221e+00	 2.235502563291895e+00
 1.674687339431072e+00	 1.610648471685908e+00	 2.120114015452254e+00
 1.658912789003697e+00	 1.626891092545054e+00	 2.072758005515179e+00
 1.642979959922168e+00	 1.642979959922168e+00	 2.082158061614150e+00
 1.626891092545055e+00	 1.658912789003697e+00	 2.136671705654452e+00
 1.610648471685908e+00	 1.674687339431073e+00	 2.224342692431256e+00
 1.594254425523221e+00	 1.690301416359099e+00	 2.332950069318503e+00
 1.577711324479812e+00	 1.705752871481626e+00	 2.450053805831310e+00
 1.561021580072778e+00	 1.721039604023517e+00	 2.563036779410903e+00
 1.501745511185803e+00	 1.655687232572625e+00	 4.430273575185987e+00
 1.485548042844174e+00	 1.670235500765547e+00	 4.425177072070498e+00
 1.469214233720123e+00	 1.684621318449455e+00	 4.404427630838272e+00
 1.452746542832192e+00	 1.698842780115080e+00	 4.354316269595387e+00
 1.436147464020815e+00	 1.712898029537638e+00	 4.279108823667045e+00
 1.419419524704582e+00	 1.726785260568927e+00	 4.183963701691567e+00
 1.402565284615473e+00	 1.740502717892059e+00	 4.074062249895310e+00
 1.385587334514378e+00	 1.754048697738161e+00	 3.954558317253036e+00
 1.368488294888244e+00	 1.767421548564461e+00	 3.830532657101107e+00
 1.351270814630200e+00	 1.780619671693210e+00	 3.706952269991612e+00
 1.333937569704040e+00	 1.793641521910966e+00	 3.588634751336276e+00
 1.507673118075252e+00	 1.662222469719015e+00	 3.851611461973466e+00
 1.491411715981593e+00	 1.676828162032079e+00	 3.888737760284183e+00
 1.475013434948752e+00	 1.691270762620391e+00	 3.913587907054182e+00
 1.458480743701366e+00	 1.705548358453375e+00	 3.910885820294687e+00
 1.441816145923415e+00	 1.719659085979478e+00	 3.880843660776970e+00
 1.425022179009569e+00	 1.733601131921384e+00	 3.828477415086262e+00
 1.408101412795435e+00	 1.747372734033735e+00	 3.758859588820101e+00
 1.391056448268004e+00	 1.760972181822650e+00	 3.677068068121546e+00
 1.373889916257661e+00	 1.774397817226498e+00	 3.588139929920844e+00
 1.356604476113090e+00	 1.787648035257331e+00	 3.497030305802156e+00
 1.339202814360497e+00	 1.800721284602547e+00	 3.408576362110897e+00
 1.513600724964534e+00	 1.668757706865203e+00	 3.366307463833063e+00
 1.497275389118799e+00	 1.683420823298369e+00	 3.437350297201145e+00
 1.480812636177114e+00	 1.697920206791036e+00	 3.496563637917886e+00
 1.464214944570217e+00	 1.712253936791332e+00	 3.533336788112837e+00
 1.447484827825630e+00	 1.726420142420929e+00	 3.541022195558490e+00
 1.430624833314105e+00	 1.740417003273407e+00	 3.524540929589429e+00
 1.413637540974881e+00	 1.754242750174934e+00	 3.488896529960017e+00
 1.396525562021053e+00	 1.767895665906627e+00	 3.439123136040123e+00
 1.379291537626440e+00	 1.781374085887994e+00	 3.380238691593259e+00
 1.361938137595290e+00	 1.794676398820894e+00	 3.317203330107044e+00
 1.344468059016220e+00	 1.807801047293561e+00	 3.254883002236959e+00
 1.519528331853649e+00	 1.675292944011158e+00	 2.971989074063202e+00
 1.503139062255803e+00	 1.690013484564393e+00	 3.069105649934733e+00
 1.486611837405232e+00	 1.704569650961384e+00	 3.153302873419742e+00
 1.469949145438773e+00	 1.718959515128959e+00	 3.220835454324575e+00
 1.453153509727497e+00	 1.733181198862022e+00	 3.259058179280906e+00
 1.436227487618241e+00	 1.747232874625042e+00	 3.271745651219651e+00
 1.419173669153873e+00	 1.761112766315720e+00	 3.263871949682897e+00
 1.401994675773594e+00	 1.774819149990168e+00	 3.240459349179226e+00
 1.384693158994663e+00	 1.788350354549037e+00	 3.206530904704284e+00
 1.367271799076891e+00	 1.801704762383993e+00	 3.167068359318143e+00
 1.349733303671310e+00	 1.814880809984109e+00	 3.126975434163298e+00
 1.525455938742596e+00	 1.681828181156845e+00	 2.666297092161840e+00
 1.509002735392615e+00	 1.696606145830132e+00	 2.782100512733976e+00
 1.492411038633126e+00	 1.711219095131431e+00	 2.884134385485076e+00
 1.475683346307067e+00	 1.725665093466269e+00	 2.972545197109045e+00
 1.458822191629058e+00	 1.739942255302784e+00	 3.034358704040168e+00
 1.441830141922026e+00	 1.754048745976336e+00	 3.069673791353285e+00
 1.424709797332469e+00	 1.767982782456154e+00	 3.083474219087428e+00
 1.407463789525696e+00	 1.781742634073352e+00	 3.080801947708225e+00
 1.390094780362410e+00	 1.795326623209717e+00	 3.066709090878042e+00
 1.372605460557983e+00	 1.808733125946727e+00	 3.046215346401573e+00
 1.354998548325865e+00	 1.821960572674290e+00	 3.024270964428101e+00
 1.531383545631376e+00	 1.688363418302234e+00	 2.446886308040841e+00
 1.514866408529244e+00	 1.703198807095564e+00	 2.574438129023577e+00
 1.498210239860814e+00	 1.717868539301168e+00	 2.687560364823847e+00
 1.481417547175128e+00	 1.732370671803272e+00	 2.787624843593397e+00
 1.464490873530355e+00	 1.746703311743244e+00	 2.866322636309204e+00
 1.447432796225509e+00	 1.760864617327333e+00	 2.917896861153373e+00
 1.430245925510728e+00	 1.774852798596301e+00	 2.947379738569115e+00
 1.412932903277430e+00	 1.788666118156255e+00	 2.959864137657342e+00
 1.395496401729759e+00	 1.802302891870124e+00	 2.960454883008966e+00
 1.377939122038655e+00	 1.815761489509192e+00	 2.954225710483219e+00
 1.360263792979988e+00	 1.829040335364205e+00	 2.946181929584615e+00
 1.537311152519990e+00	 1.694898655447289e+00	 2.311426201898595e+00
 1.520730081665703e+00	 1.709791468360667e+00	 2.444229125839556e+00
 1.504009441088319e+00	 1.724517983470590e+00	 2.562064208069706e+00
 1.487151748042984e+00	 1.739076250139977e+00	 2.666318825788988e+00
 1.470159555431424e+00	 1.753464368183429e+00	 2.754339056150471e+00
 1.453035450528744e+00	 1.767680488678082e+00	 2.815974170392083e+00
 1.435782053688713e+00	 1.781722814736223e+00	 2.855251476016859e+00
 1.418402017028867e+00	 1.795589602238956e+00	 2.877345648155660e+00
 1.400898023096792e+00	 1.809279160530348e+00	 2.887437581124736e+00
 1.383272783519000e+00	 1.822789853071486e+00	 2.890670870850833e+00
 1.365529037633777e+00	 1.836120098053952e+00	 2.892114187801035e+00
 1.543238759408437e+00	 1.701433892591978e+00	 2.257601659330584e+00
 1.526593754802001e+00	 1.716384129625421e+00	 2.389592360327962e+00
 1.509808642315658e+00	 1.731167427639690e+00	 2.506131332029440e+00
 1.492885948910669e+00	 1.745781828476398e+00	 2.608680916443998e+00
 1.475828237332308e+00	 1.760225424623369e+00	 2.697785701940010e+00
 1.458638104831776e+00	 1.774496360028628e+00	 2.763451330549873e+00
 1.441318181866484e+00	 1.788592830875984e+00	 2.806737508544076e+00
 1.423871130780076e+00	 1.802513086321532e+00	 2.832931291955460e+00
 1.406299644463590e+00	 1.816255429190478e+00	 2.847312711783525e+00
 1.388606444999106e+00	 1.829818216633705e+00	 2.855110785235409e+00
 1.370794282287334e+00	 1.843199860743632e+00	 2.861465615982550e+00
 1.549166366296717e+00	 1.707969129736268e+00	 2.283113701270420e+00
 1.532457427938147e+00	 1.722976790889803e+00	 2.408655777984156e+00
 1.515607843542855e+00	 1.737816871808461e+00	 2.518250139136321e+00
 1.498620149778210e+00	 1.752487406812541e+00	 2.613493279949178e+00
 1.481496919233046e+00	 1.766986481063090e+00	 2.696027423201322e+00
 1.464240759134660e+00	 1.781312231379015e+00	 2.759858762078191e+00
 1.446854310044099e+00	 1.795462847015645e+00	 2.801469567660618e+00
 1.429340244531129e+00	 1.809436570404062e+00	 2.826289529155941e+00
 1.411701265830233e+00	 1.823231697850602e+00	 2.839720590911726e+00
 1.393940106479064e+00	 1.836846580195948e+00	 2.847092492258073e+00
 1.376059526940758e+00	 1.850279623433346e+00	 2.853624612268576e+00
 1.555093973184831e+00	 1.714504366880125e+00	 2.385680228366424e+00
 1.538321101074151e+00	 1.729569452153795e+00	 2.499557282320206e+00
 1.521407044769926e+00	 1.744466315976897e+00	 2.596912991779696e+00
 1.504354350645638e+00	 1.759192985148420e+00	 2.679536801279325e+00
 1.487165601133680e+00	 1.773747537502623e+00	 2.749264170351101e+00
 1.469843413437443e+00	 1.788128102729292e+00	 2.804710205716035e+00
 1.452390438221620e+00	 1.802332863155270e+00	 2.839061587795110e+00
 1.434809358282094e+00	 1.816360054486623e+00	 2.857071034042169e+00
 1.417102887196799e+00	 1.830207966510810e+00	 2.864284889991494e+00
 1.399273767958964e+00	 1.843874943758311e+00	 2.866148657932251e+00
 1.381324771594150e+00	 1.857359386123191e+00	 2.867992044991810e+00
 1.561021580072778e+00	 1.721039604023517e+00	 2.563036779410904e+00
 1.544184774210024e+00	 1.736162113417373e+00	 2.660445615657438e+00
 1.527206245996895e+00	 1.751115760144993e+00	 2.740617195275482e+00
 1.510088551512984e+00	 1.765898563484043e+00	 2.805592323994013e+00
 1.492834283034248e+00	 1.780508593941995e+00	 2.857452187950256e+00
 1.475446067740177e+00	 1.794943974079505e+00	 2.897501237753939e+00
 1.457926566399107e+00	 1.809202879294922e+00	 2.919108258079881e+00
 1.440278472033042e+00	 1.823283538569291e+00	 2.924907264957493e+00
 1.422504508563371e+00	 1.837184235171193e+00	 2.920611205509964e+00
 1.404607429438897e+00	 1.850903307320891e+00	 2.911796126114049e+00
 1.386590016247609e+00	 1.864439148813270e+00	 2.903937027572909e+00
 1.333937569704040e+00	 1.793641521910966e+00	 3.588634751336276e+00
 1.316494235154875e+00	 1.806483441180266e+00	 3.481442312096457e+00
 1.298940590890470e+00	 1.819146228155318e+00	 3.387586248568670e+00
 1.281279374770660e+00	 1.831628509158474e+00	 3.306330874064948e+00
 1.263513346306681e+00	 1.843928965884853e+00	 3.236927104633374e+00
 1.245645285274350e+00	 1.856046335795278e+00	 3.178708551069156e+00
 1.227677990319974e+00	 1.867979412467918e+00	 3.132186992253469e+00
 1.209614277560409e+00	 1.879727045908540e+00	 3.097092662592509e+00
 1.191456979178689e+00	 1.891288142819314e+00	 3.072789714536056e+00
 1.173208942016627e+00	 1.902661666826218e+00	 3.058638422806455e+00
 1.154873026165801e+00	 1.913846638665072e+00	 3.054001470368873e+00
 1.339202814360497e+00	 1.800721284602547e+00	 3.408576362110897e+00
 1.321690628445213e+00	 1.813613892785887e+00	 3.329492751224834e+00
 1.304067697406269e+00	 1.826326661613954e+00	 3.262708216822370e+00
 1.286336769910229e+00	 1.838858211986983e+00	 3.207272460065771e+00
 1.268500616360523e+00	 1.851207220396538e+00	 3.162168558977240e+00
 1.250562027505148e+00	 1.863372419320001e+00	 3.127029595538849e+00
 1.232523813037073e+00	 1.875352597573608e+00	 3.101723572468579e+00
 1.214388800188781e+00	 1.887146600623915e+00	 3.085248602253004e+00
 1.196159832322339e+00	 1.898753330857675e+00	 3.076553394445299e+00
 1.177839767516464e+00	 1.910171747810131e+00	 3.074547451829101e+00
 1.159431477151930e+00	 1.921400868351795e+00	 3.078108062359026e+00
 1.344468059016220e+00	 1.807801047293561e+00	 3.254883002236959e+00
 1.326887021734783e+00	 1.820744344390948e+00	 3.200434676766120e+00
 1.309194803921275e+00	 1.833507095072052e+00	 3.157126130257482e+00
 1.291394165048992e+00	 1.846087914814986e+00	 3.123848458309552e+00
 1.273487886413557e+00	 1.858485474907758e+00	 3.099581569973746e+00
 1.255478769735148e+00	 1.870698502844312e+00	 3.084145324595234e+00
 1.237369635753399e+00	 1.882725782678946e+00	 3.076468840388126e+00
 1.219163322816413e+00	 1.894566155339006e+00	 3.075245985717911e+00
 1.200862685465302e+00	 1.906218518895826e+00	 3.079091977907223e+00
 1.182470593015676e+00	 1.917681828793916e+00	 3.086551739183209e+00
 1.163989928137511e+00	 1.928955098038471e+00	 3.096107433577237e+00
 1.349733303671310e+00	 1.814880809984109e+00	 3.126975434163298e+00
 1.332083415023695e+00	 1.827874795995548e+00	 3.093505607171841e+00
 1.314321910435607e+00	 1.840687528529700e+00	 3.069951048699899e+00
 1.296451560187077e+00	 1.853317617642557e+00	 3.055107339874866e+00
 1.278475156465919e+00	 1.865763729418575e+00	 3.048391559316718e+00
 1.260395511964490e+00	 1.878024586368254e+00	 3.048968521274672e+00
 1.242215458469091e+00	 1.890098967783955e+00	 3.055422395442321e+00
 1.223937845443449e+00	 1.901985710053816e+00	 3.066221836763206e+00
 1.205565538607713e+00	 1.913683706933750e+00	 3.079729596236432e+00
 1.187101418514393e+00	 1.925191909777534e+00	 3.094211250567329e+00
 1.168548379122664e+00	 1.936509327725052e+00	 3.107843123561913e+00
 1.354998548325865e+00	 1.821960572674290e+00	 3.024270964428101e+00
 1.337279808312057e+00	 1.835005247599780e+00	 3.007943438080968e+00
 1.319449016949385e+00	 1.847867961986985e+00	 3.000297471545731e+00
 1.301508955324611e+00	 1.860547320469775e+00	 3.000329738075675e+00
 1.283462426517742e+00	 1.873041983929048e+00	 3.007483208830481e+00
 1.265312254193315e+00	 1.885350669891869e+00	 3.020416244872262e+00
 1.247061281184295e+00	 1.897472152888660e+00	 3.037586724567947e+00
 1.228712368070030e+00	 1.909405264768351e+00	 3.057313874852445e+00
 1.210268391749709e+00	 1.921148894971434e+00	 3.077788098588572e+00
 1.191732244012743e+00	 1.932701990760955e+00	 3.097079923283124e+00
 1.173106830107502e+00	 1.944063557411484e+00	 3.113148147035443e+00
 1.360263792979988e+00	 1.829040335364205e+00	 2.946181929584615e+00
 1.342476201599982e+00	 1.842135699203746e+00	 2.942984882874327e+00
 1.324576123462730e+00	 1.855048395443998e+00	 2.947308853550800e+00
 1.306566350461724e+00	 1.867777023296715e+00	 2.958566914138887e+00
 1.288449696569163e+00	 1.880320238439240e+00	 2.975743894783353e+00
 1.270228996421762e+00	 1.892676753415200e+00	 2.997410045609761e+00
 1.251907103899149e+00	 1.904845337993083e+00	 3.021967428649353e+00
 1.233486890696297e+00	 1.916824819482612e+00	 3.047660768177550e+00
 1.214971244891429e+00	 1.928614083008861e+00	 3.072587346154669e+00
 1.196363069510855e+00	 1.940212071744143e+00	 3.094706015854402e+00
 1.177665281092140e+00	 1.951617787097718e+00	 3.111845412926197e+00
 1.365529037633777e+00	 1.836120098053952e+00	 2.892114187801035e+00
 1.347672594887578e+00	 1.849266150807540e+00	 2.897863920243847e+00
 1.329703229975759e+00	 1.862228828900827e+00	 2.910262553692067e+00
 1.311623745598542e+00	 1.875006726123453e+00	 2.928727837168065e+00
 1.293436966620315e+00	 1.887598492949212e+00	 2.952066283715746e+00
 1.275145738649971e+00	 1.900002836938292e+00	 2.978876187933406e+00
 1.256752926613798e+00	 1.912218523097250e+00	 3.007573457082175e+00
 1.238261413322390e+00	 1.924244374196604e+00	 3.036402393963611e+00
 1.219674098033008e+00	 1.936079271046014e+00	 3.063445512416058e+00
 1.200993895008857e+00	 1.947722152727063e+00	 3.086632462165174e+00
 1.182223732076697e+00	 1.959172016783703e+00	 3.103748146038076e+00
 1.370794282287334e+00	 1.843199860743632e+00	 2.861465615982550e+00
 1.352868988174956e+00	 1.856396602411258e+00	 2.871843478436419e+00
 1.334830336488594e+00	 1.869409262357560e+00	 2.888189881318294e+00
 1.316681140735195e+00	 1.882236428950067e+00	 2.909726791181080e+00
 1.298424236671334e+00	 1.894876747459023e+00	 2.935348567746079e+00
 1.280062480878080e+00	 1.907328920461187e+00	 2.963745882209162e+00
 1.261598749328383e+00	 1.919591708201184e+00	 2.993417350241085e+00
 1.243035935948452e+00	 1.931663928910331e+00	 3.022680105842198e+00
 1.224376951174584e+00	 1.943544459082879e+00	 3.049679389296688e+00
 1.205624720506878e+00	 1.955232233709682e+00	 3.072397229995546e+00
 1.186782183061287e+00	 1.966726246469390e+00	 3.088660311296274e+00
 1.376059526940758e+00	 1.850279623433346e+00	 2.853624612268576e+00
 1.358065381462228e+00	 1.863527054014999e+00	 2.864215689596092e+00
 1.339957443001354e+00	 1.876589695814287e+00	 2.880075684040611e+00
 1.321738535871809e+00	 1.889466131776632e+00	 2.900483636759343e+00
 1.303411506722355e+00	 1.902155001968735e+00	 2.924494708190046e+00
 1.284979223106231e+00	 1.914655003983926e+00	 2.950955524590348e+00
 1.266444572043045e+00	 1.926964893304907e+00	 2.978515489639675e+00
 1.247810458574623e+00	 1.939083483623797e+00	 3.005637008103682e+00
 1.229079804316294e+00	 1.951009647119438e+00	 3.030604699054718e+00
 1.210255546005046e+00	 1.962742314691965e+00	 3.051533683837226e+00
 1.191340634046026e+00	 1.974280476154726e+00	 3.066377040500028e+00
 1.381324771594150e+00	 1.857359386123191e+00	 2.867992044991810e+00
 1.363261774749500e+00	 1.870657505618858e+00	 2.874097365934857e+00
 1.345084549514157e+00	 1.883770129271097e+00	 2.884909704707316e+00
 1.326795931008512e+00	 1.896695834603226e+00	 2.899924080589582e+00
 1.308398776773511e+00	 1.909433256478410e+00	 2.918414687271129e+00
 1.289895965334563e+00	 1.921981087506554e+00	 2.939446944839224e+00
 1.271290394757928e+00	 1.934338078408444e+00	 2.961888355577030e+00
 1.252584981201046e+00	 1.946503038337005e+00	 2.984418236644732e+00
 1.233782657458275e+00	 1.958474835155677e+00	 3.005536411760137e+00
 1.214886371503492e+00	 1.970252395673879e+00	 3.023570951874359e+00
 1.195899085031030e+00	 1.981834705839663e+00	 3.036685061515579e+00
 1.386590016247609e+00	 1.864439148813270e+00	 2.903937027572909e+00
 1.368458168036886e+00	 1.877787957222933e+00	 2.900594817346842e+00
 1.350211656027125e+00	 1.890950562728077e+00	 2.901686890095023e+00
 1.331853326145434e+00	 1.903925537429925e+00	 2.906979952688079e+00
 1.313386046824939e+00	 1.916711510988107e+00	 2.916024767706908e+00
 1.294812707563215e+00	 1.929307171029115e+00	 2.928167661890823e+00
 1.276136217473172e+00	 1.941711263511818e+00	 2.942560792071669e+00
 1.257359503827862e+00	 1.953922593049959e+00	 2.958171246432919e+00
 1.238485510600663e+00	 1.965940023191579e+00	 2.973789068209606e+00
 1.219517197002343e+00	 1.977762476655389e+00	 2.988034297018934e+00
 1.200457536016417e+00	 1.989388935524150e+00	 2.999363129844099e+00
 1.154873026165801e+00	 1.913846638665072e+00	 3.054001470368873e+00
 1.136452103918131e+00	 1.924842136790607e+00	 3.050266697315475e+00
 1.117949059414061e+00	 1.935647298879856e+00	 3.041210295968479e+00
 1.099366786116543e+00	 1.946261320512928e+00	 3.029975344967078e+00
 1.080708185042699e+00	 1.956683454730028e+00	 3.019713866398199e+00
 1.061976163366337e+00	 1.966913012010647e+00	 3.011636602915060e+00
 1.043173633027097e+00	 1.976949360212890e+00	 3.006717482430177e+00
 1.024303509347539e+00	 1.986791924473413e+00	 3.005844447145542e+00
 1.005368709659413e+00	 1.996440187068386e+00	 3.009831710020924e+00
 9.863721519403903e-01	 2.005893687236055e+00	 3.019431915238897e+00
 9.673167534624196e-01	 2.015152020961425e+00	 3.035348021151544e+00
 1.159431477151930e+00	 1.921400868351795e+00	 3.078108062359026e+00
 1.140937844858008e+00	 1.932439767299915e+00	 3.077699607194615e+00
 1.122361766159259e+00	 1.943287578927815e+00	 3.067111693858692e+00
 1.103706145939548e+00	 1.953943495640461e+00	 3.050196002059722e+00
 1.084973896666725e+00	 1.964406767529707e+00	 3.031067467259739e+00
 1.066167936989626e+00	 1.974676702353418e+00	 3.012149946764718e+00
 1.047291190341737e+00	 1.984752665474563e+00	 2.995466191287476e+00
 1.028346583552809e+00	 1.994634079760735e+00	 2.982970234839972e+00
 1.009337045469723e+00	 2.004320425444586e+00	 2.976558730331424e+00
 9.902655055878178e-01	 2.013811239945681e+00	 2.978082160280429e+00
 9.711348926939367e-01	 2.023106117654333e+00	 2.989355737675326e+00
 1.163989928137511e+00	 1.928955098038471e+00	 3.096107433577237e+00
 1.145423585797431e+00	 1.940037397809262e+00	 3.097686191716379e+00
 1.126774472904106e+00	 1.950927858975903e+00	 3.085282648648838e+00
 1.108045505762309e+00	 1.961625670768204e+00	 3.063375253258082e+00
 1.089239608290615e+00	 1.972130080329677e+00	 3.036704739056006e+00
 1.070359710612885e+00	 1.982440392696559e+00	 3.008732203390711e+00
 1.051408747656442e+00	 1.992555970736669e+00	 2.982321165732288e+00
 1.032389657758227e+00	 2.002476235048544e+00	 2.960282048367039e+00
 1.013305381280242e+00	 2.012200663821316e+00	 2.945382922835800e+00
 9.941588592354975e-01	 2.021728792655865e+00	 2.940360100071408e+00
 9.749530319257198e-01	 2.031060214347808e+00	 2.947928375191504e+00
 1.168548379122664e+00	 1.936509327725052e+00	 3.107843123561913e+00
 1.149909326736499e+00	 1.947635028318585e+00	 3.110356028019869e+00
 1.131187179648680e+00	 1.958568139024042e+00	 3.096098304750461e+00
 1.112384865584882e+00	 1.969307845896078e+00	 3.070049176075186e+00
 1.093505319914400e+00	 1.979853393129853e+00	 3.037311070766370e+00
 1.074551484236119e+00	 1.990204083039974e+00	 3.002182812288259e+00
 1.055526304971194e+00	 2.000359275999112e+00	 2.968165086507592e+00
 1.036432731963756e+00	 2.010318390336744e+00	 2.938717389988364e+00
 1.017273717090920e+00	 2.020080902198478e+00	 2.917270592061228e+00
 9.980522128833663e-01	 2.029646345366506e+00	 2.907237232278309e+00
 9.787711711577025e-01	 2.039014311041749e+00	 2.912021433860312e+00
 1.173106830107502e+00	 1.944063557411484e+00	 3.113148147035443e+00
 1.154395067675310e+00	 1.955232658827819e+00	 3.115823628494862e+00
 1.135599886393057e+00	 1.966208419072158e+00	 3.099914828710825e+00
 1.116724225407318e+00	 1.976990021023997e+00	 3.070720252926979e+00
 1.097771031538109e+00	 1.987576705930144e+00	 3.033562105171286e+00
 1.078743257859333e+00	 1.997967773383569e+00	 2.993290364034806e+00
 1.059643862285977e+00	 2.008162581261797e+00	 2.953869170148090e+00
 1.040475806169357e+00	 2.018160545625237e+00	 2.919202127522194e+00
 1.021242052901703e+00	 2.027961140575972e+00	 2.893176640432104e+00
 1.001945566531361e+00	 2.037563898077505e+00	 2.879674244836899e+00
 9.825893103898176e-01	 2.046968407736056e+00	 2.882580513947507e+00
 1.177665281092140e+00	 1.951617787097718e+00	 3.111845412926197e+00
 1.158880808613962e+00	 1.962830289336903e+00	 3.114188929570201e+00
 1.140012593137314e+00	 1.973848699120177e+00	 3.097069955220141e+00
 1.121063585229672e+00	 1.984672196151879e+00	 3.065912969263342e+00
 1.102036743161770e+00	 1.995300018730458e+00	 3.026123257581772e+00
 1.082935031482531e+00	 2.005731463727250e+00	 2.982832173610932e+00
 1.063761419600772e+00	 2.015965886524625e+00	 2.940292787742050e+00
 1.044518880374993e+00	 2.026002700913923e+00	 2.902650150120710e+00
 1.025210388712539e+00	 2.035841378953698e+00	 2.874044253365147e+00
 1.005838920179419e+00	 2.045481450788762e+00	 2.858620723397637e+00
 9.864074496219992e-01	 2.054922504430628e+00	 2.860541039384674e+00
 1.182223732076697e+00	 1.959172016783703e+00	 3.103748146038076e+00
 1.163366549552554e+00	 1.970427919845770e+00	 3.105537781262997e+00
 1.144425299881529e+00	 1.981488979168023e+00	 3.087883532276878e+00
 1.125402945051999e+00	 1.992354371279641e+00	 3.056144954735937e+00
 1.106302454785414e+00	 2.003023331530709e+00	 3.015649231285131e+00
 1.087126805105719e+00	 2.013495154070926e+00	 2.971573849584883e+00
 1.067878976915562e+00	 2.023769191787499e+00	 2.928283078919378e+00
 1.048561954580627e+00	 2.033844856202704e+00	 2.889963018833619e+00
 1.029178724523375e+00	 2.043721617331557e+00	 2.860804578890957e+00
 1.009732273827477e+00	 2.053399003500176e+00	 2.845014853200211e+00
 9.902255888541812e-01	 2.062876601125368e+00	 2.846827975806158e+00
 1.186782183061287e+00	 1.966726246469390e+00	 3.088660311296274e+00
 1.167852290491185e+00	 1.978025550354356e+00	 3.089942437467907e+00
 1.148838006625779e+00	 1.989129259215624e+00	 3.072658065533496e+00
 1.129742304874350e+00	 2.000036546407199e+00	 3.041913306607648e+00
 1.110568166409069e+00	 2.010746644330806e+00	 3.002783529794793e+00
 1.091318578728902e+00	 2.021258844414498e+00	 2.960268859271560e+00
 1.071996534230329e+00	 2.031572497050323e+00	 2.918674561193694e+00
 1.052605028786221e+00	 2.041687011491480e+00	 2.882029612097874e+00
 1.033147060334156e+00	 2.051601855709450e+00	 2.854376401948962e+00
 1.013625627475472e+00	 2.061316556211648e+00	 2.839783115526646e+00
 9.940437280862963e-01	 2.070830697820173e+00	 2.842355543210909e+00
 1.191340634046026e+00	 1.974280476154726e+00	 3.066377040500028e+00
 1.172338031429952e+00	 1.985623180862599e+00	 3.067462046966578e+00
 1.153250713370142e+00	 1.996769539262902e+00	 3.051679261844829e+00
 1.134081664696782e+00	 2.007718721534471e+00	 3.023695174833442e+00
 1.114833878032766e+00	 2.018469957130660e+00	 2.988152637121298e+00
 1.095510352352085e+00	 2.029022534757877e+00	 2.949658089973467e+00
 1.076114091545056e+00	 2.039375802313002e+00	 2.912288734782846e+00
 1.056648102991739e+00	 2.049529166780154e+00	 2.879725766289222e+00
 1.037115396144830e+00	 2.059482094087275e+00	 2.855665813498014e+00
 1.017518981123340e+00	 2.069234108923078e+00	 2.843839978878242e+00
 9.978618673182789e-01	 2.078784794514945e+00	 2.848026923392876e+00
 1.195899085031030e+00	 1.981834705839663e+00	 3.036685061515579e+00
 1.176823772368955e+00	 1.993220811370433e+00	 3.038143145138095e+00
 1.157663420114694e+00	 2.004409819309784e+00	 3.025216572040042e+00
 1.138421024519346e+00	 2.015400896661373e+00	 3.001948345133883e+00
 1.119099589656532e+00	 2.026193269930182e+00	 2.972362595943511e+00
 1.099702125975272e+00	 2.036786225100966e+00	 2.940469406407662e+00
 1.080231648859724e+00	 2.047179107575435e+00	 2.909933683027845e+00
 1.060691177197142e+00	 2.057371322068627e+00	 2.883913911466785e+00
 1.041083731955346e+00	 2.067362332464934e+00	 2.865565874580923e+00
 1.021412334771020e+00	 2.077151661634367e+00	 2.858087585016378e+00
 1.001680006550062e+00	 2.086738891209582e+00	 2.864733962279405e+00
 1.200457536016417e+00	 1.989388935524150e+00	 2.999363129844099e+00
 1.181309513308292e+00	 2.000818441877797e+00	 3.002020146351533e+00
 1.162076126859514e+00	 2.012050099356196e+00	 2.993523732938908e+00
 1.142760384342097e+00	 2.023083071787823e+00	 2.977111820114672e+00
 1.123365301280397e+00	 2.033916582729283e+00	 2.956005814063429e+00
 1.103893899598469e+00	 2.044549915443672e+00	 2.933417204419919e+00
 1.084349206174317e+00	 2.054982412837529e+00	 2.912403668527012e+00
 1.064734251402393e+00	 2.065213477356799e+00	 2.895442702438400e+00
 1.045052067765649e+00	 2.075242570842330e+00	 2.884956275476440e+00
 1.025305688418447e+00	 2.085069214345414e+00	 2.883415430003879e+00
 1.005498145781580e+00	 2.094692987903986e+00	 2.893356867312756e+00
 9.673167534624196e-01	 2.015152020961425e+00	 3.035348021151544e+00
 9.482021755781406e-01	 2.024216364620247e+00	 3.062534641182958e+00
 9.290345655093517e-01	 2.033084834959419e+00	 3.103092404776655e+00
 9.098168309719685e-01	 2.041757195019680e+00	 3.153447920278763e+00
 8.905518737420935e-01	 2.050233263396683e+00	 3.210072209873867e+00
 8.712425883789897e-01	 2.058512913847339e+00	 3.269493380057367e+00
 8.518918609662952e-01	 2.066596074862476e+00	 3.328308045518726e+00
 8.325025678724677e-01	 2.074482729206619e+00	 3.383191413725562e+00
 8.130775745313923e-01	 2.082172913425751e+00	 3.430905953560819e+00
 7.936197342440642e-01	 2.089666717323930e+00	 3.468308587608211e+00
 7.741318870022023e-01	 2.096964283409688e+00	 3.492356363971067e+00
 9.711348926939367e-01	 2.023106117654333e+00	 2.989355737675326e+00
 9.519448668040258e-01	 2.032206239589626e+00	 3.016158431038695e+00
 9.327015994038663e-01	 2.041109715064976e+00	 3.060005216324201e+00
 9.134080096865619e-01	 2.049816306185801e+00	 3.116334721545890e+00
 8.940670108819566e-01	 2.058325830831709e+00	 3.180639311502594e+00
 8.746815089745689e-01	 2.066638162261302e+00	 3.248479552522657e+00
 8.552544014398387e-01	 2.074753228683138e+00	 3.315497342248882e+00
 8.357885759996779e-01	 2.082671012793702e+00	 3.377427607116509e+00
 8.162869093982649e-01	 2.090391551283217e+00	 3.430108486851529e+00
 7.967522661989983e-01	 2.097914934310198e+00	 3.469489942177591e+00
 7.771874976034669e-01	 2.105241304945670e+00	 3.491640738830175e+00
 9.749530319257198e-01	 2.031060214347808e+00	 2.947928375191504e+00
 9.556875580301600e-01	 2.040196114559561e+00	 2.974441158529392e+00
 9.363686332985863e-01	 2.049134595171063e+00	 3.020857043713904e+00
 9.169991884012939e-01	 2.057875417352409e+00	 3.081832318262152e+00
 8.975821480218735e-01	 2.066418398267170e+00	 3.152085533284301e+00
 8.781204295701049e-01	 2.074763410675641e+00	 3.226413522839620e+00
 8.586169419132345e-01	 2.082910382504116e+00	 3.299706003429588e+00
 8.390745841266316e-01	 2.090859296381037e+00	 3.366958651881925e+00
 8.194962442647739e-01	 2.098610189140870e+00	 3.423284577161433e+00
 7.998847981534678e-01	 2.106163151296597e+00	 3.463924119119973e+00
 7.802431082041756e-01	 2.113518326481731e+00	 3.484252924724493e+00
 9.787711711577025e-01	 2.039014311041749e+00	 2.912021433860312e+00
 9.594302492564809e-01	 2.048185989529952e+00	 2.938316188045495e+00
 9.400356671934595e-01	 2.057159475277577e+00	 2.986564749362454e+00
 9.205903671161286e-01	 2.065934528519404e+00	 3.050844206850713e+00
 9.010972851618301e-01	 2.074510965702969e+00	 3.125301661460961e+00
 8.815593501656065e-01	 2.082888659090260e+00	 3.204171562600505e+00
 8.619794823865147e-01	 2.091067536325310e+00	 3.281791543307749e+00
 8.423605922533861e-01	 2.099047579968526e+00	 3.352616648144193e+00
 8.227055791309997e-01	 2.106828826998619e+00	 3.411231865780179e+00
 8.030173301075735e-01	 2.114411368283037e+00	 3.452362896337654e+00
 7.832987188044471e-01	 2.121795348017791e+00	 3.470885101694264e+00
 9.825893103898176e-01	 2.046968407736056e+00	 2.882580513947507e+00
 9.631729404829260e-01	 2.056175864500697e+00	 2.908707972680744e+00
 9.437027010884343e-01	 2.065184355384420e+00	 2.958037163956490e+00
 9.241815458310317e-01	 2.073993639686688e+00	 3.024266656827075e+00
 9.046124223018104e-01	 2.082603533139005e+00	 3.101172019641626e+00
 8.849982707610817e-01	 2.091013907505061e+00	 3.182624238580568e+00
 8.653420228597120e-01	 2.099224690146626e+00	 3.262606556633232e+00
 8.456466003799976e-01	 2.107235863556074e+00	 3.335229623172354e+00
 8.259149139970219e-01	 2.115047464856373e+00	 3.394744862769357e+00
 8.061498620614156e-01	 2.122659585269433e+00	 3.435555990590709e+00
 7.863543294043980e-01	 2.130072369553765e+00	 3.452228620466353e+00
 9.864074496219992e-01	 2.054922504430628e+00	 2.860541039384674e+00
 9.669156317094336e-01	 2.064165739471699e+00	 2.886531792207239e+00
 9.473697349834607e-01	 2.073209235491492e+00	 2.936174840683261e+00
 9.277727245459672e-01	 2.082052750854160e+00	 3.002988482376139e+00
 9.081275594418009e-01	 2.090696100575181e+00	 3.080574258071293e+00
 8.884371913565380e-01	 2.099139155919944e+00	 3.162636219303383e+00
 8.687045633328584e-01	 2.107381843967966e+00	 3.242998541390226e+00
 8.489326085065232e-01	 2.115424147143592e+00	 3.315621368418861e+00
 8.291242488629210e-01	 2.123266102714041e+00	 3.374614795721087e+00
 8.092823940150953e-01	 2.130907802255696e+00	 3.414250914677491e+00
 7.894099400041461e-01	 2.138349391089572e+00	 3.428973864047141e+00
 9.902255888541812e-01	 2.062876601125368e+00	 2.846827975806157e+00
 9.706583229359409e-01	 2.072155614442857e+00	 2.872693485614213e+00
 9.510367688784858e-01	 2.081234115598693e+00	 2.921869804067993e+00
 9.313639032609008e-01	 2.090111862021721e+00	 2.987890808552538e+00
 9.116426965817855e-01	 2.098788668011396e+00	 3.064379137529606e+00
 8.918761119519836e-01	 2.107264404334813e+00	 3.145066076249210e+00
 8.720671038059857e-01	 2.115538997789235e+00	 3.223809716206973e+00
 8.522186166330196e-01	 2.123612430730982e+00	 3.294611271309566e+00
 8.323335837287754e-01	 2.131484740571530e+00	 3.351629453399832e+00
 8.124149259687123e-01	 2.139156019241738e+00	 3.389192829699218e+00
 7.924655506038089e-01	 2.146626412625126e+00	 3.401810104688069e+00
 9.940437280862963e-01	 2.070830697820173e+00	 2.842355543210909e+00
 9.744010141623860e-01	 2.080145489414070e+00	 2.868089178355772e+00
 9.547038027734588e-01	 2.089258995705922e+00	 2.916005293562885e+00
 9.349550819757968e-01	 2.098170973189272e+00	 2.979846832248800e+00
 9.151578337217495e-01	 2.106881235447553e+00	 3.053450308003847e+00
 8.953150325474258e-01	 2.115389652749569e+00	 3.130766079849820e+00
 8.754296442791274e-01	 2.123696151610336e+00	 3.205876832586954e+00
 8.555046247595429e-01	 2.131800714318151e+00	 3.273014141927969e+00
 8.355429185946665e-01	 2.139703378428751e+00	 3.326573024404864e+00
 8.155474579223673e-01	 2.147404236227472e+00	 3.361124392541170e+00
 7.955211612035042e-01	 2.154903434160346e+00	 3.371425356348105e+00
 9.978618673182789e-01	 2.078784794514945e+00	 2.848026923392876e+00
 9.781437053887063e-01	 2.088135364385238e+00	 2.873605004449801e+00
 9.583708366683288e-01	 2.097283875813081e+00	 2.919455502027879e+00
 9.385462606906200e-01	 2.106230084356712e+00	 2.979721578071362e+00
 9.186729708616787e-01	 2.114973802883553e+00	 3.048644082275716e+00
 8.987539531428741e-01	 2.123514901164115e+00	 3.120581990409802e+00
 8.787921847523151e-01	 2.131853305431174e+00	 3.190030982100275e+00
 8.587906328861503e-01	 2.139988997905005e+00	 3.251640034730283e+00
 8.387522534606728e-01	 2.147922016285611e+00	 3.300225930986668e+00
 8.186799898761620e-01	 2.155652453212812e+00	 3.330785598698301e+00
 7.985767718033495e-01	 2.163180455695149e+00	 3.338506222773717e+00
 1.001680006550062e+00	 2.086738891209582e+00	 2.864733962279405e+00
 9.818863966148403e-01	 2.096125239356263e+00	 2.890116823564549e+00
 9.620378705630438e-01	 2.105308755920068e+00	 2.933085309239689e+00
 9.421374394053353e-01	 2.114289195523944e+00	 2.988371649259803e+00
 9.221881080015569e-01	 2.123066370319294e+00	 3.050809204557832e+00
 9.021928737383350e-01	 2.131640149578353e+00	 3.115352844089177e+00
 8.821547252255810e-01	 2.140010459251651e+00	 3.177097398669351e+00
 8.620766410128983e-01	 2.148177281491450e+00	 3.231294065423875e+00
 8.419615883268757e-01	 2.156140654142021e+00	 3.273364658146617e+00
 8.218125218301959e-01	 2.163900670197667e+00	 3.298913620569657e+00
 8.016323824034624e-01	 2.171457477229453e+00	 3.303737741313242e+00
 1.005498145781580e+00	 2.094692987903986e+00	 2.893356867312755e+00
 9.856290878407250e-01	 2.104115114327044e+00	 2.918489933226528e+00
 9.657049044575525e-01	 2.113333636026786e+00	 2.957750010560710e+00
 9.457286181199082e-01	 2.122348306690866e+00	 3.006644973781409e+00
 9.257032451413704e-01	 2.131158937754683e+00	 3.060786614311064e+00
 9.056317943338176e-01	 2.139765397992186e+00	 3.115910734078764e+00
 8.855172656989574e-01	 2.148167613071671e+00	 3.167895256079407e+00
 8.653626491398443e-01	 2.156365565077391e+00	 3.212776223137707e+00
 8.451709231933541e-01	 2.164359291997887e+00	 3.246761578145100e+00
 8.249450537845703e-01	 2.172148887181954e+00	 3.266242641341622e+00
 8.046879930039602e-01	 2.179734498763173e+00	 3.267803222578995e+00
 7.741318870022023e-01	 2.096964283409688e+00	 3.492356363971067e+00
 7.546201775254084e-01	 2.104064615596794e+00	 3.501445996742181e+00
 7.350841034828635e-01	 2.110969215836829e+00	 3.496063667361695e+00
 7.155264558413447e-01	 2.117678379563855e+00	 3.476835033213555e+00
 6.959500078380153e-01	 2.124192452387945e+00	 3.446056151045459e+00
 6.763575139261093e-01	 2.130511829406764e+00	 3.406413371518425e+00
 6.567517087467765e-01	 2.136636954492820e+00	 3.360668782805110e+00
 6.371353061276586e-01	 2.142568319557409e+00	 3.311625877181576e+00
 6.175109981087186e-01	 2.148306463792312e+00	 3.262099745580744e+00
 5.978814539958085e-01	 2.153851972890297e+00	 3.214891696282126e+00
 5.782493194424027e-01	 2.159205478245480e+00	 3.172768167147908e+00
 7.771874976034669e-01	 2.105241304945670e+00	 3.491640738830175e+00
 7.575987725853764e-01	 2.112369663171694e+00	 3.495022359811775e+00
 7.379855868311260e-01	 2.119301516868275e+00	 3.481539952578707e+00
 7.183507423238283e-01	 2.126037162635601e+00	 3.452598063565104e+00
 6.986970232470018e-01	 2.132576947447920e+00	 3.411338996256376e+00
 6.790271949260915e-01	 2.138921267962409e+00	 3.361570551719812e+00
 6.593440027962585e-01	 2.145070569803611e+00	 3.307156811240374e+00
 6.396501713970013e-01	 2.151025346824469e+00	 3.251982217149773e+00
 6.199484033941417e-01	 2.156786140345039e+00	 3.199920365214289e+00
 6.002413786296545e-01	 2.162353538369905e+00	 3.154807401137554e+00
 5.805317531997776e-01	 2.167728174785390e+00	 3.120419886178929e+00
 7.802431082041756e-01	 2.113518326481731e+00	 3.484252924724493e+00
 7.605773676447123e-01	 2.120674710746636e+00	 3.482908785352273e+00
 7.408870701786928e-01	 2.127633817899733e+00	 3.463059361432547e+00
 7.211750288055655e-01	 2.134395945707333e+00	 3.426824026554951e+00
 7.014440386552016e-01	 2.140961442507862e+00	 3.377833332748636e+00
 6.816968759252573e-01	 2.147330706518005e+00	 3.320805903239293e+00
 6.619362968449025e-01	 2.153504185114335e+00	 3.260496643203981e+00
 6.421650366654920e-01	 2.159482374091446e+00	 3.201659454437678e+00
 6.223858086787040e-01	 2.165265816897660e+00	 3.149014897206974e+00
 6.026013032626345e-01	 2.170855103849377e+00	 3.107222634410465e+00
 5.828141869562861e-01	 2.176250871325130e+00	 3.080858518195575e+00
 7.832987188044471e-01	 2.121795348017791e+00	 3.470885101694264e+00
 7.635559627035454e-01	 2.128979758321541e+00	 3.465714561275946e+00
 7.437885535257025e-01	 2.135966118931131e+00	 3.441110593116912e+00
 7.239993152866990e-01	 2.142754728778989e+00	 3.399842346326804e+00
 7.041910540627595e-01	 2.149345937567716e+00	 3.345708776404960e+00
 6.843665569237507e-01	 2.155740145073506e+00	 3.284110326474694e+00
 6.645285908928505e-01	 2.161937800424958e+00	 3.220484068099680e+00
 6.446799019332691e-01	 2.167939401358312e+00	 3.160244361789546e+00
 6.248232139625406e-01	 2.173745493450156e+00	 3.108749658350152e+00
 6.049612278948836e-01	 2.179356669328708e+00	 3.071274259045555e+00
 5.850966207120616e-01	 2.184773567864700e+00	 3.052984889428449e+00
 7.863543294043980e-01	 2.130072369553765e+00	 3.452228620466353e+00
 7.665345577620063e-01	 2.137284805896333e+00	 3.444049685651022e+00
 7.466900368722924e-01	 2.144298419962397e+00	 3.416201001458639e+00
 7.268236017673713e-01	 2.151113511850506e+00	 3.371986331741972e+00
 7.069380694698197e-01	 2.157730432627428e+00	 3.315139849582401e+00
 6.870362379217146e-01	 2.164149583628863e+00	 3.251481032485573e+00
 6.671208849402435e-01	 2.170371415735439e+00	 3.186922935549011e+00
 6.471947672004714e-01	 2.176396428625035e+00	 3.127333829883654e+00
 6.272606192457887e-01	 2.182225170002508e+00	 3.078503411918994e+00
 6.073211525265351e-01	 2.187858234807885e+00	 3.046114146438990e+00
 5.873790544672369e-01	 2.193296264404102e+00	 3.035717592469448e+00
 7.894099400041461e-01	 2.138349391089572e+00	 3.428973864047141e+00
 7.695131528202245e-01	 2.145589853470934e+00	 3.418524725808375e+00
 7.495915202186005e-01	 2.152630720993461e+00	 3.388832426557439e+00
 7.296478882477241e-01	 2.159472294921819e+00	 3.343593569288986e+00
 7.096850848765260e-01	 2.166114927686940e+00	 3.286306314918516e+00
 6.897059189192931e-01	 2.172559022184030e+00	 3.222921811877880e+00
 6.697131789872235e-01	 2.178805031045739e+00	 3.159625354290079e+00
 6.497096324672377e-01	 2.184853455891588e+00	 3.102534991930952e+00
 6.296980245285837e-01	 2.190704846554697e+00	 3.057667414403367e+00
 6.096810771577232e-01	 2.196359800286902e+00	 3.030909142476252e+00
 5.896614882219460e-01	 2.201818960943336e+00	 3.027992869528767e+00
 7.924655506038089e-01	 2.146626412625126e+00	 3.401810104688070e+00
 7.724917478783301e-01	 2.153894901045267e+00	 3.389750673262632e+00
 7.524930035647649e-01	 2.160963022024253e+00	 3.359509055255267e+00
 7.324721747279002e-01	 2.167831077992863e+00	 3.315006313265375e+00
 7.124321002830218e-01	 2.174499422746198e+00	 3.259393507393022e+00
 6.923755999166294e-01	 2.180968460738960e+00	 3.198443303073726e+00
 6.723054730339317e-01	 2.187238646355822e+00	 3.138411891719967e+00
 6.522244977337072e-01	 2.193310483157944e+00	 3.085465350287930e+00
 6.321354298110623e-01	 2.199184523106704e+00	 3.045645465718473e+00
 6.120410017885825e-01	 2.204861365765747e+00	 3.024841038593038e+00
 5.919439219763216e-01	 2.210341657482403e+00	 3.028764502319196e+00
 7.955211612035042e-01	 2.154903434160346e+00	 3.371425356348105e+00
 7.754703429364526e-01	 2.162199948619255e+00	 3.358338794559732e+00
 7.553944869109233e-01	 2.169295323054702e+00	 3.328737261921959e+00
 7.352964612080417e-01	 2.176189861063577e+00	 3.286571873304859e+00
 7.151791156894516e-01	 2.182883917805145e+00	 3.234592664691771e+00
 6.950452809138665e-01	 2.189377899293604e+00	 3.178063259982661e+00
 6.748977670805096e-01	 2.195672261665649e+00	 3.123111774063500e+00
 6.547393630000186e-01	 2.201767510424071e+00	 3.075752905029610e+00
 6.345728350933605e-01	 2.207664199658510e+00	 3.041853962801617e+00
 6.144009264192466e-01	 2.213362931244411e+00	 3.027106547724202e+00
 5.942263557304979e-01	 2.218864354021305e+00	 3.037003708389812e+00
 7.985767718033495e-01	 2.163180455695149e+00	 3.338506222773717e+00
 7.784489379947221e-01	 2.170504996192819e+00	 3.324900478160385e+00
 7.582959702572135e-01	 2.177627624084735e+00	 3.297025445882178e+00
 7.381207476882913e-01	 2.184548644133895e+00	 3.258642999321091e+00
 7.179261310959593e-01	 2.191268412863725e+00	 3.212101255918563e+00
 6.977149619111488e-01	 2.197787337847918e+00	 3.161806819090510e+00
 6.774900611270990e-01	 2.204105876975182e+00	 3.113563087151586e+00
 6.572542282663105e-01	 2.210224537689943e+00	 3.073036284430056e+00
 6.370102403756142e-01	 2.216143876210095e+00	 3.045721956504436e+00
 6.167608510498497e-01	 2.221864496722888e+00	 3.036917285009800e+00
 5.965087894846076e-01	 2.227387050560041e+00	 3.051961857613730e+00
 8.016323824034624e-01	 2.171457477229453e+00	 3.303737741313242e+00
 7.814275330532683e-01	 2.178810043765883e+00	 3.290047077464897e+00
 7.611974536037734e-01	 2.185959925114283e+00	 3.264883865573154e+00
 7.409450341687908e-01	 2.192907427203756e+00	 3.231578517830907e+00
 7.206731465026885e-01	 2.199652907921883e+00	 3.192123308698859e+00
 7.003846429086187e-01	 2.206196776401851e+00	 3.149706765981365e+00
 6.800823551738414e-01	 2.212539492284382e+00	 3.109612977792773e+00
 6.597690935327222e-01	 2.218681564955529e+00	 3.076964877299583e+00
 6.394476456579596e-01	 2.224623552761442e+00	 3.056785310592504e+00
 6.191207756805260e-01	 2.230366062201167e+00	 3.054375136029554e+00
 5.987912232387845e-01	 2.235909747098613e+00	 3.073779314978217e+00
 8.046879930039602e-01	 2.179734498763173e+00	 3.267803222578995e+00
 7.844061281122209e-01	 2.187115091338370e+00	 3.254389750082101e+00
 7.640989369507413e-01	 2.194292226143276e+00	 3.232824469520183e+00
 7.437693206496833e-01	 2.201266210273095e+00	 3.205788744821973e+00
 7.234201619097839e-01	 2.208037402979565e+00	 3.174869734717950e+00
 7.030543239064208e-01	 2.214606214955360e+00	 3.141803801307566e+00
 6.826746492208779e-01	 2.220973107593211e+00	 3.111117855722349e+00
 6.622839587993923e-01	 2.227138592220802e+00	 3.087662677011354e+00
 6.418850509405333e-01	 2.233103229312530e+00	 3.076160271296435e+00
 6.214807003114096e-01	 2.238867627679239e+00	 3.079867539806360e+00
 6.010736569931618e-01	 2.244432443637021e+00	 3.101791807824525e+00
 5.782493194424027e-01	 2.159205478245480e+00	 3.172768167147908e+00
 5.586172158277957e-01	 2.164367656603575e+00	 3.143670674776720e+00
 5.389877401750129e-01	 2.169339230627673e+00	 3.132505695478713e+00
 5.193634634720780e-01	 2.174120966629006e+00	 3.137296380550938e+00
 4.997469295961534e-01	 2.178713673225113e+00	 3.155862919521253e+00
 4.801406545416229e-01	 2.183118200453216e+00	 3.185828241456039e+00
 4.605471256781661e-01	 2.187335438869950e+00	 3.224626773466869e+00
 4.409688010389614e-01	 2.191366318638528e+00	 3.269515987055306e+00
 4.214081086391326e-01	 2.195211808604377e+00	 3.317590454180331e+00
 4.018674458244917e-01	 2.198872915360329e+00	 3.365798128411702e+00
 3.823491786506145e-01	 2.202350682302378e+00	 3.410958562193503e+00
 5.805317531997776e-01	 2.167728174785390e+00	 3.120419886178929e+00
 5.608221588307604e-01	 2.172910729008428e+00	 3.104235440643520e+00
 5.411152027964579e-01	 2.177901926554573e+00	 3.109357382069057e+00
 5.214134662329624e-01	 2.182702536759802e+00	 3.132772422170294e+00
 5.017195030584956e-01	 2.187313371433394e+00	 3.171241293150657e+00
 4.820358391984427e-01	 2.191735283967799e+00	 3.221306733851625e+00
 4.623649718404984e-01	 2.195969168434815e+00	 3.279304609664760e+00
 4.427093687200609e-01	 2.200015958669146e+00	 3.341377886085836e+00
 4.230714674359884e-01	 2.203876627340405e+00	 3.403493166909903e+00
 4.034536747967711e-01	 2.207552185014595e+00	 3.461459501479933e+00
 3.838583661971548e-01	 2.211043679206151e+00	 3.510949161058781e+00
 5.828141869562861e-01	 2.176250871325130e+00	 3.080858518195575e+00
 5.630271018328598e-01	 2.181453801413066e+00	 3.076696539487637e+00
 5.432426654170399e-01	 2.186464622481203e+00	 3.096087075988587e+00
 5.234634689929882e-01	 2.191284106890273e+00	 3.135207167192048e+00
 5.036920765199844e-01	 2.195913069641293e+00	 3.189987450919130e+00
 4.839310238544153e-01	 2.200352367481941e+00	 3.256122105662274e+00
 4.641828180019897e-01	 2.204602897999183e+00	 3.329082009284396e+00
 4.444499364003264e-01	 2.208665598699223e+00	 3.404130823430982e+00
 4.247348262320168e-01	 2.212541446075854e+00	 3.476343703982727e+00
 4.050399037682288e-01	 2.216231454668254e+00	 3.540628331203988e+00
 3.853675537428787e-01	 2.219736676109307e+00	 3.591747948873905e+00
 5.850966207120616e-01	 2.184773567864700e+00	 3.052984889428449e+00
 5.652320448342278e-01	 2.189996873817498e+00	 3.059751995961714e+00
 5.453701280368968e-01	 2.195027318407586e+00	 3.091259530652938e+00
 5.255134717522970e-01	 2.199865677020448e+00	 3.143098712717855e+00
 5.056646499807671e-01	 2.204512767848845e+00	 3.210596501180940e+00
 4.858262085096931e-01	 2.208969450995686e+00	 3.288827167653970e+00
 4.660006641627995e-01	 2.213236627563107e+00	 3.372627174110411e+00
 4.461905040799235e-01	 2.217315238728811e+00	 3.456613054723026e+00
 4.263981850273895e-01	 2.221206264810776e+00	 3.535201991630134e+00
 4.066261327390430e-01	 2.224910724321361e+00	 3.602533647780732e+00
 3.868767412879703e-01	 2.228429673011896e+00	 3.652435640324815e+00
 5.873790544672369e-01	 2.193296264404102e+00	 3.035717592469448e+00
 5.674369878349996e-01	 2.198539946221737e+00	 3.052119935633882e+00
 5.474975906561652e-01	 2.203590014333742e+00	 3.093460946598684e+00
 5.275634745110304e-01	 2.208447247150357e+00	 3.154967004853219e+00
 5.076372234409896e-01	 2.213112466056087e+00	 3.231584902951705e+00
 4.877213931644295e-01	 2.217586534509080e+00	 3.317994726824226e+00
 4.678185103230870e-01	 2.221870357126636e+00	 3.408626135791527e+00
 4.479310717590181e-01	 2.225964878757965e+00	 3.497529975110973e+00
 4.280615438222796e-01	 2.229871083545230e+00	 3.578428298528479e+00
 4.082123617093930e-01	 2.233589993973973e+00	 3.645078765917392e+00
 3.883859288326132e-01	 2.237122669913967e+00	 3.691172759565490e+00
 5.896614882219460e-01	 2.201818960943336e+00	 3.027992869528767e+00
 5.696419308353097e-01	 2.207083018625792e+00	 3.052538395368144e+00
 5.496250532749830e-01	 2.212152710259691e+00	 3.101298729827204e+00
 5.296134772693294e-01	 2.217028817280029e+00	 3.169353564997692e+00
 5.096097969007990e-01	 2.221712164263061e+00	 3.251490179264129e+00
 4.896165778187765e-01	 2.226203618022165e+00	 3.342126232904827e+00
 4.696363564830114e-01	 2.230504086689820e+00	 3.435232504746220e+00
 4.496716394377758e-01	 2.234614518786735e+00	 3.524650080865387e+00
 4.297249026168588e-01	 2.238535902279266e+00	 3.604107427306980e+00
 4.097985906794562e-01	 2.242269263626135e+00	 3.667243589854400e+00
 3.898951163769912e-01	 2.245815666815570e+00	 3.707631136495791e+00
 5.919439219763216e-01	 2.210341657482403e+00	 3.028764502319196e+00
 5.718468738352918e-01	 2.215626091029676e+00	 3.059765141720300e+00
 5.517525158934872e-01	 2.220715406185453e+00	 3.113401259082641e+00
 5.316634800273360e-01	 2.225610387409493e+00	 3.184821874948431e+00
 5.115823703603422e-01	 2.230311862469800e+00	 3.268695026680157e+00
 4.915117624728872e-01	 2.234820701534987e+00	 3.359275403901569e+00
 4.714542026427314e-01	 2.239137816252708e+00	 3.450649729496232e+00
 4.514122071163629e-01	 2.243264158815177e+00	 3.536768829580210e+00
 4.313882614112995e-01	 2.247200721012941e+00	 3.611472367693995e+00
 4.113848196494116e-01	 2.250948533277908e+00	 3.668512553852079e+00
 3.914043039212879e-01	 2.254508663716754e+00	 3.701576863509243e+00
 5.942263557304979e-01	 2.218864354021305e+00	 3.037003708389812e+00
 5.740518168350808e-01	 2.224169163433397e+00	 3.072602208461451e+00
 5.538799785118151e-01	 2.229278102111049e+00	 3.128587885334383e+00
 5.337134827851910e-01	 2.234191957538781e+00	 3.200031439373561e+00
 5.135549438197654e-01	 2.238911560676342e+00	 3.281690816329690e+00
 4.934069471269141e-01	 2.243437785047590e+00	 3.368140803191682e+00
 4.732720488024067e-01	 2.247771545815349e+00	 3.453799434520273e+00
 4.531527747949448e-01	 2.251913798843344e+00	 3.532953291012023e+00
 4.330516202057744e-01	 2.255865539746309e+00	 3.599781718452804e+00
 4.129710486194372e-01	 2.259627802929341e+00	 3.648380000573193e+00
 3.929134914656874e-01	 2.263201660617569e+00	 3.672781523972018e+00
 5.965087894846076e-01	 2.227387050560041e+00	 3.051961857613730e+00
 5.762567598348114e-01	 2.232712235836967e+00	 3.090524988188572e+00
 5.560074411301041e-01	 2.237840798036500e+00	 3.145968148205880e+00
 5.357634855430367e-01	 2.242773527667920e+00	 3.213788753810957e+00
 5.155275172792155e-01	 2.247511258882727e+00	 3.289282483124465e+00
 4.953021317810100e-01	 2.252054868560018e+00	 3.367570031500299e+00
 4.750898949621962e-01	 2.256405275377793e+00	 3.443622709630763e+00
 4.548933424736874e-01	 2.260563438871286e+00	 3.512286909990901e+00
 4.347149790004553e-01	 2.264530358479424e+00	 3.568307473248939e+00
 4.145572775897117e-01	 2.268307072580489e+00	 3.606349991680775e+00
 3.944226790103732e-01	 2.271894657518064e+00	 3.621022091314698e+00
 5.987912232387845e-01	 2.235909747098613e+00	 3.073779314978217e+00
 5.784617028346182e-01	 2.241255308240398e+00	 3.112815836492774e+00
 5.581349037484914e-01	 2.246403493961826e+00	 3.164454243344180e+00
 5.378134883010135e-01	 2.251355097796938e+00	 3.224931765616754e+00
 5.175000907388394e-01	 2.256110957088990e+00	 3.290295964632994e+00
 4.971973164353277e-01	 2.260671952072315e+00	 3.356430362659879e+00
 4.769077411222592e-01	 2.265039004940090e+00	 3.419078890739286e+00
 4.566339101527566e-01	 2.269213078899059e+00	 3.473869184024145e+00
 4.363783377955150e-01	 2.273195177212341e+00	 3.516334760201887e+00
 4.161435065604135e-01	 2.276986342231405e+00	 3.541936122038084e+00
 3.959318665555291e-01	 2.280587654418289e+00	 3.546080829779662e+00
 6.010736569931618e-01	 2.244432443637021e+00	 3.101791807824525e+00
 5.806666458346349e-01	 2.249798380643699e+00	 3.138523714391798e+00
 5.602623663671141e-01	 2.254966189887047e+00	 3.182970623188661e+00
 5.398634910592640e-01	 2.259936667925870e+00	 3.232318065818800e+00
 5.194726641987837e-01	 2.264710655295170e+00	 3.283577075138780e+00
 4.990925010900198e-01	 2.269289035584527e+00	 3.333608346761205e+00
 4.787255872827550e-01	 2.273672734502291e+00	 3.379145196474126e+00
 4.583744778323183e-01	 2.277862718926716e+00	 3.416815347349490e+00
 4.380416965911256e-01	 2.281859995945114e+00	 3.443161586561899e+00
 4.177297355317209e-01	 2.285665611882142e+00	 3.454661337414965e+00
 3.974410541013390e-01	 2.289280651318292e+00	 3.447745196779870e+00
 3.823491786506145e-01	 2.202350682302378e+00	 3.410958562193503e+00
 3.628523302823573e-01	 2.205646733239143e+00	 3.440895030025445e+00
 3.433825281487635e-01	 2.208761574701650e+00	 3.448485302632010e+00
 3.239420471692807e-01	 2.211696353730531e+00	 3.436554077944614e+00
 3.045331286623382e-01	 2.214452250366265e+00	 3.407925711802164e+00
 2.851579798744769e-01	 2.217030476671454e+00	 3.365654499967063e+00
 2.658187735393538e-01	 2.219432275749678e+00	 3.313008683512018e+00
 2.465176474664039e-01	 2.221658920761856e+00	 3.253451393199175e+00
 2.272567041589152e-01	 2.223711713941045e+00	 3.190600042181018e+00
 2.080380104612432e-01	 2.225591985606564e+00	 3.128220430537715e+00
 1.888635972348596e-01	 2.227301093178355e+00	 3.070260982659106e+00
 3.838583661971548e-01	 2.211043679206151e+00	 3.510949161058781e+00
 3.642845609462932e-01	 2.214352740133107e+00	 3.540045583615448e+00
 3.447379086855124e-01	 2.217479876325829e+00	 3.543261495318860e+00
 3.252206933137017e-01	 2.220426239352480e+00	 3.524150983084016e+00
 3.057351649961038e-01	 2.223193013911316e+00	 3.486184426428415e+00
 2.862835396915866e-01	 2.225781416849120e+00	 3.432982490072916e+00
 2.668679987099064e-01	 2.228192696176171e+00	 3.368564504583264e+00
 2.474906882987467e-01	 2.230428130078733e+00	 3.297203734277608e+00
 2.281537192602854e-01	 2.232489025929950e+00	 3.223348228895327e+00
 2.088591665970166e-01	 2.234376719300101e+00	 3.151588553301926e+00
 1.896090691865213e-01	 2.236092572967051e+00	 3.086627075167541e+00
 3.853675537428787e-01	 2.219736676109307e+00	 3.591747948873906e+00
 3.657167916094172e-01	 2.223058747026457e+00	 3.618370994425156e+00
 3.460932892214530e-01	 2.226198177949418e+00	 3.616469262200071e+00
 3.264993394573170e-01	 2.229156124973871e+00	 3.590163404422174e+00
 3.069372013290657e-01	 2.231933777455859e+00	 3.543531992605897e+00
 2.874090995078942e-01	 2.234532357026339e+00	 3.480941436521532e+00
 2.679172238796579e-01	 2.236953116602290e+00	 3.407007755917278e+00
 2.484637291302891e-01	 2.239197339395315e+00	 3.326560187979001e+00
 2.290507343608555e-01	 2.241266337918653e+00	 3.244606549483343e+00
 2.096803227319902e-01	 2.243161452993535e+00	 3.166300271157114e+00
 1.903545411373831e-01	 2.244884052755747e+00	 3.096909021085049e+00
 3.868767412879703e-01	 2.228429673011896e+00	 3.652435640324815e+00
 3.671490222719179e-01	 2.231764753919240e+00	 3.674496043878262e+00
 3.474486697567771e-01	 2.234916479572446e+00	 3.666638185565256e+00
 3.277779856003216e-01	 2.237886010594730e+00	 3.633566133506490e+00
 3.081392376614210e-01	 2.240674540999905e+00	 3.579724765665598e+00
 2.885346593235978e-01	 2.243283297203106e+00	 3.509850544670304e+00
 2.689664490488076e-01	 2.245713537028013e+00	 3.428932765763927e+00
 2.494367699612307e-01	 2.247966548711565e+00	 3.342176676405494e+00
 2.299477494608254e-01	 2.250043649907096e+00	 3.254968383258295e+00
 2.105014788663636e-01	 2.251946186686789e+00	 3.172841460916445e+00
 1.911000130876450e-01	 2.253675532544351e+00	 3.101445176119878e+00
 3.883859288326132e-01	 2.237122669913967e+00	 3.691172759565490e+00
 3.685812529339829e-01	 2.240470760811494e+00	 3.707522952385811e+00
 3.488040502916766e-01	 2.243634781194952e+00	 3.693704025496966e+00
 3.290566317429092e-01	 2.246615896215075e+00	 3.654760986272441e+00
 3.093412739933658e-01	 2.249415304543459e+00	 3.595333407134571e+00
 2.896602191388955e-01	 2.252034237379413e+00	 3.520353851296871e+00
 2.700156742175540e-01	 2.254473957453314e+00	 3.435008877057193e+00
 2.504098107917710e-01	 2.256735758027442e+00	 3.344701946139315e+00
 2.308447645603949e-01	 2.258820961895221e+00	 3.255018148222378e+00
 2.113226350003370e-01	 2.260730920379785e+00	 3.171690652479092e+00
 1.918454850375068e-01	 2.262467012332769e+00	 3.100568796435087e+00
 3.898951163769912e-01	 2.245815666815570e+00	 3.707631136495791e+00
 3.700134835958010e-01	 2.249176767703266e+00	 3.717492813348925e+00
 3.501594308263428e-01	 2.252353082816968e+00	 3.697934632157518e+00
 3.303352778852750e-01	 2.255345781834930e+00	 3.654188906829323e+00
 3.105433103250967e-01	 2.258156068086532e+00	 3.590920404690775e+00
 2.907857789539853e-01	 2.260785177555253e+00	 3.513085957150599e+00
 2.710648993860964e-01	 2.263234377878171e+00	 3.425895499128607e+00
 2.513828516221095e-01	 2.265504967342905e+00	 3.334775041448581e+00
 2.317417796597639e-01	 2.267598273882971e+00	 3.245331484349973e+00
 2.121437911341104e-01	 2.269515654072454e+00	 3.163319179045085e+00
 1.925909569871686e-01	 2.271258492120908e+00	 3.094608143848761e+00
 3.914043039212879e-01	 2.254508663716754e+00	 3.701576863509243e+00
 3.714457142575599e-01	 2.257882774594598e+00	 3.704445832831421e+00
 3.515148113609678e-01	 2.261071384438524e+00	 3.679594733452022e+00
 3.316139240276131e-01	 2.264075667454317e+00	 3.632284870522661e+00
 3.117453466568103e-01	 2.266896831629129e+00	 3.567040250743385e+00
 2.919113387690648e-01	 2.269536117730618e+00	 3.488672226454350e+00
 2.721141245546337e-01	 2.271994798302562e+00	 3.402242313836136e+00
 2.523558924524459e-01	 2.274274176657915e+00	 3.313025503403784e+00
 2.326387947591321e-01	 2.276375585870287e+00	 3.226475432708984e+00
 2.129649472678835e-01	 2.278300387764714e+00	 3.148191323916038e+00
 1.933364289368304e-01	 2.280049971908675e+00	 3.083886588647038e+00
 3.929134914656874e-01	 2.263201660617569e+00	 3.672781523972018e+00
 3.728779449194480e-01	 2.266588781485531e+00	 3.668419774531416e+00
 3.528701918957430e-01	 2.269789686059657e+00	 3.638946024423257e+00
 3.328925701701180e-01	 2.272805553073256e+00	 3.589478023570258e+00
 3.129473829887030e-01	 2.275637595171260e+00	 3.524239617076256e+00
 2.930368985843323e-01	 2.278287057905504e+00	 3.447728981956656e+00
 2.731633497233648e-01	 2.280755218726461e+00	 3.364689477063935e+00
 2.533289332829796e-01	 2.283043385972431e+00	 3.280073564503708e+00
 2.335358098586995e-01	 2.285152897857111e+00	 3.199008610532127e+00
 2.137861034018567e-01	 2.287085121456493e+00	 3.126764463973558e+00
 1.940819008866921e-01	 2.288841451695976e+00	 3.068722710074083e+00
 3.944226790103732e-01	 2.271894657518064e+00	 3.621022091314698e+00
 3.743101755816536e-01	 2.275294788376108e+00	 3.609456342521121e+00
 3.542255724308606e-01	 2.278507987680400e+00	 3.576247254844466e+00
 3.341712163129843e-01	 2.281535438691769e+00	 3.526191819704485e+00
 3.141494193209712e-01	 2.284378358712934e+00	 3.463057525659851e+00
 2.941624583999858e-01	 2.287037998079902e+00	 3.390863695653606e+00
 2.742125748924886e-01	 2.289515639149848e+00	 3.313867815717294e+00
 2.543019741139103e-01	 2.291812595286413e+00	 3.236530338930800e+00
 2.344328249586660e-01	 2.293930209843388e+00	 3.163481382346720e+00
 2.146072595362296e-01	 2.295869855147714e+00	 3.099489209924314e+00
 1.948273728369537e-01	 2.297632931482718e+00	 3.049430394561263e+00
 3.959318665555291e-01	 2.280587654418289e+00	 3.546080829779662e+00
 3.757424062443647e-01	 2.284000795266373e+00	 3.527598575954228e+00
 3.555809529665118e-01	 2.287226289300784e+00	 3.491754315058043e+00
 3.354498624564063e-01	 2.290265324309880e+00	 3.442844153900689e+00
 3.153514556538118e-01	 2.293119122254156e+00	 3.384025515733843e+00
 2.952880182162232e-01	 2.295788938253804e+00	 3.318675175295979e+00
 2.752618000622042e-01	 2.298276059572699e+00	 3.250399020332642e+00
 2.552750149454373e-01	 2.300581804599820e+00	 3.182998008552861e+00
 2.353298400592313e-01	 2.302707521829055e+00	 3.120436027268099e+00
 2.154284156712022e-01	 2.304654588838302e+00	 3.066809543398032e+00
 1.955728447878152e-01	 2.306424411268809e+00	 3.026318931755820e+00
 3.974410541013390e-01	 2.289280651318292e+00	 3.447745196779871e+00
 3.771746369077695e-01	 2.292706802156369e+00	 3.422890651659368e+00
 3.569363335028887e-01	 2.295944590920846e+00	 3.385720320106862e+00
 3.367285086005786e-01	 2.298995209927609e+00	 3.339847493269295e+00
 3.165534919874212e-01	 2.301859885794940e+00	 3.287667807259658e+00
 2.964135780332426e-01	 2.304539878427208e+00	 3.231753746793574e+00
 2.763110252327106e-01	 2.307036479994991e+00	 3.174895833419418e+00
 2.562480557777606e-01	 2.309351013912615e+00	 3.120070004783952e+00
 2.362268551605955e-01	 2.311484833814059e+00	 3.070406902558631e+00
 2.162495718069747e-01	 2.313439322528182e+00	 3.029162950982107e+00
 1.963183167394766e-01	 2.315215891054156e+00	 2.999693108407573e+00
 1.888635972348596e-01	 2.227301093178355e+00	 3.070260982659106e+00
 1.697386989461173e-01	 2.228840172817007e+00	 3.027526950643114e+00
 1.506619724293075e-01	 2.230210937148586e+00	 3.004457493800777e+00
 1.316352944638852e-01	 2.231414817817765e+00	 2.995577378347069e+00
 1.126605060445370e-01	 2.232453269611154e+00	 2.995441640926840e+00
 9.373941219014767e-02	 2.233327769499624e+00	 2.998622698308836e+00
 7.487378177835993e-02	 2.234039815685173e+00	 2.999698226748460e+00
 5.606534740530249e-02	 2.234590926653027e+00	 2.993239737160838e+00
 3.731580527004347e-02	 2.234982640229672e+00	 2.973801776297215e+00
 1.862681508331029e-02	 2.235216512647499e+00	 2.935911688412574e+00
 0.000000000000000e+00	 2.235294117616666e+00	 2.874059876318598e+00
 1.896090691865213e-01	 2.236092572967051e+00	 3.086627075167541e+00
 1.704086821563501e-01	 2.237637727575971e+00	 3.039031862312523e+00
 1.512566570391123e-01	 2.239013902512914e+00	 3.012246572970833e+00
 1.321548780221677e-01	 2.240222535073460e+00	 3.000408123650757e+00
 1.131051933668601e-01	 2.241265085786478e+00	 2.997675822181393e+00
 9.410941521672982e-02	 2.242143037452657e+00	 2.998219360762362e+00
 7.516931943142079e-02	 2.242857894187619e+00	 2.996207567071579e+00
 5.628664544585469e-02	 2.243411180470268e+00	 2.985797836374933e+00
 3.746309615422838e-02	 2.243804440197124e+00	 2.961126171860181e+00
 1.870033781837339e-02	 2.244039235743249e+00	 2.916297764942805e+00
 0.000000000000000e+00	 2.244117147030466e+00	 2.845378051938031e+00
 1.903545411373831e-01	 2.244884052755747e+00	 3.096909021085049e+00
 1.710786653657838e-01	 2.246435282335047e+00	 3.046478613243057e+00
 1.518513416481237e-01	 2.247816867877463e+00	 3.017384624015599e+00
 1.326744615796724e-01	 2.249030252329490e+00	 3.003508280473857e+00
 1.135498806884355e-01	 2.250076901962240e+00	 2.998746683156014e+00
 9.447941824261366e-02	 2.250958305406227e+00	 2.997001501064722e+00
 7.546485708385678e-02	 2.251675972690686e+00	 2.992168416145617e+00
 5.650794348588412e-02	 2.252231434288208e+00	 2.978127237118302e+00
 3.761038703802571e-02	 2.252626240165328e+00	 2.948732607029143e+00
 1.877386055322171e-02	 2.252861958839786e+00	 2.897805233644680e+00
 0.000000000000000e+00	 2.252940176445066e+00	 2.819123576684353e+00
 1.911000130876450e-01	 2.253675532544351e+00	 3.101445176119878e+00
 1.717486485746180e-01	 2.255232837094122e+00	 3.050060716625499e+00
 1.524460262565400e-01	 2.256619833242108e+00	 3.019962997064898e+00
 1.331940451365936e-01	 2.257837969585706e+00	 3.004907960680511e+00
 1.139945680094499e-01	 2.258888718138283e+00	 2.998662260912648e+00
 9.484942126797379e-02	 2.259773573360162e+00	 2.994992478567519e+00
 7.576039473582419e-02	 2.260494051194198e+00	 2.987655082889547e+00
 5.672924152552148e-02	 2.261051688106654e+00	 2.970387053459555e+00
 3.775767792153237e-02	 2.261448040134089e+00	 2.936897084551696e+00
 1.884738328790895e-02	 2.261684681936912e+00	 2.880857298548354e+00
 0.000000000000000e+00	 2.261763205860265e+00	 2.795895400118978e+00
 1.918454850375068e-01	 2.262467012332769e+00	 3.100568796435087e+00
 1.724186317830527e-01	 2.264030391853086e+00	 3.049968800438579e+00
 1.530407108645597e-01	 2.265422798606721e+00	 3.020071714201499e+00
 1.337136286931259e-01	 2.266645686841974e+00	 3.004636872963653e+00
 1.144392553300906e-01	 2.267700534314453e+00	 2.997430506910252e+00
 9.521942429298476e-02	 2.268588841314297e+00	 2.992215302348806e+00
 7.605593238747917e-02	 2.269312129697973e+00	 2.982740704179823e+00
 5.695053956489744e-02	 2.269871941925420e+00	 2.962733873754361e+00
 3.790496880484522e-02	 2.270269840103212e+00	 2.925891221129016e+00
 1.892090602248878e-02	 2.270507405034428e+00	 2.865870435906110e+00
 0.000000000000000e+00	 2.270586235275865e+00	 2.776282946173422e+00
 1.925909569871686e-01	 2.271258492120908e+00	 3.094608143848761e+00
 1.730886149912876e-01	 2.272827946611831e+00	 3.046390668541837e+00
 1.536353954723810e-01	 2.274225763971177e+00	 3.017799499396440e+00
 1.342332122494638e-01	 2.275453404098145e+00	 3.002724334054157e+00
 1.148839426505443e-01	 2.276512350490592e+00	 2.995059291399061e+00
 9.558942731782116e-02	 2.277404109268463e+00	 2.988692640181763e+00
 7.635147003897792e-02	 2.278130208201834e+00	 2.977497269259865e+00
 5.717183760414270e-02	 2.278692195744318e+00	 2.955321810838269e+00
 3.805225968806117e-02	 2.279091640072504e+00	 2.915982333210392e+00
 1.899442875701491e-02	 2.279330128132136e+00	 2.853254524882879e+00
 0.000000000000000e+00	 2.279409264691664e+00	 2.760866297506180e+00
 1.933364289368304e-01	 2.280049971908675e+00	 3.083886588647038e+00
 1.737585981995224e-01	 2.281625501370243e+00	 3.039511360389761e+00
 1.542300800802022e-01	 2.283028729335347e+00	 3.013233807776635e+00
 1.347527958058015e-01	 2.284261121354082e+00	 2.999199279687850e+00
 1.153286299709979e-01	 2.285324166666546e+00	 2.991556407724363e+00
 9.595943034265751e-02	 2.286219377222491e+00	 2.984446827302714e+00
 7.664700769047661e-02	 2.286948286705600e+00	 2.971995643588579e+00
 5.739313564338794e-02	 2.287512449563160e+00	 2.948302551060122e+00
 3.819955057127708e-02	 2.287913440041769e+00	 2.907433520803633e+00
 1.906795149154102e-02	 2.288152851229837e+00	 2.843412975223379e+00
 0.000000000000000e+00	 2.288232294107464e+00	 2.750216375594539e+00
 1.940819008866921e-01	 2.288841451695976e+00	 3.068722710074083e+00
 1.744285814079569e-01	 2.290423056128214e+00	 3.029513209404171e+00
 1.548247646882218e-01	 2.291831694699106e+00	 3.006460854242738e+00
 1.352723793623337e-01	 2.293068838609642e+00	 2.994090275336819e+00
 1.157733172916385e-01	 2.294135982842159e+00	 2.986929576542288e+00
 9.632943336766836e-02	 2.295034645176212e+00	 2.979499874983896e+00
 7.694254534213150e-02	 2.295766365209097e+00	 2.966305592143010e+00
 5.761443368276380e-02	 2.296332703381759e+00	 2.941825402187173e+00
 3.834684145458987e-02	 2.296735240010814e+00	 2.900503749354507e+00
 1.914147422612082e-02	 2.296975574327333e+00	 2.836742851977122e+00
 0.000000000000000e+00	 2.297055323523064e+00	 2.744895116675896e+00
 1.948273728369537e-01	 2.297632931482718e+00	 3.049430394561263e+00
 1.750985646167911e-01	 2.299220610885635e+00	 3.016575900040812e+00
 1.554194492966379e-01	 2.300634660062328e+00	 2.997565641454612e+00
 1.357919629192548e-01	 2.301876555864683e+00	 2.987425526711286e+00
 1.162180046126528e-01	 2.302947799017273e+00	 2.981186449949857e+00
 9.669943639302830e-02	 2.303849913129458e+00	 2.973873478916133e+00
 7.723808299409873e-02	 2.304584443712136e+00	 2.960495802189724e+00
 5.783573172240101e-02	 2.305152957199925e+00	 2.936037340212185e+00
 3.849413233809643e-02	 2.305557039979444e+00	 2.895447929747080e+00
 1.921499696080799e-02	 2.305798297424425e+00	 2.833634997360051e+00
 0.000000000000000e+00	 2.305878352938263e+00	 2.745455643649805e+00
 1.955728447878152e-01	 2.306424411268809e+00	 3.026318931755820e+00
 1.757685478262243e-01	 2.308018165642391e+00	 3.000876523584990e+00
 1.560141339056490e-01	 2.309437625424884e+00	 2.986631987201342e+00
 1.363115464767591e-01	 2.310684273119061e+00	 2.979232890038317e+00
 1.166626919342278e-01	 2.311759615191734e+00	 2.974334615531697e+00
 9.706943941891187e-02	 2.312665181082062e+00	 2.967589027406555e+00
 7.753362064653452e-02	 2.313402522214548e+00	 2.954633905539133e+00
 5.805702976243027e-02	 2.313973211017472e+00	 2.931083055091729e+00
 3.864142322189361e-02	 2.314378839947464e+00	 2.892516996475003e+00
 1.928851969565624e-02	 2.314621020520913e+00	 2.834474149829302e+00
 0.000000000000000e+00	 2.314701382352864e+00	 2.752442434048562e+00
 1.963183167394766e-01	 2.315215891054156e+00	 2.999693108407573e+00
 1.764385310364568e-01	 2.316815720398379e+00	 2.982589632710061e+00
 1.566088185154535e-01	 2.318240590786652e+00	 2.973742551172117e+00
 1.368311300350413e-01	 2.319491990372638e+00	 2.969539882123153e+00
 1.171073792565506e-01	 2.320571431365386e+00	 2.966381600325541e+00
 9.743944244549368e-02	 2.321480449033855e+00	 2.960667609396268e+00
 7.782915829959509e-02	 2.322220600716149e+00	 2.948786500296447e+00
 5.827832780298224e-02	 2.322793464834211e+00	 2.927104995444183e+00
 3.878871410607834e-02	 2.323200639914681e+00	 2.891957984032400e+00
 1.936204243071925e-02	 2.323443743616602e+00	 2.839639060445104e+00
 0.000000000000000e+00	 2.323524411766664e+00	 2.766391484180686e+00
 2.323524411766664e+00	 0.000000000000000e+00	 6.534538569154137e+00
 2.323443743616602e+00	 1.936204243071796e-02	 4.970990027215373e+00
 2.323200639914680e+00	 3.878871410607723e-02	 3.647395692043099e+00
 2.322793464834211e+00	 5.827832780298133e-02	 2.607349632835875e+00
 2.322220600716149e+00	 7.782915829959436e-02	 1.886507013324377e+00
 2.321480449033855e+00	 9.743944244549314e-02	 1.512323971919227e+00
 2.320571431365386e+00	 1.171073792565502e-01	 1.503801876750778e+00
 2.319491990372638e+00	 1.368311300350412e-01	 1.871236471008831e+00
 2.318240590786651e+00	 1.566088185154535e-01	 2.615972424460815e+00
 2.316815720398378e+00	 1.764385310364570e-01	 3.730163804915825e+00
 2.315215891054155e+00	 1.963183167394767e-01	 5.196540979772501e+00
 2.332348940767776e+00	 0.000000000000000e+00	 6.005362423208771e+00
 2.332267966247539e+00	 1.943557766217617e-02	 5.231892151067735e+00
 2.332023939260249e+00	 3.893603002471444e-02	 4.548153709343854e+00
 2.331615217766517e+00	 5.849966345662133e-02	 4.005183850120000e+00
 2.331040177963597e+00	 7.812474618384858e-02	 3.645209616278666e+00
 2.330297215253816e+00	 9.780950835971168e-02	 3.501357620788041e+00
 2.329384745220547e+00	 1.175521421601332e-01	 3.597368095171740e+00
 2.328301204611078e+00	 1.373508019042064e-01	 3.947314279987551e+00
 2.327045052325661e+00	 1.572036042005578e-01	 4.555327731302680e+00
 2.325614770412040e+00	 1.771086281199704e-01	 5.415330115725388e+00
 2.324008865064697e+00	 1.970639153947111e-01	 6.510772063489712e+00
 2.341173467267554e+00	 0.000000000000000e+00	 5.020476797474368e+00
 2.341092186377230e+00	 1.950911287302710e-02	 5.109213520490511e+00
 2.340847236104838e+00	 3.908334590202416e-02	 5.135030898979628e+00
 2.340436968198291e+00	 5.872099904810694e-02	 5.153324724576632e+00
 2.339859752711145e+00	 7.842033398502124e-02	 5.210216382795863e+00
 2.339113978974688e+00	 9.817957416982777e-02	 5.342244729154618e+00
 2.338198056577620e+00	 1.179969049385057e-01	 5.576062948343176e+00
 2.337110416352620e+00	 1.378704736269727e-01	 5.928141002123454e+00
 2.335849511369155e+00	 1.577983897180010e-01	 6.404474273065354e+00
 2.334413817931758e+00	 1.777787250144939e-01	 7.000299010110770e+00
 2.332801836583068e+00	 1.978095138395674e-01	 7.699815179119556e+00
 2.349997988765666e+00	 0.000000000000000e+00	 3.658770022159636e+00
 2.349916401505432e+00	 1.958264804239493e-02	 4.643427284035056e+00
 2.349670527948471e+00	 3.923066169619430e-02	 5.416094528544787e+00
 2.349258713629998e+00	 5.894233451463022e-02	 6.033488438105395e+00
 2.348679322459877e+00	 7.871592161924970e-02	 6.542989650391156e+00
 2.347930737698365e+00	 9.854963977086598e-02	 6.982330339222440e+00
 2.347011362939482e+00	 1.184416674655224e-01	 7.379286812870674e+00
 2.345919623101312e+00	 1.383901450559685e-01	 7.751377743881255e+00
 2.344653965422533e+00	 1.583931748991300e-01	 8.105568645805301e+00
 2.343212860464476e+00	 1.784488215300385e-01	 8.437983211032213e+00
 2.341594803117931e+00	 1.985551118626670e-01	 8.733622120976458e+00
 2.358822502761778e+00	 0.000000000000000e+00	 1.997950478955142e+00
 2.358740609131898e+00	 1.965618314940383e-02	 3.874400729377220e+00
 2.358493812291163e+00	 3.937797736541278e-02	 5.399290297023225e+00
 2.358080451562100e+00	 5.916366979338318e-02	 6.627663415108691e+00
 2.357498884710881e+00	 7.901150900267125e-02	 7.605566689286950e+00
 2.356747488926737e+00	 9.891970505785086e-02	 8.369745402827698e+00
 2.355824661809015e+00	 1.188864296150379e-01	 8.947344694998636e+00
 2.354728822361202e+00	 1.389098160438223e-01	 9.355616210878956e+00
 2.353458411991198e+00	 1.589879595752919e-01	 9.601630821564669e+00
 2.352011895517132e+00	 1.791189174766153e-01	 9.681998012075054e+00
 2.350387762177955e+00	 1.993007092526315e-01	 9.582592530891285e+00
 2.367647006755555e+00	 0.000000000000000e+00	 1.145685783150512e-01
 2.367564806756384e+00	 1.972971817317799e-02	 2.841406556834000e+00
 2.367317086632938e+00	 3.952529286786756e-02	 5.092444579878935e+00
 2.366902179495063e+00	 5.938500482155783e-02	 6.918105227170515e+00
 2.366318436965246e+00	 7.930709605142312e-02	 8.360548966527332e+00
 2.365564230161695e+00	 9.928976992580693e-02	 9.453392115789617e+00
 2.364637950689095e+00	 1.193311912609068e-01	 1.022142935605645e+01
 2.363538011636338e+00	 1.394294864431625e-01	 1.068036135442481e+01
 2.362262848580552e+00	 1.595827435778335e-01	 1.083652805418375e+01
 2.360810920596668e+00	 1.797890126642353e-01	 1.068664818794142e+01
 2.359180711271804e+00	 2.000463057980825e-01	 1.021756556500987e+01
 2.376471498246666e+00	 0.000000000000000e+00	-1.915961751347627e+00
 2.376388991878643e+00	 1.980325309284157e-02	 1.583133902514790e+00
 2.376140348473815e+00	 3.967260816174652e-02	 4.503266624302681e+00
 2.375723894929350e+00	 5.960633953634623e-02	 6.887331610936412e+00
 2.375137976724059e+00	 7.960268268164264e-02	 8.771091648592755e+00
 2.374380958905133e+00	 9.965983426975876e-02	 1.018292957807611e+01
 2.373451227082600e+00	 1.197759522769838e-01	 1.114360481282540e+01
 2.372347188430767e+00	 1.399491561066176e-01	 1.166601440366792e+01
 2.371067272695995e+00	 1.601775267381020e-01	 1.175495914282448e+01
 2.369609933210024e+00	 1.804591069029094e-01	 1.140691519599463e+01
 2.367973647908145e+00	 2.007919012876414e-01	 1.060981174609317e+01
 2.385295974734777e+00	 0.000000000000000e+00	-4.019342049952769e+00
 2.385213161998431e+00	 1.987678788751876e-02	 1.376991175676654e-01
 2.384963595313815e+00	 3.981992320523760e-02	 3.639350695901708e+00
 2.384545595365426e+00	 5.982767387494037e-02	 6.518117596270390e+00
 2.383957501488406e+00	 7.989826880946704e-02	 8.800893336359474e+00
 2.383197672658942e+00	 1.000298979847308e-01	 1.050875977137565e+01
 2.382264488492409e+00	 1.202207125371235e-01	 1.165679020314882e+01
 2.381156350248538e+00	 1.404688248868162e-01	 1.225385627340821e+01
 2.379871681842928e+00	 1.607723088874440e-01	 1.230243904397141e+01
 2.378408930864142e+00	 1.811292000026486e-01	 1.179844466134356e+01
 2.376766569595645e+00	 2.015374955099300e-01	 1.073102499652997e+01
 2.394120433719554e+00	 0.000000000000000e+00	-6.122368775303130e+00
 2.394037314615504e+00	 1.995032253633372e-02	-1.457343690202960e+00
 2.393786824652957e+00	 3.996723795652874e-02	 2.508178178081954e+00
 2.393367278303754e+00	 6.004900777453227e-02	 5.793490741853899e+00
 2.392777008759376e+00	 8.019385435103364e-02	 8.414186026427783e+00
 2.392014368925014e+00	 1.003999609657477e-01	 1.038201384591057e+01
 2.391077732421400e+00	 1.206654719151807e-01	 1.170474400739176e+01
 2.389965494593699e+00	 1.409884926363867e-01	 1.238603133790459e+01
 2.388676073526756e+00	 1.613670898572067e-01	 1.242528382294712e+01
 2.387207911065962e+00	 1.817992917734640e-01	 1.181753413817442e+01
 2.385559473842969e+00	 2.022830882535698e-01	 1.055331484741341e+01
 2.402944872700665e+00	 0.000000000000000e+00	-8.152913204022447e+00
 2.402861447229616e+00	 2.002385701841063e-02	-3.164992346262114e+00
 2.402610033991262e+00	 4.011455237380784e-02	 1.117119625333377e+00
 2.402188941244798e+00	 6.027034117231397e-02	 4.696726475472961e+00
 2.401596496038056e+00	 8.048943922247974e-02	 7.575725293017969e+00
 2.400831045205240e+00	 1.007700231078340e-01	 9.754538708568580e+00
 2.399890956372451e+00	 1.211102302850098e-01	 1.123204861663135e+01
 2.398774618970295e+00	 1.415081592079575e-01	 1.200553156130174e+01
 2.397480445252878e+00	 1.619618694787370e-01	 1.207059593624214e+01
 2.396006871322424e+00	 1.824693820253664e-01	 1.142112114025069e+01
 2.394352358158783e+00	 2.030286793071823e-01	 1.004919881917139e+01
 2.411769289177776e+00	 0.000000000000000e+00	-1.003990177235558e+01
 2.411685557340520e+00	 2.009739131287368e-02	-4.948786524897759e+00
 2.411433220828751e+00	 4.026186641526282e-02	-5.265632284025950e-01
 2.411010581689024e+00	 6.049167400547752e-02	 3.211343536320754e+00
 2.410415960825535e+00	 8.078502333994263e-02	 6.250780684803095e+00
 2.409647699001513e+00	 1.011400843060141e-01	 8.578883904658710e+00
 2.408704157848441e+00	 1.215549875204656e-01	 1.018409523872485e+01
 2.407583720882377e+00	 1.420278244541572e-01	 1.105618097557123e+01
 2.406284794526695e+00	 1.625566475833819e-01	 1.118624983621279e+01
 2.404805809140468e+00	 1.831394705683671e-01	 1.056677143370862e+01
 2.403145220051753e+00	 2.037742684593891e-01	 9.191594969368015e+00
 2.315215891054155e+00	 1.963183167394767e-01	 5.196540979772501e+00
 2.313439322528182e+00	 2.162495718069737e-01	 6.707307193925998e+00
 2.311484833814060e+00	 2.362268551605946e-01	 7.957582483595513e+00
 2.309351013912615e+00	 2.562480557777598e-01	 8.930745921110818e+00
 2.307036479994991e+00	 2.763110252327098e-01	 9.613762881404849e+00
 2.304539878427208e+00	 2.964135780332421e-01	 9.997259190391944e+00
 2.301859885794940e+00	 3.165534919874207e-01	 1.007559293196570e+01
 2.298995209927609e+00	 3.367285086005783e-01	 9.846923659108153e+00
 2.295944590920845e+00	 3.569363335028883e-01	 9.313278741483073e+00
 2.292706802156369e+00	 3.771746369077693e-01	 8.476579614257318e+00
 2.289280651318292e+00	 3.974410541013390e-01	 7.294395634759128e+00
 2.324008865064697e+00	 1.970639153947111e-01	 6.510772063489712e+00
 2.322225549296722e+00	 2.170708675098281e-01	 7.622491806407357e+00
 2.320263637616369e+00	 2.371240227222551e-01	 8.531689159176404e+00
 2.318121713665623e+00	 2.572212619919357e-01	 9.218127381135437e+00
 2.315798389363781e+00	 2.773604287335799e-01	 9.665862451631373e+00
 2.313292305935888e+00	 2.975393291546790e-01	 9.863337088425444e+00
 2.310602134941420e+00	 3.177557326236096e-01	 9.803472011800332e+00
 2.307726579302260e+00	 3.380073720681416e-01	 9.483754157202009e+00
 2.304664374329044e+00	 3.582919444046357e-01	 8.906321525403399e+00
 2.301414288744912e+00	 3.786071109981869e-01	 8.072612912891527e+00
 2.297975125705680e+00	 3.989504981539398e-01	 6.944661224554298e+00
 2.332801836583068e+00	 1.978095138395674e-01	 7.699815179119557e+00
 2.331011773575056e+00	 2.178921629808588e-01	 8.382431326929861e+00
 2.329042438930636e+00	 2.380211900305954e-01	 8.925923563012343e+00
 2.326892410932952e+00	 2.581944679312457e-01	 9.307504168629848e+00
 2.324560296249448e+00	 2.784098319379906e-01	 9.509168998732934e+00
 2.322044730964200e+00	 2.986650799580174e-01	 9.517805626083170e+00
 2.319344381610483e+00	 3.189579729200166e-01	 9.325298463047107e+00
 2.316457946202639e+00	 3.392862351741970e-01	 8.928630533419673e+00
 2.313384155266309e+00	 3.596475549231081e-01	 8.329981552129116e+00
 2.310121772866059e+00	 3.800395846835241e-01	 7.529995055111453e+00
 2.306669597629398e+00	 4.004599417796175e-01	 6.495360498253037e+00
 2.341594803117931e+00	 1.985551118626670e-01	 8.733622120976460e+00
 2.339797992873766e+00	 2.187134579872421e-01	 8.975833704495390e+00
 2.337821235269544e+00	 2.389183568312966e-01	 9.144869917592365e+00
 2.335663103229576e+00	 2.591676733198283e-01	 9.216441292254530e+00
 2.333322198169454e+00	 2.794592345484933e-01	 9.171318819776680e+00
 2.330797151032284e+00	 2.997908301241789e-01	 8.995450515128857e+00
 2.328086623325142e+00	 3.201602125358942e-01	 8.680074835142740e+00
 2.325189308154834e+00	 3.405650975562916e-01	 8.221830604515672e+00
 2.322103931262002e+00	 3.610031646741135e-01	 7.622863088532198e+00
 2.318829252052637e+00	 3.814720575578183e-01	 6.882778494309244e+00
 2.315364064625950e+00	 4.019693845506116e-01	 5.972938475914302e+00
 2.350387762177955e+00	 1.993007092526315e-01	 9.582592530891285e+00
 2.348584204703428e+00	 2.195347522961541e-01	 9.391574419056031e+00
 2.346600024145775e+00	 2.398155228700398e-01	 9.193042856476051e+00
 2.344433788070470e+00	 2.601408778818218e-01	 8.962240481049037e+00
 2.342084092641259e+00	 2.805086362676384e-01	 8.679534878699723e+00
 2.339549563660281e+00	 3.009165793340846e-01	 8.330537900774740e+00
 2.336828857608416e+00	 3.213624511304948e-01	 7.906221854881284e+00
 2.333920662684929e+00	 3.418439588519719e-01	 7.403032216859730e+00
 2.330823699845481e+00	 3.623587732734598e-01	 6.822996495957812e+00
 2.327536723837478e+00	 3.829045292151071e-01	 6.164507992232855e+00
 2.324058524231837e+00	 4.034788260391605e-01	 5.403446263492996e+00
 2.359180711271804e+00	 2.000463057980825e-01	 1.021756556500988e+01
 2.357370406574623e+00	 2.203560456747713e-01	 9.618693382877623e+00
 2.355378803072010e+00	 2.407126878925058e-01	 9.074888756435831e+00
 2.353204462970608e+00	 2.611140813413643e-01	 8.561945139224386e+00
 2.350845977182324e+00	 2.815580367979773e-01	 8.060634571730098e+00
 2.348301966368331e+00	 3.020423272686564e-01	 7.556824122273166e+00
 2.345571081983317e+00	 3.225646883630709e-01	 7.041589363749346e+00
 2.342652007319017e+00	 3.431228186987856e-01	 6.511324539600394e+00
 2.339543458546102e+00	 3.637143803369544e-01	 5.967849056299355e+00
 2.336244185753410e+00	 3.843369992494279e-01	 5.408230068390218e+00
 2.332752973983562e+00	 4.049882658175036e-01	 4.812548376745576e+00
 2.367973647908145e+00	 2.007919012876414e-01	 1.060981174609317e+01
 2.366156595997930e+00	 2.211773378902697e-01	 9.646391911238458e+00
 2.364157569560931e+00	 2.416098516443755e-01	 8.794787040624673e+00
 2.361975125444967e+00	 2.620872834225944e-01	 8.032345191626012e+00
 2.359607849310109e+00	 2.826074358420603e-01	 7.341037321163333e+00
 2.357054356676573e+00	 3.031680736088151e-01	 6.707565257663834e+00
 2.354313293972862e+00	 3.237669238928752e-01	 6.123467013399597e+00
 2.351383339583185e+00	 3.444016767342794e-01	 5.585219108185091e+00
 2.348263204893227e+00	 3.650699854804051e-01	 5.094335558929970e+00
 2.344951635333265e+00	 3.857694672548180e-01	 4.646502239147545e+00
 2.341447411417628e+00	 4.064977034578798e-01	 4.225529901983394e+00
 2.376766569595645e+00	 2.015374955099300e-01	 1.073102499652997e+01
 2.374942770483929e+00	 2.219986287098258e-01	 9.464029760672092e+00
 2.372936321125219e+00	 2.425070138713300e-01	 8.357051453517172e+00
 2.370745773008521e+00	 2.630604838496503e-01	 7.389981822689257e+00
 2.368369706542075e+00	 2.836568331024389e-01	 6.546772001924152e+00
 2.365806732105149e+00	 3.042938180354824e-01	 5.815526458248135e+00
 2.363055491100067e+00	 3.249691573791602e-01	 5.188594725504841e+00
 2.360114657003518e+00	 3.456805325960001e-01	 4.662660624680575e+00
 2.356982936416214e+00	 3.664255883196198e-01	 4.238828654662247e+00
 2.353659070109870e+00	 3.872019328253149e-01	 3.911402051950463e+00
 2.350141834070536e+00	 4.080071385325283e-01	 3.667303497885823e+00
 2.385559473842969e+00	 2.022830882535698e-01	 1.055331484741341e+01
 2.383728927543198e+00	 2.228199179006156e-01	 9.061122233018127e+00
 2.381715055277557e+00	 2.434041743190502e-01	 7.765931308349902e+00
 2.379516403176245e+00	 2.640336823466701e-01	 6.651152111626049e+00
 2.377131546395682e+00	 2.847062282816638e-01	 5.703484205213812e+00
 2.374559090174199e+00	 3.054195602295796e-01	 4.912991078197422e+00
 2.371797670887946e+00	 3.261713884811782e-01	 4.273172922051569e+00
 2.368845957106104e+00	 3.469593859214951e-01	 3.781037521147288e+00
 2.365702650644420e+00	 3.677811884704060e-01	 3.437168982727028e+00
 2.362366487616057e+00	 3.886343955549560e-01	 3.234535919937259e+00
 2.358836239478789e+00	 4.095165706136882e-01	 3.162416242461020e+00
 2.394352358158783e+00	 2.030286793071823e-01	 1.004919881917139e+01
 2.392515064686318e+00	 2.236412052298155e-01	 8.427337343592804e+00
 2.390493769530627e+00	 2.443013327332173e-01	 7.025612707764977e+00
 2.388287013463114e+00	 2.650068786377924e-01	 5.831913566501053e+00
 2.385893366388392e+00	 2.857556210822857e-01	 4.836443343417153e+00
 2.383311428403863e+00	 3.065452998720281e-01	 4.031769604544615e+00
 2.380539830859514e+00	 3.273736168581818e-01	 3.412872531954702e+00
 2.377577237417034e+00	 3.482382363483113e-01	 2.977192292138280e+00
 2.374422345107206e+00	 3.691367855485713e-01	 2.724675076586611e+00
 2.371073885384655e+00	 3.900668550377789e-01	 2.647047762060041e+00
 2.367530625178890e+00	 4.110259992735984e-01	 2.735056329122579e+00
 2.403145220051753e+00	 2.037742684593891e-01	 9.191594969368017e+00
 2.401301179423868e+00	 2.244624904646018e-01	 7.552493051843353e+00
 2.399272461397111e+00	 2.451984888595121e-01	 6.140219738340372e+00
 2.397057601384104e+00	 2.659800724471556e-01	 4.948088559778528e+00
 2.394655164037665e+00	 2.868050112068558e-01	 3.970549600320897e+00
 2.392063744314279e+00	 3.076710366437493e-01	 3.203208392654687e+00
 2.389281968537789e+00	 3.285758421694235e-01	 2.642844779703905e+00
 2.386308495462393e+00	 3.495170835139956e-01	 2.287431602216235e+00
 2.383142017333930e+00	 3.704923791699238e-01	 2.136152873142467e+00
 2.379781260948493e+00	 3.914993108678208e-01	 2.179627453678473e+00
 2.376224988707342e+00	 4.125354240844981e-01	 2.409059615734928e+00
 2.289280651318292e+00	 3.974410541013390e-01	 7.294395634759129e+00
 2.285665611882141e+00	 4.177297355317194e-01	 6.004885039730965e+00
 2.281859995945115e+00	 4.380416965911244e-01	 4.859037553337105e+00
 2.277862718926717e+00	 4.583744778323171e-01	 3.864101458702868e+00
 2.273672734502291e+00	 4.787255872827543e-01	 3.026159468409059e+00
 2.269289035584527e+00	 4.990925010900192e-01	 2.350095878112533e+00
 2.264710655295170e+00	 5.194726641987831e-01	 1.839563407051710e+00
 2.259936667925870e+00	 5.398634910592639e-01	 1.496949737539284e+00
 2.254966189887047e+00	 5.602623663671141e-01	 1.323343771518523e+00
 2.249798380643699e+00	 5.806666458346353e-01	 1.318501628686914e+00
 2.244432443637021e+00	 6.010736569931620e-01	 1.480812417553638e+00
 2.297975125705680e+00	 3.989504981539398e-01	 6.944661224554297e+00
 2.294346356687181e+00	 4.193162341039567e-01	 5.735725252627599e+00
 2.290526287376104e+00	 4.397053380968214e-01	 4.666568982251974e+00
 2.286513829072793e+00	 4.601153413445548e-01	 3.744559190770834e+00
 2.282307931478736e+00	 4.805437424103435e-01	 2.975456622410933e+00
 2.277907583681775e+00	 5.009880078564237e-01	 2.363375039008987e+00
 2.273311815131525e+00	 5.214455729236140e-01	 1.910740345571086e+00
 2.268519696603858e+00	 5.419138422424646e-01	 1.618249822931879e+00
 2.263530341153386e+00	 5.623901905759559e-01	 1.484831505635125e+00
 2.258342905052813e+00	 5.828719635936400e-01	 1.507603749425338e+00
 2.252956588718057e+00	 6.033564786770743e-01	 1.681835039400769e+00
 2.306669597629398e+00	 4.004599417796175e-01	 6.495360498253037e+00
 2.303027099032474e+00	 4.209027322273973e-01	 5.406434320755711e+00
 2.299192576351457e+00	 4.413689791318174e-01	 4.446871461116756e+00
 2.295164936767550e+00	 4.618562043641621e-01	 3.623952625149728e+00
 2.290943126008370e+00	 4.823618970233515e-01	 2.943019261591111e+00
 2.286526129336921e+00	 5.028835140862803e-01	 2.407426679210021e+00
 2.281912972530687e+00	 5.234184810899195e-01	 2.018497528741354e+00
 2.277102722849768e+00	 5.439641928451562e-01	 1.775475696573011e+00
 2.272094489992965e+00	 5.645180141823033e-01	 1.675480662904585e+00
 2.266887427040690e+00	 5.850772807281696e-01	 1.713462383269467e+00
 2.261480731383585e+00	 6.056392997145411e-01	 1.882156758851648e+00
 2.315364064625950e+00	 4.019693845506116e-01	 5.972938475914302e+00
 2.311707836458393e+00	 4.224892294524600e-01	 5.035021417531119e+00
 2.307858860415636e+00	 4.430326192246884e-01	 4.210824074053159e+00
 2.303816039559728e+00	 4.635970663978493e-01	 3.507339697764811e+00
 2.299578315644430e+00	 4.841800506066048e-01	 2.929395492758933e+00
 2.295144670107906e+00	 5.047790192425134e-01	 2.479601953146860e+00
 2.290514125055513e+00	 5.253913881387063e-01	 2.158302758649640e+00
 2.285685744231581e+00	 5.460145422864141e-01	 1.963525283691125e+00
 2.280658633979106e+00	 5.666458365832896e-01	 1.890931781886733e+00
 2.275431944186209e+00	 5.872825966134051e-01	 1.933771313966999e+00
 2.270004869218262e+00	 6.079221194587818e-01	 2.082832493673001e+00
 2.324058524231837e+00	 4.034788260391605e-01	 5.403446263492995e+00
 2.320388566505321e+00	 4.240757253295643e-01	 4.639227933001345e+00
 2.316525137113097e+00	 4.446962579040100e-01	 3.969144668341392e+00
 2.312467134998071e+00	 4.653379269523279e-01	 3.399704021972628e+00
 2.308213497940153e+00	 4.859982026449298e-01	 2.935126346484121e+00
 2.303763203552670e+00	 5.066745227880483e-01	 2.577292494287160e+00
 2.299115270268857e+00	 5.273642935109814e-01	 2.325692170327956e+00
 2.294268758317280e+00	 5.480648899853142e-01	 2.177372997688372e+00
 2.289222770685134e+00	 5.687736571760474e-01	 2.126890361752072e+00
 2.283976454068253e+00	 5.894879106245265e-01	 2.166258104796324e+00
 2.278528999806741e+00	 6.102049372630166e-01	 2.284900149405154e+00
 2.332752973983562e+00	 4.049882658175036e-01	 4.812548376745575e+00
 2.329069286713632e+00	 4.256622194091289e-01	 4.236532441451259e+00
 2.325191403988295e+00	 4.463598946983577e-01	 3.732392830106198e+00
 2.321118220631321e+00	 4.670787855343085e-01	 3.305956237597485e+00
 2.316848670448773e+00	 4.878163526231535e-01	 2.960745865418761e+00
 2.312381727229153e+00	 5.085700241858092e-01	 2.697929609111807e+00
 2.307716405733574e+00	 5.293371966477524e-01	 2.516268897955818e+00
 2.302851762674848e+00	 5.501152353609325e-01	 2.412068245103627e+00
 2.297786897684372e+00	 5.709014753577101e-01	 2.379125572262059e+00
 2.292520954265702e+00	 5.916932221367140e-01	 2.408683379299039e+00
 2.287053120733681e+00	 6.124877524804658e-01	 2.489380835812359e+00
 2.341447411417628e+00	 4.064977034578798e-01	 4.225529901983394e+00
 2.337749994623704e+00	 4.272487112415729e-01	 3.844155558133841e+00
 2.333857658585689e+00	 4.480235291363075e-01	 3.510972793309824e+00
 2.329769294008222e+00	 4.688196416505025e-01	 3.230935329342230e+00
 2.325483830723528e+00	 4.896345000261021e-01	 3.006781189930970e+00
 2.321000238695292e+00	 5.104655228987205e-01	 2.838983488202223e+00
 2.316317529012518e+00	 5.313100969900261e-01	 2.725701769828286e+00
 2.311434754872265e+00	 5.521655778323449e-01	 2.662733962852886e+00
 2.306351012550143e+00	 5.730292905254102e-01	 2.643468991402365e+00
 2.301065442357438e+00	 5.938985305251482e-01	 2.658840116916465e+00
 2.295577229583733e+00	 6.147705644643494e-01	 2.697279077380165e+00
 2.350141834070536e+00	 4.080071385325283e-01	 3.667303497885823e+00
 2.346430687775914e+00	 4.288352003773154e-01	 3.479064687988124e+00
 2.342523898449734e+00	 4.496871607464351e-01	 3.315136283773830e+00
 2.338420352677514e+00	 4.705604948076199e-01	 3.179409915364048e+00
 2.334118976317655e+00	 4.914526443386029e-01	 3.073752641120459e+00
 2.329618735509030e+00	 5.123610183897077e-01	 2.997962433996961e+00
 2.324918637668544e+00	 5.332829939788098e-01	 2.949724031347382e+00
 2.320017732477515e+00	 5.542159168186270e-01	 2.924565186914704e+00
 2.314915112855773e+00	 5.751571020762805e-01	 2.915813369956371e+00
 2.309609915922340e+00	 5.961038351650093e-01	 2.914552963146119e+00
 2.304101323941556e+00	 6.170533725678875e-01	 2.909583018014267e+00
 2.358836239478789e+00	 4.095165706136882e-01	 3.162416242461020e+00
 2.355111363710641e+00	 4.304216863667755e-01	 3.157978669122647e+00
 2.351190121124888e+00	 4.513507890573158e-01	 3.154985299901060e+00
 2.347071394187944e+00	 4.723013445123727e-01	 3.156079506783186e+00
 2.342754104784390e+00	 4.932707850454817e-01	 3.162173801283501e+00
 2.338237215228305e+00	 5.142565101216949e-01	 3.172412104789316e+00
 2.333519729264506e+00	 5.352558870551105e-01	 3.184132095316793e+00
 2.328600693058578e+00	 5.562662517388549e-01	 3.192827651652511e+00
 2.323479196174583e+00	 5.772849094074546e-01	 3.192111422326469e+00
 2.318154372539290e+00	 5.983091354314773e-01	 3.173677553845689e+00
 2.312625401391804e+00	 6.193361761443000e-01	 3.127264620091060e+00
 2.367530625178890e+00	 4.110259992735984e-01	 2.735056329122579e+00
 2.363792019968259e+00	 4.320081687603721e-01	 2.897372313761366e+00
 2.359856324155606e+00	 4.530144135975258e-01	 3.040474831720186e+00
 2.355722416088251e+00	 4.740421902714712e-01	 3.165575738869623e+00
 2.351389213676971e+00	 4.950889216315657e-01	 3.272551591893283e+00
 2.346855675411061e+00	 5.161519975576072e-01	 3.359914774550325e+00
 2.342120801363259e+00	 5.372287756599352e-01	 3.424784318840698e+00
 2.337183634183438e+00	 5.583165820121047e-01	 3.462856418989477e+00
 2.332043260079898e+00	 5.794127119160645e-01	 3.468374642931585e+00
 2.326698809787171e+00	 6.005144306997326e-01	 3.434099853322644e+00
 2.321149459519132e+00	 6.216189745468074e-01	 3.351279858005430e+00
 2.376224988707342e+00	 4.125354240844981e-01	 2.409059615734929e+00
 2.372472654089149e+00	 4.335946471085245e-01	 2.713480849270275e+00
 2.368522505086349e+00	 4.546780338956407e-01	 2.981415519827840e+00
 2.364373415927180e+00	 4.757830315916268e-01	 3.212463574631396e+00
 2.360024300548634e+00	 4.969070535816814e-01	 3.405386349159369e+00
 2.355474113615235e+00	 5.180474801603691e-01	 3.558088608173662e+00
 2.350721851527660e+00	 5.392016592342913e-01	 3.667599806148265e+00
 2.345766553420076e+00	 5.603669070574515e-01	 3.730054536674447e+00
 2.340607302145042e+00	 5.815405089992439e-01	 3.740672147528548e+00
 2.335243225244861e+00	 6.027197203449562e-01	 3.693735505858587e+00
 2.329673495908198e+00	 6.239017671286294e-01	 3.582568906357351e+00
 2.244432443637021e+00	 6.010736569931620e-01	 1.480812417553638e+00
 2.238867627679239e+00	 6.214807003114081e-01	 1.705003310888586e+00
 2.233103229312530e+00	 6.418850509405317e-01	 1.883649360258424e+00
 2.227138592220802e+00	 6.622839587993911e-01	 2.011102858411237e+00
 2.220973107593212e+00	 6.826746492208766e-01	 2.082066053450011e+00
 2.214606214955360e+00	 7.030543239064198e-01	 2.092946318847134e+00
 2.208037402979564e+00	 7.234201619097830e-01	 2.040354488592576e+00
 2.201266210273095e+00	 7.437693206496828e-01	 1.921167906004842e+00
 2.194292226143276e+00	 7.640989369507408e-01	 1.756858760432403e+00
 2.187115091338370e+00	 7.844061281122209e-01	 1.561056605010973e+00
 2.179734498763173e+00	 8.046879930039602e-01	 1.334719955070141e+00
 2.252956588718057e+00	 6.033564786770743e-01	 1.681835039400768e+00
 2.247370638108388e+00	 6.238410260424130e-01	 1.910973584550237e+00
 2.241584347094333e+00	 6.443228704920893e-01	 2.097309760923945e+00
 2.235597056867188e+00	 6.647992515004044e-01	 2.233406045115134e+00
 2.229408156303924e+00	 6.852673838623174e-01	 2.312417241420528e+00
 2.223017082801537e+00	 7.057244586515778e-01	 2.328092333801521e+00
 2.216423323090388e+00	 7.261676442082519e-01	 2.275766033004845e+00
 2.209626414025442e+00	 7.465940871551929e-01	 2.153991203433041e+00
 2.202625943354270e+00	 7.670009134429437e-01	 1.985684379154838e+00
 2.195421550460755e+00	 7.873852294225351e-01	 1.779918227240973e+00
 2.188012927083394e+00	 8.077441229455768e-01	 1.537912922495478e+00
 2.261480731383585e+00	 6.056392997145411e-01	 1.882156758851647e+00
 2.255873646127970e+00	 6.262013511050141e-01	 2.098106267885569e+00
 2.250065462472716e+00	 6.467606893532984e-01	 2.277523302137327e+00
 2.244055519116518e+00	 6.673145434891383e-01	 2.411558414097778e+00
 2.237843202624165e+00	 6.878601177695596e-01	 2.492164612017895e+00
 2.231427948264040e+00	 7.083945926406287e-01	 2.512104011879854e+00
 2.224809240824560e+00	 7.289151257287159e-01	 2.464952191417015e+00
 2.217986615408383e+00	 7.494188528608096e-01	 2.348797523358627e+00
 2.210959658203332e+00	 7.699028891133737e-01	 2.188151807311786e+00
 2.203728007228910e+00	 7.903643298892038e-01	 1.988743930335133e+00
 2.196291353057320e+00	 8.108002520216828e-01	 1.751923028962123e+00
 2.270004869218262e+00	 6.079221194587818e-01	 2.082832493673001e+00
 2.264376649328631e+00	 6.285616748304660e-01	 2.271064686685150e+00
 2.258546573044541e+00	 6.491985068334476e-01	 2.431747065296311e+00
 2.252513976572083e+00	 6.698298340529159e-01	 2.554991150672983e+00
 2.246278244163864e+00	 6.904528502079680e-01	 2.631853275313972e+00
 2.239838808959671e+00	 7.110647251169906e-01	 2.654344492087836e+00
 2.233195153805962e+00	 7.316626056926607e-01	 2.615438007724675e+00
 2.226346812053099e+00	 7.522436169661046e-01	 2.514200420101794e+00
 2.219293368329158e+00	 7.728048631397116e-01	 2.371261023485478e+00
 2.212034459289262e+00	 7.933434286680453e-01	 2.191505188524824e+00
 2.204569774339321e+00	 8.138563793662641e-01	 1.976854517413419e+00
 2.278528999806741e+00	 6.102049372630166e-01	 2.284900149405154e+00
 2.272879645301021e+00	 6.309219965500236e-01	 2.434440625554953e+00
 2.267027676406665e+00	 6.516363222418236e-01	 2.567324217410326e+00
 2.260972426837172e+00	 6.723451224790604e-01	 2.672991384961926e+00
 2.254713278532966e+00	 6.930455804429082e-01	 2.741902491830842e+00
 2.248249662505230e+00	 7.137348553240817e-01	 2.765549438588478e+00
 2.241581059658478e+00	 7.344100833215709e-01	 2.736464706383929e+00
 2.234707001590772e+00	 7.550683786706500e-01	 2.655648852835170e+00
 2.227627071370443e+00	 7.757068346996387e-01	 2.540826905761359e+00
 2.220340904288235e+00	 7.963225249148774e-01	 2.392103037821068e+00
 2.212848188583769e+00	 8.169125041133077e-01	 2.212798690297705e+00
 2.287053120733681e+00	 6.124877524804658e-01	 2.489380835812359e+00
 2.281382631635785e+00	 6.332823155949410e-01	 2.592755549264687e+00
 2.275508770155950e+00	 6.540741348877150e-01	 2.691486010375183e+00
 2.269430867515072e+00	 6.748604080548951e-01	 2.774704740720195e+00
 2.263148303341400e+00	 6.956383077397452e-01	 2.832572496167287e+00
 2.256660506517515e+00	 7.164049825053189e-01	 2.856290101697427e+00
 2.249966956005988e+00	 7.371575578369325e-01	 2.838107645466926e+00
 2.243067181652582e+00	 7.578931371740172e-01	 2.781219282786198e+00
 2.235960764965883e+00	 7.786088029708361e-01	 2.699867425951981e+00
 2.228647339872258e+00	 7.993016177855189e-01	 2.592752471548570e+00
 2.221126593445035e+00	 8.199686253968002e-01	 2.459834072657471e+00
 2.295577229583733e+00	 6.147705644643494e-01	 2.697279077380165e+00
 2.289885605923573e+00	 6.356426312964735e-01	 2.750461795747694e+00
 2.283989851889253e+00	 6.565119440804092e-01	 2.811353734541992e+00
 2.277889296209072e+00	 6.773756900677430e-01	 2.869137826171360e+00
 2.271583316199104e+00	 6.982310313638446e-01	 2.913967300561433e+00
 2.265071338613330e+00	 7.190751059041209e-01	 2.936976208550776e+00
 2.258352840472378e+00	 7.399050284602304e-01	 2.930287316173566e+00
 2.251427349869710e+00	 7.607178916757774e-01	 2.899434792792466e+00
 2.244294446754171e+00	 7.815107671309854e-01	 2.854525619937406e+00
 2.236953763687752e+00	 8.022807064357864e-01	 2.793512331590442e+00
 2.229404986577490e+00	 8.230247423507278e-01	 2.715883912331750e+00
 2.304101323941556e+00	 6.170533725678875e-01	 2.909583018014267e+00
 2.298388565755036e+00	 6.380029429858750e-01	 2.911943741484691e+00
 2.292470919203435e+00	 6.589497491291934e-01	 2.933940627761026e+00
 2.286347710522461e+00	 6.798909678049279e-01	 2.965160668345282e+00
 2.280018314716012e+00	 7.008237505805707e-01	 2.996037434954067e+00
 2.273482156409474e+00	 7.217452247639053e-01	 3.017858788259552e+00
 2.266738710681527e+00	 7.426524944129502e-01	 3.022876990659738e+00
 2.259787503873337e+00	 7.635426413755030e-01	 3.018688404952058e+00
 2.252628114374006e+00	 7.844127263577670e-01	 3.011144100217040e+00
 2.245260173381147e+00	 8.052597900214989e-01	 2.997755853222348e+00
 2.237683365635504e+00	 8.260808541090771e-01	 2.977449129479539e+00
 2.312625401391804e+00	 6.193361761443000e-01	 3.127264620091060e+00
 2.306891508720819e+00	 6.403632499944010e-01	 3.081518939983218e+00
 2.300951969695355e+00	 6.613875493433560e-01	 3.066153741047061e+00
 2.294806108058528e+00	 6.824062405537721e-01	 3.071509092375436e+00
 2.288453296502063e+00	 7.034164646552896e-01	 3.088582625186854e+00
 2.281892957522748e+00	 7.244153383280898e-01	 3.109032933237139e+00
 2.275124564257317e+00	 7.453999549165763e-01	 3.125739440121513e+00
 2.268147641294644e+00	 7.663673854727651e-01	 3.147245576075208e+00
 2.260961765464081e+00	 7.873146798288625e-01	 3.175968346901063e+00
 2.253566566598867e+00	 8.082388676984741e-01	 3.208931914297561e+00
 2.245961728273450e+00	 8.291369598058346e-01	 3.244358256842429e+00
 2.321149459519132e+00	 6.216189745468074e-01	 3.351279858005430e+00
 2.315394432411569e+00	 6.427235516533060e-01	 3.263439234042735e+00
 2.309433000961870e+00	 6.638253440321840e-01	 3.214795761978600e+00
 2.303264486420560e+00	 6.849215076015991e-01	 3.196787047166930e+00
 2.296888259167190e+00	 7.060091728533664e-01	 3.201254410922410e+00
 2.290303739569949e+00	 7.270854458400926e-01	 3.220440498336738e+00
 2.283510398823632e+00	 7.481474091925951e-01	 3.248260984695501e+00
 2.276507759764810e+00	 7.691921231671358e-01	 3.293246641382248e+00
 2.269295397663093e+00	 7.902166267219531e-01	 3.355148607769496e+00
 2.261872940987338e+00	 8.112179386225301e-01	 3.430435496315950e+00
 2.254240072145697e+00	 8.321930585749869e-01	 3.516484670538940e+00
 2.329673495908198e+00	 6.239017671286294e-01	 3.582568906357351e+00
 2.323897334417938e+00	 6.450838472938442e-01	 3.461891842476045e+00
 2.317914010599845e+00	 6.662631325049658e-01	 3.386566796911569e+00
 2.311722843211848e+00	 6.874367682357324e-01	 3.349468878805753e+00
 2.305323200321330e+00	 7.086018744401660e-01	 3.343558704826311e+00
 2.298714500167883e+00	 7.297555465433316e-01	 3.361872739388153e+00
 2.291896212004354e+00	 7.508948564624919e-01	 3.399667668022909e+00
 2.284867856915019e+00	 7.720168536581867e-01	 3.464709207768107e+00
 2.277629008609737e+00	 7.931185662147199e-01	 3.554741759983012e+00
 2.270179294192987e+00	 8.141970019494853e-01	 3.665608805853962e+00
 2.262518394906619e+00	 8.352491495505205e-01	 3.793700821231352e+00
 2.179734498763173e+00	 8.046879930039602e-01	 1.334719955070141e+00
 2.172148887181955e+00	 8.249450537845692e-01	 1.159214123155566e+00
 2.164359291997888e+00	 8.451709231933534e-01	 1.106903382617044e+00
 2.156365565077391e+00	 8.653626491398434e-01	 1.165156347837444e+00
 2.148167613071671e+00	 8.855172656989569e-01	 1.320537809640410e+00
 2.139765397992186e+00	 9.056317943338167e-01	 1.558809609301379e+00
 2.131158937754682e+00	 9.257032451413696e-01	 1.864931330091664e+00
 2.122348306690867e+00	 9.457286181199076e-01	 2.223060756993708e+00
 2.113333636026786e+00	 9.657049044575522e-01	 2.616554057240384e+00
 2.104115114327044e+00	 9.856290878407244e-01	 3.027965636927521e+00
 2.094692987903987e+00	 1.005498145781579e+00	 3.439047632139232e+00
 2.188012927083394e+00	 8.077441229455768e-01	 1.537912922495478e+00
 2.180398506057042e+00	 8.280781181537844e-01	 1.332673921622032e+00
 2.172579326717225e+00	 8.483808035282425e-01	 1.231958465250466e+00
 2.164555240367735e+00	 8.686492157667182e-01	 1.229098168586039e+00
 2.156326153305231e+00	 8.888803776798218e-01	 1.316398673487412e+00
 2.147892027396868e+00	 9.090712994184721e-01	 1.485129726806571e+00
 2.139252880626412e+00	 9.292189797242424e-01	 1.725515216422647e+00
 2.130408787607849e+00	 9.493204072016984e-01	 2.026723133294838e+00
 2.121359880065587e+00	 9.693725616117750e-01	 2.376855429896519e+00
 2.112106347280358e+00	 9.893724151852169e-01	 2.762937747982494e+00
 2.102648436499953e+00	 1.009316933955051e+00	 3.170908991794691e+00
 2.196291353057320e+00	 8.108002520216828e-01	 1.751923028962123e+00
 2.188648122594005e+00	 8.312111816356275e-01	 1.539288064775523e+00
 2.180799359106836e+00	 8.515906829539126e-01	 1.410517125883803e+00
 2.172744913336986e+00	 8.719357814625505e-01	 1.364133527737537e+00
 2.164484691226553e+00	 8.922434887078539e-01	 1.397475296395296e+00
 2.156018654498391e+00	 9.125108035285455e-01	 1.506676234205509e+00
 2.147346821204283e+00	 9.327347133108352e-01	 1.686647021700493e+00
 2.138469266240492e+00	 9.529121952655715e-01	 1.931056337900290e+00
 2.129386121829784e+00	 9.730402177265116e-01	 2.232311983340324e+00
 2.120097577969012e+00	 9.931157414687324e-01	 2.581541992787267e+00
 2.110603882841414e+00	 1.013135721046144e+00	 2.968575727800790e+00
 2.204569774339321e+00	 8.138563793662641e-01	 1.976854517413420e+00
 2.196897734455373e+00	 8.343442433422844e-01	 1.775240327801275e+00
 2.189019386837630e+00	 8.548005605607883e-01	 1.635583103263156e+00
 2.180934581664643e+00	 8.752223452960440e-01	 1.560835454124640e+00
 2.172643224523951e+00	 8.956065978300775e-01	 1.552667751298804e+00
 2.164145276994103e+00	 9.159503056894265e-01	 1.611441950805699e+00
 2.155440757194895e+00	 9.362504449049491e-01	 1.736185471720896e+00
 2.146529740304868e+00	 9.565039812937876e-01	 1.924565119828156e+00
 2.137412359045143e+00	 9.767078717625338e-01	 2.172861051504020e+00
 2.128088804128694e+00	 9.968590656306067e-01	 2.475940775139279e+00
 2.118559324674199e+00	 1.016954505972811e+00	 2.827233190713134e+00
 2.212848188583769e+00	 8.169125041133077e-01	 2.212798690297706e+00
 2.205147339303680e+00	 8.374773023859429e-01	 2.036759851580395e+00
 2.197239407580518e+00	 8.580104354392952e-01	 1.900252737393939e+00
 2.189124243030212e+00	 8.785089063359020e-01	 1.809905607190157e+00
 2.180801750885739e+00	 8.989697040935158e-01	 1.771029436389357e+00
 2.172271892581347e+00	 9.193898049265036e-01	 1.787586259897546e+00
 2.163534686304845e+00	 9.397661735103845e-01	 1.862157525304829e+00
 2.154590207517046e+00	 9.600957642686071e-01	 1.995912454341254e+00
 2.145438589437429e+00	 9.803755226806119e-01	 2.188576413612279e+00
 2.136080023495087e+00	 1.000602386610174e+00	 2.438399298606167e+00
 2.126514759744138e+00	 1.020773287653006e+00	 2.742123938470594e+00
 2.221126593445035e+00	 8.199686253968002e-01	 2.459834072657472e+00
 2.213396934801456e+00	 8.406103578787893e-01	 2.320120226042535e+00
 2.205459419006409e+00	 8.612203066798584e-01	 2.197713179607057e+00
 2.197313895113193e+00	 8.817954636508282e-01	 2.102171822690164e+00
 2.188960268000233e+00	 9.023328065451943e-01	 2.041764167721129e+00
 2.180398498957471e+00	 9.228293002651670e-01	 2.023431961738063e+00
 2.171628606240729e+00	 9.432818981309415e-01	 2.052755203206395e+00
 2.162650665593098e+00	 9.636875431722913e-01	 2.133916565257357e+00
 2.153464810732409e+00	 9.840431694415176e-01	 2.269665729161897e+00
 2.144071233803876e+00	 1.004345703346769e+00	 2.461283635084605e+00
 2.134470185797058e+00	 1.024592065004682e+00	 2.708546660937520e+00
 2.229404986577490e+00	 8.230247423507278e-01	 2.715883912331751e+00
 2.221646518611236e+00	 8.437434089330106e-01	 2.621638597552564e+00
 2.213679418786210e+00	 8.644301733729022e-01	 2.521240646201883e+00
 2.205503535593090e+00	 8.850820163095255e-01	 2.428585716876689e+00
 2.197118773555748e+00	 9.056959042321361e-01	 2.354223340507211e+00
 2.188525093819819e+00	 9.262687907308047e-01	 2.307462200693697e+00
 2.179722514709145e+00	 9.467976177704217e-01	 2.296332491861036e+00
 2.170711112249095e+00	 9.672793169871000e-01	 2.327548017950140e+00
 2.161491020655851e+00	 9.877108110060228e-01	 2.406468034571468e+00
 2.152062432790749e+00	 1.008089014779728e+00	 2.537058841100916e+00
 2.142425600578789e+00	 1.028410836945792e+00	 2.721855133318272e+00
 2.237683365635504e+00	 8.260808541090771e-01	 2.977449129479539e+00
 2.229896088395551e+00	 8.468764546607934e-01	 2.935102632114571e+00
 2.221899404590832e+00	 8.676400346088523e-01	 2.864198714541152e+00
 2.213693162149406e+00	 8.883685633806987e-01	 2.780220347650312e+00
 2.205277265240596e+00	 9.090589962013659e-01	 2.697903157332580e+00
 2.196651674865739e+00	 9.297082753488071e-01	 2.628317464627806e+00
 2.187816409416692e+00	 9.503133314326252e-01	 2.581402320042106e+00
 2.178771545201104e+00	 9.708710846952945e-01	 2.565926881215750e+00
 2.169517216933517e+00	 9.913784463348977e-01	 2.589451299908858e+00
 2.160053618191390e+00	 1.011832319848384e+00	 2.658287120620611e+00
 2.150381001835161e+00	 1.032229602394291e+00	 2.777457197698432e+00
 2.245961728273450e+00	 8.291369598058346e-01	 3.244358256842428e+00
 2.238145641816934e+00	 8.500094941743244e-01	 3.253513207522202e+00
 2.230119374091181e+00	 8.708498894781340e-01	 3.217194240197037e+00
 2.221882772461643e+00	 8.916551039330501e-01	 3.148267931217456e+00
 2.213435740743093e+00	 9.124220814999077e-01	 3.062441921562859e+00
 2.204778239792574e+00	 9.331477531445621e-01	 2.974792654674638e+00
 2.195910288069967e+00	 9.538290381213524e-01	 2.896633606550251e+00
 2.186831962165200e+00	 9.744628452791348e-01	 2.838319956233608e+00
 2.177543397291178e+00	 9.950460743889147e-01	 2.809210044151047e+00
 2.168044787741484e+00	 1.015575617492073e+00	 2.817626033170450e+00
 2.158336387312002e+00	 1.036048360268131e+00	 2.870813771988701e+00
 2.254240072145697e+00	 8.321930585749869e-01	 3.516484670538940e+00
 2.246395176537915e+00	 8.531425265857909e-01	 3.573161278076569e+00
 2.238339324958170e+00	 8.740597370711721e-01	 3.570422802630524e+00
 2.230072364209305e+00	 8.949416370352841e-01	 3.521129163359184e+00
 2.221594197751555e+00	 9.157851591747860e-01	 3.437617394278047e+00
 2.212904786297673e+00	 9.365872231434597e-01	 3.335834223595922e+00
 2.204004148375565e+00	 9.573447368404041e-01	 3.230848377115398e+00
 2.194892360857451e+00	 9.780545977208817e-01	 3.134138070901829e+00
 2.185569559454597e+00	 9.987136941288444e-01	 3.056463007475979e+00
 2.176035939176717e+00	 1.019318906650129e+00	 3.007826746111259e+00
 2.166291754755141e+00	 1.039867109485265e+00	 2.997437885568988e+00
 2.262518394906619e+00	 8.352491495505205e-01	 3.793700821231352e+00
 2.254644690221028e+00	 8.562755510073792e-01	 3.890402091302948e+00
 2.246559254862706e+00	 8.772695764783921e-01	 3.917386225657098e+00
 2.238261935071895e+00	 8.982281617561039e-01	 3.886806144461557e+00
 2.229752633954296e+00	 9.191482282730243e-01	 3.810593494614735e+00
 2.221031312078379e+00	 9.400266843708884e-01	 3.700537380968769e+00
 2.212097988040086e+00	 9.608604265935810e-01	 3.573018948743714e+00
 2.202952738993927e+00	 9.816463410027958e-01	 3.442933437877675e+00
 2.193595701149540e+00	 1.002381304515459e+00	 3.322050879129904e+00
 2.184027070232773e+00	 1.023062186261888e+00	 3.221732329933888e+00
 2.174247101910407e+00	 1.043685848963648e+00	 3.152893740950201e+00
 2.094692987903987e+00	 1.005498145781579e+00	 3.439047632139232e+00
 2.085069214345415e+00	 1.025305688418445e+00	 3.750750520375631e+00
 2.075242570842331e+00	 1.045052067765647e+00	 3.895702046553886e+00
 2.065213477356800e+00	 1.064734251402391e+00	 3.902896635827205e+00
 2.054982412837529e+00	 1.084349206174316e+00	 3.801997956995813e+00
 2.044549915443673e+00	 1.103893899598468e+00	 3.623281266994410e+00
 2.033916582729284e+00	 1.123365301280397e+00	 3.395959018433946e+00
 2.023083071787823e+00	 1.142760384342097e+00	 3.144392171253134e+00
 2.012050099356196e+00	 1.162076126859514e+00	 2.897548625232866e+00
 2.000818441877797e+00	 1.181309513308291e+00	 2.685261495791134e+00
 1.989388935524150e+00	 1.200457536016417e+00	 2.537716026398823e+00
 2.102648436499953e+00	 1.009316933955051e+00	 3.170908991794691e+00
 2.092988112746893e+00	 1.029199703791507e+00	 3.511190589868696e+00
 2.083124148568081e+00	 1.049021078045822e+00	 3.716933167433281e+00
 2.073056965520585e+00	 1.068778012780347e+00	 3.807771905504852e+00
 2.062787044372133e+00	 1.088467463321072e+00	 3.804155701428509e+00
 2.052314925325784e+00	 1.108086385667955e+00	 3.727303315914751e+00
 2.041641208205069e+00	 1.127631737917381e+00	 3.596178027800782e+00
 2.030766552599056e+00	 1.147100481695540e+00	 3.426843057429856e+00
 2.019691677966768e+00	 1.166489583601383e+00	 3.240118386618173e+00
 2.008417363700488e+00	 1.185796016657869e+00	 3.057477371276538e+00
 1.996944449147465e+00	 1.205016761770121e+00	 2.900964223143125e+00
 2.110603882841414e+00	 1.013135721046144e+00	 2.968575727800789e+00
 2.100907008904224e+00	 1.033093718060886e+00	 3.315661427026523e+00
 2.091005724060252e+00	 1.052990087201106e+00	 3.559765442081924e+00
 2.080900451461565e+00	 1.072821773012292e+00	 3.712309194838633e+00
 2.070591673694926e+00	 1.092585719300793e+00	 3.785631245859149e+00
 2.060079933007296e+00	 1.112278870549466e+00	 3.792941579686435e+00
 2.049365831491686e+00	 1.131898173345535e+00	 3.743579587178166e+00
 2.038450031232771e+00	 1.151440577819378e+00	 3.647018011499273e+00
 2.027333254411702e+00	 1.170903039092953e+00	 3.516521215295599e+00
 2.016016283369649e+00	 1.190282518736530e+00	 3.366070362460794e+00
 2.004499960629588e+00	 1.209575986232364e+00	 3.210384207842389e+00
 2.118559324674199e+00	 1.016954505972811e+00	 2.827233190713134e+00
 2.108825900573605e+00	 1.036987730123215e+00	 3.162527622307505e+00
 2.098887295085629e+00	 1.056959094106872e+00	 3.425246681761655e+00
 2.088743932957343e+00	 1.076865530952411e+00	 3.619730889901089e+00
 2.078396298594540e+00	 1.096703972946536e+00	 3.751300586726062e+00
 2.067844936288086e+00	 1.116471353055012e+00	 3.825942737143909e+00
 2.057090450400474e+00	 1.136164606355898e+00	 3.844734603657600e+00
 2.046133505511988e+00	 1.155780671483765e+00	 3.811521501169714e+00
 2.034974826525907e+00	 1.175316492083581e+00	 3.732828904541642e+00
 2.023615198732285e+00	 1.194769018272925e+00	 3.616002602050846e+00
 2.012055467829828e+00	 1.214135208111189e+00	 3.469241087863508e+00
 2.126514759744138e+00	 1.020773287653006e+00	 2.742123938470594e+00
 2.116744785511231e+00	 1.040881738875128e+00	 3.050163034152005e+00
 2.106768859410999e+00	 1.060928097638494e+00	 3.314393440973807e+00
 2.096587407785516e+00	 1.080909285454883e+00	 3.533195199480979e+00
 2.086200916859602e+00	 1.100822223091359e+00	 3.705950411819081e+00
 2.075609932968031e+00	 1.120663831996600e+00	 3.832098429505295e+00
 2.064815062742778e+00	 1.140431035739509e+00	 3.906105408381576e+00
 2.053816973259728e+00	 1.160120761458857e+00	 3.926849648933765e+00
 2.042616392144289e+00	 1.179729941322622e+00	 3.895013622656280e+00
 2.031214107635401e+00	 1.199255513995705e+00	 3.812153963752444e+00
 2.019610968607495e+00	 1.218694426114637e+00	 3.680743873768384e+00
 2.134470185797058e+00	 1.024592065004682e+00	 2.708546660937520e+00
 2.124663661473299e+00	 1.044775743213258e+00	 2.976950612979552e+00
 2.114650414803146e+00	 1.064897096671347e+00	 3.228191602464787e+00
 2.104430873723678e+00	 1.084953035373888e+00	 3.455797359121889e+00
 2.094005526278741e+00	 1.104940468568320e+00	 3.654279777932880e+00
 2.083374920847009e+00	 1.124856306186241e+00	 3.817192275658114e+00
 2.072539666329936e+00	 1.144697460287411e+00	 3.934048296569331e+00
 2.061500432299009e+00	 1.164460846514808e+00	 3.999392803125628e+00
 2.050257949101757e+00	 1.184143385559435e+00	 4.008950356806560e+00
 2.038813007926001e+00	 1.203742004633522e+00	 3.959324217666574e+00
 2.027166460821896e+00	 1.223253638950750e+00	 3.848047182146689e+00
 2.142425600578789e+00	 1.028410836945792e+00	 2.721855133318272e+00
 2.132582526216002e+00	 1.048669742034235e+00	 2.941282234221398e+00
 2.122531959028857e+00	 1.068866090080803e+00	 3.167596954502365e+00
 2.112274328549429e+00	 1.088996779563608e+00	 3.390570813817519e+00
 2.101810124640586e+00	 1.109058708210477e+00	 3.600901756789429e+00
 2.091139897724899e+00	 1.129048774435946e+00	 3.786912084317614e+00
 2.080264258973291e+00	 1.148963878790642e+00	 3.934816024971411e+00
 2.069183880452850e+00	 1.168800925421771e+00	 4.035438066130562e+00
 2.057899495233219e+00	 1.188556823543375e+00	 4.080419317256331e+00
 2.046411897451093e+00	 1.208228488915024e+00	 4.062235152882951e+00
 2.034721942332342e+00	 1.227812845327571e+00	 3.974252916096411e+00
 2.150381001835161e+00	 1.032229602394291e+00	 2.777457197698432e+00
 2.140501377495537e+00	 1.052563734234695e+00	 2.941558540154762e+00
 2.130413489854918e+00	 1.072835076742238e+00	 3.133535760621821e+00
 2.120117770040366e+00	 1.093040516878224e+00	 3.340488379913937e+00
 2.109614709733765e+00	 1.113176940850887e+00	 3.550305565504689e+00
 2.098904861401575e+00	 1.133241235557722e+00	 3.746852131159640e+00
 2.087988838484186e+00	 1.153230290040244e+00	 3.914560267846144e+00
 2.076867315544271e+00	 1.173140996949903e+00	 4.041171780846179e+00
 2.065541028373582e+00	 1.192970254023798e+00	 4.115108302998317e+00
 2.054010774057679e+00	 1.212714965568865e+00	 4.125532668110186e+00
 2.042277410998140e+00	 1.232372043953140e+00	 4.062411923921753e+00
 2.158336387312002e+00	 1.036048360268131e+00	 2.870813771988701e+00
 2.148420213068101e+00	 1.056457718711270e+00	 2.976188790311941e+00
 2.138295005048113e+00	 1.076804055531025e+00	 3.126905322034901e+00
 2.127961195974085e+00	 1.097084246171915e+00	 3.308463386752999e+00
 2.117419279346907e+00	 1.117295165322609e+00	 3.506705273704259e+00
 2.106669809676916e+00	 1.137433688363579e+00	 3.702515399067419e+00
 2.095713402673961e+00	 1.157496692827257e+00	 3.879334032518773e+00
 2.084550735396291e+00	 1.177481059869356e+00	 4.022681976462961e+00
 2.073182546357754e+00	 1.197383675750061e+00	 4.118615029774126e+00
 2.061609635592767e+00	 1.217201433323694e+00	 4.153788831157751e+00
 2.049832864678601e+00	 1.236931233535500e+00	 4.115525636601126e+00
 2.166291754755141e+00	 1.039867109485265e+00	 2.997437885568988e+00
 2.156339030689888e+00	 1.060351694360594e+00	 3.043590720243903e+00
 2.146176502375230e+00	 1.080773025322537e+00	 3.148574532889189e+00
 2.135804604128185e+00	 1.101127966298864e+00	 3.297350798575463e+00
 2.125223831268640e+00	 1.121413380458700e+00	 3.474436375898740e+00
 2.114434740350801e+00	 1.141626131665528e+00	 3.659315782431766e+00
 2.103437949353958e+00	 1.161763085942720e+00	 3.835094035552652e+00
 2.092234137831928e+00	 1.181821112950286e+00	 3.985960774599763e+00
 2.080824047020644e+00	 1.201797087471521e+00	 4.096449421439279e+00
 2.069208479903361e+00	 1.221687890908163e+00	 4.151503908060350e+00
 2.057388301233035e+00	 1.241490412782693e+00	 4.136547684561415e+00
 2.174247101910407e+00	 1.043685848963648e+00	 3.152893740950201e+00
 2.164257828117094e+00	 1.064245660079298e+00	 3.142190408424405e+00
 2.154057979603053e+00	 1.084741984992150e+00	 3.199384428559495e+00
 2.143647992280264e+00	 1.105171676113251e+00	 3.309948317186854e+00
 2.133028363287593e+00	 1.125531585092218e+00	 3.457800442123420e+00
 2.122199651223107e+00	 1.145818564275578e+00	 3.622580256416212e+00
 2.111162476335520e+00	 1.166029468177674e+00	 3.787703040531778e+00
 2.099917520674204e+00	 1.186161154962848e+00	 3.936906756799815e+00
 2.088465528197159e+00	 1.206210487937535e+00	 4.054035865601749e+00
 2.076807304836467e+00	 1.226174337050922e+00	 4.123108362612233e+00
 2.064943718520748e+00	 1.246049580402761e+00	 4.128385494278995e+00
 1.989388935524150e+00	 1.200457536016417e+00	 2.537716026398823e+00
 1.977762476655390e+00	 1.219517197002342e+00	 2.525348628780135e+00
 1.965940023191580e+00	 1.238485510600662e+00	 2.676284005458744e+00
 1.953922593049960e+00	 1.257359503827861e+00	 2.957142720990368e+00
 1.941711263511819e+00	 1.276136217473172e+00	 3.334132989945995e+00
 1.929307171029115e+00	 1.294812707563214e+00	 3.773131934895914e+00
 1.916711510988107e+00	 1.313386046824939e+00	 4.239767922148811e+00
 1.903925537429925e+00	 1.331853326145434e+00	 4.699503535524451e+00
 1.890950562728077e+00	 1.350211656027125e+00	 5.117718740294663e+00
 1.877787957222933e+00	 1.368458168036886e+00	 5.459793784239450e+00
 1.864439148813270e+00	 1.386590016247609e+00	 5.691191380611560e+00
 1.996944449147465e+00	 1.205016761770121e+00	 2.900964223143125e+00
 1.985273834072144e+00	 1.224148809570533e+00	 2.832304775462811e+00
 1.973406480032670e+00	 1.243189163054434e+00	 2.883227551185084e+00
 1.961343408812223e+00	 1.262134837947207e+00	 3.030846508748957e+00
 1.949085701783490e+00	 1.280982863799295e+00	 3.251839369238771e+00
 1.936634499714556e+00	 1.299730285456395e+00	 3.522515732397133e+00
 1.923991002531625e+00	 1.318374164527963e+00	 3.818886223316885e+00
 1.911156469038548e+00	 1.336911580852564e+00	 4.116732242169742e+00
 1.898132216593087e+00	 1.355339633958594e+00	 4.391675881296779e+00
 1.884919620740023e+00	 1.373655444518904e+00	 4.619249568932398e+00
 1.871520114801142e+00	 1.391856155797832e+00	 4.774964996837111e+00
 2.004499960629588e+00	 1.209575986232364e+00	 3.210384207842389e+00
 1.992785189360277e+00	 1.228780420826792e+00	 3.101408704572805e+00
 1.980872934757937e+00	 1.247892814175880e+00	 3.072052976052254e+00
 1.968764222471682e+00	 1.266910170713916e+00	 3.108679966611887e+00
 1.956460137965593e+00	 1.285829508752559e+00	 3.197208373810930e+00
 1.943961826323868e+00	 1.304647861956592e+00	 3.323169413687216e+00
 1.931270492012660e+00	 1.323362280817980e+00	 3.471764558843305e+00
 1.918387398598522e+00	 1.341969834126770e+00	 3.627923830600686e+00
 1.905313868423473e+00	 1.360467610437339e+00	 3.776364218530867e+00
 1.892051282236691e+00	 1.378852719528515e+00	 3.901647795757818e+00
 1.878601078782971e+00	 1.397122293856093e+00	 3.988239096600455e+00
 2.012055467829828e+00	 1.214135208111189e+00	 3.469241087863508e+00
 2.000296540391606e+00	 1.233412029458653e+00	 3.334030168415450e+00
 1.988339385251911e+00	 1.252596462632128e+00	 3.242441144096562e+00
 1.976185031925786e+00	 1.271685500774818e+00	 3.188855004389949e+00
 1.963834569968696e+00	 1.290676150959604e+00	 3.167216242017972e+00
 1.951289148780951e+00	 1.309565435670361e+00	 3.171080048324552e+00
 1.938549977368639e+00	 1.328350394281576e+00	 3.193660412943784e+00
 1.925618324061019e+00	 1.347028084534785e+00	 3.227878714670121e+00
 1.912495516184350e+00	 1.365595584010351e+00	 3.266412382626349e+00
 1.899182939692204e+00	 1.384049991593090e+00	 3.301743202055930e+00
 1.885682038752376e+00	 1.402388428930264e+00	 3.326204837424497e+00
 2.019610968607495e+00	 1.218694426114637e+00	 3.680743873768384e+00
 2.007807885037947e+00	 1.238043634153649e+00	 3.531511953789014e+00
 1.995805829399123e+00	 1.257300107090308e+00	 3.394071989272528e+00
 1.983605835071982e+00	 1.276460826776742e+00	 3.269605331923462e+00
 1.971208995703370e+00	 1.295522789047066e+00	 3.158880229425484e+00
 1.958616465009702e+00	 1.314483005204259e+00	 3.062291221720506e+00
 1.945829456536996e+00	 1.333338503505338e+00	 2.979899362380616e+00
 1.932849243377207e+00	 1.352086330643339e+00	 2.911472854488940e+00
 1.919677157840830e+00	 1.370723553224621e+00	 2.856527682728437e+00
 1.906314591085828e+00	 1.389247259240002e+00	 2.814367818757084e+00
 1.892762992702984e+00	 1.407654559528214e+00	 2.784124575503938e+00
 2.027166460821896e+00	 1.223253638950750e+00	 3.848047182146689e+00
 2.015319221171121e+00	 1.242675233599315e+00	 3.695171076639412e+00
 2.003272265084102e+00	 1.262003746217548e+00	 3.526625259210234e+00
 1.991026629807716e+00	 1.281236147366518e+00	 3.349186812987234e+00
 1.978583413080184e+00	 1.300369421641584e+00	 3.169258637637737e+00
 1.965943772934017e+00	 1.319400569164842e+00	 2.992902807363260e+00
 1.953108927455161e+00	 1.338326607075852e+00	 2.825874664209485e+00
 1.940080154498257e+00	 1.357144571019162e+00	 2.673657235437909e+00
 1.926858791358031e+00	 1.375851516627142e+00	 2.541495556086229e+00
 1.913446234396830e+00	 1.394444520996620e+00	 2.434430473378384e+00
 1.899843938628414e+00	 1.412920684157815e+00	 2.357331508413009e+00
 2.034721942332342e+00	 1.227812845327571e+00	 3.974252916096411e+00
 2.022830546662941e+00	 1.247306826483184e+00	 3.826299966042976e+00
 2.010738690191378e+00	 1.266707378680977e+00	 3.639781258702848e+00
 1.998447414030436e+00	 1.286011461190974e+00	 3.425877827964975e+00
 1.985957820009707e+00	 1.305216047369794e+00	 3.195450859489063e+00
 1.973271070477796e+00	 1.324318126158666e+00	 2.959070761468556e+00
 1.960388388060565e+00	 1.343314703579704e+00	 2.727046870406575e+00
 1.947311055375339e+00	 1.362202804228986e+00	 2.509457376821381e+00
 1.934040414701069e+00	 1.380979472764906e+00	 2.316179048272430e+00
 1.920577867604473e+00	 1.399641775390316e+00	 2.156916322791399e+00
 1.906924874522291e+00	 1.418186801326936e+00	 2.041229344795239e+00
 2.042277410998140e+00	 1.232372043953140e+00	 4.062411923921753e+00
 2.030341859385229e+00	 1.251938411492789e+00	 3.926167637785110e+00
 2.018205102605480e+00	 1.271411003147725e+00	 3.733221592923068e+00
 2.005868185637590e+00	 1.290786766896941e+00	 3.497979645058495e+00
 1.993332214402511e+00	 1.310062664858336e+00	 3.234597440166787e+00
 1.980598355564936e+00	 1.329235674792287e+00	 2.957006939469387e+00
 1.967667836290638e+00	 1.348302791603481e+00	 2.678943468672611e+00
 1.954541943959624e+00	 1.367261028839541e+00	 2.413972869387791e+00
 1.941222025835057e+00	 1.386107420184904e+00	 2.175518323233959e+00
 1.927709488688025e+00	 1.404839020948460e+00	 1.976886414981678e+00
 1.914005798378236e+00	 1.423452909543449e+00	 1.831292000327739e+00
 2.049832864678601e+00	 1.236931233535500e+00	 4.115525636601126e+00
 2.037853157209798e+00	 1.256569987315664e+00	 3.996020857794385e+00
 2.025671500210940e+00	 1.276114618284919e+00	 3.806629910367335e+00
 2.013288942526624e+00	 1.295562063131247e+00	 3.563816799803411e+00
 2.000706594169164e+00	 1.314909272733847e+00	 3.283880153846875e+00
 1.987925626119334e+00	 1.334153213672261e+00	 2.982978933773435e+00
 1.974947270082814e+00	 1.353290869733770e+00	 2.677158548730866e+00
 1.961772818202281e+00	 1.372319243417560e+00	 2.382376940964605e+00
 1.948403622725112e+00	 1.391235357434127e+00	 2.114530202395716e+00
 1.934841095626754e+00	 1.410036256198424e+00	 1.889477279044041e+00
 1.921086708189874e+00	 1.428719007315223e+00	 1.723063319273403e+00
 2.057388301233035e+00	 1.241490412782693e+00	 4.136547684561415e+00
 2.045364438008468e+00	 1.261201552639344e+00	 4.037085295684069e+00
 2.033137880892288e+00	 1.280818222759688e+00	 3.859692645526140e+00
 2.020709682594987e+00	 1.300337348540723e+00	 3.621737482669629e+00
 2.008080957220236e+00	 1.319755869622965e+00	 3.340522095435672e+00
 1.995252880064886e+00	 1.339070741405143e+00	 3.033309932233836e+00
 1.982226687374521e+00	 1.358278936557156e+00	 2.717352493455888e+00
 1.969003676054482e+00	 1.377377446529773e+00	 2.409916049476914e+00
 1.955585203336348e+00	 1.396363283059569e+00	 2.128307732062384e+00
 1.941972686399922e+00	 1.415233479667579e+00	 1.889900542678722e+00
 1.928167601950828e+00	 1.433985093150131e+00	 1.712156820953927e+00
 2.064943718520748e+00	 1.246049580402761e+00	 4.128385494278995e+00
 2.052875699653055e+00	 1.265833106151361e+00	 4.050566668645136e+00
 2.040604242534051e+00	 1.285521815239163e+00	 3.892099761278804e+00
 2.028130403740126e+00	 1.305112621772199e+00	 3.670113934531233e+00
 2.015455301466299e+00	 1.324602454152327e+00	 3.401787787022490e+00
 2.002580115325494e+00	 1.343988256597492e+00	 3.104378596794459e+00
 1.989506086103193e+00	 1.363266990660227e+00	 2.795251694188893e+00
 1.976234515467395e+00	 1.382435636742910e+00	 2.491909502639961e+00
 1.962766765633880e+00	 1.401491195608219e+00	 2.212019778385074e+00
 1.949104258986799e+00	 1.420430689883295e+00	 1.973442576475595e+00
 1.935248477654718e+00	 1.439251165556041e+00	 1.794255470495985e+00
 1.864439148813270e+00	 1.386590016247609e+00	 5.691191380611560e+00
 1.850903307320891e+00	 1.404607429438896e+00	 5.766662848587448e+00
 1.837184235171193e+00	 1.422504508563369e+00	 5.685318263774586e+00
 1.823283538569292e+00	 1.440278472033041e+00	 5.478625635841642e+00
 1.809202879294923e+00	 1.457926566399106e+00	 5.174923007642082e+00
 1.794943974079505e+00	 1.475446067740176e+00	 4.802521762775651e+00
 1.780508593941997e+00	 1.492834283034248e+00	 4.386323409769807e+00
 1.765898563484045e+00	 1.510088551512984e+00	 3.942881372789520e+00
 1.751115760144993e+00	 1.527206245996894e+00	 3.498422867114993e+00
 1.736162113417373e+00	 1.544184774210023e+00	 3.079745828998582e+00
 1.721039604023517e+00	 1.561021580072778e+00	 2.713319762384815e+00
 1.871520114801142e+00	 1.391856155797832e+00	 4.774964996837111e+00
 1.857932865445300e+00	 1.409941997443875e+00	 4.822672341117053e+00
 1.844161689539152e+00	 1.427907048005617e+00	 4.755059276076190e+00
 1.830208199388038e+00	 1.445748515330842e+00	 4.599051488948371e+00
 1.816074063082990e+00	 1.463463635513391e+00	 4.377040204764624e+00
 1.801761003875421e+00	 1.481049674286660e+00	 4.110394827374008e+00
 1.787270799510458e+00	 1.498503928400789e+00	 3.812860515315797e+00
 1.772605281519428e+00	 1.515823726982075e+00	 3.496770658353972e+00
 1.757766334472023e+00	 1.533006432873232e+00	 3.182119270458454e+00
 1.742755895188810e+00	 1.550049443953068e+00	 2.888557561835820e+00
 1.727575951914733e+00	 1.566950194434223e+00	 2.635416756768511e+00
 1.878601078782971e+00	 1.397122293856093e+00	 3.988239096600455e+00
 1.864962421578210e+00	 1.415276563937467e+00	 4.008887474456417e+00
 1.851139141930328e+00	 1.433309585917184e+00	 3.953474118613134e+00
 1.837132858244895e+00	 1.451218557078806e+00	 3.839901904570266e+00
 1.822945244924235e+00	 1.469000703058818e+00	 3.688112688825151e+00
 1.808578031739763e+00	 1.486653279245410e+00	 3.512657874345370e+00
 1.794033003162784e+00	 1.504173572160856e+00	 3.317244248247779e+00
 1.779311997654301e+00	 1.521558900826096e+00	 3.112029078398282e+00
 1.764416906914359e+00	 1.538806618106047e+00	 2.910653354932442e+00
 1.749349675091570e+00	 1.555914112034282e+00	 2.726403629068513e+00
 1.734112297953490e+00	 1.572878807115677e+00	 2.572250311193580e+00
 1.885682038752376e+00	 1.402388428930264e+00	 3.326204837424497e+00
 1.871991973727809e+00	 1.420611127408160e+00	 3.321074866938514e+00
 1.858116590367678e+00	 1.438712120767305e+00	 3.276013061083003e+00
 1.844057513177781e+00	 1.456688595727043e+00	 3.198425437226104e+00
 1.829816422871745e+00	 1.474537767466510e+00	 3.105961442862187e+00
 1.815395055740979e+00	 1.492256881028687e+00	 3.006765214859182e+00
 1.800795202982969e+00	 1.509843212707999e+00	 2.898372919834876e+00
 1.786018709988396e+00	 1.527294071420026e+00	 2.788056752903907e+00
 1.771067475587658e+00	 1.544606800051898e+00	 2.683876626758678e+00
 1.755943451257415e+00	 1.561778776791955e+00	 2.593527663402985e+00
 1.740648640287829e+00	 1.578807416437315e+00	 2.524388134559830e+00
 1.892762992702984e+00	 1.407654559528214e+00	 2.784124575503938e+00
 1.879021519902285e+00	 1.425945686344444e+00	 2.755087472689289e+00
 1.865094032874155e+00	 1.444114651025215e+00	 2.717410065963813e+00
 1.850982162224622e+00	 1.462158629725662e+00	 2.671874786146819e+00
 1.836687594978606e+00	 1.480074827167581e+00	 2.628401797705713e+00
 1.822212073947515e+00	 1.497860478048757e+00	 2.591074373606328e+00
 1.807557397055009e+00	 1.515512848435769e+00	 2.555145028978678e+00
 1.792725416621447e+00	 1.533029237138850e+00	 2.524247333386910e+00
 1.777718038607577e+00	 1.550406977067346e+00	 2.501628149875523e+00
 1.762537221818100e+00	 1.567643436564377e+00	 2.490155691588875e+00
 1.747184977065789e+00	 1.584736020719312e+00	 2.492376103888775e+00
 1.899843938628414e+00	 1.412920684157815e+00	 2.357331508413009e+00
 1.886051058109825e+00	 1.431280239234809e+00	 2.306840668782516e+00
 1.872071467472716e+00	 1.449517175160149e+00	 2.274146540668286e+00
 1.857906803423340e+00	 1.467628657524773e+00	 2.256220971748764e+00
 1.843558759297907e+00	 1.485611880593152e+00	 2.252821800646367e+00
 1.829029084427817e+00	 1.503464068717884e+00	 2.263955997366914e+00
 1.814319583462900e+00	 1.521182477737717e+00	 2.286460320268413e+00
 1.799432115653187e+00	 1.538764396357546e+00	 2.319989211897464e+00
 1.784368594089770e+00	 1.556207147508950e+00	 2.363735890889365e+00
 1.769130984905386e+00	 1.573508089689840e+00	 2.416497597887963e+00
 1.753721306435410e+00	 1.590664618281842e+00	 2.476739826444568e+00
 1.906924874522291e+00	 1.418186801326936e+00	 2.041229344795239e+00
 1.893080586358616e+00	 1.436614784567744e+00	 1.972312106003403e+00
 1.879048892186315e+00	 1.454919691641342e+00	 1.942774769300327e+00
 1.864831434811856e+00	 1.473098677574487e+00	 1.946565287944930e+00
 1.850429913882734e+00	 1.491148926174340e+00	 1.975994808102034e+00
 1.835846085250330e+00	 1.509067651448332e+00	 2.023789928502036e+00
 1.821081760290637e+00	 1.526852099007392e+00	 2.091220847163731e+00
 1.806138805183349e+00	 1.544499547451097e+00	 2.174666732070424e+00
 1.791019140149892e+00	 1.562007309733271e+00	 2.270018063311193e+00
 1.775724738651032e+00	 1.579372734506631e+00	 2.372748584426271e+00
 1.760257626544733e+00	 1.596593207445081e+00	 2.477986196754323e+00
 1.914005798378236e+00	 1.423452909543449e+00	 1.831292000327738e+00
 1.900110102656846e+00	 1.441949320831738e+00	 1.747541582180365e+00
 1.886026305037907e+00	 1.460322198938027e+00	 1.719901031990087e+00
 1.871756054428095e+00	 1.478568688324913e+00	 1.740044288801822e+00
 1.857301056786175e+00	 1.496685962342265e+00	 1.794598093103827e+00
 1.842663074483502e+00	 1.514671224652364e+00	 1.868966116216844e+00
 1.827843925622218e+00	 1.532521710638346e+00	 1.968332040162225e+00
 1.812845483311668e+00	 1.550234688794485e+00	 2.087661402163352e+00
 1.797669674903600e+00	 1.567807462096869e+00	 2.220284471085646e+00
 1.782318481186795e+00	 1.585237369353043e+00	 2.359090628498847e+00
 1.766793935541797e+00	 1.602521786529205e+00	 2.496604948648094e+00
 1.921086708189874e+00	 1.428719007315223e+00	 1.723063319273402e+00
 1.907139605012702e+00	 1.447283846515282e+00	 1.628630937493444e+00
 1.893003704050447e+00	 1.465724695519441e+00	 1.602185673961467e+00
 1.878680660309978e+00	 1.484038688226160e+00	 1.633718675957042e+00
 1.864172186061317e+00	 1.502222987528044e+00	 1.704085191013119e+00
 1.849480050195777e+00	 1.520274786742246e+00	 1.797885535832986e+00
 1.834606077541637e+00	 1.538191311024130e+00	 1.916703779812646e+00
 1.819552148137876e+00	 1.555969818762690e+00	 2.058353110019769e+00
 1.804320196466549e+00	 1.573607602956306e+00	 2.214337851419777e+00
 1.788912210644436e+00	 1.591101992567367e+00	 2.375693936894213e+00
 1.773330231574643e+00	 1.608450353854388e+00	 2.533070202435038e+00
 1.928167601950828e+00	 1.433985093150131e+00	 1.712156820953927e+00
 1.914169091434372e+00	 1.452618360106865e+00	 1.611743971184307e+00
 1.899981087246890e+00	 1.471127179854817e+00	 1.586343192469737e+00
 1.885605250495428e+00	 1.489508675728339e+00	 1.623840546015044e+00
 1.871043299761248e+00	 1.507760000162794e+00	 1.702264639463902e+00
 1.856297010455603e+00	 1.525878336130241e+00	 1.808197538357515e+00
 1.841368214132891e+00	 1.543860898558293e+00	 1.935251474438603e+00
 1.826258797761706e+00	 1.561704935730695e+00	 2.086121339897132e+00
 1.810970702954395e+00	 1.579407730668139e+00	 2.251975216917722e+00
 1.795505925155712e+00	 1.596966602487890e+00	 2.422718397303067e+00
 1.779866512791311e+00	 1.614378907740806e+00	 2.587842007328676e+00
 1.935248477654718e+00	 1.439251165556041e+00	 1.794255470495985e+00
 1.921198559930043e+00	 1.457952860094976e+00	 1.693106379109936e+00
 1.906958452650192e+00	 1.476529650413391e+00	 1.669142341140725e+00
 1.892529823022367e+00	 1.494978649281559e+00	 1.707608334283011e+00
 1.877914395939055e+00	 1.513296998677638e+00	 1.787086710345781e+00
 1.863113953331427e+00	 1.531481871228614e+00	 1.895704426956879e+00
 1.848130333479975e+00	 1.549530471634388e+00	 2.022897142441188e+00
 1.832965430282894e+00	 1.567440038073481e+00	 2.170346391100102e+00
 1.817621192482792e+00	 1.585207843588931e+00	 2.332989197027400e+00
 1.802099622852384e+00	 1.602831197452905e+00	 2.500315026873851e+00
 1.786402777339841e+00	 1.620307446508633e+00	 2.661367879230226e+00
 1.721039604023517e+00	 1.561021580072778e+00	 2.713319762384814e+00
 1.705752871481626e+00	 1.577711324479812e+00	 2.429778982408073e+00
 1.690301416359099e+00	 1.594254425523221e+00	 2.235502563291895e+00
 1.674687339431072e+00	 1.610648471685908e+00	 2.120114015452254e+00
 1.658912789003697e+00	 1.626891092545054e+00	 2.072758005515179e+00
 1.642979959922168e+00	 1.642979959922168e+00	 2.082158061614150e+00
 1.626891092545055e+00	 1.658912789003697e+00	 2.136671705654452e+00
 1.610648471685908e+00	 1.674687339431073e+00	 2.224342692431256e+00
 1.594254425523221e+00	 1.690301416359099e+00	 2.332950069318503e+00
 1.577711324479812e+00	 1.705752871481626e+00	 2.450053805831310e+00
 1.561021580072778e+00	 1.721039604023517e+00	 2.563036779410904e+00
 1.727575951914733e+00	 1.566950194434223e+00	 2.635416756768511e+00
 1.712231161788455e+00	 1.583703324933919e+00	 2.446396226550644e+00
 1.696721023480571e+00	 1.600309255132129e+00	 2.326884113156662e+00
 1.681047645744755e+00	 1.616765564353048e+00	 2.268278095247547e+00
 1.665213185046218e+00	 1.633069873171222e+00	 2.261544994478794e+00
 1.649219844565963e+00	 1.649219844565963e+00	 2.297277192703342e+00
 1.633069873171222e+00	 1.665213185046219e+00	 2.365746285156675e+00
 1.616765564353048e+00	 1.681047645744757e+00	 2.456953646218642e+00
 1.600309255132129e+00	 1.696721023480571e+00	 2.560677619370698e+00
 1.583703324933918e+00	 1.712231161788455e+00	 2.666517079776458e+00
 1.566950194434223e+00	 1.727575951914733e+00	 2.763931156203917e+00
 1.734112297953490e+00	 1.572878807115677e+00	 2.572250311193580e+00
 1.718709450259242e+00	 1.589695323690025e+00	 2.465633716068066e+00
 1.703140628782617e+00	 1.606364083025182e+00	 2.411004602997579e+00
 1.687407950255825e+00	 1.622882655286639e+00	 2.401377396450382e+00
 1.671513579303124e+00	 1.639248652046312e+00	 2.429378384417543e+00
 1.655459727441323e+00	 1.655459727441322e+00	 2.487301096431303e+00
 1.639248652046312e+00	 1.671513579303124e+00	 2.567158730152336e+00
 1.622882655286639e+00	 1.687407950255825e+00	 2.660733299298003e+00
 1.606364083025182e+00	 1.703140628782617e+00	 2.759621211912562e+00
 1.589695323690025e+00	 1.718709450259243e+00	 2.855275026025984e+00
 1.572878807115678e+00	 1.734112297953491e+00	 2.939041169297191e+00
 1.740648640287829e+00	 1.578807416437315e+00	 2.524388134559830e+00
 1.725187735058482e+00	 1.595687319050353e+00	 2.488316511320103e+00
 1.709560230446359e+00	 1.612418907486808e+00	 2.488888100812515e+00
 1.693768251162196e+00	 1.628999742753476e+00	 2.520578379894451e+00
 1.677813969989298e+00	 1.645427427419650e+00	 2.577512200216463e+00
 1.661699606780268e+00	 1.661699606780268e+00	 2.653518375092923e+00
 1.645427427419649e+00	 1.677813969989298e+00	 2.742181130970406e+00
 1.628999742753476e+00	 1.693768251162197e+00	 2.836888091912797e+00
 1.612418907486807e+00	 1.709560230446359e+00	 2.930874502966932e+00
 1.595687319050353e+00	 1.725187735058483e+00	 3.017263437568671e+00
 1.578807416437315e+00	 1.740648640287829e+00	 3.089101774971818e+00
 1.747184977065789e+00	 1.584736020719312e+00	 2.492376103888775e+00
 1.731666014350667e+00	 1.601679309317123e+00	 2.515244529002012e+00
 1.715979826652915e+00	 1.618473726801433e+00	 2.561531003896633e+00
 1.700128546661788e+00	 1.635116825020353e+00	 2.627018063753936e+00
 1.684114355319626e+00	 1.651606197540560e+00	 2.707169977233195e+00
 1.667939480814823e+00	 1.667939480814823e+00	 2.797186789387861e+00
 1.651606197540561e+00	 1.684114355319627e+00	 2.892055048520870e+00
 1.635116825020352e+00	 1.700128546661788e+00	 2.986594880513049e+00
 1.618473726801432e+00	 1.715979826652915e+00	 3.075503112832686e+00
 1.601679309317123e+00	 1.731666014350667e+00	 3.153392190993913e+00
 1.584736020719312e+00	 1.747184977065789e+00	 3.214824672343832e+00
 1.753721306435410e+00	 1.590664618281842e+00	 2.476739826444568e+00
 1.738144286300291e+00	 1.607671292792556e+00	 2.547194183440559e+00
 1.722399415583405e+00	 1.624528539253485e+00	 2.629903742191354e+00
 1.706488834952518e+00	 1.641233900354063e+00	 2.721805772318160e+00
 1.690414733508997e+00	 1.657784960658371e+00	 2.819546539379647e+00
 1.674179347777009e+00	 1.674179347777009e+00	 2.919535050212643e+00
 1.657784960658371e+00	 1.690414733508997e+00	 3.017993304735399e+00
 1.641233900354063e+00	 1.706488834952518e+00	 3.111002712330051e+00
 1.624528539253484e+00	 1.722399415583405e+00	 3.194546370838098e+00
 1.607671292792556e+00	 1.738144286300292e+00	 3.264546948039442e+00
 1.590664618281842e+00	 1.753721306435410e+00	 3.316899948904041e+00
 1.760257626544733e+00	 1.596593207445081e+00	 2.477986196754323e+00
 1.744622549071847e+00	 1.613663267778873e+00	 2.584920021214025e+00
 1.728818995418950e+00	 1.630583343127389e+00	 2.694952473737871e+00
 1.712849114232304e+00	 1.647350967021405e+00	 2.806024875996128e+00
 1.696715102772293e+00	 1.663963715022407e+00	 2.915809767892114e+00
 1.680419205898848e+00	 1.680419205898847e+00	 3.021764600920972e+00
 1.663963715022407e+00	 1.696715102772293e+00	 3.121181763565118e+00
 1.647350967021405e+00	 1.712849114232305e+00	 3.211234590893878e+00
 1.630583343127389e+00	 1.728818995418950e+00	 3.289019051707307e+00
 1.613663267778873e+00	 1.744622549071847e+00	 3.351590849693999e+00
 1.596593207445081e+00	 1.760257626544733e+00	 3.395997719813515e+00
 1.766793935541797e+00	 1.602521786529205e+00	 2.496604948648094e+00
 1.751100800829827e+00	 1.619655232578295e+00	 2.629156349257066e+00
 1.735238564340668e+00	 1.636638136707574e+00	 2.757600772427601e+00
 1.719209382699064e+00	 1.653468023289169e+00	 2.880734522765812e+00
 1.703015461324401e+00	 1.670142458881994e+00	 2.997102361018558e+00
 1.686659053412363e+00	 1.686659053412363e+00	 3.105051390286484e+00
 1.670142458881994e+00	 1.703015461324401e+00	 3.202781102767436e+00
 1.653468023289169e+00	 1.719209382699064e+00	 3.288389232715819e+00
 1.636638136707574e+00	 1.735238564340668e+00	 3.359913103744519e+00
 1.619655232578294e+00	 1.751100800829828e+00	 3.415366203035426e+00
 1.602521786529205e+00	 1.766793935541797e+00	 3.452769761104097e+00
 1.773330231574643e+00	 1.608450353854388e+00	 2.533070202435038e+00
 1.757579039738728e+00	 1.625647185493043e+00	 2.680618856606325e+00
 1.741658120529679e+00	 1.642692918278465e+00	 2.818751308235814e+00
 1.725569638550716e+00	 1.659585067424153e+00	 2.946971361276356e+00
 1.709315807380207e+00	 1.676321190486458e+00	 3.064543584844478e+00
 1.692898888549577e+00	 1.692898888549577e+00	 3.170547636394922e+00
 1.676321190486458e+00	 1.709315807380207e+00	 3.263928576706655e+00
 1.659585067424152e+00	 1.725569638550716e+00	 3.343542815350813e+00
 1.642692918278465e+00	 1.741658120529680e+00	 3.408199369034395e+00
 1.625647185493043e+00	 1.757579039738728e+00	 3.456696160978825e+00
 1.608450353854388e+00	 1.773330231574643e+00	 3.487851136928600e+00
 1.779866512791311e+00	 1.614378907740806e+00	 2.587842007328676e+00
 1.764057263963040e+00	 1.631639124825339e+00	 2.740006229937703e+00
 1.748077662167105e+00	 1.648747686124491e+00	 2.879287520118929e+00
 1.731929879985176e+00	 1.665702097693149e+00	 3.005751255804623e+00
 1.715616139154597e+00	 1.682499908085125e+00	 3.119231015472240e+00
 1.699138709542511e+00	 1.699138709542511e+00	 3.219383581685909e+00
 1.682499908085125e+00	 1.715616139154597e+00	 3.305739770386195e+00
 1.665702097693149e+00	 1.731929879985177e+00	 3.377750717048184e+00
 1.648747686124491e+00	 1.748077662167105e+00	 3.434829295850487e+00
 1.631639124825338e+00	 1.764057263963040e+00	 3.476386395103984e+00
 1.614378907740805e+00	 1.779866512791310e+00	 3.501861821000877e+00
 1.786402777339841e+00	 1.620307446508633e+00	 2.661367879230226e+00
 1.770535471667258e+00	 1.637631048877402e+00	 2.808001763041502e+00
 1.754497187434063e+00	 1.654802438530077e+00	 2.940075281750338e+00
 1.738290105200364e+00	 1.671819112362954e+00	 3.058070993261824e+00
 1.721916454862457e+00	 1.688678609927321e+00	 3.162242272761943e+00
 1.705378514623189e+00	 1.705378514623189e+00	 3.252669239357539e+00
 1.688678609927321e+00	 1.721916454862457e+00	 3.329310344923633e+00
 1.671819112362954e+00	 1.738290105200364e+00	 3.392049248192846e+00
 1.654802438530077e+00	 1.754497187434064e+00	 3.440736643458272e+00
 1.637631048877402e+00	 1.770535471667259e+00	 3.475226761726225e+00
 1.620307446508632e+00	 1.786402777339840e+00	 3.495408312361330e+00
 1.561021580072778e+00	 1.721039604023517e+00	 2.563036779410904e+00
 1.544184774210024e+00	 1.736162113417373e+00	 2.660445615657438e+00
 1.527206245996895e+00	 1.751115760144993e+00	 2.740617195275482e+00
 1.510088551512984e+00	 1.765898563484043e+00	 2.805592323994013e+00
 1.492834283034248e+00	 1.780508593941995e+00	 2.857452187950257e+00
 1.475446067740177e+00	 1.794943974079505e+00	 2.897501237753939e+00
 1.457926566399107e+00	 1.809202879294922e+00	 2.919108258079881e+00
 1.440278472033042e+00	 1.823283538569291e+00	 2.924907264957494e+00
 1.422504508563371e+00	 1.837184235171193e+00	 2.920611205509964e+00
 1.404607429438897e+00	 1.850903307320891e+00	 2.911796126114049e+00
 1.386590016247609e+00	 1.864439148813270e+00	 2.903937027572909e+00
 1.566950194434223e+00	 1.727575951914733e+00	 2.763931156203917e+00
 1.550049443953068e+00	 1.742755895188809e+00	 2.843876523707389e+00
 1.533006432873233e+00	 1.757766334472022e+00	 2.905873615500192e+00
 1.515823726982076e+00	 1.772605281519428e+00	 2.952212300716275e+00
 1.498503928400790e+00	 1.787270799510458e+00	 2.985215470149019e+00
 1.481049674286661e+00	 1.801761003875420e+00	 3.007235478672112e+00
 1.463463635513391e+00	 1.816074063082990e+00	 3.014606337844668e+00
 1.445748515330843e+00	 1.830208199388039e+00	 3.006678036969890e+00
 1.427907048005618e+00	 1.844161689539151e+00	 2.989312895974143e+00
 1.409941997443876e+00	 1.857932865445300e+00	 2.968206456151706e+00
 1.391856155797832e+00	 1.871520114801143e+00	 2.948875616974812e+00
 1.572878807115678e+00	 1.734112297953491e+00	 2.939041169297191e+00
 1.555914112034282e+00	 1.749349675091570e+00	 3.003926285434642e+00
 1.538806618106048e+00	 1.764416906914358e+00	 3.050358467686670e+00
 1.521558900826097e+00	 1.779311997654300e+00	 3.080814284164085e+00
 1.504173572160857e+00	 1.794033003162784e+00	 3.097798400376857e+00
 1.486653279245410e+00	 1.808578031739762e+00	 3.103843606883994e+00
 1.469000703058819e+00	 1.822945244924235e+00	 3.098835327531774e+00
 1.451218557078806e+00	 1.837132858244894e+00	 3.079470791830565e+00
 1.433309585917184e+00	 1.851139141930327e+00	 3.051193561296769e+00
 1.415276563937468e+00	 1.864962421578209e+00	 3.019755180862443e+00
 1.397122293856093e+00	 1.878601078782971e+00	 2.990568584182980e+00
 1.578807416437315e+00	 1.740648640287829e+00	 3.089101774971818e+00
 1.561778776791956e+00	 1.755943451257414e+00	 3.141116361612840e+00
 1.544606800051898e+00	 1.771067475587658e+00	 3.174396500929303e+00
 1.527294071420028e+00	 1.786018709988396e+00	 3.191543818289318e+00
 1.509843212708000e+00	 1.800795202982968e+00	 3.195185549543478e+00
 1.492256881028687e+00	 1.815395055740978e+00	 3.187974244413673e+00
 1.474537767466510e+00	 1.829816422871744e+00	 3.171826650427292e+00
 1.456688595727043e+00	 1.844057513177781e+00	 3.143234908027934e+00
 1.438712120767306e+00	 1.858116590367677e+00	 3.106150731076754e+00
 1.420611127408160e+00	 1.871991973727808e+00	 3.066259899794328e+00
 1.402388428930264e+00	 1.885682038752377e+00	 3.028824307935778e+00
 1.584736020719312e+00	 1.747184977065789e+00	 3.214824672343832e+00
 1.567643436564378e+00	 1.762537221818100e+00	 3.255947702043726e+00
 1.550406977067346e+00	 1.777718038607577e+00	 3.278294347444072e+00
 1.533029237138851e+00	 1.792725416621446e+00	 3.284530363446435e+00
 1.515512848435770e+00	 1.807557397055008e+00	 3.277347069262250e+00
 1.497860478048758e+00	 1.822212073947514e+00	 3.259460790751583e+00
 1.480074827167582e+00	 1.836687594978606e+00	 3.233579151663257e+00
 1.462158629725662e+00	 1.850982162224621e+00	 3.197889070435396e+00
 1.444114651025216e+00	 1.865094032874154e+00	 3.154047210480770e+00
 1.425945686344444e+00	 1.879021519902285e+00	 3.107532311050926e+00
 1.407654559528214e+00	 1.892762992702983e+00	 3.063445863927471e+00
 1.590664618281842e+00	 1.753721306435410e+00	 3.316899948904041e+00
 1.573508089689840e+00	 1.769130984905385e+00	 3.348902330732074e+00
 1.556207147508951e+00	 1.784368594089769e+00	 3.362342051221417e+00
 1.538764396357547e+00	 1.799432115653187e+00	 3.359888772554847e+00
 1.521182477737718e+00	 1.814319583462899e+00	 3.344240119740536e+00
 1.503464068717884e+00	 1.829029084427815e+00	 3.318120924329291e+00
 1.485611880593152e+00	 1.843558759297906e+00	 3.284277580142593e+00
 1.467628657524774e+00	 1.857906803423339e+00	 3.243338830783600e+00
 1.449517175160149e+00	 1.872071467472715e+00	 3.194719991501859e+00
 1.431280239234810e+00	 1.886051058109825e+00	 3.143379274429024e+00
 1.412920684157815e+00	 1.899843938628414e+00	 3.094231612349061e+00
 1.596593207445081e+00	 1.760257626544733e+00	 3.395997719813515e+00
 1.579372734506632e+00	 1.775724738651031e+00	 3.420444926088259e+00
 1.562007309733271e+00	 1.791019140149892e+00	 3.426814592867760e+00
 1.544499547451098e+00	 1.806138805183349e+00	 3.417720764496190e+00
 1.526852099007393e+00	 1.821081760290637e+00	 3.395810295832651e+00
 1.509067651448332e+00	 1.835846085250330e+00	 3.363761958995205e+00
 1.491148926174341e+00	 1.850429913882733e+00	 3.324280491654051e+00
 1.473098677574488e+00	 1.864831434811856e+00	 3.279490290255568e+00
 1.454919691641342e+00	 1.879048892186314e+00	 3.228001234189329e+00
 1.436614784567744e+00	 1.893080586358616e+00	 3.173603413446350e+00
 1.418186801326936e+00	 1.906924874522291e+00	 3.120975786463497e+00
 1.602521786529205e+00	 1.766793935541797e+00	 3.452769761104097e+00
 1.585237369353044e+00	 1.782318481186795e+00	 3.471024396274851e+00
 1.567807462096870e+00	 1.797669674903600e+00	 3.471973410722360e+00
 1.550234688794486e+00	 1.812845483311668e+00	 3.458116394806475e+00
 1.532521710638347e+00	 1.827843925622217e+00	 3.431993051291419e+00
 1.514671224652365e+00	 1.842663074483501e+00	 3.396182225987163e+00
 1.496685962342265e+00	 1.857301056786174e+00	 3.353339461918571e+00
 1.478568688324913e+00	 1.871756054428095e+00	 3.306221221454040e+00
 1.460322198938028e+00	 1.886026305037906e+00	 3.253719012589422e+00
 1.441949320831739e+00	 1.900110102656845e+00	 3.198003718239221e+00
 1.423452909543449e+00	 1.914005798378236e+00	 3.143469082182564e+00
 1.608450353854388e+00	 1.773330231574643e+00	 3.487851136928600e+00
 1.591101992567368e+00	 1.788912210644435e+00	 3.501075449810246e+00
 1.573607602956306e+00	 1.804320196466549e+00	 3.498067918333414e+00
 1.555969818762691e+00	 1.819552148137875e+00	 3.481155523720723e+00
 1.538191311024130e+00	 1.834606077541636e+00	 3.452715121253024e+00
 1.520274786742247e+00	 1.849480050195777e+00	 3.415172454902753e+00
 1.502222987528044e+00	 1.864172186061316e+00	 3.371270403926010e+00
 1.484038688226160e+00	 1.878680660309977e+00	 3.323456247494204e+00
 1.465724695519442e+00	 1.893003704050447e+00	 3.271697937106947e+00
 1.447283846515282e+00	 1.907139605012702e+00	 3.216376149301603e+00
 1.428719007315224e+00	 1.921086708189874e+00	 3.161499248613421e+00
 1.614378907740805e+00	 1.779866512791310e+00	 3.501861821000877e+00
 1.596966602487891e+00	 1.795505925155712e+00	 3.511020161538554e+00
 1.579407730668140e+00	 1.810970702954394e+00	 3.505337018374452e+00
 1.561704935730695e+00	 1.826258797761706e+00	 3.486909281625969e+00
 1.543860898558294e+00	 1.841368214132890e+00	 3.457895942988422e+00
 1.525878336130242e+00	 1.856297010455603e+00	 3.420575823561870e+00
 1.507760000162796e+00	 1.871043299761247e+00	 3.377853078173649e+00
 1.489508675728339e+00	 1.885605250495427e+00	 3.331358230252843e+00
 1.471127179854818e+00	 1.899981087246890e+00	 3.281759777425123e+00
 1.452618360106865e+00	 1.914169091434371e+00	 3.228514242037198e+00
 1.433985093150131e+00	 1.928167601950828e+00	 3.174851679543505e+00
 1.620307446508632e+00	 1.786402777339840e+00	 3.495408312361330e+00
 1.602831197452906e+00	 1.802099622852383e+00	 3.501269534071402e+00
 1.585207843588931e+00	 1.817621192482791e+00	 3.494010613079396e+00
 1.567440038073481e+00	 1.832965430282893e+00	 3.475441531976252e+00
 1.549530471634388e+00	 1.848130333479974e+00	 3.447449074953292e+00
 1.531481871228615e+00	 1.863113953331426e+00	 3.412438188419181e+00
 1.513296998677638e+00	 1.877914395939054e+00	 3.372886159846270e+00
 1.494978649281560e+00	 1.892529823022367e+00	 3.329712198010360e+00
 1.476529650413391e+00	 1.906958452650191e+00	 3.283724085962255e+00
 1.457952860094977e+00	 1.921198559930042e+00	 3.234209712097189e+00
 1.439251165556041e+00	 1.935248477654719e+00	 3.183310005833214e+00
 1.386590016247609e+00	 1.864439148813270e+00	 2.903937027572909e+00
 1.368458168036886e+00	 1.877787957222933e+00	 2.900594817346842e+00
 1.350211656027125e+00	 1.890950562728077e+00	 2.901686890095023e+00
 1.331853326145434e+00	 1.903925537429925e+00	 2.906979952688079e+00
 1.313386046824939e+00	 1.916711510988107e+00	 2.916024767706908e+00
 1.294812707563215e+00	 1.929307171029115e+00	 2.928167661890823e+00
 1.276136217473172e+00	 1.941711263511818e+00	 2.942560792071669e+00
 1.257359503827862e+00	 1.953922593049959e+00	 2.958171246432920e+00
 1.238485510600663e+00	 1.965940023191579e+00	 2.973789068209607e+00
 1.219517197002343e+00	 1.977762476655389e+00	 2.988034297018934e+00
 1.200457536016417e+00	 1.989388935524150e+00	 2.999363129844099e+00
 1.391856155797832e+00	 1.871520114801143e+00	 2.948875616974812e+00
 1.373655444518903e+00	 1.884919620740023e+00	 2.934253110503473e+00
 1.355339633958595e+00	 1.898132216593088e+00	 2.923896165775512e+00
 1.336911580852564e+00	 1.911156469038548e+00	 2.917858942055032e+00
 1.318374164527964e+00	 1.923991002531626e+00	 2.915987273621400e+00
 1.299730285456395e+00	 1.936634499714555e+00	 2.917929575157984e+00
 1.280982863799295e+00	 1.949085701783490e+00	 2.923146453800324e+00
 1.262134837947208e+00	 1.961343408812223e+00	 2.930919110680530e+00
 1.243189163054435e+00	 1.973406480032670e+00	 2.940356624326323e+00
 1.224148809570534e+00	 1.985273834072143e+00	 2.950402216551059e+00
 1.205016761770121e+00	 1.996944449147465e+00	 2.959838608466892e+00
 1.397122293856093e+00	 1.878601078782971e+00	 2.990568584182980e+00
 1.378852719528515e+00	 1.892051282236691e+00	 2.966077766830448e+00
 1.360467610437339e+00	 1.905313868423473e+00	 2.945570573871774e+00
 1.341969834126771e+00	 1.918387398598522e+00	 2.929367829448960e+00
 1.323362280817981e+00	 1.931270492012660e+00	 2.917590441509602e+00
 1.304647861956593e+00	 1.943961826323868e+00	 2.910169712023057e+00
 1.285829508752560e+00	 1.956460137965592e+00	 2.906856300763568e+00
 1.266910170713917e+00	 1.968764222471682e+00	 2.907227930596668e+00
 1.247892814175880e+00	 1.980872934757936e+00	 2.910695931978773e+00
 1.228780420826794e+00	 1.992785189360276e+00	 2.916510732868653e+00
 1.209575986232365e+00	 2.004499960629588e+00	 2.923766407413936e+00
 1.402388428930264e+00	 1.885682038752377e+00	 3.028824307935778e+00
 1.384049991593091e+00	 1.899182939692204e+00	 2.995881825523251e+00
 1.365595584010351e+00	 1.912495516184349e+00	 2.966532210557545e+00
 1.347028084534786e+00	 1.925618324061018e+00	 2.941342427955738e+00
 1.328350394281577e+00	 1.938549977368639e+00	 2.920688726581579e+00
 1.309565435670362e+00	 1.951289148780951e+00	 2.904766361594772e+00
 1.290676150959605e+00	 1.963834569968696e+00	 2.893597914989305e+00
 1.271685500774819e+00	 1.976185031925785e+00	 2.887040307461150e+00
 1.252596462632129e+00	 1.988339385251911e+00	 2.884790604778916e+00
 1.233412029458654e+00	 2.000296540391605e+00	 2.886390730536961e+00
 1.214135208111189e+00	 2.012055467829829e+00	 2.891231204509189e+00
 1.407654559528214e+00	 1.892762992702983e+00	 3.063445863927471e+00
 1.389247259240002e+00	 1.906314591085828e+00	 3.023472919405109e+00
 1.370723553224621e+00	 1.919677157840829e+00	 2.986597559686838e+00
 1.352086330643339e+00	 1.932849243377207e+00	 2.953612628124911e+00
 1.333338503505339e+00	 1.945829456536996e+00	 2.925130245541298e+00
 1.314483005204260e+00	 1.958616465009701e+00	 2.901590951429518e+00
 1.295522789047067e+00	 1.971208995703369e+00	 2.883271385662661e+00
 1.276460826776743e+00	 1.983605835071981e+00	 2.870290609159153e+00
 1.257300107090309e+00	 1.995805829399122e+00	 2.862615172258182e+00
 1.238043634153651e+00	 2.007807885037947e+00	 2.860063048486596e+00
 1.218694426114638e+00	 2.019610968607495e+00	 2.862306558917832e+00
 1.412920684157815e+00	 1.899843938628414e+00	 3.094231612349061e+00
 1.394444520996620e+00	 1.913446234396830e+00	 3.048653852267122e+00
 1.375851516627142e+00	 1.926858791358031e+00	 3.005578060807618e+00
 1.357144571019162e+00	 1.940080154498256e+00	 2.966002957608770e+00
 1.338326607075852e+00	 1.953108927455161e+00	 2.930757328879695e+00
 1.319400569164843e+00	 1.965943772934017e+00	 2.900508593583548e+00
 1.300369421641584e+00	 1.978583413080182e+00	 2.875769850118755e+00
 1.281236147366518e+00	 1.991026629807715e+00	 2.856905507371391e+00
 1.262003746217550e+00	 2.003272265084101e+00	 2.844135614586590e+00
 1.242675233599317e+00	 2.015319221171120e+00	 2.837539013667304e+00
 1.223253638950750e+00	 2.027166460821896e+00	 2.837055445213390e+00
 1.418186801326936e+00	 1.906924874522291e+00	 3.120975786463498e+00
 1.399641775390316e+00	 1.920577867604473e+00	 3.071223177292211e+00
 1.380979472764906e+00	 1.934040414701068e+00	 3.023280678279375e+00
 1.362202804228986e+00	 1.947311055375339e+00	 2.978333141894282e+00
 1.343314703579704e+00	 1.960388388060564e+00	 2.937407074217616e+00
 1.324318126158667e+00	 1.973271070477796e+00	 2.901378631638764e+00
 1.305216047369795e+00	 1.985957820009707e+00	 2.870980035697828e+00
 1.286011461190975e+00	 1.998447414030435e+00	 2.846804515479414e+00
 1.266707378680979e+00	 2.010738690191377e+00	 2.829309897822638e+00
 1.247306826483185e+00	 2.022830546662941e+00	 2.818820975009526e+00
 1.227812845327571e+00	 2.034721942332341e+00	 2.815530787490250e+00
 1.423452909543449e+00	 1.914005798378236e+00	 3.143469082182564e+00
 1.404839020948460e+00	 1.927709488688025e+00	 3.090975776528953e+00
 1.386107420184904e+00	 1.941222025835056e+00	 3.039508471460203e+00
 1.367261028839542e+00	 1.954541943959623e+00	 2.990418666094362e+00
 1.348302791603482e+00	 1.967667836290638e+00	 2.944911900666318e+00
 1.329235674792287e+00	 1.980598355564935e+00	 2.904055188671673e+00
 1.310062664858337e+00	 1.993332214402511e+00	 2.868782802435465e+00
 1.290786766896941e+00	 2.005868185637589e+00	 2.839900527162779e+00
 1.271411003147726e+00	 2.018205102605481e+00	 2.818088509675495e+00
 1.251938411492790e+00	 2.030341859385227e+00	 2.803902837681472e+00
 1.232372043953140e+00	 2.042277410998140e+00	 2.797775993516131e+00
 1.428719007315224e+00	 1.921086708189874e+00	 3.161499248613421e+00
 1.410036256198424e+00	 1.934841095626753e+00	 3.107703441382355e+00
 1.391235357434127e+00	 1.948403622725111e+00	 3.054061165930020e+00
 1.372319243417560e+00	 1.961772818202281e+00	 3.002071337765129e+00
 1.353290869733770e+00	 1.974947270082814e+00	 2.953100104173677e+00
 1.334153213672261e+00	 1.987925626119333e+00	 2.908387716135968e+00
 1.314909272733848e+00	 2.000706594169163e+00	 2.869053686561261e+00
 1.295562063131248e+00	 2.013288942526623e+00	 2.836100355665403e+00
 1.276114618284920e+00	 2.025671500210940e+00	 2.810414995761802e+00
 1.256569987315666e+00	 2.037853157209798e+00	 2.792770597629529e+00
 1.236931233535500e+00	 2.049832864678602e+00	 2.783825488919185e+00
 1.433985093150131e+00	 1.928167601950828e+00	 3.174851679543505e+00
 1.415233479667579e+00	 1.941972686399922e+00	 3.121195454089093e+00
 1.396363283059568e+00	 1.955585203336347e+00	 3.066735725717308e+00
 1.377377446529773e+00	 1.969003676054482e+00	 3.013099850717368e+00
 1.358278936557157e+00	 1.982226687374522e+00	 2.961796413825255e+00
 1.339070741405144e+00	 1.995252880064886e+00	 2.914221543629754e+00
 1.319755869622966e+00	 2.008080957220236e+00	 2.871663444779931e+00
 1.300337348540725e+00	 2.020709682594986e+00	 2.835305273708799e+00
 1.280818222759690e+00	 2.033137880892287e+00	 2.806226496339354e+00
 1.261201552639345e+00	 2.045364438008467e+00	 2.785402876390230e+00
 1.241490412782693e+00	 2.057388301233035e+00	 2.773705251404452e+00
 1.439251165556041e+00	 1.935248477654719e+00	 3.183310005833214e+00
 1.420430689883295e+00	 1.949104258986799e+00	 3.131239170145729e+00
 1.401491195608220e+00	 1.962766765633880e+00	 3.077326926497419e+00
 1.382435636742910e+00	 1.976234515467395e+00	 3.023310349790390e+00
 1.363266990660228e+00	 1.989506086103192e+00	 2.970822549069830e+00
 1.343988256597493e+00	 2.002580115325494e+00	 2.921398429519206e+00
 1.324602454152328e+00	 2.015455301466298e+00	 2.876478599309370e+00
 1.305112621772200e+00	 2.028130403740125e+00	 2.837411554030449e+00
 1.285521815239164e+00	 2.040604242534051e+00	 2.805454283500588e+00
 1.265833106151362e+00	 2.052875699653055e+00	 2.781771456161773e+00
 1.246049580402761e+00	 2.064943718520748e+00	 2.767433344994308e+00
 1.200457536016417e+00	 1.989388935524150e+00	 2.999363129844099e+00
 1.181309513308292e+00	 2.000818441877797e+00	 3.002020146351533e+00
 1.162076126859514e+00	 2.012050099356196e+00	 2.993523732938908e+00
 1.142760384342097e+00	 2.023083071787823e+00	 2.977111820114672e+00
 1.123365301280397e+00	 2.033916582729283e+00	 2.956005814063429e+00
 1.103893899598469e+00	 2.044549915443672e+00	 2.933417204419919e+00
 1.084349206174317e+00	 2.054982412837529e+00	 2.912403668527011e+00
 1.064734251402393e+00	 2.065213477356799e+00	 2.895442702438400e+00
 1.045052067765649e+00	 2.075242570842330e+00	 2.884956275476440e+00
 1.025305688418447e+00	 2.085069214345414e+00	 2.883415430003879e+00
 1.005498145781580e+00	 2.094692987903986e+00	 2.893356867312755e+00
 1.205016761770121e+00	 1.996944449147465e+00	 2.959838608466892e+00
 1.185796016657869e+00	 2.008417363700488e+00	 2.963879174685799e+00
 1.166489583601383e+00	 2.019691677966768e+00	 2.960221699351726e+00
 1.147100481695540e+00	 2.030766552599055e+00	 2.951248561680457e+00
 1.127631737917382e+00	 2.041641208205070e+00	 2.939326237394838e+00
 1.108086385667956e+00	 2.052314925325784e+00	 2.926804459426856e+00
 1.088467463321074e+00	 2.062787044372132e+00	 2.916042158196429e+00
 1.068778012780347e+00	 2.073056965520583e+00	 2.908832118654908e+00
 1.049021078045824e+00	 2.083124148568080e+00	 2.906801994726106e+00
 1.029199703791509e+00	 2.092988112746892e+00	 2.911634204388678e+00
 1.009316933955051e+00	 2.102648436499953e+00	 2.925084561354512e+00
 1.209575986232365e+00	 2.004499960629588e+00	 2.923766407413936e+00
 1.190282518736530e+00	 2.016016283369649e+00	 2.928601883667181e+00
 1.170903039092954e+00	 2.027333254411703e+00	 2.928913891425367e+00
 1.151440577819378e+00	 2.038450031232771e+00	 2.926308163185690e+00
 1.131898173345536e+00	 2.049365831491685e+00	 2.922374111815323e+00
 1.112278870549467e+00	 2.060079933007295e+00	 2.918680896541256e+00
 1.092585719300795e+00	 2.070591673694925e+00	 2.916887038670156e+00
 1.072821773012294e+00	 2.080900451461565e+00	 2.918253579863828e+00
 1.052990087201108e+00	 2.091005724060251e+00	 2.923684919121078e+00
 1.033093718060888e+00	 2.100907008904224e+00	 2.934143667377524e+00
 1.013135721046144e+00	 2.110603882841414e+00	 2.950672136276919e+00
 1.214135208111189e+00	 2.012055467829829e+00	 2.891231204509189e+00
 1.194769018272925e+00	 2.023615198732285e+00	 2.896327550866115e+00
 1.175316492083581e+00	 2.034974826525907e+00	 2.899788582084271e+00
 1.155780671483765e+00	 2.046133505511987e+00	 2.902521514995346e+00
 1.136164606355898e+00	 2.057090450400474e+00	 2.905415803296937e+00
 1.116471353055013e+00	 2.067844936288084e+00	 2.909339727911480e+00
 1.096703972946537e+00	 2.078396298594539e+00	 2.915259742627612e+00
 1.076865530952413e+00	 2.088743932957343e+00	 2.924024551948667e+00
 1.056959094106874e+00	 2.098887295085629e+00	 2.935907544343847e+00
 1.036987730123218e+00	 2.108825900573605e+00	 2.951219393913214e+00
 1.016954505972811e+00	 2.118559324674199e+00	 2.970355364656995e+00
 1.218694426114638e+00	 2.019610968607495e+00	 2.862306558917832e+00
 1.199255513995706e+00	 2.031214107635401e+00	 2.867183239688784e+00
 1.179729941322623e+00	 2.042616392144289e+00	 2.873020811646273e+00
 1.160120761458858e+00	 2.053816973259729e+00	 2.880105348744378e+00
 1.140431035739510e+00	 2.064815062742776e+00	 2.888702700423947e+00
 1.120663831996601e+00	 2.075609932968030e+00	 2.899055495367735e+00
 1.100822223091361e+00	 2.086200916859602e+00	 2.911472637447262e+00
 1.080909285454884e+00	 2.096587407785515e+00	 2.926454494472189e+00
 1.060928097638496e+00	 2.106768859410998e+00	 2.943765582866322e+00
 1.040881738875130e+00	 2.116744785511231e+00	 2.963131571414290e+00
 1.020773287653006e+00	 2.126514759744138e+00	 2.984366208130026e+00
 1.223253638950750e+00	 2.027166460821896e+00	 2.837055445213390e+00
 1.203742004633522e+00	 2.038813007926001e+00	 2.841284333741247e+00
 1.184143385559436e+00	 2.050257949101757e+00	 2.848772920578185e+00
 1.164460846514808e+00	 2.061500432299009e+00	 2.859262766362945e+00
 1.144697460287412e+00	 2.072539666329935e+00	 2.872471737352476e+00
 1.124856306186243e+00	 2.083374920847009e+00	 2.888091311598901e+00
 1.104940468568322e+00	 2.094005526278740e+00	 2.905828481076955e+00
 1.084953035373889e+00	 2.104430873723677e+00	 2.925844333292680e+00
 1.064897096671348e+00	 2.114650414803145e+00	 2.947547450367835e+00
 1.044775743213259e+00	 2.124663661473298e+00	 2.970144496798826e+00
 1.024592065004682e+00	 2.134470185797058e+00	 2.992932321575920e+00
 1.227812845327571e+00	 2.034721942332341e+00	 2.815530787490250e+00
 1.208228488915025e+00	 2.046411897451092e+00	 2.818735070972570e+00
 1.188556823543375e+00	 2.057899495233218e+00	 2.827195081800632e+00
 1.168800925421772e+00	 2.069183880452850e+00	 2.840183768462917e+00
 1.148963878790643e+00	 2.080264258973291e+00	 2.856945915990518e+00
 1.129048774435947e+00	 2.091139897724898e+00	 2.876695643562463e+00
 1.109058708210478e+00	 2.101810124640585e+00	 2.898619876964537e+00
 1.088996779563609e+00	 2.112274328549428e+00	 2.922485932262882e+00
 1.068866090080805e+00	 2.122531959028856e+00	 2.947533751325380e+00
 1.048669742034237e+00	 2.132582526216001e+00	 2.972516072842615e+00
 1.028410836945792e+00	 2.142425600578789e+00	 2.996276556878486e+00
 1.232372043953140e+00	 2.042277410998140e+00	 2.797775993516131e+00
 1.212714965568865e+00	 2.054010774057679e+00	 2.799629077598939e+00
 1.192970254023798e+00	 2.065541028373581e+00	 2.808425832550068e+00
 1.173140996949904e+00	 2.076867315544271e+00	 2.823045782098629e+00
 1.153230290040245e+00	 2.087988838484186e+00	 2.842334827415046e+00
 1.133241235557723e+00	 2.098904861401575e+00	 2.865102825115070e+00
 1.113176940850888e+00	 2.109614709733764e+00	 2.890120846752992e+00
 1.093040516878225e+00	 2.120117770040364e+00	 2.916661564041839e+00
 1.072835076742239e+00	 2.130413489854916e+00	 2.943996763803680e+00
 1.052563734234697e+00	 2.140501377495537e+00	 2.970497303894183e+00
 1.032229602394291e+00	 2.150381001835161e+00	 2.994616466274302e+00
 1.236931233535500e+00	 2.049832864678602e+00	 2.783825488919185e+00
 1.217201433323694e+00	 2.061609635592766e+00	 2.784049901809990e+00
 1.197383675750061e+00	 2.073182546357753e+00	 2.792592605805690e+00
 1.177481059869357e+00	 2.084550735396290e+00	 2.808014187914564e+00
 1.157496692827257e+00	 2.095713402673961e+00	 2.828835172542409e+00
 1.137433688363580e+00	 2.106669809676916e+00	 2.853533568812459e+00
 1.117295165322610e+00	 2.117419279346906e+00	 2.880542103355946e+00
 1.097084246171917e+00	 2.127961195974085e+00	 2.908643380048830e+00
 1.076804055531026e+00	 2.138295005048112e+00	 2.937199923471872e+00
 1.056457718711272e+00	 2.148420213068100e+00	 2.964331790969535e+00
 1.036048360268131e+00	 2.158336387312002e+00	 2.988163805307218e+00
 1.241490412782693e+00	 2.057388301233035e+00	 2.773705251404452e+00
 1.221687890908163e+00	 2.069208479903361e+00	 2.772071547259103e+00
 1.201797087471522e+00	 2.080824047020644e+00	 2.779812261288153e+00
 1.181821112950287e+00	 2.092234137831928e+00	 2.795242846691564e+00
 1.161763085942720e+00	 2.103437949353958e+00	 2.816631282067879e+00
 1.141626131665529e+00	 2.114434740350801e+00	 2.842195476896913e+00
 1.121413380458701e+00	 2.125223831268639e+00	 2.870100369043836e+00
 1.101127966298866e+00	 2.135804604128185e+00	 2.898692879588114e+00
 1.080773025322539e+00	 2.146176502375229e+00	 2.927397306872958e+00
 1.060351694360596e+00	 2.156339030689887e+00	 2.954255226248365e+00
 1.039867109485265e+00	 2.166291754755141e+00	 2.977124035404367e+00
 1.246049580402761e+00	 2.064943718520748e+00	 2.767433344994308e+00
 1.226174337050922e+00	 2.076807304836466e+00	 2.763759006338502e+00
 1.206210487937536e+00	 2.088465528197159e+00	 2.770191616037135e+00
 1.186161154962849e+00	 2.099917520674204e+00	 2.784874625303430e+00
 1.166029468177675e+00	 2.111162476335520e+00	 2.805895635688985e+00
 1.145818564275578e+00	 2.122199651223106e+00	 2.831283551489422e+00
 1.125531585092219e+00	 2.133028363287593e+00	 2.859005433280297e+00
 1.105171676113252e+00	 2.143647992280263e+00	 2.887060378172568e+00
 1.084741984992152e+00	 2.154057979603053e+00	 2.914833113971600e+00
 1.064245660079300e+00	 2.164257828117093e+00	 2.940494886993289e+00
 1.043685848963648e+00	 2.174247101910407e+00	 2.961695826089268e+00
 1.005498145781580e+00	 2.094692987903986e+00	 2.893356867312756e+00
 9.856290878407250e-01	 2.104115114327044e+00	 2.918489933226529e+00
 9.657049044575525e-01	 2.113333636026786e+00	 2.957750010560710e+00
 9.457286181199082e-01	 2.122348306690866e+00	 3.006644973781410e+00
 9.257032451413704e-01	 2.131158937754683e+00	 3.060786614311064e+00
 9.056317943338176e-01	 2.139765397992186e+00	 3.115910734078764e+00
 8.855172656989574e-01	 2.148167613071671e+00	 3.167895256079407e+00
 8.653626491398443e-01	 2.156365565077391e+00	 3.212776223137707e+00
 8.451709231933541e-01	 2.164359291997887e+00	 3.246761578145100e+00
 8.249450537845703e-01	 2.172148887181954e+00	 3.266242641341622e+00
 8.046879930039602e-01	 2.179734498763173e+00	 3.267803222578995e+00
 1.009316933955051e+00	 2.102648436499953e+00	 2.925084561354512e+00
 9.893724151852175e-01	 2.112106347280357e+00	 2.949922324245471e+00
 9.693725616117758e-01	 2.121359880065587e+00	 2.985210052026635e+00
 9.493204072016990e-01	 2.130408787607848e+00	 3.027285885531789e+00
 9.292189797242429e-01	 2.139252880626412e+00	 3.072594765485551e+00
 9.090712994184728e-01	 2.147892027396868e+00	 3.117708188097277e+00
 8.888803776798223e-01	 2.156326153305230e+00	 3.159341917105655e+00
 8.686492157667185e-01	 2.164555240367735e+00	 3.194371520850935e+00
 8.483808035282435e-01	 2.172579326717224e+00	 3.219845625628117e+00
 8.280781181537853e-01	 2.180398506057042e+00	 3.232996799487371e+00
 8.077441229455766e-01	 2.188012927083394e+00	 3.231250003619620e+00
 1.013135721046144e+00	 2.110603882841414e+00	 2.950672136276919e+00
 9.931157414687330e-01	 2.120097577969012e+00	 2.975155467251274e+00
 9.730402177265126e-01	 2.129386121829784e+00	 3.006744439367439e+00
 9.529121952655721e-01	 2.138469266240492e+00	 3.042531790380650e+00
 9.327347133108357e-01	 2.147346821204282e+00	 3.079720780518241e+00
 9.125108035285460e-01	 2.156018654498391e+00	 3.115644722175902e+00
 8.922434887078549e-01	 2.164484691226552e+00	 3.147784401122429e+00
 8.719357814625512e-01	 2.172744913336986e+00	 3.173783254970501e+00
 8.515906829539134e-01	 2.180799359106835e+00	 3.191460197972416e+00
 8.312111816356282e-01	 2.188648122594004e+00	 3.198820004743208e+00
 8.108002520216825e-01	 2.196291353057319e+00	 3.194061189114967e+00
 1.016954505972811e+00	 2.118559324674199e+00	 2.970355364656995e+00
 9.968590656306071e-01	 2.128088804128693e+00	 2.994378111121223e+00
 9.767078717625344e-01	 2.137412359045142e+00	 3.022494414358575e+00
 9.565039812937882e-01	 2.146529740304868e+00	 3.052476614856625e+00
 9.362504449049498e-01	 2.155440757194894e+00	 3.082212138982461e+00
 9.159503056894269e-01	 2.164145276994102e+00	 3.109722914917088e+00
 8.956065978300778e-01	 2.172643224523950e+00	 3.133182610741372e+00
 8.752223452960447e-01	 2.180934581664643e+00	 3.150931557409350e+00
 8.548005605607892e-01	 2.189019386837630e+00	 3.161489243293520e+00
 8.343442433422853e-01	 2.196897734455372e+00	 3.163564291181124e+00
 8.138563793662640e-01	 2.204569774339321e+00	 3.156061852854568e+00
 1.020773287653006e+00	 2.126514759744138e+00	 2.984366208130026e+00
 1.000602386610175e+00	 2.136080023495087e+00	 3.007776861219242e+00
 9.803755226806125e-01	 2.145438589437429e+00	 3.032600727055658e+00
 9.600957642686079e-01	 2.154590207517046e+00	 3.057215414489006e+00
 9.397661735103849e-01	 2.163534686304844e+00	 3.080119023846009e+00
 9.193898049265045e-01	 2.172271892581347e+00	 3.099949561333160e+00
 8.989697040935165e-01	 2.180801750885739e+00	 3.115502101787572e+00
 8.785089063359024e-01	 2.189124243030211e+00	 3.125743559287119e+00
 8.580104354392961e-01	 2.197239407580518e+00	 3.129824949747491e+00
 8.374773023859436e-01	 2.205147339303678e+00	 3.127091054503223e+00
 8.169125041133076e-01	 2.212848188583769e+00	 3.117087418796205e+00
 1.024592065004682e+00	 2.134470185797058e+00	 2.992932321575920e+00
 1.004345703346770e+00	 2.144071233803876e+00	 3.015535688894076e+00
 9.840431694415184e-01	 2.153464810732409e+00	 3.037203150639923e+00
 9.636875431722922e-01	 2.162650665593099e+00	 3.056843894232649e+00
 9.432818981309424e-01	 2.171628606240728e+00	 3.073493847903322e+00
 9.228293002651674e-01	 2.180398498957471e+00	 3.086335205907878e+00
 9.023328065451947e-01	 2.188960268000232e+00	 3.094713623806567e+00
 8.817954636508285e-01	 2.197313895113192e+00	 3.098152939890297e+00
 8.612203066798590e-01	 2.205459419006409e+00	 3.096367304143110e+00
 8.406103578787902e-01	 2.213396934801456e+00	 3.089270621693884e+00
 8.199686253967999e-01	 2.221126593445035e+00	 3.076983243333870e+00
 1.028410836945792e+00	 2.142425600578789e+00	 2.996276556878486e+00
 1.008089014779728e+00	 2.152062432790749e+00	 3.017835440830535e+00
 9.877108110060231e-01	 2.161491020655850e+00	 3.036439996395343e+00
 9.672793169871007e-01	 2.170711112249093e+00	 3.051457929296596e+00
 9.467976177704225e-01	 2.179722514709145e+00	 3.062390780871777e+00
 9.262687907308054e-01	 2.188525093819819e+00	 3.068893676566858e+00
 9.056959042321368e-01	 2.197118773555747e+00	 3.070792661703208e+00
 8.850820163095264e-01	 2.205503535593090e+00	 3.068099476961776e+00
 8.644301733729030e-01	 2.213679418786210e+00	 3.061023652049834e+00
 8.437434089330116e-01	 2.221646518611236e+00	 3.049981822298878e+00
 8.230247423507278e-01	 2.229404986577490e+00	 3.037099567320170e+00
 1.032229602394291e+00	 2.150381001835161e+00	 2.994616466274302e+00
 1.011832319848384e+00	 2.160053618191390e+00	 3.014853348262676e+00
 9.913784463348982e-01	 2.169517216933517e+00	 3.030447628818682e+00
 9.708710846952949e-01	 2.178771545201104e+00	 3.041153086370250e+00
 9.503133314326258e-01	 2.187816409416692e+00	 3.046865277139674e+00
 9.297082753488076e-01	 2.196651674865739e+00	 3.047641619537146e+00
 9.090589962013669e-01	 2.205277265240595e+00	 3.043718978487183e+00
 8.883685633806990e-01	 2.213693162149405e+00	 3.035528598288729e+00
 8.676400346088532e-01	 2.221899404590831e+00	 3.023708259366188e+00
 8.468764546607941e-01	 2.229896088395551e+00	 3.010793579546143e+00
 8.260808541090766e-01	 2.237683365635505e+00	 2.999672679422186e+00
 1.036048360268131e+00	 2.158336387312002e+00	 2.988163805307218e+00
 1.015575617492074e+00	 2.168044787741483e+00	 3.006762536057730e+00
 9.950460743889153e-01	 2.177543397291178e+00	 3.019359980864059e+00
 9.744628452791351e-01	 2.186831962165200e+00	 3.026024145242035e+00
 9.538290381213530e-01	 2.195910288069966e+00	 3.026973604153093e+00
 9.331477531445627e-01	 2.204778239792574e+00	 3.022598035077437e+00
 9.124220814999083e-01	 2.213435740743093e+00	 3.013476159100213e+00
 8.916551039330509e-01	 2.221882772461643e+00	 3.000390934558950e+00
 8.708498894781350e-01	 2.230119374091181e+00	 2.986075633245504e+00
 8.500094941743254e-01	 2.238145641816933e+00	 2.973708646208573e+00
 8.291369598058347e-01	 2.245961728273450e+00	 2.964539433795334e+00
 1.039867109485265e+00	 2.166291754755141e+00	 2.977124035404367e+00
 1.019318906650130e+00	 2.176035939176716e+00	 2.993731531679671e+00
 9.987136941288448e-01	 2.185569559454596e+00	 3.003308069323896e+00
 9.780545977208820e-01	 2.194892360857450e+00	 3.006164620804877e+00
 9.573447368404047e-01	 2.204004148375564e+00	 3.002772371430178e+00
 9.365872231434600e-01	 2.212904786297672e+00	 2.993783814060497e+00
 9.157851591747862e-01	 2.221594197751554e+00	 2.980051155301336e+00
 8.949416370352846e-01	 2.230072364209305e+00	 2.964290188257618e+00
 8.740597370711732e-01	 2.238339324958170e+00	 2.949969378949963e+00
 8.531425265857919e-01	 2.246395176537915e+00	 2.938541993645233e+00
 8.321930585749867e-01	 2.254240072145698e+00	 2.931502955615918e+00
 1.043685848963648e+00	 2.174247101910407e+00	 2.961695826089268e+00
 1.023062186261889e+00	 2.184027070232773e+00	 2.975923774040969e+00
 1.002381304515459e+00	 2.193595701149540e+00	 2.982419510347733e+00
 9.816463410027967e-01	 2.202952738993927e+00	 2.981666285443802e+00
 9.608604265935818e-01	 2.212097988040085e+00	 2.974318060191001e+00
 9.400266843708891e-01	 2.221031312078378e+00	 2.961221275390674e+00
 9.191482282730248e-01	 2.229752633954294e+00	 2.944877532263467e+00
 8.982281617561046e-01	 2.238261935071894e+00	 2.929008440799679e+00
 8.772695764783929e-01	 2.246559254862706e+00	 2.915206665761066e+00
 8.562755510073803e-01	 2.254644690221029e+00	 2.905098992118444e+00
 8.352491495505203e-01	 2.262518394906619e+00	 2.900365241446700e+00
 8.046879930039602e-01	 2.179734498763173e+00	 3.267803222578995e+00
 7.844061281122209e-01	 2.187115091338370e+00	 3.254389750082101e+00
 7.640989369507413e-01	 2.194292226143276e+00	 3.232824469520184e+00
 7.437693206496833e-01	 2.201266210273095e+00	 3.205788744821973e+00
 7.234201619097839e-01	 2.208037402979565e+00	 3.174869734717950e+00
 7.030543239064208e-01	 2.214606214955360e+00	 3.141803801307566e+00
 6.826746492208779e-01	 2.220973107593211e+00	 3.111117855722349e+00
 6.622839587993923e-01	 2.227138592220802e+00	 3.087662677011354e+00
 6.418850509405333e-01	 2.233103229312530e+00	 3.076160271296435e+00
 6.214807003114096e-01	 2.238867627679239e+00	 3.079867539806360e+00
 6.010736569931618e-01	 2.244432443637021e+00	 3.101791807824525e+00
 8.077441229455766e-01	 2.188012927083394e+00	 3.231250003619620e+00
 7.873852294225351e-01	 2.195421550460754e+00	 3.218243392561517e+00
 7.670009134429442e-01	 2.202625943354270e+00	 3.200462773466318e+00
 7.465940871551935e-01	 2.209626414025442e+00	 3.179886985531148e+00
 7.261676442082527e-01	 2.216423323090388e+00	 3.157676798931345e+00
 7.057244586515787e-01	 2.223017082801537e+00	 3.134171296129768e+00
 6.852673838623187e-01	 2.229408156303923e+00	 3.114075529343255e+00
 6.647992515004058e-01	 2.235597056867187e+00	 3.101119144920500e+00
 6.443228704920908e-01	 2.241584347094332e+00	 3.097911648571277e+00
 6.238410260424149e-01	 2.247370638108388e+00	 3.106818249820725e+00
 6.033564786770745e-01	 2.252956588718058e+00	 3.129983332134004e+00
 8.108002520216825e-01	 2.196291353057319e+00	 3.194061189114967e+00
 7.903643298892039e-01	 2.203728007228910e+00	 3.181394930312074e+00
 7.699028891133740e-01	 2.210959658203332e+00	 3.166950183500479e+00
 7.494188528608102e-01	 2.217986615408382e+00	 3.152085140844627e+00
 7.289151257287166e-01	 2.224809240824560e+00	 3.137798620150215e+00
 7.083945926406297e-01	 2.231427948264039e+00	 3.124747966507265e+00
 6.878601177695608e-01	 2.237843202624164e+00	 3.115391168019192e+00
 6.673145434891398e-01	 2.244055519116518e+00	 3.111838474973654e+00
 6.467606893533000e-01	 2.250065462472715e+00	 3.115925936975225e+00
 6.262013511050160e-01	 2.255873646127969e+00	 3.129241497604700e+00
 6.056392997145412e-01	 2.261480731383585e+00	 3.153149788736787e+00
 8.138563793662640e-01	 2.204569774339321e+00	 3.156061852854568e+00
 7.933434286680455e-01	 2.212034459289262e+00	 3.143653606059302e+00
 7.728048631397120e-01	 2.219293368329157e+00	 3.132096306567347e+00
 7.522436169661052e-01	 2.226346812053099e+00	 3.122680695649518e+00
 7.316626056926614e-01	 2.233195153805963e+00	 3.117685436781400e+00
 7.110647251169916e-01	 2.239838808959671e+00	 3.114867973711524e+00
 6.904528502079692e-01	 2.246278244163864e+00	 3.115153435527734e+00
 6.698298340529172e-01	 2.252513976572083e+00	 3.119964815186869e+00
 6.491985068334492e-01	 2.258546573044541e+00	 3.130446229024070e+00
 6.285616748304678e-01	 2.264376649328631e+00	 3.147490291823541e+00
 6.079221194587819e-01	 2.270004869218262e+00	 3.171764128210840e+00
 8.169125041133076e-01	 2.212848188583769e+00	 3.117087418796205e+00
 7.963225249148778e-01	 2.220340904288236e+00	 3.104839772456248e+00
 7.757068346996393e-01	 2.227627071370443e+00	 3.096558304956746e+00
 7.550683786706507e-01	 2.234707001590772e+00	 3.094390981234263e+00
 7.344100833215719e-01	 2.241581059658479e+00	 3.098112120450294e+00
 7.137348553240825e-01	 2.248249662505229e+00	 3.104514771026823e+00
 6.930455804429094e-01	 2.254713278532965e+00	 3.113419108191552e+00
 6.723451224790620e-01	 2.260972426837172e+00	 3.125640924474220e+00
 6.516363222418253e-01	 2.267027676406665e+00	 3.141712984965265e+00
 6.309219965500253e-01	 2.272879645301019e+00	 3.161913576114037e+00
 6.102049372630167e-01	 2.278528999806742e+00	 3.186293627723841e+00
 8.199686253967999e-01	 2.221126593445035e+00	 3.076983243333870e+00
 7.993016177855189e-01	 2.228647339872257e+00	 3.065982363496633e+00
 7.786088029708366e-01	 2.235960764965882e+00	 3.063024334065855e+00
 7.578931371740175e-01	 2.243067181652582e+00	 3.067581885113202e+00
 7.371575578369334e-01	 2.249966956005989e+00	 3.079003307252320e+00
 7.164049825053198e-01	 2.256660506517516e+00	 3.093672146562480e+00
 6.956383077397468e-01	 2.263148303341400e+00	 3.110244502797760e+00
 6.748604080548967e-01	 2.269430867515071e+00	 3.129008094092301e+00
 6.540741348877166e-01	 2.275508770155950e+00	 3.149963989007205e+00
 6.332823155949427e-01	 2.281382631635784e+00	 3.172856223042703e+00
 6.124877524804658e-01	 2.287053120733680e+00	 3.197199925399221e+00
 8.230247423507278e-01	 2.229404986577490e+00	 3.037099567320170e+00
 8.022807064357865e-01	 2.236953763687752e+00	 3.029573825369138e+00
 7.815107671309854e-01	 2.244294446754171e+00	 3.031572380481522e+00
 7.607178916757781e-01	 2.251427349869710e+00	 3.042136876313790e+00
 7.399050284602311e-01	 2.258352840472378e+00	 3.060284373919775e+00
 7.190751059041217e-01	 2.265071338613330e+00	 3.082324085811499e+00
 6.982310313638458e-01	 2.271583316199103e+00	 3.105685366774581e+00
 6.773756900677448e-01	 2.277889296209072e+00	 3.130206068828820e+00
 6.565119440804107e-01	 2.283989851889253e+00	 3.155434304653578e+00
 6.356426312964751e-01	 2.289885605923574e+00	 3.180659026459816e+00
 6.147705644643494e-01	 2.295577229583733e+00	 3.204939052304510e+00
 8.260808541090766e-01	 2.237683365635505e+00	 2.999672679422186e+00
 8.052597900214988e-01	 2.245260173381146e+00	 2.995526480246999e+00
 7.844127263577675e-01	 2.252628114374005e+00	 3.002042065941915e+00
 7.635426413755035e-01	 2.259787503873336e+00	 3.017937304309189e+00
 7.426524944129507e-01	 2.266738710681526e+00	 3.041905752670458e+00
 7.217452247639062e-01	 2.273482156409474e+00	 3.070454634978970e+00
 7.008237505805720e-01	 2.280018314716012e+00	 3.099796768668722e+00
 6.798909678049291e-01	 2.286347710522461e+00	 3.129372967943080e+00
 6.589497491291951e-01	 2.292470919203435e+00	 3.158356229166697e+00
 6.380029429858770e-01	 2.298388565755035e+00	 3.185658692291394e+00
 6.170533725678875e-01	 2.304101323941556e+00	 3.209961462124045e+00
 8.291369598058347e-01	 2.245961728273450e+00	 2.964539433795334e+00
 8.082388676984743e-01	 2.253566566598867e+00	 2.963653107406548e+00
 7.873146798288629e-01	 2.260961765464082e+00	 2.974271444721401e+00
 7.663673854727657e-01	 2.268147641294643e+00	 2.994862429133820e+00
 7.453999549165772e-01	 2.275124564257317e+00	 3.023866692326107e+00
 7.244153383280907e-01	 2.281892957522746e+00	 3.058047765061931e+00
 7.034164646552908e-01	 2.288453296502062e+00	 3.092632988916774e+00
 6.824062405537734e-01	 2.294806108058527e+00	 3.126645205865636e+00
 6.613875493433575e-01	 2.300951969695354e+00	 3.158959247183320e+00
 6.403632499944026e-01	 2.306891508720817e+00	 3.188187827810316e+00
 6.193361761443001e-01	 2.312625401391804e+00	 3.212712058576423e+00
 8.321930585749867e-01	 2.254240072145698e+00	 2.931502955615918e+00
 8.112179386225303e-01	 2.261872940987338e+00	 2.933765248747821e+00
 7.902166267219535e-01	 2.269295397663093e+00	 2.948097032362778e+00
 7.691921231671363e-01	 2.276507759764810e+00	 2.972789452885290e+00
 7.481474091925959e-01	 2.283510398823632e+00	 3.006103972804748e+00
 7.270854458400936e-01	 2.290303739569949e+00	 3.045087236662437e+00
 7.060091728533677e-01	 2.296888259167190e+00	 3.084247410904405e+00
 6.849215076016004e-01	 2.303264486420560e+00	 3.122157412664564e+00
 6.638253440321856e-01	 2.309433000961871e+00	 3.157469983505523e+00
 6.427235516533077e-01	 2.315394432411569e+00	 3.188574929426298e+00
 6.216189745468071e-01	 2.321149459519132e+00	 3.213630220635226e+00
 8.352491495505203e-01	 2.262518394906619e+00	 2.900365241446700e+00
 8.141970019494854e-01	 2.270179294192986e+00	 2.905673240818488e+00
 7.931185662147202e-01	 2.277629008609738e+00	 2.923353835939235e+00
 7.720168536581871e-01	 2.284867856915018e+00	 2.951593552577282e+00
 7.508948564624924e-01	 2.291896212004354e+00	 2.988547601280397e+00
 7.297555465433327e-01	 2.298714500167882e+00	 3.031556465516868e+00
 7.086018744401672e-01	 2.305323200321329e+00	 3.074692412307159e+00
 6.874367682357337e-01	 2.311722843211848e+00	 3.116042354285285e+00
 6.662631325049674e-01	 2.317914010599844e+00	 3.154112155088841e+00
 6.450838472938460e-01	 2.323897334417937e+00	 3.187144369033537e+00
 6.239017671286295e-01	 2.329673495908198e+00	 3.213149825609895e+00
 6.010736569931618e-01	 2.244432443637021e+00	 3.101791807824525e+00
 5.806666458346349e-01	 2.249798380643699e+00	 3.138523714391798e+00
 5.602623663671141e-01	 2.254966189887047e+00	 3.182970623188661e+00
 5.398634910592640e-01	 2.259936667925870e+00	 3.232318065818800e+00
 5.194726641987837e-01	 2.264710655295170e+00	 3.283577075138780e+00
 4.990925010900198e-01	 2.269289035584527e+00	 3.333608346761205e+00
 4.787255872827550e-01	 2.273672734502291e+00	 3.379145196474126e+00
 4.583744778323183e-01	 2.277862718926716e+00	 3.416815347349490e+00
 4.380416965911256e-01	 2.281859995945114e+00	 3.443161586561899e+00
 4.177297355317209e-01	 2.285665611882142e+00	 3.454661337414965e+00
 3.974410541013390e-01	 2.289280651318292e+00	 3.447745196779870e+00
 6.033564786770745e-01	 2.252956588718058e+00	 3.129983332134004e+00
 5.828719635936395e-01	 2.258342905052813e+00	 3.162947377167060e+00
 5.623901905759557e-01	 2.263530341153386e+00	 3.198799804911050e+00
 5.419138422424650e-01	 2.268519696603859e+00	 3.235723080209765e+00
 5.214455729236145e-01	 2.273311815131524e+00	 3.271741033641095e+00
 5.009880078564244e-01	 2.277907583681776e+00	 3.304741467792903e+00
 4.805437424103443e-01	 2.282307931478736e+00	 3.332497537338973e+00
 4.601153413445558e-01	 2.286513829072792e+00	 3.352687941250923e+00
 4.397053380968226e-01	 2.290526287376103e+00	 3.362915971776733e+00
 4.193162341039582e-01	 2.294346356687182e+00	 3.360727470314632e+00
 3.989504981539398e-01	 2.297975125705680e+00	 3.343627745015703e+00
 6.056392997145412e-01	 2.261480731383585e+00	 3.153149788736787e+00
 5.850772807281693e-01	 2.266887427040690e+00	 3.182392020675670e+00
 5.645180141823034e-01	 2.272094489992964e+00	 3.210363234124096e+00
 5.439641928451564e-01	 2.277102722849767e+00	 3.236133821728903e+00
 5.234184810899200e-01	 2.281912972530687e+00	 3.258629707191361e+00
 5.028835140862811e-01	 2.286526129336922e+00	 3.276653563325978e+00
 4.823618970233524e-01	 2.290943126008371e+00	 3.288904779499916e+00
 4.618562043641630e-01	 2.295164936767550e+00	 3.293998221195225e+00
 4.413689791318187e-01	 2.299192576351458e+00	 3.290481830788784e+00
 4.209027322273986e-01	 2.303027099032473e+00	 3.276853124175153e+00
 4.004599417796176e-01	 2.306669597629399e+00	 3.251574642569814e+00
 6.079221194587819e-01	 2.270004869218262e+00	 3.171764128210840e+00
 5.872825966134051e-01	 2.275431944186209e+00	 3.197436884733617e+00
 5.666458365832896e-01	 2.280658633979106e+00	 3.218310613277123e+00
 5.460145422864142e-01	 2.285685744231581e+00	 3.234235956470778e+00
 5.253913881387067e-01	 2.290514125055513e+00	 3.244931570277264e+00
 5.047790192425142e-01	 2.295144670107906e+00	 3.250004119556256e+00
 4.841800506066055e-01	 2.299578315644430e+00	 3.248966996276868e+00
 4.635970663978504e-01	 2.303816039559728e+00	 3.241257807374130e+00
 4.430326192246895e-01	 2.307858860415636e+00	 3.226254685665384e+00
 4.224892294524614e-01	 2.311707836458393e+00	 3.203291482815925e+00
 4.019693845506116e-01	 2.315364064625950e+00	 3.171671908073606e+00
 6.102049372630167e-01	 2.278528999806742e+00	 3.186293627723841e+00
 5.894879106245263e-01	 2.283976454068253e+00	 3.208654106011831e+00
 5.687736571760474e-01	 2.289222770685133e+00	 3.223283622320847e+00
 5.480648899853144e-01	 2.294268758317280e+00	 3.230706699217536e+00
 5.273642935109819e-01	 2.299115270268856e+00	 3.231326687868352e+00
 5.066745227880489e-01	 2.303763203552670e+00	 3.225444705556493e+00
 4.859982026449307e-01	 2.308213497940151e+00	 3.213277266794718e+00
 4.653379269523288e-01	 2.312467134998071e+00	 3.194972659131004e+00
 4.446962579040113e-01	 2.316525137113097e+00	 3.170626121243770e+00
 4.240757253295657e-01	 2.320388566505321e+00	 3.140293886550121e+00
 4.034788260391606e-01	 2.324058524231837e+00	 3.104006160309606e+00
 6.124877524804658e-01	 2.287053120733680e+00	 3.197199925399221e+00
 5.916932221367138e-01	 2.292520954265703e+00	 3.216608788884579e+00
 5.709014753577101e-01	 2.297786897684371e+00	 3.225916015926572e+00
 5.501152353609329e-01	 2.302851762674848e+00	 3.226214927283292e+00
 5.293371966477528e-01	 2.307716405733574e+00	 3.218486836509367e+00
 5.085700241858097e-01	 2.312381727229153e+00	 3.203619092615569e+00
 4.878163526231543e-01	 2.316848670448772e+00	 3.182421784941117e+00
 4.670787855343096e-01	 2.321118220631321e+00	 3.155643165288647e+00
 4.463598946983590e-01	 2.325191403988296e+00	 3.123983848961446e+00
 4.256622194091302e-01	 2.329069286713631e+00	 3.088109862033347e+00
 4.049882658175036e-01	 2.332752973983562e+00	 3.048664606979252e+00
 6.147705644643494e-01	 2.295577229583733e+00	 3.204939052304510e+00
 5.938985305251478e-01	 2.301065442357437e+00	 3.221859073208967e+00
 5.730292905254101e-01	 2.306351012550143e+00	 3.226833717165041e+00
 5.521655778323450e-01	 2.311434754872265e+00	 3.221421290558215e+00
 5.313100969900266e-01	 2.316317529012518e+00	 3.207075621556829e+00
 5.104655228987212e-01	 2.321000238695292e+00	 3.185163369859306e+00
 4.896345000261031e-01	 2.325483830723527e+00	 3.156979964931024e+00
 4.688196416505032e-01	 2.329769294008221e+00	 3.123764231587333e+00
 4.480235291363087e-01	 2.333857658585688e+00	 3.086711768470174e+00
 4.272487112415743e-01	 2.337749994623703e+00	 3.046987150730654e+00
 4.064977034578799e-01	 2.341447411417628e+00	 3.005735033076455e+00
 6.170533725678875e-01	 2.304101323941556e+00	 3.209961462124045e+00
 5.961038351650089e-01	 2.309609915922340e+00	 3.224956199115443e+00
 5.751571020762805e-01	 2.314915112855772e+00	 3.226654907736970e+00
 5.542159168186273e-01	 2.320017732477514e+00	 3.216978317851045e+00
 5.332829939788103e-01	 2.324918637668543e+00	 3.197748590658748e+00
 5.123610183897084e-01	 2.329618735509029e+00	 3.170706056249309e+00
 4.914526443386036e-01	 2.334118976317654e+00	 3.137524543565937e+00
 4.705604948076211e-01	 2.338420352677515e+00	 3.099825365307875e+00
 4.496871607464362e-01	 2.342523898449734e+00	 3.059190027090749e+00
 4.288352003773169e-01	 2.346430687775914e+00	 3.017171736037450e+00
 4.080071385325283e-01	 2.350141834070536e+00	 2.975305788877212e+00
 6.193361761443001e-01	 2.312625401391804e+00	 3.212712058576423e+00
 5.983091354314772e-01	 2.318154372539291e+00	 3.226444568886865e+00
 5.772849094074545e-01	 2.323479196174583e+00	 3.225990114844485e+00
 5.562662517388552e-01	 2.328600693058579e+00	 3.213530519625643e+00
 5.352558870551107e-01	 2.333519729264506e+00	 3.191153343574626e+00
 5.142565101216956e-01	 2.338237215228306e+00	 3.160868209053235e+00
 4.932707850454824e-01	 2.342754104784390e+00	 3.124621679273054e+00
 4.723013445123737e-01	 2.347071394187943e+00	 3.084310757152394e+00
 4.513507890573169e-01	 2.351190121124886e+00	 3.041795077164488e+00
 4.304216863667768e-01	 2.355111363710639e+00	 2.998907869089233e+00
 4.095165706136882e-01	 2.358836239478789e+00	 2.957465777555220e+00
 6.216189745468071e-01	 2.321149459519132e+00	 3.213630220635226e+00
 6.005144306997326e-01	 2.326698809787171e+00	 3.226861806001402e+00
 5.794127119160645e-01	 2.332043260079898e+00	 3.225442294790130e+00
 5.583165820121045e-01	 2.337183634183437e+00	 3.211714487224539e+00
 5.372287756599355e-01	 2.342120801363259e+00	 3.187929638429797e+00
 5.161519975576078e-01	 2.346855675411061e+00	 3.156263528877417e+00
 4.950889216315665e-01	 2.351389213676971e+00	 3.118831048007288e+00
 4.740421902714724e-01	 2.355722416088251e+00	 3.077699360453273e+00
 4.530144135975269e-01	 2.359856324155606e+00	 3.034899731355388e+00
 4.320081687603736e-01	 2.363792019968260e+00	 2.992438093293777e+00
 4.110259992735985e-01	 2.367530625178890e+00	 2.952304442433131e+00
 6.239017671286295e-01	 2.329673495908198e+00	 3.213149825609895e+00
 6.027197203449561e-01	 2.335243225244862e+00	 3.226738811412380e+00
 5.815405089992440e-01	 2.340607302145042e+00	 3.225606913387637e+00
 5.603669070574516e-01	 2.345766553420075e+00	 3.212158988669708e+00
 5.392016592342920e-01	 2.350721851527660e+00	 3.188709494495820e+00
 5.180474801603698e-01	 2.355474113615235e+00	 3.157498461349839e+00
 4.969070535816822e-01	 2.360024300548634e+00	 3.120705936096380e+00
 4.757830315916279e-01	 2.364373415927180e+00	 3.080464967778752e+00
 4.546780338956418e-01	 2.368522505086348e+00	 3.038873215955515e+00
 4.335946471085258e-01	 2.372472654089150e+00	 2.998003267618559e+00
 4.125354240844981e-01	 2.376224988707342e+00	 2.959911753878943e+00
 3.974410541013390e-01	 2.289280651318292e+00	 3.447745196779870e+00
 3.771746369077695e-01	 2.292706802156369e+00	 3.422890651659368e+00
 3.569363335028887e-01	 2.295944590920846e+00	 3.385720320106862e+00
 3.367285086005786e-01	 2.298995209927609e+00	 3.339847493269295e+00
 3.165534919874212e-01	 2.301859885794940e+00	 3.287667807259658e+00
 2.964135780332426e-01	 2.304539878427208e+00	 3.231753746793574e+00
 2.763110252327106e-01	 2.307036479994991e+00	 3.174895833419418e+00
 2.562480557777606e-01	 2.309351013912615e+00	 3.120070004783952e+00
 2.362268551605955e-01	 2.311484833814059e+00	 3.070406902558631e+00
 2.162495718069747e-01	 2.313439322528182e+00	 3.029162950982107e+00
 1.963183167394766e-01	 2.315215891054156e+00	 2.999693108407573e+00
 3.989504981539398e-01	 2.297975125705680e+00	 3.343627745015703e+00
 3.786071109981872e-01	 2.301414288744914e+00	 3.313537542950625e+00
 3.582919444046360e-01	 2.304664374329043e+00	 3.276171181803707e+00
 3.380073720681420e-01	 2.307726579302260e+00	 3.234401926252715e+00
 3.177557326236101e-01	 2.310602134941421e+00	 3.189840775760715e+00
 2.975393291546795e-01	 2.313292305935888e+00	 3.144225110671200e+00
 2.773604287335805e-01	 2.315798389363781e+00	 3.099498718952418e+00
 2.572212619919365e-01	 2.318121713665623e+00	 3.057780669001049e+00
 2.371240227222559e-01	 2.320263637616369e+00	 3.021336096451996e+00
 2.170708675098290e-01	 2.322225549296722e+00	 2.992548781056001e+00
 1.970639153947111e-01	 2.324008865064697e+00	 2.973895390331587e+00
 4.004599417796176e-01	 2.306669597629399e+00	 3.251574642569814e+00
 3.800395846835243e-01	 2.310121772866058e+00	 3.217700730807939e+00
 3.596475549231084e-01	 2.313384155266310e+00	 3.180865175029191e+00
 3.392862351741974e-01	 2.316457946202639e+00	 3.143267885511614e+00
 3.189579729200171e-01	 2.319344381610483e+00	 3.105839020645536e+00
 2.986650799580179e-01	 2.322044730964200e+00	 3.069579138833809e+00
 2.784098319379913e-01	 2.324560296249448e+00	 3.035684491825153e+00
 2.581944679312465e-01	 2.326892410932952e+00	 3.005517265324602e+00
 2.380211900305964e-01	 2.329042438930637e+00	 2.980577741402622e+00
 2.178921629808598e-01	 2.331011773575057e+00	 2.962478252908515e+00
 1.978095138395674e-01	 2.332801836583068e+00	 2.952918800945854e+00
 4.019693845506116e-01	 2.315364064625950e+00	 3.171671908073606e+00
 3.814720575578184e-01	 2.318829252052637e+00	 3.135303027866404e+00
 3.610031646741138e-01	 2.322103931262002e+00	 3.099595675003702e+00
 3.405650975562919e-01	 2.325189308154833e+00	 3.066141122854047e+00
 3.201602125358946e-01	 2.328086623325142e+00	 3.035290105771493e+00
 2.997908301241795e-01	 2.330797151032284e+00	 3.007403386640918e+00
 2.794592345484939e-01	 2.333322198169453e+00	 2.983027613674665e+00
 2.591676733198291e-01	 2.335663103229576e+00	 2.962866804453846e+00
 2.389183568312976e-01	 2.337821235269544e+00	 2.947755761993031e+00
 2.187134579872431e-01	 2.339797992873766e+00	 2.938635287212743e+00
 1.985551118626669e-01	 2.341594803117931e+00	 2.936529053259841e+00
 4.034788260391606e-01	 2.324058524231837e+00	 3.104006160309606e+00
 3.829045292151072e-01	 2.327536723837477e+00	 3.066270210861423e+00
 3.623587732734601e-01	 2.330823699845481e+00	 3.032160387697548e+00
 3.418439588519724e-01	 2.333920662684930e+00	 3.002722973173828e+00
 3.213624511304951e-01	 2.336828857608415e+00	 2.977828017753676e+00
 3.009165793340853e-01	 2.339549563660281e+00	 2.957292275897863e+00
 2.805086362676391e-01	 2.342084092641259e+00	 2.941109477006349e+00
 2.601408778818226e-01	 2.344433788070469e+00	 2.929422929861448e+00
 2.398155228700407e-01	 2.346600024145774e+00	 2.922500071736290e+00
 2.195347522961551e-01	 2.348584204703427e+00	 2.920708820764159e+00
 1.993007092526315e-01	 2.350387762177955e+00	 2.924495591419976e+00
 4.049882658175036e-01	 2.332752973983562e+00	 3.048664606979252e+00
 3.843369992494279e-01	 2.336244185753409e+00	 3.010530969233951e+00
 3.637143803369547e-01	 2.339543458546102e+00	 2.978361300077052e+00
 3.431228186987860e-01	 2.342652007319017e+00	 2.952720276751718e+00
 3.225646883630715e-01	 2.345571081983316e+00	 2.933093068529534e+00
 3.020423272686569e-01	 2.348301966368331e+00	 2.918846985551287e+00
 2.815580367979779e-01	 2.350845977182324e+00	 2.909518291545090e+00
 2.611140813413651e-01	 2.353204462970607e+00	 2.904785806981068e+00
 2.407126878925066e-01	 2.355378803072008e+00	 2.904446471935556e+00
 2.203560456747723e-01	 2.357370406574623e+00	 2.908392721501775e+00
 2.000463057980824e-01	 2.359180711271805e+00	 2.916591528035300e+00
 4.064977034578799e-01	 2.341447411417628e+00	 3.005735033076455e+00
 3.857694672548181e-01	 2.344951635333264e+00	 2.968016854303941e+00
 3.650699854804054e-01	 2.348263204893226e+00	 2.938004631690853e+00
 3.444016767342797e-01	 2.351383339583184e+00	 2.915845303481707e+00
 3.237669238928758e-01	 2.354313293972862e+00	 2.900731800254889e+00
 3.031680736088157e-01	 2.357054356676572e+00	 2.891675344951164e+00
 2.826074358420612e-01	 2.359607849310108e+00	 2.887848973224391e+00
 2.620872834225951e-01	 2.361975125444967e+00	 2.888562014947970e+00
 2.416098516443764e-01	 2.364157569560930e+00	 2.893236552862979e+00
 2.211773378902707e-01	 2.366156595997930e+00	 2.901385705473504e+00
 2.007919012876414e-01	 2.367973647908145e+00	 2.912593582938505e+00
 4.080071385325283e-01	 2.350141834070536e+00	 2.975305788877212e+00
 3.872019328253151e-01	 2.353659070109870e+00	 2.938662228997452e+00
 3.664255883196201e-01	 2.356982936416213e+00	 2.910900787561616e+00
 3.456805325960006e-01	 2.360114657003518e+00	 2.891815678972381e+00
 3.249691573791607e-01	 2.363055491100066e+00	 2.880396892470912e+00
 3.042938180354829e-01	 2.365806732105149e+00	 2.875391729612910e+00
 2.836568331024397e-01	 2.368369706542075e+00	 2.875703035745094e+00
 2.630604838496510e-01	 2.370745773008522e+00	 2.880364440826642e+00
 2.425070138713309e-01	 2.372936321125219e+00	 2.888517597197933e+00
 2.219986287098268e-01	 2.374942770483929e+00	 2.899391255695555e+00
 2.015374955099299e-01	 2.376766569595645e+00	 2.912282023345104e+00
 4.095165706136882e-01	 2.358836239478789e+00	 2.957465777555220e+00
 3.886343955549562e-01	 2.362366487616057e+00	 2.922404218113125e+00
 3.677811884704062e-01	 2.365702650644420e+00	 2.896864312349191e+00
 3.469593859214955e-01	 2.368845957106105e+00	 2.880354312474979e+00
 3.261713884811787e-01	 2.371797670887945e+00	 2.871747071483483e+00
 3.054195602295801e-01	 2.374559090174198e+00	 2.869616959415096e+00
 2.847062282816644e-01	 2.377131546395682e+00	 2.872688484637633e+00
 2.640336823466709e-01	 2.379516403176245e+00	 2.879812176261376e+00
 2.434041743190512e-01	 2.381715055277557e+00	 2.889942485666456e+00
 2.228199179006166e-01	 2.383728927543198e+00	 2.902117542857011e+00
 2.022830882535697e-01	 2.385559473842969e+00	 2.915440605374823e+00
 4.110259992735985e-01	 2.367530625178890e+00	 2.952304442433130e+00
 3.900668550377791e-01	 2.371073885384655e+00	 2.919182659114402e+00
 3.691367855485716e-01	 2.374422345107205e+00	 2.895713845752450e+00
 3.482382363483116e-01	 2.377577237417034e+00	 2.881189326591095e+00
 3.273736168581822e-01	 2.380539830859515e+00	 2.874447021898021e+00
 3.065452998720287e-01	 2.383311428403861e+00	 2.873978199170251e+00
 2.857556210822865e-01	 2.385893366388392e+00	 2.878419713763463e+00
 2.650068786377933e-01	 2.388287013463113e+00	 2.886530416487627e+00
 2.443013327332182e-01	 2.390493769530626e+00	 2.897169604825334e+00
 2.236412052298165e-01	 2.392515064686318e+00	 2.909277347822271e+00
 2.030286793071822e-01	 2.394352358158783e+00	 2.921856516900156e+00
 4.125354240844981e-01	 2.376224988707342e+00	 2.959911753878943e+00
 3.914993108678211e-01	 2.379781260948494e+00	 2.928940053433960e+00
 3.704923791699241e-01	 2.383142017333930e+00	 2.907272070585054e+00
 3.495170835139961e-01	 2.386308495462393e+00	 2.894053988714329e+00
 3.285758421694240e-01	 2.389281968537790e+00	 2.888167300254598e+00
 3.076710366437497e-01	 2.392063744314279e+00	 2.888108861507943e+00
 2.868050112068564e-01	 2.394655164037665e+00	 2.892517404193244e+00
 2.659800724471563e-01	 2.397057601384103e+00	 2.900150361643716e+00
 2.451984888595130e-01	 2.399272461397111e+00	 2.909862756936020e+00
 2.244624904646028e-01	 2.401301179423868e+00	 2.920587985885351e+00
 2.037742684593891e-01	 2.403145220051754e+00	 2.931320321688254e+00
 1.963183167394766e-01	 2.315215891054156e+00	 2.999693108407573e+00
 1.764385310364568e-01	 2.316815720398379e+00	 2.982589632710061e+00
 1.566088185154535e-01	 2.318240590786652e+00	 2.973742551172117e+00
 1.368311300350413e-01	 2.319491990372638e+00	 2.969539882123153e+00
 1.171073792565506e-01	 2.320571431365386e+00	 2.966381600325541e+00
 9.743944244549368e-02	 2.321480449033855e+00	 2.960667609396268e+00
 7.782915829959509e-02	 2.322220600716149e+00	 2.948786500296447e+00
 5.827832780298224e-02	 2.322793464834211e+00	 2.927104995444183e+00
 3.878871410607834e-02	 2.323200639914681e+00	 2.891957984032400e+00
 1.936204243071925e-02	 2.323443743616602e+00	 2.839639060445104e+00
 0.000000000000000e+00	 2.323524411766664e+00	 2.766391484180686e+00
 1.970639153947111e-01	 2.324008865064697e+00	 2.973895390331587e+00
 1.771086281199702e-01	 2.325614770412040e+00	 2.964809979774334e+00
 1.572036042005577e-01	 2.327045052325662e+00	 2.961114528428808e+00
 1.373508019042066e-01	 2.328301204611078e+00	 2.959949610327687e+00
 1.175521421601336e-01	 2.329384745220547e+00	 2.958472388541757e+00
 9.780950835971221e-02	 2.330297215253816e+00	 2.953843878553426e+00
 7.812474618384929e-02	 2.331040177963597e+00	 2.943217011965033e+00
 5.849966345662223e-02	 2.331615217766517e+00	 2.923725397929290e+00
 3.893603002471555e-02	 2.332023939260249e+00	 2.892472685889416e+00
 1.943557766217746e-02	 2.332267966247539e+00	 2.846522439706610e+00
 0.000000000000000e+00	 2.332348940767776e+00	 2.782888439954890e+00
 1.978095138395674e-01	 2.332801836583068e+00	 2.952918800945854e+00
 1.777787250144937e-01	 2.334413817931758e+00	 2.950420872166552e+00
 1.577983897180009e-01	 2.335849511369154e+00	 2.950853688956086e+00
 1.378704736269728e-01	 2.337110416352620e+00	 2.952017267571994e+00
 1.179969049385061e-01	 2.338198056577620e+00	 2.951732521797715e+00
 9.817957416982828e-02	 2.339113978974688e+00	 2.947827950667380e+00
 7.842033398502198e-02	 2.339859752711145e+00	 2.938127137591029e+00
 5.872099904810785e-02	 2.340436968198292e+00	 2.920436955941157e+00
 3.908334590202525e-02	 2.340847236104838e+00	 2.892536382548503e+00
 1.950911287302839e-02	 2.341092186377230e+00	 2.852165827237326e+00
 0.000000000000000e+00	 2.341173467267554e+00	 2.797016893432524e+00
 1.985551118626669e-01	 2.341594803117931e+00	 2.936529053259841e+00
 1.784488215300383e-01	 2.343212860464476e+00	 2.939269734680248e+00
 1.583931748991300e-01	 2.344653965422534e+00	 2.942868782776997e+00
 1.383901450559686e-01	 2.345919623101312e+00	 2.945693564086849e+00
 1.184416674655227e-01	 2.347011362939483e+00	 2.946136326853567e+00
 9.854963977086653e-02	 2.347930737698364e+00	 2.942600446123417e+00
 7.871592161925042e-02	 2.348679322459877e+00	 2.933487488111039e+00
 5.894233451463112e-02	 2.349258713629998e+00	 2.917184986410510e+00
 3.923066169619540e-02	 2.349670527948470e+00	 2.892054829214481e+00
 1.958264804239622e-02	 2.349916401505431e+00	 2.856422163591603e+00
 0.000000000000000e+00	 2.349997988765666e+00	 2.808564729987770e+00
 1.993007092526315e-01	 2.350387762177955e+00	 2.924495591419976e+00
 1.791189174766151e-01	 2.352011895517132e+00	 2.931206450925362e+00
 1.589879595752919e-01	 2.353458411991199e+00	 2.937070060180703e+00
 1.389098160438224e-01	 2.354728822361202e+00	 2.940930047494228e+00
 1.188864296150382e-01	 2.355824661809015e+00	 2.941658582567517e+00
 9.891970505785140e-02	 2.356747488926737e+00	 2.938142311617836e+00
 7.901150900267198e-02	 2.357498884710880e+00	 2.929269116449565e+00
 5.916366979338409e-02	 2.358080451562100e+00	 2.913915587403861e+00
 3.937797736541390e-02	 2.358493812291163e+00	 2.890935106917974e+00
 1.965618314940513e-02	 2.358740609131897e+00	 2.859146447531506e+00
 0.000000000000000e+00	 2.358822502761778e+00	 2.817322795518943e+00
 2.000463057980824e-01	 2.359180711271805e+00	 2.916591528035300e+00
 1.797890126642351e-01	 2.360810920596668e+00	 2.926083323013972e+00
 1.595827435778335e-01	 2.362262848580552e+00	 2.933369248174137e+00
 1.394294864431627e-01	 2.363538011636339e+00	 2.937679090727652e+00
 1.193311912609072e-01	 2.364637950689095e+00	 2.938274514284815e+00
 9.928976992580749e-02	 2.365564230161696e+00	 2.934434816312192e+00
 7.930709605142384e-02	 2.366318436965246e+00	 2.925443511031591e+00
 5.938500482155876e-02	 2.366902179495063e+00	 2.910575624883228e+00
 3.952529286786867e-02	 2.367317086632938e+00	 2.889085598706012e+00
 1.972971817317929e-02	 2.367564806756383e+00	 2.860195698126248e+00
 0.000000000000000e+00	 2.367647006755555e+00	 2.823084841227505e+00
 2.007919012876414e-01	 2.367973647908145e+00	 2.912593582938505e+00
 1.804591069029091e-01	 2.369609933210024e+00	 2.923755032173526e+00
 1.601775267381020e-01	 2.371067272695995e+00	 2.931679527479579e+00
 1.399491561066178e-01	 2.372347188430768e+00	 2.935893880236600e+00
 1.197759522769842e-01	 2.373451227082600e+00	 2.935959788361588e+00
 9.965983426975930e-02	 2.374380958905133e+00	 2.931459548079170e+00
 7.960268268164336e-02	 2.375137976724058e+00	 2.921982589442685e+00
 5.960633953634716e-02	 2.375723894929350e+00	 2.907112719761590e+00
 3.967260816174764e-02	 2.376140348473814e+00	 2.886415966362323e+00
 1.980325309284289e-02	 2.376388991878643e+00	 2.859428917693948e+00
 0.000000000000000e+00	 2.376471498246666e+00	 2.825647469624310e+00
 2.015374955099299e-01	 2.376766569595645e+00	 2.912282023345104e+00
 1.811292000026484e-01	 2.378408930864142e+00	 2.924078600263508e+00
 1.607723088874440e-01	 2.379871681842929e+00	 2.931915510064119e+00
 1.404688248868164e-01	 2.381156350248540e+00	 2.935528404467638e+00
 1.202207125371239e-01	 2.382264488492409e+00	 2.934690506820103e+00
 1.000298979847314e-01	 2.383197672658942e+00	 2.929198409837788e+00
 7.989826880946778e-02	 2.383957501488406e+00	 2.918858692232839e+00
 5.982767387494128e-02	 2.384545595365426e+00	 2.903475235246548e+00
 3.981992320523873e-02	 2.384963595313814e+00	 2.882837127643556e+00
 1.987678788752008e-02	 2.385213161998432e+00	 2.856707055564025e+00
 0.000000000000000e+00	 2.385295974734777e+00	 2.824810081731366e+00
 2.022830882535697e-01	 2.385559473842969e+00	 2.915440605374823e+00
 1.817992917734637e-01	 2.387207911065961e+00	 2.926913352172341e+00
 1.613670898572067e-01	 2.388676073526756e+00	 2.933993217187284e+00
 1.409884926363869e-01	 2.389965494593699e+00	 2.936537442615110e+00
 1.206654719151811e-01	 2.391077732421400e+00	 2.934443202131989e+00
 1.003999609657483e-01	 2.392014368925014e+00	 2.927633615975496e+00
 8.019385435103442e-02	 2.392777008759376e+00	 2.916044576860326e+00
 6.004900777453322e-02	 2.393367278303754e+00	 2.899612264464702e+00
 3.996723795652986e-02	 2.393786824652957e+00	 2.878261234018219e+00
 1.995032253633504e-02	 2.394037314615505e+00	 2.851892972639041e+00
 0.000000000000000e+00	 2.394120433719554e+00	 2.820374825448389e+00
 2.030286793071822e-01	 2.394352358158783e+00	 2.921856516900156e+00
 1.824693820253662e-01	 2.396006871322423e+00	 2.932120879071864e+00
 1.619618694787370e-01	 2.397480445252878e+00	 2.937830057953466e+00
 1.415081592079577e-01	 2.398774618970295e+00	 2.938876553634447e+00
 1.211102302850102e-01	 2.399890956372451e+00	 2.935194832126146e+00
 1.007700231078345e-01	 2.400831045205240e+00	 2.926747688854984e+00
 8.048943922248050e-02	 2.401596496038056e+00	 2.913513411771939e+00
 6.027034117231492e-02	 2.402188941244799e+00	 2.895473618359529e+00
 4.011455237380896e-02	 2.402610033991262e+00	 2.872601648895386e+00
 2.002385701841196e-02	 2.402861447229616e+00	 2.844851406735591e+00
 0.000000000000000e+00	 2.402944872700665e+00	 2.812146545054246e+00
 2.037742684593891e-01	 2.403145220051754e+00	 2.931320321688254e+00
 1.831394705683669e-01	 2.404805809140469e+00	 2.939565002507463e+00
 1.625566475833818e-01	 2.406284794526695e+00	 2.943344808356276e+00
 1.420278244541574e-01	 2.407583720882376e+00	 2.942502065511412e+00
 1.215549875204660e-01	 2.408704157848441e+00	 2.936922775018160e+00
 1.011400843060147e-01	 2.409647699001514e+00	 2.926523455403542e+00
 8.078502333994339e-02	 2.410415960825535e+00	 2.911238770616152e+00
 6.049167400547847e-02	 2.411010581689024e+00	 2.891009813855817e+00
 4.026186641526397e-02	 2.411433220828751e+00	 2.865772926330726e+00
 2.009739131287501e-02	 2.411685557340521e+00	 2.835448938684301e+00
 0.000000000000000e+00	 2.411769289177776e+00	 2.799932731814432e+00
 2.411769289177776e+00	 0.000000000000000e+00	-1.003990177235557e+01
 2.411685557340520e+00	 2.009739131287368e-02	-4.948786524897764e+00
 2.411433220828751e+00	 4.026186641526282e-02	-5.265632284025958e-01
 2.411010581689024e+00	 6.049167400547752e-02	 3.211343536320756e+00
 2.410415960825535e+00	 8.078502333994263e-02	 6.250780684803094e+00
 2.409647699001513e+00	 1.011400843060141e-01	 8.578883904658710e+00
 2.408704157848441e+00	 1.215549875204656e-01	 1.018409523872485e+01
 2.407583720882377e+00	 1.420278244541572e-01	 1.105618097557123e+01
 2.406284794526695e+00	 1.625566475833819e-01	 1.118624983621279e+01
 2.404805809140468e+00	 1.831394705683671e-01	 1.056677143370862e+01
 2.403145220051753e+00	 2.037742684593891e-01	 9.191594969368015e+00
 2.420592184004311e+00	 0.000000000000000e+00	-1.131977524391863e+01
 2.420508145853693e+00	 2.017091292721681e-02	-6.339432712271751e+00
 2.420254886227749e+00	 4.040915505419339e-02	-1.966053741901042e+00
 2.419830700961471e+00	 6.071296867252746e-02	 1.768396661559556e+00
 2.419233904816472e+00	 8.108055648764277e-02	 4.835833481345205e+00
 2.418462832486047e+00	 1.015100816918718e-01	 7.212149911309726e+00
 2.417515839608091e+00	 1.219996680633029e-01	 8.877314670340978e+00
 2.416391303785128e+00	 1.425474000909046e-01	 9.815468255958285e+00
 2.415087625610806e+00	 1.631513231264263e-01	 1.001501796967480e+01
 2.413603229702029e+00	 1.838094435635525e-01	 9.468731532075225e+00
 2.411936565736030e+00	 2.045197290447714e-01	 8.173829090363066e+00
 2.429415071334221e+00	 0.000000000000000e+00	-1.166192711997734e+01
 2.429330726870513e+00	 2.024443447889918e-02	-6.941166464903930e+00
 2.429076544131215e+00	 4.055644356765203e-02	-2.767555873802004e+00
 2.428650812739752e+00	 6.093426315114193e-02	 8.174184488352995e-01
 2.428051841315157e+00	 8.137608938378982e-02	 3.778241733835090e+00
 2.427277958480798e+00	 1.018800787629030e-01	 6.085529248642122e+00
 2.426327513880976e+00	 1.224443482278824e-01	 7.716182913471036e+00
 2.425198879204688e+00	 1.430669752858037e-01	 8.653545659654172e+00
 2.423890449215851e+00	 1.637459981638709e-01	 8.887553241580969e+00
 2.422400642789204e+00	 1.844794159892236e-01	 8.414883197241799e+00
 2.420727903951157e+00	 2.052651889965601e-01	 7.239100635633437e+00
 2.438237968666715e+00	 0.000000000000000e+00	-1.119318940099534e+01
 2.438153317889580e+00	 2.031795611367892e-02	-6.826506358312416e+00
 2.437898212035911e+00	 4.070373224766095e-02	-2.957235235551129e+00
 2.437470934517559e+00	 6.115555788009839e-02	 3.705452422110532e-01
 2.436869787810966e+00	 8.167162261439190e-02	 3.120305884531148e+00
 2.436093094469554e+00	 1.022500762528061e-01	 5.263265583596113e+00
 2.435139198144029e+00	 1.228890288960369e-01	 6.778586935659252e+00
 2.434006464609849e+00	 1.435865510692486e-01	 7.653568578183661e+00
 2.432693282801188e+00	 1.643406738750812e-01	 7.883833867782094e+00
 2.431198065850612e+00	 1.851493891741113e-01	 7.473515506633569e+00
 2.429519252133696e+00	 2.060106497932278e-01	 6.435435707418029e+00
 2.447060893501001e+00	 0.000000000000000e+00	-1.003856806525839e+01
 2.446975936409492e+00	 2.039147797731409e-02	-6.066929991856742e+00
 2.446719907438604e+00	 4.085102138624248e-02	-2.560886158979982e+00
 2.446291083788585e+00	 6.137685329817418e-02	 4.397315439111096e-01
 2.445687761793263e+00	 8.196715676545709e-02	 2.903709165219975e+00
 2.444908257936103e+00	 1.026200748952796e-01	 4.808668884972368e+00
 2.443950909874183e+00	 1.233337109495989e-01	 6.141283476481020e+00
 2.442814077469403e+00	 1.441061284716330e-01	 6.897486627033100e+00
 2.441496143826175e+00	 1.649353514394233e-01	 7.082678691080828e+00
 2.439995516334869e+00	 1.858193644469466e-01	 6.711927431703711e+00
 2.438310627720206e+00	 2.067561129132469e-01	 5.810163288257587e+00
 2.455883863336285e+00	 0.000000000000000e+00	-8.321275965196728e+00
 2.455798599928851e+00	 2.046500021556279e-02	-4.732892799301999e+00
 2.455541647836058e+00	 4.099831127541885e-02	-1.603938484832886e+00
 2.455111278046521e+00	 6.159814984414676e-02	 1.036753160635367e+00
 2.454505780751423e+00	 8.226269242299340e-02	 3.169528568664766e+00
 2.453723466364230e+00	 1.029900754240222e-01	 4.784132088793560e+00
 2.452762666548367e+00	 1.237783952704008e-01	 5.879919255115954e+00
 2.451621735252139e+00	 1.446257085233509e-01	 6.466065224319586e+00
 2.450299049750167e+00	 1.655300320362625e-01	 6.561767941570686e+00
 2.448793011690591e+00	 1.864893431364605e-01	 6.196445573339483e+00
 2.447102048147246e+00	 2.075015798350896e-01	 5.409927728858999e+00
 2.464706895671778e+00	 0.000000000000000e+00	-6.162764999650587e+00
 2.464621325946256e+00	 2.053852297418312e-02	-2.893846445277720e+00
 2.464363450725036e+00	 4.114560220721233e-02	-1.114642017286449e-01
 2.463931534785059e+00	 6.181944795679352e-02	 2.173210280829164e+00
 2.463323862174812e+00	 8.255823017300901e-02	 3.958245578828168e+00
 2.462538737237723e+00	 1.033600785727321e-01	 5.251147397163837e+00
 2.461574485643514e+00	 1.242230827402754e-01	 6.069050733499632e+00
 2.460429455426854e+00	 1.451452922547962e-01	 6.438906694906700e+00
 2.459102018032526e+00	 1.661247168449647e-01	 6.397663540479858e+00
 2.457590569366397e+00	 1.871593265713841e-01	 5.992441507401474e+00
 2.455893530851377e+00	 2.082470520372284e-01	 5.280700961643496e+00
 2.473530008006687e+00	 0.000000000000000e+00	-3.682757580584864e+00
 2.473444131960304e+00	 2.061204639893316e-02	-6.182568182130916e-01
 2.473185333602305e+00	 4.129289447364520e-02	 1.891816060622898e+00
 2.472751871497893e+00	 6.204074807489190e-02	 3.860530484677427e+00
 2.472142023552804e+00	 8.285377060151190e-02	 5.309756666040000e+00
 2.471354088040368e+00	 1.037300850751079e-01	 6.270322219999372e+00
 2.470386384636555e+00	 1.246677742410551e-01	 6.782163446419499e+00
 2.469237255462335e+00	 1.456648806963626e-01	 6.894470912101828e+00
 2.467905066132604e+00	 1.667194070448957e-01	 6.665828959193107e+00
 2.466388206810903e+00	 1.878293160804483e-01	 6.164348750365991e+00
 2.464685093269159e+00	 2.089925309981359e-01	 5.467794446995676e+00
 2.482353217840222e+00	 0.000000000000000e+00	-9.992774122211752e-01
 2.482267035469597e+00	 2.068557063557098e-02	 2.026378369975861e+00
 2.482007313964629e+00	 4.144018836673971e-02	 4.381526680242107e+00
 2.481572305678712e+00	 6.226205063721928e-02	 6.109971688541062e+00
 2.480960282374767e+00	 8.314931429451024e-02	 7.263383553101407e+00
 2.480169536255953e+00	 1.041000956648482e-01	 7.901394768730571e+00
 2.479198381004420e+00	 1.251124706545726e-01	 8.091690909589122e+00
 2.478045152827377e+00	 1.461844748784441e-01	 7.910095488717784e+00
 2.476708211509762e+00	 1.673141038154211e-01	 7.440648644786663e+00
 2.475185941472726e+00	 1.884993129923843e-01	 6.775679354751502e+00
 2.473476752837151e+00	 2.097380181962843e-01	 6.015870859025299e+00
 2.491176542671590e+00	 0.000000000000000e+00	 1.771320399965849e+00
 2.491090053972734e+00	 2.075909582985468e-02	 4.973512367471902e+00
 2.490829409308772e+00	 4.158748417851815e-02	 7.333630830136827e+00
 2.490392854821212e+00	 6.248335608255309e-02	 8.932625025503217e+00
 2.489778656130071e+00	 8.344486183801204e-02	 9.857883258142632e+00
 2.488985099368266e+00	 1.044701110756514e-01	 1.020324931081288e+01
 2.488010492224041e+00	 1.255571728626603e-01	 1.006903311641591e+01
 2.486853164990770e+00	 1.467040758314346e-01	 9.562015528939042e+00
 2.485511471623356e+00	 1.679088083359065e-01	 8.795447023081083e+00
 2.483983790800481e+00	 1.891693186359228e-01	 7.889040143728488e+00
 2.482268526991912e+00	 2.104835151101462e-01	 6.968955517457792e+00
 2.500000000000000e+00	 0.000000000000000e+00	 4.514319893444963e+00
 2.499913204968313e+00	 2.083262212754237e-02	 8.157532539724798e+00
 2.499651637131500e+00	 4.173478220100279e-02	 1.072442440050035e+01
 2.499213536419082e+00	 6.270466484967074e-02	 1.233941766364573e+01
 2.498597162308088e+00	 8.374041381802545e-02	 1.313145791988519e+01
 2.497800794861094e+00	 1.048401320412160e-01	 1.323393109362835e+01
 2.496822735772351e+00	 1.260018817471509e-01	 1.278457463386719e+01
 2.495661309421307e+00	 1.472236845857280e-01	 1.192538295210409e+01
 2.494314863932743e+00	 1.685035217857179e-01	 1.080250708989923e+01
 2.492781772242788e+00	 1.898393343397951e-01	 9.566148594041842e+00
 2.491060433170003e+00	 2.112290232181939e-01	 8.370447572076703e+00
 2.403145220051753e+00	 2.037742684593891e-01	 9.191594969368015e+00
 2.401301179423868e+00	 2.244624904646018e-01	 7.552493051843353e+00
 2.399272461397111e+00	 2.451984888595121e-01	 6.140219738340373e+00
 2.397057601384104e+00	 2.659800724471556e-01	 4.948088559778528e+00
 2.394655164037665e+00	 2.868050112068558e-01	 3.970549600320899e+00
 2.392063744314279e+00	 3.076710366437493e-01	 3.203208392654687e+00
 2.389281968537789e+00	 3.285758421694235e-01	 2.642844779703905e+00
 2.386308495462393e+00	 3.495170835139956e-01	 2.287431602216235e+00
 2.383142017333930e+00	 3.704923791699238e-01	 2.136152873142467e+00
 2.379781260948493e+00	 3.914993108678208e-01	 2.179627453678473e+00
 2.376224988707342e+00	 4.125354240844981e-01	 2.409059615734928e+00
 2.411936565736030e+00	 2.045197290447714e-01	 8.173829090363064e+00
 2.410085779116245e+00	 2.252836340798409e-01	 6.614740404886400e+00
 2.408049639498448e+00	 2.460954902833876e-01	 5.275018674102886e+00
 2.405826676937398e+00	 2.669530984424627e-01	 4.153104797192793e+00
 2.403415450835028e+00	 2.878542203783776e-01	 3.247421400376173e+00
 2.400814551007787e+00	 3.087965792975076e-01	 2.556362046179350e+00
 2.398022598754243e+00	 3.297778601733234e-01	 2.078281267129851e+00
 2.395038247921946e+00	 3.507957101599751e-01	 1.811485346630274e+00
 2.391860185972615e+00	 3.718477390377299e-01	 1.754190326346357e+00
 2.388487135044622e+00	 3.929315196905244e-01	 1.896387429979129e+00
 2.384917853011747e+00	 4.140445886158671e-01	 2.228989635549352e+00
 2.420727903951157e+00	 2.052651889965601e-01	 7.239100635633437e+00
 2.418870371345269e+00	 2.261047769972317e-01	 5.815509431892795e+00
 2.416826810142783e+00	 2.469924909450028e-01	 4.595870669618604e+00
 2.414595745040610e+00	 2.679261236109486e-01	 3.582235985353744e+00
 2.412175730189792e+00	 2.889034286583775e-01	 2.775731565176032e+00
 2.409565350266758e+00	 3.099221209949132e-01	 2.176524637623444e+00
 2.406763221544790e+00	 3.309798771559180e-01	 1.783791493980801e+00
 2.403767992964807e+00	 3.520743357195856e-01	 1.595687007634795e+00
 2.400578347204410e+00	 3.732030977540010e-01	 1.609233445556506e+00
 2.397193001744243e+00	 3.943637272964342e-01	 1.814473817693992e+00
 2.393610709930618e+00	 4.155537518651016e-01	 2.201706927490767e+00
 2.429519252133696e+00	 2.060106497932278e-01	 6.435435707418029e+00
 2.427654973534109e+00	 2.269259208453727e-01	 5.179878661838711e+00
 2.425603990738564e+00	 2.478894926234245e-01	 4.108172737390319e+00
 2.423364823086110e+00	 2.688991498824757e-01	 3.224483518040519e+00
 2.420936019476900e+00	 2.899526381278242e-01	 2.531389809965682e+00
 2.418316159447325e+00	 3.110476639683347e-01	 2.029834343237000e+00
 2.415503854245390e+00	 3.321818955012538e-01	 1.719076549576224e+00
 2.412497747905362e+00	 3.533529627288108e-01	 1.596647422562988e+00
 2.409296518320724e+00	 3.745584580069012e-01	 1.658217612259249e+00
 2.405898878314389e+00	 3.957959365261204e-01	 1.894427868621093e+00
 2.402303576705195e+00	 4.170629168253849e-01	 2.294726199692444e+00
 2.438310627720206e+00	 2.067561129132469e-01	 5.810163288257587e+00
 2.436439603105941e+00	 2.277470672528620e-01	 4.732561253421479e+00
 2.434381198694239e+00	 2.487864970977196e-01	 3.817241222268332e+00
 2.432133928466276e+00	 2.698721791869063e-01	 3.069005505000213e+00
 2.429696336071292e+00	 2.910018508676860e-01	 2.490652381211241e+00
 2.427066995905628e+00	 3.121732104501406e-01	 2.082917891438553e+00
 2.424244514191992e+00	 3.333839175933769e-01	 1.844420100091970e+00
 2.421227530057993e+00	 3.546315937236350e-01	 1.771605856614964e+00
 2.418014716612970e+00	 3.759138224845953e-01	 1.858700111970417e+00
 2.414604782022097e+00	 3.972281502201535e-01	 2.097360878120639e+00
 2.410996470576720e+00	 4.185720864898998e-01	 2.476031725559332e+00
 2.447102048147246e+00	 2.075015798350896e-01	 5.409927728858999e+00
 2.445224277483935e+00	 2.285682178482976e-01	 4.497911539032104e+00
 2.443158451418256e+00	 2.496835061469548e-01	 3.728313247344045e+00
 2.440903078573478e+00	 2.708452134541026e-01	 3.105113970732025e+00
 2.438456697347905e+00	 2.920510689589316e-01	 2.630115863936667e+00
 2.435817876997804e+00	 3.132987626727000e-01	 2.302881838580721e+00
 2.432985218720554e+00	 3.345859458163336e-01	 2.120677996356791e+00
 2.429957356737081e+00	 3.559102312400417e-01	 2.078418809512402e+00
 2.426732959372563e+00	 3.772691938752474e-01	 2.168848933644498e+00
 2.423310730134402e+00	 3.986603712191036e-01	 2.384943915793595e+00
 2.419689408786432e+00	 4.200812638518300e-01	 2.714068878679083e+00
 2.455893530851377e+00	 2.082470520372284e-01	 5.280700961643496e+00
 2.454009014091267e+00	 2.293893742602779e-01	 4.499931425300127e+00
 2.451935766319064e+00	 2.505805215501969e-01	 3.846548128704319e+00
 2.449672290800092e+00	 2.718182546139270e-01	 3.322272115707747e+00
 2.447217120681682e+00	 2.931002944825294e-01	 2.926711126253609e+00
 2.444568820079989e+00	 3.144243228683814e-01	 2.657304037754487e+00
 2.441725985167030e+00	 3.357879825541701e-01	 2.509268111539043e+00
 2.438687245257011e+00	 3.571888778140149e-01	 2.475549069830642e+00
 2.435451263890913e+00	 3.786245748670222e-01	 2.547431815253947e+00
 2.432016739918337e+00	 4.000926023635405e-01	 2.719397781778683e+00
 2.428382408575571e+00	 4.215904519043582e-01	 2.977735853585573e+00
 2.464685093269159e+00	 2.089925309981359e-01	 5.467794446995676e+00
 2.462793830351111e+00	 2.302105381174011e-01	 4.762276653881049e+00
 2.460713160805109e+00	 2.514775450865129e-01	 4.177028759847057e+00
 2.458441582538490e+00	 2.727913045962421e-01	 3.710091638436248e+00
 2.455977623447563e+00	 2.941495295194478e-01	 3.357697397582663e+00
 2.453319842508320e+00	 3.155498932695536e-01	 3.114225295704188e+00
 2.450466830867374e+00	 3.369900301909327e-01	 2.972160402854957e+00
 2.447417212932166e+00	 3.584675359815389e-01	 2.922055010684445e+00
 2.444169647459435e+00	 3.799799681480838e-01	 2.953805529245495e+00
 2.440722828640938e+00	 4.015248464940345e-01	 3.063483182899532e+00
 2.437075487185377e+00	 4.230996536406678e-01	 3.236375567622751e+00
 2.473476752837151e+00	 2.097380181962843e-01	 6.015870859025299e+00
 2.471578743686635e+00	 2.310317110482652e-01	 5.308262926051169e+00
 2.469490652284840e+00	 2.523745785349696e-01	 4.724762966536375e+00
 2.467210971181047e+00	 2.737643653309100e-01	 4.258330116829206e+00
 2.464738223020486e+00	 2.951987761506554e-01	 3.900656477166936e+00
 2.462070961638934e+00	 3.166754761085852e-01	 3.642141213068097e+00
 2.459207773157542e+00	 3.381920911106676e-01	 3.471867191599749e+00
 2.456147277076928e+00	 3.597462082785973e-01	 3.377580120628811e+00
 2.452888127369539e+00	 3.813353764065971e-01	 3.347905401762590e+00
 2.449429013569240e+00	 4.029571064511562e-01	 3.380491123060855e+00
 2.445768661857091e+00	 4.246088720539421e-01	 3.459767739294609e+00
 2.482268526991912e+00	 2.104835151101462e-01	 6.968955517457792e+00
 2.480363771521017e+00	 2.318528946814686e-01	 6.160871894570608e+00
 2.478268258166706e+00	 2.532716236746337e-01	 5.494684832851533e+00
 2.475980474120135e+00	 2.747374387477931e-01	 4.956888447367037e+00
 2.473498936775393e+00	 2.962480364571207e-01	 4.533487069577312e+00
 2.470822194827969e+00	 3.178010736178452e-01	 4.209994203299376e+00
 2.467948829373485e+00	 3.393941676974210e-01	 3.971433655967790e+00
 2.464877455005680e+00	 3.610248972411741e-01	 3.802342763813886e+00
 2.461606720912640e+00	 3.826908023307264e-01	 3.690235059702140e+00
 2.458135311970276e+00	 4.043893850754751e-01	 3.634233502456094e+00
 2.454461949831952e+00	 4.261181101373641e-01	 3.618121138621055e+00
 2.491060433170003e+00	 2.112290232181939e-01	 8.370447572076703e+00
 2.489148931277429e+00	 2.326740906456094e-01	 7.342757026174731e+00
 2.487045995859153e+00	 2.541686822845721e-01	 6.491655999163458e+00
 2.484750108748132e+00	 2.757105267767539e-01	 5.795808340609625e+00
 2.482259782087225e+00	 2.972973125198122e-01	 5.234399244003868e+00
 2.479573559431561e+00	 3.189266880297021e-01	 4.787165685754979e+00
 2.476690016851162e+00	 3.405962623352393e-01	 4.434428531289568e+00
 2.473607764032804e+00	 3.623036054052532e-01	 4.157126163604713e+00
 2.470325445380151e+00	 3.840462486086361e-01	 3.941856399842331e+00
 2.466841741111083e+00	 4.058216852075619e-01	 3.789033920304817e+00
 2.463155368351200e+00	 4.276273708841171e-01	 3.682066005148682e+00
 2.376224988707342e+00	 4.125354240844981e-01	 2.409059615734929e+00
 2.372472654089149e+00	 4.335946471085245e-01	 2.713480849270275e+00
 2.368522505086349e+00	 4.546780338956407e-01	 2.981415519827840e+00
 2.364373415927180e+00	 4.757830315916268e-01	 3.212463574631396e+00
 2.360024300548634e+00	 4.969070535816814e-01	 3.405386349159369e+00
 2.355474113615235e+00	 5.180474801603691e-01	 3.558088608173662e+00
 2.350721851527660e+00	 5.392016592342913e-01	 3.667599806148265e+00
 2.345766553420076e+00	 5.603669070574515e-01	 3.730054536674446e+00
 2.340607302145042e+00	 5.815405089992439e-01	 3.740672147528548e+00
 2.335243225244861e+00	 6.027197203449562e-01	 3.693735505858587e+00
 2.329673495908198e+00	 6.239017671286294e-01	 3.582568906357351e+00
 2.384917853011747e+00	 4.140445886158671e-01	 2.228989635549352e+00
 2.381151791353338e+00	 4.351808518903860e-01	 2.632189470971977e+00
 2.377187191652528e+00	 4.563413673254687e-01	 2.987492351860882e+00
 2.373022924019193e+00	 4.775235727278697e-01	 3.292956567357981e+00
 2.368657898417226e+00	 4.987248720202559e-01	 3.546302368438970e+00
 2.364091065687044e+00	 5.199426359136076e-01	 3.744904936864558e+00
 2.359321418557904e+00	 5.411742026124564e-01	 3.885786091401911e+00
 2.354347992648878e+00	 5.624168785529432e-01	 3.965604672341667e+00
 2.349169867457369e+00	 5.836679391736147e-01	 3.980645552799210e+00
 2.343786167334006e+00	 6.049246297188565e-01	 3.926807233495780e+00
 2.338196062442770e+00	 6.261841660747979e-01	 3.799587986645552e+00
 2.393610709930618e+00	 4.155537518651016e-01	 2.201706927490767e+00
 2.389830921243562e+00	 4.367670553247101e-01	 2.652196326163163e+00
 2.385851870856911e+00	 4.580046993422883e-01	 3.050189121866862e+00
 2.381672424762188e+00	 4.792641123855698e-01	 3.392517781233315e+00
 2.377291488950196e+00	 5.005426889146960e-01	 3.676085073535425e+00
 2.372708010437258e+00	 5.218377900570660e-01	 3.897865956564377e+00
 2.367920978281215e+00	 5.431467443151478e-01	 4.054907797601677e+00
 2.362929424586053e+00	 5.644668483072237e-01	 4.144328846772362e+00
 2.357732425494026e+00	 5.857953675409996e-01	 4.163314887852409e+00
 2.352329102164099e+00	 6.071295372199625e-01	 4.109114000204222e+00
 2.346718621735574e+00	 6.284665630823352e-01	 3.979029374910331e+00
 2.402303576705195e+00	 4.170629168253849e-01	 2.294726199692444e+00
 2.398510060973844e+00	 4.383532605574560e-01	 2.749118930407639e+00
 2.394516559884871e+00	 4.596680332450079e-01	 3.152114020068097e+00
 2.390321935311451e+00	 4.810046540167408e-01	 3.499630102004325e+00
 2.385925089271292e+00	 5.023605078702577e-01	 3.787972900692671e+00
 2.381324964956625e+00	 5.237329463493646e-01	 4.013844036730446e+00
 2.376520547753875e+00	 5.451192882544532e-01	 4.174347844237909e+00
 2.371510866251946e+00	 5.665168203859349e-01	 4.266996099019845e+00
 2.366294993237942e+00	 5.879227983206606e-01	 4.289710563899140e+00
 2.360872046679166e+00	 6.093344472212072e-01	 4.240823266587734e+00
 2.355241190690244e+00	 6.307489626778779e-01	 4.119074435268802e+00
 2.410996470576720e+00	 4.185720864898998e-01	 2.476031725559332e+00
 2.407189227758209e+00	 4.399394707345836e-01	 2.898927541069057e+00
 2.403181275921789e+00	 4.613313723325360e-01	 3.276127131072466e+00
 2.398971472822265e+00	 4.827452010733954e-01	 3.602943490430953e+00
 2.394558716504258e+00	 5.041783324921966e-01	 3.875302613170085e+00
 2.389941946335890e+00	 5.256281085491237e-01	 4.089757231730173e+00
 2.385120144032165e+00	 5.470918383424604e-01	 4.243498325039964e+00
 2.380092334666901e+00	 5.685667988547181e-01	 4.334364279552332e+00
 2.374857587672045e+00	 5.900502357318614e-01	 4.360847595723227e+00
 2.369415017823233e+00	 6.115393640955250e-01	 4.322099041678138e+00
 2.363763786210413e+00	 6.330313693880619e-01	 4.217929165978014e+00
 2.419689408786432e+00	 4.200812638518300e-01	 2.714068878679083e+00
 2.415868438810683e+00	 4.415256890020526e-01	 3.077938789326229e+00
 2.411846036153035e+00	 4.629947199037815e-01	 3.405335874934293e+00
 2.407621054449918e+00	 4.844857570075466e-01	 3.691271943336969e+00
 2.403192387772838e+00	 5.059961663857694e-01	 3.931507492406316e+00
 2.398558971665798e+00	 5.275232804149631e-01	 4.122568411599707e+00
 2.393719784172369e+00	 5.490643984912575e-01	 4.261760287352702e+00
 2.388673846851264e+00	 5.706167877792142e-01	 4.347180186997520e+00
 2.383420225779265e+00	 5.921776839938636e-01	 4.377725804460304e+00
 2.377958032540327e+00	 6.137442922158496e-01	 4.353101860522925e+00
 2.372286425199708e+00	 6.353137877395229e-01	 4.273823660908345e+00
 2.428382408575571e+00	 4.215904519043582e-01	 2.977735853585573e+00
 2.424547711345289e+00	 4.431119185058226e-01	 3.262809451826619e+00
 2.420510857763988e+00	 4.646580792576526e-01	 3.523090547973901e+00
 2.416270697349693e+00	 4.862263252712080e-01	 3.753590520896481e+00
 2.411826120200776e+00	 5.078140131562318e-01	 3.950115568271209e+00
 2.407176058037094e+00	 5.294184657055032e-01	 4.109284411132171e+00
 2.402319485230767e+00	 5.510369726129323e-01	 4.228543515483451e+00
 2.397255419825381e+00	 5.726667912250649e-01	 4.306179700903727e+00
 2.391982924542530e+00	 5.943051473259304e-01	 4.341330014846701e+00
 2.386501107774475e+00	 6.159492359551141e-01	 4.333988761101261e+00
 2.380809124561764e+00	 6.375962222588970e-01	 4.285011581601783e+00
 2.437075487185377e+00	 4.230996536406678e-01	 3.236375567622751e+00
 2.433227062576054e+00	 4.446981623918532e-01	 3.430530358406504e+00
 2.429175757940025e+00	 4.663214536930586e-01	 3.612979960803048e+00
 2.424920418676879e+00	 4.879669093163925e-01	 3.779032438460234e+00
 2.420459930911816e+00	 5.096318764088399e-01	 3.924747887403143e+00
 2.415793222540528e+00	 5.313136681793640e-01	 4.046955196822940e+00
 2.410919264263641e+00	 5.530095646195722e-01	 4.143266317913172e+00
 2.405837070609595e+00	 5.747168132579111e-01	 4.212087910614273e+00
 2.400545700944769e+00	 5.964326299473243e-01	 4.252630247074121e+00
 2.395044260469703e+00	 6.181541996862523e-01	 4.264913260579053e+00
 2.389331901200212e+00	 6.398786774728203e-01	 4.249769639637424e+00
 2.445768661857091e+00	 4.246088720539421e-01	 3.459767739294609e+00
 2.441906509717001e+00	 4.462844238061043e-01	 3.558420432410321e+00
 2.437840753866521e+00	 4.679848465089073e-01	 3.658827171078175e+00
 2.433570235586758e+00	 4.897075125951131e-01	 3.756886221274755e+00
 2.429093837029705e+00	 5.114497597488500e-01	 3.849116818658237e+00
 2.424410482266842e+00	 5.332088915951659e-01	 3.932673051212872e+00
 2.419519138327274e+00	 5.549821784232656e-01	 4.005355318268826e+00
 2.414418816224253e+00	 5.767668579433947e-01	 4.065619240348662e+00
 2.409108571968911e+00	 5.985601360773081e-01	 4.112581903380907e+00
 2.403587507570036e+00	 6.203591877821977e-01	 4.146025330913178e+00
 2.397854772018683e+00	 6.421611579079286e-01	 4.166397089034128e+00
 2.454461949831952e+00	 4.261181101373641e-01	 3.618121138621055e+00
 2.450586069982156e+00	 4.478707058945353e-01	 3.624120860242032e+00
 2.446505862728852e+00	 4.696482610041077e-01	 3.644685308574924e+00
 2.442220165234617e+00	 4.914481385593829e-01	 3.676592920495306e+00
 2.437727855678187e+00	 5.132676667815177e-01	 3.717024394725943e+00
 2.433027854306784e+00	 5.351041397115290e-01	 3.763571774183921e+00
 2.428119124477946e+00	 5.569548179360997e-01	 3.814245249956525e+00
 2.423000673689698e+00	 5.788169293471567e-01	 3.867477570581404e+00
 2.417671554597885e+00	 6.006876699351440e-01	 3.922125949507977e+00
 2.412130866019502e+00	 6.225642046158842e-01	 3.977471373814433e+00
 2.406377753920809e+00	 6.444436680908577e-01	 4.033215228428005e+00
 2.463155368351200e+00	 4.276273708841171e-01	 3.682066005148682e+00
 2.459265760585544e+00	 4.494570118031062e-01	 3.605589386878756e+00
 2.455171101712394e+00	 4.713117004775685e-01	 3.554833490246834e+00
 2.450870224775741e+00	 4.931887906612153e-01	 3.527743388939602e+00
 2.446362003981006e+00	 5.150856011120998e-01	 3.522360688992922e+00
 2.441645355751100e+00	 5.369994162870736e-01	 3.536825900774143e+00
 2.436719239771942e+00	 5.589274870701633e-01	 3.569378754358190e+00
 2.431582660026279e+00	 5.808670315348383e-01	 3.618356355806543e+00
 2.426234665814621e+00	 6.028152357400953e-01	 3.682189091142629e+00
 2.420674352762128e+00	 6.247692545602455e-01	 3.759394195078884e+00
 2.414900863810222e+00	 6.467262125482436e-01	 3.848566912770250e+00
 2.329673495908198e+00	 6.239017671286294e-01	 3.582568906357351e+00
 2.323897334417938e+00	 6.450838472938442e-01	 3.461891842476045e+00
 2.317914010599845e+00	 6.662631325049658e-01	 3.386566796911569e+00
 2.311722843211848e+00	 6.874367682357324e-01	 3.349468878805753e+00
 2.305323200321330e+00	 7.086018744401660e-01	 3.343558704826312e+00
 2.298714500167883e+00	 7.297555465433316e-01	 3.361872739388153e+00
 2.291896212004354e+00	 7.508948564624919e-01	 3.399667668022910e+00
 2.284867856915019e+00	 7.720168536581867e-01	 3.464709207768107e+00
 2.277629008609737e+00	 7.931185662147199e-01	 3.554741759983012e+00
 2.270179294192987e+00	 8.141970019494853e-01	 3.665608805853962e+00
 2.262518394906619e+00	 8.352491495505205e-01	 3.793700821231351e+00
 2.338196062442770e+00	 6.261841660747979e-01	 3.799587986645552e+00
 2.332398770214142e+00	 6.474437359343465e-01	 3.660048353078077e+00
 2.326393557802711e+00	 6.687005006150659e-01	 3.568813408746456e+00
 2.320179741474245e+00	 6.899515951480814e-01	 3.520248086485539e+00
 2.313756686984342e+00	 7.111941289514443e-01	 3.508476858648767e+00
 2.307123810444363e+00	 7.324251868245162e-01	 3.527366599062742e+00
 2.300280579165536e+00	 7.536418299728570e-01	 3.573608040439143e+00
 2.293226512480131e+00	 7.748410970631522e-01	 3.653599056980366e+00
 2.285961182538526e+00	 7.960200053076523e-01	 3.763640019702525e+00
 2.278484215081045e+00	 8.171755515775548e-01	 3.898949415991849e+00
 2.270795290183433e+00	 8.383047135447205e-01	 4.054921578330227e+00
 2.346718621735574e+00	 6.284665630823352e-01	 3.979029374910331e+00
 2.340900198786538e+00	 6.498036225703604e-01	 3.835634746278505e+00
 2.334873097800403e+00	 6.711378666548100e-01	 3.740611290599285e+00
 2.328636632550767e+00	 6.924664199242102e-01	 3.689584100316849e+00
 2.322190166481446e+00	 7.137863812606550e-01	 3.677660025082790e+00
 2.315533113575553e+00	 7.350948248378139e-01	 3.699404095604015e+00
 2.308664939202700e+00	 7.563888011495592e-01	 3.752830417634643e+00
 2.301585160943147e+00	 7.776653380687356e-01	 3.842511186130233e+00
 2.294293349387783e+00	 7.989214419355525e-01	 3.963773954584427e+00
 2.286789128912769e+00	 8.201540986750240e-01	 4.111283581103683e+00
 2.279072178427747e+00	 8.413602749428494e-01	 4.279562791180701e+00
 2.355241190690244e+00	 6.307489626778779e-01	 4.119074435268802e+00
 2.349401636996866e+00	 6.521635118822361e-01	 3.984559179179056e+00
 2.343352647411264e+00	 6.735752354582543e-01	 3.896145457287837e+00
 2.337093533214851e+00	 6.949812475518479e-01	 3.850492061367631e+00
 2.330623655539652e+00	 7.163786365091444e-01	 3.843509600430418e+00
 2.323942426240530e+00	 7.377644658781127e-01	 3.870331519691502e+00
 2.317049308745463e+00	 7.591357754409273e-01	 3.930097590487253e+00
 2.309943818882697e+00	 7.804895822765816e-01	 4.025286720599233e+00
 2.302625525683621e+00	 8.018228818532340e-01	 4.150628791758494e+00
 2.295094052160227e+00	 8.231326491497069e-01	 4.300307353331236e+00
 2.287349076056038e+00	 8.444158398055267e-01	 4.468098621875180e+00
 2.363763786210413e+00	 6.330313693880619e-01	 4.217929165978014e+00
 2.357903101706866e+00	 6.545234085503246e-01	 4.102786618325557e+00
 2.351832223453632e+00	 6.760126118594533e-01	 4.029681928912246e+00
 2.345550460239932e+00	 6.974960830187225e-01	 3.996084289961973e+00
 2.339057170885978e+00	 7.189708998382592e-01	 3.998532274533947e+00
 2.332351765118369e+00	 7.404341152403006e-01	 4.032600476975146e+00
 2.325433704423443e+00	 7.618827582952892e-01	 4.098273981745091e+00
 2.318302502877411e+00	 7.833138352883350e-01	 4.195853094568556e+00
 2.310957727952152e+00	 8.047243308155118e-01	 4.319752623458392e+00
 2.303399001295480e+00	 8.261112089094171e-01	 4.463748070210592e+00
 2.295625999484788e+00	 8.474714141933701e-01	 4.620994791649464e+00
 2.372286425199708e+00	 6.353137877395229e-01	 4.273823660908345e+00
 2.366404609778275e+00	 6.568833172549762e-01	 4.186337710884181e+00
 2.360311842745852e+00	 6.784500006924630e-01	 4.135566154585935e+00
 2.354007430399444e+00	 7.000109313125620e-01	 4.119568405641570e+00
 2.347490729247438e+00	 7.215631763893470e-01	 4.135337991378248e+00
 2.340761146888150e+00	 7.431037782192651e-01	 4.178820405060516e+00
 2.333818142866254e+00	 7.646297551609732e-01	 4.250323927566975e+00
 2.326661229505918e+00	 7.861381027056406e-01	 4.348222622812111e+00
 2.319289972719490e+00	 8.076257945772006e-01	 4.466755415846533e+00
 2.311703992790594e+00	 8.290897838619680e-01	 4.599363947549726e+00
 2.303902965130477e+00	 8.505270041669979e-01	 4.738708904973318e+00
 2.380809124561764e+00	 6.375962222588970e-01	 4.285011581601783e+00
 2.374906178072832e+00	 6.592432426765410e-01	 4.231287679288295e+00
 2.368791522106264e+00	 6.808874067913385e-01	 4.208221469375146e+00
 2.362464460466825e+00	 7.025257974210954e-01	 4.214245486909102e+00
 2.355924347351050e+00	 7.241554713037538e-01	 4.246637952866807e+00
 2.349170588228949e+00	 7.457734601098945e-01	 4.301676574697153e+00
 2.342202640703515e+00	 7.673767714863076e-01	 4.379309999615476e+00
 2.335020015346847e+00	 7.889623901301437e-01	 4.476491106852268e+00
 2.327622276511749e+00	 8.105272788931156e-01	 4.587308042789407e+00
 2.320009043117633e+00	 8.320683799151728e-01	 4.704943684615487e+00
 2.312179989409584e+00	 8.535826157870279e-01	 4.821690770077995e+00
 2.389331901200212e+00	 6.398786774728203e-01	 4.249769639637424e+00
 2.383407823452274e+00	 6.616031894953696e-01	 4.233765238747398e+00
 2.377271278353209e+00	 6.833248349901350e-01	 4.242147583589491e+00
 2.370921567215508e+00	 7.050406863320510e-01	 4.273508269726978e+00
 2.364358041923826e+00	 7.267477897228267e-01	 4.325242664657684e+00
 2.357580105819843e+00	 7.484431662070755e-01	 4.393843143754316e+00
 2.350587214564840e+00	 7.701238127196205e-01	 4.478391366673073e+00
 2.343378876978828e+00	 7.917867031634892e-01	 4.574836474608505e+00
 2.335954655855042e+00	 8.134287895180705e-01	 4.677141343954646e+00
 2.328314168748661e+00	 8.350470029768464e-01	 4.778306081325971e+00
 2.320457088738592e+00	 8.566382551140787e-01	 4.870382716023628e+00
 2.397854772018683e+00	 6.421611579079286e-01	 4.166397089034128e+00
 2.391909562778341e+00	 6.639631623918123e-01	 4.189951537028208e+00
 2.385751128305029e+00	 6.857622901229081e-01	 4.231919103590593e+00
 2.379378767418929e+00	 7.075556030331569e-01	 4.290839383774514e+00
 2.372791829692784e+00	 7.293401367879123e-01	 4.364060022977315e+00
 2.365989716339909e+00	 7.511129018056970e-01	 4.448095070502259e+00
 2.358971881079847e+00	 7.728708843092401e-01	 4.540822194782352e+00
 2.351737830980490e+00	 7.946110474073220e-01	 4.637517452693902e+00
 2.344287127275481e+00	 8.163303322068803e-01	 4.732045206620000e+00
 2.336619386155741e+00	 8.380256589548013e-01	 4.817299667152868e+00
 2.328734279533980e+00	 8.596939282087687e-01	 4.885219906406390e+00
 2.406377753920809e+00	 6.444436680908577e-01	 4.033215228428005e+00
 2.400411412912772e+00	 6.663231660462197e-01	 4.096079115934006e+00
 2.394231088780065e+00	 6.881997770237134e-01	 4.172184083310102e+00
 2.387836077850523e+00	 7.100705525121414e-01	 4.259809625495893e+00
 2.381225727384938e+00	 7.319325176403579e-01	 4.356093441361899e+00
 2.374399436468224e+00	 7.537826722006462e-01	 4.457307280703638e+00
 2.367356656878152e+00	 7.756179917034952e-01	 4.559950084940031e+00
 2.360096893930464e+00	 7.974354284632876e-01	 4.658872270540183e+00
 2.352619707299179e+00	 8.192319127143596e-01	 4.747867670602268e+00
 2.344924711810938e+00	 8.410043537568513e-01	 4.819802341447762e+00
 2.337011578212228e+00	 8.627496411317159e-01	 4.866630649802559e+00
 2.414900863810222e+00	 6.467262125482436e-01	 3.848566912770250e+00
 2.408913390717305e+00	 6.686832051389422e-01	 3.948430893925559e+00
 2.402711176596659e+00	 6.906373005266060e-01	 4.057662605690976e+00
 2.396293515283728e+00	 7.125855397567337e-01	 4.174076266998254e+00
 2.389659751727306e+00	 7.345249374215101e-01	 4.294440016306053e+00
 2.382809282883867e+00	 7.564524826868108e-01	 4.414453012230036e+00
 2.375741558589372e+00	 7.783651403507136e-01	 4.529214547403249e+00
 2.368456082407380e+00	 8.002598519330307e-01	 4.633317395554716e+00
 2.360952412452252e+00	 8.221335367953236e-01	 4.720514055731391e+00
 2.353230162186319e+00	 8.439830932908107e-01	 4.783721024914476e+00
 2.345289001189816e+00	 8.658053999435387e-01	 4.815036707044850e+00
 2.262518394906619e+00	 8.352491495505205e-01	 3.793700821231352e+00
 2.254644690221028e+00	 8.562755510073792e-01	 3.890402091302948e+00
 2.246559254862706e+00	 8.772695764783921e-01	 3.917386225657098e+00
 2.238261935071895e+00	 8.982281617561039e-01	 3.886806144461557e+00
 2.229752633954296e+00	 9.191482282730243e-01	 3.810593494614735e+00
 2.221031312078379e+00	 9.400266843708884e-01	 3.700537380968769e+00
 2.212097988040086e+00	 9.608604265935810e-01	 3.573018948743715e+00
 2.202952738993927e+00	 9.816463410027958e-01	 3.442933437877675e+00
 2.193595701149540e+00	 1.002381304515459e+00	 3.322050879129904e+00
 2.184027070232773e+00	 1.023062186261888e+00	 3.221732329933888e+00
 2.174247101910407e+00	 1.043685848963648e+00	 3.152893740950201e+00
 2.270795290183433e+00	 8.383047135447205e-01	 4.054921578330227e+00
 2.262892781387759e+00	 8.594080351814513e-01	 4.178094134806007e+00
 2.254777767352143e+00	 8.804788623923592e-01	 4.225285734380689e+00
 2.246450093754339e+00	 9.015141197603106e-01	 4.207610978668050e+00
 2.237909663345580e+00	 9.225107174556043e-01	 4.136283487803492e+00
 2.229156436550089e+00	 9.434655525098746e-01	 4.022634910770392e+00
 2.220190432031832e+00	 9.643755101137453e-01	 3.878334400466046e+00
 2.211011727227574e+00	 9.852374649373047e-01	 3.720654025795481e+00
 2.201620458845245e+00	 1.006048282472418e+00	 3.564438529352906e+00
 2.192016823326705e+00	 1.026804820395856e+00	 3.422095997415749e+00
 2.182201077274037e+00	 1.047503929952193e+00	 3.305944328464735e+00
 2.279072178427747e+00	 8.413602749428494e-01	 4.279562791180701e+00
 2.271140865546448e+00	 8.625405166940810e-01	 4.413797089142916e+00
 2.262996272858634e+00	 8.836881455796276e-01	 4.469391722979881e+00
 2.254638245479569e+00	 9.048000749726840e-01	 4.456458960391655e+00
 2.246066685806030e+00	 9.258732037813431e-01	 4.385475573852003e+00
 2.237281554117995e+00	 9.469044177271441e-01	 4.267307001236491e+00
 2.228282869147467e+00	 9.678905906474560e-01	 4.113233782318127e+00
 2.219070708613470e+00	 9.888285858207663e-01	 3.935464368490384e+00
 2.209645209722230e+00	 1.009715257313883e+00	 3.752574818534383e+00
 2.200006569631635e+00	 1.030547451350040e+00	 3.579561903480062e+00
 2.190155045879068e+00	 1.051322007696823e+00	 3.429788901035864e+00
 2.287349076056038e+00	 8.444158398055267e-01	 4.468098621875180e+00
 2.279388959056444e+00	 8.656730017584985e-01	 4.600759030060467e+00
 2.271214787682855e+00	 8.868974324058002e-01	 4.655148638600161e+00
 2.262826406488048e+00	 9.080860339109358e-01	 4.640412684419870e+00
 2.254223717514355e+00	 9.292356939197759e-01	 4.566271982278266e+00
 2.245406680897510e+00	 9.503432868437472e-01	 4.443051541641015e+00
 2.236375315437564e+00	 9.714056751669474e-01	 4.281711311635075e+00
 2.227129699135804e+00	 9.924197107762448e-01	 4.093878956364990e+00
 2.217669969696763e+00	 1.013382236313375e+00	 3.892897060300788e+00
 2.207996324994358e+00	 1.034290086548014e+00	 3.698702849509657e+00
 2.198109023501284e+00	 1.055140089770742e+00	 3.526563829513582e+00
 2.295625999484788e+00	 8.474714141933701e-01	 4.620994791649464e+00
 2.287637078277101e+00	 8.688054965879354e-01	 4.742179958532811e+00
 2.279433328125484e+00	 8.901067292364798e-01	 4.787921578236546e+00
 2.271014593020246e+00	 9.113720030927777e-01	 4.766432486425672e+00
 2.262380774649266e+00	 9.325981945404379e-01	 4.686658143516025e+00
 2.253531833004051e+00	 9.537821666807349e-01	 4.558309018579902e+00
 2.244467786952697e+00	 9.749207706444541e-01	 4.391895019991618e+00
 2.235188714778766e+00	 9.960108469268052e-01	 4.198761866148445e+00
 2.225694754685102e+00	 1.017049226744411e+00	 3.991129263999175e+00
 2.215986105261665e+00	 1.038032733413349e+00	 3.784011906380925e+00
 2.206063025916469e+00	 1.058958183747155e+00	 3.598360597494199e+00
 2.303902965130477e+00	 8.505270041669979e-01	 4.738708904973319e+00
 2.295885239567763e+00	 8.719380073956221e-01	 4.841212855041679e+00
 2.287651910487201e+00	 8.933160424372689e-01	 4.872997923510686e+00
 2.279202821316628e+00	 9.146579890359218e-01	 4.841378508368831e+00
 2.270537873389478e+00	 9.359607123128643e-01	 4.754505034992007e+00
 2.261657026553031e+00	 9.572210640591571e-01	 4.621399422650873e+00
 2.252560299743440e+00	 9.784358840522107e-01	 4.451992582562785e+00
 2.243247771526545e+00	 9.996020013955126e-01	 4.257163833932249e+00
 2.233719580603510e+00	 1.020716235880510e+00	 4.048782098252235e+00
 2.223975926280349e+00	 1.041775399369618e+00	 3.839748705771937e+00
 2.214017068900405e+00	 1.062776297199268e+00	 3.647226642895103e+00
 2.312179989409584e+00	 8.535826157870279e-01	 4.821690770077995e+00
 2.304133459287780e+00	 8.750705403947892e-01	 4.900964714450442e+00
 2.295870551068684e+00	 8.965253783737703e-01	 4.915588943498651e+00
 2.287391107617659e+00	 9.179439982580789e-01	 4.872012722709192e+00
 2.278695029913700e+00	 9.393232539065900e-01	 4.777571480081377e+00
 2.269782277659865e+00	 9.606599858000637e-01	 4.640524675535621e+00
 2.260652869860363e+00	 9.819510223624504e-01	 4.470095752517670e+00
 2.251306885363327e+00	 1.003193181305431e+00	 4.276514053396477e+00
 2.241744463368251e+00	 1.024383270995191e+00	 4.071058553408358e+00
 2.231965803897203e+00	 1.045518091840396e+00	 3.866103240860030e+00
 2.221971168228874e+00	 1.066594437700284e+00	 3.675166185349065e+00
 2.320457088738592e+00	 8.566382551140787e-01	 4.870382716023628e+00
 2.312381753796503e+00	 8.782031017986682e-01	 4.924497561980790e+00
 2.304089266170612e+00	 8.997347434115873e-01	 4.920831366440371e+00
 2.295579468163808e+00	 9.212300372769618e-01	 4.865000916500021e+00
 2.286852260400646e+00	 9.426858259911503e-01	 4.763506401162878e+00
 2.277907602439966e+00	 9.640989387245048e-01	 4.623771008620561e+00
 2.268745513354044e+00	 9.854661925474093e-01	 4.454182721937748e+00
 2.259366072273304e+00	 1.006784393779626e+00	 4.264138191922351e+00
 2.249769418895582e+00	 1.028050339361972e+00	 4.064088538345983e+00
 2.239955753959019e+00	 1.049260818249255e+00	 3.865586902853772e+00
 2.229925339677661e+00	 1.070412612823410e+00	 3.681337549071173e+00
 2.328734279533980e+00	 8.596939282087687e-01	 4.885219906406390e+00
 2.320630139453281e+00	 8.813356978204894e-01	 4.914829450786664e+00
 2.312308072093663e+00	 9.029441439163223e-01	 4.893788921137739e+00
 2.303767919195540e+00	 9.245161126102819e-01	 4.826914636399102e+00
 2.295009581029028e+00	 9.460484352360796e-01	 4.719851027959262e+00
 2.286033017008748e+00	 9.675379296535310e-01	 4.579111294409001e+00
 2.276838246275052e+00	 9.889814015793197e-01	 4.412120436166894e+00
 2.267425348240664e+00	 1.010375645941163e+00	 4.227260547970628e+00
 2.257794463101769e+00	 1.031717448254372e+00	 4.033918218730742e+00
 2.247945792312591e+00	 1.053003586019767e+00	 3.842533859522807e+00
 2.237879599022548e+00	 1.074230830141849e+00	 3.664652751759716e+00
 2.337011578212228e+00	 8.627496411317159e-01	 4.866630649802559e+00
 2.328878632617463e+00	 8.844683346734837e-01	 4.874935441605273e+00
 2.320526985138517e+00	 9.061535862535784e-01	 4.839453848824998e+00
 2.311956476953323e+00	 9.278022307757506e-01	 4.764233095605122e+00
 2.303167007977557e+00	 9.494110883109137e-01	 4.654041062315571e+00
 2.294158537481629e+00	 9.709769654081926e-01	 4.514407331941530e+00
 2.284931084673964e+00	 9.924966564304178e-01	 4.351666862795391e+00
 2.275484729249596e+00	 1.013966944913105e+00	 4.173006166769273e+00
 2.265819611903070e+00	 1.035384604945910e+00	 3.986511842864239e+00
 2.255935934804709e+00	 1.056746402575507e+00	 3.801221286010680e+00
 2.245833962039317e+00	 1.078049097228806e+00	 3.627175361439553e+00
 2.345289001189816e+00	 8.658053999435387e-01	 4.815036707044849e+00
 2.337127249648398e+00	 8.876010185708825e-01	 4.807748564953096e+00
 2.328746021605851e+00	 9.093630767889582e-01	 4.762748386273260e+00
 2.320145157677621e+00	 9.310883982910803e-01	 4.683345043698442e+00
 2.311324557424947e+00	 9.527737918851877e-01	 4.573408800534129e+00
 2.302284179974021e+00	 9.744160528095396e-01	 4.437412087406315e+00
 2.293024044601351e+00	 9.960119640729374e-01	 4.280473216445184e+00
 2.283544231284290e+00	 1.017558297818519e+00	 4.108402915386561e+00
 2.273844881215751e+00	 1.039051816710104e+00	 3.927753533467474e+00
 2.263926197282168e+00	 1.060489275340046e+00	 3.745870740158089e+00
 2.253788444503754e+00	 1.081867421657487e+00	 3.570947506882522e+00
 2.174247101910407e+00	 1.043685848963648e+00	 3.152893740950201e+00
 2.164257828117094e+00	 1.064245660079298e+00	 3.142190408424405e+00
 2.154057979603053e+00	 1.084741984992150e+00	 3.199384428559495e+00
 2.143647992280264e+00	 1.105171676113251e+00	 3.309948317186854e+00
 2.133028363287593e+00	 1.125531585092218e+00	 3.457800442123421e+00
 2.122199651223107e+00	 1.145818564275578e+00	 3.622580256416212e+00
 2.111162476335520e+00	 1.166029468177674e+00	 3.787703040531778e+00
 2.099917520674204e+00	 1.186161154962848e+00	 3.936906756799816e+00
 2.088465528197159e+00	 1.206210487937535e+00	 4.054035865601749e+00
 2.076807304836467e+00	 1.226174337050922e+00	 4.123108362612233e+00
 2.064943718520748e+00	 1.246049580402761e+00	 4.128385494278995e+00
 2.182201077274037e+00	 1.047503929952193e+00	 3.305944328464737e+00
 2.172175260055250e+00	 1.068138954336390e+00	 3.247917331592038e+00
 2.161938097777304e+00	 1.088710260268420e+00	 3.262759953844899e+00
 2.151490027946855e+00	 1.109214688644599e+00	 3.337040347719367e+00
 2.140831549521430e+00	 1.129649079597028e+00	 3.454406847731482e+00
 2.129963223142588e+00	 1.150010273957264e+00	 3.595800276987577e+00
 2.118885671328078e+00	 1.170295114732615e+00	 3.745262243107581e+00
 2.107599578622378e+00	 1.190500448593737e+00	 3.886668222256173e+00
 2.096105691705081e+00	 1.210623127372194e+00	 4.003762797113798e+00
 2.084404819456578e+00	 1.230660009566597e+00	 4.080226226718384e+00
 2.072497832980598e+00	 1.250607961855945e+00	 4.099744086988897e+00
 2.190155045879068e+00	 1.051322007696823e+00	 3.429788901035864e+00
 2.180092685265895e+00	 1.072032245285613e+00	 3.337550792763966e+00
 2.169818209255819e+00	 1.092678532173049e+00	 3.319991434698468e+00
 2.159332056950160e+00	 1.113257697740727e+00	 3.364865894462163e+00
 2.148634729125098e+00	 1.133766570603249e+00	 3.455601688293993e+00
 2.137726788465682e+00	 1.154201980077221e+00	 3.575064997131243e+00
 2.126608859758675e+00	 1.174560757662926e+00	 3.707957767551218e+00
 2.115281630043663e+00	 1.194839738537354e+00	 3.838596686381567e+00
 2.103745848721818e+00	 1.215035763057208e+00	 3.950975487270212e+00
 2.092002327621830e+00	 1.235145678270544e+00	 4.028831066678018e+00
 2.080051941022524e+00	 1.255166339435620e+00	 4.055713001192033e+00
 2.198109023501284e+00	 1.055140089770742e+00	 3.526563829513582e+00
 2.188010119452279e+00	 1.075925540649333e+00	 3.410732799221443e+00
 2.177698329667777e+00	 1.096646808577094e+00	 3.368679099165215e+00
 2.167174094843762e+00	 1.117300711420900e+00	 3.389257788277466e+00
 2.156437917575068e+00	 1.137884066277843e+00	 3.456292926091427e+00
 2.145490362590222e+00	 1.158393690949569e+00	 3.554609273894346e+00
 2.134332056945008e+00	 1.178826405429338e+00	 3.669797032839027e+00
 2.122963690174114e+00	 1.199179033400459e+00	 3.786914788672334e+00
 2.111386014400291e+00	 1.219448403744773e+00	 3.890551103918287e+00
 2.099599844400525e+00	 1.239631352059772e+00	 3.964890194434020e+00
 2.087606057628739e+00	 1.259724722182968e+00	 3.993781276508011e+00
 2.206063025916469e+00	 1.058958183747155e+00	 3.598360597494199e+00
 2.195927578317650e+00	 1.079818848149917e+00	 3.467096158925227e+00
 2.185578474642357e+00	 1.100615097351617e+00	 3.406443144270190e+00
 2.175016157181246e+00	 1.121343737704382e+00	 3.406267649415515e+00
 2.164241130347803e+00	 1.142001574787767e+00	 3.451455809224502e+00
 2.153253960914043e+00	 1.162585414888432e+00	 3.528746028010693e+00
 2.142055278204773e+00	 1.183092066492578e+00	 3.624869898060268e+00
 2.130645774249785e+00	 1.203518341789813e+00	 3.725925616942156e+00
 2.119026203893421e+00	 1.223861058187083e+00	 3.817438940697698e+00
 2.107197384860967e+00	 1.244117039831291e+00	 3.884428436250503e+00
 2.095160197781454e+00	 1.264283119139172e+00	 3.911474612546287e+00
 2.214017068900405e+00	 1.062776297199268e+00	 3.647226642895102e+00
 2.203845077565253e+00	 1.083712175509728e+00	 3.506264687207497e+00
 2.193458659808739e+00	 1.104583406367678e+00	 3.430923425034356e+00
 2.182858259516197e+00	 1.125386784610440e+00	 3.412024646921336e+00
 2.172044382919772e+00	 1.146119104299983e+00	 3.436132214120940e+00
 2.161017598834980e+00	 1.166777160207931e+00	 3.491865431425230e+00
 2.149778538855663e+00	 1.187357749313377e+00	 3.567347810150596e+00
 2.138327897506732e+00	 1.207857672312177e+00	 3.650011929686987e+00
 2.126666432354129e+00	 1.228273735136334e+00	 3.726659827602292e+00
 2.114794964071461e+00	 1.248602750482109e+00	 3.783527844091931e+00
 2.102714376462878e+00	 1.268841539345415e+00	 3.806355492691392e+00
 2.221971168228874e+00	 1.066594437700284e+00	 3.675166185349065e+00
 2.211762632898338e+00	 1.087605530451136e+00	 3.527853413383160e+00
 2.201338900796104e+00	 1.108551743496337e+00	 3.439779154927975e+00
 2.190700417402197e+00	 1.129429860158338e+00	 3.402707274820526e+00
 2.179847690767442e+00	 1.150236662981450e+00	 3.405430015172179e+00
 2.168781291750868e+00	 1.170968935222187e+00	 3.438434125819733e+00
 2.157501854215372e+00	 1.191623462352464e+00	 3.491482983962068e+00
 2.146010075181009e+00	 1.212197033574312e+00	 3.553635409601340e+00
 2.134306714935337e+00	 1.232686443344719e+00	 3.613305569006081e+00
 2.122392597100310e+00	 1.253088492909236e+00	 3.658327428297778e+00
 2.110268608655223e+00	 1.273399991842879e+00	 3.676023320554263e+00
 2.229925339677661e+00	 1.070412612823410e+00	 3.681337549071173e+00
 2.219680260020152e+00	 1.091498920696504e+00	 3.531468787288516e+00
 2.209219213233630e+00	 1.112520116608654e+00	 3.430678316509031e+00
 2.198542646392831e+00	 1.133472972367343e+00	 3.374543006405946e+00
 2.187651069367277e+00	 1.154354258999129e+00	 3.354522480846346e+00
 2.176545055059542e+00	 1.175160748245323e+00	 3.362994471389465e+00
 2.165225239601598e+00	 1.195889214070569e+00	 3.391607613887230e+00
 2.153692322508668e+00	 1.216536434182978e+00	 3.431335947496528e+00
 2.141947066789965e+00	 1.237099191564434e+00	 3.472538408500820e+00
 2.129990299015817e+00	 1.257574276009681e+00	 3.505022911059446e+00
 2.117822909340700e+00	 1.277958485672748e+00	 3.518114568819829e+00
 2.237879599022548e+00	 1.074230830141849e+00	 3.664652751759716e+00
 2.227597974633942e+00	 1.095392353968200e+00	 3.515396437064579e+00
 2.217099612750497e+00	 1.116488533575690e+00	 3.401212331819257e+00
 2.206384962041681e+00	 1.137516129256720e+00	 3.323807968264204e+00
 2.195454534195748e+00	 1.158471900519979e+00	 3.278647695643858e+00
 2.184308904158836e+00	 1.179352607591460e+00	 3.260163825143227e+00
 2.172948710332034e+00	 1.200155012928420e+00	 3.262133116279199e+00
 2.161374654725767e+00	 1.220875882744937e+00	 3.277730955894267e+00
 2.149587503070937e+00	 1.241511988547674e+00	 3.299590519912585e+00
 2.137588084886287e+00	 1.262060108680452e+00	 3.319866500222742e+00
 2.125377293501519e+00	 1.282517029876202e+00	 3.330302940230104e+00
 2.245833962039317e+00	 1.078049097228806e+00	 3.627175361439553e+00
 2.235515792442957e+00	 1.099285837988589e+00	 3.475299947841435e+00
 2.224980114975884e+00	 1.120457002268505e+00	 3.348775864703421e+00
 2.214227379902334e+00	 1.141559338845734e+00	 3.246826633580270e+00
 2.203258100729319e+00	 1.162589595710960e+00	 3.173108007281304e+00
 2.192072854446586e+00	 1.183544521574720e+00	 3.124633848021700e+00
 2.180672281724375e+00	 1.204420867386748e+00	 3.097549401932798e+00
 2.169057087068358e+00	 1.225215387866951e+00	 3.087514711591704e+00
 2.157228038931172e+00	 1.245924843046632e+00	 3.089763523884209e+00
 2.145185969780024e+00	 1.266545999818560e+00	 3.099166682953695e+00
 2.132931776119892e+00	 1.287075633494425e+00	 3.110299540451195e+00
 2.253788444503754e+00	 1.081867421657487e+00	 3.570947506882522e+00
 2.243433729150446e+00	 1.103179380480039e+00	 3.410704063392142e+00
 2.232860735538972e+00	 1.124425530558159e+00	 3.267409166936424e+00
 2.222069915528371e+00	 1.145602609153650e+00	 3.139971534273083e+00
 2.211061784444457e+00	 1.166707352739031e+00	 3.033269498508564e+00
 2.199836921320626e+00	 1.187736498509225e+00	 2.951169840150607e+00
 2.188395969096317e+00	 1.208686785906282e+00	 2.892424177914182e+00
 2.176739634772497e+00	 1.229554958155779e+00	 2.855457726515268e+00
 2.164868689523592e+00	 1.250337763813504e+00	 2.838428029429890e+00
 2.152783968765333e+00	 1.271031958321013e+00	 2.839288038820433e+00
 2.140486372178029e+00	 1.291634305568600e+00	 2.855853062581041e+00
 2.064943718520748e+00	 1.246049580402761e+00	 4.128385494278994e+00
 2.052875699653055e+00	 1.265833106151361e+00	 4.050566668645136e+00
 2.040604242534051e+00	 1.285521815239163e+00	 3.892099761278804e+00
 2.028130403740126e+00	 1.305112621772199e+00	 3.670113934531233e+00
 2.015455301466299e+00	 1.324602454152327e+00	 3.401787787022490e+00
 2.002580115325494e+00	 1.343988256597492e+00	 3.104378596794460e+00
 1.989506086103193e+00	 1.363266990660227e+00	 2.795251694188893e+00
 1.976234515467395e+00	 1.382435636742910e+00	 2.491909502639960e+00
 1.962766765633880e+00	 1.401491195608219e+00	 2.212019778385074e+00
 1.949104258986799e+00	 1.420430689883295e+00	 1.973442576475595e+00
 1.935248477654718e+00	 1.439251165556041e+00	 1.794255470495985e+00
 2.072497832980598e+00	 1.250607961855945e+00	 4.099744086988897e+00
 2.060385666083847e+00	 1.270463861014588e+00	 4.040321289349506e+00
 2.048069316704406e+00	 1.290224596647789e+00	 3.901545693059016e+00
 2.035549845283896e+00	 1.309887071572553e+00	 3.699623883929982e+00
 2.022828374107993e+00	 1.329448202954017e+00	 3.450921074629168e+00
 2.009906087104954e+00	 1.348904923831257e+00	 3.171993951224001e+00
 1.996784229599385e+00	 1.368254184641358e+00	 2.879623521816030e+00
 1.983464108021130e+00	 1.387492954740201e+00	 2.590847487326621e+00
 1.969947089569313e+00	 1.406618223918459e+00	 2.322991647352683e+00
 1.956234601831544e+00	 1.425627003911244e+00	 2.093699850527918e+00
 1.942328132358409e+00	 1.444516329899898e+00	 1.920961999099214e+00
 2.080051941022524e+00	 1.255166339435620e+00	 4.055713001192033e+00
 2.067895626134259e+00	 1.275094611942842e+00	 4.008803384133442e+00
 2.055534384532526e+00	 1.294927374060297e+00	 3.886244421418811e+00
 2.042969280524187e+00	 1.314661517315974e+00	 3.703087987279819e+00
 2.030201440485569e+00	 1.334293947638285e+00	 3.474627623847359e+00
 2.017232052660271e+00	 1.353821586887445e+00	 3.216435245677003e+00
 2.004062366912016e+00	 1.373241374385090e+00	 2.944397757153553e+00
 1.990693694432500e+00	 1.392550268440615e+00	 2.674753084322651e+00
 1.977127407404193e+00	 1.411745247872681e+00	 2.424125115506433e+00
 1.963364938618164e+00	 1.430823313524385e+00	 2.209557041640770e+00
 1.949407781047018e+00	 1.449781489770505e+00	 2.048542587713889e+00
 2.087606057628739e+00	 1.259724722182968e+00	 3.993781276508011e+00
 2.075405594698942e+00	 1.279725368120815e+00	 3.955111759793233e+00
 2.062999460824043e+00	 1.299630156804208e+00	 3.846653505063941e+00
 2.050388724176149e+00	 1.319435968472097e+00	 3.682074131996616e+00
 2.037574515222249e+00	 1.339139697816155e+00	 3.475340012300957e+00
 2.024558026521288e+00	 1.358738255517717e+00	 3.240757086803136e+00
 2.011340512476121e+00	 1.378228569782951e+00	 2.993011544425105e+00
 1.997923289040297e+00	 1.397607587874744e+00	 2.747209845692200e+00
 1.984307733379644e+00	 1.416872277639734e+00	 2.518917566086523e+00
 1.970495283488694e+00	 1.436019629028974e+00	 2.324196531127718e+00
 1.956487437762086e+00	 1.455046655610667e+00	 2.179639715597749e+00
 2.095160197781454e+00	 1.264283119139172e+00	 3.911474612546287e+00
 2.082915586672545e+00	 1.284356138733201e+00	 3.878359729305679e+00
 2.070464560384584e+00	 1.304332954207039e+00	 3.783226439747163e+00
 2.057808190954932e+00	 1.324210434510561e+00	 3.638131116706214e+00
 2.044947612941255e+00	 1.343985463098655e+00	 3.455460202451157e+00
 2.031884023217855e+00	 1.363654939473736e+00	 3.247975392925054e+00
 2.018618680726733e+00	 1.383215780726467e+00	 3.028858670923258e+00
 2.005152906183309e+00	 1.402664923073183e+00	 2.811756651518933e+00
 1.991488081736781e+00	 1.421999323388458e+00	 2.610823695530875e+00
 1.977625650585169e+00	 1.441215960731266e+00	 2.440763243297435e+00
 1.963567116545152e+00	 1.460311837863190e+00	 2.316866821571304e+00
 2.102714376462878e+00	 1.268841539345415e+00	 3.806355492691393e+00
 2.090425616949721e+00	 1.288986932964692e+00	 3.777675670576391e+00
 2.077929698019778e+00	 1.309035775596313e+00	 3.696413586666517e+00
 2.065227695575687e+00	 1.328984924901003e+00	 3.572789884661516e+00
 2.052320748265806e+00	 1.348831253096813e+00	 3.417361016133158e+00
 2.039210057279817e+00	 1.368571648507169e+00	 3.241069046577628e+00
 2.025896886098886e+00	 1.388203017107166e+00	 3.055291335266089e+00
 2.012382560200324e+00	 1.407722284066526e+00	 2.871889532475794e+00
 1.998668466716727e+00	 1.427126395287697e+00	 2.703257329884660e+00
 1.984756054049619e+00	 1.446412318937514e+00	 2.562366396208360e+00
 1.970646831437752e+00	 1.465577046970878e+00	 2.462809930650284e+00
 2.110268608655223e+00	 1.273399991842879e+00	 3.676023320554263e+00
 2.097935700425119e+00	 1.293617759999984e+00	 3.652203588723154e+00
 2.085394888535255e+00	 1.313738630299545e+00	 3.586663096698285e+00
 2.072647252753565e+00	 1.333759449113062e+00	 3.487564746708514e+00
 2.059693935819126e+00	 1.353677077421653e+00	 3.363387593753510e+00
 2.046536143237021e+00	 1.373488392369676e+00	 3.222981528198742e+00
 2.033175143027613e+00	 1.393190288816571e+00	 3.075621894655913e+00
 2.019612265430133e+00	 1.412779680885367e+00	 2.931063470587120e+00
 2.005848902560600e+00	 1.432253503506297e+00	 2.799593219909898e+00
 1.991886508024080e+00	 1.451608713953973e+00	 2.692081232926556e+00
 1.977726596481428e+00	 1.470842293376535e+00	 2.620029264256285e+00
 2.117822909340700e+00	 1.277958485672748e+00	 3.518114568819829e+00
 2.105445851993391e+00	 1.298248629023768e+00	 3.501103681860136e+00
 2.092860146736643e+00	 1.318441527644255e+00	 3.454421830629695e+00
 2.080066877203716e+00	 1.338534016616374e+00	 3.383954594129183e+00
 2.067067190224434e+00	 1.358522945684203e+00	 3.295858838603276e+00
 2.053862295619314e+00	 1.378405180812922e+00	 3.196622531518576e+00
 2.040453465947949e+00	 1.398177605746212e+00	 3.093124591744280e+00
 2.026842036211525e+00	 1.417837123560299e+00	 2.992694178809675e+00
 2.013029403509521e+00	 1.437380658213101e+00	 2.903168815510874e+00
 1.999017026650585e+00	 1.456805156086900e+00	 2.832950733858326e+00
 1.984806425717717e+00	 1.476107587522967e+00	 2.791060834500002e+00
 2.125377293501519e+00	 1.282517029876202e+00	 3.330302940230104e+00
 2.112956086549185e+00	 1.302879549220738e+00	 3.323552910351285e+00
 2.100325487429571e+00	 1.323144476957964e+00	 3.300136275552778e+00
 2.087486583641290e+00	 1.343308636880577e+00	 3.263444101681088e+00
 2.074440526104950e+00	 1.363368867495487e+00	 3.217068846730267e+00
 2.061188528956544e+00	 1.383322023588570e+00	 3.164869561180022e+00
 2.047731869294926e+00	 1.403164977787615e+00	 3.111037261691159e+00
 2.034071886883286e+00	 1.422894622121917e+00	 3.060159860042803e+00
 2.020209983804609e+00	 1.442507869576952e+00	 3.017286020074843e+00
 2.006147624071167e+00	 1.462001655642545e+00	 2.987987310713977e+00
 1.991886333188158e+00	 1.481372939852978e+00	 2.978418023019011e+00
 2.132931776119892e+00	 1.287075633494425e+00	 3.110299540451195e+00
 2.120466418987154e+00	 1.307510529775587e+00	 3.118745569503454e+00
 2.107790925419667e+00	 1.327847487568190e+00	 3.124253457578085e+00
 2.094906386781438e+00	 1.348083319375308e+00	 3.127504921145899e+00
 2.081813958083897e+00	 1.368214852466534e+00	 3.129288322802524e+00
 2.068514857778556e+00	 1.388238930448284e+00	 3.130569513108911e+00
 2.055010367503581e+00	 1.408152414832305e+00	 3.132563019990946e+00
 2.041301831784208e+00	 1.427952186600814e+00	 3.136802946161739e+00
 2.027390657686984e+00	 1.447635147766694e+00	 3.145212925311605e+00
 2.013278314427861e+00	 1.467198222927167e+00	 3.160174482644958e+00
 1.998966332934291e+00	 1.486638360809374e+00	 3.184266389382433e+00
 2.140486372178029e+00	 1.291634305568600e+00	 2.855853062581041e+00
 2.127976864201949e+00	 1.312141579873010e+00	 2.885893865672188e+00
 2.115256475512560e+00	 1.332550568802452e+00	 2.927221851023371e+00
 2.102326301339311e+00	 1.352858073570206e+00	 2.977596865691303e+00
 2.089187500784497e+00	 1.373060910208370e+00	 3.034765982384076e+00
 2.075841296615198e+00	 1.393155911143726e+00	 3.096540238139388e+00
 2.062288975008945e+00	 1.413139926771810e+00	 3.160871931622929e+00
 2.048531885253080e+00	 1.433009827027587e+00	 3.225931817652592e+00
 2.034571439397766e+00	 1.452762502951173e+00	 3.290185527160553e+00
 2.020409111862701e+00	 1.472394868247019e+00	 3.352468535082107e+00
 2.006046438997654e+00	 1.491903860834959e+00	 3.410830418082720e+00
 1.935248477654718e+00	 1.439251165556041e+00	 1.794255470495985e+00
 1.921198559930043e+00	 1.457952860094976e+00	 1.693106379109937e+00
 1.906958452650192e+00	 1.476529650413391e+00	 1.669142341140726e+00
 1.892529823022367e+00	 1.494978649281559e+00	 1.707608334283011e+00
 1.877914395939055e+00	 1.513296998677638e+00	 1.787086710345781e+00
 1.863113953331427e+00	 1.531481871228614e+00	 1.895704426956879e+00
 1.848130333479975e+00	 1.549530471634388e+00	 2.022897142441188e+00
 1.832965430282894e+00	 1.567440038073481e+00	 2.170346391100102e+00
 1.817621192482792e+00	 1.585207843588931e+00	 2.332989197027400e+00
 1.802099622852384e+00	 1.602831197452905e+00	 2.500315026873851e+00
 1.786402777339841e+00	 1.620307446508633e+00	 2.661367879230226e+00
 1.942328132358409e+00	 1.444516329899898e+00	 1.920961999099214e+00
 1.928226816289955e+00	 1.463286440221663e+00	 1.824158462747913e+00
 1.913934614902197e+00	 1.481931189389951e+00	 1.803422725765745e+00
 1.899453201501433e+00	 1.500447679612784e+00	 1.840690416143188e+00
 1.884784307290280e+00	 1.518833042412918e+00	 1.918007238184241e+00
 1.869929720718701e+00	 1.537084440074063e+00	 2.024216249119294e+00
 1.854891286792119e+00	 1.555199067070170e+00	 2.148357271270920e+00
 1.839670906337125e+00	 1.573174151476286e+00	 2.285520874582098e+00
 1.824270535225360e+00	 1.591006956359518e+00	 2.437351265564763e+00
 1.808692183556227e+00	 1.608694781148640e+00	 2.593752672707892e+00
 1.792937914799115e+00	 1.626234962980931e+00	 2.743800500955506e+00
 1.949407781047018e+00	 1.449781489770505e+00	 2.048542587713889e+00
 1.935255066678454e+00	 1.468620015817002e+00	 1.960230924757102e+00
 1.920910771227061e+00	 1.487332723777429e+00	 1.944519161934994e+00
 1.906376574098234e+00	 1.505916705297574e+00	 1.981257798137150e+00
 1.891654212804704e+00	 1.524369081444804e+00	 2.056356830633814e+00
 1.876745482315218e+00	 1.542687004159561e+00	 2.159074303439124e+00
 1.861652234360123e+00	 1.560867657689864e+00	 2.278841401097887e+00
 1.846376376694392e+00	 1.578908260007298e+00	 2.406443221900770e+00
 1.830919872318692e+00	 1.596806064203054e+00	 2.544954634411657e+00
 1.815284738659103e+00	 1.614558359862522e+00	 2.687907362675158e+00
 1.799473046706223e+00	 1.632162474417046e+00	 2.824657914550379e+00
 1.956487437762086e+00	 1.455046655610667e+00	 2.179639715597749e+00
 1.942283325035166e+00	 1.473953597459489e+00	 2.103349968635536e+00
 1.927886935461115e+00	 1.492734264289111e+00	 2.093509538572574e+00
 1.913299954544422e+00	 1.511385737183076e+00	 2.130457148118809e+00
 1.898524126107944e+00	 1.529905126753355e+00	 2.202891268247775e+00
 1.883561251639214e+00	 1.548289574597118e+00	 2.300705501058486e+00
 1.868413189593504e+00	 1.566536254736439e+00	 2.413949611477326e+00
 1.853081854654183e+00	 1.584642375039440e+00	 2.532841630390573e+00
 1.837569216950940e+00	 1.602605178621381e+00	 2.655421381372006e+00
 1.821877301236541e+00	 1.620421945224268e+00	 2.782291297692452e+00
 1.806008186022798e+00	 1.638089992573499e+00	 2.903389757742848e+00
 1.963567116545152e+00	 1.460311837863190e+00	 2.316866821571304e+00
 1.949311605299716e+00	 1.479287195727619e+00	 2.255522216922409e+00
 1.934863121440683e+00	 1.498135821638279e+00	 2.252000928140125e+00
 1.920223356571651e+00	 1.516854786116435e+00	 2.289446561857612e+00
 1.905394060825618e+00	 1.535441189318633e+00	 2.358383298220855e+00
 1.890377042208922e+00	 1.553892162498743e+00	 2.449558416615498e+00
 1.875174165901784e+00	 1.572204869452869e+00	 2.553864968738787e+00
 1.859787353515981e+00	 1.590376507945632e+00	 2.662352229312444e+00
 1.844218582310253e+00	 1.608404311116346e+00	 2.768376828133828e+00
 1.828469884364069e+00	 1.626285548863596e+00	 2.876422474290294e+00
 1.812543345710476e+00	 1.644017529206810e+00	 2.979453223637687e+00
 1.970646831437752e+00	 1.465577046970878e+00	 2.462809930650285e+00
 1.956339921411735e+00	 1.484620821199891e+00	 2.418570868619360e+00
 1.941839343002093e+00	 1.503537406538217e+00	 2.421604841324273e+00
 1.927146793911572e+00	 1.522323862944796e+00	 2.459394856919248e+00
 1.912264030583343e+00	 1.540977280120702e+00	 2.523621812294647e+00
 1.897192867542578e+00	 1.559494778976449e+00	 2.606102367147177e+00
 1.881935176694481e+00	 1.577873513082121e+00	 2.698795090913733e+00
 1.866492886579275e+00	 1.596110670098798e+00	 2.793808927457758e+00
 1.850867981584783e+00	 1.614203473189790e+00	 2.883450827483311e+00
 1.835062501117215e+00	 1.632149182410221e+00	 2.969825951075735e+00
 1.819078538730894e+00	 1.649945096073502e+00	 3.052314317959255e+00
 1.977726596481428e+00	 1.470842293376535e+00	 2.620029264256285e+00
 1.963368287310847e+00	 1.489954484454799e+00	 2.593819782319650e+00
 1.948815613981673e+00	 1.508939029702209e+00	 2.603936645196599e+00
 1.934070280295840e+00	 1.527792978515308e+00	 2.641480859910041e+00
 1.919134049006735e+00	 1.546513410139621e+00	 2.699411020329823e+00
 1.904008741158417e+00	 1.565097435142242e+00	 2.770826488608582e+00
 1.888696235381115e+00	 1.583542196867167e+00	 2.848971143182265e+00
 1.873198467143551e+00	 1.601844872871857e+00	 2.927239525049622e+00
 1.857517427962681e+00	 1.620002676343558e+00	 2.999185567973177e+00
 1.841655164571509e+00	 1.638012857493862e+00	 3.062035116487030e+00
 1.825613778045685e+00	 1.655872704930096e+00	 3.121449118029555e+00
 1.984806425717717e+00	 1.476107587522967e+00	 2.791060834500002e+00
 1.970396716936679e+00	 1.495288196070839e+00	 2.783295942043865e+00
 1.955791948215750e+00	 1.514340701843537e+00	 2.800614972261468e+00
 1.940993829456107e+00	 1.533262143675113e+00	 2.836892687210947e+00
 1.926004129721413e+00	 1.552049590355453e+00	 2.886569619610984e+00
 1.910824676574673e+00	 1.570700142108135e+00	 2.944238810023540e+00
 1.895457355371207e+00	 1.589210932050975e+00	 3.004646832520342e+00
 1.879904108508296e+00	 1.607579127637732e+00	 3.062697291370608e+00
 1.864166934632097e+00	 1.625801932079493e+00	 3.113456985281417e+00
 1.848247887802479e+00	 1.643876585744234e+00	 3.152592957906085e+00
 1.832149076616485e+00	 1.661800367533113e+00	 3.186345033537890e+00
 1.991886333188158e+00	 1.481372939852978e+00	 2.978418023019011e+00
 1.977425224228859e+00	 1.500621966626507e+00	 2.989107803287977e+00
 1.962768359540652e+00	 1.519742433675487e+00	 3.013261120579643e+00
 1.947917455124025e+00	 1.538731369271359e+00	 3.046827019321232e+00
 1.932874286352993e+00	 1.557585831748260e+00	 3.085929959945954e+00
 1.917640687309581e+00	 1.576302910986138e+00	 3.126865325278938e+00
 1.902218550074274e+00	 1.594879729876518e+00	 3.166097401518909e+00
 1.886609823972995e+00	 1.613313445769345e+00	 3.200259895312970e+00
 1.870816514781184e+00	 1.631601251899441e+00	 3.226159195009791e+00
 1.854840683885653e+00	 1.649740378791056e+00	 3.240780555459598e+00
 1.838684447404929e+00	 1.667728095639074e+00	 3.246502069159447e+00
 1.998966332934291e+00	 1.486638360809374e+00	 3.184266389382433e+00
 1.984453823127015e+00	 1.505955806700301e+00	 3.213359276162195e+00
 1.969744861792705e+00	 1.525144235911340e+00	 3.243498445147199e+00
 1.954841171031248e+00	 1.544200666151192e+00	 3.272488368926362e+00
 1.939744532527093e+00	 1.563122145298102e+00	 3.298337204617150e+00
 1.924456786881375e+00	 1.581905752888260e+00	 3.319249062572572e+00
 1.908979832899837e+00	 1.600548601586764e+00	 3.333618621345056e+00
 1.893315626837136e+00	 1.619047838639616e+00	 3.340028336260572e+00
 1.877466181598091e+00	 1.637400647305243e+00	 3.337248461907661e+00
 1.861433565896559e+00	 1.655604248264044e+00	 3.324240079386584e+00
 1.845219903372652e+00	 1.673655901004500e+00	 3.301434089081399e+00
 2.006046438997654e+00	 1.491903860834959e+00	 3.410830418082720e+00
 1.991482527570772e+00	 1.511289726870715e+00	 3.458149245522994e+00
 1.976721468808238e+00	 1.530546119264382e+00	 3.492951740703168e+00
 1.961764990909429e+00	 1.549670045161758e+00	 3.515088342798969e+00
 1.946614881869332e+00	 1.568658541985043e+00	 3.524648487239387e+00
 1.931272988808291e+00	 1.587508678926512e+00	 3.521949151521884e+00
 1.915741217257416e+00	 1.606217558424685e+00	 3.507525783813660e+00
 1.900021530400206e+00	 1.624782317621468e+00	 3.482125875240191e+00
 1.884115948270970e+00	 1.643200129798745e+00	 3.446705409052311e+00
 1.868026546910727e+00	 1.661468205792915e+00	 3.402428389663754e+00
 1.851755457481291e+00	 1.679583795385915e+00	 3.350670083496060e+00
 1.786402777339841e+00	 1.620307446508633e+00	 2.661367879230226e+00
 1.770535471667258e+00	 1.637631048877402e+00	 2.808001763041502e+00
 1.754497187434063e+00	 1.654802438530077e+00	 2.940075281750338e+00
 1.738290105200364e+00	 1.671819112362954e+00	 3.058070993261824e+00
 1.721916454862457e+00	 1.688678609927321e+00	 3.162242272761943e+00
 1.705378514623189e+00	 1.705378514623189e+00	 3.252669239357539e+00
 1.688678609927321e+00	 1.721916454862457e+00	 3.329310344923633e+00
 1.671819112362954e+00	 1.738290105200364e+00	 3.392049248192846e+00
 1.654802438530077e+00	 1.754497187434064e+00	 3.440736643458272e+00
 1.637631048877402e+00	 1.770535471667259e+00	 3.475226761726225e+00
 1.620307446508632e+00	 1.786402777339840e+00	 3.495408312361330e+00
 1.792937914799115e+00	 1.626234962980931e+00	 2.743800500955506e+00
 1.777012562293325e+00	 1.643621939704016e+00	 2.879044889082222e+00
 1.760915605741834e+00	 1.660856146876343e+00	 2.999229590598734e+00
 1.744649233681815e+00	 1.677935072237191e+00	 3.105136150594624e+00
 1.728215684167117e+00	 1.694856246336879e+00	 3.197317845578912e+00
 1.711617243734853e+00	 1.711617243734853e+00	 3.276156734879328e+00
 1.694856246336879e+00	 1.728215684167117e+00	 3.341916208840638e+00
 1.677935072237191e+00	 1.744649233681815e+00	 3.394788648310131e+00
 1.660856146876342e+00	 1.760915605741834e+00	 3.434937857572996e+00
 1.643621939704015e+00	 1.777012562293325e+00	 3.462535982750504e+00
 1.626234962980931e+00	 1.792937914799115e+00	 3.477794679300975e+00
 1.799473046706223e+00	 1.632162474417046e+00	 2.824657914550379e+00
 1.783489647416537e+00	 1.649612825440606e+00	 2.946755597114015e+00
 1.767334018596579e+00	 1.666909850079233e+00	 3.053900111427761e+00
 1.751008356760585e+00	 1.684051026915193e+00	 3.147079666535594e+00
 1.734514908119950e+00	 1.701033877497837e+00	 3.227056501989534e+00
 1.717855967546052e+00	 1.717855967546052e+00	 3.294425225323487e+00
 1.701033877497837e+00	 1.734514908119950e+00	 3.349666474635386e+00
 1.684051026915193e+00	 1.751008356760586e+00	 3.393195511827612e+00
 1.666909850079233e+00	 1.767334018596580e+00	 3.425405401102648e+00
 1.649612825440606e+00	 1.783489647416538e+00	 3.446704478579813e+00
 1.632162474417046e+00	 1.799473046706223e+00	 3.457547871984508e+00
 1.806008186022798e+00	 1.638089992573499e+00	 2.903389757742848e+00
 1.789966739883403e+00	 1.655603717969389e+00	 3.010546322430662e+00
 1.773752438728440e+00	 1.672963560145552e+00	 3.103468009838269e+00
 1.757367487049223e+00	 1.690166988527229e+00	 3.183258196192173e+00
 1.740814139214706e+00	 1.707211515662789e+00	 3.250797984526732e+00
 1.724094698430546e+00	 1.724094698430546e+00	 3.306805989462206e+00
 1.707211515662789e+00	 1.740814139214707e+00	 3.351893269028172e+00
 1.690166988527229e+00	 1.757367487049224e+00	 3.386612999751427e+00
 1.672963560145552e+00	 1.773752438728441e+00	 3.411504541679988e+00
 1.655603717969389e+00	 1.789966739883403e+00	 3.427131592739227e+00
 1.638089992573499e+00	 1.806008186022798e+00	 3.434114186395148e+00
 1.812543345710476e+00	 1.644017529206810e+00	 2.979453223637687e+00
 1.796443852540426e+00	 1.661594629172582e+00	 3.069838332395473e+00
 1.780170878867555e+00	 1.679017289082106e+00	 3.147324353184101e+00
 1.763726637160278e+00	 1.696282969203571e+00	 3.213039144155856e+00
 1.747113389945136e+00	 1.713389173084329e+00	 3.267893396457805e+00
 1.730333448762094e+00	 1.730333448762094e+00	 3.312642027475756e+00
 1.713389173084329e+00	 1.747113389945137e+00	 3.347940536597451e+00
 1.696282969203571e+00	 1.763726637160278e+00	 3.374395909988393e+00
 1.679017289082106e+00	 1.780170878867556e+00	 3.392611712766732e+00
 1.661594629172582e+00	 1.796443852540427e+00	 3.403227061178598e+00
 1.644017529206810e+00	 1.812543345710476e+00	 3.406949223485601e+00
 1.819078538730894e+00	 1.649945096073502e+00	 3.052314317959255e+00
 1.802920998234117e+00	 1.667585570932400e+00	 3.124062980321725e+00
 1.786589351744064e+00	 1.685071048895701e+00	 3.184871361928655e+00
 1.770085819706298e+00	 1.702398981074488e+00	 3.235801914401450e+00
 1.753412672804990e+00	 1.719566862015051e+00	 3.277706451522296e+00
 1.736572230914457e+00	 1.736572230914456e+00	 3.311289312054960e+00
 1.719566862015051e+00	 1.753412672804990e+00	 3.337165294003165e+00
 1.702398981074488e+00	 1.770085819706299e+00	 3.355911936677776e+00
 1.685071048895701e+00	 1.786589351744065e+00	 3.368115780312249e+00
 1.667585570932400e+00	 1.802920998234117e+00	 3.374412288708248e+00
 1.649945096073502e+00	 1.819078538730894e+00	 3.375519178072067e+00
 1.825613778045685e+00	 1.655872704930096e+00	 3.121449118029555e+00
 1.809398189810981e+00	 1.673576555131060e+00	 3.172662961374854e+00
 1.793007870088108e+00	 1.691124851593142e+00	 3.215523663262286e+00
 1.776445047299832e+00	 1.708515036270250e+00	 3.250939162633701e+00
 1.759712000288018e+00	 1.725744594707550e+00	 3.279614726245451e+00
 1.742811057261392e+00	 1.742811057261392e+00	 3.302118042143531e+00
 1.725744594707550e+00	 1.759712000288017e+00	 3.318938886845375e+00
 1.708515036270250e+00	 1.776445047299833e+00	 3.330542932079056e+00
 1.691124851593141e+00	 1.793007870088108e+00	 3.337419311809541e+00
 1.673576555131060e+00	 1.809398189810981e+00	 3.340121627588343e+00
 1.655872704930096e+00	 1.825613778045685e+00	 3.339302129548437e+00
 1.832149076616485e+00	 1.661800367533113e+00	 3.186345033537890e+00
 1.815875440117524e+00	 1.679567593650777e+00	 3.215093570546498e+00
 1.799426446629824e+00	 1.697178709181232e+00	 3.238709547025752e+00
 1.782804332553428e+00	 1.714631146921127e+00	 3.257858051122423e+00
 1.766011384887967e+00	 1.731922383414419e+00	 3.273010914865709e+00
 1.749049940176661e+00	 1.749049940176661e+00	 3.284513899357813e+00
 1.731922383414419e+00	 1.766011384887968e+00	 3.292648249195977e+00
 1.714631146921127e+00	 1.782804332553428e+00	 3.297686171055950e+00
 1.697178709181232e+00	 1.799426446629825e+00	 3.299939847792677e+00
 1.679567593650777e+00	 1.815875440117524e+00	 3.299803658322102e+00
 1.661800367533113e+00	 1.832149076616485e+00	 3.297789334478852e+00
 1.838684447404929e+00	 1.667728095639074e+00	 3.246502069159447e+00
 1.822352762000254e+00	 1.685558698373769e+00	 3.250823962751964e+00
 1.805845094099354e+00	 1.703232633666778e+00	 3.253872223986340e+00
 1.789163688079636e+00	 1.720747325157391e+00	 3.255981506069075e+00
 1.772310839098592e+00	 1.738100240388253e+00	 3.257304086916683e+00
 1.755288892034023e+00	 1.755288892034023e+00	 3.257879307123181e+00
 1.738100240388253e+00	 1.772310839098592e+00	 3.257697165843279e+00
 1.720747325157391e+00	 1.789163688079636e+00	 3.256755618198353e+00
 1.703232633666778e+00	 1.805845094099354e+00	 3.255111175821316e+00
 1.685558698373769e+00	 1.822352762000255e+00	 3.252922472704266e+00
 1.667728095639074e+00	 1.838684447404929e+00	 3.250486521127972e+00
 1.845219903372652e+00	 1.673655901004500e+00	 3.301434089081399e+00
 1.828830168305679e+00	 1.691549881182252e+00	 3.279338415103817e+00
 1.812263825226835e+00	 1.709286637056585e+00	 3.260471086514444e+00
 1.795523126491003e+00	 1.726863583109311e+00	 3.244749477548943e+00
 1.778610375413639e+00	 1.744278177881645e+00	 3.231920947505434e+00
 1.761527925207237e+00	 1.761527925207236e+00	 3.221634692567823e+00
 1.744278177881645e+00	 1.778610375413639e+00	 3.213507537290634e+00
 1.726863583109311e+00	 1.795523126491003e+00	 3.207183197625619e+00
 1.709286637056585e+00	 1.812263825226835e+00	 3.202384606999432e+00
 1.691549881182251e+00	 1.828830168305679e+00	 3.198958959177634e+00
 1.673655901004501e+00	 1.845219903372653e+00	 3.196915185989399e+00
 1.851755457481291e+00	 1.679583795385915e+00	 3.350670083496060e+00
 1.835307671880304e+00	 1.697541153958441e+00	 3.300137591415628e+00
 1.818682652742408e+00	 1.715340731357458e+00	 3.257982971710345e+00
 1.801882660400078e+00	 1.732979932907158e+00	 3.223620202075020e+00
 1.784910006326859e+00	 1.750456208147191e+00	 3.196307100330714e+00
 1.767767052070063e+00	 1.767767052070063e+00	 3.175219751216631e+00
 1.750456208147191e+00	 1.784910006326859e+00	 3.159520647552159e+00
 1.732979932907157e+00	 1.801882660400079e+00	 3.148420065516065e+00
 1.715340731357458e+00	 1.818682652742409e+00	 3.141230255076919e+00
 1.697541153958441e+00	 1.835307671880305e+00	 3.137412090551823e+00
 1.679583795385915e+00	 1.851755457481291e+00	 3.136613892373747e+00
 1.620307446508632e+00	 1.786402777339840e+00	 3.495408312361330e+00
 1.602831197452906e+00	 1.802099622852383e+00	 3.501269534071402e+00
 1.585207843588931e+00	 1.817621192482791e+00	 3.494010613079396e+00
 1.567440038073481e+00	 1.832965430282893e+00	 3.475441531976252e+00
 1.549530471634388e+00	 1.848130333479974e+00	 3.447449074953292e+00
 1.531481871228615e+00	 1.863113953331426e+00	 3.412438188419181e+00
 1.513296998677638e+00	 1.877914395939054e+00	 3.372886159846270e+00
 1.494978649281560e+00	 1.892529823022367e+00	 3.329712198010360e+00
 1.476529650413391e+00	 1.906958452650191e+00	 3.283724085962255e+00
 1.457952860094977e+00	 1.921198559930042e+00	 3.234209712097189e+00
 1.439251165556041e+00	 1.935248477654719e+00	 3.183310005833214e+00
 1.626234962980931e+00	 1.792937914799115e+00	 3.477794679300975e+00
 1.608694781148641e+00	 1.808692183556226e+00	 3.480863363239292e+00
 1.591006956359519e+00	 1.824270535225360e+00	 3.472675905584063e+00
 1.573174151476286e+00	 1.839670906337124e+00	 3.454737786781737e+00
 1.555199067070170e+00	 1.854891286792119e+00	 3.428692352069492e+00
 1.537084440074064e+00	 1.869929720718700e+00	 3.397410756245506e+00
 1.518833042412919e+00	 1.884784307290279e+00	 3.362191114164729e+00
 1.500447679612785e+00	 1.899453201501433e+00	 3.323522807848540e+00
 1.481931189389951e+00	 1.913934614902196e+00	 3.281967095879699e+00
 1.463286440221664e+00	 1.928226816289955e+00	 3.237138713145118e+00
 1.444516329899898e+00	 1.942328132358409e+00	 3.189945232531132e+00
 1.632162474417046e+00	 1.799473046706223e+00	 3.457547871984508e+00
 1.614558359862523e+00	 1.815284738659102e+00	 3.458227328856442e+00
 1.596806064203055e+00	 1.830919872318692e+00	 3.449457010893478e+00
 1.578908260007299e+00	 1.846376376694392e+00	 3.432458922191226e+00
 1.560867657689864e+00	 1.861652234360122e+00	 3.409098463679294e+00
 1.542687004159562e+00	 1.876745482315218e+00	 3.382063003166328e+00
 1.524369081444804e+00	 1.891654212804703e+00	 3.351620968702481e+00
 1.505916705297575e+00	 1.906376574098233e+00	 3.317909938308349e+00
 1.487332723777430e+00	 1.920910771227060e+00	 3.281140648722620e+00
 1.468620015817002e+00	 1.935255066678453e+00	 3.241189599852429e+00
 1.449781489770505e+00	 1.949407781047018e+00	 3.198076256901887e+00
 1.638089992573499e+00	 1.806008186022798e+00	 3.434114186395148e+00
 1.620421945224269e+00	 1.821877301236541e+00	 3.432859055849334e+00
 1.602605178621382e+00	 1.837569216950939e+00	 3.423898066679298e+00
 1.584642375039440e+00	 1.853081854654181e+00	 3.408201069620681e+00
 1.566536254736441e+00	 1.868413189593503e+00	 3.388531115650456e+00
 1.548289574597119e+00	 1.883561251639213e+00	 3.366238482178831e+00
 1.529905126753356e+00	 1.898524126107945e+00	 3.341057344547576e+00
 1.511385737183076e+00	 1.913299954544421e+00	 3.312789566081874e+00
 1.492734264289112e+00	 1.927886935461114e+00	 3.281310914993580e+00
 1.473953597459490e+00	 1.942283325035165e+00	 3.246466792461719e+00
 1.455046655610668e+00	 1.956487437762086e+00	 3.207850624833753e+00
 1.644017529206810e+00	 1.812543345710476e+00	 3.406949223485601e+00
 1.626285548863596e+00	 1.828469884364069e+00	 3.404264196939601e+00
 1.608404311116347e+00	 1.844218582310253e+00	 3.395549905976046e+00
 1.590376507945633e+00	 1.859787353515980e+00	 3.382021870330293e+00
 1.572204869452870e+00	 1.875174165901783e+00	 3.366812021140613e+00
 1.553892162498744e+00	 1.890377042208922e+00	 3.349799899183237e+00
 1.535441189318634e+00	 1.905394060825617e+00	 3.330400501637543e+00
 1.516854786116435e+00	 1.920223356571650e+00	 3.308095871526956e+00
 1.498135821638280e+00	 1.934863121440682e+00	 3.282442163892633e+00
 1.479287195727621e+00	 1.949311605299715e+00	 3.253070769495543e+00
 1.460311837863190e+00	 1.963567116545151e+00	 3.219411196302000e+00
 1.649945096073502e+00	 1.819078538730894e+00	 3.375519178072067e+00
 1.632149182410222e+00	 1.835062501117215e+00	 3.371957734467580e+00
 1.614203473189791e+00	 1.850867981584783e+00	 3.363971370012270e+00
 1.596110670098798e+00	 1.866492886579275e+00	 3.353917166278570e+00
 1.577873513082122e+00	 1.881935176694480e+00	 3.343781969583921e+00
 1.559494778976449e+00	 1.897192867542578e+00	 3.332628463186396e+00
 1.540977280120702e+00	 1.912264030583342e+00	 3.319568707620807e+00
 1.522323862944797e+00	 1.927146793911572e+00	 3.303780625766782e+00
 1.503537406538218e+00	 1.941839343002092e+00	 3.284515917408918e+00
 1.484620821199892e+00	 1.956339921411734e+00	 3.261109312083831e+00
 1.465577046970878e+00	 1.970646831437753e+00	 3.232896834355155e+00
 1.655872704930096e+00	 1.825613778045685e+00	 3.339302129548437e+00
 1.638012857493863e+00	 1.841655164571509e+00	 3.335465283661287e+00
 1.620002676343559e+00	 1.857517427962680e+00	 3.329064091843343e+00
 1.601844872871858e+00	 1.873198467143551e+00	 3.323703196325803e+00
 1.583542196867167e+00	 1.888696235381115e+00	 3.319300158749110e+00
 1.565097435142243e+00	 1.904008741158417e+00	 3.314623237097370e+00
 1.546513410139622e+00	 1.919134049006734e+00	 3.308497607045334e+00
 1.527792978515308e+00	 1.934070280295839e+00	 3.299812577873400e+00
 1.508939029702210e+00	 1.948815613981673e+00	 3.287530355046680e+00
 1.489954484454800e+00	 1.963368287310846e+00	 3.270696192523594e+00
 1.470842293376535e+00	 1.977726596481428e+00	 3.248443092804257e+00
 1.661800367533113e+00	 1.832149076616485e+00	 3.297789334478852e+00
 1.643876585744235e+00	 1.848247887802478e+00	 3.294324397417914e+00
 1.625801932079494e+00	 1.864166934632097e+00	 3.291113262391315e+00
 1.607579127637734e+00	 1.879904108508296e+00	 3.291214552897965e+00
 1.589210932050976e+00	 1.895457355371206e+00	 3.293243527624718e+00
 1.570700142108137e+00	 1.910824676574673e+00	 3.295700489072821e+00
 1.552049590355453e+00	 1.926004129721411e+00	 3.297139590839809e+00
 1.533262143675114e+00	 1.940993829456106e+00	 3.296176842107317e+00
 1.514340701843538e+00	 1.955791948215751e+00	 3.291499718392674e+00
 1.495288196070840e+00	 1.970396716936678e+00	 3.281878215706551e+00
 1.476107587522967e+00	 1.984806425717717e+00	 3.266182902691268e+00
 1.667728095639074e+00	 1.838684447404929e+00	 3.250486521127972e+00
 1.649740378791057e+00	 1.854840683885652e+00	 3.248200364536846e+00
 1.631601251899442e+00	 1.870816514781183e+00	 3.249936692470102e+00
 1.613313445769345e+00	 1.886609823972994e+00	 3.256303497205770e+00
 1.594879729876519e+00	 1.902218550074273e+00	 3.265506090081631e+00
 1.576302910986139e+00	 1.917640687309579e+00	 3.275793044369985e+00
 1.557585831748260e+00	 1.932874286352992e+00	 3.285463166052283e+00
 1.538731369271360e+00	 1.947917455124025e+00	 3.292874285185004e+00
 1.519742433675487e+00	 1.962768359540651e+00	 3.296453715502985e+00
 1.500621966626508e+00	 1.977425224228858e+00	 3.294710213370333e+00
 1.481372939852978e+00	 1.991886333188159e+00	 3.286247257611951e+00
 1.673655901004501e+00	 1.845219903372653e+00	 3.196915185989399e+00
 1.655604248264045e+00	 1.861433565896558e+00	 3.197585233094753e+00
 1.637400647305244e+00	 1.877466181598091e+00	 3.205359768821144e+00
 1.619047838639617e+00	 1.893315626837136e+00	 3.218839275471893e+00
 1.600548601586765e+00	 1.908979832899837e+00	 3.235998269263098e+00
 1.581905752888261e+00	 1.924456786881373e+00	 3.254849637664888e+00
 1.563122145298103e+00	 1.939744532527093e+00	 3.273452325811113e+00
 1.544200666151193e+00	 1.954841171031247e+00	 3.289920913545456e+00
 1.525144235911341e+00	 1.969744861792704e+00	 3.302436925086566e+00
 1.505955806700301e+00	 1.984453823127014e+00	 3.309261696278042e+00
 1.486638360809374e+00	 1.998966332934291e+00	 3.308750609052356e+00
 1.679583795385915e+00	 1.851755457481291e+00	 3.136613892373747e+00
 1.661468205792916e+00	 1.868026546910726e+00	 3.142438222877424e+00
 1.643200129798746e+00	 1.884115948270970e+00	 3.157224813148106e+00
 1.624782317621469e+00	 1.900021530400205e+00	 3.178707436109008e+00
 1.606217558424685e+00	 1.915741217257415e+00	 3.204646232652555e+00
 1.587508678926513e+00	 1.931272988808290e+00	 3.232834265793384e+00
 1.568658541985044e+00	 1.946614881869331e+00	 3.261105919472405e+00
 1.549670045161758e+00	 1.961764990909427e+00	 3.287347260586766e+00
 1.530546119264383e+00	 1.976721468808237e+00	 3.309508200462420e+00
 1.511289726870716e+00	 1.991482527570771e+00	 3.325616274476074e+00
 1.491903860834959e+00	 2.006046438997654e+00	 3.333791842750445e+00
 1.439251165556041e+00	 1.935248477654719e+00	 3.183310005833214e+00
 1.420430689883295e+00	 1.949104258986799e+00	 3.131239170145729e+00
 1.401491195608220e+00	 1.962766765633880e+00	 3.077326926497419e+00
 1.382435636742910e+00	 1.976234515467395e+00	 3.023310349790390e+00
 1.363266990660228e+00	 1.989506086103192e+00	 2.970822549069830e+00
 1.343988256597493e+00	 2.002580115325494e+00	 2.921398429519206e+00
 1.324602454152328e+00	 2.015455301466298e+00	 2.876478599309371e+00
 1.305112621772200e+00	 2.028130403740125e+00	 2.837411554030449e+00
 1.285521815239164e+00	 2.040604242534051e+00	 2.805454283500587e+00
 1.265833106151362e+00	 2.052875699653055e+00	 2.781771456161773e+00
 1.246049580402761e+00	 2.064943718520748e+00	 2.767433344994308e+00
 1.444516329899898e+00	 1.942328132358409e+00	 3.189945232531132e+00
 1.425627003911244e+00	 1.956234601831544e+00	 3.140411527714821e+00
 1.406618223918459e+00	 1.969947089569313e+00	 3.088023917959475e+00
 1.387492954740202e+00	 1.983464108021129e+00	 3.034607416487104e+00
 1.368254184641359e+00	 1.996784229599385e+00	 2.981897874720877e+00
 1.348904923831258e+00	 2.009906087104953e+00	 2.931547204093485e+00
 1.329448202954018e+00	 2.022828374107992e+00	 2.885126669359238e+00
 1.309887071572554e+00	 2.035549845283895e+00	 2.844128392252300e+00
 1.290224596647790e+00	 2.048069316704405e+00	 2.809965216718668e+00
 1.270463861014590e+00	 2.060385666083846e+00	 2.783969097635915e+00
 1.250607961855945e+00	 2.072497832980598e+00	 2.767388183876221e+00
 1.449781489770505e+00	 1.949407781047018e+00	 3.198076256901887e+00
 1.430823313524385e+00	 1.963364938618164e+00	 3.151559055599559e+00
 1.411745247872682e+00	 1.977127407404194e+00	 3.101296140685648e+00
 1.392550268440615e+00	 1.990693694432500e+00	 3.049175716914883e+00
 1.373241374385091e+00	 2.004062366912016e+00	 2.997010831811756e+00
 1.353821586887445e+00	 2.017232052660270e+00	 2.946544080359942e+00
 1.334293947638286e+00	 2.030201440485568e+00	 2.899450307438308e+00
 1.314661517315975e+00	 2.042969280524185e+00	 2.857337453036258e+00
 1.294927374060298e+00	 2.055534384532526e+00	 2.821745697990823e+00
 1.275094611942843e+00	 2.067895626134259e+00	 2.794145078948941e+00
 1.255166339435620e+00	 2.080051941022524e+00	 2.775931750421976e+00
 1.455046655610668e+00	 1.956487437762086e+00	 3.207850624833753e+00
 1.436019629028974e+00	 1.970495283488694e+00	 3.164863765356550e+00
 1.416872277639734e+00	 1.984307733379644e+00	 3.117347846500391e+00
 1.397607587874744e+00	 1.997923289040297e+00	 3.067229855089686e+00
 1.378228569782952e+00	 2.011340512476121e+00	 3.016374840412448e+00
 1.358738255517717e+00	 2.024558026521287e+00	 2.966590124096537e+00
 1.339139697816155e+00	 2.037574515222249e+00	 2.919627433534509e+00
 1.319435968472098e+00	 2.050388724176148e+00	 2.877183110159835e+00
 1.299630156804209e+00	 2.062999460824042e+00	 2.840896556916832e+00
 1.279725368120817e+00	 2.075405594698941e+00	 2.812347100505553e+00
 1.259724722182968e+00	 2.087606057628739e+00	 2.793049453372092e+00
 1.460311837863190e+00	 1.963567116545151e+00	 3.219411196302000e+00
 1.441215960731266e+00	 1.977625650585169e+00	 3.180502314838911e+00
 1.421999323388458e+00	 1.991488081736780e+00	 3.136377396197660e+00
 1.402664923073184e+00	 2.005152906183309e+00	 3.088978135228860e+00
 1.383215780726468e+00	 2.018618680726732e+00	 3.040196738695601e+00
 1.363654939473737e+00	 2.031884023217855e+00	 2.991879661876271e+00
 1.343985463098657e+00	 2.044947612941254e+00	 2.945829194042294e+00
 1.324210434510562e+00	 2.057808190954932e+00	 2.903803050467478e+00
 1.304332954207041e+00	 2.070464560384583e+00	 2.867512141998987e+00
 1.284356138733202e+00	 2.082915586672545e+00	 2.838616704741534e+00
 1.264283119139172e+00	 2.095160197781454e+00	 2.818720982023845e+00
 1.465577046970878e+00	 1.970646831437753e+00	 3.232896834355155e+00
 1.446412318937514e+00	 1.984756054049619e+00	 3.198646695775725e+00
 1.427126395287697e+00	 1.998668466716727e+00	 3.158577942248193e+00
 1.407722284066526e+00	 2.012382560200324e+00	 3.114623236210204e+00
 1.388203017107165e+00	 2.025896886098884e+00	 3.068677445864046e+00
 1.368571648507170e+00	 2.039210057279816e+00	 3.022600929274837e+00
 1.348831253096814e+00	 2.052320748265806e+00	 2.978220592160222e+00
 1.328984924901005e+00	 2.065227695575687e+00	 2.937328883468152e+00
 1.309035775596313e+00	 2.077929698019778e+00	 2.901680906552882e+00
 1.288986932964694e+00	 2.090425616949720e+00	 2.872989835566330e+00
 1.268841539345415e+00	 2.102714376462878e+00	 2.852920836531443e+00
 1.470842293376535e+00	 1.977726596481428e+00	 3.248443092804257e+00
 1.451608713953973e+00	 1.991886508024080e+00	 3.219464919901526e+00
 1.432253503506297e+00	 2.005848902560599e+00	 3.184138109968166e+00
 1.412779680885367e+00	 2.019612265430133e+00	 3.144362884466767e+00
 1.393190288816572e+00	 2.033175143027612e+00	 3.102012623549300e+00
 1.373488392369677e+00	 2.046536143237021e+00	 3.058936717644430e+00
 1.353677077421653e+00	 2.059693935819125e+00	 3.016961117007731e+00
 1.333759449113063e+00	 2.072647252753565e+00	 2.977886749861849e+00
 1.313738630299546e+00	 2.085394888535254e+00	 2.943485993811572e+00
 1.293617759999985e+00	 2.097935700425118e+00	 2.915497397316047e+00
 1.273399991842879e+00	 2.110268608655223e+00	 2.895618858084941e+00
 1.476107587522967e+00	 1.984806425717717e+00	 3.266182902691268e+00
 1.456805156086899e+00	 1.999017026650585e+00	 3.243121703715073e+00
 1.437380658213101e+00	 2.013029403509521e+00	 3.213242677229797e+00
 1.417837123560299e+00	 2.026842036211524e+00	 3.178390525397323e+00
 1.398177605746213e+00	 2.040453465947948e+00	 3.140393335759543e+00
 1.378405180812923e+00	 2.053862295619314e+00	 3.101065019528579e+00
 1.358522945684203e+00	 2.067067190224433e+00	 3.062205371531196e+00
 1.338534016616374e+00	 2.080066877203715e+00	 3.025597929058291e+00
 1.318441527644256e+00	 2.092860146736642e+00	 2.993005821277975e+00
 1.298248629023769e+00	 2.105445851993389e+00	 2.966165813262731e+00
 1.277958485672748e+00	 2.117822909340700e+00	 2.946780759003144e+00
 1.481372939852978e+00	 1.991886333188159e+00	 3.286247257611951e+00
 1.462001655642545e+00	 2.006147624071168e+00	 3.269779151945580e+00
 1.442507869576952e+00	 2.020209983804609e+00	 3.246073252793612e+00
 1.422894622121917e+00	 2.034071886883286e+00	 3.216895993372204e+00
 1.403164977787615e+00	 2.047731869294926e+00	 3.184006707454356e+00
 1.383322023588571e+00	 2.061188528956543e+00	 3.149159672792023e+00
 1.363368867495488e+00	 2.074440526104949e+00	 3.114103699268192e+00
 1.343308636880578e+00	 2.087486583641289e+00	 3.080579445750522e+00
 1.323144476957965e+00	 2.100325487429569e+00	 3.050314664380880e+00
 1.302879549220739e+00	 2.112956086549184e+00	 3.025017583725644e+00
 1.282517029876202e+00	 2.125377293501519e+00	 3.006368652775691e+00
 1.486638360809374e+00	 1.998966332934291e+00	 3.308750609052356e+00
 1.467198222927167e+00	 2.013278314427861e+00	 3.299597439803787e+00
 1.447635147766694e+00	 2.027390657686983e+00	 3.282808953340675e+00
 1.427952186600815e+00	 2.041301831784208e+00	 3.260066180412339e+00
 1.408152414832305e+00	 2.055010367503580e+00	 3.233036581822611e+00
 1.388238930448284e+00	 2.068514857778556e+00	 3.203391003538503e+00
 1.368214852466535e+00	 2.081813958083897e+00	 3.172802810038077e+00
 1.348083319375309e+00	 2.094906386781437e+00	 3.142944675605376e+00
 1.327847487568191e+00	 2.107790925419665e+00	 3.115483239488421e+00
 1.307510529775588e+00	 2.120466418987153e+00	 3.092071843830030e+00
 1.287075633494425e+00	 2.132931776119891e+00	 3.074341584089564e+00
 1.491903860834959e+00	 2.006046438997654e+00	 3.333791842750445e+00
 1.472394868247019e+00	 2.020409111862701e+00	 3.332735494093895e+00
 1.452762502951173e+00	 2.034571439397765e+00	 3.323627079282379e+00
 1.433009827027587e+00	 2.048531885253080e+00	 3.308085703618758e+00
 1.413139926771811e+00	 2.062288975008945e+00	 3.287664176338731e+00
 1.393155911143727e+00	 2.075841296615197e+00	 3.263926467888605e+00
 1.373060910208370e+00	 2.089187500784497e+00	 3.238446404626330e+00
 1.352858073570207e+00	 2.102326301339310e+00	 3.212803950131781e+00
 1.332550568802453e+00	 2.115256475512560e+00	 3.188579286333294e+00
 1.312141579873011e+00	 2.127976864201947e+00	 3.167344920958556e+00
 1.291634305568600e+00	 2.140486372178028e+00	 3.150656058875438e+00
 1.246049580402761e+00	 2.064943718520748e+00	 2.767433344994308e+00
 1.226174337050922e+00	 2.076807304836466e+00	 2.763759006338502e+00
 1.206210487937536e+00	 2.088465528197159e+00	 2.770191616037135e+00
 1.186161154962849e+00	 2.099917520674204e+00	 2.784874625303430e+00
 1.166029468177675e+00	 2.111162476335520e+00	 2.805895635688985e+00
 1.145818564275578e+00	 2.122199651223106e+00	 2.831283551489422e+00
 1.125531585092219e+00	 2.133028363287593e+00	 2.859005433280297e+00
 1.105171676113252e+00	 2.143647992280263e+00	 2.887060378172568e+00
 1.084741984992152e+00	 2.154057979603053e+00	 2.914833113971600e+00
 1.064245660079300e+00	 2.164257828117093e+00	 2.940494886993289e+00
 1.043685848963648e+00	 2.174247101910407e+00	 2.961695826089268e+00
 1.250607961855945e+00	 2.072497832980598e+00	 2.767388183876221e+00
 1.230660009566597e+00	 2.084404819456578e+00	 2.761822867389284e+00
 1.210623127372194e+00	 2.096105691705081e+00	 2.766799522952998e+00
 1.190500448593738e+00	 2.107599578622377e+00	 2.780343765192847e+00
 1.170295114732616e+00	 2.118885671328077e+00	 2.800417176141865e+00
 1.150010273957265e+00	 2.129963223142588e+00	 2.824914105139362e+00
 1.129649079597029e+00	 2.140831549521430e+00	 2.851658179788010e+00
 1.109214688644601e+00	 2.151490027946855e+00	 2.878409887880190e+00
 1.088710260268422e+00	 2.161938097777303e+00	 2.904326877940219e+00
 1.068138954336392e+00	 2.172175260055249e+00	 2.927942503834331e+00
 1.047503929952193e+00	 2.182201077274037e+00	 2.946748812309660e+00
 1.255166339435620e+00	 2.080051941022524e+00	 2.775931750421976e+00
 1.235145678270545e+00	 2.092002327621830e+00	 2.768886323096374e+00
 1.215035763057208e+00	 2.103745848721818e+00	 2.772560384522997e+00
 1.194839738537355e+00	 2.115281630043663e+00	 2.784897104403520e+00
 1.174560757662927e+00	 2.126608859758675e+00	 2.803768769999801e+00
 1.154201980077221e+00	 2.137726788465682e+00	 2.826973145701093e+00
 1.133766570603250e+00	 2.148634729125098e+00	 2.852229552673466e+00
 1.113257697740729e+00	 2.159332056950159e+00	 2.877174854145223e+00
 1.092678532173051e+00	 2.169818209255818e+00	 2.900515331834583e+00
 1.072032245285615e+00	 2.180092685265895e+00	 2.921353680399772e+00
 1.051322007696823e+00	 2.190155045879068e+00	 2.937078345175777e+00
 1.259724722182968e+00	 2.087606057628739e+00	 2.793049453372092e+00
 1.239631352059773e+00	 2.099599844400525e+00	 2.784875821016805e+00
 1.219448403744773e+00	 2.111386014400290e+00	 2.787357030651306e+00
 1.199179033400460e+00	 2.122963690174114e+00	 2.798388902296741e+00
 1.178826405429338e+00	 2.134332056945007e+00	 2.815790848864492e+00
 1.158393690949570e+00	 2.145490362590221e+00	 2.837301707306850e+00
 1.137884066277844e+00	 2.156437917575067e+00	 2.860575297978156e+00
 1.117300711420901e+00	 2.167174094843761e+00	 2.883175904175362e+00
 1.096646808577096e+00	 2.177698329667776e+00	 2.903361854287978e+00
 1.075925540649335e+00	 2.188010119452279e+00	 2.920747216377974e+00
 1.055140089770742e+00	 2.198109023501284e+00	 2.932769887747981e+00
 1.264283119139172e+00	 2.095160197781454e+00	 2.818720982023845e+00
 1.244117039831291e+00	 2.107197384860966e+00	 2.809712467200226e+00
 1.223861058187084e+00	 2.119026203893420e+00	 2.811067097622694e+00
 1.203518341789813e+00	 2.130645774249785e+00	 2.820668150453243e+00
 1.183092066492579e+00	 2.142055278204773e+00	 2.836318288488127e+00
 1.162585414888433e+00	 2.153253960914042e+00	 2.855734774532391e+00
 1.142001574787768e+00	 2.164241130347803e+00	 2.876544421225748e+00
 1.121343737704383e+00	 2.175016157181246e+00	 2.896278474989915e+00
 1.100615097351618e+00	 2.185578474642356e+00	 2.912821391961038e+00
 1.079818848149918e+00	 2.195927578317649e+00	 2.926134014465201e+00
 1.058958183747156e+00	 2.206063025916469e+00	 2.933901364933091e+00
 1.268841539345415e+00	 2.102714376462878e+00	 2.852920836531443e+00
 1.248602750482110e+00	 2.114794964071461e+00	 2.843312527910173e+00
 1.228273735136334e+00	 2.126666432354128e+00	 2.843563504920950e+00
 1.207857672312177e+00	 2.138327897506732e+00	 2.851579028185265e+00
 1.187357749313378e+00	 2.149778538855662e+00	 2.865180846493734e+00
 1.166777160207932e+00	 2.161017598834980e+00	 2.882101705756074e+00
 1.146119104299984e+00	 2.172044382919772e+00	 2.899979599764813e+00
 1.125386784610441e+00	 2.182858259516197e+00	 2.916351968431385e+00
 1.104583406367679e+00	 2.193458659808738e+00	 2.928839876281870e+00
 1.083712175509730e+00	 2.203845077565252e+00	 2.937516527064036e+00
 1.062776297199268e+00	 2.214017068900405e+00	 2.940542643198427e+00
 1.273399991842879e+00	 2.110268608655223e+00	 2.895618858084941e+00
 1.253088492909236e+00	 2.122392597100309e+00	 2.885587931572864e+00
 1.232686443344719e+00	 2.134306714935336e+00	 2.884714932536667e+00
 1.212197033574312e+00	 2.146010075181008e+00	 2.890961358714788e+00
 1.191623462352465e+00	 2.157501854215372e+00	 2.902203600855883e+00
 1.170968935222188e+00	 2.168781291750868e+00	 2.916226657293013e+00
 1.150236662981452e+00	 2.179847690767441e+00	 2.930717595823645e+00
 1.129429860158340e+00	 2.190700417402196e+00	 2.943258975833539e+00
 1.108551743496338e+00	 2.201338900796103e+00	 2.951353640460038e+00
 1.087605530451137e+00	 2.211762632898337e+00	 2.954888203049753e+00
 1.066594437700285e+00	 2.221971168228874e+00	 2.952755010080993e+00
 1.277958485672748e+00	 2.117822909340700e+00	 2.946780759003144e+00
 1.257574276009680e+00	 2.129990299015816e+00	 2.936446770978747e+00
 1.237099191564434e+00	 2.141947066789965e+00	 2.934386298781265e+00
 1.216536434182979e+00	 2.153692322508668e+00	 2.938651066028722e+00
 1.195889214070570e+00	 2.165225239601598e+00	 2.947207389148924e+00
 1.175160748245324e+00	 2.176545055059541e+00	 2.957929008309056e+00
 1.154354258999130e+00	 2.187651069367277e+00	 2.968589670282320e+00
 1.133472972367345e+00	 2.198542646392831e+00	 2.976855683760876e+00
 1.112520116608656e+00	 2.209219213233629e+00	 2.980278661739888e+00
 1.091498920696506e+00	 2.219680260020150e+00	 2.978232934555428e+00
 1.070412612823410e+00	 2.229925339677661e+00	 2.971500800402203e+00
 1.282517029876202e+00	 2.125377293501519e+00	 3.006368652775691e+00
 1.262060108680452e+00	 2.137588084886287e+00	 2.995793805761873e+00
 1.241511988547674e+00	 2.149587503070936e+00	 2.992439238624352e+00
 1.220875882744938e+00	 2.161374654725766e+00	 2.994480632422647e+00
 1.200155012928422e+00	 2.172948710332034e+00	 3.000009248570366e+00
 1.179352607591461e+00	 2.184308904158836e+00	 3.007023786520936e+00
 1.158471900519980e+00	 2.195454534195747e+00	 3.013421997168030e+00
 1.137516129256721e+00	 2.206384962041680e+00	 3.016992280337638e+00
 1.116488533575692e+00	 2.217099612750496e+00	 3.015405488647310e+00
 1.095392353968202e+00	 2.227597974633942e+00	 3.007929672940176e+00
 1.074230830141849e+00	 2.237879599022548e+00	 2.997754271994507e+00
 1.287075633494425e+00	 2.132931776119891e+00	 3.074341584089564e+00
 1.266545999818560e+00	 2.145185969780024e+00	 3.063530965182531e+00
 1.245924843046632e+00	 2.157228038931172e+00	 3.058732582572668e+00
 1.225215387866951e+00	 2.169057087068357e+00	 3.058279556745245e+00
 1.204420867386749e+00	 2.180672281724375e+00	 3.060422856748044e+00
 1.183544521574721e+00	 2.192072854446585e+00	 3.063322094688872e+00
 1.162589595710960e+00	 2.203258100729318e+00	 3.065036078880245e+00
 1.141559338845735e+00	 2.214227379902332e+00	 3.063513362174795e+00
 1.120457002268507e+00	 2.224980114975883e+00	 3.056682086984538e+00
 1.099285837988591e+00	 2.235515792442956e+00	 3.045136326894486e+00
 1.078049097228806e+00	 2.245833962039317e+00	 3.031429297225037e+00
 1.291634305568600e+00	 2.140486372178028e+00	 3.150656058875438e+00
 1.271031958321013e+00	 2.152783968765333e+00	 3.139557851239122e+00
 1.250337763813505e+00	 2.164868689523592e+00	 3.133122836108556e+00
 1.229554958155780e+00	 2.176739634772497e+00	 3.129874813356017e+00
 1.208686785906283e+00	 2.188395969096317e+00	 3.128258973339861e+00
 1.187736498509226e+00	 2.199836921320626e+00	 3.126631537909232e+00
 1.166707352739033e+00	 2.211061784444457e+00	 3.123249162153302e+00
 1.145602609153652e+00	 2.222069915528370e+00	 3.116258341904335e+00
 1.124425530558161e+00	 2.232860735538971e+00	 3.105109365899938e+00
 1.103179380480040e+00	 2.243433729150444e+00	 3.089796306207179e+00
 1.081867421657487e+00	 2.253788444503754e+00	 3.072437822906376e+00
 1.043685848963648e+00	 2.174247101910407e+00	 2.961695826089268e+00
 1.023062186261889e+00	 2.184027070232773e+00	 2.975923774040969e+00
 1.002381304515459e+00	 2.193595701149540e+00	 2.982419510347733e+00
 9.816463410027967e-01	 2.202952738993927e+00	 2.981666285443802e+00
 9.608604265935818e-01	 2.212097988040085e+00	 2.974318060191001e+00
 9.400266843708891e-01	 2.221031312078378e+00	 2.961221275390674e+00
 9.191482282730248e-01	 2.229752633954294e+00	 2.944877532263467e+00
 8.982281617561046e-01	 2.238261935071894e+00	 2.929008440799679e+00
 8.772695764783929e-01	 2.246559254862706e+00	 2.915206665761066e+00
 8.562755510073803e-01	 2.254644690221029e+00	 2.905098992118444e+00
 8.352491495505203e-01	 2.262518394906619e+00	 2.900365241446700e+00
 1.047503929952193e+00	 2.182201077274037e+00	 2.946748812309660e+00
 1.026804820395857e+00	 2.192016823326705e+00	 2.958089558127574e+00
 1.006048282472418e+00	 2.201620458845244e+00	 2.961242884422053e+00
 9.852374649373056e-01	 2.211011727227574e+00	 2.956809662750526e+00
 9.643755101137459e-01	 2.220190432031832e+00	 2.945572020582043e+00
 9.434655525098751e-01	 2.229156436550089e+00	 2.929669410734438e+00
 9.225107174556050e-01	 2.237909663345580e+00	 2.912997006153031e+00
 9.015141197603114e-01	 2.246450093754339e+00	 2.897248244581873e+00
 8.804788623923600e-01	 2.254777767352143e+00	 2.884110411387775e+00
 8.594080351814524e-01	 2.262892781387759e+00	 2.875340081731257e+00
 8.383047135447202e-01	 2.270795290183433e+00	 2.872749264456185e+00
 1.051322007696823e+00	 2.190155045879068e+00	 2.937078345175777e+00
 1.030547451350041e+00	 2.200006569631635e+00	 2.944969611809712e+00
 1.009715257313884e+00	 2.209645209722230e+00	 2.944372313349766e+00
 9.888285858207667e-01	 2.219070708613470e+00	 2.935966166336406e+00
 9.678905906474565e-01	 2.228282869147467e+00	 2.921444720013464e+00
 9.469044177271446e-01	 2.237281554117994e+00	 2.904747874244187e+00
 9.258732037813436e-01	 2.246066685806030e+00	 2.887663671674465e+00
 9.048000749726843e-01	 2.254638245479567e+00	 2.871879238855378e+00
 8.836881455796285e-01	 2.262996272858633e+00	 2.859168023656833e+00
 8.625405166940820e-01	 2.271140865546448e+00	 2.851374737475616e+00
 8.413602749428495e-01	 2.279072178427747e+00	 2.850401150059202e+00
 1.055140089770742e+00	 2.198109023501284e+00	 2.932769887747981e+00
 1.034290086548014e+00	 2.207996324994357e+00	 2.936714097747657e+00
 1.013382236313376e+00	 2.217669969696762e+00	 2.932008057410782e+00
 9.924197107762452e-01	 2.227129699135804e+00	 2.919871622464229e+00
 9.714056751669483e-01	 2.236375315437564e+00	 2.904102137255884e+00
 9.503432868437480e-01	 2.245406680897510e+00	 2.886597757694613e+00
 9.292356939197770e-01	 2.254223717514355e+00	 2.868985945879116e+00
 9.080860339109362e-01	 2.262826406488048e+00	 2.852998176193717e+00
 8.868974324058010e-01	 2.271214787682854e+00	 2.840453710293527e+00
 8.656730017584998e-01	 2.279388959056444e+00	 2.833244215150918e+00
 8.444158398055267e-01	 2.287349076056038e+00	 2.833319269401609e+00
 1.058958183747156e+00	 2.206063025916469e+00	 2.933901364933091e+00
 1.038032733413349e+00	 2.215986105261665e+00	 2.933466007153407e+00
 1.017049226744412e+00	 2.225694754685102e+00	 2.924574519280746e+00
 9.960108469268057e-01	 2.235188714778765e+00	 2.910647126674450e+00
 9.749207706444551e-01	 2.244467786952697e+00	 2.893726550079056e+00
 9.537821666807358e-01	 2.253531833004051e+00	 2.875322490502893e+00
 9.325981945404387e-01	 2.262380774649266e+00	 2.857066887427954e+00
 9.113720030927787e-01	 2.271014593020246e+00	 2.840696570259326e+00
 8.901067292364803e-01	 2.279433328125483e+00	 2.828036732114455e+00
 8.688054965879365e-01	 2.287637078277100e+00	 2.820985282715272e+00
 8.474714141933698e-01	 2.295625999484788e+00	 2.821498126344851e+00
 1.062776297199268e+00	 2.214017068900405e+00	 2.940542643198427e+00
 1.041775399369619e+00	 2.223975926280349e+00	 2.935415325500895e+00
 1.020716235880511e+00	 2.233719580603511e+00	 2.924008654585371e+00
 9.996020013955130e-01	 2.243247771526543e+00	 2.908560121972127e+00
 9.784358840522113e-01	 2.252560299743439e+00	 2.890405234787869e+00
 9.572210640591579e-01	 2.261657026553031e+00	 2.871020370060954e+00
 9.359607123128652e-01	 2.270537873389477e+00	 2.852004356161502e+00
 9.146579890359224e-01	 2.279202821316628e+00	 2.835060844050371e+00
 8.933160424372695e-01	 2.287651910487200e+00	 2.821981537168722e+00
 8.719380073956230e-01	 2.295885239567761e+00	 2.814630337665696e+00
 8.505270041669976e-01	 2.303902965130477e+00	 2.814928455557314e+00
 1.066594437700285e+00	 2.221971168228874e+00	 2.952755010080993e+00
 1.045518091840397e+00	 2.231965803897202e+00	 2.944124849471472e+00
 1.024383270995192e+00	 2.241744463368251e+00	 2.930727557353563e+00
 1.003193181305432e+00	 2.251306885363327e+00	 2.913670669529641e+00
 9.819510223624514e-01	 2.260652869860364e+00	 2.894220755100856e+00
 9.606599858000642e-01	 2.269782277659863e+00	 2.873784728935877e+00
 9.393232539065905e-01	 2.278695029913699e+00	 2.853891171931182e+00
 9.179439982580797e-01	 2.287391107617658e+00	 2.836172477520900e+00
 8.965253783737714e-01	 2.295870551068683e+00	 2.822347894428101e+00
 8.750705403947902e-01	 2.304133459287779e+00	 2.814207524203897e+00
 8.535826157870279e-01	 2.312179989409584e+00	 2.813597320686568e+00
 1.070412612823410e+00	 2.229925339677661e+00	 2.971500800402203e+00
 1.049260818249256e+00	 2.239955753959018e+00	 2.960243325536032e+00
 1.028050339361973e+00	 2.249769418895582e+00	 2.944753119088049e+00
 1.006784393779627e+00	 2.259366072273303e+00	 2.926034726367595e+00
 9.854661925474095e-01	 2.268745513354043e+00	 2.905251134020978e+00
 9.640989387245058e-01	 2.277907602439965e+00	 2.883704101313011e+00
 9.426858259911510e-01	 2.286852260400646e+00	 2.862815272717061e+00
 9.212300372769628e-01	 2.295579468163807e+00	 2.844108154595403e+00
 8.997347434115883e-01	 2.304089266170612e+00	 2.829191027041991e+00
 8.782031017986689e-01	 2.312381753796502e+00	 2.819740850196957e+00
 8.566382551140788e-01	 2.320457088738593e+00	 2.817488212613664e+00
 1.074230830141849e+00	 2.237879599022548e+00	 2.997754271994507e+00
 1.053003586019768e+00	 2.247945792312590e+00	 2.983743631938330e+00
 1.031717448254373e+00	 2.257794463101769e+00	 2.966103920299684e+00
 1.010375645941163e+00	 2.267425348240664e+00	 2.945704319020471e+00
 9.889814015793206e-01	 2.276838246275052e+00	 2.923570024998890e+00
 9.675379296535319e-01	 2.286033017008749e+00	 2.900862388707765e+00
 9.460484352360803e-01	 2.295009581029028e+00	 2.878859872055806e+00
 9.245161126102827e-01	 2.303767919195540e+00	 2.858939909598590e+00
 9.029441439163232e-01	 2.312308072093663e+00	 2.842561745173002e+00
 8.813356978204905e-01	 2.320630139453281e+00	 2.831250303942329e+00
 8.596939282087687e-01	 2.328734279533981e+00	 2.826581147791159e+00
 1.078049097228806e+00	 2.245833962039317e+00	 3.031429297225037e+00
 1.056746402575507e+00	 2.255935934804708e+00	 3.014596309362657e+00
 1.035384604945910e+00	 2.265819611903070e+00	 2.994795403177142e+00
 1.013966944913106e+00	 2.275484729249596e+00	 2.972727716610107e+00
 9.924966564304187e-01	 2.284931084673963e+00	 2.949246882413888e+00
 9.709769654081932e-01	 2.294158537481629e+00	 2.925339024971303e+00
 9.494110883109145e-01	 2.303167007977557e+00	 2.902103615802698e+00
 9.278022307757513e-01	 2.311956476953322e+00	 2.880735273120595e+00
 9.061535862535792e-01	 2.320526985138516e+00	 2.862506578428727e+00
 8.844683346734850e-01	 2.328878632617462e+00	 2.848751970746303e+00
 8.627496411317157e-01	 2.337011578212227e+00	 2.840852766666107e+00
 1.081867421657487e+00	 2.253788444503754e+00	 3.072437822906376e+00
 1.060489275340047e+00	 2.263926197282168e+00	 3.052769729901782e+00
 1.039051816710104e+00	 2.273844881215751e+00	 3.030840043842996e+00
 1.017558297818519e+00	 2.283544231284289e+00	 3.007149603350404e+00
 9.960119640729381e-01	 2.293024044601351e+00	 2.982347131397900e+00
 9.744160528095400e-01	 2.302284179974021e+00	 2.957209140615245e+00
 9.527737918851885e-01	 2.311324557424947e+00	 2.932620738250866e+00
 9.310883982910807e-01	 2.320145157677620e+00	 2.909557417337835e+00
 9.093630767889591e-01	 2.328746021605850e+00	 2.889067907904978e+00
 8.876010185708836e-01	 2.337127249648398e+00	 2.872258149325246e+00
 8.658053999435384e-01	 2.345289001189816e+00	 2.860276432190122e+00
 8.352491495505203e-01	 2.262518394906619e+00	 2.900365241446700e+00
 8.141970019494854e-01	 2.270179294192986e+00	 2.905673240818488e+00
 7.931185662147202e-01	 2.277629008609738e+00	 2.923353835939235e+00
 7.720168536581871e-01	 2.284867856915018e+00	 2.951593552577282e+00
 7.508948564624924e-01	 2.291896212004354e+00	 2.988547601280397e+00
 7.297555465433327e-01	 2.298714500167882e+00	 3.031556465516868e+00
 7.086018744401672e-01	 2.305323200321329e+00	 3.074692412307159e+00
 6.874367682357337e-01	 2.311722843211848e+00	 3.116042354285285e+00
 6.662631325049674e-01	 2.317914010599844e+00	 3.154112155088841e+00
 6.450838472938460e-01	 2.323897334417937e+00	 3.187144369033537e+00
 6.239017671286295e-01	 2.329673495908198e+00	 3.213149825609895e+00
 8.383047135447202e-01	 2.270795290183433e+00	 2.872749264456185e+00
 8.171755515775549e-01	 2.278484215081044e+00	 2.880699708025854e+00
 7.960200053076527e-01	 2.285961182538526e+00	 2.901097858504307e+00
 7.748410970631530e-01	 2.293226512480131e+00	 2.932084439235310e+00
 7.536418299728579e-01	 2.300280579165536e+00	 2.971767883236155e+00
 7.324251868245170e-01	 2.307123810444363e+00	 3.017767601821534e+00
 7.111941289514456e-01	 2.313756686984343e+00	 3.064001779834262e+00
 6.899515951480827e-01	 2.320179741474244e+00	 3.108021247428909e+00
 6.687005006150676e-01	 2.326393557802710e+00	 3.148246757871449e+00
 6.474437359343483e-01	 2.332398770214141e+00	 3.182835875712040e+00
 6.261841660747978e-01	 2.338196062442769e+00	 3.209714958954005e+00
 8.413602749428495e-01	 2.279072178427747e+00	 2.850401150059202e+00
 8.201540986750241e-01	 2.286789128912769e+00	 2.860258060598653e+00
 7.989214419355528e-01	 2.294293349387783e+00	 2.882441131824629e+00
 7.776653380687363e-01	 2.301585160943147e+00	 2.915090867399663e+00
 7.563888011495602e-01	 2.308664939202700e+00	 2.956315116708877e+00
 7.350948248378150e-01	 2.315533113575554e+00	 3.003974893784321e+00
 7.137863812606564e-01	 2.322190166481445e+00	 3.052109322799499e+00
 6.924664199242117e-01	 2.328636632550767e+00	 3.097671541959061e+00
 6.711378666548118e-01	 2.334873097800403e+00	 3.139045665041570e+00
 6.498036225703621e-01	 2.340900198786537e+00	 3.174353280561506e+00
 6.284665630823351e-01	 2.346718621735575e+00	 3.201485760350605e+00
 8.444158398055267e-01	 2.287349076056038e+00	 2.833319269401609e+00
 8.231326491497071e-01	 2.295094052160227e+00	 2.844305344795252e+00
 8.018228818532342e-01	 2.302625525683620e+00	 2.867311742955072e+00
 7.804895822765822e-01	 2.309943818882697e+00	 2.900523793789190e+00
 7.591357754409280e-01	 2.317049308745463e+00	 2.942094412314326e+00
 7.377644658781138e-01	 2.323942426240529e+00	 2.990081904213223e+00
 7.163786365091456e-01	 2.330623655539652e+00	 3.038922354683253e+00
 6.949812475518492e-01	 2.337093533214851e+00	 3.084913126719508e+00
 6.735752354582557e-01	 2.343352647411264e+00	 3.126449593463001e+00
 6.521635118822380e-01	 2.349401636996865e+00	 3.161665813496143e+00
 6.307489626778779e-01	 2.355241190690244e+00	 3.188467094949528e+00
 8.474714141933698e-01	 2.295625999484788e+00	 2.821498126344851e+00
 8.261112089094171e-01	 2.303399001295480e+00	 2.832795356887327e+00
 8.047243308155120e-01	 2.310957727952152e+00	 2.855634987364387e+00
 7.833138352883354e-01	 2.318302502877411e+00	 2.888291690682129e+00
 7.618827582952897e-01	 2.325433704423442e+00	 2.929008559746822e+00
 7.404341152403017e-01	 2.332351765118369e+00	 2.975992463559174e+00
 7.189708998382606e-01	 2.339057170885977e+00	 3.024348820509403e+00
 6.974960830187238e-01	 2.345550460239932e+00	 3.069666728439895e+00
 6.760126118594550e-01	 2.351832223453634e+00	 3.110400153601873e+00
 6.545234085503264e-01	 2.357903101706865e+00	 3.144743510173384e+00
 6.330313693880619e-01	 2.363763786210413e+00	 3.170664409371541e+00
 8.505270041669976e-01	 2.303902965130477e+00	 2.814928455557314e+00
 8.290897838619679e-01	 2.311703992790594e+00	 2.825678722417376e+00
 8.076257945772014e-01	 2.319289972719491e+00	 2.847333432616866e+00
 7.861381027056413e-01	 2.326661229505917e+00	 2.878300597146647e+00
 7.646297551609739e-01	 2.333818142866254e+00	 2.916958069549320e+00
 7.431037782192662e-01	 2.340761146888149e+00	 2.961649180974196e+00
 7.215631763893482e-01	 2.347490729247438e+00	 3.008297154895018e+00
 7.000109313125639e-01	 2.354007430399445e+00	 3.051853779377428e+00
 6.784500006924646e-01	 2.360311842745852e+00	 3.090839728816510e+00
 6.568833172549781e-01	 2.366404609778274e+00	 3.123557104840816e+00
 6.353137877395229e-01	 2.372286425199707e+00	 3.148083639874265e+00
 8.535826157870279e-01	 2.312179989409584e+00	 2.813597320686568e+00
 8.320683799151731e-01	 2.320009043117632e+00	 2.822902975825710e+00
 8.105272788931159e-01	 2.327622276511749e+00	 2.842326982643372e+00
 7.889623901301442e-01	 2.335020015346847e+00	 2.870454171015624e+00
 7.673767714863083e-01	 2.342202640703515e+00	 2.905841215720186e+00
 7.457734601098953e-01	 2.349170588228948e+00	 2.947011975124477e+00
 7.241554713037550e-01	 2.355924347351049e+00	 2.990676141053603e+00
 7.025257974210970e-01	 2.362464460466825e+00	 3.031396285854782e+00
 6.808874067913400e-01	 2.368791522106264e+00	 3.067711355435140e+00
 6.592432426765429e-01	 2.374906178072831e+00	 3.098077923814662e+00
 6.375962222588971e-01	 2.380809124561765e+00	 3.120731120948534e+00
 8.566382551140788e-01	 2.320457088738593e+00	 2.817488212613664e+00
 8.350470029768466e-01	 2.328314168748660e+00	 2.824412640440017e+00
 8.134287895180706e-01	 2.335954655855041e+00	 2.840532942588894e+00
 7.917867031634899e-01	 2.343378876978828e+00	 2.864653741588301e+00
 7.701238127196210e-01	 2.350587214564839e+00	 2.895554079136678e+00
 7.484431662070767e-01	 2.357580105819843e+00	 2.931982386858393e+00
 7.267477897228278e-01	 2.364358041923825e+00	 2.971394770718283e+00
 7.050406863320523e-01	 2.370921567215507e+00	 3.008216697663070e+00
 6.833248349901367e-01	 2.377271278353210e+00	 3.040958603593969e+00
 6.616031894953714e-01	 2.383407823452274e+00	 3.068277779567092e+00
 6.398786774728203e-01	 2.389331901200212e+00	 3.088613494328431e+00
 8.596939282087687e-01	 2.328734279533981e+00	 2.826581147791159e+00
 8.380256589548014e-01	 2.336619386155741e+00	 2.830149308821349e+00
 8.163303322068804e-01	 2.344287127275481e+00	 2.841866084224519e+00
 7.946110474073228e-01	 2.351737830980490e+00	 2.860798363042164e+00
 7.728708843092411e-01	 2.358971881079847e+00	 2.885990591775542e+00
 7.511129018056980e-01	 2.365989716339908e+00	 2.916459306062805e+00
 7.293401367879138e-01	 2.372791829692784e+00	 2.950362104952646e+00
 7.075556030331583e-01	 2.379378767418929e+00	 2.982237778299711e+00
 6.857622901229100e-01	 2.385751128305029e+00	 3.010525458808737e+00
 6.639631623918143e-01	 2.391909562778341e+00	 3.034128865400129e+00
 6.421611579079285e-01	 2.397854772018683e+00	 3.051737618398424e+00
 8.627496411317157e-01	 2.337011578212227e+00	 2.840852766666107e+00
 8.410043537568516e-01	 2.344924711810939e+00	 2.840051723460601e+00
 8.192319127143599e-01	 2.352619707299180e+00	 2.846238711911891e+00
 7.974354284632884e-01	 2.360096893930465e+00	 2.858784868539169e+00
 7.756179917034960e-01	 2.367356656878152e+00	 2.877042581712267e+00
 7.537826722006470e-01	 2.374399436468223e+00	 2.900339513519051e+00
 7.319325176403594e-01	 2.381225727384938e+00	 2.927487135817275e+00
 7.100705525121429e-01	 2.387836077850523e+00	 2.953382476011457e+00
 6.881997770237152e-01	 2.394231088780064e+00	 2.976356204253603e+00
 6.663231660462215e-01	 2.400411412912772e+00	 2.995603650684409e+00
 6.444436680908576e-01	 2.406377753920808e+00	 3.010110477981405e+00
 8.658053999435384e-01	 2.345289001189816e+00	 2.860276432190122e+00
 8.439830932908110e-01	 2.353230162186319e+00	 2.854055857819951e+00
 8.221335367953240e-01	 2.360952412452252e+00	 2.853560729109188e+00
 8.002598519330313e-01	 2.368456082407380e+00	 2.858507925011065e+00
 7.783651403507144e-01	 2.375741558589372e+00	 2.868599818880991e+00
 7.564524826868121e-01	 2.382809282883866e+00	 2.883517720211754e+00
 7.345249374215115e-01	 2.389659751727305e+00	 2.902678648860930e+00
 7.125855397567351e-01	 2.396293515283727e+00	 2.921573795613758e+00
 6.906373005266077e-01	 2.402711176596659e+00	 2.938395303721616e+00
 6.686832051389440e-01	 2.408913390717305e+00	 2.952674776641600e+00
 6.467262125482437e-01	 2.414900863810222e+00	 2.963739094491793e+00
 6.239017671286295e-01	 2.329673495908198e+00	 3.213149825609895e+00
 6.027197203449561e-01	 2.335243225244862e+00	 3.226738811412380e+00
 5.815405089992440e-01	 2.340607302145042e+00	 3.225606913387637e+00
 5.603669070574516e-01	 2.345766553420075e+00	 3.212158988669708e+00
 5.392016592342920e-01	 2.350721851527660e+00	 3.188709494495820e+00
 5.180474801603698e-01	 2.355474113615235e+00	 3.157498461349839e+00
 4.969070535816822e-01	 2.360024300548634e+00	 3.120705936096380e+00
 4.757830315916279e-01	 2.364373415927180e+00	 3.080464967778752e+00
 4.546780338956418e-01	 2.368522505086348e+00	 3.038873215955515e+00
 4.335946471085258e-01	 2.372472654089150e+00	 2.998003267618559e+00
 4.125354240844981e-01	 2.376224988707342e+00	 2.959911753878943e+00
 6.261841660747978e-01	 2.338196062442769e+00	 3.209714958954005e+00
 6.049246297188564e-01	 2.343786167334006e+00	 3.223925337163843e+00
 5.836679391736149e-01	 2.349169867457370e+00	 3.223646149691230e+00
 5.624168785529433e-01	 2.354347992648878e+00	 3.211277374070462e+00
 5.411742026124571e-01	 2.359321418557904e+00	 3.189128930720137e+00
 5.199426359136082e-01	 2.364091065687044e+00	 3.159436659158279e+00
 4.987248720202569e-01	 2.368657898417226e+00	 3.124376718844718e+00
 4.775235727278708e-01	 2.373022924019193e+00	 3.086078490516893e+00
 4.563413673254701e-01	 2.377187191652527e+00	 3.046636061239068e+00
 4.351808518903875e-01	 2.381151791353338e+00	 3.008118382677341e+00
 4.140445886158672e-01	 2.384917853011747e+00	 2.972578197353072e+00
 6.284665630823351e-01	 2.346718621735575e+00	 3.201485760350605e+00
 6.071295372199624e-01	 2.352329102164099e+00	 3.215947056831089e+00
 5.857953675409997e-01	 2.357732425494026e+00	 3.216374643897852e+00
 5.644668483072240e-01	 2.362929424586053e+00	 3.205128162510192e+00
 5.431467443151482e-01	 2.367920978281215e+00	 3.184477500828088e+00
 5.218377900570667e-01	 2.372708010437259e+00	 3.156618817597145e+00
 5.005426889146970e-01	 2.377291488950197e+00	 3.123688942809402e+00
 4.792641123855708e-01	 2.381672424762187e+00	 3.087778234726660e+00
 4.580046993422895e-01	 2.385851870856911e+00	 3.050941979864748e+00
 4.367670553247116e-01	 2.389830921243562e+00	 3.015210428959263e+00
 4.155537518651018e-01	 2.393610709930618e+00	 2.982597567275110e+00
 6.307489626778779e-01	 2.355241190690244e+00	 3.188467094949528e+00
 6.093344472212071e-01	 2.360872046679166e+00	 3.202844147050169e+00
 5.879227983206611e-01	 2.366294993237942e+00	 3.203860761295227e+00
 5.665168203859353e-01	 2.371510866251946e+00	 3.193801201212271e+00
 5.451192882544537e-01	 2.376520547753874e+00	 3.174860249534481e+00
 5.237329463493655e-01	 2.381324964956626e+00	 3.149159322370296e+00
 5.023605078702587e-01	 2.385925089271292e+00	 3.118760911293984e+00
 4.810046540167416e-01	 2.390321935311449e+00	 3.085681435693512e+00
 4.596680332450091e-01	 2.394516559884872e+00	 3.051902595387491e+00
 4.383532605574575e-01	 2.398510060973844e+00	 3.019381320080382e+00
 4.170629168253849e-01	 2.402303576705196e+00	 2.990058417673089e+00
 6.330313693880619e-01	 2.363763786210413e+00	 3.170664409371541e+00
 6.115393640955251e-01	 2.369415017823233e+00	 3.184657112006790e+00
 5.900502357318614e-01	 2.374857587672046e+00	 3.186173009436701e+00
 5.685667988547182e-01	 2.380092334666901e+00	 3.177386357607208e+00
 5.470918383424609e-01	 2.385120144032165e+00	 3.160382177601137e+00
 5.256281085491243e-01	 2.389941946335889e+00	 3.137172503725654e+00
 5.041783324921976e-01	 2.394558716504258e+00	 3.109710908146324e+00
 4.827452010733964e-01	 2.398971472822264e+00	 3.079905387684527e+00
 4.613313723325373e-01	 2.403181275921788e+00	 3.049629706240596e+00
 4.399394707345851e-01	 2.407189227758209e+00	 3.020733293002334e+00
 4.185720864898999e-01	 2.410996470576721e+00	 2.995049802158044e+00
 6.353137877395229e-01	 2.372286425199707e+00	 3.148083639874265e+00
 6.137442922158493e-01	 2.377958032540327e+00	 3.161426706753876e+00
 5.921776839938637e-01	 2.383420225779265e+00	 3.163379974680763e+00
 5.706167877792144e-01	 2.388673846851264e+00	 3.155973467268335e+00
 5.490643984912580e-01	 2.393719784172369e+00	 3.141148199447740e+00
 5.275232804149638e-01	 2.398558971665798e+00	 3.120772602125847e+00
 5.059961663857703e-01	 2.403192387772837e+00	 3.096657169979662e+00
 4.844857570075478e-01	 2.407621054449918e+00	 3.070567421317308e+00
 4.629947199037828e-01	 2.411846036153035e+00	 3.044235266956888e+00
 4.415256890020541e-01	 2.415868438810683e+00	 3.019368891917621e+00
 4.200812638518300e-01	 2.419689408786432e+00	 2.997661259393023e+00
 6.375962222588971e-01	 2.380809124561765e+00	 3.120731120948534e+00
 6.159492359551137e-01	 2.386501107774475e+00	 3.133193860756239e+00
 5.943051473259304e-01	 2.391982924542530e+00	 3.135550258790624e+00
 5.726667912250650e-01	 2.397255419825381e+00	 3.129652281774530e+00
 5.510369726129325e-01	 2.402319485230767e+00	 3.117263100588532e+00
 5.294184657055038e-01	 2.407176058037094e+00	 3.100073733672777e+00
 5.078140131562326e-01	 2.411826120200775e+00	 3.079717858102924e+00
 4.862263252712091e-01	 2.416270697349693e+00	 3.057784880618101e+00
 4.646580792576541e-01	 2.420510857763989e+00	 3.035831369081617e+00
 4.431119185058240e-01	 2.424547711345288e+00	 3.015390951849391e+00
 4.215904519043582e-01	 2.428382408575571e+00	 2.997982798317142e+00
 6.398786774728203e-01	 2.389331901200212e+00	 3.088613494328431e+00
 6.181541996862522e-01	 2.395044260469702e+00	 3.099999601651374e+00
 5.964326299473244e-01	 2.400545700944769e+00	 3.102752415587734e+00
 5.747168132579117e-01	 2.405837070609595e+00	 3.098512416497980e+00
 5.530095646195727e-01	 2.410919264263641e+00	 3.088831494895921e+00
 5.313136681793647e-01	 2.415793222540528e+00	 3.075189855289679e+00
 5.096318764088407e-01	 2.420459930911815e+00	 3.059011030165342e+00
 4.879669093163936e-01	 2.424920418676879e+00	 3.041675099775263e+00
 4.663214536930597e-01	 2.429175757940024e+00	 3.024530221783535e+00
 4.446981623918547e-01	 2.433227062576053e+00	 3.008902581971764e+00
 4.230996536406679e-01	 2.437075487185377e+00	 2.996104883130032e+00
 6.421611579079285e-01	 2.397854772018683e+00	 3.051737618398424e+00
 6.203591877821976e-01	 2.403587507570036e+00	 3.061884979215523e+00
 5.985601360773081e-01	 2.409108571968912e+00	 3.065054887653322e+00
 5.767668579433949e-01	 2.414418816224252e+00	 3.062643298314800e+00
 5.549821784232659e-01	 2.419519138327273e+00	 3.055957781691891e+00
 5.332088915951666e-01	 2.424410482266842e+00	 3.046234729663777e+00
 5.114497597488508e-01	 2.429093837029705e+00	 3.034654611520158e+00
 4.897075125951141e-01	 2.433570235586758e+00	 3.022355379593718e+00
 4.679848465089086e-01	 2.437840753866520e+00	 3.010444132170162e+00
 4.462844238061057e-01	 2.441906509717000e+00	 3.000007148656713e+00
 4.246088720539422e-01	 2.445768661857091e+00	 2.992118418042112e+00
 6.444436680908576e-01	 2.406377753920808e+00	 3.010110477981405e+00
 6.225642046158841e-01	 2.412130866019502e+00	 3.018890989524444e+00
 6.006876699351441e-01	 2.417671554597886e+00	 3.022525943071873e+00
 5.788169293471569e-01	 2.423000673689698e+00	 3.022134113236326e+00
 5.569548179361002e-01	 2.428119124477946e+00	 3.018746102668089e+00
 5.351041397115297e-01	 2.433027854306784e+00	 3.013321889952671e+00
 5.132676667815187e-01	 2.437727855678187e+00	 3.006766366312080e+00
 4.914481385593841e-01	 2.442220165234616e+00	 2.999942963655999e+00
 4.696482610041089e-01	 2.446505862728852e+00	 2.993685485313181e+00
 4.478707058945368e-01	 2.450586069982156e+00	 2.988808258253141e+00
 4.261181101373641e-01	 2.454461949831952e+00	 2.986114731795539e+00
 6.467262125482437e-01	 2.414900863810222e+00	 2.963739094491793e+00
 6.247692545602453e-01	 2.420674352762128e+00	 2.971058499298360e+00
 6.028152357400953e-01	 2.426234665814622e+00	 2.975233612210620e+00
 5.808670315348385e-01	 2.431582660026279e+00	 2.977073753958861e+00
 5.589274870701637e-01	 2.436719239771942e+00	 2.977300298635206e+00
 5.369994162870741e-01	 2.441645355751099e+00	 2.976564604257308e+00
 5.150856011121007e-01	 2.446362003981005e+00	 2.975463868292867e+00
 4.931887906612165e-01	 2.450870224775741e+00	 2.974555014195150e+00
 4.713117004775699e-01	 2.455171101712394e+00	 2.974366723989540e+00
 4.494570118031077e-01	 2.459265760585544e+00	 2.975409739603597e+00
 4.276273708841172e-01	 2.463155368351200e+00	 2.978185561960750e+00
 4.125354240844981e-01	 2.376224988707342e+00	 2.959911753878943e+00
 3.914993108678211e-01	 2.379781260948494e+00	 2.928940053433960e+00
 3.704923791699241e-01	 2.383142017333930e+00	 2.907272070585054e+00
 3.495170835139961e-01	 2.386308495462393e+00	 2.894053988714329e+00
 3.285758421694240e-01	 2.389281968537790e+00	 2.888167300254598e+00
 3.076710366437497e-01	 2.392063744314279e+00	 2.888108861507943e+00
 2.868050112068564e-01	 2.394655164037665e+00	 2.892517404193244e+00
 2.659800724471563e-01	 2.397057601384103e+00	 2.900150361643716e+00
 2.451984888595130e-01	 2.399272461397111e+00	 2.909862756936020e+00
 2.244624904646028e-01	 2.401301179423868e+00	 2.920587985885351e+00
 2.037742684593891e-01	 2.403145220051754e+00	 2.931320321688254e+00
 4.140445886158672e-01	 2.384917853011747e+00	 2.972578197353072e+00
 3.929315196905247e-01	 2.388487135044622e+00	 2.943968829081347e+00
 3.718477390377304e-01	 2.391860185972617e+00	 2.924053073864552e+00
 3.507957101599756e-01	 2.395038247921946e+00	 2.911875290929408e+00
 3.297778601733239e-01	 2.398022598754242e+00	 2.906391303911557e+00
 3.087965792975083e-01	 2.400814551007788e+00	 2.906154498430088e+00
 2.878542203783784e-01	 2.403415450835027e+00	 2.909854838624033e+00
 2.669530984424634e-01	 2.405826676937397e+00	 2.916298043972923e+00
 2.460954902833885e-01	 2.408049639498448e+00	 2.924384860926811e+00
 2.252836340798418e-01	 2.410085779116246e+00	 2.933092251936096e+00
 2.045197290447714e-01	 2.411936565736029e+00	 2.941456323148841e+00
 4.155537518651018e-01	 2.393610709930618e+00	 2.982597567275110e+00
 3.943637272964343e-01	 2.397193001744242e+00	 2.956653747937006e+00
 3.732030977540012e-01	 2.400578347204410e+00	 2.938736741954014e+00
 3.520743357195860e-01	 2.403767992964807e+00	 2.927801737670880e+00
 3.309798771559185e-01	 2.406763221544790e+00	 2.922865608667084e+00
 3.099221209949139e-01	 2.409565350266758e+00	 2.922551075957073e+00
 2.889034286583783e-01	 2.412175730189793e+00	 2.925609159321987e+00
 2.679261236109494e-01	 2.414595745040609e+00	 2.930903652423936e+00
 2.469924909450037e-01	 2.416826810142783e+00	 2.937390783559622e+00
 2.261047769972327e-01	 2.418870371345268e+00	 2.944100816694394e+00
 2.052651889965601e-01	 2.420727903951158e+00	 2.950121408424867e+00
 4.170629168253849e-01	 2.402303576705196e+00	 2.990058417673089e+00
 3.957959365261206e-01	 2.405898878314389e+00	 2.967070002956704e+00
 3.745584580069016e-01	 2.409296518320723e+00	 2.951388213566669e+00
 3.533529627288112e-01	 2.412497747905362e+00	 2.941893364516678e+00
 3.321818955012544e-01	 2.415503854245389e+00	 2.937650244439697e+00
 3.110476639683353e-01	 2.418316159447326e+00	 2.937362544584041e+00
 2.899526381278250e-01	 2.420936019476900e+00	 2.939851957238678e+00
 2.688991498824765e-01	 2.423364823086111e+00	 2.944049927975375e+00
 2.478894926234254e-01	 2.425603990738563e+00	 2.948977711733424e+00
 2.269259208453737e-01	 2.427654973534108e+00	 2.953728392408344e+00
 2.060106497932278e-01	 2.429519252133696e+00	 2.957450675865137e+00
 4.185720864898999e-01	 2.410996470576721e+00	 2.995049802158044e+00
 3.972281502201537e-01	 2.414604782022096e+00	 2.975293439776895e+00
 3.759138224845954e-01	 2.418014716612970e+00	 2.962073363808873e+00
 3.546315937236353e-01	 2.421227530057993e+00	 2.954210575994498e+00
 3.333839175933773e-01	 2.424244514191992e+00	 2.950805395864387e+00
 3.121732104501413e-01	 2.427066995905629e+00	 2.950652769451679e+00
 2.910018508676867e-01	 2.429696336071292e+00	 2.952654472299221e+00
 2.698721791869070e-01	 2.432133928466275e+00	 2.955818969509238e+00
 2.487864970977205e-01	 2.434381198694238e+00	 2.959241873956535e+00
 2.277470672528630e-01	 2.436439603105940e+00	 2.962088391567637e+00
 2.067561129132467e-01	 2.438310627720205e+00	 2.963577557749423e+00
 4.200812638518300e-01	 2.419689408786432e+00	 2.997661259393023e+00
 3.986603712191037e-01	 2.423310730134403e+00	 2.981400543622265e+00
 3.772691938752477e-01	 2.426732959372562e+00	 2.970858793226029e+00
 3.559102312400421e-01	 2.429957356737082e+00	 2.964814166357128e+00
 3.345859458163341e-01	 2.432985218720554e+00	 2.962391422574205e+00
 3.132987626727006e-01	 2.435817876997804e+00	 2.962485551140787e+00
 2.920510689589323e-01	 2.438456697347906e+00	 2.964087615673046e+00
 2.708452134541033e-01	 2.440903078573478e+00	 2.966292258477421e+00
 2.496835061469557e-01	 2.443158451418256e+00	 2.968278568284096e+00
 2.285682178482987e-01	 2.445224277483935e+00	 2.969292958942789e+00
 2.075015798350895e-01	 2.447102048147247e+00	 2.968633857215528e+00
 4.215904519043582e-01	 2.428382408575571e+00	 2.997982798317142e+00
 4.000926023635407e-01	 2.432016739918337e+00	 2.985468426006221e+00
 3.786245748670223e-01	 2.435451263890913e+00	 2.977811816658483e+00
 3.571888778140154e-01	 2.438687245257012e+00	 2.973765340151710e+00
 3.357879825541705e-01	 2.441725985167030e+00	 2.972468879245906e+00
 3.144243228683821e-01	 2.444568820079989e+00	 2.972924646183582e+00
 2.931002944825301e-01	 2.447217120681682e+00	 2.974221991697474e+00
 2.718182546139279e-01	 2.449672290800091e+00	 2.975550683140912e+00
 2.505805215501979e-01	 2.451935766319064e+00	 2.976182189732820e+00
 2.293893742602790e-01	 2.454009014091267e+00	 2.975453002991484e+00
 2.082470520372284e-01	 2.455893530851378e+00	 2.972749784429159e+00
 4.230996536406679e-01	 2.437075487185377e+00	 2.996104883130032e+00
 4.015248464940348e-01	 2.440722828640939e+00	 2.987574811229284e+00
 3.799799681480843e-01	 2.444169647459435e+00	 2.983000451912035e+00
 3.584675359815393e-01	 2.447417212932166e+00	 2.981125732589969e+00
 3.369900301909332e-01	 2.450466830867374e+00	 2.981098535417068e+00
 3.155498932695541e-01	 2.453319842508320e+00	 2.982033787300149e+00
 2.941495295194485e-01	 2.455977623447562e+00	 2.983127919463834e+00
 2.727913045962429e-01	 2.458441582538489e+00	 2.983674562393395e+00
 2.514775450865139e-01	 2.460713160805110e+00	 2.983046257186941e+00
 2.302105381174021e-01	 2.462793830351110e+00	 2.980678226648611e+00
 2.089925309981358e-01	 2.464685093269159e+00	 2.976053992016370e+00
 4.246088720539422e-01	 2.445768661857091e+00	 2.992118418042112e+00
 4.029571064511563e-01	 2.449429013569240e+00	 2.987798022679784e+00
 3.813353764065975e-01	 2.452888127369540e+00	 2.986493408247433e+00
 3.597462082785977e-01	 2.456147277076928e+00	 2.986957429726056e+00
 3.381920911106681e-01	 2.459207773157541e+00	 2.988341395081914e+00
 3.166754761085858e-01	 2.462070961638934e+00	 2.989876703368262e+00
 2.951987761506561e-01	 2.464738223020487e+00	 2.990875454075766e+00
 2.737643653309108e-01	 2.467210971181046e+00	 2.990743669180641e+00
 2.523745785349705e-01	 2.469490652284841e+00	 2.988963439809059e+00
 2.310317110482663e-01	 2.471578743686635e+00	 2.985077157516305e+00
 2.097380181962843e-01	 2.473476752837150e+00	 2.978673609777785e+00
 4.261181101373641e-01	 2.454461949831952e+00	 2.986114731795539e+00
 4.043893850754753e-01	 2.458135311970276e+00	 2.986216968941469e+00
 3.826908023307267e-01	 2.461606720912640e+00	 2.988360074693184e+00
 3.610248972411744e-01	 2.464877455005679e+00	 2.991322988448645e+00
 3.393941676974216e-01	 2.467948829373485e+00	 2.994258716072921e+00
 3.178010736178458e-01	 2.470822194827969e+00	 2.996517139134470e+00
 2.962480364571214e-01	 2.473498936775393e+00	 2.997534407588974e+00
 2.747374387477939e-01	 2.475980474120136e+00	 2.996837253526747e+00
 2.532716236746345e-01	 2.478268258166706e+00	 2.994025582969041e+00
 2.318528946814697e-01	 2.480363771521017e+00	 2.988757177469713e+00
 2.104835151101461e-01	 2.482268526991912e+00	 2.980734278703232e+00
 4.276273708841172e-01	 2.463155368351200e+00	 2.978185561960750e+00
 4.058216852075621e-01	 2.466841741111083e+00	 2.982911129712084e+00
 3.840462486086365e-01	 2.470325445380151e+00	 2.988670508185730e+00
 3.623036054052536e-01	 2.473607764032804e+00	 2.994285456293661e+00
 3.405962623352399e-01	 2.476690016851161e+00	 2.998912029234993e+00
 3.189266880297028e-01	 2.479573559431562e+00	 3.002018874674272e+00
 2.972973125198130e-01	 2.482259782087224e+00	 3.003174369641504e+00
 2.757105267767547e-01	 2.484750108748132e+00	 3.002034065178017e+00
 2.541686822845730e-01	 2.487045995859153e+00	 2.998323733703832e+00
 2.326740906456104e-01	 2.489148931277429e+00	 2.991824551693791e+00
 2.112290232181938e-01	 2.491060433170003e+00	 2.982360184304937e+00
 2.037742684593891e-01	 2.403145220051754e+00	 2.931320321688254e+00
 1.831394705683669e-01	 2.404805809140469e+00	 2.939565002507463e+00
 1.625566475833818e-01	 2.406284794526695e+00	 2.943344808356276e+00
 1.420278244541574e-01	 2.407583720882376e+00	 2.942502065511412e+00
 1.215549875204660e-01	 2.408704157848441e+00	 2.936922775018160e+00
 1.011400843060147e-01	 2.409647699001514e+00	 2.926523455403542e+00
 8.078502333994339e-02	 2.410415960825535e+00	 2.911238770616152e+00
 6.049167400547847e-02	 2.411010581689024e+00	 2.891009813855817e+00
 4.026186641526397e-02	 2.411433220828751e+00	 2.865772926330726e+00
 2.009739131287501e-02	 2.411685557340521e+00	 2.835448938684301e+00
 0.000000000000000e+00	 2.411769289177776e+00	 2.799932731814432e+00
 2.045197290447714e-01	 2.411936565736029e+00	 2.941456323148841e+00
 1.838094435635523e-01	 2.413603229702029e+00	 2.947311899532578e+00
 1.631513231264263e-01	 2.415087625610806e+00	 2.948933687536064e+00
 1.425474000909047e-01	 2.416391303785128e+00	 2.946089788541653e+00
 1.219996680633033e-01	 2.417515839608091e+00	 2.938592671752452e+00
 1.015100816918724e-01	 2.418462832486047e+00	 2.926286568763438e+00
 8.108055648764352e-02	 2.419233904816471e+00	 2.909035638194556e+00
 6.071296867252839e-02	 2.419830700961470e+00	 2.886712767281943e+00
 4.040915505419455e-02	 2.420254886227749e+00	 2.859188886003717e+00
 2.017091292721813e-02	 2.420508145853693e+00	 2.826322678331684e+00
 0.000000000000000e+00	 2.420592184004311e+00	 2.787950584496329e+00
 2.052651889965601e-01	 2.420727903951158e+00	 2.950121408424867e+00
 1.844794159892233e-01	 2.422400642789204e+00	 2.953621205883064e+00
 1.637459981638708e-01	 2.423890449215851e+00	 2.953149730661577e+00
 1.430669752858039e-01	 2.425198879204688e+00	 2.948437251377232e+00
 1.224443482278828e-01	 2.426327513880975e+00	 2.939257400776343e+00
 1.018800787629036e-01	 2.427277958480799e+00	 2.925415137281687e+00
 8.137608938379057e-02	 2.428051841315157e+00	 2.906735463032876e+00
 6.093426315114290e-02	 2.428650812739752e+00	 2.883052761414045e+00
 4.055644356765318e-02	 2.429076544131215e+00	 2.854200626053504e+00
 2.024443447890052e-02	 2.429330726870513e+00	 2.820002062610012e+00
 0.000000000000000e+00	 2.429415071334221e+00	 2.780259954277273e+00
 2.060106497932278e-01	 2.429519252133696e+00	 2.957450675865137e+00
 1.851493891741110e-01	 2.431198065850612e+00	 2.958642761274759e+00
 1.643406738750812e-01	 2.432693282801188e+00	 2.956143204707942e+00
 1.435865510692487e-01	 2.434006464609849e+00	 2.949680366537756e+00
 1.228890288960373e-01	 2.435139198144030e+00	 2.939023283615064e+00
 1.022500762528067e-01	 2.436093094469555e+00	 2.923970213350828e+00
 8.167162261439265e-02	 2.436869787810965e+00	 2.904337922293410e+00
 6.115555788009933e-02	 2.437470934517560e+00	 2.879951578156374e+00
 4.070373224766211e-02	 2.437898212035911e+00	 2.850635113558130e+00
 2.031795611368026e-02	 2.438153317889578e+00	 2.816201939385440e+00
 0.000000000000000e+00	 2.438237968666715e+00	 2.776445895635060e+00
 2.067561129132467e-01	 2.438310627720205e+00	 2.963577557749423e+00
 1.858193644469463e-01	 2.439995516334869e+00	 2.962524467653378e+00
 1.649353514394232e-01	 2.441496143826174e+00	 2.958062383448884e+00
 1.441061284716332e-01	 2.442814077469402e+00	 2.949953217526731e+00
 1.233337109495992e-01	 2.443950909874183e+00	 2.937995199760613e+00
 1.026200748952802e-01	 2.444908257936103e+00	 2.922012020131049e+00
 8.196715676545782e-02	 2.445687761793264e+00	 2.901842705389941e+00
 6.137685329817513e-02	 2.446291083788585e+00	 2.877332084545713e+00
 4.085102138624364e-02	 2.446719907438604e+00	 2.848321707575335e+00
 2.039147797731544e-02	 2.446975936409492e+00	 2.814641091745270e+00
 0.000000000000000e+00	 2.447060893501001e+00	 2.776099180196894e+00
 2.075015798350895e-01	 2.447102048147247e+00	 2.968633857215528e+00
 1.864893431364603e-01	 2.448793011690591e+00	 2.965412329606576e+00
 1.655300320362625e-01	 2.450299049750168e+00	 2.959053587719635e+00
 1.446257085233511e-01	 2.451621735252139e+00	 2.949388095202174e+00
 1.237783952704012e-01	 2.452762666548368e+00	 2.936276615301526e+00
 1.029900754240227e-01	 2.453723466364229e+00	 2.919599968488378e+00
 8.226269242299415e-02	 2.454505780751423e+00	 2.899249515184648e+00
 6.159814984414769e-02	 2.455111278046521e+00	 2.875118214062141e+00
 4.099831127542001e-02	 2.455541647836057e+00	 2.847092116330213e+00
 2.046500021556416e-02	 2.455798599928852e+00	 2.815042166737167e+00
 0.000000000000000e+00	 2.455883863336285e+00	 2.778816192619792e+00
 2.082470520372284e-01	 2.455893530851378e+00	 2.972749784429159e+00
 1.871593265713839e-01	 2.457590569366397e+00	 2.967450493928379e+00
 1.661247168449647e-01	 2.459102018032525e+00	 2.959261224824205e+00
 1.451452922547963e-01	 2.460429455426853e+00	 2.948115533368427e+00
 1.242230827402758e-01	 2.461574485643514e+00	 2.933969610937207e+00
 1.033600785727327e-01	 2.462538737237722e+00	 2.916792673569244e+00
 8.255823017300974e-02	 2.463323862174812e+00	 2.896558069163851e+00
 6.181944795679448e-02	 2.463931534785059e+00	 2.873234948353110e+00
 4.114560220721350e-02	 2.464363450725036e+00	 2.846780355344652e+00
 2.053852297418449e-02	 2.464621325946255e+00	 2.817131605674118e+00
 0.000000000000000e+00	 2.464706895671778e+00	 2.784198828757855e+00
 2.089925309981358e-01	 2.464685093269159e+00	 2.976053992016370e+00
 1.878293160804481e-01	 2.466388206810903e+00	 2.968781288357865e+00
 1.667194070448957e-01	 2.467905066132603e+00	 2.958827827109251e+00
 1.456648806963628e-01	 2.469237255462335e+00	 2.946264343609171e+00
 1.246677742410555e-01	 2.470386384636555e+00	 2.931174909392625e+00
 1.037300850751085e-01	 2.471354088040368e+00	 2.913647971020969e+00
 8.285377060151269e-02	 2.472142023552804e+00	 2.893768100593152e+00
 6.204074807489285e-02	 2.472751871497892e+00	 2.871608299360381e+00
 4.129289447364637e-02	 2.473185333602306e+00	 2.847222706484597e+00
 2.061204639893452e-02	 2.473444131960304e+00	 2.820639575965318e+00
 0.000000000000000e+00	 2.473530008006687e+00	 2.791854396058111e+00
 2.097380181962843e-01	 2.473476752837150e+00	 2.978673609777785e+00
 1.884993129923840e-01	 2.475185941472725e+00	 2.969545259513627e+00
 1.673141038154211e-01	 2.476708211509763e+00	 2.957894089725968e+00
 1.461844748784443e-01	 2.478045152827377e+00	 2.943961649381256e+00
 1.251124706545730e-01	 2.479198381004420e+00	 2.927991902248822e+00
 1.041000956648488e-01	 2.480169536255953e+00	 2.910222932867176e+00
 8.314931429451103e-02	 2.480960282374767e+00	 2.890879359652637e+00
 6.226205063722023e-02	 2.481572305678712e+00	 2.870165291839624e+00
 4.144018836674089e-02	 2.482007313964628e+00	 2.848257677901743e+00
 2.068557063557235e-02	 2.482267035469596e+00	 2.825299904434013e+00
 0.000000000000000e+00	 2.482353217840222e+00	 2.801395516128125e+00
 2.104835151101461e-01	 2.482268526991912e+00	 2.980734278703232e+00
 1.891693186359226e-01	 2.483983790800480e+00	 2.969881210044607e+00
 1.679088083359065e-01	 2.485511471623355e+00	 2.956598907600861e+00
 1.467040758314348e-01	 2.486853164990770e+00	 2.941332919388269e+00
 1.255571728626607e-01	 2.488010492224042e+00	 2.924518676204260e+00
 1.044701110756520e-01	 2.488985099368266e+00	 2.906573883047134e+00
 8.344486183801283e-02	 2.489778656130071e+00	 2.887891614552698e+00
 6.248335608255406e-02	 2.490392854821211e+00	 2.868833946262786e+00
 4.158748417851933e-02	 2.490829409308772e+00	 2.849725964847123e+00
 2.075909582985606e-02	 2.491090053972733e+00	 2.830850012084676e+00
 0.000000000000000e+00	 2.491176542671590e+00	 2.812440029420350e+00
 2.112290232181938e-01	 2.491060433170003e+00	 2.982360184304937e+00
 1.898393343397949e-01	 2.492781772242788e+00	 2.969926235017530e+00
 1.685035217857178e-01	 2.494314863932743e+00	 2.955079411635694e+00
 1.472236845857282e-01	 2.495661309421307e+00	 2.938502000252267e+00
 1.260018817471512e-01	 2.496822735772351e+00	 2.920852038781528e+00
 1.048401320412165e-01	 2.497800794861093e+00	 2.902756412627541e+00
 8.374041381802622e-02	 2.498597162308088e+00	 2.884804652631141e+00
 6.270466484967173e-02	 2.499213536419082e+00	 2.867543262093680e+00
 4.173478220100397e-02	 2.499651637131500e+00	 2.851470411334509e+00
 2.083262212754375e-02	 2.499913204968313e+00	 2.837030850282981e+00
 0.000000000000000e+00	 2.500000000000000e+00	 2.824610901979637e+00
