x	y	stress_yy
 1.000000e+00	 0.000000e+00	 3.076420e+01
 9.999449e-01	 1.049814e-02	 3.075640e+01
 9.997786e-01	 2.104029e-02	 3.073294e+01
 9.994998e-01	 3.162495e-02	 3.069328e+01
 9.991070e-01	 4.225058e-02	 3.063699e+01
 9.985990e-01	 5.291561e-02	 3.056372e+01
 1.007407e+00	 0.000000e+00	 3.023932e+01
 1.007352e+00	 1.057591e-02	 3.023138e+01
 1.007184e+00	 2.119614e-02	 3.020852e+01
 1.006904e+00	 3.185921e-02	 3.017023e+01
 1.006508e+00	 4.256355e-02	 3.011614e+01
 1.005996e+00	 5.330758e-02	 3.004593e+01
 1.014815e+00	 0.000000e+00	 2.973275e+01
 1.014759e+00	 1.065367e-02	 2.972492e+01
 1.014590e+00	 2.135200e-02	 2.970281e+01
 1.014307e+00	 3.209346e-02	 2.966594e+01
 1.013909e+00	 4.287651e-02	 2.961396e+01
 1.013393e+00	 5.369955e-02	 2.954660e+01
 1.022222e+00	 0.000000e+00	 2.924342e+01
 1.022166e+00	 1.073144e-02	 2.923585e+01
 1.021996e+00	 2.150785e-02	 2.921458e+01
 1.021711e+00	 3.232772e-02	 2.917915e+01
 1.021309e+00	 4.318948e-02	 2.912921e+01
 1.020790e+00	 5.409151e-02	 2.906452e+01
 1.029630e+00	 0.000000e+00	 2.877030e+01
 1.029573e+00	 1.080920e-02	 2.876305e+01
 1.029402e+00	 2.166371e-02	 2.874264e+01
 1.029115e+00	 3.256198e-02	 2.870864e+01
 1.028710e+00	 4.350245e-02	 2.866068e+01
 1.028187e+00	 5.448348e-02	 2.859852e+01
 1.037037e+00	 0.000000e+00	 2.831238e+01
 1.036980e+00	 1.088696e-02	 2.830541e+01
 1.036807e+00	 2.181956e-02	 2.828585e+01
 1.036518e+00	 3.279624e-02	 2.825324e+01
 1.036111e+00	 4.381542e-02	 2.820719e+01
 1.035584e+00	 5.487545e-02	 2.814744e+01
 9.985990e-01	 5.291561e-02	 3.056372e+01
 9.979743e-01	 6.361843e-02	 3.047378e+01
 9.972317e-01	 7.435736e-02	 3.036751e+01
 9.963698e-01	 8.513072e-02	 3.024481e+01
 9.953874e-01	 9.593675e-02	 3.010565e+01
 9.942834e-01	 1.067737e-01	 2.995006e+01
 1.005996e+00	 5.330758e-02	 3.004593e+01
 1.005367e+00	 6.408967e-02	 2.995976e+01
 1.004619e+00	 7.490816e-02	 2.985779e+01
 1.003750e+00	 8.576131e-02	 2.973987e+01
 1.002761e+00	 9.664739e-02	 2.960597e+01
 1.001648e+00	 1.075646e-01	 2.945608e+01
 1.013393e+00	 5.369955e-02	 2.954660e+01
 1.012759e+00	 6.456092e-02	 2.946395e+01
 1.012005e+00	 7.545895e-02	 2.936605e+01
 1.011131e+00	 8.639191e-02	 2.925277e+01
 1.010134e+00	 9.735803e-02	 2.912402e+01
 1.009013e+00	 1.083555e-01	 2.897980e+01
 1.020790e+00	 5.409151e-02	 2.906452e+01
 1.020152e+00	 6.503217e-02	 2.898515e+01
 1.019392e+00	 7.600975e-02	 2.889115e+01
 1.018511e+00	 8.702251e-02	 2.878233e+01
 1.017507e+00	 9.806867e-02	 2.865862e+01
 1.016379e+00	 1.091464e-01	 2.852000e+01
 1.028187e+00	 5.448348e-02	 2.859852e+01
 1.027544e+00	 6.550342e-02	 2.852225e+01
 1.026779e+00	 7.656054e-02	 2.843196e+01
 1.025892e+00	 8.765311e-02	 2.832746e+01
 1.024880e+00	 9.877932e-02	 2.820864e+01
 1.023744e+00	 1.099373e-01	 2.807549e+01
 1.035584e+00	 5.487545e-02	 2.814744e+01
 1.034936e+00	 6.597466e-02	 2.807415e+01
 1.034166e+00	 7.711134e-02	 2.798742e+01
 1.033272e+00	 8.828371e-02	 2.788706e+01
 1.032254e+00	 9.948996e-02	 2.777296e+01
 1.031109e+00	 1.107283e-01	 2.764511e+01
 9.942834e-01	 1.067737e-01	 2.995006e+01
 9.930563e-01	 1.176397e-01	 2.977777e+01
 9.917053e-01	 1.285329e-01	 2.958848e+01
 9.902289e-01	 1.394514e-01	 2.938223e+01
 9.886263e-01	 1.503932e-01	 2.915915e+01
 9.868962e-01	 1.613564e-01	 2.891945e+01
 1.001648e+00	 1.075646e-01	 2.945608e+01
 1.000412e+00	 1.185111e-01	 2.929012e+01
 9.990512e-01	 1.294850e-01	 2.910798e+01
 9.975640e-01	 1.404843e-01	 2.890972e+01
 9.959494e-01	 1.515072e-01	 2.869545e+01
 9.942065e-01	 1.625517e-01	 2.846537e+01
 1.009013e+00	 1.083555e-01	 2.897980e+01
 1.007768e+00	 1.193825e-01	 2.882012e+01
 1.006397e+00	 1.304371e-01	 2.864495e+01
 1.004899e+00	 1.415173e-01	 2.845435e+01
 1.003273e+00	 1.526213e-01	 2.824844e+01
 1.001517e+00	 1.637469e-01	 2.802741e+01
 1.016379e+00	 1.091464e-01	 2.852000e+01
 1.015124e+00	 1.202539e-01	 2.836650e+01
 1.013743e+00	 1.313891e-01	 2.819810e+01
 1.012234e+00	 1.425503e-01	 2.801487e+01
 1.010596e+00	 1.537353e-01	 2.781693e+01
 1.008827e+00	 1.649421e-01	 2.760445e+01
 1.023744e+00	 1.099373e-01	 2.807549e+01
 1.022480e+00	 1.211253e-01	 2.792801e+01
 1.021089e+00	 1.323412e-01	 2.776619e+01
 1.019569e+00	 1.435833e-01	 2.759006e+01
 1.017919e+00	 1.548493e-01	 2.739976e+01
 1.016138e+00	 1.661374e-01	 2.719544e+01
 1.031109e+00	 1.107283e-01	 2.764511e+01
 1.029836e+00	 1.219967e-01	 2.750347e+01
 1.028435e+00	 1.332933e-01	 2.734800e+01
 1.026904e+00	 1.446162e-01	 2.717875e+01
 1.025242e+00	 1.559633e-01	 2.699581e+01
 1.023448e+00	 1.673326e-01	 2.679934e+01
 9.868962e-01	 1.613564e-01	 2.891945e+01
 9.850377e-01	 1.723390e-01	 2.866331e+01
 9.830498e-01	 1.833389e-01	 2.839113e+01
 9.809315e-01	 1.943540e-01	 2.810345e+01
 9.786818e-01	 2.053822e-01	 2.780085e+01
 9.763001e-01	 2.164213e-01	 2.748392e+01
 9.942065e-01	 1.625517e-01	 2.846537e+01
 9.923343e-01	 1.736156e-01	 2.821949e+01
 9.903316e-01	 1.846970e-01	 2.795802e+01
 9.881976e-01	 1.957937e-01	 2.768152e+01
 9.859313e-01	 2.069035e-01	 2.739059e+01
 9.835319e-01	 2.180244e-01	 2.708588e+01
 1.001517e+00	 1.637469e-01	 2.802741e+01
 9.996308e-01	 1.748922e-01	 2.779117e+01
 9.976135e-01	 1.860550e-01	 2.753985e+01
 9.954638e-01	 1.972333e-01	 2.727405e+01
 9.931808e-01	 2.084249e-01	 2.699439e+01
 9.907638e-01	 2.196275e-01	 2.670153e+01
 1.008827e+00	 1.649421e-01	 2.760445e+01
 1.006927e+00	 1.761688e-01	 2.737733e+01
 1.004895e+00	 1.874131e-01	 2.713570e+01
 1.002730e+00	 1.986730e-01	 2.688016e+01
 1.000430e+00	 2.099462e-01	 2.661135e+01
 9.979956e-01	 2.212306e-01	 2.632996e+01
 1.016138e+00	 1.661374e-01	 2.719544e+01
 1.014224e+00	 1.774454e-01	 2.697701e+01
 1.012177e+00	 1.887712e-01	 2.674465e+01
 1.009996e+00	 2.001126e-01	 2.649896e+01
 1.007680e+00	 2.114676e-01	 2.624061e+01
 1.005227e+00	 2.228337e-01	 2.597028e+01
 1.023448e+00	 1.673326e-01	 2.679934e+01
 1.021521e+00	 1.787220e-01	 2.658928e+01
 1.019459e+00	 1.901292e-01	 2.636583e+01
 1.017262e+00	 2.015523e-01	 2.612962e+01
 1.014929e+00	 2.129889e-01	 2.588132e+01
 1.012459e+00	 2.244369e-01	 2.562161e+01
 9.763001e-01	 2.164213e-01	 2.748392e+01
 9.737853e-01	 2.274691e-01	 2.715194e+01
 9.711368e-01	 2.385234e-01	 2.680421e+01
 9.683537e-01	 2.495819e-01	 2.644135e+01
 9.654354e-01	 2.606423e-01	 2.606401e+01
 9.623813e-01	 2.717024e-01	 2.567281e+01
 9.835319e-01	 2.180244e-01	 2.708588e+01
 9.809985e-01	 2.291540e-01	 2.676663e+01
 9.783304e-01	 2.402902e-01	 2.643210e+01
 9.755267e-01	 2.514306e-01	 2.608288e+01
 9.725868e-01	 2.625730e-01	 2.571956e+01
 9.695101e-01	 2.737150e-01	 2.534273e+01
 9.907638e-01	 2.196275e-01	 2.670153e+01
 9.882118e-01	 2.308390e-01	 2.639464e+01
 9.855240e-01	 2.420570e-01	 2.607285e+01
 9.826997e-01	 2.532794e-01	 2.573674e+01
 9.797382e-01	 2.645037e-01	 2.538687e+01
 9.766388e-01	 2.757276e-01	 2.502382e+01
 9.979956e-01	 2.212306e-01	 2.632996e+01
 9.954250e-01	 2.325239e-01	 2.603501e+01
 9.927176e-01	 2.438239e-01	 2.572547e+01
 9.898727e-01	 2.551281e-01	 2.540192e+01
 9.868896e-01	 2.664344e-01	 2.506494e+01
 9.837676e-01	 2.777402e-01	 2.471507e+01
 1.005227e+00	 2.228337e-01	 2.597028e+01
 1.002638e+00	 2.342089e-01	 2.568681e+01
 9.999112e-01	 2.455907e-01	 2.538901e+01
 9.970457e-01	 2.569769e-01	 2.507747e+01
 9.940409e-01	 2.683651e-01	 2.475279e+01
 9.908963e-01	 2.797528e-01	 2.441552e+01
 1.012459e+00	 2.244369e-01	 2.562161e+01
 1.009851e+00	 2.358938e-01	 2.534915e+01
 1.007105e+00	 2.473576e-01	 2.506255e+01
 1.004219e+00	 2.588256e-01	 2.476245e+01
 1.001192e+00	 2.702957e-01	 2.444947e+01
 9.980251e-01	 2.817654e-01	 2.412421e+01
 9.623813e-01	 2.717024e-01	 2.567281e+01
 9.591908e-01	 2.827597e-01	 2.526834e+01
 9.558632e-01	 2.938119e-01	 2.485165e+01
 9.523983e-01	 3.048566e-01	 2.442409e+01
 9.487954e-01	 3.158914e-01	 2.398701e+01
 9.450542e-01	 3.269137e-01	 2.354183e+01
 9.695101e-01	 2.737150e-01	 2.534273e+01
 9.662959e-01	 2.848542e-01	 2.495316e+01
 9.629437e-01	 2.959883e-01	 2.455216e+01
 9.594531e-01	 3.071148e-01	 2.414114e+01
 9.558235e-01	 3.182313e-01	 2.372154e+01
 9.520546e-01	 3.293353e-01	 2.329482e+01
 9.766388e-01	 2.757276e-01	 2.502382e+01
 9.734010e-01	 2.869488e-01	 2.464854e+01
 9.700242e-01	 2.981647e-01	 2.426262e+01
 9.665079e-01	 3.093730e-01	 2.386752e+01
 9.628516e-01	 3.205713e-01	 2.346472e+01
 9.590550e-01	 3.317569e-01	 2.305572e+01
 9.837676e-01	 2.777402e-01	 2.471507e+01
 9.805061e-01	 2.890433e-01	 2.435351e+01
 9.771047e-01	 3.003411e-01	 2.398207e+01
 9.735627e-01	 3.116312e-01	 2.360228e+01
 9.698797e-01	 3.229112e-01	 2.321562e+01
 9.660554e-01	 3.341785e-01	 2.282363e+01
 9.908963e-01	 2.797528e-01	 2.441552e+01
 9.876112e-01	 2.911378e-01	 2.406708e+01
 9.841851e-01	 3.025175e-01	 2.370956e+01
 9.806175e-01	 3.138894e-01	 2.334447e+01
 9.769078e-01	 3.252511e-01	 2.297335e+01
 9.730558e-01	 3.366001e-01	 2.259770e+01
 9.980251e-01	 2.817654e-01	 2.412421e+01
 9.947164e-01	 2.932323e-01	 2.378833e+01
 9.912656e-01	 3.046939e-01	 2.344416e+01
 9.876723e-01	 3.161476e-01	 2.309322e+01
 9.839359e-01	 3.275911e-01	 2.273703e+01
 9.800562e-01	 3.390217e-01	 2.237709e+01
 9.450542e-01	 3.269137e-01	 2.354183e+01
 9.411744e-01	 3.379212e-01	 2.308538e+01
 9.371557e-01	 3.489113e-01	 2.261369e+01
 9.329980e-01	 3.598816e-01	 2.212680e+01
 9.287010e-01	 3.708294e-01	 2.162461e+01
 9.242647e-01	 3.817523e-01	 2.112558e+01
 9.520546e-01	 3.293353e-01	 2.329482e+01
 9.481461e-01	 3.404243e-01	 2.285649e+01
 9.440976e-01	 3.514959e-01	 2.240116e+01
 9.399091e-01	 3.625474e-01	 2.192877e+01
 9.355803e-01	 3.735763e-01	 2.144061e+01
 9.311111e-01	 3.845801e-01	 2.096151e+01
 9.590550e-01	 3.317569e-01	 2.305572e+01
 9.551177e-01	 3.429275e-01	 2.263464e+01
 9.510395e-01	 3.540804e-01	 2.219465e+01
 9.468202e-01	 3.652132e-01	 2.173559e+01
 9.424595e-01	 3.763232e-01	 2.126251e+01
 9.379575e-01	 3.874079e-01	 2.080232e+01
 9.660554e-01	 3.341785e-01	 2.282363e+01
 9.620894e-01	 3.454306e-01	 2.241899e+01
 9.579814e-01	 3.566649e-01	 2.199335e+01
 9.537313e-01	 3.678790e-01	 2.154652e+01
 9.493388e-01	 3.790701e-01	 2.108971e+01
 9.448039e-01	 3.902357e-01	 2.064747e+01
 9.730558e-01	 3.366001e-01	 2.259770e+01
 9.690610e-01	 3.479337e-01	 2.220872e+01
 9.649233e-01	 3.592495e-01	 2.179651e+01
 9.606424e-01	 3.705447e-01	 2.136083e+01
 9.562181e-01	 3.818170e-01	 2.092164e+01
 9.516503e-01	 3.930635e-01	 2.049644e+01
 9.800562e-01	 3.390217e-01	 2.237709e+01
 9.760327e-01	 3.504368e-01	 2.200303e+01
 9.718652e-01	 3.618340e-01	 2.160337e+01
 9.675535e-01	 3.732105e-01	 2.117912e+01
 9.630973e-01	 3.845639e-01	 2.075776e+01
 9.584967e-01	 3.958913e-01	 2.034874e+01
 9.242647e-01	 3.817523e-01	 2.112558e+01
 9.196890e-01	 3.926477e-01	 2.063198e+01
 9.149739e-01	 4.035130e-01	 2.013021e+01
 9.101196e-01	 4.143457e-01	 1.961908e+01
 9.051262e-01	 4.251431e-01	 1.909725e+01
 8.999938e-01	 4.359027e-01	 1.856331e+01
 9.311111e-01	 3.845801e-01	 2.096151e+01
 9.265015e-01	 3.955562e-01	 2.048707e+01
 9.217515e-01	 4.065020e-01	 2.000428e+01
 9.168612e-01	 4.174149e-01	 1.951189e+01
 9.118308e-01	 4.282923e-01	 1.900857e+01
 9.066604e-01	 4.391316e-01	 1.849285e+01
 9.379575e-01	 3.874079e-01	 2.080232e+01
 9.333140e-01	 3.984647e-01	 2.034603e+01
 9.285291e-01	 4.094910e-01	 1.988126e+01
 9.236028e-01	 4.204841e-01	 1.940674e+01
 9.185354e-01	 4.314415e-01	 1.892112e+01
 9.133271e-01	 4.423605e-01	 1.842291e+01
 9.448039e-01	 3.902357e-01	 2.064747e+01
 9.401265e-01	 4.013732e-01	 2.020835e+01
 9.353067e-01	 4.124800e-01	 1.976069e+01
 9.303445e-01	 4.235534e-01	 1.930322e+01
 9.252401e-01	 4.345907e-01	 1.883454e+01
 9.199937e-01	 4.455894e-01	 1.835314e+01
 9.516503e-01	 3.930635e-01	 2.049644e+01
 9.469390e-01	 4.042817e-01	 2.007357e+01
 9.420842e-01	 4.154690e-01	 1.964217e+01
 9.370861e-01	 4.266226e-01	 1.920095e+01
 9.319447e-01	 4.377399e-01	 1.874847e+01
 9.266603e-01	 4.488183e-01	 1.828323e+01
 9.584967e-01	 3.958913e-01	 2.034874e+01
 9.537515e-01	 4.071902e-01	 1.994123e+01
 9.488618e-01	 4.184580e-01	 1.952527e+01
 9.438277e-01	 4.296918e-01	 1.909954e+01
 9.386493e-01	 4.408891e-01	 1.866259e+01
 9.333269e-01	 4.520472e-01	 1.821286e+01
 8.999938e-01	 4.359027e-01	 1.856331e+01
 8.947229e-01	 4.466218e-01	 1.802521e+01
 8.893136e-01	 4.572978e-01	 1.749050e+01
 8.837665e-01	 4.679282e-01	 1.695699e+01
 8.780819e-01	 4.785104e-01	 1.642243e+01
 8.722604e-01	 4.890417e-01	 1.588450e+01
 9.066604e-01	 4.391316e-01	 1.849285e+01
 9.013504e-01	 4.499301e-01	 1.797279e+01
 8.959011e-01	 4.606852e-01	 1.745598e+01
 8.903129e-01	 4.713944e-01	 1.694015e+01
 8.845862e-01	 4.820549e-01	 1.642299e+01
 8.787216e-01	 4.926642e-01	 1.590210e+01
 9.133271e-01	 4.423605e-01	 1.842291e+01
 9.079780e-01	 4.532384e-01	 1.792022e+01
 9.024886e-01	 4.640726e-01	 1.742069e+01
 8.968593e-01	 4.748605e-01	 1.692198e+01
 8.910905e-01	 4.855994e-01	 1.642167e+01
 8.851828e-01	 4.962867e-01	 1.591729e+01
 9.199937e-01	 4.455894e-01	 1.835314e+01
 9.146056e-01	 4.565467e-01	 1.786720e+01
 9.090761e-01	 4.674600e-01	 1.738437e+01
 9.034057e-01	 4.783267e-01	 1.690221e+01
 8.975948e-01	 4.891440e-01	 1.641822e+01
 8.916440e-01	 4.999093e-01	 1.592984e+01
 9.266603e-01	 4.488183e-01	 1.828323e+01
 9.212332e-01	 4.598550e-01	 1.781343e+01
 9.156636e-01	 4.708474e-01	 1.734673e+01
 9.099521e-01	 4.817928e-01	 1.688059e+01
 9.040991e-01	 4.926885e-01	 1.641241e+01
 8.981052e-01	 5.035318e-01	 1.593950e+01
 9.333269e-01	 4.520472e-01	 1.821286e+01
 9.278607e-01	 4.631633e-01	 1.775862e+01
 9.222511e-01	 4.742348e-01	 1.730750e+01
 9.164986e-01	 4.852589e-01	 1.685687e+01
 9.106034e-01	 4.962330e-01	 1.640398e+01
 9.045664e-01	 5.071543e-01	 1.594606e+01
 8.722604e-01	 4.890417e-01	 1.588450e+01
 8.663026e-01	 4.995195e-01	 1.534609e+01
 8.602092e-01	 5.099413e-01	 1.481060e+01
 8.539809e-01	 5.203044e-01	 1.427653e+01
 8.476184e-01	 5.306063e-01	 1.374246e+01
 8.411226e-01	 5.408444e-01	 1.320707e+01
 8.787216e-01	 4.926642e-01	 1.590210e+01
 8.727197e-01	 5.032196e-01	 1.538074e+01
 8.665811e-01	 5.137186e-01	 1.486259e+01
 8.603067e-01	 5.241585e-01	 1.434591e+01
 8.538971e-01	 5.345367e-01	 1.382904e+01
 8.473532e-01	 5.448507e-01	 1.331040e+01
 8.851828e-01	 4.962867e-01	 1.591729e+01
 8.791368e-01	 5.069198e-01	 1.541240e+01
 8.729531e-01	 5.174959e-01	 1.491090e+01
 8.666325e-01	 5.280126e-01	 1.441085e+01
 8.601757e-01	 5.384671e-01	 1.391036e+01
 8.535837e-01	 5.488569e-01	 1.340762e+01
 8.916440e-01	 4.999093e-01	 1.592984e+01
 8.855538e-01	 5.106199e-01	 1.544085e+01
 8.793250e-01	 5.212733e-01	 1.495536e+01
 8.729582e-01	 5.318667e-01	 1.447122e+01
 8.664544e-01	 5.423975e-01	 1.398636e+01
 8.598143e-01	 5.528632e-01	 1.349874e+01
 8.981052e-01	 5.035318e-01	 1.593950e+01
 8.919709e-01	 5.143201e-01	 1.546587e+01
 8.856969e-01	 5.250506e-01	 1.499576e+01
 8.792840e-01	 5.357208e-01	 1.452688e+01
 8.727330e-01	 5.463280e-01	 1.405694e+01
 8.660448e-01	 5.568695e-01	 1.358374e+01
 9.045664e-01	 5.071543e-01	 1.594606e+01
 8.983879e-01	 5.180202e-01	 1.548724e+01
 8.920688e-01	 5.288280e-01	 1.503193e+01
 8.856098e-01	 5.395749e-01	 1.457767e+01
 8.790117e-01	 5.502584e-01	 1.412202e+01
 8.722753e-01	 5.608757e-01	 1.366262e+01
 8.411226e-01	 5.408444e-01	 1.320707e+01
 8.344945e-01	 5.510163e-01	 1.267552e+01
 8.277350e-01	 5.611192e-01	 1.215254e+01
 8.208451e-01	 5.711508e-01	 1.163630e+01
 8.138260e-01	 5.811086e-01	 1.112511e+01
 8.066789e-01	 5.909900e-01	 1.061743e+01
 8.473532e-01	 5.448507e-01	 1.331040e+01
 8.406760e-01	 5.550979e-01	 1.279485e+01
 8.338664e-01	 5.652757e-01	 1.228707e+01
 8.269255e-01	 5.753816e-01	 1.178530e+01
 8.198544e-01	 5.854131e-01	 1.128799e+01
 8.126543e-01	 5.953677e-01	 1.079369e+01
 8.535837e-01	 5.488569e-01	 1.340762e+01
 8.468574e-01	 5.591795e-01	 1.290735e+01
 8.399977e-01	 5.694321e-01	 1.241424e+01
 8.330058e-01	 5.796123e-01	 1.192661e+01
 8.258827e-01	 5.897176e-01	 1.144293e+01
 8.186297e-01	 5.997454e-01	 1.096186e+01
 8.598143e-01	 5.528632e-01	 1.349874e+01
 8.530388e-01	 5.632611e-01	 1.301307e+01
 8.461291e-01	 5.735885e-01	 1.253416e+01
 8.390861e-01	 5.838431e-01	 1.206031e+01
 8.319111e-01	 5.940221e-01	 1.159001e+01
 8.246051e-01	 6.041231e-01	 1.112192e+01
 8.660448e-01	 5.568695e-01	 1.358374e+01
 8.592203e-01	 5.673427e-01	 1.311207e+01
 8.522605e-01	 5.777450e-01	 1.264690e+01
 8.451665e-01	 5.880738e-01	 1.218649e+01
 8.379394e-01	 5.983266e-01	 1.172927e+01
 8.305805e-01	 6.085008e-01	 1.127387e+01
 8.722753e-01	 5.608757e-01	 1.366262e+01
 8.654017e-01	 5.714243e-01	 1.320439e+01
 8.583918e-01	 5.819014e-01	 1.275254e+01
 8.512468e-01	 5.923046e-01	 1.230522e+01
 8.439677e-01	 6.026311e-01	 1.186076e+01
 8.365559e-01	 6.128785e-01	 1.141769e+01
 8.066789e-01	 5.909900e-01	 1.061743e+01
 7.994049e-01	 6.007927e-01	 1.011511e+01
 7.920053e-01	 6.105142e-01	 9.621193e+00
 7.844816e-01	 6.201521e-01	 9.136290e+00
 7.768351e-01	 6.297040e-01	 8.661338e+00
 7.690674e-01	 6.391677e-01	 8.197617e+00
 8.126543e-01	 5.953677e-01	 1.079369e+01
 8.053264e-01	 6.052430e-01	 1.030478e+01
 7.978720e-01	 6.150365e-01	 9.824421e+00
 7.902926e-01	 6.247458e-01	 9.352764e+00
 7.825895e-01	 6.343685e-01	 8.890283e+00
 7.747642e-01	 6.439023e-01	 8.437782e+00
 8.186297e-01	 5.997454e-01	 1.096186e+01
 8.112479e-01	 6.096933e-01	 1.048603e+01
 8.037388e-01	 6.195588e-01	 1.001863e+01
 7.961036e-01	 6.293395e-01	 9.559431e+00
 7.883438e-01	 6.390330e-01	 9.108534e+00
 7.804609e-01	 6.486369e-01	 8.666357e+00
 8.246051e-01	 6.041231e-01	 1.112192e+01
 8.171694e-01	 6.141436e-01	 1.065881e+01
 8.096055e-01	 6.240811e-01	 1.020379e+01
 8.019145e-01	 6.339332e-01	 9.756349e+00
 7.940981e-01	 6.436975e-01	 9.316294e+00
 7.861577e-01	 6.533715e-01	 8.883751e+00
 8.305805e-01	 6.085008e-01	 1.127387e+01
 8.230909e-01	 6.185939e-01	 1.082307e+01
 8.154722e-01	 6.286035e-01	 1.037987e+01
 8.077255e-01	 6.385269e-01	 9.943571e+00
 7.998525e-01	 6.483619e-01	 9.513758e+00
 7.918545e-01	 6.581060e-01	 9.090355e+00
 8.365559e-01	 6.128785e-01	 1.141769e+01
 8.290125e-01	 6.230443e-01	 1.097876e+01
 8.213389e-01	 6.331258e-01	 1.054685e+01
 8.135365e-01	 6.431207e-01	 1.012114e+01
 8.056068e-01	 6.530264e-01	 9.701109e+00
 7.975513e-01	 6.628406e-01	 9.286550e+00
 7.690674e-01	 6.391677e-01	 8.197617e+00
 7.611798e-01	 6.485409e-01	 7.743328e+00
 7.531741e-01	 6.578212e-01	 7.295963e+00
 7.450519e-01	 6.670065e-01	 6.856297e+00
 7.368148e-01	 6.760946e-01	 6.426087e+00
 7.284647e-01	 6.850833e-01	 6.010329e+00
 7.747642e-01	 6.439023e-01	 8.437782e+00
 7.668182e-01	 6.533449e-01	 7.993128e+00
 7.587532e-01	 6.626940e-01	 7.554299e+00
 7.505708e-01	 6.719473e-01	 7.122837e+00
 7.422727e-01	 6.811027e-01	 6.700723e+00
 7.338607e-01	 6.901580e-01	 6.292022e+00
 7.804609e-01	 6.486369e-01	 8.666357e+00
 7.724566e-01	 6.581489e-01	 8.230762e+00
 7.643322e-01	 6.675667e-01	 7.800354e+00
 7.560897e-01	 6.768881e-01	 7.377262e+00
 7.477306e-01	 6.861108e-01	 6.964086e+00
 7.392568e-01	 6.952327e-01	 6.563994e+00
 7.861577e-01	 6.533715e-01	 8.883751e+00
 7.780949e-01	 6.629529e-01	 8.456821e+00
 7.699113e-01	 6.724395e-01	 8.034807e+00
 7.616086e-01	 6.818289e-01	 7.620245e+00
 7.531885e-01	 6.911189e-01	 7.216171e+00
 7.446528e-01	 7.003074e-01	 6.826139e+00
 7.918545e-01	 6.581060e-01	 9.090355e+00
 7.837333e-01	 6.677569e-01	 8.671878e+00
 7.754904e-01	 6.773122e-01	 8.258319e+00
 7.671275e-01	 6.867697e-01	 7.852447e+00
 7.586464e-01	 6.961270e-01	 7.457551e+00
 7.500488e-01	 7.053821e-01	 7.077456e+00
 7.975513e-01	 6.628406e-01	 9.286550e+00
 7.893717e-01	 6.725609e-01	 8.876488e+00
 7.810694e-01	 6.821850e-01	 8.471529e+00
 7.726464e-01	 6.917105e-01	 8.074506e+00
 7.641043e-01	 7.011351e-01	 7.688781e+00
 7.554449e-01	 7.104568e-01	 7.318265e+00
 7.284647e-01	 6.850833e-01	 6.010329e+00
 7.200033e-01	 6.939706e-01	 5.608210e+00
 7.114326e-01	 7.027543e-01	 5.218467e+00
 7.027543e-01	 7.114326e-01	 4.842102e+00
 6.939706e-01	 7.200033e-01	 4.480220e+00
 6.850833e-01	 7.284647e-01	 4.134028e+00
 7.338607e-01	 6.901580e-01	 6.292022e+00
 7.253367e-01	 6.991111e-01	 5.898901e+00
 7.167025e-01	 7.079599e-01	 5.518561e+00
 7.079599e-01	 7.167025e-01	 5.150525e+00
 6.991111e-01	 7.253367e-01	 4.794367e+00
 6.901580e-01	 7.338607e-01	 4.449721e+00
 7.392568e-01	 6.952327e-01	 6.563994e+00
 7.306701e-01	 7.042516e-01	 6.179030e+00
 7.219723e-01	 7.131655e-01	 5.806264e+00
 7.131655e-01	 7.219723e-01	 5.443983e+00
 7.042516e-01	 7.306701e-01	 5.090490e+00
 6.952327e-01	 7.392568e-01	 4.744106e+00
 7.446528e-01	 7.003074e-01	 6.826139e+00
 7.360034e-01	 7.093922e-01	 6.448843e+00
 7.272422e-01	 7.183711e-01	 6.081759e+00
 7.183711e-01	 7.272422e-01	 5.722711e+00
 7.093922e-01	 7.360034e-01	 5.368978e+00
 7.003074e-01	 7.446528e-01	 5.021290e+00
 7.500488e-01	 7.053821e-01	 7.077456e+00
 7.413368e-01	 7.145327e-01	 6.708601e+00
 7.325121e-01	 7.235767e-01	 6.345256e+00
 7.235767e-01	 7.325121e-01	 5.986966e+00
 7.145327e-01	 7.413368e-01	 5.630315e+00
 7.053821e-01	 7.500488e-01	 5.290516e+00
 7.554449e-01	 7.104568e-01	 7.318265e+00
 7.466701e-01	 7.196732e-01	 6.957533e+00
 7.377819e-01	 7.287823e-01	 6.596990e+00
 7.287823e-01	 7.377819e-01	 6.237030e+00
 7.196732e-01	 7.466701e-01	 5.881663e+00
 7.104568e-01	 7.554449e-01	 5.551697e+00
 6.850833e-01	 7.284647e-01	 4.134028e+00
 6.760946e-01	 7.368148e-01	 3.794783e+00
 6.670065e-01	 7.450519e-01	 3.454298e+00
 6.578212e-01	 7.531741e-01	 3.135485e+00
 6.485409e-01	 7.611798e-01	 2.839358e+00
 6.391677e-01	 7.690674e-01	 2.562269e+00
 6.901580e-01	 7.338607e-01	 4.449721e+00
 6.811027e-01	 7.422727e-01	 4.105606e+00
 6.719473e-01	 7.505708e-01	 3.771540e+00
 6.626940e-01	 7.587532e-01	 3.457812e+00
 6.533449e-01	 7.668182e-01	 3.162703e+00
 6.439023e-01	 7.747642e-01	 2.883844e+00
 6.952327e-01	 7.392568e-01	 4.744106e+00
 6.861108e-01	 7.477306e-01	 4.403139e+00
 6.768881e-01	 7.560897e-01	 4.077536e+00
 6.675667e-01	 7.643322e-01	 3.767841e+00
 6.581489e-01	 7.724566e-01	 3.473449e+00
 6.486369e-01	 7.804609e-01	 3.193116e+00
 7.003074e-01	 7.446528e-01	 5.021290e+00
 6.911189e-01	 7.531885e-01	 4.691085e+00
 6.818289e-01	 7.616086e-01	 4.372183e+00
 6.724395e-01	 7.699113e-01	 4.065574e+00
 6.629529e-01	 7.780949e-01	 3.771624e+00
 6.533715e-01	 7.861577e-01	 3.490072e+00
 7.053821e-01	 7.500488e-01	 5.290516e+00
 6.961270e-01	 7.586464e-01	 4.969127e+00
 6.867697e-01	 7.671275e-01	 4.655337e+00
 6.773122e-01	 7.754904e-01	 4.350965e+00
 6.677569e-01	 7.837333e-01	 4.057211e+00
 6.581060e-01	 7.918545e-01	 3.774652e+00
 7.104568e-01	 7.554449e-01	 5.551697e+00
 7.011351e-01	 7.641043e-01	 5.236909e+00
 6.917105e-01	 7.726464e-01	 4.926810e+00
 6.821850e-01	 7.810694e-01	 4.623921e+00
 6.725609e-01	 7.893717e-01	 4.330142e+00
 6.628406e-01	 7.975513e-01	 4.046751e+00
 6.391677e-01	 7.690674e-01	 2.562269e+00
 6.297040e-01	 7.768351e-01	 2.296402e+00
 6.201521e-01	 7.844816e-01	 2.038276e+00
 6.105142e-01	 7.920053e-01	 1.789927e+00
 6.007927e-01	 7.994049e-01	 1.552967e+00
 5.909900e-01	 8.066789e-01	 1.328590e+00
 6.439023e-01	 7.747642e-01	 2.883844e+00
 6.343685e-01	 7.825895e-01	 2.615747e+00
 6.247458e-01	 7.902926e-01	 2.356159e+00
 6.150365e-01	 7.978720e-01	 2.106727e+00
 6.052430e-01	 8.053264e-01	 1.868641e+00
 5.953677e-01	 8.126543e-01	 1.642637e+00
 6.486369e-01	 7.804609e-01	 3.193116e+00
 6.390330e-01	 7.883438e-01	 2.923234e+00
 6.293395e-01	 7.961036e-01	 2.662445e+00
 6.195588e-01	 8.037388e-01	 2.412037e+00
 6.096933e-01	 8.112479e-01	 2.172809e+00
 5.997454e-01	 8.186297e-01	 1.945075e+00
 6.533715e-01	 7.861577e-01	 3.490072e+00
 6.436975e-01	 7.940981e-01	 3.218792e+00
 6.339332e-01	 8.019145e-01	 2.957046e+00
 6.240811e-01	 8.096055e-01	 2.705791e+00
 6.141436e-01	 8.171694e-01	 2.465466e+00
 6.041231e-01	 8.246051e-01	 2.235994e+00
 6.581060e-01	 7.918545e-01	 3.774652e+00
 6.483619e-01	 7.998525e-01	 3.502306e+00
 6.385269e-01	 8.077255e-01	 3.239830e+00
 6.286035e-01	 8.154722e-01	 2.987879e+00
 6.185939e-01	 8.230909e-01	 2.746560e+00
 6.085008e-01	 8.305805e-01	 2.515439e+00
 6.628406e-01	 7.975513e-01	 4.046751e+00
 6.530264e-01	 8.056068e-01	 3.773619e+00
 6.431207e-01	 8.135365e-01	 3.510625e+00
 6.331258e-01	 8.213389e-01	 3.258149e+00
 6.230443e-01	 8.290125e-01	 3.015996e+00
 6.128785e-01	 8.365559e-01	 2.783406e+00
 5.909900e-01	 8.066789e-01	 1.328590e+00
 5.811086e-01	 8.138260e-01	 1.120035e+00
 5.711508e-01	 8.208451e-01	 9.286070e-01
 5.611192e-01	 8.277350e-01	 7.519503e-01
 5.510163e-01	 8.344945e-01	 5.872686e-01
 5.408444e-01	 8.411226e-01	 4.313463e-01
 5.953677e-01	 8.126543e-01	 1.642637e+00
 5.854131e-01	 8.198544e-01	 1.431282e+00
 5.753816e-01	 8.269255e-01	 1.235687e+00
 5.652757e-01	 8.338664e-01	 1.053729e+00
 5.550979e-01	 8.406760e-01	 8.828489e-01
 5.448507e-01	 8.473532e-01	 7.200634e-01
 5.997454e-01	 8.186297e-01	 1.945075e+00
 5.897176e-01	 8.258827e-01	 1.730933e+00
 5.796123e-01	 8.330058e-01	 1.531446e+00
 5.694321e-01	 8.399977e-01	 1.344663e+00
 5.591795e-01	 8.468574e-01	 1.168192e+00
 5.488569e-01	 8.535837e-01	 9.992158e-01
 6.041231e-01	 8.246051e-01	 2.235994e+00
 5.940221e-01	 8.319111e-01	 2.019169e+00
 5.838431e-01	 8.390861e-01	 1.816102e+00
 5.735885e-01	 8.461291e-01	 1.624954e+00
 5.632611e-01	 8.530388e-01	 1.443439e+00
 5.528632e-01	 8.598143e-01	 1.268834e+00
 6.085008e-01	 8.305805e-01	 2.515439e+00
 5.983266e-01	 8.379394e-01	 2.296121e+00
 5.880738e-01	 8.451665e-01	 2.089822e+00
 5.777450e-01	 8.522605e-01	 1.894759e+00
 5.673427e-01	 8.592203e-01	 1.708685e+00
 5.568695e-01	 8.660448e-01	 1.528907e+00
 6.128785e-01	 8.365559e-01	 2.783406e+00
 6.026311e-01	 8.439677e-01	 2.561871e+00
 5.923046e-01	 8.512468e-01	 2.352725e+00
 5.819014e-01	 8.583918e-01	 2.154184e+00
 5.714243e-01	 8.654017e-01	 1.963980e+00
 5.608757e-01	 8.722753e-01	 1.779382e+00
 5.408444e-01	 8.411226e-01	 4.313463e-01
 5.306063e-01	 8.476184e-01	 2.856160e-01
 5.203044e-01	 8.539809e-01	 1.530606e-01
 5.099413e-01	 8.602092e-01	 3.228163e-02
 4.995195e-01	 8.663026e-01	-7.837878e-02
 4.890417e-01	 8.722604e-01	-1.808182e-01
 5.448507e-01	 8.473532e-01	 7.200634e-01
 5.345367e-01	 8.538971e-01	 5.675154e-01
 5.241585e-01	 8.603067e-01	 4.285451e-01
 5.137186e-01	 8.665811e-01	 3.014419e-01
 5.032196e-01	 8.727197e-01	 1.842138e-01
 4.926642e-01	 8.787216e-01	 7.460808e-02
 5.488569e-01	 8.535837e-01	 9.992158e-01
 5.384671e-01	 8.601757e-01	 8.403938e-01
 5.280126e-01	 8.666325e-01	 6.953169e-01
 5.174959e-01	 8.729531e-01	 5.620226e-01
 5.069198e-01	 8.791368e-01	 4.382485e-01
 4.962867e-01	 8.851828e-01	 3.214545e-01
 5.528632e-01	 8.598143e-01	 1.268834e+00
 5.423975e-01	 8.664544e-01	 1.104180e+00
 5.318667e-01	 8.729582e-01	 9.532686e-01
 5.212733e-01	 8.793250e-01	 8.139423e-01
 5.106199e-01	 8.855538e-01	 6.837311e-01
 4.999093e-01	 8.916440e-01	 5.598739e-01
 5.568695e-01	 8.660448e-01	 1.528907e+00
 5.463280e-01	 8.727330e-01	 1.358766e+00
 5.357208e-01	 8.792840e-01	 1.202257e+00
 5.250506e-01	 8.856969e-01	 1.057084e+00
 5.143201e-01	 8.919709e-01	 9.206312e-01
 5.035318e-01	 8.981052e-01	 7.899796e-01
 5.608757e-01	 8.722753e-01	 1.779382e+00
 5.502584e-01	 8.790117e-01	 1.604006e+00
 5.395749e-01	 8.856098e-01	 1.442103e+00
 5.288280e-01	 8.920688e-01	 1.291297e+00
 5.180202e-01	 8.983879e-01	 1.148882e+00
 5.071543e-01	 9.045664e-01	 1.011846e+00
 4.890417e-01	 8.722604e-01	-1.808182e-01
 4.785104e-01	 8.780819e-01	-2.716387e-01
 4.679282e-01	 8.837665e-01	-3.481343e-01
 4.572978e-01	 8.893136e-01	-4.135551e-01
 4.466218e-01	 8.947229e-01	-4.713275e-01
 4.359027e-01	 8.999938e-01	-5.250300e-01
 4.926642e-01	 8.787216e-01	 7.460808e-02
 4.820549e-01	 8.845862e-01	-2.431400e-02
 4.713944e-01	 8.903129e-01	-1.098273e-01
 4.606852e-01	 8.959011e-01	-1.850123e-01
 4.499301e-01	 9.013504e-01	-2.531171e-01
 4.391316e-01	 9.066604e-01	-3.175327e-01
 4.962867e-01	 8.851828e-01	 3.214545e-01
 4.855994e-01	 8.910905e-01	 2.145760e-01
 4.748605e-01	 8.968593e-01	 1.204748e-01
 4.640726e-01	 9.024886e-01	 3.616880e-02
 4.532384e-01	 9.079780e-01	-4.148755e-02
 4.423605e-01	 9.133271e-01	-1.157777e-01
 4.999093e-01	 8.916440e-01	 5.598739e-01
 4.891440e-01	 8.975948e-01	 4.453299e-01
 4.783267e-01	 9.034057e-01	 3.431575e-01
 4.674600e-01	 9.090761e-01	 2.504026e-01
 4.565467e-01	 9.146056e-01	 1.639482e-01
 4.455894e-01	 9.199937e-01	 8.053985e-02
 5.035318e-01	 8.981052e-01	 7.899796e-01
 4.926885e-01	 9.040991e-01	 6.682043e-01
 4.817928e-01	 9.099521e-01	 5.585629e-01
 4.708474e-01	 9.156636e-01	 4.580610e-01
 4.598550e-01	 9.212332e-01	 3.635369e-01
 4.488183e-01	 9.266603e-01	 2.716886e-01
 5.071543e-01	 9.045664e-01	 1.011846e+00
 4.962330e-01	 9.106034e-01	 8.834143e-01
 4.852589e-01	 9.164986e-01	 7.669910e-01
 4.742348e-01	 9.222511e-01	 6.594742e-01
 4.631633e-01	 9.278607e-01	 5.575863e-01
 4.520472e-01	 9.333269e-01	 4.579018e-01
 4.359027e-01	 8.999938e-01	-5.250300e-01
 4.251431e-01	 9.051262e-01	-5.725653e-01
 4.143457e-01	 9.101196e-01	-6.098940e-01
 4.035130e-01	 9.149739e-01	-6.377799e-01
 3.926477e-01	 9.196890e-01	-6.569753e-01
 3.817523e-01	 9.242647e-01	-6.682033e-01
 4.391316e-01	 9.066604e-01	-3.175327e-01
 4.282923e-01	 9.118308e-01	-3.754314e-01
 4.174149e-01	 9.168612e-01	-4.223578e-01
 4.065020e-01	 9.217515e-01	-4.593636e-01
 3.955562e-01	 9.265015e-01	-4.874997e-01
 3.845801e-01	 9.311111e-01	-5.077975e-01
 4.423605e-01	 9.133271e-01	-1.157777e-01
 4.314415e-01	 9.185354e-01	-1.833499e-01
 4.204841e-01	 9.236028e-01	-2.394503e-01
 4.094910e-01	 9.285291e-01	-2.853649e-01
 3.984647e-01	 9.333140e-01	-3.223870e-01
 3.874079e-01	 9.379575e-01	-3.517977e-01
 4.455894e-01	 9.199937e-01	 8.053985e-02
 4.345907e-01	 9.252401e-01	 3.899268e-03
 4.235534e-01	 9.303445e-01	-6.098833e-02
 4.124800e-01	 9.353067e-01	-1.155914e-01
 4.013732e-01	 9.401265e-01	-1.613912e-01
 3.902357e-01	 9.448039e-01	-1.998609e-01
 4.488183e-01	 9.266603e-01	 2.716886e-01
 4.377399e-01	 9.319447e-01	 1.865042e-01
 4.266226e-01	 9.370861e-01	 1.131823e-01
 4.154690e-01	 9.420842e-01	 5.012187e-02
 4.042817e-01	 9.469390e-01	-4.293254e-03
 3.930635e-01	 9.516503e-01	-5.167274e-02
 4.520472e-01	 9.333269e-01	 4.579018e-01
 4.408891e-01	 9.386493e-01	 3.646217e-01
 4.296918e-01	 9.438277e-01	 2.831868e-01
 4.184580e-01	 9.488618e-01	 2.119123e-01
 4.071902e-01	 9.537515e-01	 1.490985e-01
 3.958913e-01	 9.584967e-01	 9.305326e-02
 3.817523e-01	 9.242647e-01	-6.682033e-01
 3.708294e-01	 9.287010e-01	-6.761872e-01
 3.598816e-01	 9.329980e-01	-6.830338e-01
 3.489113e-01	 9.371557e-01	-6.849278e-01
 3.379212e-01	 9.411744e-01	-6.802234e-01
 3.269137e-01	 9.450542e-01	-6.668933e-01
 3.845801e-01	 9.311111e-01	-5.077975e-01
 3.735763e-01	 9.355803e-01	-5.252741e-01
 3.625474e-01	 9.399091e-01	-5.431977e-01
 3.514959e-01	 9.440976e-01	-5.567345e-01
 3.404243e-01	 9.481461e-01	-5.635960e-01
 3.293353e-01	 9.520546e-01	-5.612999e-01
 3.874079e-01	 9.379575e-01	-3.517977e-01
 3.763232e-01	 9.424595e-01	-3.787169e-01
 3.652132e-01	 9.468202e-01	-4.070519e-01
 3.540804e-01	 9.510395e-01	-4.317310e-01
 3.429275e-01	 9.551177e-01	-4.495342e-01
 3.317569e-01	 9.590550e-01	-4.575404e-01
 3.902357e-01	 9.448039e-01	-1.998609e-01
 3.790701e-01	 9.493388e-01	-2.360606e-01
 3.678790e-01	 9.537313e-01	-2.740517e-01
 3.566649e-01	 9.579814e-01	-3.092580e-01
 3.454306e-01	 9.620894e-01	-3.372797e-01
 3.341785e-01	 9.660554e-01	-3.547732e-01
 3.930635e-01	 9.516503e-01	-5.167274e-02
 3.818170e-01	 9.562181e-01	-9.688028e-02
 3.705447e-01	 9.606424e-01	-1.436934e-01
 3.592495e-01	 9.649233e-01	-1.886949e-01
 3.479337e-01	 9.690610e-01	-2.261115e-01
 3.366001e-01	 9.730558e-01	-2.521920e-01
 3.958913e-01	 9.584967e-01	 9.305326e-02
 3.845639e-01	 9.630973e-01	 3.921957e-02
 3.732105e-01	 9.675535e-01	-1.568898e-02
 3.618340e-01	 9.718652e-01	-6.946035e-02
 3.504368e-01	 9.760327e-01	-1.153456e-01
 3.390217e-01	 9.800562e-01	-1.490259e-01
 3.269137e-01	 9.450542e-01	-6.668933e-01
 3.158914e-01	 9.487954e-01	-6.475802e-01
 3.048566e-01	 9.523983e-01	-6.268276e-01
 2.938119e-01	 9.558632e-01	-6.048959e-01
 2.827597e-01	 9.591908e-01	-5.816850e-01
 2.717024e-01	 9.623813e-01	-5.567420e-01
 3.293353e-01	 9.520546e-01	-5.612999e-01
 3.182313e-01	 9.558235e-01	-5.525608e-01
 3.071148e-01	 9.594531e-01	-5.422439e-01
 2.959883e-01	 9.629437e-01	-5.304870e-01
 2.848542e-01	 9.662959e-01	-5.170447e-01
 2.737150e-01	 9.695101e-01	-5.012970e-01
 3.317569e-01	 9.590550e-01	-4.575404e-01
 3.205713e-01	 9.628516e-01	-4.586306e-01
 3.093730e-01	 9.665079e-01	-4.580893e-01
 2.981647e-01	 9.700242e-01	-4.559520e-01
 2.869488e-01	 9.734010e-01	-4.518478e-01
 2.757276e-01	 9.766388e-01	-4.450090e-01
 3.341785e-01	 9.660554e-01	-3.547732e-01
 3.229112e-01	 9.698797e-01	-3.648820e-01
 3.116312e-01	 9.735627e-01	-3.734092e-01
 3.003411e-01	 9.771047e-01	-3.803080e-01
 2.890433e-01	 9.805061e-01	-3.851013e-01
 2.777402e-01	 9.837676e-01	-3.868917e-01
 3.366001e-01	 9.730558e-01	-2.521920e-01
 3.252511e-01	 9.769078e-01	-2.704407e-01
 3.138894e-01	 9.806175e-01	-2.872804e-01
 3.025175e-01	 9.841851e-01	-3.026012e-01
 2.911378e-01	 9.876112e-01	-3.158381e-01
 2.797528e-01	 9.908963e-01	-3.259824e-01
 3.390217e-01	 9.800562e-01	-1.490259e-01
 3.275911e-01	 9.839359e-01	-1.744659e-01
 3.161476e-01	 9.876723e-01	-1.988107e-01
 3.046939e-01	 9.912656e-01	-2.219062e-01
 2.932323e-01	 9.947164e-01	-2.431176e-01
 2.817654e-01	 9.980251e-01	-2.613417e-01
 2.717024e-01	 9.623813e-01	-5.567420e-01
 2.606423e-01	 9.654354e-01	-5.300231e-01
 2.495819e-01	 9.683537e-01	-5.021017e-01
 2.385234e-01	 9.711368e-01	-4.729732e-01
 2.274691e-01	 9.737853e-01	-4.423547e-01
 2.164213e-01	 9.763001e-01	-4.097074e-01
 2.737150e-01	 9.695101e-01	-5.012970e-01
 2.625730e-01	 9.725868e-01	-4.832705e-01
 2.514306e-01	 9.755267e-01	-4.637607e-01
 2.402902e-01	 9.783304e-01	-4.427907e-01
 2.291540e-01	 9.809985e-01	-4.200834e-01
 2.180244e-01	 9.835319e-01	-3.950849e-01
 2.757276e-01	 9.766388e-01	-4.450090e-01
 2.645037e-01	 9.797382e-01	-4.355267e-01
 2.532794e-01	 9.826997e-01	-4.243682e-01
 2.420570e-01	 9.855240e-01	-4.115350e-01
 2.308390e-01	 9.882118e-01	-3.967069e-01
 2.196275e-01	 9.907638e-01	-3.792658e-01
 2.777402e-01	 9.837676e-01	-3.868917e-01
 2.664344e-01	 9.868896e-01	-3.858251e-01
 2.551281e-01	 9.898727e-01	-3.829862e-01
 2.438239e-01	 9.927176e-01	-3.783071e-01
 2.325239e-01	 9.954250e-01	-3.713754e-01
 2.212306e-01	 9.979956e-01	-3.614605e-01
 2.797528e-01	 9.908963e-01	-3.259824e-01
 2.683651e-01	 9.940409e-01	-3.332198e-01
 2.569769e-01	 9.970457e-01	-3.386952e-01
 2.455907e-01	 9.999112e-01	-3.422234e-01
 2.342089e-01	 1.002638e+00	-3.432523e-01
 2.228337e-01	 1.005227e+00	-3.408903e-01
 2.817654e-01	 9.980251e-01	-2.613417e-01
 2.702957e-01	 1.001192e+00	-2.767859e-01
 2.588256e-01	 1.004219e+00	-2.905938e-01
 2.473576e-01	 1.007105e+00	-3.024163e-01
 2.358938e-01	 1.009851e+00	-3.115140e-01
 2.244369e-01	 1.012459e+00	-3.167869e-01
 2.164213e-01	 9.763001e-01	-4.097074e-01
 2.053822e-01	 9.786818e-01	-3.764103e-01
 1.943540e-01	 9.809315e-01	-3.443690e-01
 1.833389e-01	 9.830498e-01	-3.135045e-01
 1.723390e-01	 9.850377e-01	-2.835569e-01
 1.613564e-01	 9.868962e-01	-2.541147e-01
 2.180244e-01	 9.835319e-01	-3.950849e-01
 2.069035e-01	 9.859313e-01	-3.691213e-01
 1.957937e-01	 9.881976e-01	-3.440897e-01
 1.846970e-01	 9.903316e-01	-3.199428e-01
 1.736156e-01	 9.923343e-01	-2.964478e-01
 1.625517e-01	 9.942065e-01	-2.732163e-01
 2.196275e-01	 9.907638e-01	-3.792658e-01
 2.084249e-01	 9.931808e-01	-3.605144e-01
 1.972333e-01	 9.954638e-01	-3.423945e-01
 1.860550e-01	 9.976135e-01	-3.248760e-01
 1.748922e-01	 9.996308e-01	-3.077359e-01
 1.637469e-01	 1.001517e+00	-2.905894e-01
 2.212306e-01	 9.979956e-01	-3.614605e-01
 2.099462e-01	 1.000430e+00	-3.498530e-01
 1.986730e-01	 1.002730e+00	-3.385746e-01
 1.874131e-01	 1.004895e+00	-3.275973e-01
 1.761688e-01	 1.006927e+00	-3.166904e-01
 1.649421e-01	 1.008827e+00	-3.054527e-01
 2.228337e-01	 1.005227e+00	-3.408903e-01
 2.114676e-01	 1.007680e+00	-3.364097e-01
 2.001126e-01	 1.009996e+00	-3.319291e-01
 1.887712e-01	 1.012177e+00	-3.274077e-01
 1.774454e-01	 1.014224e+00	-3.225888e-01
 1.661374e-01	 1.016138e+00	-3.170352e-01
 2.244369e-01	 1.012459e+00	-3.167869e-01
 2.129889e-01	 1.014929e+00	-3.194654e-01
 2.015523e-01	 1.017262e+00	-3.217646e-01
 1.901292e-01	 1.019459e+00	-3.236153e-01
 1.787220e-01	 1.021521e+00	-3.247171e-01
 1.673326e-01	 1.023448e+00	-3.245760e-01
 1.613564e-01	 9.868962e-01	-2.541147e-01
 1.503932e-01	 9.886263e-01	-2.249599e-01
 1.394514e-01	 9.902289e-01	-1.964754e-01
 1.285329e-01	 9.917053e-01	-1.690222e-01
 1.176397e-01	 9.930563e-01	-1.429401e-01
 1.067737e-01	 9.942834e-01	-1.185746e-01
 1.625517e-01	 9.942065e-01	-2.732163e-01
 1.515072e-01	 9.959494e-01	-2.502059e-01
 1.404843e-01	 9.975640e-01	-2.278776e-01
 1.294850e-01	 9.990512e-01	-2.064607e-01
 1.185111e-01	 1.000412e+00	-1.861560e-01
 1.075646e-01	 1.001648e+00	-1.671649e-01
 1.637469e-01	 1.001517e+00	-2.905894e-01
 1.526213e-01	 1.003273e+00	-2.734822e-01
 1.415173e-01	 1.004899e+00	-2.569095e-01
 1.304371e-01	 1.006397e+00	-2.410138e-01
 1.193825e-01	 1.007768e+00	-2.259027e-01
 1.083555e-01	 1.009013e+00	-2.116799e-01
 1.649421e-01	 1.008827e+00	-3.054527e-01
 1.537353e-01	 1.010596e+00	-2.939601e-01
 1.425503e-01	 1.012234e+00	-2.827265e-01
 1.313891e-01	 1.013743e+00	-2.718508e-01
 1.202539e-01	 1.015124e+00	-2.613910e-01
 1.091464e-01	 1.016379e+00	-2.513976e-01
 1.661374e-01	 1.016138e+00	-3.170352e-01
 1.548493e-01	 1.017919e+00	-3.108232e-01
 1.435833e-01	 1.019569e+00	-3.044978e-01
 1.323412e-01	 1.021089e+00	-2.981550e-01
 1.211253e-01	 1.022480e+00	-2.918456e-01
 1.099373e-01	 1.023744e+00	-2.856093e-01
 1.673326e-01	 1.023448e+00	-3.245760e-01
 1.559633e-01	 1.025242e+00	-3.232673e-01
 1.446162e-01	 1.026904e+00	-3.214056e-01
 1.332933e-01	 1.028435e+00	-3.191237e-01
 1.219967e-01	 1.029836e+00	-3.165046e-01
 1.107283e-01	 1.031109e+00	-3.136186e-01
 1.067737e-01	 9.942834e-01	-1.185746e-01
 9.593675e-02	 9.953874e-01	-9.648636e-02
 8.513072e-02	 9.963698e-01	-7.683450e-02
 7.435736e-02	 9.972317e-01	-5.944671e-02
 6.361843e-02	 9.979743e-01	-4.425507e-02
 5.291561e-02	 9.985990e-01	-3.131926e-02
 1.075646e-01	 1.001648e+00	-1.671649e-01
 9.664739e-02	 1.002761e+00	-1.498490e-01
 8.576131e-02	 1.003750e+00	-1.343039e-01
 7.490816e-02	 1.004619e+00	-1.204169e-01
 6.408967e-02	 1.005367e+00	-1.081863e-01
 5.330758e-02	 1.005996e+00	-9.774515e-02
 1.083555e-01	 1.009013e+00	-2.116799e-01
 9.735803e-02	 1.010134e+00	-1.985992e-01
 8.639191e-02	 1.011131e+00	-1.867400e-01
 7.545895e-02	 1.012005e+00	-1.760307e-01
 6.456092e-02	 1.012759e+00	-1.665159e-01
 5.369955e-02	 1.013393e+00	-1.583824e-01
 1.091464e-01	 1.016379e+00	-2.513976e-01
 9.806867e-02	 1.017507e+00	-2.420870e-01
 8.702251e-02	 1.018511e+00	-2.335499e-01
 7.600975e-02	 1.019392e+00	-2.257362e-01
 6.503217e-02	 1.020152e+00	-2.187174e-01
 5.409151e-02	 1.020790e+00	-2.127136e-01
 1.099373e-01	 1.023744e+00	-2.856093e-01
 9.877932e-02	 1.024880e+00	-2.796747e-01
 8.765311e-02	 1.025892e+00	-2.741521e-01
 7.656054e-02	 1.026779e+00	-2.689933e-01
 6.550342e-02	 1.027544e+00	-2.642766e-01
 5.448348e-02	 1.028187e+00	-2.602345e-01
 1.107283e-01	 1.031109e+00	-3.136186e-01
 9.948996e-02	 1.032254e+00	-3.107362e-01
 8.828371e-02	 1.033272e+00	-3.079765e-01
 7.711134e-02	 1.034166e+00	-3.052732e-01
 6.597466e-02	 1.034936e+00	-3.026907e-01
 5.487545e-02	 1.035584e+00	-3.004532e-01
 5.291561e-02	 9.985990e-01	-3.131926e-02
 4.225058e-02	 9.991070e-01	-2.067655e-02
 3.162495e-02	 9.994998e-01	-1.218728e-02
 2.104029e-02	 9.997786e-01	-5.915287e-03
 1.049814e-02	 9.999449e-01	-2.151055e-03
 0.000000e+00	 1.000000e+00	-1.424943e-03
 5.330758e-02	 1.005996e+00	-9.774515e-02
 4.256355e-02	 1.006508e+00	-8.927089e-02
 3.185921e-02	 1.006904e+00	-8.261120e-02
 2.119614e-02	 1.007184e+00	-7.768727e-02
 1.057591e-02	 1.007352e+00	-7.465721e-02
 0.000000e+00	 1.007407e+00	-7.393043e-02
 5.369955e-02	 1.013393e+00	-1.583824e-01
 4.287651e-02	 1.013909e+00	-1.518950e-01
 3.209346e-02	 1.014307e+00	-1.468711e-01
 2.135200e-02	 1.014590e+00	-1.431225e-01
 1.065367e-02	 1.014759e+00	-1.407085e-01
 0.000000e+00	 1.014815e+00	-1.399519e-01
 5.409151e-02	 1.020790e+00	-2.127136e-01
 4.318948e-02	 1.021309e+00	-2.080380e-01
 3.232772e-02	 1.021711e+00	-2.044731e-01
 2.150785e-02	 1.021996e+00	-2.017528e-01
 1.073144e-02	 1.022166e+00	-1.998698e-01
 0.000000e+00	 1.022222e+00	-1.990929e-01
 5.448348e-02	 1.028187e+00	-2.602345e-01
 4.350245e-02	 1.028710e+00	-2.572030e-01
 3.256198e-02	 1.029115e+00	-2.549377e-01
 2.166371e-02	 1.029402e+00	-2.531244e-01
 1.080920e-02	 1.029573e+00	-2.517200e-01
 0.000000e+00	 1.029630e+00	-2.509706e-01
 5.487545e-02	 1.035584e+00	-3.004532e-01
 4.381542e-02	 1.036111e+00	-2.989064e-01
 3.279624e-02	 1.036518e+00	-2.977991e-01
 2.181956e-02	 1.036807e+00	-2.967975e-01
 1.088696e-02	 1.036980e+00	-2.958518e-01
 0.000000e+00	 1.037037e+00	-2.952155e-01
 1.037037e+00	 0.000000e+00	 2.831238e+01
 1.036980e+00	 1.088696e-02	 2.830541e+01
 1.036807e+00	 2.181956e-02	 2.828585e+01
 1.036518e+00	 3.279624e-02	 2.825324e+01
 1.036111e+00	 4.381542e-02	 2.820719e+01
 1.035584e+00	 5.487545e-02	 2.814744e+01
 1.044444e+00	 0.000000e+00	 2.786957e+01
 1.044387e+00	 1.096473e-02	 2.786281e+01
 1.044213e+00	 2.197541e-02	 2.784404e+01
 1.043922e+00	 3.303050e-02	 2.781274e+01
 1.043512e+00	 4.412838e-02	 2.776853e+01
 1.042981e+00	 5.526742e-02	 2.771112e+01
 1.051852e+00	 0.000000e+00	 2.744178e+01
 1.051794e+00	 1.104249e-02	 2.743520e+01
 1.051619e+00	 2.213127e-02	 2.741715e+01
 1.051326e+00	 3.326476e-02	 2.738711e+01
 1.050913e+00	 4.444135e-02	 2.734466e+01
 1.050378e+00	 5.565938e-02	 2.728949e+01
 1.059259e+00	 0.000000e+00	 2.702810e+01
 1.059201e+00	 1.112026e-02	 2.702167e+01
 1.059025e+00	 2.228712e-02	 2.700431e+01
 1.058729e+00	 3.349902e-02	 2.697546e+01
 1.058313e+00	 4.475432e-02	 2.693469e+01
 1.057775e+00	 5.605135e-02	 2.688166e+01
 1.066667e+00	 0.000000e+00	 2.662763e+01
 1.066608e+00	 1.119802e-02	 2.662134e+01
 1.066431e+00	 2.244298e-02	 2.660464e+01
 1.066133e+00	 3.373328e-02	 2.657693e+01
 1.065714e+00	 4.506728e-02	 2.653776e+01
 1.065172e+00	 5.644332e-02	 2.648678e+01
 1.074074e+00	 0.000000e+00	 2.623950e+01
 1.074015e+00	 1.127578e-02	 2.623336e+01
 1.073836e+00	 2.259883e-02	 2.621729e+01
 1.073537e+00	 3.396754e-02	 2.619068e+01
 1.073115e+00	 4.538025e-02	 2.615305e+01
 1.072569e+00	 5.683529e-02	 2.610402e+01
 1.035584e+00	 5.487545e-02	 2.814744e+01
 1.034936e+00	 6.597466e-02	 2.807415e+01
 1.034166e+00	 7.711134e-02	 2.798742e+01
 1.033272e+00	 8.828371e-02	 2.788706e+01
 1.032254e+00	 9.948996e-02	 2.777296e+01
 1.031109e+00	 1.107283e-01	 2.764511e+01
 1.042981e+00	 5.526742e-02	 2.771112e+01
 1.042329e+00	 6.644591e-02	 2.764068e+01
 1.041553e+00	 7.766213e-02	 2.755737e+01
 1.040653e+00	 8.891430e-02	 2.746099e+01
 1.039627e+00	 1.002006e-01	 2.735141e+01
 1.038474e+00	 1.115192e-01	 2.722863e+01
 1.050378e+00	 5.565938e-02	 2.728949e+01
 1.049721e+00	 6.691716e-02	 2.722179e+01
 1.048940e+00	 7.821293e-02	 2.714176e+01
 1.048033e+00	 8.954490e-02	 2.704918e+01
 1.047000e+00	 1.009112e-01	 2.694392e+01
 1.045839e+00	 1.123101e-01	 2.682597e+01
 1.057775e+00	 5.605135e-02	 2.688166e+01
 1.057114e+00	 6.738841e-02	 2.681660e+01
 1.056327e+00	 7.876372e-02	 2.673970e+01
 1.055414e+00	 9.017550e-02	 2.665074e+01
 1.054373e+00	 1.016219e-01	 2.654961e+01
 1.053204e+00	 1.131010e-01	 2.643626e+01
 1.065172e+00	 5.644332e-02	 2.648678e+01
 1.064506e+00	 6.785965e-02	 2.642423e+01
 1.063714e+00	 7.931452e-02	 2.635032e+01
 1.062794e+00	 9.080610e-02	 2.626483e+01
 1.061747e+00	 1.023325e-01	 2.616763e+01
 1.060569e+00	 1.138919e-01	 2.605866e+01
 1.072569e+00	 5.683529e-02	 2.610402e+01
 1.071898e+00	 6.833090e-02	 2.604385e+01
 1.071101e+00	 7.986531e-02	 2.597280e+01
 1.070175e+00	 9.143669e-02	 2.589061e+01
 1.069120e+00	 1.030432e-01	 2.579714e+01
 1.067934e+00	 1.146828e-01	 2.569235e+01
 1.031109e+00	 1.107283e-01	 2.764511e+01
 1.029836e+00	 1.219967e-01	 2.750347e+01
 1.028435e+00	 1.332933e-01	 2.734800e+01
 1.026904e+00	 1.446162e-01	 2.717875e+01
 1.025242e+00	 1.559633e-01	 2.699581e+01
 1.023448e+00	 1.673326e-01	 2.679934e+01
 1.038474e+00	 1.115192e-01	 2.722863e+01
 1.037192e+00	 1.228681e-01	 2.709259e+01
 1.035781e+00	 1.342454e-01	 2.694325e+01
 1.034239e+00	 1.456492e-01	 2.678062e+01
 1.032565e+00	 1.570774e-01	 2.660480e+01
 1.030758e+00	 1.685278e-01	 2.641595e+01
 1.045839e+00	 1.123101e-01	 2.682597e+01
 1.044548e+00	 1.237395e-01	 2.669528e+01
 1.043127e+00	 1.351975e-01	 2.655179e+01
 1.041574e+00	 1.466822e-01	 2.639553e+01
 1.039888e+00	 1.581914e-01	 2.622657e+01
 1.038069e+00	 1.697231e-01	 2.604508e+01
 1.053204e+00	 1.131010e-01	 2.643626e+01
 1.051904e+00	 1.246109e-01	 2.631067e+01
 1.050473e+00	 1.361496e-01	 2.617277e+01
 1.048909e+00	 1.477151e-01	 2.602260e+01
 1.047212e+00	 1.593054e-01	 2.586023e+01
 1.045379e+00	 1.709183e-01	 2.568581e+01
 1.060569e+00	 1.138919e-01	 2.605866e+01
 1.059260e+00	 1.254823e-01	 2.593792e+01
 1.057819e+00	 1.371017e-01	 2.580535e+01
 1.056244e+00	 1.487481e-01	 2.566098e+01
 1.054535e+00	 1.604194e-01	 2.550490e+01
 1.052689e+00	 1.721135e-01	 2.533725e+01
 1.067934e+00	 1.146828e-01	 2.569235e+01
 1.066616e+00	 1.263537e-01	 2.557622e+01
 1.065165e+00	 1.380538e-01	 2.544871e+01
 1.063579e+00	 1.497811e-01	 2.530985e+01
 1.061858e+00	 1.615335e-01	 2.515974e+01
 1.060000e+00	 1.733088e-01	 2.499852e+01
 1.023448e+00	 1.673326e-01	 2.679934e+01
 1.021521e+00	 1.787220e-01	 2.658928e+01
 1.019459e+00	 1.901292e-01	 2.636583e+01
 1.017262e+00	 2.015523e-01	 2.612962e+01
 1.014929e+00	 2.129889e-01	 2.588132e+01
 1.012459e+00	 2.244369e-01	 2.562161e+01
 1.030758e+00	 1.685278e-01	 2.641595e+01
 1.028817e+00	 1.799985e-01	 2.621399e+01
 1.026741e+00	 1.914873e-01	 2.599917e+01
 1.024528e+00	 2.029920e-01	 2.577210e+01
 1.022179e+00	 2.145103e-01	 2.553348e+01
 1.019691e+00	 2.260400e-01	 2.528400e+01
 1.038069e+00	 1.697231e-01	 2.604508e+01
 1.036114e+00	 1.812751e-01	 2.585097e+01
 1.034023e+00	 1.928454e-01	 2.564447e+01
 1.031795e+00	 2.044316e-01	 2.542623e+01
 1.029428e+00	 2.160316e-01	 2.519695e+01
 1.026923e+00	 2.276431e-01	 2.495734e+01
 1.045379e+00	 1.709183e-01	 2.568581e+01
 1.043410e+00	 1.825517e-01	 2.549925e+01
 1.041305e+00	 1.942034e-01	 2.530075e+01
 1.039061e+00	 2.058713e-01	 2.509101e+01
 1.036678e+00	 2.175530e-01	 2.487072e+01
 1.034155e+00	 2.292462e-01	 2.464062e+01
 1.052689e+00	 1.721135e-01	 2.533725e+01
 1.050707e+00	 1.838283e-01	 2.515791e+01
 1.048586e+00	 1.955615e-01	 2.496708e+01
 1.046327e+00	 2.073109e-01	 2.476547e+01
 1.043927e+00	 2.190743e-01	 2.455382e+01
 1.041387e+00	 2.308493e-01	 2.433286e+01
 1.060000e+00	 1.733088e-01	 2.499852e+01
 1.058003e+00	 1.851049e-01	 2.482605e+01
 1.055868e+00	 1.969196e-01	 2.464253e+01
 1.053593e+00	 2.087506e-01	 2.444869e+01
 1.051177e+00	 2.205957e-01	 2.424530e+01
 1.048619e+00	 2.324525e-01	 2.403311e+01
 1.012459e+00	 2.244369e-01	 2.562161e+01
 1.009851e+00	 2.358938e-01	 2.534915e+01
 1.007105e+00	 2.473576e-01	 2.506255e+01
 1.004219e+00	 2.588256e-01	 2.476245e+01
 1.001192e+00	 2.702957e-01	 2.444947e+01
 9.980251e-01	 2.817654e-01	 2.412421e+01
 1.019691e+00	 2.260400e-01	 2.528400e+01
 1.017065e+00	 2.375788e-01	 2.502210e+01
 1.014298e+00	 2.491244e-01	 2.474623e+01
 1.011392e+00	 2.606744e-01	 2.445708e+01
 1.008344e+00	 2.722264e-01	 2.415530e+01
 1.005154e+00	 2.837781e-01	 2.384152e+01
 1.026923e+00	 2.276431e-01	 2.495734e+01
 1.024278e+00	 2.392638e-01	 2.470565e+01
 1.021492e+00	 2.508912e-01	 2.444017e+01
 1.018565e+00	 2.625232e-01	 2.416161e+01
 1.015495e+00	 2.741571e-01	 2.387066e+01
 1.012283e+00	 2.857907e-01	 2.356798e+01
 1.034155e+00	 2.292462e-01	 2.464062e+01
 1.031491e+00	 2.409487e-01	 2.439880e+01
 1.028686e+00	 2.526581e-01	 2.414339e+01
 1.025738e+00	 2.643719e-01	 2.387513e+01
 1.022646e+00	 2.760878e-01	 2.359475e+01
 1.019411e+00	 2.878033e-01	 2.330290e+01
 1.041387e+00	 2.308493e-01	 2.433286e+01
 1.038704e+00	 2.426337e-01	 2.410057e+01
 1.035879e+00	 2.544249e-01	 2.385496e+01
 1.032911e+00	 2.662207e-01	 2.359679e+01
 1.029798e+00	 2.780185e-01	 2.332677e+01
 1.026540e+00	 2.898159e-01	 2.304560e+01
 1.048619e+00	 2.324525e-01	 2.403311e+01
 1.045918e+00	 2.443186e-01	 2.381004e+01
 1.043073e+00	 2.561918e-01	 2.357399e+01
 1.040084e+00	 2.680694e-01	 2.332573e+01
 1.036949e+00	 2.799492e-01	 2.306599e+01
 1.033669e+00	 2.918285e-01	 2.279545e+01
 9.980251e-01	 2.817654e-01	 2.412421e+01
 9.947164e-01	 2.932323e-01	 2.378833e+01
 9.912656e-01	 3.046939e-01	 2.344416e+01
 9.876723e-01	 3.161476e-01	 2.309322e+01
 9.839359e-01	 3.275911e-01	 2.273703e+01
 9.800562e-01	 3.390217e-01	 2.237709e+01
 1.005154e+00	 2.837781e-01	 2.384152e+01
 1.001821e+00	 2.953268e-01	 2.351767e+01
 9.983461e-01	 3.068702e-01	 2.318628e+01
 9.947271e-01	 3.184058e-01	 2.284889e+01
 9.909640e-01	 3.299310e-01	 2.250700e+01
 9.870566e-01	 3.414432e-01	 2.216210e+01
 1.012283e+00	 2.857907e-01	 2.356798e+01
 1.008927e+00	 2.974213e-01	 2.325570e+01
 1.005427e+00	 3.090466e-01	 2.293657e+01
 1.001782e+00	 3.206640e-01	 2.261211e+01
 9.979922e-01	 3.322709e-01	 2.228383e+01
 9.940570e-01	 3.438648e-01	 2.195320e+01
 1.019411e+00	 2.878033e-01	 2.330290e+01
 1.016032e+00	 2.995159e-01	 2.300186e+01
 1.012507e+00	 3.112230e-01	 2.269452e+01
 1.008837e+00	 3.229222e-01	 2.238243e+01
 1.005020e+00	 3.346109e-01	 2.206707e+01
 1.001057e+00	 3.462864e-01	 2.174990e+01
 1.026540e+00	 2.898159e-01	 2.304560e+01
 1.023137e+00	 3.016104e-01	 2.275558e+01
 1.019587e+00	 3.133994e-01	 2.245966e+01
 1.015891e+00	 3.251804e-01	 2.215939e+01
 1.012048e+00	 3.369508e-01	 2.185626e+01
 1.008058e+00	 3.487080e-01	 2.155170e+01
 1.033669e+00	 2.918285e-01	 2.279545e+01
 1.030242e+00	 3.037049e-01	 2.251634e+01
 1.026668e+00	 3.155758e-01	 2.223152e+01
 1.022946e+00	 3.274386e-01	 2.194257e+01
 1.019076e+00	 3.392907e-01	 2.165097e+01
 1.015058e+00	 3.511296e-01	 2.135816e+01
 9.800562e-01	 3.390217e-01	 2.237709e+01
 9.760327e-01	 3.504368e-01	 2.200303e+01
 9.718652e-01	 3.618340e-01	 2.160337e+01
 9.675535e-01	 3.732105e-01	 2.117912e+01
 9.630973e-01	 3.845639e-01	 2.075776e+01
 9.584967e-01	 3.958913e-01	 2.034874e+01
 9.870566e-01	 3.414432e-01	 2.216210e+01
 9.830044e-01	 3.529399e-01	 2.180218e+01
 9.788071e-01	 3.644185e-01	 2.141417e+01
 9.744646e-01	 3.758763e-01	 2.100266e+01
 9.699766e-01	 3.873107e-01	 2.059836e+01
 9.653431e-01	 3.987191e-01	 2.020467e+01
 9.940570e-01	 3.438648e-01	 2.195320e+01
 9.899760e-01	 3.554431e-01	 2.160656e+01
 9.857490e-01	 3.670030e-01	 2.122921e+01
 9.813757e-01	 3.785421e-01	 2.083180e+01
 9.768559e-01	 3.900576e-01	 2.044376e+01
 9.721895e-01	 4.015469e-01	 2.006454e+01
 1.001057e+00	 3.462864e-01	 2.174990e+01
 9.969477e-01	 3.579462e-01	 2.141562e+01
 9.926909e-01	 3.695876e-01	 2.104794e+01
 9.882868e-01	 3.812079e-01	 2.066602e+01
 9.837351e-01	 3.928045e-01	 2.029344e+01
 9.790359e-01	 4.043747e-01	 1.992786e+01
 1.008058e+00	 3.487080e-01	 2.155170e+01
 1.003919e+00	 3.604493e-01	 2.122882e+01
 9.996328e-01	 3.721721e-01	 2.087034e+01
 9.951979e-01	 3.838737e-01	 2.050483e+01
 9.906144e-01	 3.955514e-01	 2.014690e+01
 9.858823e-01	 4.072025e-01	 1.979414e+01
 1.015058e+00	 3.511296e-01	 2.135816e+01
 1.010891e+00	 3.629524e-01	 2.104568e+01
 1.006575e+00	 3.747566e-01	 2.069752e+01
 1.002109e+00	 3.865395e-01	 2.034773e+01
 9.974937e-01	 3.982983e-01	 2.000366e+01
 9.927287e-01	 4.100303e-01	 1.966291e+01
 9.584967e-01	 3.958913e-01	 2.034874e+01
 9.537515e-01	 4.071902e-01	 1.994123e+01
 9.488618e-01	 4.184580e-01	 1.952527e+01
 9.438277e-01	 4.296918e-01	 1.909954e+01
 9.386493e-01	 4.408891e-01	 1.866259e+01
 9.333269e-01	 4.520472e-01	 1.821286e+01
 9.653431e-01	 3.987191e-01	 2.020467e+01
 9.605640e-01	 4.100987e-01	 1.981168e+01
 9.556394e-01	 4.214469e-01	 1.941038e+01
 9.505693e-01	 4.327610e-01	 1.899943e+01
 9.453540e-01	 4.440383e-01	 1.857734e+01
 9.399935e-01	 4.552761e-01	 1.814253e+01
 9.721895e-01	 4.015469e-01	 2.006454e+01
 9.673765e-01	 4.130072e-01	 1.968524e+01
 9.624170e-01	 4.244359e-01	 1.929787e+01
 9.573110e-01	 4.358303e-01	 1.890103e+01
 9.520586e-01	 4.471875e-01	 1.849322e+01
 9.466602e-01	 4.585050e-01	 1.807279e+01
 9.790359e-01	 4.043747e-01	 1.992786e+01
 9.741890e-01	 4.159157e-01	 1.956146e+01
 9.691946e-01	 4.274249e-01	 1.918732e+01
 9.640526e-01	 4.388995e-01	 1.880399e+01
 9.587633e-01	 4.503368e-01	 1.840992e+01
 9.533268e-01	 4.617339e-01	 1.800342e+01
 9.858823e-01	 4.072025e-01	 1.979414e+01
 9.810016e-01	 4.188242e-01	 1.943987e+01
 9.759722e-01	 4.304139e-01	 1.907830e+01
 9.707942e-01	 4.419687e-01	 1.870793e+01
 9.654679e-01	 4.534860e-01	 1.832714e+01
 9.599934e-01	 4.649628e-01	 1.793419e+01
 9.927287e-01	 4.100303e-01	 1.966291e+01
 9.878141e-01	 4.217327e-01	 1.932004e+01
 9.827497e-01	 4.334029e-01	 1.897043e+01
 9.775358e-01	 4.450380e-01	 1.861251e+01
 9.721725e-01	 4.566352e-01	 1.824459e+01
 9.666600e-01	 4.681917e-01	 1.786487e+01
 9.333269e-01	 4.520472e-01	 1.821286e+01
 9.278607e-01	 4.631633e-01	 1.775862e+01
 9.222511e-01	 4.742348e-01	 1.730750e+01
 9.164986e-01	 4.852589e-01	 1.685687e+01
 9.106034e-01	 4.962330e-01	 1.640398e+01
 9.045664e-01	 5.071543e-01	 1.594606e+01
 9.399935e-01	 4.552761e-01	 1.814253e+01
 9.344883e-01	 4.664716e-01	 1.770329e+01
 9.288387e-01	 4.776222e-01	 1.726722e+01
 9.230450e-01	 4.887251e-01	 1.683156e+01
 9.171078e-01	 4.997775e-01	 1.639348e+01
 9.110275e-01	 5.107769e-01	 1.595004e+01
 9.466602e-01	 4.585050e-01	 1.807279e+01
 9.411159e-01	 4.697799e-01	 1.764804e+01
 9.354262e-01	 4.810096e-01	 1.722650e+01
 9.295914e-01	 4.921912e-01	 1.680531e+01
 9.236121e-01	 5.033220e-01	 1.638152e+01
 9.174887e-01	 5.143994e-01	 1.595206e+01
 9.533268e-01	 4.617339e-01	 1.800342e+01
 9.477435e-01	 4.730882e-01	 1.759271e+01
 9.420137e-01	 4.843970e-01	 1.718523e+01
 9.361378e-01	 4.956573e-01	 1.677802e+01
 9.301164e-01	 5.068666e-01	 1.636800e+01
 9.239499e-01	 5.180219e-01	 1.595200e+01
 9.599934e-01	 4.649628e-01	 1.793419e+01
 9.543711e-01	 4.763966e-01	 1.753715e+01
 9.486012e-01	 4.877844e-01	 1.714331e+01
 9.426842e-01	 4.991235e-01	 1.674960e+01
 9.366207e-01	 5.104111e-01	 1.635283e+01
 9.304111e-01	 5.216445e-01	 1.594971e+01
 9.666600e-01	 4.681917e-01	 1.786487e+01
 9.609986e-01	 4.797049e-01	 1.748118e+01
 9.551887e-01	 4.911717e-01	 1.710059e+01
 9.492306e-01	 5.025896e-01	 1.671992e+01
 9.431250e-01	 5.139556e-01	 1.633588e+01
 9.368723e-01	 5.252670e-01	 1.594504e+01
 9.045664e-01	 5.071543e-01	 1.594606e+01
 8.983879e-01	 5.180202e-01	 1.548724e+01
 8.920688e-01	 5.288280e-01	 1.503193e+01
 8.856098e-01	 5.395749e-01	 1.457767e+01
 8.790117e-01	 5.502584e-01	 1.412202e+01
 8.722753e-01	 5.608757e-01	 1.366262e+01
 9.110275e-01	 5.107769e-01	 1.595004e+01
 9.048050e-01	 5.217204e-01	 1.550553e+01
 8.984407e-01	 5.326053e-01	 1.506449e+01
 8.919356e-01	 5.434290e-01	 1.462429e+01
 8.852903e-01	 5.541888e-01	 1.418238e+01
 8.785059e-01	 5.648820e-01	 1.373619e+01
 9.174887e-01	 5.143994e-01	 1.595206e+01
 9.112220e-01	 5.254205e-01	 1.552137e+01
 9.048127e-01	 5.363827e-01	 1.509408e+01
 8.982614e-01	 5.472831e-01	 1.466745e+01
 8.915690e-01	 5.581192e-01	 1.423874e+01
 8.847364e-01	 5.688882e-01	 1.380527e+01
 9.239499e-01	 5.180219e-01	 1.595200e+01
 9.176391e-01	 5.291207e-01	 1.553457e+01
 9.111846e-01	 5.401600e-01	 1.512053e+01
 9.045872e-01	 5.511372e-01	 1.470696e+01
 8.978476e-01	 5.620496e-01	 1.429100e+01
 8.909669e-01	 5.728945e-01	 1.386978e+01
 9.304111e-01	 5.216445e-01	 1.594971e+01
 9.240562e-01	 5.328208e-01	 1.554498e+01
 9.175565e-01	 5.439373e-01	 1.514365e+01
 9.109129e-01	 5.549913e-01	 1.474267e+01
 9.041263e-01	 5.659800e-01	 1.433900e+01
 8.971975e-01	 5.769007e-01	 1.392964e+01
 9.368723e-01	 5.252670e-01	 1.594504e+01
 9.304732e-01	 5.365209e-01	 1.555241e+01
 9.239284e-01	 5.477147e-01	 1.516326e+01
 9.172387e-01	 5.588454e-01	 1.477438e+01
 9.104050e-01	 5.699105e-01	 1.438260e+01
 9.034280e-01	 5.809070e-01	 1.398476e+01
 8.722753e-01	 5.608757e-01	 1.366262e+01
 8.654017e-01	 5.714243e-01	 1.320439e+01
 8.583918e-01	 5.819014e-01	 1.275254e+01
 8.512468e-01	 5.923046e-01	 1.230522e+01
 8.439677e-01	 6.026311e-01	 1.186076e+01
 8.365559e-01	 6.128785e-01	 1.141769e+01
 8.785059e-01	 5.648820e-01	 1.373619e+01
 8.715832e-01	 5.755059e-01	 1.329090e+01
 8.645232e-01	 5.860579e-01	 1.285193e+01
 8.573271e-01	 5.965353e-01	 1.241730e+01
 8.499961e-01	 6.069356e-01	 1.198522e+01
 8.425313e-01	 6.172562e-01	 1.155409e+01
 8.847364e-01	 5.688882e-01	 1.380527e+01
 8.777646e-01	 5.795875e-01	 1.337242e+01
 8.706546e-01	 5.902143e-01	 1.294589e+01
 8.634075e-01	 6.007661e-01	 1.252354e+01
 8.560244e-01	 6.112401e-01	 1.210342e+01
 8.485067e-01	 6.216339e-01	 1.168379e+01
 8.909669e-01	 5.728945e-01	 1.386978e+01
 8.839460e-01	 5.836691e-01	 1.344896e+01
 8.767860e-01	 5.943707e-01	 1.303446e+01
 8.694878e-01	 6.049968e-01	 1.262399e+01
 8.620528e-01	 6.155446e-01	 1.221542e+01
 8.544821e-01	 6.260116e-01	 1.180686e+01
 8.971975e-01	 5.769007e-01	 1.392964e+01
 8.901275e-01	 5.877507e-01	 1.352048e+01
 8.829173e-01	 5.985272e-01	 1.311765e+01
 8.755681e-01	 6.092275e-01	 1.271868e+01
 8.680811e-01	 6.198492e-01	 1.232127e+01
 8.604575e-01	 6.303893e-01	 1.192331e+01
 9.034280e-01	 5.809070e-01	 1.398476e+01
 8.963089e-01	 5.918323e-01	 1.358694e+01
 8.890487e-01	 6.026836e-01	 1.319546e+01
 8.816485e-01	 6.134583e-01	 1.280764e+01
 8.741094e-01	 6.241537e-01	 1.242097e+01
 8.664329e-01	 6.347671e-01	 1.203317e+01
 8.365559e-01	 6.128785e-01	 1.141769e+01
 8.290125e-01	 6.230443e-01	 1.097876e+01
 8.213389e-01	 6.331258e-01	 1.054685e+01
 8.135365e-01	 6.431207e-01	 1.012114e+01
 8.056068e-01	 6.530264e-01	 9.701109e+00
 7.975513e-01	 6.628406e-01	 9.286550e+00
 8.425313e-01	 6.172562e-01	 1.155409e+01
 8.349340e-01	 6.274946e-01	 1.112656e+01
 8.272056e-01	 6.376481e-01	 1.070548e+01
 8.193475e-01	 6.477144e-01	 1.028995e+01
 8.113611e-01	 6.576909e-01	 9.879370e+00
 8.032481e-01	 6.675752e-01	 9.473470e+00
 8.485067e-01	 6.216339e-01	 1.168379e+01
 8.408555e-01	 6.319449e-01	 1.126724e+01
 8.330723e-01	 6.421704e-01	 1.085660e+01
 8.251584e-01	 6.523081e-01	 1.045091e+01
 8.171155e-01	 6.623554e-01	 1.004950e+01
 8.089449e-01	 6.723098e-01	 9.652094e+00
 8.544821e-01	 6.260116e-01	 1.180686e+01
 8.467770e-01	 6.363952e-01	 1.140084e+01
 8.389390e-01	 6.466928e-01	 1.100024e+01
 8.309694e-01	 6.569018e-01	 1.060405e+01
 8.228698e-01	 6.670198e-01	 1.021160e+01
 8.146417e-01	 6.770443e-01	 9.822551e+00
 8.604575e-01	 6.303893e-01	 1.192331e+01
 8.526985e-01	 6.408455e-01	 1.152736e+01
 8.448057e-01	 6.512151e-01	 1.113642e+01
 8.367804e-01	 6.614955e-01	 1.074943e+01
 8.286241e-01	 6.716843e-01	 1.036571e+01
 8.203385e-01	 6.817789e-01	 9.984956e+00
 8.664329e-01	 6.347671e-01	 1.203317e+01
 8.586201e-01	 6.452958e-01	 1.164683e+01
 8.506724e-01	 6.557374e-01	 1.126514e+01
 8.425914e-01	 6.660893e-01	 1.088706e+01
 8.343785e-01	 6.763488e-01	 1.051192e+01
 8.260353e-01	 6.865135e-01	 1.013941e+01
 7.975513e-01	 6.628406e-01	 9.286550e+00
 7.893717e-01	 6.725609e-01	 8.876488e+00
 7.810694e-01	 6.821850e-01	 8.471529e+00
 7.726464e-01	 6.917105e-01	 8.074506e+00
 7.641043e-01	 7.011351e-01	 7.688781e+00
 7.554449e-01	 7.104568e-01	 7.318265e+00
 8.032481e-01	 6.675752e-01	 9.473470e+00
 7.950100e-01	 6.773649e-01	 9.071791e+00
 7.866485e-01	 6.870577e-01	 8.675438e+00
 7.781653e-01	 6.966513e-01	 8.287169e+00
 7.695621e-01	 7.061433e-01	 7.910277e+00
 7.608409e-01	 7.155315e-01	 7.548617e+00
 8.089449e-01	 6.723098e-01	 9.652094e+00
 8.006484e-01	 6.821689e-01	 9.258686e+00
 7.922276e-01	 6.919305e-01	 8.870760e+00
 7.836842e-01	 7.015921e-01	 8.490895e+00
 7.750200e-01	 7.111514e-01	 8.122213e+00
 7.662370e-01	 7.206062e-01	 7.768402e+00
 8.146417e-01	 6.770443e-01	 9.822551e+00
 8.062868e-01	 6.869729e-01	 9.437342e+00
 7.978066e-01	 6.968032e-01	 9.057683e+00
 7.892031e-01	 7.065328e-01	 8.685873e+00
 7.804779e-01	 7.161595e-01	 8.324760e+00
 7.716330e-01	 7.256809e-01	 7.977762e+00
 8.203385e-01	 6.817789e-01	 9.984956e+00
 8.119251e-01	 6.917770e-01	 9.607915e+00
 8.033857e-01	 7.016760e-01	 9.236383e+00
 7.947220e-01	 7.114736e-01	 8.872281e+00
 7.859358e-01	 7.211676e-01	 8.518082e+00
 7.770290e-01	 7.307556e-01	 8.176831e+00
 8.260353e-01	 6.865135e-01	 1.013941e+01
 8.175635e-01	 6.965810e-01	 9.770545e+00
 8.089648e-01	 7.065487e-01	 9.407021e+00
 8.002409e-01	 7.164144e-01	 9.050285e+00
 7.913937e-01	 7.261757e-01	 8.702333e+00
 7.824251e-01	 7.358302e-01	 8.365737e+00
 7.554449e-01	 7.104568e-01	 7.318265e+00
 7.466701e-01	 7.196732e-01	 6.957533e+00
 7.377819e-01	 7.287823e-01	 6.596990e+00
 7.287823e-01	 7.377819e-01	 6.237030e+00
 7.196732e-01	 7.466701e-01	 5.881663e+00
 7.104568e-01	 7.554449e-01	 5.551697e+00
 7.608409e-01	 7.155315e-01	 7.548617e+00
 7.520035e-01	 7.248137e-01	 7.194726e+00
 7.430518e-01	 7.339879e-01	 6.836540e+00
 7.339879e-01	 7.430518e-01	 6.473633e+00
 7.248137e-01	 7.520035e-01	 6.126540e+00
 7.155315e-01	 7.608409e-01	 5.804023e+00
 7.662370e-01	 7.206062e-01	 7.768402e+00
 7.573368e-01	 7.299543e-01	 7.419888e+00
 7.483217e-01	 7.391935e-01	 7.062520e+00
 7.391935e-01	 7.483217e-01	 6.703481e+00
 7.299543e-01	 7.573368e-01	 6.363799e+00
 7.206062e-01	 7.662370e-01	 6.046818e+00
 7.716330e-01	 7.256809e-01	 7.977762e+00
 7.626702e-01	 7.350948e-01	 7.633168e+00
 7.535916e-01	 7.443991e-01	 7.276860e+00
 7.443991e-01	 7.535916e-01	 6.926961e+00
 7.350948e-01	 7.626702e-01	 6.592727e+00
 7.256809e-01	 7.716330e-01	 6.279637e+00
 7.770290e-01	 7.307556e-01	 8.176831e+00
 7.680036e-01	 7.402353e-01	 7.834708e+00
 7.588614e-01	 7.496046e-01	 7.484638e+00
 7.496046e-01	 7.588614e-01	 7.142203e+00
 7.402353e-01	 7.680036e-01	 6.812582e+00
 7.307556e-01	 7.770290e-01	 6.501997e+00
 7.824251e-01	 7.358302e-01	 8.365737e+00
 7.733369e-01	 7.453758e-01	 8.027015e+00
 7.641313e-01	 7.548102e-01	 7.685006e+00
 7.548102e-01	 7.641313e-01	 7.348081e+00
 7.453758e-01	 7.733369e-01	 7.022182e+00
 7.358302e-01	 7.824251e-01	 6.713382e+00
 7.104568e-01	 7.554449e-01	 5.551697e+00
 7.011351e-01	 7.641043e-01	 5.236909e+00
 6.917105e-01	 7.726464e-01	 4.926810e+00
 6.821850e-01	 7.810694e-01	 4.623921e+00
 6.725609e-01	 7.893717e-01	 4.330142e+00
 6.628406e-01	 7.975513e-01	 4.046751e+00
 7.155315e-01	 7.608409e-01	 5.804023e+00
 7.061433e-01	 7.695621e-01	 5.494172e+00
 6.966513e-01	 7.781653e-01	 5.186884e+00
 6.870577e-01	 7.866485e-01	 4.885212e+00
 6.773649e-01	 7.950100e-01	 4.591580e+00
 6.675752e-01	 8.032481e-01	 4.307779e+00
 7.206062e-01	 7.662370e-01	 6.046818e+00
 7.111514e-01	 7.750200e-01	 5.740809e+00
 7.015921e-01	 7.836842e-01	 5.435998e+00
 6.919305e-01	 7.922276e-01	 5.135760e+00
 6.821689e-01	 8.006484e-01	 4.842823e+00
 6.723098e-01	 8.089449e-01	 4.559269e+00
 7.256809e-01	 7.716330e-01	 6.279637e+00
 7.161595e-01	 7.804779e-01	 5.976628e+00
 7.065328e-01	 7.892031e-01	 5.674130e+00
 6.968032e-01	 7.978066e-01	 5.375628e+00
 6.869729e-01	 8.062868e-01	 5.083944e+00
 6.770443e-01	 8.146417e-01	 4.801228e+00
 7.307556e-01	 7.770290e-01	 6.501997e+00
 7.211676e-01	 7.859358e-01	 6.201397e+00
 7.114736e-01	 7.947220e-01	 5.901208e+00
 7.016760e-01	 8.033857e-01	 5.604829e+00
 6.917770e-01	 8.119251e-01	 5.314964e+00
 6.817789e-01	 8.203385e-01	 5.033614e+00
 7.358302e-01	 7.824251e-01	 6.713382e+00
 7.261757e-01	 7.913937e-01	 6.414837e+00
 7.164144e-01	 8.002409e-01	 6.117113e+00
 7.065487e-01	 8.089648e-01	 5.823325e+00
 6.965810e-01	 8.175635e-01	 5.535852e+00
 6.865135e-01	 8.260353e-01	 5.256338e+00
 6.628406e-01	 7.975513e-01	 4.046751e+00
 6.530264e-01	 8.056068e-01	 3.773619e+00
 6.431207e-01	 8.135365e-01	 3.510625e+00
 6.331258e-01	 8.213389e-01	 3.258149e+00
 6.230443e-01	 8.290125e-01	 3.015996e+00
 6.128785e-01	 8.365559e-01	 2.783406e+00
 6.675752e-01	 8.032481e-01	 4.307779e+00
 6.576909e-01	 8.113611e-01	 4.034266e+00
 6.477144e-01	 8.193475e-01	 3.771021e+00
 6.376481e-01	 8.272056e-01	 3.518193e+00
 6.274946e-01	 8.349340e-01	 3.275331e+00
 6.172562e-01	 8.425313e-01	 3.041395e+00
 6.723098e-01	 8.089449e-01	 4.559269e+00
 6.623554e-01	 8.171155e-01	 4.285876e+00
 6.523081e-01	 8.251584e-01	 4.022663e+00
 6.421704e-01	 8.330723e-01	 3.769603e+00
 6.319449e-01	 8.408555e-01	 3.526052e+00
 6.216339e-01	 8.485067e-01	 3.290749e+00
 6.770443e-01	 8.146417e-01	 4.801228e+00
 6.670198e-01	 8.228698e-01	 4.528368e+00
 6.569018e-01	 8.309694e-01	 4.265391e+00
 6.466928e-01	 8.389390e-01	 4.012160e+00
 6.363952e-01	 8.467770e-01	 3.767892e+00
 6.260116e-01	 8.544821e-01	 3.531165e+00
 6.817789e-01	 8.203385e-01	 5.033614e+00
 6.716843e-01	 8.286241e-01	 4.761610e+00
 6.614955e-01	 8.367804e-01	 4.499003e+00
 6.512151e-01	 8.448057e-01	 4.245603e+00
 6.408455e-01	 8.526985e-01	 4.000544e+00
 6.303893e-01	 8.604575e-01	 3.762303e+00
 6.865135e-01	 8.260353e-01	 5.256338e+00
 6.763488e-01	 8.343785e-01	 4.985425e+00
 6.660893e-01	 8.425914e-01	 4.723253e+00
 6.557374e-01	 8.506724e-01	 4.469627e+00
 6.452958e-01	 8.586201e-01	 4.223661e+00
 6.347671e-01	 8.664329e-01	 3.983783e+00
 6.128785e-01	 8.365559e-01	 2.783406e+00
 6.026311e-01	 8.439677e-01	 2.561871e+00
 5.923046e-01	 8.512468e-01	 2.352725e+00
 5.819014e-01	 8.583918e-01	 2.154184e+00
 5.714243e-01	 8.654017e-01	 1.963980e+00
 5.608757e-01	 8.722753e-01	 1.779382e+00
 6.172562e-01	 8.425313e-01	 3.041395e+00
 6.069356e-01	 8.499961e-01	 2.817818e+00
 5.965353e-01	 8.573271e-01	 2.606064e+00
 5.860579e-01	 8.645232e-01	 2.404313e+00
 5.755059e-01	 8.715832e-01	 2.210247e+00
 5.648820e-01	 8.785059e-01	 2.021066e+00
 6.216339e-01	 8.485067e-01	 3.290749e+00
 6.112401e-01	 8.560244e-01	 3.065140e+00
 6.007661e-01	 8.634075e-01	 2.850844e+00
 5.902143e-01	 8.706546e-01	 2.646011e+00
 5.795875e-01	 8.777646e-01	 2.448268e+00
 5.688882e-01	 8.847364e-01	 2.254745e+00
 6.260116e-01	 8.544821e-01	 3.531165e+00
 6.155446e-01	 8.620528e-01	 3.303515e+00
 6.049968e-01	 8.694878e-01	 3.086756e+00
 5.943707e-01	 8.767860e-01	 2.878997e+00
 5.836691e-01	 8.839460e-01	 2.677816e+00
 5.728945e-01	 8.909669e-01	 2.480275e+00
 6.303893e-01	 8.604575e-01	 3.762303e+00
 6.198492e-01	 8.680811e-01	 3.532588e+00
 6.092275e-01	 8.755681e-01	 3.313447e+00
 5.985272e-01	 8.829173e-01	 3.102954e+00
 5.877507e-01	 8.901275e-01	 2.898630e+00
 5.769007e-01	 8.971975e-01	 2.697472e+00
 6.347671e-01	 8.664329e-01	 3.983783e+00
 6.241537e-01	 8.741094e-01	 3.751963e+00
 6.134583e-01	 8.816485e-01	 3.530533e+00
 6.026836e-01	 8.890487e-01	 3.317525e+00
 5.918323e-01	 8.963089e-01	 3.110409e+00
 5.809070e-01	 9.034280e-01	 2.906114e+00
 5.608757e-01	 8.722753e-01	 1.779382e+00
 5.502584e-01	 8.790117e-01	 1.604006e+00
 5.395749e-01	 8.856098e-01	 1.442103e+00
 5.288280e-01	 8.920688e-01	 1.291297e+00
 5.180202e-01	 8.983879e-01	 1.148882e+00
 5.071543e-01	 9.045664e-01	 1.011846e+00
 5.648820e-01	 8.785059e-01	 2.021066e+00
 5.541888e-01	 8.852903e-01	 1.840694e+00
 5.434290e-01	 8.919356e-01	 1.673694e+00
 5.326053e-01	 8.984407e-01	 1.517607e+00
 5.217204e-01	 9.048050e-01	 1.369638e+00
 5.107769e-01	 9.110275e-01	 1.226680e+00
 5.688882e-01	 8.847364e-01	 2.254745e+00
 5.581192e-01	 8.915690e-01	 2.069713e+00
 5.472831e-01	 8.982614e-01	 1.898046e+00
 5.363827e-01	 9.048127e-01	 1.737147e+00
 5.254205e-01	 9.112220e-01	 1.584071e+00
 5.143994e-01	 9.174887e-01	 1.435558e+00
 5.728945e-01	 8.909669e-01	 2.480275e+00
 5.620496e-01	 8.978476e-01	 2.290992e+00
 5.511372e-01	 9.045872e-01	 2.115121e+00
 5.401600e-01	 9.111846e-01	 1.949871e+00
 5.291207e-01	 9.176391e-01	 1.792095e+00
 5.180219e-01	 9.239499e-01	 1.638314e+00
 5.769007e-01	 8.971975e-01	 2.697472e+00
 5.659800e-01	 9.041263e-01	 2.504418e+00
 5.549913e-01	 9.109129e-01	 2.324837e+00
 5.439373e-01	 9.175565e-01	 2.155695e+00
 5.328208e-01	 9.240562e-01	 1.993582e+00
 5.216445e-01	 9.304111e-01	 1.834745e+00
 5.809070e-01	 9.034280e-01	 2.906114e+00
 5.699105e-01	 9.104050e-01	 2.709838e+00
 5.588454e-01	 9.172387e-01	 2.527076e+00
 5.477147e-01	 9.239284e-01	 2.354497e+00
 5.365209e-01	 9.304732e-01	 2.188374e+00
 5.252670e-01	 9.368723e-01	 2.024617e+00
 5.071543e-01	 9.045664e-01	 1.011846e+00
 4.962330e-01	 9.106034e-01	 8.834143e-01
 4.852589e-01	 9.164986e-01	 7.669910e-01
 4.742348e-01	 9.222511e-01	 6.594742e-01
 4.631633e-01	 9.278607e-01	 5.575863e-01
 4.520472e-01	 9.333269e-01	 4.579018e-01
 5.107769e-01	 9.110275e-01	 1.226680e+00
 4.997775e-01	 9.171078e-01	 1.092061e+00
 4.887251e-01	 9.230450e-01	 9.692906e-01
 4.776222e-01	 9.288387e-01	 8.551617e-01
 4.664716e-01	 9.344883e-01	 7.462846e-01
 4.552761e-01	 9.399935e-01	 6.391141e-01
 5.143994e-01	 9.174887e-01	 1.435558e+00
 5.033220e-01	 9.236121e-01	 1.294979e+00
 4.921912e-01	 9.295914e-01	 1.165973e+00
 4.810096e-01	 9.354262e-01	 1.045307e+00
 4.697799e-01	 9.411159e-01	 9.295529e-01
 4.585050e-01	 9.466602e-01	 8.151265e-01
 5.180219e-01	 9.239499e-01	 1.638314e+00
 5.068666e-01	 9.301164e-01	 1.491927e+00
 4.956573e-01	 9.361378e-01	 1.356782e+00
 4.843970e-01	 9.420137e-01	 1.229684e+00
 4.730882e-01	 9.477435e-01	 1.107248e+00
 4.617339e-01	 9.533268e-01	 9.859236e-01
 5.216445e-01	 9.304111e-01	 1.834745e+00
 5.104111e-01	 9.366207e-01	 1.682638e+00
 4.991235e-01	 9.426842e-01	 1.541432e+00
 4.877844e-01	 9.486012e-01	 1.408044e+00
 4.763966e-01	 9.543711e-01	 1.279198e+00
 4.649628e-01	 9.599934e-01	 1.151461e+00
 5.252670e-01	 9.368723e-01	 2.024617e+00
 5.139556e-01	 9.431250e-01	 1.866813e+00
 5.025896e-01	 9.492306e-01	 1.719611e+00
 4.911717e-01	 9.551887e-01	 1.580106e+00
 4.797049e-01	 9.609986e-01	 1.445206e+00
 4.681917e-01	 9.666600e-01	 1.311664e+00
 4.520472e-01	 9.333269e-01	 4.579018e-01
 4.408891e-01	 9.386493e-01	 3.646217e-01
 4.296918e-01	 9.438277e-01	 2.831868e-01
 4.184580e-01	 9.488618e-01	 2.119123e-01
 4.071902e-01	 9.537515e-01	 1.490985e-01
 3.958913e-01	 9.584967e-01	 9.305326e-02
 4.552761e-01	 9.399935e-01	 6.391141e-01
 4.440383e-01	 9.453540e-01	 5.380991e-01
 4.327610e-01	 9.505693e-01	 4.489412e-01
 4.214469e-01	 9.556394e-01	 3.698501e-01
 4.100987e-01	 9.605640e-01	 2.990207e-01
 3.987191e-01	 9.653431e-01	 2.346574e-01
 4.585050e-01	 9.466602e-01	 8.151265e-01
 4.471875e-01	 9.520586e-01	 7.067897e-01
 4.358303e-01	 9.573110e-01	 6.104562e-01
 4.244359e-01	 9.624170e-01	 5.241389e-01
 4.130072e-01	 9.673765e-01	 4.458355e-01
 4.015469e-01	 9.721895e-01	 3.735529e-01
 4.617339e-01	 9.533268e-01	 9.859236e-01
 4.503368e-01	 9.587633e-01	 8.708123e-01
 4.388995e-01	 9.640526e-01	 7.679523e-01
 4.274249e-01	 9.691946e-01	 6.750712e-01
 4.159157e-01	 9.741890e-01	 5.898785e-01
 4.043747e-01	 9.790359e-01	 5.100910e-01
 4.649628e-01	 9.599934e-01	 1.151461e+00
 4.534860e-01	 9.654679e-01	 1.030254e+00
 4.419687e-01	 9.707942e-01	 9.216179e-01
 4.304139e-01	 9.759722e-01	 8.229068e-01
 4.188242e-01	 9.810016e-01	 7.314529e-01
 4.072025e-01	 9.858823e-01	 6.445927e-01
 4.681917e-01	 9.666600e-01	 1.311664e+00
 4.566352e-01	 9.721725e-01	 1.185172e+00
 4.450380e-01	 9.775358e-01	 1.071610e+00
 4.334029e-01	 9.827497e-01	 9.678734e-01
 4.217327e-01	 9.878141e-01	 8.708307e-01
 4.100303e-01	 9.927287e-01	 7.773483e-01
 3.958913e-01	 9.584967e-01	 9.305326e-02
 3.845639e-01	 9.630973e-01	 3.921957e-02
 3.732105e-01	 9.675535e-01	-1.568898e-02
 3.618340e-01	 9.718652e-01	-6.946035e-02
 3.504368e-01	 9.760327e-01	-1.153456e-01
 3.390217e-01	 9.800562e-01	-1.490259e-01
 3.987191e-01	 9.653431e-01	 2.346574e-01
 3.873107e-01	 9.699766e-01	 1.725421e-01
 3.758763e-01	 9.744646e-01	 1.099300e-01
 3.644185e-01	 9.788071e-01	 4.823965e-02
 3.529399e-01	 9.830044e-01	-5.571696e-03
 3.414432e-01	 9.870566e-01	-4.632598e-02
 4.015469e-01	 9.721895e-01	 3.735529e-01
 3.900576e-01	 9.768559e-01	 3.033896e-01
 3.785421e-01	 9.813757e-01	 2.332056e-01
 3.670030e-01	 9.857490e-01	 1.640434e-01
 3.554431e-01	 9.899760e-01	 1.023941e-01
 3.438648e-01	 9.940570e-01	 5.455741e-02
 4.043747e-01	 9.790359e-01	 5.100910e-01
 3.928045e-01	 9.837351e-01	 4.321127e-01
 3.812079e-01	 9.882868e-01	 3.544788e-01
 3.695876e-01	 9.926909e-01	 2.782430e-01
 3.579462e-01	 9.969477e-01	 2.088453e-01
 3.462864e-01	 1.001057e+00	 1.539015e-01
 4.072025e-01	 9.858823e-01	 6.445927e-01
 3.955514e-01	 9.906144e-01	 5.590329e-01
 3.838737e-01	 9.951979e-01	 4.740638e-01
 3.721721e-01	 9.996328e-01	 3.910249e-01
 3.604493e-01	 1.003919e+00	 3.140452e-01
 3.487080e-01	 1.008058e+00	 2.519585e-01
 4.100303e-01	 9.927287e-01	 7.773483e-01
 3.982983e-01	 9.974937e-01	 6.844435e-01
 3.865395e-01	 1.002109e+00	 5.922486e-01
 3.747566e-01	 1.006575e+00	 5.024313e-01
 3.629524e-01	 1.010891e+00	 4.182265e-01
 3.511296e-01	 1.015058e+00	 3.489554e-01
 3.390217e-01	 9.800562e-01	-1.490259e-01
 3.275911e-01	 9.839359e-01	-1.744659e-01
 3.161476e-01	 9.876723e-01	-1.988107e-01
 3.046939e-01	 9.912656e-01	-2.219062e-01
 2.932323e-01	 9.947164e-01	-2.431176e-01
 2.817654e-01	 9.980251e-01	-2.613417e-01
 3.414432e-01	 9.870566e-01	-4.632598e-02
 3.299310e-01	 9.909640e-01	-7.851257e-02
 3.184058e-01	 9.947271e-01	-1.100406e-01
 3.068702e-01	 9.983461e-01	-1.406653e-01
 2.953268e-01	 1.001821e+00	-1.696337e-01
 2.837781e-01	 1.005154e+00	-1.956973e-01
 3.438648e-01	 9.940570e-01	 5.455741e-02
 3.322709e-01	 9.979922e-01	 1.551302e-02
 3.206640e-01	 1.001782e+00	-2.337130e-02
 3.090466e-01	 1.005427e+00	-6.165125e-02
 2.974213e-01	 1.008927e+00	-9.834231e-02
 2.857907e-01	 1.012283e+00	-1.319341e-01
 3.462864e-01	 1.001057e+00	 1.539015e-01
 3.346109e-01	 1.005020e+00	 1.078851e-01
 3.229222e-01	 1.008837e+00	 6.151173e-02
 3.112230e-01	 1.012507e+00	 1.553204e-02
 2.995159e-01	 1.016032e+00	-2.872721e-02
 2.878033e-01	 1.019411e+00	-6.937922e-02
 3.487080e-01	 1.008058e+00	 2.519585e-01
 3.369508e-01	 1.012048e+00	 1.988576e-01
 3.251804e-01	 1.015891e+00	 1.449058e-01
 3.133994e-01	 1.019587e+00	 9.126477e-02
 3.016104e-01	 1.023137e+00	 3.971192e-02
 2.898159e-01	 1.026540e+00	-7.377324e-03
 3.511296e-01	 1.015058e+00	 3.489554e-01
 3.392907e-01	 1.019076e+00	 2.886635e-01
 3.274386e-01	 1.022946e+00	 2.270904e-01
 3.155758e-01	 1.026668e+00	 1.659108e-01
 3.037049e-01	 1.030242e+00	 1.074591e-01
 2.918285e-01	 1.033669e+00	 5.470933e-02
 2.817654e-01	 9.980251e-01	-2.613417e-01
 2.702957e-01	 1.001192e+00	-2.767859e-01
 2.588256e-01	 1.004219e+00	-2.905938e-01
 2.473576e-01	 1.007105e+00	-3.024163e-01
 2.358938e-01	 1.009851e+00	-3.115140e-01
 2.244369e-01	 1.012459e+00	-3.167869e-01
 2.837781e-01	 1.005154e+00	-1.956973e-01
 2.722264e-01	 1.008344e+00	-2.190266e-01
 2.606744e-01	 1.011392e+00	-2.407653e-01
 2.491244e-01	 1.014298e+00	-2.604372e-01
 2.375788e-01	 1.017065e+00	-2.771522e-01
 2.260400e-01	 1.019691e+00	-2.896382e-01
 2.857907e-01	 1.012283e+00	-1.319341e-01
 2.741571e-01	 1.015495e+00	-1.624923e-01
 2.625232e-01	 1.018565e+00	-1.912519e-01
 2.508912e-01	 1.021492e+00	-2.177281e-01
 2.392638e-01	 1.024278e+00	-2.409987e-01
 2.276431e-01	 1.026923e+00	-2.597374e-01
 2.878033e-01	 1.019411e+00	-6.937922e-02
 2.760878e-01	 1.022646e+00	-1.063584e-01
 2.643719e-01	 1.025738e+00	-1.411198e-01
 2.526581e-01	 1.028686e+00	-1.732854e-01
 2.409487e-01	 1.031491e+00	-2.020162e-01
 2.292462e-01	 1.034155e+00	-2.260460e-01
 2.898159e-01	 1.026540e+00	-7.377324e-03
 2.780185e-01	 1.029798e+00	-4.981969e-02
 2.662207e-01	 1.032911e+00	-8.945521e-02
 2.544249e-01	 1.035879e+00	-1.261255e-01
 2.426337e-01	 1.038704e+00	-1.591865e-01
 2.308493e-01	 1.041387e+00	-1.875441e-01
 2.918285e-01	 1.033669e+00	 5.470933e-02
 2.799492e-01	 1.036949e+00	 7.910122e-03
 2.680694e-01	 1.040084e+00	-3.536428e-02
 2.561918e-01	 1.043073e+00	-7.528459e-02
 2.443186e-01	 1.045918e+00	-1.115110e-01
 2.324525e-01	 1.048619e+00	-1.432302e-01
 2.244369e-01	 1.012459e+00	-3.167869e-01
 2.129889e-01	 1.014929e+00	-3.194654e-01
 2.015523e-01	 1.017262e+00	-3.217646e-01
 1.901292e-01	 1.019459e+00	-3.236153e-01
 1.787220e-01	 1.021521e+00	-3.247171e-01
 1.673326e-01	 1.023448e+00	-3.245760e-01
 2.260400e-01	 1.019691e+00	-2.896382e-01
 2.145103e-01	 1.022179e+00	-2.991137e-01
 2.029920e-01	 1.024528e+00	-3.078813e-01
 1.914873e-01	 1.026741e+00	-3.158213e-01
 1.799985e-01	 1.028817e+00	-3.225666e-01
 1.685278e-01	 1.030758e+00	-3.275420e-01
 2.276431e-01	 1.026923e+00	-2.597374e-01
 2.160316e-01	 1.029428e+00	-2.752363e-01
 2.044316e-01	 1.031795e+00	-2.898748e-01
 1.928454e-01	 1.034023e+00	-3.034544e-01
 1.812751e-01	 1.036114e+00	-3.155128e-01
 1.697231e-01	 1.038069e+00	-3.253653e-01
 2.292462e-01	 1.034155e+00	-2.260460e-01
 2.175530e-01	 1.036678e+00	-2.468163e-01
 2.058713e-01	 1.039061e+00	-2.667635e-01
 1.942034e-01	 1.041305e+00	-2.855813e-01
 1.825517e-01	 1.043410e+00	-3.026838e-01
 1.709183e-01	 1.045379e+00	-3.172485e-01
 2.308493e-01	 1.041387e+00	-1.875441e-01
 2.190743e-01	 1.043927e+00	-2.128540e-01
 2.073109e-01	 1.046327e+00	-2.375810e-01
 1.955615e-01	 1.048586e+00	-2.612826e-01
 1.838283e-01	 1.050707e+00	-2.832202e-01
 1.721135e-01	 1.052689e+00	-3.024047e-01
 2.324525e-01	 1.048619e+00	-1.432302e-01
 2.205957e-01	 1.051177e+00	-1.723665e-01
 2.087506e-01	 1.053593e+00	-2.013766e-01
 1.969196e-01	 1.055868e+00	-2.296527e-01
 1.851049e-01	 1.058003e+00	-2.562745e-01
 1.733088e-01	 1.060000e+00	-2.800575e-01
 1.673326e-01	 1.023448e+00	-3.245760e-01
 1.559633e-01	 1.025242e+00	-3.232673e-01
 1.446162e-01	 1.026904e+00	-3.214056e-01
 1.332933e-01	 1.028435e+00	-3.191237e-01
 1.219967e-01	 1.029836e+00	-3.165046e-01
 1.107283e-01	 1.031109e+00	-3.136186e-01
 1.685278e-01	 1.030758e+00	-3.275420e-01
 1.570774e-01	 1.032565e+00	-3.308338e-01
 1.456492e-01	 1.034239e+00	-3.331604e-01
 1.342454e-01	 1.035781e+00	-3.346987e-01
 1.228681e-01	 1.037192e+00	-3.355722e-01
 1.115192e-01	 1.038474e+00	-3.358890e-01
 1.697231e-01	 1.038069e+00	-3.253653e-01
 1.581914e-01	 1.039888e+00	-3.331091e-01
 1.466822e-01	 1.041574e+00	-3.395703e-01
 1.351975e-01	 1.043127e+00	-3.449473e-01
 1.237395e-01	 1.044548e+00	-3.493803e-01
 1.123101e-01	 1.045839e+00	-3.529910e-01
 1.709183e-01	 1.045379e+00	-3.172485e-01
 1.593054e-01	 1.047212e+00	-3.293719e-01
 1.477151e-01	 1.048909e+00	-3.399799e-01
 1.361496e-01	 1.050473e+00	-3.492699e-01
 1.246109e-01	 1.051904e+00	-3.573744e-01
 1.131010e-01	 1.053204e+00	-3.644039e-01
 1.721135e-01	 1.052689e+00	-3.024047e-01
 1.604194e-01	 1.054535e+00	-3.189095e-01
 1.487481e-01	 1.056244e+00	-3.337416e-01
 1.371017e-01	 1.057819e+00	-3.470736e-01
 1.254823e-01	 1.059260e+00	-3.590064e-01
 1.138919e-01	 1.060569e+00	-3.696137e-01
 1.733088e-01	 1.060000e+00	-2.800575e-01
 1.615335e-01	 1.061858e+00	-3.010181e-01
 1.497811e-01	 1.063579e+00	-3.202152e-01
 1.380538e-01	 1.065165e+00	-3.377726e-01
 1.263537e-01	 1.066616e+00	-3.537345e-01
 1.146828e-01	 1.067934e+00	-3.681128e-01
 1.107283e-01	 1.031109e+00	-3.136186e-01
 9.948996e-02	 1.032254e+00	-3.107362e-01
 8.828371e-02	 1.033272e+00	-3.079765e-01
 7.711134e-02	 1.034166e+00	-3.052732e-01
 6.597466e-02	 1.034936e+00	-3.026907e-01
 5.487545e-02	 1.035584e+00	-3.004532e-01
 1.115192e-01	 1.038474e+00	-3.358890e-01
 1.002006e-01	 1.039627e+00	-3.359515e-01
 8.891430e-02	 1.040653e+00	-3.358665e-01
 7.766213e-02	 1.041553e+00	-3.355406e-01
 6.644591e-02	 1.042329e+00	-3.350145e-01
 5.526742e-02	 1.042981e+00	-3.344948e-01
 1.123101e-01	 1.045839e+00	-3.529910e-01
 1.009112e-01	 1.047000e+00	-3.560812e-01
 8.954490e-02	 1.048033e+00	-3.587302e-01
 7.821293e-02	 1.048940e+00	-3.608187e-01
 6.691716e-02	 1.049721e+00	-3.623651e-01
 5.565938e-02	 1.050378e+00	-3.635598e-01
 1.131010e-01	 1.053204e+00	-3.644039e-01
 1.016219e-01	 1.054373e+00	-3.706340e-01
 9.017550e-02	 1.055414e+00	-3.761079e-01
 7.876372e-02	 1.056327e+00	-3.806802e-01
 6.738841e-02	 1.057114e+00	-3.843478e-01
 5.605135e-02	 1.057775e+00	-3.872854e-01
 1.138919e-01	 1.060569e+00	-3.696137e-01
 1.023325e-01	 1.061747e+00	-3.791258e-01
 9.080610e-02	 1.062794e+00	-3.875470e-01
 7.931452e-02	 1.063714e+00	-3.947055e-01
 6.785965e-02	 1.064506e+00	-4.005759e-01
 5.644332e-02	 1.065172e+00	-4.053166e-01
 1.146828e-01	 1.067934e+00	-3.681128e-01
 1.030432e-01	 1.069120e+00	-3.810790e-01
 9.143669e-02	 1.070175e+00	-3.926023e-01
 7.986531e-02	 1.071101e+00	-4.024824e-01
 6.833090e-02	 1.071898e+00	-4.106701e-01
 5.683529e-02	 1.072569e+00	-4.173064e-01
 5.487545e-02	 1.035584e+00	-3.004532e-01
 4.381542e-02	 1.036111e+00	-2.989064e-01
 3.279624e-02	 1.036518e+00	-2.977991e-01
 2.181956e-02	 1.036807e+00	-2.967975e-01
 1.088696e-02	 1.036980e+00	-2.958518e-01
 0.000000e+00	 1.037037e+00	-2.952155e-01
 5.526742e-02	 1.042981e+00	-3.344948e-01
 4.412838e-02	 1.043512e+00	-3.343419e-01
 3.303050e-02	 1.043922e+00	-3.343195e-01
 2.197541e-02	 1.044213e+00	-3.340899e-01
 1.096473e-02	 1.044387e+00	-3.336128e-01
 0.000000e+00	 1.044444e+00	-3.331648e-01
 5.565938e-02	 1.050378e+00	-3.635598e-01
 4.444135e-02	 1.050913e+00	-3.647901e-01
 3.326476e-02	 1.051326e+00	-3.658470e-01
 2.213127e-02	 1.051619e+00	-3.663921e-01
 1.104249e-02	 1.051794e+00	-3.663973e-01
 0.000000e+00	 1.051852e+00	-3.661658e-01
 5.605135e-02	 1.057775e+00	-3.872854e-01
 4.475432e-02	 1.058313e+00	-3.899143e-01
 3.349902e-02	 1.058729e+00	-3.920616e-01
 2.228712e-02	 1.059025e+00	-3.933901e-01
 1.112026e-02	 1.059201e+00	-3.938864e-01
 0.000000e+00	 1.059259e+00	-3.938823e-01
 5.644332e-02	 1.065172e+00	-4.053166e-01
 4.506728e-02	 1.065714e+00	-4.093864e-01
 3.373328e-02	 1.066133e+00	-4.126523e-01
 2.244298e-02	 1.066431e+00	-4.147800e-01
 1.119802e-02	 1.066608e+00	-4.157717e-01
 0.000000e+00	 1.066667e+00	-4.159894e-01
 5.683529e-02	 1.072569e+00	-4.173064e-01
 4.538025e-02	 1.073115e+00	-4.228862e-01
 3.396754e-02	 1.073537e+00	-4.273167e-01
 2.259883e-02	 1.073836e+00	-4.302669e-01
 1.127578e-02	 1.074015e+00	-4.317549e-01
 0.000000e+00	 1.074074e+00	-4.321733e-01
 1.074074e+00	 0.000000e+00	 2.623950e+01
 1.074015e+00	 1.127578e-02	 2.623336e+01
 1.073836e+00	 2.259883e-02	 2.621729e+01
 1.073537e+00	 3.396754e-02	 2.619068e+01
 1.073115e+00	 4.538025e-02	 2.615305e+01
 1.072569e+00	 5.683529e-02	 2.610402e+01
 1.081481e+00	 0.000000e+00	 2.586365e+01
 1.081422e+00	 1.135355e-02	 2.585767e+01
 1.081242e+00	 2.275468e-02	 2.584223e+01
 1.080941e+00	 3.420179e-02	 2.581669e+01
 1.080516e+00	 4.569322e-02	 2.578055e+01
 1.079966e+00	 5.722725e-02	 2.573341e+01
 1.088889e+00	 0.000000e+00	 2.550006e+01
 1.088829e+00	 1.143131e-02	 2.549425e+01
 1.088648e+00	 2.291054e-02	 2.547944e+01
 1.088344e+00	 3.443605e-02	 2.545496e+01
 1.087917e+00	 4.600619e-02	 2.542029e+01
 1.087363e+00	 5.761922e-02	 2.537502e+01
 1.096296e+00	 0.000000e+00	 2.514803e+01
 1.096236e+00	 1.150908e-02	 2.514238e+01
 1.096054e+00	 2.306639e-02	 2.512817e+01
 1.095748e+00	 3.467031e-02	 2.510473e+01
 1.095317e+00	 4.631915e-02	 2.507151e+01
 1.094760e+00	 5.801119e-02	 2.502808e+01
 1.103704e+00	 0.000000e+00	 2.480685e+01
 1.103643e+00	 1.158684e-02	 2.480133e+01
 1.103459e+00	 2.322225e-02	 2.478771e+01
 1.103152e+00	 3.490457e-02	 2.476528e+01
 1.102718e+00	 4.663212e-02	 2.473347e+01
 1.102157e+00	 5.840316e-02	 2.469183e+01
 1.111111e+00	 0.000000e+00	 2.447583e+01
 1.111050e+00	 1.166460e-02	 2.447043e+01
 1.110865e+00	 2.337810e-02	 2.445736e+01
 1.110555e+00	 3.513883e-02	 2.443590e+01
 1.110119e+00	 4.694509e-02	 2.440545e+01
 1.109554e+00	 5.879512e-02	 2.436556e+01
 1.072569e+00	 5.683529e-02	 2.610402e+01
 1.071898e+00	 6.833090e-02	 2.604385e+01
 1.071101e+00	 7.986531e-02	 2.597280e+01
 1.070175e+00	 9.143669e-02	 2.589061e+01
 1.069120e+00	 1.030432e-01	 2.579714e+01
 1.067934e+00	 1.146828e-01	 2.569235e+01
 1.079966e+00	 5.722725e-02	 2.573341e+01
 1.079291e+00	 6.880215e-02	 2.567557e+01
 1.078488e+00	 8.041611e-02	 2.560728e+01
 1.077555e+00	 9.206729e-02	 2.552830e+01
 1.076493e+00	 1.037538e-01	 2.543846e+01
 1.075299e+00	 1.154737e-01	 2.533772e+01
 1.087363e+00	 5.761922e-02	 2.537502e+01
 1.086683e+00	 6.927340e-02	 2.531947e+01
 1.085874e+00	 8.096690e-02	 2.525392e+01
 1.084936e+00	 9.269789e-02	 2.517811e+01
 1.083866e+00	 1.044645e-01	 2.509186e+01
 1.082664e+00	 1.162647e-01	 2.499511e+01
 1.094760e+00	 5.801119e-02	 2.502808e+01
 1.094076e+00	 6.974464e-02	 2.497478e+01
 1.093261e+00	 8.151770e-02	 2.491193e+01
 1.092317e+00	 9.332849e-02	 2.483923e+01
 1.091240e+00	 1.051751e-01	 2.475651e+01
 1.090029e+00	 1.170556e-01	 2.466370e+01
 1.102157e+00	 5.840316e-02	 2.469183e+01
 1.101468e+00	 7.021589e-02	 2.464074e+01
 1.100648e+00	 8.206849e-02	 2.458053e+01
 1.099697e+00	 9.395909e-02	 2.451089e+01
 1.098613e+00	 1.058857e-01	 2.443163e+01
 1.097394e+00	 1.178465e-01	 2.434265e+01
 1.109554e+00	 5.879512e-02	 2.436556e+01
 1.108860e+00	 7.068714e-02	 2.431662e+01
 1.108035e+00	 8.261929e-02	 2.425899e+01
 1.107078e+00	 9.458968e-02	 2.419233e+01
 1.105986e+00	 1.065964e-01	 2.411643e+01
 1.104759e+00	 1.186374e-01	 2.403119e+01
 1.067934e+00	 1.146828e-01	 2.569235e+01
 1.066616e+00	 1.263537e-01	 2.557622e+01
 1.065165e+00	 1.380538e-01	 2.544871e+01
 1.063579e+00	 1.497811e-01	 2.530985e+01
 1.061858e+00	 1.615335e-01	 2.515974e+01
 1.060000e+00	 1.733088e-01	 2.499852e+01
 1.075299e+00	 1.154737e-01	 2.533772e+01
 1.073972e+00	 1.272251e-01	 2.522605e+01
 1.072511e+00	 1.390059e-01	 2.510341e+01
 1.070914e+00	 1.508141e-01	 2.496985e+01
 1.069181e+00	 1.626475e-01	 2.482545e+01
 1.067310e+00	 1.745040e-01	 2.467038e+01
 1.082664e+00	 1.162647e-01	 2.499511e+01
 1.081328e+00	 1.280965e-01	 2.488784e+01
 1.079857e+00	 1.399580e-01	 2.477000e+01
 1.078249e+00	 1.518470e-01	 2.464161e+01
 1.076504e+00	 1.637615e-01	 2.450278e+01
 1.074620e+00	 1.756992e-01	 2.435367e+01
 1.090029e+00	 1.170556e-01	 2.466370e+01
 1.088684e+00	 1.289679e-01	 2.456074e+01
 1.087203e+00	 1.409101e-01	 2.444761e+01
 1.085584e+00	 1.528800e-01	 2.432431e+01
 1.083827e+00	 1.648755e-01	 2.419094e+01
 1.081931e+00	 1.768945e-01	 2.404765e+01
 1.097394e+00	 1.178465e-01	 2.434265e+01
 1.096040e+00	 1.298393e-01	 2.424393e+01
 1.094549e+00	 1.418622e-01	 2.413543e+01
 1.092919e+00	 1.539130e-01	 2.401715e+01
 1.091150e+00	 1.659895e-01	 2.388918e+01
 1.089241e+00	 1.780897e-01	 2.375164e+01
 1.104759e+00	 1.186374e-01	 2.403119e+01
 1.103396e+00	 1.307107e-01	 2.393661e+01
 1.101895e+00	 1.428143e-01	 2.383267e+01
 1.100254e+00	 1.549460e-01	 2.371936e+01
 1.098474e+00	 1.671036e-01	 2.359675e+01
 1.096551e+00	 1.792849e-01	 2.346496e+01
 1.060000e+00	 1.733088e-01	 2.499852e+01
 1.058003e+00	 1.851049e-01	 2.482605e+01
 1.055868e+00	 1.969196e-01	 2.464253e+01
 1.053593e+00	 2.087506e-01	 2.444869e+01
 1.051177e+00	 2.205957e-01	 2.424530e+01
 1.048619e+00	 2.324525e-01	 2.403311e+01
 1.067310e+00	 1.745040e-01	 2.467038e+01
 1.065300e+00	 1.863815e-01	 2.450446e+01
 1.063150e+00	 1.982776e-01	 2.432789e+01
 1.060859e+00	 2.101903e-01	 2.414143e+01
 1.058426e+00	 2.221170e-01	 2.394587e+01
 1.055850e+00	 2.340556e-01	 2.374199e+01
 1.074620e+00	 1.756992e-01	 2.435367e+01
 1.072597e+00	 1.876581e-01	 2.419406e+01
 1.070432e+00	 1.996357e-01	 2.402414e+01
 1.068125e+00	 2.116299e-01	 2.384470e+01
 1.065676e+00	 2.236384e-01	 2.365653e+01
 1.063082e+00	 2.356587e-01	 2.346043e+01
 1.081931e+00	 1.768945e-01	 2.404765e+01
 1.079893e+00	 1.889346e-01	 2.389419e+01
 1.077714e+00	 2.009938e-01	 2.373070e+01
 1.075392e+00	 2.130696e-01	 2.355797e+01
 1.072925e+00	 2.251597e-01	 2.337680e+01
 1.070314e+00	 2.372618e-01	 2.318800e+01
 1.089241e+00	 1.780897e-01	 2.375164e+01
 1.087190e+00	 1.902112e-01	 2.360423e+01
 1.084996e+00	 2.023518e-01	 2.344698e+01
 1.082658e+00	 2.145092e-01	 2.328071e+01
 1.080175e+00	 2.266811e-01	 2.310622e+01
 1.077546e+00	 2.388649e-01	 2.292430e+01
 1.096551e+00	 1.792849e-01	 2.346496e+01
 1.094486e+00	 1.914878e-01	 2.332355e+01
 1.092278e+00	 2.037099e-01	 2.317244e+01
 1.089924e+00	 2.159489e-01	 2.301244e+01
 1.087424e+00	 2.282024e-01	 2.284434e+01
 1.084778e+00	 2.404681e-01	 2.266893e+01
 1.048619e+00	 2.324525e-01	 2.403311e+01
 1.045918e+00	 2.443186e-01	 2.381004e+01
 1.043073e+00	 2.561918e-01	 2.357399e+01
 1.040084e+00	 2.680694e-01	 2.332573e+01
 1.036949e+00	 2.799492e-01	 2.306599e+01
 1.033669e+00	 2.918285e-01	 2.279545e+01
 1.055850e+00	 2.340556e-01	 2.374199e+01
 1.053131e+00	 2.460036e-01	 2.352767e+01
 1.050266e+00	 2.579586e-01	 2.330080e+01
 1.047257e+00	 2.699182e-01	 2.306214e+01
 1.044101e+00	 2.818799e-01	 2.281246e+01
 1.040798e+00	 2.938411e-01	 2.255246e+01
 1.063082e+00	 2.356587e-01	 2.346043e+01
 1.060344e+00	 2.476885e-01	 2.325429e+01
 1.057460e+00	 2.597254e-01	 2.303603e+01
 1.054430e+00	 2.717669e-01	 2.280648e+01
 1.051252e+00	 2.838105e-01	 2.256645e+01
 1.047926e+00	 2.958537e-01	 2.231671e+01
 1.070314e+00	 2.372618e-01	 2.318800e+01
 1.067557e+00	 2.493735e-01	 2.298950e+01
 1.064654e+00	 2.614923e-01	 2.277930e+01
 1.061603e+00	 2.736157e-01	 2.255834e+01
 1.058403e+00	 2.857412e-01	 2.232752e+01
 1.055055e+00	 2.978663e-01	 2.208768e+01
 1.077546e+00	 2.388649e-01	 2.292430e+01
 1.074770e+00	 2.510584e-01	 2.273293e+01
 1.071847e+00	 2.632591e-01	 2.253027e+01
 1.068776e+00	 2.754644e-01	 2.231736e+01
 1.065555e+00	 2.876719e-01	 2.209524e+01
 1.062184e+00	 2.998789e-01	 2.186488e+01
 1.084778e+00	 2.404681e-01	 2.266893e+01
 1.081984e+00	 2.527434e-01	 2.248423e+01
 1.079041e+00	 2.650260e-01	 2.228856e+01
 1.075949e+00	 2.773132e-01	 2.208316e+01
 1.072706e+00	 2.896026e-01	 2.186920e+01
 1.069313e+00	 3.018915e-01	 2.164781e+01
 1.033669e+00	 2.918285e-01	 2.279545e+01
 1.030242e+00	 3.037049e-01	 2.251634e+01
 1.026668e+00	 3.155758e-01	 2.223152e+01
 1.022946e+00	 3.274386e-01	 2.194257e+01
 1.019076e+00	 3.392907e-01	 2.165097e+01
 1.015058e+00	 3.511296e-01	 2.135816e+01
 1.040798e+00	 2.938411e-01	 2.255246e+01
 1.037347e+00	 3.057994e-01	 2.228414e+01
 1.033748e+00	 3.177522e-01	 2.201011e+01
 1.030001e+00	 3.296968e-01	 2.173198e+01
 1.026105e+00	 3.416307e-01	 2.145124e+01
 1.022059e+00	 3.535512e-01	 2.116927e+01
 1.047926e+00	 2.958537e-01	 2.231671e+01
 1.044452e+00	 3.078939e-01	 2.205890e+01
 1.040829e+00	 3.199286e-01	 2.179528e+01
 1.037056e+00	 3.319550e-01	 2.152744e+01
 1.033133e+00	 3.439706e-01	 2.125686e+01
 1.029059e+00	 3.559727e-01	 2.098487e+01
 1.055055e+00	 2.978663e-01	 2.208768e+01
 1.051557e+00	 3.099884e-01	 2.184004e+01
 1.047909e+00	 3.221049e-01	 2.158638e+01
 1.044111e+00	 3.342132e-01	 2.132826e+01
 1.040161e+00	 3.463106e-01	 2.106714e+01
 1.036059e+00	 3.583943e-01	 2.080429e+01
 1.062184e+00	 2.998789e-01	 2.186488e+01
 1.058662e+00	 3.120830e-01	 2.162699e+01
 1.054990e+00	 3.242813e-01	 2.138278e+01
 1.051165e+00	 3.364714e-01	 2.113379e+01
 1.047189e+00	 3.486505e-01	 2.088142e+01
 1.043060e+00	 3.608159e-01	 2.062686e+01
 1.069313e+00	 3.018915e-01	 2.164781e+01
 1.065768e+00	 3.141775e-01	 2.141919e+01
 1.062070e+00	 3.264577e-01	 2.118388e+01
 1.058220e+00	 3.387296e-01	 2.094339e+01
 1.054217e+00	 3.509904e-01	 2.069904e+01
 1.050060e+00	 3.632375e-01	 2.045195e+01
 1.015058e+00	 3.511296e-01	 2.135816e+01
 1.010891e+00	 3.629524e-01	 2.104568e+01
 1.006575e+00	 3.747566e-01	 2.069752e+01
 1.002109e+00	 3.865395e-01	 2.034773e+01
 9.974937e-01	 3.982983e-01	 2.000366e+01
 9.927287e-01	 4.100303e-01	 1.966291e+01
 1.022059e+00	 3.535512e-01	 2.116927e+01
 1.017863e+00	 3.654555e-01	 2.086619e+01
 1.013517e+00	 3.773412e-01	 2.052966e+01
 1.009020e+00	 3.892053e-01	 2.019483e+01
 1.004373e+00	 4.010452e-01	 1.986385e+01
 9.995751e-01	 4.128581e-01	 1.953434e+01
 1.029059e+00	 3.559727e-01	 2.098487e+01
 1.024834e+00	 3.679587e-01	 2.069024e+01
 1.020458e+00	 3.799257e-01	 2.036678e+01
 1.015931e+00	 3.918711e-01	 2.004624e+01
 1.011252e+00	 4.037920e-01	 1.972769e+01
 1.006422e+00	 4.156859e-01	 1.940880e+01
 1.036059e+00	 3.583943e-01	 2.080429e+01
 1.031806e+00	 3.704618e-01	 2.051719e+01
 1.027400e+00	 3.825102e-01	 2.020834e+01
 1.022842e+00	 3.945369e-01	 1.990152e+01
 1.018131e+00	 4.065389e-01	 1.959485e+01
 1.013268e+00	 4.185137e-01	 1.928608e+01
 1.043060e+00	 3.608159e-01	 2.062686e+01
 1.038778e+00	 3.729649e-01	 2.034762e+01
 1.034342e+00	 3.850947e-01	 2.005382e+01
 1.029753e+00	 3.972026e-01	 1.976021e+01
 1.025011e+00	 4.092858e-01	 1.946499e+01
 1.020114e+00	 4.213415e-01	 1.916600e+01
 1.050060e+00	 3.632375e-01	 2.045195e+01
 1.045749e+00	 3.754680e-01	 2.018196e+01
 1.041284e+00	 3.876793e-01	 1.990271e+01
 1.036664e+00	 3.998684e-01	 1.962189e+01
 1.031890e+00	 4.120327e-01	 1.933778e+01
 1.026961e+00	 4.241693e-01	 1.904836e+01
 9.927287e-01	 4.100303e-01	 1.966291e+01
 9.878141e-01	 4.217327e-01	 1.932004e+01
 9.827497e-01	 4.334029e-01	 1.897043e+01
 9.775358e-01	 4.450380e-01	 1.861251e+01
 9.721725e-01	 4.566352e-01	 1.824459e+01
 9.666600e-01	 4.681917e-01	 1.786487e+01
 9.995751e-01	 4.128581e-01	 1.953434e+01
 9.946266e-01	 4.246412e-01	 1.920217e+01
 9.895273e-01	 4.363919e-01	 1.886394e+01
 9.842775e-01	 4.481072e-01	 1.851798e+01
 9.788772e-01	 4.597844e-01	 1.816257e+01
 9.733267e-01	 4.714206e-01	 1.779581e+01
 1.006422e+00	 4.156859e-01	 1.940880e+01
 1.001439e+00	 4.275497e-01	 1.908674e+01
 9.963049e-01	 4.393809e-01	 1.875935e+01
 9.910191e-01	 4.511764e-01	 1.842490e+01
 9.855818e-01	 4.629336e-01	 1.808159e+01
 9.799933e-01	 4.746496e-01	 1.772745e+01
 1.013268e+00	 4.185137e-01	 1.928608e+01
 1.008252e+00	 4.304582e-01	 1.897368e+01
 1.003082e+00	 4.423698e-01	 1.865667e+01
 9.977607e-01	 4.542456e-01	 1.833328e+01
 9.922865e-01	 4.660828e-01	 1.800163e+01
 9.866599e-01	 4.778785e-01	 1.765967e+01
 1.020114e+00	 4.213415e-01	 1.916600e+01
 1.015064e+00	 4.333667e-01	 1.886293e+01
 1.009860e+00	 4.453588e-01	 1.855591e+01
 1.004502e+00	 4.573149e-01	 1.824314e+01
 9.989911e-01	 4.692320e-01	 1.792265e+01
 9.933265e-01	 4.811074e-01	 1.759234e+01
 1.026961e+00	 4.241693e-01	 1.904836e+01
 1.021877e+00	 4.362752e-01	 1.875440e+01
 1.016638e+00	 4.483478e-01	 1.845705e+01
 1.011244e+00	 4.603841e-01	 1.815446e+01
 1.005696e+00	 4.723812e-01	 1.784461e+01
 9.999931e-01	 4.843363e-01	 1.752530e+01
 9.666600e-01	 4.681917e-01	 1.786487e+01
 9.609986e-01	 4.797049e-01	 1.748118e+01
 9.551887e-01	 4.911717e-01	 1.710059e+01
 9.492306e-01	 5.025896e-01	 1.671992e+01
 9.431250e-01	 5.139556e-01	 1.633588e+01
 9.368723e-01	 5.252670e-01	 1.594504e+01
 9.733267e-01	 4.714206e-01	 1.779581e+01
 9.676262e-01	 4.830132e-01	 1.742522e+01
 9.617762e-01	 4.945591e-01	 1.705753e+01
 9.557771e-01	 5.060557e-01	 1.668947e+01
 9.496293e-01	 5.175001e-01	 1.631764e+01
 9.433335e-01	 5.288895e-01	 1.593848e+01
 9.799933e-01	 4.746496e-01	 1.772745e+01
 9.742538e-01	 4.863215e-01	 1.736963e+01
 9.683637e-01	 4.979465e-01	 1.701447e+01
 9.623235e-01	 5.095219e-01	 1.665860e+01
 9.561336e-01	 5.210447e-01	 1.629851e+01
 9.497947e-01	 5.325120e-01	 1.593053e+01
 9.866599e-01	 4.778785e-01	 1.765967e+01
 9.808814e-01	 4.896298e-01	 1.731418e+01
 9.749512e-01	 5.013339e-01	 1.697111e+01
 9.688699e-01	 5.129880e-01	 1.662701e+01
 9.626379e-01	 5.245892e-01	 1.627824e+01
 9.562559e-01	 5.361346e-01	 1.592103e+01
 9.933265e-01	 4.811074e-01	 1.759234e+01
 9.875089e-01	 4.929381e-01	 1.725863e+01
 9.815387e-01	 5.047213e-01	 1.692717e+01
 9.754163e-01	 5.164541e-01	 1.659439e+01
 9.691422e-01	 5.281337e-01	 1.625656e+01
 9.627171e-01	 5.397571e-01	 1.590981e+01
 9.999931e-01	 4.843363e-01	 1.752530e+01
 9.941365e-01	 4.962464e-01	 1.720273e+01
 9.881262e-01	 5.081087e-01	 1.688233e+01
 9.819627e-01	 5.199203e-01	 1.656043e+01
 9.756465e-01	 5.316782e-01	 1.623320e+01
 9.691782e-01	 5.433796e-01	 1.589665e+01
 9.368723e-01	 5.252670e-01	 1.594504e+01
 9.304732e-01	 5.365209e-01	 1.555241e+01
 9.239284e-01	 5.477147e-01	 1.516326e+01
 9.172387e-01	 5.588454e-01	 1.477438e+01
 9.104050e-01	 5.699105e-01	 1.438260e+01
 9.034280e-01	 5.809070e-01	 1.398476e+01
 9.433335e-01	 5.288895e-01	 1.593848e+01
 9.368903e-01	 5.402211e-01	 1.555736e+01
 9.303003e-01	 5.514920e-01	 1.517988e+01
 9.235645e-01	 5.626996e-01	 1.480268e+01
 9.166836e-01	 5.738409e-01	 1.442243e+01
 9.096586e-01	 5.849132e-01	 1.403581e+01
 9.497947e-01	 5.325120e-01	 1.593053e+01
 9.433073e-01	 5.439212e-01	 1.556044e+01
 9.366723e-01	 5.552694e-01	 1.519419e+01
 9.298903e-01	 5.665537e-01	 1.482829e+01
 9.229623e-01	 5.777713e-01	 1.445924e+01
 9.158891e-01	 5.889195e-01	 1.408353e+01
 9.562559e-01	 5.361346e-01	 1.592103e+01
 9.497244e-01	 5.476214e-01	 1.556157e+01
 9.430442e-01	 5.590467e-01	 1.520620e+01
 9.362161e-01	 5.704078e-01	 1.485125e+01
 9.292409e-01	 5.817017e-01	 1.449302e+01
 9.221196e-01	 5.929257e-01	 1.412785e+01
 9.627171e-01	 5.397571e-01	 1.590981e+01
 9.561414e-01	 5.513215e-01	 1.556068e+01
 9.494161e-01	 5.628241e-01	 1.521587e+01
 9.425419e-01	 5.742619e-01	 1.487153e+01
 9.355196e-01	 5.856321e-01	 1.452377e+01
 9.283502e-01	 5.969320e-01	 1.416871e+01
 9.691782e-01	 5.433796e-01	 1.589665e+01
 9.625585e-01	 5.550217e-01	 1.555766e+01
 9.557880e-01	 5.666014e-01	 1.522316e+01
 9.488676e-01	 5.781160e-01	 1.488910e+01
 9.417982e-01	 5.895626e-01	 1.455142e+01
 9.345807e-01	 6.009383e-01	 1.420599e+01
 9.034280e-01	 5.809070e-01	 1.398476e+01
 8.963089e-01	 5.918323e-01	 1.358694e+01
 8.890487e-01	 6.026836e-01	 1.319546e+01
 8.816485e-01	 6.134583e-01	 1.280764e+01
 8.741094e-01	 6.241537e-01	 1.242097e+01
 8.664329e-01	 6.347671e-01	 1.203317e+01
 9.096586e-01	 5.849132e-01	 1.403581e+01
 9.024904e-01	 5.959139e-01	 1.364906e+01
 8.951801e-01	 6.068400e-01	 1.326860e+01
 8.877288e-01	 6.176890e-01	 1.289157e+01
 8.801378e-01	 6.284582e-01	 1.251526e+01
 8.724083e-01	 6.391448e-01	 1.213715e+01
 9.158891e-01	 5.889195e-01	 1.408353e+01
 9.086718e-01	 5.999955e-01	 1.370751e+01
 9.013114e-01	 6.109965e-01	 1.333772e+01
 8.938091e-01	 6.219198e-01	 1.297109e+01
 8.861661e-01	 6.327627e-01	 1.260473e+01
 8.783837e-01	 6.435225e-01	 1.223593e+01
 9.221196e-01	 5.929257e-01	 1.412785e+01
 9.148532e-01	 6.040771e-01	 1.376218e+01
 9.074428e-01	 6.151529e-01	 1.340266e+01
 8.998895e-01	 6.261505e-01	 1.304606e+01
 8.921945e-01	 6.370672e-01	 1.268928e+01
 8.843591e-01	 6.479002e-01	 1.232943e+01
 9.283502e-01	 5.969320e-01	 1.416871e+01
 9.210347e-01	 6.081587e-01	 1.381293e+01
 9.135742e-01	 6.193094e-01	 1.346327e+01
 9.059698e-01	 6.303813e-01	 1.311629e+01
 8.982228e-01	 6.413717e-01	 1.276874e+01
 8.903345e-01	 6.522779e-01	 1.241756e+01
 9.345807e-01	 6.009383e-01	 1.420599e+01
 9.272161e-01	 6.122403e-01	 1.385961e+01
 9.197055e-01	 6.234658e-01	 1.351934e+01
 9.120501e-01	 6.346120e-01	 1.318160e+01
 9.042512e-01	 6.456762e-01	 1.284296e+01
 8.963099e-01	 6.566556e-01	 1.250019e+01
 8.664329e-01	 6.347671e-01	 1.203317e+01
 8.586201e-01	 6.452958e-01	 1.164683e+01
 8.506724e-01	 6.557374e-01	 1.126514e+01
 8.425914e-01	 6.660893e-01	 1.088706e+01
 8.343785e-01	 6.763488e-01	 1.051192e+01
 8.260353e-01	 6.865135e-01	 1.013941e+01
 8.724083e-01	 6.391448e-01	 1.213715e+01
 8.645416e-01	 6.497462e-01	 1.176000e+01
 8.565391e-01	 6.602598e-01	 1.138725e+01
 8.484023e-01	 6.706830e-01	 1.101786e+01
 8.401328e-01	 6.810133e-01	 1.065113e+01
 8.317321e-01	 6.912481e-01	 1.028678e+01
 8.783837e-01	 6.435225e-01	 1.223593e+01
 8.704631e-01	 6.541965e-01	 1.186764e+01
 8.624058e-01	 6.647821e-01	 1.150361e+01
 8.542133e-01	 6.752767e-01	 1.114274e+01
 8.458871e-01	 6.856777e-01	 1.078427e+01
 8.374289e-01	 6.959827e-01	 1.042789e+01
 8.843591e-01	 6.479002e-01	 1.232943e+01
 8.763846e-01	 6.586468e-01	 1.196973e+01
 8.682725e-01	 6.693044e-01	 1.161424e+01
 8.600243e-01	 6.798704e-01	 1.126173e+01
 8.516415e-01	 6.903422e-01	 1.091137e+01
 8.431257e-01	 7.007172e-01	 1.056275e+01
 8.903345e-01	 6.522779e-01	 1.241756e+01
 8.823061e-01	 6.630971e-01	 1.206623e+01
 8.741392e-01	 6.738267e-01	 1.171911e+01
 8.658353e-01	 6.844641e-01	 1.137483e+01
 8.573958e-01	 6.950067e-01	 1.103242e+01
 8.488225e-01	 7.054518e-01	 1.069133e+01
 8.963099e-01	 6.566556e-01	 1.250019e+01
 8.882276e-01	 6.675474e-01	 1.215706e+01
 8.800059e-01	 6.783491e-01	 1.181819e+01
 8.716462e-01	 6.890578e-01	 1.148203e+01
 8.631502e-01	 6.996711e-01	 1.114741e+01
 8.545193e-01	 7.101864e-01	 1.081360e+01
 8.260353e-01	 6.865135e-01	 1.013941e+01
 8.175635e-01	 6.965810e-01	 9.770545e+00
 8.089648e-01	 7.065487e-01	 9.407021e+00
 8.002409e-01	 7.164144e-01	 9.050285e+00
 7.913937e-01	 7.261757e-01	 8.702333e+00
 7.824251e-01	 7.358302e-01	 8.365737e+00
 8.317321e-01	 6.912481e-01	 1.028678e+01
 8.232019e-01	 7.013850e-01	 9.925943e+00
 8.145438e-01	 7.114215e-01	 9.570102e+00
 8.057598e-01	 7.213552e-01	 9.220219e+00
 7.968516e-01	 7.311838e-01	 8.877800e+00
 7.878211e-01	 7.409049e-01	 8.544937e+00
 8.374289e-01	 6.959827e-01	 1.042789e+01
 8.288402e-01	 7.061890e-01	 1.007474e+01
 8.201229e-01	 7.162942e-01	 9.726063e+00
 8.112787e-01	 7.262960e-01	 9.382395e+00
 8.023095e-01	 7.361919e-01	 9.044832e+00
 7.932171e-01	 7.459796e-01	 8.717127e+00
 8.431257e-01	 7.007172e-01	 1.056275e+01
 8.344786e-01	 7.109930e-01	 1.021694e+01
 8.257020e-01	 7.211670e-01	 9.874932e+00
 8.167976e-01	 7.312368e-01	 9.536915e+00
 8.077674e-01	 7.412000e-01	 9.203649e+00
 7.986132e-01	 7.510543e-01	 8.883468e+00
 8.488225e-01	 7.054518e-01	 1.069133e+01
 8.401170e-01	 7.157970e-01	 1.035251e+01
 8.312810e-01	 7.260397e-01	 1.001672e+01
 8.223165e-01	 7.361776e-01	 9.683861e+00
 8.132252e-01	 7.462081e-01	 9.355592e+00
 8.040092e-01	 7.561290e-01	 9.042800e+00
 8.545193e-01	 7.101864e-01	 1.081360e+01
 8.457553e-01	 7.206010e-01	 1.048142e+01
 8.368601e-01	 7.309125e-01	 1.015142e+01
 8.278354e-01	 7.411184e-01	 9.823300e+00
 8.186831e-01	 7.512162e-01	 9.500568e+00
 8.094052e-01	 7.612037e-01	 9.193923e+00
 7.824251e-01	 7.358302e-01	 8.365737e+00
 7.733369e-01	 7.453758e-01	 8.027015e+00
 7.641313e-01	 7.548102e-01	 7.685006e+00
 7.548102e-01	 7.641313e-01	 7.348081e+00
 7.453758e-01	 7.733369e-01	 7.022182e+00
 7.358302e-01	 7.824251e-01	 6.713382e+00
 7.878211e-01	 7.409049e-01	 8.544937e+00
 7.786703e-01	 7.505163e-01	 8.213578e+00
 7.694012e-01	 7.600158e-01	 7.878131e+00
 7.600158e-01	 7.694012e-01	 7.545559e+00
 7.505163e-01	 7.786703e-01	 7.222692e+00
 7.409049e-01	 7.878211e-01	 6.916176e+00
 7.932171e-01	 7.459796e-01	 8.717127e+00
 7.840036e-01	 7.556569e-01	 8.394143e+00
 7.746710e-01	 7.652214e-01	 8.064446e+00
 7.652214e-01	 7.746710e-01	 7.735825e+00
 7.556569e-01	 7.840036e-01	 7.415955e+00
 7.459796e-01	 7.932171e-01	 7.112339e+00
 7.986132e-01	 7.510543e-01	 8.883468e+00
 7.893370e-01	 7.607974e-01	 8.567718e+00
 7.799409e-01	 7.704270e-01	 8.243061e+00
 7.704270e-01	 7.799409e-01	 7.918070e+00
 7.607974e-01	 7.893370e-01	 7.601221e+00
 7.510543e-01	 7.986132e-01	 7.300831e+00
 8.040092e-01	 7.561290e-01	 9.042800e+00
 7.946704e-01	 7.659379e-01	 8.733266e+00
 7.852108e-01	 7.756326e-01	 8.413039e+00
 7.756326e-01	 7.852108e-01	 8.091435e+00
 7.659379e-01	 7.946704e-01	 7.777689e+00
 7.561290e-01	 8.040092e-01	 7.480891e+00
 8.094052e-01	 7.612037e-01	 9.193923e+00
 8.000037e-01	 7.710784e-01	 8.889708e+00
 7.904807e-01	 7.808382e-01	 8.573398e+00
 7.808382e-01	 7.904807e-01	 8.255014e+00
 7.710784e-01	 8.000037e-01	 7.944510e+00
 7.612037e-01	 8.094052e-01	 7.651704e+00
 7.358302e-01	 7.824251e-01	 6.713382e+00
 7.261757e-01	 7.913937e-01	 6.414837e+00
 7.164144e-01	 8.002409e-01	 6.117113e+00
 7.065487e-01	 8.089648e-01	 5.823325e+00
 6.965810e-01	 8.175635e-01	 5.535852e+00
 6.865135e-01	 8.260353e-01	 5.256338e+00
 7.409049e-01	 7.878211e-01	 6.916176e+00
 7.311838e-01	 7.968516e-01	 6.619545e+00
 7.213552e-01	 8.057598e-01	 6.324325e+00
 7.114215e-01	 8.145438e-01	 6.033260e+00
 7.013850e-01	 8.232019e-01	 5.748322e+00
 6.912481e-01	 8.317321e-01	 5.470705e+00
 7.459796e-01	 7.932171e-01	 7.112339e+00
 7.361919e-01	 8.023095e-01	 6.817956e+00
 7.262960e-01	 8.112787e-01	 6.525062e+00
 7.162942e-01	 8.201229e-01	 6.236481e+00
 7.061890e-01	 8.288402e-01	 5.953804e+00
 6.959827e-01	 8.374289e-01	 5.677806e+00
 7.510543e-01	 7.986132e-01	 7.300831e+00
 7.412000e-01	 8.077674e-01	 7.009487e+00
 7.312368e-01	 8.167976e-01	 6.718758e+00
 7.211670e-01	 8.257020e-01	 6.432441e+00
 7.109930e-01	 8.344786e-01	 6.151779e+00
 7.007172e-01	 8.431257e-01	 5.877155e+00
 7.561290e-01	 8.040092e-01	 7.480891e+00
 7.462081e-01	 8.132252e-01	 7.193201e+00
 7.361776e-01	 8.223165e-01	 6.904811e+00
 7.260397e-01	 8.312810e-01	 6.620559e+00
 7.157970e-01	 8.401170e-01	 6.341692e+00
 7.054518e-01	 8.488225e-01	 6.068230e+00
 7.612037e-01	 8.094052e-01	 7.651704e+00
 7.512162e-01	 8.186831e-01	 7.368123e+00
 7.411184e-01	 8.278354e-01	 7.082581e+00
 7.309125e-01	 8.368601e-01	 6.800216e+00
 7.206010e-01	 8.457553e-01	 6.522951e+00
 7.101864e-01	 8.545193e-01	 6.250472e+00
 6.865135e-01	 8.260353e-01	 5.256338e+00
 6.763488e-01	 8.343785e-01	 4.985425e+00
 6.660893e-01	 8.425914e-01	 4.723253e+00
 6.557374e-01	 8.506724e-01	 4.469627e+00
 6.452958e-01	 8.586201e-01	 4.223661e+00
 6.347671e-01	 8.664329e-01	 3.983783e+00
 6.912481e-01	 8.317321e-01	 5.470705e+00
 6.810133e-01	 8.401328e-01	 5.200872e+00
 6.706830e-01	 8.484023e-01	 4.939118e+00
 6.602598e-01	 8.565391e-01	 4.685262e+00
 6.497462e-01	 8.645416e-01	 4.438402e+00
 6.391448e-01	 8.724083e-01	 4.196934e+00
 6.959827e-01	 8.374289e-01	 5.677806e+00
 6.856777e-01	 8.458871e-01	 5.408869e+00
 6.752767e-01	 8.542133e-01	 5.147508e+00
 6.647821e-01	 8.624058e-01	 4.893522e+00
 6.541965e-01	 8.704631e-01	 4.645967e+00
 6.435225e-01	 8.783837e-01	 4.403168e+00
 7.007172e-01	 8.431257e-01	 5.877155e+00
 6.903422e-01	 8.516415e-01	 5.608967e+00
 6.798704e-01	 8.600243e-01	 5.348009e+00
 6.693044e-01	 8.682725e-01	 5.094029e+00
 6.586468e-01	 8.763846e-01	 4.846008e+00
 6.479002e-01	 8.843591e-01	 4.602171e+00
 7.054518e-01	 8.488225e-01	 6.068230e+00
 6.950067e-01	 8.573958e-01	 5.800680e+00
 6.844641e-01	 8.658353e-01	 5.540167e+00
 6.738267e-01	 8.741392e-01	 5.286361e+00
 6.630971e-01	 8.823061e-01	 5.038137e+00
 6.522779e-01	 8.903345e-01	 4.793588e+00
 7.101864e-01	 8.545193e-01	 6.250472e+00
 6.996711e-01	 8.631502e-01	 5.983483e+00
 6.890578e-01	 8.716462e-01	 5.723491e+00
 6.783491e-01	 8.800059e-01	 5.470058e+00
 6.675474e-01	 8.882276e-01	 5.221925e+00
 6.566556e-01	 8.963099e-01	 4.977024e+00
 6.347671e-01	 8.664329e-01	 3.983783e+00
 6.241537e-01	 8.741094e-01	 3.751963e+00
 6.134583e-01	 8.816485e-01	 3.530533e+00
 6.026836e-01	 8.890487e-01	 3.317525e+00
 5.918323e-01	 8.963089e-01	 3.110409e+00
 5.809070e-01	 9.034280e-01	 2.906114e+00
 6.391448e-01	 8.724083e-01	 4.196934e+00
 6.284582e-01	 8.801378e-01	 3.963138e+00
 6.176890e-01	 8.877288e-01	 3.739656e+00
 6.068400e-01	 8.951801e-01	 3.524454e+00
 5.959139e-01	 9.024904e-01	 3.314922e+00
 5.849132e-01	 9.096586e-01	 3.107893e+00
 6.435225e-01	 8.783837e-01	 4.403168e+00
 6.327627e-01	 8.861661e-01	 4.167715e+00
 6.219198e-01	 8.938091e-01	 3.942548e+00
 6.109965e-01	 9.013114e-01	 3.725519e+00
 5.999955e-01	 9.086718e-01	 3.513885e+00
 5.889195e-01	 9.158891e-01	 3.304329e+00
 6.479002e-01	 8.843591e-01	 4.602171e+00
 6.370672e-01	 8.921945e-01	 4.365398e+00
 6.261505e-01	 8.998895e-01	 4.138898e+00
 6.151529e-01	 9.074428e-01	 3.920362e+00
 6.040771e-01	 9.148532e-01	 3.706863e+00
 5.929257e-01	 9.221196e-01	 3.494881e+00
 6.522779e-01	 8.903345e-01	 4.793588e+00
 6.413717e-01	 8.982228e-01	 4.555849e+00
 6.303813e-01	 9.059698e-01	 4.328355e+00
 6.193094e-01	 9.135742e-01	 4.108588e+00
 6.081587e-01	 9.210347e-01	 3.893388e+00
 5.969320e-01	 9.283502e-01	 3.678980e+00
 6.566556e-01	 8.963099e-01	 4.977024e+00
 6.456762e-01	 9.042512e-01	 4.738689e+00
 6.346120e-01	 9.120501e-01	 4.510527e+00
 6.234658e-01	 9.197055e-01	 4.289764e+00
 6.122403e-01	 9.272161e-01	 4.072958e+00
 6.009383e-01	 9.345807e-01	 3.856024e+00
 5.809070e-01	 9.034280e-01	 2.906114e+00
 5.699105e-01	 9.104050e-01	 2.709838e+00
 5.588454e-01	 9.172387e-01	 2.527076e+00
 5.477147e-01	 9.239284e-01	 2.354497e+00
 5.365209e-01	 9.304732e-01	 2.188374e+00
 5.252670e-01	 9.368723e-01	 2.024617e+00
 5.849132e-01	 9.096586e-01	 3.107893e+00
 5.738409e-01	 9.166836e-01	 2.908741e+00
 5.626996e-01	 9.235645e-01	 2.723031e+00
 5.514920e-01	 9.303003e-01	 2.547155e+00
 5.402211e-01	 9.368903e-01	 2.377093e+00
 5.288895e-01	 9.433335e-01	 2.208446e+00
 5.889195e-01	 9.158891e-01	 3.304329e+00
 5.777713e-01	 9.229623e-01	 3.102336e+00
 5.665537e-01	 9.298903e-01	 2.913578e+00
 5.552694e-01	 9.366723e-01	 2.734268e+00
 5.439212e-01	 9.433073e-01	 2.560191e+00
 5.325120e-01	 9.497947e-01	 2.386740e+00
 5.929257e-01	 9.221196e-01	 3.494881e+00
 5.817017e-01	 9.292409e-01	 3.290000e+00
 5.704078e-01	 9.362161e-01	 3.098081e+00
 5.590467e-01	 9.430442e-01	 2.915250e+00
 5.476214e-01	 9.497244e-01	 2.737196e+00
 5.361346e-01	 9.562559e-01	 2.559205e+00
 5.969320e-01	 9.283502e-01	 3.678980e+00
 5.856321e-01	 9.355196e-01	 3.471080e+00
 5.742619e-01	 9.425419e-01	 3.275873e+00
 5.628241e-01	 9.494161e-01	 3.089486e+00
 5.513215e-01	 9.561414e-01	 2.907607e+00
 5.397571e-01	 9.627171e-01	 2.725517e+00
 6.009383e-01	 9.345807e-01	 3.856024e+00
 5.895626e-01	 9.417982e-01	 3.644898e+00
 5.781160e-01	 9.488676e-01	 3.446263e+00
 5.666014e-01	 9.557880e-01	 3.256337e+00
 5.550217e-01	 9.625585e-01	 3.070899e+00
 5.433796e-01	 9.691782e-01	 2.885318e+00
 5.252670e-01	 9.368723e-01	 2.024617e+00
 5.139556e-01	 9.431250e-01	 1.866813e+00
 5.025896e-01	 9.492306e-01	 1.719611e+00
 4.911717e-01	 9.551887e-01	 1.580106e+00
 4.797049e-01	 9.609986e-01	 1.445206e+00
 4.681917e-01	 9.666600e-01	 1.311664e+00
 5.288895e-01	 9.433335e-01	 2.208446e+00
 5.175001e-01	 9.496293e-01	 2.045076e+00
 5.060557e-01	 9.557771e-01	 1.892210e+00
 4.945591e-01	 9.617762e-01	 1.747068e+00
 4.830132e-01	 9.676262e-01	 1.606687e+00
 4.714206e-01	 9.733267e-01	 1.467954e+00
 5.325120e-01	 9.497947e-01	 2.386740e+00
 5.210447e-01	 9.561336e-01	 2.218198e+00
 5.095219e-01	 9.623235e-01	 2.060331e+00
 4.979465e-01	 9.683637e-01	 1.910316e+00
 4.863215e-01	 9.742538e-01	 1.765147e+00
 4.746496e-01	 9.799933e-01	 1.621661e+00
 5.361346e-01	 9.562559e-01	 2.559205e+00
 5.245892e-01	 9.626379e-01	 2.386052e+00
 5.129880e-01	 9.688699e-01	 2.223931e+00
 5.013339e-01	 9.749512e-01	 2.069815e+00
 4.896298e-01	 9.808814e-01	 1.920481e+00
 4.778785e-01	 9.866599e-01	 1.772544e+00
 5.397571e-01	 9.627171e-01	 2.725517e+00
 5.281337e-01	 9.691422e-01	 2.548475e+00
 5.164541e-01	 9.754163e-01	 2.382935e+00
 5.047213e-01	 9.815387e-01	 2.225498e+00
 4.929381e-01	 9.875089e-01	 2.072558e+00
 4.811074e-01	 9.933265e-01	 1.920334e+00
 5.433796e-01	 9.691782e-01	 2.885318e+00
 5.316782e-01	 9.756465e-01	 2.705273e+00
 5.199203e-01	 9.819627e-01	 2.537229e+00
 5.081087e-01	 9.881262e-01	 2.377259e+00
 4.962464e-01	 9.941365e-01	 2.221212e+00
 4.843363e-01	 9.999931e-01	 2.064737e+00
 4.681917e-01	 9.666600e-01	 1.311664e+00
 4.566352e-01	 9.721725e-01	 1.185172e+00
 4.450380e-01	 9.775358e-01	 1.071610e+00
 4.334029e-01	 9.827497e-01	 9.678734e-01
 4.217327e-01	 9.878141e-01	 8.708307e-01
 4.100303e-01	 9.927287e-01	 7.773483e-01
 4.714206e-01	 9.733267e-01	 1.467954e+00
 4.597844e-01	 9.788772e-01	 1.336672e+00
 4.481072e-01	 9.842775e-01	 1.218481e+00
 4.363919e-01	 9.895273e-01	 1.109881e+00
 4.246412e-01	 9.946266e-01	 1.007334e+00
 4.128581e-01	 9.995751e-01	 9.072999e-01
 4.746496e-01	 9.799933e-01	 1.621661e+00
 4.629336e-01	 9.855818e-01	 1.485594e+00
 4.511764e-01	 9.910191e-01	 1.362419e+00
 4.393809e-01	 9.963049e-01	 1.248435e+00
 4.275497e-01	 1.001439e+00	 1.139909e+00
 4.156859e-01	 1.006422e+00	 1.033102e+00
 4.778785e-01	 9.866599e-01	 1.772544e+00
 4.660828e-01	 9.922865e-01	 1.631564e+00
 4.542456e-01	 9.977607e-01	 1.502989e+00
 4.423698e-01	 1.003082e+00	 1.383121e+00
 4.304582e-01	 1.008252e+00	 1.268229e+00
 4.185137e-01	 1.013268e+00	 1.154578e+00
 4.811074e-01	 9.933265e-01	 1.920334e+00
 4.692320e-01	 9.989911e-01	 1.774182e+00
 4.573149e-01	 1.004502e+00	 1.639743e+00
 4.453588e-01	 1.009860e+00	 1.513510e+00
 4.333667e-01	 1.015064e+00	 1.391948e+00
 4.213415e-01	 1.020114e+00	 1.271533e+00
 4.843363e-01	 9.999931e-01	 2.064737e+00
 4.723812e-01	 1.005696e+00	 1.913034e+00
 4.603841e-01	 1.011244e+00	 1.772216e+00
 4.483478e-01	 1.016638e+00	 1.639155e+00
 4.362752e-01	 1.021877e+00	 1.510709e+00
 4.241693e-01	 1.026961e+00	 1.383754e+00
 4.100303e-01	 9.927287e-01	 7.773483e-01
 3.982983e-01	 9.974937e-01	 6.844435e-01
 3.865395e-01	 1.002109e+00	 5.922486e-01
 3.747566e-01	 1.006575e+00	 5.024313e-01
 3.629524e-01	 1.010891e+00	 4.182265e-01
 3.511296e-01	 1.015058e+00	 3.489554e-01
 4.128581e-01	 9.995751e-01	 9.072999e-01
 4.010452e-01	 1.004373e+00	 8.072272e-01
 3.892053e-01	 1.009020e+00	 7.081325e-01
 3.773412e-01	 1.013517e+00	 6.119558e-01
 3.654555e-01	 1.017863e+00	 5.213867e-01
 3.535512e-01	 1.022059e+00	 4.454623e-01
 4.156859e-01	 1.006422e+00	 1.033102e+00
 4.037920e-01	 1.011252e+00	 9.260925e-01
 3.918711e-01	 1.015931e+00	 8.207470e-01
 3.799257e-01	 1.020458e+00	 7.191399e-01
 3.679587e-01	 1.024834e+00	 6.236463e-01
 3.559727e-01	 1.029059e+00	 5.422742e-01
 4.185137e-01	 1.013268e+00	 1.154578e+00
 4.065389e-01	 1.018131e+00	 1.041034e+00
 3.945369e-01	 1.022842e+00	 9.302408e-01
 3.825102e-01	 1.027400e+00	 8.242707e-01
 3.704618e-01	 1.031806e+00	 7.253699e-01
 3.583943e-01	 1.036059e+00	 6.399086e-01
 4.213415e-01	 1.020114e+00	 1.271533e+00
 4.092858e-01	 1.025011e+00	 1.152027e+00
 3.972026e-01	 1.029753e+00	 1.036739e+00
 3.850947e-01	 1.034342e+00	 9.276101e-01
 3.729649e-01	 1.038778e+00	 8.267547e-01
 3.608159e-01	 1.043060e+00	 7.388451e-01
 4.241693e-01	 1.026961e+00	 1.383754e+00
 4.120327e-01	 1.031890e+00	 1.259023e+00
 3.998684e-01	 1.036664e+00	 1.140345e+00
 3.876793e-01	 1.041284e+00	 1.029395e+00
 3.754680e-01	 1.045749e+00	 9.280280e-01
 3.632375e-01	 1.050060e+00	 8.395263e-01
 3.511296e-01	 1.015058e+00	 3.489554e-01
 3.392907e-01	 1.019076e+00	 2.886635e-01
 3.274386e-01	 1.022946e+00	 2.270904e-01
 3.155758e-01	 1.026668e+00	 1.659108e-01
 3.037049e-01	 1.030242e+00	 1.074591e-01
 2.918285e-01	 1.033669e+00	 5.470933e-02
 3.535512e-01	 1.022059e+00	 4.454623e-01
 3.416307e-01	 1.026105e+00	 3.784022e-01
 3.296968e-01	 1.030001e+00	 3.095909e-01
 3.177522e-01	 1.033748e+00	 2.412356e-01
 3.057994e-01	 1.037347e+00	 1.762484e-01
 2.938411e-01	 1.040798e+00	 1.182239e-01
 3.559727e-01	 1.029059e+00	 5.422742e-01
 3.439706e-01	 1.033133e+00	 4.694677e-01
 3.319550e-01	 1.037056e+00	 3.942326e-01
 3.199286e-01	 1.040829e+00	 3.192472e-01
 3.078939e-01	 1.044452e+00	 2.479390e-01
 2.958537e-01	 1.047926e+00	 1.844598e-01
 3.583943e-01	 1.036059e+00	 6.399086e-01
 3.463106e-01	 1.040161e+00	 5.624928e-01
 3.342132e-01	 1.044111e+00	 4.817065e-01
 3.221049e-01	 1.047909e+00	 4.006392e-01
 3.099884e-01	 1.051557e+00	 3.231728e-01
 2.978663e-01	 1.055055e+00	 2.539545e-01
 3.608159e-01	 1.043060e+00	 7.388451e-01
 3.486505e-01	 1.047189e+00	 6.580750e-01
 3.364714e-01	 1.051165e+00	 5.726714e-01
 3.242813e-01	 1.054990e+00	 4.860769e-01
 3.120830e-01	 1.058662e+00	 4.025686e-01
 2.998789e-01	 1.062184e+00	 3.272286e-01
 3.632375e-01	 1.050060e+00	 8.395263e-01
 3.509904e-01	 1.054217e+00	 7.567761e-01
 3.387296e-01	 1.058220e+00	 6.677537e-01
 3.264577e-01	 1.062070e+00	 5.761977e-01
 3.141775e-01	 1.065768e+00	 4.867222e-01
 3.018915e-01	 1.069313e+00	 4.047858e-01
 2.918285e-01	 1.033669e+00	 5.470933e-02
 2.799492e-01	 1.036949e+00	 7.910122e-03
 2.680694e-01	 1.040084e+00	-3.536428e-02
 2.561918e-01	 1.043073e+00	-7.528459e-02
 2.443186e-01	 1.045918e+00	-1.115110e-01
 2.324525e-01	 1.048619e+00	-1.432302e-01
 2.938411e-01	 1.040798e+00	 1.182239e-01
 2.818799e-01	 1.044101e+00	 6.735430e-02
 2.699182e-01	 1.047257e+00	 2.052874e-02
 2.579586e-01	 1.050266e+00	-2.269524e-02
 2.460036e-01	 1.053131e+00	-6.222336e-02
 2.340556e-01	 1.055850e+00	-9.746277e-02
 2.958537e-01	 1.047926e+00	 1.844598e-01
 2.838105e-01	 1.051252e+00	 1.288142e-01
 2.717669e-01	 1.054430e+00	 7.726275e-02
 2.597254e-01	 1.057460e+00	 2.931089e-02
 2.476885e-01	 1.060344e+00	-1.497051e-02
 2.356587e-01	 1.063082e+00	-5.498512e-02
 2.978663e-01	 1.055055e+00	 2.539545e-01
 2.857412e-01	 1.058403e+00	 1.927208e-01
 2.736157e-01	 1.061603e+00	 1.352067e-01
 2.614923e-01	 1.064654e+00	 8.108115e-02
 2.493735e-01	 1.067557e+00	 3.060957e-02
 2.372618e-01	 1.070314e+00	-1.538827e-02
 2.998789e-01	 1.062184e+00	 3.272286e-01
 2.876719e-01	 1.065555e+00	 2.594940e-01
 2.754644e-01	 1.068776e+00	 1.947228e-01
 2.632591e-01	 1.071847e+00	 1.329589e-01
 2.510584e-01	 1.074770e+00	 7.487636e-02
 2.388649e-01	 1.077546e+00	 2.173437e-02
 3.018915e-01	 1.069313e+00	 4.047858e-01
 2.896026e-01	 1.072706e+00	 3.295425e-01
 2.773132e-01	 1.075949e+00	 2.561662e-01
 2.650260e-01	 1.079041e+00	 1.852832e-01
 2.527434e-01	 1.081984e+00	 1.181864e-01
 2.404681e-01	 1.084778e+00	 5.678674e-02
 2.324525e-01	 1.048619e+00	-1.432302e-01
 2.205957e-01	 1.051177e+00	-1.723665e-01
 2.087506e-01	 1.053593e+00	-2.013766e-01
 1.969196e-01	 1.055868e+00	-2.296527e-01
 1.851049e-01	 1.058003e+00	-2.562745e-01
 1.733088e-01	 1.060000e+00	-2.800575e-01
 2.340556e-01	 1.055850e+00	-9.746277e-02
 2.221170e-01	 1.058426e+00	-1.305247e-01
 2.101903e-01	 1.060859e+00	-1.638271e-01
 1.982776e-01	 1.063150e+00	-1.966110e-01
 1.863815e-01	 1.065300e+00	-2.277881e-01
 1.745040e-01	 1.067310e+00	-2.559913e-01
 2.356587e-01	 1.063082e+00	-5.498512e-02
 2.236384e-01	 1.065676e+00	-9.283411e-02
 2.116299e-01	 1.068125e+00	-1.308882e-01
 1.996357e-01	 1.070432e+00	-1.682946e-01
 1.876581e-01	 1.072597e+00	-2.038518e-01
 1.756992e-01	 1.074620e+00	-2.360632e-01
 2.372618e-01	 1.070314e+00	-1.538827e-02
 2.251597e-01	 1.072925e+00	-5.882769e-02
 2.130696e-01	 1.075392e+00	-1.020414e-01
 2.009938e-01	 1.077714e+00	-1.441375e-01
 1.889346e-01	 1.079893e+00	-1.838547e-01
 1.768945e-01	 1.081931e+00	-2.196180e-01
 2.388649e-01	 1.077546e+00	 2.173437e-02
 2.266811e-01	 1.080175e+00	-2.804140e-02
 2.145092e-01	 1.082658e+00	-7.677156e-02
 2.023518e-01	 1.084996e+00	-1.235784e-01
 1.902112e-01	 1.087190e+00	-1.671915e-01
 1.780897e-01	 1.089241e+00	-2.060071e-01
 2.404681e-01	 1.084778e+00	 5.678674e-02
 2.282024e-01	 1.087424e+00	-1.420847e-05
 2.159489e-01	 1.089924e+00	-5.456727e-02
 2.037099e-01	 1.092278e+00	-1.060599e-01
 1.914878e-01	 1.094486e+00	-1.532620e-01
 1.792849e-01	 1.096551e+00	-1.945883e-01
 1.733088e-01	 1.060000e+00	-2.800575e-01
 1.615335e-01	 1.061858e+00	-3.010181e-01
 1.497811e-01	 1.063579e+00	-3.202152e-01
 1.380538e-01	 1.065165e+00	-3.377726e-01
 1.263537e-01	 1.066616e+00	-3.537345e-01
 1.146828e-01	 1.067934e+00	-3.681128e-01
 1.745040e-01	 1.067310e+00	-2.559913e-01
 1.626475e-01	 1.069181e+00	-2.811804e-01
 1.508141e-01	 1.070914e+00	-3.044681e-01
 1.390059e-01	 1.072511e+00	-3.259438e-01
 1.272251e-01	 1.073972e+00	-3.456085e-01
 1.154737e-01	 1.075299e+00	-3.634253e-01
 1.756992e-01	 1.074620e+00	-2.360632e-01
 1.637615e-01	 1.076504e+00	-2.648818e-01
 1.518470e-01	 1.078249e+00	-2.915227e-01
 1.399580e-01	 1.079857e+00	-3.160915e-01
 1.280965e-01	 1.081328e+00	-3.385974e-01
 1.162647e-01	 1.082664e+00	-3.590050e-01
 1.768945e-01	 1.081931e+00	-2.196180e-01
 1.648755e-01	 1.083827e+00	-2.514346e-01
 1.528800e-01	 1.085584e+00	-2.806826e-01
 1.409101e-01	 1.087203e+00	-3.075323e-01
 1.289679e-01	 1.088684e+00	-3.320497e-01
 1.170556e-01	 1.090029e+00	-3.542503e-01
 1.780897e-01	 1.089241e+00	-2.060071e-01
 1.659895e-01	 1.091150e+00	-2.401590e-01
 1.539130e-01	 1.092919e+00	-2.712598e-01
 1.418622e-01	 1.094549e+00	-2.995915e-01
 1.298393e-01	 1.096040e+00	-3.253231e-01
 1.178465e-01	 1.097394e+00	-3.485679e-01
 1.792849e-01	 1.096551e+00	-1.945883e-01
 1.671036e-01	 1.098474e+00	-2.303827e-01
 1.549460e-01	 1.100254e+00	-2.625749e-01
 1.428143e-01	 1.101895e+00	-2.916029e-01
 1.307107e-01	 1.103396e+00	-3.177837e-01
 1.186374e-01	 1.104759e+00	-3.413726e-01
 1.146828e-01	 1.067934e+00	-3.681128e-01
 1.030432e-01	 1.069120e+00	-3.810790e-01
 9.143669e-02	 1.070175e+00	-3.926023e-01
 7.986531e-02	 1.071101e+00	-4.024824e-01
 6.833090e-02	 1.071898e+00	-4.106701e-01
 5.683529e-02	 1.072569e+00	-4.173064e-01
 1.154737e-01	 1.075299e+00	-3.634253e-01
 1.037538e-01	 1.076493e+00	-3.795316e-01
 9.206729e-02	 1.077555e+00	-3.938782e-01
 8.041611e-02	 1.078488e+00	-4.062385e-01
 6.880215e-02	 1.079291e+00	-4.165410e-01
 5.722725e-02	 1.079966e+00	-4.249111e-01
 1.162647e-01	 1.082664e+00	-3.590050e-01
 1.044645e-01	 1.083866e+00	-3.774684e-01
 9.269789e-02	 1.084936e+00	-3.939399e-01
 8.096690e-02	 1.085874e+00	-4.081719e-01
 6.927340e-02	 1.086683e+00	-4.200758e-01
 5.761922e-02	 1.087363e+00	-4.297658e-01
 1.170556e-01	 1.090029e+00	-3.542503e-01
 1.051751e-01	 1.091240e+00	-3.743438e-01
 9.332849e-02	 1.092317e+00	-3.922944e-01
 8.151770e-02	 1.093261e+00	-4.078375e-01
 6.974464e-02	 1.094076e+00	-4.208712e-01
 5.801119e-02	 1.094760e+00	-4.315021e-01
 1.178465e-01	 1.097394e+00	-3.485679e-01
 1.058857e-01	 1.098613e+00	-3.696202e-01
 9.395909e-02	 1.099697e+00	-3.884562e-01
 8.206849e-02	 1.100648e+00	-4.047975e-01
 7.021589e-02	 1.101468e+00	-4.185317e-01
 5.840316e-02	 1.102157e+00	-4.297599e-01
 1.186374e-01	 1.104759e+00	-3.413726e-01
 1.065964e-01	 1.105986e+00	-3.627677e-01
 9.458968e-02	 1.107078e+00	-3.819475e-01
 8.261929e-02	 1.108035e+00	-3.986216e-01
 7.068714e-02	 1.108860e+00	-4.126687e-01
 5.879512e-02	 1.109554e+00	-4.241859e-01
 5.683529e-02	 1.072569e+00	-4.173064e-01
 4.538025e-02	 1.073115e+00	-4.228862e-01
 3.396754e-02	 1.073537e+00	-4.273167e-01
 2.259883e-02	 1.073836e+00	-4.302669e-01
 1.127578e-02	 1.074015e+00	-4.317549e-01
 0.000000e+00	 1.074074e+00	-4.321733e-01
 5.722725e-02	 1.079966e+00	-4.249111e-01
 4.569322e-02	 1.080516e+00	-4.318777e-01
 3.420179e-02	 1.080941e+00	-4.373792e-01
 2.275468e-02	 1.081242e+00	-4.410794e-01
 1.135355e-02	 1.081422e+00	-4.430051e-01
 0.000000e+00	 1.081481e+00	-4.435724e-01
 5.761922e-02	 1.087363e+00	-4.297658e-01
 4.600619e-02	 1.087917e+00	-4.378051e-01
 3.443605e-02	 1.088344e+00	-4.441494e-01
 2.291054e-02	 1.088648e+00	-4.484414e-01
 1.143131e-02	 1.088829e+00	-4.507009e-01
 0.000000e+00	 1.088889e+00	-4.513522e-01
 5.801119e-02	 1.094760e+00	-4.315021e-01
 4.631915e-02	 1.095317e+00	-4.403299e-01
 3.467031e-02	 1.095748e+00	-4.473156e-01
 2.306639e-02	 1.096054e+00	-4.520639e-01
 1.150908e-02	 1.096236e+00	-4.545712e-01
 0.000000e+00	 1.096296e+00	-4.552551e-01
 5.840316e-02	 1.102157e+00	-4.297599e-01
 4.663212e-02	 1.102718e+00	-4.391219e-01
 3.490457e-02	 1.103152e+00	-4.465744e-01
 2.322225e-02	 1.103459e+00	-4.516664e-01
 1.158684e-02	 1.103643e+00	-4.543541e-01
 0.000000e+00	 1.103704e+00	-4.550323e-01
 5.879512e-02	 1.109554e+00	-4.241859e-01
 4.694509e-02	 1.110119e+00	-4.338584e-01
 3.513883e-02	 1.110555e+00	-4.416303e-01
 2.337810e-02	 1.110865e+00	-4.469766e-01
 1.166460e-02	 1.111050e+00	-4.497959e-01
 0.000000e+00	 1.111111e+00	-4.504437e-01
 1.111111e+00	 0.000000e+00	 2.447583e+01
 1.111050e+00	 1.166460e-02	 2.447043e+01
 1.110865e+00	 2.337810e-02	 2.445736e+01
 1.110555e+00	 3.513883e-02	 2.443590e+01
 1.110119e+00	 4.694509e-02	 2.440545e+01
 1.109554e+00	 5.879512e-02	 2.436556e+01
 1.118519e+00	 0.000000e+00	 2.415491e+01
 1.118457e+00	 1.174237e-02	 2.414956e+01
 1.118271e+00	 2.353395e-02	 2.413695e+01
 1.117959e+00	 3.537309e-02	 2.411631e+01
 1.117520e+00	 4.725806e-02	 2.408702e+01
 1.116951e+00	 5.918709e-02	 2.404863e+01
 1.125926e+00	 0.000000e+00	 2.384406e+01
 1.125864e+00	 1.182013e-02	 2.383876e+01
 1.125677e+00	 2.368981e-02	 2.382657e+01
 1.125363e+00	 3.560735e-02	 2.380674e+01
 1.124921e+00	 4.757102e-02	 2.377860e+01
 1.124348e+00	 5.957906e-02	 2.374166e+01
 1.133333e+00	 0.000000e+00	 2.354272e+01
 1.133271e+00	 1.189790e-02	 2.353745e+01
 1.133082e+00	 2.384566e-02	 2.352569e+01
 1.132766e+00	 3.584161e-02	 2.350665e+01
 1.132321e+00	 4.788399e-02	 2.347966e+01
 1.131746e+00	 5.997103e-02	 2.344418e+01
 1.140741e+00	 0.000000e+00	 2.325034e+01
 1.140678e+00	 1.197566e-02	 2.324509e+01
 1.140488e+00	 2.400152e-02	 2.323376e+01
 1.140170e+00	 3.607587e-02	 2.321552e+01
 1.139722e+00	 4.819696e-02	 2.318967e+01
 1.139143e+00	 6.036299e-02	 2.315564e+01
 1.148148e+00	 0.000000e+00	 2.296636e+01
 1.148085e+00	 1.205342e-02	 2.296116e+01
 1.147894e+00	 2.415737e-02	 2.295025e+01
 1.147574e+00	 3.631012e-02	 2.293280e+01
 1.147123e+00	 4.850992e-02	 2.290809e+01
 1.146540e+00	 6.075496e-02	 2.287552e+01
 1.109554e+00	 5.879512e-02	 2.436556e+01
 1.108860e+00	 7.068714e-02	 2.431662e+01
 1.108035e+00	 8.261929e-02	 2.425899e+01
 1.107078e+00	 9.458968e-02	 2.419233e+01
 1.105986e+00	 1.065964e-01	 2.411643e+01
 1.104759e+00	 1.186374e-01	 2.403119e+01
 1.116951e+00	 5.918709e-02	 2.404863e+01
 1.116253e+00	 7.115839e-02	 2.400152e+01
 1.115422e+00	 8.317009e-02	 2.394608e+01
 1.114458e+00	 9.522028e-02	 2.388198e+01
 1.113359e+00	 1.073070e-01	 2.380900e+01
 1.112124e+00	 1.194283e-01	 2.372709e+01
 1.124348e+00	 5.957906e-02	 2.374166e+01
 1.123645e+00	 7.162963e-02	 2.369631e+01
 1.122809e+00	 8.372088e-02	 2.364293e+01
 1.121839e+00	 9.585088e-02	 2.358114e+01
 1.120733e+00	 1.080177e-01	 2.351068e+01
 1.119489e+00	 1.202192e-01	 2.343144e+01
 1.131746e+00	 5.997103e-02	 2.344418e+01
 1.131038e+00	 7.210088e-02	 2.340061e+01
 1.130196e+00	 8.427168e-02	 2.334931e+01
 1.129219e+00	 9.648148e-02	 2.328987e+01
 1.128106e+00	 1.087283e-01	 2.322200e+01
 1.126854e+00	 1.210102e-01	 2.314554e+01
 1.139143e+00	 6.036299e-02	 2.315564e+01
 1.138430e+00	 7.257213e-02	 2.311385e+01
 1.137583e+00	 8.482247e-02	 2.306465e+01
 1.136600e+00	 9.711208e-02	 2.300760e+01
 1.135479e+00	 1.094390e-01	 2.294238e+01
 1.134220e+00	 1.218011e-01	 2.286879e+01
 1.146540e+00	 6.075496e-02	 2.287552e+01
 1.145822e+00	 7.304338e-02	 2.283550e+01
 1.144970e+00	 8.537327e-02	 2.278841e+01
 1.143980e+00	 9.774267e-02	 2.273378e+01
 1.142852e+00	 1.101496e-01	 2.267126e+01
 1.141585e+00	 1.225920e-01	 2.260063e+01
 1.104759e+00	 1.186374e-01	 2.403119e+01
 1.103396e+00	 1.307107e-01	 2.393661e+01
 1.101895e+00	 1.428143e-01	 2.383267e+01
 1.100254e+00	 1.549460e-01	 2.371936e+01
 1.098474e+00	 1.671036e-01	 2.359675e+01
 1.096551e+00	 1.792849e-01	 2.346496e+01
 1.112124e+00	 1.194283e-01	 2.372709e+01
 1.110752e+00	 1.315821e-01	 2.363638e+01
 1.109241e+00	 1.437664e-01	 2.353685e+01
 1.107589e+00	 1.559789e-01	 2.342842e+01
 1.105797e+00	 1.682176e-01	 2.331114e+01
 1.103862e+00	 1.804802e-01	 2.318516e+01
 1.119489e+00	 1.202192e-01	 2.343144e+01
 1.118108e+00	 1.324535e-01	 2.334361e+01
 1.116587e+00	 1.447185e-01	 2.324738e+01
 1.114924e+00	 1.570119e-01	 2.314284e+01
 1.113120e+00	 1.693316e-01	 2.303017e+01
 1.111172e+00	 1.816754e-01	 2.290971e+01
 1.126854e+00	 1.210102e-01	 2.314554e+01
 1.125464e+00	 1.333250e-01	 2.306075e+01
 1.123933e+00	 1.456706e-01	 2.296791e+01
 1.122259e+00	 1.580449e-01	 2.286704e+01
 1.120443e+00	 1.704456e-01	 2.275828e+01
 1.118482e+00	 1.828706e-01	 2.264193e+01
 1.134220e+00	 1.218011e-01	 2.286879e+01
 1.132820e+00	 1.341964e-01	 2.278721e+01
 1.131279e+00	 1.466227e-01	 2.269797e+01
 1.129594e+00	 1.590778e-01	 2.260108e+01
 1.127766e+00	 1.715597e-01	 2.249664e+01
 1.125793e+00	 1.840659e-01	 2.238489e+01
 1.141585e+00	 1.225920e-01	 2.260063e+01
 1.140176e+00	 1.350678e-01	 2.252236e+01
 1.138625e+00	 1.475748e-01	 2.243692e+01
 1.136930e+00	 1.601108e-01	 2.234425e+01
 1.135089e+00	 1.726737e-01	 2.224444e+01
 1.133103e+00	 1.852611e-01	 2.213770e+01
 1.096551e+00	 1.792849e-01	 2.346496e+01
 1.094486e+00	 1.914878e-01	 2.332355e+01
 1.092278e+00	 2.037099e-01	 2.317244e+01
 1.089924e+00	 2.159489e-01	 2.301244e+01
 1.087424e+00	 2.282024e-01	 2.284434e+01
 1.084778e+00	 2.404681e-01	 2.266893e+01
 1.103862e+00	 1.804802e-01	 2.318516e+01
 1.101783e+00	 1.927644e-01	 2.304983e+01
 1.099559e+00	 2.050680e-01	 2.290494e+01
 1.097190e+00	 2.173886e-01	 2.275128e+01
 1.094674e+00	 2.297238e-01	 2.258962e+01
 1.092010e+00	 2.420712e-01	 2.242074e+01
 1.111172e+00	 1.816754e-01	 2.290971e+01
 1.109079e+00	 1.940410e-01	 2.278057e+01
 1.106841e+00	 2.064260e-01	 2.264206e+01
 1.104456e+00	 2.188282e-01	 2.249496e+01
 1.101923e+00	 2.312451e-01	 2.234003e+01
 1.099242e+00	 2.436743e-01	 2.217804e+01
 1.118482e+00	 1.828706e-01	 2.264193e+01
 1.116376e+00	 1.953176e-01	 2.251718e+01
 1.114123e+00	 2.077841e-01	 2.238365e+01
 1.111722e+00	 2.202679e-01	 2.224247e+01
 1.109173e+00	 2.327665e-01	 2.209444e+01
 1.106473e+00	 2.452774e-01	 2.193961e+01
 1.125793e+00	 1.840659e-01	 2.238489e+01
 1.123673e+00	 1.965942e-01	 2.226478e+01
 1.121405e+00	 2.091422e-01	 2.213566e+01
 1.118988e+00	 2.217075e-01	 2.199857e+01
 1.116422e+00	 2.342878e-01	 2.185463e+01
 1.113705e+00	 2.468805e-01	 2.170503e+01
 1.133103e+00	 1.852611e-01	 2.213770e+01
 1.130969e+00	 1.978707e-01	 2.202274e+01
 1.128687e+00	 2.105002e-01	 2.189863e+01
 1.126255e+00	 2.231472e-01	 2.176634e+01
 1.123672e+00	 2.358092e-01	 2.162692e+01
 1.120937e+00	 2.484837e-01	 2.148149e+01
 1.084778e+00	 2.404681e-01	 2.266893e+01
 1.081984e+00	 2.527434e-01	 2.248423e+01
 1.079041e+00	 2.650260e-01	 2.228856e+01
 1.075949e+00	 2.773132e-01	 2.208316e+01
 1.072706e+00	 2.896026e-01	 2.186920e+01
 1.069313e+00	 3.018915e-01	 2.164781e+01
 1.092010e+00	 2.420712e-01	 2.242074e+01
 1.089197e+00	 2.544284e-01	 2.224271e+01
 1.086234e+00	 2.667928e-01	 2.205400e+01
 1.083122e+00	 2.791619e-01	 2.185599e+01
 1.079857e+00	 2.915333e-01	 2.165000e+01
 1.076441e+00	 3.039042e-01	 2.143731e+01
 1.099242e+00	 2.436743e-01	 2.217804e+01
 1.096410e+00	 2.561133e-01	 2.200709e+01
 1.093428e+00	 2.685596e-01	 2.182579e+01
 1.090295e+00	 2.810107e-01	 2.163559e+01
 1.087009e+00	 2.934640e-01	 2.143789e+01
 1.083570e+00	 3.059168e-01	 2.123404e+01
 1.106473e+00	 2.452774e-01	 2.193961e+01
 1.103623e+00	 2.577983e-01	 2.177614e+01
 1.100622e+00	 2.703265e-01	 2.160275e+01
 1.097468e+00	 2.828595e-01	 2.142089e+01
 1.094160e+00	 2.953946e-01	 2.123197e+01
 1.090699e+00	 3.079294e-01	 2.103735e+01
 1.113705e+00	 2.468805e-01	 2.170503e+01
 1.110837e+00	 2.594832e-01	 2.154868e+01
 1.107815e+00	 2.720933e-01	 2.138372e+01
 1.104641e+00	 2.847082e-01	 2.121082e+01
 1.101312e+00	 2.973253e-01	 2.103135e+01
 1.097828e+00	 3.099420e-01	 2.084661e+01
 1.120937e+00	 2.484837e-01	 2.148149e+01
 1.118050e+00	 2.611682e-01	 2.132914e+01
 1.115009e+00	 2.738601e-01	 2.116946e+01
 1.111814e+00	 2.865570e-01	 2.100444e+01
 1.108463e+00	 2.992560e-01	 2.083518e+01
 1.104956e+00	 3.119546e-01	 2.066122e+01
 1.069313e+00	 3.018915e-01	 2.164781e+01
 1.065768e+00	 3.141775e-01	 2.141919e+01
 1.062070e+00	 3.264577e-01	 2.118388e+01
 1.058220e+00	 3.387296e-01	 2.094339e+01
 1.054217e+00	 3.509904e-01	 2.069904e+01
 1.050060e+00	 3.632375e-01	 2.045195e+01
 1.076441e+00	 3.039042e-01	 2.143731e+01
 1.072873e+00	 3.162720e-01	 2.121751e+01
 1.069151e+00	 3.286341e-01	 2.099049e+01
 1.065275e+00	 3.409878e-01	 2.075772e+01
 1.061245e+00	 3.533304e-01	 2.052049e+01
 1.057061e+00	 3.656591e-01	 2.027986e+01
 1.083570e+00	 3.059168e-01	 2.123404e+01
 1.079978e+00	 3.183665e-01	 2.102291e+01
 1.076231e+00	 3.308105e-01	 2.080368e+01
 1.072330e+00	 3.432460e-01	 2.057785e+01
 1.068273e+00	 3.556703e-01	 2.034672e+01
 1.064061e+00	 3.680807e-01	 2.011137e+01
 1.090699e+00	 3.079294e-01	 2.103735e+01
 1.087083e+00	 3.204610e-01	 2.083502e+01
 1.083312e+00	 3.329869e-01	 2.062328e+01
 1.079385e+00	 3.455042e-01	 2.040376e+01
 1.075301e+00	 3.580102e-01	 2.017783e+01
 1.071061e+00	 3.705022e-01	 1.994660e+01
 1.097828e+00	 3.099420e-01	 2.084661e+01
 1.094188e+00	 3.225555e-01	 2.065344e+01
 1.090392e+00	 3.351632e-01	 2.044911e+01
 1.086439e+00	 3.477624e-01	 2.023543e+01
 1.082330e+00	 3.603502e-01	 2.001389e+01
 1.078062e+00	 3.729238e-01	 1.978686e+01
 1.104956e+00	 3.119546e-01	 2.066122e+01
 1.101293e+00	 3.246501e-01	 2.047783e+01
 1.097473e+00	 3.373396e-01	 2.028103e+01
 1.093494e+00	 3.500206e-01	 2.007286e+01
 1.089358e+00	 3.626901e-01	 1.985499e+01
 1.085062e+00	 3.753454e-01	 1.963324e+01
 1.050060e+00	 3.632375e-01	 2.045195e+01
 1.045749e+00	 3.754680e-01	 2.018196e+01
 1.041284e+00	 3.876793e-01	 1.990271e+01
 1.036664e+00	 3.998684e-01	 1.962189e+01
 1.031890e+00	 4.120327e-01	 1.933778e+01
 1.026961e+00	 4.241693e-01	 1.904836e+01
 1.057061e+00	 3.656591e-01	 2.027986e+01
 1.052721e+00	 3.779711e-01	 2.002038e+01
 1.048226e+00	 3.902638e-01	 1.975501e+01
 1.043576e+00	 4.025342e-01	 1.948645e+01
 1.038769e+00	 4.147796e-01	 1.921312e+01
 1.033807e+00	 4.269970e-01	 1.893310e+01
 1.064061e+00	 3.680807e-01	 2.011137e+01
 1.059693e+00	 3.804743e-01	 1.986346e+01
 1.055168e+00	 3.928483e-01	 1.961110e+01
 1.050487e+00	 4.052000e-01	 1.935411e+01
 1.045649e+00	 4.175265e-01	 1.909103e+01
 1.040654e+00	 4.298248e-01	 1.882011e+01
 1.071061e+00	 3.705022e-01	 1.994660e+01
 1.066664e+00	 3.829774e-01	 1.971134e+01
 1.062110e+00	 3.954329e-01	 1.947107e+01
 1.057398e+00	 4.078658e-01	 1.922483e+01
 1.052528e+00	 4.202734e-01	 1.897136e+01
 1.047500e+00	 4.326526e-01	 1.870909e+01
 1.078062e+00	 3.729238e-01	 1.978686e+01
 1.073636e+00	 3.854805e-01	 1.956415e+01
 1.069052e+00	 3.980174e-01	 1.933498e+01
 1.064309e+00	 4.105316e-01	 1.909860e+01
 1.059407e+00	 4.230202e-01	 1.885397e+01
 1.054346e+00	 4.354804e-01	 1.859972e+01
 1.085062e+00	 3.753454e-01	 1.963324e+01
 1.080608e+00	 3.879836e-01	 1.942200e+01
 1.075994e+00	 4.006019e-01	 1.920288e+01
 1.071220e+00	 4.131974e-01	 1.897538e+01
 1.066286e+00	 4.257671e-01	 1.873870e+01
 1.061193e+00	 4.383082e-01	 1.849169e+01
 1.026961e+00	 4.241693e-01	 1.904836e+01
 1.021877e+00	 4.362752e-01	 1.875440e+01
 1.016638e+00	 4.483478e-01	 1.845705e+01
 1.011244e+00	 4.603841e-01	 1.815446e+01
 1.005696e+00	 4.723812e-01	 1.784461e+01
 9.999931e-01	 4.843363e-01	 1.752530e+01
 1.033807e+00	 4.269970e-01	 1.893310e+01
 1.028689e+00	 4.391837e-01	 1.864814e+01
 1.023415e+00	 4.513368e-01	 1.836024e+01
 1.017986e+00	 4.634533e-01	 1.806750e+01
 1.012400e+00	 4.755304e-01	 1.776780e+01
 1.006660e+00	 4.875652e-01	 1.745884e+01
 1.040654e+00	 4.298248e-01	 1.882011e+01
 1.035502e+00	 4.420922e-01	 1.854398e+01
 1.030193e+00	 4.543258e-01	 1.826534e+01
 1.024727e+00	 4.665225e-01	 1.798219e+01
 1.019105e+00	 4.786796e-01	 1.769230e+01
 1.013326e+00	 4.907941e-01	 1.739324e+01
 1.047500e+00	 4.326526e-01	 1.870909e+01
 1.042314e+00	 4.450007e-01	 1.844146e+01
 1.036970e+00	 4.573148e-01	 1.817184e+01
 1.031469e+00	 4.695918e-01	 1.789805e+01
 1.025810e+00	 4.818288e-01	 1.761775e+01
 1.019993e+00	 4.940230e-01	 1.732833e+01
 1.054346e+00	 4.354804e-01	 1.859972e+01
 1.049127e+00	 4.479092e-01	 1.834016e+01
 1.043748e+00	 4.603037e-01	 1.807923e+01
 1.038210e+00	 4.726610e-01	 1.781462e+01
 1.032514e+00	 4.849780e-01	 1.754377e+01
 1.026660e+00	 4.972519e-01	 1.726392e+01
 1.061193e+00	 4.383082e-01	 1.849169e+01
 1.055939e+00	 4.508177e-01	 1.823961e+01
 1.050526e+00	 4.632927e-01	 1.798703e+01
 1.044952e+00	 4.757302e-01	 1.773140e+01
 1.039219e+00	 4.881272e-01	 1.746998e+01
 1.033326e+00	 5.004808e-01	 1.719981e+01
 9.999931e-01	 4.843363e-01	 1.752530e+01
 9.941365e-01	 4.962464e-01	 1.720273e+01
 9.881262e-01	 5.081087e-01	 1.688233e+01
 9.819627e-01	 5.199203e-01	 1.656043e+01
 9.756465e-01	 5.316782e-01	 1.623320e+01
 9.691782e-01	 5.433796e-01	 1.589665e+01
 1.006660e+00	 4.875652e-01	 1.745884e+01
 1.000764e+00	 4.995547e-01	 1.714674e+01
 9.947137e-01	 5.114961e-01	 1.683683e+01
 9.885092e-01	 5.233864e-01	 1.652537e+01
 9.821509e-01	 5.352227e-01	 1.620844e+01
 9.756394e-01	 5.470022e-01	 1.588194e+01
 1.013326e+00	 4.907941e-01	 1.739324e+01
 1.007392e+00	 5.028630e-01	 1.709110e+01
 1.001301e+00	 5.148835e-01	 1.679123e+01
 9.950556e-01	 5.268525e-01	 1.648981e+01
 9.886552e-01	 5.387673e-01	 1.618285e+01
 9.821006e-01	 5.506247e-01	 1.586616e+01
 1.019993e+00	 4.940230e-01	 1.732833e+01
 1.014019e+00	 5.061713e-01	 1.703584e+01
 1.007889e+00	 5.182709e-01	 1.674565e+01
 1.001602e+00	 5.303187e-01	 1.645390e+01
 9.951595e-01	 5.423118e-01	 1.615652e+01
 9.885618e-01	 5.542472e-01	 1.584925e+01
 1.026660e+00	 4.972519e-01	 1.726392e+01
 1.020647e+00	 5.094796e-01	 1.698095e+01
 1.014476e+00	 5.216583e-01	 1.670020e+01
 1.008148e+00	 5.337848e-01	 1.641777e+01
 1.001664e+00	 5.458563e-01	 1.612953e+01
 9.950230e-01	 5.578698e-01	 1.583115e+01
 1.033326e+00	 5.004808e-01	 1.719981e+01
 1.027274e+00	 5.127880e-01	 1.692642e+01
 1.021064e+00	 5.250457e-01	 1.665496e+01
 1.014695e+00	 5.372509e-01	 1.638150e+01
 1.008168e+00	 5.494008e-01	 1.610190e+01
 1.001484e+00	 5.614923e-01	 1.581175e+01
 9.691782e-01	 5.433796e-01	 1.589665e+01
 9.625585e-01	 5.550217e-01	 1.555766e+01
 9.557880e-01	 5.666014e-01	 1.522316e+01
 9.488676e-01	 5.781160e-01	 1.488910e+01
 9.417982e-01	 5.895626e-01	 1.455142e+01
 9.345807e-01	 6.009383e-01	 1.420599e+01
 9.756394e-01	 5.470022e-01	 1.588194e+01
 9.689756e-01	 5.587218e-01	 1.555296e+01
 9.621599e-01	 5.703787e-01	 1.522856e+01
 9.551934e-01	 5.819701e-01	 1.490452e+01
 9.480769e-01	 5.934930e-01	 1.457654e+01
 9.408113e-01	 6.049445e-01	 1.424029e+01
 9.821006e-01	 5.506247e-01	 1.586616e+01
 9.753926e-01	 5.624220e-01	 1.554696e+01
 9.685319e-01	 5.741561e-01	 1.523243e+01
 9.615192e-01	 5.858242e-01	 1.491813e+01
 9.543555e-01	 5.974234e-01	 1.459956e+01
 9.470418e-01	 6.089508e-01	 1.427217e+01
 9.885618e-01	 5.542472e-01	 1.584925e+01
 9.818097e-01	 5.661221e-01	 1.553948e+01
 9.749038e-01	 5.779334e-01	 1.523448e+01
 9.678450e-01	 5.896783e-01	 1.492962e+01
 9.606342e-01	 6.013538e-01	 1.462020e+01
 9.532723e-01	 6.129570e-01	 1.430145e+01
 9.950230e-01	 5.578698e-01	 1.583115e+01
 9.882267e-01	 5.698222e-01	 1.553028e+01
 9.812757e-01	 5.817108e-01	 1.523440e+01
 9.741708e-01	 5.935324e-01	 1.493866e+01
 9.669128e-01	 6.052842e-01	 1.463816e+01
 9.595029e-01	 6.169633e-01	 1.432793e+01
 1.001484e+00	 5.614923e-01	 1.581175e+01
 9.946438e-01	 5.735224e-01	 1.551911e+01
 9.876476e-01	 5.854881e-01	 1.523184e+01
 9.804966e-01	 5.973865e-01	 1.494488e+01
 9.731915e-01	 6.092146e-01	 1.465313e+01
 9.657334e-01	 6.209695e-01	 1.435139e+01
 9.345807e-01	 6.009383e-01	 1.420599e+01
 9.272161e-01	 6.122403e-01	 1.385961e+01
 9.197055e-01	 6.234658e-01	 1.351934e+01
 9.120501e-01	 6.346120e-01	 1.318160e+01
 9.042512e-01	 6.456762e-01	 1.284296e+01
 8.963099e-01	 6.566556e-01	 1.250019e+01
 9.408113e-01	 6.049445e-01	 1.424029e+01
 9.333976e-01	 6.163219e-01	 1.390285e+01
 9.258369e-01	 6.276222e-01	 1.357159e+01
 9.181305e-01	 6.388428e-01	 1.324276e+01
 9.102795e-01	 6.499807e-01	 1.291276e+01
 9.022853e-01	 6.610333e-01	 1.257817e+01
 9.470418e-01	 6.089508e-01	 1.427217e+01
 9.395790e-01	 6.204035e-01	 1.394335e+01
 9.319683e-01	 6.317787e-01	 1.362085e+01
 9.242108e-01	 6.430735e-01	 1.330070e+01
 9.163078e-01	 6.542852e-01	 1.297908e+01
 9.082607e-01	 6.654110e-01	 1.265236e+01
 9.532723e-01	 6.129570e-01	 1.430145e+01
 9.457604e-01	 6.244851e-01	 1.398107e+01
 9.380997e-01	 6.359351e-01	 1.366713e+01
 9.302912e-01	 6.473043e-01	 1.335541e+01
 9.223362e-01	 6.585897e-01	 1.304184e+01
 9.142361e-01	 6.697887e-01	 1.272253e+01
 9.595029e-01	 6.169633e-01	 1.432793e+01
 9.519419e-01	 6.285667e-01	 1.401591e+01
 9.442310e-01	 6.400916e-01	 1.371037e+01
 9.363715e-01	 6.515350e-01	 1.340682e+01
 9.283645e-01	 6.628942e-01	 1.310093e+01
 9.202115e-01	 6.741664e-01	 1.278847e+01
 9.657334e-01	 6.209695e-01	 1.435139e+01
 9.581233e-01	 6.326483e-01	 1.404774e+01
 9.503624e-01	 6.442480e-01	 1.375049e+01
 9.424518e-01	 6.557658e-01	 1.345487e+01
 9.343929e-01	 6.671987e-01	 1.315619e+01
 9.261869e-01	 6.785441e-01	 1.284990e+01
 8.963099e-01	 6.566556e-01	 1.250019e+01
 8.882276e-01	 6.675474e-01	 1.215706e+01
 8.800059e-01	 6.783491e-01	 1.181819e+01
 8.716462e-01	 6.890578e-01	 1.148203e+01
 8.631502e-01	 6.996711e-01	 1.114741e+01
 8.545193e-01	 7.101864e-01	 1.081360e+01
 9.022853e-01	 6.610333e-01	 1.257817e+01
 8.941492e-01	 6.719977e-01	 1.224303e+01
 8.858726e-01	 6.828714e-01	 1.191220e+01
 8.774572e-01	 6.936516e-01	 1.158393e+01
 8.689045e-01	 7.043356e-01	 1.125690e+01
 8.602161e-01	 7.149210e-01	 1.093020e+01
 9.082607e-01	 6.654110e-01	 1.265236e+01
 9.000707e-01	 6.764481e-01	 1.232483e+01
 8.917393e-01	 6.873937e-01	 1.200167e+01
 8.832682e-01	 6.982453e-01	 1.168101e+01
 8.746588e-01	 7.090001e-01	 1.136141e+01
 8.659129e-01	 7.196555e-01	 1.104185e+01
 9.142361e-01	 6.697887e-01	 1.272253e+01
 9.059922e-01	 6.808984e-01	 1.240212e+01
 8.976061e-01	 6.919160e-01	 1.208626e+01
 8.890792e-01	 7.028390e-01	 1.177299e+01
 8.804132e-01	 7.136646e-01	 1.146079e+01
 8.716097e-01	 7.243901e-01	 1.114862e+01
 9.202115e-01	 6.741664e-01	 1.278847e+01
 9.119137e-01	 6.853487e-01	 1.247459e+01
 9.034728e-01	 6.964384e-01	 1.216561e+01
 8.948901e-01	 7.074327e-01	 1.185955e+01
 8.861675e-01	 7.183290e-01	 1.155488e+01
 8.773065e-01	 7.291247e-01	 1.125055e+01
 9.261869e-01	 6.785441e-01	 1.284990e+01
 9.178352e-01	 6.897990e-01	 1.254187e+01
 9.093395e-01	 7.009607e-01	 1.223935e+01
 9.007011e-01	 7.120264e-01	 1.194038e+01
 8.919218e-01	 7.229935e-01	 1.164346e+01
 8.830033e-01	 7.338593e-01	 1.134763e+01
 8.545193e-01	 7.101864e-01	 1.081360e+01
 8.457553e-01	 7.206010e-01	 1.048142e+01
 8.368601e-01	 7.309125e-01	 1.015142e+01
 8.278354e-01	 7.411184e-01	 9.823300e+00
 8.186831e-01	 7.512162e-01	 9.500568e+00
 8.094052e-01	 7.612037e-01	 9.193923e+00
 8.602161e-01	 7.149210e-01	 1.093020e+01
 8.513937e-01	 7.254050e-01	 1.060451e+01
 8.424392e-01	 7.357852e-01	 1.028027e+01
 8.333543e-01	 7.460592e-01	 9.957037e+00
 8.241410e-01	 7.562243e-01	 9.639398e+00
 8.148013e-01	 7.662784e-01	 9.338233e+00
 8.659129e-01	 7.196555e-01	 1.104185e+01
 8.570321e-01	 7.302090e-01	 1.072292e+01
 8.480183e-01	 7.406580e-01	 1.040487e+01
 8.388732e-01	 7.509999e-01	 1.008620e+01
 8.295989e-01	 7.612324e-01	 9.773269e+00
 8.201973e-01	 7.713531e-01	 9.477424e+00
 8.716097e-01	 7.243901e-01	 1.114862e+01
 8.626705e-01	 7.350130e-01	 1.083692e+01
 8.535973e-01	 7.455307e-01	 1.052488e+01
 8.443921e-01	 7.559407e-01	 1.020991e+01
 8.350568e-01	 7.662406e-01	 9.901360e+00
 8.255933e-01	 7.764278e-01	 9.610680e+00
 8.773065e-01	 7.291247e-01	 1.125055e+01
 8.683088e-01	 7.398170e-01	 1.094678e+01
 8.591764e-01	 7.504035e-01	 1.063895e+01
 8.499110e-01	 7.608815e-01	 1.032726e+01
 8.405147e-01	 7.712487e-01	 1.002281e+01
 8.309894e-01	 7.815025e-01	 9.737142e+00
 8.830033e-01	 7.338593e-01	 1.134763e+01
 8.739472e-01	 7.446210e-01	 1.105162e+01
 8.647555e-01	 7.552762e-01	 1.074600e+01
 8.554299e-01	 7.658223e-01	 1.043728e+01
 8.459726e-01	 7.762568e-01	 1.013670e+01
 8.363854e-01	 7.865772e-01	 9.855910e+00
 8.094052e-01	 7.612037e-01	 9.193923e+00
 8.000037e-01	 7.710784e-01	 8.889708e+00
 7.904807e-01	 7.808382e-01	 8.573398e+00
 7.808382e-01	 7.904807e-01	 8.255014e+00
 7.710784e-01	 8.000037e-01	 7.944510e+00
 7.612037e-01	 8.094052e-01	 7.651704e+00
 8.148013e-01	 7.662784e-01	 9.338233e+00
 8.053371e-01	 7.762190e-01	 9.038977e+00
 7.957505e-01	 7.860438e-01	 8.726513e+00
 7.860438e-01	 7.957505e-01	 8.411499e+00
 7.762190e-01	 8.053371e-01	 8.104532e+00
 7.662784e-01	 8.148013e-01	 7.816084e+00
 8.201973e-01	 7.713531e-01	 9.477424e+00
 8.106704e-01	 7.813595e-01	 9.183201e+00
 8.010204e-01	 7.912493e-01	 8.874848e+00
 7.912493e-01	 8.010204e-01	 8.563553e+00
 7.813595e-01	 8.106704e-01	 8.260456e+00
 7.713531e-01	 8.201973e-01	 7.976573e+00
 8.255933e-01	 7.764278e-01	 9.610680e+00
 8.160038e-01	 7.865000e-01	 9.321530e+00
 8.062903e-01	 7.964549e-01	 9.017485e+00
 7.964549e-01	 8.062903e-01	 8.710164e+00
 7.865000e-01	 8.160038e-01	 8.411146e+00
 7.764278e-01	 8.255933e-01	 8.131889e+00
 8.309894e-01	 7.815025e-01	 9.737142e+00
 8.213371e-01	 7.916405e-01	 9.453069e+00
 8.115601e-01	 8.016605e-01	 9.153464e+00
 8.016605e-01	 8.115601e-01	 8.850280e+00
 7.916405e-01	 8.213371e-01	 8.555432e+00
 7.815025e-01	 8.309894e-01	 8.280718e+00
 8.363854e-01	 7.865772e-01	 9.855910e+00
 8.266705e-01	 7.967811e-01	 9.576888e+00
 8.168300e-01	 8.068661e-01	 9.281791e+00
 8.068661e-01	 8.168300e-01	 8.982813e+00
 7.967811e-01	 8.266705e-01	 8.692108e+00
 7.865772e-01	 8.363854e-01	 8.421716e+00
 7.612037e-01	 8.094052e-01	 7.651704e+00
 7.512162e-01	 8.186831e-01	 7.368123e+00
 7.411184e-01	 8.278354e-01	 7.082581e+00
 7.309125e-01	 8.368601e-01	 6.800216e+00
 7.206010e-01	 8.457553e-01	 6.522951e+00
 7.101864e-01	 8.545193e-01	 6.250472e+00
 7.662784e-01	 8.148013e-01	 7.816084e+00
 7.562243e-01	 8.241410e-01	 7.536845e+00
 7.460592e-01	 8.333543e-01	 7.254270e+00
 7.357852e-01	 8.424392e-01	 6.973416e+00
 7.254050e-01	 8.513937e-01	 6.697237e+00
 7.149210e-01	 8.602161e-01	 6.425382e+00
 7.713531e-01	 8.201973e-01	 7.976573e+00
 7.612324e-01	 8.295989e-01	 7.701593e+00
 7.509999e-01	 8.388732e-01	 7.421642e+00
 7.406580e-01	 8.480183e-01	 7.141812e+00
 7.302090e-01	 8.570321e-01	 6.865966e+00
 7.196555e-01	 8.659129e-01	 6.594343e+00
 7.764278e-01	 8.255933e-01	 8.131889e+00
 7.662406e-01	 8.350568e-01	 7.860979e+00
 7.559407e-01	 8.443921e-01	 7.583300e+00
 7.455307e-01	 8.535973e-01	 7.304168e+00
 7.350130e-01	 8.626705e-01	 7.028107e+00
 7.243901e-01	 8.716097e-01	 6.756566e+00
 7.815025e-01	 8.309894e-01	 8.280718e+00
 7.712487e-01	 8.405147e-01	 8.013583e+00
 7.608815e-01	 8.499110e-01	 7.737813e+00
 7.504035e-01	 8.591764e-01	 7.459131e+00
 7.398170e-01	 8.683088e-01	 7.182604e+00
 7.291247e-01	 8.773065e-01	 6.911232e+00
 7.865772e-01	 8.363854e-01	 8.421716e+00
 7.762568e-01	 8.459726e-01	 8.157957e+00
 7.658223e-01	 8.554299e-01	 7.883724e+00
 7.552762e-01	 8.647555e-01	 7.605323e+00
 7.446210e-01	 8.739472e-01	 7.328409e+00
 7.338593e-01	 8.830033e-01	 7.057490e+00
 7.101864e-01	 8.545193e-01	 6.250472e+00
 6.996711e-01	 8.631502e-01	 5.983483e+00
 6.890578e-01	 8.716462e-01	 5.723491e+00
 6.783491e-01	 8.800059e-01	 5.470058e+00
 6.675474e-01	 8.882276e-01	 5.221925e+00
 6.566556e-01	 8.963099e-01	 4.977024e+00
 7.149210e-01	 8.602161e-01	 6.425382e+00
 7.043356e-01	 8.689045e-01	 6.158884e+00
 6.936516e-01	 8.774572e-01	 5.899619e+00
 6.828714e-01	 8.858726e-01	 5.646932e+00
 6.719977e-01	 8.941492e-01	 5.399311e+00
 6.610333e-01	 9.022853e-01	 5.154409e+00
 7.196555e-01	 8.659129e-01	 6.594343e+00
 7.090001e-01	 8.746588e-01	 6.328413e+00
 6.982453e-01	 8.832682e-01	 6.070273e+00
 6.873937e-01	 8.917393e-01	 5.818863e+00
 6.764481e-01	 9.000707e-01	 5.572228e+00
 6.654110e-01	 9.082607e-01	 5.327529e+00
 7.243901e-01	 8.716097e-01	 6.756566e+00
 7.136646e-01	 8.804132e-01	 6.491512e+00
 7.028390e-01	 8.890792e-01	 6.235018e+00
 6.919160e-01	 8.976061e-01	 5.985439e+00
 6.808984e-01	 9.059922e-01	 5.740181e+00
 6.697887e-01	 9.142361e-01	 5.495716e+00
 7.291247e-01	 8.773065e-01	 6.911232e+00
 7.183290e-01	 8.861675e-01	 6.647586e+00
 7.074327e-01	 8.948901e-01	 6.393380e+00
 6.964384e-01	 9.034728e-01	 6.146206e+00
 6.853487e-01	 9.119137e-01	 5.902639e+00
 6.741664e-01	 9.202115e-01	 5.658266e+00
 7.338593e-01	 8.830033e-01	 7.057490e+00
 7.229935e-01	 8.919218e-01	 6.796004e+00
 7.120264e-01	 9.007011e-01	 6.544847e+00
 7.009607e-01	 9.093395e-01	 6.300668e+00
 6.897990e-01	 9.178352e-01	 6.059033e+00
 6.785441e-01	 9.261869e-01	 5.814443e+00
 6.566556e-01	 8.963099e-01	 4.977024e+00
 6.456762e-01	 9.042512e-01	 4.738689e+00
 6.346120e-01	 9.120501e-01	 4.510527e+00
 6.234658e-01	 9.197055e-01	 4.289764e+00
 6.122403e-01	 9.272161e-01	 4.072958e+00
 6.009383e-01	 9.345807e-01	 3.856024e+00
 6.610333e-01	 9.022853e-01	 5.154409e+00
 6.499807e-01	 9.102795e-01	 4.915655e+00
 6.388428e-01	 9.181305e-01	 4.686836e+00
 6.276222e-01	 9.258369e-01	 4.464979e+00
 6.163219e-01	 9.333976e-01	 4.246416e+00
 6.049445e-01	 9.408113e-01	 4.026816e+00
 6.654110e-01	 9.082607e-01	 5.327529e+00
 6.542852e-01	 9.163078e-01	 5.088210e+00
 6.430735e-01	 9.242108e-01	 4.858391e+00
 6.317787e-01	 9.319683e-01	 4.635056e+00
 6.204035e-01	 9.395790e-01	 4.414476e+00
 6.089508e-01	 9.470418e-01	 4.192240e+00
 6.697887e-01	 9.142361e-01	 5.495716e+00
 6.585897e-01	 9.223362e-01	 5.255514e+00
 6.473043e-01	 9.302912e-01	 5.024286e+00
 6.359351e-01	 9.380997e-01	 4.799122e+00
 6.244851e-01	 9.457604e-01	 4.576392e+00
 6.129570e-01	 9.532723e-01	 4.351772e+00
 6.741664e-01	 9.202115e-01	 5.658266e+00
 6.628942e-01	 9.283645e-01	 5.416700e+00
 6.515350e-01	 9.363715e-01	 5.183588e+00
 6.400916e-01	 9.442310e-01	 4.956277e+00
 6.285667e-01	 9.519419e-01	 4.731391e+00
 6.169633e-01	 9.595029e-01	 4.504857e+00
 6.785441e-01	 9.261869e-01	 5.814443e+00
 6.671987e-01	 9.343929e-01	 5.570870e+00
 6.557658e-01	 9.424518e-01	 5.335338e+00
 6.442480e-01	 9.503624e-01	 5.105595e+00
 6.326483e-01	 9.581233e-01	 4.878670e+00
 6.209695e-01	 9.657334e-01	 4.650902e+00
 6.009383e-01	 9.345807e-01	 3.856024e+00
 5.895626e-01	 9.417982e-01	 3.644898e+00
 5.781160e-01	 9.488676e-01	 3.446263e+00
 5.666014e-01	 9.557880e-01	 3.256337e+00
 5.550217e-01	 9.625585e-01	 3.070899e+00
 5.433796e-01	 9.691782e-01	 2.885318e+00
 6.049445e-01	 9.408113e-01	 4.026816e+00
 5.934930e-01	 9.480769e-01	 3.812506e+00
 5.819701e-01	 9.551934e-01	 3.610749e+00
 5.703787e-01	 9.621599e-01	 3.417776e+00
 5.587218e-01	 9.689756e-01	 3.229371e+00
 5.470022e-01	 9.756394e-01	 3.040911e+00
 6.089508e-01	 9.470418e-01	 4.192240e+00
 5.974234e-01	 9.543555e-01	 3.975226e+00
 5.858242e-01	 9.615192e-01	 3.771160e+00
 5.741561e-01	 9.685319e-01	 3.576038e+00
 5.624220e-01	 9.753926e-01	 3.385402e+00
 5.506247e-01	 9.821006e-01	 3.194368e+00
 6.129570e-01	 9.532723e-01	 4.351772e+00
 6.013538e-01	 9.606342e-01	 4.132736e+00
 5.896783e-01	 9.678450e-01	 3.927246e+00
 5.779334e-01	 9.749038e-01	 3.730830e+00
 5.661221e-01	 9.818097e-01	 3.538533e+00
 5.542472e-01	 9.885618e-01	 3.344955e+00
 6.169633e-01	 9.595029e-01	 4.504857e+00
 6.052842e-01	 9.669128e-01	 4.284676e+00
 5.935324e-01	 9.741708e-01	 4.078723e+00
 5.817108e-01	 9.812757e-01	 3.881821e+00
 5.698222e-01	 9.882267e-01	 3.688275e+00
 5.578698e-01	 9.950230e-01	 3.491914e+00
 6.209695e-01	 9.657334e-01	 4.650902e+00
 6.092146e-01	 9.731915e-01	 4.430649e+00
 5.973865e-01	 9.804966e-01	 4.225267e+00
 5.854881e-01	 9.876476e-01	 4.028644e+00
 5.735224e-01	 9.946438e-01	 3.834107e+00
 5.614923e-01	 1.001484e+00	 3.634466e+00
 5.433796e-01	 9.691782e-01	 2.885318e+00
 5.316782e-01	 9.756465e-01	 2.705273e+00
 5.199203e-01	 9.819627e-01	 2.537229e+00
 5.081087e-01	 9.881262e-01	 2.377259e+00
 4.962464e-01	 9.941365e-01	 2.221212e+00
 4.843363e-01	 9.999931e-01	 2.064737e+00
 5.470022e-01	 9.756394e-01	 3.040911e+00
 5.352227e-01	 9.821509e-01	 2.858268e+00
 5.233864e-01	 9.885092e-01	 2.687829e+00
 5.114961e-01	 9.947137e-01	 2.525240e+00
 4.995547e-01	 1.000764e+00	 2.365902e+00
 4.875652e-01	 1.006660e+00	 2.205009e+00
 5.506247e-01	 9.821006e-01	 3.194368e+00
 5.387673e-01	 9.886552e-01	 3.008784e+00
 5.268525e-01	 9.950556e-01	 2.835141e+00
 5.148835e-01	 1.001301e+00	 2.669014e+00
 5.028630e-01	 1.007392e+00	 2.505724e+00
 4.907941e-01	 1.013326e+00	 2.340375e+00
 5.542472e-01	 9.885618e-01	 3.344955e+00
 5.423118e-01	 9.951595e-01	 3.155839e+00
 5.303187e-01	 1.001602e+00	 2.978107e+00
 5.182709e-01	 1.007889e+00	 2.807604e+00
 5.061713e-01	 1.014019e+00	 2.639926e+00
 4.940230e-01	 1.019993e+00	 2.470460e+00
 5.578698e-01	 9.950230e-01	 3.491914e+00
 5.458563e-01	 1.001664e+00	 3.298440e+00
 5.337848e-01	 1.008148e+00	 3.115656e+00
 5.216583e-01	 1.014476e+00	 2.940017e+00
 5.094796e-01	 1.020647e+00	 2.767746e+00
 4.972519e-01	 1.026660e+00	 2.594867e+00
 5.614923e-01	 1.001484e+00	 3.634466e+00
 5.494008e-01	 1.008168e+00	 3.435576e+00
 5.372509e-01	 1.014695e+00	 3.246706e+00
 5.250457e-01	 1.021064e+00	 3.065252e+00
 5.127880e-01	 1.027274e+00	 2.888402e+00
 5.004808e-01	 1.033326e+00	 2.713172e+00
 4.843363e-01	 9.999931e-01	 2.064737e+00
 4.723812e-01	 1.005696e+00	 1.913034e+00
 4.603841e-01	 1.011244e+00	 1.772216e+00
 4.483478e-01	 1.016638e+00	 1.639155e+00
 4.362752e-01	 1.021877e+00	 1.510709e+00
 4.241693e-01	 1.026961e+00	 1.383754e+00
 4.875652e-01	 1.006660e+00	 2.205009e+00
 4.755304e-01	 1.012400e+00	 2.047857e+00
 4.634533e-01	 1.017986e+00	 1.901125e+00
 4.513368e-01	 1.023415e+00	 1.761926e+00
 4.391837e-01	 1.028689e+00	 1.627362e+00
 4.269970e-01	 1.033807e+00	 1.494565e+00
 4.907941e-01	 1.013326e+00	 2.340375e+00
 4.786796e-01	 1.019105e+00	 2.178685e+00
 4.665225e-01	 1.024727e+00	 2.027664e+00
 4.543258e-01	 1.030193e+00	 1.884197e+00
 4.420922e-01	 1.035502e+00	 1.745163e+00
 4.298248e-01	 1.040654e+00	 1.607471e+00
 4.940230e-01	 1.019993e+00	 2.470460e+00
 4.818288e-01	 1.025810e+00	 2.305510e+00
 4.695918e-01	 1.031469e+00	 2.152034e+00
 4.573148e-01	 1.036970e+00	 2.006242e+00
 4.450007e-01	 1.042314e+00	 1.864324e+00
 4.326526e-01	 1.047500e+00	 1.722498e+00
 4.972519e-01	 1.026660e+00	 2.594867e+00
 4.849780e-01	 1.032514e+00	 2.428288e+00
 4.726610e-01	 1.038210e+00	 2.274405e+00
 4.603037e-01	 1.043748e+00	 2.128300e+00
 4.479092e-01	 1.049127e+00	 1.985026e+00
 4.354804e-01	 1.054346e+00	 1.839649e+00
 5.004808e-01	 1.033326e+00	 2.713172e+00
 4.881272e-01	 1.039219e+00	 2.546948e+00
 4.757302e-01	 1.044952e+00	 2.394908e+00
 4.632927e-01	 1.050526e+00	 2.250574e+00
 4.508177e-01	 1.055939e+00	 2.107418e+00
 4.383082e-01	 1.061193e+00	 1.958898e+00
 4.241693e-01	 1.026961e+00	 1.383754e+00
 4.120327e-01	 1.031890e+00	 1.259023e+00
 3.998684e-01	 1.036664e+00	 1.140345e+00
 3.876793e-01	 1.041284e+00	 1.029395e+00
 3.754680e-01	 1.045749e+00	 9.280280e-01
 3.632375e-01	 1.050060e+00	 8.395263e-01
 4.269970e-01	 1.033807e+00	 1.494565e+00
 4.147796e-01	 1.038769e+00	 1.365039e+00
 4.025342e-01	 1.043576e+00	 1.243079e+00
 3.902638e-01	 1.048226e+00	 1.130162e+00
 3.779711e-01	 1.052721e+00	 1.027953e+00
 3.656591e-01	 1.057061e+00	 9.388122e-01
 4.298248e-01	 1.040654e+00	 1.607471e+00
 4.175265e-01	 1.045649e+00	 1.473017e+00
 4.052000e-01	 1.050487e+00	 1.346676e+00
 3.928483e-01	 1.055168e+00	 1.229993e+00
 3.804743e-01	 1.059693e+00	 1.124704e+00
 3.680807e-01	 1.064061e+00	 1.032861e+00
 4.326526e-01	 1.047500e+00	 1.722498e+00
 4.202734e-01	 1.052528e+00	 1.582766e+00
 4.078658e-01	 1.057398e+00	 1.450783e+00
 3.954329e-01	 1.062110e+00	 1.328417e+00
 3.829774e-01	 1.066664e+00	 1.217736e+00
 3.705022e-01	 1.071061e+00	 1.121026e+00
 4.354804e-01	 1.054346e+00	 1.839649e+00
 4.230202e-01	 1.059407e+00	 1.694080e+00
 4.105316e-01	 1.064309e+00	 1.555036e+00
 3.980174e-01	 1.069052e+00	 1.424960e+00
 3.854805e-01	 1.073636e+00	 1.306503e+00
 3.729238e-01	 1.078062e+00	 1.202544e+00
 4.383082e-01	 1.061193e+00	 1.958898e+00
 4.257671e-01	 1.066286e+00	 1.806732e+00
 4.131974e-01	 1.071220e+00	 1.659056e+00
 4.006019e-01	 1.075994e+00	 1.519136e+00
 3.879836e-01	 1.080608e+00	 1.390452e+00
 3.753454e-01	 1.085062e+00	 1.276726e+00
 3.632375e-01	 1.050060e+00	 8.395263e-01
 3.509904e-01	 1.054217e+00	 7.567761e-01
 3.387296e-01	 1.058220e+00	 6.677537e-01
 3.264577e-01	 1.062070e+00	 5.761977e-01
 3.141775e-01	 1.065768e+00	 4.867222e-01
 3.018915e-01	 1.069313e+00	 4.047858e-01
 3.656591e-01	 1.057061e+00	 9.388122e-01
 3.533304e-01	 1.061245e+00	 8.537360e-01
 3.409878e-01	 1.065275e+00	 7.606699e-01
 3.286341e-01	 1.069151e+00	 6.638071e-01
 3.162720e-01	 1.072873e+00	 5.682600e-01
 3.039042e-01	 1.076441e+00	 4.800275e-01
 3.680807e-01	 1.064061e+00	 1.032861e+00
 3.556703e-01	 1.068273e+00	 9.433605e-01
 3.432460e-01	 1.072330e+00	 8.444731e-01
 3.308105e-01	 1.076231e+00	 7.412154e-01
 3.183665e-01	 1.079978e+00	 6.395727e-01
 3.059168e-01	 1.083570e+00	 5.464632e-01
 3.705022e-01	 1.071061e+00	 1.121026e+00
 3.580102e-01	 1.075301e+00	 1.025077e+00
 3.455042e-01	 1.079385e+00	 9.187644e-01
 3.329869e-01	 1.083312e+00	 8.082878e-01
 3.204610e-01	 1.087083e+00	 7.008727e-01
 3.079294e-01	 1.090699e+00	 6.047289e-01
 3.729238e-01	 1.078062e+00	 1.202544e+00
 3.603502e-01	 1.082330e+00	 1.098304e+00
 3.477624e-01	 1.086439e+00	 9.831359e-01
 3.351632e-01	 1.090392e+00	 8.648786e-01
 3.225555e-01	 1.094188e+00	 7.523573e-01
 3.099420e-01	 1.097828e+00	 6.554381e-01
 3.753454e-01	 1.085062e+00	 1.276726e+00
 3.626901e-01	 1.089358e+00	 1.162449e+00
 3.500206e-01	 1.093494e+00	 1.037170e+00
 3.373396e-01	 1.097473e+00	 9.108308e-01
 3.246501e-01	 1.101293e+00	 7.942076e-01
 3.119546e-01	 1.104956e+00	 6.991813e-01
 3.018915e-01	 1.069313e+00	 4.047858e-01
 2.896026e-01	 1.072706e+00	 3.295425e-01
 2.773132e-01	 1.075949e+00	 2.561662e-01
 2.650260e-01	 1.079041e+00	 1.852832e-01
 2.527434e-01	 1.081984e+00	 1.181864e-01
 2.404681e-01	 1.084778e+00	 5.678674e-02
 3.039042e-01	 1.076441e+00	 4.800275e-01
 2.915333e-01	 1.079857e+00	 3.981442e-01
 2.791619e-01	 1.083122e+00	 3.175505e-01
 2.667928e-01	 1.086234e+00	 2.392997e-01
 2.544284e-01	 1.089197e+00	 1.651489e-01
 2.420712e-01	 1.092010e+00	 9.750794e-02
 3.059168e-01	 1.083570e+00	 5.464632e-01
 2.934640e-01	 1.087009e+00	 4.610115e-01
 2.810107e-01	 1.090295e+00	 3.775392e-01
 2.685596e-01	 1.093428e+00	 2.970179e-01
 2.561133e-01	 1.096410e+00	 2.211605e-01
 2.436743e-01	 1.099242e+00	 1.523669e-01
 3.079294e-01	 1.090699e+00	 6.047289e-01
 2.953946e-01	 1.094160e+00	 5.191737e-01
 2.828595e-01	 1.097468e+00	 4.374309e-01
 2.703265e-01	 1.100622e+00	 3.598930e-01
 2.577983e-01	 1.103623e+00	 2.877304e-01
 2.452774e-01	 1.106473e+00	 2.228361e-01
 3.099420e-01	 1.097828e+00	 6.554381e-01
 2.973253e-01	 1.101312e+00	 5.736306e-01
 2.847082e-01	 1.104641e+00	 4.984909e-01
 2.720933e-01	 1.107815e+00	 4.293453e-01
 2.594832e-01	 1.110837e+00	 3.663341e-01
 2.468805e-01	 1.113705e+00	 3.062829e-01
 3.119546e-01	 1.104956e+00	 6.991813e-01
 2.992560e-01	 1.108463e+00	 6.253528e-01
 2.865570e-01	 1.111814e+00	 5.615946e-01
 2.738601e-01	 1.115009e+00	 4.963338e-01
 2.611682e-01	 1.118050e+00	 4.271892e-01
 2.484837e-01	 1.120937e+00	 3.574056e-01
 2.404681e-01	 1.084778e+00	 5.678674e-02
 2.282024e-01	 1.087424e+00	-1.420847e-05
 2.159489e-01	 1.089924e+00	-5.456727e-02
 2.037099e-01	 1.092278e+00	-1.060599e-01
 1.914878e-01	 1.094486e+00	-1.532620e-01
 1.792849e-01	 1.096551e+00	-1.945883e-01
 2.420712e-01	 1.092010e+00	 9.750794e-02
 2.297238e-01	 1.094674e+00	 3.558290e-02
 2.173886e-01	 1.097190e+00	-2.308650e-02
 2.050680e-01	 1.099559e+00	-7.776551e-02
 1.927644e-01	 1.101783e+00	-1.272763e-01
 1.804802e-01	 1.103862e+00	-1.700622e-01
 2.436743e-01	 1.099242e+00	 1.523669e-01
 2.312451e-01	 1.101923e+00	 8.971072e-02
 2.188282e-01	 1.104456e+00	 3.053957e-02
 2.064260e-01	 1.106841e+00	-2.446488e-02
 1.940410e-01	 1.109079e+00	-7.415178e-02
 1.816754e-01	 1.111172e+00	-1.169699e-01
 2.452774e-01	 1.106473e+00	 2.228361e-01
 2.327665e-01	 1.109173e+00	 1.637543e-01
 2.202679e-01	 1.111722e+00	 1.073954e-01
 2.077841e-01	 1.114123e+00	 5.057401e-02
 1.953176e-01	 1.116376e+00	-5.389229e-03
 1.828706e-01	 1.118482e+00	-5.706700e-02
 2.468805e-01	 1.113705e+00	 3.062829e-01
 2.342878e-01	 1.116422e+00	 2.430672e-01
 2.217075e-01	 1.118988e+00	 1.764664e-01
 2.091422e-01	 1.121405e+00	 1.096189e-01
 1.965942e-01	 1.123673e+00	 4.570246e-02
 1.840659e-01	 1.125793e+00	-1.212078e-02
 2.484837e-01	 1.120937e+00	 3.574056e-01
 2.358092e-01	 1.123672e+00	 2.867264e-01
 2.231472e-01	 1.126255e+00	 2.145096e-01
 2.105002e-01	 1.128687e+00	 1.436448e-01
 1.978707e-01	 1.130969e+00	 7.704810e-02
 1.852611e-01	 1.133103e+00	 1.760997e-02
 1.792849e-01	 1.096551e+00	-1.945883e-01
 1.671036e-01	 1.098474e+00	-2.303827e-01
 1.549460e-01	 1.100254e+00	-2.625749e-01
 1.428143e-01	 1.101895e+00	-2.916029e-01
 1.307107e-01	 1.103396e+00	-3.177837e-01
 1.186374e-01	 1.104759e+00	-3.413726e-01
 1.804802e-01	 1.103862e+00	-1.700622e-01
 1.682176e-01	 1.105797e+00	-2.067256e-01
 1.559789e-01	 1.107589e+00	-2.395329e-01
 1.437664e-01	 1.109241e+00	-2.690451e-01
 1.315821e-01	 1.110752e+00	-2.956941e-01
 1.194283e-01	 1.112124e+00	-3.201111e-01
 1.816754e-01	 1.111172e+00	-1.169699e-01
 1.693316e-01	 1.113120e+00	-1.552979e-01
 1.570119e-01	 1.114924e+00	-1.921365e-01
 1.447185e-01	 1.116587e+00	-2.270039e-01
 1.324535e-01	 1.118108e+00	-2.595747e-01
 1.202192e-01	 1.119489e+00	-2.897062e-01
 1.828706e-01	 1.118482e+00	-5.706700e-02
 1.704456e-01	 1.120443e+00	-1.040896e-01
 1.580449e-01	 1.122259e+00	-1.481254e-01
 1.456706e-01	 1.123933e+00	-1.889386e-01
 1.333250e-01	 1.125464e+00	-2.264462e-01
 1.210102e-01	 1.126854e+00	-2.607417e-01
 1.840659e-01	 1.125793e+00	-1.212078e-02
 1.715597e-01	 1.127766e+00	-6.399432e-02
 1.590778e-01	 1.129594e+00	-1.120381e-01
 1.466227e-01	 1.131279e+00	-1.561924e-01
 1.341964e-01	 1.132820e+00	-1.965463e-01
 1.218011e-01	 1.134220e+00	-2.333587e-01
 1.852611e-01	 1.133103e+00	 1.760997e-02
 1.726737e-01	 1.135089e+00	-3.529476e-02
 1.601108e-01	 1.136930e+00	-8.415615e-02
 1.475748e-01	 1.138625e+00	-1.290230e-01
 1.350678e-01	 1.140176e+00	-1.700889e-01
 1.225920e-01	 1.141585e+00	-2.077100e-01
 1.186374e-01	 1.104759e+00	-3.413726e-01
 1.065964e-01	 1.105986e+00	-3.627677e-01
 9.458968e-02	 1.107078e+00	-3.819475e-01
 8.261929e-02	 1.108035e+00	-3.986216e-01
 7.068714e-02	 1.108860e+00	-4.126687e-01
 5.879512e-02	 1.109554e+00	-4.241859e-01
 1.194283e-01	 1.112124e+00	-3.201111e-01
 1.073070e-01	 1.113359e+00	-3.431331e-01
 9.522028e-02	 1.114458e+00	-3.643004e-01
 8.317009e-02	 1.115422e+00	-3.830068e-01
 7.115839e-02	 1.116253e+00	-3.989355e-01
 5.918709e-02	 1.116951e+00	-4.120794e-01
 1.202192e-01	 1.119489e+00	-2.897062e-01
 1.080177e-01	 1.120733e+00	-3.174689e-01
 9.585088e-02	 1.121839e+00	-3.424767e-01
 8.372088e-02	 1.122809e+00	-3.642472e-01
 7.162963e-02	 1.123645e+00	-3.825722e-01
 5.957906e-02	 1.124348e+00	-3.975357e-01
 1.210102e-01	 1.126854e+00	-2.607417e-01
 1.087283e-01	 1.128106e+00	-2.920377e-01
 9.648148e-02	 1.129219e+00	-3.199847e-01
 8.427168e-02	 1.130196e+00	-3.441622e-01
 7.210088e-02	 1.131038e+00	-3.644093e-01
 5.997103e-02	 1.131746e+00	-3.808399e-01
 1.218011e-01	 1.134220e+00	-2.333587e-01
 1.094390e-01	 1.135479e+00	-2.669142e-01
 9.711208e-02	 1.136600e+00	-2.968370e-01
 8.482247e-02	 1.137583e+00	-3.227090e-01
 7.257213e-02	 1.138430e+00	-3.443571e-01
 6.036299e-02	 1.139143e+00	-3.618667e-01
 1.225920e-01	 1.141585e+00	-2.077100e-01
 1.101496e-01	 1.142852e+00	-2.421837e-01
 9.774267e-02	 1.143980e+00	-2.730557e-01
 8.537327e-02	 1.144970e+00	-2.998528e-01
 7.304338e-02	 1.145822e+00	-3.223328e-01
 6.075496e-02	 1.146540e+00	-3.404962e-01
 5.879512e-02	 1.109554e+00	-4.241859e-01
 4.694509e-02	 1.110119e+00	-4.338584e-01
 3.513883e-02	 1.110555e+00	-4.416303e-01
 2.337810e-02	 1.110865e+00	-4.469766e-01
 1.166460e-02	 1.111050e+00	-4.497959e-01
 0.000000e+00	 1.111111e+00	-4.504437e-01
 5.918709e-02	 1.116951e+00	-4.120794e-01
 4.725806e-02	 1.117520e+00	-4.231371e-01
 3.537309e-02	 1.117959e+00	-4.320557e-01
 2.353395e-02	 1.118271e+00	-4.382548e-01
 1.174237e-02	 1.118457e+00	-4.415847e-01
 0.000000e+00	 1.118519e+00	-4.423494e-01
 5.957906e-02	 1.124348e+00	-3.975357e-01
 4.757102e-02	 1.124921e+00	-4.099791e-01
 3.560735e-02	 1.125363e+00	-4.199653e-01
 2.368981e-02	 1.125677e+00	-4.269333e-01
 1.182013e-02	 1.125864e+00	-4.307297e-01
 0.000000e+00	 1.125926e+00	-4.316298e-01
 5.997103e-02	 1.131746e+00	-3.808399e-01
 4.788399e-02	 1.132321e+00	-3.943892e-01
 3.584161e-02	 1.132766e+00	-4.052312e-01
 2.384566e-02	 1.133082e+00	-4.128295e-01
 1.189790e-02	 1.133271e+00	-4.170304e-01
 0.000000e+00	 1.133333e+00	-4.180827e-01
 6.036299e-02	 1.139143e+00	-3.618667e-01
 4.819696e-02	 1.139722e+00	-3.762149e-01
 3.607587e-02	 1.140170e+00	-3.876788e-01
 2.400152e-02	 1.140488e+00	-3.957526e-01
 1.197566e-02	 1.140678e+00	-4.002865e-01
 0.000000e+00	 1.140741e+00	-4.015054e-01
 6.075496e-02	 1.146540e+00	-3.404962e-01
 4.850992e-02	 1.147123e+00	-3.553078e-01
 3.631012e-02	 1.147574e+00	-3.671364e-01
 2.415737e-02	 1.147894e+00	-3.755136e-01
 1.205342e-02	 1.148085e+00	-3.802986e-01
 0.000000e+00	 1.148148e+00	-3.816959e-01
 1.148148e+00	 0.000000e+00	 2.296636e+01
 1.148085e+00	 1.205342e-02	 2.296116e+01
 1.147894e+00	 2.415737e-02	 2.295025e+01
 1.147574e+00	 3.631012e-02	 2.293280e+01
 1.147123e+00	 4.850992e-02	 2.290809e+01
 1.146540e+00	 6.075496e-02	 2.287552e+01
 1.155556e+00	 0.000000e+00	 2.269073e+01
 1.155492e+00	 1.213119e-02	 2.268558e+01
 1.155300e+00	 2.431322e-02	 2.267509e+01
 1.154978e+00	 3.654438e-02	 2.265841e+01
 1.154524e+00	 4.882289e-02	 2.263480e+01
 1.153937e+00	 6.114693e-02	 2.260364e+01
 1.162963e+00	 0.000000e+00	 2.242343e+01
 1.162899e+00	 1.220895e-02	 2.241835e+01
 1.162706e+00	 2.446908e-02	 2.240827e+01
 1.162381e+00	 3.677864e-02	 2.239232e+01
 1.161924e+00	 4.913586e-02	 2.236975e+01
 1.161334e+00	 6.153890e-02	 2.233992e+01
 1.170370e+00	 0.000000e+00	 2.216400e+01
 1.170306e+00	 1.228672e-02	 2.215901e+01
 1.170111e+00	 2.462493e-02	 2.214932e+01
 1.169785e+00	 3.701290e-02	 2.213407e+01
 1.169325e+00	 4.944883e-02	 2.211248e+01
 1.168731e+00	 6.193086e-02	 2.208390e+01
 1.177778e+00	 0.000000e+00	 2.191201e+01
 1.177713e+00	 1.236448e-02	 2.190711e+01
 1.177517e+00	 2.478079e-02	 2.189780e+01
 1.177189e+00	 3.724716e-02	 2.188320e+01
 1.176726e+00	 4.976179e-02	 2.186255e+01
 1.176128e+00	 6.232283e-02	 2.183517e+01
 1.185185e+00	 0.000000e+00	 2.166704e+01
 1.185120e+00	 1.244224e-02	 2.166221e+01
 1.184923e+00	 2.493664e-02	 2.165325e+01
 1.184592e+00	 3.748142e-02	 2.163928e+01
 1.184127e+00	 5.007476e-02	 2.161952e+01
 1.183525e+00	 6.271480e-02	 2.159329e+01
 1.146540e+00	 6.075496e-02	 2.287552e+01
 1.145822e+00	 7.304338e-02	 2.283550e+01
 1.144970e+00	 8.537327e-02	 2.278841e+01
 1.143980e+00	 9.774267e-02	 2.273378e+01
 1.142852e+00	 1.101496e-01	 2.267126e+01
 1.141585e+00	 1.225920e-01	 2.260063e+01
 1.153937e+00	 6.114693e-02	 2.260364e+01
 1.153215e+00	 7.351463e-02	 2.256535e+01
 1.152357e+00	 8.592406e-02	 2.252030e+01
 1.151361e+00	 9.837327e-02	 2.246801e+01
 1.150225e+00	 1.108602e-01	 2.240812e+01
 1.148950e+00	 1.233829e-01	 2.234037e+01
 1.161334e+00	 6.153890e-02	 2.233992e+01
 1.160607e+00	 7.398587e-02	 2.230323e+01
 1.159743e+00	 8.647486e-02	 2.226011e+01
 1.158741e+00	 9.900387e-02	 2.221002e+01
 1.157599e+00	 1.115709e-01	 2.215259e+01
 1.156315e+00	 1.241738e-01	 2.208753e+01
 1.168731e+00	 6.193086e-02	 2.208390e+01
 1.168000e+00	 7.445712e-02	 2.204875e+01
 1.167130e+00	 8.702565e-02	 2.200745e+01
 1.166122e+00	 9.963447e-02	 2.195945e+01
 1.164972e+00	 1.122815e-01	 2.190433e+01
 1.163680e+00	 1.249647e-01	 2.184177e+01
 1.176128e+00	 6.232283e-02	 2.183517e+01
 1.175392e+00	 7.492837e-02	 2.180149e+01
 1.174517e+00	 8.757645e-02	 2.176193e+01
 1.173502e+00	 1.002651e-01	 2.171592e+01
 1.172345e+00	 1.129922e-01	 2.166299e+01
 1.171045e+00	 1.257557e-01	 2.160280e+01
 1.183525e+00	 6.271480e-02	 2.159329e+01
 1.182784e+00	 7.539962e-02	 2.156104e+01
 1.181904e+00	 8.812724e-02	 2.152317e+01
 1.180883e+00	 1.008957e-01	 2.147907e+01
 1.179718e+00	 1.137028e-01	 2.142824e+01
 1.178410e+00	 1.265466e-01	 2.137029e+01
 1.141585e+00	 1.225920e-01	 2.260063e+01
 1.140176e+00	 1.350678e-01	 2.252236e+01
 1.138625e+00	 1.475748e-01	 2.243692e+01
 1.136930e+00	 1.601108e-01	 2.234425e+01
 1.135089e+00	 1.726737e-01	 2.224444e+01
 1.133103e+00	 1.852611e-01	 2.213770e+01
 1.148950e+00	 1.233829e-01	 2.234037e+01
 1.147532e+00	 1.359392e-01	 2.226535e+01
 1.145971e+00	 1.485269e-01	 2.218362e+01
 1.144265e+00	 1.611438e-01	 2.209512e+01
 1.142413e+00	 1.737877e-01	 2.199990e+01
 1.140413e+00	 1.864563e-01	 2.189815e+01
 1.156315e+00	 1.241738e-01	 2.208753e+01
 1.154888e+00	 1.368106e-01	 2.201551e+01
 1.153316e+00	 1.494790e-01	 2.193723e+01
 1.151600e+00	 1.621768e-01	 2.185258e+01
 1.149736e+00	 1.749017e-01	 2.176163e+01
 1.147724e+00	 1.876516e-01	 2.166452e+01
 1.163680e+00	 1.249647e-01	 2.184177e+01
 1.162244e+00	 1.376820e-01	 2.177256e+01
 1.160662e+00	 1.504311e-01	 2.169748e+01
 1.158935e+00	 1.632097e-01	 2.161643e+01
 1.157059e+00	 1.760158e-01	 2.152945e+01
 1.155034e+00	 1.888468e-01	 2.143671e+01
 1.171045e+00	 1.257557e-01	 2.160280e+01
 1.169600e+00	 1.385534e-01	 2.153621e+01
 1.168008e+00	 1.513831e-01	 2.146412e+01
 1.166270e+00	 1.642427e-01	 2.138645e+01
 1.164382e+00	 1.771298e-01	 2.130322e+01
 1.162344e+00	 1.900420e-01	 2.121459e+01
 1.178410e+00	 1.265466e-01	 2.137029e+01
 1.176956e+00	 1.394248e-01	 2.130617e+01
 1.175354e+00	 1.523352e-01	 2.123692e+01
 1.173605e+00	 1.652757e-01	 2.116243e+01
 1.171705e+00	 1.782438e-01	 2.108275e+01
 1.169655e+00	 1.912373e-01	 2.099803e+01
 1.133103e+00	 1.852611e-01	 2.213770e+01
 1.130969e+00	 1.978707e-01	 2.202274e+01
 1.128687e+00	 2.105002e-01	 2.189863e+01
 1.126255e+00	 2.231472e-01	 2.176634e+01
 1.123672e+00	 2.358092e-01	 2.162692e+01
 1.120937e+00	 2.484837e-01	 2.148149e+01
 1.140413e+00	 1.864563e-01	 2.189815e+01
 1.138266e+00	 1.991473e-01	 2.178837e+01
 1.135969e+00	 2.118583e-01	 2.166941e+01
 1.133521e+00	 2.245868e-01	 2.154216e+01
 1.130921e+00	 2.373305e-01	 2.140758e+01
 1.128169e+00	 2.500868e-01	 2.126674e+01
 1.147724e+00	 1.876516e-01	 2.166452e+01
 1.145562e+00	 2.004239e-01	 2.155961e+01
 1.143250e+00	 2.132164e-01	 2.144554e+01
 1.140787e+00	 2.260265e-01	 2.132311e+01
 1.138171e+00	 2.388519e-01	 2.119325e+01
 1.135401e+00	 2.516899e-01	 2.105695e+01
 1.155034e+00	 1.888468e-01	 2.143671e+01
 1.152859e+00	 2.017005e-01	 2.133639e+01
 1.150532e+00	 2.145744e-01	 2.122695e+01
 1.148053e+00	 2.274662e-01	 2.110917e+01
 1.145420e+00	 2.403732e-01	 2.098389e+01
 1.142633e+00	 2.532930e-01	 2.085207e+01
 1.162344e+00	 1.900420e-01	 2.121459e+01
 1.160156e+00	 2.029771e-01	 2.111861e+01
 1.157814e+00	 2.159325e-01	 2.101361e+01
 1.155319e+00	 2.289058e-01	 2.090029e+01
 1.152670e+00	 2.418946e-01	 2.077946e+01
 1.149865e+00	 2.548962e-01	 2.065204e+01
 1.169655e+00	 1.912373e-01	 2.099803e+01
 1.167452e+00	 2.042537e-01	 2.090621e+01
 1.165096e+00	 2.172906e-01	 2.080545e+01
 1.162585e+00	 2.303455e-01	 2.069643e+01
 1.159919e+00	 2.434159e-01	 2.057992e+01
 1.157096e+00	 2.564993e-01	 2.045680e+01
 1.120937e+00	 2.484837e-01	 2.148149e+01
 1.118050e+00	 2.611682e-01	 2.132914e+01
 1.115009e+00	 2.738601e-01	 2.116946e+01
 1.111814e+00	 2.865570e-01	 2.100444e+01
 1.108463e+00	 2.992560e-01	 2.083518e+01
 1.104956e+00	 3.119546e-01	 2.066122e+01
 1.128169e+00	 2.500868e-01	 2.126674e+01
 1.125263e+00	 2.628531e-01	 2.111901e+01
 1.122202e+00	 2.756270e-01	 2.096421e+01
 1.118986e+00	 2.884057e-01	 2.080416e+01
 1.115614e+00	 3.011867e-01	 2.064080e+01
 1.112085e+00	 3.139672e-01	 2.047614e+01
 1.135401e+00	 2.516899e-01	 2.105695e+01
 1.132476e+00	 2.645381e-01	 2.091398e+01
 1.129396e+00	 2.773938e-01	 2.076451e+01
 1.126159e+00	 2.902545e-01	 2.061025e+01
 1.122766e+00	 3.031174e-01	 2.045306e+01
 1.119214e+00	 3.159798e-01	 2.029487e+01
 1.142633e+00	 2.532930e-01	 2.085207e+01
 1.139689e+00	 2.662231e-01	 2.071393e+01
 1.136590e+00	 2.791607e-01	 2.057008e+01
 1.133332e+00	 2.921032e-01	 2.042218e+01
 1.129917e+00	 3.050481e-01	 2.027205e+01
 1.126343e+00	 3.179924e-01	 2.012157e+01
 1.149865e+00	 2.548962e-01	 2.065204e+01
 1.146903e+00	 2.679080e-01	 2.051873e+01
 1.143783e+00	 2.809275e-01	 2.038064e+01
 1.140505e+00	 2.939520e-01	 2.023943e+01
 1.137068e+00	 3.069787e-01	 2.009690e+01
 1.133471e+00	 3.200050e-01	 1.995496e+01
 1.157096e+00	 2.564993e-01	 2.045680e+01
 1.154116e+00	 2.695930e-01	 2.032825e+01
 1.150977e+00	 2.826943e-01	 2.019590e+01
 1.147678e+00	 2.958007e-01	 2.006146e+01
 1.144220e+00	 3.089094e-01	 1.992677e+01
 1.140600e+00	 3.220177e-01	 1.979378e+01
 1.104956e+00	 3.119546e-01	 2.066122e+01
 1.101293e+00	 3.246501e-01	 2.047783e+01
 1.097473e+00	 3.373396e-01	 2.028103e+01
 1.093494e+00	 3.500206e-01	 2.007286e+01
 1.089358e+00	 3.626901e-01	 1.985499e+01
 1.085062e+00	 3.753454e-01	 1.963324e+01
 1.112085e+00	 3.139672e-01	 2.047614e+01
 1.108398e+00	 3.267446e-01	 2.030358e+01
 1.104553e+00	 3.395160e-01	 2.011519e+01
 1.100549e+00	 3.522788e-01	 1.991304e+01
 1.096386e+00	 3.650300e-01	 1.969900e+01
 1.092063e+00	 3.777670e-01	 1.948440e+01
 1.119214e+00	 3.159798e-01	 2.029487e+01
 1.115503e+00	 3.288391e-01	 2.012818e+01
 1.111634e+00	 3.416924e-01	 1.994663e+01
 1.107604e+00	 3.545370e-01	 1.975167e+01
 1.103414e+00	 3.673700e-01	 1.954245e+01
 1.099063e+00	 3.801886e-01	 1.933779e+01
 1.126343e+00	 3.179924e-01	 2.012157e+01
 1.122608e+00	 3.309336e-01	 1.996118e+01
 1.118714e+00	 3.438688e-01	 1.978244e+01
 1.114659e+00	 3.567952e-01	 1.958884e+01
 1.110442e+00	 3.697099e-01	 1.938345e+01
 1.106063e+00	 3.826102e-01	 1.919169e+01
 1.133471e+00	 3.200050e-01	 1.995496e+01
 1.129714e+00	 3.330281e-01	 1.980198e+01
 1.125794e+00	 3.460452e-01	 1.962743e+01
 1.121713e+00	 3.590534e-01	 1.943470e+01
 1.117470e+00	 3.720499e-01	 1.922742e+01
 1.113064e+00	 3.850317e-01	 1.904511e+01
 1.140600e+00	 3.220177e-01	 1.979378e+01
 1.136819e+00	 3.351226e-01	 1.964895e+01
 1.132875e+00	 3.482216e-01	 1.947969e+01
 1.128768e+00	 3.613116e-01	 1.928924e+01
 1.124498e+00	 3.743898e-01	 1.908346e+01
 1.120064e+00	 3.874533e-01	 1.890809e+01
 1.085062e+00	 3.753454e-01	 1.963324e+01
 1.080608e+00	 3.879836e-01	 1.942200e+01
 1.075994e+00	 4.006019e-01	 1.920288e+01
 1.071220e+00	 4.131974e-01	 1.897538e+01
 1.066286e+00	 4.257671e-01	 1.873870e+01
 1.061193e+00	 4.383082e-01	 1.849169e+01
 1.092063e+00	 3.777670e-01	 1.948440e+01
 1.087579e+00	 3.904867e-01	 1.928425e+01
 1.082936e+00	 4.031864e-01	 1.907470e+01
 1.078131e+00	 4.158632e-01	 1.885550e+01
 1.073166e+00	 4.285140e-01	 1.862609e+01
 1.068039e+00	 4.411360e-01	 1.838560e+01
 1.099063e+00	 3.801886e-01	 1.933779e+01
 1.094551e+00	 3.929899e-01	 1.914924e+01
 1.089877e+00	 4.057710e-01	 1.894958e+01
 1.085042e+00	 4.185290e-01	 1.873880e+01
 1.080045e+00	 4.312609e-01	 1.851657e+01
 1.074886e+00	 4.439638e-01	 1.828227e+01
 1.106063e+00	 3.826102e-01	 1.919169e+01
 1.101523e+00	 3.954930e-01	 1.901553e+01
 1.096819e+00	 4.083555e-01	 1.882640e+01
 1.091953e+00	 4.211947e-01	 1.862451e+01
 1.086924e+00	 4.340078e-01	 1.840976e+01
 1.081732e+00	 4.467916e-01	 1.818177e+01
 1.113064e+00	 3.850317e-01	 1.904511e+01
 1.108494e+00	 3.979961e-01	 1.888174e+01
 1.103761e+00	 4.109400e-01	 1.870407e+01
 1.098864e+00	 4.238605e-01	 1.851188e+01
 1.093803e+00	 4.367547e-01	 1.830529e+01
 1.088578e+00	 4.496194e-01	 1.808413e+01
 1.120064e+00	 3.874533e-01	 1.890809e+01
 1.115466e+00	 4.004992e-01	 1.874978e+01
 1.110703e+00	 4.135246e-01	 1.858151e+01
 1.105775e+00	 4.265263e-01	 1.840016e+01
 1.100683e+00	 4.395015e-01	 1.820277e+01
 1.095425e+00	 4.524472e-01	 1.798939e+01
 1.061193e+00	 4.383082e-01	 1.849169e+01
 1.055939e+00	 4.508177e-01	 1.823961e+01
 1.050526e+00	 4.632927e-01	 1.798703e+01
 1.044952e+00	 4.757302e-01	 1.773140e+01
 1.039219e+00	 4.881272e-01	 1.746998e+01
 1.033326e+00	 5.004808e-01	 1.719981e+01
 1.068039e+00	 4.411360e-01	 1.838560e+01
 1.062752e+00	 4.537262e-01	 1.814028e+01
 1.057303e+00	 4.662817e-01	 1.789547e+01
 1.051694e+00	 4.787995e-01	 1.764845e+01
 1.045924e+00	 4.912765e-01	 1.739631e+01
 1.039993e+00	 5.037097e-01	 1.713594e+01
 1.074886e+00	 4.439638e-01	 1.828227e+01
 1.069564e+00	 4.566347e-01	 1.804320e+01
 1.064081e+00	 4.692707e-01	 1.780556e+01
 1.058435e+00	 4.818687e-01	 1.756658e+01
 1.052628e+00	 4.944257e-01	 1.732330e+01
 1.046659e+00	 5.069386e-01	 1.707250e+01
 1.081732e+00	 4.467916e-01	 1.818177e+01
 1.076377e+00	 4.595433e-01	 1.794880e+01
 1.070858e+00	 4.722597e-01	 1.771791e+01
 1.065177e+00	 4.849379e-01	 1.748642e+01
 1.059333e+00	 4.975749e-01	 1.725139e+01
 1.053326e+00	 5.101675e-01	 1.700961e+01
 1.088578e+00	 4.496194e-01	 1.808413e+01
 1.083189e+00	 4.624518e-01	 1.785747e+01
 1.077636e+00	 4.752487e-01	 1.763312e+01
 1.071919e+00	 4.880071e-01	 1.740856e+01
 1.066037e+00	 5.007241e-01	 1.718101e+01
 1.059993e+00	 5.133965e-01	 1.694735e+01
 1.095425e+00	 4.524472e-01	 1.798939e+01
 1.090002e+00	 4.653603e-01	 1.776958e+01
 1.084414e+00	 4.782377e-01	 1.755170e+01
 1.078660e+00	 4.910764e-01	 1.733355e+01
 1.072742e+00	 5.038733e-01	 1.711255e+01
 1.066659e+00	 5.166254e-01	 1.688578e+01
 1.033326e+00	 5.004808e-01	 1.719981e+01
 1.027274e+00	 5.127880e-01	 1.692642e+01
 1.021064e+00	 5.250457e-01	 1.665496e+01
 1.014695e+00	 5.372509e-01	 1.638150e+01
 1.008168e+00	 5.494008e-01	 1.610190e+01
 1.001484e+00	 5.614923e-01	 1.581175e+01
 1.039993e+00	 5.037097e-01	 1.713594e+01
 1.033902e+00	 5.160963e-01	 1.687233e+01
 1.027651e+00	 5.284331e-01	 1.661018e+01
 1.021241e+00	 5.407171e-01	 1.634554e+01
 1.014672e+00	 5.529453e-01	 1.607419e+01
 1.007945e+00	 5.651148e-01	 1.579160e+01
 1.046659e+00	 5.069386e-01	 1.707250e+01
 1.040530e+00	 5.194046e-01	 1.681863e+01
 1.034239e+00	 5.318204e-01	 1.656578e+01
 1.027788e+00	 5.441832e-01	 1.630989e+01
 1.021177e+00	 5.564899e-01	 1.604658e+01
 1.014407e+00	 5.687374e-01	 1.577116e+01
 1.053326e+00	 5.101675e-01	 1.700961e+01
 1.047157e+00	 5.227129e-01	 1.676507e+01
 1.040826e+00	 5.352078e-01	 1.652128e+01
 1.034334e+00	 5.476494e-01	 1.627397e+01
 1.027681e+00	 5.600344e-01	 1.601854e+01
 1.020868e+00	 5.723599e-01	 1.575009e+01
 1.059993e+00	 5.133965e-01	 1.694735e+01
 1.053785e+00	 5.260212e-01	 1.671138e+01
 1.047414e+00	 5.385952e-01	 1.647618e+01
 1.040880e+00	 5.511155e-01	 1.623720e+01
 1.034185e+00	 5.635789e-01	 1.598954e+01
 1.027329e+00	 5.759824e-01	 1.572804e+01
 1.066659e+00	 5.166254e-01	 1.688578e+01
 1.060412e+00	 5.293295e-01	 1.665725e+01
 1.054001e+00	 5.419826e-01	 1.642995e+01
 1.047427e+00	 5.545816e-01	 1.619895e+01
 1.040690e+00	 5.671234e-01	 1.595901e+01
 1.033790e+00	 5.796049e-01	 1.570461e+01
 1.001484e+00	 5.614923e-01	 1.581175e+01
 9.946438e-01	 5.735224e-01	 1.551911e+01
 9.876476e-01	 5.854881e-01	 1.523184e+01
 9.804966e-01	 5.973865e-01	 1.494488e+01
 9.731915e-01	 6.092146e-01	 1.465313e+01
 9.657334e-01	 6.209695e-01	 1.435139e+01
 1.007945e+00	 5.651148e-01	 1.579160e+01
 1.001061e+00	 5.772225e-01	 1.550649e+01
 9.940195e-01	 5.892655e-01	 1.522727e+01
 9.868224e-01	 6.012406e-01	 1.494872e+01
 9.794702e-01	 6.131451e-01	 1.466553e+01
 9.719639e-01	 6.249758e-01	 1.437235e+01
 1.014407e+00	 5.687374e-01	 1.577116e+01
 1.007478e+00	 5.809227e-01	 1.549306e+01
 1.000391e+00	 5.930428e-01	 1.522143e+01
 9.931481e-01	 6.050947e-01	 1.495092e+01
 9.857488e-01	 6.170755e-01	 1.467608e+01
 9.781945e-01	 6.289820e-01	 1.439142e+01
 1.020868e+00	 5.723599e-01	 1.575009e+01
 1.013895e+00	 5.846228e-01	 1.547871e+01
 1.006763e+00	 5.968201e-01	 1.521434e+01
 9.994739e-01	 6.089488e-01	 1.495154e+01
 9.920275e-01	 6.210059e-01	 1.468479e+01
 9.844250e-01	 6.329883e-01	 1.440844e+01
 1.027329e+00	 5.759824e-01	 1.572804e+01
 1.020312e+00	 5.883230e-01	 1.546330e+01
 1.013135e+00	 6.005975e-01	 1.520598e+01
 1.005800e+00	 6.128029e-01	 1.495062e+01
 9.983061e-01	 6.249363e-01	 1.469161e+01
 9.906556e-01	 6.369946e-01	 1.442325e+01
 1.033790e+00	 5.796049e-01	 1.570461e+01
 1.026729e+00	 5.920231e-01	 1.544665e+01
 1.019507e+00	 6.043748e-01	 1.519631e+01
 1.012125e+00	 6.166570e-01	 1.494812e+01
 1.004585e+00	 6.288667e-01	 1.469647e+01
 9.968861e-01	 6.410008e-01	 1.443562e+01
 9.657334e-01	 6.209695e-01	 1.435139e+01
 9.581233e-01	 6.326483e-01	 1.404774e+01
 9.503624e-01	 6.442480e-01	 1.375049e+01
 9.424518e-01	 6.557658e-01	 1.345487e+01
 9.343929e-01	 6.671987e-01	 1.315619e+01
 9.261869e-01	 6.785441e-01	 1.284990e+01
 9.719639e-01	 6.249758e-01	 1.437235e+01
 9.643048e-01	 6.367299e-01	 1.407719e+01
 9.564938e-01	 6.484044e-01	 1.378820e+01
 9.485322e-01	 6.599965e-01	 1.350029e+01
 9.404212e-01	 6.715032e-01	 1.320841e+01
 9.321623e-01	 6.829218e-01	 1.290762e+01
 9.781945e-01	 6.289820e-01	 1.439142e+01
 9.704862e-01	 6.408115e-01	 1.410477e+01
 9.626251e-01	 6.525609e-01	 1.382401e+01
 9.546125e-01	 6.642273e-01	 1.354364e+01
 9.464495e-01	 6.758078e-01	 1.325822e+01
 9.381377e-01	 6.872995e-01	 1.296239e+01
 9.844250e-01	 6.329883e-01	 1.440844e+01
 9.766677e-01	 6.448931e-01	 1.413018e+01
 9.687565e-01	 6.567173e-01	 1.385750e+01
 9.606928e-01	 6.684580e-01	 1.358448e+01
 9.524779e-01	 6.801123e-01	 1.330522e+01
 9.441131e-01	 6.916772e-01	 1.301389e+01
 9.906556e-01	 6.369946e-01	 1.442325e+01
 9.828491e-01	 6.489747e-01	 1.415309e+01
 9.748879e-01	 6.608737e-01	 1.388824e+01
 9.667732e-01	 6.726888e-01	 1.362232e+01
 9.585062e-01	 6.844168e-01	 1.334894e+01
 9.500885e-01	 6.960549e-01	 1.306179e+01
 9.968861e-01	 6.410008e-01	 1.443562e+01
 9.890305e-01	 6.530563e-01	 1.417310e+01
 9.810193e-01	 6.650302e-01	 1.391575e+01
 9.728535e-01	 6.769195e-01	 1.365665e+01
 9.645346e-01	 6.887213e-01	 1.338892e+01
 9.560638e-01	 7.004326e-01	 1.310569e+01
 9.261869e-01	 6.785441e-01	 1.284990e+01
 9.178352e-01	 6.897990e-01	 1.254187e+01
 9.093395e-01	 7.009607e-01	 1.223935e+01
 9.007011e-01	 7.120264e-01	 1.194038e+01
 8.919218e-01	 7.229935e-01	 1.164346e+01
 8.830033e-01	 7.338593e-01	 1.134763e+01
 9.321623e-01	 6.829218e-01	 1.290762e+01
 9.237567e-01	 6.942493e-01	 1.260476e+01
 9.152062e-01	 7.054830e-01	 1.230840e+01
 9.065121e-01	 7.166202e-01	 1.201663e+01
 8.976762e-01	 7.276580e-01	 1.172806e+01
 8.887001e-01	 7.385938e-01	 1.144188e+01
 9.381377e-01	 6.872995e-01	 1.296239e+01
 9.296783e-01	 6.986996e-01	 1.266423e+01
 9.210729e-01	 7.100054e-01	 1.237395e+01
 9.123231e-01	 7.212139e-01	 1.208978e+01
 9.034305e-01	 7.323225e-01	 1.181051e+01
 8.943969e-01	 7.433284e-01	 1.153483e+01
 9.441131e-01	 6.916772e-01	 1.301389e+01
 9.355998e-01	 7.031499e-01	 1.272010e+01
 9.269396e-01	 7.145277e-01	 1.243596e+01
 9.181340e-01	 7.258076e-01	 1.215993e+01
 9.091848e-01	 7.369869e-01	 1.189106e+01
 9.000936e-01	 7.480630e-01	 1.162264e+01
 9.500885e-01	 6.960549e-01	 1.306179e+01
 9.415213e-01	 7.076003e-01	 1.277215e+01
 9.328063e-01	 7.190500e-01	 1.249435e+01
 9.239450e-01	 7.304013e-01	 1.222712e+01
 9.149392e-01	 7.416514e-01	 1.196975e+01
 9.057904e-01	 7.527976e-01	 1.170380e+01
 9.560638e-01	 7.004326e-01	 1.310569e+01
 9.474428e-01	 7.120506e-01	 1.282012e+01
 9.386730e-01	 7.235723e-01	 1.254898e+01
 9.297560e-01	 7.349950e-01	 1.229137e+01
 9.206935e-01	 7.463159e-01	 1.204223e+01
 9.114872e-01	 7.575321e-01	 1.177725e+01
 8.830033e-01	 7.338593e-01	 1.134763e+01
 8.739472e-01	 7.446210e-01	 1.105162e+01
 8.647555e-01	 7.552762e-01	 1.074600e+01
 8.554299e-01	 7.658223e-01	 1.043728e+01
 8.459726e-01	 7.762568e-01	 1.013670e+01
 8.363854e-01	 7.865772e-01	 9.855910e+00
 8.887001e-01	 7.385938e-01	 1.144188e+01
 8.795856e-01	 7.494250e-01	 1.115106e+01
 8.703345e-01	 7.601490e-01	 1.084768e+01
 8.609488e-01	 7.707631e-01	 1.054206e+01
 8.514305e-01	 7.812649e-01	 1.024547e+01
 8.417814e-01	 7.916518e-01	 9.969566e+00
 8.943969e-01	 7.433284e-01	 1.153483e+01
 8.852239e-01	 7.542290e-01	 1.124639e+01
 8.759136e-01	 7.650217e-01	 1.094580e+01
 8.664677e-01	 7.757039e-01	 1.064378e+01
 8.568883e-01	 7.862730e-01	 1.035152e+01
 8.471775e-01	 7.967265e-01	 1.008062e+01
 9.000936e-01	 7.480630e-01	 1.162264e+01
 8.908623e-01	 7.590330e-01	 1.133669e+01
 8.814927e-01	 7.698945e-01	 1.103946e+01
 8.719866e-01	 7.806447e-01	 1.074152e+01
 8.623462e-01	 7.912811e-01	 1.045390e+01
 8.525735e-01	 8.018012e-01	 1.018802e+01
 9.057904e-01	 7.527976e-01	 1.170380e+01
 8.965007e-01	 7.638371e-01	 1.142099e+01
 8.870717e-01	 7.747672e-01	 1.112774e+01
 8.775055e-01	 7.855855e-01	 1.083437e+01
 8.678041e-01	 7.962892e-01	 1.055164e+01
 8.579695e-01	 8.068759e-01	 1.029069e+01
 9.114872e-01	 7.575321e-01	 1.177725e+01
 9.021390e-01	 7.686411e-01	 1.149832e+01
 8.926508e-01	 7.796400e-01	 1.120970e+01
 8.830244e-01	 7.905263e-01	 1.092136e+01
 8.732620e-01	 8.012973e-01	 1.064371e+01
 8.633656e-01	 8.119506e-01	 1.038752e+01
 8.363854e-01	 7.865772e-01	 9.855910e+00
 8.266705e-01	 7.967811e-01	 9.576888e+00
 8.168300e-01	 8.068661e-01	 9.281791e+00
 8.068661e-01	 8.168300e-01	 8.982813e+00
 7.967811e-01	 8.266705e-01	 8.692108e+00
 7.865772e-01	 8.363854e-01	 8.421716e+00
 8.417814e-01	 7.916518e-01	 9.969566e+00
 8.320039e-01	 8.019216e-01	 9.695547e+00
 8.220999e-01	 8.120717e-01	 9.404894e+00
 8.120717e-01	 8.220999e-01	 9.110014e+00
 8.019216e-01	 8.320039e-01	 8.823281e+00
 7.916518e-01	 8.417814e-01	 8.556948e+00
 8.471775e-01	 7.967265e-01	 1.008062e+01
 8.373372e-01	 8.070621e-01	 9.811495e+00
 8.273697e-01	 8.172773e-01	 9.525082e+00
 8.172773e-01	 8.273697e-01	 9.234048e+00
 8.070621e-01	 8.373372e-01	 8.951035e+00
 7.967265e-01	 8.471775e-01	 8.688567e+00
 8.525735e-01	 8.018012e-01	 1.018802e+01
 8.426706e-01	 8.122026e-01	 9.923577e+00
 8.326396e-01	 8.224829e-01	 9.641127e+00
 8.224829e-01	 8.326396e-01	 9.353646e+00
 8.122026e-01	 8.426706e-01	 9.074091e+00
 8.018012e-01	 8.525735e-01	 8.815312e+00
 8.579695e-01	 8.068759e-01	 1.029069e+01
 8.480039e-01	 8.173431e-01	 1.003061e+01
 8.379095e-01	 8.276885e-01	 9.751780e+00
 8.276885e-01	 8.379095e-01	 9.467517e+00
 8.173431e-01	 8.480039e-01	 9.191149e+00
 8.068759e-01	 8.579695e-01	 8.935898e+00
 8.633656e-01	 8.119506e-01	 1.038752e+01
 8.533373e-01	 8.224837e-01	 1.013140e+01
 8.431794e-01	 8.328940e-01	 9.855769e+00
 8.328940e-01	 8.431794e-01	 9.574349e+00
 8.224837e-01	 8.533373e-01	 9.300883e+00
 8.119506e-01	 8.633656e-01	 9.049017e+00
 7.865772e-01	 8.363854e-01	 8.421716e+00
 7.762568e-01	 8.459726e-01	 8.157957e+00
 7.658223e-01	 8.554299e-01	 7.883724e+00
 7.552762e-01	 8.647555e-01	 7.605323e+00
 7.446210e-01	 8.739472e-01	 7.328409e+00
 7.338593e-01	 8.830033e-01	 7.057490e+00
 7.916518e-01	 8.417814e-01	 8.556948e+00
 7.812649e-01	 8.514305e-01	 8.296326e+00
 7.707631e-01	 8.609488e-01	 8.023572e+00
 7.601490e-01	 8.703345e-01	 7.745630e+00
 7.494250e-01	 8.795856e-01	 7.468798e+00
 7.385938e-01	 8.887001e-01	 7.198622e+00
 7.967265e-01	 8.471775e-01	 8.688567e+00
 7.862730e-01	 8.568883e-01	 8.431078e+00
 7.757039e-01	 8.664677e-01	 8.160049e+00
 7.650217e-01	 8.759136e-01	 7.882996e+00
 7.542290e-01	 8.852239e-01	 7.606794e+00
 7.433284e-01	 8.943969e-01	 7.337597e+00
 8.018012e-01	 8.525735e-01	 8.815312e+00
 7.912811e-01	 8.623462e-01	 8.560966e+00
 7.806447e-01	 8.719866e-01	 8.291882e+00
 7.698945e-01	 8.814927e-01	 8.016086e+00
 7.590330e-01	 8.908623e-01	 7.740962e+00
 7.480630e-01	 9.000936e-01	 7.473168e+00
 8.068759e-01	 8.579695e-01	 8.935898e+00
 7.962892e-01	 8.678041e-01	 8.684717e+00
 7.855855e-01	 8.775055e-01	 8.417771e+00
 7.747672e-01	 8.870717e-01	 8.143538e+00
 7.638371e-01	 8.965007e-01	 7.869844e+00
 7.527976e-01	 9.057904e-01	 7.603783e+00
 8.119506e-01	 8.633656e-01	 9.049017e+00
 8.012973e-01	 8.732620e-01	 8.801031e+00
 7.905263e-01	 8.830244e-01	 8.536392e+00
 7.796400e-01	 8.926508e-01	 8.263964e+00
 7.686411e-01	 9.021390e-01	 7.991956e+00
 7.575321e-01	 9.114872e-01	 7.727830e+00
 7.338593e-01	 8.830033e-01	 7.057490e+00
 7.229935e-01	 8.919218e-01	 6.796004e+00
 7.120264e-01	 9.007011e-01	 6.544847e+00
 7.009607e-01	 9.093395e-01	 6.300668e+00
 6.897990e-01	 9.178352e-01	 6.059033e+00
 6.785441e-01	 9.261869e-01	 5.814443e+00
 7.385938e-01	 8.887001e-01	 7.198622e+00
 7.276580e-01	 8.976762e-01	 6.939681e+00
 7.166202e-01	 9.065121e-01	 6.691671e+00
 7.054830e-01	 9.152062e-01	 6.450328e+00
 6.942493e-01	 9.237567e-01	 6.210233e+00
 6.829218e-01	 9.321623e-01	 5.964837e+00
 7.433284e-01	 8.943969e-01	 7.337597e+00
 7.323225e-01	 9.034305e-01	 7.080962e+00
 7.212139e-01	 9.123231e-01	 6.835476e+00
 7.100054e-01	 9.210729e-01	 6.596145e+00
 6.986996e-01	 9.296783e-01	 6.356803e+00
 6.872995e-01	 9.381377e-01	 6.110094e+00
 7.480630e-01	 9.000936e-01	 7.473168e+00
 7.369869e-01	 9.091848e-01	 7.218318e+00
 7.258076e-01	 9.181340e-01	 6.974762e+00
 7.145277e-01	 9.269396e-01	 6.736770e+00
 7.031499e-01	 9.355998e-01	 6.497661e+00
 6.916772e-01	 9.441131e-01	 6.249514e+00
 7.527976e-01	 9.057904e-01	 7.603783e+00
 7.416514e-01	 9.149392e-01	 7.350216e+00
 7.304013e-01	 9.239450e-01	 7.108015e+00
 7.190500e-01	 9.328063e-01	 6.870835e+00
 7.076003e-01	 9.415213e-01	 6.631700e+00
 6.960549e-01	 9.500885e-01	 6.382361e+00
 7.575321e-01	 9.114872e-01	 7.727830e+00
 7.463159e-01	 9.206935e-01	 7.475402e+00
 7.349950e-01	 9.297560e-01	 7.233703e+00
 7.235723e-01	 9.386730e-01	 6.996951e+00
 7.120506e-01	 9.474428e-01	 6.757788e+00
 7.004326e-01	 9.560638e-01	 6.507867e+00
 6.785441e-01	 9.261869e-01	 5.814443e+00
 6.671987e-01	 9.343929e-01	 5.570870e+00
 6.557658e-01	 9.424518e-01	 5.335338e+00
 6.442480e-01	 9.503624e-01	 5.105595e+00
 6.326483e-01	 9.581233e-01	 4.878670e+00
 6.209695e-01	 9.657334e-01	 4.650902e+00
 6.829218e-01	 9.321623e-01	 5.964837e+00
 6.715032e-01	 9.404212e-01	 5.718877e+00
 6.599965e-01	 9.485322e-01	 5.481056e+00
 6.484044e-01	 9.564938e-01	 5.249392e+00
 6.367299e-01	 9.643048e-01	 5.021180e+00
 6.249758e-01	 9.719639e-01	 4.793023e+00
 6.872995e-01	 9.381377e-01	 6.110094e+00
 6.758078e-01	 9.464495e-01	 5.861954e+00
 6.642273e-01	 9.546125e-01	 5.622771e+00
 6.525609e-01	 9.626251e-01	 5.390423e+00
 6.408115e-01	 9.704862e-01	 5.162047e+00
 6.289820e-01	 9.781945e-01	 4.934071e+00
 6.916772e-01	 9.441131e-01	 6.249514e+00
 6.801123e-01	 9.524779e-01	 5.999734e+00
 6.684580e-01	 9.606928e-01	 5.760239e+00
 6.567173e-01	 9.687565e-01	 5.528369e+00
 6.448931e-01	 9.766677e-01	 5.300688e+00
 6.329883e-01	 9.844250e-01	 5.073016e+00
 6.960549e-01	 9.500885e-01	 6.382361e+00
 6.844168e-01	 9.585062e-01	 6.131802e+00
 6.726888e-01	 9.667732e-01	 5.893168e+00
 6.608737e-01	 9.748879e-01	 5.662869e+00
 6.489747e-01	 9.828491e-01	 5.436486e+00
 6.369946e-01	 9.906556e-01	 5.208806e+00
 7.004326e-01	 9.560638e-01	 6.507867e+00
 6.887213e-01	 9.645346e-01	 6.257707e+00
 6.769195e-01	 9.728535e-01	 6.021225e+00
 6.650302e-01	 9.810193e-01	 5.793520e+00
 6.530563e-01	 9.890305e-01	 5.568788e+00
 6.410008e-01	 9.968861e-01	 5.340369e+00
 6.209695e-01	 9.657334e-01	 4.650902e+00
 6.092146e-01	 9.731915e-01	 4.430649e+00
 5.973865e-01	 9.804966e-01	 4.225267e+00
 5.854881e-01	 9.876476e-01	 4.028644e+00
 5.735224e-01	 9.946438e-01	 3.834107e+00
 5.614923e-01	 1.001484e+00	 3.634466e+00
 6.249758e-01	 9.719639e-01	 4.793023e+00
 6.131451e-01	 9.794702e-01	 4.573221e+00
 6.012406e-01	 9.868224e-01	 4.368396e+00
 5.892655e-01	 9.940195e-01	 4.171663e+00
 5.772225e-01	 1.001061e+00	 3.975536e+00
 5.651148e-01	 1.007945e+00	 3.771976e+00
 6.289820e-01	 9.781945e-01	 4.934071e+00
 6.170755e-01	 9.857488e-01	 4.714295e+00
 6.050947e-01	 9.931481e-01	 4.508825e+00
 5.930428e-01	 1.000391e+00	 4.310542e+00
 5.809227e-01	 1.007478e+00	 4.111710e+00
 5.687374e-01	 1.014407e+00	 3.904020e+00
 6.329883e-01	 9.844250e-01	 5.073016e+00
 6.210059e-01	 9.920275e-01	 4.852443e+00
 6.089488e-01	 9.994739e-01	 4.644990e+00
 5.968201e-01	 1.006763e+00	 4.443836e+00
 5.846228e-01	 1.013895e+00	 4.241542e+00
 5.723599e-01	 1.020868e+00	 4.030099e+00
 6.369946e-01	 9.906556e-01	 5.208806e+00
 6.249363e-01	 9.983061e-01	 4.986227e+00
 6.128029e-01	 1.005800e+00	 4.775322e+00
 6.005975e-01	 1.013135e+00	 4.570089e+00
 5.883230e-01	 1.020312e+00	 4.363927e+00
 5.759824e-01	 1.027329e+00	 4.149682e+00
 6.410008e-01	 9.968861e-01	 5.340369e+00
 6.288667e-01	 1.004585e+00	 5.114196e+00
 6.166570e-01	 1.012125e+00	 4.898244e+00
 6.043748e-01	 1.019507e+00	 4.687838e+00
 5.920231e-01	 1.026729e+00	 4.477745e+00
 5.796049e-01	 1.033790e+00	 4.262209e+00
 5.614923e-01	 1.001484e+00	 3.634466e+00
 5.494008e-01	 1.008168e+00	 3.435576e+00
 5.372509e-01	 1.014695e+00	 3.246706e+00
 5.250457e-01	 1.021064e+00	 3.065252e+00
 5.127880e-01	 1.027274e+00	 2.888402e+00
 5.004808e-01	 1.033326e+00	 2.713172e+00
 5.651148e-01	 1.007945e+00	 3.771976e+00
 5.529453e-01	 1.014672e+00	 3.567513e+00
 5.407171e-01	 1.021241e+00	 3.373113e+00
 5.284331e-01	 1.027651e+00	 3.186849e+00
 5.160963e-01	 1.033902e+00	 3.006603e+00
 5.037097e-01	 1.039993e+00	 2.830103e+00
 5.687374e-01	 1.014407e+00	 3.904020e+00
 5.564899e-01	 1.021177e+00	 3.695240e+00
 5.441832e-01	 1.027788e+00	 3.497648e+00
 5.318204e-01	 1.034239e+00	 3.309147e+00
 5.194046e-01	 1.040530e+00	 3.127446e+00
 5.069386e-01	 1.046659e+00	 2.950101e+00
 5.723599e-01	 1.020868e+00	 4.030099e+00
 5.600344e-01	 1.027681e+00	 3.818789e+00
 5.476494e-01	 1.034334e+00	 3.620555e+00
 5.352078e-01	 1.040826e+00	 3.432298e+00
 5.227129e-01	 1.047157e+00	 3.250704e+00
 5.101675e-01	 1.053326e+00	 3.072286e+00
 5.759824e-01	 1.027329e+00	 4.149682e+00
 5.635789e-01	 1.034185e+00	 3.938151e+00
 5.511155e-01	 1.040880e+00	 3.742031e+00
 5.385952e-01	 1.047414e+00	 3.556411e+00
 5.260212e-01	 1.053785e+00	 3.376119e+00
 5.133965e-01	 1.059993e+00	 3.195767e+00
 5.796049e-01	 1.033790e+00	 4.262209e+00
 5.671234e-01	 1.040690e+00	 4.053275e+00
 5.545816e-01	 1.047427e+00	 3.862231e+00
 5.419826e-01	 1.054001e+00	 3.681556e+00
 5.293295e-01	 1.060412e+00	 3.503400e+00
 5.166254e-01	 1.066659e+00	 3.319639e+00
 5.004808e-01	 1.033326e+00	 2.713172e+00
 4.881272e-01	 1.039219e+00	 2.546948e+00
 4.757302e-01	 1.044952e+00	 2.394908e+00
 4.632927e-01	 1.050526e+00	 2.250574e+00
 4.508177e-01	 1.055939e+00	 2.107418e+00
 4.383082e-01	 1.061193e+00	 1.958898e+00
 5.037097e-01	 1.039993e+00	 2.830103e+00
 4.912765e-01	 1.045924e+00	 2.664623e+00
 4.787995e-01	 1.051694e+00	 2.513942e+00
 4.662817e-01	 1.057303e+00	 2.370368e+00
 4.537262e-01	 1.062752e+00	 2.226137e+00
 4.411360e-01	 1.068039e+00	 2.073459e+00
 5.069386e-01	 1.046659e+00	 2.950101e+00
 4.944257e-01	 1.052628e+00	 2.783520e+00
 4.818687e-01	 1.058435e+00	 2.630663e+00
 4.692707e-01	 1.064081e+00	 2.483728e+00
 4.566347e-01	 1.069564e+00	 2.334838e+00
 4.439638e-01	 1.074886e+00	 2.176092e+00
 5.101675e-01	 1.053326e+00	 3.072286e+00
 4.975749e-01	 1.059333e+00	 2.902157e+00
 4.849379e-01	 1.065177e+00	 2.743325e+00
 4.722597e-01	 1.070858e+00	 2.588960e+00
 4.595433e-01	 1.076377e+00	 2.432174e+00
 4.467916e-01	 1.081732e+00	 2.266072e+00
 5.133965e-01	 1.059993e+00	 3.195767e+00
 5.007241e-01	 1.066037e+00	 3.019055e+00
 4.880071e-01	 1.071919e+00	 2.850193e+00
 4.752487e-01	 1.077636e+00	 2.684383e+00
 4.624518e-01	 1.083189e+00	 2.516806e+00
 4.496194e-01	 1.088578e+00	 2.342663e+00
 5.166254e-01	 1.066659e+00	 3.319639e+00
 5.038733e-01	 1.072742e+00	 3.132738e+00
 4.910764e-01	 1.078660e+00	 2.949544e+00
 4.782377e-01	 1.084414e+00	 2.768329e+00
 4.653603e-01	 1.090002e+00	 2.587398e+00
 4.524472e-01	 1.095425e+00	 2.405123e+00
 4.383082e-01	 1.061193e+00	 1.958898e+00
 4.257671e-01	 1.066286e+00	 1.806732e+00
 4.131974e-01	 1.071220e+00	 1.659056e+00
 4.006019e-01	 1.075994e+00	 1.519136e+00
 3.879836e-01	 1.080608e+00	 1.390452e+00
 3.753454e-01	 1.085062e+00	 1.276726e+00
 4.411360e-01	 1.068039e+00	 2.073459e+00
 4.285140e-01	 1.073166e+00	 1.914414e+00
 4.158632e-01	 1.078131e+00	 1.758848e+00
 4.031864e-01	 1.082936e+00	 1.610793e+00
 3.904867e-01	 1.087579e+00	 1.474508e+00
 3.777670e-01	 1.092063e+00	 1.354500e+00
 4.439638e-01	 1.074886e+00	 2.176092e+00
 4.312609e-01	 1.080045e+00	 2.010975e+00
 4.185290e-01	 1.085042e+00	 1.851091e+00
 4.057710e-01	 1.089877e+00	 1.700894e+00
 3.929899e-01	 1.094551e+00	 1.565076e+00
 3.801886e-01	 1.099063e+00	 1.448578e+00
 4.467916e-01	 1.081732e+00	 2.266072e+00
 4.340078e-01	 1.086924e+00	 2.096394e+00
 4.211947e-01	 1.091953e+00	 1.936385e+00
 4.083555e-01	 1.096819e+00	 1.790585e+00
 3.954930e-01	 1.101523e+00	 1.663776e+00
 3.826102e-01	 1.106063e+00	 1.560991e+00
 4.496194e-01	 1.088578e+00	 2.342663e+00
 4.367547e-01	 1.093803e+00	 2.170626e+00
 4.238605e-01	 1.098864e+00	 2.015293e+00
 4.109400e-01	 1.103761e+00	 1.880963e+00
 3.979961e-01	 1.108494e+00	 1.772171e+00
 3.850317e-01	 1.113064e+00	 1.690042e+00
 4.524472e-01	 1.095425e+00	 2.405123e+00
 4.395015e-01	 1.100683e+00	 2.233601e+00
 4.265263e-01	 1.105775e+00	 2.088342e+00
 4.135246e-01	 1.110703e+00	 1.973076e+00
 4.004992e-01	 1.115466e+00	 1.873068e+00
 3.874533e-01	 1.120064e+00	 1.771246e+00
 3.753454e-01	 1.085062e+00	 1.276726e+00
 3.626901e-01	 1.089358e+00	 1.162449e+00
 3.500206e-01	 1.093494e+00	 1.037170e+00
 3.373396e-01	 1.097473e+00	 9.108308e-01
 3.246501e-01	 1.101293e+00	 7.942076e-01
 3.119546e-01	 1.104956e+00	 6.991813e-01
 3.777670e-01	 1.092063e+00	 1.354500e+00
 3.650300e-01	 1.096386e+00	 1.234988e+00
 3.522788e-01	 1.100549e+00	 1.105052e+00
 3.395160e-01	 1.104553e+00	 9.764903e-01
 3.267446e-01	 1.108398e+00	 8.617796e-01
 3.139672e-01	 1.112085e+00	 7.738028e-01
 3.801886e-01	 1.099063e+00	 1.448578e+00
 3.673700e-01	 1.103414e+00	 1.335326e+00
 3.545370e-01	 1.107604e+00	 1.212840e+00
 3.416924e-01	 1.111634e+00	 1.093592e+00
 3.288391e-01	 1.115503e+00	 9.754311e-01
 3.159798e-01	 1.119214e+00	 8.678672e-01
 3.826102e-01	 1.106063e+00	 1.560991e+00
 3.697099e-01	 1.110442e+00	 1.465689e+00
 3.567952e-01	 1.114659e+00	 1.351462e+00
 3.438688e-01	 1.118714e+00	 1.214403e+00
 3.309336e-01	 1.122608e+00	 1.073961e+00
 3.179924e-01	 1.126343e+00	 9.509932e-01
 3.850317e-01	 1.113064e+00	 1.690042e+00
 3.720499e-01	 1.117470e+00	 1.590284e+00
 3.590534e-01	 1.121713e+00	 1.454970e+00
 3.460452e-01	 1.125794e+00	 1.302222e+00
 3.330281e-01	 1.129714e+00	 1.151421e+00
 3.200050e-01	 1.133471e+00	 1.022879e+00
 3.874533e-01	 1.120064e+00	 1.771246e+00
 3.743898e-01	 1.124498e+00	 1.656022e+00
 3.613116e-01	 1.128768e+00	 1.512945e+00
 3.482216e-01	 1.132875e+00	 1.357540e+00
 3.351226e-01	 1.136819e+00	 1.207969e+00
 3.220177e-01	 1.140600e+00	 1.083202e+00
 3.119546e-01	 1.104956e+00	 6.991813e-01
 2.992560e-01	 1.108463e+00	 6.253528e-01
 2.865570e-01	 1.111814e+00	 5.615946e-01
 2.738601e-01	 1.115009e+00	 4.963338e-01
 2.611682e-01	 1.118050e+00	 4.271892e-01
 2.484837e-01	 1.120937e+00	 3.574056e-01
 3.139672e-01	 1.112085e+00	 7.738028e-01
 3.011867e-01	 1.115614e+00	 6.984303e-01
 2.884057e-01	 1.118986e+00	 6.212420e-01
 2.756270e-01	 1.122202e+00	 5.432635e-01
 2.628531e-01	 1.125263e+00	 4.658937e-01
 2.500868e-01	 1.128169e+00	 3.908075e-01
 3.159798e-01	 1.119214e+00	 8.678672e-01
 3.031174e-01	 1.122766e+00	 7.743247e-01
 2.902545e-01	 1.126159e+00	 6.838838e-01
 2.773938e-01	 1.129396e+00	 5.965763e-01
 2.645381e-01	 1.132476e+00	 5.127825e-01
 2.516899e-01	 1.135401e+00	 4.331374e-01
 3.179924e-01	 1.126343e+00	 9.509932e-01
 3.050481e-01	 1.129917e+00	 8.469290e-01
 2.921032e-01	 1.133332e+00	 7.483794e-01
 2.791607e-01	 1.136590e+00	 6.548991e-01
 2.662231e-01	 1.139689e+00	 5.663683e-01
 2.532930e-01	 1.142633e+00	 4.829003e-01
 3.200050e-01	 1.133471e+00	 1.022879e+00
 3.069787e-01	 1.137068e+00	 9.154515e-01
 2.939520e-01	 1.140505e+00	 8.135837e-01
 2.809275e-01	 1.143783e+00	 7.168595e-01
 2.679080e-01	 1.146903e+00	 6.251662e-01
 2.548962e-01	 1.149865e+00	 5.386036e-01
 3.220177e-01	 1.140600e+00	 1.083202e+00
 3.089094e-01	 1.144220e+00	 9.790902e-01
 2.958007e-01	 1.147678e+00	 8.783484e-01
 2.826943e-01	 1.150977e+00	 7.810859e-01
 2.695930e-01	 1.154116e+00	 6.876946e-01
 2.564993e-01	 1.157096e+00	 5.987581e-01
 2.484837e-01	 1.120937e+00	 3.574056e-01
 2.358092e-01	 1.123672e+00	 2.867264e-01
 2.231472e-01	 1.126255e+00	 2.145096e-01
 2.105002e-01	 1.128687e+00	 1.436448e-01
 1.978707e-01	 1.130969e+00	 7.704810e-02
 1.852611e-01	 1.133103e+00	 1.760997e-02
 2.500868e-01	 1.128169e+00	 3.908075e-01
 2.373305e-01	 1.130921e+00	 3.164814e-01
 2.245868e-01	 1.133521e+00	 2.419230e-01
 2.118583e-01	 1.135969e+00	 1.698015e-01
 1.991473e-01	 1.138266e+00	 1.027977e-01
 1.864563e-01	 1.140413e+00	 4.355623e-02
 2.516899e-01	 1.135401e+00	 4.331374e-01
 2.388519e-01	 1.138171e+00	 3.553683e-01
 2.260265e-01	 1.140787e+00	 2.783369e-01
 2.132164e-01	 1.143250e+00	 2.045497e-01
 2.004239e-01	 1.145562e+00	 1.365102e-01
 1.876516e-01	 1.147724e+00	 7.667350e-02
 2.532930e-01	 1.142633e+00	 4.829003e-01
 2.403732e-01	 1.145420e+00	 4.019473e-01
 2.274662e-01	 1.148053e+00	 3.223912e-01
 2.145744e-01	 1.150532e+00	 2.466321e-01
 2.017005e-01	 1.152859e+00	 1.770515e-01
 1.888468e-01	 1.155034e+00	 1.159698e-01
 2.548962e-01	 1.149865e+00	 5.386036e-01
 2.418946e-01	 1.152670e+00	 4.547799e-01
 2.289058e-01	 1.155319e+00	 3.727263e-01
 2.159325e-01	 1.157814e+00	 2.947905e-01
 2.029771e-01	 1.160156e+00	 2.232855e-01
 1.900420e-01	 1.162344e+00	 1.604491e-01
 2.564993e-01	 1.157096e+00	 5.987581e-01
 2.434159e-01	 1.159919e+00	 5.124297e-01
 2.303455e-01	 1.162585e+00	 4.279832e-01
 2.172906e-01	 1.165096e+00	 3.477661e-01
 2.042537e-01	 1.167452e+00	 2.740737e-01
 1.912373e-01	 1.169655e+00	 2.091117e-01
 1.852611e-01	 1.133103e+00	 1.760997e-02
 1.726737e-01	 1.135089e+00	-3.529476e-02
 1.601108e-01	 1.136930e+00	-8.415615e-02
 1.475748e-01	 1.138625e+00	-1.290230e-01
 1.350678e-01	 1.140176e+00	-1.700889e-01
 1.225920e-01	 1.141585e+00	-2.077100e-01
 1.864563e-01	 1.140413e+00	 4.355623e-02
 1.737877e-01	 1.142413e+00	-8.959428e-03
 1.611438e-01	 1.144265e+00	-5.751738e-02
 1.485269e-01	 1.145971e+00	-1.022188e-01
 1.359392e-01	 1.147532e+00	-1.433061e-01
 1.233829e-01	 1.148950e+00	-1.811780e-01
 1.876516e-01	 1.147724e+00	 7.667350e-02
 1.749017e-01	 1.149736e+00	 2.368138e-02
 1.621768e-01	 1.151600e+00	-2.542915e-02
 1.494790e-01	 1.153316e+00	-7.076610e-02
 1.368106e-01	 1.154888e+00	-1.125770e-01
 1.241738e-01	 1.156315e+00	-1.512611e-01
 1.888468e-01	 1.155034e+00	 1.159698e-01
 1.760158e-01	 1.157059e+00	 6.178341e-02
 1.632097e-01	 1.158935e+00	 1.140520e-02
 1.504311e-01	 1.160662e+00	-3.523617e-02
 1.376820e-01	 1.162244e+00	-7.835183e-02
 1.249647e-01	 1.163680e+00	-1.183016e-01
 1.900420e-01	 1.162344e+00	 1.604491e-01
 1.771298e-01	 1.164382e+00	 1.044970e-01
 1.642427e-01	 1.166270e+00	 5.227580e-02
 1.513831e-01	 1.168008e+00	 3.792412e-03
 1.385534e-01	 1.169600e+00	-4.108834e-02
 1.257557e-01	 1.171045e+00	-8.264917e-02
 1.912373e-01	 1.169655e+00	 2.091117e-01
 1.782438e-01	 1.171705e+00	 1.509669e-01
 1.652757e-01	 1.173605e+00	 9.646625e-02
 1.523352e-01	 1.175354e+00	 4.573393e-02
 1.394248e-01	 1.176956e+00	-1.251745e-03
 1.265466e-01	 1.178410e+00	-4.466064e-02
 1.225920e-01	 1.141585e+00	-2.077100e-01
 1.101496e-01	 1.142852e+00	-2.421837e-01
 9.774267e-02	 1.143980e+00	-2.730557e-01
 8.537327e-02	 1.144970e+00	-2.998528e-01
 7.304338e-02	 1.145822e+00	-3.223328e-01
 6.075496e-02	 1.146540e+00	-3.404962e-01
 1.233829e-01	 1.148950e+00	-1.811780e-01
 1.108602e-01	 1.150225e+00	-2.161109e-01
 9.837327e-02	 1.151361e+00	-2.475690e-01
 8.592406e-02	 1.152357e+00	-2.750146e-01
 7.351463e-02	 1.153215e+00	-2.981269e-01
 6.114693e-02	 1.153937e+00	-3.168114e-01
 1.241738e-01	 1.156315e+00	-1.512611e-01
 1.115709e-01	 1.157599e+00	-1.870577e-01
 9.900387e-02	 1.158741e+00	-2.193851e-01
 8.647486e-02	 1.159743e+00	-2.476786e-01
 7.398587e-02	 1.160607e+00	-2.715755e-01
 6.153890e-02	 1.161334e+00	-2.909220e-01
 1.249647e-01	 1.163680e+00	-1.183016e-01
 1.122815e-01	 1.164972e+00	-1.552685e-01
 9.963447e-02	 1.166122e+00	-1.886576e-01
 8.702565e-02	 1.167130e+00	-2.179151e-01
 7.445712e-02	 1.168000e+00	-2.426736e-01
 6.193086e-02	 1.168731e+00	-2.627561e-01
 1.257557e-01	 1.171045e+00	-8.264917e-02
 1.129922e-01	 1.172345e+00	-1.209950e-01
 1.002651e-01	 1.173502e+00	-1.555467e-01
 8.757645e-02	 1.174517e+00	-1.858001e-01
 7.492837e-02	 1.175392e+00	-2.114210e-01
 6.232283e-02	 1.176128e+00	-2.322458e-01
 1.265466e-01	 1.178410e+00	-4.466064e-02
 1.137028e-01	 1.179718e+00	-8.449575e-02
 1.008957e-01	 1.180883e+00	-1.202189e-01
 8.812724e-02	 1.181904e+00	-1.514153e-01
 7.539962e-02	 1.182784e+00	-1.778225e-01
 6.271480e-02	 1.183525e+00	-1.993279e-01
 6.075496e-02	 1.146540e+00	-3.404962e-01
 4.850992e-02	 1.147123e+00	-3.553078e-01
 3.631012e-02	 1.147574e+00	-3.671364e-01
 2.415737e-02	 1.147894e+00	-3.755136e-01
 1.205342e-02	 1.148085e+00	-3.802986e-01
 0.000000e+00	 1.148148e+00	-3.816959e-01
 6.114693e-02	 1.153937e+00	-3.168114e-01
 4.882289e-02	 1.154524e+00	-3.319985e-01
 3.654438e-02	 1.154978e+00	-3.441276e-01
 2.431322e-02	 1.155300e+00	-3.527576e-01
 1.213119e-02	 1.155492e+00	-3.577463e-01
 0.000000e+00	 1.155556e+00	-3.592656e-01
 6.153890e-02	 1.161334e+00	-2.909220e-01
 4.913586e-02	 1.161924e+00	-3.066289e-01
 3.677864e-02	 1.162381e+00	-3.191801e-01
 2.446908e-02	 1.162706e+00	-3.281361e-01
 1.220895e-02	 1.162899e+00	-3.333267e-01
 0.000000e+00	 1.162963e+00	-3.348647e-01
 6.193086e-02	 1.168731e+00	-2.627561e-01
 4.944883e-02	 1.169325e+00	-2.790729e-01
 3.701290e-02	 1.169785e+00	-2.921321e-01
 2.462493e-02	 1.170111e+00	-3.014710e-01
 1.228672e-02	 1.170306e+00	-3.068665e-01
 0.000000e+00	 1.170370e+00	-3.083477e-01
 6.232283e-02	 1.176128e+00	-2.322458e-01
 4.976179e-02	 1.176726e+00	-2.492081e-01
 3.724716e-02	 1.177189e+00	-2.628243e-01
 2.478079e-02	 1.177517e+00	-2.725855e-01
 1.236448e-02	 1.177713e+00	-2.781929e-01
 0.000000e+00	 1.177778e+00	-2.795677e-01
 6.271480e-02	 1.183525e+00	-1.993279e-01
 5.007476e-02	 1.184127e+00	-2.169156e-01
 3.748142e-02	 1.184592e+00	-2.310998e-01
 2.493664e-02	 1.184923e+00	-2.413045e-01
 1.244224e-02	 1.185120e+00	-2.471330e-01
 0.000000e+00	 1.185185e+00	-2.483768e-01
 1.185185e+00	 0.000000e+00	 2.166704e+01
 1.185120e+00	 1.244224e-02	 2.166221e+01
 1.184923e+00	 2.493664e-02	 2.165325e+01
 1.184592e+00	 3.748142e-02	 2.163928e+01
 1.184127e+00	 5.007476e-02	 2.161952e+01
 1.183525e+00	 6.271480e-02	 2.159329e+01
 1.192593e+00	 0.000000e+00	 2.142901e+01
 1.192527e+00	 1.252001e-02	 2.142425e+01
 1.192329e+00	 2.509249e-02	 2.141562e+01
 1.191996e+00	 3.771568e-02	 2.140225e+01
 1.191528e+00	 5.038773e-02	 2.138335e+01
 1.190922e+00	 6.310677e-02	 2.135823e+01
 1.200000e+00	 0.000000e+00	 2.119793e+01
 1.199934e+00	 1.259777e-02	 2.119322e+01
 1.199734e+00	 2.524835e-02	 2.118490e+01
 1.199400e+00	 3.794994e-02	 2.117210e+01
 1.198928e+00	 5.070070e-02	 2.115403e+01
 1.198319e+00	 6.349873e-02	 2.112999e+01
 1.207407e+00	 0.000000e+00	 2.097342e+01
 1.207341e+00	 1.267554e-02	 2.096875e+01
 1.207140e+00	 2.540420e-02	 2.096074e+01
 1.206803e+00	 3.818419e-02	 2.094850e+01
 1.206329e+00	 5.101366e-02	 2.093124e+01
 1.205716e+00	 6.389070e-02	 2.090823e+01
 1.214815e+00	 0.000000e+00	 2.075514e+01
 1.214748e+00	 1.275330e-02	 2.075051e+01
 1.214546e+00	 2.556006e-02	 2.074279e+01
 1.214207e+00	 3.841845e-02	 2.073111e+01
 1.213730e+00	 5.132663e-02	 2.071464e+01
 1.213113e+00	 6.428267e-02	 2.069264e+01
 1.222222e+00	 0.000000e+00	 2.054273e+01
 1.222155e+00	 1.283106e-02	 2.053814e+01
 1.221952e+00	 2.571591e-02	 2.053072e+01
 1.221611e+00	 3.865271e-02	 2.051958e+01
 1.221131e+00	 5.163960e-02	 2.050390e+01
 1.220510e+00	 6.467464e-02	 2.048289e+01
 1.183525e+00	 6.271480e-02	 2.159329e+01
 1.182784e+00	 7.539962e-02	 2.156104e+01
 1.181904e+00	 8.812724e-02	 2.152317e+01
 1.180883e+00	 1.008957e-01	 2.147907e+01
 1.179718e+00	 1.137028e-01	 2.142824e+01
 1.178410e+00	 1.265466e-01	 2.137029e+01
 1.190922e+00	 6.310677e-02	 2.135823e+01
 1.190177e+00	 7.587086e-02	 2.132735e+01
 1.189291e+00	 8.867804e-02	 2.129110e+01
 1.188263e+00	 1.015263e-01	 2.124885e+01
 1.187092e+00	 1.144135e-01	 2.120004e+01
 1.185775e+00	 1.273375e-01	 2.114424e+01
 1.198319e+00	 6.349873e-02	 2.112999e+01
 1.197569e+00	 7.634211e-02	 2.110043e+01
 1.196678e+00	 8.922883e-02	 2.106573e+01
 1.195644e+00	 1.021569e-01	 2.102524e+01
 1.194465e+00	 1.151241e-01	 2.097837e+01
 1.193140e+00	 1.281284e-01	 2.092465e+01
 1.205716e+00	 6.389070e-02	 2.090823e+01
 1.204962e+00	 7.681336e-02	 2.087994e+01
 1.204065e+00	 8.977963e-02	 2.084675e+01
 1.203024e+00	 1.027875e-01	 2.080796e+01
 1.201838e+00	 1.158347e-01	 2.076297e+01
 1.200505e+00	 1.289193e-01	 2.071127e+01
 1.213113e+00	 6.428267e-02	 2.069264e+01
 1.212354e+00	 7.728461e-02	 2.066558e+01
 1.211452e+00	 9.033042e-02	 2.063384e+01
 1.210405e+00	 1.034181e-01	 2.059670e+01
 1.209211e+00	 1.165454e-01	 2.055355e+01
 1.207870e+00	 1.297102e-01	 2.050385e+01
 1.220510e+00	 6.467464e-02	 2.048289e+01
 1.219746e+00	 7.775585e-02	 2.045702e+01
 1.218839e+00	 9.088122e-02	 2.042670e+01
 1.217785e+00	 1.040487e-01	 2.039119e+01
 1.216585e+00	 1.172560e-01	 2.034985e+01
 1.215235e+00	 1.305012e-01	 2.030213e+01
 1.178410e+00	 1.265466e-01	 2.137029e+01
 1.176956e+00	 1.394248e-01	 2.130617e+01
 1.175354e+00	 1.523352e-01	 2.123692e+01
 1.173605e+00	 1.652757e-01	 2.116243e+01
 1.171705e+00	 1.782438e-01	 2.108275e+01
 1.169655e+00	 1.912373e-01	 2.099803e+01
 1.185775e+00	 1.273375e-01	 2.114424e+01
 1.184312e+00	 1.402962e-01	 2.108249e+01
 1.182700e+00	 1.532873e-01	 2.101596e+01
 1.180940e+00	 1.663087e-01	 2.094454e+01
 1.179028e+00	 1.793578e-01	 2.086828e+01
 1.176965e+00	 1.924325e-01	 2.078734e+01
 1.193140e+00	 1.281284e-01	 2.092465e+01
 1.191668e+00	 1.411676e-01	 2.086521e+01
 1.190046e+00	 1.542394e-01	 2.080134e+01
 1.188275e+00	 1.673416e-01	 2.073294e+01
 1.186352e+00	 1.804719e-01	 2.066003e+01
 1.184275e+00	 1.936277e-01	 2.058277e+01
 1.200505e+00	 1.289193e-01	 2.071127e+01
 1.199024e+00	 1.420390e-01	 2.065410e+01
 1.197392e+00	 1.551915e-01	 2.059285e+01
 1.195610e+00	 1.683746e-01	 2.052740e+01
 1.193675e+00	 1.815859e-01	 2.045776e+01
 1.191586e+00	 1.948230e-01	 2.038410e+01
 1.207870e+00	 1.297102e-01	 2.050385e+01
 1.206380e+00	 1.429104e-01	 2.044892e+01
 1.204738e+00	 1.561436e-01	 2.039025e+01
 1.202945e+00	 1.694076e-01	 2.032771e+01
 1.200998e+00	 1.826999e-01	 2.026129e+01
 1.198896e+00	 1.960182e-01	 2.019111e+01
 1.215235e+00	 1.305012e-01	 2.030213e+01
 1.213736e+00	 1.437818e-01	 2.024943e+01
 1.212084e+00	 1.570957e-01	 2.019333e+01
 1.210280e+00	 1.704405e-01	 2.013366e+01
 1.208321e+00	 1.838139e-01	 2.007038e+01
 1.206206e+00	 1.972134e-01	 2.000359e+01
 1.169655e+00	 1.912373e-01	 2.099803e+01
 1.167452e+00	 2.042537e-01	 2.090621e+01
 1.165096e+00	 2.172906e-01	 2.080545e+01
 1.162585e+00	 2.303455e-01	 2.069643e+01
 1.159919e+00	 2.434159e-01	 2.057992e+01
 1.157096e+00	 2.564993e-01	 2.045680e+01
 1.176965e+00	 1.924325e-01	 2.078734e+01
 1.174749e+00	 2.055302e-01	 2.069954e+01
 1.172378e+00	 2.186486e-01	 2.060286e+01
 1.169852e+00	 2.317851e-01	 2.049796e+01
 1.167169e+00	 2.449373e-01	 2.038560e+01
 1.164328e+00	 2.581024e-01	 2.026662e+01
 1.184275e+00	 1.936277e-01	 2.058277e+01
 1.182045e+00	 2.068068e-01	 2.049885e+01
 1.179660e+00	 2.200067e-01	 2.040610e+01
 1.177118e+00	 2.332248e-01	 2.030516e+01
 1.174418e+00	 2.464586e-01	 2.019676e+01
 1.171560e+00	 2.597055e-01	 2.008172e+01
 1.191586e+00	 1.948230e-01	 2.038410e+01
 1.189342e+00	 2.080834e-01	 2.030393e+01
 1.186942e+00	 2.213648e-01	 2.021498e+01
 1.184384e+00	 2.346645e-01	 2.011783e+01
 1.181668e+00	 2.479800e-01	 2.001321e+01
 1.178792e+00	 2.613086e-01	 1.990195e+01
 1.198896e+00	 1.960182e-01	 2.019111e+01
 1.196638e+00	 2.093600e-01	 2.011458e+01
 1.194223e+00	 2.227228e-01	 2.002927e+01
 1.191650e+00	 2.361041e-01	 1.993577e+01
 1.188917e+00	 2.495013e-01	 1.983479e+01
 1.186024e+00	 2.629118e-01	 1.972717e+01
 1.206206e+00	 1.972134e-01	 2.000359e+01
 1.203935e+00	 2.106366e-01	 1.993057e+01
 1.201505e+00	 2.240809e-01	 1.984877e+01
 1.198916e+00	 2.375438e-01	 1.975879e+01
 1.196167e+00	 2.510227e-01	 1.966133e+01
 1.193256e+00	 2.645149e-01	 1.955723e+01
 1.157096e+00	 2.564993e-01	 2.045680e+01
 1.154116e+00	 2.695930e-01	 2.032825e+01
 1.150977e+00	 2.826943e-01	 2.019590e+01
 1.147678e+00	 2.958007e-01	 2.006146e+01
 1.144220e+00	 3.089094e-01	 1.992677e+01
 1.140600e+00	 3.220177e-01	 1.979378e+01
 1.164328e+00	 2.581024e-01	 2.026662e+01
 1.161329e+00	 2.712779e-01	 2.014264e+01
 1.158171e+00	 2.844612e-01	 2.001576e+01
 1.154851e+00	 2.976495e-01	 1.988776e+01
 1.151371e+00	 3.108401e-01	 1.976053e+01
 1.147729e+00	 3.240303e-01	 1.963605e+01
 1.171560e+00	 2.597055e-01	 2.008172e+01
 1.168542e+00	 2.729629e-01	 1.996206e+01
 1.165364e+00	 2.862280e-01	 1.984030e+01
 1.162024e+00	 2.994982e-01	 1.971823e+01
 1.158523e+00	 3.127708e-01	 1.959774e+01
 1.154858e+00	 3.260429e-01	 1.948087e+01
 1.178792e+00	 2.613086e-01	 1.990195e+01
 1.175756e+00	 2.746478e-01	 1.978642e+01
 1.172558e+00	 2.879949e-01	 1.966949e+01
 1.169197e+00	 3.013470e-01	 1.955293e+01
 1.165674e+00	 3.147015e-01	 1.943866e+01
 1.161986e+00	 3.280555e-01	 1.932867e+01
 1.186024e+00	 2.629118e-01	 1.972717e+01
 1.182969e+00	 2.763328e-01	 1.961561e+01
 1.179751e+00	 2.897617e-01	 1.950330e+01
 1.176370e+00	 3.031958e-01	 1.939197e+01
 1.172825e+00	 3.166322e-01	 1.928348e+01
 1.169115e+00	 3.300681e-01	 1.917982e+01
 1.193256e+00	 2.645149e-01	 1.955723e+01
 1.190182e+00	 2.780177e-01	 1.944953e+01
 1.186945e+00	 2.915285e-01	 1.934170e+01
 1.183543e+00	 3.050445e-01	 1.923539e+01
 1.179977e+00	 3.185628e-01	 1.913242e+01
 1.176244e+00	 3.320807e-01	 1.903470e+01
 1.140600e+00	 3.220177e-01	 1.979378e+01
 1.136819e+00	 3.351226e-01	 1.964895e+01
 1.132875e+00	 3.482216e-01	 1.947969e+01
 1.128768e+00	 3.613116e-01	 1.928924e+01
 1.124498e+00	 3.743898e-01	 1.908346e+01
 1.120064e+00	 3.874533e-01	 1.890809e+01
 1.147729e+00	 3.240303e-01	 1.963605e+01
 1.143924e+00	 3.372172e-01	 1.949909e+01
 1.139955e+00	 3.503979e-01	 1.933524e+01
 1.135823e+00	 3.635698e-01	 1.914761e+01
 1.131526e+00	 3.767297e-01	 1.894625e+01
 1.127065e+00	 3.898749e-01	 1.877920e+01
 1.154858e+00	 3.260429e-01	 1.948087e+01
 1.151029e+00	 3.393117e-01	 1.935085e+01
 1.147036e+00	 3.525743e-01	 1.919170e+01
 1.142878e+00	 3.658280e-01	 1.900653e+01
 1.138554e+00	 3.790697e-01	 1.881159e+01
 1.134065e+00	 3.922965e-01	 1.865351e+01
 1.161986e+00	 3.280555e-01	 1.932867e+01
 1.158134e+00	 3.414062e-01	 1.920476e+01
 1.154116e+00	 3.547507e-01	 1.904958e+01
 1.149933e+00	 3.680862e-01	 1.886635e+01
 1.145583e+00	 3.814096e-01	 1.867945e+01
 1.141065e+00	 3.947181e-01	 1.853045e+01
 1.169115e+00	 3.300681e-01	 1.917982e+01
 1.165239e+00	 3.435007e-01	 1.906132e+01
 1.161197e+00	 3.569271e-01	 1.890934e+01
 1.156988e+00	 3.703444e-01	 1.872736e+01
 1.152611e+00	 3.837495e-01	 1.854976e+01
 1.148066e+00	 3.971397e-01	 1.840948e+01
 1.176244e+00	 3.320807e-01	 1.903470e+01
 1.172344e+00	 3.455952e-01	 1.892102e+01
 1.168277e+00	 3.591035e-01	 1.877147e+01
 1.164042e+00	 3.726026e-01	 1.859075e+01
 1.159639e+00	 3.860895e-01	 1.842243e+01
 1.155066e+00	 3.995612e-01	 1.829003e+01
 1.120064e+00	 3.874533e-01	 1.890809e+01
 1.115466e+00	 4.004992e-01	 1.874978e+01
 1.110703e+00	 4.135246e-01	 1.858151e+01
 1.105775e+00	 4.265263e-01	 1.840016e+01
 1.100683e+00	 4.395015e-01	 1.820277e+01
 1.095425e+00	 4.524472e-01	 1.798939e+01
 1.127065e+00	 3.898749e-01	 1.877920e+01
 1.122438e+00	 4.030023e-01	 1.862647e+01
 1.117645e+00	 4.161091e-01	 1.846111e+01
 1.112686e+00	 4.291921e-01	 1.828527e+01
 1.107562e+00	 4.422484e-01	 1.809853e+01
 1.102271e+00	 4.552750e-01	 1.789490e+01
 1.134065e+00	 3.922965e-01	 1.865351e+01
 1.129409e+00	 4.055055e-01	 1.850757e+01
 1.124587e+00	 4.186936e-01	 1.834683e+01
 1.119598e+00	 4.318579e-01	 1.817358e+01
 1.114441e+00	 4.449953e-01	 1.798982e+01
 1.109118e+00	 4.581028e-01	 1.779650e+01
 1.141065e+00	 3.947181e-01	 1.853045e+01
 1.136381e+00	 4.080086e-01	 1.839199e+01
 1.131529e+00	 4.212781e-01	 1.823714e+01
 1.126509e+00	 4.345237e-01	 1.806823e+01
 1.121320e+00	 4.477422e-01	 1.788733e+01
 1.115964e+00	 4.609306e-01	 1.769622e+01
 1.148066e+00	 3.971397e-01	 1.840948e+01
 1.143353e+00	 4.105117e-01	 1.827864e+01
 1.138471e+00	 4.238627e-01	 1.813049e+01
 1.133420e+00	 4.371895e-01	 1.796730e+01
 1.128200e+00	 4.504891e-01	 1.779110e+01
 1.122810e+00	 4.637584e-01	 1.760371e+01
 1.155066e+00	 3.995612e-01	 1.829003e+01
 1.150324e+00	 4.130148e-01	 1.816644e+01
 1.145413e+00	 4.264472e-01	 1.802534e+01
 1.140331e+00	 4.398553e-01	 1.786885e+01
 1.135079e+00	 4.532360e-01	 1.769890e+01
 1.129657e+00	 4.665862e-01	 1.751723e+01
 1.095425e+00	 4.524472e-01	 1.798939e+01
 1.090002e+00	 4.653603e-01	 1.776958e+01
 1.084414e+00	 4.782377e-01	 1.755170e+01
 1.078660e+00	 4.910764e-01	 1.733355e+01
 1.072742e+00	 5.038733e-01	 1.711255e+01
 1.066659e+00	 5.166254e-01	 1.688578e+01
 1.102271e+00	 4.552750e-01	 1.789490e+01
 1.096814e+00	 4.682688e-01	 1.768356e+01
 1.091191e+00	 4.812266e-01	 1.747308e+01
 1.085402e+00	 4.941456e-01	 1.726153e+01
 1.079447e+00	 5.070225e-01	 1.704662e+01
 1.073326e+00	 5.198543e-01	 1.682561e+01
 1.109118e+00	 4.581028e-01	 1.779650e+01
 1.103627e+00	 4.711773e-01	 1.759607e+01
 1.097969e+00	 4.842156e-01	 1.739480e+01
 1.092144e+00	 4.972148e-01	 1.719104e+01
 1.086151e+00	 5.101717e-01	 1.698268e+01
 1.079993e+00	 5.230832e-01	 1.676712e+01
 1.115964e+00	 4.609306e-01	 1.769622e+01
 1.110439e+00	 4.740858e-01	 1.750474e+01
 1.104746e+00	 4.872046e-01	 1.731466e+01
 1.098885e+00	 5.002840e-01	 1.712019e+01
 1.092856e+00	 5.133209e-01	 1.691935e+01
 1.086659e+00	 5.263121e-01	 1.670971e+01
 1.122810e+00	 4.637584e-01	 1.760371e+01
 1.117252e+00	 4.769943e-01	 1.741413e+01
 1.111524e+00	 4.901936e-01	 1.723048e+01
 1.105627e+00	 5.033533e-01	 1.704707e+01
 1.099561e+00	 5.164701e-01	 1.685530e+01
 1.093326e+00	 5.295410e-01	 1.665275e+01
 1.129657e+00	 4.665862e-01	 1.751723e+01
 1.124064e+00	 4.799028e-01	 1.733168e+01
 1.118301e+00	 4.931826e-01	 1.714933e+01
 1.112368e+00	 5.064225e-01	 1.697013e+01
 1.106265e+00	 5.196193e-01	 1.678914e+01
 1.099992e+00	 5.327699e-01	 1.659557e+01
 1.066659e+00	 5.166254e-01	 1.688578e+01
 1.060412e+00	 5.293295e-01	 1.665725e+01
 1.054001e+00	 5.419826e-01	 1.642995e+01
 1.047427e+00	 5.545816e-01	 1.619895e+01
 1.040690e+00	 5.671234e-01	 1.595901e+01
 1.033790e+00	 5.796049e-01	 1.570461e+01
 1.073326e+00	 5.198543e-01	 1.682561e+01
 1.067040e+00	 5.326378e-01	 1.660322e+01
 1.060589e+00	 5.453700e-01	 1.638286e+01
 1.053973e+00	 5.580478e-01	 1.615925e+01
 1.047194e+00	 5.706680e-01	 1.592684e+01
 1.040251e+00	 5.832275e-01	 1.567982e+01
 1.079993e+00	 5.230832e-01	 1.676712e+01
 1.073667e+00	 5.359461e-01	 1.655012e+01
 1.067176e+00	 5.487574e-01	 1.633590e+01
 1.060520e+00	 5.615139e-01	 1.611903e+01
 1.053698e+00	 5.742125e-01	 1.589379e+01
 1.046713e+00	 5.868500e-01	 1.565413e+01
 1.086659e+00	 5.263121e-01	 1.670971e+01
 1.080295e+00	 5.392544e-01	 1.649807e+01
 1.073764e+00	 5.521448e-01	 1.628966e+01
 1.067066e+00	 5.649800e-01	 1.607907e+01
 1.060203e+00	 5.777570e-01	 1.586050e+01
 1.053174e+00	 5.904725e-01	 1.562786e+01
 1.093326e+00	 5.295410e-01	 1.665275e+01
 1.086923e+00	 5.425627e-01	 1.644713e+01
 1.080351e+00	 5.555322e-01	 1.624465e+01
 1.073613e+00	 5.684462e-01	 1.604004e+01
 1.066707e+00	 5.813015e-01	 1.582760e+01
 1.059635e+00	 5.940951e-01	 1.560125e+01
 1.099992e+00	 5.327699e-01	 1.659557e+01
 1.093550e+00	 5.458710e-01	 1.639733e+01
 1.086939e+00	 5.589196e-01	 1.620132e+01
 1.080159e+00	 5.719123e-01	 1.600258e+01
 1.073211e+00	 5.848460e-01	 1.579562e+01
 1.066096e+00	 5.977176e-01	 1.557450e+01
 1.033790e+00	 5.796049e-01	 1.570461e+01
 1.026729e+00	 5.920231e-01	 1.544665e+01
 1.019507e+00	 6.043748e-01	 1.519631e+01
 1.012125e+00	 6.166570e-01	 1.494812e+01
 1.004585e+00	 6.288667e-01	 1.469647e+01
 9.968861e-01	 6.410008e-01	 1.443562e+01
 1.040251e+00	 5.832275e-01	 1.567982e+01
 1.033146e+00	 5.957233e-01	 1.542907e+01
 1.025879e+00	 6.081522e-01	 1.518596e+01
 1.018451e+00	 6.205112e-01	 1.494501e+01
 1.010863e+00	 6.327971e-01	 1.470054e+01
 1.003117e+00	 6.450071e-01	 1.444668e+01
 1.046713e+00	 5.868500e-01	 1.565413e+01
 1.039563e+00	 5.994234e-01	 1.541089e+01
 1.032251e+00	 6.119295e-01	 1.517535e+01
 1.024777e+00	 6.243653e-01	 1.494186e+01
 1.017142e+00	 6.367276e-01	 1.470453e+01
 1.009347e+00	 6.490133e-01	 1.445726e+01
 1.053174e+00	 5.904725e-01	 1.562786e+01
 1.045980e+00	 6.031235e-01	 1.539197e+01
 1.038623e+00	 6.157069e-01	 1.516401e+01
 1.031103e+00	 6.282194e-01	 1.493799e+01
 1.023421e+00	 6.406580e-01	 1.470767e+01
 1.015578e+00	 6.530196e-01	 1.446660e+01
 1.059635e+00	 5.940951e-01	 1.560125e+01
 1.052397e+00	 6.068237e-01	 1.537212e+01
 1.044995e+00	 6.194842e-01	 1.515142e+01
 1.037429e+00	 6.320735e-01	 1.493267e+01
 1.029699e+00	 6.445884e-01	 1.470915e+01
 1.021808e+00	 6.570258e-01	 1.447393e+01
 1.066096e+00	 5.977176e-01	 1.557450e+01
 1.058814e+00	 6.105238e-01	 1.535113e+01
 1.051367e+00	 6.232615e-01	 1.513704e+01
 1.043754e+00	 6.359276e-01	 1.492515e+01
 1.035978e+00	 6.485188e-01	 1.470814e+01
 1.028039e+00	 6.610321e-01	 1.447845e+01
 9.968861e-01	 6.410008e-01	 1.443562e+01
 9.890305e-01	 6.530563e-01	 1.417310e+01
 9.810193e-01	 6.650302e-01	 1.391575e+01
 9.728535e-01	 6.769195e-01	 1.365665e+01
 9.645346e-01	 6.887213e-01	 1.338892e+01
 9.560638e-01	 7.004326e-01	 1.310569e+01
 1.003117e+00	 6.450071e-01	 1.444668e+01
 9.952120e-01	 6.571379e-01	 1.419113e+01
 9.871506e-01	 6.691866e-01	 1.394065e+01
 9.789338e-01	 6.811502e-01	 1.368789e+01
 9.705629e-01	 6.930258e-01	 1.342550e+01
 9.620392e-01	 7.048103e-01	 1.314618e+01
 1.009347e+00	 6.490133e-01	 1.445726e+01
 1.001393e+00	 6.612195e-01	 1.420795e+01
 9.932820e-01	 6.733431e-01	 1.396360e+01
 9.850142e-01	 6.853810e-01	 1.371659e+01
 9.765912e-01	 6.973303e-01	 1.345932e+01
 9.680146e-01	 7.091880e-01	 1.318425e+01
 1.015578e+00	 6.530196e-01	 1.446660e+01
 1.007575e+00	 6.653011e-01	 1.422293e+01
 9.994134e-01	 6.774995e-01	 1.398411e+01
 9.910945e-01	 6.896117e-01	 1.374244e+01
 9.826196e-01	 7.016348e-01	 1.349027e+01
 9.739900e-01	 7.135657e-01	 1.321999e+01
 1.021808e+00	 6.570258e-01	 1.447393e+01
 1.013756e+00	 6.693827e-01	 1.423541e+01
 1.005545e+00	 6.816559e-01	 1.400165e+01
 9.971748e-01	 6.938425e-01	 1.376510e+01
 9.886479e-01	 7.059393e-01	 1.351820e+01
 9.799654e-01	 7.179434e-01	 1.325347e+01
 1.028039e+00	 6.610321e-01	 1.447845e+01
 1.019938e+00	 6.734643e-01	 1.424467e+01
 1.011676e+00	 6.858124e-01	 1.401567e+01
 1.003255e+00	 6.980732e-01	 1.378416e+01
 9.946763e-01	 7.102438e-01	 1.354290e+01
 9.859408e-01	 7.223211e-01	 1.328470e+01
 9.560638e-01	 7.004326e-01	 1.310569e+01
 9.474428e-01	 7.120506e-01	 1.282012e+01
 9.386730e-01	 7.235723e-01	 1.254898e+01
 9.297560e-01	 7.349950e-01	 1.229137e+01
 9.206935e-01	 7.463159e-01	 1.204223e+01
 9.114872e-01	 7.575321e-01	 1.177725e+01
 9.620392e-01	 7.048103e-01	 1.314618e+01
 9.533643e-01	 7.165009e-01	 1.286517e+01
 9.445397e-01	 7.280947e-01	 1.260178e+01
 9.355670e-01	 7.395888e-01	 1.235541e+01
 9.264478e-01	 7.509804e-01	 1.210881e+01
 9.171840e-01	 7.622667e-01	 1.184567e+01
 9.680146e-01	 7.091880e-01	 1.318425e+01
 9.592859e-01	 7.209512e-01	 1.290889e+01
 9.504064e-01	 7.326170e-01	 1.265509e+01
 9.413779e-01	 7.441825e-01	 1.242007e+01
 9.322022e-01	 7.556448e-01	 1.217189e+01
 9.228808e-01	 7.670013e-01	 1.191179e+01
 9.739900e-01	 7.135657e-01	 1.321999e+01
 9.652074e-01	 7.254015e-01	 1.295158e+01
 9.562731e-01	 7.371393e-01	 1.270931e+01
 9.471889e-01	 7.487762e-01	 1.247962e+01
 9.379565e-01	 7.603093e-01	 1.223061e+01
 9.285776e-01	 7.717359e-01	 1.197456e+01
 9.799654e-01	 7.179434e-01	 1.325347e+01
 9.711289e-01	 7.298518e-01	 1.299348e+01
 9.621398e-01	 7.416616e-01	 1.276459e+01
 9.529999e-01	 7.533699e-01	 1.253297e+01
 9.437108e-01	 7.649738e-01	 1.228406e+01
 9.342744e-01	 7.764704e-01	 1.203290e+01
 9.859408e-01	 7.223211e-01	 1.328470e+01
 9.770504e-01	 7.343022e-01	 1.303479e+01
 9.680065e-01	 7.461840e-01	 1.281486e+01
 9.588109e-01	 7.579636e-01	 1.257930e+01
 9.494652e-01	 7.696383e-01	 1.233131e+01
 9.399712e-01	 7.812050e-01	 1.208574e+01
 9.114872e-01	 7.575321e-01	 1.177725e+01
 9.021390e-01	 7.686411e-01	 1.149832e+01
 8.926508e-01	 7.796400e-01	 1.120970e+01
 8.830244e-01	 7.905263e-01	 1.092136e+01
 8.732620e-01	 8.012973e-01	 1.064371e+01
 8.633656e-01	 8.119506e-01	 1.038752e+01
 9.171840e-01	 7.622667e-01	 1.184567e+01
 9.077774e-01	 7.734451e-01	 1.157149e+01
 8.982299e-01	 7.845127e-01	 1.128800e+01
 8.885433e-01	 7.954670e-01	 1.100486e+01
 8.787199e-01	 8.063054e-01	 1.073217e+01
 8.687616e-01	 8.170253e-01	 1.048035e+01
 9.228808e-01	 7.670013e-01	 1.191179e+01
 9.134158e-01	 7.782491e-01	 1.164318e+01
 9.038089e-01	 7.893855e-01	 1.136507e+01
 8.940622e-01	 8.004078e-01	 1.108699e+01
 8.841778e-01	 8.113135e-01	 1.081888e+01
 8.741576e-01	 8.221000e-01	 1.057101e+01
 9.285776e-01	 7.717359e-01	 1.197456e+01
 9.190541e-01	 7.830531e-01	 1.171217e+01
 9.093880e-01	 7.942582e-01	 1.143961e+01
 8.995811e-01	 8.053486e-01	 1.116642e+01
 8.896357e-01	 8.163216e-01	 1.090256e+01
 8.795537e-01	 8.271747e-01	 1.065832e+01
 9.342744e-01	 7.764704e-01	 1.203290e+01
 9.246925e-01	 7.878571e-01	 1.177722e+01
 9.149671e-01	 7.991310e-01	 1.151028e+01
 9.051001e-01	 8.102894e-01	 1.124179e+01
 8.950936e-01	 8.213297e-01	 1.098190e+01
 8.849497e-01	 8.322494e-01	 1.074109e+01
 9.399712e-01	 7.812050e-01	 1.208574e+01
 9.303309e-01	 7.926611e-01	 1.183709e+01
 9.205461e-01	 8.040037e-01	 1.157575e+01
 9.106190e-01	 8.152302e-01	 1.131176e+01
 9.005514e-01	 8.263379e-01	 1.105560e+01
 8.903458e-01	 8.373241e-01	 1.081812e+01
 8.633656e-01	 8.119506e-01	 1.038752e+01
 8.533373e-01	 8.224837e-01	 1.013140e+01
 8.431794e-01	 8.328940e-01	 9.855769e+00
 8.328940e-01	 8.431794e-01	 9.574349e+00
 8.224837e-01	 8.533373e-01	 9.300883e+00
 8.119506e-01	 8.633656e-01	 9.049017e+00
 8.687616e-01	 8.170253e-01	 1.048035e+01
 8.586707e-01	 8.276242e-01	 1.022782e+01
 8.484492e-01	 8.380996e-01	 9.955215e+00
 8.380996e-01	 8.484492e-01	 9.676594e+00
 8.276242e-01	 8.586707e-01	 9.406051e+00
 8.170253e-01	 8.687616e-01	 9.157597e+00
 8.741576e-01	 8.221000e-01	 1.057101e+01
 8.640040e-01	 8.327647e-01	 1.032188e+01
 8.537191e-01	 8.433052e-01	 1.005242e+01
 8.433052e-01	 8.537191e-01	 9.776870e+00
 8.327647e-01	 8.640040e-01	 9.509503e+00
 8.221000e-01	 8.741576e-01	 9.264512e+00
 8.795537e-01	 8.271747e-01	 1.065832e+01
 8.693374e-01	 8.379052e-01	 1.041250e+01
 8.589890e-01	 8.485108e-01	 1.014634e+01
 8.485108e-01	 8.589890e-01	 9.874085e+00
 8.379052e-01	 8.693374e-01	 9.610019e+00
 8.271747e-01	 8.795537e-01	 9.368347e+00
 8.849497e-01	 8.322494e-01	 1.074109e+01
 8.746707e-01	 8.430458e-01	 1.049861e+01
 8.642588e-01	 8.537164e-01	 1.023592e+01
 8.537164e-01	 8.642588e-01	 9.967130e+00
 8.430458e-01	 8.746707e-01	 9.706366e+00
 8.322494e-01	 8.849497e-01	 9.467673e+00
 8.903458e-01	 8.373241e-01	 1.081812e+01
 8.800041e-01	 8.481863e-01	 1.057910e+01
 8.695287e-01	 8.589220e-01	 1.032008e+01
 8.589220e-01	 8.695287e-01	 1.005488e+01
 8.481863e-01	 8.800041e-01	 9.797294e+00
 8.373241e-01	 8.903458e-01	 9.561050e+00
 8.119506e-01	 8.633656e-01	 9.049017e+00
 8.012973e-01	 8.732620e-01	 8.801031e+00
 7.905263e-01	 8.830244e-01	 8.536392e+00
 7.796400e-01	 8.926508e-01	 8.263964e+00
 7.686411e-01	 9.021390e-01	 7.991956e+00
 7.575321e-01	 9.114872e-01	 7.727830e+00
 8.170253e-01	 8.687616e-01	 9.157597e+00
 8.063054e-01	 8.787199e-01	 8.912775e+00
 7.954670e-01	 8.885433e-01	 8.650370e+00
 7.845127e-01	 8.982299e-01	 8.379692e+00
 7.734451e-01	 9.077774e-01	 8.109388e+00
 7.622667e-01	 9.171840e-01	 7.847347e+00
 8.221000e-01	 8.741576e-01	 9.264512e+00
 8.113135e-01	 8.841778e-01	 9.022626e+00
 8.004078e-01	 8.940622e-01	 8.762099e+00
 7.893855e-01	 9.038089e-01	 8.492851e+00
 7.782491e-01	 9.134158e-01	 8.224141e+00
 7.670013e-01	 9.228808e-01	 7.964471e+00
 8.271747e-01	 8.795537e-01	 9.368347e+00
 8.163216e-01	 8.896357e-01	 9.128984e+00
 8.053486e-01	 8.995811e-01	 8.869880e+00
 7.942582e-01	 9.093880e-01	 8.601730e+00
 7.830531e-01	 9.190541e-01	 8.334579e+00
 7.717359e-01	 9.285776e-01	 8.077717e+00
 8.322494e-01	 8.849497e-01	 9.467673e+00
 8.213297e-01	 8.950936e-01	 9.230236e+00
 8.102894e-01	 9.051001e-01	 8.972004e+00
 7.991310e-01	 9.149671e-01	 8.704608e+00
 7.878571e-01	 9.246925e-01	 8.439048e+00
 7.764704e-01	 9.342744e-01	 8.185583e+00
 8.373241e-01	 8.903458e-01	 9.561050e+00
 8.263379e-01	 9.005514e-01	 9.324763e+00
 8.152302e-01	 9.106190e-01	 9.066756e+00
 8.040037e-01	 9.205461e-01	 8.799757e+00
 7.926611e-01	 9.303309e-01	 8.535888e+00
 7.812050e-01	 9.399712e-01	 8.286548e+00
 7.575321e-01	 9.114872e-01	 7.727830e+00
 7.463159e-01	 9.206935e-01	 7.475402e+00
 7.349950e-01	 9.297560e-01	 7.233703e+00
 7.235723e-01	 9.386730e-01	 6.996951e+00
 7.120506e-01	 9.474428e-01	 6.757788e+00
 7.004326e-01	 9.560638e-01	 6.507867e+00
 7.622667e-01	 9.171840e-01	 7.847347e+00
 7.509804e-01	 9.264478e-01	 7.596350e+00
 7.395888e-01	 9.355670e-01	 7.354724e+00
 7.280947e-01	 9.445397e-01	 7.118502e+00
 7.165009e-01	 9.533643e-01	 6.879594e+00
 7.048103e-01	 9.620392e-01	 6.629572e+00
 7.670013e-01	 9.228808e-01	 7.964471e+00
 7.556448e-01	 9.322022e-01	 7.715608e+00
 7.441825e-01	 9.413779e-01	 7.474422e+00
 7.326170e-01	 9.504064e-01	 7.238997e+00
 7.209512e-01	 9.592859e-01	 7.000647e+00
 7.091880e-01	 9.680146e-01	 6.750473e+00
 7.717359e-01	 9.285776e-01	 8.077717e+00
 7.603093e-01	 9.379565e-01	 7.831832e+00
 7.487762e-01	 9.471889e-01	 7.592007e+00
 7.371393e-01	 9.562731e-01	 7.357208e+00
 7.254015e-01	 9.652074e-01	 7.119566e+00
 7.135657e-01	 9.739900e-01	 6.868951e+00
 7.764704e-01	 9.342744e-01	 8.185583e+00
 7.649738e-01	 9.437108e-01	 7.943656e+00
 7.533699e-01	 9.529999e-01	 7.706174e+00
 7.416616e-01	 9.621398e-01	 7.471899e+00
 7.298518e-01	 9.711289e-01	 7.234951e+00
 7.179434e-01	 9.799654e-01	 6.983371e+00
 7.812050e-01	 9.399712e-01	 8.286548e+00
 7.696383e-01	 9.494652e-01	 8.049690e+00
 7.579636e-01	 9.588109e-01	 7.815571e+00
 7.461840e-01	 9.680065e-01	 7.582304e+00
 7.343022e-01	 9.770504e-01	 7.345383e+00
 7.223211e-01	 9.859408e-01	 7.092086e+00
 7.004326e-01	 9.560638e-01	 6.507867e+00
 6.887213e-01	 9.645346e-01	 6.257707e+00
 6.769195e-01	 9.728535e-01	 6.021225e+00
 6.650302e-01	 9.810193e-01	 5.793520e+00
 6.530563e-01	 9.890305e-01	 5.568788e+00
 6.410008e-01	 9.968861e-01	 5.340369e+00
 7.048103e-01	 9.620392e-01	 6.629572e+00
 6.930258e-01	 9.705629e-01	 6.380215e+00
 6.811502e-01	 9.789338e-01	 6.145955e+00
 6.691866e-01	 9.871506e-01	 5.920600e+00
 6.571379e-01	 9.952120e-01	 5.696989e+00
 6.450071e-01	 1.003117e+00	 5.467036e+00
 7.091880e-01	 9.680146e-01	 6.750473e+00
 6.973303e-01	 9.765912e-01	 6.501228e+00
 6.853810e-01	 9.850142e-01	 6.267979e+00
 6.733431e-01	 9.932820e-01	 6.043670e+00
 6.612195e-01	 1.001393e+00	 5.820221e+00
 6.490133e-01	 1.009347e+00	 5.588575e+00
 7.135657e-01	 9.739900e-01	 6.868951e+00
 7.016348e-01	 9.826196e-01	 6.618949e+00
 6.896117e-01	 9.910945e-01	 6.385538e+00
 6.774995e-01	 9.994134e-01	 6.161209e+00
 6.653011e-01	 1.007575e+00	 5.937395e+00
 6.530196e-01	 1.015578e+00	 5.704515e+00
 7.179434e-01	 9.799654e-01	 6.983371e+00
 7.059393e-01	 9.886479e-01	 6.731577e+00
 6.938425e-01	 9.971748e-01	 6.496865e+00
 6.816559e-01	 1.005545e+00	 6.271683e+00
 6.693827e-01	 1.013756e+00	 6.047399e+00
 6.570258e-01	 1.021808e+00	 5.814346e+00
 7.223211e-01	 9.859408e-01	 7.092086e+00
 7.102438e-01	 9.946763e-01	 6.837297e+00
 6.980732e-01	 1.003255e+00	 6.600182e+00
 6.858124e-01	 1.011676e+00	 6.373543e+00
 6.734643e-01	 1.019938e+00	 6.149097e+00
 6.610321e-01	 1.028039e+00	 5.917523e+00
 6.410008e-01	 9.968861e-01	 5.340369e+00
 6.288667e-01	 1.004585e+00	 5.114196e+00
 6.166570e-01	 1.012125e+00	 4.898244e+00
 6.043748e-01	 1.019507e+00	 4.687838e+00
 5.920231e-01	 1.026729e+00	 4.477745e+00
 5.796049e-01	 1.033790e+00	 4.262209e+00
 6.450071e-01	 1.003117e+00	 5.467036e+00
 6.327971e-01	 1.010863e+00	 5.236829e+00
 6.205112e-01	 1.018451e+00	 5.016189e+00
 6.081522e-01	 1.025879e+00	 4.801541e+00
 5.957233e-01	 1.033146e+00	 4.588779e+00
 5.832275e-01	 1.040251e+00	 4.373306e+00
 6.490133e-01	 1.009347e+00	 5.588575e+00
 6.367276e-01	 1.017142e+00	 5.355630e+00
 6.243653e-01	 1.024777e+00	 5.132781e+00
 6.119295e-01	 1.032251e+00	 4.916600e+00
 5.994234e-01	 1.039563e+00	 4.703126e+00
 5.868500e-01	 1.046713e+00	 4.487911e+00
 6.530196e-01	 1.015578e+00	 5.704515e+00
 6.406580e-01	 1.023421e+00	 5.470635e+00
 6.282194e-01	 1.031103e+00	 5.248178e+00
 6.157069e-01	 1.038623e+00	 5.032924e+00
 6.031235e-01	 1.045980e+00	 4.820096e+00
 5.904725e-01	 1.053174e+00	 4.604401e+00
 6.570258e-01	 1.021808e+00	 5.814346e+00
 6.445884e-01	 1.029699e+00	 5.581833e+00
 6.320735e-01	 1.037429e+00	 5.362487e+00
 6.194842e-01	 1.044995e+00	 5.150380e+00
 6.068237e-01	 1.052397e+00	 4.938970e+00
 5.940951e-01	 1.059635e+00	 4.721149e+00
 6.610321e-01	 1.028039e+00	 5.917523e+00
 6.485188e-01	 1.035978e+00	 5.689164e+00
 6.359276e-01	 1.043754e+00	 5.475764e+00
 6.232615e-01	 1.051367e+00	 5.268789e+00
 6.105238e-01	 1.058814e+00	 5.059004e+00
 5.977176e-01	 1.066096e+00	 4.836523e+00
 5.796049e-01	 1.033790e+00	 4.262209e+00
 5.671234e-01	 1.040690e+00	 4.053275e+00
 5.545816e-01	 1.047427e+00	 3.862231e+00
 5.419826e-01	 1.054001e+00	 3.681556e+00
 5.293295e-01	 1.060412e+00	 3.503400e+00
 5.166254e-01	 1.066659e+00	 3.319639e+00
 5.832275e-01	 1.040251e+00	 4.373306e+00
 5.706680e-01	 1.047194e+00	 4.167538e+00
 5.580478e-01	 1.053973e+00	 3.980935e+00
 5.453700e-01	 1.060589e+00	 3.803810e+00
 5.326378e-01	 1.067040e+00	 3.626093e+00
 5.198543e-01	 1.073326e+00	 3.437384e+00
 5.868500e-01	 1.046713e+00	 4.487911e+00
 5.742125e-01	 1.053698e+00	 4.282753e+00
 5.615139e-01	 1.060520e+00	 4.096072e+00
 5.487574e-01	 1.067176e+00	 3.917674e+00
 5.359461e-01	 1.073667e+00	 3.736962e+00
 5.230832e-01	 1.079993e+00	 3.542995e+00
 5.904725e-01	 1.053174e+00	 4.604401e+00
 5.777570e-01	 1.060203e+00	 4.396504e+00
 5.649800e-01	 1.067066e+00	 4.205004e+00
 5.521448e-01	 1.073764e+00	 4.020830e+00
 5.392544e-01	 1.080295e+00	 3.834522e+00
 5.263121e-01	 1.086659e+00	 3.636295e+00
 5.940951e-01	 1.059635e+00	 4.721149e+00
 5.813015e-01	 1.066707e+00	 4.506389e+00
 5.684462e-01	 1.073613e+00	 4.305118e+00
 5.555322e-01	 1.080351e+00	 4.110980e+00
 5.425627e-01	 1.086923e+00	 3.917289e+00
 5.295410e-01	 1.093326e+00	 3.717078e+00
 5.977176e-01	 1.066096e+00	 4.836523e+00
 5.848460e-01	 1.073211e+00	 4.610022e+00
 5.719123e-01	 1.080159e+00	 4.393819e+00
 5.589196e-01	 1.086939e+00	 4.185841e+00
 5.458710e-01	 1.093550e+00	 3.983773e+00
 5.327699e-01	 1.099992e+00	 3.785105e+00
 5.166254e-01	 1.066659e+00	 3.319639e+00
 5.038733e-01	 1.072742e+00	 3.132738e+00
 4.910764e-01	 1.078660e+00	 2.949544e+00
 4.782377e-01	 1.084414e+00	 2.768329e+00
 4.653603e-01	 1.090002e+00	 2.587398e+00
 4.524472e-01	 1.095425e+00	 2.405123e+00
 5.198543e-01	 1.073326e+00	 3.437384e+00
 5.070225e-01	 1.079447e+00	 3.240181e+00
 4.941456e-01	 1.085402e+00	 3.044857e+00
 4.812266e-01	 1.091191e+00	 2.852670e+00
 4.682688e-01	 1.096814e+00	 2.664956e+00
 4.552750e-01	 1.102271e+00	 2.483165e+00
 5.230832e-01	 1.079993e+00	 3.542995e+00
 5.101717e-01	 1.086151e+00	 3.340140e+00
 4.972148e-01	 1.092144e+00	 3.142198e+00
 4.842156e-01	 1.097969e+00	 2.952219e+00
 4.711773e-01	 1.103627e+00	 2.773362e+00
 4.581028e-01	 1.109118e+00	 2.608918e+00
 5.263121e-01	 1.086659e+00	 3.636295e+00
 5.133209e-01	 1.092856e+00	 3.433776e+00
 5.002840e-01	 1.098885e+00	 3.243668e+00
 4.872046e-01	 1.104746e+00	 3.069652e+00
 4.740858e-01	 1.110439e+00	 2.915518e+00
 4.609306e-01	 1.115964e+00	 2.760527e+00
 5.295410e-01	 1.093326e+00	 3.717078e+00
 5.164701e-01	 1.099561e+00	 3.522184e+00
 5.033533e-01	 1.105627e+00	 3.351284e+00
 4.901936e-01	 1.111524e+00	 3.207367e+00
 4.769943e-01	 1.117252e+00	 3.054459e+00
 4.637584e-01	 1.122810e+00	 2.871116e+00
 5.327699e-01	 1.099992e+00	 3.785105e+00
 5.196193e-01	 1.106265e+00	 3.606397e+00
 5.064225e-01	 1.112368e+00	 3.465307e+00
 4.931826e-01	 1.118301e+00	 3.313668e+00
 4.799028e-01	 1.124064e+00	 3.135061e+00
 4.665862e-01	 1.129657e+00	 2.938711e+00
 4.524472e-01	 1.095425e+00	 2.405123e+00
 4.395015e-01	 1.100683e+00	 2.233601e+00
 4.265263e-01	 1.105775e+00	 2.088342e+00
 4.135246e-01	 1.110703e+00	 1.973076e+00
 4.004992e-01	 1.115466e+00	 1.873068e+00
 3.874533e-01	 1.120064e+00	 1.771246e+00
 4.552750e-01	 1.102271e+00	 2.483165e+00
 4.422484e-01	 1.107562e+00	 2.322177e+00
 4.291921e-01	 1.112686e+00	 2.194974e+00
 4.161091e-01	 1.117645e+00	 2.068830e+00
 4.030023e-01	 1.122438e+00	 1.941038e+00
 3.898749e-01	 1.127065e+00	 1.822417e+00
 4.581028e-01	 1.109118e+00	 2.608918e+00
 4.449953e-01	 1.114441e+00	 2.463481e+00
 4.318579e-01	 1.119598e+00	 2.312053e+00
 4.186936e-01	 1.124587e+00	 2.158984e+00
 4.055055e-01	 1.129409e+00	 2.013333e+00
 3.922965e-01	 1.134065e+00	 1.884651e+00
 4.609306e-01	 1.115964e+00	 2.760527e+00
 4.477422e-01	 1.121320e+00	 2.586221e+00
 4.345237e-01	 1.126509e+00	 2.411827e+00
 4.212781e-01	 1.131529e+00	 2.243961e+00
 4.080086e-01	 1.136381e+00	 2.089783e+00
 3.947181e-01	 1.141065e+00	 1.956931e+00
 4.637584e-01	 1.122810e+00	 2.871116e+00
 4.504891e-01	 1.128200e+00	 2.679162e+00
 4.371895e-01	 1.133420e+00	 2.495541e+00
 4.238627e-01	 1.138471e+00	 2.324355e+00
 4.105117e-01	 1.143353e+00	 2.170234e+00
 3.971397e-01	 1.148066e+00	 2.038273e+00
 4.665862e-01	 1.129657e+00	 2.938711e+00
 4.532360e-01	 1.135079e+00	 2.744072e+00
 4.398553e-01	 1.140331e+00	 2.564430e+00
 4.264472e-01	 1.145413e+00	 2.400763e+00
 4.130148e-01	 1.150324e+00	 2.254552e+00
 3.995612e-01	 1.155066e+00	 2.127730e+00
 3.874533e-01	 1.120064e+00	 1.771246e+00
 3.743898e-01	 1.124498e+00	 1.656022e+00
 3.613116e-01	 1.128768e+00	 1.512945e+00
 3.482216e-01	 1.132875e+00	 1.357540e+00
 3.351226e-01	 1.136819e+00	 1.207969e+00
 3.220177e-01	 1.140600e+00	 1.083202e+00
 3.898749e-01	 1.127065e+00	 1.822417e+00
 3.767297e-01	 1.131526e+00	 1.699963e+00
 3.635698e-01	 1.135823e+00	 1.556222e+00
 3.503979e-01	 1.139955e+00	 1.403700e+00
 3.372172e-01	 1.143924e+00	 1.259435e+00
 3.240303e-01	 1.147729e+00	 1.141189e+00
 3.922965e-01	 1.134065e+00	 1.884651e+00
 3.790697e-01	 1.138554e+00	 1.757895e+00
 3.658280e-01	 1.142878e+00	 1.613621e+00
 3.525743e-01	 1.147036e+00	 1.462010e+00
 3.393117e-01	 1.151029e+00	 1.319844e+00
 3.260429e-01	 1.154858e+00	 1.204731e+00
 3.947181e-01	 1.141065e+00	 1.956931e+00
 3.814096e-01	 1.145583e+00	 1.828047e+00
 3.680862e-01	 1.149933e+00	 1.682792e+00
 3.547507e-01	 1.154116e+00	 1.529915e+00
 3.414062e-01	 1.158134e+00	 1.386661e+00
 3.280555e-01	 1.161986e+00	 1.271522e+00
 3.971397e-01	 1.148066e+00	 2.038273e+00
 3.837495e-01	 1.152611e+00	 1.908700e+00
 3.703444e-01	 1.156988e+00	 1.761432e+00
 3.569271e-01	 1.161197e+00	 1.604909e+00
 3.435007e-01	 1.165239e+00	 1.457399e+00
 3.300681e-01	 1.169115e+00	 1.339288e+00
 3.995612e-01	 1.155066e+00	 2.127730e+00
 3.860895e-01	 1.159639e+00	 1.998188e+00
 3.726026e-01	 1.164042e+00	 1.847281e+00
 3.591035e-01	 1.168277e+00	 1.684536e+00
 3.455952e-01	 1.172344e+00	 1.529611e+00
 3.320807e-01	 1.176244e+00	 1.405790e+00
 3.220177e-01	 1.140600e+00	 1.083202e+00
 3.089094e-01	 1.144220e+00	 9.790902e-01
 2.958007e-01	 1.147678e+00	 8.783484e-01
 2.826943e-01	 1.150977e+00	 7.810859e-01
 2.695930e-01	 1.154116e+00	 6.876946e-01
 2.564993e-01	 1.157096e+00	 5.987581e-01
 3.240303e-01	 1.147729e+00	 1.141189e+00
 3.108401e-01	 1.151371e+00	 1.042196e+00
 2.976495e-01	 1.154851e+00	 9.438230e-01
 2.844612e-01	 1.158171e+00	 8.468303e-01
 2.712779e-01	 1.161329e+00	 7.522389e-01
 2.581024e-01	 1.164328e+00	 6.612389e-01
 3.260429e-01	 1.154858e+00	 1.204731e+00
 3.127708e-01	 1.158523e+00	 1.108303e+00
 2.994982e-01	 1.162024e+00	 1.010733e+00
 2.862280e-01	 1.165364e+00	 9.131975e-01
 2.729629e-01	 1.168542e+00	 8.171090e-01
 2.597055e-01	 1.171560e+00	 7.240217e-01
 3.280555e-01	 1.161986e+00	 1.271522e+00
 3.147015e-01	 1.165674e+00	 1.175398e+00
 3.013470e-01	 1.169197e+00	 1.077303e+00
 2.879949e-01	 1.172558e+00	 9.786024e-01
 2.746478e-01	 1.175756e+00	 8.808652e-01
 2.613086e-01	 1.178792e+00	 7.857707e-01
 3.300681e-01	 1.169115e+00	 1.339288e+00
 3.166322e-01	 1.172825e+00	 1.241488e+00
 3.031958e-01	 1.176370e+00	 1.141773e+00
 2.897617e-01	 1.179751e+00	 1.041469e+00
 2.763328e-01	 1.182969e+00	 9.420718e-01
 2.629118e-01	 1.186024e+00	 8.451510e-01
 3.320807e-01	 1.176244e+00	 1.405790e+00
 3.185628e-01	 1.179977e+00	 1.304609e+00
 3.050445e-01	 1.183543e+00	 1.202400e+00
 2.915285e-01	 1.186945e+00	 1.100232e+00
 2.780177e-01	 1.190182e+00	 9.992979e-01
 2.645149e-01	 1.193256e+00	 9.008290e-01
 2.564993e-01	 1.157096e+00	 5.987581e-01
 2.434159e-01	 1.159919e+00	 5.124297e-01
 2.303455e-01	 1.162585e+00	 4.279832e-01
 2.172906e-01	 1.165096e+00	 3.477661e-01
 2.042537e-01	 1.167452e+00	 2.740737e-01
 1.912373e-01	 1.169655e+00	 2.091117e-01
 2.581024e-01	 1.164328e+00	 6.612389e-01
 2.449373e-01	 1.167169e+00	 5.725801e-01
 2.317851e-01	 1.169852e+00	 4.857793e-01
 2.186486e-01	 1.172378e+00	 4.032266e-01
 2.055302e-01	 1.174749e+00	 3.272411e-01
 1.924325e-01	 1.176965e+00	 2.600356e-01
 2.597055e-01	 1.171560e+00	 7.240217e-01
 2.464586e-01	 1.174418e+00	 6.330392e-01
 2.332248e-01	 1.177118e+00	 5.438659e-01
 2.200067e-01	 1.179660e+00	 4.589689e-01
 2.068068e-01	 1.182045e+00	 3.807221e-01
 1.936277e-01	 1.184275e+00	 3.113746e-01
 2.613086e-01	 1.178792e+00	 7.857707e-01
 2.479800e-01	 1.181668e+00	 6.925578e-01
 2.346645e-01	 1.184384e+00	 6.010830e-01
 2.213648e-01	 1.186942e+00	 5.139230e-01
 2.080834e-01	 1.189342e+00	 4.335363e-01
 1.948230e-01	 1.191586e+00	 3.622350e-01
 2.629118e-01	 1.186024e+00	 8.451510e-01
 2.495013e-01	 1.188917e+00	 7.498850e-01
 2.361041e-01	 1.191650e+00	 6.562672e-01
 2.227228e-01	 1.194223e+00	 5.670142e-01
 2.093600e-01	 1.196638e+00	 4.846970e-01
 1.960182e-01	 1.198896e+00	 4.117165e-01
 2.645149e-01	 1.193256e+00	 9.008290e-01
 2.510227e-01	 1.196167e+00	 8.037690e-01
 2.375438e-01	 1.198916e+00	 7.082517e-01
 2.240809e-01	 1.201505e+00	 6.171628e-01
 2.106366e-01	 1.203935e+00	 5.332121e-01
 1.972134e-01	 1.206206e+00	 4.589126e-01
 1.912373e-01	 1.169655e+00	 2.091117e-01
 1.782438e-01	 1.171705e+00	 1.509669e-01
 1.652757e-01	 1.173605e+00	 9.646625e-02
 1.523352e-01	 1.175354e+00	 4.573393e-02
 1.394248e-01	 1.176956e+00	-1.251745e-03
 1.265466e-01	 1.178410e+00	-4.466064e-02
 1.924325e-01	 1.176965e+00	 2.600356e-01
 1.793578e-01	 1.179028e+00	 1.995962e-01
 1.663087e-01	 1.180940e+00	 1.427321e-01
 1.532873e-01	 1.182700e+00	 8.968314e-02
 1.402962e-01	 1.184312e+00	 4.053837e-02
 1.273375e-01	 1.185775e+00	-4.762476e-03
 1.936277e-01	 1.184275e+00	 3.113746e-01
 1.804719e-01	 1.186352e+00	 2.488266e-01
 1.673416e-01	 1.188275e+00	 1.898382e-01
 1.542394e-01	 1.190046e+00	 1.347229e-01
 1.411676e-01	 1.191668e+00	 8.363871e-02
 1.281284e-01	 1.193140e+00	 3.659350e-02
 1.948230e-01	 1.191586e+00	 3.622350e-01
 1.815859e-01	 1.193675e+00	 2.978521e-01
 1.683746e-01	 1.195610e+00	 2.370721e-01
 1.551915e-01	 1.197392e+00	 1.802393e-01
 1.420390e-01	 1.199024e+00	 1.275379e-01
 1.289193e-01	 1.200505e+00	 7.900184e-02
 1.960182e-01	 1.198896e+00	 4.117165e-01
 1.826999e-01	 1.200998e+00	 3.458603e-01
 1.694076e-01	 1.202945e+00	 2.837148e-01
 1.561436e-01	 1.204738e+00	 2.256116e-01
 1.429104e-01	 1.206380e+00	 1.717180e-01
 1.297102e-01	 1.207870e+00	 1.220506e-01
 1.972134e-01	 1.206206e+00	 4.589126e-01
 1.838139e-01	 1.208321e+00	 3.920321e-01
 1.704405e-01	 1.210280e+00	 3.290405e-01
 1.570957e-01	 1.212084e+00	 2.702127e-01
 1.437818e-01	 1.213736e+00	 2.156545e-01
 1.305012e-01	 1.215235e+00	 1.653216e-01
 1.265466e-01	 1.178410e+00	-4.466064e-02
 1.137028e-01	 1.179718e+00	-8.449575e-02
 1.008957e-01	 1.180883e+00	-1.202189e-01
 8.812724e-02	 1.181904e+00	-1.514153e-01
 7.539962e-02	 1.182784e+00	-1.778225e-01
 6.271480e-02	 1.183525e+00	-1.993279e-01
 1.273375e-01	 1.185775e+00	-4.762476e-03
 1.144135e-01	 1.187092e+00	-4.611901e-02
 1.015263e-01	 1.188263e+00	-8.303180e-02
 8.867804e-02	 1.189291e+00	-1.151773e-01
 7.587086e-02	 1.190177e+00	-1.423669e-01
 6.310677e-02	 1.190922e+00	-1.645406e-01
 1.281284e-01	 1.193140e+00	 3.659350e-02
 1.151241e-01	 1.194465e+00	-6.235263e-03
 1.021569e-01	 1.195644e+00	-4.436277e-02
 8.922883e-02	 1.196678e+00	-7.752265e-02
 7.634211e-02	 1.197569e+00	-1.055664e-01
 6.349873e-02	 1.198319e+00	-1.284535e-01
 1.289193e-01	 1.200505e+00	 7.900184e-02
 1.158347e-01	 1.201838e+00	 3.485400e-02
 1.027875e-01	 1.203024e+00	-4.417530e-03
 8.977963e-02	 1.204065e+00	-3.857154e-02
 7.681336e-02	 1.204962e+00	-6.746821e-02
 6.389070e-02	 1.205716e+00	-9.105551e-02
 1.297102e-01	 1.207870e+00	 1.220506e-01
 1.165454e-01	 1.209211e+00	 7.684110e-02
 1.034181e-01	 1.210405e+00	 3.659251e-02
 9.033042e-02	 1.211452e+00	 1.550725e-03
 7.728461e-02	 1.212354e+00	-2.812381e-02
 6.428267e-02	 1.213113e+00	-5.233849e-02
 1.305012e-01	 1.215235e+00	 1.653216e-01
 1.172560e-01	 1.216585e+00	 1.194122e-01
 1.040487e-01	 1.217785e+00	 7.845019e-02
 9.088122e-02	 1.218839e+00	 4.271376e-02
 7.775585e-02	 1.219746e+00	 1.241114e-02
 6.467464e-02	 1.220510e+00	-1.229769e-02
 6.271480e-02	 1.183525e+00	-1.993279e-01
 5.007476e-02	 1.184127e+00	-2.169156e-01
 3.748142e-02	 1.184592e+00	-2.310998e-01
 2.493664e-02	 1.184923e+00	-2.413045e-01
 1.244224e-02	 1.185120e+00	-2.471330e-01
 0.000000e+00	 1.185185e+00	-2.483768e-01
 6.310677e-02	 1.190922e+00	-1.645406e-01
 5.038773e-02	 1.191528e+00	-1.827383e-01
 3.771568e-02	 1.191996e+00	-1.974793e-01
 2.509249e-02	 1.192329e+00	-2.081244e-01
 1.252001e-02	 1.192527e+00	-2.141824e-01
 0.000000e+00	 1.192593e+00	-2.153168e-01
 6.349873e-02	 1.198319e+00	-1.284535e-01
 5.070070e-02	 1.198928e+00	-1.472581e-01
 3.794994e-02	 1.199400e+00	-1.625250e-01
 2.524835e-02	 1.199734e+00	-1.735810e-01
 1.259777e-02	 1.199934e+00	-1.798677e-01
 0.000000e+00	 1.200000e+00	-1.809458e-01
 6.389070e-02	 1.205716e+00	-9.105551e-02
 5.101366e-02	 1.206329e+00	-1.104182e-01
 3.818419e-02	 1.206803e+00	-1.261450e-01
 2.540420e-02	 1.207140e+00	-1.375585e-01
 1.267554e-02	 1.207341e+00	-1.440611e-01
 0.000000e+00	 1.207407e+00	-1.451370e-01
 6.428267e-02	 1.213113e+00	-5.233849e-02
 5.132663e-02	 1.213730e+00	-7.216396e-02
 3.841845e-02	 1.214207e+00	-8.824840e-02
 2.556006e-02	 1.214546e+00	-9.994115e-02
 1.275330e-02	 1.214748e+00	-1.066343e-01
 0.000000e+00	 1.214815e+00	-1.077622e-01
 6.467464e-02	 1.220510e+00	-1.229769e-02
 5.163960e-02	 1.221131e+00	-3.244283e-02
 3.865271e-02	 1.221611e+00	-4.874544e-02
 2.571591e-02	 1.221952e+00	-6.061325e-02
 1.283106e-02	 1.222155e+00	-6.745787e-02
 0.000000e+00	 1.222222e+00	-6.869141e-02
 1.222222e+00	 0.000000e+00	 2.054273e+01
 1.222155e+00	 1.283106e-02	 2.053814e+01
 1.221952e+00	 2.571591e-02	 2.053072e+01
 1.221611e+00	 3.865271e-02	 2.051958e+01
 1.221131e+00	 5.163960e-02	 2.050390e+01
 1.220510e+00	 6.467464e-02	 2.048289e+01
 1.229630e+00	 0.000000e+00	 2.033612e+01
 1.229562e+00	 1.290883e-02	 2.033160e+01
 1.229357e+00	 2.587176e-02	 2.032449e+01
 1.229015e+00	 3.888697e-02	 2.031388e+01
 1.228532e+00	 5.195256e-02	 2.029894e+01
 1.227907e+00	 6.506660e-02	 2.027888e+01
 1.237037e+00	 0.000000e+00	 2.013531e+01
 1.236969e+00	 1.298659e-02	 2.013089e+01
 1.236763e+00	 2.602762e-02	 2.012408e+01
 1.236418e+00	 3.912123e-02	 2.011398e+01
 1.235932e+00	 5.226553e-02	 2.009973e+01
 1.235304e+00	 6.545857e-02	 2.008054e+01
 1.244444e+00	 0.000000e+00	 1.993998e+01
 1.244376e+00	 1.306436e-02	 1.993570e+01
 1.244169e+00	 2.618347e-02	 1.992920e+01
 1.243822e+00	 3.935549e-02	 1.991958e+01
 1.243333e+00	 5.257850e-02	 1.990599e+01
 1.242701e+00	 6.585054e-02	 1.988761e+01
 1.251852e+00	 0.000000e+00	 1.974985e+01
 1.251783e+00	 1.314212e-02	 1.974576e+01
 1.251575e+00	 2.633933e-02	 1.973957e+01
 1.251226e+00	 3.958975e-02	 1.973041e+01
 1.250734e+00	 5.289147e-02	 1.971743e+01
 1.250098e+00	 6.624251e-02	 1.969982e+01
 1.259259e+00	 0.000000e+00	 1.956465e+01
 1.259190e+00	 1.321988e-02	 1.956078e+01
 1.258980e+00	 2.649518e-02	 1.955490e+01
 1.258629e+00	 3.982401e-02	 1.954618e+01
 1.258135e+00	 5.320443e-02	 1.953378e+01
 1.257495e+00	 6.663447e-02	 1.951690e+01
 1.220510e+00	 6.467464e-02	 2.048289e+01
 1.219746e+00	 7.775585e-02	 2.045702e+01
 1.218839e+00	 9.088122e-02	 2.042670e+01
 1.217785e+00	 1.040487e-01	 2.039119e+01
 1.216585e+00	 1.172560e-01	 2.034985e+01
 1.215235e+00	 1.305012e-01	 2.030213e+01
 1.227907e+00	 6.506660e-02	 2.027888e+01
 1.227139e+00	 7.822710e-02	 2.025415e+01
 1.226226e+00	 9.143201e-02	 2.022519e+01
 1.225166e+00	 1.046793e-01	 2.019125e+01
 1.223958e+00	 1.179667e-01	 2.015168e+01
 1.222600e+00	 1.312921e-01	 2.010589e+01
 1.235304e+00	 6.545857e-02	 2.008054e+01
 1.234531e+00	 7.869835e-02	 2.005689e+01
 1.233612e+00	 9.198281e-02	 2.002923e+01
 1.232546e+00	 1.053098e-01	 1.999680e+01
 1.231331e+00	 1.186773e-01	 1.995892e+01
 1.229965e+00	 1.320830e-01	 1.991498e+01
 1.242701e+00	 6.585054e-02	 1.988761e+01
 1.241924e+00	 7.916960e-02	 1.986498e+01
 1.240999e+00	 9.253360e-02	 1.983857e+01
 1.239927e+00	 1.059404e-01	 1.980761e+01
 1.238704e+00	 1.193880e-01	 1.977137e+01
 1.237330e+00	 1.328739e-01	 1.972922e+01
 1.250098e+00	 6.624251e-02	 1.969982e+01
 1.249316e+00	 7.964084e-02	 1.967816e+01
 1.248386e+00	 9.308440e-02	 1.965298e+01
 1.247307e+00	 1.065710e-01	 1.962345e+01
 1.246078e+00	 1.200986e-01	 1.958883e+01
 1.244695e+00	 1.336648e-01	 1.954845e+01
 1.257495e+00	 6.663447e-02	 1.951690e+01
 1.256708e+00	 8.011209e-02	 1.949619e+01
 1.255773e+00	 9.363520e-02	 1.947220e+01
 1.254688e+00	 1.072016e-01	 1.944410e+01
 1.253451e+00	 1.208092e-01	 1.941109e+01
 1.252061e+00	 1.344557e-01	 1.937248e+01
 1.215235e+00	 1.305012e-01	 2.030213e+01
 1.213736e+00	 1.437818e-01	 2.024943e+01
 1.212084e+00	 1.570957e-01	 2.019333e+01
 1.210280e+00	 1.704405e-01	 2.013366e+01
 1.208321e+00	 1.838139e-01	 2.007038e+01
 1.206206e+00	 1.972134e-01	 2.000359e+01
 1.222600e+00	 1.312921e-01	 2.010589e+01
 1.221092e+00	 1.446532e-01	 2.005537e+01
 1.219430e+00	 1.580478e-01	 2.000175e+01
 1.217615e+00	 1.714735e-01	 1.994483e+01
 1.215644e+00	 1.849280e-01	 1.988457e+01
 1.213517e+00	 1.984087e-01	 1.982102e+01
 1.229965e+00	 1.320830e-01	 1.991498e+01
 1.228447e+00	 1.455246e-01	 1.986652e+01
 1.226776e+00	 1.589999e-01	 1.981523e+01
 1.224950e+00	 1.725065e-01	 1.976090e+01
 1.222967e+00	 1.860420e-01	 1.970346e+01
 1.220827e+00	 1.996039e-01	 1.964295e+01
 1.237330e+00	 1.328739e-01	 1.972922e+01
 1.235803e+00	 1.463960e-01	 1.968274e+01
 1.234122e+00	 1.599520e-01	 1.963365e+01
 1.232285e+00	 1.735395e-01	 1.958175e+01
 1.230290e+00	 1.871560e-01	 1.952695e+01
 1.228137e+00	 2.007991e-01	 1.946930e+01
 1.244695e+00	 1.336648e-01	 1.954845e+01
 1.243159e+00	 1.472674e-01	 1.950388e+01
 1.241468e+00	 1.609041e-01	 1.945689e+01
 1.239620e+00	 1.745724e-01	 1.940728e+01
 1.237614e+00	 1.882700e-01	 1.935497e+01
 1.235448e+00	 2.019944e-01	 1.930000e+01
 1.252061e+00	 1.344557e-01	 1.937248e+01
 1.250515e+00	 1.481388e-01	 1.932979e+01
 1.248814e+00	 1.618562e-01	 1.928482e+01
 1.246955e+00	 1.756054e-01	 1.923738e+01
 1.244937e+00	 1.893840e-01	 1.918740e+01
 1.242758e+00	 2.031896e-01	 1.913496e+01
 1.206206e+00	 1.972134e-01	 2.000359e+01
 1.203935e+00	 2.106366e-01	 1.993057e+01
 1.201505e+00	 2.240809e-01	 1.984877e+01
 1.198916e+00	 2.375438e-01	 1.975879e+01
 1.196167e+00	 2.510227e-01	 1.966133e+01
 1.193256e+00	 2.645149e-01	 1.955723e+01
 1.213517e+00	 1.984087e-01	 1.982102e+01
 1.211232e+00	 2.119132e-01	 1.975135e+01
 1.208787e+00	 2.254390e-01	 1.967295e+01
 1.206182e+00	 2.389834e-01	 1.958637e+01
 1.203416e+00	 2.525440e-01	 1.949231e+01
 1.200488e+00	 2.661180e-01	 1.939163e+01
 1.220827e+00	 1.996039e-01	 1.964295e+01
 1.218528e+00	 2.131898e-01	 1.957648e+01
 1.216069e+00	 2.267970e-01	 1.950135e+01
 1.213449e+00	 2.404231e-01	 1.941809e+01
 1.210666e+00	 2.540654e-01	 1.932738e+01
 1.207719e+00	 2.677211e-01	 1.923003e+01
 1.228137e+00	 2.007991e-01	 1.946930e+01
 1.225825e+00	 2.144663e-01	 1.940589e+01
 1.223351e+00	 2.281551e-01	 1.933394e+01
 1.220715e+00	 2.418628e-01	 1.925395e+01
 1.217915e+00	 2.555867e-01	 1.916655e+01
 1.214951e+00	 2.693242e-01	 1.907253e+01
 1.235448e+00	 2.019944e-01	 1.930000e+01
 1.233121e+00	 2.157429e-01	 1.923950e+01
 1.230633e+00	 2.295132e-01	 1.917067e+01
 1.227981e+00	 2.433024e-01	 1.909393e+01
 1.225165e+00	 2.571081e-01	 1.900985e+01
 1.222183e+00	 2.709274e-01	 1.891917e+01
 1.242758e+00	 2.031896e-01	 1.913496e+01
 1.240418e+00	 2.170195e-01	 1.907724e+01
 1.237915e+00	 2.308712e-01	 1.901148e+01
 1.235247e+00	 2.447421e-01	 1.893800e+01
 1.232414e+00	 2.586294e-01	 1.885729e+01
 1.229415e+00	 2.725305e-01	 1.877002e+01
 1.193256e+00	 2.645149e-01	 1.955723e+01
 1.190182e+00	 2.780177e-01	 1.944953e+01
 1.186945e+00	 2.915285e-01	 1.934170e+01
 1.183543e+00	 3.050445e-01	 1.923539e+01
 1.179977e+00	 3.185628e-01	 1.913242e+01
 1.176244e+00	 3.320807e-01	 1.903470e+01
 1.200488e+00	 2.661180e-01	 1.939163e+01
 1.197395e+00	 2.797027e-01	 1.928769e+01
 1.194139e+00	 2.932954e-01	 1.918423e+01
 1.190716e+00	 3.068933e-01	 1.908286e+01
 1.187128e+00	 3.204935e-01	 1.898531e+01
 1.183373e+00	 3.340933e-01	 1.889346e+01
 1.207719e+00	 2.677211e-01	 1.923003e+01
 1.204608e+00	 2.813877e-01	 1.912974e+01
 1.201332e+00	 2.950622e-01	 1.903053e+01
 1.197889e+00	 3.087420e-01	 1.893396e+01
 1.194279e+00	 3.224242e-01	 1.884177e+01
 1.190501e+00	 3.361059e-01	 1.875581e+01
 1.214951e+00	 2.693242e-01	 1.907253e+01
 1.211822e+00	 2.830726e-01	 1.897580e+01
 1.208526e+00	 2.968291e-01	 1.888067e+01
 1.205062e+00	 3.105908e-01	 1.878872e+01
 1.201431e+00	 3.243549e-01	 1.870170e+01
 1.197630e+00	 3.381185e-01	 1.862147e+01
 1.222183e+00	 2.709274e-01	 1.891917e+01
 1.219035e+00	 2.847576e-01	 1.882596e+01
 1.215719e+00	 2.985959e-01	 1.873474e+01
 1.212235e+00	 3.124395e-01	 1.864715e+01
 1.208582e+00	 3.262856e-01	 1.856498e+01
 1.204759e+00	 3.401311e-01	 1.849015e+01
 1.229415e+00	 2.725305e-01	 1.877002e+01
 1.226248e+00	 2.864425e-01	 1.868031e+01
 1.222913e+00	 3.003627e-01	 1.859281e+01
 1.219408e+00	 3.142883e-01	 1.850925e+01
 1.215734e+00	 3.282163e-01	 1.843150e+01
 1.211888e+00	 3.421438e-01	 1.836158e+01
 1.176244e+00	 3.320807e-01	 1.903470e+01
 1.172344e+00	 3.455952e-01	 1.892102e+01
 1.168277e+00	 3.591035e-01	 1.877147e+01
 1.164042e+00	 3.726026e-01	 1.859075e+01
 1.159639e+00	 3.860895e-01	 1.842243e+01
 1.155066e+00	 3.995612e-01	 1.829003e+01
 1.183373e+00	 3.340933e-01	 1.889346e+01
 1.179449e+00	 3.476897e-01	 1.878440e+01
 1.175358e+00	 3.612799e-01	 1.863682e+01
 1.171097e+00	 3.748607e-01	 1.845842e+01
 1.166667e+00	 3.884294e-01	 1.829836e+01
 1.162067e+00	 4.019828e-01	 1.817257e+01
 1.190501e+00	 3.361059e-01	 1.875581e+01
 1.186555e+00	 3.497843e-01	 1.865139e+01
 1.182438e+00	 3.634562e-01	 1.850567e+01
 1.178152e+00	 3.771189e-01	 1.833092e+01
 1.173695e+00	 3.907693e-01	 1.817835e+01
 1.169067e+00	 4.044044e-01	 1.805801e+01
 1.197630e+00	 3.381185e-01	 1.862147e+01
 1.193660e+00	 3.518788e-01	 1.852158e+01
 1.189519e+00	 3.656326e-01	 1.837755e+01
 1.185207e+00	 3.793771e-01	 1.820785e+01
 1.180723e+00	 3.931093e-01	 1.806218e+01
 1.176067e+00	 4.068260e-01	 1.794647e+01
 1.204759e+00	 3.401311e-01	 1.849015e+01
 1.200765e+00	 3.539733e-01	 1.839453e+01
 1.196599e+00	 3.678090e-01	 1.825204e+01
 1.192262e+00	 3.816353e-01	 1.808877e+01
 1.187751e+00	 3.954492e-01	 1.794963e+01
 1.183068e+00	 4.092476e-01	 1.783803e+01
 1.211888e+00	 3.421438e-01	 1.836158e+01
 1.207870e+00	 3.560678e-01	 1.826984e+01
 1.203680e+00	 3.699854e-01	 1.812870e+01
 1.199316e+00	 3.838935e-01	 1.797327e+01
 1.194779e+00	 3.977892e-01	 1.784045e+01
 1.190068e+00	 4.116692e-01	 1.773276e+01
 1.155066e+00	 3.995612e-01	 1.829003e+01
 1.150324e+00	 4.130148e-01	 1.816644e+01
 1.145413e+00	 4.264472e-01	 1.802534e+01
 1.140331e+00	 4.398553e-01	 1.786885e+01
 1.135079e+00	 4.532360e-01	 1.769890e+01
 1.129657e+00	 4.665862e-01	 1.751723e+01
 1.162067e+00	 4.019828e-01	 1.817257e+01
 1.157296e+00	 4.155179e-01	 1.805513e+01
 1.152354e+00	 4.290317e-01	 1.792059e+01
 1.147242e+00	 4.425211e-01	 1.777090e+01
 1.141958e+00	 4.559829e-01	 1.760788e+01
 1.136503e+00	 4.694140e-01	 1.743320e+01
 1.169067e+00	 4.044044e-01	 1.805801e+01
 1.164268e+00	 4.180211e-01	 1.794548e+01
 1.159296e+00	 4.316163e-01	 1.781652e+01
 1.154153e+00	 4.451869e-01	 1.767304e+01
 1.148838e+00	 4.587297e-01	 1.751684e+01
 1.143350e+00	 4.722418e-01	 1.734958e+01
 1.176067e+00	 4.068260e-01	 1.794647e+01
 1.171239e+00	 4.205242e-01	 1.783790e+01
 1.166238e+00	 4.342008e-01	 1.771367e+01
 1.161064e+00	 4.478526e-01	 1.757576e+01
 1.155717e+00	 4.614766e-01	 1.742601e+01
 1.150196e+00	 4.750696e-01	 1.726620e+01
 1.183068e+00	 4.092476e-01	 1.783803e+01
 1.178211e+00	 4.230273e-01	 1.773275e+01
 1.173180e+00	 4.367853e-01	 1.761254e+01
 1.167975e+00	 4.505184e-01	 1.747949e+01
 1.162596e+00	 4.642235e-01	 1.733564e+01
 1.157042e+00	 4.778974e-01	 1.718289e+01
 1.190068e+00	 4.116692e-01	 1.773276e+01
 1.185183e+00	 4.255304e-01	 1.763041e+01
 1.180122e+00	 4.393698e-01	 1.751359e+01
 1.174886e+00	 4.531842e-01	 1.738466e+01
 1.169475e+00	 4.669704e-01	 1.724591e+01
 1.163889e+00	 4.807252e-01	 1.709944e+01
 1.129657e+00	 4.665862e-01	 1.751723e+01
 1.124064e+00	 4.799028e-01	 1.733168e+01
 1.118301e+00	 4.931826e-01	 1.714933e+01
 1.112368e+00	 5.064225e-01	 1.697013e+01
 1.106265e+00	 5.196193e-01	 1.678914e+01
 1.099992e+00	 5.327699e-01	 1.659557e+01
 1.136503e+00	 4.694140e-01	 1.743320e+01
 1.130877e+00	 4.828113e-01	 1.725344e+01
 1.125079e+00	 4.961716e-01	 1.707446e+01
 1.119110e+00	 5.094917e-01	 1.689631e+01
 1.112970e+00	 5.227685e-01	 1.671842e+01
 1.106659e+00	 5.359988e-01	 1.653603e+01
 1.143350e+00	 4.722418e-01	 1.734958e+01
 1.137689e+00	 4.857198e-01	 1.717661e+01
 1.131857e+00	 4.991606e-01	 1.700255e+01
 1.125852e+00	 5.125610e-01	 1.682748e+01
 1.119675e+00	 5.259177e-01	 1.665091e+01
 1.113326e+00	 5.392277e-01	 1.647172e+01
 1.150196e+00	 4.750696e-01	 1.726620e+01
 1.144502e+00	 4.886283e-01	 1.710054e+01
 1.138634e+00	 5.021495e-01	 1.693245e+01
 1.132593e+00	 5.156302e-01	 1.676200e+01
 1.126379e+00	 5.290670e-01	 1.658873e+01
 1.119992e+00	 5.424566e-01	 1.641158e+01
 1.157042e+00	 4.778974e-01	 1.718289e+01
 1.151314e+00	 4.915368e-01	 1.702456e+01
 1.145412e+00	 5.051385e-01	 1.686300e+01
 1.139335e+00	 5.186994e-01	 1.669824e+01
 1.133084e+00	 5.322162e-01	 1.652979e+01
 1.126659e+00	 5.456855e-01	 1.635658e+01
 1.163889e+00	 4.807252e-01	 1.709944e+01
 1.158127e+00	 4.944453e-01	 1.694799e+01
 1.152189e+00	 5.081275e-01	 1.679308e+01
 1.146077e+00	 5.217686e-01	 1.663461e+01
 1.139788e+00	 5.353654e-01	 1.647201e+01
 1.133326e+00	 5.489144e-01	 1.630419e+01
 1.099992e+00	 5.327699e-01	 1.659557e+01
 1.093550e+00	 5.458710e-01	 1.639733e+01
 1.086939e+00	 5.589196e-01	 1.620132e+01
 1.080159e+00	 5.719123e-01	 1.600258e+01
 1.073211e+00	 5.848460e-01	 1.579562e+01
 1.066096e+00	 5.977176e-01	 1.557450e+01
 1.106659e+00	 5.359988e-01	 1.653603e+01
 1.100178e+00	 5.491794e-01	 1.634759e+01
 1.093526e+00	 5.623070e-01	 1.615953e+01
 1.086705e+00	 5.753784e-01	 1.596725e+01
 1.079716e+00	 5.883906e-01	 1.576554e+01
 1.072557e+00	 6.013401e-01	 1.554863e+01
 1.113326e+00	 5.392277e-01	 1.647172e+01
 1.106805e+00	 5.524877e-01	 1.629504e+01
 1.100114e+00	 5.656944e-01	 1.611706e+01
 1.093252e+00	 5.788446e-01	 1.593261e+01
 1.086220e+00	 5.919351e-01	 1.573675e+01
 1.079018e+00	 6.049627e-01	 1.552390e+01
 1.119992e+00	 5.424566e-01	 1.641158e+01
 1.113433e+00	 5.557960e-01	 1.623799e+01
 1.106701e+00	 5.690817e-01	 1.607123e+01
 1.099798e+00	 5.823107e-01	 1.589625e+01
 1.092724e+00	 5.954796e-01	 1.570740e+01
 1.085480e+00	 6.085852e-01	 1.549930e+01
 1.126659e+00	 5.456855e-01	 1.635658e+01
 1.120060e+00	 5.591043e-01	 1.618484e+01
 1.113289e+00	 5.724691e-01	 1.602022e+01
 1.106345e+00	 5.857768e-01	 1.585579e+01
 1.099228e+00	 5.990241e-01	 1.567565e+01
 1.091941e+00	 6.122077e-01	 1.547381e+01
 1.133326e+00	 5.489144e-01	 1.630419e+01
 1.126688e+00	 5.624126e-01	 1.613601e+01
 1.119876e+00	 5.758565e-01	 1.597198e+01
 1.112891e+00	 5.892430e-01	 1.580935e+01
 1.105733e+00	 6.025686e-01	 1.563962e+01
 1.098402e+00	 6.158303e-01	 1.544637e+01
 1.066096e+00	 5.977176e-01	 1.557450e+01
 1.058814e+00	 6.105238e-01	 1.535113e+01
 1.051367e+00	 6.232615e-01	 1.513704e+01
 1.043754e+00	 6.359276e-01	 1.492515e+01
 1.035978e+00	 6.485188e-01	 1.470814e+01
 1.028039e+00	 6.610321e-01	 1.447845e+01
 1.072557e+00	 6.013401e-01	 1.554863e+01
 1.065231e+00	 6.142240e-01	 1.532980e+01
 1.057739e+00	 6.270389e-01	 1.512142e+01
 1.050080e+00	 6.397817e-01	 1.491576e+01
 1.042257e+00	 6.524492e-01	 1.470484e+01
 1.034269e+00	 6.650383e-01	 1.448042e+01
 1.079018e+00	 6.049627e-01	 1.552390e+01
 1.071648e+00	 6.179241e-01	 1.530903e+01
 1.064111e+00	 6.308162e-01	 1.510575e+01
 1.056406e+00	 6.436358e-01	 1.490574e+01
 1.048535e+00	 6.563796e-01	 1.470036e+01
 1.040500e+00	 6.690446e-01	 1.448071e+01
 1.085480e+00	 6.085852e-01	 1.549930e+01
 1.078066e+00	 6.216243e-01	 1.528866e+01
 1.070483e+00	 6.345936e-01	 1.509039e+01
 1.062732e+00	 6.474899e-01	 1.489562e+01
 1.054814e+00	 6.603101e-01	 1.469512e+01
 1.046730e+00	 6.730509e-01	 1.447929e+01
 1.091941e+00	 6.122077e-01	 1.547381e+01
 1.084483e+00	 6.253244e-01	 1.526847e+01
 1.076855e+00	 6.383709e-01	 1.507561e+01
 1.069058e+00	 6.513440e-01	 1.488589e+01
 1.061093e+00	 6.642405e-01	 1.468947e+01
 1.052961e+00	 6.770571e-01	 1.447609e+01
 1.098402e+00	 6.158303e-01	 1.544637e+01
 1.090900e+00	 6.290246e-01	 1.524819e+01
 1.083226e+00	 6.421483e-01	 1.506164e+01
 1.075383e+00	 6.551981e-01	 1.487695e+01
 1.067371e+00	 6.681709e-01	 1.468371e+01
 1.059191e+00	 6.810634e-01	 1.447095e+01
 1.028039e+00	 6.610321e-01	 1.447845e+01
 1.019938e+00	 6.734643e-01	 1.424467e+01
 1.011676e+00	 6.858124e-01	 1.401567e+01
 1.003255e+00	 6.980732e-01	 1.378416e+01
 9.946763e-01	 7.102438e-01	 1.354290e+01
 9.859408e-01	 7.223211e-01	 1.328470e+01
 1.034269e+00	 6.650383e-01	 1.448042e+01
 1.026119e+00	 6.775459e-01	 1.425127e+01
 1.017807e+00	 6.899688e-01	 1.402714e+01
 1.009335e+00	 7.023040e-01	 1.380113e+01
 1.000705e+00	 7.145483e-01	 1.356642e+01
 9.919162e-01	 7.266988e-01	 1.331626e+01
 1.040500e+00	 6.690446e-01	 1.448071e+01
 1.032301e+00	 6.816275e-01	 1.425595e+01
 1.023939e+00	 6.941253e-01	 1.403697e+01
 1.015416e+00	 7.065347e-01	 1.381730e+01
 1.006733e+00	 7.188528e-01	 1.359058e+01
 9.978916e-01	 7.310765e-01	 1.335060e+01
 1.046730e+00	 6.730509e-01	 1.447929e+01
 1.038482e+00	 6.857091e-01	 1.425820e+01
 1.030070e+00	 6.982817e-01	 1.404437e+01
 1.021496e+00	 7.107655e-01	 1.383183e+01
 1.012761e+00	 7.231573e-01	 1.361474e+01
 1.003867e+00	 7.354542e-01	 1.338747e+01
 1.052961e+00	 6.770571e-01	 1.447609e+01
 1.044663e+00	 6.897907e-01	 1.425744e+01
 1.036202e+00	 7.024381e-01	 1.404853e+01
 1.027576e+00	 7.149962e-01	 1.384386e+01
 1.018790e+00	 7.274619e-01	 1.363819e+01
 1.009842e+00	 7.398319e-01	 1.342654e+01
 1.059191e+00	 6.810634e-01	 1.447095e+01
 1.050845e+00	 6.938723e-01	 1.425307e+01
 1.042333e+00	 7.065946e-01	 1.404856e+01
 1.033657e+00	 7.192270e-01	 1.385246e+01
 1.024818e+00	 7.317664e-01	 1.366017e+01
 1.015818e+00	 7.442096e-01	 1.346383e+01
 9.859408e-01	 7.223211e-01	 1.328470e+01
 9.770504e-01	 7.343022e-01	 1.303479e+01
 9.680065e-01	 7.461840e-01	 1.281486e+01
 9.588109e-01	 7.579636e-01	 1.257930e+01
 9.494652e-01	 7.696383e-01	 1.233131e+01
 9.399712e-01	 7.812050e-01	 1.208574e+01
 9.919162e-01	 7.266988e-01	 1.331626e+01
 9.829719e-01	 7.387525e-01	 1.307845e+01
 9.738732e-01	 7.507063e-01	 1.285941e+01
 9.646218e-01	 7.625574e-01	 1.262075e+01
 9.552195e-01	 7.743027e-01	 1.237453e+01
 9.456680e-01	 7.859396e-01	 1.213520e+01
 9.978916e-01	 7.310765e-01	 1.335060e+01
 9.888934e-01	 7.432028e-01	 1.312587e+01
 9.797399e-01	 7.552286e-01	 1.290051e+01
 9.704328e-01	 7.671511e-01	 1.265975e+01
 9.609738e-01	 7.789672e-01	 1.241614e+01
 9.513648e-01	 7.906742e-01	 1.218365e+01
 1.003867e+00	 7.354542e-01	 1.338747e+01
 9.948150e-01	 7.476531e-01	 1.316899e+01
 9.856066e-01	 7.597510e-01	 1.293759e+01
 9.762438e-01	 7.717448e-01	 1.269580e+01
 9.667282e-01	 7.836317e-01	 1.245559e+01
 9.570616e-01	 7.954087e-01	 1.223029e+01
 1.009842e+00	 7.398319e-01	 1.342654e+01
 1.000736e+00	 7.521034e-01	 1.320597e+01
 9.914734e-01	 7.642733e-01	 1.297007e+01
 9.820548e-01	 7.763385e-01	 1.272843e+01
 9.724825e-01	 7.882962e-01	 1.249231e+01
 9.627584e-01	 8.001433e-01	 1.227433e+01
 1.015818e+00	 7.442096e-01	 1.346383e+01
 1.006658e+00	 7.565537e-01	 1.323592e+01
 9.973401e-01	 7.687956e-01	 1.299733e+01
 9.878657e-01	 7.809322e-01	 1.275712e+01
 9.782368e-01	 7.929606e-01	 1.252573e+01
 9.684552e-01	 8.048779e-01	 1.231496e+01
 9.399712e-01	 7.812050e-01	 1.208574e+01
 9.303309e-01	 7.926611e-01	 1.183709e+01
 9.205461e-01	 8.040037e-01	 1.157575e+01
 9.106190e-01	 8.152302e-01	 1.131176e+01
 9.005514e-01	 8.263379e-01	 1.105560e+01
 8.903458e-01	 8.373241e-01	 1.081812e+01
 9.456680e-01	 7.859396e-01	 1.213520e+01
 9.359693e-01	 7.974651e-01	 1.189397e+01
 9.261252e-01	 8.088765e-01	 1.163837e+01
 9.161379e-01	 8.201710e-01	 1.137886e+01
 9.060093e-01	 8.313460e-01	 1.112635e+01
 8.957418e-01	 8.423988e-01	 1.089214e+01
 9.513648e-01	 7.906742e-01	 1.218365e+01
 9.416076e-01	 8.022691e-01	 1.195017e+01
 9.317043e-01	 8.137492e-01	 1.170053e+01
 9.216568e-01	 8.251118e-01	 1.144558e+01
 9.114672e-01	 8.363541e-01	 1.119668e+01
 9.011378e-01	 8.474735e-01	 1.096562e+01
 9.570616e-01	 7.954087e-01	 1.223029e+01
 9.472460e-01	 8.070731e-01	 1.200463e+01
 9.372833e-01	 8.186220e-01	 1.176094e+01
 9.271757e-01	 8.300526e-01	 1.151046e+01
 9.169251e-01	 8.413622e-01	 1.126504e+01
 9.065339e-01	 8.525481e-01	 1.103696e+01
 9.627584e-01	 8.001433e-01	 1.227433e+01
 9.528844e-01	 8.118771e-01	 1.205627e+01
 9.428624e-01	 8.234947e-01	 1.181828e+01
 9.326946e-01	 8.349934e-01	 1.157204e+01
 9.223830e-01	 8.463703e-01	 1.132987e+01
 9.119299e-01	 8.576228e-01	 1.110457e+01
 9.684552e-01	 8.048779e-01	 1.231496e+01
 9.585227e-01	 8.166811e-01	 1.210401e+01
 9.484415e-01	 8.283675e-01	 1.187127e+01
 9.382135e-01	 8.399341e-01	 1.162888e+01
 9.278409e-01	 8.513784e-01	 1.138963e+01
 9.173259e-01	 8.626975e-01	 1.116687e+01
 8.903458e-01	 8.373241e-01	 1.081812e+01
 8.800041e-01	 8.481863e-01	 1.057910e+01
 8.695287e-01	 8.589220e-01	 1.032008e+01
 8.589220e-01	 8.695287e-01	 1.005488e+01
 8.481863e-01	 8.800041e-01	 9.797294e+00
 8.373241e-01	 8.903458e-01	 9.561050e+00
 8.957418e-01	 8.423988e-01	 1.089214e+01
 8.853374e-01	 8.533268e-01	 1.065652e+01
 8.747986e-01	 8.641276e-01	 1.040102e+01
 8.641276e-01	 8.747986e-01	 1.013914e+01
 8.533268e-01	 8.853374e-01	 9.884364e+00
 8.423988e-01	 8.957418e-01	 9.650069e+00
 9.011378e-01	 8.474735e-01	 1.096562e+01
 8.906708e-01	 8.584673e-01	 1.073311e+01
 8.800685e-01	 8.693332e-01	 1.048065e+01
 8.693332e-01	 8.800685e-01	 1.022156e+01
 8.584673e-01	 8.906708e-01	 9.969160e+00
 8.474735e-01	 9.011378e-01	 9.736609e+00
 9.065339e-01	 8.525481e-01	 1.103696e+01
 8.960042e-01	 8.636079e-01	 1.080728e+01
 8.853383e-01	 8.745387e-01	 1.055745e+01
 8.745387e-01	 8.853383e-01	 1.030076e+01
 8.636079e-01	 8.960042e-01	 1.005045e+01
 8.525481e-01	 9.065339e-01	 9.819640e+00
 9.119299e-01	 8.576228e-01	 1.110457e+01
 9.013375e-01	 8.687484e-01	 1.087745e+01
 8.906082e-01	 8.797443e-01	 1.062992e+01
 8.797443e-01	 8.906082e-01	 1.037532e+01
 8.687484e-01	 9.013375e-01	 1.012699e+01
 8.576228e-01	 9.119299e-01	 9.898125e+00
 9.173259e-01	 8.626975e-01	 1.116687e+01
 9.066709e-01	 8.738889e-01	 1.094207e+01
 8.958781e-01	 8.849499e-01	 1.069656e+01
 8.849499e-01	 8.958781e-01	 1.044386e+01
 8.738889e-01	 9.066709e-01	 1.019754e+01
 8.626975e-01	 9.173259e-01	 9.971014e+00
 8.373241e-01	 8.903458e-01	 9.561050e+00
 8.263379e-01	 9.005514e-01	 9.324763e+00
 8.152302e-01	 9.106190e-01	 9.066756e+00
 8.040037e-01	 9.205461e-01	 8.799757e+00
 7.926611e-01	 9.303309e-01	 8.535888e+00
 7.812050e-01	 9.399712e-01	 8.286548e+00
 8.423988e-01	 8.957418e-01	 9.650069e+00
 8.313460e-01	 9.060093e-01	 9.414604e+00
 8.201710e-01	 9.161379e-01	 9.156912e+00
 8.088765e-01	 9.261252e-01	 8.890728e+00
 7.974651e-01	 9.359693e-01	 8.629197e+00
 7.859396e-01	 9.456680e-01	 8.384760e+00
 8.474735e-01	 9.011378e-01	 9.736609e+00
 8.363541e-01	 9.114672e-01	 9.502297e+00
 8.251118e-01	 9.216568e-01	 9.245786e+00
 8.137492e-01	 9.317043e-01	 8.981477e+00
 8.022691e-01	 9.416076e-01	 8.723188e+00
 7.906742e-01	 9.513648e-01	 8.484031e+00
 8.525481e-01	 9.065339e-01	 9.819640e+00
 8.413622e-01	 9.169251e-01	 9.586951e+00
 8.300526e-01	 9.271757e-01	 9.332447e+00
 8.186220e-01	 9.372833e-01	 9.070867e+00
 8.070731e-01	 9.472460e-01	 8.816354e+00
 7.954087e-01	 9.570616e-01	 8.582326e+00
 8.576228e-01	 9.119299e-01	 9.898125e+00
 8.463703e-01	 9.223830e-01	 9.667660e+00
 8.349934e-01	 9.326946e-01	 9.415950e+00
 8.234947e-01	 9.428624e-01	 9.157747e+00
 8.118771e-01	 9.528844e-01	 8.907178e+00
 8.001433e-01	 9.627584e-01	 8.677615e+00
 8.626975e-01	 9.173259e-01	 9.971014e+00
 8.513784e-01	 9.278409e-01	 9.743502e+00
 8.399341e-01	 9.382135e-01	 9.495333e+00
 8.283675e-01	 9.484415e-01	 9.240952e+00
 8.166811e-01	 9.585227e-01	 8.994141e+00
 8.048779e-01	 9.684552e-01	 8.767872e+00
 7.812050e-01	 9.399712e-01	 8.286548e+00
 7.696383e-01	 9.494652e-01	 8.049690e+00
 7.579636e-01	 9.588109e-01	 7.815571e+00
 7.461840e-01	 9.680065e-01	 7.582304e+00
 7.343022e-01	 9.770504e-01	 7.345383e+00
 7.223211e-01	 9.859408e-01	 7.092086e+00
 7.859396e-01	 9.456680e-01	 8.384760e+00
 7.743027e-01	 9.552195e-01	 8.153426e+00
 7.625574e-01	 9.646218e-01	 7.922568e+00
 7.507063e-01	 9.738732e-01	 7.689886e+00
 7.387525e-01	 9.829719e-01	 7.451353e+00
 7.266988e-01	 9.919162e-01	 7.195561e+00
 7.906742e-01	 9.513648e-01	 8.484031e+00
 7.789672e-01	 9.609738e-01	 8.257632e+00
 7.671511e-01	 9.704328e-01	 8.028698e+00
 7.552286e-01	 9.797399e-01	 7.795140e+00
 7.432028e-01	 9.888934e-01	 7.553200e+00
 7.310765e-01	 9.978916e-01	 7.294603e+00
 7.954087e-01	 9.570616e-01	 8.582326e+00
 7.836317e-01	 9.667282e-01	 8.359829e+00
 7.717448e-01	 9.762438e-01	 8.131346e+00
 7.597510e-01	 9.856066e-01	 7.895613e+00
 7.476531e-01	 9.948150e-01	 7.649683e+00
 7.354542e-01	 1.003867e+00	 7.388050e+00
 8.001433e-01	 9.627584e-01	 8.677615e+00
 7.882962e-01	 9.724825e-01	 8.457551e+00
 7.763385e-01	 9.820548e-01	 8.227910e+00
 7.642733e-01	 9.914734e-01	 7.988858e+00
 7.521034e-01	 1.000736e+00	 7.738886e+00
 7.398319e-01	 1.009842e+00	 7.474712e+00
 8.048779e-01	 9.684552e-01	 8.767872e+00
 7.929606e-01	 9.782368e-01	 8.548344e+00
 7.809322e-01	 9.878657e-01	 8.315804e+00
 7.687956e-01	 9.973401e-01	 8.072436e+00
 7.565537e-01	 1.006658e+00	 7.818790e+00
 7.442096e-01	 1.015818e+00	 7.553696e+00
 7.223211e-01	 9.859408e-01	 7.092086e+00
 7.102438e-01	 9.946763e-01	 6.837297e+00
 6.980732e-01	 1.003255e+00	 6.600182e+00
 6.858124e-01	 1.011676e+00	 6.373543e+00
 6.734643e-01	 1.019938e+00	 6.149097e+00
 6.610321e-01	 1.028039e+00	 5.917523e+00
 7.266988e-01	 9.919162e-01	 7.195561e+00
 7.145483e-01	 1.000705e+00	 6.937667e+00
 7.023040e-01	 1.009335e+00	 6.698833e+00
 6.899688e-01	 1.017807e+00	 6.471921e+00
 6.775459e-01	 1.026119e+00	 6.248695e+00
 6.650383e-01	 1.034269e+00	 6.019860e+00
 7.310765e-01	 9.978916e-01	 7.294603e+00
 7.188528e-01	 1.006733e+00	 7.035129e+00
 7.065347e-01	 1.015416e+00	 6.797175e+00
 6.941253e-01	 1.023939e+00	 6.572695e+00
 6.816275e-01	 1.032301e+00	 6.352489e+00
 6.690446e-01	 1.040500e+00	 6.126250e+00
 7.354542e-01	 1.003867e+00	 7.388050e+00
 7.231573e-01	 1.012761e+00	 7.129160e+00
 7.107655e-01	 1.021496e+00	 6.894908e+00
 6.982817e-01	 1.030070e+00	 6.675388e+00
 6.857091e-01	 1.038482e+00	 6.459445e+00
 6.730509e-01	 1.046730e+00	 6.234738e+00
 7.398319e-01	 1.009842e+00	 7.474712e+00
 7.274619e-01	 1.018790e+00	 7.219196e+00
 7.149962e-01	 1.027576e+00	 6.991688e+00
 7.024381e-01	 1.036202e+00	 6.779483e+00
 6.897907e-01	 1.044663e+00	 6.568501e+00
 6.770571e-01	 1.052961e+00	 6.343362e+00
 7.442096e-01	 1.015818e+00	 7.553696e+00
 7.317664e-01	 1.024818e+00	 7.304634e+00
 7.192270e-01	 1.033657e+00	 7.087124e+00
 7.065946e-01	 1.042333e+00	 6.884421e+00
 6.938723e-01	 1.050845e+00	 6.678569e+00
 6.810634e-01	 1.059191e+00	 6.450156e+00
 6.610321e-01	 1.028039e+00	 5.917523e+00
 6.485188e-01	 1.035978e+00	 5.689164e+00
 6.359276e-01	 1.043754e+00	 5.475764e+00
 6.232615e-01	 1.051367e+00	 5.268789e+00
 6.105238e-01	 1.058814e+00	 5.059004e+00
 5.977176e-01	 1.066096e+00	 4.836523e+00
 6.650383e-01	 1.034269e+00	 6.019860e+00
 6.524492e-01	 1.042257e+00	 5.796020e+00
 6.397817e-01	 1.050080e+00	 5.587741e+00
 6.270389e-01	 1.057739e+00	 5.384292e+00
 6.142240e-01	 1.065231e+00	 5.174157e+00
 6.013401e-01	 1.072557e+00	 4.945106e+00
 6.690446e-01	 1.040500e+00	 6.126250e+00
 6.563796e-01	 1.048535e+00	 5.904027e+00
 6.436358e-01	 1.056406e+00	 5.696200e+00
 6.308162e-01	 1.064111e+00	 5.491522e+00
 6.179241e-01	 1.071648e+00	 5.277932e+00
 6.049627e-01	 1.079018e+00	 5.042620e+00
 6.730509e-01	 1.046730e+00	 6.234738e+00
 6.603101e-01	 1.054814e+00	 6.010452e+00
 6.474899e-01	 1.062732e+00	 5.798250e+00
 6.345936e-01	 1.070483e+00	 5.588022e+00
 6.216243e-01	 1.078066e+00	 5.368856e+00
 6.085852e-01	 1.085480e+00	 5.129111e+00
 6.770571e-01	 1.052961e+00	 6.343362e+00
 6.642405e-01	 1.061093e+00	 6.112575e+00
 6.513440e-01	 1.069058e+00	 5.891020e+00
 6.383709e-01	 1.076855e+00	 5.671342e+00
 6.253244e-01	 1.084483e+00	 5.445450e+00
 6.122077e-01	 1.091941e+00	 5.204574e+00
 6.810634e-01	 1.059191e+00	 6.450156e+00
 6.681709e-01	 1.067371e+00	 6.207693e+00
 6.551981e-01	 1.075383e+00	 5.971658e+00
 6.421483e-01	 1.083226e+00	 5.739045e+00
 6.290246e-01	 1.090900e+00	 5.506220e+00
 6.158303e-01	 1.098402e+00	 5.268964e+00
 5.977176e-01	 1.066096e+00	 4.836523e+00
 5.848460e-01	 1.073211e+00	 4.610022e+00
 5.719123e-01	 1.080159e+00	 4.393819e+00
 5.589196e-01	 1.086939e+00	 4.185841e+00
 5.458710e-01	 1.093550e+00	 3.983773e+00
 5.327699e-01	 1.099992e+00	 3.785105e+00
 6.013401e-01	 1.072557e+00	 4.945106e+00
 5.883906e-01	 1.079716e+00	 4.706591e+00
 5.753784e-01	 1.086705e+00	 4.478122e+00
 5.623070e-01	 1.093526e+00	 4.261916e+00
 5.491794e-01	 1.100178e+00	 4.060039e+00
 5.359988e-01	 1.106659e+00	 3.874442e+00
 6.049627e-01	 1.079018e+00	 5.042620e+00
 5.919351e-01	 1.086220e+00	 4.797926e+00
 5.788446e-01	 1.093252e+00	 4.568463e+00
 5.656944e-01	 1.100114e+00	 4.359230e+00
 5.524877e-01	 1.106805e+00	 4.175125e+00
 5.392277e-01	 1.113326e+00	 4.015829e+00
 6.085852e-01	 1.085480e+00	 5.129111e+00
 5.954796e-01	 1.092724e+00	 4.885558e+00
 5.823107e-01	 1.099798e+00	 4.667325e+00
 5.690817e-01	 1.106701e+00	 4.480709e+00
 5.557960e-01	 1.113433e+00	 4.326313e+00
 5.424566e-01	 1.119992e+00	 4.144429e+00
 6.122077e-01	 1.091941e+00	 5.204574e+00
 5.990241e-01	 1.099228e+00	 4.970939e+00
 5.857768e-01	 1.106345e+00	 4.777089e+00
 5.724691e-01	 1.113289e+00	 4.624295e+00
 5.591043e-01	 1.120060e+00	 4.450079e+00
 5.456855e-01	 1.126659e+00	 4.242141e+00
 6.158303e-01	 1.098402e+00	 5.268964e+00
 6.025686e-01	 1.105733e+00	 5.055441e+00
 5.892430e-01	 1.112891e+00	 4.896836e+00
 5.758565e-01	 1.119876e+00	 4.728634e+00
 5.624126e-01	 1.126688e+00	 4.530391e+00
 5.489144e-01	 1.133326e+00	 4.311678e+00
 5.327699e-01	 1.099992e+00	 3.785105e+00
 5.196193e-01	 1.106265e+00	 3.606397e+00
 5.064225e-01	 1.112368e+00	 3.465307e+00
 4.931826e-01	 1.118301e+00	 3.313668e+00
 4.799028e-01	 1.124064e+00	 3.135061e+00
 4.665862e-01	 1.129657e+00	 2.938711e+00
 5.359988e-01	 1.106659e+00	 3.874442e+00
 5.227685e-01	 1.112970e+00	 3.721672e+00
 5.094917e-01	 1.119110e+00	 3.563385e+00
 4.961716e-01	 1.125079e+00	 3.384456e+00
 4.828113e-01	 1.130877e+00	 3.191456e+00
 4.694140e-01	 1.136503e+00	 2.991760e+00
 5.392277e-01	 1.113326e+00	 4.015829e+00
 5.259177e-01	 1.119675e+00	 3.840994e+00
 5.125610e-01	 1.125852e+00	 3.653552e+00
 4.991606e-01	 1.131857e+00	 3.457185e+00
 4.857198e-01	 1.137689e+00	 3.256409e+00
 4.722418e-01	 1.143350e+00	 3.056520e+00
 5.424566e-01	 1.119992e+00	 4.144429e+00
 5.290670e-01	 1.126379e+00	 3.941498e+00
 5.156302e-01	 1.132593e+00	 3.736961e+00
 5.021495e-01	 1.138634e+00	 3.532236e+00
 4.886283e-01	 1.144502e+00	 3.329557e+00
 4.750696e-01	 1.150196e+00	 3.131914e+00
 5.456855e-01	 1.126659e+00	 4.242141e+00
 5.322162e-01	 1.133084e+00	 4.025123e+00
 5.186994e-01	 1.139335e+00	 3.814772e+00
 5.051385e-01	 1.145412e+00	 3.610016e+00
 4.915368e-01	 1.151314e+00	 3.410576e+00
 4.778974e-01	 1.157042e+00	 3.216919e+00
 5.489144e-01	 1.133326e+00	 4.311678e+00
 5.353654e-01	 1.139788e+00	 4.093801e+00
 5.217686e-01	 1.146077e+00	 3.888156e+00
 5.081275e-01	 1.152189e+00	 3.690953e+00
 4.944453e-01	 1.158127e+00	 3.499182e+00
 4.807252e-01	 1.163889e+00	 3.310567e+00
 4.665862e-01	 1.129657e+00	 2.938711e+00
 4.532360e-01	 1.135079e+00	 2.744072e+00
 4.398553e-01	 1.140331e+00	 2.564430e+00
 4.264472e-01	 1.145413e+00	 2.400763e+00
 4.130148e-01	 1.150324e+00	 2.254552e+00
 3.995612e-01	 1.155066e+00	 2.127730e+00
 4.694140e-01	 1.136503e+00	 2.991760e+00
 4.559829e-01	 1.141958e+00	 2.801815e+00
 4.425211e-01	 1.147242e+00	 2.631254e+00
 4.290317e-01	 1.152354e+00	 2.478188e+00
 4.155179e-01	 1.157296e+00	 2.341222e+00
 4.019828e-01	 1.162067e+00	 2.219399e+00
 4.722418e-01	 1.143350e+00	 3.056520e+00
 4.587297e-01	 1.148838e+00	 2.870967e+00
 4.451869e-01	 1.154153e+00	 2.706625e+00
 4.316163e-01	 1.159296e+00	 2.559866e+00
 4.180211e-01	 1.164268e+00	 2.427549e+00
 4.044044e-01	 1.169067e+00	 2.306971e+00
 4.750696e-01	 1.150196e+00	 3.131914e+00
 4.614766e-01	 1.155717e+00	 2.949889e+00
 4.478526e-01	 1.161064e+00	 2.788606e+00
 4.342008e-01	 1.166238e+00	 2.643797e+00
 4.205242e-01	 1.171239e+00	 2.511691e+00
 4.068260e-01	 1.176067e+00	 2.388960e+00
 4.778974e-01	 1.157042e+00	 3.216919e+00
 4.642235e-01	 1.162596e+00	 3.037011e+00
 4.505184e-01	 1.167975e+00	 2.875329e+00
 4.367853e-01	 1.173180e+00	 2.728050e+00
 4.230273e-01	 1.178211e+00	 2.591866e+00
 4.092476e-01	 1.183068e+00	 2.463927e+00
 4.807252e-01	 1.163889e+00	 3.310567e+00
 4.669704e-01	 1.169475e+00	 3.130824e+00
 4.531842e-01	 1.174886e+00	 2.964993e+00
 4.393698e-01	 1.180122e+00	 2.810761e+00
 4.255304e-01	 1.185183e+00	 2.666354e+00
 4.116692e-01	 1.190068e+00	 2.530486e+00
 3.995612e-01	 1.155066e+00	 2.127730e+00
 3.860895e-01	 1.159639e+00	 1.998188e+00
 3.726026e-01	 1.164042e+00	 1.847281e+00
 3.591035e-01	 1.168277e+00	 1.684536e+00
 3.455952e-01	 1.172344e+00	 1.529611e+00
 3.320807e-01	 1.176244e+00	 1.405790e+00
 4.019828e-01	 1.162067e+00	 2.219399e+00
 3.884294e-01	 1.166667e+00	 2.089052e+00
 3.748607e-01	 1.171097e+00	 1.933654e+00
 3.612799e-01	 1.175358e+00	 1.764407e+00
 3.476897e-01	 1.179449e+00	 1.601912e+00
 3.340933e-01	 1.183373e+00	 1.472405e+00
 4.044044e-01	 1.169067e+00	 2.306971e+00
 3.907693e-01	 1.173695e+00	 2.174147e+00
 3.771189e-01	 1.178152e+00	 2.014660e+00
 3.634562e-01	 1.182438e+00	 1.841050e+00
 3.497843e-01	 1.186555e+00	 1.673775e+00
 3.361059e-01	 1.190501e+00	 1.541091e+00
 4.068260e-01	 1.176067e+00	 2.388960e+00
 3.931093e-01	 1.180723e+00	 2.252340e+00
 3.793771e-01	 1.185207e+00	 2.089346e+00
 3.656326e-01	 1.189519e+00	 1.913436e+00
 3.518788e-01	 1.193660e+00	 1.744084e+00
 3.381185e-01	 1.197630e+00	 1.610522e+00
 4.092476e-01	 1.183068e+00	 2.463927e+00
 3.954492e-01	 1.187751e+00	 2.322538e+00
 3.816353e-01	 1.192262e+00	 2.156791e+00
 3.678090e-01	 1.196599e+00	 1.980558e+00
 3.539733e-01	 1.200765e+00	 1.811741e+00
 3.401311e-01	 1.204759e+00	 1.679388e+00
 4.116692e-01	 1.190068e+00	 2.530486e+00
 3.977892e-01	 1.194779e+00	 2.383686e+00
 3.838935e-01	 1.199316e+00	 2.216106e+00
 3.699854e-01	 1.203680e+00	 2.041431e+00
 3.560678e-01	 1.207870e+00	 1.875668e+00
 3.421438e-01	 1.211888e+00	 1.746399e+00
 3.320807e-01	 1.176244e+00	 1.405790e+00
 3.185628e-01	 1.179977e+00	 1.304609e+00
 3.050445e-01	 1.183543e+00	 1.202400e+00
 2.915285e-01	 1.186945e+00	 1.100232e+00
 2.780177e-01	 1.190182e+00	 9.992979e-01
 2.645149e-01	 1.193256e+00	 9.008290e-01
 3.340933e-01	 1.183373e+00	 1.472405e+00
 3.204935e-01	 1.187128e+00	 1.367889e+00
 3.068933e-01	 1.190716e+00	 1.263083e+00
 2.932954e-01	 1.194139e+00	 1.158871e+00
 2.797027e-01	 1.197395e+00	 1.056218e+00
 2.661180e-01	 1.200488e+00	 9.560834e-01
 3.361059e-01	 1.190501e+00	 1.541091e+00
 3.224242e-01	 1.194279e+00	 1.434719e+00
 3.087420e-01	 1.197889e+00	 1.327751e+00
 2.950622e-01	 1.201332e+00	 1.221254e+00
 2.813877e-01	 1.204608e+00	 1.116327e+00
 2.677211e-01	 1.207719e+00	 1.014022e+00
 3.381185e-01	 1.197630e+00	 1.610522e+00
 3.243549e-01	 1.201431e+00	 1.503550e+00
 3.105908e-01	 1.205062e+00	 1.394728e+00
 2.968291e-01	 1.208526e+00	 1.285660e+00
 2.830726e-01	 1.211822e+00	 1.177939e+00
 2.693242e-01	 1.214951e+00	 1.073064e+00
 3.401311e-01	 1.204759e+00	 1.679388e+00
 3.262856e-01	 1.208582e+00	 1.572853e+00
 3.124395e-01	 1.212235e+00	 1.462353e+00
 2.985959e-01	 1.215719e+00	 1.350384e+00
 2.847576e-01	 1.219035e+00	 1.239381e+00
 2.709274e-01	 1.222183e+00	 1.131636e+00
 3.421438e-01	 1.211888e+00	 1.746399e+00
 3.282163e-01	 1.215734e+00	 1.641117e+00
 3.142883e-01	 1.219408e+00	 1.528987e+00
 3.003627e-01	 1.222913e+00	 1.413740e+00
 2.864425e-01	 1.226248e+00	 1.298994e+00
 2.725305e-01	 1.229415e+00	 1.188175e+00
 2.645149e-01	 1.193256e+00	 9.008290e-01
 2.510227e-01	 1.196167e+00	 8.037690e-01
 2.375438e-01	 1.198916e+00	 7.082517e-01
 2.240809e-01	 1.201505e+00	 6.171628e-01
 2.106366e-01	 1.203935e+00	 5.332121e-01
 1.972134e-01	 1.206206e+00	 4.589126e-01
 2.661180e-01	 1.200488e+00	 9.560834e-01
 2.525440e-01	 1.203416e+00	 8.572509e-01
 2.389834e-01	 1.206182e+00	 7.599871e-01
 2.254390e-01	 1.208787e+00	 6.672915e-01
 2.119132e-01	 1.211232e+00	 5.819547e-01
 1.984087e-01	 1.213517e+00	 5.065420e-01
 2.677211e-01	 1.207719e+00	 1.014022e+00
 2.540654e-01	 1.210666e+00	 9.132372e-01
 2.404231e-01	 1.213449e+00	 8.143156e-01
 2.267970e-01	 1.216069e+00	 7.202326e-01
 2.131898e-01	 1.218528e+00	 6.337200e-01
 1.996039e-01	 1.220827e+00	 5.572540e-01
 2.693242e-01	 1.214951e+00	 1.073064e+00
 2.555867e-01	 1.217915e+00	 9.702776e-01
 2.418628e-01	 1.220715e+00	 8.699076e-01
 2.281551e-01	 1.223351e+00	 7.747681e-01
 2.144663e-01	 1.225825e+00	 6.873934e-01
 2.007991e-01	 1.228137e+00	 6.100305e-01
 2.709274e-01	 1.222183e+00	 1.131636e+00
 2.571081e-01	 1.225165e+00	 1.026927e+00
 2.433024e-01	 1.227981e+00	 9.254356e-01
 2.295132e-01	 1.230633e+00	 8.296796e-01
 2.157429e-01	 1.233121e+00	 7.418580e-01
 2.019944e-01	 1.235448e+00	 6.638501e-01
 2.725305e-01	 1.229415e+00	 1.188175e+00
 2.586294e-01	 1.232414e+00	 1.081745e+00
 2.447421e-01	 1.235247e+00	 9.795740e-01
 2.308712e-01	 1.237915e+00	 8.837481e-01
 2.170195e-01	 1.240418e+00	 7.959953e-01
 2.031896e-01	 1.242758e+00	 7.176886e-01
 1.972134e-01	 1.206206e+00	 4.589126e-01
 1.838139e-01	 1.208321e+00	 3.920321e-01
 1.704405e-01	 1.210280e+00	 3.290405e-01
 1.570957e-01	 1.212084e+00	 2.702127e-01
 1.437818e-01	 1.213736e+00	 2.156545e-01
 1.305012e-01	 1.215235e+00	 1.653216e-01
 1.984087e-01	 1.213517e+00	 5.065420e-01
 1.849280e-01	 1.215644e+00	 4.387747e-01
 1.714735e-01	 1.217615e+00	 3.750333e-01
 1.580478e-01	 1.219430e+00	 3.155549e-01
 1.446532e-01	 1.221092e+00	 2.604024e-01
 1.312921e-01	 1.222600e+00	 2.094879e-01
 1.996039e-01	 1.220827e+00	 5.572540e-01
 1.860420e-01	 1.222967e+00	 4.884340e-01
 1.725065e-01	 1.224950e+00	 4.236256e-01
 1.589999e-01	 1.226776e+00	 3.631092e-01
 1.455246e-01	 1.228447e+00	 3.069838e-01
 1.320830e-01	 1.229965e+00	 2.551954e-01
 2.007991e-01	 1.228137e+00	 6.100305e-01
 1.871560e-01	 1.230290e+00	 5.400908e-01
 1.735395e-01	 1.232285e+00	 4.740057e-01
 1.599520e-01	 1.234122e+00	 4.121770e-01
 1.463960e-01	 1.235803e+00	 3.548157e-01
 1.328739e-01	 1.237330e+00	 3.019757e-01
 2.019944e-01	 1.235448e+00	 6.638501e-01
 1.882700e-01	 1.237614e+00	 5.928219e-01
 1.745724e-01	 1.239620e+00	 5.253575e-01
 1.609041e-01	 1.241468e+00	 4.620548e-01
 1.472674e-01	 1.243159e+00	 4.033097e-01
 1.336648e-01	 1.244695e+00	 3.493553e-01
 2.031896e-01	 1.242758e+00	 7.176886e-01
 1.893840e-01	 1.244937e+00	 6.457002e-01
 1.756054e-01	 1.246955e+00	 5.768601e-01
 1.618562e-01	 1.248814e+00	 5.120338e-01
 1.481388e-01	 1.250515e+00	 4.518720e-01
 1.344557e-01	 1.252061e+00	 3.968548e-01
 1.305012e-01	 1.215235e+00	 1.653216e-01
 1.172560e-01	 1.216585e+00	 1.194122e-01
 1.040487e-01	 1.217785e+00	 7.845019e-02
 9.088122e-02	 1.218839e+00	 4.271376e-02
 7.775585e-02	 1.219746e+00	 1.241114e-02
 6.467464e-02	 1.220510e+00	-1.229769e-02
 1.312921e-01	 1.222600e+00	 2.094879e-01
 1.179667e-01	 1.223958e+00	 1.629750e-01
 1.046793e-01	 1.225166e+00	 1.213910e-01
 9.143201e-02	 1.226226e+00	 8.503908e-02
 7.822710e-02	 1.227139e+00	 5.416803e-02
 6.506660e-02	 1.227907e+00	 2.899815e-02
 1.320830e-01	 1.229965e+00	 2.551954e-01
 1.186773e-01	 1.231331e+00	 2.079128e-01
 1.053098e-01	 1.232546e+00	 1.656283e-01
 9.198281e-02	 1.233612e+00	 1.286285e-01
 7.869835e-02	 1.234531e+00	 9.716151e-02
 6.545857e-02	 1.235304e+00	 7.146795e-02
 1.328739e-01	 1.237330e+00	 3.019757e-01
 1.193880e-01	 1.238704e+00	 2.538668e-01
 1.059404e-01	 1.239927e+00	 2.109040e-01
 9.253360e-02	 1.240999e+00	 1.733148e-01
 7.916960e-02	 1.241924e+00	 1.413048e-01
 6.585054e-02	 1.242701e+00	 1.150934e-01
 1.336648e-01	 1.244695e+00	 3.493553e-01
 1.200986e-01	 1.246078e+00	 3.004727e-01
 1.065710e-01	 1.247307e+00	 2.569549e-01
 9.308440e-02	 1.248386e+00	 2.189264e-01
 7.964084e-02	 1.249316e+00	 1.865072e-01
 6.624251e-02	 1.250098e+00	 1.598534e-01
 1.344557e-01	 1.252061e+00	 3.968548e-01
 1.208092e-01	 1.253451e+00	 3.473609e-01
 1.072016e-01	 1.254688e+00	 3.035127e-01
 9.363520e-02	 1.255773e+00	 2.652873e-01
 8.011209e-02	 1.256708e+00	 2.326745e-01
 6.663447e-02	 1.257495e+00	 2.057239e-01
 6.467464e-02	 1.220510e+00	-1.229769e-02
 5.163960e-02	 1.221131e+00	-3.244283e-02
 3.865271e-02	 1.221611e+00	-4.874544e-02
 2.571591e-02	 1.221952e+00	-6.061325e-02
 1.283106e-02	 1.222155e+00	-6.745787e-02
 0.000000e+00	 1.222222e+00	-6.869141e-02
 6.506660e-02	 1.227907e+00	 2.899815e-02
 5.195256e-02	 1.228532e+00	 8.547652e-03
 3.888697e-02	 1.229015e+00	-7.961931e-03
 2.587176e-02	 1.229357e+00	-1.999099e-02
 1.290883e-02	 1.229562e+00	-2.696367e-02
 0.000000e+00	 1.229630e+00	-2.826167e-02
 6.545857e-02	 1.235304e+00	 7.146795e-02
 5.226553e-02	 1.235932e+00	 5.060209e-02
 3.912123e-02	 1.236418e+00	 3.377024e-02
 2.602762e-02	 1.236763e+00	 2.150172e-02
 1.298659e-02	 1.236969e+00	 1.440251e-02
 0.000000e+00	 1.237037e+00	 1.316449e-02
 6.585054e-02	 1.242701e+00	 1.150934e-01
 5.257850e-02	 1.243333e+00	 9.375815e-02
 3.935549e-02	 1.243822e+00	 7.653035e-02
 2.618347e-02	 1.244169e+00	 6.396906e-02
 1.306436e-02	 1.244376e+00	 5.675080e-02
 0.000000e+00	 1.244444e+00	 5.568194e-02
 6.624251e-02	 1.250098e+00	 1.598534e-01
 5.289147e-02	 1.250734e+00	 1.380515e-01
 3.958975e-02	 1.251226e+00	 1.203967e-01
 2.633933e-02	 1.251575e+00	 1.075153e-01
 1.314212e-02	 1.251783e+00	 1.001925e-01
 0.000000e+00	 1.251852e+00	 9.938799e-02
 6.663447e-02	 1.257495e+00	 2.057239e-01
 5.320443e-02	 1.258135e+00	 1.835160e-01
 3.982401e-02	 1.258629e+00	 1.654467e-01
 2.649518e-02	 1.258980e+00	 1.522449e-01
 1.321988e-02	 1.259190e+00	 1.448403e-01
 0.000000e+00	 1.259259e+00	 1.443823e-01
 1.259259e+00	 0.000000e+00	 1.956465e+01
 1.259190e+00	 1.321988e-02	 1.956078e+01
 1.258980e+00	 2.649518e-02	 1.955490e+01
 1.258629e+00	 3.982401e-02	 1.954618e+01
 1.258135e+00	 5.320443e-02	 1.953378e+01
 1.257495e+00	 6.663447e-02	 1.951690e+01
 1.266667e+00	 0.000000e+00	 1.938432e+01
 1.266597e+00	 1.329765e-02	 1.938069e+01
 1.266386e+00	 2.665103e-02	 1.937514e+01
 1.266033e+00	 4.005827e-02	 1.936684e+01
 1.265536e+00	 5.351740e-02	 1.935499e+01
 1.264892e+00	 6.702644e-02	 1.933880e+01
 1.274074e+00	 0.000000e+00	 1.920888e+01
 1.274004e+00	 1.337541e-02	 1.920549e+01
 1.273792e+00	 2.680689e-02	 1.920026e+01
 1.273437e+00	 4.029252e-02	 1.919238e+01
 1.272936e+00	 5.383037e-02	 1.918105e+01
 1.272289e+00	 6.741841e-02	 1.916548e+01
 1.281481e+00	 0.000000e+00	 1.903809e+01
 1.281411e+00	 1.345318e-02	 1.903495e+01
 1.281198e+00	 2.696274e-02	 1.903004e+01
 1.280840e+00	 4.052678e-02	 1.902257e+01
 1.280337e+00	 5.414334e-02	 1.901174e+01
 1.279686e+00	 6.781038e-02	 1.899676e+01
 1.288889e+00	 0.000000e+00	 1.887173e+01
 1.288818e+00	 1.353094e-02	 1.886884e+01
 1.288604e+00	 2.711860e-02	 1.886424e+01
 1.288244e+00	 4.076104e-02	 1.885718e+01
 1.287738e+00	 5.445630e-02	 1.884684e+01
 1.287083e+00	 6.820234e-02	 1.883242e+01
 1.296296e+00	 0.000000e+00	 1.870958e+01
 1.296225e+00	 1.360871e-02	 1.870692e+01
 1.296009e+00	 2.727445e-02	 1.870264e+01
 1.295648e+00	 4.099530e-02	 1.869598e+01
 1.295139e+00	 5.476927e-02	 1.868614e+01
 1.294480e+00	 6.859431e-02	 1.867226e+01
 1.257495e+00	 6.663447e-02	 1.951690e+01
 1.256708e+00	 8.011209e-02	 1.949619e+01
 1.255773e+00	 9.363520e-02	 1.947220e+01
 1.254688e+00	 1.072016e-01	 1.944410e+01
 1.253451e+00	 1.208092e-01	 1.941109e+01
 1.252061e+00	 1.344557e-01	 1.937248e+01
 1.264892e+00	 6.702644e-02	 1.933880e+01
 1.264101e+00	 8.058334e-02	 1.931897e+01
 1.263160e+00	 9.418599e-02	 1.929614e+01
 1.262068e+00	 1.078322e-01	 1.926942e+01
 1.260824e+00	 1.215199e-01	 1.923801e+01
 1.259426e+00	 1.352467e-01	 1.920114e+01
 1.272289e+00	 6.741841e-02	 1.916548e+01
 1.271493e+00	 8.105459e-02	 1.914647e+01
 1.270547e+00	 9.473679e-02	 1.912472e+01
 1.269449e+00	 1.084628e-01	 1.909933e+01
 1.268197e+00	 1.222305e-01	 1.906944e+01
 1.266791e+00	 1.360376e-01	 1.903428e+01
 1.279686e+00	 6.781038e-02	 1.899676e+01
 1.278886e+00	 8.152583e-02	 1.897850e+01
 1.277934e+00	 9.528758e-02	 1.895777e+01
 1.276829e+00	 1.090934e-01	 1.893365e+01
 1.275571e+00	 1.229412e-01	 1.890525e+01
 1.274156e+00	 1.368285e-01	 1.887177e+01
 1.287083e+00	 6.820234e-02	 1.883242e+01
 1.286278e+00	 8.199708e-02	 1.881488e+01
 1.285321e+00	 9.583838e-02	 1.879513e+01
 1.284210e+00	 1.097240e-01	 1.877223e+01
 1.282944e+00	 1.236518e-01	 1.874529e+01
 1.281521e+00	 1.376194e-01	 1.871348e+01
 1.294480e+00	 6.859431e-02	 1.867226e+01
 1.293670e+00	 8.246833e-02	 1.865543e+01
 1.292708e+00	 9.638917e-02	 1.863662e+01
 1.291590e+00	 1.103546e-01	 1.861491e+01
 1.290317e+00	 1.243625e-01	 1.858941e+01
 1.288886e+00	 1.384103e-01	 1.855927e+01
 1.252061e+00	 1.344557e-01	 1.937248e+01
 1.250515e+00	 1.481388e-01	 1.932979e+01
 1.248814e+00	 1.618562e-01	 1.928482e+01
 1.246955e+00	 1.756054e-01	 1.923738e+01
 1.244937e+00	 1.893840e-01	 1.918740e+01
 1.242758e+00	 2.031896e-01	 1.913496e+01
 1.259426e+00	 1.352467e-01	 1.920114e+01
 1.257871e+00	 1.490102e-01	 1.916030e+01
 1.256160e+00	 1.628083e-01	 1.911727e+01
 1.254290e+00	 1.766384e-01	 1.907190e+01
 1.252260e+00	 1.904981e-01	 1.902412e+01
 1.250069e+00	 2.043848e-01	 1.897401e+01
 1.266791e+00	 1.360376e-01	 1.903428e+01
 1.265227e+00	 1.498816e-01	 1.899526e+01
 1.263506e+00	 1.637604e-01	 1.895412e+01
 1.261625e+00	 1.776714e-01	 1.891072e+01
 1.259583e+00	 1.916121e-01	 1.886500e+01
 1.257379e+00	 2.055801e-01	 1.881704e+01
 1.274156e+00	 1.368285e-01	 1.887177e+01
 1.272583e+00	 1.507531e-01	 1.883455e+01
 1.270852e+00	 1.647125e-01	 1.879527e+01
 1.268960e+00	 1.787043e-01	 1.875376e+01
 1.266906e+00	 1.927261e-01	 1.870999e+01
 1.264689e+00	 2.067753e-01	 1.866403e+01
 1.281521e+00	 1.376194e-01	 1.871348e+01
 1.279939e+00	 1.516245e-01	 1.867805e+01
 1.278198e+00	 1.656646e-01	 1.864059e+01
 1.276295e+00	 1.797373e-01	 1.860095e+01
 1.274229e+00	 1.938401e-01	 1.855904e+01
 1.272000e+00	 2.079705e-01	 1.851496e+01
 1.288886e+00	 1.384103e-01	 1.855927e+01
 1.287295e+00	 1.524959e-01	 1.852563e+01
 1.285544e+00	 1.666167e-01	 1.849000e+01
 1.283630e+00	 1.807703e-01	 1.845218e+01
 1.281553e+00	 1.949542e-01	 1.841210e+01
 1.279310e+00	 2.091658e-01	 1.836980e+01
 1.242758e+00	 2.031896e-01	 1.913496e+01
 1.240418e+00	 2.170195e-01	 1.907724e+01
 1.237915e+00	 2.308712e-01	 1.901148e+01
 1.235247e+00	 2.447421e-01	 1.893800e+01
 1.232414e+00	 2.586294e-01	 1.885729e+01
 1.229415e+00	 2.725305e-01	 1.877002e+01
 1.250069e+00	 2.043848e-01	 1.897401e+01
 1.247714e+00	 2.182961e-01	 1.891892e+01
 1.245196e+00	 2.322293e-01	 1.885613e+01
 1.242513e+00	 2.461817e-01	 1.878588e+01
 1.239664e+00	 2.601508e-01	 1.870858e+01
 1.236647e+00	 2.741336e-01	 1.862482e+01
 1.257379e+00	 2.055801e-01	 1.881704e+01
 1.255011e+00	 2.195727e-01	 1.876437e+01
 1.252478e+00	 2.335874e-01	 1.870442e+01
 1.249779e+00	 2.476214e-01	 1.863732e+01
 1.246913e+00	 2.616721e-01	 1.856341e+01
 1.243879e+00	 2.757367e-01	 1.848325e+01
 1.264689e+00	 2.067753e-01	 1.866403e+01
 1.262308e+00	 2.208493e-01	 1.861363e+01
 1.259760e+00	 2.349454e-01	 1.855637e+01
 1.257045e+00	 2.490611e-01	 1.849233e+01
 1.254163e+00	 2.631935e-01	 1.842180e+01
 1.251110e+00	 2.773398e-01	 1.834525e+01
 1.272000e+00	 2.079705e-01	 1.851496e+01
 1.269604e+00	 2.221259e-01	 1.846668e+01
 1.267042e+00	 2.363035e-01	 1.841201e+01
 1.264312e+00	 2.505007e-01	 1.835094e+01
 1.261412e+00	 2.647148e-01	 1.828372e+01
 1.258342e+00	 2.789430e-01	 1.821079e+01
 1.279310e+00	 2.091658e-01	 1.836980e+01
 1.276901e+00	 2.234024e-01	 1.832354e+01
 1.274324e+00	 2.376616e-01	 1.827134e+01
 1.271578e+00	 2.519404e-01	 1.821315e+01
 1.268662e+00	 2.662362e-01	 1.814918e+01
 1.265574e+00	 2.805461e-01	 1.807983e+01
 1.229415e+00	 2.725305e-01	 1.877002e+01
 1.226248e+00	 2.864425e-01	 1.868031e+01
 1.222913e+00	 3.003627e-01	 1.859281e+01
 1.219408e+00	 3.142883e-01	 1.850925e+01
 1.215734e+00	 3.282163e-01	 1.843150e+01
 1.211888e+00	 3.421438e-01	 1.836158e+01
 1.236647e+00	 2.741336e-01	 1.862482e+01
 1.233461e+00	 2.881275e-01	 1.853865e+01
 1.230107e+00	 3.021296e-01	 1.845471e+01
 1.226581e+00	 3.161370e-01	 1.837484e+01
 1.222885e+00	 3.301469e-01	 1.830102e+01
 1.219016e+00	 3.441564e-01	 1.823534e+01
 1.243879e+00	 2.757367e-01	 1.848325e+01
 1.240675e+00	 2.898124e-01	 1.840065e+01
 1.237300e+00	 3.038964e-01	 1.832017e+01
 1.233754e+00	 3.179858e-01	 1.824372e+01
 1.230036e+00	 3.320776e-01	 1.817337e+01
 1.226145e+00	 3.461690e-01	 1.811130e+01
 1.251110e+00	 2.773398e-01	 1.834525e+01
 1.247888e+00	 2.914974e-01	 1.826624e+01
 1.244494e+00	 3.056633e-01	 1.818912e+01
 1.240927e+00	 3.198345e-01	 1.811586e+01
 1.237188e+00	 3.340083e-01	 1.804859e+01
 1.233274e+00	 3.481816e-01	 1.798959e+01
 1.258342e+00	 2.789430e-01	 1.821079e+01
 1.255101e+00	 2.931823e-01	 1.813536e+01
 1.251687e+00	 3.074301e-01	 1.806149e+01
 1.248100e+00	 3.216833e-01	 1.799121e+01
 1.244339e+00	 3.359390e-01	 1.792672e+01
 1.240403e+00	 3.501942e-01	 1.787033e+01
 1.265574e+00	 2.805461e-01	 1.807983e+01
 1.262314e+00	 2.948673e-01	 1.800793e+01
 1.258881e+00	 3.091969e-01	 1.793721e+01
 1.255273e+00	 3.235321e-01	 1.786974e+01
 1.251490e+00	 3.378697e-01	 1.780776e+01
 1.247531e+00	 3.522068e-01	 1.775364e+01
 1.211888e+00	 3.421438e-01	 1.836158e+01
 1.207870e+00	 3.560678e-01	 1.826984e+01
 1.203680e+00	 3.699854e-01	 1.812870e+01
 1.199316e+00	 3.838935e-01	 1.797327e+01
 1.194779e+00	 3.977892e-01	 1.784045e+01
 1.190068e+00	 4.116692e-01	 1.773276e+01
 1.219016e+00	 3.441564e-01	 1.823534e+01
 1.214975e+00	 3.581623e-01	 1.814688e+01
 1.210760e+00	 3.721618e-01	 1.800731e+01
 1.206371e+00	 3.861517e-01	 1.786053e+01
 1.201807e+00	 4.001291e-01	 1.773400e+01
 1.197069e+00	 4.140907e-01	 1.763041e+01
 1.226145e+00	 3.461690e-01	 1.811130e+01
 1.222080e+00	 3.602568e-01	 1.802548e+01
 1.217841e+00	 3.743382e-01	 1.788854e+01
 1.213426e+00	 3.884099e-01	 1.775007e+01
 1.208836e+00	 4.024690e-01	 1.762974e+01
 1.204069e+00	 4.165123e-01	 1.753046e+01
 1.233274e+00	 3.481816e-01	 1.798959e+01
 1.229185e+00	 3.623513e-01	 1.790585e+01
 1.224921e+00	 3.765146e-01	 1.777258e+01
 1.220481e+00	 3.906681e-01	 1.764197e+01
 1.215864e+00	 4.048090e-01	 1.752757e+01
 1.211069e+00	 4.189339e-01	 1.743257e+01
 1.240403e+00	 3.501942e-01	 1.787033e+01
 1.236290e+00	 3.644459e-01	 1.778819e+01
 1.232002e+00	 3.786909e-01	 1.765955e+01
 1.227536e+00	 3.929263e-01	 1.753625e+01
 1.222892e+00	 4.071489e-01	 1.742737e+01
 1.218070e+00	 4.213555e-01	 1.733640e+01
 1.247531e+00	 3.522068e-01	 1.775364e+01
 1.243395e+00	 3.665404e-01	 1.767269e+01
 1.239082e+00	 3.808673e-01	 1.754955e+01
 1.234590e+00	 3.951845e-01	 1.743293e+01
 1.229920e+00	 4.094888e-01	 1.732900e+01
 1.225070e+00	 4.237771e-01	 1.724158e+01
 1.190068e+00	 4.116692e-01	 1.773276e+01
 1.185183e+00	 4.255304e-01	 1.763041e+01
 1.180122e+00	 4.393698e-01	 1.751359e+01
 1.174886e+00	 4.531842e-01	 1.738466e+01
 1.169475e+00	 4.669704e-01	 1.724591e+01
 1.163889e+00	 4.807252e-01	 1.709944e+01
 1.197069e+00	 4.140907e-01	 1.763041e+01
 1.192154e+00	 4.280335e-01	 1.753112e+01
 1.187064e+00	 4.419544e-01	 1.741757e+01
 1.181797e+00	 4.558500e-01	 1.729237e+01
 1.176355e+00	 4.697173e-01	 1.715803e+01
 1.170735e+00	 4.835529e-01	 1.701692e+01
 1.204069e+00	 4.165123e-01	 1.753046e+01
 1.199126e+00	 4.305367e-01	 1.743459e+01
 1.194006e+00	 4.445389e-01	 1.732451e+01
 1.188709e+00	 4.585158e-01	 1.720303e+01
 1.183234e+00	 4.724642e-01	 1.707284e+01
 1.177582e+00	 4.863807e-01	 1.693646e+01
 1.211069e+00	 4.189339e-01	 1.743257e+01
 1.206098e+00	 4.330398e-01	 1.734025e+01
 1.200948e+00	 4.471234e-01	 1.723378e+01
 1.195620e+00	 4.611816e-01	 1.711608e+01
 1.190113e+00	 4.752110e-01	 1.698992e+01
 1.184428e+00	 4.892085e-01	 1.685795e+01
 1.218070e+00	 4.213555e-01	 1.733640e+01
 1.213069e+00	 4.355429e-01	 1.724755e+01
 1.207890e+00	 4.497080e-01	 1.714474e+01
 1.202531e+00	 4.638474e-01	 1.703090e+01
 1.196992e+00	 4.779579e-01	 1.690884e+01
 1.191274e+00	 4.920363e-01	 1.678128e+01
 1.225070e+00	 4.237771e-01	 1.724158e+01
 1.220041e+00	 4.380460e-01	 1.715593e+01
 1.214832e+00	 4.522925e-01	 1.705675e+01
 1.209442e+00	 4.665132e-01	 1.694689e+01
 1.203872e+00	 4.807048e-01	 1.682918e+01
 1.198121e+00	 4.948641e-01	 1.670631e+01
 1.163889e+00	 4.807252e-01	 1.709944e+01
 1.158127e+00	 4.944453e-01	 1.694799e+01
 1.152189e+00	 5.081275e-01	 1.679308e+01
 1.146077e+00	 5.217686e-01	 1.663461e+01
 1.139788e+00	 5.353654e-01	 1.647201e+01
 1.133326e+00	 5.489144e-01	 1.630419e+01
 1.170735e+00	 4.835529e-01	 1.701692e+01
 1.164939e+00	 4.973538e-01	 1.687147e+01
 1.158967e+00	 5.111165e-01	 1.672272e+01
 1.152818e+00	 5.248379e-01	 1.657047e+01
 1.146493e+00	 5.385146e-01	 1.641411e+01
 1.139992e+00	 5.521434e-01	 1.625251e+01
 1.177582e+00	 4.863807e-01	 1.693646e+01
 1.171752e+00	 5.002623e-01	 1.679622e+01
 1.165745e+00	 5.141055e-01	 1.665294e+01
 1.159560e+00	 5.279071e-01	 1.650646e+01
 1.153198e+00	 5.416638e-01	 1.635616e+01
 1.146659e+00	 5.553723e-01	 1.620098e+01
 1.184428e+00	 4.892085e-01	 1.685795e+01
 1.178564e+00	 5.031708e-01	 1.672242e+01
 1.172522e+00	 5.170945e-01	 1.658406e+01
 1.166301e+00	 5.309763e-01	 1.644282e+01
 1.159902e+00	 5.448130e-01	 1.629819e+01
 1.153325e+00	 5.586012e-01	 1.614922e+01
 1.191274e+00	 4.920363e-01	 1.678128e+01
 1.185377e+00	 5.060793e-01	 1.665024e+01
 1.179300e+00	 5.200835e-01	 1.651636e+01
 1.173043e+00	 5.340455e-01	 1.637977e+01
 1.166607e+00	 5.479622e-01	 1.624019e+01
 1.159992e+00	 5.618301e-01	 1.609680e+01
 1.198121e+00	 4.948641e-01	 1.670631e+01
 1.192189e+00	 5.089878e-01	 1.657983e+01
 1.186077e+00	 5.230724e-01	 1.645008e+01
 1.179785e+00	 5.371148e-01	 1.631752e+01
 1.173312e+00	 5.511114e-01	 1.618212e+01
 1.166659e+00	 5.650590e-01	 1.604330e+01
 1.133326e+00	 5.489144e-01	 1.630419e+01
 1.126688e+00	 5.624126e-01	 1.613601e+01
 1.119876e+00	 5.758565e-01	 1.597198e+01
 1.112891e+00	 5.892430e-01	 1.580935e+01
 1.105733e+00	 6.025686e-01	 1.563962e+01
 1.098402e+00	 6.158303e-01	 1.544637e+01
 1.139992e+00	 5.521434e-01	 1.625251e+01
 1.133316e+00	 5.657209e-01	 1.608916e+01
 1.126464e+00	 5.792439e-01	 1.592743e+01
 1.119438e+00	 5.927091e-01	 1.576489e+01
 1.112237e+00	 6.061132e-01	 1.559810e+01
 1.104863e+00	 6.194528e-01	 1.541635e+01
 1.146659e+00	 5.553723e-01	 1.620098e+01
 1.139943e+00	 5.690292e-01	 1.604321e+01
 1.133051e+00	 5.826313e-01	 1.588514e+01
 1.125984e+00	 5.961752e-01	 1.572458e+01
 1.118741e+00	 6.096577e-01	 1.555838e+01
 1.111324e+00	 6.230753e-01	 1.538234e+01
 1.153325e+00	 5.586012e-01	 1.614922e+01
 1.146571e+00	 5.723375e-01	 1.599727e+01
 1.139639e+00	 5.860187e-01	 1.584376e+01
 1.132530e+00	 5.996414e-01	 1.568665e+01
 1.125246e+00	 6.132022e-01	 1.552302e+01
 1.117786e+00	 6.266979e-01	 1.534893e+01
 1.159992e+00	 5.618301e-01	 1.609680e+01
 1.153198e+00	 5.756458e-01	 1.595045e+01
 1.146226e+00	 5.894061e-01	 1.580195e+01
 1.139077e+00	 6.031075e-01	 1.564936e+01
 1.131750e+00	 6.167467e-01	 1.548989e+01
 1.124247e+00	 6.303204e-01	 1.531983e+01
 1.166659e+00	 5.650590e-01	 1.604330e+01
 1.159826e+00	 5.789541e-01	 1.590186e+01
 1.152814e+00	 5.927935e-01	 1.575838e+01
 1.145623e+00	 6.065737e-01	 1.561096e+01
 1.138254e+00	 6.202913e-01	 1.545690e+01
 1.130708e+00	 6.339429e-01	 1.529260e+01
 1.098402e+00	 6.158303e-01	 1.544637e+01
 1.090900e+00	 6.290246e-01	 1.524819e+01
 1.083226e+00	 6.421483e-01	 1.506164e+01
 1.075383e+00	 6.551981e-01	 1.487695e+01
 1.067371e+00	 6.681709e-01	 1.468371e+01
 1.059191e+00	 6.810634e-01	 1.447095e+01
 1.104863e+00	 6.194528e-01	 1.541635e+01
 1.097317e+00	 6.327247e-01	 1.522801e+01
 1.089598e+00	 6.459256e-01	 1.504922e+01
 1.081709e+00	 6.590522e-01	 1.486983e+01
 1.073650e+00	 6.721013e-01	 1.467896e+01
 1.065422e+00	 6.850696e-01	 1.446499e+01
 1.111324e+00	 6.230753e-01	 1.538234e+01
 1.103734e+00	 6.364248e-01	 1.520664e+01
 1.095970e+00	 6.497029e-01	 1.503731e+01
 1.088035e+00	 6.629063e-01	 1.486390e+01
 1.079929e+00	 6.760317e-01	 1.467514e+01
 1.071653e+00	 6.890759e-01	 1.445889e+01
 1.117786e+00	 6.266979e-01	 1.534893e+01
 1.110151e+00	 6.401250e-01	 1.518153e+01
 1.102342e+00	 6.534803e-01	 1.502342e+01
 1.094361e+00	 6.667604e-01	 1.485699e+01
 1.086207e+00	 6.799621e-01	 1.467064e+01
 1.077883e+00	 6.930821e-01	 1.445183e+01
 1.124247e+00	 6.303204e-01	 1.531983e+01
 1.116568e+00	 6.438251e-01	 1.515464e+01
 1.108714e+00	 6.572576e-01	 1.500508e+01
 1.100686e+00	 6.706145e-01	 1.484690e+01
 1.092486e+00	 6.838926e-01	 1.466380e+01
 1.084114e+00	 6.970884e-01	 1.444295e+01
 1.130708e+00	 6.339429e-01	 1.529260e+01
 1.122985e+00	 6.475253e-01	 1.513123e+01
 1.115086e+00	 6.610350e-01	 1.498207e+01
 1.107012e+00	 6.744686e-01	 1.483142e+01
 1.098765e+00	 6.878230e-01	 1.465293e+01
 1.090344e+00	 7.010946e-01	 1.443133e+01
 1.059191e+00	 6.810634e-01	 1.447095e+01
 1.050845e+00	 6.938723e-01	 1.425307e+01
 1.042333e+00	 7.065946e-01	 1.404856e+01
 1.033657e+00	 7.192270e-01	 1.385246e+01
 1.024818e+00	 7.317664e-01	 1.366017e+01
 1.015818e+00	 7.442096e-01	 1.346383e+01
 1.065422e+00	 6.850696e-01	 1.446499e+01
 1.057026e+00	 6.979539e-01	 1.424623e+01
 1.048464e+00	 7.107510e-01	 1.404592e+01
 1.039737e+00	 7.234577e-01	 1.385959e+01
 1.030846e+00	 7.360709e-01	 1.368325e+01
 1.021793e+00	 7.485873e-01	 1.349445e+01
 1.071653e+00	 6.890759e-01	 1.445889e+01
 1.063208e+00	 7.020355e-01	 1.423852e+01
 1.054596e+00	 7.149075e-01	 1.404300e+01
 1.045818e+00	 7.276885e-01	 1.386830e+01
 1.036875e+00	 7.403754e-01	 1.371094e+01
 1.027769e+00	 7.529651e-01	 1.352103e+01
 1.077883e+00	 6.930821e-01	 1.445183e+01
 1.069389e+00	 7.061171e-01	 1.422989e+01
 1.060727e+00	 7.190639e-01	 1.404024e+01
 1.051898e+00	 7.319192e-01	 1.387925e+01
 1.042903e+00	 7.446799e-01	 1.373868e+01
 1.033744e+00	 7.573428e-01	 1.354305e+01
 1.084114e+00	 6.970884e-01	 1.444295e+01
 1.075571e+00	 7.101987e-01	 1.422023e+01
 1.066858e+00	 7.232203e-01	 1.403803e+01
 1.057978e+00	 7.361500e-01	 1.389300e+01
 1.048931e+00	 7.489844e-01	 1.375947e+01
 1.039719e+00	 7.617205e-01	 1.355998e+01
 1.090344e+00	 7.010946e-01	 1.443133e+01
 1.081752e+00	 7.142803e-01	 1.420937e+01
 1.072990e+00	 7.273768e-01	 1.403664e+01
 1.064059e+00	 7.403807e-01	 1.391002e+01
 1.054960e+00	 7.532889e-01	 1.377305e+01
 1.045695e+00	 7.660982e-01	 1.357127e+01
 1.015818e+00	 7.442096e-01	 1.346383e+01
 1.006658e+00	 7.565537e-01	 1.323592e+01
 9.973401e-01	 7.687956e-01	 1.299733e+01
 9.878657e-01	 7.809322e-01	 1.275712e+01
 9.782368e-01	 7.929606e-01	 1.252573e+01
 9.684552e-01	 8.048779e-01	 1.231496e+01
 1.021793e+00	 7.485873e-01	 1.349445e+01
 1.012580e+00	 7.610041e-01	 1.326166e+01
 1.003207e+00	 7.733179e-01	 1.302232e+01
 9.936767e-01	 7.855259e-01	 1.278469e+01
 9.839912e-01	 7.976251e-01	 1.255839e+01
 9.741520e-01	 8.096125e-01	 1.235434e+01
 1.027769e+00	 7.529651e-01	 1.352103e+01
 1.018501e+00	 7.654544e-01	 1.328595e+01
 1.009073e+00	 7.778403e-01	 1.304756e+01
 9.994877e-01	 7.901197e-01	 1.281339e+01
 9.897455e-01	 8.022896e-01	 1.259226e+01
 9.798488e-01	 8.143470e-01	 1.239426e+01
 1.033744e+00	 7.573428e-01	 1.354305e+01
 1.024423e+00	 7.699047e-01	 1.330782e+01
 1.014940e+00	 7.823626e-01	 1.307182e+01
 1.005299e+00	 7.947134e-01	 1.284181e+01
 9.954998e-01	 8.069541e-01	 1.262587e+01
 9.855456e-01	 8.190816e-01	 1.243335e+01
 1.039719e+00	 7.617205e-01	 1.355998e+01
 1.030344e+00	 7.743550e-01	 1.332634e+01
 1.020807e+00	 7.868849e-01	 1.309385e+01
 1.011110e+00	 7.993071e-01	 1.286855e+01
 1.001254e+00	 8.116185e-01	 1.265780e+01
 9.912424e-01	 8.238162e-01	 1.247025e+01
 1.045695e+00	 7.660982e-01	 1.357127e+01
 1.036266e+00	 7.788053e-01	 1.334056e+01
 1.026674e+00	 7.914072e-01	 1.311243e+01
 1.016921e+00	 8.039008e-01	 1.289222e+01
 1.007009e+00	 8.162830e-01	 1.268663e+01
 9.969392e-01	 8.285508e-01	 1.250363e+01
 9.684552e-01	 8.048779e-01	 1.231496e+01
 9.585227e-01	 8.166811e-01	 1.210401e+01
 9.484415e-01	 8.283675e-01	 1.187127e+01
 9.382135e-01	 8.399341e-01	 1.162888e+01
 9.278409e-01	 8.513784e-01	 1.138963e+01
 9.173259e-01	 8.626975e-01	 1.116687e+01
 9.741520e-01	 8.096125e-01	 1.235434e+01
 9.641611e-01	 8.214851e-01	 1.214967e+01
 9.540205e-01	 8.332402e-01	 1.192158e+01
 9.437324e-01	 8.448749e-01	 1.168261e+01
 9.332988e-01	 8.563865e-01	 1.144606e+01
 9.227220e-01	 8.677722e-01	 1.122584e+01
 9.798488e-01	 8.143470e-01	 1.239426e+01
 9.697995e-01	 8.262891e-01	 1.219500e+01
 9.595996e-01	 8.381130e-01	 1.197094e+01
 9.492513e-01	 8.498157e-01	 1.173508e+01
 9.387567e-01	 8.613946e-01	 1.150119e+01
 9.281180e-01	 8.728469e-01	 1.128375e+01
 9.855456e-01	 8.190816e-01	 1.243335e+01
 9.754378e-01	 8.310931e-01	 1.223874e+01
 9.651787e-01	 8.429857e-01	 1.201821e+01
 9.547702e-01	 8.547565e-01	 1.178519e+01
 9.442145e-01	 8.664027e-01	 1.155393e+01
 9.335140e-01	 8.779216e-01	 1.133947e+01
 9.912424e-01	 8.238162e-01	 1.247025e+01
 9.810762e-01	 8.358972e-01	 1.227968e+01
 9.707577e-01	 8.478585e-01	 1.206225e+01
 9.602891e-01	 8.596973e-01	 1.183183e+01
 9.496724e-01	 8.714108e-01	 1.160319e+01
 9.389101e-01	 8.829963e-01	 1.139186e+01
 9.969392e-01	 8.285508e-01	 1.250363e+01
 9.867146e-01	 8.407012e-01	 1.231659e+01
 9.763368e-01	 8.527312e-01	 1.210193e+01
 9.658080e-01	 8.646381e-01	 1.187394e+01
 9.551303e-01	 8.764189e-01	 1.164787e+01
 9.443061e-01	 8.880710e-01	 1.143982e+01
 9.173259e-01	 8.626975e-01	 1.116687e+01
 9.066709e-01	 8.738889e-01	 1.094207e+01
 8.958781e-01	 8.849499e-01	 1.069656e+01
 8.849499e-01	 8.958781e-01	 1.044386e+01
 8.738889e-01	 9.066709e-01	 1.019754e+01
 8.626975e-01	 9.173259e-01	 9.971014e+00
 9.227220e-01	 8.677722e-01	 1.122584e+01
 9.120042e-01	 8.790294e-01	 1.100346e+01
 9.011479e-01	 8.901555e-01	 1.076003e+01
 8.901555e-01	 9.011479e-01	 1.050935e+01
 8.790294e-01	 9.120042e-01	 1.026522e+01
 8.677722e-01	 9.227220e-01	 1.004133e+01
 9.281180e-01	 8.728469e-01	 1.128375e+01
 9.173376e-01	 8.841699e-01	 1.106416e+01
 9.064178e-01	 8.953611e-01	 1.082316e+01
 8.953611e-01	 9.064178e-01	 1.057477e+01
 8.841699e-01	 9.173376e-01	 1.033300e+01
 8.728469e-01	 9.281180e-01	 1.011176e+01
 9.335140e-01	 8.779216e-01	 1.133947e+01
 9.226709e-01	 8.893105e-01	 1.112297e+01
 9.116877e-01	 9.005667e-01	 1.088467e+01
 9.005667e-01	 9.116877e-01	 1.063875e+01
 8.893105e-01	 9.226709e-01	 1.039941e+01
 8.779216e-01	 9.335140e-01	 1.018073e+01
 9.389101e-01	 8.829963e-01	 1.139186e+01
 9.280043e-01	 8.944510e-01	 1.117871e+01
 9.169576e-01	 9.057723e-01	 1.094331e+01
 9.057723e-01	 9.169576e-01	 1.069996e+01
 8.944510e-01	 9.280043e-01	 1.046302e+01
 8.829963e-01	 9.389101e-01	 1.024671e+01
 9.443061e-01	 8.880710e-01	 1.143982e+01
 9.333377e-01	 8.995915e-01	 1.123019e+01
 9.222274e-01	 9.109779e-01	 1.099780e+01
 9.109779e-01	 9.222274e-01	 1.075705e+01
 8.995915e-01	 9.333377e-01	 1.052239e+01
 8.880710e-01	 9.443061e-01	 1.030815e+01
 8.626975e-01	 9.173259e-01	 9.971014e+00
 8.513784e-01	 9.278409e-01	 9.743502e+00
 8.399341e-01	 9.382135e-01	 9.495333e+00
 8.283675e-01	 9.484415e-01	 9.240952e+00
 8.166811e-01	 9.585227e-01	 8.994141e+00
 8.048779e-01	 9.684552e-01	 8.767872e+00
 8.677722e-01	 9.227220e-01	 1.004133e+01
 8.563865e-01	 9.332988e-01	 9.817056e+00
 8.448749e-01	 9.437324e-01	 9.572487e+00
 8.332402e-01	 9.540205e-01	 9.321702e+00
 8.214851e-01	 9.641611e-01	 9.078070e+00
 8.096125e-01	 9.741520e-01	 8.854098e+00
 8.728469e-01	 9.281180e-01	 1.011176e+01
 8.613946e-01	 9.387567e-01	 9.890432e+00
 8.498157e-01	 9.492513e-01	 9.648869e+00
 8.381130e-01	 9.595996e-01	 9.400972e+00
 8.262891e-01	 9.697995e-01	 9.159894e+00
 8.143470e-01	 9.798488e-01	 8.937883e+00
 8.779216e-01	 9.335140e-01	 1.018073e+01
 8.664027e-01	 9.442145e-01	 9.962000e+00
 8.547565e-01	 9.547702e-01	 9.722860e+00
 8.429857e-01	 9.651787e-01	 9.477227e+00
 8.310931e-01	 9.754378e-01	 9.238237e+00
 8.190816e-01	 9.855456e-01	 9.018078e+00
 8.829963e-01	 9.389101e-01	 1.024671e+01
 8.714108e-01	 9.496724e-01	 1.003014e+01
 8.596973e-01	 9.602891e-01	 9.792850e+00
 8.478585e-01	 9.707577e-01	 9.548939e+00
 8.358972e-01	 9.810762e-01	 9.311720e+00
 8.238162e-01	 9.912424e-01	 9.093523e+00
 8.880710e-01	 9.443061e-01	 1.030815e+01
 8.764189e-01	 9.551303e-01	 1.009326e+01
 8.646381e-01	 9.658080e-01	 9.857240e+00
 8.527312e-01	 9.763368e-01	 9.614585e+00
 8.407012e-01	 9.867146e-01	 9.378966e+00
 8.285508e-01	 9.969392e-01	 9.163053e+00
 8.048779e-01	 9.684552e-01	 8.767872e+00
 7.929606e-01	 9.782368e-01	 8.548344e+00
 7.809322e-01	 9.878657e-01	 8.315804e+00
 7.687956e-01	 9.973401e-01	 8.072436e+00
 7.565537e-01	 1.006658e+00	 7.818790e+00
 7.442096e-01	 1.015818e+00	 7.553696e+00
 8.096125e-01	 9.741520e-01	 8.854098e+00
 7.976251e-01	 9.839912e-01	 8.634252e+00
 7.855259e-01	 9.936767e-01	 8.398713e+00
 7.733179e-01	 1.003207e+00	 8.151695e+00
 7.610041e-01	 1.012580e+00	 7.895819e+00
 7.485873e-01	 1.021793e+00	 7.632011e+00
 8.143470e-01	 9.798488e-01	 8.937883e+00
 8.022896e-01	 9.897455e-01	 8.718285e+00
 7.901197e-01	 9.994877e-01	 8.481324e+00
 7.778403e-01	 1.009073e+00	 8.232684e+00
 7.654544e-01	 1.018501e+00	 7.976470e+00
 7.529651e-01	 1.027769e+00	 7.715106e+00
 8.190816e-01	 9.855456e-01	 9.018078e+00
 8.069541e-01	 9.954998e-01	 8.799435e+00
 7.947134e-01	 1.005299e+00	 8.562543e+00
 7.823626e-01	 1.014940e+00	 8.314004e+00
 7.699047e-01	 1.024423e+00	 8.058837e+00
 7.573428e-01	 1.033744e+00	 7.800366e+00
 8.238162e-01	 9.912424e-01	 9.093523e+00
 8.116185e-01	 1.001254e+00	 8.876681e+00
 7.993071e-01	 1.011110e+00	 8.641264e+00
 7.868849e-01	 1.020807e+00	 8.394250e+00
 7.743550e-01	 1.030344e+00	 8.141010e+00
 7.617205e-01	 1.039719e+00	 7.885189e+00
 8.285508e-01	 9.969392e-01	 9.163053e+00
 8.162830e-01	 1.007009e+00	 8.948990e+00
 8.039008e-01	 1.016921e+00	 8.716366e+00
 7.914072e-01	 1.026674e+00	 8.472006e+00
 7.788053e-01	 1.036266e+00	 8.221081e+00
 7.660982e-01	 1.045695e+00	 7.966985e+00
 7.442096e-01	 1.015818e+00	 7.553696e+00
 7.317664e-01	 1.024818e+00	 7.304634e+00
 7.192270e-01	 1.033657e+00	 7.087124e+00
 7.065946e-01	 1.042333e+00	 6.884421e+00
 6.938723e-01	 1.050845e+00	 6.678569e+00
 6.810634e-01	 1.059191e+00	 6.450156e+00
 7.485873e-01	 1.021793e+00	 7.632011e+00
 7.360709e-01	 1.030846e+00	 7.389931e+00
 7.234577e-01	 1.039737e+00	 7.182520e+00
 7.107510e-01	 1.048464e+00	 6.988247e+00
 6.979539e-01	 1.057026e+00	 6.785471e+00
 6.850696e-01	 1.065422e+00	 6.550950e+00
 7.529651e-01	 1.027769e+00	 7.715106e+00
 7.403754e-01	 1.036875e+00	 7.477920e+00
 7.276885e-01	 1.045818e+00	 7.277375e+00
 7.149075e-01	 1.054596e+00	 7.087576e+00
 7.020355e-01	 1.063208e+00	 6.884517e+00
 6.890759e-01	 1.071653e+00	 6.642481e+00
 7.573428e-01	 1.033744e+00	 7.800366e+00
 7.446799e-01	 1.042903e+00	 7.566007e+00
 7.319192e-01	 1.051898e+00	 7.368573e+00
 7.190639e-01	 1.060727e+00	 7.179691e+00
 7.061171e-01	 1.069389e+00	 6.973824e+00
 6.930821e-01	 1.077883e+00	 6.724106e+00
 7.617205e-01	 1.039719e+00	 7.885189e+00
 7.489844e-01	 1.048931e+00	 7.651721e+00
 7.361500e-01	 1.057978e+00	 7.453015e+00
 7.232203e-01	 1.066858e+00	 7.261883e+00
 7.101987e-01	 1.075571e+00	 7.051496e+00
 6.970884e-01	 1.084114e+00	 6.795149e+00
 7.660982e-01	 1.045695e+00	 7.966985e+00
 7.532889e-01	 1.054960e+00	 7.731946e+00
 7.403807e-01	 1.064059e+00	 7.527623e+00
 7.273768e-01	 1.072990e+00	 7.331453e+00
 7.142803e-01	 1.081752e+00	 7.115632e+00
 7.010946e-01	 1.090344e+00	 6.854896e+00
 6.810634e-01	 1.059191e+00	 6.450156e+00
 6.681709e-01	 1.067371e+00	 6.207693e+00
 6.551981e-01	 1.075383e+00	 5.971658e+00
 6.421483e-01	 1.083226e+00	 5.739045e+00
 6.290246e-01	 1.090900e+00	 5.506220e+00
 6.158303e-01	 1.098402e+00	 5.268964e+00
 6.850696e-01	 1.065422e+00	 6.550950e+00
 6.721013e-01	 1.073650e+00	 6.294985e+00
 6.590522e-01	 1.081709e+00	 6.045477e+00
 6.459256e-01	 1.089598e+00	 5.804030e+00
 6.327247e-01	 1.097317e+00	 5.571730e+00
 6.194528e-01	 1.104863e+00	 5.349182e+00
 6.890759e-01	 1.071653e+00	 6.642481e+00
 6.760317e-01	 1.079929e+00	 6.375856e+00
 6.629063e-01	 1.088035e+00	 6.120676e+00
 6.497029e-01	 1.095970e+00	 5.882115e+00
 6.364248e-01	 1.103734e+00	 5.664908e+00
 6.230753e-01	 1.111324e+00	 5.473335e+00
 6.930821e-01	 1.077883e+00	 6.724106e+00
 6.799621e-01	 1.086207e+00	 6.450900e+00
 6.667604e-01	 1.094361e+00	 6.198686e+00
 6.534803e-01	 1.102342e+00	 5.975187e+00
 6.401250e-01	 1.110151e+00	 5.787733e+00
 6.266979e-01	 1.117786e+00	 5.600401e+00
 6.970884e-01	 1.084114e+00	 6.795149e+00
 6.838926e-01	 1.092486e+00	 6.520649e+00
 6.706145e-01	 1.100686e+00	 6.280856e+00
 6.572576e-01	 1.108714e+00	 6.085040e+00
 6.438251e-01	 1.116568e+00	 5.914230e+00
 6.303204e-01	 1.124247e+00	 5.695364e+00
 7.010946e-01	 1.090344e+00	 6.854896e+00
 6.878230e-01	 1.098765e+00	 6.585570e+00
 6.744686e-01	 1.107012e+00	 6.368453e+00
 6.610350e-01	 1.115086e+00	 6.199068e+00
 6.475253e-01	 1.122985e+00	 5.998714e+00
 6.339429e-01	 1.130708e+00	 5.761161e+00
 6.158303e-01	 1.098402e+00	 5.268964e+00
 6.025686e-01	 1.105733e+00	 5.055441e+00
 5.892430e-01	 1.112891e+00	 4.896836e+00
 5.758565e-01	 1.119876e+00	 4.728634e+00
 5.624126e-01	 1.126688e+00	 4.530391e+00
 5.489144e-01	 1.133326e+00	 4.311678e+00
 6.194528e-01	 1.104863e+00	 5.349182e+00
 6.061132e-01	 1.112237e+00	 5.168215e+00
 5.927091e-01	 1.119438e+00	 4.997198e+00
 5.792439e-01	 1.126464e+00	 4.803147e+00
 5.657209e-01	 1.133316e+00	 4.592300e+00
 5.521434e-01	 1.139992e+00	 4.372096e+00
 6.230753e-01	 1.111324e+00	 5.473335e+00
 6.096577e-01	 1.118741e+00	 5.286026e+00
 5.961752e-01	 1.125984e+00	 5.086017e+00
 5.826313e-01	 1.133051e+00	 4.875775e+00
 5.690292e-01	 1.139943e+00	 4.658970e+00
 5.553723e-01	 1.146659e+00	 4.440444e+00
 6.266979e-01	 1.117786e+00	 5.600401e+00
 6.132022e-01	 1.125246e+00	 5.382518e+00
 5.996414e-01	 1.132530e+00	 5.165116e+00
 5.860187e-01	 1.139639e+00	 4.947681e+00
 5.723375e-01	 1.146571e+00	 4.730864e+00
 5.586012e-01	 1.153325e+00	 4.516451e+00
 6.303204e-01	 1.124247e+00	 5.695364e+00
 6.167467e-01	 1.131750e+00	 5.460112e+00
 6.031075e-01	 1.139077e+00	 5.236322e+00
 5.894061e-01	 1.146226e+00	 5.020050e+00
 5.756458e-01	 1.153198e+00	 4.808478e+00
 5.618301e-01	 1.159992e+00	 4.599890e+00
 6.339429e-01	 1.130708e+00	 5.761161e+00
 6.202913e-01	 1.138254e+00	 5.521223e+00
 6.065737e-01	 1.145623e+00	 5.301468e+00
 5.927935e-01	 1.152814e+00	 5.094084e+00
 5.789541e-01	 1.159826e+00	 4.892343e+00
 5.650590e-01	 1.166659e+00	 4.690586e+00
 5.489144e-01	 1.133326e+00	 4.311678e+00
 5.353654e-01	 1.139788e+00	 4.093801e+00
 5.217686e-01	 1.146077e+00	 3.888156e+00
 5.081275e-01	 1.152189e+00	 3.690953e+00
 4.944453e-01	 1.158127e+00	 3.499182e+00
 4.807252e-01	 1.163889e+00	 3.310567e+00
 5.521434e-01	 1.139992e+00	 4.372096e+00
 5.385146e-01	 1.146493e+00	 4.159753e+00
 5.248379e-01	 1.152818e+00	 3.962544e+00
 5.111165e-01	 1.158967e+00	 3.774452e+00
 4.973538e-01	 1.164939e+00	 3.590239e+00
 4.835529e-01	 1.170735e+00	 3.405405e+00
 5.553723e-01	 1.146659e+00	 4.440444e+00
 5.416638e-01	 1.153198e+00	 4.233299e+00
 5.279071e-01	 1.159560e+00	 4.041745e+00
 5.141055e-01	 1.165745e+00	 3.858737e+00
 5.002623e-01	 1.171752e+00	 3.678024e+00
 4.863807e-01	 1.177582e+00	 3.494107e+00
 5.586012e-01	 1.153325e+00	 4.516451e+00
 5.448130e-01	 1.159902e+00	 4.313562e+00
 5.309763e-01	 1.166301e+00	 4.124557e+00
 5.170945e-01	 1.172522e+00	 3.942543e+00
 5.031708e-01	 1.178564e+00	 3.761445e+00
 4.892085e-01	 1.184428e+00	 3.575970e+00
 5.618301e-01	 1.159992e+00	 4.599890e+00
 5.479622e-01	 1.166607e+00	 4.399723e+00
 5.340455e-01	 1.173043e+00	 4.209845e+00
 5.200835e-01	 1.179300e+00	 4.024668e+00
 5.060793e-01	 1.185377e+00	 3.839468e+00
 4.920363e-01	 1.191274e+00	 3.650343e+00
 5.650590e-01	 1.166659e+00	 4.690586e+00
 5.511114e-01	 1.173312e+00	 4.491026e+00
 5.371148e-01	 1.179785e+00	 4.296539e+00
 5.230724e-01	 1.186077e+00	 4.103977e+00
 5.089878e-01	 1.192189e+00	 3.911119e+00
 4.948641e-01	 1.198121e+00	 3.716619e+00
 4.807252e-01	 1.163889e+00	 3.310567e+00
 4.669704e-01	 1.169475e+00	 3.130824e+00
 4.531842e-01	 1.174886e+00	 2.964993e+00
 4.393698e-01	 1.180122e+00	 2.810761e+00
 4.255304e-01	 1.185183e+00	 2.666354e+00
 4.116692e-01	 1.190068e+00	 2.530486e+00
 4.835529e-01	 1.170735e+00	 3.405405e+00
 4.697173e-01	 1.176355e+00	 3.224284e+00
 4.558500e-01	 1.181797e+00	 3.053066e+00
 4.419544e-01	 1.187064e+00	 2.891030e+00
 4.280335e-01	 1.192154e+00	 2.738026e+00
 4.140907e-01	 1.197069e+00	 2.594417e+00
 4.863807e-01	 1.177582e+00	 3.494107e+00
 4.724642e-01	 1.183234e+00	 3.311089e+00
 4.585158e-01	 1.188709e+00	 3.136061e+00
 4.445389e-01	 1.194006e+00	 2.969028e+00
 4.305367e-01	 1.199126e+00	 2.810587e+00
 4.165123e-01	 1.204069e+00	 2.661863e+00
 4.892085e-01	 1.184428e+00	 3.575970e+00
 4.752110e-01	 1.190113e+00	 3.390916e+00
 4.611816e-01	 1.195620e+00	 3.213822e+00
 4.471234e-01	 1.200948e+00	 3.044568e+00
 4.330398e-01	 1.206098e+00	 2.883635e+00
 4.189339e-01	 1.211069e+00	 2.732044e+00
 4.920363e-01	 1.191274e+00	 3.650343e+00
 4.779579e-01	 1.196992e+00	 3.463481e+00
 4.638474e-01	 1.202531e+00	 3.286225e+00
 4.497080e-01	 1.207890e+00	 3.117490e+00
 4.355429e-01	 1.213069e+00	 2.956800e+00
 4.213555e-01	 1.218070e+00	 2.804216e+00
 4.948641e-01	 1.198121e+00	 3.716619e+00
 4.807048e-01	 1.203872e+00	 3.528536e+00
 4.665132e-01	 1.209442e+00	 3.353174e+00
 4.522925e-01	 1.214832e+00	 3.187664e+00
 4.380460e-01	 1.220041e+00	 3.029742e+00
 4.237771e-01	 1.225070e+00	 2.877671e+00
 4.116692e-01	 1.190068e+00	 2.530486e+00
 3.977892e-01	 1.194779e+00	 2.383686e+00
 3.838935e-01	 1.199316e+00	 2.216106e+00
 3.699854e-01	 1.203680e+00	 2.041431e+00
 3.560678e-01	 1.207870e+00	 1.875668e+00
 3.421438e-01	 1.211888e+00	 1.746399e+00
 4.140907e-01	 1.197069e+00	 2.594417e+00
 4.001291e-01	 1.201807e+00	 2.442755e+00
 3.861517e-01	 1.206371e+00	 2.273908e+00
 3.721618e-01	 1.210760e+00	 2.101256e+00
 3.581623e-01	 1.214975e+00	 1.939334e+00
 3.441564e-01	 1.219016e+00	 1.813498e+00
 4.165123e-01	 1.204069e+00	 2.661863e+00
 4.024690e-01	 1.208836e+00	 2.506594e+00
 3.884099e-01	 1.213426e+00	 2.336404e+00
 3.743382e-01	 1.217841e+00	 2.164802e+00
 3.602568e-01	 1.222080e+00	 2.005737e+00
 3.461690e-01	 1.226145e+00	 1.882367e+00
 4.189339e-01	 1.211069e+00	 2.732044e+00
 4.048090e-01	 1.215864e+00	 2.574031e+00
 3.906681e-01	 1.220481e+00	 2.402152e+00
 3.765146e-01	 1.224921e+00	 2.230471e+00
 3.623513e-01	 1.229185e+00	 2.073140e+00
 3.481816e-01	 1.233274e+00	 1.951352e+00
 4.213555e-01	 1.218070e+00	 2.804216e+00
 4.071489e-01	 1.222892e+00	 2.643933e+00
 3.929263e-01	 1.227536e+00	 2.469753e+00
 3.786909e-01	 1.232002e+00	 2.296711e+00
 3.644459e-01	 1.236290e+00	 2.139841e+00
 3.501942e-01	 1.240403e+00	 2.018834e+00
 4.237771e-01	 1.225070e+00	 2.877671e+00
 4.094888e-01	 1.229920e+00	 2.715215e+00
 3.951845e-01	 1.234590e+00	 2.537857e+00
 3.808673e-01	 1.239082e+00	 2.362018e+00
 3.665404e-01	 1.243395e+00	 2.204184e+00
 3.522068e-01	 1.247531e+00	 2.083224e+00
 3.421438e-01	 1.211888e+00	 1.746399e+00
 3.282163e-01	 1.215734e+00	 1.641117e+00
 3.142883e-01	 1.219408e+00	 1.528987e+00
 3.003627e-01	 1.222913e+00	 1.413740e+00
 2.864425e-01	 1.226248e+00	 1.298994e+00
 2.725305e-01	 1.229415e+00	 1.188175e+00
 3.441564e-01	 1.219016e+00	 1.813498e+00
 3.301469e-01	 1.222885e+00	 1.709456e+00
 3.161370e-01	 1.226581e+00	 1.595574e+00
 3.021296e-01	 1.230107e+00	 1.476917e+00
 2.881275e-01	 1.233461e+00	 1.358385e+00
 2.741336e-01	 1.236647e+00	 1.244632e+00
 3.461690e-01	 1.226145e+00	 1.882367e+00
 3.320776e-01	 1.230036e+00	 1.778951e+00
 3.179858e-01	 1.233754e+00	 1.663169e+00
 3.038964e-01	 1.237300e+00	 1.541286e+00
 2.898124e-01	 1.240675e+00	 1.419343e+00
 2.757367e-01	 1.243879e+00	 1.303072e+00
 3.481816e-01	 1.233274e+00	 1.951352e+00
 3.340083e-01	 1.237188e+00	 1.848072e+00
 3.198345e-01	 1.240927e+00	 1.730330e+00
 3.056633e-01	 1.244494e+00	 1.605458e+00
 2.914974e-01	 1.247888e+00	 1.480497e+00
 2.773398e-01	 1.251110e+00	 1.362115e+00
 3.501942e-01	 1.240403e+00	 2.018834e+00
 3.359390e-01	 1.244339e+00	 1.915312e+00
 3.216833e-01	 1.248100e+00	 1.795629e+00
 3.074301e-01	 1.251687e+00	 1.668053e+00
 2.931823e-01	 1.255101e+00	 1.540485e+00
 2.789430e-01	 1.258342e+00	 1.420386e+00
 3.522068e-01	 1.247531e+00	 2.083224e+00
 3.378697e-01	 1.251490e+00	 1.979191e+00
 3.235321e-01	 1.255273e+00	 1.857660e+00
 3.091969e-01	 1.258881e+00	 1.727705e+00
 2.948673e-01	 1.262314e+00	 1.597956e+00
 2.805461e-01	 1.265574e+00	 1.476519e+00
 2.725305e-01	 1.229415e+00	 1.188175e+00
 2.586294e-01	 1.232414e+00	 1.081745e+00
 2.447421e-01	 1.235247e+00	 9.795740e-01
 2.308712e-01	 1.237915e+00	 8.837481e-01
 2.170195e-01	 1.240418e+00	 7.959953e-01
 2.031896e-01	 1.242758e+00	 7.176886e-01
 2.741336e-01	 1.236647e+00	 1.244632e+00
 2.601508e-01	 1.239664e+00	 1.136741e+00
 2.461817e-01	 1.242513e+00	 1.034129e+00
 2.322293e-01	 1.245196e+00	 9.384275e-01
 2.182961e-01	 1.247714e+00	 8.508676e-01
 2.043848e-01	 1.250069e+00	 7.722877e-01
 2.757367e-01	 1.243879e+00	 1.303072e+00
 2.616721e-01	 1.246913e+00	 1.193952e+00
 2.476214e-01	 1.249779e+00	 1.090881e+00
 2.335874e-01	 1.252478e+00	 9.951199e-01
 2.195727e-01	 1.255011e+00	 9.074815e-01
 2.055801e-01	 1.257379e+00	 8.283507e-01
 2.773398e-01	 1.251110e+00	 1.362115e+00
 2.631935e-01	 1.254163e+00	 1.251993e+00
 2.490611e-01	 1.257045e+00	 1.148475e+00
 2.349454e-01	 1.259760e+00	 1.052530e+00
 2.208493e-01	 1.262308e+00	 9.646341e-01
 2.067753e-01	 1.264689e+00	 8.847923e-01
 2.789430e-01	 1.258342e+00	 1.420386e+00
 2.647148e-01	 1.261412e+00	 1.309483e+00
 2.505007e-01	 1.264312e+00	 1.205558e+00
 2.363035e-01	 1.267042e+00	 1.109367e+00
 2.221259e-01	 1.269604e+00	 1.021122e+00
 2.079705e-01	 1.272000e+00	 9.405258e-01
 2.805461e-01	 1.265574e+00	 1.476519e+00
 2.662362e-01	 1.268662e+00	 1.365046e+00
 2.519404e-01	 1.271578e+00	 1.260781e+00
 2.376616e-01	 1.274324e+00	 1.164340e+00
 2.234024e-01	 1.276901e+00	 1.075745e+00
 2.091658e-01	 1.279310e+00	 9.944632e-01
 2.031896e-01	 1.242758e+00	 7.176886e-01
 1.893840e-01	 1.244937e+00	 6.457002e-01
 1.756054e-01	 1.246955e+00	 5.768601e-01
 1.618562e-01	 1.248814e+00	 5.120338e-01
 1.481388e-01	 1.250515e+00	 4.518720e-01
 1.344557e-01	 1.252061e+00	 3.968548e-01
 2.043848e-01	 1.250069e+00	 7.722877e-01
 1.904981e-01	 1.252260e+00	 6.993038e-01
 1.766384e-01	 1.254290e+00	 6.290568e-01
 1.628083e-01	 1.256160e+00	 5.626912e-01
 1.490102e-01	 1.257871e+00	 5.011219e-01
 1.352467e-01	 1.259426e+00	 4.450842e-01
 2.055801e-01	 1.257379e+00	 8.283507e-01
 1.916121e-01	 1.259583e+00	 7.541936e-01
 1.776714e-01	 1.261625e+00	 6.824852e-01
 1.637604e-01	 1.263506e+00	 6.146015e-01
 1.498816e-01	 1.265227e+00	 5.516721e-01
 1.360376e-01	 1.266791e+00	 4.946369e-01
 2.067753e-01	 1.264689e+00	 8.847923e-01
 1.927261e-01	 1.266906e+00	 8.094118e-01
 1.787043e-01	 1.268960e+00	 7.363101e-01
 1.647125e-01	 1.270852e+00	 6.670451e-01
 1.507531e-01	 1.272583e+00	 6.029111e-01
 1.368285e-01	 1.274156e+00	 5.450013e-01
 2.079705e-01	 1.272000e+00	 9.405258e-01
 1.938401e-01	 1.274229e+00	 8.639976e-01
 1.797373e-01	 1.276295e+00	 7.896915e-01
 1.656646e-01	 1.278198e+00	 7.192975e-01
 1.516245e-01	 1.279939e+00	 6.542227e-01
 1.376194e-01	 1.281521e+00	 5.956609e-01
 2.091658e-01	 1.279310e+00	 9.944632e-01
 1.949542e-01	 1.281553e+00	 9.169873e-01
 1.807703e-01	 1.283630e+00	 8.417856e-01
 1.666167e-01	 1.285544e+00	 7.706292e-01
 1.524959e-01	 1.287295e+00	 7.049852e-01
 1.384103e-01	 1.288886e+00	 6.460942e-01
 1.344557e-01	 1.252061e+00	 3.968548e-01
 1.208092e-01	 1.253451e+00	 3.473609e-01
 1.072016e-01	 1.254688e+00	 3.035127e-01
 9.363520e-02	 1.255773e+00	 2.652873e-01
 8.011209e-02	 1.256708e+00	 2.326745e-01
 6.663447e-02	 1.257495e+00	 2.057239e-01
 1.352467e-01	 1.259426e+00	 4.450842e-01
 1.215199e-01	 1.260824e+00	 3.950375e-01
 1.078322e-01	 1.262068e+00	 3.509097e-01
 9.418599e-02	 1.263160e+00	 3.125264e-01
 8.058334e-02	 1.264101e+00	 2.797439e-01
 6.702644e-02	 1.264892e+00	 2.525016e-01
 1.360376e-01	 1.266791e+00	 4.946369e-01
 1.222305e-01	 1.268197e+00	 4.439828e-01
 1.084628e-01	 1.269449e+00	 3.994480e-01
 9.473679e-02	 1.270547e+00	 3.607427e-01
 8.105459e-02	 1.271493e+00	 3.276256e-01
 6.741841e-02	 1.272289e+00	 2.999620e-01
 1.368285e-01	 1.274156e+00	 5.450013e-01
 1.229412e-01	 1.275571e+00	 4.937811e-01
 1.090934e-01	 1.276829e+00	 4.488076e-01
 9.528758e-02	 1.277934e+00	 4.097091e-01
 8.152583e-02	 1.278886e+00	 3.761799e-01
 6.781038e-02	 1.279686e+00	 3.480443e-01
 1.376194e-01	 1.281521e+00	 5.956609e-01
 1.236518e-01	 1.282944e+00	 5.440121e-01
 1.097240e-01	 1.284210e+00	 4.986643e-01
 9.583838e-02	 1.285321e+00	 4.591949e-01
 8.199708e-02	 1.286278e+00	 4.252640e-01
 6.820234e-02	 1.287083e+00	 3.966856e-01
 1.384103e-01	 1.288886e+00	 6.460942e-01
 1.243625e-01	 1.290317e+00	 5.942509e-01
 1.103546e-01	 1.291590e+00	 5.486899e-01
 9.638917e-02	 1.292708e+00	 5.089657e-01
 8.246833e-02	 1.293670e+00	 4.747322e-01
 6.859431e-02	 1.294480e+00	 4.458208e-01
 6.663447e-02	 1.257495e+00	 2.057239e-01
 5.320443e-02	 1.258135e+00	 1.835160e-01
 3.982401e-02	 1.258629e+00	 1.654467e-01
 2.649518e-02	 1.258980e+00	 1.522449e-01
 1.321988e-02	 1.259190e+00	 1.448403e-01
 0.000000e+00	 1.259259e+00	 1.443823e-01
 6.702644e-02	 1.264892e+00	 2.525016e-01
 5.351740e-02	 1.265536e+00	 2.298862e-01
 4.005827e-02	 1.266033e+00	 2.114064e-01
 2.665103e-02	 1.266386e+00	 1.978923e-01
 1.329765e-02	 1.266597e+00	 1.904176e-01
 0.000000e+00	 1.266667e+00	 1.903225e-01
 6.741841e-02	 1.272289e+00	 2.999620e-01
 5.383037e-02	 1.272936e+00	 2.768794e-01
 4.029252e-02	 1.273437e+00	 2.579853e-01
 2.680689e-02	 1.273792e+00	 2.441735e-01
 1.337541e-02	 1.274004e+00	 2.366262e-01
 0.000000e+00	 1.274074e+00	 2.368401e-01
 6.781038e-02	 1.279686e+00	 3.480443e-01
 5.414334e-02	 1.280337e+00	 3.245002e-01
 4.052678e-02	 1.280840e+00	 3.052341e-01
 2.696274e-02	 1.281198e+00	 2.911656e-01
 1.345318e-02	 1.281411e+00	 2.835480e-01
 0.000000e+00	 1.281481e+00	 2.839998e-01
 6.820234e-02	 1.287083e+00	 3.966856e-01
 5.445630e-02	 1.287738e+00	 3.727515e-01
 4.076104e-02	 1.288244e+00	 3.532033e-01
 2.711860e-02	 1.288604e+00	 3.389460e-01
 1.353094e-02	 1.288818e+00	 3.312668e-01
 0.000000e+00	 1.288889e+00	 3.318691e-01
 6.859431e-02	 1.294480e+00	 4.458208e-01
 5.476927e-02	 1.295139e+00	 4.216349e-01
 4.099530e-02	 1.295648e+00	 4.019423e-01
 2.727445e-02	 1.296009e+00	 3.875930e-01
 1.360871e-02	 1.296225e+00	 3.798679e-01
 0.000000e+00	 1.296296e+00	 3.805187e-01
 1.296296e+00	 0.000000e+00	 1.870958e+01
 1.296225e+00	 1.360871e-02	 1.870692e+01
 1.296009e+00	 2.727445e-02	 1.870264e+01
 1.295648e+00	 4.099530e-02	 1.869598e+01
 1.295139e+00	 5.476927e-02	 1.868614e+01
 1.294480e+00	 6.859431e-02	 1.867226e+01
 1.303704e+00	 0.000000e+00	 1.855160e+01
 1.303632e+00	 1.368647e-02	 1.854917e+01
 1.303415e+00	 2.743030e-02	 1.854520e+01
 1.303052e+00	 4.122956e-02	 1.853894e+01
 1.302540e+00	 5.508224e-02	 1.852955e+01
 1.301877e+00	 6.898628e-02	 1.851620e+01
 1.311111e+00	 0.000000e+00	 1.839774e+01
 1.311039e+00	 1.376423e-02	 1.839558e+01
 1.310821e+00	 2.758616e-02	 1.839193e+01
 1.310455e+00	 4.146382e-02	 1.838603e+01
 1.309940e+00	 5.539520e-02	 1.837706e+01
 1.309274e+00	 6.937825e-02	 1.836417e+01
 1.318519e+00	 0.000000e+00	 1.824781e+01
 1.318446e+00	 1.384200e-02	 1.824597e+01
 1.318227e+00	 2.774201e-02	 1.824263e+01
 1.317859e+00	 4.169808e-02	 1.823706e+01
 1.317341e+00	 5.570817e-02	 1.822848e+01
 1.316671e+00	 6.977021e-02	 1.821602e+01
 1.325926e+00	 0.000000e+00	 1.810162e+01
 1.325853e+00	 1.391976e-02	 1.810012e+01
 1.325632e+00	 2.789787e-02	 1.809710e+01
 1.325263e+00	 4.193234e-02	 1.809186e+01
 1.324742e+00	 5.602114e-02	 1.808364e+01
 1.324068e+00	 7.016218e-02	 1.807158e+01
 1.333333e+00	 0.000000e+00	 1.795896e+01
 1.333260e+00	 1.399753e-02	 1.795785e+01
 1.333038e+00	 2.805372e-02	 1.795517e+01
 1.332666e+00	 4.216660e-02	 1.795025e+01
 1.332143e+00	 5.633411e-02	 1.794236e+01
 1.331465e+00	 7.055415e-02	 1.793068e+01
 1.294480e+00	 6.859431e-02	 1.867226e+01
 1.293670e+00	 8.246833e-02	 1.865543e+01
 1.292708e+00	 9.638917e-02	 1.863662e+01
 1.291590e+00	 1.103546e-01	 1.861491e+01
 1.290317e+00	 1.243625e-01	 1.858941e+01
 1.288886e+00	 1.384103e-01	 1.855927e+01
 1.301877e+00	 6.898628e-02	 1.851620e+01
 1.301063e+00	 8.293958e-02	 1.850002e+01
 1.300095e+00	 9.693997e-02	 1.848213e+01
 1.298971e+00	 1.109852e-01	 1.846158e+01
 1.297690e+00	 1.250731e-01	 1.843748e+01
 1.296251e+00	 1.392012e-01	 1.840896e+01
 1.309274e+00	 6.937825e-02	 1.836417e+01
 1.308455e+00	 8.341082e-02	 1.834861e+01
 1.307482e+00	 9.749076e-02	 1.833159e+01
 1.306352e+00	 1.116158e-01	 1.831215e+01
 1.305064e+00	 1.257837e-01	 1.828940e+01
 1.303616e+00	 1.399921e-01	 1.826245e+01
 1.316671e+00	 6.977021e-02	 1.821602e+01
 1.315848e+00	 8.388207e-02	 1.820104e+01
 1.314868e+00	 9.804156e-02	 1.818486e+01
 1.313732e+00	 1.122464e-01	 1.816652e+01
 1.312437e+00	 1.264944e-01	 1.814508e+01
 1.310981e+00	 1.407831e-01	 1.811966e+01
 1.324068e+00	 7.016218e-02	 1.807158e+01
 1.323240e+00	 8.435332e-02	 1.805716e+01
 1.322255e+00	 9.859235e-02	 1.804181e+01
 1.321113e+00	 1.128770e-01	 1.802455e+01
 1.319810e+00	 1.272050e-01	 1.800443e+01
 1.318346e+00	 1.415740e-01	 1.798053e+01
 1.331465e+00	 7.055415e-02	 1.793068e+01
 1.330632e+00	 8.482457e-02	 1.791682e+01
 1.329642e+00	 9.914315e-02	 1.790230e+01
 1.328493e+00	 1.135076e-01	 1.788615e+01
 1.327183e+00	 1.279157e-01	 1.786736e+01
 1.325711e+00	 1.423649e-01	 1.784500e+01
 1.288886e+00	 1.384103e-01	 1.855927e+01
 1.287295e+00	 1.524959e-01	 1.852563e+01
 1.285544e+00	 1.666167e-01	 1.849000e+01
 1.283630e+00	 1.807703e-01	 1.845218e+01
 1.281553e+00	 1.949542e-01	 1.841210e+01
 1.279310e+00	 2.091658e-01	 1.836980e+01
 1.296251e+00	 1.392012e-01	 1.840896e+01
 1.294651e+00	 1.533673e-01	 1.837708e+01
 1.292890e+00	 1.675688e-01	 1.834321e+01
 1.290965e+00	 1.818033e-01	 1.830715e+01
 1.288876e+00	 1.960682e-01	 1.826880e+01
 1.286620e+00	 2.103610e-01	 1.822820e+01
 1.303616e+00	 1.399921e-01	 1.826245e+01
 1.302007e+00	 1.542387e-01	 1.823223e+01
 1.300236e+00	 1.685209e-01	 1.820001e+01
 1.298300e+00	 1.828362e-01	 1.816559e+01
 1.296199e+00	 1.971822e-01	 1.812885e+01
 1.293931e+00	 2.115562e-01	 1.808983e+01
 1.310981e+00	 1.407831e-01	 1.811966e+01
 1.309363e+00	 1.551101e-01	 1.809104e+01
 1.307582e+00	 1.694730e-01	 1.806039e+01
 1.305635e+00	 1.838692e-01	 1.802749e+01
 1.303522e+00	 1.982962e-01	 1.799224e+01
 1.301241e+00	 2.127515e-01	 1.795468e+01
 1.318346e+00	 1.415740e-01	 1.798053e+01
 1.316719e+00	 1.559815e-01	 1.795348e+01
 1.314928e+00	 1.704251e-01	 1.792431e+01
 1.312970e+00	 1.849022e-01	 1.789283e+01
 1.310845e+00	 1.994103e-01	 1.785896e+01
 1.308551e+00	 2.139467e-01	 1.782274e+01
 1.325711e+00	 1.423649e-01	 1.784500e+01
 1.324075e+00	 1.568529e-01	 1.781950e+01
 1.322274e+00	 1.713771e-01	 1.779176e+01
 1.320305e+00	 1.859351e-01	 1.776162e+01
 1.318168e+00	 2.005243e-01	 1.772901e+01
 1.315862e+00	 2.151419e-01	 1.769400e+01
 1.279310e+00	 2.091658e-01	 1.836980e+01
 1.276901e+00	 2.234024e-01	 1.832354e+01
 1.274324e+00	 2.376616e-01	 1.827134e+01
 1.271578e+00	 2.519404e-01	 1.821315e+01
 1.268662e+00	 2.662362e-01	 1.814918e+01
 1.265574e+00	 2.805461e-01	 1.807983e+01
 1.286620e+00	 2.103610e-01	 1.822820e+01
 1.284197e+00	 2.246790e-01	 1.818387e+01
 1.281606e+00	 2.390196e-01	 1.813407e+01
 1.278844e+00	 2.533800e-01	 1.807869e+01
 1.275911e+00	 2.677575e-01	 1.801789e+01
 1.272806e+00	 2.821492e-01	 1.795204e+01
 1.293931e+00	 2.115562e-01	 1.808983e+01
 1.291494e+00	 2.259556e-01	 1.804735e+01
 1.288887e+00	 2.403777e-01	 1.799990e+01
 1.286110e+00	 2.548197e-01	 1.794731e+01
 1.283161e+00	 2.692789e-01	 1.788965e+01
 1.280038e+00	 2.837523e-01	 1.782725e+01
 1.301241e+00	 2.127515e-01	 1.795468e+01
 1.298790e+00	 2.272322e-01	 1.791396e+01
 1.296169e+00	 2.417358e-01	 1.786883e+01
 1.293376e+00	 2.562594e-01	 1.781901e+01
 1.290410e+00	 2.708002e-01	 1.776449e+01
 1.287270e+00	 2.853554e-01	 1.770552e+01
 1.308551e+00	 2.139467e-01	 1.782274e+01
 1.306087e+00	 2.285088e-01	 1.778370e+01
 1.303451e+00	 2.430938e-01	 1.774085e+01
 1.300642e+00	 2.576990e-01	 1.769382e+01
 1.297660e+00	 2.723216e-01	 1.764246e+01
 1.294502e+00	 2.869586e-01	 1.758694e+01
 1.315862e+00	 2.151419e-01	 1.769400e+01
 1.313384e+00	 2.297854e-01	 1.765654e+01
 1.310733e+00	 2.444519e-01	 1.761596e+01
 1.307909e+00	 2.591387e-01	 1.757174e+01
 1.304909e+00	 2.738429e-01	 1.752359e+01
 1.301733e+00	 2.885617e-01	 1.747158e+01
 1.265574e+00	 2.805461e-01	 1.807983e+01
 1.262314e+00	 2.948673e-01	 1.800793e+01
 1.258881e+00	 3.091969e-01	 1.793721e+01
 1.255273e+00	 3.235321e-01	 1.786974e+01
 1.251490e+00	 3.378697e-01	 1.780776e+01
 1.247531e+00	 3.522068e-01	 1.775364e+01
 1.272806e+00	 2.821492e-01	 1.795204e+01
 1.269528e+00	 2.965523e-01	 1.788358e+01
 1.266075e+00	 3.109638e-01	 1.781587e+01
 1.262446e+00	 3.253808e-01	 1.775103e+01
 1.258642e+00	 3.398004e-01	 1.769137e+01
 1.254660e+00	 3.542194e-01	 1.763933e+01
 1.280038e+00	 2.837523e-01	 1.782725e+01
 1.276741e+00	 2.982372e-01	 1.776209e+01
 1.273268e+00	 3.127306e-01	 1.769719e+01
 1.269619e+00	 3.272296e-01	 1.763476e+01
 1.265793e+00	 3.417311e-01	 1.757721e+01
 1.261789e+00	 3.562320e-01	 1.752711e+01
 1.287270e+00	 2.853554e-01	 1.770552e+01
 1.283954e+00	 2.999222e-01	 1.764357e+01
 1.280462e+00	 3.144975e-01	 1.758129e+01
 1.276792e+00	 3.290783e-01	 1.752102e+01
 1.272944e+00	 3.436617e-01	 1.746530e+01
 1.268918e+00	 3.582446e-01	 1.741686e+01
 1.294502e+00	 2.869586e-01	 1.758694e+01
 1.291167e+00	 3.016071e-01	 1.752813e+01
 1.287655e+00	 3.162643e-01	 1.746827e+01
 1.283965e+00	 3.309271e-01	 1.740986e+01
 1.280096e+00	 3.455924e-01	 1.735564e+01
 1.276046e+00	 3.602572e-01	 1.730850e+01
 1.301733e+00	 2.885617e-01	 1.747158e+01
 1.298380e+00	 3.032921e-01	 1.741588e+01
 1.294849e+00	 3.180311e-01	 1.735823e+01
 1.291138e+00	 3.327758e-01	 1.730137e+01
 1.287247e+00	 3.475231e-01	 1.724822e+01
 1.283175e+00	 3.622699e-01	 1.720191e+01
 1.247531e+00	 3.522068e-01	 1.775364e+01
 1.243395e+00	 3.665404e-01	 1.767269e+01
 1.239082e+00	 3.808673e-01	 1.754955e+01
 1.234590e+00	 3.951845e-01	 1.743293e+01
 1.229920e+00	 4.094888e-01	 1.732900e+01
 1.225070e+00	 4.237771e-01	 1.724158e+01
 1.254660e+00	 3.542194e-01	 1.763933e+01
 1.250501e+00	 3.686349e-01	 1.755940e+01
 1.246162e+00	 3.830437e-01	 1.744277e+01
 1.241645e+00	 3.974427e-01	 1.733236e+01
 1.236948e+00	 4.118288e-01	 1.723284e+01
 1.232071e+00	 4.261987e-01	 1.714836e+01
 1.261789e+00	 3.562320e-01	 1.752711e+01
 1.257606e+00	 3.707294e-01	 1.744815e+01
 1.253243e+00	 3.852201e-01	 1.733913e+01
 1.248700e+00	 3.997009e-01	 1.723465e+01
 1.243976e+00	 4.141687e-01	 1.713920e+01
 1.239071e+00	 4.286202e-01	 1.705722e+01
 1.268918e+00	 3.582446e-01	 1.741686e+01
 1.264711e+00	 3.728239e-01	 1.733957e+01
 1.260323e+00	 3.873965e-01	 1.723832e+01
 1.255755e+00	 4.019591e-01	 1.713952e+01
 1.251004e+00	 4.165086e-01	 1.704788e+01
 1.246071e+00	 4.310418e-01	 1.696809e+01
 1.276046e+00	 3.602572e-01	 1.730850e+01
 1.271816e+00	 3.749184e-01	 1.723385e+01
 1.267404e+00	 3.895729e-01	 1.714003e+01
 1.262810e+00	 4.042173e-01	 1.704667e+01
 1.258032e+00	 4.188486e-01	 1.695867e+01
 1.253072e+00	 4.334634e-01	 1.688089e+01
 1.283175e+00	 3.622699e-01	 1.720191e+01
 1.278921e+00	 3.770130e-01	 1.713071e+01
 1.274484e+00	 3.917493e-01	 1.704393e+01
 1.269864e+00	 4.064755e-01	 1.695579e+01
 1.265060e+00	 4.211885e-01	 1.687132e+01
 1.260072e+00	 4.358850e-01	 1.679554e+01
 1.225070e+00	 4.237771e-01	 1.724158e+01
 1.220041e+00	 4.380460e-01	 1.715593e+01
 1.214832e+00	 4.522925e-01	 1.705675e+01
 1.209442e+00	 4.665132e-01	 1.694689e+01
 1.203872e+00	 4.807048e-01	 1.682918e+01
 1.198121e+00	 4.948641e-01	 1.670631e+01
 1.232071e+00	 4.261987e-01	 1.714836e+01
 1.227013e+00	 4.405491e-01	 1.706542e+01
 1.221773e+00	 4.548770e-01	 1.696964e+01
 1.216353e+00	 4.691790e-01	 1.686383e+01
 1.210751e+00	 4.834517e-01	 1.675075e+01
 1.204967e+00	 4.976919e-01	 1.663311e+01
 1.239071e+00	 4.286202e-01	 1.705722e+01
 1.233984e+00	 4.430523e-01	 1.697650e+01
 1.228715e+00	 4.574615e-01	 1.688379e+01
 1.223264e+00	 4.718447e-01	 1.678187e+01
 1.217630e+00	 4.861986e-01	 1.667354e+01
 1.211814e+00	 5.005197e-01	 1.656154e+01
 1.246071e+00	 4.310418e-01	 1.696809e+01
 1.240956e+00	 4.455554e-01	 1.688925e+01
 1.235657e+00	 4.600461e-01	 1.679928e+01
 1.230175e+00	 4.745105e-01	 1.670104e+01
 1.224509e+00	 4.889455e-01	 1.659738e+01
 1.218660e+00	 5.033475e-01	 1.649114e+01
 1.253072e+00	 4.334634e-01	 1.688089e+01
 1.247928e+00	 4.480585e-01	 1.680370e+01
 1.242599e+00	 4.626306e-01	 1.671619e+01
 1.237086e+00	 4.771763e-01	 1.662132e+01
 1.231389e+00	 4.916924e-01	 1.652208e+01
 1.225506e+00	 5.061753e-01	 1.642141e+01
 1.260072e+00	 4.358850e-01	 1.679554e+01
 1.254899e+00	 4.505616e-01	 1.671991e+01
 1.249541e+00	 4.652151e-01	 1.663458e+01
 1.243997e+00	 4.798421e-01	 1.654272e+01
 1.238268e+00	 4.944392e-01	 1.644745e+01
 1.232353e+00	 5.090031e-01	 1.635188e+01
 1.198121e+00	 4.948641e-01	 1.670631e+01
 1.192189e+00	 5.089878e-01	 1.657983e+01
 1.186077e+00	 5.230724e-01	 1.645008e+01
 1.179785e+00	 5.371148e-01	 1.631752e+01
 1.173312e+00	 5.511114e-01	 1.618212e+01
 1.166659e+00	 5.650590e-01	 1.604330e+01
 1.204967e+00	 4.976919e-01	 1.663311e+01
 1.199002e+00	 5.118963e-01	 1.651162e+01
 1.192855e+00	 5.260614e-01	 1.638603e+01
 1.186526e+00	 5.401840e-01	 1.625709e+01
 1.180016e+00	 5.542606e-01	 1.612507e+01
 1.173325e+00	 5.682879e-01	 1.598967e+01
 1.211814e+00	 5.005197e-01	 1.656154e+01
 1.205814e+00	 5.148048e-01	 1.644552e+01
 1.199632e+00	 5.290504e-01	 1.632428e+01
 1.193268e+00	 5.432532e-01	 1.619889e+01
 1.186721e+00	 5.574098e-01	 1.606984e+01
 1.179992e+00	 5.715168e-01	 1.593708e+01
 1.218660e+00	 5.033475e-01	 1.649114e+01
 1.212627e+00	 5.177133e-01	 1.638077e+01
 1.206410e+00	 5.320394e-01	 1.626402e+01
 1.200010e+00	 5.463225e-01	 1.614215e+01
 1.193426e+00	 5.605590e-01	 1.601591e+01
 1.186659e+00	 5.747457e-01	 1.588545e+01
 1.225506e+00	 5.061753e-01	 1.642141e+01
 1.219439e+00	 5.206218e-01	 1.631664e+01
 1.213188e+00	 5.350284e-01	 1.620439e+01
 1.206751e+00	 5.493917e-01	 1.608612e+01
 1.200130e+00	 5.637082e-01	 1.596277e+01
 1.193325e+00	 5.779746e-01	 1.583468e+01
 1.232353e+00	 5.090031e-01	 1.635188e+01
 1.226252e+00	 5.235303e-01	 1.625239e+01
 1.219965e+00	 5.380174e-01	 1.614458e+01
 1.213493e+00	 5.524609e-01	 1.603005e+01
 1.206835e+00	 5.668575e-01	 1.590990e+01
 1.199992e+00	 5.812035e-01	 1.578466e+01
 1.166659e+00	 5.650590e-01	 1.604330e+01
 1.159826e+00	 5.789541e-01	 1.590186e+01
 1.152814e+00	 5.927935e-01	 1.575838e+01
 1.145623e+00	 6.065737e-01	 1.561096e+01
 1.138254e+00	 6.202913e-01	 1.545690e+01
 1.130708e+00	 6.339429e-01	 1.529260e+01
 1.173325e+00	 5.682879e-01	 1.598967e+01
 1.166454e+00	 5.822625e-01	 1.585211e+01
 1.159401e+00	 5.961809e-01	 1.571328e+01
 1.152170e+00	 6.100398e-01	 1.557127e+01
 1.144759e+00	 6.238358e-01	 1.542343e+01
 1.137169e+00	 6.375654e-01	 1.526627e+01
 1.179992e+00	 5.715168e-01	 1.593708e+01
 1.173081e+00	 5.855708e-01	 1.580262e+01
 1.165989e+00	 5.995683e-01	 1.566799e+01
 1.158716e+00	 6.135059e-01	 1.553134e+01
 1.151263e+00	 6.273803e-01	 1.539007e+01
 1.143630e+00	 6.411880e-01	 1.524077e+01
 1.186659e+00	 5.747457e-01	 1.588545e+01
 1.179709e+00	 5.888791e-01	 1.575368e+01
 1.172576e+00	 6.029557e-01	 1.562290e+01
 1.165262e+00	 6.169721e-01	 1.549136e+01
 1.157767e+00	 6.309248e-01	 1.535653e+01
 1.150092e+00	 6.448105e-01	 1.521507e+01
 1.193325e+00	 5.779746e-01	 1.583468e+01
 1.186336e+00	 5.921874e-01	 1.570554e+01
 1.179164e+00	 6.063431e-01	 1.557836e+01
 1.171809e+00	 6.204382e-01	 1.545150e+01
 1.164272e+00	 6.344693e-01	 1.532253e+01
 1.156553e+00	 6.484330e-01	 1.518814e+01
 1.199992e+00	 5.812035e-01	 1.578466e+01
 1.192964e+00	 5.954957e-01	 1.565845e+01
 1.185751e+00	 6.097304e-01	 1.553469e+01
 1.178355e+00	 6.239043e-01	 1.541191e+01
 1.170776e+00	 6.380139e-01	 1.528776e+01
 1.163014e+00	 6.520556e-01	 1.515896e+01
 1.130708e+00	 6.339429e-01	 1.529260e+01
 1.122985e+00	 6.475253e-01	 1.513123e+01
 1.115086e+00	 6.610350e-01	 1.498207e+01
 1.107012e+00	 6.744686e-01	 1.483142e+01
 1.098765e+00	 6.878230e-01	 1.465293e+01
 1.090344e+00	 7.010946e-01	 1.443133e+01
 1.137169e+00	 6.375654e-01	 1.526627e+01
 1.129402e+00	 6.512254e-01	 1.511026e+01
 1.121458e+00	 6.648123e-01	 1.496208e+01
 1.113338e+00	 6.783228e-01	 1.481064e+01
 1.105043e+00	 6.917534e-01	 1.463815e+01
 1.096575e+00	 7.051009e-01	 1.441805e+01
 1.143630e+00	 6.411880e-01	 1.524077e+01
 1.135819e+00	 6.549256e-01	 1.509113e+01
 1.127830e+00	 6.685897e-01	 1.494515e+01
 1.119664e+00	 6.821769e-01	 1.479206e+01
 1.111322e+00	 6.956838e-01	 1.461929e+01
 1.102805e+00	 7.091071e-01	 1.440380e+01
 1.150092e+00	 6.448105e-01	 1.521507e+01
 1.142236e+00	 6.586257e-01	 1.507205e+01
 1.134202e+00	 6.723670e-01	 1.492907e+01
 1.125990e+00	 6.860310e-01	 1.477570e+01
 1.117601e+00	 6.996142e-01	 1.459981e+01
 1.109036e+00	 7.131134e-01	 1.438693e+01
 1.156553e+00	 6.484330e-01	 1.518814e+01
 1.148653e+00	 6.623259e-01	 1.505128e+01
 1.140574e+00	 6.761443e-01	 1.491167e+01
 1.132315e+00	 6.898851e-01	 1.475927e+01
 1.123879e+00	 7.035446e-01	 1.458247e+01
 1.115266e+00	 7.171197e-01	 1.436795e+01
 1.163014e+00	 6.520556e-01	 1.515896e+01
 1.155070e+00	 6.660260e-01	 1.502710e+01
 1.146946e+00	 6.799217e-01	 1.489081e+01
 1.138641e+00	 6.937392e-01	 1.474053e+01
 1.130158e+00	 7.074751e-01	 1.456523e+01
 1.121497e+00	 7.211259e-01	 1.435229e+01
 1.090344e+00	 7.010946e-01	 1.443133e+01
 1.081752e+00	 7.142803e-01	 1.420937e+01
 1.072990e+00	 7.273768e-01	 1.403664e+01
 1.064059e+00	 7.403807e-01	 1.391002e+01
 1.054960e+00	 7.532889e-01	 1.377305e+01
 1.045695e+00	 7.660982e-01	 1.357127e+01
 1.096575e+00	 7.051009e-01	 1.441805e+01
 1.087934e+00	 7.183619e-01	 1.419940e+01
 1.079121e+00	 7.315332e-01	 1.403892e+01
 1.070139e+00	 7.446114e-01	 1.392830e+01
 1.060988e+00	 7.575934e-01	 1.378235e+01
 1.051670e+00	 7.704759e-01	 1.357969e+01
 1.102805e+00	 7.091071e-01	 1.440380e+01
 1.094115e+00	 7.224435e-01	 1.419192e+01
 1.085253e+00	 7.356896e-01	 1.404718e+01
 1.076219e+00	 7.488422e-01	 1.394300e+01
 1.067016e+00	 7.618979e-01	 1.378993e+01
 1.057646e+00	 7.748536e-01	 1.358783e+01
 1.109036e+00	 7.131134e-01	 1.438693e+01
 1.100296e+00	 7.265251e-01	 1.418587e+01
 1.091384e+00	 7.398461e-01	 1.406078e+01
 1.082300e+00	 7.530729e-01	 1.395323e+01
 1.073045e+00	 7.662024e-01	 1.379507e+01
 1.063621e+00	 7.792313e-01	 1.359484e+01
 1.115266e+00	 7.171197e-01	 1.436795e+01
 1.106478e+00	 7.306067e-01	 1.418016e+01
 1.097515e+00	 7.440025e-01	 1.407503e+01
 1.088380e+00	 7.573037e-01	 1.395818e+01
 1.079073e+00	 7.705069e-01	 1.379701e+01
 1.069596e+00	 7.836090e-01	 1.359990e+01
 1.121497e+00	 7.211259e-01	 1.435229e+01
 1.112659e+00	 7.346883e-01	 1.417389e+01
 1.103647e+00	 7.481590e-01	 1.408041e+01
 1.094460e+00	 7.615344e-01	 1.395701e+01
 1.085101e+00	 7.748114e-01	 1.379505e+01
 1.075572e+00	 7.879867e-01	 1.360220e+01
 1.045695e+00	 7.660982e-01	 1.357127e+01
 1.036266e+00	 7.788053e-01	 1.334056e+01
 1.026674e+00	 7.914072e-01	 1.311243e+01
 1.016921e+00	 8.039008e-01	 1.289222e+01
 1.007009e+00	 8.162830e-01	 1.268663e+01
 9.969392e-01	 8.285508e-01	 1.250363e+01
 1.051670e+00	 7.704759e-01	 1.357969e+01
 1.042187e+00	 7.832556e-01	 1.335293e+01
 1.032540e+00	 7.959296e-01	 1.312974e+01
 1.022732e+00	 8.084945e-01	 1.291481e+01
 1.012763e+00	 8.209475e-01	 1.271423e+01
 1.002636e+00	 8.332854e-01	 1.253538e+01
 1.057646e+00	 7.748536e-01	 1.358783e+01
 1.048109e+00	 7.877060e-01	 1.336587e+01
 1.038407e+00	 8.004519e-01	 1.314801e+01
 1.028543e+00	 8.130883e-01	 1.293839e+01
 1.018517e+00	 8.256120e-01	 1.274255e+01
 1.008333e+00	 8.380199e-01	 1.256740e+01
 1.063621e+00	 7.792313e-01	 1.359484e+01
 1.054030e+00	 7.921563e-01	 1.337837e+01
 1.044274e+00	 8.049742e-01	 1.316613e+01
 1.034354e+00	 8.176820e-01	 1.296176e+01
 1.024272e+00	 8.302764e-01	 1.277037e+01
 1.014030e+00	 8.427545e-01	 1.259846e+01
 1.069596e+00	 7.836090e-01	 1.359990e+01
 1.059952e+00	 7.966066e-01	 1.338946e+01
 1.050140e+00	 8.094966e-01	 1.318300e+01
 1.040165e+00	 8.222757e-01	 1.298375e+01
 1.030026e+00	 8.349409e-01	 1.279646e+01
 1.019726e+00	 8.474891e-01	 1.262734e+01
 1.075572e+00	 7.879867e-01	 1.360220e+01
 1.065873e+00	 8.010569e-01	 1.339816e+01
 1.056007e+00	 8.140189e-01	 1.319753e+01
 1.045975e+00	 8.268694e-01	 1.300320e+01
 1.035780e+00	 8.396054e-01	 1.281965e+01
 1.025423e+00	 8.522237e-01	 1.265286e+01
 9.969392e-01	 8.285508e-01	 1.250363e+01
 9.867146e-01	 8.407012e-01	 1.231659e+01
 9.763368e-01	 8.527312e-01	 1.210193e+01
 9.658080e-01	 8.646381e-01	 1.187394e+01
 9.551303e-01	 8.764189e-01	 1.164787e+01
 9.443061e-01	 8.880710e-01	 1.143982e+01
 1.002636e+00	 8.332854e-01	 1.253538e+01
 9.923529e-01	 8.455052e-01	 1.235144e+01
 9.819159e-01	 8.576040e-01	 1.213925e+01
 9.713269e-01	 8.695789e-01	 1.191354e+01
 9.605882e-01	 8.814270e-01	 1.169004e+01
 9.497021e-01	 8.931457e-01	 1.148537e+01
 1.008333e+00	 8.380199e-01	 1.256740e+01
 9.979913e-01	 8.503092e-01	 1.238613e+01
 9.874949e-01	 8.624767e-01	 1.217615e+01
 9.768458e-01	 8.745197e-01	 1.195259e+01
 9.660461e-01	 8.864352e-01	 1.173166e+01
 9.550982e-01	 8.982204e-01	 1.153048e+01
 1.014030e+00	 8.427545e-01	 1.259846e+01
 1.003630e+00	 8.551132e-01	 1.241945e+01
 9.930740e-01	 8.673495e-01	 1.221142e+01
 9.823647e-01	 8.794605e-01	 1.198991e+01
 9.715040e-01	 8.914433e-01	 1.177156e+01
 9.604942e-01	 9.032951e-01	 1.157401e+01
 1.019726e+00	 8.474891e-01	 1.262734e+01
 1.009268e+00	 8.599172e-01	 1.245018e+01
 9.986531e-01	 8.722222e-01	 1.224388e+01
 9.878836e-01	 8.844012e-01	 1.202432e+01
 9.769619e-01	 8.964514e-01	 1.180860e+01
 9.658902e-01	 9.083697e-01	 1.161484e+01
 1.025423e+00	 8.522237e-01	 1.265286e+01
 1.014906e+00	 8.647212e-01	 1.247718e+01
 1.004232e+00	 8.770950e-01	 1.227238e+01
 9.934025e-01	 8.893420e-01	 1.205470e+01
 9.824198e-01	 9.014595e-01	 1.184165e+01
 9.712863e-01	 9.134444e-01	 1.165186e+01
 9.443061e-01	 8.880710e-01	 1.143982e+01
 9.333377e-01	 8.995915e-01	 1.123019e+01
 9.222274e-01	 9.109779e-01	 1.099780e+01
 9.109779e-01	 9.222274e-01	 1.075705e+01
 8.995915e-01	 9.333377e-01	 1.052239e+01
 8.880710e-01	 9.443061e-01	 1.030815e+01
 9.497021e-01	 8.931457e-01	 1.148537e+01
 9.386710e-01	 9.047320e-01	 1.127940e+01
 9.274973e-01	 9.161834e-01	 1.105010e+01
 9.161834e-01	 9.274973e-01	 1.081195e+01
 9.047320e-01	 9.386710e-01	 1.057950e+01
 8.931457e-01	 9.497021e-01	 1.036717e+01
 9.550982e-01	 8.982204e-01	 1.153048e+01
 9.440044e-01	 9.098726e-01	 1.132831e+01
 9.327672e-01	 9.213890e-01	 1.110219e+01
 9.213890e-01	 9.327672e-01	 1.086668e+01
 9.098726e-01	 9.440044e-01	 1.063645e+01
 8.982204e-01	 9.550982e-01	 1.042605e+01
 9.604942e-01	 9.032951e-01	 1.157401e+01
 9.493377e-01	 9.150131e-01	 1.137580e+01
 9.380370e-01	 9.265946e-01	 1.115292e+01
 9.265946e-01	 9.380370e-01	 1.092007e+01
 9.150131e-01	 9.493377e-01	 1.069203e+01
 9.032951e-01	 9.604942e-01	 1.048347e+01
 9.658902e-01	 9.083697e-01	 1.161484e+01
 9.546711e-01	 9.201536e-01	 1.142073e+01
 9.433069e-01	 9.318002e-01	 1.120116e+01
 9.318002e-01	 9.433069e-01	 1.097095e+01
 9.201536e-01	 9.546711e-01	 1.074502e+01
 9.083697e-01	 9.658902e-01	 1.053818e+01
 9.712863e-01	 9.134444e-01	 1.165186e+01
 9.600045e-01	 9.252941e-01	 1.146203e+01
 9.485768e-01	 9.370058e-01	 1.124582e+01
 9.370058e-01	 9.485768e-01	 1.101819e+01
 9.252941e-01	 9.600045e-01	 1.079424e+01
 9.134444e-01	 9.712863e-01	 1.058892e+01
 8.880710e-01	 9.443061e-01	 1.030815e+01
 8.764189e-01	 9.551303e-01	 1.009326e+01
 8.646381e-01	 9.658080e-01	 9.857240e+00
 8.527312e-01	 9.763368e-01	 9.614585e+00
 8.407012e-01	 9.867146e-01	 9.378966e+00
 8.285508e-01	 9.969392e-01	 9.163053e+00
 8.931457e-01	 9.497021e-01	 1.036717e+01
 8.814270e-01	 9.605882e-01	 1.015373e+01
 8.695789e-01	 9.713269e-01	 9.918758e+00
 8.576040e-01	 9.819159e-01	 9.677206e+00
 8.455052e-01	 9.923529e-01	 9.443194e+00
 8.332854e-01	 1.002636e+00	 9.229811e+00
 8.982204e-01	 9.550982e-01	 1.042605e+01
 8.864352e-01	 9.660461e-01	 1.021409e+01
 8.745197e-01	 9.768458e-01	 9.980231e+00
 8.624767e-01	 9.874949e-01	 9.739871e+00
 8.503092e-01	 9.979913e-01	 9.507537e+00
 8.380199e-01	 1.008333e+00	 9.296715e+00
 9.032951e-01	 9.604942e-01	 1.048347e+01
 8.914433e-01	 9.715040e-01	 1.027296e+01
 8.794605e-01	 9.823647e-01	 1.004024e+01
 8.673495e-01	 9.930740e-01	 9.801115e+00
 8.551132e-01	 1.003630e+00	 9.570503e+00
 8.427545e-01	 1.014030e+00	 9.362262e+00
 9.083697e-01	 9.658902e-01	 1.053818e+01
 8.964514e-01	 9.769619e-01	 1.032900e+01
 8.844012e-01	 9.878836e-01	 1.009738e+01
 8.722222e-01	 9.986531e-01	 9.859488e+00
 8.599172e-01	 1.009268e+00	 9.630613e+00
 8.474891e-01	 1.019726e+00	 9.424958e+00
 9.134444e-01	 9.712863e-01	 1.058892e+01
 9.014595e-01	 9.824198e-01	 1.038088e+01
 8.893420e-01	 9.934025e-01	 1.015026e+01
 8.770950e-01	 1.004232e+00	 9.913556e+00
 8.647212e-01	 1.014906e+00	 9.686401e+00
 8.522237e-01	 1.025423e+00	 9.483323e+00
 8.285508e-01	 9.969392e-01	 9.163053e+00
 8.162830e-01	 1.007009e+00	 8.948990e+00
 8.039008e-01	 1.016921e+00	 8.716366e+00
 7.914072e-01	 1.026674e+00	 8.472006e+00
 7.788053e-01	 1.036266e+00	 8.221081e+00
 7.660982e-01	 1.045695e+00	 7.966985e+00
 8.332854e-01	 1.002636e+00	 9.229811e+00
 8.209475e-01	 1.012763e+00	 9.019007e+00
 8.084945e-01	 1.022732e+00	 8.789671e+00
 7.959296e-01	 1.032540e+00	 8.548240e+00
 7.832556e-01	 1.042187e+00	 8.299436e+00
 7.704759e-01	 1.051670e+00	 8.046143e+00
 8.380199e-01	 1.008333e+00	 9.296715e+00
 8.256120e-01	 1.018517e+00	 9.089057e+00
 8.130883e-01	 1.028543e+00	 8.862713e+00
 8.004519e-01	 1.038407e+00	 8.623781e+00
 7.877060e-01	 1.048109e+00	 8.376585e+00
 7.748536e-01	 1.057646e+00	 8.123541e+00
 8.427545e-01	 1.014030e+00	 9.362262e+00
 8.302764e-01	 1.024272e+00	 9.157625e+00
 8.176820e-01	 1.034354e+00	 8.933934e+00
 8.049742e-01	 1.044274e+00	 8.697005e+00
 7.921563e-01	 1.054030e+00	 8.450810e+00
 7.792313e-01	 1.063621e+00	 8.197340e+00
 8.474891e-01	 1.019726e+00	 9.424958e+00
 8.349409e-01	 1.030026e+00	 9.223200e+00
 8.222757e-01	 1.040165e+00	 9.001783e+00
 8.094966e-01	 1.050140e+00	 8.766291e+00
 7.966066e-01	 1.059952e+00	 8.520394e+00
 7.836090e-01	 1.069596e+00	 8.265705e+00
 8.522237e-01	 1.025423e+00	 9.483323e+00
 8.396054e-01	 1.035780e+00	 9.284283e+00
 8.268694e-01	 1.045975e+00	 9.064714e+00
 8.140189e-01	 1.056007e+00	 8.830024e+00
 8.010569e-01	 1.065873e+00	 8.583629e+00
 7.879867e-01	 1.075572e+00	 8.326805e+00
 7.660982e-01	 1.045695e+00	 7.966985e+00
 7.532889e-01	 1.054960e+00	 7.731946e+00
 7.403807e-01	 1.064059e+00	 7.527623e+00
 7.273768e-01	 1.072990e+00	 7.331453e+00
 7.142803e-01	 1.081752e+00	 7.115632e+00
 7.010946e-01	 1.090344e+00	 6.854896e+00
 7.704759e-01	 1.051670e+00	 8.046143e+00
 7.575934e-01	 1.060988e+00	 7.808159e+00
 7.446114e-01	 1.070139e+00	 7.596733e+00
 7.315332e-01	 1.079121e+00	 7.395405e+00
 7.183619e-01	 1.087934e+00	 7.176915e+00
 7.051009e-01	 1.096575e+00	 6.917913e+00
 7.748536e-01	 1.057646e+00	 8.123541e+00
 7.618979e-01	 1.067016e+00	 7.882673e+00
 7.488422e-01	 1.076219e+00	 7.665829e+00
 7.356896e-01	 1.085253e+00	 7.461824e+00
 7.224435e-01	 1.094115e+00	 7.247048e+00
 7.091071e-01	 1.102805e+00	 6.999592e+00
 7.792313e-01	 1.063621e+00	 8.197340e+00
 7.662024e-01	 1.073045e+00	 7.953636e+00
 7.530729e-01	 1.082300e+00	 7.733281e+00
 7.398461e-01	 1.091384e+00	 7.529622e+00
 7.265251e-01	 1.100296e+00	 7.325610e+00
 7.131134e-01	 1.109036e+00	 7.100384e+00
 7.836090e-01	 1.069596e+00	 8.265705e+00
 7.705069e-01	 1.079073e+00	 8.019194e+00
 7.573037e-01	 1.088380e+00	 7.797446e+00
 7.440025e-01	 1.097515e+00	 7.598048e+00
 7.306067e-01	 1.106478e+00	 7.412142e+00
 7.171197e-01	 1.115266e+00	 7.207058e+00
 7.879867e-01	 1.075572e+00	 8.326805e+00
 7.748114e-01	 1.085101e+00	 8.077496e+00
 7.615344e-01	 1.094460e+00	 7.856674e+00
 7.481590e-01	 1.103647e+00	 7.666703e+00
 7.346883e-01	 1.112659e+00	 7.504351e+00
 7.211259e-01	 1.121497e+00	 7.276707e+00
 7.010946e-01	 1.090344e+00	 6.854896e+00
 6.878230e-01	 1.098765e+00	 6.585570e+00
 6.744686e-01	 1.107012e+00	 6.368453e+00
 6.610350e-01	 1.115086e+00	 6.199068e+00
 6.475253e-01	 1.122985e+00	 5.998714e+00
 6.339429e-01	 1.130708e+00	 5.761161e+00
 7.051009e-01	 1.096575e+00	 6.917913e+00
 6.917534e-01	 1.105043e+00	 6.663604e+00
 6.783228e-01	 1.113338e+00	 6.477292e+00
 6.648123e-01	 1.121458e+00	 6.284852e+00
 6.512254e-01	 1.129402e+00	 6.061715e+00
 6.375654e-01	 1.137169e+00	 5.816018e+00
 7.091071e-01	 1.102805e+00	 6.999592e+00
 6.956838e-01	 1.111322e+00	 6.773189e+00
 6.821769e-01	 1.119664e+00	 6.577377e+00
 6.685897e-01	 1.127830e+00	 6.359432e+00
 6.549256e-01	 1.135819e+00	 6.123884e+00
 6.411880e-01	 1.143630e+00	 5.876836e+00
 7.131134e-01	 1.109036e+00	 7.100384e+00
 6.996142e-01	 1.117601e+00	 6.880716e+00
 6.860310e-01	 1.125990e+00	 6.657157e+00
 6.723670e-01	 1.134202e+00	 6.425717e+00
 6.586257e-01	 1.142236e+00	 6.187365e+00
 6.448105e-01	 1.150092e+00	 5.944584e+00
 7.171197e-01	 1.115266e+00	 7.207058e+00
 7.035446e-01	 1.123879e+00	 6.958148e+00
 6.898851e-01	 1.132315e+00	 6.719840e+00
 6.761443e-01	 1.140574e+00	 6.486600e+00
 6.623259e-01	 1.148653e+00	 6.254305e+00
 6.484330e-01	 1.156553e+00	 6.020257e+00
 7.211259e-01	 1.121497e+00	 7.276707e+00
 7.074751e-01	 1.130158e+00	 7.008542e+00
 6.937392e-01	 1.138641e+00	 6.768621e+00
 6.799217e-01	 1.146946e+00	 6.544963e+00
 6.660260e-01	 1.155070e+00	 6.326856e+00
 6.520556e-01	 1.163014e+00	 6.104881e+00
 6.339429e-01	 1.130708e+00	 5.761161e+00
 6.202913e-01	 1.138254e+00	 5.521223e+00
 6.065737e-01	 1.145623e+00	 5.301468e+00
 5.927935e-01	 1.152814e+00	 5.094084e+00
 5.789541e-01	 1.159826e+00	 4.892343e+00
 5.650590e-01	 1.166659e+00	 4.690586e+00
 6.375654e-01	 1.137169e+00	 5.816018e+00
 6.238358e-01	 1.144759e+00	 5.578940e+00
 6.100398e-01	 1.152170e+00	 5.367520e+00
 5.961809e-01	 1.159401e+00	 5.170667e+00
 5.822625e-01	 1.166454e+00	 4.978353e+00
 5.682879e-01	 1.173325e+00	 4.781605e+00
 6.411880e-01	 1.143630e+00	 5.876836e+00
 6.273803e-01	 1.151263e+00	 5.644610e+00
 6.135059e-01	 1.158716e+00	 5.439628e+00
 5.995683e-01	 1.165989e+00	 5.249126e+00
 5.855708e-01	 1.173081e+00	 5.061413e+00
 5.715168e-01	 1.179992e+00	 4.865864e+00
 6.448105e-01	 1.150092e+00	 5.944584e+00
 6.309248e-01	 1.157767e+00	 5.718067e+00
 6.169721e-01	 1.165262e+00	 5.516961e+00
 6.029557e-01	 1.172576e+00	 5.328400e+00
 5.888791e-01	 1.179709e+00	 5.140638e+00
 5.747457e-01	 1.186659e+00	 4.943037e+00
 6.484330e-01	 1.156553e+00	 6.020257e+00
 6.344693e-01	 1.164272e+00	 5.799200e+00
 6.204382e-01	 1.171809e+00	 5.598754e+00
 6.063431e-01	 1.179164e+00	 5.407498e+00
 5.921874e-01	 1.186336e+00	 5.215210e+00
 5.779746e-01	 1.193325e+00	 5.012851e+00
 6.520556e-01	 1.163014e+00	 6.104881e+00
 6.380139e-01	 1.170776e+00	 5.887950e+00
 6.239043e-01	 1.178355e+00	 5.684308e+00
 6.097304e-01	 1.185751e+00	 5.485498e+00
 5.954957e-01	 1.192964e+00	 5.284374e+00
 5.812035e-01	 1.199992e+00	 5.075081e+00
 5.650590e-01	 1.166659e+00	 4.690586e+00
 5.511114e-01	 1.173312e+00	 4.491026e+00
 5.371148e-01	 1.179785e+00	 4.296539e+00
 5.230724e-01	 1.186077e+00	 4.103977e+00
 5.089878e-01	 1.192189e+00	 3.911119e+00
 4.948641e-01	 1.198121e+00	 3.716619e+00
 5.682879e-01	 1.173325e+00	 4.781605e+00
 5.542606e-01	 1.180016e+00	 4.580654e+00
 5.401840e-01	 1.186526e+00	 4.380228e+00
 5.260614e-01	 1.192855e+00	 4.179650e+00
 5.118963e-01	 1.199002e+00	 3.979229e+00
 4.976919e-01	 1.204967e+00	 3.780206e+00
 5.715168e-01	 1.179992e+00	 4.865864e+00
 5.574098e-01	 1.186721e+00	 4.662423e+00
 5.432532e-01	 1.193268e+00	 4.457543e+00
 5.290504e-01	 1.199632e+00	 4.251968e+00
 5.148048e-01	 1.205814e+00	 4.047471e+00
 5.005197e-01	 1.211814e+00	 3.846793e+00
 5.747457e-01	 1.186659e+00	 4.943037e+00
 5.605590e-01	 1.193426e+00	 4.736593e+00
 5.463225e-01	 1.200010e+00	 4.529040e+00
 5.320394e-01	 1.206410e+00	 4.321509e+00
 5.177133e-01	 1.212627e+00	 4.116190e+00
 5.033475e-01	 1.218660e+00	 3.916262e+00
 5.779746e-01	 1.193325e+00	 5.012851e+00
 5.637082e-01	 1.200130e+00	 4.803462e+00
 5.493917e-01	 1.206751e+00	 4.595302e+00
 5.350284e-01	 1.213188e+00	 4.388878e+00
 5.206218e-01	 1.219439e+00	 4.185763e+00
 5.061753e-01	 1.225506e+00	 3.988533e+00
 5.812035e-01	 1.199992e+00	 5.075081e+00
 5.668575e-01	 1.206835e+00	 4.863365e+00
 5.524609e-01	 1.213493e+00	 4.656944e+00
 5.380174e-01	 1.219965e+00	 4.454704e+00
 5.235303e-01	 1.226252e+00	 4.256595e+00
 5.090031e-01	 1.232353e+00	 4.063559e+00
 4.948641e-01	 1.198121e+00	 3.716619e+00
 4.807048e-01	 1.203872e+00	 3.528536e+00
 4.665132e-01	 1.209442e+00	 3.353174e+00
 4.522925e-01	 1.214832e+00	 3.187664e+00
 4.380460e-01	 1.220041e+00	 3.029742e+00
 4.237771e-01	 1.225070e+00	 2.877671e+00
 4.976919e-01	 1.204967e+00	 3.780206e+00
 4.834517e-01	 1.210751e+00	 3.592027e+00
 4.691790e-01	 1.216353e+00	 3.419421e+00
 4.548770e-01	 1.221773e+00	 3.257683e+00
 4.405491e-01	 1.227013e+00	 3.102702e+00
 4.261987e-01	 1.232071e+00	 2.950896e+00
 5.005197e-01	 1.211814e+00	 3.846793e+00
 4.861986e-01	 1.217630e+00	 3.659621e+00
 4.718447e-01	 1.223264e+00	 3.489137e+00
 4.574615e-01	 1.228715e+00	 3.329494e+00
 4.430523e-01	 1.233984e+00	 3.175440e+00
 4.286202e-01	 1.239071e+00	 3.022253e+00
 5.033475e-01	 1.218660e+00	 3.916262e+00
 4.889455e-01	 1.224509e+00	 3.730717e+00
 4.745105e-01	 1.230175e+00	 3.561422e+00
 4.600461e-01	 1.235657e+00	 3.402064e+00
 4.455554e-01	 1.240956e+00	 3.246944e+00
 4.310418e-01	 1.246071e+00	 3.090905e+00
 5.061753e-01	 1.225506e+00	 3.988533e+00
 4.916924e-01	 1.231389e+00	 3.804761e+00
 4.771763e-01	 1.237086e+00	 3.635422e+00
 4.626306e-01	 1.242599e+00	 3.474409e+00
 4.480585e-01	 1.247928e+00	 3.316255e+00
 4.334634e-01	 1.253072e+00	 3.156055e+00
 5.090031e-01	 1.232353e+00	 4.063559e+00
 4.944392e-01	 1.238268e+00	 3.881242e+00
 4.798421e-01	 1.243997e+00	 3.710333e+00
 4.652151e-01	 1.249541e+00	 3.545594e+00
 4.505616e-01	 1.254899e+00	 3.382457e+00
 4.358850e-01	 1.260072e+00	 3.216947e+00
 4.237771e-01	 1.225070e+00	 2.877671e+00
 4.094888e-01	 1.229920e+00	 2.715215e+00
 3.951845e-01	 1.234590e+00	 2.537857e+00
 3.808673e-01	 1.239082e+00	 2.362018e+00
 3.665404e-01	 1.243395e+00	 2.204184e+00
 3.522068e-01	 1.247531e+00	 2.083224e+00
 4.261987e-01	 1.232071e+00	 2.950896e+00
 4.118288e-01	 1.236948e+00	 2.785870e+00
 3.974427e-01	 1.241645e+00	 2.605077e+00
 3.830437e-01	 1.246162e+00	 2.426287e+00
 3.686349e-01	 1.250501e+00	 2.267442e+00
 3.542194e-01	 1.254660e+00	 2.147051e+00
 4.286202e-01	 1.239071e+00	 3.022253e+00
 4.141687e-01	 1.243976e+00	 2.854141e+00
 3.997009e-01	 1.248700e+00	 2.670489e+00
 3.852201e-01	 1.253243e+00	 2.489936e+00
 3.707294e-01	 1.257606e+00	 2.331344e+00
 3.562320e-01	 1.261789e+00	 2.213087e+00
 4.310418e-01	 1.246071e+00	 3.090905e+00
 4.165086e-01	 1.251004e+00	 2.919368e+00
 4.019591e-01	 1.255755e+00	 2.733487e+00
 3.873965e-01	 1.260323e+00	 2.552306e+00
 3.728239e-01	 1.264711e+00	 2.395088e+00
 3.582446e-01	 1.268918e+00	 2.280163e+00
 4.334634e-01	 1.253072e+00	 3.156055e+00
 4.188486e-01	 1.258032e+00	 2.980924e+00
 4.042173e-01	 1.262810e+00	 2.793497e+00
 3.895729e-01	 1.267404e+00	 2.612763e+00
 3.749184e-01	 1.271816e+00	 2.457923e+00
 3.602572e-01	 1.276046e+00	 2.347138e+00
 4.358850e-01	 1.260072e+00	 3.216947e+00
 4.211885e-01	 1.265060e+00	 3.038218e+00
 4.064755e-01	 1.269864e+00	 2.849975e+00
 3.917493e-01	 1.274484e+00	 2.670702e+00
 3.770130e-01	 1.278921e+00	 2.519086e+00
 3.622699e-01	 1.283175e+00	 2.412900e+00
 3.522068e-01	 1.247531e+00	 2.083224e+00
 3.378697e-01	 1.251490e+00	 1.979191e+00
 3.235321e-01	 1.255273e+00	 1.857660e+00
 3.091969e-01	 1.258881e+00	 1.727705e+00
 2.948673e-01	 1.262314e+00	 1.597956e+00
 2.805461e-01	 1.265574e+00	 1.476519e+00
 3.542194e-01	 1.254660e+00	 2.147051e+00
 3.398004e-01	 1.258642e+00	 2.042851e+00
 3.253808e-01	 1.262446e+00	 1.919600e+00
 3.109638e-01	 1.266075e+00	 1.787258e+00
 2.965523e-01	 1.269528e+00	 1.655254e+00
 2.821492e-01	 1.272806e+00	 1.532417e+00
 3.562320e-01	 1.261789e+00	 2.213087e+00
 3.417311e-01	 1.265793e+00	 2.109462e+00
 3.272296e-01	 1.269619e+00	 1.984514e+00
 3.127306e-01	 1.273268e+00	 1.849371e+00
 2.982372e-01	 1.276741e+00	 1.714549e+00
 2.837523e-01	 1.280038e+00	 1.589876e+00
 3.582446e-01	 1.268918e+00	 2.280163e+00
 3.436617e-01	 1.272944e+00	 2.177621e+00
 3.290783e-01	 1.276792e+00	 2.050852e+00
 3.144975e-01	 1.280462e+00	 1.912435e+00
 2.999222e-01	 1.283954e+00	 1.774247e+00
 2.853554e-01	 1.287270e+00	 1.647388e+00
 3.602572e-01	 1.276046e+00	 2.347138e+00
 3.455924e-01	 1.280096e+00	 2.245951e+00
 3.309271e-01	 1.283965e+00	 2.117092e+00
 3.162643e-01	 1.287655e+00	 1.974863e+00
 3.016071e-01	 1.291167e+00	 1.832770e+00
 2.869586e-01	 1.294502e+00	 1.703458e+00
 3.622699e-01	 1.283175e+00	 2.412900e+00
 3.475231e-01	 1.287247e+00	 2.313105e+00
 3.327758e-01	 1.291138e+00	 2.181738e+00
 3.180311e-01	 1.294849e+00	 2.035088e+00
 3.032921e-01	 1.298380e+00	 1.888559e+00
 2.885617e-01	 1.301733e+00	 1.756604e+00
 2.805461e-01	 1.265574e+00	 1.476519e+00
 2.662362e-01	 1.268662e+00	 1.365046e+00
 2.519404e-01	 1.271578e+00	 1.260781e+00
 2.376616e-01	 1.274324e+00	 1.164340e+00
 2.234024e-01	 1.276901e+00	 1.075745e+00
 2.091658e-01	 1.279310e+00	 9.944632e-01
 2.821492e-01	 1.272806e+00	 1.532417e+00
 2.677575e-01	 1.275911e+00	 1.420377e+00
 2.533800e-01	 1.278844e+00	 1.315841e+00
 2.390196e-01	 1.281606e+00	 1.219263e+00
 2.246790e-01	 1.284197e+00	 1.130447e+00
 2.103610e-01	 1.286620e+00	 1.048598e+00
 2.837523e-01	 1.280038e+00	 1.589876e+00
 2.692789e-01	 1.283161e+00	 1.477151e+00
 2.548197e-01	 1.286110e+00	 1.372468e+00
 2.403777e-01	 1.288887e+00	 1.276001e+00
 2.259556e-01	 1.291494e+00	 1.187218e+00
 2.115562e-01	 1.293931e+00	 1.104932e+00
 2.853554e-01	 1.287270e+00	 1.647388e+00
 2.708002e-01	 1.290410e+00	 1.533971e+00
 2.562594e-01	 1.293376e+00	 1.429365e+00
 2.417358e-01	 1.296169e+00	 1.333346e+00
 2.272322e-01	 1.298790e+00	 1.244921e+00
 2.127515e-01	 1.301241e+00	 1.162391e+00
 2.869586e-01	 1.294502e+00	 1.703458e+00
 2.723216e-01	 1.297660e+00	 1.589452e+00
 2.576990e-01	 1.300642e+00	 1.485242e+00
 2.430938e-01	 1.303451e+00	 1.390089e+00
 2.285088e-01	 1.306087e+00	 1.302419e+00
 2.139467e-01	 1.308551e+00	 1.219895e+00
 2.885617e-01	 1.301733e+00	 1.756604e+00
 2.738429e-01	 1.304909e+00	 1.642215e+00
 2.591387e-01	 1.307909e+00	 1.538813e+00
 2.444519e-01	 1.310733e+00	 1.445026e+00
 2.297854e-01	 1.313384e+00	 1.358577e+00
 2.151419e-01	 1.315862e+00	 1.276368e+00
 2.091658e-01	 1.279310e+00	 9.944632e-01
 1.949542e-01	 1.281553e+00	 9.169873e-01
 1.807703e-01	 1.283630e+00	 8.417856e-01
 1.666167e-01	 1.285544e+00	 7.706292e-01
 1.524959e-01	 1.287295e+00	 7.049852e-01
 1.384103e-01	 1.288886e+00	 6.460942e-01
 2.103610e-01	 1.286620e+00	 1.048598e+00
 1.960682e-01	 1.288876e+00	 9.702578e-01
 1.818033e-01	 1.290965e+00	 8.942149e-01
 1.675688e-01	 1.292890e+00	 8.223307e-01
 1.533673e-01	 1.294651e+00	 7.561406e-01
 1.392012e-01	 1.296251e+00	 6.969382e-01
 2.115562e-01	 1.293931e+00	 1.104932e+00
 1.971822e-01	 1.296199e+00	 1.025657e+00
 1.828362e-01	 1.298300e+00	 9.485497e-01
 1.685209e-01	 1.300236e+00	 8.756324e-01
 1.542387e-01	 1.302007e+00	 8.085751e-01
 1.399921e-01	 1.303616e+00	 7.487906e-01
 2.127515e-01	 1.301241e+00	 1.162391e+00
 1.982962e-01	 1.303522e+00	 1.082173e+00
 1.838692e-01	 1.305635e+00	 1.003864e+00
 1.694730e-01	 1.307582e+00	 9.297093e-01
 1.551101e-01	 1.309363e+00	 8.615782e-01
 1.407831e-01	 1.310981e+00	 8.010644e-01
 2.139467e-01	 1.308551e+00	 1.219895e+00
 1.994103e-01	 1.310845e+00	 1.138794e+00
 1.849022e-01	 1.312970e+00	 1.059229e+00
 1.704251e-01	 1.314928e+00	 9.837336e-01
 1.559815e-01	 1.316719e+00	 9.144356e-01
 1.415740e-01	 1.318346e+00	 8.531686e-01
 2.151419e-01	 1.315862e+00	 1.276368e+00
 2.005243e-01	 1.318168e+00	 1.194505e+00
 1.859351e-01	 1.320305e+00	 1.113715e+00
 1.713771e-01	 1.322274e+00	 1.036875e+00
 1.568529e-01	 1.324075e+00	 9.664301e-01
 1.423649e-01	 1.325711e+00	 9.045089e-01
 1.384103e-01	 1.288886e+00	 6.460942e-01
 1.243625e-01	 1.290317e+00	 5.942509e-01
 1.103546e-01	 1.291590e+00	 5.486899e-01
 9.638917e-02	 1.292708e+00	 5.089657e-01
 8.246833e-02	 1.293670e+00	 4.747322e-01
 6.859431e-02	 1.294480e+00	 4.458208e-01
 1.392012e-01	 1.296251e+00	 6.969382e-01
 1.250731e-01	 1.297690e+00	 6.449222e-01
 1.109852e-01	 1.298971e+00	 5.991768e-01
 9.693997e-02	 1.300095e+00	 5.592294e-01
 8.293958e-02	 1.301063e+00	 5.247245e-01
 6.898628e-02	 1.301877e+00	 4.955071e-01
 1.399921e-01	 1.303616e+00	 7.487906e-01
 1.257837e-01	 1.305064e+00	 6.964292e-01
 1.116158e-01	 1.306352e+00	 6.504061e-01
 9.749076e-02	 1.307482e+00	 6.101880e-01
 8.341082e-02	 1.308455e+00	 5.753745e-01
 6.937825e-02	 1.309274e+00	 5.457905e-01
 1.407831e-01	 1.310981e+00	 8.010644e-01
 1.264944e-01	 1.312437e+00	 7.483077e-01
 1.122464e-01	 1.313732e+00	 7.020275e-01
 9.804156e-02	 1.314868e+00	 6.615928e-01
 8.388207e-02	 1.315848e+00	 6.265226e-01
 6.977021e-02	 1.316671e+00	 5.965854e-01
 1.415740e-01	 1.318346e+00	 8.531686e-01
 1.272050e-01	 1.319810e+00	 8.000897e-01
 1.128770e-01	 1.321113e+00	 7.536863e-01
 9.859235e-02	 1.322255e+00	 7.131917e-01
 8.435332e-02	 1.323240e+00	 6.780062e-01
 7.016218e-02	 1.324068e+00	 6.478043e-01
 1.423649e-01	 1.325711e+00	 9.045089e-01
 1.279157e-01	 1.327183e+00	 8.513033e-01
 1.135076e-01	 1.328493e+00	 8.050241e-01
 9.914315e-02	 1.329642e+00	 7.647290e-01
 8.482457e-02	 1.330632e+00	 7.296598e-01
 7.055415e-02	 1.331465e+00	 6.993572e-01
 6.859431e-02	 1.294480e+00	 4.458208e-01
 5.476927e-02	 1.295139e+00	 4.216349e-01
 4.099530e-02	 1.295648e+00	 4.019423e-01
 2.727445e-02	 1.296009e+00	 3.875930e-01
 1.360871e-02	 1.296225e+00	 3.798679e-01
 0.000000e+00	 1.296296e+00	 3.805187e-01
 6.898628e-02	 1.301877e+00	 4.955071e-01
 5.508224e-02	 1.302540e+00	 4.710892e-01
 4.122956e-02	 1.303052e+00	 4.512645e-01
 2.743030e-02	 1.303415e+00	 4.368288e-01
 1.368647e-02	 1.303632e+00	 4.290597e-01
 0.000000e+00	 1.303704e+00	 4.297608e-01
 6.937825e-02	 1.309274e+00	 5.457905e-01
 5.539520e-02	 1.309940e+00	 5.210376e-01
 4.146382e-02	 1.310455e+00	 5.009667e-01
 2.758616e-02	 1.310821e+00	 4.863624e-01
 1.376423e-02	 1.311039e+00	 4.785420e-01
 0.000000e+00	 1.311111e+00	 4.794052e-01
 6.977021e-02	 1.316671e+00	 5.965854e-01
 5.570817e-02	 1.317341e+00	 5.714554e-01
 4.169808e-02	 1.317859e+00	 5.510735e-01
 2.774201e-02	 1.318227e+00	 5.362524e-01
 1.384200e-02	 1.318446e+00	 5.283900e-01
 0.000000e+00	 1.318519e+00	 5.295233e-01
 7.016218e-02	 1.324068e+00	 6.478043e-01
 5.602114e-02	 1.324742e+00	 6.223171e-01
 4.193234e-02	 1.325263e+00	 6.016092e-01
 2.789787e-02	 1.325632e+00	 5.865584e-01
 1.391976e-02	 1.325853e+00	 5.786807e-01
 0.000000e+00	 1.325926e+00	 5.801891e-01
 7.055415e-02	 1.331465e+00	 6.993572e-01
 5.633411e-02	 1.332143e+00	 6.735957e-01
 4.216660e-02	 1.332666e+00	 6.525979e-01
 2.805372e-02	 1.333038e+00	 6.373407e-01
 1.399753e-02	 1.333260e+00	 6.294927e-01
 0.000000e+00	 1.333333e+00	 6.314795e-01
 1.333333e+00	 0.000000e+00	 1.795896e+01
 1.333260e+00	 1.399753e-02	 1.795785e+01
 1.333038e+00	 2.805372e-02	 1.795517e+01
 1.332666e+00	 4.216660e-02	 1.795025e+01
 1.332143e+00	 5.633411e-02	 1.794236e+01
 1.331465e+00	 7.055415e-02	 1.793068e+01
 1.340741e+00	 0.000000e+00	 1.781981e+01
 1.340667e+00	 1.407529e-02	 1.781912e+01
 1.340444e+00	 2.820957e-02	 1.781677e+01
 1.340070e+00	 4.240085e-02	 1.781217e+01
 1.339544e+00	 5.664707e-02	 1.780460e+01
 1.338862e+00	 7.094612e-02	 1.779326e+01
 1.348148e+00	 0.000000e+00	 1.768417e+01
 1.348074e+00	 1.415305e-02	 1.768389e+01
 1.347850e+00	 2.836543e-02	 1.768189e+01
 1.347474e+00	 4.263511e-02	 1.767759e+01
 1.346944e+00	 5.696004e-02	 1.767032e+01
 1.346259e+00	 7.133808e-02	 1.765929e+01
 1.355556e+00	 0.000000e+00	 1.755192e+01
 1.355481e+00	 1.423082e-02	 1.755204e+01
 1.355255e+00	 2.852128e-02	 1.755036e+01
 1.354878e+00	 4.286937e-02	 1.754636e+01
 1.354345e+00	 5.727301e-02	 1.753938e+01
 1.353656e+00	 7.173005e-02	 1.752862e+01
 1.362963e+00	 0.000000e+00	 1.742292e+01
 1.362888e+00	 1.430858e-02	 1.742340e+01
 1.362661e+00	 2.867714e-02	 1.742204e+01
 1.362281e+00	 4.310363e-02	 1.741833e+01
 1.361746e+00	 5.758597e-02	 1.741163e+01
 1.361053e+00	 7.212202e-02	 1.740115e+01
 1.370370e+00	 0.000000e+00	 1.729703e+01
 1.370295e+00	 1.438635e-02	 1.729783e+01
 1.370067e+00	 2.883299e-02	 1.729676e+01
 1.369685e+00	 4.333789e-02	 1.729335e+01
 1.369147e+00	 5.789894e-02	 1.728694e+01
 1.368450e+00	 7.251399e-02	 1.727674e+01
 1.331465e+00	 7.055415e-02	 1.793068e+01
 1.330632e+00	 8.482457e-02	 1.791682e+01
 1.329642e+00	 9.914315e-02	 1.790230e+01
 1.328493e+00	 1.135076e-01	 1.788615e+01
 1.327183e+00	 1.279157e-01	 1.786736e+01
 1.325711e+00	 1.423649e-01	 1.784500e+01
 1.338862e+00	 7.094612e-02	 1.779326e+01
 1.338025e+00	 8.529582e-02	 1.777991e+01
 1.337029e+00	 9.969394e-02	 1.776621e+01
 1.335874e+00	 1.141382e-01	 1.775113e+01
 1.334556e+00	 1.286263e-01	 1.773367e+01
 1.333076e+00	 1.431558e-01	 1.771283e+01
 1.346259e+00	 7.133808e-02	 1.765929e+01
 1.345417e+00	 8.576706e-02	 1.764639e+01
 1.344416e+00	 1.002447e-01	 1.763342e+01
 1.343254e+00	 1.147688e-01	 1.761935e+01
 1.341930e+00	 1.293369e-01	 1.760315e+01
 1.340441e+00	 1.439467e-01	 1.758382e+01
 1.353656e+00	 7.173005e-02	 1.752862e+01
 1.352810e+00	 8.623831e-02	 1.751613e+01
 1.351803e+00	 1.007955e-01	 1.750385e+01
 1.350635e+00	 1.153994e-01	 1.749073e+01
 1.349303e+00	 1.300476e-01	 1.747575e+01
 1.347806e+00	 1.447376e-01	 1.745789e+01
 1.361053e+00	 7.212202e-02	 1.740115e+01
 1.360202e+00	 8.670956e-02	 1.738905e+01
 1.359190e+00	 1.013463e-01	 1.737741e+01
 1.358015e+00	 1.160300e-01	 1.736520e+01
 1.356676e+00	 1.307582e-01	 1.735140e+01
 1.355171e+00	 1.455286e-01	 1.733497e+01
 1.368450e+00	 7.251399e-02	 1.727674e+01
 1.367594e+00	 8.718081e-02	 1.726502e+01
 1.366577e+00	 1.018971e-01	 1.725400e+01
 1.365396e+00	 1.166606e-01	 1.724267e+01
 1.364049e+00	 1.314689e-01	 1.723002e+01
 1.362536e+00	 1.463195e-01	 1.721500e+01
 1.325711e+00	 1.423649e-01	 1.784500e+01
 1.324075e+00	 1.568529e-01	 1.781950e+01
 1.322274e+00	 1.713771e-01	 1.779176e+01
 1.320305e+00	 1.859351e-01	 1.776162e+01
 1.318168e+00	 2.005243e-01	 1.772901e+01
 1.315862e+00	 2.151419e-01	 1.769400e+01
 1.333076e+00	 1.431558e-01	 1.771283e+01
 1.331431e+00	 1.577243e-01	 1.768887e+01
 1.329620e+00	 1.723292e-01	 1.766252e+01
 1.327640e+00	 1.869681e-01	 1.763363e+01
 1.325492e+00	 2.016383e-01	 1.760216e+01
 1.323172e+00	 2.163372e-01	 1.756821e+01
 1.340441e+00	 1.439467e-01	 1.758382e+01
 1.338787e+00	 1.585957e-01	 1.756137e+01
 1.336966e+00	 1.732813e-01	 1.753637e+01
 1.334975e+00	 1.880011e-01	 1.750867e+01
 1.332815e+00	 2.027523e-01	 1.747825e+01
 1.330482e+00	 2.175324e-01	 1.744521e+01
 1.347806e+00	 1.447376e-01	 1.745789e+01
 1.346143e+00	 1.594671e-01	 1.743694e+01
 1.344312e+00	 1.742334e-01	 1.741327e+01
 1.342310e+00	 1.890341e-01	 1.738672e+01
 1.340138e+00	 2.038664e-01	 1.735729e+01
 1.337793e+00	 2.187276e-01	 1.732507e+01
 1.355171e+00	 1.455286e-01	 1.733497e+01
 1.353499e+00	 1.603385e-01	 1.731552e+01
 1.351658e+00	 1.751855e-01	 1.729317e+01
 1.349645e+00	 1.900670e-01	 1.726778e+01
 1.347461e+00	 2.049804e-01	 1.723931e+01
 1.345103e+00	 2.199229e-01	 1.720787e+01
 1.362536e+00	 1.463195e-01	 1.721500e+01
 1.360855e+00	 1.612099e-01	 1.719703e+01
 1.359003e+00	 1.761376e-01	 1.717602e+01
 1.356980e+00	 1.911000e-01	 1.715181e+01
 1.354784e+00	 2.060944e-01	 1.712434e+01
 1.352413e+00	 2.211181e-01	 1.709369e+01
 1.315862e+00	 2.151419e-01	 1.769400e+01
 1.313384e+00	 2.297854e-01	 1.765654e+01
 1.310733e+00	 2.444519e-01	 1.761596e+01
 1.307909e+00	 2.591387e-01	 1.757174e+01
 1.304909e+00	 2.738429e-01	 1.752359e+01
 1.301733e+00	 2.885617e-01	 1.747158e+01
 1.323172e+00	 2.163372e-01	 1.756821e+01
 1.320680e+00	 2.310620e-01	 1.753220e+01
 1.318015e+00	 2.458099e-01	 1.749382e+01
 1.315175e+00	 2.605783e-01	 1.745238e+01
 1.312159e+00	 2.753642e-01	 1.740750e+01
 1.308965e+00	 2.901648e-01	 1.735909e+01
 1.330482e+00	 2.175324e-01	 1.744521e+01
 1.327977e+00	 2.323385e-01	 1.741049e+01
 1.325297e+00	 2.471680e-01	 1.737418e+01
 1.322441e+00	 2.620180e-01	 1.733547e+01
 1.319408e+00	 2.768856e-01	 1.729384e+01
 1.316197e+00	 2.917679e-01	 1.724911e+01
 1.337793e+00	 2.187276e-01	 1.732507e+01
 1.335273e+00	 2.336151e-01	 1.729153e+01
 1.332579e+00	 2.485261e-01	 1.725720e+01
 1.329707e+00	 2.634577e-01	 1.722113e+01
 1.326658e+00	 2.784069e-01	 1.718272e+01
 1.323429e+00	 2.933710e-01	 1.714166e+01
 1.345103e+00	 2.199229e-01	 1.720787e+01
 1.342570e+00	 2.348917e-01	 1.717545e+01
 1.339860e+00	 2.498841e-01	 1.714300e+01
 1.336973e+00	 2.648973e-01	 1.710950e+01
 1.333907e+00	 2.799283e-01	 1.707421e+01
 1.330661e+00	 2.949742e-01	 1.703677e+01
 1.352413e+00	 2.211181e-01	 1.709369e+01
 1.349866e+00	 2.361683e-01	 1.706235e+01
 1.347142e+00	 2.512422e-01	 1.703173e+01
 1.344239e+00	 2.663370e-01	 1.700069e+01
 1.341157e+00	 2.814496e-01	 1.696841e+01
 1.337893e+00	 2.965773e-01	 1.693446e+01
 1.301733e+00	 2.885617e-01	 1.747158e+01
 1.298380e+00	 3.032921e-01	 1.741588e+01
 1.294849e+00	 3.180311e-01	 1.735823e+01
 1.291138e+00	 3.327758e-01	 1.730137e+01
 1.287247e+00	 3.475231e-01	 1.724822e+01
 1.283175e+00	 3.622699e-01	 1.720191e+01
 1.308965e+00	 2.901648e-01	 1.735909e+01
 1.305594e+00	 3.049770e-01	 1.730654e+01
 1.302043e+00	 3.197980e-01	 1.725100e+01
 1.298311e+00	 3.346246e-01	 1.719542e+01
 1.294399e+00	 3.494538e-01	 1.714297e+01
 1.290304e+00	 3.642825e-01	 1.709700e+01
 1.316197e+00	 2.917679e-01	 1.724911e+01
 1.312807e+00	 3.066620e-01	 1.719978e+01
 1.309236e+00	 3.215648e-01	 1.714630e+01
 1.305484e+00	 3.364733e-01	 1.709185e+01
 1.301550e+00	 3.513845e-01	 1.703982e+01
 1.297433e+00	 3.662951e-01	 1.699378e+01
 1.323429e+00	 2.933710e-01	 1.714166e+01
 1.320020e+00	 3.083470e-01	 1.709554e+01
 1.316430e+00	 3.233317e-01	 1.704406e+01
 1.312657e+00	 3.383221e-01	 1.699059e+01
 1.308701e+00	 3.533152e-01	 1.693871e+01
 1.304561e+00	 3.683077e-01	 1.689226e+01
 1.330661e+00	 2.949742e-01	 1.703677e+01
 1.327233e+00	 3.100319e-01	 1.699379e+01
 1.323623e+00	 3.250985e-01	 1.694420e+01
 1.319830e+00	 3.401709e-01	 1.689153e+01
 1.315853e+00	 3.552458e-01	 1.683959e+01
 1.311690e+00	 3.703203e-01	 1.679242e+01
 1.337893e+00	 2.965773e-01	 1.693446e+01
 1.334447e+00	 3.117169e-01	 1.689449e+01
 1.330817e+00	 3.268653e-01	 1.684663e+01
 1.327003e+00	 3.420196e-01	 1.679461e+01
 1.323004e+00	 3.571765e-01	 1.674240e+01
 1.318819e+00	 3.723329e-01	 1.669475e+01
 1.283175e+00	 3.622699e-01	 1.720191e+01
 1.278921e+00	 3.770130e-01	 1.713071e+01
 1.274484e+00	 3.917493e-01	 1.704393e+01
 1.269864e+00	 4.064755e-01	 1.695579e+01
 1.265060e+00	 4.211885e-01	 1.687132e+01
 1.260072e+00	 4.358850e-01	 1.679554e+01
 1.290304e+00	 3.642825e-01	 1.709700e+01
 1.286026e+00	 3.791075e-01	 1.702992e+01
 1.281565e+00	 3.939256e-01	 1.694973e+01
 1.276919e+00	 4.087337e-01	 1.686660e+01
 1.272089e+00	 4.235284e-01	 1.678565e+01
 1.267073e+00	 4.383066e-01	 1.671207e+01
 1.297433e+00	 3.662951e-01	 1.699378e+01
 1.293131e+00	 3.812020e-01	 1.693141e+01
 1.288645e+00	 3.961020e-01	 1.685735e+01
 1.283974e+00	 4.109919e-01	 1.677899e+01
 1.279117e+00	 4.258684e-01	 1.670157e+01
 1.274073e+00	 4.407281e-01	 1.663043e+01
 1.304561e+00	 3.683077e-01	 1.689226e+01
 1.300236e+00	 3.832965e-01	 1.683517e+01
 1.295726e+00	 3.982784e-01	 1.676678e+01
 1.291029e+00	 4.132501e-01	 1.669291e+01
 1.286145e+00	 4.282083e-01	 1.661894e+01
 1.281073e+00	 4.431497e-01	 1.655039e+01
 1.311690e+00	 3.703203e-01	 1.679242e+01
 1.307341e+00	 3.853910e-01	 1.674115e+01
 1.302806e+00	 4.004548e-01	 1.667797e+01
 1.298084e+00	 4.155083e-01	 1.660829e+01
 1.293173e+00	 4.305483e-01	 1.653763e+01
 1.288074e+00	 4.455713e-01	 1.647169e+01
 1.318819e+00	 3.723329e-01	 1.669475e+01
 1.314447e+00	 3.874855e-01	 1.664930e+01
 1.309887e+00	 4.026312e-01	 1.659089e+01
 1.305138e+00	 4.177665e-01	 1.652506e+01
 1.300201e+00	 4.328882e-01	 1.645750e+01
 1.295074e+00	 4.479929e-01	 1.639410e+01
 1.260072e+00	 4.358850e-01	 1.679554e+01
 1.254899e+00	 4.505616e-01	 1.671991e+01
 1.249541e+00	 4.652151e-01	 1.663458e+01
 1.243997e+00	 4.798421e-01	 1.654272e+01
 1.238268e+00	 4.944392e-01	 1.644745e+01
 1.232353e+00	 5.090031e-01	 1.635188e+01
 1.267073e+00	 4.383066e-01	 1.671207e+01
 1.261871e+00	 4.530647e-01	 1.663818e+01
 1.256483e+00	 4.677997e-01	 1.655503e+01
 1.250908e+00	 4.825079e-01	 1.646594e+01
 1.245147e+00	 4.971861e-01	 1.637422e+01
 1.239199e+00	 5.118309e-01	 1.628313e+01
 1.274073e+00	 4.407281e-01	 1.663043e+01
 1.268843e+00	 4.555679e-01	 1.655860e+01
 1.263425e+00	 4.703842e-01	 1.647780e+01
 1.257820e+00	 4.851737e-01	 1.639147e+01
 1.252027e+00	 4.999330e-01	 1.630305e+01
 1.246046e+00	 5.146587e-01	 1.621590e+01
 1.281073e+00	 4.431497e-01	 1.655039e+01
 1.275814e+00	 4.580710e-01	 1.648083e+01
 1.270367e+00	 4.729687e-01	 1.640250e+01
 1.264731e+00	 4.878395e-01	 1.631892e+01
 1.258906e+00	 5.026799e-01	 1.623358e+01
 1.252892e+00	 5.174865e-01	 1.614994e+01
 1.288074e+00	 4.455713e-01	 1.647169e+01
 1.282786e+00	 4.605741e-01	 1.640453e+01
 1.277309e+00	 4.755532e-01	 1.632874e+01
 1.271642e+00	 4.905053e-01	 1.624787e+01
 1.265785e+00	 5.054268e-01	 1.616547e+01
 1.259738e+00	 5.203143e-01	 1.608500e+01
 1.295074e+00	 4.479929e-01	 1.639410e+01
 1.289758e+00	 4.630772e-01	 1.632934e+01
 1.284250e+00	 4.781378e-01	 1.625611e+01
 1.278553e+00	 4.931711e-01	 1.617794e+01
 1.272664e+00	 5.081737e-01	 1.609835e+01
 1.266585e+00	 5.231421e-01	 1.602082e+01
 1.232353e+00	 5.090031e-01	 1.635188e+01
 1.226252e+00	 5.235303e-01	 1.625239e+01
 1.219965e+00	 5.380174e-01	 1.614458e+01
 1.213493e+00	 5.524609e-01	 1.603005e+01
 1.206835e+00	 5.668575e-01	 1.590990e+01
 1.199992e+00	 5.812035e-01	 1.578466e+01
 1.239199e+00	 5.118309e-01	 1.628313e+01
 1.233064e+00	 5.264388e-01	 1.618833e+01
 1.226743e+00	 5.410064e-01	 1.608471e+01
 1.220234e+00	 5.555301e-01	 1.597398e+01
 1.213540e+00	 5.700067e-01	 1.585745e+01
 1.206658e+00	 5.844324e-01	 1.573588e+01
 1.246046e+00	 5.146587e-01	 1.621590e+01
 1.239877e+00	 5.293473e-01	 1.612518e+01
 1.233520e+00	 5.439953e-01	 1.602534e+01
 1.226976e+00	 5.585994e-01	 1.591833e+01
 1.220244e+00	 5.731559e-01	 1.580571e+01
 1.213325e+00	 5.876614e-01	 1.568856e+01
 1.252892e+00	 5.174865e-01	 1.614994e+01
 1.246689e+00	 5.322558e-01	 1.606279e+01
 1.240298e+00	 5.469843e-01	 1.596635e+01
 1.233718e+00	 5.616686e-01	 1.586291e+01
 1.226949e+00	 5.763051e-01	 1.575437e+01
 1.219992e+00	 5.908903e-01	 1.564218e+01
 1.259738e+00	 5.203143e-01	 1.608500e+01
 1.253502e+00	 5.351643e-01	 1.600098e+01
 1.247076e+00	 5.499733e-01	 1.590759e+01
 1.240459e+00	 5.647378e-01	 1.580753e+01
 1.233653e+00	 5.794543e-01	 1.570310e+01
 1.226658e+00	 5.941192e-01	 1.559621e+01
 1.266585e+00	 5.231421e-01	 1.602082e+01
 1.260314e+00	 5.380728e-01	 1.593959e+01
 1.253853e+00	 5.529623e-01	 1.584892e+01
 1.247201e+00	 5.678070e-01	 1.575198e+01
 1.240358e+00	 5.826035e-01	 1.565159e+01
 1.233325e+00	 5.973481e-01	 1.555014e+01
 1.199992e+00	 5.812035e-01	 1.578466e+01
 1.192964e+00	 5.954957e-01	 1.565845e+01
 1.185751e+00	 6.097304e-01	 1.553469e+01
 1.178355e+00	 6.239043e-01	 1.541191e+01
 1.170776e+00	 6.380139e-01	 1.528776e+01
 1.163014e+00	 6.520556e-01	 1.515896e+01
 1.206658e+00	 5.844324e-01	 1.573588e+01
 1.199591e+00	 5.988040e-01	 1.561332e+01
 1.192339e+00	 6.131178e-01	 1.549310e+01
 1.184902e+00	 6.273705e-01	 1.537387e+01
 1.177280e+00	 6.415584e-01	 1.525333e+01
 1.169475e+00	 6.556781e-01	 1.512818e+01
 1.213325e+00	 5.876614e-01	 1.568856e+01
 1.206219e+00	 6.021123e-01	 1.557044e+01
 1.198926e+00	 6.165052e-01	 1.545405e+01
 1.191448e+00	 6.308366e-01	 1.533805e+01
 1.183784e+00	 6.451029e-01	 1.522015e+01
 1.175936e+00	 6.593006e-01	 1.509695e+01
 1.219992e+00	 5.908903e-01	 1.564218e+01
 1.212847e+00	 6.054206e-01	 1.552910e+01
 1.205514e+00	 6.198926e-01	 1.541674e+01
 1.197995e+00	 6.343027e-01	 1.530373e+01
 1.190289e+00	 6.486474e-01	 1.518765e+01
 1.182397e+00	 6.629232e-01	 1.506498e+01
 1.226658e+00	 5.941192e-01	 1.559621e+01
 1.219474e+00	 6.087289e-01	 1.548858e+01
 1.212102e+00	 6.232800e-01	 1.538040e+01
 1.204541e+00	 6.377689e-01	 1.527016e+01
 1.196793e+00	 6.521919e-01	 1.515528e+01
 1.188859e+00	 6.665457e-01	 1.503199e+01
 1.233325e+00	 5.973481e-01	 1.555014e+01
 1.226102e+00	 6.120372e-01	 1.544819e+01
 1.218689e+00	 6.266674e-01	 1.534427e+01
 1.211087e+00	 6.412350e-01	 1.523664e+01
 1.203297e+00	 6.557365e-01	 1.512247e+01
 1.195320e+00	 6.701682e-01	 1.499772e+01
 1.163014e+00	 6.520556e-01	 1.515896e+01
 1.155070e+00	 6.660260e-01	 1.502710e+01
 1.146946e+00	 6.799217e-01	 1.489081e+01
 1.138641e+00	 6.937392e-01	 1.474053e+01
 1.130158e+00	 7.074751e-01	 1.456523e+01
 1.121497e+00	 7.211259e-01	 1.435229e+01
 1.169475e+00	 6.556781e-01	 1.512818e+01
 1.161487e+00	 6.697261e-01	 1.499965e+01
 1.153318e+00	 6.836990e-01	 1.486635e+01
 1.144967e+00	 6.975933e-01	 1.471930e+01
 1.136437e+00	 7.114055e-01	 1.454817e+01
 1.127727e+00	 7.251322e-01	 1.434118e+01
 1.175936e+00	 6.593006e-01	 1.509695e+01
 1.167904e+00	 6.734263e-01	 1.497021e+01
 1.159689e+00	 6.874764e-01	 1.483961e+01
 1.151293e+00	 7.014474e-01	 1.469690e+01
 1.142715e+00	 7.153359e-01	 1.453262e+01
 1.133958e+00	 7.291384e-01	 1.433595e+01
 1.182397e+00	 6.629232e-01	 1.506498e+01
 1.174321e+00	 6.771264e-01	 1.493877e+01
 1.166061e+00	 6.912537e-01	 1.481068e+01
 1.157619e+00	 7.053015e-01	 1.467338e+01
 1.148994e+00	 7.192663e-01	 1.451838e+01
 1.140188e+00	 7.331447e-01	 1.433597e+01
 1.188859e+00	 6.665457e-01	 1.503199e+01
 1.180738e+00	 6.808266e-01	 1.490532e+01
 1.172433e+00	 6.950311e-01	 1.477966e+01
 1.163944e+00	 7.091556e-01	 1.464875e+01
 1.155272e+00	 7.231967e-01	 1.450523e+01
 1.146419e+00	 7.371509e-01	 1.434064e+01
 1.195320e+00	 6.701682e-01	 1.499772e+01
 1.187155e+00	 6.845267e-01	 1.486983e+01
 1.178805e+00	 6.988084e-01	 1.474662e+01
 1.170270e+00	 7.130097e-01	 1.462302e+01
 1.161551e+00	 7.271271e-01	 1.449296e+01
 1.152650e+00	 7.411572e-01	 1.434926e+01
 1.121497e+00	 7.211259e-01	 1.435229e+01
 1.112659e+00	 7.346883e-01	 1.417389e+01
 1.103647e+00	 7.481590e-01	 1.408041e+01
 1.094460e+00	 7.615344e-01	 1.395701e+01
 1.085101e+00	 7.748114e-01	 1.379505e+01
 1.075572e+00	 7.879867e-01	 1.360220e+01
 1.127727e+00	 7.251322e-01	 1.434118e+01
 1.118841e+00	 7.387699e-01	 1.417461e+01
 1.109778e+00	 7.523154e-01	 1.407823e+01
 1.100541e+00	 7.657652e-01	 1.395186e+01
 1.091130e+00	 7.791159e-01	 1.379155e+01
 1.081547e+00	 7.923644e-01	 1.360410e+01
 1.133958e+00	 7.291384e-01	 1.433595e+01
 1.125022e+00	 7.428515e-01	 1.418453e+01
 1.115909e+00	 7.564718e-01	 1.407226e+01
 1.106621e+00	 7.699959e-01	 1.394417e+01
 1.097158e+00	 7.834205e-01	 1.378819e+01
 1.087523e+00	 7.967421e-01	 1.360742e+01
 1.140188e+00	 7.331447e-01	 1.433597e+01
 1.131204e+00	 7.469331e-01	 1.419300e+01
 1.122041e+00	 7.606283e-01	 1.406660e+01
 1.112701e+00	 7.742267e-01	 1.393241e+01
 1.103186e+00	 7.877250e-01	 1.378320e+01
 1.093498e+00	 8.011198e-01	 1.361054e+01
 1.146419e+00	 7.371509e-01	 1.434064e+01
 1.137385e+00	 7.510147e-01	 1.419747e+01
 1.128172e+00	 7.647847e-01	 1.406009e+01
 1.118782e+00	 7.784574e-01	 1.392021e+01
 1.109215e+00	 7.920295e-01	 1.377485e+01
 1.099473e+00	 8.054975e-01	 1.361189e+01
 1.152650e+00	 7.411572e-01	 1.434926e+01
 1.143567e+00	 7.550963e-01	 1.419691e+01
 1.134304e+00	 7.689412e-01	 1.405150e+01
 1.124862e+00	 7.826882e-01	 1.390827e+01
 1.115243e+00	 7.963340e-01	 1.376309e+01
 1.105449e+00	 8.098752e-01	 1.360992e+01
 1.075572e+00	 7.879867e-01	 1.360220e+01
 1.065873e+00	 8.010569e-01	 1.339816e+01
 1.056007e+00	 8.140189e-01	 1.319753e+01
 1.045975e+00	 8.268694e-01	 1.300320e+01
 1.035780e+00	 8.396054e-01	 1.281965e+01
 1.025423e+00	 8.522237e-01	 1.265286e+01
 1.081547e+00	 7.923644e-01	 1.360410e+01
 1.071795e+00	 8.055072e-01	 1.340663e+01
 1.061874e+00	 8.185412e-01	 1.321160e+01
 1.051786e+00	 8.314631e-01	 1.302173e+01
 1.041535e+00	 8.442699e-01	 1.284136e+01
 1.031120e+00	 8.569582e-01	 1.267643e+01
 1.087523e+00	 7.967421e-01	 1.360742e+01
 1.077716e+00	 8.099575e-01	 1.341669e+01
 1.067741e+00	 8.230635e-01	 1.322694e+01
 1.057597e+00	 8.360569e-01	 1.304093e+01
 1.047289e+00	 8.489343e-01	 1.286312e+01
 1.036817e+00	 8.616928e-01	 1.269961e+01
 1.093498e+00	 8.011198e-01	 1.361054e+01
 1.083638e+00	 8.144079e-01	 1.342694e+01
 1.073607e+00	 8.275859e-01	 1.324232e+01
 1.063408e+00	 8.406506e-01	 1.305972e+01
 1.053043e+00	 8.535988e-01	 1.288395e+01
 1.042514e+00	 8.664274e-01	 1.272150e+01
 1.099473e+00	 8.054975e-01	 1.361189e+01
 1.089559e+00	 8.188582e-01	 1.343599e+01
 1.079474e+00	 8.321082e-01	 1.325654e+01
 1.069219e+00	 8.452443e-01	 1.307706e+01
 1.058798e+00	 8.582633e-01	 1.290291e+01
 1.048210e+00	 8.711620e-01	 1.274122e+01
 1.105449e+00	 8.098752e-01	 1.360992e+01
 1.095481e+00	 8.233085e-01	 1.344252e+01
 1.085341e+00	 8.366305e-01	 1.326844e+01
 1.075030e+00	 8.498380e-01	 1.309192e+01
 1.064552e+00	 8.629278e-01	 1.291910e+01
 1.053907e+00	 8.758965e-01	 1.275795e+01
 1.025423e+00	 8.522237e-01	 1.265286e+01
 1.014906e+00	 8.647212e-01	 1.247718e+01
 1.004232e+00	 8.770950e-01	 1.227238e+01
 9.934025e-01	 8.893420e-01	 1.205470e+01
 9.824198e-01	 9.014595e-01	 1.184165e+01
 9.712863e-01	 9.134444e-01	 1.165186e+01
 1.031120e+00	 8.569582e-01	 1.267643e+01
 1.020545e+00	 8.695252e-01	 1.250202e+01
 1.009811e+00	 8.819677e-01	 1.229878e+01
 9.989214e-01	 8.942828e-01	 1.208320e+01
 9.878776e-01	 9.064676e-01	 1.187311e+01
 9.766823e-01	 9.185191e-01	 1.168749e+01
 1.036817e+00	 8.616928e-01	 1.269961e+01
 1.026183e+00	 8.743292e-01	 1.252645e+01
 1.015390e+00	 8.868405e-01	 1.232510e+01
 1.004440e+00	 8.992236e-01	 1.211208e+01
 9.933355e-01	 9.114757e-01	 1.190533e+01
 9.820783e-01	 9.235938e-01	 1.172399e+01
 1.042514e+00	 8.664274e-01	 1.272150e+01
 1.031822e+00	 8.791332e-01	 1.254959e+01
 1.020969e+00	 8.917132e-01	 1.235041e+01
 1.009959e+00	 9.041644e-01	 1.214034e+01
 9.987934e-01	 9.164838e-01	 1.193720e+01
 9.874744e-01	 9.286685e-01	 1.176008e+01
 1.048210e+00	 8.711620e-01	 1.274122e+01
 1.037460e+00	 8.839372e-01	 1.257059e+01
 1.026548e+00	 8.965860e-01	 1.237386e+01
 1.015478e+00	 9.091052e-01	 1.216704e+01
 1.004251e+00	 9.214919e-01	 1.196765e+01
 9.928704e-01	 9.337432e-01	 1.179454e+01
 1.053907e+00	 8.758965e-01	 1.275795e+01
 1.043098e+00	 8.887412e-01	 1.258863e+01
 1.032127e+00	 9.014587e-01	 1.239458e+01
 1.020997e+00	 9.140460e-01	 1.219125e+01
 1.009709e+00	 9.265000e-01	 1.199565e+01
 9.982665e-01	 9.388179e-01	 1.182618e+01
 9.712863e-01	 9.134444e-01	 1.165186e+01
 9.600045e-01	 9.252941e-01	 1.146203e+01
 9.485768e-01	 9.370058e-01	 1.124582e+01
 9.370058e-01	 9.485768e-01	 1.101819e+01
 9.252941e-01	 9.600045e-01	 1.079424e+01
 9.134444e-01	 9.712863e-01	 1.058892e+01
 9.766823e-01	 9.185191e-01	 1.168749e+01
 9.653378e-01	 9.304346e-01	 1.150188e+01
 9.538467e-01	 9.422114e-01	 1.128871e+01
 9.422114e-01	 9.538467e-01	 1.106323e+01
 9.304346e-01	 9.653378e-01	 1.084085e+01
 9.185191e-01	 9.766823e-01	 1.063687e+01
 9.820783e-01	 9.235938e-01	 1.172399e+01
 9.706712e-01	 9.355752e-01	 1.154224e+01
 9.591165e-01	 9.474170e-01	 1.133140e+01
 9.474170e-01	 9.591165e-01	 1.110732e+01
 9.355752e-01	 9.706712e-01	 1.088602e+01
 9.235938e-01	 9.820783e-01	 1.068342e+01
 9.874744e-01	 9.286685e-01	 1.176008e+01
 9.760045e-01	 9.407157e-01	 1.158171e+01
 9.643864e-01	 9.526226e-01	 1.137247e+01
 9.526226e-01	 9.643864e-01	 1.114912e+01
 9.407157e-01	 9.760045e-01	 1.092857e+01
 9.286685e-01	 9.874744e-01	 1.072769e+01
 9.928704e-01	 9.337432e-01	 1.179454e+01
 9.813379e-01	 9.458562e-01	 1.161892e+01
 9.696563e-01	 9.578282e-01	 1.141056e+01
 9.578282e-01	 9.696563e-01	 1.118733e+01
 9.458562e-01	 9.813379e-01	 1.096738e+01
 9.337432e-01	 9.928704e-01	 1.076881e+01
 9.982665e-01	 9.388179e-01	 1.182618e+01
 9.866712e-01	 9.509967e-01	 1.165258e+01
 9.749261e-01	 9.630337e-01	 1.144431e+01
 9.630337e-01	 9.749261e-01	 1.122070e+01
 9.509967e-01	 9.866712e-01	 1.100136e+01
 9.388179e-01	 9.982665e-01	 1.080597e+01
 9.134444e-01	 9.712863e-01	 1.058892e+01
 9.014595e-01	 9.824198e-01	 1.038088e+01
 8.893420e-01	 9.934025e-01	 1.015026e+01
 8.770950e-01	 1.004232e+00	 9.913556e+00
 8.647212e-01	 1.014906e+00	 9.686401e+00
 8.522237e-01	 1.025423e+00	 9.483323e+00
 9.185191e-01	 9.766823e-01	 1.063687e+01
 9.064676e-01	 9.878776e-01	 1.043017e+01
 8.942828e-01	 9.989214e-01	 1.020102e+01
 8.819677e-01	 1.009811e+00	 9.966055e+00
 8.695252e-01	 1.020545e+00	 9.740992e+00
 8.569582e-01	 1.031120e+00	 9.540438e+00
 9.235938e-01	 9.820783e-01	 1.068342e+01
 9.114757e-01	 9.933355e-01	 1.047882e+01
 8.992236e-01	 1.004440e+00	 1.025228e+01
 8.868405e-01	 1.015390e+00	 1.002011e+01
 8.743292e-01	 1.026183e+00	 9.797678e+00
 8.616928e-01	 1.036817e+00	 9.599196e+00
 9.286685e-01	 9.874744e-01	 1.072769e+01
 9.164838e-01	 9.987934e-01	 1.052618e+01
 9.041644e-01	 1.009959e+00	 1.030339e+01
 8.917132e-01	 1.020969e+00	 1.007489e+01
 8.791332e-01	 1.031822e+00	 9.855268e+00
 8.664274e-01	 1.042514e+00	 9.657866e+00
 9.337432e-01	 9.928704e-01	 1.076881e+01
 9.214919e-01	 1.004251e+00	 1.057159e+01
 9.091052e-01	 1.015478e+00	 1.035370e+01
 8.965860e-01	 1.026548e+00	 1.012959e+01
 8.839372e-01	 1.037460e+00	 9.912587e+00
 8.711620e-01	 1.048210e+00	 9.714747e+00
 9.388179e-01	 9.982665e-01	 1.080597e+01
 9.265000e-01	 1.009709e+00	 1.061441e+01
 9.140460e-01	 1.020997e+00	 1.040260e+01
 9.014587e-01	 1.032127e+00	 1.018339e+01
 8.887412e-01	 1.043098e+00	 9.968483e+00
 8.758965e-01	 1.053907e+00	 9.768162e+00
 8.522237e-01	 1.025423e+00	 9.483323e+00
 8.396054e-01	 1.035780e+00	 9.284283e+00
 8.268694e-01	 1.045975e+00	 9.064714e+00
 8.140189e-01	 1.056007e+00	 8.830024e+00
 8.010569e-01	 1.065873e+00	 8.583629e+00
 7.879867e-01	 1.075572e+00	 8.326805e+00
 8.569582e-01	 1.031120e+00	 9.540438e+00
 8.442699e-01	 1.041535e+00	 9.343380e+00
 8.314631e-01	 1.051786e+00	 9.124507e+00
 8.185412e-01	 1.061874e+00	 8.889572e+00
 8.055072e-01	 1.071795e+00	 8.642277e+00
 7.923644e-01	 1.081547e+00	 8.384120e+00
 8.616928e-01	 1.036817e+00	 9.599196e+00
 8.489343e-01	 1.047289e+00	 9.402541e+00
 8.360569e-01	 1.057597e+00	 9.182480e+00
 8.230635e-01	 1.067741e+00	 8.946100e+00
 8.099575e-01	 1.077716e+00	 8.698411e+00
 7.967421e-01	 1.087523e+00	 8.442186e+00
 8.664274e-01	 1.042514e+00	 9.657866e+00
 8.535988e-01	 1.053043e+00	 9.459606e+00
 8.406506e-01	 1.063408e+00	 9.236421e+00
 8.275859e-01	 1.073607e+00	 8.997705e+00
 8.144079e-01	 1.083638e+00	 8.750784e+00
 8.011198e-01	 1.093498e+00	 8.500743e+00
 8.711620e-01	 1.048210e+00	 9.714747e+00
 8.582633e-01	 1.058798e+00	 9.512447e+00
 8.452443e-01	 1.069219e+00	 9.284148e+00
 8.321082e-01	 1.079474e+00	 9.042505e+00
 8.188582e-01	 1.089559e+00	 8.798152e+00
 8.054975e-01	 1.099473e+00	 8.559508e+00
 8.758965e-01	 1.053907e+00	 9.768162e+00
 8.629278e-01	 1.064552e+00	 9.558970e+00
 8.498380e-01	 1.075030e+00	 9.323510e+00
 8.366305e-01	 1.085341e+00	 9.078639e+00
 8.233085e-01	 1.095481e+00	 8.839272e+00
 8.098752e-01	 1.105449e+00	 8.618174e+00
 7.879867e-01	 1.075572e+00	 8.326805e+00
 7.748114e-01	 1.085101e+00	 8.077496e+00
 7.615344e-01	 1.094460e+00	 7.856674e+00
 7.481590e-01	 1.103647e+00	 7.666703e+00
 7.346883e-01	 1.112659e+00	 7.504351e+00
 7.211259e-01	 1.121497e+00	 7.276707e+00
 7.923644e-01	 1.081547e+00	 8.384120e+00
 7.791159e-01	 1.091130e+00	 8.135354e+00
 7.657652e-01	 1.100541e+00	 7.921970e+00
 7.523154e-01	 1.109778e+00	 7.750606e+00
 7.387699e-01	 1.118841e+00	 7.581348e+00
 7.251322e-01	 1.127727e+00	 7.326056e+00
 7.967421e-01	 1.087523e+00	 8.442186e+00
 7.834205e-01	 1.097158e+00	 8.201235e+00
 7.699959e-01	 1.106621e+00	 8.006081e+00
 7.564718e-01	 1.115909e+00	 7.850161e+00
 7.428515e-01	 1.125022e+00	 7.647549e+00
 7.291384e-01	 1.133958e+00	 7.374442e+00
 8.011198e-01	 1.093498e+00	 8.500743e+00
 7.877250e-01	 1.103186e+00	 8.275740e+00
 7.742267e-01	 1.112701e+00	 8.108294e+00
 7.606283e-01	 1.122041e+00	 7.932529e+00
 7.469331e-01	 1.131204e+00	 7.706254e+00
 7.331447e-01	 1.140188e+00	 7.423099e+00
 8.054975e-01	 1.099473e+00	 8.559508e+00
 7.920295e-01	 1.109215e+00	 8.359425e+00
 7.784574e-01	 1.118782e+00	 8.197160e+00
 7.647847e-01	 1.128172e+00	 7.999571e+00
 7.510147e-01	 1.137385e+00	 7.759970e+00
 7.371509e-01	 1.146419e+00	 7.473287e+00
 8.098752e-01	 1.105449e+00	 8.618174e+00
 7.963340e-01	 1.115243e+00	 8.442872e+00
 7.826882e-01	 1.124862e+00	 8.262828e+00
 7.689412e-01	 1.134304e+00	 8.054388e+00
 7.550963e-01	 1.143567e+00	 7.811071e+00
 7.411572e-01	 1.152650e+00	 7.526294e+00
 7.211259e-01	 1.121497e+00	 7.276707e+00
 7.074751e-01	 1.130158e+00	 7.008542e+00
 6.937392e-01	 1.138641e+00	 6.768621e+00
 6.799217e-01	 1.146946e+00	 6.544963e+00
 6.660260e-01	 1.155070e+00	 6.326856e+00
 6.520556e-01	 1.163014e+00	 6.104881e+00
 7.251322e-01	 1.127727e+00	 7.326056e+00
 7.114055e-01	 1.136437e+00	 7.048820e+00
 6.975933e-01	 1.144967e+00	 6.814602e+00
 6.836990e-01	 1.153318e+00	 6.604991e+00
 6.697261e-01	 1.161487e+00	 6.402705e+00
 6.556781e-01	 1.169475e+00	 6.191627e+00
 7.291384e-01	 1.133958e+00	 7.374442e+00
 7.153359e-01	 1.142715e+00	 7.093887e+00
 7.014474e-01	 1.151293e+00	 6.866322e+00
 6.874764e-01	 1.159689e+00	 6.668373e+00
 6.734263e-01	 1.167904e+00	 6.477695e+00
 6.593006e-01	 1.175936e+00	 6.273021e+00
 7.331447e-01	 1.140188e+00	 7.423099e+00
 7.192663e-01	 1.148994e+00	 7.143803e+00
 7.053015e-01	 1.157619e+00	 6.923167e+00
 6.912537e-01	 1.166061e+00	 6.734295e+00
 6.771264e-01	 1.174321e+00	 6.551260e+00
 6.629232e-01	 1.182397e+00	 6.349169e+00
 7.371509e-01	 1.146419e+00	 7.473287e+00
 7.231967e-01	 1.155272e+00	 7.198677e+00
 7.091556e-01	 1.163944e+00	 6.984587e+00
 6.950311e-01	 1.172433e+00	 6.802010e+00
 6.808266e-01	 1.180738e+00	 6.622897e+00
 6.665457e-01	 1.188859e+00	 6.420227e+00
 7.411572e-01	 1.152650e+00	 7.526294e+00
 7.271271e-01	 1.161551e+00	 7.258668e+00
 7.130097e-01	 1.170270e+00	 7.050093e+00
 6.988084e-01	 1.178805e+00	 6.870838e+00
 6.845267e-01	 1.187155e+00	 6.692167e+00
 6.701682e-01	 1.195320e+00	 6.486398e+00
 6.520556e-01	 1.163014e+00	 6.104881e+00
 6.380139e-01	 1.170776e+00	 5.887950e+00
 6.239043e-01	 1.178355e+00	 5.684308e+00
 6.097304e-01	 1.185751e+00	 5.485498e+00
 5.954957e-01	 1.192964e+00	 5.284374e+00
 5.812035e-01	 1.199992e+00	 5.075081e+00
 6.556781e-01	 1.169475e+00	 6.191627e+00
 6.415584e-01	 1.177280e+00	 5.976358e+00
 6.273705e-01	 1.184902e+00	 5.767441e+00
 6.131178e-01	 1.192339e+00	 5.559655e+00
 5.988040e-01	 1.199591e+00	 5.349207e+00
 5.844324e-01	 1.206658e+00	 5.133704e+00
 6.593006e-01	 1.175936e+00	 6.273021e+00
 6.451029e-01	 1.183784e+00	 6.057006e+00
 6.308366e-01	 1.191448e+00	 5.843191e+00
 6.165052e-01	 1.198926e+00	 5.628642e+00
 6.021123e-01	 1.206219e+00	 5.411944e+00
 5.876614e-01	 1.213325e+00	 5.193170e+00
 6.629232e-01	 1.182397e+00	 6.349169e+00
 6.486474e-01	 1.190289e+00	 6.130709e+00
 6.343027e-01	 1.197995e+00	 5.912755e+00
 6.198926e-01	 1.205514e+00	 5.693724e+00
 6.054206e-01	 1.212847e+00	 5.473627e+00
 5.908903e-01	 1.219992e+00	 5.254024e+00
 6.665457e-01	 1.188859e+00	 6.420227e+00
 6.521919e-01	 1.196793e+00	 6.198314e+00
 6.377689e-01	 1.204541e+00	 5.977351e+00
 6.232800e-01	 1.212102e+00	 5.756190e+00
 6.087289e-01	 1.219474e+00	 5.535324e+00
 5.941192e-01	 1.226658e+00	 5.316842e+00
 6.701682e-01	 1.195320e+00	 6.486398e+00
 6.557365e-01	 1.203297e+00	 6.260699e+00
 6.412350e-01	 1.211087e+00	 6.038219e+00
 6.266674e-01	 1.218689e+00	 5.817345e+00
 6.120372e-01	 1.226102e+00	 5.598126e+00
 5.973481e-01	 1.233325e+00	 5.382235e+00
 5.812035e-01	 1.199992e+00	 5.075081e+00
 5.668575e-01	 1.206835e+00	 4.863365e+00
 5.524609e-01	 1.213493e+00	 4.656944e+00
 5.380174e-01	 1.219965e+00	 4.454704e+00
 5.235303e-01	 1.226252e+00	 4.256595e+00
 5.090031e-01	 1.232353e+00	 4.063559e+00
 5.844324e-01	 1.206658e+00	 5.133704e+00
 5.700067e-01	 1.213540e+00	 4.921068e+00
 5.555301e-01	 1.220234e+00	 4.717639e+00
 5.410064e-01	 1.226743e+00	 4.520504e+00
 5.264388e-01	 1.233064e+00	 4.327806e+00
 5.118309e-01	 1.239199e+00	 4.138676e+00
 5.876614e-01	 1.213325e+00	 5.193170e+00
 5.731559e-01	 1.220244e+00	 4.981088e+00
 5.585994e-01	 1.226976e+00	 4.780407e+00
 5.439953e-01	 1.233520e+00	 4.587031e+00
 5.293473e-01	 1.239877e+00	 4.397929e+00
 5.146587e-01	 1.246046e+00	 4.211071e+00
 5.908903e-01	 1.219992e+00	 5.254024e+00
 5.763051e-01	 1.226949e+00	 5.043443e+00
 5.616686e-01	 1.233718e+00	 4.844935e+00
 5.469843e-01	 1.240298e+00	 4.653832e+00
 5.322558e-01	 1.246689e+00	 4.466551e+00
 5.174865e-01	 1.252892e+00	 4.280535e+00
 5.941192e-01	 1.226658e+00	 5.316842e+00
 5.794543e-01	 1.233653e+00	 5.108190e+00
 5.647378e-01	 1.240459e+00	 4.910959e+00
 5.499733e-01	 1.247076e+00	 4.720504e+00
 5.351643e-01	 1.253502e+00	 4.533304e+00
 5.203143e-01	 1.259738e+00	 4.346903e+00
 5.973481e-01	 1.233325e+00	 5.382235e+00
 5.826035e-01	 1.240358e+00	 5.175431e+00
 5.678070e-01	 1.247201e+00	 4.978262e+00
 5.529623e-01	 1.253853e+00	 4.786692e+00
 5.380728e-01	 1.260314e+00	 4.597868e+00
 5.231421e-01	 1.266585e+00	 4.410049e+00
 5.090031e-01	 1.232353e+00	 4.063559e+00
 4.944392e-01	 1.238268e+00	 3.881242e+00
 4.798421e-01	 1.243997e+00	 3.710333e+00
 4.652151e-01	 1.249541e+00	 3.545594e+00
 4.505616e-01	 1.254899e+00	 3.382457e+00
 4.358850e-01	 1.260072e+00	 3.216947e+00
 5.118309e-01	 1.239199e+00	 4.138676e+00
 4.971861e-01	 1.245147e+00	 3.957084e+00
 4.825079e-01	 1.250908e+00	 3.783905e+00
 4.677997e-01	 1.256483e+00	 3.614914e+00
 4.530647e-01	 1.261871e+00	 3.446595e+00
 4.383066e-01	 1.267073e+00	 3.276055e+00
 5.146587e-01	 1.246046e+00	 4.211071e+00
 4.999330e-01	 1.252027e+00	 4.029519e+00
 4.851737e-01	 1.257820e+00	 3.854446e+00
 4.703842e-01	 1.263425e+00	 3.682289e+00
 4.555679e-01	 1.268843e+00	 3.510225e+00
 4.407281e-01	 1.274073e+00	 3.336079e+00
 5.174865e-01	 1.252892e+00	 4.280535e+00
 5.026799e-01	 1.258906e+00	 4.098561e+00
 4.878395e-01	 1.264731e+00	 3.922057e+00
 4.729687e-01	 1.270367e+00	 3.747782e+00
 4.580710e-01	 1.275814e+00	 3.573254e+00
 4.431497e-01	 1.281073e+00	 3.396655e+00
 5.203143e-01	 1.259738e+00	 4.346903e+00
 5.054268e-01	 1.265785e+00	 4.164257e+00
 4.905053e-01	 1.271642e+00	 3.986868e+00
 4.755532e-01	 1.277309e+00	 3.811483e+00
 4.605741e-01	 1.282786e+00	 3.635614e+00
 4.455713e-01	 1.288074e+00	 3.457452e+00
 5.231421e-01	 1.266585e+00	 4.410049e+00
 5.081737e-01	 1.272664e+00	 4.226685e+00
 4.931711e-01	 1.278553e+00	 4.049038e+00
 4.781378e-01	 1.284250e+00	 3.873508e+00
 4.630772e-01	 1.289758e+00	 3.697270e+00
 4.479929e-01	 1.295074e+00	 3.518171e+00
 4.358850e-01	 1.260072e+00	 3.216947e+00
 4.211885e-01	 1.265060e+00	 3.038218e+00
 4.064755e-01	 1.269864e+00	 2.849975e+00
 3.917493e-01	 1.274484e+00	 2.670702e+00
 3.770130e-01	 1.278921e+00	 2.519086e+00
 3.622699e-01	 1.283175e+00	 2.412900e+00
 4.383066e-01	 1.267073e+00	 3.276055e+00
 4.235284e-01	 1.272089e+00	 3.094342e+00
 4.087337e-01	 1.276919e+00	 2.905884e+00
 3.939256e-01	 1.281565e+00	 2.728508e+00
 3.791075e-01	 1.286026e+00	 2.580227e+00
 3.642825e-01	 1.290304e+00	 2.478415e+00
 4.407281e-01	 1.274073e+00	 3.336079e+00
 4.258684e-01	 1.279117e+00	 3.152317e+00
 4.109919e-01	 1.283974e+00	 2.963951e+00
 3.961020e-01	 1.288645e+00	 2.788277e+00
 3.812020e-01	 1.293131e+00	 2.642774e+00
 3.662951e-01	 1.297433e+00	 2.544598e+00
 4.431497e-01	 1.281073e+00	 3.396655e+00
 4.282083e-01	 1.286145e+00	 3.211496e+00
 4.132501e-01	 1.291029e+00	 3.023321e+00
 3.982784e-01	 1.295726e+00	 2.849022e+00
 3.832965e-01	 1.300236e+00	 2.705680e+00
 3.683077e-01	 1.304561e+00	 2.610315e+00
 4.455713e-01	 1.288074e+00	 3.457452e+00
 4.305483e-01	 1.293173e+00	 3.271270e+00
 4.155083e-01	 1.298084e+00	 3.083177e+00
 4.004548e-01	 1.302806e+00	 2.909793e+00
 3.853910e-01	 1.307341e+00	 2.767933e+00
 3.703203e-01	 1.311690e+00	 2.674469e+00
 4.479929e-01	 1.295074e+00	 3.518171e+00
 4.328882e-01	 1.300201e+00	 3.331061e+00
 4.177665e-01	 1.305138e+00	 3.142738e+00
 4.026312e-01	 1.309887e+00	 2.969677e+00
 3.874855e-01	 1.314447e+00	 2.828557e+00
 3.723329e-01	 1.318819e+00	 2.736127e+00
 3.622699e-01	 1.283175e+00	 2.412900e+00
 3.475231e-01	 1.287247e+00	 2.313105e+00
 3.327758e-01	 1.291138e+00	 2.181738e+00
 3.180311e-01	 1.294849e+00	 2.035088e+00
 3.032921e-01	 1.298380e+00	 1.888559e+00
 2.885617e-01	 1.301733e+00	 1.756604e+00
 3.642825e-01	 1.290304e+00	 2.478415e+00
 3.494538e-01	 1.294399e+00	 2.379906e+00
 3.346246e-01	 1.298311e+00	 2.245874e+00
 3.197980e-01	 1.302043e+00	 2.094683e+00
 3.049770e-01	 1.305594e+00	 1.943716e+00
 2.901648e-01	 1.308965e+00	 1.809307e+00
 3.662951e-01	 1.297433e+00	 2.544598e+00
 3.513845e-01	 1.301550e+00	 2.447309e+00
 3.364733e-01	 1.305484e+00	 2.310817e+00
 3.215648e-01	 1.309236e+00	 2.155476e+00
 3.066620e-01	 1.312807e+00	 2.000549e+00
 2.917679e-01	 1.316197e+00	 1.864143e+00
 3.683077e-01	 1.304561e+00	 2.610315e+00
 3.533152e-01	 1.308701e+00	 2.514202e+00
 3.383221e-01	 1.312657e+00	 2.375451e+00
 3.233317e-01	 1.316430e+00	 2.216313e+00
 3.083470e-01	 1.320020e+00	 2.057836e+00
 2.933710e-01	 1.323429e+00	 1.919796e+00
 3.703203e-01	 1.311690e+00	 2.674469e+00
 3.552458e-01	 1.315853e+00	 2.579505e+00
 3.401709e-01	 1.319830e+00	 2.438681e+00
 3.250985e-01	 1.323623e+00	 2.276057e+00
 3.100319e-01	 1.327233e+00	 2.114369e+00
 2.949742e-01	 1.330661e+00	 1.974959e+00
 3.723329e-01	 1.318819e+00	 2.736127e+00
 3.571765e-01	 1.323004e+00	 2.642165e+00
 3.420196e-01	 1.327003e+00	 2.499433e+00
 3.268653e-01	 1.330817e+00	 2.333589e+00
 3.117169e-01	 1.334447e+00	 2.168957e+00
 2.965773e-01	 1.337893e+00	 2.028340e+00
 2.885617e-01	 1.301733e+00	 1.756604e+00
 2.738429e-01	 1.304909e+00	 1.642215e+00
 2.591387e-01	 1.307909e+00	 1.538813e+00
 2.444519e-01	 1.310733e+00	 1.445026e+00
 2.297854e-01	 1.313384e+00	 1.358577e+00
 2.151419e-01	 1.315862e+00	 1.276368e+00
 2.901648e-01	 1.308965e+00	 1.809307e+00
 2.753642e-01	 1.312159e+00	 1.694813e+00
 2.605783e-01	 1.315175e+00	 1.592427e+00
 2.458099e-01	 1.318015e+00	 1.500141e+00
 2.310620e-01	 1.320680e+00	 1.414967e+00
 2.163372e-01	 1.323172e+00	 1.333031e+00
 2.917679e-01	 1.316197e+00	 1.864143e+00
 2.768856e-01	 1.319408e+00	 1.749773e+00
 2.620180e-01	 1.322441e+00	 1.648338e+00
 2.471680e-01	 1.325297e+00	 1.557293e+00
 2.323385e-01	 1.327977e+00	 1.473041e+00
 2.175324e-01	 1.330482e+00	 1.391034e+00
 2.933710e-01	 1.323429e+00	 1.919796e+00
 2.784069e-01	 1.326658e+00	 1.805697e+00
 2.634577e-01	 1.329707e+00	 1.705122e+00
 2.485261e-01	 1.332579e+00	 1.615089e+00
 2.336151e-01	 1.335273e+00	 1.531489e+00
 2.187276e-01	 1.337793e+00	 1.449191e+00
 2.949742e-01	 1.330661e+00	 1.974959e+00
 2.799283e-01	 1.333907e+00	 1.861198e+00
 2.648973e-01	 1.336973e+00	 1.761367e+00
 2.498841e-01	 1.339860e+00	 1.672145e+00
 2.348917e-01	 1.342570e+00	 1.589002e+00
 2.199229e-01	 1.345103e+00	 1.506320e+00
 2.965773e-01	 1.337893e+00	 2.028340e+00
 2.814496e-01	 1.341157e+00	 1.914898e+00
 2.663370e-01	 1.344239e+00	 1.815670e+00
 2.512422e-01	 1.347142e+00	 1.727084e+00
 2.361683e-01	 1.349866e+00	 1.644279e+00
 2.211181e-01	 1.352413e+00	 1.561238e+00
 2.151419e-01	 1.315862e+00	 1.276368e+00
 2.005243e-01	 1.318168e+00	 1.194505e+00
 1.859351e-01	 1.320305e+00	 1.113715e+00
 1.713771e-01	 1.322274e+00	 1.036875e+00
 1.568529e-01	 1.324075e+00	 9.664301e-01
 1.423649e-01	 1.325711e+00	 9.045089e-01
 2.163372e-01	 1.323172e+00	 1.333031e+00
 2.016383e-01	 1.325492e+00	 1.250335e+00
 1.869681e-01	 1.327640e+00	 1.168291e+00
 1.723292e-01	 1.329620e+00	 1.090119e+00
 1.577243e-01	 1.331431e+00	 1.018574e+00
 1.431558e-01	 1.333076e+00	 9.560732e-01
 2.175324e-01	 1.330482e+00	 1.391034e+00
 2.027523e-01	 1.332815e+00	 1.307295e+00
 1.880011e-01	 1.334975e+00	 1.223946e+00
 1.732813e-01	 1.336966e+00	 1.144484e+00
 1.585957e-01	 1.338787e+00	 1.071910e+00
 1.439467e-01	 1.340441e+00	 1.008861e+00
 2.187276e-01	 1.337793e+00	 1.449191e+00
 2.038664e-01	 1.340138e+00	 1.364344e+00
 1.890341e-01	 1.342310e+00	 1.279770e+00
 1.742334e-01	 1.344312e+00	 1.199184e+00
 1.594671e-01	 1.346143e+00	 1.125760e+00
 1.447376e-01	 1.347806e+00	 1.062288e+00
 2.199229e-01	 1.345103e+00	 1.506320e+00
 2.049804e-01	 1.347461e+00	 1.420438e+00
 1.900670e-01	 1.349645e+00	 1.334854e+00
 1.751855e-01	 1.351658e+00	 1.253427e+00
 1.603385e-01	 1.353499e+00	 1.179443e+00
 1.455286e-01	 1.355171e+00	 1.115768e+00
 2.211181e-01	 1.352413e+00	 1.561238e+00
 2.060944e-01	 1.354784e+00	 1.474536e+00
 1.911000e-01	 1.356980e+00	 1.388283e+00
 1.761376e-01	 1.359003e+00	 1.306420e+00
 1.612099e-01	 1.360855e+00	 1.232271e+00
 1.463195e-01	 1.362536e+00	 1.168709e+00
 1.423649e-01	 1.325711e+00	 9.045089e-01
 1.279157e-01	 1.327183e+00	 8.513033e-01
 1.135076e-01	 1.328493e+00	 8.050241e-01
 9.914315e-02	 1.329642e+00	 7.647290e-01
 8.482457e-02	 1.330632e+00	 7.296598e-01
 7.055415e-02	 1.331465e+00	 6.993572e-01
 1.431558e-01	 1.333076e+00	 9.560732e-01
 1.286263e-01	 1.334556e+00	 9.028126e-01
 1.141382e-01	 1.335874e+00	 8.567041e-01
 9.969394e-02	 1.337029e+00	 8.166335e-01
 8.529582e-02	 1.338025e+00	 7.816871e-01
 7.094612e-02	 1.338862e+00	 7.512754e-01
 1.439467e-01	 1.340441e+00	 1.008861e+00
 1.293369e-01	 1.341930e+00	 9.554715e-01
 1.147688e-01	 1.343254e+00	 9.093674e-01
 1.002447e-01	 1.344416e+00	 8.693077e-01
 8.576706e-02	 1.345417e+00	 8.342686e-01
 7.133808e-02	 1.346259e+00	 8.035760e-01
 1.447376e-01	 1.347806e+00	 1.062288e+00
 1.300476e-01	 1.349303e+00	 1.008787e+00
 1.153994e-01	 1.350635e+00	 9.626169e-01
 1.007955e-01	 1.351803e+00	 9.224517e-01
 8.623831e-02	 1.352810e+00	 8.872002e-01
 7.173005e-02	 1.353656e+00	 8.561451e-01
 1.455286e-01	 1.355171e+00	 1.115768e+00
 1.307582e-01	 1.356676e+00	 1.062264e+00
 1.160300e-01	 1.358015e+00	 1.016052e+00
 1.013463e-01	 1.359190e+00	 9.757630e-01
 8.670956e-02	 1.360202e+00	 9.402751e-01
 7.212202e-02	 1.361053e+00	 9.088669e-01
 1.463195e-01	 1.362536e+00	 1.168709e+00
 1.314689e-01	 1.364049e+00	 1.115401e+00
 1.166606e-01	 1.365396e+00	 1.069270e+00
 1.018971e-01	 1.366577e+00	 1.028936e+00
 8.718081e-02	 1.367594e+00	 9.932844e-01
 7.251399e-02	 1.368450e+00	 9.616238e-01
 7.055415e-02	 1.331465e+00	 6.993572e-01
 5.633411e-02	 1.332143e+00	 6.735957e-01
 4.216660e-02	 1.332666e+00	 6.525979e-01
 2.805372e-02	 1.333038e+00	 6.373407e-01
 1.399753e-02	 1.333260e+00	 6.294927e-01
 0.000000e+00	 1.333333e+00	 6.314795e-01
 7.094612e-02	 1.338862e+00	 7.512754e-01
 5.664707e-02	 1.339544e+00	 7.252330e-01
 4.240085e-02	 1.340070e+00	 7.039502e-01
 2.820957e-02	 1.340444e+00	 6.884970e-01
 1.407529e-02	 1.340667e+00	 6.806900e-01
 0.000000e+00	 1.340741e+00	 6.831634e-01
 7.133808e-02	 1.346259e+00	 8.035760e-01
 5.696004e-02	 1.346944e+00	 7.771645e-01
 4.263511e-02	 1.347474e+00	 7.555715e-01
 2.836543e-02	 1.347850e+00	 7.399145e-01
 1.415305e-02	 1.348074e+00	 7.321144e-01
 0.000000e+00	 1.348148e+00	 7.349721e-01
 7.173005e-02	 1.353656e+00	 8.561451e-01
 5.727301e-02	 1.354345e+00	 8.293524e-01
 4.286937e-02	 1.354878e+00	 8.074774e-01
 2.852128e-02	 1.355255e+00	 7.916383e-01
 1.423082e-02	 1.355481e+00	 7.838148e-01
 0.000000e+00	 1.355556e+00	 7.869310e-01
 7.212202e-02	 1.361053e+00	 9.088669e-01
 5.758597e-02	 1.361746e+00	 8.817576e-01
 4.310363e-02	 1.362281e+00	 8.596833e-01
 2.867714e-02	 1.362661e+00	 8.437144e-01
 1.430858e-02	 1.362888e+00	 8.358422e-01
 0.000000e+00	 1.362963e+00	 8.390690e-01
 7.251399e-02	 1.368450e+00	 9.616238e-01
 5.789894e-02	 1.369147e+00	 9.343397e-01
 4.333789e-02	 1.369685e+00	 9.122044e-01
 2.883299e-02	 1.370067e+00	 8.961896e-01
 1.438635e-02	 1.370295e+00	 8.882498e-01
 0.000000e+00	 1.370370e+00	 8.914189e-01
 1.370370e+00	 0.000000e+00	 1.729703e+01
 1.370295e+00	 1.438635e-02	 1.729783e+01
 1.370067e+00	 2.883299e-02	 1.729676e+01
 1.369685e+00	 4.333789e-02	 1.729335e+01
 1.369147e+00	 5.789894e-02	 1.728694e+01
 1.368450e+00	 7.251399e-02	 1.727674e+01
 1.377778e+00	 0.000000e+00	 1.717422e+01
 1.377702e+00	 1.446411e-02	 1.717532e+01
 1.377473e+00	 2.898884e-02	 1.717452e+01
 1.377089e+00	 4.357215e-02	 1.717138e+01
 1.376547e+00	 5.821191e-02	 1.716524e+01
 1.375847e+00	 7.290595e-02	 1.715532e+01
 1.385185e+00	 0.000000e+00	 1.705447e+01
 1.385109e+00	 1.454187e-02	 1.705585e+01
 1.384879e+00	 2.914470e-02	 1.705531e+01
 1.384492e+00	 4.380641e-02	 1.705242e+01
 1.383948e+00	 5.852488e-02	 1.704654e+01
 1.383245e+00	 7.329792e-02	 1.703688e+01
 1.392593e+00	 0.000000e+00	 1.693762e+01
 1.392516e+00	 1.461964e-02	 1.693930e+01
 1.392284e+00	 2.930055e-02	 1.693900e+01
 1.391896e+00	 4.404067e-02	 1.693634e+01
 1.391349e+00	 5.883784e-02	 1.693070e+01
 1.390642e+00	 7.368989e-02	 1.692131e+01
 1.400000e+00	 0.000000e+00	 1.682353e+01
 1.399923e+00	 1.469740e-02	 1.682551e+01
 1.399690e+00	 2.945641e-02	 1.682545e+01
 1.399300e+00	 4.427493e-02	 1.682302e+01
 1.398750e+00	 5.915081e-02	 1.681763e+01
 1.398039e+00	 7.408186e-02	 1.680853e+01
 1.407407e+00	 0.000000e+00	 1.671207e+01
 1.407330e+00	 1.477517e-02	 1.671434e+01
 1.407096e+00	 2.961226e-02	 1.671453e+01
 1.406703e+00	 4.450918e-02	 1.671233e+01
 1.406151e+00	 5.946378e-02	 1.670722e+01
 1.405436e+00	 7.447382e-02	 1.669844e+01
 1.368450e+00	 7.251399e-02	 1.727674e+01
 1.367594e+00	 8.718081e-02	 1.726502e+01
 1.366577e+00	 1.018971e-01	 1.725400e+01
 1.365396e+00	 1.166606e-01	 1.724267e+01
 1.364049e+00	 1.314689e-01	 1.723002e+01
 1.362536e+00	 1.463195e-01	 1.721500e+01
 1.375847e+00	 7.290595e-02	 1.715532e+01
 1.374987e+00	 8.765205e-02	 1.714398e+01
 1.373964e+00	 1.024479e-01	 1.713355e+01
 1.372776e+00	 1.172912e-01	 1.712306e+01
 1.371423e+00	 1.321795e-01	 1.711150e+01
 1.369902e+00	 1.471104e-01	 1.709782e+01
 1.383245e+00	 7.329792e-02	 1.703688e+01
 1.382379e+00	 8.812330e-02	 1.702589e+01
 1.381351e+00	 1.029987e-01	 1.701603e+01
 1.380157e+00	 1.179218e-01	 1.700633e+01
 1.378796e+00	 1.328902e-01	 1.699578e+01
 1.377267e+00	 1.479013e-01	 1.698336e+01
 1.390642e+00	 7.368989e-02	 1.692131e+01
 1.389772e+00	 8.859455e-02	 1.691069e+01
 1.388737e+00	 1.035495e-01	 1.690139e+01
 1.387537e+00	 1.185524e-01	 1.689246e+01
 1.386169e+00	 1.336008e-01	 1.688289e+01
 1.384632e+00	 1.486922e-01	 1.687165e+01
 1.398039e+00	 7.408186e-02	 1.680853e+01
 1.397164e+00	 8.906580e-02	 1.679830e+01
 1.396124e+00	 1.041003e-01	 1.678958e+01
 1.394918e+00	 1.191830e-01	 1.678142e+01
 1.393542e+00	 1.343114e-01	 1.677281e+01
 1.391997e+00	 1.494831e-01	 1.676271e+01
 1.405436e+00	 7.447382e-02	 1.669844e+01
 1.404556e+00	 8.953704e-02	 1.668866e+01
 1.403511e+00	 1.046511e-01	 1.668055e+01
 1.402298e+00	 1.198136e-01	 1.667318e+01
 1.400916e+00	 1.350221e-01	 1.666554e+01
 1.399362e+00	 1.502741e-01	 1.665657e+01
 1.362536e+00	 1.463195e-01	 1.721500e+01
 1.360855e+00	 1.612099e-01	 1.719703e+01
 1.359003e+00	 1.761376e-01	 1.717602e+01
 1.356980e+00	 1.911000e-01	 1.715181e+01
 1.354784e+00	 2.060944e-01	 1.712434e+01
 1.352413e+00	 2.211181e-01	 1.709369e+01
 1.369902e+00	 1.471104e-01	 1.709782e+01
 1.368211e+00	 1.620813e-01	 1.708128e+01
 1.366349e+00	 1.770897e-01	 1.706157e+01
 1.364315e+00	 1.921330e-01	 1.703852e+01
 1.362107e+00	 2.072084e-01	 1.701204e+01
 1.359724e+00	 2.223133e-01	 1.698220e+01
 1.377267e+00	 1.479013e-01	 1.698336e+01
 1.375567e+00	 1.629527e-01	 1.696813e+01
 1.373695e+00	 1.780418e-01	 1.694964e+01
 1.371650e+00	 1.931660e-01	 1.692768e+01
 1.369430e+00	 2.083225e-01	 1.690214e+01
 1.367034e+00	 2.235086e-01	 1.687309e+01
 1.384632e+00	 1.486922e-01	 1.687165e+01
 1.382923e+00	 1.638241e-01	 1.685766e+01
 1.381041e+00	 1.789939e-01	 1.684030e+01
 1.378985e+00	 1.941989e-01	 1.681934e+01
 1.376754e+00	 2.094365e-01	 1.679469e+01
 1.374344e+00	 2.247038e-01	 1.676638e+01
 1.391997e+00	 1.494831e-01	 1.676271e+01
 1.390279e+00	 1.646955e-01	 1.674989e+01
 1.388387e+00	 1.799460e-01	 1.673360e+01
 1.386320e+00	 1.952319e-01	 1.671358e+01
 1.384077e+00	 2.105505e-01	 1.668974e+01
 1.381655e+00	 2.258990e-01	 1.666212e+01
 1.399362e+00	 1.502741e-01	 1.665657e+01
 1.397635e+00	 1.655669e-01	 1.664488e+01
 1.395733e+00	 1.808981e-01	 1.662959e+01
 1.393656e+00	 1.962649e-01	 1.661044e+01
 1.391400e+00	 2.116645e-01	 1.658734e+01
 1.388965e+00	 2.270943e-01	 1.656034e+01
 1.352413e+00	 2.211181e-01	 1.709369e+01
 1.349866e+00	 2.361683e-01	 1.706235e+01
 1.347142e+00	 2.512422e-01	 1.703173e+01
 1.344239e+00	 2.663370e-01	 1.700069e+01
 1.341157e+00	 2.814496e-01	 1.696841e+01
 1.337893e+00	 2.965773e-01	 1.693446e+01
 1.359724e+00	 2.223133e-01	 1.698220e+01
 1.357163e+00	 2.374449e-01	 1.695195e+01
 1.354424e+00	 2.526003e-01	 1.692312e+01
 1.351506e+00	 2.677766e-01	 1.689446e+01
 1.348406e+00	 2.829710e-01	 1.686508e+01
 1.345125e+00	 2.981804e-01	 1.683446e+01
 1.367034e+00	 2.235086e-01	 1.687309e+01
 1.364460e+00	 2.387215e-01	 1.684392e+01
 1.361706e+00	 2.539583e-01	 1.681684e+01
 1.358772e+00	 2.692163e-01	 1.679052e+01
 1.355656e+00	 2.844923e-01	 1.676396e+01
 1.352356e+00	 2.997835e-01	 1.673657e+01
 1.374344e+00	 2.247038e-01	 1.676638e+01
 1.371756e+00	 2.399981e-01	 1.673827e+01
 1.368988e+00	 2.553164e-01	 1.671291e+01
 1.366038e+00	 2.706559e-01	 1.668888e+01
 1.362905e+00	 2.860137e-01	 1.666508e+01
 1.359588e+00	 3.013866e-01	 1.664084e+01
 1.381655e+00	 2.258990e-01	 1.666212e+01
 1.379053e+00	 2.412746e-01	 1.663502e+01
 1.376270e+00	 2.566745e-01	 1.661135e+01
 1.373304e+00	 2.720956e-01	 1.658956e+01
 1.370155e+00	 2.875350e-01	 1.656847e+01
 1.366820e+00	 3.029898e-01	 1.654730e+01
 1.388965e+00	 2.270943e-01	 1.656034e+01
 1.386349e+00	 2.425512e-01	 1.653417e+01
 1.383552e+00	 2.580325e-01	 1.651213e+01
 1.380570e+00	 2.735353e-01	 1.649255e+01
 1.377404e+00	 2.890564e-01	 1.647413e+01
 1.374052e+00	 3.045929e-01	 1.645601e+01
 1.337893e+00	 2.965773e-01	 1.693446e+01
 1.334447e+00	 3.117169e-01	 1.689449e+01
 1.330817e+00	 3.268653e-01	 1.684663e+01
 1.327003e+00	 3.420196e-01	 1.679461e+01
 1.323004e+00	 3.571765e-01	 1.674240e+01
 1.318819e+00	 3.723329e-01	 1.669475e+01
 1.345125e+00	 2.981804e-01	 1.683446e+01
 1.341660e+00	 3.134018e-01	 1.679735e+01
 1.338011e+00	 3.286322e-01	 1.675109e+01
 1.334176e+00	 3.438684e-01	 1.669958e+01
 1.330155e+00	 3.591072e-01	 1.664699e+01
 1.325948e+00	 3.743455e-01	 1.659971e+01
 1.352356e+00	 2.997835e-01	 1.673657e+01
 1.348873e+00	 3.150868e-01	 1.670219e+01
 1.345204e+00	 3.303990e-01	 1.665743e+01
 1.341349e+00	 3.457171e-01	 1.660633e+01
 1.337307e+00	 3.610379e-01	 1.655329e+01
 1.333076e+00	 3.763581e-01	 1.650722e+01
 1.359588e+00	 3.013866e-01	 1.664084e+01
 1.356086e+00	 3.167717e-01	 1.660909e+01
 1.352398e+00	 3.321659e-01	 1.656571e+01
 1.348522e+00	 3.475659e-01	 1.651493e+01
 1.344458e+00	 3.629686e-01	 1.646133e+01
 1.340205e+00	 3.783707e-01	 1.641719e+01
 1.366820e+00	 3.029898e-01	 1.654730e+01
 1.363299e+00	 3.184567e-01	 1.651812e+01
 1.359591e+00	 3.339327e-01	 1.647602e+01
 1.355695e+00	 3.494146e-01	 1.642543e+01
 1.351610e+00	 3.648993e-01	 1.637112e+01
 1.347334e+00	 3.803834e-01	 1.632949e+01
 1.374052e+00	 3.045929e-01	 1.645601e+01
 1.370513e+00	 3.201416e-01	 1.642932e+01
 1.366785e+00	 3.356995e-01	 1.638839e+01
 1.362868e+00	 3.512634e-01	 1.633785e+01
 1.358761e+00	 3.668299e-01	 1.628268e+01
 1.354463e+00	 3.823960e-01	 1.624399e+01
 1.318819e+00	 3.723329e-01	 1.669475e+01
 1.314447e+00	 3.874855e-01	 1.664930e+01
 1.309887e+00	 4.026312e-01	 1.659089e+01
 1.305138e+00	 4.177665e-01	 1.652506e+01
 1.300201e+00	 4.328882e-01	 1.645750e+01
 1.295074e+00	 4.479929e-01	 1.639410e+01
 1.325948e+00	 3.743455e-01	 1.659971e+01
 1.321552e+00	 3.895801e-01	 1.655970e+01
 1.316967e+00	 4.048076e-01	 1.650574e+01
 1.312193e+00	 4.200247e-01	 1.644352e+01
 1.307229e+00	 4.352281e-01	 1.637889e+01
 1.302075e+00	 4.504145e-01	 1.631790e+01
 1.333076e+00	 3.763581e-01	 1.650722e+01
 1.328657e+00	 3.916746e-01	 1.647235e+01
 1.324048e+00	 4.069839e-01	 1.642264e+01
 1.319248e+00	 4.222829e-01	 1.636387e+01
 1.314257e+00	 4.375681e-01	 1.630208e+01
 1.309075e+00	 4.528361e-01	 1.624344e+01
 1.340205e+00	 3.783707e-01	 1.641719e+01
 1.335762e+00	 3.937691e-01	 1.638709e+01
 1.331128e+00	 4.091603e-01	 1.634136e+01
 1.326303e+00	 4.245411e-01	 1.628591e+01
 1.321285e+00	 4.399080e-01	 1.622684e+01
 1.316075e+00	 4.552576e-01	 1.617048e+01
 1.347334e+00	 3.803834e-01	 1.632949e+01
 1.342867e+00	 3.958636e-01	 1.630374e+01
 1.338209e+00	 4.113367e-01	 1.626171e+01
 1.333358e+00	 4.267993e-01	 1.620937e+01
 1.328314e+00	 4.422479e-01	 1.615293e+01
 1.323076e+00	 4.576792e-01	 1.609879e+01
 1.354463e+00	 3.823960e-01	 1.624399e+01
 1.349972e+00	 3.979581e-01	 1.622212e+01
 1.345289e+00	 4.135131e-01	 1.618347e+01
 1.340412e+00	 4.290575e-01	 1.613404e+01
 1.335342e+00	 4.445879e-01	 1.608010e+01
 1.330076e+00	 4.601008e-01	 1.602816e+01
 1.295074e+00	 4.479929e-01	 1.639410e+01
 1.289758e+00	 4.630772e-01	 1.632934e+01
 1.284250e+00	 4.781378e-01	 1.625611e+01
 1.278553e+00	 4.931711e-01	 1.617794e+01
 1.272664e+00	 5.081737e-01	 1.609835e+01
 1.266585e+00	 5.231421e-01	 1.602082e+01
 1.302075e+00	 4.504145e-01	 1.631790e+01
 1.296729e+00	 4.655803e-01	 1.625548e+01
 1.291192e+00	 4.807223e-01	 1.618476e+01
 1.285464e+00	 4.958369e-01	 1.610922e+01
 1.279544e+00	 5.109205e-01	 1.603238e+01
 1.273431e+00	 5.259699e-01	 1.595770e+01
 1.309075e+00	 4.528361e-01	 1.624344e+01
 1.303701e+00	 4.680835e-01	 1.618326e+01
 1.298134e+00	 4.833068e-01	 1.611494e+01
 1.292375e+00	 4.985026e-01	 1.604194e+01
 1.286423e+00	 5.136674e-01	 1.596778e+01
 1.280278e+00	 5.287977e-01	 1.589591e+01
 1.316075e+00	 4.552576e-01	 1.617048e+01
 1.310672e+00	 4.705866e-01	 1.611247e+01
 1.305076e+00	 4.858914e-01	 1.604644e+01
 1.299286e+00	 5.011684e-01	 1.597587e+01
 1.293302e+00	 5.164143e-01	 1.590428e+01
 1.287124e+00	 5.316255e-01	 1.583514e+01
 1.323076e+00	 4.576792e-01	 1.609879e+01
 1.317644e+00	 4.730897e-01	 1.604289e+01
 1.312018e+00	 4.884759e-01	 1.597906e+01
 1.306197e+00	 5.038342e-01	 1.591079e+01
 1.300181e+00	 5.191612e-01	 1.584162e+01
 1.293971e+00	 5.344533e-01	 1.577509e+01
 1.330076e+00	 4.601008e-01	 1.602816e+01
 1.324616e+00	 4.755928e-01	 1.597432e+01
 1.318960e+00	 4.910604e-01	 1.591257e+01
 1.313108e+00	 5.065000e-01	 1.584645e+01
 1.307061e+00	 5.219081e-01	 1.577955e+01
 1.300817e+00	 5.372811e-01	 1.571546e+01
 1.266585e+00	 5.231421e-01	 1.602082e+01
 1.260314e+00	 5.380728e-01	 1.593959e+01
 1.253853e+00	 5.529623e-01	 1.584892e+01
 1.247201e+00	 5.678070e-01	 1.575198e+01
 1.240358e+00	 5.826035e-01	 1.565159e+01
 1.233325e+00	 5.973481e-01	 1.555014e+01
 1.273431e+00	 5.259699e-01	 1.595770e+01
 1.267127e+00	 5.409813e-01	 1.587915e+01
 1.260631e+00	 5.559513e-01	 1.579108e+01
 1.253943e+00	 5.708763e-01	 1.569715e+01
 1.247063e+00	 5.857527e-01	 1.560072e+01
 1.239991e+00	 6.005770e-01	 1.550472e+01
 1.280278e+00	 5.287977e-01	 1.589591e+01
 1.273940e+00	 5.438898e-01	 1.582006e+01
 1.267408e+00	 5.589403e-01	 1.573461e+01
 1.260684e+00	 5.739455e-01	 1.564374e+01
 1.253767e+00	 5.889019e-01	 1.555129e+01
 1.246658e+00	 6.038059e-01	 1.546071e+01
 1.287124e+00	 5.316255e-01	 1.583514e+01
 1.280752e+00	 5.467983e-01	 1.576195e+01
 1.274186e+00	 5.619293e-01	 1.567912e+01
 1.267426e+00	 5.770147e-01	 1.559130e+01
 1.260472e+00	 5.920511e-01	 1.550282e+01
 1.253325e+00	 6.070348e-01	 1.541763e+01
 1.293971e+00	 5.344533e-01	 1.577509e+01
 1.287565e+00	 5.497068e-01	 1.570447e+01
 1.280963e+00	 5.649182e-01	 1.562421e+01
 1.274167e+00	 5.800840e-01	 1.553940e+01
 1.267177e+00	 5.952003e-01	 1.545486e+01
 1.259991e+00	 6.102637e-01	 1.537500e+01
 1.300817e+00	 5.372811e-01	 1.571546e+01
 1.294377e+00	 5.526153e-01	 1.564726e+01
 1.287741e+00	 5.679072e-01	 1.556948e+01
 1.280909e+00	 5.831532e-01	 1.548762e+01
 1.273881e+00	 5.983495e-01	 1.540695e+01
 1.266658e+00	 6.134926e-01	 1.533235e+01
 1.233325e+00	 5.973481e-01	 1.555014e+01
 1.226102e+00	 6.120372e-01	 1.544819e+01
 1.218689e+00	 6.266674e-01	 1.534427e+01
 1.211087e+00	 6.412350e-01	 1.523664e+01
 1.203297e+00	 6.557365e-01	 1.512247e+01
 1.195320e+00	 6.701682e-01	 1.499772e+01
 1.239991e+00	 6.005770e-01	 1.550472e+01
 1.232729e+00	 6.153455e-01	 1.540843e+01
 1.225277e+00	 6.300548e-01	 1.530864e+01
 1.217634e+00	 6.447011e-01	 1.520335e+01
 1.209802e+00	 6.592810e-01	 1.508949e+01
 1.201781e+00	 6.737908e-01	 1.496273e+01
 1.246658e+00	 6.038059e-01	 1.546071e+01
 1.239357e+00	 6.186539e-01	 1.536995e+01
 1.231864e+00	 6.334422e-01	 1.527400e+01
 1.224180e+00	 6.481673e-01	 1.517068e+01
 1.216306e+00	 6.628255e-01	 1.505672e+01
 1.208242e+00	 6.774133e-01	 1.492761e+01
 1.253325e+00	 6.070348e-01	 1.541763e+01
 1.245984e+00	 6.219622e-01	 1.533226e+01
 1.238452e+00	 6.368296e-01	 1.523988e+01
 1.230727e+00	 6.516334e-01	 1.513820e+01
 1.222810e+00	 6.663700e-01	 1.502382e+01
 1.214703e+00	 6.810358e-01	 1.489211e+01
 1.259991e+00	 6.102637e-01	 1.537500e+01
 1.252612e+00	 6.252705e-01	 1.529488e+01
 1.245039e+00	 6.402170e-01	 1.520582e+01
 1.237273e+00	 6.550995e-01	 1.510550e+01
 1.229315e+00	 6.699146e-01	 1.499045e+01
 1.221165e+00	 6.846583e-01	 1.485597e+01
 1.266658e+00	 6.134926e-01	 1.533235e+01
 1.259240e+00	 6.285788e-01	 1.525733e+01
 1.251627e+00	 6.436044e-01	 1.517139e+01
 1.243819e+00	 6.585657e-01	 1.507219e+01
 1.235819e+00	 6.734591e-01	 1.495628e+01
 1.227626e+00	 6.882809e-01	 1.481896e+01
 1.195320e+00	 6.701682e-01	 1.499772e+01
 1.187155e+00	 6.845267e-01	 1.486983e+01
 1.178805e+00	 6.988084e-01	 1.474662e+01
 1.170270e+00	 7.130097e-01	 1.462302e+01
 1.161551e+00	 7.271271e-01	 1.449296e+01
 1.152650e+00	 7.411572e-01	 1.434926e+01
 1.201781e+00	 6.737908e-01	 1.496273e+01
 1.193573e+00	 6.882269e-01	 1.483337e+01
 1.185177e+00	 7.025857e-01	 1.471305e+01
 1.176596e+00	 7.168638e-01	 1.459796e+01
 1.167830e+00	 7.310576e-01	 1.448338e+01
 1.158880e+00	 7.451634e-01	 1.435606e+01
 1.208242e+00	 6.774133e-01	 1.492761e+01
 1.199990e+00	 6.919270e-01	 1.479687e+01
 1.191549e+00	 7.063631e-01	 1.468028e+01
 1.182922e+00	 7.207179e-01	 1.457526e+01
 1.174108e+00	 7.349880e-01	 1.447834e+01
 1.165111e+00	 7.491697e-01	 1.435799e+01
 1.214703e+00	 6.810358e-01	 1.489211e+01
 1.206407e+00	 6.956271e-01	 1.476016e+01
 1.197921e+00	 7.101404e-01	 1.464820e+01
 1.189247e+00	 7.245720e-01	 1.455481e+01
 1.180387e+00	 7.389184e-01	 1.447771e+01
 1.171341e+00	 7.531760e-01	 1.435503e+01
 1.221165e+00	 6.846583e-01	 1.485597e+01
 1.212824e+00	 6.993273e-01	 1.472308e+01
 1.204293e+00	 7.139178e-01	 1.461670e+01
 1.195573e+00	 7.284261e-01	 1.453649e+01
 1.186666e+00	 7.428488e-01	 1.447970e+01
 1.177572e+00	 7.571822e-01	 1.434721e+01
 1.227626e+00	 6.882809e-01	 1.481896e+01
 1.219241e+00	 7.030274e-01	 1.468547e+01
 1.210665e+00	 7.176951e-01	 1.458565e+01
 1.201899e+00	 7.322802e-01	 1.452021e+01
 1.192944e+00	 7.467792e-01	 1.447559e+01
 1.183802e+00	 7.611885e-01	 1.433466e+01
 1.152650e+00	 7.411572e-01	 1.434926e+01
 1.143567e+00	 7.550963e-01	 1.419691e+01
 1.134304e+00	 7.689412e-01	 1.405150e+01
 1.124862e+00	 7.826882e-01	 1.390827e+01
 1.115243e+00	 7.963340e-01	 1.376309e+01
 1.105449e+00	 8.098752e-01	 1.360992e+01
 1.158880e+00	 7.451634e-01	 1.435606e+01
 1.149748e+00	 7.591779e-01	 1.419237e+01
 1.140435e+00	 7.730976e-01	 1.404133e+01
 1.130942e+00	 7.869189e-01	 1.389663e+01
 1.121271e+00	 8.006385e-01	 1.375259e+01
 1.111424e+00	 8.142529e-01	 1.360427e+01
 1.165111e+00	 7.491697e-01	 1.435799e+01
 1.155929e+00	 7.632595e-01	 1.418546e+01
 1.146566e+00	 7.772540e-01	 1.403073e+01
 1.137023e+00	 7.911497e-01	 1.388601e+01
 1.127300e+00	 8.049430e-01	 1.374406e+01
 1.117400e+00	 8.186306e-01	 1.359835e+01
 1.171341e+00	 7.531760e-01	 1.435503e+01
 1.162111e+00	 7.673412e-01	 1.417614e+01
 1.152698e+00	 7.814105e-01	 1.401959e+01
 1.143103e+00	 7.953804e-01	 1.387617e+01
 1.133328e+00	 8.092475e-01	 1.373711e+01
 1.123375e+00	 8.230083e-01	 1.359432e+01
 1.177572e+00	 7.571822e-01	 1.434721e+01
 1.168292e+00	 7.714228e-01	 1.416442e+01
 1.158829e+00	 7.855669e-01	 1.400789e+01
 1.149183e+00	 7.996112e-01	 1.386697e+01
 1.139356e+00	 8.135520e-01	 1.373144e+01
 1.129350e+00	 8.273860e-01	 1.359165e+01
 1.183802e+00	 7.611885e-01	 1.433466e+01
 1.174474e+00	 7.755044e-01	 1.415041e+01
 1.164960e+00	 7.897233e-01	 1.399564e+01
 1.155264e+00	 8.038419e-01	 1.385832e+01
 1.145385e+00	 8.178565e-01	 1.372680e+01
 1.135326e+00	 8.317637e-01	 1.358992e+01
 1.105449e+00	 8.098752e-01	 1.360992e+01
 1.095481e+00	 8.233085e-01	 1.344252e+01
 1.085341e+00	 8.366305e-01	 1.326844e+01
 1.075030e+00	 8.498380e-01	 1.309192e+01
 1.064552e+00	 8.629278e-01	 1.291910e+01
 1.053907e+00	 8.758965e-01	 1.275795e+01
 1.111424e+00	 8.142529e-01	 1.360427e+01
 1.101402e+00	 8.277588e-01	 1.344667e+01
 1.091207e+00	 8.411528e-01	 1.327888e+01
 1.080841e+00	 8.544317e-01	 1.310589e+01
 1.070306e+00	 8.675922e-01	 1.293466e+01
 1.059604e+00	 8.806311e-01	 1.277407e+01
 1.117400e+00	 8.186306e-01	 1.359835e+01
 1.107324e+00	 8.322091e-01	 1.344864e+01
 1.097074e+00	 8.456752e-01	 1.328859e+01
 1.086652e+00	 8.590255e-01	 1.312030e+01
 1.076061e+00	 8.722567e-01	 1.295144e+01
 1.065301e+00	 8.853657e-01	 1.279169e+01
 1.123375e+00	 8.230083e-01	 1.359432e+01
 1.113245e+00	 8.366594e-01	 1.344763e+01
 1.102941e+00	 8.501975e-01	 1.329629e+01
 1.092463e+00	 8.636192e-01	 1.313382e+01
 1.081815e+00	 8.769212e-01	 1.296813e+01
 1.070998e+00	 8.901003e-01	 1.280957e+01
 1.129350e+00	 8.273860e-01	 1.359165e+01
 1.119167e+00	 8.411097e-01	 1.344673e+01
 1.108807e+00	 8.547198e-01	 1.330078e+01
 1.098274e+00	 8.682129e-01	 1.314521e+01
 1.087569e+00	 8.815856e-01	 1.298349e+01
 1.076694e+00	 8.948348e-01	 1.282654e+01
 1.135326e+00	 8.317637e-01	 1.358992e+01
 1.125088e+00	 8.455601e-01	 1.344645e+01
 1.114674e+00	 8.592421e-01	 1.330181e+01
 1.104085e+00	 8.728066e-01	 1.315326e+01
 1.093324e+00	 8.862501e-01	 1.299632e+01
 1.082391e+00	 8.995694e-01	 1.284149e+01
 1.053907e+00	 8.758965e-01	 1.275795e+01
 1.043098e+00	 8.887412e-01	 1.258863e+01
 1.032127e+00	 9.014587e-01	 1.239458e+01
 1.020997e+00	 9.140460e-01	 1.219125e+01
 1.009709e+00	 9.265000e-01	 1.199565e+01
 9.982665e-01	 9.388179e-01	 1.182618e+01
 1.059604e+00	 8.806311e-01	 1.277407e+01
 1.048737e+00	 8.935452e-01	 1.260594e+01
 1.037707e+00	 9.063315e-01	 1.241433e+01
 1.026516e+00	 9.189868e-01	 1.221414e+01
 1.015167e+00	 9.315081e-01	 1.202191e+01
 1.003662e+00	 9.438926e-01	 1.185560e+01
 1.065301e+00	 8.853657e-01	 1.279169e+01
 1.054375e+00	 8.983492e-01	 1.262448e+01
 1.043286e+00	 9.112042e-01	 1.243467e+01
 1.032035e+00	 9.239276e-01	 1.223686e+01
 1.020625e+00	 9.365162e-01	 1.204730e+01
 1.009059e+00	 9.489673e-01	 1.188374e+01
 1.070998e+00	 8.901003e-01	 1.280957e+01
 1.060013e+00	 9.031532e-01	 1.264313e+01
 1.048865e+00	 9.160770e-01	 1.245463e+01
 1.037554e+00	 9.288683e-01	 1.225854e+01
 1.026083e+00	 9.415243e-01	 1.207106e+01
 1.014455e+00	 9.540420e-01	 1.190997e+01
 1.076694e+00	 8.948348e-01	 1.282654e+01
 1.065652e+00	 9.079573e-01	 1.266083e+01
 1.054444e+00	 9.209497e-01	 1.247325e+01
 1.043073e+00	 9.338091e-01	 1.227835e+01
 1.031541e+00	 9.465325e-01	 1.209252e+01
 1.019851e+00	 9.591167e-01	 1.193374e+01
 1.082391e+00	 8.995694e-01	 1.284149e+01
 1.071290e+00	 9.127613e-01	 1.267659e+01
 1.060023e+00	 9.258225e-01	 1.248966e+01
 1.048592e+00	 9.387499e-01	 1.229556e+01
 1.036999e+00	 9.515406e-01	 1.211104e+01
 1.025247e+00	 9.641914e-01	 1.195453e+01
 9.982665e-01	 9.388179e-01	 1.182618e+01
 9.866712e-01	 9.509967e-01	 1.165258e+01
 9.749261e-01	 9.630337e-01	 1.144431e+01
 9.630337e-01	 9.749261e-01	 1.122070e+01
 9.509967e-01	 9.866712e-01	 1.100136e+01
 9.388179e-01	 9.982665e-01	 1.080597e+01
 1.003662e+00	 9.438926e-01	 1.185560e+01
 9.920046e-01	 9.561373e-01	 1.168367e+01
 9.801960e-01	 9.682393e-01	 1.147550e+01
 9.682393e-01	 9.801960e-01	 1.125182e+01
 9.561373e-01	 9.920046e-01	 1.103370e+01
 9.438926e-01	 1.003662e+00	 1.084237e+01
 1.009059e+00	 9.489673e-01	 1.188374e+01
 9.973380e-01	 9.612778e-01	 1.171368e+01
 9.854659e-01	 9.734449e-01	 1.150636e+01
 9.734449e-01	 9.854659e-01	 1.128359e+01
 9.612778e-01	 9.973380e-01	 1.106762e+01
 9.489673e-01	 1.009059e+00	 1.088085e+01
 1.014455e+00	 9.540420e-01	 1.190997e+01
 1.002671e+00	 9.664183e-01	 1.174204e+01
 9.907357e-01	 9.786505e-01	 1.153628e+01
 9.786505e-01	 9.907357e-01	 1.131527e+01
 9.664183e-01	 1.002671e+00	 1.110211e+01
 9.540420e-01	 1.014455e+00	 1.092006e+01
 1.019851e+00	 9.591167e-01	 1.193374e+01
 1.008005e+00	 9.715588e-01	 1.176827e+01
 9.960056e-01	 9.838561e-01	 1.156472e+01
 9.838561e-01	 9.960056e-01	 1.134616e+01
 9.715588e-01	 1.008005e+00	 1.113621e+01
 9.591167e-01	 1.019851e+00	 1.095871e+01
 1.025247e+00	 9.641914e-01	 1.195453e+01
 1.013338e+00	 9.766994e-01	 1.179191e+01
 1.001275e+00	 9.890617e-01	 1.159117e+01
 9.890617e-01	 1.001275e+00	 1.137560e+01
 9.766994e-01	 1.013338e+00	 1.116903e+01
 9.641914e-01	 1.025247e+00	 1.099554e+01
 9.388179e-01	 9.982665e-01	 1.080597e+01
 9.265000e-01	 1.009709e+00	 1.061441e+01
 9.140460e-01	 1.020997e+00	 1.040260e+01
 9.014587e-01	 1.032127e+00	 1.018339e+01
 8.887412e-01	 1.043098e+00	 9.968483e+00
 8.758965e-01	 1.053907e+00	 9.768162e+00
 9.438926e-01	 1.003662e+00	 1.084237e+01
 9.315081e-01	 1.015167e+00	 1.065707e+01
 9.189868e-01	 1.026516e+00	 1.045113e+01
 9.063315e-01	 1.037707e+00	 1.023601e+01
 8.935452e-01	 1.048737e+00	 1.002186e+01
 8.806311e-01	 1.059604e+00	 9.817363e+00
 9.489673e-01	 1.009059e+00	 1.088085e+01
 9.365162e-01	 1.020625e+00	 1.070127e+01
 9.239276e-01	 1.032035e+00	 1.049964e+01
 9.112042e-01	 1.043286e+00	 1.028666e+01
 8.983492e-01	 1.054375e+00	 1.007165e+01
 8.853657e-01	 1.065301e+00	 9.862391e+00
 9.540420e-01	 1.014455e+00	 1.092006e+01
 9.415243e-01	 1.026083e+00	 1.074539e+01
 9.288683e-01	 1.037554e+00	 1.054646e+01
 9.160770e-01	 1.048865e+00	 1.033387e+01
 9.031532e-01	 1.060013e+00	 1.011679e+01
 8.901003e-01	 1.070998e+00	 9.902785e+00
 9.591167e-01	 1.019851e+00	 1.095871e+01
 9.465325e-01	 1.031541e+00	 1.078786e+01
 9.338091e-01	 1.043073e+00	 1.058998e+01
 9.209497e-01	 1.054444e+00	 1.037620e+01
 9.079573e-01	 1.065652e+00	 1.015622e+01
 8.948348e-01	 1.076694e+00	 9.938097e+00
 9.641914e-01	 1.025247e+00	 1.099554e+01
 9.515406e-01	 1.036999e+00	 1.082715e+01
 9.387499e-01	 1.048592e+00	 1.062863e+01
 9.258225e-01	 1.060023e+00	 1.041227e+01
 9.127613e-01	 1.071290e+00	 1.018895e+01
 8.995694e-01	 1.082391e+00	 9.967892e+00
 8.758965e-01	 1.053907e+00	 9.768162e+00
 8.629278e-01	 1.064552e+00	 9.558970e+00
 8.498380e-01	 1.075030e+00	 9.323510e+00
 8.366305e-01	 1.085341e+00	 9.078639e+00
 8.233085e-01	 1.095481e+00	 8.839272e+00
 8.098752e-01	 1.105449e+00	 8.618174e+00
 8.806311e-01	 1.059604e+00	 9.817363e+00
 8.675922e-01	 1.070306e+00	 9.600453e+00
 8.544317e-01	 1.080841e+00	 9.359043e+00
 8.411528e-01	 1.091207e+00	 9.114242e+00
 8.277588e-01	 1.101402e+00	 8.885296e+00
 8.142529e-01	 1.111424e+00	 8.689306e+00
 8.853657e-01	 1.065301e+00	 9.862391e+00
 8.722567e-01	 1.076061e+00	 9.639610e+00
 8.590255e-01	 1.086652e+00	 9.396915e+00
 8.456752e-01	 1.097074e+00	 9.158841e+00
 8.322091e-01	 1.107324e+00	 8.948101e+00
 8.186306e-01	 1.117400e+00	 8.764893e+00
 8.901003e-01	 1.070998e+00	 9.902785e+00
 8.769212e-01	 1.081815e+00	 9.676525e+00
 8.636192e-01	 1.092463e+00	 9.437434e+00
 8.501975e-01	 1.102941e+00	 9.212659e+00
 8.366594e-01	 1.113245e+00	 9.025427e+00
 8.230083e-01	 1.123375e+00	 8.829437e+00
 8.948348e-01	 1.076694e+00	 9.938097e+00
 8.815856e-01	 1.087569e+00	 9.711278e+00
 8.682129e-01	 1.098274e+00	 9.480895e+00
 8.547198e-01	 1.108807e+00	 9.275907e+00
 8.411097e-01	 1.119167e+00	 9.094186e+00
 8.273860e-01	 1.129350e+00	 8.884850e+00
 8.995694e-01	 1.082391e+00	 9.967892e+00
 8.862501e-01	 1.093324e+00	 9.743950e+00
 8.728066e-01	 1.104085e+00	 9.527584e+00
 8.592421e-01	 1.114674e+00	 9.343750e+00
 8.455601e-01	 1.125088e+00	 9.150108e+00
 8.317637e-01	 1.135326e+00	 8.933063e+00
 8.098752e-01	 1.105449e+00	 8.618174e+00
 7.963340e-01	 1.115243e+00	 8.442872e+00
 7.826882e-01	 1.124862e+00	 8.262828e+00
 7.689412e-01	 1.134304e+00	 8.054388e+00
 7.550963e-01	 1.143567e+00	 7.811071e+00
 7.411572e-01	 1.152650e+00	 7.526294e+00
 8.142529e-01	 1.111424e+00	 8.689306e+00
 8.006385e-01	 1.121271e+00	 8.508626e+00
 7.869189e-01	 1.130942e+00	 8.316196e+00
 7.730976e-01	 1.140435e+00	 8.103388e+00
 7.591779e-01	 1.149748e+00	 7.861275e+00
 7.451634e-01	 1.158880e+00	 7.580762e+00
 8.186306e-01	 1.117400e+00	 8.764893e+00
 8.049430e-01	 1.127300e+00	 8.567451e+00
 7.911497e-01	 1.137023e+00	 8.366379e+00
 7.772540e-01	 1.146566e+00	 8.151151e+00
 7.632595e-01	 1.155929e+00	 7.910877e+00
 7.491697e-01	 1.165111e+00	 7.634445e+00
 8.230083e-01	 1.123375e+00	 8.829437e+00
 8.092475e-01	 1.133328e+00	 8.620540e+00
 7.953804e-01	 1.143103e+00	 8.414078e+00
 7.814105e-01	 1.152698e+00	 8.198076e+00
 7.673412e-01	 1.162111e+00	 7.960157e+00
 7.531760e-01	 1.171341e+00	 7.687683e+00
 8.273860e-01	 1.129350e+00	 8.884850e+00
 8.135520e-01	 1.139356e+00	 8.669124e+00
 7.996112e-01	 1.149183e+00	 8.460037e+00
 7.855669e-01	 1.158829e+00	 8.244611e+00
 7.714228e-01	 1.168292e+00	 8.009446e+00
 7.571822e-01	 1.177572e+00	 7.740865e+00
 8.317637e-01	 1.135326e+00	 8.933063e+00
 8.178565e-01	 1.145385e+00	 8.714466e+00
 8.038419e-01	 1.155264e+00	 8.505042e+00
 7.897233e-01	 1.164960e+00	 8.291252e+00
 7.755044e-01	 1.174474e+00	 8.059129e+00
 7.611885e-01	 1.183802e+00	 7.794433e+00
 7.411572e-01	 1.152650e+00	 7.526294e+00
 7.271271e-01	 1.161551e+00	 7.258668e+00
 7.130097e-01	 1.170270e+00	 7.050093e+00
 6.988084e-01	 1.178805e+00	 6.870838e+00
 6.845267e-01	 1.187155e+00	 6.692167e+00
 6.701682e-01	 1.195320e+00	 6.486398e+00
 7.451634e-01	 1.158880e+00	 7.580762e+00
 7.310576e-01	 1.167830e+00	 7.319936e+00
 7.168638e-01	 1.176596e+00	 7.116002e+00
 7.025857e-01	 1.185177e+00	 6.938502e+00
 6.882269e-01	 1.193573e+00	 6.758705e+00
 6.737908e-01	 1.201781e+00	 6.548986e+00
 7.491697e-01	 1.165111e+00	 7.634445e+00
 7.349880e-01	 1.174108e+00	 7.378857e+00
 7.207179e-01	 1.182922e+00	 7.179334e+00
 7.063631e-01	 1.191549e+00	 7.003579e+00
 6.919270e-01	 1.199990e+00	 6.822842e+00
 6.774133e-01	 1.208242e+00	 6.609522e+00
 7.531760e-01	 1.171341e+00	 7.687683e+00
 7.389184e-01	 1.180387e+00	 7.435973e+00
 7.245720e-01	 1.189247e+00	 7.240725e+00
 7.101404e-01	 1.197921e+00	 7.066744e+00
 6.956271e-01	 1.206407e+00	 6.885238e+00
 6.810358e-01	 1.214703e+00	 6.668602e+00
 7.571822e-01	 1.177572e+00	 7.740865e+00
 7.428488e-01	 1.186666e+00	 7.492024e+00
 7.284261e-01	 1.195573e+00	 7.300848e+00
 7.139178e-01	 1.204293e+00	 7.128710e+00
 6.993273e-01	 1.212824e+00	 6.946592e+00
 6.846583e-01	 1.221165e+00	 6.726859e+00
 7.611885e-01	 1.183802e+00	 7.794433e+00
 7.467792e-01	 1.192944e+00	 7.548420e+00
 7.322802e-01	 1.201899e+00	 7.360409e+00
 7.176951e-01	 1.210665e+00	 7.190219e+00
 7.030274e-01	 1.219241e+00	 7.007635e+00
 6.882809e-01	 1.227626e+00	 6.784960e+00
 6.701682e-01	 1.195320e+00	 6.486398e+00
 6.557365e-01	 1.203297e+00	 6.260699e+00
 6.412350e-01	 1.211087e+00	 6.038219e+00
 6.266674e-01	 1.218689e+00	 5.817345e+00
 6.120372e-01	 1.226102e+00	 5.598126e+00
 5.973481e-01	 1.233325e+00	 5.382235e+00
 6.737908e-01	 1.201781e+00	 6.548986e+00
 6.592810e-01	 1.209802e+00	 6.319736e+00
 6.447011e-01	 1.217634e+00	 6.096663e+00
 6.300548e-01	 1.225277e+00	 5.877256e+00
 6.153455e-01	 1.232729e+00	 5.660681e+00
 6.005770e-01	 1.239991e+00	 5.447742e+00
 6.774133e-01	 1.208242e+00	 6.609522e+00
 6.628255e-01	 1.216306e+00	 6.377028e+00
 6.481673e-01	 1.224180e+00	 6.153452e+00
 6.334422e-01	 1.231864e+00	 5.935408e+00
 6.186539e-01	 1.239357e+00	 5.721212e+00
 6.038059e-01	 1.246658e+00	 5.510834e+00
 6.810358e-01	 1.214703e+00	 6.668602e+00
 6.663700e-01	 1.222810e+00	 6.433095e+00
 6.516334e-01	 1.230727e+00	 6.209065e+00
 6.368296e-01	 1.238452e+00	 5.992277e+00
 6.219622e-01	 1.245984e+00	 5.780221e+00
 6.070348e-01	 1.253325e+00	 5.572073e+00
 6.846583e-01	 1.221165e+00	 6.726859e+00
 6.699146e-01	 1.229315e+00	 6.488497e+00
 6.550995e-01	 1.237273e+00	 6.264021e+00
 6.402170e-01	 1.245039e+00	 6.048371e+00
 6.252705e-01	 1.252612e+00	 5.838244e+00
 6.102637e-01	 1.259991e+00	 5.632053e+00
 6.882809e-01	 1.227626e+00	 6.784960e+00
 6.734591e-01	 1.235819e+00	 6.543829e+00
 6.585657e-01	 1.243819e+00	 6.318875e+00
 6.436044e-01	 1.251627e+00	 6.104239e+00
 6.285788e-01	 1.259240e+00	 5.895852e+00
 6.134926e-01	 1.266658e+00	 5.691399e+00
 5.973481e-01	 1.233325e+00	 5.382235e+00
 5.826035e-01	 1.240358e+00	 5.175431e+00
 5.678070e-01	 1.247201e+00	 4.978262e+00
 5.529623e-01	 1.253853e+00	 4.786692e+00
 5.380728e-01	 1.260314e+00	 4.597868e+00
 5.231421e-01	 1.266585e+00	 4.410049e+00
 6.005770e-01	 1.239991e+00	 5.447742e+00
 5.857527e-01	 1.247063e+00	 5.242448e+00
 5.708763e-01	 1.253943e+00	 5.044705e+00
 5.559513e-01	 1.260631e+00	 4.851333e+00
 5.409813e-01	 1.267127e+00	 4.660398e+00
 5.259699e-01	 1.273431e+00	 4.471131e+00
 6.038059e-01	 1.246658e+00	 5.510834e+00
 5.889019e-01	 1.253767e+00	 5.306824e+00
 5.739455e-01	 1.260684e+00	 5.108652e+00
 5.589403e-01	 1.267408e+00	 4.913909e+00
 5.438898e-01	 1.273940e+00	 4.721487e+00
 5.287977e-01	 1.280278e+00	 4.531499e+00
 6.070348e-01	 1.253325e+00	 5.572073e+00
 5.920511e-01	 1.260472e+00	 5.369165e+00
 5.770147e-01	 1.267426e+00	 5.170696e+00
 5.619293e-01	 1.274186e+00	 4.974941e+00
 5.467983e-01	 1.280752e+00	 4.781529e+00
 5.316255e-01	 1.287124e+00	 4.591362e+00
 6.102637e-01	 1.259991e+00	 5.632053e+00
 5.952003e-01	 1.267177e+00	 5.430108e+00
 5.800840e-01	 1.274167e+00	 5.231458e+00
 5.649182e-01	 1.280963e+00	 5.034978e+00
 5.497068e-01	 1.287565e+00	 4.840946e+00
 5.344533e-01	 1.293971e+00	 4.650965e+00
 6.134926e-01	 1.266658e+00	 5.691399e+00
 5.983495e-01	 1.273881e+00	 5.490323e+00
 5.831532e-01	 1.280909e+00	 5.291592e+00
 5.679072e-01	 1.287741e+00	 5.094600e+00
 5.526153e-01	 1.294377e+00	 4.900194e+00
 5.372811e-01	 1.300817e+00	 4.710584e+00
 5.231421e-01	 1.266585e+00	 4.410049e+00
 5.081737e-01	 1.272664e+00	 4.226685e+00
 4.931711e-01	 1.278553e+00	 4.049038e+00
 4.781378e-01	 1.284250e+00	 3.873508e+00
 4.630772e-01	 1.289758e+00	 3.697270e+00
 4.479929e-01	 1.295074e+00	 3.518171e+00
 5.259699e-01	 1.273431e+00	 4.471131e+00
 5.109205e-01	 1.279544e+00	 4.287417e+00
 4.958369e-01	 1.285464e+00	 4.109972e+00
 4.807223e-01	 1.291192e+00	 3.934750e+00
 4.655803e-01	 1.296729e+00	 3.758477e+00
 4.504145e-01	 1.302075e+00	 3.578559e+00
 5.287977e-01	 1.280278e+00	 4.531499e+00
 5.136674e-01	 1.286423e+00	 4.347955e+00
 4.985026e-01	 1.292375e+00	 4.170866e+00
 4.833068e-01	 1.298134e+00	 3.995856e+00
 4.680835e-01	 1.303701e+00	 3.819328e+00
 4.528361e-01	 1.309075e+00	 3.638372e+00
 5.316255e-01	 1.287124e+00	 4.591362e+00
 5.164143e-01	 1.293302e+00	 4.408326e+00
 5.011684e-01	 1.299286e+00	 4.231613e+00
 4.858914e-01	 1.305076e+00	 4.056630e+00
 4.705866e-01	 1.310672e+00	 3.879583e+00
 4.552576e-01	 1.316075e+00	 3.697370e+00
 5.344533e-01	 1.293971e+00	 4.650965e+00
 5.191612e-01	 1.300181e+00	 4.468595e+00
 5.038342e-01	 1.306197e+00	 4.292139e+00
 4.884759e-01	 1.312018e+00	 4.116912e+00
 4.730897e-01	 1.317644e+00	 3.939037e+00
 4.576792e-01	 1.323076e+00	 3.755348e+00
 5.372811e-01	 1.300817e+00	 4.710584e+00
 5.219081e-01	 1.307061e+00	 4.528857e+00
 5.065000e-01	 1.313108e+00	 4.352410e+00
 4.910604e-01	 1.318960e+00	 4.176576e+00
 4.755928e-01	 1.324616e+00	 3.997517e+00
 4.601008e-01	 1.330076e+00	 3.812128e+00
 4.479929e-01	 1.295074e+00	 3.518171e+00
 4.328882e-01	 1.300201e+00	 3.331061e+00
 4.177665e-01	 1.305138e+00	 3.142738e+00
 4.026312e-01	 1.309887e+00	 2.969677e+00
 3.874855e-01	 1.314447e+00	 2.828557e+00
 3.723329e-01	 1.318819e+00	 2.736127e+00
 4.504145e-01	 1.302075e+00	 3.578559e+00
 4.352281e-01	 1.307229e+00	 3.390472e+00
 4.200247e-01	 1.312193e+00	 3.201831e+00
 4.048076e-01	 1.316967e+00	 3.028956e+00
 3.895801e-01	 1.321552e+00	 2.888391e+00
 3.743455e-01	 1.325948e+00	 2.796759e+00
 4.528361e-01	 1.309075e+00	 3.638372e+00
 4.375681e-01	 1.314257e+00	 3.449297e+00
 4.222829e-01	 1.319248e+00	 3.260565e+00
 4.069839e-01	 1.324048e+00	 3.088214e+00
 3.916746e-01	 1.328657e+00	 2.948517e+00
 3.763581e-01	 1.333076e+00	 2.857833e+00
 4.552576e-01	 1.316075e+00	 3.697370e+00
 4.399080e-01	 1.321285e+00	 3.507291e+00
 4.245411e-01	 1.326303e+00	 3.318641e+00
 4.091603e-01	 1.331128e+00	 3.147045e+00
 3.937691e-01	 1.335762e+00	 3.008374e+00
 3.783707e-01	 1.340205e+00	 2.918593e+00
 4.576792e-01	 1.323076e+00	 3.755348e+00
 4.422479e-01	 1.328314e+00	 3.564241e+00
 4.267993e-01	 1.333358e+00	 3.375785e+00
 4.113367e-01	 1.338209e+00	 3.205069e+00
 3.958636e-01	 1.342867e+00	 3.067432e+00
 3.803834e-01	 1.347334e+00	 2.978313e+00
 4.601008e-01	 1.330076e+00	 3.812128e+00
 4.445879e-01	 1.335342e+00	 3.619961e+00
 4.290575e-01	 1.340412e+00	 3.431752e+00
 4.135131e-01	 1.345289e+00	 3.261932e+00
 3.979581e-01	 1.349972e+00	 3.125185e+00
 3.823960e-01	 1.354463e+00	 3.036296e+00
 3.723329e-01	 1.318819e+00	 2.736127e+00
 3.571765e-01	 1.323004e+00	 2.642165e+00
 3.420196e-01	 1.327003e+00	 2.499433e+00
 3.268653e-01	 1.330817e+00	 2.333589e+00
 3.117169e-01	 1.334447e+00	 2.168957e+00
 2.965773e-01	 1.337893e+00	 2.028340e+00
 3.743455e-01	 1.325948e+00	 2.796759e+00
 3.591072e-01	 1.330155e+00	 2.703768e+00
 3.438684e-01	 1.334176e+00	 2.559430e+00
 3.286322e-01	 1.338011e+00	 2.390639e+00
 3.134018e-01	 1.341660e+00	 2.223278e+00
 2.981804e-01	 1.345125e+00	 2.081576e+00
 3.763581e-01	 1.333076e+00	 2.857833e+00
 3.610379e-01	 1.337307e+00	 2.765879e+00
 3.457171e-01	 1.341349e+00	 2.620283e+00
 3.303990e-01	 1.345204e+00	 2.448800e+00
 3.150868e-01	 1.348873e+00	 2.278905e+00
 2.997835e-01	 1.352356e+00	 2.136277e+00
 3.783707e-01	 1.340205e+00	 2.918593e+00
 3.629686e-01	 1.344458e+00	 2.827453e+00
 3.475659e-01	 1.348522e+00	 2.680792e+00
 3.321659e-01	 1.352398e+00	 2.506778e+00
 3.167717e-01	 1.356086e+00	 2.334506e+00
 3.013866e-01	 1.359588e+00	 2.191129e+00
 3.803834e-01	 1.347334e+00	 2.978313e+00
 3.648993e-01	 1.351610e+00	 2.887481e+00
 3.494146e-01	 1.355695e+00	 2.739788e+00
 3.339327e-01	 1.359591e+00	 2.563303e+00
 3.184567e-01	 1.363299e+00	 2.388767e+00
 3.029898e-01	 1.366820e+00	 2.244835e+00
 3.823960e-01	 1.354463e+00	 3.036296e+00
 3.668299e-01	 1.358761e+00	 2.944989e+00
 3.512634e-01	 1.362868e+00	 2.796133e+00
 3.356995e-01	 1.366785e+00	 2.617132e+00
 3.201416e-01	 1.370513e+00	 2.440398e+00
 3.045929e-01	 1.374052e+00	 2.296110e+00
 2.965773e-01	 1.337893e+00	 2.028340e+00
 2.814496e-01	 1.341157e+00	 1.914898e+00
 2.663370e-01	 1.344239e+00	 1.815670e+00
 2.512422e-01	 1.347142e+00	 1.727084e+00
 2.361683e-01	 1.349866e+00	 1.644279e+00
 2.211181e-01	 1.352413e+00	 1.561238e+00
 2.981804e-01	 1.345125e+00	 2.081576e+00
 2.829710e-01	 1.348406e+00	 1.968479e+00
 2.677766e-01	 1.351506e+00	 1.869836e+00
 2.526003e-01	 1.354424e+00	 1.781858e+00
 2.374449e-01	 1.357163e+00	 1.699387e+00
 2.223133e-01	 1.359724e+00	 1.616030e+00
 2.997835e-01	 1.352356e+00	 2.136277e+00
 2.844923e-01	 1.355656e+00	 2.023682e+00
 2.692163e-01	 1.358772e+00	 1.925781e+00
 2.539583e-01	 1.361706e+00	 1.838549e+00
 2.387215e-01	 1.364460e+00	 1.756498e+00
 2.235086e-01	 1.367034e+00	 1.672827e+00
 3.013866e-01	 1.359588e+00	 2.191129e+00
 2.860137e-01	 1.362905e+00	 2.079240e+00
 2.706559e-01	 1.366038e+00	 1.982284e+00
 2.553164e-01	 1.368988e+00	 1.895975e+00
 2.399981e-01	 1.371756e+00	 1.814467e+00
 2.247038e-01	 1.374344e+00	 1.730519e+00
 3.029898e-01	 1.366820e+00	 2.244835e+00
 2.875350e-01	 1.370155e+00	 2.133895e+00
 2.720956e-01	 1.373304e+00	 2.038128e+00
 2.566745e-01	 1.376270e+00	 1.952960e+00
 2.412746e-01	 1.379053e+00	 1.872157e+00
 2.258990e-01	 1.381655e+00	 1.787998e+00
 3.045929e-01	 1.374052e+00	 2.296110e+00
 2.890564e-01	 1.377404e+00	 2.186402e+00
 2.735353e-01	 1.380570e+00	 2.092104e+00
 2.580325e-01	 1.383552e+00	 2.008332e+00
 2.425512e-01	 1.386349e+00	 1.928429e+00
 2.270943e-01	 1.388965e+00	 1.844156e+00
 2.211181e-01	 1.352413e+00	 1.561238e+00
 2.060944e-01	 1.354784e+00	 1.474536e+00
 1.911000e-01	 1.356980e+00	 1.388283e+00
 1.761376e-01	 1.359003e+00	 1.306420e+00
 1.612099e-01	 1.360855e+00	 1.232271e+00
 1.463195e-01	 1.362536e+00	 1.168709e+00
 2.223133e-01	 1.359724e+00	 1.616030e+00
 2.072084e-01	 1.362107e+00	 1.528582e+00
 1.921330e-01	 1.364315e+00	 1.441729e+00
 1.770897e-01	 1.366349e+00	 1.359484e+00
 1.620813e-01	 1.368211e+00	 1.285199e+00
 1.471104e-01	 1.369902e+00	 1.221740e+00
 2.235086e-01	 1.367034e+00	 1.672827e+00
 2.083225e-01	 1.369430e+00	 1.584506e+00
 1.931660e-01	 1.371650e+00	 1.496807e+00
 1.780418e-01	 1.373695e+00	 1.413864e+00
 1.629527e-01	 1.375567e+00	 1.339102e+00
 1.479013e-01	 1.377267e+00	 1.275429e+00
 2.247038e-01	 1.374344e+00	 1.730519e+00
 2.094365e-01	 1.376754e+00	 1.641240e+00
 1.941989e-01	 1.378985e+00	 1.552515e+00
 1.789939e-01	 1.381041e+00	 1.468646e+00
 1.638241e-01	 1.382923e+00	 1.393175e+00
 1.486922e-01	 1.384632e+00	 1.329089e+00
 2.258990e-01	 1.381655e+00	 1.787998e+00
 2.105505e-01	 1.384077e+00	 1.697717e+00
 1.952319e-01	 1.386320e+00	 1.607855e+00
 1.799460e-01	 1.388387e+00	 1.522919e+00
 1.646955e-01	 1.390279e+00	 1.446608e+00
 1.494831e-01	 1.391997e+00	 1.382029e+00
 2.270943e-01	 1.388965e+00	 1.844156e+00
 2.116645e-01	 1.391400e+00	 1.752872e+00
 1.962649e-01	 1.393656e+00	 1.661825e+00
 1.808981e-01	 1.395733e+00	 1.575767e+00
 1.655669e-01	 1.397635e+00	 1.498593e+00
 1.502741e-01	 1.399362e+00	 1.433559e+00
 1.463195e-01	 1.362536e+00	 1.168709e+00
 1.314689e-01	 1.364049e+00	 1.115401e+00
 1.166606e-01	 1.365396e+00	 1.069270e+00
 1.018971e-01	 1.366577e+00	 1.028936e+00
 8.718081e-02	 1.367594e+00	 9.932844e-01
 7.251399e-02	 1.368450e+00	 9.616238e-01
 1.471104e-01	 1.369902e+00	 1.221740e+00
 1.321795e-01	 1.371423e+00	 1.168598e+00
 1.172912e-01	 1.372776e+00	 1.122527e+00
 1.024479e-01	 1.373964e+00	 1.082143e+00
 8.765205e-02	 1.374987e+00	 1.046338e+00
 7.290595e-02	 1.375847e+00	 1.014456e+00
 1.479013e-01	 1.377267e+00	 1.275429e+00
 1.328902e-01	 1.378796e+00	 1.222215e+00
 1.179218e-01	 1.380157e+00	 1.176058e+00
 1.029987e-01	 1.381351e+00	 1.135539e+00
 8.812330e-02	 1.382379e+00	 1.099534e+00
 7.329792e-02	 1.383245e+00	 1.067392e+00
 1.486922e-01	 1.384632e+00	 1.329089e+00
 1.336008e-01	 1.386169e+00	 1.275688e+00
 1.185524e-01	 1.387537e+00	 1.229417e+00
 1.035495e-01	 1.388737e+00	 1.188793e+00
 8.859455e-02	 1.389772e+00	 1.152641e+00
 7.368989e-02	 1.390642e+00	 1.120291e+00
 1.494831e-01	 1.391997e+00	 1.382029e+00
 1.343114e-01	 1.393542e+00	 1.328452e+00
 1.191830e-01	 1.394918e+00	 1.282157e+00
 1.041003e-01	 1.396124e+00	 1.241568e+00
 8.906580e-02	 1.397164e+00	 1.205428e+00
 7.408186e-02	 1.398039e+00	 1.173011e+00
 1.502741e-01	 1.399362e+00	 1.433559e+00
 1.350221e-01	 1.400916e+00	 1.379936e+00
 1.198136e-01	 1.402298e+00	 1.333828e+00
 1.046511e-01	 1.403511e+00	 1.293526e+00
 8.953704e-02	 1.404556e+00	 1.257659e+00
 7.447382e-02	 1.405436e+00	 1.225409e+00
 7.251399e-02	 1.368450e+00	 9.616238e-01
 5.789894e-02	 1.369147e+00	 9.343397e-01
 4.333789e-02	 1.369685e+00	 9.122044e-01
 2.883299e-02	 1.370067e+00	 8.961896e-01
 1.438635e-02	 1.370295e+00	 8.882498e-01
 0.000000e+00	 1.370370e+00	 8.914189e-01
 7.290595e-02	 1.375847e+00	 1.014456e+00
 5.821191e-02	 1.376547e+00	 9.870389e-01
 4.357215e-02	 1.377089e+00	 9.648753e-01
 2.898884e-02	 1.377473e+00	 9.488316e-01
 1.446411e-02	 1.377702e+00	 9.408191e-01
 0.000000e+00	 1.377778e+00	 9.438988e-01
 7.329792e-02	 1.383245e+00	 1.067392e+00
 5.852488e-02	 1.383948e+00	 1.039781e+00
 4.380641e-02	 1.384492e+00	 1.017519e+00
 2.914470e-02	 1.384879e+00	 1.001402e+00
 1.454187e-02	 1.385109e+00	 9.933330e-01
 0.000000e+00	 1.385185e+00	 9.964361e-01
 7.368989e-02	 1.390642e+00	 1.120291e+00
 5.883784e-02	 1.391349e+00	 1.092502e+00
 4.404067e-02	 1.391896e+00	 1.070134e+00
 2.930055e-02	 1.392284e+00	 1.053940e+00
 1.461964e-02	 1.392516e+00	 1.045850e+00
 0.000000e+00	 1.392593e+00	 1.049082e+00
 7.408186e-02	 1.398039e+00	 1.173011e+00
 5.915081e-02	 1.398750e+00	 1.145139e+00
 4.427493e-02	 1.399300e+00	 1.122716e+00
 2.945641e-02	 1.399690e+00	 1.106486e+00
 1.469740e-02	 1.399923e+00	 1.098429e+00
 0.000000e+00	 1.400000e+00	 1.101892e+00
 7.447382e-02	 1.405436e+00	 1.225409e+00
 5.946378e-02	 1.406151e+00	 1.197626e+00
 4.450918e-02	 1.406703e+00	 1.175264e+00
 2.961226e-02	 1.407096e+00	 1.159080e+00
 1.477517e-02	 1.407330e+00	 1.151132e+00
 0.000000e+00	 1.407407e+00	 1.154922e+00
 1.407407e+00	 0.000000e+00	 1.671207e+01
 1.407330e+00	 1.477517e-02	 1.671434e+01
 1.407096e+00	 2.961226e-02	 1.671453e+01
 1.406703e+00	 4.450918e-02	 1.671233e+01
 1.406151e+00	 5.946378e-02	 1.670722e+01
 1.405436e+00	 7.447382e-02	 1.669844e+01
 1.414815e+00	 0.000000e+00	 1.660320e+01
 1.414737e+00	 1.485293e-02	 1.660576e+01
 1.414502e+00	 2.976811e-02	 1.660617e+01
 1.414107e+00	 4.474344e-02	 1.660420e+01
 1.413551e+00	 5.977675e-02	 1.659935e+01
 1.412833e+00	 7.486579e-02	 1.659092e+01
 1.422222e+00	 0.000000e+00	 1.649693e+01
 1.422144e+00	 1.493069e-02	 1.649974e+01
 1.421907e+00	 2.992397e-02	 1.650034e+01
 1.421511e+00	 4.497770e-02	 1.649857e+01
 1.420952e+00	 6.008971e-02	 1.649397e+01
 1.420230e+00	 7.525776e-02	 1.648584e+01
 1.429630e+00	 0.000000e+00	 1.639319e+01
 1.429551e+00	 1.500846e-02	 1.639619e+01
 1.429313e+00	 3.007982e-02	 1.639696e+01
 1.428915e+00	 4.521196e-02	 1.639535e+01
 1.428353e+00	 6.040268e-02	 1.639097e+01
 1.427627e+00	 7.564973e-02	 1.638312e+01
 1.437037e+00	 0.000000e+00	 1.629187e+01
 1.436958e+00	 1.508622e-02	 1.629504e+01
 1.436719e+00	 3.023568e-02	 1.629593e+01
 1.436318e+00	 4.544622e-02	 1.629447e+01
 1.435754e+00	 6.071565e-02	 1.629027e+01
 1.435024e+00	 7.604169e-02	 1.628268e+01
 1.444444e+00	 0.000000e+00	 1.619289e+01
 1.444365e+00	 1.516399e-02	 1.619618e+01
 1.444125e+00	 3.039153e-02	 1.619716e+01
 1.443722e+00	 4.568048e-02	 1.619582e+01
 1.443155e+00	 6.102861e-02	 1.619179e+01
 1.442421e+00	 7.643366e-02	 1.618443e+01
 1.405436e+00	 7.447382e-02	 1.669844e+01
 1.404556e+00	 8.953704e-02	 1.668866e+01
 1.403511e+00	 1.046511e-01	 1.668055e+01
 1.402298e+00	 1.198136e-01	 1.667318e+01
 1.400916e+00	 1.350221e-01	 1.666554e+01
 1.399362e+00	 1.502741e-01	 1.665657e+01
 1.412833e+00	 7.486579e-02	 1.659092e+01
 1.411949e+00	 9.000829e-02	 1.658159e+01
 1.410898e+00	 1.052019e-01	 1.657408e+01
 1.409679e+00	 1.204442e-01	 1.656748e+01
 1.408289e+00	 1.357327e-01	 1.656077e+01
 1.406727e+00	 1.510650e-01	 1.655290e+01
 1.420230e+00	 7.525776e-02	 1.648584e+01
 1.419341e+00	 9.047954e-02	 1.647690e+01
 1.418285e+00	 1.057527e-01	 1.646993e+01
 1.417059e+00	 1.210748e-01	 1.646402e+01
 1.415662e+00	 1.364434e-01	 1.645817e+01
 1.414092e+00	 1.518559e-01	 1.645134e+01
 1.427627e+00	 7.564973e-02	 1.638312e+01
 1.426734e+00	 9.095079e-02	 1.637454e+01
 1.425672e+00	 1.063035e-01	 1.636803e+01
 1.424440e+00	 1.217054e-01	 1.636274e+01
 1.423035e+00	 1.371540e-01	 1.635769e+01
 1.421457e+00	 1.526468e-01	 1.635185e+01
 1.435024e+00	 7.604169e-02	 1.628268e+01
 1.434126e+00	 9.142203e-02	 1.627441e+01
 1.433059e+00	 1.068543e-01	 1.626831e+01
 1.431820e+00	 1.223360e-01	 1.626358e+01
 1.430409e+00	 1.378647e-01	 1.625927e+01
 1.428822e+00	 1.534377e-01	 1.625439e+01
 1.442421e+00	 7.643366e-02	 1.618443e+01
 1.441518e+00	 9.189328e-02	 1.617644e+01
 1.440446e+00	 1.074051e-01	 1.617070e+01
 1.439201e+00	 1.229666e-01	 1.616646e+01
 1.437782e+00	 1.385753e-01	 1.616285e+01
 1.436187e+00	 1.542286e-01	 1.615891e+01
 1.399362e+00	 1.502741e-01	 1.665657e+01
 1.397635e+00	 1.655669e-01	 1.664488e+01
 1.395733e+00	 1.808981e-01	 1.662959e+01
 1.393656e+00	 1.962649e-01	 1.661044e+01
 1.391400e+00	 2.116645e-01	 1.658734e+01
 1.388965e+00	 2.270943e-01	 1.656034e+01
 1.406727e+00	 1.510650e-01	 1.655290e+01
 1.404991e+00	 1.664383e-01	 1.654232e+01
 1.403079e+00	 1.818502e-01	 1.652799e+01
 1.400991e+00	 1.972978e-01	 1.650968e+01
 1.398723e+00	 2.127785e-01	 1.648726e+01
 1.396275e+00	 2.282895e-01	 1.646079e+01
 1.414092e+00	 1.518559e-01	 1.645134e+01
 1.412347e+00	 1.673097e-01	 1.644185e+01
 1.410425e+00	 1.828023e-01	 1.642850e+01
 1.408326e+00	 1.983308e-01	 1.641103e+01
 1.406046e+00	 2.138926e-01	 1.638929e+01
 1.403586e+00	 2.294847e-01	 1.636332e+01
 1.421457e+00	 1.526468e-01	 1.635185e+01
 1.419703e+00	 1.681811e-01	 1.634344e+01
 1.417771e+00	 1.837544e-01	 1.633110e+01
 1.415661e+00	 1.993638e-01	 1.631452e+01
 1.413369e+00	 2.150066e-01	 1.629351e+01
 1.410896e+00	 2.306800e-01	 1.626805e+01
 1.428822e+00	 1.534377e-01	 1.625439e+01
 1.427059e+00	 1.690526e-01	 1.624707e+01
 1.425117e+00	 1.847065e-01	 1.623579e+01
 1.422996e+00	 2.003968e-01	 1.622018e+01
 1.420693e+00	 2.161206e-01	 1.619998e+01
 1.418206e+00	 2.318752e-01	 1.617512e+01
 1.436187e+00	 1.542286e-01	 1.615891e+01
 1.434415e+00	 1.699240e-01	 1.615269e+01
 1.432463e+00	 1.856586e-01	 1.614256e+01
 1.430331e+00	 2.014297e-01	 1.612803e+01
 1.428016e+00	 2.172346e-01	 1.610877e+01
 1.425517e+00	 2.330704e-01	 1.608463e+01
 1.388965e+00	 2.270943e-01	 1.656034e+01
 1.386349e+00	 2.425512e-01	 1.653417e+01
 1.383552e+00	 2.580325e-01	 1.651213e+01
 1.380570e+00	 2.735353e-01	 1.649255e+01
 1.377404e+00	 2.890564e-01	 1.647413e+01
 1.374052e+00	 3.045929e-01	 1.645601e+01
 1.396275e+00	 2.282895e-01	 1.646079e+01
 1.393646e+00	 2.438278e-01	 1.643547e+01
 1.390833e+00	 2.593906e-01	 1.641499e+01
 1.387836e+00	 2.749749e-01	 1.639754e+01
 1.384654e+00	 2.905777e-01	 1.638175e+01
 1.381284e+00	 3.061960e-01	 1.636665e+01
 1.403586e+00	 2.294847e-01	 1.636332e+01
 1.400942e+00	 2.451044e-01	 1.633878e+01
 1.398115e+00	 2.607487e-01	 1.631975e+01
 1.395103e+00	 2.764146e-01	 1.630435e+01
 1.391903e+00	 2.920991e-01	 1.629109e+01
 1.388516e+00	 3.077991e-01	 1.627896e+01
 1.410896e+00	 2.306800e-01	 1.626805e+01
 1.408239e+00	 2.463810e-01	 1.624426e+01
 1.405397e+00	 2.621067e-01	 1.622663e+01
 1.402369e+00	 2.778542e-01	 1.621317e+01
 1.399153e+00	 2.936204e-01	 1.620234e+01
 1.395748e+00	 3.094022e-01	 1.619306e+01
 1.418206e+00	 2.318752e-01	 1.617512e+01
 1.415536e+00	 2.476576e-01	 1.615210e+01
 1.412679e+00	 2.634648e-01	 1.613581e+01
 1.409635e+00	 2.792939e-01	 1.612420e+01
 1.406402e+00	 2.951418e-01	 1.611565e+01
 1.402979e+00	 3.110054e-01	 1.610904e+01
 1.425517e+00	 2.330704e-01	 1.608463e+01
 1.422832e+00	 2.489342e-01	 1.606246e+01
 1.419961e+00	 2.648229e-01	 1.604749e+01
 1.416901e+00	 2.807336e-01	 1.603761e+01
 1.413652e+00	 2.966631e-01	 1.603116e+01
 1.410211e+00	 3.126085e-01	 1.602700e+01
 1.374052e+00	 3.045929e-01	 1.645601e+01
 1.370513e+00	 3.201416e-01	 1.642932e+01
 1.366785e+00	 3.356995e-01	 1.638839e+01
 1.362868e+00	 3.512634e-01	 1.633785e+01
 1.358761e+00	 3.668299e-01	 1.628268e+01
 1.354463e+00	 3.823960e-01	 1.624399e+01
 1.381284e+00	 3.061960e-01	 1.636665e+01
 1.377726e+00	 3.218266e-01	 1.634242e+01
 1.373979e+00	 3.374664e-01	 1.630263e+01
 1.370041e+00	 3.531121e-01	 1.625206e+01
 1.365912e+00	 3.687606e-01	 1.619590e+01
 1.361591e+00	 3.844086e-01	 1.616059e+01
 1.388516e+00	 3.077991e-01	 1.627896e+01
 1.384939e+00	 3.235116e-01	 1.625717e+01
 1.381172e+00	 3.392332e-01	 1.621848e+01
 1.377214e+00	 3.549609e-01	 1.616784e+01
 1.373064e+00	 3.706913e-01	 1.611066e+01
 1.368720e+00	 3.864212e-01	 1.607913e+01
 1.395748e+00	 3.094022e-01	 1.619306e+01
 1.392152e+00	 3.251965e-01	 1.617360e+01
 1.388366e+00	 3.410001e-01	 1.613592e+01
 1.384387e+00	 3.568096e-01	 1.608513e+01
 1.380215e+00	 3.726220e-01	 1.602732e+01
 1.375849e+00	 3.884338e-01	 1.599943e+01
 1.402979e+00	 3.110054e-01	 1.610904e+01
 1.399366e+00	 3.268815e-01	 1.609176e+01
 1.395559e+00	 3.427669e-01	 1.605494e+01
 1.391560e+00	 3.586584e-01	 1.600386e+01
 1.387366e+00	 3.745527e-01	 1.594600e+01
 1.382978e+00	 3.904464e-01	 1.592131e+01
 1.410211e+00	 3.126085e-01	 1.602700e+01
 1.406579e+00	 3.285664e-01	 1.601165e+01
 1.402753e+00	 3.445337e-01	 1.597550e+01
 1.398733e+00	 3.605072e-01	 1.592397e+01
 1.394518e+00	 3.764834e-01	 1.586652e+01
 1.390106e+00	 3.924590e-01	 1.584457e+01
 1.354463e+00	 3.823960e-01	 1.624399e+01
 1.349972e+00	 3.979581e-01	 1.622212e+01
 1.345289e+00	 4.135131e-01	 1.618347e+01
 1.340412e+00	 4.290575e-01	 1.613404e+01
 1.335342e+00	 4.445879e-01	 1.608010e+01
 1.330076e+00	 4.601008e-01	 1.602816e+01
 1.361591e+00	 3.844086e-01	 1.616059e+01
 1.357077e+00	 4.000526e-01	 1.614218e+01
 1.352369e+00	 4.156895e-01	 1.610666e+01
 1.347467e+00	 4.313157e-01	 1.606002e+01
 1.342370e+00	 4.469278e-01	 1.600856e+01
 1.337077e+00	 4.625224e-01	 1.595886e+01
 1.368720e+00	 3.864212e-01	 1.607913e+01
 1.364182e+00	 4.021472e-01	 1.606387e+01
 1.359450e+00	 4.178659e-01	 1.603131e+01
 1.354522e+00	 4.335739e-01	 1.598743e+01
 1.349398e+00	 4.492677e-01	 1.593852e+01
 1.344077e+00	 4.649440e-01	 1.589117e+01
 1.375849e+00	 3.884338e-01	 1.599943e+01
 1.371288e+00	 4.042417e-01	 1.598700e+01
 1.366530e+00	 4.200423e-01	 1.595723e+01
 1.361577e+00	 4.358321e-01	 1.591606e+01
 1.356426e+00	 4.516077e-01	 1.586974e+01
 1.351077e+00	 4.673656e-01	 1.582484e+01
 1.382978e+00	 3.904464e-01	 1.592131e+01
 1.378393e+00	 4.063362e-01	 1.591135e+01
 1.373611e+00	 4.222186e-01	 1.588420e+01
 1.368632e+00	 4.380903e-01	 1.584569e+01
 1.363454e+00	 4.539476e-01	 1.580199e+01
 1.358078e+00	 4.697871e-01	 1.575963e+01
 1.390106e+00	 3.924590e-01	 1.584457e+01
 1.385498e+00	 4.084307e-01	 1.583673e+01
 1.380691e+00	 4.243950e-01	 1.581200e+01
 1.375686e+00	 4.403485e-01	 1.577608e+01
 1.370482e+00	 4.562876e-01	 1.573503e+01
 1.365078e+00	 4.722087e-01	 1.569528e+01
 1.330076e+00	 4.601008e-01	 1.602816e+01
 1.324616e+00	 4.755928e-01	 1.597432e+01
 1.318960e+00	 4.910604e-01	 1.591257e+01
 1.313108e+00	 5.065000e-01	 1.584645e+01
 1.307061e+00	 5.219081e-01	 1.577955e+01
 1.300817e+00	 5.372811e-01	 1.571546e+01
 1.337077e+00	 4.625224e-01	 1.595886e+01
 1.331587e+00	 4.780959e-01	 1.590710e+01
 1.325902e+00	 4.936449e-01	 1.584737e+01
 1.320019e+00	 5.091658e-01	 1.578327e+01
 1.313940e+00	 5.246550e-01	 1.571848e+01
 1.307663e+00	 5.401088e-01	 1.565667e+01
 1.344077e+00	 4.649440e-01	 1.589117e+01
 1.338559e+00	 4.805991e-01	 1.584156e+01
 1.332844e+00	 4.962295e-01	 1.578381e+01
 1.326930e+00	 5.118316e-01	 1.572163e+01
 1.320819e+00	 5.274019e-01	 1.565882e+01
 1.314510e+00	 5.429366e-01	 1.559917e+01
 1.351077e+00	 4.673656e-01	 1.582484e+01
 1.345531e+00	 4.831022e-01	 1.577744e+01
 1.339786e+00	 4.988140e-01	 1.572161e+01
 1.333842e+00	 5.144974e-01	 1.566125e+01
 1.327698e+00	 5.301487e-01	 1.560029e+01
 1.321356e+00	 5.457644e-01	 1.554270e+01
 1.358078e+00	 4.697871e-01	 1.575963e+01
 1.352502e+00	 4.856053e-01	 1.571446e+01
 1.346728e+00	 5.013985e-01	 1.566052e+01
 1.340753e+00	 5.171632e-01	 1.560187e+01
 1.334578e+00	 5.328956e-01	 1.554264e+01
 1.328203e+00	 5.485922e-01	 1.548699e+01
 1.365078e+00	 4.722087e-01	 1.569528e+01
 1.359474e+00	 4.881084e-01	 1.565238e+01
 1.353669e+00	 5.039830e-01	 1.560027e+01
 1.347664e+00	 5.198290e-01	 1.554322e+01
 1.341457e+00	 5.356425e-01	 1.548560e+01
 1.335049e+00	 5.514200e-01	 1.543181e+01
 1.300817e+00	 5.372811e-01	 1.571546e+01
 1.294377e+00	 5.526153e-01	 1.564726e+01
 1.287741e+00	 5.679072e-01	 1.556948e+01
 1.280909e+00	 5.831532e-01	 1.548762e+01
 1.273881e+00	 5.983495e-01	 1.540695e+01
 1.266658e+00	 6.134926e-01	 1.533235e+01
 1.307663e+00	 5.401088e-01	 1.565667e+01
 1.301190e+00	 5.555238e-01	 1.559079e+01
 1.294519e+00	 5.708962e-01	 1.551543e+01
 1.287651e+00	 5.862224e-01	 1.543652e+01
 1.280586e+00	 6.014987e-01	 1.535969e+01
 1.273325e+00	 6.167215e-01	 1.529026e+01
 1.314510e+00	 5.429366e-01	 1.559917e+01
 1.308002e+00	 5.584323e-01	 1.553556e+01
 1.301296e+00	 5.738852e-01	 1.546265e+01
 1.294392e+00	 5.892916e-01	 1.538668e+01
 1.287291e+00	 6.046479e-01	 1.531367e+01
 1.279991e+00	 6.199504e-01	 1.524929e+01
 1.321356e+00	 5.457644e-01	 1.554270e+01
 1.314815e+00	 5.613408e-01	 1.548131e+01
 1.308074e+00	 5.768742e-01	 1.541083e+01
 1.301134e+00	 5.923609e-01	 1.533779e+01
 1.293995e+00	 6.077972e-01	 1.526851e+01
 1.286658e+00	 6.231793e-01	 1.520895e+01
 1.328203e+00	 5.485922e-01	 1.548699e+01
 1.321627e+00	 5.642493e-01	 1.542778e+01
 1.314851e+00	 5.798632e-01	 1.535969e+01
 1.307876e+00	 5.954301e-01	 1.528951e+01
 1.300700e+00	 6.109464e-01	 1.522379e+01
 1.293324e+00	 6.264083e-01	 1.516875e+01
 1.335049e+00	 5.514200e-01	 1.543181e+01
 1.328440e+00	 5.671578e-01	 1.537471e+01
 1.321629e+00	 5.828521e-01	 1.530896e+01
 1.314617e+00	 5.984993e-01	 1.524153e+01
 1.307404e+00	 6.140956e-01	 1.517915e+01
 1.299991e+00	 6.296372e-01	 1.512825e+01
 1.266658e+00	 6.134926e-01	 1.533235e+01
 1.259240e+00	 6.285788e-01	 1.525733e+01
 1.251627e+00	 6.436044e-01	 1.517139e+01
 1.243819e+00	 6.585657e-01	 1.507219e+01
 1.235819e+00	 6.734591e-01	 1.495628e+01
 1.227626e+00	 6.882809e-01	 1.481896e+01
 1.273325e+00	 6.167215e-01	 1.529026e+01
 1.265867e+00	 6.318871e-01	 1.522017e+01
 1.258214e+00	 6.469918e-01	 1.513707e+01
 1.250366e+00	 6.620318e-01	 1.503876e+01
 1.242323e+00	 6.770036e-01	 1.492187e+01
 1.234087e+00	 6.919034e-01	 1.478179e+01
 1.279991e+00	 6.199504e-01	 1.524929e+01
 1.272495e+00	 6.351954e-01	 1.518385e+01
 1.264802e+00	 6.503791e-01	 1.510330e+01
 1.256912e+00	 6.654979e-01	 1.500564e+01
 1.248828e+00	 6.805481e-01	 1.488775e+01
 1.240548e+00	 6.955259e-01	 1.474527e+01
 1.286658e+00	 6.231793e-01	 1.520895e+01
 1.279122e+00	 6.385037e-01	 1.514784e+01
 1.271389e+00	 6.537665e-01	 1.506953e+01
 1.263459e+00	 6.689641e-01	 1.497238e+01
 1.255332e+00	 6.840926e-01	 1.485361e+01
 1.247009e+00	 6.991485e-01	 1.470926e+01
 1.293324e+00	 6.264083e-01	 1.516875e+01
 1.285750e+00	 6.418120e-01	 1.511159e+01
 1.277977e+00	 6.571539e-01	 1.503524e+01
 1.270005e+00	 6.724302e-01	 1.493851e+01
 1.261836e+00	 6.876372e-01	 1.481914e+01
 1.253471e+00	 7.027710e-01	 1.467367e+01
 1.299991e+00	 6.296372e-01	 1.512825e+01
 1.292377e+00	 6.451203e-01	 1.507459e+01
 1.284564e+00	 6.605413e-01	 1.499992e+01
 1.276552e+00	 6.758964e-01	 1.490361e+01
 1.268341e+00	 6.911817e-01	 1.478403e+01
 1.259932e+00	 7.063935e-01	 1.463839e+01
 1.227626e+00	 6.882809e-01	 1.481896e+01
 1.219241e+00	 7.030274e-01	 1.468547e+01
 1.210665e+00	 7.176951e-01	 1.458565e+01
 1.201899e+00	 7.322802e-01	 1.452021e+01
 1.192944e+00	 7.467792e-01	 1.447559e+01
 1.183802e+00	 7.611885e-01	 1.433466e+01
 1.234087e+00	 6.919034e-01	 1.478179e+01
 1.225658e+00	 7.067276e-01	 1.464831e+01
 1.217037e+00	 7.214724e-01	 1.455628e+01
 1.208225e+00	 7.361344e-01	 1.450737e+01
 1.199223e+00	 7.507096e-01	 1.446586e+01
 1.190033e+00	 7.651947e-01	 1.431898e+01
 1.240548e+00	 6.955259e-01	 1.474527e+01
 1.232075e+00	 7.104277e-01	 1.461270e+01
 1.223409e+00	 7.252498e-01	 1.452999e+01
 1.214551e+00	 7.399885e-01	 1.449952e+01
 1.205502e+00	 7.546401e-01	 1.445234e+01
 1.196263e+00	 7.692010e-01	 1.430175e+01
 1.247009e+00	 6.991485e-01	 1.470926e+01
 1.238492e+00	 7.141279e-01	 1.457872e+01
 1.229781e+00	 7.290271e-01	 1.450688e+01
 1.220876e+00	 7.438426e-01	 1.449328e+01
 1.211780e+00	 7.585705e-01	 1.443532e+01
 1.202494e+00	 7.732072e-01	 1.428304e+01
 1.253471e+00	 7.027710e-01	 1.467367e+01
 1.244909e+00	 7.178280e-01	 1.454642e+01
 1.236153e+00	 7.328045e-01	 1.448710e+01
 1.227202e+00	 7.476967e-01	 1.448195e+01
 1.218059e+00	 7.625009e-01	 1.441514e+01
 1.208724e+00	 7.772135e-01	 1.426303e+01
 1.259932e+00	 7.063935e-01	 1.463839e+01
 1.251326e+00	 7.215282e-01	 1.451588e+01
 1.242524e+00	 7.365818e-01	 1.447077e+01
 1.233528e+00	 7.515508e-01	 1.446584e+01
 1.224338e+00	 7.664313e-01	 1.439221e+01
 1.214955e+00	 7.812197e-01	 1.424192e+01
 1.183802e+00	 7.611885e-01	 1.433466e+01
 1.174474e+00	 7.755044e-01	 1.415041e+01
 1.164960e+00	 7.897233e-01	 1.399564e+01
 1.155264e+00	 8.038419e-01	 1.385832e+01
 1.145385e+00	 8.178565e-01	 1.372680e+01
 1.135326e+00	 8.317637e-01	 1.358992e+01
 1.190033e+00	 7.651947e-01	 1.431898e+01
 1.180655e+00	 7.795860e-01	 1.413534e+01
 1.171092e+00	 7.938798e-01	 1.398351e+01
 1.161344e+00	 8.080727e-01	 1.385028e+01
 1.151413e+00	 8.221610e-01	 1.372269e+01
 1.141301e+00	 8.361414e-01	 1.358823e+01
 1.196263e+00	 7.692010e-01	 1.430175e+01
 1.186837e+00	 7.836676e-01	 1.412026e+01
 1.177223e+00	 7.980362e-01	 1.397197e+01
 1.167424e+00	 8.123034e-01	 1.384272e+01
 1.157441e+00	 8.264655e-01	 1.371856e+01
 1.147277e+00	 8.405191e-01	 1.358589e+01
 1.202494e+00	 7.732072e-01	 1.428304e+01
 1.193018e+00	 7.877492e-01	 1.410505e+01
 1.183354e+00	 8.021927e-01	 1.396078e+01
 1.173505e+00	 8.165341e-01	 1.383541e+01
 1.163470e+00	 8.307700e-01	 1.371424e+01
 1.153252e+00	 8.448968e-01	 1.358290e+01
 1.208724e+00	 7.772135e-01	 1.426303e+01
 1.199200e+00	 7.918308e-01	 1.408968e+01
 1.189486e+00	 8.063491e-01	 1.394982e+01
 1.179585e+00	 8.207649e-01	 1.382820e+01
 1.169498e+00	 8.350746e-01	 1.370965e+01
 1.159227e+00	 8.492745e-01	 1.357932e+01
 1.214955e+00	 7.812197e-01	 1.424192e+01
 1.205381e+00	 7.959124e-01	 1.407418e+01
 1.195617e+00	 8.105055e-01	 1.393901e+01
 1.185665e+00	 8.249956e-01	 1.382099e+01
 1.175526e+00	 8.393791e-01	 1.370477e+01
 1.165203e+00	 8.536522e-01	 1.357526e+01
 1.135326e+00	 8.317637e-01	 1.358992e+01
 1.125088e+00	 8.455601e-01	 1.344645e+01
 1.114674e+00	 8.592421e-01	 1.330181e+01
 1.104085e+00	 8.728066e-01	 1.315326e+01
 1.093324e+00	 8.862501e-01	 1.299632e+01
 1.082391e+00	 8.995694e-01	 1.284149e+01
 1.141301e+00	 8.361414e-01	 1.358823e+01
 1.131010e+00	 8.500104e-01	 1.344583e+01
 1.120541e+00	 8.637645e-01	 1.330210e+01
 1.109896e+00	 8.774003e-01	 1.315736e+01
 1.099078e+00	 8.909146e-01	 1.300663e+01
 1.088088e+00	 9.043040e-01	 1.285501e+01
 1.147277e+00	 8.405191e-01	 1.358589e+01
 1.136931e+00	 8.544607e-01	 1.344437e+01
 1.126408e+00	 8.682868e-01	 1.330191e+01
 1.115707e+00	 8.819940e-01	 1.315880e+01
 1.104832e+00	 8.955791e-01	 1.301488e+01
 1.093785e+00	 9.090386e-01	 1.286800e+01
 1.153252e+00	 8.448968e-01	 1.358290e+01
 1.142853e+00	 8.589110e-01	 1.344218e+01
 1.132274e+00	 8.728091e-01	 1.330141e+01
 1.121518e+00	 8.865878e-01	 1.316045e+01
 1.110587e+00	 9.002435e-01	 1.302075e+01
 1.099481e+00	 9.137731e-01	 1.287999e+01
 1.159227e+00	 8.492745e-01	 1.357932e+01
 1.148774e+00	 8.633613e-01	 1.343948e+01
 1.138141e+00	 8.773315e-01	 1.330087e+01
 1.127329e+00	 8.911815e-01	 1.316262e+01
 1.116341e+00	 9.049080e-01	 1.302550e+01
 1.105178e+00	 9.185077e-01	 1.289055e+01
 1.165203e+00	 8.536522e-01	 1.357526e+01
 1.154696e+00	 8.678116e-01	 1.343653e+01
 1.144008e+00	 8.818538e-01	 1.330060e+01
 1.133140e+00	 8.957752e-01	 1.316561e+01
 1.122095e+00	 9.095725e-01	 1.303132e+01
 1.110875e+00	 9.232423e-01	 1.289933e+01
 1.082391e+00	 8.995694e-01	 1.284149e+01
 1.071290e+00	 9.127613e-01	 1.267659e+01
 1.060023e+00	 9.258225e-01	 1.248966e+01
 1.048592e+00	 9.387499e-01	 1.229556e+01
 1.036999e+00	 9.515406e-01	 1.211104e+01
 1.025247e+00	 9.641914e-01	 1.195453e+01
 1.088088e+00	 9.043040e-01	 1.285501e+01
 1.076928e+00	 9.175653e-01	 1.269147e+01
 1.065602e+00	 9.306952e-01	 1.250526e+01
 1.054110e+00	 9.436907e-01	 1.231174e+01
 1.042457e+00	 9.565487e-01	 1.212827e+01
 1.030643e+00	 9.692660e-01	 1.197392e+01
 1.093785e+00	 9.090386e-01	 1.286800e+01
 1.082567e+00	 9.223693e-01	 1.270668e+01
 1.071181e+00	 9.355680e-01	 1.252146e+01
 1.059629e+00	 9.486315e-01	 1.232843e+01
 1.047914e+00	 9.615568e-01	 1.214572e+01
 1.036039e+00	 9.743407e-01	 1.199332e+01
 1.099481e+00	 9.137731e-01	 1.287999e+01
 1.088205e+00	 9.271733e-01	 1.272159e+01
 1.076760e+00	 9.404407e-01	 1.253753e+01
 1.065148e+00	 9.535723e-01	 1.234482e+01
 1.053372e+00	 9.665649e-01	 1.216262e+01
 1.041435e+00	 9.794154e-01	 1.201203e+01
 1.105178e+00	 9.185077e-01	 1.289055e+01
 1.093844e+00	 9.319773e-01	 1.273559e+01
 1.082339e+00	 9.453135e-01	 1.255277e+01
 1.070667e+00	 9.585131e-01	 1.236020e+01
 1.058830e+00	 9.715730e-01	 1.217828e+01
 1.046831e+00	 9.844901e-01	 1.202944e+01
 1.110875e+00	 9.232423e-01	 1.289933e+01
 1.099482e+00	 9.367813e-01	 1.274819e+01
 1.087918e+00	 9.501862e-01	 1.256658e+01
 1.076186e+00	 9.634539e-01	 1.237392e+01
 1.064288e+00	 9.765811e-01	 1.219206e+01
 1.052227e+00	 9.895648e-01	 1.204498e+01
 1.025247e+00	 9.641914e-01	 1.195453e+01
 1.013338e+00	 9.766994e-01	 1.179191e+01
 1.001275e+00	 9.890617e-01	 1.159117e+01
 9.890617e-01	 1.001275e+00	 1.137560e+01
 9.766994e-01	 1.013338e+00	 1.116903e+01
 9.641914e-01	 1.025247e+00	 1.099554e+01
 1.030643e+00	 9.692660e-01	 1.197392e+01
 1.018671e+00	 9.818399e-01	 1.181430e+01
 1.006545e+00	 9.942673e-01	 1.161663e+01
 9.942673e-01	 1.006545e+00	 1.140423e+01
 9.818399e-01	 1.018671e+00	 1.120095e+01
 9.692660e-01	 1.030643e+00	 1.103093e+01
 1.036039e+00	 9.743407e-01	 1.199332e+01
 1.024005e+00	 9.869804e-01	 1.183663e+01
 1.011815e+00	 9.994729e-01	 1.164200e+01
 9.994729e-01	 1.011815e+00	 1.143268e+01
 9.869804e-01	 1.024005e+00	 1.123250e+01
 9.743407e-01	 1.036039e+00	 1.106558e+01
 1.041435e+00	 9.794154e-01	 1.201203e+01
 1.029338e+00	 9.921209e-01	 1.185829e+01
 1.017085e+00	 1.004678e+00	 1.166670e+01
 1.004678e+00	 1.017085e+00	 1.146038e+01
 9.921209e-01	 1.029338e+00	 1.126308e+01
 9.794154e-01	 1.041435e+00	 1.109881e+01
 1.046831e+00	 9.844901e-01	 1.202944e+01
 1.034671e+00	 9.972614e-01	 1.187874e+01
 1.022355e+00	 1.009884e+00	 1.169022e+01
 1.009884e+00	 1.022355e+00	 1.148683e+01
 9.972614e-01	 1.034671e+00	 1.129213e+01
 9.844901e-01	 1.046831e+00	 1.112999e+01
 1.052227e+00	 9.895648e-01	 1.204498e+01
 1.040005e+00	 1.002402e+00	 1.189748e+01
 1.027625e+00	 1.015090e+00	 1.171210e+01
 1.015090e+00	 1.027625e+00	 1.151155e+01
 1.002402e+00	 1.040005e+00	 1.131916e+01
 9.895648e-01	 1.052227e+00	 1.115856e+01
 9.641914e-01	 1.025247e+00	 1.099554e+01
 9.515406e-01	 1.036999e+00	 1.082715e+01
 9.387499e-01	 1.048592e+00	 1.062863e+01
 9.258225e-01	 1.060023e+00	 1.041227e+01
 9.127613e-01	 1.071290e+00	 1.018895e+01
 8.995694e-01	 1.082391e+00	 9.967892e+00
 9.692660e-01	 1.030643e+00	 1.103093e+01
 9.565487e-01	 1.042457e+00	 1.086409e+01
 9.436907e-01	 1.054110e+00	 1.066409e+01
 9.306952e-01	 1.065602e+00	 1.044482e+01
 9.175653e-01	 1.076928e+00	 1.021879e+01
 9.043040e-01	 1.088088e+00	 9.996846e+00
 9.743407e-01	 1.036039e+00	 1.106558e+01
 9.615568e-01	 1.047914e+00	 1.089993e+01
 9.486315e-01	 1.059629e+00	 1.069850e+01
 9.355680e-01	 1.071181e+00	 1.047701e+01
 9.223693e-01	 1.082567e+00	 1.024980e+01
 9.090386e-01	 1.093785e+00	 1.002956e+01
 9.794154e-01	 1.041435e+00	 1.109881e+01
 9.665649e-01	 1.053372e+00	 1.093393e+01
 9.535723e-01	 1.065148e+00	 1.073113e+01
 9.404407e-01	 1.076760e+00	 1.050813e+01
 9.271733e-01	 1.088205e+00	 1.028134e+01
 9.137731e-01	 1.099481e+00	 1.006552e+01
 9.844901e-01	 1.046831e+00	 1.112999e+01
 9.715730e-01	 1.058830e+00	 1.096541e+01
 9.585131e-01	 1.070667e+00	 1.076125e+01
 9.453135e-01	 1.082339e+00	 1.053749e+01
 9.319773e-01	 1.093844e+00	 1.031280e+01
 9.185077e-01	 1.105178e+00	 1.010423e+01
 9.895648e-01	 1.052227e+00	 1.115856e+01
 9.765811e-01	 1.064288e+00	 1.099372e+01
 9.634539e-01	 1.076186e+00	 1.078822e+01
 9.501862e-01	 1.087918e+00	 1.056446e+01
 9.367813e-01	 1.099482e+00	 1.034361e+01
 9.232423e-01	 1.110875e+00	 1.014524e+01
 8.995694e-01	 1.082391e+00	 9.967892e+00
 8.862501e-01	 1.093324e+00	 9.743950e+00
 8.728066e-01	 1.104085e+00	 9.527584e+00
 8.592421e-01	 1.114674e+00	 9.343750e+00
 8.455601e-01	 1.125088e+00	 9.150108e+00
 8.317637e-01	 1.135326e+00	 8.933063e+00
 9.043040e-01	 1.088088e+00	 9.996846e+00
 8.909146e-01	 1.099078e+00	 9.779435e+00
 8.774003e-01	 1.109896e+00	 9.581862e+00
 8.637645e-01	 1.120541e+00	 9.400467e+00
 8.500104e-01	 1.131010e+00	 9.197691e+00
 8.361414e-01	 1.141301e+00	 8.976878e+00
 9.090386e-01	 1.093785e+00	 1.002956e+01
 8.955791e-01	 1.104832e+00	 9.822269e+00
 8.819940e-01	 1.115707e+00	 9.640633e+00
 8.682868e-01	 1.126408e+00	 9.449311e+00
 8.544607e-01	 1.136931e+00	 9.240925e+00
 8.405191e-01	 1.147277e+00	 9.018744e+00
 9.137731e-01	 1.099481e+00	 1.006552e+01
 9.002435e-01	 1.110587e+00	 9.872015e+00
 8.865878e-01	 1.121518e+00	 9.690124e+00
 8.728091e-01	 1.132274e+00	 9.492374e+00
 8.589110e-01	 1.142853e+00	 9.281629e+00
 8.448968e-01	 1.153252e+00	 9.060101e+00
 9.185077e-01	 1.105178e+00	 1.010423e+01
 9.049080e-01	 1.116341e+00	 9.921149e+00
 8.911815e-01	 1.127329e+00	 9.732090e+00
 8.773315e-01	 1.138141e+00	 9.531760e+00
 8.633613e-01	 1.148774e+00	 9.321639e+00
 8.492745e-01	 1.159227e+00	 9.102413e+00
 9.232423e-01	 1.110875e+00	 1.014524e+01
 9.095725e-01	 1.122095e+00	 9.960881e+00
 8.957752e-01	 1.133140e+00	 9.768799e+00
 8.818538e-01	 1.144008e+00	 9.569585e+00
 8.678116e-01	 1.154696e+00	 9.362810e+00
 8.536522e-01	 1.165203e+00	 9.147171e+00
 8.317637e-01	 1.135326e+00	 8.933063e+00
 8.178565e-01	 1.145385e+00	 8.714466e+00
 8.038419e-01	 1.155264e+00	 8.505042e+00
 7.897233e-01	 1.164960e+00	 8.291252e+00
 7.755044e-01	 1.174474e+00	 8.059129e+00
 7.611885e-01	 1.183802e+00	 7.794433e+00
 8.361414e-01	 1.141301e+00	 8.976878e+00
 8.221610e-01	 1.151413e+00	 8.757833e+00
 8.080727e-01	 1.161344e+00	 8.549210e+00
 7.938798e-01	 1.171092e+00	 8.337318e+00
 7.795860e-01	 1.180655e+00	 8.108049e+00
 7.651947e-01	 1.190033e+00	 7.847037e+00
 8.405191e-01	 1.147277e+00	 9.018744e+00
 8.264655e-01	 1.157441e+00	 8.800322e+00
 8.123034e-01	 1.167424e+00	 8.592613e+00
 7.980362e-01	 1.177223e+00	 8.382156e+00
 7.836676e-01	 1.186837e+00	 8.155095e+00
 7.692010e-01	 1.196263e+00	 7.897340e+00
 8.448968e-01	 1.153252e+00	 9.060101e+00
 8.307700e-01	 1.163470e+00	 8.842997e+00
 8.165341e-01	 1.173505e+00	 8.636040e+00
 8.021927e-01	 1.183354e+00	 8.426377e+00
 7.877492e-01	 1.193018e+00	 8.200790e+00
 7.732072e-01	 1.202494e+00	 7.945863e+00
 8.492745e-01	 1.159227e+00	 9.102413e+00
 8.350746e-01	 1.169498e+00	 8.886951e+00
 8.207649e-01	 1.179585e+00	 8.680317e+00
 8.063491e-01	 1.189486e+00	 8.470635e+00
 7.918308e-01	 1.199200e+00	 8.245705e+00
 7.772135e-01	 1.208724e+00	 7.993171e+00
 8.536522e-01	 1.165203e+00	 9.147171e+00
 8.393791e-01	 1.175526e+00	 8.933314e+00
 8.249956e-01	 1.185665e+00	 8.726310e+00
 8.105055e-01	 1.195617e+00	 8.515625e+00
 7.959124e-01	 1.205381e+00	 8.290449e+00
 7.812197e-01	 1.214955e+00	 8.039874e+00
 7.611885e-01	 1.183802e+00	 7.794433e+00
 7.467792e-01	 1.192944e+00	 7.548420e+00
 7.322802e-01	 1.201899e+00	 7.360409e+00
 7.176951e-01	 1.210665e+00	 7.190219e+00
 7.030274e-01	 1.219241e+00	 7.007635e+00
 6.882809e-01	 1.227626e+00	 6.784960e+00
 7.651947e-01	 1.190033e+00	 7.847037e+00
 7.507096e-01	 1.199223e+00	 7.603899e+00
 7.361344e-01	 1.208225e+00	 7.418104e+00
 7.214724e-01	 1.217037e+00	 7.250011e+00
 7.067276e-01	 1.225658e+00	 7.067144e+00
 6.919034e-01	 1.234087e+00	 6.841706e+00
 7.692010e-01	 1.196263e+00	 7.897340e+00
 7.546401e-01	 1.205502e+00	 7.657033e+00
 7.399885e-01	 1.214551e+00	 7.472557e+00
 7.252498e-01	 1.223409e+00	 7.306756e+00
 7.104277e-01	 1.232075e+00	 7.123867e+00
 6.955259e-01	 1.240548e+00	 6.895936e+00
 7.732072e-01	 1.202494e+00	 7.945863e+00
 7.585705e-01	 1.211780e+00	 7.708377e+00
 7.438426e-01	 1.220876e+00	 7.524738e+00
 7.290271e-01	 1.229781e+00	 7.361148e+00
 7.141279e-01	 1.238492e+00	 7.178538e+00
 6.991485e-01	 1.247009e+00	 6.948422e+00
 7.772135e-01	 1.208724e+00	 7.993171e+00
 7.625009e-01	 1.218059e+00	 7.758529e+00
 7.476967e-01	 1.227202e+00	 7.575956e+00
 7.328045e-01	 1.236153e+00	 7.413909e+00
 7.178280e-01	 1.244909e+00	 7.231925e+00
 7.027710e-01	 1.253471e+00	 6.999966e+00
 7.812197e-01	 1.214955e+00	 8.039874e+00
 7.664313e-01	 1.224338e+00	 7.808130e+00
 7.515508e-01	 1.233528e+00	 7.626896e+00
 7.365818e-01	 1.242524e+00	 7.465797e+00
 7.215282e-01	 1.251326e+00	 7.284823e+00
 7.063935e-01	 1.259932e+00	 7.051400e+00
 6.882809e-01	 1.227626e+00	 6.784960e+00
 6.734591e-01	 1.235819e+00	 6.543829e+00
 6.585657e-01	 1.243819e+00	 6.318875e+00
 6.436044e-01	 1.251627e+00	 6.104239e+00
 6.285788e-01	 1.259240e+00	 5.895852e+00
 6.134926e-01	 1.266658e+00	 5.691399e+00
 6.919034e-01	 1.234087e+00	 6.841706e+00
 6.770036e-01	 1.242323e+00	 6.597923e+00
 6.620318e-01	 1.250366e+00	 6.372528e+00
 6.469918e-01	 1.258214e+00	 6.158882e+00
 6.318871e-01	 1.265867e+00	 5.952172e+00
 6.167215e-01	 1.273325e+00	 5.749380e+00
 6.955259e-01	 1.240548e+00	 6.895936e+00
 6.805481e-01	 1.248828e+00	 6.649716e+00
 6.654979e-01	 1.256912e+00	 6.424022e+00
 6.503791e-01	 1.264802e+00	 6.211450e+00
 6.351954e-01	 1.272495e+00	 6.006460e+00
 6.199504e-01	 1.279991e+00	 5.805343e+00
 6.991485e-01	 1.247009e+00	 6.948422e+00
 6.840926e-01	 1.255332e+00	 6.700008e+00
 6.689641e-01	 1.263459e+00	 6.474175e+00
 6.537665e-01	 1.271389e+00	 6.262765e+00
 6.385037e-01	 1.279122e+00	 6.059525e+00
 6.231793e-01	 1.286658e+00	 5.860075e+00
 7.027710e-01	 1.253471e+00	 6.999966e+00
 6.876372e-01	 1.261836e+00	 6.749630e+00
 6.724302e-01	 1.270005e+00	 6.523831e+00
 6.571539e-01	 1.277977e+00	 6.313673e+00
 6.418120e-01	 1.285750e+00	 6.112205e+00
 6.264083e-01	 1.293324e+00	 5.914392e+00
 7.063935e-01	 1.259932e+00	 7.051400e+00
 6.911817e-01	 1.268341e+00	 6.799442e+00
 6.758964e-01	 1.276552e+00	 6.573865e+00
 6.605413e-01	 1.284564e+00	 6.365052e+00
 6.451203e-01	 1.292377e+00	 6.165368e+00
 6.296372e-01	 1.299991e+00	 5.969138e+00
 6.134926e-01	 1.266658e+00	 5.691399e+00
 5.983495e-01	 1.273881e+00	 5.490323e+00
 5.831532e-01	 1.280909e+00	 5.291592e+00
 5.679072e-01	 1.287741e+00	 5.094600e+00
 5.526153e-01	 1.294377e+00	 4.900194e+00
 5.372811e-01	 1.300817e+00	 4.710584e+00
 6.167215e-01	 1.273325e+00	 5.749380e+00
 6.014987e-01	 1.280586e+00	 5.549188e+00
 5.862224e-01	 1.287651e+00	 5.350525e+00
 5.708962e-01	 1.294519e+00	 5.153234e+00
 5.555238e-01	 1.301190e+00	 4.958657e+00
 5.401088e-01	 1.307663e+00	 4.769540e+00
 6.199504e-01	 1.279991e+00	 5.805343e+00
 6.046479e-01	 1.287291e+00	 5.606107e+00
 5.892916e-01	 1.294392e+00	 5.407680e+00
 5.738852e-01	 1.301296e+00	 5.210294e+00
 5.584323e-01	 1.308002e+00	 5.015725e+00
 5.429366e-01	 1.314510e+00	 4.827199e+00
 6.231793e-01	 1.286658e+00	 5.860075e+00
 6.077972e-01	 1.293995e+00	 5.661829e+00
 5.923609e-01	 1.301134e+00	 5.463746e+00
 5.768742e-01	 1.308074e+00	 5.266388e+00
 5.613408e-01	 1.314815e+00	 5.071910e+00
 5.457644e-01	 1.321356e+00	 4.883958e+00
 6.264083e-01	 1.293324e+00	 5.914392e+00
 6.109464e-01	 1.300700e+00	 5.717131e+00
 5.954301e-01	 1.307876e+00	 5.519440e+00
 5.798632e-01	 1.314851e+00	 5.322155e+00
 5.642493e-01	 1.321627e+00	 5.127753e+00
 5.485922e-01	 1.328203e+00	 4.940245e+00
 6.296372e-01	 1.299991e+00	 5.969138e+00
 6.140956e-01	 1.307404e+00	 5.772816e+00
 5.984993e-01	 1.314617e+00	 5.575505e+00
 5.828521e-01	 1.321629e+00	 5.378259e+00
 5.671578e-01	 1.328440e+00	 5.183822e+00
 5.514200e-01	 1.335049e+00	 4.996516e+00
 5.372811e-01	 1.300817e+00	 4.710584e+00
 5.219081e-01	 1.307061e+00	 4.528857e+00
 5.065000e-01	 1.313108e+00	 4.352410e+00
 4.910604e-01	 1.318960e+00	 4.176576e+00
 4.755928e-01	 1.324616e+00	 3.997517e+00
 4.601008e-01	 1.330076e+00	 3.812128e+00
 5.401088e-01	 1.307663e+00	 4.769540e+00
 5.246550e-01	 1.313940e+00	 4.588399e+00
 5.091658e-01	 1.320019e+00	 4.411761e+00
 4.936449e-01	 1.325902e+00	 4.235090e+00
 4.780959e-01	 1.331587e+00	 4.054712e+00
 4.625224e-01	 1.337077e+00	 3.867701e+00
 5.429366e-01	 1.314510e+00	 4.827199e+00
 5.274019e-01	 1.320819e+00	 4.646600e+00
 5.118316e-01	 1.326930e+00	 4.469639e+00
 4.962295e-01	 1.332844e+00	 4.292036e+00
 4.805991e-01	 1.338559e+00	 4.110400e+00
 4.649440e-01	 1.344077e+00	 3.922111e+00
 5.457644e-01	 1.321356e+00	 4.883958e+00
 5.301487e-01	 1.327698e+00	 4.703741e+00
 5.144974e-01	 1.333842e+00	 4.526226e+00
 4.988140e-01	 1.339786e+00	 4.347508e+00
 4.831022e-01	 1.345531e+00	 4.164600e+00
 4.673656e-01	 1.351077e+00	 3.975309e+00
 5.485922e-01	 1.328203e+00	 4.940245e+00
 5.328956e-01	 1.334578e+00	 4.760136e+00
 5.171632e-01	 1.340753e+00	 4.581735e+00
 5.013985e-01	 1.346728e+00	 4.401631e+00
 4.856053e-01	 1.352502e+00	 4.217358e+00
 4.697871e-01	 1.358078e+00	 4.027274e+00
 5.514200e-01	 1.335049e+00	 4.996516e+00
 5.356425e-01	 1.341457e+00	 4.816128e+00
 5.198290e-01	 1.347664e+00	 4.636409e+00
 5.039830e-01	 1.353669e+00	 4.454558e+00
 4.881084e-01	 1.359474e+00	 4.268751e+00
 4.722087e-01	 1.365078e+00	 4.078014e+00
 4.601008e-01	 1.330076e+00	 3.812128e+00
 4.445879e-01	 1.335342e+00	 3.619961e+00
 4.290575e-01	 1.340412e+00	 3.431752e+00
 4.135131e-01	 1.345289e+00	 3.261932e+00
 3.979581e-01	 1.349972e+00	 3.125185e+00
 3.823960e-01	 1.354463e+00	 3.036296e+00
 4.625224e-01	 1.337077e+00	 3.867701e+00
 4.469278e-01	 1.342370e+00	 3.674785e+00
 4.313157e-01	 1.347467e+00	 3.487212e+00
 4.156895e-01	 1.352369e+00	 3.318624e+00
 4.000526e-01	 1.357077e+00	 3.182920e+00
 3.844086e-01	 1.361591e+00	 3.094096e+00
 4.649440e-01	 1.344077e+00	 3.922111e+00
 4.492677e-01	 1.349398e+00	 3.729064e+00
 4.335739e-01	 1.354522e+00	 3.542842e+00
 4.178659e-01	 1.359450e+00	 3.376156e+00
 4.021472e-01	 1.364182e+00	 3.241981e+00
 3.864212e-01	 1.368720e+00	 3.153393e+00
 4.673656e-01	 1.351077e+00	 3.975309e+00
 4.516077e-01	 1.356426e+00	 3.782682e+00
 4.358321e-01	 1.361577e+00	 3.598444e+00
 4.200423e-01	 1.366530e+00	 3.434242e+00
 4.042417e-01	 1.371288e+00	 3.301994e+00
 3.884338e-01	 1.375849e+00	 3.213719e+00
 4.697871e-01	 1.358078e+00	 4.027274e+00
 4.539476e-01	 1.363454e+00	 3.835548e+00
 4.380903e-01	 1.368632e+00	 3.653849e+00
 4.222186e-01	 1.373611e+00	 3.492628e+00
 4.063362e-01	 1.378393e+00	 3.362610e+00
 3.904464e-01	 1.382978e+00	 3.274632e+00
 4.722087e-01	 1.365078e+00	 4.078014e+00
 4.562876e-01	 1.370482e+00	 3.887601e+00
 4.403485e-01	 1.375686e+00	 3.708915e+00
 4.243950e-01	 1.380691e+00	 3.551081e+00
 4.084307e-01	 1.385498e+00	 3.423505e+00
 3.924590e-01	 1.390106e+00	 3.335713e+00
 3.823960e-01	 1.354463e+00	 3.036296e+00
 3.668299e-01	 1.358761e+00	 2.944989e+00
 3.512634e-01	 1.362868e+00	 2.796133e+00
 3.356995e-01	 1.366785e+00	 2.617132e+00
 3.201416e-01	 1.370513e+00	 2.440398e+00
 3.045929e-01	 1.374052e+00	 2.296110e+00
 3.844086e-01	 1.361591e+00	 3.094096e+00
 3.687606e-01	 1.365912e+00	 3.001713e+00
 3.531121e-01	 1.370041e+00	 2.851796e+00
 3.374664e-01	 1.373979e+00	 2.670434e+00
 3.218266e-01	 1.377726e+00	 2.491688e+00
 3.061960e-01	 1.381284e+00	 2.347236e+00
 3.864212e-01	 1.368720e+00	 3.153393e+00
 3.706913e-01	 1.373064e+00	 3.059584e+00
 3.549609e-01	 1.377214e+00	 2.908951e+00
 3.392332e-01	 1.381172e+00	 2.725557e+00
 3.235116e-01	 1.384939e+00	 2.545045e+00
 3.077991e-01	 1.388516e+00	 2.400512e+00
 3.884338e-01	 1.375849e+00	 3.213719e+00
 3.726220e-01	 1.380215e+00	 3.118191e+00
 3.568096e-01	 1.384387e+00	 2.966811e+00
 3.410001e-01	 1.388366e+00	 2.781567e+00
 3.251965e-01	 1.392152e+00	 2.599386e+00
 3.094022e-01	 1.395748e+00	 2.454713e+00
 3.904464e-01	 1.382978e+00	 3.274632e+00
 3.745527e-01	 1.387366e+00	 3.177092e+00
 3.586584e-01	 1.391560e+00	 3.024620e+00
 3.427669e-01	 1.395559e+00	 2.837553e+00
 3.268815e-01	 1.399366e+00	 2.653650e+00
 3.110054e-01	 1.402979e+00	 2.508629e+00
 3.924590e-01	 1.390106e+00	 3.335713e+00
 3.764834e-01	 1.394518e+00	 3.235768e+00
 3.605072e-01	 1.398733e+00	 3.081645e+00
 3.445337e-01	 1.402753e+00	 2.892626e+00
 3.285664e-01	 1.406579e+00	 2.706795e+00
 3.126085e-01	 1.410211e+00	 2.561071e+00
 3.045929e-01	 1.374052e+00	 2.296110e+00
 2.890564e-01	 1.377404e+00	 2.186402e+00
 2.735353e-01	 1.380570e+00	 2.092104e+00
 2.580325e-01	 1.383552e+00	 2.008332e+00
 2.425512e-01	 1.386349e+00	 1.928429e+00
 2.270943e-01	 1.388965e+00	 1.844156e+00
 3.061960e-01	 1.381284e+00	 2.347236e+00
 2.905777e-01	 1.384654e+00	 2.238857e+00
 2.749749e-01	 1.387836e+00	 2.145999e+00
 2.593906e-01	 1.390833e+00	 2.063520e+00
 2.438278e-01	 1.393646e+00	 1.984394e+00
 2.282895e-01	 1.396275e+00	 1.899909e+00
 3.077991e-01	 1.388516e+00	 2.400512e+00
 2.920991e-01	 1.391903e+00	 2.293286e+00
 2.764146e-01	 1.395103e+00	 2.201472e+00
 2.607487e-01	 1.398115e+00	 2.119810e+00
 2.451044e-01	 1.400942e+00	 2.041035e+00
 2.294847e-01	 1.403586e+00	 1.956098e+00
 3.094022e-01	 1.395748e+00	 2.454713e+00
 2.936204e-01	 1.399153e+00	 2.348350e+00
 2.778542e-01	 1.402369e+00	 2.257134e+00
 2.621067e-01	 1.405397e+00	 2.175819e+00
 2.463810e-01	 1.408239e+00	 2.097033e+00
 2.306800e-01	 1.410896e+00	 2.011512e+00
 3.110054e-01	 1.402979e+00	 2.508629e+00
 2.951418e-01	 1.406402e+00	 2.402727e+00
 2.792939e-01	 1.409635e+00	 2.311612e+00
 2.634648e-01	 1.412679e+00	 2.230178e+00
 2.476576e-01	 1.415536e+00	 2.151075e+00
 2.318752e-01	 1.418206e+00	 2.064941e+00
 3.126085e-01	 1.410211e+00	 2.561071e+00
 2.966631e-01	 1.413652e+00	 2.455110e+00
 2.807336e-01	 1.416901e+00	 2.363543e+00
 2.648229e-01	 1.419961e+00	 2.281529e+00
 2.489342e-01	 1.422832e+00	 2.201854e+00
 2.330704e-01	 1.425517e+00	 2.115182e+00
 2.270943e-01	 1.388965e+00	 1.844156e+00
 2.116645e-01	 1.391400e+00	 1.752872e+00
 1.962649e-01	 1.393656e+00	 1.661825e+00
 1.808981e-01	 1.395733e+00	 1.575767e+00
 1.655669e-01	 1.397635e+00	 1.498593e+00
 1.502741e-01	 1.399362e+00	 1.433559e+00
 2.282895e-01	 1.396275e+00	 1.899909e+00
 2.127785e-01	 1.398723e+00	 1.807616e+00
 1.972978e-01	 1.400991e+00	 1.715482e+00
 1.818502e-01	 1.403079e+00	 1.628460e+00
 1.664383e-01	 1.404991e+00	 1.550591e+00
 1.510650e-01	 1.406727e+00	 1.485238e+00
 2.294847e-01	 1.403586e+00	 1.956098e+00
 2.138926e-01	 1.406046e+00	 1.862848e+00
 1.983308e-01	 1.408326e+00	 1.769910e+00
 1.828023e-01	 1.410425e+00	 1.682314e+00
 1.673097e-01	 1.412347e+00	 1.604121e+00
 1.518559e-01	 1.414092e+00	 1.538668e+00
 2.306800e-01	 1.410896e+00	 2.011512e+00
 2.150066e-01	 1.413369e+00	 1.917483e+00
 1.993638e-01	 1.415661e+00	 1.824147e+00
 1.837544e-01	 1.417771e+00	 1.736486e+00
 1.681811e-01	 1.419703e+00	 1.658449e+00
 1.526468e-01	 1.421457e+00	 1.593222e+00
 2.318752e-01	 1.418206e+00	 2.064941e+00
 2.161206e-01	 1.420693e+00	 1.970439e+00
 2.003968e-01	 1.422996e+00	 1.877233e+00
 1.847065e-01	 1.425117e+00	 1.790129e+00
 1.690526e-01	 1.427059e+00	 1.712841e+00
 1.534377e-01	 1.428822e+00	 1.648266e+00
 2.330704e-01	 1.425517e+00	 2.115182e+00
 2.172346e-01	 1.428016e+00	 2.020632e+00
 2.014297e-01	 1.430331e+00	 1.928202e+00
 1.856586e-01	 1.432463e+00	 1.842396e+00
 1.699240e-01	 1.434415e+00	 1.766556e+00
 1.542286e-01	 1.436187e+00	 1.703163e+00
 1.502741e-01	 1.399362e+00	 1.433559e+00
 1.350221e-01	 1.400916e+00	 1.379936e+00
 1.198136e-01	 1.402298e+00	 1.333828e+00
 1.046511e-01	 1.403511e+00	 1.293526e+00
 8.953704e-02	 1.404556e+00	 1.257659e+00
 7.447382e-02	 1.405436e+00	 1.225409e+00
 1.510650e-01	 1.406727e+00	 1.485238e+00
 1.357327e-01	 1.408289e+00	 1.431636e+00
 1.204442e-01	 1.409679e+00	 1.385728e+00
 1.052019e-01	 1.410898e+00	 1.345695e+00
 9.000829e-02	 1.411949e+00	 1.310069e+00
 7.486579e-02	 1.412833e+00	 1.277962e+00
 1.518559e-01	 1.414092e+00	 1.538668e+00
 1.364434e-01	 1.415662e+00	 1.485075e+00
 1.210748e-01	 1.417059e+00	 1.439174e+00
 1.057527e-01	 1.418285e+00	 1.399112e+00
 9.047954e-02	 1.419341e+00	 1.363398e+00
 7.525776e-02	 1.420230e+00	 1.331144e+00
 1.526468e-01	 1.421457e+00	 1.593222e+00
 1.371540e-01	 1.423035e+00	 1.539727e+00
 1.217054e-01	 1.424440e+00	 1.493742e+00
 1.063035e-01	 1.425672e+00	 1.453453e+00
 9.095079e-02	 1.426734e+00	 1.417413e+00
 7.564973e-02	 1.427627e+00	 1.384807e+00
 1.534377e-01	 1.428822e+00	 1.648266e+00
 1.378647e-01	 1.430409e+00	 1.595057e+00
 1.223360e-01	 1.431820e+00	 1.549003e+00
 1.068543e-01	 1.433059e+00	 1.508389e+00
 9.142203e-02	 1.434126e+00	 1.471882e+00
 7.604169e-02	 1.435024e+00	 1.438799e+00
 1.542286e-01	 1.436187e+00	 1.703163e+00
 1.385753e-01	 1.437782e+00	 1.650532e+00
 1.229666e-01	 1.439201e+00	 1.604525e+00
 1.074051e-01	 1.440446e+00	 1.563590e+00
 9.189328e-02	 1.441518e+00	 1.526568e+00
 7.643366e-02	 1.442421e+00	 1.492968e+00
 7.447382e-02	 1.405436e+00	 1.225409e+00
 5.946378e-02	 1.406151e+00	 1.197626e+00
 4.450918e-02	 1.406703e+00	 1.175264e+00
 2.961226e-02	 1.407096e+00	 1.159080e+00
 1.477517e-02	 1.407330e+00	 1.151132e+00
 0.000000e+00	 1.407407e+00	 1.154922e+00
 7.486579e-02	 1.412833e+00	 1.277962e+00
 5.977675e-02	 1.413551e+00	 1.250257e+00
 4.474344e-02	 1.414107e+00	 1.227945e+00
 2.976811e-02	 1.414502e+00	 1.211788e+00
 1.485293e-02	 1.414737e+00	 1.203922e+00
 0.000000e+00	 1.414815e+00	 1.207997e+00
 7.525776e-02	 1.420230e+00	 1.331144e+00
 6.008971e-02	 1.420952e+00	 1.303314e+00
 4.497770e-02	 1.421511e+00	 1.280907e+00
 2.992397e-02	 1.421907e+00	 1.264655e+00
 1.493069e-02	 1.422144e+00	 1.256733e+00
 0.000000e+00	 1.422222e+00	 1.260907e+00
 7.564973e-02	 1.427627e+00	 1.384807e+00
 6.040268e-02	 1.428353e+00	 1.356717e+00
 4.521196e-02	 1.428915e+00	 1.334123e+00
 3.007982e-02	 1.429313e+00	 1.317687e+00
 1.500846e-02	 1.429551e+00	 1.309586e+00
 0.000000e+00	 1.429630e+00	 1.313669e+00
 7.604169e-02	 1.435024e+00	 1.438799e+00
 6.071565e-02	 1.435754e+00	 1.410384e+00
 4.544622e-02	 1.436318e+00	 1.387566e+00
 3.023568e-02	 1.436719e+00	 1.370895e+00
 1.508622e-02	 1.436958e+00	 1.362508e+00
 0.000000e+00	 1.437037e+00	 1.366301e+00
 7.643366e-02	 1.442421e+00	 1.492968e+00
 6.102861e-02	 1.443155e+00	 1.464233e+00
 4.568048e-02	 1.443722e+00	 1.441208e+00
 3.039153e-02	 1.444125e+00	 1.424287e+00
 1.516399e-02	 1.444365e+00	 1.415526e+00
 0.000000e+00	 1.444444e+00	 1.418825e+00
 1.444444e+00	 0.000000e+00	 1.619289e+01
 1.444365e+00	 1.516399e-02	 1.619618e+01
 1.444125e+00	 3.039153e-02	 1.619716e+01
 1.443722e+00	 4.568048e-02	 1.619582e+01
 1.443155e+00	 6.102861e-02	 1.619179e+01
 1.442421e+00	 7.643366e-02	 1.618443e+01
 1.451852e+00	 0.000000e+00	 1.609622e+01
 1.451772e+00	 1.524175e-02	 1.609961e+01
 1.451530e+00	 3.054738e-02	 1.610068e+01
 1.451126e+00	 4.591474e-02	 1.609946e+01
 1.450555e+00	 6.134158e-02	 1.609561e+01
 1.449818e+00	 7.682563e-02	 1.608848e+01
 1.459259e+00	 0.000000e+00	 1.600184e+01
 1.459179e+00	 1.531951e-02	 1.600534e+01
 1.458936e+00	 3.070324e-02	 1.600652e+01
 1.458529e+00	 4.614900e-02	 1.600545e+01
 1.457956e+00	 6.165455e-02	 1.600181e+01
 1.457215e+00	 7.721760e-02	 1.599498e+01
 1.466667e+00	 0.000000e+00	 1.590964e+01
 1.466586e+00	 1.539728e-02	 1.591326e+01
 1.466342e+00	 3.085909e-02	 1.591458e+01
 1.465933e+00	 4.638326e-02	 1.591370e+01
 1.465357e+00	 6.196752e-02	 1.591035e+01
 1.464612e+00	 7.760956e-02	 1.590390e+01
 1.474074e+00	 0.000000e+00	 1.581952e+01
 1.473993e+00	 1.547504e-02	 1.582326e+01
 1.473748e+00	 3.101495e-02	 1.582474e+01
 1.473337e+00	 4.661751e-02	 1.582413e+01
 1.472758e+00	 6.228048e-02	 1.582116e+01
 1.472009e+00	 7.800153e-02	 1.581522e+01
 1.481481e+00	 0.000000e+00	 1.573138e+01
 1.481400e+00	 1.555281e-02	 1.573524e+01
 1.481154e+00	 3.117080e-02	 1.573691e+01
 1.480740e+00	 4.685177e-02	 1.573664e+01
 1.480159e+00	 6.259345e-02	 1.573417e+01
 1.479406e+00	 7.839350e-02	 1.572891e+01
 1.442421e+00	 7.643366e-02	 1.618443e+01
 1.441518e+00	 9.189328e-02	 1.617644e+01
 1.440446e+00	 1.074051e-01	 1.617070e+01
 1.439201e+00	 1.229666e-01	 1.616646e+01
 1.437782e+00	 1.385753e-01	 1.616285e+01
 1.436187e+00	 1.542286e-01	 1.615891e+01
 1.449818e+00	 7.682563e-02	 1.608848e+01
 1.448911e+00	 9.236453e-02	 1.608076e+01
 1.447833e+00	 1.079559e-01	 1.607536e+01
 1.446581e+00	 1.235972e-01	 1.607157e+01
 1.445155e+00	 1.392859e-01	 1.606859e+01
 1.443552e+00	 1.550196e-01	 1.606549e+01
 1.457215e+00	 7.721760e-02	 1.599498e+01
 1.456303e+00	 9.283578e-02	 1.598759e+01
 1.455220e+00	 1.085067e-01	 1.598253e+01
 1.453962e+00	 1.242278e-01	 1.597919e+01
 1.452528e+00	 1.399966e-01	 1.597677e+01
 1.450917e+00	 1.558105e-01	 1.597438e+01
 1.464612e+00	 7.760956e-02	 1.590390e+01
 1.463696e+00	 9.330702e-02	 1.589693e+01
 1.462606e+00	 1.090575e-01	 1.589229e+01
 1.461342e+00	 1.248584e-01	 1.588940e+01
 1.459902e+00	 1.407072e-01	 1.588751e+01
 1.458282e+00	 1.566014e-01	 1.588573e+01
 1.472009e+00	 7.800153e-02	 1.581522e+01
 1.471088e+00	 9.377827e-02	 1.580879e+01
 1.469993e+00	 1.096083e-01	 1.580467e+01
 1.468723e+00	 1.254890e-01	 1.580230e+01
 1.467275e+00	 1.414179e-01	 1.580093e+01
 1.465647e+00	 1.573923e-01	 1.579969e+01
 1.479406e+00	 7.839350e-02	 1.572891e+01
 1.478480e+00	 9.424952e-02	 1.572319e+01
 1.477380e+00	 1.101591e-01	 1.571972e+01
 1.476103e+00	 1.261196e-01	 1.571796e+01
 1.474648e+00	 1.421285e-01	 1.571714e+01
 1.473012e+00	 1.581832e-01	 1.571641e+01
 1.436187e+00	 1.542286e-01	 1.615891e+01
 1.434415e+00	 1.699240e-01	 1.615269e+01
 1.432463e+00	 1.856586e-01	 1.614256e+01
 1.430331e+00	 2.014297e-01	 1.612803e+01
 1.428016e+00	 2.172346e-01	 1.610877e+01
 1.425517e+00	 2.330704e-01	 1.608463e+01
 1.443552e+00	 1.550196e-01	 1.606549e+01
 1.441771e+00	 1.707954e-01	 1.606030e+01
 1.439809e+00	 1.866107e-01	 1.605127e+01
 1.437666e+00	 2.024627e-01	 1.603782e+01
 1.435339e+00	 2.183487e-01	 1.601954e+01
 1.432827e+00	 2.342656e-01	 1.599620e+01
 1.450917e+00	 1.558105e-01	 1.597438e+01
 1.449127e+00	 1.716668e-01	 1.597004e+01
 1.447155e+00	 1.875628e-01	 1.596192e+01
 1.445001e+00	 2.034957e-01	 1.594939e+01
 1.442662e+00	 2.194627e-01	 1.593198e+01
 1.440137e+00	 2.354609e-01	 1.590940e+01
 1.458282e+00	 1.566014e-01	 1.588573e+01
 1.456483e+00	 1.725382e-01	 1.588208e+01
 1.454501e+00	 1.885149e-01	 1.587470e+01
 1.452336e+00	 2.045287e-01	 1.586291e+01
 1.449985e+00	 2.205767e-01	 1.584620e+01
 1.447448e+00	 2.366561e-01	 1.582429e+01
 1.465647e+00	 1.573923e-01	 1.579969e+01
 1.463839e+00	 1.734096e-01	 1.579660e+01
 1.461847e+00	 1.894670e-01	 1.578976e+01
 1.459671e+00	 2.055616e-01	 1.577851e+01
 1.457308e+00	 2.216907e-01	 1.576233e+01
 1.454758e+00	 2.378513e-01	 1.574092e+01
 1.473012e+00	 1.581832e-01	 1.571641e+01
 1.471195e+00	 1.742810e-01	 1.571374e+01
 1.469193e+00	 1.904191e-01	 1.570727e+01
 1.467006e+00	 2.065946e-01	 1.569635e+01
 1.464631e+00	 2.228048e-01	 1.568046e+01
 1.462068e+00	 2.390466e-01	 1.565933e+01
 1.425517e+00	 2.330704e-01	 1.608463e+01
 1.422832e+00	 2.489342e-01	 1.606246e+01
 1.419961e+00	 2.648229e-01	 1.604749e+01
 1.416901e+00	 2.807336e-01	 1.603761e+01
 1.413652e+00	 2.966631e-01	 1.603116e+01
 1.410211e+00	 3.126085e-01	 1.602700e+01
 1.432827e+00	 2.342656e-01	 1.599620e+01
 1.430129e+00	 2.502107e-01	 1.597495e+01
 1.427243e+00	 2.661809e-01	 1.596131e+01
 1.424167e+00	 2.821732e-01	 1.595312e+01
 1.420901e+00	 2.981845e-01	 1.594868e+01
 1.417443e+00	 3.142116e-01	 1.594681e+01
 1.440137e+00	 2.354609e-01	 1.590940e+01
 1.437425e+00	 2.514873e-01	 1.588908e+01
 1.434524e+00	 2.675390e-01	 1.587677e+01
 1.431433e+00	 2.836129e-01	 1.587026e+01
 1.428151e+00	 2.997058e-01	 1.586781e+01
 1.424675e+00	 3.158147e-01	 1.586819e+01
 1.447448e+00	 2.366561e-01	 1.582429e+01
 1.444722e+00	 2.527639e-01	 1.580484e+01
 1.441806e+00	 2.688971e-01	 1.579381e+01
 1.438699e+00	 2.850525e-01	 1.578895e+01
 1.435400e+00	 3.012272e-01	 1.578843e+01
 1.431907e+00	 3.174178e-01	 1.579100e+01
 1.454758e+00	 2.378513e-01	 1.574092e+01
 1.452019e+00	 2.540405e-01	 1.572220e+01
 1.449088e+00	 2.702551e-01	 1.571237e+01
 1.445966e+00	 2.864922e-01	 1.570906e+01
 1.442650e+00	 3.027485e-01	 1.571040e+01
 1.439139e+00	 3.190210e-01	 1.571510e+01
 1.462068e+00	 2.390466e-01	 1.565933e+01
 1.459315e+00	 2.553171e-01	 1.564117e+01
 1.456370e+00	 2.716132e-01	 1.563238e+01
 1.453232e+00	 2.879319e-01	 1.563051e+01
 1.449899e+00	 3.042699e-01	 1.563361e+01
 1.446370e+00	 3.206241e-01	 1.564033e+01
 1.410211e+00	 3.126085e-01	 1.602700e+01
 1.406579e+00	 3.285664e-01	 1.601165e+01
 1.402753e+00	 3.445337e-01	 1.597550e+01
 1.398733e+00	 3.605072e-01	 1.592397e+01
 1.394518e+00	 3.764834e-01	 1.586652e+01
 1.390106e+00	 3.924590e-01	 1.584457e+01
 1.417443e+00	 3.142116e-01	 1.594681e+01
 1.413792e+00	 3.302514e-01	 1.593325e+01
 1.409947e+00	 3.463006e-01	 1.589768e+01
 1.405906e+00	 3.623559e-01	 1.584563e+01
 1.401669e+00	 3.784140e-01	 1.578908e+01
 1.397235e+00	 3.944716e-01	 1.576948e+01
 1.424675e+00	 3.158147e-01	 1.586819e+01
 1.421005e+00	 3.319363e-01	 1.585642e+01
 1.417140e+00	 3.480674e-01	 1.582148e+01
 1.413079e+00	 3.642047e-01	 1.576901e+01
 1.408821e+00	 3.803447e-01	 1.571393e+01
 1.404364e+00	 3.964842e-01	 1.569643e+01
 1.431907e+00	 3.174178e-01	 1.579100e+01
 1.428218e+00	 3.336213e-01	 1.578101e+01
 1.424334e+00	 3.498343e-01	 1.574679e+01
 1.420252e+00	 3.660534e-01	 1.569402e+01
 1.415972e+00	 3.822754e-01	 1.564097e+01
 1.411493e+00	 3.984968e-01	 1.562541e+01
 1.439139e+00	 3.190210e-01	 1.571510e+01
 1.435432e+00	 3.353062e-01	 1.570687e+01
 1.431528e+00	 3.516011e-01	 1.567347e+01
 1.427425e+00	 3.679022e-01	 1.562055e+01
 1.423123e+00	 3.842061e-01	 1.557009e+01
 1.418621e+00	 4.005095e-01	 1.555638e+01
 1.446370e+00	 3.206241e-01	 1.564033e+01
 1.442645e+00	 3.369912e-01	 1.563387e+01
 1.438721e+00	 3.533679e-01	 1.560138e+01
 1.434598e+00	 3.697509e-01	 1.554851e+01
 1.430275e+00	 3.861368e-01	 1.550117e+01
 1.425750e+00	 4.025221e-01	 1.548929e+01
 1.390106e+00	 3.924590e-01	 1.584457e+01
 1.385498e+00	 4.084307e-01	 1.583673e+01
 1.380691e+00	 4.243950e-01	 1.581200e+01
 1.375686e+00	 4.403485e-01	 1.577608e+01
 1.370482e+00	 4.562876e-01	 1.573503e+01
 1.365078e+00	 4.722087e-01	 1.569528e+01
 1.397235e+00	 3.944716e-01	 1.576948e+01
 1.392603e+00	 4.105252e-01	 1.576345e+01
 1.387772e+00	 4.265714e-01	 1.574094e+01
 1.382741e+00	 4.426067e-01	 1.570750e+01
 1.377510e+00	 4.586275e-01	 1.566909e+01
 1.372079e+00	 4.746303e-01	 1.563201e+01
 1.404364e+00	 3.964842e-01	 1.569643e+01
 1.399708e+00	 4.126197e-01	 1.569196e+01
 1.394852e+00	 4.287478e-01	 1.567148e+01
 1.389796e+00	 4.448649e-01	 1.564039e+01
 1.384538e+00	 4.609674e-01	 1.560451e+01
 1.379079e+00	 4.770519e-01	 1.557005e+01
 1.411493e+00	 3.984968e-01	 1.562541e+01
 1.406813e+00	 4.147143e-01	 1.562233e+01
 1.401933e+00	 4.309242e-01	 1.560367e+01
 1.396851e+00	 4.471231e-01	 1.557473e+01
 1.391567e+00	 4.633074e-01	 1.554120e+01
 1.386079e+00	 4.794735e-01	 1.550915e+01
 1.418621e+00	 4.005095e-01	 1.555638e+01
 1.413918e+00	 4.168088e-01	 1.555456e+01
 1.409013e+00	 4.331006e-01	 1.553756e+01
 1.403906e+00	 4.493813e-01	 1.551052e+01
 1.398595e+00	 4.656473e-01	 1.547904e+01
 1.393080e+00	 4.818951e-01	 1.544906e+01
 1.425750e+00	 4.025221e-01	 1.548929e+01
 1.421023e+00	 4.189033e-01	 1.548869e+01
 1.416094e+00	 4.352769e-01	 1.547317e+01
 1.410960e+00	 4.516395e-01	 1.544777e+01
 1.405623e+00	 4.679872e-01	 1.541795e+01
 1.400080e+00	 4.843166e-01	 1.538953e+01
 1.365078e+00	 4.722087e-01	 1.569528e+01
 1.359474e+00	 4.881084e-01	 1.565238e+01
 1.353669e+00	 5.039830e-01	 1.560027e+01
 1.347664e+00	 5.198290e-01	 1.554322e+01
 1.341457e+00	 5.356425e-01	 1.548560e+01
 1.335049e+00	 5.514200e-01	 1.543181e+01
 1.372079e+00	 4.746303e-01	 1.563201e+01
 1.366446e+00	 4.906116e-01	 1.559144e+01
 1.360611e+00	 5.065676e-01	 1.554116e+01
 1.354575e+00	 5.224948e-01	 1.548568e+01
 1.348336e+00	 5.383894e-01	 1.542963e+01
 1.341895e+00	 5.542478e-01	 1.537767e+01
 1.379079e+00	 4.770519e-01	 1.557005e+01
 1.373417e+00	 4.931147e-01	 1.553180e+01
 1.367553e+00	 5.091521e-01	 1.548336e+01
 1.361486e+00	 5.251605e-01	 1.542948e+01
 1.355216e+00	 5.411363e-01	 1.537504e+01
 1.348742e+00	 5.570756e-01	 1.532499e+01
 1.386079e+00	 4.794735e-01	 1.550915e+01
 1.380389e+00	 4.956178e-01	 1.547305e+01
 1.374495e+00	 5.117366e-01	 1.542637e+01
 1.368397e+00	 5.278263e-01	 1.537410e+01
 1.362095e+00	 5.438832e-01	 1.532137e+01
 1.355588e+00	 5.599034e-01	 1.527341e+01
 1.393080e+00	 4.818951e-01	 1.544906e+01
 1.387361e+00	 4.981209e-01	 1.541480e+01
 1.381437e+00	 5.143212e-01	 1.536972e+01
 1.375308e+00	 5.304921e-01	 1.531903e+01
 1.368974e+00	 5.466301e-01	 1.526815e+01
 1.362435e+00	 5.627312e-01	 1.522260e+01
 1.400080e+00	 4.843166e-01	 1.538953e+01
 1.394332e+00	 5.006240e-01	 1.535666e+01
 1.388379e+00	 5.169057e-01	 1.531294e+01
 1.382219e+00	 5.331579e-01	 1.526381e+01
 1.375853e+00	 5.493769e-01	 1.521494e+01
 1.369281e+00	 5.655590e-01	 1.517220e+01
 1.335049e+00	 5.514200e-01	 1.543181e+01
 1.328440e+00	 5.671578e-01	 1.537471e+01
 1.321629e+00	 5.828521e-01	 1.530896e+01
 1.314617e+00	 5.984993e-01	 1.524153e+01
 1.307404e+00	 6.140956e-01	 1.517915e+01
 1.299991e+00	 6.296372e-01	 1.512825e+01
 1.341895e+00	 5.542478e-01	 1.537767e+01
 1.335252e+00	 5.700663e-01	 1.532265e+01
 1.328407e+00	 5.858411e-01	 1.525915e+01
 1.321359e+00	 6.015685e-01	 1.519431e+01
 1.314109e+00	 6.172448e-01	 1.513500e+01
 1.306658e+00	 6.328661e-01	 1.508781e+01
 1.348742e+00	 5.570756e-01	 1.532499e+01
 1.342065e+00	 5.729748e-01	 1.527211e+01
 1.335184e+00	 5.888301e-01	 1.521082e+01
 1.328100e+00	 6.046378e-01	 1.514837e+01
 1.320814e+00	 6.203940e-01	 1.509181e+01
 1.313324e+00	 6.360950e-01	 1.504785e+01
 1.355588e+00	 5.599034e-01	 1.527341e+01
 1.348877e+00	 5.758833e-01	 1.522284e+01
 1.341962e+00	 5.918191e-01	 1.516376e+01
 1.334842e+00	 6.077070e-01	 1.510355e+01
 1.327518e+00	 6.235432e-01	 1.504937e+01
 1.319991e+00	 6.393239e-01	 1.500804e+01
 1.362435e+00	 5.627312e-01	 1.522260e+01
 1.355690e+00	 5.787918e-01	 1.517461e+01
 1.348739e+00	 5.948081e-01	 1.511779e+01
 1.341584e+00	 6.107762e-01	 1.505965e+01
 1.334223e+00	 6.266924e-01	 1.500744e+01
 1.326658e+00	 6.425528e-01	 1.496807e+01
 1.369281e+00	 5.655590e-01	 1.517220e+01
 1.362502e+00	 5.817003e-01	 1.512719e+01
 1.355517e+00	 5.977971e-01	 1.507276e+01
 1.348325e+00	 6.138455e-01	 1.501653e+01
 1.340928e+00	 6.298416e-01	 1.496583e+01
 1.333324e+00	 6.457817e-01	 1.492763e+01
 1.299991e+00	 6.296372e-01	 1.512825e+01
 1.292377e+00	 6.451203e-01	 1.507459e+01
 1.284564e+00	 6.605413e-01	 1.499992e+01
 1.276552e+00	 6.758964e-01	 1.490361e+01
 1.268341e+00	 6.911817e-01	 1.478403e+01
 1.259932e+00	 7.063935e-01	 1.463839e+01
 1.306658e+00	 6.328661e-01	 1.508781e+01
 1.299005e+00	 6.484286e-01	 1.503723e+01
 1.291152e+00	 6.639287e-01	 1.496405e+01
 1.283098e+00	 6.793625e-01	 1.486832e+01
 1.274845e+00	 6.947262e-01	 1.474911e+01
 1.266393e+00	 7.100161e-01	 1.460439e+01
 1.313324e+00	 6.360950e-01	 1.504785e+01
 1.305633e+00	 6.517370e-01	 1.499993e+01
 1.297739e+00	 6.673161e-01	 1.492815e+01
 1.289644e+00	 6.828286e-01	 1.483328e+01
 1.281349e+00	 6.982707e-01	 1.471516e+01
 1.272854e+00	 7.136386e-01	 1.457258e+01
 1.319991e+00	 6.393239e-01	 1.500804e+01
 1.312260e+00	 6.550453e-01	 1.496226e+01
 1.304327e+00	 6.707035e-01	 1.489176e+01
 1.296191e+00	 6.862948e-01	 1.479808e+01
 1.287853e+00	 7.018152e-01	 1.468187e+01
 1.279315e+00	 7.172611e-01	 1.454285e+01
 1.326658e+00	 6.425528e-01	 1.496807e+01
 1.318888e+00	 6.583536e-01	 1.492381e+01
 1.310914e+00	 6.740909e-01	 1.485445e+01
 1.302737e+00	 6.897609e-01	 1.476233e+01
 1.294358e+00	 7.053598e-01	 1.464899e+01
 1.285776e+00	 7.208837e-01	 1.451511e+01
 1.333324e+00	 6.457817e-01	 1.492763e+01
 1.325515e+00	 6.616619e-01	 1.488421e+01
 1.317502e+00	 6.774783e-01	 1.481582e+01
 1.309284e+00	 6.932270e-01	 1.472567e+01
 1.300862e+00	 7.089043e-01	 1.461626e+01
 1.292238e+00	 7.245062e-01	 1.448927e+01
 1.259932e+00	 7.063935e-01	 1.463839e+01
 1.251326e+00	 7.215282e-01	 1.451588e+01
 1.242524e+00	 7.365818e-01	 1.447077e+01
 1.233528e+00	 7.515508e-01	 1.446584e+01
 1.224338e+00	 7.664313e-01	 1.439221e+01
 1.214955e+00	 7.812197e-01	 1.424192e+01
 1.266393e+00	 7.100161e-01	 1.460439e+01
 1.257743e+00	 7.252283e-01	 1.448808e+01
 1.248896e+00	 7.403592e-01	 1.445872e+01
 1.239854e+00	 7.554049e-01	 1.444592e+01
 1.230616e+00	 7.703617e-01	 1.436724e+01
 1.221185e+00	 7.852260e-01	 1.422009e+01
 1.272854e+00	 7.136386e-01	 1.457258e+01
 1.264160e+00	 7.289284e-01	 1.446396e+01
 1.255268e+00	 7.441365e-01	 1.444788e+01
 1.246180e+00	 7.592590e-01	 1.442317e+01
 1.236895e+00	 7.742922e-01	 1.434087e+01
 1.227416e+00	 7.892322e-01	 1.419784e+01
 1.279315e+00	 7.172611e-01	 1.454285e+01
 1.270577e+00	 7.326286e-01	 1.444355e+01
 1.261640e+00	 7.479138e-01	 1.443303e+01
 1.252505e+00	 7.631131e-01	 1.439811e+01
 1.243174e+00	 7.782226e-01	 1.431349e+01
 1.233647e+00	 7.932385e-01	 1.417534e+01
 1.285776e+00	 7.208837e-01	 1.451511e+01
 1.276994e+00	 7.363287e-01	 1.442691e+01
 1.268012e+00	 7.516912e-01	 1.441471e+01
 1.258831e+00	 7.669672e-01	 1.437131e+01
 1.249452e+00	 7.821530e-01	 1.428557e+01
 1.239877e+00	 7.972448e-01	 1.415283e+01
 1.292238e+00	 7.245062e-01	 1.448927e+01
 1.283411e+00	 7.400289e-01	 1.441411e+01
 1.274384e+00	 7.554685e-01	 1.439355e+01
 1.265157e+00	 7.708213e-01	 1.434341e+01
 1.255731e+00	 7.860834e-01	 1.425763e+01
 1.246108e+00	 8.012510e-01	 1.413059e+01
 1.214955e+00	 7.812197e-01	 1.424192e+01
 1.205381e+00	 7.959124e-01	 1.407418e+01
 1.195617e+00	 8.105055e-01	 1.393901e+01
 1.185665e+00	 8.249956e-01	 1.382099e+01
 1.175526e+00	 8.393791e-01	 1.370477e+01
 1.165203e+00	 8.536522e-01	 1.357526e+01
 1.221185e+00	 7.852260e-01	 1.422009e+01
 1.211562e+00	 7.999940e-01	 1.405869e+01
 1.201749e+00	 8.146620e-01	 1.392841e+01
 1.191746e+00	 8.292264e-01	 1.381385e+01
 1.181555e+00	 8.436836e-01	 1.369966e+01
 1.171178e+00	 8.580299e-01	 1.357070e+01
 1.227416e+00	 7.892322e-01	 1.419784e+01
 1.217744e+00	 8.040756e-01	 1.404327e+01
 1.207880e+00	 8.188184e-01	 1.391800e+01
 1.197826e+00	 8.334571e-01	 1.380674e+01
 1.187583e+00	 8.479881e-01	 1.369426e+01
 1.177154e+00	 8.624076e-01	 1.356554e+01
 1.233647e+00	 7.932385e-01	 1.417534e+01
 1.223925e+00	 8.081572e-01	 1.402787e+01
 1.214011e+00	 8.229749e-01	 1.390759e+01
 1.203906e+00	 8.376879e-01	 1.379947e+01
 1.193612e+00	 8.522926e-01	 1.368850e+01
 1.183129e+00	 8.667854e-01	 1.355991e+01
 1.239877e+00	 7.972448e-01	 1.415283e+01
 1.230107e+00	 8.122388e-01	 1.401249e+01
 1.220143e+00	 8.271313e-01	 1.389709e+01
 1.209987e+00	 8.419186e-01	 1.379192e+01
 1.199640e+00	 8.565971e-01	 1.368235e+01
 1.189104e+00	 8.711631e-01	 1.355396e+01
 1.246108e+00	 8.012510e-01	 1.413059e+01
 1.236288e+00	 8.163204e-01	 1.399720e+01
 1.226274e+00	 8.312877e-01	 1.388644e+01
 1.216067e+00	 8.461494e-01	 1.378405e+01
 1.205668e+00	 8.609016e-01	 1.367585e+01
 1.195080e+00	 8.755408e-01	 1.354794e+01
 1.165203e+00	 8.536522e-01	 1.357526e+01
 1.154696e+00	 8.678116e-01	 1.343653e+01
 1.144008e+00	 8.818538e-01	 1.330060e+01
 1.133140e+00	 8.957752e-01	 1.316561e+01
 1.122095e+00	 9.095725e-01	 1.303132e+01
 1.110875e+00	 9.232423e-01	 1.289933e+01
 1.171178e+00	 8.580299e-01	 1.357070e+01
 1.160617e+00	 8.722620e-01	 1.343303e+01
 1.149874e+00	 8.863761e-01	 1.329987e+01
 1.138951e+00	 9.003689e-01	 1.316824e+01
 1.127850e+00	 9.142370e-01	 1.303674e+01
 1.116572e+00	 9.279769e-01	 1.290582e+01
 1.177154e+00	 8.624076e-01	 1.356554e+01
 1.166539e+00	 8.767123e-01	 1.342866e+01
 1.155741e+00	 8.908984e-01	 1.329801e+01
 1.144762e+00	 9.049626e-01	 1.316949e+01
 1.133604e+00	 9.189014e-01	 1.304053e+01
 1.122269e+00	 9.327114e-01	 1.291044e+01
 1.183129e+00	 8.667854e-01	 1.355991e+01
 1.172460e+00	 8.811626e-01	 1.342376e+01
 1.161608e+00	 8.954208e-01	 1.329555e+01
 1.150573e+00	 9.095564e-01	 1.317000e+01
 1.139358e+00	 9.235659e-01	 1.304342e+01
 1.127965e+00	 9.374460e-01	 1.291393e+01
 1.189104e+00	 8.711631e-01	 1.355396e+01
 1.178382e+00	 8.856129e-01	 1.341873e+01
 1.167475e+00	 8.999431e-01	 1.329304e+01
 1.156384e+00	 9.141501e-01	 1.317048e+01
 1.145113e+00	 9.282304e-01	 1.304619e+01
 1.133662e+00	 9.421806e-01	 1.291711e+01
 1.195080e+00	 8.755408e-01	 1.354794e+01
 1.184304e+00	 8.900632e-01	 1.341402e+01
 1.173341e+00	 9.044654e-01	 1.329111e+01
 1.162195e+00	 9.187438e-01	 1.317166e+01
 1.150867e+00	 9.328949e-01	 1.304964e+01
 1.139359e+00	 9.469152e-01	 1.292080e+01
 1.110875e+00	 9.232423e-01	 1.289933e+01
 1.099482e+00	 9.367813e-01	 1.274819e+01
 1.087918e+00	 9.501862e-01	 1.256658e+01
 1.076186e+00	 9.634539e-01	 1.237392e+01
 1.064288e+00	 9.765811e-01	 1.219206e+01
 1.052227e+00	 9.895648e-01	 1.204498e+01
 1.116572e+00	 9.279769e-01	 1.290582e+01
 1.105120e+00	 9.415853e-01	 1.275787e+01
 1.093497e+00	 9.550590e-01	 1.257820e+01
 1.081705e+00	 9.683947e-01	 1.238613e+01
 1.069746e+00	 9.815892e-01	 1.220491e+01
 1.057623e+00	 9.946395e-01	 1.206008e+01
 1.122269e+00	 9.327114e-01	 1.291044e+01
 1.110759e+00	 9.463893e-01	 1.276366e+01
 1.099076e+00	 9.599317e-01	 1.258743e+01
 1.087224e+00	 9.733355e-01	 1.239741e+01
 1.075204e+00	 9.865973e-01	 1.221809e+01
 1.063019e+00	 9.997142e-01	 1.207632e+01
 1.127965e+00	 9.374460e-01	 1.291393e+01
 1.116397e+00	 9.511933e-01	 1.276698e+01
 1.104655e+00	 9.648045e-01	 1.259452e+01
 1.092743e+00	 9.782762e-01	 1.240792e+01
 1.080662e+00	 9.916054e-01	 1.223156e+01
 1.068415e+00	 1.004789e+00	 1.209341e+01
 1.133662e+00	 9.421806e-01	 1.291711e+01
 1.122035e+00	 9.559973e-01	 1.276989e+01
 1.110234e+00	 9.696772e-01	 1.259983e+01
 1.098262e+00	 9.832170e-01	 1.241786e+01
 1.086120e+00	 9.966135e-01	 1.224534e+01
 1.073811e+00	 1.009864e+00	 1.211116e+01
 1.139359e+00	 9.469152e-01	 1.292080e+01
 1.127674e+00	 9.608013e-01	 1.277320e+01
 1.115813e+00	 9.745500e-01	 1.260445e+01
 1.103781e+00	 9.881578e-01	 1.242752e+01
 1.091578e+00	 1.001622e+00	 1.225955e+01
 1.079207e+00	 1.014938e+00	 1.212945e+01
 1.052227e+00	 9.895648e-01	 1.204498e+01
 1.040005e+00	 1.002402e+00	 1.189748e+01
 1.027625e+00	 1.015090e+00	 1.171210e+01
 1.015090e+00	 1.027625e+00	 1.151155e+01
 1.002402e+00	 1.040005e+00	 1.131916e+01
 9.895648e-01	 1.052227e+00	 1.115856e+01
 1.057623e+00	 9.946395e-01	 1.206008e+01
 1.045338e+00	 1.007542e+00	 1.191597e+01
 1.032895e+00	 1.020295e+00	 1.173346e+01
 1.020295e+00	 1.032895e+00	 1.153517e+01
 1.007542e+00	 1.045338e+00	 1.134437e+01
 9.946395e-01	 1.057623e+00	 1.118467e+01
 1.063019e+00	 9.997142e-01	 1.207632e+01
 1.050672e+00	 1.012683e+00	 1.193561e+01
 1.038165e+00	 1.025501e+00	 1.175525e+01
 1.025501e+00	 1.038165e+00	 1.155816e+01
 1.012683e+00	 1.050672e+00	 1.136795e+01
 9.997142e-01	 1.063019e+00	 1.120859e+01
 1.068415e+00	 1.004789e+00	 1.209341e+01
 1.056005e+00	 1.017824e+00	 1.195591e+01
 1.043434e+00	 1.030706e+00	 1.177690e+01
 1.030706e+00	 1.043434e+00	 1.157996e+01
 1.017824e+00	 1.056005e+00	 1.138945e+01
 1.004789e+00	 1.068415e+00	 1.123009e+01
 1.073811e+00	 1.009864e+00	 1.211116e+01
 1.061338e+00	 1.022964e+00	 1.197649e+01
 1.048704e+00	 1.035912e+00	 1.179792e+01
 1.035912e+00	 1.048704e+00	 1.160009e+01
 1.022964e+00	 1.061338e+00	 1.140846e+01
 1.009864e+00	 1.073811e+00	 1.124894e+01
 1.079207e+00	 1.014938e+00	 1.212945e+01
 1.066672e+00	 1.028105e+00	 1.199702e+01
 1.053974e+00	 1.041118e+00	 1.181789e+01
 1.041118e+00	 1.053974e+00	 1.161813e+01
 1.028105e+00	 1.066672e+00	 1.142468e+01
 1.014938e+00	 1.079207e+00	 1.126502e+01
 9.895648e-01	 1.052227e+00	 1.115856e+01
 9.765811e-01	 1.064288e+00	 1.099372e+01
 9.634539e-01	 1.076186e+00	 1.078822e+01
 9.501862e-01	 1.087918e+00	 1.056446e+01
 9.367813e-01	 1.099482e+00	 1.034361e+01
 9.232423e-01	 1.110875e+00	 1.014524e+01
 9.946395e-01	 1.057623e+00	 1.118467e+01
 9.815892e-01	 1.069746e+00	 1.101945e+01
 9.683947e-01	 1.081705e+00	 1.081335e+01
 9.550590e-01	 1.093497e+00	 1.059111e+01
 9.415853e-01	 1.105120e+00	 1.037629e+01
 9.279769e-01	 1.116572e+00	 1.018512e+01
 9.997142e-01	 1.063019e+00	 1.120859e+01
 9.865973e-01	 1.075204e+00	 1.104349e+01
 9.733355e-01	 1.087224e+00	 1.083832e+01
 9.599317e-01	 1.099076e+00	 1.061977e+01
 9.463893e-01	 1.110759e+00	 1.041336e+01
 9.327114e-01	 1.122269e+00	 1.022081e+01
 1.004789e+00	 1.068415e+00	 1.123009e+01
 9.916054e-01	 1.080662e+00	 1.106574e+01
 9.782762e-01	 1.092743e+00	 1.086302e+01
 9.648045e-01	 1.104655e+00	 1.065019e+01
 9.511933e-01	 1.116397e+00	 1.045081e+01
 9.374460e-01	 1.127965e+00	 1.025398e+01
 1.009864e+00	 1.073811e+00	 1.124894e+01
 9.966135e-01	 1.086120e+00	 1.108615e+01
 9.832170e-01	 1.098262e+00	 1.088741e+01
 9.696772e-01	 1.110234e+00	 1.068219e+01
 9.559973e-01	 1.122035e+00	 1.048527e+01
 9.421806e-01	 1.133662e+00	 1.028634e+01
 1.014938e+00	 1.079207e+00	 1.126502e+01
 1.001622e+00	 1.091578e+00	 1.110471e+01
 9.881578e-01	 1.103781e+00	 1.091151e+01
 9.745500e-01	 1.115813e+00	 1.071428e+01
 9.608013e-01	 1.127674e+00	 1.051881e+01
 9.469152e-01	 1.139359e+00	 1.031963e+01
 9.232423e-01	 1.110875e+00	 1.014524e+01
 9.095725e-01	 1.122095e+00	 9.960881e+00
 8.957752e-01	 1.133140e+00	 9.768799e+00
 8.818538e-01	 1.144008e+00	 9.569585e+00
 8.678116e-01	 1.154696e+00	 9.362810e+00
 8.536522e-01	 1.165203e+00	 9.147171e+00
 9.279769e-01	 1.116572e+00	 1.018512e+01
 9.142370e-01	 1.127850e+00	 9.995020e+00
 9.003689e-01	 1.138951e+00	 9.802374e+00
 8.863761e-01	 1.149874e+00	 9.605933e+00
 8.722620e-01	 1.160617e+00	 9.403320e+00
 8.580299e-01	 1.171178e+00	 9.191210e+00
 9.327114e-01	 1.122269e+00	 1.022081e+01
 9.189014e-01	 1.133604e+00	 1.002680e+01
 9.049626e-01	 1.144762e+00	 9.834167e+00
 8.908984e-01	 1.155741e+00	 9.640167e+00
 8.767123e-01	 1.166539e+00	 9.440843e+00
 8.624076e-01	 1.177154e+00	 9.231231e+00
 9.374460e-01	 1.127965e+00	 1.025398e+01
 9.235659e-01	 1.139358e+00	 1.005755e+01
 9.095564e-01	 1.150573e+00	 9.865316e+00
 8.954208e-01	 1.161608e+00	 9.673357e+00
 8.811626e-01	 1.172460e+00	 9.476512e+00
 8.667854e-01	 1.183129e+00	 9.268557e+00
 9.421806e-01	 1.133662e+00	 1.028634e+01
 9.282304e-01	 1.145113e+00	 1.008866e+01
 9.141501e-01	 1.156384e+00	 9.896983e+00
 8.999431e-01	 1.167475e+00	 9.706599e+00
 8.856129e-01	 1.178382e+00	 9.511487e+00
 8.711631e-01	 1.189104e+00	 9.304534e+00
 9.469152e-01	 1.139359e+00	 1.031963e+01
 9.328949e-01	 1.150867e+00	 1.012150e+01
 9.187438e-01	 1.162195e+00	 9.930358e+00
 9.044654e-01	 1.173341e+00	 9.741016e+00
 8.900632e-01	 1.184304e+00	 9.546952e+00
 8.755408e-01	 1.195080e+00	 9.340531e+00
 8.536522e-01	 1.165203e+00	 9.147171e+00
 8.393791e-01	 1.175526e+00	 8.933314e+00
 8.249956e-01	 1.185665e+00	 8.726310e+00
 8.105055e-01	 1.195617e+00	 8.515625e+00
 7.959124e-01	 1.205381e+00	 8.290449e+00
 7.812197e-01	 1.214955e+00	 8.039874e+00
 8.580299e-01	 1.171178e+00	 9.191210e+00
 8.436836e-01	 1.181555e+00	 8.978515e+00
 8.292264e-01	 1.191746e+00	 8.770845e+00
 8.146620e-01	 1.201749e+00	 8.559038e+00
 7.999940e-01	 1.211562e+00	 8.333707e+00
 7.852260e-01	 1.221185e+00	 8.085415e+00
 8.624076e-01	 1.177154e+00	 9.231231e+00
 8.479881e-01	 1.187583e+00	 9.019213e+00
 8.334571e-01	 1.197826e+00	 8.811190e+00
 8.188184e-01	 1.207880e+00	 8.599077e+00
 8.040756e-01	 1.217744e+00	 8.374601e+00
 7.892322e-01	 1.227416e+00	 8.129481e+00
 8.667854e-01	 1.183129e+00	 9.268557e+00
 8.522926e-01	 1.193612e+00	 9.056917e+00
 8.376879e-01	 1.203906e+00	 8.848913e+00
 8.229749e-01	 1.214011e+00	 8.637245e+00
 8.081572e-01	 1.223925e+00	 8.414455e+00
 7.932385e-01	 1.233647e+00	 8.173099e+00
 8.711631e-01	 1.189104e+00	 9.304534e+00
 8.565971e-01	 1.199640e+00	 9.093157e+00
 8.419186e-01	 1.209987e+00	 8.885601e+00
 8.271313e-01	 1.220143e+00	 8.675070e+00
 8.122388e-01	 1.230107e+00	 8.454615e+00
 7.972448e-01	 1.239877e+00	 8.217326e+00
 8.755408e-01	 1.195080e+00	 9.340531e+00
 8.609016e-01	 1.205668e+00	 9.129481e+00
 8.461494e-01	 1.216067e+00	 8.922862e+00
 8.312877e-01	 1.226274e+00	 8.714096e+00
 8.163204e-01	 1.236288e+00	 8.496454e+00
 8.012510e-01	 1.246108e+00	 8.263250e+00
 7.812197e-01	 1.214955e+00	 8.039874e+00
 7.664313e-01	 1.224338e+00	 7.808130e+00
 7.515508e-01	 1.233528e+00	 7.626896e+00
 7.365818e-01	 1.242524e+00	 7.465797e+00
 7.215282e-01	 1.251326e+00	 7.284823e+00
 7.063935e-01	 1.259932e+00	 7.051400e+00
 7.852260e-01	 1.221185e+00	 8.085415e+00
 7.703617e-01	 1.230616e+00	 7.856871e+00
 7.554049e-01	 1.239854e+00	 7.677062e+00
 7.403592e-01	 1.248896e+00	 7.515939e+00
 7.252283e-01	 1.257743e+00	 7.335899e+00
 7.100161e-01	 1.266393e+00	 7.101077e+00
 7.892322e-01	 1.227416e+00	 8.129481e+00
 7.742922e-01	 1.236895e+00	 7.904470e+00
 7.592590e-01	 1.246180e+00	 7.725851e+00
 7.441365e-01	 1.255268e+00	 7.563665e+00
 7.289284e-01	 1.264160e+00	 7.383688e+00
 7.136386e-01	 1.272854e+00	 7.147319e+00
 7.932385e-01	 1.233647e+00	 8.173099e+00
 7.782226e-01	 1.243174e+00	 7.951663e+00
 7.631131e-01	 1.252505e+00	 7.773833e+00
 7.479138e-01	 1.261640e+00	 7.610045e+00
 7.326286e-01	 1.270577e+00	 7.428832e+00
 7.172611e-01	 1.279315e+00	 7.190956e+00
 7.972448e-01	 1.239877e+00	 8.217326e+00
 7.821530e-01	 1.249452e+00	 7.999224e+00
 7.669672e-01	 1.258831e+00	 7.821615e+00
 7.516912e-01	 1.268012e+00	 7.655639e+00
 7.363287e-01	 1.276994e+00	 7.472001e+00
 7.208837e-01	 1.285776e+00	 7.232845e+00
 8.012510e-01	 1.246108e+00	 8.263250e+00
 7.860834e-01	 1.255731e+00	 8.047964e+00
 7.708213e-01	 1.265157e+00	 7.869845e+00
 7.554685e-01	 1.274384e+00	 7.701043e+00
 7.400289e-01	 1.283411e+00	 7.513899e+00
 7.245062e-01	 1.292238e+00	 7.273869e+00
 7.063935e-01	 1.259932e+00	 7.051400e+00
 6.911817e-01	 1.268341e+00	 6.799442e+00
 6.758964e-01	 1.276552e+00	 6.573865e+00
 6.605413e-01	 1.284564e+00	 6.365052e+00
 6.451203e-01	 1.292377e+00	 6.165368e+00
 6.296372e-01	 1.299991e+00	 5.969138e+00
 7.100161e-01	 1.266393e+00	 7.101077e+00
 6.947262e-01	 1.274845e+00	 6.847759e+00
 6.793625e-01	 1.283098e+00	 6.622762e+00
 6.639287e-01	 1.291152e+00	 6.415648e+00
 6.484286e-01	 1.299005e+00	 6.218003e+00
 6.328661e-01	 1.306658e+00	 6.023407e+00
 7.136386e-01	 1.272854e+00	 7.147319e+00
 6.982707e-01	 1.281349e+00	 6.892980e+00
 6.828286e-01	 1.289644e+00	 6.669147e+00
 6.673161e-01	 1.297739e+00	 6.464358e+00
 6.517370e-01	 1.305633e+00	 6.269206e+00
 6.360950e-01	 1.313324e+00	 6.076312e+00
 7.172611e-01	 1.279315e+00	 7.190956e+00
 7.018152e-01	 1.287853e+00	 6.936126e+00
 6.862948e-01	 1.296191e+00	 6.714141e+00
 6.707035e-01	 1.304327e+00	 6.512314e+00
 6.550453e-01	 1.312260e+00	 6.320037e+00
 6.393239e-01	 1.319991e+00	 6.128761e+00
 7.208837e-01	 1.285776e+00	 7.232845e+00
 7.053598e-01	 1.294358e+00	 6.978243e+00
 6.897609e-01	 1.302737e+00	 6.758888e+00
 6.740909e-01	 1.310914e+00	 6.560672e+00
 6.583536e-01	 1.318888e+00	 6.371583e+00
 6.425528e-01	 1.326658e+00	 6.181689e+00
 7.245062e-01	 1.292238e+00	 7.273869e+00
 7.089043e-01	 1.300862e+00	 7.020397e+00
 6.932270e-01	 1.309284e+00	 6.804552e+00
 6.774783e-01	 1.317502e+00	 6.610608e+00
 6.616619e-01	 1.325515e+00	 6.424949e+00
 6.457817e-01	 1.333324e+00	 6.236056e+00
 6.296372e-01	 1.299991e+00	 5.969138e+00
 6.140956e-01	 1.307404e+00	 5.772816e+00
 5.984993e-01	 1.314617e+00	 5.575505e+00
 5.828521e-01	 1.321629e+00	 5.378259e+00
 5.671578e-01	 1.328440e+00	 5.183822e+00
 5.514200e-01	 1.335049e+00	 4.996516e+00
 6.328661e-01	 1.306658e+00	 6.023407e+00
 6.172448e-01	 1.314109e+00	 5.827874e+00
 6.015685e-01	 1.321359e+00	 5.630703e+00
 5.858411e-01	 1.328407e+00	 5.433234e+00
 5.700663e-01	 1.335252e+00	 5.238545e+00
 5.542478e-01	 1.341895e+00	 5.051348e+00
 6.360950e-01	 1.313324e+00	 6.076312e+00
 6.203940e-01	 1.320814e+00	 5.881229e+00
 6.046378e-01	 1.328100e+00	 5.683701e+00
 5.888301e-01	 1.335184e+00	 5.485540e+00
 5.729748e-01	 1.342065e+00	 5.290354e+00
 5.570756e-01	 1.348742e+00	 5.103437e+00
 6.393239e-01	 1.319991e+00	 6.128761e+00
 6.235432e-01	 1.327518e+00	 5.933630e+00
 6.077070e-01	 1.334842e+00	 5.735149e+00
 5.918191e-01	 1.341962e+00	 5.535783e+00
 5.758833e-01	 1.348877e+00	 5.339862e+00
 5.599034e-01	 1.355588e+00	 5.153463e+00
 6.425528e-01	 1.326658e+00	 6.181689e+00
 6.266924e-01	 1.334223e+00	 5.985853e+00
 6.107762e-01	 1.341584e+00	 5.785721e+00
 5.948081e-01	 1.348739e+00	 5.584596e+00
 5.787918e-01	 1.355690e+00	 5.387714e+00
 5.627312e-01	 1.362435e+00	 5.202130e+00
 6.457817e-01	 1.333324e+00	 6.236056e+00
 6.298416e-01	 1.340928e+00	 6.038701e+00
 6.138455e-01	 1.348325e+00	 5.836124e+00
 5.977971e-01	 1.355517e+00	 5.632640e+00
 5.817003e-01	 1.362502e+00	 5.434580e+00
 5.655590e-01	 1.369281e+00	 5.250167e+00
 5.514200e-01	 1.335049e+00	 4.996516e+00
 5.356425e-01	 1.341457e+00	 4.816128e+00
 5.198290e-01	 1.347664e+00	 4.636409e+00
 5.039830e-01	 1.353669e+00	 4.454558e+00
 4.881084e-01	 1.359474e+00	 4.268751e+00
 4.722087e-01	 1.365078e+00	 4.078014e+00
 5.542478e-01	 1.341895e+00	 5.051348e+00
 5.383894e-01	 1.348336e+00	 4.870774e+00
 5.224948e-01	 1.354575e+00	 4.689987e+00
 5.065676e-01	 1.360611e+00	 4.506728e+00
 4.906116e-01	 1.366446e+00	 4.319745e+00
 4.746303e-01	 1.372079e+00	 4.128665e+00
 5.570756e-01	 1.348742e+00	 5.103437e+00
 5.411363e-01	 1.355216e+00	 4.923360e+00
 5.251605e-01	 1.361486e+00	 4.742487e+00
 5.091521e-01	 1.367553e+00	 4.558850e+00
 4.931147e-01	 1.373417e+00	 4.371520e+00
 4.770519e-01	 1.379079e+00	 4.180463e+00
 5.599034e-01	 1.355588e+00	 5.153463e+00
 5.438832e-01	 1.362095e+00	 4.974614e+00
 5.278263e-01	 1.368397e+00	 4.794608e+00
 5.117366e-01	 1.374495e+00	 4.611526e+00
 4.956178e-01	 1.380389e+00	 4.424507e+00
 4.794735e-01	 1.386079e+00	 4.233611e+00
 5.627312e-01	 1.362435e+00	 5.202130e+00
 5.466301e-01	 1.368974e+00	 5.025288e+00
 5.304921e-01	 1.375308e+00	 4.847074e+00
 5.143212e-01	 1.381437e+00	 4.665376e+00
 4.981209e-01	 1.387361e+00	 4.479162e+00
 4.818951e-01	 1.393080e+00	 4.288337e+00
 5.655590e-01	 1.369281e+00	 5.250167e+00
 5.493769e-01	 1.375853e+00	 5.076155e+00
 5.331579e-01	 1.382219e+00	 4.900627e+00
 5.169057e-01	 1.388379e+00	 4.721043e+00
 5.006240e-01	 1.394332e+00	 4.535963e+00
 4.843166e-01	 1.400080e+00	 4.344893e+00
 4.722087e-01	 1.365078e+00	 4.078014e+00
 4.562876e-01	 1.370482e+00	 3.887601e+00
 4.403485e-01	 1.375686e+00	 3.708915e+00
 4.243950e-01	 1.380691e+00	 3.551081e+00
 4.084307e-01	 1.385498e+00	 3.423505e+00
 3.924590e-01	 1.390106e+00	 3.335713e+00
 4.746303e-01	 1.372079e+00	 4.128665e+00
 4.586275e-01	 1.377510e+00	 3.939659e+00
 4.426067e-01	 1.382741e+00	 3.763807e+00
 4.265714e-01	 1.387772e+00	 3.608991e+00
 4.105252e-01	 1.392603e+00	 3.483391e+00
 3.944716e-01	 1.397235e+00	 3.395309e+00
 4.770519e-01	 1.379079e+00	 4.180463e+00
 4.609674e-01	 1.384538e+00	 3.992532e+00
 4.448649e-01	 1.389796e+00	 3.818610e+00
 4.287478e-01	 1.394852e+00	 3.665639e+00
 4.126197e-01	 1.399708e+00	 3.540867e+00
 3.964842e-01	 1.404364e+00	 3.451679e+00
 4.794735e-01	 1.386079e+00	 4.233611e+00
 4.633074e-01	 1.391567e+00	 4.046189e+00
 4.471231e-01	 1.396851e+00	 3.873111e+00
 4.309242e-01	 1.401933e+00	 3.720670e+00
 4.147143e-01	 1.406813e+00	 3.595484e+00
 3.984968e-01	 1.411493e+00	 3.504317e+00
 4.818951e-01	 1.393080e+00	 4.288337e+00
 4.656473e-01	 1.398595e+00	 4.100626e+00
 4.493813e-01	 1.403906e+00	 3.927121e+00
 4.331006e-01	 1.409013e+00	 3.773760e+00
 4.168088e-01	 1.413918e+00	 3.646819e+00
 4.005095e-01	 1.418621e+00	 3.552741e+00
 4.843166e-01	 1.400080e+00	 4.344893e+00
 4.679872e-01	 1.405623e+00	 4.155867e+00
 4.516395e-01	 1.410960e+00	 3.980484e+00
 4.352769e-01	 1.416094e+00	 3.824612e+00
 4.189033e-01	 1.421023e+00	 3.694481e+00
 4.025221e-01	 1.425750e+00	 3.596499e+00
 3.924590e-01	 1.390106e+00	 3.335713e+00
 3.764834e-01	 1.394518e+00	 3.235768e+00
 3.605072e-01	 1.398733e+00	 3.081645e+00
 3.445337e-01	 1.402753e+00	 2.892626e+00
 3.285664e-01	 1.406579e+00	 2.706795e+00
 3.126085e-01	 1.410211e+00	 2.561071e+00
 3.944716e-01	 1.397235e+00	 3.395309e+00
 3.784140e-01	 1.401669e+00	 3.292657e+00
 3.623559e-01	 1.405906e+00	 3.136715e+00
 3.463006e-01	 1.409947e+00	 2.946307e+00
 3.302514e-01	 1.413792e+00	 2.759183e+00
 3.142116e-01	 1.417443e+00	 2.613262e+00
 3.964842e-01	 1.404364e+00	 3.451679e+00
 3.803447e-01	 1.408821e+00	 3.346150e+00
 3.642047e-01	 1.413079e+00	 3.188656e+00
 3.480674e-01	 1.417140e+00	 2.998162e+00
 3.319363e-01	 1.421005e+00	 2.811273e+00
 3.158147e-01	 1.424675e+00	 2.666589e+00
 3.984968e-01	 1.411493e+00	 3.504317e+00
 3.822754e-01	 1.415972e+00	 3.395692e+00
 3.660534e-01	 1.420252e+00	 3.236788e+00
 3.498343e-01	 1.424334e+00	 3.047408e+00
 3.336213e-01	 1.428218e+00	 2.862201e+00
 3.174178e-01	 1.431907e+00	 2.720131e+00
 4.005095e-01	 1.418621e+00	 3.552741e+00
 3.842061e-01	 1.423123e+00	 3.440754e+00
 3.679022e-01	 1.427425e+00	 3.280461e+00
 3.516011e-01	 1.431528e+00	 3.093289e+00
 3.353062e-01	 1.435432e+00	 2.911124e+00
 3.190210e-01	 1.439139e+00	 2.772980e+00
 4.025221e-01	 1.425750e+00	 3.596499e+00
 3.861368e-01	 1.430275e+00	 3.480832e+00
 3.697509e-01	 1.434598e+00	 3.319060e+00
 3.533679e-01	 1.438721e+00	 3.135077e+00
 3.369912e-01	 1.442645e+00	 2.957220e+00
 3.206241e-01	 1.446370e+00	 2.824247e+00
 3.126085e-01	 1.410211e+00	 2.561071e+00
 2.966631e-01	 1.413652e+00	 2.455110e+00
 2.807336e-01	 1.416901e+00	 2.363543e+00
 2.648229e-01	 1.419961e+00	 2.281529e+00
 2.489342e-01	 1.422832e+00	 2.201854e+00
 2.330704e-01	 1.425517e+00	 2.115182e+00
 3.142116e-01	 1.417443e+00	 2.613262e+00
 2.981845e-01	 1.420901e+00	 2.507522e+00
 2.821732e-01	 1.424167e+00	 2.415629e+00
 2.661809e-01	 1.427243e+00	 2.333063e+00
 2.502107e-01	 1.430129e+00	 2.252798e+00
 2.342656e-01	 1.432827e+00	 2.165562e+00
 3.158147e-01	 1.424675e+00	 2.666589e+00
 2.997058e-01	 1.428151e+00	 2.562199e+00
 2.836129e-01	 1.431433e+00	 2.470801e+00
 2.675390e-01	 1.434524e+00	 2.388184e+00
 2.514873e-01	 1.437425e+00	 2.307485e+00
 2.354609e-01	 1.440137e+00	 2.219474e+00
 3.174178e-01	 1.431907e+00	 2.720131e+00
 3.012272e-01	 1.435400e+00	 2.618177e+00
 2.850525e-01	 1.438699e+00	 2.528058e+00
 2.688971e-01	 1.441806e+00	 2.445854e+00
 2.527639e-01	 1.444722e+00	 2.364846e+00
 2.366561e-01	 1.447448e+00	 2.275814e+00
 3.190210e-01	 1.439139e+00	 2.772980e+00
 3.027485e-01	 1.442650e+00	 2.674502e+00
 2.864922e-01	 1.445966e+00	 2.586405e+00
 2.702551e-01	 1.449088e+00	 2.505044e+00
 2.540405e-01	 1.452019e+00	 2.423818e+00
 2.378513e-01	 1.454758e+00	 2.333483e+00
 3.206241e-01	 1.446370e+00	 2.824247e+00
 3.042699e-01	 1.449899e+00	 2.730233e+00
 2.879319e-01	 1.453232e+00	 2.644857e+00
 2.716132e-01	 1.456370e+00	 2.564729e+00
 2.553171e-01	 1.459315e+00	 2.483339e+00
 2.390466e-01	 1.462068e+00	 2.391384e+00
 2.330704e-01	 1.425517e+00	 2.115182e+00
 2.172346e-01	 1.428016e+00	 2.020632e+00
 2.014297e-01	 1.430331e+00	 1.928202e+00
 1.856586e-01	 1.432463e+00	 1.842396e+00
 1.699240e-01	 1.434415e+00	 1.766556e+00
 1.542286e-01	 1.436187e+00	 1.703163e+00
 2.342656e-01	 1.432827e+00	 2.165562e+00
 2.183487e-01	 1.435339e+00	 2.070911e+00
 2.024627e-01	 1.437666e+00	 1.979141e+00
 1.866107e-01	 1.439809e+00	 1.894472e+00
 1.707954e-01	 1.441771e+00	 1.819900e+00
 1.550196e-01	 1.443552e+00	 1.757504e+00
 2.354609e-01	 1.440137e+00	 2.219474e+00
 2.194627e-01	 1.442662e+00	 2.124099e+00
 2.034957e-01	 1.445001e+00	 2.032047e+00
 1.875628e-01	 1.447155e+00	 1.947430e+00
 1.716668e-01	 1.449127e+00	 1.873057e+00
 1.558105e-01	 1.450917e+00	 1.810771e+00
 2.366561e-01	 1.447448e+00	 2.275814e+00
 2.205767e-01	 1.449985e+00	 2.179079e+00
 2.045287e-01	 1.452336e+00	 2.085835e+00
 1.885149e-01	 1.454501e+00	 2.000246e+00
 1.725382e-01	 1.456483e+00	 1.925100e+00
 1.566014e-01	 1.458282e+00	 1.862154e+00
 2.378513e-01	 1.454758e+00	 2.333483e+00
 2.216907e-01	 1.457308e+00	 2.234738e+00
 2.055616e-01	 1.459671e+00	 2.139420e+00
 1.894670e-01	 1.461847e+00	 2.051902e+00
 1.734096e-01	 1.463839e+00	 1.975101e+00
 1.573923e-01	 1.465647e+00	 1.910845e+00
 2.390466e-01	 1.462068e+00	 2.391384e+00
 2.228048e-01	 1.464631e+00	 2.289967e+00
 2.065946e-01	 1.467006e+00	 2.191720e+00
 1.904191e-01	 1.469193e+00	 2.101377e+00
 1.742810e-01	 1.471195e+00	 2.022136e+00
 1.581832e-01	 1.473012e+00	 1.956036e+00
 1.542286e-01	 1.436187e+00	 1.703163e+00
 1.385753e-01	 1.437782e+00	 1.650532e+00
 1.229666e-01	 1.439201e+00	 1.604525e+00
 1.074051e-01	 1.440446e+00	 1.563590e+00
 9.189328e-02	 1.441518e+00	 1.526568e+00
 7.643366e-02	 1.442421e+00	 1.492968e+00
 1.550196e-01	 1.443552e+00	 1.757504e+00
 1.392859e-01	 1.445155e+00	 1.705312e+00
 1.235972e-01	 1.446581e+00	 1.659287e+00
 1.079559e-01	 1.447833e+00	 1.618036e+00
 9.236453e-02	 1.448911e+00	 1.580562e+00
 7.682563e-02	 1.449818e+00	 1.546555e+00
 1.558105e-01	 1.450917e+00	 1.810771e+00
 1.399966e-01	 1.452528e+00	 1.758462e+00
 1.242278e-01	 1.453962e+00	 1.712194e+00
 1.085067e-01	 1.455220e+00	 1.670649e+00
 9.283578e-02	 1.456303e+00	 1.632911e+00
 7.721760e-02	 1.457215e+00	 1.598777e+00
 1.566014e-01	 1.458282e+00	 1.862154e+00
 1.407072e-01	 1.459902e+00	 1.809305e+00
 1.248584e-01	 1.461342e+00	 1.762696e+00
 1.090575e-01	 1.462606e+00	 1.721002e+00
 9.330702e-02	 1.463696e+00	 1.683311e+00
 7.760956e-02	 1.464612e+00	 1.649443e+00
 1.573923e-01	 1.465647e+00	 1.910845e+00
 1.414179e-01	 1.467275e+00	 1.857160e+00
 1.254890e-01	 1.468723e+00	 1.810241e+00
 1.096083e-01	 1.469993e+00	 1.768672e+00
 9.377827e-02	 1.471088e+00	 1.731459e+00
 7.800153e-02	 1.472009e+00	 1.698364e+00
 1.581832e-01	 1.473012e+00	 1.956036e+00
 1.421285e-01	 1.474648e+00	 1.901347e+00
 1.261196e-01	 1.476103e+00	 1.854276e+00
 1.101591e-01	 1.477380e+00	 1.813230e+00
 9.424952e-02	 1.478480e+00	 1.777048e+00
 7.839350e-02	 1.479406e+00	 1.745346e+00
 7.643366e-02	 1.442421e+00	 1.492968e+00
 6.102861e-02	 1.443155e+00	 1.464233e+00
 4.568048e-02	 1.443722e+00	 1.441208e+00
 3.039153e-02	 1.444125e+00	 1.424287e+00
 1.516399e-02	 1.444365e+00	 1.415526e+00
 0.000000e+00	 1.444444e+00	 1.418825e+00
 7.682563e-02	 1.449818e+00	 1.546555e+00
 6.134158e-02	 1.450555e+00	 1.517642e+00
 4.591474e-02	 1.451126e+00	 1.494556e+00
 3.054738e-02	 1.451530e+00	 1.477506e+00
 1.524175e-02	 1.451772e+00	 1.468443e+00
 0.000000e+00	 1.451852e+00	 1.471249e+00
 7.721760e-02	 1.457215e+00	 1.598777e+00
 6.165455e-02	 1.457956e+00	 1.569983e+00
 4.614900e-02	 1.458529e+00	 1.547121e+00
 3.070324e-02	 1.458936e+00	 1.530206e+00
 1.531951e-02	 1.459179e+00	 1.521073e+00
 0.000000e+00	 1.459259e+00	 1.523577e+00
 7.760956e-02	 1.464612e+00	 1.649443e+00
 6.196752e-02	 1.465357e+00	 1.621164e+00
 4.638326e-02	 1.465933e+00	 1.598886e+00
 3.085909e-02	 1.466342e+00	 1.582416e+00
 1.539728e-02	 1.466586e+00	 1.573461e+00
 0.000000e+00	 1.466667e+00	 1.575841e+00
 7.800153e-02	 1.472009e+00	 1.698364e+00
 6.228048e-02	 1.472758e+00	 1.671092e+00
 4.661751e-02	 1.473337e+00	 1.649831e+00
 3.101495e-02	 1.473748e+00	 1.634165e+00
 1.547504e-02	 1.473993e+00	 1.625656e+00
 0.000000e+00	 1.474074e+00	 1.628072e+00
 7.839350e-02	 1.479406e+00	 1.745346e+00
 6.259345e-02	 1.480159e+00	 1.719674e+00
 4.685177e-02	 1.480740e+00	 1.699940e+00
 3.117080e-02	 1.481154e+00	 1.685484e+00
 1.555281e-02	 1.481400e+00	 1.677707e+00
 0.000000e+00	 1.481481e+00	 1.680308e+00
 1.481481e+00	 0.000000e+00	 1.573138e+01
 1.481400e+00	 1.555281e-02	 1.573524e+01
 1.481154e+00	 3.117080e-02	 1.573691e+01
 1.480740e+00	 4.685177e-02	 1.573664e+01
 1.480159e+00	 6.259345e-02	 1.573417e+01
 1.479406e+00	 7.839350e-02	 1.572891e+01
 1.488889e+00	 0.000000e+00	 1.564522e+01
 1.488807e+00	 1.563057e-02	 1.564902e+01
 1.488559e+00	 3.132665e-02	 1.565060e+01
 1.488144e+00	 4.708603e-02	 1.565022e+01
 1.487559e+00	 6.290642e-02	 1.564777e+01
 1.486803e+00	 7.878547e-02	 1.564272e+01
 1.496296e+00	 0.000000e+00	 1.556103e+01
 1.496214e+00	 1.570833e-02	 1.556474e+01
 1.495965e+00	 3.148251e-02	 1.556621e+01
 1.495548e+00	 4.732029e-02	 1.556577e+01
 1.494960e+00	 6.321939e-02	 1.556334e+01
 1.494200e+00	 7.917743e-02	 1.555844e+01
 1.503704e+00	 0.000000e+00	 1.547876e+01
 1.503621e+00	 1.578610e-02	 1.548231e+01
 1.503371e+00	 3.163836e-02	 1.548370e+01
 1.502952e+00	 4.755455e-02	 1.548327e+01
 1.502361e+00	 6.353235e-02	 1.548098e+01
 1.501597e+00	 7.956940e-02	 1.547638e+01
 1.511111e+00	 0.000000e+00	 1.539834e+01
 1.511028e+00	 1.586386e-02	 1.540171e+01
 1.510777e+00	 3.179422e-02	 1.540303e+01
 1.510355e+00	 4.778881e-02	 1.540268e+01
 1.509762e+00	 6.384532e-02	 1.540063e+01
 1.508994e+00	 7.996137e-02	 1.539647e+01
 1.518519e+00	 0.000000e+00	 1.531973e+01
 1.518435e+00	 1.594163e-02	 1.532287e+01
 1.518182e+00	 3.195007e-02	 1.532414e+01
 1.517759e+00	 4.802307e-02	 1.532394e+01
 1.517163e+00	 6.415829e-02	 1.532223e+01
 1.516391e+00	 8.035334e-02	 1.531862e+01
 1.479406e+00	 7.839350e-02	 1.572891e+01
 1.478480e+00	 9.424952e-02	 1.572319e+01
 1.477380e+00	 1.101591e-01	 1.571972e+01
 1.476103e+00	 1.261196e-01	 1.571796e+01
 1.474648e+00	 1.421285e-01	 1.571714e+01
 1.473012e+00	 1.581832e-01	 1.571641e+01
 1.486803e+00	 7.878547e-02	 1.564272e+01
 1.485873e+00	 9.472077e-02	 1.563736e+01
 1.484767e+00	 1.107098e-01	 1.563436e+01
 1.483484e+00	 1.267502e-01	 1.563327e+01
 1.482021e+00	 1.428392e-01	 1.563335e+01
 1.480377e+00	 1.589741e-01	 1.563364e+01
 1.494200e+00	 7.917743e-02	 1.555844e+01
 1.493265e+00	 9.519201e-02	 1.555325e+01
 1.492154e+00	 1.112606e-01	 1.555034e+01
 1.490864e+00	 1.273808e-01	 1.554936e+01
 1.489395e+00	 1.435498e-01	 1.554969e+01
 1.487742e+00	 1.597650e-01	 1.555051e+01
 1.501597e+00	 7.956940e-02	 1.547638e+01
 1.500658e+00	 9.566326e-02	 1.547149e+01
 1.499541e+00	 1.118114e-01	 1.546875e+01
 1.498245e+00	 1.280114e-01	 1.546790e+01
 1.496768e+00	 1.442604e-01	 1.546844e+01
 1.495108e+00	 1.605560e-01	 1.546963e+01
 1.508994e+00	 7.996137e-02	 1.539647e+01
 1.508050e+00	 9.613451e-02	 1.539200e+01
 1.506928e+00	 1.123622e-01	 1.538951e+01
 1.505625e+00	 1.286420e-01	 1.538884e+01
 1.504141e+00	 1.449711e-01	 1.538956e+01
 1.502473e+00	 1.613469e-01	 1.539102e+01
 1.516391e+00	 8.035334e-02	 1.531862e+01
 1.515442e+00	 9.660576e-02	 1.531469e+01
 1.514315e+00	 1.129130e-01	 1.531254e+01
 1.513006e+00	 1.292726e-01	 1.531208e+01
 1.511514e+00	 1.456817e-01	 1.531297e+01
 1.509838e+00	 1.621378e-01	 1.531465e+01
 1.473012e+00	 1.581832e-01	 1.571641e+01
 1.471195e+00	 1.742810e-01	 1.571374e+01
 1.469193e+00	 1.904191e-01	 1.570727e+01
 1.467006e+00	 2.065946e-01	 1.569635e+01
 1.464631e+00	 2.228048e-01	 1.568046e+01
 1.462068e+00	 2.390466e-01	 1.565933e+01
 1.480377e+00	 1.589741e-01	 1.563364e+01
 1.478551e+00	 1.751524e-01	 1.563189e+01
 1.476539e+00	 1.913711e-01	 1.562621e+01
 1.474341e+00	 2.076276e-01	 1.561592e+01
 1.471955e+00	 2.239188e-01	 1.560051e+01
 1.469379e+00	 2.402418e-01	 1.557970e+01
 1.487742e+00	 1.597650e-01	 1.555051e+01
 1.485907e+00	 1.760238e-01	 1.554978e+01
 1.483885e+00	 1.923232e-01	 1.554548e+01
 1.481676e+00	 2.086606e-01	 1.553667e+01
 1.479278e+00	 2.250328e-01	 1.552246e+01
 1.476689e+00	 2.414370e-01	 1.550243e+01
 1.495108e+00	 1.605560e-01	 1.546963e+01
 1.493263e+00	 1.768952e-01	 1.546953e+01
 1.491231e+00	 1.932753e-01	 1.546620e+01
 1.489011e+00	 2.096935e-01	 1.545871e+01
 1.486601e+00	 2.261468e-01	 1.544616e+01
 1.483999e+00	 2.426323e-01	 1.542769e+01
 1.502473e+00	 1.613469e-01	 1.539102e+01
 1.500618e+00	 1.777666e-01	 1.539140e+01
 1.498577e+00	 1.942274e-01	 1.538879e+01
 1.496346e+00	 2.107265e-01	 1.538226e+01
 1.493924e+00	 2.272609e-01	 1.537087e+01
 1.491310e+00	 2.438275e-01	 1.535377e+01
 1.509838e+00	 1.621378e-01	 1.531465e+01
 1.507974e+00	 1.786380e-01	 1.531539e+01
 1.505923e+00	 1.951795e-01	 1.531333e+01
 1.503681e+00	 2.117595e-01	 1.530748e+01
 1.501247e+00	 2.283749e-01	 1.529684e+01
 1.498620e+00	 2.450227e-01	 1.528049e+01
 1.462068e+00	 2.390466e-01	 1.565933e+01
 1.459315e+00	 2.553171e-01	 1.564117e+01
 1.456370e+00	 2.716132e-01	 1.563238e+01
 1.453232e+00	 2.879319e-01	 1.563051e+01
 1.449899e+00	 3.042699e-01	 1.563361e+01
 1.446370e+00	 3.206241e-01	 1.564033e+01
 1.469379e+00	 2.402418e-01	 1.557970e+01
 1.466612e+00	 2.565937e-01	 1.556200e+01
 1.463652e+00	 2.729713e-01	 1.555406e+01
 1.460498e+00	 2.893715e-01	 1.555337e+01
 1.457149e+00	 3.057912e-01	 1.555795e+01
 1.453602e+00	 3.222272e-01	 1.556644e+01
 1.476689e+00	 2.414370e-01	 1.550243e+01
 1.473908e+00	 2.578702e-01	 1.548533e+01
 1.470934e+00	 2.743293e-01	 1.547811e+01
 1.467764e+00	 2.908112e-01	 1.547827e+01
 1.464398e+00	 3.073126e-01	 1.548388e+01
 1.460834e+00	 3.238303e-01	 1.549362e+01
 1.483999e+00	 2.426323e-01	 1.542769e+01
 1.481205e+00	 2.591468e-01	 1.541166e+01
 1.478216e+00	 2.756874e-01	 1.540512e+01
 1.475030e+00	 2.922508e-01	 1.540585e+01
 1.471648e+00	 3.088339e-01	 1.541201e+01
 1.468066e+00	 3.254335e-01	 1.542241e+01
 1.491310e+00	 2.438275e-01	 1.535377e+01
 1.488501e+00	 2.604234e-01	 1.533947e+01
 1.485497e+00	 2.770455e-01	 1.533481e+01
 1.482296e+00	 2.936905e-01	 1.533670e+01
 1.478897e+00	 3.103553e-01	 1.534297e+01
 1.475298e+00	 3.270366e-01	 1.535337e+01
 1.498620e+00	 2.450227e-01	 1.528049e+01
 1.495798e+00	 2.617000e-01	 1.526694e+01
 1.492779e+00	 2.784035e-01	 1.526336e+01
 1.489563e+00	 2.951302e-01	 1.526702e+01
 1.486147e+00	 3.118766e-01	 1.527552e+01
 1.482530e+00	 3.286397e-01	 1.528688e+01
 1.446370e+00	 3.206241e-01	 1.564033e+01
 1.442645e+00	 3.369912e-01	 1.563387e+01
 1.438721e+00	 3.533679e-01	 1.560138e+01
 1.434598e+00	 3.697509e-01	 1.554851e+01
 1.430275e+00	 3.861368e-01	 1.550117e+01
 1.425750e+00	 4.025221e-01	 1.548929e+01
 1.453602e+00	 3.222272e-01	 1.556644e+01
 1.449858e+00	 3.386762e-01	 1.556157e+01
 1.445915e+00	 3.551348e-01	 1.553000e+01
 1.441771e+00	 3.715997e-01	 1.547742e+01
 1.437426e+00	 3.880675e-01	 1.543363e+01
 1.432879e+00	 4.045347e-01	 1.542375e+01
 1.460834e+00	 3.238303e-01	 1.549362e+01
 1.457071e+00	 3.403611e-01	 1.548993e+01
 1.453108e+00	 3.569016e-01	 1.545906e+01
 1.448944e+00	 3.734484e-01	 1.540720e+01
 1.444577e+00	 3.899981e-01	 1.536687e+01
 1.440008e+00	 4.065473e-01	 1.535907e+01
 1.468066e+00	 3.254335e-01	 1.542241e+01
 1.464285e+00	 3.420461e-01	 1.541937e+01
 1.460302e+00	 3.586685e-01	 1.538881e+01
 1.456117e+00	 3.752972e-01	 1.533788e+01
 1.451729e+00	 3.919288e-01	 1.530066e+01
 1.447136e+00	 4.085599e-01	 1.529481e+01
 1.475298e+00	 3.270366e-01	 1.535337e+01
 1.471498e+00	 3.437310e-01	 1.535029e+01
 1.467496e+00	 3.604353e-01	 1.531950e+01
 1.463290e+00	 3.771459e-01	 1.526945e+01
 1.458880e+00	 3.938595e-01	 1.523481e+01
 1.454265e+00	 4.105725e-01	 1.523053e+01
 1.482530e+00	 3.286397e-01	 1.528688e+01
 1.478711e+00	 3.454160e-01	 1.528307e+01
 1.474689e+00	 3.622021e-01	 1.525135e+01
 1.470463e+00	 3.789947e-01	 1.520190e+01
 1.466032e+00	 3.957902e-01	 1.516909e+01
 1.461394e+00	 4.125851e-01	 1.516579e+01
 1.425750e+00	 4.025221e-01	 1.548929e+01
 1.421023e+00	 4.189033e-01	 1.548869e+01
 1.416094e+00	 4.352769e-01	 1.547317e+01
 1.410960e+00	 4.516395e-01	 1.544777e+01
 1.405623e+00	 4.679872e-01	 1.541795e+01
 1.400080e+00	 4.843166e-01	 1.538953e+01
 1.432879e+00	 4.045347e-01	 1.542375e+01
 1.428128e+00	 4.209978e-01	 1.542455e+01
 1.423174e+00	 4.374533e-01	 1.541060e+01
 1.418015e+00	 4.538977e-01	 1.538678e+01
 1.412651e+00	 4.703272e-01	 1.535840e+01
 1.407081e+00	 4.867382e-01	 1.533109e+01
 1.440008e+00	 4.065473e-01	 1.535907e+01
 1.435234e+00	 4.230923e-01	 1.536153e+01
 1.430255e+00	 4.396297e-01	 1.534943e+01
 1.425070e+00	 4.561559e-01	 1.532740e+01
 1.419679e+00	 4.726671e-01	 1.530052e+01
 1.414081e+00	 4.891598e-01	 1.527421e+01
 1.447136e+00	 4.085599e-01	 1.529481e+01
 1.442339e+00	 4.251868e-01	 1.529899e+01
 1.437335e+00	 4.418061e-01	 1.528892e+01
 1.432125e+00	 4.584140e-01	 1.526893e+01
 1.426707e+00	 4.750070e-01	 1.524376e+01
 1.421081e+00	 4.915814e-01	 1.521856e+01
 1.454265e+00	 4.105725e-01	 1.523053e+01
 1.449444e+00	 4.272814e-01	 1.523629e+01
 1.444416e+00	 4.439825e-01	 1.522836e+01
 1.439180e+00	 4.606722e-01	 1.521066e+01
 1.433735e+00	 4.773470e-01	 1.518755e+01
 1.428082e+00	 4.940030e-01	 1.516383e+01
 1.461394e+00	 4.125851e-01	 1.516579e+01
 1.456549e+00	 4.293759e-01	 1.517280e+01
 1.451496e+00	 4.461589e-01	 1.516703e+01
 1.446234e+00	 4.629304e-01	 1.515191e+01
 1.440763e+00	 4.796869e-01	 1.513134e+01
 1.435082e+00	 4.964246e-01	 1.510969e+01
 1.400080e+00	 4.843166e-01	 1.538953e+01
 1.394332e+00	 5.006240e-01	 1.535666e+01
 1.388379e+00	 5.169057e-01	 1.531294e+01
 1.382219e+00	 5.331579e-01	 1.526381e+01
 1.375853e+00	 5.493769e-01	 1.521494e+01
 1.369281e+00	 5.655590e-01	 1.517220e+01
 1.407081e+00	 4.867382e-01	 1.533109e+01
 1.401304e+00	 5.031272e-01	 1.529913e+01
 1.395321e+00	 5.194902e-01	 1.525647e+01
 1.389130e+00	 5.358237e-01	 1.520881e+01
 1.382733e+00	 5.521238e-01	 1.516213e+01
 1.376127e+00	 5.683868e-01	 1.512262e+01
 1.414081e+00	 4.891598e-01	 1.527421e+01
 1.408276e+00	 5.056303e-01	 1.524291e+01
 1.402263e+00	 5.220747e-01	 1.520110e+01
 1.396041e+00	 5.384895e-01	 1.515482e+01
 1.389612e+00	 5.548707e-01	 1.511037e+01
 1.382974e+00	 5.712146e-01	 1.507433e+01
 1.421081e+00	 4.915814e-01	 1.521856e+01
 1.415247e+00	 5.081334e-01	 1.518791e+01
 1.409205e+00	 5.246593e-01	 1.514689e+01
 1.402953e+00	 5.411553e-01	 1.510190e+01
 1.396491e+00	 5.576176e-01	 1.505964e+01
 1.389820e+00	 5.740424e-01	 1.502711e+01
 1.428082e+00	 4.940030e-01	 1.516383e+01
 1.422219e+00	 5.106365e-01	 1.513407e+01
 1.416146e+00	 5.272438e-01	 1.509390e+01
 1.409864e+00	 5.438211e-01	 1.505014e+01
 1.403370e+00	 5.603645e-01	 1.500994e+01
 1.396667e+00	 5.768702e-01	 1.498073e+01
 1.435082e+00	 4.964246e-01	 1.510969e+01
 1.429191e+00	 5.131396e-01	 1.508132e+01
 1.423088e+00	 5.298283e-01	 1.504219e+01
 1.416775e+00	 5.464869e-01	 1.499962e+01
 1.410250e+00	 5.631114e-01	 1.496127e+01
 1.403513e+00	 5.796980e-01	 1.493501e+01
 1.369281e+00	 5.655590e-01	 1.517220e+01
 1.362502e+00	 5.817003e-01	 1.512719e+01
 1.355517e+00	 5.977971e-01	 1.507276e+01
 1.348325e+00	 6.138455e-01	 1.501653e+01
 1.340928e+00	 6.298416e-01	 1.496583e+01
 1.333324e+00	 6.457817e-01	 1.492763e+01
 1.376127e+00	 5.683868e-01	 1.512262e+01
 1.369315e+00	 5.846088e-01	 1.508102e+01
 1.362294e+00	 6.007861e-01	 1.502913e+01
 1.355067e+00	 6.169147e-01	 1.497464e+01
 1.347632e+00	 6.329908e-01	 1.492496e+01
 1.339991e+00	 6.490106e-01	 1.488713e+01
 1.382974e+00	 5.712146e-01	 1.507433e+01
 1.376127e+00	 5.875173e-01	 1.503639e+01
 1.369072e+00	 6.037750e-01	 1.498708e+01
 1.361809e+00	 6.199839e-01	 1.493414e+01
 1.354337e+00	 6.361400e-01	 1.488507e+01
 1.346657e+00	 6.522395e-01	 1.484692e+01
 1.389820e+00	 5.740424e-01	 1.502711e+01
 1.382940e+00	 5.904258e-01	 1.499286e+01
 1.375850e+00	 6.067640e-01	 1.494604e+01
 1.368550e+00	 6.230531e-01	 1.489446e+01
 1.361042e+00	 6.392892e-01	 1.484564e+01
 1.353324e+00	 6.554684e-01	 1.480671e+01
 1.396667e+00	 5.768702e-01	 1.498073e+01
 1.389752e+00	 5.933343e-01	 1.495000e+01
 1.382627e+00	 6.097530e-01	 1.490549e+01
 1.375292e+00	 6.261224e-01	 1.485505e+01
 1.367746e+00	 6.424384e-01	 1.480622e+01
 1.359991e+00	 6.586973e-01	 1.476620e+01
 1.403513e+00	 5.796980e-01	 1.493501e+01
 1.396565e+00	 5.962428e-01	 1.490741e+01
 1.389405e+00	 6.127420e-01	 1.486492e+01
 1.382033e+00	 6.291916e-01	 1.481538e+01
 1.374451e+00	 6.455877e-01	 1.476638e+01
 1.366657e+00	 6.619262e-01	 1.472516e+01
 1.333324e+00	 6.457817e-01	 1.492763e+01
 1.325515e+00	 6.616619e-01	 1.488421e+01
 1.317502e+00	 6.774783e-01	 1.481582e+01
 1.309284e+00	 6.932270e-01	 1.472567e+01
 1.300862e+00	 7.089043e-01	 1.461626e+01
 1.292238e+00	 7.245062e-01	 1.448927e+01
 1.339991e+00	 6.490106e-01	 1.488713e+01
 1.332143e+00	 6.649702e-01	 1.484384e+01
 1.324089e+00	 6.808657e-01	 1.477632e+01
 1.315830e+00	 6.966932e-01	 1.468866e+01
 1.307366e+00	 7.124488e-01	 1.458432e+01
 1.298699e+00	 7.281287e-01	 1.446605e+01
 1.346657e+00	 6.522395e-01	 1.484692e+01
 1.338771e+00	 6.682785e-01	 1.480326e+01
 1.330677e+00	 6.842531e-01	 1.473667e+01
 1.322376e+00	 7.001593e-01	 1.465210e+01
 1.313871e+00	 7.159933e-01	 1.455399e+01
 1.305160e+00	 7.317512e-01	 1.444612e+01
 1.353324e+00	 6.554684e-01	 1.480671e+01
 1.345398e+00	 6.715868e-01	 1.476237e+01
 1.337264e+00	 6.876404e-01	 1.469687e+01
 1.328923e+00	 7.036254e-01	 1.461605e+01
 1.320375e+00	 7.195379e-01	 1.452529e+01
 1.311621e+00	 7.353738e-01	 1.442938e+01
 1.359991e+00	 6.586973e-01	 1.476620e+01
 1.352026e+00	 6.748951e-01	 1.472108e+01
 1.343852e+00	 6.910278e-01	 1.465696e+01
 1.335469e+00	 7.070916e-01	 1.458058e+01
 1.326879e+00	 7.230824e-01	 1.449824e+01
 1.318082e+00	 7.389963e-01	 1.441575e+01
 1.366657e+00	 6.619262e-01	 1.472516e+01
 1.358653e+00	 6.782034e-01	 1.467932e+01
 1.350439e+00	 6.944152e-01	 1.461700e+01
 1.342016e+00	 7.105577e-01	 1.454579e+01
 1.333384e+00	 7.266269e-01	 1.447293e+01
 1.324544e+00	 7.426188e-01	 1.440428e+01
 1.292238e+00	 7.245062e-01	 1.448927e+01
 1.283411e+00	 7.400289e-01	 1.441411e+01
 1.274384e+00	 7.554685e-01	 1.439355e+01
 1.265157e+00	 7.708213e-01	 1.434341e+01
 1.255731e+00	 7.860834e-01	 1.425763e+01
 1.246108e+00	 8.012510e-01	 1.413059e+01
 1.298699e+00	 7.281287e-01	 1.446605e+01
 1.289828e+00	 7.437290e-01	 1.440310e+01
 1.280756e+00	 7.592459e-01	 1.437050e+01
 1.271483e+00	 7.746754e-01	 1.431502e+01
 1.262010e+00	 7.900138e-01	 1.422988e+01
 1.252338e+00	 8.052573e-01	 1.410848e+01
 1.305160e+00	 7.317512e-01	 1.444612e+01
 1.296245e+00	 7.474292e-01	 1.438918e+01
 1.287128e+00	 7.630232e-01	 1.434617e+01
 1.277808e+00	 7.785295e-01	 1.428644e+01
 1.268288e+00	 7.939442e-01	 1.420232e+01
 1.258569e+00	 8.092635e-01	 1.408624e+01
 1.311621e+00	 7.353738e-01	 1.442938e+01
 1.302662e+00	 7.511293e-01	 1.437251e+01
 1.293500e+00	 7.668006e-01	 1.432081e+01
 1.284134e+00	 7.823836e-01	 1.425786e+01
 1.274567e+00	 7.978747e-01	 1.417513e+01
 1.264799e+00	 8.132698e-01	 1.406409e+01
 1.318082e+00	 7.389963e-01	 1.441575e+01
 1.309080e+00	 7.548295e-01	 1.435345e+01
 1.299872e+00	 7.705779e-01	 1.429470e+01
 1.290460e+00	 7.862377e-01	 1.422953e+01
 1.280846e+00	 8.018051e-01	 1.414857e+01
 1.271030e+00	 8.172760e-01	 1.404231e+01
 1.324544e+00	 7.426188e-01	 1.440428e+01
 1.315497e+00	 7.585296e-01	 1.433240e+01
 1.306244e+00	 7.743552e-01	 1.426819e+01
 1.296786e+00	 7.900918e-01	 1.420178e+01
 1.287124e+00	 8.057355e-01	 1.412293e+01
 1.277260e+00	 8.212823e-01	 1.402121e+01
 1.246108e+00	 8.012510e-01	 1.413059e+01
 1.236288e+00	 8.163204e-01	 1.399720e+01
 1.226274e+00	 8.312877e-01	 1.388644e+01
 1.216067e+00	 8.461494e-01	 1.378405e+01
 1.205668e+00	 8.609016e-01	 1.367585e+01
 1.195080e+00	 8.755408e-01	 1.354794e+01
 1.252338e+00	 8.052573e-01	 1.410848e+01
 1.242470e+00	 8.204020e-01	 1.398160e+01
 1.232405e+00	 8.354442e-01	 1.387517e+01
 1.222147e+00	 8.503801e-01	 1.377543e+01
 1.211697e+00	 8.652061e-01	 1.366869e+01
 1.201055e+00	 8.799185e-01	 1.354162e+01
 1.258569e+00	 8.092635e-01	 1.408624e+01
 1.248651e+00	 8.244836e-01	 1.396536e+01
 1.238537e+00	 8.396006e-01	 1.386298e+01
 1.228228e+00	 8.546109e-01	 1.376581e+01
 1.217725e+00	 8.695106e-01	 1.366066e+01
 1.207031e+00	 8.842962e-01	 1.353472e+01
 1.264799e+00	 8.132698e-01	 1.406409e+01
 1.254832e+00	 8.285652e-01	 1.394873e+01
 1.244668e+00	 8.437571e-01	 1.385014e+01
 1.234308e+00	 8.588416e-01	 1.375547e+01
 1.223753e+00	 8.738151e-01	 1.365204e+01
 1.213006e+00	 8.886739e-01	 1.352753e+01
 1.271030e+00	 8.172760e-01	 1.404231e+01
 1.261014e+00	 8.326468e-01	 1.393201e+01
 1.250800e+00	 8.479135e-01	 1.383695e+01
 1.240388e+00	 8.630724e-01	 1.374474e+01
 1.229782e+00	 8.781196e-01	 1.364315e+01
 1.218981e+00	 8.930516e-01	 1.352034e+01
 1.277260e+00	 8.212823e-01	 1.402121e+01
 1.267195e+00	 8.367284e-01	 1.391554e+01
 1.256931e+00	 8.520699e-01	 1.382379e+01
 1.246469e+00	 8.673031e-01	 1.373400e+01
 1.235810e+00	 8.824241e-01	 1.363437e+01
 1.224957e+00	 8.974293e-01	 1.351354e+01
 1.195080e+00	 8.755408e-01	 1.354794e+01
 1.184304e+00	 8.900632e-01	 1.341402e+01
 1.173341e+00	 9.044654e-01	 1.329111e+01
 1.162195e+00	 9.187438e-01	 1.317166e+01
 1.150867e+00	 9.328949e-01	 1.304964e+01
 1.139359e+00	 9.469152e-01	 1.292080e+01
 1.201055e+00	 8.799185e-01	 1.354162e+01
 1.190225e+00	 8.945135e-01	 1.340934e+01
 1.179208e+00	 9.089877e-01	 1.328927e+01
 1.168006e+00	 9.233375e-01	 1.317275e+01
 1.156621e+00	 9.375593e-01	 1.305266e+01
 1.145056e+00	 9.516498e-01	 1.292362e+01
 1.207031e+00	 8.842962e-01	 1.353472e+01
 1.196147e+00	 8.989639e-01	 1.340426e+01
 1.185075e+00	 9.135101e-01	 1.328680e+01
 1.173817e+00	 9.279312e-01	 1.317274e+01
 1.162376e+00	 9.422238e-01	 1.305396e+01
 1.150753e+00	 9.563843e-01	 1.292411e+01
 1.213006e+00	 8.886739e-01	 1.352753e+01
 1.202068e+00	 9.034142e-01	 1.339904e+01
 1.190941e+00	 9.180324e-01	 1.328404e+01
 1.179628e+00	 9.325250e-01	 1.317208e+01
 1.168130e+00	 9.468883e-01	 1.305420e+01
 1.156449e+00	 9.611189e-01	 1.292315e+01
 1.218981e+00	 8.930516e-01	 1.352034e+01
 1.207990e+00	 9.078645e-01	 1.339401e+01
 1.196808e+00	 9.225547e-01	 1.328139e+01
 1.185439e+00	 9.371187e-01	 1.317131e+01
 1.173884e+00	 9.515528e-01	 1.305406e+01
 1.162146e+00	 9.658535e-01	 1.292167e+01
 1.224957e+00	 8.974293e-01	 1.351354e+01
 1.213911e+00	 9.123148e-01	 1.338955e+01
 1.202675e+00	 9.270771e-01	 1.327929e+01
 1.191250e+00	 9.417124e-01	 1.317098e+01
 1.179639e+00	 9.562172e-01	 1.305429e+01
 1.167843e+00	 9.705881e-01	 1.292063e+01
 1.139359e+00	 9.469152e-01	 1.292080e+01
 1.127674e+00	 9.608013e-01	 1.277320e+01
 1.115813e+00	 9.745500e-01	 1.260445e+01
 1.103781e+00	 9.881578e-01	 1.242752e+01
 1.091578e+00	 1.001622e+00	 1.225955e+01
 1.079207e+00	 1.014938e+00	 1.212945e+01
 1.145056e+00	 9.516498e-01	 1.292362e+01
 1.133312e+00	 9.656053e-01	 1.277532e+01
 1.121393e+00	 9.794227e-01	 1.260778e+01
 1.109299e+00	 9.930986e-01	 1.243497e+01
 1.097035e+00	 1.006630e+00	 1.227247e+01
 1.084603e+00	 1.020013e+00	 1.214695e+01
 1.150753e+00	 9.563843e-01	 1.292411e+01
 1.138951e+00	 9.704093e-01	 1.277479e+01
 1.126972e+00	 9.842955e-01	 1.260846e+01
 1.114818e+00	 9.980394e-01	 1.243900e+01
 1.102493e+00	 1.011638e+00	 1.228289e+01
 1.089999e+00	 1.025088e+00	 1.216288e+01
 1.156449e+00	 9.611189e-01	 1.292315e+01
 1.144589e+00	 9.752133e-01	 1.277268e+01
 1.132551e+00	 9.891682e-01	 1.260771e+01
 1.120337e+00	 1.002980e+00	 1.244174e+01
 1.107951e+00	 1.016646e+00	 1.229174e+01
 1.095395e+00	 1.030162e+00	 1.217807e+01
 1.162146e+00	 9.658535e-01	 1.292167e+01
 1.150227e+00	 9.800173e-01	 1.277015e+01
 1.138130e+00	 9.940410e-01	 1.260678e+01
 1.125856e+00	 1.007921e+00	 1.244456e+01
 1.113409e+00	 1.021654e+00	 1.230012e+01
 1.100791e+00	 1.035237e+00	 1.219338e+01
 1.167843e+00	 9.705881e-01	 1.292063e+01
 1.155866e+00	 9.848214e-01	 1.276835e+01
 1.143709e+00	 9.989137e-01	 1.260698e+01
 1.131375e+00	 1.012862e+00	 1.244883e+01
 1.118867e+00	 1.026662e+00	 1.230985e+01
 1.106187e+00	 1.040312e+00	 1.220978e+01
 1.079207e+00	 1.014938e+00	 1.212945e+01
 1.066672e+00	 1.028105e+00	 1.199702e+01
 1.053974e+00	 1.041118e+00	 1.181789e+01
 1.041118e+00	 1.053974e+00	 1.161813e+01
 1.028105e+00	 1.066672e+00	 1.142468e+01
 1.014938e+00	 1.079207e+00	 1.126502e+01
 1.084603e+00	 1.020013e+00	 1.214695e+01
 1.072005e+00	 1.033245e+00	 1.201680e+01
 1.059244e+00	 1.046323e+00	 1.183687e+01
 1.046323e+00	 1.059244e+00	 1.163484e+01
 1.033245e+00	 1.072005e+00	 1.143935e+01
 1.020013e+00	 1.084603e+00	 1.127964e+01
 1.089999e+00	 1.025088e+00	 1.216288e+01
 1.077338e+00	 1.038386e+00	 1.203565e+01
 1.064514e+00	 1.051529e+00	 1.185536e+01
 1.051529e+00	 1.064514e+00	 1.165129e+01
 1.038386e+00	 1.077338e+00	 1.145379e+01
 1.025088e+00	 1.089999e+00	 1.129388e+01
 1.095395e+00	 1.030162e+00	 1.217807e+01
 1.082672e+00	 1.043526e+00	 1.205421e+01
 1.069784e+00	 1.056734e+00	 1.187377e+01
 1.056734e+00	 1.069784e+00	 1.166765e+01
 1.043526e+00	 1.082672e+00	 1.146792e+01
 1.030162e+00	 1.095395e+00	 1.130737e+01
 1.100791e+00	 1.035237e+00	 1.219338e+01
 1.088005e+00	 1.048667e+00	 1.207316e+01
 1.075054e+00	 1.061940e+00	 1.189258e+01
 1.061940e+00	 1.075054e+00	 1.168417e+01
 1.048667e+00	 1.088005e+00	 1.148170e+01
 1.035237e+00	 1.100791e+00	 1.131980e+01
 1.106187e+00	 1.040312e+00	 1.220978e+01
 1.093338e+00	 1.053807e+00	 1.209329e+01
 1.080324e+00	 1.067145e+00	 1.191236e+01
 1.067145e+00	 1.080324e+00	 1.170116e+01
 1.053807e+00	 1.093338e+00	 1.149522e+01
 1.040312e+00	 1.106187e+00	 1.133095e+01
 1.014938e+00	 1.079207e+00	 1.126502e+01
 1.001622e+00	 1.091578e+00	 1.110471e+01
 9.881578e-01	 1.103781e+00	 1.091151e+01
 9.745500e-01	 1.115813e+00	 1.071428e+01
 9.608013e-01	 1.127674e+00	 1.051881e+01
 9.469152e-01	 1.139359e+00	 1.031963e+01
 1.020013e+00	 1.084603e+00	 1.127964e+01
 1.006630e+00	 1.097035e+00	 1.112219e+01
 9.930986e-01	 1.109299e+00	 1.093493e+01
 9.794227e-01	 1.121393e+00	 1.074355e+01
 9.656053e-01	 1.133312e+00	 1.055061e+01
 9.516498e-01	 1.145056e+00	 1.035185e+01
 1.025088e+00	 1.089999e+00	 1.129388e+01
 1.011638e+00	 1.102493e+00	 1.113884e+01
 9.980394e-01	 1.114818e+00	 1.095666e+01
 9.842955e-01	 1.126972e+00	 1.076990e+01
 9.704093e-01	 1.138951e+00	 1.057936e+01
 9.563843e-01	 1.150753e+00	 1.038084e+01
 1.030162e+00	 1.095395e+00	 1.130737e+01
 1.016646e+00	 1.107951e+00	 1.115400e+01
 1.002980e+00	 1.120337e+00	 1.097687e+01
 9.891682e-01	 1.132551e+00	 1.079468e+01
 9.752133e-01	 1.144589e+00	 1.060646e+01
 9.611189e-01	 1.156449e+00	 1.040809e+01
 1.035237e+00	 1.100791e+00	 1.131980e+01
 1.021654e+00	 1.113409e+00	 1.116743e+01
 1.007921e+00	 1.125856e+00	 1.099692e+01
 9.940410e-01	 1.138130e+00	 1.081925e+01
 9.800173e-01	 1.150227e+00	 1.063327e+01
 9.658535e-01	 1.162146e+00	 1.043508e+01
 1.040312e+00	 1.106187e+00	 1.133095e+01
 1.026662e+00	 1.118867e+00	 1.118176e+01
 1.012862e+00	 1.131375e+00	 1.101825e+01
 9.989137e-01	 1.143709e+00	 1.084500e+01
 9.848214e-01	 1.155866e+00	 1.066122e+01
 9.705881e-01	 1.167843e+00	 1.046331e+01
 9.469152e-01	 1.139359e+00	 1.031963e+01
 9.328949e-01	 1.150867e+00	 1.012150e+01
 9.187438e-01	 1.162195e+00	 9.930358e+00
 9.044654e-01	 1.173341e+00	 9.741016e+00
 8.900632e-01	 1.184304e+00	 9.546952e+00
 8.755408e-01	 1.195080e+00	 9.340531e+00
 9.516498e-01	 1.145056e+00	 1.035185e+01
 9.375593e-01	 1.156621e+00	 1.015348e+01
 9.233375e-01	 1.168006e+00	 9.962774e+00
 9.089877e-01	 1.179208e+00	 9.774233e+00
 8.945135e-01	 1.190225e+00	 9.580982e+00
 8.799185e-01	 1.201055e+00	 9.375018e+00
 9.563843e-01	 1.150753e+00	 1.038084e+01
 9.422238e-01	 1.162376e+00	 1.018211e+01
 9.279312e-01	 1.173817e+00	 9.991861e+00
 9.135101e-01	 1.185075e+00	 9.804217e+00
 8.989639e-01	 1.196147e+00	 9.611919e+00
 8.842962e-01	 1.207031e+00	 9.406543e+00
 9.611189e-01	 1.156449e+00	 1.040809e+01
 9.468883e-01	 1.168130e+00	 1.020900e+01
 9.325250e-01	 1.179628e+00	 1.001928e+01
 9.180324e-01	 1.190941e+00	 9.832635e+00
 9.034142e-01	 1.202068e+00	 9.641379e+00
 8.886739e-01	 1.213006e+00	 9.436615e+00
 9.658535e-01	 1.162146e+00	 1.043508e+01
 9.515528e-01	 1.173884e+00	 1.023576e+01
 9.371187e-01	 1.185439e+00	 1.004669e+01
 9.225547e-01	 1.196808e+00	 9.861160e+00
 9.078645e-01	 1.207990e+00	 9.670988e+00
 8.930516e-01	 1.218981e+00	 9.466760e+00
 9.705881e-01	 1.167843e+00	 1.046331e+01
 9.562172e-01	 1.179639e+00	 1.026400e+01
 9.417124e-01	 1.191250e+00	 1.007578e+01
 9.270771e-01	 1.202675e+00	 9.891477e+00
 9.123148e-01	 1.213911e+00	 9.702385e+00
 8.974293e-01	 1.224957e+00	 9.498517e+00
 8.755408e-01	 1.195080e+00	 9.340531e+00
 8.609016e-01	 1.205668e+00	 9.129481e+00
 8.461494e-01	 1.216067e+00	 8.922862e+00
 8.312877e-01	 1.226274e+00	 8.714096e+00
 8.163204e-01	 1.236288e+00	 8.496454e+00
 8.012510e-01	 1.246108e+00	 8.263250e+00
 8.799185e-01	 1.201055e+00	 9.375018e+00
 8.652061e-01	 1.211697e+00	 9.164453e+00
 8.503801e-01	 1.222147e+00	 8.959042e+00
 8.354442e-01	 1.232405e+00	 8.752297e+00
 8.204020e-01	 1.242470e+00	 8.537574e+00
 8.052573e-01	 1.252338e+00	 8.308277e+00
 8.842962e-01	 1.207031e+00	 9.406543e+00
 8.695106e-01	 1.217725e+00	 9.196518e+00
 8.546109e-01	 1.228228e+00	 8.992285e+00
 8.396006e-01	 1.238537e+00	 8.787458e+00
 8.244836e-01	 1.248651e+00	 8.575507e+00
 8.092635e-01	 1.258569e+00	 8.349954e+00
 8.886739e-01	 1.213006e+00	 9.436615e+00
 8.738151e-01	 1.223753e+00	 9.227077e+00
 8.588416e-01	 1.234308e+00	 9.023915e+00
 8.437571e-01	 1.244668e+00	 8.820872e+00
 8.285652e-01	 1.254832e+00	 8.611549e+00
 8.132698e-01	 1.264799e+00	 8.389618e+00
 8.930516e-01	 1.218981e+00	 9.466760e+00
 8.781196e-01	 1.229782e+00	 9.257544e+00
 8.630724e-01	 1.240388e+00	 9.055279e+00
 8.479135e-01	 1.250800e+00	 8.853851e+00
 8.326468e-01	 1.261014e+00	 8.647018e+00
 8.172760e-01	 1.271030e+00	 8.428628e+00
 8.974293e-01	 1.224957e+00	 9.498517e+00
 8.824241e-01	 1.235810e+00	 9.289352e+00
 8.673031e-01	 1.246469e+00	 9.087740e+00
 8.520699e-01	 1.256931e+00	 8.887727e+00
 8.367284e-01	 1.267195e+00	 8.683250e+00
 8.212823e-01	 1.277260e+00	 8.468359e+00
 8.012510e-01	 1.246108e+00	 8.263250e+00
 7.860834e-01	 1.255731e+00	 8.047964e+00
 7.708213e-01	 1.265157e+00	 7.869845e+00
 7.554685e-01	 1.274384e+00	 7.701043e+00
 7.400289e-01	 1.283411e+00	 7.513899e+00
 7.245062e-01	 1.292238e+00	 7.273869e+00
 8.052573e-01	 1.252338e+00	 8.308277e+00
 7.900138e-01	 1.262010e+00	 8.095464e+00
 7.746754e-01	 1.271483e+00	 7.916607e+00
 7.592459e-01	 1.280756e+00	 7.744971e+00
 7.437290e-01	 1.289828e+00	 7.554094e+00
 7.281287e-01	 1.298699e+00	 7.313629e+00
 8.092635e-01	 1.258569e+00	 8.349954e+00
 7.939442e-01	 1.268288e+00	 8.139644e+00
 7.785295e-01	 1.277808e+00	 7.960405e+00
 7.630232e-01	 1.287128e+00	 7.786526e+00
 7.474292e-01	 1.296245e+00	 7.592633e+00
 7.317512e-01	 1.305160e+00	 7.351706e+00
 8.132698e-01	 1.264799e+00	 8.389618e+00
 7.978747e-01	 1.274567e+00	 8.181869e+00
 7.823836e-01	 1.284134e+00	 8.002564e+00
 7.668006e-01	 1.293500e+00	 7.826932e+00
 7.511293e-01	 1.302662e+00	 7.630593e+00
 7.353738e-01	 1.311621e+00	 7.388990e+00
 8.172760e-01	 1.271030e+00	 8.428628e+00
 8.018051e-01	 1.280846e+00	 8.223522e+00
 7.862377e-01	 1.290460e+00	 8.044432e+00
 7.705779e-01	 1.299872e+00	 7.867437e+00
 7.548295e-01	 1.309080e+00	 7.669063e+00
 7.389963e-01	 1.318082e+00	 7.426393e+00
 8.212823e-01	 1.277260e+00	 8.468359e+00
 8.057355e-01	 1.287124e+00	 8.266008e+00
 7.900918e-01	 1.296786e+00	 8.087377e+00
 7.743552e-01	 1.306244e+00	 7.909314e+00
 7.585296e-01	 1.315497e+00	 7.709160e+00
 7.426188e-01	 1.324544e+00	 7.464940e+00
 7.245062e-01	 1.292238e+00	 7.273869e+00
 7.089043e-01	 1.300862e+00	 7.020397e+00
 6.932270e-01	 1.309284e+00	 6.804552e+00
 6.774783e-01	 1.317502e+00	 6.610608e+00
 6.616619e-01	 1.325515e+00	 6.424949e+00
 6.457817e-01	 1.333324e+00	 6.236056e+00
 7.281287e-01	 1.298699e+00	 7.313629e+00
 7.124488e-01	 1.307366e+00	 7.061982e+00
 6.966932e-01	 1.315830e+00	 6.849930e+00
 6.808657e-01	 1.324089e+00	 6.660193e+00
 6.649702e-01	 1.332143e+00	 6.477619e+00
 6.490106e-01	 1.339991e+00	 6.289171e+00
 7.317512e-01	 1.305160e+00	 7.351706e+00
 7.159933e-01	 1.313871e+00	 7.102138e+00
 7.001593e-01	 1.322376e+00	 6.893469e+00
 6.842531e-01	 1.330677e+00	 6.707185e+00
 6.682785e-01	 1.338771e+00	 6.526923e+00
 6.522395e-01	 1.346657e+00	 6.338471e+00
 7.353738e-01	 1.311621e+00	 7.388990e+00
 7.195379e-01	 1.320375e+00	 7.141588e+00
 7.036254e-01	 1.328923e+00	 6.935846e+00
 6.876404e-01	 1.337264e+00	 6.752322e+00
 6.715868e-01	 1.345398e+00	 6.573770e+00
 6.554684e-01	 1.353324e+00	 6.385140e+00
 7.389963e-01	 1.318082e+00	 7.426393e+00
 7.230824e-01	 1.326879e+00	 7.181083e+00
 7.070916e-01	 1.335469e+00	 6.977763e+00
 6.910278e-01	 1.343852e+00	 6.796371e+00
 6.748951e-01	 1.352026e+00	 6.619096e+00
 6.586973e-01	 1.359991e+00	 6.430380e+00
 7.426188e-01	 1.324544e+00	 7.464940e+00
 7.266269e-01	 1.333384e+00	 7.221400e+00
 7.105577e-01	 1.342016e+00	 7.019953e+00
 6.944152e-01	 1.350439e+00	 6.840126e+00
 6.782034e-01	 1.358653e+00	 6.663859e+00
 6.619262e-01	 1.366657e+00	 6.475412e+00
 6.457817e-01	 1.333324e+00	 6.236056e+00
 6.298416e-01	 1.340928e+00	 6.038701e+00
 6.138455e-01	 1.348325e+00	 5.836124e+00
 5.977971e-01	 1.355517e+00	 5.632640e+00
 5.817003e-01	 1.362502e+00	 5.434580e+00
 5.655590e-01	 1.369281e+00	 5.250167e+00
 6.490106e-01	 1.339991e+00	 6.289171e+00
 6.329908e-01	 1.347632e+00	 6.089938e+00
 6.169147e-01	 1.355067e+00	 5.885008e+00
 6.007861e-01	 1.362294e+00	 5.679551e+00
 5.846088e-01	 1.369315e+00	 5.480832e+00
 5.683868e-01	 1.376127e+00	 5.298082e+00
 6.522395e-01	 1.346657e+00	 6.338471e+00
 6.361400e-01	 1.354337e+00	 6.137715e+00
 6.199839e-01	 1.361809e+00	 5.931517e+00
 6.037750e-01	 1.369072e+00	 5.725417e+00
 5.875173e-01	 1.376127e+00	 5.527116e+00
 5.712146e-01	 1.382974e+00	 5.346339e+00
 6.554684e-01	 1.353324e+00	 6.385140e+00
 6.392892e-01	 1.361042e+00	 6.183449e+00
 6.230531e-01	 1.368550e+00	 5.977130e+00
 6.067640e-01	 1.375850e+00	 5.771614e+00
 5.904258e-01	 1.382940e+00	 5.574544e+00
 5.740424e-01	 1.389820e+00	 5.395644e+00
 6.586973e-01	 1.359991e+00	 6.430380e+00
 6.424384e-01	 1.367746e+00	 6.228573e+00
 6.261224e-01	 1.375292e+00	 6.023339e+00
 6.097530e-01	 1.382627e+00	 5.819528e+00
 5.933343e-01	 1.389752e+00	 5.624248e+00
 5.768702e-01	 1.396667e+00	 5.446723e+00
 6.619262e-01	 1.366657e+00	 6.475412e+00
 6.455877e-01	 1.374451e+00	 6.274530e+00
 6.291916e-01	 1.382033e+00	 6.071645e+00
 6.127420e-01	 1.389405e+00	 5.870562e+00
 5.962428e-01	 1.396565e+00	 5.677377e+00
 5.796980e-01	 1.403513e+00	 5.500332e+00
 5.655590e-01	 1.369281e+00	 5.250167e+00
 5.493769e-01	 1.375853e+00	 5.076155e+00
 5.331579e-01	 1.382219e+00	 4.900627e+00
 5.169057e-01	 1.388379e+00	 4.721043e+00
 5.006240e-01	 1.394332e+00	 4.535963e+00
 4.843166e-01	 1.400080e+00	 4.344893e+00
 5.683868e-01	 1.376127e+00	 5.298082e+00
 5.521238e-01	 1.382733e+00	 5.127005e+00
 5.358237e-01	 1.389130e+00	 4.953794e+00
 5.194902e-01	 1.395321e+00	 4.775719e+00
 5.031272e-01	 1.401304e+00	 4.591169e+00
 4.867382e-01	 1.407081e+00	 4.399505e+00
 5.712146e-01	 1.382974e+00	 5.346339e+00
 5.548707e-01	 1.389612e+00	 5.177297e+00
 5.384895e-01	 1.396041e+00	 5.004646e+00
 5.220747e-01	 1.402263e+00	 4.826166e+00
 5.056303e-01	 1.408276e+00	 4.640794e+00
 4.891598e-01	 1.414081e+00	 4.448468e+00
 5.740424e-01	 1.389820e+00	 5.395644e+00
 5.576176e-01	 1.396491e+00	 5.227345e+00
 5.411553e-01	 1.402953e+00	 5.053280e+00
 5.246593e-01	 1.409205e+00	 4.872431e+00
 5.081334e-01	 1.415247e+00	 4.684986e+00
 4.915814e-01	 1.421081e+00	 4.492176e+00
 5.768702e-01	 1.396667e+00	 5.446723e+00
 5.603645e-01	 1.403370e+00	 5.277493e+00
 5.438211e-01	 1.409864e+00	 5.099827e+00
 5.272438e-01	 1.416146e+00	 4.914593e+00
 5.106365e-01	 1.422219e+00	 4.723923e+00
 4.940030e-01	 1.428082e+00	 4.531047e+00
 5.796980e-01	 1.403513e+00	 5.500332e+00
 5.631114e-01	 1.410250e+00	 5.328117e+00
 5.464869e-01	 1.416775e+00	 5.144453e+00
 5.298283e-01	 1.423088e+00	 4.952763e+00
 5.131396e-01	 1.429191e+00	 4.757811e+00
 4.964246e-01	 1.435082e+00	 4.565520e+00
 4.843166e-01	 1.400080e+00	 4.344893e+00
 4.679872e-01	 1.405623e+00	 4.155867e+00
 4.516395e-01	 1.410960e+00	 3.980484e+00
 4.352769e-01	 1.416094e+00	 3.824612e+00
 4.189033e-01	 1.421023e+00	 3.694481e+00
 4.025221e-01	 1.425750e+00	 3.596499e+00
 4.867382e-01	 1.407081e+00	 4.399505e+00
 4.703272e-01	 1.412651e+00	 4.209344e+00
 4.538977e-01	 1.418015e+00	 4.032752e+00
 4.374533e-01	 1.423174e+00	 3.875297e+00
 4.209978e-01	 1.428128e+00	 3.742929e+00
 4.045347e-01	 1.432879e+00	 3.641789e+00
 4.891598e-01	 1.414081e+00	 4.448468e+00
 4.726671e-01	 1.419679e+00	 4.258869e+00
 4.561559e-01	 1.425070e+00	 4.084035e+00
 4.396297e-01	 1.430255e+00	 3.928495e+00
 4.230923e-01	 1.435234e+00	 3.797178e+00
 4.065473e-01	 1.440008e+00	 3.695210e+00
 4.915814e-01	 1.421081e+00	 4.492176e+00
 4.750070e-01	 1.426707e+00	 4.305073e+00
 4.584140e-01	 1.432125e+00	 4.135047e+00
 4.418061e-01	 1.437335e+00	 3.984865e+00
 4.251868e-01	 1.442339e+00	 3.857701e+00
 4.085599e-01	 1.447136e+00	 3.756936e+00
 4.940030e-01	 1.428082e+00	 4.531047e+00
 4.773470e-01	 1.433735e+00	 4.348601e+00
 4.606722e-01	 1.439180e+00	 4.186512e+00
 4.439825e-01	 1.444416e+00	 4.045073e+00
 4.272814e-01	 1.449444e+00	 3.924985e+00
 4.105725e-01	 1.454265e+00	 3.827158e+00
 4.964246e-01	 1.435082e+00	 4.565520e+00
 4.796869e-01	 1.440763e+00	 4.390116e+00
 4.629304e-01	 1.446234e+00	 4.239168e+00
 4.461589e-01	 1.451496e+00	 4.109798e+00
 4.293759e-01	 1.456549e+00	 3.999527e+00
 4.125851e-01	 1.461394e+00	 3.906084e+00
 4.025221e-01	 1.425750e+00	 3.596499e+00
 3.861368e-01	 1.430275e+00	 3.480832e+00
 3.697509e-01	 1.434598e+00	 3.319060e+00
 3.533679e-01	 1.438721e+00	 3.135077e+00
 3.369912e-01	 1.442645e+00	 2.957220e+00
 3.206241e-01	 1.446370e+00	 2.824247e+00
 4.045347e-01	 1.432879e+00	 3.641789e+00
 3.880675e-01	 1.437426e+00	 3.522802e+00
 3.715997e-01	 1.441771e+00	 3.359205e+00
 3.551348e-01	 1.445915e+00	 3.178193e+00
 3.386762e-01	 1.449858e+00	 3.004277e+00
 3.222272e-01	 1.453602e+00	 2.875775e+00
 4.065473e-01	 1.440008e+00	 3.695210e+00
 3.899981e-01	 1.444577e+00	 3.573747e+00
 3.734484e-01	 1.448944e+00	 3.407763e+00
 3.569016e-01	 1.453108e+00	 3.227965e+00
 3.403611e-01	 1.457071e+00	 3.055855e+00
 3.238303e-01	 1.460834e+00	 2.929066e+00
 4.085599e-01	 1.447136e+00	 3.756936e+00
 3.919288e-01	 1.451729e+00	 3.633506e+00
 3.752972e-01	 1.456117e+00	 3.464285e+00
 3.586685e-01	 1.460302e+00	 3.283562e+00
 3.420461e-01	 1.464285e+00	 3.110832e+00
 3.254335e-01	 1.468066e+00	 2.982749e+00
 4.105725e-01	 1.454265e+00	 3.827158e+00
 3.938595e-01	 1.458880e+00	 3.701936e+00
 3.771459e-01	 1.463290e+00	 3.528322e+00
 3.604353e-01	 1.467496e+00	 3.344192e+00
 3.437310e-01	 1.471498e+00	 3.168117e+00
 3.270366e-01	 1.475298e+00	 3.035483e+00
 4.125851e-01	 1.461394e+00	 3.906084e+00
 3.957902e-01	 1.466032e+00	 3.778916e+00
 3.789947e-01	 1.470463e+00	 3.599450e+00
 3.622021e-01	 1.474689e+00	 3.409091e+00
 3.454160e-01	 1.478711e+00	 3.226649e+00
 3.286397e-01	 1.482530e+00	 3.086569e+00
 3.206241e-01	 1.446370e+00	 2.824247e+00
 3.042699e-01	 1.449899e+00	 2.730233e+00
 2.879319e-01	 1.453232e+00	 2.644857e+00
 2.716132e-01	 1.456370e+00	 2.564729e+00
 2.553171e-01	 1.459315e+00	 2.483339e+00
 2.390466e-01	 1.462068e+00	 2.391384e+00
 3.222272e-01	 1.453602e+00	 2.875775e+00
 3.057912e-01	 1.457149e+00	 2.785182e+00
 2.893715e-01	 1.460498e+00	 2.701366e+00
 2.729713e-01	 1.463652e+00	 2.621444e+00
 2.565937e-01	 1.466612e+00	 2.539242e+00
 2.402418e-01	 1.469379e+00	 2.445637e+00
 3.238303e-01	 1.460834e+00	 2.929066e+00
 3.073126e-01	 1.464398e+00	 2.838744e+00
 2.908112e-01	 1.467764e+00	 2.753457e+00
 2.743293e-01	 1.470934e+00	 2.671350e+00
 2.578702e-01	 1.473908e+00	 2.587092e+00
 2.414370e-01	 1.476689e+00	 2.492246e+00
 3.254335e-01	 1.468066e+00	 2.982749e+00
 3.088339e-01	 1.471648e+00	 2.889378e+00
 2.922508e-01	 1.475030e+00	 2.799528e+00
 2.756874e-01	 1.478216e+00	 2.712875e+00
 2.591468e-01	 1.481205e+00	 2.625436e+00
 2.426323e-01	 1.483999e+00	 2.531029e+00
 3.270366e-01	 1.475298e+00	 3.035483e+00
 3.103553e-01	 1.478897e+00	 2.935572e+00
 2.936905e-01	 1.482296e+00	 2.838269e+00
 2.770455e-01	 1.485497e+00	 2.749809e+00
 2.604234e-01	 1.488501e+00	 2.665343e+00
 2.438275e-01	 1.491310e+00	 2.574498e+00
 3.286397e-01	 1.482530e+00	 3.086569e+00
 3.118766e-01	 1.486147e+00	 2.986458e+00
 2.951302e-01	 1.489563e+00	 2.894350e+00
 2.784035e-01	 1.492779e+00	 2.807707e+00
 2.617000e-01	 1.495798e+00	 2.721164e+00
 2.450227e-01	 1.498620e+00	 2.627054e+00
 2.390466e-01	 1.462068e+00	 2.391384e+00
 2.228048e-01	 1.464631e+00	 2.289967e+00
 2.065946e-01	 1.467006e+00	 2.191720e+00
 1.904191e-01	 1.469193e+00	 2.101377e+00
 1.742810e-01	 1.471195e+00	 2.022136e+00
 1.581832e-01	 1.473012e+00	 1.956036e+00
 2.402418e-01	 1.469379e+00	 2.445637e+00
 2.239188e-01	 1.471955e+00	 2.342345e+00
 2.076276e-01	 1.474341e+00	 2.242752e+00
 1.913711e-01	 1.476539e+00	 2.151798e+00
 1.751524e-01	 1.478551e+00	 2.072803e+00
 1.589741e-01	 1.480377e+00	 2.007860e+00
 2.414370e-01	 1.476689e+00	 2.492246e+00
 2.250328e-01	 1.479278e+00	 2.389490e+00
 2.086606e-01	 1.481676e+00	 2.292677e+00
 1.923232e-01	 1.483885e+00	 2.206153e+00
 1.760238e-01	 1.485907e+00	 2.131408e+00
 1.597650e-01	 1.487742e+00	 2.069053e+00
 2.426323e-01	 1.483999e+00	 2.531029e+00
 2.261468e-01	 1.486601e+00	 2.432796e+00
 2.096935e-01	 1.489011e+00	 2.341635e+00
 1.932753e-01	 1.491231e+00	 2.259499e+00
 1.768952e-01	 1.493263e+00	 2.187542e+00
 1.605560e-01	 1.495108e+00	 2.126462e+00
 2.438275e-01	 1.491310e+00	 2.574498e+00
 2.272609e-01	 1.493924e+00	 2.479154e+00
 2.107265e-01	 1.496346e+00	 2.390736e+00
 1.942274e-01	 1.498577e+00	 2.310944e+00
 1.777666e-01	 1.500618e+00	 2.240682e+00
 1.613469e-01	 1.502473e+00	 2.180391e+00
 2.450227e-01	 1.498620e+00	 2.627054e+00
 2.283749e-01	 1.501247e+00	 2.529676e+00
 2.117595e-01	 1.503681e+00	 2.440676e+00
 1.951795e-01	 1.505923e+00	 2.361163e+00
 1.786380e-01	 1.507974e+00	 2.291450e+00
 1.621378e-01	 1.509838e+00	 2.231389e+00
 1.581832e-01	 1.473012e+00	 1.956036e+00
 1.421285e-01	 1.474648e+00	 1.901347e+00
 1.261196e-01	 1.476103e+00	 1.854276e+00
 1.101591e-01	 1.477380e+00	 1.813230e+00
 9.424952e-02	 1.478480e+00	 1.777048e+00
 7.839350e-02	 1.479406e+00	 1.745346e+00
 1.589741e-01	 1.480377e+00	 2.007860e+00
 1.428392e-01	 1.482021e+00	 1.955260e+00
 1.267502e-01	 1.483484e+00	 1.910068e+00
 1.107098e-01	 1.484767e+00	 1.870030e+00
 9.472077e-02	 1.485873e+00	 1.833937e+00
 7.878547e-02	 1.486803e+00	 1.801638e+00
 1.597650e-01	 1.487742e+00	 2.069053e+00
 1.435498e-01	 1.489395e+00	 2.016805e+00
 1.273808e-01	 1.490864e+00	 1.970716e+00
 1.112606e-01	 1.492154e+00	 1.929180e+00
 9.519201e-02	 1.493265e+00	 1.891369e+00
 7.917743e-02	 1.494200e+00	 1.857482e+00
 1.605560e-01	 1.495108e+00	 2.126462e+00
 1.442604e-01	 1.496768e+00	 2.074263e+00
 1.280114e-01	 1.498245e+00	 2.027478e+00
 1.118114e-01	 1.499541e+00	 1.984857e+00
 9.566326e-02	 1.500658e+00	 1.945903e+00
 7.956940e-02	 1.501597e+00	 1.911112e+00
 1.613469e-01	 1.502473e+00	 2.180391e+00
 1.449711e-01	 1.504141e+00	 2.128093e+00
 1.286420e-01	 1.505625e+00	 2.080726e+00
 1.123622e-01	 1.506928e+00	 2.037347e+00
 9.613451e-02	 1.508050e+00	 1.997740e+00
 7.996137e-02	 1.508994e+00	 1.962649e+00
 1.621378e-01	 1.509838e+00	 2.231389e+00
 1.456817e-01	 1.511514e+00	 2.178758e+00
 1.292726e-01	 1.513006e+00	 2.130835e+00
 1.129130e-01	 1.514315e+00	 2.086936e+00
 9.660576e-02	 1.515442e+00	 2.047081e+00
 8.035334e-02	 1.516391e+00	 2.012216e+00
 7.839350e-02	 1.479406e+00	 1.745346e+00
 6.259345e-02	 1.480159e+00	 1.719674e+00
 4.685177e-02	 1.480740e+00	 1.699940e+00
 3.117080e-02	 1.481154e+00	 1.685484e+00
 1.555281e-02	 1.481400e+00	 1.677707e+00
 0.000000e+00	 1.481481e+00	 1.680308e+00
 7.878547e-02	 1.486803e+00	 1.801638e+00
 6.290642e-02	 1.487559e+00	 1.775005e+00
 4.708603e-02	 1.488144e+00	 1.754177e+00
 3.132665e-02	 1.488559e+00	 1.738720e+00
 1.563057e-02	 1.488807e+00	 1.730195e+00
 0.000000e+00	 1.488889e+00	 1.732361e+00
 7.917743e-02	 1.494200e+00	 1.857482e+00
 6.321939e-02	 1.494960e+00	 1.829595e+00
 4.732029e-02	 1.495548e+00	 1.807815e+00
 3.148251e-02	 1.495965e+00	 1.791636e+00
 1.570833e-02	 1.496214e+00	 1.782511e+00
 0.000000e+00	 1.496296e+00	 1.784042e+00
 7.956940e-02	 1.501597e+00	 1.911112e+00
 6.353235e-02	 1.502361e+00	 1.882689e+00
 4.755455e-02	 1.502952e+00	 1.860597e+00
 3.163836e-02	 1.503371e+00	 1.844167e+00
 1.578610e-02	 1.503621e+00	 1.834643e+00
 0.000000e+00	 1.503704e+00	 1.835375e+00
 7.996137e-02	 1.508994e+00	 1.962649e+00
 6.384532e-02	 1.509762e+00	 1.934340e+00
 4.778881e-02	 1.510355e+00	 1.912534e+00
 3.179422e-02	 1.510777e+00	 1.896300e+00
 1.586386e-02	 1.511028e+00	 1.886582e+00
 0.000000e+00	 1.511111e+00	 1.886385e+00
 8.035334e-02	 1.516391e+00	 2.012216e+00
 6.415829e-02	 1.517163e+00	 1.984603e+00
 4.802307e-02	 1.517759e+00	 1.963631e+00
 3.195007e-02	 1.518182e+00	 1.948018e+00
 1.594163e-02	 1.518435e+00	 1.938315e+00
 0.000000e+00	 1.518519e+00	 1.937090e+00
 1.518519e+00	 0.000000e+00	 1.531973e+01
 1.518435e+00	 1.594163e-02	 1.532287e+01
 1.518182e+00	 3.195007e-02	 1.532414e+01
 1.517759e+00	 4.802307e-02	 1.532394e+01
 1.517163e+00	 6.415829e-02	 1.532223e+01
 1.516391e+00	 8.035334e-02	 1.531862e+01
 1.525926e+00	 0.000000e+00	 1.524289e+01
 1.525842e+00	 1.601939e-02	 1.524578e+01
 1.525588e+00	 3.210592e-02	 1.524701e+01
 1.525163e+00	 4.825733e-02	 1.524696e+01
 1.524563e+00	 6.447125e-02	 1.524562e+01
 1.523788e+00	 8.074530e-02	 1.524262e+01
 1.533333e+00	 0.000000e+00	 1.516776e+01
 1.533249e+00	 1.609715e-02	 1.517042e+01
 1.532994e+00	 3.226178e-02	 1.517158e+01
 1.532566e+00	 4.849159e-02	 1.517165e+01
 1.531964e+00	 6.478422e-02	 1.517064e+01
 1.531185e+00	 8.113727e-02	 1.516820e+01
 1.540741e+00	 0.000000e+00	 1.509427e+01
 1.540656e+00	 1.617492e-02	 1.509670e+01
 1.540400e+00	 3.241763e-02	 1.509777e+01
 1.539970e+00	 4.872584e-02	 1.509792e+01
 1.539365e+00	 6.509719e-02	 1.509719e+01
 1.538582e+00	 8.152924e-02	 1.509528e+01
 1.548148e+00	 0.000000e+00	 1.502233e+01
 1.548063e+00	 1.625268e-02	 1.502457e+01
 1.547805e+00	 3.257349e-02	 1.502553e+01
 1.547374e+00	 4.896010e-02	 1.502570e+01
 1.546766e+00	 6.541016e-02	 1.502518e+01
 1.545979e+00	 8.192121e-02	 1.502374e+01
 1.555556e+00	 0.000000e+00	 1.495185e+01
 1.555470e+00	 1.633045e-02	 1.495394e+01
 1.555211e+00	 3.272934e-02	 1.495478e+01
 1.554777e+00	 4.919436e-02	 1.495492e+01
 1.554167e+00	 6.572312e-02	 1.495455e+01
 1.553376e+00	 8.231317e-02	 1.495349e+01
 1.516391e+00	 8.035334e-02	 1.531862e+01
 1.515442e+00	 9.660576e-02	 1.531469e+01
 1.514315e+00	 1.129130e-01	 1.531254e+01
 1.513006e+00	 1.292726e-01	 1.531208e+01
 1.511514e+00	 1.456817e-01	 1.531297e+01
 1.509838e+00	 1.621378e-01	 1.531465e+01
 1.523788e+00	 8.074530e-02	 1.524262e+01
 1.522835e+00	 9.707701e-02	 1.523928e+01
 1.521702e+00	 1.134638e-01	 1.523751e+01
 1.520386e+00	 1.299032e-01	 1.523730e+01
 1.518887e+00	 1.463924e-01	 1.523837e+01
 1.517203e+00	 1.629287e-01	 1.524022e+01
 1.531185e+00	 8.113727e-02	 1.516820e+01
 1.530227e+00	 9.754825e-02	 1.516545e+01
 1.529089e+00	 1.140146e-01	 1.516407e+01
 1.527767e+00	 1.305338e-01	 1.516411e+01
 1.526261e+00	 1.471030e-01	 1.516535e+01
 1.524568e+00	 1.637196e-01	 1.516736e+01
 1.538582e+00	 8.152924e-02	 1.509528e+01
 1.537620e+00	 9.801950e-02	 1.509308e+01
 1.536475e+00	 1.145654e-01	 1.509207e+01
 1.535148e+00	 1.311644e-01	 1.509234e+01
 1.533634e+00	 1.478137e-01	 1.509375e+01
 1.531933e+00	 1.645105e-01	 1.509590e+01
 1.545979e+00	 8.192121e-02	 1.502374e+01
 1.545012e+00	 9.849075e-02	 1.502205e+01
 1.543862e+00	 1.151162e-01	 1.502137e+01
 1.542528e+00	 1.317950e-01	 1.502186e+01
 1.541007e+00	 1.485243e-01	 1.502340e+01
 1.539298e+00	 1.653015e-01	 1.502567e+01
 1.553376e+00	 8.231317e-02	 1.495349e+01
 1.552404e+00	 9.896200e-02	 1.495225e+01
 1.551249e+00	 1.156670e-01	 1.495185e+01
 1.549909e+00	 1.324256e-01	 1.495250e+01
 1.548380e+00	 1.492349e-01	 1.495415e+01
 1.546663e+00	 1.660924e-01	 1.495651e+01
 1.509838e+00	 1.621378e-01	 1.531465e+01
 1.507974e+00	 1.786380e-01	 1.531539e+01
 1.505923e+00	 1.951795e-01	 1.531333e+01
 1.503681e+00	 2.117595e-01	 1.530748e+01
 1.501247e+00	 2.283749e-01	 1.529684e+01
 1.498620e+00	 2.450227e-01	 1.528049e+01
 1.517203e+00	 1.629287e-01	 1.524022e+01
 1.515330e+00	 1.795094e-01	 1.524129e+01
 1.513269e+00	 1.961316e-01	 1.523976e+01
 1.511016e+00	 2.127924e-01	 1.523456e+01
 1.508570e+00	 2.294889e-01	 1.522463e+01
 1.505930e+00	 2.462180e-01	 1.520895e+01
 1.524568e+00	 1.637196e-01	 1.516736e+01
 1.522686e+00	 1.803808e-01	 1.516876e+01
 1.520615e+00	 1.970837e-01	 1.516781e+01
 1.518351e+00	 2.138254e-01	 1.516339e+01
 1.515894e+00	 2.306029e-01	 1.515438e+01
 1.513241e+00	 2.474132e-01	 1.513968e+01
 1.531933e+00	 1.645105e-01	 1.509590e+01
 1.530042e+00	 1.812522e-01	 1.509761e+01
 1.527961e+00	 1.980358e-01	 1.509726e+01
 1.525686e+00	 2.148584e-01	 1.509369e+01
 1.523217e+00	 2.317170e-01	 1.508572e+01
 1.520551e+00	 2.486084e-01	 1.507222e+01
 1.539298e+00	 1.653015e-01	 1.502567e+01
 1.537398e+00	 1.821236e-01	 1.502766e+01
 1.535307e+00	 1.989879e-01	 1.502789e+01
 1.533021e+00	 2.158914e-01	 1.502518e+01
 1.530540e+00	 2.328310e-01	 1.501831e+01
 1.527862e+00	 2.498037e-01	 1.500612e+01
 1.546663e+00	 1.660924e-01	 1.495651e+01
 1.544754e+00	 1.829950e-01	 1.495873e+01
 1.542653e+00	 1.999400e-01	 1.495949e+01
 1.540356e+00	 2.169243e-01	 1.495759e+01
 1.537863e+00	 2.339450e-01	 1.495181e+01
 1.535172e+00	 2.509989e-01	 1.494095e+01
 1.498620e+00	 2.450227e-01	 1.528049e+01
 1.495798e+00	 2.617000e-01	 1.526694e+01
 1.492779e+00	 2.784035e-01	 1.526336e+01
 1.489563e+00	 2.951302e-01	 1.526702e+01
 1.486147e+00	 3.118766e-01	 1.527552e+01
 1.482530e+00	 3.286397e-01	 1.528688e+01
 1.505930e+00	 2.462180e-01	 1.520895e+01
 1.503095e+00	 2.629766e-01	 1.519589e+01
 1.500061e+00	 2.797616e-01	 1.519274e+01
 1.496829e+00	 2.965698e-01	 1.519715e+01
 1.493396e+00	 3.133980e-01	 1.520705e+01
 1.489762e+00	 3.302428e-01	 1.522075e+01
 1.513241e+00	 2.474132e-01	 1.513968e+01
 1.510391e+00	 2.642532e-01	 1.512738e+01
 1.507343e+00	 2.811197e-01	 1.512471e+01
 1.504095e+00	 2.980095e-01	 1.512961e+01
 1.500646e+00	 3.149193e-01	 1.514023e+01
 1.496993e+00	 3.318459e-01	 1.515515e+01
 1.520551e+00	 2.486084e-01	 1.507222e+01
 1.517688e+00	 2.655298e-01	 1.506089e+01
 1.514625e+00	 2.824777e-01	 1.505878e+01
 1.511361e+00	 2.994491e-01	 1.506400e+01
 1.507895e+00	 3.164407e-01	 1.507492e+01
 1.504225e+00	 3.334491e-01	 1.509024e+01
 1.527862e+00	 2.498037e-01	 1.500612e+01
 1.524984e+00	 2.668063e-01	 1.499592e+01
 1.521907e+00	 2.838358e-01	 1.499446e+01
 1.518627e+00	 3.008888e-01	 1.499999e+01
 1.515144e+00	 3.179620e-01	 1.501095e+01
 1.511457e+00	 3.350522e-01	 1.502617e+01
 1.535172e+00	 2.509989e-01	 1.494095e+01
 1.532281e+00	 2.680829e-01	 1.493195e+01
 1.529189e+00	 2.851939e-01	 1.493128e+01
 1.525893e+00	 3.023285e-01	 1.493719e+01
 1.522394e+00	 3.194834e-01	 1.494817e+01
 1.518689e+00	 3.366553e-01	 1.496308e+01
 1.482530e+00	 3.286397e-01	 1.528688e+01
 1.478711e+00	 3.454160e-01	 1.528307e+01
 1.474689e+00	 3.622021e-01	 1.525135e+01
 1.470463e+00	 3.789947e-01	 1.520190e+01
 1.466032e+00	 3.957902e-01	 1.516909e+01
 1.461394e+00	 4.125851e-01	 1.516579e+01
 1.489762e+00	 3.302428e-01	 1.522075e+01
 1.485924e+00	 3.471009e-01	 1.521977e+01
 1.481883e+00	 3.639690e-01	 1.518840e+01
 1.477636e+00	 3.808435e-01	 1.513890e+01
 1.473183e+00	 3.977209e-01	 1.510663e+01
 1.468523e+00	 4.145977e-01	 1.510301e+01
 1.496993e+00	 3.318459e-01	 1.515515e+01
 1.493137e+00	 3.487859e-01	 1.515630e+01
 1.489076e+00	 3.657358e-01	 1.512817e+01
 1.484809e+00	 3.826922e-01	 1.508324e+01
 1.480334e+00	 3.996516e-01	 1.505143e+01
 1.475651e+00	 4.166103e-01	 1.504574e+01
 1.504225e+00	 3.334491e-01	 1.509024e+01
 1.500351e+00	 3.504709e-01	 1.509231e+01
 1.496270e+00	 3.675027e-01	 1.506586e+01
 1.491982e+00	 3.845410e-01	 1.502582e+01
 1.487486e+00	 4.015823e-01	 1.499953e+01
 1.482780e+00	 4.186229e-01	 1.499494e+01
 1.511457e+00	 3.350522e-01	 1.502617e+01
 1.507564e+00	 3.521558e-01	 1.502829e+01
 1.503464e+00	 3.692695e-01	 1.500226e+01
 1.499155e+00	 3.863897e-01	 1.496571e+01
 1.494637e+00	 4.035129e-01	 1.494312e+01
 1.489909e+00	 4.206356e-01	 1.494222e+01
 1.518689e+00	 3.366553e-01	 1.496308e+01
 1.514777e+00	 3.538408e-01	 1.496470e+01
 1.510657e+00	 3.710363e-01	 1.493816e+01
 1.506328e+00	 3.882385e-01	 1.490391e+01
 1.501788e+00	 4.054436e-01	 1.488323e+01
 1.497038e+00	 4.226482e-01	 1.488403e+01
 1.461394e+00	 4.125851e-01	 1.516579e+01
 1.456549e+00	 4.293759e-01	 1.517280e+01
 1.451496e+00	 4.461589e-01	 1.516703e+01
 1.446234e+00	 4.629304e-01	 1.515191e+01
 1.440763e+00	 4.796869e-01	 1.513134e+01
 1.435082e+00	 4.964246e-01	 1.510969e+01
 1.468523e+00	 4.145977e-01	 1.510301e+01
 1.463654e+00	 4.314704e-01	 1.511016e+01
 1.458577e+00	 4.483353e-01	 1.510582e+01
 1.453289e+00	 4.651886e-01	 1.509293e+01
 1.447791e+00	 4.820269e-01	 1.507498e+01
 1.442083e+00	 4.988461e-01	 1.505591e+01
 1.475651e+00	 4.166103e-01	 1.504574e+01
 1.470759e+00	 4.335649e-01	 1.505127e+01
 1.465657e+00	 4.505116e-01	 1.504685e+01
 1.460344e+00	 4.674468e-01	 1.503508e+01
 1.454820e+00	 4.843668e-01	 1.501906e+01
 1.449083e+00	 5.012677e-01	 1.500241e+01
 1.482780e+00	 4.186229e-01	 1.499494e+01
 1.477864e+00	 4.356594e-01	 1.499741e+01
 1.472737e+00	 4.526880e-01	 1.499134e+01
 1.467399e+00	 4.697050e-01	 1.497929e+01
 1.461848e+00	 4.867067e-01	 1.496411e+01
 1.456083e+00	 5.036893e-01	 1.494915e+01
 1.489909e+00	 4.206356e-01	 1.494222e+01
 1.484969e+00	 4.377539e-01	 1.494801e+01
 1.479818e+00	 4.548644e-01	 1.494046e+01
 1.474454e+00	 4.719632e-01	 1.492650e+01
 1.468876e+00	 4.890467e-01	 1.491067e+01
 1.463084e+00	 5.061109e-01	 1.489610e+01
 1.497038e+00	 4.226482e-01	 1.488403e+01
 1.492075e+00	 4.398485e-01	 1.489292e+01
 1.486898e+00	 4.570408e-01	 1.489078e+01
 1.481508e+00	 4.742214e-01	 1.487765e+01
 1.475904e+00	 4.913866e-01	 1.485927e+01
 1.470084e+00	 5.085325e-01	 1.484325e+01
 1.435082e+00	 4.964246e-01	 1.510969e+01
 1.429191e+00	 5.131396e-01	 1.508132e+01
 1.423088e+00	 5.298283e-01	 1.504219e+01
 1.416775e+00	 5.464869e-01	 1.499962e+01
 1.410250e+00	 5.631114e-01	 1.496127e+01
 1.403513e+00	 5.796980e-01	 1.493501e+01
 1.442083e+00	 4.988461e-01	 1.505591e+01
 1.436162e+00	 5.156428e-01	 1.502956e+01
 1.430030e+00	 5.324129e-01	 1.499194e+01
 1.423686e+00	 5.491526e-01	 1.495081e+01
 1.417129e+00	 5.658582e-01	 1.491425e+01
 1.410359e+00	 5.825258e-01	 1.489059e+01
 1.449083e+00	 5.012677e-01	 1.500241e+01
 1.443134e+00	 5.181459e-01	 1.497835e+01
 1.436972e+00	 5.349974e-01	 1.494265e+01
 1.430597e+00	 5.518184e-01	 1.490335e+01
 1.424008e+00	 5.686051e-01	 1.486884e+01
 1.417206e+00	 5.853536e-01	 1.484777e+01
 1.456083e+00	 5.036893e-01	 1.494915e+01
 1.450106e+00	 5.206490e-01	 1.492709e+01
 1.443914e+00	 5.375819e-01	 1.489338e+01
 1.437508e+00	 5.544842e-01	 1.485619e+01
 1.430887e+00	 5.713520e-01	 1.482407e+01
 1.424052e+00	 5.881814e-01	 1.480590e+01
 1.463084e+00	 5.061109e-01	 1.489610e+01
 1.457077e+00	 5.231521e-01	 1.487521e+01
 1.450856e+00	 5.401664e-01	 1.484322e+01
 1.444419e+00	 5.571500e-01	 1.480829e+01
 1.437767e+00	 5.740989e-01	 1.477900e+01
 1.430899e+00	 5.910092e-01	 1.476435e+01
 1.470084e+00	 5.085325e-01	 1.484325e+01
 1.464049e+00	 5.256552e-01	 1.482214e+01
 1.457798e+00	 5.427510e-01	 1.479129e+01
 1.451330e+00	 5.598158e-01	 1.475866e+01
 1.444646e+00	 5.768458e-01	 1.473274e+01
 1.437745e+00	 5.938370e-01	 1.472252e+01
 1.403513e+00	 5.796980e-01	 1.493501e+01
 1.396565e+00	 5.962428e-01	 1.490741e+01
 1.389405e+00	 6.127420e-01	 1.486492e+01
 1.382033e+00	 6.291916e-01	 1.481538e+01
 1.374451e+00	 6.455877e-01	 1.476638e+01
 1.366657e+00	 6.619262e-01	 1.472516e+01
 1.410359e+00	 5.825258e-01	 1.489059e+01
 1.403377e+00	 5.991513e-01	 1.486560e+01
 1.396182e+00	 6.157310e-01	 1.482466e+01
 1.388775e+00	 6.322608e-01	 1.477567e+01
 1.381155e+00	 6.487369e-01	 1.472626e+01
 1.373324e+00	 6.651552e-01	 1.468379e+01
 1.417206e+00	 5.853536e-01	 1.484777e+01
 1.410190e+00	 6.020598e-01	 1.482512e+01
 1.402960e+00	 6.187200e-01	 1.478537e+01
 1.395517e+00	 6.353300e-01	 1.473652e+01
 1.387860e+00	 6.518861e-01	 1.468638e+01
 1.379991e+00	 6.683841e-01	 1.464251e+01
 1.424052e+00	 5.881814e-01	 1.480590e+01
 1.417002e+00	 6.049683e-01	 1.478570e+01
 1.409738e+00	 6.217090e-01	 1.474700e+01
 1.402258e+00	 6.383993e-01	 1.469805e+01
 1.394565e+00	 6.550353e-01	 1.464692e+01
 1.386657e+00	 6.716130e-01	 1.460140e+01
 1.430899e+00	 5.910092e-01	 1.476435e+01
 1.423815e+00	 6.078768e-01	 1.474707e+01
 1.416515e+00	 6.246979e-01	 1.470957e+01
 1.409000e+00	 6.414685e-01	 1.466042e+01
 1.401269e+00	 6.581845e-01	 1.460805e+01
 1.393324e+00	 6.748419e-01	 1.456056e+01
 1.437745e+00	 5.938370e-01	 1.472252e+01
 1.430627e+00	 6.107853e-01	 1.470900e+01
 1.423293e+00	 6.276869e-01	 1.467308e+01
 1.415742e+00	 6.445377e-01	 1.462380e+01
 1.407974e+00	 6.613337e-01	 1.456997e+01
 1.399990e+00	 6.780708e-01	 1.452014e+01
 1.366657e+00	 6.619262e-01	 1.472516e+01
 1.358653e+00	 6.782034e-01	 1.467932e+01
 1.350439e+00	 6.944152e-01	 1.461700e+01
 1.342016e+00	 7.105577e-01	 1.454579e+01
 1.333384e+00	 7.266269e-01	 1.447293e+01
 1.324544e+00	 7.426188e-01	 1.440428e+01
 1.373324e+00	 6.651552e-01	 1.468379e+01
 1.365281e+00	 6.815117e-01	 1.463747e+01
 1.357027e+00	 6.978026e-01	 1.457747e+01
 1.348562e+00	 7.140238e-01	 1.451222e+01
 1.339888e+00	 7.301714e-01	 1.444983e+01
 1.331005e+00	 7.462414e-01	 1.439023e+01
 1.379991e+00	 6.683841e-01	 1.464251e+01
 1.371908e+00	 6.848200e-01	 1.459585e+01
 1.363614e+00	 7.011900e-01	 1.453868e+01
 1.355109e+00	 7.174900e-01	 1.448014e+01
 1.346392e+00	 7.337159e-01	 1.442912e+01
 1.337466e+00	 7.498639e-01	 1.437340e+01
 1.386657e+00	 6.716130e-01	 1.460140e+01
 1.378536e+00	 6.881284e-01	 1.455443e+01
 1.370202e+00	 7.045774e-01	 1.450048e+01
 1.361655e+00	 7.209561e-01	 1.444932e+01
 1.352897e+00	 7.372605e-01	 1.441055e+01
 1.343927e+00	 7.534864e-01	 1.435406e+01
 1.393324e+00	 6.748419e-01	 1.456056e+01
 1.385164e+00	 6.914367e-01	 1.451318e+01
 1.376789e+00	 7.079648e-01	 1.446275e+01
 1.368201e+00	 7.244222e-01	 1.441958e+01
 1.359401e+00	 7.408050e-01	 1.439387e+01
 1.350388e+00	 7.571090e-01	 1.433252e+01
 1.399990e+00	 6.780708e-01	 1.452014e+01
 1.391791e+00	 6.947450e-01	 1.447214e+01
 1.383377e+00	 7.113522e-01	 1.442544e+01
 1.374748e+00	 7.278884e-01	 1.439078e+01
 1.365905e+00	 7.443495e-01	 1.437604e+01
 1.356850e+00	 7.607315e-01	 1.430913e+01
 1.324544e+00	 7.426188e-01	 1.440428e+01
 1.315497e+00	 7.585296e-01	 1.433240e+01
 1.306244e+00	 7.743552e-01	 1.426819e+01
 1.296786e+00	 7.900918e-01	 1.420178e+01
 1.287124e+00	 8.057355e-01	 1.412293e+01
 1.277260e+00	 8.212823e-01	 1.402121e+01
 1.331005e+00	 7.462414e-01	 1.439023e+01
 1.321914e+00	 7.622297e-01	 1.430989e+01
 1.312616e+00	 7.781326e-01	 1.424148e+01
 1.303112e+00	 7.939459e-01	 1.417445e+01
 1.293403e+00	 8.096659e-01	 1.409780e+01
 1.283491e+00	 8.252885e-01	 1.400023e+01
 1.337466e+00	 7.498639e-01	 1.437340e+01
 1.328331e+00	 7.659299e-01	 1.428631e+01
 1.318987e+00	 7.819099e-01	 1.421468e+01
 1.309437e+00	 7.978001e-01	 1.414740e+01
 1.299682e+00	 8.135963e-01	 1.407280e+01
 1.289721e+00	 8.292948e-01	 1.397882e+01
 1.343927e+00	 7.534864e-01	 1.435406e+01
 1.334748e+00	 7.696300e-01	 1.426195e+01
 1.325359e+00	 7.856873e-01	 1.418811e+01
 1.315763e+00	 8.016542e-01	 1.412097e+01
 1.305960e+00	 8.175267e-01	 1.404830e+01
 1.295952e+00	 8.333011e-01	 1.395739e+01
 1.350388e+00	 7.571090e-01	 1.433252e+01
 1.341165e+00	 7.733302e-01	 1.423714e+01
 1.331731e+00	 7.894646e-01	 1.416213e+01
 1.322089e+00	 8.055083e-01	 1.409554e+01
 1.312239e+00	 8.214572e-01	 1.402470e+01
 1.302182e+00	 8.373073e-01	 1.393637e+01
 1.356850e+00	 7.607315e-01	 1.430913e+01
 1.347582e+00	 7.770303e-01	 1.421227e+01
 1.338103e+00	 7.932420e-01	 1.413713e+01
 1.328415e+00	 8.093624e-01	 1.407153e+01
 1.318518e+00	 8.253876e-01	 1.400248e+01
 1.308413e+00	 8.413136e-01	 1.391628e+01
 1.277260e+00	 8.212823e-01	 1.402121e+01
 1.267195e+00	 8.367284e-01	 1.391554e+01
 1.256931e+00	 8.520699e-01	 1.382379e+01
 1.246469e+00	 8.673031e-01	 1.373400e+01
 1.235810e+00	 8.824241e-01	 1.363437e+01
 1.224957e+00	 8.974293e-01	 1.351354e+01
 1.283491e+00	 8.252885e-01	 1.400023e+01
 1.273377e+00	 8.408100e-01	 1.389872e+01
 1.263062e+00	 8.562264e-01	 1.381009e+01
 1.252549e+00	 8.715339e-01	 1.372272e+01
 1.241838e+00	 8.867286e-01	 1.362521e+01
 1.230932e+00	 9.018070e-01	 1.350657e+01
 1.289721e+00	 8.292948e-01	 1.397882e+01
 1.279558e+00	 8.448916e-01	 1.388095e+01
 1.269194e+00	 8.603828e-01	 1.379526e+01
 1.258629e+00	 8.757646e-01	 1.371037e+01
 1.247867e+00	 8.910332e-01	 1.361514e+01
 1.236908e+00	 9.061847e-01	 1.349887e+01
 1.295952e+00	 8.333011e-01	 1.395739e+01
 1.285740e+00	 8.489732e-01	 1.386267e+01
 1.275325e+00	 8.645392e-01	 1.377975e+01
 1.264710e+00	 8.799953e-01	 1.369738e+01
 1.253895e+00	 8.953377e-01	 1.360456e+01
 1.242883e+00	 9.105624e-01	 1.349077e+01
 1.302182e+00	 8.373073e-01	 1.393637e+01
 1.291921e+00	 8.530548e-01	 1.384435e+01
 1.281456e+00	 8.686957e-01	 1.376403e+01
 1.270790e+00	 8.842261e-01	 1.368420e+01
 1.259923e+00	 8.996422e-01	 1.359391e+01
 1.248858e+00	 9.149401e-01	 1.348268e+01
 1.308413e+00	 8.413136e-01	 1.391628e+01
 1.298103e+00	 8.571364e-01	 1.382651e+01
 1.287588e+00	 8.728521e-01	 1.374861e+01
 1.276870e+00	 8.884568e-01	 1.367134e+01
 1.265952e+00	 9.039467e-01	 1.358365e+01
 1.254834e+00	 9.193178e-01	 1.347500e+01
 1.224957e+00	 8.974293e-01	 1.351354e+01
 1.213911e+00	 9.123148e-01	 1.338955e+01
 1.202675e+00	 9.270771e-01	 1.327929e+01
 1.191250e+00	 9.417124e-01	 1.317098e+01
 1.179639e+00	 9.562172e-01	 1.305429e+01
 1.167843e+00	 9.705881e-01	 1.292063e+01
 1.230932e+00	 9.018070e-01	 1.350657e+01
 1.219833e+00	 9.167651e-01	 1.338502e+01
 1.208541e+00	 9.315994e-01	 1.327696e+01
 1.197061e+00	 9.463061e-01	 1.317015e+01
 1.185393e+00	 9.608817e-01	 1.305378e+01
 1.173540e+00	 9.753226e-01	 1.291883e+01
 1.236908e+00	 9.061847e-01	 1.349887e+01
 1.225754e+00	 9.212154e-01	 1.337968e+01
 1.214408e+00	 9.361217e-01	 1.327351e+01
 1.202872e+00	 9.508998e-01	 1.316778e+01
 1.191147e+00	 9.655462e-01	 1.305139e+01
 1.179237e+00	 9.800572e-01	 1.291500e+01
 1.242883e+00	 9.105624e-01	 1.349077e+01
 1.231676e+00	 9.256658e-01	 1.337388e+01
 1.220275e+00	 9.406440e-01	 1.326933e+01
 1.208683e+00	 9.554936e-01	 1.316438e+01
 1.196902e+00	 9.702107e-01	 1.304779e+01
 1.184933e+00	 9.847918e-01	 1.291008e+01
 1.248858e+00	 9.149401e-01	 1.348268e+01
 1.237597e+00	 9.301161e-01	 1.336799e+01
 1.226142e+00	 9.451664e-01	 1.326485e+01
 1.214494e+00	 9.600873e-01	 1.316051e+01
 1.202656e+00	 9.748751e-01	 1.304372e+01
 1.190630e+00	 9.895264e-01	 1.290505e+01
 1.254834e+00	 9.193178e-01	 1.347500e+01
 1.243519e+00	 9.345664e-01	 1.336242e+01
 1.232008e+00	 9.496887e-01	 1.326053e+01
 1.220305e+00	 9.646810e-01	 1.315674e+01
 1.208410e+00	 9.795396e-01	 1.303993e+01
 1.196327e+00	 9.942609e-01	 1.290092e+01
 1.167843e+00	 9.705881e-01	 1.292063e+01
 1.155866e+00	 9.848214e-01	 1.276835e+01
 1.143709e+00	 9.989137e-01	 1.260698e+01
 1.131375e+00	 1.012862e+00	 1.244883e+01
 1.118867e+00	 1.026662e+00	 1.230985e+01
 1.106187e+00	 1.040312e+00	 1.220978e+01
 1.173540e+00	 9.753226e-01	 1.291883e+01
 1.161504e+00	 9.896254e-01	 1.276596e+01
 1.149288e+00	 1.003786e+00	 1.260683e+01
 1.136894e+00	 1.017803e+00	 1.245289e+01
 1.124325e+00	 1.031670e+00	 1.231930e+01
 1.111583e+00	 1.045386e+00	 1.222515e+01
 1.179237e+00	 9.800572e-01	 1.291500e+01
 1.167142e+00	 9.944294e-01	 1.276164e+01
 1.154867e+00	 1.008659e+00	 1.260485e+01
 1.142413e+00	 1.022743e+00	 1.245514e+01
 1.129783e+00	 1.036678e+00	 1.232672e+01
 1.116979e+00	 1.050461e+00	 1.223779e+01
 1.184933e+00	 9.847918e-01	 1.291008e+01
 1.172781e+00	 9.992334e-01	 1.275656e+01
 1.160446e+00	 1.013532e+00	 1.260239e+01
 1.147932e+00	 1.027684e+00	 1.245700e+01
 1.135241e+00	 1.041687e+00	 1.233357e+01
 1.122375e+00	 1.055536e+00	 1.224923e+01
 1.190630e+00	 9.895264e-01	 1.290505e+01
 1.178419e+00	 1.004037e+00	 1.275194e+01
 1.166025e+00	 1.018405e+00	 1.260081e+01
 1.153451e+00	 1.032625e+00	 1.245995e+01
 1.140699e+00	 1.046695e+00	 1.234132e+01
 1.127771e+00	 1.060610e+00	 1.226092e+01
 1.196327e+00	 9.942609e-01	 1.290092e+01
 1.184057e+00	 1.008841e+00	 1.274900e+01
 1.171604e+00	 1.023277e+00	 1.260152e+01
 1.158970e+00	 1.037566e+00	 1.246546e+01
 1.146156e+00	 1.051703e+00	 1.235149e+01
 1.133167e+00	 1.065685e+00	 1.227432e+01
 1.106187e+00	 1.040312e+00	 1.220978e+01
 1.093338e+00	 1.053807e+00	 1.209329e+01
 1.080324e+00	 1.067145e+00	 1.191236e+01
 1.067145e+00	 1.080324e+00	 1.170116e+01
 1.053807e+00	 1.093338e+00	 1.149522e+01
 1.040312e+00	 1.106187e+00	 1.133095e+01
 1.111583e+00	 1.045386e+00	 1.222515e+01
 1.098672e+00	 1.058948e+00	 1.211241e+01
 1.085593e+00	 1.072351e+00	 1.193093e+01
 1.072351e+00	 1.085593e+00	 1.171645e+01
 1.058948e+00	 1.098672e+00	 1.150618e+01
 1.045386e+00	 1.111583e+00	 1.133833e+01
 1.116979e+00	 1.050461e+00	 1.223779e+01
 1.104005e+00	 1.064088e+00	 1.212849e+01
 1.090863e+00	 1.077557e+00	 1.194624e+01
 1.077557e+00	 1.090863e+00	 1.172796e+01
 1.064088e+00	 1.104005e+00	 1.151242e+01
 1.050461e+00	 1.116979e+00	 1.134348e+01
 1.122375e+00	 1.055536e+00	 1.224923e+01
 1.109338e+00	 1.069229e+00	 1.214260e+01
 1.096133e+00	 1.082762e+00	 1.195917e+01
 1.082762e+00	 1.096133e+00	 1.173635e+01
 1.069229e+00	 1.109338e+00	 1.151431e+01
 1.055536e+00	 1.122375e+00	 1.135058e+01
 1.127771e+00	 1.060610e+00	 1.226092e+01
 1.114672e+00	 1.074369e+00	 1.215592e+01
 1.101403e+00	 1.087968e+00	 1.197070e+01
 1.087968e+00	 1.101403e+00	 1.174232e+01
 1.074369e+00	 1.114672e+00	 1.151436e+01
 1.060610e+00	 1.127771e+00	 1.136146e+01
 1.133167e+00	 1.065685e+00	 1.227432e+01
 1.120005e+00	 1.079510e+00	 1.216984e+01
 1.106673e+00	 1.093173e+00	 1.198187e+01
 1.093173e+00	 1.106673e+00	 1.174671e+01
 1.079510e+00	 1.120005e+00	 1.152048e+01
 1.065685e+00	 1.133167e+00	 1.137792e+01
 1.040312e+00	 1.106187e+00	 1.133095e+01
 1.026662e+00	 1.118867e+00	 1.118176e+01
 1.012862e+00	 1.131375e+00	 1.101825e+01
 9.989137e-01	 1.143709e+00	 1.084500e+01
 9.848214e-01	 1.155866e+00	 1.066122e+01
 9.705881e-01	 1.167843e+00	 1.046331e+01
 1.045386e+00	 1.111583e+00	 1.133833e+01
 1.031670e+00	 1.124325e+00	 1.119651e+01
 1.017803e+00	 1.136894e+00	 1.103953e+01
 1.003786e+00	 1.149288e+00	 1.087017e+01
 9.896254e-01	 1.161504e+00	 1.068817e+01
 9.753226e-01	 1.173540e+00	 1.049041e+01
 1.050461e+00	 1.116979e+00	 1.134348e+01
 1.036678e+00	 1.129783e+00	 1.121073e+01
 1.022743e+00	 1.142413e+00	 1.105938e+01
 1.008659e+00	 1.154867e+00	 1.089297e+01
 9.944294e-01	 1.167142e+00	 1.071193e+01
 9.800572e-01	 1.179237e+00	 1.051385e+01
 1.055536e+00	 1.122375e+00	 1.135058e+01
 1.041687e+00	 1.135241e+00	 1.122603e+01
 1.027684e+00	 1.147932e+00	 1.107925e+01
 1.013532e+00	 1.160446e+00	 1.091472e+01
 9.992334e-01	 1.172781e+00	 1.073382e+01
 9.847918e-01	 1.184933e+00	 1.053502e+01
 1.060610e+00	 1.127771e+00	 1.136146e+01
 1.046695e+00	 1.140699e+00	 1.124398e+01
 1.032625e+00	 1.153451e+00	 1.110054e+01
 1.018405e+00	 1.166025e+00	 1.093678e+01
 1.004037e+00	 1.178419e+00	 1.075517e+01
 9.895264e-01	 1.190630e+00	 1.055529e+01
 1.065685e+00	 1.133167e+00	 1.137792e+01
 1.051703e+00	 1.146156e+00	 1.126617e+01
 1.037566e+00	 1.158970e+00	 1.112471e+01
 1.023277e+00	 1.171604e+00	 1.096049e+01
 1.008841e+00	 1.184057e+00	 1.077731e+01
 9.942609e-01	 1.196327e+00	 1.057602e+01
 9.705881e-01	 1.167843e+00	 1.046331e+01
 9.562172e-01	 1.179639e+00	 1.026400e+01
 9.417124e-01	 1.191250e+00	 1.007578e+01
 9.270771e-01	 1.202675e+00	 9.891477e+00
 9.123148e-01	 1.213911e+00	 9.702385e+00
 8.974293e-01	 1.224957e+00	 9.498517e+00
 9.753226e-01	 1.173540e+00	 1.049041e+01
 9.608817e-01	 1.185393e+00	 1.029114e+01
 9.463061e-01	 1.197061e+00	 1.010382e+01
 9.315994e-01	 1.208541e+00	 9.920775e+00
 9.167651e-01	 1.219833e+00	 9.732758e+00
 9.018070e-01	 1.230932e+00	 9.529184e+00
 9.800572e-01	 1.179237e+00	 1.051385e+01
 9.655462e-01	 1.191147e+00	 1.031447e+01
 9.508998e-01	 1.202872e+00	 1.012797e+01
 9.361217e-01	 1.214408e+00	 9.946192e+00
 9.212154e-01	 1.225754e+00	 9.759340e+00
 9.061847e-01	 1.236908e+00	 9.556230e+00
 9.847918e-01	 1.184933e+00	 1.053502e+01
 9.702107e-01	 1.196902e+00	 1.033544e+01
 9.554936e-01	 1.208683e+00	 1.014976e+01
 9.406440e-01	 1.220275e+00	 9.969344e+00
 9.256658e-01	 1.231676e+00	 9.783836e+00
 9.105624e-01	 1.242883e+00	 9.581449e+00
 9.895264e-01	 1.190630e+00	 1.055529e+01
 9.748751e-01	 1.202656e+00	 1.035550e+01
 9.600873e-01	 1.214494e+00	 1.017073e+01
 9.451664e-01	 1.226142e+00	 9.991851e+00
 9.301161e-01	 1.237597e+00	 9.807953e+00
 9.149401e-01	 1.248858e+00	 9.606642e+00
 9.942609e-01	 1.196327e+00	 1.057602e+01
 9.795396e-01	 1.208410e+00	 1.037610e+01
 9.646810e-01	 1.220305e+00	 1.019241e+01
 9.496887e-01	 1.232008e+00	 1.001534e+01
 9.345664e-01	 1.243519e+00	 9.833403e+00
 9.193178e-01	 1.254834e+00	 9.633608e+00
 8.974293e-01	 1.224957e+00	 9.498517e+00
 8.824241e-01	 1.235810e+00	 9.289352e+00
 8.673031e-01	 1.246469e+00	 9.087740e+00
 8.520699e-01	 1.256931e+00	 8.887727e+00
 8.367284e-01	 1.267195e+00	 8.683250e+00
 8.212823e-01	 1.277260e+00	 8.468359e+00
 9.018070e-01	 1.230932e+00	 9.529184e+00
 8.867286e-01	 1.241838e+00	 9.320056e+00
 8.715339e-01	 1.252549e+00	 9.119213e+00
 8.562264e-01	 1.263062e+00	 8.920780e+00
 8.408100e-01	 1.273377e+00	 8.718788e+00
 8.252885e-01	 1.283491e+00	 8.507407e+00
 9.061847e-01	 1.236908e+00	 9.556230e+00
 8.910332e-01	 1.247867e+00	 9.347483e+00
 8.757646e-01	 1.258629e+00	 9.147914e+00
 8.603828e-01	 1.269194e+00	 8.951544e+00
 8.448916e-01	 1.279558e+00	 8.752313e+00
 8.292948e-01	 1.289721e+00	 8.544314e+00
 9.105624e-01	 1.242883e+00	 9.581449e+00
 8.953377e-01	 1.253895e+00	 9.373485e+00
 8.799953e-01	 1.264710e+00	 9.175672e+00
 8.645392e-01	 1.275325e+00	 8.981753e+00
 8.489732e-01	 1.285740e+00	 8.785390e+00
 8.333011e-01	 1.295952e+00	 8.580412e+00
 9.149401e-01	 1.248858e+00	 9.606642e+00
 8.996422e-01	 1.259923e+00	 9.399912e+00
 8.842261e-01	 1.270790e+00	 9.204317e+00
 8.686957e-01	 1.281456e+00	 9.013144e+00
 8.530548e-01	 1.291921e+00	 8.819597e+00
 8.373073e-01	 1.302182e+00	 8.617047e+00
 9.193178e-01	 1.254834e+00	 9.633608e+00
 9.039467e-01	 1.265952e+00	 9.428619e+00
 8.884568e-01	 1.276870e+00	 9.235685e+00
 8.728521e-01	 1.287588e+00	 9.047465e+00
 8.571364e-01	 1.298103e+00	 8.856520e+00
 8.413136e-01	 1.308413e+00	 8.655581e+00
 8.212823e-01	 1.277260e+00	 8.468359e+00
 8.057355e-01	 1.287124e+00	 8.266008e+00
 7.900918e-01	 1.296786e+00	 8.087377e+00
 7.743552e-01	 1.306244e+00	 7.909314e+00
 7.585296e-01	 1.315497e+00	 7.709160e+00
 7.426188e-01	 1.324544e+00	 7.464940e+00
 8.252885e-01	 1.283491e+00	 8.507407e+00
 8.096659e-01	 1.293403e+00	 8.307666e+00
 7.939459e-01	 1.303112e+00	 8.129279e+00
 7.781326e-01	 1.312616e+00	 7.949960e+00
 7.622297e-01	 1.321914e+00	 7.747963e+00
 7.462414e-01	 1.331005e+00	 7.502287e+00
 8.292948e-01	 1.289721e+00	 8.544314e+00
 8.135963e-01	 1.299682e+00	 8.346621e+00
 7.978001e-01	 1.309437e+00	 8.167760e+00
 7.819099e-01	 1.318987e+00	 7.986580e+00
 7.659299e-01	 1.328331e+00	 7.782542e+00
 7.498639e-01	 1.337466e+00	 7.535915e+00
 8.333011e-01	 1.295952e+00	 8.580412e+00
 8.175267e-01	 1.305960e+00	 8.383995e+00
 8.016542e-01	 1.315763e+00	 8.203838e+00
 7.856873e-01	 1.325359e+00	 8.020201e+00
 7.696300e-01	 1.334748e+00	 7.814031e+00
 7.534864e-01	 1.343927e+00	 7.567166e+00
 8.373073e-01	 1.302182e+00	 8.617047e+00
 8.214572e-01	 1.312239e+00	 8.420926e+00
 8.055083e-01	 1.322089e+00	 8.238556e+00
 7.894646e-01	 1.331731e+00	 8.051873e+00
 7.733302e-01	 1.341165e+00	 7.843589e+00
 7.571090e-01	 1.350388e+00	 7.597401e+00
 8.413136e-01	 1.308413e+00	 8.655581e+00
 8.253876e-01	 1.318518e+00	 8.458575e+00
 8.093624e-01	 1.328415e+00	 8.272980e+00
 7.932420e-01	 1.338103e+00	 8.082669e+00
 7.770303e-01	 1.347582e+00	 7.872395e+00
 7.607315e-01	 1.356850e+00	 7.628003e+00
 7.426188e-01	 1.324544e+00	 7.464940e+00
 7.266269e-01	 1.333384e+00	 7.221400e+00
 7.105577e-01	 1.342016e+00	 7.019953e+00
 6.944152e-01	 1.350439e+00	 6.840126e+00
 6.782034e-01	 1.358653e+00	 6.663859e+00
 6.619262e-01	 1.366657e+00	 6.475412e+00
 7.462414e-01	 1.331005e+00	 7.502287e+00
 7.301714e-01	 1.339888e+00	 7.260314e+00
 7.140238e-01	 1.348562e+00	 7.061151e+00
 6.978026e-01	 1.357027e+00	 6.883288e+00
 6.815117e-01	 1.365281e+00	 6.708378e+00
 6.651552e-01	 1.373324e+00	 6.520462e+00
 7.498639e-01	 1.337466e+00	 7.535915e+00
 7.337159e-01	 1.346392e+00	 7.296096e+00
 7.174900e-01	 1.355109e+00	 7.100653e+00
 7.011900e-01	 1.363614e+00	 6.926011e+00
 6.848200e-01	 1.371908e+00	 6.753149e+00
 6.683841e-01	 1.379991e+00	 6.565493e+00
 7.534864e-01	 1.343927e+00	 7.567166e+00
 7.372605e-01	 1.352897e+00	 7.330300e+00
 7.209561e-01	 1.361655e+00	 7.140058e+00
 7.045774e-01	 1.370202e+00	 6.969790e+00
 6.881284e-01	 1.378536e+00	 6.799421e+00
 6.716130e-01	 1.386657e+00	 6.611371e+00
 7.571090e-01	 1.350388e+00	 7.597401e+00
 7.408050e-01	 1.359401e+00	 7.364483e+00
 7.244222e-01	 1.368201e+00	 7.180975e+00
 7.079648e-01	 1.376789e+00	 7.016134e+00
 6.914367e-01	 1.385164e+00	 6.848459e+00
 6.748419e-01	 1.393324e+00	 6.658983e+00
 7.607315e-01	 1.356850e+00	 7.628003e+00
 7.443495e-01	 1.365905e+00	 7.400499e+00
 7.278884e-01	 1.374748e+00	 7.225017e+00
 7.113522e-01	 1.383377e+00	 7.066559e+00
 6.947450e-01	 1.391791e+00	 6.901546e+00
 6.780708e-01	 1.399990e+00	 6.709240e+00
 6.619262e-01	 1.366657e+00	 6.475412e+00
 6.455877e-01	 1.374451e+00	 6.274530e+00
 6.291916e-01	 1.382033e+00	 6.071645e+00
 6.127420e-01	 1.389405e+00	 5.870562e+00
 5.962428e-01	 1.396565e+00	 5.677377e+00
 5.796980e-01	 1.403513e+00	 5.500332e+00
 6.651552e-01	 1.373324e+00	 6.520462e+00
 6.487369e-01	 1.381155e+00	 6.320452e+00
 6.322608e-01	 1.388775e+00	 6.119473e+00
 6.157310e-01	 1.396182e+00	 5.920477e+00
 5.991513e-01	 1.403377e+00	 5.728735e+00
 5.825258e-01	 1.410359e+00	 5.551705e+00
 6.683841e-01	 1.379991e+00	 6.565493e+00
 6.518861e-01	 1.387860e+00	 6.364836e+00
 6.353300e-01	 1.395517e+00	 6.163512e+00
 6.187200e-01	 1.402960e+00	 5.964440e+00
 6.020598e-01	 1.410190e+00	 5.772917e+00
 5.853536e-01	 1.417206e+00	 5.596483e+00
 6.716130e-01	 1.386657e+00	 6.611371e+00
 6.550353e-01	 1.394565e+00	 6.408214e+00
 6.383993e-01	 1.402258e+00	 6.204188e+00
 6.217090e-01	 1.409738e+00	 6.002995e+00
 6.049683e-01	 1.417002e+00	 5.810792e+00
 5.881814e-01	 1.424052e+00	 5.636049e+00
 6.748419e-01	 1.393324e+00	 6.658983e+00
 6.581845e-01	 1.401269e+00	 6.451145e+00
 6.414685e-01	 1.409000e+00	 6.241962e+00
 6.246979e-01	 1.416515e+00	 6.036717e+00
 6.078768e-01	 1.423815e+00	 5.843248e+00
 5.910092e-01	 1.430899e+00	 5.671800e+00
 6.780708e-01	 1.399990e+00	 6.709240e+00
 6.613337e-01	 1.407974e+00	 6.494220e+00
 6.445377e-01	 1.415742e+00	 6.277324e+00
 6.276869e-01	 1.423293e+00	 6.066207e+00
 6.107853e-01	 1.430627e+00	 5.871198e+00
 5.938370e-01	 1.437745e+00	 5.705143e+00
 5.796980e-01	 1.403513e+00	 5.500332e+00
 5.631114e-01	 1.410250e+00	 5.328117e+00
 5.464869e-01	 1.416775e+00	 5.144453e+00
 5.298283e-01	 1.423088e+00	 4.952763e+00
 5.131396e-01	 1.429191e+00	 4.757811e+00
 4.964246e-01	 1.435082e+00	 4.565520e+00
 5.825258e-01	 1.410359e+00	 5.551705e+00
 5.658582e-01	 1.417129e+00	 5.376754e+00
 5.491526e-01	 1.423686e+00	 5.188161e+00
 5.324129e-01	 1.430030e+00	 4.991479e+00
 5.156428e-01	 1.436162e+00	 4.793674e+00
 4.988461e-01	 1.442083e+00	 4.602935e+00
 5.853536e-01	 1.417206e+00	 5.596483e+00
 5.686051e-01	 1.424008e+00	 5.421884e+00
 5.518184e-01	 1.430597e+00	 5.233095e+00
 5.349974e-01	 1.436972e+00	 5.036299e+00
 5.181459e-01	 1.443134e+00	 4.839141e+00
 5.012677e-01	 1.449083e+00	 4.650544e+00
 5.881814e-01	 1.424052e+00	 5.636049e+00
 5.713520e-01	 1.430887e+00	 5.465324e+00
 5.544842e-01	 1.437508e+00	 5.281162e+00
 5.375819e-01	 1.443914e+00	 5.088897e+00
 5.206490e-01	 1.450106e+00	 4.895362e+00
 5.036893e-01	 1.456083e+00	 4.708695e+00
 5.910092e-01	 1.430899e+00	 5.671800e+00
 5.740989e-01	 1.437767e+00	 5.508892e+00
 5.571500e-01	 1.444419e+00	 5.334265e+00
 5.401664e-01	 1.450856e+00	 5.150949e+00
 5.231521e-01	 1.457077e+00	 4.963493e+00
 5.061109e-01	 1.463084e+00	 4.777762e+00
 5.938370e-01	 1.437745e+00	 5.705143e+00
 5.768458e-01	 1.444646e+00	 5.554409e+00
 5.598158e-01	 1.451330e+00	 5.394308e+00
 5.427510e-01	 1.457798e+00	 5.224137e+00
 5.256552e-01	 1.464049e+00	 5.044704e+00
 5.085325e-01	 1.470084e+00	 4.858142e+00
 4.964246e-01	 1.435082e+00	 4.565520e+00
 4.796869e-01	 1.440763e+00	 4.390116e+00
 4.629304e-01	 1.446234e+00	 4.239168e+00
 4.461589e-01	 1.451496e+00	 4.109798e+00
 4.293759e-01	 1.456549e+00	 3.999527e+00
 4.125851e-01	 1.461394e+00	 3.906084e+00
 4.988461e-01	 1.442083e+00	 4.602935e+00
 4.820269e-01	 1.447791e+00	 4.434235e+00
 4.651886e-01	 1.453289e+00	 4.292433e+00
 4.483353e-01	 1.458577e+00	 4.171756e+00
 4.314704e-01	 1.463654e+00	 4.066838e+00
 4.145977e-01	 1.468523e+00	 3.972516e+00
 5.012677e-01	 1.449083e+00	 4.650544e+00
 4.843668e-01	 1.454820e+00	 4.484808e+00
 4.674468e-01	 1.460344e+00	 4.344515e+00
 4.505116e-01	 1.465657e+00	 4.222257e+00
 4.335649e-01	 1.470759e+00	 4.111036e+00
 4.166103e-01	 1.475651e+00	 4.004072e+00
 5.036893e-01	 1.456083e+00	 4.708695e+00
 4.867067e-01	 1.461848e+00	 4.541376e+00
 4.697050e-01	 1.467399e+00	 4.394386e+00
 4.526880e-01	 1.472737e+00	 4.259912e+00
 4.356594e-01	 1.477864e+00	 4.130571e+00
 4.186229e-01	 1.482780e+00	 4.000653e+00
 5.061109e-01	 1.463084e+00	 4.777762e+00
 4.890467e-01	 1.468876e+00	 4.603522e+00
 4.719632e-01	 1.474454e+00	 4.441064e+00
 4.548644e-01	 1.479818e+00	 4.283386e+00
 4.377539e-01	 1.484969e+00	 4.134770e+00
 4.206356e-01	 1.489909e+00	 4.017154e+00
 5.085325e-01	 1.470084e+00	 4.858142e+00
 4.913866e-01	 1.475904e+00	 4.670865e+00
 4.742214e-01	 1.481508e+00	 4.483614e+00
 4.570408e-01	 1.486898e+00	 4.318455e+00
 4.398485e-01	 1.492075e+00	 4.189983e+00
 4.226482e-01	 1.497038e+00	 4.082271e+00
 4.125851e-01	 1.461394e+00	 3.906084e+00
 3.957902e-01	 1.466032e+00	 3.778916e+00
 3.789947e-01	 1.470463e+00	 3.599450e+00
 3.622021e-01	 1.474689e+00	 3.409091e+00
 3.454160e-01	 1.478711e+00	 3.226649e+00
 3.286397e-01	 1.482530e+00	 3.086569e+00
 4.145977e-01	 1.468523e+00	 3.972516e+00
 3.977209e-01	 1.473183e+00	 3.837925e+00
 3.808435e-01	 1.477636e+00	 3.647457e+00
 3.639690e-01	 1.481883e+00	 3.446106e+00
 3.471009e-01	 1.485924e+00	 3.266312e+00
 3.302428e-01	 1.489762e+00	 3.141834e+00
 4.166103e-01	 1.475651e+00	 4.004072e+00
 3.996516e-01	 1.480334e+00	 3.851555e+00
 3.826922e-01	 1.484809e+00	 3.649901e+00
 3.657358e-01	 1.489076e+00	 3.462725e+00
 3.487859e-01	 1.493137e+00	 3.303909e+00
 3.318459e-01	 1.496993e+00	 3.193774e+00
 4.186229e-01	 1.482780e+00	 4.000653e+00
 4.015823e-01	 1.487486e+00	 3.847523e+00
 3.845410e-01	 1.491982e+00	 3.664282e+00
 3.675027e-01	 1.496270e+00	 3.491497e+00
 3.504709e-01	 1.500351e+00	 3.345355e+00
 3.334491e-01	 1.504225e+00	 3.243773e+00
 4.206356e-01	 1.489909e+00	 4.017154e+00
 4.035129e-01	 1.494637e+00	 3.877819e+00
 3.863897e-01	 1.499155e+00	 3.702221e+00
 3.692695e-01	 1.503464e+00	 3.533279e+00
 3.521558e-01	 1.507564e+00	 3.391764e+00
 3.350522e-01	 1.511457e+00	 3.293208e+00
 4.226482e-01	 1.497038e+00	 4.082271e+00
 4.054436e-01	 1.501788e+00	 3.943749e+00
 3.882385e-01	 1.506328e+00	 3.764259e+00
 3.710363e-01	 1.510657e+00	 3.588952e+00
 3.538408e-01	 1.514777e+00	 3.444241e+00
 3.366553e-01	 1.518689e+00	 3.343450e+00
 3.286397e-01	 1.482530e+00	 3.086569e+00
 3.118766e-01	 1.486147e+00	 2.986458e+00
 2.951302e-01	 1.489563e+00	 2.894350e+00
 2.784035e-01	 1.492779e+00	 2.807707e+00
 2.617000e-01	 1.495798e+00	 2.721164e+00
 2.450227e-01	 1.498620e+00	 2.627054e+00
 3.302428e-01	 1.489762e+00	 3.141834e+00
 3.133980e-01	 1.493396e+00	 3.052561e+00
 2.965698e-01	 1.496829e+00	 2.963221e+00
 2.797616e-01	 1.500061e+00	 2.873895e+00
 2.629766e-01	 1.503095e+00	 2.781846e+00
 2.462180e-01	 1.505930e+00	 2.682044e+00
 3.318459e-01	 1.496993e+00	 3.193774e+00
 3.149193e-01	 1.500646e+00	 3.111993e+00
 2.980095e-01	 1.504095e+00	 3.024393e+00
 2.811197e-01	 1.507343e+00	 2.932988e+00
 2.642532e-01	 1.510391e+00	 2.836991e+00
 2.474132e-01	 1.513241e+00	 2.733332e+00
 3.334491e-01	 1.504225e+00	 3.243773e+00
 3.164407e-01	 1.507895e+00	 3.166350e+00
 2.994491e-01	 1.511361e+00	 3.079559e+00
 2.824777e-01	 1.514625e+00	 2.986673e+00
 2.655298e-01	 1.517688e+00	 2.888187e+00
 2.486084e-01	 1.520551e+00	 2.782324e+00
 3.350522e-01	 1.511457e+00	 3.293208e+00
 3.179620e-01	 1.515144e+00	 3.217219e+00
 3.008888e-01	 1.518627e+00	 3.130401e+00
 2.838358e-01	 1.521907e+00	 3.036628e+00
 2.668063e-01	 1.524984e+00	 2.937015e+00
 2.498037e-01	 1.527862e+00	 2.830427e+00
 3.366553e-01	 1.518689e+00	 3.343450e+00
 3.194834e-01	 1.522394e+00	 3.266178e+00
 3.023285e-01	 1.525893e+00	 3.178594e+00
 2.851939e-01	 1.529189e+00	 3.084521e+00
 2.680829e-01	 1.532281e+00	 2.985049e+00
 2.509989e-01	 1.535172e+00	 2.879039e+00
 2.450227e-01	 1.498620e+00	 2.627054e+00
 2.283749e-01	 1.501247e+00	 2.529676e+00
 2.117595e-01	 1.503681e+00	 2.440676e+00
 1.951795e-01	 1.505923e+00	 2.361163e+00
 1.786380e-01	 1.507974e+00	 2.291450e+00
 1.621378e-01	 1.509838e+00	 2.231389e+00
 2.462180e-01	 1.505930e+00	 2.682044e+00
 2.294889e-01	 1.508570e+00	 2.580981e+00
 2.127924e-01	 1.511016e+00	 2.490267e+00
 1.961316e-01	 1.513269e+00	 2.410319e+00
 1.795094e-01	 1.515330e+00	 2.340761e+00
 1.629287e-01	 1.517203e+00	 2.280756e+00
 2.474132e-01	 1.513241e+00	 2.733332e+00
 2.306029e-01	 1.515894e+00	 2.630028e+00
 2.138254e-01	 1.518351e+00	 2.538530e+00
 1.970837e-01	 1.520615e+00	 2.458692e+00
 1.803808e-01	 1.522686e+00	 2.389586e+00
 1.637196e-01	 1.524568e+00	 2.329824e+00
 2.486084e-01	 1.520551e+00	 2.782324e+00
 2.317170e-01	 1.523217e+00	 2.678021e+00
 2.148584e-01	 1.525686e+00	 2.586484e+00
 1.980358e-01	 1.527961e+00	 2.507141e+00
 1.812522e-01	 1.530042e+00	 2.438645e+00
 1.645105e-01	 1.531933e+00	 2.379193e+00
 2.498037e-01	 1.527862e+00	 2.830427e+00
 2.328310e-01	 1.530540e+00	 2.726162e+00
 2.158914e-01	 1.533021e+00	 2.635152e+00
 1.989879e-01	 1.535307e+00	 2.556528e+00
 1.821236e-01	 1.537398e+00	 2.488659e+00
 1.653015e-01	 1.539298e+00	 2.429466e+00
 2.509989e-01	 1.535172e+00	 2.879039e+00
 2.339450e-01	 1.537863e+00	 2.775652e+00
 2.169243e-01	 1.540356e+00	 2.685555e+00
 1.999400e-01	 1.542653e+00	 2.607716e+00
 1.829950e-01	 1.544754e+00	 2.540355e+00
 1.660924e-01	 1.546663e+00	 2.481249e+00
 1.621378e-01	 1.509838e+00	 2.231389e+00
 1.456817e-01	 1.511514e+00	 2.178758e+00
 1.292726e-01	 1.513006e+00	 2.130835e+00
 1.129130e-01	 1.514315e+00	 2.086936e+00
 9.660576e-02	 1.515442e+00	 2.047081e+00
 8.035334e-02	 1.516391e+00	 2.012216e+00
 1.629287e-01	 1.517203e+00	 2.280756e+00
 1.463924e-01	 1.518887e+00	 2.227784e+00
 1.299032e-01	 1.520386e+00	 2.179433e+00
 1.134638e-01	 1.521702e+00	 2.135232e+00
 9.707701e-02	 1.522835e+00	 2.095382e+00
 8.074530e-02	 1.523788e+00	 2.060985e+00
 1.637196e-01	 1.524568e+00	 2.329824e+00
 1.471030e-01	 1.526261e+00	 2.276715e+00
 1.305338e-01	 1.527767e+00	 2.228160e+00
 1.140146e-01	 1.529089e+00	 2.183847e+00
 9.754825e-02	 1.530227e+00	 2.144110e+00
 8.113727e-02	 1.531185e+00	 2.110151e+00
 1.645105e-01	 1.531933e+00	 2.379193e+00
 1.478137e-01	 1.533634e+00	 2.326045e+00
 1.311644e-01	 1.535148e+00	 2.277410e+00
 1.145654e-01	 1.536475e+00	 2.233082e+00
 9.801950e-02	 1.537620e+00	 2.193482e+00
 8.152924e-02	 1.538582e+00	 2.159864e+00
 1.653015e-01	 1.539298e+00	 2.429466e+00
 1.485243e-01	 1.541007e+00	 2.376269e+00
 1.317950e-01	 1.542528e+00	 2.327576e+00
 1.151162e-01	 1.543862e+00	 2.283241e+00
 9.849075e-02	 1.545012e+00	 2.243720e+00
 8.192121e-02	 1.545979e+00	 2.210276e+00
 1.660924e-01	 1.546663e+00	 2.481249e+00
 1.492349e-01	 1.548380e+00	 2.427889e+00
 1.324256e-01	 1.549909e+00	 2.379058e+00
 1.156670e-01	 1.551249e+00	 2.334628e+00
 9.896200e-02	 1.552404e+00	 2.295046e+00
 8.231317e-02	 1.553376e+00	 2.261539e+00
 8.035334e-02	 1.516391e+00	 2.012216e+00
 6.415829e-02	 1.517163e+00	 1.984603e+00
 4.802307e-02	 1.517759e+00	 1.963631e+00
 3.195007e-02	 1.518182e+00	 1.948018e+00
 1.594163e-02	 1.518435e+00	 1.938315e+00
 0.000000e+00	 1.518519e+00	 1.937090e+00
 8.074530e-02	 1.523788e+00	 2.060985e+00
 6.447125e-02	 1.524563e+00	 2.034261e+00
 4.825733e-02	 1.525163e+00	 2.014266e+00
 3.210592e-02	 1.525588e+00	 1.999384e+00
 1.601939e-02	 1.525842e+00	 1.989788e+00
 0.000000e+00	 1.525926e+00	 1.987621e+00
 8.113727e-02	 1.531185e+00	 2.110151e+00
 6.478422e-02	 1.531964e+00	 2.084125e+00
 4.849159e-02	 1.532566e+00	 2.064850e+00
 3.226178e-02	 1.532994e+00	 2.050496e+00
 1.609715e-02	 1.533249e+00	 2.040973e+00
 0.000000e+00	 1.533333e+00	 2.038116e+00
 8.152924e-02	 1.538582e+00	 2.159864e+00
 6.509719e-02	 1.539365e+00	 2.134293e+00
 4.872584e-02	 1.539970e+00	 2.115441e+00
 3.241763e-02	 1.540400e+00	 2.101385e+00
 1.617492e-02	 1.540656e+00	 2.091892e+00
 0.000000e+00	 1.540741e+00	 2.088596e+00
 8.192121e-02	 1.545979e+00	 2.210276e+00
 6.541016e-02	 1.546766e+00	 2.184862e+00
 4.896010e-02	 1.547374e+00	 2.166096e+00
 3.257349e-02	 1.547805e+00	 2.152081e+00
 1.625268e-02	 1.548063e+00	 2.142559e+00
 0.000000e+00	 1.548148e+00	 2.139077e+00
 8.231317e-02	 1.553376e+00	 2.261539e+00
 6.572312e-02	 1.554167e+00	 2.235929e+00
 4.919436e-02	 1.554777e+00	 2.216869e+00
 3.272934e-02	 1.555211e+00	 2.202612e+00
 1.633045e-02	 1.555470e+00	 2.192987e+00
 0.000000e+00	 1.555556e+00	 2.189571e+00
 1.555556e+00	 0.000000e+00	 1.495185e+01
 1.555470e+00	 1.633045e-02	 1.495394e+01
 1.555211e+00	 3.272934e-02	 1.495478e+01
 1.554777e+00	 4.919436e-02	 1.495492e+01
 1.554167e+00	 6.572312e-02	 1.495455e+01
 1.553376e+00	 8.231317e-02	 1.495349e+01
 1.562963e+00	 0.000000e+00	 1.488283e+01
 1.562877e+00	 1.640821e-02	 1.488478e+01
 1.562617e+00	 3.288519e-02	 1.488550e+01
 1.562181e+00	 4.942862e-02	 1.488562e+01
 1.561567e+00	 6.603609e-02	 1.488537e+01
 1.560773e+00	 8.270514e-02	 1.488468e+01
 1.570370e+00	 0.000000e+00	 1.481532e+01
 1.570284e+00	 1.648597e-02	 1.481707e+01
 1.570023e+00	 3.304105e-02	 1.481769e+01
 1.569585e+00	 4.966288e-02	 1.481781e+01
 1.568968e+00	 6.634906e-02	 1.481775e+01
 1.568170e+00	 8.309711e-02	 1.481745e+01
 1.577778e+00	 0.000000e+00	 1.474927e+01
 1.577691e+00	 1.656374e-02	 1.475078e+01
 1.577429e+00	 3.319690e-02	 1.475129e+01
 1.576989e+00	 4.989714e-02	 1.475146e+01
 1.576369e+00	 6.666203e-02	 1.475161e+01
 1.575567e+00	 8.348908e-02	 1.475174e+01
 1.585185e+00	 0.000000e+00	 1.468465e+01
 1.585098e+00	 1.664150e-02	 1.468586e+01
 1.584834e+00	 3.335276e-02	 1.468625e+01
 1.584392e+00	 5.013140e-02	 1.468649e+01
 1.583770e+00	 6.697499e-02	 1.468689e+01
 1.582964e+00	 8.388104e-02	 1.468747e+01
 1.592593e+00	 0.000000e+00	 1.462144e+01
 1.592505e+00	 1.671927e-02	 1.462227e+01
 1.592240e+00	 3.350861e-02	 1.462253e+01
 1.591796e+00	 5.036566e-02	 1.462285e+01
 1.591170e+00	 6.728796e-02	 1.462353e+01
 1.590361e+00	 8.427301e-02	 1.462458e+01
 1.553376e+00	 8.231317e-02	 1.495349e+01
 1.552404e+00	 9.896200e-02	 1.495225e+01
 1.551249e+00	 1.156670e-01	 1.495185e+01
 1.549909e+00	 1.324256e-01	 1.495250e+01
 1.548380e+00	 1.492349e-01	 1.495415e+01
 1.546663e+00	 1.660924e-01	 1.495651e+01
 1.560773e+00	 8.270514e-02	 1.488468e+01
 1.559797e+00	 9.943324e-02	 1.488384e+01
 1.558636e+00	 1.162178e-01	 1.488371e+01
 1.557289e+00	 1.330562e-01	 1.488451e+01
 1.555754e+00	 1.499456e-01	 1.488626e+01
 1.554028e+00	 1.668833e-01	 1.488871e+01
 1.568170e+00	 8.309711e-02	 1.481745e+01
 1.567189e+00	 9.990449e-02	 1.481704e+01
 1.566023e+00	 1.167686e-01	 1.481716e+01
 1.564670e+00	 1.336868e-01	 1.481813e+01
 1.563127e+00	 1.506562e-01	 1.481998e+01
 1.561393e+00	 1.676742e-01	 1.482257e+01
 1.575567e+00	 8.348908e-02	 1.475174e+01
 1.574582e+00	 1.003757e-01	 1.475176e+01
 1.573410e+00	 1.173194e-01	 1.475213e+01
 1.572050e+00	 1.343174e-01	 1.475323e+01
 1.570500e+00	 1.513669e-01	 1.475518e+01
 1.568758e+00	 1.684651e-01	 1.475788e+01
 1.582964e+00	 8.388104e-02	 1.468747e+01
 1.581974e+00	 1.008470e-01	 1.468792e+01
 1.580797e+00	 1.178702e-01	 1.468851e+01
 1.579431e+00	 1.349479e-01	 1.468969e+01
 1.577873e+00	 1.520775e-01	 1.469169e+01
 1.576123e+00	 1.692560e-01	 1.469447e+01
 1.590361e+00	 8.427301e-02	 1.462458e+01
 1.589366e+00	 1.013182e-01	 1.462544e+01
 1.588184e+00	 1.184210e-01	 1.462621e+01
 1.586811e+00	 1.355785e-01	 1.462742e+01
 1.585247e+00	 1.527882e-01	 1.462937e+01
 1.583488e+00	 1.700470e-01	 1.463215e+01
 1.546663e+00	 1.660924e-01	 1.495651e+01
 1.544754e+00	 1.829950e-01	 1.495873e+01
 1.542653e+00	 1.999400e-01	 1.495949e+01
 1.540356e+00	 2.169243e-01	 1.495759e+01
 1.537863e+00	 2.339450e-01	 1.495181e+01
 1.535172e+00	 2.509989e-01	 1.494095e+01
 1.554028e+00	 1.668833e-01	 1.488871e+01
 1.552110e+00	 1.838664e-01	 1.489118e+01
 1.549999e+00	 2.008921e-01	 1.489245e+01
 1.547691e+00	 2.179573e-01	 1.489132e+01
 1.545186e+00	 2.350590e-01	 1.488654e+01
 1.542482e+00	 2.521941e-01	 1.487689e+01
 1.561393e+00	 1.676742e-01	 1.482257e+01
 1.559466e+00	 1.847378e-01	 1.482532e+01
 1.557345e+00	 2.018442e-01	 1.482713e+01
 1.555026e+00	 2.189903e-01	 1.482675e+01
 1.552509e+00	 2.361730e-01	 1.482291e+01
 1.549793e+00	 2.533894e-01	 1.481433e+01
 1.568758e+00	 1.684651e-01	 1.475788e+01
 1.566822e+00	 1.856092e-01	 1.476093e+01
 1.564691e+00	 2.027963e-01	 1.476329e+01
 1.562361e+00	 2.200233e-01	 1.476367e+01
 1.559833e+00	 2.372871e-01	 1.476072e+01
 1.557103e+00	 2.545846e-01	 1.475311e+01
 1.576123e+00	 1.692560e-01	 1.469447e+01
 1.574178e+00	 1.864807e-01	 1.469780e+01
 1.572036e+00	 2.037484e-01	 1.470071e+01
 1.569696e+00	 2.210562e-01	 1.470184e+01
 1.567156e+00	 2.384011e-01	 1.469977e+01
 1.564413e+00	 2.557798e-01	 1.469307e+01
 1.583488e+00	 1.700470e-01	 1.463215e+01
 1.581534e+00	 1.873521e-01	 1.463571e+01
 1.579382e+00	 2.047005e-01	 1.463916e+01
 1.577031e+00	 2.220892e-01	 1.464105e+01
 1.574479e+00	 2.395151e-01	 1.463986e+01
 1.571724e+00	 2.569751e-01	 1.463406e+01
 1.535172e+00	 2.509989e-01	 1.494095e+01
 1.532281e+00	 2.680829e-01	 1.493195e+01
 1.529189e+00	 2.851939e-01	 1.493128e+01
 1.525893e+00	 3.023285e-01	 1.493719e+01
 1.522394e+00	 3.194834e-01	 1.494817e+01
 1.518689e+00	 3.366553e-01	 1.496308e+01
 1.542482e+00	 2.521941e-01	 1.487689e+01
 1.539577e+00	 2.693595e-01	 1.486903e+01
 1.536470e+00	 2.865519e-01	 1.486917e+01
 1.533160e+00	 3.037681e-01	 1.487558e+01
 1.529643e+00	 3.210047e-01	 1.488679e+01
 1.525921e+00	 3.382584e-01	 1.490166e+01
 1.549793e+00	 2.533894e-01	 1.481433e+01
 1.546874e+00	 2.706361e-01	 1.480743e+01
 1.543752e+00	 2.879100e-01	 1.480828e+01
 1.540426e+00	 3.052078e-01	 1.481522e+01
 1.536893e+00	 3.225261e-01	 1.482685e+01
 1.533153e+00	 3.398615e-01	 1.484210e+01
 1.557103e+00	 2.545846e-01	 1.475311e+01
 1.554171e+00	 2.719127e-01	 1.474702e+01
 1.551034e+00	 2.892681e-01	 1.474844e+01
 1.547692e+00	 3.066474e-01	 1.475584e+01
 1.544142e+00	 3.240474e-01	 1.476796e+01
 1.540385e+00	 3.414647e-01	 1.478383e+01
 1.564413e+00	 2.557798e-01	 1.469307e+01
 1.561467e+00	 2.731893e-01	 1.468768e+01
 1.558316e+00	 2.906261e-01	 1.468950e+01
 1.554958e+00	 3.080871e-01	 1.469723e+01
 1.551392e+00	 3.255688e-01	 1.470976e+01
 1.547616e+00	 3.430678e-01	 1.472630e+01
 1.571724e+00	 2.569751e-01	 1.463406e+01
 1.568764e+00	 2.744659e-01	 1.462927e+01
 1.565598e+00	 2.919842e-01	 1.463132e+01
 1.562224e+00	 3.095267e-01	 1.463916e+01
 1.558641e+00	 3.270901e-01	 1.465190e+01
 1.554848e+00	 3.446709e-01	 1.466894e+01
 1.518689e+00	 3.366553e-01	 1.496308e+01
 1.514777e+00	 3.538408e-01	 1.496470e+01
 1.510657e+00	 3.710363e-01	 1.493816e+01
 1.506328e+00	 3.882385e-01	 1.490391e+01
 1.501788e+00	 4.054436e-01	 1.488323e+01
 1.497038e+00	 4.226482e-01	 1.488403e+01
 1.525921e+00	 3.382584e-01	 1.490166e+01
 1.521990e+00	 3.555257e-01	 1.490296e+01
 1.517851e+00	 3.728032e-01	 1.487603e+01
 1.513501e+00	 3.900872e-01	 1.484353e+01
 1.508940e+00	 4.073743e-01	 1.482384e+01
 1.504166e+00	 4.246608e-01	 1.482508e+01
 1.533153e+00	 3.398615e-01	 1.484210e+01
 1.529204e+00	 3.572107e-01	 1.484364e+01
 1.525044e+00	 3.745700e-01	 1.481710e+01
 1.520674e+00	 3.919360e-01	 1.478650e+01
 1.516091e+00	 4.093050e-01	 1.476771e+01
 1.511295e+00	 4.266734e-01	 1.476892e+01
 1.540385e+00	 3.414647e-01	 1.478383e+01
 1.536417e+00	 3.588956e-01	 1.478600e+01
 1.532238e+00	 3.763368e-01	 1.476052e+01
 1.527847e+00	 3.937847e-01	 1.473203e+01
 1.523243e+00	 4.112357e-01	 1.471422e+01
 1.518424e+00	 4.286860e-01	 1.471525e+01
 1.547616e+00	 3.430678e-01	 1.472630e+01
 1.543630e+00	 3.605806e-01	 1.472932e+01
 1.539432e+00	 3.781037e-01	 1.470550e+01
 1.535020e+00	 3.956335e-01	 1.467939e+01
 1.530394e+00	 4.131664e-01	 1.466281e+01
 1.525553e+00	 4.306986e-01	 1.466377e+01
 1.554848e+00	 3.446709e-01	 1.466894e+01
 1.550843e+00	 3.622655e-01	 1.467289e+01
 1.546625e+00	 3.798705e-01	 1.465122e+01
 1.542193e+00	 3.974822e-01	 1.462784e+01
 1.537545e+00	 4.150970e-01	 1.461291e+01
 1.532681e+00	 4.327112e-01	 1.461421e+01
 1.497038e+00	 4.226482e-01	 1.488403e+01
 1.492075e+00	 4.398485e-01	 1.489292e+01
 1.486898e+00	 4.570408e-01	 1.489078e+01
 1.481508e+00	 4.742214e-01	 1.487765e+01
 1.475904e+00	 4.913866e-01	 1.485927e+01
 1.470084e+00	 5.085325e-01	 1.484325e+01
 1.504166e+00	 4.246608e-01	 1.482508e+01
 1.499180e+00	 4.419430e-01	 1.483538e+01
 1.493979e+00	 4.592172e-01	 1.483696e+01
 1.488563e+00	 4.764796e-01	 1.482968e+01
 1.482932e+00	 4.937265e-01	 1.481399e+01
 1.477085e+00	 5.109541e-01	 1.479414e+01
 1.511295e+00	 4.266734e-01	 1.476892e+01
 1.506285e+00	 4.440375e-01	 1.477963e+01
 1.501059e+00	 4.613936e-01	 1.478331e+01
 1.495618e+00	 4.787378e-01	 1.477970e+01
 1.489960e+00	 4.960665e-01	 1.476908e+01
 1.484085e+00	 5.133756e-01	 1.475232e+01
 1.518424e+00	 4.286860e-01	 1.471525e+01
 1.513390e+00	 4.461320e-01	 1.472575e+01
 1.508140e+00	 4.635699e-01	 1.473030e+01
 1.502673e+00	 4.809960e-01	 1.472861e+01
 1.496988e+00	 4.984064e-01	 1.472085e+01
 1.491085e+00	 5.157972e-01	 1.470774e+01
 1.525553e+00	 4.306986e-01	 1.466377e+01
 1.520495e+00	 4.482265e-01	 1.467378e+01
 1.515220e+00	 4.657463e-01	 1.467840e+01
 1.509728e+00	 4.832542e-01	 1.467732e+01
 1.504016e+00	 5.007463e-01	 1.467068e+01
 1.498086e+00	 5.182188e-01	 1.465913e+01
 1.532681e+00	 4.327112e-01	 1.461421e+01
 1.527600e+00	 4.503210e-01	 1.462381e+01
 1.522301e+00	 4.679227e-01	 1.462807e+01
 1.516782e+00	 4.855124e-01	 1.462673e+01
 1.511044e+00	 5.030863e-01	 1.461995e+01
 1.505086e+00	 5.206404e-01	 1.460836e+01
 1.470084e+00	 5.085325e-01	 1.484325e+01
 1.464049e+00	 5.256552e-01	 1.482214e+01
 1.457798e+00	 5.427510e-01	 1.479129e+01
 1.451330e+00	 5.598158e-01	 1.475866e+01
 1.444646e+00	 5.768458e-01	 1.473274e+01
 1.437745e+00	 5.938370e-01	 1.472252e+01
 1.477085e+00	 5.109541e-01	 1.479414e+01
 1.471021e+00	 5.281584e-01	 1.477039e+01
 1.464740e+00	 5.453355e-01	 1.473907e+01
 1.458241e+00	 5.624816e-01	 1.470794e+01
 1.451525e+00	 5.795927e-01	 1.468537e+01
 1.444591e+00	 5.966647e-01	 1.468031e+01
 1.484085e+00	 5.133756e-01	 1.475232e+01
 1.477992e+00	 5.306615e-01	 1.472414e+01
 1.471682e+00	 5.479200e-01	 1.468999e+01
 1.465152e+00	 5.651474e-01	 1.465864e+01
 1.458405e+00	 5.823396e-01	 1.463842e+01
 1.451438e+00	 5.994925e-01	 1.463825e+01
 1.491085e+00	 5.157972e-01	 1.470774e+01
 1.484964e+00	 5.331646e-01	 1.468339e+01
 1.478623e+00	 5.505046e-01	 1.464612e+01
 1.472063e+00	 5.678132e-01	 1.461261e+01
 1.465284e+00	 5.850864e-01	 1.459318e+01
 1.458284e+00	 6.023203e-01	 1.459679e+01
 1.498086e+00	 5.182188e-01	 1.465913e+01
 1.491936e+00	 5.356677e-01	 1.463833e+01
 1.485565e+00	 5.530891e-01	 1.460681e+01
 1.478975e+00	 5.704790e-01	 1.457167e+01
 1.472163e+00	 5.878333e-01	 1.455094e+01
 1.465131e+00	 6.051481e-01	 1.455637e+01
 1.505086e+00	 5.206404e-01	 1.460836e+01
 1.498907e+00	 5.381708e-01	 1.458920e+01
 1.492507e+00	 5.556736e-01	 1.456257e+01
 1.485886e+00	 5.731448e-01	 1.453451e+01
 1.479042e+00	 5.905802e-01	 1.451301e+01
 1.471977e+00	 6.079759e-01	 1.451745e+01
 1.437745e+00	 5.938370e-01	 1.472252e+01
 1.430627e+00	 6.107853e-01	 1.470900e+01
 1.423293e+00	 6.276869e-01	 1.467308e+01
 1.415742e+00	 6.445377e-01	 1.462380e+01
 1.407974e+00	 6.613337e-01	 1.456997e+01
 1.399990e+00	 6.780708e-01	 1.452014e+01
 1.444591e+00	 5.966647e-01	 1.468031e+01
 1.437440e+00	 6.136938e-01	 1.467147e+01
 1.430070e+00	 6.306759e-01	 1.463775e+01
 1.422483e+00	 6.476070e-01	 1.458861e+01
 1.414679e+00	 6.644829e-01	 1.453328e+01
 1.406657e+00	 6.812997e-01	 1.448074e+01
 1.451438e+00	 5.994925e-01	 1.463825e+01
 1.444252e+00	 6.166023e-01	 1.463433e+01
 1.436848e+00	 6.336649e-01	 1.460312e+01
 1.429225e+00	 6.506762e-01	 1.455439e+01
 1.421383e+00	 6.676321e-01	 1.449774e+01
 1.413324e+00	 6.845286e-01	 1.444251e+01
 1.458284e+00	 6.023203e-01	 1.459679e+01
 1.451065e+00	 6.195108e-01	 1.459713e+01
 1.443625e+00	 6.366539e-01	 1.456822e+01
 1.435966e+00	 6.537454e-01	 1.452001e+01
 1.428088e+00	 6.707813e-01	 1.446237e+01
 1.419990e+00	 6.877575e-01	 1.440498e+01
 1.465131e+00	 6.051481e-01	 1.455637e+01
 1.457877e+00	 6.224193e-01	 1.455949e+01
 1.450403e+00	 6.396429e-01	 1.453216e+01
 1.442708e+00	 6.568146e-01	 1.448441e+01
 1.434793e+00	 6.739305e-01	 1.442627e+01
 1.426657e+00	 6.909864e-01	 1.436773e+01
 1.471977e+00	 6.079759e-01	 1.451745e+01
 1.464690e+00	 6.253278e-01	 1.452105e+01
 1.457181e+00	 6.426319e-01	 1.449409e+01
 1.449450e+00	 6.598839e-01	 1.444654e+01
 1.441497e+00	 6.770797e-01	 1.438856e+01
 1.433323e+00	 6.942153e-01	 1.433039e+01
 1.399990e+00	 6.780708e-01	 1.452014e+01
 1.391791e+00	 6.947450e-01	 1.447214e+01
 1.383377e+00	 7.113522e-01	 1.442544e+01
 1.374748e+00	 7.278884e-01	 1.439078e+01
 1.365905e+00	 7.443495e-01	 1.437604e+01
 1.356850e+00	 7.607315e-01	 1.430913e+01
 1.406657e+00	 6.812997e-01	 1.448074e+01
 1.398419e+00	 6.980533e-01	 1.443177e+01
 1.389964e+00	 7.147396e-01	 1.438877e+01
 1.381294e+00	 7.313545e-01	 1.436288e+01
 1.372409e+00	 7.478940e-01	 1.435452e+01
 1.363311e+00	 7.643540e-01	 1.428394e+01
 1.413324e+00	 6.845286e-01	 1.444251e+01
 1.405046e+00	 7.013616e-01	 1.439254e+01
 1.396552e+00	 7.181270e-01	 1.435328e+01
 1.387841e+00	 7.348207e-01	 1.433630e+01
 1.378914e+00	 7.514385e-01	 1.432993e+01
 1.369772e+00	 7.679766e-01	 1.425715e+01
 1.419990e+00	 6.877575e-01	 1.440498e+01
 1.411674e+00	 7.046699e-01	 1.435455e+01
 1.403139e+00	 7.215144e-01	 1.431941e+01
 1.394387e+00	 7.382868e-01	 1.431155e+01
 1.385418e+00	 7.549831e-01	 1.430324e+01
 1.376233e+00	 7.715991e-01	 1.422936e+01
 1.426657e+00	 6.909864e-01	 1.436773e+01
 1.418301e+00	 7.079782e-01	 1.431793e+01
 1.409727e+00	 7.249018e-01	 1.428761e+01
 1.400934e+00	 7.417529e-01	 1.428902e+01
 1.391922e+00	 7.585276e-01	 1.427543e+01
 1.382694e+00	 7.752216e-01	 1.420124e+01
 1.433323e+00	 6.942153e-01	 1.433039e+01
 1.424929e+00	 7.112865e-01	 1.428284e+01
 1.416314e+00	 7.282891e-01	 1.425837e+01
 1.407480e+00	 7.452191e-01	 1.426642e+01
 1.398427e+00	 7.620721e-01	 1.424751e+01
 1.389155e+00	 7.788442e-01	 1.417347e+01
 1.356850e+00	 7.607315e-01	 1.430913e+01
 1.347582e+00	 7.770303e-01	 1.421227e+01
 1.338103e+00	 7.932420e-01	 1.413713e+01
 1.328415e+00	 8.093624e-01	 1.407153e+01
 1.318518e+00	 8.253876e-01	 1.400248e+01
 1.308413e+00	 8.413136e-01	 1.391628e+01
 1.363311e+00	 7.643540e-01	 1.428394e+01
 1.353999e+00	 7.807305e-01	 1.418720e+01
 1.344475e+00	 7.970193e-01	 1.411286e+01
 1.334740e+00	 8.132165e-01	 1.404861e+01
 1.324796e+00	 8.293180e-01	 1.398120e+01
 1.314644e+00	 8.453198e-01	 1.389660e+01
 1.369772e+00	 7.679766e-01	 1.425715e+01
 1.360416e+00	 7.844306e-01	 1.416169e+01
 1.350847e+00	 8.007966e-01	 1.408880e+01
 1.341066e+00	 8.170706e-01	 1.402607e+01
 1.331075e+00	 8.332484e-01	 1.396011e+01
 1.320874e+00	 8.493261e-01	 1.387667e+01
 1.376233e+00	 7.715991e-01	 1.422936e+01
 1.366833e+00	 7.881308e-01	 1.413598e+01
 1.357219e+00	 8.045740e-01	 1.406496e+01
 1.347392e+00	 8.209247e-01	 1.400388e+01
 1.337353e+00	 8.371788e-01	 1.393927e+01
 1.327105e+00	 8.533323e-01	 1.385675e+01
 1.382694e+00	 7.752216e-01	 1.420124e+01
 1.373250e+00	 7.918309e-01	 1.411036e+01
 1.363591e+00	 8.083513e-01	 1.404141e+01
 1.353718e+00	 8.247788e-01	 1.398202e+01
 1.343632e+00	 8.411092e-01	 1.391874e+01
 1.333335e+00	 8.573386e-01	 1.383716e+01
 1.389155e+00	 7.788442e-01	 1.417347e+01
 1.379667e+00	 7.955310e-01	 1.408516e+01
 1.369963e+00	 8.121287e-01	 1.401827e+01
 1.360044e+00	 8.286329e-01	 1.396055e+01
 1.349911e+00	 8.450397e-01	 1.389865e+01
 1.339566e+00	 8.613448e-01	 1.381822e+01
 1.308413e+00	 8.413136e-01	 1.391628e+01
 1.298103e+00	 8.571364e-01	 1.382651e+01
 1.287588e+00	 8.728521e-01	 1.374861e+01
 1.276870e+00	 8.884568e-01	 1.367134e+01
 1.265952e+00	 9.039467e-01	 1.358365e+01
 1.254834e+00	 9.193178e-01	 1.347500e+01
 1.314644e+00	 8.453198e-01	 1.389660e+01
 1.304284e+00	 8.612180e-01	 1.380856e+01
 1.293719e+00	 8.770086e-01	 1.373284e+01
 1.282951e+00	 8.926876e-01	 1.365802e+01
 1.271980e+00	 9.082512e-01	 1.357292e+01
 1.260809e+00	 9.236955e-01	 1.346680e+01
 1.320874e+00	 8.493261e-01	 1.387667e+01
 1.310465e+00	 8.652996e-01	 1.378992e+01
 1.299851e+00	 8.811650e-01	 1.371613e+01
 1.289031e+00	 8.969183e-01	 1.364364e+01
 1.278008e+00	 9.125557e-01	 1.356100e+01
 1.266785e+00	 9.280732e-01	 1.345720e+01
 1.327105e+00	 8.533323e-01	 1.385675e+01
 1.316647e+00	 8.693812e-01	 1.377112e+01
 1.305982e+00	 8.853214e-01	 1.369918e+01
 1.295111e+00	 9.011491e-01	 1.362897e+01
 1.284037e+00	 9.168602e-01	 1.354866e+01
 1.272760e+00	 9.324509e-01	 1.344689e+01
 1.333335e+00	 8.573386e-01	 1.383716e+01
 1.322828e+00	 8.734628e-01	 1.375273e+01
 1.312113e+00	 8.894779e-01	 1.368273e+01
 1.301192e+00	 9.053798e-01	 1.361480e+01
 1.290065e+00	 9.211647e-01	 1.353669e+01
 1.278735e+00	 9.368286e-01	 1.343652e+01
 1.339566e+00	 8.613448e-01	 1.381822e+01
 1.329010e+00	 8.775444e-01	 1.373533e+01
 1.318245e+00	 8.936343e-01	 1.366751e+01
 1.307272e+00	 9.096106e-01	 1.360196e+01
 1.296093e+00	 9.254692e-01	 1.352588e+01
 1.284711e+00	 9.412063e-01	 1.342683e+01
 1.254834e+00	 9.193178e-01	 1.347500e+01
 1.243519e+00	 9.345664e-01	 1.336242e+01
 1.232008e+00	 9.496887e-01	 1.326053e+01
 1.220305e+00	 9.646810e-01	 1.315674e+01
 1.208410e+00	 9.795396e-01	 1.303993e+01
 1.196327e+00	 9.942609e-01	 1.290092e+01
 1.260809e+00	 9.236955e-01	 1.346680e+01
 1.249440e+00	 9.390167e-01	 1.335616e+01
 1.237875e+00	 9.542110e-01	 1.325539e+01
 1.226116e+00	 9.692747e-01	 1.315212e+01
 1.214165e+00	 9.842041e-01	 1.303554e+01
 1.202024e+00	 9.989955e-01	 1.289678e+01
 1.266785e+00	 9.280732e-01	 1.345720e+01
 1.255362e+00	 9.434670e-01	 1.334825e+01
 1.243742e+00	 9.587333e-01	 1.324840e+01
 1.231927e+00	 9.738684e-01	 1.314563e+01
 1.219919e+00	 9.888686e-01	 1.302949e+01
 1.207721e+00	 1.003730e+00	 1.289155e+01
 1.272760e+00	 9.324509e-01	 1.344689e+01
 1.261283e+00	 9.479173e-01	 1.333923e+01
 1.249608e+00	 9.632557e-01	 1.324008e+01
 1.237738e+00	 9.784621e-01	 1.313781e+01
 1.225673e+00	 9.935330e-01	 1.302243e+01
 1.213417e+00	 1.008465e+00	 1.288603e+01
 1.278735e+00	 9.368286e-01	 1.343652e+01
 1.267205e+00	 9.523677e-01	 1.332968e+01
 1.255475e+00	 9.677780e-01	 1.323097e+01
 1.243549e+00	 9.830559e-01	 1.312922e+01
 1.231428e+00	 9.981975e-01	 1.301501e+01
 1.219114e+00	 1.013199e+00	 1.288104e+01
 1.284711e+00	 9.412063e-01	 1.342683e+01
 1.273126e+00	 9.568180e-01	 1.332021e+01
 1.261342e+00	 9.723003e-01	 1.322162e+01
 1.249360e+00	 9.876496e-01	 1.312045e+01
 1.237182e+00	 1.002862e+00	 1.300793e+01
 1.224811e+00	 1.017934e+00	 1.287743e+01
 1.196327e+00	 9.942609e-01	 1.290092e+01
 1.184057e+00	 1.008841e+00	 1.274900e+01
 1.171604e+00	 1.023277e+00	 1.260152e+01
 1.158970e+00	 1.037566e+00	 1.246546e+01
 1.146156e+00	 1.051703e+00	 1.235149e+01
 1.133167e+00	 1.065685e+00	 1.227432e+01
 1.202024e+00	 9.989955e-01	 1.289678e+01
 1.189696e+00	 1.013645e+00	 1.274674e+01
 1.177183e+00	 1.028150e+00	 1.260322e+01
 1.164488e+00	 1.042506e+00	 1.247183e+01
 1.151614e+00	 1.056711e+00	 1.236189e+01
 1.138563e+00	 1.070760e+00	 1.228668e+01
 1.207721e+00	 1.003730e+00	 1.289155e+01
 1.195334e+00	 1.018449e+00	 1.274393e+01
 1.182762e+00	 1.033023e+00	 1.260438e+01
 1.170007e+00	 1.047447e+00	 1.247715e+01
 1.157072e+00	 1.061719e+00	 1.237009e+01
 1.143959e+00	 1.075835e+00	 1.229506e+01
 1.213417e+00	 1.008465e+00	 1.288603e+01
 1.200973e+00	 1.023253e+00	 1.274152e+01
 1.188341e+00	 1.037896e+00	 1.260610e+01
 1.175526e+00	 1.052388e+00	 1.248257e+01
 1.162530e+00	 1.066727e+00	 1.237731e+01
 1.149355e+00	 1.080909e+00	 1.230069e+01
 1.219114e+00	 1.013199e+00	 1.288104e+01
 1.206611e+00	 1.028057e+00	 1.274051e+01
 1.193920e+00	 1.042768e+00	 1.260950e+01
 1.181045e+00	 1.057329e+00	 1.248932e+01
 1.167988e+00	 1.071735e+00	 1.238482e+01
 1.154751e+00	 1.085984e+00	 1.230482e+01
 1.224811e+00	 1.017934e+00	 1.287743e+01
 1.212249e+00	 1.032861e+00	 1.274191e+01
 1.199499e+00	 1.047641e+00	 1.261572e+01
 1.186564e+00	 1.062270e+00	 1.249862e+01
 1.173446e+00	 1.076743e+00	 1.239390e+01
 1.160147e+00	 1.091059e+00	 1.230875e+01
 1.133167e+00	 1.065685e+00	 1.227432e+01
 1.120005e+00	 1.079510e+00	 1.216984e+01
 1.106673e+00	 1.093173e+00	 1.198187e+01
 1.093173e+00	 1.106673e+00	 1.174671e+01
 1.079510e+00	 1.120005e+00	 1.152048e+01
 1.065685e+00	 1.133167e+00	 1.137792e+01
 1.138563e+00	 1.070760e+00	 1.228668e+01
 1.125339e+00	 1.084650e+00	 1.218104e+01
 1.111943e+00	 1.098379e+00	 1.198875e+01
 1.098379e+00	 1.111943e+00	 1.174521e+01
 1.084650e+00	 1.125339e+00	 1.152969e+01
 1.070760e+00	 1.138563e+00	 1.139625e+01
 1.143959e+00	 1.075835e+00	 1.229506e+01
 1.130672e+00	 1.089791e+00	 1.218610e+01
 1.117213e+00	 1.103585e+00	 1.198723e+01
 1.103585e+00	 1.117213e+00	 1.174070e+01
 1.089791e+00	 1.130672e+00	 1.153854e+01
 1.075835e+00	 1.143959e+00	 1.141285e+01
 1.149355e+00	 1.080909e+00	 1.230069e+01
 1.136005e+00	 1.094931e+00	 1.218621e+01
 1.122483e+00	 1.108790e+00	 1.197840e+01
 1.108790e+00	 1.122483e+00	 1.173916e+01
 1.094931e+00	 1.136005e+00	 1.154908e+01
 1.080909e+00	 1.149355e+00	 1.142963e+01
 1.154751e+00	 1.085984e+00	 1.230482e+01
 1.141339e+00	 1.100072e+00	 1.218260e+01
 1.127752e+00	 1.113996e+00	 1.196541e+01
 1.113996e+00	 1.127752e+00	 1.174265e+01
 1.100072e+00	 1.141339e+00	 1.156334e+01
 1.085984e+00	 1.154751e+00	 1.144851e+01
 1.160147e+00	 1.091059e+00	 1.230875e+01
 1.146672e+00	 1.105212e+00	 1.217654e+01
 1.133022e+00	 1.119201e+00	 1.195938e+01
 1.119201e+00	 1.133022e+00	 1.175292e+01
 1.105212e+00	 1.146672e+00	 1.158332e+01
 1.091059e+00	 1.160147e+00	 1.147139e+01
 1.065685e+00	 1.133167e+00	 1.137792e+01
 1.051703e+00	 1.146156e+00	 1.126617e+01
 1.037566e+00	 1.158970e+00	 1.112471e+01
 1.023277e+00	 1.171604e+00	 1.096049e+01
 1.008841e+00	 1.184057e+00	 1.077731e+01
 9.942609e-01	 1.196327e+00	 1.057602e+01
 1.070760e+00	 1.138563e+00	 1.139625e+01
 1.056711e+00	 1.151614e+00	 1.128883e+01
 1.042506e+00	 1.164488e+00	 1.114813e+01
 1.028150e+00	 1.177183e+00	 1.098254e+01
 1.013645e+00	 1.189696e+00	 1.079733e+01
 9.989955e-01	 1.202024e+00	 1.059478e+01
 1.075835e+00	 1.143959e+00	 1.141285e+01
 1.061719e+00	 1.157072e+00	 1.130838e+01
 1.047447e+00	 1.170007e+00	 1.116740e+01
 1.033023e+00	 1.182762e+00	 1.099988e+01
 1.018449e+00	 1.195334e+00	 1.081260e+01
 1.003730e+00	 1.207721e+00	 1.060940e+01
 1.080909e+00	 1.149355e+00	 1.142963e+01
 1.066727e+00	 1.162530e+00	 1.132664e+01
 1.052388e+00	 1.175526e+00	 1.118431e+01
 1.037896e+00	 1.188341e+00	 1.101424e+01
 1.023253e+00	 1.200973e+00	 1.082486e+01
 1.008465e+00	 1.213417e+00	 1.062165e+01
 1.085984e+00	 1.154751e+00	 1.144851e+01
 1.071735e+00	 1.167988e+00	 1.134543e+01
 1.057329e+00	 1.181045e+00	 1.120058e+01
 1.042768e+00	 1.193920e+00	 1.102733e+01
 1.028057e+00	 1.206611e+00	 1.083583e+01
 1.013199e+00	 1.219114e+00	 1.063327e+01
 1.091059e+00	 1.160147e+00	 1.147139e+01
 1.076743e+00	 1.173446e+00	 1.136652e+01
 1.062270e+00	 1.186564e+00	 1.121795e+01
 1.047641e+00	 1.199499e+00	 1.104086e+01
 1.032861e+00	 1.212249e+00	 1.084722e+01
 1.017934e+00	 1.224811e+00	 1.064602e+01
 9.942609e-01	 1.196327e+00	 1.057602e+01
 9.795396e-01	 1.208410e+00	 1.037610e+01
 9.646810e-01	 1.220305e+00	 1.019241e+01
 9.496887e-01	 1.232008e+00	 1.001534e+01
 9.345664e-01	 1.243519e+00	 9.833403e+00
 9.193178e-01	 1.254834e+00	 9.633608e+00
 9.989955e-01	 1.202024e+00	 1.059478e+01
 9.842041e-01	 1.214165e+00	 1.039524e+01
 9.692747e-01	 1.226116e+00	 1.021314e+01
 9.542110e-01	 1.237875e+00	 1.003832e+01
 9.390167e-01	 1.249440e+00	 9.858694e+00
 9.236955e-01	 1.260809e+00	 9.660590e+00
 1.003730e+00	 1.207721e+00	 1.060940e+01
 9.888686e-01	 1.219919e+00	 1.041115e+01
 9.738684e-01	 1.231927e+00	 1.023142e+01
 9.587333e-01	 1.243742e+00	 1.005939e+01
 9.434670e-01	 1.255362e+00	 9.882267e+00
 9.280732e-01	 1.266785e+00	 9.685599e+00
 1.008465e+00	 1.213417e+00	 1.062165e+01
 9.935330e-01	 1.225673e+00	 1.042563e+01
 9.784621e-01	 1.237738e+00	 1.024902e+01
 9.632557e-01	 1.249608e+00	 1.008026e+01
 9.479173e-01	 1.261283e+00	 9.905723e+00
 9.324509e-01	 1.272760e+00	 9.710086e+00
 1.013199e+00	 1.219114e+00	 1.063327e+01
 9.981975e-01	 1.231428e+00	 1.044046e+01
 9.830559e-01	 1.243549e+00	 1.026770e+01
 9.677780e-01	 1.255475e+00	 1.010262e+01
 9.523677e-01	 1.267205e+00	 9.930660e+00
 9.368286e-01	 1.278735e+00	 9.735504e+00
 1.017934e+00	 1.224811e+00	 1.064602e+01
 1.002862e+00	 1.237182e+00	 1.045740e+01
 9.876496e-01	 1.249360e+00	 1.028922e+01
 9.723003e-01	 1.261342e+00	 1.012817e+01
 9.568180e-01	 1.273126e+00	 9.958671e+00
 9.412063e-01	 1.284711e+00	 9.763304e+00
 9.193178e-01	 1.254834e+00	 9.633608e+00
 9.039467e-01	 1.265952e+00	 9.428619e+00
 8.884568e-01	 1.276870e+00	 9.235685e+00
 8.728521e-01	 1.287588e+00	 9.047465e+00
 8.571364e-01	 1.298103e+00	 8.856520e+00
 8.413136e-01	 1.308413e+00	 8.655581e+00
 9.236955e-01	 1.260809e+00	 9.660590e+00
 9.082512e-01	 1.271980e+00	 9.457298e+00
 8.926876e-01	 1.282951e+00	 9.266773e+00
 8.770086e-01	 1.293719e+00	 9.081086e+00
 8.612180e-01	 1.304284e+00	 8.892199e+00
 8.453198e-01	 1.314644e+00	 8.692242e+00
 9.280732e-01	 1.266785e+00	 9.685599e+00
 9.125557e-01	 1.278008e+00	 9.483293e+00
 8.969183e-01	 1.289031e+00	 9.294238e+00
 8.811650e-01	 1.299851e+00	 9.110161e+00
 8.652996e-01	 1.310465e+00	 8.922685e+00
 8.493261e-01	 1.320874e+00	 8.723611e+00
 9.324509e-01	 1.272760e+00	 9.710086e+00
 9.168602e-01	 1.284037e+00	 9.507940e+00
 9.011491e-01	 1.295111e+00	 9.319408e+00
 8.853214e-01	 1.305982e+00	 9.136115e+00
 8.693812e-01	 1.316647e+00	 8.949599e+00
 8.533323e-01	 1.327105e+00	 8.751599e+00
 9.368286e-01	 1.278735e+00	 9.735504e+00
 9.211647e-01	 1.290065e+00	 9.532578e+00
 9.053798e-01	 1.301192e+00	 9.343616e+00
 8.894779e-01	 1.312113e+00	 9.160378e+00
 8.734628e-01	 1.322828e+00	 8.974565e+00
 8.573386e-01	 1.333335e+00	 8.778119e+00
 9.412063e-01	 1.284711e+00	 9.763304e+00
 9.254692e-01	 1.296093e+00	 9.558553e+00
 9.096106e-01	 1.307272e+00	 9.368203e+00
 8.936343e-01	 1.318245e+00	 9.184386e+00
 8.775444e-01	 1.329010e+00	 8.999211e+00
 8.613448e-01	 1.339566e+00	 8.805080e+00
 8.413136e-01	 1.308413e+00	 8.655581e+00
 8.253876e-01	 1.318518e+00	 8.458575e+00
 8.093624e-01	 1.328415e+00	 8.272980e+00
 7.932420e-01	 1.338103e+00	 8.082669e+00
 7.770303e-01	 1.347582e+00	 7.872395e+00
 7.607315e-01	 1.356850e+00	 7.628003e+00
 8.453198e-01	 1.314644e+00	 8.692242e+00
 8.293180e-01	 1.324796e+00	 8.494052e+00
 8.132165e-01	 1.334740e+00	 8.305536e+00
 7.970193e-01	 1.344475e+00	 8.112324e+00
 7.807305e-01	 1.353999e+00	 7.901034e+00
 7.643540e-01	 1.363311e+00	 7.659474e+00
 8.493261e-01	 1.320874e+00	 8.723611e+00
 8.332484e-01	 1.331075e+00	 8.525108e+00
 8.170706e-01	 1.341066e+00	 8.335355e+00
 8.007966e-01	 1.350847e+00	 8.141137e+00
 7.844306e-01	 1.360416e+00	 7.930310e+00
 7.679766e-01	 1.369772e+00	 7.692004e+00
 8.533323e-01	 1.327105e+00	 8.751599e+00
 8.371788e-01	 1.337353e+00	 8.553879e+00
 8.209247e-01	 1.347392e+00	 8.364580e+00
 8.045740e-01	 1.357219e+00	 8.171047e+00
 7.881308e-01	 1.366833e+00	 7.961757e+00
 7.715991e-01	 1.376233e+00	 7.726530e+00
 8.573386e-01	 1.333335e+00	 8.778119e+00
 8.411092e-01	 1.343632e+00	 8.582499e+00
 8.247788e-01	 1.353718e+00	 8.395354e+00
 8.083513e-01	 1.363591e+00	 8.203998e+00
 7.918309e-01	 1.373250e+00	 7.996924e+00
 7.752216e-01	 1.382694e+00	 7.764016e+00
 8.613448e-01	 1.339566e+00	 8.805080e+00
 8.450397e-01	 1.349911e+00	 8.613099e+00
 8.286329e-01	 1.360044e+00	 8.429815e+00
 8.121287e-01	 1.369963e+00	 8.241937e+00
 7.955310e-01	 1.379667e+00	 8.037372e+00
 7.788442e-01	 1.389155e+00	 7.805450e+00
 7.607315e-01	 1.356850e+00	 7.628003e+00
 7.443495e-01	 1.365905e+00	 7.400499e+00
 7.278884e-01	 1.374748e+00	 7.225017e+00
 7.113522e-01	 1.383377e+00	 7.066559e+00
 6.947450e-01	 1.391791e+00	 6.901546e+00
 6.780708e-01	 1.399990e+00	 6.709240e+00
 7.643540e-01	 1.363311e+00	 7.659474e+00
 7.478940e-01	 1.372409e+00	 7.437782e+00
 7.313545e-01	 1.381294e+00	 7.269292e+00
 7.147396e-01	 1.389964e+00	 7.116138e+00
 6.980533e-01	 1.398419e+00	 6.952554e+00
 6.812997e-01	 1.406657e+00	 6.756487e+00
 7.679766e-01	 1.369772e+00	 7.692004e+00
 7.514385e-01	 1.378914e+00	 7.474724e+00
 7.348207e-01	 1.387841e+00	 7.310006e+00
 7.181270e-01	 1.396552e+00	 7.159238e+00
 7.013616e-01	 1.405046e+00	 6.995158e+00
 6.845286e-01	 1.413324e+00	 6.795663e+00
 7.715991e-01	 1.376233e+00	 7.726530e+00
 7.549831e-01	 1.385418e+00	 7.511757e+00
 7.382868e-01	 1.394387e+00	 7.347448e+00
 7.215144e-01	 1.403139e+00	 7.196350e+00
 7.046699e-01	 1.411674e+00	 7.030362e+00
 6.877575e-01	 1.419990e+00	 6.828583e+00
 7.752216e-01	 1.382694e+00	 7.764016e+00
 7.585276e-01	 1.391922e+00	 7.549345e+00
 7.417529e-01	 1.400934e+00	 7.381955e+00
 7.249018e-01	 1.409727e+00	 7.227990e+00
 7.079782e-01	 1.418301e+00	 7.059190e+00
 6.909864e-01	 1.426657e+00	 6.857065e+00
 7.788442e-01	 1.389155e+00	 7.805450e+00
 7.620721e-01	 1.398427e+00	 7.587986e+00
 7.452191e-01	 1.407480e+00	 7.414181e+00
 7.282891e-01	 1.416314e+00	 7.254703e+00
 7.112865e-01	 1.424929e+00	 7.082683e+00
 6.942153e-01	 1.433323e+00	 6.882932e+00
 6.780708e-01	 1.399990e+00	 6.709240e+00
 6.613337e-01	 1.407974e+00	 6.494220e+00
 6.445377e-01	 1.415742e+00	 6.277324e+00
 6.276869e-01	 1.423293e+00	 6.066207e+00
 6.107853e-01	 1.430627e+00	 5.871198e+00
 5.938370e-01	 1.437745e+00	 5.705143e+00
 6.812997e-01	 1.406657e+00	 6.756487e+00
 6.644829e-01	 1.414679e+00	 6.534476e+00
 6.476070e-01	 1.422483e+00	 6.311255e+00
 6.306759e-01	 1.430070e+00	 6.096188e+00
 6.136938e-01	 1.437440e+00	 5.901425e+00
 5.966647e-01	 1.444591e+00	 5.741737e+00
 6.845286e-01	 1.413324e+00	 6.795663e+00
 6.676321e-01	 1.421383e+00	 6.570212e+00
 6.506762e-01	 1.429225e+00	 6.346170e+00
 6.336649e-01	 1.436848e+00	 6.132522e+00
 6.166023e-01	 1.444252e+00	 5.941118e+00
 5.994925e-01	 1.451438e+00	 5.786496e+00
 6.877575e-01	 1.419990e+00	 6.828583e+00
 6.707813e-01	 1.428088e+00	 6.603925e+00
 6.537454e-01	 1.435966e+00	 6.384725e+00
 6.366539e-01	 1.443625e+00	 6.177537e+00
 6.195108e-01	 1.451065e+00	 5.991813e+00
 6.023203e-01	 1.458284e+00	 5.839743e+00
 6.909864e-01	 1.426657e+00	 6.857065e+00
 6.739305e-01	 1.434793e+00	 6.638104e+00
 6.568146e-01	 1.442708e+00	 6.429566e+00
 6.396429e-01	 1.450403e+00	 6.233552e+00
 6.224193e-01	 1.457877e+00	 6.055060e+00
 6.051481e-01	 1.465131e+00	 5.901830e+00
 6.942153e-01	 1.433323e+00	 6.882932e+00
 6.770797e-01	 1.441497e+00	 6.675226e+00
 6.598839e-01	 1.449450e+00	 6.483328e+00
 6.426319e-01	 1.457181e+00	 6.302886e+00
 6.253278e-01	 1.464690e+00	 6.132413e+00
 6.079759e-01	 1.471977e+00	 5.973142e+00
 5.938370e-01	 1.437745e+00	 5.705143e+00
 5.768458e-01	 1.444646e+00	 5.554409e+00
 5.598158e-01	 1.451330e+00	 5.394308e+00
 5.427510e-01	 1.457798e+00	 5.224137e+00
 5.256552e-01	 1.464049e+00	 5.044704e+00
 5.085325e-01	 1.470084e+00	 4.858142e+00
 5.966647e-01	 1.444591e+00	 5.741737e+00
 5.795927e-01	 1.451525e+00	 5.602085e+00
 5.624816e-01	 1.458241e+00	 5.452736e+00
 5.453355e-01	 1.464740e+00	 5.289531e+00
 5.281584e-01	 1.471021e+00	 5.109825e+00
 5.109541e-01	 1.477085e+00	 4.912307e+00
 5.994925e-01	 1.451438e+00	 5.786496e+00
 5.823396e-01	 1.458405e+00	 5.650309e+00
 5.651474e-01	 1.465152e+00	 5.498613e+00
 5.479200e-01	 1.471682e+00	 5.325743e+00
 5.306615e-01	 1.477992e+00	 5.127592e+00
 5.133756e-01	 1.484085e+00	 4.908053e+00
 6.023203e-01	 1.458284e+00	 5.839743e+00
 5.850864e-01	 1.465284e+00	 5.698214e+00
 5.678132e-01	 1.472063e+00	 5.530319e+00
 5.505046e-01	 1.478623e+00	 5.330818e+00
 5.331646e-01	 1.484964e+00	 5.108063e+00
 5.157972e-01	 1.491085e+00	 4.914410e+00
 6.051481e-01	 1.465131e+00	 5.901830e+00
 5.878333e-01	 1.472163e+00	 5.744986e+00
 5.704790e-01	 1.478975e+00	 5.546305e+00
 5.530891e-01	 1.485565e+00	 5.319359e+00
 5.356677e-01	 1.491936e+00	 5.121418e+00
 5.182188e-01	 1.498086e+00	 4.949200e+00
 6.079759e-01	 1.471977e+00	 5.973142e+00
 5.905802e-01	 1.479042e+00	 5.789861e+00
 5.731448e-01	 1.485886e+00	 5.564183e+00
 5.556736e-01	 1.492507e+00	 5.360257e+00
 5.381708e-01	 1.498907e+00	 5.178035e+00
 5.206404e-01	 1.505086e+00	 5.011342e+00
 5.085325e-01	 1.470084e+00	 4.858142e+00
 4.913866e-01	 1.475904e+00	 4.670865e+00
 4.742214e-01	 1.481508e+00	 4.483614e+00
 4.570408e-01	 1.486898e+00	 4.318455e+00
 4.398485e-01	 1.492075e+00	 4.189983e+00
 4.226482e-01	 1.497038e+00	 4.082271e+00
 5.109541e-01	 1.477085e+00	 4.912307e+00
 4.937265e-01	 1.482932e+00	 4.702983e+00
 4.764796e-01	 1.488563e+00	 4.525643e+00
 4.592172e-01	 1.493979e+00	 4.385938e+00
 4.419430e-01	 1.499180e+00	 4.270113e+00
 4.246608e-01	 1.504166e+00	 4.163901e+00
 5.133756e-01	 1.484085e+00	 4.908053e+00
 4.960665e-01	 1.489960e+00	 4.720450e+00
 4.787378e-01	 1.495618e+00	 4.570816e+00
 4.613936e-01	 1.501059e+00	 4.447528e+00
 4.440375e-01	 1.506285e+00	 4.338490e+00
 4.266734e-01	 1.511295e+00	 4.231114e+00
 5.157972e-01	 1.491085e+00	 4.914410e+00
 4.984064e-01	 1.496988e+00	 4.752853e+00
 4.809960e-01	 1.502673e+00	 4.619377e+00
 4.635699e-01	 1.508140e+00	 4.504031e+00
 4.461320e-01	 1.513390e+00	 4.396407e+00
 4.286860e-01	 1.518424e+00	 4.285616e+00
 5.182188e-01	 1.498086e+00	 4.949200e+00
 5.007463e-01	 1.504016e+00	 4.799798e+00
 4.832542e-01	 1.509728e+00	 4.671552e+00
 4.657463e-01	 1.515220e+00	 4.556224e+00
 4.482265e-01	 1.520495e+00	 4.445122e+00
 4.306986e-01	 1.525553e+00	 4.329078e+00
 5.206404e-01	 1.505086e+00	 5.011342e+00
 5.030863e-01	 1.511044e+00	 4.860882e+00
 4.855124e-01	 1.516782e+00	 4.727550e+00
 4.679227e-01	 1.522301e+00	 4.604858e+00
 4.503210e-01	 1.527600e+00	 4.485860e+00
 4.327112e-01	 1.532681e+00	 4.363129e+00
 4.226482e-01	 1.497038e+00	 4.082271e+00
 4.054436e-01	 1.501788e+00	 3.943749e+00
 3.882385e-01	 1.506328e+00	 3.764259e+00
 3.710363e-01	 1.510657e+00	 3.588952e+00
 3.538408e-01	 1.514777e+00	 3.444241e+00
 3.366553e-01	 1.518689e+00	 3.343450e+00
 4.246608e-01	 1.504166e+00	 4.163901e+00
 4.073743e-01	 1.508940e+00	 4.019857e+00
 3.900872e-01	 1.513501e+00	 3.831981e+00
 3.728032e-01	 1.517851e+00	 3.647162e+00
 3.555257e-01	 1.521990e+00	 3.497002e+00
 3.382584e-01	 1.525921e+00	 3.393008e+00
 4.266734e-01	 1.511295e+00	 4.231114e+00
 4.093050e-01	 1.516091e+00	 4.081895e+00
 3.919360e-01	 1.520674e+00	 3.888099e+00
 3.745700e-01	 1.525044e+00	 3.697312e+00
 3.572107e-01	 1.529204e+00	 3.544966e+00
 3.398615e-01	 1.533153e+00	 3.440773e+00
 4.286860e-01	 1.518424e+00	 4.285616e+00
 4.112357e-01	 1.523243e+00	 4.131876e+00
 3.937847e-01	 1.527847e+00	 3.934802e+00
 3.763368e-01	 1.532238e+00	 3.741641e+00
 3.588956e-01	 1.536417e+00	 3.590281e+00
 3.414647e-01	 1.540385e+00	 3.488670e+00
 4.306986e-01	 1.525553e+00	 4.329078e+00
 4.131664e-01	 1.530394e+00	 4.171775e+00
 3.956335e-01	 1.535020e+00	 3.974233e+00
 3.781037e-01	 1.539432e+00	 3.782349e+00
 3.605806e-01	 1.543630e+00	 3.635066e+00
 3.430678e-01	 1.547616e+00	 3.538600e+00
 4.327112e-01	 1.532681e+00	 4.363129e+00
 4.150970e-01	 1.537545e+00	 4.203521e+00
 3.974822e-01	 1.542193e+00	 4.008495e+00
 3.798705e-01	 1.546625e+00	 3.821593e+00
 3.622655e-01	 1.550843e+00	 3.681415e+00
 3.446709e-01	 1.554848e+00	 3.592446e+00
 3.366553e-01	 1.518689e+00	 3.343450e+00
 3.194834e-01	 1.522394e+00	 3.266178e+00
 3.023285e-01	 1.525893e+00	 3.178594e+00
 2.851939e-01	 1.529189e+00	 3.084521e+00
 2.680829e-01	 1.532281e+00	 2.985049e+00
 2.509989e-01	 1.535172e+00	 2.879039e+00
 3.382584e-01	 1.525921e+00	 3.393008e+00
 3.210047e-01	 1.529643e+00	 3.314028e+00
 3.037681e-01	 1.533160e+00	 3.225543e+00
 2.865519e-01	 1.536470e+00	 3.131235e+00
 2.693595e-01	 1.539577e+00	 3.032081e+00
 2.521941e-01	 1.542482e+00	 2.926855e+00
 3.398615e-01	 1.533153e+00	 3.440773e+00
 3.225261e-01	 1.536893e+00	 3.361650e+00
 3.052078e-01	 1.540426e+00	 3.272540e+00
 2.879100e-01	 1.543752e+00	 3.177443e+00
 2.706361e-01	 1.546874e+00	 3.077684e+00
 2.533894e-01	 1.549793e+00	 2.972415e+00
 3.414647e-01	 1.540385e+00	 3.488670e+00
 3.240474e-01	 1.544142e+00	 3.410724e+00
 3.066474e-01	 1.547692e+00	 3.321075e+00
 2.892681e-01	 1.551034e+00	 3.224489e+00
 2.719127e-01	 1.554171e+00	 3.123096e+00
 2.545846e-01	 1.557103e+00	 3.016885e+00
 3.430678e-01	 1.547616e+00	 3.538600e+00
 3.255688e-01	 1.551392e+00	 3.462921e+00
 3.080871e-01	 1.554958e+00	 3.372632e+00
 2.906261e-01	 1.558316e+00	 3.273715e+00
 2.731893e-01	 1.561467e+00	 3.169556e+00
 2.557798e-01	 1.564413e+00	 3.061434e+00
 3.446709e-01	 1.554848e+00	 3.592446e+00
 3.270901e-01	 1.558641e+00	 3.519896e+00
 3.095267e-01	 1.562224e+00	 3.428687e+00
 2.919842e-01	 1.565598e+00	 3.326459e+00
 2.744659e-01	 1.568764e+00	 3.218301e+00
 2.569751e-01	 1.571724e+00	 3.107230e+00
 2.509989e-01	 1.535172e+00	 2.879039e+00
 2.339450e-01	 1.537863e+00	 2.775652e+00
 2.169243e-01	 1.540356e+00	 2.685555e+00
 1.999400e-01	 1.542653e+00	 2.607716e+00
 1.829950e-01	 1.544754e+00	 2.540355e+00
 1.660924e-01	 1.546663e+00	 2.481249e+00
 2.521941e-01	 1.542482e+00	 2.926855e+00
 2.350590e-01	 1.545186e+00	 2.824550e+00
 2.179573e-01	 1.547691e+00	 2.735576e+00
 2.008921e-01	 1.549999e+00	 2.658716e+00
 1.838664e-01	 1.552110e+00	 2.592021e+00
 1.668833e-01	 1.554028e+00	 2.533110e+00
 2.533894e-01	 1.549793e+00	 2.972415e+00
 2.361730e-01	 1.552509e+00	 2.870845e+00
 2.189903e-01	 1.555026e+00	 2.783088e+00
 2.018442e-01	 1.557345e+00	 2.707567e+00
 1.847378e-01	 1.559466e+00	 2.641991e+00
 1.676742e-01	 1.561393e+00	 2.583657e+00
 2.545846e-01	 1.557103e+00	 3.016885e+00
 2.372871e-01	 1.559833e+00	 2.915639e+00
 2.200233e-01	 1.562361e+00	 2.829105e+00
 2.027963e-01	 1.564691e+00	 2.755178e+00
 1.856092e-01	 1.566822e+00	 2.691061e+00
 1.684651e-01	 1.568758e+00	 2.633562e+00
 2.557798e-01	 1.564413e+00	 3.061434e+00
 2.384011e-01	 1.567156e+00	 2.960031e+00
 2.210562e-01	 1.569696e+00	 2.874641e+00
 2.037484e-01	 1.572036e+00	 2.802460e+00
 1.864807e-01	 1.574178e+00	 2.740027e+00
 1.692560e-01	 1.576123e+00	 2.683502e+00
 2.569751e-01	 1.571724e+00	 3.107230e+00
 2.395151e-01	 1.574479e+00	 3.005125e+00
 2.220892e-01	 1.577031e+00	 2.920710e+00
 2.047005e-01	 1.579382e+00	 2.850327e+00
 1.873521e-01	 1.581534e+00	 2.789688e+00
 1.700470e-01	 1.583488e+00	 2.734154e+00
 1.660924e-01	 1.546663e+00	 2.481249e+00
 1.492349e-01	 1.548380e+00	 2.427889e+00
 1.324256e-01	 1.549909e+00	 2.379058e+00
 1.156670e-01	 1.551249e+00	 2.334628e+00
 9.896200e-02	 1.552404e+00	 2.295046e+00
 8.231317e-02	 1.553376e+00	 2.261539e+00
 1.668833e-01	 1.554028e+00	 2.533110e+00
 1.499456e-01	 1.555754e+00	 2.479623e+00
 1.330562e-01	 1.557289e+00	 2.430632e+00
 1.162178e-01	 1.558636e+00	 2.386047e+00
 9.943324e-02	 1.559797e+00	 2.346336e+00
 8.270514e-02	 1.560773e+00	 2.312712e+00
 1.676742e-01	 1.561393e+00	 2.583657e+00
 1.506562e-01	 1.563127e+00	 2.530224e+00
 1.336868e-01	 1.564670e+00	 2.481097e+00
 1.167686e-01	 1.566023e+00	 2.436322e+00
 9.990449e-02	 1.567189e+00	 2.396476e+00
 8.309711e-02	 1.568170e+00	 2.362850e+00
 1.684651e-01	 1.568758e+00	 2.633562e+00
 1.513669e-01	 1.570500e+00	 2.580243e+00
 1.343174e-01	 1.572050e+00	 2.530894e+00
 1.173194e-01	 1.573410e+00	 2.485788e+00
 1.003757e-01	 1.574582e+00	 2.445705e+00
 8.348908e-02	 1.575567e+00	 2.412108e+00
 1.692560e-01	 1.576123e+00	 2.683502e+00
 1.520775e-01	 1.577873e+00	 2.630238e+00
 1.349479e-01	 1.579431e+00	 2.580466e+00
 1.178702e-01	 1.580797e+00	 2.534783e+00
 1.008470e-01	 1.581974e+00	 2.494266e+00
 8.388104e-02	 1.582964e+00	 2.460641e+00
 1.700470e-01	 1.583488e+00	 2.734154e+00
 1.527882e-01	 1.585247e+00	 2.680765e+00
 1.355785e-01	 1.586811e+00	 2.630257e+00
 1.184210e-01	 1.588184e+00	 2.583645e+00
 1.013182e-01	 1.589366e+00	 2.542400e+00
 8.427301e-02	 1.590361e+00	 2.508603e+00
 8.231317e-02	 1.553376e+00	 2.261539e+00
 6.572312e-02	 1.554167e+00	 2.235929e+00
 4.919436e-02	 1.554777e+00	 2.216869e+00
 3.272934e-02	 1.555211e+00	 2.202612e+00
 1.633045e-02	 1.555470e+00	 2.192987e+00
 0.000000e+00	 1.555556e+00	 2.189571e+00
 8.270514e-02	 1.560773e+00	 2.312712e+00
 6.603609e-02	 1.561567e+00	 2.286876e+00
 4.942862e-02	 1.562181e+00	 2.267506e+00
 3.288519e-02	 1.562617e+00	 2.252989e+00
 1.640821e-02	 1.562877e+00	 2.243232e+00
 0.000000e+00	 1.562963e+00	 2.239821e+00
 8.309711e-02	 1.568170e+00	 2.362850e+00
 6.634906e-02	 1.568968e+00	 2.337072e+00
 4.966288e-02	 1.569585e+00	 2.317731e+00
 3.304105e-02	 1.570023e+00	 2.303207e+00
 1.648597e-02	 1.570284e+00	 2.293339e+00
 0.000000e+00	 1.570370e+00	 2.289581e+00
 8.348908e-02	 1.575567e+00	 2.412108e+00
 6.666203e-02	 1.576369e+00	 2.386599e+00
 4.989714e-02	 1.576989e+00	 2.367574e+00
 3.319690e-02	 1.577429e+00	 2.353265e+00
 1.656374e-02	 1.577691e+00	 2.343303e+00
 0.000000e+00	 1.577778e+00	 2.338875e+00
 8.388104e-02	 1.582964e+00	 2.460641e+00
 6.697499e-02	 1.583770e+00	 2.435537e+00
 5.013140e-02	 1.584392e+00	 2.417062e+00
 3.335276e-02	 1.584834e+00	 2.403159e+00
 1.664150e-02	 1.585098e+00	 2.393120e+00
 0.000000e+00	 1.585185e+00	 2.387725e+00
 8.427301e-02	 1.590361e+00	 2.508603e+00
 6.728796e-02	 1.591170e+00	 2.483969e+00
 5.036566e-02	 1.591796e+00	 2.466221e+00
 3.350861e-02	 1.592240e+00	 2.452886e+00
 1.671927e-02	 1.592505e+00	 2.442779e+00
 0.000000e+00	 1.592593e+00	 2.436149e+00
 1.592593e+00	 0.000000e+00	 1.462144e+01
 1.592505e+00	 1.671927e-02	 1.462227e+01
 1.592240e+00	 3.350861e-02	 1.462253e+01
 1.591796e+00	 5.036566e-02	 1.462285e+01
 1.591170e+00	 6.728796e-02	 1.462353e+01
 1.590361e+00	 8.427301e-02	 1.462458e+01
 1.600000e+00	 0.000000e+00	 1.455959e+01
 1.599912e+00	 1.679703e-02	 1.456002e+01
 1.599646e+00	 3.366446e-02	 1.456013e+01
 1.599200e+00	 5.059991e-02	 1.456052e+01
 1.598571e+00	 6.760093e-02	 1.456149e+01
 1.597758e+00	 8.466498e-02	 1.456303e+01
 1.607407e+00	 0.000000e+00	 1.449904e+01
 1.607319e+00	 1.687479e-02	 1.449911e+01
 1.607052e+00	 3.382032e-02	 1.449906e+01
 1.606603e+00	 5.083417e-02	 1.449949e+01
 1.605972e+00	 6.791389e-02	 1.450072e+01
 1.605155e+00	 8.505695e-02	 1.450274e+01
 1.614815e+00	 0.000000e+00	 1.443972e+01
 1.614726e+00	 1.695256e-02	 1.443948e+01
 1.614457e+00	 3.397617e-02	 1.443927e+01
 1.614007e+00	 5.106843e-02	 1.443972e+01
 1.613373e+00	 6.822686e-02	 1.444117e+01
 1.612552e+00	 8.544891e-02	 1.444365e+01
 1.622222e+00	 0.000000e+00	 1.438155e+01
 1.622133e+00	 1.703032e-02	 1.438108e+01
 1.621863e+00	 3.413203e-02	 1.438073e+01
 1.621411e+00	 5.130269e-02	 1.438117e+01
 1.620774e+00	 6.853983e-02	 1.438278e+01
 1.619949e+00	 8.584088e-02	 1.438566e+01
 1.629630e+00	 0.000000e+00	 1.432446e+01
 1.629540e+00	 1.710809e-02	 1.432388e+01
 1.629269e+00	 3.428788e-02	 1.432341e+01
 1.628814e+00	 5.153695e-02	 1.432380e+01
 1.628174e+00	 6.885280e-02	 1.432551e+01
 1.627346e+00	 8.623285e-02	 1.432870e+01
 1.590361e+00	 8.427301e-02	 1.462458e+01
 1.589366e+00	 1.013182e-01	 1.462544e+01
 1.588184e+00	 1.184210e-01	 1.462621e+01
 1.586811e+00	 1.355785e-01	 1.462742e+01
 1.585247e+00	 1.527882e-01	 1.462937e+01
 1.583488e+00	 1.700470e-01	 1.463215e+01
 1.597758e+00	 8.466498e-02	 1.456303e+01
 1.596759e+00	 1.017895e-01	 1.456432e+01
 1.595571e+00	 1.189718e-01	 1.456526e+01
 1.594192e+00	 1.362091e-01	 1.456648e+01
 1.592620e+00	 1.534988e-01	 1.456836e+01
 1.590853e+00	 1.708379e-01	 1.457107e+01
 1.605155e+00	 8.505695e-02	 1.450274e+01
 1.604151e+00	 1.022607e-01	 1.450450e+01
 1.602958e+00	 1.195226e-01	 1.450567e+01
 1.601572e+00	 1.368397e-01	 1.450694e+01
 1.599993e+00	 1.542094e-01	 1.450877e+01
 1.598218e+00	 1.716288e-01	 1.451139e+01
 1.612552e+00	 8.544891e-02	 1.444365e+01
 1.611544e+00	 1.027320e-01	 1.444588e+01
 1.610344e+00	 1.200734e-01	 1.444729e+01
 1.608953e+00	 1.374703e-01	 1.444865e+01
 1.607366e+00	 1.549201e-01	 1.445045e+01
 1.605583e+00	 1.724197e-01	 1.445298e+01
 1.619949e+00	 8.584088e-02	 1.438566e+01
 1.618936e+00	 1.032032e-01	 1.438833e+01
 1.617731e+00	 1.206242e-01	 1.439001e+01
 1.616333e+00	 1.381009e-01	 1.439147e+01
 1.614740e+00	 1.556307e-01	 1.439326e+01
 1.612949e+00	 1.732106e-01	 1.439569e+01
 1.627346e+00	 8.623285e-02	 1.432870e+01
 1.626328e+00	 1.036745e-01	 1.433176e+01
 1.625118e+00	 1.211750e-01	 1.433368e+01
 1.623714e+00	 1.387315e-01	 1.433526e+01
 1.622113e+00	 1.563414e-01	 1.433705e+01
 1.620314e+00	 1.740015e-01	 1.433939e+01
 1.583488e+00	 1.700470e-01	 1.463215e+01
 1.581534e+00	 1.873521e-01	 1.463571e+01
 1.579382e+00	 2.047005e-01	 1.463916e+01
 1.577031e+00	 2.220892e-01	 1.464105e+01
 1.574479e+00	 2.395151e-01	 1.463986e+01
 1.571724e+00	 2.569751e-01	 1.463406e+01
 1.590853e+00	 1.708379e-01	 1.457107e+01
 1.588890e+00	 1.882235e-01	 1.457480e+01
 1.586728e+00	 2.056526e-01	 1.457877e+01
 1.584366e+00	 2.231222e-01	 1.458143e+01
 1.581802e+00	 2.406291e-01	 1.458118e+01
 1.579034e+00	 2.581703e-01	 1.457639e+01
 1.598218e+00	 1.716288e-01	 1.451139e+01
 1.596246e+00	 1.890949e-01	 1.451524e+01
 1.594074e+00	 2.066047e-01	 1.451969e+01
 1.591701e+00	 2.241551e-01	 1.452313e+01
 1.589125e+00	 2.417432e-01	 1.452388e+01
 1.586344e+00	 2.593655e-01	 1.452024e+01
 1.605583e+00	 1.724197e-01	 1.445298e+01
 1.603602e+00	 1.899663e-01	 1.445690e+01
 1.601420e+00	 2.075568e-01	 1.446177e+01
 1.599036e+00	 2.251881e-01	 1.446594e+01
 1.596448e+00	 2.428572e-01	 1.446770e+01
 1.593655e+00	 2.605608e-01	 1.446527e+01
 1.612949e+00	 1.732106e-01	 1.439569e+01
 1.610958e+00	 1.908377e-01	 1.439964e+01
 1.608766e+00	 2.085089e-01	 1.440486e+01
 1.606371e+00	 2.262211e-01	 1.440969e+01
 1.603771e+00	 2.439712e-01	 1.441239e+01
 1.600965e+00	 2.617560e-01	 1.441115e+01
 1.620314e+00	 1.740015e-01	 1.433939e+01
 1.618314e+00	 1.917091e-01	 1.434334e+01
 1.616112e+00	 2.094610e-01	 1.434882e+01
 1.613706e+00	 2.272541e-01	 1.435418e+01
 1.611095e+00	 2.450852e-01	 1.435770e+01
 1.608275e+00	 2.629512e-01	 1.435756e+01
 1.571724e+00	 2.569751e-01	 1.463406e+01
 1.568764e+00	 2.744659e-01	 1.462927e+01
 1.565598e+00	 2.919842e-01	 1.463132e+01
 1.562224e+00	 3.095267e-01	 1.463916e+01
 1.558641e+00	 3.270901e-01	 1.465190e+01
 1.554848e+00	 3.446709e-01	 1.466894e+01
 1.579034e+00	 2.581703e-01	 1.457639e+01
 1.576060e+00	 2.757424e-01	 1.457227e+01
 1.572880e+00	 2.933423e-01	 1.457452e+01
 1.569490e+00	 3.109664e-01	 1.458232e+01
 1.565891e+00	 3.286115e-01	 1.459500e+01
 1.562080e+00	 3.462740e-01	 1.461219e+01
 1.586344e+00	 2.593655e-01	 1.452024e+01
 1.583357e+00	 2.770190e-01	 1.451697e+01
 1.580161e+00	 2.947003e-01	 1.451952e+01
 1.576756e+00	 3.124061e-01	 1.452727e+01
 1.573140e+00	 3.301328e-01	 1.453974e+01
 1.569312e+00	 3.478771e-01	 1.455670e+01
 1.593655e+00	 2.605608e-01	 1.446527e+01
 1.590653e+00	 2.782956e-01	 1.446296e+01
 1.587443e+00	 2.960584e-01	 1.446590e+01
 1.584023e+00	 3.138457e-01	 1.447363e+01
 1.580390e+00	 3.316542e-01	 1.448582e+01
 1.576544e+00	 3.494803e-01	 1.450234e+01
 1.600965e+00	 2.617560e-01	 1.441115e+01
 1.597950e+00	 2.795722e-01	 1.440984e+01
 1.594725e+00	 2.974165e-01	 1.441326e+01
 1.591289e+00	 3.152854e-01	 1.442104e+01
 1.587639e+00	 3.331755e-01	 1.443296e+01
 1.583776e+00	 3.510834e-01	 1.444898e+01
 1.608275e+00	 2.629512e-01	 1.435756e+01
 1.605247e+00	 2.808488e-01	 1.435723e+01
 1.602007e+00	 2.987745e-01	 1.436118e+01
 1.598555e+00	 3.167250e-01	 1.436913e+01
 1.594889e+00	 3.346969e-01	 1.438089e+01
 1.591008e+00	 3.526865e-01	 1.439649e+01
 1.554848e+00	 3.446709e-01	 1.466894e+01
 1.550843e+00	 3.622655e-01	 1.467289e+01
 1.546625e+00	 3.798705e-01	 1.465122e+01
 1.542193e+00	 3.974822e-01	 1.462784e+01
 1.537545e+00	 4.150970e-01	 1.461291e+01
 1.532681e+00	 4.327112e-01	 1.461421e+01
 1.562080e+00	 3.462740e-01	 1.461219e+01
 1.558056e+00	 3.639505e-01	 1.461676e+01
 1.553819e+00	 3.816374e-01	 1.459739e+01
 1.549366e+00	 3.993310e-01	 1.457683e+01
 1.544697e+00	 4.170277e-01	 1.456388e+01
 1.539810e+00	 4.347238e-01	 1.456605e+01
 1.569312e+00	 3.478771e-01	 1.455670e+01
 1.565270e+00	 3.656355e-01	 1.456147e+01
 1.561012e+00	 3.834042e-01	 1.454422e+01
 1.556539e+00	 4.011798e-01	 1.452626e+01
 1.551848e+00	 4.189584e-01	 1.451534e+01
 1.546939e+00	 4.367364e-01	 1.451872e+01
 1.576544e+00	 3.494803e-01	 1.450234e+01
 1.572483e+00	 3.673204e-01	 1.450700e+01
 1.568206e+00	 3.851710e-01	 1.449174e+01
 1.563712e+00	 4.030285e-01	 1.447611e+01
 1.558999e+00	 4.208891e-01	 1.446714e+01
 1.554068e+00	 4.387491e-01	 1.447185e+01
 1.583776e+00	 3.510834e-01	 1.444898e+01
 1.579696e+00	 3.690054e-01	 1.445335e+01
 1.575400e+00	 3.869379e-01	 1.443997e+01
 1.570885e+00	 4.048773e-01	 1.442638e+01
 1.566151e+00	 4.228198e-01	 1.441916e+01
 1.561196e+00	 4.407617e-01	 1.442508e+01
 1.591008e+00	 3.526865e-01	 1.439649e+01
 1.586909e+00	 3.706903e-01	 1.440053e+01
 1.582593e+00	 3.887047e-01	 1.438895e+01
 1.578058e+00	 4.067260e-01	 1.437708e+01
 1.573302e+00	 4.247505e-01	 1.437125e+01
 1.568325e+00	 4.427743e-01	 1.437807e+01
 1.532681e+00	 4.327112e-01	 1.461421e+01
 1.527600e+00	 4.503210e-01	 1.462381e+01
 1.522301e+00	 4.679227e-01	 1.462807e+01
 1.516782e+00	 4.855124e-01	 1.462673e+01
 1.511044e+00	 5.030863e-01	 1.461995e+01
 1.505086e+00	 5.206404e-01	 1.460836e+01
 1.539810e+00	 4.347238e-01	 1.456605e+01
 1.534705e+00	 4.524156e-01	 1.457572e+01
 1.529381e+00	 4.700991e-01	 1.457980e+01
 1.523837e+00	 4.877706e-01	 1.457808e+01
 1.518073e+00	 5.054262e-01	 1.457073e+01
 1.512087e+00	 5.230620e-01	 1.455840e+01
 1.546939e+00	 4.367364e-01	 1.451872e+01
 1.541810e+00	 4.545101e-01	 1.452896e+01
 1.536462e+00	 4.722755e-01	 1.453331e+01
 1.530892e+00	 4.900288e-01	 1.453154e+01
 1.525101e+00	 5.077662e-01	 1.452383e+01
 1.519087e+00	 5.254836e-01	 1.451078e+01
 1.554068e+00	 4.387491e-01	 1.447185e+01
 1.548915e+00	 4.566046e-01	 1.448293e+01
 1.543542e+00	 4.744519e-01	 1.448790e+01
 1.537947e+00	 4.922870e-01	 1.448648e+01
 1.532129e+00	 5.101061e-01	 1.447875e+01
 1.526087e+00	 5.279051e-01	 1.446527e+01
 1.561196e+00	 4.407617e-01	 1.442508e+01
 1.556021e+00	 4.586991e-01	 1.443708e+01
 1.550623e+00	 4.766283e-01	 1.444294e+01
 1.545002e+00	 4.945452e-01	 1.444225e+01
 1.539157e+00	 5.124460e-01	 1.443501e+01
 1.533088e+00	 5.303267e-01	 1.442166e+01
 1.568325e+00	 4.427743e-01	 1.437807e+01
 1.563126e+00	 4.607936e-01	 1.439085e+01
 1.557703e+00	 4.788046e-01	 1.439778e+01
 1.552056e+00	 4.968034e-01	 1.439826e+01
 1.546185e+00	 5.147860e-01	 1.439214e+01
 1.540088e+00	 5.327483e-01	 1.437974e+01
 1.505086e+00	 5.206404e-01	 1.460836e+01
 1.498907e+00	 5.381708e-01	 1.458920e+01
 1.492507e+00	 5.556736e-01	 1.456257e+01
 1.485886e+00	 5.731448e-01	 1.453451e+01
 1.479042e+00	 5.905802e-01	 1.451301e+01
 1.471977e+00	 6.079759e-01	 1.451745e+01
 1.512087e+00	 5.230620e-01	 1.455840e+01
 1.505879e+00	 5.406740e-01	 1.453969e+01
 1.499449e+00	 5.582581e-01	 1.451614e+01
 1.492797e+00	 5.758105e-01	 1.449378e+01
 1.485922e+00	 5.933271e-01	 1.447956e+01
 1.478823e+00	 6.108037e-01	 1.448247e+01
 1.519087e+00	 5.254836e-01	 1.451078e+01
 1.512851e+00	 5.431771e-01	 1.449207e+01
 1.506391e+00	 5.608427e-01	 1.447037e+01
 1.499708e+00	 5.784763e-01	 1.445173e+01
 1.492801e+00	 5.960740e-01	 1.444301e+01
 1.485670e+00	 6.136315e-01	 1.445196e+01
 1.526087e+00	 5.279051e-01	 1.446527e+01
 1.519822e+00	 5.456802e-01	 1.444645e+01
 1.513333e+00	 5.634272e-01	 1.442578e+01
 1.506619e+00	 5.811421e-01	 1.440931e+01
 1.499680e+00	 5.988209e-01	 1.440385e+01
 1.492516e+00	 6.164593e-01	 1.441700e+01
 1.533088e+00	 5.303267e-01	 1.442166e+01
 1.526794e+00	 5.481833e-01	 1.440297e+01
 1.520275e+00	 5.660117e-01	 1.438288e+01
 1.513530e+00	 5.838079e-01	 1.436746e+01
 1.506559e+00	 6.015677e-01	 1.436347e+01
 1.499363e+00	 6.192871e-01	 1.437839e+01
 1.540088e+00	 5.327483e-01	 1.437974e+01
 1.533766e+00	 5.506864e-01	 1.436176e+01
 1.527217e+00	 5.685963e-01	 1.434219e+01
 1.520441e+00	 5.864737e-01	 1.432712e+01
 1.513439e+00	 6.043146e-01	 1.432327e+01
 1.506209e+00	 6.221149e-01	 1.433802e+01
 1.471977e+00	 6.079759e-01	 1.451745e+01
 1.464690e+00	 6.253278e-01	 1.452105e+01
 1.457181e+00	 6.426319e-01	 1.449409e+01
 1.449450e+00	 6.598839e-01	 1.444654e+01
 1.441497e+00	 6.770797e-01	 1.438856e+01
 1.433323e+00	 6.942153e-01	 1.433039e+01
 1.478823e+00	 6.108037e-01	 1.448247e+01
 1.471502e+00	 6.282363e-01	 1.448322e+01
 1.463958e+00	 6.456208e-01	 1.445456e+01
 1.456191e+00	 6.629531e-01	 1.440639e+01
 1.448202e+00	 6.802289e-01	 1.434894e+01
 1.439990e+00	 6.974442e-01	 1.429274e+01
 1.485670e+00	 6.136315e-01	 1.445196e+01
 1.478315e+00	 6.311448e-01	 1.444903e+01
 1.470736e+00	 6.486098e-01	 1.441614e+01
 1.462933e+00	 6.660223e-01	 1.436591e+01
 1.454906e+00	 6.833781e-01	 1.430869e+01
 1.446657e+00	 7.006731e-01	 1.425525e+01
 1.492516e+00	 6.164593e-01	 1.441700e+01
 1.485127e+00	 6.340533e-01	 1.441853e+01
 1.477513e+00	 6.515988e-01	 1.438099e+01
 1.469675e+00	 6.690915e-01	 1.432708e+01
 1.461611e+00	 6.865274e-01	 1.426930e+01
 1.453323e+00	 7.039021e-01	 1.421869e+01
 1.499363e+00	 6.192871e-01	 1.437839e+01
 1.491940e+00	 6.369618e-01	 1.438341e+01
 1.484291e+00	 6.545878e-01	 1.435015e+01
 1.476416e+00	 6.721608e-01	 1.429191e+01
 1.468316e+00	 6.896766e-01	 1.423233e+01
 1.459990e+00	 7.071310e-01	 1.418384e+01
 1.506209e+00	 6.221149e-01	 1.433802e+01
 1.498752e+00	 6.398703e-01	 1.434440e+01
 1.491069e+00	 6.575768e-01	 1.431588e+01
 1.483158e+00	 6.752300e-01	 1.426201e+01
 1.475020e+00	 6.928258e-01	 1.419932e+01
 1.466657e+00	 7.103599e-01	 1.415154e+01
 1.433323e+00	 6.942153e-01	 1.433039e+01
 1.424929e+00	 7.112865e-01	 1.428284e+01
 1.416314e+00	 7.282891e-01	 1.425837e+01
 1.407480e+00	 7.452191e-01	 1.426642e+01
 1.398427e+00	 7.620721e-01	 1.424751e+01
 1.389155e+00	 7.788442e-01	 1.417347e+01
 1.439990e+00	 6.974442e-01	 1.429274e+01
 1.431557e+00	 7.145948e-01	 1.424928e+01
 1.422902e+00	 7.316765e-01	 1.423179e+01
 1.414026e+00	 7.486852e-01	 1.424318e+01
 1.404931e+00	 7.656166e-01	 1.421983e+01
 1.395617e+00	 7.824667e-01	 1.414601e+01
 1.446657e+00	 7.006731e-01	 1.425525e+01
 1.438184e+00	 7.179031e-01	 1.421705e+01
 1.429489e+00	 7.350639e-01	 1.420724e+01
 1.420573e+00	 7.521513e-01	 1.421890e+01
 1.411435e+00	 7.691612e-01	 1.419183e+01
 1.402078e+00	 7.860892e-01	 1.411832e+01
 1.453323e+00	 7.039021e-01	 1.421869e+01
 1.444812e+00	 7.212114e-01	 1.418614e+01
 1.436077e+00	 7.384513e-01	 1.418419e+01
 1.427119e+00	 7.556175e-01	 1.419327e+01
 1.417940e+00	 7.727057e-01	 1.416324e+01
 1.408539e+00	 7.897117e-01	 1.409042e+01
 1.459990e+00	 7.071310e-01	 1.418384e+01
 1.451439e+00	 7.245198e-01	 1.415658e+01
 1.442664e+00	 7.418387e-01	 1.416199e+01
 1.433666e+00	 7.590836e-01	 1.416606e+01
 1.424444e+00	 7.762502e-01	 1.413381e+01
 1.415000e+00	 7.933343e-01	 1.406235e+01
 1.466657e+00	 7.103599e-01	 1.415154e+01
 1.458067e+00	 7.278281e-01	 1.412845e+01
 1.449252e+00	 7.452261e-01	 1.413815e+01
 1.440212e+00	 7.625497e-01	 1.413706e+01
 1.430948e+00	 7.797947e-01	 1.410336e+01
 1.421461e+00	 7.969568e-01	 1.403418e+01
 1.389155e+00	 7.788442e-01	 1.417347e+01
 1.379667e+00	 7.955310e-01	 1.408516e+01
 1.369963e+00	 8.121287e-01	 1.401827e+01
 1.360044e+00	 8.286329e-01	 1.396055e+01
 1.349911e+00	 8.450397e-01	 1.389865e+01
 1.339566e+00	 8.613448e-01	 1.381822e+01
 1.395617e+00	 7.824667e-01	 1.414601e+01
 1.386084e+00	 7.992312e-01	 1.405993e+01
 1.376335e+00	 8.159060e-01	 1.399481e+01
 1.366369e+00	 8.324870e-01	 1.393860e+01
 1.356189e+00	 8.489701e-01	 1.387812e+01
 1.345796e+00	 8.653511e-01	 1.379916e+01
 1.402078e+00	 7.860892e-01	 1.411832e+01
 1.392501e+00	 8.029313e-01	 1.403423e+01
 1.382707e+00	 8.196834e-01	 1.397063e+01
 1.372695e+00	 8.363411e-01	 1.391576e+01
 1.362468e+00	 8.529005e-01	 1.385666e+01
 1.352027e+00	 8.693573e-01	 1.377935e+01
 1.408539e+00	 7.897117e-01	 1.409042e+01
 1.398918e+00	 8.066315e-01	 1.400842e+01
 1.389079e+00	 8.234607e-01	 1.394633e+01
 1.379021e+00	 8.401952e-01	 1.389275e+01
 1.368747e+00	 8.568309e-01	 1.383503e+01
 1.358257e+00	 8.733636e-01	 1.375942e+01
 1.415000e+00	 7.933343e-01	 1.406235e+01
 1.405335e+00	 8.103316e-01	 1.398291e+01
 1.395451e+00	 8.272380e-01	 1.392257e+01
 1.385347e+00	 8.440493e-01	 1.387036e+01
 1.375025e+00	 8.607613e-01	 1.381401e+01
 1.364488e+00	 8.773699e-01	 1.374005e+01
 1.421461e+00	 7.969568e-01	 1.403418e+01
 1.411752e+00	 8.140318e-01	 1.395813e+01
 1.401822e+00	 8.310154e-01	 1.390000e+01
 1.391673e+00	 8.479034e-01	 1.384936e+01
 1.381304e+00	 8.646917e-01	 1.379437e+01
 1.370718e+00	 8.813761e-01	 1.372190e+01
 1.339566e+00	 8.613448e-01	 1.381822e+01
 1.329010e+00	 8.775444e-01	 1.373533e+01
 1.318245e+00	 8.936343e-01	 1.366751e+01
 1.307272e+00	 9.096106e-01	 1.360196e+01
 1.296093e+00	 9.254692e-01	 1.352588e+01
 1.284711e+00	 9.412063e-01	 1.342683e+01
 1.345796e+00	 8.653511e-01	 1.379916e+01
 1.335191e+00	 8.816260e-01	 1.371820e+01
 1.324376e+00	 8.977908e-01	 1.365280e+01
 1.313352e+00	 9.138413e-01	 1.358962e+01
 1.302122e+00	 9.297737e-01	 1.351530e+01
 1.290686e+00	 9.455840e-01	 1.341673e+01
 1.352027e+00	 8.693573e-01	 1.377935e+01
 1.341373e+00	 8.857076e-01	 1.370053e+01
 1.330507e+00	 9.019472e-01	 1.363761e+01
 1.319433e+00	 9.180721e-01	 1.357669e+01
 1.308150e+00	 9.340782e-01	 1.350377e+01
 1.296662e+00	 9.499617e-01	 1.340510e+01
 1.358257e+00	 8.733636e-01	 1.375942e+01
 1.347554e+00	 8.897892e-01	 1.368284e+01
 1.336639e+00	 9.061036e-01	 1.362239e+01
 1.325513e+00	 9.223028e-01	 1.356359e+01
 1.314178e+00	 9.383827e-01	 1.349182e+01
 1.302637e+00	 9.543394e-01	 1.339261e+01
 1.364488e+00	 8.773699e-01	 1.374005e+01
 1.353736e+00	 8.938708e-01	 1.366565e+01
 1.342770e+00	 9.102601e-01	 1.360760e+01
 1.331593e+00	 9.265336e-01	 1.355081e+01
 1.320207e+00	 9.426873e-01	 1.347998e+01
 1.308612e+00	 9.587171e-01	 1.337994e+01
 1.370718e+00	 8.813761e-01	 1.372190e+01
 1.359917e+00	 8.979524e-01	 1.364950e+01
 1.348901e+00	 9.144165e-01	 1.359372e+01
 1.337674e+00	 9.307643e-01	 1.353882e+01
 1.326235e+00	 9.469918e-01	 1.346882e+01
 1.314588e+00	 9.630948e-01	 1.336779e+01
 1.284711e+00	 9.412063e-01	 1.342683e+01
 1.273126e+00	 9.568180e-01	 1.332021e+01
 1.261342e+00	 9.723003e-01	 1.322162e+01
 1.249360e+00	 9.876496e-01	 1.312045e+01
 1.237182e+00	 1.002862e+00	 1.300793e+01
 1.224811e+00	 1.017934e+00	 1.287743e+01
 1.290686e+00	 9.455840e-01	 1.341673e+01
 1.279048e+00	 9.612683e-01	 1.330969e+01
 1.267209e+00	 9.768227e-01	 1.321099e+01
 1.255171e+00	 9.922433e-01	 1.311058e+01
 1.242936e+00	 1.007526e+00	 1.300033e+01
 1.230508e+00	 1.022668e+00	 1.287434e+01
 1.296662e+00	 9.499617e-01	 1.340510e+01
 1.284969e+00	 9.657186e-01	 1.329716e+01
 1.273075e+00	 9.813450e-01	 1.319824e+01
 1.260982e+00	 9.968370e-01	 1.309887e+01
 1.248691e+00	 1.012191e+00	 1.299147e+01
 1.236205e+00	 1.027403e+00	 1.287084e+01
 1.302637e+00	 9.543394e-01	 1.339261e+01
 1.290891e+00	 9.701689e-01	 1.328341e+01
 1.278942e+00	 9.858673e-01	 1.318428e+01
 1.266793e+00	 1.001431e+00	 1.308623e+01
 1.254445e+00	 1.016855e+00	 1.298224e+01
 1.241901e+00	 1.032138e+00	 1.286770e+01
 1.308612e+00	 9.587171e-01	 1.337994e+01
 1.296812e+00	 9.746192e-01	 1.326929e+01
 1.284809e+00	 9.903896e-01	 1.317003e+01
 1.272604e+00	 1.006024e+00	 1.307362e+01
 1.260199e+00	 1.021520e+00	 1.297354e+01
 1.247598e+00	 1.036872e+00	 1.286572e+01
 1.314588e+00	 9.630948e-01	 1.336779e+01
 1.302734e+00	 9.790695e-01	 1.325564e+01
 1.290675e+00	 9.949120e-01	 1.315641e+01
 1.278414e+00	 1.010618e+00	 1.306197e+01
 1.265954e+00	 1.026184e+00	 1.296626e+01
 1.253295e+00	 1.041607e+00	 1.286569e+01
 1.224811e+00	 1.017934e+00	 1.287743e+01
 1.212249e+00	 1.032861e+00	 1.274191e+01
 1.199499e+00	 1.047641e+00	 1.261572e+01
 1.186564e+00	 1.062270e+00	 1.249862e+01
 1.173446e+00	 1.076743e+00	 1.239390e+01
 1.160147e+00	 1.091059e+00	 1.230875e+01
 1.230508e+00	 1.022668e+00	 1.287434e+01
 1.217888e+00	 1.037665e+00	 1.274469e+01
 1.205079e+00	 1.052514e+00	 1.262331e+01
 1.192083e+00	 1.067210e+00	 1.250845e+01
 1.178904e+00	 1.081751e+00	 1.240182e+01
 1.165544e+00	 1.096133e+00	 1.230902e+01
 1.236205e+00	 1.027403e+00	 1.287084e+01
 1.223526e+00	 1.042469e+00	 1.274750e+01
 1.210658e+00	 1.057387e+00	 1.263041e+01
 1.197602e+00	 1.072151e+00	 1.251633e+01
 1.184362e+00	 1.086759e+00	 1.240544e+01
 1.170940e+00	 1.101208e+00	 1.230181e+01
 1.241901e+00	 1.032138e+00	 1.286770e+01
 1.229164e+00	 1.047273e+00	 1.275101e+01
 1.216237e+00	 1.062259e+00	 1.263761e+01
 1.203121e+00	 1.077092e+00	 1.252285e+01
 1.189819e+00	 1.091768e+00	 1.240541e+01
 1.176336e+00	 1.106283e+00	 1.228789e+01
 1.247598e+00	 1.036872e+00	 1.286572e+01
 1.234803e+00	 1.052077e+00	 1.275589e+01
 1.221816e+00	 1.067132e+00	 1.264556e+01
 1.208640e+00	 1.082033e+00	 1.252864e+01
 1.195277e+00	 1.096776e+00	 1.240243e+01
 1.181732e+00	 1.111357e+00	 1.226807e+01
 1.253295e+00	 1.041607e+00	 1.286569e+01
 1.240441e+00	 1.056881e+00	 1.276285e+01
 1.227395e+00	 1.072005e+00	 1.265490e+01
 1.214159e+00	 1.086974e+00	 1.253437e+01
 1.200735e+00	 1.101784e+00	 1.239720e+01
 1.187128e+00	 1.116432e+00	 1.225085e+01
 1.160147e+00	 1.091059e+00	 1.230875e+01
 1.146672e+00	 1.105212e+00	 1.217654e+01
 1.133022e+00	 1.119201e+00	 1.195938e+01
 1.119201e+00	 1.133022e+00	 1.175292e+01
 1.105212e+00	 1.146672e+00	 1.158332e+01
 1.091059e+00	 1.160147e+00	 1.147139e+01
 1.165544e+00	 1.096133e+00	 1.230902e+01
 1.152005e+00	 1.110353e+00	 1.216387e+01
 1.138292e+00	 1.124407e+00	 1.195753e+01
 1.124407e+00	 1.138292e+00	 1.176548e+01
 1.110353e+00	 1.152005e+00	 1.160444e+01
 1.096133e+00	 1.165544e+00	 1.149375e+01
 1.170940e+00	 1.101208e+00	 1.230181e+01
 1.157339e+00	 1.115493e+00	 1.214512e+01
 1.143562e+00	 1.129613e+00	 1.195560e+01
 1.129613e+00	 1.143562e+00	 1.177579e+01
 1.115493e+00	 1.157339e+00	 1.162194e+01
 1.101208e+00	 1.170940e+00	 1.151140e+01
 1.176336e+00	 1.106283e+00	 1.228789e+01
 1.162672e+00	 1.120634e+00	 1.213010e+01
 1.148832e+00	 1.134818e+00	 1.195522e+01
 1.134818e+00	 1.148832e+00	 1.178568e+01
 1.120634e+00	 1.162672e+00	 1.163748e+01
 1.106283e+00	 1.176336e+00	 1.152665e+01
 1.181732e+00	 1.111357e+00	 1.226807e+01
 1.168005e+00	 1.125775e+00	 1.212033e+01
 1.154102e+00	 1.140024e+00	 1.195795e+01
 1.140024e+00	 1.154102e+00	 1.179690e+01
 1.125775e+00	 1.168005e+00	 1.165300e+01
 1.111357e+00	 1.181732e+00	 1.154175e+01
 1.187128e+00	 1.116432e+00	 1.225085e+01
 1.173339e+00	 1.130915e+00	 1.211713e+01
 1.159372e+00	 1.145229e+00	 1.196527e+01
 1.145229e+00	 1.159372e+00	 1.181113e+01
 1.130915e+00	 1.173339e+00	 1.167040e+01
 1.116432e+00	 1.187128e+00	 1.155847e+01
 1.091059e+00	 1.160147e+00	 1.147139e+01
 1.076743e+00	 1.173446e+00	 1.136652e+01
 1.062270e+00	 1.186564e+00	 1.121795e+01
 1.047641e+00	 1.199499e+00	 1.104086e+01
 1.032861e+00	 1.212249e+00	 1.084722e+01
 1.017934e+00	 1.224811e+00	 1.064602e+01
 1.096133e+00	 1.165544e+00	 1.149375e+01
 1.081751e+00	 1.178904e+00	 1.138593e+01
 1.067210e+00	 1.192083e+00	 1.123317e+01
 1.052514e+00	 1.205079e+00	 1.105236e+01
 1.037665e+00	 1.217888e+00	 1.085718e+01
 1.022668e+00	 1.230508e+00	 1.065832e+01
 1.101208e+00	 1.170940e+00	 1.151140e+01
 1.086759e+00	 1.184362e+00	 1.140007e+01
 1.072151e+00	 1.197602e+00	 1.124341e+01
 1.057387e+00	 1.210658e+00	 1.105975e+01
 1.042469e+00	 1.223526e+00	 1.086412e+01
 1.027403e+00	 1.236205e+00	 1.066858e+01
 1.106283e+00	 1.176336e+00	 1.152665e+01
 1.091768e+00	 1.189819e+00	 1.141134e+01
 1.077092e+00	 1.203121e+00	 1.125108e+01
 1.062259e+00	 1.216237e+00	 1.106529e+01
 1.047273e+00	 1.229164e+00	 1.087007e+01
 1.032138e+00	 1.241901e+00	 1.067849e+01
 1.111357e+00	 1.181732e+00	 1.154175e+01
 1.096776e+00	 1.195277e+00	 1.142213e+01
 1.082033e+00	 1.208640e+00	 1.125853e+01
 1.067132e+00	 1.221816e+00	 1.107122e+01
 1.052077e+00	 1.234803e+00	 1.087703e+01
 1.036872e+00	 1.247598e+00	 1.068974e+01
 1.116432e+00	 1.187128e+00	 1.155847e+01
 1.101784e+00	 1.200735e+00	 1.143474e+01
 1.086974e+00	 1.214159e+00	 1.126808e+01
 1.072005e+00	 1.227395e+00	 1.107973e+01
 1.056881e+00	 1.240441e+00	 1.088698e+01
 1.041607e+00	 1.253295e+00	 1.070396e+01
 1.017934e+00	 1.224811e+00	 1.064602e+01
 1.002862e+00	 1.237182e+00	 1.045740e+01
 9.876496e-01	 1.249360e+00	 1.028922e+01
 9.723003e-01	 1.261342e+00	 1.012817e+01
 9.568180e-01	 1.273126e+00	 9.958671e+00
 9.412063e-01	 1.284711e+00	 9.763304e+00
 1.022668e+00	 1.230508e+00	 1.065832e+01
 1.007526e+00	 1.242936e+00	 1.047463e+01
 9.922433e-01	 1.255171e+00	 1.031115e+01
 9.768227e-01	 1.267209e+00	 1.015378e+01
 9.612683e-01	 1.279048e+00	 9.986117e+00
 9.455840e-01	 1.290686e+00	 9.789807e+00
 1.027403e+00	 1.236205e+00	 1.066858e+01
 1.012191e+00	 1.248691e+00	 1.049009e+01
 9.968370e-01	 1.260982e+00	 1.033072e+01
 9.813450e-01	 1.273075e+00	 1.017605e+01
 9.657186e-01	 1.284969e+00	 1.000927e+01
 9.499617e-01	 1.296662e+00	 9.811549e+00
 1.032138e+00	 1.241901e+00	 1.067849e+01
 1.016855e+00	 1.254445e+00	 1.050516e+01
 1.001431e+00	 1.266793e+00	 1.034920e+01
 9.858673e-01	 1.278942e+00	 1.019626e+01
 9.701689e-01	 1.290891e+00	 1.002957e+01
 9.543394e-01	 1.302637e+00	 9.830302e+00
 1.036872e+00	 1.247598e+00	 1.068974e+01
 1.021520e+00	 1.260199e+00	 1.052123e+01
 1.006024e+00	 1.272604e+00	 1.036782e+01
 9.903896e-01	 1.284809e+00	 1.021567e+01
 9.746192e-01	 1.296812e+00	 1.004847e+01
 9.587171e-01	 1.308612e+00	 9.847824e+00
 1.041607e+00	 1.253295e+00	 1.070396e+01
 1.026184e+00	 1.265954e+00	 1.053964e+01
 1.010618e+00	 1.278414e+00	 1.038782e+01
 9.949120e-01	 1.290675e+00	 1.023554e+01
 9.790695e-01	 1.302734e+00	 1.006739e+01
 9.630948e-01	 1.314588e+00	 9.865862e+00
 9.412063e-01	 1.284711e+00	 9.763304e+00
 9.254692e-01	 1.296093e+00	 9.558553e+00
 9.096106e-01	 1.307272e+00	 9.368203e+00
 8.936343e-01	 1.318245e+00	 9.184386e+00
 8.775444e-01	 1.329010e+00	 8.999211e+00
 8.613448e-01	 1.339566e+00	 8.805080e+00
 9.455840e-01	 1.290686e+00	 9.789807e+00
 9.297737e-01	 1.302122e+00	 9.582829e+00
 9.138413e-01	 1.313352e+00	 9.391222e+00
 8.977908e-01	 1.324376e+00	 9.207310e+00
 8.816260e-01	 1.335191e+00	 9.023435e+00
 8.653511e-01	 1.345796e+00	 8.832273e+00
 9.499617e-01	 1.296662e+00	 9.811549e+00
 9.340782e-01	 1.308150e+00	 9.602856e+00
 9.180721e-01	 1.319433e+00	 9.411275e+00
 9.019472e-01	 1.330507e+00	 9.228748e+00
 8.857076e-01	 1.341373e+00	 9.047249e+00
 8.693573e-01	 1.352027e+00	 8.859115e+00
 9.543394e-01	 1.302637e+00	 9.830302e+00
 9.383827e-01	 1.314178e+00	 9.620699e+00
 9.223028e-01	 1.325513e+00	 9.430524e+00
 9.061036e-01	 1.336639e+00	 9.250769e+00
 8.897892e-01	 1.347554e+00	 9.072453e+00
 8.733636e-01	 1.358257e+00	 8.886965e+00
 9.587171e-01	 1.308612e+00	 9.847824e+00
 9.426873e-01	 1.320207e+00	 9.638405e+00
 9.265336e-01	 1.331593e+00	 9.451114e+00
 9.102601e-01	 1.342770e+00	 9.275432e+00
 8.938708e-01	 1.353736e+00	 9.100842e+00
 8.773699e-01	 1.364488e+00	 8.917184e+00
 9.630948e-01	 1.314588e+00	 9.865862e+00
 9.469918e-01	 1.326235e+00	 9.658006e+00
 9.307643e-01	 1.337674e+00	 9.475175e+00
 9.144165e-01	 1.348901e+00	 9.304785e+00
 8.979524e-01	 1.359917e+00	 9.134206e+00
 8.813761e-01	 1.370718e+00	 8.951140e+00
 8.613448e-01	 1.339566e+00	 8.805080e+00
 8.450397e-01	 1.349911e+00	 8.613099e+00
 8.286329e-01	 1.360044e+00	 8.429815e+00
 8.121287e-01	 1.369963e+00	 8.241937e+00
 7.955310e-01	 1.379667e+00	 8.037372e+00
 7.788442e-01	 1.389155e+00	 7.805450e+00
 8.653511e-01	 1.345796e+00	 8.832273e+00
 8.489701e-01	 1.356189e+00	 8.644183e+00
 8.324870e-01	 1.366369e+00	 8.464456e+00
 8.159060e-01	 1.376335e+00	 8.279369e+00
 7.992312e-01	 1.386084e+00	 8.076426e+00
 7.824667e-01	 1.395617e+00	 7.844593e+00
 8.693573e-01	 1.352027e+00	 8.859115e+00
 8.529005e-01	 1.362468e+00	 8.673481e+00
 8.363411e-01	 1.372695e+00	 8.494915e+00
 8.196834e-01	 1.382707e+00	 8.310180e+00
 8.029313e-01	 1.392501e+00	 8.107327e+00
 7.860892e-01	 1.402078e+00	 7.875934e+00
 8.733636e-01	 1.358257e+00	 8.886965e+00
 8.568309e-01	 1.368747e+00	 8.701966e+00
 8.401952e-01	 1.379021e+00	 8.522061e+00
 8.234607e-01	 1.389079e+00	 8.335401e+00
 8.066315e-01	 1.398918e+00	 8.131519e+00
 7.897117e-01	 1.408539e+00	 7.901569e+00
 8.773699e-01	 1.364488e+00	 8.917184e+00
 8.607613e-01	 1.375025e+00	 8.730629e+00
 8.440493e-01	 1.385347e+00	 8.546784e+00
 8.272380e-01	 1.395451e+00	 8.356082e+00
 8.103316e-01	 1.405335e+00	 8.150458e+00
 7.933343e-01	 1.415000e+00	 7.923591e+00
 8.813761e-01	 1.370718e+00	 8.951140e+00
 8.646917e-01	 1.381304e+00	 8.760471e+00
 8.479034e-01	 1.391673e+00	 8.569989e+00
 8.310154e-01	 1.401822e+00	 8.373287e+00
 8.140318e-01	 1.411752e+00	 8.165609e+00
 7.969568e-01	 1.421461e+00	 7.944095e+00
 7.788442e-01	 1.389155e+00	 7.805450e+00
 7.620721e-01	 1.398427e+00	 7.587986e+00
 7.452191e-01	 1.407480e+00	 7.414181e+00
 7.282891e-01	 1.416314e+00	 7.254703e+00
 7.112865e-01	 1.424929e+00	 7.082683e+00
 6.942153e-01	 1.433323e+00	 6.882932e+00
 7.824667e-01	 1.395617e+00	 7.844593e+00
 7.656166e-01	 1.404931e+00	 7.624097e+00
 7.486852e-01	 1.414026e+00	 7.444622e+00
 7.316765e-01	 1.422902e+00	 7.280722e+00
 7.145948e-01	 1.431557e+00	 7.107273e+00
 6.974442e-01	 1.439990e+00	 6.911626e+00
 7.860892e-01	 1.402078e+00	 7.875934e+00
 7.691612e-01	 1.411435e+00	 7.655492e+00
 7.521513e-01	 1.420573e+00	 7.475207e+00
 7.350639e-01	 1.429489e+00	 7.311442e+00
 7.179031e-01	 1.438184e+00	 7.139709e+00
 7.006731e-01	 1.446657e+00	 6.947604e+00
 7.897117e-01	 1.408539e+00	 7.901569e+00
 7.727057e-01	 1.417940e+00	 7.684791e+00
 7.556175e-01	 1.427119e+00	 7.508611e+00
 7.384513e-01	 1.436077e+00	 7.349160e+00
 7.212114e-01	 1.444812e+00	 7.181517e+00
 7.039021e-01	 1.453323e+00	 6.991234e+00
 7.933343e-01	 1.415000e+00	 7.923591e+00
 7.762502e-01	 1.424444e+00	 7.714602e+00
 7.590836e-01	 1.433666e+00	 7.547501e+00
 7.418387e-01	 1.442664e+00	 7.396178e+00
 7.245198e-01	 1.451439e+00	 7.234229e+00
 7.071310e-01	 1.459990e+00	 7.042910e+00
 7.969568e-01	 1.421461e+00	 7.944095e+00
 7.797947e-01	 1.430948e+00	 7.747527e+00
 7.625497e-01	 1.440212e+00	 7.594535e+00
 7.452261e-01	 1.449252e+00	 7.455013e+00
 7.278281e-01	 1.458067e+00	 7.299383e+00
 7.103599e-01	 1.466657e+00	 7.103055e+00
 6.942153e-01	 1.433323e+00	 6.882932e+00
 6.770797e-01	 1.441497e+00	 6.675226e+00
 6.598839e-01	 1.449450e+00	 6.483328e+00
 6.426319e-01	 1.457181e+00	 6.302886e+00
 6.253278e-01	 1.464690e+00	 6.132413e+00
 6.079759e-01	 1.471977e+00	 5.973142e+00
 6.974442e-01	 1.439990e+00	 6.911626e+00
 6.802289e-01	 1.448202e+00	 6.715305e+00
 6.629531e-01	 1.456191e+00	 6.537197e+00
 6.456208e-01	 1.463958e+00	 6.366422e+00
 6.282363e-01	 1.471502e+00	 6.194925e+00
 6.108037e-01	 1.478823e+00	 6.017356e+00
 7.006731e-01	 1.446657e+00	 6.947604e+00
 6.833781e-01	 1.454906e+00	 6.756180e+00
 6.660223e-01	 1.462933e+00	 6.579639e+00
 6.486098e-01	 1.470736e+00	 6.402365e+00
 6.311448e-01	 1.478315e+00	 6.211573e+00
 6.136315e-01	 1.485670e+00	 6.014057e+00
 7.039021e-01	 1.453323e+00	 6.991234e+00
 6.865274e-01	 1.461611e+00	 6.797106e+00
 6.690915e-01	 1.469675e+00	 6.609242e+00
 6.515988e-01	 1.477513e+00	 6.409061e+00
 6.340533e-01	 1.485127e+00	 6.193378e+00
 6.164593e-01	 1.492516e+00	 6.028437e+00
 7.071310e-01	 1.459990e+00	 7.042910e+00
 6.896766e-01	 1.468316e+00	 6.837385e+00
 6.721608e-01	 1.476416e+00	 6.624657e+00
 6.545878e-01	 1.484291e+00	 6.392173e+00
 6.369618e-01	 1.491940e+00	 6.204043e+00
 6.192871e-01	 1.499363e+00	 6.065697e+00
 7.103599e-01	 1.466657e+00	 7.103055e+00
 6.928258e-01	 1.475020e+00	 6.876368e+00
 6.752300e-01	 1.483158e+00	 6.627098e+00
 6.575768e-01	 1.491069e+00	 6.412512e+00
 6.398703e-01	 1.498752e+00	 6.250802e+00
 6.221149e-01	 1.506209e+00	 6.124239e+00
 6.079759e-01	 1.471977e+00	 5.973142e+00
 5.905802e-01	 1.479042e+00	 5.789861e+00
 5.731448e-01	 1.485886e+00	 5.564183e+00
 5.556736e-01	 1.492507e+00	 5.360257e+00
 5.381708e-01	 1.498907e+00	 5.178035e+00
 5.206404e-01	 1.505086e+00	 5.011342e+00
 6.108037e-01	 1.478823e+00	 6.017356e+00
 5.933271e-01	 1.485922e+00	 5.812645e+00
 5.758105e-01	 1.492797e+00	 5.614206e+00
 5.582581e-01	 1.499449e+00	 5.427252e+00
 5.406740e-01	 1.505879e+00	 5.250028e+00
 5.230620e-01	 1.512087e+00	 5.080525e+00
 6.136315e-01	 1.485670e+00	 6.014057e+00
 5.960740e-01	 1.492801e+00	 5.841234e+00
 5.784763e-01	 1.499708e+00	 5.664940e+00
 5.608427e-01	 1.506391e+00	 5.487512e+00
 5.431771e-01	 1.512851e+00	 5.311183e+00
 5.254836e-01	 1.519087e+00	 5.137974e+00
 6.164593e-01	 1.492516e+00	 6.028437e+00
 5.988209e-01	 1.499680e+00	 5.880619e+00
 5.811421e-01	 1.506619e+00	 5.716234e+00
 5.634272e-01	 1.513333e+00	 5.541445e+00
 5.456802e-01	 1.519822e+00	 5.362350e+00
 5.279051e-01	 1.526087e+00	 5.184876e+00
 6.192871e-01	 1.499363e+00	 6.065697e+00
 6.015677e-01	 1.506559e+00	 5.929970e+00
 5.838079e-01	 1.513530e+00	 5.767919e+00
 5.660117e-01	 1.520275e+00	 5.589428e+00
 5.481833e-01	 1.526794e+00	 5.404349e+00
 5.303267e-01	 1.533088e+00	 5.222380e+00
 6.221149e-01	 1.506209e+00	 6.124239e+00
 6.043146e-01	 1.513439e+00	 5.988449e+00
 5.864737e-01	 1.520441e+00	 5.819804e+00
 5.685963e-01	 1.527217e+00	 5.631811e+00
 5.506864e-01	 1.533766e+00	 5.437961e+00
 5.327483e-01	 1.540088e+00	 5.251595e+00
 5.206404e-01	 1.505086e+00	 5.011342e+00
 5.030863e-01	 1.511044e+00	 4.860882e+00
 4.855124e-01	 1.516782e+00	 4.727550e+00
 4.679227e-01	 1.522301e+00	 4.604858e+00
 4.503210e-01	 1.527600e+00	 4.485860e+00
 4.327112e-01	 1.532681e+00	 4.363129e+00
 5.230620e-01	 1.512087e+00	 5.080525e+00
 5.054262e-01	 1.518073e+00	 4.923399e+00
 4.877706e-01	 1.523837e+00	 4.781581e+00
 4.700991e-01	 1.529381e+00	 4.649910e+00
 4.524156e-01	 1.534705e+00	 4.522758e+00
 4.347238e-01	 1.539810e+00	 4.394004e+00
 5.254836e-01	 1.519087e+00	 5.137974e+00
 5.077662e-01	 1.525101e+00	 4.975882e+00
 4.900288e-01	 1.530892e+00	 4.828775e+00
 4.722755e-01	 1.536462e+00	 4.691943e+00
 4.545101e-01	 1.541810e+00	 4.560195e+00
 4.367364e-01	 1.546939e+00	 4.427841e+00
 5.279051e-01	 1.526087e+00	 5.184876e+00
 5.101061e-01	 1.532129e+00	 5.019746e+00
 4.922870e-01	 1.537947e+00	 4.870674e+00
 4.744519e-01	 1.543542e+00	 4.732534e+00
 4.566046e-01	 1.548915e+00	 4.599709e+00
 4.387491e-01	 1.554068e+00	 4.466073e+00
 5.303267e-01	 1.533088e+00	 5.222380e+00
 5.124460e-01	 1.539157e+00	 5.056364e+00
 4.945452e-01	 1.545002e+00	 4.908775e+00
 4.766283e-01	 1.550623e+00	 4.773219e+00
 4.586991e-01	 1.556021e+00	 4.642799e+00
 4.407617e-01	 1.561196e+00	 4.510096e+00
 5.327483e-01	 1.540088e+00	 5.251595e+00
 5.147860e-01	 1.546185e+00	 5.087066e+00
 4.968034e-01	 1.552056e+00	 4.944534e+00
 4.788046e-01	 1.557703e+00	 4.815496e+00
 4.607936e-01	 1.563126e+00	 4.690926e+00
 4.427743e-01	 1.568325e+00	 4.561272e+00
 4.327112e-01	 1.532681e+00	 4.363129e+00
 4.150970e-01	 1.537545e+00	 4.203521e+00
 3.974822e-01	 1.542193e+00	 4.008495e+00
 3.798705e-01	 1.546625e+00	 3.821593e+00
 3.622655e-01	 1.550843e+00	 3.681415e+00
 3.446709e-01	 1.554848e+00	 3.592446e+00
 4.347238e-01	 1.539810e+00	 4.394004e+00
 4.170277e-01	 1.544697e+00	 4.233132e+00
 3.993310e-01	 1.549366e+00	 4.041659e+00
 3.816374e-01	 1.553819e+00	 3.860584e+00
 3.639505e-01	 1.558056e+00	 3.727573e+00
 3.462740e-01	 1.562080e+00	 3.646143e+00
 4.367364e-01	 1.546939e+00	 4.427841e+00
 4.189584e-01	 1.551848e+00	 4.266266e+00
 4.011798e-01	 1.556539e+00	 4.077310e+00
 3.834042e-01	 1.561012e+00	 3.900039e+00
 3.656355e-01	 1.565270e+00	 3.771402e+00
 3.478771e-01	 1.569312e+00	 3.695431e+00
 4.387491e-01	 1.554068e+00	 4.466073e+00
 4.208891e-01	 1.558999e+00	 4.304262e+00
 4.030285e-01	 1.563712e+00	 4.116764e+00
 3.851710e-01	 1.568206e+00	 3.941323e+00
 3.673204e-01	 1.572483e+00	 3.814383e+00
 3.494803e-01	 1.576544e+00	 3.741876e+00
 4.407617e-01	 1.561196e+00	 4.510096e+00
 4.228198e-01	 1.566151e+00	 4.348423e+00
 4.048773e-01	 1.570885e+00	 4.161312e+00
 3.869379e-01	 1.575400e+00	 3.985773e+00
 3.690054e-01	 1.579696e+00	 3.857977e+00
 3.510834e-01	 1.583776e+00	 3.787024e+00
 4.427743e-01	 1.568325e+00	 4.561272e+00
 4.247505e-01	 1.573302e+00	 4.400024e+00
 4.067260e-01	 1.578058e+00	 4.212213e+00
 3.887047e-01	 1.582593e+00	 4.034699e+00
 3.706903e-01	 1.586909e+00	 3.903632e+00
 3.526865e-01	 1.591008e+00	 3.832409e+00
 3.446709e-01	 1.554848e+00	 3.592446e+00
 3.270901e-01	 1.558641e+00	 3.519896e+00
 3.095267e-01	 1.562224e+00	 3.428687e+00
 2.919842e-01	 1.565598e+00	 3.326459e+00
 2.744659e-01	 1.568764e+00	 3.218301e+00
 2.569751e-01	 1.571724e+00	 3.107230e+00
 3.462740e-01	 1.562080e+00	 3.646143e+00
 3.286115e-01	 1.565891e+00	 3.576628e+00
 3.109664e-01	 1.569490e+00	 3.484439e+00
 2.933423e-01	 1.572880e+00	 3.378870e+00
 2.757424e-01	 1.576060e+00	 3.266720e+00
 2.581703e-01	 1.579034e+00	 3.152753e+00
 3.478771e-01	 1.569312e+00	 3.695431e+00
 3.301328e-01	 1.573140e+00	 3.628097e+00
 3.124061e-01	 1.576756e+00	 3.535201e+00
 2.947003e-01	 1.580161e+00	 3.427264e+00
 2.770190e-01	 1.583357e+00	 3.312363e+00
 2.593655e-01	 1.586344e+00	 3.196590e+00
 3.494803e-01	 1.576544e+00	 3.741876e+00
 3.316542e-01	 1.580390e+00	 3.675931e+00
 3.138457e-01	 1.584023e+00	 3.582606e+00
 2.960584e-01	 1.587443e+00	 3.473218e+00
 2.782956e-01	 1.590653e+00	 3.356702e+00
 2.605608e-01	 1.593655e+00	 3.240065e+00
 3.510834e-01	 1.583776e+00	 3.787024e+00
 3.331755e-01	 1.587639e+00	 3.721749e+00
 3.152854e-01	 1.591289e+00	 3.628275e+00
 2.974165e-01	 1.594725e+00	 3.518298e+00
 2.795722e-01	 1.597950e+00	 3.401201e+00
 2.617560e-01	 1.600965e+00	 3.284500e+00
 3.526865e-01	 1.591008e+00	 3.832409e+00
 3.346969e-01	 1.594889e+00	 3.767150e+00
 3.167250e-01	 1.598555e+00	 3.673813e+00
 2.987745e-01	 1.602007e+00	 3.564062e+00
 2.808488e-01	 1.605247e+00	 3.447320e+00
 2.629512e-01	 1.608275e+00	 3.331212e+00
 2.569751e-01	 1.571724e+00	 3.107230e+00
 2.395151e-01	 1.574479e+00	 3.005125e+00
 2.220892e-01	 1.577031e+00	 2.920710e+00
 2.047005e-01	 1.579382e+00	 2.850327e+00
 1.873521e-01	 1.581534e+00	 2.789688e+00
 1.700470e-01	 1.583488e+00	 2.734154e+00
 2.581703e-01	 1.579034e+00	 3.152753e+00
 2.406291e-01	 1.581802e+00	 3.049989e+00
 2.231222e-01	 1.584366e+00	 2.966535e+00
 2.056526e-01	 1.586728e+00	 2.897896e+00
 1.882235e-01	 1.588890e+00	 2.838983e+00
 1.708379e-01	 1.590853e+00	 2.784378e+00
 2.593655e-01	 1.586344e+00	 3.196590e+00
 2.417432e-01	 1.589125e+00	 3.093740e+00
 2.241551e-01	 1.591701e+00	 3.011345e+00
 2.066047e-01	 1.594074e+00	 2.944271e+00
 1.890949e-01	 1.596246e+00	 2.886829e+00
 1.716288e-01	 1.598218e+00	 2.833026e+00
 2.605608e-01	 1.593655e+00	 3.240065e+00
 2.428572e-01	 1.596448e+00	 3.137544e+00
 2.251881e-01	 1.599036e+00	 3.056161e+00
 2.075568e-01	 1.601420e+00	 2.990343e+00
 1.899663e-01	 1.603602e+00	 2.933999e+00
 1.724197e-01	 1.605583e+00	 2.880763e+00
 2.617560e-01	 1.600965e+00	 3.284500e+00
 2.439712e-01	 1.603771e+00	 3.182566e+00
 2.262211e-01	 1.606371e+00	 3.102006e+00
 2.085089e-01	 1.608766e+00	 3.037006e+00
 1.908377e-01	 1.610958e+00	 2.981271e+00
 1.732106e-01	 1.612949e+00	 2.928261e+00
 2.629512e-01	 1.608275e+00	 3.331212e+00
 2.450852e-01	 1.611095e+00	 3.229970e+00
 2.272541e-01	 1.613706e+00	 3.149905e+00
 2.094610e-01	 1.616112e+00	 3.085155e+00
 1.917091e-01	 1.618314e+00	 3.029421e+00
 1.740015e-01	 1.620314e+00	 2.976190e+00
 1.700470e-01	 1.583488e+00	 2.734154e+00
 1.527882e-01	 1.585247e+00	 2.680765e+00
 1.355785e-01	 1.586811e+00	 2.630257e+00
 1.184210e-01	 1.588184e+00	 2.583645e+00
 1.013182e-01	 1.589366e+00	 2.542400e+00
 8.427301e-02	 1.590361e+00	 2.508603e+00
 1.708379e-01	 1.590853e+00	 2.784378e+00
 1.534988e-01	 1.592620e+00	 2.730842e+00
 1.362091e-01	 1.594192e+00	 2.679612e+00
 1.189718e-01	 1.595571e+00	 2.632107e+00
 1.017895e-01	 1.596759e+00	 2.590176e+00
 8.466498e-02	 1.597758e+00	 2.556240e+00
 1.716288e-01	 1.598218e+00	 2.833026e+00
 1.542094e-01	 1.599993e+00	 2.779488e+00
 1.368397e-01	 1.601572e+00	 2.727883e+00
 1.195226e-01	 1.602958e+00	 2.679911e+00
 1.022607e-01	 1.604151e+00	 2.637671e+00
 8.505695e-02	 1.605155e+00	 2.603803e+00
 1.724197e-01	 1.605583e+00	 2.880763e+00
 1.549201e-01	 1.607366e+00	 2.827265e+00
 1.374703e-01	 1.608953e+00	 2.775528e+00
 1.200734e-01	 1.610344e+00	 2.727409e+00
 1.027320e-01	 1.611544e+00	 2.685139e+00
 8.544891e-02	 1.612552e+00	 2.651459e+00
 1.732106e-01	 1.612949e+00	 2.928261e+00
 1.556307e-01	 1.614740e+00	 2.874741e+00
 1.381009e-01	 1.616333e+00	 2.823009e+00
 1.206242e-01	 1.617731e+00	 2.774958e+00
 1.032032e-01	 1.618936e+00	 2.732839e+00
 8.584088e-02	 1.619949e+00	 2.699377e+00
 1.740015e-01	 1.620314e+00	 2.976190e+00
 1.563414e-01	 1.622113e+00	 2.922485e+00
 1.387315e-01	 1.623714e+00	 2.870787e+00
 1.211750e-01	 1.625118e+00	 2.822916e+00
 1.036745e-01	 1.626328e+00	 2.781028e+00
 8.623285e-02	 1.627346e+00	 2.747724e+00
 8.427301e-02	 1.590361e+00	 2.508603e+00
 6.728796e-02	 1.591170e+00	 2.483969e+00
 5.036566e-02	 1.591796e+00	 2.466221e+00
 3.350861e-02	 1.592240e+00	 2.452886e+00
 1.671927e-02	 1.592505e+00	 2.442779e+00
 0.000000e+00	 1.592593e+00	 2.436149e+00
 8.466498e-02	 1.597758e+00	 2.556240e+00
 6.760093e-02	 1.598571e+00	 2.532092e+00
 5.059991e-02	 1.599200e+00	 2.515082e+00
 3.366446e-02	 1.599646e+00	 2.502326e+00
 1.679703e-02	 1.599912e+00	 2.492173e+00
 0.000000e+00	 1.600000e+00	 2.484338e+00
 8.505695e-02	 1.605155e+00	 2.603803e+00
 6.791389e-02	 1.605972e+00	 2.580113e+00
 5.083417e-02	 1.606603e+00	 2.563687e+00
 3.382032e-02	 1.607052e+00	 2.551378e+00
 1.687479e-02	 1.607319e+00	 2.541205e+00
 0.000000e+00	 1.607407e+00	 2.532491e+00
 8.544891e-02	 1.612552e+00	 2.651459e+00
 6.822686e-02	 1.613373e+00	 2.628126e+00
 5.106843e-02	 1.614007e+00	 2.612082e+00
 3.397617e-02	 1.614457e+00	 2.600056e+00
 1.695256e-02	 1.614726e+00	 2.589884e+00
 0.000000e+00	 1.614815e+00	 2.580632e+00
 8.584088e-02	 1.619949e+00	 2.699377e+00
 6.853983e-02	 1.620774e+00	 2.676227e+00
 5.130269e-02	 1.621411e+00	 2.660308e+00
 3.413203e-02	 1.621863e+00	 2.648374e+00
 1.703032e-02	 1.622133e+00	 2.638216e+00
 0.000000e+00	 1.622222e+00	 2.628778e+00
 8.623285e-02	 1.627346e+00	 2.747724e+00
 6.885280e-02	 1.628174e+00	 2.724512e+00
 5.153695e-02	 1.628814e+00	 2.708411e+00
 3.428788e-02	 1.629269e+00	 2.696345e+00
 1.710809e-02	 1.629540e+00	 2.686203e+00
 0.000000e+00	 1.629630e+00	 2.676946e+00
 1.629630e+00	 0.000000e+00	 1.432446e+01
 1.629540e+00	 1.710809e-02	 1.432388e+01
 1.629269e+00	 3.428788e-02	 1.432341e+01
 1.628814e+00	 5.153695e-02	 1.432380e+01
 1.628174e+00	 6.885280e-02	 1.432551e+01
 1.627346e+00	 8.623285e-02	 1.432870e+01
 1.637037e+00	 0.000000e+00	 1.426847e+01
 1.636947e+00	 1.718585e-02	 1.426783e+01
 1.636675e+00	 3.444373e-02	 1.426728e+01
 1.636218e+00	 5.177121e-02	 1.426764e+01
 1.635575e+00	 6.916576e-02	 1.426941e+01
 1.634744e+00	 8.662482e-02	 1.427288e+01
 1.644444e+00	 0.000000e+00	 1.421362e+01
 1.644354e+00	 1.726361e-02	 1.421291e+01
 1.644080e+00	 3.459959e-02	 1.421232e+01
 1.643622e+00	 5.200547e-02	 1.421267e+01
 1.642976e+00	 6.947873e-02	 1.421456e+01
 1.642141e+00	 8.701678e-02	 1.421829e+01
 1.651852e+00	 0.000000e+00	 1.415990e+01
 1.651761e+00	 1.734138e-02	 1.415909e+01
 1.651486e+00	 3.475544e-02	 1.415846e+01
 1.651026e+00	 5.223973e-02	 1.415885e+01
 1.650377e+00	 6.979170e-02	 1.416087e+01
 1.649538e+00	 8.740875e-02	 1.416487e+01
 1.659259e+00	 0.000000e+00	 1.410730e+01
 1.659168e+00	 1.741914e-02	 1.410634e+01
 1.658892e+00	 3.491130e-02	 1.410567e+01
 1.658429e+00	 5.247399e-02	 1.410611e+01
 1.657778e+00	 7.010467e-02	 1.410828e+01
 1.656935e+00	 8.780072e-02	 1.411255e+01
 1.666667e+00	 0.000000e+00	 1.405581e+01
 1.666575e+00	 1.749691e-02	 1.405462e+01
 1.666298e+00	 3.506715e-02	 1.405389e+01
 1.665833e+00	 5.270824e-02	 1.405440e+01
 1.665178e+00	 7.041763e-02	 1.405674e+01
 1.664332e+00	 8.819269e-02	 1.406128e+01
 1.627346e+00	 8.623285e-02	 1.432870e+01
 1.626328e+00	 1.036745e-01	 1.433176e+01
 1.625118e+00	 1.211750e-01	 1.433368e+01
 1.623714e+00	 1.387315e-01	 1.433526e+01
 1.622113e+00	 1.563414e-01	 1.433705e+01
 1.620314e+00	 1.740015e-01	 1.433939e+01
 1.634744e+00	 8.662482e-02	 1.427288e+01
 1.633721e+00	 1.041457e-01	 1.427627e+01
 1.632505e+00	 1.217258e-01	 1.427842e+01
 1.631094e+00	 1.393621e-01	 1.428013e+01
 1.629486e+00	 1.570520e-01	 1.428196e+01
 1.627679e+00	 1.747925e-01	 1.428427e+01
 1.642141e+00	 8.701678e-02	 1.421829e+01
 1.641113e+00	 1.046170e-01	 1.422199e+01
 1.639892e+00	 1.222765e-01	 1.422435e+01
 1.638475e+00	 1.399927e-01	 1.422619e+01
 1.636859e+00	 1.577627e-01	 1.422809e+01
 1.635044e+00	 1.755834e-01	 1.423045e+01
 1.649538e+00	 8.740875e-02	 1.416487e+01
 1.648506e+00	 1.050882e-01	 1.416886e+01
 1.647279e+00	 1.228273e-01	 1.417140e+01
 1.645855e+00	 1.406233e-01	 1.417334e+01
 1.644233e+00	 1.584733e-01	 1.417532e+01
 1.642409e+00	 1.763743e-01	 1.417775e+01
 1.656935e+00	 8.780072e-02	 1.411255e+01
 1.655898e+00	 1.055595e-01	 1.411680e+01
 1.654666e+00	 1.233781e-01	 1.411947e+01
 1.653236e+00	 1.412539e-01	 1.412148e+01
 1.651606e+00	 1.591839e-01	 1.412349e+01
 1.649774e+00	 1.771652e-01	 1.412599e+01
 1.664332e+00	 8.819269e-02	 1.406128e+01
 1.663290e+00	 1.060307e-01	 1.406575e+01
 1.662053e+00	 1.239289e-01	 1.406851e+01
 1.660616e+00	 1.418845e-01	 1.407051e+01
 1.658979e+00	 1.598946e-01	 1.407250e+01
 1.657139e+00	 1.779561e-01	 1.407500e+01
 1.620314e+00	 1.740015e-01	 1.433939e+01
 1.618314e+00	 1.917091e-01	 1.434334e+01
 1.616112e+00	 2.094610e-01	 1.434882e+01
 1.613706e+00	 2.272541e-01	 1.435418e+01
 1.611095e+00	 2.450852e-01	 1.435770e+01
 1.608275e+00	 2.629512e-01	 1.435756e+01
 1.627679e+00	 1.747925e-01	 1.428427e+01
 1.625670e+00	 1.925805e-01	 1.428825e+01
 1.623458e+00	 2.104131e-01	 1.429397e+01
 1.621041e+00	 2.282870e-01	 1.429982e+01
 1.618418e+00	 2.461993e-01	 1.430406e+01
 1.615586e+00	 2.641465e-01	 1.430486e+01
 1.635044e+00	 1.755834e-01	 1.423045e+01
 1.633026e+00	 1.934519e-01	 1.423456e+01
 1.630804e+00	 2.113652e-01	 1.424060e+01
 1.628376e+00	 2.293200e-01	 1.424695e+01
 1.625741e+00	 2.473133e-01	 1.425186e+01
 1.622896e+00	 2.653417e-01	 1.425348e+01
 1.642409e+00	 1.763743e-01	 1.417775e+01
 1.640382e+00	 1.943233e-01	 1.418204e+01
 1.638150e+00	 2.123172e-01	 1.418844e+01
 1.635711e+00	 2.303530e-01	 1.419530e+01
 1.633064e+00	 2.484273e-01	 1.420086e+01
 1.630206e+00	 2.665369e-01	 1.420322e+01
 1.649774e+00	 1.771652e-01	 1.412599e+01
 1.647738e+00	 1.951947e-01	 1.413048e+01
 1.645496e+00	 2.132693e-01	 1.413725e+01
 1.643047e+00	 2.313860e-01	 1.414465e+01
 1.640387e+00	 2.495413e-01	 1.415084e+01
 1.637517e+00	 2.677322e-01	 1.415389e+01
 1.657139e+00	 1.779561e-01	 1.407500e+01
 1.655094e+00	 1.960661e-01	 1.407966e+01
 1.652842e+00	 2.142214e-01	 1.408680e+01
 1.650382e+00	 2.324189e-01	 1.409473e+01
 1.647710e+00	 2.506554e-01	 1.410156e+01
 1.644827e+00	 2.689274e-01	 1.410528e+01
 1.608275e+00	 2.629512e-01	 1.435756e+01
 1.605247e+00	 2.808488e-01	 1.435723e+01
 1.602007e+00	 2.987745e-01	 1.436118e+01
 1.598555e+00	 3.167250e-01	 1.436913e+01
 1.594889e+00	 3.346969e-01	 1.438089e+01
 1.591008e+00	 3.526865e-01	 1.439649e+01
 1.615586e+00	 2.641465e-01	 1.430486e+01
 1.612543e+00	 2.821254e-01	 1.430538e+01
 1.609289e+00	 3.001326e-01	 1.430986e+01
 1.605821e+00	 3.181647e-01	 1.431804e+01
 1.602138e+00	 3.362182e-01	 1.432980e+01
 1.598239e+00	 3.542896e-01	 1.434520e+01
 1.622896e+00	 2.653417e-01	 1.425348e+01
 1.619840e+00	 2.834020e-01	 1.425472e+01
 1.616571e+00	 3.014907e-01	 1.425961e+01
 1.613087e+00	 3.196044e-01	 1.426800e+01
 1.609388e+00	 3.377396e-01	 1.427984e+01
 1.605471e+00	 3.558927e-01	 1.429524e+01
 1.630206e+00	 2.665369e-01	 1.420322e+01
 1.627136e+00	 2.846785e-01	 1.420505e+01
 1.623853e+00	 3.028487e-01	 1.421025e+01
 1.620353e+00	 3.210440e-01	 1.421880e+01
 1.616637e+00	 3.392609e-01	 1.423073e+01
 1.612703e+00	 3.574959e-01	 1.424622e+01
 1.637517e+00	 2.677322e-01	 1.415389e+01
 1.634433e+00	 2.859551e-01	 1.415620e+01
 1.631134e+00	 3.042068e-01	 1.416162e+01
 1.627620e+00	 3.224837e-01	 1.417023e+01
 1.623887e+00	 3.407823e-01	 1.418218e+01
 1.619935e+00	 3.590990e-01	 1.419777e+01
 1.644827e+00	 2.689274e-01	 1.410528e+01
 1.641729e+00	 2.872317e-01	 1.410803e+01
 1.638416e+00	 3.055649e-01	 1.411353e+01
 1.634886e+00	 3.239233e-01	 1.412207e+01
 1.631136e+00	 3.423036e-01	 1.413392e+01
 1.627167e+00	 3.607021e-01	 1.414949e+01
 1.591008e+00	 3.526865e-01	 1.439649e+01
 1.586909e+00	 3.706903e-01	 1.440053e+01
 1.582593e+00	 3.887047e-01	 1.438895e+01
 1.578058e+00	 4.067260e-01	 1.437708e+01
 1.573302e+00	 4.247505e-01	 1.437125e+01
 1.568325e+00	 4.427743e-01	 1.437807e+01
 1.598239e+00	 3.542896e-01	 1.434520e+01
 1.594123e+00	 3.723753e-01	 1.434920e+01
 1.589787e+00	 3.904716e-01	 1.433939e+01
 1.585231e+00	 4.085748e-01	 1.432900e+01
 1.580454e+00	 4.266811e-01	 1.432420e+01
 1.575454e+00	 4.447869e-01	 1.433137e+01
 1.605471e+00	 3.558927e-01	 1.429524e+01
 1.601336e+00	 3.740602e-01	 1.429961e+01
 1.596980e+00	 3.922384e-01	 1.429163e+01
 1.592404e+00	 4.104235e-01	 1.428269e+01
 1.587605e+00	 4.286118e-01	 1.427868e+01
 1.582583e+00	 4.467995e-01	 1.428574e+01
 1.612703e+00	 3.574959e-01	 1.424622e+01
 1.608549e+00	 3.757452e-01	 1.425126e+01
 1.604174e+00	 3.940052e-01	 1.424520e+01
 1.599577e+00	 4.122723e-01	 1.423772e+01
 1.594756e+00	 4.305425e-01	 1.423444e+01
 1.589711e+00	 4.488121e-01	 1.424114e+01
 1.619935e+00	 3.590990e-01	 1.419777e+01
 1.615762e+00	 3.774301e-01	 1.420369e+01
 1.611368e+00	 3.957721e-01	 1.419960e+01
 1.606750e+00	 4.141210e-01	 1.419371e+01
 1.601908e+00	 4.324732e-01	 1.419122e+01
 1.596840e+00	 4.508247e-01	 1.419756e+01
 1.627167e+00	 3.607021e-01	 1.414949e+01
 1.622976e+00	 3.791151e-01	 1.415641e+01
 1.618561e+00	 3.975389e-01	 1.415439e+01
 1.613923e+00	 4.159698e-01	 1.415026e+01
 1.609059e+00	 4.344039e-01	 1.414881e+01
 1.603969e+00	 4.528373e-01	 1.415500e+01
 1.568325e+00	 4.427743e-01	 1.437807e+01
 1.563126e+00	 4.607936e-01	 1.439085e+01
 1.557703e+00	 4.788046e-01	 1.439778e+01
 1.552056e+00	 4.968034e-01	 1.439826e+01
 1.546185e+00	 5.147860e-01	 1.439214e+01
 1.540088e+00	 5.327483e-01	 1.437974e+01
 1.575454e+00	 4.447869e-01	 1.433137e+01
 1.570231e+00	 4.628881e-01	 1.434445e+01
 1.564784e+00	 4.809810e-01	 1.435228e+01
 1.559111e+00	 4.990616e-01	 1.435408e+01
 1.553213e+00	 5.171259e-01	 1.434958e+01
 1.547089e+00	 5.351699e-01	 1.433900e+01
 1.582583e+00	 4.467995e-01	 1.428574e+01
 1.577336e+00	 4.649827e-01	 1.429855e+01
 1.571864e+00	 4.831574e-01	 1.430687e+01
 1.566166e+00	 5.013198e-01	 1.430984e+01
 1.560241e+00	 5.194658e-01	 1.430713e+01
 1.554089e+00	 5.375915e-01	 1.429889e+01
 1.589711e+00	 4.488121e-01	 1.424114e+01
 1.584441e+00	 4.670772e-01	 1.425334e+01
 1.578944e+00	 4.853338e-01	 1.426183e+01
 1.573221e+00	 5.035780e-01	 1.426577e+01
 1.567269e+00	 5.218058e-01	 1.426482e+01
 1.561090e+00	 5.400131e-01	 1.425915e+01
 1.596840e+00	 4.508247e-01	 1.419756e+01
 1.591546e+00	 4.691717e-01	 1.420901e+01
 1.586025e+00	 4.875102e-01	 1.421744e+01
 1.580276e+00	 5.058362e-01	 1.422210e+01
 1.574297e+00	 5.241457e-01	 1.422272e+01
 1.568090e+00	 5.424346e-01	 1.421954e+01
 1.603969e+00	 4.528373e-01	 1.415500e+01
 1.598651e+00	 4.712662e-01	 1.416576e+01
 1.593105e+00	 4.896866e-01	 1.417396e+01
 1.587330e+00	 5.080944e-01	 1.417905e+01
 1.581326e+00	 5.264856e-01	 1.418089e+01
 1.575090e+00	 5.448562e-01	 1.417984e+01
 1.540088e+00	 5.327483e-01	 1.437974e+01
 1.533766e+00	 5.506864e-01	 1.436176e+01
 1.527217e+00	 5.685963e-01	 1.434219e+01
 1.520441e+00	 5.864737e-01	 1.432712e+01
 1.513439e+00	 6.043146e-01	 1.432327e+01
 1.506209e+00	 6.221149e-01	 1.433802e+01
 1.547089e+00	 5.351699e-01	 1.433900e+01
 1.540737e+00	 5.531896e-01	 1.432255e+01
 1.534159e+00	 5.711808e-01	 1.430381e+01
 1.527352e+00	 5.891395e-01	 1.428886e+01
 1.520318e+00	 6.070615e-01	 1.428438e+01
 1.513055e+00	 6.249427e-01	 1.429761e+01
 1.554089e+00	 5.375915e-01	 1.429889e+01
 1.547709e+00	 5.556927e-01	 1.428460e+01
 1.541101e+00	 5.737653e-01	 1.426707e+01
 1.534263e+00	 5.918053e-01	 1.425231e+01
 1.527197e+00	 6.098084e-01	 1.424686e+01
 1.519902e+00	 6.277705e-01	 1.425784e+01
 1.561090e+00	 5.400131e-01	 1.425915e+01
 1.554681e+00	 5.581958e-01	 1.424738e+01
 1.548042e+00	 5.763498e-01	 1.423136e+01
 1.541174e+00	 5.944711e-01	 1.421694e+01
 1.534076e+00	 6.125553e-01	 1.421050e+01
 1.526748e+00	 6.305983e-01	 1.421898e+01
 1.568090e+00	 5.424346e-01	 1.421954e+01
 1.561652e+00	 5.606989e-01	 1.421038e+01
 1.554984e+00	 5.789344e-01	 1.419608e+01
 1.548086e+00	 5.971369e-01	 1.418226e+01
 1.540956e+00	 6.153022e-01	 1.417509e+01
 1.533595e+00	 6.334261e-01	 1.418130e+01
 1.575090e+00	 5.448562e-01	 1.417984e+01
 1.568624e+00	 5.632020e-01	 1.417310e+01
 1.561926e+00	 5.815189e-01	 1.416065e+01
 1.554997e+00	 5.998026e-01	 1.414780e+01
 1.547835e+00	 6.180491e-01	 1.414044e+01
 1.540441e+00	 6.362539e-01	 1.414508e+01
 1.506209e+00	 6.221149e-01	 1.433802e+01
 1.498752e+00	 6.398703e-01	 1.434440e+01
 1.491069e+00	 6.575768e-01	 1.431588e+01
 1.483158e+00	 6.752300e-01	 1.426201e+01
 1.475020e+00	 6.928258e-01	 1.419932e+01
 1.466657e+00	 7.103599e-01	 1.415154e+01
 1.513055e+00	 6.249427e-01	 1.429761e+01
 1.505565e+00	 6.427789e-01	 1.430369e+01
 1.497846e+00	 6.605658e-01	 1.427824e+01
 1.489899e+00	 6.782992e-01	 1.423069e+01
 1.481725e+00	 6.959750e-01	 1.417188e+01
 1.473323e+00	 7.135888e-01	 1.412257e+01
 1.519902e+00	 6.277705e-01	 1.425784e+01
 1.512377e+00	 6.456874e-01	 1.426254e+01
 1.504624e+00	 6.635548e-01	 1.423884e+01
 1.496641e+00	 6.813685e-01	 1.419612e+01
 1.488430e+00	 6.991242e-01	 1.414514e+01
 1.479990e+00	 7.168177e-01	 1.409828e+01
 1.526748e+00	 6.305983e-01	 1.421898e+01
 1.519190e+00	 6.485959e-01	 1.422175e+01
 1.511401e+00	 6.665437e-01	 1.419890e+01
 1.503383e+00	 6.844377e-01	 1.415981e+01
 1.495134e+00	 7.022734e-01	 1.411515e+01
 1.486656e+00	 7.200466e-01	 1.407693e+01
 1.533595e+00	 6.334261e-01	 1.418130e+01
 1.526002e+00	 6.515044e-01	 1.418211e+01
 1.518179e+00	 6.695327e-01	 1.415961e+01
 1.510124e+00	 6.875069e-01	 1.412322e+01
 1.501839e+00	 7.054226e-01	 1.408356e+01
 1.493323e+00	 7.232755e-01	 1.405253e+01
 1.540441e+00	 6.362539e-01	 1.414508e+01
 1.532815e+00	 6.544129e-01	 1.414440e+01
 1.524956e+00	 6.725217e-01	 1.412217e+01
 1.516866e+00	 6.905761e-01	 1.408784e+01
 1.508544e+00	 7.085718e-01	 1.405201e+01
 1.499990e+00	 7.265044e-01	 1.402649e+01
 1.466657e+00	 7.103599e-01	 1.415154e+01
 1.458067e+00	 7.278281e-01	 1.412845e+01
 1.449252e+00	 7.452261e-01	 1.413815e+01
 1.440212e+00	 7.625497e-01	 1.413706e+01
 1.430948e+00	 7.797947e-01	 1.410336e+01
 1.421461e+00	 7.969568e-01	 1.403418e+01
 1.473323e+00	 7.135888e-01	 1.412257e+01
 1.464694e+00	 7.311364e-01	 1.410165e+01
 1.455839e+00	 7.486135e-01	 1.411161e+01
 1.446758e+00	 7.660159e-01	 1.410550e+01
 1.437453e+00	 7.833392e-01	 1.407095e+01
 1.427923e+00	 8.005793e-01	 1.400511e+01
 1.479990e+00	 7.168177e-01	 1.409828e+01
 1.471322e+00	 7.344447e-01	 1.407713e+01
 1.462427e+00	 7.520009e-01	 1.408327e+01
 1.453305e+00	 7.694820e-01	 1.407181e+01
 1.443957e+00	 7.868838e-01	 1.403660e+01
 1.434384e+00	 8.042019e-01	 1.397480e+01
 1.486656e+00	 7.200466e-01	 1.407693e+01
 1.477950e+00	 7.377530e-01	 1.405652e+01
 1.469014e+00	 7.553883e-01	 1.405502e+01
 1.459851e+00	 7.729481e-01	 1.403764e+01
 1.450461e+00	 7.904283e-01	 1.400160e+01
 1.440845e+00	 8.078244e-01	 1.394407e+01
 1.493323e+00	 7.232755e-01	 1.405253e+01
 1.484577e+00	 7.410613e-01	 1.404031e+01
 1.475602e+00	 7.587757e-01	 1.402875e+01
 1.466398e+00	 7.764143e-01	 1.400462e+01
 1.456966e+00	 7.939728e-01	 1.396723e+01
 1.447306e+00	 8.114469e-01	 1.391380e+01
 1.499990e+00	 7.265044e-01	 1.402649e+01
 1.491205e+00	 7.443696e-01	 1.402103e+01
 1.482189e+00	 7.621631e-01	 1.400633e+01
 1.472944e+00	 7.798804e-01	 1.397439e+01
 1.463470e+00	 7.975173e-01	 1.393479e+01
 1.453767e+00	 8.150695e-01	 1.388485e+01
 1.421461e+00	 7.969568e-01	 1.403418e+01
 1.411752e+00	 8.140318e-01	 1.395813e+01
 1.401822e+00	 8.310154e-01	 1.390000e+01
 1.391673e+00	 8.479034e-01	 1.384936e+01
 1.381304e+00	 8.646917e-01	 1.379437e+01
 1.370718e+00	 8.813761e-01	 1.372190e+01
 1.427923e+00	 8.005793e-01	 1.400511e+01
 1.418170e+00	 8.177319e-01	 1.393350e+01
 1.408194e+00	 8.347927e-01	 1.387824e+01
 1.397998e+00	 8.517575e-01	 1.382945e+01
 1.387583e+00	 8.686222e-01	 1.377576e+01
 1.376949e+00	 8.853824e-01	 1.370442e+01
 1.434384e+00	 8.042019e-01	 1.397480e+01
 1.424587e+00	 8.214321e-01	 1.390843e+01
 1.414566e+00	 8.385701e-01	 1.385654e+01
 1.404324e+00	 8.556117e-01	 1.380980e+01
 1.393861e+00	 8.725526e-01	 1.375731e+01
 1.383179e+00	 8.893886e-01	 1.368670e+01
 1.440845e+00	 8.078244e-01	 1.394407e+01
 1.431004e+00	 8.251322e-01	 1.388334e+01
 1.420938e+00	 8.423474e-01	 1.383506e+01
 1.410650e+00	 8.594658e-01	 1.379044e+01
 1.400140e+00	 8.764830e-01	 1.373904e+01
 1.389410e+00	 8.933949e-01	 1.366894e+01
 1.447306e+00	 8.114469e-01	 1.391380e+01
 1.437421e+00	 8.288323e-01	 1.385869e+01
 1.427310e+00	 8.461248e-01	 1.381397e+01
 1.416976e+00	 8.633199e-01	 1.377141e+01
 1.406419e+00	 8.804134e-01	 1.372104e+01
 1.395641e+00	 8.974011e-01	 1.365136e+01
 1.453767e+00	 8.150695e-01	 1.388485e+01
 1.443838e+00	 8.325325e-01	 1.383493e+01
 1.433682e+00	 8.499021e-01	 1.379348e+01
 1.423301e+00	 8.671740e-01	 1.375279e+01
 1.412697e+00	 8.843438e-01	 1.370337e+01
 1.401871e+00	 9.014074e-01	 1.363421e+01
 1.370718e+00	 8.813761e-01	 1.372190e+01
 1.359917e+00	 8.979524e-01	 1.364950e+01
 1.348901e+00	 9.144165e-01	 1.359372e+01
 1.337674e+00	 9.307643e-01	 1.353882e+01
 1.326235e+00	 9.469918e-01	 1.346882e+01
 1.314588e+00	 9.630948e-01	 1.336779e+01
 1.376949e+00	 8.853824e-01	 1.370442e+01
 1.366098e+00	 9.020340e-01	 1.363353e+01
 1.355033e+00	 9.185729e-01	 1.357963e+01
 1.343754e+00	 9.349951e-01	 1.352633e+01
 1.332263e+00	 9.512963e-01	 1.345696e+01
 1.320563e+00	 9.674725e-01	 1.335489e+01
 1.383179e+00	 8.893886e-01	 1.368670e+01
 1.372280e+00	 9.061156e-01	 1.361680e+01
 1.361164e+00	 9.227294e-01	 1.356429e+01
 1.349834e+00	 9.392258e-01	 1.351221e+01
 1.338292e+00	 9.556008e-01	 1.344326e+01
 1.326539e+00	 9.718502e-01	 1.334015e+01
 1.389410e+00	 8.933949e-01	 1.366894e+01
 1.378461e+00	 9.101972e-01	 1.359973e+01
 1.367296e+00	 9.268858e-01	 1.354831e+01
 1.355915e+00	 9.434566e-01	 1.349722e+01
 1.344320e+00	 9.599053e-01	 1.342861e+01
 1.332514e+00	 9.762279e-01	 1.332456e+01
 1.395641e+00	 8.974011e-01	 1.365136e+01
 1.384643e+00	 9.142788e-01	 1.358274e+01
 1.373427e+00	 9.310423e-01	 1.353231e+01
 1.361995e+00	 9.476873e-01	 1.348216e+01
 1.350348e+00	 9.642098e-01	 1.341391e+01
 1.338489e+00	 9.806057e-01	 1.330910e+01
 1.401871e+00	 9.014074e-01	 1.363421e+01
 1.390824e+00	 9.183604e-01	 1.356630e+01
 1.379558e+00	 9.351987e-01	 1.351692e+01
 1.368075e+00	 9.519180e-01	 1.346778e+01
 1.356377e+00	 9.685143e-01	 1.340006e+01
 1.344465e+00	 9.849834e-01	 1.329477e+01
 1.314588e+00	 9.630948e-01	 1.336779e+01
 1.302734e+00	 9.790695e-01	 1.325564e+01
 1.290675e+00	 9.949120e-01	 1.315641e+01
 1.278414e+00	 1.010618e+00	 1.306197e+01
 1.265954e+00	 1.026184e+00	 1.296626e+01
 1.253295e+00	 1.041607e+00	 1.286569e+01
 1.320563e+00	 9.674725e-01	 1.335489e+01
 1.308655e+00	 9.835199e-01	 1.324139e+01
 1.296542e+00	 9.994343e-01	 1.314255e+01
 1.284225e+00	 1.015212e+00	 1.305054e+01
 1.271708e+00	 1.030849e+00	 1.295962e+01
 1.258992e+00	 1.046341e+00	 1.286655e+01
 1.326539e+00	 9.718502e-01	 1.334015e+01
 1.314577e+00	 9.879702e-01	 1.322557e+01
 1.302409e+00	 1.003957e+00	 1.312760e+01
 1.290036e+00	 1.019806e+00	 1.303851e+01
 1.277462e+00	 1.035513e+00	 1.295269e+01
 1.264689e+00	 1.051076e+00	 1.286703e+01
 1.332514e+00	 9.762279e-01	 1.332456e+01
 1.320498e+00	 9.924205e-01	 1.320923e+01
 1.308275e+00	 1.008479e+00	 1.311256e+01
 1.295847e+00	 1.024399e+00	 1.302679e+01
 1.283217e+00	 1.040178e+00	 1.294621e+01
 1.270385e+00	 1.055810e+00	 1.286766e+01
 1.338489e+00	 9.806057e-01	 1.330910e+01
 1.326420e+00	 9.968708e-01	 1.319338e+01
 1.314142e+00	 1.013001e+00	 1.309845e+01
 1.301658e+00	 1.028993e+00	 1.301629e+01
 1.288971e+00	 1.044842e+00	 1.294095e+01
 1.276082e+00	 1.060545e+00	 1.286898e+01
 1.344465e+00	 9.849834e-01	 1.329477e+01
 1.332341e+00	 1.001321e+00	 1.317906e+01
 1.320009e+00	 1.017524e+00	 1.308627e+01
 1.307469e+00	 1.033587e+00	 1.300794e+01
 1.294725e+00	 1.049507e+00	 1.293767e+01
 1.281779e+00	 1.065280e+00	 1.287155e+01
 1.253295e+00	 1.041607e+00	 1.286569e+01
 1.240441e+00	 1.056881e+00	 1.276285e+01
 1.227395e+00	 1.072005e+00	 1.265490e+01
 1.214159e+00	 1.086974e+00	 1.253437e+01
 1.200735e+00	 1.101784e+00	 1.239720e+01
 1.187128e+00	 1.116432e+00	 1.225085e+01
 1.258992e+00	 1.046341e+00	 1.286655e+01
 1.246080e+00	 1.061685e+00	 1.277035e+01
 1.232974e+00	 1.076878e+00	 1.266351e+01
 1.219678e+00	 1.091914e+00	 1.253735e+01
 1.206193e+00	 1.106792e+00	 1.238654e+01
 1.192524e+00	 1.121507e+00	 1.223922e+01
 1.264689e+00	 1.051076e+00	 1.286703e+01
 1.251718e+00	 1.066489e+00	 1.277657e+01
 1.238553e+00	 1.081750e+00	 1.266899e+01
 1.225196e+00	 1.096855e+00	 1.253460e+01
 1.211651e+00	 1.111800e+00	 1.236717e+01
 1.197920e+00	 1.126581e+00	 1.222969e+01
 1.270385e+00	 1.055810e+00	 1.286766e+01
 1.257356e+00	 1.071293e+00	 1.278185e+01
 1.244132e+00	 1.086623e+00	 1.267161e+01
 1.230715e+00	 1.101796e+00	 1.252643e+01
 1.217109e+00	 1.116808e+00	 1.234811e+01
 1.203316e+00	 1.131656e+00	 1.222303e+01
 1.276082e+00	 1.060545e+00	 1.286898e+01
 1.262995e+00	 1.076097e+00	 1.278653e+01
 1.249711e+00	 1.091496e+00	 1.267165e+01
 1.236234e+00	 1.106737e+00	 1.251317e+01
 1.222567e+00	 1.121816e+00	 1.233498e+01
 1.208712e+00	 1.136731e+00	 1.221997e+01
 1.281779e+00	 1.065280e+00	 1.287155e+01
 1.268633e+00	 1.080901e+00	 1.279101e+01
 1.255290e+00	 1.096369e+00	 1.266941e+01
 1.241753e+00	 1.111678e+00	 1.249526e+01
 1.228025e+00	 1.126824e+00	 1.232819e+01
 1.214108e+00	 1.141806e+00	 1.222117e+01
 1.187128e+00	 1.116432e+00	 1.225085e+01
 1.173339e+00	 1.130915e+00	 1.211713e+01
 1.159372e+00	 1.145229e+00	 1.196527e+01
 1.145229e+00	 1.159372e+00	 1.181113e+01
 1.130915e+00	 1.173339e+00	 1.167040e+01
 1.116432e+00	 1.187128e+00	 1.155847e+01
 1.192524e+00	 1.121507e+00	 1.223922e+01
 1.178672e+00	 1.136056e+00	 1.211708e+01
 1.164641e+00	 1.150435e+00	 1.197381e+01
 1.150435e+00	 1.164641e+00	 1.182513e+01
 1.136056e+00	 1.178672e+00	 1.168663e+01
 1.121507e+00	 1.192524e+00	 1.157357e+01
 1.197920e+00	 1.126581e+00	 1.222969e+01
 1.184005e+00	 1.141196e+00	 1.211669e+01
 1.169911e+00	 1.155640e+00	 1.198017e+01
 1.155640e+00	 1.169911e+00	 1.183569e+01
 1.141196e+00	 1.184005e+00	 1.169865e+01
 1.126581e+00	 1.197920e+00	 1.158414e+01
 1.203316e+00	 1.131656e+00	 1.222303e+01
 1.189339e+00	 1.146337e+00	 1.211701e+01
 1.175181e+00	 1.160846e+00	 1.198568e+01
 1.160846e+00	 1.175181e+00	 1.184434e+01
 1.146337e+00	 1.189339e+00	 1.170819e+01
 1.131656e+00	 1.203316e+00	 1.159206e+01
 1.208712e+00	 1.136731e+00	 1.221997e+01
 1.194672e+00	 1.151477e+00	 1.211904e+01
 1.180451e+00	 1.166052e+00	 1.199157e+01
 1.166052e+00	 1.180451e+00	 1.185256e+01
 1.151477e+00	 1.194672e+00	 1.171692e+01
 1.136731e+00	 1.208712e+00	 1.159918e+01
 1.214108e+00	 1.141806e+00	 1.222117e+01
 1.200006e+00	 1.156618e+00	 1.212373e+01
 1.185721e+00	 1.171257e+00	 1.199903e+01
 1.171257e+00	 1.185721e+00	 1.186175e+01
 1.156618e+00	 1.200006e+00	 1.172642e+01
 1.141806e+00	 1.214108e+00	 1.160722e+01
 1.116432e+00	 1.187128e+00	 1.155847e+01
 1.101784e+00	 1.200735e+00	 1.143474e+01
 1.086974e+00	 1.214159e+00	 1.126808e+01
 1.072005e+00	 1.227395e+00	 1.107973e+01
 1.056881e+00	 1.240441e+00	 1.088698e+01
 1.041607e+00	 1.253295e+00	 1.070396e+01
 1.121507e+00	 1.192524e+00	 1.157357e+01
 1.106792e+00	 1.206193e+00	 1.144642e+01
 1.091914e+00	 1.219678e+00	 1.127680e+01
 1.076878e+00	 1.232974e+00	 1.108771e+01
 1.061685e+00	 1.246080e+00	 1.089667e+01
 1.046341e+00	 1.258992e+00	 1.071797e+01
 1.126581e+00	 1.197920e+00	 1.158414e+01
 1.111800e+00	 1.211651e+00	 1.145435e+01
 1.096855e+00	 1.225196e+00	 1.128170e+01
 1.081750e+00	 1.238553e+00	 1.109203e+01
 1.066489e+00	 1.251718e+00	 1.090297e+01
 1.051076e+00	 1.264689e+00	 1.072883e+01
 1.131656e+00	 1.203316e+00	 1.159206e+01
 1.116808e+00	 1.217109e+00	 1.146012e+01
 1.101796e+00	 1.230715e+00	 1.128500e+01
 1.086623e+00	 1.244132e+00	 1.109485e+01
 1.071293e+00	 1.257356e+00	 1.090795e+01
 1.055810e+00	 1.270385e+00	 1.073849e+01
 1.136731e+00	 1.208712e+00	 1.159918e+01
 1.121816e+00	 1.222567e+00	 1.146536e+01
 1.106737e+00	 1.236234e+00	 1.128883e+01
 1.091496e+00	 1.249711e+00	 1.109830e+01
 1.076097e+00	 1.262995e+00	 1.091366e+01
 1.060545e+00	 1.276082e+00	 1.074887e+01
 1.141806e+00	 1.214108e+00	 1.160722e+01
 1.126824e+00	 1.228025e+00	 1.147194e+01
 1.111678e+00	 1.241753e+00	 1.129529e+01
 1.096369e+00	 1.255290e+00	 1.110444e+01
 1.080901e+00	 1.268633e+00	 1.092208e+01
 1.065280e+00	 1.281779e+00	 1.076187e+01
 1.041607e+00	 1.253295e+00	 1.070396e+01
 1.026184e+00	 1.265954e+00	 1.053964e+01
 1.010618e+00	 1.278414e+00	 1.038782e+01
 9.949120e-01	 1.290675e+00	 1.023554e+01
 9.790695e-01	 1.302734e+00	 1.006739e+01
 9.630948e-01	 1.314588e+00	 9.865862e+00
 1.046341e+00	 1.258992e+00	 1.071797e+01
 1.030849e+00	 1.271708e+00	 1.055761e+01
 1.015212e+00	 1.284225e+00	 1.040705e+01
 9.994343e-01	 1.296542e+00	 1.025442e+01
 9.835199e-01	 1.308655e+00	 1.008534e+01
 9.674725e-01	 1.320563e+00	 9.883379e+00
 1.051076e+00	 1.264689e+00	 1.072883e+01
 1.035513e+00	 1.277462e+00	 1.057267e+01
 1.019806e+00	 1.290036e+00	 1.042372e+01
 1.003957e+00	 1.302409e+00	 1.027107e+01
 9.879702e-01	 1.314577e+00	 1.010134e+01
 9.718502e-01	 1.326539e+00	 9.899054e+00
 1.055810e+00	 1.270385e+00	 1.073849e+01
 1.040178e+00	 1.283217e+00	 1.058665e+01
 1.024399e+00	 1.295847e+00	 1.043950e+01
 1.008479e+00	 1.308275e+00	 1.028705e+01
 9.924205e-01	 1.320498e+00	 1.011680e+01
 9.762279e-01	 1.332514e+00	 9.914184e+00
 1.060545e+00	 1.276082e+00	 1.074887e+01
 1.044842e+00	 1.288971e+00	 1.060133e+01
 1.028993e+00	 1.301658e+00	 1.045606e+01
 1.013001e+00	 1.314142e+00	 1.030390e+01
 9.968708e-01	 1.326420e+00	 1.013314e+01
 9.806057e-01	 1.338489e+00	 9.930056e+00
 1.065280e+00	 1.281779e+00	 1.076187e+01
 1.049507e+00	 1.294725e+00	 1.061848e+01
 1.033587e+00	 1.307469e+00	 1.047504e+01
 1.017524e+00	 1.320009e+00	 1.032312e+01
 1.001321e+00	 1.332341e+00	 1.015175e+01
 9.849834e-01	 1.344465e+00	 9.947941e+00
 9.630948e-01	 1.314588e+00	 9.865862e+00
 9.469918e-01	 1.326235e+00	 9.658006e+00
 9.307643e-01	 1.337674e+00	 9.475175e+00
 9.144165e-01	 1.348901e+00	 9.304785e+00
 8.979524e-01	 1.359917e+00	 9.134206e+00
 8.813761e-01	 1.370718e+00	 8.951140e+00
 9.674725e-01	 1.320563e+00	 9.883379e+00
 9.512963e-01	 1.332263e+00	 9.677665e+00
 9.349951e-01	 1.343754e+00	 9.499545e+00
 9.185729e-01	 1.355033e+00	 9.334318e+00
 9.020340e-01	 1.366098e+00	 9.167189e+00
 8.853824e-01	 1.376949e+00	 8.983662e+00
 9.718502e-01	 1.326539e+00	 9.899054e+00
 9.556008e-01	 1.338292e+00	 9.695024e+00
 9.392258e-01	 1.349834e+00	 9.520509e+00
 9.227294e-01	 1.361164e+00	 9.359133e+00
 9.061156e-01	 1.372280e+00	 9.194394e+00
 8.893886e-01	 1.383179e+00	 9.010065e+00
 9.762279e-01	 1.332514e+00	 9.914184e+00
 9.599053e-01	 1.344320e+00	 9.711317e+00
 9.434566e-01	 1.355915e+00	 9.539353e+00
 9.268858e-01	 1.367296e+00	 9.380680e+00
 9.101972e-01	 1.378461e+00	 9.217537e+00
 8.933949e-01	 1.389410e+00	 9.032430e+00
 9.806057e-01	 1.338489e+00	 9.930056e+00
 9.642098e-01	 1.350348e+00	 9.727767e+00
 9.476873e-01	 1.361995e+00	 9.557355e+00
 9.310423e-01	 1.373427e+00	 9.400400e+00
 9.142788e-01	 1.384643e+00	 9.238325e+00
 8.974011e-01	 1.395641e+00	 9.052827e+00
 9.849834e-01	 1.344465e+00	 9.947941e+00
 9.685143e-01	 1.356377e+00	 9.745586e+00
 9.519180e-01	 1.368075e+00	 9.575782e+00
 9.351987e-01	 1.379558e+00	 9.419725e+00
 9.183604e-01	 1.390824e+00	 9.258456e+00
 9.014074e-01	 1.401871e+00	 9.073308e+00
 8.813761e-01	 1.370718e+00	 8.951140e+00
 8.646917e-01	 1.381304e+00	 8.760471e+00
 8.479034e-01	 1.391673e+00	 8.569989e+00
 8.310154e-01	 1.401822e+00	 8.373287e+00
 8.140318e-01	 1.411752e+00	 8.165609e+00
 7.969568e-01	 1.421461e+00	 7.944095e+00
 8.853824e-01	 1.376949e+00	 8.983662e+00
 8.686222e-01	 1.387583e+00	 8.788001e+00
 8.517575e-01	 1.397998e+00	 8.590826e+00
 8.347927e-01	 1.408194e+00	 8.388817e+00
 8.177319e-01	 1.418170e+00	 8.180464e+00
 8.005793e-01	 1.427923e+00	 7.966304e+00
 8.893886e-01	 1.383179e+00	 9.010065e+00
 8.725526e-01	 1.393861e+00	 8.810636e+00
 8.556117e-01	 1.404324e+00	 8.609432e+00
 8.385701e-01	 1.414566e+00	 8.405219e+00
 8.214321e-01	 1.424587e+00	 8.198702e+00
 8.042019e-01	 1.434384e+00	 7.992775e+00
 8.933949e-01	 1.389410e+00	 9.032430e+00
 8.764830e-01	 1.400140e+00	 8.830741e+00
 8.594658e-01	 1.410650e+00	 8.628204e+00
 8.423474e-01	 1.420938e+00	 8.424678e+00
 8.251322e-01	 1.431004e+00	 8.222078e+00
 8.078244e-01	 1.440845e+00	 8.024621e+00
 8.974011e-01	 1.395641e+00	 9.052827e+00
 8.804134e-01	 1.406419e+00	 8.850664e+00
 8.633199e-01	 1.416976e+00	 8.649521e+00
 8.461248e-01	 1.427310e+00	 8.449375e+00
 8.288323e-01	 1.437421e+00	 8.252349e+00
 8.114469e-01	 1.447306e+00	 8.062969e+00
 9.014074e-01	 1.401871e+00	 9.073308e+00
 8.843438e-01	 1.412697e+00	 8.872735e+00
 8.671740e-01	 1.423301e+00	 8.675747e+00
 8.499021e-01	 1.433682e+00	 8.481477e+00
 8.325325e-01	 1.443838e+00	 8.291270e+00
 8.150695e-01	 1.453767e+00	 8.108957e+00
 7.969568e-01	 1.421461e+00	 7.944095e+00
 7.797947e-01	 1.430948e+00	 7.747527e+00
 7.625497e-01	 1.440212e+00	 7.594535e+00
 7.452261e-01	 1.449252e+00	 7.455013e+00
 7.278281e-01	 1.458067e+00	 7.299383e+00
 7.103599e-01	 1.466657e+00	 7.103055e+00
 8.005793e-01	 1.427923e+00	 7.966304e+00
 7.833392e-01	 1.437453e+00	 7.783645e+00
 7.660159e-01	 1.446758e+00	 7.644309e+00
 7.486135e-01	 1.455839e+00	 7.513675e+00
 7.311364e-01	 1.464694e+00	 7.358292e+00
 7.135888e-01	 1.473323e+00	 7.147622e+00
 8.042019e-01	 1.434384e+00	 7.992775e+00
 7.868838e-01	 1.443957e+00	 7.821597e+00
 7.694820e-01	 1.453305e+00	 7.689612e+00
 7.520009e-01	 1.462427e+00	 7.558317e+00
 7.344447e-01	 1.471322e+00	 7.390858e+00
 7.168177e-01	 1.479990e+00	 7.151881e+00
 8.078244e-01	 1.440845e+00	 8.024621e+00
 7.904283e-01	 1.450461e+00	 7.861836e+00
 7.729481e-01	 1.459851e+00	 7.730413e+00
 7.553883e-01	 1.469014e+00	 7.588580e+00
 7.377530e-01	 1.477950e+00	 7.396535e+00
 7.200466e-01	 1.486656e+00	 7.137239e+00
 8.114469e-01	 1.447306e+00	 8.062969e+00
 7.939728e-01	 1.456966e+00	 7.904848e+00
 7.764143e-01	 1.466398e+00	 7.766717e+00
 7.587757e-01	 1.475602e+00	 7.604149e+00
 7.410613e-01	 1.484577e+00	 7.382315e+00
 7.232755e-01	 1.493323e+00	 7.151511e+00
 8.150695e-01	 1.453767e+00	 8.108957e+00
 7.975173e-01	 1.463470e+00	 7.951141e+00
 7.798804e-01	 1.472944e+00	 7.798568e+00
 7.621631e-01	 1.482189e+00	 7.605126e+00
 7.443696e-01	 1.491205e+00	 7.398759e+00
 7.265044e-01	 1.499990e+00	 7.194563e+00
 7.103599e-01	 1.466657e+00	 7.103055e+00
 6.928258e-01	 1.475020e+00	 6.876368e+00
 6.752300e-01	 1.483158e+00	 6.627098e+00
 6.575768e-01	 1.491069e+00	 6.412512e+00
 6.398703e-01	 1.498752e+00	 6.250802e+00
 6.221149e-01	 1.506209e+00	 6.124239e+00
 7.135888e-01	 1.473323e+00	 7.147622e+00
 6.959750e-01	 1.481725e+00	 6.887238e+00
 6.782992e-01	 1.489899e+00	 6.644921e+00
 6.605658e-01	 1.497846e+00	 6.458778e+00
 6.427789e-01	 1.505565e+00	 6.311977e+00
 6.249427e-01	 1.513055e+00	 6.187891e+00
 7.168177e-01	 1.479990e+00	 7.151881e+00
 6.991242e-01	 1.488430e+00	 6.884351e+00
 6.813685e-01	 1.496641e+00	 6.673611e+00
 6.635548e-01	 1.504624e+00	 6.506164e+00
 6.456874e-01	 1.512377e+00	 6.367079e+00
 6.277705e-01	 1.519902e+00	 6.241670e+00
 7.200466e-01	 1.486656e+00	 7.137239e+00
 7.022734e-01	 1.495134e+00	 6.902036e+00
 6.844377e-01	 1.503383e+00	 6.711733e+00
 6.665437e-01	 1.511401e+00	 6.553675e+00
 6.485959e-01	 1.519190e+00	 6.415652e+00
 6.305983e-01	 1.526748e+00	 6.285738e+00
 7.232755e-01	 1.493323e+00	 7.151511e+00
 7.054226e-01	 1.501839e+00	 6.938527e+00
 6.875069e-01	 1.510124e+00	 6.757852e+00
 6.695327e-01	 1.518179e+00	 6.600308e+00
 6.515044e-01	 1.526002e+00	 6.457220e+00
 6.334261e-01	 1.533595e+00	 6.320231e+00
 7.265044e-01	 1.499990e+00	 7.194563e+00
 7.085718e-01	 1.508544e+00	 6.992065e+00
 6.905761e-01	 1.516866e+00	 6.810531e+00
 6.725217e-01	 1.524956e+00	 6.645055e+00
 6.544129e-01	 1.532815e+00	 6.491293e+00
 6.362539e-01	 1.540441e+00	 6.345260e+00
 6.221149e-01	 1.506209e+00	 6.124239e+00
 6.043146e-01	 1.513439e+00	 5.988449e+00
 5.864737e-01	 1.520441e+00	 5.819804e+00
 5.685963e-01	 1.527217e+00	 5.631811e+00
 5.506864e-01	 1.533766e+00	 5.437961e+00
 5.327483e-01	 1.540088e+00	 5.251595e+00
 6.249427e-01	 1.513055e+00	 6.187891e+00
 6.070615e-01	 1.520318e+00	 6.046039e+00
 5.891395e-01	 1.527352e+00	 5.867848e+00
 5.711808e-01	 1.534159e+00	 5.669703e+00
 5.531896e-01	 1.540737e+00	 5.467973e+00
 5.351699e-01	 1.547089e+00	 5.278875e+00
 6.277705e-01	 1.519902e+00	 6.241670e+00
 6.098084e-01	 1.527197e+00	 6.093777e+00
 5.918053e-01	 1.534263e+00	 5.908850e+00
 5.737653e-01	 1.541101e+00	 5.704774e+00
 5.556927e-01	 1.547709e+00	 5.499405e+00
 5.375915e-01	 1.554089e+00	 5.310434e+00
 6.305983e-01	 1.526748e+00	 6.285738e+00
 6.125553e-01	 1.534076e+00	 6.132369e+00
 5.944711e-01	 1.541174e+00	 5.943836e+00
 5.763498e-01	 1.548042e+00	 5.738165e+00
 5.581958e-01	 1.554681e+00	 5.533330e+00
 5.400131e-01	 1.561090e+00	 5.347113e+00
 6.334261e-01	 1.533595e+00	 6.320231e+00
 6.153022e-01	 1.540956e+00	 6.162482e+00
 5.971369e-01	 1.548086e+00	 5.973788e+00
 5.789344e-01	 1.554984e+00	 5.770977e+00
 5.606989e-01	 1.561652e+00	 5.570784e+00
 5.424346e-01	 1.568090e+00	 5.389718e+00
 6.362539e-01	 1.540441e+00	 6.345260e+00
 6.180491e-01	 1.547835e+00	 6.184750e+00
 5.998026e-01	 1.554997e+00	 5.999652e+00
 5.815189e-01	 1.561926e+00	 5.804268e+00
 5.632020e-01	 1.568624e+00	 5.612761e+00
 5.448562e-01	 1.575090e+00	 5.439024e+00
 5.327483e-01	 1.540088e+00	 5.251595e+00
 5.147860e-01	 1.546185e+00	 5.087066e+00
 4.968034e-01	 1.552056e+00	 4.944534e+00
 4.788046e-01	 1.557703e+00	 4.815496e+00
 4.607936e-01	 1.563126e+00	 4.690926e+00
 4.427743e-01	 1.568325e+00	 4.561272e+00
 5.351699e-01	 1.547089e+00	 5.278875e+00
 5.171259e-01	 1.553213e+00	 5.117311e+00
 4.990616e-01	 1.559111e+00	 4.980745e+00
 4.809810e-01	 1.564784e+00	 4.858657e+00
 4.628881e-01	 1.570231e+00	 4.739992e+00
 4.447869e-01	 1.575454e+00	 4.613160e+00
 5.375915e-01	 1.554089e+00	 5.310434e+00
 5.194658e-01	 1.560241e+00	 5.152113e+00
 5.013198e-01	 1.566166e+00	 5.019621e+00
 4.831574e-01	 1.571864e+00	 4.901435e+00
 4.649827e-01	 1.577336e+00	 4.785487e+00
 4.467995e-01	 1.582583e+00	 4.659166e+00
 5.400131e-01	 1.561090e+00	 5.347113e+00
 5.218058e-01	 1.567269e+00	 5.192086e+00
 5.035780e-01	 1.573221e+00	 5.061701e+00
 4.853338e-01	 1.578944e+00	 4.944430e+00
 4.670772e-01	 1.584441e+00	 4.828194e+00
 4.488121e-01	 1.589711e+00	 4.700370e+00
 5.424346e-01	 1.568090e+00	 5.389718e+00
 5.241457e-01	 1.574297e+00	 5.237813e+00
 5.058362e-01	 1.580276e+00	 5.107494e+00
 4.875102e-01	 1.586025e+00	 4.988215e+00
 4.691717e-01	 1.591546e+00	 4.868874e+00
 4.508247e-01	 1.596840e+00	 4.737822e+00
 5.448562e-01	 1.575090e+00	 5.439024e+00
 5.264856e-01	 1.581326e+00	 5.289850e+00
 5.080944e-01	 1.587330e+00	 5.157489e+00
 4.896866e-01	 1.593105e+00	 5.033342e+00
 4.712662e-01	 1.598651e+00	 4.908259e+00
 4.528373e-01	 1.603969e+00	 4.772543e+00
 4.427743e-01	 1.568325e+00	 4.561272e+00
 4.247505e-01	 1.573302e+00	 4.400024e+00
 4.067260e-01	 1.578058e+00	 4.212213e+00
 3.887047e-01	 1.582593e+00	 4.034699e+00
 3.706903e-01	 1.586909e+00	 3.903632e+00
 3.526865e-01	 1.591008e+00	 3.832409e+00
 4.447869e-01	 1.575454e+00	 4.613160e+00
 4.266811e-01	 1.580454e+00	 4.452050e+00
 4.085748e-01	 1.585231e+00	 4.263324e+00
 3.904716e-01	 1.589787e+00	 4.083667e+00
 3.723753e-01	 1.594123e+00	 3.949074e+00
 3.542896e-01	 1.598239e+00	 3.877048e+00
 4.467995e-01	 1.582583e+00	 4.659166e+00
 4.286118e-01	 1.587605e+00	 4.497579e+00
 4.104235e-01	 1.592404e+00	 4.308739e+00
 3.922384e-01	 1.596980e+00	 4.128522e+00
 3.740602e-01	 1.601336e+00	 3.992132e+00
 3.558927e-01	 1.605471e+00	 3.920060e+00
 4.488121e-01	 1.589711e+00	 4.700370e+00
 4.305425e-01	 1.594756e+00	 4.537986e+00
 4.122723e-01	 1.599577e+00	 4.350027e+00
 3.940052e-01	 1.604174e+00	 4.170938e+00
 3.757452e-01	 1.608549e+00	 4.034507e+00
 3.574959e-01	 1.612703e+00	 3.963099e+00
 4.508247e-01	 1.596840e+00	 4.737822e+00
 4.324732e-01	 1.601908e+00	 4.574609e+00
 4.141210e-01	 1.606750e+00	 4.388723e+00
 3.957721e-01	 1.611368e+00	 4.212559e+00
 3.774301e-01	 1.615762e+00	 4.077872e+00
 3.590990e-01	 1.619935e+00	 4.007797e+00
 4.528373e-01	 1.603969e+00	 4.772543e+00
 4.344039e-01	 1.609059e+00	 4.608756e+00
 4.159698e-01	 1.613923e+00	 4.426326e+00
 3.975389e-01	 1.618561e+00	 4.254993e+00
 3.791151e-01	 1.622976e+00	 4.123862e+00
 3.607021e-01	 1.627167e+00	 4.055765e+00
 3.526865e-01	 1.591008e+00	 3.832409e+00
 3.346969e-01	 1.594889e+00	 3.767150e+00
 3.167250e-01	 1.598555e+00	 3.673813e+00
 2.987745e-01	 1.602007e+00	 3.564062e+00
 2.808488e-01	 1.605247e+00	 3.447320e+00
 2.629512e-01	 1.608275e+00	 3.331212e+00
 3.542896e-01	 1.598239e+00	 3.877048e+00
 3.362182e-01	 1.602138e+00	 3.811740e+00
 3.181647e-01	 1.605821e+00	 3.718652e+00
 3.001326e-01	 1.609289e+00	 3.609321e+00
 2.821254e-01	 1.612543e+00	 3.493124e+00
 2.641465e-01	 1.615586e+00	 3.377716e+00
 3.558927e-01	 1.605471e+00	 3.920060e+00
 3.377396e-01	 1.609388e+00	 3.855093e+00
 3.196044e-01	 1.613087e+00	 3.762114e+00
 3.014907e-01	 1.616571e+00	 3.652753e+00
 2.834020e-01	 1.619840e+00	 3.536570e+00
 2.653417e-01	 1.622896e+00	 3.421478e+00
 3.574959e-01	 1.612703e+00	 3.963099e+00
 3.392609e-01	 1.616637e+00	 3.898737e+00
 3.210440e-01	 1.620353e+00	 3.805625e+00
 3.028487e-01	 1.623853e+00	 3.695703e+00
 2.846785e-01	 1.627136e+00	 3.578938e+00
 2.665369e-01	 1.630206e+00	 3.463734e+00
 3.590990e-01	 1.619935e+00	 4.007797e+00
 3.407823e-01	 1.623887e+00	 3.944187e+00
 3.224837e-01	 1.627620e+00	 3.850601e+00
 3.042068e-01	 1.631134e+00	 3.739509e+00
 2.859551e-01	 1.634433e+00	 3.621506e+00
 2.677322e-01	 1.637517e+00	 3.505718e+00
 3.607021e-01	 1.627167e+00	 4.055765e+00
 3.423036e-01	 1.631136e+00	 3.992940e+00
 3.239233e-01	 1.634886e+00	 3.898448e+00
 3.055649e-01	 1.638416e+00	 3.785501e+00
 2.872317e-01	 1.641729e+00	 3.665546e+00
 2.689274e-01	 1.644827e+00	 3.548661e+00
 2.629512e-01	 1.608275e+00	 3.331212e+00
 2.450852e-01	 1.611095e+00	 3.229970e+00
 2.272541e-01	 1.613706e+00	 3.149905e+00
 2.094610e-01	 1.616112e+00	 3.085155e+00
 1.917091e-01	 1.618314e+00	 3.029421e+00
 1.740015e-01	 1.620314e+00	 2.976190e+00
 2.641465e-01	 1.615586e+00	 3.377716e+00
 2.461993e-01	 1.618418e+00	 3.277168e+00
 2.282870e-01	 1.621041e+00	 3.197541e+00
 2.104131e-01	 1.623458e+00	 3.132965e+00
 1.925805e-01	 1.625670e+00	 3.077172e+00
 1.747925e-01	 1.627679e+00	 3.023715e+00
 2.653417e-01	 1.622896e+00	 3.421478e+00
 2.473133e-01	 1.625741e+00	 3.321583e+00
 2.293200e-01	 1.628376e+00	 3.242652e+00
 2.113652e-01	 1.630804e+00	 3.178678e+00
 1.934519e-01	 1.633026e+00	 3.123305e+00
 1.755834e-01	 1.635044e+00	 3.070033e+00
 2.665369e-01	 1.630206e+00	 3.463734e+00
 2.484273e-01	 1.633064e+00	 3.364400e+00
 2.303530e-01	 1.635711e+00	 3.286339e+00
 2.123172e-01	 1.638150e+00	 3.223289e+00
 1.943233e-01	 1.640382e+00	 3.168688e+00
 1.763743e-01	 1.642409e+00	 3.115871e+00
 2.677322e-01	 1.637517e+00	 3.505718e+00
 2.495413e-01	 1.640387e+00	 3.406802e+00
 2.313860e-01	 1.643047e+00	 3.329706e+00
 2.132693e-01	 1.645496e+00	 3.267797e+00
 1.951947e-01	 1.647738e+00	 3.214195e+00
 1.771652e-01	 1.649774e+00	 3.161958e+00
 2.689274e-01	 1.644827e+00	 3.548661e+00
 2.506554e-01	 1.647710e+00	 3.449968e+00
 2.324189e-01	 1.650382e+00	 3.373853e+00
 2.142214e-01	 1.652842e+00	 3.313198e+00
 1.960661e-01	 1.655094e+00	 3.260698e+00
 1.779561e-01	 1.657139e+00	 3.209027e+00
 1.740015e-01	 1.620314e+00	 2.976190e+00
 1.563414e-01	 1.622113e+00	 2.922485e+00
 1.387315e-01	 1.623714e+00	 2.870787e+00
 1.211750e-01	 1.625118e+00	 2.822916e+00
 1.036745e-01	 1.626328e+00	 2.781028e+00
 8.623285e-02	 1.627346e+00	 2.747724e+00
 1.747925e-01	 1.627679e+00	 3.023715e+00
 1.570520e-01	 1.629486e+00	 2.969874e+00
 1.393621e-01	 1.631094e+00	 2.918274e+00
 1.217258e-01	 1.632505e+00	 2.870641e+00
 1.041457e-01	 1.633721e+00	 2.829019e+00
 8.662482e-02	 1.634744e+00	 2.795866e+00
 1.755834e-01	 1.635044e+00	 3.070033e+00
 1.577627e-01	 1.636859e+00	 3.016293e+00
 1.399927e-01	 1.638475e+00	 2.964874e+00
 1.222765e-01	 1.639892e+00	 2.917480e+00
 1.046170e-01	 1.641113e+00	 2.876117e+00
 8.701678e-02	 1.642141e+00	 2.843171e+00
 1.763743e-01	 1.642409e+00	 3.115871e+00
 1.584733e-01	 1.644233e+00	 3.062327e+00
 1.406233e-01	 1.645855e+00	 3.011044e+00
 1.228273e-01	 1.647279e+00	 2.963779e+00
 1.050882e-01	 1.648506e+00	 2.922572e+00
 8.740875e-02	 1.649538e+00	 2.889817e+00
 1.771652e-01	 1.649774e+00	 3.161958e+00
 1.591839e-01	 1.651606e+00	 3.108564e+00
 1.412539e-01	 1.653236e+00	 3.057243e+00
 1.233781e-01	 1.654666e+00	 3.009883e+00
 1.055595e-01	 1.655898e+00	 2.968637e+00
 8.780072e-02	 1.656935e+00	 2.935980e+00
 1.779561e-01	 1.657139e+00	 3.209027e+00
 1.598946e-01	 1.658979e+00	 3.155592e+00
 1.418845e-01	 1.660616e+00	 3.103933e+00
 1.239289e-01	 1.662053e+00	 3.056143e+00
 1.060307e-01	 1.663290e+00	 3.014567e+00
 8.819269e-02	 1.664332e+00	 2.981840e+00
 8.623285e-02	 1.627346e+00	 2.747724e+00
 6.885280e-02	 1.628174e+00	 2.724512e+00
 5.153695e-02	 1.628814e+00	 2.708411e+00
 3.428788e-02	 1.629269e+00	 2.696345e+00
 1.710809e-02	 1.629540e+00	 2.686203e+00
 0.000000e+00	 1.629630e+00	 2.676946e+00
 8.662482e-02	 1.634744e+00	 2.795866e+00
 6.916576e-02	 1.635575e+00	 2.772552e+00
 5.177121e-02	 1.636218e+00	 2.756234e+00
 3.444373e-02	 1.636675e+00	 2.744024e+00
 1.718585e-02	 1.636947e+00	 2.733924e+00
 0.000000e+00	 1.637037e+00	 2.724924e+00
 8.701678e-02	 1.642141e+00	 2.843171e+00
 6.947873e-02	 1.642976e+00	 2.819935e+00
 5.200547e-02	 1.643622e+00	 2.803638e+00
 3.459959e-02	 1.644080e+00	 2.791475e+00
 1.726361e-02	 1.644354e+00	 2.781456e+00
 0.000000e+00	 1.644444e+00	 2.772493e+00
 8.740875e-02	 1.649538e+00	 2.889817e+00
 6.979170e-02	 1.650377e+00	 2.866775e+00
 5.223973e-02	 1.651026e+00	 2.850684e+00
 3.475544e-02	 1.651486e+00	 2.838720e+00
 1.734138e-02	 1.651761e+00	 2.828796e+00
 0.000000e+00	 1.651852e+00	 2.819643e+00
 8.780072e-02	 1.656935e+00	 2.935980e+00
 7.010467e-02	 1.657778e+00	 2.913188e+00
 5.247399e-02	 1.658429e+00	 2.897436e+00
 3.491130e-02	 1.658892e+00	 2.885780e+00
 1.741914e-02	 1.659168e+00	 2.875940e+00
 0.000000e+00	 1.659259e+00	 2.866364e+00
 8.819269e-02	 1.664332e+00	 2.981840e+00
 7.041763e-02	 1.665178e+00	 2.959291e+00
 5.270824e-02	 1.665833e+00	 2.943954e+00
 3.506715e-02	 1.666298e+00	 2.932673e+00
 1.749691e-02	 1.666575e+00	 2.922879e+00
 0.000000e+00	 1.666667e+00	 2.912642e+00
 1.666667e+00	 0.000000e+00	 1.405581e+01
 1.666575e+00	 1.749691e-02	 1.405462e+01
 1.666298e+00	 3.506715e-02	 1.405389e+01
 1.665833e+00	 5.270824e-02	 1.405440e+01
 1.665178e+00	 7.041763e-02	 1.405674e+01
 1.664332e+00	 8.819269e-02	 1.406128e+01
 1.674074e+00	 0.000000e+00	 1.400538e+01
 1.673982e+00	 1.757467e-02	 1.400394e+01
 1.673703e+00	 3.522300e-02	 1.400312e+01
 1.673237e+00	 5.294250e-02	 1.400369e+01
 1.672579e+00	 7.073060e-02	 1.400621e+01
 1.671729e+00	 8.858465e-02	 1.401103e+01
 1.681481e+00	 0.000000e+00	 1.395594e+01
 1.681389e+00	 1.765243e-02	 1.395430e+01
 1.681109e+00	 3.537886e-02	 1.395340e+01
 1.680640e+00	 5.317676e-02	 1.395400e+01
 1.679980e+00	 7.104357e-02	 1.395667e+01
 1.679126e+00	 8.897662e-02	 1.396177e+01
 1.688889e+00	 0.000000e+00	 1.390744e+01
 1.688796e+00	 1.773020e-02	 1.390567e+01
 1.688515e+00	 3.553471e-02	 1.390470e+01
 1.688044e+00	 5.341102e-02	 1.390531e+01
 1.687381e+00	 7.135653e-02	 1.390809e+01
 1.686523e+00	 8.936859e-02	 1.391344e+01
 1.696296e+00	 0.000000e+00	 1.385981e+01
 1.696203e+00	 1.780796e-02	 1.385801e+01
 1.695921e+00	 3.569057e-02	 1.385701e+01
 1.695448e+00	 5.364528e-02	 1.385760e+01
 1.694782e+00	 7.166950e-02	 1.386043e+01
 1.693920e+00	 8.976056e-02	 1.386596e+01
 1.703704e+00	 0.000000e+00	 1.381298e+01
 1.703610e+00	 1.788573e-02	 1.381130e+01
 1.703327e+00	 3.584642e-02	 1.381031e+01
 1.702852e+00	 5.387954e-02	 1.381086e+01
 1.702182e+00	 7.198247e-02	 1.381366e+01
 1.701317e+00	 9.015252e-02	 1.381927e+01
 1.664332e+00	 8.819269e-02	 1.406128e+01
 1.663290e+00	 1.060307e-01	 1.406575e+01
 1.662053e+00	 1.239289e-01	 1.406851e+01
 1.660616e+00	 1.418845e-01	 1.407051e+01
 1.658979e+00	 1.598946e-01	 1.407250e+01
 1.657139e+00	 1.779561e-01	 1.407500e+01
 1.671729e+00	 8.858465e-02	 1.401103e+01
 1.670683e+00	 1.065020e-01	 1.401575e+01
 1.669440e+00	 1.244797e-01	 1.401860e+01
 1.667997e+00	 1.425151e-01	 1.402059e+01
 1.666352e+00	 1.606052e-01	 1.402252e+01
 1.664504e+00	 1.787470e-01	 1.402498e+01
 1.679126e+00	 8.897662e-02	 1.396177e+01
 1.678075e+00	 1.069732e-01	 1.396677e+01
 1.676827e+00	 1.250305e-01	 1.396977e+01
 1.675377e+00	 1.431457e-01	 1.397181e+01
 1.673726e+00	 1.613159e-01	 1.397373e+01
 1.671869e+00	 1.795380e-01	 1.397616e+01
 1.686523e+00	 8.936859e-02	 1.391344e+01
 1.685468e+00	 1.074445e-01	 1.391872e+01
 1.684213e+00	 1.255813e-01	 1.392189e+01
 1.682758e+00	 1.437763e-01	 1.392402e+01
 1.681099e+00	 1.620265e-01	 1.392597e+01
 1.679234e+00	 1.803289e-01	 1.392837e+01
 1.693920e+00	 8.976056e-02	 1.386596e+01
 1.692860e+00	 1.079157e-01	 1.387148e+01
 1.691600e+00	 1.261321e-01	 1.387484e+01
 1.690138e+00	 1.444069e-01	 1.387709e+01
 1.688472e+00	 1.627371e-01	 1.387909e+01
 1.686599e+00	 1.811198e-01	 1.388148e+01
 1.701317e+00	 9.015252e-02	 1.381927e+01
 1.700253e+00	 1.083869e-01	 1.382495e+01
 1.698987e+00	 1.266829e-01	 1.382847e+01
 1.697519e+00	 1.450375e-01	 1.383085e+01
 1.695845e+00	 1.634478e-01	 1.383293e+01
 1.693964e+00	 1.819107e-01	 1.383533e+01
 1.657139e+00	 1.779561e-01	 1.407500e+01
 1.655094e+00	 1.960661e-01	 1.407966e+01
 1.652842e+00	 2.142214e-01	 1.408680e+01
 1.650382e+00	 2.324189e-01	 1.409473e+01
 1.647710e+00	 2.506554e-01	 1.410156e+01
 1.644827e+00	 2.689274e-01	 1.410528e+01
 1.664504e+00	 1.787470e-01	 1.402498e+01
 1.662450e+00	 1.969375e-01	 1.402975e+01
 1.660188e+00	 2.151735e-01	 1.403725e+01
 1.657717e+00	 2.334519e-01	 1.404570e+01
 1.655034e+00	 2.517694e-01	 1.405320e+01
 1.652137e+00	 2.701226e-01	 1.405764e+01
 1.671869e+00	 1.795380e-01	 1.397616e+01
 1.669806e+00	 1.978089e-01	 1.398101e+01
 1.667534e+00	 2.161256e-01	 1.398879e+01
 1.665052e+00	 2.344849e-01	 1.399774e+01
 1.662357e+00	 2.528834e-01	 1.400591e+01
 1.659448e+00	 2.713179e-01	 1.401115e+01
 1.679234e+00	 1.803289e-01	 1.392837e+01
 1.677162e+00	 1.986803e-01	 1.393326e+01
 1.674880e+00	 2.170777e-01	 1.394128e+01
 1.672387e+00	 2.355179e-01	 1.395067e+01
 1.669680e+00	 2.539974e-01	 1.395946e+01
 1.666758e+00	 2.725131e-01	 1.396553e+01
 1.686599e+00	 1.811198e-01	 1.388148e+01
 1.684518e+00	 1.995517e-01	 1.388638e+01
 1.682226e+00	 2.180298e-01	 1.389456e+01
 1.679722e+00	 2.365508e-01	 1.390429e+01
 1.677003e+00	 2.551114e-01	 1.391365e+01
 1.674068e+00	 2.737083e-01	 1.392049e+01
 1.693964e+00	 1.819107e-01	 1.383533e+01
 1.691874e+00	 2.004231e-01	 1.384023e+01
 1.689572e+00	 2.189819e-01	 1.384848e+01
 1.687057e+00	 2.375838e-01	 1.385845e+01
 1.684326e+00	 2.562255e-01	 1.386824e+01
 1.681379e+00	 2.749036e-01	 1.387575e+01
 1.644827e+00	 2.689274e-01	 1.410528e+01
 1.641729e+00	 2.872317e-01	 1.410803e+01
 1.638416e+00	 3.055649e-01	 1.411353e+01
 1.634886e+00	 3.239233e-01	 1.412207e+01
 1.631136e+00	 3.423036e-01	 1.413392e+01
 1.627167e+00	 3.607021e-01	 1.414949e+01
 1.652137e+00	 2.701226e-01	 1.405764e+01
 1.649026e+00	 2.885083e-01	 1.406087e+01
 1.645698e+00	 3.069229e-01	 1.406648e+01
 1.642152e+00	 3.253630e-01	 1.407488e+01
 1.638386e+00	 3.438250e-01	 1.408650e+01
 1.634399e+00	 3.623052e-01	 1.410184e+01
 1.659448e+00	 2.713179e-01	 1.401115e+01
 1.656323e+00	 2.897849e-01	 1.401500e+01
 1.652980e+00	 3.082810e-01	 1.402081e+01
 1.649418e+00	 3.268027e-01	 1.402913e+01
 1.645635e+00	 3.453463e-01	 1.404046e+01
 1.641630e+00	 3.639083e-01	 1.405534e+01
 1.666758e+00	 2.725131e-01	 1.396553e+01
 1.663619e+00	 2.910615e-01	 1.397006e+01
 1.660262e+00	 3.096391e-01	 1.397618e+01
 1.656684e+00	 3.282423e-01	 1.398448e+01
 1.652885e+00	 3.468677e-01	 1.399551e+01
 1.648862e+00	 3.655115e-01	 1.400982e+01
 1.674068e+00	 2.737083e-01	 1.392049e+01
 1.670916e+00	 2.923381e-01	 1.392572e+01
 1.667544e+00	 3.109971e-01	 1.393223e+01
 1.663950e+00	 3.296820e-01	 1.394061e+01
 1.660134e+00	 3.483890e-01	 1.395138e+01
 1.656094e+00	 3.671146e-01	 1.396509e+01
 1.681379e+00	 2.749036e-01	 1.387575e+01
 1.678212e+00	 2.936146e-01	 1.388168e+01
 1.674826e+00	 3.123552e-01	 1.388863e+01
 1.671217e+00	 3.311216e-01	 1.389719e+01
 1.667384e+00	 3.499104e-01	 1.390783e+01
 1.663326e+00	 3.687177e-01	 1.392100e+01
 1.627167e+00	 3.607021e-01	 1.414949e+01
 1.622976e+00	 3.791151e-01	 1.415641e+01
 1.618561e+00	 3.975389e-01	 1.415439e+01
 1.613923e+00	 4.159698e-01	 1.415026e+01
 1.609059e+00	 4.344039e-01	 1.414881e+01
 1.603969e+00	 4.528373e-01	 1.415500e+01
 1.634399e+00	 3.623052e-01	 1.410184e+01
 1.630189e+00	 3.808001e-01	 1.410964e+01
 1.625755e+00	 3.993058e-01	 1.410957e+01
 1.621096e+00	 4.178185e-01	 1.410725e+01
 1.616210e+00	 4.363346e-01	 1.410703e+01
 1.611098e+00	 4.548499e-01	 1.411343e+01
 1.641630e+00	 3.639083e-01	 1.405534e+01
 1.637402e+00	 3.824850e-01	 1.406383e+01
 1.632948e+00	 4.010726e-01	 1.406541e+01
 1.628269e+00	 4.196673e-01	 1.406475e+01
 1.623362e+00	 4.382652e-01	 1.406579e+01
 1.618226e+00	 4.568625e-01	 1.407266e+01
 1.648862e+00	 3.655115e-01	 1.400982e+01
 1.644615e+00	 3.841700e-01	 1.401887e+01
 1.640142e+00	 4.028394e-01	 1.402187e+01
 1.635442e+00	 4.215161e-01	 1.402272e+01
 1.630513e+00	 4.401959e-01	 1.402499e+01
 1.625355e+00	 4.588752e-01	 1.403246e+01
 1.656094e+00	 3.671146e-01	 1.396509e+01
 1.651828e+00	 3.858549e-01	 1.397466e+01
 1.647336e+00	 4.046063e-01	 1.397888e+01
 1.642615e+00	 4.233648e-01	 1.398108e+01
 1.637665e+00	 4.421266e-01	 1.398452e+01
 1.632484e+00	 4.608878e-01	 1.399263e+01
 1.663326e+00	 3.687177e-01	 1.392100e+01
 1.659042e+00	 3.875399e-01	 1.393112e+01
 1.654529e+00	 4.063731e-01	 1.393643e+01
 1.649788e+00	 4.252136e-01	 1.393982e+01
 1.644816e+00	 4.440573e-01	 1.394428e+01
 1.639613e+00	 4.629004e-01	 1.395297e+01
 1.603969e+00	 4.528373e-01	 1.415500e+01
 1.598651e+00	 4.712662e-01	 1.416576e+01
 1.593105e+00	 4.896866e-01	 1.417396e+01
 1.587330e+00	 5.080944e-01	 1.417905e+01
 1.581326e+00	 5.264856e-01	 1.418089e+01
 1.575090e+00	 5.448562e-01	 1.417984e+01
 1.611098e+00	 4.548499e-01	 1.411343e+01
 1.605756e+00	 4.733607e-01	 1.412379e+01
 1.600186e+00	 4.918629e-01	 1.413184e+01
 1.594385e+00	 5.103526e-01	 1.413718e+01
 1.588354e+00	 5.288256e-01	 1.413984e+01
 1.582091e+00	 5.472778e-01	 1.414029e+01
 1.618226e+00	 4.568625e-01	 1.407266e+01
 1.612862e+00	 4.754552e-01	 1.408295e+01
 1.607266e+00	 4.940393e-01	 1.409106e+01
 1.601440e+00	 5.126108e-01	 1.409669e+01
 1.595382e+00	 5.311655e-01	 1.409994e+01
 1.589091e+00	 5.496994e-01	 1.410136e+01
 1.625355e+00	 4.588752e-01	 1.403246e+01
 1.619967e+00	 4.775498e-01	 1.404294e+01
 1.614347e+00	 4.962157e-01	 1.405131e+01
 1.608495e+00	 5.148690e-01	 1.405730e+01
 1.602410e+00	 5.335054e-01	 1.406107e+01
 1.596092e+00	 5.521210e-01	 1.406316e+01
 1.632484e+00	 4.608878e-01	 1.399263e+01
 1.627072e+00	 4.796443e-01	 1.400345e+01
 1.621427e+00	 4.983921e-01	 1.401225e+01
 1.615550e+00	 5.171272e-01	 1.401877e+01
 1.609438e+00	 5.358454e-01	 1.402310e+01
 1.603092e+00	 5.545426e-01	 1.402580e+01
 1.639613e+00	 4.629004e-01	 1.395297e+01
 1.634177e+00	 4.817388e-01	 1.396417e+01
 1.628508e+00	 5.005685e-01	 1.397358e+01
 1.622604e+00	 5.193854e-01	 1.398083e+01
 1.616466e+00	 5.381853e-01	 1.398595e+01
 1.610092e+00	 5.569641e-01	 1.398940e+01
 1.575090e+00	 5.448562e-01	 1.417984e+01
 1.568624e+00	 5.632020e-01	 1.417310e+01
 1.561926e+00	 5.815189e-01	 1.416065e+01
 1.554997e+00	 5.998026e-01	 1.414780e+01
 1.547835e+00	 6.180491e-01	 1.414044e+01
 1.540441e+00	 6.362539e-01	 1.414508e+01
 1.582091e+00	 5.472778e-01	 1.414029e+01
 1.575596e+00	 5.657052e-01	 1.413543e+01
 1.568868e+00	 5.841034e-01	 1.412463e+01
 1.561908e+00	 6.024684e-01	 1.411293e+01
 1.554714e+00	 6.207959e-01	 1.410595e+01
 1.547288e+00	 6.390817e-01	 1.410998e+01
 1.589091e+00	 5.496994e-01	 1.410136e+01
 1.582567e+00	 5.682083e-01	 1.409776e+01
 1.575810e+00	 5.866880e-01	 1.408823e+01
 1.568819e+00	 6.051342e-01	 1.407759e+01
 1.561594e+00	 6.235428e-01	 1.407127e+01
 1.554134e+00	 6.419095e-01	 1.407539e+01
 1.596092e+00	 5.521210e-01	 1.406316e+01
 1.589539e+00	 5.707114e-01	 1.406041e+01
 1.582752e+00	 5.892725e-01	 1.405185e+01
 1.575730e+00	 6.078000e-01	 1.404214e+01
 1.568473e+00	 6.262897e-01	 1.403659e+01
 1.560980e+00	 6.447373e-01	 1.404119e+01
 1.603092e+00	 5.545426e-01	 1.402580e+01
 1.596511e+00	 5.732145e-01	 1.402372e+01
 1.589694e+00	 5.918570e-01	 1.401589e+01
 1.582641e+00	 6.104658e-01	 1.400693e+01
 1.575352e+00	 6.290366e-01	 1.400208e+01
 1.567827e+00	 6.475651e-01	 1.400728e+01
 1.610092e+00	 5.569641e-01	 1.398940e+01
 1.603482e+00	 5.757176e-01	 1.398798e+01
 1.596636e+00	 5.944415e-01	 1.398074e+01
 1.589552e+00	 6.131316e-01	 1.397232e+01
 1.582231e+00	 6.317835e-01	 1.396795e+01
 1.574673e+00	 6.503929e-01	 1.397353e+01
 1.540441e+00	 6.362539e-01	 1.414508e+01
 1.532815e+00	 6.544129e-01	 1.414440e+01
 1.524956e+00	 6.725217e-01	 1.412217e+01
 1.516866e+00	 6.905761e-01	 1.408784e+01
 1.508544e+00	 7.085718e-01	 1.405201e+01
 1.499990e+00	 7.265044e-01	 1.402649e+01
 1.547288e+00	 6.390817e-01	 1.410998e+01
 1.539627e+00	 6.573214e-01	 1.410869e+01
 1.531734e+00	 6.755107e-01	 1.408701e+01
 1.523608e+00	 6.936454e-01	 1.405441e+01
 1.515248e+00	 7.117210e-01	 1.402142e+01
 1.506656e+00	 7.297333e-01	 1.399973e+01
 1.554134e+00	 6.419095e-01	 1.407539e+01
 1.546440e+00	 6.602299e-01	 1.407426e+01
 1.538512e+00	 6.784997e-01	 1.405352e+01
 1.530349e+00	 6.967146e-01	 1.402252e+01
 1.521953e+00	 7.148702e-01	 1.399168e+01
 1.513323e+00	 7.329622e-01	 1.397250e+01
 1.560980e+00	 6.447373e-01	 1.404119e+01
 1.553252e+00	 6.631384e-01	 1.404073e+01
 1.545289e+00	 6.814887e-01	 1.402123e+01
 1.537091e+00	 6.997838e-01	 1.399187e+01
 1.528658e+00	 7.180194e-01	 1.396285e+01
 1.519990e+00	 7.361911e-01	 1.394542e+01
 1.567827e+00	 6.475651e-01	 1.400728e+01
 1.560065e+00	 6.660469e-01	 1.400772e+01
 1.552067e+00	 6.844777e-01	 1.398973e+01
 1.543832e+00	 7.028530e-01	 1.396218e+01
 1.535362e+00	 7.211686e-01	 1.393499e+01
 1.526656e+00	 7.394201e-01	 1.391912e+01
 1.574673e+00	 6.503929e-01	 1.397353e+01
 1.566877e+00	 6.689554e-01	 1.397486e+01
 1.558844e+00	 6.874666e-01	 1.395859e+01
 1.550574e+00	 7.059223e-01	 1.393318e+01
 1.542067e+00	 7.243179e-01	 1.390817e+01
 1.533323e+00	 7.426490e-01	 1.389400e+01
 1.499990e+00	 7.265044e-01	 1.402649e+01
 1.491205e+00	 7.443696e-01	 1.402103e+01
 1.482189e+00	 7.621631e-01	 1.400633e+01
 1.472944e+00	 7.798804e-01	 1.397439e+01
 1.463470e+00	 7.975173e-01	 1.393479e+01
 1.453767e+00	 8.150695e-01	 1.388485e+01
 1.506656e+00	 7.297333e-01	 1.399973e+01
 1.497832e+00	 7.476779e-01	 1.399734e+01
 1.488777e+00	 7.655504e-01	 1.398261e+01
 1.479491e+00	 7.833465e-01	 1.394731e+01
 1.469974e+00	 8.010618e-01	 1.390413e+01
 1.460229e+00	 8.186920e-01	 1.385656e+01
 1.513323e+00	 7.329622e-01	 1.397250e+01
 1.504460e+00	 7.509862e-01	 1.397002e+01
 1.495364e+00	 7.689378e-01	 1.395437e+01
 1.486037e+00	 7.868127e-01	 1.392178e+01
 1.476478e+00	 8.046064e-01	 1.387554e+01
 1.466690e+00	 8.223145e-01	 1.382876e+01
 1.519990e+00	 7.361911e-01	 1.394542e+01
 1.511087e+00	 7.542945e-01	 1.394057e+01
 1.501952e+00	 7.723252e-01	 1.392342e+01
 1.492583e+00	 7.902788e-01	 1.389322e+01
 1.482983e+00	 8.081509e-01	 1.385074e+01
 1.473151e+00	 8.259371e-01	 1.380308e+01
 1.526656e+00	 7.394201e-01	 1.391912e+01
 1.517715e+00	 7.576029e-01	 1.391042e+01
 1.508539e+00	 7.757126e-01	 1.389150e+01
 1.499130e+00	 7.937449e-01	 1.386304e+01
 1.489487e+00	 8.116954e-01	 1.382589e+01
 1.479612e+00	 8.295596e-01	 1.378111e+01
 1.533323e+00	 7.426490e-01	 1.389400e+01
 1.524343e+00	 7.609112e-01	 1.388099e+01
 1.515127e+00	 7.791000e-01	 1.386030e+01
 1.505676e+00	 7.972111e-01	 1.383302e+01
 1.495991e+00	 8.152399e-01	 1.380014e+01
 1.486073e+00	 8.331821e-01	 1.376248e+01
 1.453767e+00	 8.150695e-01	 1.388485e+01
 1.443838e+00	 8.325325e-01	 1.383493e+01
 1.433682e+00	 8.499021e-01	 1.379348e+01
 1.423301e+00	 8.671740e-01	 1.375279e+01
 1.412697e+00	 8.843438e-01	 1.370337e+01
 1.401871e+00	 9.014074e-01	 1.363421e+01
 1.460229e+00	 8.186920e-01	 1.385656e+01
 1.450255e+00	 8.362326e-01	 1.381105e+01
 1.440054e+00	 8.536794e-01	 1.377244e+01
 1.429627e+00	 8.710281e-01	 1.373345e+01
 1.418976e+00	 8.882742e-01	 1.368507e+01
 1.408102e+00	 9.054136e-01	 1.361668e+01
 1.466690e+00	 8.223145e-01	 1.382876e+01
 1.456672e+00	 8.399328e-01	 1.378651e+01
 1.446426e+00	 8.574568e-01	 1.375012e+01
 1.435953e+00	 8.748822e-01	 1.371266e+01
 1.425255e+00	 8.922047e-01	 1.366543e+01
 1.414332e+00	 9.094199e-01	 1.359813e+01
 1.473151e+00	 8.259371e-01	 1.380308e+01
 1.463089e+00	 8.436329e-01	 1.376252e+01
 1.452798e+00	 8.612341e-01	 1.372741e+01
 1.442279e+00	 8.787363e-01	 1.369104e+01
 1.431533e+00	 8.961351e-01	 1.364492e+01
 1.420563e+00	 9.134262e-01	 1.357898e+01
 1.479612e+00	 8.295596e-01	 1.378111e+01
 1.469506e+00	 8.473331e-01	 1.374027e+01
 1.459170e+00	 8.650115e-01	 1.370518e+01
 1.448605e+00	 8.825904e-01	 1.366922e+01
 1.437812e+00	 9.000655e-01	 1.362404e+01
 1.426793e+00	 9.174324e-01	 1.355967e+01
 1.486073e+00	 8.331821e-01	 1.376248e+01
 1.475923e+00	 8.510332e-01	 1.372095e+01
 1.465542e+00	 8.687888e-01	 1.368429e+01
 1.454930e+00	 8.864445e-01	 1.364785e+01
 1.444091e+00	 9.039959e-01	 1.360328e+01
 1.433024e+00	 9.214387e-01	 1.354064e+01
 1.401871e+00	 9.014074e-01	 1.363421e+01
 1.390824e+00	 9.183604e-01	 1.356630e+01
 1.379558e+00	 9.351987e-01	 1.351692e+01
 1.368075e+00	 9.519180e-01	 1.346778e+01
 1.356377e+00	 9.685143e-01	 1.340006e+01
 1.344465e+00	 9.849834e-01	 1.329477e+01
 1.408102e+00	 9.054136e-01	 1.361668e+01
 1.397006e+00	 9.224420e-01	 1.354971e+01
 1.385690e+00	 9.393551e-01	 1.350144e+01
 1.374156e+00	 9.561488e-01	 1.345330e+01
 1.362405e+00	 9.728188e-01	 1.338613e+01
 1.350440e+00	 9.893611e-01	 1.328052e+01
 1.414332e+00	 9.094199e-01	 1.359813e+01
 1.403187e+00	 9.265236e-01	 1.353230e+01
 1.391821e+00	 9.435116e-01	 1.348508e+01
 1.380236e+00	 9.603795e-01	 1.343778e+01
 1.368433e+00	 9.771233e-01	 1.337104e+01
 1.356416e+00	 9.937388e-01	 1.326518e+01
 1.420563e+00	 9.134262e-01	 1.357898e+01
 1.409369e+00	 9.306052e-01	 1.351451e+01
 1.397952e+00	 9.476680e-01	 1.346833e+01
 1.386316e+00	 9.646103e-01	 1.342177e+01
 1.374462e+00	 9.814278e-01	 1.335544e+01
 1.362391e+00	 9.981165e-01	 1.324956e+01
 1.426793e+00	 9.174324e-01	 1.355967e+01
 1.415550e+00	 9.346868e-01	 1.349679e+01
 1.404084e+00	 9.518245e-01	 1.345167e+01
 1.392397e+00	 9.688410e-01	 1.340584e+01
 1.380490e+00	 9.857323e-01	 1.334000e+01
 1.368366e+00	 1.002494e+00	 1.323442e+01
 1.433024e+00	 9.214387e-01	 1.354064e+01
 1.421731e+00	 9.387684e-01	 1.347957e+01
 1.410215e+00	 9.559809e-01	 1.343558e+01
 1.398477e+00	 9.730718e-01	 1.339053e+01
 1.386518e+00	 9.900368e-01	 1.332537e+01
 1.374342e+00	 1.006872e+00	 1.322055e+01
 1.344465e+00	 9.849834e-01	 1.329477e+01
 1.332341e+00	 1.001321e+00	 1.317906e+01
 1.320009e+00	 1.017524e+00	 1.308627e+01
 1.307469e+00	 1.033587e+00	 1.300794e+01
 1.294725e+00	 1.049507e+00	 1.293767e+01
 1.281779e+00	 1.065280e+00	 1.287155e+01
 1.350440e+00	 9.893611e-01	 1.328052e+01
 1.338263e+00	 1.005771e+00	 1.316516e+01
 1.325876e+00	 1.022046e+00	 1.307483e+01
 1.313280e+00	 1.038180e+00	 1.300045e+01
 1.300480e+00	 1.054171e+00	 1.293493e+01
 1.287476e+00	 1.070014e+00	 1.287364e+01
 1.356416e+00	 9.937388e-01	 1.326518e+01
 1.344184e+00	 1.010222e+00	 1.315048e+01
 1.331742e+00	 1.026568e+00	 1.306291e+01
 1.319091e+00	 1.042774e+00	 1.299251e+01
 1.306234e+00	 1.058836e+00	 1.293125e+01
 1.293173e+00	 1.074749e+00	 1.287353e+01
 1.362391e+00	 9.981165e-01	 1.324956e+01
 1.350106e+00	 1.014672e+00	 1.313591e+01
 1.337609e+00	 1.031091e+00	 1.305140e+01
 1.324902e+00	 1.047368e+00	 1.298495e+01
 1.311988e+00	 1.063500e+00	 1.292735e+01
 1.298869e+00	 1.079483e+00	 1.287175e+01
 1.368366e+00	 1.002494e+00	 1.323442e+01
 1.356028e+00	 1.019122e+00	 1.312233e+01
 1.343476e+00	 1.035613e+00	 1.304122e+01
 1.330713e+00	 1.051962e+00	 1.297864e+01
 1.317743e+00	 1.068165e+00	 1.292396e+01
 1.304566e+00	 1.084218e+00	 1.286881e+01
 1.374342e+00	 1.006872e+00	 1.322055e+01
 1.361949e+00	 1.023573e+00	 1.311061e+01
 1.349342e+00	 1.040135e+00	 1.303324e+01
 1.336524e+00	 1.056555e+00	 1.297442e+01
 1.323497e+00	 1.072829e+00	 1.292180e+01
 1.310263e+00	 1.088952e+00	 1.286526e+01
 1.281779e+00	 1.065280e+00	 1.287155e+01
 1.268633e+00	 1.080901e+00	 1.279101e+01
 1.255290e+00	 1.096369e+00	 1.266941e+01
 1.241753e+00	 1.111678e+00	 1.249526e+01
 1.228025e+00	 1.126824e+00	 1.232819e+01
 1.214108e+00	 1.141806e+00	 1.222117e+01
 1.287476e+00	 1.070014e+00	 1.287364e+01
 1.274271e+00	 1.085705e+00	 1.279325e+01
 1.260869e+00	 1.101241e+00	 1.266266e+01
 1.247272e+00	 1.116618e+00	 1.247827e+01
 1.233483e+00	 1.131832e+00	 1.232520e+01
 1.219504e+00	 1.146880e+00	 1.222417e+01
 1.293173e+00	 1.074749e+00	 1.287353e+01
 1.279910e+00	 1.090510e+00	 1.279124e+01
 1.266448e+00	 1.106114e+00	 1.264913e+01
 1.252791e+00	 1.121559e+00	 1.246487e+01
 1.238940e+00	 1.136841e+00	 1.232339e+01
 1.224900e+00	 1.151955e+00	 1.222651e+01
 1.298869e+00	 1.079483e+00	 1.287175e+01
 1.285548e+00	 1.095314e+00	 1.278532e+01
 1.272027e+00	 1.110987e+00	 1.262914e+01
 1.258310e+00	 1.126500e+00	 1.245513e+01
 1.244398e+00	 1.141849e+00	 1.232301e+01
 1.230296e+00	 1.157030e+00	 1.222869e+01
 1.304566e+00	 1.084218e+00	 1.286881e+01
 1.291186e+00	 1.100118e+00	 1.277587e+01
 1.277606e+00	 1.115860e+00	 1.260884e+01
 1.263829e+00	 1.131441e+00	 1.244912e+01
 1.249856e+00	 1.146857e+00	 1.232427e+01
 1.235692e+00	 1.162104e+00	 1.223118e+01
 1.310263e+00	 1.088952e+00	 1.286526e+01
 1.296825e+00	 1.104922e+00	 1.276324e+01
 1.283186e+00	 1.120732e+00	 1.259476e+01
 1.269348e+00	 1.136381e+00	 1.244682e+01
 1.255314e+00	 1.151865e+00	 1.232732e+01
 1.241088e+00	 1.167179e+00	 1.223438e+01
 1.214108e+00	 1.141806e+00	 1.222117e+01
 1.200006e+00	 1.156618e+00	 1.212373e+01
 1.185721e+00	 1.171257e+00	 1.199903e+01
 1.171257e+00	 1.185721e+00	 1.186175e+01
 1.156618e+00	 1.200006e+00	 1.172642e+01
 1.141806e+00	 1.214108e+00	 1.160722e+01
 1.219504e+00	 1.146880e+00	 1.222417e+01
 1.205339e+00	 1.161758e+00	 1.212883e+01
 1.190991e+00	 1.176463e+00	 1.200603e+01
 1.176463e+00	 1.190991e+00	 1.187002e+01
 1.161758e+00	 1.205339e+00	 1.173490e+01
 1.146880e+00	 1.219504e+00	 1.161440e+01
 1.224900e+00	 1.151955e+00	 1.222651e+01
 1.210672e+00	 1.166899e+00	 1.213206e+01
 1.196261e+00	 1.181668e+00	 1.201046e+01
 1.181668e+00	 1.196261e+00	 1.187543e+01
 1.166899e+00	 1.210672e+00	 1.174047e+01
 1.151955e+00	 1.224900e+00	 1.161872e+01
 1.230296e+00	 1.157030e+00	 1.222869e+01
 1.216006e+00	 1.172039e+00	 1.213423e+01
 1.201531e+00	 1.186874e+00	 1.201339e+01
 1.186874e+00	 1.201531e+00	 1.187918e+01
 1.172039e+00	 1.216006e+00	 1.174445e+01
 1.157030e+00	 1.230296e+00	 1.162156e+01
 1.235692e+00	 1.162104e+00	 1.223118e+01
 1.221339e+00	 1.177180e+00	 1.213609e+01
 1.206800e+00	 1.192080e+00	 1.201576e+01
 1.192080e+00	 1.206800e+00	 1.188242e+01
 1.177180e+00	 1.221339e+00	 1.174808e+01
 1.162104e+00	 1.235692e+00	 1.162425e+01
 1.241088e+00	 1.167179e+00	 1.223438e+01
 1.226672e+00	 1.182320e+00	 1.213831e+01
 1.212070e+00	 1.197285e+00	 1.201848e+01
 1.197285e+00	 1.212070e+00	 1.188621e+01
 1.182320e+00	 1.226672e+00	 1.175256e+01
 1.167179e+00	 1.241088e+00	 1.162803e+01
 1.141806e+00	 1.214108e+00	 1.160722e+01
 1.126824e+00	 1.228025e+00	 1.147194e+01
 1.111678e+00	 1.241753e+00	 1.129529e+01
 1.096369e+00	 1.255290e+00	 1.110444e+01
 1.080901e+00	 1.268633e+00	 1.092208e+01
 1.065280e+00	 1.281779e+00	 1.076187e+01
 1.146880e+00	 1.219504e+00	 1.161440e+01
 1.131832e+00	 1.233483e+00	 1.147790e+01
 1.116618e+00	 1.247272e+00	 1.130175e+01
 1.101241e+00	 1.260869e+00	 1.111087e+01
 1.085705e+00	 1.274271e+00	 1.093051e+01
 1.070014e+00	 1.287476e+00	 1.077454e+01
 1.151955e+00	 1.224900e+00	 1.161872e+01
 1.136841e+00	 1.238940e+00	 1.148106e+01
 1.121559e+00	 1.252791e+00	 1.130541e+01
 1.106114e+00	 1.266448e+00	 1.111504e+01
 1.090510e+00	 1.279910e+00	 1.093613e+01
 1.074749e+00	 1.293173e+00	 1.078394e+01
 1.157030e+00	 1.230296e+00	 1.162156e+01
 1.141849e+00	 1.244398e+00	 1.148282e+01
 1.126500e+00	 1.258310e+00	 1.130775e+01
 1.110987e+00	 1.272027e+00	 1.111869e+01
 1.095314e+00	 1.285548e+00	 1.094071e+01
 1.079483e+00	 1.298869e+00	 1.079191e+01
 1.162104e+00	 1.235692e+00	 1.162425e+01
 1.146857e+00	 1.249856e+00	 1.148457e+01
 1.131441e+00	 1.263829e+00	 1.131021e+01
 1.115860e+00	 1.277606e+00	 1.112304e+01
 1.100118e+00	 1.291186e+00	 1.094599e+01
 1.084218e+00	 1.304566e+00	 1.080023e+01
 1.167179e+00	 1.241088e+00	 1.162803e+01
 1.151865e+00	 1.255314e+00	 1.148757e+01
 1.136381e+00	 1.269348e+00	 1.131412e+01
 1.120732e+00	 1.283186e+00	 1.112908e+01
 1.104922e+00	 1.296825e+00	 1.095365e+01
 1.088952e+00	 1.310263e+00	 1.081067e+01
 1.065280e+00	 1.281779e+00	 1.076187e+01
 1.049507e+00	 1.294725e+00	 1.061848e+01
 1.033587e+00	 1.307469e+00	 1.047504e+01
 1.017524e+00	 1.320009e+00	 1.032312e+01
 1.001321e+00	 1.332341e+00	 1.015175e+01
 9.849834e-01	 1.344465e+00	 9.947941e+00
 1.070014e+00	 1.287476e+00	 1.077454e+01
 1.054171e+00	 1.300480e+00	 1.063510e+01
 1.038180e+00	 1.313280e+00	 1.049352e+01
 1.022046e+00	 1.325876e+00	 1.034199e+01
 1.005771e+00	 1.338263e+00	 1.017016e+01
 9.893611e-01	 1.350440e+00	 9.965652e+00
 1.074749e+00	 1.293173e+00	 1.078394e+01
 1.058836e+00	 1.306234e+00	 1.064828e+01
 1.042774e+00	 1.319091e+00	 1.050875e+01
 1.026568e+00	 1.331742e+00	 1.035799e+01
 1.010222e+00	 1.344184e+00	 1.018610e+01
 9.937388e-01	 1.356416e+00	 9.981113e+00
 1.079483e+00	 1.298869e+00	 1.079191e+01
 1.063500e+00	 1.311988e+00	 1.065989e+01
 1.047368e+00	 1.324902e+00	 1.052257e+01
 1.031091e+00	 1.337609e+00	 1.037289e+01
 1.014672e+00	 1.350106e+00	 1.020118e+01
 9.981165e-01	 1.362391e+00	 9.995734e+00
 1.084218e+00	 1.304566e+00	 1.080023e+01
 1.068165e+00	 1.317743e+00	 1.067176e+01
 1.051962e+00	 1.330713e+00	 1.053679e+01
 1.035613e+00	 1.343476e+00	 1.038838e+01
 1.019122e+00	 1.356028e+00	 1.021697e+01
 1.002494e+00	 1.368366e+00	 1.001090e+01
 1.088952e+00	 1.310263e+00	 1.081067e+01
 1.072829e+00	 1.323497e+00	 1.068568e+01
 1.056555e+00	 1.336524e+00	 1.055317e+01
 1.040135e+00	 1.349342e+00	 1.040616e+01
 1.023573e+00	 1.361949e+00	 1.023502e+01
 1.006872e+00	 1.374342e+00	 1.002796e+01
 9.849834e-01	 1.344465e+00	 9.947941e+00
 9.685143e-01	 1.356377e+00	 9.745586e+00
 9.519180e-01	 1.368075e+00	 9.575782e+00
 9.351987e-01	 1.379558e+00	 9.419725e+00
 9.183604e-01	 1.390824e+00	 9.258456e+00
 9.014074e-01	 1.401871e+00	 9.073308e+00
 9.893611e-01	 1.350440e+00	 9.965652e+00
 9.728188e-01	 1.362405e+00	 9.762878e+00
 9.561488e-01	 1.374156e+00	 9.593044e+00
 9.393551e-01	 1.385690e+00	 9.437316e+00
 9.224420e-01	 1.397006e+00	 9.276723e+00
 9.054136e-01	 1.408102e+00	 9.092620e+00
 9.937388e-01	 1.356416e+00	 9.981113e+00
 9.771233e-01	 1.368433e+00	 9.777779e+00
 9.603795e-01	 1.380236e+00	 9.607512e+00
 9.435116e-01	 1.391821e+00	 9.451738e+00
 9.265236e-01	 1.403187e+00	 9.291780e+00
 9.094199e-01	 1.414332e+00	 9.109332e+00
 9.981165e-01	 1.362391e+00	 9.995734e+00
 9.814278e-01	 1.374462e+00	 9.791531e+00
 9.646103e-01	 1.386316e+00	 9.620387e+00
 9.476680e-01	 1.397952e+00	 9.464269e+00
 9.306052e-01	 1.409369e+00	 9.305094e+00
 9.134262e-01	 1.420563e+00	 9.125210e+00
 1.002494e+00	 1.368366e+00	 1.001090e+01
 9.857323e-01	 1.380490e+00	 9.805358e+00
 9.688410e-01	 1.392397e+00	 9.632854e+00
 9.518245e-01	 1.404084e+00	 9.476173e+00
 9.346868e-01	 1.415550e+00	 9.318120e+00
 9.174324e-01	 1.426793e+00	 9.142008e+00
 1.006872e+00	 1.374342e+00	 1.002796e+01
 9.900368e-01	 1.386518e+00	 9.820464e+00
 9.730718e-01	 1.398477e+00	 9.646083e+00
 9.559809e-01	 1.410215e+00	 9.488702e+00
 9.387684e-01	 1.421731e+00	 9.332301e+00
 9.214387e-01	 1.433024e+00	 9.161462e+00
 9.014074e-01	 1.401871e+00	 9.073308e+00
 8.843438e-01	 1.412697e+00	 8.872735e+00
 8.671740e-01	 1.423301e+00	 8.675747e+00
 8.499021e-01	 1.433682e+00	 8.481477e+00
 8.325325e-01	 1.443838e+00	 8.291270e+00
 8.150695e-01	 1.453767e+00	 8.108957e+00
 9.054136e-01	 1.408102e+00	 9.092620e+00
 8.882742e-01	 1.418976e+00	 8.895240e+00
 8.710281e-01	 1.429627e+00	 8.704108e+00
 8.536794e-01	 1.440054e+00	 8.516534e+00
 8.362326e-01	 1.450255e+00	 8.332087e+00
 8.186920e-01	 1.460229e+00	 8.152881e+00
 9.094199e-01	 1.414332e+00	 9.109332e+00
 8.922047e-01	 1.425255e+00	 8.916249e+00
 8.748822e-01	 1.435953e+00	 8.731546e+00
 8.574568e-01	 1.446426e+00	 8.549722e+00
 8.399328e-01	 1.456672e+00	 8.367558e+00
 8.223145e-01	 1.466690e+00	 8.184412e+00
 9.134262e-01	 1.420563e+00	 9.125210e+00
 8.961351e-01	 1.431533e+00	 8.937740e+00
 8.787363e-01	 1.442279e+00	 8.759980e+00
 8.612341e-01	 1.452798e+00	 8.582642e+00
 8.436329e-01	 1.463089e+00	 8.398717e+00
 8.259371e-01	 1.473151e+00	 8.203785e+00
 9.174324e-01	 1.426793e+00	 9.142008e+00
 9.000655e-01	 1.437812e+00	 8.961678e+00
 8.825904e-01	 1.448605e+00	 8.791317e+00
 8.650115e-01	 1.459170e+00	 8.616889e+00
 8.473331e-01	 1.469506e+00	 8.426605e+00
 8.295596e-01	 1.479612e+00	 8.211257e+00
 9.214387e-01	 1.433024e+00	 9.161462e+00
 9.039959e-01	 1.444091e+00	 8.990008e+00
 8.864445e-01	 1.454930e+00	 8.827452e+00
 8.687888e-01	 1.465542e+00	 8.654056e+00
 8.510332e-01	 1.475923e+00	 8.452274e+00
 8.331821e-01	 1.486073e+00	 8.219655e+00
 8.150695e-01	 1.453767e+00	 8.108957e+00
 7.975173e-01	 1.463470e+00	 7.951141e+00
 7.798804e-01	 1.472944e+00	 7.798568e+00
 7.621631e-01	 1.482189e+00	 7.605126e+00
 7.443696e-01	 1.491205e+00	 7.398759e+00
 7.265044e-01	 1.499990e+00	 7.194563e+00
 8.186920e-01	 1.460229e+00	 8.152881e+00
 8.010618e-01	 1.469974e+00	 7.987704e+00
 7.833465e-01	 1.479491e+00	 7.809986e+00
 7.655504e-01	 1.488777e+00	 7.611543e+00
 7.476779e-01	 1.497832e+00	 7.435746e+00
 7.297333e-01	 1.506656e+00	 7.248190e+00
 8.223145e-01	 1.466690e+00	 8.184412e+00
 8.046064e-01	 1.476478e+00	 8.000842e+00
 7.868127e-01	 1.486037e+00	 7.798810e+00
 7.689378e-01	 1.495364e+00	 7.629303e+00
 7.509862e-01	 1.504460e+00	 7.473377e+00
 7.329622e-01	 1.513323e+00	 7.294898e+00
 8.259371e-01	 1.473151e+00	 8.203785e+00
 8.081509e-01	 1.482983e+00	 7.991558e+00
 7.902788e-01	 1.492583e+00	 7.805694e+00
 7.723252e-01	 1.501952e+00	 7.656067e+00
 7.542945e-01	 1.511087e+00	 7.509866e+00
 7.361911e-01	 1.519990e+00	 7.333785e+00
 8.295596e-01	 1.479612e+00	 8.211257e+00
 8.116954e-01	 1.489487e+00	 7.996123e+00
 7.937449e-01	 1.499130e+00	 7.830919e+00
 7.757126e-01	 1.508539e+00	 7.689518e+00
 7.576029e-01	 1.517715e+00	 7.543444e+00
 7.394201e-01	 1.526656e+00	 7.363943e+00
 8.331821e-01	 1.486073e+00	 8.219655e+00
 8.152399e-01	 1.495991e+00	 8.028693e+00
 7.972111e-01	 1.505676e+00	 7.872020e+00
 7.791000e-01	 1.515127e+00	 7.727366e+00
 7.609112e-01	 1.524343e+00	 7.572359e+00
 7.426490e-01	 1.533323e+00	 7.384488e+00
 7.265044e-01	 1.499990e+00	 7.194563e+00
 7.085718e-01	 1.508544e+00	 6.992065e+00
 6.905761e-01	 1.516866e+00	 6.810531e+00
 6.725217e-01	 1.524956e+00	 6.645055e+00
 6.544129e-01	 1.532815e+00	 6.491293e+00
 6.362539e-01	 1.540441e+00	 6.345260e+00
 7.297333e-01	 1.506656e+00	 7.248190e+00
 7.117210e-01	 1.515248e+00	 7.048797e+00
 6.936454e-01	 1.523608e+00	 6.861798e+00
 6.755107e-01	 1.531734e+00	 6.686145e+00
 6.573214e-01	 1.539627e+00	 6.521392e+00
 6.390817e-01	 1.547288e+00	 6.367483e+00
 7.329622e-01	 1.513323e+00	 7.294898e+00
 7.148702e-01	 1.521953e+00	 7.096061e+00
 6.967146e-01	 1.530349e+00	 6.905044e+00
 6.784997e-01	 1.538512e+00	 6.723047e+00
 6.602299e-01	 1.546440e+00	 6.551884e+00
 6.419095e-01	 1.554134e+00	 6.393769e+00
 7.361911e-01	 1.519990e+00	 7.333785e+00
 7.180194e-01	 1.528658e+00	 7.133877e+00
 6.997838e-01	 1.537091e+00	 6.940852e+00
 6.814887e-01	 1.545289e+00	 6.756575e+00
 6.631384e-01	 1.553252e+00	 6.583510e+00
 6.447373e-01	 1.560980e+00	 6.424493e+00
 7.394201e-01	 1.526656e+00	 7.363943e+00
 7.211686e-01	 1.535362e+00	 7.162239e+00
 7.028530e-01	 1.543832e+00	 6.969770e+00
 6.844777e-01	 1.552067e+00	 6.787509e+00
 6.660469e-01	 1.560065e+00	 6.616973e+00
 6.475651e-01	 1.567827e+00	 6.460003e+00
 7.426490e-01	 1.533323e+00	 7.384488e+00
 7.243179e-01	 1.542067e+00	 7.181116e+00
 7.059223e-01	 1.550574e+00	 6.992314e+00
 6.874666e-01	 1.558844e+00	 6.816588e+00
 6.689554e-01	 1.566877e+00	 6.652939e+00
 6.503929e-01	 1.574673e+00	 6.500617e+00
 6.362539e-01	 1.540441e+00	 6.345260e+00
 6.180491e-01	 1.547835e+00	 6.184750e+00
 5.998026e-01	 1.554997e+00	 5.999652e+00
 5.815189e-01	 1.561926e+00	 5.804268e+00
 5.632020e-01	 1.568624e+00	 5.612761e+00
 5.448562e-01	 1.575090e+00	 5.439024e+00
 6.390817e-01	 1.547288e+00	 6.367483e+00
 6.207959e-01	 1.554714e+00	 6.205886e+00
 6.024684e-01	 1.561908e+00	 6.025772e+00
 5.841034e-01	 1.568868e+00	 5.838770e+00
 5.657052e-01	 1.575596e+00	 5.656314e+00
 5.472778e-01	 1.582091e+00	 5.489527e+00
 6.419095e-01	 1.554134e+00	 6.393769e+00
 6.235428e-01	 1.561594e+00	 6.232198e+00
 6.051342e-01	 1.568819e+00	 6.055767e+00
 5.866880e-01	 1.575810e+00	 5.874420e+00
 5.682083e-01	 1.582567e+00	 5.697871e+00
 5.496994e-01	 1.589091e+00	 5.535491e+00
 6.447373e-01	 1.560980e+00	 6.424493e+00
 6.262897e-01	 1.568473e+00	 6.263675e+00
 6.078000e-01	 1.575730e+00	 6.089443e+00
 5.892725e-01	 1.582752e+00	 5.911039e+00
 5.707114e-01	 1.589539e+00	 5.737451e+00
 5.521210e-01	 1.596092e+00	 5.577294e+00
 6.475651e-01	 1.567827e+00	 6.460003e+00
 6.290366e-01	 1.575352e+00	 6.300280e+00
 6.104658e-01	 1.582641e+00	 6.126587e+00
 5.918570e-01	 1.589694e+00	 5.948432e+00
 5.732145e-01	 1.596511e+00	 5.775048e+00
 5.545426e-01	 1.603092e+00	 5.615290e+00
 6.503929e-01	 1.574673e+00	 6.500617e+00
 6.317835e-01	 1.582231e+00	 6.341956e+00
 6.131316e-01	 1.589552e+00	 6.166970e+00
 5.944415e-01	 1.596636e+00	 5.986381e+00
 5.757176e-01	 1.603482e+00	 5.810638e+00
 5.569641e-01	 1.610092e+00	 5.649806e+00
 5.448562e-01	 1.575090e+00	 5.439024e+00
 5.264856e-01	 1.581326e+00	 5.289850e+00
 5.080944e-01	 1.587330e+00	 5.157489e+00
 4.896866e-01	 1.593105e+00	 5.033342e+00
 4.712662e-01	 1.598651e+00	 4.908259e+00
 4.528373e-01	 1.603969e+00	 4.772543e+00
 5.472778e-01	 1.582091e+00	 5.489527e+00
 5.288256e-01	 1.588354e+00	 5.342231e+00
 5.103526e-01	 1.594385e+00	 5.206984e+00
 4.918629e-01	 1.600186e+00	 5.077307e+00
 4.733607e-01	 1.605756e+00	 4.946165e+00
 4.548499e-01	 1.611098e+00	 4.805977e+00
 5.496994e-01	 1.589091e+00	 5.535491e+00
 5.311655e-01	 1.595382e+00	 5.389152e+00
 5.126108e-01	 1.601440e+00	 5.251657e+00
 4.940393e-01	 1.607266e+00	 5.118027e+00
 4.754552e-01	 1.612862e+00	 4.982720e+00
 4.568625e-01	 1.618226e+00	 4.839635e+00
 5.521210e-01	 1.596092e+00	 5.577294e+00
 5.335054e-01	 1.602410e+00	 5.431366e+00
 5.148690e-01	 1.608495e+00	 5.292510e+00
 4.962157e-01	 1.614347e+00	 5.156638e+00
 4.775498e-01	 1.619967e+00	 5.019081e+00
 4.588752e-01	 1.625355e+00	 4.874592e+00
 5.545426e-01	 1.603092e+00	 5.615290e+00
 5.358454e-01	 1.609438e+00	 5.469598e+00
 5.171272e-01	 1.615550e+00	 5.330514e+00
 4.983921e-01	 1.621427e+00	 5.194241e+00
 4.796443e-01	 1.627072e+00	 5.056370e+00
 4.608878e-01	 1.632484e+00	 4.911893e+00
 5.569641e-01	 1.610092e+00	 5.649806e+00
 5.381853e-01	 1.616466e+00	 5.504538e+00
 5.193854e-01	 1.622604e+00	 5.366603e+00
 5.005685e-01	 1.628508e+00	 5.231900e+00
 4.817388e-01	 1.634177e+00	 5.095677e+00
 4.629004e-01	 1.639613e+00	 4.952552e+00
 4.528373e-01	 1.603969e+00	 4.772543e+00
 4.344039e-01	 1.609059e+00	 4.608756e+00
 4.159698e-01	 1.613923e+00	 4.426326e+00
 3.975389e-01	 1.618561e+00	 4.254993e+00
 3.791151e-01	 1.622976e+00	 4.123862e+00
 3.607021e-01	 1.627167e+00	 4.055765e+00
 4.548499e-01	 1.611098e+00	 4.805977e+00
 4.363346e-01	 1.616210e+00	 4.642151e+00
 4.178185e-01	 1.621096e+00	 4.463714e+00
 3.993058e-01	 1.625755e+00	 4.297645e+00
 3.808001e-01	 1.630189e+00	 4.170302e+00
 3.623052e-01	 1.634399e+00	 4.103660e+00
 4.568625e-01	 1.618226e+00	 4.839635e+00
 4.382652e-01	 1.623362e+00	 4.676336e+00
 4.196673e-01	 1.628269e+00	 4.501441e+00
 4.010726e-01	 1.632948e+00	 4.339568e+00
 3.824850e-01	 1.637402e+00	 4.214723e+00
 3.639083e-01	 1.641630e+00	 4.148005e+00
 4.588752e-01	 1.625355e+00	 4.874592e+00
 4.401959e-01	 1.630513e+00	 4.712295e+00
 4.215161e-01	 1.635442e+00	 4.540481e+00
 4.028394e-01	 1.640142e+00	 4.381795e+00
 3.841700e-01	 1.644615e+00	 4.258282e+00
 3.655115e-01	 1.648862e+00	 4.190169e+00
 4.608878e-01	 1.632484e+00	 4.911893e+00
 4.421266e-01	 1.637665e+00	 4.750987e+00
 4.233648e-01	 1.642615e+00	 4.581784e+00
 4.046063e-01	 1.647336e+00	 4.425335e+00
 3.858549e-01	 1.651828e+00	 4.302113e+00
 3.671146e-01	 1.656094e+00	 4.231505e+00
 4.629004e-01	 1.639613e+00	 4.952552e+00
 4.440573e-01	 1.644816e+00	 4.793344e+00
 4.252136e-01	 1.649788e+00	 4.626275e+00
 4.063731e-01	 1.654529e+00	 4.471176e+00
 3.875399e-01	 1.659042e+00	 4.347326e+00
 3.687177e-01	 1.663326e+00	 4.273344e+00
 3.607021e-01	 1.627167e+00	 4.055765e+00
 3.423036e-01	 1.631136e+00	 3.992940e+00
 3.239233e-01	 1.634886e+00	 3.898448e+00
 3.055649e-01	 1.638416e+00	 3.785501e+00
 2.872317e-01	 1.641729e+00	 3.665546e+00
 2.689274e-01	 1.644827e+00	 3.548661e+00
 3.623052e-01	 1.634399e+00	 4.103660e+00
 3.438250e-01	 1.638386e+00	 4.041227e+00
 3.253630e-01	 1.642152e+00	 3.945656e+00
 3.069229e-01	 1.645698e+00	 3.830845e+00
 2.885083e-01	 1.649026e+00	 3.709045e+00
 2.701226e-01	 1.652137e+00	 3.591237e+00
 3.639083e-01	 1.641630e+00	 4.148005e+00
 3.453463e-01	 1.645635e+00	 4.085299e+00
 3.268027e-01	 1.649418e+00	 3.988830e+00
 3.082810e-01	 1.652980e+00	 3.872859e+00
 2.897849e-01	 1.656323e+00	 3.750121e+00
 2.713179e-01	 1.659448e+00	 3.632191e+00
 3.655115e-01	 1.648862e+00	 4.190169e+00
 3.468677e-01	 1.652885e+00	 4.126658e+00
 3.282423e-01	 1.656684e+00	 4.029526e+00
 3.096391e-01	 1.660262e+00	 3.913084e+00
 2.910615e-01	 1.663619e+00	 3.790238e+00
 2.725131e-01	 1.666758e+00	 3.672850e+00
 3.671146e-01	 1.656094e+00	 4.231505e+00
 3.483890e-01	 1.660134e+00	 4.166787e+00
 3.296820e-01	 1.663950e+00	 4.069287e+00
 3.109971e-01	 1.667544e+00	 3.953049e+00
 2.923381e-01	 1.670916e+00	 3.830848e+00
 2.737083e-01	 1.674068e+00	 3.714534e+00
 3.687177e-01	 1.663326e+00	 4.273344e+00
 3.499104e-01	 1.667384e+00	 4.207153e+00
 3.311216e-01	 1.671217e+00	 4.109636e+00
 3.123552e-01	 1.674826e+00	 3.994270e+00
 2.936146e-01	 1.678212e+00	 3.873397e+00
 2.749036e-01	 1.681379e+00	 3.758560e+00
 2.689274e-01	 1.644827e+00	 3.548661e+00
 2.506554e-01	 1.647710e+00	 3.449968e+00
 2.324189e-01	 1.650382e+00	 3.373853e+00
 2.142214e-01	 1.652842e+00	 3.313198e+00
 1.960661e-01	 1.655094e+00	 3.260698e+00
 1.779561e-01	 1.657139e+00	 3.209027e+00
 2.701226e-01	 1.652137e+00	 3.591237e+00
 2.517694e-01	 1.655034e+00	 3.492915e+00
 2.334519e-01	 1.657717e+00	 3.417838e+00
 2.151735e-01	 1.660188e+00	 3.358425e+00
 1.969375e-01	 1.662450e+00	 3.306969e+00
 1.787470e-01	 1.664504e+00	 3.255791e+00
 2.713179e-01	 1.659448e+00	 3.632191e+00
 2.528834e-01	 1.662357e+00	 3.534655e+00
 2.344849e-01	 1.665052e+00	 3.460674e+00
 2.161256e-01	 1.667534e+00	 3.402353e+00
 1.978089e-01	 1.669806e+00	 3.351739e+00
 1.795380e-01	 1.671869e+00	 3.300957e+00
 2.725131e-01	 1.666758e+00	 3.672850e+00
 2.539974e-01	 1.669680e+00	 3.576361e+00
 2.355179e-01	 1.672387e+00	 3.503394e+00
 2.170777e-01	 1.674880e+00	 3.445894e+00
 1.986803e-01	 1.677162e+00	 3.395816e+00
 1.803289e-01	 1.679234e+00	 3.345246e+00
 2.737083e-01	 1.674068e+00	 3.714534e+00
 2.551114e-01	 1.677003e+00	 3.619203e+00
 2.365508e-01	 1.679722e+00	 3.547033e+00
 2.180298e-01	 1.682226e+00	 3.489962e+00
 1.995517e-01	 1.684518e+00	 3.440008e+00
 1.811198e-01	 1.686599e+00	 3.389380e+00
 2.749036e-01	 1.681379e+00	 3.758560e+00
 2.562255e-01	 1.684326e+00	 3.664348e+00
 2.375838e-01	 1.687057e+00	 3.592625e+00
 2.189819e-01	 1.689572e+00	 3.535472e+00
 2.004231e-01	 1.691874e+00	 3.485127e+00
 1.819107e-01	 1.693964e+00	 3.434086e+00
 1.779561e-01	 1.657139e+00	 3.209027e+00
 1.598946e-01	 1.658979e+00	 3.155592e+00
 1.418845e-01	 1.660616e+00	 3.103933e+00
 1.239289e-01	 1.662053e+00	 3.056143e+00
 1.060307e-01	 1.663290e+00	 3.014567e+00
 8.819269e-02	 1.664332e+00	 2.981840e+00
 1.787470e-01	 1.664504e+00	 3.255791e+00
 1.606052e-01	 1.666352e+00	 3.202270e+00
 1.425151e-01	 1.667997e+00	 3.150269e+00
 1.244797e-01	 1.669440e+00	 3.102074e+00
 1.065020e-01	 1.670683e+00	 3.060208e+00
 8.858465e-02	 1.671729e+00	 3.027456e+00
 1.795380e-01	 1.671869e+00	 3.300957e+00
 1.613159e-01	 1.673726e+00	 3.247484e+00
 1.431457e-01	 1.675377e+00	 3.195451e+00
 1.250305e-01	 1.676827e+00	 3.147237e+00
 1.069732e-01	 1.678075e+00	 3.105441e+00
 8.897662e-02	 1.679126e+00	 3.072894e+00
 1.803289e-01	 1.679234e+00	 3.345246e+00
 1.620265e-01	 1.681099e+00	 3.291867e+00
 1.437763e-01	 1.682758e+00	 3.240013e+00
 1.255813e-01	 1.684213e+00	 3.192057e+00
 1.074445e-01	 1.685468e+00	 3.150574e+00
 8.936859e-02	 1.686523e+00	 3.118346e+00
 1.811198e-01	 1.686599e+00	 3.389380e+00
 1.627371e-01	 1.688472e+00	 3.336056e+00
 1.444069e-01	 1.690138e+00	 3.284493e+00
 1.261321e-01	 1.691600e+00	 3.236960e+00
 1.079157e-01	 1.692860e+00	 3.195918e+00
 8.976056e-02	 1.693920e+00	 3.164006e+00
 1.819107e-01	 1.693964e+00	 3.434086e+00
 1.634478e-01	 1.695845e+00	 3.380691e+00
 1.450375e-01	 1.697519e+00	 3.329427e+00
 1.266829e-01	 1.698987e+00	 3.282372e+00
 1.083869e-01	 1.700253e+00	 3.241783e+00
 9.015252e-02	 1.701317e+00	 3.210067e+00
 8.819269e-02	 1.664332e+00	 2.981840e+00
 7.041763e-02	 1.665178e+00	 2.959291e+00
 5.270824e-02	 1.665833e+00	 2.943954e+00
 3.506715e-02	 1.666298e+00	 2.932673e+00
 1.749691e-02	 1.666575e+00	 2.922879e+00
 0.000000e+00	 1.666667e+00	 2.912642e+00
 8.858465e-02	 1.671729e+00	 3.027456e+00
 7.073060e-02	 1.672579e+00	 3.005173e+00
 5.294250e-02	 1.673237e+00	 2.990246e+00
 3.522300e-02	 1.673703e+00	 2.979321e+00
 1.757467e-02	 1.673982e+00	 2.969547e+00
 0.000000e+00	 1.674074e+00	 2.958626e+00
 8.897662e-02	 1.679126e+00	 3.072894e+00
 7.104357e-02	 1.679980e+00	 3.050909e+00
 5.317676e-02	 1.680640e+00	 3.036299e+00
 3.537886e-02	 1.681109e+00	 3.025629e+00
 1.765243e-02	 1.681389e+00	 3.015883e+00
 0.000000e+00	 1.681481e+00	 3.004505e+00
 8.936859e-02	 1.686523e+00	 3.118346e+00
 7.135653e-02	 1.687381e+00	 3.096590e+00
 5.341102e-02	 1.688044e+00	 3.082140e+00
 3.553471e-02	 1.688515e+00	 3.071595e+00
 1.773020e-02	 1.688796e+00	 3.061890e+00
 0.000000e+00	 1.688889e+00	 3.050323e+00
 8.976056e-02	 1.693920e+00	 3.164006e+00
 7.166950e-02	 1.694782e+00	 3.142310e+00
 5.364528e-02	 1.695448e+00	 3.127795e+00
 3.569057e-02	 1.695921e+00	 3.117213e+00
 1.780796e-02	 1.696203e+00	 3.107565e+00
 0.000000e+00	 1.696296e+00	 3.096119e+00
 9.015252e-02	 1.701317e+00	 3.210067e+00
 7.198247e-02	 1.702182e+00	 3.188165e+00
 5.387954e-02	 1.702852e+00	 3.173292e+00
 3.584642e-02	 1.703327e+00	 3.162477e+00
 1.788573e-02	 1.703610e+00	 3.152906e+00
 0.000000e+00	 1.703704e+00	 3.141929e+00
 1.703704e+00	 0.000000e+00	 1.381298e+01
 1.703610e+00	 1.788573e-02	 1.381130e+01
 1.703327e+00	 3.584642e-02	 1.381031e+01
 1.702852e+00	 5.387954e-02	 1.381086e+01
 1.702182e+00	 7.198247e-02	 1.381366e+01
 1.701317e+00	 9.015252e-02	 1.381927e+01
 1.711111e+00	 0.000000e+00	 1.376697e+01
 1.711017e+00	 1.796349e-02	 1.376552e+01
 1.710732e+00	 3.600227e-02	 1.376460e+01
 1.710255e+00	 5.411380e-02	 1.376512e+01
 1.709583e+00	 7.229544e-02	 1.376787e+01
 1.708714e+00	 9.054449e-02	 1.377349e+01
 1.718519e+00	 0.000000e+00	 1.372183e+01
 1.718424e+00	 1.804125e-02	 1.372064e+01
 1.718138e+00	 3.615813e-02	 1.371984e+01
 1.717659e+00	 5.434806e-02	 1.372038e+01
 1.716984e+00	 7.260840e-02	 1.372311e+01
 1.716111e+00	 9.093646e-02	 1.372872e+01
 1.725926e+00	 0.000000e+00	 1.367757e+01
 1.725831e+00	 1.811902e-02	 1.367663e+01
 1.725544e+00	 3.631398e-02	 1.367598e+01
 1.725063e+00	 5.458232e-02	 1.367658e+01
 1.724385e+00	 7.292137e-02	 1.367931e+01
 1.723508e+00	 9.132843e-02	 1.368491e+01
 1.733333e+00	 0.000000e+00	 1.363417e+01
 1.733238e+00	 1.819678e-02	 1.363346e+01
 1.732950e+00	 3.646984e-02	 1.363296e+01
 1.732466e+00	 5.481657e-02	 1.363364e+01
 1.731786e+00	 7.323434e-02	 1.363639e+01
 1.730905e+00	 9.172039e-02	 1.364199e+01
 1.740741e+00	 0.000000e+00	 1.359165e+01
 1.740645e+00	 1.827455e-02	 1.359109e+01
 1.740355e+00	 3.662569e-02	 1.359073e+01
 1.739870e+00	 5.505083e-02	 1.359150e+01
 1.739186e+00	 7.354730e-02	 1.359429e+01
 1.738302e+00	 9.211236e-02	 1.359990e+01
 1.701317e+00	 9.015252e-02	 1.381927e+01
 1.700253e+00	 1.083869e-01	 1.382495e+01
 1.698987e+00	 1.266829e-01	 1.382847e+01
 1.697519e+00	 1.450375e-01	 1.383085e+01
 1.695845e+00	 1.634478e-01	 1.383293e+01
 1.693964e+00	 1.819107e-01	 1.383533e+01
 1.708714e+00	 9.054449e-02	 1.377349e+01
 1.707645e+00	 1.088582e-01	 1.377927e+01
 1.706374e+00	 1.272337e-01	 1.378293e+01
 1.704899e+00	 1.456681e-01	 1.378546e+01
 1.703218e+00	 1.641584e-01	 1.378766e+01
 1.701329e+00	 1.827016e-01	 1.379015e+01
 1.716111e+00	 9.093646e-02	 1.372872e+01
 1.715037e+00	 1.093294e-01	 1.373457e+01
 1.713761e+00	 1.277845e-01	 1.373837e+01
 1.712280e+00	 1.462987e-01	 1.374107e+01
 1.710592e+00	 1.648691e-01	 1.374346e+01
 1.708694e+00	 1.834925e-01	 1.374612e+01
 1.723508e+00	 9.132843e-02	 1.368491e+01
 1.722430e+00	 1.098007e-01	 1.369081e+01
 1.721148e+00	 1.283353e-01	 1.369474e+01
 1.719660e+00	 1.469293e-01	 1.369761e+01
 1.717965e+00	 1.655797e-01	 1.370021e+01
 1.716059e+00	 1.842834e-01	 1.370309e+01
 1.730905e+00	 9.172039e-02	 1.364199e+01
 1.729822e+00	 1.102719e-01	 1.364794e+01
 1.728535e+00	 1.288861e-01	 1.365197e+01
 1.727041e+00	 1.475599e-01	 1.365500e+01
 1.725338e+00	 1.662904e-01	 1.365779e+01
 1.723424e+00	 1.850744e-01	 1.366089e+01
 1.738302e+00	 9.211236e-02	 1.359990e+01
 1.737215e+00	 1.107432e-01	 1.360588e+01
 1.735922e+00	 1.294369e-01	 1.361000e+01
 1.734421e+00	 1.481905e-01	 1.361316e+01
 1.732711e+00	 1.670010e-01	 1.361609e+01
 1.730790e+00	 1.858653e-01	 1.361937e+01
 1.693964e+00	 1.819107e-01	 1.383533e+01
 1.691874e+00	 2.004231e-01	 1.384023e+01
 1.689572e+00	 2.189819e-01	 1.384848e+01
 1.687057e+00	 2.375838e-01	 1.385845e+01
 1.684326e+00	 2.562255e-01	 1.386824e+01
 1.681379e+00	 2.749036e-01	 1.387575e+01
 1.701329e+00	 1.827016e-01	 1.379015e+01
 1.699230e+00	 2.012945e-01	 1.379508e+01
 1.696918e+00	 2.199340e-01	 1.380340e+01
 1.694392e+00	 2.386168e-01	 1.381353e+01
 1.691649e+00	 2.573395e-01	 1.382366e+01
 1.688689e+00	 2.760988e-01	 1.383172e+01
 1.708694e+00	 1.834925e-01	 1.374612e+01
 1.706586e+00	 2.021659e-01	 1.375118e+01
 1.704264e+00	 2.208861e-01	 1.375961e+01
 1.701727e+00	 2.396497e-01	 1.376991e+01
 1.698973e+00	 2.584535e-01	 1.378032e+01
 1.695999e+00	 2.772940e-01	 1.378880e+01
 1.716059e+00	 1.842834e-01	 1.370309e+01
 1.713942e+00	 2.030373e-01	 1.370832e+01
 1.711610e+00	 2.218382e-01	 1.371688e+01
 1.709062e+00	 2.406827e-01	 1.372733e+01
 1.706296e+00	 2.595675e-01	 1.373796e+01
 1.703310e+00	 2.784893e-01	 1.374679e+01
 1.723424e+00	 1.850744e-01	 1.366089e+01
 1.721298e+00	 2.039088e-01	 1.366629e+01
 1.718956e+00	 2.227903e-01	 1.367497e+01
 1.716397e+00	 2.417157e-01	 1.368554e+01
 1.713619e+00	 2.606816e-01	 1.369636e+01
 1.710620e+00	 2.796845e-01	 1.370546e+01
 1.730790e+00	 1.858653e-01	 1.361937e+01
 1.728654e+00	 2.047802e-01	 1.362490e+01
 1.726302e+00	 2.237424e-01	 1.363365e+01
 1.723732e+00	 2.427487e-01	 1.364432e+01
 1.720942e+00	 2.617956e-01	 1.365528e+01
 1.717930e+00	 2.808797e-01	 1.366461e+01
 1.681379e+00	 2.749036e-01	 1.387575e+01
 1.678212e+00	 2.936146e-01	 1.388168e+01
 1.674826e+00	 3.123552e-01	 1.388863e+01
 1.671217e+00	 3.311216e-01	 1.389719e+01
 1.667384e+00	 3.499104e-01	 1.390783e+01
 1.663326e+00	 3.687177e-01	 1.392100e+01
 1.688689e+00	 2.760988e-01	 1.383172e+01
 1.685509e+00	 2.948912e-01	 1.383823e+01
 1.682107e+00	 3.137133e-01	 1.384563e+01
 1.678483e+00	 3.325613e-01	 1.385443e+01
 1.674633e+00	 3.514317e-01	 1.386502e+01
 1.670558e+00	 3.703208e-01	 1.387777e+01
 1.695999e+00	 2.772940e-01	 1.378880e+01
 1.692806e+00	 2.961678e-01	 1.379579e+01
 1.689389e+00	 3.150713e-01	 1.380357e+01
 1.685749e+00	 3.340010e-01	 1.381258e+01
 1.681883e+00	 3.529531e-01	 1.382317e+01
 1.677790e+00	 3.719239e-01	 1.383564e+01
 1.703310e+00	 2.784893e-01	 1.374679e+01
 1.700102e+00	 2.974444e-01	 1.375416e+01
 1.696671e+00	 3.164294e-01	 1.376224e+01
 1.693015e+00	 3.354406e-01	 1.377146e+01
 1.689132e+00	 3.544744e-01	 1.378206e+01
 1.685022e+00	 3.735271e-01	 1.379437e+01
 1.710620e+00	 2.796845e-01	 1.370546e+01
 1.707399e+00	 2.987210e-01	 1.371314e+01
 1.703953e+00	 3.177874e-01	 1.372149e+01
 1.700281e+00	 3.368803e-01	 1.373087e+01
 1.696382e+00	 3.559958e-01	 1.374147e+01
 1.692253e+00	 3.751302e-01	 1.375372e+01
 1.717930e+00	 2.808797e-01	 1.366461e+01
 1.714695e+00	 2.999976e-01	 1.367255e+01
 1.711235e+00	 3.191455e-01	 1.368111e+01
 1.707547e+00	 3.383199e-01	 1.369063e+01
 1.703631e+00	 3.575171e-01	 1.370119e+01
 1.699485e+00	 3.767333e-01	 1.371343e+01
 1.663326e+00	 3.687177e-01	 1.392100e+01
 1.659042e+00	 3.875399e-01	 1.393112e+01
 1.654529e+00	 4.063731e-01	 1.393643e+01
 1.649788e+00	 4.252136e-01	 1.393982e+01
 1.644816e+00	 4.440573e-01	 1.394428e+01
 1.639613e+00	 4.629004e-01	 1.395297e+01
 1.670558e+00	 3.703208e-01	 1.387777e+01
 1.666255e+00	 3.892248e-01	 1.388859e+01
 1.661723e+00	 4.081400e-01	 1.389492e+01
 1.656961e+00	 4.270623e-01	 1.389937e+01
 1.651967e+00	 4.459880e-01	 1.390468e+01
 1.646741e+00	 4.649130e-01	 1.391372e+01
 1.677790e+00	 3.719239e-01	 1.383564e+01
 1.673468e+00	 3.909098e-01	 1.384726e+01
 1.668917e+00	 4.099068e-01	 1.385461e+01
 1.664134e+00	 4.289111e-01	 1.386006e+01
 1.659119e+00	 4.479187e-01	 1.386606e+01
 1.653870e+00	 4.669256e-01	 1.387522e+01
 1.685022e+00	 3.735271e-01	 1.379437e+01
 1.680681e+00	 3.925948e-01	 1.380683e+01
 1.676110e+00	 4.116736e-01	 1.381522e+01
 1.671307e+00	 4.307598e-01	 1.382164e+01
 1.666270e+00	 4.498494e-01	 1.382828e+01
 1.660999e+00	 4.689382e-01	 1.383742e+01
 1.692253e+00	 3.751302e-01	 1.375372e+01
 1.687895e+00	 3.942797e-01	 1.376701e+01
 1.683304e+00	 4.134405e-01	 1.377646e+01
 1.678480e+00	 4.326086e-01	 1.378389e+01
 1.673421e+00	 4.517800e-01	 1.379116e+01
 1.668128e+00	 4.709508e-01	 1.380028e+01
 1.699485e+00	 3.767333e-01	 1.371343e+01
 1.695108e+00	 3.959647e-01	 1.372753e+01
 1.690497e+00	 4.152073e-01	 1.373808e+01
 1.685653e+00	 4.344573e-01	 1.374657e+01
 1.680573e+00	 4.537107e-01	 1.375457e+01
 1.675256e+00	 4.729634e-01	 1.376375e+01
 1.639613e+00	 4.629004e-01	 1.395297e+01
 1.634177e+00	 4.817388e-01	 1.396417e+01
 1.628508e+00	 5.005685e-01	 1.397358e+01
 1.622604e+00	 5.193854e-01	 1.398083e+01
 1.616466e+00	 5.381853e-01	 1.398595e+01
 1.610092e+00	 5.569641e-01	 1.398940e+01
 1.646741e+00	 4.649130e-01	 1.391372e+01
 1.641282e+00	 4.838333e-01	 1.392514e+01
 1.635588e+00	 5.027449e-01	 1.393512e+01
 1.629659e+00	 5.216436e-01	 1.394318e+01
 1.623494e+00	 5.405253e-01	 1.394927e+01
 1.617093e+00	 5.593857e-01	 1.395375e+01
 1.653870e+00	 4.669256e-01	 1.387522e+01
 1.648387e+00	 4.859278e-01	 1.388660e+01
 1.642669e+00	 5.049213e-01	 1.389696e+01
 1.636714e+00	 5.239018e-01	 1.390575e+01
 1.630522e+00	 5.428652e-01	 1.391284e+01
 1.624093e+00	 5.618073e-01	 1.391856e+01
 1.660999e+00	 4.689382e-01	 1.383742e+01
 1.655492e+00	 4.880223e-01	 1.384861e+01
 1.649749e+00	 5.070976e-01	 1.385920e+01
 1.643769e+00	 5.261600e-01	 1.386863e+01
 1.637551e+00	 5.452051e-01	 1.387673e+01
 1.631094e+00	 5.642289e-01	 1.388379e+01
 1.668128e+00	 4.709508e-01	 1.380028e+01
 1.662597e+00	 4.901169e-01	 1.381121e+01
 1.656830e+00	 5.092740e-01	 1.382195e+01
 1.650824e+00	 5.284182e-01	 1.383195e+01
 1.644579e+00	 5.475451e-01	 1.384102e+01
 1.638094e+00	 5.666505e-01	 1.384942e+01
 1.675256e+00	 4.729634e-01	 1.376375e+01
 1.669702e+00	 4.922114e-01	 1.377447e+01
 1.663910e+00	 5.114504e-01	 1.378534e+01
 1.657878e+00	 5.306764e-01	 1.379583e+01
 1.651607e+00	 5.498850e-01	 1.380577e+01
 1.645094e+00	 5.690721e-01	 1.381543e+01
 1.610092e+00	 5.569641e-01	 1.398940e+01
 1.603482e+00	 5.757176e-01	 1.398798e+01
 1.596636e+00	 5.944415e-01	 1.398074e+01
 1.589552e+00	 6.131316e-01	 1.397232e+01
 1.582231e+00	 6.317835e-01	 1.396795e+01
 1.574673e+00	 6.503929e-01	 1.397353e+01
 1.617093e+00	 5.593857e-01	 1.395375e+01
 1.610454e+00	 5.782208e-01	 1.395323e+01
 1.603578e+00	 5.970261e-01	 1.394661e+01
 1.596463e+00	 6.157974e-01	 1.393857e+01
 1.589111e+00	 6.345304e-01	 1.393436e+01
 1.581520e+00	 6.532206e-01	 1.393987e+01
 1.624093e+00	 5.618073e-01	 1.391856e+01
 1.617426e+00	 5.807239e-01	 1.391917e+01
 1.610519e+00	 5.996106e-01	 1.391331e+01
 1.603374e+00	 6.184632e-01	 1.390564e+01
 1.595990e+00	 6.372772e-01	 1.390138e+01
 1.588366e+00	 6.560484e-01	 1.390640e+01
 1.631094e+00	 5.642289e-01	 1.388379e+01
 1.624397e+00	 5.832270e-01	 1.388570e+01
 1.617461e+00	 6.021951e-01	 1.388071e+01
 1.610285e+00	 6.211290e-01	 1.387342e+01
 1.602869e+00	 6.400241e-01	 1.386903e+01
 1.595212e+00	 6.588762e-01	 1.387329e+01
 1.638094e+00	 5.666505e-01	 1.384942e+01
 1.631369e+00	 5.857301e-01	 1.385269e+01
 1.624403e+00	 6.047797e-01	 1.384865e+01
 1.617197e+00	 6.237948e-01	 1.384184e+01
 1.609748e+00	 6.427710e-01	 1.383731e+01
 1.602059e+00	 6.617040e-01	 1.384076e+01
 1.645094e+00	 5.690721e-01	 1.381543e+01
 1.638341e+00	 5.882332e-01	 1.382004e+01
 1.631345e+00	 6.073642e-01	 1.381703e+01
 1.624108e+00	 6.264605e-01	 1.381078e+01
 1.616628e+00	 6.455179e-01	 1.380625e+01
 1.608905e+00	 6.645318e-01	 1.380898e+01
 1.574673e+00	 6.503929e-01	 1.397353e+01
 1.566877e+00	 6.689554e-01	 1.397486e+01
 1.558844e+00	 6.874666e-01	 1.395859e+01
 1.550574e+00	 7.059223e-01	 1.393318e+01
 1.542067e+00	 7.243179e-01	 1.390817e+01
 1.533323e+00	 7.426490e-01	 1.389400e+01
 1.581520e+00	 6.532206e-01	 1.393987e+01
 1.573690e+00	 6.718639e-01	 1.394173e+01
 1.565622e+00	 6.904556e-01	 1.392711e+01
 1.557316e+00	 7.089915e-01	 1.390407e+01
 1.548771e+00	 7.274671e-01	 1.388175e+01
 1.539989e+00	 7.458779e-01	 1.386897e+01
 1.588366e+00	 6.560484e-01	 1.390640e+01
 1.580502e+00	 6.747724e-01	 1.390832e+01
 1.572400e+00	 6.934446e-01	 1.389514e+01
 1.564057e+00	 7.120607e-01	 1.387451e+01
 1.555476e+00	 7.306163e-01	 1.385520e+01
 1.546656e+00	 7.491068e-01	 1.384347e+01
 1.595212e+00	 6.588762e-01	 1.387329e+01
 1.587315e+00	 6.776809e-01	 1.387502e+01
 1.579177e+00	 6.964336e-01	 1.386312e+01
 1.570799e+00	 7.151300e-01	 1.384491e+01
 1.562181e+00	 7.337655e-01	 1.382880e+01
 1.553323e+00	 7.523357e-01	 1.381777e+01
 1.602059e+00	 6.617040e-01	 1.384076e+01
 1.594128e+00	 6.805894e-01	 1.384216e+01
 1.585955e+00	 6.994226e-01	 1.383147e+01
 1.577541e+00	 7.181992e-01	 1.381565e+01
 1.568885e+00	 7.369147e-01	 1.380280e+01
 1.559989e+00	 7.555646e-01	 1.379209e+01
 1.608905e+00	 6.645318e-01	 1.380898e+01
 1.600940e+00	 6.834979e-01	 1.381010e+01
 1.592732e+00	 7.024116e-01	 1.380060e+01
 1.584282e+00	 7.212684e-01	 1.378713e+01
 1.575590e+00	 7.400639e-01	 1.377749e+01
 1.566656e+00	 7.587935e-01	 1.376663e+01
 1.533323e+00	 7.426490e-01	 1.389400e+01
 1.524343e+00	 7.609112e-01	 1.388099e+01
 1.515127e+00	 7.791000e-01	 1.386030e+01
 1.505676e+00	 7.972111e-01	 1.383302e+01
 1.495991e+00	 8.152399e-01	 1.380014e+01
 1.486073e+00	 8.331821e-01	 1.376248e+01
 1.539989e+00	 7.458779e-01	 1.386897e+01
 1.530970e+00	 7.642195e-01	 1.385268e+01
 1.521714e+00	 7.824874e-01	 1.383056e+01
 1.512223e+00	 8.006772e-01	 1.380401e+01
 1.502496e+00	 8.187845e-01	 1.377422e+01
 1.492534e+00	 8.368046e-01	 1.374214e+01
 1.546656e+00	 7.491068e-01	 1.384347e+01
 1.537598e+00	 7.675278e-01	 1.382501e+01
 1.528302e+00	 7.858748e-01	 1.380185e+01
 1.518769e+00	 8.041434e-01	 1.377568e+01
 1.509000e+00	 8.223290e-01	 1.374794e+01
 1.498996e+00	 8.404272e-01	 1.371972e+01
 1.553323e+00	 7.523357e-01	 1.381777e+01
 1.544225e+00	 7.708361e-01	 1.379799e+01
 1.534889e+00	 7.892622e-01	 1.377410e+01
 1.525315e+00	 8.076095e-01	 1.374807e+01
 1.515504e+00	 8.258735e-01	 1.372158e+01
 1.505457e+00	 8.440497e-01	 1.369589e+01
 1.559989e+00	 7.555646e-01	 1.379209e+01
 1.550853e+00	 7.741444e-01	 1.377162e+01
 1.541477e+00	 7.926496e-01	 1.374724e+01
 1.531862e+00	 8.110756e-01	 1.372119e+01
 1.522009e+00	 8.294180e-01	 1.369540e+01
 1.511918e+00	 8.476722e-01	 1.367135e+01
 1.566656e+00	 7.587935e-01	 1.376663e+01
 1.557481e+00	 7.774527e-01	 1.374588e+01
 1.548064e+00	 7.960370e-01	 1.372118e+01
 1.538408e+00	 8.145418e-01	 1.369504e+01
 1.528513e+00	 8.329625e-01	 1.366964e+01
 1.518379e+00	 8.512948e-01	 1.364672e+01
 1.486073e+00	 8.331821e-01	 1.376248e+01
 1.475923e+00	 8.510332e-01	 1.372095e+01
 1.465542e+00	 8.687888e-01	 1.368429e+01
 1.454930e+00	 8.864445e-01	 1.364785e+01
 1.444091e+00	 9.039959e-01	 1.360328e+01
 1.433024e+00	 9.214387e-01	 1.354064e+01
 1.492534e+00	 8.368046e-01	 1.374214e+01
 1.482340e+00	 8.547334e-01	 1.370457e+01
 1.471914e+00	 8.725662e-01	 1.366428e+01
 1.461256e+00	 8.902986e-01	 1.362602e+01
 1.450369e+00	 9.079263e-01	 1.358146e+01
 1.439254e+00	 9.254449e-01	 1.352062e+01
 1.498996e+00	 8.404272e-01	 1.371972e+01
 1.488757e+00	 8.584335e-01	 1.368695e+01
 1.478285e+00	 8.763435e-01	 1.364521e+01
 1.467582e+00	 8.941527e-01	 1.360352e+01
 1.456648e+00	 9.118567e-01	 1.355807e+01
 1.445485e+00	 9.294512e-01	 1.349882e+01
 1.505457e+00	 8.440497e-01	 1.369589e+01
 1.495174e+00	 8.621336e-01	 1.366660e+01
 1.484657e+00	 8.801208e-01	 1.362792e+01
 1.473908e+00	 8.980068e-01	 1.358201e+01
 1.462927e+00	 9.157872e-01	 1.353460e+01
 1.451715e+00	 9.334574e-01	 1.347637e+01
 1.511918e+00	 8.476722e-01	 1.367135e+01
 1.501591e+00	 8.658338e-01	 1.364460e+01
 1.491029e+00	 8.838982e-01	 1.360912e+01
 1.480234e+00	 9.018609e-01	 1.356312e+01
 1.469205e+00	 9.197176e-01	 1.351250e+01
 1.457946e+00	 9.374637e-01	 1.345438e+01
 1.518379e+00	 8.512948e-01	 1.364672e+01
 1.508008e+00	 8.695339e-01	 1.362197e+01
 1.497401e+00	 8.876755e-01	 1.358927e+01
 1.486559e+00	 9.057150e-01	 1.354660e+01
 1.475484e+00	 9.236480e-01	 1.349322e+01
 1.464176e+00	 9.414699e-01	 1.343395e+01
 1.433024e+00	 9.214387e-01	 1.354064e+01
 1.421731e+00	 9.387684e-01	 1.347957e+01
 1.410215e+00	 9.559809e-01	 1.343558e+01
 1.398477e+00	 9.730718e-01	 1.339053e+01
 1.386518e+00	 9.900368e-01	 1.332537e+01
 1.374342e+00	 1.006872e+00	 1.322055e+01
 1.439254e+00	 9.254449e-01	 1.352062e+01
 1.427913e+00	 9.428500e-01	 1.346173e+01
 1.416347e+00	 9.601373e-01	 1.341918e+01
 1.404557e+00	 9.773025e-01	 1.337520e+01
 1.392547e+00	 9.943413e-01	 1.331107e+01
 1.380317e+00	 1.011250e+00	 1.320750e+01
 1.445485e+00	 9.294512e-01	 1.349882e+01
 1.434094e+00	 9.469316e-01	 1.344231e+01
 1.422478e+00	 9.642938e-01	 1.340153e+01
 1.410638e+00	 9.815333e-01	 1.335904e+01
 1.398575e+00	 9.986459e-01	 1.329641e+01
 1.386293e+00	 1.015627e+00	 1.319455e+01
 1.451715e+00	 9.334574e-01	 1.347637e+01
 1.440276e+00	 9.510132e-01	 1.342205e+01
 1.428609e+00	 9.684502e-01	 1.338311e+01
 1.416718e+00	 9.857640e-01	 1.334237e+01
 1.404603e+00	 1.002950e+00	 1.328164e+01
 1.392268e+00	 1.020005e+00	 1.318205e+01
 1.457946e+00	 9.374637e-01	 1.345438e+01
 1.446457e+00	 9.550948e-01	 1.340169e+01
 1.434741e+00	 9.726066e-01	 1.336436e+01
 1.422798e+00	 9.899948e-01	 1.332548e+01
 1.410632e+00	 1.007255e+00	 1.326703e+01
 1.398243e+00	 1.024383e+00	 1.317034e+01
 1.464176e+00	 9.414699e-01	 1.343395e+01
 1.452639e+00	 9.591764e-01	 1.338194e+01
 1.440872e+00	 9.767631e-01	 1.334574e+01
 1.428879e+00	 9.942255e-01	 1.330865e+01
 1.416660e+00	 1.011559e+00	 1.325281e+01
 1.404219e+00	 1.028760e+00	 1.315972e+01
 1.374342e+00	 1.006872e+00	 1.322055e+01
 1.361949e+00	 1.023573e+00	 1.311061e+01
 1.349342e+00	 1.040135e+00	 1.303324e+01
 1.336524e+00	 1.056555e+00	 1.297442e+01
 1.323497e+00	 1.072829e+00	 1.292180e+01
 1.310263e+00	 1.088952e+00	 1.286526e+01
 1.380317e+00	 1.011250e+00	 1.320750e+01
 1.367871e+00	 1.028023e+00	 1.310008e+01
 1.355209e+00	 1.044658e+00	 1.302635e+01
 1.342335e+00	 1.061149e+00	 1.297060e+01
 1.329251e+00	 1.077494e+00	 1.291870e+01
 1.315960e+00	 1.093687e+00	 1.285862e+01
 1.386293e+00	 1.015627e+00	 1.319455e+01
 1.373792e+00	 1.032473e+00	 1.308978e+01
 1.361076e+00	 1.049180e+00	 1.301918e+01
 1.348146e+00	 1.065743e+00	 1.296538e+01
 1.335006e+00	 1.082158e+00	 1.291247e+01
 1.321656e+00	 1.098422e+00	 1.284656e+01
 1.392268e+00	 1.020005e+00	 1.318205e+01
 1.379714e+00	 1.036924e+00	 1.308020e+01
 1.366943e+00	 1.053702e+00	 1.301231e+01
 1.353957e+00	 1.070337e+00	 1.295940e+01
 1.340760e+00	 1.086823e+00	 1.290381e+01
 1.327353e+00	 1.103156e+00	 1.282980e+01
 1.398243e+00	 1.024383e+00	 1.317034e+01
 1.385635e+00	 1.041374e+00	 1.307178e+01
 1.372809e+00	 1.058225e+00	 1.300629e+01
 1.359768e+00	 1.074930e+00	 1.295329e+01
 1.346514e+00	 1.091487e+00	 1.289341e+01
 1.333050e+00	 1.107891e+00	 1.280906e+01
 1.404219e+00	 1.028760e+00	 1.315972e+01
 1.391557e+00	 1.045824e+00	 1.306497e+01
 1.378676e+00	 1.062747e+00	 1.300167e+01
 1.365579e+00	 1.079524e+00	 1.294769e+01
 1.352269e+00	 1.096151e+00	 1.288194e+01
 1.338747e+00	 1.112625e+00	 1.278555e+01
 1.310263e+00	 1.088952e+00	 1.286526e+01
 1.296825e+00	 1.104922e+00	 1.276324e+01
 1.283186e+00	 1.120732e+00	 1.259476e+01
 1.269348e+00	 1.136381e+00	 1.244682e+01
 1.255314e+00	 1.151865e+00	 1.232732e+01
 1.241088e+00	 1.167179e+00	 1.223438e+01
 1.315960e+00	 1.093687e+00	 1.285862e+01
 1.302463e+00	 1.109726e+00	 1.274504e+01
 1.288765e+00	 1.125605e+00	 1.258450e+01
 1.274867e+00	 1.141322e+00	 1.244643e+01
 1.260772e+00	 1.156873e+00	 1.233095e+01
 1.246484e+00	 1.172254e+00	 1.223756e+01
 1.321656e+00	 1.098422e+00	 1.284656e+01
 1.308102e+00	 1.114530e+00	 1.272194e+01
 1.294344e+00	 1.130478e+00	 1.257593e+01
 1.280385e+00	 1.146263e+00	 1.244636e+01
 1.266230e+00	 1.161881e+00	 1.233411e+01
 1.251880e+00	 1.177328e+00	 1.223997e+01
 1.327353e+00	 1.103156e+00	 1.282980e+01
 1.313740e+00	 1.119334e+00	 1.270229e+01
 1.299923e+00	 1.135351e+00	 1.256929e+01
 1.285904e+00	 1.151204e+00	 1.244687e+01
 1.271688e+00	 1.166889e+00	 1.233705e+01
 1.257276e+00	 1.182403e+00	 1.224188e+01
 1.333050e+00	 1.107891e+00	 1.280906e+01
 1.319378e+00	 1.124138e+00	 1.268677e+01
 1.305502e+00	 1.140223e+00	 1.256480e+01
 1.291423e+00	 1.156145e+00	 1.244817e+01
 1.277146e+00	 1.171897e+00	 1.234000e+01
 1.262672e+00	 1.187478e+00	 1.224353e+01
 1.338747e+00	 1.112625e+00	 1.278555e+01
 1.325017e+00	 1.128942e+00	 1.267553e+01
 1.311081e+00	 1.145096e+00	 1.256261e+01
 1.296942e+00	 1.161085e+00	 1.245044e+01
 1.282604e+00	 1.176905e+00	 1.234313e+01
 1.268068e+00	 1.192552e+00	 1.224511e+01
 1.241088e+00	 1.167179e+00	 1.223438e+01
 1.226672e+00	 1.182320e+00	 1.213831e+01
 1.212070e+00	 1.197285e+00	 1.201848e+01
 1.197285e+00	 1.212070e+00	 1.188621e+01
 1.182320e+00	 1.226672e+00	 1.175256e+01
 1.167179e+00	 1.241088e+00	 1.162803e+01
 1.246484e+00	 1.172254e+00	 1.223756e+01
 1.232006e+00	 1.187461e+00	 1.214032e+01
 1.217340e+00	 1.202491e+00	 1.202079e+01
 1.202491e+00	 1.217340e+00	 1.188943e+01
 1.187461e+00	 1.232006e+00	 1.175636e+01
 1.172254e+00	 1.246484e+00	 1.163112e+01
 1.251880e+00	 1.177328e+00	 1.223997e+01
 1.237339e+00	 1.192601e+00	 1.214131e+01
 1.222610e+00	 1.207696e+00	 1.202163e+01
 1.207696e+00	 1.222610e+00	 1.189067e+01
 1.192601e+00	 1.237339e+00	 1.175777e+01
 1.177328e+00	 1.251880e+00	 1.163167e+01
 1.257276e+00	 1.182403e+00	 1.224188e+01
 1.242672e+00	 1.197742e+00	 1.214163e+01
 1.227880e+00	 1.212902e+00	 1.202145e+01
 1.212902e+00	 1.227880e+00	 1.189050e+01
 1.197742e+00	 1.242672e+00	 1.175754e+01
 1.182403e+00	 1.257276e+00	 1.163068e+01
 1.262672e+00	 1.187478e+00	 1.224353e+01
 1.248006e+00	 1.202882e+00	 1.214155e+01
 1.233150e+00	 1.218108e+00	 1.202060e+01
 1.218108e+00	 1.233150e+00	 1.188944e+01
 1.202882e+00	 1.248006e+00	 1.175640e+01
 1.187478e+00	 1.262672e+00	 1.162910e+01
 1.268068e+00	 1.192552e+00	 1.224511e+01
 1.253339e+00	 1.208023e+00	 1.214130e+01
 1.238420e+00	 1.223313e+00	 1.201941e+01
 1.223313e+00	 1.238420e+00	 1.188796e+01
 1.208023e+00	 1.253339e+00	 1.175499e+01
 1.192552e+00	 1.268068e+00	 1.162783e+01
 1.167179e+00	 1.241088e+00	 1.162803e+01
 1.151865e+00	 1.255314e+00	 1.148757e+01
 1.136381e+00	 1.269348e+00	 1.131412e+01
 1.120732e+00	 1.283186e+00	 1.112908e+01
 1.104922e+00	 1.296825e+00	 1.095365e+01
 1.088952e+00	 1.310263e+00	 1.081067e+01
 1.172254e+00	 1.246484e+00	 1.163112e+01
 1.156873e+00	 1.260772e+00	 1.149007e+01
 1.141322e+00	 1.274867e+00	 1.131788e+01
 1.125605e+00	 1.288765e+00	 1.113540e+01
 1.109726e+00	 1.302463e+00	 1.096260e+01
 1.093687e+00	 1.315960e+00	 1.082187e+01
 1.177328e+00	 1.251880e+00	 1.163167e+01
 1.161881e+00	 1.266230e+00	 1.149030e+01
 1.146263e+00	 1.280385e+00	 1.131994e+01
 1.130478e+00	 1.294344e+00	 1.114063e+01
 1.114530e+00	 1.308102e+00	 1.097140e+01
 1.098422e+00	 1.321656e+00	 1.083225e+01
 1.182403e+00	 1.257276e+00	 1.163068e+01
 1.166889e+00	 1.271688e+00	 1.148948e+01
 1.151204e+00	 1.285904e+00	 1.132165e+01
 1.135351e+00	 1.299923e+00	 1.114612e+01
 1.119334e+00	 1.313740e+00	 1.098077e+01
 1.103156e+00	 1.327353e+00	 1.084309e+01
 1.187478e+00	 1.262672e+00	 1.162910e+01
 1.171897e+00	 1.277146e+00	 1.148878e+01
 1.156145e+00	 1.291423e+00	 1.132426e+01
 1.140223e+00	 1.305502e+00	 1.115315e+01
 1.124138e+00	 1.319378e+00	 1.099188e+01
 1.107891e+00	 1.333050e+00	 1.085562e+01
 1.192552e+00	 1.268068e+00	 1.162783e+01
 1.176905e+00	 1.282604e+00	 1.148929e+01
 1.161085e+00	 1.296942e+00	 1.132898e+01
 1.145096e+00	 1.311081e+00	 1.116292e+01
 1.128942e+00	 1.325017e+00	 1.100587e+01
 1.112625e+00	 1.338747e+00	 1.087099e+01
 1.088952e+00	 1.310263e+00	 1.081067e+01
 1.072829e+00	 1.323497e+00	 1.068568e+01
 1.056555e+00	 1.336524e+00	 1.055317e+01
 1.040135e+00	 1.349342e+00	 1.040616e+01
 1.023573e+00	 1.361949e+00	 1.023502e+01
 1.006872e+00	 1.374342e+00	 1.002796e+01
 1.093687e+00	 1.315960e+00	 1.082187e+01
 1.077494e+00	 1.329251e+00	 1.069970e+01
 1.061149e+00	 1.342335e+00	 1.056897e+01
 1.044658e+00	 1.355209e+00	 1.042277e+01
 1.028023e+00	 1.367871e+00	 1.025147e+01
 1.011250e+00	 1.380317e+00	 1.004331e+01
 1.098422e+00	 1.321656e+00	 1.083225e+01
 1.082158e+00	 1.335006e+00	 1.071150e+01
 1.065743e+00	 1.348146e+00	 1.058105e+01
 1.049180e+00	 1.361076e+00	 1.043443e+01
 1.032473e+00	 1.373792e+00	 1.026243e+01
 1.015627e+00	 1.386293e+00	 1.005366e+01
 1.103156e+00	 1.327353e+00	 1.084309e+01
 1.086823e+00	 1.340760e+00	 1.072218e+01
 1.070337e+00	 1.353957e+00	 1.059049e+01
 1.053702e+00	 1.366943e+00	 1.044234e+01
 1.036924e+00	 1.379714e+00	 1.026930e+01
 1.020005e+00	 1.392268e+00	 1.006079e+01
 1.107891e+00	 1.333050e+00	 1.085562e+01
 1.091487e+00	 1.346514e+00	 1.073279e+01
 1.074930e+00	 1.359768e+00	 1.059830e+01
 1.058225e+00	 1.372809e+00	 1.044762e+01
 1.041374e+00	 1.385635e+00	 1.027349e+01
 1.024383e+00	 1.398243e+00	 1.006647e+01
 1.112625e+00	 1.338747e+00	 1.087099e+01
 1.096151e+00	 1.352269e+00	 1.074435e+01
 1.079524e+00	 1.365579e+00	 1.060549e+01
 1.062747e+00	 1.378676e+00	 1.045140e+01
 1.045824e+00	 1.391557e+00	 1.027632e+01
 1.028760e+00	 1.404219e+00	 1.007239e+01
 1.006872e+00	 1.374342e+00	 1.002796e+01
 9.900368e-01	 1.386518e+00	 9.820464e+00
 9.730718e-01	 1.398477e+00	 9.646083e+00
 9.559809e-01	 1.410215e+00	 9.488702e+00
 9.387684e-01	 1.421731e+00	 9.332301e+00
 9.214387e-01	 1.433024e+00	 9.161462e+00
 1.011250e+00	 1.380317e+00	 1.004331e+01
 9.943413e-01	 1.392547e+00	 9.834300e+00
 9.773025e-01	 1.404557e+00	 9.659007e+00
 9.601373e-01	 1.416347e+00	 9.502069e+00
 9.428500e-01	 1.427913e+00	 9.348289e+00
 9.254449e-01	 1.439254e+00	 9.183160e+00
 1.015627e+00	 1.386293e+00	 1.005366e+01
 9.986459e-01	 1.398575e+00	 9.844935e+00
 9.815333e-01	 1.410638e+00	 9.671212e+00
 9.642938e-01	 1.422478e+00	 9.516922e+00
 9.469316e-01	 1.434094e+00	 9.366713e+00
 9.294512e-01	 1.445485e+00	 9.205976e+00
 1.020005e+00	 1.392268e+00	 1.006079e+01
 1.002950e+00	 1.404603e+00	 9.854456e+00
 9.857640e-01	 1.416718e+00	 9.684804e+00
 9.684502e-01	 1.428609e+00	 9.535130e+00
 9.510132e-01	 1.440276e+00	 9.388951e+00
 9.334574e-01	 1.451715e+00	 9.230563e+00
 1.024383e+00	 1.398243e+00	 1.006647e+01
 1.007255e+00	 1.410632e+00	 9.864907e+00
 9.899948e-01	 1.422798e+00	 9.701854e+00
 9.726066e-01	 1.434741e+00	 9.558529e+00
 9.550948e-01	 1.446457e+00	 9.416364e+00
 9.374637e-01	 1.457946e+00	 9.257571e+00
 1.028760e+00	 1.404219e+00	 1.007239e+01
 1.011559e+00	 1.416660e+00	 9.878291e+00
 9.942255e-01	 1.428879e+00	 9.724392e+00
 9.767631e-01	 1.440872e+00	 9.588927e+00
 9.591764e-01	 1.452639e+00	 9.450293e+00
 9.414699e-01	 1.464176e+00	 9.287646e+00
 9.214387e-01	 1.433024e+00	 9.161462e+00
 9.039959e-01	 1.444091e+00	 8.990008e+00
 8.864445e-01	 1.454930e+00	 8.827452e+00
 8.687888e-01	 1.465542e+00	 8.654056e+00
 8.510332e-01	 1.475923e+00	 8.452274e+00
 8.331821e-01	 1.486073e+00	 8.219655e+00
 9.254449e-01	 1.439254e+00	 9.183160e+00
 9.079263e-01	 1.450369e+00	 9.019269e+00
 8.902986e-01	 1.461256e+00	 8.860609e+00
 8.725662e-01	 1.471914e+00	 8.681952e+00
 8.547334e-01	 1.482340e+00	 8.460621e+00
 8.368046e-01	 1.492534e+00	 8.246580e+00
 9.294512e-01	 1.445485e+00	 9.205976e+00
 9.118567e-01	 1.456648e+00	 9.044699e+00
 8.941527e-01	 1.467582e+00	 8.881555e+00
 8.763435e-01	 1.478285e+00	 8.687176e+00
 8.584335e-01	 1.488757e+00	 8.462913e+00
 8.404272e-01	 1.498996e+00	 8.276097e+00
 9.334574e-01	 1.451715e+00	 9.230563e+00
 9.157872e-01	 1.462927e+00	 9.066301e+00
 8.980068e-01	 1.473908e+00	 8.890010e+00
 8.801208e-01	 1.484657e+00	 8.674475e+00
 8.621336e-01	 1.495174e+00	 8.474536e+00
 8.440497e-01	 1.505457e+00	 8.307156e+00
 9.374637e-01	 1.457946e+00	 9.257571e+00
 9.197176e-01	 1.469205e+00	 9.084089e+00
 9.018609e-01	 1.480234e+00	 8.885711e+00
 8.838982e-01	 1.491029e+00	 8.672878e+00
 8.658338e-01	 1.501591e+00	 8.493721e+00
 8.476722e-01	 1.511918e+00	 8.338710e+00
 9.414699e-01	 1.464176e+00	 9.287646e+00
 9.236480e-01	 1.475484e+00	 9.098085e+00
 9.057150e-01	 1.486559e+00	 8.879655e+00
 8.876755e-01	 1.497401e+00	 8.685339e+00
 8.695339e-01	 1.508008e+00	 8.518717e+00
 8.512948e-01	 1.518379e+00	 8.369714e+00
 8.331821e-01	 1.486073e+00	 8.219655e+00
 8.152399e-01	 1.495991e+00	 8.028693e+00
 7.972111e-01	 1.505676e+00	 7.872020e+00
 7.791000e-01	 1.515127e+00	 7.727366e+00
 7.609112e-01	 1.524343e+00	 7.572359e+00
 7.426490e-01	 1.533323e+00	 7.384488e+00
 8.368046e-01	 1.492534e+00	 8.246580e+00
 8.187845e-01	 1.502496e+00	 8.073240e+00
 8.006772e-01	 1.512223e+00	 7.917981e+00
 7.824874e-01	 1.521714e+00	 7.764809e+00
 7.642195e-01	 1.530970e+00	 7.597773e+00
 7.458779e-01	 1.539989e+00	 7.400914e+00
 8.404272e-01	 1.498996e+00	 8.276097e+00
 8.223290e-01	 1.509000e+00	 8.115019e+00
 8.041434e-01	 1.518769e+00	 7.959507e+00
 7.858748e-01	 1.528302e+00	 7.798763e+00
 7.675278e-01	 1.537598e+00	 7.622147e+00
 7.491068e-01	 1.546656e+00	 7.419117e+00
 8.440497e-01	 1.505457e+00	 8.307156e+00
 8.258735e-01	 1.515504e+00	 8.153716e+00
 8.076095e-01	 1.525315e+00	 7.996727e+00
 7.892622e-01	 1.534889e+00	 7.829521e+00
 7.708361e-01	 1.544225e+00	 7.645675e+00
 7.523357e-01	 1.553323e+00	 7.438943e+00
 8.476722e-01	 1.511918e+00	 8.338710e+00
 8.294180e-01	 1.522009e+00	 8.189006e+00
 8.110756e-01	 1.531862e+00	 8.029752e+00
 7.926496e-01	 1.541477e+00	 7.857354e+00
 7.741444e-01	 1.550853e+00	 7.668531e+00
 7.555646e-01	 1.559989e+00	 7.460224e+00
 8.512948e-01	 1.518379e+00	 8.369714e+00
 8.329625e-01	 1.528513e+00	 8.220556e+00
 8.145418e-01	 1.538408e+00	 8.058673e+00
 7.960370e-01	 1.548064e+00	 7.882514e+00
 7.774527e-01	 1.557481e+00	 7.690872e+00
 7.587935e-01	 1.566656e+00	 7.482782e+00
 7.426490e-01	 1.533323e+00	 7.384488e+00
 7.243179e-01	 1.542067e+00	 7.181116e+00
 7.059223e-01	 1.550574e+00	 6.992314e+00
 6.874666e-01	 1.558844e+00	 6.816588e+00
 6.689554e-01	 1.566877e+00	 6.652939e+00
 6.503929e-01	 1.574673e+00	 6.500617e+00
 7.458779e-01	 1.539989e+00	 7.400914e+00
 7.274671e-01	 1.548771e+00	 7.197072e+00
 7.089915e-01	 1.557316e+00	 7.013630e+00
 6.904556e-01	 1.565622e+00	 6.846036e+00
 6.718639e-01	 1.573690e+00	 6.690346e+00
 6.532206e-01	 1.581520e+00	 6.542784e+00
 7.491068e-01	 1.546656e+00	 7.419117e+00
 7.306163e-01	 1.555476e+00	 7.216331e+00
 7.120607e-01	 1.564057e+00	 7.038060e+00
 6.934446e-01	 1.572400e+00	 6.877135e+00
 6.747724e-01	 1.580502e+00	 6.727363e+00
 6.560484e-01	 1.588366e+00	 6.582645e+00
 7.523357e-01	 1.553323e+00	 7.438943e+00
 7.337655e-01	 1.562181e+00	 7.238334e+00
 7.151300e-01	 1.570799e+00	 7.064881e+00
 6.964336e-01	 1.579177e+00	 6.909178e+00
 6.776809e-01	 1.587315e+00	 6.763466e+00
 6.588762e-01	 1.595212e+00	 6.620021e+00
 7.555646e-01	 1.559989e+00	 7.460224e+00
 7.369147e-01	 1.568885e+00	 7.262510e+00
 7.181992e-01	 1.577541e+00	 7.093362e+00
 6.994226e-01	 1.585955e+00	 6.941449e+00
 6.805894e-01	 1.594128e+00	 6.798119e+00
 6.617040e-01	 1.602059e+00	 6.654712e+00
 7.587935e-01	 1.566656e+00	 7.482782e+00
 7.400639e-01	 1.575590e+00	 7.288279e+00
 7.212684e-01	 1.584282e+00	 7.122765e+00
 7.024116e-01	 1.592732e+00	 6.973223e+00
 6.834979e-01	 1.600940e+00	 6.830772e+00
 6.645318e-01	 1.608905e+00	 6.686499e+00
 6.503929e-01	 1.574673e+00	 6.500617e+00
 6.317835e-01	 1.582231e+00	 6.341956e+00
 6.131316e-01	 1.589552e+00	 6.166970e+00
 5.944415e-01	 1.596636e+00	 5.986381e+00
 5.757176e-01	 1.603482e+00	 5.810638e+00
 5.569641e-01	 1.610092e+00	 5.649806e+00
 6.532206e-01	 1.581520e+00	 6.542784e+00
 6.345304e-01	 1.589111e+00	 6.384497e+00
 6.157974e-01	 1.596463e+00	 6.207340e+00
 5.970261e-01	 1.603578e+00	 6.023485e+00
 5.782208e-01	 1.610454e+00	 5.844832e+00
 5.593857e-01	 1.617093e+00	 5.682888e+00
 6.560484e-01	 1.588366e+00	 6.582645e+00
 6.372772e-01	 1.595990e+00	 6.423875e+00
 6.184632e-01	 1.603374e+00	 6.244894e+00
 5.996106e-01	 1.610519e+00	 6.058856e+00
 5.807239e-01	 1.617426e+00	 5.878629e+00
 5.618073e-01	 1.624093e+00	 5.716669e+00
 6.588762e-01	 1.595212e+00	 6.620021e+00
 6.400241e-01	 1.602869e+00	 6.460266e+00
 6.211290e-01	 1.610285e+00	 6.280039e+00
 6.021951e-01	 1.617461e+00	 6.093013e+00
 5.832270e-01	 1.624397e+00	 5.912548e+00
 5.642289e-01	 1.631094e+00	 5.751565e+00
 6.617040e-01	 1.602059e+00	 6.654712e+00
 6.427710e-01	 1.609748e+00	 6.493818e+00
 6.237948e-01	 1.617197e+00	 6.313150e+00
 6.047797e-01	 1.624403e+00	 6.126444e+00
 5.857301e-01	 1.631369e+00	 5.947081e+00
 5.666505e-01	 1.638094e+00	 5.787964e+00
 6.645318e-01	 1.608905e+00	 6.686499e+00
 6.455179e-01	 1.616628e+00	 6.524657e+00
 6.264605e-01	 1.624108e+00	 6.344577e+00
 6.073642e-01	 1.631345e+00	 6.159609e+00
 5.882332e-01	 1.638341e+00	 5.982689e+00
 5.690721e-01	 1.645094e+00	 5.826230e+00
 5.569641e-01	 1.610092e+00	 5.649806e+00
 5.381853e-01	 1.616466e+00	 5.504538e+00
 5.193854e-01	 1.622604e+00	 5.366603e+00
 5.005685e-01	 1.628508e+00	 5.231900e+00
 4.817388e-01	 1.634177e+00	 5.095677e+00
 4.629004e-01	 1.639613e+00	 4.952552e+00
 5.593857e-01	 1.617093e+00	 5.682888e+00
 5.405253e-01	 1.623494e+00	 5.538448e+00
 5.216436e-01	 1.629659e+00	 5.402189e+00
 5.027449e-01	 1.635588e+00	 5.269572e+00
 4.838333e-01	 1.641282e+00	 5.135370e+00
 4.649130e-01	 1.646741e+00	 4.993689e+00
 5.618073e-01	 1.624093e+00	 5.716669e+00
 5.428652e-01	 1.630522e+00	 5.573359e+00
 5.239018e-01	 1.636714e+00	 5.438278e+00
 5.049213e-01	 1.642669e+00	 5.306769e+00
 4.859278e-01	 1.648387e+00	 5.173455e+00
 4.669256e-01	 1.653870e+00	 5.032262e+00
 5.642289e-01	 1.631094e+00	 5.751565e+00
 5.452051e-01	 1.637551e+00	 5.609579e+00
 5.261600e-01	 1.643769e+00	 5.475160e+00
 5.070976e-01	 1.649749e+00	 5.343848e+00
 4.880223e-01	 1.655492e+00	 5.210437e+00
 4.689382e-01	 1.660999e+00	 5.068996e+00
 5.666505e-01	 1.638094e+00	 5.787964e+00
 5.475451e-01	 1.644579e+00	 5.647393e+00
 5.284182e-01	 1.650824e+00	 5.513102e+00
 5.092740e-01	 1.656830e+00	 5.381144e+00
 4.901169e-01	 1.662597e+00	 5.246795e+00
 4.709508e-01	 1.668128e+00	 5.104591e+00
 5.690721e-01	 1.645094e+00	 5.826230e+00
 5.498850e-01	 1.651607e+00	 5.687059e+00
 5.306764e-01	 1.657878e+00	 5.552350e+00
 5.114504e-01	 1.663910e+00	 5.418969e+00
 4.922114e-01	 1.669702e+00	 5.282989e+00
 4.729634e-01	 1.675256e+00	 5.139724e+00
 4.629004e-01	 1.639613e+00	 4.952552e+00
 4.440573e-01	 1.644816e+00	 4.793344e+00
 4.252136e-01	 1.649788e+00	 4.626275e+00
 4.063731e-01	 1.654529e+00	 4.471176e+00
 3.875399e-01	 1.659042e+00	 4.347326e+00
 3.687177e-01	 1.663326e+00	 4.273344e+00
 4.649130e-01	 1.646741e+00	 4.993689e+00
 4.459880e-01	 1.651967e+00	 4.835997e+00
 4.270623e-01	 1.656961e+00	 4.670768e+00
 4.081400e-01	 1.661723e+00	 4.516726e+00
 3.892248e-01	 1.666255e+00	 4.392060e+00
 3.703208e-01	 1.670558e+00	 4.314454e+00
 4.669256e-01	 1.653870e+00	 5.032262e+00
 4.479187e-01	 1.659119e+00	 4.875618e+00
 4.289111e-01	 1.664134e+00	 4.712244e+00
 4.099068e-01	 1.668917e+00	 4.559595e+00
 3.909098e-01	 1.673468e+00	 4.434611e+00
 3.719239e-01	 1.677790e+00	 4.353752e+00
 4.689382e-01	 1.660999e+00	 5.068996e+00
 4.498494e-01	 1.666270e+00	 4.913162e+00
 4.307598e-01	 1.671307e+00	 4.751827e+00
 4.116736e-01	 1.676110e+00	 4.601027e+00
 3.925948e-01	 1.680681e+00	 4.476289e+00
 3.735271e-01	 1.685022e+00	 4.392683e+00
 4.709508e-01	 1.668128e+00	 5.104591e+00
 4.517800e-01	 1.673421e+00	 4.949556e+00
 4.326086e-01	 1.678480e+00	 4.790618e+00
 4.134405e-01	 1.683304e+00	 4.642238e+00
 3.942797e-01	 1.687895e+00	 4.518375e+00
 3.751302e-01	 1.692253e+00	 4.432542e+00
 4.729634e-01	 1.675256e+00	 5.139724e+00
 4.537107e-01	 1.680573e+00	 4.985700e+00
 4.344573e-01	 1.685653e+00	 4.829687e+00
 4.152073e-01	 1.690497e+00	 4.684418e+00
 3.959647e-01	 1.695108e+00	 4.562123e+00
 3.767333e-01	 1.699485e+00	 4.474597e+00
 3.687177e-01	 1.663326e+00	 4.273344e+00
 3.499104e-01	 1.667384e+00	 4.207153e+00
 3.311216e-01	 1.671217e+00	 4.109636e+00
 3.123552e-01	 1.674826e+00	 3.994270e+00
 2.936146e-01	 1.678212e+00	 3.873397e+00
 2.749036e-01	 1.681379e+00	 3.758560e+00
 3.703208e-01	 1.670558e+00	 4.314454e+00
 3.514317e-01	 1.674633e+00	 4.246689e+00
 3.325613e-01	 1.678483e+00	 4.149310e+00
 3.137133e-01	 1.682107e+00	 4.035083e+00
 2.948912e-01	 1.685509e+00	 3.915782e+00
 2.760988e-01	 1.688689e+00	 3.802516e+00
 3.719239e-01	 1.677790e+00	 4.353752e+00
 3.529531e-01	 1.681883e+00	 4.284258e+00
 3.340010e-01	 1.685749e+00	 4.186910e+00
 3.150713e-01	 1.689389e+00	 4.073675e+00
 2.961678e-01	 1.692806e+00	 3.955784e+00
 2.772940e-01	 1.695999e+00	 3.843942e+00
 3.735271e-01	 1.685022e+00	 4.392683e+00
 3.544744e-01	 1.689132e+00	 4.321196e+00
 3.354406e-01	 1.693015e+00	 4.223737e+00
 3.164294e-01	 1.696671e+00	 4.111320e+00
 2.974444e-01	 1.700102e+00	 3.994652e+00
 2.784893e-01	 1.703310e+00	 3.884073e+00
 3.751302e-01	 1.692253e+00	 4.432542e+00
 3.559958e-01	 1.696382e+00	 4.358818e+00
 3.368803e-01	 1.700281e+00	 4.261081e+00
 3.177874e-01	 1.703953e+00	 4.149280e+00
 2.987210e-01	 1.707399e+00	 4.033630e+00
 2.796845e-01	 1.710620e+00	 3.924137e+00
 3.767333e-01	 1.699485e+00	 4.474597e+00
 3.575171e-01	 1.703631e+00	 4.398422e+00
 3.383199e-01	 1.707547e+00	 4.300216e+00
 3.191455e-01	 1.711235e+00	 4.188809e+00
 2.999976e-01	 1.714695e+00	 4.073953e+00
 2.808797e-01	 1.717930e+00	 3.965359e+00
 2.749036e-01	 1.681379e+00	 3.758560e+00
 2.562255e-01	 1.684326e+00	 3.664348e+00
 2.375838e-01	 1.687057e+00	 3.592625e+00
 2.189819e-01	 1.689572e+00	 3.535472e+00
 2.004231e-01	 1.691874e+00	 3.485127e+00
 1.819107e-01	 1.693964e+00	 3.434086e+00
 2.760988e-01	 1.688689e+00	 3.802516e+00
 2.573395e-01	 1.691649e+00	 3.709345e+00
 2.386168e-01	 1.694392e+00	 3.637921e+00
 2.199340e-01	 1.696918e+00	 3.580520e+00
 2.012945e-01	 1.699230e+00	 3.529667e+00
 1.827016e-01	 1.701329e+00	 3.478200e+00
 2.772940e-01	 1.695999e+00	 3.843942e+00
 2.584535e-01	 1.698973e+00	 3.751770e+00
 2.396497e-01	 1.701727e+00	 3.680739e+00
 2.208861e-01	 1.704264e+00	 3.623288e+00
 2.021659e-01	 1.706586e+00	 3.572185e+00
 1.834925e-01	 1.708694e+00	 3.520585e+00
 2.784893e-01	 1.703310e+00	 3.884073e+00
 2.595675e-01	 1.706296e+00	 3.792828e+00
 2.406827e-01	 1.709062e+00	 3.722221e+00
 2.218382e-01	 1.711610e+00	 3.664816e+00
 2.030373e-01	 1.713942e+00	 3.613600e+00
 1.842834e-01	 1.716059e+00	 3.562008e+00
 2.796845e-01	 1.710620e+00	 3.924137e+00
 2.606816e-01	 1.713619e+00	 3.833718e+00
 2.417157e-01	 1.716397e+00	 3.763500e+00
 2.227903e-01	 1.718956e+00	 3.706145e+00
 2.039088e-01	 1.721298e+00	 3.654825e+00
 1.850744e-01	 1.723424e+00	 3.603236e+00
 2.808797e-01	 1.717930e+00	 3.965359e+00
 2.617956e-01	 1.720942e+00	 3.875636e+00
 2.427487e-01	 1.723732e+00	 3.805711e+00
 2.237424e-01	 1.726302e+00	 3.748314e+00
 2.047802e-01	 1.728654e+00	 3.696779e+00
 1.858653e-01	 1.730790e+00	 3.645040e+00
 1.819107e-01	 1.693964e+00	 3.434086e+00
 1.634478e-01	 1.695845e+00	 3.380691e+00
 1.450375e-01	 1.697519e+00	 3.329427e+00
 1.266829e-01	 1.698987e+00	 3.282372e+00
 1.083869e-01	 1.700253e+00	 3.241783e+00
 9.015252e-02	 1.701317e+00	 3.210067e+00
 1.827016e-01	 1.701329e+00	 3.478200e+00
 1.641584e-01	 1.703218e+00	 3.424820e+00
 1.456681e-01	 1.704899e+00	 3.373961e+00
 1.272337e-01	 1.706374e+00	 3.327480e+00
 1.088582e-01	 1.707645e+00	 3.287399e+00
 9.054449e-02	 1.708714e+00	 3.255866e+00
 1.834925e-01	 1.708694e+00	 3.520585e+00
 1.648691e-01	 1.710592e+00	 3.467472e+00
 1.462987e-01	 1.712280e+00	 3.417199e+00
 1.277845e-01	 1.713761e+00	 3.371423e+00
 1.093294e-01	 1.715037e+00	 3.331967e+00
 9.093646e-02	 1.716111e+00	 3.300744e+00
 1.842834e-01	 1.716059e+00	 3.562008e+00
 1.655797e-01	 1.717965e+00	 3.509262e+00
 1.469293e-01	 1.719660e+00	 3.459616e+00
 1.283353e-01	 1.721148e+00	 3.414564e+00
 1.098007e-01	 1.722430e+00	 3.375753e+00
 9.132843e-02	 1.723508e+00	 3.344901e+00
 1.850744e-01	 1.723424e+00	 3.603236e+00
 1.662904e-01	 1.725338e+00	 3.550805e+00
 1.475599e-01	 1.727041e+00	 3.501695e+00
 1.288861e-01	 1.728535e+00	 3.457266e+00
 1.102719e-01	 1.729822e+00	 3.419027e+00
 9.172039e-02	 1.730905e+00	 3.388536e+00
 1.858653e-01	 1.730790e+00	 3.645040e+00
 1.670010e-01	 1.732711e+00	 3.592720e+00
 1.481905e-01	 1.734421e+00	 3.543919e+00
 1.294369e-01	 1.735922e+00	 3.499896e+00
 1.107432e-01	 1.737215e+00	 3.462062e+00
 9.211236e-02	 1.738302e+00	 3.431853e+00
 9.015252e-02	 1.701317e+00	 3.210067e+00
 7.198247e-02	 1.702182e+00	 3.188165e+00
 5.387954e-02	 1.702852e+00	 3.173292e+00
 3.584642e-02	 1.703327e+00	 3.162477e+00
 1.788573e-02	 1.703610e+00	 3.152906e+00
 0.000000e+00	 1.703704e+00	 3.141929e+00
 9.054449e-02	 1.708714e+00	 3.255866e+00
 7.229544e-02	 1.709583e+00	 3.233703e+00
 5.411380e-02	 1.710255e+00	 3.218435e+00
 3.600227e-02	 1.710732e+00	 3.207388e+00
 1.796349e-02	 1.711017e+00	 3.197954e+00
 0.000000e+00	 1.711111e+00	 3.187582e+00
 9.093646e-02	 1.716111e+00	 3.300744e+00
 7.260840e-02	 1.716984e+00	 3.278507e+00
 5.434806e-02	 1.717659e+00	 3.263070e+00
 3.615813e-02	 1.718138e+00	 3.251981e+00
 1.804125e-02	 1.718424e+00	 3.242757e+00
 0.000000e+00	 1.718519e+00	 3.232871e+00
 9.132843e-02	 1.723508e+00	 3.344901e+00
 7.292137e-02	 1.724385e+00	 3.322722e+00
 5.458232e-02	 1.725063e+00	 3.307288e+00
 3.631398e-02	 1.725544e+00	 3.296296e+00
 1.811902e-02	 1.725831e+00	 3.287320e+00
 0.000000e+00	 1.725926e+00	 3.277774e+00
 9.172039e-02	 1.730905e+00	 3.388536e+00
 7.323434e-02	 1.731786e+00	 3.366493e+00
 5.481657e-02	 1.732466e+00	 3.351179e+00
 3.646984e-02	 1.732950e+00	 3.340375e+00
 1.819678e-02	 1.733238e+00	 3.331642e+00
 0.000000e+00	 1.733333e+00	 3.322266e+00
 9.211236e-02	 1.738302e+00	 3.431853e+00
 7.354730e-02	 1.739186e+00	 3.409964e+00
 5.505083e-02	 1.739870e+00	 3.394831e+00
 3.662569e-02	 1.740355e+00	 3.384257e+00
 1.827455e-02	 1.740645e+00	 3.375722e+00
 0.000000e+00	 1.740741e+00	 3.366318e+00
 1.740741e+00	 0.000000e+00	 1.359165e+01
 1.740645e+00	 1.827455e-02	 1.359109e+01
 1.740355e+00	 3.662569e-02	 1.359073e+01
 1.739870e+00	 5.505083e-02	 1.359150e+01
 1.739186e+00	 7.354730e-02	 1.359429e+01
 1.738302e+00	 9.211236e-02	 1.359990e+01
 1.748148e+00	 0.000000e+00	 1.354997e+01
 1.748052e+00	 1.835231e-02	 1.354953e+01
 1.747761e+00	 3.678154e-02	 1.354928e+01
 1.747274e+00	 5.528509e-02	 1.355013e+01
 1.746587e+00	 7.386027e-02	 1.355297e+01
 1.745699e+00	 9.250433e-02	 1.355861e+01
 1.755556e+00	 0.000000e+00	 1.350909e+01
 1.755459e+00	 1.843007e-02	 1.350876e+01
 1.755167e+00	 3.693740e-02	 1.350860e+01
 1.754677e+00	 5.551935e-02	 1.350952e+01
 1.753988e+00	 7.417324e-02	 1.351239e+01
 1.753096e+00	 9.289630e-02	 1.351806e+01
 1.762963e+00	 0.000000e+00	 1.346897e+01
 1.762866e+00	 1.850784e-02	 1.346878e+01
 1.762573e+00	 3.709325e-02	 1.346871e+01
 1.762081e+00	 5.575361e-02	 1.346965e+01
 1.761389e+00	 7.448621e-02	 1.347252e+01
 1.760493e+00	 9.328826e-02	 1.347820e+01
 1.770370e+00	 0.000000e+00	 1.342956e+01
 1.770273e+00	 1.858560e-02	 1.342957e+01
 1.769978e+00	 3.724911e-02	 1.342959e+01
 1.769485e+00	 5.598787e-02	 1.343054e+01
 1.768790e+00	 7.479917e-02	 1.343335e+01
 1.767890e+00	 9.368023e-02	 1.343896e+01
 1.777778e+00	 0.000000e+00	 1.339084e+01
 1.777680e+00	 1.866337e-02	 1.339112e+01
 1.777384e+00	 3.740496e-02	 1.339124e+01
 1.776889e+00	 5.622213e-02	 1.339216e+01
 1.776190e+00	 7.511214e-02	 1.339484e+01
 1.775287e+00	 9.407220e-02	 1.340028e+01
 1.738302e+00	 9.211236e-02	 1.359990e+01
 1.737215e+00	 1.107432e-01	 1.360588e+01
 1.735922e+00	 1.294369e-01	 1.361000e+01
 1.734421e+00	 1.481905e-01	 1.361316e+01
 1.732711e+00	 1.670010e-01	 1.361609e+01
 1.730790e+00	 1.858653e-01	 1.361937e+01
 1.745699e+00	 9.250433e-02	 1.355861e+01
 1.744607e+00	 1.112144e-01	 1.356465e+01
 1.743309e+00	 1.299877e-01	 1.356886e+01
 1.741802e+00	 1.488211e-01	 1.357213e+01
 1.740085e+00	 1.677116e-01	 1.357521e+01
 1.738155e+00	 1.866562e-01	 1.357861e+01
 1.753096e+00	 9.289630e-02	 1.351806e+01
 1.751999e+00	 1.116857e-01	 1.352418e+01
 1.750696e+00	 1.305385e-01	 1.352851e+01
 1.749183e+00	 1.494517e-01	 1.353193e+01
 1.747458e+00	 1.684223e-01	 1.353515e+01
 1.745520e+00	 1.874471e-01	 1.353871e+01
 1.760493e+00	 9.328826e-02	 1.347820e+01
 1.759392e+00	 1.121569e-01	 1.348437e+01
 1.758082e+00	 1.310893e-01	 1.348882e+01
 1.756563e+00	 1.500823e-01	 1.349239e+01
 1.754831e+00	 1.691329e-01	 1.349577e+01
 1.752885e+00	 1.882380e-01	 1.349947e+01
 1.767890e+00	 9.368023e-02	 1.343896e+01
 1.766784e+00	 1.126282e-01	 1.344514e+01
 1.765469e+00	 1.316401e-01	 1.344967e+01
 1.763944e+00	 1.507129e-01	 1.345337e+01
 1.762204e+00	 1.698436e-01	 1.345689e+01
 1.760250e+00	 1.890289e-01	 1.346071e+01
 1.775287e+00	 9.407220e-02	 1.340028e+01
 1.774177e+00	 1.130994e-01	 1.340638e+01
 1.772856e+00	 1.321909e-01	 1.341094e+01
 1.771324e+00	 1.513435e-01	 1.341472e+01
 1.769578e+00	 1.705542e-01	 1.341835e+01
 1.767615e+00	 1.898199e-01	 1.342228e+01
 1.730790e+00	 1.858653e-01	 1.361937e+01
 1.728654e+00	 2.047802e-01	 1.362490e+01
 1.726302e+00	 2.237424e-01	 1.363365e+01
 1.723732e+00	 2.427487e-01	 1.364432e+01
 1.720942e+00	 2.617956e-01	 1.365528e+01
 1.717930e+00	 2.808797e-01	 1.366461e+01
 1.738155e+00	 1.866562e-01	 1.357861e+01
 1.736010e+00	 2.056516e-01	 1.358424e+01
 1.733648e+00	 2.246945e-01	 1.359305e+01
 1.731067e+00	 2.437816e-01	 1.360380e+01
 1.728265e+00	 2.629096e-01	 1.361491e+01
 1.725241e+00	 2.820750e-01	 1.362448e+01
 1.745520e+00	 1.874471e-01	 1.353871e+01
 1.743366e+00	 2.065230e-01	 1.354443e+01
 1.740994e+00	 2.256466e-01	 1.355330e+01
 1.738402e+00	 2.448146e-01	 1.356413e+01
 1.735588e+00	 2.640236e-01	 1.357542e+01
 1.732551e+00	 2.832702e-01	 1.358529e+01
 1.752885e+00	 1.882380e-01	 1.349947e+01
 1.750722e+00	 2.073944e-01	 1.350527e+01
 1.748340e+00	 2.265987e-01	 1.351419e+01
 1.745737e+00	 2.458476e-01	 1.352512e+01
 1.742911e+00	 2.651377e-01	 1.353660e+01
 1.739861e+00	 2.844654e-01	 1.354681e+01
 1.760250e+00	 1.890289e-01	 1.346071e+01
 1.758078e+00	 2.082658e-01	 1.346658e+01
 1.755686e+00	 2.275508e-01	 1.347554e+01
 1.753072e+00	 2.468806e-01	 1.348656e+01
 1.750235e+00	 2.662517e-01	 1.349825e+01
 1.747172e+00	 2.856607e-01	 1.350881e+01
 1.767615e+00	 1.898199e-01	 1.342228e+01
 1.765434e+00	 2.091372e-01	 1.342820e+01
 1.763032e+00	 2.285029e-01	 1.343717e+01
 1.760407e+00	 2.479135e-01	 1.344826e+01
 1.757558e+00	 2.673657e-01	 1.346015e+01
 1.754482e+00	 2.868559e-01	 1.347108e+01
 1.717930e+00	 2.808797e-01	 1.366461e+01
 1.714695e+00	 2.999976e-01	 1.367255e+01
 1.711235e+00	 3.191455e-01	 1.368111e+01
 1.707547e+00	 3.383199e-01	 1.369063e+01
 1.703631e+00	 3.575171e-01	 1.370119e+01
 1.699485e+00	 3.767333e-01	 1.371343e+01
 1.725241e+00	 2.820750e-01	 1.362448e+01
 1.721992e+00	 3.012742e-01	 1.363270e+01
 1.718517e+00	 3.205036e-01	 1.364148e+01
 1.714814e+00	 3.397596e-01	 1.365109e+01
 1.710881e+00	 3.590385e-01	 1.366156e+01
 1.706717e+00	 3.783364e-01	 1.367376e+01
 1.732551e+00	 2.832702e-01	 1.358529e+01
 1.729288e+00	 3.025507e-01	 1.359384e+01
 1.725798e+00	 3.218616e-01	 1.360287e+01
 1.722080e+00	 3.411993e-01	 1.361259e+01
 1.718130e+00	 3.605598e-01	 1.362292e+01
 1.713949e+00	 3.799395e-01	 1.363503e+01
 1.739861e+00	 2.844654e-01	 1.354681e+01
 1.736585e+00	 3.038273e-01	 1.355574e+01
 1.733080e+00	 3.232197e-01	 1.356506e+01
 1.729346e+00	 3.426389e-01	 1.357490e+01
 1.725380e+00	 3.620812e-01	 1.358506e+01
 1.721181e+00	 3.815427e-01	 1.359705e+01
 1.747172e+00	 2.856607e-01	 1.350881e+01
 1.743882e+00	 3.051039e-01	 1.351817e+01
 1.740362e+00	 3.245778e-01	 1.352782e+01
 1.736612e+00	 3.440786e-01	 1.353780e+01
 1.732629e+00	 3.636025e-01	 1.354779e+01
 1.728413e+00	 3.831458e-01	 1.355968e+01
 1.754482e+00	 2.868559e-01	 1.347108e+01
 1.751178e+00	 3.063805e-01	 1.348089e+01
 1.747644e+00	 3.259358e-01	 1.349090e+01
 1.743878e+00	 3.455182e-01	 1.350107e+01
 1.739879e+00	 3.651239e-01	 1.351090e+01
 1.735645e+00	 3.847489e-01	 1.352275e+01
 1.699485e+00	 3.767333e-01	 1.371343e+01
 1.695108e+00	 3.959647e-01	 1.372753e+01
 1.690497e+00	 4.152073e-01	 1.373808e+01
 1.685653e+00	 4.344573e-01	 1.374657e+01
 1.680573e+00	 4.537107e-01	 1.375457e+01
 1.675256e+00	 4.729634e-01	 1.376375e+01
 1.706717e+00	 3.783364e-01	 1.367376e+01
 1.702321e+00	 3.976496e-01	 1.368858e+01
 1.697691e+00	 4.169742e-01	 1.370017e+01
 1.692826e+00	 4.363061e-01	 1.370972e+01
 1.687724e+00	 4.556414e-01	 1.371850e+01
 1.682385e+00	 4.749760e-01	 1.372787e+01
 1.713949e+00	 3.799395e-01	 1.363503e+01
 1.709534e+00	 3.993346e-01	 1.365040e+01
 1.704885e+00	 4.187410e-01	 1.366291e+01
 1.699999e+00	 4.381548e-01	 1.367345e+01
 1.694876e+00	 4.575721e-01	 1.368300e+01
 1.689514e+00	 4.769886e-01	 1.369263e+01
 1.721181e+00	 3.815427e-01	 1.359705e+01
 1.716747e+00	 4.010195e-01	 1.361286e+01
 1.712078e+00	 4.205078e-01	 1.362619e+01
 1.707172e+00	 4.400036e-01	 1.363766e+01
 1.702027e+00	 4.595028e-01	 1.364798e+01
 1.696643e+00	 4.790013e-01	 1.365795e+01
 1.728413e+00	 3.831458e-01	 1.355968e+01
 1.723961e+00	 4.027045e-01	 1.357585e+01
 1.719272e+00	 4.222747e-01	 1.358993e+01
 1.714345e+00	 4.418524e-01	 1.360229e+01
 1.709178e+00	 4.614335e-01	 1.361339e+01
 1.703771e+00	 4.810139e-01	 1.362375e+01
 1.735645e+00	 3.847489e-01	 1.352275e+01
 1.731174e+00	 4.043894e-01	 1.353924e+01
 1.726465e+00	 4.240415e-01	 1.355404e+01
 1.721518e+00	 4.437011e-01	 1.356727e+01
 1.716330e+00	 4.633641e-01	 1.357915e+01
 1.710900e+00	 4.830265e-01	 1.358998e+01
 1.675256e+00	 4.729634e-01	 1.376375e+01
 1.669702e+00	 4.922114e-01	 1.377447e+01
 1.663910e+00	 5.114504e-01	 1.378534e+01
 1.657878e+00	 5.306764e-01	 1.379583e+01
 1.651607e+00	 5.498850e-01	 1.380577e+01
 1.645094e+00	 5.690721e-01	 1.381543e+01
 1.682385e+00	 4.749760e-01	 1.372787e+01
 1.676808e+00	 4.943059e-01	 1.373848e+01
 1.670991e+00	 5.136268e-01	 1.374948e+01
 1.664933e+00	 5.329346e-01	 1.376038e+01
 1.658635e+00	 5.522249e-01	 1.377105e+01
 1.652095e+00	 5.714936e-01	 1.378177e+01
 1.689514e+00	 4.769886e-01	 1.369263e+01
 1.683913e+00	 4.964004e-01	 1.370322e+01
 1.678071e+00	 5.158032e-01	 1.371436e+01
 1.671988e+00	 5.351928e-01	 1.372560e+01
 1.665663e+00	 5.545649e-01	 1.373686e+01
 1.659095e+00	 5.739152e-01	 1.374843e+01
 1.696643e+00	 4.790013e-01	 1.365795e+01
 1.691018e+00	 4.984949e-01	 1.366859e+01
 1.685152e+00	 5.179796e-01	 1.367990e+01
 1.679043e+00	 5.374510e-01	 1.369146e+01
 1.672691e+00	 5.569048e-01	 1.370320e+01
 1.666096e+00	 5.763368e-01	 1.371546e+01
 1.703771e+00	 4.810139e-01	 1.362375e+01
 1.698123e+00	 5.005894e-01	 1.363454e+01
 1.692232e+00	 5.201559e-01	 1.364604e+01
 1.686098e+00	 5.397092e-01	 1.365790e+01
 1.679719e+00	 5.592447e-01	 1.367007e+01
 1.673096e+00	 5.787584e-01	 1.368289e+01
 1.710900e+00	 4.830265e-01	 1.358998e+01
 1.705228e+00	 5.026840e-01	 1.360098e+01
 1.699312e+00	 5.223323e-01	 1.361272e+01
 1.693152e+00	 5.419673e-01	 1.362489e+01
 1.686747e+00	 5.615847e-01	 1.363746e+01
 1.680096e+00	 5.811800e-01	 1.365080e+01
 1.645094e+00	 5.690721e-01	 1.381543e+01
 1.638341e+00	 5.882332e-01	 1.382004e+01
 1.631345e+00	 6.073642e-01	 1.381703e+01
 1.624108e+00	 6.264605e-01	 1.381078e+01
 1.616628e+00	 6.455179e-01	 1.380625e+01
 1.608905e+00	 6.645318e-01	 1.380898e+01
 1.652095e+00	 5.714936e-01	 1.378177e+01
 1.645312e+00	 5.907364e-01	 1.378756e+01
 1.638287e+00	 6.099487e-01	 1.378556e+01
 1.631019e+00	 6.291263e-01	 1.377996e+01
 1.623507e+00	 6.482648e-01	 1.377555e+01
 1.615752e+00	 6.673596e-01	 1.377775e+01
 1.659095e+00	 5.739152e-01	 1.374843e+01
 1.652284e+00	 5.932395e-01	 1.375522e+01
 1.645229e+00	 6.125332e-01	 1.375414e+01
 1.637930e+00	 6.317921e-01	 1.374920e+01
 1.630386e+00	 6.510117e-01	 1.374502e+01
 1.622598e+00	 6.701874e-01	 1.374685e+01
 1.666096e+00	 5.763368e-01	 1.371546e+01
 1.659256e+00	 5.957426e-01	 1.372311e+01
 1.652171e+00	 6.151178e-01	 1.372291e+01
 1.644841e+00	 6.344579e-01	 1.371867e+01
 1.637265e+00	 6.537586e-01	 1.371482e+01
 1.629444e+00	 6.730152e-01	 1.371642e+01
 1.673096e+00	 5.787584e-01	 1.368289e+01
 1.666227e+00	 5.982457e-01	 1.369133e+01
 1.659113e+00	 6.177023e-01	 1.369200e+01
 1.651752e+00	 6.371237e-01	 1.368853e+01
 1.644145e+00	 6.565054e-01	 1.368513e+01
 1.636291e+00	 6.758430e-01	 1.368664e+01
 1.680096e+00	 5.811800e-01	 1.365080e+01
 1.673199e+00	 6.007488e-01	 1.365997e+01
 1.666055e+00	 6.202868e-01	 1.366156e+01
 1.658663e+00	 6.397895e-01	 1.365894e+01
 1.651024e+00	 6.592523e-01	 1.365610e+01
 1.643137e+00	 6.786708e-01	 1.365767e+01
 1.608905e+00	 6.645318e-01	 1.380898e+01
 1.600940e+00	 6.834979e-01	 1.381010e+01
 1.592732e+00	 7.024116e-01	 1.380060e+01
 1.584282e+00	 7.212684e-01	 1.378713e+01
 1.575590e+00	 7.400639e-01	 1.377749e+01
 1.566656e+00	 7.587935e-01	 1.376663e+01
 1.615752e+00	 6.673596e-01	 1.377775e+01
 1.607753e+00	 6.864064e-01	 1.377872e+01
 1.599510e+00	 7.054006e-01	 1.377039e+01
 1.591024e+00	 7.243376e-01	 1.375916e+01
 1.582295e+00	 7.432131e-01	 1.375233e+01
 1.573323e+00	 7.620224e-01	 1.374108e+01
 1.622598e+00	 6.701874e-01	 1.374685e+01
 1.614565e+00	 6.893149e-01	 1.374775e+01
 1.606288e+00	 7.083895e-01	 1.374055e+01
 1.597765e+00	 7.274069e-01	 1.373141e+01
 1.588999e+00	 7.463623e-01	 1.372656e+01
 1.579989e+00	 7.652513e-01	 1.371512e+01
 1.629444e+00	 6.730152e-01	 1.371642e+01
 1.621378e+00	 6.922234e-01	 1.371735e+01
 1.613065e+00	 7.113785e-01	 1.371122e+01
 1.604507e+00	 7.304761e-01	 1.370400e+01
 1.595704e+00	 7.495115e-01	 1.370044e+01
 1.586656e+00	 7.684802e-01	 1.368899e+01
 1.636291e+00	 6.758430e-01	 1.368664e+01
 1.628190e+00	 6.951319e-01	 1.368766e+01
 1.619843e+00	 7.143675e-01	 1.368254e+01
 1.611249e+00	 7.335453e-01	 1.367709e+01
 1.602409e+00	 7.526607e-01	 1.367422e+01
 1.593322e+00	 7.717091e-01	 1.366290e+01
 1.643137e+00	 6.786708e-01	 1.365767e+01
 1.635003e+00	 6.980404e-01	 1.365884e+01
 1.626620e+00	 7.173565e-01	 1.365466e+01
 1.617990e+00	 7.366145e-01	 1.365079e+01
 1.609113e+00	 7.558099e-01	 1.364814e+01
 1.599989e+00	 7.749380e-01	 1.363705e+01
 1.566656e+00	 7.587935e-01	 1.376663e+01
 1.557481e+00	 7.774527e-01	 1.374588e+01
 1.548064e+00	 7.960370e-01	 1.372118e+01
 1.538408e+00	 8.145418e-01	 1.369504e+01
 1.528513e+00	 8.329625e-01	 1.366964e+01
 1.518379e+00	 8.512948e-01	 1.364672e+01
 1.573323e+00	 7.620224e-01	 1.374108e+01
 1.564108e+00	 7.807610e-01	 1.372029e+01
 1.554652e+00	 7.994244e-01	 1.369545e+01
 1.544955e+00	 8.180079e-01	 1.366931e+01
 1.535017e+00	 8.365071e-01	 1.364429e+01
 1.524840e+00	 8.549173e-01	 1.362234e+01
 1.579989e+00	 7.652513e-01	 1.371512e+01
 1.570736e+00	 7.840693e-01	 1.369452e+01
 1.561239e+00	 8.028118e-01	 1.366979e+01
 1.551501e+00	 8.214740e-01	 1.364385e+01
 1.541522e+00	 8.400516e-01	 1.361928e+01
 1.531302e+00	 8.585398e-01	 1.359823e+01
 1.586656e+00	 7.684802e-01	 1.368899e+01
 1.577363e+00	 7.873776e-01	 1.366878e+01
 1.567827e+00	 8.061991e-01	 1.364437e+01
 1.558048e+00	 8.249402e-01	 1.361879e+01
 1.548026e+00	 8.435961e-01	 1.359476e+01
 1.537763e+00	 8.621624e-01	 1.357454e+01
 1.593322e+00	 7.717091e-01	 1.366290e+01
 1.583991e+00	 7.906859e-01	 1.364324e+01
 1.574414e+00	 8.095865e-01	 1.361932e+01
 1.564594e+00	 8.284063e-01	 1.359426e+01
 1.554530e+00	 8.471406e-01	 1.357085e+01
 1.544224e+00	 8.657849e-01	 1.355141e+01
 1.599989e+00	 7.749380e-01	 1.363705e+01
 1.590618e+00	 7.939943e-01	 1.361804e+01
 1.581002e+00	 8.129739e-01	 1.359478e+01
 1.571140e+00	 8.318724e-01	 1.357039e+01
 1.561034e+00	 8.506851e-01	 1.354766e+01
 1.550685e+00	 8.694074e-01	 1.352894e+01
 1.518379e+00	 8.512948e-01	 1.364672e+01
 1.508008e+00	 8.695339e-01	 1.362197e+01
 1.497401e+00	 8.876755e-01	 1.358927e+01
 1.486559e+00	 9.057150e-01	 1.354660e+01
 1.475484e+00	 9.236480e-01	 1.349322e+01
 1.464176e+00	 9.414699e-01	 1.343395e+01
 1.524840e+00	 8.549173e-01	 1.362234e+01
 1.514425e+00	 8.732341e-01	 1.359928e+01
 1.503773e+00	 8.914529e-01	 1.356892e+01
 1.492885e+00	 9.095691e-01	 1.352919e+01
 1.481763e+00	 9.275784e-01	 1.347704e+01
 1.470407e+00	 9.454762e-01	 1.341486e+01
 1.531302e+00	 8.585398e-01	 1.359823e+01
 1.520842e+00	 8.769342e-01	 1.357654e+01
 1.510145e+00	 8.952302e-01	 1.354797e+01
 1.499211e+00	 9.134233e-01	 1.351048e+01
 1.488041e+00	 9.315088e-01	 1.346104e+01
 1.476638e+00	 9.494825e-01	 1.339678e+01
 1.537763e+00	 8.621624e-01	 1.357454e+01
 1.527259e+00	 8.806344e-01	 1.355393e+01
 1.516517e+00	 8.990076e-01	 1.352665e+01
 1.505537e+00	 9.172774e-01	 1.349078e+01
 1.494320e+00	 9.354392e-01	 1.344341e+01
 1.482868e+00	 9.534887e-01	 1.338045e+01
 1.544224e+00	 8.657849e-01	 1.355141e+01
 1.533677e+00	 8.843345e-01	 1.353162e+01
 1.522889e+00	 9.027849e-01	 1.350518e+01
 1.511862e+00	 9.211315e-01	 1.347039e+01
 1.500599e+00	 9.393697e-01	 1.342452e+01
 1.489099e+00	 9.574950e-01	 1.336369e+01
 1.550685e+00	 8.694074e-01	 1.352894e+01
 1.540094e+00	 8.880347e-01	 1.350974e+01
 1.529261e+00	 9.065622e-01	 1.348374e+01
 1.518188e+00	 9.249856e-01	 1.344956e+01
 1.506877e+00	 9.433001e-01	 1.340474e+01
 1.495329e+00	 9.615012e-01	 1.334569e+01
 1.464176e+00	 9.414699e-01	 1.343395e+01
 1.452639e+00	 9.591764e-01	 1.338194e+01
 1.440872e+00	 9.767631e-01	 1.334574e+01
 1.428879e+00	 9.942255e-01	 1.330865e+01
 1.416660e+00	 1.011559e+00	 1.325281e+01
 1.404219e+00	 1.028760e+00	 1.315972e+01
 1.470407e+00	 9.454762e-01	 1.341486e+01
 1.458820e+00	 9.632580e-01	 1.336215e+01
 1.447003e+00	 9.809195e-01	 1.332638e+01
 1.434959e+00	 9.984563e-01	 1.329092e+01
 1.422688e+00	 1.015864e+00	 1.323803e+01
 1.410194e+00	 1.033138e+00	 1.314927e+01
 1.476638e+00	 9.494825e-01	 1.339678e+01
 1.465001e+00	 9.673396e-01	 1.334189e+01
 1.453135e+00	 9.850760e-01	 1.330576e+01
 1.441039e+00	 1.002687e+00	 1.327174e+01
 1.428717e+00	 1.020168e+00	 1.322206e+01
 1.416170e+00	 1.037516e+00	 1.313818e+01
 1.482868e+00	 9.534887e-01	 1.338045e+01
 1.471183e+00	 9.714212e-01	 1.332210e+01
 1.459266e+00	 9.892324e-01	 1.328481e+01
 1.447120e+00	 1.006918e+00	 1.325196e+01
 1.434745e+00	 1.024473e+00	 1.320558e+01
 1.422145e+00	 1.041894e+00	 1.312693e+01
 1.489099e+00	 9.574950e-01	 1.336369e+01
 1.477364e+00	 9.755028e-01	 1.330367e+01
 1.465398e+00	 9.933888e-01	 1.326446e+01
 1.453200e+00	 1.011149e+00	 1.323242e+01
 1.440774e+00	 1.028777e+00	 1.318930e+01
 1.428120e+00	 1.046271e+00	 1.311598e+01
 1.495329e+00	 9.615012e-01	 1.334569e+01
 1.483546e+00	 9.795844e-01	 1.328726e+01
 1.471529e+00	 9.975453e-01	 1.324555e+01
 1.459280e+00	 1.015379e+00	 1.321390e+01
 1.446802e+00	 1.033082e+00	 1.317383e+01
 1.434096e+00	 1.050649e+00	 1.310574e+01
 1.404219e+00	 1.028760e+00	 1.315972e+01
 1.391557e+00	 1.045824e+00	 1.306497e+01
 1.378676e+00	 1.062747e+00	 1.300167e+01
 1.365579e+00	 1.079524e+00	 1.294769e+01
 1.352269e+00	 1.096151e+00	 1.288194e+01
 1.338747e+00	 1.112625e+00	 1.278555e+01
 1.410194e+00	 1.033138e+00	 1.314927e+01
 1.397478e+00	 1.050275e+00	 1.305881e+01
 1.384543e+00	 1.067269e+00	 1.299738e+01
 1.371390e+00	 1.084118e+00	 1.294137e+01
 1.358023e+00	 1.100816e+00	 1.286808e+01
 1.344444e+00	 1.117360e+00	 1.276475e+01
 1.416170e+00	 1.037516e+00	 1.313818e+01
 1.403400e+00	 1.054725e+00	 1.305224e+01
 1.390409e+00	 1.071792e+00	 1.299212e+01
 1.377201e+00	 1.088711e+00	 1.293286e+01
 1.363777e+00	 1.105480e+00	 1.285028e+01
 1.350140e+00	 1.122094e+00	 1.274696e+01
 1.422145e+00	 1.041894e+00	 1.312693e+01
 1.409321e+00	 1.059175e+00	 1.304553e+01
 1.396276e+00	 1.076314e+00	 1.298607e+01
 1.383012e+00	 1.093305e+00	 1.292236e+01
 1.369532e+00	 1.110145e+00	 1.282889e+01
 1.355837e+00	 1.126829e+00	 1.273213e+01
 1.428120e+00	 1.046271e+00	 1.311598e+01
 1.415243e+00	 1.063626e+00	 1.303894e+01
 1.402143e+00	 1.080836e+00	 1.297940e+01
 1.388823e+00	 1.097899e+00	 1.291007e+01
 1.375286e+00	 1.114809e+00	 1.280677e+01
 1.361534e+00	 1.131564e+00	 1.272018e+01
 1.434096e+00	 1.050649e+00	 1.310574e+01
 1.421164e+00	 1.068076e+00	 1.303269e+01
 1.408009e+00	 1.085359e+00	 1.297225e+01
 1.394634e+00	 1.102493e+00	 1.289613e+01
 1.381040e+00	 1.119474e+00	 1.278931e+01
 1.367231e+00	 1.136298e+00	 1.271098e+01
 1.338747e+00	 1.112625e+00	 1.278555e+01
 1.325017e+00	 1.128942e+00	 1.267553e+01
 1.311081e+00	 1.145096e+00	 1.256261e+01
 1.296942e+00	 1.161085e+00	 1.245044e+01
 1.282604e+00	 1.176905e+00	 1.234313e+01
 1.268068e+00	 1.192552e+00	 1.224511e+01
 1.344444e+00	 1.117360e+00	 1.276475e+01
 1.330655e+00	 1.133746e+00	 1.266674e+01
 1.316660e+00	 1.149969e+00	 1.256111e+01
 1.302461e+00	 1.166026e+00	 1.245234e+01
 1.288061e+00	 1.181914e+00	 1.234547e+01
 1.273464e+00	 1.197627e+00	 1.224598e+01
 1.350140e+00	 1.122094e+00	 1.274696e+01
 1.336293e+00	 1.138550e+00	 1.265862e+01
 1.322239e+00	 1.154842e+00	 1.255885e+01
 1.307980e+00	 1.170967e+00	 1.245278e+01
 1.293519e+00	 1.186922e+00	 1.234627e+01
 1.278860e+00	 1.202702e+00	 1.224569e+01
 1.355837e+00	 1.126829e+00	 1.273213e+01
 1.341932e+00	 1.143354e+00	 1.265138e+01
 1.327818e+00	 1.159714e+00	 1.255616e+01
 1.313499e+00	 1.175908e+00	 1.245219e+01
 1.298977e+00	 1.191930e+00	 1.234598e+01
 1.284256e+00	 1.207777e+00	 1.224462e+01
 1.361534e+00	 1.131564e+00	 1.272018e+01
 1.347570e+00	 1.148158e+00	 1.264514e+01
 1.333397e+00	 1.164587e+00	 1.255335e+01
 1.319018e+00	 1.180849e+00	 1.245095e+01
 1.304435e+00	 1.196938e+00	 1.234498e+01
 1.289652e+00	 1.212851e+00	 1.224312e+01
 1.367231e+00	 1.136298e+00	 1.271098e+01
 1.353209e+00	 1.152962e+00	 1.264000e+01
 1.338976e+00	 1.169460e+00	 1.255067e+01
 1.324537e+00	 1.185789e+00	 1.244941e+01
 1.309893e+00	 1.201946e+00	 1.234364e+01
 1.295048e+00	 1.217926e+00	 1.224150e+01
 1.268068e+00	 1.192552e+00	 1.224511e+01
 1.253339e+00	 1.208023e+00	 1.214130e+01
 1.238420e+00	 1.223313e+00	 1.201941e+01
 1.223313e+00	 1.238420e+00	 1.188796e+01
 1.208023e+00	 1.253339e+00	 1.175499e+01
 1.192552e+00	 1.268068e+00	 1.162783e+01
 1.273464e+00	 1.197627e+00	 1.224598e+01
 1.258673e+00	 1.213163e+00	 1.214055e+01
 1.243690e+00	 1.228519e+00	 1.201781e+01
 1.228519e+00	 1.243690e+00	 1.188612e+01
 1.213163e+00	 1.258673e+00	 1.175336e+01
 1.197627e+00	 1.273464e+00	 1.162670e+01
 1.278860e+00	 1.202702e+00	 1.224569e+01
 1.264006e+00	 1.218304e+00	 1.213906e+01
 1.248959e+00	 1.233724e+00	 1.201571e+01
 1.233724e+00	 1.248959e+00	 1.188389e+01
 1.218304e+00	 1.264006e+00	 1.175139e+01
 1.202702e+00	 1.278860e+00	 1.162524e+01
 1.284256e+00	 1.207777e+00	 1.224462e+01
 1.269339e+00	 1.223444e+00	 1.213717e+01
 1.254229e+00	 1.238930e+00	 1.201341e+01
 1.238930e+00	 1.254229e+00	 1.188154e+01
 1.223444e+00	 1.269339e+00	 1.174933e+01
 1.207777e+00	 1.284256e+00	 1.162375e+01
 1.289652e+00	 1.212851e+00	 1.224312e+01
 1.274673e+00	 1.228585e+00	 1.213515e+01
 1.259499e+00	 1.244135e+00	 1.201113e+01
 1.244135e+00	 1.259499e+00	 1.187929e+01
 1.228585e+00	 1.274673e+00	 1.174742e+01
 1.212851e+00	 1.289652e+00	 1.162250e+01
 1.295048e+00	 1.217926e+00	 1.224150e+01
 1.280006e+00	 1.233726e+00	 1.213324e+01
 1.264769e+00	 1.249341e+00	 1.200907e+01
 1.249341e+00	 1.264769e+00	 1.187731e+01
 1.233726e+00	 1.280006e+00	 1.174584e+01
 1.217926e+00	 1.295048e+00	 1.162171e+01
 1.192552e+00	 1.268068e+00	 1.162783e+01
 1.176905e+00	 1.282604e+00	 1.148929e+01
 1.161085e+00	 1.296942e+00	 1.132898e+01
 1.145096e+00	 1.311081e+00	 1.116292e+01
 1.128942e+00	 1.325017e+00	 1.100587e+01
 1.112625e+00	 1.338747e+00	 1.087099e+01
 1.197627e+00	 1.273464e+00	 1.162670e+01
 1.181914e+00	 1.288061e+00	 1.149036e+01
 1.166026e+00	 1.302461e+00	 1.133448e+01
 1.149969e+00	 1.316660e+00	 1.117344e+01
 1.133746e+00	 1.330655e+00	 1.102021e+01
 1.117360e+00	 1.344444e+00	 1.088609e+01
 1.202702e+00	 1.278860e+00	 1.162524e+01
 1.186922e+00	 1.293519e+00	 1.149094e+01
 1.170967e+00	 1.307980e+00	 1.133902e+01
 1.154842e+00	 1.322239e+00	 1.118233e+01
 1.138550e+00	 1.336293e+00	 1.103221e+01
 1.122094e+00	 1.350140e+00	 1.089818e+01
 1.207777e+00	 1.284256e+00	 1.162375e+01
 1.191930e+00	 1.298977e+00	 1.149140e+01
 1.175908e+00	 1.313499e+00	 1.134308e+01
 1.159714e+00	 1.327818e+00	 1.119023e+01
 1.143354e+00	 1.341932e+00	 1.104266e+01
 1.126829e+00	 1.355837e+00	 1.090826e+01
 1.212851e+00	 1.289652e+00	 1.162250e+01
 1.196938e+00	 1.304435e+00	 1.149209e+01
 1.180849e+00	 1.319018e+00	 1.134710e+01
 1.164587e+00	 1.333397e+00	 1.119770e+01
 1.148158e+00	 1.347570e+00	 1.105230e+01
 1.131564e+00	 1.361534e+00	 1.091729e+01
 1.217926e+00	 1.295048e+00	 1.162171e+01
 1.201946e+00	 1.309893e+00	 1.149327e+01
 1.185789e+00	 1.324537e+00	 1.135147e+01
 1.169460e+00	 1.338976e+00	 1.120528e+01
 1.152962e+00	 1.353209e+00	 1.106184e+01
 1.136298e+00	 1.367231e+00	 1.092614e+01
 1.112625e+00	 1.338747e+00	 1.087099e+01
 1.096151e+00	 1.352269e+00	 1.074435e+01
 1.079524e+00	 1.365579e+00	 1.060549e+01
 1.062747e+00	 1.378676e+00	 1.045140e+01
 1.045824e+00	 1.391557e+00	 1.027632e+01
 1.028760e+00	 1.404219e+00	 1.007239e+01
 1.117360e+00	 1.344444e+00	 1.088609e+01
 1.100816e+00	 1.358023e+00	 1.075487e+01
 1.084118e+00	 1.371390e+00	 1.061091e+01
 1.067269e+00	 1.384543e+00	 1.045342e+01
 1.050275e+00	 1.397478e+00	 1.027814e+01
 1.033138e+00	 1.410194e+00	 1.007875e+01
 1.122094e+00	 1.350140e+00	 1.089818e+01
 1.105480e+00	 1.363777e+00	 1.076266e+01
 1.088711e+00	 1.377201e+00	 1.061377e+01
 1.071792e+00	 1.390409e+00	 1.045370e+01
 1.054725e+00	 1.403400e+00	 1.027929e+01
 1.037516e+00	 1.416170e+00	 1.008535e+01
 1.126829e+00	 1.355837e+00	 1.090826e+01
 1.110145e+00	 1.369532e+00	 1.076909e+01
 1.093305e+00	 1.383012e+00	 1.061552e+01
 1.076314e+00	 1.396276e+00	 1.045365e+01
 1.059175e+00	 1.409321e+00	 1.028105e+01
 1.041894e+00	 1.422145e+00	 1.009325e+01
 1.131564e+00	 1.361534e+00	 1.091729e+01
 1.114809e+00	 1.375286e+00	 1.077526e+01
 1.097899e+00	 1.388823e+00	 1.061753e+01
 1.080836e+00	 1.402143e+00	 1.045462e+01
 1.063626e+00	 1.415243e+00	 1.028466e+01
 1.046271e+00	 1.428120e+00	 1.010351e+01
 1.136298e+00	 1.367231e+00	 1.092614e+01
 1.119474e+00	 1.381040e+00	 1.078177e+01
 1.102493e+00	 1.394634e+00	 1.062114e+01
 1.085359e+00	 1.408009e+00	 1.045792e+01
 1.068076e+00	 1.421164e+00	 1.029131e+01
 1.050649e+00	 1.434096e+00	 1.011712e+01
 1.028760e+00	 1.404219e+00	 1.007239e+01
 1.011559e+00	 1.416660e+00	 9.878291e+00
 9.942255e-01	 1.428879e+00	 9.724392e+00
 9.767631e-01	 1.440872e+00	 9.588927e+00
 9.591764e-01	 1.452639e+00	 9.450293e+00
 9.414699e-01	 1.464176e+00	 9.287646e+00
 1.033138e+00	 1.410194e+00	 1.007875e+01
 1.015864e+00	 1.422688e+00	 9.893518e+00
 9.984563e-01	 1.434959e+00	 9.749180e+00
 9.809195e-01	 1.447003e+00	 9.620638e+00
 9.632580e-01	 1.458820e+00	 9.482898e+00
 9.454762e-01	 1.470407e+00	 9.311696e+00
 1.037516e+00	 1.416170e+00	 1.008535e+01
 1.020168e+00	 1.428717e+00	 9.908779e+00
 1.002687e+00	 1.441039e+00	 9.772155e+00
 9.850760e-01	 1.453135e+00	 9.647256e+00
 9.673396e-01	 1.465001e+00	 9.505929e+00
 9.494825e-01	 1.476638e+00	 9.320722e+00
 1.041894e+00	 1.422145e+00	 1.009325e+01
 1.024473e+00	 1.434745e+00	 9.924946e+00
 1.006918e+00	 1.447120e+00	 9.794057e+00
 9.892324e-01	 1.459266e+00	 9.669466e+00
 9.714212e-01	 1.471183e+00	 9.520080e+00
 9.534887e-01	 1.482868e+00	 9.316139e+00
 1.046271e+00	 1.428120e+00	 1.010351e+01
 1.028777e+00	 1.440774e+00	 9.942857e+00
 1.011149e+00	 1.453200e+00	 9.815602e+00
 9.933888e-01	 1.465398e+00	 9.687933e+00
 9.755028e-01	 1.477364e+00	 9.526035e+00
 9.574950e-01	 1.489099e+00	 9.315621e+00
 1.050649e+00	 1.434096e+00	 1.011712e+01
 1.033082e+00	 1.446802e+00	 9.963321e+00
 1.015379e+00	 1.459280e+00	 9.837482e+00
 9.975453e-01	 1.471529e+00	 9.703300e+00
 9.795844e-01	 1.483546e+00	 9.525644e+00
 9.615012e-01	 1.495329e+00	 9.326005e+00
 9.414699e-01	 1.464176e+00	 9.287646e+00
 9.236480e-01	 1.475484e+00	 9.098085e+00
 9.057150e-01	 1.486559e+00	 8.879655e+00
 8.876755e-01	 1.497401e+00	 8.685339e+00
 8.695339e-01	 1.508008e+00	 8.518717e+00
 8.512948e-01	 1.518379e+00	 8.369714e+00
 9.454762e-01	 1.470407e+00	 9.311696e+00
 9.275784e-01	 1.481763e+00	 9.099550e+00
 9.095691e-01	 1.492885e+00	 8.886730e+00
 8.914529e-01	 1.503773e+00	 8.705526e+00
 8.732341e-01	 1.514425e+00	 8.546130e+00
 8.549173e-01	 1.524840e+00	 8.399393e+00
 9.494825e-01	 1.476638e+00	 9.320722e+00
 9.315088e-01	 1.488041e+00	 9.096540e+00
 9.134233e-01	 1.499211e+00	 8.899488e+00
 8.952302e-01	 1.510145e+00	 8.727990e+00
 8.769342e-01	 1.520842e+00	 8.573288e+00
 8.585398e-01	 1.531302e+00	 8.427332e+00
 9.534887e-01	 1.482868e+00	 9.316139e+00
 9.354392e-01	 1.494320e+00	 9.102243e+00
 9.172774e-01	 1.505537e+00	 8.916974e+00
 8.990076e-01	 1.516517e+00	 8.751915e+00
 8.806344e-01	 1.527259e+00	 8.599527e+00
 8.621624e-01	 1.537763e+00	 8.453030e+00
 9.574950e-01	 1.489099e+00	 9.315621e+00
 9.393697e-01	 1.500599e+00	 9.115588e+00
 9.211315e-01	 1.511862e+00	 8.938238e+00
 9.027849e-01	 1.522889e+00	 8.776484e+00
 8.843345e-01	 1.533677e+00	 8.624177e+00
 8.657849e-01	 1.544224e+00	 8.475978e+00
 9.615012e-01	 1.495329e+00	 9.326005e+00
 9.433001e-01	 1.506877e+00	 9.135506e+00
 9.249856e-01	 1.518188e+00	 8.962327e+00
 9.065622e-01	 1.529261e+00	 8.800878e+00
 8.880347e-01	 1.540094e+00	 8.646566e+00
 8.694074e-01	 1.550685e+00	 8.495663e+00
 8.512948e-01	 1.518379e+00	 8.369714e+00
 8.329625e-01	 1.528513e+00	 8.220556e+00
 8.145418e-01	 1.538408e+00	 8.058673e+00
 7.960370e-01	 1.548064e+00	 7.882514e+00
 7.774527e-01	 1.557481e+00	 7.690872e+00
 7.587935e-01	 1.566656e+00	 7.482782e+00
 8.549173e-01	 1.524840e+00	 8.399393e+00
 8.365071e-01	 1.535017e+00	 8.249169e+00
 8.180079e-01	 1.544955e+00	 8.084775e+00
 7.994244e-01	 1.554652e+00	 7.906018e+00
 7.807610e-01	 1.564108e+00	 7.713064e+00
 7.620224e-01	 1.573323e+00	 7.506330e+00
 8.585398e-01	 1.531302e+00	 8.427332e+00
 8.400516e-01	 1.541522e+00	 8.275640e+00
 8.214740e-01	 1.551501e+00	 8.109113e+00
 8.028118e-01	 1.561239e+00	 7.928581e+00
 7.840693e-01	 1.570736e+00	 7.735237e+00
 7.652513e-01	 1.579989e+00	 7.530537e+00
 8.621624e-01	 1.537763e+00	 8.453030e+00
 8.435961e-01	 1.548026e+00	 8.299610e+00
 8.249402e-01	 1.558048e+00	 8.131420e+00
 8.061991e-01	 1.567827e+00	 7.949977e+00
 7.873776e-01	 1.577363e+00	 7.757170e+00
 7.684802e-01	 1.586656e+00	 7.555150e+00
 8.657849e-01	 1.544224e+00	 8.475978e+00
 8.471406e-01	 1.554530e+00	 8.320711e+00
 8.284063e-01	 1.564594e+00	 8.151417e+00
 8.095865e-01	 1.574414e+00	 7.969974e+00
 7.906859e-01	 1.583991e+00	 7.778632e+00
 7.717091e-01	 1.593322e+00	 7.579903e+00
 8.694074e-01	 1.550685e+00	 8.495663e+00
 8.506851e-01	 1.561034e+00	 8.338565e+00
 8.318724e-01	 1.571140e+00	 8.168814e+00
 8.129739e-01	 1.581002e+00	 7.988325e+00
 7.939943e-01	 1.590618e+00	 7.799381e+00
 7.749380e-01	 1.599989e+00	 7.604521e+00
 7.587935e-01	 1.566656e+00	 7.482782e+00
 7.400639e-01	 1.575590e+00	 7.288279e+00
 7.212684e-01	 1.584282e+00	 7.122765e+00
 7.024116e-01	 1.592732e+00	 6.973223e+00
 6.834979e-01	 1.600940e+00	 6.830772e+00
 6.645318e-01	 1.608905e+00	 6.686499e+00
 7.620224e-01	 1.573323e+00	 7.506330e+00
 7.432131e-01	 1.582295e+00	 7.315138e+00
 7.243376e-01	 1.591024e+00	 7.152873e+00
 7.054006e-01	 1.599510e+00	 7.004882e+00
 6.864064e-01	 1.607753e+00	 6.862451e+00
 6.673596e-01	 1.615752e+00	 6.716842e+00
 7.652513e-01	 1.579989e+00	 7.530537e+00
 7.463623e-01	 1.588999e+00	 7.342821e+00
 7.274069e-01	 1.597765e+00	 7.183730e+00
 7.083895e-01	 1.606288e+00	 7.037071e+00
 6.893149e-01	 1.614565e+00	 6.894341e+00
 6.701874e-01	 1.622598e+00	 6.747169e+00
 7.684802e-01	 1.586656e+00	 7.555150e+00
 7.495115e-01	 1.595704e+00	 7.371033e+00
 7.304761e-01	 1.604507e+00	 7.214975e+00
 7.113785e-01	 1.613065e+00	 7.069440e+00
 6.922234e-01	 1.621378e+00	 6.926118e+00
 6.730152e-01	 1.629444e+00	 6.777195e+00
 7.717091e-01	 1.593322e+00	 7.579903e+00
 7.526607e-01	 1.602409e+00	 7.399468e+00
 7.335453e-01	 1.611249e+00	 7.246234e+00
 7.143675e-01	 1.619843e+00	 7.101623e+00
 6.951319e-01	 1.628190e+00	 6.957441e+00
 6.758430e-01	 1.636291e+00	 6.806618e+00
 7.749380e-01	 1.599989e+00	 7.604521e+00
 7.558099e-01	 1.609113e+00	 7.427811e+00
 7.366145e-01	 1.617990e+00	 7.277122e+00
 7.173565e-01	 1.626620e+00	 7.133243e+00
 6.980404e-01	 1.635003e+00	 6.987957e+00
 6.786708e-01	 1.643137e+00	 6.835121e+00
 6.645318e-01	 1.608905e+00	 6.686499e+00
 6.455179e-01	 1.616628e+00	 6.524657e+00
 6.264605e-01	 1.624108e+00	 6.344577e+00
 6.073642e-01	 1.631345e+00	 6.159609e+00
 5.882332e-01	 1.638341e+00	 5.982689e+00
 5.690721e-01	 1.645094e+00	 5.826230e+00
 6.673596e-01	 1.615752e+00	 6.716842e+00
 6.482648e-01	 1.623507e+00	 6.554182e+00
 6.291263e-01	 1.631019e+00	 6.375193e+00
 6.099487e-01	 1.638287e+00	 6.192596e+00
 5.907364e-01	 1.645312e+00	 6.018644e+00
 5.714936e-01	 1.652095e+00	 5.865007e+00
 6.701874e-01	 1.622598e+00	 6.747169e+00
 6.510117e-01	 1.630386e+00	 6.583579e+00
 6.317921e-01	 1.637930e+00	 6.405556e+00
 6.125332e-01	 1.645229e+00	 6.225171e+00
 5.932395e-01	 1.652284e+00	 6.053966e+00
 5.739152e-01	 1.659095e+00	 5.902844e+00
 6.730152e-01	 1.629444e+00	 6.777195e+00
 6.537586e-01	 1.637265e+00	 6.612616e+00
 6.344579e-01	 1.644841e+00	 6.435509e+00
 6.151178e-01	 1.652171e+00	 6.257271e+00
 5.957426e-01	 1.659256e+00	 6.088706e+00
 5.763368e-01	 1.666096e+00	 5.939923e+00
 6.758430e-01	 1.636291e+00	 6.806618e+00
 6.565054e-01	 1.644145e+00	 6.641043e+00
 6.371237e-01	 1.651752e+00	 6.464876e+00
 6.177023e-01	 1.659113e+00	 6.288811e+00
 5.982457e-01	 1.666227e+00	 6.122891e+00
 5.787584e-01	 1.673096e+00	 5.976401e+00
 6.786708e-01	 1.643137e+00	 6.835121e+00
 6.592523e-01	 1.651024e+00	 6.668596e+00
 6.397895e-01	 1.658663e+00	 6.493464e+00
 6.202868e-01	 1.666055e+00	 6.319689e+00
 6.007488e-01	 1.673199e+00	 6.156527e+00
 5.811800e-01	 1.680096e+00	 6.012415e+00
 5.690721e-01	 1.645094e+00	 5.826230e+00
 5.498850e-01	 1.651607e+00	 5.687059e+00
 5.306764e-01	 1.657878e+00	 5.552350e+00
 5.114504e-01	 1.663910e+00	 5.418969e+00
 4.922114e-01	 1.669702e+00	 5.282989e+00
 4.729634e-01	 1.675256e+00	 5.139724e+00
 5.714936e-01	 1.652095e+00	 5.865007e+00
 5.522249e-01	 1.658635e+00	 5.727027e+00
 5.329346e-01	 1.664933e+00	 5.591553e+00
 5.136268e-01	 1.670991e+00	 5.456390e+00
 4.943059e-01	 1.676808e+00	 5.318532e+00
 4.749760e-01	 1.682385e+00	 5.174201e+00
 5.739152e-01	 1.659095e+00	 5.902844e+00
 5.545649e-01	 1.665663e+00	 5.765805e+00
 5.351928e-01	 1.671988e+00	 5.629501e+00
 5.158032e-01	 1.678071e+00	 5.492628e+00
 4.964004e-01	 1.683913e+00	 5.353048e+00
 4.769886e-01	 1.689514e+00	 5.207827e+00
 5.763368e-01	 1.666096e+00	 5.939923e+00
 5.569048e-01	 1.672691e+00	 5.803705e+00
 5.374510e-01	 1.679043e+00	 5.666618e+00
 5.179796e-01	 1.685152e+00	 5.528199e+00
 4.984949e-01	 1.691018e+00	 5.387120e+00
 4.790013e-01	 1.696643e+00	 5.241236e+00
 5.787584e-01	 1.673096e+00	 5.976401e+00
 5.592447e-01	 1.679719e+00	 5.841015e+00
 5.397092e-01	 1.686098e+00	 5.703303e+00
 5.201559e-01	 1.692232e+00	 5.563591e+00
 5.005894e-01	 1.698123e+00	 5.421309e+00
 4.810139e-01	 1.703771e+00	 5.275039e+00
 5.811800e-01	 1.680096e+00	 6.012415e+00
 5.615847e-01	 1.686747e+00	 5.878000e+00
 5.419673e-01	 1.693152e+00	 5.739931e+00
 5.223323e-01	 1.699312e+00	 5.599270e+00
 5.026840e-01	 1.705228e+00	 5.456149e+00
 4.830265e-01	 1.710900e+00	 5.309819e+00
 4.729634e-01	 1.675256e+00	 5.139724e+00
 4.537107e-01	 1.680573e+00	 4.985700e+00
 4.344573e-01	 1.685653e+00	 4.829687e+00
 4.152073e-01	 1.690497e+00	 4.684418e+00
 3.959647e-01	 1.695108e+00	 4.562123e+00
 3.767333e-01	 1.699485e+00	 4.474597e+00
 4.749760e-01	 1.682385e+00	 5.174201e+00
 4.556414e-01	 1.687724e+00	 5.021355e+00
 4.363061e-01	 1.692826e+00	 4.868443e+00
 4.169742e-01	 1.697691e+00	 4.726455e+00
 3.976496e-01	 1.702321e+00	 4.605875e+00
 3.783364e-01	 1.706717e+00	 4.516758e+00
 4.769886e-01	 1.689514e+00	 5.207827e+00
 4.575721e-01	 1.694876e+00	 5.056164e+00
 4.381548e-01	 1.699999e+00	 4.906115e+00
 4.187410e-01	 1.704885e+00	 4.767043e+00
 3.993346e-01	 1.709534e+00	 4.647807e+00
 3.799395e-01	 1.713949e+00	 4.556842e+00
 4.790013e-01	 1.696643e+00	 5.241236e+00
 4.595028e-01	 1.702027e+00	 5.090814e+00
 4.400036e-01	 1.707172e+00	 4.943462e+00
 4.205078e-01	 1.712078e+00	 4.807037e+00
 4.010195e-01	 1.716747e+00	 4.688885e+00
 3.815427e-01	 1.721181e+00	 4.595941e+00
 4.810139e-01	 1.703771e+00	 5.275039e+00
 4.614335e-01	 1.709178e+00	 5.125966e+00
 4.418524e-01	 1.714345e+00	 4.981222e+00
 4.222747e-01	 1.719272e+00	 4.847268e+00
 4.027045e-01	 1.723961e+00	 4.730055e+00
 3.831458e-01	 1.728413e+00	 4.635128e+00
 4.830265e-01	 1.710900e+00	 5.309819e+00
 4.633641e-01	 1.716330e+00	 5.162258e+00
 4.437011e-01	 1.721518e+00	 5.020108e+00
 4.240415e-01	 1.726465e+00	 4.888546e+00
 4.043894e-01	 1.731174e+00	 4.772238e+00
 3.847489e-01	 1.735645e+00	 4.675449e+00
 3.767333e-01	 1.699485e+00	 4.474597e+00
 3.575171e-01	 1.703631e+00	 4.398422e+00
 3.383199e-01	 1.707547e+00	 4.300216e+00
 3.191455e-01	 1.711235e+00	 4.188809e+00
 2.999976e-01	 1.714695e+00	 4.073953e+00
 2.808797e-01	 1.717930e+00	 3.965359e+00
 3.783364e-01	 1.706717e+00	 4.516758e+00
 3.590385e-01	 1.710881e+00	 4.437765e+00
 3.397596e-01	 1.714814e+00	 4.338920e+00
 3.205036e-01	 1.718517e+00	 4.227866e+00
 3.012742e-01	 1.721992e+00	 4.113849e+00
 2.820750e-01	 1.725241e+00	 4.006259e+00
 3.799395e-01	 1.713949e+00	 4.556842e+00
 3.605598e-01	 1.718130e+00	 4.474594e+00
 3.411993e-01	 1.722080e+00	 4.375016e+00
 3.218616e-01	 1.725798e+00	 4.264473e+00
 3.025507e-01	 1.729288e+00	 4.151606e+00
 2.832702e-01	 1.732551e+00	 4.045385e+00
 3.815427e-01	 1.721181e+00	 4.595941e+00
 3.620812e-01	 1.725380e+00	 4.510163e+00
 3.426389e-01	 1.729346e+00	 4.409817e+00
 3.232197e-01	 1.733080e+00	 4.299964e+00
 3.038273e-01	 1.736585e+00	 4.188536e+00
 2.844654e-01	 1.739861e+00	 4.083990e+00
 3.831458e-01	 1.728413e+00	 4.635128e+00
 3.636025e-01	 1.732629e+00	 4.545703e+00
 3.440786e-01	 1.736612e+00	 4.444621e+00
 3.245778e-01	 1.740362e+00	 4.335659e+00
 3.051039e-01	 1.743882e+00	 4.225941e+00
 2.856607e-01	 1.747172e+00	 4.123324e+00
 3.847489e-01	 1.735645e+00	 4.675449e+00
 3.651239e-01	 1.739879e+00	 4.582425e+00
 3.455182e-01	 1.743878e+00	 4.480710e+00
 3.259358e-01	 1.747644e+00	 4.372865e+00
 3.063805e-01	 1.751178e+00	 4.265115e+00
 2.868559e-01	 1.754482e+00	 4.164629e+00
 2.808797e-01	 1.717930e+00	 3.965359e+00
 2.617956e-01	 1.720942e+00	 3.875636e+00
 2.427487e-01	 1.723732e+00	 3.805711e+00
 2.237424e-01	 1.726302e+00	 3.748314e+00
 2.047802e-01	 1.728654e+00	 3.696779e+00
 1.858653e-01	 1.730790e+00	 3.645040e+00
 2.820750e-01	 1.725241e+00	 4.006259e+00
 2.629096e-01	 1.728265e+00	 3.917347e+00
 2.437816e-01	 1.731067e+00	 3.847801e+00
 2.246945e-01	 1.733648e+00	 3.790415e+00
 2.056516e-01	 1.736010e+00	 3.738687e+00
 1.866562e-01	 1.738155e+00	 3.686789e+00
 2.832702e-01	 1.732551e+00	 4.045385e+00
 2.640236e-01	 1.735588e+00	 3.957605e+00
 2.448146e-01	 1.738402e+00	 3.888688e+00
 2.256466e-01	 1.740994e+00	 3.831511e+00
 2.065230e-01	 1.743366e+00	 3.779758e+00
 1.874471e-01	 1.745520e+00	 3.727870e+00
 2.844654e-01	 1.739861e+00	 4.083990e+00
 2.651377e-01	 1.742911e+00	 3.997584e+00
 2.458476e-01	 1.745737e+00	 3.929459e+00
 2.265987e-01	 1.748340e+00	 3.872594e+00
 2.073944e-01	 1.750722e+00	 3.820886e+00
 1.882380e-01	 1.752885e+00	 3.769077e+00
 2.856607e-01	 1.747172e+00	 4.123324e+00
 2.662517e-01	 1.750235e+00	 4.038458e+00
 2.468806e-01	 1.753072e+00	 3.971199e+00
 2.275508e-01	 1.755686e+00	 3.914656e+00
 2.082658e-01	 1.758078e+00	 3.862968e+00
 1.890289e-01	 1.760250e+00	 3.811211e+00
 2.868559e-01	 1.754482e+00	 4.164629e+00
 2.673657e-01	 1.757558e+00	 4.081393e+00
 2.479135e-01	 1.760407e+00	 4.014992e+00
 2.285029e-01	 1.763032e+00	 3.958688e+00
 2.091372e-01	 1.765434e+00	 3.906898e+00
 1.898199e-01	 1.767615e+00	 3.855069e+00
 1.858653e-01	 1.730790e+00	 3.645040e+00
 1.670010e-01	 1.732711e+00	 3.592720e+00
 1.481905e-01	 1.734421e+00	 3.543919e+00
 1.294369e-01	 1.735922e+00	 3.499896e+00
 1.107432e-01	 1.737215e+00	 3.462062e+00
 9.211236e-02	 1.738302e+00	 3.431853e+00
 1.866562e-01	 1.738155e+00	 3.686789e+00
 1.677116e-01	 1.740085e+00	 3.634560e+00
 1.488211e-01	 1.741802e+00	 3.586052e+00
 1.299877e-01	 1.743309e+00	 3.542425e+00
 1.112144e-01	 1.744607e+00	 3.504991e+00
 9.250433e-02	 1.745699e+00	 3.475070e+00
 1.874471e-01	 1.745520e+00	 3.727870e+00
 1.684223e-01	 1.747458e+00	 3.675928e+00
 1.494517e-01	 1.749183e+00	 3.627922e+00
 1.305385e-01	 1.750696e+00	 3.584881e+00
 1.116857e-01	 1.751999e+00	 3.547987e+00
 9.289630e-02	 1.753096e+00	 3.518409e+00
 1.882380e-01	 1.752885e+00	 3.769077e+00
 1.691329e-01	 1.754831e+00	 3.717516e+00
 1.500823e-01	 1.756563e+00	 3.670108e+00
 1.310893e-01	 1.758082e+00	 3.627723e+00
 1.121569e-01	 1.759392e+00	 3.591383e+00
 9.328826e-02	 1.760493e+00	 3.562082e+00
 1.890289e-01	 1.760250e+00	 3.811211e+00
 1.698436e-01	 1.762204e+00	 3.760019e+00
 1.507129e-01	 1.763944e+00	 3.713190e+00
 1.316401e-01	 1.765469e+00	 3.671407e+00
 1.126282e-01	 1.766784e+00	 3.635514e+00
 9.368023e-02	 1.767890e+00	 3.606300e+00
 1.898199e-01	 1.767615e+00	 3.855069e+00
 1.705542e-01	 1.769578e+00	 3.804133e+00
 1.513435e-01	 1.771324e+00	 3.757749e+00
 1.321909e-01	 1.772856e+00	 3.716395e+00
 1.130994e-01	 1.774177e+00	 3.680714e+00
 9.407220e-02	 1.775287e+00	 3.651276e+00
 9.211236e-02	 1.738302e+00	 3.431853e+00
 7.354730e-02	 1.739186e+00	 3.409964e+00
 5.505083e-02	 1.739870e+00	 3.394831e+00
 3.662569e-02	 1.740355e+00	 3.384257e+00
 1.827455e-02	 1.740645e+00	 3.375722e+00
 0.000000e+00	 1.740741e+00	 3.366318e+00
 9.250433e-02	 1.745699e+00	 3.475070e+00
 7.386027e-02	 1.746587e+00	 3.453332e+00
 5.528509e-02	 1.747274e+00	 3.438350e+00
 3.678154e-02	 1.747761e+00	 3.427958e+00
 1.835231e-02	 1.748052e+00	 3.419562e+00
 0.000000e+00	 1.748148e+00	 3.410063e+00
 9.289630e-02	 1.753096e+00	 3.518409e+00
 7.417324e-02	 1.753988e+00	 3.496764e+00
 5.551935e-02	 1.754677e+00	 3.481803e+00
 3.693740e-02	 1.755167e+00	 3.471466e+00
 1.843007e-02	 1.755459e+00	 3.463162e+00
 0.000000e+00	 1.755556e+00	 3.453673e+00
 9.328826e-02	 1.760493e+00	 3.562082e+00
 7.448621e-02	 1.761389e+00	 3.540365e+00
 5.575361e-02	 1.762081e+00	 3.525220e+00
 3.709325e-02	 1.762573e+00	 3.514773e+00
 1.850784e-02	 1.762866e+00	 3.506512e+00
 0.000000e+00	 1.762963e+00	 3.497174e+00
 9.368023e-02	 1.767890e+00	 3.606300e+00
 7.479917e-02	 1.768790e+00	 3.584241e+00
 5.598787e-02	 1.769485e+00	 3.568633e+00
 3.724911e-02	 1.769978e+00	 3.557870e+00
 1.858560e-02	 1.770273e+00	 3.549598e+00
 0.000000e+00	 1.770370e+00	 3.540588e+00
 9.407220e-02	 1.775287e+00	 3.651276e+00
 7.511214e-02	 1.776190e+00	 3.628500e+00
 5.622213e-02	 1.776889e+00	 3.612075e+00
 3.740496e-02	 1.777384e+00	 3.600748e+00
 1.866337e-02	 1.777680e+00	 3.592407e+00
 0.000000e+00	 1.777778e+00	 3.583934e+00
 1.777778e+00	 0.000000e+00	 1.339084e+01
 1.777680e+00	 1.866337e-02	 1.339112e+01
 1.777384e+00	 3.740496e-02	 1.339124e+01
 1.776889e+00	 5.622213e-02	 1.339216e+01
 1.776190e+00	 7.511214e-02	 1.339484e+01
 1.775287e+00	 9.407220e-02	 1.340028e+01
 1.785185e+00	 0.000000e+00	 1.335282e+01
 1.785087e+00	 1.874113e-02	 1.335344e+01
 1.784790e+00	 3.756081e-02	 1.335371e+01
 1.784292e+00	 5.645639e-02	 1.335461e+01
 1.783591e+00	 7.542511e-02	 1.335716e+01
 1.782684e+00	 9.446417e-02	 1.336241e+01
 1.792593e+00	 0.000000e+00	 1.331551e+01
 1.792494e+00	 1.881890e-02	 1.331650e+01
 1.792196e+00	 3.771667e-02	 1.331699e+01
 1.791696e+00	 5.669065e-02	 1.331795e+01
 1.790992e+00	 7.573808e-02	 1.332044e+01
 1.790081e+00	 9.485613e-02	 1.332557e+01
 1.800000e+00	 0.000000e+00	 1.327890e+01
 1.799901e+00	 1.889666e-02	 1.328026e+01
 1.799602e+00	 3.787252e-02	 1.328101e+01
 1.799100e+00	 5.692490e-02	 1.328210e+01
 1.798393e+00	 7.605104e-02	 1.328461e+01
 1.797478e+00	 9.524810e-02	 1.328968e+01
 1.807407e+00	 0.000000e+00	 1.324294e+01
 1.807308e+00	 1.897442e-02	 1.324469e+01
 1.807007e+00	 3.802838e-02	 1.324573e+01
 1.806503e+00	 5.715916e-02	 1.324701e+01
 1.805793e+00	 7.636401e-02	 1.324961e+01
 1.804875e+00	 9.564007e-02	 1.325469e+01
 1.814815e+00	 0.000000e+00	 1.320763e+01
 1.814715e+00	 1.905219e-02	 1.320973e+01
 1.814413e+00	 3.818423e-02	 1.321109e+01
 1.813907e+00	 5.739342e-02	 1.321261e+01
 1.813194e+00	 7.667698e-02	 1.321537e+01
 1.812272e+00	 9.603204e-02	 1.322054e+01
 1.775287e+00	 9.407220e-02	 1.340028e+01
 1.774177e+00	 1.130994e-01	 1.340638e+01
 1.772856e+00	 1.321909e-01	 1.341094e+01
 1.771324e+00	 1.513435e-01	 1.341472e+01
 1.769578e+00	 1.705542e-01	 1.341835e+01
 1.767615e+00	 1.898199e-01	 1.342228e+01
 1.782684e+00	 9.446417e-02	 1.336241e+01
 1.781569e+00	 1.135707e-01	 1.336840e+01
 1.780243e+00	 1.327417e-01	 1.337297e+01
 1.778705e+00	 1.519741e-01	 1.337685e+01
 1.776951e+00	 1.712649e-01	 1.338061e+01
 1.774980e+00	 1.906108e-01	 1.338466e+01
 1.790081e+00	 9.485613e-02	 1.332557e+01
 1.788961e+00	 1.140419e-01	 1.333151e+01
 1.787630e+00	 1.332925e-01	 1.333616e+01
 1.786085e+00	 1.526047e-01	 1.334020e+01
 1.784324e+00	 1.719755e-01	 1.334416e+01
 1.782345e+00	 1.914017e-01	 1.334838e+01
 1.797478e+00	 9.524810e-02	 1.328968e+01
 1.796354e+00	 1.145132e-01	 1.329564e+01
 1.795017e+00	 1.338432e-01	 1.330044e+01
 1.793466e+00	 1.532353e-01	 1.330471e+01
 1.791697e+00	 1.726861e-01	 1.330890e+01
 1.789710e+00	 1.921926e-01	 1.331331e+01
 1.804875e+00	 9.564007e-02	 1.325469e+01
 1.803746e+00	 1.149844e-01	 1.326073e+01
 1.802404e+00	 1.343940e-01	 1.326575e+01
 1.800846e+00	 1.538659e-01	 1.327028e+01
 1.799071e+00	 1.733968e-01	 1.327474e+01
 1.797075e+00	 1.929835e-01	 1.327934e+01
 1.812272e+00	 9.603204e-02	 1.322054e+01
 1.811139e+00	 1.154557e-01	 1.322673e+01
 1.809791e+00	 1.349448e-01	 1.323201e+01
 1.808227e+00	 1.544965e-01	 1.323685e+01
 1.806444e+00	 1.741074e-01	 1.324158e+01
 1.804440e+00	 1.937744e-01	 1.324633e+01
 1.767615e+00	 1.898199e-01	 1.342228e+01
 1.765434e+00	 2.091372e-01	 1.342820e+01
 1.763032e+00	 2.285029e-01	 1.343717e+01
 1.760407e+00	 2.479135e-01	 1.344826e+01
 1.757558e+00	 2.673657e-01	 1.346015e+01
 1.754482e+00	 2.868559e-01	 1.347108e+01
 1.774980e+00	 1.906108e-01	 1.338466e+01
 1.772789e+00	 2.100086e-01	 1.339063e+01
 1.770378e+00	 2.294550e-01	 1.339960e+01
 1.767742e+00	 2.489465e-01	 1.341073e+01
 1.764881e+00	 2.684797e-01	 1.342277e+01
 1.761792e+00	 2.880511e-01	 1.343405e+01
 1.782345e+00	 1.914017e-01	 1.334838e+01
 1.780145e+00	 2.108800e-01	 1.335441e+01
 1.777723e+00	 2.304071e-01	 1.336335e+01
 1.775077e+00	 2.499795e-01	 1.337446e+01
 1.772204e+00	 2.695938e-01	 1.338659e+01
 1.769103e+00	 2.892464e-01	 1.339812e+01
 1.789710e+00	 1.921926e-01	 1.331331e+01
 1.787501e+00	 2.117514e-01	 1.331938e+01
 1.785069e+00	 2.313592e-01	 1.332823e+01
 1.782412e+00	 2.510124e-01	 1.333925e+01
 1.779527e+00	 2.707078e-01	 1.335138e+01
 1.776413e+00	 2.904416e-01	 1.336308e+01
 1.797075e+00	 1.929835e-01	 1.327934e+01
 1.794857e+00	 2.126228e-01	 1.328540e+01
 1.792415e+00	 2.323112e-01	 1.329409e+01
 1.789747e+00	 2.520454e-01	 1.330491e+01
 1.786850e+00	 2.718218e-01	 1.331692e+01
 1.783723e+00	 2.916368e-01	 1.332868e+01
 1.804440e+00	 1.937744e-01	 1.324633e+01
 1.802213e+00	 2.134942e-01	 1.325231e+01
 1.799761e+00	 2.332633e-01	 1.326073e+01
 1.797082e+00	 2.530784e-01	 1.327124e+01
 1.794174e+00	 2.729358e-01	 1.328302e+01
 1.791034e+00	 2.928321e-01	 1.329473e+01
 1.754482e+00	 2.868559e-01	 1.347108e+01
 1.751178e+00	 3.063805e-01	 1.348089e+01
 1.747644e+00	 3.259358e-01	 1.349090e+01
 1.743878e+00	 3.455182e-01	 1.350107e+01
 1.739879e+00	 3.651239e-01	 1.351090e+01
 1.735645e+00	 3.847489e-01	 1.352275e+01
 1.761792e+00	 2.880511e-01	 1.343405e+01
 1.758475e+00	 3.076571e-01	 1.344428e+01
 1.754926e+00	 3.272939e-01	 1.345466e+01
 1.751144e+00	 3.469579e-01	 1.346500e+01
 1.747128e+00	 3.666452e-01	 1.347467e+01
 1.742876e+00	 3.863520e-01	 1.348648e+01
 1.769103e+00	 2.892464e-01	 1.339812e+01
 1.765771e+00	 3.089337e-01	 1.340872e+01
 1.762208e+00	 3.286520e-01	 1.341940e+01
 1.758410e+00	 3.483975e-01	 1.342986e+01
 1.754378e+00	 3.681666e-01	 1.343932e+01
 1.750108e+00	 3.879551e-01	 1.345109e+01
 1.776413e+00	 2.904416e-01	 1.336308e+01
 1.773068e+00	 3.102103e-01	 1.337396e+01
 1.769490e+00	 3.300100e-01	 1.338489e+01
 1.765677e+00	 3.498372e-01	 1.339544e+01
 1.761627e+00	 3.696879e-01	 1.340465e+01
 1.757340e+00	 3.895583e-01	 1.341642e+01
 1.783723e+00	 2.916368e-01	 1.332868e+01
 1.780364e+00	 3.114868e-01	 1.333977e+01
 1.776771e+00	 3.313681e-01	 1.335091e+01
 1.772943e+00	 3.512769e-01	 1.336152e+01
 1.768877e+00	 3.712093e-01	 1.337049e+01
 1.764572e+00	 3.911614e-01	 1.338229e+01
 1.791034e+00	 2.928321e-01	 1.329473e+01
 1.787661e+00	 3.127634e-01	 1.330593e+01
 1.784053e+00	 3.327262e-01	 1.331723e+01
 1.780209e+00	 3.527165e-01	 1.332789e+01
 1.776126e+00	 3.727306e-01	 1.333667e+01
 1.771804e+00	 3.927645e-01	 1.334856e+01
 1.735645e+00	 3.847489e-01	 1.352275e+01
 1.731174e+00	 4.043894e-01	 1.353924e+01
 1.726465e+00	 4.240415e-01	 1.355404e+01
 1.721518e+00	 4.437011e-01	 1.356727e+01
 1.716330e+00	 4.633641e-01	 1.357915e+01
 1.710900e+00	 4.830265e-01	 1.358998e+01
 1.742876e+00	 3.863520e-01	 1.348648e+01
 1.738387e+00	 4.060744e-01	 1.350325e+01
 1.733659e+00	 4.258084e-01	 1.351869e+01
 1.728691e+00	 4.455499e-01	 1.353273e+01
 1.723481e+00	 4.652948e-01	 1.354536e+01
 1.718029e+00	 4.850391e-01	 1.355666e+01
 1.750108e+00	 3.879551e-01	 1.345109e+01
 1.745600e+00	 4.077594e-01	 1.346805e+01
 1.740853e+00	 4.275752e-01	 1.348405e+01
 1.735864e+00	 4.473986e-01	 1.349881e+01
 1.730632e+00	 4.672255e-01	 1.351212e+01
 1.725158e+00	 4.870517e-01	 1.352384e+01
 1.757340e+00	 3.895583e-01	 1.341642e+01
 1.752814e+00	 4.094443e-01	 1.343353e+01
 1.748046e+00	 4.293420e-01	 1.345002e+01
 1.743037e+00	 4.492474e-01	 1.346544e+01
 1.737784e+00	 4.691562e-01	 1.347938e+01
 1.732286e+00	 4.890643e-01	 1.349151e+01
 1.764572e+00	 3.911614e-01	 1.338229e+01
 1.760027e+00	 4.111293e-01	 1.339954e+01
 1.755240e+00	 4.311089e-01	 1.341651e+01
 1.750210e+00	 4.510961e-01	 1.343255e+01
 1.744935e+00	 4.710869e-01	 1.344709e+01
 1.739415e+00	 4.910769e-01	 1.345962e+01
 1.771804e+00	 3.927645e-01	 1.334856e+01
 1.767240e+00	 4.128142e-01	 1.336599e+01
 1.762433e+00	 4.328757e-01	 1.338343e+01
 1.757383e+00	 4.529449e-01	 1.340009e+01
 1.752087e+00	 4.730176e-01	 1.341523e+01
 1.746544e+00	 4.930895e-01	 1.342817e+01
 1.710900e+00	 4.830265e-01	 1.358998e+01
 1.705228e+00	 5.026840e-01	 1.360098e+01
 1.699312e+00	 5.223323e-01	 1.361272e+01
 1.693152e+00	 5.419673e-01	 1.362489e+01
 1.686747e+00	 5.615847e-01	 1.363746e+01
 1.680096e+00	 5.811800e-01	 1.365080e+01
 1.718029e+00	 4.850391e-01	 1.355666e+01
 1.712333e+00	 5.047785e-01	 1.356789e+01
 1.706393e+00	 5.245087e-01	 1.357988e+01
 1.700207e+00	 5.442255e-01	 1.359233e+01
 1.693775e+00	 5.639246e-01	 1.360526e+01
 1.687097e+00	 5.836016e-01	 1.361905e+01
 1.725158e+00	 4.870517e-01	 1.352384e+01
 1.719438e+00	 5.068730e-01	 1.353529e+01
 1.713473e+00	 5.266851e-01	 1.354749e+01
 1.707262e+00	 5.464837e-01	 1.356017e+01
 1.700804e+00	 5.662646e-01	 1.357338e+01
 1.694097e+00	 5.860231e-01	 1.358753e+01
 1.732286e+00	 4.890643e-01	 1.349151e+01
 1.726543e+00	 5.089675e-01	 1.350316e+01
 1.720554e+00	 5.288615e-01	 1.351555e+01
 1.714317e+00	 5.487419e-01	 1.352843e+01
 1.707832e+00	 5.686045e-01	 1.354188e+01
 1.701098e+00	 5.884447e-01	 1.355632e+01
 1.739415e+00	 4.910769e-01	 1.345962e+01
 1.733649e+00	 5.110620e-01	 1.347149e+01
 1.727634e+00	 5.310379e-01	 1.348406e+01
 1.721372e+00	 5.510001e-01	 1.349714e+01
 1.714860e+00	 5.709444e-01	 1.351080e+01
 1.708098e+00	 5.908663e-01	 1.352551e+01
 1.746544e+00	 4.930895e-01	 1.342817e+01
 1.740754e+00	 5.131565e-01	 1.344028e+01
 1.734715e+00	 5.332143e-01	 1.345306e+01
 1.728426e+00	 5.532583e-01	 1.346633e+01
 1.721888e+00	 5.732844e-01	 1.348022e+01
 1.715098e+00	 5.932879e-01	 1.349518e+01
 1.680096e+00	 5.811800e-01	 1.365080e+01
 1.673199e+00	 6.007488e-01	 1.365997e+01
 1.666055e+00	 6.202868e-01	 1.366156e+01
 1.658663e+00	 6.397895e-01	 1.365894e+01
 1.651024e+00	 6.592523e-01	 1.365610e+01
 1.643137e+00	 6.786708e-01	 1.365767e+01
 1.687097e+00	 5.836016e-01	 1.361905e+01
 1.680171e+00	 6.032520e-01	 1.362891e+01
 1.672997e+00	 6.228714e-01	 1.363143e+01
 1.665574e+00	 6.424553e-01	 1.362972e+01
 1.657903e+00	 6.619992e-01	 1.362752e+01
 1.649984e+00	 6.814986e-01	 1.362925e+01
 1.694097e+00	 5.860231e-01	 1.358753e+01
 1.687142e+00	 6.057551e-01	 1.359801e+01
 1.679938e+00	 6.254559e-01	 1.360142e+01
 1.672485e+00	 6.451211e-01	 1.360064e+01
 1.664783e+00	 6.647461e-01	 1.359914e+01
 1.656830e+00	 6.843264e-01	 1.360110e+01
 1.701098e+00	 5.884447e-01	 1.355632e+01
 1.694114e+00	 6.082582e-01	 1.356738e+01
 1.686880e+00	 6.280404e-01	 1.357168e+01
 1.679396e+00	 6.477869e-01	 1.357183e+01
 1.671662e+00	 6.674930e-01	 1.357109e+01
 1.663676e+00	 6.871542e-01	 1.357333e+01
 1.708098e+00	 5.908663e-01	 1.352551e+01
 1.701086e+00	 6.107613e-01	 1.353712e+01
 1.693822e+00	 6.306249e-01	 1.354231e+01
 1.686307e+00	 6.504526e-01	 1.354343e+01
 1.678541e+00	 6.702399e-01	 1.354347e+01
 1.670523e+00	 6.899820e-01	 1.354605e+01
 1.715098e+00	 5.932879e-01	 1.349518e+01
 1.708057e+00	 6.132644e-01	 1.350734e+01
 1.700764e+00	 6.332095e-01	 1.351344e+01
 1.693219e+00	 6.531184e-01	 1.351557e+01
 1.685420e+00	 6.729867e-01	 1.351642e+01
 1.677369e+00	 6.928098e-01	 1.351935e+01
 1.643137e+00	 6.786708e-01	 1.365767e+01
 1.635003e+00	 6.980404e-01	 1.365884e+01
 1.626620e+00	 7.173565e-01	 1.365466e+01
 1.617990e+00	 7.366145e-01	 1.365079e+01
 1.609113e+00	 7.558099e-01	 1.364814e+01
 1.599989e+00	 7.749380e-01	 1.363705e+01
 1.649984e+00	 6.814986e-01	 1.362925e+01
 1.641815e+00	 7.009489e-01	 1.363062e+01
 1.633398e+00	 7.203455e-01	 1.362730e+01
 1.624732e+00	 7.396838e-01	 1.362485e+01
 1.615818e+00	 7.589591e-01	 1.362201e+01
 1.606656e+00	 7.781670e-01	 1.361120e+01
 1.656830e+00	 6.843264e-01	 1.360110e+01
 1.648628e+00	 7.038574e-01	 1.360270e+01
 1.640175e+00	 7.233345e-01	 1.360017e+01
 1.631474e+00	 7.427530e-01	 1.359892e+01
 1.622522e+00	 7.621083e-01	 1.359568e+01
 1.613322e+00	 7.813959e-01	 1.358518e+01
 1.663676e+00	 6.871542e-01	 1.357333e+01
 1.655440e+00	 7.067659e-01	 1.357517e+01
 1.646953e+00	 7.263234e-01	 1.357338e+01
 1.638215e+00	 7.458222e-01	 1.357291e+01
 1.629227e+00	 7.652576e-01	 1.356937e+01
 1.619989e+00	 7.846248e-01	 1.355924e+01
 1.670523e+00	 6.899820e-01	 1.354605e+01
 1.662253e+00	 7.096744e-01	 1.354814e+01
 1.653731e+00	 7.293124e-01	 1.354702e+01
 1.644957e+00	 7.488915e-01	 1.354701e+01
 1.635932e+00	 7.684068e-01	 1.354326e+01
 1.626656e+00	 7.878537e-01	 1.353357e+01
 1.677369e+00	 6.928098e-01	 1.351935e+01
 1.669065e+00	 7.125829e-01	 1.352169e+01
 1.660508e+00	 7.323014e-01	 1.352119e+01
 1.651699e+00	 7.519607e-01	 1.352138e+01
 1.642636e+00	 7.715560e-01	 1.351755e+01
 1.633322e+00	 7.910826e-01	 1.350839e+01
 1.599989e+00	 7.749380e-01	 1.363705e+01
 1.590618e+00	 7.939943e-01	 1.361804e+01
 1.581002e+00	 8.129739e-01	 1.359478e+01
 1.571140e+00	 8.318724e-01	 1.357039e+01
 1.561034e+00	 8.506851e-01	 1.354766e+01
 1.550685e+00	 8.694074e-01	 1.352894e+01
 1.606656e+00	 7.781670e-01	 1.361120e+01
 1.597246e+00	 7.973026e-01	 1.359291e+01
 1.587589e+00	 8.163613e-01	 1.357041e+01
 1.577687e+00	 8.353386e-01	 1.354679e+01
 1.567539e+00	 8.542297e-01	 1.352484e+01
 1.557146e+00	 8.730300e-01	 1.350690e+01
 1.613322e+00	 7.813959e-01	 1.358518e+01
 1.603874e+00	 8.006109e-01	 1.356764e+01
 1.594177e+00	 8.197487e-01	 1.354595e+01
 1.584233e+00	 8.388047e-01	 1.352318e+01
 1.574043e+00	 8.577742e-01	 1.350209e+01
 1.563608e+00	 8.766525e-01	 1.348500e+01
 1.619989e+00	 7.846248e-01	 1.355924e+01
 1.610501e+00	 8.039192e-01	 1.354247e+01
 1.600764e+00	 8.231361e-01	 1.352164e+01
 1.590780e+00	 8.422708e-01	 1.349976e+01
 1.580547e+00	 8.613187e-01	 1.347955e+01
 1.570069e+00	 8.802750e-01	 1.346328e+01
 1.626656e+00	 7.878537e-01	 1.353357e+01
 1.617129e+00	 8.072275e-01	 1.351764e+01
 1.607352e+00	 8.265235e-01	 1.349768e+01
 1.597326e+00	 8.457370e-01	 1.347669e+01
 1.587052e+00	 8.648632e-01	 1.345731e+01
 1.576530e+00	 8.838975e-01	 1.344178e+01
 1.633322e+00	 7.910826e-01	 1.350839e+01
 1.623756e+00	 8.105358e-01	 1.349334e+01
 1.613940e+00	 8.299109e-01	 1.347428e+01
 1.603872e+00	 8.492031e-01	 1.345413e+01
 1.593556e+00	 8.684078e-01	 1.343548e+01
 1.582991e+00	 8.875201e-01	 1.342049e+01
 1.550685e+00	 8.694074e-01	 1.352894e+01
 1.540094e+00	 8.880347e-01	 1.350974e+01
 1.529261e+00	 9.065622e-01	 1.348374e+01
 1.518188e+00	 9.249856e-01	 1.344956e+01
 1.506877e+00	 9.433001e-01	 1.340474e+01
 1.495329e+00	 9.615012e-01	 1.334569e+01
 1.557146e+00	 8.730300e-01	 1.350690e+01
 1.546511e+00	 8.917348e-01	 1.348822e+01
 1.535633e+00	 9.103396e-01	 1.346249e+01
 1.524514e+00	 9.288397e-01	 1.342866e+01
 1.513156e+00	 9.472305e-01	 1.338461e+01
 1.501560e+00	 9.655075e-01	 1.332703e+01
 1.563608e+00	 8.766525e-01	 1.348500e+01
 1.552928e+00	 8.954349e-01	 1.346689e+01
 1.542005e+00	 9.141169e-01	 1.344144e+01
 1.530840e+00	 9.326938e-01	 1.340789e+01
 1.519434e+00	 9.511609e-01	 1.336443e+01
 1.507790e+00	 9.695137e-01	 1.330808e+01
 1.570069e+00	 8.802750e-01	 1.346328e+01
 1.559345e+00	 8.991351e-01	 1.344572e+01
 1.548377e+00	 9.178943e-01	 1.342050e+01
 1.537166e+00	 9.365479e-01	 1.338716e+01
 1.525713e+00	 9.550913e-01	 1.334420e+01
 1.514021e+00	 9.735200e-01	 1.328891e+01
 1.576530e+00	 8.838975e-01	 1.344178e+01
 1.565762e+00	 9.028352e-01	 1.342465e+01
 1.554749e+00	 9.216716e-01	 1.339959e+01
 1.543491e+00	 9.404020e-01	 1.336641e+01
 1.531992e+00	 9.590217e-01	 1.332389e+01
 1.520251e+00	 9.775262e-01	 1.326959e+01
 1.582991e+00	 8.875201e-01	 1.342049e+01
 1.572179e+00	 9.065354e-01	 1.340361e+01
 1.561120e+00	 9.254490e-01	 1.337861e+01
 1.549817e+00	 9.442561e-01	 1.334554e+01
 1.538270e+00	 9.629522e-01	 1.330344e+01
 1.526482e+00	 9.815325e-01	 1.325016e+01
 1.495329e+00	 9.615012e-01	 1.334569e+01
 1.483546e+00	 9.795844e-01	 1.328726e+01
 1.471529e+00	 9.975453e-01	 1.324555e+01
 1.459280e+00	 1.015379e+00	 1.321390e+01
 1.446802e+00	 1.033082e+00	 1.317383e+01
 1.434096e+00	 1.050649e+00	 1.310574e+01
 1.501560e+00	 9.655075e-01	 1.332703e+01
 1.489727e+00	 9.836661e-01	 1.327085e+01
 1.477660e+00	 1.001702e+00	 1.322851e+01
 1.465361e+00	 1.019610e+00	 1.319637e+01
 1.452830e+00	 1.037386e+00	 1.315867e+01
 1.440071e+00	 1.055027e+00	 1.309526e+01
 1.507790e+00	 9.695137e-01	 1.330808e+01
 1.495909e+00	 9.877477e-01	 1.325382e+01
 1.483792e+00	 1.005858e+00	 1.321333e+01
 1.471441e+00	 1.023841e+00	 1.317962e+01
 1.458859e+00	 1.041691e+00	 1.314320e+01
 1.446047e+00	 1.059404e+00	 1.308357e+01
 1.514021e+00	 9.735200e-01	 1.328891e+01
 1.502090e+00	 9.918293e-01	 1.323637e+01
 1.489923e+00	 1.010015e+00	 1.319807e+01
 1.477521e+00	 1.028071e+00	 1.316415e+01
 1.464887e+00	 1.045995e+00	 1.312784e+01
 1.452022e+00	 1.063782e+00	 1.307098e+01
 1.520251e+00	 9.775262e-01	 1.326959e+01
 1.508272e+00	 9.959109e-01	 1.321863e+01
 1.496054e+00	 1.014171e+00	 1.318233e+01
 1.483602e+00	 1.032302e+00	 1.315025e+01
 1.470915e+00	 1.050300e+00	 1.311299e+01
 1.457997e+00	 1.068160e+00	 1.305779e+01
 1.526482e+00	 9.815325e-01	 1.325016e+01
 1.514453e+00	 9.999925e-01	 1.320076e+01
 1.502186e+00	 1.018327e+00	 1.316630e+01
 1.489682e+00	 1.036533e+00	 1.313635e+01
 1.476944e+00	 1.054604e+00	 1.309901e+01
 1.463973e+00	 1.072537e+00	 1.304427e+01
 1.434096e+00	 1.050649e+00	 1.310574e+01
 1.421164e+00	 1.068076e+00	 1.303269e+01
 1.408009e+00	 1.085359e+00	 1.297225e+01
 1.394634e+00	 1.102493e+00	 1.289613e+01
 1.381040e+00	 1.119474e+00	 1.278931e+01
 1.367231e+00	 1.136298e+00	 1.271098e+01
 1.440071e+00	 1.055027e+00	 1.309526e+01
 1.427086e+00	 1.072526e+00	 1.302558e+01
 1.413876e+00	 1.089881e+00	 1.296341e+01
 1.400445e+00	 1.107086e+00	 1.287955e+01
 1.386795e+00	 1.124138e+00	 1.277537e+01
 1.372928e+00	 1.141033e+00	 1.270357e+01
 1.446047e+00	 1.059404e+00	 1.308357e+01
 1.433007e+00	 1.076977e+00	 1.301645e+01
 1.419743e+00	 1.094403e+00	 1.295179e+01
 1.406256e+00	 1.111680e+00	 1.285948e+01
 1.392549e+00	 1.128803e+00	 1.276370e+01
 1.378624e+00	 1.145767e+00	 1.269705e+01
 1.452022e+00	 1.063782e+00	 1.307098e+01
 1.438929e+00	 1.081427e+00	 1.300555e+01
 1.425610e+00	 1.098925e+00	 1.293759e+01
 1.412067e+00	 1.116274e+00	 1.284016e+01
 1.398303e+00	 1.133467e+00	 1.275405e+01
 1.384321e+00	 1.150502e+00	 1.269130e+01
 1.457997e+00	 1.068160e+00	 1.305779e+01
 1.444850e+00	 1.085877e+00	 1.299309e+01
 1.431476e+00	 1.103448e+00	 1.292101e+01
 1.417878e+00	 1.120867e+00	 1.282386e+01
 1.404058e+00	 1.138132e+00	 1.274612e+01
 1.390018e+00	 1.155237e+00	 1.268620e+01
 1.463973e+00	 1.072537e+00	 1.304427e+01
 1.450772e+00	 1.090327e+00	 1.297921e+01
 1.437343e+00	 1.107970e+00	 1.290219e+01
 1.423689e+00	 1.125461e+00	 1.281016e+01
 1.409812e+00	 1.142796e+00	 1.273958e+01
 1.395715e+00	 1.159971e+00	 1.268157e+01
 1.367231e+00	 1.136298e+00	 1.271098e+01
 1.353209e+00	 1.152962e+00	 1.264000e+01
 1.338976e+00	 1.169460e+00	 1.255067e+01
 1.324537e+00	 1.185789e+00	 1.244941e+01
 1.309893e+00	 1.201946e+00	 1.234364e+01
 1.295048e+00	 1.217926e+00	 1.224150e+01
 1.372928e+00	 1.141033e+00	 1.270357e+01
 1.358847e+00	 1.157766e+00	 1.263530e+01
 1.344555e+00	 1.174333e+00	 1.254761e+01
 1.330056e+00	 1.190730e+00	 1.244712e+01
 1.315351e+00	 1.206954e+00	 1.234155e+01
 1.300444e+00	 1.223001e+00	 1.223937e+01
 1.378624e+00	 1.145767e+00	 1.269705e+01
 1.364485e+00	 1.162570e+00	 1.263039e+01
 1.350134e+00	 1.179205e+00	 1.254367e+01
 1.335574e+00	 1.195671e+00	 1.244367e+01
 1.320809e+00	 1.211962e+00	 1.233831e+01
 1.305840e+00	 1.228075e+00	 1.223637e+01
 1.384321e+00	 1.150502e+00	 1.269130e+01
 1.370124e+00	 1.167374e+00	 1.262534e+01
 1.355713e+00	 1.184078e+00	 1.253904e+01
 1.341093e+00	 1.200612e+00	 1.243931e+01
 1.326267e+00	 1.216970e+00	 1.233423e+01
 1.311236e+00	 1.233150e+00	 1.223280e+01
 1.390018e+00	 1.155237e+00	 1.268620e+01
 1.375762e+00	 1.172178e+00	 1.262016e+01
 1.361292e+00	 1.188951e+00	 1.253387e+01
 1.346612e+00	 1.205553e+00	 1.243427e+01
 1.331725e+00	 1.221978e+00	 1.232956e+01
 1.316633e+00	 1.238225e+00	 1.222888e+01
 1.395715e+00	 1.159971e+00	 1.268157e+01
 1.381400e+00	 1.176982e+00	 1.261485e+01
 1.366872e+00	 1.193824e+00	 1.252826e+01
 1.352131e+00	 1.210493e+00	 1.242872e+01
 1.337182e+00	 1.226987e+00	 1.232450e+01
 1.322029e+00	 1.243299e+00	 1.222484e+01
 1.295048e+00	 1.217926e+00	 1.224150e+01
 1.280006e+00	 1.233726e+00	 1.213324e+01
 1.264769e+00	 1.249341e+00	 1.200907e+01
 1.249341e+00	 1.264769e+00	 1.187731e+01
 1.233726e+00	 1.280006e+00	 1.174584e+01
 1.217926e+00	 1.295048e+00	 1.162171e+01
 1.300444e+00	 1.223001e+00	 1.223937e+01
 1.285339e+00	 1.238866e+00	 1.213110e+01
 1.270039e+00	 1.254547e+00	 1.200704e+01
 1.254547e+00	 1.270039e+00	 1.187557e+01
 1.238866e+00	 1.285339e+00	 1.174466e+01
 1.223001e+00	 1.300444e+00	 1.162144e+01
 1.305840e+00	 1.228075e+00	 1.223637e+01
 1.290673e+00	 1.244007e+00	 1.212850e+01
 1.275309e+00	 1.259752e+00	 1.200491e+01
 1.259752e+00	 1.275309e+00	 1.187405e+01
 1.244007e+00	 1.290673e+00	 1.174390e+01
 1.228075e+00	 1.305840e+00	 1.162163e+01
 1.311236e+00	 1.233150e+00	 1.223280e+01
 1.296006e+00	 1.249147e+00	 1.212567e+01
 1.280579e+00	 1.264958e+00	 1.200289e+01
 1.264958e+00	 1.280579e+00	 1.187289e+01
 1.249147e+00	 1.296006e+00	 1.174363e+01
 1.233150e+00	 1.311236e+00	 1.162227e+01
 1.316633e+00	 1.238225e+00	 1.222888e+01
 1.301339e+00	 1.254288e+00	 1.212282e+01
 1.285849e+00	 1.270163e+00	 1.200113e+01
 1.270163e+00	 1.285849e+00	 1.187218e+01
 1.254288e+00	 1.301339e+00	 1.174387e+01
 1.238225e+00	 1.316633e+00	 1.162332e+01
 1.322029e+00	 1.243299e+00	 1.222484e+01
 1.306673e+00	 1.259428e+00	 1.212011e+01
 1.291118e+00	 1.275369e+00	 1.199974e+01
 1.275369e+00	 1.291118e+00	 1.187198e+01
 1.259428e+00	 1.306673e+00	 1.174463e+01
 1.243299e+00	 1.322029e+00	 1.162468e+01
 1.217926e+00	 1.295048e+00	 1.162171e+01
 1.201946e+00	 1.309893e+00	 1.149327e+01
 1.185789e+00	 1.324537e+00	 1.135147e+01
 1.169460e+00	 1.338976e+00	 1.120528e+01
 1.152962e+00	 1.353209e+00	 1.106184e+01
 1.136298e+00	 1.367231e+00	 1.092614e+01
 1.223001e+00	 1.300444e+00	 1.162144e+01
 1.206954e+00	 1.315351e+00	 1.149488e+01
 1.190730e+00	 1.330056e+00	 1.135588e+01
 1.174333e+00	 1.344555e+00	 1.121239e+01
 1.157766e+00	 1.358847e+00	 1.107046e+01
 1.141033e+00	 1.372928e+00	 1.093387e+01
 1.228075e+00	 1.305840e+00	 1.162163e+01
 1.211962e+00	 1.320809e+00	 1.149666e+01
 1.195671e+00	 1.335574e+00	 1.135980e+01
 1.179205e+00	 1.350134e+00	 1.121824e+01
 1.162570e+00	 1.364485e+00	 1.107715e+01
 1.145767e+00	 1.378624e+00	 1.093935e+01
 1.233150e+00	 1.311236e+00	 1.162227e+01
 1.216970e+00	 1.326267e+00	 1.149854e+01
 1.200612e+00	 1.341093e+00	 1.136322e+01
 1.184078e+00	 1.355713e+00	 1.122293e+01
 1.167374e+00	 1.370124e+00	 1.108220e+01
 1.150502e+00	 1.384321e+00	 1.094314e+01
 1.238225e+00	 1.316633e+00	 1.162332e+01
 1.221978e+00	 1.331725e+00	 1.150044e+01
 1.205553e+00	 1.346612e+00	 1.136608e+01
 1.188951e+00	 1.361292e+00	 1.122651e+01
 1.172178e+00	 1.375762e+00	 1.108587e+01
 1.155237e+00	 1.390018e+00	 1.094575e+01
 1.243299e+00	 1.322029e+00	 1.162468e+01
 1.226987e+00	 1.337182e+00	 1.150222e+01
 1.210493e+00	 1.352131e+00	 1.136828e+01
 1.193824e+00	 1.366872e+00	 1.122902e+01
 1.176982e+00	 1.381400e+00	 1.108835e+01
 1.159971e+00	 1.395715e+00	 1.094764e+01
 1.136298e+00	 1.367231e+00	 1.092614e+01
 1.119474e+00	 1.381040e+00	 1.078177e+01
 1.102493e+00	 1.394634e+00	 1.062114e+01
 1.085359e+00	 1.408009e+00	 1.045792e+01
 1.068076e+00	 1.421164e+00	 1.029131e+01
 1.050649e+00	 1.434096e+00	 1.011712e+01
 1.141033e+00	 1.372928e+00	 1.093387e+01
 1.124138e+00	 1.386795e+00	 1.078758e+01
 1.107086e+00	 1.400445e+00	 1.062536e+01
 1.089881e+00	 1.413876e+00	 1.046230e+01
 1.072526e+00	 1.427086e+00	 1.029938e+01
 1.055027e+00	 1.440071e+00	 1.013189e+01
 1.145767e+00	 1.378624e+00	 1.093935e+01
 1.128803e+00	 1.392549e+00	 1.079150e+01
 1.111680e+00	 1.406256e+00	 1.062907e+01
 1.094403e+00	 1.419743e+00	 1.046644e+01
 1.076977e+00	 1.433007e+00	 1.030714e+01
 1.059404e+00	 1.446047e+00	 1.014546e+01
 1.150502e+00	 1.384321e+00	 1.094314e+01
 1.133467e+00	 1.398303e+00	 1.079433e+01
 1.116274e+00	 1.412067e+00	 1.063296e+01
 1.098925e+00	 1.425610e+00	 1.047143e+01
 1.081427e+00	 1.438929e+00	 1.031555e+01
 1.063782e+00	 1.452022e+00	 1.015855e+01
 1.155237e+00	 1.390018e+00	 1.094575e+01
 1.138132e+00	 1.404058e+00	 1.079681e+01
 1.120867e+00	 1.417878e+00	 1.063764e+01
 1.103448e+00	 1.431476e+00	 1.047829e+01
 1.085877e+00	 1.444850e+00	 1.032550e+01
 1.068160e+00	 1.457997e+00	 1.017180e+01
 1.159971e+00	 1.395715e+00	 1.094764e+01
 1.142796e+00	 1.409812e+00	 1.079963e+01
 1.125461e+00	 1.423689e+00	 1.064391e+01
 1.107970e+00	 1.437343e+00	 1.048797e+01
 1.090327e+00	 1.450772e+00	 1.033783e+01
 1.072537e+00	 1.463973e+00	 1.018583e+01
 1.050649e+00	 1.434096e+00	 1.011712e+01
 1.033082e+00	 1.446802e+00	 9.963321e+00
 1.015379e+00	 1.459280e+00	 9.837482e+00
 9.975453e-01	 1.471529e+00	 9.703300e+00
 9.795844e-01	 1.483546e+00	 9.525644e+00
 9.615012e-01	 1.495329e+00	 9.326005e+00
 1.055027e+00	 1.440071e+00	 1.013189e+01
 1.037386e+00	 1.452830e+00	 9.983433e+00
 1.019610e+00	 1.465361e+00	 9.856158e+00
 1.001702e+00	 1.477660e+00	 9.711633e+00
 9.836661e-01	 1.489727e+00	 9.529837e+00
 9.655075e-01	 1.501560e+00	 9.342048e+00
 1.059404e+00	 1.446047e+00	 1.014546e+01
 1.041691e+00	 1.458859e+00	 1.000011e+01
 1.023841e+00	 1.471441e+00	 9.867933e+00
 1.005858e+00	 1.483792e+00	 9.710128e+00
 9.877477e-01	 1.495909e+00	 9.537752e+00
 9.695137e-01	 1.507790e+00	 9.358737e+00
 1.063782e+00	 1.452022e+00	 1.015855e+01
 1.045995e+00	 1.464887e+00	 1.001382e+01
 1.028071e+00	 1.477521e+00	 9.873217e+00
 1.010015e+00	 1.489923e+00	 9.711269e+00
 9.918293e-01	 1.502090e+00	 9.548267e+00
 9.735200e-01	 1.514021e+00	 9.375249e+00
 1.068160e+00	 1.457997e+00	 1.017180e+01
 1.050300e+00	 1.470915e+00	 1.002501e+01
 1.032302e+00	 1.483602e+00	 9.873188e+00
 1.014171e+00	 1.496054e+00	 9.717206e+00
 9.959109e-01	 1.508272e+00	 9.560265e+00
 9.775262e-01	 1.520251e+00	 9.390762e+00
 1.072537e+00	 1.463973e+00	 1.018583e+01
 1.054604e+00	 1.476944e+00	 1.003409e+01
 1.036533e+00	 1.489682e+00	 9.877294e+00
 1.018327e+00	 1.502186e+00	 9.726661e+00
 9.999925e-01	 1.514453e+00	 9.572634e+00
 9.815325e-01	 1.526482e+00	 9.404455e+00
 9.615012e-01	 1.495329e+00	 9.326005e+00
 9.433001e-01	 1.506877e+00	 9.135506e+00
 9.249856e-01	 1.518188e+00	 8.962327e+00
 9.065622e-01	 1.529261e+00	 8.800878e+00
 8.880347e-01	 1.540094e+00	 8.646566e+00
 8.694074e-01	 1.550685e+00	 8.495663e+00
 9.655075e-01	 1.501560e+00	 9.342048e+00
 9.472305e-01	 1.513156e+00	 9.157942e+00
 9.288397e-01	 1.524514e+00	 8.986774e+00
 9.103396e-01	 1.535633e+00	 8.824335e+00
 8.917348e-01	 1.546511e+00	 8.667470e+00
 8.730300e-01	 1.557146e+00	 8.513930e+00
 9.695137e-01	 1.507790e+00	 9.358737e+00
 9.511609e-01	 1.519434e+00	 9.179211e+00
 9.326938e-01	 1.530840e+00	 9.009539e+00
 9.141169e-01	 1.542005e+00	 8.846501e+00
 8.954349e-01	 1.552928e+00	 8.687972e+00
 8.766525e-01	 1.563608e+00	 8.532772e+00
 9.735200e-01	 1.514021e+00	 9.375249e+00
 9.550913e-01	 1.525713e+00	 9.198798e+00
 9.365479e-01	 1.537166e+00	 9.030307e+00
 9.178943e-01	 1.548377e+00	 8.867159e+00
 8.991351e-01	 1.559345e+00	 8.707859e+00
 8.802750e-01	 1.570069e+00	 8.551885e+00
 9.775262e-01	 1.520251e+00	 9.390762e+00
 9.590217e-01	 1.531992e+00	 9.216183e+00
 9.404020e-01	 1.543491e+00	 9.048755e+00
 9.216716e-01	 1.554749e+00	 8.886082e+00
 9.028352e-01	 1.565762e+00	 8.726906e+00
 8.838975e-01	 1.576530e+00	 8.570956e+00
 9.815325e-01	 1.526482e+00	 9.404455e+00
 9.629522e-01	 1.538270e+00	 9.230841e+00
 9.442561e-01	 1.549817e+00	 9.064552e+00
 9.254490e-01	 1.561120e+00	 8.903034e+00
 9.065354e-01	 1.572179e+00	 8.744877e+00
 8.875201e-01	 1.582991e+00	 8.589664e+00
 8.694074e-01	 1.550685e+00	 8.495663e+00
 8.506851e-01	 1.561034e+00	 8.338565e+00
 8.318724e-01	 1.571140e+00	 8.168814e+00
 8.129739e-01	 1.581002e+00	 7.988325e+00
 7.939943e-01	 1.590618e+00	 7.799381e+00
 7.749380e-01	 1.599989e+00	 7.604521e+00
 8.730300e-01	 1.557146e+00	 8.513930e+00
 8.542297e-01	 1.567539e+00	 8.355395e+00
 8.353386e-01	 1.577687e+00	 8.185638e+00
 8.163613e-01	 1.587589e+00	 8.006505e+00
 7.973026e-01	 1.597246e+00	 7.820212e+00
 7.781670e-01	 1.606656e+00	 7.629221e+00
 8.766525e-01	 1.563608e+00	 8.532772e+00
 8.577742e-01	 1.574043e+00	 8.373409e+00
 8.388047e-01	 1.584233e+00	 8.203791e+00
 8.197487e-01	 1.594177e+00	 8.025815e+00
 8.006109e-01	 1.603874e+00	 7.841747e+00
 7.813959e-01	 1.613322e+00	 7.654101e+00
 8.802750e-01	 1.570069e+00	 8.551885e+00
 8.613187e-01	 1.580547e+00	 8.392190e+00
 8.422708e-01	 1.590780e+00	 8.222787e+00
 8.231361e-01	 1.600764e+00	 8.045737e+00
 8.039192e-01	 1.610501e+00	 7.863477e+00
 7.846248e-01	 1.619989e+00	 7.678694e+00
 8.838975e-01	 1.576530e+00	 8.570956e+00
 8.648632e-01	 1.587052e+00	 8.411316e+00
 8.457370e-01	 1.597326e+00	 8.242134e+00
 8.265235e-01	 1.607352e+00	 8.065750e+00
 8.072275e-01	 1.617129e+00	 7.884888e+00
 7.878537e-01	 1.626656e+00	 7.702529e+00
 8.875201e-01	 1.582991e+00	 8.589664e+00
 8.684078e-01	 1.593556e+00	 8.430356e+00
 8.492031e-01	 1.603872e+00	 8.261333e+00
 8.299109e-01	 1.613940e+00	 8.085324e+00
 8.105358e-01	 1.623756e+00	 7.905458e+00
 7.910826e-01	 1.633322e+00	 7.725128e+00
 7.749380e-01	 1.599989e+00	 7.604521e+00
 7.558099e-01	 1.609113e+00	 7.427811e+00
 7.366145e-01	 1.617990e+00	 7.277122e+00
 7.173565e-01	 1.626620e+00	 7.133243e+00
 6.980404e-01	 1.635003e+00	 6.987957e+00
 6.786708e-01	 1.643137e+00	 6.835121e+00
 7.781670e-01	 1.606656e+00	 7.629221e+00
 7.589591e-01	 1.615818e+00	 7.455999e+00
 7.396838e-01	 1.624732e+00	 7.307510e+00
 7.203455e-01	 1.633398e+00	 7.164340e+00
 7.009489e-01	 1.641815e+00	 7.017942e+00
 6.814986e-01	 1.649984e+00	 6.863179e+00
 7.813959e-01	 1.613322e+00	 7.654101e+00
 7.621083e-01	 1.622522e+00	 7.483910e+00
 7.427530e-01	 1.631474e+00	 7.337276e+00
 7.233345e-01	 1.640175e+00	 7.194969e+00
 7.038574e-01	 1.648628e+00	 7.047697e+00
 6.843264e-01	 1.656830e+00	 6.891292e+00
 7.846248e-01	 1.619989e+00	 7.678694e+00
 7.652576e-01	 1.629227e+00	 7.511137e+00
 7.458222e-01	 1.638215e+00	 7.366092e+00
 7.263234e-01	 1.646953e+00	 7.224757e+00
 7.067659e-01	 1.655440e+00	 7.076889e+00
 6.871542e-01	 1.663676e+00	 6.919161e+00
 7.878537e-01	 1.626656e+00	 7.702529e+00
 7.684068e-01	 1.635932e+00	 7.537262e+00
 7.488915e-01	 1.644957e+00	 7.393591e+00
 7.293124e-01	 1.653731e+00	 7.253320e+00
 7.096744e-01	 1.662253e+00	 7.105174e+00
 6.899820e-01	 1.670523e+00	 6.946471e+00
 7.910826e-01	 1.633322e+00	 7.725128e+00
 7.715560e-01	 1.642636e+00	 7.561863e+00
 7.519607e-01	 1.651699e+00	 7.419395e+00
 7.323014e-01	 1.660508e+00	 7.280265e+00
 7.125829e-01	 1.669065e+00	 7.132192e+00
 6.928098e-01	 1.677369e+00	 6.972894e+00
 6.786708e-01	 1.643137e+00	 6.835121e+00
 6.592523e-01	 1.651024e+00	 6.668596e+00
 6.397895e-01	 1.658663e+00	 6.493464e+00
 6.202868e-01	 1.666055e+00	 6.319689e+00
 6.007488e-01	 1.673199e+00	 6.156527e+00
 5.811800e-01	 1.680096e+00	 6.012415e+00
 6.814986e-01	 1.649984e+00	 6.863179e+00
 6.619992e-01	 1.657903e+00	 6.695837e+00
 6.424553e-01	 1.665574e+00	 6.521818e+00
 6.228714e-01	 1.672997e+00	 6.350361e+00
 6.032520e-01	 1.680171e+00	 6.189932e+00
 5.836016e-01	 1.687097e+00	 6.048118e+00
 6.843264e-01	 1.656830e+00	 6.891292e+00
 6.647461e-01	 1.664783e+00	 6.723344e+00
 6.451211e-01	 1.672485e+00	 6.550489e+00
 6.254559e-01	 1.679938e+00	 6.381268e+00
 6.057551e-01	 1.687142e+00	 6.223382e+00
 5.860231e-01	 1.694097e+00	 6.083595e+00
 6.871542e-01	 1.663676e+00	 6.919161e+00
 6.674930e-01	 1.671662e+00	 6.750852e+00
 6.477869e-01	 1.679396e+00	 6.579262e+00
 6.280404e-01	 1.686880e+00	 6.412257e+00
 6.082582e-01	 1.694114e+00	 6.256801e+00
 5.884447e-01	 1.701098e+00	 6.118855e+00
 6.899820e-01	 1.670523e+00	 6.946471e+00
 6.702399e-01	 1.678541e+00	 6.778084e+00
 6.504526e-01	 1.686307e+00	 6.607907e+00
 6.306249e-01	 1.693822e+00	 6.443160e+00
 6.107613e-01	 1.701086e+00	 6.290093e+00
 5.908663e-01	 1.708098e+00	 6.153885e+00
 6.928098e-01	 1.677369e+00	 6.972894e+00
 6.729867e-01	 1.685420e+00	 6.804746e+00
 6.531184e-01	 1.693219e+00	 6.636177e+00
 6.332095e-01	 1.700764e+00	 6.473791e+00
 6.132644e-01	 1.708057e+00	 6.323144e+00
 5.932879e-01	 1.715098e+00	 6.188655e+00
 5.811800e-01	 1.680096e+00	 6.012415e+00
 5.615847e-01	 1.686747e+00	 5.878000e+00
 5.419673e-01	 1.693152e+00	 5.739931e+00
 5.223323e-01	 1.699312e+00	 5.599270e+00
 5.026840e-01	 1.705228e+00	 5.456149e+00
 4.830265e-01	 1.710900e+00	 5.309819e+00
 5.836016e-01	 1.687097e+00	 6.048118e+00
 5.639246e-01	 1.693775e+00	 5.914631e+00
 5.442255e-01	 1.700207e+00	 5.776263e+00
 5.245087e-01	 1.706393e+00	 5.634771e+00
 5.047785e-01	 1.712333e+00	 5.490941e+00
 4.850391e-01	 1.718029e+00	 5.344645e+00
 5.860231e-01	 1.694097e+00	 6.083595e+00
 5.662646e-01	 1.700804e+00	 5.950787e+00
 5.464837e-01	 1.707262e+00	 5.811960e+00
 5.266851e-01	 1.713473e+00	 5.669530e+00
 5.068730e-01	 1.719438e+00	 5.524899e+00
 4.870517e-01	 1.725158e+00	 5.378518e+00
 5.884447e-01	 1.701098e+00	 6.118855e+00
 5.686045e-01	 1.707832e+00	 5.986566e+00
 5.487419e-01	 1.714317e+00	 5.847210e+00
 5.288615e-01	 1.720554e+00	 5.703824e+00
 5.089675e-01	 1.726543e+00	 5.558389e+00
 4.890643e-01	 1.732286e+00	 5.411892e+00
 5.908663e-01	 1.708098e+00	 6.153885e+00
 5.709444e-01	 1.714860e+00	 6.022046e+00
 5.510001e-01	 1.721372e+00	 5.882181e+00
 5.310379e-01	 1.727634e+00	 5.737911e+00
 5.110620e-01	 1.733649e+00	 5.591756e+00
 4.910769e-01	 1.739415e+00	 5.445201e+00
 5.932879e-01	 1.715098e+00	 6.188655e+00
 5.732844e-01	 1.721888e+00	 6.057285e+00
 5.532583e-01	 1.728426e+00	 5.917018e+00
 5.332143e-01	 1.734715e+00	 5.772026e+00
 5.131565e-01	 1.740754e+00	 5.625325e+00
 4.930895e-01	 1.746544e+00	 5.478855e+00
 4.830265e-01	 1.710900e+00	 5.309819e+00
 4.633641e-01	 1.716330e+00	 5.162258e+00
 4.437011e-01	 1.721518e+00	 5.020108e+00
 4.240415e-01	 1.726465e+00	 4.888546e+00
 4.043894e-01	 1.731174e+00	 4.772238e+00
 3.847489e-01	 1.735645e+00	 4.675449e+00
 4.850391e-01	 1.718029e+00	 5.344645e+00
 4.652948e-01	 1.723481e+00	 5.198551e+00
 4.455499e-01	 1.728691e+00	 5.058815e+00
 4.258084e-01	 1.733659e+00	 4.929436e+00
 4.060744e-01	 1.738387e+00	 4.813896e+00
 3.863520e-01	 1.742876e+00	 4.715284e+00
 4.870517e-01	 1.725158e+00	 5.378518e+00
 4.672255e-01	 1.730632e+00	 5.233663e+00
 4.473986e-01	 1.735864e+00	 5.096014e+00
 4.275752e-01	 1.740853e+00	 4.968487e+00
 4.077594e-01	 1.745600e+00	 4.853476e+00
 3.879551e-01	 1.750108e+00	 4.752985e+00
 4.890643e-01	 1.732286e+00	 5.411892e+00
 4.691562e-01	 1.737784e+00	 5.268140e+00
 4.492474e-01	 1.743037e+00	 5.132351e+00
 4.293420e-01	 1.748046e+00	 5.006452e+00
 4.094443e-01	 1.752814e+00	 4.891839e+00
 3.895583e-01	 1.757340e+00	 4.789523e+00
 4.910769e-01	 1.739415e+00	 5.445201e+00
 4.710869e-01	 1.744935e+00	 5.302509e+00
 4.510961e-01	 1.750210e+00	 5.168452e+00
 4.311089e-01	 1.755240e+00	 5.044062e+00
 4.111293e-01	 1.760027e+00	 4.929826e+00
 3.911614e-01	 1.764572e+00	 4.825851e+00
 4.930895e-01	 1.746544e+00	 5.478855e+00
 4.730176e-01	 1.752087e+00	 5.337270e+00
 4.529449e-01	 1.757383e+00	 5.204920e+00
 4.328757e-01	 1.762433e+00	 5.082025e+00
 4.128142e-01	 1.767240e+00	 4.968256e+00
 3.927645e-01	 1.771804e+00	 4.862897e+00
 3.847489e-01	 1.735645e+00	 4.675449e+00
 3.651239e-01	 1.739879e+00	 4.582425e+00
 3.455182e-01	 1.743878e+00	 4.480710e+00
 3.259358e-01	 1.747644e+00	 4.372865e+00
 3.063805e-01	 1.751178e+00	 4.265115e+00
 2.868559e-01	 1.754482e+00	 4.164629e+00
 3.863520e-01	 1.742876e+00	 4.715284e+00
 3.666452e-01	 1.747128e+00	 4.618661e+00
 3.469579e-01	 1.751144e+00	 4.516287e+00
 3.272939e-01	 1.754926e+00	 4.409623e+00
 3.076571e-01	 1.758475e+00	 4.303913e+00
 2.880511e-01	 1.761792e+00	 4.205562e+00
 3.879551e-01	 1.750108e+00	 4.752985e+00
 3.681666e-01	 1.754378e+00	 4.652705e+00
 3.483975e-01	 1.758410e+00	 4.549516e+00
 3.286520e-01	 1.762208e+00	 4.443939e+00
 3.089337e-01	 1.765771e+00	 4.340164e+00
 2.892464e-01	 1.769103e+00	 4.243769e+00
 3.895583e-01	 1.757340e+00	 4.789523e+00
 3.696879e-01	 1.761627e+00	 4.685678e+00
 3.498372e-01	 1.765677e+00	 4.581590e+00
 3.300100e-01	 1.769490e+00	 4.477044e+00
 3.102103e-01	 1.773068e+00	 4.375104e+00
 2.904416e-01	 1.776413e+00	 4.280463e+00
 3.911614e-01	 1.764572e+00	 4.825851e+00
 3.712093e-01	 1.768877e+00	 4.718693e+00
 3.512769e-01	 1.772943e+00	 4.613685e+00
 3.313681e-01	 1.776771e+00	 4.510156e+00
 3.114868e-01	 1.780364e+00	 4.409961e+00
 2.916368e-01	 1.783723e+00	 4.316848e+00
 3.927645e-01	 1.771804e+00	 4.862897e+00
 3.727306e-01	 1.776126e+00	 4.752897e+00
 3.527165e-01	 1.780209e+00	 4.646959e+00
 3.327262e-01	 1.784053e+00	 4.544479e+00
 3.127634e-01	 1.787661e+00	 4.445950e+00
 2.928321e-01	 1.791034e+00	 4.354124e+00
 2.868559e-01	 1.754482e+00	 4.164629e+00
 2.673657e-01	 1.757558e+00	 4.081393e+00
 2.479135e-01	 1.760407e+00	 4.014992e+00
 2.285029e-01	 1.763032e+00	 3.958688e+00
 2.091372e-01	 1.765434e+00	 3.906898e+00
 1.898199e-01	 1.767615e+00	 3.855069e+00
 2.880511e-01	 1.761792e+00	 4.205562e+00
 2.684797e-01	 1.764881e+00	 4.123857e+00
 2.489465e-01	 1.767742e+00	 4.058148e+00
 2.294550e-01	 1.770378e+00	 4.001901e+00
 2.100086e-01	 1.772789e+00	 3.949858e+00
 1.906108e-01	 1.774980e+00	 3.897898e+00
 2.892464e-01	 1.769103e+00	 4.243769e+00
 2.695938e-01	 1.772204e+00	 4.163318e+00
 2.499795e-01	 1.775077e+00	 4.097988e+00
 2.304071e-01	 1.777723e+00	 4.041511e+00
 2.108800e-01	 1.780145e+00	 3.989028e+00
 1.914017e-01	 1.782345e+00	 3.936922e+00
 2.904416e-01	 1.776413e+00	 4.280463e+00
 2.707078e-01	 1.779527e+00	 4.200941e+00
 2.510124e-01	 1.782412e+00	 4.135603e+00
 2.313592e-01	 1.785069e+00	 4.078517e+00
 2.117514e-01	 1.787501e+00	 4.025300e+00
 1.921926e-01	 1.789710e+00	 3.972912e+00
 2.916368e-01	 1.783723e+00	 4.316848e+00
 2.718218e-01	 1.786850e+00	 4.237884e+00
 2.520454e-01	 1.789747e+00	 4.172081e+00
 2.323112e-01	 1.792415e+00	 4.113919e+00
 2.126228e-01	 1.794857e+00	 4.059563e+00
 1.929835e-01	 1.797075e+00	 4.006637e+00
 2.928321e-01	 1.791034e+00	 4.354124e+00
 2.729358e-01	 1.794174e+00	 4.275300e+00
 2.530784e-01	 1.797082e+00	 4.208508e+00
 2.332633e-01	 1.799761e+00	 4.148713e+00
 2.134942e-01	 1.802213e+00	 4.092712e+00
 1.937744e-01	 1.804440e+00	 4.038870e+00
 1.898199e-01	 1.767615e+00	 3.855069e+00
 1.705542e-01	 1.769578e+00	 3.804133e+00
 1.513435e-01	 1.771324e+00	 3.757749e+00
 1.321909e-01	 1.772856e+00	 3.716395e+00
 1.130994e-01	 1.774177e+00	 3.680714e+00
 9.407220e-02	 1.775287e+00	 3.651276e+00
 1.906108e-01	 1.774980e+00	 3.897898e+00
 1.712649e-01	 1.776951e+00	 3.847264e+00
 1.519741e-01	 1.778705e+00	 3.801432e+00
 1.327417e-01	 1.780243e+00	 3.760639e+00
 1.135707e-01	 1.781569e+00	 3.725293e+00
 9.446417e-02	 1.782684e+00	 3.695712e+00
 1.914017e-01	 1.782345e+00	 3.936922e+00
 1.719755e-01	 1.784324e+00	 3.886782e+00
 1.526047e-01	 1.786085e+00	 3.841844e+00
 1.332925e-01	 1.787630e+00	 3.802054e+00
 1.140419e-01	 1.788961e+00	 3.767538e+00
 9.485613e-02	 1.790081e+00	 3.738317e+00
 1.921926e-01	 1.789710e+00	 3.972912e+00
 1.726861e-01	 1.791697e+00	 3.923330e+00
 1.532353e-01	 1.793466e+00	 3.879504e+00
 1.338432e-01	 1.795017e+00	 3.841046e+00
 1.145132e-01	 1.796354e+00	 3.807757e+00
 9.524810e-02	 1.797478e+00	 3.779322e+00
 1.929835e-01	 1.797075e+00	 4.006637e+00
 1.733968e-01	 1.799071e+00	 3.957551e+00
 1.538659e-01	 1.800846e+00	 3.914936e+00
 1.343940e-01	 1.802404e+00	 3.878026e+00
 1.149844e-01	 1.803746e+00	 3.846262e+00
 9.564007e-02	 1.804875e+00	 3.818955e+00
 1.937744e-01	 1.804440e+00	 4.038870e+00
 1.741074e-01	 1.806444e+00	 3.990093e+00
 1.544965e-01	 1.808227e+00	 3.948664e+00
 1.349448e-01	 1.809791e+00	 3.913405e+00
 1.154557e-01	 1.811139e+00	 3.883363e+00
 9.603204e-02	 1.812272e+00	 3.857449e+00
 9.407220e-02	 1.775287e+00	 3.651276e+00
 7.511214e-02	 1.776190e+00	 3.628500e+00
 5.622213e-02	 1.776889e+00	 3.612075e+00
 3.740496e-02	 1.777384e+00	 3.600748e+00
 1.866337e-02	 1.777680e+00	 3.592407e+00
 0.000000e+00	 1.777778e+00	 3.583934e+00
 9.446417e-02	 1.782684e+00	 3.695712e+00
 7.542511e-02	 1.783591e+00	 3.672260e+00
 5.645639e-02	 1.784292e+00	 3.655056e+00
 3.756081e-02	 1.784790e+00	 3.643214e+00
 1.874113e-02	 1.785087e+00	 3.634878e+00
 0.000000e+00	 1.785185e+00	 3.627056e+00
 9.485613e-02	 1.790081e+00	 3.738317e+00
 7.573808e-02	 1.790992e+00	 3.714677e+00
 5.669065e-02	 1.791696e+00	 3.697131e+00
 3.771667e-02	 1.792196e+00	 3.685115e+00
 1.881890e-02	 1.792494e+00	 3.676977e+00
 0.000000e+00	 1.792593e+00	 3.669791e+00
 9.524810e-02	 1.797478e+00	 3.779322e+00
 7.605104e-02	 1.798393e+00	 3.755912e+00
 5.692490e-02	 1.799100e+00	 3.738404e+00
 3.787252e-02	 1.799602e+00	 3.726506e+00
 1.889666e-02	 1.799901e+00	 3.718722e+00
 0.000000e+00	 1.800000e+00	 3.712147e+00
 9.564007e-02	 1.804875e+00	 3.818955e+00
 7.636401e-02	 1.805793e+00	 3.796129e+00
 5.715916e-02	 1.806503e+00	 3.778975e+00
 3.802838e-02	 1.807007e+00	 3.767438e+00
 1.897442e-02	 1.807308e+00	 3.760133e+00
 0.000000e+00	 1.807407e+00	 3.754128e+00
 9.603204e-02	 1.812272e+00	 3.857449e+00
 7.667698e-02	 1.813194e+00	 3.835489e+00
 5.739342e-02	 1.813907e+00	 3.818946e+00
 3.818423e-02	 1.814413e+00	 3.807960e+00
 1.905219e-02	 1.814715e+00	 3.801224e+00
 0.000000e+00	 1.814815e+00	 3.795735e+00
 1.814815e+00	 0.000000e+00	 1.320763e+01
 1.814715e+00	 1.905219e-02	 1.320973e+01
 1.814413e+00	 3.818423e-02	 1.321109e+01
 1.813907e+00	 5.739342e-02	 1.321261e+01
 1.813194e+00	 7.667698e-02	 1.321537e+01
 1.812272e+00	 9.603204e-02	 1.322054e+01
 1.822222e+00	 0.000000e+00	 1.317291e+01
 1.822122e+00	 1.912995e-02	 1.317534e+01
 1.821819e+00	 3.834008e-02	 1.317699e+01
 1.821311e+00	 5.762768e-02	 1.317872e+01
 1.820595e+00	 7.698994e-02	 1.318160e+01
 1.819669e+00	 9.642400e-02	 1.318684e+01
 1.829630e+00	 0.000000e+00	 1.313877e+01
 1.829529e+00	 1.920772e-02	 1.314151e+01
 1.829225e+00	 3.849594e-02	 1.314337e+01
 1.828714e+00	 5.786194e-02	 1.314519e+01
 1.827996e+00	 7.730291e-02	 1.314806e+01
 1.827066e+00	 9.681597e-02	 1.315322e+01
 1.837037e+00	 0.000000e+00	 1.310520e+01
 1.836936e+00	 1.928548e-02	 1.310826e+01
 1.836630e+00	 3.865179e-02	 1.311025e+01
 1.836118e+00	 5.809620e-02	 1.311203e+01
 1.835397e+00	 7.761588e-02	 1.311472e+01
 1.834463e+00	 9.720794e-02	 1.311963e+01
 1.844444e+00	 0.000000e+00	 1.307220e+01
 1.844343e+00	 1.936324e-02	 1.307557e+01
 1.844036e+00	 3.880765e-02	 1.307762e+01
 1.843522e+00	 5.833046e-02	 1.307923e+01
 1.842797e+00	 7.792885e-02	 1.308156e+01
 1.841860e+00	 9.759991e-02	 1.308601e+01
 1.851852e+00	 0.000000e+00	 1.303974e+01
 1.851750e+00	 1.944101e-02	 1.304347e+01
 1.851442e+00	 3.896350e-02	 1.304550e+01
 1.850926e+00	 5.856472e-02	 1.304678e+01
 1.850198e+00	 7.824181e-02	 1.304855e+01
 1.849257e+00	 9.799187e-02	 1.305232e+01
 1.812272e+00	 9.603204e-02	 1.322054e+01
 1.811139e+00	 1.154557e-01	 1.322673e+01
 1.809791e+00	 1.349448e-01	 1.323201e+01
 1.808227e+00	 1.544965e-01	 1.323685e+01
 1.806444e+00	 1.741074e-01	 1.324158e+01
 1.804440e+00	 1.937744e-01	 1.324633e+01
 1.819669e+00	 9.642400e-02	 1.318684e+01
 1.818531e+00	 1.159269e-01	 1.319316e+01
 1.817178e+00	 1.354956e-01	 1.319870e+01
 1.815607e+00	 1.551271e-01	 1.320383e+01
 1.813817e+00	 1.748181e-01	 1.320881e+01
 1.811805e+00	 1.945654e-01	 1.321372e+01
 1.827066e+00	 9.681597e-02	 1.315322e+01
 1.825923e+00	 1.163982e-01	 1.315955e+01
 1.824565e+00	 1.360464e-01	 1.316522e+01
 1.822988e+00	 1.557577e-01	 1.317056e+01
 1.821190e+00	 1.755287e-01	 1.317578e+01
 1.819170e+00	 1.953563e-01	 1.318088e+01
 1.834463e+00	 9.720794e-02	 1.311963e+01
 1.833316e+00	 1.168694e-01	 1.312579e+01
 1.831951e+00	 1.365972e-01	 1.313146e+01
 1.830368e+00	 1.563883e-01	 1.313690e+01
 1.828564e+00	 1.762394e-01	 1.314228e+01
 1.826535e+00	 1.961472e-01	 1.314757e+01
 1.841860e+00	 9.759991e-02	 1.308601e+01
 1.840708e+00	 1.173407e-01	 1.309180e+01
 1.839338e+00	 1.371480e-01	 1.309728e+01
 1.837749e+00	 1.570189e-01	 1.310268e+01
 1.835937e+00	 1.769500e-01	 1.310814e+01
 1.833900e+00	 1.969381e-01	 1.311359e+01
 1.849257e+00	 9.799187e-02	 1.305232e+01
 1.848101e+00	 1.178119e-01	 1.305751e+01
 1.846725e+00	 1.376988e-01	 1.306259e+01
 1.845129e+00	 1.576495e-01	 1.306777e+01
 1.843310e+00	 1.776606e-01	 1.307317e+01
 1.841265e+00	 1.977290e-01	 1.307873e+01
 1.804440e+00	 1.937744e-01	 1.324633e+01
 1.802213e+00	 2.134942e-01	 1.325231e+01
 1.799761e+00	 2.332633e-01	 1.326073e+01
 1.797082e+00	 2.530784e-01	 1.327124e+01
 1.794174e+00	 2.729358e-01	 1.328302e+01
 1.791034e+00	 2.928321e-01	 1.329473e+01
 1.811805e+00	 1.945654e-01	 1.321372e+01
 1.809569e+00	 2.143656e-01	 1.321965e+01
 1.807107e+00	 2.342154e-01	 1.322783e+01
 1.804417e+00	 2.541114e-01	 1.323806e+01
 1.801497e+00	 2.740499e-01	 1.324962e+01
 1.798344e+00	 2.940273e-01	 1.326126e+01
 1.819170e+00	 1.953563e-01	 1.318088e+01
 1.816925e+00	 2.152370e-01	 1.318686e+01
 1.814453e+00	 2.351675e-01	 1.319497e+01
 1.811752e+00	 2.551443e-01	 1.320510e+01
 1.808820e+00	 2.751639e-01	 1.321662e+01
 1.805655e+00	 2.952225e-01	 1.322835e+01
 1.826535e+00	 1.961472e-01	 1.314757e+01
 1.824281e+00	 2.161084e-01	 1.315369e+01
 1.821799e+00	 2.361196e-01	 1.316189e+01
 1.819087e+00	 2.561773e-01	 1.317212e+01
 1.816143e+00	 2.762779e-01	 1.318382e+01
 1.812965e+00	 2.964178e-01	 1.319581e+01
 1.833900e+00	 1.969381e-01	 1.311359e+01
 1.831637e+00	 2.169798e-01	 1.311991e+01
 1.829145e+00	 2.370717e-01	 1.312834e+01
 1.826422e+00	 2.572103e-01	 1.313888e+01
 1.823466e+00	 2.773919e-01	 1.315098e+01
 1.820275e+00	 2.976130e-01	 1.316345e+01
 1.841265e+00	 1.977290e-01	 1.307873e+01
 1.838993e+00	 2.178512e-01	 1.308529e+01
 1.836491e+00	 2.380238e-01	 1.309410e+01
 1.833757e+00	 2.582433e-01	 1.310515e+01
 1.830789e+00	 2.785059e-01	 1.311788e+01
 1.827586e+00	 2.988082e-01	 1.313108e+01
 1.791034e+00	 2.928321e-01	 1.329473e+01
 1.787661e+00	 3.127634e-01	 1.330593e+01
 1.784053e+00	 3.327262e-01	 1.331723e+01
 1.780209e+00	 3.527165e-01	 1.332789e+01
 1.776126e+00	 3.727306e-01	 1.333667e+01
 1.771804e+00	 3.927645e-01	 1.334856e+01
 1.798344e+00	 2.940273e-01	 1.326126e+01
 1.794958e+00	 3.140400e-01	 1.327256e+01
 1.791335e+00	 3.340842e-01	 1.328399e+01
 1.787475e+00	 3.541562e-01	 1.329470e+01
 1.783376e+00	 3.742520e-01	 1.330334e+01
 1.779036e+00	 3.943676e-01	 1.331535e+01
 1.805655e+00	 2.952225e-01	 1.322835e+01
 1.802254e+00	 3.153166e-01	 1.323983e+01
 1.798617e+00	 3.354423e-01	 1.325141e+01
 1.794741e+00	 3.555958e-01	 1.326216e+01
 1.790625e+00	 3.757733e-01	 1.327069e+01
 1.786268e+00	 3.959707e-01	 1.328279e+01
 1.812965e+00	 2.964178e-01	 1.319581e+01
 1.809551e+00	 3.165932e-01	 1.320757e+01
 1.805899e+00	 3.368004e-01	 1.321937e+01
 1.802007e+00	 3.570355e-01	 1.323017e+01
 1.797875e+00	 3.772947e-01	 1.323861e+01
 1.793499e+00	 3.975739e-01	 1.325079e+01
 1.820275e+00	 2.976130e-01	 1.316345e+01
 1.816847e+00	 3.178698e-01	 1.317566e+01
 1.813181e+00	 3.381584e-01	 1.318776e+01
 1.809274e+00	 3.584752e-01	 1.319864e+01
 1.805124e+00	 3.788160e-01	 1.320703e+01
 1.800731e+00	 3.991770e-01	 1.321927e+01
 1.827586e+00	 2.988082e-01	 1.313108e+01
 1.824144e+00	 3.191463e-01	 1.314394e+01
 1.820463e+00	 3.395165e-01	 1.315645e+01
 1.816540e+00	 3.599148e-01	 1.316748e+01
 1.812374e+00	 3.803374e-01	 1.317587e+01
 1.807963e+00	 4.007801e-01	 1.318815e+01
 1.771804e+00	 3.927645e-01	 1.334856e+01
 1.767240e+00	 4.128142e-01	 1.336599e+01
 1.762433e+00	 4.328757e-01	 1.338343e+01
 1.757383e+00	 4.529449e-01	 1.340009e+01
 1.752087e+00	 4.730176e-01	 1.341523e+01
 1.746544e+00	 4.930895e-01	 1.342817e+01
 1.779036e+00	 3.943676e-01	 1.331535e+01
 1.774453e+00	 4.144992e-01	 1.333297e+01
 1.769627e+00	 4.346426e-01	 1.335086e+01
 1.764556e+00	 4.547936e-01	 1.336810e+01
 1.759238e+00	 4.749482e-01	 1.338379e+01
 1.753673e+00	 4.951021e-01	 1.339713e+01
 1.786268e+00	 3.959707e-01	 1.328279e+01
 1.781666e+00	 4.161841e-01	 1.330056e+01
 1.776821e+00	 4.364094e-01	 1.331885e+01
 1.771729e+00	 4.566424e-01	 1.333659e+01
 1.766389e+00	 4.768789e-01	 1.335277e+01
 1.760801e+00	 4.971148e-01	 1.336645e+01
 1.793499e+00	 3.975739e-01	 1.325079e+01
 1.788880e+00	 4.178691e-01	 1.326868e+01
 1.784014e+00	 4.381762e-01	 1.328729e+01
 1.778902e+00	 4.584911e-01	 1.330548e+01
 1.773541e+00	 4.788096e-01	 1.332211e+01
 1.767930e+00	 4.991274e-01	 1.333611e+01
 1.800731e+00	 3.991770e-01	 1.321927e+01
 1.796093e+00	 4.195541e-01	 1.323722e+01
 1.791208e+00	 4.399431e-01	 1.325612e+01
 1.786075e+00	 4.603399e-01	 1.327470e+01
 1.780692e+00	 4.807403e-01	 1.329173e+01
 1.775059e+00	 5.011400e-01	 1.330606e+01
 1.807963e+00	 4.007801e-01	 1.318815e+01
 1.803306e+00	 4.212390e-01	 1.320612e+01
 1.798401e+00	 4.417099e-01	 1.322524e+01
 1.793248e+00	 4.621887e-01	 1.324417e+01
 1.787843e+00	 4.826710e-01	 1.326160e+01
 1.782188e+00	 5.031526e-01	 1.327629e+01
 1.746544e+00	 4.930895e-01	 1.342817e+01
 1.740754e+00	 5.131565e-01	 1.344028e+01
 1.734715e+00	 5.332143e-01	 1.345306e+01
 1.728426e+00	 5.532583e-01	 1.346633e+01
 1.721888e+00	 5.732844e-01	 1.348022e+01
 1.715098e+00	 5.932879e-01	 1.349518e+01
 1.753673e+00	 4.951021e-01	 1.339713e+01
 1.747859e+00	 5.152511e-01	 1.340947e+01
 1.741795e+00	 5.353906e-01	 1.342245e+01
 1.735481e+00	 5.555165e-01	 1.343591e+01
 1.728916e+00	 5.756243e-01	 1.345000e+01
 1.722099e+00	 5.957095e-01	 1.346520e+01
 1.760801e+00	 4.971148e-01	 1.336645e+01
 1.754964e+00	 5.173456e-01	 1.337900e+01
 1.748876e+00	 5.375670e-01	 1.339215e+01
 1.742536e+00	 5.577747e-01	 1.340578e+01
 1.735944e+00	 5.779642e-01	 1.342005e+01
 1.729099e+00	 5.981311e-01	 1.343544e+01
 1.767930e+00	 4.991274e-01	 1.333611e+01
 1.762069e+00	 5.194401e-01	 1.334886e+01
 1.755956e+00	 5.397434e-01	 1.336219e+01
 1.749591e+00	 5.600329e-01	 1.337599e+01
 1.742972e+00	 5.803042e-01	 1.339042e+01
 1.736100e+00	 6.005526e-01	 1.340600e+01
 1.775059e+00	 5.011400e-01	 1.330606e+01
 1.769174e+00	 5.215346e-01	 1.331906e+01
 1.763037e+00	 5.419198e-01	 1.333260e+01
 1.756646e+00	 5.622911e-01	 1.334658e+01
 1.750000e+00	 5.826441e-01	 1.336120e+01
 1.743100e+00	 6.029742e-01	 1.337697e+01
 1.782188e+00	 5.031526e-01	 1.327629e+01
 1.776279e+00	 5.236291e-01	 1.328958e+01
 1.770117e+00	 5.440962e-01	 1.330338e+01
 1.763700e+00	 5.645493e-01	 1.331761e+01
 1.757028e+00	 5.849840e-01	 1.333246e+01
 1.750100e+00	 6.053958e-01	 1.334845e+01
 1.715098e+00	 5.932879e-01	 1.349518e+01
 1.708057e+00	 6.132644e-01	 1.350734e+01
 1.700764e+00	 6.332095e-01	 1.351344e+01
 1.693219e+00	 6.531184e-01	 1.351557e+01
 1.685420e+00	 6.729867e-01	 1.351642e+01
 1.677369e+00	 6.928098e-01	 1.351935e+01
 1.722099e+00	 5.957095e-01	 1.346520e+01
 1.715029e+00	 6.157676e-01	 1.347789e+01
 1.707706e+00	 6.357940e-01	 1.348489e+01
 1.700130e+00	 6.557842e-01	 1.348802e+01
 1.692300e+00	 6.757336e-01	 1.348968e+01
 1.684216e+00	 6.956376e-01	 1.349298e+01
 1.729099e+00	 5.981311e-01	 1.343544e+01
 1.722001e+00	 6.182707e-01	 1.344863e+01
 1.714648e+00	 6.383785e-01	 1.345649e+01
 1.707041e+00	 6.584500e-01	 1.346058e+01
 1.699179e+00	 6.784805e-01	 1.346305e+01
 1.691062e+00	 6.984654e-01	 1.346670e+01
 1.736100e+00	 6.005526e-01	 1.340600e+01
 1.728972e+00	 6.207738e-01	 1.341966e+01
 1.721590e+00	 6.409631e-01	 1.342837e+01
 1.713952e+00	 6.611158e-01	 1.343342e+01
 1.706058e+00	 6.812274e-01	 1.343668e+01
 1.697908e+00	 7.012932e-01	 1.344068e+01
 1.743100e+00	 6.029742e-01	 1.337697e+01
 1.735944e+00	 6.232769e-01	 1.339110e+01
 1.728532e+00	 6.435476e-01	 1.340066e+01
 1.720863e+00	 6.637816e-01	 1.340667e+01
 1.712937e+00	 6.839743e-01	 1.341072e+01
 1.704755e+00	 7.041210e-01	 1.341506e+01
 1.750100e+00	 6.053958e-01	 1.334845e+01
 1.742916e+00	 6.257800e-01	 1.336308e+01
 1.735474e+00	 6.461321e-01	 1.337350e+01
 1.727774e+00	 6.664474e-01	 1.338046e+01
 1.719817e+00	 6.867212e-01	 1.338530e+01
 1.711601e+00	 7.069488e-01	 1.339000e+01
 1.677369e+00	 6.928098e-01	 1.351935e+01
 1.669065e+00	 7.125829e-01	 1.352169e+01
 1.660508e+00	 7.323014e-01	 1.352119e+01
 1.651699e+00	 7.519607e-01	 1.352138e+01
 1.642636e+00	 7.715560e-01	 1.351755e+01
 1.633322e+00	 7.910826e-01	 1.350839e+01
 1.684216e+00	 6.956376e-01	 1.349298e+01
 1.675878e+00	 7.154914e-01	 1.349554e+01
 1.667286e+00	 7.352904e-01	 1.349563e+01
 1.658440e+00	 7.550299e-01	 1.349588e+01
 1.649341e+00	 7.747052e-01	 1.349210e+01
 1.639989e+00	 7.943115e-01	 1.348358e+01
 1.691062e+00	 6.984654e-01	 1.346670e+01
 1.682690e+00	 7.183999e-01	 1.346949e+01
 1.674063e+00	 7.382794e-01	 1.347016e+01
 1.665182e+00	 7.580991e-01	 1.347038e+01
 1.656046e+00	 7.778544e-01	 1.346678e+01
 1.646655e+00	 7.975404e-01	 1.345901e+01
 1.697908e+00	 7.012932e-01	 1.344068e+01
 1.689503e+00	 7.213084e-01	 1.344369e+01
 1.680841e+00	 7.412684e-01	 1.344492e+01
 1.671923e+00	 7.611684e-01	 1.344507e+01
 1.662750e+00	 7.810036e-01	 1.344175e+01
 1.653322e+00	 8.007693e-01	 1.343479e+01
 1.704755e+00	 7.041210e-01	 1.341506e+01
 1.696315e+00	 7.242169e-01	 1.341829e+01
 1.687619e+00	 7.442574e-01	 1.341998e+01
 1.678665e+00	 7.642376e-01	 1.342010e+01
 1.669455e+00	 7.841528e-01	 1.341713e+01
 1.659989e+00	 8.039982e-01	 1.341101e+01
 1.711601e+00	 7.069488e-01	 1.339000e+01
 1.703128e+00	 7.271254e-01	 1.339344e+01
 1.694396e+00	 7.472463e-01	 1.339547e+01
 1.685407e+00	 7.673068e-01	 1.339562e+01
 1.676160e+00	 7.873020e-01	 1.339303e+01
 1.666655e+00	 8.072271e-01	 1.338774e+01
 1.633322e+00	 7.910826e-01	 1.350839e+01
 1.623756e+00	 8.105358e-01	 1.349334e+01
 1.613940e+00	 8.299109e-01	 1.347428e+01
 1.603872e+00	 8.492031e-01	 1.345413e+01
 1.593556e+00	 8.684078e-01	 1.343548e+01
 1.582991e+00	 8.875201e-01	 1.342049e+01
 1.639989e+00	 7.943115e-01	 1.348358e+01
 1.630384e+00	 8.138441e-01	 1.346950e+01
 1.620527e+00	 8.332983e-01	 1.345132e+01
 1.610419e+00	 8.526692e-01	 1.343194e+01
 1.600060e+00	 8.719523e-01	 1.341387e+01
 1.589452e+00	 8.911426e-01	 1.339920e+01
 1.646655e+00	 7.975404e-01	 1.345901e+01
 1.637011e+00	 8.171524e-01	 1.344594e+01
 1.627115e+00	 8.366857e-01	 1.342862e+01
 1.616965e+00	 8.561354e-01	 1.340990e+01
 1.606565e+00	 8.754968e-01	 1.339226e+01
 1.595914e+00	 8.947651e-01	 1.337774e+01
 1.653322e+00	 8.007693e-01	 1.343479e+01
 1.643639e+00	 8.204607e-01	 1.342274e+01
 1.633702e+00	 8.400731e-01	 1.340622e+01
 1.623512e+00	 8.596015e-01	 1.338807e+01
 1.613069e+00	 8.790413e-01	 1.337073e+01
 1.602375e+00	 8.983877e-01	 1.335622e+01
 1.659989e+00	 8.039982e-01	 1.341101e+01
 1.650267e+00	 8.237690e-01	 1.339995e+01
 1.640290e+00	 8.434605e-01	 1.338418e+01
 1.630058e+00	 8.630677e-01	 1.336648e+01
 1.619573e+00	 8.825858e-01	 1.334932e+01
 1.608836e+00	 9.020102e-01	 1.333469e+01
 1.666655e+00	 8.072271e-01	 1.338774e+01
 1.656894e+00	 8.270773e-01	 1.337763e+01
 1.646877e+00	 8.468478e-01	 1.336250e+01
 1.636605e+00	 8.665338e-01	 1.334516e+01
 1.626078e+00	 8.861304e-01	 1.332807e+01
 1.615297e+00	 9.056327e-01	 1.331321e+01
 1.582991e+00	 8.875201e-01	 1.342049e+01
 1.572179e+00	 9.065354e-01	 1.340361e+01
 1.561120e+00	 9.254490e-01	 1.337861e+01
 1.549817e+00	 9.442561e-01	 1.334554e+01
 1.538270e+00	 9.629522e-01	 1.330344e+01
 1.526482e+00	 9.815325e-01	 1.325016e+01
 1.589452e+00	 8.911426e-01	 1.339920e+01
 1.578596e+00	 9.102355e-01	 1.338240e+01
 1.567492e+00	 9.292263e-01	 1.335744e+01
 1.556143e+00	 9.481102e-01	 1.332457e+01
 1.544549e+00	 9.668826e-01	 1.328305e+01
 1.532712e+00	 9.855387e-01	 1.323100e+01
 1.595914e+00	 8.947651e-01	 1.337774e+01
 1.585013e+00	 9.139357e-01	 1.336095e+01
 1.573864e+00	 9.330036e-01	 1.333612e+01
 1.562469e+00	 9.519643e-01	 1.330366e+01
 1.550828e+00	 9.708130e-01	 1.326298e+01
 1.538943e+00	 9.895450e-01	 1.321238e+01
 1.602375e+00	 8.983877e-01	 1.335622e+01
 1.591430e+00	 9.176358e-01	 1.333937e+01
 1.580236e+00	 9.367810e-01	 1.331476e+01
 1.568795e+00	 9.558184e-01	 1.328286e+01
 1.557106e+00	 9.747434e-01	 1.324321e+01
 1.545173e+00	 9.935513e-01	 1.319422e+01
 1.608836e+00	 9.020102e-01	 1.333469e+01
 1.597847e+00	 9.213360e-01	 1.331775e+01
 1.586608e+00	 9.405583e-01	 1.329341e+01
 1.575120e+00	 9.596725e-01	 1.326222e+01
 1.563385e+00	 9.786738e-01	 1.322373e+01
 1.551404e+00	 9.975575e-01	 1.317642e+01
 1.615297e+00	 9.056327e-01	 1.331321e+01
 1.604264e+00	 9.250361e-01	 1.329615e+01
 1.592980e+00	 9.443357e-01	 1.327216e+01
 1.581446e+00	 9.635266e-01	 1.324176e+01
 1.569664e+00	 9.826043e-01	 1.320451e+01
 1.557635e+00	 1.001564e+00	 1.315886e+01
 1.526482e+00	 9.815325e-01	 1.325016e+01
 1.514453e+00	 9.999925e-01	 1.320076e+01
 1.502186e+00	 1.018327e+00	 1.316630e+01
 1.489682e+00	 1.036533e+00	 1.313635e+01
 1.476944e+00	 1.054604e+00	 1.309901e+01
 1.463973e+00	 1.072537e+00	 1.304427e+01
 1.532712e+00	 9.855387e-01	 1.323100e+01
 1.520634e+00	 1.004074e+00	 1.318321e+01
 1.508317e+00	 1.022484e+00	 1.315043e+01
 1.495762e+00	 1.040764e+00	 1.312228e+01
 1.482972e+00	 1.058909e+00	 1.308629e+01
 1.469948e+00	 1.076915e+00	 1.303064e+01
 1.538943e+00	 9.895450e-01	 1.321238e+01
 1.526816e+00	 1.008156e+00	 1.316627e+01
 1.514448e+00	 1.026640e+00	 1.313497e+01
 1.501843e+00	 1.044994e+00	 1.310819e+01
 1.489000e+00	 1.063213e+00	 1.307354e+01
 1.475924e+00	 1.081293e+00	 1.301703e+01
 1.545173e+00	 9.935513e-01	 1.319422e+01
 1.532997e+00	 1.012237e+00	 1.314977e+01
 1.520580e+00	 1.030797e+00	 1.311967e+01
 1.507923e+00	 1.049225e+00	 1.309380e+01
 1.495029e+00	 1.067518e+00	 1.305991e+01
 1.481899e+00	 1.085671e+00	 1.300339e+01
 1.551404e+00	 9.975575e-01	 1.317642e+01
 1.539179e+00	 1.016319e+00	 1.313351e+01
 1.526711e+00	 1.034953e+00	 1.310429e+01
 1.514003e+00	 1.053456e+00	 1.307884e+01
 1.501057e+00	 1.071822e+00	 1.304511e+01
 1.487874e+00	 1.090048e+00	 1.298866e+01
 1.557635e+00	 1.001564e+00	 1.315886e+01
 1.545360e+00	 1.020400e+00	 1.311730e+01
 1.532843e+00	 1.039110e+00	 1.308857e+01
 1.520084e+00	 1.057687e+00	 1.306303e+01
 1.507085e+00	 1.076127e+00	 1.302887e+01
 1.493850e+00	 1.094426e+00	 1.297188e+01
 1.463973e+00	 1.072537e+00	 1.304427e+01
 1.450772e+00	 1.090327e+00	 1.297921e+01
 1.437343e+00	 1.107970e+00	 1.290219e+01
 1.423689e+00	 1.125461e+00	 1.281016e+01
 1.409812e+00	 1.142796e+00	 1.273958e+01
 1.395715e+00	 1.159971e+00	 1.268157e+01
 1.469948e+00	 1.076915e+00	 1.303064e+01
 1.456693e+00	 1.094778e+00	 1.296399e+01
 1.443210e+00	 1.112492e+00	 1.288131e+01
 1.429500e+00	 1.130055e+00	 1.279834e+01
 1.415566e+00	 1.147461e+00	 1.273378e+01
 1.401412e+00	 1.164706e+00	 1.267693e+01
 1.475924e+00	 1.081293e+00	 1.301703e+01
 1.462615e+00	 1.099228e+00	 1.294743e+01
 1.449076e+00	 1.117015e+00	 1.286188e+01
 1.435311e+00	 1.134649e+00	 1.278780e+01
 1.421321e+00	 1.152125e+00	 1.272819e+01
 1.407108e+00	 1.169440e+00	 1.267190e+01
 1.481899e+00	 1.085671e+00	 1.300339e+01
 1.468536e+00	 1.103678e+00	 1.292957e+01
 1.454943e+00	 1.121537e+00	 1.284476e+01
 1.441122e+00	 1.139242e+00	 1.277818e+01
 1.427075e+00	 1.156790e+00	 1.272257e+01
 1.412805e+00	 1.174175e+00	 1.266636e+01
 1.487874e+00	 1.090048e+00	 1.298866e+01
 1.474458e+00	 1.108129e+00	 1.291041e+01
 1.460810e+00	 1.126059e+00	 1.282947e+01
 1.446933e+00	 1.143836e+00	 1.276911e+01
 1.432829e+00	 1.161454e+00	 1.271666e+01
 1.418502e+00	 1.178909e+00	 1.266015e+01
 1.493850e+00	 1.094426e+00	 1.297188e+01
 1.480379e+00	 1.112579e+00	 1.289008e+01
 1.466677e+00	 1.130582e+00	 1.281549e+01
 1.452744e+00	 1.148430e+00	 1.276019e+01
 1.438584e+00	 1.166119e+00	 1.271016e+01
 1.424199e+00	 1.183644e+00	 1.265310e+01
 1.395715e+00	 1.159971e+00	 1.268157e+01
 1.381400e+00	 1.176982e+00	 1.261485e+01
 1.366872e+00	 1.193824e+00	 1.252826e+01
 1.352131e+00	 1.210493e+00	 1.242872e+01
 1.337182e+00	 1.226987e+00	 1.232450e+01
 1.322029e+00	 1.243299e+00	 1.222484e+01
 1.401412e+00	 1.164706e+00	 1.267693e+01
 1.387039e+00	 1.181786e+00	 1.260917e+01
 1.372451e+00	 1.198696e+00	 1.252218e+01
 1.357650e+00	 1.215434e+00	 1.242282e+01
 1.342640e+00	 1.231995e+00	 1.231930e+01
 1.327425e+00	 1.248374e+00	 1.222089e+01
 1.407108e+00	 1.169440e+00	 1.267190e+01
 1.392677e+00	 1.186590e+00	 1.260291e+01
 1.378030e+00	 1.203569e+00	 1.251560e+01
 1.363169e+00	 1.220375e+00	 1.241666e+01
 1.348098e+00	 1.237003e+00	 1.231414e+01
 1.332821e+00	 1.253449e+00	 1.221719e+01
 1.412805e+00	 1.174175e+00	 1.266636e+01
 1.398316e+00	 1.191394e+00	 1.259605e+01
 1.383609e+00	 1.208442e+00	 1.250859e+01
 1.368688e+00	 1.225316e+00	 1.241033e+01
 1.353556e+00	 1.242011e+00	 1.230909e+01
 1.338217e+00	 1.258523e+00	 1.221378e+01
 1.418502e+00	 1.178909e+00	 1.266015e+01
 1.403954e+00	 1.196198e+00	 1.258855e+01
 1.389188e+00	 1.213315e+00	 1.250113e+01
 1.374207e+00	 1.230256e+00	 1.240387e+01
 1.359014e+00	 1.247019e+00	 1.230417e+01
 1.343613e+00	 1.263598e+00	 1.221064e+01
 1.424199e+00	 1.183644e+00	 1.265310e+01
 1.409592e+00	 1.201002e+00	 1.258032e+01
 1.394767e+00	 1.218187e+00	 1.249323e+01
 1.379726e+00	 1.235197e+00	 1.239728e+01
 1.364472e+00	 1.252027e+00	 1.229941e+01
 1.349009e+00	 1.268673e+00	 1.220774e+01
 1.322029e+00	 1.243299e+00	 1.222484e+01
 1.306673e+00	 1.259428e+00	 1.212011e+01
 1.291118e+00	 1.275369e+00	 1.199974e+01
 1.275369e+00	 1.291118e+00	 1.187198e+01
 1.259428e+00	 1.306673e+00	 1.174463e+01
 1.243299e+00	 1.322029e+00	 1.162468e+01
 1.327425e+00	 1.248374e+00	 1.222089e+01
 1.312006e+00	 1.264569e+00	 1.211768e+01
 1.296388e+00	 1.280575e+00	 1.199870e+01
 1.280575e+00	 1.296388e+00	 1.187210e+01
 1.264569e+00	 1.312006e+00	 1.174561e+01
 1.248374e+00	 1.327425e+00	 1.162609e+01
 1.332821e+00	 1.253449e+00	 1.221719e+01
 1.317339e+00	 1.269709e+00	 1.211555e+01
 1.301658e+00	 1.285780e+00	 1.199788e+01
 1.285780e+00	 1.301658e+00	 1.187231e+01
 1.269709e+00	 1.317339e+00	 1.174651e+01
 1.253449e+00	 1.332821e+00	 1.162731e+01
 1.338217e+00	 1.258523e+00	 1.221378e+01
 1.322673e+00	 1.274850e+00	 1.211370e+01
 1.306928e+00	 1.290986e+00	 1.199724e+01
 1.290986e+00	 1.306928e+00	 1.187253e+01
 1.274850e+00	 1.322673e+00	 1.174725e+01
 1.258523e+00	 1.338217e+00	 1.162828e+01
 1.343613e+00	 1.263598e+00	 1.221064e+01
 1.328006e+00	 1.279990e+00	 1.211209e+01
 1.312198e+00	 1.296191e+00	 1.199669e+01
 1.296191e+00	 1.312198e+00	 1.187264e+01
 1.279990e+00	 1.328006e+00	 1.174772e+01
 1.263598e+00	 1.343613e+00	 1.162887e+01
 1.349009e+00	 1.268673e+00	 1.220774e+01
 1.333340e+00	 1.285131e+00	 1.211061e+01
 1.317468e+00	 1.301397e+00	 1.199609e+01
 1.301397e+00	 1.317468e+00	 1.187249e+01
 1.285131e+00	 1.333340e+00	 1.174775e+01
 1.268673e+00	 1.349009e+00	 1.162895e+01
 1.243299e+00	 1.322029e+00	 1.162468e+01
 1.226987e+00	 1.337182e+00	 1.150222e+01
 1.210493e+00	 1.352131e+00	 1.136828e+01
 1.193824e+00	 1.366872e+00	 1.122902e+01
 1.176982e+00	 1.381400e+00	 1.108835e+01
 1.159971e+00	 1.395715e+00	 1.094764e+01
 1.248374e+00	 1.327425e+00	 1.162609e+01
 1.231995e+00	 1.342640e+00	 1.150381e+01
 1.215434e+00	 1.357650e+00	 1.137008e+01
 1.198696e+00	 1.372451e+00	 1.123098e+01
 1.181786e+00	 1.387039e+00	 1.109035e+01
 1.164706e+00	 1.401412e+00	 1.094939e+01
 1.253449e+00	 1.332821e+00	 1.162731e+01
 1.237003e+00	 1.348098e+00	 1.150522e+01
 1.220375e+00	 1.363169e+00	 1.137175e+01
 1.203569e+00	 1.378030e+00	 1.123292e+01
 1.186590e+00	 1.392677e+00	 1.109245e+01
 1.169440e+00	 1.407108e+00	 1.095132e+01
 1.258523e+00	 1.338217e+00	 1.162828e+01
 1.242011e+00	 1.353556e+00	 1.150637e+01
 1.225316e+00	 1.368688e+00	 1.137325e+01
 1.208442e+00	 1.383609e+00	 1.123483e+01
 1.191394e+00	 1.398316e+00	 1.109463e+01
 1.174175e+00	 1.412805e+00	 1.095342e+01
 1.263598e+00	 1.343613e+00	 1.162887e+01
 1.247019e+00	 1.359014e+00	 1.150716e+01
 1.230256e+00	 1.374207e+00	 1.137449e+01
 1.213315e+00	 1.389188e+00	 1.123661e+01
 1.196198e+00	 1.403954e+00	 1.109684e+01
 1.178909e+00	 1.418502e+00	 1.095567e+01
 1.268673e+00	 1.349009e+00	 1.162895e+01
 1.252027e+00	 1.364472e+00	 1.150747e+01
 1.235197e+00	 1.379726e+00	 1.137536e+01
 1.218187e+00	 1.394767e+00	 1.123817e+01
 1.201002e+00	 1.409592e+00	 1.109898e+01
 1.183644e+00	 1.424199e+00	 1.095800e+01
 1.159971e+00	 1.395715e+00	 1.094764e+01
 1.142796e+00	 1.409812e+00	 1.079963e+01
 1.125461e+00	 1.423689e+00	 1.064391e+01
 1.107970e+00	 1.437343e+00	 1.048797e+01
 1.090327e+00	 1.450772e+00	 1.033783e+01
 1.072537e+00	 1.463973e+00	 1.018583e+01
 1.164706e+00	 1.401412e+00	 1.094939e+01
 1.147461e+00	 1.415566e+00	 1.080281e+01
 1.130055e+00	 1.429500e+00	 1.065089e+01
 1.112492e+00	 1.443210e+00	 1.049878e+01
 1.094778e+00	 1.456693e+00	 1.035007e+01
 1.076915e+00	 1.469948e+00	 1.019781e+01
 1.169440e+00	 1.407108e+00	 1.095132e+01
 1.152125e+00	 1.421321e+00	 1.080598e+01
 1.134649e+00	 1.435311e+00	 1.065729e+01
 1.117015e+00	 1.449076e+00	 1.050824e+01
 1.099228e+00	 1.462615e+00	 1.035955e+01
 1.081293e+00	 1.475924e+00	 1.020497e+01
 1.174175e+00	 1.412805e+00	 1.095342e+01
 1.156790e+00	 1.427075e+00	 1.080919e+01
 1.139242e+00	 1.441122e+00	 1.066321e+01
 1.121537e+00	 1.454943e+00	 1.051642e+01
 1.103678e+00	 1.468536e+00	 1.036672e+01
 1.085671e+00	 1.481899e+00	 1.020792e+01
 1.178909e+00	 1.418502e+00	 1.095567e+01
 1.161454e+00	 1.432829e+00	 1.081243e+01
 1.143836e+00	 1.446933e+00	 1.066870e+01
 1.126059e+00	 1.460810e+00	 1.052344e+01
 1.108129e+00	 1.474458e+00	 1.037201e+01
 1.090048e+00	 1.487874e+00	 1.021071e+01
 1.183644e+00	 1.424199e+00	 1.095800e+01
 1.166119e+00	 1.438584e+00	 1.081567e+01
 1.148430e+00	 1.452744e+00	 1.067379e+01
 1.130582e+00	 1.466677e+00	 1.052941e+01
 1.112579e+00	 1.480379e+00	 1.037574e+01
 1.094426e+00	 1.493850e+00	 1.021557e+01
 1.072537e+00	 1.463973e+00	 1.018583e+01
 1.054604e+00	 1.476944e+00	 1.003409e+01
 1.036533e+00	 1.489682e+00	 9.877294e+00
 1.018327e+00	 1.502186e+00	 9.726661e+00
 9.999925e-01	 1.514453e+00	 9.572634e+00
 9.815325e-01	 1.526482e+00	 9.404455e+00
 1.076915e+00	 1.469948e+00	 1.019781e+01
 1.058909e+00	 1.482972e+00	 1.003891e+01
 1.040764e+00	 1.495762e+00	 9.885413e+00
 1.022484e+00	 1.508317e+00	 9.737944e+00
 1.004074e+00	 1.520634e+00	 9.585099e+00
 9.855387e-01	 1.532712e+00	 9.417233e+00
 1.081293e+00	 1.475924e+00	 1.020497e+01
 1.063213e+00	 1.489000e+00	 1.004355e+01
 1.044994e+00	 1.501843e+00	 9.894949e+00
 1.026640e+00	 1.514448e+00	 9.749809e+00
 1.008156e+00	 1.526816e+00	 9.597735e+00
 9.895450e-01	 1.538943e+00	 9.430163e+00
 1.085671e+00	 1.481899e+00	 1.020792e+01
 1.067518e+00	 1.495029e+00	 1.005018e+01
 1.049225e+00	 1.507923e+00	 9.905253e+00
 1.030797e+00	 1.520580e+00	 9.761652e+00
 1.012237e+00	 1.532997e+00	 9.609963e+00
 9.935513e-01	 1.545173e+00	 9.442671e+00
 1.090048e+00	 1.487874e+00	 1.021071e+01
 1.071822e+00	 1.501057e+00	 1.005809e+01
 1.053456e+00	 1.514003e+00	 9.915678e+00
 1.034953e+00	 1.526711e+00	 9.772870e+00
 1.016319e+00	 1.539179e+00	 9.621202e+00
 9.975575e-01	 1.551404e+00	 9.454180e+00
 1.094426e+00	 1.493850e+00	 1.021557e+01
 1.076127e+00	 1.507085e+00	 1.006657e+01
 1.057687e+00	 1.520084e+00	 9.925579e+00
 1.039110e+00	 1.532843e+00	 9.782859e+00
 1.020400e+00	 1.545360e+00	 9.630871e+00
 1.001564e+00	 1.557635e+00	 9.464110e+00
 9.815325e-01	 1.526482e+00	 9.404455e+00
 9.629522e-01	 1.538270e+00	 9.230841e+00
 9.442561e-01	 1.549817e+00	 9.064552e+00
 9.254490e-01	 1.561120e+00	 8.903034e+00
 9.065354e-01	 1.572179e+00	 8.744877e+00
 8.875201e-01	 1.582991e+00	 8.589664e+00
 9.855387e-01	 1.532712e+00	 9.417233e+00
 9.668826e-01	 1.544549e+00	 9.244304e+00
 9.481102e-01	 1.556143e+00	 9.079304e+00
 9.292263e-01	 1.567492e+00	 8.919326e+00
 9.102355e-01	 1.578596e+00	 8.762610e+00
 8.911426e-01	 1.589452e+00	 8.608385e+00
 9.895450e-01	 1.538943e+00	 9.430163e+00
 9.708130e-01	 1.550828e+00	 9.258070e+00
 9.519643e-01	 1.562469e+00	 9.094464e+00
 9.330036e-01	 1.573864e+00	 8.936070e+00
 9.139357e-01	 1.585013e+00	 8.780765e+00
 8.947651e-01	 1.595914e+00	 8.627409e+00
 9.935513e-01	 1.545173e+00	 9.442671e+00
 9.747434e-01	 1.557106e+00	 9.271563e+00
 9.558184e-01	 1.568795e+00	 9.109467e+00
 9.367810e-01	 1.580236e+00	 8.952724e+00
 9.176358e-01	 1.591430e+00	 8.798830e+00
 8.983877e-01	 1.602375e+00	 8.646271e+00
 9.975575e-01	 1.551404e+00	 9.454180e+00
 9.786738e-01	 1.563385e+00	 9.284206e+00
 9.596725e-01	 1.575120e+00	 9.123745e+00
 9.405583e-01	 1.586608e+00	 8.968739e+00
 9.213360e-01	 1.597847e+00	 8.816294e+00
 9.020102e-01	 1.608836e+00	 8.664503e+00
 1.001564e+00	 1.557635e+00	 9.464110e+00
 9.826043e-01	 1.569664e+00	 9.295417e+00
 9.635266e-01	 1.581446e+00	 9.136727e+00
 9.443357e-01	 1.592980e+00	 8.983567e+00
 9.250361e-01	 1.604264e+00	 8.832639e+00
 9.056327e-01	 1.615297e+00	 8.681633e+00
 8.875201e-01	 1.582991e+00	 8.589664e+00
 8.684078e-01	 1.593556e+00	 8.430356e+00
 8.492031e-01	 1.603872e+00	 8.261333e+00
 8.299109e-01	 1.613940e+00	 8.085324e+00
 8.105358e-01	 1.623756e+00	 7.905458e+00
 7.910826e-01	 1.633322e+00	 7.725128e+00
 8.911426e-01	 1.589452e+00	 8.608385e+00
 8.719523e-01	 1.600060e+00	 8.449446e+00
 8.526692e-01	 1.610419e+00	 8.280517e+00
 8.332983e-01	 1.620527e+00	 8.104751e+00
 8.138441e-01	 1.630384e+00	 7.925715e+00
 7.943115e-01	 1.639989e+00	 7.747254e+00
 8.947651e-01	 1.595914e+00	 8.627409e+00
 8.754968e-01	 1.606565e+00	 8.468734e+00
 8.561354e-01	 1.616965e+00	 8.299892e+00
 8.366857e-01	 1.627115e+00	 8.124420e+00
 8.171524e-01	 1.637011e+00	 7.946280e+00
 7.975404e-01	 1.646655e+00	 7.769721e+00
 8.983877e-01	 1.602375e+00	 8.646271e+00
 8.790413e-01	 1.613069e+00	 8.487799e+00
 8.596015e-01	 1.623512e+00	 8.319064e+00
 8.400731e-01	 1.633702e+00	 8.143948e+00
 8.204607e-01	 1.643639e+00	 7.966764e+00
 8.007693e-01	 1.653322e+00	 7.792118e+00
 9.020102e-01	 1.608836e+00	 8.664503e+00
 8.825858e-01	 1.619573e+00	 8.506216e+00
 8.630677e-01	 1.630058e+00	 8.337635e+00
 8.434605e-01	 1.640290e+00	 8.162944e+00
 8.237690e-01	 1.650267e+00	 7.986769e+00
 8.039982e-01	 1.659989e+00	 7.814026e+00
 9.056327e-01	 1.615297e+00	 8.681633e+00
 8.861304e-01	 1.626078e+00	 8.523553e+00
 8.665338e-01	 1.636605e+00	 8.355197e+00
 8.468478e-01	 1.646877e+00	 8.181013e+00
 8.270773e-01	 1.656894e+00	 8.005892e+00
 8.072271e-01	 1.666655e+00	 7.835022e+00
 7.910826e-01	 1.633322e+00	 7.725128e+00
 7.715560e-01	 1.642636e+00	 7.561863e+00
 7.519607e-01	 1.651699e+00	 7.419395e+00
 7.323014e-01	 1.660508e+00	 7.280265e+00
 7.125829e-01	 1.669065e+00	 7.132192e+00
 6.928098e-01	 1.677369e+00	 6.972894e+00
 7.943115e-01	 1.639989e+00	 7.747254e+00
 7.747052e-01	 1.649341e+00	 7.585852e+00
 7.550299e-01	 1.658440e+00	 7.444458e+00
 7.352904e-01	 1.667286e+00	 7.306451e+00
 7.154914e-01	 1.675878e+00	 7.158709e+00
 6.956376e-01	 1.684216e+00	 6.999060e+00
 7.975404e-01	 1.646655e+00	 7.769721e+00
 7.778544e-01	 1.656046e+00	 7.610137e+00
 7.580991e-01	 1.665182e+00	 7.469698e+00
 7.382794e-01	 1.674063e+00	 7.332681e+00
 7.183999e-01	 1.682690e+00	 7.185419e+00
 6.984654e-01	 1.691062e+00	 7.025532e+00
 8.007693e-01	 1.653322e+00	 7.792118e+00
 7.810036e-01	 1.662750e+00	 7.634284e+00
 7.611684e-01	 1.671923e+00	 7.494670e+00
 7.412684e-01	 1.680841e+00	 7.358457e+00
 7.213084e-01	 1.689503e+00	 7.211846e+00
 7.012932e-01	 1.697908e+00	 7.051871e+00
 8.039982e-01	 1.659989e+00	 7.814026e+00
 7.841528e-01	 1.669455e+00	 7.657854e+00
 7.642376e-01	 1.678665e+00	 7.518925e+00
 7.442574e-01	 1.687619e+00	 7.383333e+00
 7.242169e-01	 1.696315e+00	 7.237508e+00
 7.041210e-01	 1.704755e+00	 7.077628e+00
 8.072271e-01	 1.666655e+00	 7.835022e+00
 7.873020e-01	 1.676160e+00	 7.680401e+00
 7.673068e-01	 1.685407e+00	 7.542008e+00
 7.472463e-01	 1.694396e+00	 7.406869e+00
 7.271254e-01	 1.703128e+00	 7.261915e+00
 7.069488e-01	 1.711601e+00	 7.102345e+00
 6.928098e-01	 1.677369e+00	 6.972894e+00
 6.729867e-01	 1.685420e+00	 6.804746e+00
 6.531184e-01	 1.693219e+00	 6.636177e+00
 6.332095e-01	 1.700764e+00	 6.473791e+00
 6.132644e-01	 1.708057e+00	 6.323144e+00
 5.932879e-01	 1.715098e+00	 6.188655e+00
 6.956376e-01	 1.684216e+00	 6.999060e+00
 6.757336e-01	 1.692300e+00	 6.831318e+00
 6.557842e-01	 1.700130e+00	 6.664409e+00
 6.357940e-01	 1.707706e+00	 6.504347e+00
 6.157676e-01	 1.715029e+00	 6.356026e+00
 5.957095e-01	 1.722099e+00	 6.223128e+00
 6.984654e-01	 1.691062e+00	 7.025532e+00
 6.784805e-01	 1.699179e+00	 6.858227e+00
 6.584500e-01	 1.707041e+00	 6.692892e+00
 6.383785e-01	 1.714648e+00	 6.534986e+00
 6.182707e-01	 1.722001e+00	 6.388770e+00
 5.981311e-01	 1.729099e+00	 6.257222e+00
 7.012932e-01	 1.697908e+00	 7.051871e+00
 6.812274e-01	 1.706058e+00	 6.885081e+00
 6.611158e-01	 1.713952e+00	 6.721290e+00
 6.409631e-01	 1.721590e+00	 6.565434e+00
 6.207738e-01	 1.728972e+00	 6.421175e+00
 6.005526e-01	 1.736100e+00	 6.290810e+00
 7.041210e-01	 1.704755e+00	 7.077628e+00
 6.839743e-01	 1.712937e+00	 6.911479e+00
 6.637816e-01	 1.720863e+00	 6.749254e+00
 6.435476e-01	 1.728532e+00	 6.595405e+00
 6.232769e-01	 1.735944e+00	 6.453021e+00
 6.029742e-01	 1.743100e+00	 6.323748e+00
 7.069488e-01	 1.711601e+00	 7.102345e+00
 6.867212e-01	 1.719817e+00	 6.937007e+00
 6.664474e-01	 1.727774e+00	 6.776425e+00
 6.461321e-01	 1.735474e+00	 6.624599e+00
 6.257800e-01	 1.742916e+00	 6.484077e+00
 6.053958e-01	 1.750100e+00	 6.355877e+00
 5.932879e-01	 1.715098e+00	 6.188655e+00
 5.732844e-01	 1.721888e+00	 6.057285e+00
 5.532583e-01	 1.728426e+00	 5.917018e+00
 5.332143e-01	 1.734715e+00	 5.772026e+00
 5.131565e-01	 1.740754e+00	 5.625325e+00
 4.930895e-01	 1.746544e+00	 5.478855e+00
 5.957095e-01	 1.722099e+00	 6.223128e+00
 5.756243e-01	 1.728916e+00	 6.092151e+00
 5.555165e-01	 1.735481e+00	 5.951508e+00
 5.353906e-01	 1.741795e+00	 5.805880e+00
 5.152511e-01	 1.747859e+00	 5.658745e+00
 4.951021e-01	 1.753673e+00	 5.512455e+00
 5.981311e-01	 1.729099e+00	 6.257222e+00
 5.779642e-01	 1.735944e+00	 6.126463e+00
 5.577747e-01	 1.742536e+00	 5.985384e+00
 5.375670e-01	 1.748876e+00	 5.839138e+00
 5.173456e-01	 1.754964e+00	 5.691625e+00
 4.971148e-01	 1.760801e+00	 5.545567e+00
 6.005526e-01	 1.736100e+00	 6.290810e+00
 5.803042e-01	 1.742972e+00	 6.160176e+00
 5.600329e-01	 1.749591e+00	 6.018686e+00
 5.397434e-01	 1.755956e+00	 5.871933e+00
 5.194401e-01	 1.762069e+00	 5.724195e+00
 4.991274e-01	 1.767930e+00	 5.578523e+00
 6.029742e-01	 1.743100e+00	 6.323748e+00
 5.826441e-01	 1.750000e+00	 6.193224e+00
 5.622911e-01	 1.756646e+00	 6.051437e+00
 5.419198e-01	 1.763037e+00	 5.904377e+00
 5.215346e-01	 1.769174e+00	 5.756662e+00
 5.011400e-01	 1.775059e+00	 5.611631e+00
 6.053958e-01	 1.750100e+00	 6.355877e+00
 5.849840e-01	 1.757028e+00	 6.225527e+00
 5.645493e-01	 1.763700e+00	 6.083641e+00
 5.440962e-01	 1.770117e+00	 5.936565e+00
 5.236291e-01	 1.776279e+00	 5.789218e+00
 5.031526e-01	 1.782188e+00	 5.645182e+00
 4.930895e-01	 1.746544e+00	 5.478855e+00
 4.730176e-01	 1.752087e+00	 5.337270e+00
 4.529449e-01	 1.757383e+00	 5.204920e+00
 4.328757e-01	 1.762433e+00	 5.082025e+00
 4.128142e-01	 1.767240e+00	 4.968256e+00
 3.927645e-01	 1.771804e+00	 4.862897e+00
 4.951021e-01	 1.753673e+00	 5.512455e+00
 4.749482e-01	 1.759238e+00	 5.371988e+00
 4.547936e-01	 1.764556e+00	 5.241282e+00
 4.346426e-01	 1.769627e+00	 5.119816e+00
 4.144992e-01	 1.774453e+00	 5.006509e+00
 3.943676e-01	 1.779036e+00	 4.899888e+00
 4.971148e-01	 1.760801e+00	 5.545567e+00
 4.768789e-01	 1.766389e+00	 5.406200e+00
 4.566424e-01	 1.771729e+00	 5.277041e+00
 4.364094e-01	 1.776821e+00	 5.156879e+00
 4.161841e-01	 1.781666e+00	 5.043924e+00
 3.959707e-01	 1.786268e+00	 4.935992e+00
 4.991274e-01	 1.767930e+00	 5.578523e+00
 4.788096e-01	 1.773541e+00	 5.440339e+00
 4.584911e-01	 1.778902e+00	 5.312733e+00
 4.381762e-01	 1.784014e+00	 5.193847e+00
 4.178691e-01	 1.788880e+00	 5.081227e+00
 3.975739e-01	 1.793499e+00	 4.972019e+00
 5.011400e-01	 1.775059e+00	 5.611631e+00
 4.807403e-01	 1.780692e+00	 5.474818e+00
 4.603399e-01	 1.786075e+00	 5.348869e+00
 4.399431e-01	 1.791208e+00	 5.231329e+00
 4.195541e-01	 1.796093e+00	 5.119122e+00
 3.991770e-01	 1.800731e+00	 5.008759e+00
 5.031526e-01	 1.782188e+00	 5.645182e+00
 4.826710e-01	 1.787843e+00	 5.510027e+00
 4.621887e-01	 1.793248e+00	 5.385944e+00
 4.417099e-01	 1.798401e+00	 5.269918e+00
 4.212390e-01	 1.803306e+00	 5.158292e+00
 4.007801e-01	 1.807963e+00	 5.046984e+00
 3.927645e-01	 1.771804e+00	 4.862897e+00
 3.727306e-01	 1.776126e+00	 4.752897e+00
 3.527165e-01	 1.780209e+00	 4.646959e+00
 3.327262e-01	 1.784053e+00	 4.544479e+00
 3.127634e-01	 1.787661e+00	 4.445950e+00
 2.928321e-01	 1.791034e+00	 4.354124e+00
 3.943676e-01	 1.779036e+00	 4.899888e+00
 3.742520e-01	 1.783376e+00	 4.787306e+00
 3.541562e-01	 1.787475e+00	 4.680243e+00
 3.340842e-01	 1.791335e+00	 4.578707e+00
 3.140400e-01	 1.794958e+00	 4.481809e+00
 2.940273e-01	 1.798344e+00	 4.391351e+00
 3.959707e-01	 1.786268e+00	 4.935992e+00
 3.757733e-01	 1.790625e+00	 4.820856e+00
 3.555958e-01	 1.794741e+00	 4.712297e+00
 3.354423e-01	 1.798617e+00	 4.611482e+00
 3.153166e-01	 1.802254e+00	 4.516249e+00
 2.952225e-01	 1.805655e+00	 4.427594e+00
 3.975739e-01	 1.793499e+00	 4.972019e+00
 3.772947e-01	 1.797875e+00	 4.854439e+00
 3.570355e-01	 1.802007e+00	 4.744150e+00
 3.368004e-01	 1.805899e+00	 4.643905e+00
 3.165932e-01	 1.809551e+00	 4.550425e+00
 2.964178e-01	 1.812965e+00	 4.464045e+00
 3.991770e-01	 1.800731e+00	 5.008759e+00
 3.788160e-01	 1.805124e+00	 4.888933e+00
 3.584752e-01	 1.809274e+00	 4.776809e+00
 3.381584e-01	 1.813181e+00	 4.677064e+00
 3.178698e-01	 1.816847e+00	 4.585483e+00
 2.976130e-01	 1.820275e+00	 4.501888e+00
 4.007801e-01	 1.807963e+00	 5.046984e+00
 3.803374e-01	 1.812374e+00	 4.925192e+00
 3.599148e-01	 1.816540e+00	 4.811265e+00
 3.395165e-01	 1.820463e+00	 4.712035e+00
 3.191463e-01	 1.824144e+00	 4.622559e+00
 2.988082e-01	 1.827586e+00	 4.542297e+00
 2.928321e-01	 1.791034e+00	 4.354124e+00
 2.729358e-01	 1.794174e+00	 4.275300e+00
 2.530784e-01	 1.797082e+00	 4.208508e+00
 2.332633e-01	 1.799761e+00	 4.148713e+00
 2.134942e-01	 1.802213e+00	 4.092712e+00
 1.937744e-01	 1.804440e+00	 4.038870e+00
 2.940273e-01	 1.798344e+00	 4.391351e+00
 2.740499e-01	 1.801497e+00	 4.312906e+00
 2.541114e-01	 1.804417e+00	 4.245478e+00
 2.342154e-01	 1.807107e+00	 4.184437e+00
 2.143656e-01	 1.809569e+00	 4.127138e+00
 1.945654e-01	 1.811805e+00	 4.072628e+00
 2.952225e-01	 1.805655e+00	 4.427594e+00
 2.751639e-01	 1.808820e+00	 4.350456e+00
 2.551443e-01	 1.811752e+00	 4.283637e+00
 2.351675e-01	 1.814453e+00	 4.222688e+00
 2.152370e-01	 1.816925e+00	 4.165303e+00
 1.953563e-01	 1.819170e+00	 4.110994e+00
 2.964178e-01	 1.812965e+00	 4.464045e+00
 2.762779e-01	 1.816143e+00	 4.389143e+00
 2.561773e-01	 1.819087e+00	 4.324144e+00
 2.361196e-01	 1.821799e+00	 4.264556e+00
 2.161084e-01	 1.824281e+00	 4.208198e+00
 1.961472e-01	 1.826535e+00	 4.154846e+00
 2.976130e-01	 1.820275e+00	 4.501888e+00
 2.773919e-01	 1.823466e+00	 4.430158e+00
 2.572103e-01	 1.826422e+00	 4.368153e+00
 2.370717e-01	 1.829145e+00	 4.311126e+00
 2.169798e-01	 1.831637e+00	 4.256815e+00
 1.969381e-01	 1.833900e+00	 4.205058e+00
 2.988082e-01	 1.827586e+00	 4.542297e+00
 2.785059e-01	 1.830789e+00	 4.474683e+00
 2.582433e-01	 1.833757e+00	 4.416815e+00
 2.380238e-01	 1.836491e+00	 4.363481e+00
 2.178512e-01	 1.838993e+00	 4.312142e+00
 1.977290e-01	 1.841265e+00	 4.262505e+00
 1.937744e-01	 1.804440e+00	 4.038870e+00
 1.741074e-01	 1.806444e+00	 3.990093e+00
 1.544965e-01	 1.808227e+00	 3.948664e+00
 1.349448e-01	 1.809791e+00	 3.913405e+00
 1.154557e-01	 1.811139e+00	 3.883363e+00
 9.603204e-02	 1.812272e+00	 3.857449e+00
 1.945654e-01	 1.811805e+00	 4.072628e+00
 1.748181e-01	 1.813817e+00	 4.024252e+00
 1.551271e-01	 1.815607e+00	 3.983963e+00
 1.354956e-01	 1.817178e+00	 3.950200e+00
 1.159269e-01	 1.818531e+00	 3.921648e+00
 9.642400e-02	 1.819669e+00	 3.896850e+00
 1.953563e-01	 1.819170e+00	 4.110994e+00
 1.755287e-01	 1.821190e+00	 4.063395e+00
 1.557577e-01	 1.822988e+00	 4.024169e+00
 1.360464e-01	 1.824565e+00	 3.991471e+00
 1.163982e-01	 1.825923e+00	 3.963723e+00
 9.681597e-02	 1.827066e+00	 3.939199e+00
 1.961472e-01	 1.826535e+00	 4.154846e+00
 1.762394e-01	 1.828564e+00	 4.108270e+00
 1.563883e-01	 1.830368e+00	 4.069898e+00
 1.365972e-01	 1.831951e+00	 4.037702e+00
 1.168694e-01	 1.833316e+00	 4.009941e+00
 9.720794e-02	 1.834463e+00	 3.984718e+00
 1.969381e-01	 1.833900e+00	 4.205058e+00
 1.769500e-01	 1.835937e+00	 4.159625e+00
 1.570189e-01	 1.837749e+00	 4.121767e+00
 1.371480e-01	 1.839338e+00	 4.089376e+00
 1.173407e-01	 1.840708e+00	 4.060653e+00
 9.759991e-02	 1.841860e+00	 4.033635e+00
 1.977290e-01	 1.841265e+00	 4.262505e+00
 1.776606e-01	 1.843310e+00	 4.218210e+00
 1.576495e-01	 1.845129e+00	 4.180394e+00
 1.376988e-01	 1.846725e+00	 4.146977e+00
 1.178119e-01	 1.848101e+00	 4.116213e+00
 9.799187e-02	 1.849257e+00	 4.086176e+00
 9.603204e-02	 1.812272e+00	 3.857449e+00
 7.667698e-02	 1.813194e+00	 3.835489e+00
 5.739342e-02	 1.813907e+00	 3.818946e+00
 3.818423e-02	 1.814413e+00	 3.807960e+00
 1.905219e-02	 1.814715e+00	 3.801224e+00
 0.000000e+00	 1.814815e+00	 3.795735e+00
 9.642400e-02	 1.819669e+00	 3.896850e+00
 7.698994e-02	 1.820595e+00	 3.875451e+00
 5.762768e-02	 1.821311e+00	 3.859206e+00
 3.834008e-02	 1.821819e+00	 3.848493e+00
 1.912995e-02	 1.822122e+00	 3.842121e+00
 0.000000e+00	 1.822222e+00	 3.837057e+00
 9.681597e-02	 1.827066e+00	 3.939199e+00
 7.730291e-02	 1.827996e+00	 3.917441e+00
 5.786194e-02	 1.828714e+00	 3.900599e+00
 3.849594e-02	 1.829225e+00	 3.889414e+00
 1.920772e-02	 1.829529e+00	 3.882926e+00
 0.000000e+00	 1.829630e+00	 3.878186e+00
 9.720794e-02	 1.834463e+00	 3.984718e+00
 7.761588e-02	 1.835397e+00	 3.961575e+00
 5.809620e-02	 1.836118e+00	 3.943163e+00
 3.865179e-02	 1.836630e+00	 3.930712e+00
 1.928548e-02	 1.836936e+00	 3.923616e+00
 0.000000e+00	 1.837037e+00	 3.919124e+00
 9.759991e-02	 1.841860e+00	 4.033635e+00
 7.792885e-02	 1.842797e+00	 4.007968e+00
 5.833046e-02	 1.843522e+00	 3.986935e+00
 3.880765e-02	 1.844036e+00	 3.972376e+00
 1.936324e-02	 1.844343e+00	 3.964164e+00
 0.000000e+00	 1.844444e+00	 3.959869e+00
 9.799187e-02	 1.849257e+00	 4.086176e+00
 7.824181e-02	 1.850198e+00	 4.056738e+00
 5.856472e-02	 1.850926e+00	 4.031950e+00
 3.896350e-02	 1.851442e+00	 4.014393e+00
 1.944101e-02	 1.851750e+00	 4.004545e+00
 0.000000e+00	 1.851852e+00	 4.000417e+00
 1.851852e+00	 0.000000e+00	 1.303974e+01
 1.851750e+00	 1.944101e-02	 1.304347e+01
 1.851442e+00	 3.896350e-02	 1.304550e+01
 1.850926e+00	 5.856472e-02	 1.304678e+01
 1.850198e+00	 7.824181e-02	 1.304855e+01
 1.849257e+00	 9.799187e-02	 1.305232e+01
 1.859259e+00	 0.000000e+00	 1.300788e+01
 1.859157e+00	 1.951877e-02	 1.301218e+01
 1.858848e+00	 3.911935e-02	 1.301479e+01
 1.858329e+00	 5.879898e-02	 1.301662e+01
 1.857599e+00	 7.855478e-02	 1.301886e+01
 1.856654e+00	 9.838384e-02	 1.302293e+01
 1.866667e+00	 0.000000e+00	 1.297661e+01
 1.866564e+00	 1.959654e-02	 1.298146e+01
 1.866253e+00	 3.927521e-02	 1.298458e+01
 1.865733e+00	 5.903323e-02	 1.298690e+01
 1.865000e+00	 7.886775e-02	 1.298965e+01
 1.864051e+00	 9.877581e-02	 1.299428e+01
 1.874074e+00	 0.000000e+00	 1.294586e+01
 1.873971e+00	 1.967430e-02	 1.295124e+01
 1.873659e+00	 3.943106e-02	 1.295479e+01
 1.873137e+00	 5.926749e-02	 1.295747e+01
 1.872401e+00	 7.918072e-02	 1.296052e+01
 1.871448e+00	 9.916778e-02	 1.296543e+01
 1.881481e+00	 0.000000e+00	 1.291556e+01
 1.881378e+00	 1.975206e-02	 1.292147e+01
 1.881065e+00	 3.958692e-02	 1.292539e+01
 1.880540e+00	 5.950175e-02	 1.292830e+01
 1.879801e+00	 7.949368e-02	 1.293146e+01
 1.878846e+00	 9.955974e-02	 1.293637e+01
 1.888889e+00	 0.000000e+00	 1.288563e+01
 1.888785e+00	 1.982983e-02	 1.289210e+01
 1.888471e+00	 3.974277e-02	 1.289634e+01
 1.887944e+00	 5.973601e-02	 1.289937e+01
 1.887202e+00	 7.980665e-02	 1.290246e+01
 1.886243e+00	 9.995171e-02	 1.290711e+01
 1.849257e+00	 9.799187e-02	 1.305232e+01
 1.848101e+00	 1.178119e-01	 1.305751e+01
 1.846725e+00	 1.376988e-01	 1.306259e+01
 1.845129e+00	 1.576495e-01	 1.306777e+01
 1.843310e+00	 1.776606e-01	 1.307317e+01
 1.841265e+00	 1.977290e-01	 1.307873e+01
 1.856654e+00	 9.838384e-02	 1.302293e+01
 1.855493e+00	 1.182831e-01	 1.302828e+01
 1.854112e+00	 1.382496e-01	 1.303329e+01
 1.852510e+00	 1.582801e-01	 1.303800e+01
 1.850683e+00	 1.783713e-01	 1.304254e+01
 1.848631e+00	 1.985199e-01	 1.304737e+01
 1.864051e+00	 9.877581e-02	 1.299428e+01
 1.862885e+00	 1.187544e-01	 1.300036e+01
 1.861499e+00	 1.388004e-01	 1.300634e+01
 1.859890e+00	 1.589107e-01	 1.301211e+01
 1.858057e+00	 1.790819e-01	 1.301757e+01
 1.855996e+00	 1.993109e-01	 1.302250e+01
 1.871448e+00	 9.916778e-02	 1.296543e+01
 1.870278e+00	 1.192256e-01	 1.297190e+01
 1.868886e+00	 1.393512e-01	 1.297847e+01
 1.867271e+00	 1.595413e-01	 1.298494e+01
 1.865430e+00	 1.797926e-01	 1.299110e+01
 1.863361e+00	 2.001018e-01	 1.299665e+01
 1.878846e+00	 9.955974e-02	 1.293637e+01
 1.877670e+00	 1.196969e-01	 1.294291e+01
 1.876273e+00	 1.399020e-01	 1.294971e+01
 1.874651e+00	 1.601719e-01	 1.295652e+01
 1.872803e+00	 1.805032e-01	 1.296305e+01
 1.870726e+00	 2.008927e-01	 1.296893e+01
 1.886243e+00	 9.995171e-02	 1.290711e+01
 1.885063e+00	 1.201681e-01	 1.291339e+01
 1.883660e+00	 1.404528e-01	 1.292008e+01
 1.882032e+00	 1.608025e-01	 1.292687e+01
 1.880176e+00	 1.812139e-01	 1.293344e+01
 1.878091e+00	 2.016836e-01	 1.293937e+01
 1.841265e+00	 1.977290e-01	 1.307873e+01
 1.838993e+00	 2.178512e-01	 1.308529e+01
 1.836491e+00	 2.380238e-01	 1.309410e+01
 1.833757e+00	 2.582433e-01	 1.310515e+01
 1.830789e+00	 2.785059e-01	 1.311788e+01
 1.827586e+00	 2.988082e-01	 1.313108e+01
 1.848631e+00	 1.985199e-01	 1.304737e+01
 1.846349e+00	 2.187226e-01	 1.305341e+01
 1.843837e+00	 2.389759e-01	 1.306195e+01
 1.841092e+00	 2.592762e-01	 1.307300e+01
 1.838113e+00	 2.796200e-01	 1.308600e+01
 1.834896e+00	 3.000035e-01	 1.309971e+01
 1.855996e+00	 1.993109e-01	 1.302250e+01
 1.853705e+00	 2.195940e-01	 1.302777e+01
 1.851183e+00	 2.399280e-01	 1.303487e+01
 1.848427e+00	 2.603092e-01	 1.304463e+01
 1.845436e+00	 2.807340e-01	 1.305682e+01
 1.842206e+00	 3.011987e-01	 1.307025e+01
 1.863361e+00	 2.001018e-01	 1.299665e+01
 1.861061e+00	 2.204654e-01	 1.300242e+01
 1.858529e+00	 2.408801e-01	 1.300982e+01
 1.855762e+00	 2.613422e-01	 1.301913e+01
 1.852759e+00	 2.818480e-01	 1.303019e+01
 1.849517e+00	 3.023939e-01	 1.304250e+01
 1.870726e+00	 2.008927e-01	 1.296893e+01
 1.868417e+00	 2.213369e-01	 1.297496e+01
 1.865875e+00	 2.418322e-01	 1.298259e+01
 1.863097e+00	 2.623751e-01	 1.299208e+01
 1.860082e+00	 2.829620e-01	 1.300328e+01
 1.856827e+00	 3.035892e-01	 1.301553e+01
 1.878091e+00	 2.016836e-01	 1.293937e+01
 1.875773e+00	 2.222083e-01	 1.294545e+01
 1.873221e+00	 2.427843e-01	 1.295318e+01
 1.870432e+00	 2.634081e-01	 1.296283e+01
 1.867405e+00	 2.840761e-01	 1.297430e+01
 1.864137e+00	 3.047844e-01	 1.298696e+01
 1.827586e+00	 2.988082e-01	 1.313108e+01
 1.824144e+00	 3.191463e-01	 1.314394e+01
 1.820463e+00	 3.395165e-01	 1.315645e+01
 1.816540e+00	 3.599148e-01	 1.316748e+01
 1.812374e+00	 3.803374e-01	 1.317587e+01
 1.807963e+00	 4.007801e-01	 1.318815e+01
 1.834896e+00	 3.000035e-01	 1.309971e+01
 1.831440e+00	 3.204229e-01	 1.311309e+01
 1.827744e+00	 3.408746e-01	 1.312595e+01
 1.823806e+00	 3.613545e-01	 1.313707e+01
 1.819623e+00	 3.818587e-01	 1.314546e+01
 1.815195e+00	 4.023832e-01	 1.315771e+01
 1.842206e+00	 3.011987e-01	 1.307025e+01
 1.838737e+00	 3.216995e-01	 1.308366e+01
 1.835026e+00	 3.422326e-01	 1.309656e+01
 1.831072e+00	 3.627941e-01	 1.310764e+01
 1.826873e+00	 3.833801e-01	 1.311600e+01
 1.822427e+00	 4.039864e-01	 1.312817e+01
 1.849517e+00	 3.023939e-01	 1.304250e+01
 1.846034e+00	 3.229761e-01	 1.305535e+01
 1.842308e+00	 3.435907e-01	 1.306796e+01
 1.838338e+00	 3.642338e-01	 1.307885e+01
 1.834122e+00	 3.849014e-01	 1.308722e+01
 1.829659e+00	 4.055895e-01	 1.309938e+01
 1.856827e+00	 3.035892e-01	 1.301553e+01
 1.853330e+00	 3.242527e-01	 1.302783e+01
 1.849590e+00	 3.449488e-01	 1.303983e+01
 1.845604e+00	 3.656735e-01	 1.305042e+01
 1.841372e+00	 3.864228e-01	 1.305887e+01
 1.836891e+00	 4.071926e-01	 1.307118e+01
 1.864137e+00	 3.047844e-01	 1.298696e+01
 1.860627e+00	 3.255293e-01	 1.299968e+01
 1.856872e+00	 3.463068e-01	 1.301174e+01
 1.852871e+00	 3.671131e-01	 1.302205e+01
 1.848621e+00	 3.879441e-01	 1.303073e+01
 1.844122e+00	 4.087957e-01	 1.304343e+01
 1.807963e+00	 4.007801e-01	 1.318815e+01
 1.803306e+00	 4.212390e-01	 1.320612e+01
 1.798401e+00	 4.417099e-01	 1.322524e+01
 1.793248e+00	 4.621887e-01	 1.324417e+01
 1.787843e+00	 4.826710e-01	 1.326160e+01
 1.782188e+00	 5.031526e-01	 1.327629e+01
 1.815195e+00	 4.023832e-01	 1.315771e+01
 1.810519e+00	 4.229240e-01	 1.317558e+01
 1.805595e+00	 4.434768e-01	 1.319480e+01
 1.800421e+00	 4.640374e-01	 1.321397e+01
 1.794995e+00	 4.846017e-01	 1.323171e+01
 1.789316e+00	 5.051652e-01	 1.324674e+01
 1.822427e+00	 4.039864e-01	 1.312817e+01
 1.817733e+00	 4.246089e-01	 1.314584e+01
 1.812789e+00	 4.452436e-01	 1.316502e+01
 1.807594e+00	 4.658862e-01	 1.318427e+01
 1.802146e+00	 4.865323e-01	 1.320220e+01
 1.796445e+00	 5.071778e-01	 1.321747e+01
 1.829659e+00	 4.055895e-01	 1.309938e+01
 1.824946e+00	 4.262939e-01	 1.311686e+01
 1.819982e+00	 4.470104e-01	 1.313593e+01
 1.814767e+00	 4.677349e-01	 1.315516e+01
 1.809298e+00	 4.884630e-01	 1.317314e+01
 1.803574e+00	 5.091904e-01	 1.318854e+01
 1.836891e+00	 4.071926e-01	 1.307118e+01
 1.832159e+00	 4.279788e-01	 1.308859e+01
 1.827176e+00	 4.487773e-01	 1.310758e+01
 1.821940e+00	 4.695837e-01	 1.312673e+01
 1.816449e+00	 4.903937e-01	 1.314466e+01
 1.810703e+00	 5.112030e-01	 1.316006e+01
 1.844122e+00	 4.087957e-01	 1.304343e+01
 1.839372e+00	 4.296638e-01	 1.306101e+01
 1.834369e+00	 4.505441e-01	 1.307999e+01
 1.829113e+00	 4.714324e-01	 1.309905e+01
 1.823600e+00	 4.923244e-01	 1.311684e+01
 1.817831e+00	 5.132156e-01	 1.313210e+01
 1.782188e+00	 5.031526e-01	 1.327629e+01
 1.776279e+00	 5.236291e-01	 1.328958e+01
 1.770117e+00	 5.440962e-01	 1.330338e+01
 1.763700e+00	 5.645493e-01	 1.331761e+01
 1.757028e+00	 5.849840e-01	 1.333246e+01
 1.750100e+00	 6.053958e-01	 1.334845e+01
 1.789316e+00	 5.051652e-01	 1.324674e+01
 1.783384e+00	 5.257236e-01	 1.326035e+01
 1.777198e+00	 5.462726e-01	 1.327444e+01
 1.770755e+00	 5.668075e-01	 1.328893e+01
 1.764057e+00	 5.873240e-01	 1.330403e+01
 1.757101e+00	 6.078174e-01	 1.332026e+01
 1.796445e+00	 5.071778e-01	 1.321747e+01
 1.790489e+00	 5.278182e-01	 1.323133e+01
 1.784278e+00	 5.484490e-01	 1.324568e+01
 1.777810e+00	 5.690657e-01	 1.326042e+01
 1.771085e+00	 5.896639e-01	 1.327575e+01
 1.764101e+00	 6.102390e-01	 1.329219e+01
 1.803574e+00	 5.091904e-01	 1.318854e+01
 1.797595e+00	 5.299127e-01	 1.320258e+01
 1.791359e+00	 5.506253e-01	 1.321713e+01
 1.784865e+00	 5.713239e-01	 1.323209e+01
 1.778113e+00	 5.920039e-01	 1.324764e+01
 1.771102e+00	 6.126606e-01	 1.326430e+01
 1.810703e+00	 5.112030e-01	 1.316006e+01
 1.804700e+00	 5.320072e-01	 1.317417e+01
 1.798439e+00	 5.528017e-01	 1.318886e+01
 1.791920e+00	 5.735821e-01	 1.320401e+01
 1.785141e+00	 5.943438e-01	 1.321976e+01
 1.778102e+00	 6.150821e-01	 1.323664e+01
 1.817831e+00	 5.132156e-01	 1.313210e+01
 1.811805e+00	 5.341017e-01	 1.314616e+01
 1.805519e+00	 5.549781e-01	 1.316091e+01
 1.798974e+00	 5.758403e-01	 1.317619e+01
 1.792169e+00	 5.966837e-01	 1.319215e+01
 1.785102e+00	 6.175037e-01	 1.320925e+01
 1.750100e+00	 6.053958e-01	 1.334845e+01
 1.742916e+00	 6.257800e-01	 1.336308e+01
 1.735474e+00	 6.461321e-01	 1.337350e+01
 1.727774e+00	 6.664474e-01	 1.338046e+01
 1.719817e+00	 6.867212e-01	 1.338530e+01
 1.711601e+00	 7.069488e-01	 1.339000e+01
 1.757101e+00	 6.078174e-01	 1.332026e+01
 1.749887e+00	 6.282832e-01	 1.333538e+01
 1.742415e+00	 6.487166e-01	 1.334665e+01
 1.734685e+00	 6.691132e-01	 1.335456e+01
 1.726696e+00	 6.894681e-01	 1.336018e+01
 1.718448e+00	 7.097765e-01	 1.336523e+01
 1.764101e+00	 6.102390e-01	 1.329219e+01
 1.756859e+00	 6.307863e-01	 1.330778e+01
 1.749357e+00	 6.513012e-01	 1.331987e+01
 1.741596e+00	 6.717790e-01	 1.332870e+01
 1.733575e+00	 6.922149e-01	 1.333509e+01
 1.725294e+00	 7.126043e-01	 1.334049e+01
 1.771102e+00	 6.126606e-01	 1.326430e+01
 1.763831e+00	 6.332894e-01	 1.328034e+01
 1.756299e+00	 6.538857e-01	 1.329324e+01
 1.748507e+00	 6.744448e-01	 1.330298e+01
 1.740454e+00	 6.949618e-01	 1.331015e+01
 1.732140e+00	 7.154321e-01	 1.331593e+01
 1.778102e+00	 6.150821e-01	 1.323664e+01
 1.770802e+00	 6.357925e-01	 1.325315e+01
 1.763241e+00	 6.564702e-01	 1.326685e+01
 1.755418e+00	 6.771105e-01	 1.327752e+01
 1.747334e+00	 6.977087e-01	 1.328548e+01
 1.738987e+00	 7.182599e-01	 1.329170e+01
 1.785102e+00	 6.175037e-01	 1.320925e+01
 1.777774e+00	 6.382956e-01	 1.322625e+01
 1.770183e+00	 6.590548e-01	 1.324079e+01
 1.762330e+00	 6.797763e-01	 1.325240e+01
 1.754213e+00	 7.004556e-01	 1.326120e+01
 1.745833e+00	 7.210877e-01	 1.326792e+01
 1.711601e+00	 7.069488e-01	 1.339000e+01
 1.703128e+00	 7.271254e-01	 1.339344e+01
 1.694396e+00	 7.472463e-01	 1.339547e+01
 1.685407e+00	 7.673068e-01	 1.339562e+01
 1.676160e+00	 7.873020e-01	 1.339303e+01
 1.666655e+00	 8.072271e-01	 1.338774e+01
 1.718448e+00	 7.097765e-01	 1.336523e+01
 1.709940e+00	 7.300339e-01	 1.336888e+01
 1.701174e+00	 7.502353e-01	 1.337117e+01
 1.692148e+00	 7.703760e-01	 1.337143e+01
 1.682864e+00	 7.904512e-01	 1.336925e+01
 1.673322e+00	 8.104560e-01	 1.336481e+01
 1.725294e+00	 7.126043e-01	 1.334049e+01
 1.716753e+00	 7.329424e-01	 1.334438e+01
 1.707951e+00	 7.532243e-01	 1.334691e+01
 1.698890e+00	 7.734453e-01	 1.334736e+01
 1.689569e+00	 7.936004e-01	 1.334566e+01
 1.679988e+00	 8.136849e-01	 1.334208e+01
 1.732140e+00	 7.154321e-01	 1.331593e+01
 1.723565e+00	 7.358509e-01	 1.332010e+01
 1.714729e+00	 7.562133e-01	 1.332286e+01
 1.705632e+00	 7.765145e-01	 1.332356e+01
 1.696273e+00	 7.967496e-01	 1.332237e+01
 1.686655e+00	 8.169139e-01	 1.331965e+01
 1.738987e+00	 7.182599e-01	 1.329170e+01
 1.730378e+00	 7.387594e-01	 1.329620e+01
 1.721506e+00	 7.592023e-01	 1.329920e+01
 1.712373e+00	 7.795837e-01	 1.330020e+01
 1.702978e+00	 7.998988e-01	 1.329952e+01
 1.693322e+00	 8.201428e-01	 1.329760e+01
 1.745833e+00	 7.210877e-01	 1.326792e+01
 1.737190e+00	 7.416679e-01	 1.327283e+01
 1.728284e+00	 7.621913e-01	 1.327607e+01
 1.719115e+00	 7.826530e-01	 1.327739e+01
 1.709683e+00	 8.030481e-01	 1.327718e+01
 1.699988e+00	 8.233717e-01	 1.327597e+01
 1.666655e+00	 8.072271e-01	 1.338774e+01
 1.656894e+00	 8.270773e-01	 1.337763e+01
 1.646877e+00	 8.468478e-01	 1.336250e+01
 1.636605e+00	 8.665338e-01	 1.334516e+01
 1.626078e+00	 8.861304e-01	 1.332807e+01
 1.615297e+00	 9.056327e-01	 1.331321e+01
 1.673322e+00	 8.104560e-01	 1.336481e+01
 1.663522e+00	 8.303857e-01	 1.335563e+01
 1.653465e+00	 8.502352e-01	 1.334111e+01
 1.643151e+00	 8.699999e-01	 1.332406e+01
 1.632582e+00	 8.896749e-01	 1.330696e+01
 1.621758e+00	 9.092553e-01	 1.329182e+01
 1.679988e+00	 8.136849e-01	 1.334208e+01
 1.670149e+00	 8.336940e-01	 1.333383e+01
 1.660052e+00	 8.536226e-01	 1.331992e+01
 1.649697e+00	 8.734661e-01	 1.330315e+01
 1.639086e+00	 8.932194e-01	 1.328601e+01
 1.628219e+00	 9.128778e-01	 1.327053e+01
 1.686655e+00	 8.169139e-01	 1.331965e+01
 1.676777e+00	 8.370023e-01	 1.331231e+01
 1.666640e+00	 8.570100e-01	 1.329896e+01
 1.656244e+00	 8.769322e-01	 1.328243e+01
 1.645591e+00	 8.967639e-01	 1.326522e+01
 1.634681e+00	 9.165003e-01	 1.324940e+01
 1.693322e+00	 8.201428e-01	 1.329760e+01
 1.683404e+00	 8.403106e-01	 1.329108e+01
 1.673227e+00	 8.603974e-01	 1.327824e+01
 1.662790e+00	 8.803983e-01	 1.326191e+01
 1.652095e+00	 9.003084e-01	 1.324461e+01
 1.641142e+00	 9.201229e-01	 1.322842e+01
 1.699988e+00	 8.233717e-01	 1.327597e+01
 1.690032e+00	 8.436189e-01	 1.327017e+01
 1.679815e+00	 8.637848e-01	 1.325776e+01
 1.669337e+00	 8.838645e-01	 1.324157e+01
 1.658599e+00	 9.038530e-01	 1.322415e+01
 1.647603e+00	 9.237454e-01	 1.320761e+01
 1.615297e+00	 9.056327e-01	 1.331321e+01
 1.604264e+00	 9.250361e-01	 1.329615e+01
 1.592980e+00	 9.443357e-01	 1.327216e+01
 1.581446e+00	 9.635266e-01	 1.324176e+01
 1.569664e+00	 9.826043e-01	 1.320451e+01
 1.557635e+00	 1.001564e+00	 1.315886e+01
 1.621758e+00	 9.092553e-01	 1.329182e+01
 1.610681e+00	 9.287362e-01	 1.327461e+01
 1.599352e+00	 9.481130e-01	 1.325100e+01
 1.587772e+00	 9.673807e-01	 1.322145e+01
 1.575942e+00	 9.865347e-01	 1.318548e+01
 1.563865e+00	 1.005570e+00	 1.314148e+01
 1.628219e+00	 9.128778e-01	 1.327053e+01
 1.617098e+00	 9.324364e-01	 1.325316e+01
 1.605724e+00	 9.518904e-01	 1.322993e+01
 1.594098e+00	 9.712349e-01	 1.320125e+01
 1.582221e+00	 9.904651e-01	 1.316659e+01
 1.570096e+00	 1.009576e+00	 1.312427e+01
 1.634681e+00	 9.165003e-01	 1.324940e+01
 1.623515e+00	 9.361365e-01	 1.323184e+01
 1.612096e+00	 9.556677e-01	 1.320899e+01
 1.600423e+00	 9.750890e-01	 1.318118e+01
 1.588500e+00	 9.943955e-01	 1.314781e+01
 1.576326e+00	 1.013583e+00	 1.310715e+01
 1.641142e+00	 9.201229e-01	 1.322842e+01
 1.629932e+00	 9.398367e-01	 1.321069e+01
 1.618468e+00	 9.594450e-01	 1.318821e+01
 1.606749e+00	 9.789431e-01	 1.316125e+01
 1.594778e+00	 9.983259e-01	 1.312912e+01
 1.582557e+00	 1.017589e+00	 1.309002e+01
 1.647603e+00	 9.237454e-01	 1.320761e+01
 1.636349e+00	 9.435368e-01	 1.318971e+01
 1.624840e+00	 9.632224e-01	 1.316759e+01
 1.613075e+00	 9.827972e-01	 1.314143e+01
 1.601057e+00	 1.002256e+00	 1.311046e+01
 1.588787e+00	 1.021595e+00	 1.307277e+01
 1.557635e+00	 1.001564e+00	 1.315886e+01
 1.545360e+00	 1.020400e+00	 1.311730e+01
 1.532843e+00	 1.039110e+00	 1.308857e+01
 1.520084e+00	 1.057687e+00	 1.306303e+01
 1.507085e+00	 1.076127e+00	 1.302887e+01
 1.493850e+00	 1.094426e+00	 1.297188e+01
 1.563865e+00	 1.005570e+00	 1.314148e+01
 1.551542e+00	 1.024482e+00	 1.310117e+01
 1.538974e+00	 1.043266e+00	 1.307271e+01
 1.526164e+00	 1.061917e+00	 1.304677e+01
 1.513114e+00	 1.080432e+00	 1.301178e+01
 1.499825e+00	 1.098804e+00	 1.295377e+01
 1.570096e+00	 1.009576e+00	 1.312427e+01
 1.557723e+00	 1.028564e+00	 1.308521e+01
 1.545105e+00	 1.047423e+00	 1.305699e+01
 1.532244e+00	 1.066148e+00	 1.303051e+01
 1.519142e+00	 1.084736e+00	 1.299445e+01
 1.505801e+00	 1.103181e+00	 1.293508e+01
 1.576326e+00	 1.013583e+00	 1.310715e+01
 1.563905e+00	 1.032645e+00	 1.306928e+01
 1.551237e+00	 1.051579e+00	 1.304119e+01
 1.538325e+00	 1.070379e+00	 1.301400e+01
 1.525170e+00	 1.089041e+00	 1.297662e+01
 1.511776e+00	 1.107559e+00	 1.291550e+01
 1.582557e+00	 1.017589e+00	 1.309002e+01
 1.570086e+00	 1.036727e+00	 1.305322e+01
 1.557368e+00	 1.055735e+00	 1.302510e+01
 1.544405e+00	 1.074610e+00	 1.299698e+01
 1.531199e+00	 1.093345e+00	 1.295798e+01
 1.517751e+00	 1.111937e+00	 1.289476e+01
 1.588787e+00	 1.021595e+00	 1.307277e+01
 1.576267e+00	 1.040808e+00	 1.303686e+01
 1.563499e+00	 1.059892e+00	 1.300850e+01
 1.550485e+00	 1.078840e+00	 1.297920e+01
 1.537227e+00	 1.097650e+00	 1.293824e+01
 1.523727e+00	 1.116314e+00	 1.287424e+01
 1.493850e+00	 1.094426e+00	 1.297188e+01
 1.480379e+00	 1.112579e+00	 1.289008e+01
 1.466677e+00	 1.130582e+00	 1.281549e+01
 1.452744e+00	 1.148430e+00	 1.276019e+01
 1.438584e+00	 1.166119e+00	 1.271016e+01
 1.424199e+00	 1.183644e+00	 1.265310e+01
 1.499825e+00	 1.098804e+00	 1.295377e+01
 1.486301e+00	 1.117029e+00	 1.287170e+01
 1.472543e+00	 1.135104e+00	 1.280325e+01
 1.458555e+00	 1.153023e+00	 1.275180e+01
 1.444338e+00	 1.170783e+00	 1.270341e+01
 1.429896e+00	 1.188379e+00	 1.264551e+01
 1.505801e+00	 1.103181e+00	 1.293508e+01
 1.492222e+00	 1.121480e+00	 1.285563e+01
 1.478410e+00	 1.139626e+00	 1.279308e+01
 1.464366e+00	 1.157617e+00	 1.274425e+01
 1.450092e+00	 1.175448e+00	 1.269666e+01
 1.435592e+00	 1.193113e+00	 1.263760e+01
 1.511776e+00	 1.107559e+00	 1.291550e+01
 1.498144e+00	 1.125930e+00	 1.284107e+01
 1.484277e+00	 1.144149e+00	 1.278423e+01
 1.470177e+00	 1.162211e+00	 1.273696e+01
 1.455847e+00	 1.180112e+00	 1.268944e+01
 1.441289e+00	 1.197848e+00	 1.262901e+01
 1.517751e+00	 1.111937e+00	 1.289476e+01
 1.504065e+00	 1.130380e+00	 1.282728e+01
 1.490143e+00	 1.148671e+00	 1.277528e+01
 1.475988e+00	 1.166805e+00	 1.272934e+01
 1.461601e+00	 1.184776e+00	 1.268127e+01
 1.446986e+00	 1.202582e+00	 1.261940e+01
 1.523727e+00	 1.116314e+00	 1.287424e+01
 1.509987e+00	 1.134831e+00	 1.281351e+01
 1.496010e+00	 1.153193e+00	 1.276539e+01
 1.481799e+00	 1.171398e+00	 1.272078e+01
 1.467355e+00	 1.189441e+00	 1.267163e+01
 1.452683e+00	 1.207317e+00	 1.260835e+01
 1.424199e+00	 1.183644e+00	 1.265310e+01
 1.409592e+00	 1.201002e+00	 1.258032e+01
 1.394767e+00	 1.218187e+00	 1.249323e+01
 1.379726e+00	 1.235197e+00	 1.239728e+01
 1.364472e+00	 1.252027e+00	 1.229941e+01
 1.349009e+00	 1.268673e+00	 1.220774e+01
 1.429896e+00	 1.188379e+00	 1.264551e+01
 1.415231e+00	 1.205806e+00	 1.257164e+01
 1.400346e+00	 1.223060e+00	 1.248513e+01
 1.385245e+00	 1.240138e+00	 1.239080e+01
 1.369930e+00	 1.257035e+00	 1.229498e+01
 1.354405e+00	 1.273748e+00	 1.220526e+01
 1.435592e+00	 1.193113e+00	 1.263760e+01
 1.420869e+00	 1.210610e+00	 1.256271e+01
 1.405925e+00	 1.227933e+00	 1.247702e+01
 1.390763e+00	 1.245079e+00	 1.238459e+01
 1.375388e+00	 1.262043e+00	 1.229108e+01
 1.359801e+00	 1.278822e+00	 1.220337e+01
 1.441289e+00	 1.197848e+00	 1.262901e+01
 1.426507e+00	 1.215414e+00	 1.255331e+01
 1.411504e+00	 1.232806e+00	 1.246875e+01
 1.396282e+00	 1.250020e+00	 1.237856e+01
 1.380846e+00	 1.267051e+00	 1.228761e+01
 1.365197e+00	 1.283897e+00	 1.220198e+01
 1.446986e+00	 1.202582e+00	 1.261940e+01
 1.432146e+00	 1.220218e+00	 1.254318e+01
 1.417083e+00	 1.237678e+00	 1.246014e+01
 1.401801e+00	 1.254960e+00	 1.237258e+01
 1.386303e+00	 1.272059e+00	 1.228445e+01
 1.370593e+00	 1.288972e+00	 1.220095e+01
 1.452683e+00	 1.207317e+00	 1.260835e+01
 1.437784e+00	 1.225022e+00	 1.253205e+01
 1.422662e+00	 1.242551e+00	 1.245100e+01
 1.407320e+00	 1.259901e+00	 1.236650e+01
 1.391761e+00	 1.277068e+00	 1.228147e+01
 1.375989e+00	 1.294046e+00	 1.220014e+01
 1.349009e+00	 1.268673e+00	 1.220774e+01
 1.333340e+00	 1.285131e+00	 1.211061e+01
 1.317468e+00	 1.301397e+00	 1.199609e+01
 1.301397e+00	 1.317468e+00	 1.187249e+01
 1.285131e+00	 1.333340e+00	 1.174775e+01
 1.268673e+00	 1.349009e+00	 1.162895e+01
 1.354405e+00	 1.273748e+00	 1.220526e+01
 1.338673e+00	 1.290271e+00	 1.210948e+01
 1.322738e+00	 1.306603e+00	 1.199570e+01
 1.306603e+00	 1.322738e+00	 1.187241e+01
 1.290271e+00	 1.338673e+00	 1.174772e+01
 1.273748e+00	 1.354405e+00	 1.162890e+01
 1.359801e+00	 1.278822e+00	 1.220337e+01
 1.344006e+00	 1.295412e+00	 1.210888e+01
 1.328007e+00	 1.311808e+00	 1.199576e+01
 1.311808e+00	 1.328007e+00	 1.187268e+01
 1.295412e+00	 1.344006e+00	 1.174797e+01
 1.278822e+00	 1.359801e+00	 1.162910e+01
 1.365197e+00	 1.283897e+00	 1.220198e+01
 1.349340e+00	 1.300552e+00	 1.210869e+01
 1.333277e+00	 1.317014e+00	 1.199611e+01
 1.317014e+00	 1.333277e+00	 1.187313e+01
 1.300552e+00	 1.349340e+00	 1.174829e+01
 1.283897e+00	 1.365197e+00	 1.162931e+01
 1.370593e+00	 1.288972e+00	 1.220095e+01
 1.354673e+00	 1.305693e+00	 1.210874e+01
 1.338547e+00	 1.322219e+00	 1.199656e+01
 1.322219e+00	 1.338547e+00	 1.187353e+01
 1.305693e+00	 1.354673e+00	 1.174844e+01
 1.288972e+00	 1.370593e+00	 1.162926e+01
 1.375989e+00	 1.294046e+00	 1.220014e+01
 1.360006e+00	 1.310833e+00	 1.210886e+01
 1.343817e+00	 1.327425e+00	 1.199690e+01
 1.327425e+00	 1.343817e+00	 1.187364e+01
 1.310833e+00	 1.360006e+00	 1.174814e+01
 1.294046e+00	 1.375989e+00	 1.162866e+01
 1.268673e+00	 1.349009e+00	 1.162895e+01
 1.252027e+00	 1.364472e+00	 1.150747e+01
 1.235197e+00	 1.379726e+00	 1.137536e+01
 1.218187e+00	 1.394767e+00	 1.123817e+01
 1.201002e+00	 1.409592e+00	 1.109898e+01
 1.183644e+00	 1.424199e+00	 1.095800e+01
 1.273748e+00	 1.354405e+00	 1.162890e+01
 1.257035e+00	 1.369930e+00	 1.150768e+01
 1.240138e+00	 1.385245e+00	 1.137618e+01
 1.223060e+00	 1.400346e+00	 1.123976e+01
 1.205806e+00	 1.415231e+00	 1.110124e+01
 1.188379e+00	 1.429896e+00	 1.096047e+01
 1.278822e+00	 1.359801e+00	 1.162910e+01
 1.262043e+00	 1.375388e+00	 1.150813e+01
 1.245079e+00	 1.390763e+00	 1.137726e+01
 1.227933e+00	 1.405925e+00	 1.124160e+01
 1.210610e+00	 1.420869e+00	 1.110371e+01
 1.193113e+00	 1.435592e+00	 1.096311e+01
 1.283897e+00	 1.365197e+00	 1.162931e+01
 1.267051e+00	 1.380846e+00	 1.150857e+01
 1.250020e+00	 1.396282e+00	 1.137831e+01
 1.232806e+00	 1.411504e+00	 1.124342e+01
 1.215414e+00	 1.426507e+00	 1.110617e+01
 1.197848e+00	 1.441289e+00	 1.096570e+01
 1.288972e+00	 1.370593e+00	 1.162926e+01
 1.272059e+00	 1.386303e+00	 1.150871e+01
 1.254960e+00	 1.401801e+00	 1.137905e+01
 1.237678e+00	 1.417083e+00	 1.124494e+01
 1.220218e+00	 1.432146e+00	 1.110832e+01
 1.202582e+00	 1.446986e+00	 1.096802e+01
 1.294046e+00	 1.375989e+00	 1.162866e+01
 1.277068e+00	 1.391761e+00	 1.150824e+01
 1.259901e+00	 1.407320e+00	 1.137916e+01
 1.242551e+00	 1.422662e+00	 1.124582e+01
 1.225022e+00	 1.437784e+00	 1.110989e+01
 1.207317e+00	 1.452683e+00	 1.096979e+01
 1.183644e+00	 1.424199e+00	 1.095800e+01
 1.166119e+00	 1.438584e+00	 1.081567e+01
 1.148430e+00	 1.452744e+00	 1.067379e+01
 1.130582e+00	 1.466677e+00	 1.052941e+01
 1.112579e+00	 1.480379e+00	 1.037574e+01
 1.094426e+00	 1.493850e+00	 1.021557e+01
 1.188379e+00	 1.429896e+00	 1.096047e+01
 1.170783e+00	 1.444338e+00	 1.081891e+01
 1.153023e+00	 1.458555e+00	 1.067845e+01
 1.135104e+00	 1.472543e+00	 1.053434e+01
 1.117029e+00	 1.486301e+00	 1.037904e+01
 1.098804e+00	 1.499825e+00	 1.022191e+01
 1.193113e+00	 1.435592e+00	 1.096311e+01
 1.175448e+00	 1.450092e+00	 1.082209e+01
 1.157617e+00	 1.464366e+00	 1.068261e+01
 1.139626e+00	 1.478410e+00	 1.053824e+01
 1.121480e+00	 1.492222e+00	 1.038374e+01
 1.103181e+00	 1.505801e+00	 1.022916e+01
 1.197848e+00	 1.441289e+00	 1.096570e+01
 1.180112e+00	 1.455847e+00	 1.082505e+01
 1.162211e+00	 1.470177e+00	 1.068618e+01
 1.144149e+00	 1.484277e+00	 1.054129e+01
 1.125930e+00	 1.498144e+00	 1.038899e+01
 1.107559e+00	 1.511776e+00	 1.023663e+01
 1.202582e+00	 1.446986e+00	 1.096802e+01
 1.184776e+00	 1.461601e+00	 1.082762e+01
 1.166805e+00	 1.475988e+00	 1.068906e+01
 1.148671e+00	 1.490143e+00	 1.054427e+01
 1.130380e+00	 1.504065e+00	 1.039389e+01
 1.111937e+00	 1.517751e+00	 1.024361e+01
 1.207317e+00	 1.452683e+00	 1.096979e+01
 1.189441e+00	 1.467355e+00	 1.082956e+01
 1.171398e+00	 1.481799e+00	 1.069108e+01
 1.153193e+00	 1.496010e+00	 1.054653e+01
 1.134831e+00	 1.509987e+00	 1.039758e+01
 1.116314e+00	 1.523727e+00	 1.024913e+01
 1.094426e+00	 1.493850e+00	 1.021557e+01
 1.076127e+00	 1.507085e+00	 1.006657e+01
 1.057687e+00	 1.520084e+00	 9.925579e+00
 1.039110e+00	 1.532843e+00	 9.782859e+00
 1.020400e+00	 1.545360e+00	 9.630871e+00
 1.001564e+00	 1.557635e+00	 9.464110e+00
 1.098804e+00	 1.499825e+00	 1.022191e+01
 1.080432e+00	 1.513114e+00	 1.007538e+01
 1.061917e+00	 1.526164e+00	 9.935136e+00
 1.043266e+00	 1.538974e+00	 9.792210e+00
 1.024482e+00	 1.551542e+00	 9.639896e+00
 1.005570e+00	 1.563865e+00	 9.473589e+00
 1.103181e+00	 1.505801e+00	 1.022916e+01
 1.084736e+00	 1.519142e+00	 1.008434e+01
 1.066148e+00	 1.532244e+00	 9.944595e+00
 1.047423e+00	 1.545105e+00	 9.801567e+00
 1.028564e+00	 1.557723e+00	 9.649243e+00
 1.009576e+00	 1.570096e+00	 9.483762e+00
 1.107559e+00	 1.511776e+00	 1.023663e+01
 1.089041e+00	 1.525170e+00	 1.009285e+01
 1.070379e+00	 1.538325e+00	 9.953399e+00
 1.051579e+00	 1.551237e+00	 9.810404e+00
 1.032645e+00	 1.563905e+00	 9.658386e+00
 1.013583e+00	 1.576326e+00	 9.494074e+00
 1.111937e+00	 1.517751e+00	 1.024361e+01
 1.093345e+00	 1.531199e+00	 1.010028e+01
 1.074610e+00	 1.544405e+00	 9.960996e+00
 1.055735e+00	 1.557368e+00	 9.818195e+00
 1.036727e+00	 1.570086e+00	 9.666796e+00
 1.017589e+00	 1.582557e+00	 9.503971e+00
 1.116314e+00	 1.523727e+00	 1.024913e+01
 1.097650e+00	 1.537227e+00	 1.010604e+01
 1.078840e+00	 1.550485e+00	 9.966832e+00
 1.059892e+00	 1.563499e+00	 9.824413e+00
 1.040808e+00	 1.576267e+00	 9.673946e+00
 1.021595e+00	 1.588787e+00	 9.512898e+00
 1.001564e+00	 1.557635e+00	 9.464110e+00
 9.826043e-01	 1.569664e+00	 9.295417e+00
 9.635266e-01	 1.581446e+00	 9.136727e+00
 9.443357e-01	 1.592980e+00	 8.983567e+00
 9.250361e-01	 1.604264e+00	 8.832639e+00
 9.056327e-01	 1.615297e+00	 8.681633e+00
 1.005570e+00	 1.563865e+00	 9.473589e+00
 9.865347e-01	 1.575942e+00	 9.306362e+00
 9.673807e-01	 1.587772e+00	 9.149498e+00
 9.481130e-01	 1.599352e+00	 8.998153e+00
 9.287362e-01	 1.610681e+00	 8.848660e+00
 9.092553e-01	 1.621758e+00	 8.698351e+00
 1.009576e+00	 1.570096e+00	 9.483762e+00
 9.904651e-01	 1.582221e+00	 9.318201e+00
 9.712349e-01	 1.594098e+00	 9.163130e+00
 9.518904e-01	 1.605724e+00	 9.013419e+00
 9.324364e-01	 1.617098e+00	 8.865127e+00
 9.128778e-01	 1.628219e+00	 8.715321e+00
 1.013583e+00	 1.576326e+00	 9.494074e+00
 9.943955e-01	 1.588500e+00	 9.330350e+00
 9.750890e-01	 1.600423e+00	 9.177025e+00
 9.556677e-01	 1.612096e+00	 9.028775e+00
 9.361365e-01	 1.623515e+00	 8.881477e+00
 9.165003e-01	 1.634681e+00	 8.732022e+00
 1.017589e+00	 1.582557e+00	 9.503971e+00
 9.983259e-01	 1.594778e+00	 9.342224e+00
 9.789431e-01	 1.606749e+00	 9.190589e+00
 9.594450e-01	 1.618468e+00	 9.043634e+00
 9.398367e-01	 1.629932e+00	 8.897144e+00
 9.201229e-01	 1.641142e+00	 8.747928e+00
 1.021595e+00	 1.588787e+00	 9.512898e+00
 1.002256e+00	 1.601057e+00	 9.353237e+00
 9.827972e-01	 1.613075e+00	 9.203224e+00
 9.632224e-01	 1.624840e+00	 9.057404e+00
 9.435368e-01	 1.636349e+00	 8.911561e+00
 9.237454e-01	 1.647603e+00	 8.762514e+00
 9.056327e-01	 1.615297e+00	 8.681633e+00
 8.861304e-01	 1.626078e+00	 8.523553e+00
 8.665338e-01	 1.636605e+00	 8.355197e+00
 8.468478e-01	 1.646877e+00	 8.181013e+00
 8.270773e-01	 1.656894e+00	 8.005892e+00
 8.072271e-01	 1.666655e+00	 7.835022e+00
 9.092553e-01	 1.621758e+00	 8.698351e+00
 8.896749e-01	 1.632582e+00	 8.540468e+00
 8.699999e-01	 1.643151e+00	 8.372418e+00
 8.502352e-01	 1.653465e+00	 8.198852e+00
 8.303857e-01	 1.663522e+00	 8.024865e+00
 8.104560e-01	 1.673322e+00	 7.855845e+00
 9.128778e-01	 1.628219e+00	 8.715321e+00
 8.932194e-01	 1.639086e+00	 8.557589e+00
 8.734661e-01	 1.649697e+00	 8.389938e+00
 8.536226e-01	 1.660052e+00	 8.217135e+00
 8.336940e-01	 1.670149e+00	 8.044394e+00
 8.136849e-01	 1.679988e+00	 7.877215e+00
 9.165003e-01	 1.634681e+00	 8.732022e+00
 8.967639e-01	 1.645591e+00	 8.574437e+00
 8.769322e-01	 1.656244e+00	 8.407302e+00
 8.570100e-01	 1.666640e+00	 8.235420e+00
 8.370023e-01	 1.676777e+00	 8.064035e+00
 8.169139e-01	 1.686655e+00	 7.898675e+00
 9.201229e-01	 1.641142e+00	 8.747928e+00
 9.003084e-01	 1.652095e+00	 8.590527e+00
 8.803983e-01	 1.662790e+00	 8.424052e+00
 8.603974e-01	 1.673227e+00	 8.253258e+00
 8.403106e-01	 1.683404e+00	 8.083339e+00
 8.201428e-01	 1.693322e+00	 7.919759e+00
 9.237454e-01	 1.647603e+00	 8.762514e+00
 9.038530e-01	 1.658599e+00	 8.605373e+00
 8.838645e-01	 1.669337e+00	 8.439726e+00
 8.637848e-01	 1.679815e+00	 8.270199e+00
 8.436189e-01	 1.690032e+00	 8.101850e+00
 8.233717e-01	 1.699988e+00	 7.939999e+00
 8.072271e-01	 1.666655e+00	 7.835022e+00
 7.873020e-01	 1.676160e+00	 7.680401e+00
 7.673068e-01	 1.685407e+00	 7.542008e+00
 7.472463e-01	 1.694396e+00	 7.406869e+00
 7.271254e-01	 1.703128e+00	 7.261915e+00
 7.069488e-01	 1.711601e+00	 7.102345e+00
 8.104560e-01	 1.673322e+00	 7.855845e+00
 7.904512e-01	 1.682864e+00	 7.702645e+00
 7.703760e-01	 1.692148e+00	 7.564610e+00
 7.502353e-01	 1.701174e+00	 7.429727e+00
 7.300339e-01	 1.709940e+00	 7.285646e+00
 7.097765e-01	 1.718448e+00	 7.126596e+00
 8.136849e-01	 1.679988e+00	 7.877215e+00
 7.936004e-01	 1.689569e+00	 7.725294e+00
 7.734453e-01	 1.698890e+00	 7.587412e+00
 7.532243e-01	 1.707951e+00	 7.452556e+00
 7.329424e-01	 1.716753e+00	 7.309272e+00
 7.126043e-01	 1.725294e+00	 7.150938e+00
 8.169139e-01	 1.686655e+00	 7.898675e+00
 7.967496e-01	 1.696273e+00	 7.747874e+00
 7.765145e-01	 1.705632e+00	 7.609935e+00
 7.562133e-01	 1.714729e+00	 7.474881e+00
 7.358509e-01	 1.723565e+00	 7.332277e+00
 7.154321e-01	 1.732140e+00	 7.174876e+00
 8.201428e-01	 1.693322e+00	 7.919759e+00
 7.998988e-01	 1.702978e+00	 7.769905e+00
 7.795837e-01	 1.712373e+00	 7.631694e+00
 7.592023e-01	 1.721506e+00	 7.496220e+00
 7.387594e-01	 1.730378e+00	 7.354140e+00
 7.182599e-01	 1.738987e+00	 7.197911e+00
 8.233717e-01	 1.699988e+00	 7.939999e+00
 8.030481e-01	 1.709683e+00	 7.790904e+00
 7.826530e-01	 1.719115e+00	 7.652201e+00
 7.621913e-01	 1.728284e+00	 7.516090e+00
 7.416679e-01	 1.737190e+00	 7.374340e+00
 7.210877e-01	 1.745833e+00	 7.219539e+00
 7.069488e-01	 1.711601e+00	 7.102345e+00
 6.867212e-01	 1.719817e+00	 6.937007e+00
 6.664474e-01	 1.727774e+00	 6.776425e+00
 6.461321e-01	 1.735474e+00	 6.624599e+00
 6.257800e-01	 1.742916e+00	 6.484077e+00
 6.053958e-01	 1.750100e+00	 6.355877e+00
 7.097765e-01	 1.718448e+00	 7.126596e+00
 6.894681e-01	 1.726696e+00	 6.962249e+00
 6.691132e-01	 1.734685e+00	 6.803408e+00
 6.487166e-01	 1.742415e+00	 6.653641e+00
 6.282832e-01	 1.749887e+00	 6.514976e+00
 6.078174e-01	 1.757101e+00	 6.387817e+00
 7.126043e-01	 1.725294e+00	 7.150938e+00
 6.922149e-01	 1.733575e+00	 6.987771e+00
 6.717790e-01	 1.741596e+00	 6.830788e+00
 6.513012e-01	 1.749357e+00	 6.683139e+00
 6.307863e-01	 1.756859e+00	 6.546337e+00
 6.102390e-01	 1.764101e+00	 6.420185e+00
 7.154321e-01	 1.732140e+00	 7.174876e+00
 6.949618e-01	 1.740454e+00	 7.013113e+00
 6.744448e-01	 1.748507e+00	 6.858154e+00
 6.538857e-01	 1.756299e+00	 6.712742e+00
 6.332894e-01	 1.763831e+00	 6.577887e+00
 6.126606e-01	 1.771102e+00	 6.452791e+00
 7.182599e-01	 1.738987e+00	 7.197911e+00
 6.977087e-01	 1.747334e+00	 7.037811e+00
 6.771105e-01	 1.755418e+00	 6.885088e+00
 6.564702e-01	 1.763241e+00	 6.742091e+00
 6.357925e-01	 1.770802e+00	 6.609336e+00
 6.150821e-01	 1.778102e+00	 6.485430e+00
 7.210877e-01	 1.745833e+00	 7.219539e+00
 7.004556e-01	 1.754213e+00	 7.061390e+00
 6.797763e-01	 1.762330e+00	 6.911160e+00
 6.590548e-01	 1.770183e+00	 6.770816e+00
 6.382956e-01	 1.777774e+00	 6.640383e+00
 6.175037e-01	 1.785102e+00	 6.517881e+00
 6.053958e-01	 1.750100e+00	 6.355877e+00
 5.849840e-01	 1.757028e+00	 6.225527e+00
 5.645493e-01	 1.763700e+00	 6.083641e+00
 5.440962e-01	 1.770117e+00	 5.936565e+00
 5.236291e-01	 1.776279e+00	 5.789218e+00
 5.031526e-01	 1.782188e+00	 5.645182e+00
 6.078174e-01	 1.757101e+00	 6.387817e+00
 5.873240e-01	 1.764057e+00	 6.257661e+00
 5.668075e-01	 1.770755e+00	 6.115771e+00
 5.462726e-01	 1.777198e+00	 5.968794e+00
 5.257236e-01	 1.783384e+00	 5.821881e+00
 5.051652e-01	 1.789316e+00	 5.678792e+00
 6.102390e-01	 1.764101e+00	 6.420185e+00
 5.896639e-01	 1.771085e+00	 6.290201e+00
 5.690657e-01	 1.777810e+00	 6.148296e+00
 5.484490e-01	 1.784278e+00	 6.001334e+00
 5.278182e-01	 1.790489e+00	 5.854614e+00
 5.071778e-01	 1.796445e+00	 5.711983e+00
 6.126606e-01	 1.771102e+00	 6.452791e+00
 5.920039e-01	 1.778113e+00	 6.323039e+00
 5.713239e-01	 1.784865e+00	 6.181182e+00
 5.506253e-01	 1.791359e+00	 6.034215e+00
 5.299127e-01	 1.797595e+00	 5.887498e+00
 5.091904e-01	 1.803574e+00	 5.744873e+00
 6.150821e-01	 1.778102e+00	 6.485430e+00
 5.943438e-01	 1.785141e+00	 6.356055e+00
 5.735821e-01	 1.791920e+00	 6.214379e+00
 5.528017e-01	 1.798439e+00	 6.067447e+00
 5.320072e-01	 1.804700e+00	 5.920592e+00
 5.112030e-01	 1.810703e+00	 5.777560e+00
 6.175037e-01	 1.785102e+00	 6.517881e+00
 5.966837e-01	 1.792169e+00	 6.389111e+00
 5.758403e-01	 1.798974e+00	 6.247820e+00
 5.549781e-01	 1.805519e+00	 6.101024e+00
 5.341017e-01	 1.811805e+00	 5.953941e+00
 5.132156e-01	 1.817831e+00	 5.810130e+00
 5.031526e-01	 1.782188e+00	 5.645182e+00
 4.826710e-01	 1.787843e+00	 5.510027e+00
 4.621887e-01	 1.793248e+00	 5.385944e+00
 4.417099e-01	 1.798401e+00	 5.269918e+00
 4.212390e-01	 1.803306e+00	 5.158292e+00
 4.007801e-01	 1.807963e+00	 5.046984e+00
 5.051652e-01	 1.789316e+00	 5.678792e+00
 4.846017e-01	 1.794995e+00	 5.545057e+00
 4.640374e-01	 1.800421e+00	 5.422470e+00
 4.434768e-01	 1.805595e+00	 5.307600e+00
 4.229240e-01	 1.810519e+00	 5.196344e+00
 4.023832e-01	 1.815195e+00	 5.084164e+00
 5.071778e-01	 1.796445e+00	 5.711983e+00
 4.865323e-01	 1.802146e+00	 5.578868e+00
 4.658862e-01	 1.807594e+00	 5.456827e+00
 4.452436e-01	 1.812789e+00	 5.342245e+00
 4.246089e-01	 1.817733e+00	 5.230810e+00
 4.039864e-01	 1.822427e+00	 5.117757e+00
 5.091904e-01	 1.803574e+00	 5.744873e+00
 4.884630e-01	 1.809298e+00	 5.611630e+00
 4.677349e-01	 1.814767e+00	 5.489276e+00
 4.470104e-01	 1.819982e+00	 5.374241e+00
 4.262939e-01	 1.824946e+00	 5.262232e+00
 4.055895e-01	 1.829659e+00	 5.148486e+00
 5.112030e-01	 1.810703e+00	 5.777560e+00
 4.903937e-01	 1.816449e+00	 5.643499e+00
 4.695837e-01	 1.821940e+00	 5.520064e+00
 4.487773e-01	 1.827176e+00	 5.403959e+00
 4.279788e-01	 1.832159e+00	 5.291135e+00
 4.071926e-01	 1.836891e+00	 5.177055e+00
 5.132156e-01	 1.817831e+00	 5.810130e+00
 4.923244e-01	 1.823600e+00	 5.674611e+00
 4.714324e-01	 1.829113e+00	 5.549420e+00
 4.505441e-01	 1.834369e+00	 5.431752e+00
 4.296638e-01	 1.839372e+00	 5.318024e+00
 4.087957e-01	 1.844122e+00	 5.204146e+00
 4.007801e-01	 1.807963e+00	 5.046984e+00
 3.803374e-01	 1.812374e+00	 4.925192e+00
 3.599148e-01	 1.816540e+00	 4.811265e+00
 3.395165e-01	 1.820463e+00	 4.712035e+00
 3.191463e-01	 1.824144e+00	 4.622559e+00
 2.988082e-01	 1.827586e+00	 4.542297e+00
 4.023832e-01	 1.815195e+00	 5.084164e+00
 3.818587e-01	 1.819623e+00	 4.960830e+00
 3.613545e-01	 1.823806e+00	 4.845358e+00
 3.408746e-01	 1.827744e+00	 4.746576e+00
 3.204229e-01	 1.831440e+00	 4.658751e+00
 3.000035e-01	 1.834896e+00	 4.580836e+00
 4.039864e-01	 1.822427e+00	 5.117757e+00
 3.833801e-01	 1.826873e+00	 4.993497e+00
 3.627941e-01	 1.831072e+00	 4.876978e+00
 3.422326e-01	 1.835026e+00	 4.778476e+00
 3.216995e-01	 1.838737e+00	 4.691135e+00
 3.011987e-01	 1.842206e+00	 4.612961e+00
 4.055895e-01	 1.829659e+00	 5.148486e+00
 3.849014e-01	 1.834122e+00	 5.024076e+00
 3.642338e-01	 1.838338e+00	 4.907154e+00
 3.435907e-01	 1.842308e+00	 4.808824e+00
 3.229761e-01	 1.846034e+00	 4.720786e+00
 3.023939e-01	 1.849517e+00	 4.639678e+00
 4.071926e-01	 1.836891e+00	 5.177055e+00
 3.864228e-01	 1.841372e+00	 5.053433e+00
 3.656735e-01	 1.845604e+00	 4.936898e+00
 3.449488e-01	 1.849590e+00	 4.838693e+00
 3.242527e-01	 1.853330e+00	 4.748928e+00
 3.035892e-01	 1.856827e+00	 4.665390e+00
 4.087957e-01	 1.844122e+00	 5.204146e+00
 3.879441e-01	 1.848621e+00	 5.082411e+00
 3.671131e-01	 1.852871e+00	 4.967143e+00
 3.463068e-01	 1.856872e+00	 4.869259e+00
 3.255293e-01	 1.860627e+00	 4.781316e+00
 3.047844e-01	 1.864137e+00	 4.701017e+00
 2.988082e-01	 1.827586e+00	 4.542297e+00
 2.785059e-01	 1.830789e+00	 4.474683e+00
 2.582433e-01	 1.833757e+00	 4.416815e+00
 2.380238e-01	 1.836491e+00	 4.363481e+00
 2.178512e-01	 1.838993e+00	 4.312142e+00
 1.977290e-01	 1.841265e+00	 4.262505e+00
 3.000035e-01	 1.834896e+00	 4.580836e+00
 2.796200e-01	 1.838113e+00	 4.515664e+00
 2.592762e-01	 1.841092e+00	 4.459563e+00
 2.389759e-01	 1.843837e+00	 4.406938e+00
 2.187226e-01	 1.846349e+00	 4.355056e+00
 1.985199e-01	 1.848631e+00	 4.303588e+00
 3.011987e-01	 1.842206e+00	 4.612961e+00
 2.807340e-01	 1.845436e+00	 4.545867e+00
 2.603092e-01	 1.848427e+00	 4.485608e+00
 2.399280e-01	 1.851183e+00	 4.426569e+00
 2.195940e-01	 1.853705e+00	 4.367645e+00
 1.993109e-01	 1.855996e+00	 4.312897e+00
 3.023939e-01	 1.849517e+00	 4.639678e+00
 2.818480e-01	 1.852759e+00	 4.566371e+00
 2.613422e-01	 1.855762e+00	 4.500053e+00
 2.408801e-01	 1.858529e+00	 4.438743e+00
 2.204654e-01	 1.861061e+00	 4.381828e+00
 2.001018e-01	 1.863361e+00	 4.330305e+00
 3.035892e-01	 1.856827e+00	 4.665390e+00
 2.829620e-01	 1.860082e+00	 4.591554e+00
 2.623751e-01	 1.863097e+00	 4.525858e+00
 2.418322e-01	 1.865875e+00	 4.465585e+00
 2.213369e-01	 1.868417e+00	 4.410157e+00
 2.008927e-01	 1.870726e+00	 4.360605e+00
 3.047844e-01	 1.864137e+00	 4.701017e+00
 2.840761e-01	 1.867405e+00	 4.629867e+00
 2.634081e-01	 1.870432e+00	 4.565961e+00
 2.427843e-01	 1.873221e+00	 4.506862e+00
 2.222083e-01	 1.875773e+00	 4.452264e+00
 2.016836e-01	 1.878091e+00	 4.403472e+00
 1.977290e-01	 1.841265e+00	 4.262505e+00
 1.776606e-01	 1.843310e+00	 4.218210e+00
 1.576495e-01	 1.845129e+00	 4.180394e+00
 1.376988e-01	 1.846725e+00	 4.146977e+00
 1.178119e-01	 1.848101e+00	 4.116213e+00
 9.799187e-02	 1.849257e+00	 4.086176e+00
 1.985199e-01	 1.848631e+00	 4.303588e+00
 1.783713e-01	 1.850683e+00	 4.256159e+00
 1.582801e-01	 1.852510e+00	 4.214238e+00
 1.382496e-01	 1.854112e+00	 4.178572e+00
 1.182831e-01	 1.855493e+00	 4.147684e+00
 9.838384e-02	 1.856654e+00	 4.118806e+00
 1.993109e-01	 1.855996e+00	 4.312897e+00
 1.790819e-01	 1.858057e+00	 4.266723e+00
 1.589107e-01	 1.859890e+00	 4.230119e+00
 1.388004e-01	 1.861499e+00	 4.200460e+00
 1.187544e-01	 1.862885e+00	 4.174989e+00
 9.877581e-02	 1.864051e+00	 4.150450e+00
 2.001018e-01	 1.863361e+00	 4.330305e+00
 1.797926e-01	 1.865430e+00	 4.288082e+00
 1.595413e-01	 1.867271e+00	 4.255680e+00
 1.393512e-01	 1.868886e+00	 4.230062e+00
 1.192256e-01	 1.870278e+00	 4.208083e+00
 9.916778e-02	 1.871448e+00	 4.186118e+00
 2.008927e-01	 1.870726e+00	 4.360605e+00
 1.805032e-01	 1.872803e+00	 4.320725e+00
 1.601719e-01	 1.874651e+00	 4.290702e+00
 1.399020e-01	 1.876273e+00	 4.267216e+00
 1.196969e-01	 1.877670e+00	 4.246855e+00
 9.955974e-02	 1.878846e+00	 4.225748e+00
 2.016836e-01	 1.878091e+00	 4.403472e+00
 1.812139e-01	 1.880176e+00	 4.364379e+00
 1.608025e-01	 1.882032e+00	 4.334968e+00
 1.404528e-01	 1.883660e+00	 4.311758e+00
 1.201681e-01	 1.885063e+00	 4.291194e+00
 9.995171e-02	 1.886243e+00	 4.269276e+00
 9.799187e-02	 1.849257e+00	 4.086176e+00
 7.824181e-02	 1.850198e+00	 4.056738e+00
 5.856472e-02	 1.850926e+00	 4.031950e+00
 3.896350e-02	 1.851442e+00	 4.014393e+00
 1.944101e-02	 1.851750e+00	 4.004545e+00
 0.000000e+00	 1.851852e+00	 4.000417e+00
 9.838384e-02	 1.856654e+00	 4.118806e+00
 7.855478e-02	 1.857599e+00	 4.090981e+00
 5.879898e-02	 1.858329e+00	 4.067923e+00
 3.911935e-02	 1.858848e+00	 4.051967e+00
 1.951877e-02	 1.859157e+00	 4.043471e+00
 0.000000e+00	 1.859259e+00	 4.040523e+00
 9.877581e-02	 1.864051e+00	 4.150450e+00
 7.886775e-02	 1.865000e+00	 4.125641e+00
 5.903323e-02	 1.865733e+00	 4.104546e+00
 3.927521e-02	 1.866253e+00	 4.089814e+00
 1.959654e-02	 1.866564e+00	 4.082139e+00
 0.000000e+00	 1.866667e+00	 4.079976e+00
 9.916778e-02	 1.871448e+00	 4.186118e+00
 7.918072e-02	 1.872401e+00	 4.162838e+00
 5.926749e-02	 1.873137e+00	 4.142518e+00
 3.943106e-02	 1.873659e+00	 4.128098e+00
 1.967430e-02	 1.873971e+00	 4.120597e+00
 0.000000e+00	 1.874074e+00	 4.118816e+00
 9.955974e-02	 1.878846e+00	 4.225748e+00
 7.949368e-02	 1.879801e+00	 4.202551e+00
 5.950175e-02	 1.880540e+00	 4.181845e+00
 3.958692e-02	 1.881065e+00	 4.166850e+00
 1.975206e-02	 1.881378e+00	 4.158885e+00
 0.000000e+00	 1.881481e+00	 4.157083e+00
 9.995171e-02	 1.886243e+00	 4.269276e+00
 7.980665e-02	 1.887202e+00	 4.244754e+00
 5.973601e-02	 1.887944e+00	 4.222537e+00
 3.974277e-02	 1.888471e+00	 4.206098e+00
 1.982983e-02	 1.888785e+00	 4.197042e+00
 0.000000e+00	 1.888889e+00	 4.194818e+00
 1.888889e+00	 0.000000e+00	 1.288563e+01
 1.888785e+00	 1.982983e-02	 1.289210e+01
 1.888471e+00	 3.974277e-02	 1.289634e+01
 1.887944e+00	 5.973601e-02	 1.289937e+01
 1.887202e+00	 7.980665e-02	 1.290246e+01
 1.886243e+00	 9.995171e-02	 1.290711e+01
 1.896296e+00	 0.000000e+00	 1.285607e+01
 1.896192e+00	 1.990759e-02	 1.286313e+01
 1.895877e+00	 3.989862e-02	 1.286771e+01
 1.895348e+00	 5.997027e-02	 1.287085e+01
 1.894603e+00	 8.011962e-02	 1.287383e+01
 1.893640e+00	 1.003437e-01	 1.287814e+01
 1.903704e+00	 0.000000e+00	 1.282693e+01
 1.903599e+00	 1.998536e-02	 1.283460e+01
 1.903282e+00	 4.005448e-02	 1.283960e+01
 1.902751e+00	 6.020453e-02	 1.284294e+01
 1.902004e+00	 8.043258e-02	 1.284589e+01
 1.901037e+00	 1.007356e-01	 1.284994e+01
 1.911111e+00	 0.000000e+00	 1.279817e+01
 1.911006e+00	 2.006312e-02	 1.280652e+01
 1.910688e+00	 4.021033e-02	 1.281200e+01
 1.910155e+00	 6.043879e-02	 1.281563e+01
 1.909405e+00	 8.074555e-02	 1.281866e+01
 1.908434e+00	 1.011276e-01	 1.282253e+01
 1.918519e+00	 0.000000e+00	 1.276978e+01
 1.918413e+00	 2.014088e-02	 1.277887e+01
 1.918094e+00	 4.036619e-02	 1.278494e+01
 1.917559e+00	 6.067305e-02	 1.278897e+01
 1.916805e+00	 8.105852e-02	 1.279216e+01
 1.915831e+00	 1.015196e-01	 1.279591e+01
 1.925926e+00	 0.000000e+00	 1.274173e+01
 1.925820e+00	 2.021865e-02	 1.275167e+01
 1.925500e+00	 4.052204e-02	 1.275843e+01
 1.924963e+00	 6.090730e-02	 1.276295e+01
 1.924206e+00	 8.137149e-02	 1.276639e+01
 1.923228e+00	 1.019115e-01	 1.277008e+01
 1.886243e+00	 9.995171e-02	 1.290711e+01
 1.885063e+00	 1.201681e-01	 1.291339e+01
 1.883660e+00	 1.404528e-01	 1.292008e+01
 1.882032e+00	 1.608025e-01	 1.292687e+01
 1.880176e+00	 1.812139e-01	 1.293344e+01
 1.878091e+00	 2.016836e-01	 1.293937e+01
 1.893640e+00	 1.003437e-01	 1.287814e+01
 1.892455e+00	 1.206394e-01	 1.288404e+01
 1.891047e+00	 1.410036e-01	 1.289050e+01
 1.889412e+00	 1.614331e-01	 1.289716e+01
 1.887550e+00	 1.819245e-01	 1.290366e+01
 1.885456e+00	 2.024745e-01	 1.290953e+01
 1.901037e+00	 1.007356e-01	 1.284994e+01
 1.899847e+00	 1.211106e-01	 1.285556e+01
 1.898434e+00	 1.415544e-01	 1.286189e+01
 1.896793e+00	 1.620637e-01	 1.286851e+01
 1.894923e+00	 1.826351e-01	 1.287503e+01
 1.892821e+00	 2.032654e-01	 1.288093e+01
 1.908434e+00	 1.011276e-01	 1.282253e+01
 1.907240e+00	 1.215819e-01	 1.282794e+01
 1.905821e+00	 1.421052e-01	 1.283422e+01
 1.904173e+00	 1.626943e-01	 1.284091e+01
 1.902296e+00	 1.833458e-01	 1.284754e+01
 1.900186e+00	 2.040564e-01	 1.285356e+01
 1.915831e+00	 1.015196e-01	 1.279591e+01
 1.914632e+00	 1.220531e-01	 1.280116e+01
 1.913207e+00	 1.426560e-01	 1.280748e+01
 1.911554e+00	 1.633249e-01	 1.281434e+01
 1.909669e+00	 1.840564e-01	 1.282121e+01
 1.907551e+00	 2.048473e-01	 1.282745e+01
 1.923228e+00	 1.019115e-01	 1.277008e+01
 1.922025e+00	 1.225244e-01	 1.277523e+01
 1.920594e+00	 1.432068e-01	 1.278167e+01
 1.918934e+00	 1.639555e-01	 1.278880e+01
 1.917042e+00	 1.847671e-01	 1.279600e+01
 1.914916e+00	 2.056382e-01	 1.280259e+01
 1.878091e+00	 2.016836e-01	 1.293937e+01
 1.875773e+00	 2.222083e-01	 1.294545e+01
 1.873221e+00	 2.427843e-01	 1.295318e+01
 1.870432e+00	 2.634081e-01	 1.296283e+01
 1.867405e+00	 2.840761e-01	 1.297430e+01
 1.864137e+00	 3.047844e-01	 1.298696e+01
 1.885456e+00	 2.024745e-01	 1.290953e+01
 1.883129e+00	 2.230797e-01	 1.291556e+01
 1.880567e+00	 2.437364e-01	 1.292329e+01
 1.877767e+00	 2.644411e-01	 1.293304e+01
 1.874728e+00	 2.851901e-01	 1.294474e+01
 1.871448e+00	 3.059796e-01	 1.295782e+01
 1.892821e+00	 2.032654e-01	 1.288093e+01
 1.890485e+00	 2.239511e-01	 1.288696e+01
 1.887913e+00	 2.446885e-01	 1.289468e+01
 1.885102e+00	 2.654741e-01	 1.290444e+01
 1.882051e+00	 2.863041e-01	 1.291623e+01
 1.878758e+00	 3.071749e-01	 1.292950e+01
 1.900186e+00	 2.040564e-01	 1.285356e+01
 1.897841e+00	 2.248225e-01	 1.285966e+01
 1.895259e+00	 2.456406e-01	 1.286738e+01
 1.892437e+00	 2.665070e-01	 1.287713e+01
 1.889375e+00	 2.874181e-01	 1.288890e+01
 1.886068e+00	 3.083701e-01	 1.290219e+01
 1.907551e+00	 2.048473e-01	 1.282745e+01
 1.905197e+00	 2.256939e-01	 1.283369e+01
 1.902605e+00	 2.465927e-01	 1.284146e+01
 1.899773e+00	 2.675400e-01	 1.285117e+01
 1.896698e+00	 2.885322e-01	 1.286285e+01
 1.893379e+00	 3.095653e-01	 1.287605e+01
 1.914916e+00	 2.056382e-01	 1.280259e+01
 1.912553e+00	 2.265653e-01	 1.280908e+01
 1.909951e+00	 2.475448e-01	 1.281695e+01
 1.907108e+00	 2.685730e-01	 1.282665e+01
 1.904021e+00	 2.896462e-01	 1.283822e+01
 1.900689e+00	 3.107606e-01	 1.285125e+01
 1.864137e+00	 3.047844e-01	 1.298696e+01
 1.860627e+00	 3.255293e-01	 1.299968e+01
 1.856872e+00	 3.463068e-01	 1.301174e+01
 1.852871e+00	 3.671131e-01	 1.302205e+01
 1.848621e+00	 3.879441e-01	 1.303073e+01
 1.844122e+00	 4.087957e-01	 1.304343e+01
 1.871448e+00	 3.059796e-01	 1.295782e+01
 1.867923e+00	 3.268059e-01	 1.297110e+01
 1.864154e+00	 3.476649e-01	 1.298360e+01
 1.860137e+00	 3.685528e-01	 1.299396e+01
 1.855871e+00	 3.894655e-01	 1.300255e+01
 1.851354e+00	 4.103988e-01	 1.301549e+01
 1.878758e+00	 3.071749e-01	 1.292950e+01
 1.875220e+00	 3.280824e-01	 1.294312e+01
 1.871435e+00	 3.490230e-01	 1.295597e+01
 1.867403e+00	 3.699924e-01	 1.296647e+01
 1.863120e+00	 3.909868e-01	 1.297515e+01
 1.858586e+00	 4.120020e-01	 1.298769e+01
 1.886068e+00	 3.083701e-01	 1.290219e+01
 1.882516e+00	 3.293590e-01	 1.291595e+01
 1.878717e+00	 3.503810e-01	 1.292902e+01
 1.874669e+00	 3.714321e-01	 1.293967e+01
 1.870370e+00	 3.925082e-01	 1.294863e+01
 1.865818e+00	 4.136051e-01	 1.296115e+01
 1.893379e+00	 3.095653e-01	 1.287605e+01
 1.889813e+00	 3.306356e-01	 1.288979e+01
 1.885999e+00	 3.517391e-01	 1.290292e+01
 1.881935e+00	 3.728718e-01	 1.291365e+01
 1.877619e+00	 3.940295e-01	 1.292293e+01
 1.873050e+00	 4.152082e-01	 1.293562e+01
 1.900689e+00	 3.107606e-01	 1.285125e+01
 1.897110e+00	 3.319122e-01	 1.286482e+01
 1.893281e+00	 3.530972e-01	 1.287783e+01
 1.889201e+00	 3.743114e-01	 1.288850e+01
 1.884869e+00	 3.955509e-01	 1.289800e+01
 1.880282e+00	 4.168113e-01	 1.291086e+01
 1.844122e+00	 4.087957e-01	 1.304343e+01
 1.839372e+00	 4.296638e-01	 1.306101e+01
 1.834369e+00	 4.505441e-01	 1.307999e+01
 1.829113e+00	 4.714324e-01	 1.309905e+01
 1.823600e+00	 4.923244e-01	 1.311684e+01
 1.817831e+00	 5.132156e-01	 1.313210e+01
 1.851354e+00	 4.103988e-01	 1.301549e+01
 1.846585e+00	 4.313487e-01	 1.303345e+01
 1.841563e+00	 4.523110e-01	 1.305264e+01
 1.836286e+00	 4.732812e-01	 1.307176e+01
 1.830752e+00	 4.942551e-01	 1.308949e+01
 1.824960e+00	 5.152282e-01	 1.310460e+01
 1.858586e+00	 4.120020e-01	 1.298769e+01
 1.853799e+00	 4.330337e-01	 1.300514e+01
 1.848757e+00	 4.540778e-01	 1.302463e+01
 1.843459e+00	 4.751299e-01	 1.304410e+01
 1.837903e+00	 4.961858e-01	 1.306206e+01
 1.832089e+00	 5.172409e-01	 1.307721e+01
 1.865818e+00	 4.136051e-01	 1.296115e+01
 1.861012e+00	 4.347187e-01	 1.297787e+01
 1.855950e+00	 4.558446e-01	 1.299611e+01
 1.850632e+00	 4.769787e-01	 1.301560e+01
 1.845054e+00	 4.981164e-01	 1.303413e+01
 1.839218e+00	 5.192535e-01	 1.304970e+01
 1.873050e+00	 4.152082e-01	 1.293562e+01
 1.868225e+00	 4.364036e-01	 1.295202e+01
 1.863144e+00	 4.576115e-01	 1.296931e+01
 1.857805e+00	 4.788274e-01	 1.298720e+01
 1.852206e+00	 5.000471e-01	 1.300532e+01
 1.846346e+00	 5.212661e-01	 1.302182e+01
 1.880282e+00	 4.168113e-01	 1.291086e+01
 1.875438e+00	 4.380886e-01	 1.292718e+01
 1.870337e+00	 4.593783e-01	 1.294405e+01
 1.864977e+00	 4.806762e-01	 1.296104e+01
 1.859357e+00	 5.019778e-01	 1.297767e+01
 1.853475e+00	 5.232787e-01	 1.299344e+01
 1.817831e+00	 5.132156e-01	 1.313210e+01
 1.811805e+00	 5.341017e-01	 1.314616e+01
 1.805519e+00	 5.549781e-01	 1.316091e+01
 1.798974e+00	 5.758403e-01	 1.317619e+01
 1.792169e+00	 5.966837e-01	 1.319215e+01
 1.785102e+00	 6.175037e-01	 1.320925e+01
 1.824960e+00	 5.152282e-01	 1.310460e+01
 1.818910e+00	 5.361962e-01	 1.311851e+01
 1.812600e+00	 5.571545e-01	 1.313323e+01
 1.806029e+00	 5.780985e-01	 1.314857e+01
 1.799197e+00	 5.990237e-01	 1.316467e+01
 1.792103e+00	 6.199253e-01	 1.318197e+01
 1.832089e+00	 5.172409e-01	 1.307721e+01
 1.826015e+00	 5.382907e-01	 1.309108e+01
 1.819680e+00	 5.593309e-01	 1.310578e+01
 1.813084e+00	 5.803567e-01	 1.312113e+01
 1.806225e+00	 6.013636e-01	 1.313728e+01
 1.799103e+00	 6.223469e-01	 1.315469e+01
 1.839218e+00	 5.192535e-01	 1.304970e+01
 1.833120e+00	 5.403852e-01	 1.306380e+01
 1.826761e+00	 5.615073e-01	 1.307861e+01
 1.820139e+00	 5.826149e-01	 1.309400e+01
 1.813253e+00	 6.037035e-01	 1.311016e+01
 1.806104e+00	 6.247685e-01	 1.312759e+01
 1.846346e+00	 5.212661e-01	 1.302182e+01
 1.840225e+00	 5.424798e-01	 1.303659e+01
 1.833841e+00	 5.636836e-01	 1.305176e+01
 1.827194e+00	 5.848731e-01	 1.306731e+01
 1.820281e+00	 6.060435e-01	 1.308347e+01
 1.813104e+00	 6.271901e-01	 1.310081e+01
 1.853475e+00	 5.232787e-01	 1.299344e+01
 1.847330e+00	 5.445743e-01	 1.300937e+01
 1.840922e+00	 5.658600e-01	 1.302531e+01
 1.834248e+00	 5.871313e-01	 1.304120e+01
 1.827310e+00	 6.083834e-01	 1.305738e+01
 1.820104e+00	 6.296116e-01	 1.307451e+01
 1.785102e+00	 6.175037e-01	 1.320925e+01
 1.777774e+00	 6.382956e-01	 1.322625e+01
 1.770183e+00	 6.590548e-01	 1.324079e+01
 1.762330e+00	 6.797763e-01	 1.325240e+01
 1.754213e+00	 7.004556e-01	 1.326120e+01
 1.745833e+00	 7.210877e-01	 1.326792e+01
 1.792103e+00	 6.199253e-01	 1.318197e+01
 1.784746e+00	 6.407988e-01	 1.319944e+01
 1.777125e+00	 6.616393e-01	 1.321482e+01
 1.769241e+00	 6.824421e-01	 1.322740e+01
 1.761092e+00	 7.032025e-01	 1.323709e+01
 1.752680e+00	 7.239155e-01	 1.324440e+01
 1.799103e+00	 6.223469e-01	 1.315469e+01
 1.791717e+00	 6.433019e-01	 1.317258e+01
 1.784067e+00	 6.642238e-01	 1.318875e+01
 1.776152e+00	 6.851079e-01	 1.320231e+01
 1.767972e+00	 7.059494e-01	 1.321294e+01
 1.759526e+00	 7.267433e-01	 1.322095e+01
 1.806104e+00	 6.247685e-01	 1.312759e+01
 1.798689e+00	 6.458050e-01	 1.314578e+01
 1.791009e+00	 6.668083e-01	 1.316269e+01
 1.783063e+00	 6.877737e-01	 1.317723e+01
 1.774851e+00	 7.086962e-01	 1.318886e+01
 1.766372e+00	 7.295711e-01	 1.319769e+01
 1.813104e+00	 6.271901e-01	 1.310081e+01
 1.805661e+00	 6.483081e-01	 1.311919e+01
 1.797951e+00	 6.693929e-01	 1.313677e+01
 1.789974e+00	 6.904395e-01	 1.315226e+01
 1.781730e+00	 7.114431e-01	 1.316495e+01
 1.773219e+00	 7.323989e-01	 1.317474e+01
 1.820104e+00	 6.296116e-01	 1.307451e+01
 1.812632e+00	 6.508112e-01	 1.309292e+01
 1.804893e+00	 6.719774e-01	 1.311108e+01
 1.796885e+00	 6.931053e-01	 1.312751e+01
 1.788609e+00	 7.141900e-01	 1.314130e+01
 1.780065e+00	 7.352267e-01	 1.315221e+01
 1.745833e+00	 7.210877e-01	 1.326792e+01
 1.737190e+00	 7.416679e-01	 1.327283e+01
 1.728284e+00	 7.621913e-01	 1.327607e+01
 1.719115e+00	 7.826530e-01	 1.327739e+01
 1.709683e+00	 8.030481e-01	 1.327718e+01
 1.699988e+00	 8.233717e-01	 1.327597e+01
 1.752680e+00	 7.239155e-01	 1.324440e+01
 1.744003e+00	 7.445764e-01	 1.324979e+01
 1.735062e+00	 7.651803e-01	 1.325334e+01
 1.725856e+00	 7.857222e-01	 1.325501e+01
 1.716387e+00	 8.061973e-01	 1.325526e+01
 1.706655e+00	 8.266006e-01	 1.325469e+01
 1.759526e+00	 7.267433e-01	 1.322095e+01
 1.750815e+00	 7.474849e-01	 1.322692e+01
 1.741839e+00	 7.681692e-01	 1.323088e+01
 1.732598e+00	 7.887914e-01	 1.323295e+01
 1.723092e+00	 8.093465e-01	 1.323367e+01
 1.713322e+00	 8.298295e-01	 1.323369e+01
 1.766372e+00	 7.295711e-01	 1.319769e+01
 1.757628e+00	 7.503934e-01	 1.320434e+01
 1.748617e+00	 7.711582e-01	 1.320880e+01
 1.739340e+00	 7.918606e-01	 1.321133e+01
 1.729797e+00	 8.124957e-01	 1.321251e+01
 1.719988e+00	 8.330584e-01	 1.321304e+01
 1.773219e+00	 7.323989e-01	 1.317474e+01
 1.764440e+00	 7.533019e-01	 1.318219e+01
 1.755394e+00	 7.741472e-01	 1.318724e+01
 1.746081e+00	 7.949299e-01	 1.319026e+01
 1.736501e+00	 8.156449e-01	 1.319187e+01
 1.726655e+00	 8.362873e-01	 1.319283e+01
 1.780065e+00	 7.352267e-01	 1.315221e+01
 1.771253e+00	 7.562104e-01	 1.316056e+01
 1.762172e+00	 7.771362e-01	 1.316628e+01
 1.752823e+00	 7.979991e-01	 1.316982e+01
 1.743206e+00	 8.187941e-01	 1.317183e+01
 1.733321e+00	 8.395162e-01	 1.317310e+01
 1.699988e+00	 8.233717e-01	 1.327597e+01
 1.690032e+00	 8.436189e-01	 1.327017e+01
 1.679815e+00	 8.637848e-01	 1.325776e+01
 1.669337e+00	 8.838645e-01	 1.324157e+01
 1.658599e+00	 9.038530e-01	 1.322415e+01
 1.647603e+00	 9.237454e-01	 1.320761e+01
 1.706655e+00	 8.266006e-01	 1.325469e+01
 1.696660e+00	 8.469272e-01	 1.324952e+01
 1.686402e+00	 8.671722e-01	 1.323749e+01
 1.675883e+00	 8.873306e-01	 1.322144e+01
 1.665103e+00	 9.073975e-01	 1.320392e+01
 1.654064e+00	 9.273679e-01	 1.318706e+01
 1.713322e+00	 8.298295e-01	 1.323369e+01
 1.703287e+00	 8.502355e-01	 1.322909e+01
 1.692990e+00	 8.705596e-01	 1.321744e+01
 1.682429e+00	 8.907967e-01	 1.320155e+01
 1.671608e+00	 9.109420e-01	 1.318397e+01
 1.660525e+00	 9.309905e-01	 1.316684e+01
 1.719988e+00	 8.330584e-01	 1.321304e+01
 1.709915e+00	 8.535438e-01	 1.320895e+01
 1.699577e+00	 8.739470e-01	 1.319765e+01
 1.688976e+00	 8.942629e-01	 1.318192e+01
 1.678112e+00	 9.144865e-01	 1.316429e+01
 1.666987e+00	 9.346130e-01	 1.314692e+01
 1.726655e+00	 8.362873e-01	 1.319283e+01
 1.716542e+00	 8.568521e-01	 1.318914e+01
 1.706165e+00	 8.773344e-01	 1.317813e+01
 1.695522e+00	 8.977290e-01	 1.316254e+01
 1.684616e+00	 9.180311e-01	 1.314485e+01
 1.673448e+00	 9.382355e-01	 1.312723e+01
 1.733321e+00	 8.395162e-01	 1.317310e+01
 1.723170e+00	 8.601604e-01	 1.316968e+01
 1.712752e+00	 8.807218e-01	 1.315889e+01
 1.702069e+00	 9.011951e-01	 1.314338e+01
 1.691121e+00	 9.215756e-01	 1.312562e+01
 1.679909e+00	 9.418580e-01	 1.310773e+01
 1.647603e+00	 9.237454e-01	 1.320761e+01
 1.636349e+00	 9.435368e-01	 1.318971e+01
 1.624840e+00	 9.632224e-01	 1.316759e+01
 1.613075e+00	 9.827972e-01	 1.314143e+01
 1.601057e+00	 1.002256e+00	 1.311046e+01
 1.588787e+00	 1.021595e+00	 1.307277e+01
 1.654064e+00	 9.273679e-01	 1.318706e+01
 1.642766e+00	 9.472370e-01	 1.316901e+01
 1.631212e+00	 9.669997e-01	 1.314721e+01
 1.619401e+00	 9.866513e-01	 1.312176e+01
 1.607336e+00	 1.006187e+00	 1.309182e+01
 1.595018e+00	 1.025601e+00	 1.305539e+01
 1.660525e+00	 9.309905e-01	 1.316684e+01
 1.649184e+00	 9.509371e-01	 1.314864e+01
 1.637583e+00	 9.707771e-01	 1.312709e+01
 1.625727e+00	 9.905054e-01	 1.310224e+01
 1.613614e+00	 1.010117e+00	 1.307320e+01
 1.601248e+00	 1.029608e+00	 1.303790e+01
 1.666987e+00	 9.346130e-01	 1.314692e+01
 1.655601e+00	 9.546373e-01	 1.312855e+01
 1.643955e+00	 9.745544e-01	 1.310716e+01
 1.632052e+00	 9.943595e-01	 1.308279e+01
 1.619893e+00	 1.014048e+00	 1.305451e+01
 1.607479e+00	 1.033614e+00	 1.302021e+01
 1.673448e+00	 9.382355e-01	 1.312723e+01
 1.662018e+00	 9.583374e-01	 1.310866e+01
 1.650327e+00	 9.783318e-01	 1.308735e+01
 1.638378e+00	 9.982136e-01	 1.306333e+01
 1.626172e+00	 1.017978e+00	 1.303566e+01
 1.613709e+00	 1.037620e+00	 1.300224e+01
 1.679909e+00	 9.418580e-01	 1.310773e+01
 1.668435e+00	 9.620375e-01	 1.308889e+01
 1.656699e+00	 9.821091e-01	 1.306755e+01
 1.644704e+00	 1.002068e+00	 1.304374e+01
 1.632450e+00	 1.021908e+00	 1.301655e+01
 1.619940e+00	 1.041626e+00	 1.298390e+01
 1.588787e+00	 1.021595e+00	 1.307277e+01
 1.576267e+00	 1.040808e+00	 1.303686e+01
 1.563499e+00	 1.059892e+00	 1.300850e+01
 1.550485e+00	 1.078840e+00	 1.297920e+01
 1.537227e+00	 1.097650e+00	 1.293824e+01
 1.523727e+00	 1.116314e+00	 1.287424e+01
 1.595018e+00	 1.025601e+00	 1.305539e+01
 1.582449e+00	 1.044890e+00	 1.302022e+01
 1.569631e+00	 1.064048e+00	 1.299150e+01
 1.556566e+00	 1.083071e+00	 1.296089e+01
 1.543255e+00	 1.101954e+00	 1.291781e+01
 1.529702e+00	 1.120692e+00	 1.285511e+01
 1.601248e+00	 1.029608e+00	 1.303790e+01
 1.588630e+00	 1.048972e+00	 1.300339e+01
 1.575762e+00	 1.068205e+00	 1.297431e+01
 1.562646e+00	 1.087302e+00	 1.294243e+01
 1.549284e+00	 1.106259e+00	 1.289723e+01
 1.535678e+00	 1.125070e+00	 1.283772e+01
 1.607479e+00	 1.033614e+00	 1.302021e+01
 1.594812e+00	 1.053053e+00	 1.298631e+01
 1.581894e+00	 1.072361e+00	 1.295686e+01
 1.568726e+00	 1.091533e+00	 1.292368e+01
 1.555312e+00	 1.110563e+00	 1.287633e+01
 1.541653e+00	 1.129448e+00	 1.282151e+01
 1.613709e+00	 1.037620e+00	 1.300224e+01
 1.600993e+00	 1.057135e+00	 1.296887e+01
 1.588025e+00	 1.076518e+00	 1.293901e+01
 1.574807e+00	 1.095763e+00	 1.290452e+01
 1.561340e+00	 1.114868e+00	 1.285563e+01
 1.547628e+00	 1.133825e+00	 1.280595e+01
 1.619940e+00	 1.041626e+00	 1.298390e+01
 1.607175e+00	 1.061216e+00	 1.295098e+01
 1.594156e+00	 1.080674e+00	 1.292068e+01
 1.580887e+00	 1.099994e+00	 1.288481e+01
 1.567369e+00	 1.119172e+00	 1.283586e+01
 1.553604e+00	 1.138203e+00	 1.279050e+01
 1.523727e+00	 1.116314e+00	 1.287424e+01
 1.509987e+00	 1.134831e+00	 1.281351e+01
 1.496010e+00	 1.153193e+00	 1.276539e+01
 1.481799e+00	 1.171398e+00	 1.272078e+01
 1.467355e+00	 1.189441e+00	 1.267163e+01
 1.452683e+00	 1.207317e+00	 1.260835e+01
 1.529702e+00	 1.120692e+00	 1.285511e+01
 1.515909e+00	 1.139281e+00	 1.280023e+01
 1.501877e+00	 1.157716e+00	 1.275522e+01
 1.487610e+00	 1.175992e+00	 1.271174e+01
 1.473110e+00	 1.194105e+00	 1.266153e+01
 1.458380e+00	 1.212051e+00	 1.259695e+01
 1.535678e+00	 1.125070e+00	 1.283772e+01
 1.521830e+00	 1.143731e+00	 1.278795e+01
 1.507744e+00	 1.162238e+00	 1.274550e+01
 1.493421e+00	 1.180586e+00	 1.270279e+01
 1.478864e+00	 1.198770e+00	 1.265192e+01
 1.464076e+00	 1.216786e+00	 1.258614e+01
 1.541653e+00	 1.129448e+00	 1.282151e+01
 1.527752e+00	 1.148182e+00	 1.277609e+01
 1.513610e+00	 1.166760e+00	 1.273562e+01
 1.499232e+00	 1.185180e+00	 1.269332e+01
 1.484618e+00	 1.203434e+00	 1.264211e+01
 1.469773e+00	 1.221521e+00	 1.257538e+01
 1.547628e+00	 1.133825e+00	 1.280595e+01
 1.533673e+00	 1.152632e+00	 1.276407e+01
 1.519477e+00	 1.171283e+00	 1.272497e+01
 1.505043e+00	 1.189773e+00	 1.268272e+01
 1.490373e+00	 1.208099e+00	 1.263114e+01
 1.475470e+00	 1.226255e+00	 1.256407e+01
 1.553604e+00	 1.138203e+00	 1.279050e+01
 1.539595e+00	 1.157082e+00	 1.275134e+01
 1.525344e+00	 1.175805e+00	 1.271298e+01
 1.510853e+00	 1.194367e+00	 1.267040e+01
 1.496127e+00	 1.212763e+00	 1.261840e+01
 1.481167e+00	 1.230990e+00	 1.255163e+01
 1.452683e+00	 1.207317e+00	 1.260835e+01
 1.437784e+00	 1.225022e+00	 1.253205e+01
 1.422662e+00	 1.242551e+00	 1.245100e+01
 1.407320e+00	 1.259901e+00	 1.236650e+01
 1.391761e+00	 1.277068e+00	 1.228147e+01
 1.375989e+00	 1.294046e+00	 1.220014e+01
 1.458380e+00	 1.212051e+00	 1.259695e+01
 1.443422e+00	 1.229826e+00	 1.252089e+01
 1.428241e+00	 1.247424e+00	 1.244212e+01
 1.412839e+00	 1.264842e+00	 1.236086e+01
 1.397219e+00	 1.282076e+00	 1.227899e+01
 1.381385e+00	 1.299121e+00	 1.219970e+01
 1.464076e+00	 1.216786e+00	 1.258614e+01
 1.449061e+00	 1.234630e+00	 1.251056e+01
 1.433820e+00	 1.252297e+00	 1.243415e+01
 1.418358e+00	 1.269783e+00	 1.235609e+01
 1.402677e+00	 1.287084e+00	 1.227723e+01
 1.386781e+00	 1.304196e+00	 1.219978e+01
 1.469773e+00	 1.221521e+00	 1.257538e+01
 1.454699e+00	 1.239434e+00	 1.250056e+01
 1.439399e+00	 1.257169e+00	 1.242666e+01
 1.423877e+00	 1.274724e+00	 1.235181e+01
 1.408135e+00	 1.292092e+00	 1.227589e+01
 1.392177e+00	 1.309270e+00	 1.220010e+01
 1.475470e+00	 1.226255e+00	 1.256407e+01
 1.460338e+00	 1.244238e+00	 1.249038e+01
 1.444978e+00	 1.262042e+00	 1.241919e+01
 1.429396e+00	 1.279664e+00	 1.234764e+01
 1.413593e+00	 1.297100e+00	 1.227461e+01
 1.397573e+00	 1.314345e+00	 1.220038e+01
 1.481167e+00	 1.230990e+00	 1.255163e+01
 1.465976e+00	 1.249042e+00	 1.247950e+01
 1.450558e+00	 1.266915e+00	 1.241128e+01
 1.434915e+00	 1.284605e+00	 1.234315e+01
 1.419051e+00	 1.302108e+00	 1.227306e+01
 1.402969e+00	 1.319420e+00	 1.220033e+01
 1.375989e+00	 1.294046e+00	 1.220014e+01
 1.360006e+00	 1.310833e+00	 1.210886e+01
 1.343817e+00	 1.327425e+00	 1.199690e+01
 1.327425e+00	 1.343817e+00	 1.187364e+01
 1.310833e+00	 1.360006e+00	 1.174814e+01
 1.294046e+00	 1.375989e+00	 1.162866e+01
 1.381385e+00	 1.299121e+00	 1.219970e+01
 1.365340e+00	 1.315974e+00	 1.210920e+01
 1.349087e+00	 1.332630e+00	 1.199740e+01
 1.332630e+00	 1.349087e+00	 1.187389e+01
 1.315974e+00	 1.365340e+00	 1.174798e+01
 1.299121e+00	 1.381385e+00	 1.162816e+01
 1.386781e+00	 1.304196e+00	 1.219978e+01
 1.370673e+00	 1.321114e+00	 1.210992e+01
 1.354357e+00	 1.337836e+00	 1.199833e+01
 1.337836e+00	 1.354357e+00	 1.187473e+01
 1.321114e+00	 1.370673e+00	 1.174855e+01
 1.304196e+00	 1.386781e+00	 1.162843e+01
 1.392177e+00	 1.309270e+00	 1.220010e+01
 1.376006e+00	 1.326255e+00	 1.211081e+01
 1.359627e+00	 1.343042e+00	 1.199950e+01
 1.343042e+00	 1.359627e+00	 1.187593e+01
 1.326255e+00	 1.376006e+00	 1.174958e+01
 1.309270e+00	 1.392177e+00	 1.162916e+01
 1.397573e+00	 1.314345e+00	 1.220038e+01
 1.381340e+00	 1.331395e+00	 1.211161e+01
 1.364897e+00	 1.348247e+00	 1.200067e+01
 1.348247e+00	 1.364897e+00	 1.187725e+01
 1.331395e+00	 1.381340e+00	 1.175080e+01
 1.314345e+00	 1.397573e+00	 1.162998e+01
 1.402969e+00	 1.319420e+00	 1.220033e+01
 1.386673e+00	 1.336536e+00	 1.211207e+01
 1.370166e+00	 1.353453e+00	 1.200158e+01
 1.353453e+00	 1.370166e+00	 1.187841e+01
 1.336536e+00	 1.386673e+00	 1.175189e+01
 1.319420e+00	 1.402969e+00	 1.163054e+01
 1.294046e+00	 1.375989e+00	 1.162866e+01
 1.277068e+00	 1.391761e+00	 1.150824e+01
 1.259901e+00	 1.407320e+00	 1.137916e+01
 1.242551e+00	 1.422662e+00	 1.124582e+01
 1.225022e+00	 1.437784e+00	 1.110989e+01
 1.207317e+00	 1.452683e+00	 1.096979e+01
 1.299121e+00	 1.381385e+00	 1.162816e+01
 1.282076e+00	 1.397219e+00	 1.150780e+01
 1.264842e+00	 1.412839e+00	 1.137922e+01
 1.247424e+00	 1.428241e+00	 1.124659e+01
 1.229826e+00	 1.443422e+00	 1.111133e+01
 1.212051e+00	 1.458380e+00	 1.097155e+01
 1.304196e+00	 1.386781e+00	 1.162843e+01
 1.287084e+00	 1.402677e+00	 1.150803e+01
 1.269783e+00	 1.418358e+00	 1.137977e+01
 1.252297e+00	 1.433820e+00	 1.124772e+01
 1.234630e+00	 1.449061e+00	 1.111313e+01
 1.216786e+00	 1.464076e+00	 1.097389e+01
 1.309270e+00	 1.392177e+00	 1.162916e+01
 1.292092e+00	 1.408135e+00	 1.150855e+01
 1.274724e+00	 1.423877e+00	 1.138042e+01
 1.257169e+00	 1.439399e+00	 1.124881e+01
 1.239434e+00	 1.454699e+00	 1.111491e+01
 1.221521e+00	 1.469773e+00	 1.097650e+01
 1.314345e+00	 1.397573e+00	 1.162998e+01
 1.297100e+00	 1.413593e+00	 1.150895e+01
 1.279664e+00	 1.429396e+00	 1.138073e+01
 1.262042e+00	 1.444978e+00	 1.124944e+01
 1.244238e+00	 1.460338e+00	 1.111628e+01
 1.226255e+00	 1.475470e+00	 1.097905e+01
 1.319420e+00	 1.402969e+00	 1.163054e+01
 1.302108e+00	 1.419051e+00	 1.150882e+01
 1.284605e+00	 1.434915e+00	 1.138026e+01
 1.266915e+00	 1.450558e+00	 1.124915e+01
 1.249042e+00	 1.465976e+00	 1.111684e+01
 1.230990e+00	 1.481167e+00	 1.098119e+01
 1.207317e+00	 1.452683e+00	 1.096979e+01
 1.189441e+00	 1.467355e+00	 1.082956e+01
 1.171398e+00	 1.481799e+00	 1.069108e+01
 1.153193e+00	 1.496010e+00	 1.054653e+01
 1.134831e+00	 1.509987e+00	 1.039758e+01
 1.116314e+00	 1.523727e+00	 1.024913e+01
 1.212051e+00	 1.458380e+00	 1.097155e+01
 1.194105e+00	 1.473110e+00	 1.083165e+01
 1.175992e+00	 1.487610e+00	 1.069315e+01
 1.157716e+00	 1.501877e+00	 1.054872e+01
 1.139281e+00	 1.515909e+00	 1.040099e+01
 1.120692e+00	 1.529702e+00	 1.025423e+01
 1.216786e+00	 1.464076e+00	 1.097389e+01
 1.198770e+00	 1.478864e+00	 1.083468e+01
 1.180586e+00	 1.493421e+00	 1.069577e+01
 1.162238e+00	 1.507744e+00	 1.055156e+01
 1.143731e+00	 1.521830e+00	 1.040511e+01
 1.125070e+00	 1.535678e+00	 1.026005e+01
 1.221521e+00	 1.469773e+00	 1.097650e+01
 1.203434e+00	 1.484618e+00	 1.083823e+01
 1.185180e+00	 1.499232e+00	 1.069817e+01
 1.166760e+00	 1.513610e+00	 1.055429e+01
 1.148182e+00	 1.527752e+00	 1.040919e+01
 1.129448e+00	 1.541653e+00	 1.026584e+01
 1.226255e+00	 1.475470e+00	 1.097905e+01
 1.208099e+00	 1.490373e+00	 1.084070e+01
 1.189773e+00	 1.505043e+00	 1.069957e+01
 1.171283e+00	 1.519477e+00	 1.055616e+01
 1.152632e+00	 1.533673e+00	 1.041249e+01
 1.133825e+00	 1.547628e+00	 1.027085e+01
 1.230990e+00	 1.481167e+00	 1.098119e+01
 1.212763e+00	 1.496127e+00	 1.084119e+01
 1.194367e+00	 1.510853e+00	 1.069923e+01
 1.175805e+00	 1.525344e+00	 1.055646e+01
 1.157082e+00	 1.539595e+00	 1.041428e+01
 1.138203e+00	 1.553604e+00	 1.027437e+01
 1.116314e+00	 1.523727e+00	 1.024913e+01
 1.097650e+00	 1.537227e+00	 1.010604e+01
 1.078840e+00	 1.550485e+00	 9.966832e+00
 1.059892e+00	 1.563499e+00	 9.824413e+00
 1.040808e+00	 1.576267e+00	 9.673946e+00
 1.021595e+00	 1.588787e+00	 9.512898e+00
 1.120692e+00	 1.529702e+00	 1.025423e+01
 1.101954e+00	 1.543255e+00	 1.011143e+01
 1.083071e+00	 1.556566e+00	 9.972162e+00
 1.064048e+00	 1.569631e+00	 9.830171e+00
 1.044890e+00	 1.582449e+00	 9.680771e+00
 1.025601e+00	 1.595018e+00	 9.521631e+00
 1.125070e+00	 1.535678e+00	 1.026005e+01
 1.106259e+00	 1.549284e+00	 1.011772e+01
 1.087302e+00	 1.562646e+00	 9.978180e+00
 1.068205e+00	 1.575762e+00	 9.836512e+00
 1.048972e+00	 1.588630e+00	 9.688146e+00
 1.029608e+00	 1.601248e+00	 9.530913e+00
 1.129448e+00	 1.541653e+00	 1.026584e+01
 1.110563e+00	 1.555312e+00	 1.012425e+01
 1.091533e+00	 1.568726e+00	 9.984240e+00
 1.072361e+00	 1.581894e+00	 9.842808e+00
 1.053053e+00	 1.594812e+00	 9.695454e+00
 1.033614e+00	 1.607479e+00	 9.540134e+00
 1.133825e+00	 1.547628e+00	 1.027085e+01
 1.114868e+00	 1.561340e+00	 1.013023e+01
 1.095763e+00	 1.574807e+00	 9.989702e+00
 1.076518e+00	 1.588025e+00	 9.848433e+00
 1.057135e+00	 1.600993e+00	 9.702081e+00
 1.037620e+00	 1.613709e+00	 9.548690e+00
 1.138203e+00	 1.553604e+00	 1.027437e+01
 1.119172e+00	 1.567369e+00	 1.013480e+01
 1.099994e+00	 1.580887e+00	 9.993929e+00
 1.080674e+00	 1.594156e+00	 9.852766e+00
 1.061216e+00	 1.607175e+00	 9.707418e+00
 1.041626e+00	 1.619940e+00	 9.555976e+00
 1.021595e+00	 1.588787e+00	 9.512898e+00
 1.002256e+00	 1.601057e+00	 9.353237e+00
 9.827972e-01	 1.613075e+00	 9.203224e+00
 9.632224e-01	 1.624840e+00	 9.057404e+00
 9.435368e-01	 1.636349e+00	 8.911561e+00
 9.237454e-01	 1.647603e+00	 8.762514e+00
 1.025601e+00	 1.595018e+00	 9.521631e+00
 1.006187e+00	 1.607336e+00	 9.364090e+00
 9.866513e-01	 1.619401e+00	 9.215634e+00
 9.669997e-01	 1.631212e+00	 9.070845e+00
 9.472370e-01	 1.642766e+00	 8.925559e+00
 9.273679e-01	 1.654064e+00	 8.776663e+00
 1.029608e+00	 1.601248e+00	 9.530913e+00
 1.010117e+00	 1.613614e+00	 9.375473e+00
 9.905054e-01	 1.625727e+00	 9.228531e+00
 9.707771e-01	 1.637583e+00	 9.084729e+00
 9.509371e-01	 1.649184e+00	 8.939980e+00
 9.309905e-01	 1.660525e+00	 8.791260e+00
 1.033614e+00	 1.607479e+00	 9.540134e+00
 1.014048e+00	 1.619893e+00	 9.386786e+00
 9.943595e-01	 1.632052e+00	 9.241329e+00
 9.745544e-01	 1.643955e+00	 9.098487e+00
 9.546373e-01	 1.655601e+00	 8.954274e+00
 9.346130e-01	 1.666987e+00	 8.805782e+00
 1.037620e+00	 1.613709e+00	 9.548690e+00
 1.017978e+00	 1.626172e+00	 9.397431e+00
 9.982136e-01	 1.638378e+00	 9.253441e+00
 9.783318e-01	 1.650327e+00	 9.111548e+00
 9.583374e-01	 1.662018e+00	 8.967892e+00
 9.382355e-01	 1.673448e+00	 8.819702e+00
 1.041626e+00	 1.619940e+00	 9.555976e+00
 1.021908e+00	 1.632450e+00	 9.406813e+00
 1.002068e+00	 1.644704e+00	 9.264283e+00
 9.821091e-01	 1.656699e+00	 9.123344e+00
 9.620375e-01	 1.668435e+00	 8.980284e+00
 9.418580e-01	 1.679909e+00	 8.832495e+00
 9.237454e-01	 1.647603e+00	 8.762514e+00
 9.038530e-01	 1.658599e+00	 8.605373e+00
 8.838645e-01	 1.669337e+00	 8.439726e+00
 8.637848e-01	 1.679815e+00	 8.270199e+00
 8.436189e-01	 1.690032e+00	 8.101850e+00
 8.233717e-01	 1.699988e+00	 7.939999e+00
 9.273679e-01	 1.654064e+00	 8.776663e+00
 9.073975e-01	 1.665103e+00	 8.619855e+00
 8.873306e-01	 1.675883e+00	 8.455149e+00
 8.671722e-01	 1.686402e+00	 8.286990e+00
 8.469272e-01	 1.696660e+00	 8.120244e+00
 8.266006e-01	 1.706655e+00	 7.960029e+00
 9.309905e-01	 1.660525e+00	 8.791260e+00
 9.109420e-01	 1.671608e+00	 8.634847e+00
 8.907967e-01	 1.682429e+00	 8.471133e+00
 8.705596e-01	 1.692990e+00	 8.304360e+00
 8.502355e-01	 1.703287e+00	 8.139176e+00
 8.298295e-01	 1.713322e+00	 7.980468e+00
 9.346130e-01	 1.666987e+00	 8.805782e+00
 9.144865e-01	 1.678112e+00	 8.649846e+00
 8.942629e-01	 1.688976e+00	 8.487190e+00
 8.739470e-01	 1.699577e+00	 8.321824e+00
 8.535438e-01	 1.709915e+00	 8.158157e+00
 8.330584e-01	 1.719988e+00	 8.000814e+00
 9.382355e-01	 1.673448e+00	 8.819702e+00
 9.180311e-01	 1.684616e+00	 8.664348e+00
 8.977290e-01	 1.695522e+00	 8.502826e+00
 8.773344e-01	 1.706165e+00	 8.338895e+00
 8.568521e-01	 1.716542e+00	 8.176694e+00
 8.362873e-01	 1.726655e+00	 8.020562e+00
 9.418580e-01	 1.679909e+00	 8.832495e+00
 9.215756e-01	 1.691121e+00	 8.677846e+00
 9.011951e-01	 1.702069e+00	 8.517547e+00
 8.807218e-01	 1.712752e+00	 8.355081e+00
 8.601604e-01	 1.723170e+00	 8.194292e+00
 8.395162e-01	 1.733321e+00	 8.039205e+00
 8.233717e-01	 1.699988e+00	 7.939999e+00
 8.030481e-01	 1.709683e+00	 7.790904e+00
 7.826530e-01	 1.719115e+00	 7.652201e+00
 7.621913e-01	 1.728284e+00	 7.516090e+00
 7.416679e-01	 1.737190e+00	 7.374340e+00
 7.210877e-01	 1.745833e+00	 7.219539e+00
 8.266006e-01	 1.706655e+00	 7.960029e+00
 8.061973e-01	 1.716387e+00	 7.811529e+00
 7.857222e-01	 1.725856e+00	 7.672184e+00
 7.651803e-01	 1.735062e+00	 7.535311e+00
 7.445764e-01	 1.744003e+00	 7.393781e+00
 7.239155e-01	 1.752680e+00	 7.240639e+00
 8.298295e-01	 1.713322e+00	 7.980468e+00
 8.093465e-01	 1.723092e+00	 7.832420e+00
 7.887914e-01	 1.732598e+00	 7.692361e+00
 7.681692e-01	 1.741839e+00	 7.554695e+00
 7.474849e-01	 1.750815e+00	 7.413372e+00
 7.267433e-01	 1.759526e+00	 7.262101e+00
 8.330584e-01	 1.719988e+00	 8.000814e+00
 8.124957e-01	 1.729797e+00	 7.853067e+00
 7.918606e-01	 1.739340e+00	 7.712222e+00
 7.711582e-01	 1.748617e+00	 7.573741e+00
 7.503934e-01	 1.757628e+00	 7.432633e+00
 7.295711e-01	 1.766372e+00	 7.283427e+00
 8.362873e-01	 1.726655e+00	 8.020562e+00
 8.156449e-01	 1.736501e+00	 7.872954e+00
 7.949299e-01	 1.746081e+00	 7.731250e+00
 7.741472e-01	 1.755394e+00	 7.591947e+00
 7.533019e-01	 1.764440e+00	 7.451082e+00
 7.323989e-01	 1.773219e+00	 7.304115e+00
 8.395162e-01	 1.733321e+00	 8.039205e+00
 8.187941e-01	 1.743206e+00	 7.891563e+00
 7.979991e-01	 1.752823e+00	 7.748928e+00
 7.771362e-01	 1.762172e+00	 7.608803e+00
 7.562104e-01	 1.771253e+00	 7.468231e+00
 7.352267e-01	 1.780065e+00	 7.323661e+00
 7.210877e-01	 1.745833e+00	 7.219539e+00
 7.004556e-01	 1.754213e+00	 7.061390e+00
 6.797763e-01	 1.762330e+00	 6.911160e+00
 6.590548e-01	 1.770183e+00	 6.770816e+00
 6.382956e-01	 1.777774e+00	 6.640383e+00
 6.175037e-01	 1.785102e+00	 6.517881e+00
 7.239155e-01	 1.752680e+00	 7.240639e+00
 7.032025e-01	 1.761092e+00	 7.084697e+00
 6.824421e-01	 1.769241e+00	 6.937108e+00
 6.616393e-01	 1.777125e+00	 6.799455e+00
 6.407988e-01	 1.784746e+00	 6.671274e+00
 6.199253e-01	 1.792103e+00	 6.549991e+00
 7.267433e-01	 1.759526e+00	 7.262101e+00
 7.059494e-01	 1.767972e+00	 7.108591e+00
 6.851079e-01	 1.776152e+00	 6.963664e+00
 6.642238e-01	 1.784067e+00	 6.828518e+00
 6.433019e-01	 1.791717e+00	 6.702188e+00
 6.223469e-01	 1.799103e+00	 6.581486e+00
 7.295711e-01	 1.766372e+00	 7.283427e+00
 7.086962e-01	 1.774851e+00	 7.132603e+00
 6.877737e-01	 1.783063e+00	 6.990384e+00
 6.668083e-01	 1.791009e+00	 6.857578e+00
 6.458050e-01	 1.798689e+00	 6.732707e+00
 6.247685e-01	 1.806104e+00	 6.611953e+00
 7.323989e-01	 1.773219e+00	 7.304115e+00
 7.114431e-01	 1.781730e+00	 7.156260e+00
 6.904395e-01	 1.789974e+00	 7.016818e+00
 6.693929e-01	 1.797951e+00	 6.886200e+00
 6.483081e-01	 1.805661e+00	 6.762405e+00
 6.271901e-01	 1.813104e+00	 6.640966e+00
 7.352267e-01	 1.780065e+00	 7.323661e+00
 7.141900e-01	 1.788609e+00	 7.179083e+00
 6.931053e-01	 1.796885e+00	 7.042506e+00
 6.719774e-01	 1.804893e+00	 6.913938e+00
 6.508112e-01	 1.812632e+00	 6.790845e+00
 6.296116e-01	 1.820104e+00	 6.668090e+00
 6.175037e-01	 1.785102e+00	 6.517881e+00
 5.966837e-01	 1.792169e+00	 6.389111e+00
 5.758403e-01	 1.798974e+00	 6.247820e+00
 5.549781e-01	 1.805519e+00	 6.101024e+00
 5.341017e-01	 1.811805e+00	 5.953941e+00
 5.132156e-01	 1.817831e+00	 5.810130e+00
 6.199253e-01	 1.792103e+00	 6.549991e+00
 5.990237e-01	 1.799197e+00	 6.421563e+00
 5.780985e-01	 1.806029e+00	 6.280444e+00
 5.571545e-01	 1.812600e+00	 6.133730e+00
 5.361962e-01	 1.818910e+00	 5.986636e+00
 5.152282e-01	 1.824960e+00	 5.842641e+00
 6.223469e-01	 1.799103e+00	 6.581486e+00
 6.013636e-01	 1.806225e+00	 6.452620e+00
 5.803567e-01	 1.813084e+00	 6.311055e+00
 5.593309e-01	 1.819680e+00	 6.164273e+00
 5.382907e-01	 1.826015e+00	 6.017793e+00
 5.172409e-01	 1.832089e+00	 5.875321e+00
 6.247685e-01	 1.806104e+00	 6.611953e+00
 6.037035e-01	 1.813253e+00	 6.481897e+00
 5.826149e-01	 1.820139e+00	 6.339359e+00
 5.615073e-01	 1.826761e+00	 6.192510e+00
 5.403852e-01	 1.833120e+00	 6.047471e+00
 5.192535e-01	 1.839218e+00	 5.908474e+00
 6.271901e-01	 1.813104e+00	 6.640966e+00
 6.060435e-01	 1.820281e+00	 6.509000e+00
 5.848731e-01	 1.827194e+00	 6.365055e+00
 5.636836e-01	 1.833841e+00	 6.218285e+00
 5.424798e-01	 1.840225e+00	 6.075711e+00
 5.212661e-01	 1.846346e+00	 5.942386e+00
 6.296116e-01	 1.820104e+00	 6.668090e+00
 6.083834e-01	 1.827310e+00	 6.533523e+00
 5.871313e-01	 1.834248e+00	 6.387826e+00
 5.658600e-01	 1.840922e+00	 6.241426e+00
 5.445743e-01	 1.847330e+00	 6.102537e+00
 5.232787e-01	 1.853475e+00	 5.976552e+00
 5.132156e-01	 1.817831e+00	 5.810130e+00
 4.923244e-01	 1.823600e+00	 5.674611e+00
 4.714324e-01	 1.829113e+00	 5.549420e+00
 4.505441e-01	 1.834369e+00	 5.431752e+00
 4.296638e-01	 1.839372e+00	 5.318024e+00
 4.087957e-01	 1.844122e+00	 5.204146e+00
 5.152282e-01	 1.824960e+00	 5.842641e+00
 4.942551e-01	 1.830752e+00	 5.706752e+00
 4.732812e-01	 1.836286e+00	 5.581236e+00
 4.523110e-01	 1.841563e+00	 5.463500e+00
 4.313487e-01	 1.846585e+00	 5.350146e+00
 4.103988e-01	 1.851354e+00	 5.237247e+00
 5.172409e-01	 1.832089e+00	 5.875321e+00
 4.961858e-01	 1.837903e+00	 5.741985e+00
 4.751299e-01	 1.843459e+00	 5.619707e+00
 4.540778e-01	 1.848757e+00	 5.505336e+00
 4.330337e-01	 1.853799e+00	 5.394152e+00
 4.120020e-01	 1.858586e+00	 5.276802e+00
 5.192535e-01	 1.839218e+00	 5.908474e+00
 4.981164e-01	 1.845054e+00	 5.780835e+00
 4.769787e-01	 1.850632e+00	 5.665491e+00
 4.558446e-01	 1.855950e+00	 5.554165e+00
 4.347187e-01	 1.861012e+00	 5.436565e+00
 4.136051e-01	 1.865818e+00	 5.313673e+00
 5.212661e-01	 1.846346e+00	 5.942386e+00
 5.000471e-01	 1.852206e+00	 5.823773e+00
 4.788274e-01	 1.857805e+00	 5.710205e+00
 4.576115e-01	 1.863144e+00	 5.592906e+00
 4.364036e-01	 1.868225e+00	 5.471916e+00
 4.152082e-01	 1.873050e+00	 5.347401e+00
 5.232787e-01	 1.853475e+00	 5.976552e+00
 5.019778e-01	 1.859357e+00	 5.855788e+00
 4.806762e-01	 1.864977e+00	 5.737312e+00
 4.593783e-01	 1.870337e+00	 5.619322e+00
 4.380886e-01	 1.875438e+00	 5.499984e+00
 4.168113e-01	 1.880282e+00	 5.377570e+00
 4.087957e-01	 1.844122e+00	 5.204146e+00
 3.879441e-01	 1.848621e+00	 5.082411e+00
 3.671131e-01	 1.852871e+00	 4.967143e+00
 3.463068e-01	 1.856872e+00	 4.869259e+00
 3.255293e-01	 1.860627e+00	 4.781316e+00
 3.047844e-01	 1.864137e+00	 4.701017e+00
 4.103988e-01	 1.851354e+00	 5.237247e+00
 3.894655e-01	 1.855871e+00	 5.115531e+00
 3.685528e-01	 1.860137e+00	 4.998087e+00
 3.476649e-01	 1.864154e+00	 4.901173e+00
 3.268059e-01	 1.867923e+00	 4.816973e+00
 3.059796e-01	 1.871448e+00	 4.741113e+00
 4.120020e-01	 1.858586e+00	 5.276802e+00
 3.909868e-01	 1.863120e+00	 5.149984e+00
 3.699924e-01	 1.867403e+00	 5.030195e+00
 3.490230e-01	 1.871435e+00	 4.933758e+00
 3.280824e-01	 1.875220e+00	 4.852083e+00
 3.071749e-01	 1.878758e+00	 4.779256e+00
 4.136051e-01	 1.865818e+00	 5.313673e+00
 3.925082e-01	 1.870370e+00	 5.184072e+00
 3.714321e-01	 1.874669e+00	 5.062760e+00
 3.503810e-01	 1.878717e+00	 4.966270e+00
 3.293590e-01	 1.882516e+00	 4.885930e+00
 3.083701e-01	 1.886068e+00	 4.814813e+00
 4.152082e-01	 1.873050e+00	 5.347401e+00
 3.940295e-01	 1.877619e+00	 5.217181e+00
 3.728718e-01	 1.881935e+00	 5.095086e+00
 3.517391e-01	 1.885999e+00	 4.997969e+00
 3.306356e-01	 1.889813e+00	 4.917804e+00
 3.095653e-01	 1.893379e+00	 4.847151e+00
 4.168113e-01	 1.880282e+00	 5.377570e+00
 3.955509e-01	 1.884869e+00	 5.248710e+00
 3.743114e-01	 1.889201e+00	 5.126452e+00
 3.530972e-01	 1.893281e+00	 5.028123e+00
 3.319122e-01	 1.897110e+00	 4.947000e+00
 3.107606e-01	 1.900689e+00	 4.875645e+00
 3.047844e-01	 1.864137e+00	 4.701017e+00
 2.840761e-01	 1.867405e+00	 4.629867e+00
 2.634081e-01	 1.870432e+00	 4.565961e+00
 2.427843e-01	 1.873221e+00	 4.506862e+00
 2.222083e-01	 1.875773e+00	 4.452264e+00
 2.016836e-01	 1.878091e+00	 4.403472e+00
 3.059796e-01	 1.871448e+00	 4.741113e+00
 2.851901e-01	 1.874728e+00	 4.673272e+00
 2.644411e-01	 1.877767e+00	 4.611361e+00
 2.437364e-01	 1.880567e+00	 4.553311e+00
 2.230797e-01	 1.883129e+00	 4.499184e+00
 2.024745e-01	 1.885456e+00	 4.450644e+00
 3.071749e-01	 1.878758e+00	 4.779256e+00
 2.863041e-01	 1.882051e+00	 4.713629e+00
 2.654741e-01	 1.885102e+00	 4.653026e+00
 2.446885e-01	 1.887913e+00	 4.595694e+00
 2.239511e-01	 1.890485e+00	 4.542003e+00
 2.032654e-01	 1.892821e+00	 4.493922e+00
 3.083701e-01	 1.886068e+00	 4.814813e+00
 2.874181e-01	 1.889375e+00	 4.750404e+00
 2.665070e-01	 1.892437e+00	 4.690512e+00
 2.456406e-01	 1.895259e+00	 4.633646e+00
 2.248225e-01	 1.897841e+00	 4.580429e+00
 2.040564e-01	 1.900186e+00	 4.533077e+00
 3.095653e-01	 1.893379e+00	 4.847151e+00
 2.885322e-01	 1.896698e+00	 4.783063e+00
 2.675400e-01	 1.899773e+00	 4.723374e+00
 2.465927e-01	 1.902605e+00	 4.666803e+00
 2.256939e-01	 1.905197e+00	 4.614171e+00
 2.048473e-01	 1.907551e+00	 4.567880e+00
 3.107606e-01	 1.900689e+00	 4.875645e+00
 2.896462e-01	 1.904021e+00	 4.811073e+00
 2.685730e-01	 1.907108e+00	 4.751167e+00
 2.475448e-01	 1.909951e+00	 4.694801e+00
 2.265653e-01	 1.912553e+00	 4.642935e+00
 2.056382e-01	 1.914916e+00	 4.598101e+00
 2.016836e-01	 1.878091e+00	 4.403472e+00
 1.812139e-01	 1.880176e+00	 4.364379e+00
 1.608025e-01	 1.882032e+00	 4.334968e+00
 1.404528e-01	 1.883660e+00	 4.311758e+00
 1.201681e-01	 1.885063e+00	 4.291194e+00
 9.995171e-02	 1.886243e+00	 4.269276e+00
 2.024745e-01	 1.885456e+00	 4.450644e+00
 1.819245e-01	 1.887550e+00	 4.411748e+00
 1.614331e-01	 1.889412e+00	 4.382313e+00
 1.410036e-01	 1.891047e+00	 4.358738e+00
 1.206394e-01	 1.892455e+00	 4.337353e+00
 1.003437e-01	 1.893640e+00	 4.314070e+00
 2.032654e-01	 1.892821e+00	 4.493922e+00
 1.826351e-01	 1.894923e+00	 4.455602e+00
 1.620637e-01	 1.896793e+00	 4.426635e+00
 1.415544e-01	 1.898434e+00	 4.403249e+00
 1.211106e-01	 1.899847e+00	 4.381616e+00
 1.007356e-01	 1.901037e+00	 4.357506e+00
 2.040564e-01	 1.900186e+00	 4.533077e+00
 1.833458e-01	 1.902296e+00	 4.495766e+00
 1.626943e-01	 1.904173e+00	 4.467805e+00
 1.421052e-01	 1.905821e+00	 4.445197e+00
 1.215819e-01	 1.907240e+00	 4.423912e+00
 1.011276e-01	 1.908434e+00	 4.399527e+00
 2.048473e-01	 1.907551e+00	 4.567880e+00
 1.840564e-01	 1.909669e+00	 4.532067e+00
 1.633249e-01	 1.911554e+00	 4.505690e+00
 1.426560e-01	 1.913207e+00	 4.484487e+00
 1.220531e-01	 1.914632e+00	 4.464169e+00
 1.015196e-01	 1.915831e+00	 4.440076e+00
 2.056382e-01	 1.914916e+00	 4.598101e+00
 1.847671e-01	 1.917042e+00	 4.564325e+00
 1.639555e-01	 1.918934e+00	 4.540159e+00
 1.432068e-01	 1.920594e+00	 4.521020e+00
 1.225244e-01	 1.922025e+00	 4.502315e+00
 1.019115e-01	 1.923228e+00	 4.479094e+00
 9.995171e-02	 1.886243e+00	 4.269276e+00
 7.980665e-02	 1.887202e+00	 4.244754e+00
 5.973601e-02	 1.887944e+00	 4.222537e+00
 3.974277e-02	 1.888471e+00	 4.206098e+00
 1.982983e-02	 1.888785e+00	 4.197042e+00
 0.000000e+00	 1.888889e+00	 4.194818e+00
 1.003437e-01	 1.893640e+00	 4.314070e+00
 8.011962e-02	 1.894603e+00	 4.287768e+00
 5.997027e-02	 1.895348e+00	 4.263660e+00
 3.989862e-02	 1.895877e+00	 4.245430e+00
 1.990759e-02	 1.896192e+00	 4.234922e+00
 0.000000e+00	 1.896296e+00	 4.231858e+00
 1.007356e-01	 1.901037e+00	 4.357506e+00
 8.043258e-02	 1.902004e+00	 4.329895e+00
 6.020453e-02	 1.902751e+00	 4.304250e+00
 4.005448e-02	 1.903282e+00	 4.284391e+00
 1.998536e-02	 1.903599e+00	 4.272333e+00
 0.000000e+00	 1.903704e+00	 4.268000e+00
 1.011276e-01	 1.908434e+00	 4.399527e+00
 8.074555e-02	 1.909405e+00	 4.371087e+00
 6.043879e-02	 1.910155e+00	 4.344267e+00
 4.021033e-02	 1.910688e+00	 4.322950e+00
 2.006312e-02	 1.911006e+00	 4.309248e+00
 0.000000e+00	 1.911111e+00	 4.303224e+00
 1.015196e-01	 1.915831e+00	 4.440076e+00
 8.105852e-02	 1.916805e+00	 4.411296e+00
 6.067305e-02	 1.917559e+00	 4.383671e+00
 4.036619e-02	 1.918094e+00	 4.361073e+00
 2.014088e-02	 1.918413e+00	 4.345643e+00
 0.000000e+00	 1.918519e+00	 4.337515e+00
 1.019115e-01	 1.923228e+00	 4.479094e+00
 8.137149e-02	 1.924206e+00	 4.450471e+00
 6.090730e-02	 1.924963e+00	 4.422421e+00
 4.052204e-02	 1.925500e+00	 4.398730e+00
 2.021865e-02	 1.925820e+00	 4.381495e+00
 0.000000e+00	 1.925926e+00	 4.370856e+00
 1.925926e+00	 0.000000e+00	 1.274173e+01
 1.925820e+00	 2.021865e-02	 1.275167e+01
 1.925500e+00	 4.052204e-02	 1.275843e+01
 1.924963e+00	 6.090730e-02	 1.276295e+01
 1.924206e+00	 8.137149e-02	 1.276639e+01
 1.923228e+00	 1.019115e-01	 1.277008e+01
 1.933333e+00	 0.000000e+00	 1.271431e+01
 1.933227e+00	 2.029641e-02	 1.272494e+01
 1.932905e+00	 4.067789e-02	 1.273236e+01
 1.932366e+00	 6.114156e-02	 1.273743e+01
 1.931607e+00	 8.168445e-02	 1.274118e+01
 1.930625e+00	 1.023035e-01	 1.274482e+01
 1.940741e+00	 0.000000e+00	 1.268791e+01
 1.940634e+00	 2.037418e-02	 1.269876e+01
 1.940311e+00	 4.083375e-02	 1.270663e+01
 1.939770e+00	 6.137582e-02	 1.271219e+01
 1.939008e+00	 8.199742e-02	 1.271626e+01
 1.938022e+00	 1.026955e-01	 1.271985e+01
 1.948148e+00	 0.000000e+00	 1.266264e+01
 1.948041e+00	 2.045194e-02	 1.267316e+01
 1.947717e+00	 4.098960e-02	 1.268122e+01
 1.947174e+00	 6.161008e-02	 1.268719e+01
 1.946409e+00	 8.231039e-02	 1.269159e+01
 1.945419e+00	 1.030875e-01	 1.269509e+01
 1.955556e+00	 0.000000e+00	 1.263859e+01
 1.955448e+00	 2.052970e-02	 1.264819e+01
 1.955123e+00	 4.114546e-02	 1.265614e+01
 1.954577e+00	 6.184434e-02	 1.266239e+01
 1.953809e+00	 8.262336e-02	 1.266709e+01
 1.952816e+00	 1.034794e-01	 1.267048e+01
 1.962963e+00	 0.000000e+00	 1.261587e+01
 1.962855e+00	 2.060747e-02	 1.262390e+01
 1.962528e+00	 4.130131e-02	 1.263136e+01
 1.961981e+00	 6.207860e-02	 1.263776e+01
 1.961210e+00	 8.293632e-02	 1.264271e+01
 1.960213e+00	 1.038714e-01	 1.264595e+01
 1.923228e+00	 1.019115e-01	 1.277008e+01
 1.922025e+00	 1.225244e-01	 1.277523e+01
 1.920594e+00	 1.432068e-01	 1.278167e+01
 1.918934e+00	 1.639555e-01	 1.278880e+01
 1.917042e+00	 1.847671e-01	 1.279600e+01
 1.914916e+00	 2.056382e-01	 1.280259e+01
 1.930625e+00	 1.023035e-01	 1.274482e+01
 1.929417e+00	 1.229956e-01	 1.274984e+01
 1.927981e+00	 1.437576e-01	 1.275639e+01
 1.926315e+00	 1.645861e-01	 1.276379e+01
 1.924416e+00	 1.854777e-01	 1.277135e+01
 1.922281e+00	 2.064291e-01	 1.277832e+01
 1.938022e+00	 1.026955e-01	 1.271985e+01
 1.936809e+00	 1.234669e-01	 1.272467e+01
 1.935368e+00	 1.443084e-01	 1.273124e+01
 1.933695e+00	 1.652166e-01	 1.273883e+01
 1.931789e+00	 1.861884e-01	 1.274669e+01
 1.929646e+00	 2.072200e-01	 1.275403e+01
 1.945419e+00	 1.030875e-01	 1.269509e+01
 1.944202e+00	 1.239381e-01	 1.269965e+01
 1.942755e+00	 1.448592e-01	 1.270617e+01
 1.941076e+00	 1.658472e-01	 1.271389e+01
 1.939162e+00	 1.868990e-01	 1.272204e+01
 1.937011e+00	 2.080109e-01	 1.272981e+01
 1.952816e+00	 1.034794e-01	 1.267048e+01
 1.951594e+00	 1.244094e-01	 1.267470e+01
 1.950142e+00	 1.454100e-01	 1.268113e+01
 1.948456e+00	 1.664778e-01	 1.268896e+01
 1.946535e+00	 1.876096e-01	 1.269743e+01
 1.944376e+00	 2.088018e-01	 1.270572e+01
 1.960213e+00	 1.038714e-01	 1.264595e+01
 1.958987e+00	 1.248806e-01	 1.264978e+01
 1.957529e+00	 1.459607e-01	 1.265607e+01
 1.955837e+00	 1.671084e-01	 1.266402e+01
 1.953909e+00	 1.883203e-01	 1.267287e+01
 1.951741e+00	 2.095928e-01	 1.268184e+01
 1.914916e+00	 2.056382e-01	 1.280259e+01
 1.912553e+00	 2.265653e-01	 1.280908e+01
 1.909951e+00	 2.475448e-01	 1.281695e+01
 1.907108e+00	 2.685730e-01	 1.282665e+01
 1.904021e+00	 2.896462e-01	 1.283822e+01
 1.900689e+00	 3.107606e-01	 1.285125e+01
 1.922281e+00	 2.064291e-01	 1.277832e+01
 1.919909e+00	 2.274367e-01	 1.278511e+01
 1.917297e+00	 2.484969e-01	 1.279316e+01
 1.914443e+00	 2.696060e-01	 1.280290e+01
 1.911344e+00	 2.907602e-01	 1.281442e+01
 1.907999e+00	 3.119558e-01	 1.282732e+01
 1.929646e+00	 2.072200e-01	 1.275403e+01
 1.927265e+00	 2.283081e-01	 1.276117e+01
 1.924643e+00	 2.494490e-01	 1.276944e+01
 1.921778e+00	 2.706389e-01	 1.277931e+01
 1.918667e+00	 2.918742e-01	 1.279088e+01
 1.915310e+00	 3.131510e-01	 1.280376e+01
 1.937011e+00	 2.080109e-01	 1.272981e+01
 1.934621e+00	 2.291795e-01	 1.273736e+01
 1.931989e+00	 2.504011e-01	 1.274595e+01
 1.929113e+00	 2.716719e-01	 1.275603e+01
 1.925990e+00	 2.929883e-01	 1.276774e+01
 1.922620e+00	 3.143463e-01	 1.278069e+01
 1.944376e+00	 2.088018e-01	 1.270572e+01
 1.941977e+00	 2.300509e-01	 1.271383e+01
 1.939335e+00	 2.513532e-01	 1.272284e+01
 1.936448e+00	 2.727049e-01	 1.273323e+01
 1.933314e+00	 2.941023e-01	 1.274513e+01
 1.929930e+00	 3.155415e-01	 1.275819e+01
 1.951741e+00	 2.095928e-01	 1.268184e+01
 1.949333e+00	 2.309223e-01	 1.269069e+01
 1.946681e+00	 2.523052e-01	 1.270026e+01
 1.943783e+00	 2.737379e-01	 1.271105e+01
 1.940637e+00	 2.952163e-01	 1.272321e+01
 1.937241e+00	 3.167367e-01	 1.273638e+01
 1.900689e+00	 3.107606e-01	 1.285125e+01
 1.897110e+00	 3.319122e-01	 1.286482e+01
 1.893281e+00	 3.530972e-01	 1.287783e+01
 1.889201e+00	 3.743114e-01	 1.288850e+01
 1.884869e+00	 3.955509e-01	 1.289800e+01
 1.880282e+00	 4.168113e-01	 1.291086e+01
 1.907999e+00	 3.119558e-01	 1.282732e+01
 1.904406e+00	 3.331888e-01	 1.284072e+01
 1.900563e+00	 3.544552e-01	 1.285352e+01
 1.896467e+00	 3.757511e-01	 1.286400e+01
 1.892118e+00	 3.970722e-01	 1.287352e+01
 1.887513e+00	 4.184144e-01	 1.288630e+01
 1.915310e+00	 3.131510e-01	 1.280376e+01
 1.911703e+00	 3.344654e-01	 1.281709e+01
 1.907845e+00	 3.558133e-01	 1.282971e+01
 1.903734e+00	 3.771907e-01	 1.283996e+01
 1.899368e+00	 3.985936e-01	 1.284933e+01
 1.894745e+00	 4.200176e-01	 1.286174e+01
 1.922620e+00	 3.143463e-01	 1.278069e+01
 1.918999e+00	 3.357420e-01	 1.279399e+01
 1.915127e+00	 3.571714e-01	 1.280645e+01
 1.911000e+00	 3.786304e-01	 1.281646e+01
 1.906617e+00	 4.001149e-01	 1.282559e+01
 1.901977e+00	 4.216207e-01	 1.283743e+01
 1.929930e+00	 3.155415e-01	 1.275819e+01
 1.926296e+00	 3.370185e-01	 1.277150e+01
 1.922408e+00	 3.585294e-01	 1.278384e+01
 1.918266e+00	 3.800701e-01	 1.279362e+01
 1.913867e+00	 4.016363e-01	 1.280244e+01
 1.909209e+00	 4.232238e-01	 1.281360e+01
 1.937241e+00	 3.167367e-01	 1.273638e+01
 1.933593e+00	 3.382951e-01	 1.274969e+01
 1.929690e+00	 3.598875e-01	 1.276192e+01
 1.925532e+00	 3.815097e-01	 1.277151e+01
 1.921116e+00	 4.031576e-01	 1.278004e+01
 1.916441e+00	 4.248269e-01	 1.279050e+01
 1.880282e+00	 4.168113e-01	 1.291086e+01
 1.875438e+00	 4.380886e-01	 1.292718e+01
 1.870337e+00	 4.593783e-01	 1.294405e+01
 1.864977e+00	 4.806762e-01	 1.296104e+01
 1.859357e+00	 5.019778e-01	 1.297767e+01
 1.853475e+00	 5.232787e-01	 1.299344e+01
 1.887513e+00	 4.184144e-01	 1.288630e+01
 1.882652e+00	 4.397735e-01	 1.290245e+01
 1.877531e+00	 4.611452e-01	 1.291910e+01
 1.872150e+00	 4.825250e-01	 1.293569e+01
 1.866509e+00	 5.039085e-01	 1.295161e+01
 1.860604e+00	 5.252913e-01	 1.296630e+01
 1.894745e+00	 4.200176e-01	 1.286174e+01
 1.889865e+00	 4.414585e-01	 1.287744e+01
 1.884725e+00	 4.629120e-01	 1.289379e+01
 1.879323e+00	 4.843737e-01	 1.291014e+01
 1.873660e+00	 5.058392e-01	 1.292583e+01
 1.867733e+00	 5.273039e-01	 1.294021e+01
 1.901977e+00	 4.216207e-01	 1.283743e+01
 1.897078e+00	 4.431434e-01	 1.285245e+01
 1.891918e+00	 4.646788e-01	 1.286840e+01
 1.886496e+00	 4.862225e-01	 1.288456e+01
 1.880811e+00	 5.077699e-01	 1.290024e+01
 1.874861e+00	 5.293165e-01	 1.291481e+01
 1.909209e+00	 4.232238e-01	 1.281360e+01
 1.904291e+00	 4.448284e-01	 1.282780e+01
 1.899112e+00	 4.664457e-01	 1.284319e+01
 1.893669e+00	 4.880712e-01	 1.285907e+01
 1.887963e+00	 5.097006e-01	 1.287479e+01
 1.881990e+00	 5.313291e-01	 1.288970e+01
 1.916441e+00	 4.248269e-01	 1.279050e+01
 1.911504e+00	 4.465133e-01	 1.280378e+01
 1.906305e+00	 4.682125e-01	 1.281843e+01
 1.900842e+00	 4.899200e-01	 1.283384e+01
 1.895114e+00	 5.116312e-01	 1.284939e+01
 1.889119e+00	 5.333417e-01	 1.286451e+01
 1.853475e+00	 5.232787e-01	 1.299344e+01
 1.847330e+00	 5.445743e-01	 1.300937e+01
 1.840922e+00	 5.658600e-01	 1.302531e+01
 1.834248e+00	 5.871313e-01	 1.304120e+01
 1.827310e+00	 6.083834e-01	 1.305738e+01
 1.820104e+00	 6.296116e-01	 1.307451e+01
 1.860604e+00	 5.252913e-01	 1.296630e+01
 1.854435e+00	 5.466688e-01	 1.298125e+01
 1.848002e+00	 5.680364e-01	 1.299829e+01
 1.841303e+00	 5.893895e-01	 1.301501e+01
 1.834338e+00	 6.107233e-01	 1.303149e+01
 1.827105e+00	 6.320332e-01	 1.304845e+01
 1.867733e+00	 5.273039e-01	 1.294021e+01
 1.861541e+00	 5.487633e-01	 1.295418e+01
 1.855083e+00	 5.702128e-01	 1.296977e+01
 1.848358e+00	 5.916477e-01	 1.298750e+01
 1.841366e+00	 6.130633e-01	 1.300485e+01
 1.834105e+00	 6.344548e-01	 1.302200e+01
 1.874861e+00	 5.293165e-01	 1.291481e+01
 1.868646e+00	 5.508578e-01	 1.292847e+01
 1.862163e+00	 5.723892e-01	 1.294265e+01
 1.855413e+00	 5.939059e-01	 1.295856e+01
 1.848394e+00	 6.154032e-01	 1.297681e+01
 1.841106e+00	 6.368764e-01	 1.299476e+01
 1.881990e+00	 5.313291e-01	 1.288970e+01
 1.875751e+00	 5.529523e-01	 1.290344e+01
 1.869244e+00	 5.745656e-01	 1.291683e+01
 1.862468e+00	 5.961641e-01	 1.293106e+01
 1.855422e+00	 6.177432e-01	 1.294735e+01
 1.848106e+00	 6.392980e-01	 1.296631e+01
 1.889119e+00	 5.333417e-01	 1.286451e+01
 1.882856e+00	 5.550469e-01	 1.287843e+01
 1.876324e+00	 5.767420e-01	 1.289146e+01
 1.869522e+00	 5.984223e-01	 1.290472e+01
 1.862450e+00	 6.200831e-01	 1.291937e+01
 1.855106e+00	 6.417196e-01	 1.293673e+01
 1.820104e+00	 6.296116e-01	 1.307451e+01
 1.812632e+00	 6.508112e-01	 1.309292e+01
 1.804893e+00	 6.719774e-01	 1.311108e+01
 1.796885e+00	 6.931053e-01	 1.312751e+01
 1.788609e+00	 7.141900e-01	 1.314130e+01
 1.780065e+00	 7.352267e-01	 1.315221e+01
 1.827105e+00	 6.320332e-01	 1.304845e+01
 1.819604e+00	 6.533144e-01	 1.306679e+01
 1.811834e+00	 6.745619e-01	 1.308545e+01
 1.803796e+00	 6.957711e-01	 1.310276e+01
 1.795489e+00	 7.169369e-01	 1.311769e+01
 1.786912e+00	 7.380545e-01	 1.312983e+01
 1.834105e+00	 6.344548e-01	 1.302200e+01
 1.826575e+00	 6.558175e-01	 1.304046e+01
 1.818776e+00	 6.771465e-01	 1.305966e+01
 1.810707e+00	 6.984369e-01	 1.307787e+01
 1.802368e+00	 7.196838e-01	 1.309397e+01
 1.793758e+00	 7.408823e-01	 1.310747e+01
 1.841106e+00	 6.368764e-01	 1.299476e+01
 1.833547e+00	 6.583206e-01	 1.301377e+01
 1.825718e+00	 6.797310e-01	 1.303376e+01
 1.817618e+00	 7.011026e-01	 1.305301e+01
 1.809247e+00	 7.224307e-01	 1.307037e+01
 1.800604e+00	 7.437101e-01	 1.308530e+01
 1.848106e+00	 6.392980e-01	 1.296631e+01
 1.840519e+00	 6.608237e-01	 1.298656e+01
 1.832660e+00	 6.823155e-01	 1.300778e+01
 1.824529e+00	 7.037684e-01	 1.302833e+01
 1.816126e+00	 7.251776e-01	 1.304709e+01
 1.807451e+00	 7.465379e-01	 1.306351e+01
 1.855106e+00	 6.417196e-01	 1.293673e+01
 1.847490e+00	 6.633268e-01	 1.295866e+01
 1.839602e+00	 6.849000e-01	 1.298174e+01
 1.831440e+00	 7.064342e-01	 1.300397e+01
 1.823006e+00	 7.279244e-01	 1.302434e+01
 1.814297e+00	 7.493657e-01	 1.304225e+01
 1.780065e+00	 7.352267e-01	 1.315221e+01
 1.771253e+00	 7.562104e-01	 1.316056e+01
 1.762172e+00	 7.771362e-01	 1.316628e+01
 1.752823e+00	 7.979991e-01	 1.316982e+01
 1.743206e+00	 8.187941e-01	 1.317183e+01
 1.733321e+00	 8.395162e-01	 1.317310e+01
 1.786912e+00	 7.380545e-01	 1.312983e+01
 1.778065e+00	 7.591189e-01	 1.313923e+01
 1.768950e+00	 7.801252e-01	 1.314575e+01
 1.759565e+00	 8.010683e-01	 1.314989e+01
 1.749911e+00	 8.219433e-01	 1.315231e+01
 1.739988e+00	 8.427451e-01	 1.315384e+01
 1.793758e+00	 7.408823e-01	 1.310747e+01
 1.784878e+00	 7.620274e-01	 1.311801e+01
 1.775727e+00	 7.831142e-01	 1.312548e+01
 1.766306e+00	 8.041375e-01	 1.313034e+01
 1.756615e+00	 8.250925e-01	 1.313328e+01
 1.746655e+00	 8.459740e-01	 1.313506e+01
 1.800604e+00	 7.437101e-01	 1.308530e+01
 1.791690e+00	 7.649359e-01	 1.309706e+01
 1.782505e+00	 7.861032e-01	 1.310557e+01
 1.773048e+00	 8.072068e-01	 1.311128e+01
 1.763320e+00	 8.282417e-01	 1.311479e+01
 1.753321e+00	 8.492029e-01	 1.311685e+01
 1.807451e+00	 7.465379e-01	 1.306351e+01
 1.798503e+00	 7.678444e-01	 1.307651e+01
 1.789282e+00	 7.890921e-01	 1.308614e+01
 1.779789e+00	 8.102760e-01	 1.309277e+01
 1.770024e+00	 8.313909e-01	 1.309691e+01
 1.759988e+00	 8.524319e-01	 1.309924e+01
 1.814297e+00	 7.493657e-01	 1.304225e+01
 1.805315e+00	 7.707529e-01	 1.305648e+01
 1.796060e+00	 7.920811e-01	 1.306727e+01
 1.786531e+00	 8.133452e-01	 1.307487e+01
 1.776729e+00	 8.345401e-01	 1.307968e+01
 1.766655e+00	 8.556608e-01	 1.308229e+01
 1.733321e+00	 8.395162e-01	 1.317310e+01
 1.723170e+00	 8.601604e-01	 1.316968e+01
 1.712752e+00	 8.807218e-01	 1.315889e+01
 1.702069e+00	 9.011951e-01	 1.314338e+01
 1.691121e+00	 9.215756e-01	 1.312562e+01
 1.679909e+00	 9.418580e-01	 1.310773e+01
 1.739988e+00	 8.427451e-01	 1.315384e+01
 1.729798e+00	 8.634688e-01	 1.315061e+01
 1.719340e+00	 8.841091e-01	 1.313999e+01
 1.708615e+00	 9.046613e-01	 1.312455e+01
 1.697625e+00	 9.251201e-01	 1.310670e+01
 1.686370e+00	 9.454806e-01	 1.308851e+01
 1.746655e+00	 8.459740e-01	 1.313506e+01
 1.736425e+00	 8.667771e-01	 1.313200e+01
 1.725927e+00	 8.874965e-01	 1.312154e+01
 1.715162e+00	 9.081274e-01	 1.310616e+01
 1.704129e+00	 9.286646e-01	 1.308821e+01
 1.692831e+00	 9.491031e-01	 1.306970e+01
 1.753321e+00	 8.492029e-01	 1.311685e+01
 1.743053e+00	 8.700854e-01	 1.311392e+01
 1.732515e+00	 8.908839e-01	 1.310359e+01
 1.721708e+00	 9.115935e-01	 1.308825e+01
 1.710634e+00	 9.322091e-01	 1.307013e+01
 1.699293e+00	 9.527256e-01	 1.305120e+01
 1.759988e+00	 8.524319e-01	 1.309924e+01
 1.749680e+00	 8.733937e-01	 1.309643e+01
 1.739102e+00	 8.942713e-01	 1.308618e+01
 1.728254e+00	 9.150597e-01	 1.307080e+01
 1.717138e+00	 9.357537e-01	 1.305243e+01
 1.705754e+00	 9.563482e-01	 1.303294e+01
 1.766655e+00	 8.556608e-01	 1.308229e+01
 1.756308e+00	 8.767020e-01	 1.307955e+01
 1.745690e+00	 8.976587e-01	 1.306934e+01
 1.734801e+00	 9.185258e-01	 1.305383e+01
 1.723642e+00	 9.392982e-01	 1.303506e+01
 1.712215e+00	 9.599707e-01	 1.301481e+01
 1.679909e+00	 9.418580e-01	 1.310773e+01
 1.668435e+00	 9.620375e-01	 1.308889e+01
 1.656699e+00	 9.821091e-01	 1.306755e+01
 1.644704e+00	 1.002068e+00	 1.304374e+01
 1.632450e+00	 1.021908e+00	 1.301655e+01
 1.619940e+00	 1.041626e+00	 1.298390e+01
 1.686370e+00	 9.454806e-01	 1.308851e+01
 1.674852e+00	 9.657377e-01	 1.306935e+01
 1.663071e+00	 9.858864e-01	 1.304787e+01
 1.651030e+00	 1.005922e+00	 1.302415e+01
 1.638729e+00	 1.025839e+00	 1.299730e+01
 1.626170e+00	 1.045633e+00	 1.296530e+01
 1.692831e+00	 9.491031e-01	 1.306970e+01
 1.681269e+00	 9.694378e-01	 1.305014e+01
 1.669443e+00	 9.896638e-01	 1.302840e+01
 1.657355e+00	 1.009776e+00	 1.300462e+01
 1.645008e+00	 1.029769e+00	 1.297800e+01
 1.632401e+00	 1.049639e+00	 1.294658e+01
 1.699293e+00	 9.527256e-01	 1.305120e+01
 1.687686e+00	 9.731380e-01	 1.303112e+01
 1.675815e+00	 9.934411e-01	 1.300897e+01
 1.663681e+00	 1.013630e+00	 1.298499e+01
 1.651286e+00	 1.033700e+00	 1.295849e+01
 1.638632e+00	 1.053645e+00	 1.292761e+01
 1.705754e+00	 9.563482e-01	 1.303294e+01
 1.694103e+00	 9.768381e-01	 1.301214e+01
 1.682187e+00	 9.972185e-01	 1.298941e+01
 1.670007e+00	 1.017484e+00	 1.296509e+01
 1.657565e+00	 1.037630e+00	 1.293860e+01
 1.644862e+00	 1.057651e+00	 1.290825e+01
 1.712215e+00	 9.599707e-01	 1.301481e+01
 1.700520e+00	 9.805383e-01	 1.299307e+01
 1.688559e+00	 1.000996e+00	 1.296955e+01
 1.676333e+00	 1.021338e+00	 1.294472e+01
 1.663844e+00	 1.041561e+00	 1.291818e+01
 1.651093e+00	 1.061658e+00	 1.288838e+01
 1.619940e+00	 1.041626e+00	 1.298390e+01
 1.607175e+00	 1.061216e+00	 1.295098e+01
 1.594156e+00	 1.080674e+00	 1.292068e+01
 1.580887e+00	 1.099994e+00	 1.288481e+01
 1.567369e+00	 1.119172e+00	 1.283586e+01
 1.553604e+00	 1.138203e+00	 1.279050e+01
 1.626170e+00	 1.045633e+00	 1.296530e+01
 1.613356e+00	 1.065298e+00	 1.293279e+01
 1.600288e+00	 1.084830e+00	 1.290200e+01
 1.586967e+00	 1.104225e+00	 1.286473e+01
 1.573397e+00	 1.123477e+00	 1.281701e+01
 1.559579e+00	 1.142581e+00	 1.277527e+01
 1.632401e+00	 1.049639e+00	 1.294658e+01
 1.619537e+00	 1.069380e+00	 1.291444e+01
 1.606419e+00	 1.088987e+00	 1.288319e+01
 1.593048e+00	 1.108456e+00	 1.284454e+01
 1.579425e+00	 1.127781e+00	 1.279916e+01
 1.565555e+00	 1.146958e+00	 1.276049e+01
 1.638632e+00	 1.053645e+00	 1.292761e+01
 1.625719e+00	 1.073461e+00	 1.289586e+01
 1.612550e+00	 1.093143e+00	 1.286417e+01
 1.599128e+00	 1.112686e+00	 1.282425e+01
 1.585454e+00	 1.132086e+00	 1.278199e+01
 1.571530e+00	 1.151336e+00	 1.274580e+01
 1.644862e+00	 1.057651e+00	 1.290825e+01
 1.631900e+00	 1.077543e+00	 1.287695e+01
 1.618682e+00	 1.097300e+00	 1.284486e+01
 1.605208e+00	 1.116917e+00	 1.280457e+01
 1.591482e+00	 1.136390e+00	 1.276518e+01
 1.577505e+00	 1.155714e+00	 1.273088e+01
 1.651093e+00	 1.061658e+00	 1.288838e+01
 1.638082e+00	 1.081624e+00	 1.285759e+01
 1.624813e+00	 1.101456e+00	 1.282517e+01
 1.611289e+00	 1.121148e+00	 1.278545e+01
 1.597510e+00	 1.140695e+00	 1.274844e+01
 1.583481e+00	 1.160092e+00	 1.271540e+01
 1.553604e+00	 1.138203e+00	 1.279050e+01
 1.539595e+00	 1.157082e+00	 1.275134e+01
 1.525344e+00	 1.175805e+00	 1.271298e+01
 1.510853e+00	 1.194367e+00	 1.267040e+01
 1.496127e+00	 1.212763e+00	 1.261840e+01
 1.481167e+00	 1.230990e+00	 1.255163e+01
 1.559579e+00	 1.142581e+00	 1.277527e+01
 1.545516e+00	 1.161533e+00	 1.273819e+01
 1.531210e+00	 1.180327e+00	 1.270018e+01
 1.516664e+00	 1.198961e+00	 1.265714e+01
 1.501881e+00	 1.217428e+00	 1.260484e+01
 1.486864e+00	 1.235724e+00	 1.253896e+01
 1.565555e+00	 1.146958e+00	 1.276049e+01
 1.551438e+00	 1.165983e+00	 1.272502e+01
 1.537077e+00	 1.184850e+00	 1.268720e+01
 1.522475e+00	 1.203554e+00	 1.264378e+01
 1.507636e+00	 1.222092e+00	 1.259147e+01
 1.492560e+00	 1.240459e+00	 1.252694e+01
 1.571530e+00	 1.151336e+00	 1.274580e+01
 1.557359e+00	 1.170433e+00	 1.271147e+01
 1.542944e+00	 1.189372e+00	 1.267363e+01
 1.528286e+00	 1.208148e+00	 1.262988e+01
 1.513390e+00	 1.226757e+00	 1.257781e+01
 1.498257e+00	 1.245193e+00	 1.251507e+01
 1.577505e+00	 1.155714e+00	 1.273088e+01
 1.563281e+00	 1.174883e+00	 1.269718e+01
 1.548810e+00	 1.193894e+00	 1.265908e+01
 1.534097e+00	 1.212742e+00	 1.261500e+01
 1.519144e+00	 1.231421e+00	 1.256340e+01
 1.503954e+00	 1.249928e+00	 1.250284e+01
 1.583481e+00	 1.160092e+00	 1.271540e+01
 1.569202e+00	 1.179334e+00	 1.268179e+01
 1.554677e+00	 1.198417e+00	 1.264318e+01
 1.539908e+00	 1.217336e+00	 1.259875e+01
 1.524899e+00	 1.236086e+00	 1.254779e+01
 1.509651e+00	 1.254663e+00	 1.248975e+01
 1.481167e+00	 1.230990e+00	 1.255163e+01
 1.465976e+00	 1.249042e+00	 1.247950e+01
 1.450558e+00	 1.266915e+00	 1.241128e+01
 1.434915e+00	 1.284605e+00	 1.234315e+01
 1.419051e+00	 1.302108e+00	 1.227306e+01
 1.402969e+00	 1.319420e+00	 1.220033e+01
 1.486864e+00	 1.235724e+00	 1.253896e+01
 1.471614e+00	 1.253846e+00	 1.246894e+01
 1.456137e+00	 1.271788e+00	 1.240391e+01
 1.440434e+00	 1.289546e+00	 1.233921e+01
 1.424509e+00	 1.307116e+00	 1.227193e+01
 1.408365e+00	 1.324494e+00	 1.220053e+01
 1.492560e+00	 1.240459e+00	 1.252694e+01
 1.477253e+00	 1.258650e+00	 1.245969e+01
 1.461716e+00	 1.276660e+00	 1.239794e+01
 1.445953e+00	 1.294487e+00	 1.233655e+01
 1.429967e+00	 1.312124e+00	 1.227183e+01
 1.413761e+00	 1.329569e+00	 1.220151e+01
 1.498257e+00	 1.245193e+00	 1.251507e+01
 1.482891e+00	 1.263454e+00	 1.245111e+01
 1.467295e+00	 1.281533e+00	 1.239278e+01
 1.451471e+00	 1.299428e+00	 1.233461e+01
 1.435424e+00	 1.317132e+00	 1.227226e+01
 1.419157e+00	 1.334644e+00	 1.220282e+01
 1.503954e+00	 1.249928e+00	 1.250284e+01
 1.488529e+00	 1.268258e+00	 1.244250e+01
 1.472874e+00	 1.286406e+00	 1.238781e+01
 1.456990e+00	 1.304368e+00	 1.233282e+01
 1.440882e+00	 1.322141e+00	 1.227269e+01
 1.424553e+00	 1.339719e+00	 1.220402e+01
 1.509651e+00	 1.254663e+00	 1.248975e+01
 1.494168e+00	 1.273062e+00	 1.243327e+01
 1.478453e+00	 1.291279e+00	 1.238240e+01
 1.462509e+00	 1.309309e+00	 1.233058e+01
 1.446340e+00	 1.327149e+00	 1.227260e+01
 1.429949e+00	 1.344793e+00	 1.220466e+01
 1.402969e+00	 1.319420e+00	 1.220033e+01
 1.386673e+00	 1.336536e+00	 1.211207e+01
 1.370166e+00	 1.353453e+00	 1.200158e+01
 1.353453e+00	 1.370166e+00	 1.187841e+01
 1.336536e+00	 1.386673e+00	 1.175189e+01
 1.319420e+00	 1.402969e+00	 1.163054e+01
 1.408365e+00	 1.324494e+00	 1.220053e+01
 1.392006e+00	 1.341676e+00	 1.211271e+01
 1.375436e+00	 1.358658e+00	 1.200274e+01
 1.358658e+00	 1.375436e+00	 1.187994e+01
 1.341676e+00	 1.392006e+00	 1.175341e+01
 1.324494e+00	 1.408365e+00	 1.163145e+01
 1.413761e+00	 1.329569e+00	 1.220151e+01
 1.397340e+00	 1.346817e+00	 1.211401e+01
 1.380706e+00	 1.363864e+00	 1.200463e+01
 1.363864e+00	 1.380706e+00	 1.188234e+01
 1.346817e+00	 1.397340e+00	 1.175593e+01
 1.329569e+00	 1.413761e+00	 1.163335e+01
 1.419157e+00	 1.334644e+00	 1.220282e+01
 1.402673e+00	 1.351958e+00	 1.211561e+01
 1.385976e+00	 1.369070e+00	 1.200691e+01
 1.369070e+00	 1.385976e+00	 1.188530e+01
 1.351958e+00	 1.402673e+00	 1.175913e+01
 1.334644e+00	 1.419157e+00	 1.163592e+01
 1.424553e+00	 1.339719e+00	 1.220402e+01
 1.408007e+00	 1.357098e+00	 1.211712e+01
 1.391246e+00	 1.374275e+00	 1.200927e+01
 1.374275e+00	 1.391246e+00	 1.188851e+01
 1.357098e+00	 1.408007e+00	 1.176269e+01
 1.339719e+00	 1.424553e+00	 1.163879e+01
 1.429949e+00	 1.344793e+00	 1.220466e+01
 1.413340e+00	 1.362239e+00	 1.211817e+01
 1.396516e+00	 1.379481e+00	 1.201135e+01
 1.379481e+00	 1.396516e+00	 1.189164e+01
 1.362239e+00	 1.413340e+00	 1.176628e+01
 1.344793e+00	 1.429949e+00	 1.164161e+01
 1.319420e+00	 1.402969e+00	 1.163054e+01
 1.302108e+00	 1.419051e+00	 1.150882e+01
 1.284605e+00	 1.434915e+00	 1.138026e+01
 1.266915e+00	 1.450558e+00	 1.124915e+01
 1.249042e+00	 1.465976e+00	 1.111684e+01
 1.230990e+00	 1.481167e+00	 1.098119e+01
 1.324494e+00	 1.408365e+00	 1.163145e+01
 1.307116e+00	 1.424509e+00	 1.150886e+01
 1.289546e+00	 1.440434e+00	 1.137987e+01
 1.271788e+00	 1.456137e+00	 1.124901e+01
 1.253846e+00	 1.471614e+00	 1.111785e+01
 1.235724e+00	 1.486864e+00	 1.098331e+01
 1.329569e+00	 1.413761e+00	 1.163335e+01
 1.312124e+00	 1.429967e+00	 1.150985e+01
 1.294487e+00	 1.445953e+00	 1.138049e+01
 1.276660e+00	 1.461716e+00	 1.125013e+01
 1.258650e+00	 1.477253e+00	 1.112059e+01
 1.240459e+00	 1.492560e+00	 1.098528e+01
 1.334644e+00	 1.419157e+00	 1.163592e+01
 1.317132e+00	 1.435424e+00	 1.151141e+01
 1.299428e+00	 1.451471e+00	 1.138173e+01
 1.281533e+00	 1.467295e+00	 1.125210e+01
 1.263454e+00	 1.482891e+00	 1.112459e+01
 1.245193e+00	 1.498257e+00	 1.098643e+01
 1.339719e+00	 1.424553e+00	 1.163879e+01
 1.322141e+00	 1.440882e+00	 1.151316e+01
 1.304368e+00	 1.456990e+00	 1.138319e+01
 1.286406e+00	 1.472874e+00	 1.125451e+01
 1.268258e+00	 1.488529e+00	 1.112735e+01
 1.249928e+00	 1.503954e+00	 1.098608e+01
 1.344793e+00	 1.429949e+00	 1.164161e+01
 1.327149e+00	 1.446340e+00	 1.151471e+01
 1.309309e+00	 1.462509e+00	 1.138444e+01
 1.291279e+00	 1.478453e+00	 1.125693e+01
 1.273062e+00	 1.494168e+00	 1.112744e+01
 1.254663e+00	 1.509651e+00	 1.098358e+01
 1.230990e+00	 1.481167e+00	 1.098119e+01
 1.212763e+00	 1.496127e+00	 1.084119e+01
 1.194367e+00	 1.510853e+00	 1.069923e+01
 1.175805e+00	 1.525344e+00	 1.055646e+01
 1.157082e+00	 1.539595e+00	 1.041428e+01
 1.138203e+00	 1.553604e+00	 1.027437e+01
 1.235724e+00	 1.486864e+00	 1.098331e+01
 1.217428e+00	 1.501881e+00	 1.084091e+01
 1.198961e+00	 1.516664e+00	 1.069844e+01
 1.180327e+00	 1.531210e+00	 1.055650e+01
 1.161533e+00	 1.545516e+00	 1.041588e+01
 1.142581e+00	 1.559579e+00	 1.027762e+01
 1.240459e+00	 1.492560e+00	 1.098528e+01
 1.222092e+00	 1.507636e+00	 1.084107e+01
 1.203554e+00	 1.522475e+00	 1.069848e+01
 1.184850e+00	 1.537077e+00	 1.055757e+01
 1.165983e+00	 1.551438e+00	 1.041854e+01
 1.146958e+00	 1.565555e+00	 1.028180e+01
 1.245193e+00	 1.498257e+00	 1.098643e+01
 1.226757e+00	 1.513390e+00	 1.084097e+01
 1.208148e+00	 1.528286e+00	 1.069865e+01
 1.189372e+00	 1.542944e+00	 1.055896e+01
 1.170433e+00	 1.557359e+00	 1.042153e+01
 1.151336e+00	 1.571530e+00	 1.028615e+01
 1.249928e+00	 1.503954e+00	 1.098608e+01
 1.231421e+00	 1.519144e+00	 1.083994e+01
 1.212742e+00	 1.534097e+00	 1.069825e+01
 1.193894e+00	 1.548810e+00	 1.055997e+01
 1.174883e+00	 1.563281e+00	 1.042413e+01
 1.155714e+00	 1.577505e+00	 1.028994e+01
 1.254663e+00	 1.509651e+00	 1.098358e+01
 1.236086e+00	 1.524899e+00	 1.083731e+01
 1.217336e+00	 1.539908e+00	 1.069661e+01
 1.198417e+00	 1.554677e+00	 1.055990e+01
 1.179334e+00	 1.569202e+00	 1.042565e+01
 1.160092e+00	 1.583481e+00	 1.029245e+01
 1.138203e+00	 1.553604e+00	 1.027437e+01
 1.119172e+00	 1.567369e+00	 1.013480e+01
 1.099994e+00	 1.580887e+00	 9.993929e+00
 1.080674e+00	 1.594156e+00	 9.852766e+00
 1.061216e+00	 1.607175e+00	 9.707418e+00
 1.041626e+00	 1.619940e+00	 9.555976e+00
 1.142581e+00	 1.559579e+00	 1.027762e+01
 1.123477e+00	 1.573397e+00	 1.013905e+01
 1.104225e+00	 1.586967e+00	 9.997988e+00
 1.084830e+00	 1.600288e+00	 9.856761e+00
 1.065298e+00	 1.613356e+00	 9.712324e+00
 1.045633e+00	 1.626170e+00	 9.562802e+00
 1.146958e+00	 1.565555e+00	 1.028180e+01
 1.127781e+00	 1.579425e+00	 1.014407e+01
 1.108456e+00	 1.593048e+00	 1.000289e+01
 1.088987e+00	 1.606419e+00	 9.861333e+00
 1.069380e+00	 1.619537e+00	 9.717638e+00
 1.049639e+00	 1.632401e+00	 9.569978e+00
 1.151336e+00	 1.571530e+00	 1.028615e+01
 1.132086e+00	 1.585454e+00	 1.014909e+01
 1.112686e+00	 1.599128e+00	 1.000792e+01
 1.093143e+00	 1.612550e+00	 9.865809e+00
 1.073461e+00	 1.625719e+00	 9.722725e+00
 1.053645e+00	 1.638632e+00	 9.576910e+00
 1.155714e+00	 1.577505e+00	 1.028994e+01
 1.136390e+00	 1.591482e+00	 1.015336e+01
 1.116917e+00	 1.605208e+00	 1.001221e+01
 1.097300e+00	 1.618682e+00	 9.869524e+00
 1.077543e+00	 1.631900e+00	 9.726952e+00
 1.057651e+00	 1.644862e+00	 9.583007e+00
 1.160092e+00	 1.583481e+00	 1.029245e+01
 1.140695e+00	 1.597510e+00	 1.015616e+01
 1.121148e+00	 1.611289e+00	 1.001497e+01
 1.101456e+00	 1.624813e+00	 9.871819e+00
 1.081624e+00	 1.638082e+00	 9.729696e+00
 1.061658e+00	 1.651093e+00	 9.587682e+00
 1.041626e+00	 1.619940e+00	 9.555976e+00
 1.021908e+00	 1.632450e+00	 9.406813e+00
 1.002068e+00	 1.644704e+00	 9.264283e+00
 9.821091e-01	 1.656699e+00	 9.123344e+00
 9.620375e-01	 1.668435e+00	 8.980284e+00
 9.418580e-01	 1.679909e+00	 8.832495e+00
 1.045633e+00	 1.626170e+00	 9.562802e+00
 1.025839e+00	 1.638729e+00	 9.415747e+00
 1.005922e+00	 1.651030e+00	 9.274718e+00
 9.858864e-01	 1.663071e+00	 9.134800e+00
 9.657377e-01	 1.674852e+00	 8.992423e+00
 9.454806e-01	 1.686370e+00	 8.845136e+00
 1.049639e+00	 1.632401e+00	 9.569978e+00
 1.029769e+00	 1.645008e+00	 9.425069e+00
 1.009776e+00	 1.657355e+00	 9.285639e+00
 9.896638e-01	 1.669443e+00	 9.146865e+00
 9.694378e-01	 1.681269e+00	 9.005290e+00
 9.491031e-01	 1.692831e+00	 8.858583e+00
 1.053645e+00	 1.638632e+00	 9.576910e+00
 1.033700e+00	 1.651286e+00	 9.434223e+00
 1.013630e+00	 1.663681e+00	 9.296508e+00
 9.934411e-01	 1.675815e+00	 9.159008e+00
 9.731380e-01	 1.687686e+00	 9.018346e+00
 9.527256e-01	 1.699293e+00	 8.872276e+00
 1.057651e+00	 1.644862e+00	 9.583007e+00
 1.037630e+00	 1.657565e+00	 9.442652e+00
 1.017484e+00	 1.670007e+00	 9.306790e+00
 9.972185e-01	 1.682187e+00	 9.170701e+00
 9.768381e-01	 1.694103e+00	 9.031054e+00
 9.563482e-01	 1.705754e+00	 8.885658e+00
 1.061658e+00	 1.651093e+00	 9.587682e+00
 1.041561e+00	 1.663844e+00	 9.449804e+00
 1.021338e+00	 1.676333e+00	 9.315952e+00
 1.000996e+00	 1.688559e+00	 9.181414e+00
 9.805383e-01	 1.700520e+00	 9.042878e+00
 9.599707e-01	 1.712215e+00	 8.898170e+00
 9.418580e-01	 1.679909e+00	 8.832495e+00
 9.215756e-01	 1.691121e+00	 8.677846e+00
 9.011951e-01	 1.702069e+00	 8.517547e+00
 8.807218e-01	 1.712752e+00	 8.355081e+00
 8.601604e-01	 1.723170e+00	 8.194292e+00
 8.395162e-01	 1.733321e+00	 8.039205e+00
 9.454806e-01	 1.686370e+00	 8.845136e+00
 9.251201e-01	 1.697625e+00	 8.691256e+00
 9.046613e-01	 1.708615e+00	 8.532166e+00
 8.841091e-01	 1.719340e+00	 8.371087e+00
 8.634688e-01	 1.729798e+00	 8.211588e+00
 8.427451e-01	 1.739988e+00	 8.057395e+00
 9.491031e-01	 1.692831e+00	 8.858583e+00
 9.286646e-01	 1.704129e+00	 8.705447e+00
 9.081274e-01	 1.715162e+00	 8.547438e+00
 8.874965e-01	 1.725927e+00	 8.387574e+00
 8.667771e-01	 1.736425e+00	 8.229200e+00
 8.459740e-01	 1.746655e+00	 8.075804e+00
 9.527256e-01	 1.699293e+00	 8.872276e+00
 9.322091e-01	 1.710634e+00	 8.719843e+00
 9.115935e-01	 1.721708e+00	 8.562788e+00
 8.908839e-01	 1.732515e+00	 8.403981e+00
 8.700854e-01	 1.743053e+00	 8.246601e+00
 8.492029e-01	 1.753321e+00	 8.093953e+00
 9.563482e-01	 1.705754e+00	 8.885658e+00
 9.357537e-01	 1.717138e+00	 8.733865e+00
 9.150597e-01	 1.728254e+00	 8.577636e+00
 8.942713e-01	 1.739102e+00	 8.419744e+00
 8.733937e-01	 1.749680e+00	 8.263260e+00
 8.524319e-01	 1.759988e+00	 8.111359e+00
 9.599707e-01	 1.712215e+00	 8.898170e+00
 9.392982e-01	 1.723642e+00	 8.746939e+00
 9.185258e-01	 1.734801e+00	 8.591406e+00
 8.976587e-01	 1.745690e+00	 8.434302e+00
 8.767020e-01	 1.756308e+00	 8.278643e+00
 8.556608e-01	 1.766655e+00	 8.127535e+00
 8.395162e-01	 1.733321e+00	 8.039205e+00
 8.187941e-01	 1.743206e+00	 7.891563e+00
 7.979991e-01	 1.752823e+00	 7.748928e+00
 7.771362e-01	 1.762172e+00	 7.608803e+00
 7.562104e-01	 1.771253e+00	 7.468231e+00
 7.352267e-01	 1.780065e+00	 7.323661e+00
 8.427451e-01	 1.739988e+00	 8.057395e+00
 8.219433e-01	 1.749911e+00	 7.909667e+00
 8.010683e-01	 1.759565e+00	 7.766193e+00
 7.801252e-01	 1.768950e+00	 7.625375e+00
 7.591189e-01	 1.778065e+00	 7.485143e+00
 7.380545e-01	 1.786912e+00	 7.342857e+00
 8.459740e-01	 1.746655e+00	 8.075804e+00
 8.250925e-01	 1.756615e+00	 7.928092e+00
 8.041375e-01	 1.766306e+00	 7.784042e+00
 7.831142e-01	 1.775727e+00	 7.642755e+00
 7.620274e-01	 1.784878e+00	 7.502852e+00
 7.408823e-01	 1.793758e+00	 7.362383e+00
 8.492029e-01	 1.753321e+00	 8.093953e+00
 8.282417e-01	 1.763320e+00	 7.946394e+00
 8.072068e-01	 1.773048e+00	 7.802031e+00
 7.861032e-01	 1.782505e+00	 7.660469e+00
 7.649359e-01	 1.791690e+00	 7.520819e+00
 7.437101e-01	 1.800604e+00	 7.381603e+00
 8.524319e-01	 1.759988e+00	 8.111359e+00
 8.313909e-01	 1.770024e+00	 7.964129e+00
 8.102760e-01	 1.779789e+00	 7.819716e+00
 7.890921e-01	 1.789282e+00	 7.678041e+00
 7.678444e-01	 1.798503e+00	 7.538504e+00
 7.465379e-01	 1.807451e+00	 7.399901e+00
 8.556608e-01	 1.766655e+00	 8.127535e+00
 8.345401e-01	 1.776729e+00	 7.980844e+00
 8.133452e-01	 1.786531e+00	 7.836649e+00
 7.920811e-01	 1.796060e+00	 7.694989e+00
 7.707529e-01	 1.805315e+00	 7.555366e+00
 7.493657e-01	 1.814297e+00	 7.416645e+00
 7.352267e-01	 1.780065e+00	 7.323661e+00
 7.141900e-01	 1.788609e+00	 7.179083e+00
 6.931053e-01	 1.796885e+00	 7.042506e+00
 6.719774e-01	 1.804893e+00	 6.913938e+00
 6.508112e-01	 1.812632e+00	 6.790845e+00
 6.296116e-01	 1.820104e+00	 6.668090e+00
 7.380545e-01	 1.786912e+00	 7.342857e+00
 7.169369e-01	 1.795489e+00	 7.201390e+00
 6.957711e-01	 1.803796e+00	 7.067307e+00
 6.745619e-01	 1.811834e+00	 6.940531e+00
 6.533144e-01	 1.819604e+00	 6.818305e+00
 6.320332e-01	 1.827105e+00	 6.695141e+00
 7.408823e-01	 1.793758e+00	 7.362383e+00
 7.196838e-01	 1.802368e+00	 7.223330e+00
 6.984369e-01	 1.810707e+00	 7.090935e+00
 6.771465e-01	 1.818776e+00	 6.965669e+00
 6.558175e-01	 1.826575e+00	 6.845189e+00
 6.344548e-01	 1.834105e+00	 6.724294e+00
 7.437101e-01	 1.800604e+00	 7.381603e+00
 7.224307e-01	 1.809247e+00	 7.244171e+00
 7.011026e-01	 1.817618e+00	 7.112710e+00
 6.797310e-01	 1.825718e+00	 6.988829e+00
 6.583206e-01	 1.833547e+00	 6.871232e+00
 6.368764e-01	 1.841106e+00	 6.755632e+00
 7.465379e-01	 1.807451e+00	 7.399901e+00
 7.251776e-01	 1.816126e+00	 7.263180e+00
 7.037684e-01	 1.824529e+00	 7.131948e+00
 6.823155e-01	 1.832660e+00	 7.009484e+00
 6.608237e-01	 1.840519e+00	 6.896158e+00
 6.392980e-01	 1.848106e+00	 6.789222e+00
 7.493657e-01	 1.814297e+00	 7.416645e+00
 7.279244e-01	 1.823006e+00	 7.279625e+00
 7.064342e-01	 1.831440e+00	 7.147965e+00
 6.849000e-01	 1.839602e+00	 7.027101e+00
 6.633268e-01	 1.847490e+00	 6.919682e+00
 6.417196e-01	 1.855106e+00	 6.821825e+00
 6.296116e-01	 1.820104e+00	 6.668090e+00
 6.083834e-01	 1.827310e+00	 6.533523e+00
 5.871313e-01	 1.834248e+00	 6.387826e+00
 5.658600e-01	 1.840922e+00	 6.241426e+00
 5.445743e-01	 1.847330e+00	 6.102537e+00
 5.232787e-01	 1.853475e+00	 5.976552e+00
 6.320332e-01	 1.827105e+00	 6.695141e+00
 6.107233e-01	 1.834338e+00	 6.559989e+00
 5.893895e-01	 1.841303e+00	 6.415566e+00
 5.680364e-01	 1.848002e+00	 6.273182e+00
 5.466688e-01	 1.854435e+00	 6.139807e+00
 5.252913e-01	 1.860604e+00	 6.005909e+00
 6.344548e-01	 1.834105e+00	 6.724294e+00
 6.130633e-01	 1.841366e+00	 6.593468e+00
 5.916477e-01	 1.848358e+00	 6.456768e+00
 5.702128e-01	 1.855083e+00	 6.322058e+00
 5.487633e-01	 1.861541e+00	 6.179142e+00
 5.273039e-01	 1.867733e+00	 6.036378e+00
 6.368764e-01	 1.841106e+00	 6.755632e+00
 6.154032e-01	 1.848394e+00	 6.634354e+00
 5.939059e-01	 1.855413e+00	 6.507985e+00
 5.723892e-01	 1.862163e+00	 6.365159e+00
 5.508578e-01	 1.868646e+00	 6.214539e+00
 5.293165e-01	 1.874861e+00	 6.067830e+00
 6.392980e-01	 1.848106e+00	 6.789222e+00
 6.177432e-01	 1.855422e+00	 6.679010e+00
 5.961641e-01	 1.862468e+00	 6.546196e+00
 5.745656e-01	 1.869244e+00	 6.398282e+00
 5.529523e-01	 1.875751e+00	 6.246203e+00
 5.313291e-01	 1.881990e+00	 6.100145e+00
 6.417196e-01	 1.855106e+00	 6.821825e+00
 6.200831e-01	 1.862450e+00	 6.704507e+00
 5.984223e-01	 1.869522e+00	 6.568043e+00
 5.767420e-01	 1.876324e+00	 6.421841e+00
 5.550469e-01	 1.882856e+00	 6.274343e+00
 5.333417e-01	 1.889119e+00	 6.133207e+00
 5.232787e-01	 1.853475e+00	 5.976552e+00
 5.019778e-01	 1.859357e+00	 5.855788e+00
 4.806762e-01	 1.864977e+00	 5.737312e+00
 4.593783e-01	 1.870337e+00	 5.619322e+00
 4.380886e-01	 1.875438e+00	 5.499984e+00
 4.168113e-01	 1.880282e+00	 5.377570e+00
 5.252913e-01	 1.860604e+00	 6.005909e+00
 5.039085e-01	 1.866509e+00	 5.878186e+00
 4.825250e-01	 1.872150e+00	 5.758098e+00
 4.611452e-01	 1.877531e+00	 5.641988e+00
 4.397735e-01	 1.882652e+00	 5.526140e+00
 4.184144e-01	 1.887513e+00	 5.406931e+00
 5.273039e-01	 1.867733e+00	 6.036378e+00
 5.058392e-01	 1.873660e+00	 5.904633e+00
 4.843737e-01	 1.879323e+00	 5.783789e+00
 4.629120e-01	 1.884725e+00	 5.669002e+00
 4.414585e-01	 1.889865e+00	 5.555355e+00
 4.200176e-01	 1.894745e+00	 5.438011e+00
 5.293165e-01	 1.874861e+00	 6.067830e+00
 5.077699e-01	 1.880811e+00	 5.934671e+00
 4.862225e-01	 1.886496e+00	 5.813708e+00
 4.646788e-01	 1.891918e+00	 5.699573e+00
 4.431434e-01	 1.897078e+00	 5.586820e+00
 4.216207e-01	 1.901977e+00	 5.470075e+00
 5.313291e-01	 1.881990e+00	 6.100145e+00
 5.097006e-01	 1.887963e+00	 5.967852e+00
 4.880712e-01	 1.893669e+00	 5.847190e+00
 4.664457e-01	 1.899112e+00	 5.732923e+00
 4.448284e-01	 1.904291e+00	 5.619740e+00
 4.232238e-01	 1.909209e+00	 5.502396e+00
 5.333417e-01	 1.889119e+00	 6.133207e+00
 5.116312e-01	 1.895114e+00	 6.003738e+00
 4.899200e-01	 1.900842e+00	 5.883583e+00
 4.682125e-01	 1.906305e+00	 5.768289e+00
 4.465133e-01	 1.911504e+00	 5.653333e+00
 4.248269e-01	 1.916441e+00	 5.534262e+00
 4.168113e-01	 1.880282e+00	 5.377570e+00
 3.955509e-01	 1.884869e+00	 5.248710e+00
 3.743114e-01	 1.889201e+00	 5.126452e+00
 3.530972e-01	 1.893281e+00	 5.028123e+00
 3.319122e-01	 1.897110e+00	 4.947000e+00
 3.107606e-01	 1.900689e+00	 4.875645e+00
 4.184144e-01	 1.887513e+00	 5.406931e+00
 3.970722e-01	 1.892118e+00	 5.279941e+00
 3.757511e-01	 1.896467e+00	 5.157715e+00
 3.544552e-01	 1.900563e+00	 5.057931e+00
 3.331888e-01	 1.904406e+00	 4.975442e+00
 3.119558e-01	 1.907999e+00	 4.903009e+00
 4.200176e-01	 1.894745e+00	 5.438011e+00
 3.985936e-01	 1.899368e+00	 5.312122e+00
 3.771907e-01	 1.903734e+00	 5.189815e+00
 3.558133e-01	 1.907845e+00	 5.088726e+00
 3.344654e-01	 1.911703e+00	 5.005177e+00
 3.131510e-01	 1.915310e+00	 4.932022e+00
 4.216207e-01	 1.901977e+00	 5.470075e+00
 4.001149e-01	 1.906617e+00	 5.344609e+00
 3.786304e-01	 1.911000e+00	 5.222163e+00
 3.571714e-01	 1.915127e+00	 5.119976e+00
 3.357420e-01	 1.918999e+00	 5.035692e+00
 3.143463e-01	 1.922620e+00	 4.962158e+00
 4.232238e-01	 1.909209e+00	 5.502396e+00
 4.016363e-01	 1.913867e+00	 5.376770e+00
 3.800701e-01	 1.918266e+00	 5.254179e+00
 3.585294e-01	 1.922408e+00	 5.151155e+00
 3.370185e-01	 1.926296e+00	 5.066475e+00
 3.155415e-01	 1.929930e+00	 4.992888e+00
 4.248269e-01	 1.916441e+00	 5.534262e+00
 4.031576e-01	 1.921116e+00	 5.407981e+00
 3.815097e-01	 1.925532e+00	 5.285292e+00
 3.598875e-01	 1.929690e+00	 5.181740e+00
 3.382951e-01	 1.933593e+00	 5.097017e+00
 3.167367e-01	 1.937241e+00	 5.023690e+00
 3.107606e-01	 1.900689e+00	 4.875645e+00
 2.896462e-01	 1.904021e+00	 4.811073e+00
 2.685730e-01	 1.907108e+00	 4.751167e+00
 2.475448e-01	 1.909951e+00	 4.694801e+00
 2.265653e-01	 1.912553e+00	 4.642935e+00
 2.056382e-01	 1.914916e+00	 4.598101e+00
 3.119558e-01	 1.907999e+00	 4.903009e+00
 2.907602e-01	 1.911344e+00	 4.837727e+00
 2.696060e-01	 1.914443e+00	 4.777496e+00
 2.484969e-01	 1.917297e+00	 4.721320e+00
 2.274367e-01	 1.919909e+00	 4.670273e+00
 2.064291e-01	 1.922281e+00	 4.626987e+00
 3.131510e-01	 1.915310e+00	 4.932022e+00
 2.918742e-01	 1.918667e+00	 4.866308e+00
 2.706389e-01	 1.921778e+00	 4.805909e+00
 2.494490e-01	 1.924643e+00	 4.749959e+00
 2.283081e-01	 1.927265e+00	 4.699649e+00
 2.072200e-01	 1.929646e+00	 4.657719e+00
 3.143463e-01	 1.922620e+00	 4.962158e+00
 2.929883e-01	 1.925990e+00	 4.896271e+00
 2.716719e-01	 1.929113e+00	 4.835873e+00
 2.504011e-01	 1.931989e+00	 4.780227e+00
 2.291795e-01	 1.934621e+00	 4.730641e+00
 2.080109e-01	 1.937011e+00	 4.689963e+00
 3.155415e-01	 1.929930e+00	 4.992888e+00
 2.941023e-01	 1.933314e+00	 4.927076e+00
 2.727049e-01	 1.936448e+00	 4.866860e+00
 2.513532e-01	 1.939335e+00	 4.811633e+00
 2.300509e-01	 1.941977e+00	 4.762822e+00
 2.088018e-01	 1.944376e+00	 4.723386e+00
 3.167367e-01	 1.937241e+00	 5.023690e+00
 2.952163e-01	 1.940637e+00	 4.958182e+00
 2.737379e-01	 1.943783e+00	 4.898341e+00
 2.523052e-01	 1.946681e+00	 4.843689e+00
 2.309223e-01	 1.949333e+00	 4.795770e+00
 2.095928e-01	 1.951741e+00	 4.757654e+00
 2.056382e-01	 1.914916e+00	 4.598101e+00
 1.847671e-01	 1.917042e+00	 4.564325e+00
 1.639555e-01	 1.918934e+00	 4.540159e+00
 1.432068e-01	 1.920594e+00	 4.521020e+00
 1.225244e-01	 1.922025e+00	 4.502315e+00
 1.019115e-01	 1.923228e+00	 4.479094e+00
 2.064291e-01	 1.922281e+00	 4.626987e+00
 1.854777e-01	 1.924416e+00	 4.595348e+00
 1.645861e-01	 1.926315e+00	 4.573505e+00
 1.437576e-01	 1.927981e+00	 4.556582e+00
 1.229956e-01	 1.929417e+00	 4.539702e+00
 1.023035e-01	 1.930625e+00	 4.517649e+00
 2.072200e-01	 1.929646e+00	 4.657719e+00
 1.861884e-01	 1.931789e+00	 4.627906e+00
 1.652166e-01	 1.933695e+00	 4.608015e+00
 1.443084e-01	 1.935368e+00	 4.592977e+00
 1.234669e-01	 1.936809e+00	 4.577726e+00
 1.026955e-01	 1.938022e+00	 4.556870e+00
 2.080109e-01	 1.937011e+00	 4.689963e+00
 1.868990e-01	 1.939162e+00	 4.661764e+00
 1.658472e-01	 1.941076e+00	 4.643543e+00
 1.448592e-01	 1.942755e+00	 4.630134e+00
 1.239381e-01	 1.944202e+00	 4.616374e+00
 1.030875e-01	 1.945419e+00	 4.596787e+00
 2.088018e-01	 1.944376e+00	 4.723386e+00
 1.876096e-01	 1.946535e+00	 4.696686e+00
 1.664778e-01	 1.948456e+00	 4.679940e+00
 1.454100e-01	 1.950142e+00	 4.667977e+00
 1.244094e-01	 1.951594e+00	 4.655631e+00
 1.034794e-01	 1.952816e+00	 4.637428e+00
 2.095928e-01	 1.951741e+00	 4.757654e+00
 1.883203e-01	 1.953909e+00	 4.732435e+00
 1.671084e-01	 1.955837e+00	 4.717055e+00
 1.459607e-01	 1.957529e+00	 4.706431e+00
 1.248806e-01	 1.958987e+00	 4.695482e+00
 1.038714e-01	 1.960213e+00	 4.678819e+00
 1.019115e-01	 1.923228e+00	 4.479094e+00
 8.137149e-02	 1.924206e+00	 4.450471e+00
 6.090730e-02	 1.924963e+00	 4.422421e+00
 4.052204e-02	 1.925500e+00	 4.398730e+00
 2.021865e-02	 1.925820e+00	 4.381495e+00
 0.000000e+00	 1.925926e+00	 4.370856e+00
 1.023035e-01	 1.930625e+00	 4.517649e+00
 8.168445e-02	 1.931607e+00	 4.489573e+00
 6.114156e-02	 1.932366e+00	 4.461395e+00
 4.067789e-02	 1.932905e+00	 4.436543e+00
 2.029641e-02	 1.933227e+00	 4.416809e+00
 0.000000e+00	 1.933333e+00	 4.402073e+00
 1.026955e-01	 1.938022e+00	 4.556870e+00
 8.199742e-02	 1.939008e+00	 4.529625e+00
 6.137582e-02	 1.939770e+00	 4.501513e+00
 4.083375e-02	 1.940311e+00	 4.475145e+00
 2.037418e-02	 1.940634e+00	 4.451542e+00
 0.000000e+00	 1.940741e+00	 4.429879e+00
 1.030875e-01	 1.945419e+00	 4.596787e+00
 8.231039e-02	 1.946409e+00	 4.570673e+00
 6.161008e-02	 1.947174e+00	 4.542804e+00
 4.098960e-02	 1.947717e+00	 4.514512e+00
 2.045194e-02	 1.948041e+00	 4.485601e+00
 0.000000e+00	 1.948148e+00	 4.454088e+00
 1.034794e-01	 1.952816e+00	 4.637428e+00
 8.262336e-02	 1.953809e+00	 4.612758e+00
 6.184434e-02	 1.954577e+00	 4.585293e+00
 4.114546e-02	 1.955123e+00	 4.554627e+00
 2.052970e-02	 1.955448e+00	 4.518894e+00
 0.000000e+00	 1.955556e+00	 4.474517e+00
 1.038714e-01	 1.960213e+00	 4.678819e+00
 8.293632e-02	 1.961210e+00	 4.655925e+00
 6.207860e-02	 1.961981e+00	 4.629005e+00
 4.130131e-02	 1.962528e+00	 4.595468e+00
 2.060747e-02	 1.962855e+00	 4.551333e+00
 0.000000e+00	 1.962963e+00	 4.490989e+00
 1.962963e+00	 0.000000e+00	 1.261587e+01
 1.962855e+00	 2.060747e-02	 1.262390e+01
 1.962528e+00	 4.130131e-02	 1.263136e+01
 1.961981e+00	 6.207860e-02	 1.263776e+01
 1.961210e+00	 8.293632e-02	 1.264271e+01
 1.960213e+00	 1.038714e-01	 1.264595e+01
 1.970370e+00	 0.000000e+00	 1.259481e+01
 1.970262e+00	 2.068523e-02	 1.260031e+01
 1.969934e+00	 4.145716e-02	 1.260684e+01
 1.969385e+00	 6.231286e-02	 1.261322e+01
 1.968611e+00	 8.324929e-02	 1.261844e+01
 1.967610e+00	 1.042634e-01	 1.262159e+01
 1.977778e+00	 0.000000e+00	 1.257728e+01
 1.977669e+00	 2.076300e-02	 1.257801e+01
 1.977340e+00	 4.161302e-02	 1.258234e+01
 1.976789e+00	 6.254712e-02	 1.258819e+01
 1.976012e+00	 8.356226e-02	 1.259368e+01
 1.975007e+00	 1.046553e-01	 1.259711e+01
 1.985185e+00	 0.000000e+00	 1.256559e+01
 1.985076e+00	 2.084076e-02	 1.255784e+01
 1.984746e+00	 4.176887e-02	 1.255769e+01
 1.984192e+00	 6.278138e-02	 1.256189e+01
 1.983413e+00	 8.387522e-02	 1.256750e+01
 1.982404e+00	 1.050473e-01	 1.257188e+01
 1.992593e+00	 0.000000e+00	 1.256203e+01
 1.992483e+00	 2.091852e-02	 1.254063e+01
 1.992151e+00	 4.192473e-02	 1.253268e+01
 1.991596e+00	 6.301563e-02	 1.253352e+01
 1.990813e+00	 8.418819e-02	 1.253897e+01
 1.989801e+00	 1.054393e-01	 1.254529e+01
 2.000000e+00	 0.000000e+00	 1.256886e+01
 1.999890e+00	 2.099629e-02	 1.252719e+01
 1.999557e+00	 4.208058e-02	 1.250712e+01
 1.999000e+00	 6.324989e-02	 1.250233e+01
 1.998214e+00	 8.450116e-02	 1.250719e+01
 1.997198e+00	 1.058312e-01	 1.251672e+01
 1.960213e+00	 1.038714e-01	 1.264595e+01
 1.958987e+00	 1.248806e-01	 1.264978e+01
 1.957529e+00	 1.459607e-01	 1.265607e+01
 1.955837e+00	 1.671084e-01	 1.266402e+01
 1.953909e+00	 1.883203e-01	 1.267287e+01
 1.951741e+00	 2.095928e-01	 1.268184e+01
 1.967610e+00	 1.042634e-01	 1.262159e+01
 1.966379e+00	 1.253519e-01	 1.262504e+01
 1.964916e+00	 1.465115e-01	 1.263119e+01
 1.963218e+00	 1.677390e-01	 1.263927e+01
 1.961282e+00	 1.890309e-01	 1.264857e+01
 1.959106e+00	 2.103837e-01	 1.265836e+01
 1.975007e+00	 1.046553e-01	 1.259711e+01
 1.973771e+00	 1.258231e-01	 1.260058e+01
 1.972303e+00	 1.470623e-01	 1.260680e+01
 1.970598e+00	 1.683696e-01	 1.261513e+01
 1.968655e+00	 1.897416e-01	 1.262494e+01
 1.966472e+00	 2.111746e-01	 1.263559e+01
 1.982404e+00	 1.050473e-01	 1.257188e+01
 1.981164e+00	 1.262944e-01	 1.257624e+01
 1.979690e+00	 1.476131e-01	 1.258307e+01
 1.977979e+00	 1.690002e-01	 1.259193e+01
 1.976028e+00	 1.904522e-01	 1.260234e+01
 1.973837e+00	 2.119655e-01	 1.261375e+01
 1.989801e+00	 1.054393e-01	 1.254529e+01
 1.988556e+00	 1.267656e-01	 1.255184e+01
 1.987076e+00	 1.481639e-01	 1.256016e+01
 1.985359e+00	 1.696308e-01	 1.257001e+01
 1.983402e+00	 1.911629e-01	 1.258112e+01
 1.981202e+00	 2.127564e-01	 1.259308e+01
 1.997198e+00	 1.058312e-01	 1.251672e+01
 1.995949e+00	 1.272369e-01	 1.252725e+01
 1.994463e+00	 1.487147e-01	 1.253820e+01
 1.992740e+00	 1.702614e-01	 1.254967e+01
 1.990775e+00	 1.918735e-01	 1.256162e+01
 1.988567e+00	 2.135473e-01	 1.257382e+01
 1.951741e+00	 2.095928e-01	 1.268184e+01
 1.949333e+00	 2.309223e-01	 1.269069e+01
 1.946681e+00	 2.523052e-01	 1.270026e+01
 1.943783e+00	 2.737379e-01	 1.271105e+01
 1.940637e+00	 2.952163e-01	 1.272321e+01
 1.937241e+00	 3.167367e-01	 1.273638e+01
 1.959106e+00	 2.103837e-01	 1.265836e+01
 1.956689e+00	 2.317937e-01	 1.266813e+01
 1.954027e+00	 2.532573e-01	 1.267839e+01
 1.951118e+00	 2.747708e-01	 1.268966e+01
 1.947960e+00	 2.963303e-01	 1.270207e+01
 1.944551e+00	 3.179320e-01	 1.271528e+01
 1.966472e+00	 2.111746e-01	 1.263559e+01
 1.964045e+00	 2.326651e-01	 1.264631e+01
 1.961373e+00	 2.542094e-01	 1.265730e+01
 1.958453e+00	 2.758038e-01	 1.266907e+01
 1.955283e+00	 2.974444e-01	 1.268172e+01
 1.951861e+00	 3.191272e-01	 1.269493e+01
 1.973837e+00	 2.119655e-01	 1.261375e+01
 1.971401e+00	 2.335365e-01	 1.262530e+01
 1.968719e+00	 2.551615e-01	 1.263698e+01
 1.965788e+00	 2.768368e-01	 1.264923e+01
 1.962606e+00	 2.985584e-01	 1.266215e+01
 1.959172e+00	 3.203224e-01	 1.267539e+01
 1.981202e+00	 2.127564e-01	 1.259308e+01
 1.978757e+00	 2.344079e-01	 1.260518e+01
 1.976065e+00	 2.561136e-01	 1.261738e+01
 1.973123e+00	 2.778697e-01	 1.263008e+01
 1.969929e+00	 2.996724e-01	 1.264333e+01
 1.966482e+00	 3.215177e-01	 1.265675e+01
 1.988567e+00	 2.135473e-01	 1.257382e+01
 1.986113e+00	 2.352793e-01	 1.258601e+01
 1.983411e+00	 2.570657e-01	 1.259850e+01
 1.980458e+00	 2.789027e-01	 1.261158e+01
 1.977253e+00	 3.007864e-01	 1.262524e+01
 1.973792e+00	 3.227129e-01	 1.263911e+01
 1.937241e+00	 3.167367e-01	 1.273638e+01
 1.933593e+00	 3.382951e-01	 1.274969e+01
 1.929690e+00	 3.598875e-01	 1.276192e+01
 1.925532e+00	 3.815097e-01	 1.277151e+01
 1.921116e+00	 4.031576e-01	 1.278004e+01
 1.916441e+00	 4.248269e-01	 1.279050e+01
 1.944551e+00	 3.179320e-01	 1.271528e+01
 1.940889e+00	 3.395717e-01	 1.272851e+01
 1.936972e+00	 3.612456e-01	 1.274060e+01
 1.932798e+00	 3.829494e-01	 1.275002e+01
 1.928366e+00	 4.046790e-01	 1.275831e+01
 1.923673e+00	 4.264300e-01	 1.276815e+01
 1.951861e+00	 3.191272e-01	 1.269493e+01
 1.948186e+00	 3.408483e-01	 1.270800e+01
 1.944254e+00	 3.626036e-01	 1.271989e+01
 1.940064e+00	 3.843890e-01	 1.272914e+01
 1.935615e+00	 4.062003e-01	 1.273719e+01
 1.930905e+00	 4.280332e-01	 1.274647e+01
 1.959172e+00	 3.203224e-01	 1.267539e+01
 1.955482e+00	 3.421249e-01	 1.268834e+01
 1.951536e+00	 3.639617e-01	 1.270004e+01
 1.947331e+00	 3.858287e-01	 1.270911e+01
 1.942865e+00	 4.077217e-01	 1.271689e+01
 1.938136e+00	 4.296363e-01	 1.272556e+01
 1.966482e+00	 3.215177e-01	 1.265675e+01
 1.962779e+00	 3.434015e-01	 1.266974e+01
 1.958818e+00	 3.653198e-01	 1.268131e+01
 1.954597e+00	 3.872684e-01	 1.269019e+01
 1.950114e+00	 4.092430e-01	 1.269762e+01
 1.945368e+00	 4.312394e-01	 1.270552e+01
 1.973792e+00	 3.227129e-01	 1.263911e+01
 1.970075e+00	 3.446781e-01	 1.265238e+01
 1.966100e+00	 3.666778e-01	 1.266395e+01
 1.961863e+00	 3.887080e-01	 1.267263e+01
 1.957364e+00	 4.107643e-01	 1.267956e+01
 1.952600e+00	 4.328425e-01	 1.268645e+01
 1.916441e+00	 4.248269e-01	 1.279050e+01
 1.911504e+00	 4.465133e-01	 1.280378e+01
 1.906305e+00	 4.682125e-01	 1.281843e+01
 1.900842e+00	 4.899200e-01	 1.283384e+01
 1.895114e+00	 5.116312e-01	 1.284939e+01
 1.889119e+00	 5.333417e-01	 1.286451e+01
 1.923673e+00	 4.264300e-01	 1.276815e+01
 1.918718e+00	 4.481983e-01	 1.278052e+01
 1.913499e+00	 4.699794e-01	 1.279432e+01
 1.908015e+00	 4.917687e-01	 1.280900e+01
 1.902265e+00	 5.135619e-01	 1.282404e+01
 1.896248e+00	 5.353543e-01	 1.283891e+01
 1.930905e+00	 4.280332e-01	 1.274647e+01
 1.925931e+00	 4.498833e-01	 1.275797e+01
 1.920693e+00	 4.717462e-01	 1.277084e+01
 1.915188e+00	 4.936175e-01	 1.278461e+01
 1.909417e+00	 5.154926e-01	 1.279881e+01
 1.903376e+00	 5.373670e-01	 1.281296e+01
 1.938136e+00	 4.296363e-01	 1.272556e+01
 1.933144e+00	 4.515682e-01	 1.273613e+01
 1.927886e+00	 4.735130e-01	 1.274796e+01
 1.922361e+00	 4.954662e-01	 1.276064e+01
 1.916568e+00	 5.174233e-01	 1.277374e+01
 1.910505e+00	 5.393796e-01	 1.278684e+01
 1.945368e+00	 4.312394e-01	 1.270552e+01
 1.940357e+00	 4.532532e-01	 1.271499e+01
 1.935080e+00	 4.752799e-01	 1.272564e+01
 1.929534e+00	 4.973150e-01	 1.273707e+01
 1.923719e+00	 5.193540e-01	 1.274889e+01
 1.917634e+00	 5.413922e-01	 1.276075e+01
 1.952600e+00	 4.328425e-01	 1.268645e+01
 1.947571e+00	 4.549381e-01	 1.269456e+01
 1.942274e+00	 4.770467e-01	 1.270383e+01
 1.936707e+00	 4.991637e-01	 1.271386e+01
 1.930871e+00	 5.212847e-01	 1.272432e+01
 1.924763e+00	 5.434048e-01	 1.273487e+01
 1.889119e+00	 5.333417e-01	 1.286451e+01
 1.882856e+00	 5.550469e-01	 1.287843e+01
 1.876324e+00	 5.767420e-01	 1.289146e+01
 1.869522e+00	 5.984223e-01	 1.290472e+01
 1.862450e+00	 6.200831e-01	 1.291937e+01
 1.855106e+00	 6.417196e-01	 1.293673e+01
 1.896248e+00	 5.353543e-01	 1.283891e+01
 1.889961e+00	 5.571414e-01	 1.285273e+01
 1.883405e+00	 5.789183e-01	 1.286555e+01
 1.876577e+00	 6.006805e-01	 1.287834e+01
 1.869478e+00	 6.224230e-01	 1.289222e+01
 1.862107e+00	 6.441411e-01	 1.290847e+01
 1.903376e+00	 5.373670e-01	 1.281296e+01
 1.897066e+00	 5.592359e-01	 1.282628e+01
 1.890485e+00	 5.810947e-01	 1.283880e+01
 1.883632e+00	 6.029387e-01	 1.285138e+01
 1.876506e+00	 6.247630e-01	 1.286505e+01
 1.869107e+00	 6.465627e-01	 1.288107e+01
 1.910505e+00	 5.393796e-01	 1.278684e+01
 1.904171e+00	 5.613304e-01	 1.279938e+01
 1.897566e+00	 5.832711e-01	 1.281149e+01
 1.890687e+00	 6.051969e-01	 1.282394e+01
 1.883534e+00	 6.271029e-01	 1.283770e+01
 1.876108e+00	 6.489843e-01	 1.285395e+01
 1.917634e+00	 5.413922e-01	 1.276075e+01
 1.911276e+00	 5.634249e-01	 1.277232e+01
 1.904646e+00	 5.854475e-01	 1.278389e+01
 1.897742e+00	 6.074551e-01	 1.279614e+01
 1.890563e+00	 6.294428e-01	 1.280999e+01
 1.883108e+00	 6.514059e-01	 1.282653e+01
 1.924763e+00	 5.434048e-01	 1.273487e+01
 1.918382e+00	 5.655194e-01	 1.274538e+01
 1.911726e+00	 5.876239e-01	 1.275624e+01
 1.904797e+00	 6.097133e-01	 1.276810e+01
 1.897591e+00	 6.317828e-01	 1.278176e+01
 1.890108e+00	 6.538275e-01	 1.279824e+01
 1.855106e+00	 6.417196e-01	 1.293673e+01
 1.847490e+00	 6.633268e-01	 1.295866e+01
 1.839602e+00	 6.849000e-01	 1.298174e+01
 1.831440e+00	 7.064342e-01	 1.300397e+01
 1.823006e+00	 7.279244e-01	 1.302434e+01
 1.814297e+00	 7.493657e-01	 1.304225e+01
 1.862107e+00	 6.441411e-01	 1.290847e+01
 1.854462e+00	 6.658300e-01	 1.292964e+01
 1.846544e+00	 6.874846e-01	 1.295513e+01
 1.838352e+00	 7.091000e-01	 1.297961e+01
 1.829885e+00	 7.306713e-01	 1.300192e+01
 1.821144e+00	 7.521935e-01	 1.302140e+01
 1.869107e+00	 6.465627e-01	 1.288107e+01
 1.861434e+00	 6.683331e-01	 1.290154e+01
 1.853486e+00	 6.900691e-01	 1.292686e+01
 1.845263e+00	 7.117658e-01	 1.295418e+01
 1.836764e+00	 7.334182e-01	 1.297900e+01
 1.827990e+00	 7.550213e-01	 1.300047e+01
 1.876108e+00	 6.489843e-01	 1.285395e+01
 1.868405e+00	 6.708362e-01	 1.287427e+01
 1.860428e+00	 6.926536e-01	 1.289876e+01
 1.852174e+00	 7.144316e-01	 1.292667e+01
 1.843643e+00	 7.361651e-01	 1.295479e+01
 1.834837e+00	 7.578491e-01	 1.297909e+01
 1.883108e+00	 6.514059e-01	 1.282653e+01
 1.875377e+00	 6.733393e-01	 1.284689e+01
 1.867370e+00	 6.952382e-01	 1.287094e+01
 1.859085e+00	 7.170974e-01	 1.289823e+01
 1.850523e+00	 7.389120e-01	 1.292850e+01
 1.841683e+00	 7.606769e-01	 1.295685e+01
 1.890108e+00	 6.538275e-01	 1.279824e+01
 1.882349e+00	 6.758424e-01	 1.281847e+01
 1.874311e+00	 6.978227e-01	 1.284230e+01
 1.865996e+00	 7.197632e-01	 1.286960e+01
 1.857402e+00	 7.416589e-01	 1.290053e+01
 1.848529e+00	 7.635047e-01	 1.293337e+01
 1.814297e+00	 7.493657e-01	 1.304225e+01
 1.805315e+00	 7.707529e-01	 1.305648e+01
 1.796060e+00	 7.920811e-01	 1.306727e+01
 1.786531e+00	 8.133452e-01	 1.307487e+01
 1.776729e+00	 8.345401e-01	 1.307968e+01
 1.766655e+00	 8.556608e-01	 1.308229e+01
 1.821144e+00	 7.521935e-01	 1.302140e+01
 1.812128e+00	 7.736614e-01	 1.303686e+01
 1.802837e+00	 7.950701e-01	 1.304885e+01
 1.793273e+00	 8.164145e-01	 1.305749e+01
 1.783434e+00	 8.376893e-01	 1.306306e+01
 1.773321e+00	 8.588897e-01	 1.306600e+01
 1.827990e+00	 7.550213e-01	 1.300047e+01
 1.818940e+00	 7.765699e-01	 1.301752e+01
 1.809615e+00	 7.980591e-01	 1.303097e+01
 1.800014e+00	 8.194837e-01	 1.304084e+01
 1.790138e+00	 8.408386e-01	 1.304728e+01
 1.779988e+00	 8.621186e-01	 1.305055e+01
 1.834837e+00	 7.578491e-01	 1.297909e+01
 1.825753e+00	 7.794784e-01	 1.299851e+01
 1.816393e+00	 8.010481e-01	 1.301399e+01
 1.806756e+00	 8.225529e-01	 1.302542e+01
 1.796843e+00	 8.439878e-01	 1.303281e+01
 1.786654e+00	 8.653475e-01	 1.303622e+01
 1.841683e+00	 7.606769e-01	 1.295685e+01
 1.832565e+00	 7.823869e-01	 1.297990e+01
 1.823170e+00	 8.040371e-01	 1.299825e+01
 1.813498e+00	 8.256221e-01	 1.301171e+01
 1.803548e+00	 8.471370e-01	 1.302013e+01
 1.793321e+00	 8.685764e-01	 1.302332e+01
 1.848529e+00	 7.635047e-01	 1.293337e+01
 1.839378e+00	 7.852954e-01	 1.296173e+01
 1.829948e+00	 8.070261e-01	 1.298408e+01
 1.820239e+00	 8.286914e-01	 1.300016e+01
 1.810252e+00	 8.502862e-01	 1.300965e+01
 1.799988e+00	 8.718053e-01	 1.301209e+01
 1.766655e+00	 8.556608e-01	 1.308229e+01
 1.756308e+00	 8.767020e-01	 1.307955e+01
 1.745690e+00	 8.976587e-01	 1.306934e+01
 1.734801e+00	 9.185258e-01	 1.305383e+01
 1.723642e+00	 9.392982e-01	 1.303506e+01
 1.712215e+00	 9.599707e-01	 1.301481e+01
 1.773321e+00	 8.588897e-01	 1.306600e+01
 1.762935e+00	 8.800103e-01	 1.306336e+01
 1.752277e+00	 9.010461e-01	 1.305319e+01
 1.741347e+00	 9.219919e-01	 1.303752e+01
 1.730147e+00	 9.428427e-01	 1.301824e+01
 1.718676e+00	 9.635932e-01	 1.299701e+01
 1.779988e+00	 8.621186e-01	 1.305055e+01
 1.769563e+00	 8.833186e-01	 1.304795e+01
 1.758865e+00	 9.044335e-01	 1.303781e+01
 1.747894e+00	 9.254581e-01	 1.302193e+01
 1.736651e+00	 9.463872e-01	 1.300204e+01
 1.725137e+00	 9.672158e-01	 1.297964e+01
 1.786654e+00	 8.653475e-01	 1.303622e+01
 1.776191e+00	 8.866269e-01	 1.303341e+01
 1.765452e+00	 9.078209e-01	 1.302310e+01
 1.754440e+00	 9.289242e-01	 1.300685e+01
 1.743155e+00	 9.499317e-01	 1.298620e+01
 1.731598e+00	 9.708383e-01	 1.296248e+01
 1.793321e+00	 8.685764e-01	 1.302332e+01
 1.782818e+00	 8.899352e-01	 1.301977e+01
 1.772040e+00	 9.112083e-01	 1.300894e+01
 1.760987e+00	 9.323904e-01	 1.299208e+01
 1.749659e+00	 9.534763e-01	 1.297047e+01
 1.738060e+00	 9.744608e-01	 1.294525e+01
 1.799988e+00	 8.718053e-01	 1.301209e+01
 1.789446e+00	 8.932435e-01	 1.300710e+01
 1.778627e+00	 9.145957e-01	 1.299522e+01
 1.767533e+00	 9.358565e-01	 1.297738e+01
 1.756164e+00	 9.570208e-01	 1.295457e+01
 1.744521e+00	 9.780834e-01	 1.292771e+01
 1.712215e+00	 9.599707e-01	 1.301481e+01
 1.700520e+00	 9.805383e-01	 1.299307e+01
 1.688559e+00	 1.000996e+00	 1.296955e+01
 1.676333e+00	 1.021338e+00	 1.294472e+01
 1.663844e+00	 1.041561e+00	 1.291818e+01
 1.651093e+00	 1.061658e+00	 1.288838e+01
 1.718676e+00	 9.635932e-01	 1.299701e+01
 1.706937e+00	 9.842384e-01	 1.297406e+01
 1.694931e+00	 1.004773e+00	 1.294951e+01
 1.682659e+00	 1.025192e+00	 1.292398e+01
 1.670122e+00	 1.045491e+00	 1.289728e+01
 1.657323e+00	 1.065664e+00	 1.286809e+01
 1.725137e+00	 9.672158e-01	 1.297964e+01
 1.713354e+00	 9.879386e-01	 1.295524e+01
 1.701303e+00	 1.008550e+00	 1.292940e+01
 1.688984e+00	 1.029046e+00	 1.290299e+01
 1.676401e+00	 1.049421e+00	 1.287605e+01
 1.663554e+00	 1.069670e+00	 1.284755e+01
 1.731598e+00	 9.708383e-01	 1.296248e+01
 1.719771e+00	 9.916387e-01	 1.293641e+01
 1.707675e+00	 1.012328e+00	 1.290907e+01
 1.695310e+00	 1.032901e+00	 1.288162e+01
 1.682679e+00	 1.053352e+00	 1.285439e+01
 1.669784e+00	 1.073676e+00	 1.282667e+01
 1.738060e+00	 9.744608e-01	 1.294525e+01
 1.726188e+00	 9.953388e-01	 1.291735e+01
 1.714047e+00	 1.016105e+00	 1.288835e+01
 1.701636e+00	 1.036755e+00	 1.285973e+01
 1.688958e+00	 1.057282e+00	 1.283217e+01
 1.676015e+00	 1.077683e+00	 1.280537e+01
 1.744521e+00	 9.780834e-01	 1.292771e+01
 1.732605e+00	 9.990390e-01	 1.289786e+01
 1.720418e+00	 1.019883e+00	 1.286705e+01
 1.707962e+00	 1.040609e+00	 1.283716e+01
 1.695237e+00	 1.061213e+00	 1.280929e+01
 1.682245e+00	 1.081689e+00	 1.278354e+01
 1.651093e+00	 1.061658e+00	 1.288838e+01
 1.638082e+00	 1.081624e+00	 1.285759e+01
 1.624813e+00	 1.101456e+00	 1.282517e+01
 1.611289e+00	 1.121148e+00	 1.278545e+01
 1.597510e+00	 1.140695e+00	 1.274844e+01
 1.583481e+00	 1.160092e+00	 1.271540e+01
 1.657323e+00	 1.065664e+00	 1.286809e+01
 1.644263e+00	 1.085706e+00	 1.283797e+01
 1.630945e+00	 1.105613e+00	 1.280533e+01
 1.617369e+00	 1.125379e+00	 1.276700e+01
 1.603539e+00	 1.144999e+00	 1.273194e+01
 1.589456e+00	 1.164469e+00	 1.269964e+01
 1.663554e+00	 1.069670e+00	 1.284755e+01
 1.650445e+00	 1.089788e+00	 1.281827e+01
 1.637076e+00	 1.109769e+00	 1.278561e+01
 1.623449e+00	 1.129609e+00	 1.274935e+01
 1.609567e+00	 1.149304e+00	 1.271593e+01
 1.595432e+00	 1.168847e+00	 1.268389e+01
 1.669784e+00	 1.073676e+00	 1.282667e+01
 1.656626e+00	 1.093869e+00	 1.279844e+01
 1.643207e+00	 1.113926e+00	 1.276609e+01
 1.629530e+00	 1.133840e+00	 1.273228e+01
 1.615595e+00	 1.153608e+00	 1.270015e+01
 1.601407e+00	 1.173225e+00	 1.266790e+01
 1.676015e+00	 1.077683e+00	 1.280537e+01
 1.662808e+00	 1.097951e+00	 1.277840e+01
 1.649339e+00	 1.118082e+00	 1.274711e+01
 1.635610e+00	 1.138071e+00	 1.271556e+01
 1.621624e+00	 1.157913e+00	 1.268437e+01
 1.607382e+00	 1.177602e+00	 1.265141e+01
 1.682245e+00	 1.081689e+00	 1.278354e+01
 1.668989e+00	 1.102033e+00	 1.275805e+01
 1.655470e+00	 1.122238e+00	 1.272848e+01
 1.641690e+00	 1.142302e+00	 1.269897e+01
 1.627652e+00	 1.162217e+00	 1.266837e+01
 1.613358e+00	 1.181980e+00	 1.263419e+01
 1.583481e+00	 1.160092e+00	 1.271540e+01
 1.569202e+00	 1.179334e+00	 1.268179e+01
 1.554677e+00	 1.198417e+00	 1.264318e+01
 1.539908e+00	 1.217336e+00	 1.259875e+01
 1.524899e+00	 1.236086e+00	 1.254779e+01
 1.509651e+00	 1.254663e+00	 1.248975e+01
 1.589456e+00	 1.164469e+00	 1.269964e+01
 1.575124e+00	 1.183784e+00	 1.266566e+01
 1.560544e+00	 1.202939e+00	 1.262633e+01
 1.545719e+00	 1.221929e+00	 1.258159e+01
 1.530653e+00	 1.240750e+00	 1.253150e+01
 1.515348e+00	 1.259397e+00	 1.247639e+01
 1.595432e+00	 1.168847e+00	 1.268389e+01
 1.581045e+00	 1.188234e+00	 1.264914e+01
 1.566411e+00	 1.207461e+00	 1.260898e+01
 1.551530e+00	 1.226523e+00	 1.256402e+01
 1.536407e+00	 1.245415e+00	 1.251511e+01
 1.521044e+00	 1.264132e+00	 1.246337e+01
 1.601407e+00	 1.173225e+00	 1.266790e+01
 1.586967e+00	 1.192685e+00	 1.263197e+01
 1.572277e+00	 1.211984e+00	 1.259082e+01
 1.557341e+00	 1.231117e+00	 1.254572e+01
 1.542162e+00	 1.250079e+00	 1.249824e+01
 1.526741e+00	 1.268866e+00	 1.245029e+01
 1.607382e+00	 1.177602e+00	 1.265141e+01
 1.592888e+00	 1.197135e+00	 1.261386e+01
 1.578144e+00	 1.216506e+00	 1.257154e+01
 1.563152e+00	 1.235710e+00	 1.252635e+01
 1.547916e+00	 1.254744e+00	 1.248054e+01
 1.532438e+00	 1.273601e+00	 1.243675e+01
 1.613358e+00	 1.181980e+00	 1.263419e+01
 1.598810e+00	 1.201585e+00	 1.259456e+01
 1.584011e+00	 1.221028e+00	 1.255085e+01
 1.568963e+00	 1.240304e+00	 1.250558e+01
 1.553670e+00	 1.259408e+00	 1.246164e+01
 1.538135e+00	 1.278335e+00	 1.242236e+01
 1.509651e+00	 1.254663e+00	 1.248975e+01
 1.494168e+00	 1.273062e+00	 1.243327e+01
 1.478453e+00	 1.291279e+00	 1.238240e+01
 1.462509e+00	 1.309309e+00	 1.233058e+01
 1.446340e+00	 1.327149e+00	 1.227260e+01
 1.429949e+00	 1.344793e+00	 1.220466e+01
 1.515348e+00	 1.259397e+00	 1.247639e+01
 1.499806e+00	 1.277866e+00	 1.242405e+01
 1.484032e+00	 1.296151e+00	 1.237715e+01
 1.468028e+00	 1.314250e+00	 1.232857e+01
 1.451798e+00	 1.332157e+00	 1.227273e+01
 1.435345e+00	 1.349868e+00	 1.220552e+01
 1.521044e+00	 1.264132e+00	 1.246337e+01
 1.505445e+00	 1.282670e+00	 1.241553e+01
 1.489611e+00	 1.301024e+00	 1.237266e+01
 1.473547e+00	 1.319191e+00	 1.232747e+01
 1.457256e+00	 1.337165e+00	 1.227382e+01
 1.440741e+00	 1.354943e+00	 1.220738e+01
 1.526741e+00	 1.268866e+00	 1.245029e+01
 1.511083e+00	 1.287474e+00	 1.240727e+01
 1.495190e+00	 1.305897e+00	 1.236847e+01
 1.479066e+00	 1.324131e+00	 1.232672e+01
 1.462714e+00	 1.342173e+00	 1.227533e+01
 1.446137e+00	 1.360017e+00	 1.220974e+01
 1.532438e+00	 1.273601e+00	 1.243675e+01
 1.516721e+00	 1.292278e+00	 1.239883e+01
 1.500769e+00	 1.310770e+00	 1.236415e+01
 1.484585e+00	 1.329072e+00	 1.232576e+01
 1.468172e+00	 1.347181e+00	 1.227674e+01
 1.451533e+00	 1.365092e+00	 1.221213e+01
 1.538135e+00	 1.278335e+00	 1.242236e+01
 1.522360e+00	 1.297082e+00	 1.238981e+01
 1.506348e+00	 1.315642e+00	 1.235928e+01
 1.490104e+00	 1.334013e+00	 1.232411e+01
 1.473630e+00	 1.352189e+00	 1.227754e+01
 1.456929e+00	 1.370167e+00	 1.221406e+01
 1.429949e+00	 1.344793e+00	 1.220466e+01
 1.413340e+00	 1.362239e+00	 1.211817e+01
 1.396516e+00	 1.379481e+00	 1.201135e+01
 1.379481e+00	 1.396516e+00	 1.189164e+01
 1.362239e+00	 1.413340e+00	 1.176628e+01
 1.344793e+00	 1.429949e+00	 1.164161e+01
 1.435345e+00	 1.349868e+00	 1.220552e+01
 1.418673e+00	 1.367379e+00	 1.211954e+01
 1.401786e+00	 1.384686e+00	 1.201392e+01
 1.384686e+00	 1.401786e+00	 1.189542e+01
 1.367379e+00	 1.418673e+00	 1.177059e+01
 1.349868e+00	 1.435345e+00	 1.164513e+01
 1.440741e+00	 1.354943e+00	 1.220738e+01
 1.424007e+00	 1.372520e+00	 1.212200e+01
 1.407056e+00	 1.389892e+00	 1.201769e+01
 1.389892e+00	 1.407056e+00	 1.190052e+01
 1.372520e+00	 1.424007e+00	 1.177634e+01
 1.354943e+00	 1.440741e+00	 1.165011e+01
 1.446137e+00	 1.360017e+00	 1.220974e+01
 1.429340e+00	 1.377660e+00	 1.212510e+01
 1.412325e+00	 1.395098e+00	 1.202227e+01
 1.395098e+00	 1.412325e+00	 1.190657e+01
 1.377660e+00	 1.429340e+00	 1.178314e+01
 1.360017e+00	 1.446137e+00	 1.165620e+01
 1.451533e+00	 1.365092e+00	 1.221213e+01
 1.434673e+00	 1.382801e+00	 1.212840e+01
 1.417595e+00	 1.400303e+00	 1.202723e+01
 1.400303e+00	 1.417595e+00	 1.191318e+01
 1.382801e+00	 1.434673e+00	 1.179064e+01
 1.365092e+00	 1.451533e+00	 1.166304e+01
 1.456929e+00	 1.370167e+00	 1.221406e+01
 1.440007e+00	 1.387941e+00	 1.213146e+01
 1.422865e+00	 1.405509e+00	 1.203216e+01
 1.405509e+00	 1.422865e+00	 1.191996e+01
 1.387941e+00	 1.440007e+00	 1.179845e+01
 1.370167e+00	 1.456929e+00	 1.167026e+01
 1.344793e+00	 1.429949e+00	 1.164161e+01
 1.327149e+00	 1.446340e+00	 1.151471e+01
 1.309309e+00	 1.462509e+00	 1.138444e+01
 1.291279e+00	 1.478453e+00	 1.125693e+01
 1.273062e+00	 1.494168e+00	 1.112744e+01
 1.254663e+00	 1.509651e+00	 1.098358e+01
 1.349868e+00	 1.435345e+00	 1.164513e+01
 1.332157e+00	 1.451798e+00	 1.151694e+01
 1.314250e+00	 1.468028e+00	 1.138657e+01
 1.296151e+00	 1.484032e+00	 1.126033e+01
 1.277866e+00	 1.499806e+00	 1.112616e+01
 1.259397e+00	 1.515348e+00	 1.098028e+01
 1.354943e+00	 1.440741e+00	 1.165011e+01
 1.337165e+00	 1.457256e+00	 1.152077e+01
 1.319191e+00	 1.473547e+00	 1.139072e+01
 1.301024e+00	 1.489611e+00	 1.126360e+01
 1.282670e+00	 1.505445e+00	 1.112486e+01
 1.264132e+00	 1.521044e+00	 1.097753e+01
 1.360017e+00	 1.446137e+00	 1.165620e+01
 1.342173e+00	 1.462714e+00	 1.152586e+01
 1.324131e+00	 1.479066e+00	 1.139652e+01
 1.305897e+00	 1.495190e+00	 1.126579e+01
 1.287474e+00	 1.511083e+00	 1.112298e+01
 1.268866e+00	 1.526741e+00	 1.097470e+01
 1.365092e+00	 1.451533e+00	 1.166304e+01
 1.347181e+00	 1.468172e+00	 1.153185e+01
 1.329072e+00	 1.484585e+00	 1.140307e+01
 1.310770e+00	 1.500769e+00	 1.126644e+01
 1.292278e+00	 1.516721e+00	 1.111998e+01
 1.273601e+00	 1.532438e+00	 1.097116e+01
 1.370167e+00	 1.456929e+00	 1.167026e+01
 1.352189e+00	 1.473630e+00	 1.153836e+01
 1.334013e+00	 1.490104e+00	 1.140758e+01
 1.315642e+00	 1.506348e+00	 1.126508e+01
 1.297082e+00	 1.522360e+00	 1.111534e+01
 1.278335e+00	 1.538135e+00	 1.096630e+01
 1.254663e+00	 1.509651e+00	 1.098358e+01
 1.236086e+00	 1.524899e+00	 1.083731e+01
 1.217336e+00	 1.539908e+00	 1.069661e+01
 1.198417e+00	 1.554677e+00	 1.055990e+01
 1.179334e+00	 1.569202e+00	 1.042565e+01
 1.160092e+00	 1.583481e+00	 1.029245e+01
 1.259397e+00	 1.515348e+00	 1.098028e+01
 1.240750e+00	 1.530653e+00	 1.083435e+01
 1.221929e+00	 1.545719e+00	 1.069482e+01
 1.202939e+00	 1.560544e+00	 1.055966e+01
 1.183784e+00	 1.575124e+00	 1.042682e+01
 1.164469e+00	 1.589456e+00	 1.029437e+01
 1.264132e+00	 1.521044e+00	 1.097753e+01
 1.245415e+00	 1.536407e+00	 1.083229e+01
 1.226523e+00	 1.551530e+00	 1.069392e+01
 1.207461e+00	 1.566411e+00	 1.056007e+01
 1.188234e+00	 1.581045e+00	 1.042834e+01
 1.168847e+00	 1.595432e+00	 1.029642e+01
 1.268866e+00	 1.526741e+00	 1.097470e+01
 1.250079e+00	 1.542162e+00	 1.083041e+01
 1.231117e+00	 1.557341e+00	 1.069316e+01
 1.211984e+00	 1.572277e+00	 1.056038e+01
 1.192685e+00	 1.586967e+00	 1.042950e+01
 1.173225e+00	 1.601407e+00	 1.029796e+01
 1.273601e+00	 1.532438e+00	 1.097116e+01
 1.254744e+00	 1.547916e+00	 1.082802e+01
 1.235710e+00	 1.563152e+00	 1.069180e+01
 1.216506e+00	 1.578144e+00	 1.055988e+01
 1.197135e+00	 1.592888e+00	 1.042962e+01
 1.177602e+00	 1.607382e+00	 1.029838e+01
 1.278335e+00	 1.538135e+00	 1.096630e+01
 1.259408e+00	 1.553670e+00	 1.082444e+01
 1.240304e+00	 1.568963e+00	 1.068913e+01
 1.221028e+00	 1.584011e+00	 1.055786e+01
 1.201585e+00	 1.598810e+00	 1.042803e+01
 1.181980e+00	 1.613358e+00	 1.029708e+01
 1.160092e+00	 1.583481e+00	 1.029245e+01
 1.140695e+00	 1.597510e+00	 1.015616e+01
 1.121148e+00	 1.611289e+00	 1.001497e+01
 1.101456e+00	 1.624813e+00	 9.871819e+00
 1.081624e+00	 1.638082e+00	 9.729696e+00
 1.061658e+00	 1.651093e+00	 9.587682e+00
 1.164469e+00	 1.589456e+00	 1.029437e+01
 1.144999e+00	 1.603539e+00	 1.015827e+01
 1.125379e+00	 1.617369e+00	 1.001720e+01
 1.105613e+00	 1.630945e+00	 9.873943e+00
 1.085706e+00	 1.644263e+00	 9.732341e+00
 1.065664e+00	 1.657323e+00	 9.592264e+00
 1.168847e+00	 1.595432e+00	 1.029642e+01
 1.149304e+00	 1.609567e+00	 1.016057e+01
 1.129609e+00	 1.623449e+00	 1.001998e+01
 1.109769e+00	 1.637076e+00	 9.877215e+00
 1.089788e+00	 1.650445e+00	 9.736279e+00
 1.069670e+00	 1.663554e+00	 9.597993e+00
 1.173225e+00	 1.601407e+00	 1.029796e+01
 1.153608e+00	 1.615595e+00	 1.016250e+01
 1.133840e+00	 1.629530e+00	 1.002277e+01
 1.113926e+00	 1.643207e+00	 9.881048e+00
 1.093869e+00	 1.656626e+00	 9.740907e+00
 1.073676e+00	 1.669784e+00	 9.604160e+00
 1.177602e+00	 1.607382e+00	 1.029838e+01
 1.157913e+00	 1.621624e+00	 1.016350e+01
 1.138071e+00	 1.635610e+00	 1.002501e+01
 1.118082e+00	 1.649339e+00	 9.884765e+00
 1.097951e+00	 1.662808e+00	 9.745628e+00
 1.077683e+00	 1.676015e+00	 9.610065e+00
 1.181980e+00	 1.613358e+00	 1.029708e+01
 1.162217e+00	 1.627652e+00	 1.016305e+01
 1.142302e+00	 1.641690e+00	 1.002621e+01
 1.122238e+00	 1.655470e+00	 9.887800e+00
 1.102033e+00	 1.668989e+00	 9.749853e+00
 1.081689e+00	 1.682245e+00	 9.615016e+00
 1.061658e+00	 1.651093e+00	 9.587682e+00
 1.041561e+00	 1.663844e+00	 9.449804e+00
 1.021338e+00	 1.676333e+00	 9.315952e+00
 1.000996e+00	 1.688559e+00	 9.181414e+00
 9.805383e-01	 1.700520e+00	 9.042878e+00
 9.599707e-01	 1.712215e+00	 8.898170e+00
 1.065664e+00	 1.657323e+00	 9.592264e+00
 1.045491e+00	 1.670122e+00	 9.456699e+00
 1.025192e+00	 1.682659e+00	 9.324563e+00
 1.004773e+00	 1.694931e+00	 9.191277e+00
 9.842384e-01	 1.706937e+00	 9.053674e+00
 9.635932e-01	 1.718676e+00	 8.909733e+00
 1.069670e+00	 1.663554e+00	 9.597993e+00
 1.049421e+00	 1.676401e+00	 9.464190e+00
 1.029046e+00	 1.688984e+00	 9.333008e+00
 1.008550e+00	 1.701303e+00	 9.200277e+00
 9.879386e-01	 1.713354e+00	 9.063262e+00
 9.672158e-01	 1.725137e+00	 8.920390e+00
 1.073676e+00	 1.669784e+00	 9.604160e+00
 1.053352e+00	 1.682679e+00	 9.471481e+00
 1.032901e+00	 1.695310e+00	 9.340485e+00
 1.012328e+00	 1.707675e+00	 9.207682e+00
 9.916387e-01	 1.719771e+00	 9.071053e+00
 9.708383e-01	 1.731598e+00	 8.929766e+00
 1.077683e+00	 1.676015e+00	 9.610065e+00
 1.057282e+00	 1.688958e+00	 9.477788e+00
 1.036755e+00	 1.701636e+00	 9.346200e+00
 1.016105e+00	 1.714047e+00	 9.212767e+00
 9.953388e-01	 1.726188e+00	 9.076463e+00
 9.744608e-01	 1.738060e+00	 8.937486e+00
 1.081689e+00	 1.682245e+00	 9.615016e+00
 1.061213e+00	 1.695237e+00	 9.482332e+00
 1.040609e+00	 1.707962e+00	 9.349370e+00
 1.019883e+00	 1.720418e+00	 9.214813e+00
 9.990390e-01	 1.732605e+00	 9.078911e+00
 9.780834e-01	 1.744521e+00	 8.943174e+00
 9.599707e-01	 1.712215e+00	 8.898170e+00
 9.392982e-01	 1.723642e+00	 8.746939e+00
 9.185258e-01	 1.734801e+00	 8.591406e+00
 8.976587e-01	 1.745690e+00	 8.434302e+00
 8.767020e-01	 1.756308e+00	 8.278643e+00
 8.556608e-01	 1.766655e+00	 8.127535e+00
 9.635932e-01	 1.718676e+00	 8.909733e+00
 9.428427e-01	 1.730147e+00	 8.759478e+00
 9.219919e-01	 1.741347e+00	 8.605242e+00
 9.010461e-01	 1.752277e+00	 8.449504e+00
 8.800103e-01	 1.762935e+00	 8.295009e+00
 8.588897e-01	 1.773321e+00	 8.144560e+00
 9.672158e-01	 1.725137e+00	 8.920390e+00
 9.463872e-01	 1.736651e+00	 8.772152e+00
 9.254581e-01	 1.747894e+00	 8.620578e+00
 9.044335e-01	 1.758865e+00	 8.467426e+00
 8.833186e-01	 1.769563e+00	 8.314676e+00
 8.621186e-01	 1.779988e+00	 8.164329e+00
 9.708383e-01	 1.731598e+00	 8.929766e+00
 9.499317e-01	 1.743155e+00	 8.784764e+00
 9.289242e-01	 1.754440e+00	 8.637264e+00
 9.078209e-01	 1.765452e+00	 8.487833e+00
 8.866269e-01	 1.776191e+00	 8.337206e+00
 8.653475e-01	 1.786654e+00	 8.186081e+00
 9.744608e-01	 1.738060e+00	 8.937486e+00
 9.534763e-01	 1.749659e+00	 8.797116e+00
 9.323904e-01	 1.760987e+00	 8.655144e+00
 9.112083e-01	 1.772040e+00	 8.510488e+00
 8.899352e-01	 1.782818e+00	 8.362159e+00
 8.685764e-01	 1.793321e+00	 8.209057e+00
 9.780834e-01	 1.744521e+00	 8.943174e+00
 9.570208e-01	 1.756164e+00	 8.809004e+00
 9.358565e-01	 1.767533e+00	 8.674057e+00
 9.145957e-01	 1.778627e+00	 8.535148e+00
 8.932435e-01	 1.789446e+00	 8.389090e+00
 8.718053e-01	 1.799988e+00	 8.232501e+00
 8.556608e-01	 1.766655e+00	 8.127535e+00
 8.345401e-01	 1.776729e+00	 7.980844e+00
 8.133452e-01	 1.786531e+00	 7.836649e+00
 7.920811e-01	 1.796060e+00	 7.694989e+00
 7.707529e-01	 1.805315e+00	 7.555366e+00
 7.493657e-01	 1.814297e+00	 7.416645e+00
 8.588897e-01	 1.773321e+00	 8.144560e+00
 8.376893e-01	 1.783434e+00	 7.997709e+00
 8.164145e-01	 1.793273e+00	 7.852742e+00
 7.950701e-01	 1.802837e+00	 7.710164e+00
 7.736614e-01	 1.812128e+00	 7.569925e+00
 7.521935e-01	 1.821144e+00	 7.431318e+00
 8.621186e-01	 1.779988e+00	 8.164329e+00
 8.408386e-01	 1.790138e+00	 8.015501e+00
 8.194837e-01	 1.800014e+00	 7.867483e+00
 7.980591e-01	 1.809615e+00	 7.722108e+00
 7.765699e-01	 1.818940e+00	 7.580657e+00
 7.550213e-01	 1.827990e+00	 7.443760e+00
 8.653475e-01	 1.786654e+00	 8.186081e+00
 8.439878e-01	 1.796843e+00	 8.033191e+00
 8.225529e-01	 1.806756e+00	 7.879783e+00
 8.010481e-01	 1.816393e+00	 7.729870e+00
 7.794784e-01	 1.825753e+00	 7.586946e+00
 7.578491e-01	 1.834837e+00	 7.453867e+00
 8.685764e-01	 1.793321e+00	 8.209057e+00
 8.471370e-01	 1.803548e+00	 8.049754e+00
 8.256221e-01	 1.813498e+00	 7.888558e+00
 8.040371e-01	 1.823170e+00	 7.732509e+00
 7.823869e-01	 1.832565e+00	 7.588174e+00
 7.606769e-01	 1.841683e+00	 7.461523e+00
 8.718053e-01	 1.799988e+00	 8.232501e+00
 8.502862e-01	 1.810252e+00	 8.064171e+00
 8.286914e-01	 1.820239e+00	 7.892731e+00
 8.070261e-01	 1.829948e+00	 7.729083e+00
 7.852954e-01	 1.839378e+00	 7.583723e+00
 7.635047e-01	 1.848529e+00	 7.466607e+00
 7.493657e-01	 1.814297e+00	 7.416645e+00
 7.279244e-01	 1.823006e+00	 7.279625e+00
 7.064342e-01	 1.831440e+00	 7.147965e+00
 6.849000e-01	 1.839602e+00	 7.027101e+00
 6.633268e-01	 1.847490e+00	 6.919682e+00
 6.417196e-01	 1.855106e+00	 6.821825e+00
 7.521935e-01	 1.821144e+00	 7.431318e+00
 7.306713e-01	 1.829885e+00	 7.295545e+00
 7.091000e-01	 1.838352e+00	 7.166437e+00
 6.874846e-01	 1.846544e+00	 7.051176e+00
 6.658300e-01	 1.854462e+00	 6.952356e+00
 6.441411e-01	 1.862107e+00	 6.844864e+00
 7.550213e-01	 1.827990e+00	 7.443760e+00
 7.334182e-01	 1.836764e+00	 7.313691e+00
 7.117658e-01	 1.845263e+00	 7.193877e+00
 6.900691e-01	 1.853486e+00	 7.091173e+00
 6.683331e-01	 1.861434e+00	 6.985679e+00
 6.465627e-01	 1.869107e+00	 6.868298e+00
 7.578491e-01	 1.834837e+00	 7.453867e+00
 7.361651e-01	 1.843643e+00	 7.334394e+00
 7.144316e-01	 1.852174e+00	 7.230814e+00
 6.926536e-01	 1.860428e+00	 7.128466e+00
 6.708362e-01	 1.868405e+00	 7.014512e+00
 6.489843e-01	 1.876108e+00	 6.892342e+00
 7.606769e-01	 1.841683e+00	 7.461523e+00
 7.389120e-01	 1.850523e+00	 7.357972e+00
 7.170974e-01	 1.859085e+00	 7.263143e+00
 6.952382e-01	 1.867370e+00	 7.155620e+00
 6.733393e-01	 1.875377e+00	 7.039501e+00
 6.514059e-01	 1.883108e+00	 6.917210e+00
 7.635047e-01	 1.848529e+00	 7.466607e+00
 7.416589e-01	 1.857402e+00	 7.376453e+00
 7.197632e-01	 1.865996e+00	 7.279428e+00
 6.978227e-01	 1.874311e+00	 7.173513e+00
 6.758424e-01	 1.882349e+00	 7.061290e+00
 6.538275e-01	 1.890108e+00	 6.943120e+00
 6.417196e-01	 1.855106e+00	 6.821825e+00
 6.200831e-01	 1.862450e+00	 6.704507e+00
 5.984223e-01	 1.869522e+00	 6.568043e+00
 5.767420e-01	 1.876324e+00	 6.421841e+00
 5.550469e-01	 1.882856e+00	 6.274343e+00
 5.333417e-01	 1.889119e+00	 6.133207e+00
 6.441411e-01	 1.862107e+00	 6.844864e+00
 6.224230e-01	 1.869478e+00	 6.720570e+00
 6.006805e-01	 1.876577e+00	 6.584357e+00
 5.789183e-01	 1.883405e+00	 6.443012e+00
 5.571414e-01	 1.889961e+00	 6.302318e+00
 5.353543e-01	 1.896248e+00	 6.167249e+00
 6.465627e-01	 1.869107e+00	 6.868298e+00
 6.247630e-01	 1.876506e+00	 6.740246e+00
 6.029387e-01	 1.883632e+00	 6.605289e+00
 5.810947e-01	 1.890485e+00	 6.468244e+00
 5.592359e-01	 1.897066e+00	 6.332901e+00
 5.373670e-01	 1.903376e+00	 6.202232e+00
 6.489843e-01	 1.876108e+00	 6.892342e+00
 6.271029e-01	 1.883534e+00	 6.763298e+00
 6.051969e-01	 1.890687e+00	 6.630312e+00
 5.832711e-01	 1.897566e+00	 6.496871e+00
 5.613304e-01	 1.904171e+00	 6.365433e+00
 5.393796e-01	 1.910505e+00	 6.237638e+00
 6.514059e-01	 1.883108e+00	 6.917210e+00
 6.294428e-01	 1.890563e+00	 6.789498e+00
 6.074551e-01	 1.897742e+00	 6.658910e+00
 5.854475e-01	 1.904646e+00	 6.528242e+00
 5.634249e-01	 1.911276e+00	 6.399270e+00
 5.413922e-01	 1.917634e+00	 6.272963e+00
 6.538275e-01	 1.890108e+00	 6.943120e+00
 6.317828e-01	 1.897591e+00	 6.818626e+00
 6.097133e-01	 1.904797e+00	 6.690584e+00
 5.876239e-01	 1.911726e+00	 6.561721e+00
 5.655194e-01	 1.918382e+00	 6.433779e+00
 5.434048e-01	 1.924763e+00	 6.307715e+00
 5.333417e-01	 1.889119e+00	 6.133207e+00
 5.116312e-01	 1.895114e+00	 6.003738e+00
 4.899200e-01	 1.900842e+00	 5.883583e+00
 4.682125e-01	 1.906305e+00	 5.768289e+00
 4.465133e-01	 1.911504e+00	 5.653333e+00
 4.248269e-01	 1.916441e+00	 5.534262e+00
 5.353543e-01	 1.896248e+00	 6.167249e+00
 5.135619e-01	 1.902265e+00	 6.040850e+00
 4.917687e-01	 1.908015e+00	 5.920975e+00
 4.699794e-01	 1.913499e+00	 5.804182e+00
 4.481983e-01	 1.918718e+00	 5.686962e+00
 4.264300e-01	 1.923673e+00	 5.565874e+00
 5.373670e-01	 1.903376e+00	 6.202232e+00
 5.154926e-01	 1.909417e+00	 6.077755e+00
 4.936175e-01	 1.915188e+00	 5.957691e+00
 4.717462e-01	 1.920693e+00	 5.839419e+00
 4.498833e-01	 1.925931e+00	 5.720240e+00
 4.280332e-01	 1.930905e+00	 5.597518e+00
 5.393796e-01	 1.910505e+00	 6.237638e+00
 5.174233e-01	 1.916568e+00	 6.114100e+00
 4.954662e-01	 1.922361e+00	 5.993452e+00
 4.735130e-01	 1.927886e+00	 5.873704e+00
 4.515682e-01	 1.933144e+00	 5.752774e+00
 4.296363e-01	 1.938136e+00	 5.628624e+00
 5.413922e-01	 1.917634e+00	 6.272963e+00
 5.193540e-01	 1.923719e+00	 6.149541e+00
 4.973150e-01	 1.929534e+00	 6.027986e+00
 4.752799e-01	 1.935080e+00	 5.906753e+00
 4.532532e-01	 1.940357e+00	 5.784181e+00
 4.312394e-01	 1.945368e+00	 5.658631e+00
 5.434048e-01	 1.924763e+00	 6.307715e+00
 5.212847e-01	 1.930871e+00	 6.183743e+00
 4.991637e-01	 1.936707e+00	 6.061027e+00
 4.770467e-01	 1.942274e+00	 5.938284e+00
 4.549381e-01	 1.947571e+00	 5.814087e+00
 4.328425e-01	 1.952600e+00	 5.686990e+00
 4.248269e-01	 1.916441e+00	 5.534262e+00
 4.031576e-01	 1.921116e+00	 5.407981e+00
 3.815097e-01	 1.925532e+00	 5.285292e+00
 3.598875e-01	 1.929690e+00	 5.181740e+00
 3.382951e-01	 1.933593e+00	 5.097017e+00
 3.167367e-01	 1.937241e+00	 5.023690e+00
 4.264300e-01	 1.923673e+00	 5.565874e+00
 4.046790e-01	 1.928366e+00	 5.438886e+00
 3.829494e-01	 1.932798e+00	 5.316183e+00
 3.612456e-01	 1.936972e+00	 5.212204e+00
 3.395717e-01	 1.940889e+00	 5.127440e+00
 3.179320e-01	 1.944551e+00	 5.054328e+00
 4.280332e-01	 1.930905e+00	 5.597518e+00
 4.062003e-01	 1.935615e+00	 5.470035e+00
 3.843890e-01	 1.940064e+00	 5.347345e+00
 3.626036e-01	 1.944254e+00	 5.242809e+00
 3.408483e-01	 1.948186e+00	 5.157711e+00
 3.191272e-01	 1.951861e+00	 5.084548e+00
 4.296363e-01	 1.938136e+00	 5.628624e+00
 4.077217e-01	 1.942865e+00	 5.500684e+00
 3.858287e-01	 1.947331e+00	 5.377939e+00
 3.639617e-01	 1.951536e+00	 5.272725e+00
 3.421249e-01	 1.955482e+00	 5.187099e+00
 3.203224e-01	 1.959172e+00	 5.113799e+00
 4.312394e-01	 1.945368e+00	 5.658631e+00
 4.092430e-01	 1.950114e+00	 5.530096e+00
 3.872684e-01	 1.954597e+00	 5.407137e+00
 3.653198e-01	 1.958818e+00	 5.301134e+00
 3.434015e-01	 1.962779e+00	 5.214879e+00
 3.215177e-01	 1.966482e+00	 5.141534e+00
 4.328425e-01	 1.952600e+00	 5.686990e+00
 4.107643e-01	 1.957364e+00	 5.557549e+00
 3.887080e-01	 1.961863e+00	 5.434124e+00
 3.666778e-01	 1.966100e+00	 5.327224e+00
 3.446781e-01	 1.970075e+00	 5.240336e+00
 3.227129e-01	 1.973792e+00	 5.167208e+00
 3.167367e-01	 1.937241e+00	 5.023690e+00
 2.952163e-01	 1.940637e+00	 4.958182e+00
 2.737379e-01	 1.943783e+00	 4.898341e+00
 2.523052e-01	 1.946681e+00	 4.843689e+00
 2.309223e-01	 1.949333e+00	 4.795770e+00
 2.095928e-01	 1.951741e+00	 4.757654e+00
 3.179320e-01	 1.944551e+00	 5.054328e+00
 2.963303e-01	 1.947960e+00	 4.989118e+00
 2.747708e-01	 1.951118e+00	 4.929726e+00
 2.532573e-01	 1.954027e+00	 4.875750e+00
 2.317937e-01	 1.956689e+00	 4.828794e+00
 2.103837e-01	 1.959106e+00	 4.791978e+00
 3.191272e-01	 1.951861e+00	 5.084548e+00
 2.974444e-01	 1.955283e+00	 5.019525e+00
 2.758038e-01	 1.958453e+00	 4.960593e+00
 2.542094e-01	 1.961373e+00	 4.907325e+00
 2.326651e-01	 1.964045e+00	 4.861272e+00
 2.111746e-01	 1.966472e+00	 4.825479e+00
 3.203224e-01	 1.959172e+00	 5.113799e+00
 2.985584e-01	 1.962606e+00	 5.049033e+00
 2.768368e-01	 1.965788e+00	 4.990668e+00
 2.551615e-01	 1.968719e+00	 4.938156e+00
 2.335365e-01	 1.971401e+00	 4.892882e+00
 2.119655e-01	 1.973837e+00	 4.857691e+00
 3.215177e-01	 1.966482e+00	 5.141534e+00
 2.996724e-01	 1.969929e+00	 5.077268e+00
 2.778697e-01	 1.973123e+00	 5.019677e+00
 2.561136e-01	 1.976065e+00	 4.967984e+00
 2.344079e-01	 1.978757e+00	 4.923299e+00
 2.127564e-01	 1.981202e+00	 4.888149e+00
 3.227129e-01	 1.973792e+00	 5.167208e+00
 3.007864e-01	 1.977253e+00	 5.103861e+00
 2.789027e-01	 1.980458e+00	 5.047340e+00
 2.570657e-01	 1.983411e+00	 4.996547e+00
 2.352793e-01	 1.986113e+00	 4.952202e+00
 2.135473e-01	 1.988567e+00	 4.916387e+00
 2.095928e-01	 1.951741e+00	 4.757654e+00
 1.883203e-01	 1.953909e+00	 4.732435e+00
 1.671084e-01	 1.955837e+00	 4.717055e+00
 1.459607e-01	 1.957529e+00	 4.706431e+00
 1.248806e-01	 1.958987e+00	 4.695482e+00
 1.038714e-01	 1.960213e+00	 4.678819e+00
 2.103837e-01	 1.959106e+00	 4.791978e+00
 1.890309e-01	 1.961282e+00	 4.768032e+00
 1.677390e-01	 1.963218e+00	 4.753682e+00
 1.465115e-01	 1.964916e+00	 4.744097e+00
 1.253519e-01	 1.966379e+00	 4.734454e+00
 1.042634e-01	 1.967610e+00	 4.719632e+00
 2.111746e-01	 1.966472e+00	 4.825479e+00
 1.897416e-01	 1.968655e+00	 4.802277e+00
 1.683696e-01	 1.970598e+00	 4.788369e+00
 1.470623e-01	 1.972303e+00	 4.779422e+00
 1.258231e-01	 1.973771e+00	 4.771127e+00
 1.046553e-01	 1.975007e+00	 4.758899e+00
 2.119655e-01	 1.973837e+00	 4.857691e+00
 1.904522e-01	 1.976028e+00	 4.834597e+00
 1.690002e-01	 1.977979e+00	 4.820601e+00
 1.476131e-01	 1.979690e+00	 4.812103e+00
 1.262944e-01	 1.981164e+00	 4.805557e+00
 1.050473e-01	 1.982404e+00	 4.797185e+00
 2.127564e-01	 1.981202e+00	 4.888149e+00
 1.911629e-01	 1.983402e+00	 4.864425e+00
 1.696308e-01	 1.985359e+00	 4.849867e+00
 1.481639e-01	 1.987076e+00	 4.841835e+00
 1.267656e-01	 1.988556e+00	 4.837798e+00
 1.054393e-01	 1.989801e+00	 4.835041e+00
 2.135473e-01	 1.988567e+00	 4.916387e+00
 1.918735e-01	 1.990775e+00	 4.891198e+00
 1.702614e-01	 1.992740e+00	 4.875658e+00
 1.487147e-01	 1.994463e+00	 4.868317e+00
 1.272369e-01	 1.995949e+00	 4.867899e+00
 1.058312e-01	 1.997198e+00	 4.873009e+00
 1.038714e-01	 1.960213e+00	 4.678819e+00
 8.293632e-02	 1.961210e+00	 4.655925e+00
 6.207860e-02	 1.961981e+00	 4.629005e+00
 4.130131e-02	 1.962528e+00	 4.595468e+00
 2.060747e-02	 1.962855e+00	 4.551333e+00
 0.000000e+00	 1.962963e+00	 4.490989e+00
 1.042634e-01	 1.967610e+00	 4.719632e+00
 8.324929e-02	 1.968611e+00	 4.699220e+00
 6.231286e-02	 1.969385e+00	 4.673531e+00
 4.145716e-02	 1.969934e+00	 4.637279e+00
 2.068523e-02	 1.970262e+00	 4.583846e+00
 0.000000e+00	 1.970370e+00	 4.505042e+00
 1.046553e-01	 1.975007e+00	 4.758899e+00
 8.356226e-02	 1.976012e+00	 4.742273e+00
 6.254712e-02	 1.976789e+00	 4.718964e+00
 4.161302e-02	 1.977340e+00	 4.680437e+00
 2.076300e-02	 1.977669e+00	 4.616828e+00
 0.000000e+00	 1.977778e+00	 4.516729e+00
 1.050473e-01	 1.982404e+00	 4.797185e+00
 8.387522e-02	 1.983413e+00	 4.785986e+00
 6.278138e-02	 1.984192e+00	 4.766076e+00
 4.176887e-02	 1.984746e+00	 4.725115e+00
 2.084076e-02	 1.985076e+00	 4.649403e+00
 0.000000e+00	 1.985185e+00	 4.523673e+00
 1.054393e-01	 1.989801e+00	 4.835041e+00
 8.418819e-02	 1.990813e+00	 4.831246e+00
 6.301563e-02	 1.991596e+00	 4.815626e+00
 4.192473e-02	 1.992151e+00	 4.771489e+00
 2.091852e-02	 1.992483e+00	 4.680708e+00
 0.000000e+00	 1.992593e+00	 4.523533e+00
 1.058312e-01	 1.997198e+00	 4.873009e+00
 8.450116e-02	 1.998214e+00	 4.878928e+00
 6.324989e-02	 1.999000e+00	 4.868359e+00
 4.208058e-02	 1.999557e+00	 4.819727e+00
 2.099629e-02	 1.999890e+00	 4.709895e+00
 0.000000e+00	 2.000000e+00	 4.514002e+00
