x	y	stress_xx
 1.0000000000e+00	 0.0000000000e+00	 1.7998494290e-03
 9.9994489297e-01	 1.0498143933e-02	 4.4449205012e-03
 9.9977862859e-01	 2.1040290185e-02	 1.4795525220e-02
 9.9949980627e-01	 3.1624946766e-02	 3.2370506419e-02
 9.9910704558e-01	 4.2250579451e-02	 5.6804779185e-02
 9.9859898759e-01	 5.2915611885e-02	 8.7844016369e-02
 1.0074074074e+00	 0.0000000000e+00	 2.2194428781e-01
 1.0073518922e+00	 1.0575907962e-02	 2.2453834411e-01
 1.0071843962e+00	 2.1196144186e-02	 2.3409106837e-01
 1.0069035085e+00	 3.1859205630e-02	 2.5022927547e-01
 1.0065078385e+00	 4.2563546706e-02	 2.7270129275e-01
 1.0059960171e+00	 5.3307579380e-02	 3.0137097006e-01
 1.0148148148e+00	 0.0000000000e+00	 4.3258877566e-01
 1.0147588914e+00	 1.0653671991e-02	 4.3514177048e-01
 1.0145901638e+00	 2.1351998187e-02	 4.4399010391e-01
 1.0143072108e+00	 3.2093464495e-02	 4.5883167249e-01
 1.0139086314e+00	 4.2876513961e-02	 4.7949173528e-01
 1.0133930467e+00	 5.3699546876e-02	 5.0591630624e-01
 1.0222222222e+00	 0.0000000000e+00	 6.3327522580e-01
 1.0221658906e+00	 1.0731436021e-02	 6.3575837770e-01
 1.0219959314e+00	 2.1507852189e-02	 6.4396635468e-01
 1.0217109131e+00	 3.2327723360e-02	 6.5763240461e-01
 1.0213094244e+00	 4.3189481216e-02	 6.7662340989e-01
 1.0207900762e+00	 5.4091514371e-02	 7.0093271781e-01
 1.0296296296e+00	 0.0000000000e+00	 8.2355970440e-01
 1.0295728898e+00	 1.0809200050e-02	 8.2590681809e-01
 1.0294016991e+00	 2.1663706190e-02	 8.3350996433e-01
 1.0291146153e+00	 3.2561982225e-02	 8.4610314921e-01
 1.0287102173e+00	 4.3502448472e-02	 8.6356071946e-01
 1.0281871057e+00	 5.4483481867e-02	 8.8588968451e-01
 1.0370370370e+00	 0.0000000000e+00	 1.0030119255e+00
 1.0369798890e+00	 1.0886964079e-02	 1.0051206677e+00
 1.0368074667e+00	 2.1819560192e-02	 1.0121269139e+00
 1.0365183176e+00	 3.2796241090e-02	 1.0237319507e+00
 1.0361110102e+00	 4.3815415727e-02	 1.0397845579e+00
 1.0355841353e+00	 5.4875449362e-02	 1.0602728739e+00
 9.9859898759e-01	 5.2915611885e-02	 8.7844016369e-02
 9.9797429622e-01	 6.3618425732e-02	 1.2564372042e-01
 9.9723165959e-01	 7.4357360874e-02	 1.7044656971e-01
 9.9636979142e-01	 8.5130715650e-02	 2.2226312647e-01
 9.9538743238e-01	 9.5936747147e-02	 2.8116907296e-01
 9.9428335150e-01	 1.0677367154e-01	 3.4729453863e-01
 1.0059960171e+00	 5.3307579380e-02	 3.0137097006e-01
 1.0053666984e+00	 6.4089673330e-02	 3.3641052023e-01
 1.0046185608e+00	 7.4908156140e-02	 3.7795308778e-01
 1.0037503084e+00	 8.5761313544e-02	 4.2594569036e-01
 1.0027606726e+00	 9.6647389719e-02	 4.8040613880e-01
 1.0016484134e+00	 1.0756458763e-01	 5.4141190471e-01
 1.0133930467e+00	 5.3699546876e-02	 5.0591630624e-01
 1.0127591006e+00	 6.4560920928e-02	 5.3831261133e-01
 1.0120054620e+00	 7.5458951406e-02	 5.7675613464e-01
 1.0111308254e+00	 8.6391911437e-02	 6.2114485054e-01
 1.0101339129e+00	 9.7358032290e-02	 6.7145284434e-01
 1.0090134752e+00	 1.0835550371e-01	 7.2771865234e-01
 1.0207900762e+00	 5.4091514371e-02	 7.0093271781e-01
 1.0201515028e+00	 6.5032168526e-02	 7.3080873386e-01
 1.0193923631e+00	 7.6009746672e-02	 7.6630823624e-01
 1.0185113423e+00	 8.7022509331e-02	 8.0729468217e-01
 1.0175071531e+00	 9.8068674862e-02	 8.5371261479e-01
 1.0163785371e+00	 1.0914641980e-01	 9.0557540714e-01
 1.0281871057e+00	 5.4483481867e-02	 8.8588968451e-01
 1.0275439050e+00	 6.5503416124e-02	 9.1337402054e-01
 1.0267792643e+00	 7.6560541937e-02	 9.4607821947e-01
 1.0258918593e+00	 8.7653107225e-02	 9.8384578399e-01
 1.0248803933e+00	 9.8779317433e-02	 1.0266059476e+00
 1.0237435989e+00	 1.0993733588e-01	 1.0743607528e+00
 1.0355841353e+00	 5.4875449362e-02	 1.0602728739e+00
 1.0349363072e+00	 6.5974663722e-02	 1.0854994100e+00
 1.0341661655e+00	 7.7111337203e-02	 1.1155506270e+00
 1.0332723763e+00	 8.8283705119e-02	 1.1502646838e+00
 1.0322536336e+00	 9.9489960004e-02	 1.1895697972e+00
 1.0311086608e+00	 1.1072825197e-01	 1.2334705843e+00
 9.9428335150e-01	 1.0677367154e-01	 3.4729453863e-01
 9.9305634752e-01	 1.1763966448e-01	 4.2054493965e-01
 9.9170525032e-01	 1.2853286153e-01	 5.0047804382e-01
 9.9022892231e-01	 1.3945135864e-01	 5.8675429188e-01
 9.8862625980e-01	 1.5039321274e-01	 6.7904823611e-01
 9.8689619441e-01	 1.6135644226e-01	 7.7703632860e-01
 1.0016484134e+00	 1.0756458763e-01	 5.4141190471e-01
 1.0004123205e+00	 1.1851106940e-01	 6.0893216227e-01
 9.9905121514e-01	 1.2948495680e-01	 6.8266846344e-01
 9.9756395136e-01	 1.4048433167e-01	 7.6235108091e-01
 9.9594941728e-01	 1.5150723654e-01	 8.4772208446e-01
 9.9420653659e-01	 1.6255167516e-01	 9.3852216046e-01
 1.0090134752e+00	 1.0835550371e-01	 7.2771865234e-01
 1.0077682934e+00	 1.1938247432e-01	 7.8993974638e-01
 1.0063971800e+00	 1.3043705207e-01	 8.5790167448e-01
 1.0048989804e+00	 1.4151730470e-01	 9.3138190458e-01
 1.0032725748e+00	 1.5262126034e-01	 1.0101680685e+00
 1.0015168788e+00	 1.6374690807e-01	 1.0940438453e+00
 1.0163785371e+00	 1.0914641980e-01	 9.0557540714e-01
 1.0151242663e+00	 1.2025387925e-01	 9.6288707571e-01
 1.0137431448e+00	 1.3138914734e-01	 1.0254716807e+00
 1.0122340095e+00	 1.4255027772e-01	 1.0931321960e+00
 1.0105957322e+00	 1.5373528414e-01	 1.1656807975e+00
 1.0088272210e+00	 1.6494214098e-01	 1.2429238415e+00
 1.0237435989e+00	 1.0993733588e-01	 1.0743607528e+00
 1.0224802393e+00	 1.2112528417e-01	 1.1271123339e+00
 1.0210891096e+00	 1.3234124261e-01	 1.1846916848e+00
 1.0195690385e+00	 1.4358325075e-01	 1.2469065287e+00
 1.0179188897e+00	 1.5484930793e-01	 1.3135734918e+00
 1.0161375631e+00	 1.6613737388e-01	 1.3845022034e+00
 1.0311086608e+00	 1.1072825197e-01	 1.2334705843e+00
 1.0298362122e+00	 1.2199668909e-01	 1.2819718281e+00
 1.0284350744e+00	 1.3329333788e-01	 1.3348933996e+00
 1.0269040676e+00	 1.4461622378e-01	 1.3920279341e+00
 1.0252420472e+00	 1.5596333173e-01	 1.4531773240e+00
 1.0234479053e+00	 1.6733260679e-01	 1.5181359661e+00
 9.8689619441e-01	 1.6135644226e-01	 7.7703632860e-01
 9.8503769445e-01	 1.7233902782e-01	 8.8043163207e-01
 9.8304976629e-01	 1.8333891293e-01	 9.8937561815e-01
 9.8093145573e-01	 1.9435400473e-01	 1.1041450980e+00
 9.7868184937e-01	 2.0538217478e-01	 1.2249576002e+00
 9.7630007592e-01	 2.1642125997e-01	 1.3519580476e+00
 9.9420653659e-01	 1.6255167516e-01	 9.3852216046e-01
 9.9233426997e-01	 1.7361561321e-01	 1.0344083490e+00
 9.9033161641e-01	 1.8469697895e-01	 1.1354400923e+00
 9.8819761466e-01	 1.9579366402e-01	 1.2419168439e+00
 9.8593134455e-01	 2.0690352422e-01	 1.3540788093e+00
 9.8353192833e-01	 2.1802438041e-01	 1.4720928995e+00
 1.0015168788e+00	 1.6374690807e-01	 1.0940438453e+00
 9.9963084548e-01	 1.7489219860e-01	 1.1826399121e+00
 9.9761346653e-01	 1.8605504498e-01	 1.2759805432e+00
 9.9546377360e-01	 1.9723332331e-01	 1.3743921496e+00
 9.9318083973e-01	 2.0842487367e-01	 1.4781408101e+00
 9.9076378074e-01	 2.1962750086e-01	 1.5874174375e+00
 1.0088272210e+00	 1.6494214098e-01	 1.2429238415e+00
 1.0069274210e+00	 1.7616878400e-01	 1.3244801092e+00
 1.0048953167e+00	 1.8741311100e-01	 1.4103699229e+00
 1.0027299325e+00	 1.9867298261e-01	 1.5009512067e+00
 1.0004303349e+00	 2.0994622311e-01	 1.5965193534e+00
 9.9799563316e-01	 2.2123062130e-01	 1.6972915397e+00
 1.0161375631e+00	 1.6613737388e-01	 1.3845022034e+00
 1.0142239965e+00	 1.7744536939e-01	 1.4592992730e+00
 1.0121771668e+00	 1.8877117702e-01	 1.5379971038e+00
 1.0099960915e+00	 2.0011264190e-01	 1.6209899329e+00
 1.0076798301e+00	 2.1146757255e-01	 1.7086061574e+00
 1.0052274856e+00	 2.2283374175e-01	 1.8010917315e+00
 1.0234479053e+00	 1.6733260679e-01	 1.5181359661e+00
 1.0215205720e+00	 1.7872195478e-01	 1.5864837133e+00
 1.0194590169e+00	 1.9012924304e-01	 1.6582663450e+00
 1.0172622504e+00	 2.0155230120e-01	 1.7339194618e+00
 1.0149293253e+00	 2.1298892199e-01	 1.8138084070e+00
 1.0124593380e+00	 2.2443686219e-01	 1.8982106819e+00
 9.7630007592e-01	 2.1642125997e-01	 1.3519580476e+00
 9.7378530755e-01	 2.2746906338e-01	 1.4839607853e+00
 9.7113676122e-01	 2.3852335528e-01	 1.6196739354e+00
 9.6835369989e-01	 2.4958187416e-01	 1.7589385571e+00
 9.6543543388e-01	 2.6064232775e-01	 1.9014779808e+00
 9.6238132202e-01	 2.7170239424e-01	 2.0468890248e+00
 9.8353192833e-01	 2.1802438041e-01	 1.4720928995e+00
 9.8099853205e-01	 2.2915401941e-01	 1.5947622901e+00
 9.7833036685e-01	 2.4029019495e-01	 1.7207500611e+00
 9.7552669026e-01	 2.5143062878e-01	 1.8498612380e+00
 9.7258680746e-01	 2.6257301166e-01	 1.9817742694e+00
 9.6951007255e-01	 2.7371500456e-01	 2.1160316905e+00
 9.9076378074e-01	 2.1962750086e-01	 1.5874174375e+00
 9.8821175655e-01	 2.3083897543e-01	 1.7009894487e+00
 9.8552397249e-01	 2.4205703462e-01	 1.8174756605e+00
 9.8269968063e-01	 2.5327938340e-01	 1.9366842429e+00
 9.7973818104e-01	 2.6450369557e-01	 2.0582879044e+00
 9.7663882308e-01	 2.7572761489e-01	 2.1818139003e+00
 9.9799563316e-01	 2.2123062130e-01	 1.6972915397e+00
 9.9542498105e-01	 2.3252393146e-01	 1.8019819410e+00
 9.9271757813e-01	 2.4382387429e-01	 1.9091724496e+00
 9.8987267100e-01	 2.5512813803e-01	 2.0187129698e+00
 9.8688955463e-01	 2.6643437948e-01	 2.1303090000e+00
 9.8376757362e-01	 2.7774022522e-01	 2.2435108827e+00
 1.0052274856e+00	 2.2283374175e-01	 1.8010917315e+00
 1.0026382056e+00	 2.3420888748e-01	 1.8970970181e+00
 9.9991118377e-01	 2.4559071396e-01	 1.9951807036e+00
 9.9704566137e-01	 2.5697689265e-01	 2.0952724538e+00
 9.9404092821e-01	 2.6836506339e-01	 2.1971485005e+00
 9.9089632415e-01	 2.7975283555e-01	 2.3004200286e+00
 1.0124593380e+00	 2.2443686219e-01	 1.8982106819e+00
 1.0098514301e+00	 2.3589384351e-01	 1.9857089901e+00
 1.0071047894e+00	 2.4735755363e-01	 2.0748587377e+00
 1.0042186517e+00	 2.5882564727e-01	 2.1657068416e+00
 1.0011923018e+00	 2.7029574730e-01	 2.2581376472e+00
 9.9802507468e-01	 2.8176544588e-01	 2.3518603508e+00
 9.6238132202e-01	 2.7170239424e-01	 2.0468890248e+00
 9.5919077291e-01	 2.8275972336e-01	 2.1948842853e+00
 9.5586324611e-01	 2.9381193771e-01	 2.3457940382e+00
 9.5239825321e-01	 3.0485663397e-01	 2.4999441816e+00
 9.4879535904e-01	 3.1589138428e-01	 2.6575269996e+00
 9.4505418266e-01	 3.2691373760e-01	 2.8185992125e+00
 9.6951007255e-01	 2.7371500456e-01	 2.1160316905e+00
 9.6629588975e-01	 2.8485423983e-01	 2.2523384867e+00
 9.6294371460e-01	 2.9598832244e-01	 2.3912069516e+00
 9.5945305509e-01	 3.0711483126e-01	 2.5331778641e+00
 9.5582347281e-01	 3.1823132046e-01	 2.6786471325e+00
 9.5205458401e-01	 3.2933532085e-01	 2.8278630730e+00
 9.7663882308e-01	 2.7572761489e-01	 2.1818139003e+00
 9.7340100659e-01	 2.8694875630e-01	 2.3069676340e+00
 9.7002418309e-01	 2.9816470716e-01	 2.4343965282e+00
 9.6650785696e-01	 3.0937302855e-01	 2.5648123168e+00
 9.6285158658e-01	 3.2057125664e-01	 2.6987701447e+00
 9.5905498537e-01	 3.3175690409e-01	 2.8366651506e+00
 9.8376757362e-01	 2.7774022522e-01	 2.2435108827e+00
 9.8050612342e-01	 2.8904327277e-01	 2.3580371295e+00
 9.7710465158e-01	 3.0034109188e-01	 2.4746292470e+00
 9.7356265884e-01	 3.1163122584e-01	 2.5941270995e+00
 9.6987970035e-01	 3.2291119282e-01	 2.7172017599e+00
 9.6605538672e-01	 3.3417848733e-01	 2.8443514709e+00
 9.9089632415e-01	 2.7975283555e-01	 2.3004200286e+00
 9.8761124026e-01	 2.9113778924e-01	 2.4048358822e+00
 9.8418512007e-01	 3.0251747661e-01	 2.5111962858e+00
 9.8061746072e-01	 3.1388942313e-01	 2.6204274826e+00
 9.7690781412e-01	 3.2525112900e-01	 2.7332742159e+00
 9.7305578807e-01	 3.3660007057e-01	 2.8502951386e+00
 9.9802507468e-01	 2.8176544588e-01	 2.3518603508e+00
 9.9471635710e-01	 2.9323230571e-01	 2.4466757628e+00
 9.9126558856e-01	 3.0469386133e-01	 2.5434129815e+00
 9.8767226259e-01	 3.1614762042e-01	 2.6430439239e+00
 9.8393592789e-01	 3.2759106518e-01	 2.7463457688e+00
 9.8005618943e-01	 3.3902165381e-01	 2.8538958836e+00
 9.4505418266e-01	 3.2691373760e-01	 2.8185992125e+00
 9.4117439844e-01	 3.3792122117e-01	 2.9801795057e+00
 9.3715573703e-01	 3.4891134196e-01	 3.1390755704e+00
 9.3299798631e-01	 3.5988158822e-01	 3.2947617619e+00
 9.2870099228e-01	 3.7082943105e-01	 3.4465118220e+00
 9.2426465993e-01	 3.8175232599e-01	 3.6014032132e+00
 9.5205458401e-01	 3.2933532085e-01	 2.8278630730e+00
 9.4814606065e-01	 3.4042434133e-01	 2.9773572341e+00
 9.4409763138e-01	 3.5149587042e-01	 3.1233183168e+00
 9.3990908251e-01	 3.6254737776e-01	 3.2651927450e+00
 9.3558025889e-01	 3.7357631572e-01	 3.4028544390e+00
 9.3111106482e-01	 3.8458012100e-01	 3.5460803748e+00
 9.5905498537e-01	 3.3175690409e-01	 2.8366651506e+00
 9.5511772286e-01	 3.4292746148e-01	 2.9744979848e+00
 9.5103952573e-01	 3.5408039888e-01	 3.1078450674e+00
 9.4682017870e-01	 3.6521316731e-01	 3.2361551652e+00
 9.4245952550e-01	 3.7632320040e-01	 3.3609302125e+00
 9.3795746971e-01	 3.8740791600e-01	 3.4928203600e+00
 9.6605538672e-01	 3.3417848733e-01	 2.8443514709e+00
 9.6208938507e-01	 3.4543058164e-01	 2.9709959765e+00
 9.5798142008e-01	 3.5666492734e-01	 3.0920987200e+00
 9.5373127490e-01	 3.6787895685e-01	 3.2071403614e+00
 9.4933879211e-01	 3.7907008507e-01	 3.3203136512e+00
 9.4480387460e-01	 3.9023571101e-01	 3.4412269763e+00
 9.7305578807e-01	 3.3660007057e-01	 2.8502951386e+00
 9.6906104728e-01	 3.4793370180e-01	 2.9662730149e+00
 9.6492331443e-01	 3.5924945580e-01	 3.0755504213e+00
 9.6064237109e-01	 3.7054474639e-01	 3.1776708121e+00
 9.5621805872e-01	 3.8181696974e-01	 3.2806017029e+00
 9.5165027949e-01	 3.9306350602e-01	 3.3909258783e+00
 9.8005618943e-01	 3.3902165381e-01	 2.8538958836e+00
 9.7603270950e-01	 3.5043682196e-01	 2.9597780854e+00
 9.7186520877e-01	 3.6183398426e-01	 3.0576992051e+00
 9.6755346728e-01	 3.7321053593e-01	 3.1478409865e+00
 9.6309732533e-01	 3.8456385442e-01	 3.2414128179e+00
 9.5849668438e-01	 3.9589130103e-01	 3.3415636239e+00
 9.2426465993e-01	 3.8175232599e-01	 3.6014032132e+00
 9.1968895401e-01	 3.9264771471e-01	 3.7599246505e+00
 9.1497389979e-01	 4.0351302669e-01	 3.9158184999e+00
 9.1011958373e-01	 4.1434568094e-01	 4.0677232812e+00
 9.0512615414e-01	 4.2514308779e-01	 4.2142473658e+00
 8.9999382172e-01	 4.3590265067e-01	 4.3539783644e+00
 9.3111106482e-01	 3.8458012100e-01	 3.5460803748e+00
 9.2650146478e-01	 3.9555621630e-01	 3.6924710770e+00
 9.2175148423e-01	 4.0650201208e-01	 3.8360312390e+00
 9.1686121027e-01	 4.1741490821e-01	 3.9754383876e+00
 9.1183079232e-01	 4.2829229585e-01	 4.1093410819e+00
 9.0666044263e-01	 4.3913155919e-01	 4.2363683511e+00
 9.3795746971e-01	 3.8740791600e-01	 3.4928203600e+00
 9.3331397555e-01	 3.9846471789e-01	 3.6274204780e+00
 9.2852906867e-01	 4.0949099746e-01	 3.7590276634e+00
 9.2360283682e-01	 4.2048413548e-01	 3.8863566706e+00
 9.1853543049e-01	 4.3144150391e-01	 4.0080943222e+00
 9.1332706353e-01	 4.4236046771e-01	 4.1229089907e+00
 9.4480387460e-01	 3.9023571101e-01	 3.4412269763e+00
 9.4012648632e-01	 4.0137321948e-01	 3.5644018412e+00
 9.3530665311e-01	 4.1247998284e-01	 3.6844587595e+00
 9.3034446336e-01	 4.2355336274e-01	 3.8001478876e+00
 9.2524006867e-01	 4.3459071196e-01	 3.9101923476e+00
 9.1999368443e-01	 4.4558937624e-01	 4.0132977480e+00
 9.5165027949e-01	 3.9306350602e-01	 3.3909258783e+00
 9.4693899709e-01	 4.0428172107e-01	 3.5030655013e+00
 9.4208423756e-01	 4.1546896822e-01	 3.6119964257e+00
 9.3708608991e-01	 4.2662259001e-01	 3.7165023408e+00
 9.3194470685e-01	 4.3773992002e-01	 3.8153406678e+00
 9.2666030533e-01	 4.4881828476e-01	 3.9072521151e+00
 9.5849668438e-01	 3.9589130103e-01	 3.3415636239e+00
 9.5375150786e-01	 4.0719022266e-01	 3.4430821819e+00
 9.4886182200e-01	 4.1845795361e-01	 3.5413324980e+00
 9.4382771646e-01	 4.2969181728e-01	 3.6351298833e+00
 9.3864934503e-01	 4.4088912808e-01	 3.7232640248e+00
 9.3332692623e-01	 4.5204719328e-01	 3.8045085687e+00
 8.9999382172e-01	 4.3590265067e-01	 4.3539783644e+00
 8.9472286011e-01	 4.4662176794e-01	 4.4898340025e+00
 8.8931360626e-01	 4.5729783480e-01	 4.6240914291e+00
 8.8376646092e-01	 4.6792824510e-01	 4.7543864814e+00
 8.7808188883e-01	 4.7851039330e-01	 4.8783896150e+00
 8.7226041910e-01	 4.8904167641e-01	 4.9938173872e+00
 9.0666044263e-01	 4.3913155919e-01	 4.2363683511e+00
 9.0135043685e-01	 4.4993007734e-01	 4.3596423482e+00
 8.9590111446e-01	 4.6068522617e-01	 4.4816024729e+00
 8.9031287914e-01	 4.7139438025e-01	 4.5998648922e+00
 8.8458619912e-01	 4.8205491474e-01	 4.7120821542e+00
 8.7872160739e-01	 4.9266420735e-01	 4.8159548077e+00
 9.1332706353e-01	 4.4236046771e-01	 4.1229089907e+00
 9.0797801359e-01	 4.5323838673e-01	 4.2341280690e+00
 9.0248862265e-01	 4.6407261754e-01	 4.3443443983e+00
 8.9685929737e-01	 4.7486051540e-01	 4.4511378385e+00
 8.9109050941e-01	 4.8559943617e-01	 4.5521263998e+00
 8.8518279568e-01	 4.9628673828e-01	 4.6449780273e+00
 9.1999368443e-01	 4.4558937624e-01	 4.0132977480e+00
 9.1460559033e-01	 4.5654669612e-01	 4.1129989873e+00
 9.0907613085e-01	 4.6746000891e-01	 4.2120352090e+00
 9.0340571560e-01	 4.7832665055e-01	 4.3079336327e+00
 8.9759481970e-01	 4.8914395760e-01	 4.3982614083e+00
 8.9164398397e-01	 4.9990926922e-01	 4.4806375936e+00
 9.2666030533e-01	 4.4881828476e-01	 3.9072521151e+00
 9.2123316707e-01	 4.5985500551e-01	 3.9959827660e+00
 9.1566363904e-01	 4.7084740027e-01	 4.0844125519e+00
 9.0995213383e-01	 4.8179278569e-01	 4.1700000164e+00
 9.0409912999e-01	 4.9268847903e-01	 4.2502454291e+00
 8.9810517226e-01	 5.0353180016e-01	 4.3227029826e+00
 9.3332692623e-01	 4.5204719328e-01	 3.8045085687e+00
 9.2786074382e-01	 4.6316331490e-01	 3.8828258380e+00
 9.2225114724e-01	 4.7423479164e-01	 3.9612326194e+00
 9.1649855206e-01	 4.8525892084e-01	 4.0371030363e+00
 9.1060344027e-01	 4.9623300046e-01	 4.1078547548e+00
 9.0456636055e-01	 5.0715433109e-01	 4.1709614242e+00
 8.7226041910e-01	 4.8904167641e-01	 4.9938173872e+00
 8.6630264528e-01	 4.9951949589e-01	 5.1018990224e+00
 8.6020922554e-01	 5.0994125965e-01	 5.2041574759e+00
 8.5398088266e-01	 5.2030438404e-01	 5.2988790173e+00
 8.4761840403e-01	 5.3060629580e-01	 5.3844752154e+00
 8.4112264155e-01	 5.4084443408e-01	 5.4594930665e+00
 8.7872160739e-01	 4.9266420735e-01	 4.8159548077e+00
 8.7271970192e-01	 5.0321964030e-01	 4.9129120913e+00
 8.6658114573e-01	 5.1371860232e-01	 5.0046275125e+00
 8.6030666697e-01	 5.2415849059e-01	 5.0892970608e+00
 8.5389705888e-01	 5.3453671281e-01	 5.1652400853e+00
 8.4735317963e-01	 5.4485068915e-01	 5.2309096271e+00
 8.8518279568e-01	 4.9628673828e-01	 4.6449780273e+00
 8.7913675855e-01	 5.0691978472e-01	 4.7312860102e+00
 8.7295306592e-01	 5.1749594498e-01	 4.8128608059e+00
 8.6663245129e-01	 5.2801259714e-01	 4.8878253853e+00
 8.6017571372e-01	 5.3846712981e-01	 4.9544244670e+00
 8.5358371772e-01	 5.4885694421e-01	 5.0110350089e+00
 8.9164398397e-01	 4.9990926922e-01	 4.4806375936e+00
 8.8555381518e-01	 5.1061992913e-01	 4.5567845829e+00
 8.7932498611e-01	 5.2127328765e-01	 4.6286367184e+00
 8.7295823561e-01	 5.3186670369e-01	 4.6942608036e+00
 8.6645436857e-01	 5.4239754682e-01	 4.7518441014e+00
 8.5981425581e-01	 5.5286319928e-01	 4.7997049401e+00
 8.9810517226e-01	 5.0353180016e-01	 4.3227029826e+00
 8.9197087181e-01	 5.1432007354e-01	 4.3891902228e+00
 8.8569690630e-01	 5.2505063031e-01	 4.4517528367e+00
 8.7928401992e-01	 5.3572081024e-01	 4.5084179160e+00
 8.7273302341e-01	 5.4632796383e-01	 4.5573320435e+00
 8.6604479389e-01	 5.5686945435e-01	 4.5967719691e+00
 9.0456636055e-01	 5.0715433109e-01	 4.1709614242e+00
 8.9838792844e-01	 5.1802021796e-01	 4.2283027561e+00
 8.9206882649e-01	 5.2882797297e-01	 4.2820237554e+00
 8.8560980424e-01	 5.3957491679e-01	 4.3301278771e+00
 8.7901167826e-01	 5.5025838083e-01	 4.3707374156e+00
 8.7227533198e-01	 5.6087570941e-01	 4.4021042052e+00
 8.4112264155e-01	 5.4084443408e-01	 5.4594930665e+00
 8.3449451141e-01	 5.5101625241e-01	 5.5256338716e+00
 8.2773499389e-01	 5.6111922075e-01	 5.5842541620e+00
 8.2084513299e-01	 5.7115082741e-01	 5.6336121969e+00
 8.1382603605e-01	 5.8110858111e-01	 5.6721355182e+00
 8.0667887330e-01	 5.9099001292e-01	 5.6984305916e+00
 8.4735317963e-01	 5.4485068915e-01	 5.2309096271e+00
 8.4067595224e-01	 5.5509785428e-01	 5.2879818257e+00
 8.3386636421e-01	 5.6527565942e-01	 5.3379063120e+00
 8.2692546730e-01	 5.7538157428e-01	 5.3790304262e+00
 8.1985437706e-01	 5.8541308912e-01	 5.4098798093e+00
 8.1265427236e-01	 5.9536771672e-01	 5.4291679264e+00
 8.5358371772e-01	 5.4885694421e-01	 5.0110350089e+00
 8.4685739306e-01	 5.5917945615e-01	 5.0593746329e+00
 8.3999773454e-01	 5.6943209809e-01	 5.1010168126e+00
 8.3300580162e-01	 5.7961232115e-01	 5.1343615165e+00
 8.2588271807e-01	 5.8971759713e-01	 5.1579952051e+00
 8.1862967142e-01	 5.9974542052e-01	 5.1707003004e+00
 8.5981425581e-01	 5.5286319928e-01	 4.7997049401e+00
 8.5303883389e-01	 5.6326105802e-01	 4.8396631130e+00
 8.4612910486e-01	 5.7358853676e-01	 4.8734414946e+00
 8.3908613594e-01	 5.8384306802e-01	 4.8994569733e+00
 8.3191105907e-01	 5.9402210514e-01	 4.9163203054e+00
 8.2460507048e-01	 6.0412312432e-01	 4.9228455936e+00
 8.6604479389e-01	 5.5686945435e-01	 4.5967719691e+00
 8.5922027471e-01	 5.6734265989e-01	 4.6287145661e+00
 8.5226047519e-01	 5.7774497544e-01	 4.6550526356e+00
 8.4516647026e-01	 5.8807381489e-01	 4.6741850033e+00
 8.3793940008e-01	 5.9832661315e-01	 4.6847109341e+00
 8.3058046954e-01	 6.0850082812e-01	 4.6854396840e+00
 8.7227533198e-01	 5.6087570941e-01	 4.4021042052e+00
 8.6540171554e-01	 5.7142426176e-01	 4.4264114962e+00
 8.5839184551e-01	 5.8190141411e-01	 4.4457376571e+00
 8.5124680458e-01	 5.9230456176e-01	 4.4584291753e+00
 8.4396774109e-01	 6.0263112116e-01	 4.4630387581e+00
 8.3655586860e-01	 6.1287853192e-01	 4.4583350146e+00
 8.0667887330e-01	 5.9099001292e-01	 5.6984305916e+00
 7.9940487725e-01	 6.0079267824e-01	 5.7127290696e+00
 7.9200534216e-01	 6.1051415872e-01	 5.7160270450e+00
 7.8448162324e-01	 6.2015206426e-01	 5.7083954614e+00
 7.7683513597e-01	 6.2970403486e-01	 5.6901472973e+00
 7.6906735523e-01	 6.3916774255e-01	 5.6618428080e+00
 8.1265427236e-01	 5.9536771672e-01	 5.4291679264e+00
 8.0532639486e-01	 6.0524299437e-01	 5.4373448445e+00
 7.9787204839e-01	 6.1503648582e-01	 5.4353920979e+00
 7.9029259822e-01	 6.2474578325e-01	 5.4231431244e+00
 7.8258947031e-01	 6.3436850920e-01	 5.4006716550e+00
 7.7476415046e-01	 6.4390231842e-01	 5.3682975250e+00
 8.1862967142e-01	 5.9974542052e-01	 5.1707003004e+00
 8.1124791247e-01	 6.0969331051e-01	 5.1730653061e+00
 8.0373875463e-01	 6.1955881292e-01	 5.1660314579e+00
 7.9610357321e-01	 6.2933950225e-01	 5.1492390475e+00
 7.8834380465e-01	 6.3903298353e-01	 5.1225689521e+00
 7.8046094568e-01	 6.4863689429e-01	 5.0861489195e+00
 8.2460507048e-01	 6.0412312432e-01	 4.9228455936e+00
 8.1716943008e-01	 6.1414362664e-01	 4.9196961448e+00
 8.0960546087e-01	 6.2408114002e-01	 4.9077623407e+00
 8.0191454820e-01	 6.3393322124e-01	 4.8865346998e+00
 7.9409813899e-01	 6.4369745786e-01	 4.8557466173e+00
 7.8615774090e-01	 6.5337147016e-01	 4.8153810320e+00
 8.3058046954e-01	 6.0850082812e-01	 4.6854396840e+00
 8.2309094769e-01	 6.1859394278e-01	 4.6770616035e+00
 8.1547216711e-01	 6.2860346713e-01	 4.6604204173e+00
 8.0772552318e-01	 6.3852694024e-01	 4.6348992857e+00
 7.9985247333e-01	 6.4836193219e-01	 4.6001285041e+00
 7.9185453613e-01	 6.5810604603e-01	 4.5559924584e+00
 8.3655586860e-01	 6.1287853192e-01	 4.4583350146e+00
 8.2901246530e-01	 6.2304425891e-01	 4.4450030054e+00
 8.2133887335e-01	 6.3312579423e-01	 4.4238583264e+00
 8.1353649817e-01	 6.4312065923e-01	 4.3942182671e+00
 8.0560680767e-01	 6.5302640653e-01	 4.3556534457e+00
 7.9755133135e-01	 6.6284062190e-01	 4.3079949592e+00
 7.6906735523e-01	 6.3916774255e-01	 5.6618428080e+00
 7.6117981439e-01	 6.4854089321e-01	 5.6213457791e+00
 7.5317410434e-01	 6.5782122841e-01	 5.5654534368e+00
 7.4505187243e-01	 6.6700652725e-01	 5.4935396434e+00
 7.3681482137e-01	 6.7609460803e-01	 5.4066847173e+00
 7.2846470806e-01	 6.8508333005e-01	 5.3135694972e+00
 7.7476415046e-01	 6.4390231842e-01	 5.3682975250e+00
 7.6681818339e-01	 6.5334489982e-01	 5.3240391171e+00
 7.5875317178e-01	 6.6269397825e-01	 5.2654459074e+00
 7.5057077518e-01	 6.7194731634e-01	 5.1925526547e+00
 7.4227270893e-01	 6.8110271624e-01	 5.1057060099e+00
 7.3386074293e-01	 6.9015802139e-01	 5.0095213545e+00
 7.8046094568e-01	 6.4863689429e-01	 5.0861489195e+00
 7.7245655238e-01	 6.5814890644e-01	 5.0382048431e+00
 7.6433223922e-01	 6.6756672809e-01	 4.9769750335e+00
 7.5608967794e-01	 6.7688810543e-01	 4.9030292984e+00
 7.4773059650e-01	 6.8611082445e-01	 4.8172541807e+00
 7.3925677781e-01	 6.9523271272e-01	 4.7210362484e+00
 7.8615774090e-01	 6.5337147016e-01	 4.8153810320e+00
 7.7809492138e-01	 6.6295291305e-01	 4.7639048124e+00
 7.6991130666e-01	 6.7243947793e-01	 4.7001647497e+00
 7.6160858070e-01	 6.8182889452e-01	 4.6251425537e+00
 7.5318848406e-01	 6.9111893266e-01	 4.5401402970e+00
 7.4465281268e-01	 7.0030740405e-01	 4.4467834994e+00
 7.9185453613e-01	 6.5810604603e-01	 4.5559924584e+00
 7.8373329038e-01	 6.6775691967e-01	 4.5012135675e+00
 7.7549037410e-01	 6.7731222777e-01	 4.4351502993e+00
 7.6712748346e-01	 6.8676968361e-01	 4.3590757430e+00
 7.5864637163e-01	 6.9612704087e-01	 4.2745857757e+00
 7.5004884755e-01	 7.0538209539e-01	 4.1836015827e+00
 7.9755133135e-01	 6.6284062190e-01	 4.3079949592e+00
 7.8937165937e-01	 6.7256092629e-01	 4.2502170050e+00
 7.8106944154e-01	 6.8218497761e-01	 4.1820769443e+00
 7.7264638622e-01	 6.9171047270e-01	 4.1050212723e+00
 7.6410425920e-01	 7.0113514907e-01	 4.0208205076e+00
 7.5544488243e-01	 7.1045678672e-01	 3.9315714083e+00
 7.2846470806e-01	 6.8508333005e-01	 5.3135694972e+00
 7.2000334233e-01	 6.9397059523e-01	 5.2111440195e+00
 7.1143258564e-01	 7.0275434975e-01	 5.0955223508e+00
 7.0275434975e-01	 7.1143258564e-01	 4.9666352618e+00
 6.9397059523e-01	 7.2000334233e-01	 4.8244601360e+00
 6.8508333005e-01	 7.2846470806e-01	 4.6690241134e+00
 7.3386074293e-01	 6.9015802139e-01	 5.0095213545e+00
 7.2533670042e-01	 6.9911111816e-01	 4.9074872962e+00
 7.1670245665e-01	 7.0795993752e-01	 4.7945943084e+00
 7.0795993752e-01	 7.1670245665e-01	 4.6696573965e+00
 6.9911111816e-01	 7.2533670042e-01	 4.5315368343e+00
 6.9015802139e-01	 7.3386074293e-01	 4.3791439525e+00
 7.3925677781e-01	 6.9523271272e-01	 4.7210362484e+00
 7.3067005851e-01	 7.0425164108e-01	 4.6181547691e+00
 7.2197232765e-01	 7.1316552530e-01	 4.5064212677e+00
 7.1316552530e-01	 7.2197232765e-01	 4.3837060382e+00
 7.0425164108e-01	 7.3067005851e-01	 4.2479245740e+00
 6.9523271272e-01	 7.3925677781e-01	 4.0970456436e+00
 7.4465281268e-01	 7.0030740405e-01	 4.4467834994e+00
 7.3600341660e-01	 7.0939216401e-01	 4.3430615970e+00
 7.2724219866e-01	 7.1837111307e-01	 4.2309658754e+00
 7.1837111307e-01	 7.2724219866e-01	 4.1088051110e+00
 7.0939216401e-01	 7.3600341660e-01	 3.9737186023e+00
 7.0030740405e-01	 7.4465281268e-01	 3.8243855988e+00
 7.5004884755e-01	 7.0538209539e-01	 4.1836015827e+00
 7.4133677469e-01	 7.1453268694e-01	 4.0821136719e+00
 7.3251206966e-01	 7.2357670085e-01	 3.9682058220e+00
 7.2357670085e-01	 7.3251206966e-01	 3.8449919680e+00
 7.1453268694e-01	 7.4133677469e-01	 3.7090569203e+00
 7.0538209539e-01	 7.5004884755e-01	 3.5650437893e+00
 7.5544488243e-01	 7.1045678672e-01	 3.9315714083e+00
 7.4667013278e-01	 7.1967320987e-01	 3.8328817836e+00
 7.3778194067e-01	 7.2878228863e-01	 3.7181336898e+00
 7.2878228863e-01	 7.3778194067e-01	 3.5923172999e+00
 7.1967320987e-01	 7.4667013278e-01	 3.4569490589e+00
 7.1045678672e-01	 7.5544488243e-01	 3.3189154573e+00
 6.8508333005e-01	 7.2846470806e-01	 4.6690241134e+00
 6.7609460803e-01	 7.3681482137e-01	 4.4987519284e+00
 6.6700652725e-01	 7.4505187243e-01	 4.3121984941e+00
 6.5782122841e-01	 7.5317410434e-01	 4.1186186143e+00
 6.4854089321e-01	 7.6117981439e-01	 3.9179638202e+00
 6.3916774255e-01	 7.6906735523e-01	 3.7082251085e+00
 6.9015802139e-01	 7.3386074293e-01	 4.3791439525e+00
 6.8110271624e-01	 7.4227270893e-01	 4.2096274387e+00
 6.7194731634e-01	 7.5057077518e-01	 4.0292690414e+00
 6.6269397825e-01	 7.5875317178e-01	 3.8421653452e+00
 6.5334489982e-01	 7.6681818339e-01	 3.6472957172e+00
 6.4390231842e-01	 7.7476415046e-01	 3.4433823642e+00
 6.9523271272e-01	 7.3925677781e-01	 4.0970456436e+00
 6.8611082445e-01	 7.4773059650e-01	 3.9317440723e+00
 6.7688810543e-01	 7.5608967794e-01	 3.7584593631e+00
 6.6756672809e-01	 7.6433223922e-01	 3.5773180698e+00
 6.5814890644e-01	 7.7245655238e-01	 3.3879603859e+00
 6.4863689429e-01	 7.8046094568e-01	 3.1897642925e+00
 7.0030740405e-01	 7.4465281268e-01	 3.8243855988e+00
 6.9111893266e-01	 7.5318848406e-01	 3.6665636793e+00
 6.8182889452e-01	 7.6160858070e-01	 3.4995565795e+00
 6.7243947793e-01	 7.6991130666e-01	 3.3238666827e+00
 6.6295291305e-01	 7.7809492138e-01	 3.1397235186e+00
 6.5337147016e-01	 7.8615774090e-01	 2.9470870166e+00
 7.0538209539e-01	 7.5004884755e-01	 3.5650437893e+00
 6.9612704087e-01	 7.5864637163e-01	 3.4138307820e+00
 6.8676968361e-01	 7.6712748346e-01	 3.2523356937e+00
 6.7731222777e-01	 7.7549037410e-01	 3.0815889573e+00
 6.6775691967e-01	 7.8373329038e-01	 2.9023394844e+00
 6.5810604603e-01	 7.9185453613e-01	 2.7150568912e+00
 7.1045678672e-01	 7.5544488243e-01	 3.3189154573e+00
 7.0113514907e-01	 7.6410425920e-01	 3.1732789260e+00
 6.9171047270e-01	 7.7264638622e-01	 3.0165599114e+00
 6.8218497761e-01	 7.8106944154e-01	 2.8502508671e+00
 6.7256092629e-01	 7.8937165937e-01	 2.6755516236e+00
 6.6284062190e-01	 7.9755133135e-01	 2.4933707404e+00
 6.3916774255e-01	 7.6906735523e-01	 3.7082251085e+00
 6.2970403486e-01	 7.7683513597e-01	 3.4861908279e+00
 6.2015206426e-01	 7.8448162324e-01	 3.2510954052e+00
 6.1051415872e-01	 7.9200534216e-01	 3.0042716508e+00
 6.0079267824e-01	 7.9940487725e-01	 2.7468657462e+00
 5.9099001292e-01	 8.0667887330e-01	 2.4798402107e+00
 6.4390231842e-01	 7.7476415046e-01	 3.4433823642e+00
 6.3436850920e-01	 7.8258947031e-01	 3.2280775355e+00
 6.2474578325e-01	 7.9029259822e-01	 3.0009015585e+00
 6.1503648582e-01	 7.9787204839e-01	 2.7630338624e+00
 6.0524299437e-01	 8.0532639486e-01	 2.5154481021e+00
 5.9536771672e-01	 8.1265427236e-01	 2.2589157162e+00
 6.4863689429e-01	 7.8046094568e-01	 3.1897642925e+00
 6.3903298353e-01	 7.8834380465e-01	 2.9810925762e+00
 6.2933950225e-01	 7.9610357321e-01	 2.7616334959e+00
 6.1955881292e-01	 8.0373875463e-01	 2.5323914612e+00
 6.0969331051e-01	 8.1124791247e-01	 2.2941491693e+00
 5.9974542052e-01	 8.1862967142e-01	 2.0474717833e+00
 6.5337147016e-01	 7.8615774090e-01	 2.9470870166e+00
 6.4369745786e-01	 7.9409813899e-01	 2.7449110130e+00
 6.3393322124e-01	 8.0191454820e-01	 2.5329668092e+00
 6.2408114002e-01	 8.0960546087e-01	 2.3120625587e+00
 6.1414362664e-01	 8.1716943008e-01	 2.0827719190e+00
 6.0412312432e-01	 8.2460507048e-01	 1.8454388817e+00
 6.5810604603e-01	 7.9185453613e-01	 2.7150568912e+00
 6.4836193219e-01	 7.9985247333e-01	 2.5191994744e+00
 6.3852694024e-01	 8.0772552318e-01	 2.3145688178e+00
 6.2860346713e-01	 8.1547216711e-01	 2.1017559714e+00
 6.1859394278e-01	 8.2309094769e-01	 1.8811078110e+00
 6.0850082812e-01	 8.3058046954e-01	 1.6527325491e+00
 6.6284062190e-01	 7.9755133135e-01	 2.4933707404e+00
 6.5302640653e-01	 8.0560680767e-01	 2.3036163451e+00
 6.4312065923e-01	 8.1353649817e-01	 2.1060987534e+00
 6.3312579423e-01	 8.2133887335e-01	 1.9011714424e+00
 6.2304425891e-01	 8.2901246530e-01	 1.6889370931e+00
 6.1287853192e-01	 8.3655586860e-01	 1.4692538120e+00
 5.9099001292e-01	 8.0667887330e-01	 2.4798402107e+00
 5.8110858111e-01	 8.1382603605e-01	 2.2052612414e+00
 5.7115082741e-01	 8.2084513299e-01	 1.9242924467e+00
 5.6111922075e-01	 8.2773499389e-01	 1.6362688923e+00
 5.5101625241e-01	 8.3449451141e-01	 1.3403484759e+00
 5.4084443408e-01	 8.4112264155e-01	 1.0355210322e+00
 5.9536771672e-01	 8.1265427236e-01	 2.2589157162e+00
 5.8541308912e-01	 8.1985437706e-01	 1.9952765481e+00
 5.7538157428e-01	 8.2692546730e-01	 1.7255790719e+00
 5.6527565942e-01	 8.3386636421e-01	 1.4491252087e+00
 5.5509785428e-01	 8.4067595224e-01	 1.1650460344e+00
 5.4485068915e-01	 8.4735317963e-01	 8.7231103554e-01
 5.9974542052e-01	 8.1862967142e-01	 2.0474717833e+00
 5.8971759713e-01	 8.2588271807e-01	 1.7940891805e+00
 5.7961232115e-01	 8.3300580162e-01	 1.5350748001e+00
 5.6943209809e-01	 8.3999773454e-01	 1.2697165259e+00
 5.5917945615e-01	 8.4685739306e-01	 9.9713277156e-01
 5.4885694421e-01	 8.5358371772e-01	 7.1628189948e-01
 6.0412312432e-01	 8.2460507048e-01	 1.8454388817e+00
 5.9402210514e-01	 8.3191105907e-01	 1.6017498794e+00
 5.8384306802e-01	 8.3908613594e-01	 1.3528930848e+00
 5.7358853676e-01	 8.4612910486e-01	 1.0981610635e+00
 5.6326105802e-01	 8.5303883389e-01	 8.3667340963e-01
 5.5286319928e-01	 8.5981425581e-01	 5.6738633668e-01
 6.0850082812e-01	 8.3058046954e-01	 1.6527325491e+00
 5.9832661315e-01	 8.3793940008e-01	 1.4182912640e+00
 5.8807381489e-01	 8.4516647026e-01	 1.1791277468e+00
 5.7774497544e-01	 8.5226047519e-01	 9.3455758714e-01
 5.6734265989e-01	 8.5922027471e-01	 6.8371509290e-01
 5.5686945435e-01	 8.6604479389e-01	 4.2556306276e-01
 6.1287853192e-01	 8.3655586860e-01	 1.4692538120e+00
 6.0263112116e-01	 8.4396774109e-01	 1.2437283654e+00
 5.9230456176e-01	 8.5124680458e-01	 1.0138535596e+00
 5.8190141411e-01	 8.5839184551e-01	 7.7898598500e-01
 5.7142426176e-01	 8.6540171554e-01	 5.3828789550e-01
 5.6087570941e-01	 8.7227533198e-01	 2.9073717369e-01
 5.4084443408e-01	 8.4112264155e-01	 1.0355210322e+00
 5.3060629580e-01	 8.4761840403e-01	 7.2381954927e-01
 5.2030438404e-01	 8.5398088266e-01	 4.0790808608e-01
 5.0994125965e-01	 8.6020922554e-01	 8.7530655466e-02
 4.9951949589e-01	 8.6630264528e-01	-2.3765847449e-01
 4.8904167641e-01	 8.7226041910e-01	-5.6808643536e-01
 5.4485068915e-01	 8.4735317963e-01	 8.7231103554e-01
 5.3453671281e-01	 8.5389705888e-01	 5.7317426834e-01
 5.2415849059e-01	 8.6030666697e-01	 2.7050909679e-01
 5.1371860232e-01	 8.6658114573e-01	-3.5988705534e-02
 5.0321964030e-01	 8.7271970192e-01	-3.4673299092e-01
 4.9266420735e-01	 8.7872160739e-01	-6.6223838907e-01
 5.4885694421e-01	 8.5358371772e-01	 7.1628189948e-01
 5.3846712981e-01	 8.6017571372e-01	 4.2949925784e-01
 5.2801259714e-01	 8.6663245129e-01	 1.3970425359e-01
 5.1749594498e-01	 8.7295306592e-01	-1.5348078566e-01
 5.0691978472e-01	 8.7913675855e-01	-4.5055706001e-01
 4.9628673828e-01	 8.8518279568e-01	-7.5213996551e-01
 5.5286319928e-01	 8.5981425581e-01	 5.6738633668e-01
 5.4239754682e-01	 8.6645436857e-01	 2.9264334075e-01
 5.3186670369e-01	 8.7295823561e-01	 1.5313642307e-02
 5.2127328765e-01	 8.7932498611e-01	-2.6507874661e-01
 5.1061992913e-01	 8.8555381518e-01	-5.4914135471e-01
 4.9990926922e-01	 8.9164398397e-01	-8.3760345613e-01
 5.5686945435e-01	 8.6604479389e-01	 4.2556306276e-01
 5.4632796383e-01	 8.7273302341e-01	 1.6244471043e-01
 5.3572081024e-01	 8.7928401992e-01	-1.0285205645e-01
 5.2505063031e-01	 8.8569690630e-01	-3.7092608413e-01
 5.1432007354e-01	 8.9197087181e-01	-6.4250997186e-01
 5.0353180016e-01	 8.9810517226e-01	-9.1845983223e-01
 5.6087570941e-01	 8.7227533198e-01	 2.9073717369e-01
 5.5025838083e-01	 8.7901167826e-01	 3.8731185092e-02
 5.3957491679e-01	 8.8560980424e-01	-2.1499135931e-01
 5.2882797297e-01	 8.9206882649e-01	-4.7117638982e-01
 5.1802021796e-01	 8.9838792844e-01	-7.3070008670e-01
 5.0715433109e-01	 9.0456636055e-01	-9.9455821484e-01
 4.8904167641e-01	 8.7226041910e-01	-5.6808643536e-01
 4.7851039330e-01	 8.7808188883e-01	-9.0148295302e-01
 4.6792824510e-01	 8.8376646092e-01	-1.2356628933e+00
 4.5729783480e-01	 8.8931360626e-01	-1.5713061769e+00
 4.4662176794e-01	 8.9472286011e-01	-1.9091773345e+00
 4.3590265067e-01	 8.9999382172e-01	-2.2501158296e+00
 4.9266420735e-01	 8.7872160739e-01	-6.6223838907e-01
 4.8205491474e-01	 8.8458619912e-01	-9.8045484600e-01
 4.7139438025e-01	 8.9031287914e-01	-1.2994395000e+00
 4.6068522617e-01	 8.9590111446e-01	-1.6199937370e+00
 4.4993007734e-01	 9.0135043685e-01	-1.9429856570e+00
 4.3913155919e-01	 9.0666044263e-01	-2.2693402615e+00
 4.9628673828e-01	 8.8518279568e-01	-7.5213996551e-01
 4.8559943617e-01	 8.9109050941e-01	-1.0562145085e+00
 4.7486051540e-01	 8.9685929737e-01	-1.3608704581e+00
 4.6407261754e-01	 9.0248862265e-01	-1.6670076229e+00
 4.5323838673e-01	 9.0797801359e-01	-1.9755810788e+00
 4.4236046771e-01	 9.1332706353e-01	-2.2875911674e+00
 4.9990926922e-01	 8.9164398397e-01	-8.3760345613e-01
 4.8914395760e-01	 8.9759481970e-01	-1.1283772186e+00
 4.7832665055e-01	 9.0340571560e-01	-1.4194530359e+00
 4.6746000891e-01	 9.0907613085e-01	-1.7118064975e+00
 4.5654669612e-01	 9.1460559033e-01	-2.0064633701e+00
 4.4558937624e-01	 9.1999368443e-01	-2.3044893529e+00
 5.0353180016e-01	 8.9810517226e-01	-9.1845983223e-01
 4.9268847903e-01	 9.0409912999e-01	-1.1965821338e+00
 4.8179278569e-01	 9.0995213383e-01	-1.4747112901e+00
 4.7084740027e-01	 9.1566363904e-01	-1.7538764210e+00
 4.5985500551e-01	 9.2123316707e-01	-2.0351579982e+00
 4.4881828476e-01	 9.2666030533e-01	-2.3196773062e+00
 5.0715433109e-01	 9.0456636055e-01	-9.9455821484e-01
 4.9623300046e-01	 9.1060344027e-01	-1.2604915780e+00
 4.8525892084e-01	 9.1649855206e-01	-1.5261952528e+00
 4.7423479164e-01	 9.2225114724e-01	-1.7927300186e+00
 4.6316331490e-01	 9.2786074382e-01	-2.0612153587e+00
 4.5204719328e-01	 9.3332692623e-01	-2.3328185753e+00
 4.3590265067e-01	 8.9999382172e-01	-2.2501158296e+00
 4.2514308779e-01	 9.0512615414e-01	-2.5914033528e+00
 4.1434568094e-01	 9.1011958373e-01	-2.9297543425e+00
 4.0351302669e-01	 9.1497389979e-01	-3.2651849269e+00
 3.9264771471e-01	 9.1968895401e-01	-3.5976758369e+00
 3.8175232599e-01	 9.2426465993e-01	-3.9271662998e+00
 4.3913155919e-01	 9.0666044263e-01	-2.2693402615e+00
 4.2829229585e-01	 9.1183079232e-01	-2.5959419318e+00
 4.1741490821e-01	 9.1686121027e-01	-2.9190713124e+00
 4.0650201208e-01	 9.2175148423e-01	-3.2387753691e+00
 3.9555621630e-01	 9.2650146478e-01	-3.5550834157e+00
 3.8458012100e-01	 9.3111106482e-01	-3.8680004733e+00
 4.4236046771e-01	 9.1332706353e-01	-2.2875911674e+00
 4.3144150391e-01	 9.1853543049e-01	-2.5997239076e+00
 4.2048413548e-01	 9.2360283682e-01	-2.9080390854e+00
 4.0949099746e-01	 9.2852906867e-01	-3.2126264700e+00
 3.9846471789e-01	 9.3331397555e-01	-3.5135711960e+00
 3.8740791600e-01	 9.3795746971e-01	-3.8109466488e+00
 4.4558937624e-01	 9.1999368443e-01	-2.3044893529e+00
 4.3459071196e-01	 9.2524006867e-01	-2.6025002963e+00
 4.2355336274e-01	 9.3034446336e-01	-2.8964771906e+00
 4.1247998284e-01	 9.3530665311e-01	-3.1865645953e+00
 4.0137321948e-01	 9.4012648632e-01	-3.4729107960e+00
 3.9023571101e-01	 9.4480387460e-01	-3.7556602736e+00
 4.4881828476e-01	 9.2666030533e-01	-2.3196773062e+00
 4.3773992002e-01	 9.3194470685e-01	-2.6040395042e+00
 4.2662259001e-01	 9.3708608991e-01	-2.8842200181e+00
 4.1546896822e-01	 9.4208423756e-01	-3.1604302061e+00
 4.0428172107e-01	 9.4693899709e-01	-3.4328889242e+00
 3.9306350602e-01	 9.5165027949e-01	-3.7018146388e+00
 4.5204719328e-01	 9.3332692623e-01	-2.3328185753e+00
 4.4088912808e-01	 9.3864934503e-01	-2.6041268617e+00
 4.2969181728e-01	 9.4382771646e-01	-2.8711164459e+00
 4.1845795361e-01	 9.4886182200e-01	-3.1340775150e+00
 4.0719022266e-01	 9.5375150786e-01	-3.3933070035e+00
 3.9589130103e-01	 9.5849668438e-01	-3.6491004065e+00
 3.8175232599e-01	 9.2426465993e-01	-3.9271662998e+00
 3.7082943105e-01	 9.2870099228e-01	-4.2587699791e+00
 3.5988158822e-01	 9.3299798631e-01	-4.5916286330e+00
 3.4891134196e-01	 9.3715573703e-01	-4.9178580164e+00
 3.3792122117e-01	 9.4117439844e-01	-5.2360513367e+00
 3.2691373760e-01	 9.4505418266e-01	-5.5446859783e+00
 3.8458012100e-01	 9.3111106482e-01	-3.8680004733e+00
 3.7357631572e-01	 9.3558025889e-01	-4.1828070239e+00
 3.6254737776e-01	 9.3990908251e-01	-4.5013944957e+00
 3.5149587042e-01	 9.4409763138e-01	-4.8137202107e+00
 3.4042434133e-01	 9.4814606065e-01	-5.1177894867e+00
 3.2933532085e-01	 9.5205458401e-01	-5.4120005119e+00
 3.8740791600e-01	 9.3795746971e-01	-3.8109466488e+00
 3.7632320040e-01	 9.4245952550e-01	-4.1100195398e+00
 3.6521316731e-01	 9.4682017870e-01	-4.4144887865e+00
 3.5408039888e-01	 9.5103952573e-01	-4.7137386682e+00
 3.4292746148e-01	 9.5511772286e-01	-5.0043946393e+00
 3.3175690409e-01	 9.5905498537e-01	-5.2847759579e+00
 3.9023571101e-01	 9.4480387460e-01	-3.7556602736e+00
 3.7907008507e-01	 9.4933879211e-01	-4.0399222732e+00
 3.6787895685e-01	 9.5373127490e-01	-4.3302887270e+00
 3.5666492734e-01	 9.5798142008e-01	-4.6171560078e+00
 3.4543058164e-01	 9.6208938507e-01	-4.8949898101e+00
 3.3417848733e-01	 9.6605538672e-01	-5.1620308492e+00
 3.9306350602e-01	 9.5165027949e-01	-3.7018146388e+00
 3.8181696974e-01	 9.5621805872e-01	-3.9720512652e+00
 3.7054474639e-01	 9.6064237109e-01	-4.2482065358e+00
 3.5924945580e-01	 9.6492331443e-01	-4.5232492212e+00
 3.4793370180e-01	 9.6906104728e-01	-4.7887331152e+00
 3.3660007057e-01	 9.7305578807e-01	-5.0428192748e+00
 3.9589130103e-01	 9.5849668438e-01	-3.6491004065e+00
 3.8456385442e-01	 9.6309732533e-01	-3.9059632576e+00
 3.7321053593e-01	 9.6755346728e-01	-4.1681105235e+00
 3.6183398426e-01	 9.7186520877e-01	-4.4313295165e+00
 3.5043682196e-01	 9.7603270950e-01	-4.6848174905e+00
 3.3902165381e-01	 9.8005618943e-01	-4.9262304867e+00
 3.2691373760e-01	 9.4505418266e-01	-5.5446859783e+00
 3.1589138428e-01	 9.4879535904e-01	-5.8459396623e+00
 3.0485663397e-01	 9.5239825321e-01	-6.1428266355e+00
 2.9381193771e-01	 9.5586324611e-01	-6.4348916239e+00
 2.8275972336e-01	 9.5919077291e-01	-6.7215584728e+00
 2.7170239424e-01	 9.6238132202e-01	-7.0021310243e+00
 3.2933532085e-01	 9.5205458401e-01	-5.4120005119e+00
 3.1823132046e-01	 9.5582347281e-01	-5.6987217726e+00
 3.0711483126e-01	 9.5945305509e-01	-5.9812270952e+00
 2.9598832244e-01	 9.6294371460e-01	-6.2590612646e+00
 2.8485423983e-01	 9.6629588975e-01	-6.5316375524e+00
 2.7371500456e-01	 9.6951007255e-01	-6.7982387299e+00
 3.3175690409e-01	 9.5905498537e-01	-5.2847759579e+00
 3.2057125664e-01	 9.6285158658e-01	-5.5575237614e+00
 3.0937302855e-01	 9.6650785696e-01	-5.8262536320e+00
 2.9816470716e-01	 9.7002418309e-01	-6.0905119547e+00
 2.8694875630e-01	 9.7340100659e-01	-6.3497037699e+00
 2.7572761489e-01	 9.7663882308e-01	-6.6030938946e+00
 3.3417848733e-01	 9.6605538672e-01	-5.1620308492e+00
 3.2291119282e-01	 9.6987970035e-01	-5.4212782979e+00
 3.1163122584e-01	 9.7356265884e-01	-5.6767751172e+00
 3.0034109188e-01	 9.7710465158e-01	-5.9280708182e+00
 2.8904327277e-01	 9.8050612342e-01	-6.1745644962e+00
 2.7774022522e-01	 9.8376757362e-01	-6.4155060318e+00
 3.3660007057e-01	 9.7305578807e-01	-5.0428192748e+00
 3.2525112900e-01	 9.7690781412e-01	-5.2889536965e+00
 3.1388942313e-01	 9.8061746072e-01	-5.5316956973e+00
 3.0251747661e-01	 9.8418512007e-01	-5.7705994308e+00
 2.9113778924e-01	 9.8761124026e-01	-6.0050602825e+00
 2.7975283555e-01	 9.9089632415e-01	-6.2343161214e+00
 3.3902165381e-01	 9.8005618943e-01	-4.9262304867e+00
 3.2759106518e-01	 9.8393592789e-01	-5.1595534296e+00
 3.1614762042e-01	 9.8767226259e-01	-5.3899542326e+00
 3.0469386133e-01	 9.9126558856e-01	-5.6169932057e+00
 2.9323230571e-01	 9.9471635710e-01	-5.8400642129e+00
 2.8176544588e-01	 9.9802507468e-01	-6.0583959504e+00
 2.7170239424e-01	 9.6238132202e-01	-7.0021310243e+00
 2.6064232775e-01	 9.6543543388e-01	-7.2748092759e+00
 2.4958187416e-01	 9.6835369989e-01	-7.5380132244e+00
 2.3852335528e-01	 9.7113676122e-01	-7.7912272407e+00
 2.2746906338e-01	 9.7378530755e-01	-8.0338591035e+00
 2.1642125997e-01	 9.7630007592e-01	-8.2652467827e+00
 2.7371500456e-01	 9.6951007255e-01	-6.7982387299e+00
 2.6257301166e-01	 9.7258680746e-01	-7.0572503624e+00
 2.5143062878e-01	 9.7552669026e-01	-7.3073736827e+00
 2.4029019495e-01	 9.7833036685e-01	-7.5481917571e+00
 2.2915401941e-01	 9.8099853205e-01	-7.7791900886e+00
 2.1802438041e-01	 9.8353192833e-01	-7.9997639251e+00
 2.7572761489e-01	 9.7663882308e-01	-6.6030938946e+00
 2.6450369557e-01	 9.7973818104e-01	-6.8491849818e+00
 2.5327938340e-01	 9.8269968063e-01	-7.0868712422e+00
 2.4205703462e-01	 9.8552397249e-01	-7.3158094218e+00
 2.3083897543e-01	 9.8821175655e-01	-7.5355390503e+00
 2.1962750086e-01	 9.9076378074e-01	-7.7454903013e+00
 2.7774022522e-01	 9.8376757362e-01	-6.4155060318e+00
 2.6643437948e-01	 9.8688955463e-01	-6.6494483167e+00
 2.5512813803e-01	 9.8987267100e-01	-6.8753923172e+00
 2.4382387429e-01	 9.9271757813e-01	-7.0930438860e+00
 2.3252393146e-01	 9.9542498105e-01	-7.3019732754e+00
 2.2123062130e-01	 9.9799563316e-01	-7.5016235781e+00
 2.7975283555e-01	 9.9089632415e-01	-6.2343161214e+00
 2.6836506339e-01	 9.9404092821e-01	-6.4569048143e+00
 2.5697689265e-01	 9.9704566137e-01	-6.6718498392e+00
 2.4559071396e-01	 9.9991118377e-01	-6.8788820114e+00
 2.3420888748e-01	 1.0026382056e+00	-7.0775793829e+00
 2.2283374175e-01	 1.0052274856e+00	-7.2673762906e+00
 2.8176544588e-01	 9.9802507468e-01	-6.0583959504e+00
 2.7029574730e-01	 1.0011923018e+00	-6.2704475373e+00
 2.5882564727e-01	 1.0042186517e+00	-6.4751826417e+00
 2.4735755363e-01	 1.0071047894e+00	-6.6723333146e+00
 2.3589384351e-01	 1.0098514301e+00	-6.8614628517e+00
 2.2443686219e-01	 1.0124593380e+00	-7.0419754803e+00
 2.1642125997e-01	 9.7630007592e-01	-8.2652467827e+00
 2.0538217478e-01	 9.7868184937e-01	-8.4860744595e+00
 1.9435400473e-01	 9.8093145573e-01	-8.6974142225e+00
 1.8333891293e-01	 9.8304976629e-01	-8.8990612249e+00
 1.7233902782e-01	 9.8503769445e-01	-9.0907166654e+00
 1.6135644226e-01	 9.8689619441e-01	-9.2719992762e+00
 2.1802438041e-01	 9.8353192833e-01	-7.9997639251e+00
 2.0690352422e-01	 9.8593134455e-01	-8.2103505147e+00
 1.9579366402e-01	 9.8819761466e-01	-8.4117310874e+00
 1.8469697895e-01	 9.9033161641e-01	-8.6036813741e+00
 1.7361561321e-01	 9.9233426997e-01	-8.7858889417e+00
 1.6255167516e-01	 9.9420653659e-01	-8.9579650065e+00
 2.1962750086e-01	 9.9076378074e-01	-7.7454903013e+00
 2.0842487367e-01	 9.9318083973e-01	-7.9459862067e+00
 1.9723332331e-01	 9.9546377360e-01	-8.1376760111e+00
 1.8605504498e-01	 9.9761346653e-01	-8.3203298516e+00
 1.7489219860e-01	 9.9963084548e-01	-8.4936301501e+00
 1.6374690807e-01	 1.0015168788e+00	-8.6571838834e+00
 2.2123062130e-01	 9.9799563316e-01	-7.5016235781e+00
 2.0994622311e-01	 1.0004303349e+00	-7.6922900687e+00
 1.9867298261e-01	 1.0027299325e+00	-7.8746022054e+00
 1.8741311100e-01	 1.0048953167e+00	-8.0483380835e+00
 1.7616878400e-01	 1.0069274210e+00	-8.2131832466e+00
 1.6494214098e-01	 1.0088272210e+00	-8.3687435459e+00
 2.2283374175e-01	 1.0052274856e+00	-7.2673762906e+00
 2.1146757255e-01	 1.0076798301e+00	-7.4485817821e+00
 2.0011264190e-01	 1.0099960915e+00	-7.6218723907e+00
 1.8877117702e-01	 1.0121771668e+00	-7.7870474483e+00
 1.7744536939e-01	 1.0142239965e+00	-7.9438036677e+00
 1.6613737388e-01	 1.0161375631e+00	-8.0917487219e+00
 2.2443686219e-01	 1.0124593380e+00	-7.0419754803e+00
 2.1298892199e-01	 1.0149293253e+00	-7.2141919017e+00
 2.0155230120e-01	 1.0172622504e+00	-7.3788585395e+00
 1.9012924304e-01	 1.0194590169e+00	-7.5358089695e+00
 1.7872195478e-01	 1.0215205720e+00	-7.6847589007e+00
 1.6733260679e-01	 1.0234479053e+00	-7.8253206072e+00
 1.6135644226e-01	 9.8689619441e-01	-9.2719992762e+00
 1.5039321274e-01	 9.8862625980e-01	-9.4420940360e+00
 1.3945135864e-01	 9.9022892231e-01	-9.6003466874e+00
 1.2853286153e-01	 9.9170525032e-01	-9.7465662369e+00
 1.1763966448e-01	 9.9305634752e-01	-9.8805755583e+00
 1.0677367154e-01	 9.9428335150e-01	-1.0002222446e+01
 1.6255167516e-01	 9.9420653659e-01	-8.9579650065e+00
 1.5150723654e-01	 9.9594941728e-01	-9.1193934723e+00
 1.4048433167e-01	 9.9756395136e-01	-9.2698246143e+00
 1.2948495680e-01	 9.9905121514e-01	-9.4090591715e+00
 1.1851106940e-01	 1.0004123205e+00	-9.5368940234e+00
 1.0756458763e-01	 1.0016484134e+00	-9.6531343662e+00
 1.6374690807e-01	 1.0015168788e+00	-8.6571838834e+00
 1.5262126034e-01	 1.0032725748e+00	-8.8106076104e+00
 1.4151730470e-01	 1.0048989804e+00	-8.9536922340e+00
 1.3043705207e-01	 1.0063971800e+00	-9.0862356301e+00
 1.1938247432e-01	 1.0077682934e+00	-9.2080172277e+00
 1.0835550371e-01	 1.0090134752e+00	-9.3188112255e+00
 1.6494214098e-01	 1.0088272210e+00	-8.3687435459e+00
 1.5373528414e-01	 1.0105957322e+00	-8.5146635895e+00
 1.4255027772e-01	 1.0122340095e+00	-8.6507723162e+00
 1.3138914734e-01	 1.0137431448e+00	-8.7768694507e+00
 1.2025387925e-01	 1.0151242663e+00	-8.8927247663e+00
 1.0914641980e-01	 1.0163785371e+00	-8.9980922618e+00
 1.6613737388e-01	 1.0161375631e+00	-8.0917487219e+00
 1.5484930793e-01	 1.0179188897e+00	-8.2305105442e+00
 1.4358325075e-01	 1.0195690385e+00	-8.3599130585e+00
 1.3234124261e-01	 1.0210891096e+00	-8.4797618682e+00
 1.2112528417e-01	 1.0224802393e+00	-8.5898241475e+00
 1.0993733588e-01	 1.0237435989e+00	-8.6898437030e+00
 1.6733260679e-01	 1.0234479053e+00	-7.8253206072e+00
 1.5596333173e-01	 1.0252420472e+00	-7.9571187869e+00
 1.4461622378e-01	 1.0269040676e+00	-8.0799871280e+00
 1.3329333788e-01	 1.0284350744e+00	-8.1937404706e+00
 1.2199668909e-01	 1.0298362122e+00	-8.2981497204e+00
 1.1072825197e-01	 1.0311086608e+00	-8.3929577205e+00
 1.0677367154e-01	 9.9428335150e-01	-1.0002222446e+01
 9.5936747147e-02	 9.9538743238e-01	-1.0112180679e+01
 8.5130715650e-02	 9.9636979142e-01	-1.0210997165e+01
 7.4357360874e-02	 9.9723165959e-01	-1.0298380472e+01
 6.3618425732e-02	 9.9797429622e-01	-1.0374082478e+01
 5.2915611885e-02	 9.9859898759e-01	-1.0437909050e+01
 1.0756458763e-01	 1.0016484134e+00	-9.6531343662e+00
 9.6647389719e-02	 1.0027606726e+00	-9.7582508773e+00
 8.5761313544e-02	 1.0037503084e+00	-9.8526163242e+00
 7.4908156140e-02	 1.0046185608e+00	-9.9359307155e+00
 6.4089673330e-02	 1.0053666984e+00	-1.0007940965e+01
 5.3307579380e-02	 1.0059960171e+00	-1.0068452103e+01
 1.0835550371e-01	 1.0090134752e+00	-9.3188112255e+00
 9.7358032290e-02	 1.0101339129e+00	-9.4190121012e+00
 8.6391911437e-02	 1.0111308254e+00	-9.5089335810e+00
 7.5458951406e-02	 1.0120054620e+00	-9.5882618168e+00
 6.4560920928e-02	 1.0127591006e+00	-9.6567316162e+00
 5.3699546876e-02	 1.0133930467e+00	-9.7141382764e+00
 1.0914641980e-01	 1.0163785371e+00	-8.9980922618e+00
 9.8068674862e-02	 1.0175071531e+00	-9.0933761228e+00
 8.7022509331e-02	 1.0185113423e+00	-9.1789055873e+00
 7.6009746672e-02	 1.0193923631e+00	-9.2543474981e+00
 6.5032168526e-02	 1.0201515028e+00	-9.3194172818e+00
 5.4091514371e-02	 1.0207900762e+00	-9.3738914954e+00
 1.0993733588e-01	 1.0237435989e+00	-8.6898437030e+00
 9.8779317433e-02	 1.0248803933e+00	-8.7802805111e+00
 8.7653107225e-02	 1.0258918593e+00	-8.8615144833e+00
 7.6560541937e-02	 1.0267792643e+00	-8.9331875393e+00
 6.5503416124e-02	 1.0275439050e+00	-8.9949883090e+00
 5.4483481867e-02	 1.0281871057e+00	-9.0466654840e+00
 1.1072825197e-01	 1.0311086608e+00	-8.3929577205e+00
 9.9489960004e-02	 1.0322536336e+00	-8.4786876236e+00
 8.8283705119e-02	 1.0332723763e+00	-8.5557669002e+00
 7.7111337203e-02	 1.0341661655e+00	-8.6238067633e+00
 6.5974663722e-02	 1.0349363072e+00	-8.6824614818e+00
 5.4875449362e-02	 1.0355841353e+00	-8.7314426300e+00
 5.2915611885e-02	 9.9859898759e-01	-1.0437909050e+01
 4.2250579451e-02	 9.9910704558e-01	-1.0489999617e+01
 3.1624946766e-02	 9.9949980627e-01	-1.0530407140e+01
 2.1040290185e-02	 9.9977862859e-01	-1.0558949082e+01
 1.0498143933e-02	 9.9994489297e-01	-1.0575574629e+01
 0.0000000000e+00	 1.0000000000e+00	-1.0580370708e+01
 5.3307579380e-02	 1.0059960171e+00	-1.0068452103e+01
 4.2563546706e-02	 1.0065078385e+00	-1.0117851691e+01
 3.1859205630e-02	 1.0069035085e+00	-1.0156378674e+01
 2.1196144186e-02	 1.0071843962e+00	-1.0183756013e+01
 1.0575907962e-02	 1.0073518922e+00	-1.0199834001e+01
 0.0000000000e+00	 1.0074074074e+00	-1.0204597188e+01
 5.3699546876e-02	 1.0133930467e+00	-9.7141382764e+00
 4.2876513961e-02	 1.0139086314e+00	-9.7610219567e+00
 3.2093464495e-02	 1.0143072108e+00	-9.7977250092e+00
 2.1351998187e-02	 1.0145901638e+00	-9.8238866149e+00
 1.0653671991e-02	 1.0147588914e+00	-9.8392707974e+00
 0.0000000000e+00	 1.0148148148e+00	-9.8437741908e+00
 5.4091514371e-02	 1.0207900762e+00	-9.3738914954e+00
 4.3189481216e-02	 1.0213094244e+00	-9.4183985122e+00
 3.2327723360e-02	 1.0217109131e+00	-9.4533322198e+00
 2.1507852189e-02	 1.0219959314e+00	-9.4782579785e+00
 1.0731436021e-02	 1.0221658906e+00	-9.4928653758e+00
 0.0000000000e+00	 1.0222222222e+00	-9.4969767844e+00
 5.4483481867e-02	 1.0281871057e+00	-9.0466654840e+00
 4.3502448472e-02	 1.0287102173e+00	-9.0889015075e+00
 3.2561982225e-02	 1.0291146153e+00	-9.1221197450e+00
 2.1663706190e-02	 1.0294016991e+00	-9.1458209380e+00
 1.0809200050e-02	 1.0295728898e+00	-9.1596312940e+00
 0.0000000000e+00	 1.0296296296e+00	-9.1633117830e+00
 5.4875449362e-02	 1.0355841353e+00	-8.7314426300e+00
 4.3815415727e-02	 1.0361110102e+00	-8.7714819406e+00
 3.2796241090e-02	 1.0365183176e+00	-8.8030391494e+00
 2.1819560192e-02	 1.0368074667e+00	-8.8255588323e+00
 1.0886964079e-02	 1.0369798890e+00	-8.8386141066e+00
 0.0000000000e+00	 1.0370370370e+00	-8.8419166129e+00
 1.0370370370e+00	 0.0000000000e+00	 1.0030119255e+00
 1.0369798890e+00	 1.0886964079e-02	 1.0051206677e+00
 1.0368074667e+00	 2.1819560192e-02	 1.0121269139e+00
 1.0365183176e+00	 3.2796241090e-02	 1.0237319507e+00
 1.0361110102e+00	 4.3815415727e-02	 1.0397845579e+00
 1.0355841353e+00	 5.4875449362e-02	 1.0602728739e+00
 1.0444444444e+00	 0.0000000000e+00	 1.1732567582e+00
 1.0443868882e+00	 1.0964728108e-02	 1.1750670210e+00
 1.0442132343e+00	 2.1975414193e-02	 1.1814780410e+00
 1.0439220199e+00	 3.3030499955e-02	 1.1921431357e+00
 1.0435118032e+00	 4.4128382982e-02	 1.2068705885e+00
 1.0429811648e+00	 5.5267416857e-02	 1.2256150691e+00
 1.0518518519e+00	 0.0000000000e+00	 1.3359295773e+00
 1.0517938874e+00	 1.1042492137e-02	 1.3374522629e+00
 1.0516190019e+00	 2.2131268194e-02	 1.3432832854e+00
 1.0513257222e+00	 3.3264758820e-02	 1.3530304312e+00
 1.0509125961e+00	 4.4441350237e-02	 1.3664641203e+00
 1.0503781944e+00	 5.5659384353e-02	 1.3835083548e+00
 1.0592592593e+00	 0.0000000000e+00	 1.4906349945e+00
 1.0592008866e+00	 1.1120256166e-02	 1.4918889651e+00
 1.0590247695e+00	 2.2287122196e-02	 1.4971580236e+00
 1.0587294244e+00	 3.3499017685e-02	 1.5060071549e+00
 1.0583133890e+00	 4.4754317492e-02	 1.5181718555e+00
 1.0577752239e+00	 5.6051351848e-02	 1.5335485798e+00
 1.0666666667e+00	 0.0000000000e+00	 1.6369895423e+00
 1.0666078858e+00	 1.1198020195e-02	 1.6380016076e+00
 1.0664305372e+00	 2.2442976197e-02	 1.6427295622e+00
 1.0661331267e+00	 3.3733276550e-02	 1.6506986138e+00
 1.0657141820e+00	 4.5067284747e-02	 1.6616125839e+00
 1.0651722534e+00	 5.6443319344e-02	 1.6753438228e+00
 1.0740740741e+00	 0.0000000000e+00	 1.7746212619e+00
 1.0740148850e+00	 1.1275784225e-02	 1.7754261705e+00
 1.0738363048e+00	 2.2598830198e-02	 1.7796367298e+00
 1.0735368290e+00	 3.3967535415e-02	 1.7867416929e+00
 1.0731149749e+00	 4.5380252003e-02	 1.7964167682e+00
 1.0725692830e+00	 5.6835286839e-02	 1.8085139709e+00
 1.0355841353e+00	 5.4875449362e-02	 1.0602728739e+00
 1.0349363072e+00	 6.5974663722e-02	 1.0854994100e+00
 1.0341661655e+00	 7.7111337203e-02	 1.1155506270e+00
 1.0332723763e+00	 8.8283705119e-02	 1.1502646838e+00
 1.0322536336e+00	 9.9489960004e-02	 1.1895697972e+00
 1.0311086608e+00	 1.1072825197e-01	 1.2334705843e+00
 1.0429811648e+00	 5.5267416857e-02	 1.2256150691e+00
 1.0423287094e+00	 6.6445911321e-02	 1.2486840513e+00
 1.0415530667e+00	 7.7662132469e-02	 1.2761858338e+00
 1.0406528933e+00	 8.8914303012e-02	 1.3079590159e+00
 1.0396268738e+00	 1.0020060258e-01	 1.3439364984e+00
 1.0384737227e+00	 1.1151916805e-01	 1.3841310426e+00
 1.0503781944e+00	 5.5659384353e-02	 1.3835083548e+00
 1.0497211116e+00	 6.6917158919e-02	 1.4044741192e+00
 1.0489399679e+00	 7.8212927735e-02	 1.4294862405e+00
 1.0480334102e+00	 8.9544900906e-02	 1.4583810047e+00
 1.0470001141e+00	 1.0091124515e-01	 1.4910933894e+00
 1.0458387845e+00	 1.1231008414e-01	 1.5276418152e+00
 1.0577752239e+00	 5.6051351848e-02	 1.5335485798e+00
 1.0571135138e+00	 6.7388406517e-02	 1.5524521560e+00
 1.0563268690e+00	 7.8763723000e-02	 1.5750205176e+00
 1.0554139272e+00	 9.0175498800e-02	 1.6010853714e+00
 1.0543733543e+00	 1.0162188772e-01	 1.6305816607e+00
 1.0532038464e+00	 1.1310100022e-01	 1.6635314823e+00
 1.0651722534e+00	 5.6443319344e-02	 1.6753438228e+00
 1.0645059160e+00	 6.7859654115e-02	 1.6922130831e+00
 1.0637137702e+00	 7.9314518266e-02	 1.7123698300e+00
 1.0627944442e+00	 9.0806096693e-02	 1.7356394146e+00
 1.0617465945e+00	 1.0233253029e-01	 1.7619551298e+00
 1.0605689083e+00	 1.1389191631e-01	 1.7913412674e+00
 1.0725692830e+00	 5.6835286839e-02	 1.8085139709e+00
 1.0718983182e+00	 6.8330901713e-02	 1.8233637720e+00
 1.0711006714e+00	 7.9865313532e-02	 1.8411274038e+00
 1.0701749612e+00	 9.1436694587e-02	 1.8616225724e+00
 1.0691198348e+00	 1.0304317286e-01	 1.8847798012e+00
 1.0679339701e+00	 1.1468283240e-01	 1.9106245962e+00
 1.0311086608e+00	 1.1072825197e-01	 1.2334705843e+00
 1.0298362122e+00	 1.2199668909e-01	 1.2819718281e+00
 1.0284350744e+00	 1.3329333788e-01	 1.3348933996e+00
 1.0269040676e+00	 1.4461622378e-01	 1.3920279341e+00
 1.0252420472e+00	 1.5596333173e-01	 1.4531773240e+00
 1.0234479053e+00	 1.6733260679e-01	 1.5181359661e+00
 1.0384737227e+00	 1.1151916805e-01	 1.3841310426e+00
 1.0371921852e+00	 1.2286809401e-01	 1.4285605113e+00
 1.0357810392e+00	 1.3424543315e-01	 1.4770380175e+00
 1.0342390966e+00	 1.4564919681e-01	 1.5293376195e+00
 1.0325652047e+00	 1.5707735553e-01	 1.5852431950e+00
 1.0307582475e+00	 1.6852783969e-01	 1.6445308148e+00
 1.0458387845e+00	 1.1231008414e-01	 1.5276418152e+00
 1.0445481581e+00	 1.2373949893e-01	 1.5680633672e+00
 1.0431270040e+00	 1.3519752842e-01	 1.6121804811e+00
 1.0415741257e+00	 1.4668216983e-01	 1.6597610036e+00
 1.0398883622e+00	 1.5819137933e-01	 1.7105829324e+00
 1.0380685897e+00	 1.6972307260e-01	 1.7644158520e+00
 1.0532038464e+00	 1.1310100022e-01	 1.6635314823e+00
 1.0519041311e+00	 1.2461090386e-01	 1.6999947583e+00
 1.0504729689e+00	 1.3614962369e-01	 1.7398165791e+00
 1.0489091547e+00	 1.4771514286e-01	 1.7827711209e+00
 1.0472115196e+00	 1.5930540313e-01	 1.8286428139e+00
 1.0453789319e+00	 1.7091830550e-01	 1.8772067716e+00
 1.0605689083e+00	 1.1389191631e-01	 1.7913412674e+00
 1.0592601040e+00	 1.2548230878e-01	 1.8238817566e+00
 1.0578189337e+00	 1.3710171896e-01	 1.8594550169e+00
 1.0562441838e+00	 1.4874811589e-01	 1.8978542797e+00
 1.0545346771e+00	 1.6041942692e-01	 1.9388829053e+00
 1.0526892740e+00	 1.7211353841e-01	 1.9823337373e+00
 1.0679339701e+00	 1.1468283240e-01	 1.9106245962e+00
 1.0666160770e+00	 1.2635371370e-01	 1.9392637021e+00
 1.0651648985e+00	 1.3805381423e-01	 1.9706169703e+00
 1.0635792128e+00	 1.4978108891e-01	 2.0045096071e+00
 1.0618578346e+00	 1.6153345072e-01	 2.0407765946e+00
 1.0599996162e+00	 1.7330877132e-01	 2.0792409009e+00
 1.0234479053e+00	 1.6733260679e-01	 1.5181359661e+00
 1.0215205720e+00	 1.7872195478e-01	 1.5864837133e+00
 1.0194590169e+00	 1.9012924304e-01	 1.6582663450e+00
 1.0172622504e+00	 2.0155230120e-01	 1.7339194618e+00
 1.0149293253e+00	 2.1298892199e-01	 1.8138084070e+00
 1.0124593380e+00	 2.2443686219e-01	 1.8982106819e+00
 1.0307582475e+00	 1.6852783969e-01	 1.6445308148e+00
 1.0288171475e+00	 1.7999854017e-01	 1.7067399088e+00
 1.0267408670e+00	 1.9148730906e-01	 1.7719227038e+00
 1.0245284093e+00	 2.0299196049e-01	 1.8405628777e+00
 1.0221788205e+00	 2.1451027144e-01	 1.9130688179e+00
 1.0196911904e+00	 2.2603998263e-01	 1.9897549936e+00
 1.0380685897e+00	 1.6972307260e-01	 1.7644158520e+00
 1.0361137231e+00	 1.8127512556e-01	 1.8207576162e+00
 1.0340227171e+00	 1.9284537508e-01	 1.8796636509e+00
 1.0317945683e+00	 2.0443161979e-01	 1.9416740767e+00
 1.0294283156e+00	 2.1603162088e-01	 2.0072485536e+00
 1.0269230428e+00	 2.2764310308e-01	 2.0767465591e+00
 1.0453789319e+00	 1.7091830550e-01	 1.8772067716e+00
 1.0434102986e+00	 1.8255171095e-01	 1.9279214556e+00
 1.0413045673e+00	 1.9420344111e-01	 1.9808456271e+00
 1.0390607272e+00	 2.0587127908e-01	 2.0365844514e+00
 1.0366778108e+00	 2.1755297032e-01	 2.0956573148e+00
 1.0341548952e+00	 2.2924622352e-01	 2.1584769544e+00
 1.0526892740e+00	 1.7211353841e-01	 1.9823337373e+00
 1.0507068741e+00	 1.8382829634e-01	 2.0276312859e+00
 1.0485864174e+00	 1.9556150713e-01	 2.0748410863e+00
 1.0463268861e+00	 2.0731093837e-01	 2.1246421937e+00
 1.0439273060e+00	 2.1907431977e-01	 2.1776224053e+00
 1.0413867476e+00	 2.3084934397e-01	 2.2342561846e+00
 1.0599996162e+00	 1.7330877132e-01	 2.0792409009e+00
 1.0580034496e+00	 1.8510488173e-01	 2.1193017069e+00
 1.0558682675e+00	 1.9691957315e-01	 2.1610379845e+00
 1.0535930450e+00	 2.0875059767e-01	 2.2052117729e+00
 1.0511768012e+00	 2.2059566921e-01	 2.2524882004e+00
 1.0486186001e+00	 2.3245246441e-01	 2.3034121466e+00
 1.0124593380e+00	 2.2443686219e-01	 1.8982106819e+00
 1.0098514301e+00	 2.3589384351e-01	 1.9857089901e+00
 1.0071047894e+00	 2.4735755363e-01	 2.0748587377e+00
 1.0042186517e+00	 2.5882564727e-01	 2.1657068416e+00
 1.0011923018e+00	 2.7029574730e-01	 2.2581376472e+00
 9.9802507468e-01	 2.8176544588e-01	 2.3518603508e+00
 1.0196911904e+00	 2.2603998263e-01	 1.9897549936e+00
 1.0170646546e+00	 2.3757879953e-01	 2.0691347582e+00
 1.0142983950e+00	 2.4912439330e-01	 2.1497522352e+00
 1.0113916421e+00	 2.6067440190e-01	 2.2317670532e+00
 1.0083436754e+00	 2.7222643121e-01	 2.3151671854e+00
 1.0051538252e+00	 2.8377805620e-01	 2.3997553928e+00
 1.0269230428e+00	 2.2764310308e-01	 2.0767465591e+00
 1.0242778791e+00	 2.3926375556e-01	 2.1486133281e+00
 1.0214920007e+00	 2.5089123297e-01	 2.2213473947e+00
 1.0185646325e+00	 2.6252315652e-01	 2.2951757722e+00
 1.0154950490e+00	 2.7415711512e-01	 2.3701449461e+00
 1.0122825758e+00	 2.8579066653e-01	 2.4461064183e+00
 1.0341548952e+00	 2.2924622352e-01	 2.1584769544e+00
 1.0314911036e+00	 2.4094871158e-01	 2.2234293058e+00
 1.0286856063e+00	 2.5265807263e-01	 2.2889413504e+00
 1.0257376228e+00	 2.6437191114e-01	 2.3552634765e+00
 1.0226464226e+00	 2.7608779903e-01	 2.4224568598e+00
 1.0194113263e+00	 2.8780327686e-01	 2.4903781833e+00
 1.0413867476e+00	 2.3084934397e-01	 2.2342561846e+00
 1.0387043281e+00	 2.4263366761e-01	 2.2928863744e+00
 1.0358792120e+00	 2.5442491230e-01	 2.3518505618e+00
 1.0329106132e+00	 2.6622066577e-01	 2.4113797910e+00
 1.0297977961e+00	 2.7801848294e-01	 2.4715073698e+00
 1.0265400768e+00	 2.8981588719e-01	 2.5320528387e+00
 1.0486186001e+00	 2.3245246441e-01	 2.3034121466e+00
 1.0459175526e+00	 2.4431862363e-01	 2.3563067604e+00
 1.0430728176e+00	 2.5619175197e-01	 2.4094103015e+00
 1.0400836036e+00	 2.6806942039e-01	 2.4628930140e+00
 1.0369491697e+00	 2.7994916685e-01	 2.5167190178e+00
 1.0336688274e+00	 2.9182849751e-01	 2.5706295967e+00
 9.9802507468e-01	 2.8176544588e-01	 2.3518603508e+00
 9.9471635710e-01	 2.9323230571e-01	 2.4466757628e+00
 9.9126558856e-01	 3.0469386133e-01	 2.5434129815e+00
 9.8767226259e-01	 3.1614762042e-01	 2.6430439239e+00
 9.8393592789e-01	 3.2759106518e-01	 2.7463457688e+00
 9.8005618943e-01	 3.3902165381e-01	 2.8538958836e+00
 1.0051538252e+00	 2.8377805620e-01	 2.3997553928e+00
 1.0018214739e+00	 2.9532682218e-01	 2.4853789942e+00
 9.9834605705e-01	 3.0687024605e-01	 2.5728949196e+00
 9.9472706447e-01	 3.1840581770e-01	 2.6633220504e+00
 9.9096404166e-01	 3.2993100136e-01	 2.7574700447e+00
 9.8705659078e-01	 3.4144323705e-01	 2.8559337485e+00
 1.0122825758e+00	 2.8579066653e-01	 2.4461064183e+00
 1.0089265908e+00	 2.9742133865e-01	 2.5229048869e+00
 1.0054265255e+00	 3.0904663078e-01	 2.6014346492e+00
 1.0017818663e+00	 3.2066401499e-01	 2.6828036120e+00
 9.9799215544e-01	 3.3227093754e-01	 2.7678940221e+00
 9.9405699213e-01	 3.4386482029e-01	 2.8573562240e+00
 1.0194113263e+00	 2.8780327686e-01	 2.4903781833e+00
 1.0160317076e+00	 2.9951585512e-01	 2.5588002811e+00
 1.0125069940e+00	 3.1122301550e-01	 2.6286428893e+00
 1.0088366682e+00	 3.2292221228e-01	 2.7011442096e+00
 1.0050202692e+00	 3.3461087372e-01	 2.7772983869e+00
 1.0010573935e+00	 3.4628640354e-01	 2.8578484768e+00
 1.0265400768e+00	 2.8981588719e-01	 2.5320528387e+00
 1.0231368244e+00	 3.0161037159e-01	 2.5926283762e+00
 1.0195874625e+00	 3.1339940023e-01	 2.6541463645e+00
 1.0158914701e+00	 3.2518040957e-01	 2.7180158046e+00
 1.0120483830e+00	 3.3695080990e-01	 2.7853812740e+00
 1.0080577948e+00	 3.4870798678e-01	 2.8571149675e+00
 1.0336688274e+00	 2.9182849751e-01	 2.5706295967e+00
 1.0302419413e+00	 3.0370488806e-01	 2.6239684779e+00
 1.0266679310e+00	 3.1557578495e-01	 2.6775876143e+00
 1.0229462720e+00	 3.2743860686e-01	 2.7331065703e+00
 1.0190764967e+00	 3.3929074608e-01	 2.7918581391e+00
 1.0150581962e+00	 3.5112957002e-01	 2.8548793222e+00
 9.8005618943e-01	 3.3902165381e-01	 2.8538958836e+00
 9.7603270950e-01	 3.5043682196e-01	 2.9597780854e+00
 9.7186520877e-01	 3.6183398426e-01	 3.0576992051e+00
 9.6755346728e-01	 3.7321053593e-01	 3.1478409865e+00
 9.6309732533e-01	 3.8456385442e-01	 3.2414128179e+00
 9.5849668438e-01	 3.9589130103e-01	 3.3415636239e+00
 9.8705659078e-01	 3.4144323705e-01	 2.8559337485e+00
 9.8300437171e-01	 3.5293994211e-01	 2.9520659886e+00
 9.7880710312e-01	 3.6441851271e-01	 3.0389250399e+00
 9.7446456348e-01	 3.7587632548e-01	 3.1183487288e+00
 9.6997659194e-01	 3.8731073909e-01	 3.2029320841e+00
 9.6534308926e-01	 3.9871909603e-01	 3.2932694732e+00
 9.9405699213e-01	 3.4386482029e-01	 2.8573562240e+00
 9.8997603392e-01	 3.5544306227e-01	 2.9438233861e+00
 9.8574899747e-01	 3.6700304117e-01	 3.0197087648e+00
 9.8137565967e-01	 3.7854211502e-01	 3.0895440403e+00
 9.7685585855e-01	 3.9005762377e-01	 3.1653878133e+00
 9.7218949415e-01	 4.0154689104e-01	 3.2461970164e+00
 1.0010573935e+00	 3.4628640354e-01	 2.8578484768e+00
 9.9694769613e-01	 3.5794618243e-01	 2.9347334270e+00
 9.9269089182e-01	 3.6958756963e-01	 2.9997392864e+00
 9.8828675587e-01	 3.8120790456e-01	 3.0611421416e+00
 9.8373512516e-01	 3.9280450844e-01	 3.1284921290e+00
 9.7903589904e-01	 4.0437468605e-01	 3.2000577886e+00
 1.0080577948e+00	 3.4870798678e-01	 2.8571149675e+00
 1.0039193583e+00	 3.6044930258e-01	 2.9245007649e+00
 9.9963278617e-01	 3.7217209809e-01	 2.9789630803e+00
 9.9519785206e-01	 3.8387369410e-01	 3.0328750773e+00
 9.9061439177e-01	 3.9555139312e-01	 3.0919741871e+00
 9.8588230393e-01	 4.0720248105e-01	 3.1545804616e+00
 1.0150581962e+00	 3.5112957002e-01	 2.8548793222e+00
 1.0108910205e+00	 3.6295242274e-01	 2.9128514201e+00
 1.0065746805e+00	 3.7475662655e-01	 2.9578076615e+00
 1.0021089483e+00	 3.8653948365e-01	 3.0044909635e+00
 9.9749365838e-01	 3.9829827779e-01	 3.0555793826e+00
 9.9272870882e-01	 4.1003027606e-01	 3.1095100144e+00
 9.5849668438e-01	 3.9589130103e-01	 3.3415636239e+00
 9.5375150786e-01	 4.0719022266e-01	 3.4430821819e+00
 9.4886182200e-01	 4.1845795361e-01	 3.5413324980e+00
 9.4382771646e-01	 4.2969181728e-01	 3.6351298833e+00
 9.3864934503e-01	 4.4088912808e-01	 3.7232640248e+00
 9.3332692623e-01	 4.5204719328e-01	 3.8045085687e+00
 9.6534308926e-01	 3.9871909603e-01	 3.2932694732e+00
 9.6056401863e-01	 4.1009872426e-01	 3.3845647044e+00
 9.5563940644e-01	 4.2144693899e-01	 3.4725859396e+00
 9.5056934300e-01	 4.3276104454e-01	 3.5561566067e+00
 9.4535398321e-01	 4.4403833614e-01	 3.6340755067e+00
 9.3999354713e-01	 4.5527610181e-01	 3.7051264745e+00
 9.7218949415e-01	 4.0154689104e-01	 3.2461970164e+00
 9.6737652940e-01	 4.1300722585e-01	 3.3276386256e+00
 9.6241699089e-01	 4.2443592437e-01	 3.4058872379e+00
 9.5731096955e-01	 4.3583027181e-01	 3.4797299333e+00
 9.5205862139e-01	 4.4718754419e-01	 3.5479309852e+00
 9.4666016804e-01	 4.5850501033e-01	 3.6092416990e+00
 9.7903589904e-01	 4.0437468605e-01	 3.2000577886e+00
 9.7418904018e-01	 4.1591572744e-01	 3.2720217912e+00
 9.6919457533e-01	 4.2742490976e-01	 3.3409728278e+00
 9.6405259610e-01	 4.3889949907e-01	 3.4056180641e+00
 9.5876325957e-01	 4.5033675225e-01	 3.4646444961e+00
 9.5332678894e-01	 4.6173391885e-01	 3.5167290708e+00
 9.8588230393e-01	 4.0720248105e-01	 3.1545804616e+00
 9.8100155095e-01	 4.1882422903e-01	 3.2174490644e+00
 9.7597215977e-01	 4.3041389514e-01	 3.2775956727e+00
 9.7079422264e-01	 4.4196872634e-01	 3.3336048442e+00
 9.6546789775e-01	 4.5348596031e-01	 3.3840444201e+00
 9.5999340984e-01	 4.6496282738e-01	 3.4274760259e+00
 9.9272870882e-01	 4.1003027606e-01	 3.1095100144e+00
 9.8781406172e-01	 4.2173273062e-01	 3.1636714665e+00
 9.8274974421e-01	 4.3340288052e-01	 3.2155243853e+00
 9.7753584919e-01	 4.4503795361e-01	 3.2634888794e+00
 9.7217253593e-01	 4.5663516837e-01	 3.3059726070e+00
 9.6666003074e-01	 4.6819173590e-01	 3.3413817546e+00
 9.3332692623e-01	 4.5204719328e-01	 3.8045085687e+00
 9.2786074382e-01	 4.6316331490e-01	 3.8828258380e+00
 9.2225114724e-01	 4.7423479164e-01	 3.9612326194e+00
 9.1649855206e-01	 4.8525892084e-01	 4.0371030363e+00
 9.1060344027e-01	 4.9623300046e-01	 4.1078547548e+00
 9.0456636055e-01	 5.0715433109e-01	 4.1709614242e+00
 9.3999354713e-01	 4.5527610181e-01	 3.7051264745e+00
 9.3448832056e-01	 4.6647162430e-01	 3.7734788535e+00
 9.2883865543e-01	 4.7762218301e-01	 3.8422995260e+00
 9.2304497029e-01	 4.8872505599e-01	 3.9088889460e+00
 9.1710775056e-01	 4.9977752190e-01	 3.9705921998e+00
 9.1102754884e-01	 5.1077686203e-01	 4.0248116490e+00
 9.4666016804e-01	 4.5850501033e-01	 3.6092416990e+00
 9.4111589730e-01	 4.6977993369e-01	 3.6680019217e+00
 9.3542616363e-01	 4.8100957438e-01	 3.7275450984e+00
 9.2959138852e-01	 4.9219119114e-01	 3.7851344979e+00
 9.2361206085e-01	 5.0332204333e-01	 3.8380776505e+00
 9.1748873713e-01	 5.1439939297e-01	 3.8837390849e+00
 9.5332678894e-01	 4.6173391885e-01	 3.5167290708e+00
 9.4774347404e-01	 4.7308824308e-01	 3.5663278166e+00
 9.4201367182e-01	 4.8439696575e-01	 3.6169382484e+00
 9.3613780675e-01	 4.9565732629e-01	 3.6658221010e+00
 9.3011637114e-01	 5.0686656476e-01	 3.7102835635e+00
 9.2394992542e-01	 5.1802192390e-01	 3.7476820024e+00
 9.5999340984e-01	 4.6496282738e-01	 3.4274760259e+00
 9.5437105078e-01	 4.7639655247e-01	 3.4684002422e+00
 9.4860118002e-01	 4.8778435712e-01	 3.5104577300e+00
 9.4268422498e-01	 4.9912346144e-01	 3.5509435347e+00
 9.3662068142e-01	 5.1041108619e-01	 3.5871919367e+00
 9.3041111371e-01	 5.2164445484e-01	 3.6165890525e+00
 9.6666003074e-01	 4.6819173590e-01	 3.3413817546e+00
 9.6099862752e-01	 4.7970486186e-01	 3.3741729995e+00
 9.5518868821e-01	 4.9117174849e-01	 3.4080913058e+00
 9.4923064321e-01	 5.0258959659e-01	 3.4404990944e+00
 9.4312499171e-01	 5.1395560762e-01	 3.4687934115e+00
 9.3687230200e-01	 5.2526698577e-01	 3.4904183021e+00
 9.0456636055e-01	 5.0715433109e-01	 4.1709614242e+00
 8.9838792844e-01	 5.1802021796e-01	 4.2283027561e+00
 8.9206882649e-01	 5.2882797297e-01	 4.2820237554e+00
 8.8560980424e-01	 5.3957491679e-01	 4.3301278771e+00
 8.7901167826e-01	 5.5025838083e-01	 4.3707374156e+00
 8.7227533198e-01	 5.6087570941e-01	 4.4021042052e+00
 9.1102754884e-01	 5.1077686203e-01	 4.0248116490e+00
 9.0480498508e-01	 5.2172036237e-01	 4.0734764026e+00
 8.9844074667e-01	 5.3260531564e-01	 4.1188062039e+00
 8.9193558855e-01	 5.4342902333e-01	 4.1587724482e+00
 8.8529033310e-01	 5.5418879784e-01	 4.1914655830e+00
 8.7850587006e-01	 5.6488196448e-01	 4.2151058484e+00
 9.1748873713e-01	 5.1439939297e-01	 3.8837390849e+00
 9.1122204171e-01	 5.2542050679e-01	 3.9241180110e+00
 9.0481266686e-01	 5.3638265830e-01	 3.9614859834e+00
 8.9826137287e-01	 5.4728312988e-01	 3.9937501133e+00
 8.9156898795e-01	 5.5811921484e-01	 4.0189381823e+00
 8.8473640815e-01	 5.6888821955e-01	 4.0352094926e+00
 9.2394992542e-01	 5.1802192390e-01	 3.7476820024e+00
 9.1763909834e-01	 5.2912065120e-01	 3.7801278275e+00
 9.1118458705e-01	 5.4016000097e-01	 3.8099428341e+00
 9.0458715719e-01	 5.5113723643e-01	 3.8349382915e+00
 8.9784764279e-01	 5.6204963185e-01	 3.8530491446e+00
 8.9096694623e-01	 5.7289447462e-01	 3.8623450430e+00
 9.3041111371e-01	 5.2164445484e-01	 3.6165890525e+00
 9.2405615497e-01	 5.3282079561e-01	 3.6414174226e+00
 9.1755650724e-01	 5.4393734363e-01	 3.6640682813e+00
 9.1091294150e-01	 5.5499134298e-01	 3.6822261495e+00
 9.0412629763e-01	 5.6598004886e-01	 3.6937035981e+00
 8.9719748432e-01	 5.7690072968e-01	 3.6964525258e+00
 9.3687230200e-01	 5.2526698577e-01	 3.4904183021e+00
 9.3047321160e-01	 5.3652094003e-01	 3.5079086581e+00
 9.2392842743e-01	 5.4771468629e-01	 3.5237645500e+00
 9.1723872582e-01	 5.5884544953e-01	 3.5355134813e+00
 9.1040495248e-01	 5.6991046586e-01	 3.5408167331e+00
 9.0342802240e-01	 5.8090698475e-01	 3.5374809573e+00
 8.7227533198e-01	 5.6087570941e-01	 4.4021042052e+00
 8.6540171554e-01	 5.7142426176e-01	 4.4264114962e+00
 8.5839184551e-01	 5.8190141411e-01	 4.4457376571e+00
 8.5124680458e-01	 5.9230456176e-01	 4.4584291753e+00
 8.4396774109e-01	 6.0263112116e-01	 4.4630387581e+00
 8.3655586860e-01	 6.1287853192e-01	 4.4583350146e+00
 8.7850587006e-01	 5.6488196448e-01	 4.2151058484e+00
 8.7158315636e-01	 5.7550586363e-01	 4.2321092302e+00
 8.6452321584e-01	 5.8605785278e-01	 4.2447605282e+00
 8.5732713890e-01	 5.9653530863e-01	 4.2513389619e+00
 8.4999608210e-01	 6.0693562916e-01	 4.2503348621e+00
 8.4253126767e-01	 6.1725623572e-01	 4.2404595015e+00
 8.8473640815e-01	 5.6888821955e-01	 4.0352094926e+00
 8.7776459719e-01	 5.7958746550e-01	 4.0452091539e+00
 8.7065458616e-01	 5.9021429145e-01	 4.0514466484e+00
 8.6340747322e-01	 6.0076605550e-01	 4.0521378079e+00
 8.5602442311e-01	 6.1124013717e-01	 4.0457134829e+00
 8.4850666673e-01	 6.2163393952e-01	 4.0308294973e+00
 8.9096694623e-01	 5.7289447462e-01	 3.8623450430e+00
 8.8394603801e-01	 5.8366906737e-01	 3.8656809099e+00
 8.7678595649e-01	 5.9437073012e-01	 3.8657929797e+00
 8.6948780753e-01	 6.0499680237e-01	 3.8608374736e+00
 8.6205276411e-01	 6.1554464518e-01	 3.8491885685e+00
 8.5448206579e-01	 6.2601164332e-01	 3.8294484485e+00
 8.9719748432e-01	 5.7690072968e-01	 3.6964525258e+00
 8.9012747884e-01	 5.8775066924e-01	 3.6935031004e+00
 8.8291732681e-01	 5.9852716880e-01	 3.6878046494e+00
 8.7556814185e-01	 6.0922754924e-01	 3.6774574647e+00
 8.6808110512e-01	 6.1984915319e-01	 3.6607817725e+00
 8.6045746485e-01	 6.3038934712e-01	 3.6363278536e+00
 9.0342802240e-01	 5.8090698475e-01	 3.5374809573e+00
 8.9630891967e-01	 5.9183227111e-01	 3.5286621642e+00
 8.8904869714e-01	 6.0268360747e-01	 3.5174938241e+00
 8.8164847617e-01	 6.1345829611e-01	 3.5020238923e+00
 8.7410944613e-01	 6.2415366120e-01	 3.4805212883e+00
 8.6643286391e-01	 6.3476705092e-01	 3.4514860598e+00
 8.3655586860e-01	 6.1287853192e-01	 4.4583350146e+00
 8.2901246530e-01	 6.2304425891e-01	 4.4450030054e+00
 8.2133887335e-01	 6.3312579423e-01	 4.4238583264e+00
 8.1353649817e-01	 6.4312065923e-01	 4.3942182671e+00
 8.0560680767e-01	 6.5302640653e-01	 4.3556534457e+00
 7.9755133135e-01	 6.6284062190e-01	 4.3079949592e+00
 8.4253126767e-01	 6.1725623572e-01	 4.2404595015e+00
 8.3493398291e-01	 6.2749457505e-01	 4.2223876909e+00
 8.2720557959e-01	 6.3764812133e-01	 4.1969324097e+00
 8.1934747316e-01	 6.4771437823e-01	 4.1633742814e+00
 8.1136114201e-01	 6.5769088086e-01	 4.1212545012e+00
 8.0324812658e-01	 6.6757519777e-01	 4.0703821117e+00
 8.4850666673e-01	 6.2163393952e-01	 4.0308294973e+00
 8.4085550052e-01	 6.3194489118e-01	 4.0081676912e+00
 8.3307228582e-01	 6.4217044843e-01	 3.9785663516e+00
 8.2515844814e-01	 6.5230809722e-01	 3.9412866837e+00
 8.1711547635e-01	 6.6235535519e-01	 3.8958578906e+00
 8.0894492180e-01	 6.7230977365e-01	 3.8420845256e+00
 8.5448206579e-01	 6.2601164332e-01	 3.8294484485e+00
 8.4677701813e-01	 6.3639520732e-01	 3.8023305023e+00
 8.3893899206e-01	 6.4669277553e-01	 3.7687332680e+00
 8.3096942313e-01	 6.5690181622e-01	 3.7279153761e+00
 8.2286981069e-01	 6.6701982952e-01	 3.6794110559e+00
 8.1464171702e-01	 6.7704434952e-01	 3.6230375177e+00
 8.6045746485e-01	 6.3038934712e-01	 3.6363278536e+00
 8.5269853574e-01	 6.4084552345e-01	 3.6048722061e+00
 8.4480569830e-01	 6.5121510263e-01	 3.5674153903e+00
 8.3678039812e-01	 6.6149553521e-01	 3.5232299148e+00
 8.2862414503e-01	 6.7168430385e-01	 3.4718716555e+00
 8.2033851225e-01	 6.8177892539e-01	 3.4131872203e+00
 8.6643286391e-01	 6.3476705092e-01	 3.4514860598e+00
 8.5862005335e-01	 6.4529583959e-01	 3.4157962256e+00
 8.5067240454e-01	 6.5573742974e-01	 3.3746027815e+00
 8.4259137311e-01	 6.6608925420e-01	 3.3272081897e+00
 8.3437847937e-01	 6.7634877819e-01	 3.2732062081e+00
 8.2603530747e-01	 6.8651350126e-01	 3.2124891909e+00
 7.9755133135e-01	 6.6284062190e-01	 4.3079949592e+00
 7.8937165937e-01	 6.7256092629e-01	 4.2502170050e+00
 7.8106944154e-01	 6.8218497761e-01	 4.1820769443e+00
 7.7264638622e-01	 6.9171047270e-01	 4.1050212723e+00
 7.6410425920e-01	 7.0113514907e-01	 4.0208205076e+00
 7.5544488243e-01	 7.1045678672e-01	 3.9315714083e+00
 8.0324812658e-01	 6.6757519777e-01	 4.0703821117e+00
 7.9501002837e-01	 6.7736493290e-01	 4.0099545266e+00
 7.8664850898e-01	 6.8705772745e-01	 3.9400010905e+00
 7.7816528898e-01	 6.9665126179e-01	 3.8620263464e+00
 7.6956214676e-01	 7.0614325728e-01	 3.7778606168e+00
 7.6084091730e-01	 7.1553147806e-01	 3.6896621718e+00
 8.0894492180e-01	 6.7230977365e-01	 3.8420845256e+00
 8.0064839736e-01	 6.8216893952e-01	 3.7793537030e+00
 7.9222757642e-01	 6.9193047730e-01	 3.7078452700e+00
 7.8368419174e-01	 7.0159205089e-01	 3.6290089998e+00
 7.7502003433e-01	 7.1115136549e-01	 3.5446243983e+00
 7.6623695218e-01	 7.2060616939e-01	 3.4568030779e+00
 8.1464171702e-01	 6.7704434952e-01	 3.6230375177e+00
 8.0628676636e-01	 6.8697294614e-01	 3.5583496176e+00
 7.9780664386e-01	 6.9680322714e-01	 3.4855696350e+00
 7.8920309450e-01	 7.0653283998e-01	 3.4059820881e+00
 7.8047792189e-01	 7.1615947370e-01	 3.3212073421e+00
 7.7163298705e-01	 7.2568086072e-01	 3.2332044398e+00
 8.2033851225e-01	 6.8177892539e-01	 3.4131872203e+00
 8.1192513535e-01	 6.9177695275e-01	 3.3468884853e+00
 8.0338571130e-01	 7.0167597698e-01	 3.2731451310e+00
 7.9472199725e-01	 7.1147362907e-01	 3.1929682040e+00
 7.8593580946e-01	 7.2116758190e-01	 3.1077128376e+00
 7.7702902193e-01	 7.3075555206e-01	 3.0190817884e+00
 8.2603530747e-01	 6.8651350126e-01	 3.2124891909e+00
 8.1756350435e-01	 6.9658095937e-01	 3.1449262404e+00
 8.0896477873e-01	 7.0654872682e-01	 3.0705520887e+00
 8.0024090001e-01	 7.1641441816e-01	 2.9899983002e+00
 7.9139369702e-01	 7.2617569011e-01	 2.9042508572e+00
 7.8242505680e-01	 7.3583024339e-01	 2.8146546475e+00
 7.5544488243e-01	 7.1045678672e-01	 3.9315714083e+00
 7.4667013278e-01	 7.1967320987e-01	 3.8328817836e+00
 7.3778194067e-01	 7.2878228863e-01	 3.7181336898e+00
 7.2878228863e-01	 7.3778194067e-01	 3.5923172999e+00
 7.1967320987e-01	 7.4667013278e-01	 3.4569490589e+00
 7.1045678672e-01	 7.5544488243e-01	 3.3189154573e+00
 7.6084091730e-01	 7.1553147806e-01	 3.6896621718e+00
 7.5200349087e-01	 7.2481373279e-01	 3.5926315773e+00
 7.4305181167e-01	 7.3398787640e-01	 3.4789707994e+00
 7.3398787640e-01	 7.4305181167e-01	 3.3497513781e+00
 7.2481373279e-01	 7.5200349087e-01	 3.2175545683e+00
 7.1553147806e-01	 7.6084091730e-01	 3.0842771025e+00
 7.6623695218e-01	 7.2060616939e-01	 3.4568030779e+00
 7.5733684896e-01	 7.2995425572e-01	 3.3603067998e+00
 7.4832168268e-01	 7.3919346418e-01	 3.2468900604e+00
 7.3919346418e-01	 7.4832168268e-01	 3.1188855670e+00
 7.2995425572e-01	 7.5733684896e-01	 2.9890633523e+00
 7.2060616939e-01	 7.6623695218e-01	 2.8594550971e+00
 7.7163298705e-01	 7.2568086072e-01	 3.2332044398e+00
 7.6267020706e-01	 7.3509477865e-01	 3.1362440832e+00
 7.5359155368e-01	 7.4439905195e-01	 3.0226082203e+00
 7.4439905195e-01	 7.5359155368e-01	 2.8993567780e+00
 7.3509477865e-01	 7.6267020706e-01	 2.7711771968e+00
 7.2568086072e-01	 7.7163298705e-01	 2.6441846713e+00
 7.7702902193e-01	 7.3075555206e-01	 3.0190817884e+00
 7.6800356515e-01	 7.4023530158e-01	 2.9207823240e+00
 7.5886142468e-01	 7.4960463973e-01	 2.8086688122e+00
 7.4960463973e-01	 7.5886142468e-01	 2.6889615543e+00
 7.4023530158e-01	 7.6800356515e-01	 2.5635880329e+00
 7.3075555206e-01	 7.7702902193e-01	 2.4381902778e+00
 7.8242505680e-01	 7.3583024339e-01	 2.8146546475e+00
 7.7333692324e-01	 7.4537582450e-01	 2.7152821998e+00
 7.6413129569e-01	 7.5481022750e-01	 2.6050870087e+00
 7.5481022750e-01	 7.6413129569e-01	 2.4875134805e+00
 7.4537582450e-01	 7.7333692324e-01	 2.3650805939e+00
 7.3583024339e-01	 7.8242505680e-01	 2.2411859075e+00
 7.1045678672e-01	 7.5544488243e-01	 3.3189154573e+00
 7.0113514907e-01	 7.6410425920e-01	 3.1732789260e+00
 6.9171047270e-01	 7.7264638622e-01	 3.0165599114e+00
 6.8218497761e-01	 7.8106944154e-01	 2.8502508671e+00
 6.7256092629e-01	 7.8937165937e-01	 2.6755516236e+00
 6.6284062190e-01	 7.9755133135e-01	 2.4933707404e+00
 7.1553147806e-01	 7.6084091730e-01	 3.0842771025e+00
 7.0614325728e-01	 7.6956214676e-01	 2.9434221409e+00
 6.9665126179e-01	 7.7816528898e-01	 2.7910119575e+00
 6.8705772745e-01	 7.8664850898e-01	 2.6288905128e+00
 6.7736493290e-01	 7.9501002837e-01	 2.4585968009e+00
 6.6757519777e-01	 8.0324812658e-01	 2.2813655769e+00
 7.2060616939e-01	 7.6623695218e-01	 2.8594550971e+00
 7.1115136549e-01	 7.7502003433e-01	 2.7227982215e+00
 7.0159205089e-01	 7.8368419174e-01	 2.5744889204e+00
 6.9193047730e-01	 7.9222757642e-01	 2.4165689032e+00
 6.8216893952e-01	 8.0064839736e-01	 2.2507624967e+00
 6.7230977365e-01	 8.0894492180e-01	 2.0784770918e+00
 7.2568086072e-01	 7.7163298705e-01	 2.6441846713e+00
 7.1615947370e-01	 7.8047792189e-01	 2.5111596806e+00
 7.0653283998e-01	 7.8920309450e-01	 2.3667580009e+00
 6.9680322714e-01	 7.9780664386e-01	 2.2130685544e+00
 6.8697294614e-01	 8.0628676636e-01	 2.0518503847e+00
 6.7704434952e-01	 8.1464171702e-01	 1.8845331642e+00
 7.3075555206e-01	 7.7702902193e-01	 2.4381902778e+00
 7.2116758190e-01	 7.8593580946e-01	 2.3082478045e+00
 7.1147362907e-01	 7.9472199725e-01	 2.1675748210e+00
 7.0167597698e-01	 8.0338571130e-01	 2.0181600569e+00
 6.9177695275e-01	 8.1192513535e-01	 1.8616497827e+00
 6.8177892539e-01	 8.2033851225e-01	 1.6993487146e+00
 7.3583024339e-01	 7.8242505680e-01	 2.2411859075e+00
 7.2617569011e-01	 7.9139369702e-01	 2.1137929861e+00
 7.1641441816e-01	 8.0024090001e-01	 1.9766837697e+00
 7.0654872682e-01	 8.0896477873e-01	 1.8316024345e+00
 6.9658095937e-01	 8.1756350435e-01	 1.6799380274e+00
 6.8651350126e-01	 8.2603530747e-01	 1.5227260995e+00
 6.6284062190e-01	 7.9755133135e-01	 2.4933707404e+00
 6.5302640653e-01	 8.0560680767e-01	 2.3036163451e+00
 6.4312065923e-01	 8.1353649817e-01	 2.1060987534e+00
 6.3312579423e-01	 8.2133887335e-01	 1.9011714424e+00
 6.2304425891e-01	 8.2901246530e-01	 1.6889370931e+00
 6.1287853192e-01	 8.3655586860e-01	 1.4692538120e+00
 6.6757519777e-01	 8.0324812658e-01	 2.2813655769e+00
 6.5769088086e-01	 8.1136114201e-01	 2.0974962029e+00
 6.4771437823e-01	 8.1934747316e-01	 1.9068380291e+00
 6.3764812133e-01	 8.2720557959e-01	 1.7095274203e+00
 6.2749457505e-01	 8.3493398291e-01	 1.5054438941e+00
 6.1725623572e-01	 8.4253126767e-01	 1.2942170093e+00
 6.7230977365e-01	 8.0894492180e-01	 2.0784770918e+00
 6.6235535519e-01	 8.1711547635e-01	 1.9003131013e+00
 6.5230809722e-01	 8.2515844814e-01	 1.7162118894e+00
 6.4217044843e-01	 8.3307228582e-01	 1.5261529752e+00
 6.3194489118e-01	 8.4085550052e-01	 1.3298511120e+00
 6.2163393952e-01	 8.4850666673e-01	 1.1267637287e+00
 6.7704434952e-01	 8.1464171702e-01	 1.8845331642e+00
 6.6701982952e-01	 8.2286981069e-01	 1.7119182278e+00
 6.5690181622e-01	 8.3096942313e-01	 1.5340789868e+00
 6.4669277553e-01	 8.3893899206e-01	 1.3508970916e+00
 6.3639520732e-01	 8.4677701813e-01	 1.1619796658e+00
 6.2601164332e-01	 8.5448206579e-01	 9.6666718450e-01
 6.8177892539e-01	 8.2033851225e-01	 1.6993487146e+00
 6.7168430385e-01	 8.2862414503e-01	 1.5321493107e+00
 6.6149553521e-01	 8.3678039812e-01	 1.3602844762e+00
 6.5121510263e-01	 8.4480569830e-01	 1.1835957163e+00
 6.4084552345e-01	 8.5269853574e-01	 1.0016384281e+00
 6.3038934712e-01	 8.6045746485e-01	 8.1369010285e-01
 6.8651350126e-01	 8.2603530747e-01	 1.5227260995e+00
 6.7634877819e-01	 8.3437847937e-01	 1.3608310315e+00
 6.6608925420e-01	 8.4259137311e-01	 1.1946604284e+00
 6.5573742974e-01	 8.5067240454e-01	 1.0240721539e+00
 6.4529583959e-01	 8.5862005335e-01	 8.4862458498e-01
 6.3476705092e-01	 8.6643286391e-01	 6.6758502586e-01
 6.1287853192e-01	 8.3655586860e-01	 1.4692538120e+00
 6.0263112116e-01	 8.4396774109e-01	 1.2437283654e+00
 5.9230456176e-01	 8.5124680458e-01	 1.0138535596e+00
 5.8190141411e-01	 8.5839184551e-01	 7.7898598500e-01
 5.7142426176e-01	 8.6540171554e-01	 5.3828789550e-01
 5.6087570941e-01	 8.7227533198e-01	 2.9073717369e-01
 6.1725623572e-01	 8.4253126767e-01	 1.2942170093e+00
 6.0693562916e-01	 8.4999608210e-01	 1.0773596175e+00
 5.9653530863e-01	 8.5732713890e-01	 8.5645384636e-01
 5.8605785278e-01	 8.6452321584e-01	 6.3088846862e-01
 5.7550586363e-01	 8.7158315636e-01	 3.9984407674e-01
 5.6488196448e-01	 8.7850587006e-01	 1.6230326798e-01
 6.2163393952e-01	 8.4850666673e-01	 1.1267637287e+00
 6.1124013717e-01	 8.5602442311e-01	 9.1830909762e-01
 6.0076605550e-01	 8.6340747322e-01	 7.0609660617e-01
 5.9021429145e-01	 8.7065458616e-01	 4.8951226116e-01
 5.7958746550e-01	 8.7776459719e-01	 2.6772313420e-01
 5.6888821955e-01	 8.8473640815e-01	 3.9687813270e-02
 6.2601164332e-01	 8.5448206579e-01	 9.6666718450e-01
 6.1554464518e-01	 8.6205276411e-01	 7.6631041830e-01
 6.0499680237e-01	 8.6948780753e-01	 5.6251294605e-01
 5.9437073012e-01	 8.7678595649e-01	 3.5462368333e-01
 5.8366906737e-01	 8.8394603801e-01	 1.4176489708e-01
 5.7289447462e-01	 8.9096694623e-01	-7.7157030275e-02
 6.3038934712e-01	 8.6045746485e-01	 8.1369010285e-01
 6.1984915319e-01	 8.6808110512e-01	 6.2108805694e-01
 6.0922754924e-01	 8.7556814185e-01	 4.2542518072e-01
 5.9852716880e-01	 8.8291732681e-01	 2.2597957839e-01
 5.8775066924e-01	 8.9012747884e-01	 2.1797987487e-02
 5.7690072968e-01	 8.9719748432e-01	-1.8829309868e-01
 6.3476705092e-01	 8.6643286391e-01	 6.6758502586e-01
 6.2415366120e-01	 8.7410944613e-01	 4.8235761150e-01
 6.1345829611e-01	 8.8164847617e-01	 2.9454707405e-01
 6.0268360747e-01	 8.8904869714e-01	 1.0332757431e-01
 5.9183227111e-01	 8.9630891967e-01	-9.2359860861e-02
 5.8090698475e-01	 9.0342802240e-01	-2.9379581266e-01
 5.6087570941e-01	 8.7227533198e-01	 2.9073717369e-01
 5.5025838083e-01	 8.7901167826e-01	 3.8731185092e-02
 5.3957491679e-01	 8.8560980424e-01	-2.1499135931e-01
 5.2882797297e-01	 8.9206882649e-01	-4.7117638982e-01
 5.1802021796e-01	 8.9838792844e-01	-7.3070008670e-01
 5.0715433109e-01	 9.0456636055e-01	-9.9455821484e-01
 5.6488196448e-01	 8.7850587006e-01	 1.6230326798e-01
 5.5418879784e-01	 8.8529033310e-01	-7.9193026772e-02
 5.4342902333e-01	 8.9193558855e-01	-3.2186209601e-01
 5.3260531564e-01	 8.9844074667e-01	-5.6660171938e-01
 5.2172036237e-01	 9.0480498508e-01	-8.1443577594e-01
 5.1077686203e-01	 9.1102754884e-01	-1.0665031487e+00
 5.6888821955e-01	 8.8473640815e-01	 3.9687813270e-02
 5.5811921484e-01	 8.9156898795e-01	-1.9185556531e-01
 5.4728312988e-01	 8.9826137287e-01	-4.2399738351e-01
 5.3638265830e-01	 9.0481266686e-01	-6.5777297499e-01
 5.2542050679e-01	 9.1122204171e-01	-8.9434394704e-01
 5.1439939297e-01	 9.1748873713e-01	-1.1349866272e+00
 5.7289447462e-01	 8.9096694623e-01	-7.7157030275e-02
 5.6204963185e-01	 8.9784764279e-01	-2.9919679378e-01
 5.5113723643e-01	 9.0458715719e-01	-5.2127918669e-01
 5.4016000097e-01	 9.1118458705e-01	-7.4456308588e-01
 5.2912065120e-01	 9.1763909834e-01	-9.7033808193e-01
 5.1802192390e-01	 9.2394992542e-01	-1.2000124406e+00
 5.7690072968e-01	 8.9719748432e-01	-1.8829309868e-01
 5.6598004886e-01	 9.0412629763e-01	-4.0117370739e-01
 5.5499134298e-01	 9.1091294150e-01	-6.1360735673e-01
 5.4393734363e-01	 9.1755650724e-01	-8.2686273296e-01
 5.3282079561e-01	 9.2405615497e-01	-1.0423478849e+00
 5.2164445484e-01	 9.3041111371e-01	-1.2615976733e+00
 5.8090698475e-01	 9.0342802240e-01	-2.9379581266e-01
 5.6991046586e-01	 9.1040495248e-01	-4.9775943444e-01
 5.5884544953e-01	 9.1723872582e-01	-7.0089909275e-01
 5.4771468629e-01	 9.2392842743e-01	-9.0457981917e-01
 5.3652094003e-01	 9.3047321160e-01	-1.1103188099e+00
 5.2526698577e-01	 9.3687230200e-01	-1.3197723359e+00
 5.0715433109e-01	 9.0456636055e-01	-9.9455821484e-01
 4.9623300046e-01	 9.1060344027e-01	-1.2604915780e+00
 4.8525892084e-01	 9.1649855206e-01	-1.5261952528e+00
 4.7423479164e-01	 9.2225114724e-01	-1.7927300186e+00
 4.6316331490e-01	 9.2786074382e-01	-2.0612153587e+00
 4.5204719328e-01	 9.3332692623e-01	-2.3328185753e+00
 5.1077686203e-01	 9.1102754884e-01	-1.0665031487e+00
 4.9977752190e-01	 9.1710775056e-01	-1.3205679499e+00
 4.8872505599e-01	 9.2304497029e-01	-1.5742655122e+00
 4.7762218301e-01	 9.2883865543e-01	-1.8286778002e+00
 4.6647162430e-01	 9.3448832056e-01	-2.0849536732e+00
 4.5527610181e-01	 9.3999354713e-01	-2.3442976606e+00
 5.1439939297e-01	 9.1748873713e-01	-1.1349866272e+00
 5.0332204333e-01	 9.2361206085e-01	-1.3775429677e+00
 4.9219119114e-01	 9.2959138852e-01	-1.6196475032e+00
 4.8100957438e-01	 9.3542616363e-01	-1.8624041979e+00
 4.6977993369e-01	 9.4111589730e-01	-2.1069876989e+00
 4.5850501033e-01	 9.4666016804e-01	-2.3546318420e+00
 5.1802192390e-01	 9.2394992542e-01	-1.2000124406e+00
 5.0686656476e-01	 9.3011637114e-01	-1.4315078748e+00
 4.9565732629e-01	 9.3613780675e-01	-1.6624644797e+00
 4.8439696575e-01	 9.4201367182e-01	-1.8940092379e+00
 4.7308824308e-01	 9.4774347404e-01	-2.1273392645e+00
 4.6173391885e-01	 9.5332678894e-01	-2.3637101111e+00
 5.2164445484e-01	 9.3041111371e-01	-1.2615976733e+00
 5.1041108619e-01	 9.3662068142e-01	-1.4825643436e+00
 4.9912346144e-01	 9.4268422498e-01	-1.7028487836e+00
 4.8778435712e-01	 9.4860118002e-01	-1.9236022121e+00
 4.7639655247e-01	 9.5437105078e-01	-2.1460411547e+00
 4.6496282738e-01	 9.5999340984e-01	-2.3714356092e+00
 5.2526698577e-01	 9.3687230200e-01	-1.3197723359e+00
 5.1395560762e-01	 9.4312499171e-01	-1.5308242108e+00
 5.0258959659e-01	 9.4923064321e-01	-1.7409416301e+00
 4.9117174849e-01	 9.5518868821e-01	-1.9513014625e+00
 4.7970486186e-01	 9.6099862752e-01	-2.1631368401e+00
 4.6819173590e-01	 9.6666003074e-01	-2.3777252516e+00
 4.5204719328e-01	 9.3332692623e-01	-2.3328185753e+00
 4.4088912808e-01	 9.3864934503e-01	-2.6041268617e+00
 4.2969181728e-01	 9.4382771646e-01	-2.8711164459e+00
 4.1845795361e-01	 9.4886182200e-01	-3.1340775150e+00
 4.0719022266e-01	 9.5375150786e-01	-3.3933070035e+00
 3.9589130103e-01	 9.5849668438e-01	-3.6491004065e+00
 4.5527610181e-01	 9.3999354713e-01	-2.3442976606e+00
 4.4403833614e-01	 9.4535398321e-01	-2.6032215227e+00
 4.3276104454e-01	 9.5056934300e-01	-2.8576631831e+00
 4.2144693899e-01	 9.5563940644e-01	-3.1080100498e+00
 4.1009872426e-01	 9.6056401863e-01	-3.3546541823e+00
 3.9871909603e-01	 9.6534308926e-01	-3.5979837875e+00
 4.5850501033e-01	 9.4666016804e-01	-2.3546318420e+00
 4.4718754419e-01	 9.5205862139e-01	-2.6017359425e+00
 4.3583027181e-01	 9.5731096955e-01	-2.8441853605e+00
 4.2443592437e-01	 9.6241699089e-01	-3.0824891087e+00
 4.1300722585e-01	 9.6737652940e-01	-3.3171605267e+00
 4.0154689104e-01	 9.7218949415e-01	-3.5487083681e+00
 4.6173391885e-01	 9.5332678894e-01	-2.3637101111e+00
 4.5033675225e-01	 9.5876325957e-01	-2.5994114347e+00
 4.3889949907e-01	 9.6405259610e-01	-2.8303009837e+00
 4.2742490976e-01	 9.6919457533e-01	-3.0570332372e+00
 4.1591572744e-01	 9.7418904018e-01	-3.2802684241e+00
 4.0437468605e-01	 9.7903589904e-01	-3.5006631132e+00
 4.6496282738e-01	 9.5999340984e-01	-2.3714356092e+00
 4.5348596031e-01	 9.6546789775e-01	-2.5960070551e+00
 4.4196872634e-01	 9.7079422264e-01	-2.8156487036e+00
 4.3041389514e-01	 9.7597215977e-01	-3.0311838538e+00
 4.1882422903e-01	 9.8100155095e-01	-3.2434447046e+00
 4.0720248105e-01	 9.8588230393e-01	-3.4532623580e+00
 4.6819173590e-01	 9.6666003074e-01	-2.3777252516e+00
 4.5663516837e-01	 9.7217253593e-01	-2.5912991063e+00
 4.4503795361e-01	 9.7753584919e-01	-2.7998872241e+00
 4.3340288052e-01	 9.8274974421e-01	-3.0045045855e+00
 4.2173273062e-01	 9.8781406172e-01	-3.2061799256e+00
 4.1003027606e-01	 9.9272870882e-01	-3.4059450640e+00
 3.9589130103e-01	 9.5849668438e-01	-3.6491004065e+00
 3.8456385442e-01	 9.6309732533e-01	-3.9059632576e+00
 3.7321053593e-01	 9.6755346728e-01	-4.1681105235e+00
 3.6183398426e-01	 9.7186520877e-01	-4.4313295165e+00
 3.5043682196e-01	 9.7603270950e-01	-4.6848174905e+00
 3.3902165381e-01	 9.8005618943e-01	-4.9262304867e+00
 3.9871909603e-01	 9.6534308926e-01	-3.5979837875e+00
 3.8731073909e-01	 9.6997659194e-01	-3.8421319115e+00
 3.7587632548e-01	 9.7446456348e-01	-4.0908633442e+00
 3.6441851271e-01	 9.7880710312e-01	-4.3420052863e+00
 3.5293994211e-01	 9.8300437171e-01	-4.5839278133e+00
 3.4144323705e-01	 9.8705659078e-01	-4.8130271874e+00
 4.0154689104e-01	 9.7218949415e-01	-3.5487083681e+00
 3.9005762377e-01	 9.7685585855e-01	-3.7808801919e+00
 3.7854211502e-01	 9.8137565967e-01	-4.0169327444e+00
 3.6700304117e-01	 9.8574899747e-01	-4.2559427535e+00
 3.5544306227e-01	 9.8997603392e-01	-4.4869334122e+00
 3.4386482029e-01	 9.9405699213e-01	-4.7043029958e+00
 4.0437468605e-01	 9.7903589904e-01	-3.5006631132e+00
 3.9280450844e-01	 9.8373512516e-01	-3.7215735277e+00
 3.8120790456e-01	 9.8828675587e-01	-3.9456985912e+00
 3.6958756963e-01	 9.9269089182e-01	-4.1725901331e+00
 3.5794618243e-01	 9.9694769613e-01	-4.3933507379e+00
 3.4628640354e-01	 1.0010573935e+00	-4.5996859687e+00
 4.0720248105e-01	 9.8588230393e-01	-3.4532623580e+00
 3.9555139312e-01	 9.9061439177e-01	-3.6636028058e+00
 3.8387369410e-01	 9.9519785206e-01	-3.8765652336e+00
 3.7217209809e-01	 9.9963278617e-01	-4.0915977540e+00
 3.6044930258e-01	 1.0039193583e+00	-4.3027241258e+00
 3.4870798678e-01	 1.0080577948e+00	-4.4988260082e+00
 4.1003027606e-01	 9.9272870882e-01	-3.4059450640e+00
 3.9829827779e-01	 9.9749365838e-01	-3.6063836268e+00
 3.8653948365e-01	 1.0021089483e+00	-3.8089607953e+00
 3.7475662655e-01	 1.0065746805e+00	-4.0129550342e+00
 3.6295242274e-01	 1.0108910205e+00	-4.2146258753e+00
 3.5112957002e-01	 1.0150581962e+00	-4.4013950496e+00
 3.3902165381e-01	 9.8005618943e-01	-4.9262304867e+00
 3.2759106518e-01	 9.8393592789e-01	-5.1595534296e+00
 3.1614762042e-01	 9.8767226259e-01	-5.3899542326e+00
 3.0469386133e-01	 9.9126558856e-01	-5.6169932057e+00
 2.9323230571e-01	 9.9471635710e-01	-5.8400642129e+00
 2.8176544588e-01	 9.9802507468e-01	-6.0583959504e+00
 3.4144323705e-01	 9.8705659078e-01	-4.8130271874e+00
 3.2993100136e-01	 9.9096404166e-01	-5.0339001862e+00
 3.1840581770e-01	 9.9472706447e-01	-5.2524023422e+00
 3.0687024605e-01	 9.9834605705e-01	-5.4680940963e+00
 2.9532682218e-01	 1.0018214739e+00	-5.6803590646e+00
 2.8377805620e-01	 1.0051538252e+00	-5.8884054111e+00
 3.4386482029e-01	 9.9405699213e-01	-4.7043029958e+00
 3.3227093754e-01	 9.9799215544e-01	-4.9132735714e+00
 3.2066401499e-01	 1.0017818663e+00	-5.1204137547e+00
 3.0904663078e-01	 1.0054265255e+00	-5.3252709837e+00
 2.9742133865e-01	 1.0089265908e+00	-5.5271994774e+00
 2.8579066653e-01	 1.0122825758e+00	-5.7253618615e+00
 3.4628640354e-01	 1.0010573935e+00	-4.5996859687e+00
 3.3461087372e-01	 1.0050202692e+00	-4.7974006145e+00
 3.2292221228e-01	 1.0088366682e+00	-4.9937457310e+00
 3.1122301550e-01	 1.0125069940e+00	-5.1882432575e+00
 2.9951585512e-01	 1.0160317076e+00	-5.3801995505e+00
 2.8780327686e-01	 1.0194113263e+00	-5.5687074232e+00
 3.4870798678e-01	 1.0080577948e+00	-4.4988260082e+00
 3.3695080990e-01	 1.0120483830e+00	-4.6860246845e+00
 3.2518040957e-01	 1.0158914701e+00	-4.8721684670e+00
 3.1339940023e-01	 1.0195874625e+00	-5.0567419253e+00
 3.0161037159e-01	 1.0231368244e+00	-5.2389857585e+00
 2.8981588719e-01	 1.0265400768e+00	-5.4178994064e+00
 3.5112957002e-01	 1.0150581962e+00	-4.4013950496e+00
 3.3929074608e-01	 1.0190764967e+00	-4.5789057737e+00
 3.2743860686e-01	 1.0229462720e+00	-4.7554654039e+00
 3.1557578495e-01	 1.0266679310e+00	-4.9305098825e+00
 3.0370488806e-01	 1.0302419413e+00	-5.1031971131e+00
 2.9182849751e-01	 1.0336688274e+00	-5.2724102983e+00
 2.8176544588e-01	 9.9802507468e-01	-6.0583959504e+00
 2.7029574730e-01	 1.0011923018e+00	-6.2704475373e+00
 2.5882564727e-01	 1.0042186517e+00	-6.4751826417e+00
 2.4735755363e-01	 1.0071047894e+00	-6.6723333146e+00
 2.3589384351e-01	 1.0098514301e+00	-6.8614628517e+00
 2.2443686219e-01	 1.0124593380e+00	-7.0419754803e+00
 2.8377805620e-01	 1.0051538252e+00	-5.8884054111e+00
 2.7222643121e-01	 1.0083436754e+00	-6.0905511080e+00
 2.6067440190e-01	 1.0113916421e+00	-6.2856517189e+00
 2.4912439330e-01	 1.0142983950e+00	-6.4734492523e+00
 2.3757879953e-01	 1.0170646546e+00	-6.6535020779e+00
 2.2603998263e-01	 1.0196911904e+00	-6.8251952113e+00
 2.8579066653e-01	 1.0122825758e+00	-5.7253618615e+00
 2.7415711512e-01	 1.0154950490e+00	-5.9179076684e+00
 2.6252315652e-01	 1.0185646325e+00	-6.1036028013e+00
 2.5089123297e-01	 1.0214920007e+00	-6.2822393901e+00
 2.3926375556e-01	 1.0242778791e+00	-6.4534120890e+00
 2.2764310308e-01	 1.0269230428e+00	-6.6165288525e+00
 2.8780327686e-01	 1.0194113263e+00	-5.5687074232e+00
 2.7608779903e-01	 1.0226464226e+00	-5.7517717650e+00
 2.6437191114e-01	 1.0257376228e+00	-5.9281371456e+00
 2.5265807263e-01	 1.0286856063e+00	-6.0976848977e+00
 2.4094871158e-01	 1.0314911036e+00	-6.2600860454e+00
 2.2924622352e-01	 1.0341548952e+00	-6.4148124670e+00
 2.8981588719e-01	 1.0265400768e+00	-5.4178994064e+00
 2.7801848294e-01	 1.0297977961e+00	-5.5914165860e+00
 2.6622066577e-01	 1.0329106132e+00	-5.7583773573e+00
 2.5442491230e-01	 1.0358792120e+00	-5.9187902847e+00
 2.4263366761e-01	 1.0387043281e+00	-6.0724417526e+00
 2.3084934397e-01	 1.0413867476e+00	-6.2189074121e+00
 2.9182849751e-01	 1.0336688274e+00	-5.2724102983e+00
 2.7994916685e-01	 1.0369491697e+00	-5.4361337583e+00
 2.6806942039e-01	 1.0400836036e+00	-5.5934670274e+00
 2.5619175197e-01	 1.0430728176e+00	-5.7445829070e+00
 2.4431862363e-01	 1.0459175526e+00	-5.8894210652e+00
 2.3245246441e-01	 1.0486186001e+00	-6.0276996672e+00
 2.2443686219e-01	 1.0124593380e+00	-7.0419754803e+00
 2.1298892199e-01	 1.0149293253e+00	-7.2141919017e+00
 2.0155230120e-01	 1.0172622504e+00	-7.3788585395e+00
 1.9012924304e-01	 1.0194590169e+00	-7.5358089695e+00
 1.7872195478e-01	 1.0215205720e+00	-7.6847589007e+00
 1.6733260679e-01	 1.0234479053e+00	-7.8253206072e+00
 2.2603998263e-01	 1.0196911904e+00	-6.8251952113e+00
 2.1451027144e-01	 1.0221788205e+00	-6.9888465905e+00
 2.0299196049e-01	 1.0245284093e+00	-7.1452492588e+00
 1.9148730906e-01	 1.0267408670e+00	-7.2942680610e+00
 1.7999854017e-01	 1.0288171475e+00	-7.4356329543e+00
 1.6852783969e-01	 1.0307582475e+00	-7.5689543633e+00
 2.2764310308e-01	 1.0269230428e+00	-6.6165288525e+00
 2.1603162088e-01	 1.0294283156e+00	-6.7719058874e+00
 2.0443161979e-01	 1.0317945683e+00	-6.9203420946e+00
 1.9284537508e-01	 1.0340227171e+00	-7.0617148556e+00
 1.8127512556e-01	 1.0361137231e+00	-7.1957512108e+00
 1.6972307260e-01	 1.0380685897e+00	-7.3220441514e+00
 2.2924622352e-01	 1.0341548952e+00	-6.4148124670e+00
 2.1755297032e-01	 1.0366778108e+00	-6.5621785954e+00
 2.0587127908e-01	 1.0390607272e+00	-6.7029482118e+00
 1.9420344111e-01	 1.0413045673e+00	-6.8369925634e+00
 1.8255171095e-01	 1.0434102986e+00	-6.9640186226e+00
 1.7091830550e-01	 1.0453789319e+00	-7.0835863306e+00
 2.3084934397e-01	 1.0413867476e+00	-6.2189074121e+00
 2.1907431977e-01	 1.0439273060e+00	-6.3584988292e+00
 2.0731093837e-01	 1.0463268861e+00	-6.4919034761e+00
 1.9556150713e-01	 1.0485864174e+00	-6.6189678478e+00
 1.8382829634e-01	 1.0507068741e+00	-6.7393617042e+00
 1.7211353841e-01	 1.0526892740e+00	-6.8525962810e+00
 2.3245246441e-01	 1.0486186001e+00	-6.0276996672e+00
 2.2059566921e-01	 1.0511768012e+00	-6.1597252961e+00
 2.0875059767e-01	 1.0535930450e+00	-6.2860677132e+00
 1.9691957315e-01	 1.0558682675e+00	-6.4065300897e+00
 1.8510488173e-01	 1.0580034496e+00	-6.5207278279e+00
 1.7330877132e-01	 1.0599996162e+00	-6.6281077574e+00
 1.6733260679e-01	 1.0234479053e+00	-7.8253206072e+00
 1.5596333173e-01	 1.0252420472e+00	-7.9571187869e+00
 1.4461622378e-01	 1.0269040676e+00	-8.0799871280e+00
 1.3329333788e-01	 1.0284350744e+00	-8.1937404706e+00
 1.2199668909e-01	 1.0298362122e+00	-8.2981497204e+00
 1.1072825197e-01	 1.0311086608e+00	-8.3929577205e+00
 1.6852783969e-01	 1.0307582475e+00	-7.5689543633e+00
 1.5707735553e-01	 1.0325652047e+00	-7.6939048083e+00
 1.4564919681e-01	 1.0342390966e+00	-7.8103838062e+00
 1.3424543315e-01	 1.0357810392e+00	-7.9182155806e+00
 1.2286809401e-01	 1.0371921852e+00	-8.0171753475e+00
 1.1151916805e-01	 1.0384737227e+00	-8.1070060066e+00
 1.6972307260e-01	 1.0380685897e+00	-7.3220441514e+00
 1.5819137933e-01	 1.0398883622e+00	-7.4403469778e+00
 1.4668216983e-01	 1.0415741257e+00	-7.5506668250e+00
 1.3519752842e-01	 1.0431270040e+00	-7.6528345563e+00
 1.2373949893e-01	 1.0445481581e+00	-7.7466248908e+00
 1.1231008414e-01	 1.0458387845e+00	-7.8317740057e+00
 1.7091830550e-01	 1.0453789319e+00	-7.0835863306e+00
 1.5930540313e-01	 1.0472115196e+00	-7.1955366125e+00
 1.4771514286e-01	 1.0489091547e+00	-7.2999998101e+00
 1.3614962369e-01	 1.0504729689e+00	-7.3968104947e+00
 1.2461090386e-01	 1.0519041311e+00	-7.4857379078e+00
 1.1310100022e-01	 1.0532038464e+00	-7.5665045650e+00
 1.7211353841e-01	 1.0526892740e+00	-6.8525962810e+00
 1.6041942692e-01	 1.0545346771e+00	-6.9585815758e+00
 1.4874811589e-01	 1.0562441838e+00	-7.0575612443e+00
 1.3710171896e-01	 1.0578189337e+00	-7.1493704425e+00
 1.2548230878e-01	 1.0592601040e+00	-7.2337677736e+00
 1.1389191631e-01	 1.0605689083e+00	-7.3104549857e+00
 1.7330877132e-01	 1.0599996162e+00	-6.6281077574e+00
 1.6153345072e-01	 1.0618578346e+00	-6.7286056926e+00
 1.4978108891e-01	 1.0635792128e+00	-6.8225439209e+00
 1.3805381423e-01	 1.0651648985e+00	-6.9097548637e+00
 1.2635371370e-01	 1.0666160770e+00	-6.9899811402e+00
 1.1468283240e-01	 1.0679339701e+00	-7.0628964525e+00
 1.1072825197e-01	 1.0311086608e+00	-8.3929577205e+00
 9.9489960004e-02	 1.0322536336e+00	-8.4786876236e+00
 8.8283705119e-02	 1.0332723763e+00	-8.5557669002e+00
 7.7111337203e-02	 1.0341661655e+00	-8.6238067633e+00
 6.5974663722e-02	 1.0349363072e+00	-8.6824614818e+00
 5.4875449362e-02	 1.0355841353e+00	-8.7314426300e+00
 1.1151916805e-01	 1.0384737227e+00	-8.1070060066e+00
 1.0020060258e-01	 1.0396268738e+00	-8.1882645679e+00
 8.8914303012e-02	 1.0406528933e+00	-8.2613937845e+00
 7.7662132469e-02	 1.0415530667e+00	-8.3259704490e+00
 6.6445911321e-02	 1.0423287094e+00	-8.3816099561e+00
 5.5267416857e-02	 1.0429811648e+00	-8.4279815090e+00
 1.1231008414e-01	 1.0458387845e+00	-7.8317740057e+00
 1.0091124515e-01	 1.0470001141e+00	-7.9088420260e+00
 8.9544900906e-02	 1.0480334102e+00	-7.9782604371e+00
 7.8212927735e-02	 1.0489399679e+00	-8.0395698034e+00
 6.6917158919e-02	 1.0497211116e+00	-8.0923450018e+00
 5.5659384353e-02	 1.0503781944e+00	-8.1362114093e+00
 1.1310100022e-01	 1.0532038464e+00	-7.5665045650e+00
 1.0162188772e-01	 1.0543733543e+00	-7.6396576854e+00
 9.0175498800e-02	 1.0554139272e+00	-7.7056054814e+00
 7.8763723000e-02	 1.0563268690e+00	-7.7638500612e+00
 6.7388406517e-02	 1.0571135138e+00	-7.8139237131e+00
 5.6051351848e-02	 1.0577752239e+00	-7.8554061017e+00
 1.1389191631e-01	 1.0605689083e+00	-7.3104549857e+00
 1.0233253029e-01	 1.0617465945e+00	-7.3799646731e+00
 9.0806096693e-02	 1.0627944442e+00	-7.4426838986e+00
 7.9314518266e-02	 1.0637137702e+00	-7.4980736658e+00
 6.7859654115e-02	 1.0645059160e+00	-7.5456211764e+00
 5.6443319344e-02	 1.0651722534e+00	-7.5848580631e+00
 1.1468283240e-01	 1.0679339701e+00	-7.0628964525e+00
 1.0304317286e-01	 1.0691198348e+00	-7.1290309460e+00
 9.1436694587e-02	 1.0701749612e+00	-7.1887663850e+00
 7.9865313532e-02	 1.0711006714e+00	-7.2415195987e+00
 6.8330901713e-02	 1.0718983182e+00	-7.2867297759e+00
 5.6835286839e-02	 1.0725692830e+00	-7.3238777655e+00
 5.4875449362e-02	 1.0355841353e+00	-8.7314426300e+00
 4.3815415727e-02	 1.0361110102e+00	-8.7714819406e+00
 3.2796241090e-02	 1.0365183176e+00	-8.8030391494e+00
 2.1819560192e-02	 1.0368074667e+00	-8.8255588323e+00
 1.0886964079e-02	 1.0369798890e+00	-8.8386141066e+00
 0.0000000000e+00	 1.0370370370e+00	-8.8419166129e+00
 5.5267416857e-02	 1.0429811648e+00	-8.4279815090e+00
 4.4128382982e-02	 1.0435118032e+00	-8.4658874843e+00
 3.3030499955e-02	 1.0439220199e+00	-8.4958513868e+00
 2.1975414193e-02	 1.0442132343e+00	-8.5172653302e+00
 1.0964728108e-02	 1.0443868882e+00	-8.5296535963e+00
 0.0000000000e+00	 1.0444444444e+00	-8.5326833030e+00
 5.5659384353e-02	 1.0503781944e+00	-8.1362114093e+00
 4.4441350237e-02	 1.0509125961e+00	-8.1720646574e+00
 3.3264758820e-02	 1.0513257222e+00	-8.2005153321e+00
 2.2131268194e-02	 1.0516190019e+00	-8.2209022772e+00
 1.1042492137e-02	 1.0517938874e+00	-8.2326994204e+00
 0.0000000000e+00	 1.0518518519e+00	-8.2355271801e+00
 5.6051351848e-02	 1.0577752239e+00	-7.8554061017e+00
 4.4754317492e-02	 1.0583133890e+00	-7.8893003005e+00
 3.3499017685e-02	 1.0587294244e+00	-7.9163188924e+00
 2.2287122196e-02	 1.0590247695e+00	-7.9357462577e+00
 1.1120256166e-02	 1.0592008866e+00	-7.9470040825e+00
 0.0000000000e+00	 1.0592592593e+00	-7.9496635545e+00
 5.6443319344e-02	 1.0651722534e+00	-7.5848580631e+00
 4.5067284747e-02	 1.0657141820e+00	-7.6169008276e+00
 3.3733276550e-02	 1.0661331267e+00	-7.6425707879e+00
 2.2442976197e-02	 1.0664305372e+00	-7.6610962804e+00
 1.1198020195e-02	 1.0666078858e+00	-7.6718444892e+00
 0.0000000000e+00	 1.0666666667e+00	-7.6743344838e+00
 5.6835286839e-02	 1.0725692830e+00	-7.3238777655e+00
 4.5380252003e-02	 1.0731149749e+00	-7.3541914940e+00
 3.3967535415e-02	 1.0735368290e+00	-7.3785997888e+00
 2.2598830198e-02	 1.0738363048e+00	-7.3962729728e+00
 1.1275784225e-02	 1.0740148850e+00	-7.4065210923e+00
 0.0000000000e+00	 1.0740740741e+00	-7.4088078517e+00
 1.0740740741e+00	 0.0000000000e+00	 1.7746212619e+00
 1.0740148850e+00	 1.1275784225e-02	 1.7754261705e+00
 1.0738363048e+00	 2.2598830198e-02	 1.7796367298e+00
 1.0735368290e+00	 3.3967535415e-02	 1.7867416929e+00
 1.0731149749e+00	 4.5380252003e-02	 1.7964167682e+00
 1.0725692830e+00	 5.6835286839e-02	 1.8085139709e+00
 1.0814814815e+00	 0.0000000000e+00	 1.9049432374e+00
 1.0814218842e+00	 1.1353548254e-02	 1.9055687753e+00
 1.0812420724e+00	 2.2754684200e-02	 1.9093015923e+00
 1.0809405312e+00	 3.4201794280e-02	 1.9155970980e+00
 1.0805157678e+00	 4.5693219258e-02	 1.9241062829e+00
 1.0799663125e+00	 5.7227254335e-02	 1.9346644781e+00
 1.0888888889e+00	 0.0000000000e+00	 2.0293998848e+00
 1.0888288835e+00	 1.1431312283e-02	 2.0298592473e+00
 1.0886478400e+00	 2.2910538201e-02	 2.0331632062e+00
 1.0883442335e+00	 3.4436053145e-02	 2.0387367496e+00
 1.0879165607e+00	 4.6006186513e-02	 2.0462094031e+00
 1.0873633420e+00	 5.7619221830e-02	 2.0554033669e+00
 1.0962962963e+00	 0.0000000000e+00	 2.1476817380e+00
 1.0962358827e+00	 1.1509076312e-02	 2.1479848414e+00
 1.0960536076e+00	 2.3066392202e-02	 2.1509018427e+00
 1.0957479358e+00	 3.4670312010e-02	 2.1558305686e+00
 1.0953173537e+00	 4.6319153768e-02	 2.1623826836e+00
 1.0947603716e+00	 5.8011189326e-02	 2.1703711754e+00
 1.1037037037e+00	 0.0000000000e+00	 2.2594885443e+00
 1.1036428819e+00	 1.1586840341e-02	 2.2596423267e+00
 1.1034593753e+00	 2.3222246204e-02	 2.2622075752e+00
 1.1031516380e+00	 3.4904570875e-02	 2.2665585560e+00
 1.1027181466e+00	 4.6632121023e-02	 2.2722930318e+00
 1.1021574011e+00	 5.8403156821e-02	 2.2792190634e+00
 1.1111111111e+00	 0.0000000000e+00	 2.3645289580e+00
 1.1110498811e+00	 1.1664604370e-02	 2.3645376709e+00
 1.1108651429e+00	 2.3378100205e-02	 2.3667799547e+00
 1.1105553403e+00	 3.5138829740e-02	 2.3706104596e+00
 1.1101189395e+00	 4.6945088279e-02	 2.3756173638e+00
 1.1095544307e+00	 5.8795124316e-02	 2.3816084590e+00
 1.0725692830e+00	 5.6835286839e-02	 1.8085139709e+00
 1.0718983182e+00	 6.8330901713e-02	 1.8233637720e+00
 1.0711006714e+00	 7.9865313532e-02	 1.8411274038e+00
 1.0701749612e+00	 9.1436694587e-02	 1.8616225724e+00
 1.0691198348e+00	 1.0304317286e-01	 1.8847798012e+00
 1.0679339701e+00	 1.1468283240e-01	 1.9106245962e+00
 1.0799663125e+00	 5.7227254335e-02	 1.9346644781e+00
 1.0792907204e+00	 6.8802149311e-02	 1.9476165020e+00
 1.0784875726e+00	 8.0416108798e-02	 1.9631361085e+00
 1.0775554781e+00	 9.2067292481e-02	 1.9810314412e+00
 1.0764930750e+00	 1.0375381543e-01	 2.0012284070e+00
 1.0752990320e+00	 1.1547374848e-01	 2.0237519195e+00
 1.0873633420e+00	 5.7619221830e-02	 2.0554033669e+00
 1.0866831225e+00	 6.9273396909e-02	 2.0666819577e+00
 1.0858744738e+00	 8.0966904063e-02	 2.0802314132e+00
 1.0849359951e+00	 9.2697890375e-02	 2.0958477926e+00
 1.0838663153e+00	 1.0446445800e-01	 2.1134498398e+00
 1.0826640939e+00	 1.1626466457e-01	 2.1330592705e+00
 1.0947603716e+00	 5.8011189326e-02	 2.1703711754e+00
 1.0940755247e+00	 6.9744644507e-02	 2.1801817422e+00
 1.0932613750e+00	 8.1517699329e-02	 2.1920128962e+00
 1.0923165121e+00	 9.3328488268e-02	 2.2056466159e+00
 1.0912395555e+00	 1.0517510058e-01	 2.2209924715e+00
 1.0900291557e+00	 1.1705558065e-01	 2.2380669204e+00
 1.1021574011e+00	 5.8403156821e-02	 2.2792190634e+00
 1.1014679269e+00	 7.0215892105e-02	 2.2877483677e+00
 1.1006482761e+00	 8.2068494595e-02	 2.2980913680e+00
 1.0996970290e+00	 9.3959086162e-02	 2.3100144924e+00
 1.0986127957e+00	 1.0588574315e-01	 2.3234166627e+00
 1.0973942176e+00	 1.1784649674e-01	 2.3383075607e+00
 1.1095544307e+00	 5.8795124316e-02	 2.3816084590e+00
 1.1088603291e+00	 7.0687139703e-02	 2.3890248901e+00
 1.1080351773e+00	 8.2619289860e-02	 2.3980884946e+00
 1.1070775460e+00	 9.4589684056e-02	 2.4085492055e+00
 1.1059860360e+00	 1.0659638572e-01	 2.4202943577e+00
 1.1047592794e+00	 1.1863741282e-01	 2.4333258856e+00
 1.0679339701e+00	 1.1468283240e-01	 1.9106245962e+00
 1.0666160770e+00	 1.2635371370e-01	 1.9392637021e+00
 1.0651648985e+00	 1.3805381423e-01	 1.9706169703e+00
 1.0635792128e+00	 1.4978108891e-01	 2.0045096071e+00
 1.0618578346e+00	 1.6153345072e-01	 2.0407765946e+00
 1.0599996162e+00	 1.7330877132e-01	 2.0792409009e+00
 1.0752990320e+00	 1.1547374848e-01	 2.0237519195e+00
 1.0739720499e+00	 1.2722511862e-01	 2.0487250559e+00
 1.0725108633e+00	 1.3900590950e-01	 2.0761005457e+00
 1.0709142419e+00	 1.5081406194e-01	 2.1057306813e+00
 1.0691809921e+00	 1.6264747452e-01	 2.1374771731e+00
 1.0673099584e+00	 1.7450400422e-01	 2.1711881867e+00
 1.0826640939e+00	 1.1626466457e-01	 2.1330592705e+00
 1.0813280229e+00	 1.2809652354e-01	 2.1548086986e+00
 1.0798568281e+00	 1.3995800477e-01	 2.1786638351e+00
 1.0782492710e+00	 1.5184703497e-01	 2.2044818913e+00
 1.0765041496e+00	 1.6376149832e-01	 2.2321293552e+00
 1.0746203006e+00	 1.7569923713e-01	 2.2614578662e+00
 1.0900291557e+00	 1.1705558065e-01	 2.2380669204e+00
 1.0886839958e+00	 1.2896792847e-01	 2.2570103869e+00
 1.0872027929e+00	 1.4091010004e-01	 2.2777870294e+00
 1.0855843000e+00	 1.5288000799e-01	 2.3002377985e+00
 1.0838273070e+00	 1.6487552212e-01	 2.3242129920e+00
 1.0819306428e+00	 1.7689447003e-01	 2.3495469777e+00
 1.0973942176e+00	 1.1784649674e-01	 2.3383075607e+00
 1.0960399687e+00	 1.2983933339e-01	 2.3548386450e+00
 1.0945487578e+00	 1.4186219531e-01	 2.3729632201e+00
 1.0929193291e+00	 1.5391298102e-01	 2.3924857710e+00
 1.0911504645e+00	 1.6598954591e-01	 2.4132204098e+00
 1.0892409849e+00	 1.7808970294e-01	 2.4349644519e+00
 1.1047592794e+00	 1.1863741282e-01	 2.4333258856e+00
 1.1033959417e+00	 1.3071073831e-01	 2.4478143368e+00
 1.1018947226e+00	 1.4281429058e-01	 2.4636979696e+00
 1.1002543581e+00	 1.5494595405e-01	 2.4807255624e+00
 1.0984736220e+00	 1.6710356971e-01	 2.4986560056e+00
 1.0965513271e+00	 1.7928493584e-01	 2.5172307366e+00
 1.0599996162e+00	 1.7330877132e-01	 2.0792409009e+00
 1.0580034496e+00	 1.8510488173e-01	 2.1193017069e+00
 1.0558682675e+00	 1.9691957315e-01	 2.1610379845e+00
 1.0535930450e+00	 2.0875059767e-01	 2.2052117729e+00
 1.0511768012e+00	 2.2059566921e-01	 2.2524882004e+00
 1.0486186001e+00	 2.3245246441e-01	 2.3034121466e+00
 1.0673099584e+00	 1.7450400422e-01	 2.1711881867e+00
 1.0653000251e+00	 1.8638146713e-01	 2.2062308856e+00
 1.0631501176e+00	 1.9827763917e-01	 2.2426897872e+00
 1.0608592040e+00	 2.1019025696e-01	 2.2814029037e+00
 1.0584262964e+00	 2.2211701865e-01	 2.3231053431e+00
 1.0558504525e+00	 2.3405558486e-01	 2.3684046813e+00
 1.0746203006e+00	 1.7569923713e-01	 2.2614578662e+00
 1.0725966006e+00	 1.8765805252e-01	 2.2917757126e+00
 1.0704319677e+00	 1.9963570519e-01	 2.3231456081e+00
 1.0681253629e+00	 2.1162991626e-01	 2.3564588812e+00
 1.0656757915e+00	 2.2363836809e-01	 2.3924974612e+00
 1.0630823049e+00	 2.3565870530e-01	 2.4319079598e+00
 1.0819306428e+00	 1.7689447003e-01	 2.3495469777e+00
 1.0798931761e+00	 1.8893463791e-01	 2.3754582403e+00
 1.0777138179e+00	 2.0099377121e-01	 2.4019562475e+00
 1.0753915218e+00	 2.1306957555e-01	 2.4299639205e+00
 1.0729252867e+00	 2.2515971754e-01	 2.4602877787e+00
 1.0703141573e+00	 2.3726182574e-01	 2.4935907264e+00
 1.0892409849e+00	 1.7808970294e-01	 2.4349644519e+00
 1.0871897517e+00	 1.9021122330e-01	 2.4568117041e+00
 1.0849956680e+00	 2.0235183724e-01	 2.4786829755e+00
 1.0826576808e+00	 2.1450923485e-01	 2.5015119779e+00
 1.0801747819e+00	 2.2668106698e-01	 2.5261085034e+00
 1.0775460097e+00	 2.3886494619e-01	 2.5531299117e+00
 1.0965513271e+00	 1.7928493584e-01	 2.5172307366e+00
 1.0944863272e+00	 1.9148780869e-01	 2.5353801817e+00
 1.0922775181e+00	 2.0370990326e-01	 2.5528972291e+00
 1.0899238397e+00	 2.1594889414e-01	 2.5707064885e+00
 1.0874242771e+00	 2.2820241642e-01	 2.5896006101e+00
 1.0847778621e+00	 2.4046806663e-01	 2.6102104650e+00
 1.0486186001e+00	 2.3245246441e-01	 2.3034121466e+00
 1.0459175526e+00	 2.4431862363e-01	 2.3563067604e+00
 1.0430728176e+00	 2.5619175197e-01	 2.4094103015e+00
 1.0400836036e+00	 2.6806942039e-01	 2.4628930140e+00
 1.0369491697e+00	 2.7994916685e-01	 2.5167190178e+00
 1.0336688274e+00	 2.9182849751e-01	 2.5706295967e+00
 1.0558504525e+00	 2.3405558486e-01	 2.3684046813e+00
 1.0531307771e+00	 2.4600357966e-01	 2.4156298409e+00
 1.0502664232e+00	 2.5795859164e-01	 2.4629723750e+00
 1.0472565940e+00	 2.6991817501e-01	 2.5105741183e+00
 1.0441005433e+00	 2.8187985076e-01	 2.5583618750e+00
 1.0407975779e+00	 2.9384110784e-01	 2.6060299230e+00
 1.0630823049e+00	 2.3565870530e-01	 2.4319079598e+00
 1.0603440016e+00	 2.4768853568e-01	 2.4730398264e+00
 1.0574600289e+00	 2.5972543131e-01	 2.5141385969e+00
 1.0544295843e+00	 2.7176692964e-01	 2.5554218499e+00
 1.0512519169e+00	 2.8381053466e-01	 2.5968820592e+00
 1.0479263284e+00	 2.9585371817e-01	 2.6382680453e+00
 1.0703141573e+00	 2.3726182574e-01	 2.4935907264e+00
 1.0675572261e+00	 2.4937349171e-01	 2.5282456288e+00
 1.0646536345e+00	 2.6149227098e-01	 2.5626390054e+00
 1.0616025747e+00	 2.7361568426e-01	 2.5971664954e+00
 1.0584032905e+00	 2.8574121857e-01	 2.6319873746e+00
 1.0550550790e+00	 2.9786632850e-01	 2.6670046849e+00
 1.0775460097e+00	 2.3886494619e-01	 2.5531299117e+00
 1.0747704506e+00	 2.5105844773e-01	 2.5809638364e+00
 1.0718472402e+00	 2.6325911065e-01	 2.6082114724e+00
 1.0687755651e+00	 2.7546443888e-01	 2.6355470575e+00
 1.0655546641e+00	 2.8767190248e-01	 2.6633960073e+00
 1.0621838295e+00	 2.9987893882e-01	 2.6919134520e+00
 1.0847778621e+00	 2.4046806663e-01	 2.6102104650e+00
 1.0819836751e+00	 2.5274340376e-01	 2.6309185912e+00
 1.0790408458e+00	 2.6502595032e-01	 2.6506016057e+00
 1.0759485554e+00	 2.7731319351e-01	 2.6703111628e+00
 1.0727060376e+00	 2.8960258639e-01	 2.6908364158e+00
 1.0693125800e+00	 3.0189154915e-01	 2.7126806955e+00
 1.0336688274e+00	 2.9182849751e-01	 2.5706295967e+00
 1.0302419413e+00	 3.0370488806e-01	 2.6239684779e+00
 1.0266679310e+00	 3.1557578495e-01	 2.6775876143e+00
 1.0229462720e+00	 3.2743860686e-01	 2.7331065703e+00
 1.0190764967e+00	 3.3929074608e-01	 2.7918581391e+00
 1.0150581962e+00	 3.5112957002e-01	 2.8548793222e+00
 1.0407975779e+00	 2.9384110784e-01	 2.6060299230e+00
 1.0373470581e+00	 3.0579940453e-01	 2.6525851710e+00
 1.0337483995e+00	 3.1775216967e-01	 2.6987269359e+00
 1.0300010738e+00	 3.2969680415e-01	 2.7462794876e+00
 1.0261046105e+00	 3.4163068226e-01	 2.7967568579e+00
 1.0220585975e+00	 3.5355115326e-01	 2.8513527353e+00
 1.0479263284e+00	 2.9585371817e-01	 2.6382680453e+00
 1.0444521750e+00	 3.0789392100e-01	 2.6782472041e+00
 1.0408288680e+00	 3.1992855440e-01	 2.7172633643e+00
 1.0370558757e+00	 3.3195500144e-01	 2.7572953153e+00
 1.0331327243e+00	 3.4397061844e-01	 2.7999878664e+00
 1.0290589989e+00	 3.5597273650e-01	 2.8466407470e+00
 1.0550550790e+00	 2.9786632850e-01	 2.6670046849e+00
 1.0515572918e+00	 3.0998843746e-01	 2.7005639607e+00
 1.0479093365e+00	 3.2210493912e-01	 2.7327731017e+00
 1.0441106776e+00	 3.3421319873e-01	 2.7657164248e+00
 1.0401608381e+00	 3.4631055462e-01	 2.8011202161e+00
 1.0360594003e+00	 3.5839431974e-01	 2.8403407241e+00
 1.0621838295e+00	 2.9987893882e-01	 2.6919134520e+00
 1.0586624086e+00	 3.1208295393e-01	 2.7191605216e+00
 1.0549898050e+00	 3.2428132384e-01	 2.7448505605e+00
 1.0511654795e+00	 3.3647139601e-01	 2.7711255873e+00
 1.0471889518e+00	 3.4865049080e-01	 2.7997451964e+00
 1.0430598016e+00	 3.6081590298e-01	 2.8320737283e+00
 1.0693125800e+00	 3.0189154915e-01	 2.7126806955e+00
 1.0657675255e+00	 3.1417747040e-01	 2.7336774677e+00
 1.0620702735e+00	 3.2645770857e-01	 2.7531081337e+00
 1.0582202813e+00	 3.3872959330e-01	 2.7731257273e+00
 1.0542170656e+00	 3.5099042698e-01	 2.7954760869e+00
 1.0500602030e+00	 3.6323748623e-01	 2.8214842855e+00
 1.0150581962e+00	 3.5112957002e-01	 2.8548793222e+00
 1.0108910205e+00	 3.6295242274e-01	 2.9128514201e+00
 1.0065746805e+00	 3.7475662655e-01	 2.9578076615e+00
 1.0021089483e+00	 3.8653948365e-01	 3.0044909635e+00
 9.9749365838e-01	 3.9829827779e-01	 3.0555793826e+00
 9.9272870882e-01	 4.1003027606e-01	 3.1095100144e+00
 1.0220585975e+00	 3.5355115326e-01	 2.8513527353e+00
 1.0178626828e+00	 3.6545554290e-01	 2.9001700812e+00
 1.0135165749e+00	 3.7734115501e-01	 2.9368592431e+00
 1.0090200445e+00	 3.8920527319e-01	 2.9766075281e+00
 1.0043729250e+00	 4.0104516247e-01	 3.0199259378e+00
 9.9957511371e-01	 4.1285807107e-01	 3.0653680503e+00
 1.0290589989e+00	 3.5597273650e-01	 2.8466407470e+00
 1.0248343450e+00	 3.6795866305e-01	 2.8867664476e+00
 1.0204584692e+00	 3.7992568347e-01	 2.9166173298e+00
 1.0159311406e+00	 3.9187106273e-01	 2.9498497949e+00
 1.0112521916e+00	 4.0379204714e-01	 2.9857011089e+00
 1.0064215186e+00	 4.1568586608e-01	 3.0228192112e+00
 1.0360594003e+00	 3.5839431974e-01	 2.8403407241e+00
 1.0318060072e+00	 3.7046178321e-01	 2.8722893219e+00
 1.0274003636e+00	 3.8251021193e-01	 2.8967947229e+00
 1.0228422368e+00	 3.9453685227e-01	 2.9239989828e+00
 1.0181314582e+00	 4.0653893181e-01	 2.9527742649e+00
 1.0132679235e+00	 4.1851366108e-01	 2.9818412005e+00
 1.0430598016e+00	 3.6081590298e-01	 2.8320737283e+00
 1.0387776694e+00	 3.7296490337e-01	 2.8569151812e+00
 1.0343422579e+00	 3.8509474039e-01	 2.8771195750e+00
 1.0297533330e+00	 3.9720264181e-01	 2.8988498174e+00
 1.0250107248e+00	 4.0928581649e-01	 2.9210258675e+00
 1.0201143284e+00	 4.2134145609e-01	 2.9424198206e+00
 1.0500602030e+00	 3.6323748623e-01	 2.8214842855e+00
 1.0457493316e+00	 3.7546802352e-01	 2.8407759172e+00
 1.0412841523e+00	 3.8767926885e-01	 2.8573346756e+00
 1.0366644292e+00	 3.9986843136e-01	 2.8742098442e+00
 1.0318899914e+00	 4.1203270116e-01	 2.8903468296e+00
 1.0269607333e+00	 4.2416925110e-01	 2.9045483942e+00
 9.9272870882e-01	 4.1003027606e-01	 3.1095100144e+00
 9.8781406172e-01	 4.2173273062e-01	 3.1636714665e+00
 9.8274974421e-01	 4.3340288052e-01	 3.2155243853e+00
 9.7753584919e-01	 4.4503795361e-01	 3.2634888794e+00
 9.7217253593e-01	 4.5663516837e-01	 3.3059726070e+00
 9.6666003074e-01	 4.6819173590e-01	 3.3413817546e+00
 9.9957511371e-01	 4.1285807107e-01	 3.0653680503e+00
 9.9462657249e-01	 4.2464123221e-01	 3.1110069234e+00
 9.8952732866e-01	 4.3639186590e-01	 3.1548093153e+00
 9.8427747573e-01	 4.4810718087e-01	 3.1950456226e+00
 9.7887717410e-01	 4.5978437643e-01	 3.2299770502e+00
 9.7332665164e-01	 4.7142064442e-01	 3.2578670141e+00
 1.0064215186e+00	 4.1568586608e-01	 3.0228192112e+00
 1.0014390833e+00	 4.2754973380e-01	 3.0599793599e+00
 9.9630491310e-01	 4.3938085129e-01	 3.0957338937e+00
 9.9101910228e-01	 4.5117640814e-01	 3.1282732087e+00
 9.8558181228e-01	 4.6293358448e-01	 3.1557789700e+00
 9.7999327254e-01	 4.7464955295e-01	 3.1764357394e+00
 1.0132679235e+00	 4.1851366108e-01	 2.9818412005e+00
 1.0082515940e+00	 4.3045823539e-01	 3.0106647292e+00
 1.0030824975e+00	 4.4236983667e-01	 3.0384306305e+00
 9.9776072883e-01	 4.5424563541e-01	 3.0633174757e+00
 9.9228645046e-01	 4.6608279254e-01	 3.0834928122e+00
 9.8665989345e-01	 4.7787846147e-01	 3.0971248158e+00
 1.0201143284e+00	 4.2134145609e-01	 2.9424198206e+00
 1.0150641048e+00	 4.3336673698e-01	 2.9631443243e+00
 1.0098600820e+00	 4.4535882205e-01	 2.9830357019e+00
 1.0045023554e+00	 4.5731486267e-01	 3.0003273847e+00
 9.9899108864e-01	 4.6923200060e-01	 3.0132367751e+00
 9.9332651435e-01	 4.8110736999e-01	 3.0199767266e+00
 1.0269607333e+00	 4.2416925110e-01	 2.9045483942e+00
 1.0218766156e+00	 4.3627523857e-01	 2.9175042540e+00
 1.0166376664e+00	 4.4834780744e-01	 2.9296884444e+00
 1.0112439819e+00	 4.6038408994e-01	 2.9394544925e+00
 1.0056957268e+00	 4.7238120866e-01	 2.9451322217e+00
 9.9999313525e-01	 4.8433627852e-01	 2.9450388631e+00
 9.6666003074e-01	 4.6819173590e-01	 3.3413817546e+00
 9.6099862752e-01	 4.7970486186e-01	 3.3741729995e+00
 9.5518868821e-01	 4.9117174849e-01	 3.4080913058e+00
 9.4923064321e-01	 5.0258959659e-01	 3.4404990944e+00
 9.4312499171e-01	 5.1395560762e-01	 3.4687934115e+00
 9.3687230200e-01	 5.2526698577e-01	 3.4904183021e+00
 9.7332665164e-01	 4.7142064442e-01	 3.2578670141e+00
 9.6762620426e-01	 4.8301317126e-01	 3.2830661258e+00
 9.6177619641e-01	 4.9455913986e-01	 3.3093407803e+00
 9.5577706143e-01	 5.0605573174e-01	 3.3341020921e+00
 9.4962930200e-01	 5.1750012906e-01	 3.3547919380e+00
 9.4333349029e-01	 5.2888951671e-01	 3.3688951372e+00
 9.7999327254e-01	 4.7464955295e-01	 3.1764357394e+00
 9.7425378101e-01	 4.8632148065e-01	 3.1944907620e+00
 9.6836370460e-01	 4.9794653123e-01	 3.2136455507e+00
 9.6232347966e-01	 5.0952186689e-01	 3.2312899693e+00
 9.5613361229e-01	 5.2104465049e-01	 3.2448436278e+00
 9.4979467858e-01	 5.3251204765e-01	 3.2517680418e+00
 9.8665989345e-01	 4.7787846147e-01	 3.0971248158e+00
 9.8088135775e-01	 4.8962979004e-01	 3.1084006091e+00
 9.7495121279e-01	 5.0133392259e-01	 3.1209129691e+00
 9.6886989789e-01	 5.1298800203e-01	 3.1319620043e+00
 9.6263792257e-01	 5.2458917192e-01	 3.1388793680e+00
 9.5625586687e-01	 5.3613457858e-01	 3.1390405670e+00
 9.9332651435e-01	 4.8110736999e-01	 3.0199767266e+00
 9.8750893449e-01	 4.9293809943e-01	 3.0247569417e+00
 9.8153872099e-01	 5.0472131396e-01	 3.0310589318e+00
 9.7541631612e-01	 5.1645413718e-01	 3.0360259507e+00
 9.6914223286e-01	 5.2813369335e-01	 3.0368373789e+00
 9.6271705516e-01	 5.3975710952e-01	 3.0307213489e+00
 9.9999313525e-01	 4.8433627852e-01	 2.9450388631e+00
 9.9413651123e-01	 4.9624640883e-01	 2.9435278119e+00
 9.8812622918e-01	 5.0810870533e-01	 2.9440070100e+00
 9.8196273435e-01	 5.1992027233e-01	 2.9433971293e+00
 9.7564654315e-01	 5.3167821478e-01	 2.9386623030e+00
 9.6917824345e-01	 5.4337964046e-01	 2.9268232331e+00
 9.3687230200e-01	 5.2526698577e-01	 3.4904183021e+00
 9.3047321160e-01	 5.3652094003e-01	 3.5079086581e+00
 9.2392842743e-01	 5.4771468629e-01	 3.5237645500e+00
 9.1723872582e-01	 5.5884544953e-01	 3.5355134813e+00
 9.1040495248e-01	 5.6991046586e-01	 3.5408167331e+00
 9.0342802240e-01	 5.8090698475e-01	 3.5374809573e+00
 9.4333349029e-01	 5.2888951671e-01	 3.3688951372e+00
 9.3689026823e-01	 5.4022108444e-01	 3.3792566782e+00
 9.3030034762e-01	 5.5149202896e-01	 3.3885577322e+00
 9.2356451013e-01	 5.6269955608e-01	 3.3941736398e+00
 9.1668360732e-01	 5.7384088287e-01	 3.3936187227e+00
 9.0965856049e-01	 5.8491323982e-01	 3.3845581636e+00
 9.4979467858e-01	 5.3251204765e-01	 3.2517680418e+00
 9.4330732487e-01	 5.4392122886e-01	 3.2552171154e+00
 9.3667226781e-01	 5.5526937162e-01	 3.2581202173e+00
 9.2989029445e-01	 5.6655366263e-01	 3.2577395297e+00
 9.2296226217e-01	 5.7777129987e-01	 3.2514790512e+00
 9.1588909858e-01	 5.8891949488e-01	 3.2368966416e+00
 9.5625586687e-01	 5.3613457858e-01	 3.1390405670e+00
 9.4972438150e-01	 5.4762137327e-01	 3.1358721850e+00
 9.4304418800e-01	 5.5904671429e-01	 3.1325823770e+00
 9.3621607877e-01	 5.7040776917e-01	 3.1263583592e+00
 9.2924091701e-01	 5.8170171688e-01	 3.1145296640e+00
 9.2211963666e-01	 5.9292574995e-01	 3.0945802296e+00
 9.6271705516e-01	 5.3975710952e-01	 3.0307213489e+00
 9.5614143813e-01	 5.5132151768e-01	 3.0213067803e+00
 9.4941610819e-01	 5.6282405695e-01	 3.0120756788e+00
 9.4254186308e-01	 5.7426187572e-01	 3.0001777010e+00
 9.3551957186e-01	 5.8563213389e-01	 2.9829030174e+00
 9.2835017475e-01	 5.9693200502e-01	 2.9576943244e+00
 9.6917824345e-01	 5.4337964046e-01	 2.9268232331e+00
 9.6255849476e-01	 5.5502166210e-01	 2.9116076365e+00
 9.5578802838e-01	 5.6660139962e-01	 2.8967318631e+00
 9.4886764740e-01	 5.7811598227e-01	 2.8793446563e+00
 9.4179822670e-01	 5.8956255089e-01	 2.8567311999e+00
 9.3458071283e-01	 6.0093826009e-01	 2.8263249326e+00
 9.0342802240e-01	 5.8090698475e-01	 3.5374809573e+00
 8.9630891967e-01	 5.9183227111e-01	 3.5286621642e+00
 8.8904869714e-01	 6.0268360747e-01	 3.5174938241e+00
 8.8164847617e-01	 6.1345829611e-01	 3.5020238923e+00
 8.7410944613e-01	 6.2415366120e-01	 3.4805212883e+00
 8.6643286391e-01	 6.3476705092e-01	 3.4514860598e+00
 9.0965856049e-01	 5.8491323982e-01	 3.3845581636e+00
 9.0249036049e-01	 5.9591387298e-01	 3.3702387199e+00
 8.9518006746e-01	 6.0684004614e-01	 3.3539348848e+00
 8.8772881049e-01	 6.1768904298e-01	 3.3336338123e+00
 8.8013778714e-01	 6.2845816921e-01	 3.3075449567e+00
 8.7240826297e-01	 6.3914475472e-01	 3.2741102848e+00
 9.1588909858e-01	 5.8891949488e-01	 3.2368966416e+00
 9.0867180132e-01	 5.9999547485e-01	 3.2173357677e+00
 9.0131143779e-01	 6.1099648481e-01	 3.1961822242e+00
 8.9380914481e-01	 6.2191978985e-01	 3.1713421734e+00
 8.8616612814e-01	 6.3276267721e-01	 3.1409469486e+00
 8.7838366203e-01	 6.4352245852e-01	 3.1033633558e+00
 9.2211963666e-01	 5.9292574995e-01	 3.0945802296e+00
 9.1485324214e-01	 6.0407707672e-01	 3.0699812819e+00
 9.0744280812e-01	 6.1515292349e-01	 3.0442260461e+00
 8.9988947913e-01	 6.2615053672e-01	 3.0151199075e+00
 8.9219446915e-01	 6.3706718522e-01	 2.9806978066e+00
 8.8435906110e-01	 6.4790016232e-01	 2.9392346668e+00
 9.2835017475e-01	 5.9693200502e-01	 2.9576943244e+00
 9.2103468297e-01	 6.0815867859e-01	 2.9282060767e+00
 9.1357417844e-01	 6.1930936216e-01	 2.8980602183e+00
 9.0596981344e-01	 6.3038128359e-01	 2.8649419732e+00
 8.9822281016e-01	 6.4137169323e-01	 2.8267719928e+00
 8.9033446016e-01	 6.5227786612e-01	 2.7817169491e+00
 9.3458071283e-01	 6.0093826009e-01	 2.8263249326e+00
 9.2721612379e-01	 6.1224028046e-01	 2.7920427796e+00
 9.1970554877e-01	 6.2346580083e-01	 2.7576811869e+00
 9.1205014776e-01	 6.3461203046e-01	 2.7207862251e+00
 9.0425115117e-01	 6.4567620124e-01	 2.6791467323e+00
 8.9630985922e-01	 6.5665556992e-01	 2.6308051076e+00
 8.6643286391e-01	 6.3476705092e-01	 3.4514860598e+00
 8.5862005335e-01	 6.4529583959e-01	 3.4157962256e+00
 8.5067240454e-01	 6.5573742974e-01	 3.3746027815e+00
 8.4259137311e-01	 6.6608925420e-01	 3.3272081897e+00
 8.3437847937e-01	 6.7634877819e-01	 3.2732062081e+00
 8.2603530747e-01	 6.8651350126e-01	 3.2124891909e+00
 8.7240826297e-01	 6.3914475472e-01	 3.2741102848e+00
 8.6454157096e-01	 6.4974615572e-01	 3.2343404712e+00
 8.5653911078e-01	 6.6025975684e-01	 3.1895679379e+00
 8.4840234809e-01	 6.7068297320e-01	 3.1391172102e+00
 8.4013281372e-01	 6.8101325252e-01	 3.0826119562e+00
 8.3173210270e-01	 6.9124807713e-01	 3.0199822278e+00
 8.7838366203e-01	 6.4352245852e-01	 3.1033633558e+00
 8.7046308857e-01	 6.5419647186e-01	 3.0597464424e+00
 8.6240581701e-01	 6.6478208394e-01	 3.0116117480e+00
 8.5421332308e-01	 6.7527669219e-01	 2.9582746733e+00
 8.4588714806e-01	 6.8567772685e-01	 2.8993572896e+00
 8.3742889792e-01	 6.9598265300e-01	 2.8347955775e+00
 8.8435906110e-01	 6.4790016232e-01	 2.9392346668e+00
 8.7638460618e-01	 6.5864678799e-01	 2.8920303602e+00
 8.6827252325e-01	 6.6930441104e-01	 2.8407741603e+00
 8.6002429807e-01	 6.7987041119e-01	 2.7847417793e+00
 8.5164148240e-01	 6.9034220118e-01	 2.7235228073e+00
 8.4312569314e-01	 7.0071722887e-01	 2.6570280073e+00
 8.9033446016e-01	 6.5227786612e-01	 2.7817169491e+00
 8.8230612378e-01	 6.6309710413e-01	 2.7312110325e+00
 8.7413922949e-01	 6.7382673814e-01	 2.6770970921e+00
 8.6583527305e-01	 6.8446413018e-01	 2.6185811979e+00
 8.5739581674e-01	 6.9500667552e-01	 2.5551901838e+00
 8.4882248837e-01	 7.0545180474e-01	 2.4867790548e+00
 8.9630985922e-01	 6.5665556992e-01	 2.6308051076e+00
 8.8822764139e-01	 6.6754742026e-01	 2.5773086904e+00
 8.8000593573e-01	 6.7834906524e-01	 2.5206232639e+00
 8.7164624804e-01	 6.8905784918e-01	 2.4598558984e+00
 8.6315015108e-01	 6.9967114985e-01	 2.3944409931e+00
 8.5451928359e-01	 7.1018638061e-01	 2.3241478481e+00
 8.2603530747e-01	 6.8651350126e-01	 3.2124891909e+00
 8.1756350435e-01	 6.9658095937e-01	 3.1449262404e+00
 8.0896477873e-01	 7.0654872682e-01	 3.0705520887e+00
 8.0024090001e-01	 7.1641441816e-01	 2.9899983002e+00
 7.9139369702e-01	 7.2617569011e-01	 2.9042508572e+00
 7.8242505680e-01	 7.3583024339e-01	 2.8146546475e+00
 8.3173210270e-01	 6.9124807713e-01	 3.0199822278e+00
 8.2320187334e-01	 7.0138496599e-01	 2.9512571859e+00
 8.1454384617e-01	 7.1142147666e-01	 2.8763260608e+00
 8.0575980277e-01	 7.2135520725e-01	 2.7954138083e+00
 7.9685158459e-01	 7.3118379832e-01	 2.7091115930e+00
 7.8782109168e-01	 7.4090493472e-01	 2.6183832770e+00
 8.3742889792e-01	 6.9598265300e-01	 2.8347955775e+00
 8.2884024234e-01	 7.0618897260e-01	 2.7647810885e+00
 8.2012291361e-01	 7.1629422650e-01	 2.6891137822e+00
 8.1127870553e-01	 7.2629599634e-01	 2.6076616195e+00
 8.0230947216e-01	 7.3619190653e-01	 2.5206713976e+00
 7.9321712655e-01	 7.4597962606e-01	 2.4296686141e+00
 8.4312569314e-01	 7.0071722887e-01	 2.6570280073e+00
 8.3447861133e-01	 7.1099297922e-01	 2.5856195462e+00
 8.2570198105e-01	 7.2116697634e-01	 2.5090691474e+00
 8.1679760829e-01	 7.3123678543e-01	 2.4269363568e+00
 8.0776735972e-01	 7.4120001473e-01	 2.3391774657e+00
 7.9861316142e-01	 7.5105431739e-01	 2.2491734763e+00
 8.4882248837e-01	 7.0545180474e-01	 2.4867790548e+00
 8.4011698033e-01	 7.1579698583e-01	 2.4138945571e+00
 8.3128104849e-01	 7.2603972618e-01	 2.3363458866e+00
 8.2231651105e-01	 7.3617757452e-01	 2.2534317509e+00
 8.1322524729e-01	 7.4620812294e-01	 2.1653682712e+00
 8.0400919630e-01	 7.5612900873e-01	 2.0765767776e+00
 8.5451928359e-01	 7.1018638061e-01	 2.3241478481e+00
 8.4575534933e-01	 7.2060099245e-01	 2.2497273389e+00
 8.3686011593e-01	 7.3091247602e-01	 2.1710963950e+00
 8.2783541381e-01	 7.4111836361e-01	 2.0873402603e+00
 8.1868313485e-01	 7.5121623115e-01	 1.9993908132e+00
 8.0940523117e-01	 7.6120370006e-01	 1.9115471061e+00
 7.8242505680e-01	 7.3583024339e-01	 2.8146546475e+00
 7.7333692324e-01	 7.4537582450e-01	 2.7152821998e+00
 7.6413129569e-01	 7.5481022750e-01	 2.6050870087e+00
 7.5481022750e-01	 7.6413129569e-01	 2.4875134805e+00
 7.4537582450e-01	 7.7333692324e-01	 2.3650805939e+00
 7.3583024339e-01	 7.8242505680e-01	 2.2411859075e+00
 7.8782109168e-01	 7.4090493472e-01	 2.6183832770e+00
 7.7867028133e-01	 7.5051634743e-01	 2.5197371604e+00
 7.6940116669e-01	 7.6001581528e-01	 2.4107025516e+00
 7.6001581528e-01	 7.6940116669e-01	 2.2944485127e+00
 7.5051634743e-01	 7.7867028133e-01	 2.1741876084e+00
 7.4090493472e-01	 7.8782109168e-01	 2.0531475500e+00
 7.9321712655e-01	 7.4597962606e-01	 2.4296686141e+00
 7.8400363942e-01	 7.5565687036e-01	 2.3324396135e+00
 7.7467103770e-01	 7.6522140306e-01	 2.2243167910e+00
 7.6522140306e-01	 7.7467103770e-01	 2.1091368216e+00
 7.5565687036e-01	 7.8400363942e-01	 1.9907755004e+00
 7.4597962606e-01	 7.9321712655e-01	 1.8731168822e+00
 7.9861316142e-01	 7.5105431739e-01	 2.2491734763e+00
 7.8933699751e-01	 7.6079739329e-01	 2.1531254295e+00
 7.7994090870e-01	 7.7042699083e-01	 2.0457083384e+00
 7.7042699083e-01	 7.7994090870e-01	 1.9313971611e+00
 7.6079739329e-01	 7.8933699751e-01	 1.8147013436e+00
 7.5105431739e-01	 7.9861316142e-01	 1.7001314676e+00
 8.0400919630e-01	 7.5612900873e-01	 2.0765767776e+00
 7.9467035560e-01	 7.6593791621e-01	 1.9815183006e+00
 7.8521077971e-01	 7.7563257861e-01	 1.8746423676e+00
 7.7563257861e-01	 7.8521077971e-01	 1.7610336428e+00
 7.6593791621e-01	 7.9467035560e-01	 1.6458064049e+00
 7.5612900873e-01	 8.0400919630e-01	 1.5340687136e+00
 8.0940523117e-01	 7.6120370006e-01	 1.9115471061e+00
 8.0000371369e-01	 7.7107843914e-01	 1.8173302864e+00
 7.9048065071e-01	 7.8083816638e-01	 1.7108711770e+00
 7.8083816638e-01	 7.9048065071e-01	 1.5978363115e+00
 7.7107843914e-01	 8.0000371369e-01	 1.4839167308e+00
 7.6120370006e-01	 8.0940523117e-01	 1.3747896785e+00
 7.3583024339e-01	 7.8242505680e-01	 2.2411859075e+00
 7.2617569011e-01	 7.9139369702e-01	 2.1137929861e+00
 7.1641441816e-01	 8.0024090001e-01	 1.9766837697e+00
 7.0654872682e-01	 8.0896477873e-01	 1.8316024345e+00
 6.9658095937e-01	 8.1756350435e-01	 1.6799380274e+00
 6.8651350126e-01	 8.2603530747e-01	 1.5227260995e+00
 7.4090493472e-01	 7.8782109168e-01	 2.0531475500e+00
 7.3118379832e-01	 7.9685158459e-01	 1.9278517078e+00
 7.2135520725e-01	 8.0575980277e-01	 1.7940315689e+00
 7.1142147666e-01	 8.1454384617e-01	 1.6531294305e+00
 7.0138496599e-01	 8.2320187334e-01	 1.5062184485e+00
 6.9124807713e-01	 8.3173210270e-01	 1.3540060481e+00
 7.4597962606e-01	 7.9321712655e-01	 1.8731168822e+00
 7.3619190653e-01	 8.0230947216e-01	 1.7504173139e+00
 7.2629599634e-01	 8.1127870553e-01	 1.6195085485e+00
 7.1629422650e-01	 8.2012291361e-01	 1.4824214659e+00
 7.0618897260e-01	 8.2884024234e-01	 1.3399381200e+00
 6.9598265300e-01	 8.3742889792e-01	 1.1924617790e+00
 7.5105431739e-01	 7.9861316142e-01	 1.7001314676e+00
 7.4120001473e-01	 8.0776735972e-01	 1.5811068322e+00
 7.3123678543e-01	 8.1679760829e-01	 1.4527600741e+00
 7.2116697634e-01	 8.2570198105e-01	 1.3191425795e+00
 7.1099297922e-01	 8.3447861133e-01	 1.1807744909e+00
 7.0071722887e-01	 8.4312569314e-01	 1.0377783891e+00
 7.5612900873e-01	 8.0400919630e-01	 1.5340687136e+00
 7.4620812294e-01	 8.1322524729e-01	 1.4189112759e+00
 7.3617757452e-01	 8.2231651105e-01	 1.2934234407e+00
 7.2603972618e-01	 8.3128104849e-01	 1.1629483180e+00
 7.1579698583e-01	 8.4011698033e-01	 1.0283962588e+00
 7.0545180474e-01	 8.4882248837e-01	 8.8963213908e-01
 7.6120370006e-01	 8.0940523117e-01	 1.3747896785e+00
 7.5121623115e-01	 8.1868313485e-01	 1.2632024431e+00
 7.4111836361e-01	 8.2783541381e-01	 1.1411262860e+00
 7.3091247602e-01	 8.3686011593e-01	 1.0134860223e+00
 7.2060099245e-01	 8.4575534933e-01	 8.8246366531e-01
 7.1018638061e-01	 8.5451928359e-01	 7.4769075146e-01
 6.8651350126e-01	 8.2603530747e-01	 1.5227260995e+00
 6.7634877819e-01	 8.3437847937e-01	 1.3608310315e+00
 6.6608925420e-01	 8.4259137311e-01	 1.1946604284e+00
 6.5573742974e-01	 8.5067240454e-01	 1.0240721539e+00
 6.4529583959e-01	 8.5862005335e-01	 8.4862458498e-01
 6.3476705092e-01	 8.6643286391e-01	 6.6758502586e-01
 6.9124807713e-01	 8.3173210270e-01	 1.3540060481e+00
 6.8101325252e-01	 8.4013281372e-01	 1.1972640949e+00
 6.7068297320e-01	 8.4840234809e-01	 1.0365577971e+00
 6.6025975684e-01	 8.5653911078e-01	 8.7177297735e-01
 6.4974615572e-01	 8.6454157096e-01	 7.0248215163e-01
 6.3914475472e-01	 8.7240826297e-01	 5.2795313531e-01
 6.9598265300e-01	 8.3742889792e-01	 1.1924617790e+00
 6.8567772685e-01	 8.4588714806e-01	 1.0406739561e+00
 6.7527669219e-01	 8.5421332308e-01	 8.8526226122e-01
 6.6478208394e-01	 8.6240581701e-01	 7.2610838542e-01
 6.5419647186e-01	 8.7046308857e-01	 5.6276778508e-01
 6.4352245852e-01	 8.7838366203e-01	 3.9447854661e-01
 7.0071722887e-01	 8.4312569314e-01	 1.0377783891e+00
 6.9034220118e-01	 8.5164148240e-01	 8.9075597136e-01
 6.7987041119e-01	 8.6002429807e-01	 7.4049116788e-01
 6.6930441104e-01	 8.6827252325e-01	 5.8683006083e-01
 6.5864678799e-01	 8.7638460618e-01	 4.2928044444e-01
 6.4790016232e-01	 8.8435906110e-01	 2.6702101552e-01
 7.0545180474e-01	 8.4882248837e-01	 8.8963213908e-01
 6.9500667552e-01	 8.5739581674e-01	 7.4719652548e-01
 6.8446413018e-01	 8.6583527305e-01	 6.0195246176e-01
 6.7382673814e-01	 8.7413922949e-01	 4.5367953990e-01
 6.6309710413e-01	 8.8230612378e-01	 3.0180786967e-01
 6.5227786612e-01	 8.9033446016e-01	 1.4542766112e-01
 7.1018638061e-01	 8.5451928359e-01	 7.4769075146e-01
 6.9967114985e-01	 8.6315015108e-01	 6.0967333331e-01
 6.8905784918e-01	 8.7164624804e-01	 4.6934499942e-01
 6.7834906524e-01	 8.8000593573e-01	 3.2638855015e-01
 6.6754742026e-01	 8.8822764139e-01	 1.8012695286e-01
 6.5665556992e-01	 8.9630985922e-01	 2.9533381865e-02
 6.3476705092e-01	 8.6643286391e-01	 6.6758502586e-01
 6.2415366120e-01	 8.7410944613e-01	 4.8235761150e-01
 6.1345829611e-01	 8.8164847617e-01	 2.9454707405e-01
 6.0268360747e-01	 8.8904869714e-01	 1.0332757431e-01
 5.9183227111e-01	 8.9630891967e-01	-9.2359860861e-02
 5.8090698475e-01	 9.0342802240e-01	-2.9379581266e-01
 6.3914475472e-01	 8.7240826297e-01	 5.2795313531e-01
 6.2845816921e-01	 8.8013778714e-01	 3.4972512043e-01
 6.1768904298e-01	 8.8772881049e-01	 1.6946873838e-01
 6.0684004614e-01	 8.9518006746e-01	-1.3756978216e-02
 5.9591387298e-01	 9.0249036049e-01	-2.0112821160e-01
 5.8491323982e-01	 9.0965856049e-01	-3.9404439975e-01
 6.4352245852e-01	 8.7838366203e-01	 3.9447854661e-01
 6.3276267721e-01	 8.8616612814e-01	 2.2293691872e-01
 6.2191978985e-01	 8.9380914481e-01	 4.9929663275e-02
 6.1099648481e-01	 9.0131143779e-01	-1.2558909275e-01
 5.9999547485e-01	 9.0867180132e-01	-3.0490603623e-01
 5.8891949488e-01	 9.1588909858e-01	-4.8953626080e-01
 6.4790016232e-01	 8.8435906110e-01	 2.6702101552e-01
 6.3706718522e-01	 8.9219446915e-01	 1.0190197498e-01
 6.2615053672e-01	 8.9988947913e-01	-6.4149210717e-02
 6.1515292349e-01	 9.0744280812e-01	-2.3227332727e-01
 6.0407707672e-01	 9.1485324214e-01	-4.0386104606e-01
 5.9292574995e-01	 9.2211963666e-01	-5.8054005464e-01
 6.5227786612e-01	 8.9033446016e-01	 1.4542766112e-01
 6.4137169323e-01	 8.9822281016e-01	-1.3484467525e-02
 6.3038128359e-01	 9.0596981344e-01	-1.7286073958e-01
 6.1930936216e-01	 9.1357417844e-01	-3.3392708413e-01
 6.0815867859e-01	 9.2103468297e-01	-4.9817181664e-01
 5.9693200502e-01	 9.2835017475e-01	-6.6733229265e-01
 6.5665556992e-01	 8.9630985922e-01	 2.9533381865e-02
 6.4567620124e-01	 9.0425115117e-01	-1.2334044135e-01
 6.3461203046e-01	 9.1205014776e-01	-2.7631112727e-01
 6.2346580083e-01	 9.1970554877e-01	-4.3068019690e-01
 6.1224028046e-01	 9.2721612379e-01	-5.8802744453e-01
 6.0093826009e-01	 9.3458071283e-01	-7.5019710014e-01
 5.8090698475e-01	 9.0342802240e-01	-2.9379581266e-01
 5.6991046586e-01	 9.1040495248e-01	-4.9775943444e-01
 5.5884544953e-01	 9.1723872582e-01	-7.0089909275e-01
 5.4771468629e-01	 9.2392842743e-01	-9.0457981917e-01
 5.3652094003e-01	 9.3047321160e-01	-1.1103188099e+00
 5.2526698577e-01	 9.3687230200e-01	-1.3197723359e+00
 5.8491323982e-01	 9.0965856049e-01	-3.9404439975e-01
 5.7384088287e-01	 9.1668360732e-01	-5.8927429713e-01
 5.6269955608e-01	 9.2356451013e-01	-7.8343086147e-01
 5.5149202896e-01	 9.3030034762e-01	-9.7797071008e-01
 5.4022108444e-01	 9.3689026823e-01	-1.1745145905e+00
 5.2888951671e-01	 9.4333349029e-01	-1.3748337712e+00
 5.8891949488e-01	 9.1588909858e-01	-4.8953626080e-01
 5.7777129987e-01	 9.2296226217e-01	-6.7628215381e-01
 5.6655366263e-01	 9.2989029445e-01	-8.6177114143e-01
 5.5526937162e-01	 9.3667226781e-01	-1.0475552744e+00
 5.4392122886e-01	 9.4330732487e-01	-1.2353569641e+00
 5.3251204765e-01	 9.4979467858e-01	-1.4270549178e+00
 5.9292574995e-01	 9.2211963666e-01	-5.8054005464e-01
 5.8170171688e-01	 9.2924091701e-01	-7.5913725707e-01
 5.7040776917e-01	 9.3621607877e-01	-9.3629124420e-01
 5.5904671429e-01	 9.4304418800e-01	-1.1136534643e+00
 5.4762137327e-01	 9.4972438150e-01	-1.2930463009e+00
 5.3613457858e-01	 9.5625586687e-01	-1.4764486176e+00
 5.9693200502e-01	 9.2835017475e-01	-6.6733229265e-01
 5.8563213389e-01	 9.3551957186e-01	-8.3819909585e-01
 5.7426187572e-01	 9.4254186308e-01	-1.0073669248e+00
 5.6282405695e-01	 9.4941610819e-01	-1.1765907029e+00
 5.5132151768e-01	 9.5614143813e-01	-1.3477912858e+00
 5.3975710952e-01	 9.6271705516e-01	-1.5230406785e+00
 6.0093826009e-01	 9.3458071283e-01	-7.5019710014e-01
 5.8956255089e-01	 9.4179822670e-01	-9.1383224851e-01
 5.7811598227e-01	 9.4886764740e-01	-1.0753782662e+00
 5.6660139962e-01	 9.5578802838e-01	-1.2366977397e+00
 5.5502166210e-01	 9.6255849476e-01	-1.3998086832e+00
 5.4337964046e-01	 9.6917824345e-01	-1.5668694895e+00
 5.2526698577e-01	 9.3687230200e-01	-1.3197723359e+00
 5.1395560762e-01	 9.4312499171e-01	-1.5308242108e+00
 5.0258959659e-01	 9.4923064321e-01	-1.7409416301e+00
 4.9117174849e-01	 9.5518868821e-01	-1.9513014625e+00
 4.7970486186e-01	 9.6099862752e-01	-2.1631368401e+00
 4.6819173590e-01	 9.6666003074e-01	-2.3777252516e+00
 5.2888951671e-01	 9.4333349029e-01	-1.3748337712e+00
 5.1750012906e-01	 9.4962930200e-01	-1.5766130976e+00
 5.0605573174e-01	 9.5577706143e-01	-1.7770678706e+00
 4.9455913986e-01	 9.6177619641e-01	-1.9774130916e+00
 4.8301317126e-01	 9.6762620426e-01	-2.1789122762e+00
 4.7142064442e-01	 9.7332665164e-01	-2.3828654290e+00
 5.3251204765e-01	 9.4979467858e-01	-1.4270549178e+00
 5.2104465049e-01	 9.5613361229e-01	-1.6200560862e+00
 5.0952186689e-01	 9.6232347966e-01	-1.8112647409e+00
 4.9794653123e-01	 9.6836370460e-01	-2.0019570564e+00
 4.8632148065e-01	 9.7425378101e-01	-2.1934566780e+00
 4.7464955295e-01	 9.7999327254e-01	-2.3871224213e+00
 5.3613457858e-01	 9.5625586687e-01	-1.4764486176e+00
 5.2458917192e-01	 9.6263792257e-01	-1.6609850628e+00
 5.1298800203e-01	 9.6886989789e-01	-1.8432637095e+00
 5.0133392259e-01	 9.7495121279e-01	-2.0246443786e+00
 4.8962979004e-01	 9.8088135775e-01	-2.2065399365e+00
 4.7787846147e-01	 9.8665989345e-01	-2.3904035640e+00
 5.3975710952e-01	 9.6271705516e-01	-1.5230406785e+00
 5.2813369335e-01	 9.6914223286e-01	-1.6992493396e+00
 5.1645413718e-01	 9.7541631612e-01	-1.8728159530e+00
 5.0472131396e-01	 9.8153872099e-01	-2.0452059088e+00
 4.9293809943e-01	 9.8750893449e-01	-2.2179497489e+00
 4.8110736999e-01	 9.9332651435e-01	-2.3926298527e+00
 5.4337964046e-01	 9.6917824345e-01	-1.5668694895e+00
 5.3167821478e-01	 9.7564654315e-01	-1.7347151263e+00
 5.1992027233e-01	 9.8196273435e-01	-1.8996917576e+00
 5.0810870533e-01	 9.8812622918e-01	-2.0633917294e+00
 4.9624640883e-01	 9.9413651123e-01	-2.2274910941e+00
 4.8433627852e-01	 9.9999313525e-01	-2.3937355621e+00
 4.6819173590e-01	 9.6666003074e-01	-2.3777252516e+00
 4.5663516837e-01	 9.7217253593e-01	-2.5912991063e+00
 4.4503795361e-01	 9.7753584919e-01	-2.7998872241e+00
 4.3340288052e-01	 9.8274974421e-01	-3.0045045855e+00
 4.2173273062e-01	 9.8781406172e-01	-3.2061799256e+00
 4.1003027606e-01	 9.9272870882e-01	-3.4059450640e+00
 4.7142064442e-01	 9.7332665164e-01	-2.3828654290e+00
 4.5978437643e-01	 9.7887717410e-01	-2.5856291393e+00
 4.4810718087e-01	 9.8427747573e-01	-2.7834573768e+00
 4.3639186590e-01	 9.8952732866e-01	-2.9775362505e+00
 4.2464123221e-01	 9.9462657249e-01	-3.1690692999e+00
 4.1285807107e-01	 9.9957511371e-01	-3.3592662126e+00
 4.7464955295e-01	 9.7999327254e-01	-2.3871224213e+00
 4.6293358448e-01	 9.8558181228e-01	-2.5795111866e+00
 4.5117640814e-01	 9.9101910228e-01	-2.7671111834e+00
 4.3938085129e-01	 9.9630491310e-01	-2.9512170611e+00
 4.2754973380e-01	 1.0014390833e+00	-3.1331405616e+00
 4.1568586608e-01	 1.0064215186e+00	-3.3141988359e+00
 4.7787846147e-01	 9.8665989345e-01	-2.3904035640e+00
 4.6608279254e-01	 9.9228645046e-01	-2.5729999803e+00
 4.5424563541e-01	 9.9776072883e-01	-2.7509936469e+00
 4.4236983667e-01	 1.0030824975e+00	-2.9257267201e+00
 4.3045823539e-01	 1.0082515940e+00	-3.0985541510e+00
 4.1851366108e-01	 1.0132679235e+00	-3.2708318060e+00
 4.8110736999e-01	 9.9332651435e-01	-2.3926298527e+00
 4.6923200060e-01	 9.9899108864e-01	-2.5661594856e+00
 4.5731486267e-01	 1.0045023554e+00	-2.7352560966e+00
 4.4535882205e-01	 1.0098600820e+00	-2.9012498301e+00
 4.3336673698e-01	 1.0150641048e+00	-3.0654754169e+00
 4.2134145609e-01	 1.0201143284e+00	-3.2292603064e+00
 4.8433627852e-01	 9.9999313525e-01	-2.3937355621e+00
 4.7238120866e-01	 1.0056957268e+00	-2.5590626726e+00
 4.6038408994e-01	 1.0112439819e+00	-2.7200560628e+00
 4.4834780744e-01	 1.0166376664e+00	-2.8779758194e+00
 4.3627523857e-01	 1.0218766156e+00	-3.0340745486e+00
 4.2416925110e-01	 1.0269607333e+00	-3.1895857213e+00
 4.1003027606e-01	 9.9272870882e-01	-3.4059450640e+00
 3.9829827779e-01	 9.9749365838e-01	-3.6063836268e+00
 3.8653948365e-01	 1.0021089483e+00	-3.8089607953e+00
 3.7475662655e-01	 1.0065746805e+00	-4.0129550342e+00
 3.6295242274e-01	 1.0108910205e+00	-4.2146258753e+00
 3.5112957002e-01	 1.0150581962e+00	-4.4013950496e+00
 4.1285807107e-01	 9.9957511371e-01	-3.3592662126e+00
 4.0104516247e-01	 1.0043729250e+00	-3.5503114158e+00
 3.8920527319e-01	 1.0090200445e+00	-3.7430491624e+00
 3.7734115501e-01	 1.0135165749e+00	-3.9366097069e+00
 3.6545554290e-01	 1.0178626828e+00	-4.1287757736e+00
 3.5355115326e-01	 1.0220585975e+00	-4.3069560584e+00
 4.1568586608e-01	 1.0064215186e+00	-3.3141988359e+00
 4.0379204714e-01	 1.0112521916e+00	-3.4961417510e+00
 3.9187106273e-01	 1.0159311406e+00	-3.6792572264e+00
 3.7992568347e-01	 1.0204584692e+00	-3.8626021775e+00
 3.6795866305e-01	 1.0248343450e+00	-4.0448492615e+00
 3.5597273650e-01	 1.0290589989e+00	-4.2148024178e+00
 4.1851366108e-01	 1.0132679235e+00	-3.2708318060e+00
 4.0653893181e-01	 1.0181314582e+00	-3.4438551950e+00
 3.9453685227e-01	 1.0228422368e+00	-3.6174339721e+00
 3.8251021193e-01	 1.0274003636e+00	-3.7906251730e+00
 3.7046178321e-01	 1.0318060072e+00	-3.9623970095e+00
 3.5839431974e-01	 1.0360594003e+00	-4.1242442440e+00
 4.2134145609e-01	 1.0201143284e+00	-3.2292603064e+00
 4.0928581649e-01	 1.0250107248e+00	-3.3934410005e+00
 3.9720264181e-01	 1.0297533330e+00	-3.5574400671e+00
 3.8509474039e-01	 1.0343422579e+00	-3.7203867498e+00
 3.7296490337e-01	 1.0387776694e+00	-3.8813197551e+00
 3.6081590298e-01	 1.0430598016e+00	-4.0346260672e+00
 4.2416925110e-01	 1.0269607333e+00	-3.1895857213e+00
 4.1203270116e-01	 1.0318899914e+00	-3.3448969235e+00
 3.9986843136e-01	 1.0366644292e+00	-3.4991475801e+00
 3.8767926885e-01	 1.0412841523e+00	-3.6516098939e+00
 3.7546802352e-01	 1.0457493316e+00	-3.8014612688e+00
 3.6323748623e-01	 1.0500602030e+00	-3.9453266870e+00
 3.5112957002e-01	 1.0150581962e+00	-4.4013950496e+00
 3.3929074608e-01	 1.0190764967e+00	-4.5789057737e+00
 3.2743860686e-01	 1.0229462720e+00	-4.7554654039e+00
 3.1557578495e-01	 1.0266679310e+00	-4.9305098825e+00
 3.0370488806e-01	 1.0302419413e+00	-5.1031971131e+00
 2.9182849751e-01	 1.0336688274e+00	-5.2724102983e+00
 3.5355115326e-01	 1.0220585975e+00	-4.3069560584e+00
 3.4163068226e-01	 1.0261046105e+00	-4.4755407903e+00
 3.2969680415e-01	 1.0300010738e+00	-4.6431270602e+00
 3.1775216967e-01	 1.0337483995e+00	-4.8090901621e+00
 3.0579940453e-01	 1.0373470581e+00	-4.9724933902e+00
 2.9384110784e-01	 1.0407975779e+00	-5.1320921190e+00
 3.5597273650e-01	 1.0290589989e+00	-4.2148024178e+00
 3.4397061844e-01	 1.0331327243e+00	-4.3749620900e+00
 3.3195500144e-01	 1.0370558757e+00	-4.5340889859e+00
 3.1992855440e-01	 1.0408288680e+00	-4.6914846421e+00
 3.0789392100e-01	 1.0444521750e+00	-4.8461108182e+00
 2.9585371817e-01	 1.0479263284e+00	-4.9965941995e+00
 3.5839431974e-01	 1.0360594003e+00	-4.1242442440e+00
 3.4631055462e-01	 1.0401608381e+00	-4.2762733011e+00
 3.3421319873e-01	 1.0441106776e+00	-4.4273402828e+00
 3.2210493912e-01	 1.0479093365e+00	-4.5766599793e+00
 3.0998843746e-01	 1.0515572918e+00	-4.7230856881e+00
 2.9786632850e-01	 1.0550550790e+00	-4.8651144194e+00
 3.6081590298e-01	 1.0430598016e+00	-4.0346260672e+00
 3.4865049080e-01	 1.0471889518e+00	-4.1786148712e+00
 3.3647139601e-01	 1.0511654795e+00	-4.3219070145e+00
 3.2428132384e-01	 1.0549898050e+00	-4.4636176752e+00
 3.1208295393e-01	 1.0586624086e+00	-4.6024847632e+00
 2.9987893882e-01	 1.0621838295e+00	-4.7368745100e+00
 3.6323748623e-01	 1.0500602030e+00	-3.9453266870e+00
 3.5099042698e-01	 1.0542170656e+00	-4.0811637444e+00
 3.3872959330e-01	 1.0582202813e+00	-4.2168517846e+00
 3.2645770857e-01	 1.0620702735e+00	-4.3513936352e+00
 3.1417747040e-01	 1.0657675255e+00	-4.4834048993e+00
 3.0189154915e-01	 1.0693125800e+00	-4.6111198154e+00
 2.9182849751e-01	 1.0336688274e+00	-5.2724102983e+00
 2.7994916685e-01	 1.0369491697e+00	-5.4361337583e+00
 2.6806942039e-01	 1.0400836036e+00	-5.5934670274e+00
 2.5619175197e-01	 1.0430728176e+00	-5.7445829070e+00
 2.4431862363e-01	 1.0459175526e+00	-5.8894210652e+00
 2.3245246441e-01	 1.0486186001e+00	-6.0276996672e+00
 2.9384110784e-01	 1.0407975779e+00	-5.1320921190e+00
 2.8187985076e-01	 1.0441005433e+00	-5.2860749248e+00
 2.6991817501e-01	 1.0472565940e+00	-5.4339502655e+00
 2.5795859164e-01	 1.0502664232e+00	-5.5760364762e+00
 2.4600357966e-01	 1.0531307771e+00	-5.7124065452e+00
 2.3405558486e-01	 1.0558504525e+00	-5.8429000038e+00
 2.9585371817e-01	 1.0479263284e+00	-4.9965941995e+00
 2.8381053466e-01	 1.0512519169e+00	-5.1414351302e+00
 2.7176692964e-01	 1.0544295843e+00	-5.2806094709e+00
 2.5972543131e-01	 1.0574600289e+00	-5.4145084532e+00
 2.4768853568e-01	 1.0603440016e+00	-5.5432623455e+00
 2.3565870530e-01	 1.0630823049e+00	-5.6667528469e+00
 2.9786632850e-01	 1.0550550790e+00	-4.8651144194e+00
 2.8574121857e-01	 1.0584032905e+00	-5.0015974917e+00
 2.7361568426e-01	 1.0616025747e+00	-5.1329695664e+00
 2.6149227098e-01	 1.0646536345e+00	-5.2596237626e+00
 2.4937349171e-01	 1.0675572261e+00	-5.3816732214e+00
 2.3726182574e-01	 1.0703141573e+00	-5.4989642501e+00
 2.9987893882e-01	 1.0621838295e+00	-4.7368745100e+00
 2.8767190248e-01	 1.0655546641e+00	-4.8659619456e+00
 2.7546443888e-01	 1.0687755651e+00	-4.9905666517e+00
 2.6325911065e-01	 1.0718472402e+00	-5.1110142090e+00
 2.5105844773e-01	 1.0747704506e+00	-5.2273278128e+00
 2.3886494619e-01	 1.0775460097e+00	-5.3392424095e+00
 3.0189154915e-01	 1.0693125800e+00	-4.6111198154e+00
 2.8960258639e-01	 1.0727060376e+00	-4.7339451684e+00
 2.7731319351e-01	 1.0759485554e+00	-4.8529480424e+00
 2.6502595032e-01	 1.0790408458e+00	-4.9683185947e+00
 2.5274340376e-01	 1.0819836751e+00	-5.0799188006e+00
 2.4046806663e-01	 1.0847778621e+00	-5.1872978234e+00
 2.3245246441e-01	 1.0486186001e+00	-6.0276996672e+00
 2.2059566921e-01	 1.0511768012e+00	-6.1597252961e+00
 2.0875059767e-01	 1.0535930450e+00	-6.2860677132e+00
 1.9691957315e-01	 1.0558682675e+00	-6.4065300897e+00
 1.8510488173e-01	 1.0580034496e+00	-6.5207278279e+00
 1.7330877132e-01	 1.0599996162e+00	-6.6281077574e+00
 2.3405558486e-01	 1.0558504525e+00	-5.8429000038e+00
 2.2211701865e-01	 1.0584262964e+00	-5.9677711875e+00
 2.1019025696e-01	 1.0608592040e+00	-6.0874456851e+00
 1.9827763917e-01	 1.0631501176e+00	-6.2016918414e+00
 1.8638146713e-01	 1.0653000251e+00	-6.3100782638e+00
 1.7450400422e-01	 1.0673099584e+00	-6.4119940315e+00
 2.3565870530e-01	 1.0630823049e+00	-5.6667528469e+00
 2.2363836809e-01	 1.0656757915e+00	-5.7850956423e+00
 2.1162991626e-01	 1.0681253629e+00	-5.8985649582e+00
 1.9963570519e-01	 1.0704319677e+00	-6.0069292603e+00
 1.8765805252e-01	 1.0725966006e+00	-6.1097420566e+00
 1.7569923713e-01	 1.0746203006e+00	-6.2063631563e+00
 2.3726182574e-01	 1.0703141573e+00	-5.4989642501e+00
 2.2515971754e-01	 1.0729252867e+00	-5.6113953211e+00
 2.1306957555e-01	 1.0753915218e+00	-5.7190882658e+00
 2.0099377121e-01	 1.0777138179e+00	-5.8218457442e+00
 1.8893463791e-01	 1.0798931761e+00	-5.9192370046e+00
 1.7689447003e-01	 1.0819306428e+00	-6.0106202300e+00
 2.3886494619e-01	 1.0775460097e+00	-5.3392424095e+00
 2.2668106698e-01	 1.0801747819e+00	-5.4463683249e+00
 2.1450923485e-01	 1.0826576808e+00	-5.5486799494e+00
 2.0235183724e-01	 1.0849956680e+00	-5.6460473539e+00
 1.9021122330e-01	 1.0871897517e+00	-5.7380855270e+00
 1.7808970294e-01	 1.0892409849e+00	-5.8241778484e+00
 2.4046806663e-01	 1.0847778621e+00	-5.1872978234e+00
 2.2820241642e-01	 1.0874242771e+00	-5.2897143285e+00
 2.1594889414e-01	 1.0899238397e+00	-5.3870060410e+00
 2.0370990326e-01	 1.0922775181e+00	-5.4791428201e+00
 1.9148780869e-01	 1.0944863272e+00	-5.5658145703e+00
 1.7928493584e-01	 1.0965513271e+00	-5.6464558835e+00
 1.7330877132e-01	 1.0599996162e+00	-6.6281077574e+00
 1.6153345072e-01	 1.0618578346e+00	-6.7286056926e+00
 1.4978108891e-01	 1.0635792128e+00	-6.8225439209e+00
 1.3805381423e-01	 1.0651648985e+00	-6.9097548637e+00
 1.2635371370e-01	 1.0666160770e+00	-6.9899811402e+00
 1.1468283240e-01	 1.0679339701e+00	-7.0628964525e+00
 1.7450400422e-01	 1.0673099584e+00	-6.4119940315e+00
 1.6264747452e-01	 1.0691809921e+00	-6.5073608299e+00
 1.5081406194e-01	 1.0709142419e+00	-6.5965390282e+00
 1.3900590950e-01	 1.0725108633e+00	-6.6793632077e+00
 1.2722511862e-01	 1.0739720499e+00	-6.7555646609e+00
 1.1547374848e-01	 1.0752990320e+00	-6.8247934869e+00
 1.7569923713e-01	 1.0746203006e+00	-6.2063631563e+00
 1.6376149832e-01	 1.0765041496e+00	-6.2967002839e+00
 1.5184703497e-01	 1.0782492710e+00	-6.3811423478e+00
 1.3995800477e-01	 1.0798568281e+00	-6.4595387846e+00
 1.2809652354e-01	 1.0813280229e+00	-6.5316237760e+00
 1.1626466457e-01	 1.0826640939e+00	-6.5970395097e+00
 1.7689447003e-01	 1.0819306428e+00	-6.0106202300e+00
 1.6487552212e-01	 1.0838273070e+00	-6.0959197235e+00
 1.5288000799e-01	 1.0855843000e+00	-6.1755737853e+00
 1.4091010004e-01	 1.0872027929e+00	-6.2494585925e+00
 1.2896792847e-01	 1.0886839958e+00	-6.3173245853e+00
 1.1705558065e-01	 1.0900291557e+00	-6.3788208521e+00
 1.7808970294e-01	 1.0892409849e+00	-5.8241778484e+00
 1.6598954591e-01	 1.0911504645e+00	-5.9043252850e+00
 1.5391298102e-01	 1.0929193291e+00	-5.9790659527e+00
 1.4186219531e-01	 1.0945487578e+00	-6.0483138544e+00
 1.2983933339e-01	 1.0960399687e+00	-6.1118482243e+00
 1.1784649674e-01	 1.0973942176e+00	-6.1693389963e+00
 1.7928493584e-01	 1.0965513271e+00	-5.6464558835e+00
 1.6710356971e-01	 1.0984736220e+00	-5.7212332255e+00
 1.5494595405e-01	 1.1002543581e+00	-5.7908637244e+00
 1.4281429058e-01	 1.1018947226e+00	-5.8553095062e+00
 1.3071073831e-01	 1.1033959417e+00	-5.9143903109e+00
 1.1863741282e-01	 1.1047592794e+00	-5.9678100078e+00
 1.1468283240e-01	 1.0679339701e+00	-7.0628964525e+00
 1.0304317286e-01	 1.0691198348e+00	-7.1290309460e+00
 9.1436694587e-02	 1.0701749612e+00	-7.1887663850e+00
 7.9865313532e-02	 1.0711006714e+00	-7.2415195987e+00
 6.8330901713e-02	 1.0718983182e+00	-7.2867297759e+00
 5.6835286839e-02	 1.0725692830e+00	-7.3238777655e+00
 1.1547374848e-01	 1.0752990320e+00	-6.8247934869e+00
 1.0375381543e-01	 1.0764930750e+00	-6.8876094809e+00
 9.2067292481e-02	 1.0775554781e+00	-6.9444181848e+00
 8.0416108798e-02	 1.0784875726e+00	-6.9945917634e+00
 6.8802149311e-02	 1.0792907204e+00	-7.0375205965e+00
 5.7227254335e-02	 1.0799663125e+00	-7.0726336870e+00
 1.1626466457e-01	 1.0826640939e+00	-6.5970395097e+00
 1.0446445800e-01	 1.0838663153e+00	-6.6564059051e+00
 9.2697890375e-02	 1.0849359951e+00	-6.7101733317e+00
 8.0966904063e-02	 1.0858744738e+00	-6.7576713334e+00
 6.9273396909e-02	 1.0866831225e+00	-6.7982427754e+00
 5.7619221830e-02	 1.0873633420e+00	-6.8312654103e+00
 1.1705558065e-01	 1.0900291557e+00	-6.3788208521e+00
 1.0517510058e-01	 1.0912395555e+00	-6.4346395622e+00
 9.3328488268e-02	 1.0923165121e+00	-6.4852788856e+00
 8.1517699329e-02	 1.0932613750e+00	-6.5300272959e+00
 6.9744644507e-02	 1.0940755247e+00	-6.5681809507e+00
 5.8011189326e-02	 1.0947603716e+00	-6.5990664655e+00
 1.1784649674e-01	 1.0973942176e+00	-6.1693389963e+00
 1.0588574315e-01	 1.0986127957e+00	-6.2215448465e+00
 9.3959086162e-02	 1.0996970290e+00	-6.2689971141e+00
 8.2068494595e-02	 1.1006482761e+00	-6.3109442615e+00
 7.0215892105e-02	 1.1014679269e+00	-6.3466360573e+00
 5.8403156821e-02	 1.1021574011e+00	-6.3753476114e+00
 1.1863741282e-01	 1.1047592794e+00	-5.9678100078e+00
 1.0659638572e-01	 1.1059860360e+00	-6.0163706325e+00
 9.4589684056e-02	 1.1070775460e+00	-6.0606049142e+00
 8.2619289860e-02	 1.1080351773e+00	-6.0997218718e+00
 7.0687139703e-02	 1.1088603291e+00	-6.1329247156e+00
 5.8795124316e-02	 1.1095544307e+00	-6.1594361982e+00
 5.6835286839e-02	 1.0725692830e+00	-7.3238777655e+00
 4.5380252003e-02	 1.0731149749e+00	-7.3541914940e+00
 3.3967535415e-02	 1.0735368290e+00	-7.3785997888e+00
 2.2598830198e-02	 1.0738363048e+00	-7.3962729728e+00
 1.1275784225e-02	 1.0740148850e+00	-7.4065210923e+00
 0.0000000000e+00	 1.0740740741e+00	-7.4088078517e+00
 5.7227254335e-02	 1.0799663125e+00	-7.0726336870e+00
 4.5693219258e-02	 1.0805157678e+00	-7.1012637608e+00
 3.4201794280e-02	 1.0809405312e+00	-7.1244374711e+00
 2.2754684200e-02	 1.0812420724e+00	-7.1412612491e+00
 1.1353548254e-02	 1.0814218842e+00	-7.1509820923e+00
 0.0000000000e+00	 1.0814814815e+00	-7.1530024362e+00
 5.7619221830e-02	 1.0873633420e+00	-6.8312654103e+00
 4.6006186513e-02	 1.0879165607e+00	-6.8581752180e+00
 3.4436053145e-02	 1.0883442335e+00	-6.8800882893e+00
 2.2910538201e-02	 1.0886478400e+00	-6.8960374225e+00
 1.1431312283e-02	 1.0888288835e+00	-6.9051974114e+00
 0.0000000000e+00	 1.0888888889e+00	-6.9069008832e+00
 5.8011189326e-02	 1.0947603716e+00	-6.5990664655e+00
 4.6319153768e-02	 1.0953173537e+00	-6.6242281025e+00
 3.4670312010e-02	 1.0957479358e+00	-6.6448696760e+00
 2.3066392202e-02	 1.0960536076e+00	-6.6599402812e+00
 1.1509076312e-02	 1.0962358827e+00	-6.6685330210e+00
 0.0000000000e+00	 1.0962962963e+00	-6.6699018420e+00
 5.8403156821e-02	 1.1021574011e+00	-6.3753476114e+00
 4.6632121023e-02	 1.1027181466e+00	-6.3987428792e+00
 3.4904570875e-02	 1.1031516380e+00	-6.4181181661e+00
 2.3222246204e-02	 1.1034593753e+00	-6.4323284602e+00
 1.1586840341e-02	 1.1036428819e+00	-6.4403753499e+00
 0.0000000000e+00	 1.1037037037e+00	-6.4414248899e+00
 5.8795124316e-02	 1.1095544307e+00	-6.1594361982e+00
 4.6945088279e-02	 1.1101189395e+00	-6.1810575789e+00
 3.5138829740e-02	 1.1105553403e+00	-6.1991887165e+00
 2.3378100205e-02	 1.1108651429e+00	-6.2125797490e+00
 1.1664604370e-02	 1.1110498811e+00	-6.2201305856e+00
 0.0000000000e+00	 1.1111111111e+00	-6.2209098355e+00
 1.1111111111e+00	 0.0000000000e+00	 2.3645289580e+00
 1.1110498811e+00	 1.1664604370e-02	 2.3645376709e+00
 1.1108651429e+00	 2.3378100205e-02	 2.3667799547e+00
 1.1105553403e+00	 3.5138829740e-02	 2.3706104596e+00
 1.1101189395e+00	 4.6945088279e-02	 2.3756173638e+00
 1.1095544307e+00	 5.8795124316e-02	 2.3816084590e+00
 1.1185185185e+00	 0.0000000000e+00	 2.4638538870e+00
 1.1184568803e+00	 1.1742368399e-02	 2.4636639212e+00
 1.1182709105e+00	 2.3533954207e-02	 2.4654370705e+00
 1.1179590426e+00	 3.5373088604e-02	 2.4685159110e+00
 1.1175197325e+00	 4.7258055534e-02	 2.4724762562e+00
 1.1169514602e+00	 5.9187091812e-02	 2.4771178210e+00
 1.1259259259e+00	 0.0000000000e+00	 2.5585403384e+00
 1.1258638795e+00	 1.1820132429e-02	 2.5581626637e+00
 1.1256766781e+00	 2.3689808208e-02	 2.5594971800e+00
 1.1253627448e+00	 3.5607347469e-02	 2.5618705576e+00
 1.1249205254e+00	 4.7571022789e-02	 2.5648337964e+00
 1.1243484897e+00	 5.9579059307e-02	 2.5681534246e+00
 1.1333333333e+00	 0.0000000000e+00	 2.6483463380e+00
 1.1332708787e+00	 1.1897896458e-02	 2.6477905110e+00
 1.1330824457e+00	 2.3845662209e-02	 2.6487227842e+00
 1.1327664471e+00	 3.5841606334e-02	 2.6504588252e+00
 1.1323213183e+00	 4.7883990044e-02	 2.6525291343e+00
 1.1317455193e+00	 5.9971026803e-02	 2.6546708123e+00
 1.1407407407e+00	 0.0000000000e+00	 2.7330347438e+00
 1.1406778779e+00	 1.1975660487e-02	 2.7323084164e+00
 1.1404882134e+00	 2.4001516211e-02	 2.7328768699e+00
 1.1401701494e+00	 3.6075865199e-02	 2.7340492385e+00
 1.1397221113e+00	 4.8196957299e-02	 2.7353393826e+00
 1.1391425488e+00	 6.0362994298e-02	 2.7364582615e+00
 1.1481481481e+00	 0.0000000000e+00	 2.8123730908e+00
 1.1480848771e+00	 1.2053424516e-02	 2.8114817766e+00
 1.1478939810e+00	 2.4157370212e-02	 2.8117267453e+00
 1.1475738516e+00	 3.6310124064e-02	 2.8124146258e+00
 1.1471229042e+00	 4.8509924555e-02	 2.8130460361e+00
 1.1465395783e+00	 6.0754961794e-02	 2.8133085992e+00
 1.1095544307e+00	 5.8795124316e-02	 2.3816084590e+00
 1.1088603291e+00	 7.0687139703e-02	 2.3890248901e+00
 1.1080351773e+00	 8.2619289860e-02	 2.3980884946e+00
 1.1070775460e+00	 9.4589684056e-02	 2.4085492055e+00
 1.1059860360e+00	 1.0659638572e-01	 2.4202943577e+00
 1.1047592794e+00	 1.1863741282e-01	 2.4333258856e+00
 1.1169514602e+00	 5.9187091812e-02	 2.4771178210e+00
 1.1162527313e+00	 7.1158387301e-02	 2.4829060719e+00
 1.1154220785e+00	 8.3170085126e-02	 2.4900859818e+00
 1.1144580630e+00	 9.5220281949e-02	 2.4984285535e+00
 1.1133592762e+00	 1.0730702829e-01	 2.5078837560e+00
 1.1121243413e+00	 1.1942832891e-01	 2.5185708045e+00
 1.1243484897e+00	 5.9579059307e-02	 2.5681534246e+00
 1.1236451335e+00	 7.1629634899e-02	 2.5722777190e+00
 1.1228089797e+00	 8.3720880392e-02	 2.5774197353e+00
 1.1218385800e+00	 9.5850879843e-02	 2.5832845108e+00
 1.1207325165e+00	 1.0801767086e-01	 2.5897504117e+00
 1.1194894032e+00	 1.2021924499e-01	 2.5968603796e+00
 1.1317455193e+00	 5.9971026803e-02	 2.6546708123e+00
 1.1310375357e+00	 7.2100882497e-02	 2.6573207441e+00
 1.1301958809e+00	 8.4271675658e-02	 2.6606783925e+00
 1.1292190969e+00	 9.6481477737e-02	 2.6644049079e+00
 1.1281057567e+00	 1.0872831343e-01	 2.6683290465e+00
 1.1268544650e+00	 1.2101016108e-01	 2.6724394061e+00
 1.1391425488e+00	 6.0362994298e-02	 2.7364582615e+00
 1.1384299379e+00	 7.2572130095e-02	 2.7378368401e+00
 1.1375827820e+00	 8.4822470923e-02	 2.7396787210e+00
 1.1365996139e+00	 9.7112075630e-02	 2.7416223501e+00
 1.1354789969e+00	 1.0943895600e-01	 2.7434679560e+00
 1.1342195269e+00	 1.2180107716e-01	 2.7451708025e+00
 1.1465395783e+00	 6.0754961794e-02	 2.8133085992e+00
 1.1458223401e+00	 7.3043377693e-02	 2.8136324927e+00
 1.1449696832e+00	 8.5373266189e-02	 2.8142425948e+00
 1.1439801309e+00	 9.7742673524e-02	 2.8147749337e+00
 1.1428522372e+00	 1.1014959858e-01	 2.8150213845e+00
 1.1415845888e+00	 1.2259199325e-01	 2.8149239673e+00
 1.1047592794e+00	 1.1863741282e-01	 2.4333258856e+00
 1.1033959417e+00	 1.3071073831e-01	 2.4478143368e+00
 1.1018947226e+00	 1.4281429058e-01	 2.4636979696e+00
 1.1002543581e+00	 1.5494595405e-01	 2.4807255624e+00
 1.0984736220e+00	 1.6710356971e-01	 2.4986560056e+00
 1.0965513271e+00	 1.7928493584e-01	 2.5172307366e+00
 1.1121243413e+00	 1.1942832891e-01	 2.5185708045e+00
 1.1107519146e+00	 1.3158214323e-01	 2.5308693223e+00
 1.1092406874e+00	 1.4376638585e-01	 2.5445712086e+00
 1.1075893872e+00	 1.5597892708e-01	 2.5592748000e+00
 1.1057967795e+00	 1.6821759351e-01	 2.5747008299e+00
 1.1038616693e+00	 1.8048016875e-01	 2.5905517397e+00
 1.1194894032e+00	 1.2021924499e-01	 2.5968603796e+00
 1.1181078876e+00	 1.3245354815e-01	 2.6049834073e+00
 1.1165866522e+00	 1.4471848112e-01	 2.6142728331e+00
 1.1149244162e+00	 1.5701190010e-01	 2.6246651556e+00
 1.1131199370e+00	 1.6933161731e-01	 2.6362193239e+00
 1.1111720115e+00	 1.8167540165e-01	 2.6491029053e+00
 1.1268544650e+00	 1.2101016108e-01	 2.6724394061e+00
 1.1254638605e+00	 1.3332495308e-01	 2.6771118875e+00
 1.1239326170e+00	 1.4567057640e-01	 2.6824869933e+00
 1.1222594453e+00	 1.5804487313e-01	 2.6884138820e+00
 1.1204430944e+00	 1.7044564111e-01	 2.6948645269e+00
 1.1184823537e+00	 1.8287063456e-01	 2.7019210923e+00
 1.1342195269e+00	 1.2180107716e-01	 2.7451708025e+00
 1.1328198335e+00	 1.3419635800e-01	 2.7471421418e+00
 1.1312785818e+00	 1.4662267167e-01	 2.7495475018e+00
 1.1295944743e+00	 1.5907784616e-01	 2.7521835581e+00
 1.1277662519e+00	 1.7155966490e-01	 2.7549698394e+00
 1.1257926958e+00	 1.8406586747e-01	 2.7579373016e+00
 1.1415845888e+00	 1.2259199325e-01	 2.8149239673e+00
 1.1401758064e+00	 1.3506776292e-01	 2.8149532144e+00
 1.1386245467e+00	 1.4757476694e-01	 2.8153328206e+00
 1.1369295034e+00	 1.6011081918e-01	 2.8158406072e+00
 1.1350894094e+00	 1.7267368870e-01	 2.8163769666e+00
 1.1331030380e+00	 1.8526110037e-01	 2.8169546314e+00
 1.0965513271e+00	 1.7928493584e-01	 2.5172307366e+00
 1.0944863272e+00	 1.9148780869e-01	 2.5353801817e+00
 1.0922775181e+00	 2.0370990326e-01	 2.5528972291e+00
 1.0899238397e+00	 2.1594889414e-01	 2.5707064885e+00
 1.0874242771e+00	 2.2820241642e-01	 2.5896006101e+00
 1.0847778621e+00	 2.4046806663e-01	 2.6102104650e+00
 1.1038616693e+00	 1.8048016875e-01	 2.5905517397e+00
 1.1017829027e+00	 1.9276439408e-01	 2.6055848501e+00
 1.0995593682e+00	 2.0506796928e-01	 2.6194386740e+00
 1.0971899986e+00	 2.1738855343e-01	 2.6330200350e+00
 1.0946737723e+00	 2.2972376587e-01	 2.6470953464e+00
 1.0920097145e+00	 2.4207118708e-01	 2.6622594549e+00
 1.1111720115e+00	 1.8167540165e-01	 2.6491029053e+00
 1.1090794782e+00	 1.9404097947e-01	 2.6617392563e+00
 1.1068412183e+00	 2.0642603530e-01	 2.6729633958e+00
 1.1044561576e+00	 2.1882821273e-01	 2.6836659431e+00
 1.1019232674e+00	 2.3124511531e-01	 2.6945889998e+00
 1.0992415670e+00	 2.4367430752e-01	 2.7062929582e+00
 1.1184823537e+00	 1.8287063456e-01	 2.7019210923e+00
 1.1163760537e+00	 1.9531756486e-01	 2.7085396908e+00
 1.1141230685e+00	 2.0778410132e-01	 2.7146629685e+00
 1.1117223165e+00	 2.2026787202e-01	 2.7219633548e+00
 1.1091727626e+00	 2.3276646475e-01	 2.7312427584e+00
 1.1064734194e+00	 2.4527742797e-01	 2.7414033266e+00
 1.1257926958e+00	 1.8406586747e-01	 2.7579373016e+00
 1.1236726292e+00	 1.9659415026e-01	 2.7598199798e+00
 1.1214049186e+00	 2.0914216734e-01	 2.7602714306e+00
 1.1189884754e+00	 2.2170753132e-01	 2.7608175765e+00
 1.1164222578e+00	 2.3428781419e-01	 2.7630171910e+00
 1.1137052718e+00	 2.4688054841e-01	 2.7684333163e+00
 1.1331030380e+00	 1.8526110037e-01	 2.8169546314e+00
 1.1309692047e+00	 1.9787073565e-01	 2.8161226493e+00
 1.1286867687e+00	 2.1050023337e-01	 2.8132526544e+00
 1.1262546344e+00	 2.2314719061e-01	 2.8097122672e+00
 1.1236717530e+00	 2.3580916364e-01	 2.8069082226e+00
 1.1209371242e+00	 2.4848366885e-01	 2.8062589757e+00
 1.0847778621e+00	 2.4046806663e-01	 2.6102104650e+00
 1.0819836751e+00	 2.5274340376e-01	 2.6309185912e+00
 1.0790408458e+00	 2.6502595032e-01	 2.6506016057e+00
 1.0759485554e+00	 2.7731319351e-01	 2.6703111628e+00
 1.0727060376e+00	 2.8960258639e-01	 2.6908364158e+00
 1.0693125800e+00	 3.0189154915e-01	 2.7126806955e+00
 1.0920097145e+00	 2.4207118708e-01	 2.6622594549e+00
 1.0891968996e+00	 2.5442835978e-01	 2.6768475654e+00
 1.0862344514e+00	 2.6679278999e-01	 2.6899374244e+00
 1.0831215458e+00	 2.7916194813e-01	 2.7029000580e+00
 1.0798574112e+00	 2.9153327030e-01	 2.7168302761e+00
 1.0764413306e+00	 3.0390415948e-01	 2.7325215799e+00
 1.0992415670e+00	 2.4367430752e-01	 2.7062929582e+00
 1.0964101241e+00	 2.5611331581e-01	 2.7170245097e+00
 1.0934280571e+00	 2.6855962965e-01	 2.7258796976e+00
 1.0902945362e+00	 2.8101070276e-01	 2.7343383086e+00
 1.0870087848e+00	 2.9346395421e-01	 2.7435913303e+00
 1.0835700811e+00	 3.0591676981e-01	 2.7545145289e+00
 1.1064734194e+00	 2.4527742797e-01	 2.7414033266e+00
 1.1036233486e+00	 2.5779827183e-01	 2.7505025445e+00
 1.1006216627e+00	 2.7032646932e-01	 2.7574984715e+00
 1.0974675265e+00	 2.8285945738e-01	 2.7637737191e+00
 1.0941601584e+00	 2.9539463812e-01	 2.7704106142e+00
 1.0906988316e+00	 3.0792938014e-01	 2.7781638814e+00
 1.1137052718e+00	 2.4688054841e-01	 2.7684333163e+00
 1.1108365731e+00	 2.5948322786e-01	 2.7763599235e+00
 1.1078152683e+00	 2.7209330899e-01	 2.7838893402e+00
 1.1046405169e+00	 2.8470821200e-01	 2.7903786549e+00
 1.1013115320e+00	 2.9732532203e-01	 2.7966012252e+00
 1.0978275822e+00	 3.0994199046e-01	 2.8029919138e+00
 1.1209371242e+00	 2.4848366885e-01	 2.8062589757e+00
 1.1180497976e+00	 2.6116818388e-01	 2.8069106883e+00
 1.1150088740e+00	 2.7386014866e-01	 2.8085861550e+00
 1.1118135073e+00	 2.8655696663e-01	 2.8135005397e+00
 1.1084629056e+00	 2.9925600594e-01	 2.8214978585e+00
 1.1049563327e+00	 3.1195460079e-01	 2.8285385534e+00
 1.0693125800e+00	 3.0189154915e-01	 2.7126806955e+00
 1.0657675255e+00	 3.1417747040e-01	 2.7336774677e+00
 1.0620702735e+00	 3.2645770857e-01	 2.7531081337e+00
 1.0582202813e+00	 3.3872959330e-01	 2.7731257273e+00
 1.0542170656e+00	 3.5099042698e-01	 2.7954760869e+00
 1.0500602030e+00	 3.6323748623e-01	 2.8214842855e+00
 1.0764413306e+00	 3.0390415948e-01	 2.7325215799e+00
 1.0728726423e+00	 3.1627198687e-01	 2.7475356504e+00
 1.0691507419e+00	 3.2863409329e-01	 2.7607600339e+00
 1.0652750832e+00	 3.4098779059e-01	 2.7744232009e+00
 1.0612451794e+00	 3.5333036316e-01	 2.7903202357e+00
 1.0570606043e+00	 3.6565906947e-01	 2.8097983509e+00
 1.0835700811e+00	 3.0591676981e-01	 2.7545145289e+00
 1.0799777591e+00	 3.1836650334e-01	 2.7642063051e+00
 1.0762312104e+00	 3.3081047802e-01	 2.7712225749e+00
 1.0723298851e+00	 3.4324598788e-01	 2.7780397934e+00
 1.0682732931e+00	 3.5567029934e-01	 2.7866723911e+00
 1.0640610057e+00	 3.6808065271e-01	 2.7986569429e+00
 1.0906988316e+00	 3.0792938014e-01	 2.7781638814e+00
 1.0870828760e+00	 3.2046101981e-01	 2.7834272814e+00
 1.0833116789e+00	 3.3298686274e-01	 2.7844322378e+00
 1.0793846870e+00	 3.4550418517e-01	 2.7840724537e+00
 1.0753014069e+00	 3.5801023552e-01	 2.7847485070e+00
 1.0710614070e+00	 3.7050223595e-01	 2.7883515874e+00
 1.0978275822e+00	 3.0994199046e-01	 2.8029919138e+00
 1.0941879928e+00	 3.2255553628e-01	 2.8049499196e+00
 1.0903921474e+00	 3.3516324746e-01	 2.8003356613e+00
 1.0864394889e+00	 3.4776238246e-01	 2.7926261586e+00
 1.0823295207e+00	 3.6035017170e-01	 2.7847717274e+00
 1.0780618084e+00	 3.7292381919e-01	 2.7796758435e+00
 1.1049563327e+00	 3.1195460079e-01	 2.8285385534e+00
 1.1012931096e+00	 3.2465005275e-01	 2.8285389563e+00
 1.0974726159e+00	 3.3733963219e-01	 2.8188897076e+00
 1.0934942907e+00	 3.5002057975e-01	 2.8038141047e+00
 1.0893576345e+00	 3.6269010788e-01	 2.7869726665e+00
 1.0850622097e+00	 3.7534540243e-01	 2.7733229846e+00
 1.0500602030e+00	 3.6323748623e-01	 2.8214842855e+00
 1.0457493316e+00	 3.7546802352e-01	 2.8407759172e+00
 1.0412841523e+00	 3.8767926885e-01	 2.8573346756e+00
 1.0366644292e+00	 3.9986843136e-01	 2.8742098442e+00
 1.0318899914e+00	 4.1203270116e-01	 2.8903468296e+00
 1.0269607333e+00	 4.2416925110e-01	 2.9045483942e+00
 1.0570606043e+00	 3.6565906947e-01	 2.8097983509e+00
 1.0527209938e+00	 3.7797114368e-01	 2.8243253392e+00
 1.0482260466e+00	 3.9026379730e-01	 2.8371943436e+00
 1.0435755254e+00	 4.0253422090e-01	 2.8492849989e+00
 1.0387692580e+00	 4.1477958584e-01	 2.8596070861e+00
 1.0338071381e+00	 4.2699704611e-01	 2.8670326888e+00
 1.0640610057e+00	 3.6808065271e-01	 2.7986569429e+00
 1.0596926560e+00	 3.8047426384e-01	 2.8084105023e+00
 1.0551679410e+00	 3.9284832576e-01	 2.8167974792e+00
 1.0504866216e+00	 4.0520001044e-01	 2.8235407477e+00
 1.0456485246e+00	 4.1752647051e-01	 2.8278129317e+00
 1.0406535430e+00	 4.2982484111e-01	 2.8286518356e+00
 1.0710614070e+00	 3.7050223595e-01	 2.7883515874e+00
 1.0666643182e+00	 3.8297738399e-01	 2.7933281246e+00
 1.0621098353e+00	 3.9543285422e-01	 2.7964138939e+00
 1.0573977178e+00	 4.0786579998e-01	 2.7971838783e+00
 1.0525277913e+00	 4.2027335519e-01	 2.7950698897e+00
 1.0474999479e+00	 4.3265263612e-01	 2.7893697611e+00
 1.0780618084e+00	 3.7292381919e-01	 2.7796758435e+00
 1.0736359804e+00	 3.8548050415e-01	 2.7793736315e+00
 1.0690517297e+00	 3.9801738268e-01	 2.7763126716e+00
 1.0643088140e+00	 4.1053158953e-01	 2.7704219066e+00
 1.0594070579e+00	 4.2302023986e-01	 2.7614866156e+00
 1.0543463528e+00	 4.3548043113e-01	 2.7491569335e+00
 1.0850622097e+00	 3.7534540243e-01	 2.7733229846e+00
 1.0806076427e+00	 3.8798362431e-01	 2.7668409740e+00
 1.0759936240e+00	 4.0060191114e-01	 2.7567619328e+00
 1.0712199102e+00	 4.1319737907e-01	 2.7434627571e+00
 1.0662863245e+00	 4.2576712454e-01	 2.7271744625e+00
 1.0611927577e+00	 4.3830822614e-01	 2.7079897782e+00
 1.0269607333e+00	 4.2416925110e-01	 2.9045483942e+00
 1.0218766156e+00	 4.3627523857e-01	 2.9175042540e+00
 1.0166376664e+00	 4.4834780744e-01	 2.9296884444e+00
 1.0112439819e+00	 4.6038408994e-01	 2.9394544925e+00
 1.0056957268e+00	 4.7238120866e-01	 2.9451322217e+00
 9.9999313525e-01	 4.8433627852e-01	 2.9450388631e+00
 1.0338071381e+00	 4.2699704611e-01	 2.8670326888e+00
 1.0286891263e+00	 4.3918374016e-01	 2.8727698015e+00
 1.0234152509e+00	 4.5133679282e-01	 2.8778029565e+00
 1.0179856085e+00	 4.6345331720e-01	 2.8805422719e+00
 1.0124003650e+00	 4.7553041671e-01	 2.8793675882e+00
 1.0066597562e+00	 4.8756518704e-01	 2.8726393527e+00
 1.0406535430e+00	 4.2982484111e-01	 2.8286518356e+00
 1.0355016371e+00	 4.4209224175e-01	 2.8277915060e+00
 1.0301928353e+00	 4.5432577820e-01	 2.8265435868e+00
 1.0247272350e+00	 4.6652254447e-01	 2.8231860634e+00
 1.0191050032e+00	 4.7867962477e-01	 2.8159648818e+00
 1.0133263771e+00	 4.9079409556e-01	 2.8031050779e+00
 1.0474999479e+00	 4.3265263612e-01	 2.7893697611e+00
 1.0423141479e+00	 4.4500074334e-01	 2.7824042883e+00
 1.0369704198e+00	 4.5731476359e-01	 2.7756856927e+00
 1.0314688616e+00	 4.6959177174e-01	 2.7671748963e+00
 1.0258096414e+00	 4.8182883283e-01	 2.7548037822e+00
 1.0199929980e+00	 4.9402300409e-01	 2.7364870361e+00
 1.0543463528e+00	 4.3548043113e-01	 2.7491569335e+00
 1.0491266587e+00	 4.4790924493e-01	 2.7364526529e+00
 1.0437480042e+00	 4.6030374897e-01	 2.7250154169e+00
 1.0382104881e+00	 4.7266099900e-01	 2.7123078508e+00
 1.0325142795e+00	 4.8497804089e-01	 2.6957712568e+00
 1.0266596189e+00	 4.9725191261e-01	 2.6728386280e+00
 1.0611927577e+00	 4.3830822614e-01	 2.7079897782e+00
 1.0559391694e+00	 4.5081774652e-01	 2.6897899651e+00
 1.0505255886e+00	 4.6329273435e-01	 2.6743288843e+00
 1.0449521146e+00	 4.7573022627e-01	 2.6583932371e+00
 1.0392189177e+00	 4.8812724895e-01	 2.6387607862e+00
 1.0333262398e+00	 5.0048082113e-01	 2.6122149978e+00
 9.9999313525e-01	 4.8433627852e-01	 2.9450388631e+00
 9.9413651123e-01	 4.9624640883e-01	 2.9435278119e+00
 9.8812622918e-01	 5.0810870533e-01	 2.9440070100e+00
 9.8196273435e-01	 5.1992027233e-01	 2.9433971293e+00
 9.7564654315e-01	 5.3167821478e-01	 2.9386623030e+00
 9.6917824345e-01	 5.4337964046e-01	 2.9268232331e+00
 1.0066597562e+00	 4.8756518704e-01	 2.8726393527e+00
 1.0007640880e+00	 4.9955471822e-01	 2.8649157032e+00
 9.9471373738e-01	 5.1149609670e-01	 2.8596605944e+00
 9.8850915258e-01	 5.2338640748e-01	 2.8536138797e+00
 9.8215085344e-01	 5.3522273622e-01	 2.8435649272e+00
 9.7563943174e-01	 5.4700217139e-01	 2.8263660892e+00
 1.0133263771e+00	 4.9079409556e-01	 2.8031050779e+00
 1.0073916647e+00	 5.0286302761e-01	 2.7892952376e+00
 1.0013012456e+00	 5.1488348807e-01	 2.7781973165e+00
 9.9505557081e-01	 5.2685254263e-01	 2.7665166984e+00
 9.8865516372e-01	 5.3876725765e-01	 2.7510090872e+00
 9.8210062003e-01	 5.5062470233e-01	 2.7284939373e+00
 1.0199929980e+00	 4.9402300409e-01	 2.7364870361e+00
 1.0140192415e+00	 5.0617133700e-01	 2.7168955992e+00
 1.0078887538e+00	 5.1827087944e-01	 2.6999531905e+00
 1.0016019890e+00	 5.3031867778e-01	 2.6824741241e+00
 9.9515947401e-01	 5.4231177908e-01	 2.6613186628e+00
 9.8856180832e-01	 5.5424723327e-01	 2.6334060126e+00
 1.0266596189e+00	 4.9725191261e-01	 2.6728386280e+00
 1.0206468182e+00	 5.0947964639e-01	 2.6479432924e+00
 1.0144762620e+00	 5.2165827081e-01	 2.6252583038e+00
 1.0081484073e+00	 5.3378481293e-01	 2.6018474396e+00
 1.0016637843e+00	 5.4585630051e-01	 2.5748109475e+00
 9.9502299661e-01	 5.5786976420e-01	 2.5412977102e+00
 1.0333262398e+00	 5.0048082113e-01	 2.6122149978e+00
 1.0272743949e+00	 5.1278795579e-01	 2.5826616012e+00
 1.0210637702e+00	 5.2504566218e-01	 2.5544363374e+00
 1.0146948255e+00	 5.3725094808e-01	 2.5249901923e+00
 1.0081680946e+00	 5.4940082194e-01	 2.4917961037e+00
 1.0014841849e+00	 5.6149229514e-01	 2.4523599075e+00
 9.6917824345e-01	 5.4337964046e-01	 2.9268232331e+00
 9.6255849476e-01	 5.5502166210e-01	 2.9116076365e+00
 9.5578802838e-01	 5.6660139962e-01	 2.8967318631e+00
 9.4886764740e-01	 5.7811598227e-01	 2.8793446563e+00
 9.4179822670e-01	 5.8956255089e-01	 2.8567311999e+00
 9.3458071283e-01	 6.0093826009e-01	 2.8263249326e+00
 9.7563943174e-01	 5.4700217139e-01	 2.8263660892e+00
 9.6897555139e-01	 5.5872180651e-01	 2.8057912599e+00
 9.6215994857e-01	 5.7037874228e-01	 2.7856909610e+00
 9.5519343171e-01	 5.8197008882e-01	 2.7631804270e+00
 9.4807688155e-01	 5.9349296790e-01	 2.7355083424e+00
 9.4081125092e-01	 6.0494451515e-01	 2.7000685222e+00
 9.8210062003e-01	 5.5062470233e-01	 2.7284939373e+00
 9.7539260802e-01	 5.6242195093e-01	 2.7028555063e+00
 9.6853186876e-01	 5.7415608494e-01	 2.6779866148e+00
 9.6151921603e-01	 5.8582419537e-01	 2.6508690127e+00
 9.5435553639e-01	 5.9742338490e-01	 2.6186192913e+00
 9.4704178900e-01	 6.0895077022e-01	 2.5785006720e+00
 9.8856180832e-01	 5.5424723327e-01	 2.6334060126e+00
 9.8180966466e-01	 5.6612209534e-01	 2.6028599903e+00
 9.7490378894e-01	 5.7793342761e-01	 2.5735920513e+00
 9.6784500035e-01	 5.8967830192e-01	 2.5423525041e+00
 9.6063419124e-01	 6.0135380191e-01	 2.5060322163e+00
 9.5327232709e-01	 6.1295702529e-01	 2.4616747511e+00
 9.9502299661e-01	 5.5786976420e-01	 2.5412977102e+00
 9.8822672129e-01	 5.6982223975e-01	 2.5058636244e+00
 9.8127570913e-01	 5.8171077027e-01	 2.4724815604e+00
 9.7417078466e-01	 5.9353240846e-01	 2.4375743999e+00
 9.6691284608e-01	 6.0528421892e-01	 2.3977155741e+00
 9.5950286517e-01	 6.1696328036e-01	 2.3496417851e+00
 1.0014841849e+00	 5.6149229514e-01	 2.4523599075e+00
 9.9464377792e-01	 5.7352238417e-01	 2.4119237984e+00
 9.8764762932e-01	 5.8548811294e-01	 2.3746295759e+00
 9.8049656898e-01	 5.9738651501e-01	 2.3364786353e+00
 9.7319150093e-01	 6.0921463592e-01	 2.2936371333e+00
 9.6573340326e-01	 6.2096953542e-01	 2.2424495264e+00
 9.3458071283e-01	 6.0093826009e-01	 2.8263249326e+00
 9.2721612379e-01	 6.1224028046e-01	 2.7920427796e+00
 9.1970554877e-01	 6.2346580083e-01	 2.7576811869e+00
 9.1205014776e-01	 6.3461203046e-01	 2.7207862251e+00
 9.0425115117e-01	 6.4567620124e-01	 2.6791467323e+00
 8.9630985922e-01	 6.5665556992e-01	 2.6308051076e+00
 9.4081125092e-01	 6.0494451515e-01	 2.7000685222e+00
 9.3339756462e-01	 6.1632188233e-01	 2.6610870000e+00
 9.2583691909e-01	 6.2762223950e-01	 2.6226109604e+00
 9.1813048208e-01	 6.3884277733e-01	 2.5820613252e+00
 9.1027949218e-01	 6.4998070925e-01	 2.5371078459e+00
 9.0228525828e-01	 6.6103327372e-01	 2.4856800408e+00
 9.4704178900e-01	 6.0895077022e-01	 2.5785006720e+00
 9.3957900544e-01	 6.2040348420e-01	 2.5350119208e+00
 9.3196828942e-01	 6.3177867817e-01	 2.4925054995e+00
 9.2421081640e-01	 6.4307352420e-01	 2.4483233032e+00
 9.1630783318e-01	 6.5428521726e-01	 2.4000581413e+00
 9.0826065734e-01	 6.6541097752e-01	 2.3455646756e+00
 9.5327232709e-01	 6.1295702529e-01	 2.4616747511e+00
 9.4576044627e-01	 6.2448508607e-01	 2.4139639478e+00
 9.3809965974e-01	 6.3593511685e-01	 2.3675589317e+00
 9.3029115072e-01	 6.4730427107e-01	 2.3197677838e+00
 9.2233617419e-01	 6.5858972526e-01	 2.2681476567e+00
 9.1423605640e-01	 6.6978868131e-01	 2.2105155678e+00
 9.5950286517e-01	 6.1696328036e-01	 2.3496417851e+00
 9.5194188709e-01	 6.2856668794e-01	 2.2980843399e+00
 9.4423103007e-01	 6.4009155552e-01	 2.2479586469e+00
 9.3637148504e-01	 6.5153501794e-01	 2.1965833059e+00
 9.2836451520e-01	 6.6289423327e-01	 2.1415202647e+00
 9.2021145546e-01	 6.7416638511e-01	 2.0805853236e+00
 9.6573340326e-01	 6.2096953542e-01	 2.2424495264e+00
 9.5812332792e-01	 6.3264828981e-01	 2.1875083328e+00
 9.5036240039e-01	 6.4424799419e-01	 2.1338844377e+00
 9.4245181935e-01	 6.5576576481e-01	 2.0789504406e+00
 9.3439285621e-01	 6.6719874128e-01	 2.0203127299e+00
 9.2618685453e-01	 6.7854408891e-01	 1.9558215555e+00
 8.9630985922e-01	 6.5665556992e-01	 2.6308051076e+00
 8.8822764139e-01	 6.6754742026e-01	 2.5773086904e+00
 8.8000593573e-01	 6.7834906524e-01	 2.5206232639e+00
 8.7164624804e-01	 6.8905784918e-01	 2.4598558984e+00
 8.6315015108e-01	 6.9967114985e-01	 2.3944409931e+00
 8.5451928359e-01	 7.1018638061e-01	 2.3241478481e+00
 9.0228525828e-01	 6.6103327372e-01	 2.4856800408e+00
 8.9414915900e-01	 6.7199773640e-01	 2.4294364911e+00
 8.8587264197e-01	 6.8287139234e-01	 2.3704315292e+00
 8.7745722303e-01	 6.9365156817e-01	 2.3076367345e+00
 8.6890448542e-01	 7.0433562418e-01	 2.2403601294e+00
 8.6021607882e-01	 7.1492095648e-01	 2.1682539989e+00
 9.0826065734e-01	 6.6541097752e-01	 2.3455646756e+00
 9.0007067661e-01	 6.7644805253e-01	 2.2866732180e+00
 8.9173934821e-01	 6.8739371945e-01	 2.2255323189e+00
 8.8326819801e-01	 6.9824528717e-01	 2.1609346438e+00
 8.7465881976e-01	 7.0900009851e-01	 2.0920237889e+00
 8.6591287404e-01	 7.1965553235e-01	 2.0183024532e+00
 9.1423605640e-01	 6.6978868131e-01	 2.2105155678e+00
 9.0599219422e-01	 6.8089836867e-01	 2.1489872468e+00
 8.9760605444e-01	 6.9191604655e-01	 2.0858654664e+00
 8.8907917300e-01	 7.0283900616e-01	 2.0197214364e+00
 8.8041315410e-01	 7.1366457285e-01	 1.9494970799e+00
 8.7160966926e-01	 7.2439010822e-01	 1.8745136652e+00
 9.2021145546e-01	 6.7416638511e-01	 2.0805853236e+00
 9.1191371183e-01	 6.8534868480e-01	 2.0163451358e+00
 9.0347276068e-01	 6.9643837365e-01	 1.9513696313e+00
 8.9489014799e-01	 7.0743272515e-01	 1.8839668818e+00
 8.8616748844e-01	 7.1832904718e-01	 1.8128406774e+00
 8.7730646449e-01	 7.2912468409e-01	 1.7370997194e+00
 9.2618685453e-01	 6.7854408891e-01	 1.9558215555e+00
 9.1783522944e-01	 6.8979900094e-01	 1.8887104870e+00
 9.0933946692e-01	 7.0096070075e-01	 1.8219811135e+00
 9.0070112297e-01	 7.1202644415e-01	 1.7536375293e+00
 8.9192182278e-01	 7.2299352151e-01	 1.6821097001e+00
 8.8300325971e-01	 7.3385925996e-01	 1.6062633181e+00
 8.5451928359e-01	 7.1018638061e-01	 2.3241478481e+00
 8.4575534933e-01	 7.2060099245e-01	 2.2497273389e+00
 8.3686011593e-01	 7.3091247602e-01	 2.1710963950e+00
 8.2783541381e-01	 7.4111836361e-01	 2.0873402603e+00
 8.1868313485e-01	 7.5121623115e-01	 1.9993908132e+00
 8.0940523117e-01	 7.6120370006e-01	 1.9115471061e+00
 8.6021607882e-01	 7.1492095648e-01	 2.1682539989e+00
 8.5139371832e-01	 7.2540499907e-01	 2.0922908006e+00
 8.4243918337e-01	 7.3578522586e-01	 2.0125713677e+00
 8.3335431657e-01	 7.4605915270e-01	 1.9280591267e+00
 8.2414102242e-01	 7.5622433936e-01	 1.8401481767e+00
 8.1480126605e-01	 7.6627839139e-01	 1.7531819261e+00
 8.6591287404e-01	 7.1965553235e-01	 2.0183024532e+00
 8.5703208732e-01	 7.3020900568e-01	 1.9409384010e+00
 8.4801825081e-01	 7.4065797570e-01	 1.8602565765e+00
 8.3887321932e-01	 7.5099994179e-01	 1.7747903128e+00
 8.2959890998e-01	 7.6123244757e-01	 1.6867615866e+00
 8.2019730092e-01	 7.7135308273e-01	 1.6007275879e+00
 8.7160966926e-01	 7.2439010822e-01	 1.8745136652e+00
 8.6267045631e-01	 7.3501301230e-01	 1.7960521373e+00
 8.5359731825e-01	 7.4553072554e-01	 1.7143057959e+00
 8.4439212208e-01	 7.5594073088e-01	 1.6274736375e+00
 8.3505679755e-01	 7.6624055577e-01	 1.5391653780e+00
 8.2559333580e-01	 7.7642777406e-01	 1.4540574820e+00
 8.7730646449e-01	 7.2912468409e-01	 1.7370997194e+00
 8.6830882531e-01	 7.3981701892e-01	 1.6580016108e+00
 8.5917638569e-01	 7.5040347538e-01	 1.5744407060e+00
 8.4991102484e-01	 7.6088151997e-01	 1.4860332888e+00
 8.4051468511e-01	 7.7124866398e-01	 1.3972782748e+00
 8.3098937067e-01	 7.8150246539e-01	 1.3130308039e+00
 8.8300325971e-01	 7.3385925996e-01	 1.6062633181e+00
 8.7394719430e-01	 7.4462102553e-01	 1.5266786569e+00
 8.6475545313e-01	 7.5527622522e-01	 1.4405244248e+00
 8.5542992760e-01	 7.6582230907e-01	 1.3503786692e+00
 8.4597257268e-01	 7.7625677219e-01	 1.2610042141e+00
 8.3638540555e-01	 7.8657715673e-01	 1.1774933096e+00
 8.0940523117e-01	 7.6120370006e-01	 1.9115471061e+00
 8.0000371369e-01	 7.7107843914e-01	 1.8173302864e+00
 7.9048065071e-01	 7.8083816638e-01	 1.7108711770e+00
 7.8083816638e-01	 7.9048065071e-01	 1.5978363115e+00
 7.7107843914e-01	 8.0000371369e-01	 1.4839167308e+00
 7.6120370006e-01	 8.0940523117e-01	 1.3747896785e+00
 8.1480126605e-01	 7.6627839139e-01	 1.7531819261e+00
 8.0533707179e-01	 7.7621896207e-01	 1.6598998574e+00
 7.9575052172e-01	 7.8604375416e-01	 1.5539967574e+00
 7.8604375416e-01	 7.9575052172e-01	 1.4416622388e+00
 7.7621896207e-01	 8.0533707179e-01	 1.3291056218e+00
 7.6627839139e-01	 8.1480126605e-01	 1.2225152335e+00
 8.2019730092e-01	 7.7135308273e-01	 1.6007275879e+00
 8.1067042988e-01	 7.8135948500e-01	 1.5086276323e+00
 8.0102039272e-01	 7.9124934194e-01	 1.4036035654e+00
 7.9124934194e-01	 8.0102039272e-01	 1.2922791034e+00
 7.8135948500e-01	 8.1067042988e-01	 1.1812937095e+00
 7.7135308273e-01	 8.2019730092e-01	 1.0772596347e+00
 8.2559333580e-01	 7.7642777406e-01	 1.4540574820e+00
 8.1600378797e-01	 7.8650000792e-01	 1.3633009751e+00
 8.0629026373e-01	 7.9645492971e-01	 1.2594001701e+00
 7.9645492971e-01	 8.0629026373e-01	 1.1493257598e+00
 7.8650000792e-01	 8.1600378797e-01	 1.0400610583e+00
 7.7642777406e-01	 8.2559333580e-01	 9.3855691841e-01
 8.3098937067e-01	 7.8150246539e-01	 1.3130308039e+00
 8.2133714606e-01	 7.9164053085e-01	 1.2236950849e+00
 8.1156013473e-01	 8.0166051749e-01	 1.1210847857e+00
 8.0166051749e-01	 8.1156013473e-01	 1.0124322586e+00
 7.9164053085e-01	 8.2133714606e-01	 9.0498018075e-01
 7.8150246539e-01	 8.3098937067e-01	 8.0593448064e-01
 8.3638540555e-01	 7.8657715673e-01	 1.1774933096e+00
 8.2667050415e-01	 7.9678105378e-01	 1.0895736599e+00
 8.1683000574e-01	 8.0686610526e-01	 9.8834585127e-01
 8.0686610526e-01	 8.1683000574e-01	 8.8122034671e-01
 7.9678105378e-01	 8.2667050415e-01	 7.7561646540e-01
 7.8657715673e-01	 8.3638540555e-01	 6.7891344385e-01
 7.6120370006e-01	 8.0940523117e-01	 1.3747896785e+00
 7.5121623115e-01	 8.1868313485e-01	 1.2632024431e+00
 7.4111836361e-01	 8.2783541381e-01	 1.1411262860e+00
 7.3091247602e-01	 8.3686011593e-01	 1.0134860223e+00
 7.2060099245e-01	 8.4575534933e-01	 8.8246366531e-01
 7.1018638061e-01	 8.5451928359e-01	 7.4769075146e-01
 7.6627839139e-01	 8.1480126605e-01	 1.2225152335e+00
 7.5622433936e-01	 8.2414102242e-01	 1.1142609524e+00
 7.4605915270e-01	 8.3335431657e-01	 9.9554477774e-01
 7.3578522586e-01	 8.4243918337e-01	 8.7067691596e-01
 7.2540499907e-01	 8.5139371832e-01	 7.4281440566e-01
 7.1492095648e-01	 8.6021607882e-01	 6.1171907555e-01
 7.7135308273e-01	 8.2019730092e-01	 1.0772596347e+00
 7.6123244757e-01	 8.2959890998e-01	 9.7212942206e-01
 7.5099994179e-01	 8.3887321932e-01	 8.5640189885e-01
 7.4065797570e-01	 8.4801825081e-01	 7.3425573979e-01
 7.3020900568e-01	 8.5703208732e-01	 6.0917132974e-01
 7.1965553235e-01	 8.6591287404e-01	 4.8147150901e-01
 7.7642777406e-01	 8.2559333580e-01	 9.3855691841e-01
 7.6624055577e-01	 8.3505679755e-01	 8.3632694066e-01
 7.5594073088e-01	 8.4439212208e-01	 7.2324912502e-01
 7.4553072554e-01	 8.5359731825e-01	 6.0356067207e-01
 7.3501301230e-01	 8.6267045631e-01	 4.8101375074e-01
 7.2439010822e-01	 8.7160966926e-01	 3.5658824756e-01
 7.8150246539e-01	 8.3098937067e-01	 8.0593448064e-01
 7.7124866398e-01	 8.4051468511e-01	 7.0636606147e-01
 7.6088151997e-01	 8.4991102484e-01	 5.9563028051e-01
 7.5040347538e-01	 8.5917638569e-01	 4.7809600297e-01
 7.3981701892e-01	 8.6830882531e-01	 3.5781777961e-01
 7.2912468409e-01	 8.7730646449e-01	 2.3670222076e-01
 7.8657715673e-01	 8.3638540555e-01	 6.7891344385e-01
 7.7625677219e-01	 8.4597257268e-01	 5.8175313204e-01
 7.6582230907e-01	 8.5542992760e-01	 4.7308186933e-01
 7.5527622522e-01	 8.6475545313e-01	 3.5747207741e-01
 7.4462102553e-01	 8.7394719430e-01	 2.3919158914e-01
 7.3385925996e-01	 8.8300325971e-01	 1.2143938024e-01
 7.1018638061e-01	 8.5451928359e-01	 7.4769075146e-01
 6.9967114985e-01	 8.6315015108e-01	 6.0967333331e-01
 6.8905784918e-01	 8.7164624804e-01	 4.6934499942e-01
 6.7834906524e-01	 8.8000593573e-01	 3.2638855015e-01
 6.6754742026e-01	 8.8822764139e-01	 1.8012695286e-01
 6.5665556992e-01	 8.9630985922e-01	 2.9533381865e-02
 7.1492095648e-01	 8.6021607882e-01	 6.1171907555e-01
 7.0433562418e-01	 8.6890448542e-01	 4.7791222082e-01
 6.9365156817e-01	 8.7745722303e-01	 3.4239016598e-01
 6.8287139234e-01	 8.8587264197e-01	 2.0470353152e-01
 6.7199773640e-01	 8.9414915900e-01	 6.4029792981e-02
 6.6103327372e-01	 9.0228525828e-01	-8.0816115131e-02
 7.1965553235e-01	 8.6591287404e-01	 4.8147150901e-01
 7.0900009851e-01	 8.7465881976e-01	 3.5172095226e-01
 6.9824528717e-01	 8.8326819801e-01	 2.2092752529e-01
 6.8739371945e-01	 8.9173934821e-01	 8.8469389125e-02
 6.7644805253e-01	 9.0007067661e-01	-4.6668451675e-02
 6.6541097752e-01	 9.0826065734e-01	-1.8588283388e-01
 7.2439010822e-01	 8.7160966926e-01	 3.5658824756e-01
 7.1366457285e-01	 8.8041315410e-01	 2.3088539258e-01
 7.0283900616e-01	 8.8907917300e-01	 1.0481677646e-01
 6.9191604655e-01	 8.9760605444e-01	-2.2451334511e-02
 6.8089836867e-01	 9.0599219422e-01	-1.5217245893e-01
 6.6978868131e-01	 9.1423605640e-01	-2.8600772824e-01
 7.2912468409e-01	 8.7730646449e-01	 2.3670222076e-01
 7.1832904718e-01	 8.8616748844e-01	 1.1518048816e-01
 7.0743272515e-01	 8.9489014799e-01	-6.0950703636e-03
 6.9643837365e-01	 9.0347276068e-01	-1.2820869651e-01
 6.8534868480e-01	 9.1191371183e-01	-2.5269758150e-01
 6.7416638511e-01	 9.2021145546e-01	-3.8153869312e-01
 7.3385925996e-01	 8.8300325971e-01	 1.2143938024e-01
 7.2299352151e-01	 8.9192182278e-01	 4.3706718104e-03
 7.1202644415e-01	 9.0070112297e-01	-1.1197323362e-01
 7.0096070075e-01	 9.0933946692e-01	-2.2896489825e-01
 6.8979900094e-01	 9.1783522944e-01	-3.4846945626e-01
 6.7854408891e-01	 9.2618685453e-01	-4.7283029726e-01
 6.5665556992e-01	 8.9630985922e-01	 2.9533381865e-02
 6.4567620124e-01	 9.0425115117e-01	-1.2334044135e-01
 6.3461203046e-01	 9.1205014776e-01	-2.7631112727e-01
 6.2346580083e-01	 9.1970554877e-01	-4.3068019690e-01
 6.1224028046e-01	 9.2721612379e-01	-5.8802744453e-01
 6.0093826009e-01	 9.3458071283e-01	-7.5019710014e-01
 6.6103327372e-01	 9.0228525828e-01	-8.0816115131e-02
 6.4998070925e-01	 9.1027949218e-01	-2.2777947710e-01
 6.3884277733e-01	 9.1813048208e-01	-3.7459945263e-01
 6.2762223950e-01	 9.2583691909e-01	-5.2264391618e-01
 6.1632188233e-01	 9.3339756462e-01	-6.7357280466e-01
 6.0494451515e-01	 9.4081125092e-01	-8.2932383028e-01
 6.6541097752e-01	 9.0826065734e-01	-1.8588283388e-01
 6.5428521726e-01	 9.1630783318e-01	-3.2714039299e-01
 6.4307352420e-01	 9.2421081640e-01	-4.6808617560e-01
 6.3177867817e-01	 9.3196828942e-01	-6.1014558453e-01
 6.2040348420e-01	 9.3957900544e-01	-7.5504238869e-01
 6.0895077022e-01	 9.4704178900e-01	-9.0478408305e-01
 6.6978868131e-01	 9.1423605640e-01	-2.8600772824e-01
 6.5858972526e-01	 9.2233617419e-01	-4.2189150013e-01
 6.4730427107e-01	 9.3029115072e-01	-5.5728097103e-01
 6.3593511685e-01	 9.3809965974e-01	-6.9365060414e-01
 6.2448508607e-01	 9.4576044627e-01	-8.3277214708e-01
 6.1295702529e-01	 9.5327232709e-01	-9.7669973431e-01
 6.7416638511e-01	 9.2021145546e-01	-3.8153869312e-01
 6.6289423327e-01	 9.2836451520e-01	-5.1250453327e-01
 6.5153501794e-01	 9.3637148504e-01	-6.4269563835e-01
 6.4009155552e-01	 9.4423103007e-01	-7.7362741210e-01
 6.2856668794e-01	 9.5194188709e-01	-9.0710417303e-01
 6.1696328036e-01	 9.5950286517e-01	-1.0452040936e+00
 6.7854408891e-01	 9.2618685453e-01	-4.7283029726e-01
 6.6719874128e-01	 9.3439285621e-01	-5.9945450045e-01
 6.5576576481e-01	 9.4245181935e-01	-7.2484399717e-01
 6.4424799419e-01	 9.5036240039e-01	-8.5054735096e-01
 6.3264828981e-01	 9.5812332792e-01	-9.7838647748e-01
 6.2096953542e-01	 9.6573340326e-01	-1.1104415138e+00
 6.0093826009e-01	 9.3458071283e-01	-7.5019710014e-01
 5.8956255089e-01	 9.4179822670e-01	-9.1383224851e-01
 5.7811598227e-01	 9.4886764740e-01	-1.0753782662e+00
 5.6660139962e-01	 9.5578802838e-01	-1.2366977397e+00
 5.5502166210e-01	 9.6255849476e-01	-1.3998086832e+00
 5.4337964046e-01	 9.6917824345e-01	-1.5668694895e+00
 6.0494451515e-01	 9.4081125092e-01	-8.2932383028e-01
 5.9349296790e-01	 9.4807688155e-01	-9.8624538932e-01
 5.8197008882e-01	 9.5519343171e-01	-1.1405059640e+00
 5.7037874228e-01	 9.6215994857e-01	-1.2940922288e+00
 5.5872180651e-01	 9.6897555139e-01	-1.4491382703e+00
 5.4700217139e-01	 9.7563943174e-01	-1.6079102035e+00
 6.0895077022e-01	 9.4704178900e-01	-9.0478408305e-01
 5.9742338490e-01	 9.5435553639e-01	-1.0553428380e+00
 5.8582419537e-01	 9.6151921603e-01	-1.2025616629e+00
 5.7415608494e-01	 9.6853186876e-01	-1.3485794470e+00
 5.6242195093e-01	 9.7539260802e-01	-1.4956848174e+00
 5.5062470233e-01	 9.8210062003e-01	-1.6463002224e+00
 6.1295702529e-01	 9.5327232709e-01	-9.7669973431e-01
 6.0135380191e-01	 9.6063419124e-01	-1.1210489104e+00
 5.8967830192e-01	 9.6784500035e-01	-1.2613889655e+00
 5.7793342761e-01	 9.7490378894e-01	-1.4000384522e+00
 5.6612209534e-01	 9.8180966466e-01	-1.5394781942e+00
 5.5424723327e-01	 9.8856180832e-01	-1.6823346426e+00
 6.1696328036e-01	 9.5950286517e-01	-1.0452040936e+00
 6.0528421892e-01	 9.6691284608e-01	-1.1833042034e+00
 5.9353240846e-01	 9.7417078466e-01	-1.3168495536e+00
 5.8171077027e-01	 9.8127570913e-01	-1.4483651466e+00
 5.6982223975e-01	 9.8822672129e-01	-1.5805608693e+00
 5.5786976420e-01	 9.9502299661e-01	-1.7163139280e+00
 6.2096953542e-01	 9.6573340326e-01	-1.1104415138e+00
 6.0921463592e-01	 9.7319150093e-01	-1.2420650535e+00
 5.9738651501e-01	 9.8049656898e-01	-1.3688225933e+00
 5.8548811294e-01	 9.8764762932e-01	-1.4934717283e+00
 5.7352238417e-01	 9.9464377792e-01	-1.6189875053e+00
 5.6149229514e-01	 1.0014841849e+00	-1.7485437443e+00
 5.4337964046e-01	 9.6917824345e-01	-1.5668694895e+00
 5.3167821478e-01	 9.7564654315e-01	-1.7347151263e+00
 5.1992027233e-01	 9.8196273435e-01	-1.8996917576e+00
 5.0810870533e-01	 9.8812622918e-01	-2.0633917294e+00
 4.9624640883e-01	 9.9413651123e-01	-2.2274910941e+00
 4.8433627852e-01	 9.9999313525e-01	-2.3937355621e+00
 5.4700217139e-01	 9.7563943174e-01	-1.6079102035e+00
 5.3522273622e-01	 9.8215085344e-01	-1.7673640046e+00
 5.2338640748e-01	 9.8850915258e-01	-1.9239575498e+00
 5.1149609670e-01	 9.9471373738e-01	-2.0793827590e+00
 4.9955471822e-01	 1.0007640880e+00	-2.2354311077e+00
 4.8756518704e-01	 1.0066597562e+00	-2.3939789450e+00
 5.5062470233e-01	 9.8210062003e-01	-1.6463002224e+00
 5.3876725765e-01	 9.8865516372e-01	-1.7976226225e+00
 5.2685254263e-01	 9.9505557081e-01	-1.9462604883e+00
 5.1488348807e-01	 1.0013012456e+00	-2.0939307884e+00
 5.0286302761e-01	 1.0073916647e+00	-2.2424541952e+00
 4.9079409556e-01	 1.0133263771e+00	-2.3937401183e+00
 5.5424723327e-01	 9.8856180832e-01	-1.6823346426e+00
 5.4231177908e-01	 9.9515947401e-01	-1.8260360000e+00
 5.3031867778e-01	 1.0016019890e+00	-1.9672523612e+00
 5.1827087944e-01	 1.0078887538e+00	-2.1076530939e+00
 5.0617133700e-01	 1.0140192415e+00	-2.2490038704e+00
 4.9402300409e-01	 1.0199929980e+00	-2.3931517597e+00
 5.5786976420e-01	 9.9502299661e-01	-1.7163139280e+00
 5.4585630051e-01	 1.0016637843e+00	-1.8531476766e+00
 5.3378481293e-01	 1.0081484073e+00	-1.9875803312e+00
 5.2165827081e-01	 1.0144762620e+00	-2.1211628378e+00
 5.0947964639e-01	 1.0206468182e+00	-2.2555236472e+00
 4.9725191261e-01	 1.0266596189e+00	-2.3923542078e+00
 5.6149229514e-01	 1.0014841849e+00	-1.7485437443e+00
 5.4940082194e-01	 1.0081680946e+00	-1.8794997722e+00
 5.3725094808e-01	 1.0146948255e+00	-2.0078871054e+00
 5.2504566218e-01	 1.0210637702e+00	-2.1350692277e+00
 5.1278795579e-01	 1.0272743949e+00	-2.2624570728e+00
 5.0048082113e-01	 1.0333262398e+00	-2.3914952541e+00
 4.8433627852e-01	 9.9999313525e-01	-2.3937355621e+00
 4.7238120866e-01	 1.0056957268e+00	-2.5590626726e+00
 4.6038408994e-01	 1.0112439819e+00	-2.7200560628e+00
 4.4834780744e-01	 1.0166376664e+00	-2.8779758194e+00
 4.3627523857e-01	 1.0218766156e+00	-3.0340745486e+00
 4.2416925110e-01	 1.0269607333e+00	-3.1895857213e+00
 4.8756518704e-01	 1.0066597562e+00	-2.3939789450e+00
 4.7553041671e-01	 1.0124003650e+00	-2.5517868900e+00
 4.6345331720e-01	 1.0179856085e+00	-2.7051591137e+00
 4.5133679282e-01	 1.0234152509e+00	-2.8553357687e+00
 4.3918374016e-01	 1.0286891263e+00	-3.0035392182e+00
 4.2699704611e-01	 1.0338071381e+00	-3.1509624544e+00
 4.9079409556e-01	 1.0133263771e+00	-2.3937401183e+00
 4.7867962477e-01	 1.0191050032e+00	-2.5442193883e+00
 4.6652254447e-01	 1.0247272350e+00	-2.6899339988e+00
 4.5432577820e-01	 1.0301928353e+00	-2.8322592747e+00
 4.4209224175e-01	 1.0355016371e+00	-2.9725497211e+00
 4.2982484111e-01	 1.0406535430e+00	-3.1121270426e+00
 4.9402300409e-01	 1.0199929980e+00	-2.3931517597e+00
 4.8182883283e-01	 1.0258096414e+00	-2.5361666702e+00
 4.6959177174e-01	 1.0314688616e+00	-2.6739637839e+00
 4.5731476359e-01	 1.0369704198e+00	-2.8082054301e+00
 4.4500074334e-01	 1.0423141479e+00	-2.9405372805e+00
 4.3265263612e-01	 1.0474999479e+00	-3.0725754991e+00
 4.9725191261e-01	 1.0266596189e+00	-2.3923542078e+00
 4.8497804089e-01	 1.0325142795e+00	-2.5274509452e+00
 4.7266099900e-01	 1.0382104881e+00	-2.6568526047e+00
 4.6030374897e-01	 1.0437480042e+00	-2.7826571654e+00
 4.4790924493e-01	 1.0491266587e+00	-2.9069572164e+00
 4.3548043113e-01	 1.0543463528e+00	-3.0318257739e+00
 5.0048082113e-01	 1.0333262398e+00	-2.3914952541e+00
 4.8812724895e-01	 1.0392189177e+00	-2.5179096685e+00
 4.7573022627e-01	 1.0449521146e+00	-2.6382250398e+00
 4.6329273435e-01	 1.0505255886e+00	-2.7551205381e+00
 4.5081774652e-01	 1.0559391694e+00	-2.8712882322e+00
 4.3830822614e-01	 1.0611927577e+00	-2.9894171157e+00
 4.2416925110e-01	 1.0269607333e+00	-3.1895857213e+00
 4.1203270116e-01	 1.0318899914e+00	-3.3448969235e+00
 3.9986843136e-01	 1.0366644292e+00	-3.4991475801e+00
 3.8767926885e-01	 1.0412841523e+00	-3.6516098939e+00
 3.7546802352e-01	 1.0457493316e+00	-3.8014612688e+00
 3.6323748623e-01	 1.0500602030e+00	-3.9453266870e+00
 4.2699704611e-01	 1.0338071381e+00	-3.1509624544e+00
 4.1477958584e-01	 1.0387692580e+00	-3.2976434826e+00
 4.0253422090e-01	 1.0435755254e+00	-3.4424790274e+00
 3.9026379730e-01	 1.0482260466e+00	-3.5848505957e+00
 3.7797114368e-01	 1.0527209938e+00	-3.7240407638e+00
 3.6565906947e-01	 1.0570606043e+00	-3.8581995292e+00
 4.2982484111e-01	 1.0406535430e+00	-3.1121270426e+00
 4.1752647051e-01	 1.0456485246e+00	-3.2508305755e+00
 4.0520001044e-01	 1.0504866216e+00	-3.3872577764e+00
 3.9284832576e-01	 1.0551679410e+00	-3.5207641639e+00
 3.8047426384e-01	 1.0596926560e+00	-3.6506049492e+00
 3.6808065271e-01	 1.0640610057e+00	-3.7756974299e+00
 4.3265263612e-01	 1.0474999479e+00	-3.0725754991e+00
 4.2027335519e-01	 1.0525277913e+00	-3.2040704361e+00
 4.0786579998e-01	 1.0573977178e+00	-3.3332266987e+00
 3.9543285422e-01	 1.0621098353e+00	-3.4592413143e+00
 3.8297738399e-01	 1.0666643182e+00	-3.5812123392e+00
 3.7050223595e-01	 1.0710614070e+00	-3.6981335031e+00
 4.3548043113e-01	 1.0543463528e+00	-3.0318257739e+00
 4.2302023986e-01	 1.0594070579e+00	-3.1569937276e+00
 4.1053158953e-01	 1.0643088140e+00	-3.2801432027e+00
 3.9801738268e-01	 1.0690517297e+00	-3.4001829495e+00
 3.8548050415e-01	 1.0736359804e+00	-3.5159267568e+00
 3.7292381919e-01	 1.0780618084e+00	-3.6260885032e+00
 4.3830822614e-01	 1.0611927577e+00	-2.9894171157e+00
 4.2576712454e-01	 1.0662863245e+00	-3.1092490235e+00
 4.1319737907e-01	 1.0712199102e+00	-3.2277788449e+00
 4.0060191114e-01	 1.0759936240e+00	-3.3434999153e+00
 3.8798362431e-01	 1.0806076427e+00	-3.4548172525e+00
 3.7534540243e-01	 1.0850622097e+00	-3.5600432441e+00
 3.6323748623e-01	 1.0500602030e+00	-3.9453266870e+00
 3.5099042698e-01	 1.0542170656e+00	-4.0811637444e+00
 3.3872959330e-01	 1.0582202813e+00	-4.2168517846e+00
 3.2645770857e-01	 1.0620702735e+00	-4.3513936352e+00
 3.1417747040e-01	 1.0657675255e+00	-4.4834048993e+00
 3.0189154915e-01	 1.0693125800e+00	-4.6111198154e+00
 3.6565906947e-01	 1.0570606043e+00	-3.8581995292e+00
 3.5333036316e-01	 1.0612451794e+00	-3.9862115415e+00
 3.4098779059e-01	 1.0652750832e+00	-4.1147678435e+00
 3.2863409329e-01	 1.0691507419e+00	-4.2426994593e+00
 3.1627198687e-01	 1.0728726423e+00	-4.3684382833e+00
 3.0390415948e-01	 1.0764413306e+00	-4.4900233723e+00
 3.6808065271e-01	 1.0640610057e+00	-3.7756974299e+00
 3.5567029934e-01	 1.0682732931e+00	-3.8968552575e+00
 3.4324598788e-01	 1.0723298851e+00	-4.0191215975e+00
 3.3081047802e-01	 1.0762312104e+00	-4.1410511814e+00
 3.1836650334e-01	 1.0799777591e+00	-4.2607781207e+00
 3.0591676981e-01	 1.0835700811e+00	-4.3760230673e+00
 3.7050223595e-01	 1.0710614070e+00	-3.6981335031e+00
 3.5801023552e-01	 1.0753014069e+00	-3.8135112008e+00
 3.4550418517e-01	 1.0793846870e+00	-3.9303144736e+00
 3.3298686274e-01	 1.0833116789e+00	-4.0467191412e+00
 3.2046101981e-01	 1.0870828760e+00	-4.1604501354e+00
 3.0792938014e-01	 1.0906988316e+00	-4.2687892318e+00
 3.7292381919e-01	 1.0780618084e+00	-3.6260885032e+00
 3.6035017170e-01	 1.0823295207e+00	-3.7366017766e+00
 3.4776238246e-01	 1.0864394889e+00	-3.8487510762e+00
 3.3516324746e-01	 1.0903921474e+00	-3.9599771823e+00
 3.2255553628e-01	 1.0941879928e+00	-4.0674870640e+00
 3.0994199046e-01	 1.0978275822e+00	-4.1680058327e+00
 3.7534540243e-01	 1.0850622097e+00	-3.5600432441e+00
 3.6269010788e-01	 1.0893576345e+00	-3.6665562475e+00
 3.5002057975e-01	 1.0934942907e+00	-3.7748399450e+00
 3.3733963219e-01	 1.0974726159e+00	-3.8811033070e+00
 3.2465005275e-01	 1.1012931096e+00	-3.9819291095e+00
 3.1195460079e-01	 1.1049563327e+00	-4.0733706301e+00
 3.0189154915e-01	 1.0693125800e+00	-4.6111198154e+00
 2.8960258639e-01	 1.0727060376e+00	-4.7339451684e+00
 2.7731319351e-01	 1.0759485554e+00	-4.8529480424e+00
 2.6502595032e-01	 1.0790408458e+00	-4.9683185947e+00
 2.5274340376e-01	 1.0819836751e+00	-5.0799188006e+00
 2.4046806663e-01	 1.0847778621e+00	-5.1872978234e+00
 3.0390415948e-01	 1.0764413306e+00	-4.4900233723e+00
 2.9153327030e-01	 1.0798574112e+00	-4.6069302064e+00
 2.7916194813e-01	 1.0831215458e+00	-4.7203982291e+00
 2.6679278999e-01	 1.0862344514e+00	-4.8305493238e+00
 2.5442835978e-01	 1.0891968996e+00	-4.9371508980e+00
 2.4207118708e-01	 1.0920097145e+00	-5.0396323719e+00
 3.0591676981e-01	 1.0835700811e+00	-4.3760230673e+00
 2.9346395421e-01	 1.0870087848e+00	-4.4862049584e+00
 2.8101070276e-01	 1.0902945362e+00	-4.5928277068e+00
 2.6855962965e-01	 1.0934280571e+00	-4.6961431814e+00
 2.5611331581e-01	 1.0964101241e+00	-4.7960248371e+00
 2.4367430752e-01	 1.0992415670e+00	-4.8919848542e+00
 3.0792938014e-01	 1.0906988316e+00	-4.2687892318e+00
 2.9539463812e-01	 1.0941601584e+00	-4.3710716169e+00
 2.8285945738e-01	 1.0974675265e+00	-4.4692511168e+00
 2.7032646932e-01	 1.1006216627e+00	-4.5639035560e+00
 2.5779827183e-01	 1.1036233486e+00	-4.6552047051e+00
 2.4527742797e-01	 1.1064734194e+00	-4.7429476078e+00
 3.0994199046e-01	 1.0978275822e+00	-4.1680058327e+00
 2.9732532203e-01	 1.1013115320e+00	-4.2608532038e+00
 2.8470821200e-01	 1.1046405169e+00	-4.3487092713e+00
 2.7209330899e-01	 1.1078152683e+00	-4.4326636088e+00
 2.5948322786e-01	 1.1108365731e+00	-4.5133863340e+00
 2.4688054841e-01	 1.1137052718e+00	-4.5928919845e+00
 3.1195460079e-01	 1.1049563327e+00	-4.0733706301e+00
 2.9925600594e-01	 1.1084629056e+00	-4.1548934185e+00
 2.8655696663e-01	 1.1118135073e+00	-4.2304217403e+00
 2.7386014866e-01	 1.1150088740e+00	-4.3057580163e+00
 2.6116818388e-01	 1.1180497976e+00	-4.3826982475e+00
 2.4848366885e-01	 1.1209371242e+00	-4.4605431500e+00
 2.4046806663e-01	 1.0847778621e+00	-5.1872978234e+00
 2.2820241642e-01	 1.0874242771e+00	-5.2897143285e+00
 2.1594889414e-01	 1.0899238397e+00	-5.3870060410e+00
 2.0370990326e-01	 1.0922775181e+00	-5.4791428201e+00
 1.9148780869e-01	 1.0944863272e+00	-5.5658145703e+00
 1.7928493584e-01	 1.0965513271e+00	-5.6464558835e+00
 2.4207118708e-01	 1.0920097145e+00	-5.0396323719e+00
 2.2972376587e-01	 1.0946737723e+00	-5.1369542502e+00
 2.1738855343e-01	 1.0971899986e+00	-5.2288308307e+00
 2.0506796928e-01	 1.0995593682e+00	-5.3153366725e+00
 1.9276439408e-01	 1.1017829027e+00	-5.3962412381e+00
 1.8048016875e-01	 1.1038616693e+00	-5.4710347200e+00
 2.4367430752e-01	 1.0992415670e+00	-4.8919848542e+00
 2.3124511531e-01	 1.1019232674e+00	-4.9828426850e+00
 2.1882821273e-01	 1.1044561576e+00	-5.0681945781e+00
 2.0642603530e-01	 1.1068412183e+00	-5.1481977985e+00
 1.9404097947e-01	 1.1090794782e+00	-5.2226819798e+00
 1.8167540165e-01	 1.1111720115e+00	-5.2911767862e+00
 2.4527742797e-01	 1.1064734194e+00	-4.7429476078e+00
 2.3276646475e-01	 1.1091727626e+00	-4.8259551835e+00
 2.2026787202e-01	 1.1117223165e+00	-4.9037854904e+00
 2.0778410132e-01	 1.1141230685e+00	-4.9783027905e+00
 1.9531756486e-01	 1.1163760537e+00	-5.0493052049e+00
 1.8287063456e-01	 1.1184823537e+00	-5.1155479479e+00
 2.4688054841e-01	 1.1137052718e+00	-4.5928919845e+00
 2.3428781419e-01	 1.1164222578e+00	-4.6717648971e+00
 2.2170753132e-01	 1.1189884754e+00	-4.7480890958e+00
 2.0914216734e-01	 1.1214049186e+00	-4.8210527524e+00
 1.9659415026e-01	 1.1236726292e+00	-4.8896823276e+00
 1.8406586747e-01	 1.1257926958e+00	-4.9528646023e+00
 2.4848366885e-01	 1.1209371242e+00	-4.4605431500e+00
 2.3580916364e-01	 1.1236717530e+00	-4.5370953131e+00
 2.2314719061e-01	 1.1262546344e+00	-4.6103476446e+00
 2.1050023337e-01	 1.1286867687e+00	-4.6796125239e+00
 1.9787073565e-01	 1.1309692047e+00	-4.7440428519e+00
 1.8526110037e-01	 1.1331030380e+00	-4.8026531010e+00
 1.7928493584e-01	 1.0965513271e+00	-5.6464558835e+00
 1.6710356971e-01	 1.0984736220e+00	-5.7212332255e+00
 1.5494595405e-01	 1.1002543581e+00	-5.7908637244e+00
 1.4281429058e-01	 1.1018947226e+00	-5.8553095062e+00
 1.3071073831e-01	 1.1033959417e+00	-5.9143903109e+00
 1.1863741282e-01	 1.1047592794e+00	-5.9678100078e+00
 1.8048016875e-01	 1.1038616693e+00	-5.4710347200e+00
 1.6821759351e-01	 1.1057967795e+00	-5.5401360371e+00
 1.5597892708e-01	 1.1075893872e+00	-5.6045170843e+00
 1.4376638585e-01	 1.1092406874e+00	-5.6641750790e+00
 1.3158214323e-01	 1.1107519146e+00	-5.7189566947e+00
 1.1942832891e-01	 1.1121243413e+00	-5.7687003049e+00
 1.8167540165e-01	 1.1111720115e+00	-5.2911767862e+00
 1.6933161731e-01	 1.1131199370e+00	-5.3550484670e+00
 1.5701190010e-01	 1.1149244162e+00	-5.4157488678e+00
 1.4471848112e-01	 1.1165866522e+00	-5.4728195516e+00
 1.3245354815e-01	 1.1181078876e+00	-5.5257666560e+00
 1.2021924499e-01	 1.1194894032e+00	-5.5740741445e+00
 1.8287063456e-01	 1.1184823537e+00	-5.1155479479e+00
 1.7044564111e-01	 1.1204430944e+00	-5.1774162076e+00
 1.5804487313e-01	 1.1222594453e+00	-5.2359766864e+00
 1.4567057640e-01	 1.1239326170e+00	-5.2908753942e+00
 1.3332495308e-01	 1.1254638605e+00	-5.3417138930e+00
 1.2101016108e-01	 1.1268544650e+00	-5.3880615894e+00
 1.8406586747e-01	 1.1257926958e+00	-4.9528646023e+00
 1.7155966490e-01	 1.1277662519e+00	-5.0113851468e+00
 1.5907784616e-01	 1.1295944743e+00	-5.0666865592e+00
 1.4662267167e-01	 1.1312785818e+00	-5.1184997778e+00
 1.3419635800e-01	 1.1328198335e+00	-5.1665003572e+00
 1.2180107716e-01	 1.1342195269e+00	-5.2103198382e+00
 1.8526110037e-01	 1.1331030380e+00	-4.8026531010e+00
 1.7267368870e-01	 1.1350894094e+00	-4.8565735789e+00
 1.6011081918e-01	 1.1369295034e+00	-4.9075566218e+00
 1.4757476694e-01	 1.1386245467e+00	-4.9553995894e+00
 1.3506776292e-01	 1.1401758064e+00	-4.9998316494e+00
 1.2259199325e-01	 1.1415845888e+00	-5.0405242569e+00
 1.1863741282e-01	 1.1047592794e+00	-5.9678100078e+00
 1.0659638572e-01	 1.1059860360e+00	-6.0163706325e+00
 9.4589684056e-02	 1.1070775460e+00	-6.0606049142e+00
 8.2619289860e-02	 1.1080351773e+00	-6.0997218718e+00
 7.0687139703e-02	 1.1088603291e+00	-6.1329247156e+00
 5.8795124316e-02	 1.1095544307e+00	-6.1594361982e+00
 1.1942832891e-01	 1.1121243413e+00	-5.7687003049e+00
 1.0730702829e-01	 1.1133592762e+00	-5.8143594276e+00
 9.5220281949e-02	 1.1144580630e+00	-5.8562429843e+00
 8.3170085126e-02	 1.1154220785e+00	-5.8933888356e+00
 7.1158387301e-02	 1.1162527313e+00	-5.9248726088e+00
 5.9187091812e-02	 1.1169514602e+00	-5.9498207486e+00
 1.2021924499e-01	 1.1194894032e+00	-5.5740741445e+00
 1.0801767086e-01	 1.1207325165e+00	-5.6183089997e+00
 9.5850879843e-02	 1.1218385800e+00	-5.6587510971e+00
 8.3720880392e-02	 1.1228089797e+00	-5.6944553011e+00
 7.1629634899e-02	 1.1236451335e+00	-5.7245005718e+00
 5.9579059307e-02	 1.1243484897e+00	-5.7480023638e+00
 1.2101016108e-01	 1.1268544650e+00	-5.3880615894e+00
 1.0872831343e-01	 1.1281057567e+00	-5.4304848755e+00
 9.6481477737e-02	 1.1292190969e+00	-5.4692111939e+00
 8.4271675658e-02	 1.1301958809e+00	-5.5032858781e+00
 7.2100882497e-02	 1.1310375357e+00	-5.5317655657e+00
 5.9971026803e-02	 1.1317455193e+00	-5.5537299044e+00
 1.2180107716e-01	 1.1342195269e+00	-5.2103198382e+00
 1.0943895600e-01	 1.1354789969e+00	-5.2505058062e+00
 9.7112075630e-02	 1.1365996139e+00	-5.2872140438e+00
 8.4822470923e-02	 1.1375827820e+00	-5.3194548173e+00
 7.2572130095e-02	 1.1384299379e+00	-5.3462377700e+00
 6.0362994298e-02	 1.1391425488e+00	-5.3665828933e+00
 1.2259199325e-01	 1.1415845888e+00	-5.0405242569e+00
 1.1014959858e-01	 1.1428522372e+00	-5.0780075562e+00
 9.7742673524e-02	 1.1439801309e+00	-5.1123659510e+00
 8.5373266189e-02	 1.1449696832e+00	-5.1425500982e+00
 7.3043377693e-02	 1.1458223401e+00	-5.1674989565e+00
 6.0754961794e-02	 1.1465395783e+00	-5.1861499767e+00
 5.8795124316e-02	 1.1095544307e+00	-6.1594361982e+00
 4.6945088279e-02	 1.1101189395e+00	-6.1810575789e+00
 3.5138829740e-02	 1.1105553403e+00	-6.1991887165e+00
 2.3378100205e-02	 1.1108651429e+00	-6.2125797490e+00
 1.1664604370e-02	 1.1110498811e+00	-6.2201305856e+00
 0.0000000000e+00	 1.1111111111e+00	-6.2209098355e+00
 5.9187091812e-02	 1.1169514602e+00	-5.9498207486e+00
 4.7258055534e-02	 1.1175197325e+00	-5.9701780373e+00
 3.5373088604e-02	 1.1179590426e+00	-5.9874745516e+00
 2.3533954207e-02	 1.1182709105e+00	-6.0003636255e+00
 1.1742368399e-02	 1.1184568803e+00	-6.0076473437e+00
 0.0000000000e+00	 1.1185185185e+00	-6.0082911523e+00
 5.9579059307e-02	 1.1243484897e+00	-5.7480023638e+00
 4.7571022789e-02	 1.1249205254e+00	-5.7671180773e+00
 3.5607347469e-02	 1.1253627448e+00	-5.7835712503e+00
 2.3689808208e-02	 1.1256766781e+00	-5.7959532522e+00
 1.1820132429e-02	 1.1258638795e+00	-5.8029890795e+00
 0.0000000000e+00	 1.1259259259e+00	-5.8035517016e+00
 5.9971026803e-02	 1.1317455193e+00	-5.5537299044e+00
 4.7883990044e-02	 1.1323213183e+00	-5.5715302923e+00
 3.5841606334e-02	 1.1327664471e+00	-5.5870852822e+00
 2.3845662209e-02	 1.1330824457e+00	-5.5989291277e+00
 1.1897896458e-02	 1.1332708787e+00	-5.6057129681e+00
 0.0000000000e+00	 1.1333333333e+00	-5.6062188923e+00
 6.0362994298e-02	 1.1391425488e+00	-5.3665828933e+00
 4.8196957299e-02	 1.1397221113e+00	-5.3830049290e+00
 3.6075865199e-02	 1.1401701494e+00	-5.3976066267e+00
 2.4001516211e-02	 1.1404882134e+00	-5.4088704226e+00
 1.1975660487e-02	 1.1406778779e+00	-5.4153772816e+00
 0.0000000000e+00	 1.1407407407e+00	-5.4158204596e+00
 6.0754961794e-02	 1.1465395783e+00	-5.1861499767e+00
 4.8509924555e-02	 1.1471229042e+00	-5.2011388888e+00
 3.6310124064e-02	 1.1475738516e+00	-5.2147297922e+00
 2.4157370212e-02	 1.1478939810e+00	-5.2253590642e+00
 1.2053424516e-02	 1.1480848771e+00	-5.2315416408e+00
 0.0000000000e+00	 1.1481481481e+00	-5.2318844544e+00
 1.1481481481e+00	 0.0000000000e+00	 2.8123730908e+00
 1.1480848771e+00	 1.2053424516e-02	 2.8114817766e+00
 1.1478939810e+00	 2.4157370212e-02	 2.8117267453e+00
 1.1475738516e+00	 3.6310124064e-02	 2.8124146258e+00
 1.1471229042e+00	 4.8509924555e-02	 2.8130460361e+00
 1.1465395783e+00	 6.0754961794e-02	 2.8133085992e+00
 1.1555555556e+00	 0.0000000000e+00	 2.8871901303e+00
 1.1554918763e+00	 1.2131188545e-02	 2.8861559622e+00
 1.1552997486e+00	 2.4313224213e-02	 2.8861007666e+00
 1.1549775539e+00	 3.6544382929e-02	 2.8863352446e+00
 1.1545236971e+00	 4.8822891810e-02	 2.8863529015e+00
 1.1539366079e+00	 6.1146929289e-02	 2.8858237453e+00
 1.1629629630e+00	 0.0000000000e+00	 2.9583377071e+00
 1.1628988755e+00	 1.2208952574e-02	 2.9571952120e+00
 1.1627055162e+00	 2.4469078215e-02	 2.9568448818e+00
 1.1623812562e+00	 3.6778641794e-02	 2.9566105367e+00
 1.1619244900e+00	 4.9135859065e-02	 2.9559873474e+00
 1.1613336374e+00	 6.1538896785e-02	 2.9546362585e+00
 1.1703703704e+00	 0.0000000000e+00	 3.0256240427e+00
 1.1703058747e+00	 1.2286716603e-02	 3.0243990501e+00
 1.1701112838e+00	 2.4624932216e-02	 3.0237584719e+00
 1.1697849585e+00	 3.7012900659e-02	 3.0230477254e+00
 1.1693252830e+00	 4.9448826320e-02	 3.0217718281e+00
 1.1687306670e+00	 6.1930864280e-02	 3.0195905910e+00
 1.1777777778e+00	 0.0000000000e+00	 3.0888607762e+00
 1.1777128739e+00	 1.2364480632e-02	 3.0875703511e+00
 1.1775170515e+00	 2.4780786218e-02	 3.0866442034e+00
 1.1771886607e+00	 3.7247159524e-02	 3.0854572507e+00
 1.1767260759e+00	 4.9761793575e-02	 3.0835319363e+00
 1.1761276965e+00	 6.2322831775e-02	 3.0805342394e+00
 1.1851851852e+00	 0.0000000000e+00	 3.1478628579e+00
 1.1851198731e+00	 1.2442244662e-02	 3.1465152331e+00
 1.1849228191e+00	 2.4936640219e-02	 3.1453079227e+00
 1.1845923630e+00	 3.7481418389e-02	 3.1436526674e+00
 1.1841268688e+00	 5.0074760831e-02	 3.1410963067e+00
 1.1835247260e+00	 6.2714799271e-02	 3.1373176561e+00
 1.1465395783e+00	 6.0754961794e-02	 2.8133085992e+00
 1.1458223401e+00	 7.3043377693e-02	 2.8136324927e+00
 1.1449696832e+00	 8.5373266189e-02	 2.8142425948e+00
 1.1439801309e+00	 9.7742673524e-02	 2.8147749337e+00
 1.1428522372e+00	 1.1014959858e-01	 2.8150213845e+00
 1.1415845888e+00	 1.2259199325e-01	 2.8149239673e+00
 1.1539366079e+00	 6.1146929289e-02	 2.8858237453e+00
 1.1532147423e+00	 7.3514625291e-02	 2.8851823323e+00
 1.1523565844e+00	 8.5924061455e-02	 2.8846792354e+00
 1.1513606479e+00	 9.8373271418e-02	 2.8839521922e+00
 1.1502254774e+00	 1.1086024115e-01	 2.8827886381e+00
 1.1489496506e+00	 1.2338290934e-01	 2.8811211124e+00
 1.1613336374e+00	 6.1538896785e-02	 2.9546362585e+00
 1.1606071445e+00	 7.3985872889e-02	 2.9530010787e+00
 1.1597434856e+00	 8.6474856721e-02	 2.9513497764e+00
 1.1587411648e+00	 9.9003869312e-02	 2.9493101639e+00
 1.1575987177e+00	 1.1157088372e-01	 2.9466532920e+00
 1.1563147125e+00	 1.2417382542e-01	 2.9432900570e+00
 1.1687306670e+00	 6.1930864280e-02	 3.0195905910e+00
 1.1679995467e+00	 7.4457120487e-02	 3.0169611120e+00
 1.1671303868e+00	 8.7025651986e-02	 3.0141598459e+00
 1.1661216818e+00	 9.9634467205e-02	 3.0107927355e+00
 1.1649719579e+00	 1.1228152629e-01	 3.0066021838e+00
 1.1636797743e+00	 1.2496474151e-01	 3.0014649571e+00
 1.1761276965e+00	 6.2322831775e-02	 3.0805342394e+00
 1.1753919489e+00	 7.4928368085e-02	 3.0769377469e+00
 1.1745172880e+00	 8.7576447252e-02	 3.0730178722e+00
 1.1735021988e+00	 1.0026506510e-01	 3.0683464194e+00
 1.1723451981e+00	 1.1299216886e-01	 3.0626245466e+00
 1.1710448362e+00	 1.2575565759e-01	 3.0556820623e+00
 1.1835247260e+00	 6.2714799271e-02	 3.1373176561e+00
 1.1827843511e+00	 7.5399615683e-02	 3.1328091512e+00
 1.1819041891e+00	 8.8127242518e-02	 3.1278350101e+00
 1.1808827158e+00	 1.0089566299e-01	 3.1219202889e+00
 1.1797184384e+00	 1.1370281143e-01	 3.1147119533e+00
 1.1784098981e+00	 1.2654657368e-01	 3.1059796703e+00
 1.1415845888e+00	 1.2259199325e-01	 2.8149239673e+00
 1.1401758064e+00	 1.3506776292e-01	 2.8149532144e+00
 1.1386245467e+00	 1.4757476694e-01	 2.8153328206e+00
 1.1369295034e+00	 1.6011081918e-01	 2.8158406072e+00
 1.1350894094e+00	 1.7267368870e-01	 2.8163769666e+00
 1.1331030380e+00	 1.8526110037e-01	 2.8169546314e+00
 1.1489496506e+00	 1.2338290934e-01	 2.8811211124e+00
 1.1475317794e+00	 1.3593916784e-01	 2.8794849694e+00
 1.1459705115e+00	 1.4852686221e-01	 2.8781804021e+00
 1.1442645324e+00	 1.6114379221e-01	 2.8769892894e+00
 1.1424125669e+00	 1.7378771250e-01	 2.8758158797e+00
 1.1404133802e+00	 1.8645633328e-01	 2.8746777837e+00
 1.1563147125e+00	 1.2417382542e-01	 2.9432900570e+00
 1.1548877523e+00	 1.3681057276e-01	 2.9398104684e+00
 1.1533164763e+00	 1.4947895748e-01	 2.9365973383e+00
 1.1515995615e+00	 1.6217676524e-01	 2.9334490868e+00
 1.1497357244e+00	 1.7490173630e-01	 2.9302867759e+00
 1.1477237224e+00	 1.8765156618e-01	 2.9271463909e+00
 1.1636797743e+00	 1.2496474151e-01	 3.0014649571e+00
 1.1622437252e+00	 1.3768197769e-01	 2.9960151142e+00
 1.1606624411e+00	 1.5043105275e-01	 2.9907234601e+00
 1.1589345906e+00	 1.6320973826e-01	 2.9854166450e+00
 1.1570588818e+00	 1.7601576010e-01	 2.9800447090e+00
 1.1550340646e+00	 1.8884679909e-01	 2.9746747198e+00
 1.1710448362e+00	 1.2575565759e-01	 3.0556820623e+00
 1.1695996982e+00	 1.3855338261e-01	 3.0481860179e+00
 1.1680084059e+00	 1.5138314802e-01	 3.0406998308e+00
 1.1662696196e+00	 1.6424271129e-01	 3.0330892725e+00
 1.1643820393e+00	 1.7712978389e-01	 3.0253447297e+00
 1.1623444067e+00	 1.9004203199e-01	 3.0175762690e+00
 1.1784098981e+00	 1.2654657368e-01	 3.1059796703e+00
 1.1769556711e+00	 1.3942478753e-01	 3.0964119621e+00
 1.1753543707e+00	 1.5233524329e-01	 3.0866687194e+00
 1.1736046487e+00	 1.6527568432e-01	 3.0766649242e+00
 1.1717051968e+00	 1.7824380769e-01	 3.0664418781e+00
 1.1696547489e+00	 1.9123726490e-01	 3.0561637682e+00
 1.1331030380e+00	 1.8526110037e-01	 2.8169546314e+00
 1.1309692047e+00	 1.9787073565e-01	 2.8161226493e+00
 1.1286867687e+00	 2.1050023337e-01	 2.8132526544e+00
 1.1262546344e+00	 2.2314719061e-01	 2.8097122672e+00
 1.1236717530e+00	 2.3580916364e-01	 2.8069082226e+00
 1.1209371242e+00	 2.4848366885e-01	 2.8062589757e+00
 1.1404133802e+00	 1.8645633328e-01	 2.8746777837e+00
 1.1382657803e+00	 1.9914732104e-01	 2.8719783029e+00
 1.1359686188e+00	 2.1185829939e-01	 2.8668374097e+00
 1.1335207933e+00	 2.2458684991e-01	 2.8604744221e+00
 1.1309212482e+00	 2.3733051308e-01	 2.8541544340e+00
 1.1281689766e+00	 2.5008678930e-01	 2.8491621637e+00
 1.1477237224e+00	 1.8765156618e-01	 2.9271463909e+00
 1.1455623558e+00	 2.0042390643e-01	 2.9223183220e+00
 1.1432504689e+00	 2.1321636541e-01	 2.9147151094e+00
 1.1407869522e+00	 2.2602650920e-01	 2.9054389792e+00
 1.1381707433e+00	 2.3885186252e-01	 2.8956448488e+00
 1.1354008290e+00	 2.5168990974e-01	 2.8865154236e+00
 1.1550340646e+00	 1.8884679909e-01	 2.9746747198e+00
 1.1528589313e+00	 2.0170049182e-01	 2.9675118150e+00
 1.1505323191e+00	 2.1457443143e-01	 2.9572999415e+00
 1.1480531112e+00	 2.2746616849e-01	 2.9450543595e+00
 1.1454202385e+00	 2.4037321197e-01	 2.9318502146e+00
 1.1426326814e+00	 2.5329303019e-01	 2.9187988927e+00
 1.1623444067e+00	 1.9004203199e-01	 3.0175762690e+00
 1.1601555068e+00	 2.0297707721e-01	 3.0079263649e+00
 1.1578141692e+00	 2.1593249745e-01	 2.9950039348e+00
 1.1553192701e+00	 2.2890582779e-01	 2.9797663212e+00
 1.1526697337e+00	 2.4189456141e-01	 2.9632382499e+00
 1.1498645339e+00	 2.5489615063e-01	 2.9464894595e+00
 1.1696547489e+00	 1.9123726490e-01	 3.0561637682e+00
 1.1674520823e+00	 2.0425366260e-01	 3.0439280311e+00
 1.1650960193e+00	 2.1729056347e-01	 3.0282369535e+00
 1.1625854290e+00	 2.3034548708e-01	 3.0100179368e+00
 1.1599192289e+00	 2.4341591085e-01	 2.9902735947e+00
 1.1570963863e+00	 2.5649927107e-01	 2.9700606760e+00
 1.1209371242e+00	 2.4848366885e-01	 2.8062589757e+00
 1.1180497976e+00	 2.6116818388e-01	 2.8069106883e+00
 1.1150088740e+00	 2.7386014866e-01	 2.8085861550e+00
 1.1118135073e+00	 2.8655696663e-01	 2.8135005397e+00
 1.1084629056e+00	 2.9925600594e-01	 2.8214978585e+00
 1.1049563327e+00	 3.1195460079e-01	 2.8285385534e+00
 1.1281689766e+00	 2.5008678930e-01	 2.8491621637e+00
 1.1252630221e+00	 2.6285313991e-01	 2.8445570514e+00
 1.1222024796e+00	 2.7562698833e-01	 2.8396903173e+00
 1.1189864977e+00	 2.8840572125e-01	 2.8362355049e+00
 1.1156142791e+00	 3.0118668985e-01	 2.8357678922e+00
 1.1120850832e+00	 3.1396721112e-01	 2.8397134258e+00
 1.1354008290e+00	 2.5168990974e-01	 2.8865154236e+00
 1.1324762466e+00	 2.6453809593e-01	 2.8771387005e+00
 1.1293960853e+00	 2.7739382800e-01	 2.8667238105e+00
 1.1261594880e+00	 2.9025447587e-01	 2.8566044700e+00
 1.1227656527e+00	 3.0311737376e-01	 2.8480322265e+00
 1.1192138338e+00	 3.1597982145e-01	 2.8421264224e+00
 1.1426326814e+00	 2.5329303019e-01	 2.9187988927e+00
 1.1396894711e+00	 2.6622305196e-01	 2.9051059851e+00
 1.1365896909e+00	 2.7916066767e-01	 2.8900395382e+00
 1.1333324784e+00	 2.9210323050e-01	 2.8747909152e+00
 1.1299170263e+00	 3.0504805767e-01	 2.8604832190e+00
 1.1263425843e+00	 3.1799243177e-01	 2.8481218571e+00
 1.1498645339e+00	 2.5489615063e-01	 2.9464894595e+00
 1.1469026956e+00	 2.6790800798e-01	 2.9289065766e+00
 1.1437832965e+00	 2.8092750734e-01	 2.9099897890e+00
 1.1405054688e+00	 2.9395198512e-01	 2.8909813571e+00
 1.1370683999e+00	 3.0697874158e-01	 2.8730670691e+00
 1.1334713348e+00	 3.2000504210e-01	 2.8573269866e+00
 1.1570963863e+00	 2.5649927107e-01	 2.9700606760e+00
 1.1541159201e+00	 2.6959296401e-01	 2.9489853102e+00
 1.1509769022e+00	 2.8269434700e-01	 2.9269259542e+00
 1.1476784591e+00	 2.9580073974e-01	 2.9053648850e+00
 1.1442197735e+00	 3.0890942549e-01	 2.8857376432e+00
 1.1406000854e+00	 3.2201765243e-01	 2.8693835464e+00
 1.1049563327e+00	 3.1195460079e-01	 2.8285385534e+00
 1.1012931096e+00	 3.2465005275e-01	 2.8285389563e+00
 1.0974726159e+00	 3.3733963219e-01	 2.8188897076e+00
 1.0934942907e+00	 3.5002057975e-01	 2.8038141047e+00
 1.0893576345e+00	 3.6269010788e-01	 2.7869726665e+00
 1.0850622097e+00	 3.7534540243e-01	 2.7733229846e+00
 1.1120850832e+00	 3.1396721112e-01	 2.8397134258e+00
 1.1083982265e+00	 3.2674456922e-01	 2.8401691094e+00
 1.1045530844e+00	 3.3951601691e-01	 2.8281574979e+00
 1.1005490926e+00	 3.5227877703e-01	 2.8082343638e+00
 1.0963857482e+00	 3.6503004406e-01	 2.7846778177e+00
 1.0920626111e+00	 3.7776698568e-01	 2.7652639914e+00
 1.1192138338e+00	 3.1597982145e-01	 2.8421264224e+00
 1.1155033433e+00	 3.2883908569e-01	 2.8319760400e+00
 1.1116335529e+00	 3.4169240163e-01	 2.8153897876e+00
 1.1076038945e+00	 3.5453697432e-01	 2.7954130377e+00
 1.1034138620e+00	 3.6736998024e-01	 2.7700898828e+00
 1.0990630124e+00	 3.8018856892e-01	 2.7503985254e+00
 1.1263425843e+00	 3.1799243177e-01	 2.8481218571e+00
 1.1226084602e+00	 3.3093360216e-01	 2.8292281810e+00
 1.1187140214e+00	 3.4386878636e-01	 2.8001554730e+00
 1.1146586964e+00	 3.5679517161e-01	 2.7686702255e+00
 1.1104419758e+00	 3.6970991642e-01	 2.7417980534e+00
 1.1060634138e+00	 3.8261015216e-01	 2.7274352665e+00
 1.1334713348e+00	 3.2000504210e-01	 2.8573269866e+00
 1.1297135770e+00	 3.3302811863e-01	 2.8338272496e+00
 1.1257944899e+00	 3.4604517108e-01	 2.7972308824e+00
 1.1217134982e+00	 3.5905336890e-01	 2.7550480759e+00
 1.1174700895e+00	 3.7204985260e-01	 2.7144554753e+00
 1.1130638151e+00	 3.8503173540e-01	 2.6966443689e+00
 1.1406000854e+00	 3.2201765243e-01	 2.8693835464e+00
 1.1368186938e+00	 3.3512263510e-01	 2.8451083143e+00
 1.1328749583e+00	 3.4822155581e-01	 2.8057391678e+00
 1.1287683001e+00	 3.6131156619e-01	 2.7582062100e+00
 1.1244982033e+00	 3.7438978878e-01	 2.7101333489e+00
 1.1200642165e+00	 3.8745331864e-01	 2.6843387625e+00
 1.0850622097e+00	 3.7534540243e-01	 2.7733229846e+00
 1.0806076427e+00	 3.8798362431e-01	 2.7668409740e+00
 1.0759936240e+00	 4.0060191114e-01	 2.7567619328e+00
 1.0712199102e+00	 4.1319737907e-01	 2.7434627571e+00
 1.0662863245e+00	 4.2576712454e-01	 2.7271744625e+00
 1.0611927577e+00	 4.3830822614e-01	 2.7079897782e+00
 1.0920626111e+00	 3.7776698568e-01	 2.7652639914e+00
 1.0875793049e+00	 3.9048674446e-01	 2.7540603643e+00
 1.0829355183e+00	 4.0318643960e-01	 2.7380390673e+00
 1.0781310064e+00	 4.1586316861e-01	 2.7180137711e+00
 1.0731655911e+00	 4.2851400921e-01	 2.6946508365e+00
 1.0680391626e+00	 4.4113602114e-01	 2.6684760078e+00
 1.0990630124e+00	 3.8018856892e-01	 2.7503985254e+00
 1.0945509671e+00	 3.9298986462e-01	 2.7384352393e+00
 1.0898774127e+00	 4.0577096806e-01	 2.7196900829e+00
 1.0850421026e+00	 4.1852895815e-01	 2.6953000264e+00
 1.0800448577e+00	 4.3126089388e-01	 2.6662565691e+00
 1.0748855675e+00	 4.4396381615e-01	 2.6334118260e+00
 1.1060634138e+00	 3.8261015216e-01	 2.7274352665e+00
 1.1015226293e+00	 3.9549298478e-01	 2.7188929481e+00
 1.0968193070e+00	 4.0835549652e-01	 2.7009046469e+00
 1.0919531988e+00	 4.2119474770e-01	 2.6748194316e+00
 1.0869241243e+00	 4.3400777856e-01	 2.6418459880e+00
 1.0817319724e+00	 4.4679161116e-01	 2.6030583867e+00
 1.1130638151e+00	 3.8503173540e-01	 2.6966443689e+00
 1.1084942915e+00	 3.9799610494e-01	 2.6943928327e+00
 1.1037612014e+00	 4.1094002498e-01	 2.6808975098e+00
 1.0988642950e+00	 4.2386053724e-01	 2.6560868620e+00
 1.0938033909e+00	 4.3675466323e-01	 2.6212810085e+00
 1.0885783773e+00	 4.4961940616e-01	 2.5776737366e+00
 1.1200642165e+00	 3.8745331864e-01	 2.6843387625e+00
 1.1154659537e+00	 4.0049922509e-01	 2.6716604861e+00
 1.1107030957e+00	 4.1352455343e-01	 2.6589074105e+00
 1.1057753912e+00	 4.2652632678e-01	 2.6386332780e+00
 1.1006826575e+00	 4.3950154791e-01	 2.6044305034e+00
 1.0954247821e+00	 4.5244720117e-01	 2.5575124778e+00
 1.0611927577e+00	 4.3830822614e-01	 2.7079897782e+00
 1.0559391694e+00	 4.5081774652e-01	 2.6897899651e+00
 1.0505255886e+00	 4.6329273435e-01	 2.6743288843e+00
 1.0449521146e+00	 4.7573022627e-01	 2.6583932371e+00
 1.0392189177e+00	 4.8812724895e-01	 2.6387607862e+00
 1.0333262398e+00	 5.0048082113e-01	 2.6122149978e+00
 1.0680391626e+00	 4.4113602114e-01	 2.6684760078e+00
 1.0627516802e+00	 4.5372624811e-01	 2.6443916655e+00
 1.0573031731e+00	 4.6628171973e-01	 2.6245219946e+00
 1.0516937412e+00	 4.7879945354e-01	 2.6051144537e+00
 1.0459235559e+00	 4.9127645700e-01	 2.5824169483e+00
 1.0399928607e+00	 5.0370972966e-01	 2.5526937573e+00
 1.0748855675e+00	 4.4396381615e-01	 2.6334118260e+00
 1.0695641910e+00	 4.5663474970e-01	 2.6027451804e+00
 1.0640807575e+00	 4.6927070512e-01	 2.5771761935e+00
 1.0584353677e+00	 4.8186868080e-01	 2.5528558066e+00
 1.0526281941e+00	 4.9442566506e-01	 2.5259342465e+00
 1.0466594816e+00	 5.0693863818e-01	 2.4925771035e+00
 1.0817319724e+00	 4.4679161116e-01	 2.6030583867e+00
 1.0763767017e+00	 4.5954325129e-01	 2.5654686711e+00
 1.0708583420e+00	 4.7225969050e-01	 2.5331092803e+00
 1.0651769943e+00	 4.8493790807e-01	 2.5024686776e+00
 1.0593328322e+00	 4.9757487312e-01	 2.4700230350e+00
 1.0533261025e+00	 5.1016754671e-01	 2.4322513408e+00
 1.0885783773e+00	 4.4961940616e-01	 2.5776737366e+00
 1.0831892125e+00	 4.6245175288e-01	 2.5331677065e+00
 1.0776359264e+00	 4.7524867588e-01	 2.4931208952e+00
 1.0719186208e+00	 4.8800713533e-01	 2.4547848637e+00
 1.0660374704e+00	 5.0072408118e-01	 2.4153770181e+00
 1.0599927234e+00	 5.1339645523e-01	 2.3720936359e+00
 1.0954247821e+00	 4.5244720117e-01	 2.5575124778e+00
 1.0900017233e+00	 4.6536025447e-01	 2.5064351787e+00
 1.0844135109e+00	 4.7823766127e-01	 2.4579925648e+00
 1.0786602474e+00	 4.9107636260e-01	 2.4106166224e+00
 1.0727421086e+00	 5.0387328923e-01	 2.3626731587e+00
 1.0666593443e+00	 5.1662536375e-01	 2.3124716459e+00
 1.0333262398e+00	 5.0048082113e-01	 2.6122149978e+00
 1.0272743949e+00	 5.1278795579e-01	 2.5826616012e+00
 1.0210637702e+00	 5.2504566218e-01	 2.5544363374e+00
 1.0146948255e+00	 5.3725094808e-01	 2.5249901923e+00
 1.0081680946e+00	 5.4940082194e-01	 2.4917961037e+00
 1.0014841849e+00	 5.6149229514e-01	 2.4523599075e+00
 1.0399928607e+00	 5.0370972966e-01	 2.5526937573e+00
 1.0339019717e+00	 5.1609626518e-01	 2.5191998943e+00
 1.0276512784e+00	 5.2843305355e-01	 2.4861486359e+00
 1.0212412437e+00	 5.4071708323e-01	 2.4512645255e+00
 1.0146724049e+00	 5.5294534337e-01	 2.4122821148e+00
 1.0079453732e+00	 5.6511482607e-01	 2.3669559433e+00
 1.0466594816e+00	 5.0693863818e-01	 2.4925771035e+00
 1.0405295484e+00	 5.1940457457e-01	 2.4555819462e+00
 1.0342387865e+00	 5.3182044491e-01	 2.4187151518e+00
 1.0277876620e+00	 5.4418321837e-01	 2.3796163343e+00
 1.0211767152e+00	 5.5648986481e-01	 2.3359332366e+00
 1.0144065615e+00	 5.6873735701e-01	 2.2853316317e+00
 1.0533261025e+00	 5.1016754671e-01	 2.4322513408e+00
 1.0471571252e+00	 5.2271288396e-01	 2.3918396572e+00
 1.0408262947e+00	 5.3520783628e-01	 2.3519459316e+00
 1.0343340802e+00	 5.4764935352e-01	 2.3097733393e+00
 1.0276810255e+00	 5.6003438624e-01	 2.2625412546e+00
 1.0208677498e+00	 5.7235988795e-01	 2.2074959505e+00
 1.0599927234e+00	 5.1339645523e-01	 2.3720936359e+00
 1.0537847019e+00	 5.2602119336e-01	 2.3280040438e+00
 1.0474138029e+00	 5.3859522765e-01	 2.2856550410e+00
 1.0408804984e+00	 5.5111548867e-01	 2.2414686616e+00
 1.0341853357e+00	 5.6357890767e-01	 2.1919010477e+00
 1.0273289381e+00	 5.7598241888e-01	 2.1334548127e+00
 1.0666593443e+00	 5.1662536375e-01	 2.3124716459e+00
 1.0604122786e+00	 5.2932950275e-01	 2.2641045628e+00
 1.0540013111e+00	 5.4198261902e-01	 2.2196596885e+00
 1.0474269166e+00	 5.5458162382e-01	 2.1744398572e+00
 1.0406896460e+00	 5.6712342910e-01	 2.1238096487e+00
 1.0337901263e+00	 5.7960494982e-01	 2.0632102731e+00
 1.0014841849e+00	 5.6149229514e-01	 2.4523599075e+00
 9.9464377792e-01	 5.7352238417e-01	 2.4119237984e+00
 9.8764762932e-01	 5.8548811294e-01	 2.3746295759e+00
 9.8049656898e-01	 5.9738651501e-01	 2.3364786353e+00
 9.7319150093e-01	 6.0921463592e-01	 2.2936371333e+00
 9.6573340326e-01	 6.2096953542e-01	 2.2424495264e+00
 1.0079453732e+00	 5.6511482607e-01	 2.3669559433e+00
 1.0010608346e+00	 5.7722252858e-01	 2.3213376427e+00
 9.9401954951e-01	 5.8926545560e-01	 2.2799814466e+00
 9.8682235329e-01	 6.0124062156e-01	 2.2385404904e+00
 9.7947015577e-01	 6.1314505293e-01	 2.1928449321e+00
 9.7196394135e-01	 6.2497579049e-01	 2.1389161119e+00
 1.0144065615e+00	 5.6873735701e-01	 2.2853316317e+00
 1.0074778912e+00	 5.8092267300e-01	 2.2345410659e+00
 1.0003914697e+00	 5.9304279826e-01	 2.1887770566e+00
 9.9314813761e-01	 6.0509472811e-01	 2.1435806645e+00
 9.8574881062e-01	 6.1707546993e-01	 2.0946742139e+00
 9.7819447943e-01	 6.2898204556e-01	 2.0379754555e+00
 1.0208677498e+00	 5.7235988795e-01	 2.2074959505e+00
 1.0138949478e+00	 5.8462281741e-01	 2.1517908770e+00
 1.0067633899e+00	 5.9682014093e-01	 2.1014217190e+00
 9.9947392193e-01	 6.0894883466e-01	 2.0520491441e+00
 9.9202746546e-01	 6.2100588694e-01	 1.9995114026e+00
 9.8442501752e-01	 6.3298830062e-01	 1.9398378830e+00
 1.0273289381e+00	 5.7598241888e-01	 2.1334548127e+00
 1.0203120044e+00	 5.8832296182e-01	 2.0733338971e+00
 1.0131353101e+00	 6.0059748359e-01	 2.0183063483e+00
 1.0057997062e+00	 6.1280294121e-01	 1.9643797369e+00
 9.9830612030e-01	 6.2493630395e-01	 1.9077277113e+00
 9.9065555560e-01	 6.3699455569e-01	 1.8447023403e+00
 1.0337901263e+00	 5.7960494982e-01	 2.0632102731e+00
 1.0267290611e+00	 5.9202310624e-01	 1.9994063374e+00
 1.0195072303e+00	 6.0437482626e-01	 1.9398069312e+00
 1.0121254906e+00	 6.1665704776e-01	 1.8809895552e+00
 1.0045847751e+00	 6.2886672095e-01	 1.8196785536e+00
 9.9688609369e-01	 6.4100081076e-01	 1.7527556433e+00
 9.6573340326e-01	 6.2096953542e-01	 2.2424495264e+00
 9.5812332792e-01	 6.3264828981e-01	 2.1875083328e+00
 9.5036240039e-01	 6.4424799419e-01	 2.1338844377e+00
 9.4245181935e-01	 6.5576576481e-01	 2.0789504406e+00
 9.3439285621e-01	 6.6719874128e-01	 2.0203127299e+00
 9.2618685453e-01	 6.7854408891e-01	 1.9558215555e+00
 9.7196394135e-01	 6.2497579049e-01	 2.1389161119e+00
 9.6430476874e-01	 6.3672989168e-01	 2.0811011142e+00
 9.5649377072e-01	 6.4840443286e-01	 2.0244280504e+00
 9.4853215367e-01	 6.5999651168e-01	 1.9662544673e+00
 9.4042119721e-01	 6.7150324929e-01	 1.9041635242e+00
 9.3216225359e-01	 6.8292179271e-01	 1.8359737739e+00
 9.7819447943e-01	 6.2898204556e-01	 2.0379754555e+00
 9.7048620957e-01	 6.4081149355e-01	 1.9776531834e+00
 9.6262514104e-01	 6.5256087154e-01	 1.9184958821e+00
 9.5461248799e-01	 6.6422725855e-01	 1.8576673623e+00
 9.4644953822e-01	 6.7580775730e-01	 1.7925553839e+00
 9.3813765265e-01	 6.8729949651e-01	 1.7207815649e+00
 9.8442501752e-01	 6.3298830062e-01	 1.9398378830e+00
 9.7666765039e-01	 6.4489309542e-01	 1.8771780209e+00
 9.6875651137e-01	 6.5671731021e-01	 1.8159807659e+00
 9.6069282231e-01	 6.6845800542e-01	 1.7530409685e+00
 9.5247787923e-01	 6.8011226530e-01	 1.6853821924e+00
 9.4411305171e-01	 6.9167720031e-01	 1.6102671654e+00
 9.9065555560e-01	 6.3699455569e-01	 1.8447023403e+00
 9.8284909122e-01	 6.4897469729e-01	 1.7796821168e+00
 9.7488788169e-01	 6.6087374888e-01	 1.7167710610e+00
 9.6677315663e-01	 6.7268875228e-01	 1.6522232162e+00
 9.5850622024e-01	 6.8441677331e-01	 1.5825324471e+00
 9.5008845077e-01	 6.9605490411e-01	 1.5044438421e+00
 9.9688609369e-01	 6.4100081076e-01	 1.7527556433e+00
 9.8903053204e-01	 6.5305629916e-01	 1.6851640448e+00
 9.8101925202e-01	 6.6503018755e-01	 1.6207496100e+00
 9.7285349095e-01	 6.7691949915e-01	 1.5550570271e+00
 9.6453456125e-01	 6.8872128132e-01	 1.4838881766e+00
 9.5606384983e-01	 7.0043260791e-01	 1.4033148884e+00
 9.2618685453e-01	 6.7854408891e-01	 1.9558215555e+00
 9.1783522944e-01	 6.8979900094e-01	 1.8887104870e+00
 9.0933946692e-01	 7.0096070075e-01	 1.8219811135e+00
 9.0070112297e-01	 7.1202644415e-01	 1.7536375293e+00
 8.9192182278e-01	 7.2299352151e-01	 1.6821097001e+00
 8.8300325971e-01	 7.3385925996e-01	 1.6062633181e+00
 9.3216225359e-01	 6.8292179271e-01	 1.8359737739e+00
 9.2375674705e-01	 6.9424931707e-01	 1.7657672371e+00
 9.1520617316e-01	 7.0548302785e-01	 1.6972313067e+00
 9.0651209796e-01	 7.1662016314e-01	 1.6281109956e+00
 8.9767615712e-01	 7.2765799584e-01	 1.5566084641e+00
 8.8870005493e-01	 7.3859383584e-01	 1.4813934335e+00
 9.3813765265e-01	 6.8729949651e-01	 1.7207815649e+00
 9.2967826466e-01	 6.9869963321e-01	 1.6473514058e+00
 9.2107287940e-01	 7.1000535495e-01	 1.5769065992e+00
 9.1232307295e-01	 7.2121388214e-01	 1.5070615468e+00
 9.0343049146e-01	 7.3232247017e-01	 1.4359162385e+00
 8.9439685016e-01	 7.4332841171e-01	 1.3617533935e+00
 9.4411305171e-01	 6.9167720031e-01	 1.6102671654e+00
 9.3559978227e-01	 7.0314994934e-01	 1.5336424526e+00
 9.2693958563e-01	 7.1452768206e-01	 1.4613113661e+00
 9.1813404794e-01	 7.2580760113e-01	 1.3908838009e+00
 9.0918482580e-01	 7.3698694451e-01	 1.3204808744e+00
 9.0009364538e-01	 7.4806298758e-01	 1.2460112682e+00
 9.5008845077e-01	 6.9605490411e-01	 1.5044438421e+00
 9.4152129988e-01	 7.0760026548e-01	 1.4248066203e+00
 9.3280629187e-01	 7.1905000916e-01	 1.3507334014e+00
 9.2394502292e-01	 7.3040132013e-01	 1.2799533763e+00
 9.1493916014e-01	 7.4165141884e-01	 1.2106779630e+00
 9.0579044061e-01	 7.5279756345e-01	 1.1338550571e+00
 9.5606384983e-01	 7.0043260791e-01	 1.4033148884e+00
 9.4744281749e-01	 7.1205058161e-01	 1.3209960359e+00
 9.3867299811e-01	 7.2357233626e-01	 1.2454430979e+00
 9.2975599791e-01	 7.3499503912e-01	 1.1746261233e+00
 9.2069349448e-01	 7.4631589317e-01	 1.1049990959e+00
 9.1148723583e-01	 7.5753213932e-01	 1.0251582505e+00
 8.8300325971e-01	 7.3385925996e-01	 1.6062633181e+00
 8.7394719430e-01	 7.4462102553e-01	 1.5266786569e+00
 8.6475545313e-01	 7.5527622522e-01	 1.4405244248e+00
 8.5542992760e-01	 7.6582230907e-01	 1.3503786692e+00
 8.4597257268e-01	 7.7625677219e-01	 1.2610042141e+00
 8.3638540555e-01	 7.8657715673e-01	 1.1774933096e+00
 8.8870005493e-01	 7.3859383584e-01	 1.4813934335e+00
 8.7958556330e-01	 7.4942503215e-01	 1.4004724055e+00
 8.7033452057e-01	 7.6014897506e-01	 1.3119332482e+00
 8.6094883036e-01	 7.7076309816e-01	 1.2202162846e+00
 8.5143046025e-01	 7.8126488040e-01	 1.1303208138e+00
 8.4178144042e-01	 7.9165184806e-01	 1.0475690046e+00
 8.9439685016e-01	 7.4332841171e-01	 1.3617533935e+00
 8.8522393229e-01	 7.5422903877e-01	 1.2784998462e+00
 8.7591358801e-01	 7.6502172490e-01	 1.1880453175e+00
 8.6646773312e-01	 7.7570388725e-01	 1.0951979283e+00
 8.5688834781e-01	 7.8627298860e-01	 1.0051228801e+00
 8.4717747529e-01	 7.9672653940e-01	 9.2330110862e-01
 9.0009364538e-01	 7.4806298758e-01	 1.2460112682e+00
 8.9086230129e-01	 7.5903304538e-01	 1.1606383894e+00
 8.8149265545e-01	 7.6989447474e-01	 1.0687084450e+00
 8.7198663588e-01	 7.8064467634e-01	 9.7513245633e-01
 8.6234623538e-01	 7.9128109681e-01	 8.8517239094e-01
 8.5257351017e-01	 8.0180123073e-01	 8.0439826088e-01
 9.0579044061e-01	 7.5279756345e-01	 1.1338550571e+00
 8.9650067029e-01	 7.6383705200e-01	 1.0467540777e+00
 8.8707172289e-01	 7.7476722458e-01	 9.5375972627e-01
 8.7750553864e-01	 7.8558546543e-01	 8.5981882681e-01
 8.6780412294e-01	 7.9628920502e-01	 7.7022238257e-01
 8.5796954504e-01	 8.0687592206e-01	 6.9056122168e-01
 9.1148723583e-01	 7.5753213932e-01	 1.0251582505e+00
 9.0213903928e-01	 7.6864105861e-01	 9.3670244900e-01
 8.9265079033e-01	 7.7963997442e-01	 8.4302636658e-01
 8.8302444139e-01	 7.9052625452e-01	 7.4904688088e-01
 8.7326201051e-01	 8.0129731323e-01	 6.6001767807e-01
 8.6336557992e-01	 8.1195061340e-01	 5.8148354328e-01
 8.3638540555e-01	 7.8657715673e-01	 1.1774933096e+00
 8.2667050415e-01	 7.9678105378e-01	 1.0895736599e+00
 8.1683000574e-01	 8.0686610526e-01	 9.8834585127e-01
 8.0686610526e-01	 8.1683000574e-01	 8.8122034671e-01
 7.9678105378e-01	 8.2667050415e-01	 7.7561646540e-01
 7.8657715673e-01	 8.3638540555e-01	 6.7891344385e-01
 8.4178144042e-01	 7.9165184806e-01	 1.0475690046e+00
 8.3200386224e-01	 8.0192157671e-01	 9.6106310479e-01
 8.2209987674e-01	 8.1207169304e-01	 8.6122445278e-01
 8.1207169304e-01	 8.2209987674e-01	 7.5560767901e-01
 8.0192157671e-01	 8.3200386224e-01	 6.5177607298e-01
 7.9165184806e-01	 8.4178144042e-01	 5.5725079492e-01
 8.4717747529e-01	 7.9672653940e-01	 9.2330110862e-01
 8.3733722033e-01	 8.0706209963e-01	 8.3823062926e-01
 8.2736974775e-01	 8.1727728082e-01	 7.3973116294e-01
 8.1727728082e-01	 8.2736974775e-01	 6.3551593232e-01
 8.0706209963e-01	 8.3733722033e-01	 5.3330833161e-01
 7.9672653940e-01	 8.4717747529e-01	 4.4078919407e-01
 8.5257351017e-01	 8.0180123073e-01	 8.0439826088e-01
 8.4267057843e-01	 8.1220262256e-01	 7.2073728809e-01
 8.3263961875e-01	 8.2248286859e-01	 6.2349637180e-01
 8.2248286859e-01	 8.3263961875e-01	 5.2056164491e-01
 8.1220262256e-01	 8.4267057843e-01	 4.1983262123e-01
 8.0180123073e-01	 8.5257351017e-01	 3.2916742254e-01
 8.5796954504e-01	 8.0687592206e-01	 6.9056122168e-01
 8.4800393652e-01	 8.1734314549e-01	 6.0823712700e-01
 8.3790948976e-01	 8.2768845637e-01	 5.1214386377e-01
 8.2768845637e-01	 8.3790948976e-01	 4.1035469718e-01
 8.1734314549e-01	 8.4800393652e-01	 3.1096116762e-01
 8.0687592206e-01	 8.5796954504e-01	 2.2201617927e-01
 8.6336557992e-01	 8.1195061340e-01	 5.8148354328e-01
 8.5333729461e-01	 8.2248366842e-01	 5.0037779896e-01
 8.4317936076e-01	 8.3289404414e-01	 4.0529139165e-01
 8.3289404414e-01	 8.4317936076e-01	 3.0449885570e-01
 8.2248366842e-01	 8.5333729461e-01	 2.0629956846e-01
 8.1195061340e-01	 8.6336557992e-01	 1.1895860097e-01
 7.8657715673e-01	 8.3638540555e-01	 6.7891344385e-01
 7.7625677219e-01	 8.4597257268e-01	 5.8175313204e-01
 7.6582230907e-01	 8.5542992760e-01	 4.7308186933e-01
 7.5527622522e-01	 8.6475545313e-01	 3.5747207741e-01
 7.4462102553e-01	 8.7394719430e-01	 2.3919158914e-01
 7.3385925996e-01	 8.8300325971e-01	 1.2143938024e-01
 7.9165184806e-01	 8.4178144042e-01	 5.5725079492e-01
 7.8126488040e-01	 8.5143046025e-01	 4.6230365593e-01
 7.7076309816e-01	 8.6094883036e-01	 3.5557093278e-01
 7.6014897506e-01	 8.7033452057e-01	 2.4185857820e-01
 7.4942503215e-01	 8.7958556330e-01	 1.2567206793e-01
 7.3859383584e-01	 8.8870005493e-01	 1.1096699870e-02
 7.9672653940e-01	 8.4717747529e-01	 4.4078919407e-01
 7.8627298860e-01	 8.5688834781e-01	 3.4793893457e-01
 7.7570388725e-01	 8.6646773312e-01	 2.4314383358e-01
 7.6502172490e-01	 8.7591358801e-01	 1.3143250415e-01
 7.5422903877e-01	 8.8522393229e-01	 1.7534626591e-02
 7.4332841171e-01	 8.9439685016e-01	-9.4162190925e-02
 8.0180123073e-01	 8.5257351017e-01	 3.2916742254e-01
 7.9128109681e-01	 8.6234623538e-01	 2.3831258199e-01
 7.8064467634e-01	 8.7198663588e-01	 1.3544367738e-01
 7.6989447474e-01	 8.8149265545e-01	 2.5801521661e-02
 7.5903304538e-01	 8.9086230129e-01	-8.5672999813e-02
 7.4806298758e-01	 9.0009364538e-01	-1.9438411944e-01
 8.0687592206e-01	 8.5796954504e-01	 2.2201617927e-01
 7.9628920502e-01	 8.6780412294e-01	 1.3306931073e-01
 7.8558546543e-01	 8.7750553864e-01	 3.2104489826e-02
 7.7476722458e-01	 8.8707172289e-01	-7.5435321594e-02
 7.6383705200e-01	 8.9650067029e-01	-1.8441059556e-01
 7.5279756345e-01	 9.0579044061e-01	-2.9003250893e-01
 8.1195061340e-01	 8.6336557992e-01	 1.1895860097e-01
 8.0129731323e-01	 8.7326201051e-01	 3.1845441000e-02
 7.9052625452e-01	 8.8302444139e-01	-6.7248306195e-02
 7.7963997442e-01	 8.9265079033e-01	-1.7268717220e-01
 7.6864105861e-01	 9.0213903928e-01	-2.7914511310e-01
 7.5753213932e-01	 9.1148723583e-01	-3.8165489377e-01
 7.3385925996e-01	 8.8300325971e-01	 1.2143938024e-01
 7.2299352151e-01	 8.9192182278e-01	 4.3706718104e-03
 7.1202644415e-01	 9.0070112297e-01	-1.1197323362e-01
 7.0096070075e-01	 9.0933946692e-01	-2.2896489825e-01
 6.8979900094e-01	 9.1783522944e-01	-3.4846945626e-01
 6.7854408891e-01	 9.2618685453e-01	-4.7283029726e-01
 7.3859383584e-01	 8.8870005493e-01	 1.1096699870e-02
 7.2765799584e-01	 8.9767615712e-01	-1.0119792098e-01
 7.1662016314e-01	 9.0651209796e-01	-2.1254778137e-01
 7.0548302785e-01	 9.1520617316e-01	-3.2460798595e-01
 6.9424931707e-01	 9.2375674705e-01	-4.3956527506e-01
 6.8292179271e-01	 9.3216225359e-01	-5.6012257105e-01
 7.4332841171e-01	 8.9439685016e-01	-9.4162190925e-02
 7.3232247017e-01	 9.0343049146e-01	-2.0156654679e-01
 7.2121388214e-01	 9.1232307295e-01	-3.0796172534e-01
 7.1000535495e-01	 9.2107287940e-01	-4.1536275179e-01
 6.9869963321e-01	 9.2967826466e-01	-5.2622234009e-01
 6.8729949651e-01	 9.3813765265e-01	-6.4354000965e-01
 7.4806298758e-01	 9.0009364538e-01	-1.9438411944e-01
 7.3698694451e-01	 9.0918482580e-01	-2.9755568968e-01
 7.2580760113e-01	 9.1813404794e-01	-3.9900526405e-01
 7.1452768206e-01	 9.2693958563e-01	-5.0190413674e-01
 7.0314994934e-01	 9.3559978227e-01	-6.0891644698e-01
 6.9167720031e-01	 9.4411305171e-01	-7.2327655708e-01
 7.5279756345e-01	 9.0579044061e-01	-2.9003250893e-01
 7.4165141884e-01	 9.1493916014e-01	-3.8995737393e-01
 7.3040132013e-01	 9.2394502292e-01	-4.8646418953e-01
 7.1905000916e-01	 9.3280629187e-01	-5.8490542809e-01
 7.0760026548e-01	 9.4152129988e-01	-6.8812658832e-01
 6.9605490411e-01	 9.5008845077e-01	-7.9953627301e-01
 7.5753213932e-01	 9.1148723583e-01	-3.8165489377e-01
 7.4631589317e-01	 9.2069349448e-01	-4.7872525842e-01
 7.3499503912e-01	 9.2975599791e-01	-5.7111992687e-01
 7.2357233626e-01	 9.3867299811e-01	-6.6503821565e-01
 7.1205058161e-01	 9.4744281749e-01	-7.6433476132e-01
 7.0043260791e-01	 9.5606384983e-01	-8.7253292788e-01
 6.7854408891e-01	 9.2618685453e-01	-4.7283029726e-01
 6.6719874128e-01	 9.3439285621e-01	-5.9945450045e-01
 6.5576576481e-01	 9.4245181935e-01	-7.2484399717e-01
 6.4424799419e-01	 9.5036240039e-01	-8.5054735096e-01
 6.3264828981e-01	 9.5812332792e-01	-9.7838647748e-01
 6.2096953542e-01	 9.6573340326e-01	-1.1104415138e+00
 6.8292179271e-01	 9.3216225359e-01	-5.6012257105e-01
 6.7150324929e-01	 9.4042119721e-01	-6.8303133456e-01
 6.5999651168e-01	 9.4853215367e-01	-8.0393289213e-01
 6.4840443286e-01	 9.5649377072e-01	-9.2444665371e-01
 6.3672989168e-01	 9.6430476874e-01	-1.0464533166e+00
 6.2497579049e-01	 9.7196394135e-01	-1.1720795461e+00
 6.8729949651e-01	 9.3813765265e-01	-6.4354000965e-01
 6.7580775730e-01	 9.4644953822e-01	-7.6316412262e-01
 6.6422725855e-01	 9.5461248799e-01	-8.7972085576e-01
 6.5256087154e-01	 9.6262514104e-01	-9.9498224333e-01
 6.4081149355e-01	 9.7048620957e-01	-1.1109835504e+00
 6.2898204556e-01	 9.7819447943e-01	-1.2300074384e+00
 6.9167720031e-01	 9.4411305171e-01	-7.2327655708e-01
 6.8011226530e-01	 9.5247787923e-01	-8.3980140501e-01
 6.6845800542e-01	 9.6069282231e-01	-9.5206474774e-01
 6.5671731021e-01	 9.6875651137e-01	-1.0620713231e+00
 6.4489309542e-01	 9.7666765039e-01	-1.1721048777e+00
 6.3298830062e-01	 9.8442501752e-01	-1.2847114930e+00
 6.9605490411e-01	 9.5008845077e-01	-7.9953627301e-01
 6.8441677331e-01	 9.5850622024e-01	-9.1290782712e-01
 6.7268875228e-01	 9.6677315663e-01	-1.0208396423e+00
 6.6087374888e-01	 9.7488788169e-01	-1.1256475835e+00
 6.4897469729e-01	 9.8284909122e-01	-1.2299559667e+00
 6.3699455569e-01	 9.9065555560e-01	-1.3366797258e+00
 7.0043260791e-01	 9.5606384983e-01	-8.7253292788e-01
 6.8872128132e-01	 9.6453456125e-01	-9.8246355136e-01
 6.7691949915e-01	 9.7285349095e-01	-1.0859381791e+00
 6.6503018755e-01	 9.8101925202e-01	-1.1856606120e+00
 6.5305629916e-01	 9.8903053204e-01	-1.2846860432e+00
 6.4100081076e-01	 9.9688609369e-01	-1.3864017494e+00
 6.2096953542e-01	 9.6573340326e-01	-1.1104415138e+00
 6.0921463592e-01	 9.7319150093e-01	-1.2420650535e+00
 5.9738651501e-01	 9.8049656898e-01	-1.3688225933e+00
 5.8548811294e-01	 9.8764762932e-01	-1.4934717283e+00
 5.7352238417e-01	 9.9464377792e-01	-1.6189875053e+00
 5.6149229514e-01	 1.0014841849e+00	-1.7485437443e+00
 6.2497579049e-01	 9.7196394135e-01	-1.1720795461e+00
 6.1314505293e-01	 9.7947015577e-01	-1.2969687949e+00
 6.0124062156e-01	 9.8682235329e-01	-1.4170627463e+00
 5.8926545560e-01	 9.9401954951e-01	-1.5353061319e+00
 5.7722252858e-01	 1.0010608346e+00	-1.6548896164e+00
 5.6511482607e-01	 1.0079453732e+00	-1.7792301571e+00
 6.2898204556e-01	 9.7819447943e-01	-1.2300074384e+00
 6.1707546993e-01	 9.8574881062e-01	-1.3482204394e+00
 6.0509472811e-01	 9.9314813761e-01	-1.4620255248e+00
 5.9304279826e-01	 1.0003914697e+00	-1.5744397103e+00
 5.8092267300e-01	 1.0074778912e+00	-1.6887365385e+00
 5.6873735701e-01	 1.0144065615e+00	-1.8084259635e+00
 6.3298830062e-01	 9.8442501752e-01	-1.2847114930e+00
 6.2100588694e-01	 9.9202746546e-01	-1.3966341399e+00
 6.0894883466e-01	 9.9947392193e-01	-1.5046463971e+00
 5.9682014093e-01	 1.0067633899e+00	-1.6117253358e+00
 5.8462281741e-01	 1.0138949478e+00	-1.7210974860e+00
 5.7235988795e-01	 1.0208677498e+00	-1.8362187282e+00
 6.3699455569e-01	 9.9065555560e-01	-1.3366797258e+00
 6.2493630395e-01	 9.9830612030e-01	-1.4430172677e+00
 6.1280294121e-01	 1.0057997062e+00	-1.5458507382e+00
 6.0059748359e-01	 1.0131353101e+00	-1.6480075923e+00
 5.8832296182e-01	 1.0203120044e+00	-1.7525402350e+00
 5.7598241888e-01	 1.0273289381e+00	-1.8627063961e+00
 6.4100081076e-01	 9.9688609369e-01	-1.3864017494e+00
 6.2886672095e-01	 1.0045847751e+00	-1.4881705676e+00
 6.1665704776e-01	 1.0121254906e+00	-1.5865540943e+00
 6.0437482626e-01	 1.0195072303e+00	-1.6841229902e+00
 5.9202310624e-01	 1.0267290611e+00	-1.7836311309e+00
 5.7960494982e-01	 1.0337901263e+00	-1.8879969366e+00
 5.6149229514e-01	 1.0014841849e+00	-1.7485437443e+00
 5.4940082194e-01	 1.0081680946e+00	-1.8794997722e+00
 5.3725094808e-01	 1.0146948255e+00	-2.0078871054e+00
 5.2504566218e-01	 1.0210637702e+00	-2.1350692277e+00
 5.1278795579e-01	 1.0272743949e+00	-2.2624570728e+00
 5.0048082113e-01	 1.0333262398e+00	-2.3914952541e+00
 5.6511482607e-01	 1.0079453732e+00	-1.7792301571e+00
 5.5294534337e-01	 1.0146724049e+00	-1.9051328340e+00
 5.4071708323e-01	 1.0212412437e+00	-2.0278482960e+00
 5.2843305355e-01	 1.0276512784e+00	-2.1486436351e+00
 5.1609626518e-01	 1.0339019717e+00	-2.2688075700e+00
 5.0370972966e-01	 1.0399928607e+00	-2.3896371551e+00
 5.6873735701e-01	 1.0144065615e+00	-1.8084259635e+00
 5.5648986481e-01	 1.0211767152e+00	-1.9294683914e+00
 5.4418321837e-01	 1.0277876620e+00	-2.0463060619e+00
 5.3182044491e-01	 1.0342387865e+00	-2.1603562076e+00
 5.1940457457e-01	 1.0405295484e+00	-2.2730513272e+00
 5.0693863818e-01	 1.0466594816e+00	-2.3858255274e+00
 5.7235988795e-01	 1.0208677498e+00	-1.8362187282e+00
 5.6003438624e-01	 1.0276810255e+00	-1.9521356324e+00
 5.4764935352e-01	 1.0343340802e+00	-2.0626702997e+00
 5.3520783628e-01	 1.0408262947e+00	-2.1696315082e+00
 5.2271288396e-01	 1.0471571252e+00	-2.2748561643e+00
 5.1016754671e-01	 1.0533261025e+00	-2.3801944426e+00
 5.7598241888e-01	 1.0273289381e+00	-1.8627063961e+00
 5.6357890767e-01	 1.0341853357e+00	-1.9727853439e+00
 5.5111548867e-01	 1.0408804984e+00	-2.0763776959e+00
 5.3859522765e-01	 1.0474138029e+00	-2.1759201813e+00
 5.2602119336e-01	 1.0537847019e+00	-2.2739095107e+00
 5.1339645523e-01	 1.0599927234e+00	-2.3728854862e+00
 5.7960494982e-01	 1.0337901263e+00	-1.8879969366e+00
 5.6712342910e-01	 1.0406896460e+00	-1.9910892133e+00
 5.5458162382e-01	 1.0474269166e+00	-2.0868908736e+00
 5.4198261902e-01	 1.0540013111e+00	-2.1786981296e+00
 5.2932950275e-01	 1.0604122786e+00	-2.2699177911e+00
 5.1662536375e-01	 1.0666593443e+00	-2.3640475289e+00
 5.0048082113e-01	 1.0333262398e+00	-2.3914952541e+00
 4.8812724895e-01	 1.0392189177e+00	-2.5179096685e+00
 4.7573022627e-01	 1.0449521146e+00	-2.6382250398e+00
 4.6329273435e-01	 1.0505255886e+00	-2.7551205381e+00
 4.5081774652e-01	 1.0559391694e+00	-2.8712882322e+00
 4.3830822614e-01	 1.0611927577e+00	-2.9894171157e+00
 5.0370972966e-01	 1.0399928607e+00	-2.3896371551e+00
 4.9127645700e-01	 1.0459235559e+00	-2.5071710940e+00
 4.7879945354e-01	 1.0516937412e+00	-2.6186452289e+00
 4.6628171973e-01	 1.0573031731e+00	-2.7271820465e+00
 4.5372624811e-01	 1.0627516802e+00	-2.8359319307e+00
 4.4113602114e-01	 1.0680391626e+00	-2.9480557454e+00
 5.0693863818e-01	 1.0466594816e+00	-2.3858255274e+00
 4.9442566506e-01	 1.0526281941e+00	-2.4953712855e+00
 4.8186868080e-01	 1.0584353677e+00	-2.5995093561e+00
 4.6927070512e-01	 1.0640807575e+00	-2.7013920718e+00
 4.5663474970e-01	 1.0695641910e+00	-2.8042012182e+00
 4.4396381615e-01	 1.0748855675e+00	-2.9111303192e+00
 5.1016754671e-01	 1.0533261025e+00	-2.3801944426e+00
 4.9757487312e-01	 1.0593328322e+00	-2.4831169063e+00
 4.8493790807e-01	 1.0651769943e+00	-2.5816957969e+00
 4.7225969050e-01	 1.0708583420e+00	-2.6787083383e+00
 4.5954325129e-01	 1.0763767017e+00	-2.7769494791e+00
 4.4679161116e-01	 1.0817319724e+00	-2.8792150132e+00
 5.1339645523e-01	 1.0599927234e+00	-2.3728854862e+00
 5.0072408118e-01	 1.0660374704e+00	-2.4710098647e+00
 4.8800713533e-01	 1.0719186208e+00	-2.5660709433e+00
 4.7524867588e-01	 1.0776359264e+00	-2.6600741848e+00
 4.6245175288e-01	 1.0831892125e+00	-2.7550179185e+00
 4.4961940616e-01	 1.0885783773e+00	-2.8528784169e+00
 5.1662536375e-01	 1.0666593443e+00	-2.3640475289e+00
 5.0387328923e-01	 1.0727421086e+00	-2.4596474770e+00
 4.9107636260e-01	 1.0786602474e+00	-2.5534896001e+00
 4.7823766127e-01	 1.0844135109e+00	-2.6464190429e+00
 4.6536025447e-01	 1.0900017233e+00	-2.7392359785e+00
 4.5244720117e-01	 1.0954247821e+00	-2.8326837494e+00
 4.3830822614e-01	 1.0611927577e+00	-2.9894171157e+00
 4.2576712454e-01	 1.0662863245e+00	-3.1092490235e+00
 4.1319737907e-01	 1.0712199102e+00	-3.2277788449e+00
 4.0060191114e-01	 1.0759936240e+00	-3.3434999153e+00
 3.8798362431e-01	 1.0806076427e+00	-3.4548172525e+00
 3.7534540243e-01	 1.0850622097e+00	-3.5600432441e+00
 4.4113602114e-01	 1.0680391626e+00	-2.9480557454e+00
 4.2851400921e-01	 1.0731655911e+00	-3.0630870764e+00
 4.1586316861e-01	 1.0781310064e+00	-3.1772276587e+00
 4.0318643960e-01	 1.0829355183e+00	-3.2885792312e+00
 3.9048674446e-01	 1.0875793049e+00	-3.3951618356e+00
 3.7776698568e-01	 1.0920626111e+00	-3.4949100968e+00
 4.4396381615e-01	 1.0748855675e+00	-2.9111303192e+00
 4.3126089388e-01	 1.0800448577e+00	-3.0211201402e+00
 4.1852895815e-01	 1.0850421026e+00	-3.1296082576e+00
 4.0577096806e-01	 1.0898774127e+00	-3.2344756479e+00
 3.9298986462e-01	 1.0945509671e+00	-3.3335255876e+00
 3.8018856892e-01	 1.0990630124e+00	-3.4244802126e+00
 4.4679161116e-01	 1.0817319724e+00	-2.8792150132e+00
 4.3400777856e-01	 1.0869241243e+00	-2.9835546149e+00
 4.2119474770e-01	 1.0919531988e+00	-3.0847488619e+00
 4.0835549652e-01	 1.0968193070e+00	-3.1806255534e+00
 3.9549298478e-01	 1.1015226293e+00	-3.2689362079e+00
 3.8261015216e-01	 1.1060634138e+00	-3.3473525920e+00
 4.4961940616e-01	 1.0885783773e+00	-2.8528784169e+00
 4.3675466323e-01	 1.0938033909e+00	-2.9506001216e+00
 4.2386053724e-01	 1.0988642950e+00	-3.0424899709e+00
 4.1094002498e-01	 1.1037612014e+00	-3.1264870044e+00
 3.9799610494e-01	 1.1084942915e+00	-3.2004528677e+00
 3.8503173540e-01	 1.1130638151e+00	-3.2637387262e+00
 4.5244720117e-01	 1.0954247821e+00	-2.8326837494e+00
 4.3950154791e-01	 1.1006826575e+00	-2.9224694508e+00
 4.2652632678e-01	 1.1057753912e+00	-3.0026840345e+00
 4.1352455343e-01	 1.1107030957e+00	-3.0715391106e+00
 4.0049922509e-01	 1.1154659537e+00	-3.1351818582e+00
 3.8745331864e-01	 1.1200642165e+00	-3.2008068999e+00
 3.7534540243e-01	 1.0850622097e+00	-3.5600432441e+00
 3.6269010788e-01	 1.0893576345e+00	-3.6665562475e+00
 3.5002057975e-01	 1.0934942907e+00	-3.7748399450e+00
 3.3733963219e-01	 1.0974726159e+00	-3.8811033070e+00
 3.2465005275e-01	 1.1012931096e+00	-3.9819291095e+00
 3.1195460079e-01	 1.1049563327e+00	-4.0733706301e+00
 3.7776698568e-01	 1.0920626111e+00	-3.4949100968e+00
 3.6503004406e-01	 1.0963857482e+00	-3.5958350256e+00
 3.5227877703e-01	 1.1005490926e+00	-3.6984879360e+00
 3.3951601691e-01	 1.1045530844e+00	-3.7976512718e+00
 3.2674456922e-01	 1.1083982265e+00	-3.8893871256e+00
 3.1396721112e-01	 1.1120850832e+00	-3.9695065473e+00
 3.8018856892e-01	 1.0990630124e+00	-3.4244802126e+00
 3.6736998024e-01	 1.1034138620e+00	-3.5154706116e+00
 3.5453697432e-01	 1.1076038945e+00	-3.6080588528e+00
 3.4169240163e-01	 1.1116335529e+00	-3.6958185578e+00
 3.2883908569e-01	 1.1155033433e+00	-3.7812389231e+00
 3.1597982145e-01	 1.1192138338e+00	-3.8617374106e+00
 3.8261015216e-01	 1.1060634138e+00	-3.3473525920e+00
 3.6970991642e-01	 1.1104419758e+00	-3.4238038062e+00
 3.5679517161e-01	 1.1146586964e+00	-3.5065867083e+00
 3.4386878636e-01	 1.1187140214e+00	-3.5951813390e+00
 3.3093360216e-01	 1.1226084602e+00	-3.6829373837e+00
 3.1799243177e-01	 1.1263425843e+00	-3.7625039992e+00
 3.8503173540e-01	 1.1130638151e+00	-3.2637387262e+00
 3.7204985260e-01	 1.1174700895e+00	-3.3355743265e+00
 3.5905336890e-01	 1.1217134982e+00	-3.4215718273e+00
 3.4604517108e-01	 1.1257944899e+00	-3.5107082601e+00
 3.3302811863e-01	 1.1297135770e+00	-3.5963394611e+00
 3.2000504210e-01	 1.1334713348e+00	-3.6713928548e+00
 3.8745331864e-01	 1.1200642165e+00	-3.2008068999e+00
 3.7438978878e-01	 1.1244982033e+00	-3.2731189539e+00
 3.6131156619e-01	 1.1287683001e+00	-3.3568053410e+00
 3.4822155581e-01	 1.1328749583e+00	-3.4414722401e+00
 3.3512263510e-01	 1.1368186938e+00	-3.5207096743e+00
 3.2201765243e-01	 1.1406000854e+00	-3.5880193644e+00
 3.1195460079e-01	 1.1049563327e+00	-4.0733706301e+00
 2.9925600594e-01	 1.1084629056e+00	-4.1548934185e+00
 2.8655696663e-01	 1.1118135073e+00	-4.2304217403e+00
 2.7386014866e-01	 1.1150088740e+00	-4.3057580163e+00
 2.6116818388e-01	 1.1180497976e+00	-4.3826982475e+00
 2.4848366885e-01	 1.1209371242e+00	-4.4605431500e+00
 3.1396721112e-01	 1.1120850832e+00	-3.9695065473e+00
 3.0118668985e-01	 1.1156142791e+00	-4.0436726382e+00
 2.8840572125e-01	 1.1189864977e+00	-4.1174581072e+00
 2.7562698833e-01	 1.1222024796e+00	-4.1913155478e+00
 2.6285313991e-01	 1.1252630221e+00	-4.2654556304e+00
 2.5008678930e-01	 1.1281689766e+00	-4.3398810621e+00
 3.1597982145e-01	 1.1192138338e+00	-3.8617374106e+00
 3.0311737376e-01	 1.1227656527e+00	-3.9358183121e+00
 2.9025447587e-01	 1.1261594880e+00	-4.0078677037e+00
 2.7739382800e-01	 1.1293960853e+00	-4.0788306718e+00
 2.6453809593e-01	 1.1324762466e+00	-4.1494132656e+00
 2.5168990974e-01	 1.1354008290e+00	-4.2201154090e+00
 3.1799243177e-01	 1.1263425843e+00	-3.7625039992e+00
 3.0504805767e-01	 1.1299170263e+00	-3.8335667275e+00
 2.9210323050e-01	 1.1333324784e+00	-3.9019071802e+00
 2.7916066767e-01	 1.1365896909e+00	-3.9687701484e+00
 2.6622305196e-01	 1.1396894711e+00	-4.0351602227e+00
 2.5329303019e-01	 1.1426326814e+00	-4.1018741448e+00
 3.2000504210e-01	 1.1334713348e+00	-3.6713928548e+00
 3.0697874158e-01	 1.1370683999e+00	-3.7368940009e+00
 2.9395198512e-01	 1.1405054688e+00	-3.7998480875e+00
 2.8092750734e-01	 1.1437832965e+00	-3.8616109118e+00
 2.6790800798e-01	 1.1469026956e+00	-3.9232929525e+00
 2.5489615063e-01	 1.1498645339e+00	-3.9857916397e+00
 3.2201765243e-01	 1.1406000854e+00	-3.5880193644e+00
 3.0890942549e-01	 1.1442197735e+00	-3.6457965941e+00
 2.9580073974e-01	 1.1476784591e+00	-3.7019758885e+00
 2.8269434700e-01	 1.1509769022e+00	-3.7578393406e+00
 2.6959296401e-01	 1.1541159201e+00	-3.8144147452e+00
 2.5649927107e-01	 1.1570963863e+00	-3.8725082601e+00
 2.4848366885e-01	 1.1209371242e+00	-4.4605431500e+00
 2.3580916364e-01	 1.1236717530e+00	-4.5370953131e+00
 2.2314719061e-01	 1.1262546344e+00	-4.6103476446e+00
 2.1050023337e-01	 1.1286867687e+00	-4.6796125239e+00
 1.9787073565e-01	 1.1309692047e+00	-4.7440428519e+00
 1.8526110037e-01	 1.1331030380e+00	-4.8026531010e+00
 2.5008678930e-01	 1.1281689766e+00	-4.3398810621e+00
 2.3733051308e-01	 1.1309212482e+00	-4.4126717357e+00
 2.2458684991e-01	 1.1335207933e+00	-4.4816987658e+00
 2.1185829939e-01	 1.1359686188e+00	-4.5463841181e+00
 1.9914732104e-01	 1.1382657803e+00	-4.6059937009e+00
 1.8645633328e-01	 1.1404133802e+00	-4.6596573846e+00
 2.5168990974e-01	 1.1354008290e+00	-4.2201154090e+00
 2.3885186252e-01	 1.1381707433e+00	-4.2891009534e+00
 2.2602650920e-01	 1.1407869522e+00	-4.3540526644e+00
 2.1321636541e-01	 1.1432504689e+00	-4.4144841272e+00
 2.0042390643e-01	 1.1455623558e+00	-4.4697550705e+00
 1.8765156618e-01	 1.1477237224e+00	-4.5190903771e+00
 2.5329303019e-01	 1.1426326814e+00	-4.1018741448e+00
 2.4037321197e-01	 1.1454202385e+00	-4.1669947060e+00
 2.2746616849e-01	 1.1480531112e+00	-4.2279756081e+00
 2.1457443143e-01	 1.1505323191e+00	-4.2844048403e+00
 2.0170049182e-01	 1.1528589313e+00	-4.3357175706e+00
 1.8884679909e-01	 1.1550340646e+00	-4.3812141674e+00
 2.5489615063e-01	 1.1498645339e+00	-3.9857916397e+00
 2.4189456141e-01	 1.1526697337e+00	-4.0469713069e+00
 2.2890582779e-01	 1.1553192701e+00	-4.1040410775e+00
 2.1593249745e-01	 1.1578141692e+00	-4.1566468719e+00
 2.0297707721e-01	 1.1601555068e+00	-4.2042817164e+00
 1.9004203199e-01	 1.1623444067e+00	-4.2463027894e+00
 2.5649927107e-01	 1.1570963863e+00	-3.8725082601e+00
 2.4341591085e-01	 1.1599192289e+00	-3.9296553006e+00
 2.3034548708e-01	 1.1625854290e+00	-3.9828294756e+00
 2.1729056347e-01	 1.1650960193e+00	-4.0317189010e+00
 2.0425366260e-01	 1.1674520823e+00	-4.0758576720e+00
 1.9123726490e-01	 1.1696547489e+00	-4.1146419467e+00
 1.8526110037e-01	 1.1331030380e+00	-4.8026531010e+00
 1.7267368870e-01	 1.1350894094e+00	-4.8565735789e+00
 1.6011081918e-01	 1.1369295034e+00	-4.9075566218e+00
 1.4757476694e-01	 1.1386245467e+00	-4.9553995894e+00
 1.3506776292e-01	 1.1401758064e+00	-4.9998316494e+00
 1.2259199325e-01	 1.1415845888e+00	-5.0405242569e+00
 1.8645633328e-01	 1.1404133802e+00	-4.6596573846e+00
 1.7378771250e-01	 1.1424125669e+00	-4.7087597040e+00
 1.6114379221e-01	 1.1442645324e+00	-4.7552649620e+00
 1.4852686221e-01	 1.1459705115e+00	-4.7990147995e+00
 1.3593916784e-01	 1.1475317794e+00	-4.8397701361e+00
 1.2338290934e-01	 1.1489496506e+00	-4.8772207307e+00
 1.8765156618e-01	 1.1477237224e+00	-4.5190903771e+00
 1.7490173630e-01	 1.1497357244e+00	-4.5640430446e+00
 1.6217676524e-01	 1.1515995615e+00	-4.6066993049e+00
 1.4947895748e-01	 1.1533164763e+00	-4.6469192409e+00
 1.3681057276e-01	 1.1548877523e+00	-4.6844720788e+00
 1.2417382542e-01	 1.1563147125e+00	-4.7190447480e+00
 1.8884679909e-01	 1.1550340646e+00	-4.3812141674e+00
 1.7601576010e-01	 1.1570588818e+00	-4.4225546473e+00
 1.6320973826e-01	 1.1589345906e+00	-4.4618814614e+00
 1.5043105275e-01	 1.1606624411e+00	-4.4990481981e+00
 1.3768197769e-01	 1.1622437252e+00	-4.5338098395e+00
 1.2496474151e-01	 1.1636797743e+00	-4.5658302336e+00
 1.9004203199e-01	 1.1623444067e+00	-4.2463027894e+00
 1.7712978389e-01	 1.1643820393e+00	-4.2844394065e+00
 1.6424271129e-01	 1.1662696196e+00	-4.3208482637e+00
 1.5138314802e-01	 1.1680084059e+00	-4.3553524167e+00
 1.3855338261e-01	 1.1695996982e+00	-4.3876709449e+00
 1.2575565759e-01	 1.1710448362e+00	-4.4174252442e+00
 1.9123726490e-01	 1.1696547489e+00	-4.1146419467e+00
 1.7824380769e-01	 1.1717051968e+00	-4.1498557681e+00
 1.6527568432e-01	 1.1736046487e+00	-4.1836512604e+00
 1.5233524329e-01	 1.1753543707e+00	-4.2157978063e+00
 1.3942478753e-01	 1.1769556711e+00	-4.2459578126e+00
 1.2654657368e-01	 1.1784098981e+00	-4.2736917332e+00
 1.2259199325e-01	 1.1415845888e+00	-5.0405242569e+00
 1.1014959858e-01	 1.1428522372e+00	-5.0780075562e+00
 9.7742673524e-02	 1.1439801309e+00	-5.1123659510e+00
 8.5373266189e-02	 1.1449696832e+00	-5.1425500982e+00
 7.3043377693e-02	 1.1458223401e+00	-5.1674989565e+00
 6.0754961794e-02	 1.1465395783e+00	-5.1861499767e+00
 1.2338290934e-01	 1.1489496506e+00	-4.8772207307e+00
 1.1086024115e-01	 1.1502254774e+00	-4.9118989563e+00
 9.8373271418e-02	 1.1513606479e+00	-4.9438501168e+00
 8.5924061455e-02	 1.1523565844e+00	-4.9719627692e+00
 7.3514625291e-02	 1.1532147423e+00	-4.9951026929e+00
 6.1146929289e-02	 1.1539366079e+00	-5.0121222329e+00
 1.2417382542e-01	 1.1563147125e+00	-4.7190447480e+00
 1.1157088372e-01	 1.1575987177e+00	-4.7511873918e+00
 9.9003869312e-02	 1.1587411648e+00	-4.7809478283e+00
 8.6474856721e-02	 1.1597434856e+00	-4.8071715876e+00
 7.3985872889e-02	 1.1606071445e+00	-4.8286694972e+00
 6.1538896785e-02	 1.1613336374e+00	-4.8442260969e+00
 1.2496474151e-01	 1.1636797743e+00	-4.5658302336e+00
 1.1228152629e-01	 1.1649719579e+00	-4.5956786960e+00
 9.9634467205e-02	 1.1661216818e+00	-4.6234326261e+00
 8.7025651986e-02	 1.1671303868e+00	-4.6479138714e+00
 7.4457120487e-02	 1.1679995467e+00	-4.6678968180e+00
 6.1930864280e-02	 1.1687306670e+00	-4.6821157933e+00
 1.2575565759e-01	 1.1710448362e+00	-4.4174252442e+00
 1.1299216886e-01	 1.1723451981e+00	-4.4451914422e+00
 1.0026506510e-01	 1.1735021988e+00	-4.4710894289e+00
 8.7576447252e-02	 1.1745172880e+00	-4.4939370010e+00
 7.4928368085e-02	 1.1753919489e+00	-4.5124909141e+00
 6.2322831775e-02	 1.1761276965e+00	-4.5254531851e+00
 1.2654657368e-01	 1.1784098981e+00	-4.2736917332e+00
 1.1370281143e-01	 1.1797184384e+00	-4.2995567523e+00
 1.0089566299e-01	 1.1808827158e+00	-4.3237143789e+00
 8.8127242518e-02	 1.1819041891e+00	-4.3449982949e+00
 7.5399615683e-02	 1.1827843511e+00	-4.3621667529e+00
 6.2714799271e-02	 1.1835247260e+00	-4.3739076877e+00
 6.0754961794e-02	 1.1465395783e+00	-5.1861499767e+00
 4.8509924555e-02	 1.1471229042e+00	-5.2011388888e+00
 3.6310124064e-02	 1.1475738516e+00	-5.2147297922e+00
 2.4157370212e-02	 1.1478939810e+00	-5.2253590642e+00
 1.2053424516e-02	 1.1480848771e+00	-5.2315416408e+00
 0.0000000000e+00	 1.1481481481e+00	-5.2318844544e+00
 6.1146929289e-02	 1.1539366079e+00	-5.0121222329e+00
 4.8822891810e-02	 1.1545236971e+00	-5.0257419912e+00
 3.6544382929e-02	 1.1549775539e+00	-5.0383518127e+00
 2.4313224213e-02	 1.1552997486e+00	-5.0483398112e+00
 1.2131188545e-02	 1.1554918763e+00	-5.0541522220e+00
 0.0000000000e+00	 1.1555555556e+00	-5.0543064679e+00
 6.1538896785e-02	 1.1613336374e+00	-4.8442260969e+00
 4.9135859065e-02	 1.1619244900e+00	-4.8566317586e+00
 3.6778641794e-02	 1.1623812562e+00	-4.8683688948e+00
 2.4469078215e-02	 1.1627055162e+00	-4.8777673362e+00
 1.2208952574e-02	 1.1628988755e+00	-4.8831952569e+00
 0.0000000000e+00	 1.1629629630e+00	-4.8830717984e+00
 6.1930864280e-02	 1.1687306670e+00	-4.6821157933e+00
 4.9448826320e-02	 1.1693252830e+00	-4.6934263619e+00
 3.7012900659e-02	 1.1697849585e+00	-4.7043811279e+00
 2.4624932216e-02	 1.1701112838e+00	-4.7132423168e+00
 1.2286716603e-02	 1.1703058747e+00	-4.7182913501e+00
 0.0000000000e+00	 1.1703703704e+00	-4.7178409558e+00
 6.2322831775e-02	 1.1761276965e+00	-4.5254531851e+00
 4.9761793575e-02	 1.1767260759e+00	-4.5357502776e+00
 3.7247159524e-02	 1.1771886607e+00	-4.5459931677e+00
 2.4780786218e-02	 1.1775170515e+00	-4.5543678556e+00
 1.2364480632e-02	 1.1777128739e+00	-4.5590609957e+00
 0.0000000000e+00	 1.1777777778e+00	-4.5582714173e+00
 6.2714799271e-02	 1.1835247260e+00	-4.3739076877e+00
 5.0074760831e-02	 1.1841268688e+00	-4.3832342197e+00
 3.7481418389e-02	 1.1845923630e+00	-4.3928141931e+00
 2.4936640219e-02	 1.1849228191e+00	-4.4007494732e+00
 1.2442244662e-02	 1.1851198731e+00	-4.4051246162e+00
 0.0000000000e+00	 1.1851851852e+00	-4.4040177225e+00
 1.1851851852e+00	 0.0000000000e+00	 3.1478628579e+00
 1.1851198731e+00	 1.2442244662e-02	 3.1465152331e+00
 1.1849228191e+00	 2.4936640219e-02	 3.1453079227e+00
 1.1845923630e+00	 3.7481418389e-02	 3.1436526674e+00
 1.1841268688e+00	 5.0074760831e-02	 3.1410963067e+00
 1.1835247260e+00	 6.2714799271e-02	 3.1373176561e+00
 1.1925925926e+00	 0.0000000000e+00	 3.2032987992e+00
 1.1925268724e+00	 1.2520008691e-02	 3.2018898542e+00
 1.1923285867e+00	 2.5092494220e-02	 3.2004059202e+00
 1.1919960653e+00	 3.7715677254e-02	 3.1982952523e+00
 1.1915276618e+00	 5.0387728086e-02	 3.1951281953e+00
 1.1909217556e+00	 6.3106766766e-02	 3.1905949856e+00
 1.2000000000e+00	 0.0000000000e+00	 3.2558541333e+00
 1.1999338716e+00	 1.2597772720e-02	 3.2543723429e+00
 1.1997343543e+00	 2.5248348222e-02	 3.2526197324e+00
 1.1993997675e+00	 3.7949936119e-02	 3.2500732943e+00
 1.1989284547e+00	 5.0700695341e-02	 3.2463182913e+00
 1.1983187851e+00	 6.3498734262e-02	 3.2410470525e+00
 1.2074074074e+00	 0.0000000000e+00	 3.3053736253e+00
 1.2073408708e+00	 1.2675536749e-02	 3.3038058145e+00
 1.2071401219e+00	 2.5404202223e-02	 3.3017969346e+00
 1.2068034698e+00	 3.8184194984e-02	 3.2988445885e+00
 1.2063292476e+00	 5.1013662596e-02	 3.2945399947e+00
 1.2057158146e+00	 6.3890701757e-02	 3.2885678518e+00
 1.2148148148e+00	 0.0000000000e+00	 3.3517044628e+00
 1.2147478700e+00	 1.2753300778e-02	 3.3500355567e+00
 1.2145458895e+00	 2.5560056224e-02	 3.3477870986e+00
 1.2142071721e+00	 3.8418453849e-02	 3.3444688092e+00
 1.2137300406e+00	 5.1326629851e-02	 3.3396685141e+00
 1.2131128442e+00	 6.4282669253e-02	 3.3330531488e+00
 1.2222222222e+00	 0.0000000000e+00	 3.3946961822e+00
 1.2221548692e+00	 1.2831064807e-02	 3.3929089618e+00
 1.2219516572e+00	 2.5715910226e-02	 3.3904417283e+00
 1.2216108743e+00	 3.8652712713e-02	 3.3868074517e+00
 1.2211308335e+00	 5.1639597106e-02	 3.3815808134e+00
 1.2205098737e+00	 6.4674636748e-02	 3.3744004313e+00
 1.1835247260e+00	 6.2714799271e-02	 3.1373176561e+00
 1.1827843511e+00	 7.5399615683e-02	 3.1328091512e+00
 1.1819041891e+00	 8.8127242518e-02	 3.1278350101e+00
 1.1808827158e+00	 1.0089566299e-01	 3.1219202889e+00
 1.1797184384e+00	 1.1370281143e-01	 3.1147119533e+00
 1.1784098981e+00	 1.2654657368e-01	 3.1059796703e+00
 1.1909217556e+00	 6.3106766766e-02	 3.1905949856e+00
 1.1901767533e+00	 7.5870863281e-02	 3.1852044280e+00
 1.1892910903e+00	 8.8678037784e-02	 3.1792086282e+00
 1.1882632327e+00	 1.0152626089e-01	 3.1720863041e+00
 1.1870916786e+00	 1.1441345401e-01	 3.1634304812e+00
 1.1857749599e+00	 1.2733748976e-01	 3.1529508632e+00
 1.1983187851e+00	 6.3498734262e-02	 3.2410470525e+00
 1.1975691555e+00	 7.6342110879e-02	 3.2347781251e+00
 1.1966779915e+00	 8.9228833049e-02	 3.2277601698e+00
 1.1956437497e+00	 1.0215685878e-01	 3.2194386465e+00
 1.1944649189e+00	 1.1512409658e-01	 3.2093657403e+00
 1.1931400218e+00	 1.2812840585e-01	 3.1972043751e+00
 1.2057158146e+00	 6.3890701757e-02	 3.2885678518e+00
 1.2049615577e+00	 7.6813358477e-02	 3.2814499983e+00
 1.2040648927e+00	 8.9779628315e-02	 3.2734401907e+00
 1.2030242667e+00	 1.0278745667e-01	 3.2639628332e+00
 1.2018381591e+00	 1.1583473915e-01	 3.2525414770e+00
 1.2005050837e+00	 1.2891932193e-01	 3.2388045438e+00
 1.2131128442e+00	 6.4282669253e-02	 3.3330531488e+00
 1.2123539598e+00	 7.7284606075e-02	 3.3251415401e+00
 1.2114517939e+00	 9.0330423581e-02	 3.3162009314e+00
 1.2104047837e+00	 1.0341805457e-01	 3.3056459925e+00
 1.2092113993e+00	 1.1654538172e-01	 3.2929829492e+00
 1.2078701455e+00	 1.2971023802e-01	 3.2778170900e+00
 1.2205098737e+00	 6.4674636748e-02	 3.3744004313e+00
 1.2197463620e+00	 7.7755853673e-02	 3.3657759359e+00
 1.2188386951e+00	 9.0881218847e-02	 3.3559962788e+00
 1.2177853006e+00	 1.0404865246e-01	 3.3444768301e+00
 1.2165846396e+00	 1.1725602429e-01	 3.3307168975e+00
 1.2152352074e+00	 1.3050115410e-01	 3.3143090912e+00
 1.1784098981e+00	 1.2654657368e-01	 3.1059796703e+00
 1.1769556711e+00	 1.3942478753e-01	 3.0964119621e+00
 1.1753543707e+00	 1.5233524329e-01	 3.0866687194e+00
 1.1736046487e+00	 1.6527568432e-01	 3.0766649242e+00
 1.1717051968e+00	 1.7824380769e-01	 3.0664418781e+00
 1.1696547489e+00	 1.9123726490e-01	 3.0561637682e+00
 1.1857749599e+00	 1.2733748976e-01	 3.1529508632e+00
 1.1843116441e+00	 1.4029619245e-01	 3.1413549920e+00
 1.1827003356e+00	 1.5328733856e-01	 3.1293950581e+00
 1.1809396777e+00	 1.6630865735e-01	 3.1170329264e+00
 1.1790283543e+00	 1.7935783149e-01	 3.1043586706e+00
 1.1769650911e+00	 1.9243249781e-01	 3.0915887359e+00
 1.1931400218e+00	 1.2812840585e-01	 3.1972043751e+00
 1.1916676170e+00	 1.4116759737e-01	 3.1836869555e+00
 1.1900463004e+00	 1.5423943383e-01	 3.1696454061e+00
 1.1882747068e+00	 1.6734163037e-01	 3.1550740034e+00
 1.1863515118e+00	 1.8047185529e-01	 3.1400970189e+00
 1.1842754333e+00	 1.9362773071e-01	 3.1249685929e+00
 1.2005050837e+00	 1.2891932193e-01	 3.2388045438e+00
 1.1990235900e+00	 1.4203900230e-01	 3.2235135158e+00
 1.1973922652e+00	 1.5519152910e-01	 3.2075661905e+00
 1.1956097358e+00	 1.6837460340e-01	 3.1909743774e+00
 1.1936746692e+00	 1.8158587909e-01	 3.1738815751e+00
 1.1915857755e+00	 1.9482296362e-01	 3.1565646748e+00
 1.2078701455e+00	 1.2971023802e-01	 3.2778170900e+00
 1.2063795629e+00	 1.4291040722e-01	 3.2609415742e+00
 1.2047382300e+00	 1.5614362437e-01	 3.2433049214e+00
 1.2029447649e+00	 1.6940757643e-01	 3.2249211730e+00
 1.2009978267e+00	 1.8269990289e-01	 3.2059376721e+00
 1.1988961177e+00	 1.9601819652e-01	 3.1866387195e+00
 1.2152352074e+00	 1.3050115410e-01	 3.3143090912e+00
 1.2137355359e+00	 1.4378181214e-01	 3.2960792453e+00
 1.2120841948e+00	 1.5709571964e-01	 3.2770101661e+00
 1.2102797939e+00	 1.7044054945e-01	 3.2571023870e+00
 1.2083209842e+00	 1.8381392668e-01	 3.2364912860e+00
 1.2062064598e+00	 1.9721342943e-01	 3.2154528197e+00
 1.1696547489e+00	 1.9123726490e-01	 3.0561637682e+00
 1.1674520823e+00	 2.0425366260e-01	 3.0439280311e+00
 1.1650960193e+00	 2.1729056347e-01	 3.0282369535e+00
 1.1625854290e+00	 2.3034548708e-01	 3.0100179368e+00
 1.1599192289e+00	 2.4341591085e-01	 2.9902735947e+00
 1.1570963863e+00	 2.5649927107e-01	 2.9700606760e+00
 1.1769650911e+00	 1.9243249781e-01	 3.0915887359e+00
 1.1747486578e+00	 2.0553024799e-01	 3.0767775957e+00
 1.1723778694e+00	 2.1864862950e-01	 3.0583365082e+00
 1.1698515879e+00	 2.3178514638e-01	 3.0371821250e+00
 1.1671687241e+00	 2.4493726029e-01	 3.0143148454e+00
 1.1643282387e+00	 2.5810239152e-01	 2.9907990788e+00
 1.1842754333e+00	 1.9362773071e-01	 3.1249685929e+00
 1.1820452333e+00	 2.0680683339e-01	 3.1076911308e+00
 1.1796597195e+00	 2.2000669552e-01	 3.0865919886e+00
 1.1771177469e+00	 2.3322480567e-01	 3.0625876913e+00
 1.1744182192e+00	 2.4645860974e-01	 3.0366881211e+00
 1.1715600911e+00	 2.5970551196e-01	 3.0099781987e+00
 1.1915857755e+00	 1.9482296362e-01	 3.1565646748e+00
 1.1893418089e+00	 2.0808341878e-01	 3.1369665257e+00
 1.1869415697e+00	 2.2136476154e-01	 3.1133390651e+00
 1.1843839058e+00	 2.3466446497e-01	 3.0866085674e+00
 1.1816677144e+00	 2.4797995918e-01	 3.0578053706e+00
 1.1787919435e+00	 2.6130863241e-01	 3.0280470556e+00
 1.1988961177e+00	 1.9601819652e-01	 3.1866387195e+00
 1.1966383844e+00	 2.0936000417e-01	 3.1649016741e+00
 1.1942234198e+00	 2.2272282756e-01	 3.1389128388e+00
 1.1916500647e+00	 2.3610412426e-01	 3.1096173633e+00
 1.1889172096e+00	 2.4950130862e-01	 3.0780762858e+00
 1.1860237959e+00	 2.6291175285e-01	 3.0454512946e+00
 1.2062064598e+00	 1.9721342943e-01	 3.2154528197e+00
 1.2039349599e+00	 2.1063658956e-01	 3.1917944151e+00
 1.2015052699e+00	 2.2408089358e-01	 3.1636477707e+00
 1.1989162237e+00	 2.3754378355e-01	 3.1319852836e+00
 1.1961667048e+00	 2.5102265807e-01	 3.0979082056e+00
 1.1932556483e+00	 2.6451487330e-01	 3.0626330746e+00
 1.1570963863e+00	 2.5649927107e-01	 2.9700606760e+00
 1.1541159201e+00	 2.6959296401e-01	 2.9489853102e+00
 1.1509769022e+00	 2.8269434700e-01	 2.9269259542e+00
 1.1476784591e+00	 2.9580073974e-01	 2.9053648850e+00
 1.1442197735e+00	 3.0890942549e-01	 2.8857376432e+00
 1.1406000854e+00	 3.2201765243e-01	 2.8693835464e+00
 1.1643282387e+00	 2.5810239152e-01	 2.9907990788e+00
 1.1613291446e+00	 2.7127792003e-01	 2.9664503491e+00
 1.1581705078e+00	 2.8446118667e-01	 2.9415284151e+00
 1.1548514495e+00	 2.9764949437e-01	 2.9177966188e+00
 1.1513711471e+00	 3.1084010939e-01	 2.8969813906e+00
 1.1477288359e+00	 3.2403026276e-01	 2.8807224793e+00
 1.1715600911e+00	 2.5970551196e-01	 3.0099781987e+00
 1.1685423691e+00	 2.7296287606e-01	 2.9824480906e+00
 1.1653641135e+00	 2.8622802634e-01	 2.9546251807e+00
 1.1620244399e+00	 2.9949824899e-01	 2.9284507144e+00
 1.1585225207e+00	 3.1277079330e-01	 2.9058410599e+00
 1.1548575864e+00	 3.2604287308e-01	 2.8886379586e+00
 1.1787919435e+00	 2.6130863241e-01	 3.0280470556e+00
 1.1757555936e+00	 2.7464783208e-01	 2.9974748430e+00
 1.1725577191e+00	 2.8799486601e-01	 2.9667827871e+00
 1.1691974302e+00	 3.0134700361e-01	 2.9379885639e+00
 1.1656738942e+00	 3.1470147721e-01	 2.9130992508e+00
 1.1619863370e+00	 3.2805548341e-01	 2.8940619035e+00
 1.1860237959e+00	 2.6291175285e-01	 3.0454512946e+00
 1.1829688181e+00	 2.7633278811e-01	 3.0120219477e+00
 1.1797513247e+00	 2.8976170568e-01	 2.9785604129e+00
 1.1763704206e+00	 3.0319575824e-01	 2.9470609570e+00
 1.1728252678e+00	 3.1663216112e-01	 2.9195238081e+00
 1.1691150875e+00	 3.3006809374e-01	 2.8979063656e+00
 1.1932556483e+00	 2.6451487330e-01	 3.0626330746e+00
 1.1901820426e+00	 2.7801774413e-01	 3.0265756612e+00
 1.1869449304e+00	 2.9152854535e-01	 2.9905097702e+00
 1.1835434110e+00	 3.0504451286e-01	 2.9563079992e+00
 1.1799766414e+00	 3.1856284503e-01	 2.9258677867e+00
 1.1762438380e+00	 3.3208070407e-01	 2.9010635617e+00
 1.1406000854e+00	 3.2201765243e-01	 2.8693835464e+00
 1.1368186938e+00	 3.3512263510e-01	 2.8451083143e+00
 1.1328749583e+00	 3.4822155581e-01	 2.8057391678e+00
 1.1287683001e+00	 3.6131156619e-01	 2.7582062100e+00
 1.1244982033e+00	 3.7438978878e-01	 2.7101333489e+00
 1.1200642165e+00	 3.8745331864e-01	 2.6843387625e+00
 1.1477288359e+00	 3.2403026276e-01	 2.8807224793e+00
 1.1439238107e+00	 3.3721715157e-01	 2.8567635023e+00
 1.1399554268e+00	 3.5039794053e-01	 2.8163045326e+00
 1.1358231020e+00	 3.6356976348e-01	 2.7657528223e+00
 1.1315263171e+00	 3.7672972496e-01	 2.7140175632e+00
 1.1270646178e+00	 3.8987490188e-01	 2.6838302942e+00
 1.1548575864e+00	 3.2604287308e-01	 2.8886379586e+00
 1.1510289275e+00	 3.3931166804e-01	 2.8636219865e+00
 1.1470358953e+00	 3.5257432525e-01	 2.8208170680e+00
 1.1428779039e+00	 3.6582796077e-01	 2.7665360911e+00
 1.1385544308e+00	 3.7906966114e-01	 2.7121273072e+00
 1.1340650192e+00	 3.9229648512e-01	 2.6789515274e+00
 1.1619863370e+00	 3.2805548341e-01	 2.8940619035e+00
 1.1581340443e+00	 3.4140618450e-01	 2.8667211089e+00
 1.1541163638e+00	 3.5475070998e-01	 2.8202969369e+00
 1.1499327057e+00	 3.6808615806e-01	 2.7614282208e+00
 1.1455825446e+00	 3.8140959732e-01	 2.7049908873e+00
 1.1410654205e+00	 3.9471806837e-01	 2.6697695016e+00
 1.1691150875e+00	 3.3006809374e-01	 2.8979063656e+00
 1.1652391612e+00	 3.4350070097e-01	 2.8670740197e+00
 1.1611968323e+00	 3.5692709470e-01	 2.8157384913e+00
 1.1569875076e+00	 3.7034435534e-01	 2.7512768876e+00
 1.1526106584e+00	 3.8374953350e-01	 2.6931102345e+00
 1.1480658219e+00	 3.9713965161e-01	 2.6563347131e+00
 1.1762438380e+00	 3.3208070407e-01	 2.9010635617e+00
 1.1723442780e+00	 3.4559521744e-01	 2.8656697466e+00
 1.1682773008e+00	 3.5910347943e-01	 2.8081102863e+00
 1.1640423095e+00	 3.7260255263e-01	 2.7372729647e+00
 1.1596387722e+00	 3.8608946968e-01	 2.6769614189e+00
 1.1550662233e+00	 3.9956123485e-01	 2.6386813498e+00
 1.1200642165e+00	 3.8745331864e-01	 2.6843387625e+00
 1.1154659537e+00	 4.0049922509e-01	 2.6716604861e+00
 1.1107030957e+00	 4.1352455343e-01	 2.6589074105e+00
 1.1057753912e+00	 4.2652632678e-01	 2.6386332780e+00
 1.1006826575e+00	 4.3950154791e-01	 2.6044305034e+00
 1.0954247821e+00	 4.5244720117e-01	 2.5575124778e+00
 1.1270646178e+00	 3.8987490188e-01	 2.6838302942e+00
 1.1224376159e+00	 4.0300234525e-01	 2.6621016661e+00
 1.1176449901e+00	 4.1610908189e-01	 2.6351630971e+00
 1.1126864874e+00	 4.2919211632e-01	 2.6073137261e+00
 1.1075619241e+00	 4.4224843258e-01	 2.5772456451e+00
 1.1022711870e+00	 4.5527499618e-01	 2.5314283580e+00
 1.1340650192e+00	 3.9229648512e-01	 2.6789515274e+00
 1.1294092781e+00	 4.0550546541e-01	 2.6511357109e+00
 1.1245868844e+00	 4.1869361035e-01	 2.6142769428e+00
 1.1195975836e+00	 4.3185790587e-01	 2.5724258713e+00
 1.1144411907e+00	 4.4499531726e-01	 2.5293661499e+00
 1.1091175919e+00	 4.5810279119e-01	 2.4868951520e+00
 1.1410654205e+00	 3.9471806837e-01	 2.6697695016e+00
 1.1363809403e+00	 4.0800858556e-01	 2.6383213712e+00
 1.1315287788e+00	 4.2127813881e-01	 2.5954271426e+00
 1.1265086798e+00	 4.3452369541e-01	 2.5446190394e+00
 1.1213204574e+00	 4.4774220193e-01	 2.4891822243e+00
 1.1159639968e+00	 4.6093058619e-01	 2.4321236574e+00
 1.1480658219e+00	 3.9713965161e-01	 2.6563347131e+00
 1.1433526026e+00	 4.1051170572e-01	 2.6232118525e+00
 1.1384706731e+00	 4.2386266727e-01	 2.5777270089e+00
 1.1334197760e+00	 4.3718948495e-01	 2.5226292583e+00
 1.1281997240e+00	 4.5048908661e-01	 2.4604432862e+00
 1.1228104017e+00	 4.6375838120e-01	 2.3934394963e+00
 1.1550662233e+00	 3.9956123485e-01	 2.6386813498e+00
 1.1503242648e+00	 4.1301482588e-01	 2.6053547365e+00
 1.1454125675e+00	 4.2644719573e-01	 2.5602935476e+00
 1.1403308722e+00	 4.3985527449e-01	 2.5052040766e+00
 1.1350789906e+00	 4.5323597128e-01	 2.4415935928e+00
 1.1296568066e+00	 4.6658617621e-01	 2.3707423137e+00
 1.0954247821e+00	 4.5244720117e-01	 2.5575124778e+00
 1.0900017233e+00	 4.6536025447e-01	 2.5064351787e+00
 1.0844135109e+00	 4.7823766127e-01	 2.4579925648e+00
 1.0786602474e+00	 4.9107636260e-01	 2.4106166224e+00
 1.0727421086e+00	 5.0387328923e-01	 2.3626731587e+00
 1.0666593443e+00	 5.1662536375e-01	 2.3124716459e+00
 1.1022711870e+00	 4.5527499618e-01	 2.5314283580e+00
 1.0968142340e+00	 4.6826875606e-01	 2.4775729091e+00
 1.0911910953e+00	 4.8122664665e-01	 2.4235595367e+00
 1.0854018739e+00	 4.9414558987e-01	 2.3689771304e+00
 1.0794467468e+00	 5.0702249729e-01	 2.3133182821e+00
 1.0733259652e+00	 5.1985427228e-01	 2.2559859910e+00
 1.1091175919e+00	 4.5810279119e-01	 2.4868951520e+00
 1.1036267448e+00	 4.7117725766e-01	 2.4372373964e+00
 1.0979686797e+00	 4.8421563203e-01	 2.3839679228e+00
 1.0921435005e+00	 4.9721481713e-01	 2.3273795004e+00
 1.0861513850e+00	 5.1017170535e-01	 2.2676522781e+00
 1.0799925861e+00	 5.2308318080e-01	 2.2048585156e+00
 1.1159639968e+00	 4.6093058619e-01	 2.4321236574e+00
 1.1104392556e+00	 4.7408575925e-01	 2.3835792853e+00
 1.1047462642e+00	 4.8720461741e-01	 2.3374845520e+00
 1.0988851270e+00	 5.0028404440e-01	 2.2843974971e+00
 1.0928560231e+00	 5.1332091341e-01	 2.2247552298e+00
 1.0866592070e+00	 5.2631208932e-01	 2.1588834802e+00
 1.1228104017e+00	 4.6375838120e-01	 2.3934394963e+00
 1.1172517664e+00	 4.7699426084e-01	 2.3308063764e+00
 1.1115238486e+00	 4.9019360280e-01	 2.2824904042e+00
 1.1056267536e+00	 5.0335327167e-01	 2.2386385203e+00
 1.0995606613e+00	 5.1647012146e-01	 2.1837276822e+00
 1.0933258279e+00	 5.2954099785e-01	 2.1178573353e+00
 1.1296568066e+00	 4.6658617621e-01	 2.3707423137e+00
 1.1240642771e+00	 4.7990276243e-01	 2.3002822470e+00
 1.1183014331e+00	 4.9318258818e-01	 2.2390047112e+00
 1.1123683801e+00	 5.0642249893e-01	 2.1894082720e+00
 1.1062652995e+00	 5.1961932952e-01	 2.1436893430e+00
 1.0999924488e+00	 5.3276990637e-01	 2.0815779272e+00
 1.0666593443e+00	 5.1662536375e-01	 2.3124716459e+00
 1.0604122786e+00	 5.2932950275e-01	 2.2641045628e+00
 1.0540013111e+00	 5.4198261902e-01	 2.2196596885e+00
 1.0474269166e+00	 5.5458162382e-01	 2.1744398572e+00
 1.0406896460e+00	 5.6712342910e-01	 2.1238096487e+00
 1.0337901263e+00	 5.7960494982e-01	 2.0632102731e+00
 1.0733259652e+00	 5.1985427228e-01	 2.2559859910e+00
 1.0670398554e+00	 5.3263781214e-01	 2.2025714874e+00
 1.0605888193e+00	 5.4537001039e-01	 2.1553111375e+00
 1.0539733349e+00	 5.5804775897e-01	 2.1085648928e+00
 1.0471939563e+00	 5.7066795053e-01	 2.0567770448e+00
 1.0402513146e+00	 5.8322748076e-01	 1.9944931809e+00
 1.0799925861e+00	 5.2308318080e-01	 2.2048585156e+00
 1.0736674321e+00	 5.3594612153e-01	 2.1461523946e+00
 1.0671763275e+00	 5.4875740176e-01	 2.0947188835e+00
 1.0605197531e+00	 5.6151389412e-01	 2.0446527853e+00
 1.0536982666e+00	 5.7421247197e-01	 1.9901362531e+00
 1.0467125029e+00	 5.8685001169e-01	 1.9254560778e+00
 1.0866592070e+00	 5.2631208932e-01	 2.1588834802e+00
 1.0802950089e+00	 5.3925443092e-01	 2.0953395189e+00
 1.0737638357e+00	 5.5214479313e-01	 2.0388187424e+00
 1.0670661713e+00	 5.6498002927e-01	 1.9838158669e+00
 1.0602025769e+00	 5.7775699340e-01	 1.9248966193e+00
 1.0531736912e+00	 5.9047254263e-01	 1.8567136356e+00
 1.0933258279e+00	 5.2954099785e-01	 2.1178573353e+00
 1.0869225856e+00	 5.4256274032e-01	 2.0506093853e+00
 1.0803513439e+00	 5.5553218450e-01	 1.9885191094e+00
 1.0736125896e+00	 5.6844616442e-01	 1.9271338409e+00
 1.0667068872e+00	 5.8130151483e-01	 1.8620364656e+00
 1.0596348795e+00	 5.9409507357e-01	 1.7888582242e+00
 1.0999924488e+00	 5.3276990637e-01	 2.0815779272e+00
 1.0935501624e+00	 5.4587104971e-01	 2.0124225091e+00
 1.0869388521e+00	 5.5891957587e-01	 1.9447009641e+00
 1.0801590078e+00	 5.7191229957e-01	 1.8756538956e+00
 1.0732111975e+00	 5.8484603626e-01	 1.8025031061e+00
 1.0660960678e+00	 5.9771760450e-01	 1.7224596150e+00
 1.0337901263e+00	 5.7960494982e-01	 2.0632102731e+00
 1.0267290611e+00	 5.9202310624e-01	 1.9994063374e+00
 1.0195072303e+00	 6.0437482626e-01	 1.9398069312e+00
 1.0121254906e+00	 6.1665704776e-01	 1.8809895552e+00
 1.0045847751e+00	 6.2886672095e-01	 1.8196785536e+00
 9.9688609369e-01	 6.4100081076e-01	 1.7527556433e+00
 1.0402513146e+00	 5.8322748076e-01	 1.9944931809e+00
 1.0331461177e+00	 5.9572325065e-01	 1.9278205286e+00
 1.0258791505e+00	 6.0815216892e-01	 1.8644057085e+00
 1.0184512749e+00	 6.2051115430e-01	 1.8012808355e+00
 1.0108634300e+00	 6.3279713796e-01	 1.7356078096e+00
 1.0031166318e+00	 6.4500706583e-01	 1.6646872678e+00
 1.0467125029e+00	 5.8685001169e-01	 1.9254560778e+00
 1.0395631743e+00	 5.9942339507e-01	 1.8563360631e+00
 1.0322510706e+00	 6.1192951158e-01	 1.7902187711e+00
 1.0247770592e+00	 6.2436526085e-01	 1.7241457114e+00
 1.0171420848e+00	 6.3672755496e-01	 1.6552830429e+00
 1.0093471699e+00	 6.4901332089e-01	 1.5809300113e+00
 1.0531736912e+00	 5.9047254263e-01	 1.8567136356e+00
 1.0459802310e+00	 6.0312353948e-01	 1.7850933920e+00
 1.0386229908e+00	 6.1570685425e-01	 1.7170585484e+00
 1.0311028435e+00	 6.2821936740e-01	 1.6492231124e+00
 1.0234207397e+00	 6.4065797197e-01	 1.5783323879e+00
 1.0155777079e+00	 6.5301957596e-01	 1.5012719485e+00
 1.0596348795e+00	 5.9409507357e-01	 1.7888582242e+00
 1.0523972876e+00	 6.0682368389e-01	 1.7142213359e+00
 1.0449949110e+00	 6.1948419691e-01	 1.6447329610e+00
 1.0374286278e+00	 6.3207347395e-01	 1.5761508357e+00
 1.0296993945e+00	 6.4458838898e-01	 1.5043822854e+00
 1.0218082460e+00	 6.5702583103e-01	 1.4254947717e+00
 1.0660960678e+00	 5.9771760450e-01	 1.7224596150e+00
 1.0588143442e+00	 6.1052382831e-01	 1.6438364175e+00
 1.0513668312e+00	 6.2326153958e-01	 1.5730444912e+00
 1.0437544121e+00	 6.3592758050e-01	 1.5045644689e+00
 1.0359780494e+00	 6.4851880598e-01	 1.4330563773e+00
 1.0280387841e+00	 6.6103208610e-01	 1.3533727848e+00
 9.9688609369e-01	 6.4100081076e-01	 1.7527556433e+00
 9.8903053204e-01	 6.5305629916e-01	 1.6851640448e+00
 9.8101925202e-01	 6.6503018755e-01	 1.6207496100e+00
 9.7285349095e-01	 6.7691949915e-01	 1.5550570271e+00
 9.6453456125e-01	 6.8872128132e-01	 1.4838881766e+00
 9.5606384983e-01	 7.0043260791e-01	 1.4033148884e+00
 1.0031166318e+00	 6.4500706583e-01	 1.6646872678e+00
 9.9521197287e-01	 6.5713790103e-01	 1.5941995622e+00
 9.8715062234e-01	 6.6918662622e-01	 1.5280154198e+00
 9.7893382526e-01	 6.8115024602e-01	 1.4610284526e+00
 9.7056290225e-01	 6.9302578933e-01	 1.3884081963e+00
 9.6203924889e-01	 7.0481031171e-01	 1.3056140912e+00
 1.0093471699e+00	 6.4901332089e-01	 1.5809300113e+00
 1.0013934137e+00	 6.6121950290e-01	 1.5073859192e+00
 9.9328199267e-01	 6.7334306490e-01	 1.4388893075e+00
 9.8501415958e-01	 6.8538099289e-01	 1.3699622479e+00
 9.7659124326e-01	 6.9733029734e-01	 1.2954180046e+00
 9.6801464796e-01	 7.0918801551e-01	 1.2103755792e+00
 1.0155777079e+00	 6.5301957596e-01	 1.5012719485e+00
 1.0075748545e+00	 6.6530110476e-01	 1.4247384546e+00
 9.9941336299e-01	 6.7749950357e-01	 1.3535691576e+00
 9.9109449390e-01	 6.8961173976e-01	 1.2821891110e+00
 9.8261958427e-01	 7.0163480535e-01	 1.2053264028e+00
 9.7399004702e-01	 7.1356571931e-01	 1.1180266117e+00
 1.0218082460e+00	 6.5702583103e-01	 1.4254947717e+00
 1.0137562953e+00	 6.6938270663e-01	 1.3462598383e+00
 1.0055447333e+00	 6.8165594224e-01	 1.2722350398e+00
 9.9717482822e-01	 6.9384248663e-01	 1.1980180491e+00
 9.8864792528e-01	 7.0593931335e-01	 1.1185180237e+00
 9.7996544608e-01	 7.1794342311e-01	 1.0289693253e+00
 1.0280387841e+00	 6.6103208610e-01	 1.3533727848e+00
 1.0199377362e+00	 6.7346430850e-01	 1.2719392132e+00
 1.0116761036e+00	 6.8581238091e-01	 1.1950484679e+00
 1.0032551625e+00	 6.9807323350e-01	 1.1177357178e+00
 9.9467626628e-01	 7.1024382136e-01	 1.0353527091e+00
 9.8594084514e-01	 7.2232112691e-01	 9.4358010644e-01
 9.5606384983e-01	 7.0043260791e-01	 1.4033148884e+00
 9.4744281749e-01	 7.1205058161e-01	 1.3209960359e+00
 9.3867299811e-01	 7.2357233626e-01	 1.2454430979e+00
 9.2975599791e-01	 7.3499503912e-01	 1.1746261233e+00
 9.2069349448e-01	 7.4631589317e-01	 1.1049990959e+00
 9.1148723583e-01	 7.5753213932e-01	 1.0251582505e+00
 9.6203924889e-01	 7.0481031171e-01	 1.3056140912e+00
 9.5336433510e-01	 7.1650089775e-01	 1.2211306352e+00
 9.4453970435e-01	 7.2809466336e-01	 1.1448235953e+00
 9.3556697290e-01	 7.3958875812e-01	 1.0748732407e+00
 9.2644782882e-01	 7.5098036750e-01	 1.0026254685e+00
 9.1718403105e-01	 7.6226671519e-01	 9.2030413138e-01
 9.6801464796e-01	 7.0918801551e-01	 1.2103755792e+00
 9.5928585271e-01	 7.2095121388e-01	 1.1243210381e+00
 9.5040641059e-01	 7.3261699046e-01	 1.0483527885e+00
 9.4137794788e-01	 7.4418247711e-01	 9.7971419865e-01
 9.3220216316e-01	 7.5564484184e-01	 9.0353367266e-01
 9.2288082628e-01	 7.6700129106e-01	 8.1961630407e-01
 9.7399004702e-01	 7.1356571931e-01	 1.1180266117e+00
 9.6520737031e-01	 7.2540153002e-01	 1.0309758428e+00
 9.5627311683e-01	 7.3713931756e-01	 9.5641149796e-01
 9.4718892287e-01	 7.4877619611e-01	 8.8687330876e-01
 9.3795649750e-01	 7.6030931617e-01	 8.0753523778e-01
 9.2857762150e-01	 7.7173586693e-01	 7.2286639368e-01
 9.7996544608e-01	 7.1794342311e-01	 1.0289693253e+00
 9.7112888792e-01	 7.2985184615e-01	 9.4147854936e-01
 9.6213982306e-01	 7.4166164467e-01	 8.6927421944e-01
 9.5299989786e-01	 7.5336991510e-01	 7.9608988942e-01
 9.4371083184e-01	 7.6497379050e-01	 7.1443513130e-01
 9.3427441673e-01	 7.7647044280e-01	 6.2982043756e-01
 9.8594084514e-01	 7.2232112691e-01	 9.4358010644e-01
 9.7705040553e-01	 7.3430216229e-01	 8.5618690240e-01
 9.6800652930e-01	 7.4618397177e-01	 7.8455816039e-01
 9.5881087284e-01	 7.5796363409e-01	 7.0719977231e-01
 9.4946516618e-01	 7.6963826483e-01	 6.2403261833e-01
 9.3997121195e-01	 7.8120501867e-01	 5.4023970397e-01
 9.1148723583e-01	 7.5753213932e-01	 1.0251582505e+00
 9.0213903928e-01	 7.6864105861e-01	 9.3670244900e-01
 8.9265079033e-01	 7.7963997442e-01	 8.4302636658e-01
 8.8302444139e-01	 7.9052625452e-01	 7.4904688088e-01
 8.7326201051e-01	 8.0129731323e-01	 6.6001767807e-01
 8.6336557992e-01	 8.1195061340e-01	 5.8148354328e-01
 9.1718403105e-01	 7.6226671519e-01	 9.2030413138e-01
 9.0777740828e-01	 7.7344506523e-01	 8.3097120895e-01
 8.9822985777e-01	 7.8451272426e-01	 7.3689027836e-01
 8.8854334415e-01	 7.9546704361e-01	 6.4297514414e-01
 8.7871989807e-01	 8.0630542143e-01	 5.5446968964e-01
 8.6876161479e-01	 8.1702530473e-01	 4.7690070240e-01
 9.2288082628e-01	 7.6700129106e-01	 8.1961630407e-01
 9.1341577727e-01	 7.7824907185e-01	 7.2997879874e-01
 9.0380892521e-01	 7.8938547410e-01	 6.3567126605e-01
 8.9406224691e-01	 8.0040783270e-01	 5.4172165962e-01
 8.8417778564e-01	 8.1131352964e-01	 4.5348314898e-01
 8.7415764967e-01	 8.2209999606e-01	 3.7658516453e-01
 9.2857762150e-01	 7.7173586693e-01	 7.2286639368e-01
 9.1905414627e-01	 7.8305307846e-01	 6.3346534605e-01
 9.0938799265e-01	 7.9425822394e-01	 5.3909249189e-01
 8.9958114967e-01	 8.0534862179e-01	 4.4500511735e-01
 8.8963567321e-01	 8.1632163785e-01	 3.5678272707e-01
 8.7955368454e-01	 8.2717468740e-01	 2.8027599423e-01
 9.3427441673e-01	 7.7647044280e-01	 6.2982043756e-01
 9.2469251526e-01	 7.8785708508e-01	 5.4116606944e-01
 9.1496706009e-01	 7.9913097378e-01	 4.4687244715e-01
 9.0510005243e-01	 8.1028941088e-01	 3.5253938934e-01
 8.9509356077e-01	 8.2132974606e-01	 2.6408780059e-01
 8.8494971942e-01	 8.3224937873e-01	 1.8770621327e-01
 9.3997121195e-01	 7.8120501867e-01	 5.4023970397e-01
 9.3033088426e-01	 7.9266109170e-01	 4.5281206159e-01
 9.2054612753e-01	 8.0400372362e-01	 3.5872571009e-01
 9.1061895519e-01	 8.1523019997e-01	 2.6403427076e-01
 9.0055144834e-01	 8.2633785426e-01	 1.7511318349e-01
 8.9034575429e-01	 8.3732407007e-01	 9.8603527936e-02
 8.6336557992e-01	 8.1195061340e-01	 5.8148354328e-01
 8.5333729461e-01	 8.2248366842e-01	 5.0037779896e-01
 8.4317936076e-01	 8.3289404414e-01	 4.0529139165e-01
 8.3289404414e-01	 8.4317936076e-01	 3.0449885570e-01
 8.2248366842e-01	 8.5333729461e-01	 2.0629956846e-01
 8.1195061340e-01	 8.6336557992e-01	 1.1895860097e-01
 8.6876161479e-01	 8.1702530473e-01	 4.7690070240e-01
 8.5867065270e-01	 8.2762419135e-01	 3.9686684455e-01
 8.4844923177e-01	 8.3809963192e-01	 3.0274517134e-01
 8.3809963192e-01	 8.4844923177e-01	 2.0297232078e-01
 8.2762419135e-01	 8.5867065270e-01	 1.0601605154e-01
 8.1702530473e-01	 8.6876161479e-01	 2.0313878670e-02
 8.7415764967e-01	 8.2209999606e-01	 3.7658516453e-01
 8.6400401079e-01	 8.3276471427e-01	 2.9748212586e-01
 8.5371910277e-01	 8.4330521969e-01	 2.0438694655e-01
 8.4330521969e-01	 8.5371910277e-01	 1.0580722610e-01
 8.3276471427e-01	 8.6400401079e-01	 1.0285740970e-02
 8.2209999606e-01	 8.7415764967e-01	-7.3662991336e-02
 8.7955368454e-01	 8.2717468740e-01	 2.8027599423e-01
 8.6933736888e-01	 8.3790523720e-01	 2.0196697354e-01
 8.5898897378e-01	 8.4851080747e-01	 1.0993824117e-01
 8.4851080747e-01	 8.5898897378e-01	 1.2679098794e-02
 8.3790523720e-01	 8.6933736888e-01	-8.1284102809e-02
 8.2717468740e-01	 8.7955368454e-01	-1.6345333184e-01
 8.8494971942e-01	 8.3224937873e-01	 1.8770621327e-01
 8.7467072697e-01	 8.4304576013e-01	 1.1005811461e-01
 8.6425884478e-01	 8.5371639525e-01	 1.9113999693e-02
 8.5371639525e-01	 8.6425884478e-01	-7.6742541182e-02
 8.4304576013e-01	 8.7467072697e-01	-1.6909114360e-01
 8.3224937873e-01	 8.8494971942e-01	-2.4954183426e-01
 8.9034575429e-01	 8.3732407007e-01	 9.8603527936e-02
 8.8000408506e-01	 8.4818628306e-01	 2.1486387319e-02
 8.6952871578e-01	 8.5892198302e-01	-6.8376730565e-02
 8.5892198302e-01	 8.6952871578e-01	-1.6279355013e-01
 8.4818628306e-01	 8.8000408506e-01	-2.5353740736e-01
 8.3732407007e-01	 8.9034575429e-01	-3.3241608126e-01
 8.1195061340e-01	 8.6336557992e-01	 1.1895860097e-01
 8.0129731323e-01	 8.7326201051e-01	 3.1845441000e-02
 7.9052625452e-01	 8.8302444139e-01	-6.7248306195e-02
 7.7963997442e-01	 8.9265079033e-01	-1.7268717220e-01
 7.6864105861e-01	 9.0213903928e-01	-2.7914511310e-01
 7.5753213932e-01	 9.1148723583e-01	-3.8165489377e-01
 8.1702530473e-01	 8.6876161479e-01	 2.0313878670e-02
 8.0630542143e-01	 8.7871989807e-01	-6.4982367308e-02
 7.9546704361e-01	 8.8854334415e-01	-1.6226818821e-01
 7.8451272426e-01	 8.9822985777e-01	-2.6569061561e-01
 7.7344506523e-01	 9.0777740828e-01	-3.6971122350e-01
 7.6226671519e-01	 9.1718403105e-01	-4.6915775356e-01
 8.2209999606e-01	 8.7415764967e-01	-7.3662991336e-02
 8.1131352964e-01	 8.8417778564e-01	-1.5716027142e-01
 8.0040783270e-01	 8.9406224691e-01	-2.5274257187e-01
 7.8938547410e-01	 9.0380892521e-01	-3.5428066096e-01
 7.7824907185e-01	 9.1341577727e-01	-4.5596079240e-01
 7.6700129106e-01	 9.2288082628e-01	-5.5233879320e-01
 8.2717468740e-01	 8.7955368454e-01	-1.6345333184e-01
 8.1632163785e-01	 8.8963567321e-01	-2.4524402882e-01
 8.0534862179e-01	 8.9958114967e-01	-3.3925490330e-01
 7.9425822394e-01	 9.0938799265e-01	-4.3902256356e-01
 7.8305307846e-01	 9.1905414627e-01	-5.3839592605e-01
 7.7173586693e-01	 9.2857762150e-01	-6.3159298837e-01
 8.3224937873e-01	 8.8494971942e-01	-2.4954183426e-01
 8.2132974606e-01	 8.9509356077e-01	-3.2979156779e-01
 8.1028941088e-01	 9.0510005243e-01	-4.2239074423e-01
 7.9913097378e-01	 9.1496706009e-01	-5.2048475018e-01
 7.8785708508e-01	 9.2469251526e-01	-6.1752403642e-01
 7.7647044280e-01	 9.3427441673e-01	-7.0732379896e-01
 8.3732407007e-01	 8.9034575429e-01	-3.3241608126e-01
 8.2633785426e-01	 9.0055144834e-01	-4.1136258533e-01
 8.1523019997e-01	 9.1061895519e-01	-5.0273741175e-01
 8.0400372362e-01	 9.2054612753e-01	-5.9923846807e-01
 7.9266109170e-01	 9.3033088426e-01	-6.9385746736e-01
 7.8120501867e-01	 9.3997121195e-01	-7.7994274116e-01
 7.5753213932e-01	 9.1148723583e-01	-3.8165489377e-01
 7.4631589317e-01	 9.2069349448e-01	-4.7872525842e-01
 7.3499503912e-01	 9.2975599791e-01	-5.7111992687e-01
 7.2357233626e-01	 9.3867299811e-01	-6.6503821565e-01
 7.1205058161e-01	 9.4744281749e-01	-7.6433476132e-01
 7.0043260791e-01	 9.5606384983e-01	-8.7253292788e-01
 7.6226671519e-01	 9.1718403105e-01	-4.6915775356e-01
 7.5098036750e-01	 9.2644782882e-01	-5.6337152172e-01
 7.3958875812e-01	 9.3556697290e-01	-6.5294326996e-01
 7.2809466336e-01	 9.4453970435e-01	-7.4209157714e-01
 7.1650089775e-01	 9.5336433510e-01	-8.3713409940e-01
 7.0481031171e-01	 9.6203924889e-01	-9.4170416477e-01
 7.6700129106e-01	 9.2288082628e-01	-5.5233879320e-01
 7.5564484184e-01	 9.3220216316e-01	-6.4357787133e-01
 7.4418247711e-01	 9.4137794788e-01	-7.3123385172e-01
 7.3261699046e-01	 9.5040641059e-01	-8.1574822619e-01
 7.2095121388e-01	 9.5928585271e-01	-9.0621509615e-01
 7.0918801551e-01	 9.6801464796e-01	-1.0068866889e+00
 7.7173586693e-01	 9.2857762150e-01	-6.3159298837e-01
 7.6030931617e-01	 9.3795649750e-01	-7.1964577916e-01
 7.4877619611e-01	 9.4718892287e-01	-8.0523456430e-01
 7.3713931756e-01	 9.5627311683e-01	-8.8652037279e-01
 7.2540153002e-01	 9.6520737031e-01	-9.7220709115e-01
 7.1356571931e-01	 9.7399004702e-01	-1.0688954754e+00
 7.7647044280e-01	 9.3427441673e-01	-7.0732379896e-01
 7.6497379050e-01	 9.4371083184e-01	-7.9188800896e-01
 7.5336991510e-01	 9.5299989786e-01	-8.7518615090e-01
 7.4166164467e-01	 9.6213982306e-01	-9.5488180191e-01
 7.2985184615e-01	 9.7112888792e-01	-1.0357382350e+00
 7.1794342311e-01	 9.7996544608e-01	-1.1285396350e+00
 7.8120501867e-01	 9.3997121195e-01	-7.7994274116e-01
 7.6963826483e-01	 9.4946516618e-01	-8.6062814569e-01
 7.5796363409e-01	 9.5881087284e-01	-9.4139084469e-01
 7.4618397177e-01	 9.6800652930e-01	-1.0200239708e+00
 7.3430216229e-01	 9.7705040553e-01	-1.0974353898e+00
 7.2232112691e-01	 9.8594084514e-01	-1.1866224602e+00
 7.0043260791e-01	 9.5606384983e-01	-8.7253292788e-01
 6.8872128132e-01	 9.6453456125e-01	-9.8246355136e-01
 6.7691949915e-01	 9.7285349095e-01	-1.0859381791e+00
 6.6503018755e-01	 9.8101925202e-01	-1.1856606120e+00
 6.5305629916e-01	 9.8903053204e-01	-1.2846860432e+00
 6.4100081076e-01	 9.9688609369e-01	-1.3864017494e+00
 7.0481031171e-01	 9.6203924889e-01	-9.4170416477e-01
 6.9302578933e-01	 9.7056290225e-01	-1.0479030883e+00
 6.8115024602e-01	 9.7893382526e-01	-1.1469675664e+00
 6.6918662622e-01	 9.8715062234e-01	-1.2419827376e+00
 6.5713790103e-01	 9.9521197287e-01	-1.3364276795e+00
 6.4500706583e-01	 1.0031166318e+00	-1.4341546325e+00
 7.0918801551e-01	 9.6801464796e-01	-1.0068866889e+00
 6.9733029734e-01	 9.7659124326e-01	-1.1093088758e+00
 6.8538099289e-01	 9.8501415958e-01	-1.2042304887e+00
 6.7334306490e-01	 9.9328199267e-01	-1.2950302928e+00
 6.6121950290e-01	 1.0013934137e+00	-1.3855094772e+00
 6.4901332089e-01	 1.0093471699e+00	-1.4798697429e+00
 7.1356571931e-01	 9.7399004702e-01	-1.0688954754e+00
 7.0163480535e-01	 9.8261958427e-01	-1.1676370560e+00
 6.8961173976e-01	 9.9109449390e-01	-1.2586685311e+00
 6.7749950357e-01	 9.9941336299e-01	-1.3455764030e+00
 6.6530110476e-01	 1.0075748545e+00	-1.4323841976e+00
 6.5301957596e-01	 1.0155777079e+00	-1.5235297428e+00
 7.1794342311e-01	 9.7996544608e-01	-1.1285396350e+00
 7.0593931335e-01	 9.8864792528e-01	-1.2238343064e+00
 6.9384248663e-01	 9.9717482822e-01	-1.3112140018e+00
 6.8165594224e-01	 1.0055447333e+00	-1.3943888488e+00
 6.6938270663e-01	 1.0137562953e+00	-1.4775068838e+00
 6.5702583103e-01	 1.0218082460e+00	-1.5651308452e+00
 7.2232112691e-01	 9.8594084514e-01	-1.1866224602e+00
 7.1024382136e-01	 9.9467626628e-01	-1.2788379996e+00
 6.9807323350e-01	 1.0032551625e+00	-1.3627900916e+00
 6.8581238091e-01	 1.0116761036e+00	-1.4422301117e+00
 6.7346430850e-01	 1.0199377362e+00	-1.5213346818e+00
 6.6103208610e-01	 1.0280387841e+00	-1.6046822990e+00
 6.4100081076e-01	 9.9688609369e-01	-1.3864017494e+00
 6.2886672095e-01	 1.0045847751e+00	-1.4881705676e+00
 6.1665704776e-01	 1.0121254906e+00	-1.5865540943e+00
 6.0437482626e-01	 1.0195072303e+00	-1.6841229902e+00
 5.9202310624e-01	 1.0267290611e+00	-1.7836311309e+00
 5.7960494982e-01	 1.0337901263e+00	-1.8879969366e+00
 6.4500706583e-01	 1.0031166318e+00	-1.4341546325e+00
 6.3279713796e-01	 1.0108634300e+00	-1.5322243446e+00
 6.2051115430e-01	 1.0184512749e+00	-1.6264687674e+00
 6.0815216892e-01	 1.0258791505e+00	-1.7192831472e+00
 5.9572325065e-01	 1.0331461177e+00	-1.8132079157e+00
 5.8322748076e-01	 1.0402513146e+00	-1.9109107580e+00
 6.4901332089e-01	 1.0093471699e+00	-1.4798697429e+00
 6.3672755496e-01	 1.0171420848e+00	-1.5744854701e+00
 6.2436526085e-01	 1.0247770592e+00	-1.6643224171e+00
 6.1192951158e-01	 1.0322510706e+00	-1.7518651599e+00
 5.9942339507e-01	 1.0395631743e+00	-1.8397297279e+00
 5.8685001169e-01	 1.0467125029e+00	-1.9306455153e+00
 6.5301957596e-01	 1.0155777079e+00	-1.5235297428e+00
 6.4065797197e-01	 1.0234207397e+00	-1.6145325426e+00
 6.2821936740e-01	 1.0311028435e+00	-1.6995665039e+00
 6.1570685425e-01	 1.0386229908e+00	-1.7814650307e+00
 6.0312353948e-01	 1.0459802310e+00	-1.8632032525e+00
 5.9047254263e-01	 1.0531736912e+00	-1.9478788938e+00
 6.5702583103e-01	 1.0218082460e+00	-1.5651308452e+00
 6.4458838898e-01	 1.0296993945e+00	-1.6519673581e+00
 6.3207347395e-01	 1.0374286278e+00	-1.7316785681e+00
 6.1948419691e-01	 1.0449949110e+00	-1.8077010867e+00
 6.0682368389e-01	 1.0523972876e+00	-1.8836472415e+00
 5.9409507357e-01	 1.0596348795e+00	-1.9632840268e+00
 6.6103208610e-01	 1.0280387841e+00	-1.6046822990e+00
 6.4851880598e-01	 1.0359780494e+00	-1.6864141107e+00
 6.3592758050e-01	 1.0437544121e+00	-1.7601613505e+00
 6.2326153958e-01	 1.0513668312e+00	-1.8302132217e+00
 6.1052382831e-01	 1.0588143442e+00	-1.9010920741e+00
 5.9771760450e-01	 1.0660960678e+00	-1.9775295671e+00
 5.7960494982e-01	 1.0337901263e+00	-1.8879969366e+00
 5.6712342910e-01	 1.0406896460e+00	-1.9910892133e+00
 5.5458162382e-01	 1.0474269166e+00	-2.0868908736e+00
 5.4198261902e-01	 1.0540013111e+00	-2.1786981296e+00
 5.2932950275e-01	 1.0604122786e+00	-2.2699177911e+00
 5.1662536375e-01	 1.0666593443e+00	-2.3640475289e+00
 5.8322748076e-01	 1.0402513146e+00	-1.9109107580e+00
 5.7066795053e-01	 1.0471939563e+00	-2.0064653899e+00
 5.5804775897e-01	 1.0539733349e+00	-2.0946784702e+00
 5.4537001039e-01	 1.0605888193e+00	-2.1795315879e+00
 5.3263781214e-01	 1.0670398554e+00	-2.2651621918e+00
 5.1985427228e-01	 1.0733259652e+00	-2.3558414557e+00
 5.8685001169e-01	 1.0467125029e+00	-1.9306455153e+00
 5.7421247197e-01	 1.0536982666e+00	-2.0194097719e+00
 5.6151389412e-01	 1.0605197531e+00	-2.1015878741e+00
 5.4875740176e-01	 1.0671763275e+00	-2.1812779300e+00
 5.3594612153e-01	 1.0736674321e+00	-2.2627500800e+00
 5.2308318080e-01	 1.0799925861e+00	-2.3504236634e+00
 5.9047254263e-01	 1.0531736912e+00	-1.9478788938e+00
 5.7775699340e-01	 1.0602025769e+00	-2.0312108129e+00
 5.6498002927e-01	 1.0670661713e+00	-2.1091489213e+00
 5.5214479313e-01	 1.0737638357e+00	-2.1853503213e+00
 5.3925443092e-01	 1.0802950089e+00	-2.2636315758e+00
 5.2631208932e-01	 1.0866592070e+00	-2.3479468588e+00
 5.9409507357e-01	 1.0596348795e+00	-1.9632840268e+00
 5.8130151483e-01	 1.0667068872e+00	-2.0431372525e+00
 5.6844616442e-01	 1.0736125896e+00	-2.1188655691e+00
 5.5553218450e-01	 1.0803513439e+00	-2.1931386035e+00
 5.4256274032e-01	 1.0869225856e+00	-2.2687444663e+00
 5.2954099785e-01	 1.0933258279e+00	-2.3485705494e+00
 5.9771760450e-01	 1.0660960678e+00	-1.9775295671e+00
 5.8484603626e-01	 1.0732111975e+00	-2.0564386558e+00
 5.7191229957e-01	 1.0801590078e+00	-2.1322166302e+00
 5.5891957587e-01	 1.0869388521e+00	-2.2060099608e+00
 5.4587104971e-01	 1.0935501624e+00	-2.2790145475e+00
 5.3276990637e-01	 1.0999924488e+00	-2.3524608126e+00
 5.1662536375e-01	 1.0666593443e+00	-2.3640475289e+00
 5.0387328923e-01	 1.0727421086e+00	-2.4596474770e+00
 4.9107636260e-01	 1.0786602474e+00	-2.5534896001e+00
 4.7823766127e-01	 1.0844135109e+00	-2.6464190429e+00
 4.6536025447e-01	 1.0900017233e+00	-2.7392359785e+00
 4.5244720117e-01	 1.0954247821e+00	-2.8326837494e+00
 5.1985427228e-01	 1.0733259652e+00	-2.3558414557e+00
 5.0702249729e-01	 1.0794467468e+00	-2.4497915888e+00
 4.9414558987e-01	 1.0854018739e+00	-2.5421722660e+00
 4.8122664665e-01	 1.0911910953e+00	-2.6326929367e+00
 4.6826875606e-01	 1.0968142340e+00	-2.7209826926e+00
 4.5527499618e-01	 1.1022711870e+00	-2.8065814003e+00
 5.2308318080e-01	 1.0799925861e+00	-2.3504236634e+00
 5.1017170535e-01	 1.0861513850e+00	-2.4413373965e+00
 4.9721481713e-01	 1.0921435005e+00	-2.5288981641e+00
 4.8421563203e-01	 1.0979686797e+00	-2.6121064518e+00
 4.7117725766e-01	 1.1036267448e+00	-2.6898646524e+00
 4.5810279119e-01	 1.1091175919e+00	-2.7609699542e+00
 5.2631208932e-01	 1.0866592070e+00	-2.3479468588e+00
 5.1332091341e-01	 1.0928560231e+00	-2.4335995833e+00
 5.0028404440e-01	 1.0988851270e+00	-2.5123833720e+00
 4.8720461741e-01	 1.1047462642e+00	-2.5830079721e+00
 4.7408575925e-01	 1.1104392556e+00	-2.6440847578e+00
 4.6093058619e-01	 1.1159639968e+00	-2.7046953273e+00
 5.2954099785e-01	 1.0933258279e+00	-2.3485705494e+00
 5.1647012146e-01	 1.0995606613e+00	-2.4259197435e+00
 5.0335327167e-01	 1.1056267536e+00	-2.4913851357e+00
 4.9019360280e-01	 1.1115238486e+00	-2.5438728967e+00
 4.7699426084e-01	 1.1172517664e+00	-2.5989510345e+00
 4.6375838120e-01	 1.1228104017e+00	-2.6659497141e+00
 5.3276990637e-01	 1.0999924488e+00	-2.3524608126e+00
 5.1961932952e-01	 1.1062652995e+00	-2.4176655508e+00
 5.0642249893e-01	 1.1123683801e+00	-2.4654178885e+00
 4.9318258818e-01	 1.1183014331e+00	-2.5163800870e+00
 4.7990276243e-01	 1.1240642771e+00	-2.5776063752e+00
 4.6658617621e-01	 1.1296568066e+00	-2.6451411201e+00
 4.5244720117e-01	 1.0954247821e+00	-2.8326837494e+00
 4.3950154791e-01	 1.1006826575e+00	-2.9224694508e+00
 4.2652632678e-01	 1.1057753912e+00	-3.0026840345e+00
 4.1352455343e-01	 1.1107030957e+00	-3.0715391106e+00
 4.0049922509e-01	 1.1154659537e+00	-3.1351818582e+00
 3.8745331864e-01	 1.1200642165e+00	-3.2008068999e+00
 4.5527499618e-01	 1.1022711870e+00	-2.8065814003e+00
 4.4224843258e-01	 1.1075619241e+00	-2.8842650977e+00
 4.2919211632e-01	 1.1126864874e+00	-2.9494297570e+00
 4.1610908189e-01	 1.1176449901e+00	-3.0159604775e+00
 4.0300234525e-01	 1.1224376159e+00	-3.0849097113e+00
 3.8987490188e-01	 1.1270646178e+00	-3.1515534117e+00
 4.5810279119e-01	 1.1091175919e+00	-2.7609699542e+00
 4.4499531726e-01	 1.1144411907e+00	-2.8248351734e+00
 4.3185790587e-01	 1.1195975836e+00	-2.8933739121e+00
 4.1869361035e-01	 1.1245868844e+00	-2.9646385002e+00
 4.0550546541e-01	 1.1294092781e+00	-3.0346712492e+00
 3.9229648512e-01	 1.1340650192e+00	-3.0993180433e+00
 4.6093058619e-01	 1.1159639968e+00	-2.7046953273e+00
 4.4774220193e-01	 1.1213204574e+00	-2.7743175077e+00
 4.3452369541e-01	 1.1265086798e+00	-2.8461207013e+00
 4.2127813881e-01	 1.1315287788e+00	-2.9172154809e+00
 4.0800858556e-01	 1.1363809403e+00	-2.9844856736e+00
 3.9471806837e-01	 1.1410654205e+00	-3.0446205575e+00
 4.6375838120e-01	 1.1228104017e+00	-2.6659497141e+00
 4.5048908661e-01	 1.1281997240e+00	-2.7371573278e+00
 4.3718948495e-01	 1.1334197760e+00	-2.8068567987e+00
 4.2386266727e-01	 1.1384706731e+00	-2.8732610050e+00
 4.1051170572e-01	 1.1433526026e+00	-2.9343615264e+00
 3.9713965161e-01	 1.1480658219e+00	-2.9879592626e+00
 4.6658617621e-01	 1.1296568066e+00	-2.6451411201e+00
 4.5323597128e-01	 1.1350789906e+00	-2.7122325453e+00
 4.3985527449e-01	 1.1403308722e+00	-2.7747752978e+00
 4.2644719573e-01	 1.1454125675e+00	-2.8323431453e+00
 4.1301482588e-01	 1.1503242648e+00	-2.8842965733e+00
 3.9956123485e-01	 1.1550662233e+00	-2.9298112191e+00
 3.8745331864e-01	 1.1200642165e+00	-3.2008068999e+00
 3.7438978878e-01	 1.1244982033e+00	-3.2731189539e+00
 3.6131156619e-01	 1.1287683001e+00	-3.3568053410e+00
 3.4822155581e-01	 1.1328749583e+00	-3.4414722401e+00
 3.3512263510e-01	 1.1368186938e+00	-3.5207096743e+00
 3.2201765243e-01	 1.1406000854e+00	-3.5880193644e+00
 3.8987490188e-01	 1.1270646178e+00	-3.1515534117e+00
 3.7672972496e-01	 1.1315263171e+00	-3.2208200772e+00
 3.6356976348e-01	 1.1358231020e+00	-3.2990021336e+00
 3.5039794053e-01	 1.1399554268e+00	-3.3770599248e+00
 3.3721715157e-01	 1.1439238107e+00	-3.4486218266e+00
 3.2403026276e-01	 1.1477288359e+00	-3.5076955406e+00
 3.9229648512e-01	 1.1340650192e+00	-3.0993180433e+00
 3.7906966114e-01	 1.1385544308e+00	-3.1641261567e+00
 3.6582796077e-01	 1.1428779039e+00	-3.2363961084e+00
 3.5257432525e-01	 1.1470358953e+00	-3.3086044284e+00
 3.3931166804e-01	 1.1510289275e+00	-3.3740111808e+00
 3.2604287308e-01	 1.1548575864e+00	-3.4267068681e+00
 3.9471806837e-01	 1.1410654205e+00	-3.0446205575e+00
 3.8140959732e-01	 1.1455825446e+00	-3.1039958546e+00
 3.6808615806e-01	 1.1499327057e+00	-3.1703212407e+00
 3.5475070998e-01	 1.1541163638e+00	-3.2375088438e+00
 3.4140618450e-01	 1.1581340443e+00	-3.2981960818e+00
 3.2805548341e-01	 1.1619863370e+00	-3.3461410429e+00
 3.9713965161e-01	 1.1480658219e+00	-2.9879592626e+00
 3.8374953350e-01	 1.1526106584e+00	-3.0413571058e+00
 3.7034435534e-01	 1.1569875076e+00	-3.1020866312e+00
 3.5692709470e-01	 1.1611968323e+00	-3.1651523745e+00
 3.4350070097e-01	 1.1652391612e+00	-3.2224754195e+00
 3.3006809374e-01	 1.1691150875e+00	-3.2670739899e+00
 3.9956123485e-01	 1.1550662233e+00	-2.9298112191e+00
 3.8608946968e-01	 1.1596387722e+00	-2.9771076023e+00
 3.7260255263e-01	 1.1640423095e+00	-3.0330155174e+00
 3.5910347943e-01	 1.1682773008e+00	-3.0928898618e+00
 3.4559521744e-01	 1.1723442780e+00	-3.1481281813e+00
 3.3208070407e-01	 1.1762438380e+00	-3.1905693303e+00
 3.2201765243e-01	 1.1406000854e+00	-3.5880193644e+00
 3.0890942549e-01	 1.1442197735e+00	-3.6457965941e+00
 2.9580073974e-01	 1.1476784591e+00	-3.7019758885e+00
 2.8269434700e-01	 1.1509769022e+00	-3.7578393406e+00
 2.6959296401e-01	 1.1541159201e+00	-3.8144147452e+00
 2.5649927107e-01	 1.1570963863e+00	-3.8725082601e+00
 3.2403026276e-01	 1.1477288359e+00	-3.5076955406e+00
 3.1084010939e-01	 1.1513711471e+00	-3.5577021701e+00
 2.9764949437e-01	 1.1548514495e+00	-3.6071719366e+00
 2.8446118667e-01	 1.1581705078e+00	-3.6572623248e+00
 2.7127792003e-01	 1.1613291446e+00	-3.7088679259e+00
 2.5810239152e-01	 1.1643282387e+00	-3.7626535760e+00
 3.2604287308e-01	 1.1548575864e+00	-3.4267068681e+00
 3.1277079330e-01	 1.1585225207e+00	-3.4705744302e+00
 2.9949824899e-01	 1.1620244399e+00	-3.5145114366e+00
 2.8622802634e-01	 1.1653641135e+00	-3.5596299381e+00
 2.7296287606e-01	 1.1685423691e+00	-3.6067750710e+00
 2.5970551196e-01	 1.1715600911e+00	-3.6565583776e+00
 3.2805548341e-01	 1.1619863370e+00	-3.3461410429e+00
 3.1470147721e-01	 1.1656738942e+00	-3.3852262652e+00
 3.0134700361e-01	 1.1691974302e+00	-3.4245835816e+00
 2.8799486601e-01	 1.1725577191e+00	-3.4653571334e+00
 2.7464783208e-01	 1.1757555936e+00	-3.5084247153e+00
 2.6130863241e-01	 1.1787919435e+00	-3.5544309819e+00
 3.3006809374e-01	 1.1691150875e+00	-3.2670739899e+00
 3.1663216112e-01	 1.1728252678e+00	-3.3024672401e+00
 3.0319575824e-01	 1.1763704206e+00	-3.3379811184e+00
 2.8976170568e-01	 1.1797513247e+00	-3.3748677733e+00
 2.7633278811e-01	 1.1829688181e+00	-3.4141181768e+00
 2.6291175285e-01	 1.1860237959e+00	-3.4564949245e+00
 3.3208070407e-01	 1.1762438380e+00	-3.1905693303e+00
 3.1856284503e-01	 1.1799766414e+00	-3.2231029435e+00
 3.0504451286e-01	 1.1835434110e+00	-3.2552996181e+00
 2.9152854535e-01	 1.1869449304e+00	-3.2885938563e+00
 2.7801774413e-01	 1.1901820426e+00	-3.3241687747e+00
 2.6451487330e-01	 1.1932556483e+00	-3.3629882032e+00
 2.5649927107e-01	 1.1570963863e+00	-3.8725082601e+00
 2.4341591085e-01	 1.1599192289e+00	-3.9296553006e+00
 2.3034548708e-01	 1.1625854290e+00	-3.9828294756e+00
 2.1729056347e-01	 1.1650960193e+00	-4.0317189010e+00
 2.0425366260e-01	 1.1674520823e+00	-4.0758576720e+00
 1.9123726490e-01	 1.1696547489e+00	-4.1146419467e+00
 2.5810239152e-01	 1.1643282387e+00	-3.7626535760e+00
 2.4493726029e-01	 1.1671687241e+00	-3.8158517098e+00
 2.3178514638e-01	 1.1698515879e+00	-3.8652473526e+00
 2.1864862950e-01	 1.1723778694e+00	-3.9105532395e+00
 2.0553024799e-01	 1.1747486578e+00	-3.9513277199e+00
 1.9243249781e-01	 1.1769650911e+00	-3.9869898420e+00
 2.5970551196e-01	 1.1715600911e+00	-3.6565583776e+00
 2.4645860974e-01	 1.1744182192e+00	-3.7060426522e+00
 2.3322480567e-01	 1.1771177469e+00	-3.7518827084e+00
 2.2000669552e-01	 1.1796597195e+00	-3.7937964573e+00
 2.0680683339e-01	 1.1820452333e+00	-3.8313496036e+00
 1.9362773071e-01	 1.1842754333e+00	-3.8639696536e+00
 2.6130863241e-01	 1.1787919435e+00	-3.5544309819e+00
 2.4797995918e-01	 1.1816677144e+00	-3.6003856882e+00
 2.3466446497e-01	 1.1843839058e+00	-3.6428565918e+00
 2.2136476154e-01	 1.1869415697e+00	-3.6815480185e+00
 2.0808341878e-01	 1.1893418089e+00	-3.7160168302e+00
 1.9482296362e-01	 1.1915857755e+00	-3.7456852719e+00
 2.6291175285e-01	 1.1860237959e+00	-3.4564949245e+00
 2.4950130862e-01	 1.1889172096e+00	-3.4990550115e+00
 2.3610412426e-01	 1.1916500647e+00	-3.5383074571e+00
 2.2272282756e-01	 1.1942234198e+00	-3.5739249195e+00
 2.0936000417e-01	 1.1966383844e+00	-3.6054399152e+00
 1.9601819652e-01	 1.1988961177e+00	-3.6322564213e+00
 2.6451487330e-01	 1.1932556483e+00	-3.3629882032e+00
 2.5102265807e-01	 1.1961667048e+00	-3.4022407374e+00
 2.3754378355e-01	 1.1989162237e+00	-3.4383905088e+00
 2.2408089358e-01	 1.2015052699e+00	-3.4710610987e+00
 2.1063658956e-01	 1.2039349599e+00	-3.4997458694e+00
 1.9721342943e-01	 1.2062064598e+00	-3.5238182327e+00
 1.9123726490e-01	 1.1696547489e+00	-4.1146419467e+00
 1.7824380769e-01	 1.1717051968e+00	-4.1498557681e+00
 1.6527568432e-01	 1.1736046487e+00	-4.1836512604e+00
 1.5233524329e-01	 1.1753543707e+00	-4.2157978063e+00
 1.3942478753e-01	 1.1769556711e+00	-4.2459578126e+00
 1.2654657368e-01	 1.1784098981e+00	-4.2736917332e+00
 1.9243249781e-01	 1.1769650911e+00	-3.9869898420e+00
 1.7935783149e-01	 1.1790283543e+00	-4.0193860264e+00
 1.6630865735e-01	 1.1809396777e+00	-4.0506824056e+00
 1.5328733856e-01	 1.1827003356e+00	-4.0805959602e+00
 1.4029619245e-01	 1.1843116441e+00	-4.1087342213e+00
 1.2733748976e-01	 1.1857749599e+00	-4.1345989330e+00
 1.9362773071e-01	 1.1842754333e+00	-3.8639696536e+00
 1.8047185529e-01	 1.1863515118e+00	-3.8935684555e+00
 1.6734163037e-01	 1.1882747068e+00	-3.9223550565e+00
 1.5423943383e-01	 1.1900463004e+00	-3.9500192673e+00
 1.4116759737e-01	 1.1916676170e+00	-3.9761376853e+00
 1.2812840585e-01	 1.1931400218e+00	-4.0001759133e+00
 1.9482296362e-01	 1.1915857755e+00	-3.7456852719e+00
 1.8158587909e-01	 1.1936746692e+00	-3.7725164984e+00
 1.6837460340e-01	 1.1956097358e+00	-3.7987738536e+00
 1.5519152910e-01	 1.1973922652e+00	-3.8241454391e+00
 1.4203900230e-01	 1.1990235900e+00	-3.8482011314e+00
 1.2891932193e-01	 1.2005050837e+00	-3.8703932708e+00
 1.9601819652e-01	 1.1988961177e+00	-3.6322564213e+00
 1.8269990289e-01	 1.2009978267e+00	-3.6563580416e+00
 1.6940757643e-01	 1.2029447649e+00	-3.6800567217e+00
 1.5614362437e-01	 1.2047382300e+00	-3.7030645574e+00
 1.4291040722e-01	 1.2063795629e+00	-3.7249692038e+00
 1.2971023802e-01	 1.2078701455e+00	-3.7452329421e+00
 1.9721342943e-01	 1.2062064598e+00	-3.5238182327e+00
 1.8381392668e-01	 1.2083209842e+00	-3.5452350724e+00
 1.7044054945e-01	 1.2102797939e+00	-3.5663345959e+00
 1.5709571964e-01	 1.2120841948e+00	-3.5868788543e+00
 1.4378181214e-01	 1.2137355359e+00	-3.6064980815e+00
 1.3050115410e-01	 1.2152352074e+00	-3.6246880442e+00
 1.2654657368e-01	 1.1784098981e+00	-4.2736917332e+00
 1.1370281143e-01	 1.1797184384e+00	-4.2995567523e+00
 1.0089566299e-01	 1.1808827158e+00	-4.3237143789e+00
 8.8127242518e-02	 1.1819041891e+00	-4.3449982949e+00
 7.5399615683e-02	 1.1827843511e+00	-4.3621667529e+00
 6.2714799271e-02	 1.1835247260e+00	-4.3739076877e+00
 1.2733748976e-01	 1.1857749599e+00	-4.1345989330e+00
 1.1441345401e-01	 1.1870916786e+00	-4.1587062930e+00
 1.0152626089e-01	 1.1882632327e+00	-4.1812371545e+00
 8.8678037784e-02	 1.1892910903e+00	-4.2010433924e+00
 7.5870863281e-02	 1.1901767533e+00	-4.2168871906e+00
 6.3106766766e-02	 1.1909217556e+00	-4.2274448729e+00
 1.2812840585e-01	 1.1931400218e+00	-4.0001759133e+00
 1.1512409658e-01	 1.1944649189e+00	-4.0226094696e+00
 1.0215685878e-01	 1.1956437497e+00	-4.0436140338e+00
 8.9228833049e-02	 1.1966779915e+00	-4.0620447599e+00
 7.6342110879e-02	 1.1975691555e+00	-4.0766538923e+00
 6.3498734262e-02	 1.1983187851e+00	-4.0860932324e+00
 1.2891932193e-01	 1.2005050837e+00	-3.8703932708e+00
 1.1583473915e-01	 1.2018381591e+00	-3.8911715791e+00
 1.0278745667e-01	 1.2030242667e+00	-3.9106970180e+00
 8.9779628315e-02	 1.2040648927e+00	-3.9278140327e+00
 7.6813358477e-02	 1.2049615577e+00	-3.9412519746e+00
 6.3890701757e-02	 1.2057158146e+00	-3.9496261136e+00
 1.2971023802e-01	 1.2078701455e+00	-3.7452329421e+00
 1.1654538172e-01	 1.2092113993e+00	-3.7643088257e+00
 1.0341805457e-01	 1.2104047837e+00	-3.7823481856e+00
 9.0330423581e-02	 1.2114517939e+00	-3.7981717004e+00
 7.7284606075e-02	 1.2123539598e+00	-3.8104737944e+00
 6.4282669253e-02	 1.2131128442e+00	-3.8178221028e+00
 1.3050115410e-01	 1.2152352074e+00	-3.6246880442e+00
 1.1725602429e-01	 1.2165846396e+00	-3.6419481777e+00
 1.0404865246e-01	 1.2177853006e+00	-3.6584395724e+00
 9.0881218847e-02	 1.2188386951e+00	-3.6729470150e+00
 7.7755853673e-02	 1.2197463620e+00	-3.6841188916e+00
 6.4674636748e-02	 1.2205098737e+00	-3.6904650110e+00
 6.2714799271e-02	 1.1835247260e+00	-4.3739076877e+00
 5.0074760831e-02	 1.1841268688e+00	-4.3832342197e+00
 3.7481418389e-02	 1.1845923630e+00	-4.3928141931e+00
 2.4936640219e-02	 1.1849228191e+00	-4.4007494732e+00
 1.2442244662e-02	 1.1851198731e+00	-4.4051246162e+00
 0.0000000000e+00	 1.1851851852e+00	-4.4040177225e+00
 6.3106766766e-02	 1.1909217556e+00	-4.2274448729e+00
 5.0387728086e-02	 1.1915276618e+00	-4.2358278258e+00
 3.7715677254e-02	 1.1919960653e+00	-4.2447735446e+00
 2.5092494220e-02	 1.1923285867e+00	-4.2523037213e+00
 1.2520008691e-02	 1.1925268724e+00	-4.2564043866e+00
 0.0000000000e+00	 1.1925925926e+00	-4.2550360254e+00
 6.3498734262e-02	 1.1983187851e+00	-4.0860932324e+00
 5.0700695341e-02	 1.1989284547e+00	-4.0935669844e+00
 3.7949936119e-02	 1.1993997675e+00	-4.1018960707e+00
 2.5248348222e-02	 1.1997343543e+00	-4.1090376402e+00
 1.2597772720e-02	 1.1999338716e+00	-4.1128934883e+00
 0.0000000000e+00	 1.2000000000e+00	-4.1113193708e+00
 6.3890701757e-02	 1.2057158146e+00	-3.9496261136e+00
 5.1013662596e-02	 1.2063292476e+00	-3.9562187342e+00
 3.8184194984e-02	 1.2068034698e+00	-3.9639383623e+00
 2.5404202223e-02	 1.2071401219e+00	-3.9706936581e+00
 1.2675536749e-02	 1.2073408708e+00	-3.9743168939e+00
 0.0000000000e+00	 1.2074074074e+00	-3.9725723997e+00
 6.4282669253e-02	 1.2131128442e+00	-3.8178221028e+00
 5.1326629851e-02	 1.2137300406e+00	-3.8235532174e+00
 3.8418453849e-02	 1.2142071721e+00	-3.8306581054e+00
 2.5560056224e-02	 1.2145458895e+00	-3.8370134317e+00
 1.2753300778e-02	 1.2147478700e+00	-3.8403970955e+00
 0.0000000000e+00	 1.2148148148e+00	-3.8384957364e+00
 6.4674636748e-02	 1.2205098737e+00	-3.6904650110e+00
 5.1639597106e-02	 1.2211308335e+00	-3.6953437082e+00
 3.8652712713e-02	 1.2216108743e+00	-3.7018141434e+00
 2.5715910226e-02	 1.2219516572e+00	-3.7077379360e+00
 1.2831064807e-02	 1.2221548692e+00	-3.7108542144e+00
 0.0000000000e+00	 1.2222222222e+00	-3.7087861106e+00
 1.2222222222e+00	 0.0000000000e+00	 3.3946961822e+00
 1.2221548692e+00	 1.2831064807e-02	 3.3929089618e+00
 1.2219516572e+00	 2.5715910226e-02	 3.3904417283e+00
 1.2216108743e+00	 3.8652712713e-02	 3.3868074517e+00
 1.2211308335e+00	 5.1639597106e-02	 3.3815808134e+00
 1.2205098737e+00	 6.4674636748e-02	 3.3744004313e+00
 1.2296296296e+00	 0.0000000000e+00	 3.4348508445e+00
 1.2295618684e+00	 1.2908828836e-02	 3.4329648029e+00
 1.2293574248e+00	 2.5871764227e-02	 3.4302928298e+00
 1.2290145766e+00	 3.8886971578e-02	 3.4263558214e+00
 1.2285316264e+00	 5.1952564362e-02	 3.4207193874e+00
 1.2279069033e+00	 6.5066604244e-02	 3.4129973545e+00
 1.2370370370e+00	 0.0000000000e+00	 3.4726853239e+00
 1.2369688676e+00	 1.2986592866e-02	 3.4707551196e+00
 1.2367631924e+00	 2.6027618228e-02	 3.4678855127e+00
 1.2364182789e+00	 3.9121230443e-02	 3.4636232003e+00
 1.2359324194e+00	 5.2265531617e-02	 3.4575422587e+00
 1.2353039328e+00	 6.5458571739e-02	 3.4492489716e+00
 1.2444444444e+00	 0.0000000000e+00	 3.5080743564e+00
 1.2443758668e+00	 1.3064356895e-02	 3.5061498659e+00
 1.2441689600e+00	 2.6183472230e-02	 3.5030933566e+00
 1.2438219811e+00	 3.9355489308e-02	 3.4984942882e+00
 1.2433332123e+00	 5.2578498872e-02	 3.4919517962e+00
 1.2427009623e+00	 6.5850539234e-02	 3.4830808920e+00
 1.2518518519e+00	 0.0000000000e+00	 3.5408943189e+00
 1.2517828660e+00	 1.3142120924e-02	 3.5390204564e+00
 1.2515747276e+00	 2.6339326231e-02	 3.5357912487e+00
 1.2512256834e+00	 3.9589748173e-02	 3.5308549654e+00
 1.2507340052e+00	 5.2891466127e-02	 3.5238514454e+00
 1.2500979919e+00	 6.6242506730e-02	 3.5144197199e+00
 1.2592592593e+00	 0.0000000000e+00	 3.5710231817e+00
 1.2591898652e+00	 1.3219884953e-02	 3.5692397210e+00
 1.2589804953e+00	 2.6495180233e-02	 3.5658553430e+00
 1.2586293857e+00	 3.9824007038e-02	 3.5605922572e+00
 1.2581347981e+00	 5.3204433382e-02	 3.5531456992e+00
 1.2574950214e+00	 6.6634474225e-02	 3.5431930299e+00
 1.2205098737e+00	 6.4674636748e-02	 3.3744004313e+00
 1.2197463620e+00	 7.7755853673e-02	 3.3657759359e+00
 1.2188386951e+00	 9.0881218847e-02	 3.3559962788e+00
 1.2177853006e+00	 1.0404865246e-01	 3.3444768301e+00
 1.2165846396e+00	 1.1725602429e-01	 3.3307168975e+00
 1.2152352074e+00	 1.3050115410e-01	 3.3143090912e+00
 1.2279069033e+00	 6.5066604244e-02	 3.4129973545e+00
 1.2271387642e+00	 7.8227101271e-02	 3.4036945653e+00
 1.2262255962e+00	 9.1432014112e-02	 3.3931230360e+00
 1.2251658176e+00	 1.0467925035e-01	 3.3806972314e+00
 1.2239578798e+00	 1.1796666686e-01	 3.3659077621e+00
 1.2226002692e+00	 1.3129207019e-01	 3.3483327055e+00
 1.2353039328e+00	 6.5458571739e-02	 3.4492489716e+00
 1.2345311664e+00	 7.8698348869e-02	 3.4392582833e+00
 1.2336124974e+00	 9.1982809378e-02	 3.4279000754e+00
 1.2325463346e+00	 1.0530984825e-01	 3.4145745264e+00
 1.2313311201e+00	 1.1867730943e-01	 3.3987498523e+00
 1.2299653311e+00	 1.3208298628e-01	 3.3799757041e+00
 1.2427009623e+00	 6.5850539234e-02	 3.4830808920e+00
 1.2419235686e+00	 7.9169596467e-02	 3.4724214267e+00
 1.2409993986e+00	 9.2533604644e-02	 3.4603161995e+00
 1.2399268515e+00	 1.0594044614e-01	 3.4461372174e+00
 1.2387043603e+00	 1.1938795201e-01	 3.4293160893e+00
 1.2373303930e+00	 1.3287390236e-01	 3.4093596238e+00
 1.2500979919e+00	 6.6242506730e-02	 3.5144197199e+00
 1.2493159708e+00	 7.9640844065e-02	 3.5031392422e+00
 1.2483862998e+00	 9.3084399909e-02	 3.4903609997e+00
 1.2473073685e+00	 1.0657104404e-01	 3.4754144242e+00
 1.2460776005e+00	 1.2009859458e-01	 3.4576797739e+00
 1.2446954548e+00	 1.3366481845e-01	 3.4366060606e+00
 1.2574950214e+00	 6.6634474225e-02	 3.5431930299e+00
 1.2567083730e+00	 8.0112091663e-02	 3.5313678677e+00
 1.2557732010e+00	 9.3635195175e-02	 3.5180248450e+00
 1.2546878855e+00	 1.0720164193e-01	 3.5024358791e+00
 1.2534508408e+00	 1.2080923715e-01	 3.4839145888e+00
 1.2520605167e+00	 1.3445573453e-01	 3.4618366803e+00
 1.2152352074e+00	 1.3050115410e-01	 3.3143090912e+00
 1.2137355359e+00	 1.4378181214e-01	 3.2960792453e+00
 1.2120841948e+00	 1.5709571964e-01	 3.2770101661e+00
 1.2102797939e+00	 1.7044054945e-01	 3.2571023870e+00
 1.2083209842e+00	 1.8381392668e-01	 3.2364912860e+00
 1.2062064598e+00	 1.9721342943e-01	 3.2154528197e+00
 1.2226002692e+00	 1.3129207019e-01	 3.3483327055e+00
 1.2210915088e+00	 1.4465321706e-01	 3.3288238221e+00
 1.2194301597e+00	 1.5804781491e-01	 3.3083966629e+00
 1.2176148230e+00	 1.7147352248e-01	 3.2870443055e+00
 1.2156441417e+00	 1.8492795048e-01	 3.2648964100e+00
 1.2135168020e+00	 1.9840866233e-01	 3.2422271229e+00
 1.2299653311e+00	 1.3208298628e-01	 3.3799757041e+00
 1.2284474817e+00	 1.4552462199e-01	 3.3591144670e+00
 1.2267761245e+00	 1.5899991018e-01	 3.3372264351e+00
 1.2249498520e+00	 1.7250649551e-01	 3.3143245224e+00
 1.2229672992e+00	 1.8604197428e-01	 3.2905604194e+00
 1.2208271442e+00	 1.9960389524e-01	 3.2662347236e+00
 1.2373303930e+00	 1.3287390236e-01	 3.4093596238e+00
 1.2358034547e+00	 1.4639602691e-01	 3.3871227542e+00
 1.2341220893e+00	 1.5995200545e-01	 3.3637192425e+00
 1.2322848811e+00	 1.7353946853e-01	 3.3392078572e+00
 1.2302904566e+00	 1.8715599808e-01	 3.3137887968e+00
 1.2281374864e+00	 2.0079912814e-01	 3.2878161089e+00
 1.2446954548e+00	 1.3366481845e-01	 3.4366060606e+00
 1.2431594276e+00	 1.4726743183e-01	 3.4130199523e+00
 1.2414680541e+00	 1.6090410072e-01	 3.3880941807e+00
 1.2396199101e+00	 1.7457244156e-01	 3.3619581144e+00
 1.2376136141e+00	 1.8827002188e-01	 3.3348856700e+00
 1.2354478286e+00	 2.0199436105e-01	 3.3073100857e+00
 1.2520605167e+00	 1.3445573453e-01	 3.4618366803e+00
 1.2505154006e+00	 1.4813883675e-01	 3.4369770421e+00
 1.2488140189e+00	 1.6185619599e-01	 3.4105697013e+00
 1.2469549392e+00	 1.7560541459e-01	 3.3828381028e+00
 1.2449367716e+00	 1.8938404567e-01	 3.3541538261e+00
 1.2427581707e+00	 2.0318959396e-01	 3.3250537846e+00
 1.2062064598e+00	 1.9721342943e-01	 3.2154528197e+00
 1.2039349599e+00	 2.1063658956e-01	 3.1917944151e+00
 1.2015052699e+00	 2.2408089358e-01	 3.1636477707e+00
 1.1989162237e+00	 2.3754378355e-01	 3.1319852836e+00
 1.1961667048e+00	 2.5102265807e-01	 3.0979082056e+00
 1.1932556483e+00	 2.6451487330e-01	 3.0626330746e+00
 1.2135168020e+00	 1.9840866233e-01	 3.2422271229e+00
 1.2112315354e+00	 2.1191317495e-01	 3.2167859242e+00
 1.2087871200e+00	 2.2543895961e-01	 3.1866426915e+00
 1.2061823826e+00	 2.3898344285e-01	 3.1527757439e+00
 1.2034162000e+00	 2.5254400751e-01	 3.1163062397e+00
 1.2004875008e+00	 2.6611799374e-01	 3.0784864286e+00
 1.2208271442e+00	 1.9960389524e-01	 3.2662347236e+00
 1.2185281109e+00	 2.1318976034e-01	 3.2390698200e+00
 1.2160689702e+00	 2.2679702563e-01	 3.2070515874e+00
 1.2134485415e+00	 2.4042310214e-01	 3.1711139504e+00
 1.2106656951e+00	 2.5406535695e-01	 3.1323485591e+00
 1.2077193532e+00	 2.6772111418e-01	 3.0919950732e+00
 1.2281374864e+00	 2.0079912814e-01	 3.2878161089e+00
 1.2258246864e+00	 2.1446634573e-01	 3.2590209322e+00
 1.2233508203e+00	 2.2815509165e-01	 3.2252889751e+00
 1.2207147005e+00	 2.4186276144e-01	 3.1874597321e+00
 1.2179151903e+00	 2.5558670639e-01	 3.1465462427e+00
 1.2149512056e+00	 2.6932423463e-01	 3.1037276200e+00
 1.2354478286e+00	 2.0199436105e-01	 3.3073100857e+00
 1.2331212619e+00	 2.1574293112e-01	 3.2770119567e+00
 1.2306326704e+00	 2.2951315767e-01	 3.2417664876e+00
 1.2279808594e+00	 2.4330242073e-01	 3.2022689587e+00
 1.2251646855e+00	 2.5710805584e-01	 3.1594049789e+00
 1.2221830580e+00	 2.7092735507e-01	 3.1142454764e+00
 1.2427581707e+00	 2.0318959396e-01	 3.3250537846e+00
 1.2404178375e+00	 2.1701951652e-01	 3.2934134462e+00
 1.2379145205e+00	 2.3087122369e-01	 3.2568928557e+00
 1.2352470183e+00	 2.4474208003e-01	 3.2159935166e+00
 1.2324141807e+00	 2.5862940528e-01	 3.1714250407e+00
 1.2294149104e+00	 2.7253047552e-01	 3.1241028220e+00
 1.1932556483e+00	 2.6451487330e-01	 3.0626330746e+00
 1.1901820426e+00	 2.7801774413e-01	 3.0265756612e+00
 1.1869449304e+00	 2.9152854535e-01	 2.9905097702e+00
 1.1835434110e+00	 3.0504451286e-01	 2.9563079992e+00
 1.1799766414e+00	 3.1856284503e-01	 2.9258677867e+00
 1.1762438380e+00	 3.3208070407e-01	 2.9010635617e+00
 1.2004875008e+00	 2.6611799374e-01	 3.0784864286e+00
 1.1973952671e+00	 2.7970270016e-01	 3.0398663321e+00
 1.1941385360e+00	 2.9329538502e-01	 3.0012441242e+00
 1.1907164013e+00	 3.0689326748e-01	 2.9643903536e+00
 1.1871280150e+00	 3.2049352894e-01	 2.9311203246e+00
 1.1833725886e+00	 3.3409331439e-01	 2.9032472162e+00
 1.2077193532e+00	 2.6772111418e-01	 3.0919950732e+00
 1.2046084916e+00	 2.8138765618e-01	 3.0507143649e+00
 1.2013321417e+00	 2.9506222469e-01	 3.0094268452e+00
 1.1978893917e+00	 3.0874202211e-01	 2.9699355347e+00
 1.1942793886e+00	 3.2242421285e-01	 2.9341078894e+00
 1.1905013391e+00	 3.3610592472e-01	 2.9038296471e+00
 1.2149512056e+00	 2.6932423463e-01	 3.1037276200e+00
 1.2118217161e+00	 2.8307261221e-01	 3.0597305495e+00
 1.2085257473e+00	 2.9682906435e-01	 3.0156717074e+00
 1.2050623821e+00	 3.1059077673e-01	 2.9735182196e+00
 1.2014307622e+00	 3.2435489676e-01	 2.9353211533e+00
 1.1976300896e+00	 3.3811853505e-01	 2.9031698548e+00
 1.2221830580e+00	 2.7092735507e-01	 3.1142454764e+00
 1.2190349406e+00	 2.8475756823e-01	 3.0675167676e+00
 1.2157193529e+00	 2.9859590402e-01	 3.0205825303e+00
 1.2122353725e+00	 3.1243953135e-01	 2.9757027951e+00
 1.2085821357e+00	 3.2628558067e-01	 2.9352409279e+00
 1.2047588402e+00	 3.4013114538e-01	 2.9016182293e+00
 1.2294149104e+00	 2.7253047552e-01	 3.1241028220e+00
 1.2262481651e+00	 2.8644252426e-01	 3.0746659605e+00
 1.2229129586e+00	 3.0036274369e-01	 3.0247531105e+00
 1.2194083628e+00	 3.1428828598e-01	 2.9770432251e+00
 1.2157335093e+00	 3.2821626458e-01	 2.9343379367e+00
 1.2118875907e+00	 3.4214375571e-01	 2.8995161954e+00
 1.1762438380e+00	 3.3208070407e-01	 2.9010635617e+00
 1.1723442780e+00	 3.4559521744e-01	 2.8656697466e+00
 1.1682773008e+00	 3.5910347943e-01	 2.8081102863e+00
 1.1640423095e+00	 3.7260255263e-01	 2.7372729647e+00
 1.1596387722e+00	 3.8608946968e-01	 2.6769614189e+00
 1.1550662233e+00	 3.9956123485e-01	 2.6386813498e+00
 1.1833725886e+00	 3.3409331439e-01	 2.9032472162e+00
 1.1794493948e+00	 3.4768973391e-01	 2.8633341621e+00
 1.1753577693e+00	 3.6127986415e-01	 2.7994230843e+00
 1.1710971114e+00	 3.7486074992e-01	 2.7226948005e+00
 1.1666668859e+00	 3.8842940586e-01	 2.6597077784e+00
 1.1620666246e+00	 4.0198281809e-01	 2.6193262145e+00
 1.1905013391e+00	 3.3610592472e-01	 2.9038296471e+00
 1.1865545117e+00	 3.4978425038e-01	 2.8604107432e+00
 1.1824382378e+00	 3.6345624887e-01	 2.7911966729e+00
 1.1781519132e+00	 3.7711894721e-01	 2.7100559306e+00
 1.1736949997e+00	 3.9076934204e-01	 2.6444324439e+00
 1.1690670260e+00	 4.0440440133e-01	 2.6011480846e+00
 1.1976300896e+00	 3.3811853505e-01	 2.9031698548e+00
 1.1936596285e+00	 3.5187876685e-01	 2.8571411414e+00
 1.1895187063e+00	 3.6563263360e-01	 2.7836368682e+00
 1.1852067151e+00	 3.7937714450e-01	 2.6995537865e+00
 1.1807231135e+00	 3.9310927822e-01	 2.6314553912e+00
 1.1760674273e+00	 4.0682598457e-01	 2.5846902702e+00
 1.2047588402e+00	 3.4013114538e-01	 2.9016182293e+00
 1.2007647454e+00	 3.5397328332e-01	 2.8537589939e+00
 1.1965991748e+00	 3.6780901832e-01	 2.7769398192e+00
 1.1922615170e+00	 3.8163534179e-01	 2.6913680969e+00
 1.1877512272e+00	 3.9544921440e-01	 2.6210746879e+00
 1.1830678287e+00	 4.0924756781e-01	 2.5704676095e+00
 1.2118875907e+00	 3.4214375571e-01	 2.8995161954e+00
 1.2078698622e+00	 3.5606779979e-01	 2.8504894513e+00
 1.2036796432e+00	 3.6998540304e-01	 2.7712914745e+00
 1.1993163189e+00	 3.8389353908e-01	 2.6856611838e+00
 1.1947793410e+00	 3.9778915058e-01	 2.6135669342e+00
 1.1900682300e+00	 4.1166915106e-01	 2.5589671247e+00
 1.1550662233e+00	 3.9956123485e-01	 2.6386813498e+00
 1.1503242648e+00	 4.1301482588e-01	 2.6053547365e+00
 1.1454125675e+00	 4.2644719573e-01	 2.5602935476e+00
 1.1403308722e+00	 4.3985527449e-01	 2.5052040766e+00
 1.1350789906e+00	 4.5323597128e-01	 2.4415935928e+00
 1.1296568066e+00	 4.6658617621e-01	 2.3707423137e+00
 1.1620666246e+00	 4.0198281809e-01	 2.6193262145e+00
 1.1572959270e+00	 4.1551794603e-01	 2.5855357678e+00
 1.1523544618e+00	 4.2903172419e-01	 2.5413907918e+00
 1.1472419684e+00	 4.4252106404e-01	 2.4876360313e+00
 1.1419582572e+00	 4.5598285595e-01	 2.4248393330e+00
 1.1365032115e+00	 4.6941397122e-01	 2.3533652610e+00
 1.1690670260e+00	 4.0440440133e-01	 2.6011480846e+00
 1.1642675892e+00	 4.1802106619e-01	 2.5653648347e+00
 1.1592963562e+00	 4.3161625265e-01	 2.5204397422e+00
 1.1541530645e+00	 4.4518685358e-01	 2.4665697459e+00
 1.1488375238e+00	 4.5872974063e-01	 2.4037879212e+00
 1.1433496164e+00	 4.7224176622e-01	 2.3319376915e+00
 1.1760674273e+00	 4.0682598457e-01	 2.5846902702e+00
 1.1712392514e+00	 4.2052418635e-01	 2.5455949412e+00
 1.1662382505e+00	 4.3420078111e-01	 2.4982666140e+00
 1.1610641607e+00	 4.4785264312e-01	 2.4427607597e+00
 1.1557167904e+00	 4.6147662530e-01	 2.3789730120e+00
 1.1501960213e+00	 4.7506956123e-01	 2.3066129384e+00
 1.1830678287e+00	 4.0924756781e-01	 2.5704676095e+00
 1.1782109136e+00	 4.2302730650e-01	 2.5269444075e+00
 1.1731801449e+00	 4.3678530957e-01	 2.4756599901e+00
 1.1679752569e+00	 4.5051843266e-01	 2.4169274720e+00
 1.1625960570e+00	 4.6422350998e-01	 2.3508952272e+00
 1.1570424261e+00	 4.7789735624e-01	 2.2775191968e+00
 1.1900682300e+00	 4.1166915106e-01	 2.5589671247e+00
 1.1851825758e+00	 4.2553042666e-01	 2.5100977344e+00
 1.1801220392e+00	 4.3936983802e-01	 2.4533718002e+00
 1.1748863531e+00	 4.5318422220e-01	 2.3897521357e+00
 1.1694753236e+00	 4.6697039465e-01	 2.3200230613e+00
 1.1638888310e+00	 4.8072515125e-01	 2.2447602305e+00
 1.1296568066e+00	 4.6658617621e-01	 2.3707423137e+00
 1.1240642771e+00	 4.7990276243e-01	 2.3002822470e+00
 1.1183014331e+00	 4.9318258818e-01	 2.2390047112e+00
 1.1123683801e+00	 5.0642249893e-01	 2.1894082720e+00
 1.1062652995e+00	 5.1961932952e-01	 2.1436893430e+00
 1.0999924488e+00	 5.3276990637e-01	 2.0815779272e+00
 1.1365032115e+00	 4.6941397122e-01	 2.3533652610e+00
 1.1308767879e+00	 4.8281126402e-01	 2.2792202137e+00
 1.1250790175e+00	 4.9617157356e-01	 2.2097524578e+00
 1.1191100067e+00	 5.0949172620e-01	 2.1468538029e+00
 1.1129699377e+00	 5.2276853758e-01	 2.0919683169e+00
 1.1066590697e+00	 5.3599881489e-01	 2.0378653311e+00
 1.1433496164e+00	 4.7224176622e-01	 2.3319376915e+00
 1.1376892987e+00	 4.8571976561e-01	 2.2556990127e+00
 1.1318566020e+00	 4.9916055895e-01	 2.1809589656e+00
 1.1258516332e+00	 5.1256095346e-01	 2.1089124304e+00
 1.1196745759e+00	 5.2591774564e-01	 2.0403285564e+00
 1.1133256906e+00	 5.3922772342e-01	 1.9755224537e+00
 1.1501960213e+00	 4.7506956123e-01	 2.3066129384e+00
 1.1445018094e+00	 4.8862826720e-01	 2.2294114799e+00
 1.1386341864e+00	 5.0214954433e-01	 2.1518605271e+00
 1.1325932597e+00	 5.1563018073e-01	 2.0743695022e+00
 1.1263792140e+00	 5.2906695370e-01	 1.9969435783e+00
 1.1199923115e+00	 5.4245663194e-01	 1.9191569086e+00
 1.1570424261e+00	 4.7789735624e-01	 2.2775191968e+00
 1.1513143202e+00	 4.9153676879e-01	 2.2000351431e+00
 1.1454117708e+00	 5.0513852971e-01	 2.1216878994e+00
 1.1393348863e+00	 5.1869940800e-01	 2.0420145072e+00
 1.1330838522e+00	 5.3221616175e-01	 1.9601687013e+00
 1.1266589324e+00	 5.4568554046e-01	 1.8748958735e+00
 1.1638888310e+00	 4.8072515125e-01	 2.2447602305e+00
 1.1581268310e+00	 4.9444527038e-01	 2.1672326745e+00
 1.1521893553e+00	 5.0812751509e-01	 2.0896665076e+00
 1.1460765128e+00	 5.2176863526e-01	 2.0106410332e+00
 1.1397884904e+00	 5.3536536981e-01	 1.9283726419e+00
 1.1333255533e+00	 5.4891444899e-01	 1.8406917052e+00
 1.0999924488e+00	 5.3276990637e-01	 2.0815779272e+00
 1.0935501624e+00	 5.4587104971e-01	 2.0124225091e+00
 1.0869388521e+00	 5.5891957587e-01	 1.9447009641e+00
 1.0801590078e+00	 5.7191229957e-01	 1.8756538956e+00
 1.0732111975e+00	 5.8484603626e-01	 1.8025031061e+00
 1.0660960678e+00	 5.9771760450e-01	 1.7224596150e+00
 1.1066590697e+00	 5.3599881489e-01	 2.0378653311e+00
 1.1001777391e+00	 5.4917935910e-01	 1.9716789063e+00
 1.0935263603e+00	 5.6230696723e-01	 1.9018423628e+00
 1.0867054260e+00	 5.7537843471e-01	 1.8273309176e+00
 1.0797155078e+00	 5.8839055769e-01	 1.7470478306e+00
 1.0725572561e+00	 6.0134013544e-01	 1.6598275053e+00
 1.1133256906e+00	 5.3922772342e-01	 1.9755224537e+00
 1.1068053158e+00	 5.5248766849e-01	 1.9176247159e+00
 1.1001138685e+00	 5.6569435860e-01	 1.8524797793e+00
 1.0932518442e+00	 5.7884456986e-01	 1.7782326564e+00
 1.0862198180e+00	 5.9193507913e-01	 1.6949459086e+00
 1.0790184444e+00	 6.0496266637e-01	 1.6025775569e+00
 1.1199923115e+00	 5.4245663194e-01	 1.9191569086e+00
 1.1134328926e+00	 5.5579597788e-01	 1.8504447897e+00
 1.1067013767e+00	 5.6908174997e-01	 1.7945918765e+00
 1.0997982625e+00	 5.8231070501e-01	 1.7265767146e+00
 1.0927241283e+00	 5.9547960056e-01	 1.6449227512e+00
 1.0854796327e+00	 6.0858519731e-01	 1.5502216109e+00
 1.1266589324e+00	 5.4568554046e-01	 1.8748958735e+00
 1.1200604693e+00	 5.5910428728e-01	 1.7939742236e+00
 1.1132888849e+00	 5.7246914134e-01	 1.7280824271e+00
 1.1063446807e+00	 5.8577684016e-01	 1.6706130752e+00
 1.0992284386e+00	 5.9902412199e-01	 1.5957230058e+00
 1.0919408210e+00	 6.1220772825e-01	 1.5022710102e+00
 1.1333255533e+00	 5.4891444899e-01	 1.8406917052e+00
 1.1266880461e+00	 5.6241259667e-01	 1.7534174626e+00
 1.1198763931e+00	 5.7585653271e-01	 1.6757643632e+00
 1.1128910989e+00	 5.8924297531e-01	 1.6098532876e+00
 1.1057327489e+00	 6.0256864342e-01	 1.5461089906e+00
 1.0984020092e+00	 6.1583025918e-01	 1.4582355645e+00
 1.0660960678e+00	 5.9771760450e-01	 1.7224596150e+00
 1.0588143442e+00	 6.1052382831e-01	 1.6438364175e+00
 1.0513668312e+00	 6.2326153958e-01	 1.5730444912e+00
 1.0437544121e+00	 6.3592758050e-01	 1.5045644689e+00
 1.0359780494e+00	 6.4851880598e-01	 1.4330563773e+00
 1.0280387841e+00	 6.6103208610e-01	 1.3533727848e+00
 1.0725572561e+00	 6.0134013544e-01	 1.6598275053e+00
 1.0652314009e+00	 6.1422397272e-01	 1.5763341199e+00
 1.0577387514e+00	 6.2703888224e-01	 1.5034838831e+00
 1.0500801965e+00	 6.3978168705e-01	 1.4345811204e+00
 1.0422567042e+00	 6.5244922299e-01	 1.3631323985e+00
 1.0342693222e+00	 6.6503834116e-01	 1.2828619799e+00
 1.0790184444e+00	 6.0496266637e-01	 1.6025775569e+00
 1.0716484575e+00	 6.1792411714e-01	 1.5142500179e+00
 1.0641106716e+00	 6.3081622491e-01	 1.4382316719e+00
 1.0564059808e+00	 6.4363579359e-01	 1.3672603382e+00
 1.0485353591e+00	 6.5637963999e-01	 1.2942737829e+00
 1.0404998603e+00	 6.6904459623e-01	 1.2124258869e+00
 1.0854796327e+00	 6.0858519731e-01	 1.5502216109e+00
 1.0780655141e+00	 6.2162426155e-01	 1.4578862148e+00
 1.0704825918e+00	 6.3459356757e-01	 1.3780954646e+00
 1.0627317651e+00	 6.4748990014e-01	 1.3036195415e+00
 1.0548140139e+00	 6.6031005700e-01	 1.2274014318e+00
 1.0467303984e+00	 6.7305085130e-01	 1.1425722280e+00
 1.0919408210e+00	 6.1220772825e-01	 1.5022710102e+00
 1.0844825708e+00	 6.2532440596e-01	 1.4075245032e+00
 1.0768545120e+00	 6.3837091023e-01	 1.3238495049e+00
 1.0690575494e+00	 6.5134400669e-01	 1.2446367600e+00
 1.0610926688e+00	 6.6424047401e-01	 1.1633981165e+00
 1.0529609365e+00	 6.7705710636e-01	 1.0737793928e+00
 1.0984020092e+00	 6.1583025918e-01	 1.4582355645e+00
 1.0908996274e+00	 6.2902455038e-01	 1.3634258625e+00
 1.0832264322e+00	 6.4214825290e-01	 1.2762345053e+00
 1.0753833337e+00	 6.5519811324e-01	 1.1912505958e+00
 1.0673713236e+00	 6.6817089101e-01	 1.1031083565e+00
 1.0591914745e+00	 6.8106336143e-01	 1.0064960127e+00
 1.0280387841e+00	 6.6103208610e-01	 1.3533727848e+00
 1.0199377362e+00	 6.7346430850e-01	 1.2719392132e+00
 1.0116761036e+00	 6.8581238091e-01	 1.1950484679e+00
 1.0032551625e+00	 6.9807323350e-01	 1.1177357178e+00
 9.9467626628e-01	 7.1024382136e-01	 1.0353527091e+00
 9.8594084514e-01	 7.2232112691e-01	 9.4358010644e-01
 1.0342693222e+00	 6.6503834116e-01	 1.2828619799e+00
 1.0261191770e+00	 6.7754591037e-01	 1.1997243900e+00
 1.0178074740e+00	 6.8996881959e-01	 1.1205454702e+00
 1.0093354969e+00	 7.0230398037e-01	 1.0407684896e+00
 1.0007046073e+00	 7.1454832937e-01	 9.5616577047e-01
 9.9191624420e-01	 7.2669883071e-01	 8.6284972705e-01
 1.0404998603e+00	 6.6904459623e-01	 1.2124258869e+00
 1.0323006178e+00	 6.8162751224e-01	 1.1276039178e+00
 1.0239388443e+00	 6.9412525826e-01	 1.0469928107e+00
 1.0154158312e+00	 7.0653472724e-01	 9.6612732745e-01
 1.0067329483e+00	 7.1885283738e-01	 8.8090171438e-01
 9.9789164326e-01	 7.3107653451e-01	 7.8758022363e-01
 1.0467303984e+00	 6.7305085130e-01	 1.1425722280e+00
 1.0384820586e+00	 6.8570911411e-01	 1.0556037139e+00
 1.0300702146e+00	 6.9828169693e-01	 9.7412472571e-01
 1.0214961655e+00	 7.1076547411e-01	 8.9345073413e-01
 1.0127612893e+00	 7.2315734539e-01	 8.0930486422e-01
 1.0038670423e+00	 7.3545423831e-01	 7.1782867647e-01
 1.0529609365e+00	 6.7705710636e-01	 1.0737793928e+00
 1.0446634995e+00	 6.8979071598e-01	 9.8373083583e-01
 1.0362015849e+00	 7.0243813560e-01	 9.0166262234e-01
 1.0275764998e+00	 7.1499622098e-01	 8.2236584064e-01
 1.0187896303e+00	 7.2746185340e-01	 7.4110493074e-01
 1.0098424414e+00	 7.3983194211e-01	 6.5362949276e-01
 1.0591914745e+00	 6.8106336143e-01	 1.0064960127e+00
 1.0508449403e+00	 6.9387231785e-01	 9.1197270366e-01
 1.0423329553e+00	 7.0659457427e-01	 8.2931408175e-01
 1.0336568341e+00	 7.1922696785e-01	 7.5248732725e-01
 1.0248179713e+00	 7.3176636140e-01	 6.7601599079e-01
 1.0158178404e+00	 7.4420964591e-01	 5.9344817427e-01
 9.8594084514e-01	 7.2232112691e-01	 9.4358010644e-01
 9.7705040553e-01	 7.3430216229e-01	 8.5618690240e-01
 9.6800652930e-01	 7.4618397177e-01	 7.8455816039e-01
 9.5881087284e-01	 7.5796363409e-01	 7.0719977231e-01
 9.4946516618e-01	 7.6963826483e-01	 6.2403261833e-01
 9.3997121195e-01	 7.8120501867e-01	 5.4023970397e-01
 9.9191624420e-01	 7.2669883071e-01	 8.6284972705e-01
 9.8297192314e-01	 7.3875247842e-01	 7.7629522687e-01
 9.7387323554e-01	 7.5070629887e-01	 7.0165865375e-01
 9.6462184783e-01	 7.6255735309e-01	 6.2044764116e-01
 9.5521950053e-01	 7.7430273917e-01	 5.3618815906e-01
 9.4566800717e-01	 7.8593959454e-01	 4.5371980893e-01
 9.9789164326e-01	 7.3107653451e-01	 7.8758022363e-01
 9.8889344075e-01	 7.4320279456e-01	 7.0237424924e-01
 9.7973994178e-01	 7.5522862597e-01	 6.2141809510e-01
 9.7043282282e-01	 7.6715107208e-01	 5.3640174812e-01
 9.6097383487e-01	 7.7896721350e-01	 4.5106666525e-01
 9.5136480240e-01	 7.9067417041e-01	 3.7004366919e-01
 1.0038670423e+00	 7.3545423831e-01	 7.1782867647e-01
 9.9481495836e-01	 7.4765311069e-01	 6.3132448457e-01
 9.8560664802e-01	 7.5975095307e-01	 5.4406135869e-01
 9.7624379781e-01	 7.7174479108e-01	 4.5536710877e-01
 9.6672816921e-01	 7.8363168783e-01	 3.6890983143e-01
 9.5706159762e-01	 7.9540874628e-01	 2.8924370028e-01
 1.0098424414e+00	 7.3983194211e-01	 6.5362949276e-01
 1.0007364760e+00	 7.5210342683e-01	 5.6270804540e-01
 9.9147335425e-01	 7.6427328017e-01	 4.6980046380e-01
 9.8205477279e-01	 7.7633851007e-01	 3.7763414969e-01
 9.7248250355e-01	 7.8829616216e-01	 2.8994631268e-01
 9.6275839285e-01	 8.0014332216e-01	 2.1134417350e-01
 1.0158178404e+00	 7.4420964591e-01	 5.9344817427e-01
 1.0066579936e+00	 7.5655374296e-01	 4.9651411104e-01
 9.9734006049e-01	 7.6879560728e-01	 3.9883574961e-01
 9.8786574778e-01	 7.8093222907e-01	 3.0347992908e-01
 9.7823683789e-01	 7.9296063649e-01	 2.1439289064e-01
 9.6845518807e-01	 8.0487789803e-01	 1.3636222526e-01
 9.3997121195e-01	 7.8120501867e-01	 5.4023970397e-01
 9.3033088426e-01	 7.9266109170e-01	 4.5281206159e-01
 9.2054612753e-01	 8.0400372362e-01	 3.5872571009e-01
 9.1061895519e-01	 8.1523019997e-01	 2.6403427076e-01
 9.0055144834e-01	 8.2633785426e-01	 1.7511318349e-01
 8.9034575429e-01	 8.3732407007e-01	 9.8603527936e-02
 9.4566800717e-01	 7.8593959454e-01	 4.5371980893e-01
 9.3596925325e-01	 7.9746509831e-01	 3.6798273860e-01
 9.2612519497e-01	 8.0887647346e-01	 2.7442242150e-01
 9.1613785795e-01	 8.2017098906e-01	 1.7955201998e-01
 9.0600933590e-01	 8.3134596247e-01	 9.0211725187e-02
 8.9574178917e-01	 8.4239876140e-01	 1.3509778907e-02
 9.5136480240e-01	 7.9067417041e-01	 3.7004366919e-01
 9.4160762225e-01	 8.0226910493e-01	 2.8629369366e-01
 9.3170426241e-01	 8.1374922330e-01	 1.9365198911e-01
 9.2165676070e-01	 8.2511177815e-01	 9.8993937043e-02
 9.1146722347e-01	 8.3635407068e-01	 9.5342072112e-03
 9.0113782404e-01	 8.4747345273e-01	-6.7234868076e-02
 9.5706159762e-01	 7.9540874628e-01	 2.8924370028e-01
 9.4724599125e-01	 8.0707311154e-01	 2.0752540817e-01
 9.3728332984e-01	 8.1862197314e-01	 1.1600639655e-01
 9.2717566346e-01	 8.3005256724e-01	 2.1828733071e-02
 9.1692511103e-01	 8.4136217889e-01	-6.7506976167e-02
 9.0653385891e-01	 8.5254814407e-01	-1.4420571184e-01
 9.6275839285e-01	 8.0014332216e-01	 2.1134417350e-01
 9.5288436024e-01	 8.1187711816e-01	 1.3145601919e-01
 9.4286239728e-01	 8.2349472298e-01	 4.1079481795e-02
 9.3269456622e-01	 8.3499335634e-01	-5.2470465325e-02
 9.2238299860e-01	 8.4637028710e-01	-1.4149412559e-01
 9.1192989379e-01	 8.5762283540e-01	-2.1797355978e-01
 9.6845518807e-01	 8.0487789803e-01	 1.3636222526e-01
 9.5852272924e-01	 8.1668112478e-01	 5.7862142064e-02
 9.4844146472e-01	 8.2836747282e-01	-3.1532383292e-02
 9.3821346898e-01	 8.3993414543e-01	-1.2442553466e-01
 9.2784088617e-01	 8.5137839530e-01	-2.1300370727e-01
 9.1732592866e-01	 8.6269752673e-01	-2.8910420337e-01
 8.9034575429e-01	 8.3732407007e-01	 9.8603527936e-02
 8.8000408506e-01	 8.4818628306e-01	 2.1486387319e-02
 8.6952871578e-01	 8.5892198302e-01	-6.8376730565e-02
 8.5892198302e-01	 8.6952871578e-01	-1.6279355013e-01
 8.4818628306e-01	 8.8000408506e-01	-2.5353740736e-01
 8.3732407007e-01	 8.9034575429e-01	-3.3241608126e-01
 8.9574178917e-01	 8.4239876140e-01	 1.3509778907e-02
 8.8533744316e-01	 8.5332680598e-01	-6.3204847844e-02
 8.7479858679e-01	 8.6412757080e-01	-1.5214313185e-01
 8.6412757080e-01	 8.7479858679e-01	-2.4530707562e-01
 8.5332680598e-01	 8.8533744316e-01	-3.3466690965e-01
 8.4239876140e-01	 8.9574178917e-01	-4.1223164684e-01
 9.0113782404e-01	 8.4747345273e-01	-6.7234868076e-02
 8.9067080125e-01	 8.5846732891e-01	-1.4363807918e-01
 8.8006845779e-01	 8.6933315857e-01	-2.3189788091e-01
 8.6933315857e-01	 8.8006845779e-01	-3.2413280244e-01
 8.5846732891e-01	 8.9067080125e-01	-4.1243059756e-01
 8.4747345273e-01	 9.0113782404e-01	-4.8892076403e-01
 9.0653385891e-01	 8.5254814407e-01	-1.4420571184e-01
 8.9600415934e-01	 8.6360785184e-01	-2.2033360811e-01
 8.8533832880e-01	 8.7453874635e-01	-3.0809131808e-01
 8.7453874635e-01	 8.8533832880e-01	-3.9963722279e-01
 8.6360785184e-01	 8.9600415934e-01	-4.8709831200e-01
 8.5254814407e-01	 9.0653385891e-01	-5.6264491141e-01
 9.1192989379e-01	 8.5762283540e-01	-2.1797355978e-01
 9.0133751743e-01	 8.6874837477e-01	-2.9380913922e-01
 8.9060819980e-01	 8.7974433413e-01	-3.8117349700e-01
 8.7974433413e-01	 8.9060819980e-01	-4.7218923241e-01
 8.6874837477e-01	 9.0133751743e-01	-5.5894533208e-01
 8.5762283540e-01	 9.1192989379e-01	-6.3357434817e-01
 9.1732592866e-01	 8.6269752673e-01	-2.8910420337e-01
 9.0667087552e-01	 8.7388889769e-01	-3.6457923150e-01
 8.9587807081e-01	 8.8494992190e-01	-4.5159360172e-01
 8.8494992190e-01	 8.9587807081e-01	-5.4215950491e-01
 8.7388889769e-01	 9.0667087552e-01	-6.2825169833e-01
 8.6269752673e-01	 9.1732592866e-01	-7.0188737904e-01
 8.3732407007e-01	 8.9034575429e-01	-3.3241608126e-01
 8.2633785426e-01	 9.0055144834e-01	-4.1136258533e-01
 8.1523019997e-01	 9.1061895519e-01	-5.0273741175e-01
 8.0400372362e-01	 9.2054612753e-01	-5.9923846807e-01
 7.9266109170e-01	 9.3033088426e-01	-6.9385746736e-01
 7.8120501867e-01	 9.3997121195e-01	-7.7994274116e-01
 8.4239876140e-01	 8.9574178917e-01	-4.1223164684e-01
 8.3134596247e-01	 9.0600933590e-01	-4.9004769438e-01
 8.2017098906e-01	 9.1613785795e-01	-5.8017462444e-01
 8.0887647346e-01	 9.2612519497e-01	-6.7488627455e-01
 7.9746509831e-01	 9.3596925325e-01	-7.6674197657e-01
 7.8593959454e-01	 9.4566800717e-01	-8.4865251722e-01
 8.4747345273e-01	 9.0113782404e-01	-4.8892076403e-01
 8.3635407068e-01	 9.1146722347e-01	-5.6562279280e-01
 8.2511177815e-01	 9.2165676070e-01	-6.5427190329e-01
 8.1374922330e-01	 9.3170426241e-01	-7.4681899619e-01
 8.0226910493e-01	 9.4160762225e-01	-8.3550195433e-01
 7.9067417041e-01	 9.5136480240e-01	-9.1291456101e-01
 8.5254814407e-01	 9.0653385891e-01	-5.6264491141e-01
 8.4136217889e-01	 9.1692511103e-01	-6.3818536535e-01
 8.3005256724e-01	 9.2717566346e-01	-7.2516111197e-01
 8.1862197314e-01	 9.3728332984e-01	-8.1529914614e-01
 8.0707311154e-01	 9.4724599125e-01	-9.0062461900e-01
 7.9540874628e-01	 9.5706159762e-01	-9.7353252940e-01
 8.5762283540e-01	 9.1192989379e-01	-6.3357434817e-01
 8.4637028710e-01	 9.2238299860e-01	-7.0784398932e-01
 8.3499335634e-01	 9.3269456622e-01	-7.9298519861e-01
 8.2349472298e-01	 9.4286239728e-01	-8.8059803247e-01
 8.1187711816e-01	 9.5288436024e-01	-9.6260145389e-01
 8.0014332216e-01	 9.6275839285e-01	-1.0313076176e+00
 8.6269752673e-01	 9.1732592866e-01	-7.0188737904e-01
 8.5137839530e-01	 9.2784088617e-01	-7.7471757290e-01
 8.3993414543e-01	 9.3821346898e-01	-8.5789747724e-01
 8.2836747282e-01	 9.4844146472e-01	-9.4299515070e-01
 8.1668112478e-01	 9.5852272924e-01	-1.0219277776e+00
 8.0487789803e-01	 9.6845518807e-01	-1.0870383723e+00
 7.8120501867e-01	 9.3997121195e-01	-7.7994274116e-01
 7.6963826483e-01	 9.4946516618e-01	-8.6062814569e-01
 7.5796363409e-01	 9.5881087284e-01	-9.4139084469e-01
 7.4618397177e-01	 9.6800652930e-01	-1.0200239708e+00
 7.3430216229e-01	 9.7705040553e-01	-1.0974353898e+00
 7.2232112691e-01	 9.8594084514e-01	-1.1866224602e+00
 7.8593959454e-01	 9.4566800717e-01	-8.4865251722e-01
 7.7430273917e-01	 9.5521950053e-01	-9.2512789191e-01
 7.6255735309e-01	 9.6462184783e-01	-1.0033334361e+00
 7.5070629887e-01	 9.7387323554e-01	-1.0811206662e+00
 7.3875247842e-01	 9.8297192314e-01	-1.1574678346e+00
 7.2669883071e-01	 9.9191624420e-01	-1.2433782447e+00
 7.9067417041e-01	 9.5136480240e-01	-9.1291456101e-01
 7.7896721350e-01	 9.6097383487e-01	-9.8514481489e-01
 7.6715107208e-01	 9.7043282282e-01	-1.0610591412e+00
 7.5522862597e-01	 9.7973994178e-01	-1.1383982267e+00
 7.4320279456e-01	 9.8889344075e-01	-1.2158337960e+00
 7.3107653451e-01	 9.9789164326e-01	-1.2987760310e+00
 7.9540874628e-01	 9.5706159762e-01	-9.7353252940e-01
 7.8363168783e-01	 9.6672816921e-01	-1.0417480921e+00
 7.7174479108e-01	 9.7624379781e-01	-1.1157125531e+00
 7.5975095307e-01	 9.8560664802e-01	-1.1928895239e+00
 7.4765311069e-01	 9.9481495836e-01	-1.2716799974e+00
 7.3545423831e-01	 1.0038670423e+00	-1.3532195392e+00
 8.0014332216e-01	 9.6275839285e-01	-1.0313076176e+00
 7.8829616216e-01	 9.7248250355e-01	-1.0959988813e+00
 7.7633851007e-01	 9.8205477279e-01	-1.1684291390e+00
 7.6427328017e-01	 9.9147335425e-01	-1.2456215690e+00
 7.5210342683e-01	 1.0007364760e+00	-1.3255260727e+00
 7.3983194211e-01	 1.0098424414e+00	-1.4071158016e+00
 8.0487789803e-01	 9.6845518807e-01	-1.0870383723e+00
 7.9296063649e-01	 9.7823683789e-01	-1.1489503424e+00
 7.8093222907e-01	 9.8786574778e-01	-1.2203353403e+00
 7.6879560728e-01	 9.9734006049e-01	-1.2976155619e+00
 7.5655374296e-01	 1.0066579936e+00	-1.3781124836e+00
 7.4420964591e-01	 1.0158178404e+00	-1.4600942018e+00
 7.2232112691e-01	 9.8594084514e-01	-1.1866224602e+00
 7.1024382136e-01	 9.9467626628e-01	-1.2788379996e+00
 6.9807323350e-01	 1.0032551625e+00	-1.3627900916e+00
 6.8581238091e-01	 1.0116761036e+00	-1.4422301117e+00
 6.7346430850e-01	 1.0199377362e+00	-1.5213346818e+00
 6.6103208610e-01	 1.0280387841e+00	-1.6046822990e+00
 7.2669883071e-01	 9.9191624420e-01	-1.2433782447e+00
 7.1454832937e-01	 1.0007046073e+00	-1.3326392765e+00
 7.0230398037e-01	 1.0093354969e+00	-1.4129052004e+00
 6.8996881959e-01	 1.0178074740e+00	-1.4880723352e+00
 6.7754591037e-01	 1.0261191770e+00	-1.5624553302e+00
 6.6503834116e-01	 1.0342693222e+00	-1.6407633374e+00
 7.3107653451e-01	 9.9789164326e-01	-1.2987760310e+00
 7.1885283738e-01	 1.0067329483e+00	-1.3845851122e+00
 7.0653472724e-01	 1.0154158312e+00	-1.4603212665e+00
 6.9412525826e-01	 1.0239388443e+00	-1.5303107184e+00
 6.8162751224e-01	 1.0323006178e+00	-1.5993158422e+00
 6.6904459623e-01	 1.0404998603e+00	-1.6725099814e+00
 7.3545423831e-01	 1.0038670423e+00	-1.3532195392e+00
 7.2315734539e-01	 1.0127612893e+00	-1.4346500874e+00
 7.1076547411e-01	 1.0214961655e+00	-1.5048482705e+00
 6.9828169693e-01	 1.0300702146e+00	-1.5688497739e+00
 6.8570911411e-01	 1.0384820586e+00	-1.6321686976e+00
 6.7305085130e-01	 1.0467303984e+00	-1.7007701376e+00
 7.3983194211e-01	 1.0098424414e+00	-1.4071158016e+00
 7.2746185340e-01	 1.0187896303e+00	-1.4828221234e+00
 7.1499622098e-01	 1.0275764998e+00	-1.5463132947e+00
 7.0243813560e-01	 1.0362015849e+00	-1.6036087358e+00
 6.8979071598e-01	 1.0446634995e+00	-1.6612727117e+00
 6.7705710636e-01	 1.0529609365e+00	-1.7263837972e+00
 7.4420964591e-01	 1.0158178404e+00	-1.4600942018e+00
 7.3176636140e-01	 1.0248179713e+00	-1.5291019236e+00
 7.1922696785e-01	 1.0336568341e+00	-1.5845598585e+00
 7.0659457427e-01	 1.0423329553e+00	-1.6345209718e+00
 6.9387231785e-01	 1.0508449403e+00	-1.6868927009e+00
 6.8106336143e-01	 1.0591914745e+00	-1.7501831277e+00
 6.6103208610e-01	 1.0280387841e+00	-1.6046822990e+00
 6.4851880598e-01	 1.0359780494e+00	-1.6864141107e+00
 6.3592758050e-01	 1.0437544121e+00	-1.7601613505e+00
 6.2326153958e-01	 1.0513668312e+00	-1.8302132217e+00
 6.1052382831e-01	 1.0588143442e+00	-1.9010920741e+00
 5.9771760450e-01	 1.0660960678e+00	-1.9775295671e+00
 6.6503834116e-01	 1.0342693222e+00	-1.6407633374e+00
 6.5244922299e-01	 1.0422567042e+00	-1.7170682988e+00
 6.3978168705e-01	 1.0500801965e+00	-1.7852760013e+00
 6.2703888224e-01	 1.0577387514e+00	-1.8503573971e+00
 6.1422397272e-01	 1.0652314009e+00	-1.9175697592e+00
 6.0134013544e-01	 1.0725572561e+00	-1.9924304787e+00
 6.6904459623e-01	 1.0404998603e+00	-1.6725099814e+00
 6.5637963999e-01	 1.0485353591e+00	-1.7442929978e+00
 6.4363579359e-01	 1.0564059808e+00	-1.8086379978e+00
 6.3081622491e-01	 1.0641106716e+00	-1.8706173731e+00
 6.1792411714e-01	 1.0716484575e+00	-1.9356114940e+00
 6.0496266637e-01	 1.0790184444e+00	-2.0092818297e+00
 6.7305085130e-01	 1.0467303984e+00	-1.7007701376e+00
 6.6031005700e-01	 1.0548140139e+00	-1.7694643626e+00
 6.4748990014e-01	 1.0627317651e+00	-1.8317812141e+00
 6.3459356757e-01	 1.0704825918e+00	-1.8923252518e+00
 6.2162426155e-01	 1.0780655141e+00	-1.9559995235e+00
 6.0858519731e-01	 1.0854796327e+00	-2.0279796812e+00
 6.7705710636e-01	 1.0529609365e+00	-1.7263837972e+00
 6.6424047401e-01	 1.0610926688e+00	-1.7939379635e+00
 6.5134400669e-01	 1.0690575494e+00	-1.8562150313e+00
 6.3837091023e-01	 1.0768545120e+00	-1.9167932335e+00
 6.2532440596e-01	 1.0844825708e+00	-1.9795090116e+00
 6.1220772825e-01	 1.0919408210e+00	-2.0484337832e+00
 6.8106336143e-01	 1.0591914745e+00	-1.7501831277e+00
 6.6817089101e-01	 1.0673713236e+00	-1.8190492580e+00
 6.5519811324e-01	 1.0753833337e+00	-1.8834249329e+00
 6.4214825290e-01	 1.0832264322e+00	-1.9453140855e+00
 6.2902455038e-01	 1.0908996274e+00	-2.0069081403e+00
 6.1583025918e-01	 1.0984020092e+00	-2.0705670725e+00
 5.9771760450e-01	 1.0660960678e+00	-1.9775295671e+00
 5.8484603626e-01	 1.0732111975e+00	-2.0564386558e+00
 5.7191229957e-01	 1.0801590078e+00	-2.1322166302e+00
 5.5891957587e-01	 1.0869388521e+00	-2.2060099608e+00
 5.4587104971e-01	 1.0935501624e+00	-2.2790145475e+00
 5.3276990637e-01	 1.0999924488e+00	-2.3524608126e+00
 6.0134013544e-01	 1.0725572561e+00	-1.9924304787e+00
 5.8839055769e-01	 1.0797155078e+00	-2.0713004356e+00
 5.7537843471e-01	 1.0867054260e+00	-2.1464964545e+00
 5.6230696723e-01	 1.0935263603e+00	-2.2176404145e+00
 5.4917935910e-01	 1.1001777391e+00	-2.2843345366e+00
 5.3599881489e-01	 1.1066590697e+00	-2.3461508103e+00
 6.0496266637e-01	 1.0790184444e+00	-2.0092818297e+00
 5.9193507913e-01	 1.0862198180e+00	-2.0864110237e+00
 5.7884456986e-01	 1.0932518442e+00	-2.1569828405e+00
 5.6569435860e-01	 1.1001138685e+00	-2.2196135303e+00
 5.5248766849e-01	 1.1068053158e+00	-2.2728581795e+00
 5.3922772342e-01	 1.1133256906e+00	-2.3174097039e+00
 6.0858519731e-01	 1.0854796327e+00	-2.0279796812e+00
 5.9547960056e-01	 1.0927241283e+00	-2.1007868389e+00
 5.8231070501e-01	 1.0997982625e+00	-2.1621474615e+00
 5.6908174997e-01	 1.1067013767e+00	-2.2101811296e+00
 5.5579597788e-01	 1.1134328926e+00	-2.2453352805e+00
 5.4245663194e-01	 1.1199923115e+00	-2.2938190290e+00
 6.1220772825e-01	 1.0919408210e+00	-2.0484337832e+00
 5.9902412199e-01	 1.0992284386e+00	-2.1134785935e+00
 5.8577684016e-01	 1.1063446807e+00	-2.1605089513e+00
 5.7246914134e-01	 1.1132888849e+00	-2.1897346989e+00
 5.5910428728e-01	 1.1200604693e+00	-2.2285984592e+00
 5.4568554046e-01	 1.1266589324e+00	-2.2829608099e+00
 6.1583025918e-01	 1.0984020092e+00	-2.0705670725e+00
 6.0256864342e-01	 1.1057327489e+00	-2.1235701946e+00
 5.8924297531e-01	 1.1128910989e+00	-2.1520037655e+00
 5.7585653271e-01	 1.1198763931e+00	-2.1841049559e+00
 5.6241259667e-01	 1.1266880461e+00	-2.2291613849e+00
 5.4891444899e-01	 1.1333255533e+00	-2.2835000923e+00
 5.3276990637e-01	 1.0999924488e+00	-2.3524608126e+00
 5.1961932952e-01	 1.1062652995e+00	-2.4176655508e+00
 5.0642249893e-01	 1.1123683801e+00	-2.4654178885e+00
 4.9318258818e-01	 1.1183014331e+00	-2.5163800870e+00
 4.7990276243e-01	 1.1240642771e+00	-2.5776063752e+00
 4.6658617621e-01	 1.1296568066e+00	-2.6451411201e+00
 5.3599881489e-01	 1.1066590697e+00	-2.3461508103e+00
 5.2276853758e-01	 1.1129699377e+00	-2.3946809909e+00
 5.0949172620e-01	 1.1191100067e+00	-2.4447161350e+00
 4.9617157356e-01	 1.1250790175e+00	-2.5026035524e+00
 4.8281126402e-01	 1.1308767879e+00	-2.5653808651e+00
 4.6941397122e-01	 1.1365032115e+00	-2.6297361046e+00
 5.3922772342e-01	 1.1133256906e+00	-2.3174097039e+00
 5.2591774564e-01	 1.1196745759e+00	-2.3696364018e+00
 5.1256095346e-01	 1.1258516332e+00	-2.4268726970e+00
 4.9916055895e-01	 1.1318566020e+00	-2.4872935416e+00
 4.8571976561e-01	 1.1376892987e+00	-2.5487129984e+00
 4.7224176622e-01	 1.1433496164e+00	-2.6086168679e+00
 5.4245663194e-01	 1.1199923115e+00	-2.2938190290e+00
 5.2906695370e-01	 1.1263792140e+00	-2.3523717536e+00
 5.1563018073e-01	 1.1325932597e+00	-2.4115911870e+00
 5.0214954433e-01	 1.1386341864e+00	-2.4705747145e+00
 4.8862826720e-01	 1.1445018094e+00	-2.5280729881e+00
 4.7506956123e-01	 1.1501960213e+00	-2.5825209946e+00
 5.4568554046e-01	 1.1266589324e+00	-2.2829608099e+00
 5.3221616175e-01	 1.1330838522e+00	-2.3420942119e+00
 5.1869940800e-01	 1.1393348863e+00	-2.3985618878e+00
 5.0513852971e-01	 1.1454117708e+00	-2.4525495198e+00
 4.9153676879e-01	 1.1513143202e+00	-2.5039017833e+00
 4.7789735624e-01	 1.1570424261e+00	-2.5521516450e+00
 5.4891444899e-01	 1.1333255533e+00	-2.2835000923e+00
 5.3536536981e-01	 1.1397884904e+00	-2.3380080882e+00
 5.2176863526e-01	 1.1460765128e+00	-2.3874618756e+00
 5.0812751509e-01	 1.1521893553e+00	-2.4332985610e+00
 4.9444527038e-01	 1.1581268310e+00	-2.4766116257e+00
 4.8072515125e-01	 1.1638888310e+00	-2.5181782471e+00
 4.6658617621e-01	 1.1296568066e+00	-2.6451411201e+00
 4.5323597128e-01	 1.1350789906e+00	-2.7122325453e+00
 4.3985527449e-01	 1.1403308722e+00	-2.7747752978e+00
 4.2644719573e-01	 1.1454125675e+00	-2.8323431453e+00
 4.1301482588e-01	 1.1503242648e+00	-2.8842965733e+00
 3.9956123485e-01	 1.1550662233e+00	-2.9298112191e+00
 4.6941397122e-01	 1.1365032115e+00	-2.6297361046e+00
 4.5598285595e-01	 1.1419582572e+00	-2.6900522047e+00
 4.4252106404e-01	 1.1472419684e+00	-2.7437418170e+00
 4.2903172419e-01	 1.1523544618e+00	-2.7916250785e+00
 4.1551794603e-01	 1.1572959270e+00	-2.8343150385e+00
 4.0198281809e-01	 1.1620666246e+00	-2.8722441767e+00
 4.7224176622e-01	 1.1433496164e+00	-2.6086168679e+00
 4.5872974063e-01	 1.1488375238e+00	-2.6624860288e+00
 4.4518685358e-01	 1.1541530645e+00	-2.7088006433e+00
 4.3161625265e-01	 1.1592963562e+00	-2.7491486897e+00
 4.1802106619e-01	 1.1642675892e+00	-2.7849110936e+00
 4.0440440133e-01	 1.1690670260e+00	-2.8172874693e+00
 4.7506956123e-01	 1.1501960213e+00	-2.5825209946e+00
 4.6147662530e-01	 1.1557167904e+00	-2.6304338889e+00
 4.4785264312e-01	 1.1610641607e+00	-2.6708893487e+00
 4.3420078111e-01	 1.1662382505e+00	-2.7057731940e+00
 4.2052418635e-01	 1.1712392514e+00	-2.7367581173e+00
 4.0682598457e-01	 1.1760674273e+00	-2.7653297698e+00
 4.7789735624e-01	 1.1570424261e+00	-2.5521516450e+00
 4.6422350998e-01	 1.1625960570e+00	-2.5947585988e+00
 4.5051843266e-01	 1.1679752569e+00	-2.6309088002e+00
 4.3678530957e-01	 1.1731801449e+00	-2.6623242379e+00
 4.2302730650e-01	 1.1782109136e+00	-2.6905016306e+00
 4.0924756781e-01	 1.1830678287e+00	-2.7167399760e+00
 4.8072515125e-01	 1.1638888310e+00	-2.5181782471e+00
 4.6697039465e-01	 1.1694753236e+00	-2.5562866691e+00
 4.5318422220e-01	 1.1748863531e+00	-2.5897238918e+00
 4.3936983802e-01	 1.1801220392e+00	-2.6195945263e+00
 4.2553042666e-01	 1.1851825758e+00	-2.6467597483e+00
 4.1166915106e-01	 1.1900682300e+00	-2.6718674146e+00
 3.9956123485e-01	 1.1550662233e+00	-2.9298112191e+00
 3.8608946968e-01	 1.1596387722e+00	-2.9771076023e+00
 3.7260255263e-01	 1.1640423095e+00	-3.0330155174e+00
 3.5910347943e-01	 1.1682773008e+00	-3.0928898618e+00
 3.4559521744e-01	 1.1723442780e+00	-3.1481281813e+00
 3.3208070407e-01	 1.1762438380e+00	-3.1905693303e+00
 4.0198281809e-01	 1.1620666246e+00	-2.8722441767e+00
 3.8842940586e-01	 1.1666668859e+00	-2.9142086370e+00
 3.7486074992e-01	 1.1710971114e+00	-2.9660384999e+00
 3.6127986415e-01	 1.1753577693e+00	-3.0228698096e+00
 3.4768973391e-01	 1.1794493948e+00	-3.0761355756e+00
 3.3409331439e-01	 1.1833725886e+00	-3.1164524746e+00
 4.0440440133e-01	 1.1690670260e+00	-2.8172874693e+00
 3.9076934204e-01	 1.1736949997e+00	-2.8551265424e+00
 3.7711894721e-01	 1.1781519132e+00	-2.9032408331e+00
 3.6345624887e-01	 1.1824382378e+00	-2.9564083077e+00
 3.4978425038e-01	 1.1865545117e+00	-3.0067406758e+00
 3.3610592472e-01	 1.1905013391e+00	-3.0440701058e+00
 4.0682598457e-01	 1.1760674273e+00	-2.7653297698e+00
 3.9310927822e-01	 1.1807231135e+00	-2.7999850952e+00
 3.7937714450e-01	 1.1852067151e+00	-2.8446104812e+00
 3.6563263360e-01	 1.1895187063e+00	-2.8935951498e+00
 3.5187876685e-01	 1.1936596285e+00	-2.9401032054e+00
 3.3811853505e-01	 1.1976300896e+00	-2.9737601189e+00
 4.0924756781e-01	 1.1830678287e+00	-2.7167399760e+00
 3.9544921440e-01	 1.1877512272e+00	-2.7488959350e+00
 3.8163534179e-01	 1.1922615170e+00	-2.7901278761e+00
 3.6780901832e-01	 1.1965991748e+00	-2.8345218684e+00
 3.5397328332e-01	 1.2007647454e+00	-2.8763860673e+00
 3.4013114538e-01	 1.2047588402e+00	-2.9058621188e+00
 4.1166915106e-01	 1.1900682300e+00	-2.6718674146e+00
 3.9778915058e-01	 1.1947793410e+00	-2.7019585379e+00
 3.8389353908e-01	 1.1993163189e+00	-2.7397657511e+00
 3.6998540304e-01	 1.2036796432e+00	-2.7792803614e+00
 3.5606779979e-01	 1.2078698622e+00	-2.8157540958e+00
 3.4214375571e-01	 1.2118875907e+00	-2.8407163711e+00
 3.3208070407e-01	 1.1762438380e+00	-3.1905693303e+00
 3.1856284503e-01	 1.1799766414e+00	-3.2231029435e+00
 3.0504451286e-01	 1.1835434110e+00	-3.2552996181e+00
 2.9152854535e-01	 1.1869449304e+00	-3.2885938563e+00
 2.7801774413e-01	 1.1901820426e+00	-3.3241687747e+00
 2.6451487330e-01	 1.1932556483e+00	-3.3629882032e+00
 3.3409331439e-01	 1.1833725886e+00	-3.1164524746e+00
 3.2049352894e-01	 1.1871280150e+00	-3.1461527988e+00
 3.0689326748e-01	 1.1907164013e+00	-3.1751346711e+00
 2.9329538502e-01	 1.1941385360e+00	-3.2049823192e+00
 2.7970270016e-01	 1.1973952671e+00	-3.2370395192e+00
 2.6611799374e-01	 1.2004875008e+00	-3.2724410109e+00
 3.3610592472e-01	 1.1905013391e+00	-3.0440701058e+00
 3.2242421285e-01	 1.1942793886e+00	-3.0704569343e+00
 3.0874202211e-01	 1.1978893917e+00	-3.0961247357e+00
 2.9506222469e-01	 1.2013321417e+00	-3.1226707474e+00
 2.8138765618e-01	 1.2046084916e+00	-3.1514604023e+00
 2.6772111418e-01	 1.2077193532e+00	-3.1836583873e+00
 3.3811853505e-01	 1.1976300896e+00	-2.9737601189e+00
 3.2435489676e-01	 1.2014307622e+00	-2.9965487328e+00
 3.1059077673e-01	 1.2050623821e+00	-3.0189306390e+00
 2.9682906435e-01	 1.2085257473e+00	-3.0423821062e+00
 2.8307261221e-01	 1.2118217161e+00	-3.0681540524e+00
 2.6932423463e-01	 1.2149512056e+00	-3.0973030655e+00
 3.4013114538e-01	 1.2047588402e+00	-2.9058621188e+00
 3.2628558067e-01	 1.2085821357e+00	-2.9249610518e+00
 3.1243953135e-01	 1.2122353725e+00	-2.9442116995e+00
 2.9859590402e-01	 1.2157193529e+00	-2.9648380562e+00
 2.8475756823e-01	 1.2190349406e+00	-2.9878431189e+00
 2.7092735507e-01	 1.2221830580e+00	-3.0140401835e+00
 3.4214375571e-01	 1.2118875907e+00	-2.8407163711e+00
 3.2821626458e-01	 1.2157335093e+00	-2.8562253872e+00
 3.1428828598e-01	 1.2194083628e+00	-2.8726250557e+00
 3.0036274369e-01	 1.2229129586e+00	-2.8907584019e+00
 2.8644252426e-01	 1.2262481651e+00	-2.9112497981e+00
 2.7253047552e-01	 1.2294149104e+00	-2.9345368458e+00
 2.6451487330e-01	 1.1932556483e+00	-3.3629882032e+00
 2.5102265807e-01	 1.1961667048e+00	-3.4022407374e+00
 2.3754378355e-01	 1.1989162237e+00	-3.4383905088e+00
 2.2408089358e-01	 1.2015052699e+00	-3.4710610987e+00
 2.1063658956e-01	 1.2039349599e+00	-3.4997458694e+00
 1.9721342943e-01	 1.2062064598e+00	-3.5238182327e+00
 2.6611799374e-01	 1.2004875008e+00	-3.2724410109e+00
 2.5254400751e-01	 1.2034162000e+00	-3.3084943795e+00
 2.3898344285e-01	 1.2061823826e+00	-3.3416382404e+00
 2.2543895961e-01	 1.2087871200e+00	-3.3714670989e+00
 2.1191317495e-01	 1.2112315354e+00	-3.3974570173e+00
 1.9840866233e-01	 1.2135168020e+00	-3.4189744052e+00
 2.6772111418e-01	 1.2077193532e+00	-3.1836583873e+00
 2.5406535695e-01	 1.2106656951e+00	-3.2166151866e+00
 2.4042310214e-01	 1.2134485415e+00	-3.2467996800e+00
 2.2679702563e-01	 1.2160689702e+00	-3.2738338211e+00
 2.1318976034e-01	 1.2185281109e+00	-3.2972340220e+00
 1.9960389524e-01	 1.2208271442e+00	-3.3164182591e+00
 2.6932423463e-01	 1.2149512056e+00	-3.0973030655e+00
 2.5558670639e-01	 1.2179151903e+00	-3.1271804388e+00
 2.4186276144e-01	 1.2207147005e+00	-3.1543726637e+00
 2.2815509165e-01	 1.2233508203e+00	-3.1785850301e+00
 2.1446634573e-01	 1.2258246864e+00	-3.1994313576e+00
 2.0079912814e-01	 1.2281374864e+00	-3.2164392116e+00
 2.7092735507e-01	 1.2221830580e+00	-3.0140401835e+00
 2.5710805584e-01	 1.2251646855e+00	-3.0407724661e+00
 2.4330242073e-01	 1.2279808594e+00	-3.0648622468e+00
 2.2951315767e-01	 1.2306326704e+00	-3.0861534295e+00
 2.1574293112e-01	 1.2331212619e+00	-3.1044137367e+00
 2.0199436105e-01	 1.2354478286e+00	-3.1193378261e+00
 2.7253047552e-01	 1.2294149104e+00	-2.9345368458e+00
 2.5862940528e-01	 1.2324141807e+00	-2.9579782277e+00
 2.4474208003e-01	 1.2352470183e+00	-2.9787803036e+00
 2.3087122369e-01	 1.2379145205e+00	-2.9969802864e+00
 2.1701951652e-01	 1.2404178375e+00	-3.0125557616e+00
 2.0318959396e-01	 1.2427581707e+00	-3.0254254937e+00
 1.9721342943e-01	 1.2062064598e+00	-3.5238182327e+00
 1.8381392668e-01	 1.2083209842e+00	-3.5452350724e+00
 1.7044054945e-01	 1.2102797939e+00	-3.5663345959e+00
 1.5709571964e-01	 1.2120841948e+00	-3.5868788543e+00
 1.4378181214e-01	 1.2137355359e+00	-3.6064980815e+00
 1.3050115410e-01	 1.2152352074e+00	-3.6246880442e+00
 1.9840866233e-01	 1.2135168020e+00	-3.4189744052e+00
 1.8492795048e-01	 1.2156441417e+00	-3.4379119007e+00
 1.7147352248e-01	 1.2176148230e+00	-3.4565762346e+00
 1.5804781491e-01	 1.2194301597e+00	-3.4747740106e+00
 1.4465321706e-01	 1.2210915088e+00	-3.4921728010e+00
 1.3129207019e-01	 1.2226002692e+00	-3.5082967068e+00
 1.9960389524e-01	 1.2208271442e+00	-3.3164182591e+00
 1.8604197428e-01	 1.2229672992e+00	-3.3331963538e+00
 1.7250649551e-01	 1.2249498520e+00	-3.3497607688e+00
 1.5899991018e-01	 1.2267761245e+00	-3.3659265926e+00
 1.4552462199e-01	 1.2284474817e+00	-3.3813641330e+00
 1.3208298628e-01	 1.2299653311e+00	-3.3955926327e+00
 2.0079912814e-01	 1.2281374864e+00	-3.2164392116e+00
 1.8715599808e-01	 1.2302904566e+00	-3.2313150378e+00
 1.7353946853e-01	 1.2322848811e+00	-3.2460534613e+00
 1.5995200545e-01	 1.2341220893e+00	-3.2604432966e+00
 1.4639602691e-01	 1.2358034547e+00	-3.2741243053e+00
 1.3287390236e-01	 1.2373303930e+00	-3.2865790090e+00
 2.0199436105e-01	 1.2354478286e+00	-3.1193378261e+00
 1.8827002188e-01	 1.2376136141e+00	-3.1325062875e+00
 1.7457244156e-01	 1.2396199101e+00	-3.1456315979e+00
 1.6090410072e-01	 1.2414680541e+00	-3.1584428396e+00
 1.4726743183e-01	 1.2431594276e+00	-3.1705172591e+00
 1.3366481845e-01	 1.2446954548e+00	-3.1812701157e+00
 2.0318959396e-01	 1.2427581707e+00	-3.0254254937e+00
 1.8938404567e-01	 1.2449367716e+00	-3.0370198769e+00
 1.7560541459e-01	 1.2469549392e+00	-3.0486842284e+00
 1.6185619599e-01	 1.2488140189e+00	-3.0600557302e+00
 1.4813883675e-01	 1.2505154006e+00	-3.0706184506e+00
 1.3445573453e-01	 1.2520605167e+00	-3.0796911609e+00
 1.3050115410e-01	 1.2152352074e+00	-3.6246880442e+00
 1.1725602429e-01	 1.2165846396e+00	-3.6419481777e+00
 1.0404865246e-01	 1.2177853006e+00	-3.6584395724e+00
 9.0881218847e-02	 1.2188386951e+00	-3.6729470150e+00
 7.7755853673e-02	 1.2197463620e+00	-3.6841188916e+00
 6.4674636748e-02	 1.2205098737e+00	-3.6904650110e+00
 1.3129207019e-01	 1.2226002692e+00	-3.5082967068e+00
 1.1796666686e-01	 1.2239578798e+00	-3.5237250524e+00
 1.0467925035e-01	 1.2251658176e+00	-3.5386680400e+00
 9.1432014112e-02	 1.2262255962e+00	-3.5518786136e+00
 7.8227101271e-02	 1.2271387642e+00	-3.5619636318e+00
 6.5066604244e-02	 1.2279069033e+00	-3.5673799356e+00
 1.3208298628e-01	 1.2299653311e+00	-3.3955926327e+00
 1.1867730943e-01	 1.2313311201e+00	-3.4092854178e+00
 1.0530984825e-01	 1.2325463346e+00	-3.4227506116e+00
 9.1982809378e-02	 1.2336124974e+00	-3.4347292112e+00
 7.8698348869e-02	 1.2345311664e+00	-3.4438063597e+00
 6.5458571739e-02	 1.2353039328e+00	-3.4484055303e+00
 1.3287390236e-01	 1.2373303930e+00	-3.2865790090e+00
 1.1938795201e-01	 1.2387043603e+00	-3.2985877944e+00
 1.0594044614e-01	 1.2399268515e+00	-3.3106038719e+00
 9.2533604644e-02	 1.2409993986e+00	-3.3213766394e+00
 7.9169596467e-02	 1.2419235686e+00	-3.3294897956e+00
 6.5850539234e-02	 1.2427009623e+00	-3.3333535097e+00
 1.3366481845e-01	 1.2446954548e+00	-3.1812701157e+00
 1.2009859458e-01	 1.2460776005e+00	-3.1916009137e+00
 1.0657104404e-01	 1.2473073685e+00	-3.2021535374e+00
 9.3084399909e-02	 1.2483862998e+00	-3.2117066008e+00
 7.9640844065e-02	 1.2493159708e+00	-3.2188631063e+00
 6.6242506730e-02	 1.2500979919e+00	-3.2220404623e+00
 1.3445573453e-01	 1.2520605167e+00	-3.0796911609e+00
 1.2080923715e-01	 1.2534508408e+00	-3.0883035866e+00
 1.0720164193e-01	 1.2546878855e+00	-3.0973343565e+00
 9.3635195175e-02	 1.2557732010e+00	-3.1056126017e+00
 8.0112091663e-02	 1.2567083730e+00	-3.1117818683e+00
 6.6634474225e-02	 1.2574950214e+00	-3.1142878439e+00
 6.4674636748e-02	 1.2205098737e+00	-3.6904650110e+00
 5.1639597106e-02	 1.2211308335e+00	-3.6953437082e+00
 3.8652712713e-02	 1.2216108743e+00	-3.7018141434e+00
 2.5715910226e-02	 1.2219516572e+00	-3.7077379360e+00
 1.2831064807e-02	 1.2221548692e+00	-3.7108542144e+00
 0.0000000000e+00	 1.2222222222e+00	-3.7087861106e+00
 6.5066604244e-02	 1.2279069033e+00	-3.5673799356e+00
 5.1952564362e-02	 1.2285316264e+00	-3.5714766811e+00
 3.8886971578e-02	 1.2290145766e+00	-3.5773476757e+00
 2.5871764227e-02	 1.2293574248e+00	-3.5828402057e+00
 1.2908828836e-02	 1.2295618684e+00	-3.5856547412e+00
 0.0000000000e+00	 1.2296296296e+00	-3.5833503503e+00
 6.5458571739e-02	 1.2353039328e+00	-3.4484055303e+00
 5.2265531617e-02	 1.2359324194e+00	-3.4518443952e+00
 3.9121230443e-02	 1.2364182789e+00	-3.4572060051e+00
 2.6027618228e-02	 1.2367631924e+00	-3.4623081732e+00
 1.2986592866e-02	 1.2369688676e+00	-3.4647977058e+00
 0.0000000000e+00	 1.2370370370e+00	-3.4621546717e+00
 6.5850539234e-02	 1.2427009623e+00	-3.3333535097e+00
 5.2578498872e-02	 1.2433332123e+00	-3.3362335048e+00
 3.9355489308e-02	 1.2438219811e+00	-3.3411589107e+00
 2.6183472230e-02	 1.2441689600e+00	-3.3459039750e+00
 1.3064356895e-02	 1.2443758668e+00	-3.3480478594e+00
 0.0000000000e+00	 1.2444444444e+00	-3.3449776977e+00
 6.6242506730e-02	 1.2500979919e+00	-3.2220404623e+00
 5.2891466127e-02	 1.2507340052e+00	-3.2244338029e+00
 3.9589748173e-02	 1.2512256834e+00	-3.2289773874e+00
 2.6339326231e-02	 1.2515747276e+00	-3.2333888548e+00
 1.3142120924e-02	 1.2517828660e+00	-3.2351667708e+00
 0.0000000000e+00	 1.2518518519e+00	-3.2315924028e+00
 6.6634474225e-02	 1.2574950214e+00	-3.1142878439e+00
 5.3204433382e-02	 1.2581347981e+00	-3.1162382453e+00
 3.9824007038e-02	 1.2586293857e+00	-3.1204337010e+00
 2.6495180233e-02	 1.2589804953e+00	-3.1245232533e+00
 1.3219884953e-02	 1.2591898652e+00	-3.1259129536e+00
 0.0000000000e+00	 1.2592592593e+00	-3.1217662788e+00
 1.2592592593e+00	 0.0000000000e+00	 3.5710231817e+00
 1.2591898652e+00	 1.3219884953e-02	 3.5692397210e+00
 1.2589804953e+00	 2.6495180233e-02	 3.5658553430e+00
 1.2586293857e+00	 3.9824007038e-02	 3.5605922572e+00
 1.2581347981e+00	 5.3204433382e-02	 3.5531456992e+00
 1.2574950214e+00	 6.6634474225e-02	 3.5431930299e+00
 1.2666666667e+00	 0.0000000000e+00	 3.5988962285e+00
 1.2665968644e+00	 1.3297648982e-02	 3.5972122266e+00
 1.2663862629e+00	 2.6651034234e-02	 3.5936837174e+00
 1.2660330879e+00	 4.0058265903e-02	 3.5881064044e+00
 1.2655355911e+00	 5.3517400638e-02	 3.5802297964e+00
 1.2648920509e+00	 6.7026441721e-02	 3.5697678626e+00
 1.2740740741e+00	 0.0000000000e+00	 3.6249640549e+00
 1.2740038636e+00	 1.3375413011e-02	 3.6233573312e+00
 1.2737920305e+00	 2.6806888235e-02	 3.6196891722e+00
 1.2734367902e+00	 4.0292524768e-02	 3.6138130959e+00
 1.2729363840e+00	 5.3830367893e-02	 3.6055162893e+00
 1.2722890805e+00	 6.7418409216e-02	 3.5945319254e+00
 1.2814814815e+00	 0.0000000000e+00	 3.6491294926e+00
 1.2814108628e+00	 1.3453177040e-02	 3.6475716968e+00
 1.2811977981e+00	 2.6962742237e-02	 3.6437713785e+00
 1.2808404925e+00	 4.0526783633e-02	 3.6376237719e+00
 1.2803371769e+00	 5.4143335148e-02	 3.6289367011e+00
 1.2796861100e+00	 6.7810376712e-02	 3.6174446662e+00
 1.2888888889e+00	 0.0000000000e+00	 3.6712963221e+00
 1.2888178620e+00	 1.3530941069e-02	 3.6697527786e+00
 1.2886035657e+00	 2.7118596238e-02	 3.6658306646e+00
 1.2882441948e+00	 4.0761042498e-02	 3.6594503988e+00
 1.2877379699e+00	 5.4456302403e-02	 3.6504229381e+00
 1.2870831396e+00	 6.8202344207e-02	 3.6384657447e+00
 1.2962962963e+00	 0.0000000000e+00	 3.6913692444e+00
 1.2962248613e+00	 1.3608705099e-02	 3.6897987997e+00
 1.2960093334e+00	 2.7274450239e-02	 3.6857679950e+00
 1.2956478970e+00	 4.0995301363e-02	 3.6792054528e+00
 1.2951387628e+00	 5.4769269658e-02	 3.6699072799e+00
 1.2944801691e+00	 6.8594311702e-02	 3.6575550299e+00
 1.2574950214e+00	 6.6634474225e-02	 3.5431930299e+00
 1.2567083730e+00	 8.0112091663e-02	 3.5313678677e+00
 1.2557732010e+00	 9.3635195175e-02	 3.5180248450e+00
 1.2546878855e+00	 1.0720164193e-01	 3.5024358791e+00
 1.2534508408e+00	 1.2080923715e-01	 3.4839145888e+00
 1.2520605167e+00	 1.3445573453e-01	 3.4618366803e+00
 1.2648920509e+00	 6.7026441721e-02	 3.5697678626e+00
 1.2641007752e+00	 8.0583339261e-02	 3.5574126167e+00
 1.2631601021e+00	 9.4185990441e-02	 3.5435293828e+00
 1.2620684025e+00	 1.0783223982e-01	 3.5273344602e+00
 1.2608240810e+00	 1.2151987972e-01	 3.5080765242e+00
 1.2594255786e+00	 1.3524665062e-01	 3.4850595770e+00
 1.2722890805e+00	 6.7418409216e-02	 3.5945319254e+00
 1.2714931774e+00	 8.1054586859e-02	 3.5816030257e+00
 1.2705470033e+00	 9.4736785707e-02	 3.5671224389e+00
 1.2694489194e+00	 1.0846283772e-01	 3.5502691481e+00
 1.2681973213e+00	 1.2223052229e-01	 3.5302451353e+00
 1.2667906404e+00	 1.3603756670e-01	 3.5063009742e+00
 1.2796861100e+00	 6.7810376712e-02	 3.6174446662e+00
 1.2788855796e+00	 8.1525834457e-02	 3.6039322443e+00
 1.2779339045e+00	 9.5287580972e-02	 3.5888341193e+00
 1.2768294364e+00	 1.0909343561e-01	 3.5713090702e+00
 1.2755705615e+00	 1.2294116486e-01	 3.5505294280e+00
 1.2741557023e+00	 1.3682848279e-01	 3.5257093942e+00
 1.2870831396e+00	 6.8202344207e-02	 3.6384657447e+00
 1.2862779818e+00	 8.1997082055e-02	 3.6243934530e+00
 1.2853208057e+00	 9.5838376238e-02	 3.6086944005e+00
 1.2842099534e+00	 1.0972403350e-01	 3.5905230820e+00
 1.2829438017e+00	 1.2365180743e-01	 3.5690380108e+00
 1.2815207642e+00	 1.3761939887e-01	 3.5434328504e+00
 1.2944801691e+00	 6.8594311702e-02	 3.6575550299e+00
 1.2936703840e+00	 8.2468329653e-02	 3.6429798694e+00
 1.2927077069e+00	 9.6389171504e-02	 3.6267331431e+00
 1.2915904704e+00	 1.1035463140e-01	 3.6079797867e+00
 1.2903170420e+00	 1.2436245001e-01	 3.5858791177e+00
 1.2888858260e+00	 1.3841031496e-01	 3.5596188712e+00
 1.2520605167e+00	 1.3445573453e-01	 3.4618366803e+00
 1.2505154006e+00	 1.4813883675e-01	 3.4369770421e+00
 1.2488140189e+00	 1.6185619599e-01	 3.4105697013e+00
 1.2469549392e+00	 1.7560541459e-01	 3.3828381028e+00
 1.2449367716e+00	 1.8938404567e-01	 3.3541538261e+00
 1.2427581707e+00	 2.0318959396e-01	 3.3250537846e+00
 1.2594255786e+00	 1.3524665062e-01	 3.4850595770e+00
 1.2578713735e+00	 1.4901024167e-01	 3.4589924614e+00
 1.2561599837e+00	 1.6280829127e-01	 3.4311549160e+00
 1.2542899683e+00	 1.7663838762e-01	 3.4018643110e+00
 1.2522599291e+00	 1.9049806947e-01	 3.3715901398e+00
 1.2500685129e+00	 2.0438482686e-01	 3.3409737660e+00
 1.2667906404e+00	 1.3603756670e-01	 3.5063009742e+00
 1.2652273465e+00	 1.4988164660e-01	 3.4790774154e+00
 1.2635059486e+00	 1.6376038654e-01	 3.4498700352e+00
 1.2616249973e+00	 1.7767136064e-01	 3.4190668868e+00
 1.2595830866e+00	 1.9161209327e-01	 3.3872124753e+00
 1.2573788551e+00	 2.0558005977e-01	 3.3550302209e+00
 1.2741557023e+00	 1.3682848279e-01	 3.5257093942e+00
 1.2725833194e+00	 1.5075305152e-01	 3.4974213091e+00
 1.2708519134e+00	 1.6471248181e-01	 3.4669489390e+00
 1.2689600264e+00	 1.7870433367e-01	 3.4347273008e+00
 1.2669062440e+00	 1.9272611707e-01	 3.4013525409e+00
 1.2646891973e+00	 2.0677529267e-01	 3.3676072896e+00
 1.2815207642e+00	 1.3761939887e-01	 3.5434328504e+00
 1.2799392924e+00	 1.5162445644e-01	 3.5142128725e+00
 1.2781978782e+00	 1.6566457708e-01	 3.4826245302e+00
 1.2762950554e+00	 1.7973730670e-01	 3.4491255894e+00
 1.2742294015e+00	 1.9384014087e-01	 3.4143399821e+00
 1.2719995395e+00	 2.0797052558e-01	 3.3790862298e+00
 1.2888858260e+00	 1.3841031496e-01	 3.5596188712e+00
 1.2872952653e+00	 1.5249586136e-01	 3.5296401836e+00
 1.2855438430e+00	 1.6661667235e-01	 3.4971287576e+00
 1.2836300845e+00	 1.8077027972e-01	 3.4625403793e+00
 1.2815525590e+00	 1.9495416466e-01	 3.4265024061e+00
 1.2793098816e+00	 2.0916575848e-01	 3.3898454435e+00
 1.2427581707e+00	 2.0318959396e-01	 3.3250537846e+00
 1.2404178375e+00	 2.1701951652e-01	 3.2934134462e+00
 1.2379145205e+00	 2.3087122369e-01	 3.2568928557e+00
 1.2352470183e+00	 2.4474208003e-01	 3.2159935166e+00
 1.2324141807e+00	 2.5862940528e-01	 3.1714250407e+00
 1.2294149104e+00	 2.7253047552e-01	 3.1241028220e+00
 1.2500685129e+00	 2.0438482686e-01	 3.3409737660e+00
 1.2477144130e+00	 2.1829610191e-01	 3.3080219896e+00
 1.2451963706e+00	 2.3222928971e-01	 3.2703106174e+00
 1.2425131773e+00	 2.4618173932e-01	 3.2281408639e+00
 1.2396636759e+00	 2.6015075472e-01	 3.1820406760e+00
 1.2366467628e+00	 2.7413359596e-01	 3.1327652208e+00
 1.2573788551e+00	 2.0558005977e-01	 3.3550302209e+00
 1.2550109885e+00	 2.1957268730e-01	 3.3206780368e+00
 1.2524782208e+00	 2.3358735574e-01	 3.2817051984e+00
 1.2497793362e+00	 2.4762139861e-01	 3.2382481027e+00
 1.2469131710e+00	 2.6167210416e-01	 3.1906891981e+00
 1.2438786152e+00	 2.7573671641e-01	 3.1396603251e+00
 1.2646891973e+00	 2.0677529267e-01	 3.3676072896e+00
 1.2623075640e+00	 2.2084927269e-01	 3.3318134824e+00
 1.2597600709e+00	 2.3494542176e-01	 3.2915440482e+00
 1.2570454951e+00	 2.4906105791e-01	 3.2468046457e+00
 1.2541626662e+00	 2.6319345361e-01	 3.1978670325e+00
 1.2511104677e+00	 2.7733983685e-01	 3.1452753051e+00
 1.2719995395e+00	 2.0797052558e-01	 3.3790862298e+00
 1.2696041395e+00	 2.2212585808e-01	 3.3418564592e+00
 1.2670419210e+00	 2.3630348778e-01	 3.3002900628e+00
 1.2643116541e+00	 2.5050071720e-01	 3.2542946548e+00
 1.2614121614e+00	 2.6471480305e-01	 3.2040647590e+00
 1.2583423201e+00	 2.7894295729e-01	 3.1500910003e+00
 1.2793098816e+00	 2.0916575848e-01	 3.3898454435e+00
 1.2769007150e+00	 2.2340244347e-01	 3.3512313629e+00
 1.2743237711e+00	 2.3766155380e-01	 3.3084015986e+00
 1.2715778130e+00	 2.5194037650e-01	 3.2611970349e+00
 1.2686616566e+00	 2.6623615249e-01	 3.2097670754e+00
 1.2655741725e+00	 2.8054607774e-01	 3.1545818434e+00
 1.2294149104e+00	 2.7253047552e-01	 3.1241028220e+00
 1.2262481651e+00	 2.8644252426e-01	 3.0746659605e+00
 1.2229129586e+00	 3.0036274369e-01	 3.0247531105e+00
 1.2194083628e+00	 3.1428828598e-01	 2.9770432251e+00
 1.2157335093e+00	 3.2821626458e-01	 2.9343379367e+00
 1.2118875907e+00	 3.4214375571e-01	 2.8995161954e+00
 1.2366467628e+00	 2.7413359596e-01	 3.1327652208e+00
 1.2334613896e+00	 2.8812748028e-01	 3.0807845992e+00
 1.2301065642e+00	 3.0212958336e-01	 3.0279523884e+00
 1.2265813532e+00	 3.1613704060e-01	 2.9773961539e+00
 1.2228848829e+00	 3.3014694849e-01	 2.9323868135e+00
 1.2190163412e+00	 3.4415636603e-01	 2.8962933262e+00
 1.2438786152e+00	 2.7573671641e-01	 3.1396603251e+00
 1.2406746141e+00	 2.8981243631e-01	 3.0854096371e+00
 1.2373001698e+00	 3.0389642303e-01	 3.0298835958e+00
 1.2337543436e+00	 3.1798579522e-01	 2.9765940850e+00
 1.2300362565e+00	 3.3207763240e-01	 2.9292197070e+00
 1.2261450918e+00	 3.4616897636e-01	 2.8915607660e+00
 1.2511104677e+00	 2.7733983685e-01	 3.1452753051e+00
 1.2478878386e+00	 2.9149739233e-01	 3.0890177773e+00
 1.2444937755e+00	 3.0566326270e-01	 3.0310281469e+00
 1.2409273339e+00	 3.1983454985e-01	 2.9751390684e+00
 1.2371876301e+00	 3.3400831631e-01	 2.9253760173e+00
 1.2332738423e+00	 3.4818158669e-01	 2.8859128146e+00
 1.2583423201e+00	 2.7894295729e-01	 3.1500910003e+00
 1.2551010631e+00	 2.9318234836e-01	 3.0920786516e+00
 1.2516873811e+00	 3.0743010237e-01	 3.0318589946e+00
 1.2481003243e+00	 3.2168330447e-01	 2.9735226197e+00
 1.2443390037e+00	 3.3593900022e-01	 2.9213818225e+00
 1.2404025928e+00	 3.5019419702e-01	 2.8799269169e+00
 1.2655741725e+00	 2.8054607774e-01	 3.1545818434e+00
 1.2623142876e+00	 2.9486730438e-01	 3.0950547051e+00
 1.2588809868e+00	 3.0919694204e-01	 3.0328404853e+00
 1.2552733147e+00	 3.2353205909e-01	 2.9722255564e+00
 1.2514903772e+00	 3.3786968412e-01	 2.9177497078e+00
 1.2475313434e+00	 3.5220680734e-01	 2.8741634988e+00
 1.2118875907e+00	 3.4214375571e-01	 2.8995161954e+00
 1.2078698622e+00	 3.5606779979e-01	 2.8504894513e+00
 1.2036796432e+00	 3.6998540304e-01	 2.7712914745e+00
 1.1993163189e+00	 3.8389353908e-01	 2.6856611838e+00
 1.1947793410e+00	 3.9778915058e-01	 2.6135669342e+00
 1.1900682300e+00	 4.1166915106e-01	 2.5589671247e+00
 1.2190163412e+00	 3.4415636603e-01	 2.8962933262e+00
 1.2149749790e+00	 3.5816231626e-01	 2.8461578041e+00
 1.2107601117e+00	 3.7216178777e-01	 2.7650896301e+00
 1.2063711207e+00	 3.8615173637e-01	 2.6800643499e+00
 1.2018074548e+00	 4.0012908676e-01	 2.6064656689e+00
 1.1970686314e+00	 4.1409073430e-01	 2.5482311438e+00
 1.2261450918e+00	 3.4616897636e-01	 2.8915607660e+00
 1.2220800959e+00	 3.6025683273e-01	 2.8398733800e+00
 1.2178405802e+00	 3.7433817249e-01	 2.7571981000e+00
 1.2134259226e+00	 3.8840993365e-01	 2.6724188040e+00
 1.2088355686e+00	 4.0246902294e-01	 2.5973311205e+00
 1.2040690327e+00	 4.1651231754e-01	 2.5360390565e+00
 1.2332738423e+00	 3.4818158669e-01	 2.8859128146e+00
 1.2291852127e+00	 3.6235134920e-01	 2.8322656259e+00
 1.2249210487e+00	 3.7651455722e-01	 2.7481740350e+00
 1.2204807245e+00	 3.9066813094e-01	 2.6631706257e+00
 1.2158636823e+00	 4.0480895912e-01	 2.5864478089e+00
 1.2110694341e+00	 4.1893390078e-01	 2.5224498317e+00
 1.2404025928e+00	 3.5019419702e-01	 2.8799269169e+00
 1.2362903295e+00	 3.6444586567e-01	 2.8239437059e+00
 1.2320015172e+00	 3.7869094194e-01	 2.7385390389e+00
 1.2275355264e+00	 3.9292632823e-01	 2.6527420210e+00
 1.2228917961e+00	 4.0714889530e-01	 2.5740789368e+00
 1.2180698354e+00	 4.2135548402e-01	 2.5075051870e+00
 1.2475313434e+00	 3.5220680734e-01	 2.8741634988e+00
 1.2433954464e+00	 3.6654038214e-01	 2.8154963316e+00
 1.2390819857e+00	 3.8086732666e-01	 2.7287902621e+00
 1.2345903282e+00	 3.9518452552e-01	 2.6415318514e+00
 1.2299199099e+00	 4.0948883148e-01	 2.5604668710e+00
 1.2250702368e+00	 4.2377706726e-01	 2.4912299817e+00
 1.1900682300e+00	 4.1166915106e-01	 2.5589671247e+00
 1.1851825758e+00	 4.2553042666e-01	 2.5100977344e+00
 1.1801220392e+00	 4.3936983802e-01	 2.4533718002e+00
 1.1748863531e+00	 4.5318422220e-01	 2.3897521357e+00
 1.1694753236e+00	 4.6697039465e-01	 2.3200230613e+00
 1.1638888310e+00	 4.8072515125e-01	 2.2447602305e+00
 1.1970686314e+00	 4.1409073430e-01	 2.5482311438e+00
 1.1921542380e+00	 4.2803354682e-01	 2.4942452616e+00
 1.1870639336e+00	 4.4195436648e-01	 2.4320255957e+00
 1.1817974493e+00	 4.5585001175e-01	 2.3632097117e+00
 1.1763545902e+00	 4.6971727933e-01	 2.2892419832e+00
 1.1707352359e+00	 4.8355294625e-01	 2.2113408522e+00
 1.2040690327e+00	 4.1651231754e-01	 2.5360390565e+00
 1.1991259002e+00	 4.3053666697e-01	 2.4780447942e+00
 1.1940058279e+00	 4.4453889494e-01	 2.4115987258e+00
 1.1887085455e+00	 4.5851580129e-01	 2.3386801065e+00
 1.1832338568e+00	 4.7246416400e-01	 2.2610671546e+00
 1.1775816408e+00	 4.8638074126e-01	 2.1803025741e+00
 1.2110694341e+00	 4.1893390078e-01	 2.5224498317e+00
 1.2060975624e+00	 4.3303978713e-01	 2.4613468384e+00
 1.2009477223e+00	 4.4712342340e-01	 2.3918375879e+00
 1.1956196417e+00	 4.6118159083e-01	 2.3159162581e+00
 1.1901131234e+00	 4.7521104867e-01	 2.2353749132e+00
 1.1844280457e+00	 4.8920853627e-01	 2.1517681106e+00
 1.2180698354e+00	 4.2135548402e-01	 2.5075051870e+00
 1.2130692247e+00	 4.3554290729e-01	 2.4439883629e+00
 1.2078896166e+00	 4.4970795186e-01	 2.3724764004e+00
 1.2025307379e+00	 4.6384738037e-01	 2.2946577853e+00
 1.1969923901e+00	 4.7795793335e-01	 2.2120244974e+00
 1.1912744506e+00	 4.9203633127e-01	 2.1258365156e+00
 1.2250702368e+00	 4.2377706726e-01	 2.4912299817e+00
 1.2200408869e+00	 4.3804602744e-01	 2.4257931159e+00
 1.2148315110e+00	 4.5229248032e-01	 2.3532375138e+00
 1.2094418341e+00	 4.6651316992e-01	 2.2746313660e+00
 1.2038716567e+00	 4.8070481802e-01	 2.1908585689e+00
 1.1981208555e+00	 4.9486412628e-01	 2.1025839316e+00
 1.1638888310e+00	 4.8072515125e-01	 2.2447602305e+00
 1.1581268310e+00	 4.9444527038e-01	 2.1672326745e+00
 1.1521893553e+00	 5.0812751509e-01	 2.0896665076e+00
 1.1460765128e+00	 5.2176863526e-01	 2.0106410332e+00
 1.1397884904e+00	 5.3536536981e-01	 1.9283726419e+00
 1.1333255533e+00	 5.4891444899e-01	 1.8406917052e+00
 1.1707352359e+00	 4.8355294625e-01	 2.2113408522e+00
 1.1649393417e+00	 4.9735377197e-01	 2.1331389840e+00
 1.1589669397e+00	 5.1111650048e-01	 2.0562801392e+00
 1.1528181394e+00	 5.2483786253e-01	 1.9785628379e+00
 1.1464931286e+00	 5.3851457787e-01	 1.8974369841e+00
 1.1399921742e+00	 5.5214335751e-01	 1.8099822325e+00
 1.1775816408e+00	 4.8638074126e-01	 2.1803025741e+00
 1.1717518525e+00	 5.0026227356e-01	 2.1003772436e+00
 1.1657445242e+00	 5.1410548586e-01	 2.0228493967e+00
 1.1595597659e+00	 5.2790708980e-01	 1.9451698641e+00
 1.1531977668e+00	 5.4166378593e-01	 1.8644435879e+00
 1.1466587951e+00	 5.5537226603e-01	 1.7774083687e+00
 1.1844280457e+00	 4.8920853627e-01	 2.1517681106e+00
 1.1785643633e+00	 5.0317077515e-01	 2.0693085707e+00
 1.1725221086e+00	 5.1709447124e-01	 1.9898257375e+00
 1.1663013925e+00	 5.3097631706e-01	 1.9108482549e+00
 1.1599024049e+00	 5.4481299398e-01	 1.8295501454e+00
 1.1533254160e+00	 5.5860117456e-01	 1.7427288522e+00
 1.1912744506e+00	 4.9203633127e-01	 2.1258365156e+00
 1.1853768741e+00	 5.0607927674e-01	 2.0402640895e+00
 1.1792996931e+00	 5.2008345663e-01	 1.9576277416e+00
 1.1730430190e+00	 5.3404554433e-01	 1.8759520130e+00
 1.1666070431e+00	 5.4796220204e-01	 1.7928867352e+00
 1.1599920369e+00	 5.6183008308e-01	 1.7056832910e+00
 1.1981208555e+00	 4.9486412628e-01	 2.1025839316e+00
 1.1921893848e+00	 5.0898777833e-01	 2.0135459026e+00
 1.1860772775e+00	 5.2307244201e-01	 1.9266422079e+00
 1.1797846456e+00	 5.3711477159e-01	 1.8408041201e+00
 1.1733116813e+00	 5.5111141010e-01	 1.7545568572e+00
 1.1666586578e+00	 5.6505899160e-01	 1.6659930024e+00
 1.1333255533e+00	 5.4891444899e-01	 1.8406917052e+00
 1.1266880461e+00	 5.6241259667e-01	 1.7534174626e+00
 1.1198763931e+00	 5.7585653271e-01	 1.6757643632e+00
 1.1128910989e+00	 5.8924297531e-01	 1.6098532876e+00
 1.1057327489e+00	 6.0256864342e-01	 1.5461089906e+00
 1.0984020092e+00	 6.1583025918e-01	 1.4582355645e+00
 1.1399921742e+00	 5.5214335751e-01	 1.8099822325e+00
 1.1333156228e+00	 5.6572090606e-01	 1.7200974944e+00
 1.1264639013e+00	 5.7924392408e-01	 1.6352326766e+00
 1.1194375172e+00	 5.9270911046e-01	 1.5570238313e+00
 1.1122370592e+00	 6.0611316485e-01	 1.4864429408e+00
 1.1048631975e+00	 6.1945279012e-01	 1.4093523844e+00
 1.1466587951e+00	 5.5537226603e-01	 1.7774083687e+00
 1.1399431995e+00	 5.6902921545e-01	 1.6864170890e+00
 1.1330514095e+00	 5.8263131545e-01	 1.5971421546e+00
 1.1259839354e+00	 5.9617524561e-01	 1.5105542369e+00
 1.1187413695e+00	 6.0965768628e-01	 1.4269893934e+00
 1.1113243858e+00	 6.2307532106e-01	 1.3461227919e+00
 1.1533254160e+00	 5.5860117456e-01	 1.7427288522e+00
 1.1465707763e+00	 5.7233752485e-01	 1.6516664173e+00
 1.1396389177e+00	 5.8601870682e-01	 1.5603526209e+00
 1.1325303536e+00	 5.9964138076e-01	 1.4689153249e+00
 1.1252456798e+00	 6.1320220772e-01	 1.3768797219e+00
 1.1177855741e+00	 6.2669785199e-01	 1.2831442097e+00
 1.1599920369e+00	 5.6183008308e-01	 1.7056832910e+00
 1.1531983530e+00	 5.7564583424e-01	 1.6151266357e+00
 1.1462264259e+00	 5.8940609819e-01	 1.5237241512e+00
 1.1390767718e+00	 6.0310751591e-01	 1.4305865076e+00
 1.1317499901e+00	 6.1674672915e-01	 1.3342560997e+00
 1.1242467624e+00	 6.3032038293e-01	 1.2326855202e+00
 1.1666586578e+00	 5.6505899160e-01	 1.6659930024e+00
 1.1598259298e+00	 5.7895414363e-01	 1.5760704852e+00
 1.1528139340e+00	 5.9279348955e-01	 1.4861174557e+00
 1.1456231901e+00	 6.0657365105e-01	 1.3940559819e+00
 1.1382543003e+00	 6.2029125058e-01	 1.2972766608e+00
 1.1307079507e+00	 6.3394291387e-01	 1.1926201368e+00
 1.0984020092e+00	 6.1583025918e-01	 1.4582355645e+00
 1.0908996274e+00	 6.2902455038e-01	 1.3634258625e+00
 1.0832264322e+00	 6.4214825290e-01	 1.2762345053e+00
 1.0753833337e+00	 6.5519811324e-01	 1.1912505958e+00
 1.0673713236e+00	 6.6817089101e-01	 1.1031083565e+00
 1.0591914745e+00	 6.8106336143e-01	 1.0064960127e+00
 1.1048631975e+00	 6.1945279012e-01	 1.4093523844e+00
 1.0973166840e+00	 6.3272469479e-01	 1.3191014882e+00
 1.0895983523e+00	 6.4592559556e-01	 1.2313868089e+00
 1.0817091180e+00	 6.5905221979e-01	 1.1421295924e+00
 1.0736499784e+00	 6.7210130802e-01	 1.0472174604e+00
 1.0654220126e+00	 6.8506961650e-01	 9.4250893501e-01
 1.1113243858e+00	 6.2307532106e-01	 1.3461227919e+00
 1.1037337407e+00	 6.3642483921e-01	 1.2667212020e+00
 1.0959702725e+00	 6.4970293823e-01	 1.1838242018e+00
 1.0880349023e+00	 6.6290632634e-01	 1.0943689119e+00
 1.0799286333e+00	 6.7603172502e-01	 9.9521521626e-01
 1.0716525507e+00	 6.8907587157e-01	 8.8313002030e-01
 1.1177855741e+00	 6.2669785199e-01	 1.2831442097e+00
 1.1101507973e+00	 6.4012498362e-01	 1.2045354960e+00
 1.1023421927e+00	 6.5348028089e-01	 1.1318498920e+00
 1.0943606867e+00	 6.6676043289e-01	 1.0465276066e+00
 1.0862072881e+00	 6.7996214203e-01	 9.4612510766e-01
 1.0778830888e+00	 6.9308212663e-01	 8.2806101171e-01
 1.1242467624e+00	 6.3032038293e-01	 1.2326855202e+00
 1.1165678539e+00	 6.4382512803e-01	 1.1413114181e+00
 1.1087141129e+00	 6.5725762355e-01	 1.0737864218e+00
 1.1006864710e+00	 6.7061453943e-01	 9.9717691018e-01
 1.0924859430e+00	 6.8389255903e-01	 8.9897089316e-01
 1.0841136269e+00	 6.9708838170e-01	 7.7698715399e-01
 1.1307079507e+00	 6.3394291387e-01	 1.1926201368e+00
 1.1229849106e+00	 6.4752527245e-01	 1.0932146903e+00
 1.1150860331e+00	 6.6103496622e-01	 1.0133333432e+00
 1.1070122553e+00	 6.7446864598e-01	 9.4489861385e-01
 1.0987645978e+00	 6.8782297604e-01	 8.5277527320e-01
 1.0903441650e+00	 7.0109463677e-01	 7.2957629258e-01
 1.0591914745e+00	 6.8106336143e-01	 1.0064960127e+00
 1.0508449403e+00	 6.9387231785e-01	 9.1197270366e-01
 1.0423329553e+00	 7.0659457427e-01	 8.2931408175e-01
 1.0336568341e+00	 7.1922696785e-01	 7.5248732725e-01
 1.0248179713e+00	 7.3176636140e-01	 6.7601599079e-01
 1.0158178404e+00	 7.4420964591e-01	 5.9344817427e-01
 1.0654220126e+00	 6.8506961650e-01	 9.4250893501e-01
 1.0570263811e+00	 6.9795391972e-01	 8.4220768702e-01
 1.0484643256e+00	 7.1075101295e-01	 7.5843856629e-01
 1.0397371684e+00	 7.2345771472e-01	 6.8439003026e-01
 1.0308463123e+00	 7.3607086941e-01	 6.1388680877e-01
 1.0217932395e+00	 7.4858734970e-01	 5.3332176370e-01
 1.0716525507e+00	 6.8907587157e-01	 8.8313002030e-01
 1.0632078219e+00	 7.0203552159e-01	 7.7659625042e-01
 1.0545956959e+00	 7.1490745162e-01	 6.9115313024e-01
 1.0458175028e+00	 7.2768846159e-01	 6.1959223460e-01
 1.0368746533e+00	 7.4037537742e-01	 5.5539807251e-01
 1.0277686386e+00	 7.5296505350e-01	 4.7273563118e-01
 1.0778830888e+00	 6.9308212663e-01	 8.2806101171e-01
 1.0693892628e+00	 7.0611712346e-01	 7.1550928987e-01
 1.0607270662e+00	 7.1906389029e-01	 6.2825794555e-01
 1.0518978371e+00	 7.3191920846e-01	 5.5907702081e-01
 1.0429029943e+00	 7.4467988543e-01	 4.9926739194e-01
 1.0337440376e+00	 7.5734275730e-01	 4.1199343665e-01
 1.0841136269e+00	 6.9708838170e-01	 7.7698715399e-01
 1.0755707036e+00	 7.1019872533e-01	 6.5928469657e-01
 1.0668584366e+00	 7.2322032896e-01	 5.7050925268e-01
 1.0579781714e+00	 7.3614995533e-01	 5.0377834810e-01
 1.0489313354e+00	 7.4898439344e-01	 4.4317301807e-01
 1.0397194367e+00	 7.6172046110e-01	 3.5138806645e-01
 1.0903441650e+00	 7.0109463677e-01	 7.2957629258e-01
 1.0817521444e+00	 7.1428032720e-01	 6.0822688198e-01
 1.0729898069e+00	 7.2737676764e-01	 5.1861915428e-01
 1.0640585057e+00	 7.4038070220e-01	 4.5458095478e-01
 1.0549596764e+00	 7.5328890145e-01	 3.8767786635e-01
 1.0456948358e+00	 7.6609816490e-01	 2.9120285513e-01
 1.0158178404e+00	 7.4420964591e-01	 5.9344817427e-01
 1.0066579936e+00	 7.5655374296e-01	 4.9651411104e-01
 9.9734006049e-01	 7.6879560728e-01	 3.9883574961e-01
 9.8786574778e-01	 7.8093222907e-01	 3.0347992908e-01
 9.7823683789e-01	 7.9296063649e-01	 2.1439289064e-01
 9.6845518807e-01	 8.0487789803e-01	 1.3636222526e-01
 1.0217932395e+00	 7.4858734970e-01	 5.3332176370e-01
 1.0125795112e+00	 7.6100405910e-01	 4.3199985075e-01
 1.0032067667e+00	 7.7331793438e-01	 3.3079389122e-01
 9.9367672277e-01	 7.8552594806e-01	 2.3298949539e-01
 9.8399117223e-01	 7.9762511083e-01	 1.4272512712e-01
 9.7415198329e-01	 8.0961247390e-01	 6.4952177468e-02
 1.0277686386e+00	 7.5296505350e-01	 4.7273563118e-01
 1.0185010288e+00	 7.6545437523e-01	 3.6837649536e-01
 1.0090734730e+00	 7.7784026148e-01	 2.6493100237e-01
 9.9948769775e-01	 7.9011966706e-01	 1.6572119120e-01
 9.8974550657e-01	 8.0228958516e-01	 7.4907881421e-02
 9.7984877852e-01	 8.1434704977e-01	-2.5507271926e-03
 1.0337440376e+00	 7.5734275730e-01	 4.1199343665e-01
 1.0244225464e+00	 7.6990469137e-01	 3.0555813022e-01
 1.0149401792e+00	 7.8236258858e-01	 2.0088691219e-01
 1.0052986727e+00	 7.9471338605e-01	 1.0115896246e-01
 9.9549984091e-01	 8.0695405949e-01	 1.0390535185e-02
 9.8554557374e-01	 8.1908162564e-01	-6.6607520509e-02
 1.0397194367e+00	 7.6172046110e-01	 3.5138806645e-01
 1.0303440640e+00	 7.7435500750e-01	 2.4345741298e-01
 1.0208068854e+00	 7.8688491568e-01	 1.3830658650e-01
 1.0111096477e+00	 7.9930710504e-01	 3.8795605343e-02
 1.0012541752e+00	 8.1161853382e-01	-5.1367882517e-02
 9.9124236897e-01	 8.2381620151e-01	-1.2767176770e-01
 1.0456948358e+00	 7.6609816490e-01	 2.9120285513e-01
 1.0362655816e+00	 7.7880532364e-01	 1.8198653015e-01
 1.0266735917e+00	 7.9140724278e-01	 7.6840894453e-02
 1.0169206227e+00	 8.0390082404e-01	-2.1866579437e-02
 1.0070085096e+00	 8.1628300816e-01	-1.1089807370e-01
 9.9693916419e-01	 8.2855077738e-01	-1.8618889744e-01
 9.6845518807e-01	 8.0487789803e-01	 1.3636222526e-01
 9.5852272924e-01	 8.1668112478e-01	 5.7862142064e-02
 9.4844146472e-01	 8.2836747282e-01	-3.1532383292e-02
 9.3821346898e-01	 8.3993414543e-01	-1.2442553466e-01
 9.2784088617e-01	 8.5137839530e-01	-2.1300370727e-01
 9.1732592866e-01	 8.6269752673e-01	-2.8910420337e-01
 9.7415198329e-01	 8.0961247390e-01	 6.4952177468e-02
 9.6416109823e-01	 8.2148513139e-01	-1.2663282692e-02
 9.5402053216e-01	 8.3324022266e-01	-1.0141876635e-01
 9.4373237174e-01	 8.4487493452e-01	-1.9384641198e-01
 9.3329877373e-01	 8.5638650351e-01	-2.8202585565e-01
 9.2272196354e-01	 8.6777221807e-01	-3.5765518808e-01
 9.7984877852e-01	 8.1434704977e-01	-2.5507271926e-03
 9.6979946723e-01	 8.2628913801e-01	-7.9599328233e-02
 9.5959959960e-01	 8.3811297250e-01	-1.6806240215e-01
 9.4925127450e-01	 8.4981572361e-01	-2.6032741768e-01
 9.3875666130e-01	 8.6139461172e-01	-3.4829812861e-01
 9.2811799841e-01	 8.7284690940e-01	-4.2346802339e-01
 9.8554557374e-01	 8.1908162564e-01	-6.6607520509e-02
 9.7543783622e-01	 8.3109314463e-01	-1.4327534629e-01
 9.6517866704e-01	 8.4298572234e-01	-2.3170349075e-01
 9.5477017726e-01	 8.5475651270e-01	-3.2406317868e-01
 9.4421454886e-01	 8.6640271993e-01	-4.1201413781e-01
 9.3351403329e-01	 8.7792160073e-01	-4.8678077222e-01
 9.9124236897e-01	 8.2381620151e-01	-1.2767176770e-01
 9.8107620522e-01	 8.3589715124e-01	-2.0401649002e-01
 9.7075773448e-01	 8.4785847218e-01	-2.9258043791e-01
 9.6028908002e-01	 8.5969730179e-01	-3.8524803731e-01
 9.4967243643e-01	 8.7141082813e-01	-4.7336779537e-01
 9.3891006816e-01	 8.8299629207e-01	-5.4783142907e-01
 9.9693916419e-01	 8.2855077738e-01	-1.8618889744e-01
 9.8671457421e-01	 8.4070115786e-01	-2.6214296813e-01
 9.7633680192e-01	 8.5273122202e-01	-3.5092906138e-01
 9.6580798277e-01	 8.6463809088e-01	-4.4407523880e-01
 9.5513032399e-01	 8.7641893634e-01	-5.3255251216e-01
 9.4430610304e-01	 8.8807098340e-01	-6.0685715944e-01
 9.1732592866e-01	 8.6269752673e-01	-2.8910420337e-01
 9.0667087552e-01	 8.7388889769e-01	-3.6457923150e-01
 8.9587807081e-01	 8.8494992190e-01	-4.5159360172e-01
 8.8494992190e-01	 8.9587807081e-01	-5.4215950491e-01
 8.7388889769e-01	 9.0667087552e-01	-6.2825169833e-01
 8.6269752673e-01	 9.1732592866e-01	-7.0188737904e-01
 9.2272196354e-01	 8.6777221807e-01	-3.5765518808e-01
 9.1200423361e-01	 8.7902942062e-01	-4.3262579840e-01
 9.0114794181e-01	 8.9015550968e-01	-5.1916830702e-01
 8.9015550968e-01	 9.0114794181e-01	-6.0916732361e-01
 8.7902942062e-01	 9.1200423361e-01	-6.9446498192e-01
 8.6777221807e-01	 9.2272196354e-01	-7.6694362858e-01
 9.2811799841e-01	 8.7284690940e-01	-4.2346802339e-01
 9.1733759170e-01	 8.8416994355e-01	-4.9779211233e-01
 9.0641781282e-01	 8.9536109745e-01	-5.8365931961e-01
 8.9536109745e-01	 9.0641781282e-01	-6.7286566453e-01
 8.8416994355e-01	 9.1733759170e-01	-7.5715879898e-01
 8.7284690940e-01	 9.2811799841e-01	-8.2832350908e-01
 9.3351403329e-01	 8.7792160073e-01	-4.8678077222e-01
 9.2267094979e-01	 8.8931046648e-01	-5.6038187077e-01
 9.1168768382e-01	 9.0056668523e-01	-6.4543167421e-01
 9.0056668523e-01	 9.1168768382e-01	-7.3367565744e-01
 8.8931046648e-01	 9.2267094979e-01	-8.1680418294e-01
 8.7792160073e-01	 9.3351403329e-01	-8.8654081629e-01
 9.3891006816e-01	 8.8299629207e-01	-5.4783142907e-01
 9.2800430789e-01	 8.9445098940e-01	-6.2069792898e-01
 9.1695755483e-01	 9.0577227301e-01	-7.0484896037e-01
 9.0577227301e-01	 9.1695755483e-01	-7.9201656585e-01
 8.9445098940e-01	 9.2800430789e-01	-8.7387007248e-01
 8.8299629207e-01	 9.3891006816e-01	-9.4210722559e-01
 9.4430610304e-01	 8.8807098340e-01	-6.0685715944e-01
 9.3333766598e-01	 8.9959151233e-01	-6.7904159476e-01
 9.2222742583e-01	 9.1097786078e-01	-7.6227267025e-01
 9.1097786078e-01	 9.2222742583e-01	-8.4830518508e-01
 8.9959151233e-01	 9.3333766598e-01	-9.2882275654e-01
 8.8807098340e-01	 9.4430610304e-01	-9.9553177995e-01
 8.6269752673e-01	 9.1732592866e-01	-7.0188737904e-01
 8.5137839530e-01	 9.2784088617e-01	-7.7471757290e-01
 8.3993414543e-01	 9.3821346898e-01	-8.5789747724e-01
 8.2836747282e-01	 9.4844146472e-01	-9.4299515070e-01
 8.1668112478e-01	 9.5852272924e-01	-1.0219277776e+00
 8.0487789803e-01	 9.6845518807e-01	-1.0870383723e+00
 8.6777221807e-01	 9.2272196354e-01	-7.6694362858e-01
 8.5638650351e-01	 9.3329877373e-01	-8.3823730661e-01
 8.4487493452e-01	 9.4373237174e-01	-9.1954073634e-01
 8.3324022266e-01	 9.5402053216e-01	-1.0023954360e+00
 8.2148513139e-01	 9.6416109823e-01	-1.0787254519e+00
 8.0961247390e-01	 9.7415198329e-01	-1.1409165369e+00
 8.7284690940e-01	 9.2811799841e-01	-8.2832350908e-01
 8.6139461172e-01	 9.3875666130e-01	-8.9810737315e-01
 8.4981572361e-01	 9.4925127450e-01	-9.7779769353e-01
 8.3811297250e-01	 9.5959959960e-01	-1.0588274920e+00
 8.2628913801e-01	 9.6979946723e-01	-1.1330427172e+00
 8.1434704977e-01	 9.7984877852e-01	-1.1927841775e+00
 8.7792160073e-01	 9.3351403329e-01	-8.8654081629e-01
 8.6640271993e-01	 9.4421454886e-01	-9.5486253632e-01
 8.5475651270e-01	 9.5477017726e-01	-1.0331889643e+00
 8.4298572234e-01	 9.6517866704e-01	-1.1127637472e+00
 8.3109314463e-01	 9.7543783622e-01	-1.1852708935e+00
 8.1908162564e-01	 9.8554557374e-01	-1.2429197428e+00
 8.8299629207e-01	 9.3891006816e-01	-9.4210722559e-01
 8.7141082813e-01	 9.4967243643e-01	-1.0090359417e+00
 8.5969730179e-01	 9.6028908002e-01	-1.0862348700e+00
 8.4785847218e-01	 9.7075773448e-01	-1.1646784443e+00
 8.3589715124e-01	 9.8107620522e-01	-1.2358059706e+00
 8.2381620151e-01	 9.9124236897e-01	-1.2916099152e+00
 8.8807098340e-01	 9.4430610304e-01	-9.9553177995e-01
 8.7641893634e-01	 9.5513032399e-01	-1.0611586342e+00
 8.6463809088e-01	 9.6580798277e-01	-1.1374549626e+00
 8.5273122202e-01	 9.7633680192e-01	-1.2150471519e+00
 8.4070115786e-01	 9.8671457421e-01	-1.2850480851e+00
 8.2855077738e-01	 9.9693916419e-01	-1.3391490330e+00
 8.0487789803e-01	 9.6845518807e-01	-1.0870383723e+00
 7.9296063649e-01	 9.7823683789e-01	-1.1489503424e+00
 7.8093222907e-01	 9.8786574778e-01	-1.2203353403e+00
 7.6879560728e-01	 9.9734006049e-01	-1.2976155619e+00
 7.5655374296e-01	 1.0066579936e+00	-1.3781124836e+00
 7.4420964591e-01	 1.0158178404e+00	-1.4600942018e+00
 8.0961247390e-01	 9.7415198329e-01	-1.1409165369e+00
 7.9762511083e-01	 9.8399117223e-01	-1.2005594295e+00
 7.8552594806e-01	 9.9367672277e-01	-1.2708806908e+00
 7.7331793438e-01	 1.0032067667e+00	-1.3477301881e+00
 7.6100405910e-01	 1.0125795112e+00	-1.4278270099e+00
 7.4858734970e-01	 1.0217932395e+00	-1.5088104239e+00
 8.1434704977e-01	 9.7984877852e-01	-1.1927841775e+00
 8.0228958516e-01	 9.8974550657e-01	-1.2502183258e+00
 7.9011966706e-01	 9.9948769775e-01	-1.3189310772e+00
 7.7784026148e-01	 1.0090734730e+00	-1.3944132790e+00
 7.6545437523e-01	 1.0185010288e+00	-1.4730062722e+00
 7.5296505350e-01	 1.0277686386e+00	-1.5519559950e+00
 8.1908162564e-01	 9.8554557374e-01	-1.2429197428e+00
 8.0695405949e-01	 9.9549984091e-01	-1.2981354861e+00
 7.9471338605e-01	 1.0052986727e+00	-1.3647390703e+00
 7.8236258858e-01	 1.0149401792e+00	-1.4380716217e+00
 7.6990469137e-01	 1.0244225464e+00	-1.5143172547e+00
 7.5734275730e-01	 1.0337440376e+00	-1.5905598523e+00
 8.2381620151e-01	 9.9124236897e-01	-1.2916099152e+00
 8.1161853382e-01	 1.0012541752e+00	-1.3445301425e+00
 7.9930710504e-01	 1.0111096477e+00	-1.4085678918e+00
 7.8688491568e-01	 1.0208068854e+00	-1.4791199399e+00
 7.7435500750e-01	 1.0303440640e+00	-1.5524296582e+00
 7.6172046110e-01	 1.0397194367e+00	-1.6256460121e+00
 8.2855077738e-01	 9.9693916419e-01	-1.3391490330e+00
 8.1628300816e-01	 1.0070085096e+00	-1.3896317014e+00
 8.0390082404e-01	 1.0169206227e+00	-1.4506908637e+00
 7.9140724278e-01	 1.0266735917e+00	-1.5179804679e+00
 7.7880532364e-01	 1.0362655816e+00	-1.5880156708e+00
 7.6609816490e-01	 1.0456948358e+00	-1.6582336044e+00
 7.4420964591e-01	 1.0158178404e+00	-1.4600942018e+00
 7.3176636140e-01	 1.0248179713e+00	-1.5291019236e+00
 7.1922696785e-01	 1.0336568341e+00	-1.5845598585e+00
 7.0659457427e-01	 1.0423329553e+00	-1.6345209718e+00
 6.9387231785e-01	 1.0508449403e+00	-1.6868927009e+00
 6.8106336143e-01	 1.0591914745e+00	-1.7501831277e+00
 7.4858734970e-01	 1.0217932395e+00	-1.5088104239e+00
 7.3607086941e-01	 1.0308463123e+00	-1.5723345597e+00
 7.2345771472e-01	 1.0397371684e+00	-1.6194046840e+00
 7.1075101295e-01	 1.0484643256e+00	-1.6624859445e+00
 6.9795391972e-01	 1.0570263811e+00	-1.7107169441e+00
 6.8506961650e-01	 1.0654220126e+00	-1.7739244785e+00
 7.5296505350e-01	 1.0277686386e+00	-1.5519559950e+00
 7.4037537742e-01	 1.0368746533e+00	-1.6123070495e+00
 7.2768846159e-01	 1.0458175028e+00	-1.6517354306e+00
 7.1490745162e-01	 1.0545956959e+00	-1.6892802103e+00
 7.0203552159e-01	 1.0632078219e+00	-1.7348037837e+00
 6.8907587157e-01	 1.0716525507e+00	-1.7989240273e+00
 7.5734275730e-01	 1.0337440376e+00	-1.5905598523e+00
 7.4467988543e-01	 1.0429029943e+00	-1.6493102433e+00
 7.3191920846e-01	 1.0518978371e+00	-1.6829973051e+00
 7.1906389029e-01	 1.0607270662e+00	-1.7161498049e+00
 7.0611712346e-01	 1.0693892628e+00	-1.7599716623e+00
 6.9308212663e-01	 1.0778830888e+00	-1.8253534163e+00
 7.6172046110e-01	 1.0397194367e+00	-1.6256460121e+00
 7.4898439344e-01	 1.0489313354e+00	-1.6831411989e+00
 7.3614995533e-01	 1.0579781714e+00	-1.7146136637e+00
 7.2322032896e-01	 1.0668584366e+00	-1.7443233853e+00
 7.1019872533e-01	 1.0755707036e+00	-1.7870313627e+00
 6.9708838170e-01	 1.0841136269e+00	-1.8533913799e+00
 7.6609816490e-01	 1.0456948358e+00	-1.6582336044e+00
 7.5328890145e-01	 1.0549596764e+00	-1.7150824685e+00
 7.4038070220e-01	 1.0640585057e+00	-1.7479864388e+00
 7.2737676764e-01	 1.0729898069e+00	-1.7750125362e+00
 7.1428032720e-01	 1.0817521444e+00	-1.8167860434e+00
 7.0109463677e-01	 1.0903441650e+00	-1.8832233663e+00
 6.8106336143e-01	 1.0591914745e+00	-1.7501831277e+00
 6.6817089101e-01	 1.0673713236e+00	-1.8190492580e+00
 6.5519811324e-01	 1.0753833337e+00	-1.8834249329e+00
 6.4214825290e-01	 1.0832264322e+00	-1.9453140855e+00
 6.2902455038e-01	 1.0908996274e+00	-2.0069081403e+00
 6.1583025918e-01	 1.0984020092e+00	-2.0705670725e+00
 6.8506961650e-01	 1.0654220126e+00	-1.7739244785e+00
 6.7210130802e-01	 1.0736499784e+00	-1.8453988129e+00
 6.5905221979e-01	 1.0817091180e+00	-1.9117184383e+00
 6.4592559556e-01	 1.0895983523e+00	-1.9732270255e+00
 6.3272469479e-01	 1.0973166840e+00	-2.0303801611e+00
 6.1945279012e-01	 1.1048631975e+00	-2.0837309864e+00
 6.8907587157e-01	 1.0716525507e+00	-1.7989240273e+00
 6.7603172502e-01	 1.0799286333e+00	-1.8723859188e+00
 6.6290632634e-01	 1.0880349023e+00	-1.9378278830e+00
 6.4970293823e-01	 1.0959702725e+00	-1.9942979024e+00
 6.3642483921e-01	 1.1037337407e+00	-2.0409006382e+00
 6.2307532106e-01	 1.1113243858e+00	-2.0768054677e+00
 6.9308212663e-01	 1.0778830888e+00	-1.8253534163e+00
 6.7996214203e-01	 1.0862072881e+00	-1.8995459842e+00
 6.6676043289e-01	 1.0943606867e+00	-1.9608821415e+00
 6.5348028089e-01	 1.1023421927e+00	-2.0074720011e+00
 6.4012498362e-01	 1.1101507973e+00	-2.0374472302e+00
 6.2669785199e-01	 1.1177855741e+00	-2.0673409865e+00
 6.9708838170e-01	 1.0841136269e+00	-1.8533913799e+00
 6.8389255903e-01	 1.0924859430e+00	-1.9264360130e+00
 6.7061453943e-01	 1.1006864710e+00	-1.9800408997e+00
 6.5725762355e-01	 1.1087141129e+00	-2.0117295018e+00
 6.4382512803e-01	 1.1165678539e+00	-2.0309777075e+00
 6.3032038293e-01	 1.1242467624e+00	-2.0703475727e+00
 7.0109463677e-01	 1.0903441650e+00	-1.8832233663e+00
 6.8782297604e-01	 1.0987645978e+00	-1.9526338204e+00
 6.7446864598e-01	 1.1070122553e+00	-1.9944936168e+00
 6.6103496622e-01	 1.1150860331e+00	-2.0122192719e+00
 6.4752527245e-01	 1.1229849106e+00	-2.0409326093e+00
 6.3394291387e-01	 1.1307079507e+00	-2.0845721083e+00
 6.1583025918e-01	 1.0984020092e+00	-2.0705670725e+00
 6.0256864342e-01	 1.1057327489e+00	-2.1235701946e+00
 5.8924297531e-01	 1.1128910989e+00	-2.1520037655e+00
 5.7585653271e-01	 1.1198763931e+00	-2.1841049559e+00
 5.6241259667e-01	 1.1266880461e+00	-2.2291613849e+00
 5.4891444899e-01	 1.1333255533e+00	-2.2835000923e+00
 6.1945279012e-01	 1.1048631975e+00	-2.0837309864e+00
 6.0611316485e-01	 1.1122370592e+00	-2.1191126804e+00
 5.9270911046e-01	 1.1194375172e+00	-2.1493688854e+00
 5.7924392408e-01	 1.1264639013e+00	-2.1890498775e+00
 5.6572090606e-01	 1.1333156228e+00	-2.2358095736e+00
 5.5214335751e-01	 1.1399921742e+00	-2.2867045843e+00
 6.2307532106e-01	 1.1113243858e+00	-2.0768054677e+00
 6.0965768628e-01	 1.1187413695e+00	-2.1109110232e+00
 5.9617524561e-01	 1.1259839354e+00	-2.1498547357e+00
 5.8263131545e-01	 1.1330514095e+00	-2.1928526105e+00
 5.6902921545e-01	 1.1399431995e+00	-2.2385185373e+00
 5.5537226603e-01	 1.1466587951e+00	-2.2848956088e+00
 6.2669785199e-01	 1.1177855741e+00	-2.0673409865e+00
 6.1320220772e-01	 1.1252456798e+00	-2.1104089646e+00
 5.9964138076e-01	 1.1325303536e+00	-2.1529139643e+00
 5.8601870682e-01	 1.1396389177e+00	-2.1952680845e+00
 5.7233752485e-01	 1.1465707763e+00	-2.2373040184e+00
 5.5860117456e-01	 1.1533254160e+00	-2.2783038202e+00
 6.3032038293e-01	 1.1242467624e+00	-2.0703475727e+00
 6.1674672915e-01	 1.1317499901e+00	-2.1167146154e+00
 6.0310751591e-01	 1.1390767718e+00	-2.1579868231e+00
 5.8940609819e-01	 1.1462264259e+00	-2.1960326108e+00
 5.7564583424e-01	 1.1531983530e+00	-2.2321579143e+00
 5.6183008308e-01	 1.1599920369e+00	-2.2671319007e+00
 6.3394291387e-01	 1.1307079507e+00	-2.0845721083e+00
 6.2029125058e-01	 1.1382543003e+00	-2.1289309321e+00
 6.0657365105e-01	 1.1456231901e+00	-2.1645014719e+00
 5.9279348955e-01	 1.1528139340e+00	-2.1948643361e+00
 5.7895414363e-01	 1.1598259298e+00	-2.2230488549e+00
 5.6505899160e-01	 1.1666586578e+00	-2.2515552311e+00
 5.4891444899e-01	 1.1333255533e+00	-2.2835000923e+00
 5.3536536981e-01	 1.1397884904e+00	-2.3380080882e+00
 5.2176863526e-01	 1.1460765128e+00	-2.3874618756e+00
 5.0812751509e-01	 1.1521893553e+00	-2.4332985610e+00
 4.9444527038e-01	 1.1581268310e+00	-2.4766116257e+00
 4.8072515125e-01	 1.1638888310e+00	-2.5181782471e+00
 5.5214335751e-01	 1.1399921742e+00	-2.2867045843e+00
 5.3851457787e-01	 1.1464931286e+00	-2.3344058066e+00
 5.2483786253e-01	 1.1528181394e+00	-2.3756798262e+00
 5.1111650048e-01	 1.1589669397e+00	-2.4130205952e+00
 4.9735377197e-01	 1.1649393417e+00	-2.4485694722e+00
 4.8355294625e-01	 1.1707352359e+00	-2.4841410856e+00
 5.5537226603e-01	 1.1466587951e+00	-2.2848956088e+00
 5.4166378593e-01	 1.1531977668e+00	-2.3263732273e+00
 5.2790708980e-01	 1.1595597659e+00	-2.3611147704e+00
 5.1410548586e-01	 1.1657445242e+00	-2.3921269278e+00
 5.0026227356e-01	 1.1717518525e+00	-2.4220504285e+00
 4.8638074126e-01	 1.1775816408e+00	-2.4531856873e+00
 5.5860117456e-01	 1.1533254160e+00	-2.2783038202e+00
 5.4481299398e-01	 1.1599024049e+00	-2.3142794342e+00
 5.3097631706e-01	 1.1663013925e+00	-2.3441763366e+00
 5.1709447124e-01	 1.1725221086e+00	-2.3709792558e+00
 5.0317077515e-01	 1.1785643633e+00	-2.3972892167e+00
 4.8920853627e-01	 1.1844280457e+00	-2.4253501967e+00
 5.6183008308e-01	 1.1599920369e+00	-2.2671319007e+00
 5.4796220204e-01	 1.1666070431e+00	-2.2984632167e+00
 5.3404554433e-01	 1.1730430190e+00	-2.3252438329e+00
 5.2008345663e-01	 1.1792996931e+00	-2.3499110121e+00
 5.0607927674e-01	 1.1853768741e+00	-2.3744962148e+00
 4.9203633127e-01	 1.1912744506e+00	-2.4006539807e+00
 5.6505899160e-01	 1.1666586578e+00	-2.2515552311e+00
 5.5111141010e-01	 1.1733116813e+00	-2.2792337816e+00
 5.3711477159e-01	 1.1797846456e+00	-2.3046669367e+00
 5.2307244201e-01	 1.1860772775e+00	-2.3292279736e+00
 5.0898777833e-01	 1.1921893848e+00	-2.3538579318e+00
 4.9486412628e-01	 1.1981208555e+00	-2.3790979252e+00
 4.8072515125e-01	 1.1638888310e+00	-2.5181782471e+00
 4.6697039465e-01	 1.1694753236e+00	-2.5562866691e+00
 4.5318422220e-01	 1.1748863531e+00	-2.5897238918e+00
 4.3936983802e-01	 1.1801220392e+00	-2.6195945263e+00
 4.2553042666e-01	 1.1851825758e+00	-2.6467597483e+00
 4.1166915106e-01	 1.1900682300e+00	-2.6718674146e+00
 4.8355294625e-01	 1.1707352359e+00	-2.4841410856e+00
 4.6971727933e-01	 1.1763545902e+00	-2.5185070085e+00
 4.5585001175e-01	 1.1817974493e+00	-2.5498184716e+00
 4.4195436648e-01	 1.1870639336e+00	-2.5785155322e+00
 4.2803354682e-01	 1.1921542380e+00	-2.6047773105e+00
 4.1409073430e-01	 1.1970686314e+00	-2.6285547801e+00
 4.8638074126e-01	 1.1775816408e+00	-2.4531856873e+00
 4.7246416400e-01	 1.1832338568e+00	-2.4842977844e+00
 4.5851580129e-01	 1.1887085455e+00	-2.5130101705e+00
 4.4453889494e-01	 1.1940058279e+00	-2.5394477481e+00
 4.3053666697e-01	 1.1991259002e+00	-2.5634642460e+00
 4.1651231754e-01	 1.2040690327e+00	-2.5846768058e+00
 4.8920853627e-01	 1.1844280457e+00	-2.4253501967e+00
 4.7521104867e-01	 1.1901131234e+00	-2.4535321188e+00
 4.6118159083e-01	 1.1956196417e+00	-2.4791291546e+00
 4.4712342340e-01	 1.2009477223e+00	-2.5022938547e+00
 4.3303978713e-01	 1.2060975624e+00	-2.5229045404e+00
 4.1893390078e-01	 1.2110694341e+00	-2.5406008195e+00
 4.9203633127e-01	 1.1912744506e+00	-2.4006539807e+00
 4.7795793335e-01	 1.1969923901e+00	-2.4260692433e+00
 4.6384738037e-01	 1.2025307379e+00	-2.4479938257e+00
 4.4970795186e-01	 1.2078896166e+00	-2.4669442816e+00
 4.3554290729e-01	 1.2130692247e+00	-2.4831669804e+00
 4.2135548402e-01	 1.2180698354e+00	-2.4966736942e+00
 4.9486412628e-01	 1.1981208555e+00	-2.3790979252e+00
 4.8070481802e-01	 1.2038716567e+00	-2.4017546383e+00
 4.6651316992e-01	 1.2094418341e+00	-2.4194108823e+00
 4.5229248032e-01	 1.2148315110e+00	-2.4332772673e+00
 4.3804602744e-01	 1.2200408869e+00	-2.4443052853e+00
 4.2377706726e-01	 1.2250702368e+00	-2.4532221176e+00
 4.1166915106e-01	 1.1900682300e+00	-2.6718674146e+00
 3.9778915058e-01	 1.1947793410e+00	-2.7019585379e+00
 3.8389353908e-01	 1.1993163189e+00	-2.7397657511e+00
 3.6998540304e-01	 1.2036796432e+00	-2.7792803614e+00
 3.5606779979e-01	 1.2078698622e+00	-2.8157540958e+00
 3.4214375571e-01	 1.2118875907e+00	-2.8407163711e+00
 4.1409073430e-01	 1.1970686314e+00	-2.6285547801e+00
 4.0012908676e-01	 1.2018074548e+00	-2.6562879902e+00
 3.8615173637e-01	 1.2063711207e+00	-2.6905640579e+00
 3.7216178777e-01	 1.2107601117e+00	-2.7253689147e+00
 3.5816231626e-01	 1.2149749790e+00	-2.7563425690e+00
 3.4415636603e-01	 1.2190163412e+00	-2.7770619290e+00
 4.1651231754e-01	 1.2040690327e+00	-2.5846768058e+00
 4.0246902294e-01	 1.2088355686e+00	-2.6093805980e+00
 3.8840993365e-01	 1.2134259226e+00	-2.6401367928e+00
 3.7433817249e-01	 1.2178405802e+00	-2.6707834379e+00
 3.6025683273e-01	 1.2220800959e+00	-2.6968051663e+00
 3.4616897636e-01	 1.2261450918e+00	-2.7139140962e+00
 4.1893390078e-01	 1.2110694341e+00	-2.5406008195e+00
 4.0480895912e-01	 1.2158636823e+00	-2.5618791665e+00
 3.9066813094e-01	 1.2204807245e+00	-2.5892906489e+00
 3.7651455722e-01	 1.2249210487e+00	-2.6163838529e+00
 3.6235134920e-01	 1.2291852127e+00	-2.6380700536e+00
 3.4818158669e-01	 1.2332738423e+00	-2.6520181902e+00
 4.2135548402e-01	 1.2180698354e+00	-2.4966736942e+00
 4.0714889530e-01	 1.2228917961e+00	-2.5144010042e+00
 3.9292632823e-01	 1.2275355264e+00	-2.5388043751e+00
 3.7869094194e-01	 1.2320015172e+00	-2.5630038215e+00
 3.6444586567e-01	 1.2362903295e+00	-2.5810448872e+00
 3.5019419702e-01	 1.2404025928e+00	-2.5921066811e+00
 4.2377706726e-01	 1.2250702368e+00	-2.4532221176e+00
 4.0948883148e-01	 1.2299199099e+00	-2.4675383265e+00
 3.9518452552e-01	 1.2345903282e+00	-2.4894292427e+00
 3.8086732666e-01	 1.2390819857e+00	-2.5114496051e+00
 3.6654038214e-01	 1.2433954464e+00	-2.5266161346e+00
 3.5220680734e-01	 1.2475313434e+00	-2.5348984568e+00
 3.4214375571e-01	 1.2118875907e+00	-2.8407163711e+00
 3.2821626458e-01	 1.2157335093e+00	-2.8562253872e+00
 3.1428828598e-01	 1.2194083628e+00	-2.8726250557e+00
 3.0036274369e-01	 1.2229129586e+00	-2.8907584019e+00
 2.8644252426e-01	 1.2262481651e+00	-2.9112497981e+00
 2.7253047552e-01	 1.2294149104e+00	-2.9345368458e+00
 3.4415636603e-01	 1.2190163412e+00	-2.7770619290e+00
 3.3014694849e-01	 1.2228848829e+00	-2.7894738878e+00
 3.1613704060e-01	 1.2265813532e+00	-2.8034555578e+00
 3.0212958336e-01	 1.2301065642e+00	-2.8194175211e+00
 2.8812748028e-01	 1.2334613896e+00	-2.8375569060e+00
 2.7413359596e-01	 1.2366467628e+00	-2.8578898773e+00
 3.4616897636e-01	 1.2261450918e+00	-2.7139140962e+00
 3.3207763240e-01	 1.2300362565e+00	-2.7238487943e+00
 3.1798579522e-01	 1.2337543436e+00	-2.7358196617e+00
 3.0389642303e-01	 1.2373001698e+00	-2.7498284358e+00
 2.8981243631e-01	 1.2406746141e+00	-2.7656762483e+00
 2.7573671641e-01	 1.2438786152e+00	-2.7829964679e+00
 3.4818158669e-01	 1.2332738423e+00	-2.6520181902e+00
 3.3400831631e-01	 1.2371876301e+00	-2.6598918726e+00
 3.1983454985e-01	 1.2409273339e+00	-2.6701209276e+00
 3.0566326270e-01	 1.2444937755e+00	-2.6823211961e+00
 2.9149739233e-01	 1.2478878386e+00	-2.6959284077e+00
 2.7733983685e-01	 1.2511104677e+00	-2.7102311183e+00
 3.5019419702e-01	 1.2404025928e+00	-2.5921066811e+00
 3.3593900022e-01	 1.2443390037e+00	-2.5981397827e+00
 3.2168330447e-01	 1.2481003243e+00	-2.6067636501e+00
 3.0743010237e-01	 1.2516873811e+00	-2.6172305399e+00
 2.9318234836e-01	 1.2551010631e+00	-2.6286407377e+00
 2.7894295729e-01	 1.2583423201e+00	-2.6399753329e+00
 3.5220680734e-01	 1.2475313434e+00	-2.5348984568e+00
 3.3786968412e-01	 1.2514903772e+00	-2.5391232775e+00
 3.2353205909e-01	 1.2552733147e+00	-2.5461520335e+00
 3.0919694204e-01	 1.2588809868e+00	-2.5548950880e+00
 2.9486730438e-01	 1.2623142876e+00	-2.5641466204e+00
 2.8054607774e-01	 1.2655741725e+00	-2.5726169833e+00
 2.7253047552e-01	 1.2294149104e+00	-2.9345368458e+00
 2.5862940528e-01	 1.2324141807e+00	-2.9579782277e+00
 2.4474208003e-01	 1.2352470183e+00	-2.9787803036e+00
 2.3087122369e-01	 1.2379145205e+00	-2.9969802864e+00
 2.1701951652e-01	 1.2404178375e+00	-3.0125557616e+00
 2.0318959396e-01	 1.2427581707e+00	-3.0254254937e+00
 2.7413359596e-01	 1.2366467628e+00	-2.8578898773e+00
 2.6015075472e-01	 1.2396636759e+00	-2.8778989638e+00
 2.4618173932e-01	 1.2425131773e+00	-2.8953214826e+00
 2.3222928971e-01	 1.2451963706e+00	-2.9104022859e+00
 2.1829610191e-01	 1.2477144130e+00	-2.9233432900e+00
 2.0438482686e-01	 1.2500685129e+00	-2.9343018730e+00
 2.7573671641e-01	 1.2438786152e+00	-2.7829964679e+00
 2.6167210416e-01	 1.2469131710e+00	-2.7995331494e+00
 2.4762139861e-01	 1.2497793362e+00	-2.8136467523e+00
 2.3358735574e-01	 1.2524782208e+00	-2.8257648044e+00
 2.1957268730e-01	 1.2550109885e+00	-2.8362876158e+00
 2.0558005977e-01	 1.2573788551e+00	-2.8455842793e+00
 2.7733983685e-01	 1.2511104677e+00	-2.7102311183e+00
 2.6319345361e-01	 1.2541626662e+00	-2.7233220482e+00
 2.4906105791e-01	 1.2570454951e+00	-2.7342275345e+00
 2.3494542176e-01	 1.2597600709e+00	-2.7435338524e+00
 2.2084927269e-01	 1.2623075640e+00	-2.7518148770e+00
 2.0677529267e-01	 1.2646891973e+00	-2.7596256936e+00
 2.7894295729e-01	 1.2583423201e+00	-2.6399753329e+00
 2.6471480305e-01	 1.2614121614e+00	-2.6497134801e+00
 2.5050071720e-01	 1.2643116541e+00	-2.6575418269e+00
 2.3630348778e-01	 1.2670419210e+00	-2.6641824913e+00
 2.2212585808e-01	 1.2696041395e+00	-2.6703591830e+00
 2.0797052558e-01	 1.2719995395e+00	-2.6767884243e+00
 2.8054607774e-01	 1.2655741725e+00	-2.5726169833e+00
 2.6623615249e-01	 1.2686616566e+00	-2.5791612988e+00
 2.5194037650e-01	 1.2715778130e+00	-2.5840737706e+00
 2.3766155380e-01	 1.2743237711e+00	-2.5881904683e+00
 2.2340244347e-01	 1.2769007150e+00	-2.5923622934e+00
 2.0916575848e-01	 1.2793098816e+00	-2.5974438078e+00
 2.0318959396e-01	 1.2427581707e+00	-3.0254254937e+00
 1.8938404567e-01	 1.2449367716e+00	-3.0370198769e+00
 1.7560541459e-01	 1.2469549392e+00	-3.0486842284e+00
 1.6185619599e-01	 1.2488140189e+00	-3.0600557302e+00
 1.4813883675e-01	 1.2505154006e+00	-3.0706184506e+00
 1.3445573453e-01	 1.2520605167e+00	-3.0796911609e+00
 2.0438482686e-01	 1.2500685129e+00	-2.9343018730e+00
 1.9049806947e-01	 1.2522599291e+00	-2.9445042947e+00
 1.7663838762e-01	 1.2542899683e+00	-2.9548594353e+00
 1.6280829127e-01	 1.2561599837e+00	-2.9649053516e+00
 1.4901024167e-01	 1.2578713735e+00	-2.9740273557e+00
 1.3524665062e-01	 1.2594255786e+00	-2.9814436784e+00
 2.0558005977e-01	 1.2573788551e+00	-2.8455842793e+00
 1.9161209327e-01	 1.2595830866e+00	-2.8546101100e+00
 1.7767136064e-01	 1.2616249973e+00	-2.8637996073e+00
 1.6376038654e-01	 1.2635059486e+00	-2.8726088343e+00
 1.4988164660e-01	 1.2652273465e+00	-2.8803432700e+00
 1.3603756670e-01	 1.2667906404e+00	-2.8861411418e+00
 2.0677529267e-01	 1.2646891973e+00	-2.7596256936e+00
 1.9272611707e-01	 1.2669062440e+00	-2.7676067550e+00
 1.7870433367e-01	 1.2689600264e+00	-2.7757025789e+00
 1.6471248181e-01	 1.2708519134e+00	-2.7833047818e+00
 1.5075305152e-01	 1.2725833194e+00	-2.7896583666e+00
 1.3682848279e-01	 1.2741557023e+00	-2.7938425420e+00
 2.0797052558e-01	 1.2719995395e+00	-2.6767884243e+00
 1.9384014087e-01	 1.2742294015e+00	-2.6837742733e+00
 1.7973730670e-01	 1.2762950554e+00	-2.6907775154e+00
 1.6566457708e-01	 1.2781978782e+00	-2.6971432978e+00
 1.5162445644e-01	 1.2799392924e+00	-2.7020759520e+00
 1.3761939887e-01	 1.2815207642e+00	-2.7046171147e+00
 2.0916575848e-01	 1.2793098816e+00	-2.5974438078e+00
 1.9495416466e-01	 1.2815525590e+00	-2.6034030357e+00
 1.8077027972e-01	 1.2836300845e+00	-2.6092446520e+00
 1.6661667235e-01	 1.2855438430e+00	-2.6142857541e+00
 1.5249586136e-01	 1.2872952653e+00	-2.6177102693e+00
 1.3841031496e-01	 1.2888858260e+00	-2.6185441874e+00
 1.3445573453e-01	 1.2520605167e+00	-3.0796911609e+00
 1.2080923715e-01	 1.2534508408e+00	-3.0883035866e+00
 1.0720164193e-01	 1.2546878855e+00	-3.0973343565e+00
 9.3635195175e-02	 1.2557732010e+00	-3.1056126017e+00
 8.0112091663e-02	 1.2567083730e+00	-3.1117818683e+00
 6.6634474225e-02	 1.2574950214e+00	-3.1142878439e+00
 1.3524665062e-01	 1.2594255786e+00	-2.9814436784e+00
 1.2151987972e-01	 1.2608240810e+00	-2.9883401536e+00
 1.0783223982e-01	 1.2620684025e+00	-2.9958608677e+00
 9.4185990441e-02	 1.2631601021e+00	-3.0028897907e+00
 8.0583339261e-02	 1.2641007752e+00	-3.0081153322e+00
 6.7026441721e-02	 1.2648920509e+00	-3.0100156660e+00
 1.3603756670e-01	 1.2667906404e+00	-2.8861411418e+00
 1.2223052229e-01	 1.2681973213e+00	-2.8913795382e+00
 1.0846283772e-01	 1.2694489194e+00	-2.8974805176e+00
 9.4736785707e-02	 1.2705470033e+00	-2.9033706719e+00
 8.1054586859e-02	 1.2714931774e+00	-2.9077711118e+00
 6.7418409216e-02	 1.2722890805e+00	-2.9091803074e+00
 1.3682848279e-01	 1.2741557023e+00	-2.7938425420e+00
 1.2294116486e-01	 1.2755705615e+00	-2.7974517738e+00
 1.0909343561e-01	 1.2768294364e+00	-2.8021900477e+00
 9.5287580972e-02	 1.2779339045e+00	-2.8070155184e+00
 8.1525834457e-02	 1.2788855796e+00	-2.8106709996e+00
 6.7810376712e-02	 1.2796861100e+00	-2.8116642338e+00
 1.3761939887e-01	 1.2815207642e+00	-2.7046171147e+00
 1.2365180743e-01	 1.2829438017e+00	-2.7065959635e+00
 1.0972403350e-01	 1.2842099534e+00	-2.7099940314e+00
 9.5838376238e-02	 1.2853208057e+00	-2.7137911370e+00
 8.1997082055e-02	 1.2862779818e+00	-2.7167419664e+00
 6.8202344207e-02	 1.2870831396e+00	-2.7173536789e+00
 1.3841031496e-01	 1.2888858260e+00	-2.6185441874e+00
 1.2436245001e-01	 1.2903170420e+00	-2.6188601711e+00
 1.1035463140e-01	 1.2915904704e+00	-2.6209048043e+00
 9.6389171504e-02	 1.2927077069e+00	-2.6236708339e+00
 8.2468329653e-02	 1.2936703840e+00	-2.6259161567e+00
 6.8594311702e-02	 1.2944801691e+00	-2.6261386657e+00
 6.6634474225e-02	 1.2574950214e+00	-3.1142878439e+00
 5.3204433382e-02	 1.2581347981e+00	-3.1162382453e+00
 3.9824007038e-02	 1.2586293857e+00	-3.1204337010e+00
 2.6495180233e-02	 1.2589804953e+00	-3.1245232533e+00
 1.3219884953e-02	 1.2591898652e+00	-3.1259129536e+00
 0.0000000000e+00	 1.2592592593e+00	-3.1217662788e+00
 6.7026441721e-02	 1.2648920509e+00	-3.0100156660e+00
 5.3517400638e-02	 1.2655355911e+00	-3.0115849667e+00
 4.0058265903e-02	 1.2660330879e+00	-3.0154639034e+00
 2.6651034234e-02	 1.2663862629e+00	-3.0192367363e+00
 1.3297648982e-02	 1.2665968644e+00	-3.0202208154e+00
 0.0000000000e+00	 1.2666666667e+00	-3.0154655347e+00
 6.7418409216e-02	 1.2722890805e+00	-2.9091803074e+00
 5.3830367893e-02	 1.2729363840e+00	-2.9104469997e+00
 4.0292524768e-02	 1.2734367902e+00	-2.9140410054e+00
 2.6806888235e-02	 1.2737920305e+00	-2.9175010729e+00
 1.3375413011e-02	 1.2740038636e+00	-2.9180750502e+00
 0.0000000000e+00	 1.2740740741e+00	-2.9127172428e+00
 6.7810376712e-02	 1.2796861100e+00	-2.8116642338e+00
 5.4143335148e-02	 1.2803371769e+00	-2.8126736297e+00
 4.0526783633e-02	 1.2808404925e+00	-2.8159938480e+00
 2.6962742237e-02	 1.2811977981e+00	-2.8191379433e+00
 1.3453177040e-02	 1.2814108628e+00	-2.8193039923e+00
 0.0000000000e+00	 1.2814814815e+00	-2.8133707164e+00
 6.8202344207e-02	 1.2870831396e+00	-2.7173536789e+00
 5.4456302403e-02	 1.2877379699e+00	-2.7181163135e+00
 4.0761042498e-02	 1.2882441948e+00	-2.7211515397e+00
 2.7118596238e-02	 1.2886035657e+00	-2.7239671024e+00
 1.3530941069e-02	 1.2888178620e+00	-2.7237315852e+00
 0.0000000000e+00	 1.2888888889e+00	-2.7172681573e+00
 6.8594311702e-02	 1.2944801691e+00	-2.6261386657e+00
 5.4769269658e-02	 1.2951387628e+00	-2.6266287282e+00
 4.0995301363e-02	 1.2956478970e+00	-2.6293435372e+00
 2.7274450239e-02	 1.2960093334e+00	-2.6318064955e+00
 1.3608705099e-02	 1.2962248613e+00	-2.6311775382e+00
 0.0000000000e+00	 1.2962962963e+00	-2.6242448593e+00
 1.2962962963e+00	 0.0000000000e+00	 3.6913692444e+00
 1.2962248613e+00	 1.3608705099e-02	 3.6897987997e+00
 1.2960093334e+00	 2.7274450239e-02	 3.6857679950e+00
 1.2956478970e+00	 4.0995301363e-02	 3.6792054528e+00
 1.2951387628e+00	 5.4769269658e-02	 3.6699072799e+00
 1.2944801691e+00	 6.8594311702e-02	 3.6575550299e+00
 1.3037037037e+00	 0.0000000000e+00	 3.7096593484e+00
 1.3036318605e+00	 1.3686469128e-02	 3.7080706894e+00
 1.3034151010e+00	 2.7430304241e-02	 3.7039382987e+00
 1.3030515993e+00	 4.1229560228e-02	 3.6972017929e+00
 1.3025395557e+00	 5.5082236914e-02	 3.6876445083e+00
 1.3018771986e+00	 6.8986279198e-02	 3.6749135453e+00
 1.3111111111e+00	 0.0000000000e+00	 3.7264830591e+00
 1.3110388597e+00	 1.3764233157e-02	 3.7249378041e+00
 1.3108208686e+00	 2.7586158242e-02	 3.7207079380e+00
 1.3104553016e+00	 4.1463819093e-02	 3.7137661527e+00
 1.3099403487e+00	 5.5395204169e-02	 3.7039046678e+00
 1.3092742282e+00	 6.9378246693e-02	 3.6907574163e+00
 1.3185185185e+00	 0.0000000000e+00	 3.7417542747e+00
 1.3184458589e+00	 1.3841997186e-02	 3.7403118934e+00
 1.3182266362e+00	 2.7742012244e-02	 3.7359956479e+00
 1.3178590038e+00	 4.1698077958e-02	 3.7288322014e+00
 1.3173411416e+00	 5.5708171424e-02	 3.7186430873e+00
 1.3166712577e+00	 6.9770214189e-02	 3.7050690981e+00
 1.3259259259e+00	 0.0000000000e+00	 3.7553875679e+00
 1.3258528581e+00	 1.3919761215e-02	 3.7541051293e+00
 1.3256324038e+00	 2.7897866245e-02	 3.7497203637e+00
 1.3252627061e+00	 4.1932336822e-02	 3.7423336172e+00
 1.3247419345e+00	 5.6021138679e-02	 3.7318149428e+00
 1.3240682873e+00	 7.0162181684e-02	 3.7178307585e+00
 1.3333333333e+00	 0.0000000000e+00	 3.7672981671e+00
 1.3332598573e+00	 1.3997525244e-02	 3.7662300915e+00
 1.3330381715e+00	 2.8053720246e-02	 3.7618012130e+00
 1.3326664084e+00	 4.2166595687e-02	 3.7542040858e+00
 1.3321427274e+00	 5.6334105934e-02	 3.7433752622e+00
 1.3314653168e+00	 7.0554149180e-02	 3.7290242902e+00
 1.2944801691e+00	 6.8594311702e-02	 3.6575550299e+00
 1.2936703840e+00	 8.2468329653e-02	 3.6429798694e+00
 1.2927077069e+00	 9.6389171504e-02	 3.6267331431e+00
 1.2915904704e+00	 1.1035463140e-01	 3.6079797867e+00
 1.2903170420e+00	 1.2436245001e-01	 3.5858791177e+00
 1.2888858260e+00	 1.3841031496e-01	 3.5596188712e+00
 1.3018771986e+00	 6.8986279198e-02	 3.6749135453e+00
 1.3010627862e+00	 8.2939577251e-02	 3.6598568288e+00
 1.3000946081e+00	 9.6939966770e-02	 3.6430884524e+00
 1.2989709873e+00	 1.1098522929e-01	 3.6237838773e+00
 1.2976902822e+00	 1.2507309258e-01	 3.6011030941e+00
 1.2962508879e+00	 1.3920123105e-01	 3.5742276845e+00
 1.3092742282e+00	 6.9378246693e-02	 3.6907574163e+00
 1.3084551884e+00	 8.3410824849e-02	 3.6752043847e+00
 1.3074815092e+00	 9.7490762035e-02	 3.6579144077e+00
 1.3063515043e+00	 1.1161582719e-01	 3.6380592238e+00
 1.3050635225e+00	 1.2578373515e-01	 3.6147849241e+00
 1.3036159497e+00	 1.3999214713e-01	 3.5872521887e+00
 1.3166712577e+00	 6.9770214189e-02	 3.7050690981e+00
 1.3158475906e+00	 8.3882072447e-02	 3.6890375366e+00
 1.3148684104e+00	 9.8041557301e-02	 3.6712642896e+00
 1.3137320213e+00	 1.1224642508e-01	 3.6509023801e+00
 1.3124367627e+00	 1.2649437772e-01	 3.6270686678e+00
 1.3109810116e+00	 1.4078306322e-01	 3.5988874165e+00
 1.3240682873e+00	 7.0162181684e-02	 3.7178307585e+00
 1.3232399928e+00	 8.4353320045e-02	 3.7013708614e+00
 1.3222553116e+00	 9.8592352567e-02	 3.6831907825e+00
 1.3211125383e+00	 1.1287702297e-01	 3.6624090768e+00
 1.3198100029e+00	 1.2720502029e-01	 3.6380972680e+00
 1.3183460735e+00	 1.4157397930e-01	 3.6093269051e+00
 1.3314653168e+00	 7.0554149180e-02	 3.7290242902e+00
 1.3306323950e+00	 8.4824567643e-02	 3.7122185322e+00
 1.3296422128e+00	 9.9143147833e-02	 3.6937460007e+00
 1.3284930552e+00	 1.1350762087e-01	 3.6726742547e+00
 1.3271832432e+00	 1.2791566286e-01	 3.6480125894e+00
 1.3257111353e+00	 1.4236489539e-01	 3.6187627436e+00
 1.2888858260e+00	 1.3841031496e-01	 3.5596188712e+00
 1.2872952653e+00	 1.5249586136e-01	 3.5296401836e+00
 1.2855438430e+00	 1.6661667235e-01	 3.4971287576e+00
 1.2836300845e+00	 1.8077027972e-01	 3.4625403793e+00
 1.2815525590e+00	 1.9495416466e-01	 3.4265024061e+00
 1.2793098816e+00	 2.0916575848e-01	 3.3898454435e+00
 1.2962508879e+00	 1.3920123105e-01	 3.5742276845e+00
 1.2946512382e+00	 1.5336726628e-01	 3.5435314677e+00
 1.2928898078e+00	 1.6756876762e-01	 3.5101379695e+00
 1.2909651135e+00	 1.8180325275e-01	 3.4745036624e+00
 1.2888757165e+00	 1.9606818846e-01	 3.4372624409e+00
 1.2866202238e+00	 2.1036099139e-01	 3.3992606817e+00
 1.3036159497e+00	 1.3999214713e-01	 3.5872521887e+00
 1.3020072112e+00	 1.5423867121e-01	 3.5557547795e+00
 1.3002357726e+00	 1.6852086289e-01	 3.5213705315e+00
 1.2983001426e+00	 1.8283622578e-01	 3.4845859977e+00
 1.2961988740e+00	 1.9718221226e-01	 3.4460715211e+00
 1.2939305660e+00	 2.1155622430e-01	 3.4067197609e+00
 1.3109810116e+00	 1.4078306322e-01	 3.5988874165e+00
 1.3093631841e+00	 1.5511007613e-01	 3.5665560017e+00
 1.3075817375e+00	 1.6947295816e-01	 3.5311189619e+00
 1.3056351716e+00	 1.8386919880e-01	 3.4931207968e+00
 1.3035220314e+00	 1.9829623606e-01	 3.4532966889e+00
 1.3012409082e+00	 2.1275145720e-01	 3.4126145836e+00
 1.3183460735e+00	 1.4157397930e-01	 3.6093269051e+00
 1.3167191571e+00	 1.5598148105e-01	 3.5761791098e+00
 1.3149277023e+00	 1.7042505343e-01	 3.5396734852e+00
 1.3129702007e+00	 1.8490217183e-01	 3.5004388193e+00
 1.3108451889e+00	 1.9941025986e-01	 3.4593020077e+00
 1.3085512504e+00	 2.1394669011e-01	 3.4173337817e+00
 1.3257111353e+00	 1.4236489539e-01	 3.6187627436e+00
 1.3240751300e+00	 1.5685288597e-01	 3.5848662248e+00
 1.3222736671e+00	 1.7137714870e-01	 3.5473220861e+00
 1.3203052297e+00	 1.8593514486e-01	 3.5068682227e+00
 1.3181683464e+00	 2.0052428365e-01	 3.4644486031e+00
 1.3158615925e+00	 2.1514192301e-01	 3.4212627423e+00
 1.2793098816e+00	 2.0916575848e-01	 3.3898454435e+00
 1.2769007150e+00	 2.2340244347e-01	 3.3512313629e+00
 1.2743237711e+00	 2.3766155380e-01	 3.3084015986e+00
 1.2715778130e+00	 2.5194037650e-01	 3.2611970349e+00
 1.2686616566e+00	 2.6623615249e-01	 3.2097670754e+00
 1.2655741725e+00	 2.8054607774e-01	 3.1545818434e+00
 1.2866202238e+00	 2.1036099139e-01	 3.3992606817e+00
 1.2841972905e+00	 2.2467902886e-01	 3.3593413370e+00
 1.2816056212e+00	 2.3901961982e-01	 3.3153470875e+00
 1.2788439719e+00	 2.5338003579e-01	 3.2670387691e+00
 1.2759111518e+00	 2.6775750194e-01	 3.2145083817e+00
 1.2728060249e+00	 2.8214919818e-01	 3.1581944554e+00
 1.2939305660e+00	 2.1155622430e-01	 3.4067197609e+00
 1.2914938661e+00	 2.2595561425e-01	 3.3655862998e+00
 1.2888874714e+00	 2.4037768584e-01	 3.3205874603e+00
 1.2861101309e+00	 2.5481969509e-01	 3.2713471036e+00
 1.2831606469e+00	 2.6927885138e-01	 3.2178441685e+00
 1.2800378773e+00	 2.8375231863e-01	 3.1604314633e+00
 1.3012409082e+00	 2.1275145720e-01	 3.4126145836e+00
 1.2987904416e+00	 2.2723219965e-01	 3.3703802455e+00
 1.2961693215e+00	 2.4173575187e-01	 3.3245631093e+00
 1.2933762898e+00	 2.5625935438e-01	 3.2745932743e+00
 1.2904101421e+00	 2.7080020082e-01	 3.2202811380e+00
 1.2872697297e+00	 2.8535543907e-01	 3.1618398759e+00
 1.3085512504e+00	 2.1394669011e-01	 3.4173337817e+00
 1.3060870171e+00	 2.2850878504e-01	 3.3741334784e+00
 1.3034511716e+00	 2.4309381789e-01	 3.3277100033e+00
 1.3006424487e+00	 2.5769901367e-01	 3.2772430168e+00
 1.2976596373e+00	 2.7232155026e-01	 3.2223190429e+00
 1.2945015821e+00	 2.8695855951e-01	 3.1629579032e+00
 1.3158615925e+00	 2.1514192301e-01	 3.4212627423e+00
 1.3133835926e+00	 2.2978537043e-01	 3.3772526211e+00
 1.3107330217e+00	 2.4445188391e-01	 3.3304596815e+00
 1.3079086076e+00	 2.5913867297e-01	 3.2797565487e+00
 1.3049091325e+00	 2.7384289971e-01	 3.2244506601e+00
 1.3017334346e+00	 2.8856167996e-01	 3.1643149245e+00
 1.2655741725e+00	 2.8054607774e-01	 3.1545818434e+00
 1.2623142876e+00	 2.9486730438e-01	 3.0950547051e+00
 1.2588809868e+00	 3.0919694204e-01	 3.0328404853e+00
 1.2552733147e+00	 3.2353205909e-01	 2.9722255564e+00
 1.2514903772e+00	 3.3786968412e-01	 2.9177497078e+00
 1.2475313434e+00	 3.5220680734e-01	 2.8741634988e+00
 1.2728060249e+00	 2.8214919818e-01	 3.1581944554e+00
 1.2695275121e+00	 2.9655226041e-01	 3.0971983432e+00
 1.2660745924e+00	 3.1096378170e-01	 3.0330043594e+00
 1.2624463050e+00	 3.2538081372e-01	 2.9701249953e+00
 1.2586417508e+00	 3.3980036803e-01	 2.9133597250e+00
 1.2546600939e+00	 3.5421941767e-01	 2.8677534325e+00
 1.2800378773e+00	 2.8375231863e-01	 3.1604314633e+00
 1.2767407366e+00	 2.9823721643e-01	 3.0978460419e+00
 1.2732681980e+00	 3.1273062137e-01	 3.0314645479e+00
 1.2696192954e+00	 3.2722956834e-01	 2.9661462167e+00
 1.2657931244e+00	 3.4173105194e-01	 2.9070717236e+00
 1.2617888444e+00	 3.5623202800e-01	 2.8597025076e+00
 1.2872697297e+00	 2.8535543907e-01	 3.1618398759e+00
 1.2839539611e+00	 2.9992217246e-01	 3.0975728986e+00
 1.2804618037e+00	 3.1449746104e-01	 3.0287930204e+00
 1.2767922858e+00	 3.2907832296e-01	 2.9608242316e+00
 1.2729444980e+00	 3.4366173585e-01	 2.8993473760e+00
 1.2689175950e+00	 3.5824463833e-01	 2.8503602002e+00
 1.2945015821e+00	 2.8695855951e-01	 3.1629579032e+00
 1.2911671856e+00	 3.0160712848e-01	 3.0969433219e+00
 1.2876554093e+00	 3.1626430071e-01	 3.0255495326e+00
 1.2839652762e+00	 3.3092707759e-01	 2.9546807189e+00
 1.2800958716e+00	 3.4559241976e-01	 2.8906343535e+00
 1.2760463455e+00	 3.6025724865e-01	 2.8400618091e+00
 1.3017334346e+00	 2.8856167996e-01	 3.1643149245e+00
 1.2983804101e+00	 3.0329208451e-01	 3.0965109882e+00
 1.2948490150e+00	 3.1803114038e-01	 3.0222815532e+00
 1.2911382665e+00	 3.3277583221e-01	 2.9482239023e+00
 1.2872472452e+00	 3.4752310367e-01	 2.8813661322e+00
 1.2831750960e+00	 3.6226985898e-01	 2.8291281682e+00
 1.2475313434e+00	 3.5220680734e-01	 2.8741634988e+00
 1.2433954464e+00	 3.6654038214e-01	 2.8154963316e+00
 1.2390819857e+00	 3.8086732666e-01	 2.7287902621e+00
 1.2345903282e+00	 3.9518452552e-01	 2.6415318514e+00
 1.2299199099e+00	 4.0948883148e-01	 2.5604668710e+00
 1.2250702368e+00	 4.2377706726e-01	 2.4912299817e+00
 1.2546600939e+00	 3.5421941767e-01	 2.8677534325e+00
 1.2505005632e+00	 3.6863489861e-01	 2.8065735725e+00
 1.2461624542e+00	 3.8304371139e-01	 2.7191387599e+00
 1.2416451301e+00	 3.9744272281e-01	 2.6302892077e+00
 1.2369480236e+00	 4.1182876766e-01	 2.5466420707e+00
 1.2320706381e+00	 4.2619865051e-01	 2.4745007734e+00
 1.2617888444e+00	 3.5623202800e-01	 2.8597025076e+00
 1.2576056800e+00	 3.7072941508e-01	 2.7966165304e+00
 1.2532429227e+00	 3.8522009611e-01	 2.7095527374e+00
 1.2486999320e+00	 3.9970092010e-01	 2.6195681825e+00
 1.2439761374e+00	 4.1416870384e-01	 2.5335632942e+00
 1.2390710395e+00	 4.2862023375e-01	 2.4583254553e+00
 1.2689175950e+00	 3.5824463833e-01	 2.8503602002e+00
 1.2647107969e+00	 3.7282393155e-01	 2.7862075405e+00
 1.2603233912e+00	 3.8739648083e-01	 2.7001355207e+00
 1.2557547339e+00	 4.0195911739e-01	 2.6094460515e+00
 1.2510042512e+00	 4.1650864001e-01	 2.5213368458e+00
 1.2460714408e+00	 4.3104181699e-01	 2.4428980630e+00
 1.2760463455e+00	 3.6025724865e-01	 2.8400618091e+00
 1.2718159137e+00	 3.7491844801e-01	 2.7757097889e+00
 1.2674038597e+00	 3.8957286556e-01	 2.6909753100e+00
 1.2628095357e+00	 4.0421731467e-01	 2.5999845075e+00
 1.2580323650e+00	 4.1884857619e-01	 2.5100518050e+00
 1.2530718422e+00	 4.3346340023e-01	 2.4283925038e+00
 1.2831750960e+00	 3.6226985898e-01	 2.8291281682e+00
 1.2789210306e+00	 3.7701296448e-01	 2.7652728182e+00
 1.2744843281e+00	 3.9174925028e-01	 2.6821454890e+00
 1.2698643376e+00	 4.0647551196e-01	 2.5912300083e+00
 1.2650604787e+00	 4.2118851237e-01	 2.4997804498e+00
 1.2600722435e+00	 4.3588498347e-01	 2.4149630921e+00
 1.2250702368e+00	 4.2377706726e-01	 2.4912299817e+00
 1.2200408869e+00	 4.3804602744e-01	 2.4257931159e+00
 1.2148315110e+00	 4.5229248032e-01	 2.3532375138e+00
 1.2094418341e+00	 4.6651316992e-01	 2.2746313660e+00
 1.2038716567e+00	 4.8070481802e-01	 2.1908585689e+00
 1.1981208555e+00	 4.9486412628e-01	 2.1025839316e+00
 1.2320706381e+00	 4.2619865051e-01	 2.4745007734e+00
 1.2270125491e+00	 4.4054914760e-01	 2.4070040166e+00
 1.2217734053e+00	 4.5487700878e-01	 2.3335186738e+00
 1.2163529303e+00	 4.6917895946e-01	 2.2544669166e+00
 1.2107509233e+00	 4.8345170270e-01	 2.1700990904e+00
 1.2049672604e+00	 4.9769192129e-01	 2.0804596955e+00
 1.2390710395e+00	 4.2862023375e-01	 2.4583254553e+00
 1.2339842113e+00	 4.4305226776e-01	 2.3881817303e+00
 1.2287152997e+00	 4.5746153724e-01	 2.3131013749e+00
 1.2232640265e+00	 4.7184474900e-01	 2.2331168833e+00
 1.2176301899e+00	 4.8619858737e-01	 2.1480953847e+00
 1.2118136652e+00	 5.0051971630e-01	 2.0577047469e+00
 1.2460714408e+00	 4.3104181699e-01	 2.4428980630e+00
 1.2409558735e+00	 4.4555538791e-01	 2.3695994217e+00
 1.2356571940e+00	 4.6004606570e-01	 2.2922567691e+00
 1.2301751227e+00	 4.7451053854e-01	 2.2107650286e+00
 1.2245094565e+00	 4.8894547205e-01	 2.1248542551e+00
 1.2186600701e+00	 5.0334751130e-01	 2.0340552142e+00
 1.2530718422e+00	 4.3346340023e-01	 2.4283925038e+00
 1.2479275357e+00	 4.4805850807e-01	 2.3515074684e+00
 1.2425990884e+00	 4.6263059416e-01	 2.2712324299e+00
 1.2370862189e+00	 4.7717632809e-01	 2.1875727087e+00
 1.2313887231e+00	 4.9169235672e-01	 2.1003633277e+00
 1.2255064750e+00	 5.0617530631e-01	 2.0092334277e+00
 1.2600722435e+00	 4.3588498347e-01	 2.4149630921e+00
 1.2548991979e+00	 4.5056162823e-01	 2.3341341048e+00
 1.2495409827e+00	 4.6521512261e-01	 2.2502530558e+00
 1.2439973151e+00	 4.7984211763e-01	 2.1636795836e+00
 1.2382679897e+00	 4.9443924140e-01	 2.0745917140e+00
 1.2323528799e+00	 5.0900310132e-01	 1.9829484762e+00
 1.1981208555e+00	 4.9486412628e-01	 2.1025839316e+00
 1.1921893848e+00	 5.0898777833e-01	 2.0135459026e+00
 1.1860772775e+00	 5.2307244201e-01	 1.9266422079e+00
 1.1797846456e+00	 5.3711477159e-01	 1.8408041201e+00
 1.1733116813e+00	 5.5111141010e-01	 1.7545568572e+00
 1.1666586578e+00	 5.6505899160e-01	 1.6659930024e+00
 1.2049672604e+00	 4.9769192129e-01	 2.0804596955e+00
 1.1990018956e+00	 5.1189627992e-01	 1.9885379898e+00
 1.1928548619e+00	 5.2606142739e-01	 1.8975235175e+00
 1.1865262721e+00	 5.4018399886e-01	 1.8072773668e+00
 1.1800163195e+00	 5.5426061816e-01	 1.7172230843e+00
 1.1733252787e+00	 5.6828790013e-01	 1.6263171986e+00
 1.2118136652e+00	 5.0051971630e-01	 2.0577047469e+00
 1.2058144064e+00	 5.1480478151e-01	 1.9640976921e+00
 1.1996324464e+00	 5.2905041278e-01	 1.8702673159e+00
 1.1932678987e+00	 5.4325322613e-01	 1.7766489759e+00
 1.1867209576e+00	 5.5740982621e-01	 1.6832198131e+00
 1.1799918996e+00	 5.7151680865e-01	 1.5894673270e+00
 1.2186600701e+00	 5.0334751130e-01	 2.0340552142e+00
 1.2126269171e+00	 5.1771328310e-01	 1.9397091027e+00
 1.2064100308e+00	 5.3203939816e-01	 1.8442437461e+00
 1.2000095252e+00	 5.4632245339e-01	 1.7483196579e+00
 1.1934255958e+00	 5.6055903427e-01	 1.6521291445e+00
 1.1866585205e+00	 5.7474571717e-01	 1.5553638646e+00
 1.2255064750e+00	 5.0617530631e-01	 2.0092334277e+00
 1.2194394279e+00	 5.2062178469e-01	 1.9148475335e+00
 1.2131876153e+00	 5.3502838354e-01	 1.8188161513e+00
 1.2067511518e+00	 5.4939168066e-01	 1.7216821264e+00
 1.2001302340e+00	 5.6370824233e-01	 1.6235206596e+00
 1.1933251414e+00	 5.7797462570e-01	 1.5239067797e+00
 1.2323528799e+00	 5.0900310132e-01	 1.9829484762e+00
 1.2262519387e+00	 5.2353028628e-01	 1.8889799771e+00
 1.2199651997e+00	 5.3801736892e-01	 1.7933415308e+00
 1.2134927783e+00	 5.5246090793e-01	 1.6961216352e+00
 1.2068348722e+00	 5.6685745039e-01	 1.5969521335e+00
 1.1999917623e+00	 5.8120353422e-01	 1.4949765189e+00
 1.1666586578e+00	 5.6505899160e-01	 1.6659930024e+00
 1.1598259298e+00	 5.7895414363e-01	 1.5760704852e+00
 1.1528139340e+00	 5.9279348955e-01	 1.4861174557e+00
 1.1456231901e+00	 6.0657365105e-01	 1.3940559819e+00
 1.1382543003e+00	 6.2029125058e-01	 1.2972766608e+00
 1.1307079507e+00	 6.3394291387e-01	 1.1926201368e+00
 1.1733252787e+00	 5.6828790013e-01	 1.6263171986e+00
 1.1664535065e+00	 5.8226245302e-01	 1.5361761975e+00
 1.1594014422e+00	 5.9618088092e-01	 1.4475400107e+00
 1.1521696083e+00	 6.1003978620e-01	 1.3573161837e+00
 1.1447586106e+00	 6.2383577201e-01	 1.2619083853e+00
 1.1371691390e+00	 6.3756544480e-01	 1.1572005204e+00
 1.1799918996e+00	 5.7151680865e-01	 1.5894673270e+00
 1.1730810833e+00	 5.8557076241e-01	 1.4977774765e+00
 1.1659889504e+00	 5.9956827229e-01	 1.4089794558e+00
 1.1587160265e+00	 6.1350592135e-01	 1.3194778711e+00
 1.1512629209e+00	 6.2738029344e-01	 1.2251803824e+00
 1.1436303273e+00	 6.4118797574e-01	 1.1214830745e+00
 1.1866585205e+00	 5.7474571717e-01	 1.5553638646e+00
 1.1797086600e+00	 5.8887907181e-01	 1.4611027342e+00
 1.1725764586e+00	 6.0295566366e-01	 1.3707441917e+00
 1.1652624448e+00	 6.1697205650e-01	 1.2806925733e+00
 1.1577672312e+00	 6.3092481488e-01	 1.1868417425e+00
 1.1500915156e+00	 6.4481050668e-01	 1.0845603992e+00
 1.1933251414e+00	 5.7797462570e-01	 1.5239067797e+00
 1.1863362367e+00	 5.9218738120e-01	 1.4263526010e+00
 1.1791639668e+00	 6.0634305503e-01	 1.3331126906e+00
 1.1718088630e+00	 6.2043819165e-01	 1.2410850619e+00
 1.1642715415e+00	 6.3446933631e-01	 1.1466234763e+00
 1.1565527038e+00	 6.4843303761e-01	 1.0455213822e+00
 1.1999917623e+00	 5.8120353422e-01	 1.4949765189e+00
 1.1929638135e+00	 5.9549569059e-01	 1.3937011689e+00
 1.1857514750e+00	 6.0973044640e-01	 1.2963348518e+00
 1.1783552812e+00	 6.2390432680e-01	 1.2007546729e+00
 1.1707758518e+00	 6.3801385774e-01	 1.1042396497e+00
 1.1630138921e+00	 6.5205556855e-01	 1.0034519882e+00
 1.1307079507e+00	 6.3394291387e-01	 1.1926201368e+00
 1.1229849106e+00	 6.4752527245e-01	 1.0932146903e+00
 1.1150860331e+00	 6.6103496622e-01	 1.0133333432e+00
 1.1070122553e+00	 6.7446864598e-01	 9.4489861385e-01
 1.0987645978e+00	 6.8782297604e-01	 8.5277527320e-01
 1.0903441650e+00	 7.0109463677e-01	 7.2957629258e-01
 1.1371691390e+00	 6.3756544480e-01	 1.1572005204e+00
 1.1294019672e+00	 6.5122541686e-01	 1.0537633061e+00
 1.1214579533e+00	 6.6481230888e-01	 9.6392789261e-01
 1.1133380396e+00	 6.7832275253e-01	 8.8511315940e-01
 1.1050432527e+00	 6.9175339305e-01	 8.0225560676e-01
 1.0965747031e+00	 7.0510089183e-01	 6.8194573864e-01
 1.1436303273e+00	 6.4118797574e-01	 1.1214830745e+00
 1.1358190238e+00	 6.5492556128e-01	 1.0166106462e+00
 1.1278298735e+00	 6.6858965155e-01	 9.2055592162e-01
 1.1196638239e+00	 6.8217685908e-01	 8.3028434260e-01
 1.1113219075e+00	 6.9568381005e-01	 7.4182684484e-01
 1.1028052411e+00	 7.0910714690e-01	 6.2973201490e-01
 1.1500915156e+00	 6.4481050668e-01	 1.0845603992e+00
 1.1422360804e+00	 6.5862570569e-01	 9.8018246015e-01
 1.1342017937e+00	 6.7236699421e-01	 8.8122043351e-01
 1.1259896082e+00	 6.8603096563e-01	 7.8375036710e-01
 1.1176005624e+00	 6.9961422706e-01	 6.8295933445e-01
 1.1090357792e+00	 7.1311340197e-01	 5.7186468816e-01
 1.1565527038e+00	 6.4843303761e-01	 1.0455213822e+00
 1.1486531371e+00	 6.6232585010e-01	 9.4291538849e-01
 1.1405737139e+00	 6.7614433687e-01	 8.4394446881e-01
 1.1323153926e+00	 6.8988507218e-01	 7.4336680287e-01
 1.1238792172e+00	 7.0354464406e-01	 6.3511995878e-01
 1.1152663173e+00	 7.1711965704e-01	 5.1231455838e-01
 1.1630138921e+00	 6.5205556855e-01	 1.0034519882e+00
 1.1550701937e+00	 6.6602599452e-01	 9.0325740037e-01
 1.1469456341e+00	 6.7992167954e-01	 8.0677134183e-01
 1.1386411769e+00	 6.9373917872e-01	 7.0701295840e-01
 1.1301578720e+00	 7.0747506107e-01	 5.9627172770e-01
 1.1214968554e+00	 7.2112591210e-01	 4.6610634680e-01
 1.0903441650e+00	 7.0109463677e-01	 7.2957629258e-01
 1.0817521444e+00	 7.1428032720e-01	 6.0822688198e-01
 1.0729898069e+00	 7.2737676764e-01	 5.1861915428e-01
 1.0640585057e+00	 7.4038070220e-01	 4.5458095478e-01
 1.0549596764e+00	 7.5328890145e-01	 3.8767786635e-01
 1.0456948358e+00	 7.6609816490e-01	 2.9120285513e-01
 1.0965747031e+00	 7.0510089183e-01	 6.8194573864e-01
 1.0879335852e+00	 7.1836192907e-01	 5.6004947783e-01
 1.0791211772e+00	 7.3153320631e-01	 4.7175974356e-01
 1.0701388400e+00	 7.4461144907e-01	 4.0956912895e-01
 1.0609880174e+00	 7.5759340945e-01	 3.3373724414e-01
 1.0516702348e+00	 7.7047586870e-01	 2.3269144703e-01
 1.1028052411e+00	 7.0910714690e-01	 6.2973201490e-01
 1.0941150261e+00	 7.2244353094e-01	 5.1187936582e-01
 1.0852525475e+00	 7.3568964498e-01	 4.2848141220e-01
 1.0762191744e+00	 7.4884219594e-01	 3.6526761102e-01
 1.0670163584e+00	 7.6189791746e-01	 2.8187461896e-01
 1.0576456339e+00	 7.7485357250e-01	 1.7687260134e-01
 1.1090357792e+00	 7.1311340197e-01	 5.7186468816e-01
 1.1002964669e+00	 7.2652513281e-01	 4.6310310539e-01
 1.0913839179e+00	 7.3984608365e-01	 3.8851137669e-01
 1.0822995087e+00	 7.5307294281e-01	 3.2145235574e-01
 1.0730446994e+00	 7.6620242547e-01	 2.3201287192e-01
 1.0636210329e+00	 7.7923127630e-01	 1.2367234673e-01
 1.1152663173e+00	 7.1711965704e-01	 5.1231455838e-01
 1.1064779077e+00	 7.3060673468e-01	 4.1308999626e-01
 1.0975152882e+00	 7.4400252232e-01	 3.4985348229e-01
 1.0883798430e+00	 7.5730368968e-01	 2.7792320120e-01
 1.0790730404e+00	 7.7050693348e-01	 1.8407713016e-01
 1.0695964320e+00	 7.8360898010e-01	 7.3019420758e-02
 1.1214968554e+00	 7.2112591210e-01	 4.6610634680e-01
 1.1126593485e+00	 7.3468833655e-01	 3.6185341048e-01
 1.1036466585e+00	 7.4815896100e-01	 3.0844361972e-01
 1.0944601773e+00	 7.6153443655e-01	 2.3448528922e-01
 1.0851013814e+00	 7.7481144149e-01	 1.3799572447e-01
 1.0755718311e+00	 7.8798668390e-01	 2.4846219871e-02
 1.0456948358e+00	 7.6609816490e-01	 2.9120285513e-01
 1.0362655816e+00	 7.7880532364e-01	 1.8198653015e-01
 1.0266735917e+00	 7.9140724278e-01	 7.6840894453e-02
 1.0169206227e+00	 8.0390082404e-01	-2.1866579437e-02
 1.0070085096e+00	 8.1628300816e-01	-1.1089807370e-01
 9.9693916419e-01	 8.2855077738e-01	-1.8618889744e-01
 1.0516702348e+00	 7.7047586870e-01	 2.3269144703e-01
 1.0421870992e+00	 7.8325563977e-01	 1.2226380416e-01
 1.0325402979e+00	 7.9592956989e-01	 1.7286113688e-02
 1.0227315977e+00	 8.0849454303e-01	-8.0416649383e-02
 1.0127628439e+00	 8.2094748249e-01	-1.6811934514e-01
 1.0026359594e+00	 8.3328535325e-01	-2.4224035175e-01
 1.0576456339e+00	 7.7485357250e-01	 1.7687260134e-01
 1.0481086168e+00	 7.8770595591e-01	 6.5377703611e-02
 1.0384070042e+00	 8.0045189699e-01	-3.9453591757e-02
 1.0285425727e+00	 8.1308826203e-01	-1.3626808685e-01
 1.0185171783e+00	 8.2561195682e-01	-2.2278047400e-01
 1.0083327546e+00	 8.3801992912e-01	-2.9581742427e-01
 1.0636210329e+00	 7.7923127630e-01	 1.2367234673e-01
 1.0540301345e+00	 7.9215627204e-01	 1.1198562195e-02
 1.0442737104e+00	 8.0497422409e-01	-9.3556899182e-02
 1.0343535477e+00	 8.1768198102e-01	-1.8964314571e-01
 1.0242715126e+00	 8.3027643115e-01	-2.7514308719e-01
 1.0140295499e+00	 8.4275450499e-01	-3.4721812327e-01
 1.0695964320e+00	 7.8360898010e-01	 7.3019420758e-02
 1.0599516521e+00	 7.9660658818e-01	-4.0398946451e-02
 1.0501404166e+00	 8.0949655119e-01	-1.4519681110e-01
 1.0401645227e+00	 8.2227570002e-01	-2.4075733720e-01
 1.0300258470e+00	 8.3494090549e-01	-3.2546123821e-01
 1.0197263451e+00	 8.4748908086e-01	-3.9673225905e-01
 1.0755718311e+00	 7.8798668390e-01	 2.4846219871e-02
 1.0658731697e+00	 8.0105690431e-01	-8.9534902905e-02
 1.0560071229e+00	 8.1401887829e-01	-1.9453978942e-01
 1.0459754976e+00	 8.2686941901e-01	-2.8981860083e-01
 1.0357801813e+00	 8.3960537982e-01	-3.7398061214e-01
 1.0254231403e+00	 8.5222365673e-01	-4.4464068107e-01
 9.9693916419e-01	 8.2855077738e-01	-1.8618889744e-01
 9.8671457421e-01	 8.4070115786e-01	-2.6214296813e-01
 9.7633680192e-01	 8.5273122202e-01	-3.5092906138e-01
 9.6580798277e-01	 8.6463809088e-01	-4.4407523880e-01
 9.5513032399e-01	 8.7641893634e-01	-5.3255251216e-01
 9.4430610304e-01	 8.8807098340e-01	-6.0685715944e-01
 1.0026359594e+00	 8.3328535325e-01	-2.4224035175e-01
 9.9235294321e-01	 8.4550516448e-01	-3.1771465440e-01
 9.8191586936e-01	 8.5760397186e-01	-4.0669973460e-01
 9.7132688553e-01	 8.6957887997e-01	-5.0035383109e-01
 9.6058821156e-01	 8.8142704455e-01	-5.8925740518e-01
 9.4970213791e-01	 8.9314567474e-01	-6.6349875132e-01
 1.0083327546e+00	 8.3801992912e-01	-2.9581742427e-01
 9.9799131220e-01	 8.5030917109e-01	-3.7080256721e-01
 9.8749493680e-01	 8.6247672170e-01	-4.5991921041e-01
 9.7684578829e-01	 8.7451966906e-01	-5.5399716839e-01
 9.6604609913e-01	 8.8643515276e-01	-6.4326530982e-01
 9.5509817278e-01	 8.9822036607e-01	-7.1744044654e-01
 1.0140295499e+00	 8.4275450499e-01	-3.4721812327e-01
 1.0036296812e+00	 8.5511317771e-01	-4.2173352668e-01
 9.9307400424e-01	 8.6734947154e-01	-5.1092958069e-01
 9.8236469105e-01	 8.7946045815e-01	-6.0534817676e-01
 9.7150398669e-01	 8.9144326096e-01	-6.9490464604e-01
 9.6049420766e-01	 9.0329505740e-01	-7.6897991386e-01
 1.0197263451e+00	 8.4748908086e-01	-3.9673225905e-01
 1.0092680502e+00	 8.5991718432e-01	-4.7082583393e-01
 9.9865307168e-01	 8.7222222138e-01	-5.6006452815e-01
 9.8788359381e-01	 8.8440124724e-01	-6.5474192660e-01
 9.7696187426e-01	 8.9645136917e-01	-7.4449698743e-01
 9.6589024253e-01	 9.0836974874e-01	-8.1840945175e-01
 1.0254231403e+00	 8.5222365673e-01	-4.4464068107e-01
 1.0149064192e+00	 8.6472119094e-01	-5.1838853576e-01
 1.0042321391e+00	 8.7709497122e-01	-6.0764861019e-01
 9.9340249657e-01	 8.8934203633e-01	-7.0250492696e-01
 9.8241976182e-01	 9.0145947738e-01	-7.9235635648e-01
 9.7128627741e-01	 9.1344444007e-01	-8.6601527475e-01
 9.4430610304e-01	 8.8807098340e-01	-6.0685715944e-01
 9.3333766598e-01	 8.9959151233e-01	-6.7904159476e-01
 9.2222742583e-01	 9.1097786078e-01	-7.6227267025e-01
 9.1097786078e-01	 9.2222742583e-01	-8.4830518508e-01
 8.9959151233e-01	 9.3333766598e-01	-9.2882275654e-01
 8.8807098340e-01	 9.4430610304e-01	-9.9553177995e-01
 9.4970213791e-01	 8.9314567474e-01	-6.6349875132e-01
 9.3867102407e-01	 9.0473203526e-01	-7.3509321311e-01
 9.2749729684e-01	 9.1618344856e-01	-8.1746489732e-01
 9.1618344856e-01	 9.2749729684e-01	-9.0238365459e-01
 9.0473203526e-01	 9.3867102407e-01	-9.8154049997e-01
 8.9314567474e-01	 9.4970213791e-01	-1.0466445025e+00
 9.5509817278e-01	 8.9822036607e-01	-7.1744044654e-01
 9.4400438216e-01	 9.0987255819e-01	-7.8851591716e-01
 9.3276716784e-01	 9.2138903633e-01	-8.7013013269e-01
 9.2138903633e-01	 9.3276716784e-01	-9.5401735150e-01
 9.0987255819e-01	 9.4400438216e-01	-1.0318278051e+00
 8.9822036607e-01	 9.5509817278e-01	-1.0952277160e+00
 9.6049420766e-01	 9.0329505740e-01	-7.6897991386e-01
 9.4933774025e-01	 9.1501308111e-01	-8.3958111902e-01
 9.3803703885e-01	 9.2659462411e-01	-9.2053972487e-01
 9.2659462411e-01	 9.3803703885e-01	-1.0035042536e+00
 9.1501308111e-01	 9.4933774025e-01	-1.0800364281e+00
 9.0329505740e-01	 9.6049420766e-01	-1.1417145189e+00
 9.6589024253e-01	 9.0836974874e-01	-8.1840945175e-01
 9.5467109834e-01	 9.2015360404e-01	-8.8855632990e-01
 9.4330690985e-01	 9.3180021189e-01	-9.6896208855e-01
 9.3180021189e-01	 9.4330690985e-01	-1.0511398470e+00
 9.2015360404e-01	 9.5467109834e-01	-1.1265155286e+00
 9.0836974874e-01	 9.6589024253e-01	-1.1865347384e+00
 9.7128627741e-01	 9.1344444007e-01	-8.6601527475e-01
 9.6000445643e-01	 9.2529412697e-01	-9.3570444075e-01
 9.4857678086e-01	 9.3700579966e-01	-1.0156619961e+00
 9.3700579966e-01	 9.4857678086e-01	-1.0972164454e+00
 9.2529412697e-01	 9.6000445643e-01	-1.1716110339e+00
 9.1344444007e-01	 9.7128627741e-01	-1.2301143594e+00
 8.8807098340e-01	 9.4430610304e-01	-9.9553177995e-01
 8.7641893634e-01	 9.5513032399e-01	-1.0611586342e+00
 8.6463809088e-01	 9.6580798277e-01	-1.1374549626e+00
 8.5273122202e-01	 9.7633680192e-01	-1.2150471519e+00
 8.4070115786e-01	 9.8671457421e-01	-1.2850480851e+00
 8.2855077738e-01	 9.9693916419e-01	-1.3391490330e+00
 8.9314567474e-01	 9.4970213791e-01	-1.0466445025e+00
 8.8142704455e-01	 9.6058821156e-01	-1.1108923629e+00
 8.6957887997e-01	 9.7132688553e-01	-1.1862657796e+00
 8.5760397186e-01	 9.8191586936e-01	-1.2630429916e+00
 8.4550516448e-01	 9.9235294321e-01	-1.3320068777e+00
 8.3328535325e-01	 1.0026359594e+00	-1.3845405625e+00
 8.9822036607e-01	 9.5509817278e-01	-1.0952277160e+00
 8.8643515276e-01	 9.6604609913e-01	-1.1578876393e+00
 8.7451966906e-01	 9.7684578829e-01	-1.2321050506e+00
 8.6247672170e-01	 9.8749493680e-01	-1.3078869065e+00
 8.5030917109e-01	 9.9799131220e-01	-1.3757588785e+00
 8.3801992912e-01	 1.0083327546e+00	-1.4268646201e+00
 9.0329505740e-01	 9.6049420766e-01	-1.1417145189e+00
 8.9144326096e-01	 9.7150398669e-01	-1.2026542345e+00
 8.7946045815e-01	 9.8236469105e-01	-1.2755209345e+00
 8.6734947154e-01	 9.9307400424e-01	-1.3501255012e+00
 8.5511317771e-01	 1.0036296812e+00	-1.4168075898e+00
 8.4275450499e-01	 1.0140295499e+00	-1.4665385045e+00
 9.0836974874e-01	 9.6589024253e-01	-1.1865347384e+00
 8.9645136917e-01	 9.7696187426e-01	-1.2456981134e+00
 8.8440124724e-01	 9.8788359381e-01	-1.3170581250e+00
 8.7222222138e-01	 9.9865307168e-01	-1.3903031569e+00
 8.5991718432e-01	 1.0092680502e+00	-1.4556564542e+00
 8.4748908086e-01	 1.0197263451e+00	-1.5039825631e+00
 9.1344444007e-01	 9.7128627741e-01	-1.2301143594e+00
 9.0145947738e-01	 9.8241976182e-01	-1.2875209237e+00
 8.8934203633e-01	 9.9340249657e-01	-1.3572573775e+00
 8.7709497122e-01	 1.0042321391e+00	-1.4289615715e+00
 8.6472119094e-01	 1.0149064192e+00	-1.4928083846e+00
 8.5222365673e-01	 1.0254231403e+00	-1.5396196859e+00
 8.2855077738e-01	 9.9693916419e-01	-1.3391490330e+00
 8.1628300816e-01	 1.0070085096e+00	-1.3896317014e+00
 8.0390082404e-01	 1.0169206227e+00	-1.4506908637e+00
 7.9140724278e-01	 1.0266735917e+00	-1.5179804679e+00
 7.7880532364e-01	 1.0362655816e+00	-1.5880156708e+00
 7.6609816490e-01	 1.0456948358e+00	-1.6582336044e+00
 8.3328535325e-01	 1.0026359594e+00	-1.3845405625e+00
 8.2094748249e-01	 1.0127628439e+00	-1.4326990791e+00
 8.0849454303e-01	 1.0227315977e+00	-1.4908305227e+00
 7.9592956989e-01	 1.0325402979e+00	-1.5548862497e+00
 7.8325563977e-01	 1.0421870992e+00	-1.6217029733e+00
 7.7047586870e-01	 1.0516702348e+00	-1.6890652150e+00
 8.3801992912e-01	 1.0083327546e+00	-1.4268646201e+00
 8.2561195682e-01	 1.0185171783e+00	-1.4730566624e+00
 8.1308826203e-01	 1.0285425727e+00	-1.5287346864e+00
 8.0045189699e-01	 1.0384070042e+00	-1.5900300295e+00
 7.8770595591e-01	 1.0481086168e+00	-1.6539916162e+00
 7.7485357250e-01	 1.0576456339e+00	-1.7186503797e+00
 8.4275450499e-01	 1.0140295499e+00	-1.4665385045e+00
 8.3027643115e-01	 1.0242715126e+00	-1.5110441065e+00
 8.1768198102e-01	 1.0343535477e+00	-1.5647276943e+00
 8.0497422409e-01	 1.0442737104e+00	-1.6237847586e+00
 7.9215627204e-01	 1.0540301345e+00	-1.6853686221e+00
 7.7923127630e-01	 1.0636210329e+00	-1.7476571144e+00
 8.4748908086e-01	 1.0197263451e+00	-1.5039825631e+00
 8.3494090549e-01	 1.0300258470e+00	-1.5470070003e+00
 8.2227570002e-01	 1.0401645227e+00	-1.5991412669e+00
 8.0949655119e-01	 1.0501404166e+00	-1.6565307309e+00
 7.9660658818e-01	 1.0599516521e+00	-1.7163267849e+00
 7.8360898010e-01	 1.0695964320e+00	-1.7767560597e+00
 8.5222365673e-01	 1.0254231403e+00	-1.5396196859e+00
 8.3960537982e-01	 1.0357801813e+00	-1.5812963303e+00
 8.2686941901e-01	 1.0459754976e+00	-1.6323139798e+00
 8.1401887829e-01	 1.0560071229e+00	-1.6886551080e+00
 8.0105690431e-01	 1.0658731697e+00	-1.7473642892e+00
 7.8798668390e-01	 1.0755718311e+00	-1.8066202364e+00
 7.6609816490e-01	 1.0456948358e+00	-1.6582336044e+00
 7.5328890145e-01	 1.0549596764e+00	-1.7150824685e+00
 7.4038070220e-01	 1.0640585057e+00	-1.7479864388e+00
 7.2737676764e-01	 1.0729898069e+00	-1.7750125362e+00
 7.1428032720e-01	 1.0817521444e+00	-1.8167860434e+00
 7.0109463677e-01	 1.0903441650e+00	-1.8832233663e+00
 7.7047586870e-01	 1.0516702348e+00	-1.6890652150e+00
 7.5759340945e-01	 1.0609880174e+00	-1.7454421797e+00
 7.4461144907e-01	 1.0701388400e+00	-1.7812807314e+00
 7.3153320631e-01	 1.0791211772e+00	-1.8060477699e+00
 7.1836192907e-01	 1.0879335852e+00	-1.8452707457e+00
 7.0510089183e-01	 1.0965747031e+00	-1.9089498157e+00
 7.7485357250e-01	 1.0576456339e+00	-1.7186503797e+00
 7.6189791746e-01	 1.0670163584e+00	-1.7742086202e+00
 7.4884219594e-01	 1.0762191744e+00	-1.8118217977e+00
 7.3568964498e-01	 1.0852525475e+00	-1.8349034968e+00
 7.2244353094e-01	 1.0941150261e+00	-1.8682181878e+00
 7.0910714690e-01	 1.1028052411e+00	-1.9244625930e+00
 7.7923127630e-01	 1.0636210329e+00	-1.7476571144e+00
 7.6620242547e-01	 1.0730446994e+00	-1.8021866129e+00
 7.5307294281e-01	 1.0822995087e+00	-1.8403867454e+00
 7.3984608365e-01	 1.0913839179e+00	-1.8622409430e+00
 7.2652513281e-01	 1.1002964669e+00	-1.8859741137e+00
 7.1311340197e-01	 1.1090357792e+00	-1.9296486707e+00
 7.8360898010e-01	 1.0695964320e+00	-1.7767560597e+00
 7.7050693348e-01	 1.0790730404e+00	-1.8301813549e+00
 7.5730368968e-01	 1.0883798430e+00	-1.8677641535e+00
 7.4400252232e-01	 1.0975152882e+00	-1.8878464117e+00
 7.3060673468e-01	 1.1064779077e+00	-1.8988864093e+00
 7.1711965704e-01	 1.1152663173e+00	-1.9302484828e+00
 7.8798668390e-01	 1.0755718311e+00	-1.8066202364e+00
 7.7481144149e-01	 1.0851013814e+00	-1.8589982828e+00
 7.6153443655e-01	 1.0944601773e+00	-1.8947439579e+00
 7.4815896100e-01	 1.1036466585e+00	-1.9104713429e+00
 7.3468833655e-01	 1.1126593485e+00	-1.9080720829e+00
 7.2112591210e-01	 1.1214968554e+00	-1.9447555296e+00
 7.0109463677e-01	 1.0903441650e+00	-1.8832233663e+00
 6.8782297604e-01	 1.0987645978e+00	-1.9526338204e+00
 6.7446864598e-01	 1.1070122553e+00	-1.9944936168e+00
 6.6103496622e-01	 1.1150860331e+00	-2.0122192719e+00
 6.4752527245e-01	 1.1229849106e+00	-2.0409326093e+00
 6.3394291387e-01	 1.1307079507e+00	-2.0845721083e+00
 7.0510089183e-01	 1.0965747031e+00	-1.9089498157e+00
 6.9175339305e-01	 1.1050432527e+00	-1.9705302109e+00
 6.7832275253e-01	 1.1133380396e+00	-1.9973499513e+00
 6.6481230888e-01	 1.1214579533e+00	-2.0226518523e+00
 6.5122541686e-01	 1.1294019672e+00	-2.0583435540e+00
 6.3756544480e-01	 1.1371691390e+00	-2.1021265924e+00
 7.0910714690e-01	 1.1028052411e+00	-1.9244625930e+00
 6.9568381005e-01	 1.1113219075e+00	-1.9724466891e+00
 6.8217685908e-01	 1.1196638239e+00	-2.0015043054e+00
 6.6858965155e-01	 1.1278298735e+00	-2.0356635303e+00
 6.5492556128e-01	 1.1358190238e+00	-2.0742373058e+00
 6.4118797574e-01	 1.1436303273e+00	-2.1156732083e+00
 7.1311340197e-01	 1.1090357792e+00	-1.9296486707e+00
 6.9961422706e-01	 1.1176005624e+00	-1.9727811916e+00
 6.8603096563e-01	 1.1259896082e+00	-2.0118914668e+00
 6.7236699421e-01	 1.1342017937e+00	-2.0499591077e+00
 6.5862570569e-01	 1.1422360804e+00	-2.0876425709e+00
 6.4481050668e-01	 1.1500915156e+00	-2.1247740058e+00
 7.1711965704e-01	 1.1152663173e+00	-1.9302484828e+00
 7.0354464406e-01	 1.1238792172e+00	-1.9835850602e+00
 6.8988507218e-01	 1.1323153926e+00	-2.0271176095e+00
 6.7614433687e-01	 1.1405737139e+00	-2.0642461250e+00
 6.6232585010e-01	 1.1486531371e+00	-2.0975839751e+00
 6.4843303761e-01	 1.1565527038e+00	-2.1289754868e+00
 7.2112591210e-01	 1.1214968554e+00	-1.9447555296e+00
 7.0747506107e-01	 1.1301578720e+00	-2.0035911621e+00
 6.9373917872e-01	 1.1386411769e+00	-2.0457936396e+00
 6.7992167954e-01	 1.1469456341e+00	-2.0772349612e+00
 6.6602599452e-01	 1.1550701937e+00	-2.1030823231e+00
 6.5205556855e-01	 1.1630138921e+00	-2.1278091525e+00
 6.3394291387e-01	 1.1307079507e+00	-2.0845721083e+00
 6.2029125058e-01	 1.1382543003e+00	-2.1289309321e+00
 6.0657365105e-01	 1.1456231901e+00	-2.1645014719e+00
 5.9279348955e-01	 1.1528139340e+00	-2.1948643361e+00
 5.7895414363e-01	 1.1598259298e+00	-2.2230488549e+00
 5.6505899160e-01	 1.1666586578e+00	-2.2515552311e+00
 6.3756544480e-01	 1.1371691390e+00	-2.1021265924e+00
 6.2383577201e-01	 1.1447586106e+00	-2.1415234815e+00
 6.1003978620e-01	 1.1521696083e+00	-2.1696930564e+00
 5.9618088092e-01	 1.1594014422e+00	-2.1917209356e+00
 5.8226245302e-01	 1.1664535065e+00	-2.2121410585e+00
 5.6828790013e-01	 1.1733252787e+00	-2.2349548797e+00
 6.4118797574e-01	 1.1436303273e+00	-2.1156732083e+00
 6.2738029344e-01	 1.1512629209e+00	-2.1496262003e+00
 6.1350592135e-01	 1.1587160265e+00	-2.1714525178e+00
 5.9956827229e-01	 1.1659889504e+00	-2.1870832036e+00
 5.8557076241e-01	 1.1730810833e+00	-2.2018798208e+00
 5.7151680865e-01	 1.1799918996e+00	-2.2206523776e+00
 6.4481050668e-01	 1.1500915156e+00	-2.1247740058e+00
 6.3092481488e-01	 1.1577672312e+00	-2.1533203235e+00
 6.1697205650e-01	 1.1652624448e+00	-2.1701576682e+00
 6.0295566366e-01	 1.1725764586e+00	-2.1814144473e+00
 5.8887907181e-01	 1.1797086600e+00	-2.1926145515e+00
 5.7474571717e-01	 1.1866585205e+00	-2.2086956817e+00
 6.4843303761e-01	 1.1565527038e+00	-2.1289754868e+00
 6.3446933631e-01	 1.1642715415e+00	-2.1526604225e+00
 6.2043819165e-01	 1.1718088630e+00	-2.1661535540e+00
 6.0634305503e-01	 1.1791639668e+00	-2.1751438646e+00
 5.9218738120e-01	 1.1863362367e+00	-2.1846637079e+00
 5.7797462570e-01	 1.1933251414e+00	-2.1991091915e+00
 6.5205556855e-01	 1.1630138921e+00	-2.1278091525e+00
 6.3801385774e-01	 1.1707758518e+00	-2.1476752301e+00
 6.2390432680e-01	 1.1783552812e+00	-2.1597534195e+00
 6.0973044640e-01	 1.1857514750e+00	-2.1686675148e+00
 5.9549569059e-01	 1.1929638135e+00	-2.1783156481e+00
 5.8120353422e-01	 1.1999917623e+00	-2.1918943686e+00
 5.6505899160e-01	 1.1666586578e+00	-2.2515552311e+00
 5.5111141010e-01	 1.1733116813e+00	-2.2792337816e+00
 5.3711477159e-01	 1.1797846456e+00	-2.3046669367e+00
 5.2307244201e-01	 1.1860772775e+00	-2.3292279736e+00
 5.0898777833e-01	 1.1921893848e+00	-2.3538579318e+00
 4.9486412628e-01	 1.1981208555e+00	-2.3790979252e+00
 5.6828790013e-01	 1.1733252787e+00	-2.2349548797e+00
 5.5426061816e-01	 1.1800163195e+00	-2.2598855115e+00
 5.4018399886e-01	 1.1865262721e+00	-2.2846615362e+00
 5.2606142739e-01	 1.1928548619e+00	-2.3095441901e+00
 5.1189627992e-01	 1.1990018956e+00	-2.3343397597e+00
 4.9769192129e-01	 1.2049672604e+00	-2.3584353749e+00
 5.7151680865e-01	 1.1799918996e+00	-2.2206523776e+00
 5.5740982621e-01	 1.1867209576e+00	-2.2433565897e+00
 5.4325322613e-01	 1.1932678987e+00	-2.2669626694e+00
 5.2905041278e-01	 1.1996324464e+00	-2.2910292664e+00
 5.1480478151e-01	 1.2058144064e+00	-2.3146490498e+00
 5.0051971630e-01	 1.2118136652e+00	-2.3364868918e+00
 5.7474571717e-01	 1.1866585205e+00	-2.2086956817e+00
 5.6055903427e-01	 1.1934255958e+00	-2.2293879435e+00
 5.4632245339e-01	 1.2000095252e+00	-2.2511677659e+00
 5.3203939816e-01	 1.2064100308e+00	-2.2732931938e+00
 5.1771328310e-01	 1.2126269171e+00	-2.2945568096e+00
 5.0334751130e-01	 1.2186600701e+00	-2.3133252279e+00
 5.7797462570e-01	 1.1933251414e+00	-2.1991091915e+00
 5.6370824233e-01	 1.2001302340e+00	-2.2177045118e+00
 5.4939168066e-01	 1.2067511518e+00	-2.2368622317e+00
 5.3502838354e-01	 1.2131876153e+00	-2.2559344693e+00
 5.2062178469e-01	 1.2194394279e+00	-2.2738198166e+00
 5.0617530631e-01	 1.2255064750e+00	-2.2890030763e+00
 5.8120353422e-01	 1.1999917623e+00	-2.1918943686e+00
 5.6685745039e-01	 1.2068348722e+00	-2.2080156255e+00
 5.5246090793e-01	 1.2134927783e+00	-2.2236196930e+00
 5.3801736892e-01	 1.2199651997e+00	-2.2385402986e+00
 5.2353028628e-01	 1.2262519387e+00	-2.2521808723e+00
 5.0900310132e-01	 1.2323528799e+00	-2.2635534643e+00
 4.9486412628e-01	 1.1981208555e+00	-2.3790979252e+00
 4.8070481802e-01	 1.2038716567e+00	-2.4017546383e+00
 4.6651316992e-01	 1.2094418341e+00	-2.4194108823e+00
 4.5229248032e-01	 1.2148315110e+00	-2.4332772673e+00
 4.3804602744e-01	 1.2200408869e+00	-2.4443052853e+00
 4.2377706726e-01	 1.2250702368e+00	-2.4532221176e+00
 4.9769192129e-01	 1.2049672604e+00	-2.3584353749e+00
 4.8345170270e-01	 1.2107509233e+00	-2.3779769309e+00
 4.6917895946e-01	 1.2163529303e+00	-2.3911466820e+00
 4.5487700878e-01	 1.2217734053e+00	-2.3998867759e+00
 4.4054914760e-01	 1.2270125491e+00	-2.4058895201e+00
 4.2619865051e-01	 1.2320706381e+00	-2.4106313613e+00
 5.0051971630e-01	 1.2118136652e+00	-2.3364868918e+00
 4.8619858737e-01	 1.2176301899e+00	-2.3524971411e+00
 4.7184474900e-01	 1.2232640265e+00	-2.3614782300e+00
 4.5746153724e-01	 1.2287152997e+00	-2.3658557956e+00
 4.4305226776e-01	 1.2339842113e+00	-2.3678044320e+00
 4.2862023375e-01	 1.2390710395e+00	-2.3692815857e+00
 5.0334751130e-01	 1.2186600701e+00	-2.3133252279e+00
 4.8894547205e-01	 1.2245094565e+00	-2.3256894205e+00
 4.7451053854e-01	 1.2301751227e+00	-2.3309476804e+00
 4.6004606570e-01	 1.2356571940e+00	-2.3317653807e+00
 4.4555538791e-01	 1.2409558735e+00	-2.3305452619e+00
 4.3104181699e-01	 1.2460714408e+00	-2.3294619816e+00
 5.0617530631e-01	 1.2255064750e+00	-2.2890030763e+00
 4.9169235672e-01	 1.2313887231e+00	-2.2979020925e+00
 4.7717632809e-01	 1.2370862189e+00	-2.3000686225e+00
 4.6263059416e-01	 1.2425990884e+00	-2.2981682176e+00
 4.4805850807e-01	 1.2479275357e+00	-2.2945819137e+00
 4.3346340023e-01	 1.2530718422e+00	-2.2914421655e+00
 5.0900310132e-01	 1.2323528799e+00	-2.2635534643e+00
 4.9443924140e-01	 1.2382679897e+00	-2.2694581847e+00
 4.7984211763e-01	 1.2439973151e+00	-2.2693266680e+00
 4.6521512261e-01	 1.2495409827e+00	-2.2655891883e+00
 4.5056162823e-01	 1.2548991979e+00	-2.2603594173e+00
 4.3588498347e-01	 1.2600722435e+00	-2.2554724679e+00
 4.2377706726e-01	 1.2250702368e+00	-2.4532221176e+00
 4.0948883148e-01	 1.2299199099e+00	-2.4675383265e+00
 3.9518452552e-01	 1.2345903282e+00	-2.4894292427e+00
 3.8086732666e-01	 1.2390819857e+00	-2.5114496051e+00
 3.6654038214e-01	 1.2433954464e+00	-2.5266161346e+00
 3.5220680734e-01	 1.2475313434e+00	-2.5348984568e+00
 4.2619865051e-01	 1.2320706381e+00	-2.4106313613e+00
 4.1182876766e-01	 1.2369480236e+00	-2.4220287987e+00
 3.9744272281e-01	 1.2416451301e+00	-2.4417961627e+00
 3.8304371139e-01	 1.2461624542e+00	-2.4619361608e+00
 3.6863489861e-01	 1.2505005632e+00	-2.4745612672e+00
 3.5421941767e-01	 1.2546600939e+00	-2.4795998793e+00
 4.2862023375e-01	 1.2390710395e+00	-2.3692815857e+00
 4.1416870384e-01	 1.2439761374e+00	-2.3782879840e+00
 3.9970092010e-01	 1.2486999320e+00	-2.3960406078e+00
 3.8522009611e-01	 1.2532429227e+00	-2.4141494725e+00
 3.7072941508e-01	 1.2576056800e+00	-2.4242274229e+00
 3.5623202800e-01	 1.2617888444e+00	-2.4252292866e+00
 4.3104181699e-01	 1.2460714408e+00	-2.3294619816e+00
 4.1650864001e-01	 1.2510042512e+00	-2.3363960237e+00
 4.0195911739e-01	 1.2557547339e+00	-2.3521426881e+00
 3.8739648083e-01	 1.2603233912e+00	-2.3680752745e+00
 3.7282393155e-01	 1.2647107969e+00	-2.3755792116e+00
 3.5824463833e-01	 1.2689175950e+00	-2.3722053210e+00
 4.3346340023e-01	 1.2530718422e+00	-2.2914421655e+00
 4.1884857619e-01	 1.2580323650e+00	-2.2964193562e+00
 4.0421731467e-01	 1.2628095357e+00	-2.3100722839e+00
 3.8957286556e-01	 1.2674038597e+00	-2.3236902173e+00
 3.7491844801e-01	 1.2718159137e+00	-2.3285918290e+00
 3.6025724865e-01	 1.2760463455e+00	-2.3209357953e+00
 4.3588498347e-01	 1.2600722435e+00	-2.2554724679e+00
 4.2118851237e-01	 1.2650604787e+00	-2.2584108287e+00
 4.0647551196e-01	 1.2698643376e+00	-2.2697890499e+00
 3.9174925028e-01	 1.2744843281e+00	-2.2809618304e+00
 3.7701296448e-01	 1.2789210306e+00	-2.2833384338e+00
 3.6226985898e-01	 1.2831750960e+00	-2.2718167944e+00
 3.5220680734e-01	 1.2475313434e+00	-2.5348984568e+00
 3.3786968412e-01	 1.2514903772e+00	-2.5391232775e+00
 3.2353205909e-01	 1.2552733147e+00	-2.5461520335e+00
 3.0919694204e-01	 1.2588809868e+00	-2.5548950880e+00
 2.9486730438e-01	 1.2623142876e+00	-2.5641466204e+00
 2.8054607774e-01	 1.2655741725e+00	-2.5726169833e+00
 3.5421941767e-01	 1.2546600939e+00	-2.4795998793e+00
 3.3980036803e-01	 1.2586417508e+00	-2.4816736305e+00
 3.2538081372e-01	 1.2624463050e+00	-2.4869735613e+00
 3.1096378170e-01	 1.2660745924e+00	-2.4940290829e+00
 2.9655226041e-01	 1.2695275121e+00	-2.5012913746e+00
 2.8214919818e-01	 1.2728060249e+00	-2.5071653290e+00
 3.5623202800e-01	 1.2617888444e+00	-2.4252292866e+00
 3.4173105194e-01	 1.2657931244e+00	-2.4246881954e+00
 3.2722956834e-01	 1.2696192954e+00	-2.4281424572e+00
 3.1273062137e-01	 1.2732681980e+00	-2.4336424532e+00
 2.9823721643e-01	 1.2767407366e+00	-2.4391950413e+00
 2.8375231863e-01	 1.2800378773e+00	-2.4427953618e+00
 3.5824463833e-01	 1.2689175950e+00	-2.3722053210e+00
 3.4366173585e-01	 1.2729444980e+00	-2.3687837380e+00
 3.2907832296e-01	 1.2767922858e+00	-2.3703946863e+00
 3.1449746104e-01	 1.2804618037e+00	-2.3745133835e+00
 2.9992217246e-01	 1.2839539611e+00	-2.3786031148e+00
 2.8535543907e-01	 1.2872697297e+00	-2.3801471628e+00
 3.6025724865e-01	 1.2760463455e+00	-2.3209357953e+00
 3.4559241976e-01	 1.2800958716e+00	-2.3145655197e+00
 3.3092707759e-01	 1.2839652762e+00	-2.3144553577e+00
 3.1626430071e-01	 1.2876554093e+00	-2.3174111299e+00
 3.0160712848e-01	 1.2911671856e+00	-2.3202553219e+00
 2.8695855951e-01	 1.2945015821e+00	-2.3198593976e+00
 3.6226985898e-01	 1.2831750960e+00	-2.2718167944e+00
 3.4752310367e-01	 1.2872472452e+00	-2.2626265800e+00
 3.3277583221e-01	 1.2911382665e+00	-2.2610381390e+00
 3.1803114038e-01	 1.2948490150e+00	-2.2630955197e+00
 3.0329208451e-01	 1.2983804101e+00	-2.2648851632e+00
 2.8856167996e-01	 1.3017334346e+00	-2.2625688537e+00
 2.8054607774e-01	 1.2655741725e+00	-2.5726169833e+00
 2.6623615249e-01	 1.2686616566e+00	-2.5791612988e+00
 2.5194037650e-01	 1.2715778130e+00	-2.5840737706e+00
 2.3766155380e-01	 1.2743237711e+00	-2.5881904683e+00
 2.2340244347e-01	 1.2769007150e+00	-2.5923622934e+00
 2.0916575848e-01	 1.2793098816e+00	-2.5974438078e+00
 2.8214919818e-01	 1.2728060249e+00	-2.5071653290e+00
 2.6775750194e-01	 1.2759111518e+00	-2.5107823224e+00
 2.5338003579e-01	 1.2788439719e+00	-2.5129701641e+00
 2.3901961982e-01	 1.2816056212e+00	-2.5146858904e+00
 2.2467902886e-01	 1.2841972905e+00	-2.5169164660e+00
 2.1036099139e-01	 1.2866202238e+00	-2.5206650831e+00
 2.8375231863e-01	 1.2800378773e+00	-2.4427953618e+00
 2.6927885138e-01	 1.2831606469e+00	-2.4437293622e+00
 2.5481969509e-01	 1.2861101309e+00	-2.4433287580e+00
 2.4037768584e-01	 1.2888874714e+00	-2.4427066399e+00
 2.2595561425e-01	 1.2914938661e+00	-2.4430255518e+00
 2.1155622430e-01	 1.2939305660e+00	-2.4454809953e+00
 2.8535543907e-01	 1.2872697297e+00	-2.3801471628e+00
 2.7080020082e-01	 1.2904101421e+00	-2.3785169809e+00
 2.5625935438e-01	 1.2933762898e+00	-2.3755694261e+00
 2.4173575187e-01	 1.2961693215e+00	-2.3726084993e+00
 2.2723219965e-01	 1.2987904416e+00	-2.3710116345e+00
 2.1275145720e-01	 1.3012409082e+00	-2.3722101372e+00
 2.8695855951e-01	 1.2945015821e+00	-2.3198593976e+00
 2.7232155026e-01	 1.2976596373e+00	-2.3156626997e+00
 2.5769901367e-01	 1.3006424487e+00	-2.3101182696e+00
 2.4309381789e-01	 1.3034511716e+00	-2.3047556615e+00
 2.2850878504e-01	 1.3060870171e+00	-2.3012063241e+00
 2.1394669011e-01	 1.3085512504e+00	-2.3011807000e+00
 2.8856167996e-01	 1.3017334346e+00	-2.2625688537e+00
 2.7384289971e-01	 1.3049091325e+00	-2.2556865216e+00
 2.5913867297e-01	 1.3079086076e+00	-2.2474071465e+00
 2.4445188391e-01	 1.3107330217e+00	-2.2395202839e+00
 2.2978537043e-01	 1.3133835926e+00	-2.2339503560e+00
 2.1514192301e-01	 1.3158615925e+00	-2.2327301365e+00
 2.0916575848e-01	 1.2793098816e+00	-2.5974438078e+00
 1.9495416466e-01	 1.2815525590e+00	-2.6034030357e+00
 1.8077027972e-01	 1.2836300845e+00	-2.6092446520e+00
 1.6661667235e-01	 1.2855438430e+00	-2.6142857541e+00
 1.5249586136e-01	 1.2872952653e+00	-2.6177102693e+00
 1.3841031496e-01	 1.2888858260e+00	-2.6185441874e+00
 2.1036099139e-01	 1.2866202238e+00	-2.5206650831e+00
 1.9606818846e-01	 1.2888757165e+00	-2.5256032979e+00
 1.8180325275e-01	 1.2909651135e+00	-2.5303083943e+00
 1.6756876762e-01	 1.2928898078e+00	-2.5340657690e+00
 1.5336726628e-01	 1.2946512382e+00	-2.5360362974e+00
 1.3920123105e-01	 1.2962508879e+00	-2.5352285544e+00
 2.1155622430e-01	 1.2939305660e+00	-2.4454809953e+00
 1.9718221226e-01	 1.2961988740e+00	-2.4494954746e+00
 1.8283622578e-01	 1.2983001426e+00	-2.4532183578e+00
 1.6852086289e-01	 1.3002357726e+00	-2.4558782243e+00
 1.5423867121e-01	 1.3020072112e+00	-2.4565879508e+00
 1.3999214713e-01	 1.3036159497e+00	-2.4543138647e+00
 2.1275145720e-01	 1.3012409082e+00	-2.3722101372e+00
 1.9829623606e-01	 1.3035220314e+00	-2.3753998212e+00
 1.8386919880e-01	 1.3056351716e+00	-2.3782775533e+00
 1.6947295816e-01	 1.3075817375e+00	-2.3799913328e+00
 1.5511007613e-01	 1.3093631841e+00	-2.3795824848e+00
 1.4078306322e-01	 1.3109810116e+00	-2.3759516833e+00
 2.1394669011e-01	 1.3085512504e+00	-2.3011807000e+00
 1.9941025986e-01	 1.3108451889e+00	-2.3036458001e+00
 1.8490217183e-01	 1.3129702007e+00	-2.3057979029e+00
 1.7042505343e-01	 1.3149277023e+00	-2.3066820131e+00
 1.5598148105e-01	 1.3167191571e+00	-2.3052457390e+00
 1.4157397930e-01	 1.3183460735e+00	-2.3003021173e+00
 2.1514192301e-01	 1.3158615925e+00	-2.2327301365e+00
 2.0052428365e-01	 1.3181683464e+00	-2.2345718103e+00
 1.8593514486e-01	 1.3203052297e+00	-2.2361000245e+00
 1.7137714870e-01	 1.3222736671e+00	-2.2362357171e+00
 1.5685288597e-01	 1.3240751300e+00	-2.2338119972e+00
 1.4236489539e-01	 1.3257111353e+00	-2.2275336987e+00
 1.3841031496e-01	 1.2888858260e+00	-2.6185441874e+00
 1.2436245001e-01	 1.2903170420e+00	-2.6188601711e+00
 1.1035463140e-01	 1.2915904704e+00	-2.6209048043e+00
 9.6389171504e-02	 1.2927077069e+00	-2.6236708339e+00
 8.2468329653e-02	 1.2936703840e+00	-2.6259161567e+00
 6.8594311702e-02	 1.2944801691e+00	-2.6261386657e+00
 1.3920123105e-01	 1.2962508879e+00	-2.5352285544e+00
 1.2507309258e-01	 1.2976902822e+00	-2.5339435586e+00
 1.1098522929e-01	 1.2989709873e+00	-2.5346806378e+00
 9.6939966770e-02	 1.3000946081e+00	-2.5364489692e+00
 8.2939577251e-02	 1.3010627862e+00	-2.5380136538e+00
 6.8986279198e-02	 1.3018771986e+00	-2.5378676681e+00
 1.3999214713e-01	 1.3036159497e+00	-2.4543138647e+00
 1.2578373515e-01	 1.3050635225e+00	-2.4515602731e+00
 1.1161582719e-01	 1.3063515043e+00	-2.4510804815e+00
 9.7490762035e-02	 1.3074815092e+00	-2.4519155493e+00
 8.3410824849e-02	 1.3084551884e+00	-2.4528541383e+00
 6.9378246693e-02	 1.3092742282e+00	-2.4524013937e+00
 1.4078306322e-01	 1.3109810116e+00	-2.3759516833e+00
 1.2649437772e-01	 1.3124367627e+00	-2.3717938196e+00
 1.1224642508e-01	 1.3137320213e+00	-2.3701293009e+00
 9.8041557301e-02	 1.3148684104e+00	-2.3700472636e+00
 8.3882072447e-02	 1.3158475906e+00	-2.3703770313e+00
 6.9770214189e-02	 1.3166712577e+00	-2.3696537442e+00
 1.4157397930e-01	 1.3183460735e+00	-2.3003021173e+00
 1.2720502029e-01	 1.3198100029e+00	-2.2947360349e+00
 1.1287702297e-01	 1.3211125383e+00	-2.2918597780e+00
 9.8592352567e-02	 1.3222553116e+00	-2.2908275123e+00
 8.4353320045e-02	 1.3232399928e+00	-2.2905270820e+00
 7.0162181684e-02	 1.3240682873e+00	-2.2895422053e+00
 1.4236489539e-01	 1.3257111353e+00	-2.2275336987e+00
 1.2791566286e-01	 1.3271832432e+00	-2.2204869895e+00
 1.1350762087e-01	 1.3284930552e+00	-2.2163122374e+00
 9.9143147833e-02	 1.3296422128e+00	-2.2142463600e+00
 8.4824567643e-02	 1.3306323950e+00	-2.2132543542e+00
 7.0554149180e-02	 1.3314653168e+00	-2.2119878698e+00
 6.8594311702e-02	 1.2944801691e+00	-2.6261386657e+00
 5.4769269658e-02	 1.2951387628e+00	-2.6266287282e+00
 4.0995301363e-02	 1.2956478970e+00	-2.6293435372e+00
 2.7274450239e-02	 1.2960093334e+00	-2.6318064955e+00
 1.3608705099e-02	 1.2962248613e+00	-2.6311775382e+00
 0.0000000000e+00	 1.2962962963e+00	-2.6242448593e+00
 6.8986279198e-02	 1.3018771986e+00	-2.5378676681e+00
 5.5082236914e-02	 1.3025395557e+00	-2.5381021108e+00
 4.1229560228e-02	 1.3030515993e+00	-2.5405094674e+00
 2.7430304241e-02	 1.3034151010e+00	-2.5426322703e+00
 1.3686469128e-02	 1.3036318605e+00	-2.5416250359e+00
 0.0000000000e+00	 1.3037037037e+00	-2.5342438619e+00
 6.9378246693e-02	 1.3092742282e+00	-2.4524013937e+00
 5.5395204169e-02	 1.3099403487e+00	-2.4524528638e+00
 4.1463819093e-02	 1.3104553016e+00	-2.4546194652e+00
 2.7586158242e-02	 1.3108208686e+00	-2.4564492979e+00
 1.3764233157e-02	 1.3110388597e+00	-2.4550775377e+00
 0.0000000000e+00	 1.3111111111e+00	-2.4472138277e+00
 6.9770214189e-02	 1.3166712577e+00	-2.3696537442e+00
 5.5708171424e-02	 1.3173411416e+00	-2.3695752982e+00
 4.1698077958e-02	 1.3178590038e+00	-2.3715487369e+00
 2.7742012244e-02	 1.3182266362e+00	-2.3731154570e+00
 1.3841997186e-02	 1.3184458589e+00	-2.3713786457e+00
 0.0000000000e+00	 1.3185185185e+00	-2.3629883881e+00
 7.0162181684e-02	 1.3240682873e+00	-2.2895422053e+00
 5.6021138679e-02	 1.3247419345e+00	-2.2893653657e+00
 4.1932336822e-02	 1.3252627061e+00	-2.2911721399e+00
 2.7897866245e-02	 1.3256324038e+00	-2.2924862444e+00
 1.3919761215e-02	 1.3258528581e+00	-2.2903675085e+00
 0.0000000000e+00	 1.3259259259e+00	-2.2813946125e+00
 7.0554149180e-02	 1.3314653168e+00	-2.2119878698e+00
 5.6334105934e-02	 1.3321427274e+00	-2.2117207186e+00
 4.2166595687e-02	 1.3326664084e+00	-2.2133642765e+00
 2.8053720246e-02	 1.3330381715e+00	-2.2144149011e+00
 1.3997525244e-02	 1.3332598573e+00	-2.2118789756e+00
 0.0000000000e+00	 1.3333333333e+00	-2.2022531899e+00
 1.3333333333e+00	 0.0000000000e+00	 3.7672981671e+00
 1.3332598573e+00	 1.3997525244e-02	 3.7662300915e+00
 1.3330381715e+00	 2.8053720246e-02	 3.7618012130e+00
 1.3326664084e+00	 4.2166595687e-02	 3.7542040858e+00
 1.3321427274e+00	 5.6334105934e-02	 3.7433752622e+00
 1.3314653168e+00	 7.0554149180e-02	 3.7290242902e+00
 1.3407407407e+00	 0.0000000000e+00	 3.7777776235e+00
 1.3406668565e+00	 1.4075289273e-02	 3.7769325851e+00
 1.3404439391e+00	 2.8209574248e-02	 3.7724683125e+00
 1.3400701106e+00	 4.2400854552e-02	 3.7646694940e+00
 1.3395435204e+00	 5.6647073190e-02	 3.7535383302e+00
 1.3388623463e+00	 7.0946116675e-02	 3.7388259745e+00
 1.3481481481e+00	 0.0000000000e+00	 3.7871348910e+00
 1.3480738557e+00	 1.4153053303e-02	 3.7864717788e+00
 1.3478497067e+00	 2.8365428249e-02	 3.7819625167e+00
 1.3474738129e+00	 4.2635113417e-02	 3.7739656398e+00
 1.3469443133e+00	 5.6960040445e-02	 3.7625297075e+00
 1.3462593759e+00	 7.1338084171e-02	 3.7474273205e+00
 1.3555555556e+00	 0.0000000000e+00	 3.7953118199e+00
 1.3554808549e+00	 1.4230817332e-02	 3.7947805520e+00
 1.3552554743e+00	 2.8521282250e-02	 3.7902190653e+00
 1.3548775152e+00	 4.2869372282e-02	 3.7820408386e+00
 1.3543451062e+00	 5.7273007700e-02	 3.7703208483e+00
 1.3536564054e+00	 7.1730051666e-02	 3.7548323019e+00
 1.3629629630e+00	 0.0000000000e+00	 3.8022503087e+00
 1.3628878541e+00	 1.4308581361e-02	 3.8017917240e+00
 1.3626612419e+00	 2.8677136252e-02	 3.7971730223e+00
 1.3622812174e+00	 4.3103631147e-02	 3.7888430904e+00
 1.3617458992e+00	 5.7585974955e-02	 3.7768827132e+00
 1.3610534349e+00	 7.2122019161e-02	 3.7610441646e+00
 1.3703703704e+00	 0.0000000000e+00	 3.8078923031e+00
 1.3702948533e+00	 1.4386345390e-02	 3.8074380533e+00
 1.3700670096e+00	 2.8832990253e-02	 3.8027592775e+00
 1.3696849197e+00	 4.3337890012e-02	 3.7943200873e+00
 1.3691466921e+00	 5.7898942210e-02	 3.7821857832e+00
 1.3684504645e+00	 7.2513986657e-02	 3.7660654495e+00
 1.3314653168e+00	 7.0554149180e-02	 3.7290242902e+00
 1.3306323950e+00	 8.4824567643e-02	 3.7122185322e+00
 1.3296422128e+00	 9.9143147833e-02	 3.6937460007e+00
 1.3284930552e+00	 1.1350762087e-01	 3.6726742547e+00
 1.3271832432e+00	 1.2791566286e-01	 3.6480125894e+00
 1.3257111353e+00	 1.4236489539e-01	 3.6187627436e+00
 1.3388623463e+00	 7.0946116675e-02	 3.7388259745e+00
 1.3380247971e+00	 8.5295815241e-02	 3.7216802323e+00
 1.3370291140e+00	 9.9693943098e-02	 3.7029284092e+00
 1.3358735722e+00	 1.1413821876e-01	 3.6815907643e+00
 1.3345564834e+00	 1.2862630543e-01	 3.6566178349e+00
 1.3330761972e+00	 1.4315581147e-01	 3.6269449263e+00
 1.3462593759e+00	 7.1338084171e-02	 3.7474273205e+00
 1.3454171993e+00	 8.5767062839e-02	 3.7298751796e+00
 1.3444160151e+00	 1.0024473836e-01	 3.7107578502e+00
 1.3432540892e+00	 1.1476881665e-01	 3.6890717210e+00
 1.3419297237e+00	 1.2933694801e-01	 3.6637319139e+00
 1.3404412591e+00	 1.4394672756e-01	 3.6336306537e+00
 1.3536564054e+00	 7.1730051666e-02	 3.7548323019e+00
 1.3528096015e+00	 8.6238310437e-02	 3.7368458059e+00
 1.3518029163e+00	 1.0079553363e-01	 3.7173171801e+00
 1.3506346061e+00	 1.1539941455e-01	 3.6952408528e+00
 1.3493029639e+00	 1.3004759058e-01	 3.6695183355e+00
 1.3478063209e+00	 1.4473764364e-01	 3.6390205730e+00
 1.3610534349e+00	 7.2122019161e-02	 3.7610441646e+00
 1.3602020037e+00	 8.6709558035e-02	 3.7426335685e+00
 1.3591898175e+00	 1.0134632890e-01	 3.7226880746e+00
 1.3580151231e+00	 1.1603001244e-01	 3.7002205424e+00
 1.3566762041e+00	 1.3075823315e-01	 3.6741391389e+00
 1.3551713828e+00	 1.4552855973e-01	 3.6433137782e+00
 1.3684504645e+00	 7.2513986657e-02	 3.7660654495e+00
 1.3675944059e+00	 8.7180805633e-02	 3.7472789826e+00
 1.3665767187e+00	 1.0189712416e-01	 3.7269510695e+00
 1.3653956401e+00	 1.1666061034e-01	 3.7041318720e+00
 1.3640494444e+00	 1.3146887572e-01	 3.6777549404e+00
 1.3625364446e+00	 1.4631947581e-01	 3.6467078543e+00
 1.3257111353e+00	 1.4236489539e-01	 3.6187627436e+00
 1.3240751300e+00	 1.5685288597e-01	 3.5848662248e+00
 1.3222736671e+00	 1.7137714870e-01	 3.5473220861e+00
 1.3203052297e+00	 1.8593514486e-01	 3.5068682227e+00
 1.3181683464e+00	 2.0052428365e-01	 3.4644486031e+00
 1.3158615925e+00	 2.1514192301e-01	 3.4212627423e+00
 1.3330761972e+00	 1.4315581147e-01	 3.6269449263e+00
 1.3314311030e+00	 1.5772429089e-01	 3.5923615667e+00
 1.3296196319e+00	 1.7232924397e-01	 3.5538282953e+00
 1.3276402588e+00	 1.8696811789e-01	 3.5121874630e+00
 1.3254915039e+00	 2.0163830745e-01	 3.4684960717e+00
 1.3231719347e+00	 2.1633715592e-01	 3.4240791586e+00
 1.3404412591e+00	 1.4394672756e-01	 3.6336306537e+00
 1.3387870759e+00	 1.5859569582e-01	 3.5984090423e+00
 1.3369655967e+00	 1.7328133924e-01	 3.5589544734e+00
 1.3349752879e+00	 1.8800109091e-01	 3.5161802747e+00
 1.3328146614e+00	 2.0275233125e-01	 3.4712236886e+00
 1.3304822769e+00	 2.1753238882e-01	 3.4255033980e+00
 1.3478063209e+00	 1.4473764364e-01	 3.6390205730e+00
 1.3461430489e+00	 1.5946710074e-01	 3.6032476297e+00
 1.3443115615e+00	 1.7423343451e-01	 3.5629836116e+00
 1.3423103169e+00	 1.8903406394e-01	 3.5191787727e+00
 1.3401378188e+00	 2.0386635505e-01	 3.4730172422e+00
 1.3377926191e+00	 2.1872762173e-01	 3.4259789252e+00
 1.3551713828e+00	 1.4552855973e-01	 3.6433137782e+00
 1.3534990218e+00	 1.6033850566e-01	 3.6071145930e+00
 1.3516575264e+00	 1.7518552978e-01	 3.5661966185e+00
 1.3496453460e+00	 1.9006703697e-01	 3.5215123921e+00
 1.3474609763e+00	 2.0498037885e-01	 3.4742589938e+00
 1.3451029613e+00	 2.1992285463e-01	 3.4259445622e+00
 1.3625364446e+00	 1.4631947581e-01	 3.6467078543e+00
 1.3608549947e+00	 1.6120991058e-01	 3.6102455241e+00
 1.3590034912e+00	 1.7613762505e-01	 3.5688723613e+00
 1.3569803750e+00	 1.9110000999e-01	 3.5235079306e+00
 1.3547841338e+00	 2.0609440264e-01	 3.4753277245e+00
 1.3524133035e+00	 2.2111808754e-01	 3.4258345407e+00
 1.3158615925e+00	 2.1514192301e-01	 3.4212627423e+00
 1.3133835926e+00	 2.2978537043e-01	 3.3772526211e+00
 1.3107330217e+00	 2.4445188391e-01	 3.3304596815e+00
 1.3079086076e+00	 2.5913867297e-01	 3.2797565487e+00
 1.3049091325e+00	 2.7384289971e-01	 3.2244506601e+00
 1.3017334346e+00	 2.8856167996e-01	 3.1643149245e+00
 1.3231719347e+00	 2.1633715592e-01	 3.4240791586e+00
 1.3206801681e+00	 2.3106195582e-01	 3.3792588966e+00
 1.3180148718e+00	 2.4580994993e-01	 3.3321457764e+00
 1.3151747666e+00	 2.6057833226e-01	 3.2813019248e+00
 1.3121586277e+00	 2.7536424915e-01	 3.2257532516e+00
 1.3089652870e+00	 2.9016480040e-01	 3.1650244891e+00
 1.3304822769e+00	 2.1753238882e-01	 3.4255033980e+00
 1.3279767436e+00	 2.3233854121e-01	 3.3797363399e+00
 1.3252967220e+00	 2.4716801595e-01	 3.3321692949e+00
 1.3224409255e+00	 2.6201799156e-01	 3.2811023133e+00
 1.3194081229e+00	 2.7688559859e-01	 3.2253288644e+00
 1.3161971394e+00	 2.9176792085e-01	 3.1641752952e+00
 1.3377926191e+00	 2.1872762173e-01	 3.4259789252e+00
 1.3352733191e+00	 2.3361512660e-01	 3.3791786441e+00
 1.3325785721e+00	 2.4852608197e-01	 3.3310543915e+00
 1.3297070844e+00	 2.6345765085e-01	 3.2796907595e+00
 1.3266576180e+00	 2.7840694804e-01	 3.2236961049e+00
 1.3234289918e+00	 2.9337104129e-01	 3.1622464740e+00
 1.3451029613e+00	 2.1992285463e-01	 3.4259445622e+00
 1.3425698947e+00	 2.3489171199e-01	 3.3780736934e+00
 1.3398604222e+00	 2.4988414800e-01	 3.3293184325e+00
 1.3369732434e+00	 2.6489731015e-01	 3.2775927395e+00
 1.3339071132e+00	 2.7992829748e-01	 3.2213654399e+00
 1.3306608442e+00	 2.9497416174e-01	 3.1597086687e+00
 1.3524133035e+00	 2.2111808754e-01	 3.4258345407e+00
 1.3498664702e+00	 2.3616829738e-01	 3.3769036154e+00
 1.3471422723e+00	 2.5124221402e-01	 3.3274720379e+00
 1.3442394023e+00	 2.6633696944e-01	 3.2753261797e+00
 1.3411566084e+00	 2.8144964692e-01	 3.2188391803e+00
 1.3378926966e+00	 2.9657728218e-01	 3.1570239696e+00
 1.3017334346e+00	 2.8856167996e-01	 3.1643149245e+00
 1.2983804101e+00	 3.0329208451e-01	 3.0965109882e+00
 1.2948490150e+00	 3.1803114038e-01	 3.0222815532e+00
 1.2911382665e+00	 3.3277583221e-01	 2.9482239023e+00
 1.2872472452e+00	 3.4752310367e-01	 2.8813661322e+00
 1.2831750960e+00	 3.6226985898e-01	 2.8291281682e+00
 1.3089652870e+00	 2.9016480040e-01	 3.1650244891e+00
 1.3055936346e+00	 3.0497704053e-01	 3.0955715773e+00
 1.3020426206e+00	 3.1979798005e-01	 3.0185395980e+00
 1.2983112569e+00	 3.3462458683e-01	 2.9412465333e+00
 1.2943986188e+00	 3.4945378758e-01	 2.8714808636e+00
 1.2903038466e+00	 3.6428246931e-01	 2.8174630340e+00
 1.3161971394e+00	 2.9176792085e-01	 3.1641752952e+00
 1.3128068591e+00	 3.0666199656e-01	 3.0933492477e+00
 1.3092362262e+00	 3.2156481972e-01	 3.0137833497e+00
 1.3054842473e+00	 3.3647334146e-01	 2.9334605196e+00
 1.3015499923e+00	 3.5138447149e-01	 2.8608770799e+00
 1.2974325971e+00	 3.6629507964e-01	 2.8050049239e+00
 1.3234289918e+00	 2.9337104129e-01	 3.1622464740e+00
 1.3200200836e+00	 3.0834695258e-01	 3.0902756324e+00
 1.3164298319e+00	 3.2333165939e-01	 3.0084072792e+00
 1.3126572376e+00	 3.3832209608e-01	 2.9252338968e+00
 1.3087013659e+00	 3.5331515540e-01	 2.8499075538e+00
 1.3045613476e+00	 3.6830768997e-01	 2.7921030245e+00
 1.3306608442e+00	 2.9497416174e-01	 3.1597086687e+00
 1.3272333081e+00	 3.1003190861e-01	 3.0867733590e+00
 1.3236234375e+00	 3.2509849905e-01	 3.0027957453e+00
 1.3198302280e+00	 3.4017085070e-01	 2.9169228667e+00
 1.3158527395e+00	 3.5524583931e-01	 2.8389108624e+00
 1.3116900982e+00	 3.7032030029e-01	 2.7790893006e+00
 1.3378926966e+00	 2.9657728218e-01	 3.1570239696e+00
 1.3344465326e+00	 3.1171686463e-01	 3.0832559319e+00
 1.3308170431e+00	 3.2686533872e-01	 2.9973228323e+00
 1.3270032184e+00	 3.4201960533e-01	 2.9088715971e+00
 1.3230041131e+00	 3.5717652322e-01	 2.8282111575e+00
 1.3188188487e+00	 3.7233291062e-01	 2.7664821407e+00
 1.2831750960e+00	 3.6226985898e-01	 2.8291281682e+00
 1.2789210306e+00	 3.7701296448e-01	 2.7652728182e+00
 1.2744843281e+00	 3.9174925028e-01	 2.6821454890e+00
 1.2698643376e+00	 4.0647551196e-01	 2.5912300083e+00
 1.2650604787e+00	 4.2118851237e-01	 2.4997804498e+00
 1.2600722435e+00	 4.3588498347e-01	 2.4149630921e+00
 1.2903038466e+00	 3.6428246931e-01	 2.8174630340e+00
 1.2860261474e+00	 3.7910748095e-01	 2.7545102787e+00
 1.2815647966e+00	 3.9392563501e-01	 2.6729524664e+00
 1.2769191395e+00	 4.0873370925e-01	 2.5822430034e+00
 1.2720885925e+00	 4.2352844855e-01	 2.4895262274e+00
 1.2670726449e+00	 4.3830656671e-01	 2.4018703497e+00
 1.2974325971e+00	 3.6629507964e-01	 2.8050049239e+00
 1.2931312642e+00	 3.8120199742e-01	 2.7431401403e+00
 1.2886452651e+00	 3.9610201973e-01	 2.6628301857e+00
 1.2839739414e+00	 4.1099190654e-01	 2.5721839413e+00
 1.2791167063e+00	 4.2586838473e-01	 2.4783113424e+00
 1.2740730463e+00	 4.4072814995e-01	 2.3882556834e+00
 1.3045613476e+00	 3.6830768997e-01	 2.7921030245e+00
 1.3002363811e+00	 3.8329651389e-01	 2.7314431992e+00
 1.2957257336e+00	 3.9827840445e-01	 2.6520185561e+00
 1.2910287432e+00	 4.1325010383e-01	 2.5612246591e+00
 1.2861448200e+00	 4.2820832091e-01	 2.4662114191e+00
 1.2810734476e+00	 4.4314973320e-01	 2.3740694093e+00
 1.3116900982e+00	 3.7032030029e-01	 2.7790893006e+00
 1.3073414979e+00	 3.8539103036e-01	 2.7196821761e+00
 1.3028062021e+00	 4.0045478918e-01	 2.6407393733e+00
 1.2980835451e+00	 4.1550830112e-01	 2.5495194889e+00
 1.2931729338e+00	 4.3054825709e-01	 2.4532858547e+00
 1.2880738490e+00	 4.4557131644e-01	 2.3592475899e+00
 1.3188188487e+00	 3.7233291062e-01	 2.7664821407e+00
 1.3144466147e+00	 3.8748554683e-01	 2.7081021263e+00
 1.3098866706e+00	 4.0263117390e-01	 2.6291967580e+00
 1.3051383470e+00	 4.1776649841e-01	 2.5372057093e+00
 1.3002010476e+00	 4.3288819327e-01	 2.4395782710e+00
 1.2950742503e+00	 4.4799289968e-01	 2.3437124678e+00
 1.2600722435e+00	 4.3588498347e-01	 2.4149630921e+00
 1.2548991979e+00	 4.5056162823e-01	 2.3341341048e+00
 1.2495409827e+00	 4.6521512261e-01	 2.2502530558e+00
 1.2439973151e+00	 4.7984211763e-01	 2.1636795836e+00
 1.2382679897e+00	 4.9443924140e-01	 2.0745917140e+00
 1.2323528799e+00	 5.0900310132e-01	 1.9829484762e+00
 1.2670726449e+00	 4.3830656671e-01	 2.4018703497e+00
 1.2618708601e+00	 4.5306474839e-01	 2.3173293934e+00
 1.2564828771e+00	 4.6779965107e-01	 2.2298853149e+00
 1.2509084113e+00	 4.8250790717e-01	 2.1402862588e+00
 1.2451472563e+00	 4.9718612607e-01	 2.0490859017e+00
 1.2391992848e+00	 5.1183089633e-01	 1.9566041632e+00
 1.2740730463e+00	 4.4072814995e-01	 2.3882556834e+00
 1.2688425223e+00	 4.5556786854e-01	 2.3006965465e+00
 1.2634247714e+00	 4.7038417953e-01	 2.2104033547e+00
 1.2578195075e+00	 4.8517369671e-01	 2.1183420147e+00
 1.2520265229e+00	 4.9993301074e-01	 2.0252738611e+00
 1.2460456897e+00	 5.1465869133e-01	 1.9317148771e+00
 1.2810734476e+00	 4.4314973320e-01	 2.3740694093e+00
 1.2758141846e+00	 4.5807098870e-01	 2.2840677669e+00
 1.2703666658e+00	 4.7296870799e-01	 2.1915675184e+00
 1.2647306037e+00	 4.8783948626e-01	 2.0975847603e+00
 1.2589057895e+00	 5.0267989542e-01	 2.0029236169e+00
 1.2528920946e+00	 5.1748648634e-01	 1.9081343826e+00
 1.2880738490e+00	 4.4557131644e-01	 2.3592475899e+00
 1.2827858468e+00	 4.6057410886e-01	 2.2672628845e+00
 1.2773085601e+00	 4.7555323645e-01	 2.1731267171e+00
 1.2716416999e+00	 4.9050527580e-01	 2.0777409044e+00
 1.2657850562e+00	 5.0542678009e-01	 1.9817905490e+00
 1.2597384995e+00	 5.2031428135e-01	 1.8857015106e+00
 1.2950742503e+00	 4.4799289968e-01	 2.3437124678e+00
 1.2897575090e+00	 4.6307722901e-01	 2.2500897782e+00
 1.2842504545e+00	 4.7813776491e-01	 2.1548188676e+00
 1.2785527961e+00	 4.9317106534e-01	 2.0585258398e+00
 1.2726643228e+00	 5.0817366477e-01	 1.9616179541e+00
 1.2665849044e+00	 5.2314207635e-01	 1.8642408292e+00
 1.2323528799e+00	 5.0900310132e-01	 1.9829484762e+00
 1.2262519387e+00	 5.2353028628e-01	 1.8889799771e+00
 1.2199651997e+00	 5.3801736892e-01	 1.7933415308e+00
 1.2134927783e+00	 5.5246090793e-01	 1.6961216352e+00
 1.2068348722e+00	 5.6685745039e-01	 1.5969521335e+00
 1.1999917623e+00	 5.8120353422e-01	 1.4949765189e+00
 1.2391992848e+00	 5.1183089633e-01	 1.9566041632e+00
 1.2330644495e+00	 5.2643878787e-01	 1.8628476250e+00
 1.2267427842e+00	 5.4100635431e-01	 1.7676888780e+00
 1.2202344048e+00	 5.5553013519e-01	 1.6707356798e+00
 1.2135395104e+00	 5.7000665845e-01	 1.5711522680e+00
 1.2066583832e+00	 5.8443244274e-01	 1.4676286195e+00
 1.2460456897e+00	 5.1465869133e-01	 1.9317148771e+00
 1.2398769602e+00	 5.2934728946e-01	 1.8375151548e+00
 1.2335203686e+00	 5.4399533969e-01	 1.7421270066e+00
 1.2269760314e+00	 5.5859936246e-01	 1.6449542474e+00
 1.2202441485e+00	 5.7315586650e-01	 1.5449642810e+00
 1.2133250041e+00	 5.8766135127e-01	 1.4406576465e+00
 1.2528920946e+00	 5.1748648634e-01	 1.9081343826e+00
 1.2466894710e+00	 5.3225579105e-01	 1.8129155949e+00
 1.2402979530e+00	 5.4698432507e-01	 1.7165945723e+00
 1.2337176579e+00	 5.6166858972e-01	 1.6186434548e+00
 1.2269487867e+00	 5.7630507456e-01	 1.5180990932e+00
 1.2199916250e+00	 5.9089025979e-01	 1.4135322222e+00
 1.2597384995e+00	 5.2031428135e-01	 1.8857015106e+00
 1.2535019818e+00	 5.3516429265e-01	 1.7889649536e+00
 1.2470755375e+00	 5.4997331046e-01	 1.6910127845e+00
 1.2404592845e+00	 5.6473781699e-01	 1.5916533015e+00
 1.2336534249e+00	 5.7945428262e-01	 1.4902546852e+00
 1.2266582459e+00	 5.9411916831e-01	 1.3857131458e+00
 1.2665849044e+00	 5.2314207635e-01	 1.8642408292e+00
 1.2603144925e+00	 5.3807279424e-01	 1.7655629969e+00
 1.2538531219e+00	 5.5296229584e-01	 1.6652862480e+00
 1.2472009110e+00	 5.6780704426e-01	 1.5638185294e+00
 1.2403580631e+00	 5.8260349068e-01	 1.4611169270e+00
 1.2333248668e+00	 5.9734807684e-01	 1.3566541410e+00
 1.1999917623e+00	 5.8120353422e-01	 1.4949765189e+00
 1.1929638135e+00	 5.9549569059e-01	 1.3937011689e+00
 1.1857514750e+00	 6.0973044640e-01	 1.2963348518e+00
 1.1783552812e+00	 6.2390432680e-01	 1.2007546729e+00
 1.1707758518e+00	 6.3801385774e-01	 1.1042396497e+00
 1.1630138921e+00	 6.5205556855e-01	 1.0034519882e+00
 1.2066583832e+00	 5.8443244274e-01	 1.4676286195e+00
 1.1995913902e+00	 5.9880399998e-01	 1.3632561747e+00
 1.1923389832e+00	 6.1311783777e-01	 1.2618345444e+00
 1.1849016994e+00	 6.2737046195e-01	 1.1622650435e+00
 1.1772801621e+00	 6.4155837917e-01	 1.0627923658e+00
 1.1694750804e+00	 6.5567809948e-01	 9.6098305820e-01
 1.2133250041e+00	 5.8766135127e-01	 1.4406576465e+00
 1.2062189670e+00	 6.0211230938e-01	 1.3345187684e+00
 1.1989264914e+00	 6.1650522914e-01	 1.2303120030e+00
 1.1914481177e+00	 6.3083659710e-01	 1.1275777405e+00
 1.1837844724e+00	 6.4510290060e-01	 1.0251516614e+00
 1.1759362687e+00	 6.5930063042e-01	 9.2114141490e-01
 1.2199916250e+00	 5.9089025979e-01	 1.4135322222e+00
 1.2128465437e+00	 6.0542061877e-01	 1.3067313321e+00
 1.2055139996e+00	 6.1989262051e-01	 1.2009099549e+00
 1.1979945359e+00	 6.3430273224e-01	 1.0958689754e+00
 1.1902887826e+00	 6.4864742204e-01	 9.9066680180e-01
 1.1823974570e+00	 6.6292316136e-01	 8.8359524507e-01
 1.2266582459e+00	 5.9411916831e-01	 1.3857131458e+00
 1.2194741204e+00	 6.0872892816e-01	 1.2791332332e+00
 1.2121015078e+00	 6.2328001187e-01	 1.1727702031e+00
 1.2045409541e+00	 6.3776886739e-01	 1.0663132584e+00
 1.1967930929e+00	 6.5219194347e-01	 9.5868155938e-01
 1.1888586453e+00	 6.6654569229e-01	 8.4800029117e-01
 1.2333248668e+00	 5.9734807684e-01	 1.3566541410e+00
 1.2261016972e+00	 6.1203723755e-01	 1.2509614994e+00
 1.2186890160e+00	 6.2666740324e-01	 1.1450343027e+00
 1.2110873724e+00	 6.4123500254e-01	 1.0380841551e+00
 1.2032974032e+00	 6.5573646490e-01	 9.2853513130e-01
 1.1953198336e+00	 6.7016822323e-01	 8.1400101594e-01
 1.1630138921e+00	 6.5205556855e-01	 1.0034519882e+00
 1.1550701937e+00	 6.6602599452e-01	 9.0325740037e-01
 1.1469456341e+00	 6.7992167954e-01	 8.0677134183e-01
 1.1386411769e+00	 6.9373917872e-01	 7.0701295840e-01
 1.1301578720e+00	 7.0747506107e-01	 5.9627172770e-01
 1.1214968554e+00	 7.2112591210e-01	 4.6610634680e-01
 1.1694750804e+00	 6.5567809948e-01	 9.6098305820e-01
 1.1614872503e+00	 6.6972613893e-01	 8.6228472313e-01
 1.1533175542e+00	 6.8369902220e-01	 7.6867744966e-01
 1.1449669612e+00	 6.9759328527e-01	 6.7152779769e-01
 1.1364365269e+00	 7.1140547808e-01	 5.6156555433e-01
 1.1277273935e+00	 7.2513216717e-01	 4.2888774564e-01
 1.1759362687e+00	 6.5930063042e-01	 9.2114141490e-01
 1.1679043070e+00	 6.7342628335e-01	 8.2209019308e-01
 1.1596894744e+00	 6.8747636487e-01	 7.2998950858e-01
 1.1512927455e+00	 7.0144739182e-01	 6.3513598030e-01
 1.1427151817e+00	 7.1533589508e-01	 5.2726396608e-01
 1.1339579316e+00	 7.2913842224e-01	 3.9555330452e-01
 1.1823974570e+00	 6.6292316136e-01	 8.8359524507e-01
 1.1743213636e+00	 6.7712642776e-01	 7.8264040616e-01
 1.1660613946e+00	 6.9125370753e-01	 6.9077488708e-01
 1.1576185298e+00	 7.0530149837e-01	 5.9779822236e-01
 1.1489938366e+00	 7.1926631209e-01	 4.9300400354e-01
 1.1401884697e+00	 7.3314467731e-01	 3.6518997263e-01
 1.1888586453e+00	 6.6654569229e-01	 8.4800029117e-01
 1.1807384202e+00	 6.8082657217e-01	 7.4388301172e-01
 1.1724333148e+00	 6.9503105019e-01	 6.5107979563e-01
 1.1639443141e+00	 7.0915560492e-01	 5.5945636526e-01
 1.1552724914e+00	 7.2319672909e-01	 4.5841081029e-01
 1.1464190077e+00	 7.3715093237e-01	 3.3688466927e-01
 1.1953198336e+00	 6.7016822323e-01	 8.1400101594e-01
 1.1871554769e+00	 6.8452671659e-01	 7.0574811125e-01
 1.1788052350e+00	 6.9880839286e-01	 6.1093080287e-01
 1.1702700985e+00	 7.1300971147e-01	 5.2003488692e-01
 1.1615511463e+00	 7.2712714610e-01	 4.2309901100e-01
 1.1526495458e+00	 7.4115718744e-01	 3.0969689605e-01
 1.1214968554e+00	 7.2112591210e-01	 4.6610634680e-01
 1.1126593485e+00	 7.3468833655e-01	 3.6185341048e-01
 1.1036466585e+00	 7.4815896100e-01	 3.0844361972e-01
 1.0944601773e+00	 7.6153443655e-01	 2.3448528922e-01
 1.0851013814e+00	 7.7481144149e-01	 1.3799572447e-01
 1.0755718311e+00	 7.8798668390e-01	 2.4846219871e-02
 1.1277273935e+00	 7.2513216717e-01	 4.2888774564e-01
 1.1188407894e+00	 7.3876993842e-01	 3.1908042666e-01
 1.1097780288e+00	 7.5231539967e-01	 2.6048449510e-01
 1.1005405116e+00	 7.6576518342e-01	 1.8892695016e-01
 1.0911297224e+00	 7.7911594949e-01	 9.2989943920e-02
 1.0815472301e+00	 7.9236438770e-01	-2.0570748030e-02
 1.1339579316e+00	 7.2913842224e-01	 3.9555330452e-01
 1.1250222302e+00	 7.4285154029e-01	 2.8459878411e-01
 1.1159093992e+00	 7.5647183834e-01	 2.0765689812e-01
 1.1066208460e+00	 7.6999593029e-01	 1.3823665492e-01
 1.0971580634e+00	 7.8342045750e-01	 4.7480057797e-02
 1.0875226292e+00	 7.9674209150e-01	-6.3522693514e-02
 1.1401884697e+00	 7.3314467731e-01	 3.6518997263e-01
 1.1312036710e+00	 7.4693314216e-01	 2.5283347850e-01
 1.1220407695e+00	 7.6062827701e-01	 1.6135793862e-01
 1.1127011803e+00	 7.7422667716e-01	 8.1658163041e-02
 1.1031864044e+00	 7.8772496551e-01	 2.2034421537e-04
 1.0934980282e+00	 8.0111979530e-01	-1.0490638571e-01
 1.1464190077e+00	 7.3715093237e-01	 3.3688466927e-01
 1.1373851119e+00	 7.5101474403e-01	 2.2168553203e-01
 1.1281721398e+00	 7.6478471568e-01	 1.2026016770e-01
 1.1187815146e+00	 7.7845742403e-01	 3.0036046559e-02
 1.1092147454e+00	 7.9202947352e-01	-5.0002072005e-02
 1.0994734273e+00	 8.0549749910e-01	-1.4559278912e-01
 1.1526495458e+00	 7.4115718744e-01	 3.0969689605e-01
 1.1435665527e+00	 7.5509634590e-01	 1.8973779467e-01
 1.1343035101e+00	 7.6894115436e-01	 8.2628894369e-02
 1.1248618489e+00	 7.8268817090e-01	-1.3579171600e-02
 1.1152430864e+00	 7.9633398153e-01	-1.0059752892e-01
 1.1054488264e+00	 8.0987520290e-01	-1.8642663046e-01
 1.0755718311e+00	 7.8798668390e-01	 2.4846219871e-02
 1.0658731697e+00	 8.0105690431e-01	-8.9534902905e-02
 1.0560071229e+00	 8.1401887829e-01	-1.9453978942e-01
 1.0459754976e+00	 8.2686941901e-01	-2.8981860083e-01
 1.0357801813e+00	 8.3960537982e-01	-3.7398061214e-01
 1.0254231403e+00	 8.5222365673e-01	-4.4464068107e-01
 1.0815472301e+00	 7.9236438770e-01	-2.0570748030e-02
 1.0717946873e+00	 8.0550722045e-01	-1.3548012839e-01
 1.0618738291e+00	 8.1854120539e-01	-2.4087305555e-01
 1.0517864726e+00	 8.3146313801e-01	-3.3640540243e-01
 1.0415345156e+00	 8.4426985415e-01	-4.2065786746e-01
 1.0311199355e+00	 8.5695823260e-01	-4.9118408025e-01
 1.0875226292e+00	 7.9674209150e-01	-6.3522693514e-02
 1.0777162049e+00	 8.0995753658e-01	-1.7775951667e-01
 1.0677405354e+00	 8.2306353250e-01	-2.8350605129e-01
 1.0575974476e+00	 8.3605685700e-01	-3.7997256177e-01
 1.0472888500e+00	 8.4893432848e-01	-4.6527023431e-01
 1.0368167308e+00	 8.6169280847e-01	-5.3646202059e-01
 1.0934980282e+00	 8.0111979530e-01	-1.0490638571e-01
 1.0836377225e+00	 8.1440785272e-01	-2.1685726564e-01
 1.0736072416e+00	 8.2758585960e-01	-3.2262542060e-01
 1.0634084226e+00	 8.4065057600e-01	-4.2053152187e-01
 1.0530431843e+00	 8.5359880281e-01	-5.0778348394e-01
 1.0425135260e+00	 8.6642738435e-01	-5.8053113891e-01
 1.0994734273e+00	 8.0549749910e-01	-1.4559278912e-01
 1.0895592401e+00	 8.1885816885e-01	-2.5324035706e-01
 1.0794739478e+00	 8.3210818670e-01	-3.5840684275e-01
 1.0692193976e+00	 8.4524429499e-01	-4.5808651451e-01
 1.0587975187e+00	 8.5826327715e-01	-5.4815727313e-01
 1.0482103212e+00	 8.7116196022e-01	-6.2344024111e-01
 1.1054488264e+00	 8.0987520290e-01	-1.8642663046e-01
 1.0954807577e+00	 8.2330848499e-01	-2.8735789066e-01
 1.0853406541e+00	 8.3663051380e-01	-3.9101420108e-01
 1.0750303726e+00	 8.4983801398e-01	-4.9263363546e-01
 1.0645518530e+00	 8.6292775148e-01	-5.8634420160e-01
 1.0539071164e+00	 8.7589653609e-01	-6.6522942184e-01
 1.0254231403e+00	 8.5222365673e-01	-4.4464068107e-01
 1.0149064192e+00	 8.6472119094e-01	-5.1838853576e-01
 1.0042321391e+00	 8.7709497122e-01	-6.0764861019e-01
 9.9340249657e-01	 8.8934203633e-01	-7.0250492696e-01
 9.8241976182e-01	 9.0145947738e-01	-7.9235635648e-01
 9.7128627741e-01	 9.1344444007e-01	-8.6601527475e-01
 1.0311199355e+00	 8.5695823260e-01	-4.9118408025e-01
 1.0205447882e+00	 8.6952519756e-01	-5.6470409476e-01
 1.0098112066e+00	 8.8196772106e-01	-6.5379739353e-01
 9.9892139933e-01	 8.9428282542e-01	-7.4847348112e-01
 9.8787764939e-01	 9.0646758559e-01	-8.3802289869e-01
 9.7668231228e-01	 9.1851913140e-01	-9.1111890791e-01
 1.0368167308e+00	 8.6169280847e-01	-5.3646202059e-01
 1.0261831572e+00	 8.7432920417e-01	-6.0999639076e-01
 1.0153902740e+00	 8.8684047090e-01	-6.9864080133e-01
 1.0044403021e+00	 8.9922361452e-01	-7.9255950196e-01
 9.9333553695e-01	 9.1147569380e-01	-8.8115986630e-01
 9.8207834716e-01	 9.2359382274e-01	-9.5319666803e-01
 1.0425135260e+00	 8.6642738435e-01	-5.8053113891e-01
 1.0318215262e+00	 8.7913321079e-01	-6.5447167774e-01
 1.0209693414e+00	 8.9171322074e-01	-7.4250846734e-01
 1.0099592048e+00	 9.0416440361e-01	-8.3518584012e-01
 9.9879342452e-01	 9.1648380200e-01	-9.2224924676e-01
 9.8747438203e-01	 9.2866851407e-01	-9.9275169724e-01
 1.0482103212e+00	 8.7116196022e-01	-6.2344024111e-01
 1.0374598952e+00	 8.8393721741e-01	-6.9832553467e-01
 1.0265484089e+00	 8.9658597058e-01	-7.8571721954e-01
 1.0154781076e+00	 9.0910519270e-01	-8.7676120066e-01
 1.0042513121e+00	 9.2149191021e-01	-9.6175840940e-01
 9.9287041691e-01	 9.3374320541e-01	-1.0302729892e+00
 1.0539071164e+00	 8.7589653609e-01	-6.6522942184e-01
 1.0430982642e+00	 8.8874122402e-01	-7.4174208178e-01
 1.0321274763e+00	 9.0145872042e-01	-8.2857037750e-01
 1.0209970104e+00	 9.1404598179e-01	-9.1767950372e-01
 1.0097091997e+00	 9.2650001842e-01	-1.0001395093e+00
 9.9826645178e-01	 9.3881789674e-01	-1.0662348139e+00
 9.7128627741e-01	 9.1344444007e-01	-8.6601527475e-01
 9.6000445643e-01	 9.2529412697e-01	-9.3570444075e-01
 9.4857678086e-01	 9.3700579966e-01	-1.0156619961e+00
 9.3700579966e-01	 9.4857678086e-01	-1.0972164454e+00
 9.2529412697e-01	 9.6000445643e-01	-1.1716110339e+00
 9.1344444007e-01	 9.7128627741e-01	-1.2301143594e+00
 9.7668231228e-01	 9.1851913140e-01	-9.1111890791e-01
 9.6533781453e-01	 9.3043464990e-01	-9.8029163603e-01
 9.5384665186e-01	 9.4221138744e-01	-1.0599976749e+00
 9.4221138744e-01	 9.5384665186e-01	-1.1412704302e+00
 9.3043464990e-01	 9.6533781453e-01	-1.2150593125e+00
 9.1851913140e-01	 9.7668231228e-01	-1.2723444342e+00
 9.8207834716e-01	 9.2359382274e-01	-9.5319666803e-01
 9.7067117262e-01	 9.3557517283e-01	-1.0217428212e+00
 9.5911652287e-01	 9.4741697521e-01	-1.1014525159e+00
 9.4741697521e-01	 9.5911652287e-01	-1.1828936097e+00
 9.3557517283e-01	 9.7067117262e-01	-1.2565475972e+00
 9.2359382274e-01	 9.8207834716e-01	-1.3129288827e+00
 9.8747438203e-01	 9.2866851407e-01	-9.9275169724e-01
 9.7600453071e-01	 9.4071569575e-01	-1.0605458299e+00
 9.6438639387e-01	 9.5262256299e-01	-1.1404682480e+00
 9.5262256299e-01	 9.6438639387e-01	-1.2224531649e+00
 9.4071569575e-01	 9.7600453071e-01	-1.2963424516e+00
 9.2866851407e-01	 9.8747438203e-01	-1.3520099770e+00
 9.9287041691e-01	 9.3374320541e-01	-1.0302729892e+00
 9.8133788880e-01	 9.4585621868e-01	-1.0971757151e+00
 9.6965626488e-01	 9.5782815076e-01	-1.1774759516e+00
 9.5782815076e-01	 9.6965626488e-01	-1.2603084606e+00
 9.4585621868e-01	 9.8133788880e-01	-1.3347060908e+00
 9.3374320541e-01	 9.9287041691e-01	-1.3897296785e+00
 9.9826645178e-01	 9.3881789674e-01	-1.0662348139e+00
 9.8667124689e-01	 9.5099674161e-01	-1.1320941743e+00
 9.7492613588e-01	 9.6303373854e-01	-1.2128954652e+00
 9.6303373854e-01	 9.7492613588e-01	-1.2968104169e+00
 9.5099674161e-01	 9.8667124689e-01	-1.3718957040e+00
 9.3881789674e-01	 9.9826645178e-01	-1.4262288976e+00
 9.1344444007e-01	 9.7128627741e-01	-1.2301143594e+00
 9.0145947738e-01	 9.8241976182e-01	-1.2875209237e+00
 8.8934203633e-01	 9.9340249657e-01	-1.3572573775e+00
 8.7709497122e-01	 1.0042321391e+00	-1.4289615715e+00
 8.6472119094e-01	 1.0149064192e+00	-1.4928083846e+00
 8.5222365673e-01	 1.0254231403e+00	-1.5396196859e+00
 9.1851913140e-01	 9.7668231228e-01	-1.2723444342e+00
 9.0646758559e-01	 9.8787764939e-01	-1.3280563681e+00
 8.9428282542e-01	 9.9892139933e-01	-1.3959887207e+00
 8.8196772106e-01	 1.0098112066e+00	-1.4658457307e+00
 8.6952519756e-01	 1.0205447882e+00	-1.5278741296e+00
 8.5695823260e-01	 1.0311199355e+00	-1.5729764495e+00
 9.2359382274e-01	 9.8207834716e-01	-1.3129288827e+00
 9.1147569380e-01	 9.9333553695e-01	-1.3669419975e+00
 8.9922361452e-01	 1.0044403021e+00	-1.4328068114e+00
 8.8684047090e-01	 1.0153902740e+00	-1.5004547873e+00
 8.7432920417e-01	 1.0261831572e+00	-1.5603757559e+00
 8.6169280847e-01	 1.0368167308e+00	-1.6037342626e+00
 9.2866851407e-01	 9.8747438203e-01	-1.3520099770e+00
 9.1648380200e-01	 9.9879342452e-01	-1.4042343534e+00
 9.0416440361e-01	 1.0099592048e+00	-1.4677796327e+00
 8.9171322074e-01	 1.0209693414e+00	-1.5329622237e+00
 8.7913321079e-01	 1.0318215262e+00	-1.5906830800e+00
 8.6642738435e-01	 1.0425135260e+00	-1.6325467845e+00
 9.3374320541e-01	 9.9287041691e-01	-1.3897296785e+00
 9.2149191021e-01	 1.0042513121e+00	-1.4399929082e+00
 9.0910519270e-01	 1.0154781076e+00	-1.5009792550e+00
 8.9658597058e-01	 1.0265484089e+00	-1.5635447349e+00
 8.8393721741e-01	 1.0374598952e+00	-1.6191662806e+00
 8.7116196022e-01	 1.0482103212e+00	-1.6600632682e+00
 9.3881789674e-01	 9.9826645178e-01	-1.4262288976e+00
 9.2650001842e-01	 1.0097091997e+00	-1.4742792855e+00
 9.1404598179e-01	 1.0209970104e+00	-1.5324810748e+00
 9.0145872042e-01	 1.0321274763e+00	-1.5923815418e+00
 8.8874122402e-01	 1.0430982642e+00	-1.6461953403e+00
 8.7589653609e-01	 1.0539071164e+00	-1.6869281837e+00
 8.5222365673e-01	 1.0254231403e+00	-1.5396196859e+00
 8.3960537982e-01	 1.0357801813e+00	-1.5812963303e+00
 8.2686941901e-01	 1.0459754976e+00	-1.6323139798e+00
 8.1401887829e-01	 1.0560071229e+00	-1.6886551080e+00
 8.0105690431e-01	 1.0658731697e+00	-1.7473642892e+00
 7.8798668390e-01	 1.0755718311e+00	-1.8066202364e+00
 8.5695823260e-01	 1.0311199355e+00	-1.5729764495e+00
 8.4426985415e-01	 1.0415345156e+00	-1.6134567265e+00
 8.3146313801e-01	 1.0517864726e+00	-1.6638363777e+00
 8.1854120539e-01	 1.0618738291e+00	-1.7196871665e+00
 8.0550722045e-01	 1.0717946873e+00	-1.7776942253e+00
 7.9236438770e-01	 1.0815472301e+00	-1.8357316058e+00
 8.6169280847e-01	 1.0368167308e+00	-1.6037342626e+00
 8.4893432848e-01	 1.0472888500e+00	-1.6433909139e+00
 8.3605685700e-01	 1.0575974476e+00	-1.6936963522e+00
 8.2306353250e-01	 1.0677405354e+00	-1.7494318613e+00
 8.0995753658e-01	 1.0777162049e+00	-1.8065260494e+00
 7.9674209150e-01	 1.0875226292e+00	-1.8621349979e+00
 8.6642738435e-01	 1.0425135260e+00	-1.6325467845e+00
 8.5359880281e-01	 1.0530431843e+00	-1.6719848172e+00
 8.4065057600e-01	 1.0634084226e+00	-1.7228275848e+00
 8.2758585960e-01	 1.0736072416e+00	-1.7786921188e+00
 8.1440785272e-01	 1.0836377225e+00	-1.8343596305e+00
 8.0111979530e-01	 1.0934980282e+00	-1.8858613370e+00
 8.7116196022e-01	 1.0482103212e+00	-1.6600632682e+00
 8.5826327715e-01	 1.0587975187e+00	-1.7001162781e+00
 8.4524429499e-01	 1.0692193976e+00	-1.7521559650e+00
 8.3210818670e-01	 1.0794739478e+00	-1.8082671884e+00
 8.1885816885e-01	 1.0895592401e+00	-1.8616989509e+00
 8.0549749910e-01	 1.0994734273e+00	-1.9069569751e+00
 8.7589653609e-01	 1.0539071164e+00	-1.6869281837e+00
 8.6292775148e-01	 1.0645518530e+00	-1.7286548307e+00
 8.4983801398e-01	 1.0750303726e+00	-1.7825994107e+00
 8.3663051380e-01	 1.0853406541e+00	-1.8389524039e+00
 8.2330848499e-01	 1.0954807577e+00	-1.8890517096e+00
 8.0987520290e-01	 1.1054488264e+00	-1.9254830413e+00
 7.8798668390e-01	 1.0755718311e+00	-1.8066202364e+00
 7.7481144149e-01	 1.0851013814e+00	-1.8589982828e+00
 7.6153443655e-01	 1.0944601773e+00	-1.8947439579e+00
 7.4815896100e-01	 1.1036466585e+00	-1.9104713429e+00
 7.3468833655e-01	 1.1126593485e+00	-1.9080720829e+00
 7.2112591210e-01	 1.1214968554e+00	-1.9447555296e+00
 7.9236438770e-01	 1.0815472301e+00	-1.8357316058e+00
 7.7911594949e-01	 1.0911297224e+00	-1.8858413431e+00
 7.6576518342e-01	 1.1005405116e+00	-1.9169356406e+00
 7.5231539967e-01	 1.1097780288e+00	-1.9241391915e+00
 7.3876993842e-01	 1.1188407894e+00	-1.9231880430e+00
 7.2513216717e-01	 1.1277273935e+00	-1.9667444077e+00
 7.9674209150e-01	 1.0875226292e+00	-1.8621349979e+00
 7.8342045750e-01	 1.0971580634e+00	-1.9071093601e+00
 7.6999593029e-01	 1.1066208460e+00	-1.9290525781e+00
 7.5647183834e-01	 1.1159093992e+00	-1.9290478647e+00
 7.4285154029e-01	 1.1250222302e+00	-1.9426928807e+00
 7.2913842224e-01	 1.1339579316e+00	-1.9886916233e+00
 8.0111979530e-01	 1.0934980282e+00	-1.8858613370e+00
 7.8772496551e-01	 1.1031864044e+00	-1.9224197952e+00
 7.7422667716e-01	 1.1127011803e+00	-1.9312617718e+00
 7.6062827701e-01	 1.1220407695e+00	-1.9392193371e+00
 7.4693314216e-01	 1.1312036710e+00	-1.9635016900e+00
 7.3314467731e-01	 1.1401884697e+00	-2.0102270383e+00
 8.0549749910e-01	 1.0994734273e+00	-1.9069569751e+00
 7.9202947352e-01	 1.1092147454e+00	-1.9314155524e+00
 7.7845742403e-01	 1.1187815146e+00	-1.9369413229e+00
 7.6478471568e-01	 1.1281721398e+00	-1.9538437286e+00
 7.5101474403e-01	 1.1373851119e+00	-1.9843144407e+00
 7.3715093237e-01	 1.1464190077e+00	-2.0309635518e+00
 8.0987520290e-01	 1.1054488264e+00	-1.9254830413e+00
 7.9633398153e-01	 1.1152430864e+00	-1.9380265608e+00
 7.8268817090e-01	 1.1248618489e+00	-1.9502848180e+00
 7.6894115436e-01	 1.1343035101e+00	-1.9715905266e+00
 7.5509634590e-01	 1.1435665527e+00	-2.0041643626e+00
 7.4115718744e-01	 1.1526495458e+00	-2.0504832419e+00
 7.2112591210e-01	 1.1214968554e+00	-1.9447555296e+00
 7.0747506107e-01	 1.1301578720e+00	-2.0035911621e+00
 6.9373917872e-01	 1.1386411769e+00	-2.0457936396e+00
 6.7992167954e-01	 1.1469456341e+00	-2.0772349612e+00
 6.6602599452e-01	 1.1550701937e+00	-2.1030823231e+00
 6.5205556855e-01	 1.1630138921e+00	-2.1278091525e+00
 7.2513216717e-01	 1.1277273935e+00	-1.9667444077e+00
 7.1140547808e-01	 1.1364365269e+00	-2.0261202796e+00
 6.9759328527e-01	 1.1449669612e+00	-2.0634946234e+00
 6.8369902220e-01	 1.1533175542e+00	-2.0872239749e+00
 6.6972613893e-01	 1.1614872503e+00	-2.1050387234e+00
 6.5567809948e-01	 1.1694750804e+00	-2.1240475353e+00
 7.2913842224e-01	 1.1339579316e+00	-1.9886916233e+00
 7.1533589508e-01	 1.1427151817e+00	-2.0454990075e+00
 7.0144739182e-01	 1.1512927455e+00	-2.0770930307e+00
 6.8747636487e-01	 1.1596894744e+00	-2.0937736016e+00
 6.7342628335e-01	 1.1679043070e+00	-2.1052675114e+00
 6.5930063042e-01	 1.1759362687e+00	-2.1207277166e+00
 7.3314467731e-01	 1.1401884697e+00	-2.0102270383e+00
 7.1926631209e-01	 1.1489938366e+00	-2.0619473687e+00
 7.0530149837e-01	 1.1576185298e+00	-2.0871215420e+00
 6.9125370753e-01	 1.1660613946e+00	-2.0974610466e+00
 6.7712642776e-01	 1.1743213636e+00	-2.1041319174e+00
 6.6292316136e-01	 1.1823974570e+00	-2.1177503329e+00
 7.3715093237e-01	 1.1464190077e+00	-2.0309635518e+00
 7.2319672909e-01	 1.1552724914e+00	-2.0756557813e+00
 7.0915560492e-01	 1.1639443141e+00	-2.0940766395e+00
 6.9503105019e-01	 1.1724333148e+00	-2.0988265723e+00
 6.8082657217e-01	 1.1807384202e+00	-2.1019631296e+00
 6.6654569229e-01	 1.1888586453e+00	-2.1149943146e+00
 7.4115718744e-01	 1.1526495458e+00	-2.0504832419e+00
 7.2712714610e-01	 1.1615511463e+00	-2.0867862137e+00
 7.1300971147e-01	 1.1702700985e+00	-2.0984199068e+00
 6.9880839286e-01	 1.1788052350e+00	-2.0983747849e+00
 6.8452671659e-01	 1.1871554769e+00	-2.0990614140e+00
 6.7016822323e-01	 1.1953198336e+00	-2.1123176918e+00
 6.5205556855e-01	 1.1630138921e+00	-2.1278091525e+00
 6.3801385774e-01	 1.1707758518e+00	-2.1476752301e+00
 6.2390432680e-01	 1.1783552812e+00	-2.1597534195e+00
 6.0973044640e-01	 1.1857514750e+00	-2.1686675148e+00
 5.9549569059e-01	 1.1929638135e+00	-2.1783156481e+00
 5.8120353422e-01	 1.1999917623e+00	-2.1918943686e+00
 6.5567809948e-01	 1.1694750804e+00	-2.1240475353e+00
 6.4155837917e-01	 1.1772801621e+00	-2.1416992398e+00
 6.2737046195e-01	 1.1849016994e+00	-2.1536852869e+00
 6.1311783777e-01	 1.1923389832e+00	-2.1634061978e+00
 5.9880399998e-01	 1.1995913902e+00	-2.1734694366e+00
 5.8443244274e-01	 1.2066583832e+00	-2.1857175105e+00
 6.5930063042e-01	 1.1759362687e+00	-2.1207277166e+00
 6.4510290060e-01	 1.1837844724e+00	-2.1376862897e+00
 6.3083659710e-01	 1.1914481177e+00	-2.1499416586e+00
 6.1650522914e-01	 1.1989264914e+00	-2.1599697219e+00
 6.0211230938e-01	 1.2062189670e+00	-2.1694058657e+00
 5.8766135127e-01	 1.2133250041e+00	-2.1790761145e+00
 6.6292316136e-01	 1.1823974570e+00	-2.1177503329e+00
 6.4864742204e-01	 1.1902887826e+00	-2.1350665773e+00
 6.3430273224e-01	 1.1979945359e+00	-2.1477049751e+00
 6.1989262051e-01	 1.2055139996e+00	-2.1575099695e+00
 6.0542061877e-01	 1.2128465437e+00	-2.1654577503e+00
 5.9089025979e-01	 1.2199916250e+00	-2.1716894939e+00
 6.6654569229e-01	 1.1888586453e+00	-2.1149943146e+00
 6.5219194347e-01	 1.1967930929e+00	-2.1332591343e+00
 6.3776886739e-01	 1.2045409541e+00	-2.1461522501e+00
 6.2328001187e-01	 1.2121015078e+00	-2.1551744561e+00
 6.0872892816e-01	 1.2194741204e+00	-2.1609500471e+00
 5.9411916831e-01	 1.2266582459e+00	-2.1632611931e+00
 6.7016822323e-01	 1.1953198336e+00	-2.1123176918e+00
 6.5573646490e-01	 1.2032974032e+00	-2.1316723146e+00
 6.4123500254e-01	 1.2110873724e+00	-2.1444553692e+00
 6.2666740324e-01	 1.2186890160e+00	-2.1521065668e+00
 6.1203723755e-01	 1.2261016972e+00	-2.1552001522e+00
 5.9734807684e-01	 1.2333248668e+00	-2.1534794665e+00
 5.8120353422e-01	 1.1999917623e+00	-2.1918943686e+00
 5.6685745039e-01	 1.2068348722e+00	-2.2080156255e+00
 5.5246090793e-01	 1.2134927783e+00	-2.2236196930e+00
 5.3801736892e-01	 1.2199651997e+00	-2.2385402986e+00
 5.2353028628e-01	 1.2262519387e+00	-2.2521808723e+00
 5.0900310132e-01	 1.2323528799e+00	-2.2635534643e+00
 5.8443244274e-01	 1.2066583832e+00	-2.1857175105e+00
 5.7000665845e-01	 1.2135395104e+00	-2.1985341257e+00
 5.5553013519e-01	 1.2202344048e+00	-2.2099439630e+00
 5.4100635431e-01	 1.2267427842e+00	-2.2203668120e+00
 5.2643878787e-01	 1.2330644495e+00	-2.2298128696e+00
 5.1183089633e-01	 1.2391992848e+00	-2.2379206426e+00
 5.8766135127e-01	 1.2133250041e+00	-2.1790761145e+00
 5.7315586650e-01	 1.2202441485e+00	-2.1877669104e+00
 5.5859936246e-01	 1.2269760314e+00	-2.1948779554e+00
 5.4399533969e-01	 1.2335203686e+00	-2.2012432555e+00
 5.2934728946e-01	 1.2398769602e+00	-2.2072917812e+00
 5.1465869133e-01	 1.2460456897e+00	-2.2130850064e+00
 5.9089025979e-01	 1.2199916250e+00	-2.1716894939e+00
 5.7630507456e-01	 1.2269487867e+00	-2.1758345556e+00
 5.6166858972e-01	 1.2337176579e+00	-2.1787735186e+00
 5.4698432507e-01	 1.2402979530e+00	-2.1815858685e+00
 5.3225579105e-01	 1.2466894710e+00	-2.1849346189e+00
 5.1748648634e-01	 1.2528920946e+00	-2.1891041336e+00
 5.9411916831e-01	 1.2266582459e+00	-2.1632611931e+00
 5.7945428262e-01	 1.2336534249e+00	-2.1628336887e+00
 5.6473781699e-01	 1.2404592845e+00	-2.1619541221e+00
 5.4997331046e-01	 1.2470755375e+00	-2.1617817650e+00
 5.3516429265e-01	 1.2535019818e+00	-2.1630321373e+00
 5.2031428135e-01	 1.2597384995e+00	-2.1660157530e+00
 5.9734807684e-01	 1.2333248668e+00	-2.1534794665e+00
 5.8260349068e-01	 1.2403580631e+00	-2.1488376570e+00
 5.6780704426e-01	 1.2472009110e+00	-2.1447156150e+00
 5.5296229584e-01	 1.2538531219e+00	-2.1421896836e+00
 5.3807279424e-01	 1.2603144925e+00	-2.1418494780e+00
 5.2314207635e-01	 1.2665849044e+00	-2.1438381890e+00
 5.0900310132e-01	 1.2323528799e+00	-2.2635534643e+00
 4.9443924140e-01	 1.2382679897e+00	-2.2694581847e+00
 4.7984211763e-01	 1.2439973151e+00	-2.2693266680e+00
 4.6521512261e-01	 1.2495409827e+00	-2.2655891883e+00
 4.5056162823e-01	 1.2548991979e+00	-2.2603594173e+00
 4.3588498347e-01	 1.2600722435e+00	-2.2554724679e+00
 5.1183089633e-01	 1.2391992848e+00	-2.2379206426e+00
 4.9718612607e-01	 1.2451472563e+00	-2.2416043007e+00
 4.8250790717e-01	 1.2509084113e+00	-2.2397880904e+00
 4.6779965107e-01	 1.2564828771e+00	-2.2345864357e+00
 4.5306474839e-01	 1.2618708601e+00	-2.2277664787e+00
 4.3830656671e-01	 1.2670726449e+00	-2.2207883869e+00
 5.1465869133e-01	 1.2460456897e+00	-2.2130850064e+00
 4.9993301074e-01	 1.2520265229e+00	-2.2152511658e+00
 4.8517369671e-01	 1.2578195075e+00	-2.2119905975e+00
 4.7038417953e-01	 1.2634247714e+00	-2.2051722601e+00
 4.5556786854e-01	 1.2688425223e+00	-2.1963000085e+00
 4.4072814995e-01	 1.2740730463e+00	-2.1865547583e+00
 5.1748648634e-01	 1.2528920946e+00	-2.1891041336e+00
 5.0267989542e-01	 1.2589057895e+00	-2.1901892812e+00
 4.8783948626e-01	 1.2647306037e+00	-2.1855990501e+00
 4.7296870799e-01	 1.2703666658e+00	-2.1770254933e+00
 4.5807098870e-01	 1.2758141846e+00	-2.1657904438e+00
 4.4314973320e-01	 1.2810734476e+00	-2.1528891337e+00
 5.2031428135e-01	 1.2597384995e+00	-2.1660157530e+00
 5.0542678009e-01	 1.2657850562e+00	-2.1661959311e+00
 4.9050527580e-01	 1.2716416999e+00	-2.1602687067e+00
 4.7555323645e-01	 1.2773085601e+00	-2.1498160008e+00
 4.6057410886e-01	 1.2827858468e+00	-2.1360569541e+00
 4.4557131644e-01	 1.2880738490e+00	-2.1198926029e+00
 5.2314207635e-01	 1.2665849044e+00	-2.1438381890e+00
 5.0817366477e-01	 1.2726643228e+00	-2.1430354232e+00
 4.9317106534e-01	 1.2785527961e+00	-2.1356453435e+00
 4.7813776491e-01	 1.2842504545e+00	-2.1232047629e+00
 4.6307722901e-01	 1.2897575090e+00	-2.1069075645e+00
 4.4799289968e-01	 1.2950742503e+00	-2.0876500385e+00
 4.3588498347e-01	 1.2600722435e+00	-2.2554724679e+00
 4.2118851237e-01	 1.2650604787e+00	-2.2584108287e+00
 4.0647551196e-01	 1.2698643376e+00	-2.2697890499e+00
 3.9174925028e-01	 1.2744843281e+00	-2.2809618304e+00
 3.7701296448e-01	 1.2789210306e+00	-2.2833384338e+00
 3.6226985898e-01	 1.2831750960e+00	-2.2718167944e+00
 4.3830656671e-01	 1.2670726449e+00	-2.2207883869e+00
 4.2352844855e-01	 1.2720885925e+00	-2.2211823317e+00
 4.0873370925e-01	 1.2769191395e+00	-2.2299587063e+00
 3.9392563501e-01	 1.2815647966e+00	-2.2386166117e+00
 3.7910748095e-01	 1.2860261474e+00	-2.2387328355e+00
 3.6428246931e-01	 1.2903038466e+00	-2.2241096634e+00
 4.4072814995e-01	 1.2740730463e+00	-2.1865547583e+00
 4.2586838473e-01	 1.2791167063e+00	-2.1838033779e+00
 4.1099190654e-01	 1.2839739414e+00	-2.1896842933e+00
 3.9610201973e-01	 1.2886452651e+00	-2.1958515305e+00
 3.8120199742e-01	 1.2931312642e+00	-2.1940481007e+00
 3.6629507964e-01	 1.2974325971e+00	-2.1771814797e+00
 4.4314973320e-01	 1.2810734476e+00	-2.1528891337e+00
 4.2820832091e-01	 1.2861448200e+00	-2.1466865648e+00
 4.1325010383e-01	 1.2910287432e+00	-2.1495551615e+00
 3.9827840445e-01	 1.2957257336e+00	-2.1533142874e+00
 3.8329651389e-01	 1.3002363811e+00	-2.1498718817e+00
 3.6830768997e-01	 1.3045613476e+00	-2.1315637336e+00
 4.4557131644e-01	 1.2880738490e+00	-2.1198926029e+00
 4.3054825709e-01	 1.2931729338e+00	-2.1102227101e+00
 4.1550830112e-01	 1.2980835451e+00	-2.1101361821e+00
 4.0045478918e-01	 1.3028062021e+00	-2.1116280197e+00
 3.8539103036e-01	 1.3073414979e+00	-2.1067697962e+00
 3.7032030029e-01	 1.3116900982e+00	-2.0877688143e+00
 4.4799289968e-01	 1.2950742503e+00	-2.0876500385e+00
 4.3288819327e-01	 1.3002010476e+00	-2.0747812246e+00
 4.1776649841e-01	 1.3051383470e+00	-2.0719681780e+00
 4.0263117390e-01	 1.3098866706e+00	-2.0713917233e+00
 3.8748554683e-01	 1.3144466147e+00	-2.0652857706e+00
 3.7233291062e-01	 1.3188188487e+00	-2.0459978849e+00
 3.6226985898e-01	 1.2831750960e+00	-2.2718167944e+00
 3.4752310367e-01	 1.2872472452e+00	-2.2626265800e+00
 3.3277583221e-01	 1.2911382665e+00	-2.2610381390e+00
 3.1803114038e-01	 1.2948490150e+00	-2.2630955197e+00
 3.0329208451e-01	 1.2983804101e+00	-2.2648851632e+00
 2.8856167996e-01	 1.3017334346e+00	-2.2625688537e+00
 3.6428246931e-01	 1.2903038466e+00	-2.2241096634e+00
 3.4945378758e-01	 1.2943986188e+00	-2.2123534395e+00
 3.3462458683e-01	 1.2983112569e+00	-2.2095222499e+00
 3.1979798005e-01	 1.3020426206e+00	-2.2108455534e+00
 3.0497704053e-01	 1.3055936346e+00	-2.2116252802e+00
 2.9016480040e-01	 1.3089652870e+00	-2.2072694083e+00
 3.6629507964e-01	 1.2974325971e+00	-2.1771814797e+00
 3.5138447149e-01	 1.3015499923e+00	-2.1629729530e+00
 3.3647334146e-01	 1.3054842473e+00	-2.1589706828e+00
 3.2156481972e-01	 1.3092362262e+00	-2.1595749906e+00
 3.0666199656e-01	 1.3128068591e+00	-2.1593002215e+00
 2.9176792085e-01	 1.3161971394e+00	-2.1528086703e+00
 3.6830768997e-01	 1.3045613476e+00	-2.1315637336e+00
 3.5331515540e-01	 1.3087013659e+00	-2.1148217676e+00
 3.3832209608e-01	 1.3126572376e+00	-2.1096113026e+00
 3.2333165939e-01	 1.3164298319e+00	-2.1094888683e+00
 3.0834695258e-01	 1.3200200836e+00	-2.1081780219e+00
 2.9337104129e-01	 1.3234289918e+00	-2.0996033507e+00
 3.7032030029e-01	 1.3116900982e+00	-2.0877688143e+00
 3.5524583931e-01	 1.3158527395e+00	-2.0682261257e+00
 3.4017085070e-01	 1.3198302280e+00	-2.0616679135e+00
 3.2509849905e-01	 1.3236234375e+00	-2.0607921532e+00
 3.1003190861e-01	 1.3272333081e+00	-2.0585282893e+00
 2.9497416174e-01	 1.3306608442e+00	-2.0480710369e+00
 3.7233291062e-01	 1.3188188487e+00	-2.0459978849e+00
 3.5717652322e-01	 1.3230041131e+00	-2.0235010236e+00
 3.4201960533e-01	 1.3270032184e+00	-2.0153594019e+00
 3.2686533872e-01	 1.3308170431e+00	-2.0136889235e+00
 3.1171686463e-01	 1.3344465326e+00	-2.0106214763e+00
 2.9657728218e-01	 1.3378926966e+00	-1.9986296069e+00
 2.8856167996e-01	 1.3017334346e+00	-2.2625688537e+00
 2.7384289971e-01	 1.3049091325e+00	-2.2556865216e+00
 2.5913867297e-01	 1.3079086076e+00	-2.2474071465e+00
 2.4445188391e-01	 1.3107330217e+00	-2.2395202839e+00
 2.2978537043e-01	 1.3133835926e+00	-2.2339503560e+00
 2.1514192301e-01	 1.3158615925e+00	-2.2327301365e+00
 2.9016480040e-01	 1.3089652870e+00	-2.2072694083e+00
 2.7536424915e-01	 1.3121586277e+00	-2.1975229908e+00
 2.6057833226e-01	 1.3151747666e+00	-2.1864063665e+00
 2.4580994993e-01	 1.3180148718e+00	-2.1759749614e+00
 2.3106195582e-01	 1.3206801681e+00	-2.1684525356e+00
 2.1633715592e-01	 1.3231719347e+00	-2.1662009467e+00
 2.9176792085e-01	 1.3161971394e+00	-2.1528086703e+00
 2.7688559859e-01	 1.3194081229e+00	-2.1401405931e+00
 2.6201799156e-01	 1.3224409255e+00	-2.1262340997e+00
 2.4716801595e-01	 1.3252967220e+00	-2.1133886930e+00
 2.3233854121e-01	 1.3279767436e+00	-2.1041022164e+00
 2.1753238882e-01	 1.3304822769e+00	-2.1010369513e+00
 2.9337104129e-01	 1.3234289918e+00	-2.0996033507e+00
 2.7840694804e-01	 1.3266576180e+00	-2.0841117525e+00
 2.6345765085e-01	 1.3297070844e+00	-2.0675477180e+00
 2.4852608197e-01	 1.3325785721e+00	-2.0524342188e+00
 2.3361512660e-01	 1.3352733191e+00	-2.0415192276e+00
 2.1872762173e-01	 1.3377926191e+00	-2.0377382022e+00
 2.9497416174e-01	 1.3306608442e+00	-2.0480710369e+00
 2.7992829748e-01	 1.3339071132e+00	-2.0300084512e+00
 2.6489731015e-01	 1.3369732434e+00	-2.0110039137e+00
 2.4988414800e-01	 1.3398604222e+00	-1.9937844294e+00
 2.3489171199e-01	 1.3425698947e+00	-1.9813254363e+00
 2.1992285463e-01	 1.3451029613e+00	-1.9768097203e+00
 2.9657728218e-01	 1.3378926966e+00	-1.9986296069e+00
 2.8144964692e-01	 1.3411566084e+00	-1.9784017915e+00
 2.6633696944e-01	 1.3442394023e+00	-1.9572583689e+00
 2.5124221402e-01	 1.3471422723e+00	-1.9381121040e+00
 2.3616829738e-01	 1.3498664702e+00	-1.9241445145e+00
 2.2111808754e-01	 1.3524133035e+00	-1.9187612547e+00
 2.1514192301e-01	 1.3158615925e+00	-2.2327301365e+00
 2.0052428365e-01	 1.3181683464e+00	-2.2345718103e+00
 1.8593514486e-01	 1.3203052297e+00	-2.2361000245e+00
 1.7137714870e-01	 1.3222736671e+00	-2.2362357171e+00
 1.5685288597e-01	 1.3240751300e+00	-2.2338119972e+00
 1.4236489539e-01	 1.3257111353e+00	-2.2275336987e+00
 2.1633715592e-01	 1.3231719347e+00	-2.1662009467e+00
 2.0163830745e-01	 1.3254915039e+00	-2.1676096291e+00
 1.8696811789e-01	 1.3276402588e+00	-2.1686562566e+00
 1.7232924397e-01	 1.3296196319e+00	-2.1681352828e+00
 1.5772429089e-01	 1.3314311030e+00	-2.1647650828e+00
 1.4315581147e-01	 1.3330761972e+00	-2.1571440640e+00
 2.1753238882e-01	 1.3304822769e+00	-2.1010369513e+00
 2.0275233125e-01	 1.3328146614e+00	-2.1021981052e+00
 1.8800109091e-01	 1.3349752879e+00	-2.1028840281e+00
 1.7328133924e-01	 1.3369655967e+00	-2.1017783933e+00
 1.5859569582e-01	 1.3387870759e+00	-2.0975045946e+00
 1.4394672756e-01	 1.3404412591e+00	-2.0885781519e+00
 2.1872762173e-01	 1.3377926191e+00	-2.0377382022e+00
 2.0386635505e-01	 1.3401378188e+00	-2.0386988830e+00
 1.8903406394e-01	 1.3423103169e+00	-2.0390355517e+00
 1.7423343451e-01	 1.3443115615e+00	-2.0373373521e+00
 1.5946710074e-01	 1.3461430489e+00	-2.0321530045e+00
 1.4473764364e-01	 1.3478063209e+00	-2.0219392356e+00
 2.1992285463e-01	 1.3451029613e+00	-1.9768097203e+00
 2.0498037885e-01	 1.3474609763e+00	-1.9774815259e+00
 1.9006703697e-01	 1.3496453460e+00	-1.9773729142e+00
 1.7518552978e-01	 1.3516575264e+00	-1.9749953116e+00
 1.6033850566e-01	 1.3534990218e+00	-1.9688436415e+00
 1.4552855973e-01	 1.3551713828e+00	-1.9573405049e+00
 2.2111808754e-01	 1.3524133035e+00	-1.9187612547e+00
 2.0609440264e-01	 1.3547841338e+00	-1.9189232548e+00
 1.9110000999e-01	 1.3569803750e+00	-1.9181678126e+00
 1.7613762505e-01	 1.3590034912e+00	-1.9149460241e+00
 1.6120991058e-01	 1.3608549947e+00	-1.9077204758e+00
 1.4631947581e-01	 1.3625364446e+00	-1.8949048997e+00
 1.4236489539e-01	 1.3257111353e+00	-2.2275336987e+00
 1.2791566286e-01	 1.3271832432e+00	-2.2204869895e+00
 1.1350762087e-01	 1.3284930552e+00	-2.2163122374e+00
 9.9143147833e-02	 1.3296422128e+00	-2.2142463600e+00
 8.4824567643e-02	 1.3306323950e+00	-2.2132543542e+00
 7.0554149180e-02	 1.3314653168e+00	-2.2119878698e+00
 1.4315581147e-01	 1.3330761972e+00	-2.1571440640e+00
 1.2862630543e-01	 1.3345564834e+00	-2.1485930364e+00
 1.1413821876e-01	 1.3358735722e+00	-2.1431124192e+00
 9.9693943098e-02	 1.3370291140e+00	-2.1400233466e+00
 8.5295815241e-02	 1.3380247971e+00	-2.1383698129e+00
 7.0946116675e-02	 1.3388623463e+00	-2.1368734802e+00
 1.4394672756e-01	 1.3404412591e+00	-2.0885781519e+00
 1.2933694801e-01	 1.3419297237e+00	-2.0785876279e+00
 1.1476881665e-01	 1.3432540892e+00	-2.0718995979e+00
 1.0024473836e-01	 1.3444160151e+00	-2.0679050712e+00
 8.5767062839e-02	 1.3454171993e+00	-2.0657125530e+00
 7.1338084171e-02	 1.3462593759e+00	-2.0640989908e+00
 1.4473764364e-01	 1.3478063209e+00	-2.0219392356e+00
 1.3004759058e-01	 1.3493029639e+00	-2.0105640604e+00
 1.1539941455e-01	 1.3506346061e+00	-2.0027454957e+00
 1.0079553363e-01	 1.3518029163e+00	-1.9979315410e+00
 8.6238310437e-02	 1.3528096015e+00	-1.9952821975e+00
 7.1730051666e-02	 1.3536564054e+00	-1.9936164488e+00
 1.4552855973e-01	 1.3551713828e+00	-1.9573405049e+00
 1.3075823315e-01	 1.3566762041e+00	-1.9446241524e+00
 1.1603001244e-01	 1.3580151231e+00	-1.9357289920e+00
 1.0134632890e-01	 1.3591898175e+00	-1.9301485862e+00
 8.6709558035e-02	 1.3602020037e+00	-1.9270828884e+00
 7.2122019161e-02	 1.3610534349e+00	-1.9253811495e+00
 1.4631947581e-01	 1.3625364446e+00	-1.8949048997e+00
 1.3146887572e-01	 1.3640494444e+00	-1.8808781321e+00
 1.1666061034e-01	 1.3653956401e+00	-1.8709360574e+00
 1.0189712416e-01	 1.3665767187e+00	-1.8646078319e+00
 8.7180805633e-02	 1.3675944059e+00	-1.8611232904e+00
 7.2513986657e-02	 1.3684504645e+00	-1.8593516638e+00
 7.0554149180e-02	 1.3314653168e+00	-2.2119878698e+00
 5.6334105934e-02	 1.3321427274e+00	-2.2117207186e+00
 4.2166595687e-02	 1.3326664084e+00	-2.2133642765e+00
 2.8053720246e-02	 1.3330381715e+00	-2.2144149011e+00
 1.3997525244e-02	 1.3332598573e+00	-2.2118789756e+00
 0.0000000000e+00	 1.3333333333e+00	-2.2022531899e+00
 7.0946116675e-02	 1.3388623463e+00	-2.1368734802e+00
 5.6647073190e-02	 1.3395435204e+00	-2.1365610746e+00
 4.2400854552e-02	 1.3400701106e+00	-2.1380546347e+00
 2.8209574248e-02	 1.3404439391e+00	-2.1388303861e+00
 1.4075289273e-02	 1.3406668565e+00	-2.1358485579e+00
 0.0000000000e+00	 1.3407407407e+00	-2.1255310685e+00
 7.1338084171e-02	 1.3462593759e+00	-2.0640989908e+00
 5.6960040445e-02	 1.3469443133e+00	-2.0638130362e+00
 4.2635113417e-02	 1.3474738129e+00	-2.0651818663e+00
 2.8365428249e-02	 1.3478497067e+00	-2.0656853220e+00
 1.4153053303e-02	 1.3480738557e+00	-2.0622617598e+00
 0.0000000000e+00	 1.3481481481e+00	-2.0512829534e+00
 7.1730051666e-02	 1.3536564054e+00	-1.9936164488e+00
 5.7273007700e-02	 1.3543451062e+00	-1.9933871754e+00
 4.2869372282e-02	 1.3548775152e+00	-1.9946339734e+00
 2.8521282250e-02	 1.3552554743e+00	-1.9948647826e+00
 1.4230817332e-02	 1.3554808549e+00	-1.9910210805e+00
 0.0000000000e+00	 1.3555555556e+00	-1.9794498072e+00
 7.2122019161e-02	 1.3610534349e+00	-1.9253811495e+00
 5.7585974955e-02	 1.3617458992e+00	-1.9251958177e+00
 4.3103631147e-02	 1.3622812174e+00	-1.9262987498e+00
 2.8677136252e-02	 1.3626612419e+00	-1.9262512221e+00
 1.4308581361e-02	 1.3628878541e+00	-1.9220235571e+00
 0.0000000000e+00	 1.3629629630e+00	-1.9099638750e+00
 7.2513986657e-02	 1.3684504645e+00	-1.8593516638e+00
 5.7898942210e-02	 1.3691466921e+00	-1.8591530956e+00
 4.3337890012e-02	 1.3696849197e+00	-1.8600638677e+00
 2.8832990253e-02	 1.3700670096e+00	-1.8597246032e+00
 1.4386345390e-02	 1.3702948533e+00	-1.8551609424e+00
 0.0000000000e+00	 1.3703703704e+00	-1.8427489208e+00
 1.3703703704e+00	 0.0000000000e+00	 3.8078923031e+00
 1.3702948533e+00	 1.4386345390e-02	 3.8074380533e+00
 1.3700670096e+00	 2.8832990253e-02	 3.8027592775e+00
 1.3696849197e+00	 4.3337890012e-02	 3.7943200873e+00
 1.3691466921e+00	 5.7898942210e-02	 3.7821857832e+00
 1.3684504645e+00	 7.2513986657e-02	 3.7660654495e+00
 1.3777777778e+00	 0.0000000000e+00	 3.8124323101e+00
 1.3777018525e+00	 1.4464109419e-02	 3.8119723658e+00
 1.3774727772e+00	 2.8988844254e-02	 3.8072350674e+00
 1.3770886220e+00	 4.3572148877e-02	 3.7986983862e+00
 1.3765474850e+00	 5.8211909465e-02	 3.7864099324e+00
 1.3758474940e+00	 7.2905954152e-02	 3.7700326724e+00
 1.3851851852e+00	 0.0000000000e+00	 3.8160623549e+00
 1.3851088517e+00	 1.4541873448e-02	 3.8156497184e+00
 1.3848785448e+00	 2.9144698256e-02	 3.8108643889e+00
 1.3844923242e+00	 4.3806407742e-02	 3.8022152102e+00
 1.3839482780e+00	 5.8524876721e-02	 3.7897485363e+00
 1.3832445236e+00	 7.3297921648e-02	 3.7730971642e+00
 1.3925925926e+00	 0.0000000000e+00	 3.8187207881e+00
 1.3925158509e+00	 1.4619637477e-02	 3.8184060695e+00
 1.3922843124e+00	 2.9300552257e-02	 3.8135918531e+00
 1.3918960265e+00	 4.4040666607e-02	 3.8048335471e+00
 1.3913490709e+00	 5.8837843976e-02	 3.7921913158e+00
 1.3906415531e+00	 7.3689889143e-02	 3.7752823280e+00
 1.4000000000e+00	 0.0000000000e+00	 3.8203460817e+00
 1.3999228502e+00	 1.4697401507e-02	 3.8201772427e+00
 1.3996900800e+00	 2.9456406259e-02	 3.8153616897e+00
 1.3992997288e+00	 4.4274925472e-02	 3.8065157612e+00
 1.3987498638e+00	 5.9150811231e-02	 3.7937271294e+00
 1.3980385826e+00	 7.4081856639e-02	 3.7766104646e+00
 1.4074074074e+00	 0.0000000000e+00	 3.8208768256e+00
 1.4073298494e+00	 1.4775165536e-02	 3.8208989287e+00
 1.4070958476e+00	 2.9612260260e-02	 3.8161177542e+00
 1.4067034311e+00	 4.4509184337e-02	 3.8072236092e+00
 1.4061506567e+00	 5.9463778486e-02	 3.7943439970e+00
 1.4054356122e+00	 7.4473824134e-02	 3.7771028053e+00
 1.3684504645e+00	 7.2513986657e-02	 3.7660654495e+00
 1.3675944059e+00	 8.7180805633e-02	 3.7472789826e+00
 1.3665767187e+00	 1.0189712416e-01	 3.7269510695e+00
 1.3653956401e+00	 1.1666061034e-01	 3.7041318720e+00
 1.3640494444e+00	 1.3146887572e-01	 3.6777549404e+00
 1.3625364446e+00	 1.4631947581e-01	 3.6467078543e+00
 1.3758474940e+00	 7.2905954152e-02	 3.7700326724e+00
 1.3749868081e+00	 8.7652053231e-02	 3.7508903608e+00
 1.3739636199e+00	 1.0244791943e-01	 3.7301905639e+00
 1.3727761571e+00	 1.1729120823e-01	 3.7070249754e+00
 1.3714226846e+00	 1.3217951829e-01	 3.6803565182e+00
 1.3699015065e+00	 1.4711039190e-01	 3.6490943312e+00
 1.3832445236e+00	 7.3297921648e-02	 3.7730971642e+00
 1.3823792103e+00	 8.8123300829e-02	 3.7535920174e+00
 1.3813505211e+00	 1.0299871469e-01	 3.7325099055e+00
 1.3801566740e+00	 1.1792180612e-01	 3.7089739294e+00
 1.3787959249e+00	 1.3289016086e-01	 3.6819659269e+00
 1.3772665684e+00	 1.4790130799e-01	 3.6504059770e+00
 1.3906415531e+00	 7.3689889143e-02	 3.7752823280e+00
 1.3897716125e+00	 8.8594548427e-02	 3.7554467443e+00
 1.3887374222e+00	 1.0354950996e-01	 3.7340159746e+00
 1.3875371910e+00	 1.1855240402e-01	 3.7101333038e+00
 1.3861691651e+00	 1.3360080343e-01	 3.6827879117e+00
 1.3846316302e+00	 1.4869222407e-01	 3.6508990741e+00
 1.3980385826e+00	 7.4081856639e-02	 3.7766104646e+00
 1.3971640147e+00	 8.9065796025e-02	 3.7565159833e+00
 1.3961243234e+00	 1.0410030522e-01	 3.7348140313e+00
 1.3949177080e+00	 1.1918300191e-01	 3.7106557442e+00
 1.3935424053e+00	 1.3431144601e-01	 3.6830249445e+00
 1.3919966921e+00	 1.4948314016e-01	 3.6508272242e+00
 1.4054356122e+00	 7.4473824134e-02	 3.7771028053e+00
 1.4045564169e+00	 8.9537043623e-02	 3.7568598672e+00
 1.4035112246e+00	 1.0465110049e-01	 3.7350077653e+00
 1.4022982250e+00	 1.1981359980e-01	 3.7106920298e+00
 1.4009156456e+00	 1.3502208858e-01	 3.6828772882e+00
 1.3993617540e+00	 1.5027405624e-01	 3.6504414185e+00
 1.3625364446e+00	 1.4631947581e-01	 3.6467078543e+00
 1.3608549947e+00	 1.6120991058e-01	 3.6102455241e+00
 1.3590034912e+00	 1.7613762505e-01	 3.5688723613e+00
 1.3569803750e+00	 1.9110000999e-01	 3.5235079306e+00
 1.3547841338e+00	 2.0609440264e-01	 3.4753277245e+00
 1.3524133035e+00	 2.2111808754e-01	 3.4258345407e+00
 1.3699015065e+00	 1.4711039190e-01	 3.6490943312e+00
 1.3682109677e+00	 1.6208131550e-01	 3.6123888839e+00
 1.3663494560e+00	 1.7708972032e-01	 3.5705973861e+00
 1.3643154041e+00	 1.9213298302e-01	 3.5245996510e+00
 1.3621072913e+00	 2.0720842644e-01	 3.4755434220e+00
 1.3597236456e+00	 2.2231332045e-01	 3.4249207975e+00
 1.3772665684e+00	 1.4790130799e-01	 3.6504059770e+00
 1.3755669406e+00	 1.6295272043e-01	 3.6133421706e+00
 1.3736954208e+00	 1.7804181559e-01	 3.5710074778e+00
 1.3716504331e+00	 1.9316595605e-01	 3.5242629867e+00
 1.3694304488e+00	 2.0832245024e-01	 3.4742502326e+00
 1.3670339878e+00	 2.2350855335e-01	 3.4224728025e+00
 1.3846316302e+00	 1.4869222407e-01	 3.6508990741e+00
 1.3829229136e+00	 1.6382412535e-01	 3.6134109280e+00
 1.3810413856e+00	 1.7899391086e-01	 3.5704511870e+00
 1.3789854622e+00	 1.9419892907e-01	 3.5228816022e+00
 1.3767536062e+00	 2.0943647404e-01	 3.4718574165e+00
 1.3743443300e+00	 2.2470378626e-01	 3.4189142855e+00
 1.3919966921e+00	 1.4948314016e-01	 3.6508272242e+00
 1.3902788865e+00	 1.6469553027e-01	 3.6128975951e+00
 1.3883873504e+00	 1.7994600614e-01	 3.5692735672e+00
 1.3863204912e+00	 1.9523190210e-01	 3.5208353046e+00
 1.3840767637e+00	 2.1055049784e-01	 3.4687700470e+00
 1.3816546722e+00	 2.2589901916e-01	 3.4146644919e+00
 1.3993617540e+00	 1.5027405624e-01	 3.6504414185e+00
 1.3976348595e+00	 1.6556693519e-01	 3.6121015801e+00
 1.3957333153e+00	 1.8089810141e-01	 3.5678162477e+00
 1.3936555203e+00	 1.9626487513e-01	 3.5185001095e+00
 1.3913999212e+00	 2.1166452164e-01	 3.4653890646e+00
 1.3889650144e+00	 2.2709425207e-01	 3.4101382185e+00
 1.3524133035e+00	 2.2111808754e-01	 3.4258345407e+00
 1.3498664702e+00	 2.3616829738e-01	 3.3769036154e+00
 1.3471422723e+00	 2.5124221402e-01	 3.3274720379e+00
 1.3442394023e+00	 2.6633696944e-01	 3.2753261797e+00
 1.3411566084e+00	 2.8144964692e-01	 3.2188391803e+00
 1.3378926966e+00	 2.9657728218e-01	 3.1570239696e+00
 1.3597236456e+00	 2.2231332045e-01	 3.4249207975e+00
 1.3571630457e+00	 2.3744488278e-01	 3.3749690433e+00
 1.3544241224e+00	 2.5260028004e-01	 3.3248908382e+00
 1.3515055612e+00	 2.6777662873e-01	 3.2723549865e+00
 1.3484061036e+00	 2.8297099636e-01	 3.2156503224e+00
 1.3451245490e+00	 2.9818040262e-01	 3.1537434563e+00
 1.3670339878e+00	 2.2350855335e-01	 3.4224728025e+00
 1.3644596212e+00	 2.3872146817e-01	 3.3715426877e+00
 1.3617059726e+00	 2.5395834606e-01	 3.3209099707e+00
 1.3587717202e+00	 2.6921628803e-01	 3.2681036103e+00
 1.3556555988e+00	 2.8449234581e-01	 3.2113077693e+00
 1.3523564015e+00	 2.9978352307e-01	 3.1494245142e+00
 1.3743443300e+00	 2.2470378626e-01	 3.4189142855e+00
 1.3717561967e+00	 2.3999805356e-01	 3.3670568237e+00
 1.3689878227e+00	 2.5531641208e-01	 3.3159701068e+00
 1.3660378791e+00	 2.7065594732e-01	 3.2630202672e+00
 1.3629050939e+00	 2.8601369525e-01	 3.2062657679e+00
 1.3595882539e+00	 3.0138664351e-01	 3.1445252902e+00
 1.3816546722e+00	 2.2589901916e-01	 3.4146644919e+00
 1.3790527722e+00	 2.4127463895e-01	 3.3619388337e+00
 1.3762696728e+00	 2.5667447810e-01	 3.3105063526e+00
 1.3733040380e+00	 2.7209560662e-01	 3.2575466559e+00
 1.3701545891e+00	 2.8753504469e-01	 3.2009708024e+00
 1.3668201063e+00	 3.0298976396e-01	 3.1394946177e+00
 1.3889650144e+00	 2.2709425207e-01	 3.4101382185e+00
 1.3863493477e+00	 2.4255122434e-01	 3.3566112216e+00
 1.3835515229e+00	 2.5803254413e-01	 3.3049482416e+00
 1.3805701970e+00	 2.7353526591e-01	 3.2521179304e+00
 1.3774040843e+00	 2.8905639414e-01	 3.1958615474e+00
 1.3740519587e+00	 3.0459288440e-01	 3.1347719491e+00
 1.3378926966e+00	 2.9657728218e-01	 3.1570239696e+00
 1.3344465326e+00	 3.1171686463e-01	 3.0832559319e+00
 1.3308170431e+00	 3.2686533872e-01	 2.9973228323e+00
 1.3270032184e+00	 3.4201960533e-01	 2.9088715971e+00
 1.3230041131e+00	 3.5717652322e-01	 2.8282111575e+00
 1.3188188487e+00	 3.7233291062e-01	 2.7664821407e+00
 1.3451245490e+00	 2.9818040262e-01	 3.1537434563e+00
 1.3416597571e+00	 3.1340182066e-01	 3.0792353696e+00
 1.3380106488e+00	 3.2863217839e-01	 2.9914460965e+00
 1.3341762087e+00	 3.4386835995e-01	 2.9005077617e+00
 1.3301554867e+00	 3.5910720713e-01	 2.8172699709e+00
 1.3259475992e+00	 3.7434552095e-01	 2.7540698613e+00
 1.3523564015e+00	 2.9978352307e-01	 3.1494245142e+00
 1.3488729816e+00	 3.1508677668e-01	 3.0742592023e+00
 1.3452042544e+00	 3.3039901806e-01	 2.9846692956e+00
 1.3413491991e+00	 3.4571711457e-01	 2.8912964816e+00
 1.3373068603e+00	 3.6103789104e-01	 2.8055571711e+00
 1.3330763498e+00	 3.7635813128e-01	 2.7413571304e+00
 1.3595882539e+00	 3.0138664351e-01	 3.1445252902e+00
 1.3560862061e+00	 3.1677173271e-01	 3.0687790764e+00
 1.3523978601e+00	 3.3216585773e-01	 2.9774185440e+00
 1.3485221895e+00	 3.4756586920e-01	 2.8816182414e+00
 1.3444582338e+00	 3.6296857495e-01	 2.7933865257e+00
 1.3402051003e+00	 3.7837074160e-01	 2.7285204616e+00
 1.3668201063e+00	 3.0298976396e-01	 3.1394946177e+00
 1.3632994306e+00	 3.1845668873e-01	 3.0632356191e+00
 1.3595914657e+00	 3.3393269740e-01	 2.9701072371e+00
 1.3556951798e+00	 3.4941462382e-01	 2.8718391167e+00
 1.3516096074e+00	 3.6489925885e-01	 2.7810557185e+00
 1.3473338508e+00	 3.8038335193e-01	 2.7157215167e+00
 1.3740519587e+00	 3.0459288440e-01	 3.1347719491e+00
 1.3705126551e+00	 3.2014164476e-01	 3.0580583462e+00
 1.3667850713e+00	 3.3569953707e-01	 2.9631359264e+00
 1.3628681702e+00	 3.5126337844e-01	 2.8623106080e+00
 1.3587609810e+00	 3.6682994276e-01	 2.7688461317e+00
 1.3544626014e+00	 3.8239596226e-01	 2.7031074423e+00
 1.3188188487e+00	 3.7233291062e-01	 2.7664821407e+00
 1.3144466147e+00	 3.8748554683e-01	 2.7081021263e+00
 1.3098866706e+00	 4.0263117390e-01	 2.6291967580e+00
 1.3051383470e+00	 4.1776649841e-01	 2.5372057093e+00
 1.3002010476e+00	 4.3288819327e-01	 2.4395782710e+00
 1.2950742503e+00	 4.4799289968e-01	 2.3437124678e+00
 1.3259475992e+00	 3.7434552095e-01	 2.7540698613e+00
 1.3215517316e+00	 3.8958006330e-01	 2.6964964188e+00
 1.3169671391e+00	 4.0480755862e-01	 2.6174749883e+00
 1.3121931489e+00	 4.2002469570e-01	 2.5246273536e+00
 1.3072291613e+00	 4.3522812945e-01	 2.4255888970e+00
 1.3020746517e+00	 4.5041448292e-01	 2.3279458797e+00
 1.3330763498e+00	 3.7635813128e-01	 2.7413571304e+00
 1.3286568484e+00	 3.9167457977e-01	 2.6845717627e+00
 1.3240476076e+00	 4.0698394335e-01	 2.6055513306e+00
 1.3192479507e+00	 4.2228289298e-01	 2.5120286656e+00
 1.3142572751e+00	 4.3756806563e-01	 2.4117545974e+00
 1.3090750530e+00	 4.5283606616e-01	 2.3124335392e+00
 1.3402051003e+00	 3.7837074160e-01	 2.7285204616e+00
 1.3357619652e+00	 3.9376909624e-01	 2.6724196096e+00
 1.3311280761e+00	 4.0916032807e-01	 2.5934463345e+00
 1.3263027526e+00	 4.2454109027e-01	 2.4993750067e+00
 1.3212853889e+00	 4.3990800181e-01	 2.3980027913e+00
 1.3160754544e+00	 4.5525764940e-01	 2.2970836756e+00
 1.3473338508e+00	 3.8038335193e-01	 2.7157215167e+00
 1.3428670821e+00	 3.9586361271e-01	 2.6601175379e+00
 1.3382085445e+00	 4.1133671280e-01	 2.5811674187e+00
 1.3333575545e+00	 4.2679928756e-01	 2.4866190856e+00
 1.3283135027e+00	 4.4224793799e-01	 2.3842484295e+00
 1.3230758557e+00	 4.5767923265e-01	 2.2817919120e+00
 1.3544626014e+00	 3.8239596226e-01	 2.7031074423e+00
 1.3499721989e+00	 3.9795812918e-01	 2.6477295918e+00
 1.3452890130e+00	 4.1351309752e-01	 2.5687092224e+00
 1.3404123564e+00	 4.2905748485e-01	 2.4737013310e+00
 1.3353416164e+00	 4.4458787417e-01	 2.3703944000e+00
 1.3300762571e+00	 4.6010081589e-01	 2.2664417140e+00
 1.2950742503e+00	 4.4799289968e-01	 2.3437124678e+00
 1.2897575090e+00	 4.6307722901e-01	 2.2500897782e+00
 1.2842504545e+00	 4.7813776491e-01	 2.1548188676e+00
 1.2785527961e+00	 4.9317106534e-01	 2.0585258398e+00
 1.2726643228e+00	 5.0817366477e-01	 1.9616179541e+00
 1.2665849044e+00	 5.2314207635e-01	 1.8642408292e+00
 1.3020746517e+00	 4.5041448292e-01	 2.3279458797e+00
 1.2967291712e+00	 4.6558034917e-01	 2.2328244011e+00
 1.2911923488e+00	 4.8072229337e-01	 2.1366371477e+00
 1.2854638922e+00	 4.9583685488e-01	 2.0396871300e+00
 1.2795435894e+00	 5.1092054944e-01	 1.9420570240e+00
 1.2734313092e+00	 5.2596987136e-01	 1.8435662313e+00
 1.3090750530e+00	 4.5283606616e-01	 2.3124335392e+00
 1.3037008334e+00	 4.6808346933e-01	 2.2158116373e+00
 1.2981342431e+00	 4.8330682183e-01	 2.1186707677e+00
 1.2923749884e+00	 4.9850264443e-01	 2.0210549944e+00
 1.2864228560e+00	 5.1366743412e-01	 1.9227852466e+00
 1.2802777141e+00	 5.2879766637e-01	 1.8234160842e+00
 1.3160754544e+00	 4.5525764940e-01	 2.2970836756e+00
 1.3106724956e+00	 4.7058658948e-01	 2.1989441953e+00
 1.3050761375e+00	 4.8589135029e-01	 2.1007839882e+00
 1.2992860846e+00	 5.0116843397e-01	 2.0024515275e+00
 1.2933021226e+00	 5.1641431879e-01	 1.9035680301e+00
 1.2871241190e+00	 5.3162546138e-01	 1.8034837762e+00
 1.3230758557e+00	 4.5767923265e-01	 2.2817919120e+00
 1.3176441578e+00	 4.7308970964e-01	 2.1821020372e+00
 1.3120180318e+00	 4.8847587875e-01	 2.0828285335e+00
 1.3061971808e+00	 5.0383422351e-01	 1.9836868654e+00
 1.3001813892e+00	 5.1916120347e-01	 1.8841597845e+00
 1.2939705239e+00	 5.3445325638e-01	 1.7834530554e+00
 1.3300762571e+00	 4.6010081589e-01	 2.2664417140e+00
 1.3246158200e+00	 4.7559282980e-01	 2.1651528745e+00
 1.3189599262e+00	 4.9106040720e-01	 2.0646441279e+00
 1.3131082770e+00	 5.0650001305e-01	 1.9645597538e+00
 1.3070606558e+00	 5.2190808814e-01	 1.8643045150e+00
 1.3008169288e+00	 5.3728105139e-01	 1.7629986403e+00
 1.2665849044e+00	 5.2314207635e-01	 1.8642408292e+00
 1.2603144925e+00	 5.3807279424e-01	 1.7655629969e+00
 1.2538531219e+00	 5.5296229584e-01	 1.6652862480e+00
 1.2472009110e+00	 5.6780704426e-01	 1.5638185294e+00
 1.2403580631e+00	 5.8260349068e-01	 1.4611169270e+00
 1.2333248668e+00	 5.9734807684e-01	 1.3566541410e+00
 1.2734313092e+00	 5.2596987136e-01	 1.8435662313e+00
 1.2671270033e+00	 5.4098129583e-01	 1.7429600030e+00
 1.2606307064e+00	 5.5595128122e-01	 1.6402082825e+00
 1.2539425376e+00	 5.7087627152e-01	 1.5364198179e+00
 1.2470627013e+00	 5.8575269873e-01	 1.4322390265e+00
 1.2399914877e+00	 6.0057698536e-01	 1.3278105522e+00
 1.2802777141e+00	 5.2879766637e-01	 1.8234160842e+00
 1.2739395141e+00	 5.4388979742e-01	 1.7212319471e+00
 1.2674082908e+00	 5.5894026660e-01	 1.6163547108e+00
 1.2606841641e+00	 5.7394549879e-01	 1.5105363107e+00
 1.2537673394e+00	 5.8890190679e-01	 1.4050513027e+00
 1.2466581086e+00	 6.0380589389e-01	 1.3006596520e+00
 1.2871241190e+00	 5.3162546138e-01	 1.8034837762e+00
 1.2807520248e+00	 5.4679829901e-01	 1.6999989097e+00
 1.2741858753e+00	 5.6192925199e-01	 1.5932863324e+00
 1.2674257907e+00	 5.7701472606e-01	 1.4856846151e+00
 1.2604719776e+00	 5.9205111485e-01	 1.3790422927e+00
 1.2533247295e+00	 6.0703480241e-01	 1.2746790359e+00
 1.2939705239e+00	 5.3445325638e-01	 1.7834530554e+00
 1.2875645356e+00	 5.4970680060e-01	 1.6788727872e+00
 1.2809634597e+00	 5.6491823737e-01	 1.5705569899e+00
 1.2741674172e+00	 5.8008395332e-01	 1.4613753506e+00
 1.2671766158e+00	 5.9520032291e-01	 1.3536952317e+00
 1.2599913504e+00	 6.1026371093e-01	 1.2493413715e+00
 1.3008169288e+00	 5.3728105139e-01	 1.7629986403e+00
 1.2943770464e+00	 5.5261530219e-01	 1.6574579199e+00
 1.2877410441e+00	 5.6790722275e-01	 1.5477142199e+00
 1.2809090438e+00	 5.8315318059e-01	 1.4371138340e+00
 1.2738812540e+00	 5.9834953097e-01	 1.3284887791e+00
 1.2666579713e+00	 6.1349261946e-01	 1.2241151759e+00
 1.2333248668e+00	 5.9734807684e-01	 1.3566541410e+00
 1.2261016972e+00	 6.1203723755e-01	 1.2509614994e+00
 1.2186890160e+00	 6.2666740324e-01	 1.1450343027e+00
 1.2110873724e+00	 6.4123500254e-01	 1.0380841551e+00
 1.2032974032e+00	 6.5573646490e-01	 9.2853513130e-01
 1.1953198336e+00	 6.7016822323e-01	 8.1400101594e-01
 1.2399914877e+00	 6.0057698536e-01	 1.3278105522e+00
 1.2327292739e+00	 6.1534554694e-01	 1.2231952464e+00
 1.2252765242e+00	 6.3005479461e-01	 1.1180674761e+00
 1.2176337906e+00	 6.4470113769e-01	 1.0110124234e+00
 1.2098017135e+00	 6.5928098633e-01	 8.9981552375e-01
 1.2017810219e+00	 6.7379075417e-01	 7.8144132642e-01
 1.2466581086e+00	 6.0380589389e-01	 1.3006596520e+00
 1.2393568507e+00	 6.1865385634e-01	 1.1969783905e+00
 1.2318640324e+00	 6.3344218598e-01	 1.0924670586e+00
 1.2241802088e+00	 6.4816727284e-01	 9.8514792642e-01
 1.2163060238e+00	 6.6282550776e-01	 8.7223182207e-01
 1.2082422102e+00	 6.7741328510e-01	 7.5009853667e-01
 1.2533247295e+00	 6.0703480241e-01	 1.2746790359e+00
 1.2459844274e+00	 6.2196216573e-01	 1.1717897364e+00
 1.2384515406e+00	 6.3682957735e-01	 1.0677189401e+00
 1.2307266271e+00	 6.5163340799e-01	 9.5998853683e-01
 1.2228103341e+00	 6.6637002920e-01	 8.4529777568e-01
 1.2147033985e+00	 6.8103581604e-01	 7.1950514333e-01
 1.2599913504e+00	 6.1026371093e-01	 1.2493413715e+00
 1.2526120042e+00	 6.2527047512e-01	 1.1471033216e+00
 1.2450390488e+00	 6.4021696872e-01	 1.0433043169e+00
 1.2372730453e+00	 6.5509954314e-01	 9.3502743122e-01
 1.2293146444e+00	 6.6991455063e-01	 8.1852237345e-01
 1.2211645867e+00	 6.8465834698e-01	 6.8918876768e-01
 1.2666579713e+00	 6.1349261946e-01	 1.2241151759e+00
 1.2592395809e+00	 6.2857878451e-01	 1.1223892522e+00
 1.2516265570e+00	 6.4360436009e-01	 1.0187005875e+00
 1.2438194635e+00	 6.5856567829e-01	 9.0975405001e-01
 1.2358189547e+00	 6.7345907206e-01	 7.9141086843e-01
 1.2276257750e+00	 6.8828087791e-01	 6.5867324659e-01
 1.1953198336e+00	 6.7016822323e-01	 8.1400101594e-01
 1.1871554769e+00	 6.8452671659e-01	 7.0574811125e-01
 1.1788052350e+00	 6.9880839286e-01	 6.1093080287e-01
 1.1702700985e+00	 7.1300971147e-01	 5.2003488692e-01
 1.1615511463e+00	 7.2712714610e-01	 4.2309901100e-01
 1.1526495458e+00	 7.4115718744e-01	 3.0969689605e-01
 1.2017810219e+00	 6.7379075417e-01	 7.8144132642e-01
 1.1935725335e+00	 6.8822686100e-01	 6.6881552402e-01
 1.1851771552e+00	 7.0258573552e-01	 5.7175927974e-01
 1.1765958828e+00	 7.1686381802e-01	 4.8162225348e-01
 1.1678298011e+00	 7.3105756311e-01	 3.8931807891e-01
 1.1588800839e+00	 7.4516344251e-01	 2.8213192056e-01
 1.2082422102e+00	 6.7741328510e-01	 7.5009853667e-01
 1.1999895901e+00	 6.9192700542e-01	 6.3342233486e-01
 1.1915490754e+00	 7.0636307819e-01	 5.3469804942e-01
 1.1829216671e+00	 7.2071792456e-01	 4.4607967644e-01
 1.1741084560e+00	 7.3498798011e-01	 3.5929529579e-01
 1.1651106220e+00	 7.4916969757e-01	 2.5407991160e-01
 1.2147033985e+00	 6.8103581604e-01	 7.1950514333e-01
 1.2064066468e+00	 6.9562714983e-01	 5.9911780998e-01
 1.1979209956e+00	 7.1014042085e-01	 4.9930761408e-01
 1.1892474514e+00	 7.2457203111e-01	 4.1297426457e-01
 1.1803871108e+00	 7.3891839712e-01	 3.3260065825e-01
 1.1713411601e+00	 7.5317595264e-01	 2.2520877256e-01
 1.2211645867e+00	 6.8465834698e-01	 6.8918876768e-01
 1.2128237034e+00	 6.9932729424e-01	 5.6544626821e-01
 1.2042929158e+00	 7.1391776352e-01	 4.6514356485e-01
 1.1955732357e+00	 7.2842613766e-01	 3.8186833092e-01
 1.1866657656e+00	 7.4284881412e-01	 3.0808562827e-01
 1.1775716982e+00	 7.5718220771e-01	 1.9520938363e-01
 1.2276257750e+00	 6.8828087791e-01	 6.5867324659e-01
 1.2192407600e+00	 7.0302743866e-01	 5.3194823680e-01
 1.2106648359e+00	 7.1769510618e-01	 4.3175779868e-01
 1.2018990200e+00	 7.3228024421e-01	 3.5232066767e-01
 1.1929444205e+00	 7.4677923113e-01	 2.8164767059e-01
 1.1838022363e+00	 7.6118846278e-01	 1.6379510430e-01
 1.1526495458e+00	 7.4115718744e-01	 3.0969689605e-01
 1.1435665527e+00	 7.5509634590e-01	 1.8973779467e-01
 1.1343035101e+00	 7.6894115436e-01	 8.2628894369e-02
 1.1248618489e+00	 7.8268817090e-01	-1.3579171600e-02
 1.1152430864e+00	 7.9633398153e-01	-1.0059752892e-01
 1.1054488264e+00	 8.0987520290e-01	-1.8642663046e-01
 1.1588800839e+00	 7.4516344251e-01	 2.8213192056e-01
 1.1497479935e+00	 7.5917794777e-01	 1.5726410033e-01
 1.1404348805e+00	 7.7309759303e-01	 4.7021829984e-02
 1.1309421832e+00	 7.8691891777e-01	-5.2268931568e-02
 1.1212714274e+00	 8.0063848954e-01	-1.4403691408e-01
 1.1114242254e+00	 8.1425290670e-01	-2.3138405721e-01
 1.1651106220e+00	 7.4916969757e-01	 2.5407991160e-01
 1.1559294343e+00	 7.6325954964e-01	 1.2522759415e-01
 1.1465662508e+00	 7.7725403170e-01	 1.2850908914e-02
 1.1370225175e+00	 7.9114966464e-01	-8.8274394799e-02
 1.1272997685e+00	 8.0494299754e-01	-1.8312720594e-01
 1.1173996245e+00	 8.1863061050e-01	-2.7635385727e-01
 1.1713411601e+00	 7.5317595264e-01	 2.2520877256e-01
 1.1621108752e+00	 7.6734115151e-01	 9.3297610050e-02
 1.1526976211e+00	 7.8141047037e-01	-2.0278291947e-02
 1.1431028519e+00	 7.9538041151e-01	-1.2212190162e-01
 1.1333281095e+00	 8.0924750555e-01	-2.1859774419e-01
 1.1233750236e+00	 8.2300831430e-01	-3.1573935403e-01
 1.1775716982e+00	 7.5718220771e-01	 1.9520938363e-01
 1.1682923160e+00	 7.7142275338e-01	 6.1166553239e-02
 1.1588289914e+00	 7.8556690905e-01	-5.2735617911e-02
 1.1491831862e+00	 7.9961115838e-01	-1.5431023448e-01
 1.1393564505e+00	 8.1355201356e-01	-2.5114579742e-01
 1.1293504226e+00	 8.2738601809e-01	-3.5050866001e-01
 1.1838022363e+00	 7.6118846278e-01	 1.6379510430e-01
 1.1744737568e+00	 7.7550435525e-01	 2.8549400250e-02
 1.1649603618e+00	 7.8972334772e-01	-8.4866873599e-02
 1.1552635205e+00	 8.0384190525e-01	-1.8531122855e-01
 1.1453847915e+00	 8.1785652157e-01	-2.8143728504e-01
 1.1353258217e+00	 8.3176372189e-01	-3.8159258534e-01
 1.1054488264e+00	 8.0987520290e-01	-1.8642663046e-01
 1.0954807577e+00	 8.2330848499e-01	-2.8735789066e-01
 1.0853406541e+00	 8.3663051380e-01	-3.9101420108e-01
 1.0750303726e+00	 8.4983801398e-01	-4.9263363546e-01
 1.0645518530e+00	 8.6292775148e-01	-5.8634420160e-01
 1.0539071164e+00	 8.7589653609e-01	-6.6522942184e-01
 1.1114242254e+00	 8.1425290670e-01	-2.3138405721e-01
 1.1014022753e+00	 8.2775880112e-01	-3.2253465061e-01
 1.0912073603e+00	 8.4115284090e-01	-4.2251530448e-01
 1.0808413476e+00	 8.5443173298e-01	-5.2477847167e-01
 1.0703061873e+00	 8.6759222581e-01	-6.2165115402e-01
 1.0596039117e+00	 8.8063111196e-01	-7.0442660651e-01
 1.1173996245e+00	 8.1863061050e-01	-2.7635385727e-01
 1.1073237929e+00	 8.3220911726e-01	-3.6230136762e-01
 1.0970740665e+00	 8.4567516800e-01	-4.5546642287e-01
 1.0866523226e+00	 8.5902545197e-01	-5.5574386797e-01
 1.0760605217e+00	 8.7225670014e-01	-6.5396943190e-01
 1.0653007069e+00	 8.8536568783e-01	-7.3994191244e-01
 1.1233750236e+00	 8.2300831430e-01	-3.1573935403e-01
 1.1132453105e+00	 8.3665943339e-01	-4.0654659005e-01
 1.1029407728e+00	 8.5019749510e-01	-4.9073193301e-01
 1.0924632975e+00	 8.6361917097e-01	-5.8642183525e-01
 1.0818148560e+00	 8.7692117448e-01	-6.8410066920e-01
 1.0709975021e+00	 8.9010026370e-01	-7.7236363109e-01
 1.1293504226e+00	 8.2738601809e-01	-3.5050866001e-01
 1.1191668282e+00	 8.4110974953e-01	-4.4673221641e-01
 1.1088074790e+00	 8.5471982221e-01	-5.2914541713e-01
 1.0982742725e+00	 8.6821288996e-01	-6.1767299127e-01
 1.0875691904e+00	 8.8158564881e-01	-7.1281718116e-01
 1.0766942973e+00	 8.9483483957e-01	-8.0225558286e-01
 1.1353258217e+00	 8.3176372189e-01	-3.8159258534e-01
 1.1250883458e+00	 8.4556006566e-01	-4.8137288563e-01
 1.1146741853e+00	 8.5924214931e-01	-5.6943589259e-01
 1.1040852475e+00	 8.7280660896e-01	-6.5032616919e-01
 1.0933235247e+00	 8.8625012314e-01	-7.4086153088e-01
 1.0823910925e+00	 8.9956941544e-01	-8.3015657299e-01
 1.0539071164e+00	 8.7589653609e-01	-6.6522942184e-01
 1.0430982642e+00	 8.8874122402e-01	-7.4174208178e-01
 1.0321274763e+00	 9.0145872042e-01	-8.2857037750e-01
 1.0209970104e+00	 9.1404598179e-01	-9.1767950372e-01
 1.0097091997e+00	 9.2650001842e-01	-1.0001395093e+00
 9.9826645178e-01	 9.3881789674e-01	-1.0662348139e+00
 1.0596039117e+00	 8.8063111196e-01	-7.0442660651e-01
 1.0487366332e+00	 8.9354523064e-01	-7.8318388631e-01
 1.0377065438e+00	 9.0633147026e-01	-8.6996427563e-01
 1.0265159131e+00	 9.1898677088e-01	-9.5750712168e-01
 1.0151670872e+00	 9.3150812663e-01	-1.0376073175e+00
 1.0036624867e+00	 9.4389258807e-01	-1.1012263258e+00
 1.0653007069e+00	 8.8536568783e-01	-7.3994191244e-01
 1.0543750022e+00	 8.9834923726e-01	-8.2123402142e-01
 1.0432856112e+00	 9.1120422010e-01	-9.0871330984e-01
 1.0320348159e+00	 9.2392755997e-01	-9.9559079631e-01
 1.0206249748e+00	 9.3651623483e-01	-1.0740894734e+00
 1.0090585215e+00	 9.4896727941e-01	-1.1355575982e+00
 1.0709975021e+00	 8.9010026370e-01	-7.7236363109e-01
 1.0600133712e+00	 9.0315324387e-01	-8.5623463132e-01
 1.0488646786e+00	 9.1607696994e-01	-9.4497711414e-01
 1.0375537186e+00	 9.2886834906e-01	-1.0319757584e+00
 1.0260828623e+00	 9.4152434304e-01	-1.1095892797e+00
 1.0144545564e+00	 9.5404197074e-01	-1.1692667430e+00
 1.0766942973e+00	 8.9483483957e-01	-8.0225558286e-01
 1.0656517402e+00	 9.0795725049e-01	-8.8850909617e-01
 1.0544437461e+00	 9.2094971978e-01	-9.7890107659e-01
 1.0430726214e+00	 9.3380913815e-01	-1.0666962192e+00
 1.0315407499e+00	 9.4653245125e-01	-1.1441008518e+00
 1.0198505913e+00	 9.5911666207e-01	-1.2023830228e+00
 1.0823910925e+00	 8.9956941544e-01	-8.3015657299e-01
 1.0712901091e+00	 9.1276125710e-01	-9.1836135860e-01
 1.0600228135e+00	 9.2582246962e-01	-1.0106155716e+00
 1.0485915242e+00	 9.3874992724e-01	-1.0997745457e+00
 1.0369986375e+00	 9.5154055946e-01	-1.1776082774e+00
 1.0252466262e+00	 9.6419135341e-01	-1.2349260366e+00
 9.9826645178e-01	 9.3881789674e-01	-1.0662348139e+00
 9.8667124689e-01	 9.5099674161e-01	-1.1320941743e+00
 9.7492613588e-01	 9.6303373854e-01	-1.2128954652e+00
 9.6303373854e-01	 9.7492613588e-01	-1.2968104169e+00
 9.5099674161e-01	 9.8667124689e-01	-1.3718957040e+00
 9.3881789674e-01	 9.9826645178e-01	-1.4262288976e+00
 1.0036624867e+00	 9.4389258807e-01	-1.1012263258e+00
 9.9200460498e-01	 9.5613726454e-01	-1.1658148399e+00
 9.8019600688e-01	 9.6823932632e-01	-1.2468342482e+00
 9.6823932632e-01	 9.8019600688e-01	-1.3315262556e+00
 9.5613726454e-01	 9.9200460498e-01	-1.4070027793e+00
 9.4389258807e-01	 1.0036624867e+00	-1.4603880024e+00
 1.0090585215e+00	 9.4896727941e-01	-1.1355575982e+00
 9.9733796307e-01	 9.6127778746e-01	-1.1986349537e+00
 9.8546587789e-01	 9.7344491409e-01	-1.2792735014e+00
 9.7344491409e-01	 9.8546587789e-01	-1.3640103595e+00
 9.6127778746e-01	 9.9733796307e-01	-1.4392384880e+00
 9.4896727941e-01	 1.0090585215e+00	-1.4913544637e+00
 1.0144545564e+00	 9.5404197074e-01	-1.1692667430e+00
 1.0026713212e+00	 9.6641831039e-01	-1.2306746761e+00
 9.9073574889e-01	 9.7865050187e-01	-1.3104277390e+00
 9.7865050187e-01	 9.9073574889e-01	-1.3945799055e+00
 9.6641831039e-01	 1.0026713212e+00	-1.4690269586e+00
 9.5404197074e-01	 1.0144545564e+00	-1.5196596131e+00
 1.0198505913e+00	 9.5911666207e-01	-1.2023830228e+00
 1.0080046793e+00	 9.7155883332e-01	-1.2620447745e+00
 9.9600561990e-01	 9.8385608964e-01	-1.3405013838e+00
 9.8385608964e-01	 9.9600561990e-01	-1.4235411971e+00
 9.7155883332e-01	 1.0080046793e+00	-1.4967806521e+00
 9.5911666207e-01	 1.0198505913e+00	-1.5458223798e+00
 1.0252466262e+00	 9.6419135341e-01	-1.2349260366e+00
 1.0133380373e+00	 9.7669935625e-01	-1.2928458615e+00
 1.0012754909e+00	 9.8906167742e-01	-1.3696880646e+00
 9.8906167742e-01	 1.0012754909e+00	-1.4511890264e+00
 9.7669935625e-01	 1.0133380373e+00	-1.5228997908e+00
 9.6419135341e-01	 1.0252466262e+00	-1.5703487872e+00
 9.3881789674e-01	 9.9826645178e-01	-1.4262288976e+00
 9.2650001842e-01	 1.0097091997e+00	-1.4742792855e+00
 9.1404598179e-01	 1.0209970104e+00	-1.5324810748e+00
 9.0145872042e-01	 1.0321274763e+00	-1.5923815418e+00
 8.8874122402e-01	 1.0430982642e+00	-1.6461953403e+00
 8.7589653609e-01	 1.0539071164e+00	-1.6869281837e+00
 9.4389258807e-01	 1.0036624867e+00	-1.4603880024e+00
 9.3150812663e-01	 1.0151670872e+00	-1.5061964689e+00
 9.1898677088e-01	 1.0265159131e+00	-1.5619207522e+00
 9.0633147026e-01	 1.0377065438e+00	-1.6197057245e+00
 8.9354523064e-01	 1.0487366332e+00	-1.6724111493e+00
 8.8063111196e-01	 1.0596039117e+00	-1.7137378257e+00
 9.4896727941e-01	 1.0090585215e+00	-1.4913544637e+00
 9.3651623483e-01	 1.0206249748e+00	-1.5352079053e+00
 9.2392755997e-01	 1.0320348159e+00	-1.5892710019e+00
 9.1120422010e-01	 1.0432856112e+00	-1.6459524856e+00
 8.9834923726e-01	 1.0543750022e+00	-1.6984156395e+00
 8.8536568783e-01	 1.0653007069e+00	-1.7407077956e+00
 9.5404197074e-01	 1.0144545564e+00	-1.5196596131e+00
 9.4152434304e-01	 1.0260828623e+00	-1.5619082160e+00
 9.2886834906e-01	 1.0375537186e+00	-1.6151075125e+00
 9.1607696994e-01	 1.0488646786e+00	-1.6716011674e+00
 9.0315324387e-01	 1.0600133712e+00	-1.7245192895e+00
 8.9010026370e-01	 1.0709975021e+00	-1.7679121711e+00
 9.5911666207e-01	 1.0198505913e+00	-1.5458223798e+00
 9.4653245125e-01	 1.0315407499e+00	-1.5868798636e+00
 9.3380913815e-01	 1.0430726214e+00	-1.6399958320e+00
 9.2094971978e-01	 1.0544437461e+00	-1.6971246476e+00
 9.0795725049e-01	 1.0656517402e+00	-1.7510313277e+00
 8.9483483957e-01	 1.0766942973e+00	-1.7954304115e+00
 9.6419135341e-01	 1.0252466262e+00	-1.5703487872e+00
 9.5154055946e-01	 1.0369986375e+00	-1.6106926924e+00
 9.3874992724e-01	 1.0485915242e+00	-1.6644909074e+00
 9.2582246962e-01	 1.0600228135e+00	-1.7229888348e+00
 9.1276125710e-01	 1.0712901091e+00	-1.7782591441e+00
 8.9956941544e-01	 1.0823910925e+00	-1.8233466499e+00
 8.7589653609e-01	 1.0539071164e+00	-1.6869281837e+00
 8.6292775148e-01	 1.0645518530e+00	-1.7286548307e+00
 8.4983801398e-01	 1.0750303726e+00	-1.7825994107e+00
 8.3663051380e-01	 1.0853406541e+00	-1.8389524039e+00
 8.2330848499e-01	 1.0954807577e+00	-1.8890517096e+00
 8.0987520290e-01	 1.1054488264e+00	-1.9254830413e+00
 8.8063111196e-01	 1.0596039117e+00	-1.7137378257e+00
 8.6759222581e-01	 1.0703061873e+00	-1.7574422582e+00
 8.5443173298e-01	 1.0808413476e+00	-1.8126887438e+00
 8.4115284090e-01	 1.0912073603e+00	-1.8677714475e+00
 8.2775880112e-01	 1.1014022753e+00	-1.9121145842e+00
 8.1425290670e-01	 1.1114242254e+00	-1.9364030466e+00
 8.8536568783e-01	 1.0653007069e+00	-1.7407077956e+00
 8.7225670014e-01	 1.0760605217e+00	-1.7856580249e+00
 8.5902545197e-01	 1.0866523226e+00	-1.8402228477e+00
 8.4567516800e-01	 1.0970740665e+00	-1.8911505542e+00
 8.3220911726e-01	 1.1073237929e+00	-1.9263172875e+00
 8.1863061050e-01	 1.1173996245e+00	-1.9436321138e+00
 8.9010026370e-01	 1.0709975021e+00	-1.7679121711e+00
 8.7692117448e-01	 1.0818148560e+00	-1.8131806459e+00
 8.6361917097e-01	 1.0924632975e+00	-1.8650265033e+00
 8.5019749510e-01	 1.1029407728e+00	-1.9089964557e+00
 8.3665943339e-01	 1.1132453105e+00	-1.9326844399e+00
 8.2300831430e-01	 1.1233750236e+00	-1.9540139222e+00
 8.9483483957e-01	 1.0766942973e+00	-1.7954304115e+00
 8.8158564881e-01	 1.0875691904e+00	-1.8398997584e+00
 8.6821288996e-01	 1.0982742725e+00	-1.8869383109e+00
 8.5471982221e-01	 1.1088074790e+00	-1.9212294722e+00
 8.4110974953e-01	 1.1191668282e+00	-1.9412122228e+00
 8.2738601809e-01	 1.1293504226e+00	-1.9669515840e+00
 8.9956941544e-01	 1.0823910925e+00	-1.8233466499e+00
 8.8625012314e-01	 1.0933235247e+00	-1.8657153181e+00
 8.7280660896e-01	 1.1040852475e+00	-1.9058098704e+00
 8.5924214931e-01	 1.1146741853e+00	-1.9299439962e+00
 8.4556006566e-01	 1.1250883458e+00	-1.9538990941e+00
 8.3176372189e-01	 1.1353258217e+00	-1.9818462687e+00
 8.0987520290e-01	 1.1054488264e+00	-1.9254830413e+00
 7.9633398153e-01	 1.1152430864e+00	-1.9380265608e+00
 7.8268817090e-01	 1.1248618489e+00	-1.9502848180e+00
 7.6894115436e-01	 1.1343035101e+00	-1.9715905266e+00
 7.5509634590e-01	 1.1435665527e+00	-2.0041643626e+00
 7.4115718744e-01	 1.1526495458e+00	-2.0504832419e+00
 8.1425290670e-01	 1.1114242254e+00	-1.9364030466e+00
 8.0063848954e-01	 1.1212714274e+00	-1.9499414848e+00
 7.8691891777e-01	 1.1309421832e+00	-1.9666535972e+00
 7.7309759303e-01	 1.1404348805e+00	-1.9895772999e+00
 7.5917794777e-01	 1.1497479935e+00	-2.0221071487e+00
 7.4516344251e-01	 1.1588800839e+00	-2.0679192633e+00
 8.1863061050e-01	 1.1173996245e+00	-1.9436321138e+00
 8.0494299754e-01	 1.1272997685e+00	-1.9629663384e+00
 7.9114966464e-01	 1.1370225175e+00	-1.9823538760e+00
 7.7725403170e-01	 1.1465662508e+00	-2.0058446991e+00
 7.6325954964e-01	 1.1559294343e+00	-2.0378623880e+00
 7.4916969757e-01	 1.1651106220e+00	-2.0831244014e+00
 8.2300831430e-01	 1.1233750236e+00	-1.9540139222e+00
 8.0924750555e-01	 1.1333281095e+00	-1.9768474965e+00
 7.9538041151e-01	 1.1431028519e+00	-1.9973468377e+00
 7.8141047037e-01	 1.1526976211e+00	-2.0204449412e+00
 7.6734115151e-01	 1.1621108752e+00	-2.0514521452e+00
 7.5317595264e-01	 1.1713411601e+00	-2.0959720903e+00
 8.2738601809e-01	 1.1293504226e+00	-1.9669515840e+00
 8.1355201356e-01	 1.1393564505e+00	-1.9913219758e+00
 7.9961115838e-01	 1.1491831862e+00	-2.0115798521e+00
 7.8556690905e-01	 1.1588289914e+00	-2.0334146158e+00
 7.7142275338e-01	 1.1682923160e+00	-2.0628836351e+00
 7.5718220771e-01	 1.1775716982e+00	-2.1063242334e+00
 8.3176372189e-01	 1.1353258217e+00	-1.9818462687e+00
 8.1785652157e-01	 1.1453847915e+00	-2.0061178690e+00
 8.0384190525e-01	 1.1552635205e+00	-2.0249869994e+00
 7.8972334772e-01	 1.1649603618e+00	-2.0447752277e+00
 7.7550435525e-01	 1.1744737568e+00	-2.0721497180e+00
 7.6118846278e-01	 1.1838022363e+00	-2.1140315850e+00
 7.4115718744e-01	 1.1526495458e+00	-2.0504832419e+00
 7.2712714610e-01	 1.1615511463e+00	-2.0867862137e+00
 7.1300971147e-01	 1.1702700985e+00	-2.0984199068e+00
 6.9880839286e-01	 1.1788052350e+00	-2.0983747849e+00
 6.8452671659e-01	 1.1871554769e+00	-2.0990614140e+00
 6.7016822323e-01	 1.1953198336e+00	-2.1123176918e+00
 7.4516344251e-01	 1.1588800839e+00	-2.0679192633e+00
 7.3105756311e-01	 1.1678298011e+00	-2.0970808324e+00
 7.1686381802e-01	 1.1765958828e+00	-2.1020990603e+00
 7.0258573552e-01	 1.1851771552e+00	-2.0976845675e+00
 6.8822686100e-01	 1.1935725335e+00	-2.0963021866e+00
 6.7379075417e-01	 1.2017810219e+00	-2.1098134417e+00
 7.4916969757e-01	 1.1651106220e+00	-2.0831244014e+00
 7.3498798011e-01	 1.1741084560e+00	-2.1079641676e+00
 7.2071792456e-01	 1.1829216671e+00	-2.1064831467e+00
 7.0636307819e-01	 1.1915490754e+00	-2.0977143731e+00
 6.9192700542e-01	 1.1999895901e+00	-2.0941124975e+00
 6.7741328510e-01	 1.2082422102e+00	-2.1075063929e+00
 7.5317595264e-01	 1.1713411601e+00	-2.0959720903e+00
 7.3891839712e-01	 1.1803871108e+00	-2.1190894347e+00
 7.2457203111e-01	 1.1892474514e+00	-2.1111302779e+00
 7.1014042085e-01	 1.1979209956e+00	-2.0980024970e+00
 6.9562714983e-01	 1.2064066468e+00	-2.0920870114e+00
 6.8103581604e-01	 1.2147033985e+00	-2.1051245675e+00
 7.5718220771e-01	 1.1775716982e+00	-2.1063242334e+00
 7.4284881412e-01	 1.1866657656e+00	-2.1297259208e+00
 7.2842613766e-01	 1.1955732357e+00	-2.1155857619e+00
 7.1391776352e-01	 1.2042929158e+00	-2.0980748948e+00
 6.9932729424e-01	 1.2128237034e+00	-2.0898069284e+00
 6.8465834698e-01	 1.2211645867e+00	-2.1023797975e+00
 7.6118846278e-01	 1.1838022363e+00	-2.1140315850e+00
 7.4677923113e-01	 1.1929444205e+00	-2.1376030409e+00
 7.3228024421e-01	 1.2018990200e+00	-2.1193828700e+00
 7.1769510618e-01	 1.2106648359e+00	-2.0974459011e+00
 7.0302743866e-01	 1.2192407600e+00	-2.0868406955e+00
 6.8828087791e-01	 1.2276257750e+00	-2.0989684702e+00
 6.7016822323e-01	 1.1953198336e+00	-2.1123176918e+00
 6.5573646490e-01	 1.2032974032e+00	-2.1316723146e+00
 6.4123500254e-01	 1.2110873724e+00	-2.1444553692e+00
 6.2666740324e-01	 1.2186890160e+00	-2.1521065668e+00
 6.1203723755e-01	 1.2261016972e+00	-2.1552001522e+00
 5.9734807684e-01	 1.2333248668e+00	-2.1534794665e+00
 6.7379075417e-01	 1.2017810219e+00	-2.1098134417e+00
 6.5928098633e-01	 1.2098017135e+00	-2.1299157735e+00
 6.4470113769e-01	 1.2176337906e+00	-2.1421706102e+00
 6.3005479461e-01	 1.2252765242e+00	-2.1481247789e+00
 6.1534554694e-01	 1.2327292739e+00	-2.1484761308e+00
 6.0057698536e-01	 1.2399914877e+00	-2.1431078110e+00
 6.7741328510e-01	 1.2082422102e+00	-2.1075063929e+00
 6.6282550776e-01	 1.2163060238e+00	-2.1279198157e+00
 6.4816727284e-01	 1.2241802088e+00	-2.1393784188e+00
 6.3344218598e-01	 1.2318640324e+00	-2.1435928627e+00
 6.1865385634e-01	 1.2393568507e+00	-2.1414331509e+00
 6.0380589389e-01	 1.2466581086e+00	-2.1329625847e+00
 6.8103581604e-01	 1.2147033985e+00	-2.1051245675e+00
 6.6637002920e-01	 1.2228103341e+00	-2.1255513341e+00
 6.5163340799e-01	 1.2307266271e+00	-2.1360175368e+00
 6.3682957735e-01	 1.2384515406e+00	-2.1384535795e+00
 6.2196216573e-01	 1.2459844274e+00	-2.1339494308e+00
 6.0703480241e-01	 1.2533247295e+00	-2.1227882408e+00
 6.8465834698e-01	 1.2211645867e+00	-2.1023797975e+00
 6.6991455063e-01	 1.2293146444e+00	-2.1226582228e+00
 6.5509954314e-01	 1.2372730453e+00	-2.1320063560e+00
 6.4021696872e-01	 1.2450390488e+00	-2.1326294686e+00
 6.2527047512e-01	 1.2526120042e+00	-2.1258845937e+00
 6.1026371093e-01	 1.2599913504e+00	-2.1123137815e+00
 6.8828087791e-01	 1.2276257750e+00	-2.0989684702e+00
 6.7345907206e-01	 1.2358189547e+00	-2.1190701598e+00
 6.5856567829e-01	 1.2438194635e+00	-2.1272436998e+00
 6.4360436009e-01	 1.2516265570e+00	-2.1260235887e+00
 6.2857878451e-01	 1.2592395809e+00	-2.1170803305e+00
 6.1349261946e-01	 1.2666579713e+00	-2.1012533015e+00
 5.9734807684e-01	 1.2333248668e+00	-2.1534794665e+00
 5.8260349068e-01	 1.2403580631e+00	-2.1488376570e+00
 5.6780704426e-01	 1.2472009110e+00	-2.1447156150e+00
 5.5296229584e-01	 1.2538531219e+00	-2.1421896836e+00
 5.3807279424e-01	 1.2603144925e+00	-2.1418494780e+00
 5.2314207635e-01	 1.2665849044e+00	-2.1438381890e+00
 6.0057698536e-01	 1.2399914877e+00	-2.1431078110e+00
 5.8575269873e-01	 1.2470627013e+00	-2.1349002786e+00
 5.7087627152e-01	 1.2539425376e+00	-2.1280888347e+00
 5.5595128122e-01	 1.2606307064e+00	-2.1235760020e+00
 5.4098129583e-01	 1.2671270033e+00	-2.1217305553e+00
 5.2596987136e-01	 1.2734313092e+00	-2.1224296485e+00
 6.0380589389e-01	 1.2466581086e+00	-2.1329625847e+00
 5.8890190679e-01	 1.2537673394e+00	-2.1217867802e+00
 5.7394549879e-01	 1.2606841641e+00	-2.1126327111e+00
 5.5894026660e-01	 1.2674082908e+00	-2.1062080469e+00
 5.4388979742e-01	 1.2739395141e+00	-2.1026471357e+00
 5.2879766637e-01	 1.2802777141e+00	-2.1015548566e+00
 6.0703480241e-01	 1.2533247295e+00	-2.1227882408e+00
 5.9205111485e-01	 1.2604719776e+00	-2.1091110671e+00
 5.7701472606e-01	 1.2674257907e+00	-2.0979067022e+00
 5.6192925199e-01	 1.2741858753e+00	-2.0896669189e+00
 5.4679829901e-01	 1.2807520248e+00	-2.0842779425e+00
 5.3162546138e-01	 1.2871241190e+00	-2.0810659315e+00
 6.1026371093e-01	 1.2599913504e+00	-2.1123137815e+00
 5.9520032291e-01	 1.2671766158e+00	-2.0964747235e+00
 5.8008395332e-01	 1.2741674172e+00	-2.0834595228e+00
 5.6491823737e-01	 1.2809634597e+00	-2.0735230031e+00
 5.4970680060e-01	 1.2875645356e+00	-2.0662894652e+00
 5.3445325638e-01	 1.2939705239e+00	-2.0607996992e+00
 6.1349261946e-01	 1.2666579713e+00	-2.1012533015e+00
 5.9834953097e-01	 1.2738812540e+00	-2.0834674404e+00
 5.8315318059e-01	 1.2809090438e+00	-2.0688294971e+00
 5.6790722275e-01	 1.2877410441e+00	-2.0573362885e+00
 5.5261530219e-01	 1.2943770464e+00	-2.0483362874e+00
 5.3728105139e-01	 1.3008169288e+00	-2.0405780715e+00
 5.2314207635e-01	 1.2665849044e+00	-2.1438381890e+00
 5.0817366477e-01	 1.2726643228e+00	-2.1430354232e+00
 4.9317106534e-01	 1.2785527961e+00	-2.1356453435e+00
 4.7813776491e-01	 1.2842504545e+00	-2.1232047629e+00
 4.6307722901e-01	 1.2897575090e+00	-2.1069075645e+00
 4.4799289968e-01	 1.2950742503e+00	-2.0876500385e+00
 5.2596987136e-01	 1.2734313092e+00	-2.1224296485e+00
 5.1092054944e-01	 1.2795435894e+00	-2.1202049812e+00
 4.9583685488e-01	 1.2854638922e+00	-2.1110906811e+00
 4.8072229337e-01	 1.2911923488e+00	-2.0966080044e+00
 4.6558034917e-01	 1.2967291712e+00	-2.0779575554e+00
 4.5041448292e-01	 1.3020746517e+00	-2.0560651737e+00
 5.2879766637e-01	 1.2802777141e+00	-2.1015548566e+00
 5.1366743412e-01	 1.2864228560e+00	-2.0973940106e+00
 4.9850264443e-01	 1.2923749884e+00	-2.0863088249e+00
 4.8330682183e-01	 1.2981342431e+00	-2.0698002440e+00
 4.6808346933e-01	 1.3037008334e+00	-2.0490634229e+00
 4.5283606616e-01	 1.3090750530e+00	-2.0250343304e+00
 5.3162546138e-01	 1.2871241190e+00	-2.0810659315e+00
 5.1641431879e-01	 1.2933021226e+00	-2.0746314758e+00
 5.0116843397e-01	 1.2992860846e+00	-2.0614368898e+00
 4.8589135029e-01	 1.3050761375e+00	-2.0429580790e+00
 4.7058658948e-01	 1.3106724956e+00	-2.0203726682e+00
 4.5525764940e-01	 1.3160754544e+00	-1.9946074861e+00
 5.3445325638e-01	 1.2939705239e+00	-2.0607996992e+00
 5.1916120347e-01	 1.3001813892e+00	-2.0519279808e+00
 5.0383422351e-01	 1.3061971808e+00	-2.0365920794e+00
 4.8847587875e-01	 1.3120180318e+00	-2.0162381615e+00
 4.7308970964e-01	 1.3176441578e+00	-1.9920143268e+00
 4.5767923265e-01	 1.3230758557e+00	-1.9648191408e+00
 5.3728105139e-01	 1.3008169288e+00	-2.0405780715e+00
 5.2190808814e-01	 1.3070606558e+00	-2.0292762004e+00
 5.0650001305e-01	 1.3131082770e+00	-2.0118721325e+00
 4.9106040720e-01	 1.3189599262e+00	-1.9897776206e+00
 4.7559282980e-01	 1.3246158200e+00	-1.9640993295e+00
 4.6010081589e-01	 1.3300762571e+00	-1.9356885777e+00
 4.4799289968e-01	 1.2950742503e+00	-2.0876500385e+00
 4.3288819327e-01	 1.3002010476e+00	-2.0747812246e+00
 4.1776649841e-01	 1.3051383470e+00	-2.0719681780e+00
 4.0263117390e-01	 1.3098866706e+00	-2.0713917233e+00
 3.8748554683e-01	 1.3144466147e+00	-2.0652857706e+00
 3.7233291062e-01	 1.3188188487e+00	-2.0459978849e+00
 4.5041448292e-01	 1.3020746517e+00	-2.0560651737e+00
 4.3522812945e-01	 1.3072291613e+00	-2.0405034148e+00
 4.2002469570e-01	 1.3121931489e+00	-2.0352786963e+00
 4.0480755862e-01	 1.3169671391e+00	-2.0327722225e+00
 3.8958006330e-01	 1.3215517316e+00	-2.0253923329e+00
 3.7434552095e-01	 1.3259475992e+00	-2.0056367072e+00
 4.5283606616e-01	 1.3090750530e+00	-2.0250343304e+00
 4.3756806563e-01	 1.3142572751e+00	-2.0072704492e+00
 4.2228289298e-01	 1.3192479507e+00	-1.9999044707e+00
 4.0698394335e-01	 1.3240476076e+00	-1.9955364021e+00
 3.9167457977e-01	 1.3286568484e+00	-1.9867738670e+00
 3.7635813128e-01	 1.3330763498e+00	-1.9662957747e+00
 4.5525764940e-01	 1.3160754544e+00	-1.9946074861e+00
 4.3990800181e-01	 1.3212853889e+00	-1.9750362561e+00
 4.2454109027e-01	 1.3263027526e+00	-1.9657740970e+00
 4.0916032807e-01	 1.3311280761e+00	-1.9596573861e+00
 3.9376909624e-01	 1.3357619652e+00	-1.9495169480e+00
 3.7837074160e-01	 1.3402051003e+00	-1.9282430208e+00
 4.5767923265e-01	 1.3230758557e+00	-1.9648191408e+00
 4.4224793799e-01	 1.3283135027e+00	-1.9437423006e+00
 4.2679928756e-01	 1.3333575545e+00	-1.9328052805e+00
 4.1133671280e-01	 1.3382085445e+00	-1.9250975530e+00
 3.9586361271e-01	 1.3428670821e+00	-1.9136961392e+00
 3.8038335193e-01	 1.3473338508e+00	-1.8917317059e+00
 4.6010081589e-01	 1.3300762571e+00	-1.9356885777e+00
 4.4458787417e-01	 1.3353416164e+00	-1.9133177473e+00
 4.2905748485e-01	 1.3404123564e+00	-1.9009049401e+00
 4.1351309752e-01	 1.3452890130e+00	-1.8918086215e+00
 3.9795812918e-01	 1.3499721989e+00	-1.8793740974e+00
 3.8239596226e-01	 1.3544626014e+00	-1.8570005811e+00
 3.7233291062e-01	 1.3188188487e+00	-2.0459978849e+00
 3.5717652322e-01	 1.3230041131e+00	-2.0235010236e+00
 3.4201960533e-01	 1.3270032184e+00	-2.0153594019e+00
 3.2686533872e-01	 1.3308170431e+00	-2.0136889235e+00
 3.1171686463e-01	 1.3344465326e+00	-2.0106214763e+00
 2.9657728218e-01	 1.3378926966e+00	-1.9986296069e+00
 3.7434552095e-01	 1.3259475992e+00	-2.0056367072e+00
 3.5910720713e-01	 1.3301554867e+00	-1.9801145545e+00
 3.4386835995e-01	 1.3341762087e+00	-1.9699158524e+00
 3.2863217839e-01	 1.3380106488e+00	-1.9672579597e+00
 3.1340182066e-01	 1.3416597571e+00	-1.9634774113e+00
 2.9818040262e-01	 1.3451245490e+00	-1.9503304497e+00
 3.7635813128e-01	 1.3330763498e+00	-1.9662957747e+00
 3.6103789104e-01	 1.3373068603e+00	-1.9377166038e+00
 3.4571711457e-01	 1.3413491991e+00	-1.9248874707e+00
 3.3039901806e-01	 1.3452042544e+00	-1.9209318459e+00
 3.1508677668e-01	 1.3488729816e+00	-1.9163989802e+00
 2.9978352307e-01	 1.3523564015e+00	-1.9023331638e+00
 3.7837074160e-01	 1.3402051003e+00	-1.9282430208e+00
 3.6296857495e-01	 1.3444582338e+00	-1.8968708273e+00
 3.4756586920e-01	 1.3485221895e+00	-1.8809555993e+00
 3.3216585773e-01	 1.3523978601e+00	-1.8754330919e+00
 3.1677173271e-01	 1.3560862061e+00	-1.8700735520e+00
 3.0138664351e-01	 1.3595882539e+00	-1.8552140300e+00
 3.8038335193e-01	 1.3473338508e+00	-1.8917317059e+00
 3.6489925885e-01	 1.3516096074e+00	-1.8581202306e+00
 3.4941462382e-01	 1.3556951798e+00	-1.8387831006e+00
 3.3393269740e-01	 1.3595914657e+00	-1.8314689912e+00
 3.1845668873e-01	 1.3632994306e+00	-1.8251776324e+00
 3.0298976396e-01	 1.3668201063e+00	-1.8095439070e+00
 3.8239596226e-01	 1.3544626014e+00	-1.8570005811e+00
 3.6682994276e-01	 1.3587609810e+00	-1.8219865090e+00
 3.5126337844e-01	 1.3628681702e+00	-1.7990138030e+00
 3.3569953707e-01	 1.3667850713e+00	-1.7897311321e+00
 3.2014164476e-01	 1.3705126551e+00	-1.7823764011e+00
 3.0459288440e-01	 1.3740519587e+00	-1.7658877535e+00
 2.9657728218e-01	 1.3378926966e+00	-1.9986296069e+00
 2.8144964692e-01	 1.3411566084e+00	-1.9784017915e+00
 2.6633696944e-01	 1.3442394023e+00	-1.9572583689e+00
 2.5124221402e-01	 1.3471422723e+00	-1.9381121040e+00
 2.3616829738e-01	 1.3498664702e+00	-1.9241445145e+00
 2.2111808754e-01	 1.3524133035e+00	-1.9187612547e+00
 2.9818040262e-01	 1.3451245490e+00	-1.9503304497e+00
 2.8297099636e-01	 1.3484061036e+00	-1.9284057352e+00
 2.6777662873e-01	 1.3515055612e+00	-1.9054621987e+00
 2.5260028004e-01	 1.3544241224e+00	-1.8845812477e+00
 2.3744488278e-01	 1.3571630457e+00	-1.8691353422e+00
 2.2231332045e-01	 1.3597236456e+00	-1.8627397402e+00
 2.9978352307e-01	 1.3523564015e+00	-1.9023331638e+00
 2.8449234581e-01	 1.3556555988e+00	-1.8790516781e+00
 2.6921628803e-01	 1.3587717202e+00	-1.8545649717e+00
 2.5395834606e-01	 1.3617059726e+00	-1.8321068116e+00
 2.3872146817e-01	 1.3644596212e+00	-1.8152313199e+00
 2.2350855335e-01	 1.3670339878e+00	-1.8077608311e+00
 3.0138664351e-01	 1.3595882539e+00	-1.8552140300e+00
 2.8601369525e-01	 1.3629050939e+00	-1.8307861783e+00
 2.7065594732e-01	 1.3660378791e+00	-1.8049223238e+00
 2.5531641208e-01	 1.3689878227e+00	-1.7809929789e+00
 2.3999805356e-01	 1.3717561967e+00	-1.7627253327e+00
 2.2470378626e-01	 1.3743443300e+00	-1.7541469666e+00
 3.0298976396e-01	 1.3668201063e+00	-1.8095439070e+00
 2.8753504469e-01	 1.3701545891e+00	-1.7840556958e+00
 2.7209560662e-01	 1.3733040380e+00	-1.7568937949e+00
 2.5667447810e-01	 1.3762696728e+00	-1.7315505174e+00
 2.4127463895e-01	 1.3790527722e+00	-1.7119182129e+00
 2.2589901916e-01	 1.3816546722e+00	-1.7022285820e+00
 3.0459288440e-01	 1.3740519587e+00	-1.7658877535e+00
 2.8905639414e-01	 1.3774040843e+00	-1.7393060917e+00
 2.7353526591e-01	 1.3805701970e+00	-1.7108423295e+00
 2.5803254413e-01	 1.3835515229e+00	-1.6840963056e+00
 2.4255122434e-01	 1.3863493477e+00	-1.6631183142e+00
 2.2709425207e-01	 1.3889650144e+00	-1.6523437558e+00
 2.2111808754e-01	 1.3524133035e+00	-1.9187612547e+00
 2.0609440264e-01	 1.3547841338e+00	-1.9189232548e+00
 1.9110000999e-01	 1.3569803750e+00	-1.9181678126e+00
 1.7613762505e-01	 1.3590034912e+00	-1.9149460241e+00
 1.6120991058e-01	 1.3608549947e+00	-1.9077204758e+00
 1.4631947581e-01	 1.3625364446e+00	-1.8949048997e+00
 2.2231332045e-01	 1.3597236456e+00	-1.8627397402e+00
 2.0720842644e-01	 1.3621072913e+00	-1.8621935621e+00
 1.9213298302e-01	 1.3643154041e+00	-1.8606682949e+00
 1.7708972032e-01	 1.3663494560e+00	-1.8565556226e+00
 1.6208131550e-01	 1.3682109677e+00	-1.8482888019e+00
 1.4711039190e-01	 1.3699015065e+00	-1.8342776044e+00
 2.2350855335e-01	 1.3670339878e+00	-1.8077608311e+00
 2.0832245024e-01	 1.3694304488e+00	-1.8064426476e+00
 1.9316595605e-01	 1.3716504331e+00	-1.8041807410e+00
 1.7804181559e-01	 1.3736954208e+00	-1.7992923715e+00
 1.6295272043e-01	 1.3755669406e+00	-1.7901665863e+00
 1.4790130799e-01	 1.3772665684e+00	-1.7751943482e+00
 2.2470378626e-01	 1.3743443300e+00	-1.7541469666e+00
 2.0943647404e-01	 1.3767536062e+00	-1.7520301383e+00
 1.9419892907e-01	 1.3789854622e+00	-1.7490768081e+00
 1.7899391086e-01	 1.3810413856e+00	-1.7435161901e+00
 1.6382412535e-01	 1.3829229136e+00	-1.7336796841e+00
 1.4869222407e-01	 1.3846316302e+00	-1.7179260852e+00
 2.2589901916e-01	 1.3816546722e+00	-1.7022285820e+00
 2.1055049784e-01	 1.3840767637e+00	-1.6993231175e+00
 1.9523190210e-01	 1.3863204912e+00	-1.6957351998e+00
 1.7994600614e-01	 1.3883873504e+00	-1.6895937613e+00
 1.6469553027e-01	 1.3902788865e+00	-1.6791605569e+00
 1.4948314016e-01	 1.3919966921e+00	-1.6627503418e+00
 2.2709425207e-01	 1.3889650144e+00	-1.6523437558e+00
 2.1166452164e-01	 1.3913999212e+00	-1.6486958502e+00
 1.9626487513e-01	 1.3936555203e+00	-1.6445414569e+00
 1.8089810141e-01	 1.3957333153e+00	-1.6378983750e+00
 1.6556693519e-01	 1.3976348595e+00	-1.6269481552e+00
 1.5027405624e-01	 1.3993617540e+00	-1.6099511271e+00
 1.4631947581e-01	 1.3625364446e+00	-1.8949048997e+00
 1.3146887572e-01	 1.3640494444e+00	-1.8808781321e+00
 1.1666061034e-01	 1.3653956401e+00	-1.8709360574e+00
 1.0189712416e-01	 1.3665767187e+00	-1.8646078319e+00
 8.7180805633e-02	 1.3675944059e+00	-1.8611232904e+00
 7.2513986657e-02	 1.3684504645e+00	-1.8593516638e+00
 1.4711039190e-01	 1.3699015065e+00	-1.8342776044e+00
 1.3217951829e-01	 1.3714226846e+00	-1.8190799014e+00
 1.1729120823e-01	 1.3727761571e+00	-1.8081883342e+00
 1.0244791943e-01	 1.3739636199e+00	-1.8011694891e+00
 8.7652053231e-02	 1.3749868081e+00	-1.7972852894e+00
 7.2905954152e-02	 1.3758474940e+00	-1.7954273682e+00
 1.4790130799e-01	 1.3772665684e+00	-1.7751943482e+00
 1.3289016086e-01	 1.3787959249e+00	-1.7590405727e+00
 1.1792180612e-01	 1.3801566740e+00	-1.7473410083e+00
 1.0299871469e-01	 1.3813505211e+00	-1.7397130472e+00
 8.8123300829e-02	 1.3823792103e+00	-1.7354649154e+00
 7.3297921648e-02	 1.3832445236e+00	-1.7335255051e+00
 1.4869222407e-01	 1.3846316302e+00	-1.7179260852e+00
 1.3360080343e-01	 1.3861691651e+00	-1.7009673004e+00
 1.1855240402e-01	 1.3875371910e+00	-1.6885401677e+00
 1.0354950996e-01	 1.3887374222e+00	-1.6803273295e+00
 8.8594548427e-02	 1.3897716125e+00	-1.6756986059e+00
 7.3689889143e-02	 1.3906415531e+00	-1.6736360834e+00
 1.4948314016e-01	 1.3919966921e+00	-1.6627503418e+00
 1.3431144601e-01	 1.3935424053e+00	-1.6450736792e+00
 1.1918300191e-01	 1.3949177080e+00	-1.6319378978e+00
 1.0410030522e-01	 1.3961243234e+00	-1.6231064143e+00
 8.9065796025e-02	 1.3971640147e+00	-1.6180270217e+00
 7.4081856639e-02	 1.3980385826e+00	-1.6157520287e+00
 1.5027405624e-01	 1.3993617540e+00	-1.6099511271e+00
 1.3502208858e-01	 1.4009156456e+00	-1.5915796778e+00
 1.1981359980e-01	 1.4022982250e+00	-1.5776922383e+00
 1.0465110049e-01	 1.4035112246e+00	-1.5681496148e+00
 8.9537043623e-02	 1.4045564169e+00	-1.5624950530e+00
 7.4473824134e-02	 1.4054356122e+00	-1.5598692156e+00
 7.2513986657e-02	 1.3684504645e+00	-1.8593516638e+00
 5.7898942210e-02	 1.3691466921e+00	-1.8591530956e+00
 4.3337890012e-02	 1.3696849197e+00	-1.8600638677e+00
 2.8832990253e-02	 1.3700670096e+00	-1.8597246032e+00
 1.4386345390e-02	 1.3702948533e+00	-1.8551609424e+00
 0.0000000000e+00	 1.3703703704e+00	-1.8427489208e+00
 7.2905954152e-02	 1.3758474940e+00	-1.7954273682e+00
 5.8211909465e-02	 1.3765474850e+00	-1.7951888141e+00
 4.3572148877e-02	 1.3770886220e+00	-1.7958989055e+00
 2.8988844254e-02	 1.3774727772e+00	-1.7952854884e+00
 1.4464109419e-02	 1.3777018525e+00	-1.7904377942e+00
 0.0000000000e+00	 1.3777777778e+00	-1.7777682773e+00
 7.3297921648e-02	 1.3832445236e+00	-1.7335255051e+00
 5.8524876721e-02	 1.3839482780e+00	-1.7332552183e+00
 4.3806407742e-02	 1.3844923242e+00	-1.7337937921e+00
 2.9144698256e-02	 1.3848785448e+00	-1.7329464880e+00
 1.4541873448e-02	 1.3851088517e+00	-1.7278566521e+00
 0.0000000000e+00	 1.3851851852e+00	-1.7149638780e+00
 7.3689889143e-02	 1.3906415531e+00	-1.6736360834e+00
 5.8837843976e-02	 1.3913490709e+00	-1.6733024665e+00
 4.4040666607e-02	 1.3918960265e+00	-1.6736662997e+00
 2.9300552257e-02	 1.3922843124e+00	-1.6726019180e+00
 1.4619637477e-02	 1.3925158509e+00	-1.6672987459e+00
 0.0000000000e+00	 1.3925925926e+00	-1.6542156508e+00
 7.4081856639e-02	 1.3980385826e+00	-1.6157520287e+00
 5.9150811231e-02	 1.3987498638e+00	-1.6152820732e+00
 4.4274925472e-02	 1.3992997288e+00	-1.6154337610e+00
 2.9456406259e-02	 1.3996900800e+00	-1.6141436266e+00
 1.4697401507e-02	 1.3999228502e+00	-1.6086405850e+00
 0.0000000000e+00	 1.4000000000e+00	-1.5953963289e+00
 7.4473824134e-02	 1.4054356122e+00	-1.5598692156e+00
 5.9463778486e-02	 1.4061506567e+00	-1.5591469698e+00
 4.4509184337e-02	 1.4067034311e+00	-1.5590131577e+00
 2.9612260260e-02	 1.4070958476e+00	-1.5574611154e+00
 1.4775165536e-02	 1.4073298494e+00	-1.5517541111e+00
 0.0000000000e+00	 1.4074074074e+00	-1.5383716399e+00
 1.4074074074e+00	 0.0000000000e+00	 3.8208768256e+00
 1.4073298494e+00	 1.4775165536e-02	 3.8208989287e+00
 1.4070958476e+00	 2.9612260260e-02	 3.8161177542e+00
 1.4067034311e+00	 4.4509184337e-02	 3.8072236092e+00
 1.4061506567e+00	 5.9463778486e-02	 3.7943439970e+00
 1.4054356122e+00	 7.4473824134e-02	 3.7771028053e+00
 1.4148148148e+00	 0.0000000000e+00	 3.8205115115e+00
 1.4147368486e+00	 1.4852929565e-02	 3.8207151020e+00
 1.4145016153e+00	 2.9768114261e-02	 3.8159590343e+00
 1.4141071333e+00	 4.4743443202e-02	 3.8070097352e+00
 1.4135514497e+00	 5.9776745741e-02	 3.7940357201e+00
 1.4128326417e+00	 7.4865791630e-02	 3.7766704275e+00
 1.4222222222e+00	 0.0000000000e+00	 3.8194641531e+00
 1.4221438478e+00	 1.4930693594e-02	 3.8197855097e+00
 1.4219073829e+00	 2.9923968263e-02	 3.8149996141e+00
 1.4215108356e+00	 4.4977702067e-02	 3.8059404681e+00
 1.4209522426e+00	 6.0089712997e-02	 3.7928078308e+00
 1.4202296712e+00	 7.5257759125e-02	 3.7752338393e+00
 1.4296296296e+00	 0.0000000000e+00	 3.8176964324e+00
 1.4295508470e+00	 1.5008457623e-02	 3.8180689349e+00
 1.4293131505e+00	 3.0079822264e-02	 3.8132050947e+00
 1.4289145379e+00	 4.5211960932e-02	 3.8039968902e+00
 1.4283530355e+00	 6.0402680252e-02	 3.7906644613e+00
 1.4276267008e+00	 7.5649726620e-02	 3.7728266612e+00
 1.4370370370e+00	 0.0000000000e+00	 3.8151696687e+00
 1.4369578462e+00	 1.5086221652e-02	 3.8155235484e+00
 1.4367189181e+00	 3.0235676265e-02	 3.8105402607e+00
 1.4363182401e+00	 4.5446219796e-02	 3.8011590978e+00
 1.4357538285e+00	 6.0715647507e-02	 3.7876086117e+00
 1.4350237303e+00	 7.6041694116e-02	 3.7694812456e+00
 1.4444444444e+00	 0.0000000000e+00	 3.8118448274e+00
 1.4443648454e+00	 1.5163985681e-02	 3.8121069227e+00
 1.4441246857e+00	 3.0391530267e-02	 3.8069690994e+00
 1.4437219424e+00	 4.5680478661e-02	 3.7974062255e+00
 1.4431546214e+00	 6.1028614762e-02	 3.7836421789e+00
 1.4424207599e+00	 7.6433661611e-02	 3.7652287128e+00
 1.4054356122e+00	 7.4473824134e-02	 3.7771028053e+00
 1.4045564169e+00	 8.9537043623e-02	 3.7568598672e+00
 1.4035112246e+00	 1.0465110049e-01	 3.7350077653e+00
 1.4022982250e+00	 1.1981359980e-01	 3.7106920298e+00
 1.4009156456e+00	 1.3502208858e-01	 3.6828772882e+00
 1.3993617540e+00	 1.5027405624e-01	 3.6504414185e+00
 1.4128326417e+00	 7.4865791630e-02	 3.7766704275e+00
 1.4119488191e+00	 9.0008291221e-02	 3.7562770772e+00
 1.4108981258e+00	 1.0520189576e-01	 3.7342706657e+00
 1.4096787419e+00	 1.2044419770e-01	 3.7098003522e+00
 1.4082888858e+00	 1.3573273115e-01	 3.6818207204e+00
 1.4067268158e+00	 1.5106497233e-01	 3.6491911559e+00
 1.4202296712e+00	 7.5257759125e-02	 3.7752338393e+00
 1.4193412213e+00	 9.0479538819e-02	 3.7545732106e+00
 1.4182850270e+00	 1.0575269102e-01	 3.7322800660e+00
 1.4170592589e+00	 1.2107479559e-01	 3.7075386062e+00
 1.4156621261e+00	 1.3644337372e-01	 3.6793249898e+00
 1.4140918777e+00	 1.5185588841e-01	 3.6465120598e+00
 1.4276267008e+00	 7.5649726620e-02	 3.7728266612e+00
 1.4267336235e+00	 9.0950786417e-02	 3.7518167359e+00
 1.4256719282e+00	 1.0630348629e-01	 3.7291430824e+00
 1.4244397759e+00	 1.2170539348e-01	 3.7040544536e+00
 1.4230353663e+00	 1.3715401629e-01	 3.6755782764e+00
 1.4214569395e+00	 1.5264680450e-01	 3.6426308563e+00
 1.4350237303e+00	 7.6041694116e-02	 3.7694812456e+00
 1.4341260257e+00	 9.1422034015e-02	 3.7480747154e+00
 1.4330588293e+00	 1.0685428155e-01	 3.7249652799e+00
 1.4318202929e+00	 1.2233599138e-01	 3.6994938554e+00
 1.4304086065e+00	 1.3786465886e-01	 3.6707669068e+00
 1.4288220014e+00	 1.5343772058e-01	 3.6377722649e+00
 1.4424207599e+00	 7.6433661611e-02	 3.7652287128e+00
 1.4415184279e+00	 9.1893281613e-02	 3.7434128471e+00
 1.4404457305e+00	 1.0740507682e-01	 3.7198507190e+00
 1.4392008098e+00	 1.2296658927e-01	 3.6940011215e+00
 1.4377818468e+00	 1.3857530143e-01	 3.6650754046e+00
 1.4361870633e+00	 1.5422863667e-01	 3.6321590470e+00
 1.3993617540e+00	 1.5027405624e-01	 3.6504414185e+00
 1.3976348595e+00	 1.6556693519e-01	 3.6121015801e+00
 1.3957333153e+00	 1.8089810141e-01	 3.5678162477e+00
 1.3936555203e+00	 1.9626487513e-01	 3.5185001095e+00
 1.3913999212e+00	 2.1166452164e-01	 3.4653890646e+00
 1.3889650144e+00	 2.2709425207e-01	 3.4101382185e+00
 1.4067268158e+00	 1.5106497233e-01	 3.6491911559e+00
 1.4049908324e+00	 1.6643834011e-01	 3.6105147295e+00
 1.4030792801e+00	 1.8185019668e-01	 3.5656552383e+00
 1.4009905493e+00	 1.9729784816e-01	 3.5155424782e+00
 1.3987230787e+00	 2.1277854543e-01	 3.4614421987e+00
 1.3962753565e+00	 2.2828948497e-01	 3.4050599415e+00
 1.4140918777e+00	 1.5185588841e-01	 3.6465120598e+00
 1.4123468054e+00	 1.6730974504e-01	 3.6076092804e+00
 1.4104252449e+00	 1.8280229195e-01	 3.5623483898e+00
 1.4083255784e+00	 1.9833082118e-01	 3.5116200846e+00
 1.4060462362e+00	 2.1389256923e-01	 3.4566664231e+00
 1.4035856987e+00	 2.2948471788e-01	 3.3991908134e+00
 1.4214569395e+00	 1.5264680450e-01	 3.6426308563e+00
 1.4197027783e+00	 1.6818114996e-01	 3.6036512762e+00
 1.4177712097e+00	 1.8375438722e-01	 3.5582055041e+00
 1.4156606074e+00	 1.9936379421e-01	 3.5070903765e+00
 1.4133693936e+00	 2.1500659303e-01	 3.4514701809e+00
 1.4108960409e+00	 2.3067995079e-01	 3.3929931054e+00
 1.4288220014e+00	 1.5343772058e-01	 3.6377722649e+00
 1.4270587512e+00	 1.6905255488e-01	 3.5989045049e+00
 1.4251171745e+00	 1.8470648249e-01	 3.5535336709e+00
 1.4229956365e+00	 2.0039676724e-01	 3.5023073991e+00
 1.4206925511e+00	 2.1612061683e-01	 3.4462575624e+00
 1.4182063831e+00	 2.3187518369e-01	 3.3869235023e+00
 1.4361870633e+00	 1.5422863667e-01	 3.6321590470e+00
 1.4344147242e+00	 1.6992395980e-01	 3.5936305459e+00
 1.4324631393e+00	 1.8565857776e-01	 3.5486373141e+00
 1.4303306656e+00	 2.0142974026e-01	 3.4976218415e+00
 1.4280157086e+00	 2.1723464063e-01	 3.4414283548e+00
 1.4255167253e+00	 2.3307041660e-01	 3.3814331555e+00
 1.3889650144e+00	 2.2709425207e-01	 3.4101382185e+00
 1.3863493477e+00	 2.4255122434e-01	 3.3566112216e+00
 1.3835515229e+00	 2.5803254413e-01	 3.3049482416e+00
 1.3805701970e+00	 2.7353526591e-01	 3.2521179304e+00
 1.3774040843e+00	 2.8905639414e-01	 3.1958615474e+00
 1.3740519587e+00	 3.0459288440e-01	 3.1347719491e+00
 1.3962753565e+00	 2.2828948497e-01	 3.4050599415e+00
 1.3936459233e+00	 2.4382780973e-01	 3.3507114126e+00
 1.3908333730e+00	 2.5939061015e-01	 3.2987930189e+00
 1.3878363559e+00	 2.7497492521e-01	 3.2460774841e+00
 1.3846535795e+00	 2.9057774358e-01	 3.1901529000e+00
 1.3812838111e+00	 3.0619600485e-01	 3.1295075468e+00
 1.4035856987e+00	 2.2948471788e-01	 3.3991908134e+00
 1.4009424988e+00	 2.4510439512e-01	 3.3439393711e+00
 1.3981152232e+00	 2.6074867617e-01	 3.2916126994e+00
 1.3951025148e+00	 2.7641458450e-01	 3.2388411824e+00
 1.3919030747e+00	 2.9209909302e-01	 3.1831145113e+00
 1.3885156635e+00	 3.0779912529e-01	 3.1228724037e+00
 1.4108960409e+00	 2.3067995079e-01	 3.3929931054e+00
 1.4082390743e+00	 2.4638098052e-01	 3.3368025475e+00
 1.4053970733e+00	 2.6210674219e-01	 3.2839387044e+00
 1.4023686738e+00	 2.7785424379e-01	 3.2309411296e+00
 1.3991525698e+00	 2.9362044246e-01	 3.1752538523e+00
 1.3957475159e+00	 3.0940224573e-01	 3.1153220722e+00
 1.4182063831e+00	 2.3187518369e-01	 3.3869235023e+00
 1.4155356498e+00	 2.4765756591e-01	 3.3298014903e+00
 1.4126789234e+00	 2.6346480821e-01	 3.2762943822e+00
 1.4096348327e+00	 2.7929390309e-01	 3.2229003417e+00
 1.4064020650e+00	 2.9514179191e-01	 3.1670684591e+00
 1.4029793684e+00	 3.1100536618e-01	 3.1073015041e+00
 1.4255167253e+00	 2.3307041660e-01	 3.3814331555e+00
 1.4228322253e+00	 2.4893415130e-01	 3.3234298991e+00
 1.4199607735e+00	 2.6482287423e-01	 3.2691950504e+00
 1.4169009916e+00	 2.8073356238e-01	 3.2152327678e+00
 1.4136515602e+00	 2.9666314135e-01	 3.1590459206e+00
 1.4102112208e+00	 3.1260848662e-01	 3.0992449928e+00
 1.3740519587e+00	 3.0459288440e-01	 3.1347719491e+00
 1.3705126551e+00	 3.2014164476e-01	 3.0580583462e+00
 1.3667850713e+00	 3.3569953707e-01	 2.9631359264e+00
 1.3628681702e+00	 3.5126337844e-01	 2.8623106080e+00
 1.3587609810e+00	 3.6682994276e-01	 2.7688461317e+00
 1.3544626014e+00	 3.8239596226e-01	 2.7031074423e+00
 1.3812838111e+00	 3.0619600485e-01	 3.1295075468e+00
 1.3777258796e+00	 3.2182660078e-01	 3.0524202397e+00
 1.3739786770e+00	 3.3746637674e-01	 2.9557683481e+00
 1.3700411606e+00	 3.5311213307e-01	 2.8524294639e+00
 1.3659123546e+00	 3.6876062667e-01	 2.7563045740e+00
 1.3615913519e+00	 3.8440857259e-01	 2.6903295404e+00
 1.3885156635e+00	 3.0779912529e-01	 3.1228724037e+00
 1.3849391041e+00	 3.2351155681e-01	 3.0454774833e+00
 1.3811722826e+00	 3.3923321641e-01	 2.9472241562e+00
 1.3772141510e+00	 3.5496088769e-01	 2.8415318560e+00
 1.3730637282e+00	 3.7069131058e-01	 2.7429166574e+00
 1.3687201024e+00	 3.8642118291e-01	 2.6769847995e+00
 1.3957475159e+00	 3.0940224573e-01	 3.1153220722e+00
 1.3921523286e+00	 3.2519651283e-01	 3.0376175653e+00
 1.3883658883e+00	 3.4100005607e-01	 2.9378188466e+00
 1.3843871413e+00	 3.5680964231e-01	 2.8298571076e+00
 1.3802151018e+00	 3.7262199449e-01	 2.7290414648e+00
 1.3758488530e+00	 3.8843379324e-01	 2.6631190705e+00
 1.4029793684e+00	 3.1100536618e-01	 3.1073015041e+00
 1.3993655531e+00	 3.2688146886e-01	 3.0292166345e+00
 1.3955594939e+00	 3.4276689574e-01	 2.9278554889e+00
 1.3915601317e+00	 3.5865839694e-01	 2.8176306661e+00
 1.3873664753e+00	 3.7455267840e-01	 2.7148993444e+00
 1.3829776035e+00	 3.9044640357e-01	 2.6487662560e+00
 1.4102112208e+00	 3.1260848662e-01	 3.0992449928e+00
 1.4065787776e+00	 3.2856642488e-01	 3.0206393901e+00
 1.4027530995e+00	 3.4453373541e-01	 2.9176245644e+00
 1.3987331221e+00	 3.6050715156e-01	 2.8050638892e+00
 1.3945178489e+00	 3.7648336231e-01	 2.7005787198e+00
 1.3901063540e+00	 3.9245901390e-01	 2.6339486098e+00
 1.3544626014e+00	 3.8239596226e-01	 2.7031074423e+00
 1.3499721989e+00	 3.9795812918e-01	 2.6477295918e+00
 1.3452890130e+00	 4.1351309752e-01	 2.5687092224e+00
 1.3404123564e+00	 4.2905748485e-01	 2.4737013310e+00
 1.3353416164e+00	 4.4458787417e-01	 2.3703944000e+00
 1.3300762571e+00	 4.6010081589e-01	 2.2664417140e+00
 1.3615913519e+00	 3.8440857259e-01	 2.6903295404e+00
 1.3570773158e+00	 4.0005264565e-01	 2.6350537753e+00
 1.3523694815e+00	 4.1568948224e-01	 2.5560135901e+00
 1.3474671582e+00	 4.3131568214e-01	 2.4607023450e+00
 1.3423697302e+00	 4.4692781035e-01	 2.3566523449e+00
 1.3370766584e+00	 4.6252239913e-01	 2.2513649974e+00
 1.3687201024e+00	 3.8642118291e-01	 2.6769847995e+00
 1.3641824326e+00	 4.0214716212e-01	 2.6218470989e+00
 1.3594499500e+00	 4.1786586697e-01	 2.5429899053e+00
 1.3545219601e+00	 4.3357387943e-01	 2.4476740524e+00
 1.3493978440e+00	 4.4926774653e-01	 2.3432043085e+00
 1.3440770598e+00	 4.6494398237e-01	 2.2368585053e+00
 1.3758488530e+00	 3.8843379324e-01	 2.6631190705e+00
 1.3712875494e+00	 4.0424167859e-01	 2.6080934876e+00
 1.3665304185e+00	 4.2004225169e-01	 2.5295664752e+00
 1.3615767620e+00	 4.3583207672e-01	 2.4344969662e+00
 1.3564259577e+00	 4.5160768271e-01	 2.3298923327e+00
 1.3510774611e+00	 4.6736556561e-01	 2.2227366122e+00
 1.3829776035e+00	 3.9044640357e-01	 2.6487662560e+00
 1.3783926663e+00	 4.0633619505e-01	 2.5937655418e+00
 1.3736108870e+00	 4.2221863642e-01	 2.5156608530e+00
 1.3686315639e+00	 4.3809027400e-01	 2.4210413358e+00
 1.3634540715e+00	 4.5394761889e-01	 2.3165485781e+00
 1.3580778625e+00	 4.6978714885e-01	 2.2088040581e+00
 1.3901063540e+00	 3.9245901390e-01	 2.6339486098e+00
 1.3854977831e+00	 4.0843071152e-01	 2.5788248523e+00
 1.3806913555e+00	 4.2439502114e-01	 2.5011801730e+00
 1.3756863658e+00	 4.4034847129e-01	 2.4071675075e+00
 1.3704821853e+00	 4.5628755507e-01	 2.3029957164e+00
 1.3650782638e+00	 4.7220873209e-01	 2.1948563776e+00
 1.3300762571e+00	 4.6010081589e-01	 2.2664417140e+00
 1.3246158200e+00	 4.7559282980e-01	 2.1651528745e+00
 1.3189599262e+00	 4.9106040720e-01	 2.0646441279e+00
 1.3131082770e+00	 5.0650001305e-01	 1.9645597538e+00
 1.3070606558e+00	 5.2190808814e-01	 1.8643045150e+00
 1.3008169288e+00	 5.3728105139e-01	 1.7629986403e+00
 1.3370766584e+00	 4.6252239913e-01	 2.2513649974e+00
 1.3315874822e+00	 4.7809594995e-01	 2.1485225659e+00
 1.3259018205e+00	 4.9364493566e-01	 2.0467162875e+00
 1.3200193732e+00	 5.0916580259e-01	 1.9455894726e+00
 1.3139399224e+00	 5.2465497281e-01	 1.8445382048e+00
 1.3076633337e+00	 5.4010884640e-01	 1.7426654221e+00
 1.3440770598e+00	 4.6494398237e-01	 2.2368585053e+00
 1.3385591445e+00	 4.8059907011e-01	 2.1325964829e+00
 1.3328437149e+00	 4.9622946412e-01	 2.0294897596e+00
 1.3269304694e+00	 5.1183159214e-01	 1.9272591177e+00
 1.3208191890e+00	 5.2740185749e-01	 1.8253699323e+00
 1.3145097386e+00	 5.4293664141e-01	 1.7229851800e+00
 1.3510774611e+00	 4.6736556561e-01	 2.2227366122e+00
 1.3455308067e+00	 4.8310219027e-01	 2.1171653954e+00
 1.3397856092e+00	 4.9881399258e-01	 2.0127274130e+00
 1.3338415656e+00	 5.1449738168e-01	 1.9092983807e+00
 1.3276984556e+00	 5.3014874216e-01	 1.8064899303e+00
 1.3213561435e+00	 5.4576443641e-01	 1.7036013782e+00
 1.3580778625e+00	 4.6978714885e-01	 2.2088040581e+00
 1.3525024689e+00	 4.8560531042e-01	 2.1020106890e+00
 1.3467275036e+00	 5.0139852104e-01	 1.9961831596e+00
 1.3407526618e+00	 5.1716317122e-01	 1.8914286193e+00
 1.3345777222e+00	 5.3289562684e-01	 1.7875809362e+00
 1.3282025483e+00	 5.4859223142e-01	 1.6841510571e+00
 1.3650782638e+00	 4.7220873209e-01	 2.1948563776e+00
 1.3594741311e+00	 4.8810843058e-01	 2.0869048351e+00
 1.3536693979e+00	 5.0398304950e-01	 1.9796024624e+00
 1.3476637580e+00	 5.1982896076e-01	 1.8733634017e+00
 1.3414569889e+00	 5.3564251151e-01	 1.7683187694e+00
 1.3350489532e+00	 5.5142002643e-01	 1.6642654408e+00
 1.3008169288e+00	 5.3728105139e-01	 1.7629986403e+00
 1.2943770464e+00	 5.5261530219e-01	 1.6574579199e+00
 1.2877410441e+00	 5.6790722275e-01	 1.5477142199e+00
 1.2809090438e+00	 5.8315318059e-01	 1.4371138340e+00
 1.2738812540e+00	 5.9834953097e-01	 1.3284887791e+00
 1.2666579713e+00	 6.1349261946e-01	 1.2241151759e+00
 1.3076633337e+00	 5.4010884640e-01	 1.7426654221e+00
 1.3011895572e+00	 5.5552380378e-01	 1.6363189854e+00
 1.2945186286e+00	 5.7089620814e-01	 1.5253592429e+00
 1.2876506703e+00	 5.8622240785e-01	 1.4135444322e+00
 1.2805858921e+00	 6.0149873902e-01	 1.3041061933e+00
 1.2733245922e+00	 6.1672152798e-01	 1.1997067914e+00
 1.3145097386e+00	 5.4293664141e-01	 1.7229851800e+00
 1.3080020679e+00	 5.5843230537e-01	 1.6160197002e+00
 1.3012962130e+00	 5.7388519352e-01	 1.5040969167e+00
 1.2943922969e+00	 5.8929163512e-01	 1.3913123883e+00
 1.2872905303e+00	 6.0464794708e-01	 1.2812216882e+00
 1.2799912131e+00	 6.1995043650e-01	 1.1767966467e+00
 1.3213561435e+00	 5.4576443641e-01	 1.7036013782e+00
 1.3148145787e+00	 5.6134080696e-01	 1.5961533895e+00
 1.3080737975e+00	 5.7687417890e-01	 1.4834725363e+00
 1.3011339234e+00	 5.9236086239e-01	 1.3699183272e+00
 1.2939951685e+00	 6.0779715514e-01	 1.2592958170e+00
 1.2866578340e+00	 6.2317934503e-01	 1.1548110441e+00
 1.3282025483e+00	 5.4859223142e-01	 1.6841510571e+00
 1.3216270895e+00	 5.6424930855e-01	 1.5763081757e+00
 1.3148513819e+00	 5.7986316428e-01	 1.4630274459e+00
 1.3078755499e+00	 5.9543008965e-01	 1.3488601753e+00
 1.3006998067e+00	 6.1094636320e-01	 1.2377876541e+00
 1.2933244549e+00	 6.2640825355e-01	 1.1331759633e+00
 1.3350489532e+00	 5.5142002643e-01	 1.6642654408e+00
 1.3284396002e+00	 5.6715781014e-01	 1.5560676136e+00
 1.3216289664e+00	 5.8285214967e-01	 1.4422997027e+00
 1.3146171765e+00	 5.9849931692e-01	 1.3276338543e+00
 1.3074044449e+00	 6.1409557125e-01	 1.2161555224e+00
 1.2999910758e+00	 6.2963716207e-01	 1.1113178236e+00
 1.2666579713e+00	 6.1349261946e-01	 1.2241151759e+00
 1.2592395809e+00	 6.2857878451e-01	 1.1223892522e+00
 1.2516265570e+00	 6.4360436009e-01	 1.0187005875e+00
 1.2438194635e+00	 6.5856567829e-01	 9.0975405001e-01
 1.2358189547e+00	 6.7345907206e-01	 7.9141086843e-01
 1.2276257750e+00	 6.8828087791e-01	 6.5867324659e-01
 1.2733245922e+00	 6.1672152798e-01	 1.1997067914e+00
 1.2658671576e+00	 6.3188709390e-01	 1.0983515834e+00
 1.2582140652e+00	 6.4699175146e-01	 9.9459723494e-01
 1.2503658817e+00	 6.6203181344e-01	 8.8485372890e-01
 1.2423232649e+00	 6.7700359349e-01	 7.6467862300e-01
 1.2340869633e+00	 6.9190340885e-01	 6.2876289349e-01
 1.2799912131e+00	 6.1995043650e-01	 1.1767966467e+00
 1.2724947344e+00	 6.3519540330e-01	 1.0756538571e+00
 1.2648015734e+00	 6.5037914283e-01	 9.7163966862e-01
 1.2569123000e+00	 6.6549794858e-01	 8.6097474561e-01
 1.2488275752e+00	 6.8054811492e-01	 7.3902105333e-01
 1.2405481516e+00	 6.9552593978e-01	 6.0026878907e-01
 1.2866578340e+00	 6.2317934503e-01	 1.1548110441e+00
 1.2791223111e+00	 6.3850371269e-01	 1.0537029110e+00
 1.2713890815e+00	 6.5376653419e-01	 9.4923714732e-01
 1.2634587182e+00	 6.6896408373e-01	 8.3754904219e-01
 1.2553318855e+00	 6.8409263635e-01	 7.1391137693e-01
 1.2470093399e+00	 6.9914847072e-01	 5.7272230519e-01
 1.2933244549e+00	 6.2640825355e-01	 1.1331759633e+00
 1.2857498879e+00	 6.4181202208e-01	 1.0319061589e+00
 1.2779765897e+00	 6.5715392556e-01	 9.2679999239e-01
 1.2700051364e+00	 6.7243021888e-01	 8.1400972201e-01
 1.2618361958e+00	 6.8763715779e-01	 6.8882370812e-01
 1.2534705282e+00	 7.0277100166e-01	 5.4565510753e-01
 1.2999910758e+00	 6.2963716207e-01	 1.1113178236e+00
 1.2923774646e+00	 6.4512033147e-01	 1.0096723961e+00
 1.2845640979e+00	 6.6054131693e-01	 9.0374044821e-01
 1.2765515547e+00	 6.7589635403e-01	 7.8979197518e-01
 1.2683405061e+00	 6.9118167922e-01	 6.6323405776e-01
 1.2599317165e+00	 7.0639353259e-01	 5.1860023830e-01
 1.2276257750e+00	 6.8828087791e-01	 6.5867324659e-01
 1.2192407600e+00	 7.0302743866e-01	 5.3194823680e-01
 1.2106648359e+00	 7.1769510618e-01	 4.3175779868e-01
 1.2018990200e+00	 7.3228024421e-01	 3.5232066767e-01
 1.1929444205e+00	 7.4677923113e-01	 2.8164767059e-01
 1.1838022363e+00	 7.6118846278e-01	 1.6379510430e-01
 1.2340869633e+00	 6.9190340885e-01	 6.2876289349e-01
 1.2256578167e+00	 7.0672758307e-01	 4.9958123142e-01
 1.2170367561e+00	 7.2147244884e-01	 4.0027767573e-01
 1.2082248044e+00	 7.3613435076e-01	 3.2558996871e-01
 1.1992230753e+00	 7.5070964814e-01	 2.5418676536e-01
 1.1900327743e+00	 7.6519471784e-01	 1.3231796411e-01
 1.2405481516e+00	 6.9552593978e-01	 6.0026878907e-01
 1.2320748733e+00	 7.1042772749e-01	 4.6933277943e-01
 1.2234086763e+00	 7.2524979151e-01	 3.7186834332e-01
 1.2145505887e+00	 7.3998845731e-01	 3.0296614063e-01
 1.2055017302e+00	 7.5464006514e-01	 2.2717476007e-01
 1.1962633124e+00	 7.6920097291e-01	 1.0213137440e-01
 1.2470093399e+00	 6.9914847072e-01	 5.7272230519e-01
 1.2384919299e+00	 7.1412787190e-01	 4.4078544915e-01
 1.2297805965e+00	 7.2902713417e-01	 3.4613555208e-01
 1.2208763730e+00	 7.4384256386e-01	 2.8258075310e-01
 1.2117803850e+00	 7.5857048215e-01	 2.0037606507e-01
 1.2024938505e+00	 7.7320722798e-01	 7.2983426761e-02
 1.2534705282e+00	 7.0277100166e-01	 5.4565510753e-01
 1.2449089866e+00	 7.1782801631e-01	 4.1352164216e-01
 1.2361525167e+00	 7.3280447684e-01	 3.2268499057e-01
 1.2272021573e+00	 7.4769667040e-01	 2.6115129985e-01
 1.2180590399e+00	 7.6250089915e-01	 1.7357571518e-01
 1.2087243886e+00	 7.7721348305e-01	 4.4643250090e-02
 1.2599317165e+00	 7.0639353259e-01	 5.1860023830e-01
 1.2513260432e+00	 7.2152816073e-01	 3.8712475478e-01
 1.2425244369e+00	 7.3658181950e-01	 3.0112351042e-01
 1.2335279416e+00	 7.5155077695e-01	 2.3839125520e-01
 1.2243376947e+00	 7.6643131616e-01	 1.4657883941e-01
 1.2149549267e+00	 7.8121973811e-01	 1.6900466865e-02
 1.1838022363e+00	 7.6118846278e-01	 1.6379510430e-01
 1.1744737568e+00	 7.7550435525e-01	 2.8549400250e-02
 1.1649603618e+00	 7.8972334772e-01	-8.4866873599e-02
 1.1552635205e+00	 8.0384190525e-01	-1.8531122855e-01
 1.1453847915e+00	 8.1785652157e-01	-2.8143728504e-01
 1.1353258217e+00	 8.3176372189e-01	-3.8159258534e-01
 1.1900327743e+00	 7.6519471784e-01	 1.3231796411e-01
 1.1806551976e+00	 7.7958595712e-01	-3.5020162506e-03
 1.1710917321e+00	 7.9387978639e-01	-1.1611305144e-01
 1.1613438548e+00	 8.0807265212e-01	-2.1518340478e-01
 1.1514131325e+00	 8.2216102958e-01	-3.1020195962e-01
 1.1413012207e+00	 8.3614142569e-01	-4.1037187547e-01
 1.1962633124e+00	 7.6920097291e-01	 1.0213137440e-01
 1.1868366385e+00	 7.8366755899e-01	-3.3955288023e-02
 1.1772231024e+00	 7.9803622506e-01	-1.4592118482e-01
 1.1674241891e+00	 8.1230339899e-01	-2.4394512428e-01
 1.1574414735e+00	 8.2646553759e-01	-3.3805181252e-01
 1.1472766198e+00	 8.4051912949e-01	-4.3800197232e-01
 1.2024938505e+00	 7.7320722798e-01	 7.2983426761e-02
 1.1930180793e+00	 7.8774916086e-01	-6.3091297963e-02
 1.1833544727e+00	 8.0219266373e-01	-1.7461104337e-01
 1.1735045235e+00	 8.1653414586e-01	-2.7196974667e-01
 1.1634698145e+00	 8.3077004559e-01	-3.6543330925e-01
 1.1532520189e+00	 8.4489683329e-01	-4.6502679057e-01
 1.2087243886e+00	 7.7721348305e-01	 4.4643250090e-02
 1.1991995201e+00	 7.9183076273e-01	-9.1169173246e-02
 1.1894858431e+00	 8.0634910241e-01	-2.0247967412e-01
 1.1795848578e+00	 8.2076489272e-01	-2.9960659621e-01
 1.1694981555e+00	 8.3507455360e-01	-3.9276712433e-01
 1.1592274179e+00	 8.4927453709e-01	-4.9196215906e-01
 1.2149549267e+00	 7.8121973811e-01	 1.6900466865e-02
 1.2053809609e+00	 7.9591236460e-01	-1.1842684786e-01
 1.1956172134e+00	 8.1050554108e-01	-2.2980198653e-01
 1.1856651921e+00	 8.2499563959e-01	-3.2718157555e-01
 1.1755264965e+00	 8.3937906161e-01	-4.2044879249e-01
 1.1652028170e+00	 8.5365224089e-01	-5.1929652080e-01
 1.1353258217e+00	 8.3176372189e-01	-3.8159258534e-01
 1.1250883458e+00	 8.4556006566e-01	-4.8137288563e-01
 1.1146741853e+00	 8.5924214931e-01	-5.6943589259e-01
 1.1040852475e+00	 8.7280660896e-01	-6.5032616919e-01
 1.0933235247e+00	 8.8625012314e-01	-7.4086153088e-01
 1.0823910925e+00	 8.9956941544e-01	-8.3015657299e-01
 1.1413012207e+00	 8.3614142569e-01	-4.1037187547e-01
 1.1310098634e+00	 8.5001038180e-01	-5.1234186916e-01
 1.1205408915e+00	 8.6376447641e-01	-6.0513224281e-01
 1.1098962225e+00	 8.7740032795e-01	-6.8600455717e-01
 1.0990778590e+00	 8.9091459747e-01	-7.6964818988e-01
 1.0880878878e+00	 9.0430399131e-01	-8.5707266351e-01
 1.1472766198e+00	 8.4051912949e-01	-4.3800197232e-01
 1.1369313810e+00	 8.5446069793e-01	-5.4119323316e-01
 1.1264075977e+00	 8.6828680351e-01	-6.3712096281e-01
 1.1157071975e+00	 8.8199404695e-01	-7.2297762171e-01
 1.1048321934e+00	 8.9557907181e-01	-8.0034022482e-01
 1.0937846830e+00	 9.0903856718e-01	-8.8388878660e-01
 1.1532520189e+00	 8.4489683329e-01	-4.6502679057e-01
 1.1428528986e+00	 8.5891101407e-01	-5.6857400902e-01
 1.1322743040e+00	 8.7280913061e-01	-6.6613271644e-01
 1.1215181725e+00	 8.8658776594e-01	-7.5536379250e-01
 1.1105865277e+00	 9.0024354614e-01	-8.3326224854e-01
 1.0994814782e+00	 9.1377314305e-01	-9.1092507116e-01
 1.1592274179e+00	 8.4927453709e-01	-4.9196215906e-01
 1.1487744162e+00	 8.6336133021e-01	-5.9510069741e-01
 1.1381410102e+00	 8.7733145771e-01	-6.9286556531e-01
 1.1273291475e+00	 8.9118148494e-01	-7.8370368705e-01
 1.1163408621e+00	 9.0490802047e-01	-8.6533534991e-01
 1.1051782734e+00	 9.1850771892e-01	-9.3847727244e-01
 1.1652028170e+00	 8.5365224089e-01	-5.1929652080e-01
 1.1546959338e+00	 8.6781164634e-01	-6.2136001831e-01
 1.1440077164e+00	 8.8185378482e-01	-7.1798575700e-01
 1.1331401225e+00	 8.9577520393e-01	-8.0871968163e-01
 1.1220951964e+00	 9.0957249480e-01	-8.9235323699e-01
 1.1108750687e+00	 9.2324229479e-01	-9.6681611779e-01
 1.0823910925e+00	 8.9956941544e-01	-8.3015657299e-01
 1.0712901091e+00	 9.1276125710e-01	-9.1836135860e-01
 1.0600228135e+00	 9.2582246962e-01	-1.0106155716e+00
 1.0485915242e+00	 9.3874992724e-01	-1.0997745457e+00
 1.0369986375e+00	 9.5154055946e-01	-1.1776082774e+00
 1.0252466262e+00	 9.6419135341e-01	-1.2349260366e+00
 1.0880878878e+00	 9.0430399131e-01	-8.5707266351e-01
 1.0769284781e+00	 9.1756526372e-01	-9.4629396560e-01
 1.0656018810e+00	 9.3069521946e-01	-1.0401538210e+00
 1.0541104269e+00	 9.4369071633e-01	-1.1308649360e+00
 1.0424565250e+00	 9.5654866766e-01	-1.2095295025e+00
 1.0306426610e+00	 9.6926604474e-01	-1.2662689600e+00
 1.0937846830e+00	 9.0903856718e-01	-8.8388878660e-01
 1.0825668471e+00	 9.2236927034e-01	-9.7282578882e-01
 1.0711809484e+00	 9.3556796930e-01	-1.0676610232e+00
 1.0596293297e+00	 9.4863150542e-01	-1.1597862815e+00
 1.0479144126e+00	 9.6155677587e-01	-1.2394558649e+00
 1.0360386959e+00	 9.7434073608e-01	-1.2959220087e+00
 1.0994814782e+00	 9.1377314305e-01	-9.1092507116e-01
 1.0882052161e+00	 9.2717327695e-01	-9.9825319768e-01
 1.0767600158e+00	 9.4044071914e-01	-1.0934076972e+00
 1.0651482324e+00	 9.5357229451e-01	-1.1867836080e+00
 1.0533723002e+00	 9.6656488408e-01	-1.2676096778e+00
 1.0414347308e+00	 9.7941542741e-01	-1.3240899597e+00
 1.1051782734e+00	 9.1850771892e-01	-9.3847727244e-01
 1.0938435851e+00	 9.3197728357e-01	-1.0228492676e+00
 1.0823390833e+00	 9.4531346898e-01	-1.1176423637e+00
 1.0706671352e+00	 9.5851308360e-01	-1.2120813957e+00
 1.0588301877e+00	 9.7157299229e-01	-1.2941942579e+00
 1.0468307657e+00	 9.8449011874e-01	-1.3509601793e+00
 1.1108750687e+00	 9.2324229479e-01	-9.6681611779e-01
 1.0994819541e+00	 9.3678129019e-01	-1.0468631201e+00
 1.0879181507e+00	 9.5018621882e-01	-1.1405908781e+00
 1.0761860379e+00	 9.6345387269e-01	-1.2358829045e+00
 1.0642880753e+00	 9.7658110049e-01	-1.3193932443e+00
 1.0522268005e+00	 9.8956481008e-01	-1.3767019374e+00
 1.0252466262e+00	 9.6419135341e-01	-1.2349260366e+00
 1.0133380373e+00	 9.7669935625e-01	-1.2928458615e+00
 1.0012754909e+00	 9.8906167742e-01	-1.3696880646e+00
 9.8906167742e-01	 1.0012754909e+00	-1.4511890264e+00
 9.7669935625e-01	 1.0133380373e+00	-1.5228997908e+00
 9.6419135341e-01	 1.0252466262e+00	-1.5703487872e+00
 1.0306426610e+00	 9.6926604474e-01	-1.2662689600e+00
 1.0186713954e+00	 9.8183987917e-01	-1.3225964477e+00
 1.0065453619e+00	 9.9426726520e-01	-1.3977530867e+00
 9.9426726520e-01	 1.0065453619e+00	-1.4775517417e+00
 9.8183987917e-01	 1.0186713954e+00	-1.5476067816e+00
 9.6926604474e-01	 1.0306426610e+00	-1.5935012511e+00
 1.0360386959e+00	 9.7434073608e-01	-1.2959220087e+00
 1.0240047535e+00	 9.8698040210e-01	-1.3508915095e+00
 1.0118152329e+00	 9.9947285297e-01	-1.4244760597e+00
 9.9947285297e-01	 1.0118152329e+00	-1.5026099660e+00
 9.8698040210e-01	 1.0240047535e+00	-1.5710161270e+00
 9.7434073608e-01	 1.0360386959e+00	-1.6153776719e+00
 1.0414347308e+00	 9.7941542741e-01	-1.3240899597e+00
 1.0293381116e+00	 9.9212092503e-01	-1.3779267941e+00
 1.0170851039e+00	 1.0046784407e+00	-1.4500531550e+00
 1.0046784407e+00	 1.0170851039e+00	-1.5265685312e+00
 9.9212092503e-01	 1.0293381116e+00	-1.5933483132e+00
 9.7941542741e-01	 1.0414347308e+00	-1.6362199201e+00
 1.0468307657e+00	 9.8449011874e-01	-1.3509601793e+00
 1.0346714697e+00	 9.9726144796e-01	-1.4038821785e+00
 1.0223549749e+00	 1.0098840285e+00	-1.4746661367e+00
 1.0098840285e+00	 1.0223549749e+00	-1.5496192581e+00
 9.9726144796e-01	 1.0346714697e+00	-1.6148121559e+00
 9.8449011874e-01	 1.0468307657e+00	-1.6562594917e+00
 1.0522268005e+00	 9.8956481008e-01	-1.3767019374e+00
 1.0400048278e+00	 1.0024019709e+00	-1.4289209841e+00
 1.0276248459e+00	 1.0150896163e+00	-1.4984816814e+00
 1.0150896163e+00	 1.0276248459e+00	-1.5719402860e+00
 1.0024019709e+00	 1.0400048278e+00	-1.6356041433e+00
 9.8956481008e-01	 1.0522268005e+00	-1.6757168679e+00
 9.6419135341e-01	 1.0252466262e+00	-1.5703487872e+00
 9.5154055946e-01	 1.0369986375e+00	-1.6106926924e+00
 9.3874992724e-01	 1.0485915242e+00	-1.6644909074e+00
 9.2582246962e-01	 1.0600228135e+00	-1.7229888348e+00
 9.1276125710e-01	 1.0712901091e+00	-1.7782591441e+00
 8.9956941544e-01	 1.0823910925e+00	-1.8233466499e+00
 9.6926604474e-01	 1.0306426610e+00	-1.5935012511e+00
 9.5654866766e-01	 1.0424565250e+00	-1.6334057782e+00
 9.4369071633e-01	 1.0541104269e+00	-1.6882328777e+00
 9.3069521946e-01	 1.0656018810e+00	-1.7482931653e+00
 9.1756526372e-01	 1.0769284781e+00	-1.8047374704e+00
 9.0430399131e-01	 1.0880878878e+00	-1.8497083854e+00
 9.7434073608e-01	 1.0360386959e+00	-1.6153776719e+00
 9.6155677587e-01	 1.0479144126e+00	-1.6548846683e+00
 9.4863150542e-01	 1.0596293297e+00	-1.7106885434e+00
 9.3556796930e-01	 1.0711809484e+00	-1.7720311606e+00
 9.2236927034e-01	 1.0825668471e+00	-1.8290077556e+00
 9.0903856718e-01	 1.0937846830e+00	-1.8727256006e+00
 9.7941542741e-01	 1.0414347308e+00	-1.6362199201e+00
 9.6656488408e-01	 1.0533723002e+00	-1.6753927782e+00
 9.5357229451e-01	 1.0651482324e+00	-1.7321393085e+00
 9.4044071914e-01	 1.0767600158e+00	-1.7945001594e+00
 9.2717327695e-01	 1.0882052161e+00	-1.8513827232e+00
 9.1377314305e-01	 1.0994814782e+00	-1.8927273585e+00
 9.8449011874e-01	 1.0468307657e+00	-1.6562594917e+00
 9.7157299229e-01	 1.0588301877e+00	-1.6951844988e+00
 9.5851308360e-01	 1.0706671352e+00	-1.7528590171e+00
 9.4531346898e-01	 1.0823390833e+00	-1.8159914728e+00
 9.3197728357e-01	 1.0938435851e+00	-1.8721706204e+00
 9.1850771892e-01	 1.1051782734e+00	-1.9100397695e+00
 9.8956481008e-01	 1.0522268005e+00	-1.6757168679e+00
 9.7658110049e-01	 1.0642880753e+00	-1.7145045736e+00
 9.6345387269e-01	 1.0761860379e+00	-1.7731133464e+00
 9.5018621882e-01	 1.0879181507e+00	-1.8367897922e+00
 9.3678129019e-01	 1.0994819541e+00	-1.8916746430e+00
 9.2324229479e-01	 1.1108750687e+00	-1.9249854349e+00
 8.9956941544e-01	 1.0823910925e+00	-1.8233466499e+00
 8.8625012314e-01	 1.0933235247e+00	-1.8657153181e+00
 8.7280660896e-01	 1.1040852475e+00	-1.9058098704e+00
 8.5924214931e-01	 1.1146741853e+00	-1.9299439962e+00
 8.4556006566e-01	 1.1250883458e+00	-1.9538990941e+00
 8.3176372189e-01	 1.1353258217e+00	-1.9818462687e+00
 9.0430399131e-01	 1.0880878878e+00	-1.8497083854e+00
 8.9091459747e-01	 1.0990778590e+00	-1.8884315404e+00
 8.7740032795e-01	 1.1098962225e+00	-1.9195220743e+00
 8.6376447641e-01	 1.1205408915e+00	-1.9415720264e+00
 8.5001038180e-01	 1.1310098634e+00	-1.9685154577e+00
 8.3614142569e-01	 1.1413012207e+00	-1.9972658994e+00
 9.0903856718e-01	 1.0937846830e+00	-1.8727256006e+00
 8.9557907181e-01	 1.1048321934e+00	-1.9061528532e+00
 8.8199404695e-01	 1.1157071975e+00	-1.9292962557e+00
 8.6828680351e-01	 1.1264075977e+00	-1.9545543547e+00
 8.5446069793e-01	 1.1369313810e+00	-1.9830814329e+00
 8.4051912949e-01	 1.1472766198e+00	-2.0118603814e+00
 9.1377314305e-01	 1.0994814782e+00	-1.8927273585e+00
 9.0024354614e-01	 1.1105865277e+00	-1.9192358498e+00
 8.8658776594e-01	 1.1215181725e+00	-1.9412985776e+00
 8.7280913061e-01	 1.1322743040e+00	-1.9682735110e+00
 8.5891101407e-01	 1.1428528986e+00	-1.9970451238e+00
 8.4489683329e-01	 1.1532520189e+00	-2.0251498300e+00
 9.1850771892e-01	 1.1051782734e+00	-1.9100397695e+00
 9.0490802047e-01	 1.1163408621e+00	-1.9310934698e+00
 8.9118148494e-01	 1.1273291475e+00	-1.9550733096e+00
 8.7733145771e-01	 1.1381410102e+00	-1.9821116480e+00
 8.6336133021e-01	 1.1487744162e+00	-2.0098528253e+00
 8.4927453709e-01	 1.1592274179e+00	-2.0366509858e+00
 9.2324229479e-01	 1.1108750687e+00	-1.9249854349e+00
 9.0957249480e-01	 1.1220951964e+00	-1.9457499933e+00
 8.9577520393e-01	 1.1331401225e+00	-1.9699498523e+00
 8.8185378482e-01	 1.1440077164e+00	-1.9954508704e+00
 8.6781164634e-01	 1.1546959338e+00	-2.0209493573e+00
 8.5365224089e-01	 1.1652028170e+00	-2.0458775573e+00
 8.3176372189e-01	 1.1353258217e+00	-1.9818462687e+00
 8.1785652157e-01	 1.1453847915e+00	-2.0061178690e+00
 8.0384190525e-01	 1.1552635205e+00	-2.0249869994e+00
 7.8972334772e-01	 1.1649603618e+00	-2.0447752277e+00
 7.7550435525e-01	 1.1744737568e+00	-2.0721497180e+00
 7.6118846278e-01	 1.1838022363e+00	-2.1140315850e+00
 8.3614142569e-01	 1.1413012207e+00	-1.9972658994e+00
 8.2216102958e-01	 1.1514131325e+00	-2.0206409935e+00
 8.0807265212e-01	 1.1613438548e+00	-2.0376965055e+00
 7.9387978639e-01	 1.1710917321e+00	-2.0552099225e+00
 7.7958595712e-01	 1.1806551976e+00	-2.0802753968e+00
 7.6519471784e-01	 1.1900327743e+00	-2.1202088437e+00
 8.4051912949e-01	 1.1472766198e+00	-2.0118603814e+00
 8.2646553759e-01	 1.1574414735e+00	-2.0342104386e+00
 8.1230339899e-01	 1.1674241891e+00	-2.0496536714e+00
 7.9803622506e-01	 1.1772231024e+00	-2.0651961928e+00
 7.8366755899e-01	 1.1868366385e+00	-2.0881316233e+00
 7.6920097291e-01	 1.1962633124e+00	-2.1259433645e+00
 8.4489683329e-01	 1.1532520189e+00	-2.0251498300e+00
 8.3077004559e-01	 1.1634698145e+00	-2.0464139287e+00
 8.1653414586e-01	 1.1735045235e+00	-2.0605037568e+00
 8.0219266373e-01	 1.1833544727e+00	-2.0744304797e+00
 7.8774916086e-01	 1.1930180793e+00	-2.0954633691e+00
 7.7320722798e-01	 1.2024938505e+00	-2.1310296742e+00
 8.4927453709e-01	 1.1592274179e+00	-2.0366509858e+00
 8.3507455360e-01	 1.1694981555e+00	-2.0568343460e+00
 8.2076489272e-01	 1.1795848578e+00	-2.0698859360e+00
 8.0634910241e-01	 1.1894858431e+00	-2.0826020509e+00
 7.9183076273e-01	 1.1991995201e+00	-2.1020074289e+00
 7.7721348305e-01	 1.2087243886e+00	-2.1352531375e+00
 8.5365224089e-01	 1.1652028170e+00	-2.0458775573e+00
 8.3937906161e-01	 1.1755264965e+00	-2.0650500794e+00
 8.2499563959e-01	 1.1856651921e+00	-2.0774336472e+00
 8.1050554108e-01	 1.1956172134e+00	-2.0893933468e+00
 7.9591236460e-01	 1.2053809609e+00	-2.1074927647e+00
 7.8121973811e-01	 1.2149549267e+00	-2.1383902979e+00
 7.6118846278e-01	 1.1838022363e+00	-2.1140315850e+00
 7.4677923113e-01	 1.1929444205e+00	-2.1376030409e+00
 7.3228024421e-01	 1.2018990200e+00	-2.1193828700e+00
 7.1769510618e-01	 1.2106648359e+00	-2.0974459011e+00
 7.0302743866e-01	 1.2192407600e+00	-2.0868406955e+00
 6.8828087791e-01	 1.2276257750e+00	-2.0989684702e+00
 7.6519471784e-01	 1.1900327743e+00	-2.1202088437e+00
 7.5070964814e-01	 1.1992230753e+00	-2.1434508709e+00
 7.3613435076e-01	 1.2082248044e+00	-2.1232836080e+00
 7.2147244884e-01	 1.2170367561e+00	-2.0966962209e+00
 7.0672758307e-01	 1.2256578167e+00	-2.0836434850e+00
 6.9190340885e-01	 1.2340869633e+00	-2.0953307215e+00
 7.6920097291e-01	 1.1962633124e+00	-2.1259433645e+00
 7.5464006514e-01	 1.2055017302e+00	-2.1483848270e+00
 7.3998845731e-01	 1.2145505887e+00	-2.1282255707e+00
 7.2524979151e-01	 1.2234086763e+00	-2.0965938873e+00
 7.1042772749e-01	 1.2320748733e+00	-2.0808064578e+00
 6.9552593978e-01	 1.2405481516e+00	-2.0919271869e+00
 7.7320722798e-01	 1.2024938505e+00	-2.1310296742e+00
 7.5857048215e-01	 1.2117803850e+00	-2.1522405947e+00
 7.4384256386e-01	 1.2208763730e+00	-2.1332217727e+00
 7.2902713417e-01	 1.2297805965e+00	-2.0969143456e+00
 7.1412787190e-01	 1.2384919299e+00	-2.0780816087e+00
 6.9914847072e-01	 1.2470093399e+00	-2.0884632568e+00
 7.7721348305e-01	 1.2087243886e+00	-2.1352531375e+00
 7.6250089915e-01	 1.2180590399e+00	-2.1548439293e+00
 7.4769667040e-01	 1.2272021573e+00	-2.1365312517e+00
 7.3280447684e-01	 1.2361525167e+00	-2.0974182811e+00
 7.1782801631e-01	 1.2449089866e+00	-2.0752065333e+00
 7.0277100166e-01	 1.2534705282e+00	-2.0846307875e+00
 7.8121973811e-01	 1.2149549267e+00	-2.1383902979e+00
 7.6643131616e-01	 1.2243376947e+00	-2.1560109898e+00
 7.5155077695e-01	 1.2335279416e+00	-2.1379444341e+00
 7.3658181950e-01	 1.2425244369e+00	-2.0978524918e+00
 7.2152816073e-01	 1.2513260432e+00	-2.0719052514e+00
 7.0639353259e-01	 1.2599317165e+00	-2.0801088625e+00
 6.8828087791e-01	 1.2276257750e+00	-2.0989684702e+00
 6.7345907206e-01	 1.2358189547e+00	-2.1190701598e+00
 6.5856567829e-01	 1.2438194635e+00	-2.1272436998e+00
 6.4360436009e-01	 1.2516265570e+00	-2.1260235887e+00
 6.2857878451e-01	 1.2592395809e+00	-2.1170803305e+00
 6.1349261946e-01	 1.2666579713e+00	-2.1012533015e+00
 6.9190340885e-01	 1.2340869633e+00	-2.0953307215e+00
 6.7700359349e-01	 1.2423232649e+00	-2.1153037742e+00
 6.6203181344e-01	 1.2503658817e+00	-2.1223334113e+00
 6.4699175146e-01	 1.2582140652e+00	-2.1192988614e+00
 6.3188709390e-01	 1.2658671576e+00	-2.1081962410e+00
 6.1672152798e-01	 1.2733245922e+00	-2.0901710188e+00
 6.9552593978e-01	 1.2405481516e+00	-2.0919271869e+00
 6.8054811492e-01	 1.2488275752e+00	-2.1117740623e+00
 6.6549794858e-01	 1.2569123000e+00	-2.1177075891e+00
 6.5037914283e-01	 1.2648015734e+00	-2.1129290483e+00
 6.3519540330e-01	 1.2724947344e+00	-2.0997386578e+00
 6.1995043650e-01	 1.2799912131e+00	-2.0795676306e+00
 6.9914847072e-01	 1.2470093399e+00	-2.0884632568e+00
 6.8409263635e-01	 1.2553318855e+00	-2.1081352337e+00
 6.6896408373e-01	 1.2634587182e+00	-2.1129839862e+00
 6.5376653419e-01	 1.2713890815e+00	-2.1065104355e+00
 6.3850371269e-01	 1.2791223111e+00	-2.0912976279e+00
 6.2317934503e-01	 1.2866578340e+00	-2.0690423803e+00
 7.0277100166e-01	 1.2534705282e+00	-2.0846307875e+00
 6.8763715779e-01	 1.2618361958e+00	-2.1040289562e+00
 6.7243021888e-01	 1.2700051364e+00	-2.1077685414e+00
 6.5715392556e-01	 1.2779765897e+00	-2.0996279581e+00
 6.4181202208e-01	 1.2857498879e+00	-2.0824520453e+00
 6.2640825355e-01	 1.2933244549e+00	-2.0581832917e+00
 7.0639353259e-01	 1.2599317165e+00	-2.0801088625e+00
 6.9118167922e-01	 1.2683405061e+00	-2.0990850518e+00
 6.7589635403e-01	 1.2765515547e+00	-2.1016560167e+00
 6.6054131693e-01	 1.2845640979e+00	-2.0918557856e+00
 6.4512033147e-01	 1.2923774646e+00	-2.0727701925e+00
 6.2963716207e-01	 1.2999910758e+00	-2.0465676744e+00
 6.1349261946e-01	 1.2666579713e+00	-2.1012533015e+00
 5.9834953097e-01	 1.2738812540e+00	-2.0834674404e+00
 5.8315318059e-01	 1.2809090438e+00	-2.0688294971e+00
 5.6790722275e-01	 1.2877410441e+00	-2.0573362885e+00
 5.5261530219e-01	 1.2943770464e+00	-2.0483362874e+00
 5.3728105139e-01	 1.3008169288e+00	-2.0405780715e+00
 6.1672152798e-01	 1.2733245922e+00	-2.0901710188e+00
 6.0149873902e-01	 1.2805858921e+00	-2.0705058646e+00
 5.8622240785e-01	 1.2876506703e+00	-2.0543081578e+00
 5.7089620814e-01	 1.2945186286e+00	-2.0413189127e+00
 5.5552380378e-01	 1.3011895572e+00	-2.0306165520e+00
 5.4010884640e-01	 1.3076633337e+00	-2.0206667116e+00
 6.1995043650e-01	 1.2799912131e+00	-2.0795676306e+00
 6.0464794708e-01	 1.2872905303e+00	-2.0580392986e+00
 5.8929163512e-01	 1.2943922969e+00	-2.0402742772e+00
 5.7388519352e-01	 1.3012962130e+00	-2.0257828865e+00
 5.5843230537e-01	 1.3080020679e+00	-2.0133986478e+00
 5.4293664141e-01	 1.3145097386e+00	-2.0013293801e+00
 6.2317934503e-01	 1.2866578340e+00	-2.0690423803e+00
 6.0779715514e-01	 1.2939951685e+00	-2.0456888532e+00
 5.9236086239e-01	 1.3011339234e+00	-2.0263802729e+00
 5.7687417890e-01	 1.3080737975e+00	-2.0104208399e+00
 5.6134080696e-01	 1.3148145787e+00	-1.9964237713e+00
 5.4576443641e-01	 1.3213561435e+00	-1.9823636225e+00
 6.2640825355e-01	 1.2933244549e+00	-2.0581832917e+00
 6.1094636320e-01	 1.3006998067e+00	-2.0330641505e+00
 5.9543008965e-01	 1.3078755499e+00	-2.0122666707e+00
 5.7986316428e-01	 1.3148513819e+00	-1.9949129897e+00
 5.6424930855e-01	 1.3216270895e+00	-1.9794200787e+00
 5.4859223142e-01	 1.3282025483e+00	-1.9635532241e+00
 6.2963716207e-01	 1.2999910758e+00	-2.0465676744e+00
 6.1409557125e-01	 1.3074044449e+00	-2.0197637981e+00
 5.9849931692e-01	 1.3146171765e+00	-1.9975625529e+00
 5.8285214967e-01	 1.3216289664e+00	-1.9789275651e+00
 5.6715781014e-01	 1.3284396002e+00	-1.9621030931e+00
 5.5142002643e-01	 1.3350489532e+00	-1.9446686044e+00
 5.3728105139e-01	 1.3008169288e+00	-2.0405780715e+00
 5.2190808814e-01	 1.3070606558e+00	-2.0292762004e+00
 5.0650001305e-01	 1.3131082770e+00	-2.0118721325e+00
 4.9106040720e-01	 1.3189599262e+00	-1.9897776206e+00
 4.7559282980e-01	 1.3246158200e+00	-1.9640993295e+00
 4.6010081589e-01	 1.3300762571e+00	-1.9356885777e+00
 5.4010884640e-01	 1.3076633337e+00	-2.0206667116e+00
 5.2465497281e-01	 1.3139399224e+00	-2.0070395627e+00
 5.0916580259e-01	 1.3200193732e+00	-1.9876901422e+00
 4.9364493566e-01	 1.3259018205e+00	-1.9639666051e+00
 4.7809594995e-01	 1.3315874822e+00	-1.9369012849e+00
 4.6252239913e-01	 1.3370766584e+00	-1.9072617873e+00
 5.4293664141e-01	 1.3145097386e+00	-2.0013293801e+00
 5.2740185749e-01	 1.3208191890e+00	-1.9855068029e+00
 5.1183159214e-01	 1.3269304694e+00	-1.9643533889e+00
 4.9622946412e-01	 1.3328437149e+00	-1.9391003947e+00
 4.8059907011e-01	 1.3385591445e+00	-1.9106522829e+00
 4.6494398237e-01	 1.3440770598e+00	-1.8796392908e+00
 5.4576443641e-01	 1.3213561435e+00	-1.9823636225e+00
 5.3014874216e-01	 1.3276984556e+00	-1.9645342943e+00
 5.1449738168e-01	 1.3338415656e+00	-1.9417750531e+00
 4.9881399258e-01	 1.3397856092e+00	-1.9151475610e+00
 4.8310219027e-01	 1.3455308067e+00	-1.8853754557e+00
 4.6736556561e-01	 1.3510774611e+00	-1.8528985174e+00
 5.4859223142e-01	 1.3282025483e+00	-1.9635532241e+00
 5.3289562684e-01	 1.3345777222e+00	-1.9439639498e+00
 5.1716317122e-01	 1.3407526618e+00	-1.9198532663e+00
 5.0139852104e-01	 1.3467275036e+00	-1.8920611377e+00
 4.8560531042e-01	 1.3525024689e+00	-1.8610779955e+00
 4.6978714885e-01	 1.3580778625e+00	-1.8271006275e+00
 5.5142002643e-01	 1.3350489532e+00	-1.9446686044e+00
 5.3564251151e-01	 1.3414569889e+00	-1.9236236025e+00
 5.1982896076e-01	 1.3476637580e+00	-1.8984714782e+00
 5.0398304950e-01	 1.3536693979e+00	-1.8697789723e+00
 4.8810843058e-01	 1.3594741311e+00	-1.8377514904e+00
 4.7220873209e-01	 1.3650782638e+00	-1.8022908333e+00
 4.6010081589e-01	 1.3300762571e+00	-1.9356885777e+00
 4.4458787417e-01	 1.3353416164e+00	-1.9133177473e+00
 4.2905748485e-01	 1.3404123564e+00	-1.9009049401e+00
 4.1351309752e-01	 1.3452890130e+00	-1.8918086215e+00
 3.9795812918e-01	 1.3499721989e+00	-1.8793740974e+00
 3.8239596226e-01	 1.3544626014e+00	-1.8570005811e+00
 4.6252239913e-01	 1.3370766584e+00	-1.9072617873e+00
 4.4692781035e-01	 1.3423697302e+00	-1.8835171441e+00
 4.3131568214e-01	 1.3474671582e+00	-1.8695529020e+00
 4.1568948224e-01	 1.3523694815e+00	-1.8590437802e+00
 4.0005264565e-01	 1.3570773158e+00	-1.8456519161e+00
 3.8440857259e-01	 1.3615913519e+00	-1.8230947839e+00
 4.6494398237e-01	 1.3440770598e+00	-1.8796392908e+00
 4.4926774653e-01	 1.3493978440e+00	-1.8542378290e+00
 4.3357387943e-01	 1.3545219601e+00	-1.8384012394e+00
 4.1786586697e-01	 1.3594499500e+00	-1.8261986443e+00
 4.0214716212e-01	 1.3641824326e+00	-1.8116836091e+00
 3.8642118291e-01	 1.3687201024e+00	-1.7889628410e+00
 4.6736556561e-01	 1.3510774611e+00	-1.8528985174e+00
 4.5160768271e-01	 1.3564259577e+00	-1.8256015994e+00
 4.3583207672e-01	 1.3615767620e+00	-1.8075951380e+00
 4.2004225169e-01	 1.3665304185e+00	-1.7934192985e+00
 4.0424167859e-01	 1.3712875494e+00	-1.7775921844e+00
 3.8843379324e-01	 1.3758488530e+00	-1.7546792468e+00
 4.6978714885e-01	 1.3580778625e+00	-1.8271006275e+00
 4.5394761889e-01	 1.3634540715e+00	-1.7977139255e+00
 4.3809027400e-01	 1.3686315639e+00	-1.7772638942e+00
 4.2221863642e-01	 1.3736108870e+00	-1.7608368994e+00
 4.0633619505e-01	 1.3783926663e+00	-1.7434872333e+00
 3.9044640357e-01	 1.3829776035e+00	-1.7203071662e+00
 4.7220873209e-01	 1.3650782638e+00	-1.8022908333e+00
 4.5628755507e-01	 1.3704821853e+00	-1.7706642509e+00
 4.4034847129e-01	 1.3756863658e+00	-1.7475211845e+00
 4.2439502114e-01	 1.3806913555e+00	-1.7285679025e+00
 4.0843071152e-01	 1.3854977831e+00	-1.7094651034e+00
 3.9245901390e-01	 1.3901063540e+00	-1.6858985409e+00
 3.8239596226e-01	 1.3544626014e+00	-1.8570005811e+00
 3.6682994276e-01	 1.3587609810e+00	-1.8219865090e+00
 3.5126337844e-01	 1.3628681702e+00	-1.7990138030e+00
 3.3569953707e-01	 1.3667850713e+00	-1.7897311321e+00
 3.2014164476e-01	 1.3705126551e+00	-1.7823764011e+00
 3.0459288440e-01	 1.3740519587e+00	-1.7658877535e+00
 3.8440857259e-01	 1.3615913519e+00	-1.8230947839e+00
 3.6876062667e-01	 1.3659123546e+00	-1.7876222714e+00
 3.5311213307e-01	 1.3700411606e+00	-1.7608254787e+00
 3.3746637674e-01	 1.3739786770e+00	-1.7494071406e+00
 3.2182660078e-01	 1.3777258796e+00	-1.7408474821e+00
 3.0619600485e-01	 1.3812838111e+00	-1.7233945117e+00
 3.8642118291e-01	 1.3687201024e+00	-1.7889628410e+00
 3.7069131058e-01	 1.3730637282e+00	-1.7539252826e+00
 3.5496088769e-01	 1.3772141510e+00	-1.7230892674e+00
 3.3923321641e-01	 1.3811722826e+00	-1.7093911256e+00
 3.2351155681e-01	 1.3849391041e+00	-1.6995633706e+00
 3.0779912529e-01	 1.3885156635e+00	-1.6811714431e+00
 3.8843379324e-01	 1.3758488530e+00	-1.7546792468e+00
 3.7262199449e-01	 1.3802151018e+00	-1.7205173817e+00
 3.5680964231e-01	 1.3843871413e+00	-1.6859655015e+00
 3.4100005607e-01	 1.3883658883e+00	-1.6699158165e+00
 3.2519651283e-01	 1.3921523286e+00	-1.6588676628e+00
 3.0940224573e-01	 1.3957475159e+00	-1.6397115195e+00
 3.9044640357e-01	 1.3829776035e+00	-1.7203071662e+00
 3.7455267840e-01	 1.3873664753e+00	-1.6871728230e+00
 3.5865839694e-01	 1.3915601317e+00	-1.6496019606e+00
 3.4276689574e-01	 1.3955594939e+00	-1.6312046860e+00
 3.2688146886e-01	 1.3993655531e+00	-1.6190966331e+00
 3.1100536618e-01	 1.4029793684e+00	-1.5995009683e+00
 3.9245901390e-01	 1.3901063540e+00	-1.6858985409e+00
 3.7648336231e-01	 1.3945178489e+00	-1.6539106728e+00
 3.6050715156e-01	 1.3987331221e+00	-1.6141330818e+00
 3.4453373541e-01	 1.4027530995e+00	-1.5934712329e+00
 3.2856642488e-01	 1.4065787776e+00	-1.5805786130e+00
 3.1260848662e-01	 1.4102112208e+00	-1.5610187712e+00
 3.0459288440e-01	 1.3740519587e+00	-1.7658877535e+00
 2.8905639414e-01	 1.3774040843e+00	-1.7393060917e+00
 2.7353526591e-01	 1.3805701970e+00	-1.7108423295e+00
 2.5803254413e-01	 1.3835515229e+00	-1.6840963056e+00
 2.4255122434e-01	 1.3863493477e+00	-1.6631183142e+00
 2.2709425207e-01	 1.3889650144e+00	-1.6523437558e+00
 3.0619600485e-01	 1.3812838111e+00	-1.7233945117e+00
 2.9057774358e-01	 1.3846535795e+00	-1.6956780539e+00
 2.7497492521e-01	 1.3878363559e+00	-1.6659483153e+00
 2.5939061015e-01	 1.3908333730e+00	-1.6378830298e+00
 2.4382780973e-01	 1.3936459233e+00	-1.6156634871e+00
 2.2828948497e-01	 1.3962753565e+00	-1.6039044089e+00
 3.0779912529e-01	 1.3885156635e+00	-1.6811714431e+00
 2.9209909302e-01	 1.3919030747e+00	-1.6524385226e+00
 2.7641458450e-01	 1.3951025148e+00	-1.6216207865e+00
 2.6074867617e-01	 1.3981152232e+00	-1.5924294827e+00
 2.4510439512e-01	 1.4009424988e+00	-1.5691308811e+00
 2.2948471788e-01	 1.4035856987e+00	-1.5564714135e+00
 3.0940224573e-01	 1.3957475159e+00	-1.6397115195e+00
 2.9362044246e-01	 1.3991525698e+00	-1.6102173747e+00
 2.7785424379e-01	 1.4023686738e+00	-1.5785640152e+00
 2.6210674219e-01	 1.4053970733e+00	-1.5484533877e+00
 2.4638098052e-01	 1.4082390743e+00	-1.5241924072e+00
 2.3067995079e-01	 1.4108960409e+00	-1.5106133900e+00
 3.1100536618e-01	 1.4029793684e+00	-1.5995009683e+00
 2.9514179191e-01	 1.4064020650e+00	-1.5696380231e+00
 2.7929390309e-01	 1.4096348327e+00	-1.5374768359e+00
 2.6346480821e-01	 1.4126789234e+00	-1.5066687854e+00
 2.4765756591e-01	 1.4155356498e+00	-1.4815187591e+00
 2.3187518369e-01	 1.4182063831e+00	-1.4669009036e+00
 3.1260848662e-01	 1.4102112208e+00	-1.5610187712e+00
 2.9666314135e-01	 1.4136515602e+00	-1.5313170302e+00
 2.8073356238e-01	 1.4169009916e+00	-1.4990523431e+00
 2.6482287423e-01	 1.4199607735e+00	-1.4677857854e+00
 2.4893415130e-01	 1.4228322253e+00	-1.4417791915e+00
 2.3307041660e-01	 1.4255167253e+00	-1.4259062387e+00
 2.2709425207e-01	 1.3889650144e+00	-1.6523437558e+00
 2.1166452164e-01	 1.3913999212e+00	-1.6486958502e+00
 1.9626487513e-01	 1.3936555203e+00	-1.6445414569e+00
 1.8089810141e-01	 1.3957333153e+00	-1.6378983750e+00
 1.6556693519e-01	 1.3976348595e+00	-1.6269481552e+00
 1.5027405624e-01	 1.3993617540e+00	-1.6099511271e+00
 2.2828948497e-01	 1.3962753565e+00	-1.6039044089e+00
 2.1277854543e-01	 1.3987230787e+00	-1.5995840116e+00
 1.9729784816e-01	 1.4009905493e+00	-1.5949007244e+00
 1.8185019668e-01	 1.4030792801e+00	-1.5877774723e+00
 1.6643834011e-01	 1.4049908324e+00	-1.5763337503e+00
 1.5106497233e-01	 1.4067268158e+00	-1.5587952768e+00
 2.2948471788e-01	 1.4035856987e+00	-1.5564714135e+00
 2.1389256923e-01	 1.4060462362e+00	-1.5514646582e+00
 1.9833082118e-01	 1.4083255784e+00	-1.5461801027e+00
 1.8280229195e-01	 1.4104252449e+00	-1.5384884853e+00
 1.6730974504e-01	 1.4123468054e+00	-1.5264934033e+00
 1.5185588841e-01	 1.4140918777e+00	-1.5084352622e+00
 2.3067995079e-01	 1.4108960409e+00	-1.5106133900e+00
 2.1500659303e-01	 1.4133693936e+00	-1.5047832789e+00
 1.9936379421e-01	 1.4156606074e+00	-1.4987187358e+00
 1.8375438722e-01	 1.4177712097e+00	-1.4902813763e+00
 1.6818114996e-01	 1.4197027783e+00	-1.4776054629e+00
 1.5264680450e-01	 1.4214569395e+00	-1.4589958158e+00
 2.3187518369e-01	 1.4182063831e+00	-1.4669009036e+00
 2.1612061683e-01	 1.4206925511e+00	-1.4599904109e+00
 2.0039676724e-01	 1.4229956365e+00	-1.4528631326e+00
 1.8470648249e-01	 1.4251171745e+00	-1.4434150222e+00
 1.6905255488e-01	 1.4270587512e+00	-1.4298579961e+00
 1.5343772058e-01	 1.4288220014e+00	-1.4106114692e+00
 2.3307041660e-01	 1.4255167253e+00	-1.4259062387e+00
 2.1723464063e-01	 1.4280157086e+00	-1.4175414028e+00
 2.0142974026e-01	 1.4303306656e+00	-1.4089669286e+00
 1.8565857776e-01	 1.4324631393e+00	-1.3981569837e+00
 1.6992395980e-01	 1.4344147242e+00	-1.3834485761e+00
 1.5422863667e-01	 1.4361870633e+00	-1.3634263682e+00
 1.5027405624e-01	 1.3993617540e+00	-1.6099511271e+00
 1.3502208858e-01	 1.4009156456e+00	-1.5915796778e+00
 1.1981359980e-01	 1.4022982250e+00	-1.5776922383e+00
 1.0465110049e-01	 1.4035112246e+00	-1.5681496148e+00
 8.9537043623e-02	 1.4045564169e+00	-1.5624950530e+00
 7.4473824134e-02	 1.4054356122e+00	-1.5598692156e+00
 1.5106497233e-01	 1.4067268158e+00	-1.5587952768e+00
 1.3573273115e-01	 1.4082888858e+00	-1.5397883951e+00
 1.2044419770e-01	 1.4096787419e+00	-1.5251952229e+00
 1.0520189576e-01	 1.4108981258e+00	-1.5149667622e+00
 9.0008291221e-02	 1.4119488191e+00	-1.5087359702e+00
 7.4865791630e-02	 1.4128326417e+00	-1.5057273873e+00
 1.5185588841e-01	 1.4140918777e+00	-1.5084352622e+00
 1.3644337372e-01	 1.4156621261e+00	-1.4889030415e+00
 1.2107479559e-01	 1.4170592589e+00	-1.4737555229e+00
 1.0575269102e-01	 1.4182850270e+00	-1.4630034252e+00
 9.0479538819e-02	 1.4193412213e+00	-1.4563409708e+00
 7.5257759125e-02	 1.4202296712e+00	-1.4530500002e+00
 1.5264680450e-01	 1.4214569395e+00	-1.4589958158e+00
 1.3715401629e-01	 1.4230353663e+00	-1.4390055869e+00
 1.2170539348e-01	 1.4244397759e+00	-1.4234170126e+00
 1.0630348629e-01	 1.4256719282e+00	-1.4122719336e+00
 9.0950786417e-02	 1.4267336235e+00	-1.4052992711e+00
 7.5649726620e-02	 1.4276267008e+00	-1.4018134593e+00
 1.5343772058e-01	 1.4288220014e+00	-1.4106114692e+00
 1.3786465886e-01	 1.4304086065e+00	-1.3901873375e+00
 1.2233599138e-01	 1.4318202929e+00	-1.3742320598e+00
 1.0685428155e-01	 1.4330588293e+00	-1.3627918832e+00
 9.1422034015e-02	 1.4341260257e+00	-1.3556057389e+00
 7.6041694116e-02	 1.4350237303e+00	-1.3519978190e+00
 1.5422863667e-01	 1.4361870633e+00	-1.3634263682e+00
 1.3857530143e-01	 1.4377818468e+00	-1.3425487852e+00
 1.2296658927e-01	 1.4392008098e+00	-1.3262614104e+00
 1.0740507682e-01	 1.4404457305e+00	-1.3145900582e+00
 9.1893281613e-02	 1.4415184279e+00	-1.3072608582e+00
 7.6433661611e-02	 1.4424207599e+00	-1.3035867928e+00
 7.4473824134e-02	 1.4054356122e+00	-1.5598692156e+00
 5.9463778486e-02	 1.4061506567e+00	-1.5591469698e+00
 4.4509184337e-02	 1.4067034311e+00	-1.5590131577e+00
 2.9612260260e-02	 1.4070958476e+00	-1.5574611154e+00
 1.4775165536e-02	 1.4073298494e+00	-1.5517541111e+00
 0.0000000000e+00	 1.4074074074e+00	-1.5383716399e+00
 7.4865791630e-02	 1.4128326417e+00	-1.5057273873e+00
 5.9776745741e-02	 1.4135514497e+00	-1.5047091033e+00
 4.4743443202e-02	 1.4141071333e+00	-1.5042618443e+00
 2.9768114261e-02	 1.4145016153e+00	-1.5024450263e+00
 1.4852929565e-02	 1.4147368486e+00	-1.4965653267e+00
 0.0000000000e+00	 1.4148148148e+00	-1.4831187128e+00
 7.5257759125e-02	 1.4202296712e+00	-1.4530500002e+00
 6.0089712997e-02	 1.4209522426e+00	-1.4517900869e+00
 4.4977702067e-02	 1.4215108356e+00	-1.4510690392e+00
 2.9923968263e-02	 1.4219073829e+00	-1.4490360711e+00
 1.4930693594e-02	 1.4221438478e+00	-1.4430642866e+00
 0.0000000000e+00	 1.4222222222e+00	-1.4296882653e+00
 7.5649726620e-02	 1.4276267008e+00	-1.4018134593e+00
 6.0402680252e-02	 1.4283530355e+00	-1.4003594537e+00
 4.5211960932e-02	 1.4289145379e+00	-1.3993984984e+00
 3.0079822264e-02	 1.4293131505e+00	-1.3971944569e+00
 1.5008457623e-02	 1.4295508470e+00	-1.3912109999e+00
 0.0000000000e+00	 1.4296296296e+00	-1.3780445650e+00
 7.6041694116e-02	 1.4350237303e+00	-1.3519978190e+00
 6.0715647507e-02	 1.4357538285e+00	-1.3503881233e+00
 4.5446219796e-02	 1.4363182401e+00	-1.3492129786e+00
 3.0235676265e-02	 1.4367189181e+00	-1.3468768976e+00
 1.5086221652e-02	 1.4369578462e+00	-1.3409593945e+00
 0.0000000000e+00	 1.4370370370e+00	-1.3281431310e+00
 7.6433661611e-02	 1.4424207599e+00	-1.3035867928e+00
 6.1028614762e-02	 1.4431546214e+00	-1.3018484577e+00
 4.5680478661e-02	 1.4437219424e+00	-1.3004743374e+00
 3.0391530267e-02	 1.4441246857e+00	-1.2980367564e+00
 1.5163985681e-02	 1.4443648454e+00	-1.2922575011e+00
 0.0000000000e+00	 1.4444444444e+00	-1.2799309585e+00
 1.4444444444e+00	 0.0000000000e+00	 3.8118448274e+00
 1.4443648454e+00	 1.5163985681e-02	 3.8121069227e+00
 1.4441246857e+00	 3.0391530267e-02	 3.8069690994e+00
 1.4437219424e+00	 4.5680478661e-02	 3.7974062255e+00
 1.4431546214e+00	 6.1028614762e-02	 3.7836421789e+00
 1.4424207599e+00	 7.6433661611e-02	 3.7652287128e+00
 1.4518518519e+00	 0.0000000000e+00	 3.8078431529e+00
 1.4517718446e+00	 1.5241749710e-02	 3.8080124653e+00
 1.4515304534e+00	 3.0547384268e-02	 3.8027509391e+00
 1.4511256447e+00	 4.5914737526e-02	 3.7930606801e+00
 1.4505554143e+00	 6.1341582017e-02	 3.7791514311e+00
 1.4498177894e+00	 7.6825629107e-02	 3.7605238286e+00
 1.4592592593e+00	 0.0000000000e+00	 3.8032837227e+00
 1.4591788438e+00	 1.5319513740e-02	 3.8034298387e+00
 1.4589362210e+00	 3.0703238270e-02	 3.7981427340e+00
 1.4585293469e+00	 4.6148996391e-02	 3.7884467218e+00
 1.4579562073e+00	 6.1654549273e-02	 3.7745314779e+00
 1.4572148189e+00	 7.7217596602e-02	 3.7558398496e+00
 1.4666666667e+00	 0.0000000000e+00	 3.7981237886e+00
 1.4665858430e+00	 1.5397277769e-02	 3.7983102100e+00
 1.4663419886e+00	 3.0859092271e-02	 3.7931038028e+00
 1.4659330492e+00	 4.6383255256e-02	 3.7835448281e+00
 1.4653570002e+00	 6.1967516528e-02	 3.7697956852e+00
 1.4646118485e+00	 7.7609564098e-02	 3.7512334372e+00
 1.4740740741e+00	 0.0000000000e+00	 3.7923203380e+00
 1.4739928422e+00	 1.5475041798e-02	 3.7926042924e+00
 1.4737477562e+00	 3.1014946272e-02	 3.7875927838e+00
 1.4733367515e+00	 4.6617514121e-02	 3.7783345224e+00
 1.4727577931e+00	 6.2280483783e-02	 3.7649561331e+00
 1.4720088780e+00	 7.8001531593e-02	 3.7467595681e+00
 1.4814814815e+00	 0.0000000000e+00	 3.7858301000e+00
 1.4813998414e+00	 1.5552805827e-02	 3.7862623542e+00
 1.4811535238e+00	 3.1170800274e-02	 3.7815676493e+00
 1.4807404537e+00	 4.6851772986e-02	 3.7727943963e+00
 1.4801585861e+00	 6.2593451038e-02	 3.7600236492e+00
 1.4794059075e+00	 7.8393499089e-02	 3.7424715799e+00
 1.4424207599e+00	 7.6433661611e-02	 3.7652287128e+00
 1.4415184279e+00	 9.1893281613e-02	 3.7434128471e+00
 1.4404457305e+00	 1.0740507682e-01	 3.7198507190e+00
 1.4392008098e+00	 1.2296658927e-01	 3.6940011215e+00
 1.4377818468e+00	 1.3857530143e-01	 3.6650754046e+00
 1.4361870633e+00	 1.5422863667e-01	 3.6321590470e+00
 1.4498177894e+00	 7.6825629107e-02	 3.7605238286e+00
 1.4489108301e+00	 9.2364529211e-02	 3.7383575078e+00
 1.4478326317e+00	 1.0795587208e-01	 3.7143773621e+00
 1.4465813268e+00	 1.2359718717e-01	 3.6881570443e+00
 1.4451550870e+00	 1.3928594401e-01	 3.6590094942e+00
 1.4435521251e+00	 1.5501955275e-01	 3.6261144575e+00
 1.4572148189e+00	 7.7217596602e-02	 3.7558398496e+00
 1.4563032323e+00	 9.2835776810e-02	 3.7334643162e+00
 1.4552195329e+00	 1.0850666735e-01	 3.7091631389e+00
 1.4539618438e+00	 1.2422778506e-01	 3.6825936288e+00
 1.4525283273e+00	 1.3999658658e-01	 3.6531384327e+00
 1.4509171870e+00	 1.5581046884e-01	 3.6200392392e+00
 1.4646118485e+00	 7.7609564098e-02	 3.7512334372e+00
 1.4636956344e+00	 9.3307024408e-02	 3.7288402072e+00
 1.4626064341e+00	 1.0905746262e-01	 3.7043689906e+00
 1.4613423607e+00	 1.2485838295e-01	 3.6775284649e+00
 1.4599015675e+00	 1.4070722915e-01	 3.6477379968e+00
 1.4582822489e+00	 1.5660138493e-01	 3.6142677819e+00
 1.4720088780e+00	 7.8001531593e-02	 3.7467595681e+00
 1.4710880366e+00	 9.3778272006e-02	 3.7245899961e+00
 1.4699933352e+00	 1.0960825788e-01	 3.7001532931e+00
 1.4687228777e+00	 1.2548898085e-01	 3.6731761039e+00
 1.4672748077e+00	 1.4141787172e-01	 3.6430804062e+00
 1.4656473107e+00	 1.5739230101e-01	 3.6091303378e+00
 1.4794059075e+00	 7.8393499089e-02	 3.7424715799e+00
 1.4784804388e+00	 9.4249519604e-02	 3.7208164354e+00
 1.4773802364e+00	 1.1015905315e-01	 3.6966719256e+00
 1.4761033947e+00	 1.2611957874e-01	 3.6697481381e+00
 1.4746480480e+00	 1.4212851429e-01	 3.6394344136e+00
 1.4730123726e+00	 1.5818321710e-01	 3.6049531197e+00
 1.4361870633e+00	 1.5422863667e-01	 3.6321590470e+00
 1.4344147242e+00	 1.6992395980e-01	 3.5936305459e+00
 1.4324631393e+00	 1.8565857776e-01	 3.5486373141e+00
 1.4303306656e+00	 2.0142974026e-01	 3.4976218415e+00
 1.4280157086e+00	 2.1723464063e-01	 3.4414283548e+00
 1.4255167253e+00	 2.3307041660e-01	 3.3814331555e+00
 1.4435521251e+00	 1.5501955275e-01	 3.6261144575e+00
 1.4417706971e+00	 1.7079536472e-01	 3.5878513399e+00
 1.4398091042e+00	 1.8661067303e-01	 3.5431695561e+00
 1.4376656946e+00	 2.0246271329e-01	 3.4923150694e+00
 1.4353388661e+00	 2.1834866442e-01	 3.4359538726e+00
 1.4328270674e+00	 2.3426564950e-01	 3.3753096304e+00
 1.4509171870e+00	 1.5581046884e-01	 3.6200392392e+00
 1.4491266701e+00	 1.7166676965e-01	 3.5816759322e+00
 1.4471550690e+00	 1.8756276830e-01	 3.5368686226e+00
 1.4450007237e+00	 2.0349568632e-01	 3.4857385327e+00
 1.4426620236e+00	 2.1946268822e-01	 3.4288460747e+00
 1.4401374096e+00	 2.3546088241e-01	 3.3673358706e+00
 1.4582822489e+00	 1.5660138493e-01	 3.6142677819e+00
 1.4564826430e+00	 1.7253817457e-01	 3.5754913482e+00
 1.4545010338e+00	 1.8851486357e-01	 3.5301607254e+00
 1.4523357527e+00	 2.0452865934e-01	 3.4783414710e+00
 1.4499851810e+00	 2.2057671202e-01	 3.4205583699e+00
 1.4474477518e+00	 2.3665611531e-01	 3.3579479155e+00
 1.4656473107e+00	 1.5739230101e-01	 3.6091303378e+00
 1.4638386160e+00	 1.7340957949e-01	 3.5696799209e+00
 1.4618469986e+00	 1.8946695884e-01	 3.5234669677e+00
 1.4596707818e+00	 2.0556163237e-01	 3.4705677506e+00
 1.4573083385e+00	 2.2169073582e-01	 3.4115386977e+00
 1.4547580940e+00	 2.3785134822e-01	 3.3475764245e+00
 1.4730123726e+00	 1.5818321710e-01	 3.6049531197e+00
 1.4711945889e+00	 1.7428098441e-01	 3.5646193946e+00
 1.4691929634e+00	 1.9041905411e-01	 3.5172034433e+00
 1.4670058108e+00	 2.0659460540e-01	 3.4628559529e+00
 1.4646314960e+00	 2.2280475962e-01	 3.4022295962e+00
 1.4620684362e+00	 2.3904658112e-01	 3.3366467136e+00
 1.4255167253e+00	 2.3307041660e-01	 3.3814331555e+00
 1.4228322253e+00	 2.4893415130e-01	 3.3234298991e+00
 1.4199607735e+00	 2.6482287423e-01	 3.2691950504e+00
 1.4169009916e+00	 2.8073356238e-01	 3.2152327678e+00
 1.4136515602e+00	 2.9666314135e-01	 3.1590459206e+00
 1.4102112208e+00	 3.1260848662e-01	 3.0992449928e+00
 1.4328270674e+00	 2.3426564950e-01	 3.3753096304e+00
 1.4301288008e+00	 2.5021073669e-01	 3.3164588757e+00
 1.4272426237e+00	 2.6618094026e-01	 3.2615358185e+00
 1.4241671505e+00	 2.8217322168e-01	 3.2070611043e+00
 1.4209010554e+00	 2.9818449079e-01	 3.1506037105e+00
 1.4174430732e+00	 3.1421160707e-01	 3.0908961836e+00
 1.4401374096e+00	 2.3546088241e-01	 3.3673358706e+00
 1.4374253763e+00	 2.5148732208e-01	 3.3076071003e+00
 1.4345244738e+00	 2.6753900628e-01	 3.2521237793e+00
 1.4314333095e+00	 2.8361288097e-01	 3.1973973980e+00
 1.4281505506e+00	 2.9970584024e-01	 3.1410397339e+00
 1.4246749256e+00	 3.1581472751e-01	 3.0818846970e+00
 1.4474477518e+00	 2.3665611531e-01	 3.3579479155e+00
 1.4447219519e+00	 2.5276390747e-01	 3.2972805427e+00
 1.4418063239e+00	 2.6889707230e-01	 3.2413321060e+00
 1.4386994684e+00	 2.8505254027e-01	 3.1865783745e+00
 1.4354000457e+00	 3.0122718968e-01	 3.1306497411e+00
 1.4319067780e+00	 3.1741784795e-01	 3.0724599588e+00
 1.4547580940e+00	 2.3785134822e-01	 3.3475764245e+00
 1.4520185274e+00	 2.5404049286e-01	 3.2858798529e+00
 1.4490881740e+00	 2.7025513832e-01	 3.2295284489e+00
 1.4459656273e+00	 2.8649219956e-01	 3.1749347550e+00
 1.4426495409e+00	 3.0274853912e-01	 3.1197227054e+00
 1.4391386304e+00	 3.1902096840e-01	 3.0628635407e+00
 1.4620684362e+00	 2.3904658112e-01	 3.3366467136e+00
 1.4593151029e+00	 2.5531707825e-01	 3.2738003617e+00
 1.4563700241e+00	 2.7161320434e-01	 3.2170748991e+00
 1.4532317863e+00	 2.8793185885e-01	 3.1627911833e+00
 1.4498990361e+00	 3.0426988856e-01	 3.1085407119e+00
 1.4463704828e+00	 3.2062408884e-01	 3.0533290115e+00
 1.4102112208e+00	 3.1260848662e-01	 3.0992449928e+00
 1.4065787776e+00	 3.2856642488e-01	 3.0206393901e+00
 1.4027530995e+00	 3.4453373541e-01	 2.9176245644e+00
 1.3987331221e+00	 3.6050715156e-01	 2.8050638892e+00
 1.3945178489e+00	 3.7648336231e-01	 2.7005787198e+00
 1.3901063540e+00	 3.9245901390e-01	 2.6339486098e+00
 1.4174430732e+00	 3.1421160707e-01	 3.0908961836e+00
 1.4137920021e+00	 3.3025138091e-01	 3.0119617449e+00
 1.4099467052e+00	 3.4630057508e-01	 2.9075113058e+00
 1.4059061124e+00	 3.6235590618e-01	 2.7927875383e+00
 1.4016692225e+00	 3.7841404622e-01	 2.6868169057e+00
 1.3972351046e+00	 3.9447162423e-01	 2.6194259235e+00
 1.4246749256e+00	 3.1581472751e-01	 3.0818846970e+00
 1.4210052266e+00	 3.3193633693e-01	 3.0031615768e+00
 1.4171403108e+00	 3.4806741475e-01	 2.8978253913e+00
 1.4130791028e+00	 3.6420466081e-01	 2.7813866318e+00
 1.4088205961e+00	 3.8034473013e-01	 2.6743482055e+00
 1.4043638551e+00	 3.9648423455e-01	 2.6060050489e+00
 1.4319067780e+00	 3.1741784795e-01	 3.0724599588e+00
 1.4282184511e+00	 3.3362129296e-01	 2.9944409782e+00
 1.4243339164e+00	 3.4983425442e-01	 2.8887260154e+00
 1.4202520932e+00	 3.6605341543e-01	 2.7709828392e+00
 1.4159719697e+00	 3.8227541404e-01	 2.6632386970e+00
 1.4114926056e+00	 3.9849684488e-01	 2.5937609340e+00
 1.4391386304e+00	 3.1902096840e-01	 3.0628635407e+00
 1.4354316756e+00	 3.3530624898e-01	 2.9859926932e+00
 1.4315275221e+00	 3.5160109409e-01	 2.8803609793e+00
 1.4274250835e+00	 3.6790217005e-01	 2.7616838010e+00
 1.4231233433e+00	 3.8420609795e-01	 2.6535430175e+00
 1.4186213562e+00	 4.0050945521e-01	 2.5827563485e+00
 1.4463704828e+00	 3.2062408884e-01	 3.0533290115e+00
 1.4426449001e+00	 3.3699120501e-01	 2.9779999324e+00
 1.4387211277e+00	 3.5336793376e-01	 2.8728664744e+00
 1.4345980739e+00	 3.6975092468e-01	 2.7535828864e+00
 1.4302747169e+00	 3.8613678186e-01	 2.6453046552e+00
 1.4257501067e+00	 4.0252206554e-01	 2.5730422264e+00
 1.3901063540e+00	 3.9245901390e-01	 2.6339486098e+00
 1.3854977831e+00	 4.0843071152e-01	 2.5788248523e+00
 1.3806913555e+00	 4.2439502114e-01	 2.5011801730e+00
 1.3756863658e+00	 4.4034847129e-01	 2.4071675075e+00
 1.3704821853e+00	 4.5628755507e-01	 2.3029957164e+00
 1.3650782638e+00	 4.7220873209e-01	 2.1948563776e+00
 1.3972351046e+00	 3.9447162423e-01	 2.6194259235e+00
 1.3926028999e+00	 4.1052522799e-01	 2.5638954166e+00
 1.3877718240e+00	 4.2657140586e-01	 2.4865101428e+00
 1.3827411676e+00	 4.4260666858e-01	 2.3930002253e+00
 1.3775102991e+00	 4.5862749125e-01	 2.2891533586e+00
 1.3720786652e+00	 4.7463031534e-01	 2.1807408698e+00
 1.4043638551e+00	 3.9648423455e-01	 2.6060050489e+00
 1.3997080168e+00	 4.1261974446e-01	 2.5496908202e+00
 1.3948522925e+00	 4.2874779059e-01	 2.4721424253e+00
 1.3897959695e+00	 4.4486486587e-01	 2.3787587047e+00
 1.3845384128e+00	 4.6096742743e-01	 2.2749945754e+00
 1.3790790666e+00	 4.7705189858e-01	 2.1662860901e+00
 1.4114926056e+00	 3.9849684488e-01	 2.5937609340e+00
 1.4068131336e+00	 4.1471426093e-01	 2.5362891957e+00
 1.4019327610e+00	 4.3092417531e-01	 2.4581258386e+00
 1.3968507714e+00	 4.4712306316e-01	 2.3644288752e+00
 1.3915665266e+00	 4.6330736361e-01	 2.2604077593e+00
 1.3860794679e+00	 4.7947348182e-01	 2.1512471765e+00
 1.4186213562e+00	 4.0050945521e-01	 2.5827563485e+00
 1.4139182504e+00	 4.1680877740e-01	 2.5237559608e+00
 1.4090132294e+00	 4.3310056003e-01	 2.4444966929e+00
 1.4039055733e+00	 4.4938126045e-01	 2.3499851342e+00
 1.3985946404e+00	 4.6564729979e-01	 2.2452715415e+00
 1.3930798693e+00	 4.8189506506e-01	 2.1353720925e+00
 1.4257501067e+00	 4.0252206554e-01	 2.5730422264e+00
 1.4210233673e+00	 4.1890329387e-01	 2.5121442084e+00
 1.4160936979e+00	 4.3527694476e-01	 2.4312792135e+00
 1.4109603751e+00	 4.5163945774e-01	 2.3353907878e+00
 1.4056227541e+00	 4.6798723597e-01	 2.2294552320e+00
 1.4000802706e+00	 4.8431664830e-01	 2.1184020506e+00
 1.3650782638e+00	 4.7220873209e-01	 2.1948563776e+00
 1.3594741311e+00	 4.8810843058e-01	 2.0869048351e+00
 1.3536693979e+00	 5.0398304950e-01	 1.9796024624e+00
 1.3476637580e+00	 5.1982896076e-01	 1.8733634017e+00
 1.3414569889e+00	 5.3564251151e-01	 1.7683187694e+00
 1.3350489532e+00	 5.5142002643e-01	 1.6642654408e+00
 1.3720786652e+00	 4.7463031534e-01	 2.1807408698e+00
 1.3664457933e+00	 4.9061155074e-01	 2.0718056717e+00
 1.3606112923e+00	 5.0656757796e-01	 1.9631834875e+00
 1.3545748542e+00	 5.2249475031e-01	 1.8555932889e+00
 1.3483362555e+00	 5.3838939619e-01	 1.7494624614e+00
 1.3418953581e+00	 5.5424782144e-01	 1.6448740464e+00
 1.3790790666e+00	 4.7705189858e-01	 2.1662860901e+00
 1.3734174555e+00	 4.9311467089e-01	 2.0565783275e+00
 1.3675531866e+00	 5.0915210642e-01	 1.9469875918e+00
 1.3614859504e+00	 5.2516053985e-01	 1.8384594325e+00
 1.3552155221e+00	 5.4113628086e-01	 1.7316421481e+00
 1.3487417630e+00	 5.5707561644e-01	 1.6268327124e+00
 1.3860794679e+00	 4.7947348182e-01	 2.1512471765e+00
 1.3803891177e+00	 4.9561779105e-01	 2.0408461745e+00
 1.3744950810e+00	 5.1173663488e-01	 1.9305468168e+00
 1.3683970466e+00	 5.2782632939e-01	 1.8214444798e+00
 1.3620947887e+00	 5.4388316554e-01	 1.7143344604e+00
 1.3555881679e+00	 5.5990341145e-01	 1.6096568123e+00
 1.3930798693e+00	 4.8189506506e-01	 2.1353720925e+00
 1.3873607799e+00	 4.9812091121e-01	 2.0242280673e+00
 1.3814369753e+00	 5.1432116333e-01	 1.9133906306e+00
 1.3753081428e+00	 5.3049211893e-01	 1.8040297036e+00
 1.3689740553e+00	 5.4663005021e-01	 1.6970150777e+00
 1.3624345728e+00	 5.6273120646e-01	 1.5928603838e+00
 1.4000802706e+00	 4.8431664830e-01	 2.1184020506e+00
 1.3943324421e+00	 5.0062403136e-01	 2.0063387505e+00
 1.3883788697e+00	 5.1690569179e-01	 1.8950463395e+00
 1.3822192390e+00	 5.3315790848e-01	 1.7856954403e+00
 1.3758533219e+00	 5.4937693488e-01	 1.6791592138e+00
 1.3692809777e+00	 5.6555900146e-01	 1.5759566852e+00
 1.3350489532e+00	 5.5142002643e-01	 1.6642654408e+00
 1.3284396002e+00	 5.6715781014e-01	 1.5560676136e+00
 1.3216289664e+00	 5.8285214967e-01	 1.4422997027e+00
 1.3146171765e+00	 5.9849931692e-01	 1.3276338543e+00
 1.3074044449e+00	 6.1409557125e-01	 1.2161555224e+00
 1.2999910758e+00	 6.2963716207e-01	 1.1113178236e+00
 1.3418953581e+00	 5.5424782144e-01	 1.6448740464e+00
 1.3352521110e+00	 5.7006631173e-01	 1.5363815807e+00
 1.3284065508e+00	 5.8584113505e-01	 1.4221486179e+00
 1.3213588030e+00	 6.0156854419e-01	 1.3069607807e+00
 1.3141090830e+00	 6.1724477931e-01	 1.1949978708e+00
 1.3066576967e+00	 6.3286607060e-01	 1.0897877885e+00
 1.3487417630e+00	 5.5707561644e-01	 1.6268327124e+00
 1.3420646218e+00	 5.7297481332e-01	 1.5181891486e+00
 1.3351841352e+00	 5.8883012043e-01	 1.4034642372e+00
 1.3281004296e+00	 6.0463777145e-01	 1.2876119874e+00
 1.3208137212e+00	 6.2039398737e-01	 1.1749576761e+00
 1.3133243176e+00	 6.3609497912e-01	 1.0691511967e+00
 1.3555881679e+00	 5.5990341145e-01	 1.6096568123e+00
 1.3488771326e+00	 5.7588331491e-01	 1.5010528872e+00
 1.3419617197e+00	 5.9181910582e-01	 1.3858270396e+00
 1.3348420561e+00	 6.0770699872e-01	 1.2691557589e+00
 1.3275183594e+00	 6.2354319543e-01	 1.1555601157e+00
 1.3199909385e+00	 6.3932388764e-01	 1.0488584064e+00
 1.3624345728e+00	 5.6273120646e-01	 1.5928603838e+00
 1.3556896433e+00	 5.7879181650e-01	 1.4845335643e+00
 1.3487393041e+00	 5.9480809120e-01	 1.3688159066e+00
 1.3415836827e+00	 6.1077622598e-01	 1.2511596681e+00
 1.3342229976e+00	 6.2669240348e-01	 1.1363312315e+00
 1.3266575594e+00	 6.4255279617e-01	 1.0283629137e+00
 1.3692809777e+00	 5.6555900146e-01	 1.5759566852e+00
 1.3625021541e+00	 5.8170031809e-01	 1.4681907765e+00
 1.3555168886e+00	 5.9779707658e-01	 1.3520088132e+00
 1.3483253092e+00	 6.1384545325e-01	 1.2331913116e+00
 1.3409276358e+00	 6.2984161154e-01	 1.1167986933e+00
 1.3333241803e+00	 6.4578170469e-01	 1.0071221296e+00
 1.2999910758e+00	 6.2963716207e-01	 1.1113178236e+00
 1.2923774646e+00	 6.4512033147e-01	 1.0096723961e+00
 1.2845640979e+00	 6.6054131693e-01	 9.0374044821e-01
 1.2765515547e+00	 6.7589635403e-01	 7.8979197518e-01
 1.2683405061e+00	 6.9118167922e-01	 6.6323405776e-01
 1.2599317165e+00	 7.0639353259e-01	 5.1860023830e-01
 1.3066576967e+00	 6.3286607060e-01	 1.0897877885e+00
 1.2990050413e+00	 6.4842864087e-01	 9.8763180969e-01
 1.2911516061e+00	 6.6392870830e-01	 8.8085802611e-01
 1.2830979729e+00	 6.7936248918e-01	 7.6588514146e-01
 1.2748448164e+00	 6.9472620065e-01	 6.3827325802e-01
 1.2663929048e+00	 7.1001606353e-01	 4.9271396950e-01
 1.3133243176e+00	 6.3609497912e-01	 1.0691511967e+00
 1.3056326181e+00	 6.5173695026e-01	 9.6639287227e-01
 1.2977391143e+00	 6.6731609967e-01	 8.5891063475e-01
 1.2896443911e+00	 6.8282862433e-01	 7.4323449876e-01
 1.2813491267e+00	 6.9827072208e-01	 6.1504446589e-01
 1.2728540931e+00	 7.1363859447e-01	 4.6916153378e-01
 1.3199909385e+00	 6.3932388764e-01	 1.0488584064e+00
 1.3122601948e+00	 6.5504525965e-01	 9.4533686474e-01
 1.3043266225e+00	 6.7070349104e-01	 8.3725461093e-01
 1.2961908093e+00	 6.8629475948e-01	 7.2121613943e-01
 1.2878534370e+00	 7.0181524351e-01	 5.9298873309e-01
 1.2793152814e+00	 7.1726112540e-01	 4.4749458869e-01
 1.3266575594e+00	 6.4255279617e-01	 1.0283629137e+00
 1.3188877716e+00	 6.5835356904e-01	 9.2385041596e-01
 1.3109141307e+00	 6.7409088241e-01	 8.1525300398e-01
 1.3027372276e+00	 6.8976089463e-01	 6.9921336561e-01
 1.2943577472e+00	 7.0535976495e-01	 5.7155393003e-01
 1.2857764696e+00	 7.2088365634e-01	 4.2727031048e-01
 1.3333241803e+00	 6.4578170469e-01	 1.0071221296e+00
 1.3255153483e+00	 6.6166187843e-01	 9.0132629459e-01
 1.3175016389e+00	 6.7747827378e-01	 7.9227640453e-01
 1.3092836458e+00	 6.9322702978e-01	 6.7661757721e-01
 1.3008620575e+00	 7.0890428638e-01	 5.5019571525e-01
 1.2922376579e+00	 7.2450618728e-01	 4.0805246756e-01
 1.2599317165e+00	 7.0639353259e-01	 5.1860023830e-01
 1.2513260432e+00	 7.2152816073e-01	 3.8712475478e-01
 1.2425244369e+00	 7.3658181950e-01	 3.0112351042e-01
 1.2335279416e+00	 7.5155077695e-01	 2.3839125520e-01
 1.2243376947e+00	 7.6643131616e-01	 1.4657883941e-01
 1.2149549267e+00	 7.8121973811e-01	 1.6900466865e-02
 1.2663929048e+00	 7.1001606353e-01	 4.9271396950e-01
 1.2577430998e+00	 7.2522830514e-01	 3.6259483369e-01
 1.2488963571e+00	 7.4035916216e-01	 2.8216054206e-01
 1.2398537259e+00	 7.5540488350e-01	 2.1489828893e-01
 1.2306163496e+00	 7.7036173317e-01	 1.1975186530e-01
 1.2211854648e+00	 7.8522599318e-01	-9.9456320343e-03
 1.2728540931e+00	 7.1363859447e-01	 4.6916153378e-01
 1.2641601565e+00	 7.2892844956e-01	 3.4097568054e-01
 1.2552682773e+00	 7.4413650483e-01	 2.6492018167e-01
 1.2461795102e+00	 7.5925899005e-01	 1.9131720390e-01
 1.2368950044e+00	 7.7429215017e-01	 9.3456791453e-02
 1.2274160029e+00	 7.8923224825e-01	-3.5684184414e-02
 1.2793152814e+00	 7.1726112540e-01	 4.4749458869e-01
 1.2705772131e+00	 7.3262859397e-01	 3.2192035951e-01
 1.2616401975e+00	 7.4791384749e-01	 2.4683009180e-01
 1.2525052946e+00	 7.6311309660e-01	 1.6754783430e-01
 1.2431736592e+00	 7.7822256718e-01	 6.7521158180e-02
 1.2336465409e+00	 7.9323850331e-01	-6.0626678315e-02
 1.2857764696e+00	 7.2088365634e-01	 4.2727031048e-01
 1.2769942697e+00	 7.3632873838e-01	 3.0508633503e-01
 1.2680121176e+00	 7.5169119016e-01	 2.2779220937e-01
 1.2588310789e+00	 7.6696720315e-01	 1.4350717601e-01
 1.2494523141e+00	 7.8215298418e-01	 4.1791123818e-02
 1.2398770790e+00	 7.9724475838e-01	-8.5063130076e-02
 1.2922376579e+00	 7.2450618728e-01	 4.0805246756e-01
 1.2834113263e+00	 7.4002888280e-01	 2.9013664421e-01
 1.2743840378e+00	 7.5546853282e-01	 2.0774608435e-01
 1.2651568632e+00	 7.7082130969e-01	 1.1912885665e-01
 1.2557309689e+00	 7.8608340119e-01	 1.6130892289e-02
 1.2461076171e+00	 8.0125101345e-01	-1.0926273148e-01
 1.2149549267e+00	 7.8121973811e-01	 1.6900466865e-02
 1.2053809609e+00	 7.9591236460e-01	-1.1842684786e-01
 1.1956172134e+00	 8.1050554108e-01	-2.2980198653e-01
 1.1856651921e+00	 8.2499563959e-01	-3.2718157555e-01
 1.1755264965e+00	 8.3937906161e-01	-4.2044879249e-01
 1.1652028170e+00	 8.5365224089e-01	-5.1929652080e-01
 1.2211854648e+00	 7.8522599318e-01	-9.9456320343e-03
 1.2115624018e+00	 7.9999396647e-01	-1.4439873352e-01
 1.2017485837e+00	 8.1466197975e-01	-2.5581168075e-01
 1.1917455264e+00	 8.2922638646e-01	-3.5364728847e-01
 1.1815548375e+00	 8.4368356962e-01	-4.4731961225e-01
 1.1711782160e+00	 8.5802994469e-01	-5.4607561438e-01
 1.2274160029e+00	 7.8923224825e-01	-3.5684184414e-02
 1.2177438426e+00	 8.0407556834e-01	-1.6878503847e-01
 1.2078799540e+00	 8.1881841842e-01	-2.7993643038e-01
 1.1978258607e+00	 8.3345713333e-01	-3.7812613017e-01
 1.1875831785e+00	 8.4798807763e-01	-4.7231101476e-01
 1.1771536151e+00	 8.6240764849e-01	-5.7129711225e-01
 1.2336465409e+00	 7.9323850331e-01	-6.0626678315e-02
 1.2239252834e+00	 8.0815717021e-01	-1.9203808947e-01
 1.2140113244e+00	 8.2297485710e-01	-3.0270578951e-01
 1.2039061950e+00	 8.3768788020e-01	-4.0116105177e-01
 1.1936115195e+00	 8.5229258564e-01	-4.9591539679e-01
 1.1831290142e+00	 8.6678535229e-01	-5.9533888185e-01
 1.2398770790e+00	 7.9724475838e-01	-8.5063130076e-02
 1.2301067242e+00	 8.1223877207e-01	-2.1458579491e-01
 1.2201426947e+00	 8.2713129577e-01	-3.2462316942e-01
 1.2099865294e+00	 8.4191862707e-01	-4.2326836537e-01
 1.1996398605e+00	 8.5659709364e-01	-5.1859925277e-01
 1.1891044132e+00	 8.7116305609e-01	-6.1855486154e-01
 1.2461076171e+00	 8.0125101345e-01	-1.0926273148e-01
 1.2362881651e+00	 8.1632037394e-01	-2.3683236619e-01
 1.2262740650e+00	 8.3128773444e-01	-3.4616660108e-01
 1.2160668637e+00	 8.4614937394e-01	-4.4493851396e-01
 1.2056682016e+00	 8.6090160165e-01	-5.4080391852e-01
 1.1950798123e+00	 8.7554075989e-01	-6.4127574477e-01
 1.1652028170e+00	 8.5365224089e-01	-5.1929652080e-01
 1.1546959338e+00	 8.6781164634e-01	-6.2136001831e-01
 1.1440077164e+00	 8.8185378482e-01	-7.1798575700e-01
 1.1331401225e+00	 8.9577520393e-01	-8.0871968163e-01
 1.1220951964e+00	 9.0957249480e-01	-8.9235323699e-01
 1.1108750687e+00	 9.2324229479e-01	-9.6681611779e-01
 1.1711782160e+00	 8.5802994469e-01	-5.4607561438e-01
 1.1606174514e+00	 8.7226196248e-01	-6.4699369662e-01
 1.1498744227e+00	 8.8637611192e-01	-7.4196423128e-01
 1.1389510974e+00	 9.0036892292e-01	-8.3173913361e-01
 1.1278495307e+00	 9.1423696914e-01	-9.1629002745e-01
 1.1165718639e+00	 9.2797687067e-01	-9.9468875277e-01
 1.1771536151e+00	 8.6240764849e-01	-5.7129711225e-01
 1.1665389690e+00	 8.7671227861e-01	-6.7144868228e-01
 1.1557411289e+00	 8.9089843902e-01	-7.6497677498e-01
 1.1447620724e+00	 9.0496264192e-01	-8.5374436344e-01
 1.1336038651e+00	 9.1890144347e-01	-9.3881418235e-01
 1.1222686591e+00	 9.3271144654e-01	-1.0203230506e+00
 1.1831290142e+00	 8.6678535229e-01	-5.9533888185e-01
 1.1724604866e+00	 8.8116259475e-01	-6.9498088762e-01
 1.1616078352e+00	 8.9542076612e-01	-7.8720755497e-01
 1.1505730474e+00	 9.0955636091e-01	-8.7489965225e-01
 1.1393581994e+00	 9.2356591780e-01	-9.6012356660e-01
 1.1279654543e+00	 9.3744602241e-01	-1.0439995650e+00
 1.1891044132e+00	 8.7116305609e-01	-6.1855486154e-01
 1.1783820042e+00	 8.8561291088e-01	-7.1782437354e-01
 1.1674745414e+00	 8.9994309322e-01	-8.0881991514e-01
 1.1563840224e+00	 9.1415007991e-01	-8.9534841054e-01
 1.1451125338e+00	 9.2823039213e-01	-9.8039402501e-01
 1.1336622496e+00	 9.4218059828e-01	-1.0659804841e+00
 1.1950798123e+00	 8.7554075989e-01	-6.4127574477e-01
 1.1843035219e+00	 8.9006322702e-01	-7.4019196867e-01
 1.1733412476e+00	 9.0446542032e-01	-8.2995695451e-01
 1.1621949974e+00	 9.1874379890e-01	-9.1521373942e-01
 1.1508668681e+00	 9.3289486646e-01	-9.9977995203e-01
 1.1393590448e+00	 9.4691517415e-01	-1.0865043053e+00
 1.1108750687e+00	 9.2324229479e-01	-9.6681611779e-01
 1.0994819541e+00	 9.3678129019e-01	-1.0468631201e+00
 1.0879181507e+00	 9.5018621882e-01	-1.1405908781e+00
 1.0761860379e+00	 9.6345387269e-01	-1.2358829045e+00
 1.0642880753e+00	 9.7658110049e-01	-1.3193932443e+00
 1.0522268005e+00	 9.8956481008e-01	-1.3767019374e+00
 1.1165718639e+00	 9.2797687067e-01	-9.9468875277e-01
 1.1051203231e+00	 9.4158529680e-01	-1.0719626665e+00
 1.0934972182e+00	 9.5505896866e-01	-1.1633848671e+00
 1.0817049407e+00	 9.6839466179e-01	-1.2586264019e+00
 1.0697459629e+00	 9.8158920870e-01	-1.3429902923e+00
 1.0576228354e+00	 9.9463950141e-01	-1.4006773362e+00
 1.1222686591e+00	 9.3271144654e-01	-1.0203230506e+00
 1.1107586921e+00	 9.4638930342e-01	-1.0996362403e+00
 1.0990762856e+00	 9.5993171850e-01	-1.1870554484e+00
 1.0872238435e+00	 9.7333545088e-01	-1.2807132433e+00
 1.0752038504e+00	 9.8659731691e-01	-1.3647763221e+00
 1.0630188703e+00	 9.9971419274e-01	-1.4222765694e+00
 1.1279654543e+00	 9.3744602241e-01	-1.0439995650e+00
 1.1163970611e+00	 9.5119331003e-01	-1.1274524241e+00
 1.1046553530e+00	 9.6480446834e-01	-1.2116434337e+00
 1.0927427462e+00	 9.7827623997e-01	-1.3022577756e+00
 1.0806617380e+00	 9.9160542512e-01	-1.3849136540e+00
 1.0684149051e+00	 1.0047888841e+00	-1.4416807533e+00
 1.1336622496e+00	 9.4218059828e-01	-1.0659804841e+00
 1.1220354301e+00	 9.5599731665e-01	-1.1525900832e+00
 1.1102344205e+00	 9.6967721818e-01	-1.2371665403e+00
 1.0982616490e+00	 9.8321702906e-01	-1.3233508255e+00
 1.0861196256e+00	 9.9661353333e-01	-1.4035413450e+00
 1.0738109400e+00	 1.0098635754e+00	-1.4590487394e+00
 1.1393590448e+00	 9.4691517415e-01	-1.0865043053e+00
 1.1276737991e+00	 9.6080132327e-01	-1.1753788610e+00
 1.1158134879e+00	 9.7454996802e-01	-1.2621437457e+00
 1.1037805517e+00	 9.8815781815e-01	-1.3440590025e+00
 1.0915775131e+00	 1.0016216415e+00	-1.4207745185e+00
 1.0792069749e+00	 1.0149382667e+00	-1.4745164579e+00
 1.0522268005e+00	 9.8956481008e-01	-1.3767019374e+00
 1.0400048278e+00	 1.0024019709e+00	-1.4289209841e+00
 1.0276248459e+00	 1.0150896163e+00	-1.4984816814e+00
 1.0150896163e+00	 1.0276248459e+00	-1.5719402860e+00
 1.0024019709e+00	 1.0400048278e+00	-1.6356041433e+00
 9.8956481008e-01	 1.0522268005e+00	-1.6757168679e+00
 1.0576228354e+00	 9.9463950141e-01	-1.4006773362e+00
 1.0453381859e+00	 1.0075424938e+00	-1.4523538563e+00
 1.0328947169e+00	 1.0202952041e+00	-1.5210301869e+00
 1.0202952041e+00	 1.0328947169e+00	-1.5933912622e+00
 1.0075424938e+00	 1.0453381859e+00	-1.6558602530e+00
 9.9463950141e-01	 1.0576228354e+00	-1.6947886890e+00
 1.0630188703e+00	 9.9971419274e-01	-1.4222765694e+00
 1.0506715440e+00	 1.0126830167e+00	-1.4735210686e+00
 1.0381645879e+00	 1.0255007919e+00	-1.5418627650e+00
 1.0255007919e+00	 1.0381645879e+00	-1.6138364422e+00
 1.0126830167e+00	 1.0506715440e+00	-1.6757010450e+00
 9.9971419274e-01	 1.0630188703e+00	-1.7136355043e+00
 1.0684149051e+00	 1.0047888841e+00	-1.4416807533e+00
 1.0560049021e+00	 1.0178235397e+00	-1.4926024084e+00
 1.0434344589e+00	 1.0307063796e+00	-1.5611516422e+00
 1.0307063796e+00	 1.0434344589e+00	-1.6334378957e+00
 1.0178235397e+00	 1.0560049021e+00	-1.6952794582e+00
 1.0047888841e+00	 1.0684149051e+00	-1.7324057560e+00
 1.0738109400e+00	 1.0098635754e+00	-1.4590487394e+00
 1.0613382602e+00	 1.0229640626e+00	-1.5097569454e+00
 1.0487043299e+00	 1.0359119674e+00	-1.5790501283e+00
 1.0359119674e+00	 1.0487043299e+00	-1.6523407428e+00
 1.0229640626e+00	 1.0613382602e+00	-1.7147335274e+00
 1.0098635754e+00	 1.0738109400e+00	-1.7512350168e+00
 1.0792069749e+00	 1.0149382667e+00	-1.4745164579e+00
 1.0666716183e+00	 1.0281045855e+00	-1.5251223770e+00
 1.0539742010e+00	 1.0411175552e+00	-1.5956919610e+00
 1.0411175552e+00	 1.0539742010e+00	-1.6706724970e+00
 1.0281045855e+00	 1.0666716183e+00	-1.7341857246e+00
 1.0149382667e+00	 1.0792069749e+00	-1.7702453323e+00
 9.8956481008e-01	 1.0522268005e+00	-1.6757168679e+00
 9.7658110049e-01	 1.0642880753e+00	-1.7145045736e+00
 9.6345387269e-01	 1.0761860379e+00	-1.7731133464e+00
 9.5018621882e-01	 1.0879181507e+00	-1.8367897922e+00
 9.3678129019e-01	 1.0994819541e+00	-1.8916746430e+00
 9.2324229479e-01	 1.1108750687e+00	-1.9249854349e+00
 9.9463950141e-01	 1.0576228354e+00	-1.6947886890e+00
 9.8158920870e-01	 1.0697459629e+00	-1.7332878395e+00
 9.6839466179e-01	 1.0817049407e+00	-1.7923729016e+00
 9.5505896866e-01	 1.0934972182e+00	-1.8558783896e+00
 9.4158529680e-01	 1.1051203231e+00	-1.9085490980e+00
 9.2797687067e-01	 1.1165718639e+00	-1.9387005177e+00
 9.9971419274e-01	 1.0630188703e+00	-1.7136355043e+00
 9.8659731691e-01	 1.0752038504e+00	-1.7514295797e+00
 9.7333545088e-01	 1.0872238435e+00	-1.8100957412e+00
 9.5993171850e-01	 1.0990762856e+00	-1.8722818209e+00
 9.4638930342e-01	 1.1107586921e+00	-1.9215665562e+00
 9.3271144654e-01	 1.1222686591e+00	-1.9523049920e+00
 1.0047888841e+00	 1.0684149051e+00	-1.7324057560e+00
 9.9160542512e-01	 1.0806617380e+00	-1.7690995181e+00
 9.7827623997e-01	 1.0927427462e+00	-1.8265147239e+00
 9.6480446834e-01	 1.1046553530e+00	-1.8863338872e+00
 9.5119331003e-01	 1.1163970611e+00	-1.9327152438e+00
 9.3744602241e-01	 1.1279654543e+00	-1.9654069287e+00
 1.0098635754e+00	 1.0738109400e+00	-1.7512350168e+00
 9.9661353333e-01	 1.0861196256e+00	-1.7864560914e+00
 9.8321702906e-01	 1.0982616490e+00	-1.8418522103e+00
 9.6967721818e-01	 1.1102344205e+00	-1.8983579516e+00
 9.5599731665e-01	 1.1220354301e+00	-1.9437590206e+00
 9.4218059828e-01	 1.1336622496e+00	-1.9776069693e+00
 1.0149382667e+00	 1.0792069749e+00	-1.7702453323e+00
 1.0016216415e+00	 1.0915775131e+00	-1.8036458051e+00
 9.8815781815e-01	 1.1037805517e+00	-1.8563194552e+00
 9.7454996802e-01	 1.1158134879e+00	-1.9092617528e+00
 9.6080132327e-01	 1.1276737991e+00	-1.9541608624e+00
 9.4691517415e-01	 1.1393590448e+00	-1.9885037621e+00
 9.2324229479e-01	 1.1108750687e+00	-1.9249854349e+00
 9.0957249480e-01	 1.1220951964e+00	-1.9457499933e+00
 8.9577520393e-01	 1.1331401225e+00	-1.9699498523e+00
 8.8185378482e-01	 1.1440077164e+00	-1.9954508704e+00
 8.6781164634e-01	 1.1546959338e+00	-2.0209493573e+00
 8.5365224089e-01	 1.1652028170e+00	-2.0458775573e+00
 9.2797687067e-01	 1.1165718639e+00	-1.9387005177e+00
 9.1423696914e-01	 1.1278495307e+00	-1.9613226030e+00
 9.0036892292e-01	 1.1389510974e+00	-1.9848114430e+00
 8.8637611192e-01	 1.1498744227e+00	-2.0081121905e+00
 8.7226196248e-01	 1.1606174514e+00	-2.0310337091e+00
 8.5802994469e-01	 1.1711782160e+00	-2.0541431363e+00
 9.3271144654e-01	 1.1222686591e+00	-1.9523049920e+00
 9.1890144347e-01	 1.1336038651e+00	-1.9761885890e+00
 9.0496264192e-01	 1.1447620724e+00	-1.9988394682e+00
 8.9089843902e-01	 1.1557411289e+00	-2.0201606105e+00
 8.7671227861e-01	 1.1665389690e+00	-2.0409387980e+00
 8.6240764849e-01	 1.1771536151e+00	-2.0627333953e+00
 9.3744602241e-01	 1.1279654543e+00	-1.9654069287e+00
 9.2356591780e-01	 1.1393581994e+00	-1.9900745392e+00
 9.0955636091e-01	 1.1505730474e+00	-2.0118065492e+00
 8.9542076612e-01	 1.1616078352e+00	-2.0313396024e+00
 8.8116259475e-01	 1.1724604866e+00	-2.0503060584e+00
 8.6678535229e-01	 1.1831290142e+00	-2.0711172129e+00
 9.4218059828e-01	 1.1336622496e+00	-1.9776069693e+00
 9.2823039213e-01	 1.1451125338e+00	-2.0027018622e+00
 9.1415007991e-01	 1.1563840224e+00	-2.0234789927e+00
 8.9994309322e-01	 1.1674745414e+00	-2.0413866790e+00
 8.8561291088e-01	 1.1783820042e+00	-2.0587727751e+00
 8.7116305609e-01	 1.1891044132e+00	-2.0787625457e+00
 9.4691517415e-01	 1.1393590448e+00	-1.9885037621e+00
 9.3289486646e-01	 1.1508668681e+00	-2.0137873456e+00
 9.1874379890e-01	 1.1621949974e+00	-2.0336173428e+00
 9.0446542032e-01	 1.1733412476e+00	-2.0500339027e+00
 8.9006322702e-01	 1.1843035219e+00	-2.0659725135e+00
 8.7554075989e-01	 1.1950798123e+00	-2.0851367433e+00
 8.5365224089e-01	 1.1652028170e+00	-2.0458775573e+00
 8.3937906161e-01	 1.1755264965e+00	-2.0650500794e+00
 8.2499563959e-01	 1.1856651921e+00	-2.0774336472e+00
 8.1050554108e-01	 1.1956172134e+00	-2.0893933468e+00
 7.9591236460e-01	 1.2053809609e+00	-2.1074927647e+00
 7.8121973811e-01	 1.2149549267e+00	-2.1383902979e+00
 8.5802994469e-01	 1.1711782160e+00	-2.0541431363e+00
 8.4368356962e-01	 1.1815548375e+00	-2.0725826458e+00
 8.2922638646e-01	 1.1917455264e+00	-2.0845516374e+00
 8.1466197975e-01	 1.2017485837e+00	-2.0959033315e+00
 7.9999396647e-01	 1.2115624018e+00	-2.1126646289e+00
 7.8522599318e-01	 1.2211854648e+00	-2.1409308975e+00
 8.6240764849e-01	 1.1771536151e+00	-2.0627333953e+00
 8.4798807763e-01	 1.1875831785e+00	-2.0807757603e+00
 8.3345713333e-01	 1.1978258607e+00	-2.0923880480e+00
 8.1881841842e-01	 1.2078799540e+00	-2.1029637741e+00
 8.0407556834e-01	 1.2177438426e+00	-2.1180557735e+00
 7.8923224825e-01	 1.2274160029e+00	-2.1432691592e+00
 8.6678535229e-01	 1.1831290142e+00	-2.0711172129e+00
 8.5229258564e-01	 1.1936115195e+00	-2.0889393548e+00
 8.3768788020e-01	 1.2039061950e+00	-2.1001895512e+00
 8.2297485710e-01	 1.2140113244e+00	-2.1098530356e+00
 8.0815717021e-01	 1.2239252834e+00	-2.1230703346e+00
 7.9323850331e-01	 1.2336465409e+00	-2.1450280973e+00
 8.7116305609e-01	 1.1891044132e+00	-2.0787625457e+00
 8.5659709364e-01	 1.1996398605e+00	-2.0963854024e+00
 8.4191862707e-01	 1.2099865294e+00	-2.1072059189e+00
 8.2713129577e-01	 1.2201426947e+00	-2.1158517530e+00
 8.1223877207e-01	 1.2301067242e+00	-2.1271120454e+00
 7.9724475838e-01	 1.2398770790e+00	-2.1458258151e+00
 8.7554075989e-01	 1.1950798123e+00	-2.0851367433e+00
 8.6090160165e-01	 1.2056682016e+00	-2.1024281244e+00
 8.4614937394e-01	 1.2160668637e+00	-2.1126901695e+00
 8.3128773444e-01	 1.2262740650e+00	-2.1202429750e+00
 8.1632037394e-01	 1.2362881651e+00	-2.1295844069e+00
 8.0125101345e-01	 1.2461076171e+00	-2.1452757584e+00
 7.8121973811e-01	 1.2149549267e+00	-2.1383902979e+00
 7.6643131616e-01	 1.2243376947e+00	-2.1560109898e+00
 7.5155077695e-01	 1.2335279416e+00	-2.1379444341e+00
 7.3658181950e-01	 1.2425244369e+00	-2.0978524918e+00
 7.2152816073e-01	 1.2513260432e+00	-2.0719052514e+00
 7.0639353259e-01	 1.2599317165e+00	-2.0801088625e+00
 7.8522599318e-01	 1.2211854648e+00	-2.1409308975e+00
 7.7036173317e-01	 1.2306163496e+00	-2.1561639378e+00
 7.5540488350e-01	 1.2398537259e+00	-2.1379543222e+00
 7.4035916216e-01	 1.2488963571e+00	-2.0987652804e+00
 7.2522830514e-01	 1.2577430998e+00	-2.0688820464e+00
 7.1001606353e-01	 1.2663929048e+00	-2.0756971999e+00
 7.8923224825e-01	 1.2274160029e+00	-2.1432691592e+00
 7.7429215017e-01	 1.2368950044e+00	-2.1557498716e+00
 7.5925899005e-01	 1.2461795102e+00	-2.1371468981e+00
 7.4413650483e-01	 1.2552682773e+00	-2.0999584969e+00
 7.2892844956e-01	 1.2641601565e+00	-2.0669152208e+00
 7.1363859447e-01	 1.2728540931e+00	-2.0721884070e+00
 7.9323850331e-01	 1.2336465409e+00	-2.1450280973e+00
 7.7822256718e-01	 1.2431736592e+00	-2.1546081625e+00
 7.6311309660e-01	 1.2525052946e+00	-2.1354812392e+00
 7.4791384749e-01	 1.2616401975e+00	-2.1001293539e+00
 7.3262859397e-01	 1.2705772131e+00	-2.0658199562e+00
 7.1726112540e-01	 1.2793152814e+00	-2.0692339163e+00
 7.9724475838e-01	 1.2398770790e+00	-2.1458258151e+00
 7.8215298418e-01	 1.2494523141e+00	-2.1525688632e+00
 7.6696720315e-01	 1.2588310789e+00	-2.1329046958e+00
 7.5169119016e-01	 1.2680121176e+00	-2.0992381178e+00
 7.3632873838e-01	 1.2769942697e+00	-2.0653985616e+00
 7.2088365634e-01	 1.2857764696e+00	-2.0664752819e+00
 8.0125101345e-01	 1.2461076171e+00	-2.1452757584e+00
 7.8608340119e-01	 1.2557309689e+00	-2.1494530431e+00
 7.7082130969e-01	 1.2651568632e+00	-2.1293532579e+00
 7.5546853282e-01	 1.2743840378e+00	-2.0972441906e+00
 7.4002888280e-01	 1.2834113263e+00	-2.0654413430e+00
 7.2450618728e-01	 1.2922376579e+00	-2.0635449307e+00
 7.0639353259e-01	 1.2599317165e+00	-2.0801088625e+00
 6.9118167922e-01	 1.2683405061e+00	-2.0990850518e+00
 6.7589635403e-01	 1.2765515547e+00	-2.1016560167e+00
 6.6054131693e-01	 1.2845640979e+00	-2.0918557856e+00
 6.4512033147e-01	 1.2923774646e+00	-2.0727701925e+00
 6.2963716207e-01	 1.2999910758e+00	-2.0465676744e+00
 7.1001606353e-01	 1.2663929048e+00	-2.0756971999e+00
 6.9472620065e-01	 1.2748448164e+00	-2.0941100744e+00
 6.7936248918e-01	 1.2830979729e+00	-2.0954065844e+00
 6.6392870830e-01	 1.2911516061e+00	-2.0838793164e+00
 6.4842864087e-01	 1.2990050413e+00	-2.0628627644e+00
 6.3286607060e-01	 1.3066576967e+00	-2.0347635787e+00
 7.1363859447e-01	 1.2728540931e+00	-2.0721884070e+00
 6.9827072208e-01	 1.2813491267e+00	-2.0898216925e+00
 6.8282862433e-01	 1.2896443911e+00	-2.0896552263e+00
 6.6731609967e-01	 1.2977391143e+00	-2.0762673245e+00
 6.5173695026e-01	 1.3056326181e+00	-2.0532766218e+00
 6.3609497912e-01	 1.3133243176e+00	-2.0233715404e+00
 7.1726112540e-01	 1.2793152814e+00	-2.0692339163e+00
 7.0181524351e-01	 1.2878534370e+00	-2.0857024918e+00
 6.8629475948e-01	 1.2961908093e+00	-2.0837966822e+00
 6.7070349104e-01	 1.3043266225e+00	-2.0684070856e+00
 6.5504525965e-01	 1.3122601948e+00	-2.0434712412e+00
 6.3932388764e-01	 1.3199909385e+00	-2.0120020869e+00
 7.2088365634e-01	 1.2857764696e+00	-2.0664752819e+00
 7.0535976495e-01	 1.2943577472e+00	-2.0812283081e+00
 6.8976089463e-01	 1.3027372276e+00	-2.0772204804e+00
 6.7409088241e-01	 1.3109141307e+00	-2.0596806319e+00
 6.5835356904e-01	 1.3188877716e+00	-2.0328992732e+00
 6.4255279617e-01	 1.3266575594e+00	-2.0002558082e+00
 7.2450618728e-01	 1.2922376579e+00	-2.0635449307e+00
 7.0890428638e-01	 1.3008620575e+00	-2.0758688574e+00
 6.9322702978e-01	 1.3092836458e+00	-2.0693114869e+00
 6.7747827378e-01	 1.3175016389e+00	-2.0494652596e+00
 6.6166187843e-01	 1.3255153483e+00	-2.0210070473e+00
 6.4578170469e-01	 1.3333241803e+00	-1.9877238977e+00
 6.2963716207e-01	 1.2999910758e+00	-2.0465676744e+00
 6.1409557125e-01	 1.3074044449e+00	-2.0197637981e+00
 5.9849931692e-01	 1.3146171765e+00	-1.9975625529e+00
 5.8285214967e-01	 1.3216289664e+00	-1.9789275651e+00
 5.6715781014e-01	 1.3284396002e+00	-1.9621030931e+00
 5.5142002643e-01	 1.3350489532e+00	-1.9446686044e+00
 6.3286607060e-01	 1.3066576967e+00	-2.0347635787e+00
 6.1724477931e-01	 1.3141090830e+00	-2.0063560815e+00
 6.0156854419e-01	 1.3213588030e+00	-1.9828523396e+00
 5.8584113505e-01	 1.3284065508e+00	-1.9630556431e+00
 5.7006631173e-01	 1.3352521110e+00	-1.9450314809e+00
 5.5424782144e-01	 1.3418953581e+00	-1.9261632805e+00
 6.3609497912e-01	 1.3133243176e+00	-2.0233715404e+00
 6.2039398737e-01	 1.3208137212e+00	-1.9935325652e+00
 6.0463777145e-01	 1.3281004296e+00	-1.9688808350e+00
 5.8883012043e-01	 1.3351841352e+00	-1.9480327572e+00
 5.7297481332e-01	 1.3420646218e+00	-1.9288401161e+00
 5.5707561644e-01	 1.3487417630e+00	-1.9084471704e+00
 6.3932388764e-01	 1.3199909385e+00	-2.0120020869e+00
 6.2354319543e-01	 1.3275183594e+00	-1.9810586517e+00
 6.0770699872e-01	 1.3348420561e+00	-1.9554979984e+00
 5.9181910582e-01	 1.3419617197e+00	-1.9337235890e+00
 5.7588331491e-01	 1.3488771326e+00	-1.9133391130e+00
 5.5990341145e-01	 1.3555881679e+00	-1.8912071355e+00
 6.4255279617e-01	 1.3266575594e+00	-2.0002558082e+00
 6.2669240348e-01	 1.3342229976e+00	-1.9686866782e+00
 6.1077622598e-01	 1.3415836827e+00	-1.9425390741e+00
 5.9480809120e-01	 1.3487393041e+00	-1.9199779280e+00
 5.7879181650e-01	 1.3556896433e+00	-1.8983249811e+00
 5.6273120646e-01	 1.3624345728e+00	-1.8741191747e+00
 6.4578170469e-01	 1.3333241803e+00	-1.9877238977e+00
 6.2984161154e-01	 1.3409276358e+00	-1.9561564952e+00
 6.1384545325e-01	 1.3483253092e+00	-1.9298251722e+00
 5.9779707658e-01	 1.3555168886e+00	-1.9066312187e+00
 5.8170031809e-01	 1.3625021541e+00	-1.8835811035e+00
 5.6555900146e-01	 1.3692809777e+00	-1.8568487985e+00
 5.5142002643e-01	 1.3350489532e+00	-1.9446686044e+00
 5.3564251151e-01	 1.3414569889e+00	-1.9236236025e+00
 5.1982896076e-01	 1.3476637580e+00	-1.8984714782e+00
 5.0398304950e-01	 1.3536693979e+00	-1.8697789723e+00
 4.8810843058e-01	 1.3594741311e+00	-1.8377514904e+00
 4.7220873209e-01	 1.3650782638e+00	-1.8022908333e+00
 5.5424782144e-01	 1.3418953581e+00	-1.9261632805e+00
 5.3838939619e-01	 1.3483362555e+00	-1.9037754195e+00
 5.2249475031e-01	 1.3545748542e+00	-1.8776635333e+00
 5.0656757796e-01	 1.3606112923e+00	-1.8481295695e+00
 4.9061155074e-01	 1.3664457933e+00	-1.8151053085e+00
 4.7463031534e-01	 1.3720786652e+00	-1.7782118594e+00
 5.5707561644e-01	 1.3487417630e+00	-1.9084471704e+00
 5.4113628086e-01	 1.3552155221e+00	-1.8845176527e+00
 5.2516053985e-01	 1.3614859504e+00	-1.8572281540e+00
 5.0915210642e-01	 1.3675531866e+00	-1.8266828347e+00
 4.9311467089e-01	 1.3734174555e+00	-1.7926130517e+00
 4.7705189858e-01	 1.3790790666e+00	-1.7544383490e+00
 5.5990341145e-01	 1.3555881679e+00	-1.8912071355e+00
 5.4388316554e-01	 1.3620947887e+00	-1.8654157107e+00
 5.2782632939e-01	 1.3683970466e+00	-1.8366802098e+00
 5.1173663488e-01	 1.3744950810e+00	-1.8049725390e+00
 4.9561779105e-01	 1.3803891177e+00	-1.7698952788e+00
 4.7947348182e-01	 1.3860794679e+00	-1.7307439013e+00
 5.6273120646e-01	 1.3624345728e+00	-1.8741191747e+00
 5.4663005021e-01	 1.3689740553e+00	-1.8460269213e+00
 5.3049211893e-01	 1.3753081428e+00	-1.8155279229e+00
 5.1432116333e-01	 1.3814369753e+00	-1.7825259211e+00
 4.9812091121e-01	 1.3873607799e+00	-1.7465648435e+00
 4.8189506506e-01	 1.3930798693e+00	-1.7068919819e+00
 5.6555900146e-01	 1.3692809777e+00	-1.8568487985e+00
 5.4937693488e-01	 1.3758533219e+00	-1.8259008023e+00
 5.3315790848e-01	 1.3822192390e+00	-1.7932730708e+00
 5.1690569179e-01	 1.3883788697e+00	-1.7588638565e+00
 5.0062403136e-01	 1.3943324421e+00	-1.7222270644e+00
 4.8431664830e-01	 1.4000802706e+00	-1.6826361271e+00
 4.7220873209e-01	 1.3650782638e+00	-1.8022908333e+00
 4.5628755507e-01	 1.3704821853e+00	-1.7706642509e+00
 4.4034847129e-01	 1.3756863658e+00	-1.7475211845e+00
 4.2439502114e-01	 1.3806913555e+00	-1.7285679025e+00
 4.0843071152e-01	 1.3854977831e+00	-1.7094651034e+00
 3.9245901390e-01	 1.3901063540e+00	-1.6858985409e+00
 4.7463031534e-01	 1.3720786652e+00	-1.7782118594e+00
 4.5862749125e-01	 1.3775102991e+00	-1.7444065976e+00
 4.4260666858e-01	 1.3827411676e+00	-1.7186262635e+00
 4.2657140586e-01	 1.3877718240e+00	-1.6971754103e+00
 4.1052522799e-01	 1.3926028999e+00	-1.6762967059e+00
 3.9447162423e-01	 1.3972351046e+00	-1.6522422546e+00
 4.7705189858e-01	 1.3790790666e+00	-1.7544383490e+00
 4.6096742743e-01	 1.3845384128e+00	-1.7188126315e+00
 4.4486486587e-01	 1.3897959695e+00	-1.6908353114e+00
 4.2874779059e-01	 1.3948522925e+00	-1.6672942770e+00
 4.1261974446e-01	 1.3997080168e+00	-1.6448970527e+00
 3.9648423455e-01	 1.4043638551e+00	-1.6203431216e+00
 4.7947348182e-01	 1.3860794679e+00	-1.7307439013e+00
 4.6330736361e-01	 1.3915665266e+00	-1.6938266420e+00
 4.4712306316e-01	 1.3968507714e+00	-1.6642344966e+00
 4.3092417531e-01	 1.4019327610e+00	-1.6391252643e+00
 4.1471426093e-01	 1.4068131336e+00	-1.6155557350e+00
 3.9849684488e-01	 1.4114926056e+00	-1.5905553205e+00
 4.8189506506e-01	 1.3930798693e+00	-1.7068919819e+00
 4.6564729979e-01	 1.3985946404e+00	-1.6693800754e+00
 4.4938126045e-01	 1.4039055733e+00	-1.6388950871e+00
 4.3310056003e-01	 1.4090132294e+00	-1.6128527922e+00
 4.1680877740e-01	 1.4139182504e+00	-1.5885451448e+00
 4.0050945521e-01	 1.4186213562e+00	-1.5632155203e+00
 4.8431664830e-01	 1.4000802706e+00	-1.6826361271e+00
 4.6798723597e-01	 1.4056227541e+00	-1.6453917833e+00
 4.5163945774e-01	 1.4109603751e+00	-1.6148737269e+00
 4.3527694476e-01	 1.4160936979e+00	-1.5886452322e+00
 4.1890329387e-01	 1.4210233673e+00	-1.5641207706e+00
 4.0252206554e-01	 1.4257501067e+00	-1.5386431690e+00
 3.9245901390e-01	 1.3901063540e+00	-1.6858985409e+00
 3.7648336231e-01	 1.3945178489e+00	-1.6539106728e+00
 3.6050715156e-01	 1.3987331221e+00	-1.6141330818e+00
 3.4453373541e-01	 1.4027530995e+00	-1.5934712329e+00
 3.2856642488e-01	 1.4065787776e+00	-1.5805786130e+00
 3.1260848662e-01	 1.4102112208e+00	-1.5610187712e+00
 3.9447162423e-01	 1.3972351046e+00	-1.6522422546e+00
 3.7841404622e-01	 1.4016692225e+00	-1.6213142187e+00
 3.6235590618e-01	 1.4059061124e+00	-1.5798901376e+00
 3.4630057508e-01	 1.4099467052e+00	-1.5566564803e+00
 3.3025138091e-01	 1.4137920021e+00	-1.5428615580e+00
 3.1421160707e-01	 1.4174430732e+00	-1.5234848004e+00
 3.9648423455e-01	 1.4043638551e+00	-1.6203431216e+00
 3.8034473013e-01	 1.4088205961e+00	-1.5902286463e+00
 3.6420466081e-01	 1.4130791028e+00	-1.5474523682e+00
 3.4806741475e-01	 1.4171403108e+00	-1.5208906426e+00
 3.3193633693e-01	 1.4210052266e+00	-1.5055672340e+00
 3.1581472751e-01	 1.4246749256e+00	-1.4860194915e+00
 3.9849684488e-01	 1.4114926056e+00	-1.5905553205e+00
 3.8227541404e-01	 1.4159719697e+00	-1.5610457732e+00
 3.6605341543e-01	 1.4202520932e+00	-1.5172978308e+00
 3.4983425442e-01	 1.4243339164e+00	-1.4866493594e+00
 3.3362129296e-01	 1.4282184511e+00	-1.4691190412e+00
 3.1741784795e-01	 1.4319067780e+00	-1.4489423749e+00
 4.0050945521e-01	 1.4186213562e+00	-1.5632155203e+00
 3.8420609795e-01	 1.4231233433e+00	-1.5341401946e+00
 3.6790217005e-01	 1.4274250835e+00	-1.4898803223e+00
 3.5160109409e-01	 1.4315275221e+00	-1.4543895154e+00
 3.3530624898e-01	 1.4354316756e+00	-1.4339275196e+00
 3.1902096840e-01	 1.4391386304e+00	-1.4125664466e+00
 4.0252206554e-01	 1.4257501067e+00	-1.5386431690e+00
 3.8613678186e-01	 1.4302747169e+00	-1.5098695511e+00
 3.6975092468e-01	 1.4345980739e+00	-1.4656288071e+00
 3.5336793376e-01	 1.4387211277e+00	-1.4245486921e+00
 3.3699120501e-01	 1.4426449001e+00	-1.4003898043e+00
 3.2062408884e-01	 1.4463704828e+00	-1.3771976043e+00
 3.1260848662e-01	 1.4102112208e+00	-1.5610187712e+00
 2.9666314135e-01	 1.4136515602e+00	-1.5313170302e+00
 2.8073356238e-01	 1.4169009916e+00	-1.4990523431e+00
 2.6482287423e-01	 1.4199607735e+00	-1.4677857854e+00
 2.4893415130e-01	 1.4228322253e+00	-1.4417791915e+00
 2.3307041660e-01	 1.4255167253e+00	-1.4259062387e+00
 3.1421160707e-01	 1.4174430732e+00	-1.5234848004e+00
 2.9818449079e-01	 1.4209010554e+00	-1.4942319956e+00
 2.8217322168e-01	 1.4241671505e+00	-1.4620904551e+00
 2.6618094026e-01	 1.4272426237e+00	-1.4304962519e+00
 2.5021073669e-01	 1.4301288008e+00	-1.4036375554e+00
 2.3426564950e-01	 1.4328270674e+00	-1.3863609048e+00
 3.1581472751e-01	 1.4246749256e+00	-1.4860194915e+00
 2.9970584024e-01	 1.4281505506e+00	-1.4570949698e+00
 2.8361288097e-01	 1.4314333095e+00	-1.4250321361e+00
 2.6753900628e-01	 1.4345244738e+00	-1.3931119995e+00
 2.5148732208e-01	 1.4374253763e+00	-1.3654284007e+00
 2.3546088241e-01	 1.4401374096e+00	-1.3467891701e+00
 3.1741784795e-01	 1.4319067780e+00	-1.4489423749e+00
 3.0122718968e-01	 1.4354000457e+00	-1.4201186130e+00
 2.8505254027e-01	 1.4386994684e+00	-1.3880305366e+00
 2.6889707230e-01	 1.4418063239e+00	-1.3557749504e+00
 2.5276390747e-01	 1.4447219519e+00	-1.3273316386e+00
 2.3665611531e-01	 1.4474477518e+00	-1.3074590982e+00
 3.1902096840e-01	 1.4391386304e+00	-1.4125664466e+00
 3.0274853912e-01	 1.4426495409e+00	-1.3835148386e+00
 2.8649219956e-01	 1.4459656273e+00	-1.3512423103e+00
 2.7025513832e-01	 1.4490881740e+00	-1.3186332391e+00
 2.5404049286e-01	 1.4520185274e+00	-1.2895345596e+00
 2.3785134822e-01	 1.4547580940e+00	-1.2686457597e+00
 3.2062408884e-01	 1.4463704828e+00	-1.3771976043e+00
 3.0426988856e-01	 1.4498990361e+00	-1.3474942322e+00
 2.8793185885e-01	 1.4532317863e+00	-1.3148270425e+00
 2.7161320434e-01	 1.4563700241e+00	-1.2818406762e+00
 2.5531707825e-01	 1.4593151029e+00	-1.2522313609e+00
 2.3904658112e-01	 1.4620684362e+00	-1.2306308511e+00
 2.3307041660e-01	 1.4255167253e+00	-1.4259062387e+00
 2.1723464063e-01	 1.4280157086e+00	-1.4175414028e+00
 2.0142974026e-01	 1.4303306656e+00	-1.4089669286e+00
 1.8565857776e-01	 1.4324631393e+00	-1.3981569837e+00
 1.6992395980e-01	 1.4344147242e+00	-1.3834485761e+00
 1.5422863667e-01	 1.4361870633e+00	-1.3634263682e+00
 2.3426564950e-01	 1.4328270674e+00	-1.3863609048e+00
 2.1834866442e-01	 1.4353388661e+00	-1.3763595897e+00
 2.0246271329e-01	 1.4376656946e+00	-1.3662490651e+00
 1.8661067303e-01	 1.4398091042e+00	-1.3540705621e+00
 1.7079536472e-01	 1.4417706971e+00	-1.3382771807e+00
 1.5501955275e-01	 1.4435521251e+00	-1.3176117894e+00
 2.3546088241e-01	 1.4401374096e+00	-1.3467891701e+00
 2.1946268822e-01	 1.4426620236e+00	-1.3353014995e+00
 2.0349568632e-01	 1.4450007237e+00	-1.3239688014e+00
 1.8756276830e-01	 1.4471550690e+00	-1.3108345049e+00
 1.7166676965e-01	 1.4491266701e+00	-1.2944036947e+00
 1.5581046884e-01	 1.4509171870e+00	-1.2735140511e+00
 2.3665611531e-01	 1.4474477518e+00	-1.3074590982e+00
 2.2057671202e-01	 1.4499851810e+00	-1.2947303990e+00
 2.0452865934e-01	 1.4523357527e+00	-1.2825494696e+00
 1.8851486357e-01	 1.4545010338e+00	-1.2688994555e+00
 1.7253817457e-01	 1.4564826430e+00	-1.2522757615e+00
 1.5660138493e-01	 1.4582822489e+00	-1.2315499775e+00
 2.3785134822e-01	 1.4547580940e+00	-1.2686457597e+00
 2.2169073582e-01	 1.4573083385e+00	-1.2550155418e+00
 2.0556163237e-01	 1.4596707818e+00	-1.2424195940e+00
 1.8946695884e-01	 1.4618469986e+00	-1.2287206626e+00
 1.7340957949e-01	 1.4638386160e+00	-1.2123452314e+00
 1.5739230101e-01	 1.4656473107e+00	-1.1921403738e+00
 2.3904658112e-01	 1.4620684362e+00	-1.2306308511e+00
 2.2280475962e-01	 1.4646314960e+00	-1.2165318832e+00
 2.0659460540e-01	 1.4670058108e+00	-1.2040126872e+00
 1.9041905411e-01	 1.4691929634e+00	-1.1907578413e+00
 1.7428098441e-01	 1.4711945889e+00	-1.1750680755e+00
 1.5818321710e-01	 1.4730123726e+00	-1.1557099779e+00
 1.5422863667e-01	 1.4361870633e+00	-1.3634263682e+00
 1.3857530143e-01	 1.4377818468e+00	-1.3425487852e+00
 1.2296658927e-01	 1.4392008098e+00	-1.3262614104e+00
 1.0740507682e-01	 1.4404457305e+00	-1.3145900582e+00
 9.1893281613e-02	 1.4415184279e+00	-1.3072608582e+00
 7.6433661611e-02	 1.4424207599e+00	-1.3035867928e+00
 1.5501955275e-01	 1.4435521251e+00	-1.3176117894e+00
 1.3928594401e-01	 1.4451550870e+00	-1.2964187868e+00
 1.2359718717e-01	 1.4465813268e+00	-1.2798901661e+00
 1.0795587208e-01	 1.4478326317e+00	-1.2680381910e+00
 9.2364529211e-02	 1.4489108301e+00	-1.2605839838e+00
 7.6825629107e-02	 1.4498177894e+00	-1.2568378133e+00
 1.5581046884e-01	 1.4509171870e+00	-1.2735140511e+00
 1.3999658658e-01	 1.4525283273e+00	-1.2522976695e+00
 1.2422778506e-01	 1.4539618438e+00	-1.2356619523e+00
 1.0850666735e-01	 1.4552195329e+00	-1.2236436478e+00
 9.2835776810e-02	 1.4563032323e+00	-1.2159967243e+00
 7.7217596602e-02	 1.4572148189e+00	-1.2120661645e+00
 1.5660138493e-01	 1.4582822489e+00	-1.2315499775e+00
 1.4070722915e-01	 1.4599015675e+00	-1.2105527748e+00
 1.2485838295e-01	 1.4613423607e+00	-1.1938841135e+00
 1.0905746262e-01	 1.4626064341e+00	-1.1816442993e+00
 9.3307024408e-02	 1.4636956344e+00	-1.1736590641e+00
 7.7609564098e-02	 1.4646118485e+00	-1.1693466172e+00
 1.5739230101e-01	 1.4656473107e+00	-1.1921403738e+00
 1.4141787172e-01	 1.4672748077e+00	-1.1715552222e+00
 1.2548898085e-01	 1.4687228777e+00	-1.1548674634e+00
 1.0960825788e-01	 1.4699933352e+00	-1.1422810882e+00
 9.3778272006e-02	 1.4710880366e+00	-1.1337335907e+00
 7.8001531593e-02	 1.4720088780e+00	-1.1287560209e+00
 1.5818321710e-01	 1.4730123726e+00	-1.1557099779e+00
 1.4212851429e-01	 1.4746480480e+00	-1.1356798896e+00
 1.2611957874e-01	 1.4761033947e+00	-1.1189262901e+00
 1.1015905315e-01	 1.4773802364e+00	-1.1057980528e+00
 9.4249519604e-02	 1.4784804388e+00	-1.0963855310e+00
 7.8393499089e-02	 1.4794059075e+00	-1.0903733496e+00
 7.6433661611e-02	 1.4424207599e+00	-1.3035867928e+00
 6.1028614762e-02	 1.4431546214e+00	-1.3018484577e+00
 4.5680478661e-02	 1.4437219424e+00	-1.3004743374e+00
 3.0391530267e-02	 1.4441246857e+00	-1.2980367564e+00
 1.5163985681e-02	 1.4443648454e+00	-1.2922575011e+00
 0.0000000000e+00	 1.4444444444e+00	-1.2799309585e+00
 7.6825629107e-02	 1.4498177894e+00	-1.2568378133e+00
 6.1341582017e-02	 1.4505554143e+00	-1.2549459447e+00
 4.5914737526e-02	 1.4511256447e+00	-1.2533398247e+00
 3.0547384268e-02	 1.4515304534e+00	-1.2507775537e+00
 1.5241749710e-02	 1.4517718446e+00	-1.2451416026e+00
 0.0000000000e+00	 1.4518518519e+00	-1.2333567257e+00
 7.7217596602e-02	 1.4572148189e+00	-1.2120661645e+00
 6.1654549273e-02	 1.4579562073e+00	-1.2099013409e+00
 4.6148996391e-02	 1.4585293469e+00	-1.2079544916e+00
 3.0703238270e-02	 1.4589362210e+00	-1.2051784077e+00
 1.5319513740e-02	 1.4591788438e+00	-1.1996267743e+00
 0.0000000000e+00	 1.4592592593e+00	-1.1883666144e+00
 7.7609564098e-02	 1.4646118485e+00	-1.1693466172e+00
 6.1967516528e-02	 1.4653570002e+00	-1.1667119187e+00
 4.6383255256e-02	 1.4659330492e+00	-1.1642610925e+00
 3.0859092271e-02	 1.4663419886e+00	-1.1611519421e+00
 1.5397277769e-02	 1.4665858430e+00	-1.1556212688e+00
 0.0000000000e+00	 1.4666666667e+00	-1.1448915977e+00
 7.8001531593e-02	 1.4720088780e+00	-1.1287560209e+00
 6.2280483783e-02	 1.4727577931e+00	-1.1253761875e+00
 4.6617514121e-02	 1.4733367515e+00	-1.1222021923e+00
 3.1014946272e-02	 1.4737477562e+00	-1.1186085913e+00
 1.5475041798e-02	 1.4739928422e+00	-1.1130285882e+00
 0.0000000000e+00	 1.4740740741e+00	-1.1028547895e+00
 7.8393499089e-02	 1.4794059075e+00	-1.0903733496e+00
 6.2593451038e-02	 1.4801585861e+00	-1.0858939500e+00
 4.6851772986e-02	 1.4807404537e+00	-1.0817202428e+00
 3.1170800274e-02	 1.4811535238e+00	-1.0774567065e+00
 1.5552805827e-02	 1.4813998414e+00	-1.0717476309e+00
 0.0000000000e+00	 1.4814814815e+00	-1.0621716408e+00
 1.4814814815e+00	 0.0000000000e+00	 3.7858301000e+00
 1.4813998414e+00	 1.5552805827e-02	 3.7862623542e+00
 1.4811535238e+00	 3.1170800274e-02	 3.7815676493e+00
 1.4807404537e+00	 4.6851772986e-02	 3.7727943963e+00
 1.4801585861e+00	 6.2593451038e-02	 3.7600236492e+00
 1.4794059075e+00	 7.8393499089e-02	 3.7424715799e+00
 1.4888888889e+00	 0.0000000000e+00	 3.7787975752e+00
 1.4888068406e+00	 1.5630569856e-02	 3.7791192095e+00
 1.4885592915e+00	 3.1326654275e-02	 3.7740834723e+00
 1.4881441560e+00	 4.7086031851e-02	 3.7648022395e+00
 1.4875593790e+00	 6.2906418293e-02	 3.7514612414e+00
 1.4868029371e+00	 7.8785466584e-02	 3.7334040818e+00
 1.4962962963e+00	 0.0000000000e+00	 3.7713787410e+00
 1.4962138398e+00	 1.5708333885e-02	 3.7715474703e+00
 1.4959650591e+00	 3.1482508276e-02	 3.7662482413e+00
 1.4955478583e+00	 4.7320290716e-02	 3.7565748835e+00
 1.4949601719e+00	 6.3219385549e-02	 3.7427101289e+00
 1.4941999666e+00	 7.9177434079e-02	 3.7240085584e+00
 1.5037037037e+00	 0.0000000000e+00	 3.7635476412e+00
 1.5036208391e+00	 1.5786097914e-02	 3.7635294731e+00
 1.5033708267e+00	 3.1638362278e-02	 3.7580634364e+00
 1.5029515605e+00	 4.7554549581e-02	 3.7481965847e+00
 1.5023609648e+00	 6.3532352804e-02	 3.7340800776e+00
 1.5015969962e+00	 7.9569401575e-02	 3.7150509839e+00
 1.5111111111e+00	 0.0000000000e+00	 3.7552786984e+00
 1.5110278383e+00	 1.5863861944e-02	 3.7550465933e+00
 1.5107765943e+00	 3.1794216279e-02	 3.7495077390e+00
 1.5103552628e+00	 4.7788808446e-02	 3.7396346235e+00
 1.5097617578e+00	 6.3845320059e-02	 3.7255192332e+00
 1.5089940257e+00	 7.9961369070e-02	 3.7064536435e+00
 1.5185185185e+00	 0.0000000000e+00	 3.7465467044e+00
 1.5184348375e+00	 1.5941625973e-02	 3.7460806725e+00
 1.5181823619e+00	 3.1950070280e-02	 3.7405603761e+00
 1.5177589651e+00	 4.8023067311e-02	 3.7308568909e+00
 1.5171625507e+00	 6.4158287314e-02	 3.7169764096e+00
 1.5163910552e+00	 8.0353336566e-02	 3.6981395452e+00
 1.4794059075e+00	 7.8393499089e-02	 3.7424715799e+00
 1.4784804388e+00	 9.4249519604e-02	 3.7208164354e+00
 1.4773802364e+00	 1.1015905315e-01	 3.6966719256e+00
 1.4761033947e+00	 1.2611957874e-01	 3.6697481381e+00
 1.4746480480e+00	 1.4212851429e-01	 3.6394344136e+00
 1.4730123726e+00	 1.5818321710e-01	 3.6049531197e+00
 1.4868029371e+00	 7.8785466584e-02	 3.7334040818e+00
 1.4858728410e+00	 9.4720767202e-02	 3.7113675178e+00
 1.4847671376e+00	 1.1070984841e-01	 3.6870813410e+00
 1.4834839117e+00	 1.2675017663e-01	 3.6604057362e+00
 1.4820212882e+00	 1.4283915686e-01	 3.6307579886e+00
 1.4803774345e+00	 1.5897413318e-01	 3.5971087230e+00
 1.4941999666e+00	 7.9177434079e-02	 3.7240085584e+00
 1.4932652432e+00	 9.5192014800e-02	 3.7011511446e+00
 1.4921540388e+00	 1.1126064368e-01	 3.6759190465e+00
 1.4908644286e+00	 1.2738077453e-01	 3.6483606433e+00
 1.4893945285e+00	 1.4354979943e-01	 3.6180888105e+00
 1.4877424963e+00	 1.5976504927e-01	 3.5843879216e+00
 1.5015969962e+00	 7.9569401575e-02	 3.7150509839e+00
 1.5006576454e+00	 9.5663262398e-02	 3.6916933990e+00
 1.4995409400e+00	 1.1181143894e-01	 3.6657985504e+00
 1.4982449456e+00	 1.2801137242e-01	 3.6375744099e+00
 1.4967677687e+00	 1.4426044201e-01	 3.6068010093e+00
 1.4951075582e+00	 1.6055596535e-01	 3.5729352949e+00
 1.5089940257e+00	 7.9961369070e-02	 3.7064536435e+00
 1.5080500476e+00	 9.6134509996e-02	 3.6828871923e+00
 1.5069278412e+00	 1.1236223421e-01	 3.6565831278e+00
 1.5056254626e+00	 1.2864197032e-01	 3.6278815092e+00
 1.5041410089e+00	 1.4497108458e-01	 3.5967021974e+00
 1.5024726200e+00	 1.6134688144e-01	 3.5626474722e+00
 1.5163910552e+00	 8.0353336566e-02	 3.6981395452e+00
 1.5154424498e+00	 9.6605757594e-02	 3.6746261734e+00
 1.5143147423e+00	 1.1291302948e-01	 3.6481367290e+00
 1.5130059796e+00	 1.2927256821e-01	 3.6191169556e+00
 1.5115142492e+00	 1.4568172715e-01	 3.5876003288e+00
 1.5098376819e+00	 1.6213779752e-01	 3.5533083403e+00
 1.4730123726e+00	 1.5818321710e-01	 3.6049531197e+00
 1.4711945889e+00	 1.7428098441e-01	 3.5646193946e+00
 1.4691929634e+00	 1.9041905411e-01	 3.5172034433e+00
 1.4670058108e+00	 2.0659460540e-01	 3.4628559529e+00
 1.4646314960e+00	 2.2280475962e-01	 3.4022295962e+00
 1.4620684362e+00	 2.3904658112e-01	 3.3366467136e+00
 1.4803774345e+00	 1.5897413318e-01	 3.5971087230e+00
 1.4785505619e+00	 1.7515238934e-01	 3.5572082205e+00
 1.4765389283e+00	 1.9137114938e-01	 3.5097605091e+00
 1.4743408399e+00	 2.0762757843e-01	 3.4549287545e+00
 1.4719546535e+00	 2.2391878341e-01	 3.3934007381e+00
 1.4693787783e+00	 2.4024181403e-01	 3.3265645478e+00
 1.4877424963e+00	 1.5976504927e-01	 3.5843879216e+00
 1.4859065348e+00	 1.7602379426e-01	 3.5454119889e+00
 1.4838848931e+00	 1.9232324465e-01	 3.4995679514e+00
 1.4816758689e+00	 2.0866055145e-01	 3.4463986539e+00
 1.4792778110e+00	 2.2503280721e-01	 3.3857821250e+00
 1.4766891205e+00	 2.4143704694e-01	 3.3187950146e+00
 1.4951075582e+00	 1.6055596535e-01	 3.5729352949e+00
 1.4932625077e+00	 1.7689519918e-01	 3.5342794937e+00
 1.4912308579e+00	 1.9327533992e-01	 3.4893032186e+00
 1.4890108980e+00	 2.0969352448e-01	 3.4375953421e+00
 1.4866009684e+00	 2.2614683101e-01	 3.3789338763e+00
 1.4839994627e+00	 2.4263227984e-01	 3.3134381097e+00
 1.5024726200e+00	 1.6134688144e-01	 3.5626474722e+00
 1.5006184807e+00	 1.7776660410e-01	 3.5241354781e+00
 1.4985768227e+00	 1.9422743519e-01	 3.4795941069e+00
 1.4963459270e+00	 2.1072649751e-01	 3.4285224872e+00
 1.4939241259e+00	 2.2726085481e-01	 3.3706056986e+00
 1.4913098049e+00	 2.4382751275e-01	 3.3058653400e+00
 1.5098376819e+00	 1.6213779752e-01	 3.5533083403e+00
 1.5079744536e+00	 1.7863800902e-01	 3.5147497712e+00
 1.5059227875e+00	 1.9517953046e-01	 3.4702144907e+00
 1.5036809561e+00	 2.1175947053e-01	 3.4189788464e+00
 1.5012472834e+00	 2.2837487861e-01	 3.3605015079e+00
 1.4986201471e+00	 2.4502274565e-01	 3.2945725843e+00
 1.4620684362e+00	 2.3904658112e-01	 3.3366467136e+00
 1.4593151029e+00	 2.5531707825e-01	 3.2738003617e+00
 1.4563700241e+00	 2.7161320434e-01	 3.2170748991e+00
 1.4532317863e+00	 2.8793185885e-01	 3.1627911833e+00
 1.4498990361e+00	 3.0426988856e-01	 3.1085407119e+00
 1.4463704828e+00	 3.2062408884e-01	 3.0533290115e+00
 1.4693787783e+00	 2.4024181403e-01	 3.3265645478e+00
 1.4666116784e+00	 2.5659366365e-01	 3.2625923556e+00
 1.4636518743e+00	 2.7297127037e-01	 3.2052576092e+00
 1.4604979452e+00	 2.8937151815e-01	 3.1508809476e+00
 1.4571485313e+00	 3.0579123801e-01	 3.0971149868e+00
 1.4536023353e+00	 3.2222720929e-01	 3.0430952202e+00
 1.4766891205e+00	 2.4143704694e-01	 3.3187950146e+00
 1.4739082539e+00	 2.5787024904e-01	 3.2539671569e+00
 1.4709337244e+00	 2.7432933639e-01	 3.1955991643e+00
 1.4677641041e+00	 2.9081117744e-01	 3.1402203493e+00
 1.4643980265e+00	 3.0731258745e-01	 3.0857550368e+00
 1.4608341877e+00	 3.2383032973e-01	 3.0316807590e+00
 1.4839994627e+00	 2.4263227984e-01	 3.3134381097e+00
 1.4812048294e+00	 2.5914683443e-01	 3.2485499716e+00
 1.4782155745e+00	 2.7568740241e-01	 3.1888024801e+00
 1.4750302631e+00	 2.9225083674e-01	 3.1315427960e+00
 1.4716475216e+00	 3.0883393689e-01	 3.0751729286e+00
 1.4680660401e+00	 3.2543345018e-01	 3.0197199722e+00
 1.4913098049e+00	 2.4382751275e-01	 3.3058653400e+00
 1.4885014049e+00	 2.6042341982e-01	 3.2420936334e+00
 1.4854974246e+00	 2.7704546843e-01	 3.1834383904e+00
 1.4822964220e+00	 2.9369049603e-01	 3.1254583584e+00
 1.4788970168e+00	 3.1035528634e-01	 3.0660645396e+00
 1.4752978925e+00	 3.2703657062e-01	 3.0078302550e+00
 1.4986201471e+00	 2.4502274565e-01	 3.2945725843e+00
 1.4957979805e+00	 2.6170000521e-01	 3.2291765316e+00
 1.4927792747e+00	 2.7840353445e-01	 3.1695136373e+00
 1.4895625809e+00	 2.9513015533e-01	 3.1121860077e+00
 1.4861465120e+00	 3.1187663578e-01	 3.0548320270e+00
 1.4825297449e+00	 3.2863969106e-01	 2.9963637084e+00
 1.4463704828e+00	 3.2062408884e-01	 3.0533290115e+00
 1.4426449001e+00	 3.3699120501e-01	 2.9779999324e+00
 1.4387211277e+00	 3.5336793376e-01	 2.8728664744e+00
 1.4345980739e+00	 3.6975092468e-01	 2.7535828864e+00
 1.4302747169e+00	 3.8613678186e-01	 2.6453046552e+00
 1.4257501067e+00	 4.0252206554e-01	 2.5730422264e+00
 1.4536023353e+00	 3.2222720929e-01	 3.0430952202e+00
 1.4498581246e+00	 3.3867616103e-01	 2.9689953529e+00
 1.4459147334e+00	 3.5513477342e-01	 2.8642194833e+00
 1.4417710643e+00	 3.7159967930e-01	 2.7443698834e+00
 1.4374260904e+00	 3.8806746577e-01	 2.6361116804e+00
 1.4328788572e+00	 4.0453467586e-01	 2.5625561589e+00
 1.4608341877e+00	 3.2383032973e-01	 3.0316807590e+00
 1.4570713491e+00	 3.4036111706e-01	 2.9577435741e+00
 1.4531083390e+00	 3.5690161309e-01	 2.8525571495e+00
 1.4489440547e+00	 3.7344843392e-01	 2.7318948570e+00
 1.4445774640e+00	 3.8999814968e-01	 2.6234982167e+00
 1.4400076078e+00	 4.0654728619e-01	 2.5490324083e+00
 1.4680660401e+00	 3.2543345018e-01	 3.0197199722e+00
 1.4642845736e+00	 3.4204607308e-01	 2.9447555330e+00
 1.4603019446e+00	 3.5866845276e-01	 2.8382340238e+00
 1.4561170450e+00	 3.7529718855e-01	 2.7163093525e+00
 1.4517288376e+00	 3.9192883358e-01	 2.6074119428e+00
 1.4471363583e+00	 4.0855989652e-01	 2.5322044408e+00
 1.4752978925e+00	 3.2703657062e-01	 3.0078302550e+00
 1.4714977981e+00	 3.4373102911e-01	 2.9305248832e+00
 1.4674955503e+00	 3.6043529243e-01	 2.8215871915e+00
 1.4632900354e+00	 3.7714594317e-01	 2.6977399873e+00
 1.4588802112e+00	 3.9385951749e-01	 2.5877918072e+00
 1.4542651088e+00	 4.1057250685e-01	 2.5118008103e+00
 1.4825297449e+00	 3.2863969106e-01	 2.9963637084e+00
 1.4787110226e+00	 3.4541598513e-01	 2.9155279802e+00
 1.4746891559e+00	 3.6220213210e-01	 2.8029361776e+00
 1.4704630258e+00	 3.7899469779e-01	 2.6763016873e+00
 1.4660315848e+00	 3.9579020140e-01	 2.5645682861e+00
 1.4613938594e+00	 4.1258511717e-01	 2.4875453586e+00
 1.4257501067e+00	 4.0252206554e-01	 2.5730422264e+00
 1.4210233673e+00	 4.1890329387e-01	 2.5121442084e+00
 1.4160936979e+00	 4.3527694476e-01	 2.4312792135e+00
 1.4109603751e+00	 4.5163945774e-01	 2.3353907878e+00
 1.4056227541e+00	 4.6798723597e-01	 2.2294552320e+00
 1.4000802706e+00	 4.8431664830e-01	 2.1184020506e+00
 1.4328788572e+00	 4.0453467586e-01	 2.5625561589e+00
 1.4281284841e+00	 4.2099781034e-01	 2.5001186709e+00
 1.4231741664e+00	 4.3745332948e-01	 2.4180763071e+00
 1.4180151770e+00	 4.5389765503e-01	 2.3212027445e+00
 1.4126508679e+00	 4.7032717215e-01	 2.2142943233e+00
 1.4070806720e+00	 4.8673823154e-01	 2.1020889223e+00
 1.4400076078e+00	 4.0654728619e-01	 2.5490324083e+00
 1.4352336010e+00	 4.2309232681e-01	 2.4860119038e+00
 1.4302546349e+00	 4.3962971421e-01	 2.4041027002e+00
 1.4250699789e+00	 4.5615585231e-01	 2.3076106338e+00
 1.4196789817e+00	 4.7266710833e-01	 2.2008588492e+00
 1.4140810733e+00	 4.8915981478e-01	 2.0881058225e+00
 1.4471363583e+00	 4.0855989652e-01	 2.5322044408e+00
 1.4423387178e+00	 4.2518684328e-01	 2.4693685164e+00
 1.4373351034e+00	 4.4180609893e-01	 2.3887918363e+00
 1.4321247808e+00	 4.5841404960e-01	 2.2940194338e+00
 1.4267070954e+00	 4.7500704451e-01	 2.1886129646e+00
 1.4210814747e+00	 4.9158139803e-01	 2.0760685908e+00
 1.4542651088e+00	 4.1057250685e-01	 2.5118008103e+00
 1.4494438346e+00	 4.2728135975e-01	 2.4497316270e+00
 1.4444155719e+00	 4.4398248365e-01	 2.3715776701e+00
 1.4391795826e+00	 4.6067224689e-01	 2.2798351230e+00
 1.4337352092e+00	 4.7734698069e-01	 2.1770207053e+00
 1.4280818760e+00	 4.9400298127e-01	 2.0655901269e+00
 1.4613938594e+00	 4.1258511717e-01	 2.4875453586e+00
 1.4565489515e+00	 4.2937587622e-01	 2.4266430178e+00
 1.4514960404e+00	 4.4615886838e-01	 2.3518948153e+00
 1.4462343845e+00	 4.6293044418e-01	 2.2644648598e+00
 1.4407633230e+00	 4.7968691687e-01	 2.1655462435e+00
 1.4350822774e+00	 4.9642456451e-01	 2.0562807651e+00
 1.4000802706e+00	 4.8431664830e-01	 2.1184020506e+00
 1.3943324421e+00	 5.0062403136e-01	 2.0063387505e+00
 1.3883788697e+00	 5.1690569179e-01	 1.8950463395e+00
 1.3822192390e+00	 5.3315790848e-01	 1.7856954403e+00
 1.3758533219e+00	 5.4937693488e-01	 1.6791592138e+00
 1.3692809777e+00	 5.6555900146e-01	 1.5759566852e+00
 1.4070806720e+00	 4.8673823154e-01	 2.1020889223e+00
 1.4013041043e+00	 5.0312715152e-01	 1.9888787358e+00
 1.3953207640e+00	 5.1949022025e-01	 1.8768371616e+00
 1.3891303352e+00	 5.3582369802e-01	 1.7672460070e+00
 1.3827325885e+00	 5.5212381956e-01	 1.6610899071e+00
 1.3761273826e+00	 5.6838679647e-01	 1.5589987413e+00
 1.4140810733e+00	 4.8915981478e-01	 2.0881058225e+00
 1.4082757666e+00	 5.0563027168e-01	 1.9736615805e+00
 1.4022626584e+00	 5.2207474871e-01	 1.8603112921e+00
 1.3960414314e+00	 5.3848948756e-01	 1.7497389460e+00
 1.3896118551e+00	 5.5487070423e-01	 1.6433242306e+00
 1.3829737875e+00	 5.7121459148e-01	 1.5420832961e+00
 1.4210814747e+00	 4.9158139803e-01	 2.0760685908e+00
 1.4152474288e+00	 5.0813339184e-01	 1.9604640868e+00
 1.4092045527e+00	 5.2465927717e-01	 1.8453264967e+00
 1.4029525276e+00	 5.4115527710e-01	 1.7330287436e+00
 1.3964911217e+00	 5.5761758891e-01	 1.6256249353e+00
 1.3898201923e+00	 5.7404238649e-01	 1.5247887335e+00
 1.4280818760e+00	 4.9400298127e-01	 2.0655901269e+00
 1.4222190910e+00	 5.1063651199e-01	 1.9490572257e+00
 1.4161464471e+00	 5.2724380563e-01	 1.8317334986e+00
 1.4098636238e+00	 5.4382106665e-01	 1.7169633932e+00
 1.4033703883e+00	 5.6036447358e-01	 1.6077506694e+00
 1.3966665972e+00	 5.7687018149e-01	 1.5066936428e+00
 1.4350822774e+00	 4.9642456451e-01	 2.0562807651e+00
 1.4291907532e+00	 5.1313963215e-01	 1.9392066362e+00
 1.4230883414e+00	 5.2982833409e-01	 1.8193765641e+00
 1.4167747200e+00	 5.4648685619e-01	 1.7013850270e+00
 1.4102496549e+00	 5.6311135826e-01	 1.5894566136e+00
 1.4035130021e+00	 5.7969797650e-01	 1.4873774136e+00
 1.3692809777e+00	 5.6555900146e-01	 1.5759566852e+00
 1.3625021541e+00	 5.8170031809e-01	 1.4681907765e+00
 1.3555168886e+00	 5.9779707658e-01	 1.3520088132e+00
 1.3483253092e+00	 6.1384545325e-01	 1.2331913116e+00
 1.3409276358e+00	 6.2984161154e-01	 1.1167986933e+00
 1.3333241803e+00	 6.4578170469e-01	 1.0071221296e+00
 1.3761273826e+00	 5.6838679647e-01	 1.5589987413e+00
 1.3693146649e+00	 5.8460881968e-01	 1.4521224225e+00
 1.3622944730e+00	 6.0078606196e-01	 1.3357677343e+00
 1.3550669358e+00	 6.1691468052e-01	 1.2159696997e+00
 1.3476322739e+00	 6.3299081960e-01	 1.0980102770e+00
 1.3399908012e+00	 6.4901061321e-01	 9.8636846154e-01
 1.3829737875e+00	 5.7121459148e-01	 1.5420832961e+00
 1.3761271756e+00	 5.8751732127e-01	 1.4363070469e+00
 1.3690720575e+00	 6.0377504735e-01	 1.3202420218e+00
 1.3618085623e+00	 6.1998390778e-01	 1.1999803572e+00
 1.3543369121e+00	 6.3614002766e-01	 1.0808343578e+00
 1.3466574221e+00	 6.5223952174e-01	 9.6728642312e-01
 1.3898201923e+00	 5.7404238649e-01	 1.5247887335e+00
 1.3829396864e+00	 5.9042582286e-01	 1.4201280029e+00
 1.3758496419e+00	 6.0676403273e-01	 1.3046961512e+00
 1.3685501889e+00	 6.2305313505e-01	 1.1844481007e+00
 1.3610415503e+00	 6.3928923572e-01	 1.0645382866e+00
 1.3533240430e+00	 6.5546843026e-01	 9.4927097260e-01
 1.3966665972e+00	 5.7687018149e-01	 1.5066936428e+00
 1.3897521972e+00	 5.9333432445e-01	 1.4029734625e+00
 1.3826272263e+00	 6.0975301811e-01	 1.2884026281e+00
 1.3752918154e+00	 6.2612236232e-01	 1.1686075176e+00
 1.3677461885e+00	 6.4243844377e-01	 1.0483993880e+00
 1.3599906639e+00	 6.5869733878e-01	 9.3172564227e-01
 1.4035130021e+00	 5.7969797650e-01	 1.4873774136e+00
 1.3965647079e+00	 5.9624282605e-01	 1.3842369663e+00
 1.3894048108e+00	 6.1274200350e-01	 1.2706425277e+00
 1.3820334420e+00	 6.2919158958e-01	 1.1517035328e+00
 1.3744508267e+00	 6.4558765183e-01	 1.0317055947e+00
 1.3666572848e+00	 6.6192624731e-01	 9.1406328032e-01
 1.3333241803e+00	 6.4578170469e-01	 1.0071221296e+00
 1.3255153483e+00	 6.6166187843e-01	 9.0132629459e-01
 1.3175016389e+00	 6.7747827378e-01	 7.9227640453e-01
 1.3092836458e+00	 6.9322702978e-01	 6.7661757721e-01
 1.3008620575e+00	 7.0890428638e-01	 5.5019571525e-01
 1.2922376579e+00	 7.2450618728e-01	 4.0805246756e-01
 1.3399908012e+00	 6.4901061321e-01	 9.8636846154e-01
 1.3321429250e+00	 6.6497018783e-01	 8.7897704081e-01
 1.3240891471e+00	 6.8086566515e-01	 7.6938160201e-01
 1.3158300640e+00	 6.9669316492e-01	 6.5427213871e-01
 1.3073663678e+00	 7.1244880781e-01	 5.2955953038e-01
 1.2986988462e+00	 7.2812871821e-01	 3.9037199427e-01
 1.3466574221e+00	 6.5223952174e-01	 9.6728642312e-01
 1.3387705018e+00	 6.6827849722e-01	 8.5810742558e-01
 1.3306766553e+00	 6.8425305651e-01	 7.4779482188e-01
 1.3223764823e+00	 7.0015930007e-01	 6.3320249755e-01
 1.3138706781e+00	 7.1599332924e-01	 5.1041941444e-01
 1.3051600345e+00	 7.3175124915e-01	 3.7476729730e-01
 1.3533240430e+00	 6.5546843026e-01	 9.4927097260e-01
 1.3453980785e+00	 6.7158680661e-01	 8.3825828294e-01
 1.3372641635e+00	 6.8764044788e-01	 7.2715106276e-01
 1.3289229005e+00	 7.0362543522e-01	 6.1308417518e-01
 1.3203749884e+00	 7.1953785067e-01	 4.9243587451e-01
 1.3116212228e+00	 7.3537378008e-01	 3.6082647657e-01
 1.3599906639e+00	 6.5869733878e-01	 9.3172564227e-01
 1.3520256553e+00	 6.7489511600e-01	 8.1897731827e-01
 1.3438516717e+00	 6.9102783925e-01	 7.0709155005e-01
 1.3354693187e+00	 7.0709157037e-01	 5.9359935977e-01
 1.3268792987e+00	 7.2308237211e-01	 4.7527763364e-01
 1.3180824111e+00	 7.3899631102e-01	 3.4814853017e-01
 1.3666572848e+00	 6.6192624731e-01	 9.1406328032e-01
 1.3586532320e+00	 6.7820342539e-01	 7.9981996594e-01
 1.3504391799e+00	 6.9441523062e-01	 6.8726468446e-01
 1.3420157369e+00	 7.1055770552e-01	 5.7443791939e-01
 1.3333836090e+00	 7.2662689354e-01	 4.5862268183e-01
 1.3245435994e+00	 7.4261884196e-01	 3.3594540333e-01
 1.2922376579e+00	 7.2450618728e-01	 4.0805246756e-01
 1.2834113263e+00	 7.4002888280e-01	 2.9013664421e-01
 1.2743840378e+00	 7.5546853282e-01	 2.0774608435e-01
 1.2651568632e+00	 7.7082130969e-01	 1.1912885665e-01
 1.2557309689e+00	 7.8608340119e-01	 1.6130892289e-02
 1.2461076171e+00	 8.0125101345e-01	-1.0926273148e-01
 1.2986988462e+00	 7.2812871821e-01	 3.9037199427e-01
 1.2898283830e+00	 7.4372902721e-01	 2.7643279208e-01
 1.2807559580e+00	 7.5924587548e-01	 1.8745870958e-01
 1.2714826475e+00	 7.7467541624e-01	 9.5202146581e-02
 1.2620096238e+00	 7.9001381820e-01	-8.6865021330e-03
 1.2523381552e+00	 8.0525726852e-01	-1.3253510280e-01
 1.3051600345e+00	 7.3175124915e-01	 3.7476729730e-01
 1.2962454396e+00	 7.4742917163e-01	 2.6218881076e-01
 1.2871278782e+00	 7.6302321815e-01	 1.6751064852e-01
 1.2778084318e+00	 7.7852952279e-01	 7.2311254014e-02
 1.2682882786e+00	 7.9394423520e-01	-3.2055015096e-02
 1.2585686933e+00	 8.0926352358e-01	-1.5426141963e-01
 1.3116212228e+00	 7.3537378008e-01	 3.6082647657e-01
 1.3026624962e+00	 7.5112931604e-01	 2.4708087518e-01
 1.2934997984e+00	 7.6680056081e-01	 1.4758955498e-01
 1.2841342161e+00	 7.8238362934e-01	 5.0110434509e-02
 1.2745669335e+00	 7.9787465221e-01	-5.4331521447e-02
 1.2647992314e+00	 8.1326977865e-01	-1.7478690188e-01
 1.3180824111e+00	 7.3899631102e-01	 3.4814853017e-01
 1.3090795529e+00	 7.5482946045e-01	 2.3087111066e-01
 1.2998717186e+00	 7.7057790348e-01	 1.2740337846e-01
 1.2904600005e+00	 7.8623773589e-01	 2.8274799707e-02
 1.2808455883e+00	 8.0180506921e-01	-7.5851849789e-02
 1.2710297695e+00	 8.1727603372e-01	-1.9443591157e-01
 1.3245435994e+00	 7.4261884196e-01	 3.3594540333e-01
 1.3154966095e+00	 7.5852960487e-01	 2.1334036402e-01
 1.3062436388e+00	 7.7435524614e-01	 1.0667967778e-01
 1.2967857848e+00	 7.9009184244e-01	 6.4996079011e-03
 1.2871242432e+00	 8.0573548622e-01	-9.6931503170e-02
 1.2772603075e+00	 8.2128228878e-01	-2.1351267264e-01
 1.2461076171e+00	 8.0125101345e-01	-1.0926273148e-01
 1.2362881651e+00	 8.1632037394e-01	-2.3683236619e-01
 1.2262740650e+00	 8.3128773444e-01	-3.4616660108e-01
 1.2160668637e+00	 8.4614937394e-01	-4.4493851396e-01
 1.2056682016e+00	 8.6090160165e-01	-5.4080391852e-01
 1.1950798123e+00	 8.7554075989e-01	-6.4127574477e-01
 1.2523381552e+00	 8.0525726852e-01	-1.3253510280e-01
 1.2424696059e+00	 8.2040197581e-01	-2.5820511612e-01
 1.2324054353e+00	 8.3544417311e-01	-3.6686053847e-01
 1.2221471980e+00	 8.5038012081e-01	-4.6576340070e-01
 1.2116965426e+00	 8.6520610966e-01	-5.6215386679e-01
 1.2010552114e+00	 8.7991846369e-01	-6.6312250289e-01
 1.2585686933e+00	 8.0926352358e-01	-1.5426141963e-01
 1.2486510467e+00	 8.2448357768e-01	-2.7810067545e-01
 1.2385368057e+00	 8.3960061178e-01	-3.8614083614e-01
 1.2282275323e+00	 8.5461086768e-01	-4.8523292929e-01
 1.2177248836e+00	 8.6951061767e-01	-5.8220283389e-01
 1.2070306104e+00	 8.8429616749e-01	-6.8372139050e-01
 1.2647992314e+00	 8.1326977865e-01	-1.7478690188e-01
 1.2548324875e+00	 8.2856517955e-01	-2.9684403617e-01
 1.2446681760e+00	 8.4375705046e-01	-4.0431826919e-01
 1.2343078666e+00	 8.5884161455e-01	-5.0364976142e-01
 1.2237532246e+00	 8.7381512568e-01	-6.0125158214e-01
 1.2130060095e+00	 8.8867387129e-01	-7.0337761225e-01
 1.2710297695e+00	 8.1727603372e-01	-1.9443591157e-01
 1.2610139284e+00	 8.3264678142e-01	-3.1473961966e-01
 1.2507995463e+00	 8.4791348913e-01	-4.2168314271e-01
 1.2403882010e+00	 8.6307236142e-01	-5.2129600223e-01
 1.2297815656e+00	 8.7811963368e-01	-6.1958004386e-01
 1.2189814085e+00	 8.9305157509e-01	-7.2237508341e-01
 1.2772603075e+00	 8.2128228878e-01	-2.1351267264e-01
 1.2671953692e+00	 8.3672838329e-01	-3.3207199045e-01
 1.2569309166e+00	 8.5206992780e-01	-4.3850600111e-01
 1.2464685353e+00	 8.6730310829e-01	-5.3843390687e-01
 1.2358099066e+00	 8.8242414169e-01	-6.3744802688e-01
 1.2249568076e+00	 8.9742927889e-01	-7.4097713597e-01
 1.1950798123e+00	 8.7554075989e-01	-6.4127574477e-01
 1.1843035219e+00	 8.9006322702e-01	-7.4019196867e-01
 1.1733412476e+00	 9.0446542032e-01	-8.2995695451e-01
 1.1621949974e+00	 9.1874379890e-01	-9.1521373942e-01
 1.1508668681e+00	 9.3289486646e-01	-9.9977995203e-01
 1.1393590448e+00	 9.4691517415e-01	-1.0865043053e+00
 1.2010552114e+00	 8.7991846369e-01	-6.6312250289e-01
 1.1902250395e+00	 8.9451354315e-01	-7.6171153434e-01
 1.1792079539e+00	 9.0898774743e-01	-8.5031840643e-01
 1.1680059724e+00	 9.2333751790e-01	-9.3434328975e-01
 1.1566212024e+00	 9.3755934080e-01	-1.0183600449e+00
 1.1450558400e+00	 9.5164975002e-01	-1.1059669656e+00
 1.2070306104e+00	 8.8429616749e-01	-6.8372139050e-01
 1.1961465571e+00	 8.9896385929e-01	-7.8209248304e-01
 1.1850746601e+00	 9.1351007453e-01	-8.6971734918e-01
 1.1738169474e+00	 9.2793123689e-01	-9.5268514893e-01
 1.1623755368e+00	 9.4222381513e-01	-1.0362556526e+00
 1.1507526352e+00	 9.5638432589e-01	-1.1247042715e+00
 1.2130060095e+00	 8.8867387129e-01	-7.0337761225e-01
 1.2020680747e+00	 9.0341417542e-01	-8.0163774181e-01
 1.1909413664e+00	 9.1803240163e-01	-8.8843534906e-01
 1.1796279223e+00	 9.3252495589e-01	-9.7048166152e-01
 1.1681298711e+00	 9.4688828946e-01	-1.0536533028e+00
 1.1564494305e+00	 9.6111890176e-01	-1.1428316446e+00
 1.2189814085e+00	 8.9305157509e-01	-7.2237508341e-01
 1.2079895923e+00	 9.0786449156e-01	-8.2062856350e-01
 1.1968080726e+00	 9.2255472873e-01	-9.0673223585e-01
 1.1854388973e+00	 9.3711867488e-01	-9.8795367808e-01
 1.1738842055e+00	 9.5155276379e-01	-1.0707185587e+00
 1.1621462257e+00	 9.6585347763e-01	-1.1604443417e+00
 1.2249568076e+00	 8.9742927889e-01	-7.4097713597e-01
 1.2139111099e+00	 9.1231480769e-01	-8.3932522900e-01
 1.2026747788e+00	 9.2707705583e-01	-9.2484679057e-01
 1.1912498723e+00	 9.4171239387e-01	-1.0053012184e+00
 1.1796385398e+00	 9.5621723813e-01	-1.0875966488e+00
 1.1678430209e+00	 9.7058805350e-01	-1.1776180412e+00
 1.1393590448e+00	 9.4691517415e-01	-1.0865043053e+00
 1.1276737991e+00	 9.6080132327e-01	-1.1753788610e+00
 1.1158134879e+00	 9.7454996802e-01	-1.2621437457e+00
 1.1037805517e+00	 9.8815781815e-01	-1.3440590025e+00
 1.0915775131e+00	 1.0016216415e+00	-1.4207745185e+00
 1.0792069749e+00	 1.0149382667e+00	-1.4745164579e+00
 1.1450558400e+00	 9.5164975002e-01	-1.1059669656e+00
 1.1333121681e+00	 9.6560532988e-01	-1.1965815358e+00
 1.1213925553e+00	 9.7942271786e-01	-1.2848641489e+00
 1.1092994545e+00	 9.9309860724e-01	-1.3653190799e+00
 1.0970354007e+00	 1.0066297497e+00	-1.4376645307e+00
 1.0846030098e+00	 1.0200129581e+00	-1.4890467309e+00
 1.1507526352e+00	 9.5638432589e-01	-1.1247042715e+00
 1.1389505371e+00	 9.7040933650e-01	-1.2167913288e+00
 1.1269716228e+00	 9.8429546770e-01	-1.3061285579e+00
 1.1148183573e+00	 9.9803939633e-01	-1.3871060122e+00
 1.1024932883e+00	 1.0116378579e+00	-1.4549698679e+00
 1.0899990446e+00	 1.0250876494e+00	-1.5033390032e+00
 1.1564494305e+00	 9.6111890176e-01	-1.1428316446e+00
 1.1445889061e+00	 9.7521334312e-01	-1.2360600805e+00
 1.1325506902e+00	 9.8916821754e-01	-1.3259539222e+00
 1.1203372600e+00	 1.0029801854e+00	-1.4070553012e+00
 1.1079511758e+00	 1.0166459662e+00	-1.4723343600e+00
 1.0953950795e+00	 1.0301623407e+00	-1.5171030770e+00
 1.1621462257e+00	 9.6585347763e-01	-1.1604443417e+00
 1.1502272751e+00	 9.8001734973e-01	-1.2544200968e+00
 1.1381297577e+00	 9.9404096738e-01	-1.3443377126e+00
 1.1258561628e+00	 1.0079209745e+00	-1.4249879648e+00
 1.1134090634e+00	 1.0216540744e+00	-1.4892106699e+00
 1.1007911144e+00	 1.0352370321e+00	-1.5300301162e+00
 1.1678430209e+00	 9.7058805350e-01	-1.1776180412e+00
 1.1558656441e+00	 9.8482135635e-01	-1.2718846948e+00
 1.1437088251e+00	 9.9891371722e-01	-1.3612584376e+00
 1.1313750655e+00	 1.0128617636e+00	-1.4408741644e+00
 1.1188669510e+00	 1.0266621826e+00	-1.5038868281e+00
 1.1061871493e+00	 1.0403117234e+00	-1.5417918104e+00
 1.0792069749e+00	 1.0149382667e+00	-1.4745164579e+00
 1.0666716183e+00	 1.0281045855e+00	-1.5251223770e+00
 1.0539742010e+00	 1.0411175552e+00	-1.5956919610e+00
 1.0411175552e+00	 1.0539742010e+00	-1.6706724970e+00
 1.0281045855e+00	 1.0666716183e+00	-1.7341857246e+00
 1.0149382667e+00	 1.0792069749e+00	-1.7702453323e+00
 1.0846030098e+00	 1.0200129581e+00	-1.4890467309e+00
 1.0720049764e+00	 1.0332451084e+00	-1.5393525449e+00
 1.0592440720e+00	 1.0463231430e+00	-1.6112913647e+00
 1.0463231430e+00	 1.0592440720e+00	-1.6881859126e+00
 1.0332451084e+00	 1.0720049764e+00	-1.7530161330e+00
 1.0200129581e+00	 1.0846030098e+00	-1.7886451904e+00
 1.0899990446e+00	 1.0250876494e+00	-1.5033390032e+00
 1.0773383344e+00	 1.0383856314e+00	-1.5528978354e+00
 1.0645139430e+00	 1.0515287307e+00	-1.6259416463e+00
 1.0515287307e+00	 1.0645139430e+00	-1.7046158713e+00
 1.0383856314e+00	 1.0773383344e+00	-1.7707083763e+00
 1.0250876494e+00	 1.0899990446e+00	-1.8058842427e+00
 1.0953950795e+00	 1.0301623407e+00	-1.5171030770e+00
 1.0826716925e+00	 1.0435261543e+00	-1.5655607401e+00
 1.0697838140e+00	 1.0567343185e+00	-1.6395660569e+00
 1.0567343185e+00	 1.0697838140e+00	-1.7200346698e+00
 1.0435261543e+00	 1.0826716925e+00	-1.7875122475e+00
 1.0301623407e+00	 1.0953950795e+00	-1.8224183446e+00
 1.1007911144e+00	 1.0352370321e+00	-1.5300301162e+00
 1.0880050506e+00	 1.0486666772e+00	-1.5771249839e+00
 1.0750536850e+00	 1.0619399063e+00	-1.6520685432e+00
 1.0619399063e+00	 1.0750536850e+00	-1.7344943338e+00
 1.0486666772e+00	 1.0880050506e+00	-1.8036558532e+00
 1.0352370321e+00	 1.1007911144e+00	-1.8386797805e+00
 1.1061871493e+00	 1.0403117234e+00	-1.5417918104e+00
 1.0933384087e+00	 1.0538072002e+00	-1.5873547351e+00
 1.0803235560e+00	 1.0671454941e+00	-1.6633330166e+00
 1.0671454941e+00	 1.0803235560e+00	-1.7480259591e+00
 1.0538072002e+00	 1.0933384087e+00	-1.8193450397e+00
 1.0403117234e+00	 1.1061871493e+00	-1.8550767896e+00
 1.0149382667e+00	 1.0792069749e+00	-1.7702453323e+00
 1.0016216415e+00	 1.0915775131e+00	-1.8036458051e+00
 9.8815781815e-01	 1.1037805517e+00	-1.8563194552e+00
 9.7454996802e-01	 1.1158134879e+00	-1.9092617528e+00
 9.6080132327e-01	 1.1276737991e+00	-1.9541608624e+00
 9.4691517415e-01	 1.1393590448e+00	-1.9885037621e+00
 1.0200129581e+00	 1.0846030098e+00	-1.7886451904e+00
 1.0066297497e+00	 1.0970354007e+00	-1.8199943795e+00
 9.9309860724e-01	 1.1092994545e+00	-1.8696078579e+00
 9.7942271786e-01	 1.1213925553e+00	-1.9197883579e+00
 9.6560532988e-01	 1.1333121681e+00	-1.9637680575e+00
 9.5164975002e-01	 1.1450558400e+00	-1.9985012603e+00
 1.0250876494e+00	 1.0899990446e+00	-1.8058842427e+00
 1.0116378579e+00	 1.1024932883e+00	-1.8351731341e+00
 9.9803939633e-01	 1.1148183573e+00	-1.8817894937e+00
 9.8429546770e-01	 1.1269716228e+00	-1.9295600188e+00
 9.7040933650e-01	 1.1389505371e+00	-1.9726278262e+00
 9.5638432589e-01	 1.1507526352e+00	-2.0079959681e+00
 1.0301623407e+00	 1.0953950795e+00	-1.8224183446e+00
 1.0166459662e+00	 1.1079511758e+00	-1.8498191962e+00
 1.0029801854e+00	 1.1203372600e+00	-1.8932231405e+00
 9.8916821754e-01	 1.1325506902e+00	-1.9384155816e+00
 9.7521334312e-01	 1.1445889061e+00	-1.9804943232e+00
 9.6111890176e-01	 1.1564494305e+00	-2.0165740662e+00
 1.0352370321e+00	 1.1007911144e+00	-1.8386797805e+00
 1.0216540744e+00	 1.1134090634e+00	-1.8644198648e+00
 1.0079209745e+00	 1.1258561628e+00	-1.9037642232e+00
 9.9404096738e-01	 1.1381297577e+00	-1.9461897428e+00
 9.8001734973e-01	 1.1502272751e+00	-1.9871189664e+00
 9.6585347763e-01	 1.1621462257e+00	-2.0238219898e+00
 1.0403117234e+00	 1.1061871493e+00	-1.8550767896e+00
 1.0266621826e+00	 1.1188669510e+00	-1.8782385955e+00
 1.0128617636e+00	 1.1313750655e+00	-1.9132461443e+00
 9.9891371722e-01	 1.1437088251e+00	-1.9527137270e+00
 9.8482135635e-01	 1.1558656441e+00	-1.9922510456e+00
 9.7058805350e-01	 1.1678430209e+00	-2.0293269291e+00
 9.4691517415e-01	 1.1393590448e+00	-1.9885037621e+00
 9.3289486646e-01	 1.1508668681e+00	-2.0137873456e+00
 9.1874379890e-01	 1.1621949974e+00	-2.0336173428e+00
 9.0446542032e-01	 1.1733412476e+00	-2.0500339027e+00
 8.9006322702e-01	 1.1843035219e+00	-2.0659725135e+00
 8.7554075989e-01	 1.1950798123e+00	-2.0851367433e+00
 9.5164975002e-01	 1.1450558400e+00	-1.9985012603e+00
 9.3755934080e-01	 1.1566212024e+00	-2.0241527272e+00
 9.2333751790e-01	 1.1680059724e+00	-2.0432840989e+00
 9.0898774743e-01	 1.1792079539e+00	-2.0584243925e+00
 8.9451354315e-01	 1.1902250395e+00	-2.0729943928e+00
 8.7991846369e-01	 1.2010552114e+00	-2.0911743618e+00
 9.5638432589e-01	 1.1507526352e+00	-2.0079959681e+00
 9.4222381513e-01	 1.1623755368e+00	-2.0344165635e+00
 9.2793123689e-01	 1.1738169474e+00	-2.0532393703e+00
 9.1351007453e-01	 1.1850746601e+00	-2.0673957395e+00
 8.9896385929e-01	 1.1961465571e+00	-2.0807143705e+00
 8.8429616749e-01	 1.2070306104e+00	-2.0977839879e+00
 9.6111890176e-01	 1.1564494305e+00	-2.0165740662e+00
 9.4688828946e-01	 1.1681298711e+00	-2.0439900070e+00
 9.3252495589e-01	 1.1796279223e+00	-2.0627896955e+00
 9.1803240163e-01	 1.1909413664e+00	-2.0762217104e+00
 9.0341417542e-01	 1.2020680747e+00	-2.0884466199e+00
 8.8867387129e-01	 1.2130060095e+00	-2.1043946221e+00
 9.6585347763e-01	 1.1621462257e+00	-2.0238219898e+00
 9.5155276379e-01	 1.1738842055e+00	-2.0522875508e+00
 9.3711867488e-01	 1.1854388973e+00	-2.0712466272e+00
 9.2255472873e-01	 1.1968080726e+00	-2.0841813298e+00
 9.0786449156e-01	 1.2079895923e+00	-2.0955093713e+00
 8.9305157509e-01	 1.2189814085e+00	-2.1104366610e+00
 9.7058805350e-01	 1.1678430209e+00	-2.0293269291e+00
 9.5621723813e-01	 1.1796385398e+00	-2.0587274187e+00
 9.4171239387e-01	 1.1912498723e+00	-2.0779270452e+00
 9.2707705583e-01	 1.2026747788e+00	-2.0905591506e+00
 9.1231480769e-01	 1.2139111099e+00	-2.1012251744e+00
 8.9742927889e-01	 1.2249568076e+00	-2.1153421901e+00
 8.7554075989e-01	 1.1950798123e+00	-2.0851367433e+00
 8.6090160165e-01	 1.2056682016e+00	-2.1024281244e+00
 8.4614937394e-01	 1.2160668637e+00	-2.1126901695e+00
 8.3128773444e-01	 1.2262740650e+00	-2.1202429750e+00
 8.1632037394e-01	 1.2362881651e+00	-2.1295844069e+00
 8.0125101345e-01	 1.2461076171e+00	-2.1452757584e+00
 8.7991846369e-01	 1.2010552114e+00	-2.0911743618e+00
 8.6520610966e-01	 1.2116965426e+00	-2.1078380928e+00
 8.5038012081e-01	 1.2221471980e+00	-2.1173142883e+00
 8.3544417311e-01	 1.2324054353e+00	-2.1236746914e+00
 8.2040197581e-01	 1.2424696059e+00	-2.1311863017e+00
 8.0525726852e-01	 1.2523381552e+00	-2.1441940613e+00
 8.8429616749e-01	 1.2070306104e+00	-2.0977839879e+00
 8.6951061767e-01	 1.2177248836e+00	-2.1135447986e+00
 8.5461086768e-01	 1.2282275323e+00	-2.1219950737e+00
 8.3960061178e-01	 1.2385368057e+00	-2.1270265914e+00
 8.2448357768e-01	 1.2486510467e+00	-2.1327362942e+00
 8.0926352358e-01	 1.2585686933e+00	-2.1433058388e+00
 8.8867387129e-01	 1.2130060095e+00	-2.1043946221e+00
 8.7381512568e-01	 1.2237532246e+00	-2.1191013799e+00
 8.5884161455e-01	 1.2343078666e+00	-2.1263527428e+00
 8.4375705046e-01	 1.2446681760e+00	-2.1299282346e+00
 8.2856517955e-01	 1.2548324875e+00	-2.1338149288e+00
 8.1326977865e-01	 1.2647992314e+00	-2.1420836967e+00
 8.9305157509e-01	 1.2189814085e+00	-2.1104366610e+00
 8.7811963368e-01	 1.2297815656e+00	-2.1240595394e+00
 8.6307236142e-01	 1.2403882010e+00	-2.1300043857e+00
 8.4791348913e-01	 1.2507995463e+00	-2.1320055239e+00
 8.3264678142e-01	 1.2610139284e+00	-2.1339997472e+00
 8.1727603372e-01	 1.2710297695e+00	-2.1399990951e+00
 8.9742927889e-01	 1.2249568076e+00	-2.1153421901e+00
 8.8242414169e-01	 1.2358099066e+00	-2.1279698700e+00
 8.6730310829e-01	 1.2464685353e+00	-2.1325642964e+00
 8.5206992780e-01	 1.2569309166e+00	-2.1328810151e+00
 8.3672838329e-01	 1.2671953692e+00	-2.1328655483e+00
 8.2128228878e-01	 1.2772603075e+00	-2.1365225309e+00
 8.0125101345e-01	 1.2461076171e+00	-2.1452757584e+00
 7.8608340119e-01	 1.2557309689e+00	-2.1494530431e+00
 7.7082130969e-01	 1.2651568632e+00	-2.1293532579e+00
 7.5546853282e-01	 1.2743840378e+00	-2.0972441906e+00
 7.4002888280e-01	 1.2834113263e+00	-2.0654413430e+00
 7.2450618728e-01	 1.2922376579e+00	-2.0635449307e+00
 8.0525726852e-01	 1.2523381552e+00	-2.1441940613e+00
 7.9001381820e-01	 1.2620096238e+00	-2.1461834224e+00
 7.7467541624e-01	 1.2714826475e+00	-2.1257784072e+00
 7.5924587548e-01	 1.2807559580e+00	-2.0950572931e+00
 7.4372902721e-01	 1.2898283830e+00	-2.0660584061e+00
 7.2812871821e-01	 1.2986988462e+00	-2.0610307088e+00
 8.0926352358e-01	 1.2585686933e+00	-2.1433058388e+00
 7.9394423520e-01	 1.2682882786e+00	-2.1433892922e+00
 7.7852952279e-01	 1.2778084318e+00	-2.1227506806e+00
 7.6302321815e-01	 1.2871278782e+00	-2.0932332253e+00
 7.4742917163e-01	 1.2962454396e+00	-2.0665960192e+00
 7.3175124915e-01	 1.3051600345e+00	-2.0595611286e+00
 8.1326977865e-01	 1.2647992314e+00	-2.1420836967e+00
 7.9787465221e-01	 1.2745669335e+00	-2.1404454000e+00
 7.8238362934e-01	 1.2841342161e+00	-2.1196268871e+00
 7.6680056081e-01	 1.2934997984e+00	-2.0911914200e+00
 7.5112931604e-01	 1.3026624962e+00	-2.0665825605e+00
 7.3537378008e-01	 1.3116212228e+00	-2.0588170954e+00
 8.1727603372e-01	 1.2710297695e+00	-2.1399990951e+00
 8.0180506921e-01	 1.2808455883e+00	-2.1367270616e+00
 7.8623773589e-01	 1.2904600005e+00	-2.1157646130e+00
 7.7057790348e-01	 1.2998717186e+00	-2.0883507839e+00
 7.5482946045e-01	 1.3090795529e+00	-2.0655778243e+00
 7.3899631102e-01	 1.3180824111e+00	-2.0584719683e+00
 8.2128228878e-01	 1.2772603075e+00	-2.1365225309e+00
 8.0573548622e-01	 1.2871242432e+00	-2.1316102709e+00
 7.9009184244e-01	 1.2967857848e+00	-2.1105222968e+00
 7.7435524614e-01	 1.3062436388e+00	-2.0841297770e+00
 7.5852960487e-01	 1.3154966095e+00	-2.0631383804e+00
 7.4261884196e-01	 1.3245435994e+00	-2.0579818287e+00
 7.2450618728e-01	 1.2922376579e+00	-2.0635449307e+00
 7.0890428638e-01	 1.3008620575e+00	-2.0758688574e+00
 6.9322702978e-01	 1.3092836458e+00	-2.0693114869e+00
 6.7747827378e-01	 1.3175016389e+00	-2.0494652596e+00
 6.6166187843e-01	 1.3255153483e+00	-2.0210070473e+00
 6.4578170469e-01	 1.3333241803e+00	-1.9877238977e+00
 7.2812871821e-01	 1.2986988462e+00	-2.0610307088e+00
 7.1244880781e-01	 1.3073663678e+00	-2.0701398451e+00
 6.9669316492e-01	 1.3158300640e+00	-2.0606061583e+00
 6.8086566515e-01	 1.3240891471e+00	-2.0383828820e+00
 6.6497018783e-01	 1.3321429250e+00	-2.0085268126e+00
 6.4901061321e-01	 1.3399908012e+00	-1.9752225952e+00
 7.3175124915e-01	 1.3051600345e+00	-2.0595611286e+00
 7.1599332924e-01	 1.3138706781e+00	-2.0648393233e+00
 7.0015930007e-01	 1.3223764823e+00	-2.0520278974e+00
 6.8425305651e-01	 1.3306766553e+00	-2.0274107482e+00
 6.6827849722e-01	 1.3387705018e+00	-1.9963793548e+00
 6.5223952174e-01	 1.3466574221e+00	-1.9634558602e+00
 7.3537378008e-01	 1.3116212228e+00	-2.0588170954e+00
 7.1953785067e-01	 1.3203749884e+00	-2.0598468727e+00
 7.0362543522e-01	 1.3289229005e+00	-2.0435279960e+00
 6.8764044788e-01	 1.3372641635e+00	-2.0164456287e+00
 6.7158680661e-01	 1.3453980785e+00	-1.9842815529e+00
 6.5546843026e-01	 1.3533240430e+00	-1.9518362986e+00
 7.3899631102e-01	 1.3180824111e+00	-2.0584719683e+00
 7.2308237211e-01	 1.3268792987e+00	-2.0550301554e+00
 7.0709157037e-01	 1.3354693187e+00	-2.0350439829e+00
 6.9102783925e-01	 1.3438516717e+00	-2.0053712065e+00
 6.7489511600e-01	 1.3520256553e+00	-1.9719403838e+00
 6.5869733878e-01	 1.3599906639e+00	-1.9397722971e+00
 7.4261884196e-01	 1.3245435994e+00	-2.0579818287e+00
 7.2662689354e-01	 1.3333836090e+00	-2.0502457495e+00
 7.1055770552e-01	 1.3420157369e+00	-2.0265004573e+00
 6.9441523062e-01	 1.3504391799e+00	-1.9940588494e+00
 6.7820342539e-01	 1.3586532320e+00	-1.9590535731e+00
 6.6192624731e-01	 1.3666572848e+00	-1.9266684908e+00
 6.4578170469e-01	 1.3333241803e+00	-1.9877238977e+00
 6.2984161154e-01	 1.3409276358e+00	-1.9561564952e+00
 6.1384545325e-01	 1.3483253092e+00	-1.9298251722e+00
 5.9779707658e-01	 1.3555168886e+00	-1.9066312187e+00
 5.8170031809e-01	 1.3625021541e+00	-1.8835811035e+00
 5.6555900146e-01	 1.3692809777e+00	-1.8568487985e+00
 6.4901061321e-01	 1.3399908012e+00	-1.9752225952e+00
 6.3299081960e-01	 1.3476322739e+00	-1.9442653187e+00
 6.1691468052e-01	 1.3550669358e+00	-1.9180281078e+00
 6.0078606196e-01	 1.3622944730e+00	-1.8941836831e+00
 5.8460881968e-01	 1.3693146649e+00	-1.8694629444e+00
 5.6838679647e-01	 1.3761273826e+00	-1.8397190503e+00
 6.5223952174e-01	 1.3466574221e+00	-1.9634558602e+00
 6.3614002766e-01	 1.3543369121e+00	-1.9334105140e+00
 6.1998390778e-01	 1.3618085623e+00	-1.9072909533e+00
 6.0377504735e-01	 1.3690720575e+00	-1.8826349901e+00
 5.8751732127e-01	 1.3761271756e+00	-1.8560089202e+00
 5.7121459148e-01	 1.3829737875e+00	-1.8230728206e+00
 6.5546843026e-01	 1.3533240430e+00	-1.9518362986e+00
 6.3928923572e-01	 1.3610415503e+00	-1.9227237653e+00
 6.2305313505e-01	 1.3685501889e+00	-1.8966336660e+00
 6.0676403273e-01	 1.3758496419e+00	-1.8710606676e+00
 5.9042582286e-01	 1.3829396864e+00	-1.8425153390e+00
 5.7404238649e-01	 1.3898201923e+00	-1.8065901311e+00
 6.5869733878e-01	 1.3599906639e+00	-1.9397722971e+00
 6.4243844377e-01	 1.3677461885e+00	-1.9113378256e+00
 6.2612236232e-01	 1.3752918154e+00	-1.8850793112e+00
 6.0975301811e-01	 1.3826272263e+00	-1.8585381835e+00
 5.9333432445e-01	 1.3897521972e+00	-1.8282761180e+00
 5.7687018149e-01	 1.3966665972e+00	-1.7899411666e+00
 6.6192624731e-01	 1.3666572848e+00	-1.9266684908e+00
 6.4558765183e-01	 1.3744508267e+00	-1.8983868127e+00
 6.2919158958e-01	 1.3820334420e+00	-1.8716542664e+00
 6.1274200350e-01	 1.3894048108e+00	-1.8441471376e+00
 5.9624282605e-01	 1.3965647079e+00	-1.8125830407e+00
 5.7969797650e-01	 1.4035130021e+00	-1.7727866752e+00
 5.6555900146e-01	 1.3692809777e+00	-1.8568487985e+00
 5.4937693488e-01	 1.3758533219e+00	-1.8259008023e+00
 5.3315790848e-01	 1.3822192390e+00	-1.7932730708e+00
 5.1690569179e-01	 1.3883788697e+00	-1.7588638565e+00
 5.0062403136e-01	 1.3943324421e+00	-1.7222270644e+00
 4.8431664830e-01	 1.4000802706e+00	-1.6826361271e+00
 5.6838679647e-01	 1.3761273826e+00	-1.8397190503e+00
 5.5212381956e-01	 1.3827325885e+00	-1.8055274456e+00
 5.3582369802e-01	 1.3891303352e+00	-1.7707132634e+00
 5.1949022025e-01	 1.3953207640e+00	-1.7350984172e+00
 5.0312715152e-01	 1.4013041043e+00	-1.6981703633e+00
 4.8673823154e-01	 1.4070806720e+00	-1.6591469362e+00
 5.7121459148e-01	 1.3829737875e+00	-1.8230728206e+00
 5.5487070423e-01	 1.3896118551e+00	-1.7857500011e+00
 5.3848948756e-01	 1.3960414314e+00	-1.7491749994e+00
 5.2207474871e-01	 1.4022626584e+00	-1.7128921444e+00
 5.0563027168e-01	 1.4082757666e+00	-1.6761042365e+00
 4.8915981478e-01	 1.4140810733e+00	-1.6377391277e+00
 5.7404238649e-01	 1.3898201923e+00	-1.8065901311e+00
 5.5761758891e-01	 1.3964911217e+00	-1.7666287036e+00
 5.4115527710e-01	 1.4029525276e+00	-1.7289324999e+00
 5.2465927717e-01	 1.4092045527e+00	-1.6925702742e+00
 5.0813339184e-01	 1.4152474288e+00	-1.6562453549e+00
 4.9158139803e-01	 1.4210814747e+00	-1.6183647472e+00
 5.7687018149e-01	 1.3966665972e+00	-1.7899411666e+00
 5.6036447358e-01	 1.4033703883e+00	-1.7482066548e+00
 5.4382106665e-01	 1.4098636238e+00	-1.7102389002e+00
 5.2724380563e-01	 1.4161464471e+00	-1.6744362841e+00
 5.1063651199e-01	 1.4222190910e+00	-1.6387911713e+00
 4.9400298127e-01	 1.4280818760e+00	-1.6009623067e+00
 5.7969797650e-01	 1.4035130021e+00	-1.7727866752e+00
 5.6311135826e-01	 1.4102496549e+00	-1.7305103662e+00
 5.4648685619e-01	 1.4167747200e+00	-1.6933268542e+00
 5.2982833409e-01	 1.4230883414e+00	-1.6587724806e+00
 5.1313963215e-01	 1.4291907532e+00	-1.6239204149e+00
 4.9642456451e-01	 1.4350822774e+00	-1.5854571118e+00
 4.8431664830e-01	 1.4000802706e+00	-1.6826361271e+00
 4.6798723597e-01	 1.4056227541e+00	-1.6453917833e+00
 4.5163945774e-01	 1.4109603751e+00	-1.6148737269e+00
 4.3527694476e-01	 1.4160936979e+00	-1.5886452322e+00
 4.1890329387e-01	 1.4210233673e+00	-1.5641207706e+00
 4.0252206554e-01	 1.4257501067e+00	-1.5386431690e+00
 4.8673823154e-01	 1.4070806720e+00	-1.6591469362e+00
 4.7032717215e-01	 1.4126508679e+00	-1.6224993550e+00
 4.5389765503e-01	 1.4180151770e+00	-1.5919730249e+00
 4.3745332948e-01	 1.4231741664e+00	-1.5653598134e+00
 4.2099781034e-01	 1.4281284841e+00	-1.5402808261e+00
 4.0453467586e-01	 1.4328788572e+00	-1.5142652543e+00
 4.8915981478e-01	 1.4140810733e+00	-1.6377391277e+00
 4.7266710833e-01	 1.4196789817e+00	-1.6011835886e+00
 4.5615585231e-01	 1.4250699789e+00	-1.5696324591e+00
 4.3962971421e-01	 1.4302546349e+00	-1.5413747089e+00
 4.2309232681e-01	 1.4352336010e+00	-1.5145147415e+00
 4.0654728619e-01	 1.4400076078e+00	-1.4870521847e+00
 4.9158139803e-01	 1.4210814747e+00	-1.6183647472e+00
 4.7500704451e-01	 1.4267070954e+00	-1.5811132144e+00
 4.5841404960e-01	 1.4321247808e+00	-1.5473506089e+00
 4.4180609893e-01	 1.4373351034e+00	-1.5161267796e+00
 4.2518684328e-01	 1.4423387178e+00	-1.4863012700e+00
 4.0855989652e-01	 1.4471363583e+00	-1.4566233110e+00
 4.9400298127e-01	 1.4280818760e+00	-1.6009623067e+00
 4.7734698069e-01	 1.4337352092e+00	-1.5619495628e+00
 4.6067224689e-01	 1.4391795826e+00	-1.5246226488e+00
 4.4398248365e-01	 1.4444155719e+00	-1.4890514285e+00
 4.2728135975e-01	 1.4494438346e+00	-1.4551176963e+00
 4.1057250685e-01	 1.4542651088e+00	-1.4225946390e+00
 4.9642456451e-01	 1.4350822774e+00	-1.5854571118e+00
 4.7968691687e-01	 1.4407633230e+00	-1.5433467146e+00
 4.6293044418e-01	 1.4462343845e+00	-1.5009403766e+00
 4.4615886838e-01	 1.4514960404e+00	-1.4595825587e+00
 4.2937587622e-01	 1.4565489515e+00	-1.4204397741e+00
 4.1258511717e-01	 1.4613938594e+00	-1.3845787957e+00
 4.0252206554e-01	 1.4257501067e+00	-1.5386431690e+00
 3.8613678186e-01	 1.4302747169e+00	-1.5098695511e+00
 3.6975092468e-01	 1.4345980739e+00	-1.4656288071e+00
 3.5336793376e-01	 1.4387211277e+00	-1.4245486921e+00
 3.3699120501e-01	 1.4426449001e+00	-1.4003898043e+00
 3.2062408884e-01	 1.4463704828e+00	-1.3771976043e+00
 4.0453467586e-01	 1.4328788572e+00	-1.5142652543e+00
 3.8806746577e-01	 1.4374260904e+00	-1.4855197019e+00
 3.7159967930e-01	 1.4417710643e+00	-1.4419139327e+00
 3.5513477342e-01	 1.4459147334e+00	-1.3952083603e+00
 3.3867616103e-01	 1.4498581246e+00	-1.3672470775e+00
 3.2222720929e-01	 1.4536023353e+00	-1.3422792020e+00
 4.0654728619e-01	 1.4400076078e+00	-1.4870521847e+00
 3.8999814968e-01	 1.4445774640e+00	-1.4580238517e+00
 3.7344843392e-01	 1.4489440547e+00	-1.4154186490e+00
 3.5690161309e-01	 1.4531083390e+00	-1.3643781415e+00
 3.4036111706e-01	 1.4570713491e+00	-1.3333596411e+00
 3.2383032973e-01	 1.4608341877e+00	-1.3075960644e+00
 4.0855989652e-01	 1.4471363583e+00	-1.4566233110e+00
 3.9192883358e-01	 1.4517288376e+00	-1.4271934698e+00
 3.7529718855e-01	 1.4561170450e+00	-1.3861068044e+00
 3.5866845276e-01	 1.4603019446e+00	-1.3323583832e+00
 3.4204607308e-01	 1.4642845736e+00	-1.2992786124e+00
 3.2543345018e-01	 1.4680660401e+00	-1.2739462213e+00
 4.1057250685e-01	 1.4542651088e+00	-1.4225946390e+00
 3.9385951749e-01	 1.4588802112e+00	-1.3928338597e+00
 3.7714594317e-01	 1.4632900354e+00	-1.3539811100e+00
 3.6043529243e-01	 1.4674955503e+00	-1.2994294238e+00
 3.4373102911e-01	 1.4714977981e+00	-1.2655356638e+00
 3.2703657062e-01	 1.4752978925e+00	-1.2421082458e+00
 4.1258511717e-01	 1.4613938594e+00	-1.3845787957e+00
 3.9579020140e-01	 1.4660315848e+00	-1.3547441780e+00
 3.7899469779e-01	 1.4704630258e+00	-1.3190352650e+00
 3.6220213210e-01	 1.4746891559e+00	-1.2658510054e+00
 3.4541598513e-01	 1.4787110226e+00	-1.2326425763e+00
 3.2863969106e-01	 1.4825297449e+00	-1.2125777270e+00
 3.2062408884e-01	 1.4463704828e+00	-1.3771976043e+00
 3.0426988856e-01	 1.4498990361e+00	-1.3474942322e+00
 2.8793185885e-01	 1.4532317863e+00	-1.3148270425e+00
 2.7161320434e-01	 1.4563700241e+00	-1.2818406762e+00
 2.5531707825e-01	 1.4593151029e+00	-1.2522313609e+00
 2.3904658112e-01	 1.4620684362e+00	-1.2306308511e+00
 3.2222720929e-01	 1.4536023353e+00	-1.3422792020e+00
 3.0579123801e-01	 1.4571485313e+00	-1.3121829519e+00
 2.8937151815e-01	 1.4604979452e+00	-1.2795194206e+00
 2.7297127037e-01	 1.4636518743e+00	-1.2465766746e+00
 2.5659366365e-01	 1.4666116784e+00	-1.2167875843e+00
 2.4024181403e-01	 1.4693787783e+00	-1.1946077194e+00
 3.2383032973e-01	 1.4608341877e+00	-1.3075960644e+00
 3.0731258745e-01	 1.4643980265e+00	-1.2782418698e+00
 2.9081117744e-01	 1.4677641041e+00	-1.2466926185e+00
 2.7432933639e-01	 1.4709337244e+00	-1.2146755885e+00
 2.5787024904e-01	 1.4739082539e+00	-1.1851550716e+00
 2.4143704694e-01	 1.4766891205e+00	-1.1622045578e+00
 3.2543345018e-01	 1.4680660401e+00	-1.2739462213e+00
 3.0883393689e-01	 1.4716475216e+00	-1.2466680255e+00
 2.9225083674e-01	 1.4750302631e+00	-1.2174525501e+00
 2.7568740241e-01	 1.4782155745e+00	-1.1872661649e+00
 2.5914683443e-01	 1.4812048294e+00	-1.1584035790e+00
 2.4263227984e-01	 1.4839994627e+00	-1.1338912143e+00
 3.2703657062e-01	 1.4752978925e+00	-1.2421082458e+00
 3.1035528634e-01	 1.4788970168e+00	-1.2184392882e+00
 2.9369049603e-01	 1.4822964220e+00	-1.1927714216e+00
 2.7704546843e-01	 1.4854974246e+00	-1.1631678548e+00
 2.6042341982e-01	 1.4885014049e+00	-1.1322067409e+00
 2.4382751275e-01	 1.4913098049e+00	-1.1046393790e+00
 3.2863969106e-01	 1.4825297449e+00	-1.2125777270e+00
 3.1187663578e-01	 1.4861465120e+00	-1.1899546456e+00
 2.9513015533e-01	 1.4895625809e+00	-1.1624386003e+00
 2.7840353445e-01	 1.4927792747e+00	-1.1317778572e+00
 2.6170000521e-01	 1.4957979805e+00	-1.1007183786e+00
 2.4502274565e-01	 1.4986201471e+00	-1.0728099827e+00
 2.3904658112e-01	 1.4620684362e+00	-1.2306308511e+00
 2.2280475962e-01	 1.4646314960e+00	-1.2165318832e+00
 2.0659460540e-01	 1.4670058108e+00	-1.2040126872e+00
 1.9041905411e-01	 1.4691929634e+00	-1.1907578413e+00
 1.7428098441e-01	 1.4711945889e+00	-1.1750680755e+00
 1.5818321710e-01	 1.4730123726e+00	-1.1557099779e+00
 2.4024181403e-01	 1.4693787783e+00	-1.1946077194e+00
 2.2391878341e-01	 1.4719546535e+00	-1.1798486833e+00
 2.0762757843e-01	 1.4743408399e+00	-1.1668785069e+00
 1.9137114938e-01	 1.4765389283e+00	-1.1532681972e+00
 1.7515238934e-01	 1.4785505619e+00	-1.1372587489e+00
 1.5897413318e-01	 1.4803774345e+00	-1.1176033735e+00
 2.4143704694e-01	 1.4766891205e+00	-1.1622045578e+00
 2.2503280721e-01	 1.4792778110e+00	-1.1457946788e+00
 2.0866055145e-01	 1.4816758689e+00	-1.1306824396e+00
 1.9232324465e-01	 1.4838848931e+00	-1.1146577468e+00
 1.7602379426e-01	 1.4859065348e+00	-1.0967294865e+00
 1.5976504927e-01	 1.4877424963e+00	-1.0762927518e+00
 2.4263227984e-01	 1.4839994627e+00	-1.1338912143e+00
 2.2614683101e-01	 1.4866009684e+00	-1.1140811729e+00
 2.0969352448e-01	 1.4890108980e+00	-1.0955873796e+00
 1.9327533992e-01	 1.4912308579e+00	-1.0771880130e+00
 1.7689519918e-01	 1.4932625077e+00	-1.0580204744e+00
 1.6055596535e-01	 1.4951075582e+00	-1.0374482168e+00
 2.4382751275e-01	 1.4913098049e+00	-1.1046393790e+00
 2.2726085481e-01	 1.4939241259e+00	-1.0819913675e+00
 2.1072649751e-01	 1.4963459270e+00	-1.0612801444e+00
 1.9422743519e-01	 1.4985768227e+00	-1.0413498905e+00
 1.7776660410e-01	 1.5006184807e+00	-1.0214249022e+00
 1.6134688144e-01	 1.5024726200e+00	-1.0009772962e+00
 2.4502274565e-01	 1.4986201471e+00	-1.0728099827e+00
 2.2837487861e-01	 1.5012472834e+00	-1.0492380562e+00
 2.1175947053e-01	 1.5036809561e+00	-1.0276029630e+00
 1.9517953046e-01	 1.5059227875e+00	-1.0069535987e+00
 1.7863800902e-01	 1.5079744536e+00	-9.8673934119e-01
 1.6213779752e-01	 1.5098376819e+00	-9.6667848897e-01
 1.5818321710e-01	 1.4730123726e+00	-1.1557099779e+00
 1.4212851429e-01	 1.4746480480e+00	-1.1356798896e+00
 1.2611957874e-01	 1.4761033947e+00	-1.1189262901e+00
 1.1015905315e-01	 1.4773802364e+00	-1.1057980528e+00
 9.4249519604e-02	 1.4784804388e+00	-1.0963855310e+00
 7.8393499089e-02	 1.4794059075e+00	-1.0903733496e+00
 1.5897413318e-01	 1.4803774345e+00	-1.1176033735e+00
 1.4283915686e-01	 1.4820212882e+00	-1.0969162154e+00
 1.2675017663e-01	 1.4834839117e+00	-1.0792860802e+00
 1.1070984841e-01	 1.4847671376e+00	-1.0654167009e+00
 9.4720767202e-02	 1.4858728410e+00	-1.0555007373e+00
 7.8785466584e-02	 1.4868029371e+00	-1.0492197477e+00
 1.5976504927e-01	 1.4877424963e+00	-1.0762927518e+00
 1.4354979943e-01	 1.4893945285e+00	-1.0558103783e+00
 1.2738077453e-01	 1.4908644286e+00	-1.0385776988e+00
 1.1126064368e-01	 1.4921540388e+00	-1.0250901938e+00
 9.5192014800e-02	 1.4932652432e+00	-1.0154591277e+00
 7.9177434079e-02	 1.4941999666e+00	-1.0093095292e+00
 1.6055596535e-01	 1.4951075582e+00	-1.0374482168e+00
 1.4426044201e-01	 1.4967677687e+00	-1.0173909955e+00
 1.2801137242e-01	 1.4982449456e+00	-1.0005406683e+00
 1.1181143894e-01	 1.4995409400e+00	-9.8730540879e-01
 9.5663262398e-02	 1.5006576454e+00	-9.7773365834e-01
 7.9569401575e-02	 1.5015969962e+00	-9.7141359086e-01
 1.6134688144e-01	 1.5024726200e+00	-1.0009772962e+00
 1.4497108458e-01	 1.5041410089e+00	-9.8147514357e-01
 1.2864197032e-01	 1.5056254626e+00	-9.6501561271e-01
 1.1236223421e-01	 1.5069278412e+00	-9.5193610266e-01
 9.6134509996e-02	 1.5080500476e+00	-9.4223977945e-01
 7.9961369070e-02	 1.5089940257e+00	-9.3549660197e-01
 1.6213779752e-01	 1.5098376819e+00	-9.6667848897e-01
 1.4568172715e-01	 1.5115142492e+00	-9.4787568139e-01
 1.2927256821e-01	 1.5130059796e+00	-9.3184023627e-01
 1.1291302948e-01	 1.5143147423e+00	-9.1885429561e-01
 9.6605757594e-02	 1.5154424498e+00	-9.0889226595e-01
 8.0353336566e-02	 1.5163910552e+00	-9.0152348828e-01
 7.8393499089e-02	 1.4794059075e+00	-1.0903733496e+00
 6.2593451038e-02	 1.4801585861e+00	-1.0858939500e+00
 4.6851772986e-02	 1.4807404537e+00	-1.0817202428e+00
 3.1170800274e-02	 1.4811535238e+00	-1.0774567065e+00
 1.5552805827e-02	 1.4813998414e+00	-1.0717476309e+00
 0.0000000000e+00	 1.4814814815e+00	-1.0621716408e+00
 7.8785466584e-02	 1.4868029371e+00	-1.0492197477e+00
 6.2906418293e-02	 1.4875593790e+00	-1.0446519373e+00
 4.7086031851e-02	 1.4881441560e+00	-1.0405629261e+00
 3.1326654275e-02	 1.4885592915e+00	-1.0365883767e+00
 1.5630569856e-02	 1.4888068406e+00	-1.0314464419e+00
 0.0000000000e+00	 1.4888888889e+00	-1.0228497727e+00
 7.9177434079e-02	 1.4941999666e+00	-1.0093095292e+00
 6.3219385549e-02	 1.4949601719e+00	-1.0047503067e+00
 4.7320290716e-02	 1.4955478583e+00	-1.0006898767e+00
 3.1482508276e-02	 1.4959650591e+00	-9.9691987001e-01
 1.5708333885e-02	 1.4962138398e+00	-9.9234797648e-01
 0.0000000000e+00	 1.4962962963e+00	-9.8491025584e-01
 7.9569401575e-02	 1.5015969962e+00	-9.7141359086e-01
 6.3532352804e-02	 1.5023609648e+00	-9.6654106156e-01
 4.7554549581e-02	 1.5029515605e+00	-9.6223815093e-01
 3.1638362278e-02	 1.5033708267e+00	-9.5849381269e-01
 1.5786097914e-02	 1.5036208391e+00	-9.5444520960e-01
 0.0000000000e+00	 1.5037037037e+00	-9.4829042334e-01
 7.9961369070e-02	 1.5089940257e+00	-9.3549660197e-01
 6.3845320059e-02	 1.5097617578e+00	-9.3003107816e-01
 4.7788808446e-02	 1.5103552628e+00	-9.2523514976e-01
 3.1794216279e-02	 1.5107765943e+00	-9.2133523431e-01
 1.5863861944e-02	 1.5110278383e+00	-9.1773672559e-01
 0.0000000000e+00	 1.5111111111e+00	-9.1293720464e-01
 8.0353336566e-02	 1.5163910552e+00	-9.0152348828e-01
 6.4158287314e-02	 1.5171625507e+00	-8.9522854797e-01
 4.8023067311e-02	 1.5177589651e+00	-8.8971103364e-01
 3.1950070280e-02	 1.5181823619e+00	-8.8547374919e-01
 1.5941625973e-02	 1.5184348375e+00	-8.8222789609e-01
 0.0000000000e+00	 1.5185185185e+00	-8.7880689118e-01
 1.5185185185e+00	 0.0000000000e+00	 3.7465467044e+00
 1.5184348375e+00	 1.5941625973e-02	 3.7460806725e+00
 1.5181823619e+00	 3.1950070280e-02	 3.7405603761e+00
 1.5177589651e+00	 4.8023067311e-02	 3.7308568909e+00
 1.5171625507e+00	 6.4158287314e-02	 3.7169764096e+00
 1.5163910552e+00	 8.0353336566e-02	 3.6981395452e+00
 1.5259259259e+00	 0.0000000000e+00	 3.7374018247e+00
 1.5258418367e+00	 1.6019390002e-02	 3.7367182256e+00
 1.5255881296e+00	 3.2105924282e-02	 3.7312469042e+00
 1.5251626674e+00	 4.8257326176e-02	 3.7217621280e+00
 1.5245633436e+00	 6.4471254569e-02	 3.7081896639e+00
 1.5237880848e+00	 8.0745304061e-02	 3.6896846692e+00
 1.5333333333e+00	 0.0000000000e+00	 3.7278858217e+00
 1.5332488359e+00	 1.6097154031e-02	 3.7270382473e+00
 1.5329938972e+00	 3.2261778283e-02	 3.7215863661e+00
 1.5325663696e+00	 4.8491585041e-02	 3.7122430979e+00
 1.5319641366e+00	 6.4784221824e-02	 3.6988905387e+00
 1.5311851143e+00	 8.1137271557e-02	 3.6806562642e+00
 1.5407407407e+00	 0.0000000000e+00	 3.7179615996e+00
 1.5406558351e+00	 1.6174918060e-02	 3.7170121449e+00
 1.5403996648e+00	 3.2417632285e-02	 3.7115491572e+00
 1.5399700719e+00	 4.8725843905e-02	 3.7022597436e+00
 1.5393649295e+00	 6.5097189080e-02	 3.6890191835e+00
 1.5385821438e+00	 8.1529239052e-02	 3.6709654669e+00
 1.5481481481e+00	 0.0000000000e+00	 3.7075926453e+00
 1.5480628343e+00	 1.6252682089e-02	 3.7066119821e+00
 1.5478054324e+00	 3.2573486286e-02	 3.7011063756e+00
 1.5473737742e+00	 4.8960102770e-02	 3.6917727529e+00
 1.5467657224e+00	 6.5410156335e-02	 3.6785165537e+00
 1.5459791734e+00	 8.1921206548e-02	 3.6605243246e+00
 1.5555555556e+00	 0.0000000000e+00	 3.6967430146e+00
 1.5554698335e+00	 1.6330446118e-02	 3.6958104657e+00
 1.5552112000e+00	 3.2729340287e-02	 3.6902298083e+00
 1.5547774764e+00	 4.9194361635e-02	 3.6807435417e+00
 1.5541665154e+00	 6.5723123590e-02	 3.6673243907e+00
 1.5533762029e+00	 8.2313174043e-02	 3.6492457703e+00
 1.5163910552e+00	 8.0353336566e-02	 3.6981395452e+00
 1.5154424498e+00	 9.6605757594e-02	 3.6746261734e+00
 1.5143147423e+00	 1.1291302948e-01	 3.6481367290e+00
 1.5130059796e+00	 1.2927256821e-01	 3.6191169556e+00
 1.5115142492e+00	 1.4568172715e-01	 3.5876003288e+00
 1.5098376819e+00	 1.6213779752e-01	 3.5533083403e+00
 1.5237880848e+00	 8.0745304061e-02	 3.6896846692e+00
 1.5228348520e+00	 9.7077005192e-02	 3.6663532706e+00
 1.5217016435e+00	 1.1346382474e-01	 3.6398102687e+00
 1.5203864965e+00	 1.2990316610e-01	 3.6105858539e+00
 1.5188874894e+00	 1.4639236972e-01	 3.5788060006e+00
 1.5172027438e+00	 1.6292871361e-01	 3.5442903080e+00
 1.5311851143e+00	 8.1137271557e-02	 3.6806562642e+00
 1.5302272542e+00	 9.7548252790e-02	 3.6574985291e+00
 1.5290885447e+00	 1.1401462001e-01	 3.6309357993e+00
 1.5277670135e+00	 1.3053376400e-01	 3.6015665622e+00
 1.5262607297e+00	 1.4710301229e-01	 3.5695931979e+00
 1.5245678056e+00	 1.6371962970e-01	 3.5349172493e+00
 1.5385821438e+00	 8.1529239052e-02	 3.6709654669e+00
 1.5376196564e+00	 9.8019500388e-02	 3.6479376046e+00
 1.5364754459e+00	 1.1456541527e-01	 3.6213503437e+00
 1.5351475305e+00	 1.3116436189e-01	 3.5918553169e+00
 1.5336339699e+00	 1.4781365486e-01	 3.5597162257e+00
 1.5319328675e+00	 1.6451054578e-01	 3.5249014084e+00
 1.5459791734e+00	 8.1921206548e-02	 3.6605243246e+00
 1.5450120586e+00	 9.8490747986e-02	 3.6375471857e+00
 1.5438623471e+00	 1.1511621054e-01	 3.6108920628e+00
 1.5425280475e+00	 1.3179495978e-01	 3.5812495887e+00
 1.5410072101e+00	 1.4852429744e-01	 3.5489307204e+00
 1.5392979294e+00	 1.6530146187e-01	 3.5139564679e+00
 1.5533762029e+00	 8.2313174043e-02	 3.6492457703e+00
 1.5524044608e+00	 9.8961995584e-02	 3.6262049645e+00
 1.5512492482e+00	 1.1566700580e-01	 3.5994002218e+00
 1.5499085644e+00	 1.3242555768e-01	 3.5695480467e+00
 1.5483804504e+00	 1.4923494001e-01	 3.5369936134e+00
 1.5466629912e+00	 1.6609237795e-01	 3.5017975134e+00
 1.5098376819e+00	 1.6213779752e-01	 3.5533083403e+00
 1.5079744536e+00	 1.7863800902e-01	 3.5147497712e+00
 1.5059227875e+00	 1.9517953046e-01	 3.4702144907e+00
 1.5036809561e+00	 2.1175947053e-01	 3.4189788464e+00
 1.5012472834e+00	 2.2837487861e-01	 3.3605015079e+00
 1.4986201471e+00	 2.4502274565e-01	 3.2945725843e+00
 1.5172027438e+00	 1.6292871361e-01	 3.5442903080e+00
 1.5153304266e+00	 1.7950941395e-01	 3.5056362297e+00
 1.5132687523e+00	 1.9613162573e-01	 3.4609823216e+00
 1.5110159851e+00	 2.1279244356e-01	 3.4093434529e+00
 1.5085704409e+00	 2.2948890240e-01	 3.3499123905e+00
 1.5059304892e+00	 2.4621797856e-01	 3.2822073806e+00
 1.5245678056e+00	 1.6371962970e-01	 3.5349172493e+00
 1.5226863995e+00	 1.8038081887e-01	 3.4962375262e+00
 1.5206147172e+00	 1.9708372101e-01	 3.4516011203e+00
 1.5183510142e+00	 2.1382541659e-01	 3.3998151861e+00
 1.5158935984e+00	 2.3060292620e-01	 3.3398592019e+00
 1.5132408314e+00	 2.4741321146e-01	 3.2710307236e+00
 1.5319328675e+00	 1.6451054578e-01	 3.5249014084e+00
 1.5300423725e+00	 1.8125222379e-01	 3.4862177511e+00
 1.5279606820e+00	 1.9803581628e-01	 3.4416740410e+00
 1.5256860433e+00	 2.1485838961e-01	 3.3899234015e+00
 1.5232167558e+00	 2.3171695000e-01	 3.3297845406e+00
 1.5205511736e+00	 2.4860844437e-01	 3.2603853817e+00
 1.5392979294e+00	 1.6530146187e-01	 3.5139564679e+00
 1.5373983454e+00	 1.8212362871e-01	 3.4752426927e+00
 1.5353066468e+00	 1.9898791155e-01	 3.4308065038e+00
 1.5330210723e+00	 2.1589136264e-01	 3.3792006261e+00
 1.5305399133e+00	 2.3283097380e-01	 3.3191354485e+00
 1.5278615158e+00	 2.4980367728e-01	 3.2496202334e+00
 1.5466629912e+00	 1.6609237795e-01	 3.5017975134e+00
 1.5447543184e+00	 1.8299503363e-01	 3.4629798016e+00
 1.5426526116e+00	 1.9994000682e-01	 3.4186061553e+00
 1.5403561014e+00	 2.1692433567e-01	 3.3671825105e+00
 1.5378630708e+00	 2.3394499760e-01	 3.3073633503e+00
 1.5351718580e+00	 2.5099891018e-01	 3.2380901890e+00
 1.4986201471e+00	 2.4502274565e-01	 3.2945725843e+00
 1.4957979805e+00	 2.6170000521e-01	 3.2291765316e+00
 1.4927792747e+00	 2.7840353445e-01	 3.1695136373e+00
 1.4895625809e+00	 2.9513015533e-01	 3.1121860077e+00
 1.4861465120e+00	 3.1187663578e-01	 3.0548320270e+00
 1.4825297449e+00	 3.2863969106e-01	 2.9963637084e+00
 1.5059304892e+00	 2.4621797856e-01	 3.2822073806e+00
 1.5030945560e+00	 2.6297659060e-01	 3.2142565883e+00
 1.5000611249e+00	 2.7976160047e-01	 3.1521780221e+00
 1.4968287399e+00	 2.9656981462e-01	 3.0935964810e+00
 1.4933960072e+00	 3.1339798522e-01	 3.0371556657e+00
 1.4897615973e+00	 3.3024281151e-01	 2.9827527489e+00
 1.5132408314e+00	 2.4741321146e-01	 3.2710307236e+00
 1.5103911315e+00	 2.6425317599e-01	 3.2013107795e+00
 1.5073429750e+00	 2.8111966650e-01	 3.1374312816e+00
 1.5040948988e+00	 2.9800947391e-01	 3.0777707278e+00
 1.5006455024e+00	 3.1491933466e-01	 3.0217102233e+00
 1.4969934497e+00	 3.3184593195e-01	 2.9698657299e+00
 1.5205511736e+00	 2.4860844437e-01	 3.2603853817e+00
 1.5176877070e+00	 2.6552976138e-01	 3.1896029032e+00
 1.5146248251e+00	 2.8247773252e-01	 3.1245162144e+00
 1.5113610577e+00	 2.9944913321e-01	 3.0639931171e+00
 1.5078949975e+00	 3.1644068411e-01	 3.0078887488e+00
 1.5042253022e+00	 3.3344905240e-01	 2.9572759608e+00
 1.5278615158e+00	 2.4980367728e-01	 3.2496202334e+00
 1.5249842825e+00	 2.6680634678e-01	 3.1784043040e+00
 1.5219066752e+00	 2.8383579854e-01	 3.1126836860e+00
 1.5186272167e+00	 3.0088879250e-01	 3.0515556227e+00
 1.5151444927e+00	 3.1796203355e-01	 2.9950903849e+00
 1.5114571546e+00	 3.3505217284e-01	 2.9445602179e+00
 1.5351718580e+00	 2.5099891018e-01	 3.2380901890e+00
 1.5322808580e+00	 2.6808293217e-01	 3.1669937881e+00
 1.5291885253e+00	 2.8519386456e-01	 3.1011925643e+00
 1.5258933756e+00	 3.0232845180e-01	 3.0397578084e+00
 1.5223939879e+00	 3.1948338299e-01	 2.9827204345e+00
 1.5186890070e+00	 3.3665529329e-01	 2.9312989251e+00
 1.4825297449e+00	 3.2863969106e-01	 2.9963637084e+00
 1.4787110226e+00	 3.4541598513e-01	 2.9155279802e+00
 1.4746891559e+00	 3.6220213210e-01	 2.8029361776e+00
 1.4704630258e+00	 3.7899469779e-01	 2.6763016873e+00
 1.4660315848e+00	 3.9579020140e-01	 2.5645682861e+00
 1.4613938594e+00	 4.1258511717e-01	 2.4875453586e+00
 1.4897615973e+00	 3.3024281151e-01	 2.9827527489e+00
 1.4859242471e+00	 3.4710094116e-01	 2.9076051530e+00
 1.4818827616e+00	 3.6396897177e-01	 2.7949470285e+00
 1.4776360161e+00	 3.8084345242e-01	 2.6638236997e+00
 1.4731829584e+00	 3.9772088531e-01	 2.5480711887e+00
 1.4685226099e+00	 4.1459772750e-01	 2.4676459660e+00
 1.4969934497e+00	 3.3184593195e-01	 2.9698657299e+00
 1.4931374716e+00	 3.4878589718e-01	 2.8997409360e+00
 1.4890763672e+00	 3.6573581144e-01	 2.7943321216e+00
 1.4848090065e+00	 3.8269220704e-01	 2.6691299810e+00
 1.4803343319e+00	 3.9965156922e-01	 2.5492037129e+00
 1.4756513604e+00	 4.1661033783e-01	 2.4610912847e+00
 1.5042253022e+00	 3.3344905240e-01	 2.9572759608e+00
 1.5003506961e+00	 3.5047085321e-01	 2.8897728496e+00
 1.4962699728e+00	 3.6750265111e-01	 2.7882081934e+00
 1.4919819969e+00	 3.8454096166e-01	 2.6692410275e+00
 1.4874857055e+00	 4.0158225313e-01	 2.5570226029e+00
 1.4827801110e+00	 4.1862294816e-01	 2.4681779764e+00
 1.5114571546e+00	 3.3505217284e-01	 2.9445602179e+00
 1.5075639206e+00	 3.5215580923e-01	 2.8774855024e+00
 1.5034635785e+00	 3.6926949077e-01	 2.7765538791e+00
 1.4991549872e+00	 3.8638971629e-01	 2.6598428707e+00
 1.4946370791e+00	 4.0351293704e-01	 2.5509710560e+00
 1.4899088615e+00	 4.2063555849e-01	 2.4671945348e+00
 1.5186890070e+00	 3.3665529329e-01	 2.9312989251e+00
 1.5147771451e+00	 3.5384076526e-01	 2.8626643398e+00
 1.5106571841e+00	 3.7103633044e-01	 2.7593563419e+00
 1.5063279776e+00	 3.8823847091e-01	 2.6411011969e+00
 1.5017884527e+00	 4.0544362095e-01	 2.5309778059e+00
 1.4970376120e+00	 4.2264816881e-01	 2.4471115352e+00
 1.4613938594e+00	 4.1258511717e-01	 2.4875453586e+00
 1.4565489515e+00	 4.2937587622e-01	 2.4266430178e+00
 1.4514960404e+00	 4.4615886838e-01	 2.3518948153e+00
 1.4462343845e+00	 4.6293044418e-01	 2.2644648598e+00
 1.4407633230e+00	 4.7968691687e-01	 2.1655462435e+00
 1.4350822774e+00	 4.9642456451e-01	 2.0562807651e+00
 1.4685226099e+00	 4.1459772750e-01	 2.4676459660e+00
 1.4636540683e+00	 4.3147039269e-01	 2.4056894500e+00
 1.4585765089e+00	 4.4833525310e-01	 2.3325679581e+00
 1.4532891864e+00	 4.6518864147e-01	 2.2482115046e+00
 1.4477914368e+00	 4.8202685305e-01	 2.1525849909e+00
 1.4420826787e+00	 4.9884614775e-01	 2.0456089407e+00
 1.4756513604e+00	 4.1661033783e-01	 2.4610912847e+00
 1.4707591851e+00	 4.3356490916e-01	 2.3933832508e+00
 1.4656569774e+00	 4.5051163782e-01	 2.3173629918e+00
 1.4603439883e+00	 4.6744683876e-01	 2.2321978867e+00
 1.4548195505e+00	 4.8436678923e-01	 2.1370865568e+00
 1.4490830801e+00	 5.0126773099e-01	 2.0311794110e+00
 1.4827801110e+00	 4.1862294816e-01	 2.4681779764e+00
 1.4778643020e+00	 4.3565942563e-01	 2.3906329904e+00
 1.4727374459e+00	 4.5268802255e-01	 2.3071074605e+00
 1.4673987901e+00	 4.6970503605e-01	 2.2170457537e+00
 1.4618476643e+00	 4.8670672541e-01	 2.1193354273e+00
 1.4560834814e+00	 5.0368931423e-01	 2.0128012912e+00
 1.4899088615e+00	 4.2063555849e-01	 2.4671945348e+00
 1.4849694188e+00	 4.3775394210e-01	 2.3940007242e+00
 1.4798179143e+00	 4.5486440727e-01	 2.3026036098e+00
 1.4744535920e+00	 4.7196323334e-01	 2.2033556529e+00
 1.4688757781e+00	 4.8904666159e-01	 2.0996016271e+00
 1.4630838828e+00	 5.0611089748e-01	 1.9902787409e+00
 1.4970376120e+00	 4.2264816881e-01	 2.4471115352e+00
 1.4920745356e+00	 4.3984845856e-01	 2.3773765888e+00
 1.4868983828e+00	 4.5704079200e-01	 2.2938852112e+00
 1.4815083939e+00	 4.7422143062e-01	 2.1917074194e+00
 1.4759038918e+00	 4.9138659777e-01	 2.0781413678e+00
 1.4700842841e+00	 5.0853248072e-01	 1.9634114407e+00
 1.4350822774e+00	 4.9642456451e-01	 2.0562807651e+00
 1.4291907532e+00	 5.1313963215e-01	 1.9392066362e+00
 1.4230883414e+00	 5.2982833409e-01	 1.8193765641e+00
 1.4167747200e+00	 5.4648685619e-01	 1.7013850270e+00
 1.4102496549e+00	 5.6311135826e-01	 1.5894566136e+00
 1.4035130021e+00	 5.7969797650e-01	 1.4873774136e+00
 1.4420826787e+00	 4.9884614775e-01	 2.0456089407e+00
 1.4361624154e+00	 5.1564275231e-01	 1.9286144127e+00
 1.4300302358e+00	 5.3241286255e-01	 1.8069915810e+00
 1.4236858161e+00	 5.4915264573e-01	 1.6864186343e+00
 1.4171289216e+00	 5.6585824293e-01	 1.5721771456e+00
 1.4103594070e+00	 5.8252577151e-01	 1.4690800130e+00
 1.4490830801e+00	 5.0126773099e-01	 2.0311794110e+00
 1.4431340776e+00	 5.1814587246e-01	 1.9146997338e+00
 1.4369721301e+00	 5.3499739101e-01	 1.7927726527e+00
 1.4305969123e+00	 5.5181843527e-01	 1.6715578243e+00
 1.4240081882e+00	 5.6860512761e-01	 1.5568037296e+00
 1.4172058119e+00	 5.8535356652e-01	 1.4537736896e+00
 1.4560834814e+00	 5.0368931423e-01	 2.0128012912e+00
 1.4501057398e+00	 5.2064899262e-01	 1.8968033872e+00
 1.4439140245e+00	 5.3758191947e-01	 1.7757550341e+00
 1.4375080085e+00	 5.5448422482e-01	 1.6557043072e+00
 1.4308874548e+00	 5.7135201228e-01	 1.5422855708e+00
 1.4240522168e+00	 5.8818136152e-01	 1.4406450773e+00
 1.4630838828e+00	 5.0611089748e-01	 1.9902787409e+00
 1.4570774020e+00	 5.2315211278e-01	 1.8742707004e+00
 1.4508559188e+00	 5.4016644792e-01	 1.7549850224e+00
 1.4444191047e+00	 5.5715001436e-01	 1.6377741672e+00
 1.4377667214e+00	 5.7409889695e-01	 1.5275862306e+00
 1.4308986217e+00	 5.9100915653e-01	 1.4288916260e+00
 1.4700842841e+00	 5.0853248072e-01	 1.9634114407e+00
 1.4640490642e+00	 5.2565523293e-01	 1.8464518488e+00
 1.4577978132e+00	 5.4275097638e-01	 1.7295201709e+00
 1.4513302009e+00	 5.5981580390e-01	 1.6166980592e+00
 1.4446459880e+00	 5.7684578163e-01	 1.5116838903e+00
 1.4377450266e+00	 5.9383695154e-01	 1.4177220165e+00
 1.4035130021e+00	 5.7969797650e-01	 1.4873774136e+00
 1.3965647079e+00	 5.9624282605e-01	 1.3842369663e+00
 1.3894048108e+00	 6.1274200350e-01	 1.2706425277e+00
 1.3820334420e+00	 6.2919158958e-01	 1.1517035328e+00
 1.3744508267e+00	 6.4558765183e-01	 1.0317055947e+00
 1.3666572848e+00	 6.6192624731e-01	 9.1406328032e-01
 1.4103594070e+00	 5.8252577151e-01	 1.4690800130e+00
 1.4033772187e+00	 5.9915132764e-01	 1.3662068339e+00
 1.3961823952e+00	 6.1573098888e-01	 1.2532125882e+00
 1.3887750685e+00	 6.3226081685e-01	 1.1347869989e+00
 1.3811554648e+00	 6.4873685989e-01	 1.0147855748e+00
 1.3733239057e+00	 6.6515515583e-01	 8.9618372009e-01
 1.4172058119e+00	 5.8535356652e-01	 1.4537736896e+00
 1.4101897295e+00	 6.0205982923e-01	 1.3512215430e+00
 1.4029599797e+00	 6.1871997426e-01	 1.2381666805e+00
 1.3955166950e+00	 6.3533004411e-01	 1.1192562917e+00
 1.3878601030e+00	 6.5188606795e-01	 9.9828373341e-01
 1.3799905266e+00	 6.6838406435e-01	 8.7814307605e-01
 1.4240522168e+00	 5.8818136152e-01	 1.4406450773e+00
 1.4170022403e+00	 6.0496833082e-01	 1.3387586408e+00
 1.4097375641e+00	 6.2170895965e-01	 1.2251807202e+00
 1.4022583216e+00	 6.3839927138e-01	 1.1048875843e+00
 1.3945647412e+00	 6.5503527600e-01	 9.8197287054e-01
 1.3866571475e+00	 6.7161297288e-01	 8.5960167934e-01
 1.4308986217e+00	 5.9100915653e-01	 1.4288916260e+00
 1.4238147510e+00	 6.0787683241e-01	 1.3283020306e+00
 1.4165151486e+00	 6.2469794503e-01	 1.2139343889e+00
 1.4089999481e+00	 6.4146849865e-01	 1.0914601931e+00
 1.4012693794e+00	 6.5818448406e-01	 9.6563037043e-01
 1.3933237684e+00	 6.7484188140e-01	 8.4022804438e-01
 1.4377450266e+00	 5.9383695154e-01	 1.4177220165e+00
 1.4306272618e+00	 6.1078533400e-01	 1.3193425644e+00
 1.4232927330e+00	 6.2768693041e-01	 1.2041118606e+00
 1.4157415747e+00	 6.4453772591e-01	 1.0787573931e+00
 1.4079740175e+00	 6.6133369212e-01	 9.4903905808e-01
 1.3999903893e+00	 6.7807078992e-01	 8.1969971650e-01
 1.3666572848e+00	 6.6192624731e-01	 9.1406328032e-01
 1.3586532320e+00	 6.7820342539e-01	 7.9981996594e-01
 1.3504391799e+00	 6.9441523062e-01	 6.8726468446e-01
 1.3420157369e+00	 7.1055770552e-01	 5.7443791939e-01
 1.3333836090e+00	 7.2662689354e-01	 4.5862268183e-01
 1.3245435994e+00	 7.4261884196e-01	 3.3594540333e-01
 1.3733239057e+00	 6.6515515583e-01	 8.9618372009e-01
 1.3652808088e+00	 6.8151173479e-01	 7.8069837205e-01
 1.3570266881e+00	 6.9780262199e-01	 6.6789061581e-01
 1.3485621552e+00	 7.1402384067e-01	 5.5624999743e-01
 1.3398879193e+00	 7.3017141497e-01	 4.4350411348e-01
 1.3310047877e+00	 7.4624137289e-01	 3.2329210983e-01
 1.3799905266e+00	 6.6838406435e-01	 8.7814307605e-01
 1.3719083855e+00	 6.8482004418e-01	 7.6148681078e-01
 1.3636141963e+00	 7.0119001336e-01	 6.4902164631e-01
 1.3551085734e+00	 7.1748997582e-01	 5.3945548990e-01
 1.3463922295e+00	 7.3371593640e-01	 4.3073329279e-01
 1.3374659760e+00	 7.4986390383e-01	 3.1115053452e-01
 1.3866571475e+00	 6.7161297288e-01	 8.5960167934e-01
 1.3785359622e+00	 6.8812835357e-01	 7.4169909574e-01
 1.3702017045e+00	 7.0457740473e-01	 6.3007182946e-01
 1.3616549916e+00	 7.2095611097e-01	 5.2341862856e-01
 1.3528965398e+00	 7.3726045783e-01	 4.1967769471e-01
 1.3439271642e+00	 7.5348643477e-01	 2.9919768983e-01
 1.3933237684e+00	 6.7484188140e-01	 8.4022804438e-01
 1.3851635390e+00	 6.9143666296e-01	 7.2086153322e-01
 1.3767892127e+00	 7.0796479610e-01	 6.1047117261e-01
 1.3682014099e+00	 7.2442224612e-01	 5.0752213845e-01
 1.3594008501e+00	 7.4080497926e-01	 4.0972443287e-01
 1.3503883525e+00	 7.5710896570e-01	 2.8712996718e-01
 1.3999903893e+00	 6.7807078992e-01	 8.1969971650e-01
 1.3917911157e+00	 6.9474497236e-01	 6.9851374512e-01
 1.3833767209e+00	 7.1135218747e-01	 5.8966645623e-01
 1.3747478281e+00	 7.2788838126e-01	 4.9116807577e-01
 1.3659051604e+00	 7.4434950070e-01	 3.9906639899e-01
 1.3568495408e+00	 7.6073149664e-01	 2.7466241838e-01
 1.3245435994e+00	 7.4261884196e-01	 3.3594540333e-01
 1.3154966095e+00	 7.5852960487e-01	 2.1334036402e-01
 1.3062436388e+00	 7.7435524614e-01	 1.0667967778e-01
 1.2967857848e+00	 7.9009184244e-01	 6.4996079011e-03
 1.2871242432e+00	 8.0573548622e-01	-9.6931503170e-02
 1.2772603075e+00	 8.2128228878e-01	-2.1351267264e-01
 1.3310047877e+00	 7.4624137289e-01	 3.2329210983e-01
 1.3219136661e+00	 7.6222974928e-01	 1.9582310338e-01
 1.3126155590e+00	 7.7813258881e-01	 8.6431441236e-02
 1.3031115691e+00	 7.9394594899e-01	-1.4611158310e-02
 1.2934028980e+00	 8.0966590323e-01	-1.1734954909e-01
 1.2834908456e+00	 8.2528854385e-01	-2.3204257807e-01
 1.3374659760e+00	 7.4986390383e-01	 3.1115053452e-01
 1.3283307228e+00	 7.6592989370e-01	 1.7962057492e-01
 1.3189874792e+00	 7.8190993147e-01	 6.7709833980e-02
 1.3094373534e+00	 7.9780005553e-01	-3.4378386402e-02
 1.2996815528e+00	 8.1359632023e-01	-1.3680963647e-01
 1.2897213837e+00	 8.2929479892e-01	-2.5001416480e-01
 1.3439271642e+00	 7.5348643477e-01	 2.9919768983e-01
 1.3347477794e+00	 7.6963003811e-01	 1.6449100976e-01
 1.3253593993e+00	 7.8568727413e-01	 5.0326602580e-02
 1.3157631377e+00	 8.0165416208e-01	-5.2967250133e-02
 1.3059602077e+00	 8.1752673724e-01	-1.5548703463e-01
 1.2959519218e+00	 8.3330105399e-01	-2.6764871615e-01
 1.3503883525e+00	 7.5710896570e-01	 2.8712996718e-01
 1.3411648360e+00	 7.7333018252e-01	 1.5021017674e-01
 1.3317313195e+00	 7.8946461680e-01	 3.4109791414e-02
 1.3220889220e+00	 8.0550826863e-01	-7.0527207264e-02
 1.3122388625e+00	 8.2145715424e-01	-1.7354116495e-01
 1.3021824599e+00	 8.3730730905e-01	-2.8515076704e-01
 1.3568495408e+00	 7.6073149664e-01	 2.7466241838e-01
 1.3475818927e+00	 7.7703032694e-01	 1.3657069196e-01
 1.3381032397e+00	 7.9324195946e-01	 1.8903068829e-02
 1.3284147064e+00	 8.0936237518e-01	-8.7192669591e-02
 1.3185175174e+00	 8.2538757125e-01	-1.9111628112e-01
 1.3084129980e+00	 8.4131356412e-01	-3.0270880996e-01
 1.2772603075e+00	 8.2128228878e-01	-2.1351267264e-01
 1.2671953692e+00	 8.3672838329e-01	-3.3207199045e-01
 1.2569309166e+00	 8.5206992780e-01	-4.3850600111e-01
 1.2464685353e+00	 8.6730310829e-01	-5.3843390687e-01
 1.2358099066e+00	 8.8242414169e-01	-6.3744802688e-01
 1.2249568076e+00	 8.9742927889e-01	-7.4097713597e-01
 1.2834908456e+00	 8.2528854385e-01	-2.3204257807e-01
 1.2733768100e+00	 8.4080998516e-01	-3.4890563183e-01
 1.2630622870e+00	 8.5622636647e-01	-4.5473535254e-01
 1.2525488696e+00	 8.7153385516e-01	-5.5481572962e-01
 1.2418382476e+00	 8.8672864970e-01	-6.5440501285e-01
 1.2309322067e+00	 9.0180698269e-01	-7.5859651851e-01
 1.2897213837e+00	 8.2929479892e-01	-2.5001416480e-01
 1.2795582508e+00	 8.4489158703e-01	-3.6532035959e-01
 1.2691936573e+00	 8.6038280515e-01	-4.7037321996e-01
 1.2586292039e+00	 8.7576460203e-01	-5.7026997581e-01
 1.2478665886e+00	 8.9103315771e-01	-6.7008259818e-01
 1.2369076057e+00	 9.0618468648e-01	-7.7471567454e-01
 1.2959519218e+00	 8.3330105399e-01	-2.6764871615e-01
 1.2857396917e+00	 8.4897318890e-01	-3.8159536187e-01
 1.2753250276e+00	 8.6453924382e-01	-4.8574135250e-01
 1.2647095382e+00	 8.7999534890e-01	-5.8514357380e-01
 1.2538949296e+00	 8.9533766572e-01	-6.8483351147e-01
 1.2428830048e+00	 9.1056239028e-01	-7.8967179915e-01
 1.3021824599e+00	 8.3730730905e-01	-2.8515076704e-01
 1.2919211325e+00	 8.5305479077e-01	-3.9799186857e-01
 1.2814563979e+00	 8.6869568249e-01	-5.0114254301e-01
 1.2707898725e+00	 8.8422609577e-01	-5.9976374989e-01
 1.2599232706e+00	 8.9964217373e-01	-6.9899032649e-01
 1.2488584038e+00	 9.1494009408e-01	-8.0378181377e-01
 1.3084129980e+00	 8.4131356412e-01	-3.0270880996e-01
 1.2981025733e+00	 8.5713639264e-01	-4.1475388715e-01
 1.2875877683e+00	 8.7285212116e-01	-5.1686138588e-01
 1.2768702069e+00	 8.8845684264e-01	-6.1443879909e-01
 1.2659516116e+00	 9.0394668173e-01	-7.1286623589e-01
 1.2548338029e+00	 9.1931779788e-01	-8.1734313199e-01
 1.2249568076e+00	 8.9742927889e-01	-7.4097713597e-01
 1.2139111099e+00	 9.1231480769e-01	-8.3932522900e-01
 1.2026747788e+00	 9.2707705583e-01	-9.2484679057e-01
 1.1912498723e+00	 9.4171239387e-01	-1.0053012184e+00
 1.1796385398e+00	 9.5621723813e-01	-1.0875966488e+00
 1.1678430209e+00	 9.7058805350e-01	-1.1776180412e+00
 1.2309322067e+00	 9.0180698269e-01	-7.5859651851e-01
 1.2198326275e+00	 9.1676512383e-01	-8.5711543033e-01
 1.2085414851e+00	 9.3159938293e-01	-9.4223727782e-01
 1.1970608473e+00	 9.4630611287e-01	-1.0221276377e+00
 1.1853928741e+00	 9.6088171246e-01	-1.1040892787e+00
 1.1735398161e+00	 9.7532262937e-01	-1.1943846996e+00
 1.2369076057e+00	 9.0618468648e-01	-7.7471567454e-01
 1.2257541451e+00	 9.2121543996e-01	-8.7343376783e-01
 1.2144081913e+00	 9.3612171004e-01	-9.5838483093e-01
 1.2028718223e+00	 9.5089983186e-01	-1.0380342669e+00
 1.1911472085e+00	 9.6554618679e-01	-1.1199707854e+00
 1.1792366114e+00	 9.8005720524e-01	-1.2107235121e+00
 1.2428830048e+00	 9.1056239028e-01	-7.8967179915e-01
 1.2316756627e+00	 9.2566575610e-01	-8.8858009494e-01
 1.2202748975e+00	 9.4064403714e-01	-9.7353210479e-01
 1.2086827973e+00	 9.5549355086e-01	-1.0531884590e+00
 1.1969015428e+00	 9.7021066112e-01	-1.1353169176e+00
 1.1849334066e+00	 9.8479178111e-01	-1.2266041640e+00
 1.2488584038e+00	 9.1494009408e-01	-8.0378181377e-01
 1.2375971803e+00	 9.3011607223e-01	-9.0283422039e-01
 1.2261416038e+00	 9.4516636424e-01	-9.8790225452e-01
 1.2144937723e+00	 9.6008726985e-01	-1.0677389016e+00
 1.2026558772e+00	 9.7487513546e-01	-1.1501858547e+00
 1.1906302018e+00	 9.8952635698e-01	-1.2419801035e+00
 1.2548338029e+00	 9.1931779788e-01	-8.1734313199e-01
 1.2435186980e+00	 9.3456638837e-01	-9.1645665484e-01
 1.2320083100e+00	 9.4968869134e-01	-1.0016996527e+00
 1.2203047473e+00	 9.6468098885e-01	-1.0818162946e+00
 1.2084102115e+00	 9.7953960979e-01	-1.1646188376e+00
 1.1963269970e+00	 9.9426093286e-01	-1.2567891159e+00
 1.1678430209e+00	 9.7058805350e-01	-1.1776180412e+00
 1.1558656441e+00	 9.8482135635e-01	-1.2718846948e+00
 1.1437088251e+00	 9.9891371722e-01	-1.3612584376e+00
 1.1313750655e+00	 1.0128617636e+00	-1.4408741644e+00
 1.1188669510e+00	 1.0266621826e+00	-1.5038868281e+00
 1.1061871493e+00	 1.0403117234e+00	-1.5417918104e+00
 1.1735398161e+00	 9.7532262937e-01	-1.1943846996e+00
 1.1615040131e+00	 9.8962536297e-01	-1.2887450089e+00
 1.1492878925e+00	 1.0037864671e+00	-1.3772773132e+00
 1.1368939683e+00	 1.0178025527e+00	-1.4555130473e+00
 1.1243248385e+00	 1.0316702908e+00	-1.5169789152e+00
 1.1115831841e+00	 1.0453864147e+00	-1.5530418004e+00
 1.1792366114e+00	 9.8005720524e-01	-1.2107235121e+00
 1.1671423821e+00	 9.9442936958e-01	-1.3052206689e+00
 1.1548669600e+00	 1.0086592169e+00	-1.3928789522e+00
 1.1424128711e+00	 1.0227433418e+00	-1.4696365496e+00
 1.1297827261e+00	 1.0366783990e+00	-1.5294076248e+00
 1.1169792190e+00	 1.0504611061e+00	-1.5639210245e+00
 1.1849334066e+00	 9.8479178111e-01	-1.2266041640e+00
 1.1727807511e+00	 9.9923337620e-01	-1.3211920655e+00
 1.1604460274e+00	 1.0135319667e+00	-1.4079013560e+00
 1.1479317738e+00	 1.0276841309e+00	-1.4830873898e+00
 1.1352406137e+00	 1.0416865072e+00	-1.5410676557e+00
 1.1223752539e+00	 1.0555357974e+00	-1.5739541206e+00
 1.1906302018e+00	 9.8952635698e-01	-1.2419801035e+00
 1.1784191201e+00	 1.0040373828e+00	-1.3365243319e+00
 1.1660250949e+00	 1.0184047166e+00	-1.4221673275e+00
 1.1534506766e+00	 1.0326249200e+00	-1.4956922342e+00
 1.1406985012e+00	 1.0466946154e+00	-1.5518358957e+00
 1.1277712888e+00	 1.0606104887e+00	-1.5831146735e+00
 1.1963269970e+00	 9.9426093286e-01	-1.2567891159e+00
 1.1840574891e+00	 1.0088413894e+00	-1.3510678676e+00
 1.1716041623e+00	 1.0232774664e+00	-1.4354849653e+00
 1.1589695793e+00	 1.0375657091e+00	-1.5072621813e+00
 1.1461563888e+00	 1.0517027236e+00	-1.5615719161e+00
 1.1331673236e+00	 1.0656851801e+00	-1.5913563268e+00
 1.1061871493e+00	 1.0403117234e+00	-1.5417918104e+00
 1.0933384087e+00	 1.0538072002e+00	-1.5873547351e+00
 1.0803235560e+00	 1.0671454941e+00	-1.6633330166e+00
 1.0671454941e+00	 1.0803235560e+00	-1.7480259591e+00
 1.0538072002e+00	 1.0933384087e+00	-1.8193450397e+00
 1.0403117234e+00	 1.1061871493e+00	-1.8550767896e+00
 1.1115831841e+00	 1.0453864147e+00	-1.5530418004e+00
 1.0986717668e+00	 1.0589477231e+00	-1.5968499998e+00
 1.0855934270e+00	 1.0723510818e+00	-1.6738287905e+00
 1.0723510818e+00	 1.0855934270e+00	-1.7609785689e+00
 1.0589477231e+00	 1.0986717668e+00	-1.8349002392e+00
 1.0453864147e+00	 1.1115831841e+00	-1.8720614780e+00
 1.1169792190e+00	 1.0504611061e+00	-1.5639210245e+00
 1.1040051249e+00	 1.0640882460e+00	-1.6062490104e+00
 1.0908632980e+00	 1.0775566696e+00	-1.6840805535e+00
 1.0775566696e+00	 1.0908632980e+00	-1.7737491420e+00
 1.0640882460e+00	 1.1040051249e+00	-1.8506562608e+00
 1.0504611061e+00	 1.1169792190e+00	-1.8883520362e+00
 1.1223752539e+00	 1.0555357974e+00	-1.5739541206e+00
 1.1093384830e+00	 1.0692287689e+00	-1.6153402975e+00
 1.0961331690e+00	 1.0827622574e+00	-1.6940213758e+00
 1.0827622574e+00	 1.0961331690e+00	-1.7864058146e+00
 1.0692287689e+00	 1.1093384830e+00	-1.8668045753e+00
 1.0555357974e+00	 1.1223752539e+00	-1.9025138940e+00
 1.1277712888e+00	 1.0606104887e+00	-1.5831146735e+00
 1.1146718411e+00	 1.0743692919e+00	-1.6238682824e+00
 1.1014030400e+00	 1.0879678452e+00	-1.7035592032e+00
 1.0879678452e+00	 1.1014030400e+00	-1.7989911650e+00
 1.0743692919e+00	 1.1146718411e+00	-1.8826295791e+00
 1.0606104887e+00	 1.1277712888e+00	-1.9141284269e+00
 1.1331673236e+00	 1.0656851801e+00	-1.5913563268e+00
 1.1200051992e+00	 1.0795098148e+00	-1.6316607242e+00
 1.1066729110e+00	 1.0931734329e+00	-1.7125761825e+00
 1.0931734329e+00	 1.1066729110e+00	-1.8115216000e+00
 1.0795098148e+00	 1.1200051992e+00	-1.8951286596e+00
 1.0656851801e+00	 1.1331673236e+00	-1.9227823166e+00
 1.0403117234e+00	 1.1061871493e+00	-1.8550767896e+00
 1.0266621826e+00	 1.1188669510e+00	-1.8782385955e+00
 1.0128617636e+00	 1.1313750655e+00	-1.9132461443e+00
 9.9891371722e-01	 1.1437088251e+00	-1.9527137270e+00
 9.8482135635e-01	 1.1558656441e+00	-1.9922510456e+00
 9.7058805350e-01	 1.1678430209e+00	-2.0293269291e+00
 1.0453864147e+00	 1.1115831841e+00	-1.8720614780e+00
 1.0316702908e+00	 1.1243248385e+00	-1.8910612340e+00
 1.0178025527e+00	 1.1368939683e+00	-1.9220126371e+00
 1.0037864671e+00	 1.1492878925e+00	-1.9586915098e+00
 9.8962536297e-01	 1.1615040131e+00	-1.9968688588e+00
 9.7532262937e-01	 1.1735398161e+00	-2.0341809374e+00
 1.0504611061e+00	 1.1169792190e+00	-1.8883520362e+00
 1.0366783990e+00	 1.1297827261e+00	-1.9027829835e+00
 1.0227433418e+00	 1.1424128711e+00	-1.9302989267e+00
 1.0086592169e+00	 1.1548669600e+00	-1.9647255671e+00
 9.9442936958e-01	 1.1671423821e+00	-2.0018927181e+00
 9.8005720524e-01	 1.1792366114e+00	-2.0394995652e+00
 1.0555357974e+00	 1.1223752539e+00	-1.9025138940e+00
 1.0416865072e+00	 1.1352406137e+00	-1.9130407522e+00
 1.0276841309e+00	 1.1479317738e+00	-1.9377750925e+00
 1.0135319667e+00	 1.1604460274e+00	-1.9704938072e+00
 9.9923337620e-01	 1.1727807511e+00	-2.0069847701e+00
 9.8479178111e-01	 1.1849334066e+00	-2.0449073949e+00
 1.0606104887e+00	 1.1277712888e+00	-1.9141284269e+00
 1.0466946154e+00	 1.1406985012e+00	-1.9214748182e+00
 1.0326249200e+00	 1.1534506766e+00	-1.9441136857e+00
 1.0184047166e+00	 1.1660250949e+00	-1.9756761150e+00
 1.0040373828e+00	 1.1784191201e+00	-2.0118090256e+00
 9.8952635698e-01	 1.1906302018e+00	-2.0500311203e+00
 1.0656851801e+00	 1.1331673236e+00	-1.9227823166e+00
 1.0517027236e+00	 1.1461563888e+00	-1.9277294410e+00
 1.0375657091e+00	 1.1589695793e+00	-1.9489903276e+00
 1.0232774664e+00	 1.1716041623e+00	-1.9799549283e+00
 1.0088413894e+00	 1.1840574891e+00	-2.0160319024e+00
 9.9426093286e-01	 1.1963269970e+00	-2.0545000459e+00
 9.7058805350e-01	 1.1678430209e+00	-2.0293269291e+00
 9.5621723813e-01	 1.1796385398e+00	-2.0587274187e+00
 9.4171239387e-01	 1.1912498723e+00	-2.0779270452e+00
 9.2707705583e-01	 1.2026747788e+00	-2.0905591506e+00
 9.1231480769e-01	 1.2139111099e+00	-2.1012251744e+00
 8.9742927889e-01	 1.2249568076e+00	-2.1153421901e+00
 9.7532262937e-01	 1.1735398161e+00	-2.0341809374e+00
 9.6088171246e-01	 1.1853928741e+00	-2.0643654386e+00
 9.4630611287e-01	 1.1970608473e+00	-2.0837944197e+00
 9.3159938293e-01	 1.2085414851e+00	-2.0962195077e+00
 9.1676512383e-01	 1.2198326275e+00	-2.1063969204e+00
 9.0180698269e-01	 1.2309322067e+00	-2.1199298565e+00
 9.8005720524e-01	 1.1792366114e+00	-2.0394995652e+00
 9.6554618679e-01	 1.1911472085e+00	-2.0703568320e+00
 9.5089983186e-01	 1.2028718223e+00	-2.0899367874e+00
 9.3612171004e-01	 1.2144081913e+00	-2.1021248621e+00
 9.2121543996e-01	 1.2257541451e+00	-2.1118467467e+00
 9.0618468648e-01	 1.2369076057e+00	-2.1249054721e+00
 9.8479178111e-01	 1.1849334066e+00	-2.0449073949e+00
 9.7021066112e-01	 1.1969015428e+00	-2.0762736217e+00
 9.5549355086e-01	 1.2086827973e+00	-2.0958642468e+00
 9.4064403714e-01	 1.2202748975e+00	-2.1077140785e+00
 9.2566575610e-01	 1.2316756627e+00	-2.1169330384e+00
 9.1056239028e-01	 1.2428830048e+00	-2.1295377671e+00
 9.8952635698e-01	 1.1906302018e+00	-2.0500311203e+00
 9.7487513546e-01	 1.2026558772e+00	-2.0816904296e+00
 9.6008726985e-01	 1.2144937723e+00	-2.1010901288e+00
 9.4516636424e-01	 1.2261416038e+00	-2.1124300432e+00
 9.3011607223e-01	 1.2375971803e+00	-2.1210191585e+00
 9.1494009408e-01	 1.2488584038e+00	-2.1331015833e+00
 9.9426093286e-01	 1.1963269970e+00	-2.0545000459e+00
 9.7953960979e-01	 1.2084102115e+00	-2.0861849275e+00
 9.6468098885e-01	 1.2203047473e+00	-2.1051313941e+00
 9.4968869134e-01	 1.2320083100e+00	-2.1157200046e+00
 9.3456638837e-01	 1.2435186980e+00	-2.1234737272e+00
 9.1931779788e-01	 1.2548338029e+00	-2.1348780871e+00
 8.9742927889e-01	 1.2249568076e+00	-2.1153421901e+00
 8.8242414169e-01	 1.2358099066e+00	-2.1279698700e+00
 8.6730310829e-01	 1.2464685353e+00	-2.1325642964e+00
 8.5206992780e-01	 1.2569309166e+00	-2.1328810151e+00
 8.3672838329e-01	 1.2671953692e+00	-2.1328655483e+00
 8.2128228878e-01	 1.2772603075e+00	-2.1365225309e+00
 9.0180698269e-01	 1.2309322067e+00	-2.1199298565e+00
 8.8672864970e-01	 1.2418382476e+00	-2.1317222705e+00
 8.7153385516e-01	 1.2525488696e+00	-2.1349847161e+00
 8.5622636647e-01	 1.2630622870e+00	-2.1335376027e+00
 8.4080998516e-01	 1.2733768100e+00	-2.1313787622e+00
 8.2528854385e-01	 1.2834908456e+00	-2.1325487474e+00
 9.0618468648e-01	 1.2369076057e+00	-2.1249054721e+00
 8.9103315771e-01	 1.2478665886e+00	-2.1359742563e+00
 8.7576460203e-01	 1.2586292039e+00	-2.1379449749e+00
 8.6038280515e-01	 1.2691936573e+00	-2.1347241042e+00
 8.4489158703e-01	 1.2795582508e+00	-2.1303901841e+00
 8.2929479892e-01	 1.2897213837e+00	-2.1290550535e+00
 9.1056239028e-01	 1.2428830048e+00	-2.1295377671e+00
 8.9533766572e-01	 1.2538949296e+00	-2.1399321637e+00
 8.7999534890e-01	 1.2647095382e+00	-2.1406526443e+00
 8.6453924382e-01	 1.2753250276e+00	-2.1357128600e+00
 8.4897318890e-01	 1.2857396917e+00	-2.1293002722e+00
 8.3330105399e-01	 1.2959519218e+00	-2.1256330986e+00
 9.1494009408e-01	 1.2488584038e+00	-2.1331015833e+00
 8.9964217373e-01	 1.2599232706e+00	-2.1428090647e+00
 8.8422609577e-01	 1.2707898725e+00	-2.1423214609e+00
 8.6869568249e-01	 1.2814563979e+00	-2.1357806232e+00
 8.5305479077e-01	 1.2919211325e+00	-2.1275109763e+00
 8.3730730905e-01	 1.3021824599e+00	-2.1218719467e+00
 9.1931779788e-01	 1.2548338029e+00	-2.1348780871e+00
 9.0394668173e-01	 1.2659516116e+00	-2.1438249273e+00
 8.8845684264e-01	 1.2768702069e+00	-2.1421714637e+00
 8.7285212116e-01	 1.2875877683e+00	-2.1342087020e+00
 8.5713639264e-01	 1.2981025733e+00	-2.1244259134e+00
 8.4131356412e-01	 1.3084129980e+00	-2.1173583160e+00
 8.2128228878e-01	 1.2772603075e+00	-2.1365225309e+00
 8.0573548622e-01	 1.2871242432e+00	-2.1316102709e+00
 7.9009184244e-01	 1.2967857848e+00	-2.1105222968e+00
 7.7435524614e-01	 1.3062436388e+00	-2.0841297770e+00
 7.5852960487e-01	 1.3154966095e+00	-2.0631383804e+00
 7.4261884196e-01	 1.3245435994e+00	-2.0579818287e+00
 8.2528854385e-01	 1.2834908456e+00	-2.1325487474e+00
 8.0966590323e-01	 1.2934028980e+00	-2.1259053848e+00
 7.9394594899e-01	 1.3031115691e+00	-2.1046691862e+00
 7.7813258881e-01	 1.3126155590e+00	-2.0793090056e+00
 7.6222974928e-01	 1.3219136661e+00	-2.0601067937e+00
 7.4624137289e-01	 1.3310047877e+00	-2.0570496589e+00
 8.2929479892e-01	 1.2897213837e+00	-2.1290550535e+00
 8.1359632023e-01	 1.2996815528e+00	-2.1206827524e+00
 7.9780005553e-01	 1.3094373534e+00	-2.0992905422e+00
 7.8190993147e-01	 1.3189874792e+00	-2.0749197405e+00
 7.6592989370e-01	 1.3283307228e+00	-2.0573897514e+00
 7.4986390383e-01	 1.3374659760e+00	-2.0561888030e+00
 8.3330105399e-01	 1.2959519218e+00	-2.1256330986e+00
 8.1752673724e-01	 1.3059602077e+00	-2.1157041068e+00
 8.0165416208e-01	 1.3157631377e+00	-2.0942135246e+00
 7.8568727413e-01	 1.3253593993e+00	-2.0707505840e+00
 7.6963003811e-01	 1.3347477794e+00	-2.0546340817e+00
 7.5348643477e-01	 1.3439271642e+00	-2.0548019564e+00
 8.3730730905e-01	 1.3021824599e+00	-2.1218719467e+00
 8.2145715424e-01	 1.3122388625e+00	-2.1107249838e+00
 8.0550826863e-01	 1.3220889220e+00	-2.0892575547e+00
 7.8946461680e-01	 1.3317313195e+00	-2.0665829234e+00
 7.7333018252e-01	 1.3411648360e+00	-2.0514819759e+00
 7.5710896570e-01	 1.3503883525e+00	-2.0522917985e+00
 8.4131356412e-01	 1.3084129980e+00	-2.1173583160e+00
 8.2538757125e-01	 1.3185175174e+00	-2.1054950143e+00
 8.0936237518e-01	 1.3284147064e+00	-2.0842346130e+00
 7.9324195946e-01	 1.3381032397e+00	-2.0621911857e+00
 7.7703032694e-01	 1.3475818927e+00	-2.0475711539e+00
 7.6073149664e-01	 1.3568495408e+00	-2.0480610227e+00
 7.4261884196e-01	 1.3245435994e+00	-2.0579818287e+00
 7.2662689354e-01	 1.3333836090e+00	-2.0502457495e+00
 7.1055770552e-01	 1.3420157369e+00	-2.0265004573e+00
 6.9441523062e-01	 1.3504391799e+00	-1.9940588494e+00
 6.7820342539e-01	 1.3586532320e+00	-1.9590535731e+00
 6.6192624731e-01	 1.3666572848e+00	-1.9266684908e+00
 7.4624137289e-01	 1.3310047877e+00	-2.0570496589e+00
 7.3017141497e-01	 1.3398879193e+00	-2.0463857991e+00
 7.1402384067e-01	 1.3485621552e+00	-2.0187541811e+00
 6.9780262199e-01	 1.3570266881e+00	-1.9832698045e+00
 6.8151173479e-01	 1.3652808088e+00	-1.9462733223e+00
 6.6515515583e-01	 1.3733239057e+00	-1.9131170202e+00
 7.4986390383e-01	 1.3374659760e+00	-2.0561888030e+00
 7.3371593640e-01	 1.3463922295e+00	-2.0438261006e+00
 7.1748997582e-01	 1.3551085734e+00	-2.0120568736e+00
 7.0119001336e-01	 1.3636141963e+00	-1.9732568306e+00
 6.8482004418e-01	 1.3719083855e+00	-1.9340239787e+00
 6.6838406435e-01	 1.3799905266e+00	-1.8999455116e+00
 7.5348643477e-01	 1.3439271642e+00	-2.0548019564e+00
 7.3726045783e-01	 1.3528965398e+00	-2.0416455254e+00
 7.2095611097e-01	 1.3616549916e+00	-2.0054214914e+00
 7.0457740473e-01	 1.3702017045e+00	-1.9631231478e+00
 6.8812835357e-01	 1.3785359622e+00	-1.9216543039e+00
 6.7161297288e-01	 1.3866571475e+00	-1.8869024603e+00
 7.5710896570e-01	 1.3503883525e+00	-2.0522917985e+00
 7.4080497926e-01	 1.3594008501e+00	-2.0389292762e+00
 7.2442224612e-01	 1.3682014099e+00	-1.9978681375e+00
 7.0796479610e-01	 1.3767892127e+00	-1.9519767822e+00
 6.9143666296e-01	 1.3851635390e+00	-1.9085126067e+00
 6.7484188140e-01	 1.3933237684e+00	-1.8737277587e+00
 7.6073149664e-01	 1.3568495408e+00	-2.0480610227e+00
 7.4434950070e-01	 1.3659051604e+00	-2.0341182404e+00
 7.2788838126e-01	 1.3747478281e+00	-1.9884244661e+00
 7.1135218747e-01	 1.3833767209e+00	-1.9389309790e+00
 6.9474497236e-01	 1.3917911157e+00	-1.8939472337e+00
 6.7807078992e-01	 1.3999903893e+00	-1.8601533347e+00
 6.6192624731e-01	 1.3666572848e+00	-1.9266684908e+00
 6.4558765183e-01	 1.3744508267e+00	-1.8983868127e+00
 6.2919158958e-01	 1.3820334420e+00	-1.8716542664e+00
 6.1274200350e-01	 1.3894048108e+00	-1.8441471376e+00
 5.9624282605e-01	 1.3965647079e+00	-1.8125830407e+00
 5.7969797650e-01	 1.4035130021e+00	-1.7727866752e+00
 6.6515515583e-01	 1.3733239057e+00	-1.9131170202e+00
 6.4873685989e-01	 1.3811554648e+00	-1.8845786792e+00
 6.3226081685e-01	 1.3887750685e+00	-1.8573488389e+00
 6.1573098888e-01	 1.3961823952e+00	-1.8291806009e+00
 5.9915132764e-01	 1.4033772187e+00	-1.7968853550e+00
 5.8252577151e-01	 1.4103594070e+00	-1.7563983297e+00
 6.6838406435e-01	 1.3799905266e+00	-1.8999455116e+00
 6.5188606795e-01	 1.3878601030e+00	-1.8712813834e+00
 6.3533004411e-01	 1.3955166950e+00	-1.8439807118e+00
 6.1871997426e-01	 1.4029599797e+00	-1.8156727111e+00
 6.0205982923e-01	 1.4101897295e+00	-1.7830371184e+00
 5.8535356652e-01	 1.4172058119e+00	-1.7418703955e+00
 6.7161297288e-01	 1.3866571475e+00	-1.8869024603e+00
 6.5503527600e-01	 1.3945647412e+00	-1.8586077835e+00
 6.3839927138e-01	 1.4022583216e+00	-1.8318051322e+00
 6.2170895965e-01	 1.4097375641e+00	-1.8038025042e+00
 6.0496833082e-01	 1.4170022403e+00	-1.7709261374e+00
 5.8818136152e-01	 1.4240522168e+00	-1.7285882125e+00
 6.7484188140e-01	 1.3933237684e+00	-1.8737277587e+00
 6.5818448406e-01	 1.4012693794e+00	-1.8466547284e+00
 6.4146849865e-01	 1.4089999481e+00	-1.8210582508e+00
 6.2469794503e-01	 1.4165151486e+00	-1.7937310937e+00
 6.0787683241e-01	 1.4238147510e+00	-1.7604276671e+00
 5.9100915653e-01	 1.4308986217e+00	-1.7159340679e+00
 6.7807078992e-01	 1.3999903893e+00	-1.8601533347e+00
 6.6133369212e-01	 1.4079740175e+00	-1.8355038258e+00
 6.4453772591e-01	 1.4157415747e+00	-1.8119579197e+00
 6.2768693041e-01	 1.4232927330e+00	-1.7856023976e+00
 6.1078533400e-01	 1.4306272618e+00	-1.7514049675e+00
 5.9383695154e-01	 1.4377450266e+00	-1.7032874855e+00
 5.7969797650e-01	 1.4035130021e+00	-1.7727866752e+00
 5.6311135826e-01	 1.4102496549e+00	-1.7305103662e+00
 5.4648685619e-01	 1.4167747200e+00	-1.6933268542e+00
 5.2982833409e-01	 1.4230883414e+00	-1.6587724806e+00
 5.1313963215e-01	 1.4291907532e+00	-1.6239204149e+00
 4.9642456451e-01	 1.4350822774e+00	-1.5854571118e+00
 5.8252577151e-01	 1.4103594070e+00	-1.7563983297e+00
 5.6585824293e-01	 1.4171289216e+00	-1.7140966057e+00
 5.4915264573e-01	 1.4236858161e+00	-1.6776591120e+00
 5.3241286255e-01	 1.4300302358e+00	-1.6439250553e+00
 5.1564275231e-01	 1.4361624154e+00	-1.6092168072e+00
 4.9884614775e-01	 1.4420826787e+00	-1.5694200044e+00
 5.8535356652e-01	 1.4172058119e+00	-1.7418703955e+00
 5.6860512761e-01	 1.4240081882e+00	-1.6987859944e+00
 5.5181843527e-01	 1.4305969123e+00	-1.6616886411e+00
 5.3499739101e-01	 1.4369721301e+00	-1.6272341576e+00
 5.1814587246e-01	 1.4431340776e+00	-1.5915311684e+00
 5.0126773099e-01	 1.4490830801e+00	-1.5502232629e+00
 5.8818136152e-01	 1.4240522168e+00	-1.7285882125e+00
 5.7135201228e-01	 1.4308874548e+00	-1.6834931309e+00
 5.5448422482e-01	 1.4375080085e+00	-1.6441259034e+00
 5.3758191947e-01	 1.4439140245e+00	-1.6074643307e+00
 5.2064899262e-01	 1.4501057398e+00	-1.5699317200e+00
 5.0368931423e-01	 1.4560834814e+00	-1.5274795380e+00
 5.9100915653e-01	 1.4308986217e+00	-1.7159340679e+00
 5.7409889695e-01	 1.4377667214e+00	-1.6671385406e+00
 5.5715001436e-01	 1.4444191047e+00	-1.6236912539e+00
 5.4016644792e-01	 1.4508559188e+00	-1.5833891277e+00
 5.2315211278e-01	 1.4570774020e+00	-1.5434901247e+00
 5.0611089748e-01	 1.4630838828e+00	-1.5007948375e+00
 5.9383695154e-01	 1.4377450266e+00	-1.7032874855e+00
 5.7684578163e-01	 1.4446459880e+00	-1.6486487117e+00
 5.5981580390e-01	 1.4513302009e+00	-1.5991148460e+00
 5.4275097638e-01	 1.4577978132e+00	-1.5537910020e+00
 5.2565523293e-01	 1.4640490642e+00	-1.5112814761e+00
 5.0853248072e-01	 1.4700842841e+00	-1.4697687246e+00
 4.9642456451e-01	 1.4350822774e+00	-1.5854571118e+00
 4.7968691687e-01	 1.4407633230e+00	-1.5433467146e+00
 4.6293044418e-01	 1.4462343845e+00	-1.5009403766e+00
 4.4615886838e-01	 1.4514960404e+00	-1.4595825587e+00
 4.2937587622e-01	 1.4565489515e+00	-1.4204397741e+00
 4.1258511717e-01	 1.4613938594e+00	-1.3845787957e+00
 4.9884614775e-01	 1.4420826787e+00	-1.5694200044e+00
 4.8202685305e-01	 1.4477914368e+00	-1.5239684300e+00
 4.6518864147e-01	 1.4532891864e+00	-1.4770084062e+00
 4.4833525310e-01	 1.4585765089e+00	-1.4310436174e+00
 4.3147039269e-01	 1.4636540683e+00	-1.3884082248e+00
 4.1459772750e-01	 1.4685226099e+00	-1.3513440984e+00
 5.0126773099e-01	 1.4490830801e+00	-1.5502232629e+00
 4.8436678923e-01	 1.4548195505e+00	-1.5028536322e+00
 4.6744683876e-01	 1.4603439883e+00	-1.4543085361e+00
 4.5051163782e-01	 1.4656569774e+00	-1.4077733377e+00
 4.3356490916e-01	 1.4707591851e+00	-1.3662611200e+00
 4.1661033783e-01	 1.4756513604e+00	-1.3326902206e+00
 5.0368931423e-01	 1.4560834814e+00	-1.5274795380e+00
 4.8670672541e-01	 1.4618476643e+00	-1.4802004764e+00
 4.6970503605e-01	 1.4673987901e+00	-1.4334765125e+00
 4.5268802255e-01	 1.4727374459e+00	-1.3907042206e+00
 4.3565942563e-01	 1.4778643020e+00	-1.3550940251e+00
 4.1862294816e-01	 1.4827801110e+00	-1.3291351672e+00
 5.0611089748e-01	 1.4630838828e+00	-1.5007948375e+00
 4.8904666159e-01	 1.4688757781e+00	-1.4561896959e+00
 4.7196323334e-01	 1.4744535920e+00	-1.4151227998e+00
 4.5486440727e-01	 1.4798179143e+00	-1.3807384092e+00
 4.3775394210e-01	 1.4849694188e+00	-1.3513309526e+00
 4.2063555849e-01	 1.4899088615e+00	-1.3175926521e+00
 5.0853248072e-01	 1.4700842841e+00	-1.4697687246e+00
 4.9138659777e-01	 1.4759038918e+00	-1.4309850276e+00
 4.7422143062e-01	 1.4815083939e+00	-1.3998328734e+00
 4.5704079200e-01	 1.4868983828e+00	-1.3671458624e+00
 4.3984845856e-01	 1.4920745356e+00	-1.3269079846e+00
 4.2264816881e-01	 1.4970376120e+00	-1.2861337284e+00
 4.1258511717e-01	 1.4613938594e+00	-1.3845787957e+00
 3.9579020140e-01	 1.4660315848e+00	-1.3547441780e+00
 3.7899469779e-01	 1.4704630258e+00	-1.3190352650e+00
 3.6220213210e-01	 1.4746891559e+00	-1.2658510054e+00
 3.4541598513e-01	 1.4787110226e+00	-1.2326425763e+00
 3.2863969106e-01	 1.4825297449e+00	-1.2125777270e+00
 4.1459772750e-01	 1.4685226099e+00	-1.3513440984e+00
 3.9772088531e-01	 1.4731829584e+00	-1.3237727204e+00
 3.8084345242e-01	 1.4776360161e+00	-1.2935506827e+00
 3.6396897177e-01	 1.4818827616e+00	-1.2446881183e+00
 3.4710094116e-01	 1.4859242471e+00	-1.2085139930e+00
 3.3024281151e-01	 1.4897615973e+00	-1.1822080166e+00
 4.1661033783e-01	 1.4756513604e+00	-1.3326902206e+00
 3.9965156922e-01	 1.4803343319e+00	-1.3116416567e+00
 3.8269220704e-01	 1.4848090065e+00	-1.2869033865e+00
 3.6573581144e-01	 1.4890763672e+00	-1.2323014463e+00
 3.4878589718e-01	 1.4931374716e+00	-1.1853278180e+00
 3.3184593195e-01	 1.4969934497e+00	-1.1534509324e+00
 4.1862294816e-01	 1.4827801110e+00	-1.3291351672e+00
 4.0158225313e-01	 1.4874857055e+00	-1.3069387784e+00
 3.8454096166e-01	 1.4919819969e+00	-1.2748317848e+00
 3.6750265111e-01	 1.4962699728e+00	-1.2150072632e+00
 3.5047085321e-01	 1.5003506961e+00	-1.1606966935e+00
 3.3344905240e-01	 1.5042253022e+00	-1.1257229683e+00
 4.2063555849e-01	 1.4899088615e+00	-1.3175926521e+00
 4.0351293704e-01	 1.4946370791e+00	-1.2877674639e+00
 3.8638971629e-01	 1.4991549872e+00	-1.2526657260e+00
 3.6926949077e-01	 1.5034635785e+00	-1.1926729610e+00
 3.5215580923e-01	 1.5075639206e+00	-1.1342825255e+00
 3.3505217284e-01	 1.5114571546e+00	-1.0984380445e+00
 4.2264816881e-01	 1.4970376120e+00	-1.2861337284e+00
 4.0544362095e-01	 1.5017884527e+00	-1.2539187186e+00
 3.8823847091e-01	 1.5063279776e+00	-1.2204757516e+00
 3.7103633044e-01	 1.5106571841e+00	-1.1650977137e+00
 3.5384076526e-01	 1.5147771451e+00	-1.1057416880e+00
 3.3665529329e-01	 1.5186890070e+00	-1.0710079960e+00
 3.2863969106e-01	 1.4825297449e+00	-1.2125777270e+00
 3.1187663578e-01	 1.4861465120e+00	-1.1899546456e+00
 2.9513015533e-01	 1.4895625809e+00	-1.1624386003e+00
 2.7840353445e-01	 1.4927792747e+00	-1.1317778572e+00
 2.6170000521e-01	 1.4957979805e+00	-1.1007183786e+00
 2.4502274565e-01	 1.4986201471e+00	-1.0728099827e+00
 3.3024281151e-01	 1.4897615973e+00	-1.1822080166e+00
 3.1339798522e-01	 1.4933960072e+00	-1.1561435193e+00
 2.9656981462e-01	 1.4968287399e+00	-1.1279653737e+00
 2.7976160047e-01	 1.5000611249e+00	-1.0982353031e+00
 2.6297659060e-01	 1.5030945560e+00	-1.0685165042e+00
 2.4621797856e-01	 1.5059304892e+00	-1.0411822791e+00
 3.3184593195e-01	 1.4969934497e+00	-1.1534509324e+00
 3.1491933466e-01	 1.5006455024e+00	-1.1255846324e+00
 2.9800947391e-01	 1.5040948988e+00	-1.0973892575e+00
 2.8111966650e-01	 1.5073429750e+00	-1.0685004092e+00
 2.6425317599e-01	 1.5103911315e+00	-1.0395634204e+00
 2.4741321146e-01	 1.5132408314e+00	-1.0120438977e+00
 3.3344905240e-01	 1.5042253022e+00	-1.1257229683e+00
 3.1644068411e-01	 1.5078949975e+00	-1.0974712727e+00
 2.9944913321e-01	 1.5113610577e+00	-1.0697770930e+00
 2.8247773252e-01	 1.5146248251e+00	-1.0416059460e+00
 2.6552976138e-01	 1.5176877070e+00	-1.0129457125e+00
 2.4860844437e-01	 1.5205511736e+00	-9.8461854142e-01
 3.3505217284e-01	 1.5114571546e+00	-1.0984380445e+00
 3.1796203355e-01	 1.5151444927e+00	-1.0709975727e+00
 3.0088879250e-01	 1.5186272167e+00	-1.0441984517e+00
 2.8383579854e-01	 1.5219066752e+00	-1.0165878395e+00
 2.6680634678e-01	 1.5249842825e+00	-9.8775216072e-01
 2.4980367728e-01	 1.5278615158e+00	-9.5812983177e-01
 3.3665529329e-01	 1.5186890070e+00	-1.0710079960e+00
 3.1948338299e-01	 1.5223939879e+00	-1.0453588251e+00
 3.0232845180e-01	 1.5258933756e+00	-1.0197258238e+00
 2.8519386456e-01	 1.5291885253e+00	-9.9248527729e-01
 2.6808293217e-01	 1.5322808580e+00	-9.6307380397e-01
 2.5099891018e-01	 1.5351718580e+00	-9.3180137149e-01
 2.4502274565e-01	 1.4986201471e+00	-1.0728099827e+00
 2.2837487861e-01	 1.5012472834e+00	-1.0492380562e+00
 2.1175947053e-01	 1.5036809561e+00	-1.0276029630e+00
 1.9517953046e-01	 1.5059227875e+00	-1.0069535987e+00
 1.7863800902e-01	 1.5079744536e+00	-9.8673934119e-01
 1.6213779752e-01	 1.5098376819e+00	-9.6667848897e-01
 2.4621797856e-01	 1.5059304892e+00	-1.0411822791e+00
 2.2948890240e-01	 1.5085704409e+00	-1.0172411313e+00
 2.1279244356e-01	 1.5110159851e+00	-9.9505364210e-01
 1.9613162573e-01	 1.5132687523e+00	-9.7391773696e-01
 1.7950941395e-01	 1.5153304266e+00	-9.5355044410e-01
 1.6292871361e-01	 1.5172027438e+00	-9.3395715264e-01
 2.4741321146e-01	 1.5132408314e+00	-1.0120438977e+00
 2.3060292620e-01	 1.5158935984e+00	-9.8708902725e-01
 2.1382541659e-01	 1.5183510142e+00	-9.6392373333e-01
 1.9708372101e-01	 1.5206147172e+00	-9.4204684488e-01
 1.8038081887e-01	 1.5226863995e+00	-9.2139195547e-01
 1.6371962970e-01	 1.5245678056e+00	-9.0219781111e-01
 2.4860844437e-01	 1.5205511736e+00	-9.8461854142e-01
 2.3171695000e-01	 1.5232167558e+00	-9.5816850778e-01
 2.1485838961e-01	 1.5256860433e+00	-9.3373489051e-01
 1.9803581628e-01	 1.5279606820e+00	-9.1096949652e-01
 1.8125222379e-01	 1.5300423725e+00	-8.8997158201e-01
 1.6451054578e-01	 1.5319328675e+00	-8.7115968397e-01
 2.4980367728e-01	 1.5278615158e+00	-9.5812983177e-01
 2.3283097380e-01	 1.5305399133e+00	-9.2986374463e-01
 2.1589136264e-01	 1.5330210723e+00	-9.0400444581e-01
 1.9898791155e-01	 1.5353066468e+00	-8.8030897018e-01
 1.8212362871e-01	 1.5373983454e+00	-8.5899148959e-01
 1.6530146187e-01	 1.5392979294e+00	-8.4059690604e-01
 2.5099891018e-01	 1.5351718580e+00	-9.3180137149e-01
 2.3394499760e-01	 1.5378630708e+00	-9.0155639223e-01
 2.1692433567e-01	 1.5403561014e+00	-8.7424548616e-01
 1.9994000682e-01	 1.5426526116e+00	-8.4968331640e-01
 1.8299503363e-01	 1.5447543184e+00	-8.2814835269e-01
 1.6609237795e-01	 1.5466629912e+00	-8.1025854856e-01
 1.6213779752e-01	 1.5098376819e+00	-9.6667848897e-01
 1.4568172715e-01	 1.5115142492e+00	-9.4787568139e-01
 1.2927256821e-01	 1.5130059796e+00	-9.3184023627e-01
 1.1291302948e-01	 1.5143147423e+00	-9.1885429561e-01
 9.6605757594e-02	 1.5154424498e+00	-9.0889226595e-01
 8.0353336566e-02	 1.5163910552e+00	-9.0152348828e-01
 1.6292871361e-01	 1.5172027438e+00	-9.3395715264e-01
 1.4639236972e-01	 1.5188874894e+00	-9.1588833538e-01
 1.2990316610e-01	 1.5203864965e+00	-9.0026021190e-01
 1.1346382474e-01	 1.5217016435e+00	-8.8731768734e-01
 9.7077005192e-02	 1.5228348520e+00	-8.7702460934e-01
 8.0745304061e-02	 1.5237880848e+00	-8.6896818754e-01
 1.6371962970e-01	 1.5245678056e+00	-9.0219781111e-01
 1.4710301229e-01	 1.5262607297e+00	-8.8480108162e-01
 1.3053376400e-01	 1.5277670135e+00	-8.6951629401e-01
 1.1401462001e-01	 1.5290885447e+00	-8.5657159872e-01
 9.7548252790e-02	 1.5302272542e+00	-8.4594013854e-01
 8.1137271557e-02	 1.5311851143e+00	-8.3724634605e-01
 1.6451054578e-01	 1.5319328675e+00	-8.7115968397e-01
 1.4781365486e-01	 1.5336339699e+00	-8.5440885174e-01
 1.3116436189e-01	 1.5351475305e+00	-8.3943431724e-01
 1.1456541527e-01	 1.5364754459e+00	-8.2646687153e-01
 9.8019500388e-02	 1.5376196564e+00	-8.1550771721e-01
 8.1529239052e-02	 1.5385821438e+00	-8.0623677754e-01
 1.6530146187e-01	 1.5392979294e+00	-8.4059690604e-01
 1.4852429744e-01	 1.5410072101e+00	-8.2450239785e-01
 1.3179495978e-01	 1.5425280475e+00	-8.0983705380e-01
 1.1511621054e-01	 1.5438623471e+00	-7.9685260723e-01
 9.8490747986e-02	 1.5450120586e+00	-7.8559598819e-01
 8.1921206548e-02	 1.5459791734e+00	-7.7581978368e-01
 1.6609237795e-01	 1.5466629912e+00	-8.1025854856e-01
 1.4923494001e-01	 1.5483804504e+00	-7.9486828115e-01
 1.3242555768e-01	 1.5499085644e+00	-7.8054417052e-01
 1.1566700580e-01	 1.5512492482e+00	-7.6757609297e-01
 9.8961995584e-02	 1.5524044608e+00	-7.5607326881e-01
 8.2313174043e-02	 1.5533762029e+00	-7.4587701885e-01
 8.0353336566e-02	 1.5163910552e+00	-9.0152348828e-01
 6.4158287314e-02	 1.5171625507e+00	-8.9522854797e-01
 4.8023067311e-02	 1.5177589651e+00	-8.8971103364e-01
 3.1950070280e-02	 1.5181823619e+00	-8.8547374919e-01
 1.5941625973e-02	 1.5184348375e+00	-8.8222789609e-01
 0.0000000000e+00	 1.5185185185e+00	-8.7880689118e-01
 8.0745304061e-02	 1.5237880848e+00	-8.6896818754e-01
 6.4471254569e-02	 1.5245633436e+00	-8.6179469633e-01
 4.8257326176e-02	 1.5251626674e+00	-8.5551064528e-01
 3.2105924282e-02	 1.5255881296e+00	-8.5088687632e-01
 1.6019390002e-02	 1.5258418367e+00	-8.4793269045e-01
 0.0000000000e+00	 1.5259259259e+00	-8.4581040712e-01
 8.1137271557e-02	 1.5311851143e+00	-8.3724634605e-01
 6.4784221824e-02	 1.5319641366e+00	-8.2930712372e-01
 4.8491585041e-02	 1.5325663696e+00	-8.2238636914e-01
 3.2261778283e-02	 1.5329938972e+00	-8.1746815444e-01
 1.6097154031e-02	 1.5332488359e+00	-8.1480767138e-01
 0.0000000000e+00	 1.5333333333e+00	-8.1384669586e-01
 8.1529239052e-02	 1.5385821438e+00	-8.0623677754e-01
 6.5097189080e-02	 1.5393649295e+00	-7.9765203676e-01
 4.8725843905e-02	 1.5399700719e+00	-7.9023546971e-01
 3.2417632285e-02	 1.5403996648e+00	-7.8512954490e-01
 1.6174918060e-02	 1.5406558351e+00	-7.8278310559e-01
 0.0000000000e+00	 1.5407407407e+00	-7.8286790738e-01
 8.1921206548e-02	 1.5459791734e+00	-7.7581978368e-01
 6.5410156335e-02	 1.5467657224e+00	-7.6671889346e-01
 4.8960102770e-02	 1.5473737742e+00	-7.5896013263e-01
 3.2573486286e-02	 1.5478054324e+00	-7.5378947749e-01
 1.6252682089e-02	 1.5480628343e+00	-7.5179712485e-01
 0.0000000000e+00	 1.5481481481e+00	-7.5283527464e-01
 8.2313174043e-02	 1.5533762029e+00	-7.4587701885e-01
 6.5723123590e-02	 1.5541665154e+00	-7.3640024005e-01
 4.9194361635e-02	 1.5547774764e+00	-7.2846727922e-01
 3.2729340287e-02	 1.5552112000e+00	-7.2337264871e-01
 1.6330446118e-02	 1.5554698335e+00	-7.2179551388e-01
 0.0000000000e+00	 1.5555555556e+00	-7.2371889730e-01
 1.5555555556e+00	 0.0000000000e+00	 3.6967430146e+00
 1.5554698335e+00	 1.6330446118e-02	 3.6958104657e+00
 1.5552112000e+00	 3.2729340287e-02	 3.6902298083e+00
 1.5547774764e+00	 4.9194361635e-02	 3.6807435417e+00
 1.5541665154e+00	 6.5723123590e-02	 3.6673243907e+00
 1.5533762029e+00	 8.2313174043e-02	 3.6492457703e+00
 1.5629629630e+00	 0.0000000000e+00	 3.6855548360e+00
 1.5628768327e+00	 1.6408210147e-02	 3.6846586458e+00
 1.5626169677e+00	 3.2885194289e-02	 3.6789988860e+00
 1.5621811787e+00	 4.9428620500e-02	 3.6693565865e+00
 1.5615673083e+00	 6.6036090845e-02	 3.6557654895e+00
 1.5607732325e+00	 8.2705141538e-02	 3.6375802644e+00
 1.5703703704e+00	 0.0000000000e+00	 3.6741847327e+00
 1.5702838319e+00	 1.6485974177e-02	 3.6732159628e+00
 1.5700227353e+00	 3.3041048290e-02	 3.6674962312e+00
 1.5695848810e+00	 4.9662879365e-02	 3.6577961122e+00
 1.5689681012e+00	 6.6349058100e-02	 3.6441615673e+00
 1.5681702620e+00	 8.3097109034e-02	 3.6259798503e+00
 1.5777777778e+00	 0.0000000000e+00	 3.6626190216e+00
 1.5776908311e+00	 1.6563738206e-02	 3.6614684716e+00
 1.5774285029e+00	 3.3196902291e-02	 3.6556993567e+00
 1.5769885832e+00	 4.9897138230e-02	 3.6460242234e+00
 1.5763688941e+00	 6.6662025356e-02	 3.6324539101e+00
 1.5755672915e+00	 8.3489076529e-02	 3.6143610795e+00
 1.5851851852e+00	 0.0000000000e+00	 3.6508441508e+00
 1.5850978303e+00	 1.6641502235e-02	 3.6494026044e+00
 1.5848342705e+00	 3.3352756293e-02	 3.6435863403e+00
 1.5843922855e+00	 5.0131397095e-02	 3.6340037182e+00
 1.5837696871e+00	 6.6974992611e-02	 3.6205845669e+00
 1.5829643211e+00	 8.3881044025e-02	 3.6026412779e+00
 1.5925925926e+00	 0.0000000000e+00	 3.6388466972e+00
 1.5925048295e+00	 1.6719266264e-02	 3.6370051644e+00
 1.5922400381e+00	 3.3508610294e-02	 3.6311358139e+00
 1.5917959878e+00	 5.0365655960e-02	 3.6216980729e+00
 1.5911704800e+00	 6.7287959866e-02	 3.6084963318e+00
 1.5903613506e+00	 8.4273011520e-02	 3.5907385253e+00
 1.5533762029e+00	 8.2313174043e-02	 3.6492457703e+00
 1.5524044608e+00	 9.8961995584e-02	 3.6262049645e+00
 1.5512492482e+00	 1.1566700580e-01	 3.5994002218e+00
 1.5499085644e+00	 1.3242555768e-01	 3.5695480467e+00
 1.5483804504e+00	 1.4923494001e-01	 3.5369936134e+00
 1.5466629912e+00	 1.6609237795e-01	 3.5017975134e+00
 1.5607732325e+00	 8.2705141538e-02	 3.6375802644e+00
 1.5597968630e+00	 9.9433243182e-02	 3.6144463602e+00
 1.5586361494e+00	 1.1621780107e-01	 3.5874638086e+00
 1.5572890814e+00	 1.3305615557e-01	 3.5573826965e+00
 1.5557536906e+00	 1.4994558258e-01	 3.5245902837e+00
 1.5540280531e+00	 1.6688329404e-01	 3.4891945821e+00
 1.5681702620e+00	 8.3097109034e-02	 3.6259798503e+00
 1.5671892652e+00	 9.9904490780e-02	 3.6028116060e+00
 1.5660230506e+00	 1.1676859634e-01	 3.5756766685e+00
 1.5646695984e+00	 1.3368675347e-01	 3.5453868782e+00
 1.5631269309e+00	 1.5065622515e-01	 3.5123999736e+00
 1.5613931149e+00	 1.6767421012e-01	 3.4768997717e+00
 1.5755672915e+00	 8.3489076529e-02	 3.6143610795e+00
 1.5745816674e+00	 1.0037573838e-01	 3.5911869543e+00
 1.5734099518e+00	 1.1731939160e-01	 3.5638868345e+00
 1.5720501154e+00	 1.3431735136e-01	 3.5333629548e+00
 1.5705001711e+00	 1.5136686772e-01	 3.5001724039e+00
 1.5687581768e+00	 1.6846512621e-01	 3.4646036702e+00
 1.5829643211e+00	 8.3881044025e-02	 3.6026412779e+00
 1.5819740696e+00	 1.0084698598e-01	 3.5794594447e+00
 1.5807968530e+00	 1.1787018687e-01	 3.5519432154e+00
 1.5794306323e+00	 1.3494794925e-01	 3.5211143502e+00
 1.5778734113e+00	 1.5207751029e-01	 3.4876586592e+00
 1.5761232387e+00	 1.6925604229e-01	 3.4519986728e+00
 1.5903613506e+00	 8.4273011520e-02	 3.5907385253e+00
 1.5893664718e+00	 1.0131823357e-01	 3.5675168818e+00
 1.5881837542e+00	 1.1842098213e-01	 3.5396955702e+00
 1.5868111493e+00	 1.3557854715e-01	 3.5084455193e+00
 1.5852466516e+00	 1.5278815286e-01	 3.4746111537e+00
 1.5834883005e+00	 1.7004695838e-01	 3.4387789406e+00
 1.5466629912e+00	 1.6609237795e-01	 3.5017975134e+00
 1.5447543184e+00	 1.8299503363e-01	 3.4629798016e+00
 1.5426526116e+00	 1.9994000682e-01	 3.4186061553e+00
 1.5403561014e+00	 2.1692433567e-01	 3.3671825105e+00
 1.5378630708e+00	 2.3394499760e-01	 3.3073633503e+00
 1.5351718580e+00	 2.5099891018e-01	 3.2380901890e+00
 1.5540280531e+00	 1.6688329404e-01	 3.4891945821e+00
 1.5521102913e+00	 1.8386643856e-01	 3.4503186425e+00
 1.5499985764e+00	 2.0089210209e-01	 3.4060679406e+00
 1.5476911304e+00	 2.1795730870e-01	 3.3548974167e+00
 1.5451862283e+00	 2.3505902140e-01	 3.2954005618e+00
 1.5424822002e+00	 2.5219414309e-01	 3.2264449951e+00
 1.5613931149e+00	 1.6767421012e-01	 3.4768997717e+00
 1.5594662642e+00	 1.8473784348e-01	 3.4381236169e+00
 1.5573445412e+00	 2.0184419736e-01	 3.3941689485e+00
 1.5550261595e+00	 2.1899028172e-01	 3.3433788624e+00
 1.5525093858e+00	 2.3617304519e-01	 3.2842244455e+00
 1.5497925423e+00	 2.5338937599e-01	 3.2154373853e+00
 1.5687581768e+00	 1.6846512621e-01	 3.4646036702e+00
 1.5668222372e+00	 1.8560924840e-01	 3.4260273919e+00
 1.5646905061e+00	 2.0279629263e-01	 3.3824936956e+00
 1.5623611885e+00	 2.2002325475e-01	 3.3321747426e+00
 1.5598325432e+00	 2.3728706899e-01	 3.2733595441e+00
 1.5571028845e+00	 2.5458460890e-01	 3.2045835346e+00
 1.5761232387e+00	 1.6925604229e-01	 3.4519986728e+00
 1.5741782101e+00	 1.8648065332e-01	 3.4136649106e+00
 1.5720364709e+00	 2.0374838790e-01	 3.3706293393e+00
 1.5696962176e+00	 2.2105622778e-01	 3.3208358506e+00
 1.5671557007e+00	 2.3840109279e-01	 3.2623334446e+00
 1.5644132267e+00	 2.5577984180e-01	 3.1934026930e+00
 1.5834883005e+00	 1.7004695838e-01	 3.4387789406e+00
 1.5815341831e+00	 1.8735205824e-01	 3.4006733471e+00
 1.5793824357e+00	 2.0470048317e-01	 3.3581656351e+00
 1.5770312466e+00	 2.2208920080e-01	 3.3089158433e+00
 1.5744788582e+00	 2.3951511659e-01	 3.2506767591e+00
 1.5717235689e+00	 2.5697507471e-01	 3.1814171885e+00
 1.5351718580e+00	 2.5099891018e-01	 3.2380901890e+00
 1.5322808580e+00	 2.6808293217e-01	 3.1669937881e+00
 1.5291885253e+00	 2.8519386456e-01	 3.1011925643e+00
 1.5258933756e+00	 3.0232845180e-01	 3.0397578084e+00
 1.5223939879e+00	 3.1948338299e-01	 2.9827204345e+00
 1.5186890070e+00	 3.3665529329e-01	 2.9312989251e+00
 1.5424822002e+00	 2.5219414309e-01	 3.2264449951e+00
 1.5395774335e+00	 2.6935951756e-01	 3.1555638036e+00
 1.5364703755e+00	 2.8655193058e-01	 3.0897991763e+00
 1.5331595345e+00	 3.0376811109e-01	 3.0281592884e+00
 1.5296434831e+00	 3.2100473243e-01	 2.9705973255e+00
 1.5259208594e+00	 3.3825841373e-01	 2.9182383477e+00
 1.5497925423e+00	 2.5338937599e-01	 3.2154373853e+00
 1.5468740091e+00	 2.7063610295e-01	 3.1444491743e+00
 1.5437522256e+00	 2.8790999660e-01	 3.0783828072e+00
 1.5404256934e+00	 3.0520777039e-01	 3.0163601044e+00
 1.5368929783e+00	 3.2252608188e-01	 2.9584299759e+00
 1.5331527118e+00	 3.3986153417e-01	 2.9057936238e+00
 1.5571028845e+00	 2.5458460890e-01	 3.2045835346e+00
 1.5541705846e+00	 2.7191268834e-01	 3.1331503801e+00
 1.5510340757e+00	 2.8926806263e-01	 3.0663961659e+00
 1.5476918524e+00	 3.0664742968e-01	 3.0037311279e+00
 1.5441424734e+00	 3.2404743132e-01	 2.9454713210e+00
 1.5403845642e+00	 3.4146465462e-01	 2.8930615772e+00
 1.5644132267e+00	 2.5577984180e-01	 3.1934026930e+00
 1.5614671601e+00	 2.7318927373e-01	 3.1211713343e+00
 1.5583159258e+00	 2.9062612865e-01	 3.0532965693e+00
 1.5549580113e+00	 3.0808708897e-01	 2.9896498891e+00
 1.5513919686e+00	 3.2556878076e-01	 2.9309839421e+00
 1.5476164166e+00	 3.4306777506e-01	 2.8791526608e+00
 1.5717235689e+00	 2.5697507471e-01	 3.1814171885e+00
 1.5687637356e+00	 2.7446585912e-01	 3.1080194071e+00
 1.5655977759e+00	 2.9198419467e-01	 3.0385459726e+00
 1.5622241702e+00	 3.0952674827e-01	 2.9735006007e+00
 1.5586414638e+00	 3.2709013021e-01	 2.9142400685e+00
 1.5548482691e+00	 3.4467089551e-01	 2.8631909194e+00
 1.5186890070e+00	 3.3665529329e-01	 2.9312989251e+00
 1.5147771451e+00	 3.5384076526e-01	 2.8626643398e+00
 1.5106571841e+00	 3.7103633044e-01	 2.7593563419e+00
 1.5063279776e+00	 3.8823847091e-01	 2.6411011969e+00
 1.5017884527e+00	 4.0544362095e-01	 2.5309778059e+00
 1.4970376120e+00	 4.2264816881e-01	 2.4471115352e+00
 1.5259208594e+00	 3.3825841373e-01	 2.9182383477e+00
 1.5219903696e+00	 3.5552572128e-01	 2.8477607351e+00
 1.5178507898e+00	 3.7280317011e-01	 2.7414479497e+00
 1.5135009680e+00	 3.9008722553e-01	 2.6203715284e+00
 1.5089398263e+00	 4.0737430486e-01	 2.5071089665e+00
 1.5041663626e+00	 4.2466077914e-01	 2.4205335023e+00
 1.5331527118e+00	 3.3986153417e-01	 2.9057936238e+00
 1.5292035941e+00	 3.5721067731e-01	 2.8346657834e+00
 1.5250443954e+00	 3.7457000978e-01	 2.7268535913e+00
 1.5206739583e+00	 3.9193598016e-01	 2.6041871311e+00
 1.5160911999e+00	 4.0930498877e-01	 2.4885803780e+00
 1.5112951131e+00	 4.2667338947e-01	 2.3992637254e+00
 1.5403845642e+00	 3.4146465462e-01	 2.8930615772e+00
 1.5364168186e+00	 3.5889563333e-01	 2.8223385450e+00
 1.5322380010e+00	 3.7633684945e-01	 2.7144696424e+00
 1.5278469487e+00	 3.9378473478e-01	 2.5914995641e+00
 1.5232425734e+00	 4.1123567268e-01	 2.4744871283e+00
 1.5184238636e+00	 4.2868599980e-01	 2.3826346250e+00
 1.5476164166e+00	 3.4306777506e-01	 2.8791526608e+00
 1.5436300431e+00	 3.6058058936e-01	 2.8097556482e+00
 1.5394316067e+00	 3.7810368912e-01	 2.7032167891e+00
 1.5350199391e+00	 3.9563348941e-01	 2.5812846457e+00
 1.5303939470e+00	 4.1316635659e-01	 2.4639468514e+00
 1.5255526142e+00	 4.3069861012e-01	 2.3699976844e+00
 1.5548482691e+00	 3.4467089551e-01	 2.8631909194e+00
 1.5508432676e+00	 3.6226554538e-01	 2.7959112221e+00
 1.5466252123e+00	 3.7987052879e-01	 2.6920396169e+00
 1.5421929295e+00	 3.9748224403e-01	 2.5725420369e+00
 1.5375453206e+00	 4.1509704050e-01	 2.4560993438e+00
 1.5326813647e+00	 4.3271122045e-01	 2.3607231376e+00
 1.4970376120e+00	 4.2264816881e-01	 2.4471115352e+00
 1.4920745356e+00	 4.3984845856e-01	 2.3773765888e+00
 1.4868983828e+00	 4.5704079200e-01	 2.2938852112e+00
 1.4815083939e+00	 4.7422143062e-01	 2.1917074194e+00
 1.4759038918e+00	 4.9138659777e-01	 2.0781413678e+00
 1.4700842841e+00	 5.0853248072e-01	 1.9634114407e+00
 1.5041663626e+00	 4.2466077914e-01	 2.4205335023e+00
 1.4991796525e+00	 4.4194297503e-01	 2.3508174547e+00
 1.4939788513e+00	 4.5921717672e-01	 2.2721453668e+00
 1.4885631958e+00	 4.7647962791e-01	 2.1799597268e+00
 1.4829320056e+00	 4.9372653395e-01	 2.0700893788e+00
 1.4770846855e+00	 5.1095406396e-01	 1.9461435894e+00
 1.5112951131e+00	 4.2667338947e-01	 2.3992637254e+00
 1.5062847693e+00	 4.4403749150e-01	 2.3283493883e+00
 1.5010593198e+00	 4.6139356144e-01	 2.2520102216e+00
 1.4956179976e+00	 4.7873782520e-01	 2.1660887524e+00
 1.4899601194e+00	 4.9606647013e-01	 2.0667873713e+00
 1.4840850868e+00	 5.1337564720e-01	 1.9506613120e+00
 1.5184238636e+00	 4.2868599980e-01	 2.3826346250e+00
 1.5133898862e+00	 4.4613200797e-01	 2.3096052993e+00
 1.5081397883e+00	 4.6356994617e-01	 2.2334417279e+00
 1.5026727995e+00	 4.8099602249e-01	 2.1504135403e+00
 1.4969882332e+00	 4.9840640631e-01	 2.0571274645e+00
 1.4910854882e+00	 5.1579723044e-01	 1.9505198831e+00
 1.5255526142e+00	 4.3069861012e-01	 2.3699976844e+00
 1.5204950030e+00	 4.4822652444e-01	 2.2942324735e+00
 1.5152202568e+00	 4.6574633089e-01	 2.2164109645e+00
 1.5097276014e+00	 4.8325421978e-01	 2.1332564526e+00
 1.5040163469e+00	 5.0074634249e-01	 2.0418102833e+00
 1.4980858896e+00	 5.1821881368e-01	 1.9394240249e+00
 1.5326813647e+00	 4.3271122045e-01	 2.3607231376e+00
 1.5276001198e+00	 4.5032104091e-01	 2.2818923572e+00
 1.5223007253e+00	 4.6792271561e-01	 2.2008980287e+00
 1.5167824033e+00	 4.8551241707e-01	 2.1149431810e+00
 1.5110444607e+00	 5.0308627867e-01	 2.0215335496e+00
 1.5050862909e+00	 5.2064039692e-01	 1.9184694101e+00
 1.4700842841e+00	 5.0853248072e-01	 1.9634114407e+00
 1.4640490642e+00	 5.2565523293e-01	 1.8464518488e+00
 1.4577978132e+00	 5.4275097638e-01	 1.7295201709e+00
 1.4513302009e+00	 5.5981580390e-01	 1.6166980592e+00
 1.4446459880e+00	 5.7684578163e-01	 1.5116838903e+00
 1.4377450266e+00	 5.9383695154e-01	 1.4177220165e+00
 1.4770846855e+00	 5.1095406396e-01	 1.9461435894e+00
 1.4710207265e+00	 5.2815835309e-01	 1.8240623140e+00
 1.4647397075e+00	 5.4533550484e-01	 1.7062261938e+00
 1.4582412971e+00	 5.6248159344e-01	 1.5955195550e+00
 1.4515252546e+00	 5.7959266630e-01	 1.4944596713e+00
 1.4445914315e+00	 5.9666474655e-01	 1.4051283831e+00
 1.4840850868e+00	 5.1337564720e-01	 1.9506613120e+00
 1.4779923887e+00	 5.3066147325e-01	 1.8191209402e+00
 1.4716816019e+00	 5.4792003330e-01	 1.6934880664e+00
 1.4651523933e+00	 5.6514738298e-01	 1.5787520936e+00
 1.4584045212e+00	 5.8233955098e-01	 1.4769372678e+00
 1.4514378363e+00	 5.9949254155e-01	 1.3896278320e+00
 1.4910854882e+00	 5.1579723044e-01	 1.9505198831e+00
 1.4849640509e+00	 5.3316459340e-01	 1.8282703360e+00
 1.4786234962e+00	 5.5050456176e-01	 1.6926279533e+00
 1.4720634895e+00	 5.6781317253e-01	 1.5675228951e+00
 1.4652837878e+00	 5.8508643565e-01	 1.4598076689e+00
 1.4582842412e+00	 6.0232033656e-01	 1.3712237902e+00
 1.4980858896e+00	 5.1821881368e-01	 1.9394240249e+00
 1.4919357131e+00	 5.3566771356e-01	 1.8249170931e+00
 1.4855653906e+00	 5.5308909022e-01	 1.6985873776e+00
 1.4789745857e+00	 5.7047896207e-01	 1.5629344171e+00
 1.4721630544e+00	 5.8783332033e-01	 1.4437464580e+00
 1.4651306461e+00	 6.0514813157e-01	 1.3499184538e+00
 1.5050862909e+00	 5.2064039692e-01	 1.9184694101e+00
 1.4989073753e+00	 5.3817083372e-01	 1.8057961808e+00
 1.4925072849e+00	 5.5567361868e-01	 1.6854897382e+00
 1.4858856819e+00	 5.7314475161e-01	 1.5587620706e+00
 1.4790423210e+00	 5.9058020500e-01	 1.4294148424e+00
 1.4719770510e+00	 6.0797592657e-01	 1.3257135602e+00
 1.4377450266e+00	 5.9383695154e-01	 1.4177220165e+00
 1.4306272618e+00	 6.1078533400e-01	 1.3193425644e+00
 1.4232927330e+00	 6.2768693041e-01	 1.2041118606e+00
 1.4157415747e+00	 6.4453772591e-01	 1.0787573931e+00
 1.4079740175e+00	 6.6133369212e-01	 9.4903905808e-01
 1.3999903893e+00	 6.7807078992e-01	 8.1969971650e-01
 1.4445914315e+00	 5.9666474655e-01	 1.4051283831e+00
 1.4374397726e+00	 6.1369383559e-01	 1.3095864747e+00
 1.4300703174e+00	 6.3067591579e-01	 1.1942788006e+00
 1.4224832012e+00	 6.4760695318e-01	 1.0667789979e+00
 1.4146786557e+00	 6.6448290018e-01	 9.3365338883e-01
 1.4066570103e+00	 6.8129969845e-01	 8.0040994547e-01
 1.4514378363e+00	 5.9949254155e-01	 1.3896278320e+00
 1.4442522833e+00	 6.1660233718e-01	 1.2966094230e+00
 1.4368479019e+00	 6.3366490118e-01	 1.1824448174e+00
 1.4292248278e+00	 6.5067618045e-01	 1.0547844131e+00
 1.4213832939e+00	 6.6763210823e-01	 9.2025507808e-01
 1.4133236312e+00	 6.8452860697e-01	 7.8440960289e-01
 1.4582842412e+00	 6.0232033656e-01	 1.3712237902e+00
 1.4510647941e+00	 6.1951083877e-01	 1.2797215418e+00
 1.4436254863e+00	 6.3665388656e-01	 1.1674807822e+00
 1.4359664543e+00	 6.5374540771e-01	 1.0414704300e+00
 1.4280879321e+00	 6.7078131629e-01	 9.0764291983e-01
 1.4199902521e+00	 6.8775751549e-01	 7.7088620809e-01
 1.4651306461e+00	 6.0514813157e-01	 1.3499184538e+00
 1.4578773049e+00	 6.2241934036e-01	 1.2582461298e+00
 1.4504030708e+00	 6.3964287194e-01	 1.1482804862e+00
 1.4427080809e+00	 6.5681463498e-01	 1.0255616534e+00
 1.4347925703e+00	 6.7393052435e-01	 8.9464334114e-01
 1.4266568730e+00	 6.9098642402e-01	 7.5904944839e-01
 1.4719770510e+00	 6.0797592657e-01	 1.3257135602e+00
 1.4646898156e+00	 6.2532784195e-01	 1.2315201617e+00
 1.4571806552e+00	 6.4263185733e-01	 1.1237609996e+00
 1.4494497074e+00	 6.5988386224e-01	 1.0058108249e+00
 1.4414972084e+00	 6.7707973241e-01	 8.8011080855e-01
 1.4333234939e+00	 6.9421533254e-01	 7.4813179316e-01
 1.3999903893e+00	 6.7807078992e-01	 8.1969971650e-01
 1.3917911157e+00	 6.9474497236e-01	 6.9851374512e-01
 1.3833767209e+00	 7.1135218747e-01	 5.8966645623e-01
 1.3747478281e+00	 7.2788838126e-01	 4.9116807577e-01
 1.3659051604e+00	 7.4434950070e-01	 3.9906639899e-01
 1.3568495408e+00	 7.6073149664e-01	 2.7466241838e-01
 1.4066570103e+00	 6.8129969845e-01	 8.0040994547e-01
 1.3984186925e+00	 6.9805328175e-01	 6.7711844323e-01
 1.3899642291e+00	 7.1473957883e-01	 5.6953774308e-01
 1.3812942463e+00	 7.3135451641e-01	 4.7532798225e-01
 1.3724094707e+00	 7.4789402213e-01	 3.8678832460e-01
 1.3633107291e+00	 7.6435402758e-01	 2.6146253770e-01
 1.4133236312e+00	 6.8452860697e-01	 7.8440960289e-01
 1.4050462692e+00	 7.0136159114e-01	 6.5919246655e-01
 1.3965517372e+00	 7.1812697020e-01	 5.5227404742e-01
 1.3878406645e+00	 7.3482065156e-01	 4.6138918422e-01
 1.3789137810e+00	 7.5143854356e-01	 3.7354950050e-01
 1.3697719174e+00	 7.6797655851e-01	 2.4735259255e-01
 1.4199902521e+00	 6.8775751549e-01	 7.7088620809e-01
 1.4116738459e+00	 7.0466990053e-01	 6.4437824454e-01
 1.4031392454e+00	 7.2151436157e-01	 5.3780706461e-01
 1.3943870828e+00	 7.3828678671e-01	 4.4940059635e-01
 1.3854180913e+00	 7.5498306499e-01	 3.5957072380e-01
 1.3762331057e+00	 7.7159908945e-01	 2.3230272933e-01
 1.4266568730e+00	 6.9098642402e-01	 7.5904944839e-01
 1.4183014227e+00	 7.0797820992e-01	 6.3233373501e-01
 1.4097267536e+00	 7.2490175294e-01	 5.2608052409e-01
 1.4009335010e+00	 7.4175292186e-01	 4.3934434836e-01
 1.3919224016e+00	 7.5852758642e-01	 3.4508053816e-01
 1.3826942940e+00	 7.7522162038e-01	 2.1629508931e-01
 1.4333234939e+00	 6.9421533254e-01	 7.4813179316e-01
 1.4249289994e+00	 7.1128651932e-01	 6.2273327401e-01
 1.4163142618e+00	 7.2828914431e-01	 5.1705120268e-01
 1.4074799192e+00	 7.4521905701e-01	 4.3005353424e-01
 1.3984267118e+00	 7.6207210786e-01	 3.3031472710e-01
 1.3891554823e+00	 7.7884415132e-01	 1.9932318397e-01
 1.3568495408e+00	 7.6073149664e-01	 2.7466241838e-01
 1.3475818927e+00	 7.7703032694e-01	 1.3657069196e-01
 1.3381032397e+00	 7.9324195946e-01	 1.8903068829e-02
 1.3284147064e+00	 8.0936237518e-01	-8.7192669591e-02
 1.3185175174e+00	 8.2538757125e-01	-1.9111628112e-01
 1.3084129980e+00	 8.4131356412e-01	-3.0270880996e-01
 1.3633107291e+00	 7.6435402758e-01	 2.6146253770e-01
 1.3539989493e+00	 7.8073047135e-01	 1.2310877146e-01
 1.3444751599e+00	 7.9701930213e-01	 4.4866552459e-03
 1.3347404907e+00	 8.1321648173e-01	-1.0275074885e-01
 1.3247961722e+00	 8.2931798825e-01	-2.0755731703e-01
 1.3146435361e+00	 8.4531981919e-01	-3.1938729892e-01
 1.3697719174e+00	 7.6797655851e-01	 2.4735259255e-01
 1.3604160059e+00	 7.8443061577e-01	 1.0926721204e-01
 1.3508470801e+00	 8.0079664479e-01	-9.6111942988e-03
 1.3410662750e+00	 8.1707058828e-01	-1.1730584499e-01
 1.3310748271e+00	 8.3324840526e-01	-2.2249510966e-01
 1.3208740741e+00	 8.4932607426e-01	-3.3440511096e-01
 1.3762331057e+00	 7.7159908945e-01	 2.3230272933e-01
 1.3668330626e+00	 7.8813076018e-01	 9.4724001484e-02
 1.3572190003e+00	 8.0457398745e-01	-2.3897723241e-02
 1.3473920593e+00	 8.2092469482e-01	-1.3144075495e-01
 1.3373534819e+00	 8.3717882227e-01	-2.3647572857e-01
 1.3271046122e+00	 8.5333232932e-01	-3.4815685580e-01
 1.3826942940e+00	 7.7522162038e-01	 2.1629508931e-01
 1.3732501192e+00	 7.9183090459e-01	 7.9174224070e-02
 1.3635909205e+00	 8.0835133012e-01	-3.8859892154e-02
 1.3537178436e+00	 8.2477880137e-01	-1.4571676841e-01
 1.3436321368e+00	 8.4110923927e-01	-2.5002451870e-01
 1.3333351503e+00	 8.5733858439e-01	-3.6101925174e-01
 1.3891554823e+00	 7.7884415132e-01	 1.9932318397e-01
 1.3796671758e+00	 7.9553104901e-01	 6.2329300776e-02
 1.3699628407e+00	 8.1212867278e-01	-5.4965226297e-02
 1.3600436279e+00	 8.2863290792e-01	-1.6067455444e-01
 1.3499107916e+00	 8.4503965628e-01	-2.6364697648e-01
 1.3395656884e+00	 8.6134483946e-01	-3.7335194037e-01
 1.3084129980e+00	 8.4131356412e-01	-3.0270880996e-01
 1.2981025733e+00	 8.5713639264e-01	-4.1475388715e-01
 1.2875877683e+00	 8.7285212116e-01	-5.1686138588e-01
 1.2768702069e+00	 8.8845684264e-01	-6.1443879909e-01
 1.2659516116e+00	 9.0394668173e-01	-7.1286623589e-01
 1.2548338029e+00	 9.1931779788e-01	-8.1734313199e-01
 1.3146435361e+00	 8.4531981919e-01	-3.1938729892e-01
 1.3042840141e+00	 8.6121799451e-01	-4.3094041934e-01
 1.2937191386e+00	 8.7700855983e-01	-5.3215910210e-01
 1.2829505412e+00	 8.9268758951e-01	-6.2873700930e-01
 1.2719799526e+00	 9.0825118974e-01	-7.2634314304e-01
 1.2608092020e+00	 9.2369550168e-01	-8.3046430133e-01
 1.3208740741e+00	 8.4932607426e-01	-3.3440511096e-01
 1.3104654550e+00	 8.6529959638e-01	-4.4560706870e-01
 1.2998505089e+00	 8.8116499851e-01	-5.4618663196e-01
 1.2890308755e+00	 8.9691833638e-01	-6.4206238158e-01
 1.2780082937e+00	 9.1255569775e-01	-7.3913941763e-01
 1.2667846010e+00	 9.2807320548e-01	-8.4314767286e-01
 1.3271046122e+00	 8.5333232932e-01	-3.4815685580e-01
 1.3166468958e+00	 8.6938119825e-01	-4.5896885454e-01
 1.3059818792e+00	 8.8532143718e-01	-5.5904009458e-01
 1.2951112098e+00	 9.0114908325e-01	-6.5445379000e-01
 1.2840366347e+00	 9.1686020576e-01	-7.5129926911e-01
 1.2727600001e+00	 9.3245090928e-01	-8.5550625518e-01
 1.3333351503e+00	 8.5733858439e-01	-3.6101925174e-01
 1.3228283366e+00	 8.7346280012e-01	-4.7122616858e-01
 1.3121132496e+00	 8.8947787585e-01	-5.7080301595e-01
 1.3011915441e+00	 9.0537983012e-01	-6.6593830381e-01
 1.2900649757e+00	 9.2116471377e-01	-7.6285462963e-01
 1.2787353992e+00	 9.3682861308e-01	-8.6763903348e-01
 1.3395656884e+00	 8.6134483946e-01	-3.7335194037e-01
 1.3290097774e+00	 8.7754440199e-01	-4.8256551524e-01
 1.3182446199e+00	 8.9363431452e-01	-5.8154702018e-01
 1.3072718785e+00	 9.0961057699e-01	-6.7653185563e-01
 1.2960933167e+00	 9.2546922178e-01	-7.7382582529e-01
 1.2847107982e+00	 9.4120631688e-01	-8.7963167038e-01
 1.2548338029e+00	 9.1931779788e-01	-8.1734313199e-01
 1.2435186980e+00	 9.3456638837e-01	-9.1645665484e-01
 1.2320083100e+00	 9.4968869134e-01	-1.0016996527e+00
 1.2203047473e+00	 9.6468098885e-01	-1.0818162946e+00
 1.2084102115e+00	 9.7953960979e-01	-1.1646188376e+00
 1.1963269970e+00	 9.9426093286e-01	-1.2567891159e+00
 1.2608092020e+00	 9.2369550168e-01	-8.3046430133e-01
 1.2494402156e+00	 9.3901670450e-01	-9.2962278679e-01
 1.2378750163e+00	 9.5421101844e-01	-1.0150333661e+00
 1.2261157222e+00	 9.6927470784e-01	-1.0953886656e+00
 1.2141645458e+00	 9.8420408412e-01	-1.1784251718e+00
 1.2020237923e+00	 9.9899550873e-01	-1.2707195921e+00
 1.2667846010e+00	 9.2807320548e-01	-8.4314767286e-01
 1.2553617332e+00	 9.4346702064e-01	-9.4248041758e-01
 1.2437417225e+00	 9.5873334554e-01	-1.0280475353e+00
 1.2319266972e+00	 9.7386842684e-01	-1.1085047587e+00
 1.2199188802e+00	 9.8886855845e-01	-1.1915224526e+00
 1.2077205875e+00	 1.0037300846e+00	-1.2835766830e+00
 1.2727600001e+00	 9.3245090928e-01	-8.5550625518e-01
 1.2612832508e+00	 9.4791733677e-01	-9.5522216928e-01
 1.2496084287e+00	 9.6325567265e-01	-1.0409720102e+00
 1.2377376722e+00	 9.7846214583e-01	-1.1213893468e+00
 1.2256732145e+00	 9.9353303278e-01	-1.2040882262e+00
 1.2134173827e+00	 1.0084646605e+00	-1.2954487858e+00
 1.2787353992e+00	 9.3682861308e-01	-8.6763903348e-01
 1.2672047684e+00	 9.5236765291e-01	-9.6802460981e-01
 1.2554751350e+00	 9.6777799975e-01	-1.0540192714e+00
 1.2435486472e+00	 9.8305586483e-01	-1.1342492400e+00
 1.2314275489e+00	 9.9819750712e-01	-1.2162822084e+00
 1.2191141779e+00	 1.0131992363e+00	-1.3064073301e+00
 1.2847107982e+00	 9.4120631688e-01	-8.7963167038e-01
 1.2731262860e+00	 9.5681796904e-01	-9.8104898695e-01
 1.2613418412e+00	 9.7230032685e-01	-1.0673851782e+00
 1.2493596222e+00	 9.8764958382e-01	-1.1472740267e+00
 1.2371818832e+00	 1.0028619814e+00	-1.2282470002e+00
 1.2248109731e+00	 1.0179338122e+00	-1.3165074494e+00
 1.1963269970e+00	 9.9426093286e-01	-1.2567891159e+00
 1.1840574891e+00	 1.0088413894e+00	-1.3510678676e+00
 1.1716041623e+00	 1.0232774664e+00	-1.4354849653e+00
 1.1589695793e+00	 1.0375657091e+00	-1.5072621813e+00
 1.1461563888e+00	 1.0517027236e+00	-1.5615719161e+00
 1.1331673236e+00	 1.0656851801e+00	-1.5913563268e+00
 1.2020237923e+00	 9.9899550873e-01	-1.2707195921e+00
 1.1896958581e+00	 1.0136453960e+00	-1.3644989540e+00
 1.1771832297e+00	 1.0281502163e+00	-1.4476454505e+00
 1.1644884821e+00	 1.0425064981e+00	-1.5178050766e+00
 1.1516142764e+00	 1.0567108318e+00	-1.5705763907e+00
 1.1385633585e+00	 1.0707598714e+00	-1.5993228403e+00
 1.2077205875e+00	 1.0037300846e+00	-1.2835766830e+00
 1.1953342270e+00	 1.0184494027e+00	-1.3766070082e+00
 1.1827622972e+00	 1.0330229661e+00	-1.4585453798e+00
 1.1700073848e+00	 1.0474472872e+00	-1.5274228480e+00
 1.1570721639e+00	 1.0617189400e+00	-1.5792296143e+00
 1.1439593934e+00	 1.0758345628e+00	-1.6077204972e+00
 1.2134173827e+00	 1.0084646605e+00	-1.2954487858e+00
 1.2009725960e+00	 1.0232534093e+00	-1.3873889484e+00
 1.1883413646e+00	 1.0378957159e+00	-1.4681279100e+00
 1.1755262876e+00	 1.0523880763e+00	-1.5360435458e+00
 1.1625300515e+00	 1.0667270482e+00	-1.5874840891e+00
 1.1493554283e+00	 1.0809092541e+00	-1.6165666764e+00
 1.2191141779e+00	 1.0131992363e+00	-1.3064073301e+00
 1.2066109650e+00	 1.0280574159e+00	-1.3968255896e+00
 1.1939204321e+00	 1.0427684658e+00	-1.4763202218e+00
 1.1810451904e+00	 1.0573288654e+00	-1.5435786268e+00
 1.1679879391e+00	 1.0717351564e+00	-1.5952743584e+00
 1.1547514631e+00	 1.0859839454e+00	-1.6258586797e+00
 1.2248109731e+00	 1.0179338122e+00	-1.3165074494e+00
 1.2122493340e+00	 1.0328614225e+00	-1.4048822673e+00
 1.1994994995e+00	 1.0476412156e+00	-1.4830341104e+00
 1.1865640931e+00	 1.0622696545e+00	-1.5499235289e+00
 1.1734458266e+00	 1.0767432646e+00	-1.6025175788e+00
 1.1601474980e+00	 1.0910586368e+00	-1.6355743183e+00
 1.1331673236e+00	 1.0656851801e+00	-1.5913563268e+00
 1.1200051992e+00	 1.0795098148e+00	-1.6316607242e+00
 1.1066729110e+00	 1.0931734329e+00	-1.7125761825e+00
 1.0931734329e+00	 1.1066729110e+00	-1.8115216000e+00
 1.0795098148e+00	 1.1200051992e+00	-1.8951286596e+00
 1.0656851801e+00	 1.1331673236e+00	-1.9227823166e+00
 1.1385633585e+00	 1.0707598714e+00	-1.5993228403e+00
 1.1253385573e+00	 1.0846503377e+00	-1.6396943840e+00
 1.1119427820e+00	 1.0983790207e+00	-1.7220814365e+00
 1.0983790207e+00	 1.1119427820e+00	-1.8252384449e+00
 1.0846503377e+00	 1.1253385573e+00	-1.9050369333e+00
 1.0707598714e+00	 1.1385633585e+00	-1.9295563064e+00
 1.1439593934e+00	 1.0758345628e+00	-1.6077204972e+00
 1.1306719154e+00	 1.0897908607e+00	-1.6489981264e+00
 1.1172126530e+00	 1.1035846085e+00	-1.7335214877e+00
 1.1035846085e+00	 1.1172126530e+00	-1.8382918533e+00
 1.0897908607e+00	 1.1306719154e+00	-1.9132752034e+00
 1.0758345628e+00	 1.1439593934e+00	-1.9354659299e+00
 1.1493554283e+00	 1.0809092541e+00	-1.6165666764e+00
 1.1360052734e+00	 1.0949313836e+00	-1.6596668656e+00
 1.1224825240e+00	 1.1087901963e+00	-1.7472231554e+00
 1.1087901963e+00	 1.1224825240e+00	-1.8485026192e+00
 1.0949313836e+00	 1.1360052734e+00	-1.9193307819e+00
 1.0809092541e+00	 1.1493554283e+00	-1.9400113415e+00
 1.1547514631e+00	 1.0859839454e+00	-1.6258586797e+00
 1.1413386315e+00	 1.1000719065e+00	-1.6717730999e+00
 1.1277523950e+00	 1.1139957840e+00	-1.7624771435e+00
 1.1139957840e+00	 1.1277523950e+00	-1.8555139758e+00
 1.1000719065e+00	 1.1413386315e+00	-1.9227011367e+00
 1.0859839454e+00	 1.1547514631e+00	-1.9427023927e+00
 1.1601474980e+00	 1.0910586368e+00	-1.6355743183e+00
 1.1466719896e+00	 1.1052124294e+00	-1.6853675155e+00
 1.1330222660e+00	 1.1192013718e+00	-1.7751497376e+00
 1.1192013718e+00	 1.1330222660e+00	-1.8597961962e+00
 1.1052124294e+00	 1.1466719896e+00	-1.9228944605e+00
 1.0910586368e+00	 1.1601474980e+00	-1.9430591798e+00
 1.0656851801e+00	 1.1331673236e+00	-1.9227823166e+00
 1.0517027236e+00	 1.1461563888e+00	-1.9277294410e+00
 1.0375657091e+00	 1.1589695793e+00	-1.9489903276e+00
 1.0232774664e+00	 1.1716041623e+00	-1.9799549283e+00
 1.0088413894e+00	 1.1840574891e+00	-2.0160319024e+00
 9.9426093286e-01	 1.1963269970e+00	-2.0545000459e+00
 1.0707598714e+00	 1.1385633585e+00	-1.9295563064e+00
 1.0567108318e+00	 1.1516142764e+00	-1.9329408290e+00
 1.0425064981e+00	 1.1644884821e+00	-1.9535269992e+00
 1.0281502163e+00	 1.1771832297e+00	-1.9843906689e+00
 1.0136453960e+00	 1.1896958581e+00	-2.0206280624e+00
 9.9899550873e-01	 1.2020237923e+00	-2.0592027178e+00
 1.0758345628e+00	 1.1439593934e+00	-1.9354659299e+00
 1.0617189400e+00	 1.1570721639e+00	-1.9381375746e+00
 1.0474472872e+00	 1.1700073848e+00	-1.9587043458e+00
 1.0330229661e+00	 1.1827622972e+00	-1.9898769546e+00
 1.0184494027e+00	 1.1953342270e+00	-2.0263877029e+00
 1.0037300846e+00	 1.2077205875e+00	-2.0648329116e+00
 1.0809092541e+00	 1.1493554283e+00	-1.9400113415e+00
 1.0667270482e+00	 1.1625300515e+00	-1.9428126784e+00
 1.0523880763e+00	 1.1755262876e+00	-1.9639954398e+00
 1.0378957159e+00	 1.1883413646e+00	-1.9958551532e+00
 1.0232534093e+00	 1.2009725960e+00	-2.0327097325e+00
 1.0084646605e+00	 1.2134173827e+00	-2.0707373657e+00
 1.0859839454e+00	 1.1547514631e+00	-1.9427023927e+00
 1.0717351564e+00	 1.1679879391e+00	-1.9464686434e+00
 1.0573288654e+00	 1.1810451904e+00	-1.9688828026e+00
 1.0427684658e+00	 1.1939204321e+00	-2.0017761612e+00
 1.0280574159e+00	 1.2066109650e+00	-2.0390027959e+00
 1.0131992363e+00	 1.2191141779e+00	-2.0762728816e+00
 1.0910586368e+00	 1.1601474980e+00	-1.9430591798e+00
 1.0767432646e+00	 1.1734458266e+00	-1.9486179940e+00
 1.0622696545e+00	 1.1865640931e+00	-1.9728588888e+00
 1.0476412156e+00	 1.1994994995e+00	-2.0071008501e+00
 1.0328614225e+00	 1.2122493340e+00	-2.0446856771e+00
 1.0179338122e+00	 1.2248109731e+00	-2.0808066811e+00
 9.9426093286e-01	 1.1963269970e+00	-2.0545000459e+00
 9.7953960979e-01	 1.2084102115e+00	-2.0861849275e+00
 9.6468098885e-01	 1.2203047473e+00	-2.1051313941e+00
 9.4968869134e-01	 1.2320083100e+00	-2.1157200046e+00
 9.3456638837e-01	 1.2435186980e+00	-2.1234737272e+00
 9.1931779788e-01	 1.2548338029e+00	-2.1348780871e+00
 9.9899550873e-01	 1.2020237923e+00	-2.0592027178e+00
 9.8420408412e-01	 1.2141645458e+00	-2.0905857351e+00
 9.6927470784e-01	 1.2261157222e+00	-2.1087856586e+00
 9.5421101844e-01	 1.2378750163e+00	-2.1183705523e+00
 9.3901670450e-01	 1.2494402156e+00	-2.1250865806e+00
 9.2369550168e-01	 1.2608092020e+00	-2.1356721657e+00
 1.0037300846e+00	 1.2077205875e+00	-2.0648329116e+00
 9.8886855845e-01	 1.2199188802e+00	-2.0955366992e+00
 9.7386842684e-01	 1.2319266972e+00	-2.1127094662e+00
 9.5873334554e-01	 1.2437417225e+00	-2.1211047950e+00
 9.4346702064e-01	 1.2553617332e+00	-2.1266957013e+00
 9.2807320548e-01	 1.2667846010e+00	-2.1364826212e+00
 1.0084646605e+00	 1.2134173827e+00	-2.0707373657e+00
 9.9353303278e-01	 1.2256732145e+00	-2.1003482325e+00
 9.7846214583e-01	 1.2377376722e+00	-2.1162178718e+00
 9.6325567265e-01	 1.2496084287e+00	-2.1232837681e+00
 9.4791733677e-01	 1.2612832508e+00	-2.1277497602e+00
 9.3245090928e-01	 1.2727600001e+00	-2.1368876767e+00
 1.0131992363e+00	 1.2191141779e+00	-2.0762728816e+00
 9.9819750712e-01	 1.2314275489e+00	-2.1043407932e+00
 9.8305586483e-01	 1.2435486472e+00	-2.1186351571e+00
 9.6777799975e-01	 1.2554751350e+00	-2.1242761187e+00
 9.5236765291e-01	 1.2672047684e+00	-2.1277026369e+00
 9.3682861308e-01	 1.2787353992e+00	-2.1364675795e+00
 1.0179338122e+00	 1.2248109731e+00	-2.0808066811e+00
 1.0028619814e+00	 1.2371818832e+00	-2.1068452031e+00
 9.8764958382e-01	 1.2493596222e+00	-2.1192951267e+00
 9.7230032685e-01	 1.2613418412e+00	-2.1234584003e+00
 9.5681796904e-01	 1.2731262860e+00	-2.1260137293e+00
 9.4120631688e-01	 1.2847107982e+00	-2.1348049444e+00
 9.1931779788e-01	 1.2548338029e+00	-2.1348780871e+00
 9.0394668173e-01	 1.2659516116e+00	-2.1438249273e+00
 8.8845684264e-01	 1.2768702069e+00	-2.1421714637e+00
 8.7285212116e-01	 1.2875877683e+00	-2.1342087020e+00
 8.5713639264e-01	 1.2981025733e+00	-2.1244259134e+00
 8.4131356412e-01	 1.3084129980e+00	-2.1173583160e+00
 9.2369550168e-01	 1.2608092020e+00	-2.1356721657e+00
 9.0825118974e-01	 1.2719799526e+00	-2.1438278290e+00
 8.9268758951e-01	 1.2829505412e+00	-2.1411315532e+00
 8.7700855983e-01	 1.2937191386e+00	-2.1320268233e+00
 8.6121799451e-01	 1.3042840141e+00	-2.1211683452e+00
 8.4531981919e-01	 1.3146435361e+00	-2.1132648841e+00
 9.2807320548e-01	 1.2667846010e+00	-2.1364826212e+00
 9.1255569775e-01	 1.2780082937e+00	-2.1439704749e+00
 8.9691833638e-01	 1.2890308755e+00	-2.1404419112e+00
 8.8116499851e-01	 1.2998505089e+00	-2.1304790466e+00
 8.6529959638e-01	 1.3104654550e+00	-2.1188758914e+00
 8.4932607426e-01	 1.3208740741e+00	-2.1104763827e+00
 9.3245090928e-01	 1.2727600001e+00	-2.1368876767e+00
 9.1686020576e-01	 1.2840366347e+00	-2.1439343333e+00
 9.0114908325e-01	 1.2951112098e+00	-2.1397929420e+00
 8.8532143718e-01	 1.3059818792e+00	-2.1291710248e+00
 8.6938119825e-01	 1.3166468958e+00	-2.1169764798e+00
 8.5333232932e-01	 1.3271046122e+00	-2.1081508439e+00
 9.3682861308e-01	 1.2787353992e+00	-2.1364675795e+00
 9.2116471377e-01	 1.2900649757e+00	-2.1434002184e+00
 9.0537983012e-01	 1.3011915441e+00	-2.1388735065e+00
 8.8947787585e-01	 1.3121132496e+00	-2.1277077654e+00
 8.7346280012e-01	 1.3228283366e+00	-2.1149000767e+00
 8.5733858439e-01	 1.3333351503e+00	-2.1054528025e+00
 9.4120631688e-01	 1.2847107982e+00	-2.1348049444e+00
 9.2546922178e-01	 1.2960933167e+00	-2.1420486557e+00
 9.0961057699e-01	 1.3072718785e+00	-2.1373712684e+00
 8.9363431452e-01	 1.3182446199e+00	-2.1256939188e+00
 8.7754440199e-01	 1.3290097774e+00	-2.1120788755e+00
 8.6134483946e-01	 1.3395656884e+00	-2.1015533439e+00
 8.4131356412e-01	 1.3084129980e+00	-2.1173583160e+00
 8.2538757125e-01	 1.3185175174e+00	-2.1054950143e+00
 8.0936237518e-01	 1.3284147064e+00	-2.0842346130e+00
 7.9324195946e-01	 1.3381032397e+00	-2.0621911857e+00
 7.7703032694e-01	 1.3475818927e+00	-2.0475711539e+00
 7.6073149664e-01	 1.3568495408e+00	-2.0480610227e+00
 8.4531981919e-01	 1.3146435361e+00	-2.1132648841e+00
 8.2931798825e-01	 1.3247961722e+00	-2.1011198820e+00
 8.1321648173e-01	 1.3347404907e+00	-2.0800612240e+00
 7.9701930213e-01	 1.3444751599e+00	-2.0582493973e+00
 7.8073047135e-01	 1.3539989493e+00	-2.0433655641e+00
 7.6435402758e-01	 1.3633107291e+00	-2.0424982402e+00
 8.4932607426e-01	 1.3208740741e+00	-2.1104763827e+00
 8.3324840526e-01	 1.3310748271e+00	-2.0981590732e+00
 8.1707058828e-01	 1.3410662750e+00	-2.0770384175e+00
 8.0079664479e-01	 1.3508470801e+00	-2.0549341481e+00
 7.8443061577e-01	 1.3604160059e+00	-2.0391353225e+00
 7.6797655851e-01	 1.3697719174e+00	-2.0362853620e+00
 8.5333232932e-01	 1.3271046122e+00	-2.1081508439e+00
 8.3717882227e-01	 1.3373534819e+00	-2.0955463487e+00
 8.2092469482e-01	 1.3473920593e+00	-2.0740574984e+00
 8.0457398745e-01	 1.3572190003e+00	-2.0512743907e+00
 7.8813076018e-01	 1.3668330626e+00	-2.0342251928e+00
 7.7159908945e-01	 1.3762331057e+00	-2.0292589592e+00
 8.5733858439e-01	 1.3333351503e+00	-2.1054528025e+00
 8.4110923927e-01	 1.3436321368e+00	-2.0922256492e+00
 8.2477880137e-01	 1.3537178436e+00	-2.0700203039e+00
 8.0835133012e-01	 1.3635909205e+00	-2.0463066771e+00
 7.9183090459e-01	 1.3732501192e+00	-2.0279813616e+00
 7.7522162038e-01	 1.3826942940e+00	-2.0212476516e+00
 8.6134483946e-01	 1.3395656884e+00	-2.1015533439e+00
 8.4503965628e-01	 1.3499107916e+00	-2.0871510227e+00
 8.2863290792e-01	 1.3600436279e+00	-2.0638390896e+00
 8.1212867278e-01	 1.3699628407e+00	-2.0390750816e+00
 7.9553104901e-01	 1.3796671758e+00	-2.0197514762e+00
 7.7884415132e-01	 1.3891554823e+00	-2.0120723362e+00
 7.6073149664e-01	 1.3568495408e+00	-2.0480610227e+00
 7.4434950070e-01	 1.3659051604e+00	-2.0341182404e+00
 7.2788838126e-01	 1.3747478281e+00	-1.9884244661e+00
 7.1135218747e-01	 1.3833767209e+00	-1.9389309790e+00
 6.9474497236e-01	 1.3917911157e+00	-1.8939472337e+00
 6.7807078992e-01	 1.3999903893e+00	-1.8601533347e+00
 7.6435402758e-01	 1.3633107291e+00	-2.0424982402e+00
 7.4789402213e-01	 1.3724094707e+00	-2.0271569112e+00
 7.3135451641e-01	 1.3812942463e+00	-1.9779846671e+00
 7.1473957883e-01	 1.3899642291e+00	-1.9253350921e+00
 6.9805328175e-01	 1.3984186925e+00	-1.8796059897e+00
 6.8129969845e-01	 1.4066570103e+00	-1.8477423277e+00
 7.6797655851e-01	 1.3697719174e+00	-2.0362853620e+00
 7.5143854356e-01	 1.3789137810e+00	-2.0193537786e+00
 7.3482065156e-01	 1.3878406645e+00	-1.9683129083e+00
 7.1812697020e-01	 1.3965517372e+00	-1.9132628915e+00
 7.0136159114e-01	 1.4050462692e+00	-1.8674334095e+00
 6.8452860697e-01	 1.4133236312e+00	-1.8376493534e+00
 7.7159908945e-01	 1.3762331057e+00	-2.0292589592e+00
 7.5498306499e-01	 1.3854180913e+00	-2.0109817596e+00
 7.3828678671e-01	 1.3943870828e+00	-1.9597361821e+00
 7.2151436157e-01	 1.4031392454e+00	-1.9029081649e+00
 7.0466990053e-01	 1.4116738459e+00	-1.8572182291e+00
 6.8775751549e-01	 1.4199902521e+00	-1.8289919961e+00
 7.7522162038e-01	 1.3826942940e+00	-2.0212476516e+00
 7.5852758642e-01	 1.3919224016e+00	-2.0022975789e+00
 7.4175292186e-01	 1.4009335010e+00	-1.9525242418e+00
 7.2490175294e-01	 1.4097267536e+00	-1.8944517618e+00
 7.0797820992e-01	 1.4183014227e+00	-1.8487430316e+00
 6.9098642402e-01	 1.4266568730e+00	-1.8208935085e+00
 7.7884415132e-01	 1.3891554823e+00	-2.0120723362e+00
 7.6207210786e-01	 1.3984267118e+00	-1.9935421625e+00
 7.4521905701e-01	 1.4074799192e+00	-1.9462932377e+00
 7.2828914431e-01	 1.4163142618e+00	-1.8880624924e+00
 7.1128651932e-01	 1.4249289994e+00	-1.8417849388e+00
 6.9421533254e-01	 1.4333234939e+00	-1.8124831791e+00
 6.7807078992e-01	 1.3999903893e+00	-1.8601533347e+00
 6.6133369212e-01	 1.4079740175e+00	-1.8355038258e+00
 6.4453772591e-01	 1.4157415747e+00	-1.8119579197e+00
 6.2768693041e-01	 1.4232927330e+00	-1.7856023976e+00
 6.1078533400e-01	 1.4306272618e+00	-1.7514049675e+00
 5.9383695154e-01	 1.4377450266e+00	-1.7032874855e+00
 6.8129969845e-01	 1.4066570103e+00	-1.8477423277e+00
 6.6448290018e-01	 1.4146786557e+00	-1.8260192924e+00
 6.4760695318e-01	 1.4224832012e+00	-1.8042668783e+00
 6.3067591579e-01	 1.4300703174e+00	-1.7781196212e+00
 6.1369383559e-01	 1.4374397726e+00	-1.7420192063e+00
 5.9666474655e-01	 1.4445914315e+00	-1.6892901691e+00
 6.8452860697e-01	 1.4133236312e+00	-1.8376493534e+00
 6.6763210823e-01	 1.4213832939e+00	-1.8180175640e+00
 6.5067618045e-01	 1.4292248278e+00	-1.7964611652e+00
 6.3366490118e-01	 1.4368479019e+00	-1.7688513308e+00
 6.1660233718e-01	 1.4442522833e+00	-1.7298302220e+00
 5.9949254155e-01	 1.4514378363e+00	-1.6728869595e+00
 6.8775751549e-01	 1.4199902521e+00	-1.8289919961e+00
 6.7078131629e-01	 1.4280879321e+00	-1.8100098299e+00
 6.5374540771e-01	 1.4359664543e+00	-1.7868303096e+00
 6.3665388656e-01	 1.4436254863e+00	-1.7562394676e+00
 6.1951083877e-01	 1.4510647941e+00	-1.7137954122e+00
 6.0232033656e-01	 1.4582842412e+00	-1.6539023778e+00
 6.9098642402e-01	 1.4266568730e+00	-1.8208935085e+00
 6.7393052435e-01	 1.4347925703e+00	-1.8005236278e+00
 6.5681463498e-01	 1.4427080809e+00	-1.7736837530e+00
 6.3964287194e-01	 1.4504030708e+00	-1.7387425384e+00
 6.2241934036e-01	 1.4578773049e+00	-1.6928786931e+00
 6.0514813157e-01	 1.4651306461e+00	-1.6321509341e+00
 6.9421533254e-01	 1.4333234939e+00	-1.8124831791e+00
 6.7707973241e-01	 1.4414972084e+00	-1.7881029142e+00
 6.5988386224e-01	 1.4494497074e+00	-1.7553507896e+00
 6.4263185733e-01	 1.4571806552e+00	-1.7148355875e+00
 6.2532784195e-01	 1.4646898156e+00	-1.6660506610e+00
 6.0797592657e-01	 1.4719770510e+00	-1.6074376306e+00
 5.9383695154e-01	 1.4377450266e+00	-1.7032874855e+00
 5.7684578163e-01	 1.4446459880e+00	-1.6486487117e+00
 5.5981580390e-01	 1.4513302009e+00	-1.5991148460e+00
 5.4275097638e-01	 1.4577978132e+00	-1.5537910020e+00
 5.2565523293e-01	 1.4640490642e+00	-1.5112814761e+00
 5.0853248072e-01	 1.4700842841e+00	-1.4697687246e+00
 5.9666474655e-01	 1.4445914315e+00	-1.6892901691e+00
 5.7959266630e-01	 1.4515252546e+00	-1.6286496606e+00
 5.6248159344e-01	 1.4582412971e+00	-1.5742641976e+00
 5.4533550484e-01	 1.4647397075e+00	-1.5264491111e+00
 5.2815835309e-01	 1.4710207265e+00	-1.4850522348e+00
 5.1095406396e-01	 1.4770846855e+00	-1.4495305515e+00
 5.9949254155e-01	 1.4514378363e+00	-1.6728869595e+00
 5.8233955098e-01	 1.4584045212e+00	-1.6089571255e+00
 5.6514738298e-01	 1.4651523933e+00	-1.5546911165e+00
 5.4792003330e-01	 1.4716816019e+00	-1.5109417035e+00
 5.3066147325e-01	 1.4779923887e+00	-1.4780955539e+00
 5.1337564720e-01	 1.4840850868e+00	-1.4533040404e+00
 6.0232033656e-01	 1.4582842412e+00	-1.6539023778e+00
 5.8508643565e-01	 1.4652837878e+00	-1.5902662793e+00
 5.6781317253e-01	 1.4720634895e+00	-1.5416312934e+00
 5.5050456176e-01	 1.4786234962e+00	-1.5087251351e+00
 5.3316459340e-01	 1.4849640509e+00	-1.4866483338e+00
 5.1579723044e-01	 1.4910854882e+00	-1.4518225960e+00
 6.0514813157e-01	 1.4651306461e+00	-1.6321509341e+00
 5.8783332033e-01	 1.4721630544e+00	-1.5732457826e+00
 5.7047896207e-01	 1.4789745857e+00	-1.5362836733e+00
 5.5308909022e-01	 1.4855653906e+00	-1.5141471037e+00
 5.3566771356e-01	 1.4919357131e+00	-1.4811570267e+00
 5.1821881368e-01	 1.4980858896e+00	-1.4377404533e+00
 6.0797592657e-01	 1.4719770510e+00	-1.6074376306e+00
 5.9058020500e-01	 1.4790423210e+00	-1.5585386289e+00
 5.7314475161e-01	 1.4858856819e+00	-1.5316245123e+00
 5.5567361868e-01	 1.4925072849e+00	-1.4982660386e+00
 5.3817083372e-01	 1.4989073753e+00	-1.4576745256e+00
 5.2064039692e-01	 1.5050862909e+00	-1.4118088359e+00
 5.0853248072e-01	 1.4700842841e+00	-1.4697687246e+00
 4.9138659777e-01	 1.4759038918e+00	-1.4309850276e+00
 4.7422143062e-01	 1.4815083939e+00	-1.3998328734e+00
 4.5704079200e-01	 1.4868983828e+00	-1.3671458624e+00
 4.3984845856e-01	 1.4920745356e+00	-1.3269079846e+00
 4.2264816881e-01	 1.4970376120e+00	-1.2861337284e+00
 5.1095406396e-01	 1.4770846855e+00	-1.4495305515e+00
 4.9372653395e-01	 1.4829320056e+00	-1.4210003323e+00
 4.7647962791e-01	 1.4885631958e+00	-1.3853354828e+00
 4.5921717672e-01	 1.4939788513e+00	-1.3405219880e+00
 4.4194297503e-01	 1.4991796525e+00	-1.2928039549e+00
 4.2466077914e-01	 1.5041663626e+00	-1.2485842724e+00
 5.1337564720e-01	 1.4840850868e+00	-1.4533040404e+00
 4.9606647013e-01	 1.4899601194e+00	-1.4165486829e+00
 4.7873782520e-01	 1.4956179976e+00	-1.3691089593e+00
 4.6139356144e-01	 1.5010593198e+00	-1.3164300242e+00
 4.4403749150e-01	 1.5062847693e+00	-1.2640961546e+00
 4.2667338947e-01	 1.5112951131e+00	-1.2178328787e+00
 5.1579723044e-01	 1.4910854882e+00	-1.4518225960e+00
 4.9840640631e-01	 1.4969882332e+00	-1.4049887094e+00
 4.8099602249e-01	 1.5026727995e+00	-1.3508949914e+00
 4.6356994617e-01	 1.5081397883e+00	-1.2942547593e+00
 4.4613200797e-01	 1.5133898862e+00	-1.2399149096e+00
 4.2868599980e-01	 1.5184238636e+00	-1.1928587183e+00
 5.1821881368e-01	 1.4980858896e+00	-1.4377404533e+00
 5.0074634249e-01	 1.5040163469e+00	-1.3865260897e+00
 4.8325421978e-01	 1.5097276014e+00	-1.3304485093e+00
 4.6574633089e-01	 1.5152202568e+00	-1.2733999062e+00
 4.4822652444e-01	 1.5204950030e+00	-1.2194132013e+00
 4.3069861012e-01	 1.5255526142e+00	-1.1726653837e+00
 5.2064039692e-01	 1.5050862909e+00	-1.4118088359e+00
 5.0308627867e-01	 1.5110444607e+00	-1.3613721586e+00
 4.8551241707e-01	 1.5167824033e+00	-1.3075375599e+00
 4.6792271561e-01	 1.5223007253e+00	-1.2532878595e+00
 4.5032104091e-01	 1.5276001198e+00	-1.2017663466e+00
 4.3271122045e-01	 1.5326813647e+00	-1.1562805364e+00
 4.2264816881e-01	 1.4970376120e+00	-1.2861337284e+00
 4.0544362095e-01	 1.5017884527e+00	-1.2539187186e+00
 3.8823847091e-01	 1.5063279776e+00	-1.2204757516e+00
 3.7103633044e-01	 1.5106571841e+00	-1.1650977137e+00
 3.5384076526e-01	 1.5147771451e+00	-1.1057416880e+00
 3.3665529329e-01	 1.5186890070e+00	-1.0710079960e+00
 4.2466077914e-01	 1.5041663626e+00	-1.2485842724e+00
 4.0737430486e-01	 1.5089398263e+00	-1.2165793812e+00
 3.9008722553e-01	 1.5135009680e+00	-1.1865658323e+00
 3.7280317011e-01	 1.5178507898e+00	-1.1371036374e+00
 3.5552572128e-01	 1.5219903696e+00	-1.0780173133e+00
 3.3825841373e-01	 1.5259208594e+00	-1.0444455114e+00
 4.2667338947e-01	 1.5112951131e+00	-1.2178328787e+00
 4.0930498877e-01	 1.5160911999e+00	-1.1860332963e+00
 3.9193598016e-01	 1.5206739583e+00	-1.1584368629e+00
 3.7457000978e-01	 1.5250443954e+00	-1.1133292515e+00
 3.5721067731e-01	 1.5292035941e+00	-1.0536131369e+00
 3.3986153417e-01	 1.5331527118e+00	-1.0195880151e+00
 4.2868599980e-01	 1.5184238636e+00	-1.1928587183e+00
 4.1123567268e-01	 1.5232425734e+00	-1.1611874982e+00
 3.9378473478e-01	 1.5278469487e+00	-1.1349737834e+00
 3.7633684945e-01	 1.5322380010e+00	-1.0926812333e+00
 3.5889563333e-01	 1.5364168186e+00	-1.0315293359e+00
 3.4146465462e-01	 1.5403845642e+00	-9.9558645847e-01
 4.3069861012e-01	 1.5255526142e+00	-1.1726653837e+00
 4.1316635659e-01	 1.5303939470e+00	-1.1409737037e+00
 3.9563348941e-01	 1.5350199391e+00	-1.1150855199e+00
 3.7810368912e-01	 1.5394316067e+00	-1.0740887146e+00
 3.6058058936e-01	 1.5436300431e+00	-1.0107752421e+00
 3.4306777506e-01	 1.5476164166e+00	-9.7159646512e-01
 4.3271122045e-01	 1.5326813647e+00	-1.1562805364e+00
 4.1509704050e-01	 1.5375453206e+00	-1.1243479591e+00
 3.9748224403e-01	 1.5421929295e+00	-1.0977046515e+00
 3.7987052879e-01	 1.5466252123e+00	-1.0565029867e+00
 3.6226554538e-01	 1.5508432676e+00	-9.9036971513e-01
 3.4467089551e-01	 1.5548482691e+00	-9.4677870236e-01
 3.3665529329e-01	 1.5186890070e+00	-1.0710079960e+00
 3.1948338299e-01	 1.5223939879e+00	-1.0453588251e+00
 3.0232845180e-01	 1.5258933756e+00	-1.0197258238e+00
 2.8519386456e-01	 1.5291885253e+00	-9.9248527729e-01
 2.6808293217e-01	 1.5322808580e+00	-9.6307380397e-01
 2.5099891018e-01	 1.5351718580e+00	-9.3180137149e-01
 3.3825841373e-01	 1.5259208594e+00	-1.0444455114e+00
 3.2100473243e-01	 1.5296434831e+00	-1.0204494726e+00
 3.0376811109e-01	 1.5331595345e+00	-9.9586309756e-01
 2.8655193058e-01	 1.5364703755e+00	-9.6891894404e-01
 2.6935951756e-01	 1.5395774335e+00	-9.3893140833e-01
 2.5219414309e-01	 1.5424822002e+00	-9.0611005093e-01
 3.3986153417e-01	 1.5331527118e+00	-1.0195880151e+00
 3.2252608188e-01	 1.5368929783e+00	-9.9623141219e-01
 3.0520777039e-01	 1.5404256934e+00	-9.7233758272e-01
 2.8790999660e-01	 1.5437522256e+00	-9.4580662431e-01
 2.7063610295e-01	 1.5468740091e+00	-9.1563872093e-01
 2.5338937599e-01	 1.5497925423e+00	-8.8174834352e-01
 3.4146465462e-01	 1.5403845642e+00	-9.9558645847e-01
 3.2404743132e-01	 1.5441424734e+00	-9.7200243066e-01
 3.0664742968e-01	 1.5476918524e+00	-9.4855721952e-01
 2.8926806263e-01	 1.5510340757e+00	-9.2263218971e-01
 2.7191268834e-01	 1.5541705846e+00	-8.9272372264e-01
 2.5458460890e-01	 1.5571028845e+00	-8.5825885781e-01
 3.4306777506e-01	 1.5476164166e+00	-9.7159646512e-01
 3.2556878076e-01	 1.5513919686e+00	-9.4706094535e-01
 3.0808708897e-01	 1.5549580113e+00	-9.2392758034e-01
 2.9062612865e-01	 1.5583159258e+00	-8.9887513222e-01
 2.7318927373e-01	 1.5614671601e+00	-8.6970893049e-01
 2.5577984180e-01	 1.5644132267e+00	-8.3517852153e-01
 3.4467089551e-01	 1.5548482691e+00	-9.4677870236e-01
 3.2709013021e-01	 1.5586414638e+00	-9.2070637262e-01
 3.0952674827e-01	 1.5622241702e+00	-8.9785222111e-01
 2.9198419467e-01	 1.5655977759e+00	-8.7401088472e-01
 2.7446585912e-01	 1.5687637356e+00	-8.4611167487e-01
 2.5697507471e-01	 1.5717235689e+00	-8.1203880439e-01
 2.5099891018e-01	 1.5351718580e+00	-9.3180137149e-01
 2.3394499760e-01	 1.5378630708e+00	-9.0155639223e-01
 2.1692433567e-01	 1.5403561014e+00	-8.7424548616e-01
 1.9994000682e-01	 1.5426526116e+00	-8.4968331640e-01
 1.8299503363e-01	 1.5447543184e+00	-8.2814835269e-01
 1.6609237795e-01	 1.5466629912e+00	-8.1025854856e-01
 2.5219414309e-01	 1.5424822002e+00	-9.0611005093e-01
 2.3505902140e-01	 1.5451862283e+00	-8.7401516180e-01
 2.1795730870e-01	 1.5476911304e+00	-8.4532625490e-01
 2.0089210209e-01	 1.5499985764e+00	-8.1992798964e-01
 1.8386643856e-01	 1.5521102913e+00	-7.9817333335e-01
 1.6688329404e-01	 1.5540280531e+00	-7.8076150249e-01
 2.5338937599e-01	 1.5497925423e+00	-8.8174834352e-01
 2.3617304519e-01	 1.5525093858e+00	-8.4812441808e-01
 2.1899028172e-01	 1.5550261595e+00	-8.1815507521e-01
 2.0184419736e-01	 1.5573445412e+00	-7.9186604284e-01
 1.8473784348e-01	 1.5594662642e+00	-7.6975453163e-01
 1.6767421012e-01	 1.5613931149e+00	-7.5266947938e-01
 2.5458460890e-01	 1.5571028845e+00	-8.5825885781e-01
 2.3728706899e-01	 1.5598325432e+00	-8.2343326847e-01
 2.2002325475e-01	 1.5623611885e+00	-7.9229809543e-01
 2.0279629263e-01	 1.5646905061e+00	-7.6508945154e-01
 1.8560924840e-01	 1.5668222372e+00	-7.4251674592e-01
 1.6846512621e-01	 1.5687581768e+00	-7.2564527765e-01
 2.5577984180e-01	 1.5644132267e+00	-8.3517852153e-01
 2.3840109279e-01	 1.5671557007e+00	-7.9948537204e-01
 2.2105622778e-01	 1.5696962176e+00	-7.6731632757e-01
 2.0374838790e-01	 1.5720364709e+00	-7.3918545647e-01
 1.8648065332e-01	 1.5741782101e+00	-7.1608053978e-01
 1.6925604229e-01	 1.5761232387e+00	-6.9934806721e-01
 2.5697507471e-01	 1.5717235689e+00	-8.1203880439e-01
 2.3951511659e-01	 1.5744788582e+00	-7.7581910593e-01
 2.2208920080e-01	 1.5770312466e+00	-7.4276576380e-01
 2.0470048317e-01	 1.5793824357e+00	-7.1373663598e-01
 1.8735205824e-01	 1.5815341831e+00	-6.9006227559e-01
 1.7004695838e-01	 1.5834883005e+00	-6.7343338892e-01
 1.6609237795e-01	 1.5466629912e+00	-8.1025854856e-01
 1.4923494001e-01	 1.5483804504e+00	-7.9486828115e-01
 1.3242555768e-01	 1.5499085644e+00	-7.8054417052e-01
 1.1566700580e-01	 1.5512492482e+00	-7.6757609297e-01
 9.8961995584e-02	 1.5524044608e+00	-7.5607326881e-01
 8.2313174043e-02	 1.5533762029e+00	-7.4587701885e-01
 1.6688329404e-01	 1.5540280531e+00	-7.8076150249e-01
 1.4994558258e-01	 1.5557536906e+00	-7.6605501769e-01
 1.3305615557e-01	 1.5572890814e+00	-7.5207538564e-01
 1.1621780107e-01	 1.5586361494e+00	-7.3913716289e-01
 9.9433243182e-02	 1.5597968630e+00	-7.2739866459e-01
 8.2705141538e-02	 1.5607732325e+00	-7.1677719775e-01
 1.6767421012e-01	 1.5613931149e+00	-7.5266947938e-01
 1.5065622515e-01	 1.5631269309e+00	-7.3856036091e-01
 1.3368675347e-01	 1.5646695984e+00	-7.2490780975e-01
 1.1676859634e-01	 1.5660230506e+00	-7.1200746437e-01
 9.9904490780e-02	 1.5671892652e+00	-7.0002429530e-01
 8.3097109034e-02	 1.5681702620e+00	-6.8891053131e-01
 1.6846512621e-01	 1.5687581768e+00	-7.2564527765e-01
 1.5136686772e-01	 1.5705001711e+00	-7.1208940388e-01
 1.3431735136e-01	 1.5720501154e+00	-6.9879325915e-01
 1.1731939160e-01	 1.5734099518e+00	-6.8598963302e-01
 1.0037573838e-01	 1.5745816674e+00	-6.7380735485e-01
 8.3489076529e-02	 1.5755672915e+00	-6.6219213443e-01
 1.6925604229e-01	 1.5761232387e+00	-6.9934806721e-01
 1.5207751029e-01	 1.5778734113e+00	-6.8634431294e-01
 1.3494794925e-01	 1.5794306323e+00	-6.7348138956e-01
 1.1787018687e-01	 1.5807968530e+00	-6.6088495118e-01
 1.0084698598e-01	 1.5819740696e+00	-6.4860450878e-01
 8.3881044025e-02	 1.5829643211e+00	-6.3653741255e-01
 1.7004695838e-01	 1.5834883005e+00	-6.7343338892e-01
 1.5278815286e-01	 1.5852466516e+00	-6.6102429742e-01
 1.3557854715e-01	 1.5868111493e+00	-6.4871964085e-01
 1.1842098213e-01	 1.5881837542e+00	-6.3649327240e-01
 1.0131823357e-01	 1.5893664718e+00	-6.2427180339e-01
 8.4273011520e-02	 1.5903613506e+00	-6.1186196019e-01
 8.2313174043e-02	 1.5533762029e+00	-7.4587701885e-01
 6.5723123590e-02	 1.5541665154e+00	-7.3640024005e-01
 4.9194361635e-02	 1.5547774764e+00	-7.2846727922e-01
 3.2729340287e-02	 1.5552112000e+00	-7.2337264871e-01
 1.6330446118e-02	 1.5554698335e+00	-7.2179551388e-01
 0.0000000000e+00	 1.5555555556e+00	-7.2371889730e-01
 8.2705141538e-02	 1.5607732325e+00	-7.1677719775e-01
 6.6036090845e-02	 1.5615673083e+00	-7.0691481112e-01
 4.9428620500e-02	 1.5621811787e+00	-6.9881496473e-01
 3.2885194289e-02	 1.5626169677e+00	-6.9382423711e-01
 1.6408210147e-02	 1.5628768327e+00	-6.9271467089e-01
 0.0000000000e+00	 1.5629629630e+00	-6.9560453848e-01
 8.3097109034e-02	 1.5681702620e+00	-6.8891053131e-01
 6.6349058100e-02	 1.5689681012e+00	-6.7852738545e-01
 4.9662879365e-02	 1.5695848810e+00	-6.7011563699e-01
 3.3041048290e-02	 1.5700227353e+00	-6.6513489988e-01
 1.6485974177e-02	 1.5702838319e+00	-6.6450926364e-01
 0.0000000000e+00	 1.5703703704e+00	-6.6854972471e-01
 8.3489076529e-02	 1.5755672915e+00	-6.6219213443e-01
 6.6662025356e-02	 1.5763688941e+00	-6.5120283115e-01
 4.9897138230e-02	 1.5769885832e+00	-6.4236332659e-01
 3.3196902291e-02	 1.5774285029e+00	-6.3730554114e-01
 1.6563738206e-02	 1.5776908311e+00	-6.3716312418e-01
 0.0000000000e+00	 1.5777777778e+00	-6.4249566031e-01
 8.3881044025e-02	 1.5829643211e+00	-6.3653741255e-01
 6.6974992611e-02	 1.5837696871e+00	-6.2490730422e-01
 5.0131397095e-02	 1.5843922855e+00	-6.1555472877e-01
 3.3352756293e-02	 1.5848342705e+00	-6.1034148653e-01
 1.6641502235e-02	 1.5850978303e+00	-6.1066664310e-01
 0.0000000000e+00	 1.5851851852e+00	-6.1739262493e-01
 8.4273011520e-02	 1.5903613506e+00	-6.1186196019e-01
 6.7287959866e-02	 1.5911704800e+00	-5.9960813652e-01
 5.0365655960e-02	 1.5917959878e+00	-5.8968907577e-01
 3.3508610294e-02	 1.5922400381e+00	-5.8425233420e-01
 1.6719266264e-02	 1.5925048295e+00	-5.8501659291e-01
 0.0000000000e+00	 1.5925925926e+00	-5.9319976250e-01
 1.5925925926e+00	 0.0000000000e+00	 3.6388466972e+00
 1.5925048295e+00	 1.6719266264e-02	 3.6370051644e+00
 1.5922400381e+00	 3.3508610294e-02	 3.6311358139e+00
 1.5917959878e+00	 5.0365655960e-02	 3.6216980729e+00
 1.5911704800e+00	 6.7287959866e-02	 3.6084963318e+00
 1.5903613506e+00	 8.4273011520e-02	 3.5907385253e+00
 1.6000000000e+00	 0.0000000000e+00	 3.6266088826e+00
 1.5999118287e+00	 1.6797030293e-02	 3.6243662958e+00
 1.5996458057e+00	 3.3664464295e-02	 3.6184411976e+00
 1.5991996900e+00	 5.0599914825e-02	 3.6091487214e+00
 1.5985712729e+00	 6.7600927121e-02	 3.5961733744e+00
 1.5977583801e+00	 8.4664979016e-02	 3.5786249499e+00
 1.6074074074e+00	 0.0000000000e+00	 3.6141008976e+00
 1.6073188280e+00	 1.6874794322e-02	 3.6115726356e+00
 1.6070515734e+00	 3.3820318297e-02	 3.6055980297e+00
 1.6066033923e+00	 5.0834173690e-02	 3.5964010395e+00
 1.6059720659e+00	 6.7913894376e-02	 3.5836009148e+00
 1.6051554097e+00	 8.5056946511e-02	 3.5662652016e+00
 1.6148148148e+00	 0.0000000000e+00	 3.6012917067e+00
 1.6147258272e+00	 1.6952558351e-02	 3.5986063434e+00
 1.6144573410e+00	 3.3976172298e-02	 3.5925888880e+00
 1.6140070946e+00	 5.1068432555e-02	 3.5834253241e+00
 1.6133728588e+00	 6.8226861632e-02	 3.5707243799e+00
 1.6125524392e+00	 8.5448914007e-02	 3.5535673844e+00
 1.6222222222e+00	 0.0000000000e+00	 3.5881507196e+00
 1.6221328264e+00	 1.7030322381e-02	 3.5854500293e+00
 1.6218631086e+00	 3.4132026300e-02	 3.5793968209e+00
 1.6214107968e+00	 5.1302691420e-02	 3.5701924064e+00
 1.6207736517e+00	 6.8539828887e-02	 3.5574898645e+00
 1.6199494688e+00	 8.5840881502e-02	 3.5404405011e+00
 1.6296296296e+00	 0.0000000000e+00	 3.5746477816e+00
 1.6295398256e+00	 1.7108086410e-02	 3.5720867449e+00
 1.6292688762e+00	 3.4287880301e-02	 3.5660053392e+00
 1.6288144991e+00	 5.1536950285e-02	 3.5566736410e+00
 1.6281744447e+00	 6.8852796142e-02	 3.5438441156e+00
 1.6273464983e+00	 8.6232848997e-02	 3.5267944306e+00
 1.5903613506e+00	 8.4273011520e-02	 3.5907385253e+00
 1.5893664718e+00	 1.0131823357e-01	 3.5675168818e+00
 1.5881837542e+00	 1.1842098213e-01	 3.5396955702e+00
 1.5868111493e+00	 1.3557854715e-01	 3.5084455193e+00
 1.5852466516e+00	 1.5278815286e-01	 3.4746111537e+00
 1.5834883005e+00	 1.7004695838e-01	 3.4387789406e+00
 1.5977583801e+00	 8.4664979016e-02	 3.5786249499e+00
 1.5967588739e+00	 1.0178948117e-01	 3.5553991192e+00
 1.5955706553e+00	 1.1897177740e-01	 3.5273062173e+00
 1.5941916663e+00	 1.3620914504e-01	 3.4956572894e+00
 1.5926198918e+00	 1.5349879544e-01	 3.4614463914e+00
 1.5908533624e+00	 1.7083787446e-01	 3.4254148395e+00
 1.6051554097e+00	 8.5056946511e-02	 3.5662652016e+00
 1.6041512761e+00	 1.0226072877e-01	 3.5431292296e+00
 1.6029575565e+00	 1.1952257266e-01	 3.5149166085e+00
 1.6015721832e+00	 1.3683974293e-01	 3.4830315189e+00
 1.5999931321e+00	 1.5420943801e-01	 3.4485705658e+00
 1.5982184243e+00	 1.7162879055e-01	 3.4123826185e+00
 1.6125524392e+00	 8.5448914007e-02	 3.5535673844e+00
 1.6115436783e+00	 1.0273197637e-01	 3.5305712907e+00
 1.6103444577e+00	 1.2007336793e-01	 3.5023468511e+00
 1.6089527002e+00	 1.3747034083e-01	 3.4703460841e+00
 1.6073663723e+00	 1.5492008058e-01	 3.4357227590e+00
 1.6055834861e+00	 1.7241970664e-01	 3.3993877113e+00
 1.6199494688e+00	 8.5840881502e-02	 3.5404405011e+00
 1.6189360805e+00	 1.0320322397e-01	 3.5175905340e+00
 1.6177313589e+00	 1.2062416320e-01	 3.4894183929e+00
 1.6163332172e+00	 1.3810093872e-01	 3.4573803211e+00
 1.6147396125e+00	 1.5563072315e-01	 3.4226435677e+00
 1.6129485480e+00	 1.7321062272e-01	 3.3861370557e+00
 1.6273464983e+00	 8.6232848997e-02	 3.5267944306e+00
 1.6263284827e+00	 1.0367447156e-01	 3.5040533143e+00
 1.6251182601e+00	 1.2117495846e-01	 3.4759539868e+00
 1.6237137342e+00	 1.3873153661e-01	 3.4439149889e+00
 1.6221128528e+00	 1.5634136572e-01	 3.4090750666e+00
 1.6203136098e+00	 1.7400153881e-01	 3.3723390622e+00
 1.5834883005e+00	 1.7004695838e-01	 3.4387789406e+00
 1.5815341831e+00	 1.8735205824e-01	 3.4006733471e+00
 1.5793824357e+00	 2.0470048317e-01	 3.3581656351e+00
 1.5770312466e+00	 2.2208920080e-01	 3.3089158433e+00
 1.5744788582e+00	 2.3951511659e-01	 3.2506767591e+00
 1.5717235689e+00	 2.5697507471e-01	 3.1814171885e+00
 1.5908533624e+00	 1.7083787446e-01	 3.4254148395e+00
 1.5888901560e+00	 1.8822346317e-01	 3.3874974181e+00
 1.5867284005e+00	 2.0565257844e-01	 3.3454939698e+00
 1.5843662757e+00	 2.2312217383e-01	 3.2967902207e+00
 1.5818020157e+00	 2.4062914039e-01	 3.2388513619e+00
 1.5790339111e+00	 2.5817030761e-01	 3.1693418997e+00
 1.5982184243e+00	 1.7162879055e-01	 3.4123826185e+00
 1.5962461290e+00	 1.8909486809e-01	 3.3746011422e+00
 1.5940743653e+00	 2.0660467371e-01	 3.3330240288e+00
 1.5917013047e+00	 2.2415514686e-01	 3.2848361267e+00
 1.5891251732e+00	 2.4174316418e-01	 3.2272872381e+00
 1.5863442532e+00	 2.5936554052e-01	 3.1578081773e+00
 1.6055834861e+00	 1.7241970664e-01	 3.3993877113e+00
 1.6036021019e+00	 1.8996627301e-01	 3.3616535154e+00
 1.6014203301e+00	 2.0755676898e-01	 3.3203764683e+00
 1.5990363338e+00	 2.2518811988e-01	 3.2726139103e+00
 1.5964483306e+00	 2.4285718798e-01	 3.2154723756e+00
 1.5936545954e+00	 2.6056077343e-01	 3.1462194815e+00
 1.6129485480e+00	 1.7321062272e-01	 3.3861370557e+00
 1.6109580749e+00	 1.9083767793e-01	 3.3483251394e+00
 1.6087662950e+00	 2.0850886425e-01	 3.3071739642e+00
 1.6063713629e+00	 2.2622109291e-01	 3.2596866972e+00
 1.6037714881e+00	 2.4397121178e-01	 3.2028986707e+00
 1.6009649376e+00	 2.6175600633e-01	 3.1339847201e+00
 1.6203136098e+00	 1.7400153881e-01	 3.3723390622e+00
 1.6183140478e+00	 1.9170908285e-01	 3.3342881971e+00
 1.6161122598e+00	 2.0946095952e-01	 3.2930411886e+00
 1.6137063919e+00	 2.2725406594e-01	 3.2456203637e+00
 1.6110946456e+00	 2.4508523558e-01	 3.1890618969e+00
 1.6082752798e+00	 2.6295123924e-01	 3.1205182074e+00
 1.5717235689e+00	 2.5697507471e-01	 3.1814171885e+00
 1.5687637356e+00	 2.7446585912e-01	 3.1080194071e+00
 1.5655977759e+00	 2.9198419467e-01	 3.0385459726e+00
 1.5622241702e+00	 3.0952674827e-01	 2.9735006007e+00
 1.5586414638e+00	 3.2709013021e-01	 2.9142400685e+00
 1.5548482691e+00	 3.4467089551e-01	 2.8631909194e+00
 1.5790339111e+00	 2.5817030761e-01	 3.1693418997e+00
 1.5760603111e+00	 2.7574244451e-01	 3.0948402606e+00
 1.5728796261e+00	 2.9334226069e-01	 3.0237580854e+00
 1.5694903292e+00	 3.1096640756e-01	 2.9572396111e+00
 1.5658909590e+00	 3.2861147965e-01	 2.8972520718e+00
 1.5620801215e+00	 3.4627401595e-01	 2.8467987636e+00
 1.5863442532e+00	 2.5936554052e-01	 3.1578081773e+00
 1.5833568866e+00	 2.7701902991e-01	 3.0826554176e+00
 1.5801614762e+00	 2.9470032671e-01	 3.0104249634e+00
 1.5767564881e+00	 3.1240606686e-01	 2.9427503708e+00
 1.5731404542e+00	 3.3013282909e-01	 2.8820576156e+00
 1.5693119739e+00	 3.4787713639e-01	 2.8317746658e+00
 1.5936545954e+00	 2.6056077343e-01	 3.1462194815e+00
 1.5906534622e+00	 2.7829561530e-01	 3.0707939383e+00
 1.5874433263e+00	 2.9605839273e-01	 2.9978357486e+00
 1.5840226470e+00	 3.1384572615e-01	 2.9293194972e+00
 1.5803899493e+00	 3.3165417853e-01	 2.8679810382e+00
 1.5765438263e+00	 3.4948025684e-01	 2.8175237130e+00
 1.6009649376e+00	 2.6175600633e-01	 3.1339847201e+00
 1.5979500377e+00	 2.7957220069e-01	 3.0585918988e+00
 1.5947251764e+00	 2.9741645876e-01	 2.9852877760e+00
 1.5912888060e+00	 3.1528538545e-01	 2.9162425605e+00
 1.5876394445e+00	 3.3317552798e-01	 2.8543559442e+00
 1.5837756787e+00	 3.5108337728e-01	 2.8034600947e+00
 1.6082752798e+00	 2.6295123924e-01	 3.1205182074e+00
 1.6052466132e+00	 2.8084878608e-01	 3.0453923428e+00
 1.6020070265e+00	 2.9877452478e-01	 2.9720865353e+00
 1.5985549649e+00	 3.1672504474e-01	 2.9028240704e+00
 1.5948889397e+00	 3.3469687742e-01	 2.8405252322e+00
 1.5910075311e+00	 3.5268649773e-01	 2.7890071913e+00
 1.5548482691e+00	 3.4467089551e-01	 2.8631909194e+00
 1.5508432676e+00	 3.6226554538e-01	 2.7959112221e+00
 1.5466252123e+00	 3.7987052879e-01	 2.6920396169e+00
 1.5421929295e+00	 3.9748224403e-01	 2.5725420369e+00
 1.5375453206e+00	 4.1509704050e-01	 2.4560993438e+00
 1.5326813647e+00	 4.3271122045e-01	 2.3607231376e+00
 1.5620801215e+00	 3.4627401595e-01	 2.8467987636e+00
 1.5580564921e+00	 3.6395050141e-01	 2.7815473176e+00
 1.5538188179e+00	 3.8163736846e-01	 2.6805725949e+00
 1.5493659198e+00	 3.9933099865e-01	 2.5638741775e+00
 1.5446966942e+00	 4.1702772441e-01	 2.4488584782e+00
 1.5398101152e+00	 4.3472383078e-01	 2.3526632608e+00
 1.5693119739e+00	 3.4787713639e-01	 2.8317746658e+00
 1.5652697166e+00	 3.6563545743e-01	 2.7677198731e+00
 1.5610124236e+00	 3.8340420812e-01	 2.6688205186e+00
 1.5565389102e+00	 4.0117975328e-01	 2.5542157000e+00
 1.5518480678e+00	 4.1895840831e-01	 2.4403363301e+00
 1.5469388658e+00	 4.3673644111e-01	 2.3436331157e+00
 1.5765438263e+00	 3.4948025684e-01	 2.8175237130e+00
 1.5724829411e+00	 3.6732041346e-01	 2.7539138124e+00
 1.5682060292e+00	 3.8517104779e-01	 2.6563109512e+00
 1.5637119006e+00	 4.0302850790e-01	 2.5430927304e+00
 1.5589994414e+00	 4.2088909222e-01	 2.4299984758e+00
 1.5540676163e+00	 4.3874905143e-01	 2.3329754644e+00
 1.5837756787e+00	 3.5108337728e-01	 2.8034600947e+00
 1.5796961656e+00	 3.6900536948e-01	 2.7396233446e+00
 1.5753996349e+00	 3.8693788746e-01	 2.6425844016e+00
 1.5708848909e+00	 4.0487726252e-01	 2.5300452921e+00
 1.5661508150e+00	 4.2281977613e-01	 2.4173264005e+00
 1.5611963668e+00	 4.4076166176e-01	 2.3200520993e+00
 1.5910075311e+00	 3.5268649773e-01	 2.7890071913e+00
 1.5869093901e+00	 3.7069032551e-01	 2.7243535760e+00
 1.5825932405e+00	 3.8870472713e-01	 2.6271941621e+00
 1.5780578813e+00	 4.0672601715e-01	 2.5146271142e+00
 1.5733021885e+00	 4.2475046004e-01	 2.4018172515e+00
 1.5683251174e+00	 4.4277427209e-01	 2.3042435140e+00
 1.5326813647e+00	 4.3271122045e-01	 2.3607231376e+00
 1.5276001198e+00	 4.5032104091e-01	 2.2818923572e+00
 1.5223007253e+00	 4.6792271561e-01	 2.2008980287e+00
 1.5167824033e+00	 4.8551241707e-01	 2.1149431810e+00
 1.5110444607e+00	 5.0308627867e-01	 2.0215335496e+00
 1.5050862909e+00	 5.2064039692e-01	 1.9184694101e+00
 1.5398101152e+00	 4.3472383078e-01	 2.3526632608e+00
 1.5347052367e+00	 4.5241555738e-01	 2.2711944014e+00
 1.5293811938e+00	 4.7009910034e-01	 2.1869943826e+00
 1.5238372051e+00	 4.8777061436e-01	 2.0976239652e+00
 1.5180725745e+00	 5.0542621485e-01	 2.0009364382e+00
 1.5120866923e+00	 5.2306198017e-01	 1.8950694977e+00
 1.5469388658e+00	 4.3673644111e-01	 2.3436331157e+00
 1.5418103535e+00	 4.5451007385e-01	 2.2604390851e+00
 1.5364616623e+00	 4.7227548506e-01	 2.1742450291e+00
 1.5308920070e+00	 4.9002881164e-01	 2.0827021067e+00
 1.5251006882e+00	 5.0776615103e-01	 1.9837504370e+00
 1.5190870936e+00	 5.2548356341e-01	 1.8756117497e+00
 1.5540676163e+00	 4.3874905143e-01	 2.3329754644e+00
 1.5489154703e+00	 4.5660459032e-01	 2.2488516555e+00
 1.5435421308e+00	 4.7445186979e-01	 2.1618350273e+00
 1.5379468089e+00	 4.9228700893e-01	 2.0694033660e+00
 1.5321288020e+00	 5.1010608721e-01	 1.9693264282e+00
 1.5260874950e+00	 5.2790514665e-01	 1.8596600842e+00
 1.5611963668e+00	 4.4076166176e-01	 2.3200520993e+00
 1.5560205872e+00	 4.5869910679e-01	 2.2356793810e+00
 1.5506225992e+00	 4.7662825451e-01	 2.1489729972e+00
 1.5450016108e+00	 4.9454520622e-01	 2.0569770817e+00
 1.5391569158e+00	 5.1244602339e-01	 1.9570372982e+00
 1.5330878963e+00	 5.3032672989e-01	 1.8467971922e+00
 1.5683251174e+00	 4.4277427209e-01	 2.3042435140e+00
 1.5631257040e+00	 4.6079362326e-01	 2.2201911400e+00
 1.5577030677e+00	 4.7880463923e-01	 2.1348906560e+00
 1.5520564126e+00	 4.9680340351e-01	 2.0446956877e+00
 1.5461850295e+00	 5.1478595957e-01	 1.9462774698e+00
 1.5400882977e+00	 5.3274831313e-01	 1.8366241199e+00
 1.5050862909e+00	 5.2064039692e-01	 1.9184694101e+00
 1.4989073753e+00	 5.3817083372e-01	 1.8057961808e+00
 1.4925072849e+00	 5.5567361868e-01	 1.6854897382e+00
 1.4858856819e+00	 5.7314475161e-01	 1.5587620706e+00
 1.4790423210e+00	 5.9058020500e-01	 1.4294148424e+00
 1.4719770510e+00	 6.0797592657e-01	 1.3257135602e+00
 1.5120866923e+00	 5.2306198017e-01	 1.8950694977e+00
 1.5058790375e+00	 5.4067395387e-01	 1.7810975042e+00
 1.4994491793e+00	 5.5825814714e-01	 1.6627422330e+00
 1.4927967781e+00	 5.7581054115e-01	 1.5425861920e+00
 1.4859215877e+00	 5.9332708967e-01	 1.4235425079e+00
 1.4788234559e+00	 6.1080372158e-01	 1.3113855075e+00
 1.5190870936e+00	 5.2548356341e-01	 1.8756117497e+00
 1.5128506997e+00	 5.4317707403e-01	 1.7599692732e+00
 1.5063910736e+00	 5.6084267560e-01	 1.6419775975e+00
 1.4997078743e+00	 5.7847633070e-01	 1.5255057160e+00
 1.4928008543e+00	 5.9607397435e-01	 1.4147081048e+00
 1.4856698608e+00	 6.1363151659e-01	 1.3139840541e+00
 1.5260874950e+00	 5.2790514665e-01	 1.8596600842e+00
 1.5198223619e+00	 5.4568019419e-01	 1.7422515683e+00
 1.5133329679e+00	 5.6342720406e-01	 1.6233488921e+00
 1.5066189705e+00	 5.8114212024e-01	 1.5080246789e+00
 1.4996801209e+00	 5.9882085902e-01	 1.4015960003e+00
 1.4925162657e+00	 6.1645931160e-01	 1.3095802720e+00
 1.5330878963e+00	 5.3032672989e-01	 1.8467971922e+00
 1.5267940241e+00	 5.4818331434e-01	 1.7277988043e+00
 1.5202748623e+00	 5.6601173251e-01	 1.6070183436e+00
 1.5135300667e+00	 5.8380790978e-01	 1.4906503650e+00
 1.5065593875e+00	 6.0156774370e-01	 1.3850969324e+00
 1.4993626706e+00	 6.1928710660e-01	 1.2969203123e+00
 1.5400882977e+00	 5.3274831313e-01	 1.8366241199e+00
 1.5337656863e+00	 5.5068643450e-01	 1.7164793872e+00
 1.5272167566e+00	 5.6859626097e-01	 1.5931570919e+00
 1.5204411629e+00	 5.8647369932e-01	 1.4738931574e+00
 1.5134386541e+00	 6.0431462837e-01	 1.3660981675e+00
 1.5062090754e+00	 6.2211490161e-01	 1.2773070881e+00
 1.4719770510e+00	 6.0797592657e-01	 1.3257135602e+00
 1.4646898156e+00	 6.2532784195e-01	 1.2315201617e+00
 1.4571806552e+00	 6.4263185733e-01	 1.1237609996e+00
 1.4494497074e+00	 6.5988386224e-01	 1.0058108249e+00
 1.4414972084e+00	 6.7707973241e-01	 8.8011080855e-01
 1.4333234939e+00	 6.9421533254e-01	 7.4813179316e-01
 1.4788234559e+00	 6.1080372158e-01	 1.3113855075e+00
 1.4715023264e+00	 6.2823634354e-01	 1.2095503515e+00
 1.4639582397e+00	 6.4562084271e-01	 1.1003659364e+00
 1.4561913340e+00	 6.6295308951e-01	 9.8501037324e-01
 1.4482018466e+00	 6.8022894047e-01	 8.6378060554e-01
 1.4399901148e+00	 6.9744424107e-01	 7.3606246585e-01
 1.4856698608e+00	 6.1363151659e-01	 1.3139840541e+00
 1.4783148372e+00	 6.3114484513e-01	 1.2036081990e+00
 1.4707358241e+00	 6.4860982809e-01	 1.0861363646e+00
 1.4629329605e+00	 6.6602231678e-01	 9.6756095925e-01
 1.4549064848e+00	 6.8337814852e-01	 8.4667186384e-01
 1.4466567357e+00	 7.0067314959e-01	 7.2138200575e-01
 1.4925162657e+00	 6.1645931160e-01	 1.3095802720e+00
 1.4851273480e+00	 6.3405334672e-01	 1.2102435813e+00
 1.4775134085e+00	 6.5159881347e-01	 1.0823891005e+00
 1.4696745871e+00	 6.6909154404e-01	 9.5463830298e-01
 1.4616111230e+00	 6.8652735658e-01	 8.2958224836e-01
 1.4533233566e+00	 7.0390205811e-01	 7.0426377542e-01
 1.4993626706e+00	 6.1928710660e-01	 1.2969203123e+00
 1.4919398587e+00	 6.3696184831e-01	 1.2063687952e+00
 1.4842909930e+00	 6.5458779886e-01	 1.0877335138e+00
 1.4764162136e+00	 6.7216077131e-01	 9.4740498444e-01
 1.4683157612e+00	 6.8967656464e-01	 8.1330527468e-01
 1.4599899775e+00	 7.0713096664e-01	 6.8489055608e-01
 1.5062090754e+00	 6.2211490161e-01	 1.2773070881e+00
 1.4987523695e+00	 6.3987034990e-01	 1.1900721139e+00
 1.4910685774e+00	 6.5757678424e-01	 1.0803583313e+00
 1.4831578401e+00	 6.7522999858e-01	 9.4608973415e-01
 1.4750203993e+00	 6.9282577270e-01	 7.9863153215e-01
 1.4666565984e+00	 7.1035987516e-01	 6.6345554614e-01
 1.4333234939e+00	 6.9421533254e-01	 7.4813179316e-01
 1.4249289994e+00	 7.1128651932e-01	 6.2273327401e-01
 1.4163142618e+00	 7.2828914431e-01	 5.1705120268e-01
 1.4074799192e+00	 7.4521905701e-01	 4.3005353424e-01
 1.3984267118e+00	 7.6207210786e-01	 3.3031472710e-01
 1.3891554823e+00	 7.7884415132e-01	 1.9932318397e-01
 1.4399901148e+00	 6.9744424107e-01	 7.3606246585e-01
 1.4315565762e+00	 7.1459482871e-01	 6.1324567710e-01
 1.4229017700e+00	 7.3167653568e-01	 5.0917424109e-01
 1.4140263375e+00	 7.4868519216e-01	 4.2101612462e-01
 1.4049310221e+00	 7.6561662929e-01	 3.1651417724e-01
 1.3956166706e+00	 7.8246668226e-01	 1.8339432258e-01
 1.4466567357e+00	 7.0067314959e-01	 7.2138200575e-01
 1.4381841529e+00	 7.1790313810e-01	 6.0142385221e-01
 1.4294892782e+00	 7.3506392705e-01	 5.0031580529e-01
 1.4205727557e+00	 7.5215132731e-01	 4.1139364087e-01
 1.4114353324e+00	 7.6916115072e-01	 3.0417547451e-01
 1.4020778589e+00	 7.8608921319e-01	 1.7011835765e-01
 1.4533233566e+00	 7.0390205811e-01	 7.0426377542e-01
 1.4448117297e+00	 7.2121144749e-01	 5.8679815454e-01
 1.4360767864e+00	 7.3845131842e-01	 4.8958426902e-01
 1.4271191739e+00	 7.5561746246e-01	 4.0030104710e-01
 1.4179396427e+00	 7.7270567215e-01	 2.9244275915e-01
 1.4085390471e+00	 7.8971174413e-01	 1.5891620188e-01
 1.4599899775e+00	 7.0713096664e-01	 6.8489055608e-01
 1.4514393064e+00	 7.2451975689e-01	 5.6892233361e-01
 1.4426642946e+00	 7.4183870979e-01	 4.7605182910e-01
 1.4336655922e+00	 7.5908359760e-01	 3.8687989470e-01
 1.4244439530e+00	 7.7625019358e-01	 2.8048562014e-01
 1.4150002354e+00	 7.9333427507e-01	 1.4922863773e-01
 1.4666565984e+00	 7.1035987516e-01	 6.6345554614e-01
 1.4580668831e+00	 7.2782806628e-01	 5.4737429905e-01
 1.4492518028e+00	 7.4522610115e-01	 4.5799677906e-01
 1.4402120104e+00	 7.6254973275e-01	 3.7029733075e-01
 1.4309482633e+00	 7.7979471502e-01	 2.6749810661e-01
 1.4214614237e+00	 7.9695680600e-01	 1.4051543557e-01
 1.3891554823e+00	 7.7884415132e-01	 1.9932318397e-01
 1.3796671758e+00	 7.9553104901e-01	 6.2329300776e-02
 1.3699628407e+00	 8.1212867278e-01	-5.4965226297e-02
 1.3600436279e+00	 8.2863290792e-01	-1.6067455444e-01
 1.3499107916e+00	 8.4503965628e-01	-2.6364697648e-01
 1.3395656884e+00	 8.6134483946e-01	-3.7335194037e-01
 1.3956166706e+00	 7.8246668226e-01	 1.8339432258e-01
 1.3860842325e+00	 7.9923119342e-01	 4.6194354894e-02
 1.3763347609e+00	 8.1590601545e-01	-7.0731568012e-02
 1.3663694123e+00	 8.3248701447e-01	-1.7559694453e-01
 1.3561894465e+00	 8.4897007328e-01	-2.7736691644e-01
 1.3457962265e+00	 8.6535109452e-01	-3.8564314085e-01
 1.4020778589e+00	 7.8608921319e-01	 1.7011835765e-01
 1.3925012891e+00	 8.0293133784e-01	 3.2797407365e-02
 1.3827066811e+00	 8.1968335811e-01	-8.4380257741e-02
 1.3726951966e+00	 8.3634112102e-01	-1.8934861952e-01
 1.3624681013e+00	 8.5290049029e-01	-2.9082536243e-01
 1.3520267646e+00	 8.6935734959e-01	-3.9819554321e-01
 1.4085390471e+00	 7.8971174413e-01	 1.5891620188e-01
 1.3989183457e+00	 8.0663148225e-01	 2.1906295507e-02
 1.3890786012e+00	 8.2346070077e-01	-9.5913188468e-02
 1.3790209809e+00	 8.4019522757e-01	-2.0182296588e-01
 1.3687467561e+00	 8.5683090730e-01	-3.0393398231e-01
 1.3582573027e+00	 8.7336360466e-01	-4.1107081921e-01
 1.4150002354e+00	 7.9333427507e-01	 1.4922863773e-01
 1.4053354024e+00	 8.1033162666e-01	 1.3301955668e-02
 1.3954505214e+00	 8.2723804344e-01	-1.0532369839e-01
 1.3853467652e+00	 8.4404933412e-01	-2.1290703458e-01
 1.3750254110e+00	 8.6076132430e-01	-3.1659790729e-01
 1.3644878407e+00	 8.7736985973e-01	-4.2432138949e-01
 1.4214614237e+00	 7.9695680600e-01	 1.4051543557e-01
 1.4117524590e+00	 8.1403177108e-01	 6.7776779783e-03
 1.4018224416e+00	 8.3101538610e-01	-1.1259722719e-01
 1.3916725495e+00	 8.4790344066e-01	-2.2248215820e-01
 1.3813040658e+00	 8.6469174131e-01	-3.2871636162e-01
 1.3707183788e+00	 8.8137611479e-01	-4.3799111990e-01
 1.3395656884e+00	 8.6134483946e-01	-3.7335194037e-01
 1.3290097774e+00	 8.7754440199e-01	-4.8256551524e-01
 1.3182446199e+00	 8.9363431452e-01	-5.8154702018e-01
 1.3072718785e+00	 9.0961057699e-01	-6.7653185563e-01
 1.2960933167e+00	 9.2546922178e-01	-7.7382582529e-01
 1.2847107982e+00	 9.4120631688e-01	-8.7963167038e-01
 1.3457962265e+00	 8.6535109452e-01	-3.8564314085e-01
 1.3351912183e+00	 8.8162600386e-01	-4.9353928902e-01
 1.3243759902e+00	 8.9779075320e-01	-5.9162318733e-01
 1.3133522128e+00	 9.1384132386e-01	-6.8625838525e-01
 1.3021216577e+00	 9.2977372978e-01	-7.8391536823e-01
 1.2906861973e+00	 9.4558402068e-01	-8.9099401328e-01
 1.3520267646e+00	 8.6935734959e-01	-3.9819554321e-01
 1.3413726591e+00	 8.8570760573e-01	-5.0475041707e-01
 1.3305073605e+00	 9.0194719187e-01	-6.0157993512e-01
 1.3194325471e+00	 9.1807207073e-01	-6.9539412693e-01
 1.3081499987e+00	 9.3407823779e-01	-7.9303868229e-01
 1.2966615963e+00	 9.4996172448e-01	-9.0131271144e-01
 1.3582573027e+00	 8.7336360466e-01	-4.1107081921e-01
 1.3475540999e+00	 8.8978920760e-01	-5.1644128881e-01
 1.3366387309e+00	 9.0610363054e-01	-6.1176482751e-01
 1.3255128814e+00	 9.2230281760e-01	-7.0431335053e-01
 1.3141783397e+00	 9.3838274580e-01	-8.0151546435e-01
 1.3026369954e+00	 9.5433942828e-01	-9.1076891806e-01
 1.3644878407e+00	 8.7736985973e-01	-4.2432138949e-01
 1.3537355407e+00	 8.9387080947e-01	-5.2884165853e-01
 1.3427701012e+00	 9.1026006921e-01	-6.2251068051e-01
 1.3315932157e+00	 9.2653356447e-01	-7.1337479114e-01
 1.3202066807e+00	 9.4268725381e-01	-8.0965046960e-01
 1.3086123945e+00	 9.5871713208e-01	-9.1953087066e-01
 1.3707183788e+00	 8.8137611479e-01	-4.3799111990e-01
 1.3599169816e+00	 8.9795241134e-01	-5.4216942028e-01
 1.3489014715e+00	 9.1441650788e-01	-6.3413638357e-01
 1.3376735501e+00	 9.3076431134e-01	-7.2292248354e-01
 1.3262350217e+00	 9.4699176182e-01	-8.1773432456e-01
 1.3145877935e+00	 9.6309483588e-01	-9.2775464688e-01
 1.2847107982e+00	 9.4120631688e-01	-8.7963167038e-01
 1.2731262860e+00	 9.5681796904e-01	-9.8104898695e-01
 1.2613418412e+00	 9.7230032685e-01	-1.0673851782e+00
 1.2493596222e+00	 9.8764958382e-01	-1.1472740267e+00
 1.2371818832e+00	 1.0028619814e+00	-1.2282470002e+00
 1.2248109731e+00	 1.0179338122e+00	-1.3165074494e+00
 1.2906861973e+00	 9.4558402068e-01	-8.9099401328e-01
 1.2790478036e+00	 9.6126828518e-01	-9.9379598486e-01
 1.2672085474e+00	 9.7682265395e-01	-1.0806762303e+00
 1.2551705972e+00	 9.9224330281e-01	-1.1602274490e+00
 1.2429362176e+00	 1.0075264558e+00	-1.2398980871e+00
 1.2305077684e+00	 1.0226683881e+00	-1.3257607381e+00
 1.2966615963e+00	 9.4996172448e-01	-9.0131271144e-01
 1.2849693212e+00	 9.6571860131e-01	-1.0056918651e+00
 1.2730752537e+00	 9.8134498105e-01	-1.0933421449e+00
 1.2609815722e+00	 9.9683702181e-01	-1.1727041540e+00
 1.2486905519e+00	 1.0121909301e+00	-1.2510406975e+00
 1.2362045636e+00	 1.0274029640e+00	-1.3341995427e+00
 1.3026369954e+00	 9.5433942828e-01	-9.1076891806e-01
 1.2908908388e+00	 9.7016891745e-01	-1.0167667086e+00
 1.2789419599e+00	 9.8586730815e-01	-1.1053238339e+00
 1.2667925472e+00	 1.0014307408e+00	-1.1846196384e+00
 1.2544448862e+00	 1.0168554044e+00	-1.2616304710e+00
 1.2419013588e+00	 1.0321375398e+00	-1.3418869574e+00
 1.3086123945e+00	 9.5871713208e-01	-9.1953087066e-01
 1.2968123564e+00	 9.7461923358e-01	-1.0270398400e+00
 1.2848086662e+00	 9.9038963526e-01	-1.1165523919e+00
 1.2726035221e+00	 1.0060244598e+00	-1.1958792739e+00
 1.2601992206e+00	 1.0215198788e+00	-1.2716113436e+00
 1.2475981540e+00	 1.0368721157e+00	-1.3488714998e+00
 1.3145877935e+00	 9.6309483588e-01	-9.2775464688e-01
 1.3027338740e+00	 9.7906954972e-01	-1.0365205196e+00
 1.2906753724e+00	 9.9491196236e-01	-1.1269497495e+00
 1.2784144971e+00	 1.0106181788e+00	-1.2063789475e+00
 1.2659535549e+00	 1.0261843531e+00	-1.2809162005e+00
 1.2532949493e+00	 1.0416066916e+00	-1.3551878045e+00
 1.2248109731e+00	 1.0179338122e+00	-1.3165074494e+00
 1.2122493340e+00	 1.0328614225e+00	-1.4048822673e+00
 1.1994994995e+00	 1.0476412156e+00	-1.4830341104e+00
 1.1865640931e+00	 1.0622696545e+00	-1.5499235289e+00
 1.1734458266e+00	 1.0767432646e+00	-1.6025175788e+00
 1.1601474980e+00	 1.0910586368e+00	-1.6355743183e+00
 1.2305077684e+00	 1.0226683881e+00	-1.3257607381e+00
 1.2178877030e+00	 1.0376654291e+00	-1.4116040883e+00
 1.2050785669e+00	 1.0525139655e+00	-1.4883410060e+00
 1.1920829959e+00	 1.0672104436e+00	-1.5552136080e+00
 1.1789037142e+00	 1.0817513729e+00	-1.6094902482e+00
 1.1655435329e+00	 1.0961333281e+00	-1.6462427807e+00
 1.2362045636e+00	 1.0274029640e+00	-1.3341995427e+00
 1.2235260720e+00	 1.0424694357e+00	-1.4171980352e+00
 1.2106576344e+00	 1.0573867153e+00	-1.4925622099e+00
 1.1976018986e+00	 1.0721512327e+00	-1.5598681776e+00
 1.1843616018e+00	 1.0867594811e+00	-1.6167322854e+00
 1.1709395678e+00	 1.1012080194e+00	-1.6585808675e+00
 1.2419013588e+00	 1.0321375398e+00	-1.3418869574e+00
 1.2291644410e+00	 1.0472734424e+00	-1.4218472806e+00
 1.2162367018e+00	 1.0622594651e+00	-1.4959575770e+00
 1.2031208014e+00	 1.0770920218e+00	-1.5641801445e+00
 1.1898194893e+00	 1.0917675893e+00	-1.6245258491e+00
 1.1763356026e+00	 1.1062827108e+00	-1.6728160823e+00
 1.2475981540e+00	 1.0368721157e+00	-1.3488714998e+00
 1.2348028100e+00	 1.0520774490e+00	-1.4257172633e+00
 1.2218157693e+00	 1.0671322150e+00	-1.4987668216e+00
 1.2086397042e+00	 1.0820328109e+00	-1.5684206337e+00
 1.1952773769e+00	 1.0967756975e+00	-1.6331304560e+00
 1.1817316375e+00	 1.1113574021e+00	-1.6891461821e+00
 1.2532949493e+00	 1.0416066916e+00	-1.3551878045e+00
 1.2404411790e+00	 1.0568814556e+00	-1.4289564258e+00
 1.2273948367e+00	 1.0720049648e+00	-1.5012102783e+00
 1.2141586069e+00	 1.0869736000e+00	-1.5728397532e+00
 1.2007352644e+00	 1.1017838057e+00	-1.6427837311e+00
 1.1871276724e+00	 1.1164320934e+00	-1.7044604652e+00
 1.1601474980e+00	 1.0910586368e+00	-1.6355743183e+00
 1.1466719896e+00	 1.1052124294e+00	-1.6853675155e+00
 1.1330222660e+00	 1.1192013718e+00	-1.7751497376e+00
 1.1192013718e+00	 1.1330222660e+00	-1.8597961962e+00
 1.1052124294e+00	 1.1466719896e+00	-1.9228944605e+00
 1.0910586368e+00	 1.1601474980e+00	-1.9430591798e+00
 1.1655435329e+00	 1.0961333281e+00	-1.6462427807e+00
 1.1520053477e+00	 1.1103529524e+00	-1.7013381712e+00
 1.1382921370e+00	 1.1244069596e+00	-1.7856420148e+00
 1.1244069596e+00	 1.1382921370e+00	-1.8627387565e+00
 1.1103529524e+00	 1.1520053477e+00	-1.9212216700e+00
 1.0961333281e+00	 1.1655435329e+00	-1.9425294222e+00
 1.1709395678e+00	 1.1012080194e+00	-1.6585808675e+00
 1.1573387058e+00	 1.1154934753e+00	-1.7185202272e+00
 1.1435620080e+00	 1.1296125474e+00	-1.7949116515e+00
 1.1296125474e+00	 1.1435620080e+00	-1.8655539650e+00
 1.1154934753e+00	 1.1573387058e+00	-1.9194381033e+00
 1.1012080194e+00	 1.1709395678e+00	-1.9423256143e+00
 1.1763356026e+00	 1.1062827108e+00	-1.6728160823e+00
 1.1626720639e+00	 1.1206339982e+00	-1.7332358826e+00
 1.1488318790e+00	 1.1348181351e+00	-1.8027360377e+00
 1.1348181351e+00	 1.1488318790e+00	-1.8678975550e+00
 1.1206339982e+00	 1.1626720639e+00	-1.9180027975e+00
 1.1062827108e+00	 1.1763356026e+00	-1.9416371058e+00
 1.1817316375e+00	 1.1113574021e+00	-1.6891461821e+00
 1.1680054220e+00	 1.1257745211e+00	-1.7453219974e+00
 1.1541017500e+00	 1.1400237229e+00	-1.8089070864e+00
 1.1400237229e+00	 1.1541017500e+00	-1.8694416833e+00
 1.1257745211e+00	 1.1680054220e+00	-1.9164737767e+00
 1.1113574021e+00	 1.1817316375e+00	-1.9396745623e+00
 1.1871276724e+00	 1.1164320934e+00	-1.7044604652e+00
 1.1733387801e+00	 1.1309150441e+00	-1.7546910684e+00
 1.1593716210e+00	 1.1452293107e+00	-1.8132309585e+00
 1.1452293107e+00	 1.1593716210e+00	-1.8698746265e+00
 1.1309150441e+00	 1.1733387801e+00	-1.9144101249e+00
 1.1164320934e+00	 1.1871276724e+00	-1.9367373849e+00
 1.0910586368e+00	 1.1601474980e+00	-1.9430591798e+00
 1.0767432646e+00	 1.1734458266e+00	-1.9486179940e+00
 1.0622696545e+00	 1.1865640931e+00	-1.9728588888e+00
 1.0476412156e+00	 1.1994994995e+00	-2.0071008501e+00
 1.0328614225e+00	 1.2122493340e+00	-2.0446856771e+00
 1.0179338122e+00	 1.2248109731e+00	-2.0808066811e+00
 1.0961333281e+00	 1.1655435329e+00	-1.9425294222e+00
 1.0817513729e+00	 1.1789037142e+00	-1.9506569082e+00
 1.0672104436e+00	 1.1920829959e+00	-1.9771355378e+00
 1.0525139655e+00	 1.2050785669e+00	-2.0127928537e+00
 1.0376654291e+00	 1.2178877030e+00	-2.0504839167e+00
 1.0226683881e+00	 1.2305077684e+00	-2.0849151748e+00
 1.1012080194e+00	 1.1709395678e+00	-1.9423256143e+00
 1.0867594811e+00	 1.1843616018e+00	-1.9536979020e+00
 1.0721512327e+00	 1.1976018986e+00	-1.9826459943e+00
 1.0573867153e+00	 1.2106576344e+00	-2.0195945129e+00
 1.0424694357e+00	 1.2235260720e+00	-2.0570099701e+00
 1.0274029640e+00	 1.2362045636e+00	-2.0892194108e+00
 1.1062827108e+00	 1.1763356026e+00	-1.9416371058e+00
 1.0917675893e+00	 1.1898194893e+00	-1.9568506711e+00
 1.0770920218e+00	 1.2031208014e+00	-1.9884871462e+00
 1.0622594651e+00	 1.2162367018e+00	-2.0266558517e+00
 1.0472734424e+00	 1.2291644410e+00	-2.0635319743e+00
 1.0321375398e+00	 1.2419013588e+00	-2.0931695817e+00
 1.1113574021e+00	 1.1817316375e+00	-1.9396745623e+00
 1.0967756975e+00	 1.1952773769e+00	-1.9592449574e+00
 1.0820328109e+00	 1.2086397042e+00	-1.9937755665e+00
 1.0671322150e+00	 1.2218157693e+00	-2.0331449227e+00
 1.0520774490e+00	 1.2348028100e+00	-2.0693331730e+00
 1.0368721157e+00	 1.2475981540e+00	-2.0962268317e+00
 1.1164320934e+00	 1.1871276724e+00	-1.9367373849e+00
 1.1017838057e+00	 1.2007352644e+00	-1.9600308792e+00
 1.0869736000e+00	 1.2141586069e+00	-1.9976478159e+00
 1.0720049648e+00	 1.2273948367e+00	-2.0382481085e+00
 1.0568814556e+00	 1.2404411790e+00	-2.0737122444e+00
 1.0416066916e+00	 1.2532949493e+00	-2.0978636388e+00
 1.0179338122e+00	 1.2248109731e+00	-2.0808066811e+00
 1.0028619814e+00	 1.2371818832e+00	-2.1068452031e+00
 9.8764958382e-01	 1.2493596222e+00	-2.1192951267e+00
 9.7230032685e-01	 1.2613418412e+00	-2.1234584003e+00
 9.5681796904e-01	 1.2731262860e+00	-2.1260137293e+00
 9.4120631688e-01	 1.2847107982e+00	-2.1348049444e+00
 1.0226683881e+00	 1.2305077684e+00	-2.0849151748e+00
 1.0075264558e+00	 1.2429362176e+00	-2.1084439667e+00
 9.9224330281e-01	 1.2551705972e+00	-2.1189165061e+00
 9.7682265395e-01	 1.2672085474e+00	-2.1217544620e+00
 9.6126828518e-01	 1.2790478036e+00	-2.1238110704e+00
 9.4558402068e-01	 1.2906861973e+00	-2.1331527851e+00
 1.0274029640e+00	 1.2362045636e+00	-2.0892194108e+00
 1.0121909301e+00	 1.2486905519e+00	-2.1099000067e+00
 9.9683702181e-01	 1.2609815722e+00	-2.1184425428e+00
 9.8134498105e-01	 1.2730752537e+00	-2.1202663340e+00
 9.6571860131e-01	 1.2849693212e+00	-2.1222654238e+00
 9.4996172448e-01	 1.2966615963e+00	-2.1325837263e+00
 1.0321375398e+00	 1.2419013588e+00	-2.0931695817e+00
 1.0168554044e+00	 1.2544448862e+00	-2.1108277812e+00
 1.0014307408e+00	 1.2667925472e+00	-2.1175545819e+00
 9.8586730815e-01	 1.2789419599e+00	-2.1186470833e+00
 9.7016891745e-01	 1.2908908388e+00	-2.1209087323e+00
 9.5433942828e-01	 1.3026369954e+00	-2.1324181575e+00
 1.0368721157e+00	 1.2475981540e+00	-2.0962268317e+00
 1.0215198788e+00	 1.2601992206e+00	-2.1108488189e+00
 1.0060244598e+00	 1.2726035221e+00	-2.1159388990e+00
 9.9038963526e-01	 1.2848086662e+00	-2.1165542823e+00
 9.7461923358e-01	 1.2968123564e+00	-2.1192787039e+00
 9.5871713208e-01	 1.3086123945e+00	-2.1319851481e+00
 1.0416066916e+00	 1.2532949493e+00	-2.0978636388e+00
 1.0261843531e+00	 1.2659535549e+00	-2.1095921472e+00
 1.0106181788e+00	 1.2784144971e+00	-2.1132871354e+00
 9.9491196236e-01	 1.2906753724e+00	-2.1136504103e+00
 9.7906954972e-01	 1.3027338740e+00	-2.1169191427e+00
 9.6309483588e-01	 1.3145877935e+00	-2.1306226706e+00
 9.4120631688e-01	 1.2847107982e+00	-2.1348049444e+00
 9.2546922178e-01	 1.2960933167e+00	-2.1420486557e+00
 9.0961057699e-01	 1.3072718785e+00	-2.1373712684e+00
 8.9363431452e-01	 1.3182446199e+00	-2.1256939188e+00
 8.7754440199e-01	 1.3290097774e+00	-2.1120788755e+00
 8.6134483946e-01	 1.3395656884e+00	-2.1015533439e+00
 9.4558402068e-01	 1.2906861973e+00	-2.1331527851e+00
 9.2977372978e-01	 1.3021216577e+00	-2.1410836955e+00
 9.1384132386e-01	 1.3133522128e+00	-2.1362809789e+00
 8.9779075320e-01	 1.3243759902e+00	-2.1238429535e+00
 8.8162600386e-01	 1.3351912183e+00	-2.1089748800e+00
 8.6535109452e-01	 1.3457962265e+00	-2.0968077396e+00
 9.4996172448e-01	 1.2966615963e+00	-2.1325837263e+00
 9.3407823779e-01	 1.3081499987e+00	-2.1413360687e+00
 9.1807207073e-01	 1.3194325471e+00	-2.1361770646e+00
 9.0194719187e-01	 1.3305073605e+00	-2.1225451370e+00
 8.8570760573e-01	 1.3413726591e+00	-2.1059661854e+00
 8.6935734959e-01	 1.3520267646e+00	-2.0918666913e+00
 9.5433942828e-01	 1.3026369954e+00	-2.1324181575e+00
 9.3838274580e-01	 1.3141783397e+00	-2.1419346855e+00
 9.2230281760e-01	 1.3255128814e+00	-2.1361245982e+00
 9.0610363054e-01	 1.3366387309e+00	-2.1209273111e+00
 8.8978920760e-01	 1.3475540999e+00	-2.1023648133e+00
 8.7336360466e-01	 1.3582573027e+00	-2.0863484591e+00
 9.5871713208e-01	 1.3086123945e+00	-2.1319851481e+00
 9.4268725381e-01	 1.3202066807e+00	-2.1420197009e+00
 9.2653356447e-01	 1.3315932157e+00	-2.1352001594e+00
 9.1026006921e-01	 1.3427701012e+00	-2.1181258319e+00
 8.9387080947e-01	 1.3537355407e+00	-2.0974881053e+00
 8.7736985973e-01	 1.3644878407e+00	-2.0798702798e+00
 9.6309483588e-01	 1.3145877935e+00	-2.1306226706e+00
 9.4699176182e-01	 1.3262350217e+00	-2.1407426371e+00
 9.3076431134e-01	 1.3376735501e+00	-2.1324919094e+00
 9.1441650788e-01	 1.3489014715e+00	-2.1132866505e+00
 8.9795241134e-01	 1.3599169816e+00	-2.0906588597e+00
 8.8137611479e-01	 1.3707183788e+00	-2.0720486096e+00
 8.6134483946e-01	 1.3395656884e+00	-2.1015533439e+00
 8.4503965628e-01	 1.3499107916e+00	-2.0871510227e+00
 8.2863290792e-01	 1.3600436279e+00	-2.0638390896e+00
 8.1212867278e-01	 1.3699628407e+00	-2.0390750816e+00
 7.9553104901e-01	 1.3796671758e+00	-2.0197514762e+00
 7.7884415132e-01	 1.3891554823e+00	-2.0120723362e+00
 8.6535109452e-01	 1.3457962265e+00	-2.0968077396e+00
 8.4897007328e-01	 1.3561894465e+00	-2.0808751972e+00
 8.3248701447e-01	 1.3663694123e+00	-2.0565298367e+00
 8.1590601545e-01	 1.3763347609e+00	-2.0311355414e+00
 7.9923119342e-01	 1.3860842325e+00	-2.0114971021e+00
 7.8246668226e-01	 1.3956166706e+00	-2.0037336113e+00
 8.6935734959e-01	 1.3520267646e+00	-2.0918666913e+00
 8.5290049029e-01	 1.3624681013e+00	-2.0745704239e+00
 8.3634112102e-01	 1.3726951966e+00	-2.0498055484e+00
 8.1968335811e-01	 1.3827066811e+00	-2.0245758032e+00
 8.0293133784e-01	 1.3925012891e+00	-2.0053078381e+00
 7.8608921319e-01	 1.4020778589e+00	-1.9977221721e+00
 8.7336360466e-01	 1.3582573027e+00	-2.0863484591e+00
 8.5683090730e-01	 1.3687467561e+00	-2.0681224335e+00
 8.4019522757e-01	 1.3790209809e+00	-2.0436251633e+00
 8.2346070077e-01	 1.3890786012e+00	-2.0192379158e+00
 8.0663148225e-01	 1.3989183457e+00	-2.0007230841e+00
 7.8971174413e-01	 1.4085390471e+00	-1.9930935161e+00
 8.7736985973e-01	 1.3644878407e+00	-2.0798702798e+00
 8.6076132430e-01	 1.3750254110e+00	-2.0614103692e+00
 8.4404933412e-01	 1.3853467652e+00	-2.0379390971e+00
 8.2723804344e-01	 1.3954505214e+00	-2.0149570293e+00
 8.1033162666e-01	 1.4053354024e+00	-1.9972804531e+00
 7.9333427507e-01	 1.4150002354e+00	-1.9889098753e+00
 8.8137611479e-01	 1.3707183788e+00	-2.0720486096e+00
 8.6469174131e-01	 1.3813040658e+00	-2.0543071201e+00
 8.4790344066e-01	 1.3916725495e+00	-2.0326895850e+00
 8.3101538610e-01	 1.4018224416e+00	-2.0115616677e+00
 8.1403177108e-01	 1.4117524590e+00	-1.9945158963e+00
 7.9695680600e-01	 1.4214614237e+00	-1.9842401193e+00
 7.7884415132e-01	 1.3891554823e+00	-2.0120723362e+00
 7.6207210786e-01	 1.3984267118e+00	-1.9935421625e+00
 7.4521905701e-01	 1.4074799192e+00	-1.9462932377e+00
 7.2828914431e-01	 1.4163142618e+00	-1.8880624924e+00
 7.1128651932e-01	 1.4249289994e+00	-1.8417849388e+00
 6.9421533254e-01	 1.4333234939e+00	-1.8124831791e+00
 7.8246668226e-01	 1.3956166706e+00	-2.0037336113e+00
 7.6561662929e-01	 1.4049310221e+00	-1.9861088532e+00
 7.4868519216e-01	 1.4140263375e+00	-1.9410921541e+00
 7.3167653568e-01	 1.4229017700e+00	-1.8828329327e+00
 7.1459482871e-01	 1.4315565762e+00	-1.8347564435e+00
 6.9744424107e-01	 1.4399901148e+00	-1.8024545243e+00
 7.8608921319e-01	 1.4020778589e+00	-1.9977221721e+00
 7.6916115072e-01	 1.4114353324e+00	-1.9803265568e+00
 7.5215132731e-01	 1.4205727557e+00	-1.9360013106e+00
 7.3506392705e-01	 1.4294892782e+00	-1.8768546875e+00
 7.1790313810e-01	 1.4381841529e+00	-1.8256624441e+00
 7.0067314959e-01	 1.4466567357e+00	-1.7900506330e+00
 7.8971174413e-01	 1.4085390471e+00	-1.9930935161e+00
 7.7270567215e-01	 1.4179396427e+00	-1.9748386438e+00
 7.5561746246e-01	 1.4271191739e+00	-1.9295680895e+00
 7.3845131842e-01	 1.4360767864e+00	-1.8688001493e+00
 7.2121144749e-01	 1.4448117297e+00	-1.8136708607e+00
 7.0390205811e-01	 1.4533233566e+00	-1.7752241279e+00
 7.9333427507e-01	 1.4150002354e+00	-1.9889098753e+00
 7.7625019358e-01	 1.4244439530e+00	-1.9683025340e+00
 7.5908359760e-01	 1.4336655922e+00	-1.9203555702e+00
 7.4183870979e-01	 1.4426642946e+00	-1.8573209494e+00
 7.2451975689e-01	 1.4514393064e+00	-1.7979577843e+00
 7.0713096664e-01	 1.4599899775e+00	-1.7579205151e+00
 7.9695680600e-01	 1.4214614237e+00	-1.9842401193e+00
 7.7979471502e-01	 1.4309482633e+00	-1.9593894061e+00
 7.6254973275e-01	 1.4402120104e+00	-1.9069421760e+00
 7.4522610115e-01	 1.4492518028e+00	-1.8406124716e+00
 7.2782806628e-01	 1.4580668831e+00	-1.7777079035e+00
 7.1035987516e-01	 1.4666565984e+00	-1.7380789073e+00
 6.9421533254e-01	 1.4333234939e+00	-1.8124831791e+00
 6.7707973241e-01	 1.4414972084e+00	-1.7881029142e+00
 6.5988386224e-01	 1.4494497074e+00	-1.7553507896e+00
 6.4263185733e-01	 1.4571806552e+00	-1.7148355875e+00
 6.2532784195e-01	 1.4646898156e+00	-1.6660506610e+00
 6.0797592657e-01	 1.4719770510e+00	-1.6074376306e+00
 6.9744424107e-01	 1.4399901148e+00	-1.8024545243e+00
 6.8022894047e-01	 1.4482018466e+00	-1.7732399522e+00
 6.6295308951e-01	 1.4561913340e+00	-1.7354406523e+00
 6.4562084271e-01	 1.4639582397e+00	-1.6919345128e+00
 6.2823634354e-01	 1.4715023264e+00	-1.6445589426e+00
 6.1080372158e-01	 1.4788234559e+00	-1.5941681662e+00
 7.0067314959e-01	 1.4466567357e+00	-1.7900506330e+00
 6.8337814852e-01	 1.4549064848e+00	-1.7578751070e+00
 6.6602231678e-01	 1.4629329605e+00	-1.7194431415e+00
 6.4860982809e-01	 1.4707358241e+00	-1.6793149488e+00
 6.3114484513e-01	 1.4783148372e+00	-1.6410499625e+00
 6.1363151659e-01	 1.4856698608e+00	-1.6000332222e+00
 7.0390205811e-01	 1.4533233566e+00	-1.7752241279e+00
 6.8652735658e-01	 1.4616111230e+00	-1.7427198451e+00
 6.6909154404e-01	 1.4696745871e+00	-1.7084996739e+00
 6.5159881347e-01	 1.4775134085e+00	-1.6782282931e+00
 6.3405334672e-01	 1.4851273480e+00	-1.6512074800e+00
 6.1645931160e-01	 1.4925162657e+00	-1.5972126642e+00
 7.0713096664e-01	 1.4599899775e+00	-1.7579205151e+00
 6.8967656464e-01	 1.4683157612e+00	-1.7284637730e+00
 6.7216077131e-01	 1.4764162136e+00	-1.7037211491e+00
 6.5458779886e-01	 1.4842909930e+00	-1.6867851360e+00
 6.3696184831e-01	 1.4919398587e+00	-1.6481231964e+00
 6.1928710660e-01	 1.4993626706e+00	-1.5835869114e+00
 7.1035987516e-01	 1.4666565984e+00	-1.7380789073e+00
 6.9282577270e-01	 1.4750203993e+00	-1.7157756446e+00
 6.7522999858e-01	 1.4831578401e+00	-1.7051159020e+00
 6.5757678424e-01	 1.4910685774e+00	-1.6794456182e+00
 6.3987034990e-01	 1.4987523695e+00	-1.6290747484e+00
 6.2211490161e-01	 1.5062090754e+00	-1.5599521708e+00
 6.0797592657e-01	 1.4719770510e+00	-1.6074376306e+00
 5.9058020500e-01	 1.4790423210e+00	-1.5585386289e+00
 5.7314475161e-01	 1.4858856819e+00	-1.5316245123e+00
 5.5567361868e-01	 1.4925072849e+00	-1.4982660386e+00
 5.3817083372e-01	 1.4989073753e+00	-1.4576745256e+00
 5.2064039692e-01	 1.5050862909e+00	-1.4118088359e+00
 6.1080372158e-01	 1.4788234559e+00	-1.5941681662e+00
 5.9332708967e-01	 1.4859215877e+00	-1.5539977546e+00
 5.7581054115e-01	 1.4927967781e+00	-1.5143865384e+00
 5.5825814714e-01	 1.4994491793e+00	-1.4725456465e+00
 5.4067395387e-01	 1.5058790375e+00	-1.4287647193e+00
 5.2306198017e-01	 1.5120866923e+00	-1.3835201789e+00
 6.1363151659e-01	 1.4856698608e+00	-1.6000332222e+00
 5.9607397435e-01	 1.4928008543e+00	-1.5465314779e+00
 5.7847633070e-01	 1.4997078743e+00	-1.4971464116e+00
 5.6084267560e-01	 1.5063910736e+00	-1.4505857039e+00
 5.4317707403e-01	 1.5128506997e+00	-1.4056648910e+00
 5.2548356341e-01	 1.5190870936e+00	-1.3613362641e+00
 6.1645931160e-01	 1.4925162657e+00	-1.5972126642e+00
 5.9882085902e-01	 1.4996801209e+00	-1.5338150947e+00
 5.8114212024e-01	 1.5066189705e+00	-1.4795961912e+00
 5.6342720406e-01	 1.5133329679e+00	-1.4317625157e+00
 5.4568019419e-01	 1.5198223619e+00	-1.3875944024e+00
 5.2790514665e-01	 1.5260874950e+00	-1.3444786734e+00
 6.1928710660e-01	 1.4993626706e+00	-1.5835869114e+00
 6.0156774370e-01	 1.5065593875e+00	-1.5160249604e+00
 5.8380790978e-01	 1.5135300667e+00	-1.4614462797e+00
 5.6601173251e-01	 1.5202748623e+00	-1.4154758835e+00
 5.4818331434e-01	 1.5267940241e+00	-1.3737983045e+00
 5.3032672989e-01	 1.5330878963e+00	-1.3321939038e+00
 6.2211490161e-01	 1.5062090754e+00	-1.5599521708e+00
 6.0431462837e-01	 1.5134386541e+00	-1.4933474512e+00
 5.8647369932e-01	 1.5204411629e+00	-1.4424250485e+00
 5.6859626097e-01	 1.5272167566e+00	-1.4011486391e+00
 5.5068643450e-01	 1.5337656863e+00	-1.3635468441e+00
 5.3274831313e-01	 1.5400882977e+00	-1.3237529129e+00
 5.2064039692e-01	 1.5050862909e+00	-1.4118088359e+00
 5.0308627867e-01	 1.5110444607e+00	-1.3613721586e+00
 4.8551241707e-01	 1.5167824033e+00	-1.3075375599e+00
 4.6792271561e-01	 1.5223007253e+00	-1.2532878595e+00
 4.5032104091e-01	 1.5276001198e+00	-1.2017663466e+00
 4.3271122045e-01	 1.5326813647e+00	-1.1562805364e+00
 5.2306198017e-01	 1.5120866923e+00	-1.3835201789e+00
 5.0542621485e-01	 1.5180725745e+00	-1.3357095005e+00
 4.8777061436e-01	 1.5238372051e+00	-1.2852186993e+00
 4.7009910034e-01	 1.5293811938e+00	-1.2342935288e+00
 4.5241555738e-01	 1.5347052367e+00	-1.1853634391e+00
 4.3472383078e-01	 1.5398101152e+00	-1.1410452885e+00
 5.2548356341e-01	 1.5190870936e+00	-1.3613362641e+00
 5.0776615103e-01	 1.5251006882e+00	-1.3151008402e+00
 4.9002881164e-01	 1.5308920070e+00	-1.2662728488e+00
 4.7227548506e-01	 1.5364616623e+00	-1.2167894308e+00
 4.5451007385e-01	 1.5418103535e+00	-1.1687891388e+00
 4.3673644111e-01	 1.5469388658e+00	-1.1246148184e+00
 5.2790514665e-01	 1.5260874950e+00	-1.3444786734e+00
 5.1010608721e-01	 1.5321288020e+00	-1.2988491943e+00
 4.9228700893e-01	 1.5379468089e+00	-1.2500798463e+00
 4.7445186979e-01	 1.5435421308e+00	-1.2002220898e+00
 4.5660459032e-01	 1.5489154703e+00	-1.1515410840e+00
 4.3874905143e-01	 1.5540676163e+00	-1.1065169562e+00
 5.3032672989e-01	 1.5330878963e+00	-1.3321939038e+00
 5.1244602339e-01	 1.5391569158e+00	-1.2862802155e+00
 4.9454520622e-01	 1.5450016108e+00	-1.2360399164e+00
 4.7662825451e-01	 1.5506225992e+00	-1.1840563004e+00
 4.5869910679e-01	 1.5560205872e+00	-1.1331333030e+00
 4.4076166176e-01	 1.5611963668e+00	-1.0862943803e+00
 5.3274831313e-01	 1.5400882977e+00	-1.3237529129e+00
 5.1478595957e-01	 1.5461850295e+00	-1.2767418099e+00
 4.9680340351e-01	 1.5520564126e+00	-1.2235733552e+00
 4.7880463923e-01	 1.5577030677e+00	-1.1677748749e+00
 4.6079362326e-01	 1.5631257040e+00	-1.1130960166e+00
 4.4277427209e-01	 1.5683251174e+00	-1.0635044657e+00
 4.3271122045e-01	 1.5326813647e+00	-1.1562805364e+00
 4.1509704050e-01	 1.5375453206e+00	-1.1243479591e+00
 3.9748224403e-01	 1.5421929295e+00	-1.0977046515e+00
 3.7987052879e-01	 1.5466252123e+00	-1.0565029867e+00
 3.6226554538e-01	 1.5508432676e+00	-9.9036971513e-01
 3.4467089551e-01	 1.5548482691e+00	-9.4677870236e-01
 4.3472383078e-01	 1.5398101152e+00	-1.1410452885e+00
 4.1702772441e-01	 1.5446966942e+00	-1.1086569524e+00
 3.9933099865e-01	 1.5493659198e+00	-1.0809589255e+00
 3.8163736846e-01	 1.5538188179e+00	-1.0392522391e+00
 3.6395050141e-01	 1.5580564921e+00	-9.7090785494e-01
 3.4627401595e-01	 1.5620801215e+00	-9.2275621130e-01
 4.3673644111e-01	 1.5469388658e+00	-1.1246148184e+00
 4.1895840831e-01	 1.5518480678e+00	-1.0916097007e+00
 4.0117975328e-01	 1.5565389102e+00	-1.0633328405e+00
 3.8340420812e-01	 1.5610124236e+00	-1.0219686598e+00
 3.6563545743e-01	 1.5652697166e+00	-9.5318626688e-01
 3.4787713639e-01	 1.5693119739e+00	-9.0122449422e-01
 4.3874905143e-01	 1.5540676163e+00	-1.1065169562e+00
 4.2088909222e-01	 1.5589994414e+00	-1.0727342167e+00
 4.0302850790e-01	 1.5637119006e+00	-1.0443217234e+00
 3.8517104779e-01	 1.5682060292e+00	-1.0040860875e+00
 3.6732041346e-01	 1.5724829411e+00	-9.3653755141e-01
 3.4948025684e-01	 1.5765438263e+00	-8.8146022370e-01
 4.4076166176e-01	 1.5611963668e+00	-1.0862943803e+00
 4.2281977613e-01	 1.5661508150e+00	-1.0515723304e+00
 4.0487726252e-01	 1.5708848909e+00	-1.0234342558e+00
 3.8693788746e-01	 1.5753996349e+00	-9.8505175405e-01
 3.6900536948e-01	 1.5796961656e+00	-9.2030019591e-01
 3.5108337728e-01	 1.5837756787e+00	-8.6274481870e-01
 4.4277427209e-01	 1.5683251174e+00	-1.0635044657e+00
 4.2475046004e-01	 1.5733021885e+00	-1.0276795691e+00
 4.0672601715e-01	 1.5780578813e+00	-1.0001923709e+00
 3.8870472713e-01	 1.5825932405e+00	-9.6432618458e-01
 3.7069032551e-01	 1.5869093901e+00	-9.0380611200e-01
 3.5268649773e-01	 1.5910075311e+00	-8.4436486628e-01
 3.4467089551e-01	 1.5548482691e+00	-9.4677870236e-01
 3.2709013021e-01	 1.5586414638e+00	-9.2070637262e-01
 3.0952674827e-01	 1.5622241702e+00	-8.9785222111e-01
 2.9198419467e-01	 1.5655977759e+00	-8.7401088472e-01
 2.7446585912e-01	 1.5687637356e+00	-8.4611167487e-01
 2.5697507471e-01	 1.5717235689e+00	-8.1203880439e-01
 3.4627401595e-01	 1.5620801215e+00	-9.2275621130e-01
 3.2861147965e-01	 1.5658909590e+00	-8.9501621900e-01
 3.1096640756e-01	 1.5694903292e+00	-8.7235961365e-01
 2.9334226069e-01	 1.5728796261e+00	-8.4969781992e-01
 2.7574244451e-01	 1.5760603111e+00	-8.2308259666e-01
 2.5817030761e-01	 1.5790339111e+00	-7.8952901596e-01
 3.4787713639e-01	 1.5693119739e+00	-9.0122449422e-01
 3.3013282909e-01	 1.5731404542e+00	-8.7202131673e-01
 3.1240606686e-01	 1.5767564881e+00	-8.4935909000e-01
 2.9470032671e-01	 1.5801614762e+00	-8.2744585231e-01
 2.7701902991e-01	 1.5833568866e+00	-8.0163417947e-01
 2.5936554052e-01	 1.5863442532e+00	-7.6824670089e-01
 3.4948025684e-01	 1.5765438263e+00	-8.8146022370e-01
 3.3165417853e-01	 1.5803899493e+00	-8.5095467822e-01
 3.1384572615e-01	 1.5840226470e+00	-8.2807595749e-01
 2.9605839273e-01	 1.5874433263e+00	-8.0650559195e-01
 2.7829561530e-01	 1.5906534622e+00	-7.8107232410e-01
 2.6056077343e-01	 1.5936545954e+00	-7.4757995430e-01
 3.5108337728e-01	 1.5837756787e+00	-8.6274481870e-01
 3.3317552798e-01	 1.5876394445e+00	-8.3105310447e-01
 3.1528538545e-01	 1.5912888060e+00	-8.0773809517e-01
 2.9741645876e-01	 1.5947251764e+00	-7.8612878665e-01
 2.7957220069e-01	 1.5979500377e+00	-7.6070245840e-01
 2.6175600633e-01	 1.6009649376e+00	-7.2691464986e-01
 3.5268649773e-01	 1.5910075311e+00	-8.4436486628e-01
 3.3469687742e-01	 1.5948889397e+00	-8.1155752734e-01
 3.1672504474e-01	 1.5985549649e+00	-7.8757623241e-01
 2.9877452478e-01	 1.6020070265e+00	-7.6556855139e-01
 2.8084878608e-01	 1.6052466132e+00	-7.3982973094e-01
 2.6295123924e-01	 1.6082752798e+00	-7.0563461008e-01
 2.5697507471e-01	 1.5717235689e+00	-8.1203880439e-01
 2.3951511659e-01	 1.5744788582e+00	-7.7581910593e-01
 2.2208920080e-01	 1.5770312466e+00	-7.4276576380e-01
 2.0470048317e-01	 1.5793824357e+00	-7.1373663598e-01
 1.8735205824e-01	 1.5815341831e+00	-6.9006227559e-01
 1.7004695838e-01	 1.5834883005e+00	-6.7343338892e-01
 2.5817030761e-01	 1.5790339111e+00	-7.8952901596e-01
 2.4062914039e-01	 1.5818020157e+00	-7.5286247943e-01
 2.2312217383e-01	 1.5843662757e+00	-7.1899419654e-01
 2.0565257844e-01	 1.5867284005e+00	-6.8911685905e-01
 1.8822346317e-01	 1.5888901560e+00	-6.6489329542e-01
 1.7083787446e-01	 1.5908533624e+00	-6.4834660662e-01
 2.5936554052e-01	 1.5863442532e+00	-7.6824670089e-01
 2.4174316418e-01	 1.5891251732e+00	-7.3100677336e-01
 2.2415514686e-01	 1.5917013047e+00	-6.9635221982e-01
 2.0660467371e-01	 1.5940743653e+00	-6.6572823697e-01
 1.8909486809e-01	 1.5962461290e+00	-6.4104594748e-01
 1.7162879055e-01	 1.5982184243e+00	-6.2457558341e-01
 2.6056077343e-01	 1.5936545954e+00	-7.4757995430e-01
 2.4285718798e-01	 1.5964483306e+00	-7.0972850878e-01
 2.2518811988e-01	 1.5990363338e+00	-6.7439269865e-01
 2.0755676898e-01	 1.6014203301e+00	-6.4318826897e-01
 1.8996627301e-01	 1.6036021019e+00	-6.1819098247e-01
 1.7241970664e-01	 1.6055834861e+00	-6.0183322540e-01
 2.6175600633e-01	 1.6009649376e+00	-7.2691464986e-01
 2.4397121178e-01	 1.6037714881e+00	-6.8850045690e-01
 2.2622109291e-01	 1.6063713629e+00	-6.5266375216e-01
 2.0850886425e-01	 1.6087662950e+00	-6.2110921396e-01
 1.9083767793e-01	 1.6109580749e+00	-5.9599388602e-01
 1.7321062272e-01	 1.6129485480e+00	-5.7982758577e-01
 2.6295123924e-01	 1.6082752798e+00	-7.0563461008e-01
 2.4508523558e-01	 1.6110946456e+00	-6.6679178967e-01
 2.2725406594e-01	 1.6137063919e+00	-6.3070888106e-01
 2.0946095952e-01	 1.6161122598e+00	-5.9909819156e-01
 1.9170908285e-01	 1.6183140478e+00	-5.7411495035e-01
 1.7400153881e-01	 1.6203136098e+00	-5.5826190440e-01
 1.7004695838e-01	 1.5834883005e+00	-6.7343338892e-01
 1.5278815286e-01	 1.5852466516e+00	-6.6102429742e-01
 1.3557854715e-01	 1.5868111493e+00	-6.4871964085e-01
 1.1842098213e-01	 1.5881837542e+00	-6.3649327240e-01
 1.0131823357e-01	 1.5893664718e+00	-6.2427180339e-01
 8.4273011520e-02	 1.5903613506e+00	-6.1186196019e-01
 1.7083787446e-01	 1.5908533624e+00	-6.4834660662e-01
 1.5349879544e-01	 1.5926198918e+00	-6.3649312012e-01
 1.3620914504e-01	 1.5941916663e+00	-6.2472498853e-01
 1.1897177740e-01	 1.5955706553e+00	-6.1286808033e-01
 1.0178948117e-01	 1.5967588739e+00	-6.0073001036e-01
 8.4664979016e-02	 1.5977583801e+00	-5.8803104418e-01
 1.7162879055e-01	 1.5982184243e+00	-6.2457558341e-01
 1.5420943801e-01	 1.5999931321e+00	-6.1315278465e-01
 1.3683974293e-01	 1.6015721832e+00	-6.0174660846e-01
 1.1952257266e-01	 1.6029575565e+00	-5.9008632371e-01
 1.0226072877e-01	 1.6041512761e+00	-5.7791103771e-01
 8.5056946511e-02	 1.6051554097e+00	-5.6490426129e-01
 1.7241970664e-01	 1.6055834861e+00	-6.0183322540e-01
 1.5492008058e-01	 1.6073663723e+00	-5.9075449902e-01
 1.3747034083e-01	 1.6089527002e+00	-5.7957605547e-01
 1.2007336793e-01	 1.6103444577e+00	-5.6798018477e-01
 1.0273197637e-01	 1.6115436783e+00	-5.5568620631e-01
 8.5448914007e-02	 1.6125524392e+00	-5.4238881518e-01
 1.7321062272e-01	 1.6129485480e+00	-5.7982758577e-01
 1.5563072315e-01	 1.6147396125e+00	-5.6904530595e-01
 1.3810093872e-01	 1.6163332172e+00	-5.5800154444e-01
 1.2062416320e-01	 1.6177313589e+00	-5.4637946979e-01
 1.0320322397e-01	 1.6189360805e+00	-5.3392556420e-01
 8.5840881502e-02	 1.6199494688e+00	-5.2039187839e-01
 1.7400153881e-01	 1.6203136098e+00	-5.5826190440e-01
 1.5634136572e-01	 1.6221128528e+00	-5.4776809125e-01
 1.3873153661e-01	 1.6237137342e+00	-5.3680793066e-01
 1.2117495846e-01	 1.6251182601e+00	-5.2511156422e-01
 1.0367447156e-01	 1.6263284827e+00	-5.1249781858e-01
 8.6232848997e-02	 1.6273464983e+00	-4.9882050322e-01
 8.4273011520e-02	 1.5903613506e+00	-6.1186196019e-01
 6.7287959866e-02	 1.5911704800e+00	-5.9960813652e-01
 5.0365655960e-02	 1.5917959878e+00	-5.8968907577e-01
 3.3508610294e-02	 1.5922400381e+00	-5.8425233420e-01
 1.6719266264e-02	 1.5925048295e+00	-5.8501659291e-01
 0.0000000000e+00	 1.5925925926e+00	-5.9319976250e-01
 8.4664979016e-02	 1.5977583801e+00	-5.8803104418e-01
 6.7600927121e-02	 1.5985712729e+00	-5.7521069171e-01
 5.0599914825e-02	 1.5991996900e+00	-5.6475405936e-01
 3.3664464295e-02	 1.5996458057e+00	-5.5908938807e-01
 1.6797030293e-02	 1.5999118287e+00	-5.6024975292e-01
 0.0000000000e+00	 1.6000000000e+00	-5.6980336652e-01
 8.5056946511e-02	 1.6051554097e+00	-5.6490426129e-01
 6.7913894376e-02	 1.6059720659e+00	-5.5159804367e-01
 5.0834173690e-02	 1.6066033923e+00	-5.4070460811e-01
 3.3820318297e-02	 1.6070515734e+00	-5.3486791645e-01
 1.6874794322e-02	 1.6073188280e+00	-5.3637182843e-01
 0.0000000000e+00	 1.6074074074e+00	-5.4707286324e-01
 8.5448914007e-02	 1.6125524392e+00	-5.4238881518e-01
 6.8226861632e-02	 1.6133728588e+00	-5.2870601603e-01
 5.1068432555e-02	 1.6140070946e+00	-5.1749497585e-01
 3.3976172298e-02	 1.6144573410e+00	-5.1155027467e-01
 1.6952558351e-02	 1.6147258272e+00	-5.1334281657e-01
 0.0000000000e+00	 1.6148148148e+00	-5.2495531343e-01
 8.5840881502e-02	 1.6199494688e+00	-5.2039187839e-01
 6.8539828887e-02	 1.6207736517e+00	-5.0647182208e-01
 5.1302691420e-02	 1.6214107968e+00	-4.9508242613e-01
 3.4132026300e-02	 1.6218631086e+00	-4.8910361670e-01
 1.7030322381e-02	 1.6221328264e+00	-4.9112944038e-01
 0.0000000000e+00	 1.6222222222e+00	-5.0340653898e-01
 8.6232848997e-02	 1.6273464983e+00	-4.9882050322e-01
 6.8852796142e-02	 1.6281744447e+00	-4.8483395469e-01
 5.1536950285e-02	 1.6288144991e+00	-4.7342710060e-01
 3.4287880301e-02	 1.6292688762e+00	-4.6749974135e-01
 1.7108086410e-02	 1.6295398256e+00	-4.6970497246e-01
 0.0000000000e+00	 1.6296296296e+00	-4.8239092389e-01
 1.6296296296e+00	 0.0000000000e+00	 3.5746477816e+00
 1.6295398256e+00	 1.7108086410e-02	 3.5720867449e+00
 1.6292688762e+00	 3.4287880301e-02	 3.5660053392e+00
 1.6288144991e+00	 5.1536950285e-02	 3.5566736410e+00
 1.6281744447e+00	 6.8852796142e-02	 3.5438441156e+00
 1.6273464983e+00	 8.6232848997e-02	 3.5267944306e+00
 1.6370370370e+00	 0.0000000000e+00	 3.5609235987e+00
 1.6369468248e+00	 1.7185850439e-02	 3.5585283539e+00
 1.6366746438e+00	 3.4443734302e-02	 3.5524346820e+00
 1.6362182014e+00	 5.1771209150e-02	 3.5429803340e+00
 1.6355752376e+00	 6.9165763397e-02	 3.5300170939e+00
 1.6347435278e+00	 8.6624816493e-02	 3.5129497835e+00
 1.6444444444e+00	 0.0000000000e+00	 3.5471350497e+00
 1.6443538240e+00	 1.7263614468e-02	 3.5447901977e+00
 1.6440804115e+00	 3.4599588304e-02	 3.5386994714e+00
 1.6436219037e+00	 5.2005468014e-02	 3.5292137193e+00
 1.6429760305e+00	 6.9478730652e-02	 3.5162299249e+00
 1.6421405574e+00	 8.7016783988e-02	 3.4992263227e+00
 1.6518518519e+00	 0.0000000000e+00	 3.5332765458e+00
 1.6517608232e+00	 1.7341378497e-02	 3.5308611222e+00
 1.6514861791e+00	 3.4755442305e-02	 3.5247755835e+00
 1.6510256059e+00	 5.2239726879e-02	 3.5153310108e+00
 1.6503768234e+00	 6.9791697908e-02	 3.5024172267e+00
 1.6495375869e+00	 8.7408751484e-02	 3.4855339394e+00
 1.6592592593e+00	 0.0000000000e+00	 3.5193424789e+00
 1.6591678224e+00	 1.7419142526e-02	 3.5167303036e+00
 1.6588919467e+00	 3.4911296306e-02	 3.5106394857e+00
 1.6584293082e+00	 5.2473985744e-02	 3.5012901848e+00
 1.6577776164e+00	 7.0104665163e-02	 3.4885144616e+00
 1.6569346164e+00	 8.7800718979e-02	 3.4717833608e+00
 1.6666666667e+00	 0.0000000000e+00	 3.5053272225e+00
 1.6665748216e+00	 1.7496906555e-02	 3.5023872431e+00
 1.6662977143e+00	 3.5067150308e-02	 3.4962682251e+00
 1.6658330105e+00	 5.2708244609e-02	 3.4870499639e+00
 1.6651784093e+00	 7.0417632418e-02	 3.4744579167e+00
 1.6643316460e+00	 8.8192686475e-02	 3.4578861292e+00
 1.6273464983e+00	 8.6232848997e-02	 3.5267944306e+00
 1.6263284827e+00	 1.0367447156e-01	 3.5040533143e+00
 1.6251182601e+00	 1.2117495846e-01	 3.4759539868e+00
 1.6237137342e+00	 1.3873153661e-01	 3.4439149889e+00
 1.6221128528e+00	 1.5634136572e-01	 3.4090750666e+00
 1.6203136098e+00	 1.7400153881e-01	 3.3723390622e+00
 1.6347435278e+00	 8.6624816493e-02	 3.5129497835e+00
 1.6337208849e+00	 1.0414571916e-01	 3.4903059119e+00
 1.6325051613e+00	 1.2172575373e-01	 3.4622859583e+00
 1.6310942511e+00	 1.3936213451e-01	 3.4302665135e+00
 1.6294860930e+00	 1.5705200829e-01	 3.3953535796e+00
 1.6276786717e+00	 1.7479245489e-01	 3.3584234759e+00
 1.6421405574e+00	 8.7016783988e-02	 3.4992263227e+00
 1.6411132871e+00	 1.0461696676e-01	 3.4767025878e+00
 1.6398920624e+00	 1.2227654899e-01	 3.4487572116e+00
 1.6384747681e+00	 1.3999273240e-01	 3.4167575946e+00
 1.6368593333e+00	 1.5776265086e-01	 3.3818098199e+00
 1.6350437336e+00	 1.7558337098e-01	 3.3447942889e+00
 1.6495375869e+00	 8.7408751484e-02	 3.4855339394e+00
 1.6485056893e+00	 1.0508821436e-01	 3.4631231282e+00
 1.6472789636e+00	 1.2282734426e-01	 3.4352080376e+00
 1.6458552851e+00	 1.4062333030e-01	 3.4031803309e+00
 1.6442325735e+00	 1.5847329344e-01	 3.3681797031e+00
 1.6424087954e+00	 1.7637428706e-01	 3.3311239548e+00
 1.6569346164e+00	 8.7800718979e-02	 3.4717833608e+00
 1.6558980915e+00	 1.0555946196e-01	 3.4494481481e+00
 1.6546658648e+00	 1.2337813952e-01	 3.4214796551e+00
 1.6532358021e+00	 1.4125392819e-01	 3.3893279763e+00
 1.6516058137e+00	 1.5918393601e-01	 3.3542006771e+00
 1.6497738573e+00	 1.7716520315e-01	 3.3170870064e+00
 1.6643316460e+00	 8.8192686475e-02	 3.4578861292e+00
 1.6632904937e+00	 1.0603070955e-01	 3.4355590697e+00
 1.6620527660e+00	 1.2392893479e-01	 3.4074141868e+00
 1.6606163190e+00	 1.4188452608e-01	 3.3749949118e+00
 1.6589790540e+00	 1.5989457858e-01	 3.3396116873e+00
 1.6571389192e+00	 1.7795611923e-01	 3.3023600155e+00
 1.6203136098e+00	 1.7400153881e-01	 3.3723390622e+00
 1.6183140478e+00	 1.9170908285e-01	 3.3342881971e+00
 1.6161122598e+00	 2.0946095952e-01	 3.2930411886e+00
 1.6137063919e+00	 2.2725406594e-01	 3.2456203637e+00
 1.6110946456e+00	 2.4508523558e-01	 3.1890618969e+00
 1.6082752798e+00	 2.6295123924e-01	 3.1205182074e+00
 1.6276786717e+00	 1.7479245489e-01	 3.3584234759e+00
 1.6256700207e+00	 1.9258048778e-01	 3.3201541181e+00
 1.6234582246e+00	 2.1041305479e-01	 3.2788071659e+00
 1.6210414210e+00	 2.2828703896e-01	 3.2314345760e+00
 1.6184178031e+00	 2.4619925938e-01	 3.1750828003e+00
 1.6155856220e+00	 2.6414647214e-01	 3.1068899838e+00
 1.6350437336e+00	 1.7558337098e-01	 3.3447942889e+00
 1.6330259937e+00	 1.9345189270e-01	 3.3064907534e+00
 1.6308041894e+00	 2.1136515006e-01	 3.2652536682e+00
 1.6283764500e+00	 2.2932001199e-01	 3.2181134444e+00
 1.6257409606e+00	 2.4731328317e-01	 3.1620748551e+00
 1.6228959641e+00	 2.6534170505e-01	 3.0942089062e+00
 1.6424087954e+00	 1.7637428706e-01	 3.3311239548e+00
 1.6403819666e+00	 1.9432329762e-01	 3.2929081301e+00
 1.6381501542e+00	 2.1231724533e-01	 3.2519384129e+00
 1.6357114791e+00	 2.3035298502e-01	 3.2051743423e+00
 1.6330641180e+00	 2.4842730697e-01	 3.1495288835e+00
 1.6302063063e+00	 2.6653693795e-01	 3.0819548353e+00
 1.6497738573e+00	 1.7716520315e-01	 3.3170870064e+00
 1.6477379396e+00	 1.9519470254e-01	 3.2790189588e+00
 1.6454961190e+00	 2.1326934061e-01	 3.2384223331e+00
 1.6430465081e+00	 2.3138595805e-01	 3.1921383195e+00
 1.6403872755e+00	 2.4954133077e-01	 3.1369397729e+00
 1.6375166485e+00	 2.6773217086e-01	 3.0696120125e+00
 1.6571389192e+00	 1.7795611923e-01	 3.3023600155e+00
 1.6550939125e+00	 1.9606610746e-01	 3.2644385879e+00
 1.6528420839e+00	 2.1422143588e-01	 3.2242695325e+00
 1.6503815372e+00	 2.3241893107e-01	 3.1785300627e+00
 1.6477104330e+00	 2.5065535457e-01	 3.1238064480e+00
 1.6448269907e+00	 2.6892740376e-01	 3.0566690512e+00
 1.6082752798e+00	 2.6295123924e-01	 3.1205182074e+00
 1.6052466132e+00	 2.8084878608e-01	 3.0453923428e+00
 1.6020070265e+00	 2.9877452478e-01	 2.9720865353e+00
 1.5985549649e+00	 3.1672504474e-01	 2.9028240704e+00
 1.5948889397e+00	 3.3469687742e-01	 2.8405252322e+00
 1.5910075311e+00	 3.5268649773e-01	 2.7890071913e+00
 1.6155856220e+00	 2.6414647214e-01	 3.1068899838e+00
 1.6125431887e+00	 2.8212537147e-01	 3.0320459183e+00
 1.6092888767e+00	 3.0013259080e-01	 2.9587985235e+00
 1.6058211238e+00	 3.1816470403e-01	 2.8894001665e+00
 1.6021384349e+00	 3.3621822686e-01	 2.8267656860e+00
 1.5982393835e+00	 3.5428961817e-01	 2.7746690126e+00
 1.6228959641e+00	 2.6534170505e-01	 3.0942089062e+00
 1.6198397642e+00	 2.8340195686e-01	 3.0194819754e+00
 1.6165707268e+00	 3.0149065682e-01	 2.9460763227e+00
 1.6130872828e+00	 3.1960436333e-01	 2.8763657273e+00
 1.6093879301e+00	 3.3773957631e-01	 2.8133485353e+00
 1.6054712360e+00	 3.5589273862e-01	 2.7608405704e+00
 1.6302063063e+00	 2.6653693795e-01	 3.0819548353e+00
 1.6271363397e+00	 2.8467854225e-01	 3.0071704892e+00
 1.6238525769e+00	 3.0284872284e-01	 2.9333651120e+00
 1.6203534417e+00	 3.2104402262e-01	 2.8631257519e+00
 1.6166374253e+00	 3.3926092575e-01	 2.7996226904e+00
 1.6127030884e+00	 3.5749585906e-01	 2.7467981961e+00
 1.6375166485e+00	 2.6773217086e-01	 3.0696120125e+00
 1.6344329152e+00	 2.8595512764e-01	 2.9945863474e+00
 1.6311344270e+00	 3.0420678886e-01	 2.9201160454e+00
 1.6276196006e+00	 3.2248368192e-01	 2.8490928418e+00
 1.6238869204e+00	 3.4078227519e-01	 2.7849468907e+00
 1.6199349408e+00	 3.5909897950e-01	 2.7318309094e+00
 1.6448269907e+00	 2.6892740376e-01	 3.0566690512e+00
 1.6417294908e+00	 2.8723171304e-01	 2.9812093611e+00
 1.6384162772e+00	 3.0556485489e-01	 2.9057862761e+00
 1.6348857596e+00	 3.2392334121e-01	 2.8336872326e+00
 1.6311364156e+00	 3.4230362463e-01	 2.7686897379e+00
 1.6271667932e+00	 3.6070209995e-01	 2.7152404457e+00
 1.5910075311e+00	 3.5268649773e-01	 2.7890071913e+00
 1.5869093901e+00	 3.7069032551e-01	 2.7243535760e+00
 1.5825932405e+00	 3.8870472713e-01	 2.6271941621e+00
 1.5780578813e+00	 4.0672601715e-01	 2.5146271142e+00
 1.5733021885e+00	 4.2475046004e-01	 2.4018172515e+00
 1.5683251174e+00	 4.4277427209e-01	 2.3042435140e+00
 1.5982393835e+00	 3.5428961817e-01	 2.7746690126e+00
 1.5941226146e+00	 3.7237528153e-01	 2.7092039495e+00
 1.5897868461e+00	 3.9047156680e-01	 2.6118680486e+00
 1.5852308717e+00	 4.0857477177e-01	 2.4991510724e+00
 1.5804535621e+00	 4.2668114395e-01	 2.3860588611e+00
 1.5754538679e+00	 4.4478688242e-01	 2.2878945138e+00
 1.6054712360e+00	 3.5589273862e-01	 2.7608405704e+00
 1.6013358391e+00	 3.7406023756e-01	 2.6950488726e+00
 1.5969804518e+00	 3.9223840647e-01	 2.5981130715e+00
 1.5924038620e+00	 4.1042352639e-01	 2.4857578669e+00
 1.5876049357e+00	 4.2861182786e-01	 2.3725919951e+00
 1.5825826184e+00	 4.4679949275e-01	 2.2735084419e+00
 1.6127030884e+00	 3.5749585906e-01	 2.7467981961e+00
 1.6085490636e+00	 3.7574519358e-01	 2.6811147909e+00
 1.6041740574e+00	 3.9400524614e-01	 2.5851747142e+00
 1.5995768524e+00	 4.1227228102e-01	 2.4737666978e+00
 1.5947563093e+00	 4.3054251177e-01	 2.3608672214e+00
 1.5897113690e+00	 4.4881210307e-01	 2.2607278462e+00
 1.6199349408e+00	 3.5909897950e-01	 2.7318309094e+00
 1.6157622881e+00	 3.7743014961e-01	 2.6666459098e+00
 1.6113676631e+00	 3.9577208581e-01	 2.5723167654e+00
 1.6067498428e+00	 4.1412103564e-01	 2.4625146179e+00
 1.6019076829e+00	 4.3247319568e-01	 2.3503514476e+00
 1.5968401195e+00	 4.5082471340e-01	 2.2492089815e+00
 1.6271667932e+00	 3.6070209995e-01	 2.7152404457e+00
 1.6229755126e+00	 3.7911510563e-01	 2.6509039179e+00
 1.6185612687e+00	 3.9753892547e-01	 2.5588210234e+00
 1.6139228332e+00	 4.1596979026e-01	 2.4513562375e+00
 1.6090590565e+00	 4.3440387959e-01	 2.3405276478e+00
 1.6039688700e+00	 4.5283732373e-01	 2.2386215808e+00
 1.5683251174e+00	 4.4277427209e-01	 2.3042435140e+00
 1.5631257040e+00	 4.6079362326e-01	 2.2201911400e+00
 1.5577030677e+00	 4.7880463923e-01	 2.1348906560e+00
 1.5520564126e+00	 4.9680340351e-01	 2.0446956877e+00
 1.5461850295e+00	 5.1478595957e-01	 1.9462774698e+00
 1.5400882977e+00	 5.3274831313e-01	 1.8366241199e+00
 1.5754538679e+00	 4.4478688242e-01	 2.2878945138e+00
 1.5702308208e+00	 4.6288813973e-01	 2.2038959342e+00
 1.5647835362e+00	 4.8098102396e-01	 2.1199383527e+00
 1.5591112145e+00	 4.9906160080e-01	 2.0317362044e+00
 1.5532131433e+00	 5.1712589575e-01	 1.9353376190e+00
 1.5470886990e+00	 5.3516989637e-01	 1.8271265408e+00
 1.5825826184e+00	 4.4679949275e-01	 2.2735084419e+00
 1.5773359377e+00	 4.6498265620e-01	 2.1886567221e+00
 1.5718640047e+00	 4.8315740868e-01	 2.1049083668e+00
 1.5661660164e+00	 5.0131979809e-01	 2.0176922749e+00
 1.5602412571e+00	 5.1946583193e-01	 1.9227806836e+00
 1.5540891004e+00	 5.3759147961e-01	 1.8162932827e+00
 1.5897113690e+00	 4.4881210307e-01	 2.2607278462e+00
 1.5844410545e+00	 4.6707717267e-01	 2.1742978023e+00
 1.5789444732e+00	 4.8533379341e-01	 2.0897201319e+00
 1.5732208183e+00	 5.0357799538e-01	 2.0024865359e+00
 1.5672693709e+00	 5.2180576811e-01	 1.9084353311e+00
 1.5610895017e+00	 5.4001306286e-01	 1.8037567095e+00
 1.5968401195e+00	 4.5082471340e-01	 2.2492089815e+00
 1.5915461714e+00	 4.6917168914e-01	 2.1606546862e+00
 1.5860249417e+00	 4.8751017813e-01	 2.0743032955e+00
 1.5802756201e+00	 5.0583619267e-01	 1.9860524271e+00
 1.5742974846e+00	 5.2414570429e-01	 1.8921432956e+00
 1.5680899031e+00	 5.4243464610e-01	 1.7891662810e+00
 1.6039688700e+00	 4.5283732373e-01	 2.2386215808e+00
 1.5986512882e+00	 4.7126620560e-01	 2.1475739073e+00
 1.5931054102e+00	 4.8968656285e-01	 2.0585975332e+00
 1.5873304220e+00	 5.0809438995e-01	 1.9683339700e+00
 1.5813255984e+00	 5.2648564047e-01	 1.8737590837e+00
 1.5750903044e+00	 5.4485622934e-01	 1.7721881430e+00
 1.5400882977e+00	 5.3274831313e-01	 1.8366241199e+00
 1.5337656863e+00	 5.5068643450e-01	 1.7164793872e+00
 1.5272167566e+00	 5.6859626097e-01	 1.5931570919e+00
 1.5204411629e+00	 5.8647369932e-01	 1.4738931574e+00
 1.5134386541e+00	 6.0431462837e-01	 1.3660981675e+00
 1.5062090754e+00	 6.2211490161e-01	 1.2773070881e+00
 1.5470886990e+00	 5.3516989637e-01	 1.8271265408e+00
 1.5407373486e+00	 5.5318955466e-01	 1.7067611995e+00
 1.5341586510e+00	 5.7118078943e-01	 1.5813905049e+00
 1.5273522591e+00	 5.8913948887e-01	 1.4590259893e+00
 1.5203179207e+00	 6.0706151305e-01	 1.3478296043e+00
 1.5130554803e+00	 6.2494269662e-01	 1.2560611775e+00
 1.5540891004e+00	 5.3759147961e-01	 1.8162932827e+00
 1.5477090108e+00	 5.5569267481e-01	 1.6968141499e+00
 1.5411005453e+00	 5.7376531789e-01	 1.5708116086e+00
 1.5342633553e+00	 5.9180527841e-01	 1.4466252550e+00
 1.5271971873e+00	 6.0980839772e-01	 1.3327339379e+00
 1.5199018852e+00	 6.2777049163e-01	 1.2377021279e+00
 1.5610895017e+00	 5.4001306286e-01	 1.8037567095e+00
 1.5546806730e+00	 5.5819579497e-01	 1.6860859270e+00
 1.5480424397e+00	 5.7634984635e-01	 1.5608165387e+00
 1.5411744515e+00	 5.9447106795e-01	 1.4361748111e+00
 1.5340764539e+00	 6.1255528240e-01	 1.3205280935e+00
 1.5267482901e+00	 6.3059828663e-01	 1.2223312702e+00
 1.5680899031e+00	 5.4243464610e-01	 1.7891662810e+00
 1.5616523352e+00	 5.6069891513e-01	 1.6740450718e+00
 1.5549843340e+00	 5.7893437481e-01	 1.5508235968e+00
 1.5480855477e+00	 5.9713685749e-01	 1.4271794398e+00
 1.5409557205e+00	 6.1530216707e-01	 1.3109460203e+00
 1.5335946950e+00	 6.3342608164e-01	 1.2100602911e+00
 1.5750903044e+00	 5.4485622934e-01	 1.7721881430e+00
 1.5686239974e+00	 5.6320203529e-01	 1.6601804562e+00
 1.5619262284e+00	 5.8151890327e-01	 1.5402726688e+00
 1.5549966439e+00	 5.9980264704e-01	 1.4191642618e+00
 1.5478349871e+00	 6.1804905174e-01	 1.3037381566e+00
 1.5404410999e+00	 6.3625387665e-01	 1.2010108087e+00
 1.5062090754e+00	 6.2211490161e-01	 1.2773070881e+00
 1.4987523695e+00	 6.3987034990e-01	 1.1900721139e+00
 1.4910685774e+00	 6.5757678424e-01	 1.0803583313e+00
 1.4831578401e+00	 6.7522999858e-01	 9.4608973415e-01
 1.4750203993e+00	 6.9282577270e-01	 7.9863153215e-01
 1.4666565984e+00	 7.1035987516e-01	 6.6345554614e-01
 1.5130554803e+00	 6.2494269662e-01	 1.2560611775e+00
 1.5055648803e+00	 6.4277885149e-01	 1.1686032349e+00
 1.4978461619e+00	 6.6056576962e-01	 1.0635771672e+00
 1.4898994667e+00	 6.7829922584e-01	 9.3933884096e-01
 1.4817250375e+00	 6.9597498075e-01	 7.9446636986e-01
 1.4733232193e+00	 7.1358878368e-01	 6.4778161263e-01
 1.5199018852e+00	 6.2777049163e-01	 1.2377021279e+00
 1.5123773910e+00	 6.4568735308e-01	 1.1484787444e+00
 1.5046237463e+00	 6.6355475501e-01	 1.0455178433e+00
 1.4966410932e+00	 6.8136845311e-01	 9.2785359144e-01
 1.4884296757e+00	 6.9912418881e-01	 7.9471893392e-01
 1.4799898402e+00	 7.1681769221e-01	 6.4614934085e-01
 1.5267482901e+00	 6.3059828663e-01	 1.2223312702e+00
 1.5191899018e+00	 6.4859585467e-01	 1.1302240075e+00
 1.5114013308e+00	 6.6654374039e-01	 1.0270514508e+00
 1.5033827198e+00	 6.8443768037e-01	 9.1276913896e-01
 1.4951343139e+00	 7.0227339687e-01	 7.8750053648e-01
 1.4866564611e+00	 7.2004660073e-01	 6.5146976156e-01
 1.5335946950e+00	 6.3342608164e-01	 1.2100602911e+00
 1.5260024126e+00	 6.5150435626e-01	 1.1143673075e+00
 1.5181789152e+00	 6.6953272577e-01	 1.0090459011e+00
 1.5101243463e+00	 6.8750690764e-01	 8.9521276408e-01
 1.5018389521e+00	 7.0542260493e-01	 7.7411436877e-01
 1.4933230820e+00	 7.2327550925e-01	 6.4705504959e-01
 1.5404410999e+00	 6.3625387665e-01	 1.2010108087e+00
 1.5328149234e+00	 6.5441285785e-01	 1.1014395472e+00
 1.5249564996e+00	 6.7252171115e-01	 9.9236572262e-01
 1.5168659729e+00	 6.9057613491e-01	 8.7630373305e-01
 1.5085435902e+00	 7.0857181299e-01	 7.5585241031e-01
 1.4999897029e+00	 7.2650441778e-01	 6.3361777038e-01
 1.4666565984e+00	 7.1035987516e-01	 6.6345554614e-01
 1.4580668831e+00	 7.2782806628e-01	 5.4737429905e-01
 1.4492518028e+00	 7.4522610115e-01	 4.5799677906e-01
 1.4402120104e+00	 7.6254973275e-01	 3.7029733075e-01
 1.4309482633e+00	 7.7979471502e-01	 2.6749810661e-01
 1.4214614237e+00	 7.9695680600e-01	 1.4051543557e-01
 1.4733232193e+00	 7.1358878368e-01	 6.4778161263e-01
 1.4646944599e+00	 7.3113637567e-01	 5.2797291687e-01
 1.4558393110e+00	 7.4861349252e-01	 4.3872316147e-01
 1.4467584286e+00	 7.6601586790e-01	 3.5182538419e-01
 1.4374525736e+00	 7.8333923645e-01	 2.5287330353e-01
 1.4279226120e+00	 8.0057933694e-01	 1.3115922095e-01
 1.4799898402e+00	 7.1681769221e-01	 6.4614934085e-01
 1.4713220366e+00	 7.3444468506e-01	 5.1739144912e-01
 1.4624268192e+00	 7.5200088389e-01	 4.2289534769e-01
 1.4533048468e+00	 7.6948200305e-01	 3.3377818700e-01
 1.4439568839e+00	 7.8688375788e-01	 2.3683610406e-01
 1.4343838003e+00	 8.0420186788e-01	 1.1994724058e-01
 1.4866564611e+00	 7.2004660073e-01	 6.5146976156e-01
 1.4779496134e+00	 7.3775299445e-01	 5.1651122482e-01
 1.4690143274e+00	 7.5538827526e-01	 4.1145889984e-01
 1.4598512651e+00	 7.7294813820e-01	 3.1690095648e-01
 1.4504611941e+00	 7.9042827931e-01	 2.1984570994e-01
 1.4408449886e+00	 8.0782439881e-01	 1.0696424571e-01
 1.4933230820e+00	 7.2327550925e-01	 6.4705504959e-01
 1.4845771901e+00	 7.4106130385e-01	 5.2350543347e-01
 1.4756018356e+00	 7.5877566663e-01	 4.0535139818e-01
 1.4663976833e+00	 7.7641427335e-01	 3.0193371401e-01
 1.4569655044e+00	 7.9397280074e-01	 2.0236052720e-01
 1.4473061769e+00	 8.1144692975e-01	 9.2300265166e-02
 1.4999897029e+00	 7.2650441778e-01	 6.3361777038e-01
 1.4912047668e+00	 7.4436961324e-01	 5.2034125538e-01
 1.4821893438e+00	 7.6216305800e-01	 4.0536835418e-01
 1.4729441015e+00	 7.7988040850e-01	 2.8961093415e-01
 1.4634698147e+00	 7.9751732217e-01	 1.8483769383e-01
 1.4537673652e+00	 8.1506946068e-01	 7.6049977052e-02
 1.4214614237e+00	 7.9695680600e-01	 1.4051543557e-01
 1.4117524590e+00	 8.1403177108e-01	 6.7776779783e-03
 1.4018224416e+00	 8.3101538610e-01	-1.1259722719e-01
 1.3916725495e+00	 8.4790344066e-01	-2.2248215820e-01
 1.3813040658e+00	 8.6469174131e-01	-3.2871636162e-01
 1.3707183788e+00	 8.8137611479e-01	-4.3799111990e-01
 1.4279226120e+00	 8.0057933694e-01	 1.3115922095e-01
 1.4181695156e+00	 8.1773191549e-01	 7.0475717660e-04
 1.4081943618e+00	 8.3479272877e-01	-1.1873919564e-01
 1.3979983338e+00	 8.5175754721e-01	-2.3064424605e-01
 1.3875827207e+00	 8.6862215831e-01	-3.3952431758e-01
 1.3769489169e+00	 8.8538236986e-01	-4.5082294388e-01
 1.4343838003e+00	 8.0420186788e-01	 1.1994724058e-01
 1.4245865722e+00	 8.2143205991e-01	-6.6029771048e-03
 1.4145662820e+00	 8.3857007143e-01	-1.2511817826e-01
 1.4043241181e+00	 8.5561165376e-01	-2.3799529893e-01
 1.3938613755e+00	 8.7255257532e-01	-3.4873683324e-01
 1.3831794550e+00	 8.8938862493e-01	-4.6183890835e-01
 1.4408449886e+00	 8.0782439881e-01	 1.0696424571e-01
 1.4310036289e+00	 8.2513220432e-01	-1.5420749835e-02
 1.4209382022e+00	 8.4234741409e-01	-1.3224701054e-01
 1.4106499025e+00	 8.5946576031e-01	-2.4515876922e-01
 1.4001400304e+00	 8.7648299233e-01	-3.5695651967e-01
 1.3894099931e+00	 8.9339488000e-01	-4.7148503092e-01
 1.4473061769e+00	 8.1144692975e-01	 9.2300265166e-02
 1.4374206855e+00	 8.2883234873e-01	-2.6012591812e-02
 1.4273101224e+00	 8.4612475676e-01	-1.4062349379e-01
 1.4169756868e+00	 8.6331986686e-01	-2.5274138869e-01
 1.4064186852e+00	 8.8041340933e-01	-3.6476981024e-01
 1.3956405312e+00	 8.9740113506e-01	-4.8019399760e-01
 1.4537673652e+00	 8.1506946068e-01	 7.6049977052e-02
 1.4438377421e+00	 8.3253249315e-01	-3.8632117457e-02
 1.4336820426e+00	 8.4990209942e-01	-1.5073127309e-01
 1.4233014711e+00	 8.6717397341e-01	-2.6133409584e-01
 1.4126973401e+00	 8.8434382634e-01	-3.7274788445e-01
 1.4018710692e+00	 9.0140739013e-01	-4.8838602871e-01
 1.3707183788e+00	 8.8137611479e-01	-4.3799111990e-01
 1.3599169816e+00	 8.9795241134e-01	-5.4216942028e-01
 1.3489014715e+00	 9.1441650788e-01	-6.3413638357e-01
 1.3376735501e+00	 9.3076431134e-01	-7.2292248354e-01
 1.3262350217e+00	 9.4699176182e-01	-8.1773432456e-01
 1.3145877935e+00	 9.6309483588e-01	-9.2775464688e-01
 1.3769489169e+00	 8.8538236986e-01	-4.5082294388e-01
 1.3660984224e+00	 9.0203401321e-01	-5.5519970441e-01
 1.3550328418e+00	 9.1857294656e-01	-6.4579068052e-01
 1.3437538844e+00	 9.3499505821e-01	-7.3262694616e-01
 1.3322633627e+00	 9.5129626983e-01	-8.2592132919e-01
 1.3205631926e+00	 9.6747253968e-01	-9.3586175313e-01
 1.3831794550e+00	 8.8938862493e-01	-4.6183890835e-01
 1.3722798632e+00	 9.0611561508e-01	-5.6673403720e-01
 1.3611642122e+00	 9.2272938523e-01	-6.5647375093e-01
 1.3498342187e+00	 9.3922580508e-01	-7.4191640143e-01
 1.3382917037e+00	 9.5560077783e-01	-8.3411437255e-01
 1.3265385916e+00	 9.7185024348e-01	-9.4410108691e-01
 1.3894099931e+00	 8.9339488000e-01	-4.7148503092e-01
 1.3784613040e+00	 9.1019721695e-01	-5.7701369067e-01
 1.3672955825e+00	 9.2688582390e-01	-6.6626594567e-01
 1.3559145530e+00	 9.4345655195e-01	-7.5075650102e-01
 1.3443200447e+00	 9.5990528584e-01	-8.4221301597e-01
 1.3325139907e+00	 9.7622794728e-01	-9.5235710045e-01
 1.3956405312e+00	 8.9740113506e-01	-4.8019399760e-01
 1.3846427449e+00	 9.1427881882e-01	-5.8627018884e-01
 1.3734269528e+00	 9.3104226257e-01	-6.7524054625e-01
 1.3619948873e+00	 9.4768729882e-01	-7.5910755935e-01
 1.3503483857e+00	 9.6420979385e-01	-8.5011222920e-01
 1.3384893898e+00	 9.8060565108e-01	-9.6050937522e-01
 1.4018710692e+00	 9.0140739013e-01	-4.8838602871e-01
 1.3908241857e+00	 9.1836042069e-01	-5.9472609593e-01
 1.3795583231e+00	 9.3519870125e-01	-6.8346449202e-01
 1.3680752216e+00	 9.5191804569e-01	-7.6692523750e-01
 1.3563767268e+00	 9.6851430186e-01	-8.5770304967e-01
 1.3444647888e+00	 9.8498335487e-01	-9.6843327596e-01
 1.3145877935e+00	 9.6309483588e-01	-9.2775464688e-01
 1.3027338740e+00	 9.7906954972e-01	-1.0365205196e+00
 1.2906753724e+00	 9.9491196236e-01	-1.1269497495e+00
 1.2784144971e+00	 1.0106181788e+00	-1.2063789475e+00
 1.2659535549e+00	 1.0261843531e+00	-1.2809162005e+00
 1.2532949493e+00	 1.0416066916e+00	-1.3551878045e+00
 1.3205631926e+00	 9.6747253968e-01	-9.3586175313e-01
 1.3086553917e+00	 9.8351986585e-01	-1.0456117706e+00
 1.2965420786e+00	 9.9943428946e-01	-1.1367338713e+00
 1.2842254721e+00	 1.0152118978e+00	-1.2160933867e+00
 1.2717078893e+00	 1.0308488274e+00	-1.2893247922e+00
 1.2589917445e+00	 1.0463412674e+00	-1.3605731350e+00
 1.3265385916e+00	 9.7185024348e-01	-9.4410108691e-01
 1.3145769093e+00	 9.8797018199e-01	-1.0546574530e+00
 1.3024087849e+00	 1.0039566166e+00	-1.1461549379e+00
 1.2900364471e+00	 1.0198056168e+00	-1.2250969420e+00
 1.2774622236e+00	 1.0355133018e+00	-1.2967580441e+00
 1.2646885397e+00	 1.0510758433e+00	-1.3649197732e+00
 1.3325139907e+00	 9.7622794728e-01	-9.5235710045e-01
 1.3204984269e+00	 9.9242049812e-01	-1.0635660829e+00
 1.3082754911e+00	 1.0084789437e+00	-1.1551706168e+00
 1.2958474221e+00	 1.0243993358e+00	-1.2334204599e+00
 1.2832165579e+00	 1.0401777761e+00	-1.3033429466e+00
 1.2703853349e+00	 1.0558104192e+00	-1.3684727507e+00
 1.3384893898e+00	 9.8060565108e-01	-9.6050937522e-01
 1.3264199445e+00	 9.9687081426e-01	-1.0722402177e+00
 1.3141421974e+00	 1.0130012708e+00	-1.1637309783e+00
 1.3016583971e+00	 1.0289930548e+00	-1.2410850274e+00
 1.2889708923e+00	 1.0448422504e+00	-1.3091940717e+00
 1.2760821302e+00	 1.0605449950e+00	-1.3714615542e+00
 1.3444647888e+00	 9.8498335487e-01	-9.6843327596e-01
 1.3323414621e+00	 1.0013211304e+00	-1.0805771200e+00
 1.3200089036e+00	 1.0175235979e+00	-1.1717791778e+00
 1.3074693721e+00	 1.0335867738e+00	-1.2481026808e+00
 1.2947252266e+00	 1.0495067248e+00	-1.3144143175e+00
 1.2817789254e+00	 1.0652795709e+00	-1.3741009137e+00
 1.2532949493e+00	 1.0416066916e+00	-1.3551878045e+00
 1.2404411790e+00	 1.0568814556e+00	-1.4289564258e+00
 1.2273948367e+00	 1.0720049648e+00	-1.5012102783e+00
 1.2141586069e+00	 1.0869736000e+00	-1.5728397532e+00
 1.2007352644e+00	 1.1017838057e+00	-1.6427837311e+00
 1.1871276724e+00	 1.1164320934e+00	-1.7044604652e+00
 1.2589917445e+00	 1.0463412674e+00	-1.3605731350e+00
 1.2460795480e+00	 1.0616854622e+00	-1.4314372717e+00
 1.2329739041e+00	 1.0768777147e+00	-1.5033954057e+00
 1.2196775097e+00	 1.0919143891e+00	-1.5778261540e+00
 1.2061931520e+00	 1.1067919139e+00	-1.6541469913e+00
 1.1925237073e+00	 1.1215067848e+00	-1.7168039246e+00
 1.2646885397e+00	 1.0510758433e+00	-1.3649197732e+00
 1.2517179170e+00	 1.0664894688e+00	-1.4331800508e+00
 1.2385529716e+00	 1.0817504645e+00	-1.5055574669e+00
 1.2251964124e+00	 1.0968551781e+00	-1.5838646392e+00
 1.2116510396e+00	 1.1118000221e+00	-1.6678791708e+00
 1.1979197421e+00	 1.1265814761e+00	-1.7269354448e+00
 1.2703853349e+00	 1.0558104192e+00	-1.3684727507e+00
 1.2573562860e+00	 1.0712934754e+00	-1.4345282316e+00
 1.2441320390e+00	 1.0866232143e+00	-1.5080787577e+00
 1.2307153152e+00	 1.1017959672e+00	-1.5913179626e+00
 1.2171089271e+00	 1.1168081303e+00	-1.6805834745e+00
 1.2033157770e+00	 1.1316561674e+00	-1.7349270272e+00
 1.2760821302e+00	 1.0605449950e+00	-1.3714615542e+00
 1.2629946550e+00	 1.0760974821e+00	-1.4358068961e+00
 1.2497111065e+00	 1.0914959642e+00	-1.5113213567e+00
 1.2362342180e+00	 1.1067367563e+00	-1.6005278304e+00
 1.2225668147e+00	 1.1218162385e+00	-1.6902813776e+00
 1.2087118119e+00	 1.1367308588e+00	-1.7408603042e+00
 1.2817789254e+00	 1.0652795709e+00	-1.3741009137e+00
 1.2686330240e+00	 1.0809014887e+00	-1.4373235620e+00
 1.2552901739e+00	 1.0963687140e+00	-1.5156279559e+00
 1.2417531207e+00	 1.1116775454e+00	-1.6117782430e+00
 1.2280247023e+00	 1.1268243467e+00	-1.6972001695e+00
 1.2141078468e+00	 1.1418055501e+00	-1.7448263066e+00
 1.1871276724e+00	 1.1164320934e+00	-1.7044604652e+00
 1.1733387801e+00	 1.1309150441e+00	-1.7546910684e+00
 1.1593716210e+00	 1.1452293107e+00	-1.8132309585e+00
 1.1452293107e+00	 1.1593716210e+00	-1.8698746265e+00
 1.1309150441e+00	 1.1733387801e+00	-1.9144101249e+00
 1.1164320934e+00	 1.1871276724e+00	-1.9367373849e+00
 1.1925237073e+00	 1.1215067848e+00	-1.7168039246e+00
 1.1786721382e+00	 1.1360555670e+00	-1.7621754135e+00
 1.1646414921e+00	 1.1504348985e+00	-1.8165812048e+00
 1.1504348985e+00	 1.1646414921e+00	-1.8700672614e+00
 1.1360555670e+00	 1.1786721382e+00	-1.9126590554e+00
 1.1215067848e+00	 1.1925237073e+00	-1.9344828449e+00
 1.1979197421e+00	 1.1265814761e+00	-1.7269354448e+00
 1.1840054963e+00	 1.1411960899e+00	-1.7685935722e+00
 1.1699113631e+00	 1.1556404862e+00	-1.8197885156e+00
 1.1556404862e+00	 1.1699113631e+00	-1.8708357115e+00
 1.1411960899e+00	 1.1840054963e+00	-1.9120178961e+00
 1.1265814761e+00	 1.1979197421e+00	-1.9337093862e+00
 1.2033157770e+00	 1.1316561674e+00	-1.7349270272e+00
 1.1893388544e+00	 1.1463366129e+00	-1.7738560238e+00
 1.1751812341e+00	 1.1608460740e+00	-1.8226164431e+00
 1.1608460740e+00	 1.1751812341e+00	-1.8718108102e+00
 1.1463366129e+00	 1.1893388544e+00	-1.9119985607e+00
 1.1316561674e+00	 1.2033157770e+00	-1.9338233733e+00
 1.2087118119e+00	 1.1367308588e+00	-1.7408603042e+00
 1.1946722125e+00	 1.1514771358e+00	-1.7778855021e+00
 1.1804511051e+00	 1.1660516618e+00	-1.8248431704e+00
 1.1660516618e+00	 1.1804511051e+00	-1.8726401526e+00
 1.1514771358e+00	 1.1946722125e+00	-1.9121316106e+00
 1.1367308588e+00	 1.2087118119e+00	-1.9342514618e+00
 1.2141078468e+00	 1.1418055501e+00	-1.7448263066e+00
 1.2000055705e+00	 1.1566176587e+00	-1.7806167191e+00
 1.1857209761e+00	 1.1712572496e+00	-1.8262611979e+00
 1.1712572496e+00	 1.1857209761e+00	-1.8729877500e+00
 1.1566176587e+00	 1.2000055705e+00	-1.9119658848e+00
 1.1418055501e+00	 1.2141078468e+00	-1.9344402081e+00
 1.1164320934e+00	 1.1871276724e+00	-1.9367373849e+00
 1.1017838057e+00	 1.2007352644e+00	-1.9600308792e+00
 1.0869736000e+00	 1.2141586069e+00	-1.9976478159e+00
 1.0720049648e+00	 1.2273948367e+00	-2.0382481085e+00
 1.0568814556e+00	 1.2404411790e+00	-2.0737122444e+00
 1.0416066916e+00	 1.2532949493e+00	-2.0978636388e+00
 1.1215067848e+00	 1.1925237073e+00	-1.9344828449e+00
 1.1067919139e+00	 1.2061931520e+00	-1.9599111921e+00
 1.0919143891e+00	 1.2196775097e+00	-2.0009332044e+00
 1.0768777147e+00	 1.2329739041e+00	-2.0429439744e+00
 1.0616854622e+00	 1.2460795480e+00	-2.0777807824e+00
 1.0463412674e+00	 1.2589917445e+00	-2.0992676951e+00
 1.1265814761e+00	 1.1979197421e+00	-1.9337093862e+00
 1.1118000221e+00	 1.2116510396e+00	-1.9595980955e+00
 1.0968551781e+00	 1.2251964124e+00	-2.0044481577e+00
 1.0817504645e+00	 1.2385529716e+00	-2.0481758974e+00
 1.0664894688e+00	 1.2517179170e+00	-2.0825738520e+00
 1.0510758433e+00	 1.2646885397e+00	-2.1014905183e+00
 1.1316561674e+00	 1.2033157770e+00	-1.9338233733e+00
 1.1168081303e+00	 1.2171089271e+00	-1.9595848732e+00
 1.1017959672e+00	 1.2307153152e+00	-2.0073414946e+00
 1.0866232143e+00	 1.2441320390e+00	-2.0531069868e+00
 1.0712934754e+00	 1.2573562860e+00	-2.0873013552e+00
 1.0558104192e+00	 1.2703853349e+00	-2.1038214626e+00
 1.1367308588e+00	 1.2087118119e+00	-1.9342514618e+00
 1.1218162385e+00	 1.2225668147e+00	-1.9599750546e+00
 1.1067367563e+00	 1.2362342180e+00	-2.0087841524e+00
 1.0914959642e+00	 1.2497111065e+00	-2.0569213504e+00
 1.0760974821e+00	 1.2629946550e+00	-2.0911924083e+00
 1.0605449950e+00	 1.2760821302e+00	-2.1055666610e+00
 1.1418055501e+00	 1.2141078468e+00	-1.9344402081e+00
 1.1268243467e+00	 1.2280247023e+00	-1.9601357731e+00
 1.1116775454e+00	 1.2417531207e+00	-2.0079837337e+00
 1.0963687140e+00	 1.2552901739e+00	-2.0588243799e+00
 1.0809014887e+00	 1.2686330240e+00	-2.0934956262e+00
 1.0652795709e+00	 1.2817789254e+00	-2.1060493209e+00
 1.0416066916e+00	 1.2532949493e+00	-2.0978636388e+00
 1.0261843531e+00	 1.2659535549e+00	-2.1095921472e+00
 1.0106181788e+00	 1.2784144971e+00	-2.1132871354e+00
 9.9491196236e-01	 1.2906753724e+00	-2.1136504103e+00
 9.7906954972e-01	 1.3027338740e+00	-2.1169191427e+00
 9.6309483588e-01	 1.3145877935e+00	-2.1306226706e+00
 1.0463412674e+00	 1.2589917445e+00	-2.0992676951e+00
 1.0308488274e+00	 1.2717078893e+00	-2.1081757997e+00
 1.0152118978e+00	 1.2842254721e+00	-2.1105001106e+00
 9.9943428946e-01	 1.2965420786e+00	-2.1105638327e+00
 9.8351986585e-01	 1.3086553917e+00	-2.1142278485e+00
 9.6747253968e-01	 1.3205631926e+00	-2.1286415458e+00
 1.0510758433e+00	 1.2646885397e+00	-2.1014905183e+00
 1.0355133018e+00	 1.2774622236e+00	-2.1075402327e+00
 1.0198056168e+00	 1.2900364471e+00	-2.1083128733e+00
 1.0039566166e+00	 1.3024087849e+00	-2.1078204864e+00
 9.8797018199e-01	 1.3145769093e+00	-2.1116133401e+00
 9.7185024348e-01	 1.3265385916e+00	-2.1265244822e+00
 1.0558104192e+00	 1.2703853349e+00	-2.1038214626e+00
 1.0401777761e+00	 1.2832165579e+00	-2.1070643844e+00
 1.0243993358e+00	 1.2958474221e+00	-2.1061812186e+00
 1.0084789437e+00	 1.3082754911e+00	-2.1049399456e+00
 9.9242049812e-01	 1.3204984269e+00	-2.1086455547e+00
 9.7622794728e-01	 1.3325139907e+00	-2.1238780346e+00
 1.0605449950e+00	 1.2760821302e+00	-2.1055666610e+00
 1.0448422504e+00	 1.2889708923e+00	-2.1061413014e+00
 1.0289930548e+00	 1.3016583971e+00	-2.1035725677e+00
 1.0130012708e+00	 1.3141421974e+00	-2.1014511373e+00
 9.9687081426e-01	 1.3264199445e+00	-2.1049017382e+00
 9.8060565108e-01	 1.3384893898e+00	-2.1203142725e+00
 1.0652795709e+00	 1.2817789254e+00	-2.1060493209e+00
 1.0495067248e+00	 1.2947252266e+00	-2.1041784501e+00
 1.0335867738e+00	 1.3074693721e+00	-2.0999662907e+00
 1.0175235979e+00	 1.3200089036e+00	-2.0968926702e+00
 1.0013211304e+00	 1.3323414621e+00	-2.0999667754e+00
 9.8498335487e-01	 1.3444647888e+00	-2.1154511058e+00
 9.6309483588e-01	 1.3145877935e+00	-2.1306226706e+00
 9.4699176182e-01	 1.3262350217e+00	-2.1407426371e+00
 9.3076431134e-01	 1.3376735501e+00	-2.1324919094e+00
 9.1441650788e-01	 1.3489014715e+00	-2.1132866505e+00
 8.9795241134e-01	 1.3599169816e+00	-2.0906588597e+00
 8.8137611479e-01	 1.3707183788e+00	-2.0720486096e+00
 9.6747253968e-01	 1.3205631926e+00	-2.1286415458e+00
 9.5129626983e-01	 1.3322633627e+00	-2.1386142200e+00
 9.3499505821e-01	 1.3437538844e+00	-2.1289579685e+00
 9.1857294656e-01	 1.3550328418e+00	-2.1078858355e+00
 9.0203401321e-01	 1.3660984224e+00	-2.0837545916e+00
 8.8538236986e-01	 1.3769489169e+00	-2.0648492252e+00
 9.7185024348e-01	 1.3265385916e+00	-2.1265244822e+00
 9.5560077783e-01	 1.3382917037e+00	-2.1364434726e+00
 9.3922580508e-01	 1.3498342187e+00	-2.1258669962e+00
 9.2272938523e-01	 1.3611642122e+00	-2.1036113897e+00
 9.0611561508e-01	 1.3722798632e+00	-2.0786587383e+00
 8.8938862493e-01	 1.3831794550e+00	-2.0599339604e+00
 9.7622794728e-01	 1.3325139907e+00	-2.1238780346e+00
 9.5990528584e-01	 1.3443200447e+00	-2.1338410173e+00
 9.4345655195e-01	 1.3559145530e+00	-2.1227845575e+00
 9.2688582390e-01	 1.3672955825e+00	-2.0999377417e+00
 9.1019721695e-01	 1.3784613040e+00	-2.0747115836e+00
 8.9339488000e-01	 1.3894099931e+00	-2.0564690347e+00
 9.8060565108e-01	 1.3384893898e+00	-2.1203142725e+00
 9.6420979385e-01	 1.3503483857e+00	-2.1304217958e+00
 9.4768729882e-01	 1.3619948873e+00	-2.1192802500e+00
 9.3104226257e-01	 1.3734269528e+00	-2.0963439329e+00
 9.1427881882e-01	 1.3846427449e+00	-2.0712594281e+00
 8.9740113506e-01	 1.3956405312e+00	-2.0536288683e+00
 9.8498335487e-01	 1.3444647888e+00	-2.1154511058e+00
 9.6851430186e-01	 1.3563767268e+00	-2.1258053782e+00
 9.5191804569e-01	 1.3680752216e+00	-2.1149279769e+00
 9.3519870125e-01	 1.3795583231e+00	-2.0923138351e+00
 9.1836042069e-01	 1.3908241857e+00	-2.0676547347e+00
 9.0140739013e-01	 1.4018710692e+00	-2.0505961394e+00
 8.8137611479e-01	 1.3707183788e+00	-2.0720486096e+00
 8.6469174131e-01	 1.3813040658e+00	-2.0543071201e+00
 8.4790344066e-01	 1.3916725495e+00	-2.0326895850e+00
 8.3101538610e-01	 1.4018224416e+00	-2.0115616677e+00
 8.1403177108e-01	 1.4117524590e+00	-1.9945158963e+00
 7.9695680600e-01	 1.4214614237e+00	-1.9842401193e+00
 8.8538236986e-01	 1.3769489169e+00	-2.0648492252e+00
 8.6862215831e-01	 1.3875827207e+00	-2.0483236301e+00
 8.5175754721e-01	 1.3979983338e+00	-2.0285088429e+00
 8.3479272877e-01	 1.4081943618e+00	-2.0087150291e+00
 8.1773191549e-01	 1.4181695156e+00	-1.9913842134e+00
 8.0057933694e-01	 1.4279226120e+00	-1.9779585244e+00
 8.8938862493e-01	 1.3831794550e+00	-2.0599339604e+00
 8.7255257532e-01	 1.3938613755e+00	-2.0444110532e+00
 8.5561165376e-01	 1.4043241181e+00	-2.0254188150e+00
 8.3857007143e-01	 1.4145662820e+00	-2.0056186143e+00
 8.2143205991e-01	 1.4245865722e+00	-1.9867196276e+00
 8.0420186788e-01	 1.4343838003e+00	-1.9693457512e+00
 8.9339488000e-01	 1.3894099931e+00	-2.0564690347e+00
 8.7648299233e-01	 1.4001400304e+00	-2.0416053702e+00
 8.5946576031e-01	 1.4106499025e+00	-2.0224472194e+00
 8.4234741409e-01	 1.4209382022e+00	-2.0014084531e+00
 8.2513220432e-01	 1.4310036289e+00	-1.9798775108e+00
 8.0782439881e-01	 1.4408449886e+00	-1.9580818669e+00
 8.9740113506e-01	 1.3956405312e+00	-2.0536288683e+00
 8.8041340933e-01	 1.4064186852e+00	-2.0389522410e+00
 8.6331986686e-01	 1.4169756868e+00	-2.0186308404e+00
 8.4612475676e-01	 1.4273101224e+00	-1.9952270410e+00
 8.2883234873e-01	 1.4374206855e+00	-1.9702152199e+00
 8.1144692975e-01	 1.4473061769e+00	-1.9438426687e+00
 9.0140739013e-01	 1.4018710692e+00	-2.0505961394e+00
 8.8434382634e-01	 1.4126973401e+00	-2.0355069913e+00
 8.6717397341e-01	 1.4233014711e+00	-2.0130154920e+00
 8.4990209942e-01	 1.4336820426e+00	-1.9862233263e+00
 8.3253249315e-01	 1.4438377421e+00	-1.9570921500e+00
 8.1506946068e-01	 1.4537673652e+00	-1.9262998459e+00
 7.9695680600e-01	 1.4214614237e+00	-1.9842401193e+00
 7.7979471502e-01	 1.4309482633e+00	-1.9593894061e+00
 7.6254973275e-01	 1.4402120104e+00	-1.9069421760e+00
 7.4522610115e-01	 1.4492518028e+00	-1.8406124716e+00
 7.2782806628e-01	 1.4580668831e+00	-1.7777079035e+00
 7.1035987516e-01	 1.4666565984e+00	-1.7380789073e+00
 8.0057933694e-01	 1.4279226120e+00	-1.9779585244e+00
 7.8333923645e-01	 1.4374525736e+00	-1.9479576405e+00
 7.6601586790e-01	 1.4467584286e+00	-1.8911664897e+00
 7.4861349252e-01	 1.4558393110e+00	-1.8229183160e+00
 7.3113637567e-01	 1.4646944599e+00	-1.7600189492e+00
 7.1358878368e-01	 1.4733232193e+00	-1.7252843803e+00
 8.0420186788e-01	 1.4343838003e+00	-1.9693457512e+00
 7.8688375788e-01	 1.4439568839e+00	-1.9347533525e+00
 7.6948200305e-01	 1.4533048468e+00	-1.8759686844e+00
 7.5200088389e-01	 1.4624268192e+00	-1.8097128309e+00
 7.3444468506e-01	 1.4713220366e+00	-1.7527536336e+00
 7.1681769221e-01	 1.4799898402e+00	-1.7293446089e+00
 8.0782439881e-01	 1.4408449886e+00	-1.9580818669e+00
 7.9042827931e-01	 1.4504611941e+00	-1.9197814963e+00
 7.7294813820e-01	 1.4598512651e+00	-1.8615796549e+00
 7.5538827526e-01	 1.4690143274e+00	-1.8013572071e+00
 7.3775299445e-01	 1.4779496134e+00	-1.7562430698e+00
 7.2004660073e-01	 1.4866564611e+00	-1.7411062859e+00
 8.1144692975e-01	 1.4473061769e+00	-1.9438426687e+00
 7.9397280074e-01	 1.4569655044e+00	-1.9030366101e+00
 7.7641427335e-01	 1.4663976833e+00	-1.8482156172e+00
 7.5877566663e-01	 1.4756018356e+00	-1.7981955191e+00
 7.4106130385e-01	 1.4845771901e+00	-1.7675929613e+00
 7.2327550925e-01	 1.4933230820e+00	-1.7400795765e+00
 8.1506946068e-01	 1.4537673652e+00	-1.9262998459e+00
 7.9751732217e-01	 1.4634698147e+00	-1.8845030869e+00
 7.7988040850e-01	 1.4729441015e+00	-1.8360784470e+00
 7.6216305800e-01	 1.4821893438e+00	-1.8003957601e+00
 7.4436961324e-01	 1.4912047668e+00	-1.7649792578e+00
 7.2650441778e-01	 1.4999897029e+00	-1.7263133793e+00
 7.1035987516e-01	 1.4666565984e+00	-1.7380789073e+00
 6.9282577270e-01	 1.4750203993e+00	-1.7157756446e+00
 6.7522999858e-01	 1.4831578401e+00	-1.7051159020e+00
 6.5757678424e-01	 1.4910685774e+00	-1.6794456182e+00
 6.3987034990e-01	 1.4987523695e+00	-1.6290747484e+00
 6.2211490161e-01	 1.5062090754e+00	-1.5599521708e+00
 7.1358878368e-01	 1.4733232193e+00	-1.7252843803e+00
 6.9597498075e-01	 1.4817250375e+00	-1.7158400050e+00
 6.7829922584e-01	 1.4898994667e+00	-1.7006648175e+00
 6.6056576962e-01	 1.4978461619e+00	-1.6615509723e+00
 6.4277885149e-01	 1.5055648803e+00	-1.6040689212e+00
 6.2494269662e-01	 1.5130554803e+00	-1.5339207578e+00
 7.1681769221e-01	 1.4799898402e+00	-1.7293446089e+00
 6.9912418881e-01	 1.4884296757e+00	-1.7218932885e+00
 6.8136845311e-01	 1.4966410932e+00	-1.6920007650e+00
 6.6355475501e-01	 1.5046237463e+00	-1.6438039029e+00
 6.4568735308e-01	 1.5123773910e+00	-1.5822754576e+00
 6.2777049163e-01	 1.5199018852e+00	-1.5124814075e+00
 7.2004660073e-01	 1.4866564611e+00	-1.7411062859e+00
 7.0227339687e-01	 1.4951343139e+00	-1.7191436147e+00
 6.8443768037e-01	 1.5033827198e+00	-1.6796140935e+00
 6.6654374039e-01	 1.5114013308e+00	-1.6264963563e+00
 6.4859585467e-01	 1.5191899018e+00	-1.5637784967e+00
 6.3059828663e-01	 1.5267482901e+00	-1.4955062766e+00
 7.2327550925e-01	 1.4933230820e+00	-1.7400795765e+00
 7.0542260493e-01	 1.5018389521e+00	-1.7082670613e+00
 6.8750690764e-01	 1.5101243463e+00	-1.6640003048e+00
 6.6953272577e-01	 1.5181789152e+00	-1.6099288268e+00
 6.5150435626e-01	 1.5260024126e+00	-1.5486742300e+00
 6.3342608164e-01	 1.5335946950e+00	-1.4828830917e+00
 7.2650441778e-01	 1.4999897029e+00	-1.7263133793e+00
 7.0857181299e-01	 1.5085435902e+00	-1.6899414179e+00
 6.9057613491e-01	 1.5168659729e+00	-1.6456597676e+00
 6.7252171115e-01	 1.5249564996e+00	-1.5944100322e+00
 6.5441285785e-01	 1.5328149234e+00	-1.5370705347e+00
 6.3625387665e-01	 1.5404410999e+00	-1.4745147364e+00
 6.2211490161e-01	 1.5062090754e+00	-1.5599521708e+00
 6.0431462837e-01	 1.5134386541e+00	-1.4933474512e+00
 5.8647369932e-01	 1.5204411629e+00	-1.4424250485e+00
 5.6859626097e-01	 1.5272167566e+00	-1.4011486391e+00
 5.5068643450e-01	 1.5337656863e+00	-1.3635468441e+00
 5.3274831313e-01	 1.5400882977e+00	-1.3237529129e+00
 6.2494269662e-01	 1.5130554803e+00	-1.5339207578e+00
 6.0706151305e-01	 1.5203179207e+00	-1.4705152927e+00
 5.8913948887e-01	 1.5273522591e+00	-1.4244056825e+00
 5.7118078943e-01	 1.5341586510e+00	-1.3881641314e+00
 5.5318955466e-01	 1.5407373486e+00	-1.3544446219e+00
 5.3516989637e-01	 1.5470886990e+00	-1.3160251823e+00
 6.2777049163e-01	 1.5199018852e+00	-1.5124814075e+00
 6.0980839772e-01	 1.5271971873e+00	-1.4519237866e+00
 5.9180527841e-01	 1.5342633553e+00	-1.4091630346e+00
 5.7376531789e-01	 1.5411005453e+00	-1.3759933702e+00
 5.5569267481e-01	 1.5477090108e+00	-1.3443108684e+00
 5.3759147961e-01	 1.5540891004e+00	-1.3061569558e+00
 6.3059828663e-01	 1.5267482901e+00	-1.4955062766e+00
 6.1255528240e-01	 1.5340764539e+00	-1.4372745317e+00
 5.9447106795e-01	 1.5411744515e+00	-1.3963061436e+00
 5.7634984635e-01	 1.5480424397e+00	-1.3642225236e+00
 5.5819579497e-01	 1.5546806730e+00	-1.3327702768e+00
 5.4001306286e-01	 1.5610895017e+00	-1.2938645799e+00
 6.3342608164e-01	 1.5335946950e+00	-1.4828830917e+00
 6.1530216707e-01	 1.5409557205e+00	-1.4262874079e+00
 5.9713685749e-01	 1.5480855477e+00	-1.3854635812e+00
 5.7893437481e-01	 1.5549843340e+00	-1.3524572310e+00
 5.6069891513e-01	 1.5616523352e+00	-1.3194657847e+00
 5.4243464610e-01	 1.5680899031e+00	-1.2788804014e+00
 6.3625387665e-01	 1.5404410999e+00	-1.4745147364e+00
 6.1804905174e-01	 1.5478349871e+00	-1.4187001361e+00
 5.9980264704e-01	 1.5549966439e+00	-1.3762830134e+00
 5.8151890327e-01	 1.5619262284e+00	-1.3403221939e+00
 5.6320203529e-01	 1.5686239974e+00	-1.3040582179e+00
 5.4485622934e-01	 1.5750903044e+00	-1.2609524848e+00
 5.3274831313e-01	 1.5400882977e+00	-1.3237529129e+00
 5.1478595957e-01	 1.5461850295e+00	-1.2767418099e+00
 4.9680340351e-01	 1.5520564126e+00	-1.2235733552e+00
 4.7880463923e-01	 1.5577030677e+00	-1.1677748749e+00
 4.6079362326e-01	 1.5631257040e+00	-1.1130960166e+00
 4.4277427209e-01	 1.5683251174e+00	-1.0635044657e+00
 5.3516989637e-01	 1.5470886990e+00	-1.3160251823e+00
 5.1712589575e-01	 1.5532131433e+00	-1.2675384002e+00
 4.9906160080e-01	 1.5591112145e+00	-1.2112151718e+00
 4.8098102396e-01	 1.5647835362e+00	-1.1515138376e+00
 4.6288813973e-01	 1.5702308208e+00	-1.0931128082e+00
 4.4478688242e-01	 1.5754538679e+00	-1.0409032014e+00
 5.3759147961e-01	 1.5540891004e+00	-1.3061569558e+00
 5.1946583193e-01	 1.5602412571e+00	-1.2562535776e+00
 5.0131979809e-01	 1.5661660164e+00	-1.1977362951e+00
 4.8315740868e-01	 1.5718640047e+00	-1.1355639317e+00
 4.6498265620e-01	 1.5773359377e+00	-1.0749104970e+00
 4.4679949275e-01	 1.5825826184e+00	-1.0211556780e+00
 5.4001306286e-01	 1.5610895017e+00	-1.2938645799e+00
 5.2180576811e-01	 1.5672693709e+00	-1.2426810485e+00
 5.0357799538e-01	 1.5732208183e+00	-1.1829357048e+00
 4.8533379341e-01	 1.5789444732e+00	-1.1196635530e+00
 4.6707717267e-01	 1.5844410545e+00	-1.0581073022e+00
 4.4881210307e-01	 1.5897113690e+00	-1.0037066343e+00
 5.4243464610e-01	 1.5680899031e+00	-1.2788804014e+00
 5.2414570429e-01	 1.5742974846e+00	-1.2266284640e+00
 5.0583619267e-01	 1.5802756201e+00	-1.1666254917e+00
 4.8751017813e-01	 1.5860249417e+00	-1.1035644894e+00
 4.6917168914e-01	 1.5915461714e+00	-1.0423361216e+00
 4.5082471340e-01	 1.5968401195e+00	-9.8801767366e-01
 5.4485622934e-01	 1.5750903044e+00	-1.2609524848e+00
 5.2648564047e-01	 1.5813255984e+00	-1.2079172039e+00
 5.0809438995e-01	 1.5873304220e+00	-1.1486306799e+00
 4.8968656285e-01	 1.5931054102e+00	-1.0870317533e+00
 4.7126620560e-01	 1.5986512882e+00	-1.0272443511e+00
 4.5283732373e-01	 1.6039688700e+00	-9.7356704723e-01
 4.4277427209e-01	 1.5683251174e+00	-1.0635044657e+00
 4.2475046004e-01	 1.5733021885e+00	-1.0276795691e+00
 4.0672601715e-01	 1.5780578813e+00	-1.0001923709e+00
 3.8870472713e-01	 1.5825932405e+00	-9.6432618458e-01
 3.7069032551e-01	 1.5869093901e+00	-9.0380611200e-01
 3.5268649773e-01	 1.5910075311e+00	-8.4436486628e-01
 4.4478688242e-01	 1.5754538679e+00	-1.0409032014e+00
 4.2668114395e-01	 1.5804535621e+00	-1.0041075083e+00
 4.0857477177e-01	 1.5852308717e+00	-9.7731390535e-01
 3.9047156680e-01	 1.5897868461e+00	-9.4392024892e-01
 3.7237528153e-01	 1.5941226146e+00	-8.8774643503e-01
 3.5428961817e-01	 1.5982393835e+00	-8.2683953985e-01
 4.4679949275e-01	 1.5825826184e+00	-1.0211556780e+00
 4.2861182786e-01	 1.5876049357e+00	-9.8370785679e-01
 4.1042352639e-01	 1.5924038620e+00	-9.5727260088e-01
 3.9223840647e-01	 1.5969804518e+00	-9.2561645473e-01
 3.7406023756e-01	 1.6013358391e+00	-8.7291233099e-01
 3.5589273862e-01	 1.6054712360e+00	-8.1064351610e-01
 4.4881210307e-01	 1.5897113690e+00	-1.0037066343e+00
 4.3054251177e-01	 1.5947563093e+00	-9.6576082554e-01
 4.1227228102e-01	 1.5995768524e+00	-9.3924899726e-01
 3.9400524614e-01	 1.6041740574e+00	-9.0855729134e-01
 3.7574519358e-01	 1.6085490636e+00	-8.5846661161e-01
 3.5749585906e-01	 1.6127030884e+00	-7.9500667673e-01
 4.5082471340e-01	 1.5968401195e+00	-9.8801767366e-01
 4.3247319568e-01	 1.6019076829e+00	-9.4956546866e-01
 4.1412103564e-01	 1.6067498428e+00	-9.2244325598e-01
 3.9577208581e-01	 1.6113676631e+00	-8.9190451342e-01
 3.7743014961e-01	 1.6157622881e+00	-8.4358992804e-01
 3.5909897950e-01	 1.6199349408e+00	-7.7916709911e-01
 4.5283732373e-01	 1.6039688700e+00	-9.7356704723e-01
 4.3440387959e-01	 1.6090590565e+00	-9.3443943272e-01
 4.1596979026e-01	 1.6139228332e+00	-9.0607490053e-01
 3.9753892547e-01	 1.6185612687e+00	-8.7483889520e-01
 3.7911510563e-01	 1.6229755126e+00	-8.2748056082e-01
 3.6070209995e-01	 1.6271667932e+00	-7.6237145123e-01
 3.5268649773e-01	 1.5910075311e+00	-8.4436486628e-01
 3.3469687742e-01	 1.5948889397e+00	-8.1155752734e-01
 3.1672504474e-01	 1.5985549649e+00	-7.8757623241e-01
 2.9877452478e-01	 1.6020070265e+00	-7.6556855139e-01
 2.8084878608e-01	 1.6052466132e+00	-7.3982973094e-01
 2.6295123924e-01	 1.6082752798e+00	-7.0563461008e-01
 3.5428961817e-01	 1.5982393835e+00	-8.2683953985e-01
 3.3621822686e-01	 1.6021384349e+00	-7.9271353529e-01
 3.1816470403e-01	 1.6058211238e+00	-7.6787481315e-01
 3.0013259080e-01	 1.6092888767e+00	-7.4533616801e-01
 2.8212537147e-01	 1.6125431887e+00	-7.1925339750e-01
 2.6414647214e-01	 1.6155856220e+00	-6.8475928572e-01
 3.5589273862e-01	 1.6054712360e+00	-8.1064351610e-01
 3.3773957631e-01	 1.6093879301e+00	-7.7483949744e-01
 3.1960436333e-01	 1.6130872828e+00	-7.4905878531e-01
 3.0149065682e-01	 1.6165707268e+00	-7.2610400220e-01
 2.8340195686e-01	 1.6198397642e+00	-6.9990966380e-01
 2.6534170505e-01	 1.6228959641e+00	-6.6537867557e-01
 3.5749585906e-01	 1.6127030884e+00	-7.9500667673e-01
 3.3926092575e-01	 1.6166374253e+00	-7.5729137613e-01
 3.2104402262e-01	 1.6203534417e+00	-7.3057198935e-01
 3.0284872284e-01	 1.6238525769e+00	-7.0736633132e-01
 2.8467854225e-01	 1.6271363397e+00	-6.8130651472e-01
 2.6653693795e-01	 1.6302063063e+00	-6.4697840857e-01
 3.5909897950e-01	 1.6199349408e+00	-7.7916709911e-01
 3.4078227519e-01	 1.6238869204e+00	-7.3942885175e-01
 3.2248368192e-01	 1.6276196006e+00	-7.1185862611e-01
 3.0420678886e-01	 1.6311344270e+00	-6.8861552933e-01
 2.8595512764e-01	 1.6344329152e+00	-6.6294883358e-01
 2.6773217086e-01	 1.6375166485e+00	-6.2904084935e-01
 3.6070209995e-01	 1.6271667932e+00	-7.6237145123e-01
 3.4230362463e-01	 1.6311364156e+00	-7.2061571168e-01
 3.2392334121e-01	 1.6348857596e+00	-6.9236362490e-01
 3.0556485489e-01	 1.6384162772e+00	-6.6934239939e-01
 2.8723171304e-01	 1.6417294908e+00	-6.4433868528e-01
 2.6892740376e-01	 1.6448269907e+00	-6.1104531839e-01
 2.6295123924e-01	 1.6082752798e+00	-7.0563461008e-01
 2.4508523558e-01	 1.6110946456e+00	-6.6679178967e-01
 2.2725406594e-01	 1.6137063919e+00	-6.3070888106e-01
 2.0946095952e-01	 1.6161122598e+00	-5.9909819156e-01
 1.9170908285e-01	 1.6183140478e+00	-5.7411495035e-01
 1.7400153881e-01	 1.6203136098e+00	-5.5826190440e-01
 2.6414647214e-01	 1.6155856220e+00	-6.8475928572e-01
 2.4619925938e-01	 1.6184178031e+00	-6.4566739410e-01
 2.2828703896e-01	 1.6210414210e+00	-6.0948515052e-01
 2.1041305479e-01	 1.6234582246e+00	-5.7791457358e-01
 1.9258048778e-01	 1.6256700207e+00	-5.5309049896e-01
 1.7479245489e-01	 1.6276786717e+00	-5.3748959207e-01
 2.6534170505e-01	 1.6228959641e+00	-6.6537867557e-01
 2.4731328317e-01	 1.6257409606e+00	-6.2619022089e-01
 2.2932001199e-01	 1.6283764500e+00	-5.8990282680e-01
 2.1136515006e-01	 1.6308041894e+00	-5.5825241664e-01
 1.9345189270e-01	 1.6330259937e+00	-5.3339808363e-01
 1.7558337098e-01	 1.6350437336e+00	-5.1783559514e-01
 2.6653693795e-01	 1.6302063063e+00	-6.4697840857e-01
 2.4842730697e-01	 1.6330641180e+00	-6.0782156951e-01
 2.3035298502e-01	 1.6357114791e+00	-5.7142952854e-01
 2.1231724533e-01	 1.6381501542e+00	-5.3961468516e-01
 1.9432329762e-01	 1.6403819666e+00	-5.1460335371e-01
 1.7637428706e-01	 1.6424087954e+00	-4.9895384228e-01
 2.6773217086e-01	 1.6375166485e+00	-6.2904084935e-01
 2.4954133077e-01	 1.6403872755e+00	-5.9001971839e-01
 2.3138595805e-01	 1.6430465081e+00	-5.5352989676e-01
 2.1326934061e-01	 1.6454961190e+00	-5.2150121313e-01
 1.9519470254e-01	 1.6477379396e+00	-4.9626848198e-01
 1.7716520315e-01	 1.6497738573e+00	-4.8049424808e-01
 2.6892740376e-01	 1.6448269907e+00	-6.1104531839e-01
 2.5065535457e-01	 1.6477104330e+00	-5.7224008200e-01
 2.3241893107e-01	 1.6503815372e+00	-5.3566570210e-01
 2.1422143588e-01	 1.6528420839e+00	-5.0340877425e-01
 1.9606610746e-01	 1.6550939125e+00	-4.7795220989e-01
 1.7795611923e-01	 1.6571389192e+00	-4.6210274528e-01
 1.7400153881e-01	 1.6203136098e+00	-5.5826190440e-01
 1.5634136572e-01	 1.6221128528e+00	-5.4776809125e-01
 1.3873153661e-01	 1.6237137342e+00	-5.3680793066e-01
 1.2117495846e-01	 1.6251182601e+00	-5.2511156422e-01
 1.0367447156e-01	 1.6263284827e+00	-5.1249781858e-01
 8.6232848997e-02	 1.6273464983e+00	-4.9882050322e-01
 1.7479245489e-01	 1.6276786717e+00	-5.3748959207e-01
 1.5705200829e-01	 1.6294860930e+00	-5.2718468247e-01
 1.3936213451e-01	 1.6310942511e+00	-5.1623897240e-01
 1.2172575373e-01	 1.6325051613e+00	-5.0443782559e-01
 1.0414571916e-01	 1.6337208849e+00	-4.9167921259e-01
 8.6624816493e-02	 1.6347435278e+00	-4.7792428045e-01
 1.7558337098e-01	 1.6350437336e+00	-5.1783559514e-01
 1.5776265086e-01	 1.6368593333e+00	-5.0756266903e-01
 1.3999273240e-01	 1.6384747681e+00	-4.9656382977e-01
 1.2227654899e-01	 1.6398920624e+00	-4.8465077709e-01
 1.0461696676e-01	 1.6411132871e+00	-4.7176975615e-01
 8.7016783988e-02	 1.6421405574e+00	-4.5795672191e-01
 1.7637428706e-01	 1.6424087954e+00	-4.9895384228e-01
 1.5847329344e-01	 1.6442325735e+00	-4.8864717868e-01
 1.4062333030e-01	 1.6458552851e+00	-4.7759979217e-01
 1.2282734426e-01	 1.6472789636e+00	-4.6562011965e-01
 1.0508821436e-01	 1.6485056893e+00	-4.5267109655e-01
 8.7408751484e-02	 1.6495375869e+00	-4.3883024453e-01
 1.7716520315e-01	 1.6497738573e+00	-4.8049424808e-01
 1.5918393601e-01	 1.6516058137e+00	-4.7017897065e-01
 1.4125392819e-01	 1.6532358021e+00	-4.5915996929e-01
 1.2337813952e-01	 1.6546658648e+00	-4.4721208645e-01
 1.0555946196e-01	 1.6558980915e+00	-4.3428262726e-01
 8.7800718979e-02	 1.6569346164e+00	-4.2045670566e-01
 1.7795611923e-01	 1.6571389192e+00	-4.6210274528e-01
 1.5989457858e-01	 1.6589790540e+00	-4.5189445786e-01
 1.4188452608e-01	 1.6606163190e+00	-4.4105329791e-01
 1.2392893479e-01	 1.6620527660e+00	-4.2928942865e-01
 1.0603070955e-01	 1.6632904937e+00	-4.1650144720e-01
 8.8192686475e-02	 1.6643316460e+00	-4.0274733033e-01
 8.6232848997e-02	 1.6273464983e+00	-4.9882050322e-01
 6.8852796142e-02	 1.6281744447e+00	-4.8483395469e-01
 5.1536950285e-02	 1.6288144991e+00	-4.7342710060e-01
 3.4287880301e-02	 1.6292688762e+00	-4.6749974135e-01
 1.7108086410e-02	 1.6295398256e+00	-4.6970497246e-01
 0.0000000000e+00	 1.6296296296e+00	-4.8239092389e-01
 8.6624816493e-02	 1.6347435278e+00	-4.7792428045e-01
 6.9165763397e-02	 1.6355752376e+00	-4.6395094124e-01
 5.1771209150e-02	 1.6362182014e+00	-4.5257082170e-01
 3.4443734302e-02	 1.6366746438e+00	-4.4669153454e-01
 1.7185850439e-02	 1.6369468248e+00	-4.4901452189e-01
 0.0000000000e+00	 1.6370370370e+00	-4.6198023490e-01
 8.7016783988e-02	 1.6421405574e+00	-4.5795672191e-01
 6.9478730652e-02	 1.6429760305e+00	-4.4396622282e-01
 5.2005468014e-02	 1.6436219037e+00	-4.3253426060e-01
 3.4599588304e-02	 1.6440804115e+00	-4.2661655593e-01
 1.7263614468e-02	 1.6443538240e+00	-4.2900453748e-01
 0.0000000000e+00	 1.6444444444e+00	-4.4227404082e-01
 8.7408751484e-02	 1.6495375869e+00	-4.3883024453e-01
 6.9791697908e-02	 1.6503768234e+00	-4.2479759584e-01
 5.2239726879e-02	 1.6510256059e+00	-4.1325025418e-01
 3.4755442305e-02	 1.6514861791e+00	-4.0723054077e-01
 1.7341378497e-02	 1.6517608232e+00	-4.0965972090e-01
 0.0000000000e+00	 1.6518518519e+00	-4.2329030764e-01
 8.7800718979e-02	 1.6569346164e+00	-4.2045670566e-01
 7.0104665163e-02	 1.6577776164e+00	-4.0636415509e-01
 5.2473985744e-02	 1.6584293082e+00	-3.9465465537e-01
 3.4911296306e-02	 1.6588919467e+00	-3.8849381506e-01
 1.7419142526e-02	 1.6591678224e+00	-3.9097079332e-01
 0.0000000000e+00	 1.6592592593e+00	-4.0505430080e-01
 8.8192686475e-02	 1.6643316460e+00	-4.0274733033e-01
 7.0417632418e-02	 1.6651784093e+00	-3.8858618974e-01
 5.2708244609e-02	 1.6658330105e+00	-3.7668620518e-01
 3.5067150308e-02	 1.6662977143e+00	-3.7037115008e-01
 1.7496906555e-02	 1.6665748216e+00	-3.7293433871e-01
 0.0000000000e+00	 1.6666666667e+00	-3.8759842296e-01
 1.6666666667e+00	 0.0000000000e+00	 3.5053272225e+00
 1.6665748216e+00	 1.7496906555e-02	 3.5023872431e+00
 1.6662977143e+00	 3.5067150308e-02	 3.4962682251e+00
 1.6658330105e+00	 5.2708244609e-02	 3.4870499639e+00
 1.6651784093e+00	 7.0417632418e-02	 3.4744579167e+00
 1.6643316460e+00	 8.8192686475e-02	 3.4578861292e+00
 1.6740740741e+00	 0.0000000000e+00	 3.4911834948e+00
 1.6739818208e+00	 1.7574670585e-02	 3.4879050819e+00
 1.6737034819e+00	 3.5223004309e-02	 3.4817467991e+00
 1.6732367127e+00	 5.2942503474e-02	 3.4726515099e+00
 1.6725792022e+00	 7.0730599673e-02	 3.4602425750e+00
 1.6717286755e+00	 8.8584653970e-02	 3.4438424339e+00
 1.6814814815e+00	 0.0000000000e+00	 3.4768494617e+00
 1.6813888200e+00	 1.7652434614e-02	 3.4733563131e+00
 1.6811092496e+00	 3.5378858311e-02	 3.4671682931e+00
 1.6806404150e+00	 5.3176762339e-02	 3.4581467123e+00
 1.6799799952e+00	 7.1043566928e-02	 3.4458697539e+00
 1.6791257051e+00	 8.8976621466e-02	 3.4296464281e+00
 1.6888888889e+00	 0.0000000000e+00	 3.4622979295e+00
 1.6887958192e+00	 1.7730198643e-02	 3.4587299562e+00
 1.6885150172e+00	 3.5534712312e-02	 3.4525225767e+00
 1.6880441173e+00	 5.3411021204e-02	 3.4435112632e+00
 1.6873807881e+00	 7.1356534183e-02	 3.4312863152e+00
 1.6865227346e+00	 8.9368588961e-02	 3.4152018979e+00
 1.6962962963e+00	 0.0000000000e+00	 3.4475020634e+00
 1.6962028184e+00	 1.7807962672e-02	 3.4440153605e+00
 1.6959207848e+00	 3.5690566313e-02	 3.4377998637e+00
 1.6954478195e+00	 5.3645280069e-02	 3.4287212837e+00
 1.6947815810e+00	 7.1669501439e-02	 3.4164397306e+00
 1.6939197641e+00	 8.9760556456e-02	 3.4004135439e+00
 1.7037037037e+00	 0.0000000000e+00	 3.4324353795e+00
 1.7036098177e+00	 1.7885726701e-02	 3.4292021993e+00
 1.7033265524e+00	 3.5846420315e-02	 3.4229907067e+00
 1.7028515218e+00	 5.3879538934e-02	 3.4137533158e+00
 1.7021823740e+00	 7.1982468694e-02	 3.4012780686e+00
 1.7013167937e+00	 9.0152523952e-02	 3.3851869596e+00
 1.6643316460e+00	 8.8192686475e-02	 3.4578861292e+00
 1.6632904937e+00	 1.0603070955e-01	 3.4355590697e+00
 1.6620527660e+00	 1.2392893479e-01	 3.4074141868e+00
 1.6606163190e+00	 1.4188452608e-01	 3.3749949118e+00
 1.6589790540e+00	 1.5989457858e-01	 3.3396116873e+00
 1.6571389192e+00	 1.7795611923e-01	 3.3023600155e+00
 1.6717286755e+00	 8.8584653970e-02	 3.4438424339e+00
 1.6706828959e+00	 1.0650195715e-01	 3.4215477256e+00
 1.6694396672e+00	 1.2447973006e-01	 3.3932519769e+00
 1.6679968360e+00	 1.4251512398e-01	 3.3605837561e+00
 1.6663522942e+00	 1.6060522115e-01	 3.3249481757e+00
 1.6645039810e+00	 1.7874703532e-01	 3.2875385520e+00
 1.6791257051e+00	 8.8976621466e-02	 3.4296464281e+00
 1.6780752981e+00	 1.0697320475e-01	 3.4074863143e+00
 1.6768265683e+00	 1.2503052532e-01	 3.3792068390e+00
 1.6753773530e+00	 1.4314572187e-01	 3.3464712257e+00
 1.6737255345e+00	 1.6131586372e-01	 3.3107286629e+00
 1.6718690429e+00	 1.7953795140e-01	 3.2732194278e+00
 1.6865227346e+00	 8.9368588961e-02	 3.4152018979e+00
 1.6854677003e+00	 1.0744445235e-01	 3.3932283577e+00
 1.6842134695e+00	 1.2558132059e-01	 3.3650829262e+00
 1.6827578700e+00	 1.4377631976e-01	 3.3324149897e+00
 1.6810987747e+00	 1.6202650629e-01	 3.2966692254e+00
 1.6792341048e+00	 1.8032886749e-01	 3.2590840350e+00
 1.6939197641e+00	 8.9760556456e-02	 3.4004135439e+00
 1.6928601025e+00	 1.0791569995e-01	 3.3786286312e+00
 1.6916003707e+00	 1.2613211585e-01	 3.3506859128e+00
 1.6901383869e+00	 1.4440691766e-01	 3.3181744359e+00
 1.6884720149e+00	 1.6273714886e-01	 3.2824877874e+00
 1.6865991666e+00	 1.8111978358e-01	 3.2448156743e+00
 1.7013167937e+00	 9.0152523952e-02	 3.3851869596e+00
 1.7002525047e+00	 1.0838694754e-01	 3.3635431331e+00
 1.6989872719e+00	 1.2668291112e-01	 3.3358229579e+00
 1.6975189039e+00	 1.4503751555e-01	 3.3035106321e+00
 1.6958452552e+00	 1.6344779144e-01	 3.2679040822e+00
 1.6939642285e+00	 1.8191069966e-01	 3.2300995212e+00
 1.6571389192e+00	 1.7795611923e-01	 3.3023600155e+00
 1.6550939125e+00	 1.9606610746e-01	 3.2644385879e+00
 1.6528420839e+00	 2.1422143588e-01	 3.2242695325e+00
 1.6503815372e+00	 2.3241893107e-01	 3.1785300627e+00
 1.6477104330e+00	 2.5065535457e-01	 3.1238064480e+00
 1.6448269907e+00	 2.6892740376e-01	 3.0566690512e+00
 1.6645039810e+00	 1.7874703532e-01	 3.2875385520e+00
 1.6624498855e+00	 1.9693751239e-01	 3.2497284560e+00
 1.6601880487e+00	 2.1517353115e-01	 3.2099604911e+00
 1.6577165662e+00	 2.3345190410e-01	 3.1647624451e+00
 1.6550335905e+00	 2.5176937837e-01	 3.1105474651e+00
 1.6521373329e+00	 2.7012263667e-01	 3.0436830465e+00
 1.6718690429e+00	 1.7953795140e-01	 3.2732194278e+00
 1.6698058584e+00	 1.9780891731e-01	 3.2354685496e+00
 1.6675340135e+00	 2.1612562642e-01	 3.1959993777e+00
 1.6650515953e+00	 2.3448487713e-01	 3.1512639288e+00
 1.6623567480e+00	 2.5288340216e-01	 3.0975745547e+00
 1.6594476750e+00	 2.7131786958e-01	 3.0311664632e+00
 1.6792341048e+00	 1.8032886749e-01	 3.2590840350e+00
 1.6771618314e+00	 1.9868032223e-01	 3.2213055529e+00
 1.6748799783e+00	 2.1707772169e-01	 3.1819900521e+00
 1.6723866243e+00	 2.3551785015e-01	 3.1375876946e+00
 1.6696799054e+00	 2.5399742596e-01	 3.0843826016e+00
 1.6667580172e+00	 2.7251310248e-01	 3.0185484780e+00
 1.6865991666e+00	 1.8111978358e-01	 3.2448156743e+00
 1.6845178043e+00	 1.9955172715e-01	 3.2068882090e+00
 1.6822259431e+00	 2.1802981696e-01	 3.1675388491e+00
 1.6797216534e+00	 2.3655082318e-01	 3.1232901111e+00
 1.6770030629e+00	 2.5511144976e-01	 3.0704707172e+00
 1.6740683594e+00	 2.7370833539e-01	 3.0052638899e+00
 1.6939642285e+00	 1.8191069966e-01	 3.2300995212e+00
 1.6918737772e+00	 2.0042313208e-01	 3.1918672915e+00
 1.6895719079e+00	 2.1898191223e-01	 3.1522545539e+00
 1.6870566824e+00	 2.3758379621e-01	 3.1079307115e+00
 1.6843262204e+00	 2.5622547356e-01	 3.0553422161e+00
 1.6813787016e+00	 2.7490356829e-01	 2.9907530923e+00
 1.6448269907e+00	 2.6892740376e-01	 3.0566690512e+00
 1.6417294908e+00	 2.8723171304e-01	 2.9812093611e+00
 1.6384162772e+00	 3.0556485489e-01	 2.9057862761e+00
 1.6348857596e+00	 3.2392334121e-01	 2.8336872326e+00
 1.6311364156e+00	 3.4230362463e-01	 2.7686897379e+00
 1.6271667932e+00	 3.6070209995e-01	 2.7152404457e+00
 1.6521373329e+00	 2.7012263667e-01	 3.0436830465e+00
 1.6490260663e+00	 2.8850829843e-01	 2.9678880410e+00
 1.6456981273e+00	 3.0692292091e-01	 2.8915717639e+00
 1.6421519185e+00	 3.2536300050e-01	 2.8183927584e+00
 1.6383859108e+00	 3.4382497408e-01	 2.7524486075e+00
 1.6343986456e+00	 3.6230522039e-01	 2.6984497405e+00
 1.6594476750e+00	 2.7131786958e-01	 3.0311664632e+00
 1.6563226418e+00	 2.8978488382e-01	 2.9553934381e+00
 1.6529799774e+00	 3.0828098693e-01	 2.8785856758e+00
 1.6494180774e+00	 3.2680265980e-01	 2.8046347831e+00
 1.6456354060e+00	 3.4534632352e-01	 2.7378185370e+00
 1.6416304980e+00	 3.6390834084e-01	 2.6829694753e+00
 1.6667580172e+00	 2.7251310248e-01	 3.0185484780e+00
 1.6636192173e+00	 2.9106146921e-01	 2.9430982269e+00
 1.6602618275e+00	 3.0963905295e-01	 2.8661718115e+00
 1.6566842363e+00	 3.2824231909e-01	 2.7917587030e+00
 1.6528849012e+00	 3.4686767296e-01	 2.7241797703e+00
 1.6488623504e+00	 3.6551146128e-01	 2.6682506999e+00
 1.6740683594e+00	 2.7370833539e-01	 3.0052638899e+00
 1.6709157928e+00	 2.9233805460e-01	 2.9303821960e+00
 1.6675436776e+00	 3.1099711897e-01	 2.8536823827e+00
 1.6639503953e+00	 3.2968197839e-01	 2.7791194082e+00
 1.6601343963e+00	 3.4838902241e-01	 2.7109228893e+00
 1.6560942028e+00	 3.6711458173e-01	 2.6537553848e+00
 1.6813787016e+00	 2.7490356829e-01	 2.9907530923e+00
 1.6782123683e+00	 2.9361463999e-01	 2.9166322213e+00
 1.6748255278e+00	 3.1235518499e-01	 2.8404779967e+00
 1.6712165542e+00	 3.3112163768e-01	 2.7660812885e+00
 1.6673838915e+00	 3.4991037185e-01	 2.6974488531e+00
 1.6633260553e+00	 3.6871770217e-01	 2.6389565063e+00
 1.6271667932e+00	 3.6070209995e-01	 2.7152404457e+00
 1.6229755126e+00	 3.7911510563e-01	 2.6509039179e+00
 1.6185612687e+00	 3.9753892547e-01	 2.5588210234e+00
 1.6139228332e+00	 4.1596979026e-01	 2.4513562375e+00
 1.6090590565e+00	 4.3440387959e-01	 2.3405276478e+00
 1.6039688700e+00	 4.5283732373e-01	 2.2386215808e+00
 1.6343986456e+00	 3.6230522039e-01	 2.6984497405e+00
 1.6301887371e+00	 3.8080006166e-01	 2.6348220084e+00
 1.6257548743e+00	 3.9930576514e-01	 2.5449818265e+00
 1.6210958235e+00	 4.1781854489e-01	 2.4399929292e+00
 1.6162104300e+00	 4.3633456350e-01	 2.3307498567e+00
 1.6110976206e+00	 4.5484993406e-01	 2.2284147067e+00
 1.6416304980e+00	 3.6390834084e-01	 2.6829694753e+00
 1.6374019616e+00	 3.8248501768e-01	 2.6195045009e+00
 1.6329484800e+00	 4.0107260481e-01	 2.5312910925e+00
 1.6282688139e+00	 4.1966729951e-01	 2.4282922226e+00
 1.6233618036e+00	 4.3826524741e-01	 2.3204452468e+00
 1.6182263711e+00	 4.5686254438e-01	 2.2179522513e+00
 1.6488623504e+00	 3.6551146128e-01	 2.6682506999e+00
 1.6446151861e+00	 3.8416997371e-01	 2.6044921486e+00
 1.6401420856e+00	 4.0283944448e-01	 2.5173495836e+00
 1.6354418043e+00	 4.2151605413e-01	 2.4158804892e+00
 1.6305131772e+00	 4.4019593132e-01	 2.3092286562e+00
 1.6253551216e+00	 4.5887515471e-01	 2.2067976659e+00
 1.6560942028e+00	 3.6711458173e-01	 2.6537553848e+00
 1.6518284106e+00	 3.8585492973e-01	 2.5893381364e+00
 1.6473356912e+00	 4.0460628415e-01	 2.5027702717e+00
 1.6426147946e+00	 4.2336480876e-01	 2.4023966566e+00
 1.6376645508e+00	 4.4212661523e-01	 2.2967284332e+00
 1.6324838722e+00	 4.6088776504e-01	 2.1945295138e+00
 1.6633260553e+00	 3.6871770217e-01	 2.6389565063e+00
 1.6590416351e+00	 3.8753988576e-01	 2.5736079099e+00
 1.6545292969e+00	 4.0637312382e-01	 2.4871781639e+00
 1.6497877850e+00	 4.2521356338e-01	 2.3874920152e+00
 1.6448159244e+00	 4.4405729914e-01	 2.2825862089e+00
 1.6396126227e+00	 4.6290037537e-01	 2.1807411922e+00
 1.6039688700e+00	 4.5283732373e-01	 2.2386215808e+00
 1.5986512882e+00	 4.7126620560e-01	 2.1475739073e+00
 1.5931054102e+00	 4.8968656285e-01	 2.0585975332e+00
 1.5873304220e+00	 5.0809438995e-01	 1.9683339700e+00
 1.5813255984e+00	 5.2648564047e-01	 1.8737590837e+00
 1.5750903044e+00	 5.4485622934e-01	 1.7721881430e+00
 1.6110976206e+00	 4.5484993406e-01	 2.2284147067e+00
 1.6057564050e+00	 4.7336072207e-01	 2.1351038250e+00
 1.6001858787e+00	 4.9186294758e-01	 2.0434865212e+00
 1.5943852239e+00	 5.1035258724e-01	 1.9509889563e+00
 1.5883537122e+00	 5.2882557665e-01	 1.8553618546e+00
 1.5820907058e+00	 5.4727781258e-01	 1.7546849459e+00
 1.6182263711e+00	 4.5686254438e-01	 2.2179522513e+00
 1.6128615219e+00	 4.7545523854e-01	 2.1230606020e+00
 1.6072663472e+00	 4.9403933230e-01	 2.0295686976e+00
 1.6014400258e+00	 5.1261078453e-01	 1.9354363727e+00
 1.5953818259e+00	 5.3116551283e-01	 1.8389433021e+00
 1.5890911071e+00	 5.4969939582e-01	 1.7386934953e+00
 1.6253551216e+00	 4.5887515471e-01	 2.2067976659e+00
 1.6199666387e+00	 4.7754975501e-01	 2.1109632316e+00
 1.6143468156e+00	 4.9621571702e-01	 2.0163761781e+00
 1.6084948276e+00	 5.1486898182e-01	 1.9212821532e+00
 1.6024099397e+00	 5.3350544901e-01	 1.8242469807e+00
 1.5960915085e+00	 5.5212097906e-01	 1.7241618613e+00
 1.6324838722e+00	 4.6088776504e-01	 2.1945295138e+00
 1.6270717555e+00	 4.7964427148e-01	 2.0983472449e+00
 1.6214272841e+00	 4.9839210175e-01	 2.0034579752e+00
 1.6155496295e+00	 5.1712717911e-01	 1.9081483610e+00
 1.6094380535e+00	 5.3584538519e-01	 1.8110306221e+00
 1.6030919098e+00	 5.5454256231e-01	 1.7110490980e+00
 1.6396126227e+00	 4.6290037537e-01	 2.1807411922e+00
 1.6341768724e+00	 4.8173878795e-01	 2.0847643829e+00
 1.6285077526e+00	 5.0056848647e-01	 1.9903796409e+00
 1.6226044314e+00	 5.1938537640e-01	 1.8956728251e+00
 1.6164661673e+00	 5.3818532137e-01	 1.7990657883e+00
 1.6100923112e+00	 5.5696414555e-01	 1.6993249378e+00
 1.5750903044e+00	 5.4485622934e-01	 1.7721881430e+00
 1.5686239974e+00	 5.6320203529e-01	 1.6601804562e+00
 1.5619262284e+00	 5.8151890327e-01	 1.5402726688e+00
 1.5549966439e+00	 5.9980264704e-01	 1.4191642618e+00
 1.5478349871e+00	 6.1804905174e-01	 1.3037381566e+00
 1.5404410999e+00	 6.3625387665e-01	 1.2010108087e+00
 1.5820907058e+00	 5.4727781258e-01	 1.7546849459e+00
 1.5755956596e+00	 5.6570515544e-01	 1.6454164368e+00
 1.5688681227e+00	 5.8410343173e-01	 1.5288065860e+00
 1.5619077400e+00	 6.0246843658e-01	 1.4105538987e+00
 1.5547142537e+00	 6.2079593642e-01	 1.2965702129e+00
 1.5472875048e+00	 6.3908167166e-01	 1.1929332799e+00
 1.5890911071e+00	 5.4969939582e-01	 1.7386934953e+00
 1.5825673218e+00	 5.6820827560e-01	 1.6310974917e+00
 1.5758100171e+00	 5.8668796019e-01	 1.5165840724e+00
 1.5688188362e+00	 6.0513422612e-01	 1.4002269305e+00
 1.5615935204e+00	 6.2354282109e-01	 1.2873348182e+00
 1.5541339097e+00	 6.4190946666e-01	 1.1834056553e+00
 1.5960915085e+00	 5.5212097906e-01	 1.7241618613e+00
 1.5895389840e+00	 5.7071139576e-01	 1.6173637239e+00
 1.5827519114e+00	 5.8927248864e-01	 1.5038397412e+00
 1.5757299324e+00	 6.0780001566e-01	 1.3884096140e+00
 1.5684727870e+00	 6.2628970577e-01	 1.2761417619e+00
 1.5609803146e+00	 6.4473726167e-01	 1.1723080033e+00
 1.6030919098e+00	 5.5454256231e-01	 1.7110490980e+00
 1.5965106462e+00	 5.7321451591e-01	 1.6043631700e+00
 1.5896938058e+00	 5.9185701710e-01	 1.4908147151e+00
 1.5826410286e+00	 6.1046580521e-01	 1.3753350133e+00
 1.5753520536e+00	 6.2903659044e-01	 1.2631097506e+00
 1.5678267194e+00	 6.4756505668e-01	 1.1595333249e+00
 1.6100923112e+00	 5.5696414555e-01	 1.6993249378e+00
 1.6034823085e+00	 5.7571763607e-01	 1.5922515295e+00
 1.5966357001e+00	 5.9444154556e-01	 1.4777563544e+00
 1.5895521248e+00	 6.1313159475e-01	 1.3612426849e+00
 1.5822313202e+00	 6.3178347512e-01	 1.2483660099e+00
 1.5746731243e+00	 6.5039285168e-01	 1.1449870283e+00
 1.5404410999e+00	 6.3625387665e-01	 1.2010108087e+00
 1.5328149234e+00	 6.5441285785e-01	 1.1014395472e+00
 1.5249564996e+00	 6.7252171115e-01	 9.9236572262e-01
 1.5168659729e+00	 6.9057613491e-01	 8.7630373305e-01
 1.5085435902e+00	 7.0857181299e-01	 7.5585241031e-01
 1.4999897029e+00	 7.2650441778e-01	 6.3361777038e-01
 1.5472875048e+00	 6.3908167166e-01	 1.1929332799e+00
 1.5396274341e+00	 6.5732135944e-01	 1.0902914199e+00
 1.5317340841e+00	 6.7551069654e-01	 9.7761718673e-01
 1.5236075994e+00	 6.9364536217e-01	 8.5864515817e-01
 1.5152482284e+00	 7.1172102104e-01	 7.3715453004e-01
 1.5066563238e+00	 7.2973332630e-01	 6.1688693804e-01
 1.5541339097e+00	 6.4190946666e-01	 1.1834056553e+00
 1.5464399449e+00	 6.6022986104e-01	 1.0791923913e+00
 1.5385116685e+00	 6.7849968192e-01	 9.6458029275e-01
 1.5303492260e+00	 6.9671458944e-01	 8.4394006292e-01
 1.5219528666e+00	 7.1487022910e-01	 7.2166533163e-01
 1.5133229447e+00	 7.3296223482e-01	 6.0208702834e-01
 1.5609803146e+00	 6.4473726167e-01	 1.1723080033e+00
 1.5532524557e+00	 6.6313836263e-01	 1.0678160501e+00
 1.5452892530e+00	 6.8148866730e-01	 9.5289067109e-01
 1.5370908525e+00	 6.9978381671e-01	 8.3196268338e-01
 1.5286575048e+00	 7.1801943716e-01	 7.0948214737e-01
 1.5199895656e+00	 7.3619114335e-01	 5.8983075931e-01
 1.5678267194e+00	 6.4756505668e-01	 1.1595333249e+00
 1.5600649664e+00	 6.6604686422e-01	 1.0558524562e+00
 1.5520668374e+00	 6.8447765269e-01	 9.4220095279e-01
 1.5438324791e+00	 7.0285304397e-01	 8.2250164037e-01
 1.5353621429e+00	 7.2116864522e-01	 7.0071080093e-01
 1.5266561865e+00	 7.3942005187e-01	 5.8073004019e-01
 1.5746731243e+00	 6.5039285168e-01	 1.1449870283e+00
 1.5668774772e+00	 6.6895536581e-01	 1.0430074971e+00
 1.5588444219e+00	 6.8746663807e-01	 9.3218007049e-01
 1.5505741056e+00	 7.0592227124e-01	 8.1535925201e-01
 1.5420667811e+00	 7.2431785327e-01	 6.9546500107e-01
 1.5333228074e+00	 7.4264896039e-01	 5.7530062078e-01
 1.4999897029e+00	 7.2650441778e-01	 6.3361777038e-01
 1.4912047668e+00	 7.4436961324e-01	 5.2034125538e-01
 1.4821893438e+00	 7.6216305800e-01	 4.0536835418e-01
 1.4729441015e+00	 7.7988040850e-01	 2.8961093415e-01
 1.4634698147e+00	 7.9751732217e-01	 1.8483769383e-01
 1.4537673652e+00	 8.1506946068e-01	 7.6049977052e-02
 1.5066563238e+00	 7.2973332630e-01	 6.1688693804e-01
 1.4978323436e+00	 7.4767792263e-01	 5.0938800200e-01
 1.4887768520e+00	 7.6555044937e-01	 4.0328299294e-01
 1.4794905198e+00	 7.8334654365e-01	 2.8457334512e-01
 1.4699741250e+00	 8.0106184361e-01	 1.7078434016e-01
 1.4602285535e+00	 8.1869199162e-01	 6.0520944406e-02
 1.5133229447e+00	 7.3296223482e-01	 6.0208702834e-01
 1.5044599203e+00	 7.5098623202e-01	 4.9677813322e-01
 1.4953643602e+00	 7.6893784074e-01	 3.9586716984e-01
 1.4860369380e+00	 7.8681267880e-01	 2.8658817592e-01
 1.4764784353e+00	 8.0460636504e-01	 1.6410732790e-01
 1.4666897418e+00	 8.2231452256e-01	 4.8427778851e-02
 1.5199895656e+00	 7.3619114335e-01	 5.8983075931e-01
 1.5110874971e+00	 7.5429454141e-01	 4.8374833558e-01
 1.5019518684e+00	 7.7232523211e-01	 3.8465149073e-01
 1.4925833562e+00	 7.9027881394e-01	 2.8182996014e-01
 1.4829827456e+00	 8.0815088647e-01	 1.6532655693e-01
 1.4731509300e+00	 8.2593705349e-01	 4.0472846338e-02
 1.5266561865e+00	 7.3942005187e-01	 5.8073004019e-01
 1.5177150738e+00	 7.5760285081e-01	 4.7151048074e-01
 1.5085393766e+00	 7.7571262347e-01	 3.7113651992e-01
 1.4991297744e+00	 7.9374494909e-01	 2.7089468282e-01
 1.4894870559e+00	 8.1169540790e-01	 1.6221538321e-01
 1.4796121183e+00	 8.2955958443e-01	 3.7350199163e-02
 1.5333228074e+00	 7.4264896039e-01	 5.7530062078e-01
 1.5243426506e+00	 7.6091116020e-01	 4.6125208161e-01
 1.5151268847e+00	 7.7910001484e-01	 3.5679335214e-01
 1.5056761927e+00	 7.9721108424e-01	 2.5534263543e-01
 1.4959913662e+00	 8.1523992933e-01	 1.5034005043e-01
 1.4860733066e+00	 8.3318211537e-01	 3.5208836523e-02
 1.4537673652e+00	 8.1506946068e-01	 7.6049977052e-02
 1.4438377421e+00	 8.3253249315e-01	-3.8632117457e-02
 1.4336820426e+00	 8.4990209942e-01	-1.5073127309e-01
 1.4233014711e+00	 8.6717397341e-01	-2.6133409584e-01
 1.4126973401e+00	 8.8434382634e-01	-3.7274788445e-01
 1.4018710692e+00	 9.0140739013e-01	-4.8838602871e-01
 1.4602285535e+00	 8.1869199162e-01	 6.0520944406e-02
 1.4502547988e+00	 8.3623263756e-01	-5.1959191101e-02
 1.4400539628e+00	 8.5367944209e-01	-1.6192088278e-01
 1.4296272554e+00	 8.7102807995e-01	-2.7069053053e-01
 1.4189759949e+00	 8.8827424334e-01	-3.8083025395e-01
 1.4081016073e+00	 9.0541364520e-01	-4.9602064035e-01
 1.4666897418e+00	 8.2231452256e-01	 4.8427778851e-02
 1.4566718554e+00	 8.3993278198e-01	-6.4310958654e-02
 1.4464258829e+00	 8.5745678475e-01	-1.7323354314e-01
 1.4359530397e+00	 8.7488218650e-01	-2.8031666270e-01
 1.4252546497e+00	 8.9220466035e-01	-3.8877779682e-01
 1.4143321454e+00	 9.0941990026e-01	-5.0295428434e-01
 1.4731509300e+00	 8.2593705349e-01	 4.0472846338e-02
 1.4630889120e+00	 8.4363292639e-01	-7.5390636440e-02
 1.4527978031e+00	 8.6123412742e-01	-1.8467616158e-01
 1.4422788240e+00	 8.7873629305e-01	-2.9041559814e-01
 1.4315333046e+00	 8.9613507736e-01	-3.9687686215e-01
 1.4205626835e+00	 9.1342615533e-01	-5.0943828279e-01
 1.4796121183e+00	 8.2955958443e-01	 3.7350199163e-02
 1.4695059687e+00	 8.4733307080e-01	-8.4903261105e-02
 1.4591697233e+00	 8.6501147008e-01	-1.9625263066e-01
 1.4486046084e+00	 8.8259039960e-01	-3.0118434284e-01
 1.4378119594e+00	 9.0006549436e-01	-4.0540645546e-01
 1.4267932216e+00	 9.1743241040e-01	-5.1571730145e-01
 1.4860733066e+00	 8.3318211537e-01	 3.5208836523e-02
 1.4759230253e+00	 8.5103321522e-01	-9.2556257029e-02
 1.4655416435e+00	 8.6878881274e-01	-2.0796451621e-01
 1.4549303927e+00	 8.8644450615e-01	-3.1281457047e-01
 1.4440906143e+00	 9.0399591137e-01	-4.1463904219e-01
 1.4330237597e+00	 9.2143866547e-01	-5.2203014392e-01
 1.4018710692e+00	 9.0140739013e-01	-4.8838602871e-01
 1.3908241857e+00	 9.1836042069e-01	-5.9472609593e-01
 1.3795583231e+00	 9.3519870125e-01	-6.8346449202e-01
 1.3680752216e+00	 9.5191804569e-01	-7.6692523750e-01
 1.3563767268e+00	 9.6851430186e-01	-8.5770304967e-01
 1.3444647888e+00	 9.8498335487e-01	-9.6843327596e-01
 1.4081016073e+00	 9.0541364520e-01	-4.9602064035e-01
 1.3970056265e+00	 9.2244202256e-01	-6.0231942768e-01
 1.3856896935e+00	 9.3935513992e-01	-6.9089185066e-01
 1.3741555560e+00	 9.5614879256e-01	-7.7420004854e-01
 1.3624050678e+00	 9.7281880987e-01	-8.6501398468e-01
 1.3504401879e+00	 9.8936105867e-01	-9.7617635368e-01
 1.4143321454e+00	 9.0941990026e-01	-5.0295428434e-01
 1.4031870673e+00	 9.2652362443e-01	-6.0895508788e-01
 1.3918210638e+00	 9.4351157859e-01	-6.9749654257e-01
 1.3802358903e+00	 9.6037953943e-01	-7.8097865275e-01
 1.3684334088e+00	 9.7712331787e-01	-8.7214965192e-01
 1.3564155870e+00	 9.9373876247e-01	-9.8386626215e-01
 1.4205626835e+00	 9.1342615533e-01	-5.0943828279e-01
 1.4093685082e+00	 9.3060522630e-01	-6.1479539369e-01
 1.3979524341e+00	 9.4766801726e-01	-7.0336746355e-01
 1.3863162246e+00	 9.6461028630e-01	-7.8729483427e-01
 1.3744617498e+00	 9.8142782588e-01	-8.7910978676e-01
 1.3623909860e+00	 9.9811646627e-01	-9.9149252625e-01
 1.4267932216e+00	 9.1743241040e-01	-5.1571730145e-01
 1.4155499490e+00	 9.3468682817e-01	-6.1999749964e-01
 1.4040838044e+00	 9.5182445593e-01	-7.0858943167e-01
 1.3923965589e+00	 9.6884103316e-01	-7.9317892941e-01
 1.3804900908e+00	 9.8573233389e-01	-8.8589080610e-01
 1.3683663851e+00	 1.0024941701e+00	-9.9904093701e-01
 1.4330237597e+00	 9.2143866547e-01	-5.2203014392e-01
 1.4217313898e+00	 9.3876843004e-01	-6.2471416140e-01
 1.4102151748e+00	 9.5598089461e-01	-7.1324392620e-01
 1.3984768932e+00	 9.7307178003e-01	-7.9865854708e-01
 1.3865184318e+00	 9.9003684190e-01	-8.9248651792e-01
 1.3743417841e+00	 1.0068718739e+00	-1.0064942586e+00
 1.3444647888e+00	 9.8498335487e-01	-9.6843327596e-01
 1.3323414621e+00	 1.0013211304e+00	-1.0805771200e+00
 1.3200089036e+00	 1.0175235979e+00	-1.1717791778e+00
 1.3074693721e+00	 1.0335867738e+00	-1.2481026808e+00
 1.2947252266e+00	 1.0495067248e+00	-1.3144143175e+00
 1.2817789254e+00	 1.0652795709e+00	-1.3741009137e+00
 1.3504401879e+00	 9.8936105867e-01	-9.7617635368e-01
 1.3382629797e+00	 1.0057714465e+00	-1.0886009912e+00
 1.3258756098e+00	 1.0220459250e+00	-1.1792892570e+00
 1.3132803470e+00	 1.0381804928e+00	-1.2544071612e+00
 1.3004795610e+00	 1.0541711991e+00	-1.3189433787e+00
 1.2874757206e+00	 1.0700141468e+00	-1.3764187695e+00
 1.3564155870e+00	 9.9373876247e-01	-9.8386626215e-01
 1.3441844973e+00	 1.0102217627e+00	-1.0964106377e+00
 1.3317423161e+00	 1.0265682521e+00	-1.1863006731e+00
 1.3190913220e+00	 1.0427742118e+00	-1.2599840954e+00
 1.3062338953e+00	 1.0588356734e+00	-1.3227543254e+00
 1.2931725158e+00	 1.0747487227e+00	-1.3784523067e+00
 1.3623909860e+00	 9.9811646627e-01	-9.9149252625e-01
 1.3501060149e+00	 1.0146720788e+00	-1.1040077327e+00
 1.3376090223e+00	 1.0310905792e+00	-1.1928449799e+00
 1.3249022970e+00	 1.0473679307e+00	-1.2649107246e+00
 1.3119882296e+00	 1.0635001478e+00	-1.3259839734e+00
 1.2988693111e+00	 1.0794832985e+00	-1.3804098907e+00
 1.3683663851e+00	 1.0024941701e+00	-9.9904093701e-01
 1.3560275325e+00	 1.0191223949e+00	-1.1113892868e+00
 1.3434757285e+00	 1.0356129063e+00	-1.1989477138e+00
 1.3307132720e+00	 1.0519616497e+00	-1.2692565334e+00
 1.3177425640e+00	 1.0681646221e+00	-1.3287593016e+00
 1.3045661063e+00	 1.0842178744e+00	-1.3824876719e+00
 1.3743417841e+00	 1.0068718739e+00	-1.0064942586e+00
 1.3619490501e+00	 1.0235727111e+00	-1.1185483598e+00
 1.3493424348e+00	 1.0401352334e+00	-1.2046291173e+00
 1.3365242470e+00	 1.0565553687e+00	-1.2730839901e+00
 1.3234968983e+00	 1.0728290964e+00	-1.3311982129e+00
 1.3102629015e+00	 1.0889524503e+00	-1.3848703708e+00
 1.2817789254e+00	 1.0652795709e+00	-1.3741009137e+00
 1.2686330240e+00	 1.0809014887e+00	-1.4373235620e+00
 1.2552901739e+00	 1.0963687140e+00	-1.5156279559e+00
 1.2417531207e+00	 1.1116775454e+00	-1.6117782430e+00
 1.2280247023e+00	 1.1268243467e+00	-1.6972001695e+00
 1.2141078468e+00	 1.1418055501e+00	-1.7448263066e+00
 1.2874757206e+00	 1.0700141468e+00	-1.3764187695e+00
 1.2742713930e+00	 1.0857054953e+00	-1.4392639816e+00
 1.2608692413e+00	 1.1012414639e+00	-1.5213558261e+00
 1.2472720235e+00	 1.1166183345e+00	-1.6221590001e+00
 1.2334825898e+00	 1.1318324549e+00	-1.7019752553e+00
 1.2195038816e+00	 1.1468802414e+00	-1.7474973234e+00
 1.2931725158e+00	 1.0747487227e+00	-1.3784523067e+00
 1.2799097620e+00	 1.0905095019e+00	-1.4417978782e+00
 1.2664483088e+00	 1.1061142137e+00	-1.5288250320e+00
 1.2527909262e+00	 1.1215591236e+00	-1.6299294094e+00
 1.2389404774e+00	 1.1368405631e+00	-1.7052021637e+00
 1.2248999165e+00	 1.1519549328e+00	-1.7495010790e+00
 1.2988693111e+00	 1.0794832985e+00	-1.3804098907e+00
 1.2855481310e+00	 1.0953135085e+00	-1.4451848239e+00
 1.2720273762e+00	 1.1109869635e+00	-1.5382962293e+00
 1.2583098290e+00	 1.1264999127e+00	-1.6353628037e+00
 1.2443983650e+00	 1.1418486713e+00	-1.7070594847e+00
 1.2302959514e+00	 1.1570296241e+00	-1.7508761993e+00
 1.3045661063e+00	 1.0842178744e+00	-1.3824876719e+00
 1.2911865000e+00	 1.1001175151e+00	-1.4496700756e+00
 1.2776064437e+00	 1.1158597134e+00	-1.5475029187e+00
 1.2638287317e+00	 1.1314407018e+00	-1.6387386820e+00
 1.2498562525e+00	 1.1468567796e+00	-1.7077333944e+00
 1.2356919863e+00	 1.1621043154e+00	-1.7516711348e+00
 1.3102629015e+00	 1.0889524503e+00	-1.3848703708e+00
 1.2968248690e+00	 1.1049215218e+00	-1.4554853763e+00
 1.2831855111e+00	 1.1207324632e+00	-1.5539690651e+00
 1.2693476345e+00	 1.1363814909e+00	-1.6403424857e+00
 1.2553141401e+00	 1.1518648878e+00	-1.7074174128e+00
 1.2410880211e+00	 1.1671790068e+00	-1.7519438853e+00
 1.2141078468e+00	 1.1418055501e+00	-1.7448263066e+00
 1.2000055705e+00	 1.1566176587e+00	-1.7806167191e+00
 1.1857209761e+00	 1.1712572496e+00	-1.8262611979e+00
 1.1712572496e+00	 1.1857209761e+00	-1.8729877500e+00
 1.1566176587e+00	 1.2000055705e+00	-1.9119658848e+00
 1.1418055501e+00	 1.2141078468e+00	-1.9344402081e+00
 1.2195038816e+00	 1.1468802414e+00	-1.7474973234e+00
 1.2053389286e+00	 1.1617581816e+00	-1.7826991797e+00
 1.1909908471e+00	 1.1764628374e+00	-1.8274760691e+00
 1.1764628374e+00	 1.1909908471e+00	-1.8734053368e+00
 1.1617581816e+00	 1.2053389286e+00	-1.9120018813e+00
 1.1468802414e+00	 1.2195038816e+00	-1.9348549324e+00
 1.2248999165e+00	 1.1519549328e+00	-1.7495010790e+00
 1.2106722867e+00	 1.1668987046e+00	-1.7847415686e+00
 1.1962607181e+00	 1.1816684251e+00	-1.8290669953e+00
 1.1816684251e+00	 1.1962607181e+00	-1.8744433497e+00
 1.1668987046e+00	 1.2106722867e+00	-1.9127741711e+00
 1.1519549328e+00	 1.2248999165e+00	-1.9360405134e+00
 1.2302959514e+00	 1.1570296241e+00	-1.7508761993e+00
 1.2160056448e+00	 1.1720392275e+00	-1.7866355304e+00
 1.2015305891e+00	 1.1868740129e+00	-1.8308083027e+00
 1.1868740129e+00	 1.2015305891e+00	-1.8757877849e+00
 1.1720392275e+00	 1.2160056448e+00	-1.9139086926e+00
 1.1570296241e+00	 1.2302959514e+00	-1.9375903500e+00
 1.2356919863e+00	 1.1621043154e+00	-1.7516711348e+00
 1.2213390029e+00	 1.1771797504e+00	-1.7882849196e+00
 1.2068004601e+00	 1.1920796007e+00	-1.8324884135e+00
 1.1920796007e+00	 1.2068004601e+00	-1.8771401253e+00
 1.1771797504e+00	 1.2213390029e+00	-1.9150477728e+00
 1.1621043154e+00	 1.2356919863e+00	-1.9391146497e+00
 1.2410880211e+00	 1.1671790068e+00	-1.7519438853e+00
 1.2266723610e+00	 1.1823202734e+00	-1.7896054896e+00
 1.2120703311e+00	 1.1972851885e+00	-1.8339095090e+00
 1.1972851885e+00	 1.2120703311e+00	-1.8782169909e+00
 1.1823202734e+00	 1.2266723610e+00	-1.9158497764e+00
 1.1671790068e+00	 1.2410880211e+00	-1.9402400862e+00
 1.1418055501e+00	 1.2141078468e+00	-1.9344402081e+00
 1.1268243467e+00	 1.2280247023e+00	-1.9601357731e+00
 1.1116775454e+00	 1.2417531207e+00	-2.0079837337e+00
 1.0963687140e+00	 1.2552901739e+00	-2.0588243799e+00
 1.0809014887e+00	 1.2686330240e+00	-2.0934956262e+00
 1.0652795709e+00	 1.2817789254e+00	-2.1060493209e+00
 1.1468802414e+00	 1.2195038816e+00	-1.9348549324e+00
 1.1318324549e+00	 1.2334825898e+00	-1.9605308192e+00
 1.1166183345e+00	 1.2472720235e+00	-2.0066490267e+00
 1.1012414639e+00	 1.2608692413e+00	-2.0593028681e+00
 1.0857054953e+00	 1.2742713930e+00	-2.0948421139e+00
 1.0700141468e+00	 1.2874757206e+00	-2.1060748818e+00
 1.1519549328e+00	 1.2248999165e+00	-1.9360405134e+00
 1.1368405631e+00	 1.2389404774e+00	-1.9617385926e+00
 1.1215591236e+00	 1.2527909262e+00	-2.0062370477e+00
 1.1061142137e+00	 1.2664483088e+00	-2.0589367846e+00
 1.0905095019e+00	 1.2799097620e+00	-2.0958975884e+00
 1.0747487227e+00	 1.2931725158e+00	-2.1063941439e+00
 1.1570296241e+00	 1.2302959514e+00	-1.9375903500e+00
 1.1418486713e+00	 1.2443983650e+00	-1.9633267512e+00
 1.1264999127e+00	 1.2583098290e+00	-2.0062761714e+00
 1.1109869635e+00	 1.2720273762e+00	-2.0571026805e+00
 1.0953135085e+00	 1.2855481310e+00	-2.0959924112e+00
 1.0794832985e+00	 1.2988693111e+00	-2.1062762924e+00
 1.1621043154e+00	 1.2356919863e+00	-1.9391146497e+00
 1.1468567796e+00	 1.2498562525e+00	-1.9648800537e+00
 1.1314407018e+00	 1.2638287317e+00	-2.0063123864e+00
 1.1158597134e+00	 1.2776064437e+00	-2.0542336267e+00
 1.1001175151e+00	 1.2911865000e+00	-2.0944772316e+00
 1.0842178744e+00	 1.3045661063e+00	-2.1050106605e+00
 1.1671790068e+00	 1.2410880211e+00	-1.9402400862e+00
 1.1518648878e+00	 1.2553141401e+00	-1.9660000298e+00
 1.1363814909e+00	 1.2693476345e+00	-2.0059089739e+00
 1.1207324632e+00	 1.2831855111e+00	-2.0509529634e+00
 1.1049215218e+00	 1.2968248690e+00	-2.0907232943e+00
 1.0889524503e+00	 1.3102629015e+00	-2.1019069946e+00
 1.0652795709e+00	 1.2817789254e+00	-2.1060493209e+00
 1.0495067248e+00	 1.2947252266e+00	-2.1041784501e+00
 1.0335867738e+00	 1.3074693721e+00	-2.0999662907e+00
 1.0175235979e+00	 1.3200089036e+00	-2.0968926702e+00
 1.0013211304e+00	 1.3323414621e+00	-2.0999667754e+00
 9.8498335487e-01	 1.3444647888e+00	-2.1154511058e+00
 1.0700141468e+00	 1.2874757206e+00	-2.1060748818e+00
 1.0541711991e+00	 1.3004795610e+00	-2.1021604436e+00
 1.0381804928e+00	 1.3132803470e+00	-2.0964917867e+00
 1.0220459250e+00	 1.3258756098e+00	-2.0924778140e+00
 1.0057714465e+00	 1.3382629797e+00	-2.0950549869e+00
 9.8936105867e-01	 1.3504401879e+00	-2.1104038250e+00
 1.0747487227e+00	 1.2931725158e+00	-2.1063941439e+00
 1.0588356734e+00	 1.3062338953e+00	-2.1009346475e+00
 1.0427742118e+00	 1.3190913220e+00	-2.0941027960e+00
 1.0265682521e+00	 1.3317423161e+00	-2.0892503948e+00
 1.0102217627e+00	 1.3441844973e+00	-2.0912624658e+00
 9.9373876247e-01	 1.3564155870e+00	-2.1062660298e+00
 1.0794832985e+00	 1.2988693111e+00	-2.1062762924e+00
 1.0635001478e+00	 1.3119882296e+00	-2.0997282337e+00
 1.0473679307e+00	 1.3249022970e+00	-2.0920378098e+00
 1.0310905792e+00	 1.3376090223e+00	-2.0865139124e+00
 1.0146720788e+00	 1.3501060149e+00	-2.0880116969e+00
 9.9811646627e-01	 1.3623909860e+00	-2.1026333820e+00
 1.0842178744e+00	 1.3045661063e+00	-2.1050106605e+00
 1.0681646221e+00	 1.3177425640e+00	-2.0977879899e+00
 1.0519616497e+00	 1.3307132720e+00	-2.0895534309e+00
 1.0356129063e+00	 1.3434757285e+00	-2.0835875105e+00
 1.0191223949e+00	 1.3560275325e+00	-2.0847373890e+00
 1.0024941701e+00	 1.3683663851e+00	-2.0991094054e+00
 1.0889524503e+00	 1.3102629015e+00	-2.1019069946e+00
 1.0728290964e+00	 1.3234968983e+00	-2.0943805523e+00
 1.0565553687e+00	 1.3365242470e+00	-2.0859245931e+00
 1.0401352334e+00	 1.3493424348e+00	-2.0798062039e+00
 1.0235727111e+00	 1.3619490501e+00	-2.0808867299e+00
 1.0068718739e+00	 1.3743417841e+00	-2.0953057897e+00
 9.8498335487e-01	 1.3444647888e+00	-2.1154511058e+00
 9.6851430186e-01	 1.3563767268e+00	-2.1258053782e+00
 9.5191804569e-01	 1.3680752216e+00	-2.1149279769e+00
 9.3519870125e-01	 1.3795583231e+00	-2.0923138351e+00
 9.1836042069e-01	 1.3908241857e+00	-2.0676547347e+00
 9.0140739013e-01	 1.4018710692e+00	-2.0505961394e+00
 9.8936105867e-01	 1.3504401879e+00	-2.1104038250e+00
 9.7281880987e-01	 1.3624050678e+00	-2.1208832497e+00
 9.5614879256e-01	 1.3741555560e+00	-2.1103137215e+00
 9.3935513992e-01	 1.3856896935e+00	-2.0881308341e+00
 9.2244202256e-01	 1.3970056265e+00	-2.0639612909e+00
 9.0541364520e-01	 1.4081016073e+00	-2.0473734875e+00
 9.9373876247e-01	 1.3564155870e+00	-2.1062660298e+00
 9.7712331787e-01	 1.3684334088e+00	-2.1166254506e+00
 9.6037953943e-01	 1.3802358903e+00	-2.1061632262e+00
 9.4351157859e-01	 1.3918210638e+00	-2.0842388426e+00
 9.2652362443e-01	 1.4031870673e+00	-2.0603824030e+00
 9.0941990026e-01	 1.4143321454e+00	-2.0440389991e+00
 9.9811646627e-01	 1.3623909860e+00	-2.1026333820e+00
 9.8142782588e-01	 1.3744617498e+00	-2.1127757998e+00
 9.6461028630e-01	 1.3863162246e+00	-2.1022646406e+00
 9.4766801726e-01	 1.3979524341e+00	-2.0803673577e+00
 9.3060522630e-01	 1.4093685082e+00	-2.0564868740e+00
 9.1342615533e-01	 1.4205626835e+00	-2.0398997768e+00
 1.0024941701e+00	 1.3683663851e+00	-2.0991094054e+00
 9.8573233389e-01	 1.3804900908e+00	-2.1090820727e+00
 9.6884103316e-01	 1.3923965589e+00	-2.0984080132e+00
 9.5182445593e-01	 1.4040838044e+00	-2.0762475643e+00
 9.3468682817e-01	 1.4155499490e+00	-2.0518468260e+00
 9.1743241040e-01	 1.4267932216e+00	-2.0342697100e+00
 1.0068718739e+00	 1.3743417841e+00	-2.0953057897e+00
 9.9003684190e-01	 1.3865184318e+00	-2.1052963456e+00
 9.7307178003e-01	 1.3984768932e+00	-2.0943856364e+00
 9.5598089461e-01	 1.4102151748e+00	-2.0716126408e+00
 9.3876843004e-01	 1.4217313898e+00	-2.0460379277e+00
 9.2143866547e-01	 1.4330237597e+00	-2.0264695858e+00
 9.0140739013e-01	 1.4018710692e+00	-2.0505961394e+00
 8.8434382634e-01	 1.4126973401e+00	-2.0355069913e+00
 8.6717397341e-01	 1.4233014711e+00	-2.0130154920e+00
 8.4990209942e-01	 1.4336820426e+00	-1.9862233263e+00
 8.3253249315e-01	 1.4438377421e+00	-1.9570921500e+00
 8.1506946068e-01	 1.4537673652e+00	-1.9262998459e+00
 9.0541364520e-01	 1.4081016073e+00	-2.0473734875e+00
 8.8827424334e-01	 1.4189759949e+00	-2.0315099867e+00
 8.7102807995e-01	 1.4296272554e+00	-2.0064389015e+00
 8.5367944209e-01	 1.4400539628e+00	-1.9761479986e+00
 8.3623263756e-01	 1.4502547988e+00	-1.9434483122e+00
 8.1869199162e-01	 1.4602285535e+00	-1.9098246681e+00
 9.0941990026e-01	 1.4143321454e+00	-2.0440389991e+00
 8.9220466035e-01	 1.4252546497e+00	-2.0272132833e+00
 8.7488218650e-01	 1.4359530397e+00	-1.9997317447e+00
 8.5745678475e-01	 1.4464258829e+00	-1.9667716641e+00
 8.3993278198e-01	 1.4566718554e+00	-1.9323169484e+00
 8.2231452256e-01	 1.4666897418e+00	-1.8990018734e+00
 9.1342615533e-01	 1.4205626835e+00	-2.0398997768e+00
 8.9613507736e-01	 1.4315333046e+00	-2.0217041853e+00
 8.7873629305e-01	 1.4422788240e+00	-1.9919430366e+00
 8.6123412742e-01	 1.4527978031e+00	-1.9572825402e+00
 8.4363292639e-01	 1.4630889120e+00	-1.9231987295e+00
 8.2593705349e-01	 1.4731509300e+00	-1.8938133818e+00
 9.1743241040e-01	 1.4267932216e+00	-2.0342697100e+00
 9.0006549436e-01	 1.4378119594e+00	-2.0140796024e+00
 8.8259039960e-01	 1.4486046084e+00	-1.9821311387e+00
 8.6501147008e-01	 1.4591697233e+00	-1.9468749328e+00
 8.4733307080e-01	 1.4695059687e+00	-1.9155942409e+00
 8.2955958443e-01	 1.4796121183e+00	-1.8942320202e+00
 9.2143866547e-01	 1.4330237597e+00	-2.0264695858e+00
 9.0399591137e-01	 1.4440906143e+00	-2.0034460593e+00
 8.8644450615e-01	 1.4549303927e+00	-1.9693637363e+00
 8.6878881274e-01	 1.4655416435e+00	-1.9347492490e+00
 8.5103321522e-01	 1.4759230253e+00	-1.9090040948e+00
 8.3318211537e-01	 1.4860733066e+00	-1.8948423622e+00
 8.1506946068e-01	 1.4537673652e+00	-1.9262998459e+00
 7.9751732217e-01	 1.4634698147e+00	-1.8845030869e+00
 7.7988040850e-01	 1.4729441015e+00	-1.8360784470e+00
 7.6216305800e-01	 1.4821893438e+00	-1.8003957601e+00
 7.4436961324e-01	 1.4912047668e+00	-1.7649792578e+00
 7.2650441778e-01	 1.4999897029e+00	-1.7263133793e+00
 8.1869199162e-01	 1.4602285535e+00	-1.9098246681e+00
 8.0106184361e-01	 1.4699741250e+00	-1.8700485670e+00
 7.8334654365e-01	 1.4794905198e+00	-1.8322933657e+00
 7.6555044937e-01	 1.4887768520e+00	-1.7995639778e+00
 7.4767792263e-01	 1.4978323436e+00	-1.7526034533e+00
 7.2973332630e-01	 1.5066563238e+00	-1.7074914098e+00
 8.2231452256e-01	 1.4666897418e+00	-1.8990018734e+00
 8.0460636504e-01	 1.4764784353e+00	-1.8658455911e+00
 7.8681267880e-01	 1.4860369380e+00	-1.8381154747e+00
 7.6893784074e-01	 1.4953643602e+00	-1.7933874532e+00
 7.5098623202e-01	 1.5044599203e+00	-1.7390903838e+00
 7.3296223482e-01	 1.5133229447e+00	-1.6910032554e+00
 8.2593705349e-01	 1.4731509300e+00	-1.8938133818e+00
 8.0815088647e-01	 1.4829827456e+00	-1.8716889642e+00
 7.9027881394e-01	 1.4925833562e+00	-1.8363779403e+00
 7.7232523211e-01	 1.5019518684e+00	-1.7831145027e+00
 7.5429454141e-01	 1.5110874971e+00	-1.7253951589e+00
 7.3619114335e-01	 1.5199895656e+00	-1.6772469952e+00
 8.2955958443e-01	 1.4796121183e+00	-1.8942320202e+00
 8.1169540790e-01	 1.4894870559e+00	-1.8722350346e+00
 7.9374494909e-01	 1.4991297744e+00	-1.8271887173e+00
 7.7571262347e-01	 1.5085393766e+00	-1.7699769682e+00
 7.5760285081e-01	 1.5177150738e+00	-1.7124614145e+00
 7.3942005187e-01	 1.5266561865e+00	-1.6666261376e+00
 8.3318211537e-01	 1.4860733066e+00	-1.8948423622e+00
 8.1523992933e-01	 1.4959913662e+00	-1.8615699192e+00
 7.9721108424e-01	 1.5056761927e+00	-1.8118267992e+00
 7.7910001484e-01	 1.5151268847e+00	-1.7551905447e+00
 7.6091116020e-01	 1.5243426506e+00	-1.7012215389e+00
 7.4264896039e-01	 1.5333228074e+00	-1.6594857615e+00
 7.2650441778e-01	 1.4999897029e+00	-1.7263133793e+00
 7.0857181299e-01	 1.5085435902e+00	-1.6899414179e+00
 6.9057613491e-01	 1.5168659729e+00	-1.6456597676e+00
 6.7252171115e-01	 1.5249564996e+00	-1.5944100322e+00
 6.5441285785e-01	 1.5328149234e+00	-1.5370705347e+00
 6.3625387665e-01	 1.5404410999e+00	-1.4745147364e+00
 7.2973332630e-01	 1.5066563238e+00	-1.7074914098e+00
 7.1172102104e-01	 1.5152482284e+00	-1.6699257050e+00
 6.9364536217e-01	 1.5236075994e+00	-1.6278373828e+00
 6.7551069654e-01	 1.5317340841e+00	-1.5805765616e+00
 6.5732135944e-01	 1.5396274341e+00	-1.5274067536e+00
 6.3908167166e-01	 1.5472875048e+00	-1.4675684032e+00
 7.3296223482e-01	 1.5133229447e+00	-1.6910032554e+00
 7.1487022910e-01	 1.5219528666e+00	-1.6534327307e+00
 6.9671458944e-01	 1.5303492260e+00	-1.6131371574e+00
 6.7849968192e-01	 1.5385116685e+00	-1.5684777426e+00
 6.6022986104e-01	 1.5464399449e+00	-1.5177277232e+00
 6.4190946666e-01	 1.5541339097e+00	-1.4591393766e+00
 7.3619114335e-01	 1.5199895656e+00	-1.6772469952e+00
 7.1801943716e-01	 1.5286575048e+00	-1.6403335450e+00
 6.9978381671e-01	 1.5370908525e+00	-1.6011172705e+00
 6.8148866730e-01	 1.5452892530e+00	-1.5575644857e+00
 6.6313836263e-01	 1.5532524557e+00	-1.5075739839e+00
 6.4473726167e-01	 1.5609803146e+00	-1.4490458852e+00
 7.3942005187e-01	 1.5266561865e+00	-1.6666261376e+00
 7.2116864522e-01	 1.5353621429e+00	-1.6305139896e+00
 7.0285304397e-01	 1.5438324791e+00	-1.5913562608e+00
 6.8447765269e-01	 1.5520668374e+00	-1.5473099782e+00
 6.6604686422e-01	 1.5600649664e+00	-1.4965067646e+00
 6.4756505668e-01	 1.5678267194e+00	-1.4371219045e+00
 7.4264896039e-01	 1.5333228074e+00	-1.6594857615e+00
 7.2431785327e-01	 1.5420667811e+00	-1.6238741072e+00
 7.0592227124e-01	 1.5505741056e+00	-1.5834523557e+00
 6.8746663807e-01	 1.5588444219e+00	-1.5372090102e+00
 6.6895536581e-01	 1.5668774772e+00	-1.4841073823e+00
 6.5039285168e-01	 1.5746731243e+00	-1.4232166995e+00
 6.3625387665e-01	 1.5404410999e+00	-1.4745147364e+00
 6.1804905174e-01	 1.5478349871e+00	-1.4187001361e+00
 5.9980264704e-01	 1.5549966439e+00	-1.3762830134e+00
 5.8151890327e-01	 1.5619262284e+00	-1.3403221939e+00
 5.6320203529e-01	 1.5686239974e+00	-1.3040582179e+00
 5.4485622934e-01	 1.5750903044e+00	-1.2609524848e+00
 6.3908167166e-01	 1.5472875048e+00	-1.4675684032e+00
 6.2079593642e-01	 1.5547142537e+00	-1.4116946849e+00
 6.0246843658e-01	 1.5619077400e+00	-1.3669513459e+00
 5.8410343173e-01	 1.5688681227e+00	-1.3275241422e+00
 5.6570515544e-01	 1.5755956596e+00	-1.2878050471e+00
 5.4727781258e-01	 1.5820907058e+00	-1.2424284794e+00
 6.4190946666e-01	 1.5541339097e+00	-1.4591393766e+00
 6.2354282109e-01	 1.5615935204e+00	-1.4026868119e+00
 6.0513422612e-01	 1.5688188362e+00	-1.3560433557e+00
 5.8668796019e-01	 1.5758100171e+00	-1.3141689179e+00
 5.6820827560e-01	 1.5825673218e+00	-1.2722401115e+00
 5.4969939582e-01	 1.5890911071e+00	-1.2256846082e+00
 6.4473726167e-01	 1.5609803146e+00	-1.4490458852e+00
 6.2628970577e-01	 1.5684727870e+00	-1.3917860942e+00
 6.0780001566e-01	 1.5757299324e+00	-1.3438085612e+00
 5.8927248864e-01	 1.5827519114e+00	-1.3004997524e+00
 5.7071139576e-01	 1.5895389840e+00	-1.2574594480e+00
 5.5212097906e-01	 1.5960915085e+00	-1.2105342622e+00
 6.4756505668e-01	 1.5678267194e+00	-1.4371219045e+00
 6.2903659044e-01	 1.5753520536e+00	-1.3791126022e+00
 6.1046580521e-01	 1.5826410286e+00	-1.3305042903e+00
 5.9185701710e-01	 1.5896938058e+00	-1.2867674791e+00
 5.7321451591e-01	 1.5965106462e+00	-1.2435688716e+00
 5.5454256231e-01	 1.6030919098e+00	-1.1968050752e+00
 6.5039285168e-01	 1.5746731243e+00	-1.4232166995e+00
 6.3178347512e-01	 1.5822313202e+00	-1.3647965907e+00
 6.1313159475e-01	 1.5895521248e+00	-1.3163954614e+00
 5.9444154556e-01	 1.5966357001e+00	-1.2732303499e+00
 5.7571763607e-01	 1.6034823085e+00	-1.2306837728e+00
 5.5696414555e-01	 1.6100923112e+00	-1.1843386494e+00
 5.4485622934e-01	 1.5750903044e+00	-1.2609524848e+00
 5.2648564047e-01	 1.5813255984e+00	-1.2079172039e+00
 5.0809438995e-01	 1.5873304220e+00	-1.1486306799e+00
 4.8968656285e-01	 1.5931054102e+00	-1.0870317533e+00
 4.7126620560e-01	 1.5986512882e+00	-1.0272443511e+00
 4.5283732373e-01	 1.6039688700e+00	-9.7356704723e-01
 5.4727781258e-01	 1.5820907058e+00	-1.2424284794e+00
 5.2882557665e-01	 1.5883537122e+00	-1.1891329502e+00
 5.1035258724e-01	 1.5943852239e+00	-1.1310655713e+00
 4.9186294758e-01	 1.6001858787e+00	-1.0713099744e+00
 4.7336072207e-01	 1.6057564050e+00	-1.0131271706e+00
 4.5484993406e-01	 1.6110976206e+00	-9.5994579636e-01
 5.4969939582e-01	 1.5890911071e+00	-1.2256846082e+00
 5.3116551283e-01	 1.5953818259e+00	-1.1726467524e+00
 5.1261078453e-01	 1.6014400258e+00	-1.1157110162e+00
 4.9403933230e-01	 1.6072663472e+00	-1.0573100539e+00
 4.7545523854e-01	 1.6128615219e+00	-1.0000583817e+00
 4.5686254438e-01	 1.6182263711e+00	-9.4674258206e-01
 5.5212097906e-01	 1.5960915085e+00	-1.2105342622e+00
 5.3350544901e-01	 1.6024099397e+00	-1.1579824825e+00
 5.1486898182e-01	 1.6084948276e+00	-1.1019175489e+00
 4.9621571702e-01	 1.6143468156e+00	-1.0443225820e+00
 4.7754975501e-01	 1.6199666387e+00	-9.8737916398e-01
 4.5887515471e-01	 1.6253551216e+00	-9.3345677847e-01
 5.5454256231e-01	 1.6030919098e+00	-1.1968050752e+00
 5.3584538519e-01	 1.6094380535e+00	-1.1446827629e+00
 5.1712717911e-01	 1.6155496295e+00	-1.0890568586e+00
 4.9839210175e-01	 1.6214272841e+00	-1.0316596557e+00
 4.7964427148e-01	 1.6270717555e+00	-9.7445055695e-01
 4.6088776504e-01	 1.6324838722e+00	-9.1960403056e-01
 5.5696414555e-01	 1.6100923112e+00	-1.1843386494e+00
 5.3818532137e-01	 1.6164661673e+00	-1.1323086186e+00
 5.1938537640e-01	 1.6226044314e+00	-1.0765214102e+00
 5.0056848647e-01	 1.6285077526e+00	-1.0186545109e+00
 4.8173878795e-01	 1.6341768724e+00	-9.6065314513e-01
 4.6290037537e-01	 1.6396126227e+00	-9.0471603160e-01
 4.5283732373e-01	 1.6039688700e+00	-9.7356704723e-01
 4.3440387959e-01	 1.6090590565e+00	-9.3443943272e-01
 4.1596979026e-01	 1.6139228332e+00	-9.0607490053e-01
 3.9753892547e-01	 1.6185612687e+00	-8.7483889520e-01
 3.7911510563e-01	 1.6229755126e+00	-8.2748056082e-01
 3.6070209995e-01	 1.6271667932e+00	-7.6237145123e-01
 4.5484993406e-01	 1.6110976206e+00	-9.5994579636e-01
 4.3633456350e-01	 1.6162104300e+00	-9.1978931716e-01
 4.1781854489e-01	 1.6210958235e+00	-8.8982007132e-01
 3.9930576514e-01	 1.6257548743e+00	-8.5757439801e-01
 3.8080006166e-01	 1.6301887371e+00	-8.1096652674e-01
 3.6230522039e-01	 1.6343986456e+00	-7.4591183033e-01
 4.5686254438e-01	 1.6182263711e+00	-9.4674258206e-01
 4.3826524741e-01	 1.6233618036e+00	-9.0523775280e-01
 4.1966729951e-01	 1.6282688139e+00	-8.7368792884e-01
 4.0107260481e-01	 1.6329484800e+00	-8.4067719228e-01
 3.8248501768e-01	 1.6374019616e+00	-7.9515312941e-01
 3.6390834084e-01	 1.6416304980e+00	-7.3118676719e-01
 4.5887515471e-01	 1.6253551216e+00	-9.3345677847e-01
 4.4019593132e-01	 1.6305131772e+00	-8.9044967629e-01
 4.2151605413e-01	 1.6354418043e+00	-8.5741960604e-01
 4.0283944448e-01	 1.6401420856e+00	-8.2387758882e-01
 3.8416997371e-01	 1.6446151861e+00	-7.7967527374e-01
 3.6551146128e-01	 1.6488623504e+00	-7.1761474283e-01
 4.6088776504e-01	 1.6324838722e+00	-9.1960403056e-01
 4.4212661523e-01	 1.6376645508e+00	-8.7510251953e-01
 4.2336480876e-01	 1.6426147946e+00	-8.4076646506e-01
 4.0460628415e-01	 1.6473356912e+00	-8.0691533705e-01
 3.8585492973e-01	 1.6518284106e+00	-7.6417795330e-01
 3.6711458173e-01	 1.6560942028e+00	-7.0462191240e-01
 4.6290037537e-01	 1.6396126227e+00	-9.0471603160e-01
 4.4405729914e-01	 1.6448159244e+00	-8.5888608144e-01
 4.2521356338e-01	 1.6497877850e+00	-8.2349002831e-01
 4.0637312382e-01	 1.6545292969e+00	-7.8953958117e-01
 3.8753988576e-01	 1.6590416351e+00	-7.4831619804e-01
 3.6871770217e-01	 1.6633260553e+00	-6.9164256104e-01
 3.6070209995e-01	 1.6271667932e+00	-7.6237145123e-01
 3.4230362463e-01	 1.6311364156e+00	-7.2061571168e-01
 3.2392334121e-01	 1.6348857596e+00	-6.9236362490e-01
 3.0556485489e-01	 1.6384162772e+00	-6.6934239939e-01
 2.8723171304e-01	 1.6417294908e+00	-6.4433868528e-01
 2.6892740376e-01	 1.6448269907e+00	-6.1104531839e-01
 3.6230522039e-01	 1.6343986456e+00	-7.4591183033e-01
 3.4382497408e-01	 1.6383859108e+00	-7.0237554140e-01
 3.2536300050e-01	 1.6421519185e+00	-6.7356327762e-01
 3.0692292091e-01	 1.6456981273e+00	-6.5079199582e-01
 2.8850829843e-01	 1.6490260663e+00	-6.2640534986e-01
 2.7012263667e-01	 1.6521373329e+00	-5.9362444597e-01
 3.6390834084e-01	 1.6416304980e+00	-7.3118676719e-01
 3.4534632352e-01	 1.6456354060e+00	-6.8616327006e-01
 3.2680265980e-01	 1.6494180774e+00	-6.5676174005e-01
 3.0828098693e-01	 1.6529799774e+00	-6.3400341029e-01
 2.8978488382e-01	 1.6563226418e+00	-6.0990596513e-01
 2.7131786958e-01	 1.6594476750e+00	-5.7733813456e-01
 3.6551146128e-01	 1.6488623504e+00	-7.1761474283e-01
 3.4686767296e-01	 1.6528849012e+00	-6.7124848023e-01
 3.2824231909e-01	 1.6566842363e+00	-6.4115135738e-01
 3.0963905295e-01	 1.6602618275e+00	-6.1816118690e-01
 2.9106146921e-01	 1.6636192173e+00	-5.9408435513e-01
 2.7251310248e-01	 1.6667580172e+00	-5.6155409224e-01
 3.6711458173e-01	 1.6560942028e+00	-7.0462191240e-01
 3.4838902241e-01	 1.6601343963e+00	-6.5690832028e-01
 3.2968197839e-01	 1.6639503953e+00	-6.2593115884e-01
 3.1099711897e-01	 1.6675436776e+00	-6.0245492435e-01
 2.9233805460e-01	 1.6709157928e+00	-5.7818704624e-01
 2.7370833539e-01	 1.6740683594e+00	-5.4563967859e-01
 3.6871770217e-01	 1.6633260553e+00	-6.9164256104e-01
 3.4991037185e-01	 1.6673838915e+00	-6.4242785276e-01
 3.3112163768e-01	 1.6712165542e+00	-6.1030712573e-01
 3.1235518499e-01	 1.6748255278e+00	-5.8607948984e-01
 2.9361463999e-01	 1.6782123683e+00	-5.6146345267e-01
 2.7490356829e-01	 1.6813787016e+00	-5.2896208645e-01
 2.6892740376e-01	 1.6448269907e+00	-6.1104531839e-01
 2.5065535457e-01	 1.6477104330e+00	-5.7224008200e-01
 2.3241893107e-01	 1.6503815372e+00	-5.3566570210e-01
 2.1422143588e-01	 1.6528420839e+00	-5.0340877425e-01
 1.9606610746e-01	 1.6550939125e+00	-4.7795220989e-01
 1.7795611923e-01	 1.6571389192e+00	-4.6210274528e-01
 2.7012263667e-01	 1.6521373329e+00	-5.9362444597e-01
 2.5176937837e-01	 1.6550335905e+00	-5.5493863339e-01
 2.3345190410e-01	 1.6577165662e+00	-5.1823764505e-01
 2.1517353115e-01	 1.6601880487e+00	-4.8575926531e-01
 1.9693751239e-01	 1.6624498855e+00	-4.6012617656e-01
 1.7874703532e-01	 1.6645039810e+00	-4.4427851374e-01
 2.7131786958e-01	 1.6594476750e+00	-5.7733813456e-01
 2.5288340216e-01	 1.6623567480e+00	-5.3860769781e-01
 2.3448487713e-01	 1.6650515953e+00	-5.0174760606e-01
 2.1612562642e-01	 1.6675340135e+00	-4.6909729237e-01
 1.9780891731e-01	 1.6698058584e+00	-4.4336394502e-01
 1.7953795140e-01	 1.6718690429e+00	-4.2756056938e-01
 2.7251310248e-01	 1.6667580172e+00	-5.6155409224e-01
 2.5399742596e-01	 1.6696799054e+00	-5.2275263089e-01
 2.3551785015e-01	 1.6723866243e+00	-4.8580310062e-01
 2.1707772169e-01	 1.6748799783e+00	-4.5309684305e-01
 1.9868032223e-01	 1.6771618314e+00	-4.2737006356e-01
 1.8032886749e-01	 1.6792341048e+00	-4.1164786779e-01
 2.7370833539e-01	 1.6740683594e+00	-5.4563967859e-01
 2.5511144976e-01	 1.6770030629e+00	-5.0687555657e-01
 2.3655082318e-01	 1.6797216534e+00	-4.7000653277e-01
 2.1802981696e-01	 1.6822259431e+00	-4.3742589417e-01
 1.9955172715e-01	 1.6845178043e+00	-4.1184312583e-01
 1.8111978358e-01	 1.6865991666e+00	-3.9623439545e-01
 2.7490356829e-01	 1.6813787016e+00	-5.2896208645e-01
 2.5622547356e-01	 1.6843262204e+00	-4.9047555070e-01
 2.3758379621e-01	 1.6870566824e+00	-4.5395536782e-01
 2.1898191223e-01	 1.6895719079e+00	-4.2174656078e-01
 2.0042313208e-01	 1.6918737772e+00	-3.9647588375e-01
 1.8191069966e-01	 1.6939642285e+00	-3.8100923387e-01
 1.7795611923e-01	 1.6571389192e+00	-4.6210274528e-01
 1.5989457858e-01	 1.6589790540e+00	-4.5189445786e-01
 1.4188452608e-01	 1.6606163190e+00	-4.4105329791e-01
 1.2392893479e-01	 1.6620527660e+00	-4.2928942865e-01
 1.0603070955e-01	 1.6632904937e+00	-4.1650144720e-01
 8.8192686475e-02	 1.6643316460e+00	-4.0274733033e-01
 1.7874703532e-01	 1.6645039810e+00	-4.4427851374e-01
 1.6060522115e-01	 1.6663522942e+00	-4.3424810345e-01
 1.4251512398e-01	 1.6679968360e+00	-4.2362397083e-01
 1.2447973006e-01	 1.6694396672e+00	-4.1205426369e-01
 1.0650195715e-01	 1.6706828959e+00	-3.9939126964e-01
 8.8584653970e-02	 1.6717286755e+00	-3.8566818661e-01
 1.7953795140e-01	 1.6718690429e+00	-4.2756056938e-01
 1.6131586372e-01	 1.6737255345e+00	-4.1766698252e-01
 1.4314572187e-01	 1.6753773530e+00	-4.0715141490e-01
 1.2503052532e-01	 1.6768265683e+00	-3.9563565311e-01
 1.0697320475e-01	 1.6780752981e+00	-3.8296277344e-01
 8.8976621466e-02	 1.6791257051e+00	-3.6917984753e-01
 1.8032886749e-01	 1.6792341048e+00	-4.1164786779e-01
 1.6202650629e-01	 1.6810987747e+00	-4.0184043587e-01
 1.4377631976e-01	 1.6827578700e+00	-3.9134238193e-01
 1.2558132059e-01	 1.6842134695e+00	-3.7978287915e-01
 1.0744445235e-01	 1.6854677003e+00	-3.6703095184e-01
 8.9368588961e-02	 1.6865227346e+00	-3.5318423506e-01
 1.8111978358e-01	 1.6865991666e+00	-3.9623439545e-01
 1.6273714886e-01	 1.6884720149e+00	-3.8645415660e-01
 1.4440691766e-01	 1.6901383869e+00	-3.7590105737e-01
 1.2613211585e-01	 1.6916003707e+00	-3.6424349769e-01
 1.0791569995e-01	 1.6928601025e+00	-3.5140966867e-01
 8.9760556456e-02	 1.6939197641e+00	-3.3758249363e-01
 1.8191069966e-01	 1.6939642285e+00	-3.8100923387e-01
 1.6344779144e-01	 1.6958452552e+00	-3.7119020543e-01
 1.4503751555e-01	 1.6975189039e+00	-3.6052903902e-01
 1.2668291112e-01	 1.6989872719e+00	-3.4876329183e-01
 1.0838694754e-01	 1.7002525047e+00	-3.3591159786e-01
 9.0152523952e-02	 1.7013167937e+00	-3.2227492613e-01
 8.8192686475e-02	 1.6643316460e+00	-4.0274733033e-01
 7.0417632418e-02	 1.6651784093e+00	-3.8858618974e-01
 5.2708244609e-02	 1.6658330105e+00	-3.7668620518e-01
 3.5067150308e-02	 1.6662977143e+00	-3.7037115008e-01
 1.7496906555e-02	 1.6665748216e+00	-3.7293433871e-01
 0.0000000000e+00	 1.6666666667e+00	-3.8759842296e-01
 8.8584653970e-02	 1.6717286755e+00	-3.8566818661e-01
 7.0730599673e-02	 1.6725792022e+00	-3.7140631988e-01
 5.2942503474e-02	 1.6732367127e+00	-3.5931816747e-01
 3.5223004309e-02	 1.6737034819e+00	-3.5287711054e-01
 1.7574670585e-02	 1.6739818208e+00	-3.5557176441e-01
 0.0000000000e+00	 1.6740740741e+00	-3.7086981272e-01
 8.8976621466e-02	 1.6791257051e+00	-3.6917984753e-01
 7.1043566928e-02	 1.6799799952e+00	-3.5480625167e-01
 5.3176762339e-02	 1.6806404150e+00	-3.4257514332e-01
 3.5378858311e-02	 1.6811092496e+00	-3.3605838331e-01
 1.7652434614e-02	 1.6813888200e+00	-3.3888679944e-01
 0.0000000000e+00	 1.6814814815e+00	-3.5471844038e-01
 8.9368588961e-02	 1.6865227346e+00	-3.5318423506e-01
 7.1356534183e-02	 1.6873807881e+00	-3.3876564798e-01
 5.3411021204e-02	 1.6880441173e+00	-3.2647588578e-01
 3.5534712312e-02	 1.6885150172e+00	-3.1993362424e-01
 1.7730198643e-02	 1.6887958192e+00	-3.2285831591e-01
 0.0000000000e+00	 1.6888888889e+00	-3.3904325109e-01
 8.9760556456e-02	 1.6939197641e+00	-3.3758249363e-01
 7.1669501439e-02	 1.6947815810e+00	-3.2326399520e-01
 5.3645280069e-02	 1.6954478195e+00	-3.1104029954e-01
 3.5690566313e-02	 1.6959207848e+00	-3.0452466825e-01
 1.7807962672e-02	 1.6962028184e+00	-3.0747106361e-01
 0.0000000000e+00	 1.6962962963e+00	-3.2375240908e-01
 9.0152523952e-02	 1.7013167937e+00	-3.2227492613e-01
 7.1982468694e-02	 1.7021823740e+00	-3.0828053526e-01
 5.3879538934e-02	 1.7028515218e+00	-2.9628935715e-01
 3.5846420315e-02	 1.7033265524e+00	-2.8985641815e-01
 1.7885726701e-02	 1.7036098177e+00	-2.9271551994e-01
 0.0000000000e+00	 1.7037037037e+00	-3.0876309717e-01
 1.7037037037e+00	 0.0000000000e+00	 3.4324353795e+00
 1.7036098177e+00	 1.7885726701e-02	 3.4292021993e+00
 1.7033265524e+00	 3.5846420315e-02	 3.4229907067e+00
 1.7028515218e+00	 5.3879538934e-02	 3.4137533158e+00
 1.7021823740e+00	 7.1982468694e-02	 3.4012780686e+00
 1.7013167937e+00	 9.0152523952e-02	 3.3851869596e+00
 1.7111111111e+00	 0.0000000000e+00	 3.4172220674e+00
 1.7110168169e+00	 1.7963490730e-02	 3.4143000805e+00
 1.7107323200e+00	 3.6002274316e-02	 3.4081196003e+00
 1.7102552241e+00	 5.4113797799e-02	 3.3987257369e+00
 1.7095831669e+00	 7.2295435949e-02	 3.3860418095e+00
 1.7087138232e+00	 9.0544491447e-02	 3.3698619548e+00
 1.7185185185e+00	 0.0000000000e+00	 3.4020039169e+00
 1.7184238161e+00	 1.8041254759e-02	 3.3993179003e+00
 1.7181380877e+00	 3.6158128317e-02	 3.3931980917e+00
 1.7176589263e+00	 5.4348056664e-02	 3.3837387574e+00
 1.7169839598e+00	 7.2608403204e-02	 3.3709560091e+00
 1.7161108527e+00	 9.0936458943e-02	 3.3547745712e+00
 1.7259259259e+00	 0.0000000000e+00	 3.3867810161e+00
 1.7258308153e+00	 1.8119018788e-02	 3.3842447554e+00
 1.7255438553e+00	 3.6313982319e-02	 3.3781980622e+00
 1.7250626286e+00	 5.4582315529e-02	 3.3687426362e+00
 1.7243847527e+00	 7.2921370459e-02	 3.3559467645e+00
 1.7235078823e+00	 9.1328426438e-02	 3.3398261159e+00
 1.7333333333e+00	 0.0000000000e+00	 3.3715533376e+00
 1.7332378145e+00	 1.8196782818e-02	 3.3690700727e+00
 1.7329496229e+00	 3.6469836320e-02	 3.3630920479e+00
 1.7324663309e+00	 5.4816574394e-02	 3.3536884930e+00
 1.7317855457e+00	 7.3234337715e-02	 3.3409411237e+00
 1.7309049118e+00	 9.1720393934e-02	 3.3249188246e+00
 1.7407407407e+00	 0.0000000000e+00	 3.3563207414e+00
 1.7406448137e+00	 1.8274546847e-02	 3.3537836043e+00
 1.7403553905e+00	 3.6625690321e-02	 3.3478532277e+00
 1.7398700331e+00	 5.5050833259e-02	 3.3385282911e+00
 1.7391863386e+00	 7.3547304970e-02	 3.3258670653e+00
 1.7383019414e+00	 9.2112361429e-02	 3.3099558398e+00
 1.7013167937e+00	 9.0152523952e-02	 3.3851869596e+00
 1.7002525047e+00	 1.0838694754e-01	 3.3635431331e+00
 1.6989872719e+00	 1.2668291112e-01	 3.3358229579e+00
 1.6975189039e+00	 1.4503751555e-01	 3.3035106321e+00
 1.6958452552e+00	 1.6344779144e-01	 3.2679040822e+00
 1.6939642285e+00	 1.8191069966e-01	 3.2300995212e+00
 1.7087138232e+00	 9.0544491447e-02	 3.3698619548e+00
 1.7076449069e+00	 1.0885819514e-01	 3.3483547506e+00
 1.7063741731e+00	 1.2723370639e-01	 3.3208848506e+00
 1.7048994209e+00	 1.4566811345e-01	 3.2888177616e+00
 1.7032184954e+00	 1.6415843401e-01	 3.2533417076e+00
 1.7013292903e+00	 1.8270161575e-01	 3.2154449243e+00
 1.7161108527e+00	 9.0936458943e-02	 3.3547745712e+00
 1.7150373091e+00	 1.0932944274e-01	 3.3334556325e+00
 1.7137610743e+00	 1.2778450165e-01	 3.3062775214e+00
 1.7122799378e+00	 1.4629871134e-01	 3.2745033582e+00
 1.7105917357e+00	 1.6486907658e-01	 3.2392276286e+00
 1.7086943522e+00	 1.8349253183e-01	 3.2013459046e+00
 1.7235078823e+00	 9.1328426438e-02	 3.3398261159e+00
 1.7224297112e+00	 1.0980069034e-01	 3.3187172620e+00
 1.7211479754e+00	 1.2833529692e-01	 3.2918327011e+00
 1.7196604548e+00	 1.4692930923e-01	 3.2603506963e+00
 1.7179649759e+00	 1.6557971915e-01	 3.2252892022e+00
 1.7160594141e+00	 1.8428344792e-01	 3.1874676936e+00
 1.7309049118e+00	 9.1720393934e-02	 3.3249188246e+00
 1.7298221134e+00	 1.1027193794e-01	 3.3040120275e+00
 1.7285348766e+00	 1.2888609218e-01	 3.2773831229e+00
 1.7270409718e+00	 1.4755990713e-01	 3.2461442878e+00
 1.7253382161e+00	 1.6629036172e-01	 3.2112554116e+00
 1.7234244759e+00	 1.8507436400e-01	 3.1734777084e+00
 1.7383019414e+00	 9.2112361429e-02	 3.3099558398e+00
 1.7372145156e+00	 1.1074318553e-01	 3.2892132011e+00
 1.7359217778e+00	 1.2943688745e-01	 3.2627624989e+00
 1.7344214888e+00	 1.4819050502e-01	 3.2316698543e+00
 1.7327114564e+00	 1.6700100429e-01	 3.1968568338e+00
 1.7307895378e+00	 1.8586528009e-01	 3.1590455138e+00
 1.6939642285e+00	 1.8191069966e-01	 3.2300995212e+00
 1.6918737772e+00	 2.0042313208e-01	 3.1918672915e+00
 1.6895719079e+00	 2.1898191223e-01	 3.1522545539e+00
 1.6870566824e+00	 2.3758379621e-01	 3.1079307115e+00
 1.6843262204e+00	 2.5622547356e-01	 3.0553422161e+00
 1.6813787016e+00	 2.7490356829e-01	 2.9907530923e+00
 1.7013292903e+00	 1.8270161575e-01	 3.2154449243e+00
 1.6992297502e+00	 2.0129453700e-01	 3.1769055866e+00
 1.6969178728e+00	 2.1993400750e-01	 3.1369806069e+00
 1.6943917115e+00	 2.3861676923e-01	 3.0925133360e+00
 1.6916493779e+00	 2.5733949736e-01	 3.0400938799e+00
 1.6886890438e+00	 2.7609880120e-01	 2.9760915120e+00
 1.7086943522e+00	 1.8349253183e-01	 3.2013459046e+00
 1.7065857231e+00	 2.0216594192e-01	 3.1626326950e+00
 1.7042638376e+00	 2.2088610277e-01	 3.1225207356e+00
 1.7017267406e+00	 2.3964974226e-01	 3.0780078080e+00
 1.6989725354e+00	 2.5845352115e-01	 3.0258072864e+00
 1.6959993859e+00	 2.7729403410e-01	 2.9623721930e+00
 1.7160594141e+00	 1.8428344792e-01	 3.1874676936e+00
 1.7139416961e+00	 2.0303734684e-01	 3.1486532603e+00
 1.7116098024e+00	 2.2183819804e-01	 3.1084285792e+00
 1.7090617696e+00	 2.4068271529e-01	 3.0639280397e+00
 1.7062956928e+00	 2.5956754495e-01	 3.0119695623e+00
 1.7033097281e+00	 2.7848926701e-01	 2.9490700445e+00
 1.7234244759e+00	 1.8507436400e-01	 3.1734777084e+00
 1.7212976690e+00	 2.0390875176e-01	 3.1345747467e+00
 1.7189557672e+00	 2.2279029331e-01	 3.0942612100e+00
 1.7163967987e+00	 2.4171568832e-01	 3.0497919723e+00
 1.7136188503e+00	 2.6068156875e-01	 2.9980724504e+00
 1.7106200703e+00	 2.7968449992e-01	 2.9356651780e+00
 1.7307895378e+00	 1.8586528009e-01	 3.1590455138e+00
 1.7286536420e+00	 2.0478015669e-01	 3.1200073983e+00
 1.7263017320e+00	 2.2374238858e-01	 3.0795790922e+00
 1.7237318277e+00	 2.4274866134e-01	 3.0351215404e+00
 1.7209420078e+00	 2.6179559255e-01	 2.9836122850e+00
 1.7179304125e+00	 2.8087973282e-01	 2.9216428983e+00
 1.6813787016e+00	 2.7490356829e-01	 2.9907530923e+00
 1.6782123683e+00	 2.9361463999e-01	 2.9166322213e+00
 1.6748255278e+00	 3.1235518499e-01	 2.8404779967e+00
 1.6712165542e+00	 3.3112163768e-01	 2.7660812885e+00
 1.6673838915e+00	 3.4991037185e-01	 2.6974488531e+00
 1.6633260553e+00	 3.6871770217e-01	 2.6389565063e+00
 1.6886890438e+00	 2.7609880120e-01	 2.9760915120e+00
 1.6855089438e+00	 2.9489122538e-01	 2.9027732982e+00
 1.6821073779e+00	 3.1371325102e-01	 2.8272714255e+00
 1.6784827131e+00	 3.3256129698e-01	 2.7531591841e+00
 1.6746333867e+00	 3.5143172129e-01	 2.6841641226e+00
 1.6705579077e+00	 3.7032082261e-01	 2.6243159511e+00
 1.6959993859e+00	 2.7729403410e-01	 2.9623721930e+00
 1.6928055194e+00	 2.9616781077e-01	 2.8897790504e+00
 1.6893892280e+00	 3.1507131704e-01	 2.8148359586e+00
 1.6857488721e+00	 3.3400095627e-01	 2.7409198725e+00
 1.6818828819e+00	 3.5295307073e-01	 2.6714966983e+00
 1.6777897601e+00	 3.7192394306e-01	 2.6102843821e+00
 1.7033097281e+00	 2.7848926701e-01	 2.9490700445e+00
 1.7001020949e+00	 2.9744439617e-01	 2.8771190563e+00
 1.6966710781e+00	 3.1642938306e-01	 2.8026345318e+00
 1.6930150310e+00	 3.3544061556e-01	 2.7288191086e+00
 1.6891323771e+00	 3.5447442018e-01	 2.6588953308e+00
 1.6850216125e+00	 3.7352706350e-01	 2.5963323587e+00
 1.7106200703e+00	 2.7968449992e-01	 2.9356651780e+00
 1.7073986704e+00	 2.9872098156e-01	 2.8642688469e+00
 1.7039529282e+00	 3.1778744908e-01	 2.7901371177e+00
 1.7002811899e+00	 3.3688027486e-01	 2.7163211203e+00
 1.6963818722e+00	 3.5599576962e-01	 2.6458190470e+00
 1.6922534649e+00	 3.7513018395e-01	 2.5819225825e+00
 1.7179304125e+00	 2.8087973282e-01	 2.9216428983e+00
 1.7146952459e+00	 2.9999756695e-01	 2.8507099132e+00
 1.7112347784e+00	 3.1914551510e-01	 2.7768207506e+00
 1.7075473489e+00	 3.3831993415e-01	 2.7028986500e+00
 1.7036313674e+00	 3.5751711906e-01	 2.6317372069e+00
 1.6994853173e+00	 3.7673330439e-01	 2.5665309363e+00
 1.6633260553e+00	 3.6871770217e-01	 2.6389565063e+00
 1.6590416351e+00	 3.8753988576e-01	 2.5736079099e+00
 1.6545292969e+00	 4.0637312382e-01	 2.4871781639e+00
 1.6497877850e+00	 4.2521356338e-01	 2.3874920152e+00
 1.6448159244e+00	 4.4405729914e-01	 2.2825862089e+00
 1.6396126227e+00	 4.6290037537e-01	 2.1807411922e+00
 1.6705579077e+00	 3.7032082261e-01	 2.6243159511e+00
 1.6662548596e+00	 3.8922484178e-01	 2.5580144039e+00
 1.6617229025e+00	 4.0813996349e-01	 2.4715983252e+00
 1.6569607754e+00	 4.2706231800e-01	 2.3724494308e+00
 1.6519672980e+00	 4.4598798304e-01	 2.2681707191e+00
 1.6467413732e+00	 4.6491298569e-01	 2.1665999330e+00
 1.6777897601e+00	 3.7192394306e-01	 2.6102843821e+00
 1.6734680841e+00	 3.9090979781e-01	 2.5431896239e+00
 1.6689165082e+00	 4.0990680316e-01	 2.4569594611e+00
 1.6641337657e+00	 4.2891107263e-01	 2.3584770872e+00
 1.6591186715e+00	 4.4791866695e-01	 2.2548369458e+00
 1.6538701238e+00	 4.6692559602e-01	 2.1533615172e+00
 1.6850216125e+00	 3.7352706350e-01	 2.5963323587e+00
 1.6806813086e+00	 3.9259475383e-01	 2.5285973034e+00
 1.6761101138e+00	 4.1167364282e-01	 2.4427616604e+00
 1.6713067561e+00	 4.3075982725e-01	 2.3451338954e+00
 1.6662700451e+00	 4.4984935086e-01	 2.2422256515e+00
 1.6609988743e+00	 4.6893820635e-01	 2.1407721573e+00
 1.6922534649e+00	 3.7513018395e-01	 2.5819225825e+00
 1.6878945331e+00	 3.9427970986e-01	 2.5137151186e+00
 1.6833037194e+00	 4.1344048249e-01	 2.4285190938e+00
 1.6784797465e+00	 4.3260858187e-01	 2.3319925591e+00
 1.6734214187e+00	 4.5178003477e-01	 2.2299906578e+00
 1.6681276248e+00	 4.7095081668e-01	 2.1285899287e+00
 1.6994853173e+00	 3.7673330439e-01	 2.5665309363e+00
 1.6951077576e+00	 3.9596466588e-01	 2.4980344744e+00
 1.6904973251e+00	 4.1520732216e-01	 2.4137597856e+00
 1.6856527368e+00	 4.3445733650e-01	 2.3186393407e+00
 1.6805727923e+00	 4.5371071868e-01	 2.2177986104e+00
 1.6752563754e+00	 4.7296342700e-01	 2.1165845414e+00
 1.6396126227e+00	 4.6290037537e-01	 2.1807411922e+00
 1.6341768724e+00	 4.8173878795e-01	 2.0847643829e+00
 1.6285077526e+00	 5.0056848647e-01	 1.9903796409e+00
 1.6226044314e+00	 5.1938537640e-01	 1.8956728251e+00
 1.6164661673e+00	 5.3818532137e-01	 1.7990657883e+00
 1.6100923112e+00	 5.5696414555e-01	 1.6993249378e+00
 1.6467413732e+00	 4.6491298569e-01	 2.1665999330e+00
 1.6412819892e+00	 4.8383330442e-01	 2.0708649227e+00
 1.6355882211e+00	 5.0274487120e-01	 1.9771366692e+00
 1.6296592333e+00	 5.2164357369e-01	 1.8832509177e+00
 1.6234942810e+00	 5.4052525755e-01	 1.7873912816e+00
 1.6170927126e+00	 5.5938572879e-01	 1.6880999720e+00
 1.6538701238e+00	 4.6692559602e-01	 2.1533615172e+00
 1.6483871060e+00	 4.8592782089e-01	 2.0574828801e+00
 1.6426686896e+00	 5.0492125592e-01	 1.9639441406e+00
 1.6367140352e+00	 5.2390177097e-01	 1.8704706224e+00
 1.6305223948e+00	 5.4286519373e-01	 1.7751452698e+00
 1.6240931139e+00	 5.6180731203e-01	 1.6764212351e+00
 1.6609988743e+00	 4.6893820635e-01	 2.1407721573e+00
 1.6554922229e+00	 4.8802233736e-01	 2.0444657029e+00
 1.6497491581e+00	 5.0709764064e-01	 1.9507168096e+00
 1.6437688370e+00	 5.2615996826e-01	 1.8572778299e+00
 1.6375505086e+00	 5.4520512991e-01	 1.7622664138e+00
 1.6310935153e+00	 5.6422889527e-01	 1.6641796466e+00
 1.6681276248e+00	 4.7095081668e-01	 2.1285899287e+00
 1.6625973397e+00	 4.9011685383e-01	 2.0316715102e+00
 1.6568296266e+00	 5.0927402537e-01	 1.9373794189e+00
 1.6508236389e+00	 5.2841816555e-01	 1.8436282774e+00
 1.6445786223e+00	 5.4754506609e-01	 1.7487036541e+00
 1.6380939166e+00	 5.6665047851e-01	 1.6512774477e+00
 1.6752563754e+00	 4.7296342700e-01	 2.1165845414e+00
 1.6697024566e+00	 4.9221137030e-01	 2.0189688704e+00
 1.6639100951e+00	 5.1145041009e-01	 1.9238664690e+00
 1.6578784408e+00	 5.3067636284e-01	 1.8294872955e+00
 1.6516067361e+00	 5.4988500227e-01	 1.7344159207e+00
 1.6450943180e+00	 5.6907206175e-01	 1.6376278579e+00
 1.6100923112e+00	 5.5696414555e-01	 1.6993249378e+00
 1.6034823085e+00	 5.7571763607e-01	 1.5922515295e+00
 1.5966357001e+00	 5.9444154556e-01	 1.4777563544e+00
 1.5895521248e+00	 6.1313159475e-01	 1.3612426849e+00
 1.5822313202e+00	 6.3178347512e-01	 1.2483660099e+00
 1.5746731243e+00	 6.5039285168e-01	 1.1449870283e+00
 1.6170927126e+00	 5.5938572879e-01	 1.6880999720e+00
 1.6104539707e+00	 5.7822075623e-01	 1.5806855538e+00
 1.6035775945e+00	 5.9702607402e-01	 1.4650762425e+00
 1.5964632210e+00	 6.1579738429e-01	 1.3472262353e+00
 1.5891105868e+00	 6.3453035979e-01	 1.2333386314e+00
 1.5815195292e+00	 6.5322064669e-01	 1.1298168966e+00
 1.6240931139e+00	 5.6180731203e-01	 1.6764212351e+00
 1.6174256329e+00	 5.8072387638e-01	 1.5691054701e+00
 1.6105194888e+00	 5.9961060248e-01	 1.4529117249e+00
 1.6033743172e+00	 6.1846317383e-01	 1.3341476497e+00
 1.5959898534e+00	 6.3727724447e-01	 1.2193720397e+00
 1.5883659341e+00	 6.5604844170e-01	 1.1153452723e+00
 1.6310935153e+00	 5.6422889527e-01	 1.6641796466e+00
 1.6243972951e+00	 5.8322699654e-01	 1.5573571881e+00
 1.6174613832e+00	 6.0219513094e-01	 1.4411127409e+00
 1.6102854134e+00	 6.2112896337e-01	 1.3219124278e+00
 1.6028691200e+00	 6.4002412914e-01	 1.2064813112e+00
 1.5952123390e+00	 6.5887623671e-01	 1.1017533018e+00
 1.6380939166e+00	 5.6665047851e-01	 1.6512774477e+00
 1.6313689573e+00	 5.8573011670e-01	 1.5452988485e+00
 1.6244032775e+00	 6.0477965940e-01	 1.4295414455e+00
 1.6171965096e+00	 6.2379475292e-01	 1.3104373027e+00
 1.6097483866e+00	 6.4277101381e-01	 1.1946907653e+00
 1.6020587439e+00	 6.6170403171e-01	 1.0892283355e+00
 1.6450943180e+00	 5.6907206175e-01	 1.6376278579e+00
 1.6383406195e+00	 5.8823323685e-01	 1.5328004270e+00
 1.6313451719e+00	 6.0736418786e-01	 1.4180717782e+00
 1.6241076058e+00	 6.2646054246e-01	 1.2996497926e+00
 1.6166276532e+00	 6.4551789849e-01	 1.1840335181e+00
 1.6089051488e+00	 6.6453182672e-01	 1.0779635044e+00
 1.5746731243e+00	 6.5039285168e-01	 1.1449870283e+00
 1.5668774772e+00	 6.6895536581e-01	 1.0430074971e+00
 1.5588444219e+00	 6.8746663807e-01	 9.3218007049e-01
 1.5505741056e+00	 7.0592227124e-01	 8.1535925201e-01
 1.5420667811e+00	 7.2431785327e-01	 6.9546500107e-01
 1.5333228074e+00	 7.4264896039e-01	 5.7530062078e-01
 1.5815195292e+00	 6.5322064669e-01	 1.1298168966e+00
 1.5736899880e+00	 6.7186386740e-01	 1.0294871457e+00
 1.5656220063e+00	 6.9045562345e-01	 9.2183897794e-01
 1.5573157322e+00	 7.0899149850e-01	 8.0851072611e-01
 1.5487714193e+00	 7.2746706133e-01	 6.9124335057e-01
 1.5399894283e+00	 7.4587786892e-01	 5.7114362188e-01
 1.5883659341e+00	 6.5604844170e-01	 1.1153452723e+00
 1.5805024987e+00	 6.7477236899e-01	 1.0159098088e+00
 1.5723995907e+00	 6.9344460884e-01	 9.1067969968e-01
 1.5640573587e+00	 7.1206072577e-01	 8.0033431545e-01
 1.5554760575e+00	 7.3061626939e-01	 6.8568551732e-01
 1.5466560492e+00	 7.4910677744e-01	 5.6595660662e-01
 1.5952123390e+00	 6.5887623671e-01	 1.1017533018e+00
 1.5873150095e+00	 6.7768087058e-01	 1.0026141783e+00
 1.5791771752e+00	 6.9643359422e-01	 8.9912096621e-01
 1.5707989852e+00	 7.1512995304e-01	 7.9124786958e-01
 1.5621806957e+00	 7.3376547745e-01	 6.7912423180e-01
 1.5533226701e+00	 7.5233568596e-01	 5.5996753756e-01
 1.6020587439e+00	 6.6170403171e-01	 1.0892283355e+00
 1.5941275203e+00	 6.8058937217e-01	 9.8994217862e-01
 1.5859547596e+00	 6.9942257960e-01	 8.8758301963e-01
 1.5775406118e+00	 7.1819918030e-01	 7.8167034367e-01
 1.5688853338e+00	 7.3691468550e-01	 6.7189430240e-01
 1.5599892910e+00	 7.5556459449e-01	 5.5339704174e-01
 1.6089051488e+00	 6.6453182672e-01	 1.0779635044e+00
 1.6009400311e+00	 6.8349787376e-01	 9.7823856165e-01
 1.5927323441e+00	 7.0241156498e-01	 8.7648719912e-01
 1.5842822383e+00	 7.2126840757e-01	 7.7202134454e-01
 1.5755899720e+00	 7.4006389356e-01	 6.6433209107e-01
 1.5666559119e+00	 7.5879350301e-01	 5.4645850310e-01
 1.5333228074e+00	 7.4264896039e-01	 5.7530062078e-01
 1.5243426506e+00	 7.6091116020e-01	 4.6125208161e-01
 1.5151268847e+00	 7.7910001484e-01	 3.5679335214e-01
 1.5056761927e+00	 7.9721108424e-01	 2.5534263543e-01
 1.4959913662e+00	 8.1523992933e-01	 1.5034005043e-01
 1.4860733066e+00	 8.3318211537e-01	 3.5208836523e-02
 1.5399894283e+00	 7.4587786892e-01	 5.7114362188e-01
 1.5309702273e+00	 7.6421946959e-01	 4.5250562945e-01
 1.5217143929e+00	 7.8248740621e-01	 3.4315210415e-01
 1.5122226109e+00	 8.0067721939e-01	 2.3871772189e-01
 1.5024956765e+00	 8.1878445077e-01	 1.3478268176e-01
 1.4925344949e+00	 8.3680464630e-01	 2.6827140674e-02
 1.5466560492e+00	 7.4910677744e-01	 5.6595660662e-01
 1.5375978040e+00	 7.6752777898e-01	 4.4405590846e-01
 1.5283019011e+00	 7.8587479758e-01	 3.3077411686e-01
 1.5187690291e+00	 8.0414335454e-01	 2.2359443268e-01
 1.5089999867e+00	 8.2232897220e-01	 1.1988465542e-01
 1.4989956832e+00	 8.4042717724e-01	 1.6845813528e-02
 1.5533226701e+00	 7.5233568596e-01	 5.5996753756e-01
 1.5442253808e+00	 7.7083608838e-01	 4.3594764771e-01
 1.5348894093e+00	 7.8926218895e-01	 3.1965293850e-01
 1.5253154474e+00	 8.0760948969e-01	 2.1005213653e-01
 1.5155042970e+00	 8.2587349363e-01	 1.0595299089e-01
 1.5054568715e+00	 8.4404970818e-01	 5.9460573836e-03
 1.5599892910e+00	 7.5556459449e-01	 5.5339704174e-01
 1.5508529575e+00	 7.7414439777e-01	 4.2822129950e-01
 1.5414769175e+00	 7.9264958032e-01	 3.0977863630e-01
 1.5318618656e+00	 8.1107562484e-01	 1.9816516818e-01
 1.5220086073e+00	 8.2941801506e-01	 9.3285688436e-02
 1.5119180598e+00	 8.4767223911e-01	-5.2064429223e-03
 1.5666559119e+00	 7.5879350301e-01	 5.4645850310e-01
 1.5574805343e+00	 7.7745270716e-01	 4.2091306974e-01
 1.5480644257e+00	 7.9603697169e-01	 3.0113781244e-01
 1.5384082838e+00	 8.1454175999e-01	 1.8800287943e-01
 1.5285129176e+00	 8.3296253649e-01	 8.2171866567e-02
 1.5183792481e+00	 8.5129477005e-01	-1.5961243506e-02
 1.4860733066e+00	 8.3318211537e-01	 3.5208836523e-02
 1.4759230253e+00	 8.5103321522e-01	-9.2556257029e-02
 1.4655416435e+00	 8.6878881274e-01	-2.0796451621e-01
 1.4549303927e+00	 8.8644450615e-01	-3.1281457047e-01
 1.4440906143e+00	 9.0399591137e-01	-4.1463904219e-01
 1.4330237597e+00	 9.2143866547e-01	-5.2203014392e-01
 1.4925344949e+00	 8.3680464630e-01	 2.6827140674e-02
 1.4823400819e+00	 8.5473335963e-01	-9.3811848014e-02
 1.4719135637e+00	 8.7256615541e-01	-2.1644169489e-01
 1.4612561770e+00	 8.9029861270e-01	-3.2356316409e-01
 1.4503692691e+00	 9.0792632837e-01	-4.2435211469e-01
 1.4392542978e+00	 9.2544492053e-01	-5.2916640520e-01
 1.4989956832e+00	 8.4042717724e-01	 1.6845813528e-02
 1.4887571386e+00	 8.5843350405e-01	-9.3737210559e-02
 1.4782854839e+00	 8.7634349807e-01	-2.1774636957e-01
 1.4675819613e+00	 8.9415271925e-01	-3.3097699177e-01
 1.4566479240e+00	 9.1185674538e-01	-4.3366205909e-01
 1.4454848358e+00	 9.2945117560e-01	-5.3750195424e-01
 1.5054568715e+00	 8.4404970818e-01	 5.9460573836e-03
 1.4951741952e+00	 8.6213364846e-01	-9.7475266334e-02
 1.4846574041e+00	 8.8012084074e-01	-2.1286061227e-01
 1.4739077456e+00	 8.9800682579e-01	-3.3419063836e-01
 1.4629265788e+00	 9.1578716239e-01	-4.4185494062e-01
 1.4517153739e+00	 9.3345743067e-01	-5.4665649024e-01
 1.5119180598e+00	 8.4767223911e-01	-5.2064429223e-03
 1.5015912518e+00	 8.6583379287e-01	-1.0399908892e-01
 1.4910293243e+00	 8.8389818340e-01	-2.1181572184e-01
 1.4802335299e+00	 9.0186093234e-01	-3.3235428389e-01
 1.4692052337e+00	 9.1971757939e-01	-4.4823008136e-01
 1.4579459120e+00	 9.3746368573e-01	-5.5625736825e-01
 1.5183792481e+00	 8.5129477005e-01	-1.5961243506e-02
 1.5080083085e+00	 8.6953393729e-01	-1.1230325157e-01
 1.4974012445e+00	 8.8767552606e-01	-2.1527481700e-01
 1.4865593143e+00	 9.0571503889e-01	-3.2883194334e-01
 1.4754838885e+00	 9.2364799640e-01	-4.5210049825e-01
 1.4641764501e+00	 9.4146994080e-01	-5.6594016215e-01
 1.4330237597e+00	 9.2143866547e-01	-5.2203014392e-01
 1.4217313898e+00	 9.3876843004e-01	-6.2471416140e-01
 1.4102151748e+00	 9.5598089461e-01	-7.1324392620e-01
 1.3984768932e+00	 9.7307178003e-01	-7.9865854708e-01
 1.3865184318e+00	 9.9003684190e-01	-8.9248651792e-01
 1.3743417841e+00	 1.0068718739e+00	-1.0064942586e+00
 1.4392542978e+00	 9.2544492053e-01	-5.2916640520e-01
 1.4279128306e+00	 9.4285003191e-01	-6.2999143344e-01
 1.4163465451e+00	 9.6013733328e-01	-7.1807315337e-01
 1.4045572276e+00	 9.7730252690e-01	-8.0388118584e-01
 1.3925467728e+00	 9.9434134991e-01	-8.9842023411e-01
 1.3803171832e+00	 1.0112495777e+00	-1.0129748012e+00
 1.4454848358e+00	 9.2945117560e-01	-5.3750195424e-01
 1.4340942715e+00	 9.4693163378e-01	-6.3676883517e-01
 1.4224779154e+00	 9.6429377195e-01	-7.2393328785e-01
 1.4106375619e+00	 9.8153327377e-01	-8.0923751119e-01
 1.3985751138e+00	 9.9864585792e-01	-9.0349180159e-01
 1.3862925823e+00	 1.0156272815e+00	-1.0178145205e+00
 1.4517153739e+00	 9.3345743067e-01	-5.4665649024e-01
 1.4402757123e+00	 9.5101323565e-01	-6.4503700721e-01
 1.4286092857e+00	 9.6845021062e-01	-7.3107172896e-01
 1.4167178962e+00	 9.8576402064e-01	-8.1511323000e-01
 1.4046034548e+00	 1.0029503659e+00	-9.0810268177e-01
 1.3922679813e+00	 1.0200049853e+00	-1.0213041488e+00
 1.4579459120e+00	 9.3746368573e-01	-5.5625736825e-01
 1.4464571531e+00	 9.5509483752e-01	-6.5478785656e-01
 1.4347406561e+00	 9.7260664929e-01	-7.3973255382e-01
 1.4227982305e+00	 9.8999476751e-01	-8.2188801354e-01
 1.4106317958e+00	 1.0072548739e+00	-9.1264753505e-01
 1.3982433804e+00	 1.0243826891e+00	-1.0237288716e+00
 1.4641764501e+00	 9.4146994080e-01	-5.6594016215e-01
 1.4526385939e+00	 9.5917643938e-01	-6.6601525788e-01
 1.4408720264e+00	 9.7676308797e-01	-7.5015731508e-01
 1.4288785648e+00	 9.9422551438e-01	-8.2993634820e-01
 1.4166601368e+00	 1.0115593819e+00	-9.1751507967e-01
 1.4042187794e+00	 1.0287603929e+00	-1.0253691481e+00
 1.3743417841e+00	 1.0068718739e+00	-1.0064942586e+00
 1.3619490501e+00	 1.0235727111e+00	-1.1185483598e+00
 1.3493424348e+00	 1.0401352334e+00	-1.2046291173e+00
 1.3365242470e+00	 1.0565553687e+00	-1.2730839901e+00
 1.3234968983e+00	 1.0728290964e+00	-1.3311982129e+00
 1.3102629015e+00	 1.0889524503e+00	-1.3848703708e+00
 1.3803171832e+00	 1.0112495777e+00	-1.0129748012e+00
 1.3678705677e+00	 1.0280230272e+00	-1.1246182583e+00
 1.3552091410e+00	 1.0446575605e+00	-1.2093634582e+00
 1.3423352220e+00	 1.0611490877e+00	-1.2763787359e+00
 1.3292512327e+00	 1.0774935708e+00	-1.3338101617e+00
 1.3159596967e+00	 1.0936870261e+00	-1.3884476622e+00
 1.3862925823e+00	 1.0156272815e+00	-1.0178145205e+00
 1.3737920854e+00	 1.0324733433e+00	-1.1288310672e+00
 1.3610758473e+00	 1.0491798876e+00	-1.2126299376e+00
 1.3481461970e+00	 1.0657428067e+00	-1.2790572370e+00
 1.3350055670e+00	 1.0821580451e+00	-1.3369837573e+00
 1.3216564920e+00	 1.0984216020e+00	-1.3939618243e+00
 1.3922679813e+00	 1.0200049853e+00	-1.0213041488e+00
 1.3797136030e+00	 1.0369236595e+00	-1.1313222675e+00
 1.3669425535e+00	 1.0537022147e+00	-1.2144502537e+00
 1.3539571720e+00	 1.0703365257e+00	-1.2810711172e+00
 1.3407599013e+00	 1.0868225194e+00	-1.3406464819e+00
 1.3273532872e+00	 1.1031561779e+00	-1.4013643363e+00
 1.3982433804e+00	 1.0243826891e+00	-1.0237288716e+00
 1.3856351206e+00	 1.0413739756e+00	-1.1322236715e+00
 1.3728092597e+00	 1.0582245418e+00	-1.2148434757e+00
 1.3597681469e+00	 1.0749302447e+00	-1.2823695416e+00
 1.3465142357e+00	 1.0914869938e+00	-1.3447226326e+00
 1.3330500824e+00	 1.1078907538e+00	-1.4106018420e+00
 1.4042187794e+00	 1.0287603929e+00	-1.0253691481e+00
 1.3915566382e+00	 1.0458242917e+00	-1.1316641881e+00
 1.3786759660e+00	 1.0627468689e+00	-1.2138267684e+00
 1.3655791219e+00	 1.0795239637e+00	-1.2828999167e+00
 1.3522685700e+00	 1.0961514681e+00	-1.3491340122e+00
 1.3387468776e+00	 1.1126253296e+00	-1.4214020334e+00
 1.3102629015e+00	 1.0889524503e+00	-1.3848703708e+00
 1.2968248690e+00	 1.1049215218e+00	-1.4554853763e+00
 1.2831855111e+00	 1.1207324632e+00	-1.5539690651e+00
 1.2693476345e+00	 1.1363814909e+00	-1.6403424857e+00
 1.2553141401e+00	 1.1518648878e+00	-1.7074174128e+00
 1.2410880211e+00	 1.1671790068e+00	-1.7519438853e+00
 1.3159596967e+00	 1.0936870261e+00	-1.3884476622e+00
 1.3024632380e+00	 1.1097255284e+00	-1.4636150546e+00
 1.2887645785e+00	 1.1256052131e+00	-1.5586370959e+00
 1.2748665373e+00	 1.1413222800e+00	-1.6408081258e+00
 1.2607720277e+00	 1.1568729960e+00	-1.7063899307e+00
 1.2464840560e+00	 1.1722536981e+00	-1.7516797650e+00
 1.3216564920e+00	 1.0984216020e+00	-1.3939618243e+00
 1.3081016070e+00	 1.1145295350e+00	-1.4736827295e+00
 1.2943436460e+00	 1.1304779629e+00	-1.5623339801e+00
 1.2803854400e+00	 1.1462630691e+00	-1.6406855583e+00
 1.2662299152e+00	 1.1618811042e+00	-1.7048936917e+00
 1.2518800909e+00	 1.1773283894e+00	-1.7508900004e+00
 1.3273532872e+00	 1.1031561779e+00	-1.4013643363e+00
 1.3137399760e+00	 1.1193335416e+00	-1.4823853692e+00
 1.2999227134e+00	 1.1353507127e+00	-1.5652258882e+00
 1.2859043428e+00	 1.1512038581e+00	-1.6401442408e+00
 1.2716878028e+00	 1.1668892124e+00	-1.7030798414e+00
 1.2572761258e+00	 1.1824030808e+00	-1.7496846197e+00
 1.3330500824e+00	 1.1078907538e+00	-1.4106018420e+00
 1.3193783449e+00	 1.1241375482e+00	-1.4896727717e+00
 1.3055017809e+00	 1.1402234626e+00	-1.5674865245e+00
 1.2914232455e+00	 1.1561446472e+00	-1.6393609054e+00
 1.2771456904e+00	 1.1718973206e+00	-1.7011069498e+00
 1.2626721606e+00	 1.1874777721e+00	-1.7481816509e+00
 1.3387468776e+00	 1.1126253296e+00	-1.4214020334e+00
 1.3250167139e+00	 1.1289415548e+00	-1.4957034779e+00
 1.3110808483e+00	 1.1450962124e+00	-1.5692968190e+00
 1.2969421483e+00	 1.1610854363e+00	-1.6385192685e+00
 1.2826035779e+00	 1.1769054288e+00	-1.6991407335e+00
 1.2680681955e+00	 1.1925524634e+00	-1.7465068473e+00
 1.2410880211e+00	 1.1671790068e+00	-1.7519438853e+00
 1.2266723610e+00	 1.1823202734e+00	-1.7896054896e+00
 1.2120703311e+00	 1.1972851885e+00	-1.8339095090e+00
 1.1972851885e+00	 1.2120703311e+00	-1.8782169909e+00
 1.1823202734e+00	 1.2266723610e+00	-1.9158497764e+00
 1.1671790068e+00	 1.2410880211e+00	-1.9402400862e+00
 1.2464840560e+00	 1.1722536981e+00	-1.7516797650e+00
 1.2320057191e+00	 1.1874607963e+00	-1.7904629016e+00
 1.2173402021e+00	 1.2024907762e+00	-1.8349903909e+00
 1.2024907762e+00	 1.2173402021e+00	-1.8791020436e+00
 1.1874607963e+00	 1.2320057191e+00	-1.9166106540e+00
 1.1722536981e+00	 1.2464840560e+00	-1.9414549650e+00
 1.2518800909e+00	 1.1773283894e+00	-1.7508900004e+00
 1.2373390772e+00	 1.1926013192e+00	-1.7908001718e+00
 1.2226100731e+00	 1.2076963640e+00	-1.8357470827e+00
 1.2076963640e+00	 1.2226100731e+00	-1.8799655151e+00
 1.1926013192e+00	 1.2373390772e+00	-1.9176728480e+00
 1.1773283894e+00	 1.2518800909e+00	-1.9432257046e+00
 1.2572761258e+00	 1.1824030808e+00	-1.7496846197e+00
 1.2426724353e+00	 1.1977418421e+00	-1.7906647173e+00
 1.2278799441e+00	 1.2129019518e+00	-1.8361456052e+00
 1.2129019518e+00	 1.2278799441e+00	-1.8806741504e+00
 1.1977418421e+00	 1.2426724353e+00	-1.9187868685e+00
 1.1824030808e+00	 1.2572761258e+00	-1.9451705595e+00
 1.2626721606e+00	 1.1874777721e+00	-1.7481816509e+00
 1.2480057934e+00	 1.2028823651e+00	-1.7901129275e+00
 1.2331498151e+00	 1.2181075396e+00	-1.8361622666e+00
 1.2181075396e+00	 1.2331498151e+00	-1.8811066184e+00
 1.2028823651e+00	 1.2480057934e+00	-1.9197170851e+00
 1.1874777721e+00	 1.2626721606e+00	-1.9469238529e+00
 1.2680681955e+00	 1.1925524634e+00	-1.7465068473e+00
 1.2533391515e+00	 1.2080228880e+00	-1.7892098846e+00
 1.2384196861e+00	 1.2233131273e+00	-1.8357833733e+00
 1.2233131273e+00	 1.2384196861e+00	-1.8811532066e+00
 1.2080228880e+00	 1.2533391515e+00	-1.9202413989e+00
 1.1925524634e+00	 1.2680681955e+00	-1.9481356224e+00
 1.1671790068e+00	 1.2410880211e+00	-1.9402400862e+00
 1.1518648878e+00	 1.2553141401e+00	-1.9660000298e+00
 1.1363814909e+00	 1.2693476345e+00	-2.0059089739e+00
 1.1207324632e+00	 1.2831855111e+00	-2.0509529634e+00
 1.1049215218e+00	 1.2968248690e+00	-2.0907232943e+00
 1.0889524503e+00	 1.3102629015e+00	-2.1019069946e+00
 1.1722536981e+00	 1.2464840560e+00	-1.9414549650e+00
 1.1568729960e+00	 1.2607720277e+00	-1.9672839539e+00
 1.1413222800e+00	 1.2748665373e+00	-2.0056900066e+00
 1.1256052131e+00	 1.2887645785e+00	-2.0478613708e+00
 1.1097255284e+00	 1.3024632380e+00	-2.0852187778e+00
 1.0936870261e+00	 1.3159596967e+00	-2.0974575030e+00
 1.1773283894e+00	 1.2518800909e+00	-1.9432257046e+00
 1.1618811042e+00	 1.2662299152e+00	-1.9692499460e+00
 1.1462630691e+00	 1.2803854400e+00	-2.0061925362e+00
 1.1304779629e+00	 1.2943436460e+00	-2.0455127785e+00
 1.1145295350e+00	 1.3081016070e+00	-2.0790235900e+00
 1.0984216020e+00	 1.3216564920e+00	-2.0923357045e+00
 1.1824030808e+00	 1.2572761258e+00	-1.9451705595e+00
 1.1668892124e+00	 1.2716878028e+00	-1.9714068217e+00
 1.1512038581e+00	 1.2859043428e+00	-2.0068762994e+00
 1.1353507127e+00	 1.2999227134e+00	-2.0433771568e+00
 1.1193335416e+00	 1.3137399760e+00	-2.0731056752e+00
 1.1031561779e+00	 1.3273532872e+00	-2.0861516494e+00
 1.1874777721e+00	 1.2626721606e+00	-1.9469238529e+00
 1.1718973206e+00	 1.2771456904e+00	-1.9732812792e+00
 1.1561446472e+00	 1.2914232455e+00	-2.0072196827e+00
 1.1402234626e+00	 1.3055017809e+00	-2.0409428575e+00
 1.1241375482e+00	 1.3193783449e+00	-2.0671059671e+00
 1.1078907538e+00	 1.3330500824e+00	-2.0785328364e+00
 1.1925524634e+00	 1.2680681955e+00	-1.9481356224e+00
 1.1769054288e+00	 1.2826035779e+00	-1.9744175257e+00
 1.1610854363e+00	 1.2969421483e+00	-2.0067193535e+00
 1.1450962124e+00	 1.3110808483e+00	-2.0377162720e+00
 1.1289415548e+00	 1.3250167139e+00	-2.0605967567e+00
 1.1126253296e+00	 1.3387468776e+00	-2.0692223899e+00
 1.0889524503e+00	 1.3102629015e+00	-2.1019069946e+00
 1.0728290964e+00	 1.3234968983e+00	-2.0943805523e+00
 1.0565553687e+00	 1.3365242470e+00	-2.0859245931e+00
 1.0401352334e+00	 1.3493424348e+00	-2.0798062039e+00
 1.0235727111e+00	 1.3619490501e+00	-2.0808867299e+00
 1.0068718739e+00	 1.3743417841e+00	-2.0953057897e+00
 1.0936870261e+00	 1.3159596967e+00	-2.0974575030e+00
 1.0774935708e+00	 1.3292512327e+00	-2.0900746335e+00
 1.0611490877e+00	 1.3423352220e+00	-2.0818591857e+00
 1.0446575605e+00	 1.3552091410e+00	-2.0760331629e+00
 1.0280230272e+00	 1.3678705677e+00	-2.0774378592e+00
 1.0112495777e+00	 1.3803171832e+00	-2.0922092462e+00
 1.0984216020e+00	 1.3216564920e+00	-2.0923357045e+00
 1.0821580451e+00	 1.3350055670e+00	-2.0857302945e+00
 1.0657428067e+00	 1.3481461970e+00	-2.0783694529e+00
 1.0491798876e+00	 1.3610758473e+00	-2.0733527787e+00
 1.0324733433e+00	 1.3737920854e+00	-2.0754118709e+00
 1.0156272815e+00	 1.3862925823e+00	-2.0905771569e+00
 1.1031561779e+00	 1.3273532872e+00	-2.0861516494e+00
 1.0868225194e+00	 1.3407599013e+00	-2.0810764483e+00
 1.0703365257e+00	 1.3539571720e+00	-2.0752095170e+00
 1.0537022147e+00	 1.3669425535e+00	-2.0714524427e+00
 1.0369236595e+00	 1.3797136030e+00	-2.0743392981e+00
 1.0200049853e+00	 1.3922679813e+00	-2.0896949782e+00
 1.1078907538e+00	 1.3330500824e+00	-2.0785328364e+00
 1.0914869938e+00	 1.3465142357e+00	-2.0758559588e+00
 1.0749302447e+00	 1.3597681469e+00	-2.0721455127e+00
 1.0582245418e+00	 1.3728092597e+00	-2.0700311647e+00
 1.0413739756e+00	 1.3856351206e+00	-2.0737634296e+00
 1.0243826891e+00	 1.3982433804e+00	-2.0888635731e+00
 1.1126253296e+00	 1.3387468776e+00	-2.0692223899e+00
 1.0961514681e+00	 1.3522685700e+00	-2.0698260358e+00
 1.0795239637e+00	 1.3655791219e+00	-2.0689559753e+00
 1.0627468689e+00	 1.3786759660e+00	-2.0687999226e+00
 1.0458242917e+00	 1.3915566382e+00	-2.0732405873e+00
 1.0287603929e+00	 1.4042187794e+00	-2.0873993854e+00
 1.0068718739e+00	 1.3743417841e+00	-2.0953057897e+00
 9.9003684190e-01	 1.3865184318e+00	-2.1052963456e+00
 9.7307178003e-01	 1.3984768932e+00	-2.0943856364e+00
 9.5598089461e-01	 1.4102151748e+00	-2.0716126408e+00
 9.3876843004e-01	 1.4217313898e+00	-2.0460379277e+00
 9.2143866547e-01	 1.4330237597e+00	-2.0264695858e+00
 1.0112495777e+00	 1.3803171832e+00	-2.0922092462e+00
 9.9434134991e-01	 1.3925467728e+00	-2.1022280286e+00
 9.7730252690e-01	 1.4045572276e+00	-2.0907140207e+00
 9.6013733328e-01	 1.4163465451e+00	-2.0667350944e+00
 9.4285003191e-01	 1.4279128306e+00	-2.0393191256e+00
 9.2544492053e-01	 1.4392542978e+00	-2.0171732842e+00
 1.0156272815e+00	 1.3862925823e+00	-2.0905771569e+00
 9.9864585792e-01	 1.3985751138e+00	-2.1002274122e+00
 9.8153327377e-01	 1.4106375619e+00	-2.0873970431e+00
 9.6429377195e-01	 1.4224779154e+00	-2.0614945233e+00
 9.4693163378e-01	 1.4340942715e+00	-2.0318461863e+00
 9.2945117560e-01	 1.4454848358e+00	-2.0074078182e+00
 1.0200049853e+00	 1.3922679813e+00	-2.0896949782e+00
 1.0029503659e+00	 1.4046034548e+00	-2.0983743304e+00
 9.8576402064e-01	 1.4167178962e+00	-2.0834723875e+00
 9.6845021062e-01	 1.4286092857e+00	-2.0550462754e+00
 9.5101323565e-01	 1.4402757123e+00	-2.0230480788e+00
 9.3345743067e-01	 1.4517153739e+00	-1.9970276815e+00
 1.0243826891e+00	 1.3982433804e+00	-2.0888635731e+00
 1.0072548739e+00	 1.4106317958e+00	-2.0957660224e+00
 9.8999476751e-01	 1.4227982305e+00	-2.0779943837e+00
 9.7260664929e-01	 1.4347406561e+00	-2.0465589042e+00
 9.5509483752e-01	 1.4464571531e+00	-2.0123609355e+00
 9.3746368573e-01	 1.4579459120e+00	-1.9858859706e+00
 1.0287603929e+00	 1.4042187794e+00	-2.0873993854e+00
 1.0115593819e+00	 1.4166601368e+00	-2.0915172173e+00
 9.9422551438e-01	 1.4288785648e+00	-2.0700340621e+00
 9.7676308797e-01	 1.4408720264e+00	-2.0352142515e+00
 9.5917643938e-01	 1.4526385939e+00	-1.9992282203e+00
 9.4146994080e-01	 1.4641764501e+00	-1.9738346911e+00
 9.2143866547e-01	 1.4330237597e+00	-2.0264695858e+00
 9.0399591137e-01	 1.4440906143e+00	-2.0034460593e+00
 8.8644450615e-01	 1.4549303927e+00	-1.9693637363e+00
 8.6878881274e-01	 1.4655416435e+00	-1.9347492490e+00
 8.5103321522e-01	 1.4759230253e+00	-1.9090040948e+00
 8.3318211537e-01	 1.4860733066e+00	-1.8948423622e+00
 9.2544492053e-01	 1.4392542978e+00	-2.0171732842e+00
 9.0792632837e-01	 1.4503692691e+00	-1.9915201651e+00
 8.9029861270e-01	 1.4612561770e+00	-1.9568459604e+00
 8.7256615541e-01	 1.4719135637e+00	-1.9256644282e+00
 8.5473335963e-01	 1.4823400819e+00	-1.9092287592e+00
 8.3680464630e-01	 1.4925344949e+00	-1.8873996309e+00
 9.2945117560e-01	 1.4454848358e+00	-2.0074078182e+00
 9.1185674538e-01	 1.4566479240e+00	-1.9807754572e+00
 8.9415271925e-01	 1.4675819613e+00	-1.9486789651e+00
 8.7634349807e-01	 1.4782854839e+00	-1.9251568429e+00
 8.5843350405e-01	 1.4887571386e+00	-1.9109037861e+00
 8.4042717724e-01	 1.4989956832e+00	-1.8779684663e+00
 9.3345743067e-01	 1.4517153739e+00	-1.9970276815e+00
 9.1578716239e-01	 1.4629265788e+00	-1.9714538967e+00
 8.9800682579e-01	 1.4739077456e+00	-1.9452712885e+00
 8.8012084074e-01	 1.4846574041e+00	-1.9314588422e+00
 8.6213364846e-01	 1.4951741952e+00	-1.9075480691e+00
 8.4404970818e-01	 1.5054568715e+00	-1.8669488237e+00
 9.3746368573e-01	 1.4579459120e+00	-1.9858859706e+00
 9.1971757939e-01	 1.4692052337e+00	-1.9637882254e+00
 9.0186093234e-01	 1.4802335299e+00	-1.9470183027e+00
 8.8389818340e-01	 1.4910293243e+00	-1.9323549045e+00
 8.6583379287e-01	 1.5015912518e+00	-1.9000207647e+00
 8.4767223911e-01	 1.5119180598e+00	-1.8547390506e+00
 9.4146994080e-01	 1.4641764501e+00	-1.9738346911e+00
 9.2364799640e-01	 1.4754838885e+00	-1.9580023976e+00
 9.0571503889e-01	 1.4865593143e+00	-1.9494799810e+00
 8.8767552606e-01	 1.4974012445e+00	-1.9267631650e+00
 8.6953393729e-01	 1.5080083085e+00	-1.8891715830e+00
 8.5129477005e-01	 1.5183792481e+00	-1.8417358610e+00
 8.3318211537e-01	 1.4860733066e+00	-1.8948423622e+00
 8.1523992933e-01	 1.4959913662e+00	-1.8615699192e+00
 7.9721108424e-01	 1.5056761927e+00	-1.8118267992e+00
 7.7910001484e-01	 1.5151268847e+00	-1.7551905447e+00
 7.6091116020e-01	 1.5243426506e+00	-1.7012215389e+00
 7.4264896039e-01	 1.5333228074e+00	-1.6594857615e+00
 8.3680464630e-01	 1.4925344949e+00	-1.8873996309e+00
 8.1878445077e-01	 1.5024956765e+00	-1.8460997833e+00
 8.0067721939e-01	 1.5122226109e+00	-1.7949247585e+00
 7.8248740621e-01	 1.5217143929e+00	-1.7410938319e+00
 7.6421946959e-01	 1.5309702273e+00	-1.6917158174e+00
 7.4587786892e-01	 1.5399894283e+00	-1.6538192835e+00
 8.4042717724e-01	 1.4989956832e+00	-1.8779684663e+00
 8.2232897220e-01	 1.5089999867e+00	-1.8314500849e+00
 8.0414335454e-01	 1.5187690291e+00	-1.7800516387e+00
 7.8587479758e-01	 1.5283019011e+00	-1.7289659977e+00
 7.6752777898e-01	 1.5375978040e+00	-1.6832067235e+00
 7.4910677744e-01	 1.5466560492e+00	-1.6476446804e+00
 8.4404970818e-01	 1.5054568715e+00	-1.8669488237e+00
 8.2587349363e-01	 1.5155042970e+00	-1.8175572282e+00
 8.0760948969e-01	 1.5253154474e+00	-1.7668865868e+00
 7.8926218895e-01	 1.5348894093e+00	-1.7184304587e+00
 7.7083608838e-01	 1.5442253808e+00	-1.6754585052e+00
 7.5233568596e-01	 1.5533226701e+00	-1.6410584424e+00
 8.4767223911e-01	 1.5119180598e+00	-1.8547390506e+00
 8.2941801506e-01	 1.5220086073e+00	-1.8043638853e+00
 8.1107562484e-01	 1.5318618656e+00	-1.7551193566e+00
 7.9264958032e-01	 1.5414769175e+00	-1.7091221189e+00
 7.7414439777e-01	 1.5508529575e+00	-1.6682444059e+00
 7.5556459449e-01	 1.5599892910e+00	-1.6341602763e+00
 8.5129477005e-01	 1.5183792481e+00	-1.8417358610e+00
 8.3296253649e-01	 1.5285129176e+00	-1.7918188108e+00
 8.1454175999e-01	 1.5384082838e+00	-1.7444500379e+00
 7.9603697169e-01	 1.5480644257e+00	-1.7006870884e+00
 7.7745270716e-01	 1.5574805343e+00	-1.6613464421e+00
 7.5879350301e-01	 1.5666559119e+00	-1.6270530127e+00
 7.4264896039e-01	 1.5333228074e+00	-1.6594857615e+00
 7.2431785327e-01	 1.5420667811e+00	-1.6238741072e+00
 7.0592227124e-01	 1.5505741056e+00	-1.5834523557e+00
 6.8746663807e-01	 1.5588444219e+00	-1.5372090102e+00
 6.6895536581e-01	 1.5668774772e+00	-1.4841073823e+00
 6.5039285168e-01	 1.5746731243e+00	-1.4232166995e+00
 7.4587786892e-01	 1.5399894283e+00	-1.6538192835e+00
 7.2746706133e-01	 1.5487714193e+00	-1.6179709573e+00
 7.0899149850e-01	 1.5573157322e+00	-1.5752846023e+00
 6.9045562345e-01	 1.5656220063e+00	-1.5261052932e+00
 6.7186386740e-01	 1.5736899880e+00	-1.4704298147e+00
 6.5322064669e-01	 1.5815195292e+00	-1.4084239391e+00
 7.4910677744e-01	 1.5466560492e+00	-1.6476446804e+00
 7.3061626939e-01	 1.5554760575e+00	-1.6106948093e+00
 7.1206072577e-01	 1.5640573587e+00	-1.5653726858e+00
 6.9344460884e-01	 1.5723995907e+00	-1.5135503457e+00
 6.7477236899e-01	 1.5805024987e+00	-1.4560701252e+00
 6.5604844170e-01	 1.5883659341e+00	-1.3939883459e+00
 7.5233568596e-01	 1.5533226701e+00	-1.6410584424e+00
 7.3376547745e-01	 1.5621806957e+00	-1.6024588793e+00
 7.1512995304e-01	 1.5707989852e+00	-1.5542913218e+00
 6.9643359422e-01	 1.5791771752e+00	-1.5001178075e+00
 6.7768087058e-01	 1.5873150095e+00	-1.4414410104e+00
 6.5887623671e-01	 1.5952123390e+00	-1.3800046973e+00
 7.5556459449e-01	 1.5599892910e+00	-1.6341602763e+00
 7.3691468550e-01	 1.5688853338e+00	-1.5936801417e+00
 7.1819918030e-01	 1.5775406118e+00	-1.5426165318e+00
 6.9942257960e-01	 1.5859547596e+00	-1.4863828852e+00
 6.8058937217e-01	 1.5941275203e+00	-1.4269596555e+00
 6.6170403171e-01	 1.6020587439e+00	-1.3665777886e+00
 7.5879350301e-01	 1.5666559119e+00	-1.6270530127e+00
 7.4006389356e-01	 1.5755899720e+00	-1.5847789231e+00
 7.2126840757e-01	 1.5842822383e+00	-1.5309253327e+00
 7.0241156498e-01	 1.5927323441e+00	-1.4729220782e+00
 6.8349787376e-01	 1.6009400311e+00	-1.4130474389e+00
 6.6453182672e-01	 1.6089051488e+00	-1.3538220575e+00
 6.5039285168e-01	 1.5746731243e+00	-1.4232166995e+00
 6.3178347512e-01	 1.5822313202e+00	-1.3647965907e+00
 6.1313159475e-01	 1.5895521248e+00	-1.3163954614e+00
 5.9444154556e-01	 1.5966357001e+00	-1.2732303499e+00
 5.7571763607e-01	 1.6034823085e+00	-1.2306837728e+00
 5.5696414555e-01	 1.6100923112e+00	-1.1843386494e+00
 6.5322064669e-01	 1.5815195292e+00	-1.4084239391e+00
 6.3453035979e-01	 1.5891105868e+00	-1.3503667187e+00
 6.1579738429e-01	 1.5964632210e+00	-1.3028342793e+00
 5.9702607402e-01	 1.6035775945e+00	-1.2606758644e+00
 5.7822075623e-01	 1.6104539707e+00	-1.2188771342e+00
 5.5938572879e-01	 1.6170927126e+00	-1.1725965311e+00
 6.5604844170e-01	 1.5883659341e+00	-1.3939883459e+00
 6.3727724447e-01	 1.5959898534e+00	-1.3370962821e+00
 6.1846317383e-01	 1.6033743172e+00	-1.2906977058e+00
 5.9961060248e-01	 1.6105194888e+00	-1.2493785319e+00
 5.8072387638e-01	 1.6174256329e+00	-1.2078487631e+00
 5.6180731203e-01	 1.6240931139e+00	-1.1609797424e+00
 6.5887623671e-01	 1.5952123390e+00	-1.3800046973e+00
 6.4002412914e-01	 1.6028691200e+00	-1.3247519491e+00
 6.2112896337e-01	 1.6102854134e+00	-1.2795578261e+00
 6.0219513094e-01	 1.6174613832e+00	-1.2388477210e+00
 5.8322699654e-01	 1.6243972951e+00	-1.1971754135e+00
 5.6422889527e-01	 1.6310935153e+00	-1.1492606593e+00
 6.6170403171e-01	 1.6020587439e+00	-1.3665777886e+00
 6.4277101381e-01	 1.6097483866e+00	-1.3131160285e+00
 6.2379475292e-01	 1.6171965096e+00	-1.2690056216e+00
 6.0477965940e-01	 1.6244032775e+00	-1.2286126126e+00
 5.8573011670e-01	 1.6313689573e+00	-1.1864522573e+00
 5.6665047851e-01	 1.6380939166e+00	-1.1372264023e+00
 6.6453182672e-01	 1.6089051488e+00	-1.3538220575e+00
 6.4551789849e-01	 1.6166276532e+00	-1.3019860106e+00
 6.2646054246e-01	 1.6241076058e+00	-1.2586504771e+00
 6.0736418786e-01	 1.6313451719e+00	-1.2182217202e+00
 5.8823323685e-01	 1.6383406195e+00	-1.1752924643e+00
 5.6907206175e-01	 1.6450943180e+00	-1.1246785227e+00
 5.5696414555e-01	 1.6100923112e+00	-1.1843386494e+00
 5.3818532137e-01	 1.6164661673e+00	-1.1323086186e+00
 5.1938537640e-01	 1.6226044314e+00	-1.0765214102e+00
 5.0056848647e-01	 1.6285077526e+00	-1.0186545109e+00
 4.8173878795e-01	 1.6341768724e+00	-9.6065314513e-01
 4.6290037537e-01	 1.6396126227e+00	-9.0471603160e-01
 5.5938572879e-01	 1.6170927126e+00	-1.1725965311e+00
 5.4052525755e-01	 1.6234942810e+00	-1.1200926776e+00
 5.2164357369e-01	 1.6296592333e+00	-1.0637194559e+00
 5.0274487120e-01	 1.6355882211e+00	-1.0051633734e+00
 4.8383330442e-01	 1.6412819892e+00	-9.4641928974e-01
 4.6491298569e-01	 1.6467413732e+00	-8.8977381211e-01
 5.6180731203e-01	 1.6240931139e+00	-1.1609797424e+00
 5.4286519373e-01	 1.6305223948e+00	-1.1075296782e+00
 5.2390177097e-01	 1.6367140352e+00	-1.0504961248e+00
 5.0492125592e-01	 1.6426686896e+00	-9.9150901396e-01
 4.8592782089e-01	 1.6483871060e+00	-9.3253536563e-01
 4.6692559602e-01	 1.6538701238e+00	-8.7586071043e-01
 5.6422889527e-01	 1.6310935153e+00	-1.1492606593e+00
 5.4520512991e-01	 1.6375505086e+00	-1.0945956620e+00
 5.2615996826e-01	 1.6437688370e+00	-1.0369211924e+00
 5.0709764064e-01	 1.6497491581e+00	-9.7774649628e-01
 4.8802233736e-01	 1.6554922229e+00	-9.1893489505e-01
 4.6893820635e-01	 1.6609988743e+00	-8.6268361818e-01
 5.6665047851e-01	 1.6380939166e+00	-1.1372264023e+00
 5.4754506609e-01	 1.6445786223e+00	-1.0812775182e+00
 5.2841816555e-01	 1.6508236389e+00	-1.0230731794e+00
 5.0927402537e-01	 1.6568296266e+00	-9.6393929929e-01
 4.9011685383e-01	 1.6625973397e+00	-9.0556123368e-01
 4.7095081668e-01	 1.6681276248e+00	-8.4996240189e-01
 5.6907206175e-01	 1.6450943180e+00	-1.1246785227e+00
 5.4988500227e-01	 1.6516067361e+00	-1.0675727781e+00
 5.3067636284e-01	 1.6578784408e+00	-1.0090392147e+00
 5.1145041009e-01	 1.6639100951e+00	-9.5015920833e-01
 4.9221137030e-01	 1.6697024566e+00	-8.9236745059e-01
 4.7296342700e-01	 1.6752563754e+00	-8.3742973262e-01
 4.6290037537e-01	 1.6396126227e+00	-9.0471603160e-01
 4.4405729914e-01	 1.6448159244e+00	-8.5888608144e-01
 4.2521356338e-01	 1.6497877850e+00	-8.2349002831e-01
 4.0637312382e-01	 1.6545292969e+00	-7.8953958117e-01
 3.8753988576e-01	 1.6590416351e+00	-7.4831619804e-01
 3.6871770217e-01	 1.6633260553e+00	-6.9164256104e-01
 4.6491298569e-01	 1.6467413732e+00	-8.8977381211e-01
 4.4598798304e-01	 1.6519672980e+00	-8.4311259279e-01
 4.2706231800e-01	 1.6569607754e+00	-8.0697588358e-01
 4.0813996349e-01	 1.6617229025e+00	-7.7301919392e-01
 3.8922484178e-01	 1.6662548596e+00	-7.3312916739e-01
 3.7032082261e-01	 1.6705579077e+00	-6.7940842487e-01
 4.6692559602e-01	 1.6538701238e+00	-8.7586071043e-01
 4.4791866695e-01	 1.6591186715e+00	-8.2893363581e-01
 4.2891107263e-01	 1.6641337657e+00	-7.9229960889e-01
 4.0990680316e-01	 1.6689165082e+00	-7.5827569231e-01
 3.9090979781e-01	 1.6734680841e+00	-7.1938165383e-01
 3.7192394306e-01	 1.6777897601e+00	-6.6832157450e-01
 4.6893820635e-01	 1.6609988743e+00	-8.6268361818e-01
 4.4984935086e-01	 1.6662700451e+00	-8.1581953439e-01
 4.3075982725e-01	 1.6713067561e+00	-7.7877891563e-01
 4.1167364282e-01	 1.6761101138e+00	-7.4455802347e-01
 3.9259475383e-01	 1.6806813086e+00	-7.0633751628e-01
 3.7352706350e-01	 1.6850216125e+00	-6.5746071282e-01
 4.7095081668e-01	 1.6681276248e+00	-8.4996240189e-01
 4.5178003477e-01	 1.6734214187e+00	-8.0325683095e-01
 4.3260858187e-01	 1.6784797465e+00	-7.6574948068e-01
 4.1344048249e-01	 1.6833037194e+00	-7.3113335919e-01
 3.9427970986e-01	 1.6878945331e+00	-6.9327762044e-01
 3.7513018395e-01	 1.6922534649e+00	-6.4620212709e-01
 4.7296342700e-01	 1.6752563754e+00	-8.3742973262e-01
 4.5371071868e-01	 1.6805727923e+00	-7.9074806111e-01
 4.3445733650e-01	 1.6856527368e+00	-7.5256469576e-01
 4.1520732216e-01	 1.6904973251e+00	-7.1728684935e-01
 3.9596466588e-01	 1.6951077576e+00	-6.7949962557e-01
 3.7673330439e-01	 1.6994853173e+00	-6.3393652486e-01
 3.6871770217e-01	 1.6633260553e+00	-6.9164256104e-01
 3.4991037185e-01	 1.6673838915e+00	-6.4242785276e-01
 3.3112163768e-01	 1.6712165542e+00	-6.1030712573e-01
 3.1235518499e-01	 1.6748255278e+00	-5.8607948984e-01
 2.9361463999e-01	 1.6782123683e+00	-5.6146345267e-01
 2.7490356829e-01	 1.6813787016e+00	-5.2896208645e-01
 3.7032082261e-01	 1.6705579077e+00	-6.7940842487e-01
 3.5143172129e-01	 1.6746333867e+00	-6.2840245901e-01
 3.3256129698e-01	 1.6784827131e+00	-5.9487190369e-01
 3.1371325102e-01	 1.6821073779e+00	-5.6971872595e-01
 2.9489122538e-01	 1.6855089438e+00	-5.4473646458e-01
 2.7609880120e-01	 1.6886890438e+00	-5.1247888641e-01
 3.7192394306e-01	 1.6777897601e+00	-6.6832157450e-01
 3.5295307073e-01	 1.6818828819e+00	-6.1552465206e-01
 3.3400095627e-01	 1.6857488721e+00	-5.8042910907e-01
 3.1507131704e-01	 1.6893892280e+00	-5.5430334365e-01
 2.9616781077e-01	 1.6928055194e+00	-5.2903485897e-01
 2.7729403410e-01	 1.6959993859e+00	-4.9723680119e-01
 3.7352706350e-01	 1.6850216125e+00	-6.5746071282e-01
 3.5447442018e-01	 1.6891323771e+00	-6.0323640540e-01
 3.3544061556e-01	 1.6930150310e+00	-5.6650849267e-01
 3.1642938306e-01	 1.6966710781e+00	-5.3940241254e-01
 2.9744439617e-01	 1.7001020949e+00	-5.1391786625e-01
 2.7848926701e-01	 1.7033097281e+00	-4.8273533557e-01
 3.7513018395e-01	 1.6922534649e+00	-6.4620212709e-01
 3.5599576962e-01	 1.6963818722e+00	-5.9098677150e-01
 3.3688027486e-01	 1.7002811899e+00	-5.5264269945e-01
 3.1778744908e-01	 1.7039529282e+00	-5.2458504539e-01
 2.9872098156e-01	 1.7073986704e+00	-4.9894323800e-01
 2.7968449992e-01	 1.7106200703e+00	-4.6847231482e-01
 3.7673330439e-01	 1.6994853173e+00	-6.3393652486e-01
 3.5751711906e-01	 1.7036313674e+00	-5.7823228358e-01
 3.3831993415e-01	 1.7075473489e+00	-5.3836765591e-01
 3.1914551510e-01	 1.7112347784e+00	-5.0942075316e-01
 2.9999756695e-01	 1.7146952459e+00	-4.8366755132e-01
 2.8087973282e-01	 1.7179304125e+00	-4.5394412010e-01
 2.7490356829e-01	 1.6813787016e+00	-5.2896208645e-01
 2.5622547356e-01	 1.6843262204e+00	-4.9047555070e-01
 2.3758379621e-01	 1.6870566824e+00	-4.5395536782e-01
 2.1898191223e-01	 1.6895719079e+00	-4.2174656078e-01
 2.0042313208e-01	 1.6918737772e+00	-3.9647588375e-01
 1.8191069966e-01	 1.6939642285e+00	-3.8100923387e-01
 2.7609880120e-01	 1.6886890438e+00	-5.1247888641e-01
 2.5733949736e-01	 1.6916493779e+00	-4.7456622587e-01
 2.3861676923e-01	 1.6943917115e+00	-4.3861979693e-01
 2.1993400750e-01	 1.6969178728e+00	-4.0691272773e-01
 2.0129453700e-01	 1.6992297502e+00	-3.8196357303e-01
 1.8270161575e-01	 1.7013292903e+00	-3.6650096661e-01
 2.7729403410e-01	 1.6959993859e+00	-4.9723680119e-01
 2.5845352115e-01	 1.6989725354e+00	-4.6012310300e-01
 2.3964974226e-01	 1.7017267406e+00	-4.2485817769e-01
 2.2088610277e-01	 1.7042638376e+00	-3.9364549591e-01
 2.0216594192e-01	 1.7065857231e+00	-3.6889973182e-01
 1.8349253183e-01	 1.7086943522e+00	-3.5321880555e-01
 2.7848926701e-01	 1.7033097281e+00	-4.8273533557e-01
 2.5956754495e-01	 1.7062956928e+00	-4.4658478479e-01
 2.4068271529e-01	 1.7090617696e+00	-4.1209540511e-01
 2.2183819804e-01	 1.7116098024e+00	-3.8140191437e-01
 2.0303734684e-01	 1.7139416961e+00	-3.5681799706e-01
 1.8428344792e-01	 1.7160594141e+00	-3.4081589520e-01
 2.7968449992e-01	 1.7106200703e+00	-4.6847231482e-01
 2.6068156875e-01	 1.7136188503e+00	-4.3338845965e-01
 2.4171568832e-01	 1.7163967987e+00	-3.9975483865e-01
 2.2279029331e-01	 1.7189557672e+00	-3.6963698368e-01
 2.0390875176e-01	 1.7212976690e+00	-3.4524904698e-01
 1.8507436400e-01	 1.7234244759e+00	-3.2894110765e-01
 2.8087973282e-01	 1.7179304125e+00	-4.5394412010e-01
 2.6179559255e-01	 1.7209420078e+00	-4.1997006772e-01
 2.4274866134e-01	 1.7237318277e+00	-3.8725841616e-01
 2.2374238858e-01	 1.7263017320e+00	-3.5780373503e-01
 2.0478015669e-01	 1.7286536420e+00	-3.3372066214e-01
 1.8586528009e-01	 1.7307895378e+00	-3.1723910209e-01
 1.8191069966e-01	 1.6939642285e+00	-3.8100923387e-01
 1.6344779144e-01	 1.6958452552e+00	-3.7119020543e-01
 1.4503751555e-01	 1.6975189039e+00	-3.6052903902e-01
 1.2668291112e-01	 1.6989872719e+00	-3.4876329183e-01
 1.0838694754e-01	 1.7002525047e+00	-3.3591159786e-01
 9.0152523952e-02	 1.7013167937e+00	-3.2227492613e-01
 1.8270161575e-01	 1.7013292903e+00	-3.6650096661e-01
 1.6415843401e-01	 1.7032184954e+00	-3.5645102237e-01
 1.4566811345e-01	 1.7048994209e+00	-3.4555695263e-01
 1.2723370639e-01	 1.7063741731e+00	-3.3363806753e-01
 1.0885819514e-01	 1.7076449069e+00	-3.2081431052e-01
 9.0544491447e-02	 1.7087138232e+00	-3.0751410402e-01
 1.8349253183e-01	 1.7086943522e+00	-3.5321880555e-01
 1.6486907658e-01	 1.7105917357e+00	-3.4270668284e-01
 1.4629871134e-01	 1.7122799378e+00	-3.3142902101e-01
 1.2778450165e-01	 1.7137610743e+00	-3.1928258842e-01
 1.0932944274e-01	 1.7150373091e+00	-3.0647957170e-01
 9.0936458943e-02	 1.7161108527e+00	-2.9356241239e-01
 1.8428344792e-01	 1.7160594141e+00	-3.4081589520e-01
 1.6557971915e-01	 1.7179649759e+00	-3.2973393050e-01
 1.4692930923e-01	 1.7196604548e+00	-3.1801105822e-01
 1.2833529692e-01	 1.7211479754e+00	-3.0561595453e-01
 1.0980069034e-01	 1.7224297112e+00	-2.9284274132e-01
 9.1328426438e-02	 1.7235078823e+00	-2.8033322430e-01
 1.8507436400e-01	 1.7234244759e+00	-3.2894110765e-01
 1.6629036172e-01	 1.7253382161e+00	-3.1730414945e-01
 1.4755990713e-01	 1.7270409718e+00	-3.0516328308e-01
 1.2888609218e-01	 1.7285348766e+00	-2.9255227152e-01
 1.1027193794e-01	 1.7298221134e+00	-2.7983560620e-01
 9.1720393934e-02	 1.7309049118e+00	-2.6773856396e-01
 1.8586528009e-01	 1.7307895378e+00	-3.1723910209e-01
 1.6700100429e-01	 1.7327114564e+00	-3.0518342481e-01
 1.4819050502e-01	 1.7344214888e+00	-2.9274036978e-01
 1.2943688745e-01	 1.7359217778e+00	-2.8000068002e-01
 1.1074318553e-01	 1.7372145156e+00	-2.6738637655e-01
 9.2112361429e-02	 1.7383019414e+00	-2.5568905896e-01
 9.0152523952e-02	 1.7013167937e+00	-3.2227492613e-01
 7.1982468694e-02	 1.7021823740e+00	-3.0828053526e-01
 5.3879538934e-02	 1.7028515218e+00	-2.9628935715e-01
 3.5846420315e-02	 1.7033265524e+00	-2.8985641815e-01
 1.7885726701e-02	 1.7036098177e+00	-2.9271551994e-01
 0.0000000000e+00	 1.7037037037e+00	-3.0876309717e-01
 9.0544491447e-02	 1.7087138232e+00	-3.0751410402e-01
 7.2295435949e-02	 1.7095831669e+00	-2.9400372324e-01
 5.4113797799e-02	 1.7102552241e+00	-2.8231717377e-01
 3.6002274316e-02	 1.7107323200e+00	-2.7593692859e-01
 1.7963490730e-02	 1.7110168169e+00	-2.7856314669e-01
 0.0000000000e+00	 1.7111111111e+00	-2.9410336790e-01
 9.0936458943e-02	 1.7161108527e+00	-2.9356241239e-01
 7.2608403204e-02	 1.7169839598e+00	-2.8056013464e-01
 5.4348056664e-02	 1.7176589263e+00	-2.6912834427e-01
 3.6158128317e-02	 1.7181380877e+00	-2.6270024720e-01
 1.8041254759e-02	 1.7184238161e+00	-2.6496914017e-01
 0.0000000000e+00	 1.7185185185e+00	-2.7988402637e-01
 9.1328426438e-02	 1.7235078823e+00	-2.8033322430e-01
 7.2921370459e-02	 1.7243847527e+00	-2.6783682022e-01
 5.4582315529e-02	 1.7250626286e+00	-2.5661267011e-01
 3.6313982319e-02	 1.7255438553e+00	-2.5006603504e-01
 1.8119018788e-02	 1.7258308153e+00	-2.5190816113e-01
 0.0000000000e+00	 1.7259259259e+00	-2.6615790759e-01
 9.1720393934e-02	 1.7309049118e+00	-2.6773856396e-01
 7.3234337715e-02	 1.7317855457e+00	-2.5572189105e-01
 5.4816574394e-02	 1.7324663309e+00	-2.4466299689e-01
 3.6469836320e-02	 1.7329496229e+00	-2.3795855051e-01
 1.8196782818e-02	 1.7332378145e+00	-2.3936058505e-01
 0.0000000000e+00	 1.7333333333e+00	-2.5298423803e-01
 9.2112361429e-02	 1.7383019414e+00	-2.5568905896e-01
 7.3547304970e-02	 1.7391863386e+00	-2.4410442718e-01
 5.5050833259e-02	 1.7398700331e+00	-2.3317509293e-01
 3.6625690321e-02	 1.7403553905e+00	-2.2630651072e-01
 1.8274546847e-02	 1.7406448137e+00	-2.2731235886e-01
 0.0000000000e+00	 1.7407407407e+00	-2.4042849962e-01
 1.7407407407e+00	 0.0000000000e+00	 3.3563207414e+00
 1.7406448137e+00	 1.8274546847e-02	 3.3537836043e+00
 1.7403553905e+00	 3.6625690321e-02	 3.3478532277e+00
 1.7398700331e+00	 5.5050833259e-02	 3.3385282911e+00
 1.7391863386e+00	 7.3547304970e-02	 3.3258670653e+00
 1.7383019414e+00	 9.2112361429e-02	 3.3099558398e+00
 1.7481481481e+00	 0.0000000000e+00	 3.3410391381e+00
 1.7480518129e+00	 1.8352310876e-02	 3.3384159343e+00
 1.7477611581e+00	 3.6781544323e-02	 3.3325106485e+00
 1.7472737354e+00	 5.5285092124e-02	 3.3232487886e+00
 1.7465871315e+00	 7.3860272225e-02	 3.3106638653e+00
 1.7456989709e+00	 9.2504328924e-02	 3.2948593474e+00
 1.7555555556e+00	 0.0000000000e+00	 3.3256534672e+00
 1.7554588121e+00	 1.8430074905e-02	 3.3230018504e+00
 1.7551669258e+00	 3.6937398324e-02	 3.3171065363e+00
 1.7546774377e+00	 5.5519350988e-02	 3.3078521054e+00
 1.7539879245e+00	 7.4173239480e-02	 3.2952809558e+00
 1.7530960004e+00	 9.2896296420e-02	 3.2795484991e+00
 1.7629629630e+00	 0.0000000000e+00	 3.3101471754e+00
 1.7628658113e+00	 1.8507838934e-02	 3.3075378105e+00
 1.7625726934e+00	 3.7093252326e-02	 3.3016345321e+00
 1.7620811399e+00	 5.5753609853e-02	 3.2923141883e+00
 1.7613887174e+00	 7.4486206735e-02	 3.2796627109e+00
 1.7604930300e+00	 9.3288263915e-02	 3.2639232597e+00
 1.7703703704e+00	 0.0000000000e+00	 3.2945038754e+00
 1.7702728105e+00	 1.8585602963e-02	 3.2920204812e+00
 1.7699784610e+00	 3.7249106327e-02	 3.2860885638e+00
 1.7694848422e+00	 5.5987868718e-02	 3.2766114029e+00
 1.7687895103e+00	 7.4799173991e-02	 3.2637541293e+00
 1.7678900595e+00	 9.3680231411e-02	 3.2478845178e+00
 1.7777777778e+00	 0.0000000000e+00	 3.2787073422e+00
 1.7776798097e+00	 1.8663366992e-02	 3.2764467361e+00
 1.7773842286e+00	 3.7404960328e-02	 3.2704628427e+00
 1.7768885445e+00	 5.6222127583e-02	 3.2607205264e+00
 1.7761903033e+00	 7.5112141246e-02	 3.2475008207e+00
 1.7752870891e+00	 9.4072198906e-02	 3.2313340649e+00
 1.7383019414e+00	 9.2112361429e-02	 3.3099558398e+00
 1.7372145156e+00	 1.1074318553e-01	 3.2892132011e+00
 1.7359217778e+00	 1.2943688745e-01	 3.2627624989e+00
 1.7344214888e+00	 1.4819050502e-01	 3.2316698543e+00
 1.7327114564e+00	 1.6700100429e-01	 3.1968568338e+00
 1.7307895378e+00	 1.8586528009e-01	 3.1590455138e+00
 1.7456989709e+00	 9.2504328924e-02	 3.2948593474e+00
 1.7446069178e+00	 1.1121443313e-01	 3.2742785743e+00
 1.7433086790e+00	 1.2998768271e-01	 3.2480029782e+00
 1.7418020057e+00	 1.4882110291e-01	 3.2170539625e+00
 1.7400846966e+00	 1.6771164686e-01	 3.1823160132e+00
 1.7381545997e+00	 1.8665619617e-01	 3.1444729205e+00
 1.7530960004e+00	 9.2896296420e-02	 3.2795484991e+00
 1.7519993200e+00	 1.1168568073e-01	 3.2591482804e+00
 1.7506955802e+00	 1.3053847798e-01	 3.2331101920e+00
 1.7491825227e+00	 1.4945170081e-01	 3.2023939437e+00
 1.7474579369e+00	 1.6842228944e-01	 3.1678300589e+00
 1.7455196615e+00	 1.8744711226e-01	 3.1300469965e+00
 1.7604930300e+00	 9.3288263915e-02	 3.2639232597e+00
 1.7593917222e+00	 1.1215692833e-01	 3.2436707169e+00
 1.7580824813e+00	 1.3108927325e-01	 3.2178799954e+00
 1.7565630397e+00	 1.5008229870e-01	 3.1874339792e+00
 1.7548311771e+00	 1.6913293201e-01	 3.1530942073e+00
 1.7528847234e+00	 1.8823802835e-01	 3.1154186294e+00
 1.7678900595e+00	 9.3680231411e-02	 3.2478845178e+00
 1.7667841244e+00	 1.1262817593e-01	 3.2276955416e+00
 1.7654693825e+00	 1.3164006851e-01	 3.2021098140e+00
 1.7639435567e+00	 1.5071289660e-01	 3.1719201137e+00
 1.7622044173e+00	 1.6984357458e-01	 3.1378058417e+00
 1.7602497852e+00	 1.8902894443e-01	 3.1002411370e+00
 1.7752870891e+00	 9.4072198906e-02	 3.2313340649e+00
 1.7741765266e+00	 1.1309942352e-01	 3.2110736449e+00
 1.7728562837e+00	 1.3219086378e-01	 3.1855986101e+00
 1.7713240736e+00	 1.5134349449e-01	 3.1556002167e+00
 1.7695776576e+00	 1.7055421715e-01	 3.1216644517e+00
 1.7676148471e+00	 1.8981986052e-01	 3.0841702279e+00
 1.7307895378e+00	 1.8586528009e-01	 3.1590455138e+00
 1.7286536420e+00	 2.0478015669e-01	 3.1200073983e+00
 1.7263017320e+00	 2.2374238858e-01	 3.0795790922e+00
 1.7237318277e+00	 2.4274866134e-01	 3.0351215404e+00
 1.7209420078e+00	 2.6179559255e-01	 2.9836122850e+00
 1.7179304125e+00	 2.8087973282e-01	 2.9216428983e+00
 1.7381545997e+00	 1.8665619617e-01	 3.1444729205e+00
 1.7360096149e+00	 2.0565156161e-01	 3.1053075237e+00
 1.7336476969e+00	 2.2469448385e-01	 3.0647820001e+00
 1.7310668568e+00	 2.4378163437e-01	 3.0203633347e+00
 1.7282651653e+00	 2.6290961635e-01	 2.9690998661e+00
 1.7252407547e+00	 2.8207496573e-01	 2.9076092630e+00
 1.7455196615e+00	 1.8744711226e-01	 3.1300469965e+00
 1.7433655879e+00	 2.0652296653e-01	 3.0908282313e+00
 1.7409936617e+00	 2.2564657912e-01	 3.0502724583e+00
 1.7384018858e+00	 2.4481460740e-01	 3.0059668289e+00
 1.7355883228e+00	 2.6402364015e-01	 2.9550429681e+00
 1.7325510969e+00	 2.8327019863e-01	 2.8941551365e+00
 1.7528847234e+00	 1.8823802835e-01	 3.1154186294e+00
 1.7507215608e+00	 2.0739437145e-01	 3.0761791335e+00
 1.7483396265e+00	 2.2659867439e-01	 3.0356200442e+00
 1.7457369149e+00	 2.4584758042e-01	 2.9914641961e+00
 1.7429114802e+00	 2.6513766394e-01	 2.9409403529e+00
 1.7398614390e+00	 2.8446543154e-01	 2.8807511891e+00
 1.7602497852e+00	 1.8902894443e-01	 3.1002411370e+00
 1.7580775338e+00	 2.0826577637e-01	 3.0609726209e+00
 1.7556855913e+00	 2.2755076966e-01	 3.0203975980e+00
 1.7530719439e+00	 2.4688055345e-01	 2.9763915066e+00
 1.7502346377e+00	 2.6625168774e-01	 2.9262954791e+00
 1.7471717812e+00	 2.8566066444e-01	 2.8668737685e+00
 1.7676148471e+00	 1.8981986052e-01	 3.0841702279e+00
 1.7654335067e+00	 2.0913718130e-01	 3.0448238268e+00
 1.7630315561e+00	 2.2850286493e-01	 3.0041811902e+00
 1.7604069730e+00	 2.4791352648e-01	 2.9602887009e+00
 1.7575577952e+00	 2.6736571154e-01	 2.9106164831e+00
 1.7544821234e+00	 2.8685589735e-01	 2.8520048883e+00
 1.7179304125e+00	 2.8087973282e-01	 2.9216428983e+00
 1.7146952459e+00	 2.9999756695e-01	 2.8507099132e+00
 1.7112347784e+00	 3.1914551510e-01	 2.7768207506e+00
 1.7075473489e+00	 3.3831993415e-01	 2.7028986500e+00
 1.7036313674e+00	 3.5751711906e-01	 2.6317372069e+00
 1.6994853173e+00	 3.7673330439e-01	 2.5665309363e+00
 1.7252407547e+00	 2.8207496573e-01	 2.9076092630e+00
 1.7219918214e+00	 3.0127415234e-01	 2.8371733941e+00
 1.7185166285e+00	 3.2050358113e-01	 2.7635390468e+00
 1.7148135078e+00	 3.3975959345e-01	 2.6894919880e+00
 1.7108808626e+00	 3.5903846851e-01	 2.6176081764e+00
 1.7067171697e+00	 3.7833642483e-01	 2.5510416709e+00
 1.7325510969e+00	 2.8327019863e-01	 2.8941551365e+00
 1.7292883969e+00	 3.0255073773e-01	 2.8243647341e+00
 1.7257984786e+00	 3.2186164715e-01	 2.7511195852e+00
 1.7220796667e+00	 3.4119925274e-01	 2.6770258250e+00
 1.7181303578e+00	 3.6055981795e-01	 2.6043965592e+00
 1.7139490222e+00	 3.7993954528e-01	 2.5363792628e+00
 1.7398614390e+00	 2.8446543154e-01	 2.8807511891e+00
 1.7365849724e+00	 3.0382732312e-01	 2.8117364559e+00
 1.7330803287e+00	 3.2321971317e-01	 2.7390116482e+00
 1.7293458257e+00	 3.4263891204e-01	 2.6649628662e+00
 1.7253798530e+00	 3.6208116739e-01	 2.5915968317e+00
 1.7211808746e+00	 3.8154266572e-01	 2.5220986464e+00
 1.7471717812e+00	 2.8566066444e-01	 2.8668737685e+00
 1.7438815480e+00	 3.0510390851e-01	 2.7987478778e+00
 1.7403621788e+00	 3.2457777919e-01	 2.7266725191e+00
 1.7366119846e+00	 3.4407857133e-01	 2.6527751135e+00
 1.7326293481e+00	 3.6360251683e-01	 2.5787141537e+00
 1.7284127270e+00	 3.8314578617e-01	 2.5077665231e+00
 1.7544821234e+00	 2.8685589735e-01	 2.8520048883e+00
 1.7511781235e+00	 3.0638049390e-01	 2.7848651134e+00
 1.7476440290e+00	 3.2593584521e-01	 2.7135674988e+00
 1.7438781435e+00	 3.4551823062e-01	 2.6399439032e+00
 1.7398788433e+00	 3.6512386628e-01	 2.5652644324e+00
 1.7356445794e+00	 3.8474890661e-01	 2.4929611925e+00
 1.6994853173e+00	 3.7673330439e-01	 2.5665309363e+00
 1.6951077576e+00	 3.9596466588e-01	 2.4980344744e+00
 1.6904973251e+00	 4.1520732216e-01	 2.4137597856e+00
 1.6856527368e+00	 4.3445733650e-01	 2.3186393407e+00
 1.6805727923e+00	 4.5371071868e-01	 2.2177986104e+00
 1.6752563754e+00	 4.7296342700e-01	 2.1165845414e+00
 1.7067171697e+00	 3.7833642483e-01	 2.5510416709e+00
 1.7023209821e+00	 3.9764962191e-01	 2.4822496121e+00
 1.6976909307e+00	 4.1697416183e-01	 2.3989305310e+00
 1.6928257272e+00	 4.3630609112e-01	 2.3052803416e+00
 1.6877241659e+00	 4.5564140259e-01	 2.2056849444e+00
 1.6823851259e+00	 4.7497603733e-01	 2.1047529964e+00
 1.7139490222e+00	 3.7993954528e-01	 2.5363792628e+00
 1.7095342066e+00	 3.9933457793e-01	 2.4671247018e+00
 1.7048845364e+00	 4.1874100150e-01	 2.3845597723e+00
 1.6999987176e+00	 4.3815484574e-01	 2.2921958973e+00
 1.6948755395e+00	 4.5757208650e-01	 2.1937316451e+00
 1.6895138764e+00	 4.7698864766e-01	 2.0930897622e+00
 1.7211808746e+00	 3.8154266572e-01	 2.5220986464e+00
 1.7167474311e+00	 4.0101953396e-01	 2.4522749339e+00
 1.7120781420e+00	 4.2050784117e-01	 2.3703168239e+00
 1.7071717080e+00	 4.4000360037e-01	 2.2791021092e+00
 1.7020269131e+00	 4.5950277041e-01	 2.1816930788e+00
 1.6966426270e+00	 4.7900125799e-01	 2.0813777856e+00
 1.7284127270e+00	 3.8314578617e-01	 2.5077665231e+00
 1.7239606556e+00	 4.0270448998e-01	 2.4373269900e+00
 1.7192717476e+00	 4.2227468084e-01	 2.3558822733e+00
 1.7143446983e+00	 4.4185235499e-01	 2.2657262023e+00
 1.7091782866e+00	 4.6143345432e-01	 2.1693346657e+00
 1.7037713775e+00	 4.8101386832e-01	 2.0694110895e+00
 1.7356445794e+00	 3.8474890661e-01	 2.4929611925e+00
 1.7311738801e+00	 4.0438944601e-01	 2.4219188692e+00
 1.7264653533e+00	 4.2404152051e-01	 2.3409477997e+00
 1.7215176887e+00	 4.4370110961e-01	 2.2518063320e+00
 1.7163296602e+00	 4.6336413823e-01	 2.1564326712e+00
 1.7109001280e+00	 4.8302647864e-01	 2.0569945435e+00
 1.6752563754e+00	 4.7296342700e-01	 2.1165845414e+00
 1.6697024566e+00	 4.9221137030e-01	 2.0189688704e+00
 1.6639100951e+00	 5.1145041009e-01	 1.9238664690e+00
 1.6578784408e+00	 5.3067636284e-01	 1.8294872955e+00
 1.6516067361e+00	 5.4988500227e-01	 1.7344159207e+00
 1.6450943180e+00	 5.6907206175e-01	 1.6376278579e+00
 1.6823851259e+00	 4.7497603733e-01	 2.1047529964e+00
 1.6768075734e+00	 4.9430588677e-01	 2.0064653032e+00
 1.6709905636e+00	 5.1362679481e-01	 1.9104665806e+00
 1.6649332427e+00	 5.3293456013e-01	 1.8153150846e+00
 1.6586348499e+00	 5.5222493845e-01	 1.7199471632e+00
 1.6520947193e+00	 5.7149364500e-01	 1.6236944396e+00
 1.6895138764e+00	 4.7698864766e-01	 2.0930897622e+00
 1.6839126902e+00	 4.9640040324e-01	 1.9942185717e+00
 1.6780710321e+00	 5.1580317954e-01	 1.8973982104e+00
 1.6719880445e+00	 5.3519275742e-01	 1.8015095085e+00
 1.6656629636e+00	 5.5456487463e-01	 1.7058164596e+00
 1.6590951207e+00	 5.7391522824e-01	 1.6099843680e+00
 1.6966426270e+00	 4.7900125799e-01	 2.0813777856e+00
 1.6910178071e+00	 4.9849491971e-01	 1.9820387473e+00
 1.6851515005e+00	 5.1797956426e-01	 1.8845060593e+00
 1.6790428464e+00	 5.3745095471e-01	 1.7879573745e+00
 1.6726910774e+00	 5.5690481081e-01	 1.6919601954e+00
 1.6660955220e+00	 5.7633681148e-01	 1.5964910966e+00
 1.7037713775e+00	 4.8101386832e-01	 2.0694110895e+00
 1.6981229239e+00	 5.0058943618e-01	 1.9697469467e+00
 1.6922319690e+00	 5.2015594899e-01	 1.8716456334e+00
 1.6860976483e+00	 5.3970915200e-01	 1.7745558419e+00
 1.6797191912e+00	 5.5924474699e-01	 1.6783244376e+00
 1.6730959234e+00	 5.7875839472e-01	 1.5832168701e+00
 1.7109001280e+00	 4.8302647864e-01	 2.0569945435e+00
 1.7052280407e+00	 5.0268395265e-01	 1.9571750801e+00
 1.6993124375e+00	 5.2233233371e-01	 1.8586829728e+00
 1.6931524502e+00	 5.4196734928e-01	 1.7612121326e+00
 1.6867473050e+00	 5.6158468317e-01	 1.6648646298e+00
 1.6800963247e+00	 5.8117997796e-01	 1.5701724054e+00
 1.6450943180e+00	 5.6907206175e-01	 1.6376278579e+00
 1.6383406195e+00	 5.8823323685e-01	 1.5328004270e+00
 1.6313451719e+00	 6.0736418786e-01	 1.4180717782e+00
 1.6241076058e+00	 6.2646054246e-01	 1.2996497926e+00
 1.6166276532e+00	 6.4551789849e-01	 1.1840335181e+00
 1.6089051488e+00	 6.6453182672e-01	 1.0779635044e+00
 1.6520947193e+00	 5.7149364500e-01	 1.6236944396e+00
 1.6453122817e+00	 5.9073635701e-01	 1.5200685993e+00
 1.6382870662e+00	 6.0994871632e-01	 1.4065757921e+00
 1.6310187020e+00	 6.2912633200e-01	 1.2890997488e+00
 1.6235069198e+00	 6.4826478316e-01	 1.1738371385e+00
 1.6157515537e+00	 6.6735962173e-01	 1.0672486133e+00
 1.6590951207e+00	 5.7391522824e-01	 1.6099843680e+00
 1.6522839439e+00	 5.9323947717e-01	 1.5074208447e+00
 1.6452289606e+00	 6.1253324478e-01	 1.3950679366e+00
 1.6379297982e+00	 6.3179212154e-01	 1.2784738167e+00
 1.6303861865e+00	 6.5101166784e-01	 1.1635216220e+00
 1.6225979586e+00	 6.7018741674e-01	 1.0563812221e+00
 1.6660955220e+00	 5.7633681148e-01	 1.5964910966e+00
 1.6592556061e+00	 5.9574259732e-01	 1.4949080352e+00
 1.6521708549e+00	 6.1511777323e-01	 1.3836496570e+00
 1.6448408944e+00	 6.3445791109e-01	 1.2679171510e+00
 1.6372654531e+00	 6.5375855251e-01	 1.1532689909e+00
 1.6294443634e+00	 6.7301521174e-01	 1.0455734414e+00
 1.6730959234e+00	 5.7875839472e-01	 1.5832168701e+00
 1.6662272684e+00	 5.9824571748e-01	 1.4825888418e+00
 1.6591127493e+00	 6.1770230169e-01	 1.3724292228e+00
 1.6517519906e+00	 6.3712370063e-01	 1.2575807747e+00
 1.6441447197e+00	 6.5650543719e-01	 1.1432661998e+00
 1.6362907683e+00	 6.7584300675e-01	 1.0350414002e+00
 1.6800963247e+00	 5.8117997796e-01	 1.5701724054e+00
 1.6731989306e+00	 6.0074883764e-01	 1.4705294003e+00
 1.6660546436e+00	 6.2028683015e-01	 1.3615213758e+00
 1.6586630868e+00	 6.3978949017e-01	 1.2476212063e+00
 1.6510239863e+00	 6.5925232186e-01	 1.1337047397e+00
 1.6431371732e+00	 6.7867080176e-01	 1.0250048237e+00
 1.6089051488e+00	 6.6453182672e-01	 1.0779635044e+00
 1.6009400311e+00	 6.8349787376e-01	 9.7823856165e-01
 1.5927323441e+00	 7.0241156498e-01	 8.7648719912e-01
 1.5842822383e+00	 7.2126840757e-01	 7.7202134454e-01
 1.5755899720e+00	 7.4006389356e-01	 6.6433209107e-01
 1.5666559119e+00	 7.5879350301e-01	 5.4645850310e-01
 1.6157515537e+00	 6.6735962173e-01	 1.0672486133e+00
 1.6077525418e+00	 6.8640637535e-01	 9.6694011494e-01
 1.5995099285e+00	 7.0540055037e-01	 8.6548794477e-01
 1.5910238649e+00	 7.2433763484e-01	 7.6215707982e-01
 1.5822946102e+00	 7.4321310162e-01	 6.5630319080e-01
 1.5733225328e+00	 7.6202241153e-01	 5.3907097100e-01
 1.6225979586e+00	 6.7018741674e-01	 1.0563812221e+00
 1.6145650526e+00	 6.8931487694e-01	 9.5540701290e-01
 1.6062875130e+00	 7.0838953575e-01	 8.5412168237e-01
 1.5977654914e+00	 7.2740686210e-01	 7.5181885173e-01
 1.5889992484e+00	 7.4636230968e-01	 6.4752309791e-01
 1.5799891537e+00	 7.6525132006e-01	 5.3117464529e-01
 1.6294443634e+00	 6.7301521174e-01	 1.0455734414e+00
 1.6213775634e+00	 6.9222337853e-01	 9.4387359622e-01
 1.6130650974e+00	 7.1137852113e-01	 8.4263536017e-01
 1.6045071180e+00	 7.3047608937e-01	 7.4125568569e-01
 1.5957038866e+00	 7.4951151774e-01	 6.3826526257e-01
 1.5866557746e+00	 7.6848022858e-01	 5.2300352452e-01
 1.6362907683e+00	 6.7584300675e-01	 1.0350414002e+00
 1.6281900741e+00	 6.9513188012e-01	 9.3257735353e-01
 1.6198426818e+00	 7.1436750652e-01	 8.3127828328e-01
 1.6112487445e+00	 7.3354531663e-01	 7.3071827329e-01
 1.6024085247e+00	 7.5266072579e-01	 6.2880226751e-01
 1.5933223955e+00	 7.7170913710e-01	 5.1478405165e-01
 1.6431371732e+00	 6.7867080176e-01	 1.0250048237e+00
 1.6350025849e+00	 6.9804038171e-01	 9.2175847146e-01
 1.6266202663e+00	 7.1735649190e-01	 8.2030163130e-01
 1.6179903711e+00	 7.3661454390e-01	 7.2045845358e-01
 1.6091131629e+00	 7.5580993385e-01	 6.1939853162e-01
 1.5999890164e+00	 7.7493804563e-01	 5.0673522935e-01
 1.5666559119e+00	 7.5879350301e-01	 5.4645850310e-01
 1.5574805343e+00	 7.7745270716e-01	 4.2091306974e-01
 1.5480644257e+00	 7.9603697169e-01	 3.0113781244e-01
 1.5384082838e+00	 8.1454175999e-01	 1.8800287943e-01
 1.5285129176e+00	 8.3296253649e-01	 8.2171866567e-02
 1.5183792481e+00	 8.5129477005e-01	-1.5961243506e-02
 1.5733225328e+00	 7.6202241153e-01	 5.3907097100e-01
 1.5641081110e+00	 7.8076101655e-01	 4.1370865671e-01
 1.5546519339e+00	 7.9942436306e-01	 2.9322468726e-01
 1.5449547020e+00	 8.1800789514e-01	 1.7902050681e-01
 1.5350172279e+00	 8.3650705793e-01	 7.2284548965e-02
 1.5248404364e+00	 8.5491730098e-01	-2.6073147654e-02
 1.5799891537e+00	 7.6525132006e-01	 5.3117464529e-01
 1.5707356877e+00	 7.8406932594e-01	 4.0640317130e-01
 1.5612394421e+00	 8.0281175443e-01	 2.8566247330e-01
 1.5515011203e+00	 8.2147403028e-01	 1.7075119055e-01
 1.5415215382e+00	 8.4005157936e-01	 6.3250989837e-02
 1.5313016246e+00	 8.5853983192e-01	-3.5540829925e-02
 1.5866557746e+00	 7.6848022858e-01	 5.2300352452e-01
 1.5773632645e+00	 7.8737763534e-01	 3.9918853067e-01
 1.5678269503e+00	 8.0619914579e-01	 2.7862362885e-01
 1.5580475385e+00	 8.2494016543e-01	 1.6337226814e-01
 1.5480258485e+00	 8.4359610079e-01	 5.5279450380e-02
 1.5377628129e+00	 8.6216236286e-01	-4.4097366033e-02
 1.5933223955e+00	 7.7170913710e-01	 5.1478405165e-01
 1.5839908412e+00	 7.9068594473e-01	 3.9224974466e-01
 1.5744144585e+00	 8.0958653716e-01	 2.7227396637e-01
 1.5645939567e+00	 8.2840630058e-01	 1.5705427613e-01
 1.5545301588e+00	 8.4714062222e-01	 4.8570789412e-02
 1.5442240012e+00	 8.6578489379e-01	-5.1484310824e-02
 1.5999890164e+00	 7.7493804563e-01	 5.0673522935e-01
 1.5906184180e+00	 7.9399425412e-01	 3.8576502087e-01
 1.5810019667e+00	 8.1297392853e-01	 2.6677275507e-01
 1.5711403750e+00	 8.3187243573e-01	 1.5196105822e-01
 1.5610344690e+00	 8.5068514365e-01	 4.3318585788e-02
 1.5506851895e+00	 8.6940742473e-01	-5.7451552274e-02
 1.5183792481e+00	 8.5129477005e-01	-1.5961243506e-02
 1.5080083085e+00	 8.6953393729e-01	-1.1230325157e-01
 1.4974012445e+00	 8.8767552606e-01	-2.1527481700e-01
 1.4865593143e+00	 9.0571503889e-01	-3.2883194334e-01
 1.4754838885e+00	 9.2364799640e-01	-4.5210049825e-01
 1.4641764501e+00	 9.4146994080e-01	-5.6594016215e-01
 1.5248404364e+00	 8.5491730098e-01	-2.6073147654e-02
 1.5144253651e+00	 8.7323408170e-01	-1.2129641158e-01
 1.5037731646e+00	 8.9145286873e-01	-2.2128832937e-01
 1.4928850986e+00	 9.0956914544e-01	-3.2973156882e-01
 1.4817625433e+00	 9.2757841340e-01	-4.5083908489e-01
 1.4704069882e+00	 9.4547619587e-01	-5.7316285877e-01
 1.5313016246e+00	 8.5853983192e-01	-3.5540829925e-02
 1.5208424217e+00	 8.7693422612e-01	-1.3031507447e-01
 1.5101450848e+00	 8.9523021139e-01	-2.2841257499e-01
 1.4992108829e+00	 9.1342325199e-01	-3.3313669598e-01
 1.4880411982e+00	 9.3150883041e-01	-4.4834463689e-01
 1.4766375263e+00	 9.4948245094e-01	-5.7545040479e-01
 1.5377628129e+00	 8.6216236286e-01	-4.4097366033e-02
 1.5272594784e+00	 8.8063437053e-01	-1.3901893082e-01
 1.5165170050e+00	 8.9900755406e-01	-2.3623411620e-01
 1.5055366672e+00	 9.1727735854e-01	-3.3856227097e-01
 1.4943198530e+00	 9.3543924742e-01	-4.4939962543e-01
 1.4828680644e+00	 9.5348870600e-01	-5.7280078581e-01
 1.5442240012e+00	 8.6578489379e-01	-5.1484310824e-02
 1.5336765350e+00	 8.8433451494e-01	-1.4707748502e-01
 1.5228889252e+00	 9.0278489672e-01	-2.4435067116e-01
 1.5118624515e+00	 9.2113146508e-01	-3.4553572399e-01
 1.5005985079e+00	 9.3936966442e-01	-4.5346392082e-01
 1.4890986024e+00	 9.5749496107e-01	-5.7165073927e-01
 1.5506851895e+00	 8.6940742473e-01	-5.7451552274e-02
 1.5400935916e+00	 8.8803465936e-01	-1.5416988092e-01
 1.5292608454e+00	 9.0656223938e-01	-2.5237091174e-01
 1.5181882358e+00	 9.2498557163e-01	-3.5359674028e-01
 1.5068771627e+00	 9.4330008143e-01	-4.6001091595e-01
 1.4953291405e+00	 9.6150121614e-01	-5.7448675581e-01
 1.4641764501e+00	 9.4146994080e-01	-5.6594016215e-01
 1.4526385939e+00	 9.5917643938e-01	-6.6601525788e-01
 1.4408720264e+00	 9.7676308797e-01	-7.5015731508e-01
 1.4288785648e+00	 9.9422551438e-01	-8.2993634820e-01
 1.4166601368e+00	 1.0115593819e+00	-9.1751507967e-01
 1.4042187794e+00	 1.0287603929e+00	-1.0253691481e+00
 1.4704069882e+00	 9.4547619587e-01	-5.7316285877e-01
 1.4588200348e+00	 9.6325804125e-01	-6.7671906777e-01
 1.4470033967e+00	 9.8091952664e-01	-7.6109355529e-01
 1.4349588991e+00	 9.9845626125e-01	-8.3879018463e-01
 1.4226884778e+00	 1.0158638899e+00	-9.2289994925e-01
 1.4101941785e+00	 1.0331380967e+00	-1.0268132077e+00
 1.4766375263e+00	 9.4948245094e-01	-5.7545040479e-01
 1.4650014756e+00	 9.6733964312e-01	-6.8470217029e-01
 1.4531347670e+00	 9.8507596531e-01	-7.7093357399e-01
 1.4410392335e+00	 1.0026870081e+00	-8.4757650543e-01
 1.4287168188e+00	 1.0201683980e+00	-9.2865339579e-01
 1.4161695776e+00	 1.0375158005e+00	-1.0284814405e+00
 1.4828680644e+00	 9.5348870600e-01	-5.7280078581e-01
 1.4711829164e+00	 9.7142124499e-01	-6.8967182591e-01
 1.4592661374e+00	 9.8923240398e-01	-7.7939135302e-01
 1.4471195678e+00	 1.0069177550e+00	-8.5606469147e-01
 1.4347451599e+00	 1.0244729060e+00	-9.3464911985e-01
 1.4221449766e+00	 1.0418935043e+00	-1.0304010166e+00
 1.4890986024e+00	 9.5749496107e-01	-5.7165073927e-01
 1.4773643572e+00	 9.7550284686e-01	-6.9134503611e-01
 1.4653975077e+00	 9.9338884266e-01	-7.8619030180e-01
 1.4531999021e+00	 1.0111485019e+00	-8.6403225874e-01
 1.4407735009e+00	 1.0287774140e+00	-9.4076668448e-01
 1.4281203757e+00	 1.0462712081e+00	-1.0326017164e+00
 1.4953291405e+00	 9.6150121614e-01	-5.7448675581e-01
 1.4835457981e+00	 9.7958444873e-01	-6.8992988000e-01
 1.4715288780e+00	 9.9754528133e-01	-7.9106386156e-01
 1.4592802364e+00	 1.0153792487e+00	-8.7126548480e-01
 1.4468018419e+00	 1.0330819220e+00	-9.4689218064e-01
 1.4340957747e+00	 1.0506489119e+00	-1.0351166518e+00
 1.4042187794e+00	 1.0287603929e+00	-1.0253691481e+00
 1.3915566382e+00	 1.0458242917e+00	-1.1316641881e+00
 1.3786759660e+00	 1.0627468689e+00	-1.2138267684e+00
 1.3655791219e+00	 1.0795239637e+00	-1.2828999167e+00
 1.3522685700e+00	 1.0961514681e+00	-1.3491340122e+00
 1.3387468776e+00	 1.1126253296e+00	-1.4214020334e+00
 1.4101941785e+00	 1.0331380967e+00	-1.0268132077e+00
 1.3974781558e+00	 1.0502746079e+00	-1.1303161111e+00
 1.3845426722e+00	 1.0672691960e+00	-1.2119656196e+00
 1.3713900969e+00	 1.0841176827e+00	-1.2830243064e+00
 1.3580229044e+00	 1.1008159424e+00	-1.3540292122e+00
 1.3444436729e+00	 1.1173599055e+00	-1.4308110451e+00
 1.4161695776e+00	 1.0375158005e+00	-1.0284814405e+00
 1.4033996734e+00	 1.0547249240e+00	-1.1288806966e+00
 1.3904093785e+00	 1.0717915231e+00	-1.2099770589e+00
 1.3772010719e+00	 1.0887114017e+00	-1.2833031068e+00
 1.3637772387e+00	 1.1054804168e+00	-1.3597246811e+00
 1.3501404681e+00	 1.1220944814e+00	-1.4381032193e+00
 1.4221449766e+00	 1.0418935043e+00	-1.0304010166e+00
 1.4093211910e+00	 1.0591752401e+00	-1.1275276554e+00
 1.3962760847e+00	 1.0763138502e+00	-1.2081020020e+00
 1.3830120469e+00	 1.0933051207e+00	-1.2839769234e+00
 1.3695315730e+00	 1.1101448911e+00	-1.3663891382e+00
 1.3558372633e+00	 1.1268290572e+00	-1.4435117066e+00
 1.4281203757e+00	 1.0462712081e+00	-1.0326017164e+00
 1.4152427086e+00	 1.0636255563e+00	-1.1264260875e+00
 1.4021427909e+00	 1.0808361773e+00	-1.2065785838e+00
 1.3888230219e+00	 1.0978988397e+00	-1.2852824714e+00
 1.3752859074e+00	 1.1148093654e+00	-1.3730829096e+00
 1.3615340585e+00	 1.1315636331e+00	-1.4472755214e+00
 1.4340957747e+00	 1.0506489119e+00	-1.0351166518e+00
 1.4211642262e+00	 1.0680758724e+00	-1.1257452558e+00
 1.4080094972e+00	 1.0853585044e+00	-1.2056429574e+00
 1.3946339969e+00	 1.1024925587e+00	-1.2874533765e+00
 1.3810402417e+00	 1.1194738398e+00	-1.3777501403e+00
 1.3672308537e+00	 1.1362982090e+00	-1.4496392057e+00
 1.3387468776e+00	 1.1126253296e+00	-1.4214020334e+00
 1.3250167139e+00	 1.1289415548e+00	-1.4957034779e+00
 1.3110808483e+00	 1.1450962124e+00	-1.5692968190e+00
 1.2969421483e+00	 1.1610854363e+00	-1.6385192685e+00
 1.2826035779e+00	 1.1769054288e+00	-1.6991407335e+00
 1.2680681955e+00	 1.1925524634e+00	-1.7465068473e+00
 1.3444436729e+00	 1.1173599055e+00	-1.4308110451e+00
 1.3306550829e+00	 1.1337455615e+00	-1.5006334250e+00
 1.3166599157e+00	 1.1499689623e+00	-1.5708410634e+00
 1.3024610511e+00	 1.1660262254e+00	-1.6378570861e+00
 1.2880614655e+00	 1.1819135370e+00	-1.6974636625e+00
 1.2734642304e+00	 1.1976271548e+00	-1.7449491981e+00
 1.3501404681e+00	 1.1220944814e+00	-1.4381032193e+00
 1.3362934519e+00	 1.1385495681e+00	-1.5045603995e+00
 1.3222389832e+00	 1.1548417121e+00	-1.5721584536e+00
 1.3079799538e+00	 1.1709670145e+00	-1.6374214749e+00
 1.2935193531e+00	 1.1869216452e+00	-1.6961639760e+00
 1.2788602653e+00	 1.2027018461e+00	-1.7436423228e+00
 1.3558372633e+00	 1.1268290572e+00	-1.4435117066e+00
 1.3419318209e+00	 1.1433535747e+00	-1.5075677266e+00
 1.3278180506e+00	 1.1597144619e+00	-1.5732250505e+00
 1.3134988566e+00	 1.1759078036e+00	-1.6371235163e+00
 1.2989772406e+00	 1.1919297534e+00	-1.6951297146e+00
 1.2842563001e+00	 1.2077765374e+00	-1.7424927465e+00
 1.3615340585e+00	 1.1315636331e+00	-1.4472755214e+00
 1.3475701899e+00	 1.1481575813e+00	-1.5097468601e+00
 1.3333971181e+00	 1.1645872118e+00	-1.5740266529e+00
 1.3190177593e+00	 1.1808485927e+00	-1.6368849842e+00
 1.3044351282e+00	 1.1969378616e+00	-1.6942599115e+00
 1.2896523350e+00	 1.2128512288e+00	-1.7414176318e+00
 1.3672308537e+00	 1.1362982090e+00	-1.4496392057e+00
 1.3532085589e+00	 1.1529615879e+00	-1.5111970091e+00
 1.3389761855e+00	 1.1694599616e+00	-1.5745584033e+00
 1.3245366621e+00	 1.1857893818e+00	-1.6366379447e+00
 1.3098930158e+00	 1.2019459698e+00	-1.6934642004e+00
 1.2950483699e+00	 1.2179259201e+00	-1.7403444118e+00
 1.2680681955e+00	 1.1925524634e+00	-1.7465068473e+00
 1.2533391515e+00	 1.2080228880e+00	-1.7892098846e+00
 1.2384196861e+00	 1.2233131273e+00	-1.8357833733e+00
 1.2233131273e+00	 1.2384196861e+00	-1.8811532066e+00
 1.2080228880e+00	 1.2533391515e+00	-1.9202413989e+00
 1.1925524634e+00	 1.2680681955e+00	-1.9481356224e+00
 1.2734642304e+00	 1.1976271548e+00	-1.7449491981e+00
 1.2586725095e+00	 1.2131634109e+00	-1.7881938367e+00
 1.2436895571e+00	 1.2285187151e+00	-1.8351584623e+00
 1.2285187151e+00	 1.2436895571e+00	-1.8808684398e+00
 1.2131634109e+00	 1.2586725095e+00	-1.9203449340e+00
 1.1976271548e+00	 1.2734642304e+00	-1.9487792945e+00
 1.2788602653e+00	 1.2027018461e+00	-1.7436423228e+00
 1.2640058676e+00	 1.2183039338e+00	-1.7872095268e+00
 1.2489594281e+00	 1.2337243029e+00	-1.8344083443e+00
 1.2337243029e+00	 1.2489594281e+00	-1.8803453124e+00
 1.2183039338e+00	 1.2640058676e+00	-1.9201203958e+00
 1.2027018461e+00	 1.2788602653e+00	-1.9490063995e+00
 1.2842563001e+00	 1.2077765374e+00	-1.7424927465e+00
 1.2693392257e+00	 1.2234444568e+00	-1.7861958964e+00
 1.2542292991e+00	 1.2389298907e+00	-1.8334910842e+00
 1.2389298907e+00	 1.2542292991e+00	-1.8795478104e+00
 1.2234444568e+00	 1.2693392257e+00	-1.9195245884e+00
 1.2077765374e+00	 1.2842563001e+00	-1.9487535670e+00
 1.2896523350e+00	 1.2128512288e+00	-1.7414176318e+00
 1.2746725838e+00	 1.2285849797e+00	-1.7851019712e+00
 1.2594991701e+00	 1.2441354784e+00	-1.8323745271e+00
 1.2441354784e+00	 1.2594991701e+00	-1.8784496366e+00
 1.2285849797e+00	 1.2746725838e+00	-1.9185242005e+00
 1.2128512288e+00	 1.2896523350e+00	-1.9479676998e+00
 1.2950483699e+00	 1.2179259201e+00	-1.7403444118e+00
 1.2800059419e+00	 1.2337255026e+00	-1.7838865235e+00
 1.2647690411e+00	 1.2493410662e+00	-1.8310359861e+00
 1.2493410662e+00	 1.2647690411e+00	-1.8770339197e+00
 1.2337255026e+00	 1.2800059419e+00	-1.9170955313e+00
 1.2179259201e+00	 1.2950483699e+00	-1.9466057138e+00
 1.1925524634e+00	 1.2680681955e+00	-1.9481356224e+00
 1.1769054288e+00	 1.2826035779e+00	-1.9744175257e+00
 1.1610854363e+00	 1.2969421483e+00	-2.0067193535e+00
 1.1450962124e+00	 1.3110808483e+00	-2.0377162720e+00
 1.1289415548e+00	 1.3250167139e+00	-2.0605967567e+00
 1.1126253296e+00	 1.3387468776e+00	-2.0692223899e+00
 1.1976271548e+00	 1.2734642304e+00	-1.9487792945e+00
 1.1819135370e+00	 1.2880614655e+00	-1.9748831473e+00
 1.1660262254e+00	 1.3024610511e+00	-2.0056329392e+00
 1.1499689623e+00	 1.3166599157e+00	-2.0341821122e+00
 1.1337455615e+00	 1.3306550829e+00	-2.0542630531e+00
 1.1173599055e+00	 1.3444436729e+00	-2.0603504590e+00
 1.2027018461e+00	 1.2788602653e+00	-1.9490063995e+00
 1.1869216452e+00	 1.2935193531e+00	-1.9749701862e+00
 1.1709670145e+00	 1.3079799538e+00	-2.0044400979e+00
 1.1548417121e+00	 1.3222389832e+00	-2.0309969122e+00
 1.1385495681e+00	 1.3362934519e+00	-2.0488647498e+00
 1.1220944814e+00	 1.3501404681e+00	-2.0530782520e+00
 1.2077765374e+00	 1.2842563001e+00	-1.9487535670e+00
 1.1919297534e+00	 1.2989772406e+00	-1.9745807695e+00
 1.1759078036e+00	 1.3134988566e+00	-2.0029930095e+00
 1.1597144619e+00	 1.3278180506e+00	-2.0279479243e+00
 1.1433535747e+00	 1.3419318209e+00	-2.0441096770e+00
 1.1268290572e+00	 1.3558372633e+00	-2.0470201944e+00
 1.2128512288e+00	 1.2896523350e+00	-1.9479676998e+00
 1.1969378616e+00	 1.3044351282e+00	-1.9736279223e+00
 1.1808485927e+00	 1.3190177593e+00	-2.0011556228e+00
 1.1645872118e+00	 1.3333971181e+00	-2.0248352699e+00
 1.1481575813e+00	 1.3475701899e+00	-2.0397198490e+00
 1.1315636331e+00	 1.3615340585e+00	-2.0418064086e+00
 1.2179259201e+00	 1.2950483699e+00	-1.9466057138e+00
 1.2019459698e+00	 1.3098930158e+00	-1.9720353152e+00
 1.1857893818e+00	 1.3245366621e+00	-1.9988034064e+00
 1.1694599616e+00	 1.3389761855e+00	-2.0214716904e+00
 1.1529615879e+00	 1.3532085589e+00	-2.0354312089e+00
 1.1362982090e+00	 1.3672308537e+00	-2.0370824488e+00
 1.1126253296e+00	 1.3387468776e+00	-2.0692223899e+00
 1.0961514681e+00	 1.3522685700e+00	-2.0698260358e+00
 1.0795239637e+00	 1.3655791219e+00	-2.0689559753e+00
 1.0627468689e+00	 1.3786759660e+00	-2.0687999226e+00
 1.0458242917e+00	 1.3915566382e+00	-2.0732405873e+00
 1.0287603929e+00	 1.4042187794e+00	-2.0873993854e+00
 1.1173599055e+00	 1.3444436729e+00	-2.0603504590e+00
 1.1008159424e+00	 1.3580229044e+00	-2.0636523644e+00
 1.0841176827e+00	 1.3713900969e+00	-2.0660591257e+00
 1.0672691960e+00	 1.3845426722e+00	-2.0678817013e+00
 1.0502746079e+00	 1.3974781558e+00	-2.0726790698e+00
 1.0331380967e+00	 1.4101941785e+00	-2.0852132991e+00
 1.1220944814e+00	 1.3501404681e+00	-2.0530782520e+00
 1.1054804168e+00	 1.3637772387e+00	-2.0578154699e+00
 1.0887114017e+00	 1.3772010719e+00	-2.0636540742e+00
 1.0717915231e+00	 1.3904093785e+00	-2.0672323127e+00
 1.0547249240e+00	 1.4033996734e+00	-2.0719556512e+00
 1.0375158005e+00	 1.4161695776e+00	-2.0824017618e+00
 1.1268290572e+00	 1.3558372633e+00	-2.0470201944e+00
 1.1101448911e+00	 1.3695315730e+00	-2.0518213086e+00
 1.0933051207e+00	 1.3830120469e+00	-2.0612148432e+00
 1.0763138502e+00	 1.3962760847e+00	-2.0663343719e+00
 1.0591752401e+00	 1.4093211910e+00	-2.0706006065e+00
 1.0418935043e+00	 1.4221449766e+00	-2.0785802641e+00
 1.1315636331e+00	 1.3615340585e+00	-2.0418064086e+00
 1.1148093654e+00	 1.3752859074e+00	-2.0457357361e+00
 1.0978988397e+00	 1.3888230219e+00	-2.0582351575e+00
 1.0808361773e+00	 1.4021427909e+00	-2.0646883117e+00
 1.0636255563e+00	 1.4152427086e+00	-2.0681594799e+00
 1.0462712081e+00	 1.4281203757e+00	-2.0733763951e+00
 1.1362982090e+00	 1.3672308537e+00	-2.0370824488e+00
 1.1194738398e+00	 1.3810402417e+00	-2.0402564016e+00
 1.1024925587e+00	 1.3946339969e+00	-2.0542287075e+00
 1.0853585044e+00	 1.4080094972e+00	-2.0618126357e+00
 1.0680758724e+00	 1.4211642262e+00	-2.0641933417e+00
 1.0506489119e+00	 1.4340957747e+00	-2.0664301176e+00
 1.0287603929e+00	 1.4042187794e+00	-2.0873993854e+00
 1.0115593819e+00	 1.4166601368e+00	-2.0915172173e+00
 9.9422551438e-01	 1.4288785648e+00	-2.0700340621e+00
 9.7676308797e-01	 1.4408720264e+00	-2.0352142515e+00
 9.5917643938e-01	 1.4526385939e+00	-1.9992282203e+00
 9.4146994080e-01	 1.4641764501e+00	-1.9738346911e+00
 1.0331380967e+00	 1.4101941785e+00	-2.0852132991e+00
 1.0158638899e+00	 1.4226884778e+00	-2.0859429852e+00
 9.9845626125e-01	 1.4349588991e+00	-2.0606798267e+00
 9.8091952664e-01	 1.4470033967e+00	-2.0230511717e+00
 9.6325804125e-01	 1.4588200348e+00	-1.9866118557e+00
 9.4547619587e-01	 1.4704069882e+00	-1.9645150335e+00
 1.0375158005e+00	 1.4161695776e+00	-2.0824017618e+00
 1.0201683980e+00	 1.4287168188e+00	-2.0797348055e+00
 1.0026870081e+00	 1.4410392335e+00	-2.0514571812e+00
 9.8507596531e-01	 1.4531347670e+00	-2.0124795778e+00
 9.6733964312e-01	 1.4650014756e+00	-1.9776556085e+00
 9.4948245094e-01	 1.4766375263e+00	-1.9614413378e+00
 1.0418935043e+00	 1.4221449766e+00	-2.0785802641e+00
 1.0244729060e+00	 1.4347451599e+00	-2.0725917505e+00
 1.0069177550e+00	 1.4471195678e+00	-2.0421100995e+00
 9.8923240398e-01	 1.4592661374e+00	-2.0032513370e+00
 9.7142124499e-01	 1.4711829164e+00	-1.9720839185e+00
 9.5348870600e-01	 1.4828680644e+00	-1.9640025851e+00
 1.0462712081e+00	 1.4281203757e+00	-2.0733763951e+00
 1.0287774140e+00	 1.4407735009e+00	-2.0642218726e+00
 1.0111485019e+00	 1.4531999021e+00	-2.0323891028e+00
 9.9338884266e-01	 1.4653975077e+00	-1.9951231060e+00
 9.7550284686e-01	 1.4773643572e+00	-1.9696249161e+00
 9.5749496107e-01	 1.4890986024e+00	-1.9645954115e+00
 1.0506489119e+00	 1.4340957747e+00	-2.0664301176e+00
 1.0330819220e+00	 1.4468018419e+00	-2.0543424947e+00
 1.0153792487e+00	 1.4592802364e+00	-2.0220515541e+00
 9.9754528133e-01	 1.4715288780e+00	-1.9878566143e+00
 9.7958444873e-01	 1.4835457981e+00	-1.9695006890e+00
 9.6150121614e-01	 1.4953291405e+00	-1.9602163455e+00
 9.4146994080e-01	 1.4641764501e+00	-1.9738346911e+00
 9.2364799640e-01	 1.4754838885e+00	-1.9580023976e+00
 9.0571503889e-01	 1.4865593143e+00	-1.9494799810e+00
 8.8767552606e-01	 1.4974012445e+00	-1.9267631650e+00
 8.6953393729e-01	 1.5080083085e+00	-1.8891715830e+00
 8.5129477005e-01	 1.5183792481e+00	-1.8417358610e+00
 9.4547619587e-01	 1.4704069882e+00	-1.9645150335e+00
 9.2757841340e-01	 1.4817625433e+00	-1.9578520234e+00
 9.0956914544e-01	 1.4928850986e+00	-1.9465138174e+00
 8.9145286873e-01	 1.5037731646e+00	-1.9178412091e+00
 8.7323408170e-01	 1.5144253651e+00	-1.8769991115e+00
 8.5491730098e-01	 1.5248404364e+00	-1.8287290249e+00
 9.4948245094e-01	 1.4766375263e+00	-1.9614413378e+00
 9.3150883041e-01	 1.4880411982e+00	-1.9597091085e+00
 9.1342325199e-01	 1.4992108829e+00	-1.9413298708e+00
 8.9523021139e-01	 1.5101450848e+00	-1.9081924345e+00
 8.7693422612e-01	 1.5208424217e+00	-1.8650985770e+00
 8.5853983192e-01	 1.5313016246e+00	-1.8163959007e+00
 9.5348870600e-01	 1.4828680644e+00	-1.9640025851e+00
 9.3543924742e-01	 1.4943198530e+00	-1.9578328555e+00
 9.1727735854e-01	 1.5055366672e+00	-1.9342339879e+00
 8.9900755406e-01	 1.5165170050e+00	-1.8980816472e+00
 8.8063437053e-01	 1.5272594784e+00	-1.8537083051e+00
 8.6216236286e-01	 1.5377628129e+00	-1.8049641399e+00
 9.5749496107e-01	 1.4890986024e+00	-1.9645954115e+00
 9.3936966442e-01	 1.5005985079e+00	-1.9525821653e+00
 9.2113146508e-01	 1.5118624515e+00	-1.9255316630e+00
 9.0278489672e-01	 1.5228889252e+00	-1.8877740060e+00
 8.8433451494e-01	 1.5336765350e+00	-1.8430674306e+00
 8.6578489379e-01	 1.5442240012e+00	-1.7946623860e+00
 9.6150121614e-01	 1.4953291405e+00	-1.9602163455e+00
 9.4330008143e-01	 1.5068771627e+00	-1.9443145751e+00
 9.2498557163e-01	 1.5181882358e+00	-1.9155279483e+00
 9.0656223938e-01	 1.5292608454e+00	-1.8775349284e+00
 8.8803465936e-01	 1.5400935916e+00	-1.8334158021e+00
 8.6940742473e-01	 1.5506851895e+00	-1.7857201846e+00
 8.5129477005e-01	 1.5183792481e+00	-1.8417358610e+00
 8.3296253649e-01	 1.5285129176e+00	-1.7918188108e+00
 8.1454175999e-01	 1.5384082838e+00	-1.7444500379e+00
 7.9603697169e-01	 1.5480644257e+00	-1.7006870884e+00
 7.7745270716e-01	 1.5574805343e+00	-1.6613464421e+00
 7.5879350301e-01	 1.5666559119e+00	-1.6270530127e+00
 8.5491730098e-01	 1.5248404364e+00	-1.8287290249e+00
 8.3650705793e-01	 1.5350172279e+00	-1.7797802464e+00
 8.1800789514e-01	 1.5449547020e+00	-1.7342342784e+00
 7.9942436306e-01	 1.5546519339e+00	-1.6923429879e+00
 7.8076101655e-01	 1.5641081110e+00	-1.6541312759e+00
 7.6202241153e-01	 1.5733225328e+00	-1.6194491393e+00
 8.5853983192e-01	 1.5313016246e+00	-1.8163959007e+00
 8.4005157936e-01	 1.5415215382e+00	-1.7682858233e+00
 8.2147403028e-01	 1.5515011203e+00	-1.7241637568e+00
 8.0281175443e-01	 1.5612394421e+00	-1.6836663561e+00
 7.8406932594e-01	 1.5707356877e+00	-1.6462151723e+00
 7.6525132006e-01	 1.5799891537e+00	-1.6110709243e+00
 8.6216236286e-01	 1.5377628129e+00	-1.8049641399e+00
 8.4359610079e-01	 1.5480258485e+00	-1.7575586778e+00
 8.2494016543e-01	 1.5580475385e+00	-1.7144511607e+00
 8.0619914579e-01	 1.5678269503e+00	-1.6748510872e+00
 7.8737763534e-01	 1.5773632645e+00	-1.6377625064e+00
 7.6848022858e-01	 1.5866557746e+00	-1.6020401520e+00
 8.6578489379e-01	 1.5442240012e+00	-1.7946623860e+00
 8.4714062222e-01	 1.5545301588e+00	-1.7478230070e+00
 8.2840630058e-01	 1.5645939567e+00	-1.7053103949e+00
 8.0958653716e-01	 1.5744144585e+00	-1.6660925740e+00
 7.9068594473e-01	 1.5839908412e+00	-1.6289395981e+00
 7.7170913710e-01	 1.5933223955e+00	-1.5924811998e+00
 8.6940742473e-01	 1.5506851895e+00	-1.7857201846e+00
 8.5068514365e-01	 1.5610344690e+00	-1.7393039863e+00
 8.3187243573e-01	 1.5711403750e+00	-1.6969565032e+00
 8.1297392853e-01	 1.5810019667e+00	-1.6575876327e+00
 7.9399425412e-01	 1.5906184180e+00	-1.6199146343e+00
 7.7493804563e-01	 1.5999890164e+00	-1.5825209538e+00
 7.5879350301e-01	 1.5666559119e+00	-1.6270530127e+00
 7.4006389356e-01	 1.5755899720e+00	-1.5847789231e+00
 7.2126840757e-01	 1.5842822383e+00	-1.5309253327e+00
 7.0241156498e-01	 1.5927323441e+00	-1.4729220782e+00
 6.8349787376e-01	 1.6009400311e+00	-1.4130474389e+00
 6.6453182672e-01	 1.6089051488e+00	-1.3538220575e+00
 7.6202241153e-01	 1.5733225328e+00	-1.6194491393e+00
 7.4321310162e-01	 1.5822946102e+00	-1.5757039808e+00
 7.2433763484e-01	 1.5910238649e+00	-1.5193790646e+00
 7.0540055037e-01	 1.5995099285e+00	-1.4598760708e+00
 6.8640637535e-01	 1.6077525418e+00	-1.3996979322e+00
 6.6735962173e-01	 1.6157515537e+00	-1.3414982259e+00
 7.6525132006e-01	 1.5799891537e+00	-1.6110709243e+00
 7.4636230968e-01	 1.5889992484e+00	-1.5660848879e+00
 7.2740686210e-01	 1.5977654914e+00	-1.5077874001e+00
 7.0838953575e-01	 1.6062875130e+00	-1.4470311917e+00
 6.8931487694e-01	 1.6145650526e+00	-1.3866668397e+00
 6.7018741674e-01	 1.6225979586e+00	-1.3293639295e+00
 7.6848022858e-01	 1.5866557746e+00	-1.6020401520e+00
 7.4951151774e-01	 1.5957038866e+00	-1.5559990657e+00
 7.3047608937e-01	 1.6045071180e+00	-1.4962070497e+00
 7.1137852113e-01	 1.6130650974e+00	-1.4344402130e+00
 6.9222337853e-01	 1.6213775634e+00	-1.3740286876e+00
 6.7301521174e-01	 1.6294443634e+00	-1.3175425375e+00
 7.7170913710e-01	 1.5933223955e+00	-1.5924811998e+00
 7.5266072579e-01	 1.6024085247e+00	-1.5455329383e+00
 7.3354531663e-01	 1.6112487445e+00	-1.4847031632e+00
 7.1436750652e-01	 1.6198426818e+00	-1.4221648621e+00
 6.9513188012e-01	 1.6281900741e+00	-1.3618669651e+00
 6.7584300675e-01	 1.6362907683e+00	-1.3061658532e+00
 7.7493804563e-01	 1.5999890164e+00	-1.5825209538e+00
 7.5580993385e-01	 1.6091131629e+00	-1.5347759962e+00
 7.3661454390e-01	 1.6179903711e+00	-1.4733488185e+00
 7.1735649190e-01	 1.6266202663e+00	-1.4102753442e+00
 6.9804038171e-01	 1.6350025849e+00	-1.3502736895e+00
 6.7867080176e-01	 1.6431371732e+00	-1.2953737299e+00
 6.6453182672e-01	 1.6089051488e+00	-1.3538220575e+00
 6.4551789849e-01	 1.6166276532e+00	-1.3019860106e+00
 6.2646054246e-01	 1.6241076058e+00	-1.2586504771e+00
 6.0736418786e-01	 1.6313451719e+00	-1.2182217202e+00
 5.8823323685e-01	 1.6383406195e+00	-1.1752924643e+00
 5.6907206175e-01	 1.6450943180e+00	-1.1246785227e+00
 6.6735962173e-01	 1.6157515537e+00	-1.3414982259e+00
 6.4826478316e-01	 1.6235069198e+00	-1.2909529107e+00
 6.2912633200e-01	 1.6310187020e+00	-1.2480817341e+00
 6.0994871632e-01	 1.6382870662e+00	-1.2074059073e+00
 5.9073635701e-01	 1.6453122817e+00	-1.1636762044e+00
 5.7149364500e-01	 1.6520947193e+00	-1.1119085681e+00
 6.7018741674e-01	 1.6225979586e+00	-1.3293639295e+00
 6.5101166784e-01	 1.6303861865e+00	-1.2798418643e+00
 6.3179212154e-01	 1.6379297982e+00	-1.2372477183e+00
 6.1253324478e-01	 1.6452289606e+00	-1.1962683024e+00
 5.9323947717e-01	 1.6522839439e+00	-1.1518584865e+00
 5.7391522824e-01	 1.6590951207e+00	-1.0992757842e+00
 6.7301521174e-01	 1.6294443634e+00	-1.3175425375e+00
 6.5375855251e-01	 1.6372654531e+00	-1.2688187951e+00
 6.3445791109e-01	 1.6448408944e+00	-1.2263159796e+00
 6.1511777323e-01	 1.6521708549e+00	-1.1849367067e+00
 5.9574259732e-01	 1.6592556061e+00	-1.1398856214e+00
 5.7633681148e-01	 1.6660955220e+00	-1.0867029603e+00
 6.7584300675e-01	 1.6362907683e+00	-1.3061658532e+00
 6.5650543719e-01	 1.6441447197e+00	-1.2580575480e+00
 6.3712370063e-01	 1.6517519906e+00	-1.2154620692e+00
 6.1770230169e-01	 1.6591127493e+00	-1.1735476018e+00
 5.9824571748e-01	 1.6662272684e+00	-1.1278138815e+00
 5.7875839472e-01	 1.6730959234e+00	-1.0741247359e+00
 6.7867080176e-01	 1.6431371732e+00	-1.2953737299e+00
 6.5925232186e-01	 1.6510239863e+00	-1.2477395552e+00
 6.3978949017e-01	 1.6586630868e+00	-1.2048692419e+00
 6.2028683015e-01	 1.6660546436e+00	-1.1622458715e+00
 6.0074883764e-01	 1.6731989306e+00	-1.1157092287e+00
 5.8117997796e-01	 1.6800963247e+00	-1.0614873186e+00
 5.6907206175e-01	 1.6450943180e+00	-1.1246785227e+00
 5.4988500227e-01	 1.6516067361e+00	-1.0675727781e+00
 5.3067636284e-01	 1.6578784408e+00	-1.0090392147e+00
 5.1145041009e-01	 1.6639100951e+00	-9.5015920833e-01
 4.9221137030e-01	 1.6697024566e+00	-8.9236745059e-01
 4.7296342700e-01	 1.6752563754e+00	-8.3742973262e-01
 5.7149364500e-01	 1.6520947193e+00	-1.1119085681e+00
 5.5222493845e-01	 1.6586348499e+00	-1.0540163184e+00
 5.3293456013e-01	 1.6649332427e+00	-9.9544807080e-01
 5.1362679481e-01	 1.6709905636e+00	-9.3700600011e-01
 4.9430588677e-01	 1.6768075734e+00	-8.7983671387e-01
 4.7497603733e-01	 1.6823851259e+00	-8.2540831551e-01
 5.7391522824e-01	 1.6590951207e+00	-1.0992757842e+00
 5.5456487463e-01	 1.6656629636e+00	-1.0409971766e+00
 5.3519275742e-01	 1.6719880445e+00	-9.8266488515e-01
 5.1580317954e-01	 1.6780710321e+00	-9.2479298741e-01
 4.9640040324e-01	 1.6839126902e+00	-8.6823699791e-01
 4.7698864766e-01	 1.6895138764e+00	-8.1417007077e-01
 5.7633681148e-01	 1.6660955220e+00	-1.0867029603e+00
 5.5690481081e-01	 1.6726910774e+00	-1.0283124189e+00
 5.3745095471e-01	 1.6790428464e+00	-9.7039896539e-01
 5.1797956426e-01	 1.6851515005e+00	-9.1317994842e-01
 4.9849491971e-01	 1.6910178071e+00	-8.5721702888e-01
 4.7900125799e-01	 1.6966426270e+00	-8.0339138256e-01
 5.7875839472e-01	 1.6730959234e+00	-1.0741247359e+00
 5.5924474699e-01	 1.6797191912e+00	-1.0157727905e+00
 5.3970915200e-01	 1.6860976483e+00	-9.5837439814e-01
 5.2015594899e-01	 1.6922319690e+00	-9.0184180863e-01
 5.0058943618e-01	 1.6981229239e+00	-8.4644031676e-01
 4.8101386832e-01	 1.7037713775e+00	-7.9276232394e-01
 5.8117997796e-01	 1.6800963247e+00	-1.0614873186e+00
 5.6158468317e-01	 1.6867473050e+00	-1.0032024245e+00
 5.4196734928e-01	 1.6931524502e+00	-9.4632976020e-01
 5.2233233371e-01	 1.6993124375e+00	-8.9046836765e-01
 5.0268395265e-01	 1.7052280407e+00	-8.3558491034e-01
 4.8302647864e-01	 1.7109001280e+00	-7.8198645302e-01
 4.7296342700e-01	 1.6752563754e+00	-8.3742973262e-01
 4.5371071868e-01	 1.6805727923e+00	-7.9074806111e-01
 4.3445733650e-01	 1.6856527368e+00	-7.5256469576e-01
 4.1520732216e-01	 1.6904973251e+00	-7.1728684935e-01
 3.9596466588e-01	 1.6951077576e+00	-6.7949962557e-01
 3.7673330439e-01	 1.6994853173e+00	-6.3393652486e-01
 4.7497603733e-01	 1.6823851259e+00	-8.2540831551e-01
 4.5564140259e-01	 1.6877241659e+00	-7.7851935855e-01
 4.3630609112e-01	 1.6928257272e+00	-7.3947831287e-01
 4.1697416183e-01	 1.6976909307e+00	-7.0339800937e-01
 3.9764962191e-01	 1.7023209821e+00	-6.6557463517e-01
 3.7833642483e-01	 1.7067171697e+00	-6.2145403951e-01
 4.7698864766e-01	 1.6895138764e+00	-8.1417007077e-01
 4.5757208650e-01	 1.6948755395e+00	-7.6692008429e-01
 4.3815484574e-01	 1.6999987176e+00	-7.2696852323e-01
 4.1874100150e-01	 1.7048845364e+00	-6.9009992667e-01
 3.9933457793e-01	 1.7095342066e+00	-6.5228516857e-01
 3.7993954528e-01	 1.7139490222e+00	-6.0964363156e-01
 4.7900125799e-01	 1.6966426270e+00	-8.0339138256e-01
 4.5950277041e-01	 1.7020269131e+00	-7.5565890177e-01
 4.4000360037e-01	 1.7071717080e+00	-7.1474729417e-01
 4.2050784117e-01	 1.7120781420e+00	-6.7707988886e-01
 4.0101953396e-01	 1.7167474311e+00	-6.3926688473e-01
 3.8154266572e-01	 1.7211808746e+00	-5.9806345686e-01
 4.8101386832e-01	 1.7037713775e+00	-7.9276232394e-01
 4.6143345432e-01	 1.7091782866e+00	-7.4445691315e-01
 4.4185235499e-01	 1.7143446983e+00	-7.0253819472e-01
 4.2227468084e-01	 1.7192717476e+00	-6.6403635200e-01
 4.0270448998e-01	 1.7239606556e+00	-6.2616657216e-01
 3.8314578617e-01	 1.7284127270e+00	-5.8628314681e-01
 4.8302647864e-01	 1.7109001280e+00	-7.8198645302e-01
 4.6336413823e-01	 1.7163296602e+00	-7.3304749730e-01
 4.4370110961e-01	 1.7215176887e+00	-6.9007626462e-01
 4.2404152051e-01	 1.7264653533e+00	-6.5067882983e-01
 4.0438944601e-01	 1.7311738801e+00	-6.1264204785e-01
 3.8474890661e-01	 1.7356445794e+00	-5.7388370691e-01
 3.7673330439e-01	 1.6994853173e+00	-6.3393652486e-01
 3.5751711906e-01	 1.7036313674e+00	-5.7823228358e-01
 3.3831993415e-01	 1.7075473489e+00	-5.3836765591e-01
 3.1914551510e-01	 1.7112347784e+00	-5.0942075316e-01
 2.9999756695e-01	 1.7146952459e+00	-4.8366755132e-01
 2.8087973282e-01	 1.7179304125e+00	-4.5394412010e-01
 3.7833642483e-01	 1.7067171697e+00	-6.2145403951e-01
 3.5903846851e-01	 1.7108808626e+00	-5.6587929387e-01
 3.3975959345e-01	 1.7148135078e+00	-5.2466218711e-01
 3.2050358113e-01	 1.7185166285e+00	-4.9486739361e-01
 3.0127415234e-01	 1.7219918214e+00	-4.6894806948e-01
 2.8207496573e-01	 1.7252407547e+00	-4.3984564790e-01
 3.7993954528e-01	 1.7139490222e+00	-6.0964363156e-01
 3.6055981795e-01	 1.7181303578e+00	-5.5480767620e-01
 3.4119925274e-01	 1.7220796667e+00	-5.1240367790e-01
 3.2186164715e-01	 1.7257984786e+00	-4.8175631202e-01
 3.0255073773e-01	 1.7292883969e+00	-4.5553993544e-01
 2.8327019863e-01	 1.7325510969e+00	-4.2684305959e-01
 3.8154266572e-01	 1.7211808746e+00	-5.9806345686e-01
 3.6208116739e-01	 1.7253798530e+00	-5.4444732897e-01
 3.4263891204e-01	 1.7293458257e+00	-5.0098396848e-01
 3.2321971317e-01	 1.7330803287e+00	-4.6947131893e-01
 3.0382732312e-01	 1.7365849724e+00	-4.4284761177e-01
 2.8446543154e-01	 1.7398614390e+00	-4.1438869759e-01
 3.8314578617e-01	 1.7284127270e+00	-5.8628314681e-01
 3.6360251683e-01	 1.7326293481e+00	-5.3423809837e-01
 3.4407857133e-01	 1.7366119846e+00	-4.8980233565e-01
 3.2457777919e-01	 1.7403621788e+00	-4.5740119413e-01
 3.0510390851e-01	 1.7438815480e+00	-4.3027811149e-01
 2.8566066444e-01	 1.7471717812e+00	-4.0193508811e-01
 3.8474890661e-01	 1.7356445794e+00	-5.7388370691e-01
 3.6512386628e-01	 1.7398788433e+00	-5.2363016138e-01
 3.4551823062e-01	 1.7438781435e+00	-4.7826582111e-01
 3.2593584521e-01	 1.7476440290e+00	-4.4493996973e-01
 3.0638049390e-01	 1.7511781235e+00	-4.1724124530e-01
 2.8685589735e-01	 1.7544821234e+00	-3.8893516138e-01
 2.8087973282e-01	 1.7179304125e+00	-4.5394412010e-01
 2.6179559255e-01	 1.7209420078e+00	-4.1997006772e-01
 2.4274866134e-01	 1.7237318277e+00	-3.8725841616e-01
 2.2374238858e-01	 1.7263017320e+00	-3.5780373503e-01
 2.0478015669e-01	 1.7286536420e+00	-3.3372066214e-01
 1.8586528009e-01	 1.7307895378e+00	-3.1723910209e-01
 2.8207496573e-01	 1.7252407547e+00	-4.3984564790e-01
 2.6290961635e-01	 1.7282651653e+00	-4.0685534455e-01
 2.4378163437e-01	 1.7310668568e+00	-3.7499956296e-01
 2.2469448385e-01	 1.7336476969e+00	-3.4620138294e-01
 2.0565156161e-01	 1.7360096149e+00	-3.2247386351e-01
 1.8665619617e-01	 1.7381545997e+00	-3.0592340969e-01
 2.8327019863e-01	 1.7325510969e+00	-4.2684305959e-01
 2.6402364015e-01	 1.7355883228e+00	-3.9462021640e-01
 2.4481460740e-01	 1.7384018858e+00	-3.6346330163e-01
 2.2564657912e-01	 1.7409936617e+00	-3.3522473684e-01
 2.0652296653e-01	 1.7433655879e+00	-3.1181200068e-01
 1.8744711226e-01	 1.7455196615e+00	-2.9519953854e-01
 2.8446543154e-01	 1.7398614390e+00	-4.1438869759e-01
 2.6513766394e-01	 1.7429114802e+00	-3.8277357269e-01
 2.4584758042e-01	 1.7457369149e+00	-3.5220542801e-01
 2.2659867439e-01	 1.7483396265e+00	-3.2446566979e-01
 2.0739437145e-01	 1.7507215608e+00	-3.0135095980e-01
 1.8823802835e-01	 1.7528847234e+00	-2.8469405104e-01
 2.8566066444e-01	 1.7471717812e+00	-4.0193508811e-01
 2.6625168774e-01	 1.7502346377e+00	-3.7082245878e-01
 2.4688055345e-01	 1.7530719439e+00	-3.4077848473e-01
 2.2755076966e-01	 1.7556855913e+00	-3.1351200165e-01
 2.0826577637e-01	 1.7580775338e+00	-2.9070237246e-01
 1.8902894443e-01	 1.7602497852e+00	-2.7402963980e-01
 2.8685589735e-01	 1.7544821234e+00	-3.8893516138e-01
 2.6736571154e-01	 1.7575577952e+00	-3.5827227188e-01
 2.4791352648e-01	 1.7604069730e+00	-3.2873192908e-01
 2.2850286493e-01	 1.7630315561e+00	-3.0194763548e-01
 2.0913718130e-01	 1.7654335067e+00	-2.7947371644e-01
 1.8981986052e-01	 1.7676148471e+00	-2.6282518886e-01
 1.8586528009e-01	 1.7307895378e+00	-3.1723910209e-01
 1.6700100429e-01	 1.7327114564e+00	-3.0518342481e-01
 1.4819050502e-01	 1.7344214888e+00	-2.9274036978e-01
 1.2943688745e-01	 1.7359217778e+00	-2.8000068002e-01
 1.1074318553e-01	 1.7372145156e+00	-2.6738637655e-01
 9.2112361429e-02	 1.7383019414e+00	-2.5568905896e-01
 1.8665619617e-01	 1.7381545997e+00	-3.0592340969e-01
 1.6771164686e-01	 1.7400846966e+00	-2.9355627484e-01
 1.4882110291e-01	 1.7418020057e+00	-2.8087321436e-01
 1.2998768271e-01	 1.7433086790e+00	-2.6802200810e-01
 1.1121443313e-01	 1.7446069178e+00	-2.5548029110e-01
 9.2504328924e-02	 1.7456989709e+00	-2.4410242469e-01
 1.8744711226e-01	 1.7455196615e+00	-2.9519953854e-01
 1.6842228944e-01	 1.7474579369e+00	-2.8252852982e-01
 1.4945170081e-01	 1.7491825227e+00	-2.6957947723e-01
 1.3053847798e-01	 1.7506955802e+00	-2.5656508565e-01
 1.1168568073e-01	 1.7519993200e+00	-2.4402725027e-01
 9.2896296420e-02	 1.7530960004e+00	-2.3289272862e-01
 1.8823802835e-01	 1.7528847234e+00	-2.8469405104e-01
 1.6913293201e-01	 1.7548311771e+00	-2.7174186783e-01
 1.5008229870e-01	 1.7565630397e+00	-2.5853785292e-01
 1.3108927325e-01	 1.7580824813e+00	-2.4536572303e-01
 1.1215692833e-01	 1.7593917222e+00	-2.3283844290e-01
 9.3288263915e-02	 1.7604930300e+00	-2.2196293797e-01
 1.8902894443e-01	 1.7602497852e+00	-2.7402963980e-01
 1.6984357458e-01	 1.7622044173e+00	-2.6083473546e-01
 1.5071289660e-01	 1.7639435567e+00	-2.4742436699e-01
 1.3164006851e-01	 1.7654693825e+00	-2.3415754041e-01
 1.1262817593e-01	 1.7667841244e+00	-2.2172325436e-01
 9.3680231411e-02	 1.7678900595e+00	-2.1121450205e-01
 1.8981986052e-01	 1.7676148471e+00	-2.6282518886e-01
 1.7055421715e-01	 1.7695776576e+00	-2.4944237174e-01
 1.5134349449e-01	 1.7713240736e+00	-2.3591237154e-01
 1.3219086378e-01	 1.7728562837e+00	-2.2267194328e-01
 1.1309942352e-01	 1.7741765266e+00	-2.1048922992e-01
 9.4072198906e-02	 1.7752870891e+00	-2.0054731138e-01
 9.2112361429e-02	 1.7383019414e+00	-2.5568905896e-01
 7.3547304970e-02	 1.7391863386e+00	-2.4410442718e-01
 5.5050833259e-02	 1.7398700331e+00	-2.3317509293e-01
 3.6625690321e-02	 1.7403553905e+00	-2.2630651072e-01
 1.8274546847e-02	 1.7406448137e+00	-2.2731235886e-01
 0.0000000000e+00	 1.7407407407e+00	-2.4042849962e-01
 9.2504328924e-02	 1.7456989709e+00	-2.4410242469e-01
 7.3860272225e-02	 1.7465871315e+00	-2.3287578237e-01
 5.5285092124e-02	 1.7472737354e+00	-2.2206162285e-01
 3.6781544323e-02	 1.7477611581e+00	-2.1506491653e-01
 1.8352310876e-02	 1.7480518129e+00	-2.1575225978e-01
 0.0000000000e+00	 1.7481481481e+00	-2.2847231482e-01
 9.2896296420e-02	 1.7530960004e+00	-2.3289272862e-01
 7.4173239480e-02	 1.7539879245e+00	-2.2199100736e-01
 5.5519350988e-02	 1.7546774377e+00	-2.1132322901e-01
 3.6937398324e-02	 1.7551669258e+00	-2.0425855991e-01
 1.8430074905e-02	 1.7554588121e+00	-2.0467882924e-01
 0.0000000000e+00	 1.7555555556e+00	-2.1700585934e-01
 9.3288263915e-02	 1.7604930300e+00	-2.2196293797e-01
 7.4486206735e-02	 1.7613887174e+00	-2.1143473188e-01
 5.5753609853e-02	 1.7620811399e+00	-2.0099007105e-01
 3.7093252326e-02	 1.7625726934e+00	-1.9392589606e-01
 1.8507838934e-02	 1.7628658113e+00	-1.9410052299e-01
 0.0000000000e+00	 1.7629629630e+00	-2.0596828119e-01
 9.3680231411e-02	 1.7678900595e+00	-2.1121450205e-01
 7.4799173991e-02	 1.7687895103e+00	-2.0119065554e-01
 5.5987868718e-02	 1.7694848422e+00	-1.9109266303e-01
 3.7249106327e-02	 1.7699784610e+00	-1.8410769329e-01
 1.8585602963e-02	 1.7702728105e+00	-1.8403071976e-01
 0.0000000000e+00	 1.7703703704e+00	-1.9530688884e-01
 9.4072198906e-02	 1.7752870891e+00	-2.0054731138e-01
 7.5112141246e-02	 1.7761903033e+00	-1.9124150137e-01
 5.6222127583e-02	 1.7768885445e+00	-1.8166181133e-01
 3.7404960328e-02	 1.7773842286e+00	-1.7484694523e-01
 1.8663366992e-02	 1.7776798097e+00	-1.7448759745e-01
 0.0000000000e+00	 1.7777777778e+00	-1.8497698121e-01
 1.7777777778e+00	 0.0000000000e+00	 3.2787073422e+00
 1.7776798097e+00	 1.8663366992e-02	 3.2764467361e+00
 1.7773842286e+00	 3.7404960328e-02	 3.2704628427e+00
 1.7768885445e+00	 5.6222127583e-02	 3.2607205264e+00
 1.7761903033e+00	 7.5112141246e-02	 3.2475008207e+00
 1.7752870891e+00	 9.4072198906e-02	 3.2313340649e+00
 1.7851851852e+00	 0.0000000000e+00	 3.2628637555e+00
 1.7850868089e+00	 1.8741131022e-02	 3.2608685408e+00
 1.7847899962e+00	 3.7560814330e-02	 3.2548657372e+00
 1.7842922468e+00	 5.6456386448e-02	 3.2448832030e+00
 1.7835910962e+00	 7.5425108501e-02	 3.2313206825e+00
 1.7826841186e+00	 9.4464166402e-02	 3.2148750400e+00
 1.7925925926e+00	 0.0000000000e+00	 3.2470817368e+00
 1.7924938081e+00	 1.8818895051e-02	 3.2453278496e+00
 1.7921957638e+00	 3.7716668331e-02	 3.2393875903e+00
 1.7916959490e+00	 5.6690645313e-02	 3.2293200992e+00
 1.7909918891e+00	 7.5738075756e-02	 3.2156133713e+00
 1.7900811481e+00	 9.4856133897e-02	 3.1991013971e+00
 1.8000000000e+00	 0.0000000000e+00	 3.2313489150e+00
 1.7999008073e+00	 1.8896659080e-02	 3.2298070101e+00
 1.7996015315e+00	 3.7872522332e-02	 3.2239963267e+00
 1.7990996513e+00	 5.6924904178e-02	 3.2139775164e+00
 1.7983926821e+00	 7.6051043011e-02	 3.2002983631e+00
 1.7974781777e+00	 9.5248101393e-02	 3.1839026325e+00
 1.8074074074e+00	 0.0000000000e+00	 3.2156530126e+00
 1.8073078066e+00	 1.8974423109e-02	 3.2142888152e+00
 1.8070072991e+00	 3.8028376334e-02	 3.2086605839e+00
 1.8065033536e+00	 5.7159163043e-02	 3.1988026585e+00
 1.8057934750e+00	 7.6364010267e-02	 3.1852961532e+00
 1.8048752072e+00	 9.5640068888e-02	 3.1691693120e+00
 1.8148148148e+00	 0.0000000000e+00	 3.1999818443e+00
 1.8147148058e+00	 1.9052187138e-02	 3.1987564952e+00
 1.8144130667e+00	 3.8184230335e-02	 3.1933496994e+00
 1.8139070558e+00	 5.7393421908e-02	 3.1837436140e+00
 1.8131942679e+00	 7.6676977522e-02	 3.1705282353e+00
 1.8122722367e+00	 9.6032036383e-02	 3.1547930481e+00
 1.7752870891e+00	 9.4072198906e-02	 3.2313340649e+00
 1.7741765266e+00	 1.1309942352e-01	 3.2110736449e+00
 1.7728562837e+00	 1.3219086378e-01	 3.1855986101e+00
 1.7713240736e+00	 1.5134349449e-01	 3.1556002167e+00
 1.7695776576e+00	 1.7055421715e-01	 3.1216644517e+00
 1.7676148471e+00	 1.8981986052e-01	 3.0841702279e+00
 1.7826841186e+00	 9.4464166402e-02	 3.2148750400e+00
 1.7815689288e+00	 1.1357067112e-01	 3.1945765629e+00
 1.7802431849e+00	 1.3274165904e-01	 3.1692645963e+00
 1.7787045906e+00	 1.5197409238e-01	 3.1395145957e+00
 1.7769508978e+00	 1.7126485972e-01	 3.1058046332e+00
 1.7749799090e+00	 1.9061077660e-01	 3.0684033776e+00
 1.7900811481e+00	 9.4856133897e-02	 3.1991013971e+00
 1.7889613310e+00	 1.1404191872e-01	 3.1789771903e+00
 1.7876300861e+00	 1.3329245431e-01	 3.1540341649e+00
 1.7860851076e+00	 1.5260469028e-01	 3.1247149120e+00
 1.7843241381e+00	 1.7197550229e-01	 3.0913719398e+00
 1.7823449708e+00	 1.9140169269e-01	 3.0541451373e+00
 1.7974781777e+00	 9.5248101393e-02	 3.1839026325e+00
 1.7963537332e+00	 1.1451316632e-01	 3.1641302182e+00
 1.7950169873e+00	 1.3384324957e-01	 3.1397206293e+00
 1.7934656246e+00	 1.5323528817e-01	 3.1109685146e+00
 1.7916973783e+00	 1.7268614486e-01	 3.0780851786e+00
 1.7897100327e+00	 1.9219260877e-01	 3.0410652169e+00
 1.8048752072e+00	 9.5640068888e-02	 3.1691693120e+00
 1.8037461354e+00	 1.1498441392e-01	 3.1498914596e+00
 1.8024038884e+00	 1.3439404484e-01	 3.1261385475e+00
 1.8008461415e+00	 1.5386588606e-01	 3.0980442004e+00
 1.7990706185e+00	 1.7339678744e-01	 3.0656648973e+00
 1.7970750946e+00	 1.9298352486e-01	 3.0288354583e+00
 1.8122722367e+00	 9.6032036383e-02	 3.1547930481e+00
 1.8111385376e+00	 1.1545566151e-01	 3.1361178239e+00
 1.8097907896e+00	 1.3494484011e-01	 3.1131036955e+00
 1.8082266585e+00	 1.5449648396e-01	 3.0857121860e+00
 1.8064438588e+00	 1.7410743001e-01	 3.0538333544e+00
 1.8044401564e+00	 1.9377444094e-01	 3.0171298045e+00
 1.7676148471e+00	 1.8981986052e-01	 3.0841702279e+00
 1.7654335067e+00	 2.0913718130e-01	 3.0448238268e+00
 1.7630315561e+00	 2.2850286493e-01	 3.0041811902e+00
 1.7604069730e+00	 2.4791352648e-01	 2.9602887009e+00
 1.7575577952e+00	 2.6736571154e-01	 2.9106164831e+00
 1.7544821234e+00	 2.8685589735e-01	 2.8520048883e+00
 1.7749799090e+00	 1.9061077660e-01	 3.0684033776e+00
 1.7727894796e+00	 2.1000858622e-01	 3.0289567209e+00
 1.7703775209e+00	 2.2945496020e-01	 2.9881857880e+00
 1.7677420020e+00	 2.4894649950e-01	 2.9443312937e+00
 1.7648809527e+00	 2.6847973534e-01	 2.8950141942e+00
 1.7617924656e+00	 2.8805113025e-01	 2.8371708374e+00
 1.7823449708e+00	 1.9140169269e-01	 3.0541451373e+00
 1.7801454526e+00	 2.1087999114e-01	 3.0145976523e+00
 1.7777234858e+00	 2.3040705548e-01	 2.9736258171e+00
 1.7750770311e+00	 2.4997947253e-01	 2.9296930683e+00
 1.7722041102e+00	 2.6959375914e-01	 2.8805982065e+00
 1.7691028078e+00	 2.8924636316e-01	 2.8233988023e+00
 1.7897100327e+00	 1.9219260877e-01	 3.0410652169e+00
 1.7875014255e+00	 2.1175139606e-01	 3.0013693423e+00
 1.7850694506e+00	 2.3135915075e-01	 2.9600813619e+00
 1.7824120602e+00	 2.5101244556e-01	 2.9159172055e+00
 1.7795272676e+00	 2.7070778293e-01	 2.8668818784e+00
 1.7764131499e+00	 2.9044159607e-01	 2.8101807069e+00
 1.7970750946e+00	 1.9298352486e-01	 3.0288354583e+00
 1.7948573985e+00	 2.1262280098e-01	 2.9888971309e+00
 1.7924154154e+00	 2.3231124602e-01	 2.9471357144e+00
 1.7897470892e+00	 2.5204541859e-01	 2.9025508005e+00
 1.7868504251e+00	 2.7182180673e-01	 2.8533833259e+00
 1.7837234921e+00	 2.9163682897e-01	 2.7970142290e+00
 1.8044401564e+00	 1.9377444094e-01	 3.0171298045e+00
 1.8022133714e+00	 2.1349420591e-01	 2.9768089482e+00
 1.7997613802e+00	 2.3326334129e-01	 2.9343753470e+00
 1.7970821183e+00	 2.5307839161e-01	 2.8891448408e+00
 1.7941735826e+00	 2.7293583053e-01	 2.8396254077e+00
 1.7910338343e+00	 2.9283206188e-01	 2.7834027956e+00
 1.7544821234e+00	 2.8685589735e-01	 2.8520048883e+00
 1.7511781235e+00	 3.0638049390e-01	 2.7848651134e+00
 1.7476440290e+00	 3.2593584521e-01	 2.7135674988e+00
 1.7438781435e+00	 3.4551823062e-01	 2.6399439032e+00
 1.7398788433e+00	 3.6512386628e-01	 2.5652644324e+00
 1.7356445794e+00	 3.8474890661e-01	 2.4929611925e+00
 1.7617924656e+00	 2.8805113025e-01	 2.8371708374e+00
 1.7584746990e+00	 3.0765707930e-01	 2.7710188082e+00
 1.7549258791e+00	 3.2729391123e-01	 2.7005307974e+00
 1.7511443025e+00	 3.4695788992e-01	 2.6272140252e+00
 1.7471283385e+00	 3.6664521572e-01	 2.5519178192e+00
 1.7428764318e+00	 3.8635202706e-01	 2.4783074106e+00
 1.7691028078e+00	 2.8924636316e-01	 2.8233988023e+00
 1.7657712745e+00	 3.0893366469e-01	 2.7581432849e+00
 1.7622077292e+00	 3.2865197726e-01	 2.6884027055e+00
 1.7584104614e+00	 3.4839754921e-01	 2.6153382785e+00
 1.7543778337e+00	 3.6816656516e-01	 2.5393538279e+00
 1.7501082842e+00	 3.8795514750e-01	 2.4644387820e+00
 1.7764131499e+00	 2.9044159607e-01	 2.8101807069e+00
 1.7730678500e+00	 3.1021025008e-01	 2.7457204352e+00
 1.7694895793e+00	 3.3001004328e-01	 2.6766697670e+00
 1.7656766203e+00	 3.4983720851e-01	 2.6038241630e+00
 1.7616273289e+00	 3.6968791461e-01	 2.5271187592e+00
 1.7573401366e+00	 3.8955826794e-01	 2.4509638204e+00
 1.7837234921e+00	 2.9163682897e-01	 2.7970142290e+00
 1.7803644255e+00	 3.1148683547e-01	 2.7332390420e+00
 1.7767714294e+00	 3.3136810930e-01	 2.6648266759e+00
 1.7729427793e+00	 3.5127686780e-01	 2.5921887150e+00
 1.7688768240e+00	 3.7120926405e-01	 2.5147731296e+00
 1.7645719891e+00	 3.9116138839e-01	 2.4375020336e+00
 1.7910338343e+00	 2.9283206188e-01	 2.7834027956e+00
 1.7876610010e+00	 3.1276342086e-01	 2.7201947865e+00
 1.7840532796e+00	 3.3272617532e-01	 2.6523763000e+00
 1.7802089382e+00	 3.5271652710e-01	 2.5799585529e+00
 1.7761263192e+00	 3.7273061349e-01	 2.5019039504e+00
 1.7718038415e+00	 3.9276450883e-01	 2.4236837600e+00
 1.7356445794e+00	 3.8474890661e-01	 2.4929611925e+00
 1.7311738801e+00	 4.0438944601e-01	 2.4219188692e+00
 1.7264653533e+00	 4.2404152051e-01	 2.3409477997e+00
 1.7215176887e+00	 4.4370110961e-01	 2.2518063320e+00
 1.7163296602e+00	 4.6336413823e-01	 2.1564326712e+00
 1.7109001280e+00	 4.8302647864e-01	 2.0569945435e+00
 1.7428764318e+00	 3.8635202706e-01	 2.4783074106e+00
 1.7383871046e+00	 4.0607440203e-01	 2.4066331455e+00
 1.7336589589e+00	 4.2580836018e-01	 2.3260515932e+00
 1.7286906791e+00	 4.4554986424e-01	 2.2378277301e+00
 1.7234810338e+00	 4.6529482214e-01	 2.1434045862e+00
 1.7180288786e+00	 4.8503908897e-01	 2.0444570932e+00
 1.7501082842e+00	 3.8795514750e-01	 2.4644387820e+00
 1.7456003291e+00	 4.0775935806e-01	 2.3920606618e+00
 1.7408525645e+00	 4.2757519984e-01	 2.3117417142e+00
 1.7358636694e+00	 4.4739861886e-01	 2.2242893832e+00
 1.7306324074e+00	 4.6722550605e-01	 2.1306879296e+00
 1.7251576291e+00	 4.8705169930e-01	 2.0321564753e+00
 1.7573401366e+00	 3.8955826794e-01	 2.4509638204e+00
 1.7528135536e+00	 4.0944431408e-01	 2.3778683332e+00
 1.7480461702e+00	 4.2934203951e-01	 2.2977407608e+00
 1.7430366598e+00	 4.4924737348e-01	 2.2109658408e+00
 1.7377837810e+00	 4.6915618996e-01	 2.1181044762e+00
 1.7322863796e+00	 4.8906430963e-01	 2.0199559929e+00
 1.7645719891e+00	 3.9116138839e-01	 2.4375020336e+00
 1.7600267781e+00	 4.1112927011e-01	 2.3637337758e+00
 1.7552397758e+00	 4.3110887918e-01	 2.2837817287e+00
 1.7502096502e+00	 4.5109612811e-01	 2.1976417420e+00
 1.7449351546e+00	 4.7108687387e-01	 2.1054857860e+00
 1.7394151302e+00	 4.9107691995e-01	 2.0077284417e+00
 1.7718038415e+00	 3.9276450883e-01	 2.4236837600e+00
 1.7672400026e+00	 4.1281422613e-01	 2.3493451377e+00
 1.7624333815e+00	 4.3287571885e-01	 2.2696078340e+00
 1.7573826405e+00	 4.5294488273e-01	 2.1841116286e+00
 1.7520865281e+00	 4.7301755777e-01	 2.0926730049e+00
 1.7465438807e+00	 4.9308953028e-01	 1.9953558951e+00
 1.7109001280e+00	 4.8302647864e-01	 2.0569945435e+00
 1.7052280407e+00	 5.0268395265e-01	 1.9571750801e+00
 1.6993124375e+00	 5.2233233371e-01	 1.8586829728e+00
 1.6931524502e+00	 5.4196734928e-01	 1.7612121326e+00
 1.6867473050e+00	 5.6158468317e-01	 1.6648646298e+00
 1.6800963247e+00	 5.8117997796e-01	 1.5701724054e+00
 1.7180288786e+00	 4.8503908897e-01	 2.0444570932e+00
 1.7123331576e+00	 5.0477846911e-01	 1.9445469869e+00
 1.7063929060e+00	 5.2450871843e-01	 1.8457328419e+00
 1.7002072520e+00	 5.4422554657e-01	 1.7479344384e+00
 1.6937754187e+00	 5.6392461935e-01	 1.6514911109e+00
 1.6870967261e+00	 5.8360156120e-01	 1.5571848569e+00
 1.7251576291e+00	 4.8705169930e-01	 2.0321564753e+00
 1.7194382744e+00	 5.0687298558e-01	 1.9321235300e+00
 1.7134733745e+00	 5.2668510316e-01	 1.8329515601e+00
 1.7072620539e+00	 5.4648374386e-01	 1.7347732163e+00
 1.7008035325e+00	 5.6626455553e-01	 1.6381532602e+00
 1.6940971274e+00	 5.8602314445e-01	 1.5441131463e+00
 1.7322863796e+00	 4.8906430963e-01	 2.0199559929e+00
 1.7265433912e+00	 5.0896750205e-01	 1.9198071035e+00
 1.7205538430e+00	 5.2886148788e-01	 1.8202819089e+00
 1.7143168558e+00	 5.4874194115e-01	 1.7217127121e+00
 1.7078316463e+00	 5.6860449171e-01	 1.6248776745e+00
 1.7010975288e+00	 5.8844472769e-01	 1.5310269504e+00
 1.7394151302e+00	 4.9107691995e-01	 2.0077284417e+00
 1.7336485081e+00	 5.1106201852e-01	 1.9075092531e+00
 1.7276343115e+00	 5.3103787260e-01	 1.8076753643e+00
 1.7213716577e+00	 5.5100013844e-01	 1.7087452915e+00
 1.7148597600e+00	 5.7094442789e-01	 1.6116983788e+00
 1.7080979301e+00	 5.9086631093e-01	 1.5180025648e+00
 1.7465438807e+00	 4.9308953028e-01	 1.9953558951e+00
 1.7407536249e+00	 5.1315653499e-01	 1.8951504436e+00
 1.7347147800e+00	 5.3321425733e-01	 1.7950918466e+00
 1.7284264595e+00	 5.5325833573e-01	 1.6958711730e+00
 1.7218878738e+00	 5.7328436407e-01	 1.5986565409e+00
 1.7150983315e+00	 5.9328789417e-01	 1.5051226000e+00
 1.6800963247e+00	 5.8117997796e-01	 1.5701724054e+00
 1.6731989306e+00	 6.0074883764e-01	 1.4705294003e+00
 1.6660546436e+00	 6.2028683015e-01	 1.3615213758e+00
 1.6586630868e+00	 6.3978949017e-01	 1.2476212063e+00
 1.6510239863e+00	 6.5925232186e-01	 1.1337047397e+00
 1.6431371732e+00	 6.7867080176e-01	 1.0250048237e+00
 1.6870967261e+00	 5.8360156120e-01	 1.5571848569e+00
 1.6801705928e+00	 6.0325195779e-01	 1.4584879410e+00
 1.6729965380e+00	 6.2287135861e-01	 1.3506300960e+00
 1.6655741830e+00	 6.4245527971e-01	 1.2377098851e+00
 1.6579032529e+00	 6.6199920654e-01	 1.1242523372e+00
 1.6499835781e+00	 6.8149859677e-01	 1.0151637411e+00
 1.6940971274e+00	 5.8602314445e-01	 1.5441131463e+00
 1.6871422550e+00	 6.0575507795e-01	 1.4462451012e+00
 1.6799384323e+00	 6.2545588707e-01	 1.3394722773e+00
 1.6724852792e+00	 6.4512106926e-01	 1.2275214197e+00
 1.6647825195e+00	 6.6474609121e-01	 1.1145697737e+00
 1.6568299830e+00	 6.8432639177e-01	 1.0052006300e+00
 1.7010975288e+00	 5.8844472769e-01	 1.5310269504e+00
 1.6941139172e+00	 6.0825819811e-01	 1.4339105342e+00
 1.6868803267e+00	 6.2804041553e-01	 1.3281905549e+00
 1.6793963754e+00	 6.4778685880e-01	 1.2172242412e+00
 1.6716617861e+00	 6.6749297588e-01	 1.1048439399e+00
 1.6636763879e+00	 6.8715418678e-01	 9.9531339799e-01
 1.7080979301e+00	 5.9086631093e-01	 1.5180025648e+00
 1.7010855794e+00	 6.1076131827e-01	 1.4215996467e+00
 1.6938222210e+00	 6.3062494399e-01	 1.3169324586e+00
 1.6863074716e+00	 6.5045264834e-01	 1.2069908279e+00
 1.6785410527e+00	 6.7023986056e-01	 1.0952649432e+00
 1.6705227928e+00	 6.8998198179e-01	 9.8570235935e-01
 1.7150983315e+00	 5.9328789417e-01	 1.5051226000e+00
 1.7080572416e+00	 6.1326443842e-01	 1.4094332743e+00
 1.7007641154e+00	 6.3320947245e-01	 1.3058500663e+00
 1.6932185677e+00	 6.5311843788e-01	 1.1969973341e+00
 1.6854203193e+00	 6.7298674523e-01	 1.0860257080e+00
 1.6773691977e+00	 6.9280977679e-01	 9.7656980493e-01
 1.6431371732e+00	 6.7867080176e-01	 1.0250048237e+00
 1.6350025849e+00	 6.9804038171e-01	 9.2175847146e-01
 1.6266202663e+00	 7.1735649190e-01	 8.2030163130e-01
 1.6179903711e+00	 7.3661454390e-01	 7.2045845358e-01
 1.6091131629e+00	 7.5580993385e-01	 6.1939853162e-01
 1.5999890164e+00	 7.7493804563e-01	 5.0673522935e-01
 1.6499835781e+00	 6.8149859677e-01	 1.0151637411e+00
 1.6418150957e+00	 7.0094888330e-01	 9.1118556185e-01
 1.6333978507e+00	 7.2034547728e-01	 8.0955026267e-01
 1.6247319976e+00	 7.3968377117e-01	 7.1036946136e-01
 1.6158178011e+00	 7.5895914191e-01	 6.0994814971e-01
 1.6066556373e+00	 7.7816695415e-01	 4.9861882926e-01
 1.6568299830e+00	 6.8432639177e-01	 1.0052006300e+00
 1.6486276065e+00	 7.0385738489e-01	 9.0060362970e-01
 1.6401754352e+00	 7.2333446266e-01	 7.9884946017e-01
 1.6314736242e+00	 7.4275299843e-01	 7.0030717093e-01
 1.6225224393e+00	 7.6210834997e-01	 6.0035910650e-01
 1.6133222582e+00	 7.8139586267e-01	 4.9024975557e-01
 1.6636763879e+00	 6.8715418678e-01	 9.9531339799e-01
 1.6554401172e+00	 7.0676588648e-01	 8.9022062009e-01
 1.6469530196e+00	 7.2632344805e-01	 7.8842278564e-01
 1.6382152507e+00	 7.4582222570e-01	 6.9041495999e-01
 1.6292270774e+00	 7.6525755802e-01	 5.9090439038e-01
 1.6199888791e+00	 7.8462477120e-01	 4.8191478367e-01
 1.6705227928e+00	 6.8998198179e-01	 9.8570235935e-01
 1.6622526280e+00	 7.0967438807e-01	 8.8024599525e-01
 1.6537306041e+00	 7.2931243343e-01	 7.7849424645e-01
 1.6449568773e+00	 7.4889145297e-01	 6.8094171368e-01
 1.6359317156e+00	 7.6840676608e-01	 5.8184881047e-01
 1.6266555000e+00	 7.8785367972e-01	 4.7389225517e-01
 1.6773691977e+00	 6.9280977679e-01	 9.7656980493e-01
 1.6690651388e+00	 7.1258288966e-01	 8.7089027290e-01
 1.6605081885e+00	 7.3230141881e-01	 7.6928780443e-01
 1.6516985038e+00	 7.5196068023e-01	 6.7213781062e-01
 1.6426363538e+00	 7.7155597414e-01	 5.7344913765e-01
 1.6333221209e+00	 7.9108258825e-01	 4.6645222834e-01
 1.5999890164e+00	 7.7493804563e-01	 5.0673522935e-01
 1.5906184180e+00	 7.9399425412e-01	 3.8576502087e-01
 1.5810019667e+00	 8.1297392853e-01	 2.6677275507e-01
 1.5711403750e+00	 8.3187243573e-01	 1.5196105822e-01
 1.5610344690e+00	 8.5068514365e-01	 4.3318585788e-02
 1.5506851895e+00	 8.6940742473e-01	-5.7451552274e-02
 1.6066556373e+00	 7.7816695415e-01	 4.9861882926e-01
 1.5972459947e+00	 7.9730256351e-01	 3.7926644439e-01
 1.5875894749e+00	 8.1636131990e-01	 2.6140250898e-01
 1.5776867932e+00	 8.3533857088e-01	 1.4719016637e-01
 1.5675387793e+00	 8.5422966509e-01	 3.8582206195e-02
 1.5571463778e+00	 8.7302995567e-01	-6.2751504237e-02
 1.6133222582e+00	 7.8139586267e-01	 4.9024975557e-01
 1.6038735715e+00	 8.0061087291e-01	 3.7237166409e-01
 1.5941769831e+00	 8.1974871127e-01	 2.5553678163e-01
 1.5842332114e+00	 8.3880470603e-01	 1.4190726642e-01
 1.5740430896e+00	 8.5777418652e-01	 3.3436382332e-02
 1.5636075661e+00	 8.7665248660e-01	-6.8205183843e-02
 1.6199888791e+00	 7.8462477120e-01	 4.8191478367e-01
 1.6105011482e+00	 8.0391918230e-01	 3.6537564677e-01
 1.6007644913e+00	 8.2313610264e-01	 2.4946009982e-01
 1.5907796296e+00	 8.4227084118e-01	 1.3636728520e-01
 1.5805473999e+00	 8.6131870795e-01	 2.8086779939e-02
 1.5700687544e+00	 8.8027501754e-01	-7.3676320213e-02
 1.6266555000e+00	 7.8785367972e-01	 4.7389225517e-01
 1.6171287249e+00	 8.0722749169e-01	 3.5856475382e-01
 1.6073519995e+00	 8.2652349401e-01	 2.4344850820e-01
 1.5973260479e+00	 8.4573697633e-01	 1.3081709284e-01
 1.5870517102e+00	 8.6486322938e-01	 2.2731742755e-02
 1.5765299427e+00	 8.8389754848e-01	-7.9034913653e-02
 1.6333221209e+00	 7.9108258825e-01	 4.6645222834e-01
 1.6237563017e+00	 8.1053580108e-01	 3.5221689895e-01
 1.6139395077e+00	 8.2991088538e-01	 2.3776972777e-01
 1.6038724661e+00	 8.4920311148e-01	 1.2549565521e-01
 1.5935560205e+00	 8.6840775081e-01	 1.7562431969e-02
 1.5829911310e+00	 8.8752007941e-01	-8.4157116249e-02
 1.5506851895e+00	 8.6940742473e-01	-5.7451552274e-02
 1.5400935916e+00	 8.8803465936e-01	-1.5416988092e-01
 1.5292608454e+00	 9.0656223938e-01	-2.5237091174e-01
 1.5181882358e+00	 9.2498557163e-01	-3.5359674028e-01
 1.5068771627e+00	 9.4330008143e-01	-4.6001091595e-01
 1.4953291405e+00	 9.6150121614e-01	-5.7448675581e-01
 1.5571463778e+00	 8.7302995567e-01	-6.2751504237e-02
 1.5465106482e+00	 8.9173480377e-01	-1.6059677892e-01
 1.5356327656e+00	 9.1033958205e-01	-2.5997981218e-01
 1.5245140202e+00	 9.2883967818e-01	-3.6177631168e-01
 1.5131558176e+00	 9.4723049843e-01	-4.6750223105e-01
 1.5015596786e+00	 9.6550747121e-01	-5.7940556962e-01
 1.5636075661e+00	 8.7665248660e-01	-6.8205183843e-02
 1.5529277049e+00	 8.9543494819e-01	-1.6681282533e-01
 1.5420046858e+00	 9.1411692471e-01	-2.6707099929e-01
 1.5308398045e+00	 9.3269378473e-01	-3.6933593992e-01
 1.5194344724e+00	 9.5116091544e-01	-4.7461697909e-01
 1.5077902167e+00	 9.6951372627e-01	-5.8467148119e-01
 1.5700687544e+00	 8.8027501754e-01	-7.3676320213e-02
 1.5593447615e+00	 8.9913509260e-01	-1.7273939925e-01
 1.5483766060e+00	 9.1789426738e-01	-2.7357828237e-01
 1.5371655888e+00	 9.3654789128e-01	-3.7617472698e-01
 1.5257131273e+00	 9.5509133245e-01	-4.8117053567e-01
 1.5140207548e+00	 9.7351998134e-01	-5.8996527869e-01
 1.5765299427e+00	 8.8389754848e-01	-7.9034913653e-02
 1.5657618181e+00	 9.0283523701e-01	-1.7830330713e-01
 1.5547485262e+00	 9.2167161004e-01	-2.7944081030e-01
 1.5434913731e+00	 9.4040199783e-01	-3.8219781384e-01
 1.5319917821e+00	 9.5902174945e-01	-4.8698583269e-01
 1.5202512929e+00	 9.7752623641e-01	-5.9497767105e-01
 1.5829911310e+00	 8.8752007941e-01	-8.4157116249e-02
 1.5721788748e+00	 9.0653538143e-01	-1.8343667988e-01
 1.5611204463e+00	 9.2544895271e-01	-2.8460297025e-01
 1.5498171574e+00	 9.4425610438e-01	-3.8731626569e-01
 1.5382704369e+00	 9.6295216646e-01	-4.9189321385e-01
 1.5264818310e+00	 9.8153249147e-01	-5.9940909725e-01
 1.4953291405e+00	 9.6150121614e-01	-5.7448675581e-01
 1.4835457981e+00	 9.7958444873e-01	-6.8992988000e-01
 1.4715288780e+00	 9.9754528133e-01	-7.9106386156e-01
 1.4592802364e+00	 1.0153792487e+00	-8.7126548480e-01
 1.4468018419e+00	 1.0330819220e+00	-9.4689218064e-01
 1.4340957747e+00	 1.0506489119e+00	-1.0351166518e+00
 1.5015596786e+00	 9.6550747121e-01	-5.7940556962e-01
 1.4897272389e+00	 9.8366605060e-01	-6.8994450055e-01
 1.4776602483e+00	 1.0017017200e+00	-7.9262106586e-01
 1.4653605707e+00	 1.0196099956e+00	-8.7676434298e-01
 1.4528301829e+00	 1.0373864300e+00	-9.5249217766e-01
 1.4400711738e+00	 1.0550266157e+00	-1.0378570437e+00
 1.5077902167e+00	 9.6951372627e-01	-5.8467148119e-01
 1.4959086797e+00	 9.8774765247e-01	-6.9147443779e-01
 1.4837916187e+00	 1.0058581587e+00	-7.9003089131e-01
 1.4714409051e+00	 1.0238407425e+00	-8.7952726281e-01
 1.4588585239e+00	 1.0416909380e+00	-9.5699916790e-01
 1.4460465729e+00	 1.0594043195e+00	-1.0406815668e+00
 1.5140207548e+00	 9.7351998134e-01	-5.8996527869e-01
 1.5020901205e+00	 9.9182925434e-01	-6.9407014075e-01
 1.4899229890e+00	 1.0100145973e+00	-7.8835066610e-01
 1.4775212394e+00	 1.0280714893e+00	-8.7935345344e-01
 1.4648868649e+00	 1.0459954460e+00	-9.6026069776e-01
 1.4520219719e+00	 1.0637820233e+00	-1.0435527342e+00
 1.5202512929e+00	 9.7752623641e-01	-5.9497767105e-01
 1.5082715614e+00	 9.9591085621e-01	-6.9729428647e-01
 1.4960543593e+00	 1.0141710360e+00	-7.8851101294e-01
 1.4836015737e+00	 1.0323022362e+00	-8.7642045632e-01
 1.4709152059e+00	 1.0502999540e+00	-9.6213453236e-01
 1.4579973710e+00	 1.0681597271e+00	-1.0464406639e+00
 1.5264818310e+00	 9.8153249147e-01	-5.9940909725e-01
 1.5144530022e+00	 9.9999245808e-01	-7.0072154484e-01
 1.5021857297e+00	 1.0183274747e+00	-7.9002111876e-01
 1.4896819080e+00	 1.0365329831e+00	-8.7484231413e-01
 1.4769435469e+00	 1.0546044620e+00	-9.6248930520e-01
 1.4639727701e+00	 1.0725374309e+00	-1.0493237696e+00
 1.4340957747e+00	 1.0506489119e+00	-1.0351166518e+00
 1.4211642262e+00	 1.0680758724e+00	-1.1257452558e+00
 1.4080094972e+00	 1.0853585044e+00	-1.2056429574e+00
 1.3946339969e+00	 1.1024925587e+00	-1.2874533765e+00
 1.3810402417e+00	 1.1194738398e+00	-1.3777501403e+00
 1.3672308537e+00	 1.1362982090e+00	-1.4496392057e+00
 1.4400711738e+00	 1.0550266157e+00	-1.0378570437e+00
 1.4270857438e+00	 1.0725261886e+00	-1.1256876217e+00
 1.4138762034e+00	 1.0898808315e+00	-1.2055998584e+00
 1.4004449719e+00	 1.1070862777e+00	-1.2907553414e+00
 1.3867945761e+00	 1.1241383141e+00	-1.3806685985e+00
 1.3729276490e+00	 1.1410327848e+00	-1.4507908324e+00
 1.4460465729e+00	 1.0594043195e+00	-1.0406815668e+00
 1.4330072614e+00	 1.0769765047e+00	-1.1263947607e+00
 1.4197429096e+00	 1.0944031586e+00	-1.2066894065e+00
 1.4062559468e+00	 1.1116799967e+00	-1.2953673605e+00
 1.3925489104e+00	 1.1288027884e+00	-1.3821361761e+00
 1.3786244442e+00	 1.1457673607e+00	-1.4508680580e+00
 1.4520219719e+00	 1.0637820233e+00	-1.0435527342e+00
 1.4389287791e+00	 1.0814268208e+00	-1.1279483185e+00
 1.4256096159e+00	 1.0989254857e+00	-1.2090514312e+00
 1.4120669218e+00	 1.1162737157e+00	-1.2997108312e+00
 1.3983032447e+00	 1.1334672628e+00	-1.3824502965e+00
 1.3843212394e+00	 1.1505019366e+00	-1.4500480971e+00
 1.4579973710e+00	 1.0681597271e+00	-1.0464406639e+00
 1.4448502967e+00	 1.0858771370e+00	-1.1304346979e+00
 1.4314763221e+00	 1.1034478128e+00	-1.2128285128e+00
 1.4178778968e+00	 1.1208674347e+00	-1.3030059512e+00
 1.4040575791e+00	 1.1381317371e+00	-1.3819121743e+00
 1.3900180346e+00	 1.1552365125e+00	-1.4485136734e+00
 1.4639727701e+00	 1.0725374309e+00	-1.0493237696e+00
 1.4507718143e+00	 1.0903274531e+00	-1.1339457924e+00
 1.4373430284e+00	 1.1079701399e+00	-1.2181667370e+00
 1.4236888718e+00	 1.1254611537e+00	-1.3056147960e+00
 1.4098119134e+00	 1.1427962114e+00	-1.3808264701e+00
 1.3957148299e+00	 1.1599710883e+00	-1.4464526489e+00
 1.3672308537e+00	 1.1362982090e+00	-1.4496392057e+00
 1.3532085589e+00	 1.1529615879e+00	-1.5111970091e+00
 1.3389761855e+00	 1.1694599616e+00	-1.5745584033e+00
 1.3245366621e+00	 1.1857893818e+00	-1.6366379447e+00
 1.3098930158e+00	 1.2019459698e+00	-1.6934642004e+00
 1.2950483699e+00	 1.2179259201e+00	-1.7403444118e+00
 1.3729276490e+00	 1.1410327848e+00	-1.4507908324e+00
 1.3588469279e+00	 1.1577655945e+00	-1.5119870263e+00
 1.3445552529e+00	 1.1743327115e+00	-1.5748561643e+00
 1.3300555648e+00	 1.1907301709e+00	-1.6364444649e+00
 1.3153509033e+00	 1.2069540780e+00	-1.6928626682e+00
 1.3004444048e+00	 1.2230006114e+00	-1.7394553465e+00
 1.3786244442e+00	 1.1457673607e+00	-1.4508680580e+00
 1.3644852969e+00	 1.1625696012e+00	-1.5121409463e+00
 1.3501343204e+00	 1.1792054613e+00	-1.5749134307e+00
 1.3355744676e+00	 1.1956709600e+00	-1.6363239888e+00
 1.3208087909e+00	 1.2119621863e+00	-1.6925302622e+00
 1.3058404396e+00	 1.2280753028e+00	-1.7388832268e+00
 1.3843212394e+00	 1.1505019366e+00	-1.4500480971e+00
 1.3701236659e+00	 1.1673736078e+00	-1.5117022221e+00
 1.3557133878e+00	 1.1840782111e+00	-1.5746755712e+00
 1.3410933704e+00	 1.2006117491e+00	-1.6361598546e+00
 1.3262666785e+00	 1.2169702945e+00	-1.6923246575e+00
 1.3112364745e+00	 1.2331499941e+00	-1.7384966835e+00
 1.3900180346e+00	 1.1552365125e+00	-1.4485136734e+00
 1.3757620349e+00	 1.1721776144e+00	-1.5107218252e+00
 1.3612924553e+00	 1.1889509610e+00	-1.5740969622e+00
 1.3466122731e+00	 1.2055525381e+00	-1.6358453664e+00
 1.3317245660e+00	 1.2219784027e+00	-1.6921139098e+00
 1.3166325094e+00	 1.2382246854e+00	-1.7381745887e+00
 1.3957148299e+00	 1.1599710883e+00	-1.4464526489e+00
 1.3814004039e+00	 1.1769816210e+00	-1.5092578453e+00
 1.3668715227e+00	 1.1938237108e+00	-1.5731405706e+00
 1.3521311759e+00	 1.2104933272e+00	-1.6352833711e+00
 1.3371824536e+00	 1.2269865109e+00	-1.6917760407e+00
 1.3220285442e+00	 1.2432993768e+00	-1.7378056626e+00
 1.2950483699e+00	 1.2179259201e+00	-1.7403444118e+00
 1.2800059419e+00	 1.2337255026e+00	-1.7838865235e+00
 1.2647690411e+00	 1.2493410662e+00	-1.8310359861e+00
 1.2493410662e+00	 1.2647690411e+00	-1.8770339197e+00
 1.2337255026e+00	 1.2800059419e+00	-1.9170955313e+00
 1.2179259201e+00	 1.2950483699e+00	-1.9466057138e+00
 1.3004444048e+00	 1.2230006114e+00	-1.7394553465e+00
 1.2853393000e+00	 1.2388660256e+00	-1.7827540444e+00
 1.2700389121e+00	 1.2545466540e+00	-1.8296508027e+00
 1.2545466540e+00	 1.2700389121e+00	-1.8754175665e+00
 1.2388660256e+00	 1.2853393000e+00	-1.9152910873e+00
 1.2230006114e+00	 1.3004444048e+00	-1.9446742420e+00
 1.3058404396e+00	 1.2280753028e+00	-1.7388832268e+00
 1.2906726581e+00	 1.2440065485e+00	-1.7818604076e+00
 1.2753087832e+00	 1.2597522418e+00	-1.8283581930e+00
 1.2597522418e+00	 1.2753087832e+00	-1.8737051271e+00
 1.2440065485e+00	 1.2906726581e+00	-1.9131856856e+00
 1.2280753028e+00	 1.3058404396e+00	-1.9422474048e+00
 1.3112364745e+00	 1.2331499941e+00	-1.7384966835e+00
 1.2960060162e+00	 1.2491470714e+00	-1.7811061362e+00
 1.2805786542e+00	 1.2649578295e+00	-1.8270953792e+00
 1.2649578295e+00	 1.2805786542e+00	-1.8718748508e+00
 1.2491470714e+00	 1.2960060162e+00	-1.9108024376e+00
 1.2331499941e+00	 1.3112364745e+00	-1.9393965090e+00
 1.3166325094e+00	 1.2382246854e+00	-1.7381745887e+00
 1.3013393743e+00	 1.2542875943e+00	-1.7804015522e+00
 1.2858485252e+00	 1.2701634173e+00	-1.8258088933e+00
 1.2701634173e+00	 1.2858485252e+00	-1.8699137598e+00
 1.2542875943e+00	 1.3013393743e+00	-1.9081726438e+00
 1.2382246854e+00	 1.3166325094e+00	-1.9362004180e+00
 1.3220285442e+00	 1.2432993768e+00	-1.7378056626e+00
 1.3066727324e+00	 1.2594281173e+00	-1.7796664116e+00
 1.2911183962e+00	 1.2753690051e+00	-1.8244542414e+00
 1.2753690051e+00	 1.2911183962e+00	-1.8678173459e+00
 1.2594281173e+00	 1.3066727324e+00	-1.9053355239e+00
 1.2432993768e+00	 1.3220285442e+00	-1.9327453173e+00
 1.2179259201e+00	 1.2950483699e+00	-1.9466057138e+00
 1.2019459698e+00	 1.3098930158e+00	-1.9720353152e+00
 1.1857893818e+00	 1.3245366621e+00	-1.9988034064e+00
 1.1694599616e+00	 1.3389761855e+00	-2.0214716904e+00
 1.1529615879e+00	 1.3532085589e+00	-2.0354312089e+00
 1.1362982090e+00	 1.3672308537e+00	-2.0370824488e+00
 1.2230006114e+00	 1.3004444048e+00	-1.9446742420e+00
 1.2069540780e+00	 1.3153509033e+00	-1.9697972792e+00
 1.1907301709e+00	 1.3300555648e+00	-1.9959460896e+00
 1.1743327115e+00	 1.3445552529e+00	-2.0179022768e+00
 1.1577655945e+00	 1.3588469279e+00	-2.0313341782e+00
 1.1410327848e+00	 1.3729276490e+00	-2.0329818122e+00
 1.2280753028e+00	 1.3058404396e+00	-1.9422474048e+00
 1.2119621863e+00	 1.3208087909e+00	-1.9670154717e+00
 1.1956709600e+00	 1.3355744676e+00	-1.9927197299e+00
 1.1792054613e+00	 1.3501343204e+00	-2.0142967505e+00
 1.1625696012e+00	 1.3644852969e+00	-2.0276215714e+00
 1.1457673607e+00	 1.3786244442e+00	-2.0296978016e+00
 1.2331499941e+00	 1.3112364745e+00	-1.9393965090e+00
 1.2169702945e+00	 1.3262666785e+00	-1.9637879639e+00
 1.2006117491e+00	 1.3410933704e+00	-1.9892036875e+00
 1.1840782111e+00	 1.3557133878e+00	-2.0106708973e+00
 1.1673736078e+00	 1.3701236659e+00	-2.0242014084e+00
 1.1505019366e+00	 1.3843212394e+00	-2.0269872104e+00
 1.2382246854e+00	 1.3166325094e+00	-1.9362004180e+00
 1.2219784027e+00	 1.3317245660e+00	-1.9602201008e+00
 1.2055525381e+00	 1.3466122731e+00	-1.9854850480e+00
 1.1889509610e+00	 1.3612924553e+00	-2.0070493962e+00
 1.1721776144e+00	 1.3757620349e+00	-2.0209924657e+00
 1.1552365125e+00	 1.3900180346e+00	-2.0246201287e+00
 1.2432993768e+00	 1.3220285442e+00	-1.9327453173e+00
 1.2269865109e+00	 1.3371824536e+00	-1.9564242954e+00
 1.2104933272e+00	 1.3521311759e+00	-1.9816584310e+00
 1.1938237108e+00	 1.3668715227e+00	-2.0034656273e+00
 1.1769816210e+00	 1.3814004039e+00	-2.0179240704e+00
 1.1599710883e+00	 1.3957148299e+00	-2.0223797085e+00
 1.1362982090e+00	 1.3672308537e+00	-2.0370824488e+00
 1.1194738398e+00	 1.3810402417e+00	-2.0402564016e+00
 1.1024925587e+00	 1.3946339969e+00	-2.0542287075e+00
 1.0853585044e+00	 1.4080094972e+00	-2.0618126357e+00
 1.0680758724e+00	 1.4211642262e+00	-2.0641933417e+00
 1.0506489119e+00	 1.4340957747e+00	-2.0664301176e+00
 1.1410327848e+00	 1.3729276490e+00	-2.0329818122e+00
 1.1241383141e+00	 1.3867945761e+00	-2.0356152312e+00
 1.1070862777e+00	 1.4004449719e+00	-2.0494876411e+00
 1.0898808315e+00	 1.4138762034e+00	-2.0581702915e+00
 1.0725261886e+00	 1.4270857438e+00	-2.0594016820e+00
 1.0550266157e+00	 1.4400711738e+00	-2.0587532585e+00
 1.1457673607e+00	 1.3786244442e+00	-2.0296978016e+00
 1.1288027884e+00	 1.3925489104e+00	-2.0320240148e+00
 1.1116799967e+00	 1.4062559468e+00	-2.0443112409e+00
 1.0944031586e+00	 1.4197429096e+00	-2.0542122284e+00
 1.0769765047e+00	 1.4330072614e+00	-2.0544826828e+00
 1.0594043195e+00	 1.4460465729e+00	-2.0513853290e+00
 1.1505019366e+00	 1.3843212394e+00	-2.0269872104e+00
 1.1334672628e+00	 1.3983032447e+00	-2.0291010237e+00
 1.1162737157e+00	 1.4120669218e+00	-2.0391409798e+00
 1.0989254857e+00	 1.4256096159e+00	-2.0494673951e+00
 1.0814268208e+00	 1.4389287791e+00	-2.0490198423e+00
 1.0637820233e+00	 1.4520219719e+00	-2.0440269305e+00
 1.1552365125e+00	 1.3900180346e+00	-2.0246201287e+00
 1.1381317371e+00	 1.4040575791e+00	-2.0264801137e+00
 1.1208674347e+00	 1.4178778968e+00	-2.0341082496e+00
 1.1034478128e+00	 1.4314763221e+00	-2.0434845859e+00
 1.0858771370e+00	 1.4448502967e+00	-2.0426136479e+00
 1.0681597271e+00	 1.4579973710e+00	-2.0363917800e+00
 1.1599710883e+00	 1.3957148299e+00	-2.0223797085e+00
 1.1427962114e+00	 1.4098119134e+00	-2.0238104654e+00
 1.1254611537e+00	 1.4236888718e+00	-2.0287929531e+00
 1.1079701399e+00	 1.4373430284e+00	-2.0358326867e+00
 1.0903274531e+00	 1.4507718143e+00	-2.0348818307e+00
 1.0725374309e+00	 1.4639727701e+00	-2.0282069939e+00
 1.0506489119e+00	 1.4340957747e+00	-2.0664301176e+00
 1.0330819220e+00	 1.4468018419e+00	-2.0543424947e+00
 1.0153792487e+00	 1.4592802364e+00	-2.0220515541e+00
 9.9754528133e-01	 1.4715288780e+00	-1.9878566143e+00
 9.7958444873e-01	 1.4835457981e+00	-1.9695006890e+00
 9.6150121614e-01	 1.4953291405e+00	-1.9602163455e+00
 1.0550266157e+00	 1.4400711738e+00	-2.0587532585e+00
 1.0373864300e+00	 1.4528301829e+00	-2.0443111056e+00
 1.0196099956e+00	 1.4653605707e+00	-2.0127419236e+00
 1.0017017200e+00	 1.4776602483e+00	-1.9832600307e+00
 9.8366605060e-01	 1.4897272389e+00	-1.9671022249e+00
 9.6550747121e-01	 1.5015596786e+00	-1.9531066962e+00
 1.0594043195e+00	 1.4460465729e+00	-2.0513853290e+00
 1.0416909380e+00	 1.4588585239e+00	-2.0355382512e+00
 1.0238407425e+00	 1.4714409051e+00	-2.0061584173e+00
 1.0058581587e+00	 1.4837916187e+00	-1.9826519568e+00
 9.8774765247e-01	 1.4959086797e+00	-1.9628404092e+00
 9.6951372627e-01	 1.5077902167e+00	-1.9454200785e+00
 1.0637820233e+00	 1.4520219719e+00	-2.0440269305e+00
 1.0459954460e+00	 1.4648868649e+00	-2.0278348175e+00
 1.0280714893e+00	 1.4775212394e+00	-2.0021492827e+00
 1.0100145973e+00	 1.4899229890e+00	-1.9806810450e+00
 9.9182925434e-01	 1.5020901205e+00	-1.9571508943e+00
 9.7351998134e-01	 1.5140207548e+00	-1.9374442370e+00
 1.0681597271e+00	 1.4579973710e+00	-2.0363917800e+00
 1.0502999540e+00	 1.4709152059e+00	-2.0210210704e+00
 1.0323022362e+00	 1.4836015737e+00	-2.0002255865e+00
 1.0141710360e+00	 1.4960543593e+00	-1.9763918364e+00
 9.9591085621e-01	 1.5082715614e+00	-1.9504661453e+00
 9.7752623641e-01	 1.5202512929e+00	-1.9294662250e+00
 1.0725374309e+00	 1.4639727701e+00	-2.0282069939e+00
 1.0546044620e+00	 1.4769435469e+00	-2.0149269650e+00
 1.0365329831e+00	 1.4896819080e+00	-1.9963325309e+00
 1.0183274747e+00	 1.5021857297e+00	-1.9702935051e+00
 9.9999245808e-01	 1.5144530022e+00	-1.9432153677e+00
 9.8153249147e-01	 1.5264818310e+00	-1.9217722916e+00
 9.6150121614e-01	 1.4953291405e+00	-1.9602163455e+00
 9.4330008143e-01	 1.5068771627e+00	-1.9443145751e+00
 9.2498557163e-01	 1.5181882358e+00	-1.9155279483e+00
 9.0656223938e-01	 1.5292608454e+00	-1.8775349284e+00
 8.8803465936e-01	 1.5400935916e+00	-1.8334158021e+00
 8.6940742473e-01	 1.5506851895e+00	-1.7857201846e+00
 9.6550747121e-01	 1.5015596786e+00	-1.9531066962e+00
 9.4723049843e-01	 1.5131558176e+00	-1.9347243780e+00
 9.2883967818e-01	 1.5245140202e+00	-1.9052155977e+00
 9.1033958205e-01	 1.5356327656e+00	-1.8676247483e+00
 8.9173480377e-01	 1.5465106482e+00	-1.8243767672e+00
 8.7302995567e-01	 1.5571463778e+00	-1.7773480086e+00
 9.6951372627e-01	 1.5077902167e+00	-1.9454200785e+00
 9.5116091544e-01	 1.5194344724e+00	-1.9253603060e+00
 9.3269378473e-01	 1.5308398045e+00	-1.8954177255e+00
 9.1411692471e-01	 1.5420046858e+00	-1.8581417676e+00
 8.9543494819e-01	 1.5529277049e+00	-1.8154488044e+00
 8.7665248660e-01	 1.5636075661e+00	-1.7686960270e+00
 9.7351998134e-01	 1.5140207548e+00	-1.9374442370e+00
 9.5509133245e-01	 1.5257131273e+00	-1.9163619340e+00
 9.3654789128e-01	 1.5371655888e+00	-1.8861871231e+00
 9.1789426738e-01	 1.5483766060e+00	-1.8491114618e+00
 8.9913509260e-01	 1.5593447615e+00	-1.8066875685e+00
 8.8027501754e-01	 1.5700687544e+00	-1.7599055442e+00
 9.7752623641e-01	 1.5202512929e+00	-1.9294662250e+00
 9.5902174945e-01	 1.5319917821e+00	-1.9078706474e+00
 9.4040199783e-01	 1.5434913731e+00	-1.8775798857e+00
 9.2167161004e-01	 1.5547485262e+00	-1.8405631246e+00
 9.0283523701e-01	 1.5657618181e+00	-1.7981520968e+00
 8.8389754848e-01	 1.5765299427e+00	-1.7511198926e+00
 9.8153249147e-01	 1.5264818310e+00	-1.9217722916e+00
 9.6295216646e-01	 1.5382704369e+00	-1.9000294885e+00
 9.4425610438e-01	 1.5498171574e+00	-1.8696552390e+00
 9.2544895271e-01	 1.5611204463e+00	-1.8325296937e+00
 9.0653538143e-01	 1.5721788748e+00	-1.7899046533e+00
 8.8752007941e-01	 1.5829911310e+00	-1.7424843134e+00
 8.6940742473e-01	 1.5506851895e+00	-1.7857201846e+00
 8.5068514365e-01	 1.5610344690e+00	-1.7393039863e+00
 8.3187243573e-01	 1.5711403750e+00	-1.6969565032e+00
 8.1297392853e-01	 1.5810019667e+00	-1.6575876327e+00
 7.9399425412e-01	 1.5906184180e+00	-1.6199146343e+00
 7.7493804563e-01	 1.5999890164e+00	-1.5825209538e+00
 8.7302995567e-01	 1.5571463778e+00	-1.7773480086e+00
 8.5422966509e-01	 1.5675387793e+00	-1.7310997711e+00
 8.3533857088e-01	 1.5776867932e+00	-1.6885993704e+00
 8.1636131990e-01	 1.5875894749e+00	-1.6487815998e+00
 7.9730256351e-01	 1.5972459947e+00	-1.6103904562e+00
 7.7816695415e-01	 1.6066556373e+00	-1.5720390362e+00
 8.7665248660e-01	 1.5636075661e+00	-1.7686960270e+00
 8.5777418652e-01	 1.5740430896e+00	-1.7223145249e+00
 8.3880470603e-01	 1.5842332114e+00	-1.6794998736e+00
 8.1974871127e-01	 1.5941769831e+00	-1.6391961759e+00
 8.0061087291e-01	 1.6038735715e+00	-1.6001537516e+00
 7.8139586267e-01	 1.6133222582e+00	-1.5609902437e+00
 8.8027501754e-01	 1.5700687544e+00	-1.7599055442e+00
 8.6131870795e-01	 1.5805473999e+00	-1.7131835594e+00
 8.4227084118e-01	 1.5907796296e+00	-1.6699500974e+00
 8.2313610264e-01	 1.6007644913e+00	-1.6291432413e+00
 8.0391918230e-01	 1.6105011482e+00	-1.5894995259e+00
 7.8462477120e-01	 1.6199888791e+00	-1.5496163905e+00
 8.8389754848e-01	 1.5765299427e+00	-1.7511198926e+00
 8.6486322938e-01	 1.5870517102e+00	-1.7039427102e+00
 8.4573697633e-01	 1.5973260479e+00	-1.6602417427e+00
 8.2652349401e-01	 1.6073519995e+00	-1.6189339759e+00
 8.0722749169e-01	 1.6171287249e+00	-1.5787223512e+00
 7.8785367972e-01	 1.6266555000e+00	-1.5381597008e+00
 8.8752007941e-01	 1.5829911310e+00	-1.7424843134e+00
 8.6840775081e-01	 1.5935560205e+00	-1.6948282581e+00
 8.4920311148e-01	 1.6038724661e+00	-1.6506660753e+00
 8.2991088538e-01	 1.6139395077e+00	-1.6088788221e+00
 8.1053580108e-01	 1.6237563017e+00	-1.5681163313e+00
 7.9108258825e-01	 1.6333221209e+00	-1.5268627650e+00
 7.7493804563e-01	 1.5999890164e+00	-1.5825209538e+00
 7.5580993385e-01	 1.6091131629e+00	-1.5347759962e+00
 7.3661454390e-01	 1.6179903711e+00	-1.4733488185e+00
 7.1735649190e-01	 1.6266202663e+00	-1.4102753442e+00
 6.9804038171e-01	 1.6350025849e+00	-1.3502736895e+00
 6.7867080176e-01	 1.6431371732e+00	-1.2953737299e+00
 7.7816695415e-01	 1.6066556373e+00	-1.5720390362e+00
 7.5895914191e-01	 1.6158178011e+00	-1.5236463832e+00
 7.3968377117e-01	 1.6247319976e+00	-1.4620127447e+00
 7.2034547728e-01	 1.6333978507e+00	-1.3985407401e+00
 7.0094888330e-01	 1.6418150957e+00	-1.3389346878e+00
 6.8149859677e-01	 1.6499835781e+00	-1.2848376884e+00
 7.8139586267e-01	 1.6133222582e+00	-1.5609902437e+00
 7.6210834997e-01	 1.6225224393e+00	-1.5121201703e+00
 7.4275299843e-01	 1.6314736242e+00	-1.4505664007e+00
 7.2333446266e-01	 1.6401754352e+00	-1.3867491052e+00
 7.0385738489e-01	 1.6486276065e+00	-1.3275273620e+00
 6.8432639177e-01	 1.6568299830e+00	-1.2741879442e+00
 7.8462477120e-01	 1.6199888791e+00	-1.5496163905e+00
 7.6525755802e-01	 1.6292270774e+00	-1.5003770548e+00
 7.4582222570e-01	 1.6382152507e+00	-1.4390183939e+00
 7.2632344805e-01	 1.6469530196e+00	-1.3750101823e+00
 7.0676588648e-01	 1.6554401172e+00	-1.3161428779e+00
 6.8715418678e-01	 1.6636763879e+00	-1.2635142172e+00
 7.8785367972e-01	 1.6266555000e+00	-1.5381597008e+00
 7.6840676608e-01	 1.6359317156e+00	-1.4885981156e+00
 7.4889145297e-01	 1.6449568773e+00	-1.4274960568e+00
 7.2931243343e-01	 1.6537306041e+00	-1.3634400117e+00
 7.0967438807e-01	 1.6622526280e+00	-1.3048795841e+00
 6.8998198179e-01	 1.6705227928e+00	-1.2529139230e+00
 7.9108258825e-01	 1.6333221209e+00	-1.5268627650e+00
 7.7155597414e-01	 1.6426363538e+00	-1.4769657554e+00
 7.5196068023e-01	 1.6516985038e+00	-1.4161392779e+00
 7.3230141881e-01	 1.6605081885e+00	-1.3521604635e+00
 7.1258288966e-01	 1.6690651388e+00	-1.2938425706e+00
 6.9280977679e-01	 1.6773691977e+00	-1.2424917644e+00
 6.7867080176e-01	 1.6431371732e+00	-1.2953737299e+00
 6.5925232186e-01	 1.6510239863e+00	-1.2477395552e+00
 6.3978949017e-01	 1.6586630868e+00	-1.2048692419e+00
 6.2028683015e-01	 1.6660546436e+00	-1.1622458715e+00
 6.0074883764e-01	 1.6731989306e+00	-1.1157092287e+00
 5.8117997796e-01	 1.6800963247e+00	-1.0614873186e+00
 6.8149859677e-01	 1.6499835781e+00	-1.2848376884e+00
 6.6199920654e-01	 1.6579032529e+00	-1.2375993501e+00
 6.4245527971e-01	 1.6655741830e+00	-1.1943668929e+00
 6.2287135861e-01	 1.6729965380e+00	-1.1509603511e+00
 6.0325195779e-01	 1.6801705928e+00	-1.1035794720e+00
 5.8360156120e-01	 1.6870967261e+00	-1.0488342229e+00
 6.8432639177e-01	 1.6568299830e+00	-1.2741879442e+00
 6.6474609121e-01	 1.6647825195e+00	-1.2273036642e+00
 6.4512106926e-01	 1.6724852792e+00	-1.1837092232e+00
 6.2545588707e-01	 1.6799384323e+00	-1.1395567856e+00
 6.0575507795e-01	 1.6871422550e+00	-1.0914013008e+00
 5.8602314445e-01	 1.6940971274e+00	-1.0362300231e+00
 6.8715418678e-01	 1.6636763879e+00	-1.2635142172e+00
 6.6749297588e-01	 1.6716617861e+00	-1.2169439868e+00
 6.4778685880e-01	 1.6793963754e+00	-1.1729788734e+00
 6.2804041553e-01	 1.6868803267e+00	-1.1280985019e+00
 6.0825819811e-01	 1.6941139172e+00	-1.0792084573e+00
 5.8844472769e-01	 1.7010975288e+00	-1.0236688417e+00
 6.8998198179e-01	 1.6705227928e+00	-1.2529139230e+00
 6.7023986056e-01	 1.6785410527e+00	-1.2066198666e+00
 6.5045264834e-01	 1.6863074716e+00	-1.1622669815e+00
 6.3062494399e-01	 1.6938222210e+00	-1.1166578308e+00
 6.1076131827e-01	 1.7010855794e+00	-1.0670442575e+00
 5.9086631093e-01	 1.7080979301e+00	-1.0111550028e+00
 6.9280977679e-01	 1.6773691977e+00	-1.2424917644e+00
 6.7298674523e-01	 1.6854203193e+00	-1.1964385374e+00
 6.5311843788e-01	 1.6932185677e+00	-1.1516728386e+00
 6.3320947245e-01	 1.7007641154e+00	-1.1053157887e+00
 6.1326443842e-01	 1.7080572416e+00	-1.0549612957e+00
 5.9328789417e-01	 1.7150983315e+00	-9.9870275682e-01
 5.8117997796e-01	 1.6800963247e+00	-1.0614873186e+00
 5.6158468317e-01	 1.6867473050e+00	-1.0032024245e+00
 5.4196734928e-01	 1.6931524502e+00	-9.4632976020e-01
 5.2233233371e-01	 1.6993124375e+00	-8.9046836765e-01
 5.0268395265e-01	 1.7052280407e+00	-8.3558491034e-01
 4.8302647864e-01	 1.7109001280e+00	-7.8198645302e-01
 5.8360156120e-01	 1.6870967261e+00	-1.0488342229e+00
 5.6392461935e-01	 1.6937754187e+00	-9.9065481264e-01
 5.4422554657e-01	 1.7002072520e+00	-9.3434295916e-01
 5.2450871843e-01	 1.7063929060e+00	-8.7918741481e-01
 5.0477846911e-01	 1.7123331576e+00	-8.2486260579e-01
 4.8503908897e-01	 1.7180288786e+00	-7.7140002017e-01
 5.8602314445e-01	 1.6940971274e+00	-1.0362300231e+00
 5.6626455553e-01	 1.7008035325e+00	-9.7825513970e-01
 5.4648374386e-01	 1.7072620539e+00	-9.2259062738e-01
 5.2668510316e-01	 1.7134733745e+00	-8.6822879529e-01
 5.0687298558e-01	 1.7194382744e+00	-8.1456681291e-01
 4.8705169930e-01	 1.7251576291e+00	-7.6137662811e-01
 5.8844472769e-01	 1.7010975288e+00	-1.0236688417e+00
 5.6860449171e-01	 1.7078316463e+00	-9.6595320070e-01
 5.4874194115e-01	 1.7143168558e+00	-9.1097873499e-01
 5.2886148788e-01	 1.7205538430e+00	-8.5745526711e-01
 5.0896750205e-01	 1.7265433912e+00	-8.0451782958e-01
 4.8906430963e-01	 1.7322863796e+00	-7.5169503320e-01
 5.9086631093e-01	 1.7080979301e+00	-1.0111550028e+00
 5.7094442789e-01	 1.7148597600e+00	-9.5370959226e-01
 5.5100013844e-01	 1.7213716577e+00	-8.9942454115e-01
 5.3103787260e-01	 1.7276343115e+00	-8.4674125304e-01
 5.1106201852e-01	 1.7336485081e+00	-7.9454788351e-01
 4.9107691995e-01	 1.7394151302e+00	-7.4214607784e-01
 5.9328789417e-01	 1.7150983315e+00	-9.9870275682e-01
 5.7328436407e-01	 1.7218878738e+00	-9.4149545491e-01
 5.5325833573e-01	 1.7284264595e+00	-8.8785635396e-01
 5.3321425733e-01	 1.7347147800e+00	-8.3597261781e-01
 5.1315653499e-01	 1.7407536249e+00	-7.8450092654e-01
 4.9308953028e-01	 1.7465438807e+00	-7.3253250167e-01
 4.8302647864e-01	 1.7109001280e+00	-7.8198645302e-01
 4.6336413823e-01	 1.7163296602e+00	-7.3304749730e-01
 4.4370110961e-01	 1.7215176887e+00	-6.9007626462e-01
 4.2404152051e-01	 1.7264653533e+00	-6.5067882983e-01
 4.0438944601e-01	 1.7311738801e+00	-6.1264204785e-01
 3.8474890661e-01	 1.7356445794e+00	-5.7388370691e-01
 4.8503908897e-01	 1.7180288786e+00	-7.7140002017e-01
 4.6529482214e-01	 1.7234810338e+00	-7.2190642773e-01
 4.4554986424e-01	 1.7286906791e+00	-6.7795829255e-01
 4.2580836018e-01	 1.7336589589e+00	-6.3770029790e-01
 4.0607440203e-01	 1.7383871046e+00	-5.9945314963e-01
 3.8635202706e-01	 1.7428764318e+00	-5.6165980666e-01
 4.8705169930e-01	 1.7251576291e+00	-7.6137662811e-01
 4.6722550605e-01	 1.7306324074e+00	-7.1149975196e-01
 4.4739861886e-01	 1.7358636694e+00	-6.6674250097e-01
 4.2757519984e-01	 1.7408525645e+00	-6.2574460231e-01
 4.0775935806e-01	 1.7456003291e+00	-5.8731831946e-01
 3.8795514750e-01	 1.7501082842e+00	-5.5039075092e-01
 4.8906430963e-01	 1.7322863796e+00	-7.5169503320e-01
 4.6915618996e-01	 1.7377837810e+00	-7.0156459054e-01
 4.4924737348e-01	 1.7430366598e+00	-6.5612381293e-01
 4.2934203951e-01	 1.7480461702e+00	-6.1446492452e-01
 4.0944431408e-01	 1.7528135536e+00	-5.7585048524e-01
 3.8955826794e-01	 1.7573401366e+00	-5.3965174618e-01
 4.9107691995e-01	 1.7394151302e+00	-7.4214607784e-01
 4.7108687387e-01	 1.7449351546e+00	-6.9185021942e-01
 4.5109612811e-01	 1.7502096502e+00	-6.4580930340e-01
 4.3110887918e-01	 1.7552397758e+00	-6.0352651204e-01
 4.1112927011e-01	 1.7600267781e+00	-5.6467446383e-01
 3.9116138839e-01	 1.7645719891e+00	-5.2902961120e-01
 4.9308953028e-01	 1.7465438807e+00	-7.3253250167e-01
 4.7301755777e-01	 1.7520865281e+00	-6.8211789729e-01
 4.5294488273e-01	 1.7573826405e+00	-6.3551804182e-01
 4.3287571885e-01	 1.7624333815e+00	-5.9260653555e-01
 4.1281422613e-01	 1.7672400026e+00	-5.5342683228e-01
 3.9276450883e-01	 1.7718038415e+00	-5.1812266216e-01
 3.8474890661e-01	 1.7356445794e+00	-5.7388370691e-01
 3.6512386628e-01	 1.7398788433e+00	-5.2363016138e-01
 3.4551823062e-01	 1.7438781435e+00	-4.7826582111e-01
 3.2593584521e-01	 1.7476440290e+00	-4.4493996973e-01
 3.0638049390e-01	 1.7511781235e+00	-4.1724124530e-01
 2.8685589735e-01	 1.7544821234e+00	-3.8893516138e-01
 3.8635202706e-01	 1.7428764318e+00	-5.6165980666e-01
 3.6664521572e-01	 1.7471283385e+00	-5.1338578010e-01
 3.4695788992e-01	 1.7511443025e+00	-4.6717659534e-01
 3.2729391123e-01	 1.7549258791e+00	-4.3294930352e-01
 3.0765707930e-01	 1.7584746990e+00	-4.0467793842e-01
 2.8805113025e-01	 1.7617924656e+00	-3.7642783561e-01
 3.8795514750e-01	 1.7501082842e+00	-5.5039075092e-01
 3.6816656516e-01	 1.7543778337e+00	-5.0428020671e-01
 3.4839754921e-01	 1.7584104614e+00	-4.5736311667e-01
 3.2865197726e-01	 1.7622077292e+00	-4.2231806269e-01
 3.0893366469e-01	 1.7657712745e+00	-3.9354489477e-01
 2.8924636316e-01	 1.7691028078e+00	-3.6544405964e-01
 3.8955826794e-01	 1.7573401366e+00	-5.3965174618e-01
 3.6968791461e-01	 1.7616273289e+00	-4.9579971512e-01
 3.4983720851e-01	 1.7656766203e+00	-4.4828416265e-01
 3.3001004328e-01	 1.7694895793e+00	-4.1248942820e-01
 3.1021025008e-01	 1.7730678500e+00	-3.8328030243e-01
 2.9044159607e-01	 1.7764131499e+00	-3.5542624058e-01
 3.9116138839e-01	 1.7645719891e+00	-5.2902961120e-01
 3.7120926405e-01	 1.7688768240e+00	-4.8739978369e-01
 3.5127686780e-01	 1.7729427793e+00	-4.3940715985e-01
 3.3136810930e-01	 1.7767714294e+00	-4.0291245167e-01
 3.1148683547e-01	 1.7803644255e+00	-3.7332583711e-01
 2.9163682897e-01	 1.7837234921e+00	-3.4581828642e-01
 3.9276450883e-01	 1.7718038415e+00	-5.1812266216e-01
 3.7273061349e-01	 1.7761263192e+00	-4.7840154486e-01
 3.5271652710e-01	 1.7802089382e+00	-4.3020852337e-01
 3.3272617532e-01	 1.7840532796e+00	-3.9304235176e-01
 3.1276342086e-01	 1.7876610010e+00	-3.6312691767e-01
 2.9283206188e-01	 1.7910338343e+00	-3.3606582291e-01
 2.8685589735e-01	 1.7544821234e+00	-3.8893516138e-01
 2.6736571154e-01	 1.7575577952e+00	-3.5827227188e-01
 2.4791352648e-01	 1.7604069730e+00	-3.2873192908e-01
 2.2850286493e-01	 1.7630315561e+00	-3.0194763548e-01
 2.0913718130e-01	 1.7654335067e+00	-2.7947371644e-01
 1.8981986052e-01	 1.7676148471e+00	-2.6282518886e-01
 2.8805113025e-01	 1.7617924656e+00	-3.7642783561e-01
 2.6847973534e-01	 1.7648809527e+00	-3.4626193907e-01
 2.4894649950e-01	 1.7677420020e+00	-3.1728207700e-01
 2.2945496020e-01	 1.7703775209e+00	-2.9103105134e-01
 2.1000858622e-01	 1.7727894796e+00	-2.6891947200e-01
 1.9061077660e-01	 1.7749799090e+00	-2.5227572242e-01
 2.8924636316e-01	 1.7691028078e+00	-3.6544405964e-01
 2.6959375914e-01	 1.7722041102e+00	-3.3590151144e-01
 2.4997947253e-01	 1.7750770311e+00	-3.0761352101e-01
 2.3040705548e-01	 1.7777234858e+00	-2.8200433333e-01
 2.1087999114e-01	 1.7801454526e+00	-2.6031132107e-01
 1.9140169269e-01	 1.7823449708e+00	-2.4364540954e-01
 2.9044159607e-01	 1.7764131499e+00	-3.5542624058e-01
 2.7070778293e-01	 1.7795272676e+00	-3.2665169882e-01
 2.5101244556e-01	 1.7824120602e+00	-2.9922454527e-01
 2.3135915075e-01	 1.7850694506e+00	-2.7442156048e-01
 2.1175139606e-01	 1.7875014255e+00	-2.5327622542e-01
 1.9219260877e-01	 1.7897100327e+00	-2.3664997760e-01
 2.9163682897e-01	 1.7837234921e+00	-3.4581828642e-01
 2.7182180673e-01	 1.7868504251e+00	-3.1797301679e-01
 2.5204541859e-01	 1.7897470892e+00	-2.9161172327e-01
 2.3231124602e-01	 1.7924154154e+00	-2.6783375013e-01
 2.1262280098e-01	 1.7948573985e+00	-2.4743688540e-01
 1.9298352486e-01	 1.7970750946e+00	-2.3099982859e-01
 2.9283206188e-01	 1.7910338343e+00	-3.3606582291e-01
 2.7293583053e-01	 1.7941735826e+00	-3.0932596874e-01
 2.5307839161e-01	 1.7970821183e+00	-2.8427007095e-01
 2.3326334129e-01	 1.7997613802e+00	-2.6178898809e-01
 2.1349420591e-01	 1.8022133714e+00	-2.4241185253e-01
 1.9377444094e-01	 1.8044401564e+00	-2.2640013989e-01
 1.8981986052e-01	 1.7676148471e+00	-2.6282518886e-01
 1.7055421715e-01	 1.7695776576e+00	-2.4944237174e-01
 1.5134349449e-01	 1.7713240736e+00	-2.3591237154e-01
 1.3219086378e-01	 1.7728562837e+00	-2.2267194328e-01
 1.1309942352e-01	 1.7741765266e+00	-2.1048922992e-01
 9.4072198906e-02	 1.7752870891e+00	-2.0054731138e-01
 1.9061077660e-01	 1.7749799090e+00	-2.5227572242e-01
 1.7126485972e-01	 1.7769508978e+00	-2.3865313011e-01
 1.5197409238e-01	 1.7787045906e+00	-2.2495924981e-01
 1.3274165904e-01	 1.7802431849e+00	-2.1172289182e-01
 1.1357067112e-01	 1.7815689288e+00	-1.9980355929e-01
 9.4464166402e-02	 1.7826841186e+00	-1.9048486961e-01
 1.9140169269e-01	 1.7823449708e+00	-2.4364540954e-01
 1.7197550229e-01	 1.7843241381e+00	-2.2967097347e-01
 1.5260469028e-01	 1.7860851076e+00	-2.1565503011e-01
 1.3329245431e-01	 1.7876300861e+00	-2.0224449163e-01
 1.1404191872e-01	 1.7889613310e+00	-1.9041146549e-01
 9.4856133897e-02	 1.7900811481e+00	-1.8155694002e-01
 1.9219260877e-01	 1.7897100327e+00	-2.3664997760e-01
 1.7268614486e-01	 1.7916973783e+00	-2.2229762269e-01
 1.5323528817e-01	 1.7934656246e+00	-2.0786551050e-01
 1.3384324957e-01	 1.7950169873e+00	-1.9414271273e-01
 1.1451316632e-01	 1.7963537332e+00	-1.8223320230e-01
 9.5248101393e-02	 1.7974781777e+00	-1.7367020369e-01
 1.9298352486e-01	 1.7970750946e+00	-2.3099982859e-01
 1.7339678744e-01	 1.7990706185e+00	-2.1632881414e-01
 1.5386588606e-01	 1.8008461415e+00	-2.0145052546e-01
 1.3439404484e-01	 1.8024038884e+00	-1.8731825524e-01
 1.1498441392e-01	 1.8037461354e+00	-1.7518511157e-01
 9.5640068888e-02	 1.8048752072e+00	-1.6672944226e-01
 1.9377444094e-01	 1.8044401564e+00	-2.2640013989e-01
 1.7410743001e-01	 1.8064438588e+00	-2.1155438809e-01
 1.5449648396e-01	 1.8082266585e+00	-1.9626401546e-01
 1.3494484011e-01	 1.8097907896e+00	-1.8166659324e-01
 1.1545566151e-01	 1.8111385376e+00	-1.6917963398e-01
 9.6032036383e-02	 1.8122722367e+00	-1.6063750813e-01
 9.4072198906e-02	 1.7752870891e+00	-2.0054731138e-01
 7.5112141246e-02	 1.7761903033e+00	-1.9124150137e-01
 5.6222127583e-02	 1.7768885445e+00	-1.8166181133e-01
 3.7404960328e-02	 1.7773842286e+00	-1.7484694523e-01
 1.8663366992e-02	 1.7776798097e+00	-1.7448759745e-01
 0.0000000000e+00	 1.7777777778e+00	-1.8497698121e-01
 9.4464166402e-02	 1.7826841186e+00	-1.9048486961e-01
 7.5425108501e-02	 1.7835910962e+00	-1.8196201426e-01
 5.6456386448e-02	 1.7842922468e+00	-1.7292289736e-01
 3.7560814330e-02	 1.7847899962e+00	-1.6624431882e-01
 1.8741131022e-02	 1.7850868089e+00	-1.6549937794e-01
 0.0000000000e+00	 1.7851851852e+00	-1.7501646964e-01
 9.4856133897e-02	 1.7900811481e+00	-1.8155694002e-01
 7.5738075756e-02	 1.7909918891e+00	-1.7366450784e-01
 5.6690645313e-02	 1.7916959490e+00	-1.6500562105e-01
 3.7716668331e-02	 1.7921957638e+00	-1.5830636417e-01
 1.8818895051e-02	 1.7924938081e+00	-1.5703589641e-01
 0.0000000000e+00	 1.7925925926e+00	-1.6547410262e-01
 9.5248101393e-02	 1.7974781777e+00	-1.7367020369e-01
 7.6051043011e-02	 1.7983926821e+00	-1.6623759835e-01
 5.6924904178e-02	 1.7990996513e+00	-1.5779930322e-01
 3.7872522332e-02	 1.7996015315e+00	-1.5093976748e-01
 1.8896659080e-02	 1.7999008073e+00	-1.4903576077e-01
 0.0000000000e+00	 1.8000000000e+00	-1.5633287448e-01
 9.5640068888e-02	 1.8048752072e+00	-1.6672944226e-01
 7.6364010267e-02	 1.8057934750e+00	-1.5957024421e-01
 5.7159163043e-02	 1.8065033536e+00	-1.5119565345e-01
 3.8028376334e-02	 1.8070072991e+00	-1.4405544677e-01
 1.8974423109e-02	 1.8073078066e+00	-1.4144344205e-01
 0.0000000000e+00	 1.8074074074e+00	-1.4758305400e-01
 9.6032036383e-02	 1.8122722367e+00	-1.6063750813e-01
 7.6676977522e-02	 1.8131942679e+00	-1.5355167613e-01
 5.7393421908e-02	 1.8139070558e+00	-1.4508866860e-01
 3.8184230335e-02	 1.8144130667e+00	-1.3756842710e-01
 1.9052187138e-02	 1.8147148058e+00	-1.3420913408e-01
 0.0000000000e+00	 1.8148148148e+00	-1.3922203592e-01
 1.8148148148e+00	 0.0000000000e+00	 3.1999818443e+00
 1.8147148058e+00	 1.9052187138e-02	 3.1987564952e+00
 1.8144130667e+00	 3.8184230335e-02	 3.1933496994e+00
 1.8139070558e+00	 5.7393421908e-02	 3.1837436140e+00
 1.8131942679e+00	 7.6676977522e-02	 3.1705282353e+00
 1.8122722367e+00	 9.6032036383e-02	 3.1547930481e+00
 1.8222222222e+00	 0.0000000000e+00	 3.1843078111e+00
 1.8221218050e+00	 1.9129951167e-02	 3.1831838687e+00
 1.8218188343e+00	 3.8340084337e-02	 3.1779125791e+00
 1.8213107581e+00	 5.7627680773e-02	 3.1684376745e+00
 1.8205950608e+00	 7.6989944777e-02	 3.1553735896e+00
 1.8196692663e+00	 9.6424003879e-02	 3.1398881207e+00
 1.8296296296e+00	 0.0000000000e+00	 3.1686085124e+00
 1.8295288042e+00	 1.9207715196e-02	 3.1675583726e+00
 1.8292246019e+00	 3.8495938338e-02	 3.1622166352e+00
 1.8287144604e+00	 5.7861939638e-02	 3.1525413663e+00
 1.8279958538e+00	 7.7302912032e-02	 3.1392263663e+00
 1.8270662958e+00	 9.6815971374e-02	 3.1235744843e+00
 1.8370370370e+00	 0.0000000000e+00	 3.1528795992e+00
 1.8369358034e+00	 1.9285479225e-02	 3.1518840606e+00
 1.8366303696e+00	 3.8651792339e-02	 3.1462596558e+00
 1.8361181626e+00	 5.8096198503e-02	 3.1360325743e+00
 1.8353966467e+00	 7.7615879287e-02	 3.1220319934e+00
 1.8344633254e+00	 9.7207938870e-02	 3.1057536823e+00
 1.8444444444e+00	 0.0000000000e+00	 3.1371166858e+00
 1.8443428026e+00	 1.9363243255e-02	 3.1361650824e+00
 1.8440361372e+00	 3.8807646341e-02	 3.1300396569e+00
 1.8435218649e+00	 5.8330457368e-02	 3.1188895663e+00
 1.8427974396e+00	 7.7928846542e-02	 3.1037364805e+00
 1.8418603549e+00	 9.7599906365e-02	 3.0863281070e+00
 1.8518518519e+00	 0.0000000000e+00	 3.1213153503e+00
 1.8517498018e+00	 1.9441007284e-02	 3.1204056835e+00
 1.8514419048e+00	 3.8963500342e-02	 3.1135548805e+00
 1.8509255672e+00	 5.8564716233e-02	 3.1010909863e+00
 1.8501982326e+00	 7.8241813798e-02	 3.0842864074e+00
 1.8492573844e+00	 9.7991873861e-02	 3.0652009816e+00
 1.8122722367e+00	 9.6032036383e-02	 3.1547930481e+00
 1.8111385376e+00	 1.1545566151e-01	 3.1361178239e+00
 1.8097907896e+00	 1.3494484011e-01	 3.1131036955e+00
 1.8082266585e+00	 1.5449648396e-01	 3.0857121860e+00
 1.8064438588e+00	 1.7410743001e-01	 3.0538333544e+00
 1.8044401564e+00	 1.9377444094e-01	 3.0171298045e+00
 1.8196692663e+00	 9.6424003879e-02	 3.1398881207e+00
 1.8185309398e+00	 1.1592690911e-01	 3.1216875735e+00
 1.8171776908e+00	 1.3549563537e-01	 3.0993108303e+00
 1.8156071755e+00	 1.5512708185e-01	 3.0725602223e+00
 1.8138170990e+00	 1.7481807258e-01	 3.0411722288e+00
 1.8118052183e+00	 1.9456535703e-01	 3.0046496400e+00
 1.8270662958e+00	 9.6815971374e-02	 3.1235744843e+00
 1.8259233420e+00	 1.1639815671e-01	 3.1054730405e+00
 1.8245645920e+00	 1.3604643064e-01	 3.0834385904e+00
 1.8229876924e+00	 1.5575767974e-01	 3.0571508303e+00
 1.8211903392e+00	 1.7552871515e-01	 3.0262295917e+00
 1.8191702801e+00	 1.9535627311e-01	 2.9900547461e+00
 1.8344633254e+00	 9.7207938870e-02	 3.1057536823e+00
 1.8333157442e+00	 1.1686940431e-01	 3.0873239413e+00
 1.8319514932e+00	 1.3659722590e-01	 3.0652806392e+00
 1.8303682094e+00	 1.5638827764e-01	 3.0392189135e+00
 1.8285635795e+00	 1.7623935772e-01	 3.0086804120e+00
 1.8265353420e+00	 1.9614718920e-01	 2.9729605207e+00
 1.8418603549e+00	 9.7599906365e-02	 3.0863281070e+00
 1.8407081464e+00	 1.1734065191e-01	 3.0670911628e+00
 1.8393383944e+00	 1.3714802117e-01	 3.0446321702e+00
 1.8377487264e+00	 1.5701887553e-01	 3.0185013225e+00
 1.8359368197e+00	 1.7695000029e-01	 2.9882021000e+00
 1.8339004039e+00	 1.9693810529e-01	 2.9529853923e+00
 1.8492573844e+00	 9.7991873861e-02	 3.0652009816e+00
 1.8481005485e+00	 1.1781189950e-01	 3.0446267377e+00
 1.8467252955e+00	 1.3769881643e-01	 3.0212898762e+00
 1.8451292434e+00	 1.5764947343e-01	 2.9947368186e+00
 1.8433100600e+00	 1.7766064287e-01	 2.9644744650e+00
 1.8412654657e+00	 1.9772902137e-01	 2.9297507736e+00
 1.8044401564e+00	 1.9377444094e-01	 3.0171298045e+00
 1.8022133714e+00	 2.1349420591e-01	 2.9768089482e+00
 1.7997613802e+00	 2.3326334129e-01	 2.9343753470e+00
 1.7970821183e+00	 2.5307839161e-01	 2.8891448408e+00
 1.7941735826e+00	 2.7293583053e-01	 2.8396254077e+00
 1.7910338343e+00	 2.9283206188e-01	 2.7834027956e+00
 1.8118052183e+00	 1.9456535703e-01	 3.0046496400e+00
 1.8095693444e+00	 2.1436561083e-01	 2.9640639983e+00
 1.8071073450e+00	 2.3421543656e-01	 2.9211113132e+00
 1.8044171473e+00	 2.5411136464e-01	 2.8753963893e+00
 1.8014967401e+00	 2.7404985433e-01	 2.8256650865e+00
 1.7983441765e+00	 2.9402729478e-01	 2.7696765982e+00
 1.8191702801e+00	 1.9535627311e-01	 2.9900547461e+00
 1.8169253173e+00	 2.1523701575e-01	 2.9495742810e+00
 1.8144533098e+00	 2.3516753183e-01	 2.9066071896e+00
 1.8117521764e+00	 2.5514433767e-01	 2.8609611251e+00
 1.8088198976e+00	 2.7516387813e-01	 2.8115314440e+00
 1.8056545187e+00	 2.9522252769e-01	 2.7561599076e+00
 1.8265353420e+00	 1.9614718920e-01	 2.9729605207e+00
 1.8242812903e+00	 2.1610842067e-01	 2.9329016254e+00
 1.8217992747e+00	 2.3611962710e-01	 2.8903838508e+00
 1.8190872054e+00	 2.5617731069e-01	 2.8453345641e+00
 1.8161430550e+00	 2.7627790192e-01	 2.7967131897e+00
 1.8129648608e+00	 2.9641776059e-01	 2.7423560997e+00
 1.8339004039e+00	 1.9693810529e-01	 2.9529853923e+00
 1.8316372632e+00	 2.1697982559e-01	 2.9136115292e+00
 1.8291452395e+00	 2.3707172237e-01	 2.8719664642e+00
 1.8264222345e+00	 2.5721028372e-01	 2.8280171194e+00
 1.8234662125e+00	 2.7739192572e-01	 2.7807045096e+00
 1.8202752030e+00	 2.9761299350e-01	 2.7277745736e+00
 1.8412654657e+00	 1.9772902137e-01	 2.9297507736e+00
 1.8389932361e+00	 2.1785123052e-01	 2.8912731120e+00
 1.8364912043e+00	 2.3802381764e-01	 2.8508844460e+00
 1.8337572635e+00	 2.5824325675e-01	 2.8085140659e+00
 1.8307893700e+00	 2.7850594952e-01	 2.7630050440e+00
 1.8275855452e+00	 2.9880822641e-01	 2.7119307493e+00
 1.7910338343e+00	 2.9283206188e-01	 2.7834027956e+00
 1.7876610010e+00	 3.1276342086e-01	 2.7201947865e+00
 1.7840532796e+00	 3.3272617532e-01	 2.6523763000e+00
 1.7802089382e+00	 3.5271652710e-01	 2.5799585529e+00
 1.7761263192e+00	 3.7273061349e-01	 2.5019039504e+00
 1.7718038415e+00	 3.9276450883e-01	 2.4236837600e+00
 1.7983441765e+00	 2.9402729478e-01	 2.7696765982e+00
 1.7949575766e+00	 3.1404000625e-01	 2.7070598320e+00
 1.7913351297e+00	 3.3408424134e-01	 2.6398230436e+00
 1.7874750971e+00	 3.5415618639e-01	 2.5675988927e+00
 1.7833758144e+00	 3.7425196293e-01	 2.4889129188e+00
 1.7790356939e+00	 3.9436762928e-01	 2.4098314171e+00
 1.8056545187e+00	 2.9522252769e-01	 2.7561599076e+00
 1.8022541521e+00	 3.1531659164e-01	 2.6943236575e+00
 1.7986169798e+00	 3.3544230736e-01	 2.6277048499e+00
 1.7947412560e+00	 3.5559584568e-01	 2.5556170838e+00
 1.7906253096e+00	 3.7577331238e-01	 2.4762418177e+00
 1.7862675463e+00	 3.9597074972e-01	 2.3962988882e+00
 1.8129648608e+00	 2.9641776059e-01	 2.7423560997e+00
 1.8095507276e+00	 3.1659317703e-01	 2.6815181112e+00
 1.8058988299e+00	 3.3680037339e-01	 2.6155867800e+00
 1.8020074150e+00	 3.5703550498e-01	 2.5436168750e+00
 1.7978748048e+00	 3.7729466182e-01	 2.4635450941e+00
 1.7934993987e+00	 3.9757387017e-01	 2.3827790926e+00
 1.8202752030e+00	 2.9761299350e-01	 2.7277745736e+00
 1.8168473031e+00	 3.1786976243e-01	 2.6681817403e+00
 1.8131806800e+00	 3.3815843941e-01	 2.6030415822e+00
 1.8092735739e+00	 3.5847516427e-01	 2.5312110236e+00
 1.8051242999e+00	 3.7881601126e-01	 2.4504868579e+00
 1.8007312511e+00	 3.9917699061e-01	 2.3689746418e+00
 1.8275855452e+00	 2.9880822641e-01	 2.7119307493e+00
 1.8241438786e+00	 3.1914634782e-01	 2.6538598125e+00
 1.8204625302e+00	 3.3951650543e-01	 2.5896497362e+00
 1.8165397328e+00	 3.5991482357e-01	 2.5180213645e+00
 1.8123737951e+00	 3.8033736070e-01	 2.4367407463e+00
 1.8079631035e+00	 4.0078011105e-01	 2.3545976921e+00
 1.7718038415e+00	 3.9276450883e-01	 2.4236837600e+00
 1.7672400026e+00	 4.1281422613e-01	 2.3493451377e+00
 1.7624333815e+00	 4.3287571885e-01	 2.2696078340e+00
 1.7573826405e+00	 4.5294488273e-01	 2.1841116286e+00
 1.7520865281e+00	 4.7301755777e-01	 2.0926730049e+00
 1.7465438807e+00	 4.9308953028e-01	 1.9953558951e+00
 1.7790356939e+00	 3.9436762928e-01	 2.4098314171e+00
 1.7744532271e+00	 4.1449918216e-01	 2.3349659827e+00
 1.7696269871e+00	 4.3464255852e-01	 2.2554391307e+00
 1.7645556309e+00	 4.5479363735e-01	 2.1705609894e+00
 1.7592379017e+00	 4.7494824168e-01	 2.0798199559e+00
 1.7536726312e+00	 4.9510214061e-01	 1.9829577390e+00
 1.7862675463e+00	 3.9597074972e-01	 2.3962988882e+00
 1.7816664516e+00	 4.1618413818e-01	 2.3208780733e+00
 1.7768205927e+00	 4.3640939819e-01	 2.2415046668e+00
 1.7717286213e+00	 4.5664239198e-01	 2.1571792680e+00
 1.7663892753e+00	 4.7687892559e-01	 2.0670836425e+00
 1.7608013818e+00	 4.9711475094e-01	 1.9706601292e+00
 1.7934993987e+00	 3.9757387017e-01	 2.3827790926e+00
 1.7888796761e+00	 4.1786909421e-01	 2.3068120092e+00
 1.7840141984e+00	 4.3817623786e-01	 2.2275759722e+00
 1.7789016117e+00	 4.5849114660e-01	 2.1437813377e+00
 1.7735406489e+00	 4.7880960950e-01	 2.0543238751e+00
 1.7679301323e+00	 4.9912736126e-01	 1.9583686075e+00
 1.8007312511e+00	 3.9917699061e-01	 2.3689746418e+00
 1.7960929006e+00	 4.1955405023e-01	 2.2925080673e+00
 1.7912078040e+00	 4.3994307753e-01	 2.2134341215e+00
 1.7860746020e+00	 4.6033990122e-01	 2.1301913686e+00
 1.7806920225e+00	 4.8074029341e-01	 2.0414094021e+00
 1.7750588828e+00	 5.0113997159e-01	 1.9459971890e+00
 1.8079631035e+00	 4.0078011105e-01	 2.3545976921e+00
 1.8033061251e+00	 4.2123900626e-01	 2.2777160428e+00
 1.7984014097e+00	 4.4170991719e-01	 2.1988695617e+00
 1.7932475924e+00	 4.6218865585e-01	 2.1162426424e+00
 1.7878433961e+00	 4.8267097732e-01	 2.0282177113e+00
 1.7821876334e+00	 5.0315258192e-01	 1.9334681498e+00
 1.7465438807e+00	 4.9308953028e-01	 1.9953558951e+00
 1.7407536249e+00	 5.1315653499e-01	 1.8951504436e+00
 1.7347147800e+00	 5.3321425733e-01	 1.7950918466e+00
 1.7284264595e+00	 5.5325833573e-01	 1.6958711730e+00
 1.7218878738e+00	 5.7328436407e-01	 1.5986565409e+00
 1.7150983315e+00	 5.9328789417e-01	 1.5051226000e+00
 1.7536726312e+00	 4.9510214061e-01	 1.9829577390e+00
 1.7478587418e+00	 5.1525105146e-01	 1.8828115912e+00
 1.7417952485e+00	 5.3539064205e-01	 1.7825720443e+00
 1.7354812614e+00	 5.5551653302e-01	 1.6830889235e+00
 1.7289159876e+00	 5.7562430025e-01	 1.5857064984e+00
 1.7220987328e+00	 5.9570947741e-01	 1.4922947581e+00
 1.7608013818e+00	 4.9711475094e-01	 1.9706601292e+00
 1.7549638586e+00	 5.1734556793e-01	 1.8705855527e+00
 1.7488757170e+00	 5.3756702678e-01	 1.7701724871e+00
 1.7425360633e+00	 5.5777473031e-01	 1.6704155813e+00
 1.7359441014e+00	 5.7796423643e-01	 1.5728224154e+00
 1.7290991342e+00	 5.9813106065e-01	 1.4794466504e+00
 1.7679301323e+00	 4.9912736126e-01	 1.9583686075e+00
 1.7620689754e+00	 5.1944008440e-01	 1.8584233256e+00
 1.7559561854e+00	 5.3974341150e-01	 1.7578886351e+00
 1.7495908652e+00	 5.6003292759e-01	 1.6578898469e+00
 1.7429722151e+00	 5.8030417261e-01	 1.5600848176e+00
 1.7360995356e+00	 6.0055264389e-01	 1.4666990547e+00
 1.7750588828e+00	 5.0113997159e-01	 1.9459971890e+00
 1.7691740923e+00	 5.2153460087e-01	 1.8462838205e+00
 1.7630366539e+00	 5.4191979622e-01	 1.7457232112e+00
 1.7566456670e+00	 5.6229112488e-01	 1.6455569422e+00
 1.7500003289e+00	 5.8264410879e-01	 1.5475799186e+00
 1.7430999369e+00	 6.0297422714e-01	 1.4541775120e+00
 1.7821876334e+00	 5.0315258192e-01	 1.9334681498e+00
 1.7762792091e+00	 5.2362911734e-01	 1.8341336341e+00
 1.7701171224e+00	 5.4409618095e-01	 1.7336859581e+00
 1.7637004689e+00	 5.6454932217e-01	 1.6334683508e+00
 1.7570284427e+00	 5.8498404496e-01	 1.5353993428e+00
 1.7501003383e+00	 6.0539581038e-01	 1.4420120306e+00
 1.7150983315e+00	 5.9328789417e-01	 1.5051226000e+00
 1.7080572416e+00	 6.1326443842e-01	 1.4094332743e+00
 1.7007641154e+00	 6.3320947245e-01	 1.3058500663e+00
 1.6932185677e+00	 6.5311843788e-01	 1.1969973341e+00
 1.6854203193e+00	 6.7298674523e-01	 1.0860257080e+00
 1.6773691977e+00	 6.9280977679e-01	 9.7656980493e-01
 1.7220987328e+00	 5.9570947741e-01	 1.4922947581e+00
 1.7150289038e+00	 6.1576755858e-01	 1.3972670472e+00
 1.7077060097e+00	 6.3579400091e-01	 1.2947406859e+00
 1.7001296639e+00	 6.5578422743e-01	 1.1869796077e+00
 1.6922995859e+00	 6.7573362991e-01	 1.0768007947e+00
 1.6842156025e+00	 6.9563757180e-01	 9.6753268321e-01
 1.7290991342e+00	 5.9813106065e-01	 1.4794466504e+00
 1.7220005660e+00	 6.1827067874e-01	 1.3849765753e+00
 1.7146479041e+00	 6.3837852937e-01	 1.2834228915e+00
 1.7070407601e+00	 6.5845001697e-01	 1.1766972227e+00
 1.6991788525e+00	 6.7848051458e-01	 1.0672920776e+00
 1.6910620074e+00	 6.9846536681e-01	 9.5823992437e-01
 1.7360995356e+00	 6.0055264389e-01	 1.4666990547e+00
 1.7289722282e+00	 6.2077379889e-01	 1.3727195598e+00
 1.7215897984e+00	 6.4096305782e-01	 1.2720861279e+00
 1.7139518563e+00	 6.6111580651e-01	 1.1663659448e+00
 1.7060581192e+00	 6.8122739926e-01	 1.0577360196e+00
 1.6979084123e+00	 7.0129316182e-01	 9.4894290720e-01
 1.7430999369e+00	 6.0297422714e-01	 1.4541775120e+00
 1.7359438905e+00	 6.2327691905e-01	 1.3606574761e+00
 1.7285316927e+00	 6.4354758628e-01	 1.2609225897e+00
 1.7208629525e+00	 6.6378159605e-01	 1.1562032354e+00
 1.7129373858e+00	 6.8397428393e-01	 1.0483697022e+00
 1.7047548172e+00	 7.0412095682e-01	 9.3989253419e-01
 1.7501003383e+00	 6.0539581038e-01	 1.4420120306e+00
 1.7429155527e+00	 6.2578003921e-01	 1.3489552574e+00
 1.7354735871e+00	 6.4613211474e-01	 1.2501268835e+00
 1.7277740487e+00	 6.6644738560e-01	 1.1464278909e+00
 1.7198166524e+00	 6.8672116861e-01	 1.0394304387e+00
 1.7116012221e+00	 7.0694875183e-01	 9.3133881752e-01
 1.6773691977e+00	 6.9280977679e-01	 9.7656980493e-01
 1.6690651388e+00	 7.1258288966e-01	 8.7089027290e-01
 1.6605081885e+00	 7.3230141881e-01	 7.6928780443e-01
 1.6516985038e+00	 7.5196068023e-01	 6.7213781062e-01
 1.6426363538e+00	 7.7155597414e-01	 5.7344913765e-01
 1.6333221209e+00	 7.9108258825e-01	 4.6645222834e-01
 1.6842156025e+00	 6.9563757180e-01	 9.6753268321e-01
 1.6758776495e+00	 7.1549139125e-01	 8.6172558742e-01
 1.6672857729e+00	 7.3529040420e-01	 7.6035331405e-01
 1.6584401303e+00	 7.5502990750e-01	 6.6355917732e-01
 1.6493409920e+00	 7.7470518220e-01	 5.6527930278e-01
 1.6399887418e+00	 7.9431149677e-01	 4.5922089372e-01
 1.6910620074e+00	 6.9846536681e-01	 9.5823992437e-01
 1.6826901603e+00	 7.1839989284e-01	 8.5235791101e-01
 1.6740633574e+00	 7.3827938958e-01	 7.5126959663e-01
 1.6651817569e+00	 7.5809913476e-01	 6.5477374542e-01
 1.6560456302e+00	 7.7785439025e-01	 5.5690808688e-01
 1.6466553627e+00	 7.9754040529e-01	 4.5179524821e-01
 1.6979084123e+00	 7.0129316182e-01	 9.4894290720e-01
 1.6895026711e+00	 7.2130839444e-01	 8.4304810745e-01
 1.6808409418e+00	 7.4126837496e-01	 7.4230100810e-01
 1.6719233834e+00	 7.6116836203e-01	 6.4603807578e-01
 1.6627502683e+00	 7.8100359831e-01	 5.4857285690e-01
 1.6533219836e+00	 8.0076931382e-01	 4.4438997247e-01
 1.7047548172e+00	 7.0412095682e-01	 9.3989253419e-01
 1.6963151818e+00	 7.2421689603e-01	 8.3405545181e-01
 1.6876185263e+00	 7.4425736034e-01	 7.3366949504e-01
 1.6786650100e+00	 7.6423758930e-01	 6.3760088581e-01
 1.6694549065e+00	 7.8415280637e-01	 5.4050344755e-01
 1.6599886045e+00	 8.0399822234e-01	 4.3721257332e-01
 1.7116012221e+00	 7.0694875183e-01	 9.3133881752e-01
 1.7031276926e+00	 7.2712539762e-01	 8.2563718713e-01
 1.6943961107e+00	 7.4724634573e-01	 7.2561017494e-01
 1.6854066365e+00	 7.6730681656e-01	 6.2970319471e-01
 1.6761595447e+00	 7.8730201443e-01	 5.3292230553e-01
 1.6666552254e+00	 8.0722713086e-01	 4.3046352532e-01
 1.6333221209e+00	 7.9108258825e-01	 4.6645222834e-01
 1.6237563017e+00	 8.1053580108e-01	 3.5221689895e-01
 1.6139395077e+00	 8.2991088538e-01	 2.3776972777e-01
 1.6038724661e+00	 8.4920311148e-01	 1.2549565521e-01
 1.5935560205e+00	 8.6840775081e-01	 1.7562431969e-02
 1.5829911310e+00	 8.8752007941e-01	-8.4157116249e-02
 1.6399887418e+00	 7.9431149677e-01	 4.5922089372e-01
 1.6303838784e+00	 8.1384411047e-01	 3.4603349940e-01
 1.6205270159e+00	 8.3329827675e-01	 2.3219576607e-01
 1.6104188843e+00	 8.5266924662e-01	 1.2021971540e-01
 1.6000603308e+00	 8.7195227224e-01	 1.2394942214e-02
 1.5894523193e+00	 8.9114261035e-01	-8.9290638678e-02
 1.6466553627e+00	 7.9754040529e-01	 4.5179524821e-01
 1.6370114552e+00	 8.1715241987e-01	 3.3966759091e-01
 1.6271145241e+00	 8.3668566811e-01	 2.2644796027e-01
 1.6169653026e+00	 8.5613538177e-01	 1.1477032849e-01
 1.6065646411e+00	 8.7549679368e-01	 7.0422887169e-03
 1.5959135075e+00	 8.9476514129e-01	-9.4635699329e-02
 1.6533219836e+00	 8.0076931382e-01	 4.4438997247e-01
 1.6436390319e+00	 8.2046072926e-01	 3.3331304801e-01
 1.6337020322e+00	 8.4007305948e-01	 2.2070679099e-01
 1.6235117208e+00	 8.5960151692e-01	 1.0932204124e-01
 1.6130689513e+00	 8.7904131511e-01	 1.6805931608e-03
 1.6023746958e+00	 8.9838767222e-01	-1.0000704296e-01
 1.6599886045e+00	 8.0399822234e-01	 4.3721257332e-01
 1.6502666086e+00	 8.2376903865e-01	 3.2715688830e-01
 1.6402895404e+00	 8.4346045085e-01	 2.1514606680e-01
 1.6300581390e+00	 8.6306765207e-01	 1.0404277877e-01
 1.6195732616e+00	 8.8258583654e-01	-3.5207305469e-03
 1.6088358841e+00	 9.0201020316e-01	-1.0522634649e-01
 1.6666552254e+00	 8.0722713086e-01	 4.3046352532e-01
 1.6568941854e+00	 8.2707734804e-01	 3.2137941188e-01
 1.6468770486e+00	 8.4684784222e-01	 2.0993306344e-01
 1.6366045573e+00	 8.6653378722e-01	 9.9093985639e-02
 1.6260775719e+00	 8.8613035797e-01	-8.3988311439e-03
 1.6152970724e+00	 9.0563273409e-01	-1.1012206776e-01
 1.5829911310e+00	 8.8752007941e-01	-8.4157116249e-02
 1.5721788748e+00	 9.0653538143e-01	-1.8343667988e-01
 1.5611204463e+00	 9.2544895271e-01	-2.8460297025e-01
 1.5498171574e+00	 9.4425610438e-01	-3.8731626569e-01
 1.5382704369e+00	 9.6295216646e-01	-4.9189321385e-01
 1.5264818310e+00	 9.8153249147e-01	-5.9940909725e-01
 1.5894523193e+00	 8.9114261035e-01	-8.9290638678e-02
 1.5785959314e+00	 9.1023552584e-01	-1.8849465505e-01
 1.5674923665e+00	 9.2922629537e-01	-2.8950524510e-01
 1.5561429417e+00	 9.4811021092e-01	-3.9198352699e-01
 1.5445490918e+00	 9.6688258346e-01	-4.9623989569e-01
 1.5327123690e+00	 9.8553874654e-01	-6.0333819063e-01
 1.5959135075e+00	 8.9476514129e-01	-9.4635699329e-02
 1.5850129880e+00	 9.1393567026e-01	-1.9374212972e-01
 1.5738642867e+00	 9.3300363803e-01	-2.9448954671e-01
 1.5624687260e+00	 9.5196431747e-01	-3.9658142002e-01
 1.5508277466e+00	 9.7081300047e-01	-5.0036452530e-01
 1.5389429071e+00	 9.8954500161e-01	-6.0693495779e-01
 1.6023746958e+00	 8.9838767222e-01	-1.0000704296e-01
 1.5914300447e+00	 9.1763581467e-01	-1.9898527239e-01
 1.5802362069e+00	 9.3678098070e-01	-2.9936182939e-01
 1.5687945104e+00	 9.5581842402e-01	-4.0092351274e-01
 1.5571064015e+00	 9.7474341748e-01	-5.0409555629e-01
 1.5451734452e+00	 9.9355125668e-01	-6.1004943328e-01
 1.6088358841e+00	 9.0201020316e-01	-1.0522634649e-01
 1.5978471013e+00	 9.2133595908e-01	-2.0403741665e-01
 1.5866081271e+00	 9.4055832336e-01	-3.0393532886e-01
 1.5751202947e+00	 9.5967253057e-01	-4.0483066289e-01
 1.5633850563e+00	 9.7867383448e-01	-5.0726864102e-01
 1.5514039833e+00	 9.9755751174e-01	-6.1253866841e-01
 1.6152970724e+00	 9.0563273409e-01	-1.1012206776e-01
 1.6042641579e+00	 9.2503610350e-01	-2.0871890431e-01
 1.5929800473e+00	 9.4433566603e-01	-3.0803040288e-01
 1.5814460790e+00	 9.6352663712e-01	-4.0813085888e-01
 1.5696637112e+00	 9.8260425149e-01	-5.0972647439e-01
 1.5576345214e+00	 1.0015637668e+00	-6.1426658065e-01
 1.5264818310e+00	 9.8153249147e-01	-5.9940909725e-01
 1.5144530022e+00	 9.9999245808e-01	-7.0072154484e-01
 1.5021857297e+00	 1.0183274747e+00	-7.9002111876e-01
 1.4896819080e+00	 1.0365329831e+00	-8.7484231413e-01
 1.4769435469e+00	 1.0546044620e+00	-9.6248930520e-01
 1.4639727701e+00	 1.0725374309e+00	-1.0493237696e+00
 1.5327123690e+00	 9.8553874654e-01	-6.0333819063e-01
 1.5206344430e+00	 1.0040740600e+00	-7.0402504080e-01
 1.5083171000e+00	 1.0224839134e+00	-7.9212511472e-01
 1.4957622423e+00	 1.0407637299e+00	-8.7480081944e-01
 1.4829718879e+00	 1.0589089700e+00	-9.6043655778e-01
 1.4699481691e+00	 1.0769151347e+00	-1.0511516576e+00
 1.5389429071e+00	 9.8954500161e-01	-6.0693495779e-01
 1.5268158838e+00	 1.0081556618e+00	-7.0706434237e-01
 1.5144484703e+00	 1.0266403520e+00	-7.9430051008e-01
 1.5018425766e+00	 1.0449944768e+00	-8.7540638387e-01
 1.4890002289e+00	 1.0632134780e+00	-9.5840040015e-01
 1.4759235682e+00	 1.0812928385e+00	-1.0509443583e+00
 1.5451734452e+00	 9.9355125668e-01	-6.1004943328e-01
 1.5329973247e+00	 1.0122372637e+00	-7.0970790121e-01
 1.5205798406e+00	 1.0307967907e+00	-7.9642169166e-01
 1.5079229110e+00	 1.0492252237e+00	-8.7652707220e-01
 1.4950285699e+00	 1.0675179860e+00	-9.5764748796e-01
 1.4818989672e+00	 1.0856705423e+00	-1.0488088363e+00
 1.5514039833e+00	 9.9755751174e-01	-6.1253866841e-01
 1.5391787655e+00	 1.0163188656e+00	-7.1183107019e-01
 1.5267112110e+00	 1.0349532294e+00	-7.9837004677e-01
 1.5140032453e+00	 1.0534559706e+00	-8.7803825854e-01
 1.5010569109e+00	 1.0718224941e+00	-9.5803536054e-01
 1.4878743663e+00	 1.0900482461e+00	-1.0469972621e+00
 1.5576345214e+00	 1.0015637668e+00	-6.1426658065e-01
 1.5453602063e+00	 1.0204004674e+00	-7.1331595778e-01
 1.5328425813e+00	 1.0391096681e+00	-8.0003381899e-01
 1.5200835796e+00	 1.0576867174e+00	-8.7982247986e-01
 1.5070852519e+00	 1.0761270021e+00	-9.5942922717e-01
 1.4938497654e+00	 1.0944259499e+00	-1.0470696643e+00
 1.4639727701e+00	 1.0725374309e+00	-1.0493237696e+00
 1.4507718143e+00	 1.0903274531e+00	-1.1339457924e+00
 1.4373430284e+00	 1.1079701399e+00	-1.2181667370e+00
 1.4236888718e+00	 1.1254611537e+00	-1.3056147960e+00
 1.4098119134e+00	 1.1427962114e+00	-1.3808264701e+00
 1.3957148299e+00	 1.1599710883e+00	-1.4464526489e+00
 1.4699481691e+00	 1.0769151347e+00	-1.0511516576e+00
 1.4566933319e+00	 1.0947777692e+00	-1.1376365707e+00
 1.4432097346e+00	 1.1124924670e+00	-1.2244250892e+00
 1.4294998468e+00	 1.1300548726e+00	-1.3075453203e+00
 1.4155662478e+00	 1.1474606858e+00	-1.3794662624e+00
 1.4014116251e+00	 1.1647056642e+00	-1.4442575887e+00
 1.4759235682e+00	 1.0812928385e+00	-1.0509443583e+00
 1.4626148495e+00	 1.0992280854e+00	-1.1406178458e+00
 1.4490764408e+00	 1.1170147941e+00	-1.2294140541e+00
 1.4353108218e+00	 1.1346485916e+00	-1.3086469631e+00
 1.4213205821e+00	 1.1521251601e+00	-1.3779517987e+00
 1.4071084203e+00	 1.1694402401e+00	-1.4422165758e+00
 1.4818989672e+00	 1.0856705423e+00	-1.0488088363e+00
 1.4685363671e+00	 1.1036784015e+00	-1.1429266354e+00
 1.4549431471e+00	 1.1215371212e+00	-1.2327607525e+00
 1.4411217968e+00	 1.1392423106e+00	-1.3090501334e+00
 1.4270749164e+00	 1.1567896344e+00	-1.3763654415e+00
 1.4128052155e+00	 1.1741748159e+00	-1.4403693171e+00
 1.4878743663e+00	 1.0900482461e+00	-1.0469972621e+00
 1.4744578847e+00	 1.1081287176e+00	-1.1446095902e+00
 1.4608098533e+00	 1.1260594483e+00	-1.2346532628e+00
 1.4469327717e+00	 1.1438360296e+00	-1.3088905023e+00
 1.4328292508e+00	 1.1614541087e+00	-1.3747953075e+00
 1.4185020108e+00	 1.1789093918e+00	-1.4387617611e+00
 1.4938497654e+00	 1.0944259499e+00	-1.0470696643e+00
 1.4803794023e+00	 1.1125790338e+00	-1.1456337545e+00
 1.4666765595e+00	 1.1305817754e+00	-1.2352840186e+00
 1.4527437467e+00	 1.1484297486e+00	-1.3083085782e+00
 1.4385835851e+00	 1.1661185831e+00	-1.3733348419e+00
 1.4241988060e+00	 1.1836439677e+00	-1.4374456725e+00
 1.3957148299e+00	 1.1599710883e+00	-1.4464526489e+00
 1.3814004039e+00	 1.1769816210e+00	-1.5092578453e+00
 1.3668715227e+00	 1.1938237108e+00	-1.5731405706e+00
 1.3521311759e+00	 1.2104933272e+00	-1.6352833711e+00
 1.3371824536e+00	 1.2269865109e+00	-1.6917760407e+00
 1.3220285442e+00	 1.2432993768e+00	-1.7378056626e+00
 1.4014116251e+00	 1.1647056642e+00	-1.4442575887e+00
 1.3870387729e+00	 1.1817856276e+00	-1.5076620395e+00
 1.3724505901e+00	 1.1986964607e+00	-1.5720306173e+00
 1.3576500786e+00	 1.2154341163e+00	-1.6345381457e+00
 1.3426403412e+00	 1.2319946191e+00	-1.6912356011e+00
 1.3274245791e+00	 1.2483740681e+00	-1.7372457606e+00
 1.4071084203e+00	 1.1694402401e+00	-1.4422165758e+00
 1.3926771419e+00	 1.1865896342e+00	-1.5062445063e+00
 1.3780296576e+00	 1.2035692105e+00	-1.5709973309e+00
 1.3631689814e+00	 1.2203749054e+00	-1.6337116229e+00
 1.3480982287e+00	 1.2370027273e+00	-1.6904695841e+00
 1.3328206140e+00	 1.2534487594e+00	-1.7364002796e+00
 1.4128052155e+00	 1.1741748159e+00	-1.4403693171e+00
 1.3983155109e+00	 1.1913936409e+00	-1.5050111967e+00
 1.3836087250e+00	 1.2084419603e+00	-1.5700243613e+00
 1.3686878842e+00	 1.2253156945e+00	-1.6327756660e+00
 1.3535561163e+00	 1.2420108355e+00	-1.6894476045e+00
 1.3382166489e+00	 1.2585234508e+00	-1.7352451158e+00
 1.4185020108e+00	 1.1789093918e+00	-1.4387617611e+00
 1.4039538799e+00	 1.1961976475e+00	-1.5039747250e+00
 1.3891877924e+00	 1.2133147102e+00	-1.5691023311e+00
 1.3742067869e+00	 1.2302564836e+00	-1.6317093175e+00
 1.3590140039e+00	 1.2470189437e+00	-1.6881465703e+00
 1.3436126837e+00	 1.2635981421e+00	-1.7337634888e+00
 1.4241988060e+00	 1.1836439677e+00	-1.4374456725e+00
 1.4095922489e+00	 1.2010016541e+00	-1.5031539469e+00
 1.3947668599e+00	 1.2181874600e+00	-1.5682284222e+00
 1.3797256897e+00	 1.2351972727e+00	-1.6304983987e+00
 1.3644718914e+00	 1.2520270519e+00	-1.6865502969e+00
 1.3490087186e+00	 1.2686728334e+00	-1.7319455729e+00
 1.3220285442e+00	 1.2432993768e+00	-1.7378056626e+00
 1.3066727324e+00	 1.2594281173e+00	-1.7796664116e+00
 1.2911183962e+00	 1.2753690051e+00	-1.8244542414e+00
 1.2753690051e+00	 1.2911183962e+00	-1.8678173459e+00
 1.2594281173e+00	 1.3066727324e+00	-1.9053355239e+00
 1.2432993768e+00	 1.3220285442e+00	-1.9327453173e+00
 1.3274245791e+00	 1.2483740681e+00	-1.7372457606e+00
 1.3120060905e+00	 1.2645686402e+00	-1.7787807802e+00
 1.2963882672e+00	 1.2805745929e+00	-1.8229934980e+00
 1.2805745929e+00	 1.2963882672e+00	-1.8656511759e+00
 1.2645686402e+00	 1.3120060905e+00	-1.9024450766e+00
 1.2483740681e+00	 1.3274245791e+00	-1.9292218895e+00
 1.3328206140e+00	 1.2534487594e+00	-1.7364002796e+00
 1.3173394486e+00	 1.2697091631e+00	-1.7776608306e+00
 1.3016581382e+00	 1.2857801806e+00	-1.8214089481e+00
 1.2857801806e+00	 1.3016581382e+00	-1.8634832376e+00
 1.2697091631e+00	 1.3173394486e+00	-1.8996386103e+00
 1.2534487594e+00	 1.3328206140e+00	-1.9257842649e+00
 1.3382166489e+00	 1.2585234508e+00	-1.7352451158e+00
 1.3226728066e+00	 1.2748496860e+00	-1.7762930412e+00
 1.3069280092e+00	 1.2909857684e+00	-1.8196986562e+00
 1.2909857684e+00	 1.3069280092e+00	-1.8613245479e+00
 1.2748496860e+00	 1.3226728066e+00	-1.8969418128e+00
 1.2585234508e+00	 1.3382166489e+00	-1.9224748643e+00
 1.3436126837e+00	 1.2635981421e+00	-1.7337634888e+00
 1.3280061647e+00	 1.2799902090e+00	-1.7746712186e+00
 1.3121978802e+00	 1.2961913562e+00	-1.8178680407e+00
 1.2961913562e+00	 1.3121978802e+00	-1.8591935098e+00
 1.2799902090e+00	 1.3280061647e+00	-1.8943877814e+00
 1.2635981421e+00	 1.3436126837e+00	-1.9193435175e+00
 1.3490087186e+00	 1.2686728334e+00	-1.7319455729e+00
 1.3333395228e+00	 1.2851307319e+00	-1.7727961496e+00
 1.3174677512e+00	 1.3013969440e+00	-1.8159295467e+00
 1.3013969440e+00	 1.3174677512e+00	-1.8571156062e+00
 1.2851307319e+00	 1.3333395228e+00	-1.8920167388e+00
 1.2686728334e+00	 1.3490087186e+00	-1.9164472033e+00
 1.2432993768e+00	 1.3220285442e+00	-1.9327453173e+00
 1.2269865109e+00	 1.3371824536e+00	-1.9564242954e+00
 1.2104933272e+00	 1.3521311759e+00	-1.9816584310e+00
 1.1938237108e+00	 1.3668715227e+00	-2.0034656273e+00
 1.1769816210e+00	 1.3814004039e+00	-2.0179240704e+00
 1.1599710883e+00	 1.3957148299e+00	-2.0223797085e+00
 1.2483740681e+00	 1.3274245791e+00	-1.9292218895e+00
 1.2319946191e+00	 1.3426403412e+00	-1.9525339663e+00
 1.2154341163e+00	 1.3576500786e+00	-1.9777250419e+00
 1.1986964607e+00	 1.3724505901e+00	-1.9997703722e+00
 1.1817856276e+00	 1.3870387729e+00	-2.0147372573e+00
 1.1647056642e+00	 1.4014116251e+00	-2.0199988179e+00
 1.2534487594e+00	 1.3328206140e+00	-1.9257842649e+00
 1.2370027273e+00	 1.3480982287e+00	-1.9486367770e+00
 1.2203749054e+00	 1.3631689814e+00	-1.9736522072e+00
 1.2035692105e+00	 1.3780296576e+00	-1.9958125632e+00
 1.1865896342e+00	 1.3926771419e+00	-2.0112224459e+00
 1.1694402401e+00	 1.4071084203e+00	-2.0173291774e+00
 1.2585234508e+00	 1.3382166489e+00	-1.9224748643e+00
 1.2420108355e+00	 1.3535561163e+00	-1.9447874373e+00
 1.2253156945e+00	 1.3686878842e+00	-1.9694951919e+00
 1.2084419603e+00	 1.3836087250e+00	-1.9916354617e+00
 1.1913936409e+00	 1.3983155109e+00	-2.0073975324e+00
 1.1741748159e+00	 1.4128052155e+00	-2.0143491793e+00
 1.2635981421e+00	 1.3436126837e+00	-1.9193435175e+00
 1.2470189437e+00	 1.3590140039e+00	-1.9410481375e+00
 1.2302564836e+00	 1.3742067869e+00	-1.9653169919e+00
 1.2133147102e+00	 1.3891877924e+00	-1.9872904938e+00
 1.1961976475e+00	 1.4039538799e+00	-2.0032891990e+00
 1.1789093918e+00	 1.4185020108e+00	-2.0110468135e+00
 1.2686728334e+00	 1.3490087186e+00	-1.9164472033e+00
 1.2520270519e+00	 1.3644718914e+00	-1.9374883112e+00
 1.2351972727e+00	 1.3797256897e+00	-1.9611881165e+00
 1.2181874600e+00	 1.3947668599e+00	-1.9828370494e+00
 1.2010016541e+00	 1.4095922489e+00	-1.9989327241e+00
 1.1836439677e+00	 1.4241988060e+00	-2.0074194854e+00
 1.1599710883e+00	 1.3957148299e+00	-2.0223797085e+00
 1.1427962114e+00	 1.4098119134e+00	-2.0238104654e+00
 1.1254611537e+00	 1.4236888718e+00	-2.0287929531e+00
 1.1079701399e+00	 1.4373430284e+00	-2.0358326867e+00
 1.0903274531e+00	 1.4507718143e+00	-2.0348818307e+00
 1.0725374309e+00	 1.4639727701e+00	-2.0282069939e+00
 1.1647056642e+00	 1.4014116251e+00	-2.0199988179e+00
 1.1474606858e+00	 1.4155662478e+00	-2.0210001530e+00
 1.1300548726e+00	 1.4294998468e+00	-2.0234389135e+00
 1.1124924670e+00	 1.4432097346e+00	-2.0272112625e+00
 1.0947777692e+00	 1.4566933319e+00	-2.0268162543e+00
 1.0769151347e+00	 1.4699481691e+00	-2.0206687215e+00
 1.1694402401e+00	 1.4071084203e+00	-2.0173291774e+00
 1.1521251601e+00	 1.4213205821e+00	-2.0181301667e+00
 1.1346485916e+00	 1.4353108218e+00	-2.0184696009e+00
 1.1170147941e+00	 1.4490764408e+00	-2.0192910173e+00
 1.0992280854e+00	 1.4626148495e+00	-2.0194690958e+00
 1.0812928385e+00	 1.4759235682e+00	-2.0149062244e+00
 1.1741748159e+00	 1.4128052155e+00	-2.0143491793e+00
 1.1567896344e+00	 1.4270749164e+00	-2.0151284098e+00
 1.1392423106e+00	 1.4411217968e+00	-2.0137553392e+00
 1.1215371212e+00	 1.4549431471e+00	-2.0121784323e+00
 1.1036784015e+00	 1.4685363671e+00	-2.0125744192e+00
 1.0856705423e+00	 1.4818989672e+00	-2.0105618077e+00
 1.1789093918e+00	 1.4185020108e+00	-2.0110468135e+00
 1.1614541087e+00	 1.4328292508e+00	-2.0119333255e+00
 1.1438360296e+00	 1.4469327717e+00	-2.0091779944e+00
 1.1260594483e+00	 1.4608098533e+00	-2.0056921277e+00
 1.1081287176e+00	 1.4744578847e+00	-2.0058835486e+00
 1.0900482461e+00	 1.4878743663e+00	-2.0058079760e+00
 1.1836439677e+00	 1.4241988060e+00	-2.0074194854e+00
 1.1661185831e+00	 1.4385835851e+00	-2.0084937200e+00
 1.1484297486e+00	 1.4527437467e+00	-2.0046308021e+00
 1.1305817754e+00	 1.4666765595e+00	-1.9996631435e+00
 1.1125790338e+00	 1.4803794023e+00	-1.9992206088e+00
 1.0944259499e+00	 1.4938497654e+00	-1.9995593179e+00
 1.0725374309e+00	 1.4639727701e+00	-2.0282069939e+00
 1.0546044620e+00	 1.4769435469e+00	-2.0149269650e+00
 1.0365329831e+00	 1.4896819080e+00	-1.9963325309e+00
 1.0183274747e+00	 1.5021857297e+00	-1.9702935051e+00
 9.9999245808e-01	 1.5144530022e+00	-1.9432153677e+00
 9.8153249147e-01	 1.5264818310e+00	-1.9217722916e+00
 1.0769151347e+00	 1.4699481691e+00	-2.0206687215e+00
 1.0589089700e+00	 1.4829718879e+00	-2.0105505121e+00
 1.0407637299e+00	 1.4957622423e+00	-1.9906546841e+00
 1.0224839134e+00	 1.5083171000e+00	-1.9633250564e+00
 1.0040740600e+00	 1.5206344430e+00	-1.9357727017e+00
 9.8553874654e-01	 1.5327123690e+00	-1.9142082397e+00
 1.0812928385e+00	 1.4759235682e+00	-2.0149062244e+00
 1.0632134780e+00	 1.4890002289e+00	-2.0061417961e+00
 1.0449944768e+00	 1.5018425766e+00	-1.9843757228e+00
 1.0266403520e+00	 1.5144484703e+00	-1.9561879008e+00
 1.0081556618e+00	 1.5268158838e+00	-1.9283448686e+00
 9.8954500161e-01	 1.5389429071e+00	-1.9065805248e+00
 1.0856705423e+00	 1.4818989672e+00	-2.0105618077e+00
 1.0675179860e+00	 1.4950285699e+00	-2.0006376316e+00
 1.0492252237e+00	 1.5079229110e+00	-1.9776436606e+00
 1.0307967907e+00	 1.5205798406e+00	-1.9490318768e+00
 1.0122372637e+00	 1.5329973247e+00	-1.9211078103e+00
 9.9355125668e-01	 1.5451734452e+00	-1.8991155265e+00
 1.0900482461e+00	 1.4878743663e+00	-2.0058079760e+00
 1.0718224941e+00	 1.5010569109e+00	-1.9942085074e+00
 1.0534559706e+00	 1.5140032453e+00	-1.9706070760e+00
 1.0349532294e+00	 1.5267112110e+00	-1.9420074699e+00
 1.0163188656e+00	 1.5391787655e+00	-1.9142378147e+00
 9.9755751174e-01	 1.5514039833e+00	-1.8920392831e+00
 1.0944259499e+00	 1.4938497654e+00	-1.9995593179e+00
 1.0761270021e+00	 1.5070852519e+00	-1.9870248356e+00
 1.0576867174e+00	 1.5200835796e+00	-1.9634149318e+00
 1.0391096681e+00	 1.5328425813e+00	-1.9352656405e+00
 1.0204004674e+00	 1.5453602063e+00	-1.9079113606e+00
 1.0015637668e+00	 1.5576345214e+00	-1.8855773607e+00
 9.8153249147e-01	 1.5264818310e+00	-1.9217722916e+00
 9.6295216646e-01	 1.5382704369e+00	-1.9000294885e+00
 9.4425610438e-01	 1.5498171574e+00	-1.8696552390e+00
 9.2544895271e-01	 1.5611204463e+00	-1.8325296937e+00
 9.0653538143e-01	 1.5721788748e+00	-1.7899046533e+00
 8.8752007941e-01	 1.5829911310e+00	-1.7424843134e+00
 9.8553874654e-01	 1.5327123690e+00	-1.9142082397e+00
 9.6688258346e-01	 1.5445490918e+00	-1.8923268748e+00
 9.4811021092e-01	 1.5561429417e+00	-1.8617487318e+00
 9.2922629537e-01	 1.5674923665e+00	-1.8243556577e+00
 9.1023552584e-01	 1.5785959314e+00	-1.7814120312e+00
 8.9114261035e-01	 1.5894523193e+00	-1.7336472602e+00
 9.8954500161e-01	 1.5389429071e+00	-1.9065805248e+00
 9.7081300047e-01	 1.5508277466e+00	-1.8843399386e+00
 9.5196431747e-01	 1.5624687260e+00	-1.8533565048e+00
 9.3300363803e-01	 1.5738642867e+00	-1.8155625972e+00
 9.1393567026e-01	 1.5850129880e+00	-1.7722801078e+00
 8.9476514129e-01	 1.5959135075e+00	-1.7243046822e+00
 9.9355125668e-01	 1.5451734452e+00	-1.8991155265e+00
 9.7474341748e-01	 1.5571064015e+00	-1.8763452405e+00
 9.5581842402e-01	 1.5687945104e+00	-1.8447799917e+00
 9.3678098070e-01	 1.5802362069e+00	-1.8064508878e+00
 9.1763581467e-01	 1.5914300447e+00	-1.7627816845e+00
 8.9838767222e-01	 1.6023746958e+00	-1.7146747458e+00
 9.9755751174e-01	 1.5514039833e+00	-1.8920392831e+00
 9.7867383448e-01	 1.5633850563e+00	-1.8686183170e+00
 9.5967253057e-01	 1.5751202947e+00	-1.8363193234e+00
 9.4055832336e-01	 1.5866081271e+00	-1.7973197347e+00
 9.2133595908e-01	 1.5978471013e+00	-1.7531889421e+00
 9.0201020316e-01	 1.6088358841e+00	-1.7049759704e+00
 1.0015637668e+00	 1.5576345214e+00	-1.8855773607e+00
 9.8260425149e-01	 1.5696637112e+00	-1.8614335742e+00
 9.6352663712e-01	 1.5814460790e+00	-1.8282732382e+00
 9.4433566603e-01	 1.5929800473e+00	-1.7884670906e+00
 9.2503610350e-01	 1.6042641579e+00	-1.7437733587e+00
 9.0563273409e-01	 1.6152970724e+00	-1.6954271367e+00
 8.8752007941e-01	 1.5829911310e+00	-1.7424843134e+00
 8.6840775081e-01	 1.5935560205e+00	-1.6948282581e+00
 8.4920311148e-01	 1.6038724661e+00	-1.6506660753e+00
 8.2991088538e-01	 1.6139395077e+00	-1.6088788221e+00
 8.1053580108e-01	 1.6237563017e+00	-1.5681163313e+00
 7.9108258825e-01	 1.6333221209e+00	-1.5268627650e+00
 8.9114261035e-01	 1.5894523193e+00	-1.7336472602e+00
 8.7195227224e-01	 1.6000603308e+00	-1.6856485222e+00
 8.5266924662e-01	 1.6104188843e+00	-1.6411266831e+00
 8.3329827675e-01	 1.6205270159e+00	-1.5989146027e+00
 8.1384411047e-01	 1.6303838784e+00	-1.5575961603e+00
 7.9431149677e-01	 1.6399887418e+00	-1.5155734905e+00
 8.9476514129e-01	 1.5959135075e+00	-1.7243046822e+00
 8.7549679368e-01	 1.6065646411e+00	-1.6761607491e+00
 8.5613538177e-01	 1.6169653026e+00	-1.6314164073e+00
 8.3668566811e-01	 1.6271145241e+00	-1.5888464666e+00
 8.1715241987e-01	 1.6370114552e+00	-1.5469624861e+00
 7.9754040529e-01	 1.6466553627e+00	-1.5040816871e+00
 8.9838767222e-01	 1.6023746958e+00	-1.7146747458e+00
 8.7904131511e-01	 1.6130689513e+00	-1.6665259736e+00
 8.5960151692e-01	 1.6235117208e+00	-1.6216615833e+00
 8.4007305948e-01	 1.6337020322e+00	-1.5787884996e+00
 8.2046072926e-01	 1.6436390319e+00	-1.5363395945e+00
 8.0076931382e-01	 1.6533219836e+00	-1.4925442721e+00
 9.0201020316e-01	 1.6088358841e+00	-1.7049759704e+00
 8.8258583654e-01	 1.6195732616e+00	-1.6569065840e+00
 8.6306765207e-01	 1.6300581390e+00	-1.6119905245e+00
 8.4346045085e-01	 1.6402895404e+00	-1.5688570116e+00
 8.2376903865e-01	 1.6502666086e+00	-1.5258538615e+00
 8.0399822234e-01	 1.6599886045e+00	-1.4811197391e+00
 9.0563273409e-01	 1.6152970724e+00	-1.6954271367e+00
 8.8613035797e-01	 1.6260775719e+00	-1.6474662197e+00
 8.6653378722e-01	 1.6366045573e+00	-1.6025334161e+00
 8.4684784222e-01	 1.6468770486e+00	-1.5591704344e+00
 8.2707734804e-01	 1.6568941854e+00	-1.5156336629e+00
 8.0722713086e-01	 1.6666552254e+00	-1.4699680851e+00
 7.9108258825e-01	 1.6333221209e+00	-1.5268627650e+00
 7.7155597414e-01	 1.6426363538e+00	-1.4769657554e+00
 7.5196068023e-01	 1.6516985038e+00	-1.4161392779e+00
 7.3230141881e-01	 1.6605081885e+00	-1.3521604635e+00
 7.1258288966e-01	 1.6690651388e+00	-1.2938425706e+00
 6.9280977679e-01	 1.6773691977e+00	-1.2424917644e+00
 7.9431149677e-01	 1.6399887418e+00	-1.5155734905e+00
 7.7470518220e-01	 1.6493409920e+00	-1.4652486350e+00
 7.5502990750e-01	 1.6584401303e+00	-1.4046555936e+00
 7.3529040420e-01	 1.6672857729e+00	-1.3408554351e+00
 7.1549139125e-01	 1.6758776495e+00	-1.2827081274e+00
 6.9563757180e-01	 1.6842156025e+00	-1.2319546677e+00
 7.9754040529e-01	 1.6466553627e+00	-1.5040816871e+00
 7.7785439025e-01	 1.6560456302e+00	-1.4532218093e+00
 7.5809913476e-01	 1.6651817569e+00	-1.3928023043e+00
 7.3827938958e-01	 1.6740633574e+00	-1.3292834808e+00
 7.1839989284e-01	 1.6826901603e+00	-1.2712290455e+00
 6.9846536681e-01	 1.6910620074e+00	-1.2210665583e+00
 8.0076931382e-01	 1.6533219836e+00	-1.4925442721e+00
 7.8100359831e-01	 1.6627502683e+00	-1.4410789940e+00
 7.6116836203e-01	 1.6719233834e+00	-1.3807958369e+00
 7.4126837496e-01	 1.6808409418e+00	-1.3176823517e+00
 7.2130839444e-01	 1.6895026711e+00	-1.2596326777e+00
 7.0129316182e-01	 1.6979084123e+00	-1.2100264289e+00
 8.0399822234e-01	 1.6599886045e+00	-1.4811197391e+00
 7.8415280637e-01	 1.6694549065e+00	-1.4290148782e+00
 7.6423758930e-01	 1.6786650100e+00	-1.3688531936e+00
 7.4425736034e-01	 1.6876185263e+00	-1.3061997507e+00
 7.2421689603e-01	 1.6963151818e+00	-1.2481496799e+00
 7.0412095682e-01	 1.7047548172e+00	-1.1990377284e+00
 8.0722713086e-01	 1.6666552254e+00	-1.4699680851e+00
 7.8730201443e-01	 1.6761595447e+00	-1.4172250710e+00
 7.6730681656e-01	 1.6854066365e+00	-1.3571919127e+00
 7.4724634573e-01	 1.6943961107e+00	-1.2950159054e+00
 7.2712539762e-01	 1.7031276926e+00	-1.2370136060e+00
 7.0694875183e-01	 1.7116012221e+00	-1.1883079800e+00
 6.9280977679e-01	 1.6773691977e+00	-1.2424917644e+00
 6.7298674523e-01	 1.6854203193e+00	-1.1964385374e+00
 6.5311843788e-01	 1.6932185677e+00	-1.1516728386e+00
 6.3320947245e-01	 1.7007641154e+00	-1.1053157887e+00
 6.1326443842e-01	 1.7080572416e+00	-1.0549612957e+00
 5.9328789417e-01	 1.7150983315e+00	-9.9870275682e-01
 6.9563757180e-01	 1.6842156025e+00	-1.2319546677e+00
 6.7573362991e-01	 1.6922995859e+00	-1.1861669583e+00
 6.5578422743e-01	 1.7001296639e+00	-1.1410348815e+00
 6.3579400091e-01	 1.7077060097e+00	-1.0939840825e+00
 6.1576755858e-01	 1.7150289038e+00	-1.0429377425e+00
 5.9570947741e-01	 1.7220987328e+00	-9.8634238806e-01
 6.9846536681e-01	 1.6910620074e+00	-1.2210665583e+00
 6.7848051458e-01	 1.6991788525e+00	-1.1756033241e+00
 6.5845001697e-01	 1.7070407601e+00	-1.1302059421e+00
 6.3837852937e-01	 1.7146479041e+00	-1.0825810146e+00
 6.1827067874e-01	 1.7220005660e+00	-1.0309597154e+00
 5.9813106065e-01	 1.7290991342e+00	-9.7412272632e-01
 7.0129316182e-01	 1.6979084123e+00	-1.2100264289e+00
 6.8122739926e-01	 1.7060581192e+00	-1.1649116865e+00
 6.6111580651e-01	 1.7139518563e+00	-1.1193179754e+00
 6.4096305782e-01	 1.7215897984e+00	-1.0712095980e+00
 6.2077379889e-01	 1.7289722282e+00	-1.0191047764e+00
 6.0055264389e-01	 1.7360995356e+00	-9.6209973779e-01
 7.0412095682e-01	 1.7047548172e+00	-1.1990377284e+00
 6.8397428393e-01	 1.7129373858e+00	-1.1542617083e+00
 6.6378159605e-01	 1.7208629525e+00	-1.1085095482e+00
 6.4354758628e-01	 1.7285316927e+00	-1.0599802950e+00
 6.2327691905e-01	 1.7359438905e+00	-1.0074586043e+00
 6.0297422714e-01	 1.7430999369e+00	-9.5033799592e-01
 7.0694875183e-01	 1.7116012221e+00	-1.1883079800e+00
 6.8672116861e-01	 1.7198166524e+00	-1.1438283015e+00
 6.6644738560e-01	 1.7277740487e+00	-1.0979254983e+00
 6.4613211474e-01	 1.7354735871e+00	-1.0490106991e+00
 6.2578003921e-01	 1.7429155527e+00	-9.9611469997e-01
 6.0539581038e-01	 1.7501003383e+00	-9.3891041067e-01
 5.9328789417e-01	 1.7150983315e+00	-9.9870275682e-01
 5.7328436407e-01	 1.7218878738e+00	-9.4149545491e-01
 5.5325833573e-01	 1.7284264595e+00	-8.8785635396e-01
 5.3321425733e-01	 1.7347147800e+00	-8.3597261781e-01
 5.1315653499e-01	 1.7407536249e+00	-7.8450092654e-01
 4.9308953028e-01	 1.7465438807e+00	-7.3253250167e-01
 5.9570947741e-01	 1.7220987328e+00	-9.8634238806e-01
 5.7562430025e-01	 1.7289159876e+00	-9.2937696164e-01
 5.5551653302e-01	 1.7354812614e+00	-8.7636580150e-01
 5.3539064205e-01	 1.7417952485e+00	-8.2526022705e-01
 5.1525105146e-01	 1.7478587418e+00	-7.7450436240e-01
 4.9510214061e-01	 1.7536726312e+00	-7.2299837399e-01
 5.9813106065e-01	 1.7290991342e+00	-9.7412272632e-01
 5.7796423643e-01	 1.7359441014e+00	-9.1745062020e-01
 5.5777473031e-01	 1.7425360633e+00	-8.6507967616e-01
 5.3756702678e-01	 1.7488757170e+00	-8.1474793658e-01
 5.1734556793e-01	 1.7549638586e+00	-7.6470937178e-01
 4.9711475094e-01	 1.7608013818e+00	-7.1369526167e-01
 6.0055264389e-01	 1.7360995356e+00	-9.6209973779e-01
 5.8030417261e-01	 1.7429722151e+00	-9.0574774842e-01
 5.6003292759e-01	 1.7495908652e+00	-8.5399444013e-01
 5.3974341150e-01	 1.7559561854e+00	-8.0438719307e-01
 5.1944008440e-01	 1.7620689754e+00	-7.5501231637e-01
 4.9912736126e-01	 1.7679301323e+00	-7.0445450443e-01
 6.0297422714e-01	 1.7430999369e+00	-9.5033799592e-01
 5.8264410879e-01	 1.7500003289e+00	-8.9430869516e-01
 5.6229112488e-01	 1.7566456670e+00	-8.4311606021e-01
 5.4191979622e-01	 1.7630366539e+00	-7.9413947248e-01
 5.2153460087e-01	 1.7691740923e+00	-7.4532016496e-01
 5.0113997159e-01	 1.7750588828e+00	-6.9511868218e-01
 6.0539581038e-01	 1.7501003383e+00	-9.3891041067e-01
 5.8498404496e-01	 1.7570284427e+00	-8.8318259296e-01
 5.6454932217e-01	 1.7637004689e+00	-8.3245978021e-01
 5.4409618095e-01	 1.7701171224e+00	-7.8397606881e-01
 5.2362911734e-01	 1.7762792091e+00	-7.3555029486e-01
 5.0315258192e-01	 1.7821876334e+00	-6.8554142558e-01
 4.9308953028e-01	 1.7465438807e+00	-7.3253250167e-01
 4.7301755777e-01	 1.7520865281e+00	-6.8211789729e-01
 4.5294488273e-01	 1.7573826405e+00	-6.3551804182e-01
 4.3287571885e-01	 1.7624333815e+00	-5.9260653555e-01
 4.1281422613e-01	 1.7672400026e+00	-5.5342683228e-01
 3.9276450883e-01	 1.7718038415e+00	-5.1812266216e-01
 4.9510214061e-01	 1.7536726312e+00	-7.2299837399e-01
 4.7494824168e-01	 1.7592379017e+00	-6.7253177985e-01
 4.5479363735e-01	 1.7645556309e+00	-6.2544163432e-01
 4.3464255852e-01	 1.7696269871e+00	-5.8193546944e-01
 4.1449918216e-01	 1.7744532271e+00	-5.4239339889e-01
 3.9436762928e-01	 1.7790356939e+00	-5.0729451519e-01
 4.9711475094e-01	 1.7608013818e+00	-7.1369526167e-01
 4.7687892559e-01	 1.7663892753e+00	-6.6324902346e-01
 4.5664239198e-01	 1.7717286213e+00	-6.1576077811e-01
 4.3640939819e-01	 1.7768205927e+00	-5.7173946226e-01
 4.1618413818e-01	 1.7816664516e+00	-5.3187261789e-01
 3.9597074972e-01	 1.7862675463e+00	-4.9694867925e-01
 4.9912736126e-01	 1.7679301323e+00	-7.0445450443e-01
 4.7880960950e-01	 1.7735406489e+00	-6.5403818364e-01
 4.5849114660e-01	 1.7789016117e+00	-6.0619611008e-01
 4.3817623786e-01	 1.7840141984e+00	-5.6170694341e-01
 4.1786909421e-01	 1.7888796761e+00	-5.2153727006e-01
 3.9757387017e-01	 1.7934993987e+00	-4.8675969328e-01
 5.0113997159e-01	 1.7750588828e+00	-6.9511868218e-01
 4.8074029341e-01	 1.7806920225e+00	-6.4467955439e-01
 4.6033990122e-01	 1.7860746020e+00	-5.9648017255e-01
 4.3994307753e-01	 1.7912078040e+00	-5.5153807692e-01
 4.1955405023e-01	 1.7960929006e+00	-5.1107135698e-01
 3.9917699061e-01	 1.8007312511e+00	-4.7641245530e-01
 5.0315258192e-01	 1.7821876334e+00	-6.8554142558e-01
 4.8267097732e-01	 1.7878433961e+00	-6.3496498798e-01
 4.6218865585e-01	 1.7932475924e+00	-5.8635724640e-01
 4.4170991719e-01	 1.7984014097e+00	-5.4094461240e-01
 4.2123900626e-01	 1.8033061251e+00	-5.0016997414e-01
 4.0078011105e-01	 1.8079631035e+00	-4.6560212249e-01
 3.9276450883e-01	 1.7718038415e+00	-5.1812266216e-01
 3.7273061349e-01	 1.7761263192e+00	-4.7840154486e-01
 3.5271652710e-01	 1.7802089382e+00	-4.3020852337e-01
 3.3272617532e-01	 1.7840532796e+00	-3.9304235176e-01
 3.1276342086e-01	 1.7876610010e+00	-3.6312691767e-01
 2.9283206188e-01	 1.7910338343e+00	-3.3606582291e-01
 3.9436762928e-01	 1.7790356939e+00	-5.0729451519e-01
 3.7425196293e-01	 1.7833758144e+00	-4.6923399264e-01
 3.5415618639e-01	 1.7874750971e+00	-4.2117585403e-01
 3.3408424134e-01	 1.7913351297e+00	-3.8340382801e-01
 3.1404000625e-01	 1.7949575766e+00	-3.5316452975e-01
 2.9402729478e-01	 1.7983441765e+00	-3.2648530883e-01
 3.9597074972e-01	 1.7862675463e+00	-4.9694867925e-01
 3.7577331238e-01	 1.7906253096e+00	-4.6042212966e-01
 3.5559584568e-01	 1.7947412560e+00	-4.1287622852e-01
 3.3544230736e-01	 1.7986169798e+00	-3.7460166739e-01
 3.1531659164e-01	 1.8022541521e+00	-3.4399026318e-01
 2.9522252769e-01	 1.8056545187e+00	-3.1744489671e-01
 3.9757387017e-01	 1.7934993987e+00	-4.8675969328e-01
 3.7729466182e-01	 1.7978748048e+00	-4.5164210559e-01
 3.5703550498e-01	 1.8020074150e+00	-4.0491851148e-01
 3.3680037339e-01	 1.8058988299e+00	-3.6622002977e-01
 3.1659317703e-01	 1.8095507276e+00	-3.3516062178e-01
 2.9641776059e-01	 1.8129648608e+00	-3.0847008256e-01
 3.9917699061e-01	 1.8007312511e+00	-4.7641245530e-01
 3.7881601126e-01	 1.8051242999e+00	-4.4257951140e-01
 3.5847516427e-01	 1.8092735739e+00	-3.9692025449e-01
 3.3815843941e-01	 1.8131806800e+00	-3.5784868388e-01
 3.1786976243e-01	 1.8168473031e+00	-3.2623529745e-01
 2.9761299350e-01	 1.8202752030e+00	-2.9908777084e-01
 4.0078011105e-01	 1.8079631035e+00	-4.6560212249e-01
 3.8033736070e-01	 1.8123737951e+00	-4.3292930520e-01
 3.5991482357e-01	 1.8165397328e+00	-3.8850806979e-01
 3.3951650543e-01	 1.8204625302e+00	-3.4908333954e-01
 3.1914634782e-01	 1.8241438786e+00	-3.1677745842e-01
 2.9880822641e-01	 1.8275855452e+00	-2.8882651621e-01
 2.9283206188e-01	 1.7910338343e+00	-3.3606582291e-01
 2.7293583053e-01	 1.7941735826e+00	-3.0932596874e-01
 2.5307839161e-01	 1.7970821183e+00	-2.8427007095e-01
 2.3326334129e-01	 1.7997613802e+00	-2.6178898809e-01
 2.1349420591e-01	 1.8022133714e+00	-2.4241185253e-01
 1.9377444094e-01	 1.8044401564e+00	-2.2640013989e-01
 2.9402729478e-01	 1.7983441765e+00	-3.2648530883e-01
 2.7404985433e-01	 1.8014967401e+00	-3.0072631800e-01
 2.5411136464e-01	 1.8044171473e+00	-2.7683503100e-01
 2.3421543656e-01	 1.8071073450e+00	-2.5552930003e-01
 2.1436561083e-01	 1.8095693444e+00	-2.3710178433e-01
 1.9456535703e-01	 1.8118052183e+00	-2.2152592237e-01
 2.9522252769e-01	 1.8056545187e+00	-3.1744489671e-01
 2.7516387813e-01	 1.8088198976e+00	-2.9221737226e-01
 2.5514433767e-01	 1.8117521764e+00	-2.6894320155e-01
 2.3516753183e-01	 1.8144533098e+00	-2.4826813467e-01
 2.1523701575e-01	 1.8169253173e+00	-2.3034459724e-01
 1.9535627311e-01	 1.8191702801e+00	-2.1494977838e-01
 2.9641776059e-01	 1.8129648608e+00	-3.0847008256e-01
 2.7627790192e-01	 1.8161430550e+00	-2.8330098763e-01
 2.5617731069e-01	 1.8190872054e+00	-2.6008941288e-01
 2.3611962710e-01	 1.8217992747e+00	-2.3950717628e-01
 2.1610842067e-01	 1.8242812903e+00	-2.2165991315e-01
 1.9614718920e-01	 1.8265353420e+00	-2.0621750360e-01
 2.9761299350e-01	 1.8202752030e+00	-2.9908777084e-01
 2.7739192572e-01	 1.8234662125e+00	-2.7347909203e-01
 2.5721028372e-01	 1.8264222345e+00	-2.4976749586e-01
 2.3707172237e-01	 1.8291452395e+00	-2.2874631626e-01
 2.1697982559e-01	 1.8316372632e+00	-2.1056505590e-01
 1.9693810529e-01	 1.8339004039e+00	-1.9487238798e-01
 2.9880822641e-01	 1.8275855452e+00	-2.8882651621e-01
 2.7850594952e-01	 1.8307893700e+00	-2.6225388163e-01
 2.5824325675e-01	 1.8337572635e+00	-2.3747043764e-01
 2.3802381764e-01	 1.8364912043e+00	-2.1548377166e-01
 2.1785123052e-01	 1.8389932361e+00	-1.9657513586e-01
 1.9772902137e-01	 1.8412654657e+00	-1.8045526901e-01
 1.9377444094e-01	 1.8044401564e+00	-2.2640013989e-01
 1.7410743001e-01	 1.8064438588e+00	-2.1155438809e-01
 1.5449648396e-01	 1.8082266585e+00	-1.9626401546e-01
 1.3494484011e-01	 1.8097907896e+00	-1.8166659324e-01
 1.1545566151e-01	 1.8111385376e+00	-1.6917963398e-01
 9.6032036383e-02	 1.8122722367e+00	-1.6063750813e-01
 1.9456535703e-01	 1.8118052183e+00	-2.2152592237e-01
 1.7481807258e-01	 1.8138170990e+00	-2.0657264987e-01
 1.5512708185e-01	 1.8156071755e+00	-1.9094464720e-01
 1.3549563537e-01	 1.8171776908e+00	-1.7595061095e-01
 1.1592690911e-01	 1.8185309398e+00	-1.6315706151e-01
 9.6424003879e-02	 1.8196692663e+00	-1.5453716020e-01
 1.9535627311e-01	 1.8191702801e+00	-2.1494977838e-01
 1.7552871515e-01	 1.8211903392e+00	-1.9984870753e-01
 1.5575767974e-01	 1.8229876924e+00	-1.8399134109e-01
 1.3604643064e-01	 1.8245645920e+00	-1.6881152470e-01
 1.1639815671e-01	 1.8259233420e+00	-1.5597908203e-01
 9.6815971374e-02	 1.8270662958e+00	-1.4756093168e-01
 1.9614718920e-01	 1.8265353420e+00	-2.0621750360e-01
 1.7623935772e-01	 1.8285635795e+00	-1.9096633760e-01
 1.5638827764e-01	 1.8303682094e+00	-1.7504221539e-01
 1.3659722590e-01	 1.8319514932e+00	-1.5995671313e-01
 1.1686940431e-01	 1.8333157442e+00	-1.4743576911e-01
 9.7207938870e-02	 1.8344633254e+00	-1.3959350906e-01
 1.9693810529e-01	 1.8339004039e+00	-1.9487238798e-01
 1.7695000029e-01	 1.8359368197e+00	-1.7950680487e-01
 1.5701887553e-01	 1.8377487264e+00	-1.6373295888e-01
 1.3714802117e-01	 1.8393383944e+00	-1.4909127742e-01
 1.1734065191e-01	 1.8407081464e+00	-1.3731512153e-01
 9.7599906365e-02	 1.8418603549e+00	-1.3051773812e-01
 1.9772902137e-01	 1.8412654657e+00	-1.8045526901e-01
 1.7766064287e-01	 1.8433100600e+00	-1.6504888820e-01
 1.5764947343e-01	 1.8451292434e+00	-1.4969683496e-01
 1.3769881643e-01	 1.8467252955e+00	-1.3591802925e-01
 1.1781189950e-01	 1.8481005485e+00	-1.2540304068e-01
 9.7991873861e-02	 1.8492573844e+00	-1.2021459585e-01
 9.6032036383e-02	 1.8122722367e+00	-1.6063750813e-01
 7.6676977522e-02	 1.8131942679e+00	-1.5355167613e-01
 5.7393421908e-02	 1.8139070558e+00	-1.4508866860e-01
 3.8184230335e-02	 1.8144130667e+00	-1.3756842710e-01
 1.9052187138e-02	 1.8147148058e+00	-1.3420913408e-01
 0.0000000000e+00	 1.8148148148e+00	-1.3922203592e-01
 9.6424003879e-02	 1.8196692663e+00	-1.5453716020e-01
 7.6989944777e-02	 1.8205950608e+00	-1.4754272730e-01
 5.7627680773e-02	 1.8213107581e+00	-1.3906172542e-01
 3.8340084337e-02	 1.8218188343e+00	-1.3125862999e-01
 1.9129951167e-02	 1.8221218050e+00	-1.2725067751e-01
 0.0000000000e+00	 1.8222222222e+00	-1.3121230416e-01
 9.6815971374e-02	 1.8270662958e+00	-1.4756093168e-01
 7.7302912032e-02	 1.8279958538e+00	-1.4095863023e-01
 5.7861939638e-02	 1.8287144604e+00	-1.3278458843e-01
 3.8495938338e-02	 1.8292246019e+00	-1.2499231799e-01
 1.9207715196e-02	 1.8295288042e+00	-1.2054079428e-01
 0.0000000000e+00	 1.8296296296e+00	-1.2350899322e-01
 9.7207938870e-02	 1.8344633254e+00	-1.3959350906e-01
 7.7615879287e-02	 1.8353966467e+00	-1.3376943920e-01
 5.8096198503e-02	 1.8361181626e+00	-1.2628244722e-01
 3.8651792339e-02	 1.8366303696e+00	-1.1881833415e-01
 1.9285479225e-02	 1.8369358034e+00	-1.1411928513e-01
 0.0000000000e+00	 1.8370370370e+00	-1.1610899437e-01
 9.7599906365e-02	 1.8418603549e+00	-1.3051773812e-01
 7.7928846542e-02	 1.8427974396e+00	-1.2594392873e-01
 5.8330457368e-02	 1.8435218649e+00	-1.1958039173e-01
 3.8807646341e-02	 1.8440361372e+00	-1.1278719635e-01
 1.9363243255e-02	 1.8443428026e+00	-1.0802996909e-01
 0.0000000000e+00	 1.8444444444e+00	-1.0901610401e-01
 9.7991873861e-02	 1.8492573844e+00	-1.2021459585e-01
 7.8241813798e-02	 1.8501982326e+00	-1.1744955883e-01
 5.8564716233e-02	 1.8509255672e+00	-1.1270336332e-01
 3.8963500342e-02	 1.8514419048e+00	-1.0695102645e-01
 1.9441007284e-02	 1.8517498018e+00	-1.0232058295e-01
 0.0000000000e+00	 1.8518518519e+00	-1.0224088554e-01
 1.8518518519e+00	 0.0000000000e+00	 3.1213153503e+00
 1.8517498018e+00	 1.9441007284e-02	 3.1204056835e+00
 1.8514419048e+00	 3.8963500342e-02	 3.1135548805e+00
 1.8509255672e+00	 5.8564716233e-02	 3.1010909863e+00
 1.8501982326e+00	 7.8241813798e-02	 3.0842864074e+00
 1.8492573844e+00	 9.7991873861e-02	 3.0652009816e+00
 1.8592592593e+00	 0.0000000000e+00	 3.1056248034e+00
 1.8591568010e+00	 1.9518771313e-02	 3.1051917242e+00
 1.8588476724e+00	 3.9119354343e-02	 3.0989137456e+00
 1.8583292694e+00	 5.8798975097e-02	 3.0871346511e+00
 1.8575990255e+00	 7.8554781053e-02	 3.0710612207e+00
 1.8566544140e+00	 9.8383841356e-02	 3.0526360422e+00
 1.8666666667e+00	 0.0000000000e+00	 3.0901745568e+00
 1.8665638002e+00	 1.9596535342e-02	 3.0900240332e+00
 1.8662534400e+00	 3.9275208345e-02	 3.0840751444e+00
 1.8657329717e+00	 5.9033233962e-02	 3.0728096938e+00
 1.8649998184e+00	 7.8867748308e-02	 3.0575642818e+00
 1.8640514435e+00	 9.8775808852e-02	 3.0404037555e+00
 1.8740740741e+00	 0.0000000000e+00	 3.0749314301e+00
 1.8739707994e+00	 1.9674299371e-02	 3.0748729273e+00
 1.8736592077e+00	 3.9431062346e-02	 3.0689636867e+00
 1.8731366740e+00	 5.9267492827e-02	 3.0578128246e+00
 1.8724006114e+00	 7.9180715563e-02	 3.0428753719e+00
 1.8714484730e+00	 9.9167776347e-02	 3.0263264578e+00
 1.8814814815e+00	 0.0000000000e+00	 3.0598633144e+00
 1.8813777986e+00	 1.9752063400e-02	 3.0597132936e+00
 1.8810649753e+00	 3.9586916347e-02	 3.0535644470e+00
 1.8805403762e+00	 5.9501751692e-02	 3.0421423082e+00
 1.8798014043e+00	 7.9493682818e-02	 3.0270087478e+00
 1.8788455026e+00	 9.9559743842e-02	 3.0104369890e+00
 1.8888888889e+00	 0.0000000000e+00	 3.0449391515e+00
 1.8887847978e+00	 1.9829827429e-02	 3.0445208683e+00
 1.8884707429e+00	 3.9742770349e-02	 3.0378631787e+00
 1.8879440785e+00	 5.9736010557e-02	 3.0257969418e+00
 1.8872021972e+00	 7.9806650074e-02	 3.0099790678e+00
 1.8862425321e+00	 9.9951711338e-02	 2.9927684648e+00
 1.8492573844e+00	 9.7991873861e-02	 3.0652009816e+00
 1.8481005485e+00	 1.1781189950e-01	 3.0446267377e+00
 1.8467252955e+00	 1.3769881643e-01	 3.0212898762e+00
 1.8451292434e+00	 1.5764947343e-01	 2.9947368186e+00
 1.8433100600e+00	 1.7766064287e-01	 2.9644744650e+00
 1.8412654657e+00	 1.9772902137e-01	 2.9297507736e+00
 1.8566544140e+00	 9.8383841356e-02	 3.0526360422e+00
 1.8554929507e+00	 1.1828314710e-01	 3.0325403306e+00
 1.8541121967e+00	 1.3824961170e-01	 3.0091638668e+00
 1.8525097603e+00	 1.5828007132e-01	 2.9816627745e+00
 1.8506833002e+00	 1.7837128544e-01	 2.9496379953e+00
 1.8486305276e+00	 1.9851993746e-01	 2.9135515684e+00
 1.8640514435e+00	 9.8775808852e-02	 3.0404037555e+00
 1.8628853529e+00	 1.1875439470e-01	 3.0221609480e+00
 1.8614990979e+00	 1.3880040697e-01	 3.0011496159e+00
 1.8598902773e+00	 1.5891066921e-01	 2.9762957186e+00
 1.8580565404e+00	 1.7908192801e-01	 2.9466319126e+00
 1.8559955895e+00	 1.9931085354e-01	 2.9111335988e+00
 1.8714484730e+00	 9.9167776347e-02	 3.0263264578e+00
 1.8702777551e+00	 1.1922564230e-01	 3.0091582284e+00
 1.8688859991e+00	 1.3935120223e-01	 2.9896611380e+00
 1.8672707943e+00	 1.5954126711e-01	 2.9665867111e+00
 1.8654297807e+00	 1.7979257058e-01	 2.9387875271e+00
 1.8633606513e+00	 2.0010176963e-01	 2.9050548803e+00
 1.8788455026e+00	 9.9559743842e-02	 3.0104369890e+00
 1.8776701573e+00	 1.1969688990e-01	 2.9935857381e+00
 1.8762729003e+00	 1.3990199750e-01	 2.9747738813e+00
 1.8746513113e+00	 1.6017186500e-01	 2.9526331973e+00
 1.8728030209e+00	 1.8050321315e-01	 2.9258916074e+00
 1.8707257132e+00	 2.0089268571e-01	 2.8932124690e+00
 1.8862425321e+00	 9.9951711338e-02	 2.9927684648e+00
 1.8850625595e+00	 1.2016813749e-01	 2.9754971948e+00
 1.8836598014e+00	 1.4045279276e-01	 2.9565633237e+00
 1.8820318282e+00	 1.6080246289e-01	 2.9345325375e+00
 1.8801762612e+00	 1.8121385572e-01	 2.9080624718e+00
 1.8780907751e+00	 2.0168360180e-01	 2.8757436631e+00
 1.8412654657e+00	 1.9772902137e-01	 2.9297507736e+00
 1.8389932361e+00	 2.1785123052e-01	 2.8912731120e+00
 1.8364912043e+00	 2.3802381764e-01	 2.8508844460e+00
 1.8337572635e+00	 2.5824325675e-01	 2.8085140659e+00
 1.8307893700e+00	 2.7850594952e-01	 2.7630050440e+00
 1.8275855452e+00	 2.9880822641e-01	 2.7119307493e+00
 1.8486305276e+00	 1.9851993746e-01	 2.9135515684e+00
 1.8463492091e+00	 2.1872263544e-01	 2.8742554013e+00
 1.8438371691e+00	 2.3897591291e-01	 2.8336045091e+00
 1.8410922926e+00	 2.5927622977e-01	 2.7915279855e+00
 1.8381125275e+00	 2.7961997332e-01	 2.7468061785e+00
 1.8348958874e+00	 3.0000345931e-01	 2.6968723953e+00
 1.8559955895e+00	 1.9931085354e-01	 2.9111335988e+00
 1.8537051820e+00	 2.1959404036e-01	 2.8704428384e+00
 1.8511831339e+00	 2.3992800818e-01	 2.8267481299e+00
 1.8484273216e+00	 2.6030920280e-01	 2.7818987731e+00
 1.8454356850e+00	 2.8073399712e-01	 2.7354009700e+00
 1.8422062296e+00	 3.0119869222e-01	 2.6846932814e+00
 1.8633606513e+00	 2.0010176963e-01	 2.9050548803e+00
 1.8610611550e+00	 2.2046544528e-01	 2.8658386853e+00
 1.8585290987e+00	 2.4088010345e-01	 2.8231315248e+00
 1.8557623507e+00	 2.6134217583e-01	 2.7774165528e+00
 1.8527588424e+00	 2.8184802091e-01	 2.7283688644e+00
 1.8495165717e+00	 3.0239392512e-01	 2.6749861506e+00
 1.8707257132e+00	 2.0089268571e-01	 2.8932124690e+00
 1.8684171279e+00	 2.2133685020e-01	 2.8549144959e+00
 1.8658750636e+00	 2.4183219872e-01	 2.8129501516e+00
 1.8630973797e+00	 2.6237514886e-01	 2.7678117104e+00
 1.8600819999e+00	 2.8296204471e-01	 2.7191867765e+00
 1.8568269139e+00	 3.0358915803e-01	 2.6657242010e+00
 1.8780907751e+00	 2.0168360180e-01	 2.8757436631e+00
 1.8757731009e+00	 2.2220825513e-01	 2.8378192843e+00
 1.8732210284e+00	 2.4278429399e-01	 2.7962816616e+00
 1.8704324088e+00	 2.6340812188e-01	 2.7517245535e+00
 1.8674051574e+00	 2.8407606851e-01	 2.7039406333e+00
 1.8641372561e+00	 3.0478439093e-01	 2.6516881992e+00
 1.8275855452e+00	 2.9880822641e-01	 2.7119307493e+00
 1.8241438786e+00	 3.1914634782e-01	 2.6538598125e+00
 1.8204625302e+00	 3.3951650543e-01	 2.5896497362e+00
 1.8165397328e+00	 3.5991482357e-01	 2.5180213645e+00
 1.8123737951e+00	 3.8033736070e-01	 2.4367407463e+00
 1.8079631035e+00	 4.0078011105e-01	 2.3545976921e+00
 1.8348958874e+00	 3.0000345931e-01	 2.6968723953e+00
 1.8314404541e+00	 3.2042293321e-01	 2.6398954055e+00
 1.8277443803e+00	 3.4087457145e-01	 2.5764063162e+00
 1.8238058918e+00	 3.6135448286e-01	 2.5049358389e+00
 1.8196232903e+00	 3.8185871015e-01	 2.4232151327e+00
 1.8151949560e+00	 4.0238323150e-01	 2.3405663465e+00
 1.8422062296e+00	 3.0119869222e-01	 2.6846932814e+00
 1.8387370296e+00	 3.2169951860e-01	 2.6276210393e+00
 1.8350262304e+00	 3.4223263747e-01	 2.5642600600e+00
 1.8310720507e+00	 3.6279414216e-01	 2.4927830087e+00
 1.8268727855e+00	 3.8338005959e-01	 2.4107689471e+00
 1.8224268084e+00	 4.0398635194e-01	 2.3277854171e+00
 1.8495165717e+00	 3.0239392512e-01	 2.6749861506e+00
 1.8460336052e+00	 3.2297610399e-01	 2.6165766039e+00
 1.8423080805e+00	 3.4359070349e-01	 2.5527346443e+00
 1.8383382096e+00	 3.6423380145e-01	 2.4811106889e+00
 1.8341222807e+00	 3.8490140903e-01	 2.3990165950e+00
 1.8296586608e+00	 4.0558947239e-01	 2.3159614062e+00
 1.8568269139e+00	 3.0358915803e-01	 2.6657242010e+00
 1.8533301807e+00	 3.2425268938e-01	 2.6062268884e+00
 1.8495899307e+00	 3.4494876952e-01	 2.5413629325e+00
 1.8456043686e+00	 3.6567346074e-01	 2.4694776599e+00
 1.8413717758e+00	 3.8642275848e-01	 2.3875828464e+00
 1.8368905132e+00	 4.0719259283e-01	 2.3048103092e+00
 1.8641372561e+00	 3.0478439093e-01	 2.6516881992e+00
 1.8606267562e+00	 3.2552927477e-01	 2.5935806707e+00
 1.8568717808e+00	 3.4630683554e-01	 2.5294332430e+00
 1.8528705275e+00	 3.6711312004e-01	 2.4574680414e+00
 1.8486212710e+00	 3.8794410792e-01	 2.3761026778e+00
 1.8441223656e+00	 4.0879571328e-01	 2.2940574622e+00
 1.8079631035e+00	 4.0078011105e-01	 2.3545976921e+00
 1.8033061251e+00	 4.2123900626e-01	 2.2777160428e+00
 1.7984014097e+00	 4.4170991719e-01	 2.1988695617e+00
 1.7932475924e+00	 4.6218865585e-01	 2.1162426424e+00
 1.7878433961e+00	 4.8267097732e-01	 2.0282177113e+00
 1.7821876334e+00	 5.0315258192e-01	 1.9334681498e+00
 1.8151949560e+00	 4.0238323150e-01	 2.3405663465e+00
 1.8105193496e+00	 4.2292396228e-01	 2.2632713208e+00
 1.8055950153e+00	 4.4347675686e-01	 2.1845535710e+00
 1.8004205828e+00	 4.6403741047e-01	 2.1023971416e+00
 1.7949947697e+00	 4.8460166123e-01	 2.0149916141e+00
 1.7893163839e+00	 5.0516519225e-01	 1.9208295868e+00
 1.8224268084e+00	 4.0398635194e-01	 2.3277854171e+00
 1.8177325741e+00	 4.2460891831e-01	 2.2500393493e+00
 1.8127886209e+00	 4.4524359653e-01	 2.1712172648e+00
 1.8075935731e+00	 4.6588616509e-01	 2.0891922638e+00
 1.8021461432e+00	 4.8653234514e-01	 2.0020501116e+00
 1.7964451344e+00	 5.0717780258e-01	 1.9081911616e+00
 1.8296586608e+00	 4.0558947239e-01	 2.3159614062e+00
 1.8249457986e+00	 4.2629387433e-01	 2.2378284507e+00
 1.8199822266e+00	 4.4701043620e-01	 2.1587534890e+00
 1.8147665635e+00	 4.6773491972e-01	 2.0765863435e+00
 1.8092975168e+00	 4.8846302905e-01	 1.9893962872e+00
 1.8035738850e+00	 5.0919041290e-01	 1.8955782987e+00
 1.8368905132e+00	 4.0719259283e-01	 2.3048103092e+00
 1.8321590231e+00	 4.2797883036e-01	 2.2264553494e+00
 1.8271758322e+00	 4.4877727587e-01	 2.1470625953e+00
 1.8219395539e+00	 4.6958367434e-01	 2.0645445373e+00
 1.8164488904e+00	 4.9039371296e-01	 1.9770395925e+00
 1.8107026355e+00	 5.1120302323e-01	 1.8830225847e+00
 1.8441223656e+00	 4.0879571328e-01	 2.2940574622e+00
 1.8393722476e+00	 4.2966378639e-01	 2.2157450264e+00
 1.8343694379e+00	 4.5054411554e-01	 2.1360522966e+00
 1.8291125442e+00	 4.7143242896e-01	 2.0530386730e+00
 1.8236002640e+00	 4.9232439687e-01	 1.9649956827e+00
 1.8178313860e+00	 5.1321563356e-01	 1.8705615838e+00
 1.7821876334e+00	 5.0315258192e-01	 1.9334681498e+00
 1.7762792091e+00	 5.2362911734e-01	 1.8341336341e+00
 1.7701171224e+00	 5.4409618095e-01	 1.7336859581e+00
 1.7637004689e+00	 5.6454932217e-01	 1.6334683508e+00
 1.7570284427e+00	 5.8498404496e-01	 1.5353993428e+00
 1.7501003383e+00	 6.0539581038e-01	 1.4420120306e+00
 1.7893163839e+00	 5.0516519225e-01	 1.9208295868e+00
 1.7833843259e+00	 5.2572363381e-01	 1.8218784886e+00
 1.7771975909e+00	 5.4627256567e-01	 1.7215898241e+00
 1.7707552708e+00	 5.6680751946e-01	 1.6213816670e+00
 1.7640565564e+00	 5.8732398114e-01	 1.5232708795e+00
 1.7571007396e+00	 6.0781739362e-01	 1.4299146150e+00
 1.7964451344e+00	 5.0717780258e-01	 1.9081911616e+00
 1.7904894428e+00	 5.2781815028e-01	 1.8094650001e+00
 1.7842780594e+00	 5.4844895039e-01	 1.7092718123e+00
 1.7778100727e+00	 5.6906571675e-01	 1.6090657277e+00
 1.7710846702e+00	 5.8966391732e-01	 1.5109249676e+00
 1.7641011410e+00	 6.1023897686e-01	 1.4175957346e+00
 1.8035738850e+00	 5.0919041290e-01	 1.8955782987e+00
 1.7975945596e+00	 5.2991266675e-01	 1.7969313564e+00
 1.7913585279e+00	 5.5062533512e-01	 1.6967872388e+00
 1.7848648745e+00	 5.7132391404e-01	 1.5965973976e+00
 1.7781127840e+00	 5.9200385350e-01	 1.4984645303e+00
 1.7711015423e+00	 6.1266056010e-01	 1.4051890064e+00
 1.8107026355e+00	 5.1120302323e-01	 1.8830225847e+00
 1.8046996764e+00	 5.3200718322e-01	 1.7843217409e+00
 1.7984389964e+00	 5.5280171984e-01	 1.6841970623e+00
 1.7919196764e+00	 5.7358211133e-01	 1.5840586389e+00
 1.7851408978e+00	 5.9434378968e-01	 1.4859968467e+00
 1.7781019437e+00	 6.1508214334e-01	 1.3928314602e+00
 1.8178313860e+00	 5.1321563356e-01	 1.8705615838e+00
 1.8118047933e+00	 5.3410169969e-01	 1.7716861235e+00
 1.8055194649e+00	 5.5497810457e-01	 1.6715676509e+00
 1.7989744783e+00	 5.7584030861e-01	 1.5715362557e+00
 1.7921690115e+00	 5.9668372586e-01	 1.4736332741e+00
 1.7851023450e+00	 6.1750372658e-01	 1.3806632406e+00
 1.7501003383e+00	 6.0539581038e-01	 1.4420120306e+00
 1.7429155527e+00	 6.2578003921e-01	 1.3489552574e+00
 1.7354735871e+00	 6.4613211474e-01	 1.2501268835e+00
 1.7277740487e+00	 6.6644738560e-01	 1.1464278909e+00
 1.7198166524e+00	 6.8672116861e-01	 1.0394304387e+00
 1.7116012221e+00	 7.0694875183e-01	 9.3133881752e-01
 1.7571007396e+00	 6.0781739362e-01	 1.4299146150e+00
 1.7498872149e+00	 6.2828315936e-01	 1.3373119628e+00
 1.7424154814e+00	 6.4871664320e-01	 1.2393846437e+00
 1.7346851449e+00	 6.6911317514e-01	 1.1367123500e+00
 1.7266959190e+00	 6.8946805328e-01	 1.0305786358e+00
 1.7184476270e+00	 7.0977654684e-01	 9.2293245663e-01
 1.7641011410e+00	 6.1023897686e-01	 1.4175957346e+00
 1.7568588771e+00	 6.3078627952e-01	 1.3254240131e+00
 1.7493573758e+00	 6.5130117166e-01	 1.2283793903e+00
 1.7415962411e+00	 6.7177896468e-01	 1.1267290840e+00
 1.7335751856e+00	 6.9221493795e-01	 1.0214784966e+00
 1.7252940319e+00	 7.1260434185e-01	 9.1433332275e-01
 1.7711015423e+00	 6.1266056010e-01	 1.4051890064e+00
 1.7638305393e+00	 6.3328939968e-01	 1.3134567234e+00
 1.7562992701e+00	 6.5388570012e-01	 1.2173052345e+00
 1.7485073373e+00	 6.7444475422e-01	 1.1166978683e+00
 1.7404544522e+00	 6.9496182263e-01	 1.0123721409e+00
 1.7321404368e+00	 7.1543213685e-01	 9.0580241476e-01
 1.7781019437e+00	 6.1508214334e-01	 1.3928314602e+00
 1.7708022015e+00	 6.3579251983e-01	 1.3015777334e+00
 1.7632411645e+00	 6.5647022858e-01	 1.2063574411e+00
 1.7554184335e+00	 6.7711054376e-01	 1.1068383831e+00
 1.7473337188e+00	 6.9770870730e-01	 1.0035002733e+00
 1.7389868417e+00	 7.1825993186e-01	 8.9759793120e-01
 1.7851023450e+00	 6.1750372658e-01	 1.3806632406e+00
 1.7777738637e+00	 6.3829563999e-01	 1.2899566896e+00
 1.7701830588e+00	 6.5905475704e-01	 1.1957320896e+00
 1.7623295297e+00	 6.7977633331e-01	 1.0973698529e+00
 1.7542129854e+00	 7.0045559198e-01	 9.9510179866e-01
 1.7458332465e+00	 7.2108772687e-01	 8.8997486120e-01
 1.7116012221e+00	 7.0694875183e-01	 9.3133881752e-01
 1.7031276926e+00	 7.2712539762e-01	 8.2563718713e-01
 1.6943961107e+00	 7.4724634573e-01	 7.2561017494e-01
 1.6854066365e+00	 7.6730681656e-01	 6.2970319471e-01
 1.6761595447e+00	 7.8730201443e-01	 5.3292230553e-01
 1.6666552254e+00	 8.0722713086e-01	 4.3046352532e-01
 1.7184476270e+00	 7.0977654684e-01	 9.2293245663e-01
 1.7099402034e+00	 7.3003389921e-01	 8.1743797120e-01
 1.7011736952e+00	 7.5023533111e-01	 7.1775970577e-01
 1.6921482631e+00	 7.7037604383e-01	 6.2197651623e-01
 1.6828641829e+00	 7.9045122249e-01	 5.2546561667e-01
 1.6733218463e+00	 8.1045603939e-01	 4.2379423829e-01
 1.7252940319e+00	 7.1260434185e-01	 9.1433332275e-01
 1.7167527142e+00	 7.3294240080e-01	 8.0911652777e-01
 1.7079512796e+00	 7.5322431649e-01	 7.0976759277e-01
 1.6988898896e+00	 7.7344527110e-01	 6.1406642802e-01
 1.6895688211e+00	 7.9360043054e-01	 5.1778228108e-01
 1.6799884672e+00	 8.1368494791e-01	 4.1686490027e-01
 1.7321404368e+00	 7.1543213685e-01	 9.0580241476e-01
 1.7235652249e+00	 7.3585090239e-01	 8.0094651886e-01
 1.7147288640e+00	 7.5621330188e-01	 7.0189762363e-01
 1.7056315162e+00	 7.7651449836e-01	 6.0622355292e-01
 1.6962734592e+00	 7.9674963860e-01	 5.1010281656e-01
 1.6866550881e+00	 8.1691385643e-01	 4.0987875595e-01
 1.7389868417e+00	 7.1825993186e-01	 8.9759793120e-01
 1.7303777357e+00	 7.3875940398e-01	 7.9319740497e-01
 1.7215064485e+00	 7.5920228726e-01	 6.9440572476e-01
 1.7123731427e+00	 7.7958372563e-01	 5.9869089741e-01
 1.7029780974e+00	 7.9989884666e-01	 5.0265047010e-01
 1.6933217090e+00	 8.2014276496e-01	 4.0303222632e-01
 1.7458332465e+00	 7.2108772687e-01	 8.8997486120e-01
 1.7371902465e+00	 7.4166790557e-01	 7.8613289112e-01
 1.7282840329e+00	 7.6219127264e-01	 6.8754011613e-01
 1.7191147693e+00	 7.8265295290e-01	 5.9170400760e-01
 1.7096827356e+00	 8.0304805472e-01	 4.9564137256e-01
 1.6999883299e+00	 8.2337167348e-01	 3.9651505958e-01
 1.6666552254e+00	 8.0722713086e-01	 4.3046352532e-01
 1.6568941854e+00	 8.2707734804e-01	 3.2137941188e-01
 1.6468770486e+00	 8.4684784222e-01	 2.0993306344e-01
 1.6366045573e+00	 8.6653378722e-01	 9.9093985639e-02
 1.6260775719e+00	 8.8613035797e-01	-8.3988311439e-03
 1.6152970724e+00	 9.0563273409e-01	-1.1012206776e-01
 1.6733218463e+00	 8.1045603939e-01	 4.2379423829e-01
 1.6635217621e+00	 8.3038565743e-01	 3.1566191256e-01
 1.6534645568e+00	 8.5023523359e-01	 2.0478876709e-01
 1.6431509755e+00	 8.6999992237e-01	 9.4233351556e-02
 1.6325818822e+00	 8.8967487940e-01	-1.3174935164e-02
 1.6217582607e+00	 9.0925526503e-01	-1.1492240349e-01
 1.6799884672e+00	 8.1368494791e-01	 4.1686490027e-01
 1.6701493389e+00	 8.3369396683e-01	 3.0969018343e-01
 1.6600520650e+00	 8.5362262496e-01	 1.9943643320e-01
 1.6496973937e+00	 8.7346605752e-01	 8.9220858414e-02
 1.6390861925e+00	 8.9321940084e-01	-1.8065498397e-02
 1.6282194490e+00	 9.1287779597e-01	-1.1984564412e-01
 1.6866550881e+00	 8.1691385643e-01	 4.0987875595e-01
 1.6767769156e+00	 8.3700227622e-01	 3.0364142398e-01
 1.6666395732e+00	 8.5701001633e-01	 1.9403721183e-01
 1.6562438119e+00	 8.7693219267e-01	 8.4211944410e-02
 1.6455905028e+00	 8.9676392227e-01	-2.2910114832e-02
 1.6346806373e+00	 9.1650032690e-01	-1.2471539396e-01
 1.6933217090e+00	 8.2014276496e-01	 4.0303222632e-01
 1.6834044924e+00	 8.4031058561e-01	 2.9768642418e-01
 1.6732270814e+00	 8.6039740770e-01	 1.8874608467e-01
 1.6627902302e+00	 8.8039832782e-01	 7.9355940335e-02
 1.6520948131e+00	 9.0030844370e-01	-2.7554611843e-02
 1.6411418256e+00	 9.2012285784e-01	-1.2936181011e-01
 1.6999883299e+00	 8.2337167348e-01	 3.9651505958e-01
 1.6900320691e+00	 8.4361889500e-01	 2.9198971169e-01
 1.6798145896e+00	 8.6378479907e-01	 1.8371201132e-01
 1.6693366484e+00	 8.8386446296e-01	 7.4796217885e-02
 1.6585991234e+00	 9.0385296513e-01	-3.1850896862e-02
 1.6476030139e+00	 9.2374538878e-01	-1.3362144098e-01
 1.6152970724e+00	 9.0563273409e-01	-1.1012206776e-01
 1.6042641579e+00	 9.2503610350e-01	-2.0871890431e-01
 1.5929800473e+00	 9.4433566603e-01	-3.0803040288e-01
 1.5814460790e+00	 9.6352663712e-01	-4.0813085888e-01
 1.5696637112e+00	 9.8260425149e-01	-5.0972647439e-01
 1.5576345214e+00	 1.0015637668e+00	-6.1426658065e-01
 1.6217582607e+00	 9.0925526503e-01	-1.1492240349e-01
 1.6106812146e+00	 9.2873624791e-01	-2.1330617779e-01
 1.5993519675e+00	 9.4811300869e-01	-3.1199574935e-01
 1.5877718633e+00	 9.6738074367e-01	-4.1123572629e-01
 1.5759423660e+00	 9.8653466849e-01	-5.1190117164e-01
 1.5638650595e+00	 1.0055700219e+00	-6.1561053039e-01
 1.6282194490e+00	 9.1287779597e-01	-1.1984564412e-01
 1.6170982712e+00	 9.3243639233e-01	-2.1806076141e-01
 1.6057238877e+00	 9.5189035135e-01	-3.1616353075e-01
 1.5940976476e+00	 9.7123485021e-01	-4.1454266604e-01
 1.5822210209e+00	 9.9046508550e-01	-5.1421739375e-01
 1.5700955976e+00	 1.0095762769e+00	-6.1695218288e-01
 1.6346806373e+00	 9.1650032690e-01	-1.2471539396e-01
 1.6235153278e+00	 9.3613653674e-01	-2.2279104340e-01
 1.6120958079e+00	 9.5566769402e-01	-3.2033991901e-01
 1.6004234319e+00	 9.7508895676e-01	-4.1786891957e-01
 1.5884996757e+00	 9.9439550250e-01	-5.1651699888e-01
 1.5763261356e+00	 1.0135825320e+00	-6.1817179661e-01
 1.6411418256e+00	 9.2012285784e-01	-1.2936181011e-01
 1.6299323845e+00	 9.3983668115e-01	-2.2731229250e-01
 1.6184677281e+00	 9.5944503668e-01	-3.2433811063e-01
 1.6067492163e+00	 9.7894306331e-01	-4.2103870871e-01
 1.5947783305e+00	 9.9832591951e-01	-5.1864858866e-01
 1.5825566737e+00	 1.0175887871e+00	-6.1915593957e-01
 1.6476030139e+00	 9.2374538878e-01	-1.3362144098e-01
 1.6363494411e+00	 9.4353682557e-01	-2.3144648902e-01
 1.6248396482e+00	 9.6322237935e-01	-3.2797815440e-01
 1.6130750006e+00	 9.8279716986e-01	-4.2388306451e-01
 1.6010569854e+00	 1.0022563365e+00	-5.2046734280e-01
 1.5887872118e+00	 1.0215950421e+00	-6.1979733415e-01
 1.5576345214e+00	 1.0015637668e+00	-6.1426658065e-01
 1.5453602063e+00	 1.0204004674e+00	-7.1331595778e-01
 1.5328425813e+00	 1.0391096681e+00	-8.0003381899e-01
 1.5200835796e+00	 1.0576867174e+00	-8.7982247986e-01
 1.5070852519e+00	 1.0761270021e+00	-9.5942922717e-01
 1.4938497654e+00	 1.0944259499e+00	-1.0470696643e+00
 1.5638650595e+00	 1.0055700219e+00	-6.1561053039e-01
 1.5515416471e+00	 1.0244820693e+00	-7.1438096031e-01
 1.5389739516e+00	 1.0432661067e+00	-8.0139335076e-01
 1.5261639139e+00	 1.0619174643e+00	-8.8159141709e-01
 1.5131135930e+00	 1.0804315101e+00	-9.6128974531e-01
 1.4998251644e+00	 1.0988036537e+00	-1.0483012149e+00
 1.5700955976e+00	 1.0095762769e+00	-6.1695218288e-01
 1.5577230880e+00	 1.0285636712e+00	-7.1526185788e-01
 1.5451053219e+00	 1.0474225454e+00	-8.0245623369e-01
 1.5322442482e+00	 1.0661482112e+00	-8.8308988229e-01
 1.5191419340e+00	 1.0847360181e+00	-9.6311183404e-01
 1.5058005635e+00	 1.1031813575e+00	-1.0499969608e+00
 1.5763261356e+00	 1.0135825320e+00	-6.1817179661e-01
 1.5639045288e+00	 1.0326452730e+00	-7.1587633230e-01
 1.5512366923e+00	 1.0515789841e+00	-8.0316106397e-01
 1.5383245826e+00	 1.0703789580e+00	-8.8425994275e-01
 1.5251702750e+00	 1.0890405261e+00	-9.6482266222e-01
 1.5117759625e+00	 1.1075590613e+00	-1.0520498867e+00
 1.5825566737e+00	 1.0175887871e+00	-6.1915593957e-01
 1.5700859696e+00	 1.0367268749e+00	-7.1614797525e-01
 1.5573680626e+00	 1.0557354227e+00	-8.0345222563e-01
 1.5444049169e+00	 1.0746097049e+00	-8.8504962210e-01
 1.5311986160e+00	 1.0933450341e+00	-9.6635582673e-01
 1.5177513616e+00	 1.1119367651e+00	-1.0543391998e+00
 1.5887872118e+00	 1.0215950421e+00	-6.1979733415e-01
 1.5762674104e+00	 1.0408084768e+00	-7.1600614360e-01
 1.5634994329e+00	 1.0598918614e+00	-8.0327975151e-01
 1.5504852512e+00	 1.0788404518e+00	-8.8541276214e-01
 1.5372269570e+00	 1.0976495421e+00	-9.6765120978e-01
 1.5237267607e+00	 1.1163144689e+00	-1.0560349958e+00
 1.4938497654e+00	 1.0944259499e+00	-1.0470696643e+00
 1.4803794023e+00	 1.1125790338e+00	-1.1456337545e+00
 1.4666765595e+00	 1.1305817754e+00	-1.2352840186e+00
 1.4527437467e+00	 1.1484297486e+00	-1.3083085782e+00
 1.4385835851e+00	 1.1661185831e+00	-1.3733348419e+00
 1.4241988060e+00	 1.1836439677e+00	-1.4374456725e+00
 1.4998251644e+00	 1.0988036537e+00	-1.0483012149e+00
 1.4863009199e+00	 1.1170293499e+00	-1.1452820342e+00
 1.4725432658e+00	 1.1351041025e+00	-1.2342816686e+00
 1.4585547217e+00	 1.1530234676e+00	-1.3069901582e+00
 1.4443379195e+00	 1.1707830574e+00	-1.3717605393e+00
 1.4298956012e+00	 1.1883785436e+00	-1.4362901501e+00
 1.5058005635e+00	 1.1031813575e+00	-1.0499969608e+00
 1.4922224375e+00	 1.1214796660e+00	-1.1445880052e+00
 1.4784099720e+00	 1.1396264296e+00	-1.2312860566e+00
 1.4643656967e+00	 1.1576171866e+00	-1.3046280654e+00
 1.4500922538e+00	 1.1754475317e+00	-1.3698540632e+00
 1.4355923964e+00	 1.1931131194e+00	-1.4351704156e+00
 1.5117759625e+00	 1.1075590613e+00	-1.0520498867e+00
 1.4981439552e+00	 1.1259299822e+00	-1.1436211847e+00
 1.4842766783e+00	 1.1441487567e+00	-1.2267607269e+00
 1.4701766717e+00	 1.1622109056e+00	-1.3013792767e+00
 1.4558465882e+00	 1.1801120061e+00	-1.3677233174e+00
 1.4412891917e+00	 1.1978476953e+00	-1.4341548508e+00
 1.5177513616e+00	 1.1119367651e+00	-1.0543391998e+00
 1.5040654728e+00	 1.1303802983e+00	-1.1423986315e+00
 1.4901433845e+00	 1.1486710838e+00	-1.2224822258e+00
 1.4759876467e+00	 1.1668046246e+00	-1.2974038401e+00
 1.4616009225e+00	 1.1847764804e+00	-1.3654798196e+00
 1.4469859869e+00	 1.2025822712e+00	-1.4333159330e+00
 1.5237267607e+00	 1.1163144689e+00	-1.0560349958e+00
 1.5099869904e+00	 1.1348306144e+00	-1.1409371399e+00
 1.4960100907e+00	 1.1531934109e+00	-1.2187446050e+00
 1.4817986217e+00	 1.1713983436e+00	-1.2928668261e+00
 1.4673552568e+00	 1.1894409547e+00	-1.3632382780e+00
 1.4526827821e+00	 1.2073168470e+00	-1.4327298140e+00
 1.4241988060e+00	 1.1836439677e+00	-1.4374456725e+00
 1.4095922489e+00	 1.2010016541e+00	-1.5031539469e+00
 1.3947668599e+00	 1.2181874600e+00	-1.5682284222e+00
 1.3797256897e+00	 1.2351972727e+00	-1.6304983987e+00
 1.3644718914e+00	 1.2520270519e+00	-1.6865502969e+00
 1.3490087186e+00	 1.2686728334e+00	-1.7319455729e+00
 1.4298956012e+00	 1.1883785436e+00	-1.4362901501e+00
 1.4152306179e+00	 1.2058056607e+00	-1.5024891688e+00
 1.4003459273e+00	 1.2230602099e+00	-1.5673921555e+00
 1.3852445924e+00	 1.2401380618e+00	-1.6291620690e+00
 1.3699297790e+00	 1.2570351601e+00	-1.6846902313e+00
 1.3544047535e+00	 1.2737475248e+00	-1.7298197797e+00
 1.4355923964e+00	 1.1931131194e+00	-1.4351704156e+00
 1.4208689869e+00	 1.2106096673e+00	-1.5019286082e+00
 1.4059249948e+00	 1.2279329597e+00	-1.5665912446e+00
 1.3907634952e+00	 1.2450788509e+00	-1.6277264105e+00
 1.3753876666e+00	 1.2620432683e+00	-1.6826018765e+00
 1.3598007884e+00	 1.2788222161e+00	-1.7274140709e+00
 1.4412891917e+00	 1.1978476953e+00	-1.4341548508e+00
 1.4265073559e+00	 1.2154136739e+00	-1.5015110462e+00
 1.4115040622e+00	 1.2328057095e+00	-1.5658437207e+00
 1.3962823980e+00	 1.2500196400e+00	-1.6261965779e+00
 1.3808455541e+00	 1.2670513765e+00	-1.6802843737e+00
 1.3651968232e+00	 1.2838969074e+00	-1.7247273959e+00
 1.4469859869e+00	 1.2025822712e+00	-1.4333159330e+00
 1.4321457249e+00	 1.2202176805e+00	-1.5012797705e+00
 1.4170831296e+00	 1.2376784594e+00	-1.5651724726e+00
 1.4018013007e+00	 1.2549604290e+00	-1.6245828844e+00
 1.3863034417e+00	 1.2720594847e+00	-1.6777422815e+00
 1.3705928581e+00	 1.2889715988e+00	-1.7217643473e+00
 1.4526827821e+00	 1.2073168470e+00	-1.4327298140e+00
 1.4377840939e+00	 1.2250216872e+00	-1.5012821590e+00
 1.4226621971e+00	 1.2425512092e+00	-1.5646048385e+00
 1.4073202035e+00	 1.2599012181e+00	-1.6229004040e+00
 1.3917613292e+00	 1.2770675930e+00	-1.6749851917e+00
 1.3759888930e+00	 1.2940462901e+00	-1.7185347930e+00
 1.3490087186e+00	 1.2686728334e+00	-1.7319455729e+00
 1.3333395228e+00	 1.2851307319e+00	-1.7727961496e+00
 1.3174677512e+00	 1.3013969440e+00	-1.8159295467e+00
 1.3013969440e+00	 1.3174677512e+00	-1.8571156062e+00
 1.2851307319e+00	 1.3333395228e+00	-1.8920167388e+00
 1.2686728334e+00	 1.3490087186e+00	-1.9164472033e+00
 1.3544047535e+00	 1.2737475248e+00	-1.7298197797e+00
 1.3386728809e+00	 1.2902712548e+00	-1.7706781349e+00
 1.3227376222e+00	 1.3066025317e+00	-1.8138647658e+00
 1.3066025317e+00	 1.3227376222e+00	-1.8550416138e+00
 1.2902712548e+00	 1.3386728809e+00	-1.8897553822e+00
 1.2737475248e+00	 1.3544047535e+00	-1.9137044492e+00
 1.3598007884e+00	 1.2788222161e+00	-1.7274140709e+00
 1.3440062390e+00	 1.2954117778e+00	-1.7683233806e+00
 1.3280074932e+00	 1.3118081195e+00	-1.8116508434e+00
 1.3118081195e+00	 1.3280074932e+00	-1.8529206609e+00
 1.2954117778e+00	 1.3440062390e+00	-1.8875345606e+00
 1.2788222161e+00	 1.3598007884e+00	-1.9110465844e+00
 1.3651968232e+00	 1.2838969074e+00	-1.7247273959e+00
 1.3493395971e+00	 1.3005523007e+00	-1.7657361440e+00
 1.3332773642e+00	 1.3170137073e+00	-1.8093033066e+00
 1.3170137073e+00	 1.3332773642e+00	-1.8507856049e+00
 1.3005523007e+00	 1.3493395971e+00	-1.8854106042e+00
 1.2838969074e+00	 1.3651968232e+00	-1.9085596225e+00
 1.3705928581e+00	 1.2889715988e+00	-1.7217643473e+00
 1.3546729552e+00	 1.3056928236e+00	-1.7629265160e+00
 1.3385472352e+00	 1.3222192951e+00	-1.8068436535e+00
 1.3222192951e+00	 1.3385472352e+00	-1.8486753491e+00
 1.3056928236e+00	 1.3546729552e+00	-1.8834458895e+00
 1.2889715988e+00	 1.3705928581e+00	-1.9063355385e+00
 1.3759888930e+00	 1.2940462901e+00	-1.7185347930e+00
 1.3600063133e+00	 1.3108333465e+00	-1.7599100697e+00
 1.3438171062e+00	 1.3274248829e+00	-1.8042990223e+00
 1.3274248829e+00	 1.3438171062e+00	-1.8466345328e+00
 1.3108333465e+00	 1.3600063133e+00	-1.8817085540e+00
 1.2940462901e+00	 1.3759888930e+00	-1.9044720104e+00
 1.2686728334e+00	 1.3490087186e+00	-1.9164472033e+00
 1.2520270519e+00	 1.3644718914e+00	-1.9374883112e+00
 1.2351972727e+00	 1.3797256897e+00	-1.9611881165e+00
 1.2181874600e+00	 1.3947668599e+00	-1.9828370494e+00
 1.2010016541e+00	 1.4095922489e+00	-1.9989327241e+00
 1.1836439677e+00	 1.4241988060e+00	-2.0074194854e+00
 1.2737475248e+00	 1.3544047535e+00	-1.9137044492e+00
 1.2570351601e+00	 1.3699297790e+00	-1.9340347976e+00
 1.2401380618e+00	 1.3852445924e+00	-1.9570547532e+00
 1.2230602099e+00	 1.4003459273e+00	-1.9782515922e+00
 1.2058056607e+00	 1.4152306179e+00	-1.9943450147e+00
 1.1883785436e+00	 1.4298956012e+00	-2.0035332992e+00
 1.2788222161e+00	 1.3598007884e+00	-1.9110465844e+00
 1.2620432683e+00	 1.3753876666e+00	-1.9306344034e+00
 1.2450788509e+00	 1.3907634952e+00	-1.9528844975e+00
 1.2279329597e+00	 1.4059249948e+00	-1.9735277057e+00
 1.2106096673e+00	 1.4208689869e+00	-1.9895500792e+00
 1.1931131194e+00	 1.4355923964e+00	-1.9994457220e+00
 1.2838969074e+00	 1.3651968232e+00	-1.9085596225e+00
 1.2670513765e+00	 1.3808455541e+00	-1.9273964279e+00
 1.2500196400e+00	 1.3962823980e+00	-1.9487903293e+00
 1.2328057095e+00	 1.4115040622e+00	-1.9687616241e+00
 1.2154136739e+00	 1.4265073559e+00	-1.9846061906e+00
 1.1978476953e+00	 1.4412891917e+00	-1.9951550948e+00
 1.2889715988e+00	 1.3705928581e+00	-1.9063355385e+00
 1.2720594847e+00	 1.3863034417e+00	-1.9244361511e+00
 1.2549604290e+00	 1.4018013007e+00	-1.9448915292e+00
 1.2376784594e+00	 1.4170831296e+00	-1.9640565071e+00
 1.2202176805e+00	 1.4321457249e+00	-1.9795794785e+00
 1.2025822712e+00	 1.4469859869e+00	-1.9906688562e+00
 1.2940462901e+00	 1.3759888930e+00	-1.9044720104e+00
 1.2770675930e+00	 1.3917613292e+00	-1.9218745994e+00
 1.2599012181e+00	 1.4073202035e+00	-1.9413134645e+00
 1.2425512092e+00	 1.4226621971e+00	-1.9595222390e+00
 1.2250216872e+00	 1.4377840939e+00	-1.9745437362e+00
 1.2073168470e+00	 1.4526827821e+00	-1.9860033497e+00
 1.1836439677e+00	 1.4241988060e+00	-2.0074194854e+00
 1.1661185831e+00	 1.4385835851e+00	-2.0084937200e+00
 1.1484297486e+00	 1.4527437467e+00	-2.0046308021e+00
 1.1305817754e+00	 1.4666765595e+00	-1.9996631435e+00
 1.1125790338e+00	 1.4803794023e+00	-1.9992206088e+00
 1.0944259499e+00	 1.4938497654e+00	-1.9995593179e+00
 1.1883785436e+00	 1.4298956012e+00	-2.0035332992e+00
 1.1707830574e+00	 1.4443379195e+00	-2.0049324417e+00
 1.1530234676e+00	 1.4585547217e+00	-2.0002815708e+00
 1.1351041025e+00	 1.4725432658e+00	-1.9942642342e+00
 1.1170293499e+00	 1.4863009199e+00	-1.9929241033e+00
 1.0988036537e+00	 1.4998251644e+00	-1.9922828584e+00
 1.1931131194e+00	 1.4355923964e+00	-1.9994457220e+00
 1.1754475317e+00	 1.4500922538e+00	-2.0013494757e+00
 1.1576171866e+00	 1.4643656967e+00	-1.9962700511e+00
 1.1396264296e+00	 1.4784099720e+00	-1.9896443612e+00
 1.1214796660e+00	 1.4922224375e+00	-1.9865674811e+00
 1.1031813575e+00	 1.5058005635e+00	-1.9844448812e+00
 1.1978476953e+00	 1.4412891917e+00	-1.9951550948e+00
 1.1801120061e+00	 1.4558465882e+00	-1.9976749336e+00
 1.1622109056e+00	 1.4701766717e+00	-1.9924646220e+00
 1.1441487567e+00	 1.4842766783e+00	-1.9855433959e+00
 1.1259299822e+00	 1.4981439552e+00	-1.9803312888e+00
 1.1075590613e+00	 1.5117759625e+00	-1.9762575940e+00
 1.2025822712e+00	 1.4469859869e+00	-1.9906688562e+00
 1.1847764804e+00	 1.4616009225e+00	-1.9938493491e+00
 1.1668046246e+00	 1.4759876467e+00	-1.9887452518e+00
 1.1486710838e+00	 1.4901433845e+00	-1.9814361939e+00
 1.1303802983e+00	 1.5040654728e+00	-1.9744192106e+00
 1.1119367651e+00	 1.5177513616e+00	-1.9679461062e+00
 1.2073168470e+00	 1.4526827821e+00	-1.9860033497e+00
 1.1894409547e+00	 1.4673552568e+00	-1.9898234851e+00
 1.1713983436e+00	 1.4817986217e+00	-1.9850033695e+00
 1.1531934109e+00	 1.4960100907e+00	-1.9774259340e+00
 1.1348306144e+00	 1.5099869904e+00	-1.9690287124e+00
 1.1163144689e+00	 1.5237267607e+00	-1.9602485020e+00
 1.0944259499e+00	 1.4938497654e+00	-1.9995593179e+00
 1.0761270021e+00	 1.5070852519e+00	-1.9870248356e+00
 1.0576867174e+00	 1.5200835796e+00	-1.9634149318e+00
 1.0391096681e+00	 1.5328425813e+00	-1.9352656405e+00
 1.0204004674e+00	 1.5453602063e+00	-1.9079113606e+00
 1.0015637668e+00	 1.5576345214e+00	-1.8855773607e+00
 1.0988036537e+00	 1.4998251644e+00	-1.9922828584e+00
 1.0804315101e+00	 1.5131135930e+00	-1.9793261262e+00
 1.0619174643e+00	 1.5261639139e+00	-1.9560374484e+00
 1.0432661067e+00	 1.5389739516e+00	-1.9285168000e+00
 1.0244820693e+00	 1.5515416471e+00	-1.9016383060e+00
 1.0055700219e+00	 1.5638650595e+00	-1.8791465149e+00
 1.1031813575e+00	 1.5058005635e+00	-1.9844448812e+00
 1.0847360181e+00	 1.5191419340e+00	-1.9713757081e+00
 1.0661482112e+00	 1.5322442482e+00	-1.9484826401e+00
 1.0474225454e+00	 1.5451053219e+00	-1.9215117498e+00
 1.0285636712e+00	 1.5577230880e+00	-1.8949593362e+00
 1.0095762769e+00	 1.5700955976e+00	-1.8721718457e+00
 1.1075590613e+00	 1.5117759625e+00	-1.9762575940e+00
 1.0890405261e+00	 1.5251702750e+00	-1.9633786320e+00
 1.0703789580e+00	 1.5383245826e+00	-1.9409555277e+00
 1.0515789841e+00	 1.5512366923e+00	-1.9144615218e+00
 1.0326452730e+00	 1.5639045288e+00	-1.8880964473e+00
 1.0135825320e+00	 1.5763261356e+00	-1.8648901791e+00
 1.1119367651e+00	 1.5177513616e+00	-1.9679461062e+00
 1.0933450341e+00	 1.5311986160e+00	-1.9555385854e+00
 1.0746097049e+00	 1.5444049169e+00	-1.9336599219e+00
 1.0557354227e+00	 1.5573680626e+00	-1.9075760070e+00
 1.0367268749e+00	 1.5700859696e+00	-1.8812704935e+00
 1.0175887871e+00	 1.5825566737e+00	-1.8575371408e+00
 1.1163144689e+00	 1.5237267607e+00	-1.9602485020e+00
 1.0976495421e+00	 1.5372269570e+00	-1.9480577262e+00
 1.0788404518e+00	 1.5504852512e+00	-1.9267982653e+00
 1.0598918614e+00	 1.5634994329e+00	-1.9010638081e+00
 1.0408084768e+00	 1.5762674104e+00	-1.8747010509e+00
 1.0215950421e+00	 1.5887872118e+00	-1.8503470333e+00
 1.0015637668e+00	 1.5576345214e+00	-1.8855773607e+00
 9.8260425149e-01	 1.5696637112e+00	-1.8614335742e+00
 9.6352663712e-01	 1.5814460790e+00	-1.8282732382e+00
 9.4433566603e-01	 1.5929800473e+00	-1.7884670906e+00
 9.2503610350e-01	 1.6042641579e+00	-1.7437733587e+00
 9.0563273409e-01	 1.6152970724e+00	-1.6954271367e+00
 1.0055700219e+00	 1.5638650595e+00	-1.8791465149e+00
 9.8653466849e-01	 1.5759423660e+00	-1.8542330827e+00
 9.6738074367e-01	 1.5877718633e+00	-1.8201774042e+00
 9.4811300869e-01	 1.5993519675e+00	-1.7795468801e+00
 9.2873624791e-01	 1.6106812146e+00	-1.7342896471e+00
 9.0925526503e-01	 1.6217582607e+00	-1.6858257236e+00
 1.0095762769e+00	 1.5700955976e+00	-1.8721718457e+00
 9.9046508550e-01	 1.5822210209e+00	-1.8464432094e+00
 9.7123485021e-01	 1.5940976476e+00	-1.8115384752e+00
 9.5189035135e-01	 1.6057238877e+00	-1.7701821029e+00
 9.3243639233e-01	 1.6170982712e+00	-1.7244717306e+00
 9.1287779597e-01	 1.6282194490e+00	-1.6759712313e+00
 1.0135825320e+00	 1.5763261356e+00	-1.8648901791e+00
 9.9439550250e-01	 1.5884996757e+00	-1.8383130485e+00
 9.7508895676e-01	 1.6004234319e+00	-1.8026097978e+00
 9.5566769402e-01	 1.6120958079e+00	-1.7606227247e+00
 9.3613653674e-01	 1.6235153278e+00	-1.7145589549e+00
 9.1650032690e-01	 1.6346806373e+00	-1.6660855544e+00
 1.0175887871e+00	 1.5825566737e+00	-1.8575371408e+00
 9.9832591951e-01	 1.5947783305e+00	-1.8300904770e+00
 9.7894306331e-01	 1.6067492163e+00	-1.7936436073e+00
 9.5944503668e-01	 1.6184677281e+00	-1.7511178185e+00
 9.3983668115e-01	 1.6299323845e+00	-1.7047900973e+00
 9.2012285784e-01	 1.6411418256e+00	-1.6563904381e+00
 1.0215950421e+00	 1.5887872118e+00	-1.8503470333e+00
 1.0022563365e+00	 1.6010569854e+00	-1.8220220424e+00
 9.8279716986e-01	 1.6130750006e+00	-1.7848909239e+00
 9.6322237935e-01	 1.6248396482e+00	-1.7419154691e+00
 9.4353682557e-01	 1.6363494411e+00	-1.6954032744e+00
 9.2374538878e-01	 1.6476030139e+00	-1.6471073884e+00
 9.0563273409e-01	 1.6152970724e+00	-1.6954271367e+00
 8.8613035797e-01	 1.6260775719e+00	-1.6474662197e+00
 8.6653378722e-01	 1.6366045573e+00	-1.6025334161e+00
 8.4684784222e-01	 1.6468770486e+00	-1.5591704344e+00
 8.2707734804e-01	 1.6568941854e+00	-1.5156336629e+00
 8.0722713086e-01	 1.6666552254e+00	-1.4699680851e+00
 9.0925526503e-01	 1.6217582607e+00	-1.6858257236e+00
 8.8967487940e-01	 1.6325818822e+00	-1.6379795768e+00
 8.6999992237e-01	 1.6431509755e+00	-1.5930109995e+00
 8.5023523359e-01	 1.6534645568e+00	-1.5493870379e+00
 8.3038565743e-01	 1.6635217621e+00	-1.5052877491e+00
 8.1045603939e-01	 1.6733218463e+00	-1.4586817465e+00
 9.1287779597e-01	 1.6282194490e+00	-1.6759712313e+00
 8.9321940084e-01	 1.6390861925e+00	-1.6282481797e+00
 8.7346605752e-01	 1.6496973937e+00	-1.5831863297e+00
 8.5362262496e-01	 1.6600520650e+00	-1.5392132359e+00
 8.3369396683e-01	 1.6701493389e+00	-1.4944688696e+00
 8.1368494791e-01	 1.6799884672e+00	-1.4468827314e+00
 9.1650032690e-01	 1.6346806373e+00	-1.6660855544e+00
 8.9676392227e-01	 1.6455905028e+00	-1.6184770238e+00
 8.7693219267e-01	 1.6562438119e+00	-1.5732548350e+00
 8.5701001633e-01	 1.6666395732e+00	-1.5288417365e+00
 8.3700227622e-01	 1.6767769156e+00	-1.4833733786e+00
 8.1691385643e-01	 1.6866550881e+00	-1.4347769302e+00
 9.2012285784e-01	 1.6411418256e+00	-1.6563904381e+00
 9.0030844370e-01	 1.6520948131e+00	-1.6088713507e+00
 8.8039832782e-01	 1.6627902302e+00	-1.5634124522e+00
 8.6039740770e-01	 1.6732270814e+00	-1.5184658918e+00
 8.4031058561e-01	 1.6834044924e+00	-1.4721982886e+00
 8.2014276496e-01	 1.6933217090e+00	-1.4225707908e+00
 9.2374538878e-01	 1.6476030139e+00	-1.6471073884e+00
 9.0385296513e-01	 1.6585991234e+00	-1.5996365603e+00
 8.8386446296e-01	 1.6693366484e+00	-1.5538555439e+00
 8.6378479907e-01	 1.6798145896e+00	-1.5082796220e+00
 8.4361889500e-01	 1.6900320691e+00	-1.4611412028e+00
 8.2337167348e-01	 1.6999883299e+00	-1.4104712611e+00
 8.0722713086e-01	 1.6666552254e+00	-1.4699680851e+00
 7.8730201443e-01	 1.6761595447e+00	-1.4172250710e+00
 7.6730681656e-01	 1.6854066365e+00	-1.3571919127e+00
 7.4724634573e-01	 1.6943961107e+00	-1.2950159054e+00
 7.2712539762e-01	 1.7031276926e+00	-1.2370136060e+00
 7.0694875183e-01	 1.7116012221e+00	-1.1883079800e+00
 8.1045603939e-01	 1.6733218463e+00	-1.4586817465e+00
 7.9045122249e-01	 1.6828641829e+00	-1.4053177059e+00
 7.7037604383e-01	 1.6921482631e+00	-1.3454467007e+00
 7.5023533111e-01	 1.7011736952e+00	-1.2837929396e+00
 7.3003389921e-01	 1.7099402034e+00	-1.2259208641e+00
 7.0977654684e-01	 1.7184476270e+00	-1.1775295314e+00
 8.1368494791e-01	 1.6799884672e+00	-1.4468827314e+00
 7.9360043054e-01	 1.6895688211e+00	-1.3929137905e+00
 7.7344527110e-01	 1.6988898896e+00	-1.3332544782e+00
 7.5322431649e-01	 1.7079512796e+00	-1.2721907068e+00
 7.3294240080e-01	 1.7167527142e+00	-1.2145691850e+00
 7.1260434185e-01	 1.7252940319e+00	-1.1664053113e+00
 8.1691385643e-01	 1.6866550881e+00	-1.4347769302e+00
 7.9674963860e-01	 1.6962734592e+00	-1.3802292501e+00
 7.7651449836e-01	 1.7056315162e+00	-1.3208367598e+00
 7.5621330188e-01	 1.7147288640e+00	-1.2604320771e+00
 7.3585090239e-01	 1.7235652249e+00	-1.2031972548e+00
 7.1543213685e-01	 1.7321404368e+00	-1.1551635487e+00
 8.2014276496e-01	 1.6933217090e+00	-1.4225707908e+00
 7.9989884666e-01	 1.7029780974e+00	-1.3674804348e+00
 7.7958372563e-01	 1.7123731427e+00	-1.3084153987e+00
 7.5920228726e-01	 1.7215064485e+00	-1.2487402144e+00
 7.3875940398e-01	 1.7303777357e+00	-1.1920450563e+00
 7.1825993186e-01	 1.7389868417e+00	-1.1440348467e+00
 8.2337167348e-01	 1.6999883299e+00	-1.4104712611e+00
 8.0304805472e-01	 1.7096827356e+00	-1.3548840726e+00
 7.8265295290e-01	 1.7191147693e+00	-1.2962125479e+00
 7.6219127264e-01	 1.7282840329e+00	-1.2373385453e+00
 7.4166790557e-01	 1.7371902465e+00	-1.1813471771e+00
 7.2108772687e-01	 1.7458332465e+00	-1.1332518036e+00
 7.0694875183e-01	 1.7116012221e+00	-1.1883079800e+00
 6.8672116861e-01	 1.7198166524e+00	-1.1438283015e+00
 6.6644738560e-01	 1.7277740487e+00	-1.0979254983e+00
 6.4613211474e-01	 1.7354735871e+00	-1.0490106991e+00
 6.2578003921e-01	 1.7429155527e+00	-9.9611469997e-01
 6.0539581038e-01	 1.7501003383e+00	-9.3891041067e-01
 7.0977654684e-01	 1.7184476270e+00	-1.1775295314e+00
 6.8946805328e-01	 1.7266959190e+00	-1.1332830658e+00
 6.6911317514e-01	 1.7346851449e+00	-1.0872155181e+00
 6.4871664320e-01	 1.7424154814e+00	-1.0379385309e+00
 6.2828315936e-01	 1.7498872149e+00	-9.8471881112e-01
 6.0781739362e-01	 1.7571007396e+00	-9.2749978392e-01
 7.1260434185e-01	 1.7252940319e+00	-1.1664053113e+00
 6.9221493795e-01	 1.7335751856e+00	-1.1223161336e+00
 6.7177896468e-01	 1.7415962411e+00	-1.0760466045e+00
 6.5130117166e-01	 1.7493573758e+00	-1.0264082490e+00
 6.3078627952e-01	 1.7568588771e+00	-9.7290337015e-01
 6.1023897686e-01	 1.7641011410e+00	-9.1574592819e-01
 7.1543213685e-01	 1.7321404368e+00	-1.1551635487e+00
 6.9496182263e-01	 1.7404544522e+00	-1.1111367544e+00
 6.7444475422e-01	 1.7485073373e+00	-1.0645977282e+00
 6.5388570012e-01	 1.7562992701e+00	-1.0145572900e+00
 6.3328939968e-01	 1.7638305393e+00	-9.6075311739e-01
 6.1266056010e-01	 1.7711015423e+00	-9.0366986476e-01
 7.1825993186e-01	 1.7389868417e+00	-1.1440348467e+00
 6.9770870730e-01	 1.7473337188e+00	-1.0999576519e+00
 6.7711054376e-01	 1.7554184335e+00	-1.0530524942e+00
 6.5647022858e-01	 1.7632411645e+00	-1.0025289421e+00
 6.3579251983e-01	 1.7708022015e+00	-9.4835991376e-01
 6.1508214334e-01	 1.7781019437e+00	-8.9130105307e-01
 7.2108772687e-01	 1.7458332465e+00	-1.1332518036e+00
 7.0045559198e-01	 1.7542129854e+00	-1.0889946680e+00
 6.7977633331e-01	 1.7623295297e+00	-1.0415988071e+00
 6.5905475704e-01	 1.7701830588e+00	-9.9047202674e-01
 6.3829563999e-01	 1.7777738637e+00	-9.3582243609e-01
 6.1750372658e-01	 1.7851023450e+00	-8.7867709633e-01
 6.0539581038e-01	 1.7501003383e+00	-9.3891041067e-01
 5.8498404496e-01	 1.7570284427e+00	-8.8318259296e-01
 5.6454932217e-01	 1.7637004689e+00	-8.3245978021e-01
 5.4409618095e-01	 1.7701171224e+00	-7.8397606881e-01
 5.2362911734e-01	 1.7762792091e+00	-7.3555029486e-01
 5.0315258192e-01	 1.7821876334e+00	-6.8554142558e-01
 6.0781739362e-01	 1.7571007396e+00	-9.2749978392e-01
 5.8732398114e-01	 1.7640565564e+00	-8.7212120867e-01
 5.6680751946e-01	 1.7707552708e+00	-8.2187274907e-01
 5.4627256567e-01	 1.7771975909e+00	-7.7386330783e-01
 5.2572363381e-01	 1.7833843259e+00	-7.2581160197e-01
 5.0516519225e-01	 1.7893163839e+00	-6.7599936787e-01
 6.1023897686e-01	 1.7641011410e+00	-9.1574592819e-01
 5.8966391732e-01	 1.7710846702e+00	-8.6080946295e-01
 5.6906571675e-01	 1.7778100727e+00	-8.1113274988e-01
 5.4844895039e-01	 1.7842780594e+00	-7.6371694696e-01
 5.2781815028e-01	 1.7904894428e+00	-7.1620248614e-01
 5.0717780258e-01	 1.7964451344e+00	-6.6681992887e-01
 6.1266056010e-01	 1.7711015423e+00	-9.0366986476e-01
 5.9200385350e-01	 1.7781127840e+00	-8.4920998787e-01
 5.7132391404e-01	 1.7848648745e+00	-8.0016560039e-01
 5.5062533512e-01	 1.7913585279e+00	-7.5344758715e-01
 5.2991266675e-01	 1.7975945596e+00	-7.0663996291e-01
 5.0919041290e-01	 1.8035738850e+00	-6.5794821472e-01
 6.1508214334e-01	 1.7781019437e+00	-8.9130105307e-01
 5.9434378968e-01	 1.7851408978e+00	-8.3729496191e-01
 5.7358211133e-01	 1.7919196764e+00	-7.8890730882e-01
 5.5280171984e-01	 1.7984389964e+00	-7.4297620132e-01
 5.3200718322e-01	 1.8046996764e+00	-6.9705114154e-01
 5.1120302323e-01	 1.8107026355e+00	-6.4933869075e-01
 6.1750372658e-01	 1.7851023450e+00	-8.7867709633e-01
 5.9668372586e-01	 1.7921690115e+00	-8.2504582753e-01
 5.7584030861e-01	 1.7989744783e+00	-7.7730380988e-01
 5.5497810457e-01	 1.8055194649e+00	-7.3223389542e-01
 5.3410169969e-01	 1.8118047933e+00	-6.8737301739e-01
 5.1321563356e-01	 1.8178313860e+00	-6.4095501161e-01
 5.0315258192e-01	 1.7821876334e+00	-6.8554142558e-01
 4.8267097732e-01	 1.7878433961e+00	-6.3496498798e-01
 4.6218865585e-01	 1.7932475924e+00	-5.8635724640e-01
 4.4170991719e-01	 1.7984014097e+00	-5.4094461240e-01
 4.2123900626e-01	 1.8033061251e+00	-5.0016997414e-01
 4.0078011105e-01	 1.8079631035e+00	-4.6560212249e-01
 5.0516519225e-01	 1.7893163839e+00	-6.7599936787e-01
 4.8460166123e-01	 1.7949947697e+00	-6.2536749697e-01
 4.6403741047e-01	 1.8004205828e+00	-5.7651032159e-01
 4.4347675686e-01	 1.8055950153e+00	-5.3080641584e-01
 4.2292396228e-01	 1.8105193496e+00	-4.8986710125e-01
 4.0238323150e-01	 1.8151949560e+00	-4.5544153338e-01
 5.0717780258e-01	 1.7964451344e+00	-6.6681992887e-01
 4.8653234514e-01	 1.8021461432e+00	-6.1646526192e-01
 4.6588616509e-01	 1.8075935731e+00	-5.6774732801e-01
 4.4524359653e-01	 1.8127886209e+00	-5.2211400347e-01
 4.2460891831e-01	 1.8177325741e+00	-4.8125959538e-01
 4.0398635194e-01	 1.8224268084e+00	-4.4702575547e-01
 5.0919041290e-01	 1.8035738850e+00	-6.5794821472e-01
 4.8846302905e-01	 1.8092975168e+00	-6.0822301485e-01
 4.6773491972e-01	 1.8147665635e+00	-5.6001504731e-01
 4.4701043620e-01	 1.8199822266e+00	-5.1476026652e-01
 4.2629387433e-01	 1.8249457986e+00	-4.7415220409e-01
 4.0558947239e-01	 1.8296586608e+00	-4.4003887260e-01
 5.1120302323e-01	 1.8107026355e+00	-6.4933869075e-01
 4.9039371296e-01	 1.8164488904e+00	-6.0061413617e-01
 4.6958367434e-01	 1.8219395539e+00	-5.5326868735e-01
 4.4877727587e-01	 1.8271758322e+00	-5.0864677046e-01
 4.2797883036e-01	 1.8321590231e+00	-4.6835904914e-01
 4.0719259283e-01	 1.8368905132e+00	-4.3417547646e-01
 5.1321563356e-01	 1.8178313860e+00	-6.4095501161e-01
 4.9232439687e-01	 1.8236002640e+00	-5.9362051963e-01
 4.7143242896e-01	 1.8291125442e+00	-5.4747176979e-01
 4.5054411554e-01	 1.8343694379e+00	-5.0368365352e-01
 4.2966378639e-01	 1.8393722476e+00	-4.6370352460e-01
 4.0879571328e-01	 1.8441223656e+00	-4.2914055344e-01
 4.0078011105e-01	 1.8079631035e+00	-4.6560212249e-01
 3.8033736070e-01	 1.8123737951e+00	-4.3292930520e-01
 3.5991482357e-01	 1.8165397328e+00	-3.8850806979e-01
 3.3951650543e-01	 1.8204625302e+00	-3.4908333954e-01
 3.1914634782e-01	 1.8241438786e+00	-3.1677745842e-01
 2.9880822641e-01	 1.8275855452e+00	-2.8882651621e-01
 4.0238323150e-01	 1.8151949560e+00	-4.5544153338e-01
 3.8185871015e-01	 1.8196232903e+00	-4.2378941723e-01
 3.6135448286e-01	 1.8238058918e+00	-3.8070327988e-01
 3.4087457145e-01	 1.8277443803e+00	-3.4102534451e-01
 3.2042293321e-01	 1.8314404541e+00	-3.0820863122e-01
 3.0000345931e-01	 1.8348958874e+00	-2.7978768692e-01
 4.0398635194e-01	 1.8224268084e+00	-4.4702575547e-01
 3.8338005959e-01	 1.8268727855e+00	-4.1616174682e-01
 3.6279414216e-01	 1.8310720507e+00	-3.7439003273e-01
 3.4223263747e-01	 1.8350262304e+00	-3.3462761738e-01
 3.2169951860e-01	 1.8387370296e+00	-3.0182297286e-01
 3.0119869222e-01	 1.8422062296e+00	-2.7399661307e-01
 4.0558947239e-01	 1.8296586608e+00	-4.4003887260e-01
 3.8490140903e-01	 1.8341222807e+00	-4.0961290343e-01
 3.6423380145e-01	 1.8383382096e+00	-3.6900650220e-01
 3.4359070349e-01	 1.8423080805e+00	-3.2927588673e-01
 3.2297610399e-01	 1.8460336052e+00	-2.9700101098e-01
 3.0239392512e-01	 1.8495165717e+00	-2.7087238133e-01
 4.0719259283e-01	 1.8368905132e+00	-4.3417547646e-01
 3.8642275848e-01	 1.8413717758e+00	-4.0372101931e-01
 3.6567346074e-01	 1.8456043686e+00	-3.6400484290e-01
 3.4494876952e-01	 1.8495899307e+00	-3.2436676374e-01
 3.2425268938e-01	 1.8533301807e+00	-2.9306432092e-01
 3.0358915803e-01	 1.8568269139e+00	-2.6838508023e-01
 4.0879571328e-01	 1.8441223656e+00	-4.2914055344e-01
 3.8794410792e-01	 1.8486212710e+00	-3.9807562509e-01
 3.6711312004e-01	 1.8528705275e+00	-3.5887482847e-01
 3.4630683554e-01	 1.8568717808e+00	-3.1926271005e-01
 3.2552927477e-01	 1.8606267562e+00	-2.8742888285e-01
 3.0478439093e-01	 1.8641372561e+00	-2.6178708309e-01
 2.9880822641e-01	 1.8275855452e+00	-2.8882651621e-01
 2.7850594952e-01	 1.8307893700e+00	-2.6225388163e-01
 2.5824325675e-01	 1.8337572635e+00	-2.3747043764e-01
 2.3802381764e-01	 1.8364912043e+00	-2.1548377166e-01
 2.1785123052e-01	 1.8389932361e+00	-1.9657513586e-01
 1.9772902137e-01	 1.8412654657e+00	-1.8045526901e-01
 3.0000345931e-01	 1.8348958874e+00	-2.7978768692e-01
 2.7961997332e-01	 1.8381125275e+00	-2.5285190990e-01
 2.5927622977e-01	 1.8410922926e+00	-2.2792006912e-01
 2.3897591291e-01	 1.8438371691e+00	-2.0618588765e-01
 2.1872263544e-01	 1.8463492091e+00	-1.8802997305e-01
 1.9851993746e-01	 1.8486305276e+00	-1.7318893266e-01
 3.0119869222e-01	 1.8422062296e+00	-2.7399661307e-01
 2.8073399712e-01	 1.8454356850e+00	-2.4848231698e-01
 2.6030920280e-01	 1.8484273216e+00	-2.2586640346e-01
 2.3992800818e-01	 1.8511831339e+00	-2.0738168253e-01
 2.1959404036e-01	 1.8537051820e+00	-1.9273412808e-01
 1.9931085354e-01	 1.8559955895e+00	-1.7979570585e-01
 3.0239392512e-01	 1.8495165717e+00	-2.7087238133e-01
 2.8184802091e-01	 1.8527588424e+00	-2.4854828649e-01
 2.6134217583e-01	 1.8557623507e+00	-2.2900630035e-01
 2.4088010345e-01	 1.8585290987e+00	-2.1196391090e-01
 2.2046544528e-01	 1.8610611550e+00	-1.9694425511e-01
 2.0010176963e-01	 1.8633606513e+00	-1.8314453836e-01
 3.0358915803e-01	 1.8568269139e+00	-2.6838508023e-01
 2.8296204471e-01	 1.8600819999e+00	-2.4678290199e-01
 2.6237514886e-01	 1.8630973797e+00	-2.2743997678e-01
 2.4183219872e-01	 1.8658750636e+00	-2.1042496428e-01
 2.2133685020e-01	 1.8684171279e+00	-1.9526891630e-01
 2.0089268571e-01	 1.8707257132e+00	-1.8116532127e-01
 3.0478439093e-01	 1.8641372561e+00	-2.6178708309e-01
 2.8407606851e-01	 1.8674051574e+00	-2.3954024269e-01
 2.6340812188e-01	 1.8704324088e+00	-2.1990294465e-01
 2.4278429399e-01	 1.8732210284e+00	-2.0286293358e-01
 2.2220825513e-01	 1.8757731009e+00	-1.8785939670e-01
 2.0168360180e-01	 1.8780907751e+00	-1.7398266683e-01
 1.9772902137e-01	 1.8412654657e+00	-1.8045526901e-01
 1.7766064287e-01	 1.8433100600e+00	-1.6504888820e-01
 1.5764947343e-01	 1.8451292434e+00	-1.4969683496e-01
 1.3769881643e-01	 1.8467252955e+00	-1.3591802925e-01
 1.1781189950e-01	 1.8481005485e+00	-1.2540304068e-01
 9.7991873861e-02	 1.8492573844e+00	-1.2021459585e-01
 1.9851993746e-01	 1.8486305276e+00	-1.7318893266e-01
 1.7837128544e-01	 1.8506833002e+00	-1.5960960181e-01
 1.5828007132e-01	 1.8525097603e+00	-1.4650249811e-01
 1.3824961170e-01	 1.8541121967e+00	-1.3416311736e-01
 1.1828314710e-01	 1.8554929507e+00	-1.2414226690e-01
 9.8383841356e-02	 1.8566544140e+00	-1.1882676349e-01
 1.9931085354e-01	 1.8559955895e+00	-1.7979570585e-01
 1.7908192801e-01	 1.8580565404e+00	-1.6618925111e-01
 1.5891066921e-01	 1.8598902773e+00	-1.5132483802e-01
 1.3880040697e-01	 1.8614990979e+00	-1.3692687356e-01
 1.1875439470e-01	 1.8628853529e+00	-1.2506397670e-01
 9.8775808852e-02	 1.8640514435e+00	-1.1829465689e-01
 2.0010176963e-01	 1.8633606513e+00	-1.8314453836e-01
 1.7979257058e-01	 1.8654297807e+00	-1.6839082254e-01
 1.5954126711e-01	 1.8672707943e+00	-1.5228320964e-01
 1.3935120223e-01	 1.8688859991e+00	-1.3670282293e-01
 1.1922564230e-01	 1.8702777551e+00	-1.2385635318e-01
 9.9167776347e-02	 1.8714484730e+00	-1.1642062205e-01
 2.0089268571e-01	 1.8707257132e+00	-1.8116532127e-01
 1.8050321315e-01	 1.8728030209e+00	-1.6597965799e-01
 1.6017186500e-01	 1.8746513113e+00	-1.4943664810e-01
 1.3990199750e-01	 1.8762729003e+00	-1.3351984903e-01
 1.1969688990e-01	 1.8776701573e+00	-1.2052071069e-01
 9.9559743842e-02	 1.8788455026e+00	-1.1318199638e-01
 2.0168360180e-01	 1.8780907751e+00	-1.7398266683e-01
 1.8121385572e-01	 1.8801762612e+00	-1.5904816838e-01
 1.6080246289e-01	 1.8820318282e+00	-1.4284584690e-01
 1.4045279276e-01	 1.8836598014e+00	-1.2740842510e-01
 1.2016813749e-01	 1.8850625595e+00	-1.1505981120e-01
 9.9951711338e-02	 1.8862425321e+00	-1.0855734643e-01
 9.7991873861e-02	 1.8492573844e+00	-1.2021459585e-01
 7.8241813798e-02	 1.8501982326e+00	-1.1744955883e-01
 5.8564716233e-02	 1.8509255672e+00	-1.1270336332e-01
 3.8963500342e-02	 1.8514419048e+00	-1.0695102645e-01
 1.9441007284e-02	 1.8517498018e+00	-1.0232058295e-01
 0.0000000000e+00	 1.8518518519e+00	-1.0224088554e-01
 9.8383841356e-02	 1.8566544140e+00	-1.1882676349e-01
 7.8554781053e-02	 1.8575990255e+00	-1.1560103495e-01
 5.8798975097e-02	 1.8583292694e+00	-1.1012754371e-01
 3.9119354343e-02	 1.8588476724e+00	-1.0341781199e-01
 1.9518771313e-02	 1.8591568010e+00	-9.7569654005e-02
 0.0000000000e+00	 1.8592592593e+00	-9.5886056009e-02
 9.8775808852e-02	 1.8640514435e+00	-1.1829465689e-01
 7.8867748308e-02	 1.8649998184e+00	-1.1402304473e-01
 5.9033233962e-02	 1.8657329717e+00	-1.0770400158e-01
 3.9275208345e-02	 1.8662534400e+00	-1.0014613102e-01
 1.9596535342e-02	 1.8665638002e+00	-9.3220896988e-02
 0.0000000000e+00	 1.8666666667e+00	-8.9981459222e-02
 9.9167776347e-02	 1.8714484730e+00	-1.1642062205e-01
 7.9180715563e-02	 1.8724006114e+00	-1.1175307860e-01
 5.9267492827e-02	 1.8731366740e+00	-1.0507539898e-01
 3.9431062346e-02	 1.8736592077e+00	-9.7001422525e-02
 1.9674299371e-02	 1.8739707994e+00	-8.9183859113e-02
 0.0000000000e+00	 1.8740740741e+00	-8.4432987951e-02
 9.9559743842e-02	 1.8788455026e+00	-1.1318199638e-01
 7.9493682818e-02	 1.8798014043e+00	-1.0874793112e-01
 5.9501751692e-02	 1.8805403762e+00	-1.0218078605e-01
 3.9586916347e-02	 1.8810649753e+00	-9.3908075586e-02
 1.9752063400e-02	 1.8813777986e+00	-8.5371631273e-02
 0.0000000000e+00	 1.8814814815e+00	-7.9146069341e-02
 9.9951711338e-02	 1.8862425321e+00	-1.0855734643e-01
 7.9806650074e-02	 1.8872021972e+00	-1.0496534684e-01
 5.9736010557e-02	 1.8879440785e+00	-9.8959846088e-02
 3.9742770349e-02	 1.8884707429e+00	-9.0790766687e-02
 1.9829827429e-02	 1.8887847978e+00	-8.1697225695e-02
 0.0000000000e+00	 1.8888888889e+00	-7.4025674032e-02
 1.8888888889e+00	 0.0000000000e+00	 3.0449391515e+00
 1.8887847978e+00	 1.9829827429e-02	 3.0445208683e+00
 1.8884707429e+00	 3.9742770349e-02	 3.0378631787e+00
 1.8879440785e+00	 5.9736010557e-02	 3.0257969418e+00
 1.8872021972e+00	 7.9806650074e-02	 3.0099790678e+00
 1.8862425321e+00	 9.9951711338e-02	 2.9927684648e+00
 1.8962962963e+00	 0.0000000000e+00	 3.0302933641e+00
 1.8961917970e+00	 1.9907591459e-02	 3.0294020680e+00
 1.8958765105e+00	 3.9898624350e-02	 3.0220643227e+00
 1.8953477808e+00	 5.9970269422e-02	 3.0091946071e+00
 1.8946029901e+00	 8.0119617329e-02	 2.9925220030e+00
 1.8936395617e+00	 1.0034367883e-01	 2.9744671831e+00
 1.9037037037e+00	 0.0000000000e+00	 3.0160728897e+00
 1.9035987962e+00	 1.9985355488e-02	 3.0144771353e+00
 1.9032822781e+00	 4.0054478352e-02	 3.0063845358e+00
 1.9027514831e+00	 6.0204528287e-02	 2.9927610239e+00
 1.9020037831e+00	 8.0432584584e-02	 2.9753740744e+00
 1.9010365912e+00	 1.0073564633e-01	 2.9566708554e+00
 1.9111111111e+00	 0.0000000000e+00	 3.0022667575e+00
 1.9110057955e+00	 2.0063119517e-02	 2.9997435403e+00
 1.9106880458e+00	 4.0210332353e-02	 2.9908286700e+00
 1.9101551853e+00	 6.0438787152e-02	 2.9765073846e+00
 1.9094045760e+00	 8.0745551839e-02	 2.9585517849e+00
 1.9084336207e+00	 1.0112761382e-01	 2.9394002710e+00
 1.9185185185e+00	 0.0000000000e+00	 2.9888647042e+00
 1.9184127947e+00	 2.0140883546e-02	 2.9851992369e+00
 1.9180938134e+00	 4.0366186354e-02	 2.9754019364e+00
 1.9175588876e+00	 6.0673046017e-02	 2.9604452037e+00
 1.9168053689e+00	 8.1058519094e-02	 2.9420719967e+00
 1.9158306503e+00	 1.0151958132e-01	 2.9226766777e+00
 1.9259259259e+00	 0.0000000000e+00	 2.9758571613e+00
 1.9258197939e+00	 2.0218647575e-02	 2.9708426527e+00
 1.9254995810e+00	 4.0522040356e-02	 2.9601098976e+00
 1.9249625899e+00	 6.0907304882e-02	 2.9445863106e+00
 1.9242061619e+00	 8.1371486350e-02	 2.9259519243e+00
 1.9232276798e+00	 1.0191154882e-01	 2.9065217737e+00
 1.8862425321e+00	 9.9951711338e-02	 2.9927684648e+00
 1.8850625595e+00	 1.2016813749e-01	 2.9754971948e+00
 1.8836598014e+00	 1.4045279276e-01	 2.9565633237e+00
 1.8820318282e+00	 1.6080246289e-01	 2.9345325375e+00
 1.8801762612e+00	 1.8121385572e-01	 2.9080624718e+00
 1.8780907751e+00	 2.0168360180e-01	 2.8757436631e+00
 1.8936395617e+00	 1.0034367883e-01	 2.9744671831e+00
 1.8924549617e+00	 1.2063938509e-01	 2.9565265912e+00
 1.8910467026e+00	 1.4100358803e-01	 2.9371950531e+00
 1.8894123452e+00	 1.6143306079e-01	 2.9149875781e+00
 1.8875495014e+00	 1.8192449829e-01	 2.8885073033e+00
 1.8854558369e+00	 2.0247451788e-01	 2.8562881946e+00
 1.9010365912e+00	 1.0073564633e-01	 2.9566708554e+00
 1.8998473639e+00	 1.2111063269e-01	 2.9382897011e+00
 1.8984336038e+00	 1.4155438329e-01	 2.9188091414e+00
 1.8967928622e+00	 1.6206365868e-01	 2.8966712782e+00
 1.8949227416e+00	 1.8263514087e-01	 2.8704025461e+00
 1.8928208988e+00	 2.0326543397e-01	 2.8384583254e+00
 1.9084336207e+00	 1.0112761382e-01	 2.9394002710e+00
 1.9072397661e+00	 1.2158188029e-01	 2.9208134534e+00
 1.9058205050e+00	 1.4210517856e-01	 2.9014432822e+00
 1.9041733792e+00	 1.6269425658e-01	 2.8796365629e+00
 1.9022959819e+00	 1.8334578344e-01	 2.8538206644e+00
 1.9001859606e+00	 2.0405635005e-01	 2.8223502064e+00
 1.9158306503e+00	 1.0151958132e-01	 2.9226766777e+00
 1.9146321683e+00	 1.2205312789e-01	 2.9041253394e+00
 1.9132074062e+00	 1.4265597383e-01	 2.8851357827e+00
 1.9115538961e+00	 1.6332485447e-01	 2.8639369599e+00
 1.9096692221e+00	 1.8405642601e-01	 2.8388346395e+00
 1.9075510225e+00	 2.0484726614e-01	 2.8080603355e+00
 1.9232276798e+00	 1.0191154882e-01	 2.9065217737e+00
 1.9220245705e+00	 1.2252437548e-01	 2.8882534020e+00
 1.9205943074e+00	 1.4320676909e-01	 2.8699255525e+00
 1.9189344131e+00	 1.6395545236e-01	 2.8496265876e+00
 1.9170424624e+00	 1.8476706858e-01	 2.8255179584e+00
 1.9149160844e+00	 2.0563818223e-01	 2.7956855466e+00
 1.8780907751e+00	 2.0168360180e-01	 2.8757436631e+00
 1.8757731009e+00	 2.2220825513e-01	 2.8378192843e+00
 1.8732210284e+00	 2.4278429399e-01	 2.7962816616e+00
 1.8704324088e+00	 2.6340812188e-01	 2.7517245535e+00
 1.8674051574e+00	 2.8407606851e-01	 2.7039406333e+00
 1.8641372561e+00	 3.0478439093e-01	 2.6516881992e+00
 1.8854558369e+00	 2.0247451788e-01	 2.8562881946e+00
 1.8831290738e+00	 2.2307966005e-01	 2.8185079793e+00
 1.8805669932e+00	 2.4373638926e-01	 2.7772205849e+00
 1.8777674379e+00	 2.6444109491e-01	 2.7331557802e+00
 1.8747283149e+00	 2.8519009231e-01	 2.6862464150e+00
 1.8714475983e+00	 3.0597962384e-01	 2.6353959723e+00
 1.8928208988e+00	 2.0326543397e-01	 2.8384583254e+00
 1.8904850468e+00	 2.2395106497e-01	 2.8009191667e+00
 1.8879129580e+00	 2.4468848453e-01	 2.7598680483e+00
 1.8851024669e+00	 2.6547406794e-01	 2.7161483640e+00
 1.8820514724e+00	 2.8630411611e-01	 2.6698117218e+00
 1.8787579405e+00	 3.0717485674e-01	 2.6198865148e+00
 1.9001859606e+00	 2.0405635005e-01	 2.8223502064e+00
 1.8978410197e+00	 2.2482246989e-01	 2.7851771909e+00
 1.8952589228e+00	 2.4564057980e-01	 2.7443814800e+00
 1.8924374960e+00	 2.6650704096e-01	 2.7008975924e+00
 1.8893746298e+00	 2.8741813990e-01	 2.6548743739e+00
 1.8860682827e+00	 3.0837008965e-01	 2.6054447655e+00
 1.9075510225e+00	 2.0484726614e-01	 2.8080603355e+00
 1.9051969926e+00	 2.2569387482e-01	 2.7714064693e+00
 1.9026048876e+00	 2.4659267507e-01	 2.7309179834e+00
 1.8997725250e+00	 2.6754001399e-01	 2.6875978969e+00
 1.8966977873e+00	 2.8853216370e-01	 2.6416706591e+00
 1.8933786248e+00	 3.0956532256e-01	 2.5923532985e+00
 1.9149160844e+00	 2.0563818223e-01	 2.7956855466e+00
 1.9125529656e+00	 2.2656527974e-01	 2.7597314825e+00
 1.9099508525e+00	 2.4754477035e-01	 2.7196343306e+00
 1.9071075541e+00	 2.6857298702e-01	 2.6764428495e+00
 1.9040209448e+00	 2.8964618750e-01	 2.6304353336e+00
 1.9006889670e+00	 3.1076055546e-01	 2.5808923295e+00
 1.8641372561e+00	 3.0478439093e-01	 2.6516881992e+00
 1.8606267562e+00	 3.2552927477e-01	 2.5935806707e+00
 1.8568717808e+00	 3.4630683554e-01	 2.5294332430e+00
 1.8528705275e+00	 3.6711312004e-01	 2.4574680414e+00
 1.8486212710e+00	 3.8794410792e-01	 2.3761026778e+00
 1.8441223656e+00	 4.0879571328e-01	 2.2940574622e+00
 1.8714475983e+00	 3.0597962384e-01	 2.6353959723e+00
 1.8679233317e+00	 3.2680586017e-01	 2.5791185647e+00
 1.8641536309e+00	 3.4766490156e-01	 2.5165056959e+00
 1.8601366864e+00	 3.6855277933e-01	 2.4449987760e+00
 1.8558707662e+00	 3.8946545736e-01	 2.3631334701e+00
 1.8513542180e+00	 4.1039883372e-01	 2.2811602581e+00
 1.8787579405e+00	 3.0717485674e-01	 2.6198865148e+00
 1.8752199072e+00	 3.2808244556e-01	 2.5648527738e+00
 1.8714354810e+00	 3.4902296758e-01	 2.5032955431e+00
 1.8674028454e+00	 3.6999243863e-01	 2.4320839488e+00
 1.8631202614e+00	 3.9098680680e-01	 2.3497502261e+00
 1.8585860704e+00	 4.1200195416e-01	 2.2660843280e+00
 1.8860682827e+00	 3.0837008965e-01	 2.6054447655e+00
 1.8825164827e+00	 3.2935903095e-01	 2.5511009051e+00
 1.8787173311e+00	 3.5038103360e-01	 2.4901177524e+00
 1.8746690043e+00	 3.7143209792e-01	 2.4189999982e+00
 1.8703697566e+00	 3.9250815625e-01	 2.3365040045e+00
 1.8658179229e+00	 4.1360507461e-01	 2.2520186494e+00
 1.8933786248e+00	 3.0956532256e-01	 2.5923532985e+00
 1.8898130582e+00	 3.3063561634e-01	 2.5381774958e+00
 1.8859991813e+00	 3.5173909962e-01	 2.4772839543e+00
 1.8819351632e+00	 3.7287175722e-01	 2.4060254442e+00
 1.8776192518e+00	 3.9402950569e-01	 2.3235785148e+00
 1.8730497753e+00	 4.1520819505e-01	 2.2390276473e+00
 1.9006889670e+00	 3.1076055546e-01	 2.5808923295e+00
 1.8971096338e+00	 3.3191220173e-01	 2.5263940206e+00
 1.8932810314e+00	 3.5309716565e-01	 2.4651024404e+00
 1.8892013222e+00	 3.7431141651e-01	 2.3934314073e+00
 1.8848687469e+00	 3.9555085513e-01	 2.3111543884e+00
 1.8802816277e+00	 4.1681131550e-01	 2.2271610170e+00
 1.8441223656e+00	 4.0879571328e-01	 2.2940574622e+00
 1.8393722476e+00	 4.2966378639e-01	 2.2157450264e+00
 1.8343694379e+00	 4.5054411554e-01	 2.1360522966e+00
 1.8291125442e+00	 4.7143242896e-01	 2.0530386730e+00
 1.8236002640e+00	 4.9232439687e-01	 1.9649956827e+00
 1.8178313860e+00	 5.1321563356e-01	 1.8705615838e+00
 1.8513542180e+00	 4.1039883372e-01	 2.2811602581e+00
 1.8465854721e+00	 4.3134874241e-01	 2.2031970362e+00
 1.8415630435e+00	 4.5231095521e-01	 2.1236846222e+00
 1.8362855346e+00	 4.7328118359e-01	 2.0407231118e+00
 1.8307516376e+00	 4.9425508078e-01	 1.9526530232e+00
 1.8249601366e+00	 5.1522824389e-01	 1.8581743787e+00
 1.8585860704e+00	 4.1200195416e-01	 2.2660843280e+00
 1.8537986966e+00	 4.3303369844e-01	 2.1864603383e+00
 1.8487566491e+00	 4.5407779488e-01	 2.1077226908e+00
 1.8434585250e+00	 4.7512993821e-01	 2.0260198105e+00
 1.8379030112e+00	 4.9618576469e-01	 1.9391851010e+00
 1.8320888871e+00	 5.1724085421e-01	 1.8456964625e+00
 1.8658179229e+00	 4.1360507461e-01	 2.2520186494e+00
 1.8610119211e+00	 4.3471865446e-01	 2.1703741786e+00
 1.8559502548e+00	 4.5584463454e-01	 2.0891990843e+00
 1.8506315153e+00	 4.7697869283e-01	 2.0085657084e+00
 1.8450543847e+00	 4.9811644860e-01	 1.9242977685e+00
 1.8392176376e+00	 5.1925346454e-01	 1.8329610273e+00
 1.8730497753e+00	 4.1520819505e-01	 2.2390276473e+00
 1.8682251456e+00	 4.3640361049e-01	 2.1567893771e+00
 1.8631438604e+00	 4.5761147421e-01	 2.0742993319e+00
 1.8578045057e+00	 4.7882744746e-01	 1.9913635924e+00
 1.8522057583e+00	 5.0004713250e-01	 1.9077203334e+00
 1.8463463882e+00	 5.2126607487e-01	 1.8198099183e+00
 1.8802816277e+00	 4.1681131550e-01	 2.2271610170e+00
 1.8754383701e+00	 4.3808856651e-01	 2.1456263666e+00
 1.8703374660e+00	 4.5937831388e-01	 2.0636597843e+00
 1.8649774961e+00	 4.8067620208e-01	 1.9804003998e+00
 1.8593571319e+00	 5.0197781641e-01	 1.8949391434e+00
 1.8534751387e+00	 5.2327868520e-01	 1.8063798310e+00
 1.8178313860e+00	 5.1321563356e-01	 1.8705615838e+00
 1.8118047933e+00	 5.3410169969e-01	 1.7716861235e+00
 1.8055194649e+00	 5.5497810457e-01	 1.6715676509e+00
 1.7989744783e+00	 5.7584030861e-01	 1.5715362557e+00
 1.7921690115e+00	 5.9668372586e-01	 1.4736332741e+00
 1.7851023450e+00	 6.1750372658e-01	 1.3806632406e+00
 1.8249601366e+00	 5.1522824389e-01	 1.8581743787e+00
 1.8189099101e+00	 5.3619621615e-01	 1.7593155227e+00
 1.8125999334e+00	 5.5715448929e-01	 1.6592621423e+00
 1.8060292802e+00	 5.7809850590e-01	 1.5593029410e+00
 1.7991971253e+00	 5.9902366204e-01	 1.4614692976e+00
 1.7921027464e+00	 6.1992530983e-01	 1.3685900147e+00
 1.8320888871e+00	 5.1724085421e-01	 1.8456964625e+00
 1.8260150270e+00	 5.3829073262e-01	 1.7474460449e+00
 1.8196804018e+00	 5.5933087401e-01	 1.6476552006e+00
 1.8130840820e+00	 5.8035670319e-01	 1.5476858673e+00
 1.8062252391e+00	 6.0136359822e-01	 1.4496731144e+00
 1.7991031477e+00	 6.2234689307e-01	 1.3565824573e+00
 1.8392176376e+00	 5.1925346454e-01	 1.8329610273e+00
 1.8331201438e+00	 5.4038524909e-01	 1.7360543943e+00
 1.8267608703e+00	 5.6150725874e-01	 1.6368377860e+00
 1.8201388839e+00	 5.8261490048e-01	 1.5368591806e+00
 1.8132533528e+00	 6.0370353440e-01	 1.4384692312e+00
 1.8061035491e+00	 6.2476847631e-01	 1.3448809156e+00
 1.8463463882e+00	 5.2126607487e-01	 1.8198099183e+00
 1.8402252606e+00	 5.4247976556e-01	 1.7251236048e+00
 1.8338413388e+00	 5.6368364346e-01	 1.6269051876e+00
 1.8271936858e+00	 5.8487309777e-01	 1.5269997013e+00
 1.8202814666e+00	 6.0604347058e-01	 1.4280835434e+00
 1.8131039504e+00	 6.2719005955e-01	 1.3337262338e+00
 1.8534751387e+00	 5.2327868520e-01	 1.8063798310e+00
 1.8473303775e+00	 5.4457428203e-01	 1.7146428049e+00
 1.8409218073e+00	 5.6586002819e-01	 1.6179567943e+00
 1.8342484877e+00	 5.8713129506e-01	 1.5182866914e+00
 1.8273095804e+00	 6.0838340676e-01	 1.4187430892e+00
 1.8201043518e+00	 6.2961164279e-01	 1.3233594837e+00
 1.7851023450e+00	 6.1750372658e-01	 1.3806632406e+00
 1.7777738637e+00	 6.3829563999e-01	 1.2899566896e+00
 1.7701830588e+00	 6.5905475704e-01	 1.1957320896e+00
 1.7623295297e+00	 6.7977633331e-01	 1.0973698529e+00
 1.7542129854e+00	 7.0045559198e-01	 9.9510179866e-01
 1.7458332465e+00	 7.2108772687e-01	 8.8997486120e-01
 1.7921027464e+00	 6.1992530983e-01	 1.3685900147e+00
 1.7847455259e+00	 6.4079876015e-01	 1.2783560145e+00
 1.7771249532e+00	 6.6163928550e-01	 1.1850993055e+00
 1.7692406259e+00	 6.8244212285e-01	 1.0879118720e+00
 1.7610922520e+00	 7.0320247665e-01	 9.8677868921e-01
 1.7526796514e+00	 7.2391552187e-01	 8.8254195478e-01
 1.7991031477e+00	 6.2234689307e-01	 1.3565824573e+00
 1.7917171881e+00	 6.4330188030e-01	 1.2665836883e+00
 1.7840668475e+00	 6.6422381395e-01	 1.1741586733e+00
 1.7761517221e+00	 6.8510791239e-01	 1.0781008945e+00
 1.7679715186e+00	 7.0594936133e-01	 9.7814082253e-01
 1.7595260563e+00	 7.2674331688e-01	 8.7491070233e-01
 1.8061035491e+00	 6.2476847631e-01	 1.3448809156e+00
 1.7986888504e+00	 6.4580500046e-01	 1.2548789820e+00
 1.7910087419e+00	 6.6680834241e-01	 1.1631501557e+00
 1.7830628183e+00	 6.8777370193e-01	 1.0681793518e+00
 1.7748507853e+00	 7.0869624600e-01	 9.6943492525e-01
 1.7663724612e+00	 7.2957111189e-01	 8.6733404366e-01
 1.8131039504e+00	 6.2719005955e-01	 1.3337262338e+00
 1.8056605126e+00	 6.4830812062e-01	 1.2434808924e+00
 1.7979506362e+00	 6.6939287087e-01	 1.1523125038e+00
 1.7899739145e+00	 6.9043949148e-01	 1.0583873610e+00
 1.7817300519e+00	 7.1144313068e-01	 9.6090414550e-01
 1.7732188661e+00	 7.3239890690e-01	 8.6005991683e-01
 1.8201043518e+00	 6.2961164279e-01	 1.3233594837e+00
 1.8126321748e+00	 6.5081124077e-01	 1.2326278450e+00
 1.8048925306e+00	 6.7197739933e-01	 1.1418829315e+00
 1.7968850107e+00	 6.9310528102e-01	 1.0489623725e+00
 1.7886093185e+00	 7.1419001535e-01	 9.5278767265e-01
 1.7800652710e+00	 7.3522670190e-01	 8.5333085146e-01
 1.7458332465e+00	 7.2108772687e-01	 8.8997486120e-01
 1.7371902465e+00	 7.4166790557e-01	 7.8613289112e-01
 1.7282840329e+00	 7.6219127264e-01	 6.8754011613e-01
 1.7191147693e+00	 7.8265295290e-01	 5.9170400760e-01
 1.7096827356e+00	 8.0304805472e-01	 4.9564137256e-01
 1.6999883299e+00	 8.2337167348e-01	 3.9651505958e-01
 1.7526796514e+00	 7.2391552187e-01	 8.8254195478e-01
 1.7440027572e+00	 7.4457640716e-01	 7.7936234705e-01
 1.7350616174e+00	 7.6518025802e-01	 6.8093711361e-01
 1.7258563958e+00	 7.8572218016e-01	 5.8492134502e-01
 1.7163873738e+00	 8.0619726277e-01	 4.8875275323e-01
 1.7066549508e+00	 8.2660058200e-01	 3.9001455812e-01
 1.7595260563e+00	 7.2674331688e-01	 8.7491070233e-01
 1.7508152680e+00	 7.4748490875e-01	 7.7249619643e-01
 1.7418392018e+00	 7.6816924341e-01	 6.7423199457e-01
 1.7325980224e+00	 7.8879140743e-01	 5.7800280039e-01
 1.7230920120e+00	 8.0934647083e-01	 4.8166756393e-01
 1.7133215717e+00	 8.2982949053e-01	 3.8322995215e-01
 1.7663724612e+00	 7.2957111189e-01	 8.6733404366e-01
 1.7576277788e+00	 7.5039341034e-01	 7.6577475008e-01
 1.7486167863e+00	 7.7115822879e-01	 6.6766021471e-01
 1.7393396489e+00	 7.9186063469e-01	 5.7117519121e-01
 1.7297966501e+00	 8.1249567889e-01	 4.7460009110e-01
 1.7199881926e+00	 8.3305839905e-01	 3.7635900732e-01
 1.7732188661e+00	 7.3239890690e-01	 8.6005991683e-01
 1.7644402895e+00	 7.5330191193e-01	 7.5943093534e-01
 1.7553943707e+00	 7.7414721417e-01	 6.6144999601e-01
 1.7460812754e+00	 7.9492986196e-01	 5.6465830166e-01
 1.7365012883e+00	 8.1564488695e-01	 4.6775783761e-01
 1.7266548135e+00	 8.3628730757e-01	 3.6959300339e-01
 1.7800652710e+00	 7.3522670190e-01	 8.5333085146e-01
 1.7712528003e+00	 7.5621041352e-01	 7.5369044921e-01
 1.7621719551e+00	 7.7713619956e-01	 6.5582248376e-01
 1.7528229020e+00	 7.9799908923e-01	 5.5866504216e-01
 1.7432059265e+00	 8.1879409500e-01	 4.6134168326e-01
 1.7333214344e+00	 8.3951621610e-01	 3.6311689442e-01
 1.6999883299e+00	 8.2337167348e-01	 3.9651505958e-01
 1.6900320691e+00	 8.4361889500e-01	 2.9198971169e-01
 1.6798145896e+00	 8.6378479907e-01	 1.8371201132e-01
 1.6693366484e+00	 8.8386446296e-01	 7.4796217885e-02
 1.6585991234e+00	 9.0385296513e-01	-3.1850896862e-02
 1.6476030139e+00	 9.2374538878e-01	-1.3362144098e-01
 1.7066549508e+00	 8.2660058200e-01	 3.9001455812e-01
 1.6966596458e+00	 8.4692720440e-01	 2.8624342231e-01
 1.6864020978e+00	 8.6717219043e-01	 1.7863517628e-01
 1.6758830666e+00	 8.8733059811e-01	 7.0246187669e-02
 1.6651034336e+00	 9.0739748656e-01	-3.6065667593e-02
 1.6540642022e+00	 9.2736791971e-01	-1.3773342250e-01
 1.7133215717e+00	 8.2982949053e-01	 3.8322995215e-01
 1.7032872226e+00	 8.5023551379e-01	 2.8015656554e-01
 1.6929896060e+00	 8.7055958180e-01	 1.7323306618e-01
 1.6824294849e+00	 8.9079673326e-01	 6.5432432605e-02
 1.6716077439e+00	 9.1094200800e-01	-4.0461173243e-02
 1.6605253904e+00	 9.3099045065e-01	-1.4194579031e-01
 1.7199881926e+00	 8.3305839905e-01	 3.7635900732e-01
 1.7099147993e+00	 8.5354382318e-01	 2.7390963151e-01
 1.6995771142e+00	 8.7394697317e-01	 1.6767160065e-01
 1.6889759031e+00	 8.9426286841e-01	 6.0509263458e-02
 1.6781120542e+00	 9.1448652943e-01	-4.4891484382e-02
 1.6669865787e+00	 9.3461298159e-01	-1.4611749388e-01
 1.7266548135e+00	 8.3628730757e-01	 3.6959300339e-01
 1.7165423761e+00	 8.5685213257e-01	 2.6767691785e-01
 1.7061646224e+00	 8.7733436454e-01	 1.6211073997e-01
 1.6955223213e+00	 8.9772900356e-01	 5.5625198955e-02
 1.6846163645e+00	 9.1803105086e-01	-4.9216367878e-02
 1.6734477670e+00	 9.3823551252e-01	-1.5011316023e-01
 1.7333214344e+00	 8.3951621610e-01	 3.6311689442e-01
 1.7231699528e+00	 8.6016044196e-01	 2.6162668880e-01
 1.7127521306e+00	 8.8072175591e-01	 1.5670464391e-01
 1.7020687395e+00	 9.0119513871e-01	 5.0923124849e-02
 1.6911206748e+00	 9.2157557229e-01	-5.3301126897e-02
 1.6799089553e+00	 9.4185804346e-01	-1.5380293224e-01
 1.6476030139e+00	 9.2374538878e-01	-1.3362144098e-01
 1.6363494411e+00	 9.4353682557e-01	-2.3144648902e-01
 1.6248396482e+00	 9.6322237935e-01	-3.2797815440e-01
 1.6130750006e+00	 9.8279716986e-01	-4.2388306451e-01
 1.6010569854e+00	 1.0022563365e+00	-5.2046734280e-01
 1.5887872118e+00	 1.0215950421e+00	-6.1979733415e-01
 1.6540642022e+00	 9.2736791971e-01	-1.3773342250e-01
 1.6427664977e+00	 9.4723696998e-01	-2.3540717969e-01
 1.6312115684e+00	 9.6699972201e-01	-3.3146081321e-01
 1.6194007849e+00	 9.8665127641e-01	-4.2660320078e-01
 1.6073356402e+00	 1.0061867535e+00	-5.2218762197e-01
 1.5950177499e+00	 1.0256012972e+00	-6.2033466752e-01
 1.6605253904e+00	 9.3099045065e-01	-1.4194579031e-01
 1.6491835544e+00	 9.5093711440e-01	-2.3942823310e-01
 1.6375834886e+00	 9.7077706467e-01	-3.3501008337e-01
 1.6257265692e+00	 9.9050538296e-01	-4.2941794794e-01
 1.6136142951e+00	 1.0101171705e+00	-5.2402725048e-01
 1.6012482880e+00	 1.0296075523e+00	-6.2098740325e-01
 1.6669865787e+00	 9.3461298159e-01	-1.4611749388e-01
 1.6556006110e+00	 9.5463725881e-01	-2.4337142827e-01
 1.6439554088e+00	 9.7455440734e-01	-3.3849033285e-01
 1.6320523535e+00	 9.9435948951e-01	-4.3219426707e-01
 1.6198929499e+00	 1.0140475875e+00	-5.2585602113e-01
 1.6074788261e+00	 1.0336138073e+00	-6.2162862873e-01
 1.6734477670e+00	 9.3823551252e-01	-1.5011316023e-01
 1.6620176676e+00	 9.5833740322e-01	-2.4710425839e-01
 1.6503273290e+00	 9.7833175000e-01	-3.4177170847e-01
 1.6383781378e+00	 9.9821359605e-01	-4.3480498689e-01
 1.6261716048e+00	 1.0179780045e+00	-5.2754970352e-01
 1.6137093642e+00	 1.0376200624e+00	-6.2213753358e-01
 1.6799089553e+00	 9.4185804346e-01	-1.5380293224e-01
 1.6684347243e+00	 9.6203754764e-01	-2.5049976715e-01
 1.6566992492e+00	 9.8210909267e-01	-3.4472997021e-01
 1.6447039222e+00	 1.0020677026e+00	-4.3712863659e-01
 1.6324502596e+00	 1.0219084215e+00	-5.2898987574e-01
 1.6199399022e+00	 1.0416263175e+00	-6.2239924065e-01
 1.5887872118e+00	 1.0215950421e+00	-6.1979733415e-01
 1.5762674104e+00	 1.0408084768e+00	-7.1600614360e-01
 1.5634994329e+00	 1.0598918614e+00	-8.0327975151e-01
 1.5504852512e+00	 1.0788404518e+00	-8.8541276214e-01
 1.5372269570e+00	 1.0976495421e+00	-9.6765120978e-01
 1.5237267607e+00	 1.1163144689e+00	-1.0560349958e+00
 1.5950177499e+00	 1.0256012972e+00	-6.2033466752e-01
 1.5824488513e+00	 1.0448900786e+00	-7.1570915888e-01
 1.5696308032e+00	 1.0640483001e+00	-8.0289426486e-01
 1.5565655855e+00	 1.0830711986e+00	-8.8555341327e-01
 1.5432552980e+00	 1.1019540501e+00	-9.6881705436e-01
 1.5297021597e+00	 1.1206921727e+00	-1.0568267270e+00
 1.6012482880e+00	 1.0296075523e+00	-6.2098740325e-01
 1.5886302921e+00	 1.0489716805e+00	-7.1547448199e-01
 1.5757621736e+00	 1.0682047388e+00	-8.0249464781e-01
 1.5626459198e+00	 1.0873019455e+00	-8.8562394376e-01
 1.5492836390e+00	 1.1062585581e+00	-9.6992109010e-01
 1.5356775588e+00	 1.1250698765e+00	-1.0567826853e+00
 1.6074788261e+00	 1.0336138073e+00	-6.2162862873e-01
 1.5948117329e+00	 1.0530532824e+00	-7.1517919630e-01
 1.5818935439e+00	 1.0723611774e+00	-8.0196236884e-01
 1.5687262542e+00	 1.0915326924e+00	-8.8550997745e-01
 1.5553119800e+00	 1.1105630661e+00	-9.7085223566e-01
 1.5416529579e+00	 1.1294475803e+00	-1.0559183669e+00
 1.6137093642e+00	 1.0376200624e+00	-6.2213753358e-01
 1.6009931737e+00	 1.0571348843e+00	-7.1470662431e-01
 1.5880249142e+00	 1.0765176161e+00	-8.0118528753e-01
 1.5748065885e+00	 1.0957634393e+00	-8.8510370399e-01
 1.5613403210e+00	 1.1148675741e+00	-9.7121125331e-01
 1.5476283569e+00	 1.1338252841e+00	-1.0542489249e+00
 1.6199399022e+00	 1.0416263175e+00	-6.2239924065e-01
 1.6071746146e+00	 1.0612164861e+00	-7.1394615862e-01
 1.5941562845e+00	 1.0806740548e+00	-8.0005748582e-01
 1.5808869228e+00	 1.0999941861e+00	-8.8430371079e-01
 1.5673686620e+00	 1.1191720821e+00	-9.7048962553e-01
 1.5536037560e+00	 1.1382029879e+00	-1.0517891741e+00
 1.5237267607e+00	 1.1163144689e+00	-1.0560349958e+00
 1.5099869904e+00	 1.1348306144e+00	-1.1409371399e+00
 1.4960100907e+00	 1.1531934109e+00	-1.2187446050e+00
 1.4817986217e+00	 1.1713983436e+00	-1.2928668261e+00
 1.4673552568e+00	 1.1894409547e+00	-1.3632382780e+00
 1.4526827821e+00	 1.2073168470e+00	-1.4327298140e+00
 1.5297021597e+00	 1.1206921727e+00	-1.0568267270e+00
 1.5159085080e+00	 1.1392809306e+00	-1.1391287145e+00
 1.5018767970e+00	 1.1577157380e+00	-1.2152263155e+00
 1.4876095967e+00	 1.1759920626e+00	-1.2883086157e+00
 1.4731095912e+00	 1.1941054291e+00	-1.3605465994e+00
 1.4583795773e+00	 1.2120514229e+00	-1.4318897236e+00
 1.5356775588e+00	 1.1250698765e+00	-1.0567826853e+00
 1.5218300256e+00	 1.1437312467e+00	-1.1368648699e+00
 1.5077435032e+00	 1.1622380651e+00	-1.2116249628e+00
 1.4934205716e+00	 1.1805857816e+00	-1.2839953252e+00
 1.4788639255e+00	 1.1987699034e+00	-1.3569929844e+00
 1.4640763726e+00	 1.2167859988e+00	-1.4303287407e+00
 1.5416529579e+00	 1.1294475803e+00	-1.0559183669e+00
 1.5277515432e+00	 1.1481815629e+00	-1.1341612779e+00
 1.5136102095e+00	 1.1667603922e+00	-1.2079519273e+00
 1.4992315466e+00	 1.1851795006e+00	-1.2799299824e+00
 1.4846182599e+00	 1.2034343777e+00	-1.3529110217e+00
 1.4697731678e+00	 1.2215205747e+00	-1.4281863960e+00
 1.5476283569e+00	 1.1338252841e+00	-1.0542489249e+00
 1.5336730608e+00	 1.1526318790e+00	-1.1310333591e+00
 1.5194769157e+00	 1.1712827193e+00	-1.2042184964e+00
 1.5050425216e+00	 1.1897732196e+00	-1.2761157400e+00
 1.4903725942e+00	 1.2080988521e+00	-1.3491880897e+00
 1.4754699630e+00	 1.2262551505e+00	-1.4256033683e+00
 1.5536037560e+00	 1.1382029879e+00	-1.0517891741e+00
 1.5395945784e+00	 1.1570821951e+00	-1.1274962842e+00
 1.5253436219e+00	 1.1758050464e+00	-1.2004358598e+00
 1.5108534966e+00	 1.1943669386e+00	-1.2725558656e+00
 1.4961269285e+00	 1.2127633264e+00	-1.3459307909e+00
 1.4811667582e+00	 1.2309897264e+00	-1.4227210828e+00
 1.4526827821e+00	 1.2073168470e+00	-1.4327298140e+00
 1.4377840939e+00	 1.2250216872e+00	-1.5012821590e+00
 1.4226621971e+00	 1.2425512092e+00	-1.5646048385e+00
 1.4073202035e+00	 1.2599012181e+00	-1.6229004040e+00
 1.3917613292e+00	 1.2770675930e+00	-1.6749851917e+00
 1.3759888930e+00	 1.2940462901e+00	-1.7185347930e+00
 1.4583795773e+00	 1.2120514229e+00	-1.4318897236e+00
 1.4434224628e+00	 1.2298256938e+00	-1.5010755951e+00
 1.4282412645e+00	 1.2474239591e+00	-1.5638455560e+00
 1.4128391062e+00	 1.2648420072e+00	-1.6210342770e+00
 1.3972192168e+00	 1.2820757012e+00	-1.6720613832e+00
 1.3813849279e+00	 1.2991209814e+00	-1.7151825248e+00
 1.4640763726e+00	 1.2167859988e+00	-1.4303287407e+00
 1.4490608318e+00	 1.2346297004e+00	-1.5002522254e+00
 1.4338203320e+00	 1.2522967089e+00	-1.5626278681e+00
 1.4183580090e+00	 1.2697827963e+00	-1.6188914903e+00
 1.4026771044e+00	 1.2870838094e+00	-1.6690346903e+00
 1.3867809627e+00	 1.3041956728e+00	-1.7118617379e+00
 1.4697731678e+00	 1.2215205747e+00	-1.4281863960e+00
 1.4546992008e+00	 1.2394337070e+00	-1.4989159138e+00
 1.4393993994e+00	 1.2571694587e+00	-1.5610268925e+00
 1.4238769117e+00	 1.2747235854e+00	-1.6165255299e+00
 1.4081349919e+00	 1.2920919176e+00	-1.6659442434e+00
 1.3921769976e+00	 1.3092703641e+00	-1.7086046132e+00
 1.4754699630e+00	 1.2262551505e+00	-1.4256033683e+00
 1.4603375698e+00	 1.2442377136e+00	-1.4971722359e+00
 1.4449784668e+00	 1.2620422086e+00	-1.5591200027e+00
 1.4293958145e+00	 1.2796643745e+00	-1.6139926530e+00
 1.4135928795e+00	 1.2971000258e+00	-1.6628324199e+00
 1.3975730325e+00	 1.3143450554e+00	-1.7054470046e+00
 1.4811667582e+00	 1.2309897264e+00	-1.4227210828e+00
 1.4659759388e+00	 1.2490417202e+00	-1.4951280803e+00
 1.4505575343e+00	 1.2669149584e+00	-1.5569864349e+00
 1.4349147173e+00	 1.2846051636e+00	-1.6113515020e+00
 1.4190507671e+00	 1.3021081340e+00	-1.6597444682e+00
 1.4029690674e+00	 1.3194197468e+00	-1.7024280764e+00
 1.3759888930e+00	 1.2940462901e+00	-1.7185347930e+00
 1.3600063133e+00	 1.3108333465e+00	-1.7599100697e+00
 1.3438171062e+00	 1.3274248829e+00	-1.8042990223e+00
 1.3274248829e+00	 1.3438171062e+00	-1.8466345328e+00
 1.3108333465e+00	 1.3600063133e+00	-1.8817085540e+00
 1.2940462901e+00	 1.3759888930e+00	-1.9044720104e+00
 1.3813849279e+00	 1.2991209814e+00	-1.7151825248e+00
 1.3653396714e+00	 1.3159738695e+00	-1.7568242984e+00
 1.3490869772e+00	 1.3326304706e+00	-1.8017274162e+00
 1.3326304706e+00	 1.3490869772e+00	-1.8446124096e+00
 1.3159738695e+00	 1.3653396714e+00	-1.8800537599e+00
 1.2991209814e+00	 1.3813849279e+00	-1.9027885762e+00
 1.3867809627e+00	 1.3041956728e+00	-1.7118617379e+00
 1.3706730295e+00	 1.3211143924e+00	-1.7538132903e+00
 1.3543568482e+00	 1.3378360584e+00	-1.7991901981e+00
 1.3378360584e+00	 1.3543568482e+00	-1.8425582341e+00
 1.3211143924e+00	 1.3706730295e+00	-1.8783324927e+00
 1.3041956728e+00	 1.3867809627e+00	-1.9010949059e+00
 1.3921769976e+00	 1.3092703641e+00	-1.7086046132e+00
 1.3760063876e+00	 1.3262549153e+00	-1.7509096533e+00
 1.3596267192e+00	 1.3430416462e+00	-1.7967270409e+00
 1.3430416462e+00	 1.3596267192e+00	-1.8405244121e+00
 1.3262549153e+00	 1.3760063876e+00	-1.8766145721e+00
 1.3092703641e+00	 1.3921769976e+00	-1.8994819129e+00
 1.3975730325e+00	 1.3143450554e+00	-1.7054470046e+00
 1.3813397456e+00	 1.3313954383e+00	-1.7481500366e+00
 1.3648965902e+00	 1.3482472340e+00	-1.7943819717e+00
 1.3482472340e+00	 1.3648965902e+00	-1.8385679656e+00
 1.3313954383e+00	 1.3813397456e+00	-1.8749746494e+00
 1.3143450554e+00	 1.3975730325e+00	-1.8980455175e+00
 1.4029690674e+00	 1.3194197468e+00	-1.7024280764e+00
 1.3866731037e+00	 1.3365359612e+00	-1.7455747834e+00
 1.3701664612e+00	 1.3534528217e+00	-1.7922030411e+00
 1.3534528217e+00	 1.3701664612e+00	-1.8367502213e+00
 1.3365359612e+00	 1.3866731037e+00	-1.8734919180e+00
 1.3194197468e+00	 1.4029690674e+00	-1.8968863795e+00
 1.2940462901e+00	 1.3759888930e+00	-1.9044720104e+00
 1.2770675930e+00	 1.3917613292e+00	-1.9218745994e+00
 1.2599012181e+00	 1.4073202035e+00	-1.9413134645e+00
 1.2425512092e+00	 1.4226621971e+00	-1.9595222390e+00
 1.2250216872e+00	 1.4377840939e+00	-1.9745437362e+00
 1.2073168470e+00	 1.4526827821e+00	-1.9860033497e+00
 1.2991209814e+00	 1.3813849279e+00	-1.9027885762e+00
 1.2820757012e+00	 1.3972192168e+00	-1.9195722355e+00
 1.2648420072e+00	 1.4128391062e+00	-1.9379962533e+00
 1.2474239591e+00	 1.4282412645e+00	-1.9551773174e+00
 1.2298256938e+00	 1.4434224628e+00	-1.9695548619e+00
 1.2120514229e+00	 1.4583795773e+00	-1.9811715879e+00
 1.3041956728e+00	 1.3867809627e+00	-1.9010949059e+00
 1.2870838094e+00	 1.4026771044e+00	-1.9173735755e+00
 1.2697827963e+00	 1.4183580090e+00	-1.9348595970e+00
 1.2522967089e+00	 1.4338203320e+00	-1.9510175685e+00
 1.2346297004e+00	 1.4490608318e+00	-1.9646466478e+00
 1.2167859988e+00	 1.4640763726e+00	-1.9761684638e+00
 1.3092703641e+00	 1.3921769976e+00	-1.8994819129e+00
 1.2920919176e+00	 1.4081349919e+00	-1.9153840109e+00
 1.2747235854e+00	 1.4238769117e+00	-1.9320071732e+00
 1.2571694587e+00	 1.4393993994e+00	-1.9471288542e+00
 1.2394337070e+00	 1.4546992008e+00	-1.9598711520e+00
 1.2215205747e+00	 1.4697731678e+00	-1.9709963858e+00
 1.3143450554e+00	 1.3975730325e+00	-1.8980455175e+00
 1.2971000258e+00	 1.4135928795e+00	-1.9137142225e+00
 1.2796643745e+00	 1.4293958145e+00	-1.9295484763e+00
 1.2620422086e+00	 1.4449784668e+00	-1.9436036122e+00
 1.2442377136e+00	 1.4603375698e+00	-1.9552879882e+00
 1.2262551505e+00	 1.4754699630e+00	-1.9656665055e+00
 1.3194197468e+00	 1.4029690674e+00	-1.8968863795e+00
 1.3021081340e+00	 1.4190507671e+00	-1.9124799343e+00
 1.2846051636e+00	 1.4349147173e+00	-1.9275985874e+00
 1.2669149584e+00	 1.4505575343e+00	-1.9405406392e+00
 1.2490417202e+00	 1.4659759388e+00	-1.9509641163e+00
 1.2309897264e+00	 1.4811667582e+00	-1.9601985119e+00
 1.2073168470e+00	 1.4526827821e+00	-1.9860033497e+00
 1.1894409547e+00	 1.4673552568e+00	-1.9898234851e+00
 1.1713983436e+00	 1.4817986217e+00	-1.9850033695e+00
 1.1531934109e+00	 1.4960100907e+00	-1.9774259340e+00
 1.1348306144e+00	 1.5099869904e+00	-1.9690287124e+00
 1.1163144689e+00	 1.5237267607e+00	-1.9602485020e+00
 1.2120514229e+00	 1.4583795773e+00	-1.9811715879e+00
 1.1941054291e+00	 1.4731095912e+00	-1.9854740856e+00
 1.1759920626e+00	 1.4876095967e+00	-1.9810032396e+00
 1.1577157380e+00	 1.5018767970e+00	-1.9733342392e+00
 1.1392809306e+00	 1.5159085080e+00	-1.9638115672e+00
 1.1206921727e+00	 1.5297021597e+00	-1.9529697201e+00
 1.2167859988e+00	 1.4640763726e+00	-1.9761684638e+00
 1.1987699034e+00	 1.4788639255e+00	-1.9806674224e+00
 1.1805857816e+00	 1.4934205716e+00	-1.9767063832e+00
 1.1622380651e+00	 1.5077435032e+00	-1.9689779581e+00
 1.1437312467e+00	 1.5218300256e+00	-1.9584296837e+00
 1.1250698765e+00	 1.5356775588e+00	-1.9456711246e+00
 1.2215205747e+00	 1.4697731678e+00	-1.9709963858e+00
 1.2034343777e+00	 1.4846182599e+00	-1.9754497298e+00
 1.1851795006e+00	 1.4992315466e+00	-1.9723105805e+00
 1.1667603922e+00	 1.5136102095e+00	-1.9645509169e+00
 1.1481815629e+00	 1.5277515432e+00	-1.9530863263e+00
 1.1294475803e+00	 1.5416529579e+00	-1.9385790562e+00
 1.2262551505e+00	 1.4754699630e+00	-1.9656665055e+00
 1.2080988521e+00	 1.4903725942e+00	-1.9703601698e+00
 1.1897732196e+00	 1.5050425216e+00	-1.9680071215e+00
 1.1712827193e+00	 1.5194769157e+00	-1.9602406400e+00
 1.1526318790e+00	 1.5336730608e+00	-1.9479784443e+00
 1.1338252841e+00	 1.5476283569e+00	-1.9319133209e+00
 1.2309897264e+00	 1.4811667582e+00	-1.9601985119e+00
 1.2127633264e+00	 1.4961269285e+00	-1.9656582776e+00
 1.1943669386e+00	 1.5108534966e+00	-1.9639808932e+00
 1.1758050464e+00	 1.5253436219e+00	-1.9562284309e+00
 1.1570821951e+00	 1.5395945784e+00	-1.9432967490e+00
 1.1382029879e+00	 1.5536037560e+00	-1.9258872691e+00
 1.1163144689e+00	 1.5237267607e+00	-1.9602485020e+00
 1.0976495421e+00	 1.5372269570e+00	-1.9480577262e+00
 1.0788404518e+00	 1.5504852512e+00	-1.9267982653e+00
 1.0598918614e+00	 1.5634994329e+00	-1.9010638081e+00
 1.0408084768e+00	 1.5762674104e+00	-1.8747010509e+00
 1.0215950421e+00	 1.5887872118e+00	-1.8503470333e+00
 1.1206921727e+00	 1.5297021597e+00	-1.9529697201e+00
 1.1019540501e+00	 1.5432552980e+00	-1.9404318338e+00
 1.0830711986e+00	 1.5565655855e+00	-1.9198709683e+00
 1.0640483001e+00	 1.5696308032e+00	-1.8944682598e+00
 1.0448900786e+00	 1.5824488513e+00	-1.8679896944e+00
 1.0256012972e+00	 1.5950177499e+00	-1.8429713356e+00
 1.1250698765e+00	 1.5356775588e+00	-1.9456711246e+00
 1.1062585581e+00	 1.5492836390e+00	-1.9322003550e+00
 1.0873019455e+00	 1.5626459198e+00	-1.9124278595e+00
 1.0682047388e+00	 1.5757621736e+00	-1.8873806429e+00
 1.0489716805e+00	 1.5886302921e+00	-1.8607776096e+00
 1.0296075523e+00	 1.6012482880e+00	-1.8350863047e+00
 1.1294475803e+00	 1.5416529579e+00	-1.9385790562e+00
 1.1105630661e+00	 1.5553119800e+00	-1.9236273654e+00
 1.0915326924e+00	 1.5687262542e+00	-1.9047420959e+00
 1.0723611774e+00	 1.5818935439e+00	-1.8800782428e+00
 1.0530532824e+00	 1.5948117329e+00	-1.8533407476e+00
 1.0336138073e+00	 1.6074788261e+00	-1.8269605964e+00
 1.1338252841e+00	 1.5476283569e+00	-1.9319133209e+00
 1.1148675741e+00	 1.5613403210e+00	-1.9152182314e+00
 1.0957634393e+00	 1.5748065885e+00	-1.8970836724e+00
 1.0765176161e+00	 1.5880249142e+00	-1.8728353379e+00
 1.0571348843e+00	 1.6009931737e+00	-1.8459522995e+00
 1.0376200624e+00	 1.6137093642e+00	-1.8188604489e+00
 1.1382029879e+00	 1.5536037560e+00	-1.9258872691e+00
 1.1191720821e+00	 1.5673686620e+00	-1.9076123245e+00
 1.0999941861e+00	 1.5808869228e+00	-1.8897192904e+00
 1.0806740548e+00	 1.5941562845e+00	-1.8659230766e+00
 1.0612164861e+00	 1.6071746146e+00	-1.8388825809e+00
 1.0416263175e+00	 1.6199399022e+00	-1.8110495728e+00
 1.0215950421e+00	 1.5887872118e+00	-1.8503470333e+00
 1.0022563365e+00	 1.6010569854e+00	-1.8220220424e+00
 9.8279716986e-01	 1.6130750006e+00	-1.7848909239e+00
 9.6322237935e-01	 1.6248396482e+00	-1.7419154691e+00
 9.4353682557e-01	 1.6363494411e+00	-1.6954032744e+00
 9.2374538878e-01	 1.6476030139e+00	-1.6471073884e+00
 1.0256012972e+00	 1.5950177499e+00	-1.8429713356e+00
 1.0061867535e+00	 1.6073356402e+00	-1.8137787744e+00
 9.8665127641e-01	 1.6194007849e+00	-1.7760149128e+00
 9.6699972201e-01	 1.6312115684e+00	-1.7326571509e+00
 9.4723696998e-01	 1.6427664977e+00	-1.6860183741e+00
 9.2736791971e-01	 1.6540642022e+00	-1.6378490500e+00
 1.0296075523e+00	 1.6012482880e+00	-1.8350863047e+00
 1.0101171705e+00	 1.6136142951e+00	-1.8050405588e+00
 9.9050538296e-01	 1.6257265692e+00	-1.7666755956e+00
 9.7077706467e-01	 1.6375834886e+00	-1.7229728879e+00
 9.5093711440e-01	 1.6491835544e+00	-1.6762389904e+00
 9.3099045065e-01	 1.6605253904e+00	-1.6282101599e+00
 1.0336138073e+00	 1.6074788261e+00	-1.8269605964e+00
 1.0140475875e+00	 1.6198929499e+00	-1.7960647180e+00
 9.9435948951e-01	 1.6320523535e+00	-1.7571171776e+00
 9.7455440734e-01	 1.6439554088e+00	-1.7130919985e+00
 9.5463725881e-01	 1.6556006110e+00	-1.6662778046e+00
 9.3461298159e-01	 1.6669865787e+00	-1.6183850419e+00
 1.0376200624e+00	 1.6137093642e+00	-1.8188604489e+00
 1.0179780045e+00	 1.6261716048e+00	-1.7871065614e+00
 9.9821359605e-01	 1.6383781378e+00	-1.7475822801e+00
 9.7833175000e-01	 1.6503273290e+00	-1.7032426646e+00
 9.5833740322e-01	 1.6620176676e+00	-1.6563468261e+00
 9.3823551252e-01	 1.6734477670e+00	-1.6085678258e+00
 1.0416263175e+00	 1.6199399022e+00	-1.8110495728e+00
 1.0219084215e+00	 1.6324502596e+00	-1.7784192796e+00
 1.0020677026e+00	 1.6447039222e+00	-1.7383118367e+00
 9.8210909267e-01	 1.6566992492e+00	-1.6936518319e+00
 9.6203754764e-01	 1.6684347243e+00	-1.6466572949e+00
 9.4185804346e-01	 1.6799089553e+00	-1.5989523507e+00
 9.2374538878e-01	 1.6476030139e+00	-1.6471073884e+00
 9.0385296513e-01	 1.6585991234e+00	-1.5996365603e+00
 8.8386446296e-01	 1.6693366484e+00	-1.5538555439e+00
 8.6378479907e-01	 1.6798145896e+00	-1.5082796220e+00
 8.4361889500e-01	 1.6900320691e+00	-1.4611412028e+00
 8.2337167348e-01	 1.6999883299e+00	-1.4104712611e+00
 9.2736791971e-01	 1.6540642022e+00	-1.6378490500e+00
 9.0739748656e-01	 1.6651034336e+00	-1.5904081438e+00
 8.8733059811e-01	 1.6758830666e+00	-1.5442662601e+00
 8.6717219043e-01	 1.6864020978e+00	-1.4980173535e+00
 8.4692720440e-01	 1.6966596458e+00	-1.4499767945e+00
 8.2660058200e-01	 1.7066549508e+00	-1.3982641639e+00
 9.3099045065e-01	 1.6605253904e+00	-1.6282101599e+00
 9.1094200800e-01	 1.6716077439e+00	-1.5808051907e+00
 8.9079673326e-01	 1.6824294849e+00	-1.5343152105e+00
 8.7055958180e-01	 1.6929896060e+00	-1.4874104661e+00
 8.5023551379e-01	 1.7032872226e+00	-1.4384890876e+00
 8.2982949053e-01	 1.7133215717e+00	-1.3857612387e+00
 9.3461298159e-01	 1.6669865787e+00	-1.6183850419e+00
 9.1448652943e-01	 1.6781120542e+00	-1.5710087627e+00
 8.9426286841e-01	 1.6889759031e+00	-1.5241820453e+00
 8.7394697317e-01	 1.6995771142e+00	-1.4766489947e+00
 8.5354382318e-01	 1.7099147993e+00	-1.4268902392e+00
 8.3305839905e-01	 1.7199881926e+00	-1.3732084406e+00
 9.3823551252e-01	 1.6734477670e+00	-1.6085678258e+00
 9.1803105086e-01	 1.6846163645e+00	-1.5612001091e+00
 8.9772900356e-01	 1.6955223213e+00	-1.5140467828e+00
 8.7733436454e-01	 1.7061646224e+00	-1.4659233194e+00
 8.5685213257e-01	 1.7165423761e+00	-1.4153925244e+00
 8.3628730757e-01	 1.7266548135e+00	-1.3608514104e+00
 9.4185804346e-01	 1.6799089553e+00	-1.5989523507e+00
 9.2157557229e-01	 1.6911206748e+00	-1.5515605743e+00
 9.0119513871e-01	 1.7020687395e+00	-1.5040897233e+00
 8.8072175591e-01	 1.7127521306e+00	-1.4554240894e+00
 8.6016044196e-01	 1.7231699528e+00	-1.4042082735e+00
 8.3951621610e-01	 1.7333214344e+00	-1.3489354288e+00
 8.2337167348e-01	 1.6999883299e+00	-1.4104712611e+00
 8.0304805472e-01	 1.7096827356e+00	-1.3548840726e+00
 7.8265295290e-01	 1.7191147693e+00	-1.2962125479e+00
 7.6219127264e-01	 1.7282840329e+00	-1.2373385453e+00
 7.4166790557e-01	 1.7371902465e+00	-1.1813471771e+00
 7.2108772687e-01	 1.7458332465e+00	-1.1332518036e+00
 8.2660058200e-01	 1.7066549508e+00	-1.3982641639e+00
 8.0619726277e-01	 1.7163873738e+00	-1.3421920954e+00
 7.8572218016e-01	 1.7258563958e+00	-1.2839146455e+00
 7.6518025802e-01	 1.7350616174e+00	-1.2258427090e+00
 7.4457640716e-01	 1.7440027572e+00	-1.1705936000e+00
 7.2391552187e-01	 1.7526796514e+00	-1.1223893883e+00
 8.2982949053e-01	 1.7133215717e+00	-1.3857612387e+00
 8.0934647083e-01	 1.7230920120e+00	-1.3291951615e+00
 7.8879140743e-01	 1.7325980224e+00	-1.2712475467e+00
 7.6816924341e-01	 1.7418392018e+00	-1.2138959502e+00
 7.4748490875e-01	 1.7508152680e+00	-1.1593243827e+00
 7.2674331688e-01	 1.7595260563e+00	-1.1109885839e+00
 8.3305839905e-01	 1.7199881926e+00	-1.3732084406e+00
 8.1249567889e-01	 1.7297966501e+00	-1.3161678427e+00
 7.9186063469e-01	 1.7393396489e+00	-1.2584921798e+00
 7.7115822879e-01	 1.7486167863e+00	-1.2017629255e+00
 7.5039341034e-01	 1.7576277788e+00	-1.1477649515e+00
 7.2957111189e-01	 1.7663724612e+00	-1.0992334764e+00
 8.3628730757e-01	 1.7266548135e+00	-1.3608514104e+00
 8.1564488695e-01	 1.7365012883e+00	-1.3033840187e+00
 7.9492986196e-01	 1.7460812754e+00	-1.2459287208e+00
 7.7414721417e-01	 1.7553943707e+00	-1.1897078005e+00
 7.5330191193e-01	 1.7644402895e+00	-1.1361408312e+00
 7.3239890690e-01	 1.7732188661e+00	-1.0873094327e+00
 8.3951621610e-01	 1.7333214344e+00	-1.3489354288e+00
 8.1879409500e-01	 1.7432059265e+00	-1.2911168471e+00
 7.9799908923e-01	 1.7528229020e+00	-1.2338365712e+00
 7.7713619956e-01	 1.7621719551e+00	-1.1779942302e+00
 7.5621041352e-01	 1.7712528003e+00	-1.1246776196e+00
 7.3522670190e-01	 1.7800652710e+00	-1.0754027040e+00
 7.2108772687e-01	 1.7458332465e+00	-1.1332518036e+00
 7.0045559198e-01	 1.7542129854e+00	-1.0889946680e+00
 6.7977633331e-01	 1.7623295297e+00	-1.0415988071e+00
 6.5905475704e-01	 1.7701830588e+00	-9.9047202674e-01
 6.3829563999e-01	 1.7777738637e+00	-9.3582243609e-01
 6.1750372658e-01	 1.7851023450e+00	-8.7867709633e-01
 7.2391552187e-01	 1.7526796514e+00	-1.1223893883e+00
 7.0320247665e-01	 1.7610922520e+00	-1.0778705127e+00
 6.8244212285e-01	 1.7692406259e+00	-1.0299544449e+00
 6.6163928550e-01	 1.7771249532e+00	-9.7823018334e-01
 6.4079876015e-01	 1.7847455259e+00	-9.2312755455e-01
 6.1992530983e-01	 1.7921027464e+00	-8.6593512183e-01
 7.2674331688e-01	 1.7595260563e+00	-1.1109885839e+00
 7.0594936133e-01	 1.7679715186e+00	-1.0661439440e+00
 6.8510791239e-01	 1.7761517221e+00	-1.0177705225e+00
 6.6422381395e-01	 1.7840668475e+00	-9.6560511332e-01
 6.4330188030e-01	 1.7917171881e+00	-9.1027251105e-01
 6.2234689307e-01	 1.7991031477e+00	-8.5330264109e-01
 7.2957111189e-01	 1.7663724612e+00	-1.0992334764e+00
 7.0869624600e-01	 1.7748507853e+00	-1.0539396416e+00
 6.8777370193e-01	 1.7830628183e+00	-1.0051416177e+00
 6.6680834241e-01	 1.7910087419e+00	-9.5269089260e-01
 6.4580500046e-01	 1.7986888504e+00	-8.9738077854e-01
 6.2476847631e-01	 1.8061035491e+00	-8.4096272428e-01
 7.3239890690e-01	 1.7732188661e+00	-1.0873094327e+00
 7.1144313068e-01	 1.7817300519e+00	-1.0413854978e+00
 6.9043949148e-01	 1.7899739145e+00	-9.9216687423e-01
 6.6939287087e-01	 1.7979506362e+00	-9.3958692947e-01
 6.4830812062e-01	 1.8056605126e+00	-8.8458133404e-01
 6.2719005955e-01	 1.8131039504e+00	-8.2910351615e-01
 7.3522670190e-01	 1.7800652710e+00	-1.0754027040e+00
 7.1419001535e-01	 1.7886093185e+00	-1.0286122310e+00
 6.9310528102e-01	 1.7968850107e+00	-9.7894963455e-01
 6.7197739933e-01	 1.8048925306e+00	-9.2639762566e-01
 6.5081124077e-01	 1.8126321748e+00	-8.7200835683e-01
 6.2961164279e-01	 1.8201043518e+00	-8.1791798042e-01
 6.1750372658e-01	 1.7851023450e+00	-8.7867709633e-01
 5.9668372586e-01	 1.7921690115e+00	-8.2504582753e-01
 5.7584030861e-01	 1.7989744783e+00	-7.7730380988e-01
 5.5497810457e-01	 1.8055194649e+00	-7.3223389542e-01
 5.3410169969e-01	 1.8118047933e+00	-6.8737301739e-01
 5.1321563356e-01	 1.8178313860e+00	-6.4095501161e-01
 6.1992530983e-01	 1.7921027464e+00	-8.6593512183e-01
 5.9902366204e-01	 1.7991971253e+00	-8.1274702351e-01
 5.7809850590e-01	 1.8060292802e+00	-7.6574307532e-01
 5.5715448929e-01	 1.8125999334e+00	-7.2161039568e-01
 5.3619621615e-01	 1.8189099101e+00	-6.7783259730e-01
 5.1522824389e-01	 1.8249601366e+00	-6.3262983009e-01
 6.2234689307e-01	 1.7991031477e+00	-8.5330264109e-01
 6.0136359822e-01	 1.8062252391e+00	-8.0084010445e-01
 5.8035670319e-01	 1.8130840820e+00	-7.5478328166e-01
 5.5933087401e-01	 1.8196804018e+00	-7.1162614386e-01
 5.3829073262e-01	 1.8260150270e+00	-6.6869664804e-01
 5.1724085421e-01	 1.8320888871e+00	-6.2409429455e-01
 6.2476847631e-01	 1.8061035491e+00	-8.4096272428e-01
 6.0370353440e-01	 1.8132533528e+00	-7.8955265027e-01
 5.8261490048e-01	 1.8201388839e+00	-7.4463696788e-01
 5.6150725874e-01	 1.8267608703e+00	-7.0242069337e-01
 5.4038524909e-01	 1.8331201438e+00	-6.5997548451e-01
 5.1925346454e-01	 1.8392176376e+00	-6.1517500136e-01
 6.2719005955e-01	 1.8131039504e+00	-8.2910351615e-01
 6.0604347058e-01	 1.8202814666e+00	-7.7911698363e-01
 5.8487309777e-01	 1.8271936858e+00	-7.3552186874e-01
 5.6368364346e-01	 1.8338413388e+00	-6.9414000864e-01
 5.4247976556e-01	 1.8402252606e+00	-6.5168778672e-01
 5.2126607487e-01	 1.8463463882e+00	-6.0570958189e-01
 6.2961164279e-01	 1.8201043518e+00	-8.1791798042e-01
 6.0838340676e-01	 1.8273095804e+00	-7.6976995605e-01
 5.8713129506e-01	 1.8342484877e+00	-7.2766072513e-01
 5.6586002819e-01	 1.8409218073e+00	-6.8693628213e-01
 5.4457428203e-01	 1.8473303775e+00	-6.4386040685e-01
 5.2327868520e-01	 1.8534751387e+00	-5.9587684629e-01
 5.1321563356e-01	 1.8178313860e+00	-6.4095501161e-01
 4.9232439687e-01	 1.8236002640e+00	-5.9362051963e-01
 4.7143242896e-01	 1.8291125442e+00	-5.4747176979e-01
 4.5054411554e-01	 1.8343694379e+00	-5.0368365352e-01
 4.2966378639e-01	 1.8393722476e+00	-4.6370352460e-01
 4.0879571328e-01	 1.8441223656e+00	-4.2914055344e-01
 5.1522824389e-01	 1.8249601366e+00	-6.3262983009e-01
 4.9425508078e-01	 1.8307516376e+00	-5.8640709550e-01
 4.7328118359e-01	 1.8362855346e+00	-5.4097737591e-01
 4.5231095521e-01	 1.8415630435e+00	-4.9745794637e-01
 4.3134874241e-01	 1.8465854721e+00	-4.5724702866e-01
 4.1039883372e-01	 1.8513542180e+00	-4.2190908751e-01
 5.1724085421e-01	 1.8320888871e+00	-6.2409429455e-01
 4.9618576469e-01	 1.8379030112e+00	-5.7790904684e-01
 4.7512993821e-01	 1.8434585250e+00	-5.3185404540e-01
 4.5407779488e-01	 1.8487566491e+00	-4.8728759485e-01
 4.3303369844e-01	 1.8537986966e+00	-4.4617614958e-01
 4.1200195416e-01	 1.8585860704e+00	-4.1242127359e-01
 5.1925346454e-01	 1.8392176376e+00	-6.1517500136e-01
 4.9811644860e-01	 1.8450543847e+00	-5.6778015896e-01
 4.7697869283e-01	 1.8506315153e+00	-5.1965572076e-01
 4.5584463454e-01	 1.8559502548e+00	-4.7432671521e-01
 4.3471865446e-01	 1.8610119211e+00	-4.3613692742e-01
 4.1360507461e-01	 1.8658179229e+00	-4.0455915010e-01
 5.2126607487e-01	 1.8463463882e+00	-6.0570958189e-01
 5.0004713250e-01	 1.8522057583e+00	-5.5570240648e-01
 4.7882744746e-01	 1.8578045057e+00	-5.0781905466e-01
 4.5761147421e-01	 1.8631438604e+00	-4.6575122359e-01
 4.3640361049e-01	 1.8682251456e+00	-4.2937952612e-01
 4.1520819505e-01	 1.8730497753e+00	-3.9850045374e-01
 5.2327868520e-01	 1.8534751387e+00	-5.9587684629e-01
 5.0197781641e-01	 1.8593571319e+00	-5.4800081150e-01
 4.8067620208e-01	 1.8649774961e+00	-5.0329945579e-01
 4.5937831388e-01	 1.8703374660e+00	-4.6239618648e-01
 4.3808856651e-01	 1.8754383701e+00	-4.2591085639e-01
 4.1681131550e-01	 1.8802816277e+00	-3.9440351937e-01
 4.0879571328e-01	 1.8441223656e+00	-4.2914055344e-01
 3.8794410792e-01	 1.8486212710e+00	-3.9807562509e-01
 3.6711312004e-01	 1.8528705275e+00	-3.5887482847e-01
 3.4630683554e-01	 1.8568717808e+00	-3.1926271005e-01
 3.2552927477e-01	 1.8606267562e+00	-2.8742888285e-01
 3.0478439093e-01	 1.8641372561e+00	-2.6178708309e-01
 4.1039883372e-01	 1.8513542180e+00	-4.2190908751e-01
 3.8946545736e-01	 1.8558707662e+00	-3.9089774846e-01
 3.6855277933e-01	 1.8601366864e+00	-3.5363958874e-01
 3.4766490156e-01	 1.8641536309e+00	-3.1377828259e-01
 3.2680586017e-01	 1.8679233317e+00	-2.8059220075e-01
 3.0597962384e-01	 1.8714475983e+00	-2.5347280101e-01
 4.1200195416e-01	 1.8585860704e+00	-4.1242127359e-01
 3.9098680680e-01	 1.8631202614e+00	-3.8360702903e-01
 3.6999243863e-01	 1.8674028454e+00	-3.4833570806e-01
 3.4902296758e-01	 1.8714354810e+00	-3.0841927401e-01
 3.2808244556e-01	 1.8752199072e+00	-2.7435883357e-01
 3.0717485674e-01	 1.8787579405e+00	-2.4630383721e-01
 4.1360507461e-01	 1.8658179229e+00	-4.0455915010e-01
 3.9250815625e-01	 1.8703697566e+00	-3.7698706190e-01
 3.7143209792e-01	 1.8746690043e+00	-3.4333057285e-01
 3.5038103360e-01	 1.8787173311e+00	-3.0360691354e-01
 3.2935903095e-01	 1.8825164827e+00	-2.6912643533e-01
 3.0837008965e-01	 1.8860682827e+00	-2.4060750044e-01
 4.1520819505e-01	 1.8730497753e+00	-3.9850045374e-01
 3.9402950569e-01	 1.8776192518e+00	-3.7135569820e-01
 3.7287175722e-01	 1.8819351632e+00	-3.3895931681e-01
 3.5173909962e-01	 1.8859991813e+00	-2.9975944691e-01
 3.3063561634e-01	 1.8898130582e+00	-2.6529041281e-01
 3.0956532256e-01	 1.8933786248e+00	-2.3671017164e-01
 4.1681131550e-01	 1.8802816277e+00	-3.9440351937e-01
 3.9555085513e-01	 1.8848687469e+00	-3.6702535305e-01
 3.7431141651e-01	 1.8892013222e+00	-3.3563243943e-01
 3.5309716565e-01	 1.8932810314e+00	-2.9729207558e-01
 3.3191220173e-01	 1.8971096338e+00	-2.6324387850e-01
 3.1076055546e-01	 1.9006889670e+00	-2.3493725594e-01
 3.0478439093e-01	 1.8641372561e+00	-2.6178708309e-01
 2.8407606851e-01	 1.8674051574e+00	-2.3954024269e-01
 2.6340812188e-01	 1.8704324088e+00	-2.1990294465e-01
 2.4278429399e-01	 1.8732210284e+00	-2.0286293358e-01
 2.2220825513e-01	 1.8757731009e+00	-1.8785939670e-01
 2.0168360180e-01	 1.8780907751e+00	-1.7398266683e-01
 3.0597962384e-01	 1.8714475983e+00	-2.5347280101e-01
 2.8519009231e-01	 1.8747283149e+00	-2.3031270439e-01
 2.6444109491e-01	 1.8777674379e+00	-2.1029687501e-01
 2.4373638926e-01	 1.8805669932e+00	-1.9329091794e-01
 2.2307966005e-01	 1.8831290738e+00	-1.7860211517e-01
 2.0247451788e-01	 1.8854558369e+00	-1.6517874546e-01
 3.0717485674e-01	 1.8787579405e+00	-2.4630383721e-01
 2.8630411611e-01	 1.8820514724e+00	-2.2264948191e-01
 2.6547406794e-01	 1.8851024669e+00	-2.0252133496e-01
 2.4468848453e-01	 1.8879129580e+00	-1.8567945052e-01
 2.2395106497e-01	 1.8904850468e+00	-1.7131791965e-01
 2.0326543397e-01	 1.8928208988e+00	-1.5826362111e-01
 3.0837008965e-01	 1.8860682827e+00	-2.4060750044e-01
 2.8741813990e-01	 1.8893746298e+00	-2.1679136126e-01
 2.6650704096e-01	 1.8924374960e+00	-1.9674307496e-01
 2.4564057980e-01	 1.8952589228e+00	-1.8013377665e-01
 2.2482246989e-01	 1.8978410197e+00	-1.6606313816e-01
 2.0405635005e-01	 1.9001859606e+00	-1.5325736130e-01
 3.0956532256e-01	 1.8933786248e+00	-2.3671017164e-01
 2.8853216370e-01	 1.8966977873e+00	-2.1297963851e-01
 2.6754001399e-01	 1.8997725250e+00	-1.9313047823e-01
 2.4659267507e-01	 1.9026048876e+00	-1.7676159100e-01
 2.2569387482e-01	 1.9051969926e+00	-1.6289706826e-01
 2.0484726614e-01	 1.9075510225e+00	-1.5018323711e-01
 3.1076055546e-01	 1.9006889670e+00	-2.3493725594e-01
 2.8964618750e-01	 1.9040209448e+00	-2.1145606543e-01
 2.6857298702e-01	 1.9071075541e+00	-1.9185350287e-01
 2.4754477035e-01	 1.9099508525e+00	-1.7567297906e-01
 2.2656527974e-01	 1.9125529656e+00	-1.6188192071e-01
 2.0563818223e-01	 1.9149160844e+00	-1.4906767200e-01
 2.0168360180e-01	 1.8780907751e+00	-1.7398266683e-01
 1.8121385572e-01	 1.8801762612e+00	-1.5904816838e-01
 1.6080246289e-01	 1.8820318282e+00	-1.4284584690e-01
 1.4045279276e-01	 1.8836598014e+00	-1.2740842510e-01
 1.2016813749e-01	 1.8850625595e+00	-1.1505981120e-01
 9.9951711338e-02	 1.8862425321e+00	-1.0855734643e-01
 2.0247451788e-01	 1.8854558369e+00	-1.6517874546e-01
 1.8192449829e-01	 1.8875495014e+00	-1.5075775696e-01
 1.6143306079e-01	 1.8894123452e+00	-1.3517968250e-01
 1.4100358803e-01	 1.8910467026e+00	-1.2050992461e-01
 1.2063938509e-01	 1.8924549617e+00	-1.0908948692e-01
 1.0034367883e-01	 1.8936395617e+00	-1.0367594004e-01
 2.0326543397e-01	 1.8928208988e+00	-1.5826362111e-01
 1.8263514087e-01	 1.8949227416e+00	-1.4420351124e-01
 1.6206365868e-01	 1.8967928622e+00	-1.2905496467e-01
 1.4155438329e-01	 1.8984336038e+00	-1.1493578416e-01
 1.2111063269e-01	 1.8998473639e+00	-1.0422506676e-01
 1.0073564633e-01	 1.9010365912e+00	-9.9702702804e-02
 2.0405635005e-01	 1.9001859606e+00	-1.5325736130e-01
 1.8334578344e-01	 1.9022959819e+00	-1.3938200162e-01
 1.6269425658e-01	 1.9041733792e+00	-1.2445768655e-01
 1.4210517856e-01	 1.9058205050e+00	-1.1067449183e-01
 1.2158188029e-01	 1.9072397661e+00	-1.0047075804e-01
 1.0112761382e-01	 1.9084336207e+00	-9.6670934802e-02
 2.0484726614e-01	 1.9075510225e+00	-1.5018323711e-01
 1.8405642601e-01	 1.9096692221e+00	-1.3629296037e-01
 1.6332485447e-01	 1.9115538961e+00	-1.2137669574e-01
 1.4265597383e-01	 1.9132074062e+00	-1.0771682759e-01
 1.2205312789e-01	 1.9146321683e+00	-9.7832253150e-02
 1.0151958132e-01	 1.9158306503e+00	-9.4614381375e-02
 2.0563818223e-01	 1.9149160844e+00	-1.4906767200e-01
 1.8476706858e-01	 1.9170424624e+00	-1.3493923825e-01
 1.6395545236e-01	 1.9189344131e+00	-1.1980366154e-01
 1.4320676909e-01	 1.9205943074e+00	-1.0605584390e-01
 1.2252437548e-01	 1.9220245705e+00	-9.6316726350e-02
 1.0191154882e-01	 1.9232276798e+00	-9.3567248873e-02
 9.9951711338e-02	 1.8862425321e+00	-1.0855734643e-01
 7.9806650074e-02	 1.8872021972e+00	-1.0496534684e-01
 5.9736010557e-02	 1.8879440785e+00	-9.8959846088e-02
 3.9742770349e-02	 1.8884707429e+00	-9.0790766687e-02
 1.9829827429e-02	 1.8887847978e+00	-8.1697225695e-02
 0.0000000000e+00	 1.8888888889e+00	-7.4025674032e-02
 1.0034367883e-01	 1.8936395617e+00	-1.0367594004e-01
 8.0119617329e-02	 1.8946029901e+00	-1.0111718184e-01
 5.9970269422e-02	 1.8953477808e+00	-9.5791176998e-02
 3.9898624350e-02	 1.8958765105e+00	-8.7792346955e-02
 1.9907591459e-02	 1.8961917970e+00	-7.8177413742e-02
 0.0000000000e+00	 1.8962962963e+00	-6.9083125361e-02
 1.0073564633e-01	 1.9010365912e+00	-9.9702702804e-02
 8.0432584584e-02	 1.9020037831e+00	-9.7984826335e-02
 6.0204528287e-02	 1.9027514831e+00	-9.3145770703e-02
 4.0054478352e-02	 1.9032822781e+00	-8.5159759656e-02
 1.9985355488e-02	 1.9035987962e+00	-7.4933462207e-02
 0.0000000000e+00	 1.9037037037e+00	-6.4423229469e-02
 1.0112761382e-01	 1.9084336207e+00	-9.6670934802e-02
 8.0745551839e-02	 1.9094045760e+00	-9.5630566265e-02
 6.0438787152e-02	 1.9101551853e+00	-9.1101268303e-02
 4.0210332353e-02	 1.9106880458e+00	-8.2972461981e-02
 2.0063119517e-02	 1.9110057955e+00	-7.2033209391e-02
 0.0000000000e+00	 1.9111111111e+00	-6.0088884521e-02
 1.0151958132e-01	 1.9158306503e+00	-9.4614381375e-02
 8.1058519094e-02	 1.9168053689e+00	-9.4116081894e-02
 6.0673046017e-02	 1.9175588876e+00	-8.9733865814e-02
 4.0366186354e-02	 1.9180938134e+00	-8.1307850450e-02
 2.0140883546e-02	 1.9184127947e+00	-6.9542053200e-02
 0.0000000000e+00	 1.9185185185e+00	-5.6120416127e-02
 1.0191154882e-01	 1.9232276798e+00	-9.3567248873e-02
 8.1371486350e-02	 1.9242061619e+00	-9.3502481186e-02
 6.0907304882e-02	 1.9249625899e+00	-8.9118359729e-02
 4.0522040356e-02	 1.9254995810e+00	-8.0241313238e-02
 2.0218647575e-02	 1.9258197939e+00	-6.7523004776e-02
 0.0000000000e+00	 1.9259259259e+00	-5.2555626810e-02
 1.9259259259e+00	 0.0000000000e+00	 2.9758571613e+00
 1.9258197939e+00	 2.0218647575e-02	 2.9708426527e+00
 1.9254995810e+00	 4.0522040356e-02	 2.9601098976e+00
 1.9249625899e+00	 6.0907304882e-02	 2.9445863106e+00
 1.9242061619e+00	 8.1371486350e-02	 2.9259519243e+00
 1.9232276798e+00	 1.0191154882e-01	 2.9065217737e+00
 1.9333333333e+00	 0.0000000000e+00	 2.9639414615e+00
 1.9332267931e+00	 2.0296411604e-02	 2.9567497996e+00
 1.9329053486e+00	 4.0677894357e-02	 2.9446972288e+00
 1.9323662921e+00	 6.1141563747e-02	 2.9285384186e+00
 1.9316069548e+00	 8.1684453605e-02	 2.9097598415e+00
 1.9306247093e+00	 1.0230351631e-01	 2.8904639776e+00
 1.9407407407e+00	 0.0000000000e+00	 2.9538502516e+00
 1.9406337923e+00	 2.0374175633e-02	 2.9430106830e+00
 1.9403111162e+00	 4.0833748358e-02	 2.9289048295e+00
 1.9397699944e+00	 6.1375822612e-02	 2.9118927322e+00
 1.9390077477e+00	 8.1997420860e-02	 2.8930413162e+00
 1.9380217389e+00	 1.0269548381e-01	 2.8740108539e+00
 1.9481481481e+00	 0.0000000000e+00	 2.9456273442e+00
 1.9480407915e+00	 2.0451939663e-02	 2.9296451708e+00
 1.9477168838e+00	 4.0989602360e-02	 2.9127331746e+00
 1.9471736967e+00	 6.1610081477e-02	 2.8946370591e+00
 1.9464085407e+00	 8.2310388115e-02	 2.8757804056e+00
 1.9454187684e+00	 1.0308745130e-01	 2.8571538332e+00
 1.9555555556e+00	 0.0000000000e+00	 2.9393164160e+00
 1.9554477907e+00	 2.0529703692e-02	 2.9166732624e+00
 1.9551226515e+00	 4.1145456361e-02	 2.8961831528e+00
 1.9545773989e+00	 6.1844340342e-02	 2.8767598734e+00
 1.9538093336e+00	 8.2623355370e-02	 2.8579620097e+00
 1.9528157980e+00	 1.0347941880e-01	 2.8398852415e+00
 1.9629629630e+00	 0.0000000000e+00	 2.9349610109e+00
 1.9628547899e+00	 2.0607467721e-02	 2.9041150857e+00
 1.9625284191e+00	 4.1301310363e-02	 2.8792560583e+00
 1.9619811012e+00	 6.2078599206e-02	 2.8582503027e+00
 1.9612101265e+00	 8.2936322626e-02	 2.8395718551e+00
 1.9602128275e+00	 1.0387138629e-01	 2.8221982833e+00
 1.9232276798e+00	 1.0191154882e-01	 2.9065217737e+00
 1.9220245705e+00	 1.2252437548e-01	 2.8882534020e+00
 1.9205943074e+00	 1.4320676909e-01	 2.8699255525e+00
 1.9189344131e+00	 1.6395545236e-01	 2.8496265876e+00
 1.9170424624e+00	 1.8476706858e-01	 2.8255179584e+00
 1.9149160844e+00	 2.0563818223e-01	 2.7956855466e+00
 1.9306247093e+00	 1.0230351631e-01	 2.8904639776e+00
 1.9294169727e+00	 1.2299562308e-01	 2.8726102215e+00
 1.9279812085e+00	 1.4375756436e-01	 2.8550432316e+00
 1.9263149301e+00	 1.6458605026e-01	 2.8357180500e+00
 1.9244157026e+00	 1.8547771115e-01	 2.8126597224e+00
 1.9222811462e+00	 2.0642909831e-01	 2.7838171811e+00
 1.9380217389e+00	 1.0269548381e-01	 2.8740108539e+00
 1.9368093749e+00	 1.2346687068e-01	 2.8565949548e+00
 1.9353681097e+00	 1.4430835962e-01	 2.8397152542e+00
 1.9336954471e+00	 1.6521664815e-01	 2.8212302842e+00
 1.9317889428e+00	 1.8618835372e-01	 2.7990667517e+00
 1.9296462081e+00	 2.0722001440e-01	 2.7710760518e+00
 1.9454187684e+00	 1.0308745130e-01	 2.8571538332e+00
 1.9442017771e+00	 1.2393811828e-01	 2.8402165465e+00
 1.9427550109e+00	 1.4485915489e-01	 2.8239751737e+00
 1.9410759640e+00	 1.6584724604e-01	 2.8062276598e+00
 1.9391621831e+00	 1.8689899629e-01	 2.7848395390e+00
 1.9370112700e+00	 2.0801093048e-01	 2.7576031708e+00
 1.9528157980e+00	 1.0347941880e-01	 2.8398852415e+00
 1.9515941793e+00	 1.2440936588e-01	 2.8234847669e+00
 1.9501419121e+00	 1.4540995015e-01	 2.8078572090e+00
 1.9484564810e+00	 1.6647784394e-01	 2.7907749608e+00
 1.9465354233e+00	 1.8760963887e-01	 2.7700786485e+00
 1.9443763318e+00	 2.0880184657e-01	 2.7435391868e+00
 1.9602128275e+00	 1.0387138629e-01	 2.8221982833e+00
 1.9589865815e+00	 1.2488061347e-01	 2.8064101967e+00
 1.9575288133e+00	 1.4596074542e-01	 2.7913962323e+00
 1.9558369980e+00	 1.6710844183e-01	 2.7749373774e+00
 1.9539086636e+00	 1.8832028144e-01	 2.7548847124e+00
 1.9517413937e+00	 2.0959276265e-01	 2.7290243871e+00
 1.9149160844e+00	 2.0563818223e-01	 2.7956855466e+00
 1.9125529656e+00	 2.2656527974e-01	 2.7597314825e+00
 1.9099508525e+00	 2.4754477035e-01	 2.7196343306e+00
 1.9071075541e+00	 2.6857298702e-01	 2.6764428495e+00
 1.9040209448e+00	 2.8964618750e-01	 2.6304353336e+00
 1.9006889670e+00	 3.1076055546e-01	 2.5808923295e+00
 1.9222811462e+00	 2.0642909831e-01	 2.7838171811e+00
 1.9199089385e+00	 2.2743668466e-01	 2.7486001616e+00
 1.9172968173e+00	 2.4849686562e-01	 2.7089082608e+00
 1.9144425831e+00	 2.6960596004e-01	 2.6658297382e+00
 1.9113441023e+00	 2.9076021130e-01	 2.6196908041e+00
 1.9079993092e+00	 3.1195578837e-01	 2.5698300400e+00
 1.9296462081e+00	 2.0722001440e-01	 2.7710760518e+00
 1.9272649115e+00	 2.2830808958e-01	 2.7364969558e+00
 1.9246427821e+00	 2.4944896089e-01	 2.6971514238e+00
 1.9217776122e+00	 2.7063893307e-01	 2.6541772038e+00
 1.9186672598e+00	 2.9187423510e-01	 2.6079580326e+00
 1.9153096514e+00	 3.1315102127e-01	 2.5578998476e+00
 1.9370112700e+00	 2.0801093048e-01	 2.7576031708e+00
 1.9346208844e+00	 2.2917949450e-01	 2.7236005644e+00
 1.9319887469e+00	 2.5040105616e-01	 2.6845703512e+00
 1.9291126412e+00	 2.7167190610e-01	 2.6417091648e+00
 1.9259904172e+00	 2.9298825890e-01	 2.5954673094e+00
 1.9226199936e+00	 3.1434625418e-01	 2.5453268549e+00
 1.9443763318e+00	 2.0880184657e-01	 2.7435391868e+00
 1.9419768574e+00	 2.3005089943e-01	 2.7100888912e+00
 1.9393347117e+00	 2.5135315143e-01	 2.6713704434e+00
 1.9364476703e+00	 2.7270487913e-01	 2.6286481634e+00
 1.9333135747e+00	 2.9410228269e-01	 2.5824473894e+00
 1.9299303357e+00	 3.1554148708e-01	 2.5323345529e+00
 1.9517413937e+00	 2.0959276265e-01	 2.7290243871e+00
 1.9493328303e+00	 2.3092230435e-01	 2.6961390510e+00
 1.9466806765e+00	 2.5230524670e-01	 2.6577559762e+00
 1.9437826993e+00	 2.7373785215e-01	 2.6152153696e+00
 1.9406367322e+00	 2.9521630649e-01	 2.5691254917e+00
 1.9372406779e+00	 3.1673671999e-01	 2.5191448105e+00
 1.9006889670e+00	 3.1076055546e-01	 2.5808923295e+00
 1.8971096338e+00	 3.3191220173e-01	 2.5263940206e+00
 1.8932810314e+00	 3.5309716565e-01	 2.4651024404e+00
 1.8892013222e+00	 3.7431141651e-01	 2.3934314073e+00
 1.8848687469e+00	 3.9555085513e-01	 2.3111543884e+00
 1.8802816277e+00	 4.1681131550e-01	 2.2271610170e+00
 1.9079993092e+00	 3.1195578837e-01	 2.5698300400e+00
 1.9044062093e+00	 3.3318878712e-01	 2.5148626897e+00
 1.9005628815e+00	 3.5445523167e-01	 2.4530084231e+00
 1.8964674811e+00	 3.7575107580e-01	 2.3808273139e+00
 1.8921182421e+00	 3.9707220458e-01	 2.2987249180e+00
 1.8875134801e+00	 4.1841443594e-01	 2.2153930552e+00
 1.9153096514e+00	 3.1315102127e-01	 2.5578998476e+00
 1.9117027848e+00	 3.3446537251e-01	 2.5026379611e+00
 1.9078447316e+00	 3.5581329769e-01	 2.4403891371e+00
 1.9037336400e+00	 3.7719073510e-01	 2.3678183271e+00
 1.8993677373e+00	 3.9859355402e-01	 2.2858611553e+00
 1.8947453325e+00	 4.2001755638e-01	 2.2028969435e+00
 1.9226199936e+00	 3.1434625418e-01	 2.5453268549e+00
 1.9189993603e+00	 3.3574195790e-01	 2.4899410402e+00
 1.9151265817e+00	 3.5717136371e-01	 2.4274766505e+00
 1.9109997989e+00	 3.7863039439e-01	 2.3546627691e+00
 1.9066172325e+00	 4.0011490346e-01	 2.2728544358e+00
 1.9019771849e+00	 4.2162067683e-01	 2.1900152676e+00
 1.9299303357e+00	 3.1554148708e-01	 2.5323345529e+00
 1.9262959358e+00	 3.3701854330e-01	 2.4769913196e+00
 1.9224084319e+00	 3.5852942973e-01	 2.4145006773e+00
 1.9182659579e+00	 3.8007005369e-01	 2.3416149331e+00
 1.9138667277e+00	 4.0163625290e-01	 2.2599912882e+00
 1.9092090373e+00	 4.2322379727e-01	 2.1770847554e+00
 1.9372406779e+00	 3.1673671999e-01	 2.5191448105e+00
 1.9335925113e+00	 3.3829512869e-01	 2.4640063592e+00
 1.9296902820e+00	 3.5988749576e-01	 2.4016885527e+00
 1.9255321168e+00	 3.8150971298e-01	 2.3289251235e+00
 1.9211162228e+00	 4.0315760235e-01	 2.2475534902e+00
 1.9164408898e+00	 4.2482691772e-01	 2.1644363536e+00
 1.8802816277e+00	 4.1681131550e-01	 2.2271610170e+00
 1.8754383701e+00	 4.3808856651e-01	 2.1456263666e+00
 1.8703374660e+00	 4.5937831388e-01	 2.0636597843e+00
 1.8649774961e+00	 4.8067620208e-01	 1.9804003998e+00
 1.8593571319e+00	 5.0197781641e-01	 1.8949391434e+00
 1.8534751387e+00	 5.2327868520e-01	 1.8063798310e+00
 1.8875134801e+00	 4.1841443594e-01	 2.2153930552e+00
 1.8826515946e+00	 4.3977352254e-01	 2.1349078420e+00
 1.8775310717e+00	 4.6114515355e-01	 2.0541455794e+00
 1.8721504865e+00	 4.8252495670e-01	 1.9715757144e+00
 1.8665085055e+00	 5.0390850032e-01	 1.8856383331e+00
 1.8606038892e+00	 5.2529129552e-01	 1.7948066796e+00
 1.8947453325e+00	 4.2001755638e-01	 2.2028969435e+00
 1.8898648191e+00	 4.4145847856e-01	 2.1229628370e+00
 1.8847246773e+00	 4.6291199322e-01	 2.0429650499e+00
 1.8793234768e+00	 4.8437371133e-01	 1.9609541755e+00
 1.8736598791e+00	 5.0583918423e-01	 1.8749650826e+00
 1.8677326398e+00	 5.2730390585e-01	 1.7830801987e+00
 1.9019771849e+00	 4.2162067683e-01	 2.1900152676e+00
 1.8970780436e+00	 4.4314343459e-01	 2.1101665580e+00
 1.8919182830e+00	 4.6467883289e-01	 2.0304680391e+00
 1.8864964672e+00	 4.8622246595e-01	 1.9487993780e+00
 1.8808112527e+00	 5.0776986814e-01	 1.8630329730e+00
 1.8748613903e+00	 5.2931651618e-01	 1.7710973379e+00
 1.9092090373e+00	 4.2322379727e-01	 2.1770847554e+00
 1.9042912681e+00	 4.4482839061e-01	 2.0968875915e+00
 1.8991118886e+00	 4.6644567256e-01	 2.0169978977e+00
 1.8936694576e+00	 4.8807122057e-01	 1.9353694870e+00
 1.8879626262e+00	 5.0970055205e-01	 1.8499522016e+00
 1.8819901408e+00	 5.3132912651e-01	 1.7587547375e+00
 1.9164408898e+00	 4.2482691772e-01	 2.1644363536e+00
 1.9115044926e+00	 4.4651334664e-01	 2.0834879974e+00
 1.9063054942e+00	 4.6821251223e-01	 2.0028915768e+00
 1.9008424479e+00	 4.8991997520e-01	 1.9209173143e+00
 1.8951139998e+00	 5.1163123596e-01	 1.8358296239e+00
 1.8891188914e+00	 5.3334173684e-01	 1.7459487178e+00
 1.8534751387e+00	 5.2327868520e-01	 1.8063798310e+00
 1.8473303775e+00	 5.4457428203e-01	 1.7146428049e+00
 1.8409218073e+00	 5.6586002819e-01	 1.6179567943e+00
 1.8342484877e+00	 5.8713129506e-01	 1.5182866914e+00
 1.8273095804e+00	 6.0838340676e-01	 1.4187430892e+00
 1.8201043518e+00	 6.2961164279e-01	 1.3233594837e+00
 1.8606038892e+00	 5.2529129552e-01	 1.7948066796e+00
 1.8544354943e+00	 5.4666879850e-01	 1.7005024985e+00
 1.8480022758e+00	 5.6803641291e-01	 1.6061034997e+00
 1.8413032895e+00	 5.8938949235e-01	 1.5080380082e+00
 1.8343376941e+00	 6.1072334294e-01	 1.4089573715e+00
 1.8271047531e+00	 6.3203322603e-01	 1.3132225444e+00
 1.8677326398e+00	 5.2730390585e-01	 1.7830801987e+00
 1.8615406111e+00	 5.4876331497e-01	 1.6859512741e+00
 1.8550827443e+00	 5.7021279763e-01	 1.5883098281e+00
 1.8483580914e+00	 5.9164768964e-01	 1.4931736431e+00
 1.8413658079e+00	 6.1306327912e-01	 1.3968654900e+00
 1.8341051545e+00	 6.3445480928e-01	 1.3025005937e+00
 1.8748613903e+00	 5.2931651618e-01	 1.7710973379e+00
 1.8686457280e+00	 5.5085783144e-01	 1.6729783037e+00
 1.8621632128e+00	 5.7238918236e-01	 1.5727570614e+00
 1.8554128933e+00	 5.9390588692e-01	 1.4747425756e+00
 1.8483939217e+00	 6.1540321530e-01	 1.3821462028e+00
 1.8411055559e+00	 6.3687639252e-01	 1.2910535705e+00
 1.8819901408e+00	 5.3132912651e-01	 1.7587547375e+00
 1.8757508448e+00	 5.5295234791e-01	 1.6612729274e+00
 1.8692436813e+00	 5.7456556708e-01	 1.5607108808e+00
 1.8624676952e+00	 5.9616408421e-01	 1.4608940933e+00
 1.8554220355e+00	 6.1774315148e-01	 1.3659343126e+00
 1.8481059572e+00	 6.3929797576e-01	 1.2787463220e+00
 1.8891188914e+00	 5.3334173684e-01	 1.7459487178e+00
 1.8828559616e+00	 5.5504686438e-01	 1.6505271152e+00
 1.8763241498e+00	 5.7674195180e-01	 1.5517406889e+00
 1.8695224970e+00	 5.9842228150e-01	 1.4525665119e+00
 1.8624501492e+00	 6.2008308766e-01	 1.3562971490e+00
 1.8551063586e+00	 6.4171955900e-01	 1.2666233141e+00
 1.8201043518e+00	 6.2961164279e-01	 1.3233594837e+00
 1.8126321748e+00	 6.5081124077e-01	 1.2326278450e+00
 1.8048925306e+00	 6.7197739933e-01	 1.1418829315e+00
 1.7968850107e+00	 6.9310528102e-01	 1.0489623725e+00
 1.7886093185e+00	 7.1419001535e-01	 9.5278767265e-01
 1.7800652710e+00	 7.3522670190e-01	 8.5333085146e-01
 1.8271047531e+00	 6.3203322603e-01	 1.3132225444e+00
 1.8196038370e+00	 6.5331436093e-01	 1.2222604846e+00
 1.8118344249e+00	 6.7456192779e-01	 1.1319388708e+00
 1.8037961069e+00	 6.9577107056e-01	 1.0398846267e+00
 1.7954885851e+00	 7.1693690002e-01	 9.4485981890e-01
 1.7869116759e+00	 7.3805449691e-01	 8.4672865127e-01
 1.8341051545e+00	 6.3445480928e-01	 1.3025005937e+00
 1.8265754992e+00	 6.5581748109e-01	 1.2122032971e+00
 1.8187763193e+00	 6.7714645625e-01	 1.1225456177e+00
 1.8107072031e+00	 6.9843686010e-01	 1.0311877298e+00
 1.8023678517e+00	 7.1968378470e-01	 9.3697326465e-01
 1.7937580808e+00	 7.4088229192e-01	 8.3989602943e-01
 1.8411055559e+00	 6.3687639252e-01	 1.2910535705e+00
 1.8335471614e+00	 6.5832060124e-01	 1.2025206850e+00
 1.8257182136e+00	 6.7973098471e-01	 1.1139190687e+00
 1.8176182993e+00	 7.0110264965e-01	 1.0231831478e+00
 1.8092471183e+00	 7.2243066937e-01	 9.2947624987e-01
 1.8006044856e+00	 7.4371008693e-01	 8.3314611300e-01
 1.8481059572e+00	 6.3929797576e-01	 1.2787463220e+00
 1.8405188236e+00	 6.6082372140e-01	 1.1932778691e+00
 1.8326601080e+00	 6.8231551317e-01	 1.1062725009e+00
 1.8245293955e+00	 7.0376843919e-01	 1.0161769893e+00
 1.8161263849e+00	 7.2517755405e-01	 9.2270966598e-01
 1.8074508905e+00	 7.4653788193e-01	 8.2677281611e-01
 1.8551063586e+00	 6.4171955900e-01	 1.2666233141e+00
 1.8474904858e+00	 6.6332684156e-01	 1.1845405409e+00
 1.8396020023e+00	 6.8490004163e-01	 1.0998162416e+00
 1.8314404916e+00	 7.0643422873e-01	 1.0104696757e+00
 1.8230056515e+00	 7.2792443872e-01	 9.1700671000e-01
 1.8142972954e+00	 7.4936567694e-01	 8.2106496062e-01
 1.7800652710e+00	 7.3522670190e-01	 8.5333085146e-01
 1.7712528003e+00	 7.5621041352e-01	 7.5369044921e-01
 1.7621719551e+00	 7.7713619956e-01	 6.5582248376e-01
 1.7528229020e+00	 7.9799908923e-01	 5.5866504216e-01
 1.7432059265e+00	 8.1879409500e-01	 4.6134168326e-01
 1.7333214344e+00	 8.3951621610e-01	 3.6311689442e-01
 1.7869116759e+00	 7.3805449691e-01	 8.4672865127e-01
 1.7780653111e+00	 7.5911891511e-01	 7.4803375609e-01
 1.7689495396e+00	 7.8012518494e-01	 6.5027370451e-01
 1.7595645285e+00	 8.0106831649e-01	 5.5276601888e-01
 1.7499105647e+00	 8.2194330306e-01	 4.5501598887e-01
 1.7399880553e+00	 8.4274512462e-01	 3.5666906177e-01
 1.7937580808e+00	 7.4088229192e-01	 8.3989602943e-01
 1.7848778219e+00	 7.6202741670e-01	 7.4196865579e-01
 1.7757271240e+00	 7.8311417032e-01	 6.4430439766e-01
 1.7663061551e+00	 8.0413754376e-01	 5.4652471159e-01
 1.7566152028e+00	 8.2509251112e-01	 4.4843755637e-01
 1.7466546762e+00	 8.4597403314e-01	 3.4999191762e-01
 1.8006044856e+00	 7.4371008693e-01	 8.3314611300e-01
 1.7916903326e+00	 7.6493591829e-01	 7.3575087543e-01
 1.7825047085e+00	 7.8610315571e-01	 6.3813243663e-01
 1.7730477816e+00	 8.0720677103e-01	 5.4013351777e-01
 1.7633198410e+00	 8.2824171918e-01	 4.4178649527e-01
 1.7533212971e+00	 8.4920294167e-01	 3.4326728222e-01
 1.8074508905e+00	 7.4653788193e-01	 8.2677281611e-01
 1.7985028434e+00	 7.6784441988e-01	 7.2962875304e-01
 1.7892822929e+00	 7.8909214109e-01	 6.3196898674e-01
 1.7797894082e+00	 8.1027599829e-01	 5.3377861053e-01
 1.7700244792e+00	 8.3139092724e-01	 4.3523696159e-01
 1.7599879180e+00	 8.5243185019e-01	 3.3667106511e-01
 1.8142972954e+00	 7.4936567694e-01	 8.2106496062e-01
 1.8053153542e+00	 7.7075292147e-01	 7.2384340439e-01
 1.7960598774e+00	 7.9208112647e-01	 6.2601866631e-01
 1.7865310347e+00	 8.1334522556e-01	 5.2764009719e-01
 1.7767291174e+00	 8.3454013529e-01	 4.2895731746e-01
 1.7666545389e+00	 8.5566075871e-01	 3.3037342957e-01
 1.7333214344e+00	 8.3951621610e-01	 3.6311689442e-01
 1.7231699528e+00	 8.6016044196e-01	 2.6162668880e-01
 1.7127521306e+00	 8.8072175591e-01	 1.5670464391e-01
 1.7020687395e+00	 9.0119513871e-01	 5.0923124849e-02
 1.6911206748e+00	 9.2157557229e-01	-5.3301126897e-02
 1.6799089553e+00	 9.4185804346e-01	-1.5380293224e-01
 1.7399880553e+00	 8.4274512462e-01	 3.5666906177e-01
 1.7297975295e+00	 8.6346875136e-01	 2.5552398041e-01
 1.7193396388e+00	 8.8410914728e-01	 1.5120894422e-01
 1.7086151578e+00	 9.0466127386e-01	 4.6132964801e-02
 1.6976249851e+00	 9.2512009372e-01	-5.7438809431e-02
 1.6863701436e+00	 9.4548057439e-01	-1.5748182000e-01
 1.7466546762e+00	 8.4597403314e-01	 3.4999191762e-01
 1.7364251063e+00	 8.6677706075e-01	 2.4915203826e-01
 1.7259271470e+00	 8.8749653865e-01	 1.4540419770e-01
 1.7151615760e+00	 9.0812740901e-01	 4.1008504725e-02
 1.7041292954e+00	 9.2866461515e-01	-6.1907750353e-02
 1.6928313319e+00	 9.4910310533e-01	-1.6144765618e-01
 1.7533212971e+00	 8.4920294167e-01	 3.4326728222e-01
 1.7430526830e+00	 8.7008537014e-01	 2.4269745966e-01
 1.7325146552e+00	 8.9088393002e-01	 1.3947320816e-01
 1.7217079942e+00	 9.1159354416e-01	 3.5719953639e-02
 1.7106336057e+00	 9.3220913659e-01	-6.6559346958e-02
 1.6992925202e+00	 9.5272563627e-01	-1.6558264497e-01
 1.7599879180e+00	 8.5243185019e-01	 3.3667106511e-01
 1.7496802598e+00	 8.7339367953e-01	 2.3634090885e-01
 1.7391021634e+00	 8.9427132139e-01	 1.3359293286e-01
 1.7282544125e+00	 9.1505967930e-01	 3.0431870805e-02
 1.7171379159e+00	 9.3575365802e-01	-7.1250337693e-02
 1.7057537085e+00	 9.5634816720e-01	-1.6977390975e-01
 1.7666545389e+00	 8.5566075871e-01	 3.3037342957e-01
 1.7563078365e+00	 8.7670198893e-01	 2.3025728692e-01
 1.7456896716e+00	 8.9765871275e-01	 1.2793465512e-01
 1.7348008307e+00	 9.1852581445e-01	 2.5303338389e-02
 1.7236422262e+00	 9.3929817945e-01	-7.5842632303e-02
 1.7122148968e+00	 9.5997069814e-01	-1.7391332892e-01
 1.6799089553e+00	 9.4185804346e-01	-1.5380293224e-01
 1.6684347243e+00	 9.6203754764e-01	-2.5049976715e-01
 1.6566992492e+00	 9.8210909267e-01	-3.4472997021e-01
 1.6447039222e+00	 1.0020677026e+00	-4.3712863659e-01
 1.6324502596e+00	 1.0219084215e+00	-5.2898987574e-01
 1.6199399022e+00	 1.0416263175e+00	-6.2239924065e-01
 1.6863701436e+00	 9.4548057439e-01	-1.5748182000e-01
 1.6748517809e+00	 9.6573769205e-01	-2.5382185365e-01
 1.6630711694e+00	 9.8588643533e-01	-3.4757696050e-01
 1.6510297065e+00	 1.0059218092e+00	-4.3932199214e-01
 1.6387289145e+00	 1.0258388386e+00	-5.3029222254e-01
 1.6261704403e+00	 1.0456325726e+00	-6.2251830463e-01
 1.6928313319e+00	 9.4910310533e-01	-1.6144765618e-01
 1.6812688375e+00	 9.6943783647e-01	-2.5735476585e-01
 1.6694430896e+00	 9.8966377799e-01	-3.5055360303e-01
 1.6573554908e+00	 1.0097759157e+00	-4.4157056711e-01
 1.6450075693e+00	 1.0297692556e+00	-5.3159147341e-01
 1.6324009784e+00	 1.0496388276e+00	-6.2259901921e-01
 1.6992925202e+00	 9.5272563627e-01	-1.6558264497e-01
 1.6876858941e+00	 9.7313798088e-01	-2.6100964467e-01
 1.6758150098e+00	 9.9344112066e-01	-3.5358679390e-01
 1.6636812751e+00	 1.0136300222e+00	-4.4380364499e-01
 1.6512862242e+00	 1.0336996726e+00	-5.3280574774e-01
 1.6386315165e+00	 1.0536450827e+00	-6.2253460742e-01
 1.7057537085e+00	 9.5634816720e-01	-1.6977390975e-01
 1.6941029508e+00	 9.7683812529e-01	-2.6470218354e-01
 1.6821869299e+00	 9.9721846332e-01	-3.5660784236e-01
 1.6700070594e+00	 1.0174841288e+00	-4.4595501329e-01
 1.6575648790e+00	 1.0376300896e+00	-5.3385799254e-01
 1.6448620546e+00	 1.0576513378e+00	-6.2222367851e-01
 1.7122148968e+00	 9.5997069814e-01	-1.7391332892e-01
 1.7005200074e+00	 9.8053826971e-01	-2.6835246964e-01
 1.6885588501e+00	 1.0009958060e+00	-3.5955231388e-01
 1.6763328437e+00	 1.0213382353e+00	-4.4796280491e-01
 1.6638435338e+00	 1.0415605066e+00	-5.3467581864e-01
 1.6510925927e+00	 1.0616575928e+00	-6.2157005519e-01
 1.6199399022e+00	 1.0416263175e+00	-6.2239924065e-01
 1.6071746146e+00	 1.0612164861e+00	-7.1394615862e-01
 1.5941562845e+00	 1.0806740548e+00	-8.0005748582e-01
 1.5808869228e+00	 1.0999941861e+00	-8.8430371079e-01
 1.5673686620e+00	 1.1191720821e+00	-9.7048962553e-01
 1.5536037560e+00	 1.1382029879e+00	-1.0517891741e+00
 1.6261704403e+00	 1.0456325726e+00	-6.2251830463e-01
 1.6133560554e+00	 1.0652980880e+00	-7.1303122204e-01
 1.6002876549e+00	 1.0848304934e+00	-7.9876239991e-01
 1.5869672571e+00	 1.1042249330e+00	-8.8333694704e-01
 1.5733970030e+00	 1.1234765902e+00	-9.6902008426e-01
 1.5595791550e+00	 1.1425806917e+00	-1.0488297699e+00
 1.6324009784e+00	 1.0496388276e+00	-6.2259901921e-01
 1.6195374962e+00	 1.0693796899e+00	-7.1207400235e-01
 1.6064190252e+00	 1.0889869321e+00	-7.9744798674e-01
 1.5930475914e+00	 1.1084556799e+00	-8.8238778715e-01
 1.5794253440e+00	 1.1277810982e+00	-9.6709319145e-01
 1.5655545541e+00	 1.1469583955e+00	-1.0456208457e+00
 1.6386315165e+00	 1.0536450827e+00	-6.2253460742e-01
 1.6257189370e+00	 1.0734612917e+00	-7.1094109732e-01
 1.6125503955e+00	 1.0931433708e+00	-7.9596464282e-01
 1.5991279257e+00	 1.1126864267e+00	-8.8126590107e-01
 1.5854536850e+00	 1.1320856062e+00	-9.6464750645e-01
 1.5715299532e+00	 1.1513360993e+00	-1.0421166277e+00
 1.6448620546e+00	 1.0576513378e+00	-6.2222367851e-01
 1.6319003779e+00	 1.0775428936e+00	-7.0950510156e-01
 1.6186817658e+00	 1.0972998095e+00	-7.9416923866e-01
 1.6052082601e+00	 1.1169171736e+00	-8.7947746403e-01
 1.5914820261e+00	 1.1363901142e+00	-9.6162232155e-01
 1.5775053522e+00	 1.1557138031e+00	-1.0382719248e+00
 1.6510925927e+00	 1.0616575928e+00	-6.2157005519e-01
 1.6380818187e+00	 1.0816244955e+00	-7.0764442466e-01
 1.6248131362e+00	 1.1014562481e+00	-7.9192493113e-01
 1.6112885944e+00	 1.1211479205e+00	-8.7685262513e-01
 1.5975103671e+00	 1.1406946222e+00	-9.5795764786e-01
 1.5834807513e+00	 1.1600915069e+00	-1.0340421150e+00
 1.5536037560e+00	 1.1382029879e+00	-1.0517891741e+00
 1.5395945784e+00	 1.1570821951e+00	-1.1274962842e+00
 1.5253436219e+00	 1.1758050464e+00	-1.2004358598e+00
 1.5108534966e+00	 1.1943669386e+00	-1.2725558656e+00
 1.4961269285e+00	 1.2127633264e+00	-1.3459307909e+00
 1.4811667582e+00	 1.2309897264e+00	-1.4227210828e+00
 1.5595791550e+00	 1.1425806917e+00	-1.0488297699e+00
 1.5455160960e+00	 1.1615325113e+00	-1.1237152522e+00
 1.5312103282e+00	 1.1803273735e+00	-1.1965916339e+00
 1.5166644716e+00	 1.1989606576e+00	-1.2690459778e+00
 1.5018812629e+00	 1.2174278007e+00	-1.3427660754e+00
 1.4868635534e+00	 1.2357243023e+00	-1.4195006599e+00
 1.5655545541e+00	 1.1469583955e+00	-1.0456208457e+00
 1.5514376136e+00	 1.1659828274e+00	-1.1198273633e+00
 1.5370770344e+00	 1.1848497006e+00	-1.1926575735e+00
 1.5224754466e+00	 1.2035543766e+00	-1.2653773178e+00
 1.5076355972e+00	 1.2220922751e+00	-1.3393266793e+00
 1.4925603487e+00	 1.2404588781e+00	-1.4158798285e+00
 1.5715299532e+00	 1.1513360993e+00	-1.0421166277e+00
 1.5573591312e+00	 1.1704331435e+00	-1.1158057443e+00
 1.5429437406e+00	 1.1893720277e+00	-1.1886211879e+00
 1.5282864216e+00	 1.2081480956e+00	-1.2615468054e+00
 1.5133899316e+00	 1.2267567494e+00	-1.3356135131e+00
 1.4982571439e+00	 1.2451934540e+00	-1.4118586645e+00
 1.5775053522e+00	 1.1557138031e+00	-1.0382719248e+00
 1.5632806489e+00	 1.1748834597e+00	-1.1116239011e+00
 1.5488104469e+00	 1.1938943548e+00	-1.1844702268e+00
 1.5340973966e+00	 1.2127418146e+00	-1.2575515337e+00
 1.5191442659e+00	 1.2314212237e+00	-1.3316276748e+00
 1.5039539391e+00	 1.2499280299e+00	-1.4074364997e+00
 1.5834807513e+00	 1.1600915069e+00	-1.0340421150e+00
 1.5692021665e+00	 1.1793337758e+00	-1.1072557068e+00
 1.5546771531e+00	 1.1984166819e+00	-1.1801926684e+00
 1.5399083715e+00	 1.2173355335e+00	-1.2533887578e+00
 1.5248986002e+00	 1.2360856981e+00	-1.3273704353e+00
 1.5096507343e+00	 1.2546626057e+00	-1.4026129363e+00
 1.4811667582e+00	 1.2309897264e+00	-1.4227210828e+00
 1.4659759388e+00	 1.2490417202e+00	-1.4951280803e+00
 1.4505575343e+00	 1.2669149584e+00	-1.5569864349e+00
 1.4349147173e+00	 1.2846051636e+00	-1.6113515020e+00
 1.4190507671e+00	 1.3021081340e+00	-1.6597444682e+00
 1.4029690674e+00	 1.3194197468e+00	-1.7024280764e+00
 1.4868635534e+00	 1.2357243023e+00	-1.4195006599e+00
 1.4716143078e+00	 1.2538457269e+00	-1.4924292667e+00
 1.4561366017e+00	 1.2717877083e+00	-1.5543121020e+00
 1.4404336200e+00	 1.2895459527e+00	-1.6083748114e+00
 1.4245086546e+00	 1.3071162422e+00	-1.6565556184e+00
 1.4083651022e+00	 1.3244944381e+00	-1.6995099273e+00
 1.4925603487e+00	 1.2404588781e+00	-1.4158798285e+00
 1.4772526768e+00	 1.2586497335e+00	-1.4887410139e+00
 1.4617156692e+00	 1.2766604581e+00	-1.5508059362e+00
 1.4459525228e+00	 1.2944867418e+00	-1.6048600012e+00
 1.4299665422e+00	 1.3121243504e+00	-1.6531659658e+00
 1.4137611371e+00	 1.3295691294e+00	-1.6966786816e+00
 1.4982571439e+00	 1.2451934540e+00	-1.4118586645e+00
 1.4828910458e+00	 1.2634537401e+00	-1.4842108167e+00
 1.4672947366e+00	 1.2815332079e+00	-1.5465829423e+00
 1.4514714255e+00	 1.2994275309e+00	-1.6009047706e+00
 1.4354244298e+00	 1.3171324586e+00	-1.6496608499e+00
 1.4191571720e+00	 1.3346438208e+00	-1.6940130540e+00
 1.5039539391e+00	 1.2499280299e+00	-1.4074364997e+00
 1.4885294148e+00	 1.2682577467e+00	-1.4791811918e+00
 1.4728738040e+00	 1.2864059578e+00	-1.5417579256e+00
 1.4569903283e+00	 1.3043683200e+00	-1.5966071482e+00
 1.4408823173e+00	 1.3221405668e+00	-1.6461264733e+00
 1.4245532069e+00	 1.3397185121e+00	-1.6915931403e+00
 1.5096507343e+00	 1.2546626057e+00	-1.4026129363e+00
 1.4941677838e+00	 1.2730617533e+00	-1.4737601187e+00
 1.4784528715e+00	 1.2912787076e+00	-1.5364451096e+00
 1.4625092311e+00	 1.3093091090e+00	-1.5920651179e+00
 1.4463402049e+00	 1.3271486750e+00	-1.6426495378e+00
 1.4299492417e+00	 1.3447932034e+00	-1.6895000657e+00
 1.4029690674e+00	 1.3194197468e+00	-1.7024280764e+00
 1.3866731037e+00	 1.3365359612e+00	-1.7455747834e+00
 1.3701664612e+00	 1.3534528217e+00	-1.7922030411e+00
 1.3534528217e+00	 1.3701664612e+00	-1.8367502213e+00
 1.3365359612e+00	 1.3866731037e+00	-1.8734919180e+00
 1.3194197468e+00	 1.4029690674e+00	-1.8968863795e+00
 1.4083651022e+00	 1.3244944381e+00	-1.6995099273e+00
 1.3920064618e+00	 1.3416764841e+00	-1.7431927149e+00
 1.3754363322e+00	 1.3586584095e+00	-1.7902099385e+00
 1.3586584095e+00	 1.3754363322e+00	-1.8350773452e+00
 1.3416764841e+00	 1.3920064618e+00	-1.8721456570e+00
 1.3244944381e+00	 1.4083651022e+00	-1.8959540980e+00
 1.4137611371e+00	 1.3295691294e+00	-1.6966786816e+00
 1.3973398199e+00	 1.3468170070e+00	-1.7410338383e+00
 1.3807062032e+00	 1.3638639973e+00	-1.7884372774e+00
 1.3638639973e+00	 1.3807062032e+00	-1.8335605521e+00
 1.3468170070e+00	 1.3973398199e+00	-1.8709065199e+00
 1.3295691294e+00	 1.4137611371e+00	-1.8951719918e+00
 1.4191571720e+00	 1.3346438208e+00	-1.6940130540e+00
 1.4026731780e+00	 1.3519575300e+00	-1.7391744641e+00
 1.3859760743e+00	 1.3690695851e+00	-1.7869603419e+00
 1.3690695851e+00	 1.3859760743e+00	-1.8322742424e+00
 1.3519575300e+00	 1.4026731780e+00	-1.8698469188e+00
 1.3346438208e+00	 1.4191571720e+00	-1.8946081267e+00
 1.4245532069e+00	 1.3397185121e+00	-1.6915931403e+00
 1.4080065361e+00	 1.3570980529e+00	-1.7376927999e+00
 1.3912459453e+00	 1.3742751728e+00	-1.7858568603e+00
 1.3742751728e+00	 1.3912459453e+00	-1.8312958466e+00
 1.3570980529e+00	 1.4080065361e+00	-1.8690429291e+00
 1.3397185121e+00	 1.4245532069e+00	-1.8943349199e+00
 1.4299492417e+00	 1.3447932034e+00	-1.6895000657e+00
 1.4133398942e+00	 1.3622385758e+00	-1.7366686121e+00
 1.3965158163e+00	 1.3794807606e+00	-1.7852066809e+00
 1.3794807606e+00	 1.3965158163e+00	-1.8307055156e+00
 1.3622385758e+00	 1.4133398942e+00	-1.8685739939e+00
 1.3447932034e+00	 1.4299492417e+00	-1.8944288582e+00
 1.3194197468e+00	 1.4029690674e+00	-1.8968863795e+00
 1.3021081340e+00	 1.4190507671e+00	-1.9124799343e+00
 1.2846051636e+00	 1.4349147173e+00	-1.9275985874e+00
 1.2669149584e+00	 1.4505575343e+00	-1.9405406392e+00
 1.2490417202e+00	 1.4659759388e+00	-1.9509641163e+00
 1.2309897264e+00	 1.4811667582e+00	-1.9601985119e+00
 1.3244944381e+00	 1.4083651022e+00	-1.8959540980e+00
 1.3071162422e+00	 1.4245086546e+00	-1.9115983706e+00
 1.2895459527e+00	 1.4404336200e+00	-1.9260289919e+00
 1.2717877083e+00	 1.4561366017e+00	-1.9377472794e+00
 1.2538457269e+00	 1.4716143078e+00	-1.9466205070e+00
 1.2357243023e+00	 1.4868635534e+00	-1.9546740365e+00
 1.3295691294e+00	 1.4137611371e+00	-1.8951719918e+00
 1.3121243504e+00	 1.4299665422e+00	-1.9109458004e+00
 1.2944867418e+00	 1.4459525228e+00	-1.9246656496e+00
 1.2766604581e+00	 1.4617156692e+00	-1.9349909446e+00
 1.2586497335e+00	 1.4772526768e+00	-1.9419540028e+00
 1.2404588781e+00	 1.4925603487e+00	-1.9493991022e+00
 1.3346438208e+00	 1.4191571720e+00	-1.8946081267e+00
 1.3171324586e+00	 1.4354244298e+00	-1.9105841159e+00
 1.2994275309e+00	 1.4514714255e+00	-1.9235639073e+00
 1.2815332079e+00	 1.4672947366e+00	-1.9323202001e+00
 1.2634537401e+00	 1.4828910458e+00	-1.9370456582e+00
 1.2451934540e+00	 1.4982571439e+00	-1.9445746277e+00
 1.3397185121e+00	 1.4245532069e+00	-1.8943349199e+00
 1.3221405668e+00	 1.4408823173e+00	-1.9105802841e+00
 1.3043683200e+00	 1.4569903283e+00	-1.9227849121e+00
 1.2864059578e+00	 1.4728738040e+00	-1.9297901259e+00
 1.2682577467e+00	 1.4885294148e+00	-1.9328429885e+00
 1.2499280299e+00	 1.5039539391e+00	-1.9403932449e+00
 1.3447932034e+00	 1.4299492417e+00	-1.8944288582e+00
 1.3271486750e+00	 1.4463402049e+00	-1.9110060790e+00
 1.3093091090e+00	 1.4625092311e+00	-1.9223953582e+00
 1.2912787076e+00	 1.4784528715e+00	-1.9274620773e+00
 1.2730617533e+00	 1.4941677838e+00	-1.9298637907e+00
 1.2546626057e+00	 1.5096507343e+00	-1.9370409273e+00
 1.2309897264e+00	 1.4811667582e+00	-1.9601985119e+00
 1.2127633264e+00	 1.4961269285e+00	-1.9656582776e+00
 1.1943669386e+00	 1.5108534966e+00	-1.9639808932e+00
 1.1758050464e+00	 1.5253436219e+00	-1.9562284309e+00
 1.1570821951e+00	 1.5395945784e+00	-1.9432967490e+00
 1.1382029879e+00	 1.5536037560e+00	-1.9258872691e+00
 1.2357243023e+00	 1.4868635534e+00	-1.9546740365e+00
 1.2174278007e+00	 1.5018812629e+00	-1.9610438921e+00
 1.1989606576e+00	 1.5166644716e+00	-1.9598347910e+00
 1.1803273735e+00	 1.5312103282e+00	-1.9520382961e+00
 1.1615325113e+00	 1.5455160960e+00	-1.9385139275e+00
 1.1425806917e+00	 1.5595791550e+00	-1.9199584928e+00
 1.2404588781e+00	 1.4925603487e+00	-1.9493991022e+00
 1.2220922751e+00	 1.5076355972e+00	-1.9562306704e+00
 1.2035543766e+00	 1.5224754466e+00	-1.9552058413e+00
 1.1848497006e+00	 1.5370770344e+00	-1.9472417068e+00
 1.1659828274e+00	 1.5514376136e+00	-1.9331563576e+00
 1.1469583955e+00	 1.5655545541e+00	-1.9136372707e+00
 1.2451934540e+00	 1.4982571439e+00	-1.9445746277e+00
 1.2267567494e+00	 1.5133899316e+00	-1.9514303179e+00
 1.2081480956e+00	 1.5282864216e+00	-1.9503200943e+00
 1.1893720277e+00	 1.5429437406e+00	-1.9420811592e+00
 1.1704331435e+00	 1.5573591312e+00	-1.9274851415e+00
 1.1513360993e+00	 1.5715299532e+00	-1.9072055279e+00
 1.2499280299e+00	 1.5039539391e+00	-1.9403932449e+00
 1.2314212237e+00	 1.5191442659e+00	-1.9468476918e+00
 1.2127418146e+00	 1.5340973966e+00	-1.9453966415e+00
 1.1938943548e+00	 1.5488104469e+00	-1.9367920508e+00
 1.1748834597e+00	 1.5632806489e+00	-1.9217541151e+00
 1.1557138031e+00	 1.5775053522e+00	-1.9009377260e+00
 1.2546626057e+00	 1.5096507343e+00	-1.9370409273e+00
 1.2360856981e+00	 1.5248986002e+00	-1.9426809080e+00
 1.2173355335e+00	 1.5399083715e+00	-1.9406477215e+00
 1.1984166819e+00	 1.5546771531e+00	-1.9316027862e+00
 1.1793337758e+00	 1.5692021665e+00	-1.9162099519e+00
 1.1600915069e+00	 1.5834807513e+00	-1.8951009680e+00
 1.1382029879e+00	 1.5536037560e+00	-1.9258872691e+00
 1.1191720821e+00	 1.5673686620e+00	-1.9076123245e+00
 1.0999941861e+00	 1.5808869228e+00	-1.8897192904e+00
 1.0806740548e+00	 1.5941562845e+00	-1.8659230766e+00
 1.0612164861e+00	 1.6071746146e+00	-1.8388825809e+00
 1.0416263175e+00	 1.6199399022e+00	-1.8110495728e+00
 1.1425806917e+00	 1.5595791550e+00	-1.9199584928e+00
 1.1234765902e+00	 1.5733970030e+00	-1.9002905314e+00
 1.1042249330e+00	 1.5869672571e+00	-1.8821690324e+00
 1.0848304934e+00	 1.6002876549e+00	-1.8588968674e+00
 1.0652980880e+00	 1.6133560554e+00	-1.8317242591e+00
 1.0456325726e+00	 1.6261704403e+00	-1.8031503481e+00
 1.1469583955e+00	 1.5655545541e+00	-1.9136372707e+00
 1.1277810982e+00	 1.5794253440e+00	-1.8927744195e+00
 1.1084556799e+00	 1.5930475914e+00	-1.8739912548e+00
 1.0889869321e+00	 1.6064190252e+00	-1.8513358251e+00
 1.0693796899e+00	 1.6195374962e+00	-1.8240752784e+00
 1.0496388276e+00	 1.6324009784e+00	-1.7947682724e+00
 1.1513360993e+00	 1.5715299532e+00	-1.9072055279e+00
 1.1320856062e+00	 1.5854536850e+00	-1.8853626183e+00
 1.1126864267e+00	 1.5991279257e+00	-1.8655388548e+00
 1.0931433708e+00	 1.6125503955e+00	-1.8435411329e+00
 1.0734612917e+00	 1.6257189370e+00	-1.8162090674e+00
 1.0536450827e+00	 1.6386315165e+00	-1.7861378534e+00
 1.1557138031e+00	 1.5775053522e+00	-1.9009377260e+00
 1.1363901142e+00	 1.5914820261e+00	-1.8783461651e+00
 1.1169171736e+00	 1.6052082601e+00	-1.8574882997e+00
 1.0972998095e+00	 1.6186817658e+00	-1.8358097451e+00
 1.0775428936e+00	 1.6319003779e+00	-1.8083955287e+00
 1.0576513378e+00	 1.6448620546e+00	-1.7774909484e+00
 1.1600915069e+00	 1.5834807513e+00	-1.8951009680e+00
 1.1406946222e+00	 1.5975103671e+00	-1.8720086099e+00
 1.1211479205e+00	 1.6112885944e+00	-1.8502293533e+00
 1.1014562481e+00	 1.6248131362e+00	-1.8284342769e+00
 1.0816244955e+00	 1.6380818187e+00	-1.8009009280e+00
 1.0616575928e+00	 1.6510925927e+00	-1.7690566486e+00
 1.0416263175e+00	 1.6199399022e+00	-1.8110495728e+00
 1.0219084215e+00	 1.6324502596e+00	-1.7784192796e+00
 1.0020677026e+00	 1.6447039222e+00	-1.7383118367e+00
 9.8210909267e-01	 1.6566992492e+00	-1.6936518319e+00
 9.6203754764e-01	 1.6684347243e+00	-1.6466572949e+00
 9.4185804346e-01	 1.6799089553e+00	-1.5989523507e+00
 1.0456325726e+00	 1.6261704403e+00	-1.8031503481e+00
 1.0258388386e+00	 1.6387289145e+00	-1.7696433784e+00
 1.0059218092e+00	 1.6510297065e+00	-1.7289553333e+00
 9.8588643533e-01	 1.6630711694e+00	-1.6839698566e+00
 9.6573769205e-01	 1.6748517809e+00	-1.6368547971e+00
 9.4548057439e-01	 1.6863701436e+00	-1.5891776746e+00
 1.0496388276e+00	 1.6324009784e+00	-1.7947682724e+00
 1.0297692556e+00	 1.6450075693e+00	-1.7603847630e+00
 1.0097759157e+00	 1.6573554908e+00	-1.7191224381e+00
 9.8966377799e-01	 1.6694430896e+00	-1.6738145209e+00
 9.6943783647e-01	 1.6812688375e+00	-1.6265719944e+00
 9.4910310533e-01	 1.6928313319e+00	-1.5789019180e+00
 1.0536450827e+00	 1.6386315165e+00	-1.7861378534e+00
 1.0336996726e+00	 1.6512862242e+00	-1.7508417786e+00
 1.0136300222e+00	 1.6636812751e+00	-1.7089921686e+00
 9.9344112066e-01	 1.6758150098e+00	-1.6633622892e+00
 9.7313798088e-01	 1.6876858941e+00	-1.6159994994e+00
 9.5272563627e-01	 1.6992925202e+00	-1.5683464582e+00
 1.0576513378e+00	 1.6448620546e+00	-1.7774909484e+00
 1.0376300896e+00	 1.6575648790e+00	-1.7412109530e+00
 1.0174841288e+00	 1.6700070594e+00	-1.6987422981e+00
 9.9721846332e-01	 1.6821869299e+00	-1.6527886918e+00
 9.7683812529e-01	 1.6941029508e+00	-1.6053270362e+00
 9.5634816720e-01	 1.7057537085e+00	-1.5577315632e+00
 1.0616575928e+00	 1.6510925927e+00	-1.7690566486e+00
 1.0415605066e+00	 1.6638435338e+00	-1.7316868776e+00
 1.0213382353e+00	 1.6763328437e+00	-1.6885492376e+00
 1.0009958060e+00	 1.6885588501e+00	-1.6422682137e+00
 9.8053826971e-01	 1.7005200074e+00	-1.5947433397e+00
 9.5997069814e-01	 1.7122148968e+00	-1.5472763057e+00
 9.4185804346e-01	 1.6799089553e+00	-1.5989523507e+00
 9.2157557229e-01	 1.6911206748e+00	-1.5515605743e+00
 9.0119513871e-01	 1.7020687395e+00	-1.5040897233e+00
 8.8072175591e-01	 1.7127521306e+00	-1.4554240894e+00
 8.6016044196e-01	 1.7231699528e+00	-1.4042082735e+00
 8.3951621610e-01	 1.7333214344e+00	-1.3489354288e+00
 9.4548057439e-01	 1.6863701436e+00	-1.5891776746e+00
 9.2512009372e-01	 1.6976249851e+00	-1.5417278994e+00
 9.0466127386e-01	 1.7086151578e+00	-1.4939561977e+00
 8.8410914728e-01	 1.7193396388e+00	-1.4448115479e+00
 8.6346875136e-01	 1.7297975295e+00	-1.3930162692e+00
 8.4274512462e-01	 1.7399880553e+00	-1.3371556752e+00
 9.4910310533e-01	 1.6928313319e+00	-1.5789019180e+00
 9.2866461515e-01	 1.7041292954e+00	-1.5313874927e+00
 9.0812740901e-01	 1.7151615760e+00	-1.4833487908e+00
 8.8749653865e-01	 1.7259271470e+00	-1.4337938217e+00
 8.6677706075e-01	 1.7364251063e+00	-1.3815149331e+00
 8.4597403314e-01	 1.7466546762e+00	-1.3251799528e+00
 9.5272563627e-01	 1.6992925202e+00	-1.5683464582e+00
 9.3220913659e-01	 1.7106336057e+00	-1.5207912495e+00
 9.1159354416e-01	 1.7217079942e+00	-1.4725328730e+00
 8.9088393002e-01	 1.7325146552e+00	-1.4226327448e+00
 8.7008537014e-01	 1.7430526830e+00	-1.3699456120e+00
 8.4920294167e-01	 1.7533212971e+00	-1.3132122613e+00
 9.5634816720e-01	 1.7057537085e+00	-1.5577315632e+00
 9.3575365802e-01	 1.7171379159e+00	-1.5101897198e+00
 9.1505967930e-01	 1.7282544125e+00	-1.4617724716e+00
 8.9427132139e-01	 1.7391021634e+00	-1.4115890452e+00
 8.7339367953e-01	 1.7496802598e+00	-1.3585490155e+00
 8.5243185019e-01	 1.7599879180e+00	-1.3014566606e+00
 9.5997069814e-01	 1.7122148968e+00	-1.5472763057e+00
 9.3929817945e-01	 1.7236422262e+00	-1.4998320389e+00
 9.1852581445e-01	 1.7348008307e+00	-1.4513302115e+00
 8.9765871275e-01	 1.7456896716e+00	-1.4009222907e+00
 8.7670198893e-01	 1.7563078365e+00	-1.3475651628e+00
 8.5566075871e-01	 1.7666545389e+00	-1.2901172138e+00
 8.3951621610e-01	 1.7333214344e+00	-1.3489354288e+00
 8.1879409500e-01	 1.7432059265e+00	-1.2911168471e+00
 7.9799908923e-01	 1.7528229020e+00	-1.2338365712e+00
 7.7713619956e-01	 1.7621719551e+00	-1.1779942302e+00
 7.5621041352e-01	 1.7712528003e+00	-1.1246776196e+00
 7.3522670190e-01	 1.7800652710e+00	-1.0754027040e+00
 8.4274512462e-01	 1.7399880553e+00	-1.3371556752e+00
 8.2194330306e-01	 1.7499105647e+00	-1.2790617165e+00
 8.0106831649e-01	 1.7595645285e+00	-1.2218934379e+00
 7.8012518494e-01	 1.7689495396e+00	-1.1662783342e+00
 7.5911891511e-01	 1.7780653111e+00	-1.1130235601e+00
 7.3805449691e-01	 1.7869116759e+00	-1.0632093629e+00
 8.4597403314e-01	 1.7466546762e+00	-1.3251799528e+00
 8.2509251112e-01	 1.7566152028e+00	-1.2668474624e+00
 8.0413754376e-01	 1.7663061551e+00	-1.2097054887e+00
 7.8311417032e-01	 1.7757271240e+00	-1.1541736094e+00
 7.6202741670e-01	 1.7848778219e+00	-1.1008467663e+00
 7.4088229192e-01	 1.7937580808e+00	-1.0505400995e+00
 8.4920294167e-01	 1.7533212971e+00	-1.3132122613e+00
 8.2824171918e-01	 1.7633198410e+00	-1.2546473609e+00
 8.0720677103e-01	 1.7730477816e+00	-1.1974447973e+00
 7.8610315571e-01	 1.7825047085e+00	-1.1418796686e+00
 7.6493591829e-01	 1.7916903326e+00	-1.0884023367e+00
 7.4371008693e-01	 1.8006044856e+00	-1.0376843215e+00
 8.5243185019e-01	 1.7599879180e+00	-1.3014566606e+00
 8.3139092724e-01	 1.7700244792e+00	-1.2426353181e+00
 8.1027599829e-01	 1.7797894082e+00	-1.1852841602e+00
 7.8909214109e-01	 1.7892822929e+00	-1.1295964757e+00
 7.6784441988e-01	 1.7985028434e+00	-1.0759448963e+00
 7.4653788193e-01	 1.8074508905e+00	-1.0249281565e+00
 8.5566075871e-01	 1.7666545389e+00	-1.2901172138e+00
 8.3454013529e-01	 1.7767291174e+00	-1.2309858096e+00
 8.1334522556e-01	 1.7865310347e+00	-1.1733970434e+00
 7.9208112647e-01	 1.7960598774e+00	-1.1175243064e+00
 7.7075292147e-01	 1.8053153542e+00	-1.0637285792e+00
 7.4936567694e-01	 1.8142972954e+00	-1.0126058607e+00
 7.3522670190e-01	 1.7800652710e+00	-1.0754027040e+00
 7.1419001535e-01	 1.7886093185e+00	-1.0286122310e+00
 6.9310528102e-01	 1.7968850107e+00	-9.7894963455e-01
 6.7197739933e-01	 1.8048925306e+00	-9.2639762566e-01
 6.5081124077e-01	 1.8126321748e+00	-8.7200835683e-01
 6.2961164279e-01	 1.8201043518e+00	-8.1791798042e-01
 7.3805449691e-01	 1.7869116759e+00	-1.0632093629e+00
 7.1693690002e-01	 1.7954885851e+00	-1.0153975278e+00
 6.9577107056e-01	 1.8037961069e+00	-9.6533733650e-01
 6.7456192779e-01	 1.8118344249e+00	-9.1292832060e-01
 6.5331436093e-01	 1.8196038370e+00	-8.5920635519e-01
 6.3203322603e-01	 1.8271047531e+00	-8.0635763875e-01
 7.4088229192e-01	 1.7937580808e+00	-1.0505400995e+00
 7.1968378470e-01	 1.8023678517e+00	-1.0017088887e+00
 6.9843686010e-01	 1.8107072031e+00	-9.5136672370e-01
 6.7714645625e-01	 1.8187763193e+00	-8.9909929938e-01
 6.5581748109e-01	 1.8265754992e+00	-8.4568834686e-01
 6.3445480928e-01	 1.8341051545e+00	-7.9312585148e-01
 7.4371008693e-01	 1.8006044856e+00	-1.0376843215e+00
 7.2243066937e-01	 1.8092471183e+00	-9.8796162505e-01
 7.0110264965e-01	 1.8176182993e+00	-9.3742711839e-01
 6.7973098471e-01	 1.8257182136e+00	-8.8519196534e-01
 6.5832060124e-01	 1.8335471614e+00	-8.3154879170e-01
 6.3687639252e-01	 1.8411055559e+00	-7.7805411951e-01
 7.4653788193e-01	 1.8074508905e+00	-1.0249281565e+00
 7.2517755405e-01	 1.8161263849e+00	-9.7456811632e-01
 7.0376843919e-01	 1.8245293955e+00	-9.2390640413e-01
 6.8231551317e-01	 1.8326601080e+00	-8.7148887871e-01
 6.6082372140e-01	 1.8405188236e+00	-8.1688695689e-01
 6.3929797576e-01	 1.8481059572e+00	-7.6098340871e-01
 7.4936567694e-01	 1.8142972954e+00	-1.0126058607e+00
 7.2792443872e-01	 1.8230056515e+00	-9.6193750618e-01
 7.0643422873e-01	 1.8314404916e+00	-9.1119074049e-01
 6.8490004163e-01	 1.8396020023e+00	-8.5827346682e-01
 6.6332684156e-01	 1.8474904858e+00	-8.0180660053e-01
 6.4171955900e-01	 1.8551063586e+00	-7.4317335630e-01
 6.2961164279e-01	 1.8201043518e+00	-8.1791798042e-01
 6.0838340676e-01	 1.8273095804e+00	-7.6976995605e-01
 5.8713129506e-01	 1.8342484877e+00	-7.2766072513e-01
 5.6586002819e-01	 1.8409218073e+00	-6.8693628213e-01
 5.4457428203e-01	 1.8473303775e+00	-6.4386040685e-01
 5.2327868520e-01	 1.8534751387e+00	-5.9587684629e-01
 6.3203322603e-01	 1.8271047531e+00	-8.0635763875e-01
 6.1072334294e-01	 1.8343376941e+00	-7.5945814930e-01
 5.8938949235e-01	 1.8413032895e+00	-7.1773939076e-01
 5.6803641291e-01	 1.8480022758e+00	-6.7622248229e-01
 5.4666879850e-01	 1.8544354943e+00	-6.3174643185e-01
 5.2529129552e-01	 1.8606038892e+00	-5.8818783674e-01
 6.3445480928e-01	 1.8341051545e+00	-7.9312585148e-01
 6.1306327912e-01	 1.8413658079e+00	-7.4569165961e-01
 5.9164768964e-01	 1.8483580914e+00	-7.0194190520e-01
 5.7021279763e-01	 1.8550827443e+00	-6.5835986025e-01
 5.4876331497e-01	 1.8615406111e+00	-6.1912773748e-01
 5.2730390585e-01	 1.8677326398e+00	-5.8045192872e-01
 6.3687639252e-01	 1.8411055559e+00	-7.7805411951e-01
 6.1540321530e-01	 1.8483939217e+00	-7.2806629580e-01
 5.9390588692e-01	 1.8554128933e+00	-6.8146748849e-01
 5.7238918236e-01	 1.8621632128e+00	-6.4290086045e-01
 5.5085783144e-01	 1.8686457280e+00	-6.0840223953e-01
 5.2931651618e-01	 1.8748613903e+00	-5.7269382316e-01
 6.3929797576e-01	 1.8481059572e+00	-7.6098340871e-01
 6.1774315148e-01	 1.8554220355e+00	-7.0791000522e-01
 5.9616408421e-01	 1.8624676952e+00	-6.6590761495e-01
 5.7456556708e-01	 1.8692436813e+00	-6.3139132135e-01
 5.5295234791e-01	 1.8757508448e+00	-5.9930775677e-01
 5.3132912651e-01	 1.8819901408e+00	-5.6493531226e-01
 6.4171955900e-01	 1.8551063586e+00	-7.4317335630e-01
 6.2008308766e-01	 1.8624501492e+00	-6.9481796201e-01
 5.9842228150e-01	 1.8695224970e+00	-6.5642833294e-01
 5.7674195180e-01	 1.8763241498e+00	-6.2340138982e-01
 5.5504686438e-01	 1.8828559616e+00	-5.9158330711e-01
 5.3334173684e-01	 1.8891188914e+00	-5.5719530935e-01
 5.2327868520e-01	 1.8534751387e+00	-5.9587684629e-01
 5.0197781641e-01	 1.8593571319e+00	-5.4800081150e-01
 4.8067620208e-01	 1.8649774961e+00	-5.0329945579e-01
 4.5937831388e-01	 1.8703374660e+00	-4.6239618648e-01
 4.3808856651e-01	 1.8754383701e+00	-4.2591085639e-01
 4.1681131550e-01	 1.8802816277e+00	-3.9440351937e-01
 5.2529129552e-01	 1.8606038892e+00	-5.8818783674e-01
 5.0390850032e-01	 1.8665085055e+00	-5.4437544824e-01
 4.8252495670e-01	 1.8721504865e+00	-5.0139033259e-01
 4.6114515355e-01	 1.8775310717e+00	-4.6058586514e-01
 4.3977352254e-01	 1.8826515946e+00	-4.2333488777e-01
 4.1841443594e-01	 1.8875134801e+00	-3.9097174888e-01
 5.2730390585e-01	 1.8677326398e+00	-5.8045192872e-01
 5.0583918423e-01	 1.8736598791e+00	-5.3936986191e-01
 4.8437371133e-01	 1.8793234768e+00	-4.9762811735e-01
 4.6291199322e-01	 1.8847246773e+00	-4.5708008363e-01
 4.4145847856e-01	 1.8898648191e+00	-4.1960975095e-01
 4.2001755638e-01	 1.8947453325e+00	-3.8707282881e-01
 5.2931651618e-01	 1.8748613903e+00	-5.7269382316e-01
 5.0776986814e-01	 1.8808112527e+00	-5.3329664030e-01
 4.8622246595e-01	 1.8864964672e+00	-4.9250362230e-01
 4.6467883289e-01	 1.8919182830e+00	-4.5244111485e-01
 4.4314343459e-01	 1.8970780436e+00	-4.1526538481e-01
 4.2162067683e-01	 1.9019771849e+00	-3.8310360483e-01
 5.3132912651e-01	 1.8819901408e+00	-5.6493531226e-01
 5.0970055205e-01	 1.8879626262e+00	-5.2646134384e-01
 4.8807122057e-01	 1.8936694576e+00	-4.8649820012e-01
 4.6644567256e-01	 1.8991118886e+00	-4.4722098025e-01
 4.4482839061e-01	 1.9042912681e+00	-4.1082227783e-01
 4.2322379727e-01	 1.9092090373e+00	-3.7945381729e-01
 5.3334173684e-01	 1.8891188914e+00	-5.5719530935e-01
 5.1163123596e-01	 1.8951139998e+00	-5.1916260667e-01
 4.8991997520e-01	 1.9008424479e+00	-4.8008388523e-01
 4.6821251223e-01	 1.9063054942e+00	-4.4196160144e-01
 4.4651334664e-01	 1.9115044926e+00	-4.0679160072e-01
 4.2482691772e-01	 1.9164408898e+00	-3.7650618668e-01
 4.1681131550e-01	 1.8802816277e+00	-3.9440351937e-01
 3.9555085513e-01	 1.8848687469e+00	-3.6702535305e-01
 3.7431141651e-01	 1.8892013222e+00	-3.3563243943e-01
 3.5309716565e-01	 1.8932810314e+00	-2.9729207558e-01
 3.3191220173e-01	 1.8971096338e+00	-2.6324387850e-01
 3.1076055546e-01	 1.9006889670e+00	-2.3493725594e-01
 4.1841443594e-01	 1.8875134801e+00	-3.9097174888e-01
 3.9707220458e-01	 1.8921182421e+00	-3.6337474777e-01
 3.7575107580e-01	 1.8964674811e+00	-3.3298846535e-01
 3.5445523167e-01	 1.9005628815e+00	-2.9575001934e-01
 3.3318878712e-01	 1.9044062093e+00	-2.6227018628e-01
 3.1195578837e-01	 1.9079993092e+00	-2.3424197436e-01
 4.2001755638e-01	 1.8947453325e+00	-3.8707282881e-01
 3.9859355402e-01	 1.8993677373e+00	-3.5974532774e-01
 3.7719073510e-01	 1.9037336400e+00	-3.3050792577e-01
 3.5581329769e-01	 1.9078447316e+00	-2.9448241232e-01
 3.3446537251e-01	 1.9117027848e+00	-2.6149203347e-01
 3.1315102127e-01	 1.9153096514e+00	-2.3352689047e-01
 4.2162067683e-01	 1.9019771849e+00	-3.8310360483e-01
 4.0011490346e-01	 1.9066172325e+00	-3.5638613369e-01
 3.7863039439e-01	 1.9109997989e+00	-3.2836100060e-01
 3.5717136371e-01	 1.9151265817e+00	-2.9360887307e-01
 3.3574195790e-01	 1.9189993603e+00	-2.6106066665e-01
 3.1434625418e-01	 1.9226199936e+00	-2.3304065942e-01
 4.2322379727e-01	 1.9092090373e+00	-3.7945381729e-01
 4.0163625290e-01	 1.9138667277e+00	-3.5354168334e-01
 3.8007005369e-01	 1.9182659579e+00	-3.2671489546e-01
 3.5852942973e-01	 1.9224084319e+00	-2.9325005540e-01
 3.3701854330e-01	 1.9262959358e+00	-2.6112839409e-01
 3.1554148708e-01	 1.9299303357e+00	-2.3303187433e-01
 4.2482691772e-01	 1.9164408898e+00	-3.7650618668e-01
 4.0315760235e-01	 1.9211162228e+00	-3.5145200607e-01
 3.8150971298e-01	 1.9255321168e+00	-3.2573384572e-01
 3.5988749576e-01	 1.9296902820e+00	-2.9352749997e-01
 3.3829512869e-01	 1.9335925113e+00	-2.6184846596e-01
 3.1673671999e-01	 1.9372406779e+00	-2.3374899333e-01
 3.1076055546e-01	 1.9006889670e+00	-2.3493725594e-01
 2.8964618750e-01	 1.9040209448e+00	-2.1145606543e-01
 2.6857298702e-01	 1.9071075541e+00	-1.9185350287e-01
 2.4754477035e-01	 1.9099508525e+00	-1.7567297906e-01
 2.2656527974e-01	 1.9125529656e+00	-1.6188192071e-01
 2.0563818223e-01	 1.9149160844e+00	-1.4906767200e-01
 3.1195578837e-01	 1.9079993092e+00	-2.3424197436e-01
 2.9076021130e-01	 1.9113441023e+00	-2.1089509646e-01
 2.6960596004e-01	 1.9144425831e+00	-1.9139888288e-01
 2.4849686562e-01	 1.9172968173e+00	-1.7526144267e-01
 2.2743668466e-01	 1.9199089385e+00	-1.6141152974e-01
 2.0642909831e-01	 1.9222811462e+00	-1.4839322775e-01
 3.1315102127e-01	 1.9153096514e+00	-2.3352689047e-01
 2.9187423510e-01	 1.9186672598e+00	-2.1004420355e-01
 2.7063893307e-01	 1.9217776122e+00	-1.9040433346e-01
 2.4944896089e-01	 1.9246427821e+00	-1.7410387608e-01
 2.2830808958e-01	 1.9272649115e+00	-1.6005018283e-01
 2.0722001440e-01	 1.9296462081e+00	-1.4675487418e-01
 3.1434625418e-01	 1.9226199936e+00	-2.3304065942e-01
 2.9298825890e-01	 1.9259904172e+00	-2.0925393937e-01
 2.7167190610e-01	 1.9291126412e+00	-1.8926591421e-01
 2.5040105616e-01	 1.9319887469e+00	-1.7258576584e-01
 2.2917949450e-01	 1.9346208844e+00	-1.5811710473e-01
 2.0801093048e-01	 1.9370112700e+00	-1.4435035259e-01
 3.1554148708e-01	 1.9299303357e+00	-2.3303187433e-01
 2.9410228269e-01	 1.9333135747e+00	-2.0887345775e-01
 2.7270487913e-01	 1.9364476703e+00	-1.8837766761e-01
 2.5135315143e-01	 1.9393347117e+00	-1.7109068742e-01
 2.3005089943e-01	 1.9419768574e+00	-1.5593044460e-01
 2.0880184657e-01	 1.9443763318e+00	-1.4137789850e-01
 3.1673671999e-01	 1.9372406779e+00	-2.3374899333e-01
 2.9521630649e-01	 1.9406367322e+00	-2.0925048810e-01
 2.7373785215e-01	 1.9437826993e+00	-1.8813162424e-01
 2.5230524670e-01	 1.9466806765e+00	-1.7000032429e-01
 2.3092230435e-01	 1.9493328303e+00	-1.5380729236e-01
 2.0959276265e-01	 1.9517413937e+00	-1.3803623875e-01
 2.0563818223e-01	 1.9149160844e+00	-1.4906767200e-01
 1.8476706858e-01	 1.9170424624e+00	-1.3493923825e-01
 1.6395545236e-01	 1.9189344131e+00	-1.1980366154e-01
 1.4320676909e-01	 1.9205943074e+00	-1.0605584390e-01
 1.2252437548e-01	 1.9220245705e+00	-9.6316726350e-02
 1.0191154882e-01	 1.9232276798e+00	-9.3567248873e-02
 2.0642909831e-01	 1.9222811462e+00	-1.4839322775e-01
 1.8547771115e-01	 1.9244157026e+00	-1.3397361594e-01
 1.6458605026e-01	 1.9263149301e+00	-1.1861575979e-01
 1.4375756436e-01	 1.9279812085e+00	-1.0480962469e-01
 1.2299562308e-01	 1.9294169727e+00	-9.5263678940e-02
 1.0230351631e-01	 1.9306247093e+00	-9.3036638929e-02
 2.0722001440e-01	 1.9296462081e+00	-1.4675487418e-01
 1.8618835372e-01	 1.9317889428e+00	-1.3208598330e-01
 1.6521664815e-01	 1.9336954471e+00	-1.1666273839e-01
 1.4430835962e-01	 1.9353681097e+00	-1.0301555698e-01
 1.2346687068e-01	 1.9368093749e+00	-9.3890403911e-02
 1.0269548381e-01	 1.9380217389e+00	-9.2378162961e-02
 2.0801093048e-01	 1.9370112700e+00	-1.4435035259e-01
 1.8689899629e-01	 1.9391621831e+00	-1.2933882145e-01
 1.6584724604e-01	 1.9410759640e+00	-1.1389977693e-01
 1.4485915489e-01	 1.9427550109e+00	-1.0055041813e-01
 1.2393811828e-01	 1.9442017771e+00	-9.2025091791e-02
 1.0308745130e-01	 1.9454187684e+00	-9.1402128418e-02
 2.0880184657e-01	 1.9443763318e+00	-1.4137789850e-01
 1.8760963887e-01	 1.9465354233e+00	-1.2579679453e-01
 1.6647784394e-01	 1.9484564810e+00	-1.1028542668e-01
 1.4540995015e-01	 1.9501419121e+00	-9.7295044992e-02
 1.2440936588e-01	 1.9515941793e+00	-8.9500179631e-02
 1.0347941880e-01	 1.9528157980e+00	-8.9922776420e-02
 2.0959276265e-01	 1.9517413937e+00	-1.3803623875e-01
 1.8832028144e-01	 1.9539086636e+00	-1.2152672267e-01
 1.6710844183e-01	 1.9558369980e+00	-1.0578156639e-01
 1.4596074542e-01	 1.9575288133e+00	-9.3134279849e-02
 1.2488061347e-01	 1.9589865815e+00	-8.6152294604e-02
 1.0387138629e-01	 1.9602128275e+00	-8.7758230598e-02
 1.0191154882e-01	 1.9232276798e+00	-9.3567248873e-02
 8.1371486350e-02	 1.9242061619e+00	-9.3502481186e-02
 6.0907304882e-02	 1.9249625899e+00	-8.9118359729e-02
 4.0522040356e-02	 1.9254995810e+00	-8.0241313238e-02
 2.0218647575e-02	 1.9258197939e+00	-6.7523004776e-02
 0.0000000000e+00	 1.9259259259e+00	-5.2555626810e-02
 1.0230351631e-01	 1.9306247093e+00	-9.3036638929e-02
 8.1684453605e-02	 1.9316069548e+00	-9.3387784240e-02
 6.1141563747e-02	 1.9323662921e+00	-8.8921015129e-02
 4.0677894357e-02	 1.9329053486e+00	-7.9568803165e-02
 2.0296411604e-02	 1.9332267931e+00	-6.6049559208e-02
 0.0000000000e+00	 1.9333333333e+00	-4.9981877721e-02
 1.0269548381e-01	 1.9380217389e+00	-9.2378162961e-02
 8.1997420860e-02	 1.9390077477e+00	-9.3217887841e-02
 6.1375822612e-02	 1.9397699944e+00	-8.8699160396e-02
 4.0833748358e-02	 1.9403111162e+00	-7.9062913392e-02
 2.0374175633e-02	 1.9406337923e+00	-6.5298371124e-02
 0.0000000000e+00	 1.9407407407e+00	-4.9255685636e-02
 1.0308745130e-01	 1.9454187684e+00	-9.1402128418e-02
 8.2310388115e-02	 1.9464085407e+00	-9.2827546092e-02
 6.1610081477e-02	 1.9471736967e+00	-8.8364059894e-02
 4.0989602360e-02	 1.9477168838e+00	-7.8761497481e-02
 2.0451939663e-02	 1.9480407915e+00	-6.5481960891e-02
 0.0000000000e+00	 1.9481481481e+00	-5.0810297294e-02
 1.0347941880e-01	 1.9528157980e+00	-8.9922776420e-02
 8.2623355370e-02	 1.9538093336e+00	-9.2054472277e-02
 6.1844340342e-02	 1.9545773989e+00	-8.7828168089e-02
 4.1145456361e-02	 1.9551226515e+00	-7.8701079992e-02
 2.0529703692e-02	 1.9554477907e+00	-6.6808295500e-02
 0.0000000000e+00	 1.9555555556e+00	-5.5070521228e-02
 1.0387138629e-01	 1.9602128275e+00	-8.7758230598e-02
 8.2936322626e-02	 1.9612101265e+00	-9.0739303837e-02
 6.2078599206e-02	 1.9619811012e+00	-8.7005124249e-02
 4.1301310363e-02	 1.9625284191e+00	-7.8916893900e-02
 2.0607467721e-02	 1.9628547899e+00	-6.9480881027e-02
 0.0000000000e+00	 1.9629629630e+00	-6.2452886978e-02
 1.9629629630e+00	 0.0000000000e+00	 2.9349610109e+00
 1.9628547899e+00	 2.0607467721e-02	 2.9041150857e+00
 1.9625284191e+00	 4.1301310363e-02	 2.8792560583e+00
 1.9619811012e+00	 6.2078599206e-02	 2.8582503027e+00
 1.9612101265e+00	 8.2936322626e-02	 2.8395718551e+00
 1.9602128275e+00	 1.0387138629e-01	 2.8221982833e+00
 1.9703703704e+00	 0.0000000000e+00	 2.9324553702e+00
 1.9702617891e+00	 2.0685231750e-02	 2.8916776088e+00
 1.9699341867e+00	 4.1457164364e-02	 2.8617550219e+00
 1.9693848035e+00	 6.2312858071e-02	 2.8391678282e+00
 1.9686109194e+00	 8.3249289881e-02	 2.8209718433e+00
 1.9676098570e+00	 1.0426335379e-01	 2.8046988808e+00
 1.9777777778e+00	 0.0000000000e+00	 2.9323365411e+00
 1.9776687883e+00	 2.0762995779e-02	 2.8792982468e+00
 1.9773399543e+00	 4.1613018365e-02	 2.8434244659e+00
 1.9767885057e+00	 6.2547116936e-02	 2.8193495097e+00
 1.9760117124e+00	 8.3562257136e-02	 2.8022653369e+00
 1.9750068866e+00	 1.0465532128e-01	 2.7878279612e+00
 1.9851851852e+00	 0.0000000000e+00	 2.9356012891e+00
 1.9850757875e+00	 2.0840759808e-02	 2.8673391138e+00
 1.9847457219e+00	 4.1768872367e-02	 2.8241791977e+00
 1.9841922080e+00	 6.2781375801e-02	 2.7984555295e+00
 1.9834125053e+00	 8.3875224391e-02	 2.7830558017e+00
 1.9824039161e+00	 1.0504728878e-01	 2.7713352907e+00
 1.9925925926e+00	 0.0000000000e+00	 2.9432320759e+00
 1.9924827867e+00	 2.0918523837e-02	 2.8561573601e+00
 1.9921514896e+00	 4.1924726368e-02	 2.8039357006e+00
 1.9915959103e+00	 6.3015634666e-02	 2.7761515929e+00
 1.9908132982e+00	 8.4188191646e-02	 2.7629531883e+00
 1.9898009456e+00	 1.0543925627e-01	 2.7549751081e+00
 2.0000000000e+00	 0.0000000000e+00	 2.9561973254e+00
 1.9998897859e+00	 2.0996287866e-02	 2.8461052636e+00
 1.9995572572e+00	 4.2080580369e-02	 2.7826121016e+00
 1.9989996125e+00	 6.3249893531e-02	 2.7521088246e+00
 1.9982140912e+00	 8.4501158901e-02	 2.7415738119e+00
 1.9971979752e+00	 1.0583122377e-01	 2.7385060418e+00
 1.9602128275e+00	 1.0387138629e-01	 2.8221982833e+00
 1.9589865815e+00	 1.2488061347e-01	 2.8064101967e+00
 1.9575288133e+00	 1.4596074542e-01	 2.7913962323e+00
 1.9558369980e+00	 1.6710844183e-01	 2.7749373774e+00
 1.9539086636e+00	 1.8832028144e-01	 2.7548847124e+00
 1.9517413937e+00	 2.0959276265e-01	 2.7290243871e+00
 1.9676098570e+00	 1.0426335379e-01	 2.8046988808e+00
 1.9663789837e+00	 1.2535186107e-01	 2.7896906889e+00
 1.9649157144e+00	 1.4651154069e-01	 2.7752437679e+00
 1.9632175149e+00	 1.6773903973e-01	 2.7592438121e+00
 1.9612819038e+00	 1.8903092401e-01	 2.7396463263e+00
 1.9591064555e+00	 2.1038367874e-01	 2.7143444056e+00
 1.9750068866e+00	 1.0465532128e-01	 2.7878279612e+00
 1.9737713858e+00	 1.2582310867e-01	 2.7739956916e+00
 1.9723026156e+00	 1.4706233595e-01	 2.7601138821e+00
 1.9705980319e+00	 1.6836963762e-01	 2.7443299228e+00
 1.9686551440e+00	 1.8974156658e-01	 2.7248552596e+00
 1.9664715174e+00	 2.1117459482e-01	 2.6998356452e+00
 1.9824039161e+00	 1.0504728878e-01	 2.7713352907e+00
 1.9811637880e+00	 1.2629435627e-01	 2.7592948392e+00
 1.9796895168e+00	 1.4761313122e-01	 2.7461351638e+00
 1.9779785489e+00	 1.6900023551e-01	 2.7304198301e+00
 1.9760283843e+00	 1.9045220915e-01	 2.7107652638e+00
 1.9738365793e+00	 2.1196551091e-01	 2.6857131491e+00
 1.9898009456e+00	 1.0543925627e-01	 2.7549751081e+00
 1.9885561902e+00	 1.2676560387e-01	 2.7455591620e+00
 1.9870764180e+00	 1.4816392648e-01	 2.7334354419e+00
 1.9853590659e+00	 1.6963083341e-01	 2.7177356812e+00
 1.9834016245e+00	 1.9116285172e-01	 2.6976278688e+00
 1.9812016411e+00	 2.1275642700e-01	 2.6721904756e+00
 1.9971979752e+00	 1.0583122377e-01	 2.7385060418e+00
 1.9959485924e+00	 1.2723685146e-01	 2.7327610604e+00
 1.9944633192e+00	 1.4871472175e-01	 2.7221417989e+00
 1.9927395828e+00	 1.7026143130e-01	 2.7064976852e+00
 1.9907748648e+00	 1.9187349429e-01	 2.6856924201e+00
 1.9885667030e+00	 2.1354734308e-01	 2.6594797202e+00
 1.9517413937e+00	 2.0959276265e-01	 2.7290243871e+00
 1.9493328303e+00	 2.3092230435e-01	 2.6961390510e+00
 1.9466806765e+00	 2.5230524670e-01	 2.6577559762e+00
 1.9437826993e+00	 2.7373785215e-01	 2.6152153696e+00
 1.9406367322e+00	 2.9521630649e-01	 2.5691254917e+00
 1.9372406779e+00	 3.1673671999e-01	 2.5191448105e+00
 1.9591064555e+00	 2.1038367874e-01	 2.7143444056e+00
 1.9566888033e+00	 2.3179370927e-01	 2.6820098053e+00
 1.9540266414e+00	 2.5325734197e-01	 2.6440079693e+00
 1.9511177284e+00	 2.7477082518e-01	 2.6017182770e+00
 1.9479598897e+00	 2.9633033029e-01	 2.5557968920e+00
 1.9445510201e+00	 3.1793195290e-01	 2.5059612442e+00
 1.9664715174e+00	 2.1117459482e-01	 2.6998356452e+00
 1.9640447762e+00	 2.3266511419e-01	 2.6679465691e+00
 1.9613726062e+00	 2.5420943724e-01	 2.6303565571e+00
 1.9584527575e+00	 2.7580379821e-01	 2.5884032731e+00
 1.9552830472e+00	 2.9744435409e-01	 2.5427135848e+00
 1.9518613623e+00	 3.1912718580e-01	 2.4929907636e+00
 1.9738365793e+00	 2.1196551091e-01	 2.6857131491e+00
 1.9714007491e+00	 2.3353651911e-01	 2.6541054805e+00
 1.9687185710e+00	 2.5516153251e-01	 2.6169288542e+00
 1.9657877865e+00	 2.7683677123e-01	 2.5753988256e+00
 1.9626062046e+00	 2.9855837789e-01	 2.5300362557e+00
 1.9591717045e+00	 3.2032241871e-01	 2.4804576265e+00
 1.9812016411e+00	 2.1275642700e-01	 2.6721904756e+00
 1.9787567221e+00	 2.3440792404e-01	 2.6406421850e+00
 1.9760645358e+00	 2.5611362778e-01	 2.6038519717e+00
 1.9731228156e+00	 2.7786974426e-01	 2.5628333605e+00
 1.9699293621e+00	 2.9967240168e-01	 2.5179249650e+00
 1.9664820466e+00	 3.2151765161e-01	 2.4685843132e+00
 1.9885667030e+00	 2.1354734308e-01	 2.6594797202e+00
 1.9861126950e+00	 2.3527932896e-01	 2.6277118354e+00
 1.9834105006e+00	 2.5706572305e-01	 2.5912530011e+00
 1.9804578446e+00	 2.7890271729e-01	 2.5508352410e+00
 1.9772525196e+00	 3.0078642548e-01	 2.5065391268e+00
 1.9737923888e+00	 3.2271288452e-01	 2.4575915157e+00
 1.9372406779e+00	 3.1673671999e-01	 2.5191448105e+00
 1.9335925113e+00	 3.3829512869e-01	 2.4640063592e+00
 1.9296902820e+00	 3.5988749576e-01	 2.4016885527e+00
 1.9255321168e+00	 3.8150971298e-01	 2.3289251235e+00
 1.9211162228e+00	 4.0315760235e-01	 2.2475534902e+00
 1.9164408898e+00	 4.2482691772e-01	 2.1644363536e+00
 1.9445510201e+00	 3.1793195290e-01	 2.5059612442e+00
 1.9408890868e+00	 3.3957171408e-01	 2.4510049099e+00
 1.9369721321e+00	 3.6124556178e-01	 2.3888449998e+00
 1.9327982757e+00	 3.8294937228e-01	 2.3162292932e+00
 1.9283657180e+00	 4.0467895179e-01	 2.2351245967e+00
 1.9236727422e+00	 4.2643003816e-01	 2.1517975838e+00
 1.9518613623e+00	 3.1912718580e-01	 2.4929907636e+00
 1.9481856624e+00	 3.4084829947e-01	 2.4380562069e+00
 1.9442539822e+00	 3.6260362780e-01	 2.3758436013e+00
 1.9400644347e+00	 3.8438903157e-01	 2.3032199913e+00
 1.9356152132e+00	 4.0620030123e-01	 2.2223023116e+00
 1.9309045946e+00	 4.2803315861e-01	 2.1388352884e+00
 1.9591717045e+00	 3.2032241871e-01	 2.4804576265e+00
 1.9554822379e+00	 3.4212488486e-01	 2.4254498476e+00
 1.9515358323e+00	 3.6396169382e-01	 2.3630101391e+00
 1.9473305936e+00	 3.8582869086e-01	 2.2902255373e+00
 1.9428647084e+00	 4.0772165068e-01	 2.2093823575e+00
 1.9381364470e+00	 4.2963627905e-01	 2.1257818734e+00
 1.9664820466e+00	 3.2151765161e-01	 2.4685843132e+00
 1.9627788134e+00	 3.4340147025e-01	 2.4134723591e+00
 1.9588176825e+00	 3.6531975984e-01	 2.3506663404e+00
 1.9545967525e+00	 3.8726835016e-01	 2.2775690863e+00
 1.9501142036e+00	 4.0924300012e-01	 2.1966555089e+00
 1.9453682994e+00	 4.3123939949e-01	 2.1128654752e+00
 1.9737923888e+00	 3.2271288452e-01	 2.4575915157e+00
 1.9700753889e+00	 3.4467805564e-01	 2.4024071990e+00
 1.9660995326e+00	 3.6667782586e-01	 2.3391298800e+00
 1.9618629115e+00	 3.8870800945e-01	 2.2655686922e+00
 1.9573636987e+00	 4.1076434956e-01	 2.1844076517e+00
 1.9526001518e+00	 4.3284251994e-01	 2.1003100098e+00
 1.9164408898e+00	 4.2482691772e-01	 2.1644363536e+00
 1.9115044926e+00	 4.4651334664e-01	 2.0834879974e+00
 1.9063054942e+00	 4.6821251223e-01	 2.0028915768e+00
 1.9008424479e+00	 4.8991997520e-01	 1.9209173143e+00
 1.8951139998e+00	 5.1163123596e-01	 1.8358296239e+00
 1.8891188914e+00	 5.3334173684e-01	 1.7459487178e+00
 1.9236727422e+00	 4.2643003816e-01	 2.1517975838e+00
 1.9187177171e+00	 4.4819830266e-01	 2.0700394781e+00
 1.9134990999e+00	 4.6997935189e-01	 1.9885999416e+00
 1.9080154383e+00	 4.9176872982e-01	 1.9061279588e+00
 1.9022653734e+00	 5.1356191987e-01	 1.8212638502e+00
 1.8962476419e+00	 5.3535434716e-01	 1.7326994725e+00
 1.9309045946e+00	 4.2803315861e-01	 2.1388352884e+00
 1.9259309416e+00	 4.4988325869e-01	 2.0564899932e+00
 1.9206927055e+00	 4.7174619156e-01	 1.9744456905e+00
 1.9151884287e+00	 4.9361748444e-01	 1.8916154531e+00
 1.9094167470e+00	 5.1549260378e-01	 1.8069038996e+00
 1.9033763924e+00	 5.3736695749e-01	 1.7192662662e+00
 1.9381364470e+00	 4.2963627905e-01	 2.1257818734e+00
 1.9331441661e+00	 4.5156821471e-01	 2.0430084420e+00
 1.9278863112e+00	 4.7351303123e-01	 1.9605662466e+00
 1.9223614190e+00	 4.9546623907e-01	 1.8775193125e+00
 1.9165681206e+00	 5.1742328769e-01	 1.7929264557e+00
 1.9105051430e+00	 5.3937956782e-01	 1.7058995020e+00
 1.9453682994e+00	 4.3123939949e-01	 2.1128654752e+00
 1.9403573906e+00	 4.5325317074e-01	 2.0297601458e+00
 1.9350799168e+00	 4.7527987090e-01	 1.9470956847e+00
 1.9295344094e+00	 4.9731499369e-01	 1.8639754513e+00
 1.9237194942e+00	 5.1935397160e-01	 1.7795038472e+00
 1.9176338935e+00	 5.4139217815e-01	 1.6928439544e+00
 1.9526001518e+00	 4.3284251994e-01	 2.1003100098e+00
 1.9475706151e+00	 4.5493812676e-01	 2.0169068874e+00
 1.9422735224e+00	 4.7704671057e-01	 1.9341647687e+00
 1.9367073998e+00	 4.9916374831e-01	 1.8511162290e+00
 1.9308708678e+00	 5.2128465551e-01	 1.7668041132e+00
 1.9247626440e+00	 5.4340478847e-01	 1.6803388625e+00
 1.8891188914e+00	 5.3334173684e-01	 1.7459487178e+00
 1.8828559616e+00	 5.5504686438e-01	 1.6505271152e+00
 1.8763241498e+00	 5.7674195180e-01	 1.5517406889e+00
 1.8695224970e+00	 5.9842228150e-01	 1.4525665119e+00
 1.8624501492e+00	 6.2008308766e-01	 1.3562971490e+00
 1.8551063586e+00	 6.4171955900e-01	 1.2666233141e+00
 1.8962476419e+00	 5.3535434716e-01	 1.7326994725e+00
 1.8899610785e+00	 5.5714138085e-01	 1.6396547202e+00
 1.8834046183e+00	 5.7891833653e-01	 1.5434122904e+00
 1.8765772989e+00	 6.0068047879e-01	 1.4460459184e+00
 1.8694782630e+00	 6.2242302384e-01	 1.3499733730e+00
 1.8621067599e+00	 6.4414114224e-01	 1.2580419048e+00
 1.9033763924e+00	 5.3736695749e-01	 1.7192662662e+00
 1.8970661953e+00	 5.5923589732e-01	 1.6279803310e+00
 1.8904850867e+00	 5.8109472125e-01	 1.5337675348e+00
 1.8836321008e+00	 6.0293867608e-01	 1.4380484764e+00
 1.8765063768e+00	 6.2476296002e-01	 1.3426073144e+00
 1.8691071613e+00	 6.4656272548e-01	 1.2496792922e+00
 1.9105051430e+00	 5.3937956782e-01	 1.7058995020e+00
 1.9041713122e+00	 5.6133041379e-01	 1.6158089408e+00
 1.8975655552e+00	 5.8327110598e-01	 1.5230882517e+00
 1.8906869027e+00	 6.0519687337e-01	 1.4287521631e+00
 1.8835344905e+00	 6.2710289620e-01	 1.3341895209e+00
 1.8761075626e+00	 6.4898430872e-01	 1.2412521776e+00
 1.9176338935e+00	 5.4139217815e-01	 1.6928439544e+00
 1.9112764290e+00	 5.6342493026e-01	 1.6034389498e+00
 1.9046460237e+00	 5.8544749070e-01	 1.5116498968e+00
 1.8977417046e+00	 6.0745507066e-01	 1.4183300308e+00
 1.8905626043e+00	 6.2944283238e-01	 1.3247083374e+00
 1.8831079640e+00	 6.5140589197e-01	 1.2324790982e+00
 1.9247626440e+00	 5.4340478847e-01	 1.6803388625e+00
 1.9183815458e+00	 5.6551944673e-01	 1.5911622831e+00
 1.9117264922e+00	 5.8762387542e-01	 1.4997216741e+00
 1.9047965064e+00	 6.0971326794e-01	 1.4069503100e+00
 1.8975907181e+00	 6.3178276856e-01	 1.3141499675e+00
 1.8901083653e+00	 6.5382747521e-01	 1.2230804233e+00
 1.8551063586e+00	 6.4171955900e-01	 1.2666233141e+00
 1.8474904858e+00	 6.6332684156e-01	 1.1845405409e+00
 1.8396020023e+00	 6.8490004163e-01	 1.0998162416e+00
 1.8314404916e+00	 7.0643422873e-01	 1.0104696757e+00
 1.8230056515e+00	 7.2792443872e-01	 9.1700671000e-01
 1.8142972954e+00	 7.4936567694e-01	 8.2106496062e-01
 1.8621067599e+00	 6.4414114224e-01	 1.2580419048e+00
 1.8544621480e+00	 6.6582996172e-01	 1.1728786519e+00
 1.8465438967e+00	 6.8748457009e-01	 1.0914961726e+00
 1.8383515878e+00	 7.0910001827e-01	 1.0043265205e+00
 1.8298849181e+00	 7.3067132340e-01	 9.1185639105e-01
 1.8211437003e+00	 7.5219347195e-01	 8.1632620787e-01
 1.8691071613e+00	 6.4656272548e-01	 1.2496792922e+00
 1.8614338103e+00	 6.6833308187e-01	 1.1614333030e+00
 1.8534857910e+00	 6.9006909854e-01	 1.0780565237e+00
 1.8452626840e+00	 7.1176580782e-01	 9.9548530400e-01
 1.8367641847e+00	 7.3341820807e-01	 9.0629483932e-01
 1.8279901052e+00	 7.5502126696e-01	 8.1261518057e-01
 1.8761075626e+00	 6.4898430872e-01	 1.2412521776e+00
 1.8684054725e+00	 6.7083620203e-01	 1.1517145929e+00
 1.8604276854e+00	 6.9265362700e-01	 1.0656824785e+00
 1.8521737802e+00	 7.1443159736e-01	 9.8346447998e-01
 1.8436434513e+00	 7.3616509274e-01	 8.9997081232e-01
 1.8348365101e+00	 7.5784906196e-01	 8.0984553579e-01
 1.8831079640e+00	 6.5140589197e-01	 1.2324790982e+00
 1.8753771347e+00	 6.7333932219e-01	 1.1431883588e+00
 1.8673695797e+00	 6.9523815546e-01	 1.0566207286e+00
 1.8590848764e+00	 7.1709738690e-01	 9.7281684732e-01
 1.8505227180e+00	 7.3891197742e-01	 8.9253378360e-01
 1.8416829150e+00	 7.6067685697e-01	 8.0792878321e-01
 1.8901083653e+00	 6.5382747521e-01	 1.2230804233e+00
 1.8823487969e+00	 6.7584244234e-01	 1.1353260230e+00
 1.8743114741e+00	 6.9782268392e-01	 1.0502161909e+00
 1.8659959726e+00	 7.1976317644e-01	 9.6714809021e-01
 1.8574019846e+00	 7.4165886209e-01	 8.8644852708e-01
 1.8485293199e+00	 7.6350465198e-01	 8.0677435994e-01
 1.8142972954e+00	 7.4936567694e-01	 8.2106496062e-01
 1.8053153542e+00	 7.7075292147e-01	 7.2384340439e-01
 1.7960598774e+00	 7.9208112647e-01	 6.2601866631e-01
 1.7865310347e+00	 8.1334522556e-01	 5.2764009719e-01
 1.7767291174e+00	 8.3454013529e-01	 4.2895731746e-01
 1.7666545389e+00	 8.5566075871e-01	 3.3037342957e-01
 1.8211437003e+00	 7.5219347195e-01	 8.1632620787e-01
 1.8121278649e+00	 7.7366142306e-01	 7.1894828598e-01
 1.8028374618e+00	 7.9507011185e-01	 6.2063721932e-01
 1.7932726613e+00	 8.1641445282e-01	 5.2163567678e-01
 1.7834337556e+00	 8.3768934335e-01	 4.2238671125e-01
 1.7733211598e+00	 8.5888966724e-01	 3.2348638866e-01
 1.8279901052e+00	 7.5502126696e-01	 8.1261518057e-01
 1.8189403757e+00	 7.7656992465e-01	 7.1548850730e-01
 1.8096150462e+00	 7.9805909724e-01	 6.1633014496e-01
 1.8000142878e+00	 8.1948368009e-01	 5.1590910961e-01
 1.7901383937e+00	 8.4083855141e-01	 4.1518172583e-01
 1.7799877807e+00	 8.6211857576e-01	 3.1524276781e-01
 1.8348365101e+00	 7.5784906196e-01	 8.0984553579e-01
 1.8257528865e+00	 7.7947842624e-01	 7.1368235240e-01
 1.8163926307e+00	 8.0104808262e-01	 6.1351473633e-01
 1.8067559144e+00	 8.2255290736e-01	 5.1096707899e-01
 1.7968430319e+00	 8.4398775947e-01	 4.0782491996e-01
 1.7866544016e+00	 8.6534748428e-01	 3.0598370276e-01
 1.8416829150e+00	 7.6067685697e-01	 8.0792878321e-01
 1.8325653973e+00	 7.8238692783e-01	 7.1374157753e-01
 1.8231702151e+00	 8.0403706800e-01	 6.1259894093e-01
 1.8134975409e+00	 8.2562213462e-01	 5.0730572295e-01
 1.8035476701e+00	 8.4713696752e-01	 4.0078878025e-01
 1.7933210225e+00	 8.6857639281e-01	 2.9604245592e-01
 1.8485293199e+00	 7.6350465198e-01	 8.0677435994e-01
 1.8393779080e+00	 7.8529542943e-01	 7.1587157507e-01
 1.8299477996e+00	 8.0702605339e-01	 6.1398158409e-01
 1.8202391675e+00	 8.2869136189e-01	 5.0541088696e-01
 1.8102523083e+00	 8.5028617558e-01	 3.9453597152e-01
 1.7999876434e+00	 8.7180530133e-01	 2.8574463202e-01
 1.7666545389e+00	 8.5566075871e-01	 3.3037342957e-01
 1.7563078365e+00	 8.7670198893e-01	 2.3025728692e-01
 1.7456896716e+00	 8.9765871275e-01	 1.2793465512e-01
 1.7348008307e+00	 9.1852581445e-01	 2.5303338389e-02
 1.7236422262e+00	 9.3929817945e-01	-7.5842632303e-02
 1.7122148968e+00	 9.5997069814e-01	-1.7391332892e-01
 1.7733211598e+00	 8.5888966724e-01	 3.2348638866e-01
 1.7629354132e+00	 8.8001029832e-01	 2.2352263496e-01
 1.7522771798e+00	 9.0104610412e-01	 1.2176918213e-01
 1.7413472489e+00	 9.2199194960e-01	 1.9918833622e-02
 1.7301465365e+00	 9.4284270088e-01	-8.0427090481e-02
 1.7186760850e+00	 9.6359322908e-01	-1.7785980163e-01
 1.7799877807e+00	 8.6211857576e-01	 3.1524276781e-01
 1.7695629900e+00	 8.8331860771e-01	 2.1521144383e-01
 1.7588646879e+00	 9.0443349549e-01	 1.1428307917e-01
 1.7478936671e+00	 9.2545808475e-01	 1.3737275967e-02
 1.7366508468e+00	 9.4638722231e-01	-8.5218402376e-02
 1.7251372733e+00	 9.6721576001e-01	-1.8154965927e-01
 1.7866544016e+00	 8.6534748428e-01	 3.0598370276e-01
 1.7761905667e+00	 8.8662691710e-01	 2.0548808838e-01
 1.7654521961e+00	 9.0782088686e-01	 1.0551459825e-01
 1.7544400854e+00	 9.2892421990e-01	 6.7237350645e-03
 1.7431551571e+00	 9.4993174375e-01	-9.0269472300e-02
 1.7315984616e+00	 9.7083829095e-01	-1.8499634132e-01
 1.7933210225e+00	 8.6857639281e-01	 2.9604245592e-01
 1.7828181435e+00	 8.8993522649e-01	 1.9451177321e-01
 1.7720397043e+00	 9.1120827823e-01	 9.5498747354e-02
 1.7609865036e+00	 9.3239035505e-01	-1.1588503956e-03
 1.7496594674e+00	 9.5347626518e-01	-9.5635071210e-02
 1.7380596499e+00	 9.7446082189e-01	-1.8821577299e-01
 1.7999876434e+00	 8.7180530133e-01	 2.8574463202e-01
 1.7894457202e+00	 8.9324353589e-01	 1.8243670356e-01
 1.7786272125e+00	 9.1459566960e-01	 8.4267430362e-02
 1.7675329218e+00	 9.3585649020e-01	-9.9495494423e-03
 1.7561637777e+00	 9.5702078661e-01	-1.0137171513e-01
 1.7445208382e+00	 9.7808335282e-01	-1.9122622962e-01
 1.7122148968e+00	 9.5997069814e-01	-1.7391332892e-01
 1.7005200074e+00	 9.8053826971e-01	-2.6835246964e-01
 1.6885588501e+00	 1.0009958060e+00	-3.5955231388e-01
 1.6763328437e+00	 1.0213382353e+00	-4.4796280491e-01
 1.6638435338e+00	 1.0415605066e+00	-5.3467581864e-01
 1.6510925927e+00	 1.0616575928e+00	-6.2157005519e-01
 1.7186760850e+00	 9.6359322908e-01	-1.7785980163e-01
 1.7069370640e+00	 9.8423841412e-01	-2.7175075247e-01
 1.6949307703e+00	 1.0047731487e+00	-3.6227010623e-01
 1.6826586281e+00	 1.0251923419e+00	-4.4980801154e-01
 1.6701221887e+00	 1.0454909236e+00	-5.3538764418e-01
 1.6573231308e+00	 1.0656638479e+00	-6.2081268235e-01
 1.7251372733e+00	 9.6721576001e-01	-1.8154965927e-01
 1.7133541207e+00	 9.8793855854e-01	-2.7470378059e-01
 1.7013026905e+00	 1.0085504913e+00	-3.6458392639e-01
 1.6889844124e+00	 1.0290464484e+00	-4.5141884202e-01
 1.6764008435e+00	 1.0494213406e+00	-5.3606244751e-01
 1.6635536688e+00	 1.0696701030e+00	-6.2014416200e-01
 1.7315984616e+00	 9.7083829095e-01	-1.8499634132e-01
 1.7197711773e+00	 9.9163870295e-01	-2.7716229320e-01
 1.7076746107e+00	 1.0123278340e+00	-3.6639498734e-01
 1.6953101967e+00	 1.0329005550e+00	-4.5266124866e-01
 1.6826794984e+00	 1.0533517576e+00	-5.3654625267e-01
 1.6697842069e+00	 1.0736763580e+00	-6.1940696332e-01
 1.7380596499e+00	 9.7446082189e-01	-1.8821577299e-01
 1.7261882339e+00	 9.9533884736e-01	-2.7908051001e-01
 1.7140465309e+00	 1.0161051766e+00	-3.6760881246e-01
 1.7016359810e+00	 1.0367546615e+00	-4.5340614306e-01
 1.6889581532e+00	 1.0572821746e+00	-5.3669049490e-01
 1.6760147450e+00	 1.0776826131e+00	-6.1844920551e-01
 1.7445208382e+00	 9.7808335282e-01	-1.9122622962e-01
 1.7326052906e+00	 9.9903899178e-01	-2.8041597565e-01
 1.7204184511e+00	 1.0198825193e+00	-3.6813506360e-01
 1.7079617653e+00	 1.0406087681e+00	-4.5352921208e-01
 1.6952368081e+00	 1.0612125916e+00	-5.3635182895e-01
 1.6822452831e+00	 1.0816888682e+00	-6.1712446325e-01
 1.6510925927e+00	 1.0616575928e+00	-6.2157005519e-01
 1.6380818187e+00	 1.0816244955e+00	-7.0764442466e-01
 1.6248131362e+00	 1.1014562481e+00	-7.9192493113e-01
 1.6112885944e+00	 1.1211479205e+00	-8.7685262513e-01
 1.5975103671e+00	 1.1406946222e+00	-9.5795764786e-01
 1.5834807513e+00	 1.1600915069e+00	-1.0340421150e+00
 1.6573231308e+00	 1.0656638479e+00	-6.2081268235e-01
 1.6442632595e+00	 1.0857060973e+00	-7.0564005361e-01
 1.6309445065e+00	 1.1056126868e+00	-7.8950031212e-01
 1.6173689287e+00	 1.1253786673e+00	-8.7368063934e-01
 1.6035387081e+00	 1.1449991302e+00	-9.5386989512e-01
 1.5894561503e+00	 1.1644692107e+00	-1.0295641259e+00
 1.6635536688e+00	 1.0696701030e+00	-6.2014416200e-01
 1.6504447003e+00	 1.0897876992e+00	-7.0374777697e-01
 1.6370758768e+00	 1.1097691255e+00	-7.8715556025e-01
 1.6234492630e+00	 1.1296094142e+00	-8.7024896721e-01
 1.6095670491e+00	 1.1493036382e+00	-9.4958082314e-01
 1.5954315494e+00	 1.1688469145e+00	-1.0249822772e+00
 1.6697842069e+00	 1.0736763580e+00	-6.1940696332e-01
 1.6566261412e+00	 1.0938693011e+00	-7.0181689836e-01
 1.6432072471e+00	 1.1139255641e+00	-7.8468379401e-01
 1.6295295973e+00	 1.1338401611e+00	-8.6649092778e-01
 1.6155953901e+00	 1.1536081462e+00	-9.4503942730e-01
 1.6014069485e+00	 1.1732246183e+00	-1.0202637359e+00
 1.6760147450e+00	 1.0776826131e+00	-6.1844920551e-01
 1.6628075820e+00	 1.0979509030e+00	-6.9970248519e-01
 1.6493386175e+00	 1.1180820028e+00	-7.8176714659e-01
 1.6356099317e+00	 1.1380709080e+00	-8.6234055458e-01
 1.6216237311e+00	 1.1579126542e+00	-9.4019526502e-01
 1.6073823475e+00	 1.1776023221e+00	-1.0153760357e+00
 1.6822452831e+00	 1.0816888682e+00	-6.1712446325e-01
 1.6689890228e+00	 1.1020325048e+00	-6.9726517433e-01
 1.6554699878e+00	 1.1222384415e+00	-7.7831154942e-01
 1.6416902660e+00	 1.1423016548e+00	-8.5773258377e-01
 1.6276520721e+00	 1.1622171622e+00	-9.3499844473e-01
 1.6133577466e+00	 1.1819800258e+00	-1.0102870671e+00
 1.5834807513e+00	 1.1600915069e+00	-1.0340421150e+00
 1.5692021665e+00	 1.1793337758e+00	-1.1072557068e+00
 1.5546771531e+00	 1.1984166819e+00	-1.1801926684e+00
 1.5399083715e+00	 1.2173355335e+00	-1.2533887578e+00
 1.5248986002e+00	 1.2360856981e+00	-1.3273704353e+00
 1.5096507343e+00	 1.2546626057e+00	-1.4026129363e+00
 1.5894561503e+00	 1.1644692107e+00	-1.0295641259e+00
 1.5751236841e+00	 1.1837840919e+00	-1.1027587141e+00
 1.5605438594e+00	 1.2029390090e+00	-1.1757665083e+00
 1.5457193465e+00	 1.2219292525e+00	-1.2489611771e+00
 1.5306529346e+00	 1.2407501724e+00	-1.3226777424e+00
 1.5153475296e+00	 1.2593971816e+00	-1.3971698252e+00
 1.5954315494e+00	 1.1688469145e+00	-1.0249822772e+00
 1.5810452017e+00	 1.1882344081e+00	-1.0981966194e+00
 1.5664105656e+00	 1.2074613361e+00	-1.1711732640e+00
 1.5515303215e+00	 1.2265229715e+00	-1.2441709494e+00
 1.5364072689e+00	 1.2454146467e+00	-1.3173794301e+00
 1.5210443248e+00	 1.2641317575e+00	-1.3908757590e+00
 1.6014069485e+00	 1.1732246183e+00	-1.0202637359e+00
 1.5869667193e+00	 1.1926847242e+00	-1.0935529308e+00
 1.5722772718e+00	 1.2119836632e+00	-1.1664064501e+00
 1.5573412965e+00	 1.2311166905e+00	-1.2390147328e+00
 1.5421616033e+00	 1.2500791211e+00	-1.3114679169e+00
 1.5267411200e+00	 1.2688663334e+00	-1.3837110246e+00
 1.6073823475e+00	 1.1776023221e+00	-1.0153760357e+00
 1.5928882369e+00	 1.1971350403e+00	-1.0888113502e+00
 1.5781439781e+00	 1.2165059903e+00	-1.1614596924e+00
 1.5631522715e+00	 1.2357104095e+00	-1.2334893119e+00
 1.5479159376e+00	 1.2547435954e+00	-1.3049358713e+00
 1.5324379152e+00	 1.2736009092e+00	-1.3756563982e+00
 1.6133577466e+00	 1.1819800258e+00	-1.0102870671e+00
 1.5988097545e+00	 1.2015853565e+00	-1.0839557644e+00
 1.5840106843e+00	 1.2210283174e+00	-1.1563267170e+00
 1.5689632465e+00	 1.2403041285e+00	-1.2275915847e+00
 1.5536702719e+00	 1.2594080697e+00	-1.2977761935e+00
 1.5381347105e+00	 1.2783354851e+00	-1.3666931202e+00
 1.5096507343e+00	 1.2546626057e+00	-1.4026129363e+00
 1.4941677838e+00	 1.2730617533e+00	-1.4737601187e+00
 1.4784528715e+00	 1.2912787076e+00	-1.5364451096e+00
 1.4625092311e+00	 1.3093091090e+00	-1.5920651179e+00
 1.4463402049e+00	 1.3271486750e+00	-1.6426495378e+00
 1.4299492417e+00	 1.3447932034e+00	-1.6895000657e+00
 1.5153475296e+00	 1.2593971816e+00	-1.3971698252e+00
 1.4998061528e+00	 1.2778657599e+00	-1.4676948239e+00
 1.4840319389e+00	 1.2961514575e+00	-1.5305132944e+00
 1.4680281338e+00	 1.3142498981e+00	-1.5871285738e+00
 1.4517980925e+00	 1.3321567832e+00	-1.6390963219e+00
 1.4353452766e+00	 1.3498678948e+00	-1.6876379998e+00
 1.5210443248e+00	 1.2641317575e+00	-1.3908757590e+00
 1.5054445218e+00	 1.2826697666e+00	-1.4607130722e+00
 1.4896110064e+00	 1.3010242073e+00	-1.5238464627e+00
 1.4735470366e+00	 1.3191906872e+00	-1.5816247673e+00
 1.4572559800e+00	 1.3371648914e+00	-1.6353153880e+00
 1.4407413115e+00	 1.3549425861e+00	-1.6859019338e+00
 1.5267411200e+00	 1.2688663334e+00	-1.3837110246e+00
 1.5110828908e+00	 1.2874737732e+00	-1.4527818170e+00
 1.4951900738e+00	 1.3058969571e+00	-1.5164290626e+00
 1.4790659393e+00	 1.3241314763e+00	-1.5756168985e+00
 1.4627138676e+00	 1.3421729997e+00	-1.6313668183e+00
 1.4461373464e+00	 1.3600172774e+00	-1.6843598763e+00
 1.5324379152e+00	 1.2736009092e+00	-1.3756563982e+00
 1.5167212598e+00	 1.2922777798e+00	-1.4438687580e+00
 1.5007691412e+00	 1.3107697070e+00	-1.5082221325e+00
 1.4845848421e+00	 1.3290722654e+00	-1.5691636052e+00
 1.4681717552e+00	 1.3471811079e+00	-1.6273101276e+00
 1.4515333812e+00	 1.3650919688e+00	-1.6830796705e+00
 1.5381347105e+00	 1.2783354851e+00	-1.3666931202e+00
 1.5223596288e+00	 1.2970817864e+00	-1.4339423090e+00
 1.5063482087e+00	 1.3156424568e+00	-1.4991875808e+00
 1.4901037449e+00	 1.3340130545e+00	-1.5622696697e+00
 1.4736296427e+00	 1.3521892161e+00	-1.6232038943e+00
 1.4569294161e+00	 1.3701666601e+00	-1.6821286395e+00
 1.4299492417e+00	 1.3447932034e+00	-1.6895000657e+00
 1.4133398942e+00	 1.3622385758e+00	-1.7366686121e+00
 1.3965158163e+00	 1.3794807606e+00	-1.7852066809e+00
 1.3794807606e+00	 1.3965158163e+00	-1.8307055156e+00
 1.3622385758e+00	 1.4133398942e+00	-1.8685739939e+00
 1.3447932034e+00	 1.4299492417e+00	-1.8944288582e+00
 1.4353452766e+00	 1.3498678948e+00	-1.6876379998e+00
 1.4186732523e+00	 1.3673790987e+00	-1.7360598001e+00
 1.4017856873e+00	 1.3846863484e+00	-1.7850214969e+00
 1.3846863484e+00	 1.4017856873e+00	-1.8305528998e+00
 1.3673790987e+00	 1.4186732523e+00	-1.8684955155e+00
 1.3498678948e+00	 1.4353452766e+00	-1.8949020953e+00
 1.4407413115e+00	 1.3549425861e+00	-1.6859019338e+00
 1.4240066104e+00	 1.3725196217e+00	-1.7358233729e+00
 1.4070555583e+00	 1.3898919362e+00	-1.7853164379e+00
 1.3898919362e+00	 1.4070555583e+00	-1.8308916813e+00
 1.3725196217e+00	 1.4240066104e+00	-1.8688640266e+00
 1.3549425861e+00	 1.4407413115e+00	-1.8957617532e+00
 1.4461373464e+00	 1.3600172774e+00	-1.6843598763e+00
 1.4293399685e+00	 1.3776601446e+00	-1.7360391156e+00
 1.4123254293e+00	 1.3950975239e+00	-1.7861786815e+00
 1.3950975239e+00	 1.4123254293e+00	-1.8318111773e+00
 1.3776601446e+00	 1.4293399685e+00	-1.8697648576e+00
 1.3600172774e+00	 1.4461373464e+00	-1.8970821744e+00
 1.4515333812e+00	 1.3650919688e+00	-1.6830796705e+00
 1.4346733266e+00	 1.3828006675e+00	-1.7367870600e+00
 1.4175953003e+00	 1.4003031117e+00	-1.7876961856e+00
 1.4003031117e+00	 1.4175953003e+00	-1.8334021436e+00
 1.3828006675e+00	 1.4346733266e+00	-1.8712855607e+00
 1.3650919688e+00	 1.4515333812e+00	-1.8989408335e+00
 1.4569294161e+00	 1.3701666601e+00	-1.6821286395e+00
 1.4400066847e+00	 1.3879411905e+00	-1.7381471460e+00
 1.4228651713e+00	 1.4055086995e+00	-1.7899573660e+00
 1.4055086995e+00	 1.4228651713e+00	-1.8357564658e+00
 1.3879411905e+00	 1.4400066847e+00	-1.8735156145e+00
 1.3701666601e+00	 1.4569294161e+00	-1.9014180524e+00
 1.3447932034e+00	 1.4299492417e+00	-1.8944288582e+00
 1.3271486750e+00	 1.4463402049e+00	-1.9110060790e+00
 1.3093091090e+00	 1.4625092311e+00	-1.9223953582e+00
 1.2912787076e+00	 1.4784528715e+00	-1.9274620773e+00
 1.2730617533e+00	 1.4941677838e+00	-1.9298637907e+00
 1.2546626057e+00	 1.5096507343e+00	-1.9370409273e+00
 1.3498678948e+00	 1.4353452766e+00	-1.8949020953e+00
 1.3321567832e+00	 1.4517980925e+00	-1.9117739499e+00
 1.3142498981e+00	 1.4680281338e+00	-1.9221714588e+00
 1.2961514575e+00	 1.4840319389e+00	-1.9251084765e+00
 1.2778657599e+00	 1.4998061528e+00	-1.9277084594e+00
 1.2593971816e+00	 1.5153475296e+00	-1.9340385496e+00
 1.3549425861e+00	 1.4407413115e+00	-1.8957617532e+00
 1.3371648914e+00	 1.4572559800e+00	-1.9127876446e+00
 1.3191906872e+00	 1.4735470366e+00	-1.9218848897e+00
 1.3010242073e+00	 1.4896110064e+00	-1.9234244309e+00
 1.2826697666e+00	 1.5054445218e+00	-1.9259902306e+00
 1.2641317575e+00	 1.5210443248e+00	-1.9309444197e+00
 1.3600172774e+00	 1.4461373464e+00	-1.8970821744e+00
 1.3421729997e+00	 1.4627138676e+00	-1.9141125106e+00
 1.3241314763e+00	 1.4790659393e+00	-1.9216032591e+00
 1.3058969571e+00	 1.4951900738e+00	-1.9227597953e+00
 1.2874737732e+00	 1.5110828908e+00	-1.9248943142e+00
 1.2688663334e+00	 1.5267411200e+00	-1.9279902635e+00
 1.3650919688e+00	 1.4515333812e+00	-1.8989408335e+00
 1.3471811079e+00	 1.4681717552e+00	-1.9158179182e+00
 1.3290722654e+00	 1.4845848421e+00	-1.9216183325e+00
 1.3107697070e+00	 1.5007691412e+00	-1.9232587599e+00
 1.2922777798e+00	 1.5167212598e+00	-1.9245993337e+00
 1.2736009092e+00	 1.5324379152e+00	-1.9254006160e+00
 1.3701666601e+00	 1.4569294161e+00	-1.9014180524e+00
 1.3521892161e+00	 1.4736296427e+00	-1.9179769881e+00
 1.3340130545e+00	 1.4901037449e+00	-1.9230562600e+00
 1.3156424568e+00	 1.5063482087e+00	-1.9250594725e+00
 1.2970817864e+00	 1.5223596288e+00	-1.9252774453e+00
 1.2783354851e+00	 1.5381347105e+00	-1.9233929484e+00
 1.2546626057e+00	 1.5096507343e+00	-1.9370409273e+00
 1.2360856981e+00	 1.5248986002e+00	-1.9426809080e+00
 1.2173355335e+00	 1.5399083715e+00	-1.9406477215e+00
 1.1984166819e+00	 1.5546771531e+00	-1.9316027862e+00
 1.1793337758e+00	 1.5692021665e+00	-1.9162099519e+00
 1.1600915069e+00	 1.5834807513e+00	-1.8951009680e+00
 1.2593971816e+00	 1.5153475296e+00	-1.9340385496e+00
 1.2407501724e+00	 1.5306529346e+00	-1.9384300778e+00
 1.2219292525e+00	 1.5457193465e+00	-1.9355984396e+00
 1.2029390090e+00	 1.5605438594e+00	-1.9260901462e+00
 1.1837840919e+00	 1.5751236841e+00	-1.9104867936e+00
 1.1644692107e+00	 1.5894561503e+00	-1.8893695818e+00
 1.2641317575e+00	 1.5210443248e+00	-1.9309444197e+00
 1.2454146467e+00	 1.5364072689e+00	-1.9336520760e+00
 1.2265229715e+00	 1.5515303215e+00	-1.9298332519e+00
 1.2074613361e+00	 1.5664105656e+00	-1.9198764049e+00
 1.1882344081e+00	 1.5810452017e+00	-1.9042342915e+00
 1.1688469145e+00	 1.5954315494e+00	-1.8833876324e+00
 1.2688663334e+00	 1.5267411200e+00	-1.9279902635e+00
 1.2500791211e+00	 1.5421616033e+00	-1.9286193112e+00
 1.2311166905e+00	 1.5573412965e+00	-1.9236423528e+00
 1.2119836632e+00	 1.5722772718e+00	-1.9132471541e+00
 1.1926847242e+00	 1.5869667193e+00	-1.8977115783e+00
 1.1732246183e+00	 1.6014069485e+00	-1.8773664934e+00
 1.2736009092e+00	 1.5324379152e+00	-1.9254006160e+00
 1.2547435954e+00	 1.5479159376e+00	-1.9235964832e+00
 1.2357104095e+00	 1.5631522715e+00	-1.9173080519e+00
 1.2165059903e+00	 1.5781439781e+00	-1.9064802590e+00
 1.1971350403e+00	 1.5928882369e+00	-1.8911705475e+00
 1.1776023221e+00	 1.6073823475e+00	-1.8715111088e+00
 1.2783354851e+00	 1.5381347105e+00	-1.9233929484e+00
 1.2594080697e+00	 1.5536702719e+00	-1.9188407162e+00
 1.2403041285e+00	 1.5689632465e+00	-1.9111049062e+00
 1.2210283174e+00	 1.5840106843e+00	-1.8998459849e+00
 1.2015853565e+00	 1.5988097545e+00	-1.8848559677e+00
 1.1819800258e+00	 1.6133577466e+00	-1.8660200875e+00
 1.1600915069e+00	 1.5834807513e+00	-1.8951009680e+00
 1.1406946222e+00	 1.5975103671e+00	-1.8720086099e+00
 1.1211479205e+00	 1.6112885944e+00	-1.8502293533e+00
 1.1014562481e+00	 1.6248131362e+00	-1.8284342769e+00
 1.0816244955e+00	 1.6380818187e+00	-1.8009009280e+00
 1.0616575928e+00	 1.6510925927e+00	-1.7690566486e+00
 1.1644692107e+00	 1.5894561503e+00	-1.8893695818e+00
 1.1449991302e+00	 1.6035387081e+00	-1.8660283689e+00
 1.1253786673e+00	 1.6173689287e+00	-1.8434134924e+00
 1.1056126868e+00	 1.6309445065e+00	-1.8210326254e+00
 1.0857060973e+00	 1.6442632595e+00	-1.7932900340e+00
 1.0656638479e+00	 1.6573231308e+00	-1.7603694686e+00
 1.1688469145e+00	 1.5954315494e+00	-1.8833876324e+00
 1.1493036382e+00	 1.6095670491e+00	-1.8600154486e+00
 1.1296094142e+00	 1.6234492630e+00	-1.8366162959e+00
 1.1097691255e+00	 1.6370758768e+00	-1.8131722075e+00
 1.0897876992e+00	 1.6504447003e+00	-1.7851305159e+00
 1.0696701030e+00	 1.6635536688e+00	-1.7510499955e+00
 1.1732246183e+00	 1.6014069485e+00	-1.8773664934e+00
 1.1536081462e+00	 1.6155953901e+00	-1.8541408911e+00
 1.1338401611e+00	 1.6295295973e+00	-1.8300038981e+00
 1.1139255641e+00	 1.6432072471e+00	-1.8051517922e+00
 1.0938693011e+00	 1.6566261412e+00	-1.7766870854e+00
 1.0736763580e+00	 1.6697842069e+00	-1.7414504385e+00
 1.1776023221e+00	 1.6073823475e+00	-1.8715111088e+00
 1.1579126542e+00	 1.6216237311e+00	-1.8485700131e+00
 1.1380709080e+00	 1.6356099317e+00	-1.8237368934e+00
 1.1180820028e+00	 1.6493386175e+00	-1.7974458432e+00
 1.0979509030e+00	 1.6628075820e+00	-1.7682202203e+00
 1.0776826131e+00	 1.6760147450e+00	-1.7319178149e+00
 1.1819800258e+00	 1.6133577466e+00	-1.8660200875e+00
 1.1622171622e+00	 1.6276520721e+00	-1.8434624839e+00
 1.1423016548e+00	 1.6416902660e+00	-1.8179704068e+00
 1.1222384415e+00	 1.6554699878e+00	-1.7902590869e+00
 1.1020325048e+00	 1.6689890228e+00	-1.7599860554e+00
 1.0816888682e+00	 1.6822452831e+00	-1.7227938713e+00
 1.0616575928e+00	 1.6510925927e+00	-1.7690566486e+00
 1.0415605066e+00	 1.6638435338e+00	-1.7316868776e+00
 1.0213382353e+00	 1.6763328437e+00	-1.6885492376e+00
 1.0009958060e+00	 1.6885588501e+00	-1.6422682137e+00
 9.8053826971e-01	 1.7005200074e+00	-1.5947433397e+00
 9.5997069814e-01	 1.7122148968e+00	-1.5472763057e+00
 1.0656638479e+00	 1.6573231308e+00	-1.7603694686e+00
 1.0454909236e+00	 1.6701221887e+00	-1.7218176343e+00
 1.0251923419e+00	 1.6826586281e+00	-1.6780137929e+00
 1.0047731487e+00	 1.6949307703e+00	-1.6314740450e+00
 9.8423841412e-01	 1.7069370640e+00	-1.5839876112e+00
 9.6359322908e-01	 1.7186760850e+00	-1.5367470799e+00
 1.0696701030e+00	 1.6635536688e+00	-1.7510499955e+00
 1.0494213406e+00	 1.6764008435e+00	-1.7113065594e+00
 1.0290464484e+00	 1.6889844124e+00	-1.6669038853e+00
 1.0085504913e+00	 1.7013026905e+00	-1.6202014070e+00
 9.8793855854e-01	 1.7133541207e+00	-1.5728194924e+00
 9.6721576001e-01	 1.7251372733e+00	-1.5257731281e+00
 1.0736763580e+00	 1.6697842069e+00	-1.7414504385e+00
 1.0533517576e+00	 1.6826794984e+00	-1.7005752221e+00
 1.0329005550e+00	 1.6953101967e+00	-1.6556413719e+00
 1.0123278340e+00	 1.7076746107e+00	-1.6088038587e+00
 9.9163870295e-01	 1.7197711773e+00	-1.5614562302e+00
 9.7083829095e-01	 1.7315984616e+00	-1.5143680264e+00
 1.0776826131e+00	 1.6760147450e+00	-1.7319178149e+00
 1.0572821746e+00	 1.6889581532e+00	-1.6900393095e+00
 1.0367546615e+00	 1.7016359810e+00	-1.6446425592e+00
 1.0161051766e+00	 1.7140465309e+00	-1.5976307514e+00
 9.9533884736e-01	 1.7261882339e+00	-1.5501132042e+00
 9.7446082189e-01	 1.7380596499e+00	-1.5025468094e+00
 1.0816888682e+00	 1.6822452831e+00	-1.7227938713e+00
 1.0612125916e+00	 1.6952368081e+00	-1.6801085737e+00
 1.0406087681e+00	 1.7079617653e+00	-1.6343181574e+00
 1.0198825193e+00	 1.7204184511e+00	-1.5870271693e+00
 9.9903899178e-01	 1.7326052906e+00	-1.5390038364e+00
 9.7808335282e-01	 1.7445208382e+00	-1.4903258298e+00
 9.5997069814e-01	 1.7122148968e+00	-1.5472763057e+00
 9.3929817945e-01	 1.7236422262e+00	-1.4998320389e+00
 9.1852581445e-01	 1.7348008307e+00	-1.4513302115e+00
 8.9765871275e-01	 1.7456896716e+00	-1.4009222907e+00
 8.7670198893e-01	 1.7563078365e+00	-1.3475651628e+00
 8.5566075871e-01	 1.7666545389e+00	-1.2901172138e+00
 9.6359322908e-01	 1.7186760850e+00	-1.5367470799e+00
 9.4284270088e-01	 1.7301465365e+00	-1.4894489558e+00
 9.2199194960e-01	 1.7413472489e+00	-1.4408585699e+00
 9.0104610412e-01	 1.7522771798e+00	-1.3902017480e+00
 8.8001029832e-01	 1.7629354132e+00	-1.3365240175e+00
 8.5888966724e-01	 1.7733211598e+00	-1.2787882366e+00
 9.6721576001e-01	 1.7251372733e+00	-1.5257731281e+00
 9.4638722231e-01	 1.7366508468e+00	-1.4784988928e+00
 9.2545808475e-01	 1.7478936671e+00	-1.4297025376e+00
 9.0443349549e-01	 1.7588646879e+00	-1.3787532885e+00
 8.8331860771e-01	 1.7695629900e+00	-1.3248746154e+00
 8.6211857576e-01	 1.7799877807e+00	-1.2672429789e+00
 9.7083829095e-01	 1.7315984616e+00	-1.5143680264e+00
 9.4993174375e-01	 1.7431551571e+00	-1.4668247072e+00
 9.2892421990e-01	 1.7544400854e+00	-1.4176663625e+00
 9.0782088686e-01	 1.7654521961e+00	-1.3664735484e+00
 8.8662691710e-01	 1.7761905667e+00	-1.3127357319e+00
 8.6534748428e-01	 1.7866544016e+00	-1.2559507300e+00
 9.7446082189e-01	 1.7380596499e+00	-1.5025468094e+00
 9.5347626518e-01	 1.7496594674e+00	-1.4542735308e+00
 9.3239035505e-01	 1.7609865036e+00	-1.4045593971e+00
 9.1120827823e-01	 1.7720397043e+00	-1.3532631249e+00
 8.8993522649e-01	 1.7828181435e+00	-1.3002270036e+00
 8.6857639281e-01	 1.7933210225e+00	-1.2453766032e+00
 9.7808335282e-01	 1.7445208382e+00	-1.4903258298e+00
 9.5702078661e-01	 1.7561637777e+00	-1.4406965892e+00
 9.3585649020e-01	 1.7675329218e+00	-1.3901959123e+00
 9.1459566960e-01	 1.7786272125e+00	-1.3390264220e+00
 8.9324353589e-01	 1.7894457202e+00	-1.2874688418e+00
 8.7180530133e-01	 1.7999876434e+00	-1.2359815518e+00
 8.5566075871e-01	 1.7666545389e+00	-1.2901172138e+00
 8.3454013529e-01	 1.7767291174e+00	-1.2309858096e+00
 8.1334522556e-01	 1.7865310347e+00	-1.1733970434e+00
 7.9208112647e-01	 1.7960598774e+00	-1.1175243064e+00
 7.7075292147e-01	 1.8053153542e+00	-1.0637285792e+00
 7.4936567694e-01	 1.8142972954e+00	-1.0126058607e+00
 8.5888966724e-01	 1.7733211598e+00	-1.2787882366e+00
 8.3768934335e-01	 1.7834337556e+00	-1.2194913732e+00
 8.1641445282e-01	 1.7932726613e+00	-1.1618177191e+00
 7.9507011185e-01	 1.8028374618e+00	-1.1058569461e+00
 7.7366142306e-01	 1.8121278649e+00	-1.0518823152e+00
 7.5219347195e-01	 1.8211437003e+00	-1.0003991535e+00
 8.6211857576e-01	 1.7799877807e+00	-1.2672429789e+00
 8.4083855141e-01	 1.7901383937e+00	-1.2083521150e+00
 8.1948368009e-01	 1.8000142878e+00	-1.1510589448e+00
 7.9805909724e-01	 1.8096150462e+00	-1.0951821228e+00
 7.7656992465e-01	 1.8189403757e+00	-1.0406913964e+00
 7.5502126696e-01	 1.8279901052e+00	-9.8775807138e-01
 8.6534748428e-01	 1.7866544016e+00	-1.2559507300e+00
 8.4398775947e-01	 1.7968430319e+00	-1.1983477038e+00
 8.2255290736e-01	 1.8067559144e+00	-1.1420047320e+00
 8.0104808262e-01	 1.8163926307e+00	-1.0862847641e+00
 7.7947842624e-01	 1.8257528865e+00	-1.0306410740e+00
 7.5784906196e-01	 1.8348365101e+00	-9.7467065031e-01
 8.6857639281e-01	 1.7933210225e+00	-1.2453766032e+00
 8.4713696752e-01	 1.8035476701e+00	-1.1902491619e+00
 8.2562213462e-01	 1.8134975409e+00	-1.1355290072e+00
 8.0403706800e-01	 1.8231702151e+00	-1.0799412674e+00
 7.8238692783e-01	 1.8325653973e+00	-1.0222125753e+00
 7.6067685697e-01	 1.8416829150e+00	-9.6112831275e-01
 8.7180530133e-01	 1.7999876434e+00	-1.2359815518e+00
 8.5028617558e-01	 1.8102523083e+00	-1.1848189721e+00
 8.2869136189e-01	 1.8202391675e+00	-1.1324957545e+00
 8.0702605339e-01	 1.8299477996e+00	-1.0769196216e+00
 7.8529542943e-01	 1.8393779080e+00	-1.0158831474e+00
 7.6350465198e-01	 1.8485293199e+00	-9.4712578163e-01
 7.4936567694e-01	 1.8142972954e+00	-1.0126058607e+00
 7.2792443872e-01	 1.8230056515e+00	-9.6193750618e-01
 7.0643422873e-01	 1.8314404916e+00	-9.1119074049e-01
 6.8490004163e-01	 1.8396020023e+00	-8.5827346682e-01
 6.6332684156e-01	 1.8474904858e+00	-8.0180660053e-01
 6.4171955900e-01	 1.8551063586e+00	-7.4317335630e-01
 7.5219347195e-01	 1.8211437003e+00	-1.0003991535e+00
 7.3067132340e-01	 1.8298849181e+00	-9.4883206351e-01
 7.0910001827e-01	 1.8383515878e+00	-8.9677709407e-01
 6.8748457009e-01	 1.8465438967e+00	-8.4170394172e-01
 6.6582996172e-01	 1.8544621480e+00	-7.8221932729e-01
 6.4414114224e-01	 1.8621067599e+00	-7.2875573786e-01
 7.5502126696e-01	 1.8279901052e+00	-9.8775807138e-01
 7.3341820807e-01	 1.8367641847e+00	-9.3342448587e-01
 7.1176580782e-01	 1.8452626840e+00	-8.7742631705e-01
 6.9006909854e-01	 1.8534857910e+00	-8.1759672571e-01
 6.6833308187e-01	 1.8614338103e+00	-7.6197564056e-01
 6.4656272548e-01	 1.8691071613e+00	-7.1393876197e-01
 7.5784906196e-01	 1.8348365101e+00	-9.7467065031e-01
 7.3616509274e-01	 1.8436434513e+00	-9.1524362093e-01
 7.1443159736e-01	 1.8521737802e+00	-8.5244183826e-01
 6.9265362700e-01	 1.8604276854e+00	-7.9345352108e-01
 6.7083620203e-01	 1.8684054725e+00	-7.4291711373e-01
 6.4898430872e-01	 1.8761075626e+00	-6.9853313313e-01
 7.6067685697e-01	 1.8416829150e+00	-9.6112831275e-01
 7.3891197742e-01	 1.8505227180e+00	-8.9382676855e-01
 7.1709738690e-01	 1.8590848764e+00	-8.2740280878e-01
 6.9523815546e-01	 1.8673695797e+00	-7.7197920913e-01
 6.7333932219e-01	 1.8753771347e+00	-7.2440932943e-01
 6.5140589197e-01	 1.8831079640e+00	-6.8234923367e-01
 7.6350465198e-01	 1.8485293199e+00	-9.4712578163e-01
 7.4165886209e-01	 1.8574019846e+00	-8.7226236849e-01
 7.1976317644e-01	 1.8659959726e+00	-8.0674238259e-01
 6.9782268392e-01	 1.8743114741e+00	-7.5232145796e-01
 6.7584244234e-01	 1.8823487969e+00	-7.0582418198e-01
 6.5382747521e-01	 1.8901083653e+00	-6.6519716295e-01
 6.4171955900e-01	 1.8551063586e+00	-7.4317335630e-01
 6.2008308766e-01	 1.8624501492e+00	-6.9481796201e-01
 5.9842228150e-01	 1.8695224970e+00	-6.5642833294e-01
 5.7674195180e-01	 1.8763241498e+00	-6.2340138982e-01
 5.5504686438e-01	 1.8828559616e+00	-5.9158330711e-01
 5.3334173684e-01	 1.8891188914e+00	-5.5719530935e-01
 6.4414114224e-01	 1.8621067599e+00	-7.2875573786e-01
 6.2242302384e-01	 1.8694782630e+00	-6.8489694994e-01
 6.0068047879e-01	 1.8765772989e+00	-6.4838418272e-01
 5.7891833653e-01	 1.8834046183e+00	-6.1557906378e-01
 5.5714138085e-01	 1.8899610785e+00	-5.8333206986e-01
 5.3535434716e-01	 1.8962476419e+00	-5.4890510175e-01
 6.4656272548e-01	 1.8691071613e+00	-7.1393876197e-01
 6.2476296002e-01	 1.8765063768e+00	-6.7310167195e-01
 6.0293867608e-01	 1.8836321008e+00	-6.3781774234e-01
 5.8109472125e-01	 1.8904850867e+00	-6.0527863930e-01
 5.5923589732e-01	 1.8970661953e+00	-5.7317828572e-01
 5.3736695749e-01	 1.9033763924e+00	-5.3963309896e-01
 6.4898430872e-01	 1.8761075626e+00	-6.9853313313e-01
 6.2710289620e-01	 1.8835344905e+00	-6.5970588286e-01
 6.0519687337e-01	 1.8906869027e+00	-6.2527282068e-01
 5.8327110598e-01	 1.8975655552e+00	-5.9312310042e-01
 5.6133041379e-01	 1.9041713122e+00	-5.6163552473e-01
 5.3937956782e-01	 1.9105051430e+00	-5.2959732425e-01
 6.5140589197e-01	 1.8831079640e+00	-6.8234923367e-01
 6.2944283238e-01	 1.8905626043e+00	-6.4497617117e-01
 6.0745507066e-01	 1.8977417046e+00	-6.1128211982e-01
 5.8544749070e-01	 1.9046460237e+00	-5.7972325618e-01
 5.6342493026e-01	 1.9112764290e+00	-5.4920695117e-01
 5.4139217815e-01	 1.9176338935e+00	-5.1900996433e-01
 6.5382747521e-01	 1.8901083653e+00	-6.6519716295e-01
 6.3178276856e-01	 1.8975907181e+00	-6.2917211314e-01
 6.0971326794e-01	 1.9047965064e+00	-5.9636745133e-01
 5.8762387542e-01	 1.9117264922e+00	-5.6567796658e-01
 5.6551944673e-01	 1.9183815458e+00	-5.3638550772e-01
 5.4340478847e-01	 1.9247626440e+00	-5.0807746084e-01
 5.3334173684e-01	 1.8891188914e+00	-5.5719530935e-01
 5.1163123596e-01	 1.8951139998e+00	-5.1916260667e-01
 4.8991997520e-01	 1.9008424479e+00	-4.8008388523e-01
 4.6821251223e-01	 1.9063054942e+00	-4.4196160144e-01
 4.4651334664e-01	 1.9115044926e+00	-4.0679160072e-01
 4.2482691772e-01	 1.9164408898e+00	-3.7650618668e-01
 5.3535434716e-01	 1.8962476419e+00	-5.4890510175e-01
 5.1356191987e-01	 1.9022653734e+00	-5.1173264361e-01
 4.9176872982e-01	 1.9080154383e+00	-4.7402353172e-01
 4.6997935189e-01	 1.9134990999e+00	-4.3748277585e-01
 4.4819830266e-01	 1.9187177171e+00	-4.0379011934e-01
 4.2643003816e-01	 1.9236727422e+00	-3.7454468992e-01
 5.3736695749e-01	 1.9033763924e+00	-5.3963309896e-01
 5.1549260378e-01	 1.9094167470e+00	-5.0424893919e-01
 4.9361748444e-01	 1.9151884287e+00	-4.6861169560e-01
 4.7174619156e-01	 1.9206927055e+00	-4.3409862736e-01
 4.4988325869e-01	 1.9259309416e+00	-4.0206548752e-01
 4.2803315861e-01	 1.9309045946e+00	-3.7379227739e-01
 5.3937956782e-01	 1.9105051430e+00	-5.2959732425e-01
 5.1742328769e-01	 1.9165681206e+00	-4.9662210577e-01
 4.9546623907e-01	 1.9223614190e+00	-4.6361211231e-01
 4.7351303123e-01	 1.9278863112e+00	-4.3158618653e-01
 4.5156821471e-01	 1.9331441661e+00	-4.0156766464e-01
 4.2963627905e-01	 1.9381364470e+00	-3.7453076087e-01
 5.4139217815e-01	 1.9176338935e+00	-5.1900996433e-01
 5.1935397160e-01	 1.9237194942e+00	-4.8876169552e-01
 4.9731499369e-01	 1.9295344094e+00	-4.5878987543e-01
 4.7527987090e-01	 1.9350799168e+00	-4.2972390538e-01
 4.5325317074e-01	 1.9403573906e+00	-4.0224574542e-01
 4.3123939949e-01	 1.9453682994e+00	-3.7703645949e-01
 5.4340478847e-01	 1.9247626440e+00	-5.0807746084e-01
 5.2128465551e-01	 1.9308708678e+00	-4.8057619642e-01
 4.9916374831e-01	 1.9367073998e+00	-4.5391138160e-01
 4.7704671057e-01	 1.9422735224e+00	-4.2829159590e-01
 4.5493812676e-01	 1.9475706151e+00	-4.0404793635e-01
 4.3284251994e-01	 1.9526001518e+00	-3.8158025844e-01
 4.2482691772e-01	 1.9164408898e+00	-3.7650618668e-01
 4.0315760235e-01	 1.9211162228e+00	-3.5145200607e-01
 3.8150971298e-01	 1.9255321168e+00	-3.2573384572e-01
 3.5988749576e-01	 1.9296902820e+00	-2.9352749997e-01
 3.3829512869e-01	 1.9335925113e+00	-2.6184846596e-01
 3.1673671999e-01	 1.9372406779e+00	-2.3374899333e-01
 4.2643003816e-01	 1.9236727422e+00	-3.7454468992e-01
 4.0467895179e-01	 1.9283657180e+00	-3.5010286111e-01
 3.8294937228e-01	 1.9327982757e+00	-3.2522381886e-01
 3.6124556178e-01	 1.9369721321e+00	-2.9416546224e-01
 3.3957171408e-01	 1.9408890868e+00	-2.6299186554e-01
 3.1793195290e-01	 1.9445510201e+00	-2.3510971593e-01
 4.2803315861e-01	 1.9309045946e+00	-3.7379227739e-01
 4.0620030123e-01	 1.9356152132e+00	-3.4973569726e-01
 3.8438903157e-01	 1.9400644347e+00	-3.2541083425e-01
 3.6260362780e-01	 1.9442539822e+00	-2.9532377234e-01
 3.4084829947e-01	 1.9481856624e+00	-2.6462689320e-01
 3.1912718580e-01	 1.9518613623e+00	-2.3704010569e-01
 4.2963627905e-01	 1.9381364470e+00	-3.7453076087e-01
 4.0772165068e-01	 1.9428647084e+00	-3.5096308233e-01
 3.8582869086e-01	 1.9473305936e+00	-3.2707766253e-01
 3.6396169382e-01	 1.9515358323e+00	-2.9777091860e-01
 3.4212488486e-01	 1.9554822379e+00	-2.6734885030e-01
 3.2032241871e-01	 1.9591717045e+00	-2.3980059848e-01
 4.3123939949e-01	 1.9453682994e+00	-3.7703645949e-01
 4.0924300012e-01	 1.9501142036e+00	-3.5438749803e-01
 3.8726835016e-01	 1.9545967525e+00	-3.3099479689e-01
 3.6531975984e-01	 1.9588176825e+00	-3.0226609679e-01
 3.4340147025e-01	 1.9627788134e+00	-2.7174696357e-01
 3.2151765161e-01	 1.9664820466e+00	-2.4365100972e-01
 4.3284251994e-01	 1.9526001518e+00	-3.8158025844e-01
 4.1076434956e-01	 1.9573636987e+00	-3.6060148108e-01
 3.8870800945e-01	 1.9618629115e+00	-3.3792063294e-01
 3.6667782586e-01	 1.9660995326e+00	-3.0955924309e-01
 3.4467805564e-01	 1.9700753889e+00	-2.7840438866e-01
 3.2271288452e-01	 1.9737923888e+00	-2.4885046352e-01
 3.1673671999e-01	 1.9372406779e+00	-2.3374899333e-01
 2.9521630649e-01	 1.9406367322e+00	-2.0925048810e-01
 2.7373785215e-01	 1.9437826993e+00	-1.8813162424e-01
 2.5230524670e-01	 1.9466806765e+00	-1.7000032429e-01
 2.3092230435e-01	 1.9493328303e+00	-1.5380729236e-01
 2.0959276265e-01	 1.9517413937e+00	-1.3803623875e-01
 3.1793195290e-01	 1.9445510201e+00	-2.3510971593e-01
 2.9633033029e-01	 1.9479598897e+00	-2.1049462302e-01
 2.7477082518e-01	 1.9511177284e+00	-1.8881388101e-01
 2.5325734197e-01	 1.9540266414e+00	-1.6973412171e-01
 2.3179370927e-01	 1.9566888033e+00	-1.5224547398e-01
 2.1038367874e-01	 1.9591064555e+00	-1.3485034140e-01
 3.1912718580e-01	 1.9518613623e+00	-2.3704010569e-01
 2.9744435409e-01	 1.9552830472e+00	-2.1243994684e-01
 2.7580379821e-01	 1.9584527575e+00	-1.9031136572e-01
 2.5420943724e-01	 1.9613726062e+00	-1.7034867902e-01
 2.3266511419e-01	 1.9640447762e+00	-1.5157589511e-01
 2.1117459482e-01	 1.9664715174e+00	-1.3253324936e-01
 3.2032241871e-01	 1.9591717045e+00	-2.3980059848e-01
 2.9855837789e-01	 1.9626062046e+00	-2.1502330880e-01
 2.7683677123e-01	 1.9657877865e+00	-1.9242101327e-01
 2.5516153251e-01	 1.9687185710e+00	-1.7168468293e-01
 2.3353651911e-01	 1.9714007491e+00	-1.5186650389e-01
 2.1196551091e-01	 1.9738365793e+00	-1.3156337624e-01
 3.2151765161e-01	 1.9664820466e+00	-2.4365100972e-01
 2.9967240168e-01	 1.9699293621e+00	-2.1818606487e-01
 2.7786974426e-01	 1.9731228156e+00	-1.9494651206e-01
 2.5611362778e-01	 1.9760645358e+00	-1.7358895071e-01
 2.3440792404e-01	 1.9787567221e+00	-1.5318790067e-01
 2.1275642700e-01	 1.9812016411e+00	-1.3241547100e-01
 3.2271288452e-01	 1.9737923888e+00	-2.4885046352e-01
 3.0078642548e-01	 1.9772525196e+00	-2.2187393527e-01
 2.7890271729e-01	 1.9804578446e+00	-1.9769813978e-01
 2.5706572305e-01	 1.9834105006e+00	-1.7591429442e-01
 2.3527932896e-01	 1.9861126950e+00	-1.5561328044e-01
 2.1354734308e-01	 1.9885667030e+00	-1.3556068844e-01
 2.0959276265e-01	 1.9517413937e+00	-1.3803623875e-01
 1.8832028144e-01	 1.9539086636e+00	-1.2152672267e-01
 1.6710844183e-01	 1.9558369980e+00	-1.0578156639e-01
 1.4596074542e-01	 1.9575288133e+00	-9.3134279849e-02
 1.2488061347e-01	 1.9589865815e+00	-8.6152294604e-02
 1.0387138629e-01	 1.9602128275e+00	-8.7758230598e-02
 2.1038367874e-01	 1.9591064555e+00	-1.3485034140e-01
 1.8903092401e-01	 1.9612819038e+00	-1.1703720928e-01
 1.6773903973e-01	 1.9632175149e+00	-1.0085455340e-01
 1.4651154069e-01	 1.9649157144e+00	-8.8477898072e-02
 1.2535186107e-01	 1.9663789837e+00	-8.2307838211e-02
 1.0426335379e-01	 1.9676098570e+00	-8.5088988830e-02
 2.1117459482e-01	 1.9664715174e+00	-1.3253324936e-01
 1.8974156658e-01	 1.9686551440e+00	-1.1333066777e-01
 1.6836963762e-01	 1.9705980319e+00	-9.6513593015e-02
 1.4706233595e-01	 1.9723026156e+00	-8.4071736752e-02
 1.2582310867e-01	 1.9737713858e+00	-7.8167768376e-02
 1.0465532128e-01	 1.9750068866e+00	-8.1255212167e-02
 2.1196551091e-01	 1.9738365793e+00	-1.3156337624e-01
 1.9045220915e-01	 1.9760283843e+00	-1.1120952975e-01
 1.6900023551e-01	 1.9779785489e+00	-9.3530637057e-02
 1.4761313122e-01	 1.9796895168e+00	-8.0305004295e-02
 1.2629435627e-01	 1.9811637880e+00	-7.3388843302e-02
 1.0504728878e-01	 1.9824039161e+00	-7.4834368313e-02
 2.1275642700e-01	 1.9812016411e+00	-1.3241547100e-01
 1.9116285172e-01	 1.9834016245e+00	-1.1146742988e-01
 1.6963083341e-01	 1.9853590659e+00	-9.2668892277e-02
 1.4816392648e-01	 1.9870764180e+00	-7.7563381192e-02
 1.2676560387e-01	 1.9885561902e+00	-6.7634652418e-02
 1.0543925627e-01	 1.9898009456e+00	-6.4426229698e-02
 2.1354734308e-01	 1.9885667030e+00	-1.3556068844e-01
 1.9187349429e-01	 1.9907748648e+00	-1.1488937974e-01
 1.7026143130e-01	 1.9927395828e+00	-9.4682999132e-02
 1.4871472175e-01	 1.9944633192e+00	-7.6229105849e-02
 1.2723685146e-01	 1.9959485924e+00	-6.0575511973e-02
 1.0583122377e-01	 1.9971979752e+00	-4.8652482268e-02
 1.0387138629e-01	 1.9602128275e+00	-8.7758230598e-02
 8.2936322626e-02	 1.9612101265e+00	-9.0739303837e-02
 6.2078599206e-02	 1.9619811012e+00	-8.7005124249e-02
 4.1301310363e-02	 1.9625284191e+00	-7.8916893900e-02
 2.0607467721e-02	 1.9628547899e+00	-6.9480881027e-02
 0.0000000000e+00	 1.9629629630e+00	-6.2452886978e-02
 1.0426335379e-01	 1.9676098570e+00	-8.5088988830e-02
 8.3249289881e-02	 1.9686109194e+00	-8.8922234028e-02
 6.2312858071e-02	 1.9693848035e+00	-8.5865635848e-02
 4.1457164364e-02	 1.9699341867e+00	-7.9370792248e-02
 2.0685231750e-02	 1.9702617891e+00	-7.3564192907e-02
 0.0000000000e+00	 1.9703703704e+00	-7.3345875328e-02
 1.0465532128e-01	 1.9750068866e+00	-8.1255212167e-02
 8.3562257136e-02	 1.9760117124e+00	-8.5304263912e-02
 6.2547116936e-02	 1.9767885057e+00	-8.3225410703e-02
 4.1613018365e-02	 1.9773399543e+00	-7.9734290849e-02
 2.0762995779e-02	 1.9776687883e+00	-8.0374336445e-02
 0.0000000000e+00	 1.9777777778e+00	-9.1605133862e-02
 1.0504728878e-01	 1.9824039161e+00	-7.4834368313e-02
 8.3875224391e-02	 1.9834125053e+00	-7.7744061905e-02
 6.2781375801e-02	 1.9841922080e+00	-7.7286763648e-02
 4.1768872367e-02	 1.9847457219e+00	-7.9610141598e-02
 2.0840759808e-02	 1.9850757875e+00	-9.1964749155e-02
 0.0000000000e+00	 1.9851851852e+00	-1.2277763082e-01
 1.0543925627e-01	 1.9898009456e+00	-6.4426229698e-02
 8.4188191646e-02	 1.9908132982e+00	-6.4132686261e-02
 6.3015634666e-02	 1.9915959103e+00	-6.6278673375e-02
 4.1924726368e-02	 1.9921514896e+00	-7.8606322553e-02
 2.0918523837e-02	 1.9924827867e+00	-1.1035705778e-01
 0.0000000000e+00	 1.9925925926e+00	-1.7232601262e-01
 1.0583122377e-01	 1.9971979752e+00	-4.8652482268e-02
 8.4501158901e-02	 1.9982140912e+00	-4.2393005189e-02
 6.3249893531e-02	 1.9989996125e+00	-4.8456305232e-02
 4.2080580369e-02	 1.9995572572e+00	-7.6335953153e-02
 2.0996287866e-02	 1.9998897859e+00	-1.3754167378e-01
 0.0000000000e+00	 2.0000000000e+00	-2.4563016537e-01
