patch_n	x	y	stress_yy
0	 0.000000e+00	 0.000000e+00	 4.595722e-01
0	 7.407407e-02	 0.000000e+00	 6.229588e-01
0	 1.481481e-01	 0.000000e+00	 7.186928e-01
0	 2.222222e-01	 0.000000e+00	 7.394067e-01
0	 2.962963e-01	 0.000000e+00	 6.777329e-01
0	 3.703704e-01	 0.000000e+00	 5.263039e-01
0	 3.703704e-01	 0.000000e+00	 5.263039e-01
0	 4.444444e-01	 0.000000e+00	 3.354268e-01
0	 5.185185e-01	 0.000000e+00	 1.740891e-01
0	 5.925926e-01	 0.000000e+00	 6.294335e-02
0	 6.666667e-01	 0.000000e+00	 2.264212e-02
0	 7.407407e-01	 0.000000e+00	 7.383800e-02
0	 7.407407e-01	 0.000000e+00	 7.383800e-02
0	 8.148148e-01	 0.000000e+00	 2.904028e-02
0	 8.888889e-01	 0.000000e+00	-2.605218e-01
0	 9.629630e-01	 0.000000e+00	-7.161156e-01
0	 1.037037e+00	 0.000000e+00	-1.259009e+00
0	 1.111111e+00	 0.000000e+00	-1.810469e+00
0	 1.111111e+00	 0.000000e+00	-1.810469e+00
0	 1.185185e+00	 0.000000e+00	-2.159434e+00
0	 1.259259e+00	 0.000000e+00	-2.234323e+00
0	 1.333333e+00	 0.000000e+00	-2.165619e+00
0	 1.407407e+00	 0.000000e+00	-2.083806e+00
0	 1.481481e+00	 0.000000e+00	-2.119368e+00
0	 1.481481e+00	 0.000000e+00	-2.119368e+00
0	 1.555556e+00	 0.000000e+00	-1.890871e+00
0	 1.629630e+00	 0.000000e+00	-9.402295e-01
0	 1.703704e+00	 0.000000e+00	 7.170434e-01
0	 1.777778e+00	 0.000000e+00	 3.065436e+00
0	 1.851852e+00	 0.000000e+00	 6.089438e+00
0	 1.851852e+00	 0.000000e+00	 6.089438e+00
0	 1.925926e+00	 0.000000e+00	 8.965215e+00
0	 2.000000e+00	 0.000000e+00	 1.093352e+01
0	 2.074074e+00	 0.000000e+00	 1.207570e+01
0	 2.148148e+00	 0.000000e+00	 1.247312e+01
0	 2.222222e+00	 0.000000e+00	 1.220714e+01
0	 2.222222e+00	 0.000000e+00	 1.220714e+01
0	 2.296296e+00	 0.000000e+00	 1.173401e+01
0	 2.370370e+00	 0.000000e+00	 1.143463e+01
0	 2.444444e+00	 0.000000e+00	 1.127740e+01
0	 2.518519e+00	 0.000000e+00	 1.123066e+01
0	 2.592593e+00	 0.000000e+00	 1.126281e+01
0	 2.592593e+00	 0.000000e+00	 1.126281e+01
0	 2.666667e+00	 0.000000e+00	 1.128781e+01
0	 2.740741e+00	 0.000000e+00	 1.125207e+01
0	 2.814815e+00	 0.000000e+00	 1.117262e+01
0	 2.888889e+00	 0.000000e+00	 1.106648e+01
0	 2.962963e+00	 0.000000e+00	 1.095069e+01
0	 2.962963e+00	 0.000000e+00	 1.095069e+01
0	 3.037037e+00	 0.000000e+00	 1.085884e+01
0	 3.111111e+00	 0.000000e+00	 1.080574e+01
0	 3.185185e+00	 0.000000e+00	 1.078019e+01
0	 3.259259e+00	 0.000000e+00	 1.077099e+01
0	 3.333333e+00	 0.000000e+00	 1.076696e+01
0	 3.333333e+00	 0.000000e+00	 1.076696e+01
0	 3.407407e+00	 0.000000e+00	 1.075233e+01
0	 3.481481e+00	 0.000000e+00	 1.072269e+01
0	 3.555556e+00	 0.000000e+00	 1.068390e+01
0	 3.629630e+00	 0.000000e+00	 1.064179e+01
0	 3.703704e+00	 0.000000e+00	 1.060219e+01
0	 3.703704e+00	 0.000000e+00	 1.060219e+01
0	 3.777778e+00	 0.000000e+00	 1.057148e+01
0	 3.851852e+00	 0.000000e+00	 1.055003e+01
0	 3.925926e+00	 0.000000e+00	 1.053475e+01
0	 4.000000e+00	 0.000000e+00	 1.052253e+01
0	 4.074074e+00	 0.000000e+00	 1.051027e+01
0	 4.074074e+00	 0.000000e+00	 1.051027e+01
0	 4.148148e+00	 0.000000e+00	 1.049515e+01
0	 4.222222e+00	 0.000000e+00	 1.047737e+01
0	 4.296296e+00	 0.000000e+00	 1.045829e+01
0	 4.370370e+00	 0.000000e+00	 1.043929e+01
0	 4.444444e+00	 0.000000e+00	 1.042175e+01
0	 4.444444e+00	 0.000000e+00	 1.042175e+01
0	 4.518519e+00	 0.000000e+00	 1.040655e+01
0	 4.592593e+00	 0.000000e+00	 1.039324e+01
0	 4.666667e+00	 0.000000e+00	 1.038120e+01
0	 4.740741e+00	 0.000000e+00	 1.036981e+01
0	 4.814815e+00	 0.000000e+00	 1.035843e+01
0	 4.814815e+00	 0.000000e+00	 1.035843e+01
0	 4.888889e+00	 0.000000e+00	 1.034671e+01
0	 4.962963e+00	 0.000000e+00	 1.033484e+01
0	 5.037037e+00	 0.000000e+00	 1.032304e+01
0	 5.111111e+00	 0.000000e+00	 1.031154e+01
0	 5.185185e+00	 0.000000e+00	 1.030055e+01
0	 5.185185e+00	 0.000000e+00	 1.030055e+01
0	 5.259259e+00	 0.000000e+00	 1.029011e+01
0	 5.333333e+00	 0.000000e+00	 1.028003e+01
0	 5.407407e+00	 0.000000e+00	 1.027022e+01
0	 5.481481e+00	 0.000000e+00	 1.026061e+01
0	 5.555556e+00	 0.000000e+00	 1.025110e+01
0	 5.555556e+00	 0.000000e+00	 1.025110e+01
0	 5.629630e+00	 0.000000e+00	 1.024169e+01
0	 5.703704e+00	 0.000000e+00	 1.023241e+01
0	 5.777778e+00	 0.000000e+00	 1.022328e+01
0	 5.851852e+00	 0.000000e+00	 1.021430e+01
0	 5.925926e+00	 0.000000e+00	 1.020549e+01
0	 5.925926e+00	 0.000000e+00	 1.020549e+01
0	 6.000000e+00	 0.000000e+00	 1.019680e+01
0	 6.074074e+00	 0.000000e+00	 1.018819e+01
0	 6.148148e+00	 0.000000e+00	 1.017965e+01
0	 6.222222e+00	 0.000000e+00	 1.017118e+01
0	 6.296296e+00	 0.000000e+00	 1.016278e+01
0	 6.296296e+00	 0.000000e+00	 1.016278e+01
0	 6.370370e+00	 0.000000e+00	 1.015445e+01
0	 6.444444e+00	 0.000000e+00	 1.014618e+01
0	 6.518519e+00	 0.000000e+00	 1.013797e+01
0	 6.592593e+00	 0.000000e+00	 1.012980e+01
0	 6.666667e+00	 0.000000e+00	 1.012168e+01
0	 6.666667e+00	 0.000000e+00	 1.012168e+01
0	 6.740741e+00	 0.000000e+00	 1.011356e+01
0	 6.814815e+00	 0.000000e+00	 1.010544e+01
0	 6.888889e+00	 0.000000e+00	 1.009732e+01
0	 6.962963e+00	 0.000000e+00	 1.008919e+01
0	 7.037037e+00	 0.000000e+00	 1.008107e+01
0	 7.037037e+00	 0.000000e+00	 1.008107e+01
0	 7.111111e+00	 0.000000e+00	 1.007293e+01
0	 7.185185e+00	 0.000000e+00	 1.006478e+01
0	 7.259259e+00	 0.000000e+00	 1.005660e+01
0	 7.333333e+00	 0.000000e+00	 1.004839e+01
0	 7.407407e+00	 0.000000e+00	 1.004014e+01
0	 7.407407e+00	 0.000000e+00	 1.004014e+01
0	 7.481481e+00	 0.000000e+00	 1.003183e+01
0	 7.555556e+00	 0.000000e+00	 1.002346e+01
0	 7.629630e+00	 0.000000e+00	 1.001503e+01
0	 7.703704e+00	 0.000000e+00	 1.000651e+01
0	 7.777778e+00	 0.000000e+00	 9.997921e+00
0	 7.777778e+00	 0.000000e+00	 9.997921e+00
0	 7.851852e+00	 0.000000e+00	 9.989243e+00
0	 7.925926e+00	 0.000000e+00	 9.980472e+00
0	 8.000000e+00	 0.000000e+00	 9.971597e+00
0	 8.074074e+00	 0.000000e+00	 9.962606e+00
0	 8.148148e+00	 0.000000e+00	 9.953490e+00
0	 8.148148e+00	 0.000000e+00	 9.953490e+00
0	 8.222222e+00	 0.000000e+00	 9.944241e+00
0	 8.296296e+00	 0.000000e+00	 9.934853e+00
0	 8.370370e+00	 0.000000e+00	 9.925312e+00
0	 8.444444e+00	 0.000000e+00	 9.915606e+00
0	 8.518519e+00	 0.000000e+00	 9.905723e+00
0	 8.518519e+00	 0.000000e+00	 9.905723e+00
0	 8.592593e+00	 0.000000e+00	 9.895657e+00
0	 8.666667e+00	 0.000000e+00	 9.885400e+00
0	 8.740741e+00	 0.000000e+00	 9.874935e+00
0	 8.814815e+00	 0.000000e+00	 9.864245e+00
0	 8.888889e+00	 0.000000e+00	 9.853311e+00
0	 8.888889e+00	 0.000000e+00	 9.853311e+00
0	 8.962963e+00	 0.000000e+00	 9.842129e+00
0	 9.037037e+00	 0.000000e+00	 9.830690e+00
0	 9.111111e+00	 0.000000e+00	 9.818971e+00
0	 9.185185e+00	 0.000000e+00	 9.806949e+00
0	 9.259259e+00	 0.000000e+00	 9.794601e+00
0	 9.259259e+00	 0.000000e+00	 9.794601e+00
0	 9.333333e+00	 0.000000e+00	 9.781923e+00
0	 9.407407e+00	 0.000000e+00	 9.768905e+00
0	 9.481481e+00	 0.000000e+00	 9.755516e+00
0	 9.555556e+00	 0.000000e+00	 9.741724e+00
0	 9.629630e+00	 0.000000e+00	 9.727499e+00
0	 9.629630e+00	 0.000000e+00	 9.727499e+00
0	 9.703704e+00	 0.000000e+00	 9.712835e+00
0	 9.777778e+00	 0.000000e+00	 9.697720e+00
0	 9.851852e+00	 0.000000e+00	 9.682111e+00
0	 9.925926e+00	 0.000000e+00	 9.665967e+00
0	 1.000000e+01	 0.000000e+00	 9.649247e+00
1	 1.000000e+00	 0.000000e+00	 3.174577e+01
1	 1.007407e+00	 0.000000e+00	 3.127573e+01
1	 1.014815e+00	 0.000000e+00	 3.082441e+01
1	 1.022222e+00	 0.000000e+00	 3.039065e+01
1	 1.029630e+00	 0.000000e+00	 2.997334e+01
1	 1.037037e+00	 0.000000e+00	 2.957139e+01
1	 1.037037e+00	 0.000000e+00	 2.957139e+01
1	 1.044444e+00	 0.000000e+00	 2.918464e+01
1	 1.051852e+00	 0.000000e+00	 2.881292e+01
1	 1.059259e+00	 0.000000e+00	 2.845523e+01
1	 1.066667e+00	 0.000000e+00	 2.811060e+01
1	 1.074074e+00	 0.000000e+00	 2.777809e+01
1	 1.074074e+00	 0.000000e+00	 2.777809e+01
1	 1.081481e+00	 0.000000e+00	 2.745754e+01
1	 1.088889e+00	 0.000000e+00	 2.714888e+01
1	 1.096296e+00	 0.000000e+00	 2.685130e+01
1	 1.103704e+00	 0.000000e+00	 2.656403e+01
1	 1.111111e+00	 0.000000e+00	 2.628630e+01
1	 1.111111e+00	 0.000000e+00	 2.628630e+01
1	 1.118519e+00	 0.000000e+00	 2.601633e+01
1	 1.125926e+00	 0.000000e+00	 2.575252e+01
1	 1.133333e+00	 0.000000e+00	 2.549442e+01
1	 1.140741e+00	 0.000000e+00	 2.524163e+01
1	 1.148148e+00	 0.000000e+00	 2.499373e+01
1	 1.148148e+00	 0.000000e+00	 2.499373e+01
1	 1.155556e+00	 0.000000e+00	 2.475078e+01
1	 1.162963e+00	 0.000000e+00	 2.451289e+01
1	 1.170370e+00	 0.000000e+00	 2.427974e+01
1	 1.177778e+00	 0.000000e+00	 2.405104e+01
1	 1.185185e+00	 0.000000e+00	 2.382647e+01
1	 1.185185e+00	 0.000000e+00	 2.382647e+01
1	 1.192593e+00	 0.000000e+00	 2.360611e+01
1	 1.200000e+00	 0.000000e+00	 2.339009e+01
1	 1.207407e+00	 0.000000e+00	 2.317816e+01
1	 1.214815e+00	 0.000000e+00	 2.297011e+01
1	 1.222222e+00	 0.000000e+00	 2.276571e+01
1	 1.222222e+00	 0.000000e+00	 2.276571e+01
1	 1.229630e+00	 0.000000e+00	 2.256503e+01
1	 1.237037e+00	 0.000000e+00	 2.236818e+01
1	 1.244444e+00	 0.000000e+00	 2.217499e+01
1	 1.251852e+00	 0.000000e+00	 2.198530e+01
1	 1.259259e+00	 0.000000e+00	 2.179897e+01
1	 1.259259e+00	 0.000000e+00	 2.179897e+01
1	 1.266667e+00	 0.000000e+00	 2.161609e+01
1	 1.274074e+00	 0.000000e+00	 2.143677e+01
1	 1.281481e+00	 0.000000e+00	 2.126094e+01
1	 1.288889e+00	 0.000000e+00	 2.108850e+01
1	 1.296296e+00	 0.000000e+00	 2.091935e+01
1	 1.296296e+00	 0.000000e+00	 2.091935e+01
1	 1.303704e+00	 0.000000e+00	 2.075358e+01
1	 1.311111e+00	 0.000000e+00	 2.059128e+01
1	 1.318519e+00	 0.000000e+00	 2.043240e+01
1	 1.325926e+00	 0.000000e+00	 2.027685e+01
1	 1.333333e+00	 0.000000e+00	 2.012458e+01
1	 1.333333e+00	 0.000000e+00	 2.012458e+01
1	 1.340741e+00	 0.000000e+00	 1.997568e+01
1	 1.348148e+00	 0.000000e+00	 1.983030e+01
1	 1.355556e+00	 0.000000e+00	 1.968843e+01
1	 1.362963e+00	 0.000000e+00	 1.955008e+01
1	 1.370370e+00	 0.000000e+00	 1.941522e+01
1	 1.370370e+00	 0.000000e+00	 1.941522e+01
1	 1.377778e+00	 0.000000e+00	 1.928397e+01
1	 1.385185e+00	 0.000000e+00	 1.915643e+01
1	 1.392593e+00	 0.000000e+00	 1.903257e+01
1	 1.400000e+00	 0.000000e+00	 1.891239e+01
1	 1.407407e+00	 0.000000e+00	 1.879587e+01
1	 1.407407e+00	 0.000000e+00	 1.879587e+01
1	 1.414815e+00	 0.000000e+00	 1.868312e+01
1	 1.422222e+00	 0.000000e+00	 1.857429e+01
1	 1.429630e+00	 0.000000e+00	 1.846940e+01
1	 1.437037e+00	 0.000000e+00	 1.836851e+01
1	 1.444444e+00	 0.000000e+00	 1.827165e+01
1	 1.444444e+00	 0.000000e+00	 1.827165e+01
1	 1.451852e+00	 0.000000e+00	 1.817893e+01
1	 1.459259e+00	 0.000000e+00	 1.809045e+01
1	 1.466667e+00	 0.000000e+00	 1.800624e+01
1	 1.474074e+00	 0.000000e+00	 1.792633e+01
1	 1.481481e+00	 0.000000e+00	 1.785075e+01
1	 1.481481e+00	 0.000000e+00	 1.785075e+01
1	 1.488889e+00	 0.000000e+00	 1.777467e+01
1	 1.496296e+00	 0.000000e+00	 1.769321e+01
1	 1.503704e+00	 0.000000e+00	 1.760632e+01
1	 1.511111e+00	 0.000000e+00	 1.751396e+01
1	 1.518519e+00	 0.000000e+00	 1.741609e+01
1	 1.518519e+00	 0.000000e+00	 1.741609e+01
1	 1.525926e+00	 0.000000e+00	 1.731268e+01
1	 1.533333e+00	 0.000000e+00	 1.720371e+01
1	 1.540741e+00	 0.000000e+00	 1.708911e+01
1	 1.548148e+00	 0.000000e+00	 1.696880e+01
1	 1.555556e+00	 0.000000e+00	 1.684272e+01
1	 1.555556e+00	 0.000000e+00	 1.684272e+01
1	 1.562963e+00	 0.000000e+00	 1.671088e+01
1	 1.570370e+00	 0.000000e+00	 1.657333e+01
1	 1.577778e+00	 0.000000e+00	 1.643006e+01
1	 1.585185e+00	 0.000000e+00	 1.628105e+01
1	 1.592593e+00	 0.000000e+00	 1.612629e+01
1	 1.592593e+00	 0.000000e+00	 1.612629e+01
1	 1.600000e+00	 0.000000e+00	 1.596574e+01
1	 1.607407e+00	 0.000000e+00	 1.579936e+01
1	 1.614815e+00	 0.000000e+00	 1.562710e+01
1	 1.622222e+00	 0.000000e+00	 1.544889e+01
1	 1.629630e+00	 0.000000e+00	 1.526469e+01
1	 1.629630e+00	 0.000000e+00	 1.526469e+01
1	 1.637037e+00	 0.000000e+00	 1.507451e+01
1	 1.644444e+00	 0.000000e+00	 1.487843e+01
1	 1.651852e+00	 0.000000e+00	 1.467644e+01
1	 1.659259e+00	 0.000000e+00	 1.446855e+01
1	 1.666667e+00	 0.000000e+00	 1.425476e+01
1	 1.666667e+00	 0.000000e+00	 1.425476e+01
1	 1.674074e+00	 0.000000e+00	 1.403505e+01
1	 1.681481e+00	 0.000000e+00	 1.380935e+01
1	 1.688889e+00	 0.000000e+00	 1.357764e+01
1	 1.696296e+00	 0.000000e+00	 1.333985e+01
1	 1.703704e+00	 0.000000e+00	 1.309593e+01
1	 1.703704e+00	 0.000000e+00	 1.309593e+01
1	 1.711111e+00	 0.000000e+00	 1.284593e+01
1	 1.718519e+00	 0.000000e+00	 1.258990e+01
1	 1.725926e+00	 0.000000e+00	 1.232787e+01
1	 1.733333e+00	 0.000000e+00	 1.205984e+01
1	 1.740741e+00	 0.000000e+00	 1.178583e+01
1	 1.740741e+00	 0.000000e+00	 1.178583e+01
1	 1.748148e+00	 0.000000e+00	 1.150583e+01
1	 1.755556e+00	 0.000000e+00	 1.121982e+01
1	 1.762963e+00	 0.000000e+00	 1.092775e+01
1	 1.770370e+00	 0.000000e+00	 1.062962e+01
1	 1.777778e+00	 0.000000e+00	 1.032540e+01
1	 1.777778e+00	 0.000000e+00	 1.032540e+01
1	 1.785185e+00	 0.000000e+00	 1.001513e+01
1	 1.792593e+00	 0.000000e+00	 9.698828e+00
1	 1.800000e+00	 0.000000e+00	 9.376494e+00
1	 1.807407e+00	 0.000000e+00	 9.048112e+00
1	 1.814815e+00	 0.000000e+00	 8.713670e+00
1	 1.814815e+00	 0.000000e+00	 8.713670e+00
1	 1.822222e+00	 0.000000e+00	 8.373150e+00
1	 1.829630e+00	 0.000000e+00	 8.026548e+00
1	 1.837037e+00	 0.000000e+00	 7.673869e+00
1	 1.844444e+00	 0.000000e+00	 7.315118e+00
1	 1.851852e+00	 0.000000e+00	 6.950300e+00
1	 1.851852e+00	 0.000000e+00	 6.950300e+00
1	 1.859259e+00	 0.000000e+00	 6.587706e+00
1	 1.866667e+00	 0.000000e+00	 6.235515e+00
1	 1.874074e+00	 0.000000e+00	 5.893568e+00
1	 1.881481e+00	 0.000000e+00	 5.561709e+00
1	 1.888889e+00	 0.000000e+00	 5.239783e+00
1	 1.888889e+00	 0.000000e+00	 5.239783e+00
1	 1.896296e+00	 0.000000e+00	 4.927717e+00
1	 1.903704e+00	 0.000000e+00	 4.625462e+00
1	 1.911111e+00	 0.000000e+00	 4.332913e+00
1	 1.918519e+00	 0.000000e+00	 4.049964e+00
1	 1.925926e+00	 0.000000e+00	 3.776511e+00
1	 1.925926e+00	 0.000000e+00	 3.776511e+00
1	 1.933333e+00	 0.000000e+00	 3.512771e+00
1	 1.940741e+00	 0.000000e+00	 3.259045e+00
1	 1.948148e+00	 0.000000e+00	 3.015353e+00
1	 1.955556e+00	 0.000000e+00	 2.781715e+00
1	 1.962963e+00	 0.000000e+00	 2.558153e+00
1	 1.962963e+00	 0.000000e+00	 2.558153e+00
1	 1.970370e+00	 0.000000e+00	 2.344929e+00
1	 1.977778e+00	 0.000000e+00	 2.143809e+00
1	 1.985185e+00	 0.000000e+00	 1.957037e+00
1	 1.992593e+00	 0.000000e+00	 1.786825e+00
1	 2.000000e+00	 0.000000e+00	 1.635349e+00
