patch_n	x	y	stress_yy
0	 0.000000e+00	 0.000000e+00	 4.595722e-01
0	 0.000000e+00	 7.407407e-02	-1.220321e-01
0	 0.000000e+00	 1.481481e-01	-4.038814e-01
0	 0.000000e+00	 2.222222e-01	-4.075700e-01
0	 0.000000e+00	 2.962963e-01	-1.546918e-01
0	 0.000000e+00	 3.703704e-01	 3.331588e-01
0	 7.407407e-02	 0.000000e+00	 6.229588e-01
0	 7.407407e-02	 7.407407e-02	 2.971029e-02
0	 7.407407e-02	 1.481481e-01	-2.935314e-01
0	 7.407407e-02	 2.222222e-01	-3.450963e-01
0	 7.407407e-02	 2.962963e-01	-1.233144e-01
0	 7.407407e-02	 3.703704e-01	 3.734843e-01
0	 1.481481e-01	 0.000000e+00	 7.186928e-01
0	 1.481481e-01	 7.407407e-02	 1.130267e-01
0	 1.481481e-01	 1.481481e-01	-2.367738e-01
0	 1.481481e-01	 2.222222e-01	-3.124122e-01
0	 1.481481e-01	 2.962963e-01	-9.559206e-02
0	 1.481481e-01	 3.703704e-01	 4.319833e-01
0	 2.222222e-01	 0.000000e+00	 7.394067e-01
0	 2.222222e-01	 7.407407e-02	 1.318409e-01
0	 2.222222e-01	 1.481481e-01	-2.267807e-01
0	 2.222222e-01	 2.222222e-01	-3.081729e-01
0	 2.222222e-01	 2.962963e-01	-8.405022e-02
0	 2.222222e-01	 3.703704e-01	 4.738726e-01
0	 2.962963e-01	 0.000000e+00	 6.777329e-01
0	 2.962963e-01	 7.407407e-02	 9.007679e-02
0	 2.962963e-01	 1.481481e-01	-2.567241e-01
0	 2.962963e-01	 2.222222e-01	-3.310334e-01
0	 2.962963e-01	 2.962963e-01	-1.012144e-01
0	 2.962963e-01	 3.703704e-01	 4.643692e-01
0	 3.703704e-01	 0.000000e+00	 5.263039e-01
0	 3.703704e-01	 7.407407e-02	-8.341945e-03
0	 3.703704e-01	 1.481481e-01	-3.197762e-01
0	 3.703704e-01	 2.222222e-01	-3.796489e-01
0	 3.703704e-01	 2.962963e-01	-1.596101e-01
0	 3.703704e-01	 3.703704e-01	 3.686900e-01
0	 0.000000e+00	 3.703704e-01	 3.331588e-01
0	 0.000000e+00	 4.444444e-01	 7.374349e-01
0	 0.000000e+00	 5.185185e-01	 7.591009e-01
0	 0.000000e+00	 5.925926e-01	 4.058300e-01
0	 0.000000e+00	 6.666667e-01	-3.147047e-01
0	 0.000000e+00	 7.407407e-01	-1.394830e+00
0	 7.407407e-02	 3.703704e-01	 3.734843e-01
0	 7.407407e-02	 4.444444e-01	 8.083458e-01
0	 7.407407e-02	 5.185185e-01	 8.407375e-01
0	 7.407407e-02	 5.925926e-01	 4.669617e-01
0	 7.407407e-02	 6.666667e-01	-3.166790e-01
0	 7.407407e-02	 7.407407e-01	-1.513882e+00
0	 1.481481e-01	 3.703704e-01	 4.319833e-01
0	 1.481481e-01	 4.444444e-01	 9.072139e-01
0	 1.481481e-01	 5.185185e-01	 9.462717e-01
0	 1.481481e-01	 5.925926e-01	 5.363605e-01
0	 1.481481e-01	 6.666667e-01	-3.353158e-01
0	 1.481481e-01	 7.407407e-01	-1.681553e+00
0	 2.222222e-01	 3.703704e-01	 4.738726e-01
0	 2.222222e-01	 4.444444e-01	 9.818509e-01
0	 2.222222e-01	 5.185185e-01	 1.024202e+00
0	 2.222222e-01	 5.925926e-01	 5.813025e-01
0	 2.222222e-01	 6.666667e-01	-3.664689e-01
0	 2.222222e-01	 7.407407e-01	-1.838735e+00
0	 2.962963e-01	 3.703704e-01	 4.643692e-01
0	 2.962963e-01	 4.444444e-01	 9.800683e-01
0	 2.962963e-01	 5.185185e-01	 1.023025e+00
0	 2.962963e-01	 5.925926e-01	 5.690638e-01
0	 2.962963e-01	 6.666667e-01	-4.059925e-01
0	 2.962963e-01	 7.407407e-01	-1.926320e+00
0	 3.703704e-01	 3.703704e-01	 3.686900e-01
0	 3.703704e-01	 4.444444e-01	 8.496778e-01
0	 3.703704e-01	 5.185185e-01	 8.912406e-01
0	 3.703704e-01	 5.925926e-01	 4.669205e-01
0	 3.703704e-01	 6.666667e-01	-4.497405e-01
0	 3.703704e-01	 7.407407e-01	-1.885200e+00
0	 0.000000e+00	 7.407407e-01	-1.394830e+00
0	 0.000000e+00	 8.148148e-01	-1.689322e+00
0	 0.000000e+00	 8.888889e-01	-1.089940e-01
0	 0.000000e+00	 9.629630e-01	 3.269768e+00
0	 0.000000e+00	 1.037037e+00	 8.370580e+00
0	 0.000000e+00	 1.111111e+00	 1.511706e+01
0	 7.407407e-02	 7.407407e-01	-1.513882e+00
0	 7.407407e-02	 8.148148e-01	-1.927753e+00
0	 7.407407e-02	 8.888889e-01	-3.794764e-01
0	 7.407407e-02	 9.629630e-01	 3.100127e+00
0	 7.407407e-02	 1.037037e+00	 8.480239e+00
0	 7.407407e-02	 1.111111e+00	 1.573004e+01
0	 1.481481e-01	 7.407407e-01	-1.681553e+00
0	 1.481481e-01	 8.148148e-01	-2.081911e+00
0	 1.481481e-01	 8.888889e-01	-1.054658e-01
0	 1.481481e-01	 9.629630e-01	 4.250710e+00
0	 1.481481e-01	 1.037037e+00	 1.098954e+01
0	 1.481481e-01	 1.111111e+00	 2.011396e+01
0	 2.222222e-01	 7.407407e-01	-1.838735e+00
0	 2.222222e-01	 8.148148e-01	-2.107234e+00
0	 2.222222e-01	 8.888889e-01	 5.859467e-01
0	 2.222222e-01	 9.629630e-01	 6.265664e+00
0	 2.222222e-01	 1.037037e+00	 1.495677e+01
0	 2.222222e-01	 1.111111e+00	 2.668413e+01
0	 2.962963e-01	 7.407407e-01	-1.926320e+00
0	 2.962963e-01	 8.148148e-01	-1.959161e+00
0	 2.962963e-01	 8.888889e-01	 1.567670e+00
0	 2.962963e-01	 9.629630e-01	 8.689139e+00
0	 2.962963e-01	 1.037037e+00	 1.944021e+01
0	 2.962963e-01	 1.111111e+00	 3.385586e+01
0	 3.703704e-01	 7.407407e-01	-1.885200e+00
0	 3.703704e-01	 8.148148e-01	-1.593130e+00
0	 3.703704e-01	 8.888889e-01	 2.712612e+00
0	 3.703704e-01	 9.629630e-01	 1.106528e+01
0	 3.703704e-01	 1.037037e+00	 2.349815e+01
0	 3.703704e-01	 1.111111e+00	 4.004446e+01
0	 0.000000e+00	 1.111111e+00	 1.511706e+01
0	 0.000000e+00	 1.185185e+00	 2.255382e+01
0	 0.000000e+00	 1.259259e+00	 2.990786e+01
0	 0.000000e+00	 1.333333e+00	 3.737634e+01
0	 0.000000e+00	 1.407407e+00	 4.515640e+01
0	 0.000000e+00	 1.481481e+00	 5.344520e+01
0	 7.407407e-02	 1.111111e+00	 1.573004e+01
0	 7.407407e-02	 1.185185e+00	 2.381449e+01
0	 7.407407e-02	 1.259259e+00	 3.178113e+01
0	 7.407407e-02	 1.333333e+00	 3.972296e+01
0	 7.407407e-02	 1.407407e+00	 4.773300e+01
0	 7.407407e-02	 1.481481e+00	 5.590426e+01
0	 1.481481e-01	 1.111111e+00	 2.011396e+01
0	 1.481481e-01	 1.185185e+00	 2.984516e+01
0	 1.481481e-01	 1.259259e+00	 3.841369e+01
0	 1.481481e-01	 1.333333e+00	 4.583651e+01
0	 1.481481e-01	 1.407407e+00	 5.213056e+01
0	 1.481481e-01	 1.481481e+00	 5.731280e+01
0	 2.222222e-01	 1.111111e+00	 2.668413e+01
0	 2.222222e-01	 1.185185e+00	 3.855024e+01
0	 2.222222e-01	 1.259259e+00	 4.762033e+01
0	 2.222222e-01	 1.333333e+00	 5.386338e+01
0	 2.222222e-01	 1.407407e+00	 5.724836e+01
0	 2.222222e-01	 1.481481e+00	 5.774425e+01
0	 2.962963e-01	 1.111111e+00	 3.385586e+01
0	 2.962963e-01	 1.185185e+00	 4.783413e+01
0	 2.962963e-01	 1.259259e+00	 5.721581e+01
0	 2.962963e-01	 1.333333e+00	 6.194997e+01
0	 2.962963e-01	 1.407407e+00	 6.198568e+01
0	 2.962963e-01	 1.481481e+00	 5.727203e+01
0	 3.703704e-01	 1.111111e+00	 4.004446e+01
0	 3.703704e-01	 1.185185e+00	 5.560126e+01
0	 3.703704e-01	 1.259259e+00	 6.501491e+01
0	 3.703704e-01	 1.333333e+00	 6.824267e+01
0	 3.703704e-01	 1.407407e+00	 6.524181e+01
0	 3.703704e-01	 1.481481e+00	 5.596956e+01
0	 0.000000e+00	 1.481481e+00	 5.344520e+01
0	 0.000000e+00	 1.555556e+00	 5.981878e+01
0	 0.000000e+00	 1.629630e+00	 6.159983e+01
0	 0.000000e+00	 1.703704e+00	 5.860545e+01
0	 0.000000e+00	 1.777778e+00	 5.065277e+01
0	 0.000000e+00	 1.851852e+00	 3.755888e+01
0	 7.407407e-02	 1.481481e+00	 5.590426e+01
0	 7.407407e-02	 1.555556e+00	 6.185627e+01
0	 7.407407e-02	 1.629630e+00	 6.308918e+01
0	 7.407407e-02	 1.703704e+00	 5.951687e+01
0	 7.407407e-02	 1.777778e+00	 5.105325e+01
0	 7.407407e-02	 1.851852e+00	 3.761222e+01
0	 1.481481e-01	 1.481481e+00	 5.731280e+01
0	 1.481481e-01	 1.555556e+00	 6.008331e+01
0	 1.481481e-01	 1.629630e+00	 5.912059e+01
0	 1.481481e-01	 1.703704e+00	 5.440917e+01
0	 1.481481e-01	 1.777778e+00	 4.593360e+01
0	 1.481481e-01	 1.851852e+00	 3.367843e+01
0	 2.222222e-01	 1.481481e+00	 5.774425e+01
0	 2.222222e-01	 1.555556e+00	 5.574174e+01
0	 2.222222e-01	 1.629630e+00	 5.167159e+01
0	 2.222222e-01	 1.703704e+00	 4.556283e+01
0	 2.222222e-01	 1.777778e+00	 3.744453e+01
0	 2.222222e-01	 1.851852e+00	 2.734573e+01
0	 2.962963e-01	 1.481481e+00	 5.727203e+01
0	 2.962963e-01	 1.555556e+00	 5.007339e+01
0	 2.962963e-01	 1.629630e+00	 4.271969e+01
0	 2.962963e-01	 1.703704e+00	 3.525835e+01
0	 2.962963e-01	 1.777778e+00	 2.773677e+01
0	 2.962963e-01	 1.851852e+00	 2.020235e+01
0	 3.703704e-01	 1.481481e+00	 5.596956e+01
0	 3.703704e-01	 1.555556e+00	 4.432009e+01
0	 3.703704e-01	 1.629630e+00	 3.424243e+01
0	 3.703704e-01	 1.703704e+00	 2.577620e+01
0	 3.703704e-01	 1.777778e+00	 1.896103e+01
0	 3.703704e-01	 1.851852e+00	 1.383654e+01
0	 0.000000e+00	 1.851852e+00	 3.755888e+01
0	 0.000000e+00	 1.925926e+00	 2.357084e+01
0	 0.000000e+00	 2.000000e+00	 1.309296e+01
0	 0.000000e+00	 2.074074e+00	 6.178236e+00
0	 0.000000e+00	 2.148148e+00	 2.879675e+00
0	 0.000000e+00	 2.222222e+00	 3.250279e+00
0	 7.407407e-02	 1.851852e+00	 3.761222e+01
0	 7.407407e-02	 1.925926e+00	 2.345571e+01
0	 7.407407e-02	 2.000000e+00	 1.291668e+01
0	 7.407407e-02	 2.074074e+00	 6.015617e+00
0	 7.407407e-02	 2.148148e+00	 2.773006e+00
0	 7.407407e-02	 2.222222e+00	 3.209330e+00
0	 1.481481e-01	 1.851852e+00	 3.367843e+01
0	 1.481481e-01	 1.925926e+00	 2.115434e+01
0	 1.481481e-01	 2.000000e+00	 1.188049e+01
0	 1.481481e-01	 2.074074e+00	 5.854179e+00
0	 1.481481e-01	 2.148148e+00	 3.072686e+00
0	 1.481481e-01	 2.222222e+00	 3.533300e+00
0	 2.222222e-01	 1.851852e+00	 2.734573e+01
0	 2.222222e-01	 1.925926e+00	 1.756342e+01
0	 2.222222e-01	 2.000000e+00	 1.036418e+01
0	 2.222222e-01	 2.074074e+00	 5.731413e+00
0	 2.222222e-01	 2.148148e+00	 3.648540e+00
0	 2.222222e-01	 2.222222e+00	 4.098969e+00
0	 2.962963e-01	 1.851852e+00	 2.020235e+01
0	 2.962963e-01	 1.925926e+00	 1.357965e+01
0	 2.962963e-01	 2.000000e+00	 8.747518e+00
0	 2.962963e-01	 2.074074e+00	 5.684811e+00
0	 2.962963e-01	 2.148148e+00	 4.370391e+00
0	 2.962963e-01	 2.222222e+00	 4.783119e+00
0	 3.703704e-01	 1.851852e+00	 1.383654e+01
0	 3.703704e-01	 1.925926e+00	 1.009973e+01
0	 3.703704e-01	 2.000000e+00	 7.410295e+00
0	 3.703704e-01	 2.074074e+00	 5.751863e+00
0	 3.703704e-01	 2.148148e+00	 5.108064e+00
0	 3.703704e-01	 2.222222e+00	 5.462529e+00
0	 0.000000e+00	 2.222222e+00	 3.250279e+00
0	 0.000000e+00	 2.296296e+00	 5.187988e+00
0	 0.000000e+00	 2.370370e+00	 6.563284e+00
0	 0.000000e+00	 2.444444e+00	 7.387980e+00
0	 0.000000e+00	 2.518519e+00	 7.673890e+00
0	 0.000000e+00	 2.592593e+00	 7.432830e+00
0	 7.407407e-02	 2.222222e+00	 3.209330e+00
0	 7.407407e-02	 2.296296e+00	 5.198423e+00
0	 7.407407e-02	 2.370370e+00	 6.608182e+00
0	 7.407407e-02	 2.444444e+00	 7.450188e+00
0	 7.407407e-02	 2.518519e+00	 7.736020e+00
0	 7.407407e-02	 2.592593e+00	 7.477259e+00
0	 1.481481e-01	 2.222222e+00	 3.533300e+00
0	 1.481481e-01	 2.296296e+00	 5.347984e+00
0	 1.481481e-01	 2.370370e+00	 6.637469e+00
0	 1.481481e-01	 2.444444e+00	 7.412193e+00
0	 1.481481e-01	 2.518519e+00	 7.682593e+00
0	 1.481481e-01	 2.592593e+00	 7.459108e+00
0	 2.222222e-01	 2.222222e+00	 4.098969e+00
0	 2.222222e-01	 2.296296e+00	 5.595068e+00
0	 2.222222e-01	 2.370370e+00	 6.665853e+00
0	 2.222222e-01	 2.444444e+00	 7.319710e+00
0	 2.222222e-01	 2.518519e+00	 7.565026e+00
0	 2.222222e-01	 2.592593e+00	 7.410187e+00
0	 2.962963e-01	 2.222222e+00	 4.783119e+00
0	 2.962963e-01	 2.296296e+00	 5.898072e+00
0	 2.962963e-01	 2.370370e+00	 6.708041e+00
0	 2.962963e-01	 2.444444e+00	 7.218451e+00
0	 2.962963e-01	 2.518519e+00	 7.434731e+00
0	 2.962963e-01	 2.592593e+00	 7.362308e+00
0	 3.703704e-01	 2.222222e+00	 5.462529e+00
0	 3.703704e-01	 2.296296e+00	 6.215393e+00
0	 3.703704e-01	 2.370370e+00	 6.778740e+00
0	 3.703704e-01	 2.444444e+00	 7.154132e+00
0	 3.703704e-01	 2.518519e+00	 7.343126e+00
0	 3.703704e-01	 2.592593e+00	 7.347282e+00
0	 0.000000e+00	 2.592593e+00	 7.432830e+00
0	 0.000000e+00	 2.666667e+00	 7.034192e+00
0	 0.000000e+00	 2.740741e+00	 6.831681e+00
0	 0.000000e+00	 2.814815e+00	 6.813577e+00
0	 0.000000e+00	 2.888889e+00	 6.968159e+00
0	 0.000000e+00	 2.962963e+00	 7.283708e+00
0	 7.407407e-02	 2.592593e+00	 7.477259e+00
0	 7.407407e-02	 2.666667e+00	 7.054044e+00
0	 7.407407e-02	 2.740741e+00	 6.832108e+00
0	 7.407407e-02	 2.814815e+00	 6.801420e+00
0	 7.407407e-02	 2.888889e+00	 6.951949e+00
0	 7.407407e-02	 2.962963e+00	 7.273667e+00
0	 1.481481e-01	 2.592593e+00	 7.459108e+00
0	 1.481481e-01	 2.666667e+00	 7.085291e+00
0	 1.481481e-01	 2.740741e+00	 6.892396e+00
0	 1.481481e-01	 2.814815e+00	 6.872407e+00
0	 1.481481e-01	 2.888889e+00	 7.017310e+00
0	 1.481481e-01	 2.962963e+00	 7.319089e+00
0	 2.222222e-01	 2.592593e+00	 7.410187e+00
0	 2.222222e-01	 2.666667e+00	 7.132050e+00
0	 2.222222e-01	 2.740741e+00	 6.998096e+00
0	 2.222222e-01	 2.814815e+00	 7.002649e+00
0	 2.222222e-01	 2.888889e+00	 7.140036e+00
0	 2.222222e-01	 2.962963e+00	 7.404581e+00
0	 2.962963e-01	 2.592593e+00	 7.362308e+00
0	 2.962963e-01	 2.666667e+00	 7.198439e+00
0	 2.962963e-01	 2.740741e+00	 7.134759e+00
0	 2.962963e-01	 2.814815e+00	 7.168257e+00
0	 2.962963e-01	 2.888889e+00	 7.295924e+00
0	 2.962963e-01	 2.962963e+00	 7.514750e+00
0	 3.703704e-01	 2.592593e+00	 7.347282e+00
0	 3.703704e-01	 2.666667e+00	 7.288577e+00
0	 3.703704e-01	 2.740741e+00	 7.287937e+00
0	 3.703704e-01	 2.814815e+00	 7.345341e+00
0	 3.703704e-01	 2.888889e+00	 7.460770e+00
0	 3.703704e-01	 2.962963e+00	 7.634205e+00
0	 0.000000e+00	 2.962963e+00	 7.283708e+00
0	 0.000000e+00	 3.037037e+00	 7.626678e+00
0	 0.000000e+00	 3.111111e+00	 7.876783e+00
0	 0.000000e+00	 3.185185e+00	 8.042186e+00
0	 0.000000e+00	 3.259259e+00	 8.131053e+00
0	 0.000000e+00	 3.333333e+00	 8.151548e+00
0	 7.407407e-02	 2.962963e+00	 7.273667e+00
0	 7.407407e-02	 3.037037e+00	 7.628091e+00
0	 7.407407e-02	 3.111111e+00	 7.887938e+00
0	 7.407407e-02	 3.185185e+00	 8.059972e+00
0	 7.407407e-02	 3.259259e+00	 8.150960e+00
0	 7.407407e-02	 3.333333e+00	 8.167666e+00
0	 1.481481e-01	 2.962963e+00	 7.319089e+00
0	 1.481481e-01	 3.037037e+00	 7.652040e+00
0	 1.481481e-01	 3.111111e+00	 7.899291e+00
0	 1.481481e-01	 3.185185e+00	 8.066070e+00
0	 1.481481e-01	 3.259259e+00	 8.157610e+00
0	 1.481481e-01	 3.333333e+00	 8.179139e+00
0	 2.222222e-01	 2.962963e+00	 7.404581e+00
0	 2.222222e-01	 3.037037e+00	 7.694663e+00
0	 2.222222e-01	 3.111111e+00	 7.914817e+00
0	 2.222222e-01	 3.185185e+00	 8.068603e+00
0	 2.222222e-01	 3.259259e+00	 8.159580e+00
0	 2.222222e-01	 3.333333e+00	 8.191309e+00
0	 2.962963e-01	 2.962963e+00	 7.514750e+00
0	 2.962963e-01	 3.037037e+00	 7.752094e+00
0	 2.962963e-01	 3.111111e+00	 7.938490e+00
0	 2.962963e-01	 3.185185e+00	 8.075691e+00
0	 2.962963e-01	 3.259259e+00	 8.165450e+00
0	 2.962963e-01	 3.333333e+00	 8.209521e+00
0	 3.703704e-01	 2.962963e+00	 7.634205e+00
0	 3.703704e-01	 3.037037e+00	 7.820471e+00
0	 3.703704e-01	 3.111111e+00	 7.974285e+00
0	 3.703704e-01	 3.185185e+00	 8.095456e+00
0	 3.703704e-01	 3.259259e+00	 8.183797e+00
0	 3.703704e-01	 3.333333e+00	 8.239118e+00
0	 0.000000e+00	 3.333333e+00	 8.151548e+00
0	 0.000000e+00	 3.407407e+00	 8.157385e+00
0	 0.000000e+00	 3.481481e+00	 8.193489e+00
0	 0.000000e+00	 3.555556e+00	 8.254843e+00
0	 0.000000e+00	 3.629630e+00	 8.336427e+00
0	 0.000000e+00	 3.703704e+00	 8.433225e+00
0	 7.407407e-02	 3.333333e+00	 8.167666e+00
0	 7.407407e-02	 3.407407e+00	 8.166393e+00
0	 7.407407e-02	 3.481481e+00	 8.196188e+00
0	 7.407407e-02	 3.555556e+00	 8.252936e+00
0	 7.407407e-02	 3.629630e+00	 8.332520e+00
0	 7.407407e-02	 3.703704e+00	 8.430825e+00
0	 1.481481e-01	 3.333333e+00	 8.179139e+00
0	 1.481481e-01	 3.407407e+00	 8.182372e+00
0	 1.481481e-01	 3.481481e+00	 8.213438e+00
0	 1.481481e-01	 3.555556e+00	 8.269193e+00
0	 1.481481e-01	 3.629630e+00	 8.346490e+00
0	 1.481481e-01	 3.703704e+00	 8.442182e+00
0	 2.222222e-01	 3.333333e+00	 8.191309e+00
0	 2.222222e-01	 3.407407e+00	 8.206280e+00
0	 2.222222e-01	 3.481481e+00	 8.243205e+00
0	 2.222222e-01	 3.555556e+00	 8.299977e+00
0	 2.222222e-01	 3.629630e+00	 8.374487e+00
0	 2.222222e-01	 3.703704e+00	 8.464628e+00
0	 2.962963e-01	 3.333333e+00	 8.209521e+00
0	 2.962963e-01	 3.407407e+00	 8.239077e+00
0	 2.962963e-01	 3.481481e+00	 8.283454e+00
0	 2.962963e-01	 3.555556e+00	 8.341650e+00
0	 2.962963e-01	 3.629630e+00	 8.412664e+00
0	 2.962963e-01	 3.703704e+00	 8.495493e+00
0	 3.703704e-01	 3.333333e+00	 8.239118e+00
0	 3.703704e-01	 3.407407e+00	 8.281722e+00
0	 3.703704e-01	 3.481481e+00	 8.332150e+00
0	 3.703704e-01	 3.555556e+00	 8.390576e+00
0	 3.703704e-01	 3.629630e+00	 8.457172e+00
0	 3.703704e-01	 3.703704e+00	 8.532109e+00
0	 0.000000e+00	 3.703704e+00	 8.433225e+00
0	 0.000000e+00	 3.777778e+00	 8.527048e+00
0	 0.000000e+00	 3.851852e+00	 8.604791e+00
0	 0.000000e+00	 3.925926e+00	 8.669056e+00
0	 0.000000e+00	 4.000000e+00	 8.722446e+00
0	 0.000000e+00	 4.074074e+00	 8.767562e+00
0	 7.407407e-02	 3.703704e+00	 8.430825e+00
0	 7.407407e-02	 3.777778e+00	 8.528150e+00
0	 7.407407e-02	 3.851852e+00	 8.608947e+00
0	 7.407407e-02	 3.925926e+00	 8.675326e+00
0	 7.407407e-02	 4.000000e+00	 8.729397e+00
0	 7.407407e-02	 4.074074e+00	 8.773270e+00
0	 1.481481e-01	 3.703704e+00	 8.442182e+00
0	 1.481481e-01	 3.777778e+00	 8.537782e+00
0	 1.481481e-01	 3.851852e+00	 8.617956e+00
0	 1.481481e-01	 3.925926e+00	 8.684292e+00
0	 1.481481e-01	 4.000000e+00	 8.738378e+00
0	 1.481481e-01	 4.074074e+00	 8.781802e+00
0	 2.222222e-01	 3.703704e+00	 8.464628e+00
0	 2.222222e-01	 3.777778e+00	 8.554907e+00
0	 2.222222e-01	 3.851852e+00	 8.631927e+00
0	 2.222222e-01	 3.925926e+00	 8.696725e+00
0	 2.222222e-01	 4.000000e+00	 8.750336e+00
0	 2.222222e-01	 4.074074e+00	 8.793796e+00
0	 2.962963e-01	 3.703704e+00	 8.495493e+00
0	 2.962963e-01	 3.777778e+00	 8.578488e+00
0	 2.962963e-01	 3.851852e+00	 8.650972e+00
0	 2.962963e-01	 3.925926e+00	 8.713397e+00
0	 2.962963e-01	 4.000000e+00	 8.766219e+00
0	 2.962963e-01	 4.074074e+00	 8.809892e+00
0	 3.703704e-01	 3.703704e+00	 8.532109e+00
0	 3.703704e-01	 3.777778e+00	 8.607490e+00
0	 3.703704e-01	 3.851852e+00	 8.675199e+00
0	 3.703704e-01	 3.925926e+00	 8.735079e+00
0	 3.703704e-01	 4.000000e+00	 8.786974e+00
0	 3.703704e-01	 4.074074e+00	 8.830727e+00
0	 0.000000e+00	 4.074074e+00	 8.767562e+00
0	 0.000000e+00	 4.148148e+00	 8.810929e+00
0	 0.000000e+00	 4.222222e+00	 8.856447e+00
0	 0.000000e+00	 4.296296e+00	 8.902780e+00
0	 0.000000e+00	 4.370370e+00	 8.948593e+00
0	 0.000000e+00	 4.444444e+00	 8.992549e+00
0	 7.407407e-02	 4.074074e+00	 8.773270e+00
0	 7.407407e-02	 4.148148e+00	 8.814358e+00
0	 7.407407e-02	 4.222222e+00	 8.857939e+00
0	 7.407407e-02	 4.296296e+00	 8.902917e+00
0	 7.407407e-02	 4.370370e+00	 8.948195e+00
0	 7.407407e-02	 4.444444e+00	 8.992677e+00
0	 1.481481e-01	 4.074074e+00	 8.781802e+00
0	 1.481481e-01	 4.148148e+00	 8.821874e+00
0	 1.481481e-01	 4.222222e+00	 8.864291e+00
0	 1.481481e-01	 4.296296e+00	 8.908211e+00
0	 1.481481e-01	 4.370370e+00	 8.952797e+00
0	 1.481481e-01	 4.444444e+00	 8.997208e+00
0	 2.222222e-01	 4.074074e+00	 8.793796e+00
0	 2.222222e-01	 4.148148e+00	 8.833635e+00
0	 2.222222e-01	 4.222222e+00	 8.875314e+00
0	 2.222222e-01	 4.296296e+00	 8.918271e+00
0	 2.222222e-01	 4.370370e+00	 8.961941e+00
0	 2.222222e-01	 4.444444e+00	 9.005762e+00
0	 2.962963e-01	 4.074074e+00	 8.809892e+00
0	 2.962963e-01	 4.148148e+00	 8.849795e+00
0	 2.962963e-01	 4.222222e+00	 8.890822e+00
0	 2.962963e-01	 4.296296e+00	 8.932705e+00
0	 2.962963e-01	 4.370370e+00	 8.975172e+00
0	 2.962963e-01	 4.444444e+00	 9.017955e+00
0	 3.703704e-01	 4.074074e+00	 8.830727e+00
0	 3.703704e-01	 4.148148e+00	 8.870511e+00
0	 3.703704e-01	 4.222222e+00	 8.910628e+00
0	 3.703704e-01	 4.296296e+00	 8.951122e+00
0	 3.703704e-01	 4.370370e+00	 8.992034e+00
0	 3.703704e-01	 4.444444e+00	 9.033407e+00
0	 0.000000e+00	 4.444444e+00	 8.992549e+00
0	 0.000000e+00	 4.518519e+00	 9.033565e+00
0	 0.000000e+00	 4.592593e+00	 9.071821e+00
0	 0.000000e+00	 4.666667e+00	 9.107879e+00
0	 0.000000e+00	 4.740741e+00	 9.142299e+00
0	 0.000000e+00	 4.814815e+00	 9.175644e+00
0	 7.407407e-02	 4.444444e+00	 8.992677e+00
0	 7.407407e-02	 4.518519e+00	 9.034746e+00
0	 7.407407e-02	 4.592593e+00	 9.073825e+00
0	 7.407407e-02	 4.666667e+00	 9.110375e+00
0	 7.407407e-02	 4.740741e+00	 9.144858e+00
0	 7.407407e-02	 4.814815e+00	 9.177733e+00
0	 1.481481e-01	 4.444444e+00	 8.997208e+00
0	 1.481481e-01	 4.518519e+00	 9.039612e+00
0	 1.481481e-01	 4.592593e+00	 9.078966e+00
0	 1.481481e-01	 4.666667e+00	 9.115623e+00
0	 1.481481e-01	 4.740741e+00	 9.149932e+00
0	 1.481481e-01	 4.814815e+00	 9.182244e+00
0	 2.222222e-01	 4.444444e+00	 9.005762e+00
0	 2.222222e-01	 4.518519e+00	 9.047911e+00
0	 2.222222e-01	 4.592593e+00	 9.087095e+00
0	 2.222222e-01	 4.666667e+00	 9.123546e+00
0	 2.222222e-01	 4.740741e+00	 9.157491e+00
0	 2.222222e-01	 4.814815e+00	 9.189161e+00
0	 2.962963e-01	 4.444444e+00	 9.017955e+00
0	 2.962963e-01	 4.518519e+00	 9.059391e+00
0	 2.962963e-01	 4.592593e+00	 9.098061e+00
0	 2.962963e-01	 4.666667e+00	 9.134066e+00
0	 2.962963e-01	 4.740741e+00	 9.167503e+00
0	 2.962963e-01	 4.814815e+00	 9.198473e+00
0	 3.703704e-01	 4.444444e+00	 9.033407e+00
0	 3.703704e-01	 4.518519e+00	 9.073800e+00
0	 3.703704e-01	 4.592593e+00	 9.111714e+00
0	 3.703704e-01	 4.666667e+00	 9.147107e+00
0	 3.703704e-01	 4.740741e+00	 9.179938e+00
0	 3.703704e-01	 4.814815e+00	 9.210165e+00
0	 0.000000e+00	 4.814815e+00	 9.175644e+00
0	 0.000000e+00	 4.888889e+00	 9.208195e+00
0	 0.000000e+00	 4.962963e+00	 9.239683e+00
0	 0.000000e+00	 5.037037e+00	 9.269848e+00
0	 0.000000e+00	 5.111111e+00	 9.298429e+00
0	 0.000000e+00	 5.185185e+00	 9.325166e+00
0	 7.407407e-02	 4.814815e+00	 9.177733e+00
0	 7.407407e-02	 4.888889e+00	 9.209585e+00
0	 7.407407e-02	 4.962963e+00	 9.240537e+00
0	 7.407407e-02	 5.037037e+00	 9.270364e+00
0	 7.407407e-02	 5.111111e+00	 9.298842e+00
0	 7.407407e-02	 5.185185e+00	 9.325744e+00
0	 1.481481e-01	 4.814815e+00	 9.182244e+00
0	 1.481481e-01	 4.888889e+00	 9.213351e+00
0	 1.481481e-01	 4.962963e+00	 9.243691e+00
0	 1.481481e-01	 5.037037e+00	 9.273083e+00
0	 1.481481e-01	 5.111111e+00	 9.301343e+00
0	 1.481481e-01	 5.185185e+00	 9.328290e+00
0	 2.222222e-01	 4.814815e+00	 9.189161e+00
0	 2.222222e-01	 4.888889e+00	 9.219480e+00
0	 2.222222e-01	 4.962963e+00	 9.249130e+00
0	 2.222222e-01	 5.037037e+00	 9.277980e+00
0	 2.222222e-01	 5.111111e+00	 9.305898e+00
0	 2.222222e-01	 5.185185e+00	 9.332751e+00
0	 2.962963e-01	 4.814815e+00	 9.198473e+00
0	 2.962963e-01	 4.888889e+00	 9.227961e+00
0	 2.962963e-01	 4.962963e+00	 9.256839e+00
0	 2.962963e-01	 5.037037e+00	 9.285034e+00
0	 2.962963e-01	 5.111111e+00	 9.312471e+00
0	 2.962963e-01	 5.185185e+00	 9.339077e+00
0	 3.703704e-01	 4.814815e+00	 9.210165e+00
0	 3.703704e-01	 4.888889e+00	 9.238781e+00
0	 3.703704e-01	 4.962963e+00	 9.266803e+00
0	 3.703704e-01	 5.037037e+00	 9.294223e+00
0	 3.703704e-01	 5.111111e+00	 9.321030e+00
0	 3.703704e-01	 5.185185e+00	 9.347217e+00
0	 0.000000e+00	 5.185185e+00	 9.325166e+00
0	 0.000000e+00	 5.259259e+00	 9.350476e+00
0	 0.000000e+00	 5.333333e+00	 9.375002e+00
0	 0.000000e+00	 5.407407e+00	 9.398820e+00
0	 0.000000e+00	 5.481481e+00	 9.422005e+00
0	 0.000000e+00	 5.555556e+00	 9.444635e+00
0	 7.407407e-02	 5.185185e+00	 9.325744e+00
0	 7.407407e-02	 5.259259e+00	 9.351321e+00
0	 7.407407e-02	 5.333333e+00	 9.376018e+00
0	 7.407407e-02	 5.407407e+00	 9.399902e+00
0	 7.407407e-02	 5.481481e+00	 9.423043e+00
0	 7.407407e-02	 5.555556e+00	 9.445507e+00
0	 1.481481e-01	 5.185185e+00	 9.328290e+00
0	 1.481481e-01	 5.259259e+00	 9.354018e+00
0	 1.481481e-01	 5.333333e+00	 9.378781e+00
0	 1.481481e-01	 5.407407e+00	 9.402636e+00
0	 1.481481e-01	 5.481481e+00	 9.425637e+00
0	 1.481481e-01	 5.555556e+00	 9.447842e+00
0	 2.222222e-01	 5.185185e+00	 9.332751e+00
0	 2.222222e-01	 5.259259e+00	 9.358501e+00
0	 2.222222e-01	 5.333333e+00	 9.383220e+00
0	 2.222222e-01	 5.407407e+00	 9.406950e+00
0	 2.222222e-01	 5.481481e+00	 9.429729e+00
0	 2.222222e-01	 5.555556e+00	 9.451597e+00
0	 2.962963e-01	 5.185185e+00	 9.339077e+00
0	 2.962963e-01	 5.259259e+00	 9.364703e+00
0	 2.962963e-01	 5.333333e+00	 9.389263e+00
0	 2.962963e-01	 5.407407e+00	 9.412775e+00
0	 2.962963e-01	 5.481481e+00	 9.435258e+00
0	 2.962963e-01	 5.555556e+00	 9.456730e+00
0	 3.703704e-01	 5.185185e+00	 9.347217e+00
0	 3.703704e-01	 5.259259e+00	 9.372560e+00
0	 3.703704e-01	 5.333333e+00	 9.396837e+00
0	 3.703704e-01	 5.407407e+00	 9.420040e+00
0	 3.703704e-01	 5.481481e+00	 9.442163e+00
0	 3.703704e-01	 5.555556e+00	 9.463199e+00
0	 0.000000e+00	 5.555556e+00	 9.444635e+00
0	 0.000000e+00	 5.629630e+00	 9.466606e+00
0	 0.000000e+00	 5.703704e+00	 9.487742e+00
0	 0.000000e+00	 5.777778e+00	 9.508008e+00
0	 0.000000e+00	 5.851852e+00	 9.527367e+00
0	 0.000000e+00	 5.925926e+00	 9.545784e+00
0	 7.407407e-02	 5.555556e+00	 9.445507e+00
0	 7.407407e-02	 5.629630e+00	 9.467282e+00
0	 7.407407e-02	 5.703704e+00	 9.488281e+00
0	 7.407407e-02	 5.777778e+00	 9.508469e+00
0	 7.407407e-02	 5.851852e+00	 9.527807e+00
0	 7.407407e-02	 5.925926e+00	 9.546259e+00
0	 1.481481e-01	 5.555556e+00	 9.447842e+00
0	 1.481481e-01	 5.629630e+00	 9.469325e+00
0	 1.481481e-01	 5.703704e+00	 9.490098e+00
0	 1.481481e-01	 5.777778e+00	 9.510126e+00
0	 1.481481e-01	 5.851852e+00	 9.529373e+00
0	 1.481481e-01	 5.925926e+00	 9.547805e+00
0	 2.222222e-01	 5.555556e+00	 9.451597e+00
0	 2.222222e-01	 5.629630e+00	 9.472711e+00
0	 2.222222e-01	 5.703704e+00	 9.493180e+00
0	 2.222222e-01	 5.777778e+00	 9.512973e+00
0	 2.222222e-01	 5.851852e+00	 9.532061e+00
0	 2.222222e-01	 5.925926e+00	 9.550411e+00
0	 2.962963e-01	 5.555556e+00	 9.456730e+00
0	 2.962963e-01	 5.629630e+00	 9.477417e+00
0	 2.962963e-01	 5.703704e+00	 9.497517e+00
0	 2.962963e-01	 5.777778e+00	 9.517006e+00
0	 2.962963e-01	 5.851852e+00	 9.535862e+00
0	 2.962963e-01	 5.925926e+00	 9.554063e+00
0	 3.703704e-01	 5.555556e+00	 9.463199e+00
0	 3.703704e-01	 5.629630e+00	 9.483420e+00
0	 3.703704e-01	 5.703704e+00	 9.503097e+00
0	 3.703704e-01	 5.777778e+00	 9.522219e+00
0	 3.703704e-01	 5.851852e+00	 9.540773e+00
0	 3.703704e-01	 5.925926e+00	 9.558747e+00
0	 0.000000e+00	 5.925926e+00	 9.545784e+00
0	 0.000000e+00	 6.000000e+00	 9.563489e+00
0	 0.000000e+00	 6.074074e+00	 9.580732e+00
0	 0.000000e+00	 6.148148e+00	 9.597512e+00
0	 0.000000e+00	 6.222222e+00	 9.613825e+00
0	 0.000000e+00	 6.296296e+00	 9.629671e+00
0	 7.407407e-02	 5.925926e+00	 9.546259e+00
0	 7.407407e-02	 6.000000e+00	 9.564008e+00
0	 7.407407e-02	 6.074074e+00	 9.581266e+00
0	 7.407407e-02	 6.148148e+00	 9.598032e+00
0	 7.407407e-02	 6.222222e+00	 9.614310e+00
0	 7.407407e-02	 6.296296e+00	 9.630101e+00
0	 1.481481e-01	 5.925926e+00	 9.547805e+00
0	 1.481481e-01	 6.000000e+00	 9.565555e+00
0	 1.481481e-01	 6.074074e+00	 9.582783e+00
0	 1.481481e-01	 6.148148e+00	 9.599493e+00
0	 1.481481e-01	 6.222222e+00	 9.615689e+00
0	 1.481481e-01	 6.296296e+00	 9.631373e+00
0	 2.222222e-01	 5.925926e+00	 9.550411e+00
0	 2.222222e-01	 6.000000e+00	 9.568108e+00
0	 2.222222e-01	 6.074074e+00	 9.585259e+00
0	 2.222222e-01	 6.148148e+00	 9.601866e+00
0	 2.222222e-01	 6.222222e+00	 9.617934e+00
0	 2.222222e-01	 6.296296e+00	 9.633467e+00
0	 2.962963e-01	 5.925926e+00	 9.554063e+00
0	 2.962963e-01	 6.000000e+00	 9.571646e+00
0	 2.962963e-01	 6.074074e+00	 9.588665e+00
0	 2.962963e-01	 6.148148e+00	 9.605122e+00
0	 2.962963e-01	 6.222222e+00	 9.621021e+00
0	 2.962963e-01	 6.296296e+00	 9.636362e+00
0	 3.703704e-01	 5.925926e+00	 9.558747e+00
0	 3.703704e-01	 6.000000e+00	 9.576145e+00
0	 3.703704e-01	 6.074074e+00	 9.592973e+00
0	 3.703704e-01	 6.148148e+00	 9.609232e+00
0	 3.703704e-01	 6.222222e+00	 9.624921e+00
0	 3.703704e-01	 6.296296e+00	 9.640037e+00
0	 0.000000e+00	 6.296296e+00	 9.629671e+00
0	 0.000000e+00	 6.370370e+00	 9.645033e+00
0	 0.000000e+00	 6.444444e+00	 9.659899e+00
0	 0.000000e+00	 6.518519e+00	 9.674267e+00
0	 0.000000e+00	 6.592593e+00	 9.688134e+00
0	 0.000000e+00	 6.666667e+00	 9.701500e+00
0	 7.407407e-02	 6.296296e+00	 9.630101e+00
0	 7.407407e-02	 6.370370e+00	 9.645410e+00
0	 7.407407e-02	 6.444444e+00	 9.660240e+00
0	 7.407407e-02	 6.518519e+00	 9.674586e+00
0	 7.407407e-02	 6.592593e+00	 9.688443e+00
0	 7.407407e-02	 6.666667e+00	 9.701806e+00
0	 1.481481e-01	 6.296296e+00	 9.631373e+00
0	 1.481481e-01	 6.370370e+00	 9.646576e+00
0	 1.481481e-01	 6.444444e+00	 9.661320e+00
0	 1.481481e-01	 6.518519e+00	 9.675599e+00
0	 1.481481e-01	 6.592593e+00	 9.689406e+00
0	 1.481481e-01	 6.666667e+00	 9.702733e+00
0	 2.222222e-01	 6.296296e+00	 9.633467e+00
0	 2.222222e-01	 6.370370e+00	 9.648518e+00
0	 2.222222e-01	 6.444444e+00	 9.663131e+00
0	 2.222222e-01	 6.518519e+00	 9.677300e+00
0	 2.222222e-01	 6.592593e+00	 9.691017e+00
0	 2.222222e-01	 6.666667e+00	 9.704274e+00
0	 2.962963e-01	 6.296296e+00	 9.636362e+00
0	 2.962963e-01	 6.370370e+00	 9.651220e+00
0	 2.962963e-01	 6.444444e+00	 9.665662e+00
0	 2.962963e-01	 6.518519e+00	 9.679681e+00
0	 2.962963e-01	 6.592593e+00	 9.693269e+00
0	 2.962963e-01	 6.666667e+00	 9.706420e+00
0	 3.703704e-01	 6.296296e+00	 9.640037e+00
0	 3.703704e-01	 6.370370e+00	 9.654670e+00
0	 3.703704e-01	 6.444444e+00	 9.668905e+00
0	 3.703704e-01	 6.518519e+00	 9.682736e+00
0	 3.703704e-01	 6.592593e+00	 9.696157e+00
0	 3.703704e-01	 6.666667e+00	 9.709163e+00
0	 0.000000e+00	 6.666667e+00	 9.701500e+00
0	 0.000000e+00	 6.740741e+00	 9.714448e+00
0	 0.000000e+00	 6.814815e+00	 9.727056e+00
0	 0.000000e+00	 6.888889e+00	 9.739320e+00
0	 0.000000e+00	 6.962963e+00	 9.751236e+00
0	 0.000000e+00	 7.037037e+00	 9.762797e+00
0	 7.407407e-02	 6.666667e+00	 9.701806e+00
0	 7.407407e-02	 6.740741e+00	 9.714749e+00
0	 7.407407e-02	 6.814815e+00	 9.727346e+00
0	 7.407407e-02	 6.888889e+00	 9.739594e+00
0	 7.407407e-02	 6.962963e+00	 9.751490e+00
0	 7.407407e-02	 7.037037e+00	 9.763032e+00
0	 1.481481e-01	 6.666667e+00	 9.702733e+00
0	 1.481481e-01	 6.740741e+00	 9.715643e+00
0	 1.481481e-01	 6.814815e+00	 9.728201e+00
0	 1.481481e-01	 6.888889e+00	 9.740404e+00
0	 1.481481e-01	 6.962963e+00	 9.752253e+00
0	 1.481481e-01	 7.037037e+00	 9.763746e+00
0	 2.222222e-01	 6.666667e+00	 9.704274e+00
0	 2.222222e-01	 6.740741e+00	 9.717120e+00
0	 2.222222e-01	 6.814815e+00	 9.729609e+00
0	 2.222222e-01	 6.888889e+00	 9.741740e+00
0	 2.222222e-01	 6.962963e+00	 9.753515e+00
0	 2.222222e-01	 7.037037e+00	 9.764932e+00
0	 2.962963e-01	 6.666667e+00	 9.706420e+00
0	 2.962963e-01	 6.740741e+00	 9.719169e+00
0	 2.962963e-01	 6.814815e+00	 9.731559e+00
0	 2.962963e-01	 6.888889e+00	 9.743591e+00
0	 2.962963e-01	 6.962963e+00	 9.755265e+00
0	 2.962963e-01	 7.037037e+00	 9.766580e+00
0	 3.703704e-01	 6.666667e+00	 9.709163e+00
0	 3.703704e-01	 6.740741e+00	 9.721781e+00
0	 3.703704e-01	 6.814815e+00	 9.734042e+00
0	 3.703704e-01	 6.888889e+00	 9.745945e+00
0	 3.703704e-01	 6.962963e+00	 9.757492e+00
0	 3.703704e-01	 7.037037e+00	 9.768682e+00
0	 0.000000e+00	 7.037037e+00	 9.762797e+00
0	 0.000000e+00	 7.111111e+00	 9.774019e+00
0	 0.000000e+00	 7.185185e+00	 9.784918e+00
0	 0.000000e+00	 7.259259e+00	 9.795498e+00
0	 0.000000e+00	 7.333333e+00	 9.805759e+00
0	 0.000000e+00	 7.407407e+00	 9.815706e+00
0	 7.407407e-02	 7.037037e+00	 9.763032e+00
0	 7.407407e-02	 7.111111e+00	 9.774236e+00
0	 7.407407e-02	 7.185185e+00	 9.785123e+00
0	 7.407407e-02	 7.259259e+00	 9.795692e+00
0	 7.407407e-02	 7.333333e+00	 9.805945e+00
0	 7.407407e-02	 7.407407e+00	 9.815883e+00
0	 1.481481e-01	 7.037037e+00	 9.763746e+00
0	 1.481481e-01	 7.111111e+00	 9.774905e+00
0	 1.481481e-01	 7.185185e+00	 9.785751e+00
0	 1.481481e-01	 7.259259e+00	 9.796285e+00
0	 1.481481e-01	 7.333333e+00	 9.806506e+00
0	 1.481481e-01	 7.407407e+00	 9.816414e+00
0	 2.222222e-01	 7.037037e+00	 9.764932e+00
0	 2.222222e-01	 7.111111e+00	 9.776018e+00
0	 2.222222e-01	 7.185185e+00	 9.786798e+00
0	 2.222222e-01	 7.259259e+00	 9.797270e+00
0	 2.222222e-01	 7.333333e+00	 9.807435e+00
0	 2.222222e-01	 7.407407e+00	 9.817292e+00
0	 2.962963e-01	 7.037037e+00	 9.766580e+00
0	 2.962963e-01	 7.111111e+00	 9.777568e+00
0	 2.962963e-01	 7.185185e+00	 9.788256e+00
0	 2.962963e-01	 7.259259e+00	 9.798644e+00
0	 2.962963e-01	 7.333333e+00	 9.808730e+00
0	 2.962963e-01	 7.407407e+00	 9.818514e+00
0	 3.703704e-01	 7.037037e+00	 9.768682e+00
0	 3.703704e-01	 7.111111e+00	 9.779547e+00
0	 3.703704e-01	 7.185185e+00	 9.790120e+00
0	 3.703704e-01	 7.259259e+00	 9.800399e+00
0	 3.703704e-01	 7.333333e+00	 9.810384e+00
0	 3.703704e-01	 7.407407e+00	 9.820075e+00
0	 0.000000e+00	 7.407407e+00	 9.815706e+00
0	 0.000000e+00	 7.481481e+00	 9.825361e+00
0	 0.000000e+00	 7.555556e+00	 9.834750e+00
0	 0.000000e+00	 7.629630e+00	 9.843873e+00
0	 0.000000e+00	 7.703704e+00	 9.852729e+00
0	 0.000000e+00	 7.777778e+00	 9.861319e+00
0	 7.407407e-02	 7.407407e+00	 9.815883e+00
0	 7.407407e-02	 7.481481e+00	 9.825529e+00
0	 7.407407e-02	 7.555556e+00	 9.834907e+00
0	 7.407407e-02	 7.629630e+00	 9.844019e+00
0	 7.407407e-02	 7.703704e+00	 9.852864e+00
0	 7.407407e-02	 7.777778e+00	 9.861446e+00
0	 1.481481e-01	 7.407407e+00	 9.816414e+00
0	 1.481481e-01	 7.481481e+00	 9.826031e+00
0	 1.481481e-01	 7.555556e+00	 9.835379e+00
0	 1.481481e-01	 7.629630e+00	 9.844461e+00
0	 1.481481e-01	 7.703704e+00	 9.853279e+00
0	 1.481481e-01	 7.777778e+00	 9.861833e+00
0	 2.222222e-01	 7.407407e+00	 9.817292e+00
0	 2.222222e-01	 7.481481e+00	 9.826860e+00
0	 2.222222e-01	 7.555556e+00	 9.836161e+00
0	 2.222222e-01	 7.629630e+00	 9.845195e+00
0	 2.222222e-01	 7.703704e+00	 9.853966e+00
0	 2.222222e-01	 7.777778e+00	 9.862476e+00
0	 2.962963e-01	 7.407407e+00	 9.818514e+00
0	 2.962963e-01	 7.481481e+00	 9.828014e+00
0	 2.962963e-01	 7.555556e+00	 9.837246e+00
0	 2.962963e-01	 7.629630e+00	 9.846215e+00
0	 2.962963e-01	 7.703704e+00	 9.854923e+00
0	 2.962963e-01	 7.777778e+00	 9.863372e+00
0	 3.703704e-01	 7.407407e+00	 9.820075e+00
0	 3.703704e-01	 7.481481e+00	 9.829485e+00
0	 3.703704e-01	 7.555556e+00	 9.838632e+00
0	 3.703704e-01	 7.629630e+00	 9.847517e+00
0	 3.703704e-01	 7.703704e+00	 9.856144e+00
0	 3.703704e-01	 7.777778e+00	 9.864515e+00
0	 0.000000e+00	 7.777778e+00	 9.861319e+00
0	 0.000000e+00	 7.851852e+00	 9.869649e+00
0	 0.000000e+00	 7.925926e+00	 9.877726e+00
0	 0.000000e+00	 8.000000e+00	 9.885554e+00
0	 0.000000e+00	 8.074074e+00	 9.893139e+00
0	 0.000000e+00	 8.148148e+00	 9.900484e+00
0	 7.407407e-02	 7.777778e+00	 9.861446e+00
0	 7.407407e-02	 7.851852e+00	 9.869768e+00
0	 7.407407e-02	 7.925926e+00	 9.877838e+00
0	 7.407407e-02	 8.000000e+00	 9.885659e+00
0	 7.407407e-02	 8.074074e+00	 9.893237e+00
0	 7.407407e-02	 8.148148e+00	 9.900575e+00
0	 1.481481e-01	 7.777778e+00	 9.861833e+00
0	 1.481481e-01	 7.851852e+00	 9.870130e+00
0	 1.481481e-01	 7.925926e+00	 9.878176e+00
0	 1.481481e-01	 8.000000e+00	 9.885975e+00
0	 1.481481e-01	 8.074074e+00	 9.893531e+00
0	 1.481481e-01	 8.148148e+00	 9.900848e+00
0	 2.222222e-01	 7.777778e+00	 9.862476e+00
0	 2.222222e-01	 7.851852e+00	 9.870731e+00
0	 2.222222e-01	 7.925926e+00	 9.878737e+00
0	 2.222222e-01	 8.000000e+00	 9.886498e+00
0	 2.222222e-01	 8.074074e+00	 9.894018e+00
0	 2.222222e-01	 8.148148e+00	 9.901300e+00
0	 2.962963e-01	 7.777778e+00	 9.863372e+00
0	 2.962963e-01	 7.851852e+00	 9.871567e+00
0	 2.962963e-01	 7.925926e+00	 9.879517e+00
0	 2.962963e-01	 8.000000e+00	 9.887225e+00
0	 2.962963e-01	 8.074074e+00	 9.894694e+00
0	 2.962963e-01	 8.148148e+00	 9.901928e+00
0	 3.703704e-01	 7.777778e+00	 9.864515e+00
0	 3.703704e-01	 7.851852e+00	 9.872637e+00
0	 3.703704e-01	 7.925926e+00	 9.880515e+00
0	 3.703704e-01	 8.000000e+00	 9.888154e+00
0	 3.703704e-01	 8.074074e+00	 9.895558e+00
0	 3.703704e-01	 8.148148e+00	 9.902730e+00
0	 0.000000e+00	 8.148148e+00	 9.900484e+00
0	 0.000000e+00	 8.222222e+00	 9.907587e+00
0	 0.000000e+00	 8.296296e+00	 9.914446e+00
0	 0.000000e+00	 8.370370e+00	 9.921066e+00
0	 0.000000e+00	 8.444444e+00	 9.927453e+00
0	 0.000000e+00	 8.518519e+00	 9.933612e+00
0	 7.407407e-02	 8.148148e+00	 9.900575e+00
0	 7.407407e-02	 8.222222e+00	 9.907671e+00
0	 7.407407e-02	 8.296296e+00	 9.914523e+00
0	 7.407407e-02	 8.370370e+00	 9.921136e+00
0	 7.407407e-02	 8.444444e+00	 9.927517e+00
0	 7.407407e-02	 8.518519e+00	 9.933671e+00
0	 1.481481e-01	 8.148148e+00	 9.900848e+00
0	 1.481481e-01	 8.222222e+00	 9.907924e+00
0	 1.481481e-01	 8.296296e+00	 9.914755e+00
0	 1.481481e-01	 8.370370e+00	 9.921350e+00
0	 1.481481e-01	 8.444444e+00	 9.927712e+00
0	 1.481481e-01	 8.518519e+00	 9.933850e+00
0	 2.222222e-01	 8.148148e+00	 9.901300e+00
0	 2.222222e-01	 8.222222e+00	 9.908342e+00
0	 2.222222e-01	 8.296296e+00	 9.915141e+00
0	 2.222222e-01	 8.370370e+00	 9.921705e+00
0	 2.222222e-01	 8.444444e+00	 9.928038e+00
0	 2.222222e-01	 8.518519e+00	 9.934147e+00
0	 2.962963e-01	 8.148148e+00	 9.901928e+00
0	 2.962963e-01	 8.222222e+00	 9.908924e+00
0	 2.962963e-01	 8.296296e+00	 9.915679e+00
0	 2.962963e-01	 8.370370e+00	 9.922199e+00
0	 2.962963e-01	 8.444444e+00	 9.928491e+00
0	 2.962963e-01	 8.518519e+00	 9.934561e+00
0	 3.703704e-01	 8.148148e+00	 9.902730e+00
0	 3.703704e-01	 8.222222e+00	 9.909666e+00
0	 3.703704e-01	 8.296296e+00	 9.916364e+00
0	 3.703704e-01	 8.370370e+00	 9.922830e+00
0	 3.703704e-01	 8.444444e+00	 9.929070e+00
0	 3.703704e-01	 8.518519e+00	 9.935089e+00
0	 0.000000e+00	 8.518519e+00	 9.933612e+00
0	 0.000000e+00	 8.592593e+00	 9.939530e+00
0	 0.000000e+00	 8.666667e+00	 9.945192e+00
0	 0.000000e+00	 8.740741e+00	 9.950607e+00
0	 0.000000e+00	 8.814815e+00	 9.955785e+00
0	 0.000000e+00	 8.888889e+00	 9.960735e+00
0	 7.407407e-02	 8.518519e+00	 9.933671e+00
0	 7.407407e-02	 8.592593e+00	 9.939583e+00
0	 7.407407e-02	 8.666667e+00	 9.945240e+00
0	 7.407407e-02	 8.740741e+00	 9.950651e+00
0	 7.407407e-02	 8.814815e+00	 9.955825e+00
0	 7.407407e-02	 8.888889e+00	 9.960770e+00
0	 1.481481e-01	 8.518519e+00	 9.933850e+00
0	 1.481481e-01	 8.592593e+00	 9.939746e+00
0	 1.481481e-01	 8.666667e+00	 9.945388e+00
0	 1.481481e-01	 8.740741e+00	 9.950785e+00
0	 1.481481e-01	 8.814815e+00	 9.955944e+00
0	 1.481481e-01	 8.888889e+00	 9.960876e+00
0	 2.222222e-01	 8.518519e+00	 9.934147e+00
0	 2.222222e-01	 8.592593e+00	 9.940017e+00
0	 2.222222e-01	 8.666667e+00	 9.945633e+00
0	 2.222222e-01	 8.740741e+00	 9.951006e+00
0	 2.222222e-01	 8.814815e+00	 9.956142e+00
0	 2.222222e-01	 8.888889e+00	 9.961052e+00
0	 2.962963e-01	 8.518519e+00	 9.934561e+00
0	 2.962963e-01	 8.592593e+00	 9.940393e+00
0	 2.962963e-01	 8.666667e+00	 9.945974e+00
0	 2.962963e-01	 8.740741e+00	 9.951312e+00
0	 2.962963e-01	 8.814815e+00	 9.956416e+00
0	 2.962963e-01	 8.888889e+00	 9.961295e+00
0	 3.703704e-01	 8.518519e+00	 9.935089e+00
0	 3.703704e-01	 8.592593e+00	 9.940874e+00
0	 3.703704e-01	 8.666667e+00	 9.946409e+00
0	 3.703704e-01	 8.740741e+00	 9.951703e+00
0	 3.703704e-01	 8.814815e+00	 9.956766e+00
0	 3.703704e-01	 8.888889e+00	 9.961606e+00
0	 0.000000e+00	 8.888889e+00	 9.960735e+00
0	 0.000000e+00	 8.962963e+00	 9.965428e+00
0	 0.000000e+00	 9.037037e+00	 9.969839e+00
0	 0.000000e+00	 9.111111e+00	 9.973979e+00
0	 0.000000e+00	 9.185185e+00	 9.977862e+00
0	 0.000000e+00	 9.259259e+00	 9.981498e+00
0	 7.407407e-02	 8.888889e+00	 9.960770e+00
0	 7.407407e-02	 8.962963e+00	 9.965459e+00
0	 7.407407e-02	 9.037037e+00	 9.969865e+00
0	 7.407407e-02	 9.111111e+00	 9.974002e+00
0	 7.407407e-02	 9.185185e+00	 9.977881e+00
0	 7.407407e-02	 9.259259e+00	 9.981514e+00
0	 1.481481e-01	 8.888889e+00	 9.960876e+00
0	 1.481481e-01	 8.962963e+00	 9.965552e+00
0	 1.481481e-01	 9.037037e+00	 9.969947e+00
0	 1.481481e-01	 9.111111e+00	 9.974072e+00
0	 1.481481e-01	 9.185185e+00	 9.977941e+00
0	 1.481481e-01	 9.259259e+00	 9.981564e+00
0	 2.222222e-01	 8.888889e+00	 9.961052e+00
0	 2.222222e-01	 8.962963e+00	 9.965707e+00
0	 2.222222e-01	 9.037037e+00	 9.970082e+00
0	 2.222222e-01	 9.111111e+00	 9.974189e+00
0	 2.222222e-01	 9.185185e+00	 9.978040e+00
0	 2.222222e-01	 9.259259e+00	 9.981647e+00
0	 2.962963e-01	 8.888889e+00	 9.961295e+00
0	 2.962963e-01	 8.962963e+00	 9.965921e+00
0	 2.962963e-01	 9.037037e+00	 9.970269e+00
0	 2.962963e-01	 9.111111e+00	 9.974350e+00
0	 2.962963e-01	 9.185185e+00	 9.978177e+00
0	 2.962963e-01	 9.259259e+00	 9.981762e+00
0	 3.703704e-01	 8.888889e+00	 9.961606e+00
0	 3.703704e-01	 8.962963e+00	 9.966194e+00
0	 3.703704e-01	 9.037037e+00	 9.970507e+00
0	 3.703704e-01	 9.111111e+00	 9.974555e+00
0	 3.703704e-01	 9.185185e+00	 9.978352e+00
0	 3.703704e-01	 9.259259e+00	 9.981908e+00
0	 0.000000e+00	 9.259259e+00	 9.981498e+00
0	 0.000000e+00	 9.333333e+00	 9.984843e+00
0	 0.000000e+00	 9.407407e+00	 9.987854e+00
0	 0.000000e+00	 9.481481e+00	 9.990547e+00
0	 0.000000e+00	 9.555556e+00	 9.992941e+00
0	 0.000000e+00	 9.629630e+00	 9.995051e+00
0	 7.407407e-02	 9.259259e+00	 9.981514e+00
0	 7.407407e-02	 9.333333e+00	 9.984856e+00
0	 7.407407e-02	 9.407407e+00	 9.987864e+00
0	 7.407407e-02	 9.481481e+00	 9.990556e+00
0	 7.407407e-02	 9.555556e+00	 9.992947e+00
0	 7.407407e-02	 9.629630e+00	 9.995055e+00
0	 1.481481e-01	 9.259259e+00	 9.981564e+00
0	 1.481481e-01	 9.333333e+00	 9.984897e+00
0	 1.481481e-01	 9.407407e+00	 9.987898e+00
0	 1.481481e-01	 9.481481e+00	 9.990582e+00
0	 1.481481e-01	 9.555556e+00	 9.992967e+00
0	 1.481481e-01	 9.629630e+00	 9.995069e+00
0	 2.222222e-01	 9.259259e+00	 9.981647e+00
0	 2.222222e-01	 9.333333e+00	 9.984966e+00
0	 2.222222e-01	 9.407407e+00	 9.987953e+00
0	 2.222222e-01	 9.481481e+00	 9.990625e+00
0	 2.222222e-01	 9.555556e+00	 9.993000e+00
0	 2.222222e-01	 9.629630e+00	 9.995092e+00
0	 2.962963e-01	 9.259259e+00	 9.981762e+00
0	 2.962963e-01	 9.333333e+00	 9.985060e+00
0	 2.962963e-01	 9.407407e+00	 9.988029e+00
0	 2.962963e-01	 9.481481e+00	 9.990684e+00
0	 2.962963e-01	 9.555556e+00	 9.993044e+00
0	 2.962963e-01	 9.629630e+00	 9.995123e+00
0	 3.703704e-01	 9.259259e+00	 9.981908e+00
0	 3.703704e-01	 9.333333e+00	 9.985179e+00
0	 3.703704e-01	 9.407407e+00	 9.988124e+00
0	 3.703704e-01	 9.481481e+00	 9.990758e+00
0	 3.703704e-01	 9.555556e+00	 9.993099e+00
0	 3.703704e-01	 9.629630e+00	 9.995161e+00
0	 0.000000e+00	 9.629630e+00	 9.995051e+00
0	 0.000000e+00	 9.703704e+00	 9.996815e+00
0	 0.000000e+00	 9.777778e+00	 9.998175e+00
0	 0.000000e+00	 9.851852e+00	 9.999153e+00
0	 0.000000e+00	 9.925926e+00	 9.999772e+00
0	 0.000000e+00	 1.000000e+01	 1.000005e+01
0	 7.407407e-02	 9.629630e+00	 9.995055e+00
0	 7.407407e-02	 9.703704e+00	 9.996817e+00
0	 7.407407e-02	 9.777778e+00	 9.998176e+00
0	 7.407407e-02	 9.851852e+00	 9.999153e+00
0	 7.407407e-02	 9.925926e+00	 9.999772e+00
0	 7.407407e-02	 1.000000e+01	 1.000005e+01
0	 1.481481e-01	 9.629630e+00	 9.995069e+00
0	 1.481481e-01	 9.703704e+00	 9.996827e+00
0	 1.481481e-01	 9.777778e+00	 9.998182e+00
0	 1.481481e-01	 9.851852e+00	 9.999156e+00
0	 1.481481e-01	 9.925926e+00	 9.999773e+00
0	 1.481481e-01	 1.000000e+01	 1.000005e+01
0	 2.222222e-01	 9.629630e+00	 9.995092e+00
0	 2.222222e-01	 9.703704e+00	 9.996842e+00
0	 2.222222e-01	 9.777778e+00	 9.998191e+00
0	 2.222222e-01	 9.851852e+00	 9.999161e+00
0	 2.222222e-01	 9.925926e+00	 9.999775e+00
0	 2.222222e-01	 1.000000e+01	 1.000005e+01
0	 2.962963e-01	 9.629630e+00	 9.995123e+00
0	 2.962963e-01	 9.703704e+00	 9.996862e+00
0	 2.962963e-01	 9.777778e+00	 9.998202e+00
0	 2.962963e-01	 9.851852e+00	 9.999166e+00
0	 2.962963e-01	 9.925926e+00	 9.999776e+00
0	 2.962963e-01	 1.000000e+01	 1.000005e+01
0	 3.703704e-01	 9.629630e+00	 9.995161e+00
0	 3.703704e-01	 9.703704e+00	 9.996885e+00
0	 3.703704e-01	 9.777778e+00	 9.998215e+00
0	 3.703704e-01	 9.851852e+00	 9.999171e+00
0	 3.703704e-01	 9.925926e+00	 9.999776e+00
0	 3.703704e-01	 1.000000e+01	 1.000005e+01
0	 3.703704e-01	 0.000000e+00	 5.263039e-01
0	 3.703704e-01	 7.407407e-02	-8.341945e-03
0	 3.703704e-01	 1.481481e-01	-3.197762e-01
0	 3.703704e-01	 2.222222e-01	-3.796489e-01
0	 3.703704e-01	 2.962963e-01	-1.596101e-01
0	 3.703704e-01	 3.703704e-01	 3.686900e-01
0	 4.444444e-01	 0.000000e+00	 3.354268e-01
0	 4.444444e-01	 7.407407e-02	-8.966490e-02
0	 4.444444e-01	 1.481481e-01	-3.341066e-01
0	 4.444444e-01	 2.222222e-01	-3.776604e-01
0	 4.444444e-01	 2.962963e-01	-2.000888e-01
0	 4.444444e-01	 3.703704e-01	 2.188461e-01
0	 5.185185e-01	 0.000000e+00	 1.740891e-01
0	 5.185185e-01	 7.407407e-02	-8.892541e-02
0	 5.185185e-01	 1.481481e-01	-2.381773e-01
0	 5.185185e-01	 2.222222e-01	-2.645546e-01
0	 5.185185e-01	 2.962963e-01	-1.589454e-01
0	 5.185185e-01	 3.703704e-01	 8.776207e-02
0	 5.925926e-01	 0.000000e+00	 6.294335e-02
0	 5.925926e-01	 7.407407e-02	-1.537522e-02
0	 5.925926e-01	 1.481481e-01	-5.559871e-02
0	 5.925926e-01	 2.222222e-01	-6.275471e-02
0	 5.925926e-01	 2.962963e-01	-4.187078e-02
0	 5.925926e-01	 3.703704e-01	 2.025472e-03
0	 6.666667e-01	 0.000000e+00	 2.264212e-02
0	 6.666667e-01	 7.407407e-02	 1.217339e-01
0	 6.666667e-01	 1.481481e-01	 1.900187e-01
0	 6.666667e-01	 2.222222e-01	 2.053157e-01
0	 6.666667e-01	 2.962963e-01	 1.454443e-01
0	 6.666667e-01	 3.703704e-01	-1.177618e-02
0	 7.407407e-01	 0.000000e+00	 7.383800e-02
0	 7.407407e-01	 7.407407e-02	 3.131502e-01
0	 7.407407e-01	 1.481481e-01	 4.750645e-01
0	 7.407407e-01	 2.222222e-01	 5.172333e-01
0	 7.407407e-01	 2.962963e-01	 3.973091e-01
0	 7.407407e-01	 3.703704e-01	 7.294463e-02
0	 3.703704e-01	 3.703704e-01	 3.686900e-01
0	 3.703704e-01	 4.444444e-01	 8.496778e-01
0	 3.703704e-01	 5.185185e-01	 8.912406e-01
0	 3.703704e-01	 5.925926e-01	 4.669205e-01
0	 3.703704e-01	 6.666667e-01	-4.497405e-01
0	 3.703704e-01	 7.407407e-01	-1.885200e+00
0	 4.444444e-01	 3.703704e-01	 2.188461e-01
0	 4.444444e-01	 4.444444e-01	 5.967213e-01
0	 4.444444e-01	 5.185185e-01	 6.202214e-01
0	 4.444444e-01	 5.925926e-01	 2.632453e-01
0	 4.444444e-01	 6.666667e-01	-5.003082e-01
0	 4.444444e-01	 7.407407e-01	-1.696540e+00
0	 5.185185e-01	 3.703704e-01	 8.776207e-02
0	 5.185185e-01	 4.444444e-01	 3.056084e-01
0	 5.185185e-01	 5.185185e-01	 3.033998e-01
0	 5.185185e-01	 5.925926e-01	 5.839711e-02
0	 5.185185e-01	 6.666667e-01	-4.521390e-01
0	 5.185185e-01	 7.407407e-01	-1.250948e+00
0	 5.925926e-01	 3.703704e-01	 2.025472e-03
0	 5.925926e-01	 4.444444e-01	 4.170140e-02
0	 5.925926e-01	 5.185185e-01	 4.236103e-02
0	 5.925926e-01	 5.925926e-01	-1.236822e-02
0	 5.925926e-01	 6.666667e-01	-1.388589e-01
0	 5.925926e-01	 7.407407e-01	-3.534836e-01
0	 6.666667e-01	 3.703704e-01	-1.177618e-02
0	 6.666667e-01	 4.444444e-01	-1.296371e-01
0	 6.666667e-01	 5.185185e-01	-6.130968e-02
0	 6.666667e-01	 5.925926e-01	 1.862050e-01
0	 6.666667e-01	 6.666667e-01	 6.059060e-01
0	 6.666667e-01	 7.407407e-01	 1.190793e+00
0	 7.407407e-01	 3.703704e-01	 7.294463e-02
0	 7.407407e-01	 4.444444e-01	-1.430445e-01
0	 7.407407e-01	 5.185185e-01	 9.397293e-02
0	 7.407407e-01	 5.925926e-01	 7.893725e-01
0	 7.407407e-01	 6.666667e-01	 1.948530e+00
0	 7.407407e-01	 7.407407e-01	 3.576820e+00
0	 3.703704e-01	 7.407407e-01	-1.885200e+00
0	 3.703704e-01	 8.148148e-01	-1.593130e+00
0	 3.703704e-01	 8.888889e-01	 2.712612e+00
0	 3.703704e-01	 9.629630e-01	 1.106528e+01
0	 3.703704e-01	 1.037037e+00	 2.349815e+01
0	 3.703704e-01	 1.111111e+00	 4.004446e+01
0	 4.444444e-01	 7.407407e-01	-1.696540e+00
0	 4.444444e-01	 8.148148e-01	-1.026513e+00
0	 4.444444e-01	 8.888889e-01	 3.844548e+00
0	 4.444444e-01	 9.629630e-01	 1.294430e+01
0	 4.444444e-01	 1.037037e+00	 2.630041e+01
0	 4.444444e-01	 1.111111e+00	 4.394052e+01
0	 5.185185e-01	 7.407407e-01	-1.250948e+00
0	 5.185185e-01	 8.148148e-01	-1.537586e-01
0	 5.185185e-01	 8.888889e-01	 5.056249e+00
0	 5.185185e-01	 9.629630e-01	 1.440516e+01
0	 5.185185e-01	 1.037037e+00	 2.791906e+01
0	 5.185185e-01	 1.111111e+00	 4.562403e+01
0	 5.925926e-01	 7.407407e-01	-3.534836e-01
0	 5.925926e-01	 8.148148e-01	 1.254086e+00
0	 5.925926e-01	 8.888889e-01	 6.624119e+00
0	 5.925926e-01	 9.629630e-01	 1.578516e+01
0	 5.925926e-01	 1.037037e+00	 2.876575e+01
0	 5.925926e-01	 1.111111e+00	 4.559442e+01
0	 6.666667e-01	 7.407407e-01	 1.190793e+00
0	 6.666667e-01	 8.148148e-01	 3.425970e+00
0	 6.666667e-01	 8.888889e-01	 8.824563e+00
0	 6.666667e-01	 9.629630e-01	 1.742160e+01
0	 6.666667e-01	 1.037037e+00	 2.925210e+01
0	 6.666667e-01	 1.111111e+00	 4.435110e+01
0	 7.407407e-01	 7.407407e-01	 3.576820e+00
0	 7.407407e-01	 8.148148e-01	 6.590845e+00
0	 7.407407e-01	 8.888889e-01	 1.193398e+01
0	 7.407407e-01	 9.629630e-01	 1.965177e+01
0	 7.407407e-01	 1.037037e+00	 2.978976e+01
0	 7.407407e-01	 1.111111e+00	 4.239349e+01
0	 3.703704e-01	 1.111111e+00	 4.004446e+01
0	 3.703704e-01	 1.185185e+00	 5.560126e+01
0	 3.703704e-01	 1.259259e+00	 6.501491e+01
0	 3.703704e-01	 1.333333e+00	 6.824267e+01
0	 3.703704e-01	 1.407407e+00	 6.524181e+01
0	 3.703704e-01	 1.481481e+00	 5.596956e+01
0	 4.444444e-01	 1.111111e+00	 4.394052e+01
0	 4.444444e-01	 1.185185e+00	 6.019975e+01
0	 4.444444e-01	 1.259259e+00	 6.937829e+01
0	 4.444444e-01	 1.333333e+00	 7.145140e+01
0	 4.444444e-01	 1.407407e+00	 6.639434e+01
0	 4.444444e-01	 1.481481e+00	 5.418237e+01
0	 5.185185e-01	 1.111111e+00	 4.562403e+01
0	 5.185185e-01	 1.185185e+00	 6.173967e+01
0	 5.185185e-01	 1.259259e+00	 7.045805e+01
0	 5.185185e-01	 1.333333e+00	 7.176401e+01
0	 5.185185e-01	 1.407407e+00	 6.564237e+01
0	 5.185185e-01	 1.481481e+00	 5.207797e+01
0	 5.925926e-01	 1.111111e+00	 4.559442e+01
0	 5.925926e-01	 1.185185e+00	 6.076830e+01
0	 5.925926e-01	 1.259259e+00	 6.875612e+01
0	 5.925926e-01	 1.333333e+00	 6.954384e+01
0	 5.925926e-01	 1.407407e+00	 6.311739e+01
0	 5.925926e-01	 1.481481e+00	 4.946275e+01
0	 6.666667e-01	 1.111111e+00	 4.435110e+01
0	 6.666667e-01	 1.185185e+00	 5.783296e+01
0	 6.666667e-01	 1.259259e+00	 6.477445e+01
0	 6.666667e-01	 1.333333e+00	 6.515421e+01
0	 6.666667e-01	 1.407407e+00	 5.895088e+01
0	 6.666667e-01	 1.481481e+00	 4.614312e+01
0	 7.407407e-01	 1.111111e+00	 4.239349e+01
0	 7.407407e-01	 1.185185e+00	 5.348093e+01
0	 7.407407e-01	 1.259259e+00	 5.901495e+01
0	 7.407407e-01	 1.333333e+00	 5.895846e+01
0	 7.407407e-01	 1.407407e+00	 5.327434e+01
0	 7.407407e-01	 1.481481e+00	 4.192547e+01
0	 3.703704e-01	 1.481481e+00	 5.596956e+01
0	 3.703704e-01	 1.555556e+00	 4.432009e+01
0	 3.703704e-01	 1.629630e+00	 3.424243e+01
0	 3.703704e-01	 1.703704e+00	 2.577620e+01
0	 3.703704e-01	 1.777778e+00	 1.896103e+01
0	 3.703704e-01	 1.851852e+00	 1.383654e+01
0	 4.444444e-01	 1.481481e+00	 5.418237e+01
0	 4.444444e-01	 1.555556e+00	 3.974500e+01
0	 4.444444e-01	 1.629630e+00	 2.804246e+01
0	 4.444444e-01	 1.703704e+00	 1.909616e+01
0	 4.444444e-01	 1.777778e+00	 1.292747e+01
0	 4.444444e-01	 1.851852e+00	 9.557783e+00
0	 5.185185e-01	 1.481481e+00	 5.207797e+01
0	 5.185185e-01	 1.555556e+00	 3.644724e+01
0	 5.185185e-01	 1.629630e+00	 2.414235e+01
0	 5.185185e-01	 1.703704e+00	 1.517170e+01
0	 5.185185e-01	 1.777778e+00	 9.543691e+00
0	 5.185185e-01	 1.851852e+00	 7.266723e+00
0	 5.925926e-01	 1.481481e+00	 4.946275e+01
0	 5.925926e-01	 1.555556e+00	 3.392259e+01
0	 5.925926e-01	 1.629630e+00	 2.184940e+01
0	 5.925926e-01	 1.703704e+00	 1.324384e+01
0	 5.925926e-01	 1.777778e+00	 8.106578e+00
0	 5.925926e-01	 1.851852e+00	 6.438273e+00
0	 6.666667e-01	 1.481481e+00	 4.614312e+01
0	 6.666667e-01	 1.555556e+00	 3.166682e+01
0	 6.666667e-01	 1.629630e+00	 2.047092e+01
0	 6.666667e-01	 1.703704e+00	 1.255360e+01
0	 6.666667e-01	 1.777778e+00	 7.913017e+00
0	 6.666667e-01	 1.851852e+00	 6.547353e+00
0	 7.407407e-01	 1.481481e+00	 4.192547e+01
0	 7.407407e-01	 1.555556e+00	 2.917571e+01
0	 7.407407e-01	 1.629630e+00	 1.931424e+01
0	 7.407407e-01	 1.703704e+00	 1.234199e+01
0	 7.407407e-01	 1.777778e+00	 8.259893e+00
0	 7.407407e-01	 1.851852e+00	 7.068879e+00
0	 3.703704e-01	 1.851852e+00	 1.383654e+01
0	 3.703704e-01	 1.925926e+00	 1.009973e+01
0	 3.703704e-01	 2.000000e+00	 7.410295e+00
0	 3.703704e-01	 2.074074e+00	 5.751863e+00
0	 3.703704e-01	 2.148148e+00	 5.108064e+00
0	 3.703704e-01	 2.222222e+00	 5.462529e+00
0	 4.444444e-01	 1.851852e+00	 9.557783e+00
0	 4.444444e-01	 1.925926e+00	 7.852160e+00
0	 4.444444e-01	 2.000000e+00	 6.656122e+00
0	 4.444444e-01	 2.074074e+00	 5.961750e+00
0	 4.444444e-01	 2.148148e+00	 5.761121e+00
0	 4.444444e-01	 2.222222e+00	 6.046316e+00
0	 5.185185e-01	 1.851852e+00	 7.266723e+00
0	 5.185185e-01	 1.925926e+00	 6.759648e+00
0	 5.185185e-01	 2.000000e+00	 6.434758e+00
0	 5.185185e-01	 2.074074e+00	 6.290612e+00
0	 5.185185e-01	 2.148148e+00	 6.325769e+00
0	 5.185185e-01	 2.222222e+00	 6.538789e+00
0	 5.925926e-01	 1.851852e+00	 6.438273e+00
0	 5.925926e-01	 1.925926e+00	 6.510191e+00
0	 5.925926e-01	 2.000000e+00	 6.595203e+00
0	 5.925926e-01	 2.074074e+00	 6.696381e+00
0	 5.925926e-01	 2.148148e+00	 6.816796e+00
0	 5.925926e-01	 2.222222e+00	 6.959519e+00
0	 6.666667e-01	 1.851852e+00	 6.547353e+00
0	 6.666667e-01	 1.925926e+00	 6.791786e+00
0	 6.666667e-01	 2.000000e+00	 6.986458e+00
0	 6.666667e-01	 2.074074e+00	 7.136987e+00
0	 6.666667e-01	 2.148148e+00	 7.248987e+00
0	 6.666667e-01	 2.222222e+00	 7.328076e+00
0	 7.407407e-01	 1.851852e+00	 7.068879e+00
0	 7.407407e-01	 1.925926e+00	 7.292427e+00
0	 7.407407e-01	 2.000000e+00	 7.457523e+00
0	 7.407407e-01	 2.074074e+00	 7.570360e+00
0	 7.407407e-01	 2.148148e+00	 7.637132e+00
0	 7.407407e-01	 2.222222e+00	 7.664030e+00
0	 3.703704e-01	 2.222222e+00	 5.462529e+00
0	 3.703704e-01	 2.296296e+00	 6.215393e+00
0	 3.703704e-01	 2.370370e+00	 6.778740e+00
0	 3.703704e-01	 2.444444e+00	 7.154132e+00
0	 3.703704e-01	 2.518519e+00	 7.343126e+00
0	 3.703704e-01	 2.592593e+00	 7.347282e+00
0	 4.444444e-01	 2.222222e+00	 6.046316e+00
0	 4.444444e-01	 2.296296e+00	 6.521866e+00
0	 4.444444e-01	 2.370370e+00	 6.896131e+00
0	 4.444444e-01	 2.444444e+00	 7.166929e+00
0	 4.444444e-01	 2.518519e+00	 7.332080e+00
0	 4.444444e-01	 2.592593e+00	 7.389402e+00
0	 5.185185e-01	 2.222222e+00	 6.538789e+00
0	 5.185185e-01	 2.296296e+00	 6.820920e+00
0	 5.185185e-01	 2.370370e+00	 7.061201e+00
0	 5.185185e-01	 2.444444e+00	 7.254873e+00
0	 5.185185e-01	 2.518519e+00	 7.397178e+00
0	 5.185185e-01	 2.592593e+00	 7.483360e+00
0	 5.925926e-01	 2.222222e+00	 6.959519e+00
0	 5.925926e-01	 2.296296e+00	 7.113836e+00
0	 5.925926e-01	 2.370370e+00	 7.262870e+00
0	 5.925926e-01	 2.444444e+00	 7.400450e+00
0	 5.925926e-01	 2.518519e+00	 7.520406e+00
0	 5.925926e-01	 2.592593e+00	 7.616566e+00
0	 6.666667e-01	 2.222222e+00	 7.328076e+00
0	 6.666667e-01	 2.296296e+00	 7.401894e+00
0	 6.666667e-01	 2.370370e+00	 7.490058e+00
0	 6.666667e-01	 2.444444e+00	 7.586150e+00
0	 6.666667e-01	 2.518519e+00	 7.683747e+00
0	 6.666667e-01	 2.592593e+00	 7.776431e+00
0	 7.407407e-01	 2.222222e+00	 7.664030e+00
0	 7.407407e-01	 2.296296e+00	 7.686375e+00
0	 7.407407e-01	 2.370370e+00	 7.731687e+00
0	 7.407407e-01	 2.444444e+00	 7.794460e+00
0	 7.407407e-01	 2.518519e+00	 7.869188e+00
0	 7.407407e-01	 2.592593e+00	 7.950363e+00
0	 3.703704e-01	 2.592593e+00	 7.347282e+00
0	 3.703704e-01	 2.666667e+00	 7.288577e+00
0	 3.703704e-01	 2.740741e+00	 7.287937e+00
0	 3.703704e-01	 2.814815e+00	 7.345341e+00
0	 3.703704e-01	 2.888889e+00	 7.460770e+00
0	 3.703704e-01	 2.962963e+00	 7.634205e+00
0	 4.444444e-01	 2.592593e+00	 7.389402e+00
0	 4.444444e-01	 2.666667e+00	 7.404334e+00
0	 4.444444e-01	 2.740741e+00	 7.445568e+00
0	 4.444444e-01	 2.814815e+00	 7.515803e+00
0	 4.444444e-01	 2.888889e+00	 7.617738e+00
0	 4.444444e-01	 2.962963e+00	 7.754071e+00
0	 5.185185e-01	 2.592593e+00	 7.483360e+00
0	 5.185185e-01	 2.666667e+00	 7.541270e+00
0	 5.185185e-01	 2.740741e+00	 7.604967e+00
0	 5.185185e-01	 2.814815e+00	 7.678999e+00
0	 5.185185e-01	 2.888889e+00	 7.767916e+00
0	 5.185185e-01	 2.962963e+00	 7.876265e+00
0	 5.925926e-01	 2.592593e+00	 7.616566e+00
0	 5.925926e-01	 2.666667e+00	 7.694044e+00
0	 5.925926e-01	 2.740741e+00	 7.765753e+00
0	 5.925926e-01	 2.814815e+00	 7.837223e+00
0	 5.925926e-01	 2.888889e+00	 7.913987e+00
0	 5.925926e-01	 2.962963e+00	 8.001573e+00
0	 6.666667e-01	 2.592593e+00	 7.776431e+00
0	 6.666667e-01	 2.666667e+00	 7.857311e+00
0	 6.666667e-01	 2.740741e+00	 7.927542e+00
0	 6.666667e-01	 2.814815e+00	 7.992768e+00
0	 6.666667e-01	 2.888889e+00	 8.058634e+00
0	 6.666667e-01	 2.962963e+00	 8.130782e+00
0	 7.407407e-01	 2.592593e+00	 7.950363e+00
0	 7.407407e-01	 2.666667e+00	 8.025728e+00
0	 7.407407e-01	 2.740741e+00	 8.089953e+00
0	 7.407407e-01	 2.814815e+00	 8.147927e+00
0	 7.407407e-01	 2.888889e+00	 8.204540e+00
0	 7.407407e-01	 2.962963e+00	 8.264678e+00
0	 3.703704e-01	 2.962963e+00	 7.634205e+00
0	 3.703704e-01	 3.037037e+00	 7.820471e+00
0	 3.703704e-01	 3.111111e+00	 7.974285e+00
0	 3.703704e-01	 3.185185e+00	 8.095456e+00
0	 3.703704e-01	 3.259259e+00	 8.183797e+00
0	 3.703704e-01	 3.333333e+00	 8.239118e+00
0	 4.444444e-01	 2.962963e+00	 7.754071e+00
0	 4.444444e-01	 3.037037e+00	 7.900077e+00
0	 4.444444e-01	 3.111111e+00	 8.027961e+00
0	 4.444444e-01	 3.185185e+00	 8.135817e+00
0	 4.444444e-01	 3.259259e+00	 8.221743e+00
0	 4.444444e-01	 3.333333e+00	 8.283834e+00
0	 5.185185e-01	 2.962963e+00	 7.876265e+00
0	 5.185185e-01	 3.037037e+00	 7.992577e+00
0	 5.185185e-01	 3.111111e+00	 8.100326e+00
0	 5.185185e-01	 3.185185e+00	 8.196482e+00
0	 5.185185e-01	 3.259259e+00	 8.278016e+00
0	 5.185185e-01	 3.333333e+00	 8.341898e+00
0	 5.925926e-01	 2.962963e+00	 8.001573e+00
0	 5.925926e-01	 3.037037e+00	 8.096177e+00
0	 5.925926e-01	 3.111111e+00	 8.187928e+00
0	 5.925926e-01	 3.185185e+00	 8.273259e+00
0	 5.925926e-01	 3.259259e+00	 8.348603e+00
0	 5.925926e-01	 3.333333e+00	 8.410393e+00
0	 6.666667e-01	 2.962963e+00	 8.130782e+00
0	 6.666667e-01	 3.037037e+00	 8.209086e+00
0	 6.666667e-01	 3.111111e+00	 8.287316e+00
0	 6.666667e-01	 3.185185e+00	 8.361955e+00
0	 6.666667e-01	 3.259259e+00	 8.429489e+00
0	 6.666667e-01	 3.333333e+00	 8.486402e+00
0	 7.407407e-01	 2.962963e+00	 8.264678e+00
0	 7.407407e-01	 3.037037e+00	 8.329513e+00
0	 7.407407e-01	 3.111111e+00	 8.395037e+00
0	 7.407407e-01	 3.185185e+00	 8.458377e+00
0	 7.407407e-01	 3.259259e+00	 8.516659e+00
0	 7.407407e-01	 3.333333e+00	 8.567009e+00
0	 3.703704e-01	 3.333333e+00	 8.239118e+00
0	 3.703704e-01	 3.407407e+00	 8.281722e+00
0	 3.703704e-01	 3.481481e+00	 8.332150e+00
0	 3.703704e-01	 3.555556e+00	 8.390576e+00
0	 3.703704e-01	 3.629630e+00	 8.457172e+00
0	 3.703704e-01	 3.703704e+00	 8.532109e+00
0	 4.444444e-01	 3.333333e+00	 8.283834e+00
0	 4.444444e-01	 3.407407e+00	 8.334242e+00
0	 4.444444e-01	 3.481481e+00	 8.387191e+00
0	 4.444444e-01	 3.555556e+00	 8.443882e+00
0	 4.444444e-01	 3.629630e+00	 8.505519e+00
0	 4.444444e-01	 3.703704e+00	 8.573304e+00
0	 5.185185e-01	 3.333333e+00	 8.341898e+00
0	 5.185185e-01	 3.407407e+00	 8.394989e+00
0	 5.185185e-01	 3.481481e+00	 8.447424e+00
0	 5.185185e-01	 3.555556e+00	 8.501082e+00
0	 5.185185e-01	 3.629630e+00	 8.557842e+00
0	 5.185185e-01	 3.703704e+00	 8.619582e+00
0	 5.925926e-01	 3.333333e+00	 8.410393e+00
0	 5.925926e-01	 3.407407e+00	 8.462401e+00
0	 5.925926e-01	 3.481481e+00	 8.512244e+00
0	 5.925926e-01	 3.555556e+00	 8.562122e+00
0	 5.925926e-01	 3.629630e+00	 8.614236e+00
0	 5.925926e-01	 3.703704e+00	 8.670785e+00
0	 6.666667e-01	 3.333333e+00	 8.486402e+00
0	 6.666667e-01	 3.407407e+00	 8.534917e+00
0	 6.666667e-01	 3.481481e+00	 8.581043e+00
0	 6.666667e-01	 3.555556e+00	 8.626947e+00
0	 6.666667e-01	 3.629630e+00	 8.674795e+00
0	 6.666667e-01	 3.703704e+00	 8.726755e+00
0	 7.407407e-01	 3.333333e+00	 8.567009e+00
0	 7.407407e-01	 3.407407e+00	 8.610977e+00
0	 7.407407e-01	 3.481481e+00	 8.653215e+00
0	 7.407407e-01	 3.555556e+00	 8.695502e+00
0	 7.407407e-01	 3.629630e+00	 8.739615e+00
0	 7.407407e-01	 3.703704e+00	 8.787335e+00
0	 3.703704e-01	 3.703704e+00	 8.532109e+00
0	 3.703704e-01	 3.777778e+00	 8.607490e+00
0	 3.703704e-01	 3.851852e+00	 8.675199e+00
0	 3.703704e-01	 3.925926e+00	 8.735079e+00
0	 3.703704e-01	 4.000000e+00	 8.786974e+00
0	 3.703704e-01	 4.074074e+00	 8.830727e+00
0	 4.444444e-01	 3.703704e+00	 8.573304e+00
0	 4.444444e-01	 3.777778e+00	 8.642106e+00
0	 4.444444e-01	 3.851852e+00	 8.705537e+00
0	 4.444444e-01	 3.925926e+00	 8.762910e+00
0	 4.444444e-01	 4.000000e+00	 8.813540e+00
0	 4.444444e-01	 4.074074e+00	 8.856742e+00
0	 5.185185e-01	 3.703704e+00	 8.619582e+00
0	 5.185185e-01	 3.777778e+00	 8.682862e+00
0	 5.185185e-01	 3.851852e+00	 8.742312e+00
0	 5.185185e-01	 3.925926e+00	 8.796909e+00
0	 5.185185e-01	 4.000000e+00	 8.845634e+00
0	 5.185185e-01	 4.074074e+00	 8.887465e+00
0	 5.925926e-01	 3.703704e+00	 8.670785e+00
0	 5.925926e-01	 3.777778e+00	 8.729215e+00
0	 5.925926e-01	 3.851852e+00	 8.784730e+00
0	 5.925926e-01	 3.925926e+00	 8.836170e+00
0	 5.925926e-01	 4.000000e+00	 8.882371e+00
0	 5.925926e-01	 4.074074e+00	 8.922172e+00
0	 6.666667e-01	 3.703704e+00	 8.726755e+00
0	 6.666667e-01	 3.777778e+00	 8.780620e+00
0	 6.666667e-01	 3.851852e+00	 8.832000e+00
0	 6.666667e-01	 3.925926e+00	 8.879785e+00
0	 6.666667e-01	 4.000000e+00	 8.922867e+00
0	 6.666667e-01	 4.074074e+00	 8.960135e+00
0	 7.407407e-01	 3.703704e+00	 8.787335e+00
0	 7.407407e-01	 3.777778e+00	 8.836534e+00
0	 7.407407e-01	 3.851852e+00	 8.883327e+00
0	 7.407407e-01	 3.925926e+00	 8.926849e+00
0	 7.407407e-01	 4.000000e+00	 8.966238e+00
0	 7.407407e-01	 4.074074e+00	 9.000629e+00
0	 3.703704e-01	 4.074074e+00	 8.830727e+00
0	 3.703704e-01	 4.148148e+00	 8.870511e+00
0	 3.703704e-01	 4.222222e+00	 8.910628e+00
0	 3.703704e-01	 4.296296e+00	 8.951122e+00
0	 3.703704e-01	 4.370370e+00	 8.992034e+00
0	 3.703704e-01	 4.444444e+00	 9.033407e+00
0	 4.444444e-01	 4.074074e+00	 8.856742e+00
0	 4.444444e-01	 4.148148e+00	 8.895753e+00
0	 4.444444e-01	 4.222222e+00	 8.934477e+00
0	 4.444444e-01	 4.296296e+00	 8.973231e+00
0	 4.444444e-01	 4.370370e+00	 9.012327e+00
0	 4.444444e-01	 4.444444e+00	 9.052082e+00
0	 5.185185e-01	 4.074074e+00	 8.887465e+00
0	 5.185185e-01	 4.148148e+00	 8.925038e+00
0	 5.185185e-01	 4.222222e+00	 8.961993e+00
0	 5.185185e-01	 4.296296e+00	 8.998822e+00
0	 5.185185e-01	 4.370370e+00	 9.036014e+00
0	 5.185185e-01	 4.444444e+00	 9.074059e+00
0	 5.925926e-01	 4.074074e+00	 8.922172e+00
0	 5.925926e-01	 4.148148e+00	 8.957842e+00
0	 5.925926e-01	 4.222222e+00	 8.992804e+00
0	 5.925926e-01	 4.296296e+00	 9.027627e+00
0	 5.925926e-01	 4.370370e+00	 9.062878e+00
0	 5.925926e-01	 4.444444e+00	 9.099127e+00
0	 6.666667e-01	 4.074074e+00	 8.960135e+00
0	 6.666667e-01	 4.148148e+00	 8.993640e+00
0	 6.666667e-01	 4.222222e+00	 9.026537e+00
0	 6.666667e-01	 4.296296e+00	 9.059376e+00
0	 6.666667e-01	 4.370370e+00	 9.092705e+00
0	 6.666667e-01	 4.444444e+00	 9.127074e+00
0	 7.407407e-01	 4.074074e+00	 9.000629e+00
0	 7.407407e-01	 4.148148e+00	 9.031907e+00
0	 7.407407e-01	 4.222222e+00	 9.062820e+00
0	 7.407407e-01	 4.296296e+00	 9.093799e+00
0	 7.407407e-01	 4.370370e+00	 9.125278e+00
0	 7.407407e-01	 4.444444e+00	 9.157689e+00
0	 3.703704e-01	 4.444444e+00	 9.033407e+00
0	 3.703704e-01	 4.518519e+00	 9.073800e+00
0	 3.703704e-01	 4.592593e+00	 9.111714e+00
0	 3.703704e-01	 4.666667e+00	 9.147107e+00
0	 3.703704e-01	 4.740741e+00	 9.179938e+00
0	 3.703704e-01	 4.814815e+00	 9.210165e+00
0	 4.444444e-01	 4.444444e+00	 9.052082e+00
0	 4.444444e-01	 4.518519e+00	 9.091230e+00
0	 4.444444e-01	 4.592593e+00	 9.128185e+00
0	 4.444444e-01	 4.666667e+00	 9.162782e+00
0	 4.444444e-01	 4.740741e+00	 9.194858e+00
0	 4.444444e-01	 4.814815e+00	 9.224248e+00
0	 5.185185e-01	 4.444444e+00	 9.074059e+00
0	 5.185185e-01	 4.518519e+00	 9.111790e+00
0	 5.185185e-01	 4.592593e+00	 9.147549e+00
0	 5.185185e-01	 4.666667e+00	 9.181097e+00
0	 5.185185e-01	 4.740741e+00	 9.212194e+00
0	 5.185185e-01	 4.814815e+00	 9.240598e+00
0	 5.925926e-01	 4.444444e+00	 9.099127e+00
0	 5.925926e-01	 4.518519e+00	 9.135251e+00
0	 5.925926e-01	 4.592593e+00	 9.169571e+00
0	 5.925926e-01	 4.666667e+00	 9.201816e+00
0	 5.925926e-01	 4.740741e+00	 9.231717e+00
0	 5.925926e-01	 4.814815e+00	 9.259004e+00
0	 6.666667e-01	 4.444444e+00	 9.127074e+00
0	 6.666667e-01	 4.518519e+00	 9.161387e+00
0	 6.666667e-01	 4.592593e+00	 9.194014e+00
0	 6.666667e-01	 4.666667e+00	 9.224702e+00
0	 6.666667e-01	 4.740741e+00	 9.253200e+00
0	 6.666667e-01	 4.814815e+00	 9.279254e+00
0	 7.407407e-01	 4.444444e+00	 9.157689e+00
0	 7.407407e-01	 4.518519e+00	 9.189969e+00
0	 7.407407e-01	 4.592593e+00	 9.220642e+00
0	 7.407407e-01	 4.666667e+00	 9.249520e+00
0	 7.407407e-01	 4.740741e+00	 9.276415e+00
0	 7.407407e-01	 4.814815e+00	 9.301138e+00
0	 3.703704e-01	 4.814815e+00	 9.210165e+00
0	 3.703704e-01	 4.888889e+00	 9.238781e+00
0	 3.703704e-01	 4.962963e+00	 9.266803e+00
0	 3.703704e-01	 5.037037e+00	 9.294223e+00
0	 3.703704e-01	 5.111111e+00	 9.321030e+00
0	 3.703704e-01	 5.185185e+00	 9.347217e+00
0	 4.444444e-01	 4.814815e+00	 9.224248e+00
0	 4.444444e-01	 4.888889e+00	 9.251926e+00
0	 4.444444e-01	 4.962963e+00	 9.279013e+00
0	 4.444444e-01	 5.037037e+00	 9.305557e+00
0	 4.444444e-01	 5.111111e+00	 9.331608e+00
0	 4.444444e-01	 5.185185e+00	 9.357217e+00
0	 5.185185e-01	 4.814815e+00	 9.240598e+00
0	 5.185185e-01	 4.888889e+00	 9.267261e+00
0	 5.185185e-01	 4.962963e+00	 9.293352e+00
0	 5.185185e-01	 5.037037e+00	 9.318960e+00
0	 5.185185e-01	 5.111111e+00	 9.344171e+00
0	 5.185185e-01	 5.185185e+00	 9.369073e+00
0	 5.925926e-01	 4.814815e+00	 9.259004e+00
0	 5.925926e-01	 4.888889e+00	 9.284593e+00
0	 5.925926e-01	 4.962963e+00	 9.309648e+00
0	 5.925926e-01	 5.037037e+00	 9.334276e+00
0	 5.925926e-01	 5.111111e+00	 9.358580e+00
0	 5.925926e-01	 5.185185e+00	 9.382666e+00
0	 6.666667e-01	 4.814815e+00	 9.279254e+00
0	 6.666667e-01	 4.888889e+00	 9.303731e+00
0	 6.666667e-01	 4.962963e+00	 9.327730e+00
0	 6.666667e-01	 5.037037e+00	 9.351352e+00
0	 6.666667e-01	 5.111111e+00	 9.374699e+00
0	 6.666667e-01	 5.185185e+00	 9.397872e+00
0	 7.407407e-01	 4.814815e+00	 9.301138e+00
0	 7.407407e-01	 4.888889e+00	 9.324484e+00
0	 7.407407e-01	 4.962963e+00	 9.347423e+00
0	 7.407407e-01	 5.037037e+00	 9.370032e+00
0	 7.407407e-01	 5.111111e+00	 9.392389e+00
0	 7.407407e-01	 5.185185e+00	 9.414571e+00
0	 3.703704e-01	 5.185185e+00	 9.347217e+00
0	 3.703704e-01	 5.259259e+00	 9.372560e+00
0	 3.703704e-01	 5.333333e+00	 9.396837e+00
0	 3.703704e-01	 5.407407e+00	 9.420040e+00
0	 3.703704e-01	 5.481481e+00	 9.442163e+00
0	 3.703704e-01	 5.555556e+00	 9.463199e+00
0	 4.444444e-01	 5.185185e+00	 9.357217e+00
0	 4.444444e-01	 5.259259e+00	 9.382110e+00
0	 4.444444e-01	 5.333333e+00	 9.405965e+00
0	 4.444444e-01	 5.407407e+00	 9.428750e+00
0	 4.444444e-01	 5.481481e+00	 9.450436e+00
0	 4.444444e-01	 5.555556e+00	 9.470992e+00
0	 5.185185e-01	 5.185185e+00	 9.369073e+00
0	 5.185185e-01	 5.259259e+00	 9.393365e+00
0	 5.185185e-01	 5.333333e+00	 9.416655e+00
0	 5.185185e-01	 5.407407e+00	 9.438899e+00
0	 5.185185e-01	 5.481481e+00	 9.460052e+00
0	 5.185185e-01	 5.555556e+00	 9.480072e+00
0	 5.925926e-01	 5.185185e+00	 9.382666e+00
0	 5.925926e-01	 5.259259e+00	 9.406215e+00
0	 5.925926e-01	 5.333333e+00	 9.428809e+00
0	 5.925926e-01	 5.407407e+00	 9.450397e+00
0	 5.925926e-01	 5.481481e+00	 9.470929e+00
0	 5.925926e-01	 5.555556e+00	 9.490358e+00
0	 6.666667e-01	 5.185185e+00	 9.397872e+00
0	 6.666667e-01	 5.259259e+00	 9.420555e+00
0	 6.666667e-01	 5.333333e+00	 9.442331e+00
0	 6.666667e-01	 5.407407e+00	 9.463156e+00
0	 6.666667e-01	 5.481481e+00	 9.482984e+00
0	 6.666667e-01	 5.555556e+00	 9.501769e+00
0	 7.407407e-01	 5.185185e+00	 9.414571e+00
0	 7.407407e-01	 5.259259e+00	 9.436275e+00
0	 7.407407e-01	 5.333333e+00	 9.457125e+00
0	 7.407407e-01	 5.407407e+00	 9.477088e+00
0	 7.407407e-01	 5.481481e+00	 9.496132e+00
0	 7.407407e-01	 5.555556e+00	 9.514224e+00
0	 3.703704e-01	 5.555556e+00	 9.463199e+00
0	 3.703704e-01	 5.629630e+00	 9.483420e+00
0	 3.703704e-01	 5.703704e+00	 9.503097e+00
0	 3.703704e-01	 5.777778e+00	 9.522219e+00
0	 3.703704e-01	 5.851852e+00	 9.540773e+00
0	 3.703704e-01	 5.925926e+00	 9.558747e+00
0	 4.444444e-01	 5.555556e+00	 9.470992e+00
0	 4.444444e-01	 5.629630e+00	 9.490716e+00
0	 4.444444e-01	 5.703704e+00	 9.509929e+00
0	 4.444444e-01	 5.777778e+00	 9.528629e+00
0	 4.444444e-01	 5.851852e+00	 9.546815e+00
0	 4.444444e-01	 5.925926e+00	 9.564486e+00
0	 5.185185e-01	 5.555556e+00	 9.480072e+00
0	 5.185185e-01	 5.629630e+00	 9.499265e+00
0	 5.185185e-01	 5.703704e+00	 9.517974e+00
0	 5.185185e-01	 5.777778e+00	 9.536207e+00
0	 5.185185e-01	 5.851852e+00	 9.553971e+00
0	 5.185185e-01	 5.925926e+00	 9.571271e+00
0	 5.925926e-01	 5.555556e+00	 9.490358e+00
0	 5.925926e-01	 5.629630e+00	 9.508985e+00
0	 5.925926e-01	 5.703704e+00	 9.527156e+00
0	 5.925926e-01	 5.777778e+00	 9.544882e+00
0	 5.925926e-01	 5.851852e+00	 9.562174e+00
0	 5.925926e-01	 5.925926e+00	 9.579042e+00
0	 6.666667e-01	 5.555556e+00	 9.501769e+00
0	 6.666667e-01	 5.629630e+00	 9.519798e+00
0	 6.666667e-01	 5.703704e+00	 9.537399e+00
0	 6.666667e-01	 5.777778e+00	 9.554582e+00
0	 6.666667e-01	 5.851852e+00	 9.571358e+00
0	 6.666667e-01	 5.925926e+00	 9.587738e+00
0	 7.407407e-01	 5.555556e+00	 9.514224e+00
0	 7.407407e-01	 5.629630e+00	 9.531625e+00
0	 7.407407e-01	 5.703704e+00	 9.548625e+00
0	 7.407407e-01	 5.777778e+00	 9.565233e+00
0	 7.407407e-01	 5.851852e+00	 9.581455e+00
0	 7.407407e-01	 5.925926e+00	 9.597301e+00
0	 3.703704e-01	 5.925926e+00	 9.558747e+00
0	 3.703704e-01	 6.000000e+00	 9.576145e+00
0	 3.703704e-01	 6.074074e+00	 9.592973e+00
0	 3.703704e-01	 6.148148e+00	 9.609232e+00
0	 3.703704e-01	 6.222222e+00	 9.624921e+00
0	 3.703704e-01	 6.296296e+00	 9.640037e+00
0	 4.444444e-01	 5.925926e+00	 9.564486e+00
0	 4.444444e-01	 6.000000e+00	 9.581621e+00
0	 4.444444e-01	 6.074074e+00	 9.598194e+00
0	 4.444444e-01	 6.148148e+00	 9.614199e+00
0	 4.444444e-01	 6.222222e+00	 9.629633e+00
0	 4.444444e-01	 6.296296e+00	 9.644491e+00
0	 5.185185e-01	 5.925926e+00	 9.571271e+00
0	 5.185185e-01	 6.000000e+00	 9.588070e+00
0	 5.185185e-01	 6.074074e+00	 9.604320e+00
0	 5.185185e-01	 6.148148e+00	 9.620014e+00
0	 5.185185e-01	 6.222222e+00	 9.635145e+00
0	 5.185185e-01	 6.296296e+00	 9.649708e+00
0	 5.925926e-01	 5.925926e+00	 9.579042e+00
0	 5.925926e-01	 6.000000e+00	 9.595439e+00
0	 5.925926e-01	 6.074074e+00	 9.611305e+00
0	 5.925926e-01	 6.148148e+00	 9.626634e+00
0	 5.925926e-01	 6.222222e+00	 9.641419e+00
0	 5.925926e-01	 6.296296e+00	 9.655650e+00
0	 6.666667e-01	 5.925926e+00	 9.587738e+00
0	 6.666667e-01	 6.000000e+00	 9.603674e+00
0	 6.666667e-01	 6.074074e+00	 9.619103e+00
0	 6.666667e-01	 6.148148e+00	 9.634018e+00
0	 6.666667e-01	 6.222222e+00	 9.648412e+00
0	 6.666667e-01	 6.296296e+00	 9.662280e+00
0	 7.407407e-01	 5.925926e+00	 9.597301e+00
0	 7.407407e-01	 6.000000e+00	 9.612723e+00
0	 7.407407e-01	 6.074074e+00	 9.627664e+00
0	 7.407407e-01	 6.148148e+00	 9.642120e+00
0	 7.407407e-01	 6.222222e+00	 9.656087e+00
0	 7.407407e-01	 6.296296e+00	 9.669558e+00
0	 3.703704e-01	 6.296296e+00	 9.640037e+00
0	 3.703704e-01	 6.370370e+00	 9.654670e+00
0	 3.703704e-01	 6.444444e+00	 9.668905e+00
0	 3.703704e-01	 6.518519e+00	 9.682736e+00
0	 3.703704e-01	 6.592593e+00	 9.696157e+00
0	 3.703704e-01	 6.666667e+00	 9.709163e+00
0	 4.444444e-01	 6.296296e+00	 9.644491e+00
0	 4.444444e-01	 6.370370e+00	 9.658868e+00
0	 4.444444e-01	 6.444444e+00	 9.672863e+00
0	 4.444444e-01	 6.518519e+00	 9.686471e+00
0	 4.444444e-01	 6.592593e+00	 9.699689e+00
0	 4.444444e-01	 6.666667e+00	 9.712513e+00
0	 5.185185e-01	 6.296296e+00	 9.649708e+00
0	 5.185185e-01	 6.370370e+00	 9.663799e+00
0	 5.185185e-01	 6.444444e+00	 9.677523e+00
0	 5.185185e-01	 6.518519e+00	 9.690876e+00
0	 5.185185e-01	 6.592593e+00	 9.703857e+00
0	 5.185185e-01	 6.666667e+00	 9.716463e+00
0	 5.925926e-01	 6.296296e+00	 9.655650e+00
0	 5.925926e-01	 6.370370e+00	 9.669426e+00
0	 5.925926e-01	 6.444444e+00	 9.682849e+00
0	 5.925926e-01	 6.518519e+00	 9.695917e+00
0	 5.925926e-01	 6.592593e+00	 9.708628e+00
0	 5.925926e-01	 6.666667e+00	 9.720983e+00
0	 6.666667e-01	 6.296296e+00	 9.662280e+00
0	 6.666667e-01	 6.370370e+00	 9.675712e+00
0	 6.666667e-01	 6.444444e+00	 9.688805e+00
0	 6.666667e-01	 6.518519e+00	 9.701559e+00
0	 6.666667e-01	 6.592593e+00	 9.713973e+00
0	 6.666667e-01	 6.666667e+00	 9.726046e+00
0	 7.407407e-01	 6.296296e+00	 9.669558e+00
0	 7.407407e-01	 6.370370e+00	 9.682620e+00
0	 7.407407e-01	 6.444444e+00	 9.695357e+00
0	 7.407407e-01	 6.518519e+00	 9.707770e+00
0	 7.407407e-01	 6.592593e+00	 9.719858e+00
0	 7.407407e-01	 6.666667e+00	 9.731621e+00
0	 3.703704e-01	 6.666667e+00	 9.709163e+00
0	 3.703704e-01	 6.740741e+00	 9.721781e+00
0	 3.703704e-01	 6.814815e+00	 9.734042e+00
0	 3.703704e-01	 6.888889e+00	 9.745945e+00
0	 3.703704e-01	 6.962963e+00	 9.757492e+00
0	 3.703704e-01	 7.037037e+00	 9.768682e+00
0	 4.444444e-01	 6.666667e+00	 9.712513e+00
0	 4.444444e-01	 6.740741e+00	 9.724963e+00
0	 4.444444e-01	 6.814815e+00	 9.737060e+00
0	 4.444444e-01	 6.888889e+00	 9.748805e+00
0	 4.444444e-01	 6.962963e+00	 9.760197e+00
0	 4.444444e-01	 7.037037e+00	 9.771237e+00
0	 5.185185e-01	 6.666667e+00	 9.716463e+00
0	 5.185185e-01	 6.740741e+00	 9.728708e+00
0	 5.185185e-01	 6.814815e+00	 9.740609e+00
0	 5.185185e-01	 6.888889e+00	 9.752165e+00
0	 5.185185e-01	 6.962963e+00	 9.763376e+00
0	 5.185185e-01	 7.037037e+00	 9.774241e+00
0	 5.925926e-01	 6.666667e+00	 9.720983e+00
0	 5.925926e-01	 6.740741e+00	 9.732992e+00
0	 5.925926e-01	 6.814815e+00	 9.744665e+00
0	 5.925926e-01	 6.888889e+00	 9.756003e+00
0	 5.925926e-01	 6.962963e+00	 9.767006e+00
0	 5.925926e-01	 7.037037e+00	 9.777673e+00
0	 6.666667e-01	 6.666667e+00	 9.726046e+00
0	 6.666667e-01	 6.740741e+00	 9.737787e+00
0	 6.666667e-01	 6.814815e+00	 9.749204e+00
0	 6.666667e-01	 6.888889e+00	 9.760297e+00
0	 6.666667e-01	 6.962963e+00	 9.771068e+00
0	 6.666667e-01	 7.037037e+00	 9.781514e+00
0	 7.407407e-01	 6.666667e+00	 9.731621e+00
0	 7.407407e-01	 6.740741e+00	 9.743066e+00
0	 7.407407e-01	 6.814815e+00	 9.754200e+00
0	 7.407407e-01	 6.888889e+00	 9.765025e+00
0	 7.407407e-01	 6.962963e+00	 9.775539e+00
0	 7.407407e-01	 7.037037e+00	 9.785744e+00
0	 3.703704e-01	 7.037037e+00	 9.768682e+00
0	 3.703704e-01	 7.111111e+00	 9.779547e+00
0	 3.703704e-01	 7.185185e+00	 9.790120e+00
0	 3.703704e-01	 7.259259e+00	 9.800399e+00
0	 3.703704e-01	 7.333333e+00	 9.810384e+00
0	 3.703704e-01	 7.407407e+00	 9.820075e+00
0	 4.444444e-01	 7.037037e+00	 9.771237e+00
0	 4.444444e-01	 7.111111e+00	 9.781958e+00
0	 4.444444e-01	 7.185185e+00	 9.792393e+00
0	 4.444444e-01	 7.259259e+00	 9.802541e+00
0	 4.444444e-01	 7.333333e+00	 9.812403e+00
0	 4.444444e-01	 7.407407e+00	 9.821978e+00
0	 5.185185e-01	 7.037037e+00	 9.774241e+00
0	 5.185185e-01	 7.111111e+00	 9.784794e+00
0	 5.185185e-01	 7.185185e+00	 9.795068e+00
0	 5.185185e-01	 7.259259e+00	 9.805064e+00
0	 5.185185e-01	 7.333333e+00	 9.814781e+00
0	 5.185185e-01	 7.407407e+00	 9.824219e+00
0	 5.925926e-01	 7.037037e+00	 9.777673e+00
0	 5.925926e-01	 7.111111e+00	 9.788037e+00
0	 5.925926e-01	 7.185185e+00	 9.798129e+00
0	 5.925926e-01	 7.259259e+00	 9.807951e+00
0	 5.925926e-01	 7.333333e+00	 9.817503e+00
0	 5.925926e-01	 7.407407e+00	 9.826785e+00
0	 6.666667e-01	 7.037037e+00	 9.781514e+00
0	 6.666667e-01	 7.111111e+00	 9.791667e+00
0	 6.666667e-01	 7.185185e+00	 9.801558e+00
0	 6.666667e-01	 7.259259e+00	 9.811186e+00
0	 6.666667e-01	 7.333333e+00	 9.820554e+00
0	 6.666667e-01	 7.407407e+00	 9.829661e+00
0	 7.407407e-01	 7.037037e+00	 9.785744e+00
0	 7.407407e-01	 7.111111e+00	 9.795667e+00
0	 7.407407e-01	 7.185185e+00	 9.805336e+00
0	 7.407407e-01	 7.259259e+00	 9.814752e+00
0	 7.407407e-01	 7.333333e+00	 9.823917e+00
0	 7.407407e-01	 7.407407e+00	 9.832831e+00
0	 3.703704e-01	 7.407407e+00	 9.820075e+00
0	 3.703704e-01	 7.481481e+00	 9.829485e+00
0	 3.703704e-01	 7.555556e+00	 9.838632e+00
0	 3.703704e-01	 7.629630e+00	 9.847517e+00
0	 3.703704e-01	 7.703704e+00	 9.856144e+00
0	 3.703704e-01	 7.777778e+00	 9.864515e+00
0	 4.444444e-01	 7.407407e+00	 9.821978e+00
0	 4.444444e-01	 7.481481e+00	 9.831278e+00
0	 4.444444e-01	 7.555556e+00	 9.840319e+00
0	 4.444444e-01	 7.629630e+00	 9.849103e+00
0	 4.444444e-01	 7.703704e+00	 9.857632e+00
0	 4.444444e-01	 7.777778e+00	 9.865909e+00
0	 5.185185e-01	 7.407407e+00	 9.824219e+00
0	 5.185185e-01	 7.481481e+00	 9.833390e+00
0	 5.185185e-01	 7.555556e+00	 9.842306e+00
0	 5.185185e-01	 7.629630e+00	 9.850969e+00
0	 5.185185e-01	 7.703704e+00	 9.859383e+00
0	 5.185185e-01	 7.777778e+00	 9.867549e+00
0	 5.925926e-01	 7.407407e+00	 9.826785e+00
0	 5.925926e-01	 7.481481e+00	 9.835807e+00
0	 5.925926e-01	 7.555556e+00	 9.844579e+00
0	 5.925926e-01	 7.629630e+00	 9.853105e+00
0	 5.925926e-01	 7.703704e+00	 9.861386e+00
0	 5.925926e-01	 7.777778e+00	 9.869426e+00
0	 6.666667e-01	 7.407407e+00	 9.829661e+00
0	 6.666667e-01	 7.481481e+00	 9.838515e+00
0	 6.666667e-01	 7.555556e+00	 9.847127e+00
0	 6.666667e-01	 7.629630e+00	 9.855498e+00
0	 6.666667e-01	 7.703704e+00	 9.863632e+00
0	 6.666667e-01	 7.777778e+00	 9.871530e+00
0	 7.407407e-01	 7.407407e+00	 9.832831e+00
0	 7.407407e-01	 7.481481e+00	 9.841502e+00
0	 7.407407e-01	 7.555556e+00	 9.849936e+00
0	 7.407407e-01	 7.629630e+00	 9.858137e+00
0	 7.407407e-01	 7.703704e+00	 9.866107e+00
0	 7.407407e-01	 7.777778e+00	 9.873850e+00
0	 3.703704e-01	 7.777778e+00	 9.864515e+00
0	 3.703704e-01	 7.851852e+00	 9.872637e+00
0	 3.703704e-01	 7.925926e+00	 9.880515e+00
0	 3.703704e-01	 8.000000e+00	 9.888154e+00
0	 3.703704e-01	 8.074074e+00	 9.895558e+00
0	 3.703704e-01	 8.148148e+00	 9.902730e+00
0	 4.444444e-01	 7.777778e+00	 9.865909e+00
0	 4.444444e-01	 7.851852e+00	 9.873939e+00
0	 4.444444e-01	 7.925926e+00	 9.881731e+00
0	 4.444444e-01	 8.000000e+00	 9.889287e+00
0	 4.444444e-01	 8.074074e+00	 9.896612e+00
0	 4.444444e-01	 8.148148e+00	 9.903708e+00
0	 5.185185e-01	 7.777778e+00	 9.867549e+00
0	 5.185185e-01	 7.851852e+00	 9.875474e+00
0	 5.185185e-01	 7.925926e+00	 9.883163e+00
0	 5.185185e-01	 8.000000e+00	 9.890622e+00
0	 5.185185e-01	 8.074074e+00	 9.897853e+00
0	 5.185185e-01	 8.148148e+00	 9.904860e+00
0	 5.925926e-01	 7.777778e+00	 9.869426e+00
0	 5.925926e-01	 7.851852e+00	 9.877230e+00
0	 5.925926e-01	 7.925926e+00	 9.884803e+00
0	 5.925926e-01	 8.000000e+00	 9.892150e+00
0	 5.925926e-01	 8.074074e+00	 9.899274e+00
0	 5.925926e-01	 8.148148e+00	 9.906180e+00
0	 6.666667e-01	 7.777778e+00	 9.871530e+00
0	 6.666667e-01	 7.851852e+00	 9.879198e+00
0	 6.666667e-01	 7.925926e+00	 9.886641e+00
0	 6.666667e-01	 8.000000e+00	 9.893863e+00
0	 6.666667e-01	 8.074074e+00	 9.900868e+00
0	 6.666667e-01	 8.148148e+00	 9.907659e+00
0	 7.407407e-01	 7.777778e+00	 9.873850e+00
0	 7.407407e-01	 7.851852e+00	 9.881369e+00
0	 7.407407e-01	 7.925926e+00	 9.888669e+00
0	 7.407407e-01	 8.000000e+00	 9.895753e+00
0	 7.407407e-01	 8.074074e+00	 9.902625e+00
0	 7.407407e-01	 8.148148e+00	 9.909291e+00
0	 3.703704e-01	 8.148148e+00	 9.902730e+00
0	 3.703704e-01	 8.222222e+00	 9.909666e+00
0	 3.703704e-01	 8.296296e+00	 9.916364e+00
0	 3.703704e-01	 8.370370e+00	 9.922830e+00
0	 3.703704e-01	 8.444444e+00	 9.929070e+00
0	 3.703704e-01	 8.518519e+00	 9.935089e+00
0	 4.444444e-01	 8.148148e+00	 9.903708e+00
0	 4.444444e-01	 8.222222e+00	 9.910572e+00
0	 4.444444e-01	 8.296296e+00	 9.917200e+00
0	 4.444444e-01	 8.370370e+00	 9.923599e+00
0	 4.444444e-01	 8.444444e+00	 9.929775e+00
0	 4.444444e-01	 8.518519e+00	 9.935734e+00
0	 5.185185e-01	 8.148148e+00	 9.904860e+00
0	 5.185185e-01	 8.222222e+00	 9.911639e+00
0	 5.185185e-01	 8.296296e+00	 9.918186e+00
0	 5.185185e-01	 8.370370e+00	 9.924506e+00
0	 5.185185e-01	 8.444444e+00	 9.930607e+00
0	 5.185185e-01	 8.518519e+00	 9.936494e+00
0	 5.925926e-01	 8.148148e+00	 9.906180e+00
0	 5.925926e-01	 8.222222e+00	 9.912861e+00
0	 5.925926e-01	 8.296296e+00	 9.919314e+00
0	 5.925926e-01	 8.370370e+00	 9.925545e+00
0	 5.925926e-01	 8.444444e+00	 9.931559e+00
0	 5.925926e-01	 8.518519e+00	 9.937364e+00
0	 6.666667e-01	 8.148148e+00	 9.907659e+00
0	 6.666667e-01	 8.222222e+00	 9.914231e+00
0	 6.666667e-01	 8.296296e+00	 9.920579e+00
0	 6.666667e-01	 8.370370e+00	 9.926709e+00
0	 6.666667e-01	 8.444444e+00	 9.932627e+00
0	 6.666667e-01	 8.518519e+00	 9.938339e+00
0	 7.407407e-01	 8.148148e+00	 9.909291e+00
0	 7.407407e-01	 8.222222e+00	 9.915742e+00
0	 7.407407e-01	 8.296296e+00	 9.921974e+00
0	 7.407407e-01	 8.370370e+00	 9.927993e+00
0	 7.407407e-01	 8.444444e+00	 9.933804e+00
0	 7.407407e-01	 8.518519e+00	 9.939415e+00
0	 3.703704e-01	 8.518519e+00	 9.935089e+00
0	 3.703704e-01	 8.592593e+00	 9.940874e+00
0	 3.703704e-01	 8.666667e+00	 9.946409e+00
0	 3.703704e-01	 8.740741e+00	 9.951703e+00
0	 3.703704e-01	 8.814815e+00	 9.956766e+00
0	 3.703704e-01	 8.888889e+00	 9.961606e+00
0	 4.444444e-01	 8.518519e+00	 9.935734e+00
0	 4.444444e-01	 8.592593e+00	 9.941460e+00
0	 4.444444e-01	 8.666667e+00	 9.946939e+00
0	 4.444444e-01	 8.740741e+00	 9.952181e+00
0	 4.444444e-01	 8.814815e+00	 9.957193e+00
0	 4.444444e-01	 8.888889e+00	 9.961985e+00
0	 5.185185e-01	 8.518519e+00	 9.936494e+00
0	 5.185185e-01	 8.592593e+00	 9.942151e+00
0	 5.185185e-01	 8.666667e+00	 9.947565e+00
0	 5.185185e-01	 8.740741e+00	 9.952744e+00
0	 5.185185e-01	 8.814815e+00	 9.957697e+00
0	 5.185185e-01	 8.888889e+00	 9.962432e+00
0	 5.925926e-01	 8.518519e+00	 9.937364e+00
0	 5.925926e-01	 8.592593e+00	 9.942943e+00
0	 5.925926e-01	 8.666667e+00	 9.948282e+00
0	 5.925926e-01	 8.740741e+00	 9.953390e+00
0	 5.925926e-01	 8.814815e+00	 9.958275e+00
0	 5.925926e-01	 8.888889e+00	 9.962945e+00
0	 6.666667e-01	 8.518519e+00	 9.938339e+00
0	 6.666667e-01	 8.592593e+00	 9.943830e+00
0	 6.666667e-01	 8.666667e+00	 9.949085e+00
0	 6.666667e-01	 8.740741e+00	 9.954113e+00
0	 6.666667e-01	 8.814815e+00	 9.958922e+00
0	 6.666667e-01	 8.888889e+00	 9.963520e+00
0	 7.407407e-01	 8.518519e+00	 9.939415e+00
0	 7.407407e-01	 8.592593e+00	 9.944808e+00
0	 7.407407e-01	 8.666667e+00	 9.949970e+00
0	 7.407407e-01	 8.740741e+00	 9.954909e+00
0	 7.407407e-01	 8.814815e+00	 9.959634e+00
0	 7.407407e-01	 8.888889e+00	 9.964152e+00
0	 3.703704e-01	 8.888889e+00	 9.961606e+00
0	 3.703704e-01	 8.962963e+00	 9.966194e+00
0	 3.703704e-01	 9.037037e+00	 9.970507e+00
0	 3.703704e-01	 9.111111e+00	 9.974555e+00
0	 3.703704e-01	 9.185185e+00	 9.978352e+00
0	 3.703704e-01	 9.259259e+00	 9.981908e+00
0	 4.444444e-01	 8.888889e+00	 9.961985e+00
0	 4.444444e-01	 8.962963e+00	 9.966528e+00
0	 4.444444e-01	 9.037037e+00	 9.970798e+00
0	 4.444444e-01	 9.111111e+00	 9.974807e+00
0	 4.444444e-01	 9.185185e+00	 9.978566e+00
0	 4.444444e-01	 9.259259e+00	 9.982087e+00
0	 5.185185e-01	 8.888889e+00	 9.962432e+00
0	 5.185185e-01	 8.962963e+00	 9.966923e+00
0	 5.185185e-01	 9.037037e+00	 9.971143e+00
0	 5.185185e-01	 9.111111e+00	 9.975104e+00
0	 5.185185e-01	 9.185185e+00	 9.978819e+00
0	 5.185185e-01	 9.259259e+00	 9.982299e+00
0	 5.925926e-01	 8.888889e+00	 9.962945e+00
0	 5.925926e-01	 8.962963e+00	 9.967375e+00
0	 5.925926e-01	 9.037037e+00	 9.971537e+00
0	 5.925926e-01	 9.111111e+00	 9.975445e+00
0	 5.925926e-01	 9.185185e+00	 9.979110e+00
0	 5.925926e-01	 9.259259e+00	 9.982543e+00
0	 6.666667e-01	 8.888889e+00	 9.963520e+00
0	 6.666667e-01	 8.962963e+00	 9.967881e+00
0	 6.666667e-01	 9.037037e+00	 9.971979e+00
0	 6.666667e-01	 9.111111e+00	 9.975827e+00
0	 6.666667e-01	 9.185185e+00	 9.979435e+00
0	 6.666667e-01	 9.259259e+00	 9.982815e+00
0	 7.407407e-01	 8.888889e+00	 9.964152e+00
0	 7.407407e-01	 8.962963e+00	 9.968437e+00
0	 7.407407e-01	 9.037037e+00	 9.972465e+00
0	 7.407407e-01	 9.111111e+00	 9.976245e+00
0	 7.407407e-01	 9.185185e+00	 9.979791e+00
0	 7.407407e-01	 9.259259e+00	 9.983112e+00
0	 3.703704e-01	 9.259259e+00	 9.981908e+00
0	 3.703704e-01	 9.333333e+00	 9.985179e+00
0	 3.703704e-01	 9.407407e+00	 9.988124e+00
0	 3.703704e-01	 9.481481e+00	 9.990758e+00
0	 3.703704e-01	 9.555556e+00	 9.993099e+00
0	 3.703704e-01	 9.629630e+00	 9.995161e+00
0	 4.444444e-01	 9.259259e+00	 9.982087e+00
0	 4.444444e-01	 9.333333e+00	 9.985326e+00
0	 4.444444e-01	 9.407407e+00	 9.988242e+00
0	 4.444444e-01	 9.481481e+00	 9.990850e+00
0	 4.444444e-01	 9.555556e+00	 9.993167e+00
0	 4.444444e-01	 9.629630e+00	 9.995209e+00
0	 5.185185e-01	 9.259259e+00	 9.982299e+00
0	 5.185185e-01	 9.333333e+00	 9.985501e+00
0	 5.185185e-01	 9.407407e+00	 9.988382e+00
0	 5.185185e-01	 9.481481e+00	 9.990960e+00
0	 5.185185e-01	 9.555556e+00	 9.993250e+00
0	 5.185185e-01	 9.629630e+00	 9.995267e+00
0	 5.925926e-01	 9.259259e+00	 9.982543e+00
0	 5.925926e-01	 9.333333e+00	 9.985701e+00
0	 5.925926e-01	 9.407407e+00	 9.988544e+00
0	 5.925926e-01	 9.481481e+00	 9.991086e+00
0	 5.925926e-01	 9.555556e+00	 9.993345e+00
0	 5.925926e-01	 9.629630e+00	 9.995335e+00
0	 6.666667e-01	 9.259259e+00	 9.982815e+00
0	 6.666667e-01	 9.333333e+00	 9.985924e+00
0	 6.666667e-01	 9.407407e+00	 9.988723e+00
0	 6.666667e-01	 9.481481e+00	 9.991226e+00
0	 6.666667e-01	 9.555556e+00	 9.993450e+00
0	 6.666667e-01	 9.629630e+00	 9.995409e+00
0	 7.407407e-01	 9.259259e+00	 9.983112e+00
0	 7.407407e-01	 9.333333e+00	 9.986168e+00
0	 7.407407e-01	 9.407407e+00	 9.988918e+00
0	 7.407407e-01	 9.481481e+00	 9.991377e+00
0	 7.407407e-01	 9.555556e+00	 9.993562e+00
0	 7.407407e-01	 9.629630e+00	 9.995486e+00
0	 3.703704e-01	 9.629630e+00	 9.995161e+00
0	 3.703704e-01	 9.703704e+00	 9.996885e+00
0	 3.703704e-01	 9.777778e+00	 9.998215e+00
0	 3.703704e-01	 9.851852e+00	 9.999171e+00
0	 3.703704e-01	 9.925926e+00	 9.999776e+00
0	 3.703704e-01	 1.000000e+01	 1.000005e+01
0	 4.444444e-01	 9.629630e+00	 9.995209e+00
0	 4.444444e-01	 9.703704e+00	 9.996916e+00
0	 4.444444e-01	 9.777778e+00	 9.998232e+00
0	 4.444444e-01	 9.851852e+00	 9.999178e+00
0	 4.444444e-01	 9.925926e+00	 9.999777e+00
0	 4.444444e-01	 1.000000e+01	 1.000005e+01
0	 5.185185e-01	 9.629630e+00	 9.995267e+00
0	 5.185185e-01	 9.703704e+00	 9.996954e+00
0	 5.185185e-01	 9.777778e+00	 9.998255e+00
0	 5.185185e-01	 9.851852e+00	 9.999190e+00
0	 5.185185e-01	 9.925926e+00	 9.999782e+00
0	 5.185185e-01	 1.000000e+01	 1.000005e+01
0	 5.925926e-01	 9.629630e+00	 9.995335e+00
0	 5.925926e-01	 9.703704e+00	 9.996999e+00
0	 5.925926e-01	 9.777778e+00	 9.998282e+00
0	 5.925926e-01	 9.851852e+00	 9.999204e+00
0	 5.925926e-01	 9.925926e+00	 9.999788e+00
0	 5.925926e-01	 1.000000e+01	 1.000005e+01
0	 6.666667e-01	 9.629630e+00	 9.995409e+00
0	 6.666667e-01	 9.703704e+00	 9.997047e+00
0	 6.666667e-01	 9.777778e+00	 9.998310e+00
0	 6.666667e-01	 9.851852e+00	 9.999218e+00
0	 6.666667e-01	 9.925926e+00	 9.999792e+00
0	 6.666667e-01	 1.000000e+01	 1.000005e+01
0	 7.407407e-01	 9.629630e+00	 9.995486e+00
0	 7.407407e-01	 9.703704e+00	 9.997095e+00
0	 7.407407e-01	 9.777778e+00	 9.998336e+00
0	 7.407407e-01	 9.851852e+00	 9.999228e+00
0	 7.407407e-01	 9.925926e+00	 9.999791e+00
0	 7.407407e-01	 1.000000e+01	 1.000005e+01
0	 7.407407e-01	 0.000000e+00	 7.383800e-02
0	 7.407407e-01	 7.407407e-02	 3.131502e-01
0	 7.407407e-01	 1.481481e-01	 4.750645e-01
0	 7.407407e-01	 2.222222e-01	 5.172333e-01
0	 7.407407e-01	 2.962963e-01	 3.973091e-01
0	 7.407407e-01	 3.703704e-01	 7.294463e-02
0	 8.148148e-01	 0.000000e+00	 2.904028e-02
0	 8.148148e-01	 7.407407e-02	 3.447780e-01
0	 8.148148e-01	 1.481481e-01	 5.359846e-01
0	 8.148148e-01	 2.222222e-01	 5.557131e-01
0	 8.148148e-01	 2.962963e-01	 3.570164e-01
0	 8.148148e-01	 3.703704e-01	-1.070528e-01
0	 8.888889e-01	 0.000000e+00	-2.605218e-01
0	 8.888889e-01	 7.407407e-02	 8.638984e-02
0	 8.888889e-01	 1.481481e-01	 2.196598e-01
0	 8.888889e-01	 2.222222e-01	 1.218891e-01
0	 8.888889e-01	 2.962963e-01	-2.243210e-01
0	 8.888889e-01	 3.703704e-01	-8.363695e-01
0	 9.629630e-01	 0.000000e+00	-7.161156e-01
0	 9.629630e-01	 7.407407e-02	-3.454633e-01
0	 9.629630e-01	 1.481481e-01	-3.318687e-01
0	 9.629630e-01	 2.222222e-01	-6.290346e-01
0	 9.629630e-01	 2.962963e-01	-1.190664e+00
0	 9.629630e-01	 3.703704e-01	-1.970459e+00
0	 1.037037e+00	 0.000000e+00	-1.259009e+00
0	 1.037037e+00	 7.407407e-02	-8.342307e-01
0	 1.037037e+00	 1.481481e-01	-9.765594e-01
0	 1.037037e+00	 2.222222e-01	-1.541854e+00
0	 1.037037e+00	 2.962963e-01	-2.385972e+00
0	 1.037037e+00	 3.703704e-01	-3.364774e+00
0	 1.111111e+00	 0.000000e+00	-1.810469e+00
0	 1.111111e+00	 7.407407e-02	-1.263361e+00
0	 1.111111e+00	 1.481481e-01	-1.572371e+00
0	 1.111111e+00	 2.222222e-01	-2.461364e+00
0	 1.111111e+00	 2.962963e-01	-3.654207e+00
0	 1.111111e+00	 3.703704e-01	-4.874768e+00
0	 7.407407e-01	 3.703704e-01	 7.294463e-02
0	 7.407407e-01	 4.444444e-01	-1.430445e-01
0	 7.407407e-01	 5.185185e-01	 9.397293e-02
0	 7.407407e-01	 5.925926e-01	 7.893725e-01
0	 7.407407e-01	 6.666667e-01	 1.948530e+00
0	 7.407407e-01	 7.407407e-01	 3.576820e+00
0	 8.148148e-01	 3.703704e-01	-1.070528e-01
0	 8.148148e-01	 4.444444e-01	-3.319221e-01
0	 8.148148e-01	 5.185185e-01	 2.269126e-01
0	 8.148148e-01	 5.925926e-01	 1.582403e+00
0	 8.148148e-01	 6.666667e-01	 3.747500e+00
0	 8.148148e-01	 7.407407e-01	 6.735154e+00
0	 8.888889e-01	 3.703704e-01	-8.363695e-01
0	 8.888889e-01	 4.444444e-01	-1.005395e+00
0	 8.888889e-01	 5.185185e-01	-5.658683e-03
0	 8.888889e-01	 5.925926e-01	 2.170761e+00
0	 8.888889e-01	 6.666667e-01	 5.531784e+00
0	 8.888889e-01	 7.407407e-01	 1.008533e+01
0	 9.629630e-01	 3.703704e-01	-1.970459e+00
0	 9.629630e-01	 4.444444e-01	-2.061688e+00
0	 9.629630e-01	 5.185185e-01	-5.949637e-01
0	 9.629630e-01	 5.925926e-01	 2.419997e+00
0	 9.629630e-01	 6.666667e-01	 6.973477e+00
0	 9.629630e-01	 7.407407e-01	 1.305576e+01
0	 1.037037e+00	 3.703704e-01	-3.364774e+00
0	 1.037037e+00	 4.444444e-01	-3.399024e+00
0	 1.037037e+00	 5.185185e-01	-1.532225e+00
0	 1.037037e+00	 5.925926e-01	 2.195662e+00
0	 1.037037e+00	 6.666667e-01	 7.744674e+00
0	 1.037037e+00	 7.407407e-01	 1.507485e+01
0	 1.111111e+00	 3.703704e-01	-4.874768e+00
0	 1.111111e+00	 4.444444e-01	-4.915627e+00
0	 1.111111e+00	 5.185185e-01	-2.808665e+00
0	 1.111111e+00	 5.925926e-01	 1.363305e+00
0	 1.111111e+00	 6.666667e-01	 7.517470e+00
0	 1.111111e+00	 7.407407e-01	 1.557102e+01
0	 7.407407e-01	 7.407407e-01	 3.576820e+00
0	 7.407407e-01	 8.148148e-01	 6.590845e+00
0	 7.407407e-01	 8.888889e-01	 1.193398e+01
0	 7.407407e-01	 9.629630e-01	 1.965177e+01
0	 7.407407e-01	 1.037037e+00	 2.978976e+01
0	 7.407407e-01	 1.111111e+00	 4.239349e+01
0	 8.148148e-01	 7.407407e-01	 6.735154e+00
0	 8.148148e-01	 8.148148e-01	 1.076525e+01
0	 8.148148e-01	 8.888889e-01	 1.608460e+01
0	 8.148148e-01	 9.629630e-01	 2.274651e+01
0	 8.148148e-01	 1.037037e+00	 3.080430e+01
0	 8.148148e-01	 1.111111e+00	 4.031128e+01
0	 8.888889e-01	 7.407407e-01	 1.008533e+01
0	 8.888889e-01	 8.148148e-01	 1.530028e+01
0	 8.888889e-01	 8.888889e-01	 2.067461e+01
0	 8.888889e-01	 9.629630e-01	 2.625993e+01
0	 8.888889e-01	 1.037037e+00	 3.210781e+01
0	 8.888889e-01	 1.111111e+00	 3.826984e+01
0	 9.629630e-01	 7.407407e-01	 1.305576e+01
0	 9.629630e-01	 8.148148e-01	 1.942666e+01
0	 9.629630e-01	 8.888889e-01	 2.487939e+01
0	 9.629630e-01	 9.629630e-01	 2.945429e+01
0	 9.629630e-01	 1.037037e+00	 3.319173e+01
0	 9.629630e-01	 1.111111e+00	 3.613205e+01
0	 1.037037e+00	 7.407407e-01	 1.507485e+01
0	 1.037037e+00	 8.148148e-01	 2.237516e+01
0	 1.037037e+00	 8.888889e-01	 2.787430e+01
0	 1.037037e+00	 9.629630e-01	 3.159188e+01
0	 1.037037e+00	 1.037037e+00	 3.354751e+01
0	 1.037037e+00	 1.111111e+00	 3.376080e+01
0	 1.111111e+00	 7.407407e-01	 1.557102e+01
0	 1.111111e+00	 8.148148e-01	 2.337653e+01
0	 1.111111e+00	 8.888889e-01	 2.883472e+01
0	 1.111111e+00	 9.629630e-01	 3.193496e+01
0	 1.111111e+00	 1.037037e+00	 3.266659e+01
0	 1.111111e+00	 1.111111e+00	 3.101899e+01
0	 7.407407e-01	 1.111111e+00	 4.239349e+01
0	 7.407407e-01	 1.185185e+00	 5.348093e+01
0	 7.407407e-01	 1.259259e+00	 5.901495e+01
0	 7.407407e-01	 1.333333e+00	 5.895846e+01
0	 7.407407e-01	 1.407407e+00	 5.327434e+01
0	 7.407407e-01	 1.481481e+00	 4.192547e+01
0	 8.148148e-01	 1.111111e+00	 4.031128e+01
0	 8.148148e-01	 1.185185e+00	 4.840456e+01
0	 8.148148e-01	 1.259259e+00	 5.215104e+01
0	 8.148148e-01	 1.333333e+00	 5.149880e+01
0	 8.148148e-01	 1.407407e+00	 4.639592e+01
0	 8.148148e-01	 1.481481e+00	 3.679046e+01
0	 8.888889e-01	 1.111111e+00	 3.826984e+01
0	 8.888889e-01	 1.185185e+00	 4.309304e+01
0	 8.888889e-01	 1.259259e+00	 4.485242e+01
0	 8.888889e-01	 1.333333e+00	 4.349151e+01
0	 8.888889e-01	 1.407407e+00	 3.895389e+01
0	 8.888889e-01	 1.481481e+00	 3.118310e+01
0	 9.629630e-01	 1.111111e+00	 3.613205e+01
0	 9.629630e-01	 1.185185e+00	 3.778895e+01
0	 9.629630e-01	 1.259259e+00	 3.761549e+01
0	 9.629630e-01	 1.333333e+00	 3.556100e+01
0	 9.629630e-01	 1.407407e+00	 3.157482e+01
0	 9.629630e-01	 1.481481e+00	 2.560631e+01
0	 1.037037e+00	 1.111111e+00	 3.376080e+01
0	 1.037037e+00	 1.185185e+00	 3.273485e+01
0	 1.037037e+00	 1.259259e+00	 3.093667e+01
0	 1.037037e+00	 1.333333e+00	 2.833168e+01
0	 1.037037e+00	 1.407407e+00	 2.488533e+01
0	 1.037037e+00	 1.481481e+00	 2.056304e+01
0	 1.111111e+00	 1.111111e+00	 3.101899e+01
0	 1.111111e+00	 1.185185e+00	 2.817331e+01
0	 1.111111e+00	 1.259259e+00	 2.531236e+01
0	 1.111111e+00	 1.333333e+00	 2.242798e+01
0	 1.111111e+00	 1.407407e+00	 1.951199e+01
0	 1.111111e+00	 1.481481e+00	 1.655622e+01
0	 7.407407e-01	 1.481481e+00	 4.192547e+01
0	 7.407407e-01	 1.555556e+00	 2.917571e+01
0	 7.407407e-01	 1.629630e+00	 1.931424e+01
0	 7.407407e-01	 1.703704e+00	 1.234199e+01
0	 7.407407e-01	 1.777778e+00	 8.259893e+00
0	 7.407407e-01	 1.851852e+00	 7.068879e+00
0	 8.148148e-01	 1.481481e+00	 3.679046e+01
0	 8.148148e-01	 1.555556e+00	 2.611936e+01
0	 8.148148e-01	 1.629630e+00	 1.785781e+01
0	 8.148148e-01	 1.703704e+00	 1.201135e+01
0	 8.148148e-01	 1.777778e+00	 8.585475e+00
0	 8.148148e-01	 1.851852e+00	 7.585715e+00
0	 8.888889e-01	 1.481481e+00	 3.118310e+01
0	 8.888889e-01	 1.555556e+00	 2.272687e+01
0	 8.888889e-01	 1.629630e+00	 1.617621e+01
0	 8.888889e-01	 1.703704e+00	 1.153964e+01
0	 8.888889e-01	 1.777778e+00	 8.825661e+00
0	 8.888889e-01	 1.851852e+00	 8.042788e+00
0	 9.629630e-01	 1.481481e+00	 2.560631e+01
0	 9.629630e-01	 1.555556e+00	 1.933252e+01
0	 9.629630e-01	 1.629630e+00	 1.447090e+01
0	 9.629630e-01	 1.703704e+00	 1.103135e+01
0	 9.629630e-01	 1.777778e+00	 9.023783e+00
0	 9.629630e-01	 1.851852e+00	 8.458116e+00
0	 1.037037e+00	 1.481481e+00	 2.056304e+01
0	 1.037037e+00	 1.555556e+00	 1.627061e+01
0	 1.037037e+00	 1.629630e+00	 1.294334e+01
0	 1.037037e+00	 1.703704e+00	 1.059095e+01
0	 1.037037e+00	 1.777778e+00	 9.223171e+00
0	 1.037037e+00	 1.851852e+00	 8.849716e+00
0	 1.111111e+00	 1.481481e+00	 1.655622e+01
0	 1.111111e+00	 1.555556e+00	 1.387540e+01
0	 1.111111e+00	 1.629630e+00	 1.179499e+01
0	 1.111111e+00	 1.703704e+00	 1.032293e+01
0	 1.111111e+00	 1.777778e+00	 9.467155e+00
0	 1.111111e+00	 1.851852e+00	 9.235606e+00
0	 7.407407e-01	 1.851852e+00	 7.068879e+00
0	 7.407407e-01	 1.925926e+00	 7.292427e+00
0	 7.407407e-01	 2.000000e+00	 7.457523e+00
0	 7.407407e-01	 2.074074e+00	 7.570360e+00
0	 7.407407e-01	 2.148148e+00	 7.637132e+00
0	 7.407407e-01	 2.222222e+00	 7.664030e+00
0	 8.148148e-01	 1.851852e+00	 7.585715e+00
0	 8.148148e-01	 1.925926e+00	 7.770048e+00
0	 8.148148e-01	 2.000000e+00	 7.896593e+00
0	 8.148148e-01	 2.074074e+00	 7.971071e+00
0	 8.148148e-01	 2.148148e+00	 7.999204e+00
0	 8.148148e-01	 2.222222e+00	 7.986713e+00
0	 8.888889e-01	 1.851852e+00	 8.042788e+00
0	 8.888889e-01	 1.925926e+00	 8.198081e+00
0	 8.888889e-01	 2.000000e+00	 8.296345e+00
0	 8.888889e-01	 2.074074e+00	 8.342700e+00
0	 8.888889e-01	 2.148148e+00	 8.342268e+00
0	 8.888889e-01	 2.222222e+00	 8.300169e+00
0	 9.629630e-01	 1.851852e+00	 8.458116e+00
0	 9.629630e-01	 1.925926e+00	 8.587773e+00
0	 9.629630e-01	 2.000000e+00	 8.662502e+00
0	 9.629630e-01	 2.074074e+00	 8.686696e+00
0	 9.629630e-01	 2.148148e+00	 8.664744e+00
0	 9.629630e-01	 2.222222e+00	 8.601039e+00
0	 1.037037e+00	 1.851852e+00	 8.849716e+00
0	 1.037037e+00	 1.925926e+00	 8.950370e+00
0	 1.037037e+00	 2.000000e+00	 9.000788e+00
0	 1.037037e+00	 2.074074e+00	 9.004505e+00
0	 1.037037e+00	 2.148148e+00	 8.965053e+00
0	 1.037037e+00	 2.222222e+00	 8.885965e+00
0	 1.111111e+00	 1.851852e+00	 9.235606e+00
0	 1.111111e+00	 1.925926e+00	 9.297117e+00
0	 1.111111e+00	 2.000000e+00	 9.316926e+00
0	 1.111111e+00	 2.074074e+00	 9.297577e+00
0	 1.111111e+00	 2.148148e+00	 9.241616e+00
0	 1.111111e+00	 2.222222e+00	 9.151589e+00
0	 7.407407e-01	 2.222222e+00	 7.664030e+00
0	 7.407407e-01	 2.296296e+00	 7.686375e+00
0	 7.407407e-01	 2.370370e+00	 7.731687e+00
0	 7.407407e-01	 2.444444e+00	 7.794460e+00
0	 7.407407e-01	 2.518519e+00	 7.869188e+00
0	 7.407407e-01	 2.592593e+00	 7.950363e+00
0	 8.148148e-01	 2.222222e+00	 7.986713e+00
0	 8.148148e-01	 2.296296e+00	 7.970658e+00
0	 8.148148e-01	 2.370370e+00	 7.981531e+00
0	 8.148148e-01	 2.444444e+00	 8.015194e+00
0	 8.148148e-01	 2.518519e+00	 8.067516e+00
0	 8.148148e-01	 2.592593e+00	 8.134360e+00
0	 8.888889e-01	 2.222222e+00	 8.300169e+00
0	 8.888889e-01	 2.296296e+00	 8.254374e+00
0	 8.888889e-01	 2.370370e+00	 8.237433e+00
0	 8.888889e-01	 2.444444e+00	 8.246334e+00
0	 8.888889e-01	 2.518519e+00	 8.278066e+00
0	 8.888889e-01	 2.592593e+00	 8.329618e+00
0	 9.629630e-01	 2.222222e+00	 8.601039e+00
0	 9.629630e-01	 2.296296e+00	 8.533181e+00
0	 9.629630e-01	 2.370370e+00	 8.494421e+00
0	 9.629630e-01	 2.444444e+00	 8.482621e+00
0	 9.629630e-01	 2.518519e+00	 8.495644e+00
0	 9.629630e-01	 2.592593e+00	 8.531353e+00
0	 1.037037e+00	 2.222222e+00	 8.885965e+00
0	 1.037037e+00	 2.296296e+00	 8.802742e+00
0	 1.037037e+00	 2.370370e+00	 8.747522e+00
0	 1.037037e+00	 2.444444e+00	 8.718795e+00
0	 1.037037e+00	 2.518519e+00	 8.715051e+00
0	 1.037037e+00	 2.592593e+00	 8.734777e+00
0	 1.111111e+00	 2.222222e+00	 9.151589e+00
0	 1.111111e+00	 2.296296e+00	 9.058715e+00
0	 1.111111e+00	 2.370370e+00	 8.991763e+00
0	 1.111111e+00	 2.444444e+00	 8.949600e+00
0	 1.111111e+00	 2.518519e+00	 8.931091e+00
0	 1.111111e+00	 2.592593e+00	 8.935105e+00
0	 7.407407e-01	 2.592593e+00	 7.950363e+00
0	 7.407407e-01	 2.666667e+00	 8.025728e+00
0	 7.407407e-01	 2.740741e+00	 8.089953e+00
0	 7.407407e-01	 2.814815e+00	 8.147927e+00
0	 7.407407e-01	 2.888889e+00	 8.204540e+00
0	 7.407407e-01	 2.962963e+00	 8.264678e+00
0	 8.148148e-01	 2.592593e+00	 8.134360e+00
0	 8.148148e-01	 2.666667e+00	 8.200775e+00
0	 8.148148e-01	 2.740741e+00	 8.257097e+00
0	 8.148148e-01	 2.814815e+00	 8.307119e+00
0	 8.148148e-01	 2.888889e+00	 8.354633e+00
0	 8.148148e-01	 2.962963e+00	 8.403434e+00
0	 8.888889e-01	 2.592593e+00	 8.329618e+00
0	 8.888889e-01	 2.666667e+00	 8.384688e+00
0	 8.888889e-01	 2.740741e+00	 8.430907e+00
0	 8.888889e-01	 2.814815e+00	 8.471160e+00
0	 8.888889e-01	 2.888889e+00	 8.508334e+00
0	 8.888889e-01	 2.962963e+00	 8.545316e+00
0	 9.629630e-01	 2.592593e+00	 8.531353e+00
0	 9.629630e-01	 2.666667e+00	 8.573256e+00
0	 9.629630e-01	 2.740741e+00	 8.607730e+00
0	 9.629630e-01	 2.814815e+00	 8.636943e+00
0	 9.629630e-01	 2.888889e+00	 8.663061e+00
0	 9.629630e-01	 2.962963e+00	 8.688253e+00
0	 1.037037e+00	 2.592593e+00	 8.734777e+00
0	 1.037037e+00	 2.666667e+00	 8.762269e+00
0	 1.037037e+00	 2.740741e+00	 8.783918e+00
0	 1.037037e+00	 2.814815e+00	 8.801361e+00
0	 1.037037e+00	 2.888889e+00	 8.816234e+00
0	 1.037037e+00	 2.962963e+00	 8.830175e+00
0	 1.111111e+00	 2.592593e+00	 8.935105e+00
0	 1.111111e+00	 2.666667e+00	 8.947515e+00
0	 1.111111e+00	 2.740741e+00	 8.955818e+00
0	 1.111111e+00	 2.814815e+00	 8.961305e+00
0	 1.111111e+00	 2.888889e+00	 8.965272e+00
0	 1.111111e+00	 2.962963e+00	 8.969012e+00
0	 7.407407e-01	 2.962963e+00	 8.264678e+00
0	 7.407407e-01	 3.037037e+00	 8.329513e+00
0	 7.407407e-01	 3.111111e+00	 8.395037e+00
0	 7.407407e-01	 3.185185e+00	 8.458377e+00
0	 7.407407e-01	 3.259259e+00	 8.516659e+00
0	 7.407407e-01	 3.333333e+00	 8.567009e+00
0	 8.148148e-01	 2.962963e+00	 8.403434e+00
0	 8.148148e-01	 3.037037e+00	 8.455303e+00
0	 8.148148e-01	 3.111111e+00	 8.508143e+00
0	 8.148148e-01	 3.185185e+00	 8.559931e+00
0	 8.148148e-01	 3.259259e+00	 8.608643e+00
0	 8.148148e-01	 3.333333e+00	 8.652258e+00
0	 8.888889e-01	 2.962963e+00	 8.545316e+00
0	 8.888889e-01	 3.037037e+00	 8.584404e+00
0	 8.888889e-01	 3.111111e+00	 8.625077e+00
0	 8.888889e-01	 3.185185e+00	 8.665994e+00
0	 8.888889e-01	 3.259259e+00	 8.705812e+00
0	 8.888889e-01	 3.333333e+00	 8.743190e+00
0	 9.629630e-01	 2.962963e+00	 8.688253e+00
0	 9.629630e-01	 3.037037e+00	 8.715172e+00
0	 9.629630e-01	 3.111111e+00	 8.744477e+00
0	 9.629630e-01	 3.185185e+00	 8.775334e+00
0	 9.629630e-01	 3.259259e+00	 8.806913e+00
0	 9.629630e-01	 3.333333e+00	 8.838383e+00
0	 1.037037e+00	 2.962963e+00	 8.830175e+00
0	 1.037037e+00	 3.037037e+00	 8.845967e+00
0	 1.037037e+00	 3.111111e+00	 8.864978e+00
0	 1.037037e+00	 3.185185e+00	 8.886716e+00
0	 1.037037e+00	 3.259259e+00	 8.910693e+00
0	 1.037037e+00	 3.333333e+00	 8.936416e+00
0	 1.111111e+00	 2.962963e+00	 8.969012e+00
0	 1.111111e+00	 3.037037e+00	 8.975145e+00
0	 1.111111e+00	 3.111111e+00	 8.985217e+00
0	 1.111111e+00	 3.185185e+00	 8.998908e+00
0	 1.111111e+00	 3.259259e+00	 9.015898e+00
0	 1.111111e+00	 3.333333e+00	 9.035868e+00
0	 7.407407e-01	 3.333333e+00	 8.567009e+00
0	 7.407407e-01	 3.407407e+00	 8.610977e+00
0	 7.407407e-01	 3.481481e+00	 8.653215e+00
0	 7.407407e-01	 3.555556e+00	 8.695502e+00
0	 7.407407e-01	 3.629630e+00	 8.739615e+00
0	 7.407407e-01	 3.703704e+00	 8.787335e+00
0	 8.148148e-01	 3.333333e+00	 8.652258e+00
0	 8.148148e-01	 3.407407e+00	 8.691726e+00
0	 8.148148e-01	 3.481481e+00	 8.730195e+00
0	 8.148148e-01	 3.555556e+00	 8.768935e+00
0	 8.148148e-01	 3.629630e+00	 8.809216e+00
0	 8.148148e-01	 3.703704e+00	 8.852308e+00
0	 8.888889e-01	 3.333333e+00	 8.743190e+00
0	 8.888889e-01	 3.407407e+00	 8.778280e+00
0	 8.888889e-01	 3.481481e+00	 8.812716e+00
0	 8.888889e-01	 3.555556e+00	 8.847373e+00
0	 8.888889e-01	 3.629630e+00	 8.883127e+00
0	 8.888889e-01	 3.703704e+00	 8.920853e+00
0	 9.629630e-01	 3.333333e+00	 8.838383e+00
0	 9.629630e-01	 3.407407e+00	 8.869038e+00
0	 9.629630e-01	 3.481481e+00	 8.899123e+00
0	 9.629630e-01	 3.555556e+00	 8.929232e+00
0	 9.629630e-01	 3.629630e+00	 8.959960e+00
0	 9.629630e-01	 3.703704e+00	 8.991900e+00
0	 1.037037e+00	 3.333333e+00	 8.936416e+00
0	 1.037037e+00	 3.407407e+00	 8.962397e+00
0	 1.037037e+00	 3.481481e+00	 8.987757e+00
0	 1.037037e+00	 3.555556e+00	 9.012923e+00
0	 1.037037e+00	 3.629630e+00	 9.038322e+00
0	 1.037037e+00	 3.703704e+00	 9.064380e+00
0	 1.111111e+00	 3.333333e+00	 9.035868e+00
0	 1.111111e+00	 3.407407e+00	 9.056756e+00
0	 1.111111e+00	 3.481481e+00	 9.076963e+00
0	 1.111111e+00	 3.555556e+00	 9.096861e+00
0	 1.111111e+00	 3.629630e+00	 9.116823e+00
0	 1.111111e+00	 3.703704e+00	 9.137223e+00
0	 7.407407e-01	 3.703704e+00	 8.787335e+00
0	 7.407407e-01	 3.777778e+00	 8.836534e+00
0	 7.407407e-01	 3.851852e+00	 8.883327e+00
0	 7.407407e-01	 3.925926e+00	 8.926849e+00
0	 7.407407e-01	 4.000000e+00	 8.966238e+00
0	 7.407407e-01	 4.074074e+00	 9.000629e+00
0	 8.148148e-01	 3.703704e+00	 8.852308e+00
0	 8.148148e-01	 3.777778e+00	 8.896277e+00
0	 8.148148e-01	 3.851852e+00	 8.937968e+00
0	 8.148148e-01	 3.925926e+00	 8.976825e+00
0	 8.148148e-01	 4.000000e+00	 9.012292e+00
0	 8.148148e-01	 4.074074e+00	 9.043812e+00
0	 8.888889e-01	 3.703704e+00	 8.920853e+00
0	 8.888889e-01	 3.777778e+00	 8.959037e+00
0	 8.888889e-01	 3.851852e+00	 8.995367e+00
0	 8.888889e-01	 3.925926e+00	 9.029521e+00
0	 8.888889e-01	 4.000000e+00	 9.061177e+00
0	 8.888889e-01	 4.074074e+00	 9.090014e+00
0	 9.629630e-01	 3.703704e+00	 8.991900e+00
0	 9.629630e-01	 3.777778e+00	 9.024078e+00
0	 9.629630e-01	 3.851852e+00	 9.055013e+00
0	 9.629630e-01	 3.925926e+00	 9.084546e+00
0	 9.629630e-01	 4.000000e+00	 9.112518e+00
0	 9.629630e-01	 4.074074e+00	 9.138769e+00
0	 1.037037e+00	 3.703704e+00	 9.064380e+00
0	 1.037037e+00	 3.777778e+00	 9.090660e+00
0	 1.037037e+00	 3.851852e+00	 9.116392e+00
0	 1.037037e+00	 3.925926e+00	 9.141508e+00
0	 1.037037e+00	 4.000000e+00	 9.165937e+00
0	 1.037037e+00	 4.074074e+00	 9.189610e+00
0	 1.111111e+00	 3.703704e+00	 9.137223e+00
0	 1.111111e+00	 3.777778e+00	 9.158046e+00
0	 1.111111e+00	 3.851852e+00	 9.178994e+00
0	 1.111111e+00	 3.925926e+00	 9.200015e+00
0	 1.111111e+00	 4.000000e+00	 9.221058e+00
0	 1.111111e+00	 4.074074e+00	 9.242070e+00
0	 7.407407e-01	 4.074074e+00	 9.000629e+00
0	 7.407407e-01	 4.148148e+00	 9.031907e+00
0	 7.407407e-01	 4.222222e+00	 9.062820e+00
0	 7.407407e-01	 4.296296e+00	 9.093799e+00
0	 7.407407e-01	 4.370370e+00	 9.125278e+00
0	 7.407407e-01	 4.444444e+00	 9.157689e+00
0	 8.148148e-01	 4.074074e+00	 9.043812e+00
0	 8.148148e-01	 4.148148e+00	 9.072992e+00
0	 8.148148e-01	 4.222222e+00	 9.102002e+00
0	 8.148148e-01	 4.296296e+00	 9.131128e+00
0	 8.148148e-01	 4.370370e+00	 9.160658e+00
0	 8.148148e-01	 4.444444e+00	 9.190879e+00
0	 8.888889e-01	 4.074074e+00	 9.090014e+00
0	 8.888889e-01	 4.148148e+00	 9.117204e+00
0	 8.888889e-01	 4.222222e+00	 9.144255e+00
0	 8.888889e-01	 4.296296e+00	 9.171348e+00
0	 8.888889e-01	 4.370370e+00	 9.198663e+00
0	 8.888889e-01	 4.444444e+00	 9.226383e+00
0	 9.629630e-01	 4.074074e+00	 9.138769e+00
0	 9.629630e-01	 4.148148e+00	 9.163962e+00
0	 9.629630e-01	 4.222222e+00	 9.188940e+00
0	 9.629630e-01	 4.296296e+00	 9.213819e+00
0	 9.629630e-01	 4.370370e+00	 9.238713e+00
0	 9.629630e-01	 4.444444e+00	 9.263736e+00
0	 1.037037e+00	 4.074074e+00	 9.189610e+00
0	 1.037037e+00	 4.148148e+00	 9.212684e+00
0	 1.037037e+00	 4.222222e+00	 9.235420e+00
0	 1.037037e+00	 4.296296e+00	 9.257905e+00
0	 1.037037e+00	 4.370370e+00	 9.280227e+00
0	 1.037037e+00	 4.444444e+00	 9.302472e+00
0	 1.111111e+00	 4.074074e+00	 9.242070e+00
0	 1.111111e+00	 4.148148e+00	 9.262790e+00
0	 1.111111e+00	 4.222222e+00	 9.283057e+00
0	 1.111111e+00	 4.296296e+00	 9.302969e+00
0	 1.111111e+00	 4.370370e+00	 9.322626e+00
0	 1.111111e+00	 4.444444e+00	 9.342126e+00
0	 7.407407e-01	 4.444444e+00	 9.157689e+00
0	 7.407407e-01	 4.518519e+00	 9.189969e+00
0	 7.407407e-01	 4.592593e+00	 9.220642e+00
0	 7.407407e-01	 4.666667e+00	 9.249520e+00
0	 7.407407e-01	 4.740741e+00	 9.276415e+00
0	 7.407407e-01	 4.814815e+00	 9.301138e+00
0	 8.148148e-01	 4.444444e+00	 9.190879e+00
0	 8.148148e-01	 4.518519e+00	 9.220837e+00
0	 8.148148e-01	 4.592593e+00	 9.249310e+00
0	 8.148148e-01	 4.666667e+00	 9.276189e+00
0	 8.148148e-01	 4.740741e+00	 9.301362e+00
0	 8.148148e-01	 4.814815e+00	 9.324719e+00
0	 8.888889e-01	 4.444444e+00	 9.226383e+00
0	 8.888889e-01	 4.518519e+00	 9.253753e+00
0	 8.888889e-01	 4.592593e+00	 9.279861e+00
0	 8.888889e-01	 4.666667e+00	 9.304651e+00
0	 8.888889e-01	 4.740741e+00	 9.328070e+00
0	 8.888889e-01	 4.814815e+00	 9.350064e+00
0	 9.629630e-01	 4.444444e+00	 9.263736e+00
0	 9.629630e-01	 4.518519e+00	 9.288379e+00
0	 9.629630e-01	 4.592593e+00	 9.312042e+00
0	 9.629630e-01	 4.666667e+00	 9.334708e+00
0	 9.629630e-01	 4.740741e+00	 9.356355e+00
0	 9.629630e-01	 4.814815e+00	 9.376967e+00
0	 1.037037e+00	 4.444444e+00	 9.302472e+00
0	 1.037037e+00	 4.518519e+00	 9.324374e+00
0	 1.037037e+00	 4.592593e+00	 9.345604e+00
0	 1.037037e+00	 4.666667e+00	 9.366158e+00
0	 1.037037e+00	 4.740741e+00	 9.386033e+00
0	 1.037037e+00	 4.814815e+00	 9.405223e+00
0	 1.111111e+00	 4.444444e+00	 9.342126e+00
0	 1.111111e+00	 4.518519e+00	 9.361398e+00
0	 1.111111e+00	 4.592593e+00	 9.380294e+00
0	 1.111111e+00	 4.666667e+00	 9.398804e+00
0	 1.111111e+00	 4.740741e+00	 9.416918e+00
0	 1.111111e+00	 4.814815e+00	 9.434626e+00
0	 7.407407e-01	 4.814815e+00	 9.301138e+00
0	 7.407407e-01	 4.888889e+00	 9.324484e+00
0	 7.407407e-01	 4.962963e+00	 9.347423e+00
0	 7.407407e-01	 5.037037e+00	 9.370032e+00
0	 7.407407e-01	 5.111111e+00	 9.392389e+00
0	 7.407407e-01	 5.185185e+00	 9.414571e+00
0	 8.148148e-01	 4.814815e+00	 9.324719e+00
0	 8.148148e-01	 4.888889e+00	 9.346937e+00
0	 8.148148e-01	 4.962963e+00	 9.368800e+00
0	 8.148148e-01	 5.037037e+00	 9.390356e+00
0	 8.148148e-01	 5.111111e+00	 9.411653e+00
0	 8.148148e-01	 5.185185e+00	 9.432739e+00
0	 8.888889e-01	 4.814815e+00	 9.350064e+00
0	 8.888889e-01	 4.888889e+00	 9.371144e+00
0	 8.888889e-01	 4.962963e+00	 9.391879e+00
0	 8.888889e-01	 5.037037e+00	 9.412298e+00
0	 8.888889e-01	 5.111111e+00	 9.432430e+00
0	 8.888889e-01	 5.185185e+00	 9.452302e+00
0	 9.629630e-01	 4.814815e+00	 9.376967e+00
0	 9.629630e-01	 4.888889e+00	 9.396867e+00
0	 9.629630e-01	 4.962963e+00	 9.416408e+00
0	 9.629630e-01	 5.037037e+00	 9.435608e+00
0	 9.629630e-01	 5.111111e+00	 9.454487e+00
0	 9.629630e-01	 5.185185e+00	 9.473063e+00
0	 1.037037e+00	 4.814815e+00	 9.405223e+00
0	 1.037037e+00	 4.888889e+00	 9.423871e+00
0	 1.037037e+00	 4.962963e+00	 9.442136e+00
0	 1.037037e+00	 5.037037e+00	 9.460036e+00
0	 1.037037e+00	 5.111111e+00	 9.477592e+00
0	 1.037037e+00	 5.185185e+00	 9.494822e+00
0	 1.111111e+00	 4.814815e+00	 9.434626e+00
0	 1.111111e+00	 4.888889e+00	 9.451918e+00
0	 1.111111e+00	 4.962963e+00	 9.468809e+00
0	 1.111111e+00	 5.037037e+00	 9.485331e+00
0	 1.111111e+00	 5.111111e+00	 9.501512e+00
0	 1.111111e+00	 5.185185e+00	 9.517383e+00
0	 7.407407e-01	 5.185185e+00	 9.414571e+00
0	 7.407407e-01	 5.259259e+00	 9.436275e+00
0	 7.407407e-01	 5.333333e+00	 9.457125e+00
0	 7.407407e-01	 5.407407e+00	 9.477088e+00
0	 7.407407e-01	 5.481481e+00	 9.496132e+00
0	 7.407407e-01	 5.555556e+00	 9.514224e+00
0	 8.148148e-01	 5.185185e+00	 9.432739e+00
0	 8.148148e-01	 5.259259e+00	 9.453348e+00
0	 8.148148e-01	 5.333333e+00	 9.473170e+00
0	 8.148148e-01	 5.407407e+00	 9.492189e+00
0	 8.148148e-01	 5.481481e+00	 9.510385e+00
0	 8.148148e-01	 5.555556e+00	 9.527743e+00
0	 8.888889e-01	 5.185185e+00	 9.452302e+00
0	 8.888889e-01	 5.259259e+00	 9.471710e+00
0	 8.888889e-01	 5.333333e+00	 9.490423e+00
0	 8.888889e-01	 5.407407e+00	 9.508436e+00
0	 8.888889e-01	 5.481481e+00	 9.525740e+00
0	 8.888889e-01	 5.555556e+00	 9.542330e+00
0	 9.629630e-01	 5.185185e+00	 9.473063e+00
0	 9.629630e-01	 5.259259e+00	 9.491201e+00
0	 9.629630e-01	 5.333333e+00	 9.508752e+00
0	 9.629630e-01	 5.407407e+00	 9.525717e+00
0	 9.629630e-01	 5.481481e+00	 9.542093e+00
0	 9.629630e-01	 5.555556e+00	 9.557879e+00
0	 1.037037e+00	 5.185185e+00	 9.494822e+00
0	 1.037037e+00	 5.259259e+00	 9.511660e+00
0	 1.037037e+00	 5.333333e+00	 9.528025e+00
0	 1.037037e+00	 5.407407e+00	 9.543918e+00
0	 1.037037e+00	 5.481481e+00	 9.559338e+00
0	 1.037037e+00	 5.555556e+00	 9.574286e+00
0	 1.111111e+00	 5.185185e+00	 9.517383e+00
0	 1.111111e+00	 5.259259e+00	 9.532929e+00
0	 1.111111e+00	 5.333333e+00	 9.548111e+00
0	 1.111111e+00	 5.407407e+00	 9.562926e+00
0	 1.111111e+00	 5.481481e+00	 9.577372e+00
0	 1.111111e+00	 5.555556e+00	 9.591444e+00
0	 7.407407e-01	 5.555556e+00	 9.514224e+00
0	 7.407407e-01	 5.629630e+00	 9.531625e+00
0	 7.407407e-01	 5.703704e+00	 9.548625e+00
0	 7.407407e-01	 5.777778e+00	 9.565233e+00
0	 7.407407e-01	 5.851852e+00	 9.581455e+00
0	 7.407407e-01	 5.925926e+00	 9.597301e+00
0	 8.148148e-01	 5.555556e+00	 9.527743e+00
0	 8.148148e-01	 5.629630e+00	 9.544485e+00
0	 8.148148e-01	 5.703704e+00	 9.560850e+00
0	 8.148148e-01	 5.777778e+00	 9.576843e+00
0	 8.148148e-01	 5.851852e+00	 9.592467e+00
0	 8.148148e-01	 5.925926e+00	 9.607728e+00
0	 8.888889e-01	 5.555556e+00	 9.542330e+00
0	 8.888889e-01	 5.629630e+00	 9.558379e+00
0	 8.888889e-01	 5.703704e+00	 9.574067e+00
0	 8.888889e-01	 5.777778e+00	 9.589397e+00
0	 8.888889e-01	 5.851852e+00	 9.604373e+00
0	 8.888889e-01	 5.925926e+00	 9.618996e+00
0	 9.629630e-01	 5.555556e+00	 9.557879e+00
0	 9.629630e-01	 5.629630e+00	 9.573196e+00
0	 9.629630e-01	 5.703704e+00	 9.588165e+00
0	 9.629630e-01	 5.777778e+00	 9.602790e+00
0	 9.629630e-01	 5.851852e+00	 9.617073e+00
0	 9.629630e-01	 5.925926e+00	 9.631017e+00
0	 1.037037e+00	 5.555556e+00	 9.574286e+00
0	 1.037037e+00	 5.629630e+00	 9.588829e+00
0	 1.037037e+00	 5.703704e+00	 9.603036e+00
0	 1.037037e+00	 5.777778e+00	 9.616914e+00
0	 1.037037e+00	 5.851852e+00	 9.630467e+00
0	 1.037037e+00	 5.925926e+00	 9.643702e+00
0	 1.111111e+00	 5.555556e+00	 9.591444e+00
0	 1.111111e+00	 5.629630e+00	 9.605167e+00
0	 1.111111e+00	 5.703704e+00	 9.618570e+00
0	 1.111111e+00	 5.777778e+00	 9.631663e+00
0	 1.111111e+00	 5.851852e+00	 9.644457e+00
0	 1.111111e+00	 5.925926e+00	 9.656961e+00
0	 7.407407e-01	 5.925926e+00	 9.597301e+00
0	 7.407407e-01	 6.000000e+00	 9.612723e+00
0	 7.407407e-01	 6.074074e+00	 9.627664e+00
0	 7.407407e-01	 6.148148e+00	 9.642120e+00
0	 7.407407e-01	 6.222222e+00	 9.656087e+00
0	 7.407407e-01	 6.296296e+00	 9.669558e+00
0	 8.148148e-01	 5.925926e+00	 9.607728e+00
0	 8.148148e-01	 6.000000e+00	 9.622584e+00
0	 8.148148e-01	 6.074074e+00	 9.636991e+00
0	 8.148148e-01	 6.148148e+00	 9.650946e+00
0	 8.148148e-01	 6.222222e+00	 9.664447e+00
0	 8.148148e-01	 6.296296e+00	 9.677492e+00
0	 8.888889e-01	 5.925926e+00	 9.618996e+00
0	 8.888889e-01	 6.000000e+00	 9.633239e+00
0	 8.888889e-01	 6.074074e+00	 9.647068e+00
0	 8.888889e-01	 6.148148e+00	 9.660485e+00
0	 8.888889e-01	 6.222222e+00	 9.673488e+00
0	 8.888889e-01	 6.296296e+00	 9.686077e+00
0	 9.629630e-01	 5.925926e+00	 9.631017e+00
0	 9.629630e-01	 6.000000e+00	 9.644608e+00
0	 9.629630e-01	 6.074074e+00	 9.657827e+00
0	 9.629630e-01	 6.148148e+00	 9.670674e+00
0	 9.629630e-01	 6.222222e+00	 9.683149e+00
0	 9.629630e-01	 6.296296e+00	 9.695255e+00
0	 1.037037e+00	 5.925926e+00	 9.643702e+00
0	 1.037037e+00	 6.000000e+00	 9.656614e+00
0	 1.037037e+00	 6.074074e+00	 9.669197e+00
0	 1.037037e+00	 6.148148e+00	 9.681450e+00
0	 1.037037e+00	 6.222222e+00	 9.693375e+00
0	 1.037037e+00	 6.296296e+00	 9.704971e+00
0	 1.111111e+00	 5.925926e+00	 9.656961e+00
0	 1.111111e+00	 6.000000e+00	 9.669179e+00
0	 1.111111e+00	 6.074074e+00	 9.681109e+00
0	 1.111111e+00	 6.148148e+00	 9.692752e+00
0	 1.111111e+00	 6.222222e+00	 9.704105e+00
0	 1.111111e+00	 6.296296e+00	 9.715170e+00
0	 7.407407e-01	 6.296296e+00	 9.669558e+00
0	 7.407407e-01	 6.370370e+00	 9.682620e+00
0	 7.407407e-01	 6.444444e+00	 9.695357e+00
0	 7.407407e-01	 6.518519e+00	 9.707770e+00
0	 7.407407e-01	 6.592593e+00	 9.719858e+00
0	 7.407407e-01	 6.666667e+00	 9.731621e+00
0	 8.148148e-01	 6.296296e+00	 9.677492e+00
0	 8.148148e-01	 6.370370e+00	 9.690155e+00
0	 8.148148e-01	 6.444444e+00	 9.702508e+00
0	 8.148148e-01	 6.518519e+00	 9.714551e+00
0	 8.148148e-01	 6.592593e+00	 9.726286e+00
0	 8.148148e-01	 6.666667e+00	 9.737710e+00
0	 8.888889e-01	 6.296296e+00	 9.686077e+00
0	 8.888889e-01	 6.370370e+00	 9.698311e+00
0	 8.888889e-01	 6.444444e+00	 9.710251e+00
0	 8.888889e-01	 6.518519e+00	 9.721896e+00
0	 8.888889e-01	 6.592593e+00	 9.733248e+00
0	 8.888889e-01	 6.666667e+00	 9.744306e+00
0	 9.629630e-01	 6.296296e+00	 9.695255e+00
0	 9.629630e-01	 6.370370e+00	 9.707035e+00
0	 9.629630e-01	 6.444444e+00	 9.718534e+00
0	 9.629630e-01	 6.518519e+00	 9.729755e+00
0	 9.629630e-01	 6.592593e+00	 9.740699e+00
0	 9.629630e-01	 6.666667e+00	 9.751365e+00
0	 1.037037e+00	 6.296296e+00	 9.704971e+00
0	 1.037037e+00	 6.370370e+00	 9.716271e+00
0	 1.037037e+00	 6.444444e+00	 9.727305e+00
0	 1.037037e+00	 6.518519e+00	 9.738077e+00
0	 1.037037e+00	 6.592593e+00	 9.748590e+00
0	 1.037037e+00	 6.666667e+00	 9.758844e+00
0	 1.111111e+00	 6.296296e+00	 9.715170e+00
0	 1.111111e+00	 6.370370e+00	 9.725965e+00
0	 1.111111e+00	 6.444444e+00	 9.736511e+00
0	 1.111111e+00	 6.518519e+00	 9.746813e+00
0	 1.111111e+00	 6.592593e+00	 9.756875e+00
0	 1.111111e+00	 6.666667e+00	 9.766700e+00
0	 7.407407e-01	 6.666667e+00	 9.731621e+00
0	 7.407407e-01	 6.740741e+00	 9.743066e+00
0	 7.407407e-01	 6.814815e+00	 9.754200e+00
0	 7.407407e-01	 6.888889e+00	 9.765025e+00
0	 7.407407e-01	 6.962963e+00	 9.775539e+00
0	 7.407407e-01	 7.037037e+00	 9.785744e+00
0	 8.148148e-01	 6.666667e+00	 9.737710e+00
0	 8.148148e-01	 6.740741e+00	 9.748832e+00
0	 8.148148e-01	 6.814815e+00	 9.759657e+00
0	 8.148148e-01	 6.888889e+00	 9.770188e+00
0	 8.148148e-01	 6.962963e+00	 9.780423e+00
0	 8.148148e-01	 7.037037e+00	 9.790366e+00
0	 8.888889e-01	 6.666667e+00	 9.744306e+00
0	 8.888889e-01	 6.740741e+00	 9.755078e+00
0	 8.888889e-01	 6.814815e+00	 9.765569e+00
0	 8.888889e-01	 6.888889e+00	 9.775781e+00
0	 8.888889e-01	 6.962963e+00	 9.785716e+00
0	 8.888889e-01	 7.037037e+00	 9.795375e+00
0	 9.629630e-01	 6.666667e+00	 9.751365e+00
0	 9.629630e-01	 6.740741e+00	 9.761763e+00
0	 9.629630e-01	 6.814815e+00	 9.771898e+00
0	 9.629630e-01	 6.888889e+00	 9.781772e+00
0	 9.629630e-01	 6.962963e+00	 9.791387e+00
0	 9.629630e-01	 7.037037e+00	 9.800743e+00
0	 1.037037e+00	 6.666667e+00	 9.758844e+00
0	 1.037037e+00	 6.740741e+00	 9.768849e+00
0	 1.037037e+00	 6.814815e+00	 9.778609e+00
0	 1.037037e+00	 6.888889e+00	 9.788126e+00
0	 1.037037e+00	 6.962963e+00	 9.797403e+00
0	 1.037037e+00	 7.037037e+00	 9.806439e+00
0	 1.111111e+00	 6.666667e+00	 9.766700e+00
0	 1.111111e+00	 6.740741e+00	 9.776295e+00
0	 1.111111e+00	 6.814815e+00	 9.785664e+00
0	 1.111111e+00	 6.888889e+00	 9.794810e+00
0	 1.111111e+00	 6.962963e+00	 9.803732e+00
0	 1.111111e+00	 7.037037e+00	 9.812434e+00
0	 7.407407e-01	 7.037037e+00	 9.785744e+00
0	 7.407407e-01	 7.111111e+00	 9.795667e+00
0	 7.407407e-01	 7.185185e+00	 9.805336e+00
0	 7.407407e-01	 7.259259e+00	 9.814752e+00
0	 7.407407e-01	 7.333333e+00	 9.823917e+00
0	 7.407407e-01	 7.407407e+00	 9.832831e+00
0	 8.148148e-01	 7.037037e+00	 9.790366e+00
0	 8.148148e-01	 7.111111e+00	 9.800038e+00
0	 8.148148e-01	 7.185185e+00	 9.809467e+00
0	 8.148148e-01	 7.259259e+00	 9.818652e+00
0	 8.148148e-01	 7.333333e+00	 9.827596e+00
0	 8.148148e-01	 7.407407e+00	 9.836299e+00
0	 8.888889e-01	 7.037037e+00	 9.795375e+00
0	 8.888889e-01	 7.111111e+00	 9.804778e+00
0	 8.888889e-01	 7.185185e+00	 9.813946e+00
0	 8.888889e-01	 7.259259e+00	 9.822882e+00
0	 8.888889e-01	 7.333333e+00	 9.831586e+00
0	 8.888889e-01	 7.407407e+00	 9.840061e+00
0	 9.629630e-01	 7.037037e+00	 9.800743e+00
0	 9.629630e-01	 7.111111e+00	 9.809858e+00
0	 9.629630e-01	 7.185185e+00	 9.818748e+00
0	 9.629630e-01	 7.259259e+00	 9.827416e+00
0	 9.629630e-01	 7.333333e+00	 9.835865e+00
0	 9.629630e-01	 7.407407e+00	 9.844096e+00
0	 1.037037e+00	 7.037037e+00	 9.806439e+00
0	 1.037037e+00	 7.111111e+00	 9.815249e+00
0	 1.037037e+00	 7.185185e+00	 9.823845e+00
0	 1.037037e+00	 7.259259e+00	 9.832231e+00
0	 1.037037e+00	 7.333333e+00	 9.840408e+00
0	 1.037037e+00	 7.407407e+00	 9.848380e+00
0	 1.111111e+00	 7.037037e+00	 9.812434e+00
0	 1.111111e+00	 7.111111e+00	 9.820923e+00
0	 1.111111e+00	 7.185185e+00	 9.829210e+00
0	 1.111111e+00	 7.259259e+00	 9.837299e+00
0	 1.111111e+00	 7.333333e+00	 9.845192e+00
0	 1.111111e+00	 7.407407e+00	 9.852892e+00
0	 7.407407e-01	 7.407407e+00	 9.832831e+00
0	 7.407407e-01	 7.481481e+00	 9.841502e+00
0	 7.407407e-01	 7.555556e+00	 9.849936e+00
0	 7.407407e-01	 7.629630e+00	 9.858137e+00
0	 7.407407e-01	 7.703704e+00	 9.866107e+00
0	 7.407407e-01	 7.777778e+00	 9.873850e+00
0	 8.148148e-01	 7.407407e+00	 9.836299e+00
0	 8.148148e-01	 7.481481e+00	 9.844768e+00
0	 8.148148e-01	 7.555556e+00	 9.853008e+00
0	 8.148148e-01	 7.629630e+00	 9.861023e+00
0	 8.148148e-01	 7.703704e+00	 9.868815e+00
0	 8.148148e-01	 7.777778e+00	 9.876389e+00
0	 8.888889e-01	 7.407407e+00	 9.840061e+00
0	 8.888889e-01	 7.481481e+00	 9.848311e+00
0	 8.888889e-01	 7.555556e+00	 9.856342e+00
0	 8.888889e-01	 7.629630e+00	 9.864155e+00
0	 8.888889e-01	 7.703704e+00	 9.871755e+00
0	 8.888889e-01	 7.777778e+00	 9.879144e+00
0	 9.629630e-01	 7.407407e+00	 9.844096e+00
0	 9.629630e-01	 7.481481e+00	 9.852112e+00
0	 9.629630e-01	 7.555556e+00	 9.859917e+00
0	 9.629630e-01	 7.629630e+00	 9.867515e+00
0	 9.629630e-01	 7.703704e+00	 9.874908e+00
0	 9.629630e-01	 7.777778e+00	 9.882101e+00
0	 1.037037e+00	 7.407407e+00	 9.848380e+00
0	 1.037037e+00	 7.481481e+00	 9.856148e+00
0	 1.037037e+00	 7.555556e+00	 9.863715e+00
0	 1.037037e+00	 7.629630e+00	 9.871085e+00
0	 1.037037e+00	 7.703704e+00	 9.878260e+00
0	 1.037037e+00	 7.777778e+00	 9.885243e+00
0	 1.111111e+00	 7.407407e+00	 9.852892e+00
0	 1.111111e+00	 7.481481e+00	 9.860400e+00
0	 1.111111e+00	 7.555556e+00	 9.867717e+00
0	 1.111111e+00	 7.629630e+00	 9.874846e+00
0	 1.111111e+00	 7.703704e+00	 9.881791e+00
0	 1.111111e+00	 7.777778e+00	 9.888555e+00
0	 7.407407e-01	 7.777778e+00	 9.873850e+00
0	 7.407407e-01	 7.851852e+00	 9.881369e+00
0	 7.407407e-01	 7.925926e+00	 9.888669e+00
0	 7.407407e-01	 8.000000e+00	 9.895753e+00
0	 7.407407e-01	 8.074074e+00	 9.902625e+00
0	 7.407407e-01	 8.148148e+00	 9.909291e+00
0	 8.148148e-01	 7.777778e+00	 9.876389e+00
0	 8.148148e-01	 7.851852e+00	 9.883745e+00
0	 8.148148e-01	 7.925926e+00	 9.890887e+00
0	 8.148148e-01	 8.000000e+00	 9.897821e+00
0	 8.148148e-01	 8.074074e+00	 9.904550e+00
0	 8.148148e-01	 8.148148e+00	 9.911077e+00
0	 8.888889e-01	 7.777778e+00	 9.879144e+00
0	 8.888889e-01	 7.851852e+00	 9.886324e+00
0	 8.888889e-01	 7.925926e+00	 9.893297e+00
0	 8.888889e-01	 8.000000e+00	 9.900067e+00
0	 8.888889e-01	 8.074074e+00	 9.906640e+00
0	 8.888889e-01	 8.148148e+00	 9.913018e+00
0	 9.629630e-01	 7.777778e+00	 9.882101e+00
0	 9.629630e-01	 7.851852e+00	 9.889092e+00
0	 9.629630e-01	 7.925926e+00	 9.895883e+00
0	 9.629630e-01	 8.000000e+00	 9.902479e+00
0	 9.629630e-01	 8.074074e+00	 9.908883e+00
0	 9.629630e-01	 8.148148e+00	 9.915101e+00
0	 1.037037e+00	 7.777778e+00	 9.885243e+00
0	 1.037037e+00	 7.851852e+00	 9.892034e+00
0	 1.037037e+00	 7.925926e+00	 9.898632e+00
0	 1.037037e+00	 8.000000e+00	 9.905042e+00
0	 1.037037e+00	 8.074074e+00	 9.911269e+00
0	 1.037037e+00	 8.148148e+00	 9.917316e+00
0	 1.111111e+00	 7.777778e+00	 9.888555e+00
0	 1.111111e+00	 7.851852e+00	 9.895135e+00
0	 1.111111e+00	 7.925926e+00	 9.901530e+00
0	 1.111111e+00	 8.000000e+00	 9.907744e+00
0	 1.111111e+00	 8.074074e+00	 9.913783e+00
0	 1.111111e+00	 8.148148e+00	 9.919651e+00
0	 7.407407e-01	 8.148148e+00	 9.909291e+00
0	 7.407407e-01	 8.222222e+00	 9.915742e+00
0	 7.407407e-01	 8.296296e+00	 9.921974e+00
0	 7.407407e-01	 8.370370e+00	 9.927993e+00
0	 7.407407e-01	 8.444444e+00	 9.933804e+00
0	 7.407407e-01	 8.518519e+00	 9.939415e+00
0	 8.148148e-01	 8.148148e+00	 9.911077e+00
0	 8.148148e-01	 8.222222e+00	 9.917396e+00
0	 8.148148e-01	 8.296296e+00	 9.923502e+00
0	 8.148148e-01	 8.370370e+00	 9.929399e+00
0	 8.148148e-01	 8.444444e+00	 9.935093e+00
0	 8.148148e-01	 8.518519e+00	 9.940592e+00
0	 8.888889e-01	 8.148148e+00	 9.913018e+00
0	 8.888889e-01	 8.222222e+00	 9.919194e+00
0	 8.888889e-01	 8.296296e+00	 9.925161e+00
0	 8.888889e-01	 8.370370e+00	 9.930926e+00
0	 8.888889e-01	 8.444444e+00	 9.936495e+00
0	 8.888889e-01	 8.518519e+00	 9.941873e+00
0	 9.629630e-01	 8.148148e+00	 9.915101e+00
0	 9.629630e-01	 8.222222e+00	 9.921124e+00
0	 9.629630e-01	 8.296296e+00	 9.926944e+00
0	 9.629630e-01	 8.370370e+00	 9.932567e+00
0	 9.629630e-01	 8.444444e+00	 9.938000e+00
0	 9.629630e-01	 8.518519e+00	 9.943248e+00
0	 1.037037e+00	 8.148148e+00	 9.917316e+00
0	 1.037037e+00	 8.222222e+00	 9.923175e+00
0	 1.037037e+00	 8.296296e+00	 9.928839e+00
0	 1.037037e+00	 8.370370e+00	 9.934312e+00
0	 1.037037e+00	 8.444444e+00	 9.939600e+00
0	 1.037037e+00	 8.518519e+00	 9.944711e+00
0	 1.111111e+00	 8.148148e+00	 9.919651e+00
0	 1.111111e+00	 8.222222e+00	 9.925338e+00
0	 1.111111e+00	 8.296296e+00	 9.930836e+00
0	 1.111111e+00	 8.370370e+00	 9.936150e+00
0	 1.111111e+00	 8.444444e+00	 9.941287e+00
0	 1.111111e+00	 8.518519e+00	 9.946252e+00
0	 7.407407e-01	 8.518519e+00	 9.939415e+00
0	 7.407407e-01	 8.592593e+00	 9.944808e+00
0	 7.407407e-01	 8.666667e+00	 9.949970e+00
0	 7.407407e-01	 8.740741e+00	 9.954909e+00
0	 7.407407e-01	 8.814815e+00	 9.959634e+00
0	 7.407407e-01	 8.888889e+00	 9.964152e+00
0	 8.148148e-01	 8.518519e+00	 9.940592e+00
0	 8.148148e-01	 8.592593e+00	 9.945879e+00
0	 8.148148e-01	 8.666667e+00	 9.950940e+00
0	 8.148148e-01	 8.740741e+00	 9.955782e+00
0	 8.148148e-01	 8.814815e+00	 9.960414e+00
0	 8.148148e-01	 8.888889e+00	 9.964845e+00
0	 8.888889e-01	 8.518519e+00	 9.941873e+00
0	 8.888889e-01	 8.592593e+00	 9.947044e+00
0	 8.888889e-01	 8.666667e+00	 9.951995e+00
0	 8.888889e-01	 8.740741e+00	 9.956732e+00
0	 8.888889e-01	 8.814815e+00	 9.961264e+00
0	 8.888889e-01	 8.888889e+00	 9.965600e+00
0	 9.629630e-01	 8.518519e+00	 9.943248e+00
0	 9.629630e-01	 8.592593e+00	 9.948296e+00
0	 9.629630e-01	 8.666667e+00	 9.953128e+00
0	 9.629630e-01	 8.740741e+00	 9.957753e+00
0	 9.629630e-01	 8.814815e+00	 9.962178e+00
0	 9.629630e-01	 8.888889e+00	 9.966412e+00
0	 1.037037e+00	 8.518519e+00	 9.944711e+00
0	 1.037037e+00	 8.592593e+00	 9.949627e+00
0	 1.037037e+00	 8.666667e+00	 9.954333e+00
0	 1.037037e+00	 8.740741e+00	 9.958838e+00
0	 1.037037e+00	 8.814815e+00	 9.963149e+00
0	 1.037037e+00	 8.888889e+00	 9.967274e+00
0	 1.111111e+00	 8.518519e+00	 9.946252e+00
0	 1.111111e+00	 8.592593e+00	 9.951029e+00
0	 1.111111e+00	 8.666667e+00	 9.955602e+00
0	 1.111111e+00	 8.740741e+00	 9.959980e+00
0	 1.111111e+00	 8.814815e+00	 9.964170e+00
0	 1.111111e+00	 8.888889e+00	 9.968181e+00
0	 7.407407e-01	 8.888889e+00	 9.964152e+00
0	 7.407407e-01	 8.962963e+00	 9.968437e+00
0	 7.407407e-01	 9.037037e+00	 9.972465e+00
0	 7.407407e-01	 9.111111e+00	 9.976245e+00
0	 7.407407e-01	 9.185185e+00	 9.979791e+00
0	 7.407407e-01	 9.259259e+00	 9.983112e+00
0	 8.148148e-01	 8.888889e+00	 9.964845e+00
0	 8.148148e-01	 8.962963e+00	 9.969047e+00
0	 8.148148e-01	 9.037037e+00	 9.972997e+00
0	 8.148148e-01	 9.111111e+00	 9.976704e+00
0	 8.148148e-01	 9.185185e+00	 9.980181e+00
0	 8.148148e-01	 9.259259e+00	 9.983438e+00
0	 8.888889e-01	 8.888889e+00	 9.965600e+00
0	 8.888889e-01	 8.962963e+00	 9.969713e+00
0	 8.888889e-01	 9.037037e+00	 9.973578e+00
0	 8.888889e-01	 9.111111e+00	 9.977206e+00
0	 8.888889e-01	 9.185185e+00	 9.980609e+00
0	 8.888889e-01	 9.259259e+00	 9.983797e+00
0	 9.629630e-01	 8.888889e+00	 9.966412e+00
0	 9.629630e-01	 8.962963e+00	 9.970428e+00
0	 9.629630e-01	 9.037037e+00	 9.974202e+00
0	 9.629630e-01	 9.111111e+00	 9.977746e+00
0	 9.629630e-01	 9.185185e+00	 9.981069e+00
0	 9.629630e-01	 9.259259e+00	 9.984182e+00
0	 1.037037e+00	 8.888889e+00	 9.967274e+00
0	 1.037037e+00	 8.962963e+00	 9.971187e+00
0	 1.037037e+00	 9.037037e+00	 9.974865e+00
0	 1.037037e+00	 9.111111e+00	 9.978318e+00
0	 1.037037e+00	 9.185185e+00	 9.981557e+00
0	 1.037037e+00	 9.259259e+00	 9.984590e+00
0	 1.111111e+00	 8.888889e+00	 9.968181e+00
0	 1.111111e+00	 8.962963e+00	 9.971986e+00
0	 1.111111e+00	 9.037037e+00	 9.975562e+00
0	 1.111111e+00	 9.111111e+00	 9.978919e+00
0	 1.111111e+00	 9.185185e+00	 9.982067e+00
0	 1.111111e+00	 9.259259e+00	 9.985017e+00
0	 7.407407e-01	 9.259259e+00	 9.983112e+00
0	 7.407407e-01	 9.333333e+00	 9.986168e+00
0	 7.407407e-01	 9.407407e+00	 9.988918e+00
0	 7.407407e-01	 9.481481e+00	 9.991377e+00
0	 7.407407e-01	 9.555556e+00	 9.993562e+00
0	 7.407407e-01	 9.629630e+00	 9.995486e+00
0	 8.148148e-01	 9.259259e+00	 9.983438e+00
0	 8.148148e-01	 9.333333e+00	 9.986435e+00
0	 8.148148e-01	 9.407407e+00	 9.989132e+00
0	 8.148148e-01	 9.481481e+00	 9.991544e+00
0	 8.148148e-01	 9.555556e+00	 9.993686e+00
0	 8.148148e-01	 9.629630e+00	 9.995573e+00
0	 8.888889e-01	 9.259259e+00	 9.983797e+00
0	 8.888889e-01	 9.333333e+00	 9.986729e+00
0	 8.888889e-01	 9.407407e+00	 9.989368e+00
0	 8.888889e-01	 9.481481e+00	 9.991729e+00
0	 8.888889e-01	 9.555556e+00	 9.993825e+00
0	 8.888889e-01	 9.629630e+00	 9.995671e+00
0	 9.629630e-01	 9.259259e+00	 9.984182e+00
0	 9.629630e-01	 9.333333e+00	 9.987046e+00
0	 9.629630e-01	 9.407407e+00	 9.989623e+00
0	 9.629630e-01	 9.481481e+00	 9.991929e+00
0	 9.629630e-01	 9.555556e+00	 9.993975e+00
0	 9.629630e-01	 9.629630e+00	 9.995778e+00
0	 1.037037e+00	 9.259259e+00	 9.984590e+00
0	 1.037037e+00	 9.333333e+00	 9.987381e+00
0	 1.037037e+00	 9.407407e+00	 9.989893e+00
0	 1.037037e+00	 9.481481e+00	 9.992139e+00
0	 1.037037e+00	 9.555556e+00	 9.994133e+00
0	 1.037037e+00	 9.629630e+00	 9.995889e+00
0	 1.111111e+00	 9.259259e+00	 9.985017e+00
0	 1.111111e+00	 9.333333e+00	 9.987731e+00
0	 1.111111e+00	 9.407407e+00	 9.990172e+00
0	 1.111111e+00	 9.481481e+00	 9.992356e+00
0	 1.111111e+00	 9.555556e+00	 9.994294e+00
0	 1.111111e+00	 9.629630e+00	 9.996001e+00
0	 7.407407e-01	 9.629630e+00	 9.995486e+00
0	 7.407407e-01	 9.703704e+00	 9.997095e+00
0	 7.407407e-01	 9.777778e+00	 9.998336e+00
0	 7.407407e-01	 9.851852e+00	 9.999228e+00
0	 7.407407e-01	 9.925926e+00	 9.999791e+00
0	 7.407407e-01	 1.000000e+01	 1.000005e+01
0	 8.148148e-01	 9.629630e+00	 9.995573e+00
0	 8.148148e-01	 9.703704e+00	 9.997150e+00
0	 8.148148e-01	 9.777778e+00	 9.998366e+00
0	 8.148148e-01	 9.851852e+00	 9.999240e+00
0	 8.148148e-01	 9.925926e+00	 9.999792e+00
0	 8.148148e-01	 1.000000e+01	 1.000004e+01
0	 8.888889e-01	 9.629630e+00	 9.995671e+00
0	 8.888889e-01	 9.703704e+00	 9.997214e+00
0	 8.888889e-01	 9.777778e+00	 9.998404e+00
0	 8.888889e-01	 9.851852e+00	 9.999260e+00
0	 8.888889e-01	 9.925926e+00	 9.999800e+00
0	 8.888889e-01	 1.000000e+01	 1.000004e+01
0	 9.629630e-01	 9.629630e+00	 9.995778e+00
0	 9.629630e-01	 9.703704e+00	 9.997285e+00
0	 9.629630e-01	 9.777778e+00	 9.998447e+00
0	 9.629630e-01	 9.851852e+00	 9.999282e+00
0	 9.629630e-01	 9.925926e+00	 9.999809e+00
0	 9.629630e-01	 1.000000e+01	 1.000005e+01
0	 1.037037e+00	 9.629630e+00	 9.995889e+00
0	 1.037037e+00	 9.703704e+00	 9.997357e+00
0	 1.037037e+00	 9.777778e+00	 9.998489e+00
0	 1.037037e+00	 9.851852e+00	 9.999303e+00
0	 1.037037e+00	 9.925926e+00	 9.999816e+00
0	 1.037037e+00	 1.000000e+01	 1.000005e+01
0	 1.111111e+00	 9.629630e+00	 9.996001e+00
0	 1.111111e+00	 9.703704e+00	 9.997427e+00
0	 1.111111e+00	 9.777778e+00	 9.998527e+00
0	 1.111111e+00	 9.851852e+00	 9.999318e+00
0	 1.111111e+00	 9.925926e+00	 9.999816e+00
0	 1.111111e+00	 1.000000e+01	 1.000004e+01
0	 1.111111e+00	 0.000000e+00	-1.810469e+00
0	 1.111111e+00	 7.407407e-02	-1.263361e+00
0	 1.111111e+00	 1.481481e-01	-1.572371e+00
0	 1.111111e+00	 2.222222e-01	-2.461364e+00
0	 1.111111e+00	 2.962963e-01	-3.654207e+00
0	 1.111111e+00	 3.703704e-01	-4.874768e+00
0	 1.185185e+00	 0.000000e+00	-2.159434e+00
0	 1.185185e+00	 7.407407e-02	-1.386320e+00
0	 1.185185e+00	 1.481481e-01	-1.720163e+00
0	 1.185185e+00	 2.222222e-01	-2.776471e+00
0	 1.185185e+00	 2.962963e-01	-4.170748e+00
0	 1.185185e+00	 3.703704e-01	-5.518499e+00
0	 1.259259e+00	 0.000000e+00	-2.234323e+00
0	 1.259259e+00	 7.407407e-02	-1.164159e+00
0	 1.259259e+00	 1.481481e-01	-1.280373e+00
0	 1.259259e+00	 2.222222e-01	-2.171518e+00
0	 1.259259e+00	 2.962963e-01	-3.426147e+00
0	 1.259259e+00	 3.703704e-01	-4.632812e+00
0	 1.333333e+00	 0.000000e+00	-2.165619e+00
0	 1.333333e+00	 7.407407e-02	-7.917130e-01
0	 1.333333e+00	 1.481481e-01	-5.003230e-01
0	 1.333333e+00	 2.222222e-01	-9.344574e-01
0	 1.333333e+00	 2.962963e-01	-1.737125e+00
0	 1.333333e+00	 3.703704e-01	-2.551334e+00
0	 1.407407e+00	 0.000000e+00	-2.083806e+00
0	 1.407407e+00	 7.407407e-02	-4.638150e-01
0	 1.407407e+00	 1.481481e-01	 3.726647e-01
0	 1.407407e+00	 2.222222e-01	 6.467600e-01
0	 1.407407e+00	 2.962963e-01	 5.795981e-01
0	 1.407407e+00	 3.703704e-01	 3.923058e-01
0	 1.481481e+00	 0.000000e+00	-2.119368e+00
0	 1.481481e+00	 7.407407e-02	-3.752985e-01
0	 1.481481e+00	 1.481481e-01	 1.091267e+00
0	 1.481481e+00	 2.222222e-01	 2.284183e+00
0	 1.481481e+00	 2.962963e-01	 3.207302e+00
0	 1.481481e+00	 3.703704e-01	 3.864479e+00
0	 1.111111e+00	 3.703704e-01	-4.874768e+00
0	 1.111111e+00	 4.444444e-01	-4.915627e+00
0	 1.111111e+00	 5.185185e-01	-2.808665e+00
0	 1.111111e+00	 5.925926e-01	 1.363305e+00
0	 1.111111e+00	 6.666667e-01	 7.517470e+00
0	 1.111111e+00	 7.407407e-01	 1.557102e+01
0	 1.185185e+00	 3.703704e-01	-5.518499e+00
0	 1.185185e+00	 4.444444e-01	-5.584740e+00
0	 1.185185e+00	 5.185185e-01	-3.469943e+00
0	 1.185185e+00	 5.925926e-01	 7.071973e-01
0	 1.185185e+00	 6.666667e-01	 6.827987e+00
0	 1.185185e+00	 7.407407e-01	 1.477373e+01
0	 1.259259e+00	 3.703704e-01	-4.632812e+00
0	 1.259259e+00	 4.444444e-01	-4.655725e+00
0	 1.259259e+00	 5.185185e-01	-2.718746e+00
0	 1.259259e+00	 5.925926e-01	 1.050098e+00
0	 1.259259e+00	 6.666667e-01	 6.522781e+00
0	 1.259259e+00	 7.407407e-01	 1.357128e+01
0	 1.333333e+00	 3.703704e-01	-2.551334e+00
0	 1.333333e+00	 4.444444e-01	-2.440983e+00
0	 1.333333e+00	 5.185185e-01	-7.818374e-01
0	 1.333333e+00	 5.925926e-01	 2.315292e+00
0	 1.333333e+00	 6.666667e-01	 6.739595e+00
0	 1.333333e+00	 7.407407e-01	 1.238026e+01
0	 1.407407e+00	 3.703704e-01	 3.923058e-01
0	 1.407407e+00	 4.444444e-01	 7.470840e-01
0	 1.407407e+00	 5.185185e-01	 2.114018e+00
0	 1.407407e+00	 5.925926e-01	 4.426062e+00
0	 1.407407e+00	 6.666667e-01	 7.616170e+00
0	 1.407407e+00	 7.407407e-01	 1.161730e+01
0	 1.481481e+00	 3.703704e-01	 3.864479e+00
0	 1.481481e+00	 4.444444e-01	 4.596074e+00
0	 1.481481e+00	 5.185185e-01	 5.742057e+00
0	 1.481481e+00	 5.925926e-01	 7.305693e+00
0	 1.481481e+00	 6.666667e-01	 9.290251e+00
0	 1.481481e+00	 7.407407e-01	 1.169900e+01
0	 1.111111e+00	 7.407407e-01	 1.557102e+01
0	 1.111111e+00	 8.148148e-01	 2.337653e+01
0	 1.111111e+00	 8.888889e-01	 2.883472e+01
0	 1.111111e+00	 9.629630e-01	 3.193496e+01
0	 1.111111e+00	 1.037037e+00	 3.266659e+01
0	 1.111111e+00	 1.111111e+00	 3.101899e+01
0	 1.185185e+00	 7.407407e-01	 1.477373e+01
0	 1.185185e+00	 8.148148e-01	 2.237693e+01
0	 1.185185e+00	 8.888889e-01	 2.752233e+01
0	 1.185185e+00	 9.629630e-01	 3.016961e+01
0	 1.185185e+00	 1.037037e+00	 3.027845e+01
0	 1.185185e+00	 1.111111e+00	 2.780852e+01
0	 1.259259e+00	 7.407407e-01	 1.357128e+01
0	 1.259259e+00	 8.148148e-01	 2.027648e+01
0	 1.259259e+00	 8.888889e-01	 2.476505e+01
0	 1.259259e+00	 9.629630e-01	 2.697761e+01
0	 1.259259e+00	 1.037037e+00	 2.685479e+01
0	 1.259259e+00	 1.111111e+00	 2.433720e+01
0	 1.333333e+00	 7.407407e-01	 1.238026e+01
0	 1.333333e+00	 8.148148e-01	 1.773685e+01
0	 1.333333e+00	 8.888889e-01	 2.133760e+01
0	 1.333333e+00	 9.629630e-01	 2.311471e+01
0	 1.333333e+00	 1.037037e+00	 2.300038e+01
0	 1.333333e+00	 1.111111e+00	 2.092681e+01
0	 1.407407e+00	 7.407407e-01	 1.161730e+01
0	 1.407407e+00	 8.148148e-01	 1.541973e+01
0	 1.407407e+00	 8.888889e-01	 1.801471e+01
0	 1.407407e+00	 9.629630e-01	 1.933667e+01
0	 1.407407e+00	 1.037037e+00	 1.932000e+01
0	 1.407407e+00	 1.111111e+00	 1.789912e+01
0	 1.481481e+00	 7.407407e-01	 1.169900e+01
0	 1.481481e+00	 8.148148e-01	 1.398678e+01
0	 1.481481e+00	 8.888889e-01	 1.557112e+01
0	 1.481481e+00	 9.629630e-01	 1.639925e+01
0	 1.481481e+00	 1.037037e+00	 1.641842e+01
0	 1.481481e+00	 1.111111e+00	 1.557589e+01
0	 1.111111e+00	 1.111111e+00	 3.101899e+01
0	 1.111111e+00	 1.185185e+00	 2.817331e+01
0	 1.111111e+00	 1.259259e+00	 2.531236e+01
0	 1.111111e+00	 1.333333e+00	 2.242798e+01
0	 1.111111e+00	 1.407407e+00	 1.951199e+01
0	 1.111111e+00	 1.481481e+00	 1.655622e+01
0	 1.185185e+00	 1.111111e+00	 2.780852e+01
0	 1.185185e+00	 1.185185e+00	 2.422129e+01
0	 1.185185e+00	 1.259259e+00	 2.101769e+01
0	 1.185185e+00	 1.333333e+00	 1.821656e+01
0	 1.185185e+00	 1.407407e+00	 1.583671e+01
0	 1.185185e+00	 1.481481e+00	 1.389699e+01
0	 1.259259e+00	 1.111111e+00	 2.433720e+01
0	 1.259259e+00	 1.185185e+00	 2.084609e+01
0	 1.259259e+00	 1.259259e+00	 1.786680e+01
0	 1.259259e+00	 1.333333e+00	 1.543607e+01
0	 1.259259e+00	 1.407407e+00	 1.359064e+01
0	 1.259259e+00	 1.481481e+00	 1.236726e+01
0	 1.333333e+00	 1.111111e+00	 2.092681e+01
0	 1.333333e+00	 1.185185e+00	 1.806577e+01
0	 1.333333e+00	 1.259259e+00	 1.566462e+01
0	 1.333333e+00	 1.333333e+00	 1.376892e+01
0	 1.333333e+00	 1.407407e+00	 1.242424e+01
0	 1.333333e+00	 1.481481e+00	 1.167615e+01
0	 1.407407e+00	 1.111111e+00	 1.789912e+01
0	 1.407407e+00	 1.185185e+00	 1.589838e+01
0	 1.407407e+00	 1.259259e+00	 1.421607e+01
0	 1.407407e+00	 1.333333e+00	 1.289751e+01
0	 1.407407e+00	 1.407407e+00	 1.198798e+01
0	 1.407407e+00	 1.481481e+00	 1.153281e+01
0	 1.481481e+00	 1.111111e+00	 1.557589e+01
0	 1.481481e+00	 1.185185e+00	 1.436196e+01
0	 1.481481e+00	 1.259259e+00	 1.332610e+01
0	 1.481481e+00	 1.333333e+00	 1.250424e+01
0	 1.481481e+00	 1.407407e+00	 1.193234e+01
0	 1.481481e+00	 1.481481e+00	 1.164634e+01
0	 1.111111e+00	 1.481481e+00	 1.655622e+01
0	 1.111111e+00	 1.555556e+00	 1.387540e+01
0	 1.111111e+00	 1.629630e+00	 1.179499e+01
0	 1.111111e+00	 1.703704e+00	 1.032293e+01
0	 1.111111e+00	 1.777778e+00	 9.467155e+00
0	 1.111111e+00	 1.851852e+00	 9.235606e+00
0	 1.185185e+00	 1.481481e+00	 1.389699e+01
0	 1.185185e+00	 1.555556e+00	 1.235155e+01
0	 1.185185e+00	 1.629630e+00	 1.114570e+01
0	 1.185185e+00	 1.703704e+00	 1.028499e+01
0	 1.185185e+00	 1.777778e+00	 9.774992e+00
0	 1.185185e+00	 1.851852e+00	 9.621256e+00
0	 1.259259e+00	 1.481481e+00	 1.236726e+01
0	 1.259259e+00	 1.555556e+00	 1.154975e+01
0	 1.259259e+00	 1.629630e+00	 1.089983e+01
0	 1.259259e+00	 1.703704e+00	 1.042107e+01
0	 1.259259e+00	 1.777778e+00	 1.011703e+01
0	 1.259259e+00	 1.851852e+00	 9.991282e+00
0	 1.333333e+00	 1.481481e+00	 1.167615e+01
0	 1.333333e+00	 1.555556e+00	 1.127341e+01
0	 1.333333e+00	 1.629630e+00	 1.093569e+01
0	 1.333333e+00	 1.703704e+00	 1.066497e+01
0	 1.333333e+00	 1.777778e+00	 1.046322e+01
0	 1.333333e+00	 1.851852e+00	 1.033242e+01
0	 1.407407e+00	 1.481481e+00	 1.153281e+01
0	 1.407407e+00	 1.555556e+00	 1.132591e+01
0	 1.407407e+00	 1.629630e+00	 1.113155e+01
0	 1.407407e+00	 1.703704e+00	 1.095050e+01
0	 1.407407e+00	 1.777778e+00	 1.078353e+01
0	 1.407407e+00	 1.851852e+00	 1.063142e+01
0	 1.481481e+00	 1.481481e+00	 1.164634e+01
0	 1.481481e+00	 1.555556e+00	 1.151065e+01
0	 1.481481e+00	 1.629630e+00	 1.136571e+01
0	 1.481481e+00	 1.703704e+00	 1.121148e+01
0	 1.481481e+00	 1.777778e+00	 1.104793e+01
0	 1.481481e+00	 1.851852e+00	 1.087501e+01
0	 1.111111e+00	 1.851852e+00	 9.235606e+00
0	 1.111111e+00	 1.925926e+00	 9.297117e+00
0	 1.111111e+00	 2.000000e+00	 9.316926e+00
0	 1.111111e+00	 2.074074e+00	 9.297577e+00
0	 1.111111e+00	 2.148148e+00	 9.241616e+00
0	 1.111111e+00	 2.222222e+00	 9.151589e+00
0	 1.185185e+00	 1.851852e+00	 9.621256e+00
0	 1.185185e+00	 1.925926e+00	 9.632267e+00
0	 1.185185e+00	 2.000000e+00	 9.613832e+00
0	 1.185185e+00	 2.074074e+00	 9.567490e+00
0	 1.185185e+00	 2.148148e+00	 9.494783e+00
0	 1.185185e+00	 2.222222e+00	 9.397250e+00
0	 1.259259e+00	 1.851852e+00	 9.991282e+00
0	 1.259259e+00	 1.925926e+00	 9.947881e+00
0	 1.259259e+00	 2.000000e+00	 9.888907e+00
0	 1.259259e+00	 2.074074e+00	 9.814992e+00
0	 1.259259e+00	 2.148148e+00	 9.726764e+00
0	 1.259259e+00	 2.222222e+00	 9.624852e+00
0	 1.333333e+00	 1.851852e+00	 1.033242e+01
0	 1.333333e+00	 1.925926e+00	 1.023692e+01
0	 1.333333e+00	 2.000000e+00	 1.013960e+01
0	 1.333333e+00	 2.074074e+00	 1.004028e+01
0	 1.333333e+00	 2.148148e+00	 9.938770e+00
0	 1.333333e+00	 2.222222e+00	 9.834884e+00
0	 1.407407e+00	 1.851852e+00	 1.063142e+01
0	 1.407407e+00	 1.925926e+00	 1.049234e+01
0	 1.407407e+00	 2.000000e+00	 1.036336e+01
0	 1.407407e+00	 2.074074e+00	 1.024355e+01
0	 1.407407e+00	 2.148148e+00	 1.013201e+01
0	 1.407407e+00	 2.222222e+00	 1.002783e+01
0	 1.481481e+00	 1.851852e+00	 1.087501e+01
0	 1.481481e+00	 1.925926e+00	 1.070712e+01
0	 1.481481e+00	 2.000000e+00	 1.055763e+01
0	 1.481481e+00	 2.074074e+00	 1.042500e+01
0	 1.481481e+00	 2.148148e+00	 1.030770e+01
0	 1.481481e+00	 2.222222e+00	 1.020418e+01
0	 1.111111e+00	 2.222222e+00	 9.151589e+00
0	 1.111111e+00	 2.296296e+00	 9.058715e+00
0	 1.111111e+00	 2.370370e+00	 8.991763e+00
0	 1.111111e+00	 2.444444e+00	 8.949600e+00
0	 1.111111e+00	 2.518519e+00	 8.931091e+00
0	 1.111111e+00	 2.592593e+00	 8.935105e+00
0	 1.185185e+00	 2.222222e+00	 9.397250e+00
0	 1.185185e+00	 2.296296e+00	 9.299573e+00
0	 1.185185e+00	 2.370370e+00	 9.224825e+00
0	 1.185185e+00	 2.444444e+00	 9.172136e+00
0	 1.185185e+00	 2.518519e+00	 9.140635e+00
0	 1.185185e+00	 2.592593e+00	 9.129451e+00
0	 1.259259e+00	 2.222222e+00	 9.624852e+00
0	 1.259259e+00	 2.296296e+00	 9.526092e+00
0	 1.259259e+00	 2.370370e+00	 9.446506e+00
0	 1.259259e+00	 2.444444e+00	 9.385505e+00
0	 1.259259e+00	 2.518519e+00	 9.342499e+00
0	 1.259259e+00	 2.592593e+00	 9.316898e+00
0	 1.333333e+00	 2.222222e+00	 9.834884e+00
0	 1.333333e+00	 2.296296e+00	 9.737396e+00
0	 1.333333e+00	 2.370370e+00	 9.655014e+00
0	 1.333333e+00	 2.444444e+00	 9.587449e+00
0	 1.333333e+00	 2.518519e+00	 9.534411e+00
0	 1.333333e+00	 2.592593e+00	 9.495611e+00
0	 1.407407e+00	 2.222222e+00	 1.002783e+01
0	 1.407407e+00	 2.296296e+00	 9.932604e+00
0	 1.407407e+00	 2.370370e+00	 9.848553e+00
0	 1.407407e+00	 2.444444e+00	 9.775708e+00
0	 1.407407e+00	 2.518519e+00	 9.714097e+00
0	 1.407407e+00	 2.592593e+00	 9.663752e+00
0	 1.481481e+00	 2.222222e+00	 1.020418e+01
0	 1.481481e+00	 2.296296e+00	 1.011084e+01
0	 1.481481e+00	 2.370370e+00	 1.002533e+01
0	 1.481481e+00	 2.444444e+00	 9.948023e+00
0	 1.481481e+00	 2.518519e+00	 9.879286e+00
0	 1.481481e+00	 2.592593e+00	 9.819485e+00
0	 1.111111e+00	 2.592593e+00	 8.935105e+00
0	 1.111111e+00	 2.666667e+00	 8.947515e+00
0	 1.111111e+00	 2.740741e+00	 8.955818e+00
0	 1.111111e+00	 2.814815e+00	 8.961305e+00
0	 1.111111e+00	 2.888889e+00	 8.965272e+00
0	 1.111111e+00	 2.962963e+00	 8.969012e+00
0	 1.185185e+00	 2.592593e+00	 9.129451e+00
0	 1.185185e+00	 2.666667e+00	 9.126726e+00
0	 1.185185e+00	 2.740741e+00	 9.121875e+00
0	 1.185185e+00	 2.814815e+00	 9.115939e+00
0	 1.185185e+00	 2.888889e+00	 9.109959e+00
0	 1.185185e+00	 2.962963e+00	 9.104974e+00
0	 1.259259e+00	 2.592593e+00	 9.316898e+00
0	 1.259259e+00	 2.666667e+00	 9.299585e+00
0	 1.259259e+00	 2.740741e+00	 9.282351e+00
0	 1.259259e+00	 2.814815e+00	 9.265974e+00
0	 1.259259e+00	 2.888889e+00	 9.251232e+00
0	 1.259259e+00	 2.962963e+00	 9.238903e+00
0	 1.333333e+00	 2.592593e+00	 9.495611e+00
0	 1.333333e+00	 2.666667e+00	 9.464814e+00
0	 1.333333e+00	 2.740741e+00	 9.436317e+00
0	 1.333333e+00	 2.814815e+00	 9.410625e+00
0	 1.333333e+00	 2.888889e+00	 9.388243e+00
0	 1.333333e+00	 2.962963e+00	 9.369676e+00
0	 1.407407e+00	 2.592593e+00	 9.663752e+00
0	 1.407407e+00	 2.666667e+00	 9.621137e+00
0	 1.407407e+00	 2.740741e+00	 9.582847e+00
0	 1.407407e+00	 2.814815e+00	 9.549108e+00
0	 1.407407e+00	 2.888889e+00	 9.520142e+00
0	 1.407407e+00	 2.962963e+00	 9.496173e+00
0	 1.481481e+00	 2.592593e+00	 9.819485e+00
0	 1.481481e+00	 2.666667e+00	 9.767274e+00
0	 1.481481e+00	 2.740741e+00	 9.721013e+00
0	 1.481481e+00	 2.814815e+00	 9.680638e+00
0	 1.481481e+00	 2.888889e+00	 9.646079e+00
0	 1.481481e+00	 2.962963e+00	 9.617271e+00
0	 1.111111e+00	 2.962963e+00	 8.969012e+00
0	 1.111111e+00	 3.037037e+00	 8.975145e+00
0	 1.111111e+00	 3.111111e+00	 8.985217e+00
0	 1.111111e+00	 3.185185e+00	 8.998908e+00
0	 1.111111e+00	 3.259259e+00	 9.015898e+00
0	 1.111111e+00	 3.333333e+00	 9.035868e+00
0	 1.185185e+00	 2.962963e+00	 9.104974e+00
0	 1.185185e+00	 3.037037e+00	 9.103055e+00
0	 1.185185e+00	 3.111111e+00	 9.105426e+00
0	 1.185185e+00	 3.185185e+00	 9.111859e+00
0	 1.185185e+00	 3.259259e+00	 9.122125e+00
0	 1.185185e+00	 3.333333e+00	 9.135997e+00
0	 1.259259e+00	 2.962963e+00	 9.238903e+00
0	 1.259259e+00	 3.037037e+00	 9.230190e+00
0	 1.259259e+00	 3.111111e+00	 9.225695e+00
0	 1.259259e+00	 3.185185e+00	 9.225293e+00
0	 1.259259e+00	 3.259259e+00	 9.228858e+00
0	 1.259259e+00	 3.333333e+00	 9.236265e+00
0	 1.333333e+00	 2.962963e+00	 9.369676e+00
0	 1.333333e+00	 3.037037e+00	 9.355127e+00
0	 1.333333e+00	 3.111111e+00	 9.344452e+00
0	 1.333333e+00	 3.185185e+00	 9.337639e+00
0	 1.333333e+00	 3.259259e+00	 9.334677e+00
0	 1.333333e+00	 3.333333e+00	 9.335554e+00
0	 1.407407e+00	 2.962963e+00	 9.496173e+00
0	 1.407407e+00	 3.037037e+00	 9.476444e+00
0	 1.407407e+00	 3.111111e+00	 9.460123e+00
0	 1.407407e+00	 3.185185e+00	 9.447325e+00
0	 1.407407e+00	 3.259259e+00	 9.438162e+00
0	 1.407407e+00	 3.333333e+00	 9.432746e+00
0	 1.481481e+00	 2.962963e+00	 9.617271e+00
0	 1.481481e+00	 3.037037e+00	 9.592718e+00
0	 1.481481e+00	 3.111111e+00	 9.571138e+00
0	 1.481481e+00	 3.185185e+00	 9.552780e+00
0	 1.481481e+00	 3.259259e+00	 9.537891e+00
0	 1.481481e+00	 3.333333e+00	 9.526722e+00
0	 1.111111e+00	 3.333333e+00	 9.035868e+00
0	 1.111111e+00	 3.407407e+00	 9.056756e+00
0	 1.111111e+00	 3.481481e+00	 9.076963e+00
0	 1.111111e+00	 3.555556e+00	 9.096861e+00
0	 1.111111e+00	 3.629630e+00	 9.116823e+00
0	 1.111111e+00	 3.703704e+00	 9.137223e+00
0	 1.185185e+00	 3.333333e+00	 9.135997e+00
0	 1.185185e+00	 3.407407e+00	 9.151211e+00
0	 1.185185e+00	 3.481481e+00	 9.165897e+00
0	 1.185185e+00	 3.555556e+00	 9.180420e+00
0	 1.185185e+00	 3.629630e+00	 9.195145e+00
0	 1.185185e+00	 3.703704e+00	 9.210435e+00
0	 1.259259e+00	 3.333333e+00	 9.236265e+00
0	 1.259259e+00	 3.407407e+00	 9.245395e+00
0	 1.259259e+00	 3.481481e+00	 9.254433e+00
0	 1.259259e+00	 3.555556e+00	 9.263713e+00
0	 1.259259e+00	 3.629630e+00	 9.273566e+00
0	 1.259259e+00	 3.703704e+00	 9.284327e+00
0	 1.333333e+00	 3.333333e+00	 9.335554e+00
0	 1.333333e+00	 3.407407e+00	 9.338512e+00
0	 1.333333e+00	 3.481481e+00	 9.341987e+00
0	 1.333333e+00	 3.555556e+00	 9.346256e+00
0	 1.333333e+00	 3.629630e+00	 9.351598e+00
0	 1.333333e+00	 3.703704e+00	 9.358289e+00
0	 1.407407e+00	 3.333333e+00	 9.432746e+00
0	 1.407407e+00	 3.407407e+00	 9.429768e+00
0	 1.407407e+00	 3.481481e+00	 9.427976e+00
0	 1.407407e+00	 3.555556e+00	 9.427570e+00
0	 1.407407e+00	 3.629630e+00	 9.428749e+00
0	 1.407407e+00	 3.703704e+00	 9.431713e+00
0	 1.481481e+00	 3.333333e+00	 9.526722e+00
0	 1.481481e+00	 3.407407e+00	 9.518366e+00
0	 1.481481e+00	 3.481481e+00	 9.511816e+00
0	 1.481481e+00	 3.555556e+00	 9.507171e+00
0	 1.481481e+00	 3.629630e+00	 9.504530e+00
0	 1.481481e+00	 3.703704e+00	 9.503990e+00
0	 1.111111e+00	 3.703704e+00	 9.137223e+00
0	 1.111111e+00	 3.777778e+00	 9.158046e+00
0	 1.111111e+00	 3.851852e+00	 9.178994e+00
0	 1.111111e+00	 3.925926e+00	 9.200015e+00
0	 1.111111e+00	 4.000000e+00	 9.221058e+00
0	 1.111111e+00	 4.074074e+00	 9.242070e+00
0	 1.185185e+00	 3.703704e+00	 9.210435e+00
0	 1.185185e+00	 3.777778e+00	 9.226455e+00
0	 1.185185e+00	 3.851852e+00	 9.243083e+00
0	 1.185185e+00	 3.925926e+00	 9.260259e+00
0	 1.185185e+00	 4.000000e+00	 9.277920e+00
0	 1.185185e+00	 4.074074e+00	 9.296005e+00
0	 1.259259e+00	 3.703704e+00	 9.284327e+00
0	 1.259259e+00	 3.777778e+00	 9.296097e+00
0	 1.259259e+00	 3.851852e+00	 9.308721e+00
0	 1.259259e+00	 3.925926e+00	 9.322147e+00
0	 1.259259e+00	 4.000000e+00	 9.336318e+00
0	 1.259259e+00	 4.074074e+00	 9.351182e+00
0	 1.333333e+00	 3.703704e+00	 9.358289e+00
0	 1.333333e+00	 3.777778e+00	 9.366224e+00
0	 1.333333e+00	 3.851852e+00	 9.375093e+00
0	 1.333333e+00	 3.925926e+00	 9.384865e+00
0	 1.333333e+00	 4.000000e+00	 9.395511e+00
0	 1.333333e+00	 4.074074e+00	 9.407004e+00
0	 1.407407e+00	 3.703704e+00	 9.431713e+00
0	 1.407407e+00	 3.777778e+00	 9.436090e+00
0	 1.407407e+00	 3.851852e+00	 9.441381e+00
0	 1.407407e+00	 3.925926e+00	 9.447599e+00
0	 1.407407e+00	 4.000000e+00	 9.454759e+00
0	 1.407407e+00	 4.074074e+00	 9.462872e+00
0	 1.481481e+00	 3.703704e+00	 9.503990e+00
0	 1.481481e+00	 3.777778e+00	 9.504945e+00
0	 1.481481e+00	 3.851852e+00	 9.506770e+00
0	 1.481481e+00	 3.925926e+00	 9.509537e+00
0	 1.481481e+00	 4.000000e+00	 9.513320e+00
0	 1.481481e+00	 4.074074e+00	 9.518190e+00
0	 1.111111e+00	 4.074074e+00	 9.242070e+00
0	 1.111111e+00	 4.148148e+00	 9.262790e+00
0	 1.111111e+00	 4.222222e+00	 9.283057e+00
0	 1.111111e+00	 4.296296e+00	 9.302969e+00
0	 1.111111e+00	 4.370370e+00	 9.322626e+00
0	 1.111111e+00	 4.444444e+00	 9.342126e+00
0	 1.185185e+00	 4.074074e+00	 9.296005e+00
0	 1.185185e+00	 4.148148e+00	 9.314011e+00
0	 1.185185e+00	 4.222222e+00	 9.331557e+00
0	 1.185185e+00	 4.296296e+00	 9.348768e+00
0	 1.185185e+00	 4.370370e+00	 9.365766e+00
0	 1.185185e+00	 4.444444e+00	 9.382675e+00
0	 1.259259e+00	 4.074074e+00	 9.351182e+00
0	 1.259259e+00	 4.148148e+00	 9.366168e+00
0	 1.259259e+00	 4.222222e+00	 9.380831e+00
0	 1.259259e+00	 4.296296e+00	 9.395303e+00
0	 1.259259e+00	 4.370370e+00	 9.409717e+00
0	 1.259259e+00	 4.444444e+00	 9.424205e+00
0	 1.333333e+00	 4.074074e+00	 9.407004e+00
0	 1.333333e+00	 4.148148e+00	 9.418820e+00
0	 1.333333e+00	 4.222222e+00	 9.430542e+00
0	 1.333333e+00	 4.296296e+00	 9.442297e+00
0	 1.333333e+00	 4.370370e+00	 9.454213e+00
0	 1.333333e+00	 4.444444e+00	 9.466415e+00
0	 1.407407e+00	 4.074074e+00	 9.462872e+00
0	 1.407407e+00	 4.148148e+00	 9.471522e+00
0	 1.407407e+00	 4.222222e+00	 9.480354e+00
0	 1.407407e+00	 4.296296e+00	 9.489475e+00
0	 1.407407e+00	 4.370370e+00	 9.498989e+00
0	 1.407407e+00	 4.444444e+00	 9.509004e+00
0	 1.481481e+00	 4.074074e+00	 9.518190e+00
0	 1.481481e+00	 4.148148e+00	 9.523834e+00
0	 1.481481e+00	 4.222222e+00	 9.529933e+00
0	 1.481481e+00	 4.296296e+00	 9.536559e+00
0	 1.481481e+00	 4.370370e+00	 9.543782e+00
0	 1.481481e+00	 4.444444e+00	 9.551672e+00
0	 1.111111e+00	 4.444444e+00	 9.342126e+00
0	 1.111111e+00	 4.518519e+00	 9.361398e+00
0	 1.111111e+00	 4.592593e+00	 9.380294e+00
0	 1.111111e+00	 4.666667e+00	 9.398804e+00
0	 1.111111e+00	 4.740741e+00	 9.416918e+00
0	 1.111111e+00	 4.814815e+00	 9.434626e+00
0	 1.185185e+00	 4.444444e+00	 9.382675e+00
0	 1.185185e+00	 4.518519e+00	 9.399513e+00
0	 1.185185e+00	 4.592593e+00	 9.416202e+00
0	 1.185185e+00	 4.666667e+00	 9.432718e+00
0	 1.185185e+00	 4.740741e+00	 9.449041e+00
0	 1.185185e+00	 4.814815e+00	 9.465148e+00
0	 1.259259e+00	 4.444444e+00	 9.424205e+00
0	 1.259259e+00	 4.518519e+00	 9.438777e+00
0	 1.259259e+00	 4.592593e+00	 9.453338e+00
0	 1.259259e+00	 4.666667e+00	 9.467863e+00
0	 1.259259e+00	 4.740741e+00	 9.482327e+00
0	 1.259259e+00	 4.814815e+00	 9.496705e+00
0	 1.333333e+00	 4.444444e+00	 9.466415e+00
0	 1.333333e+00	 4.518519e+00	 9.478842e+00
0	 1.333333e+00	 4.592593e+00	 9.491333e+00
0	 1.333333e+00	 4.666667e+00	 9.503870e+00
0	 1.333333e+00	 4.740741e+00	 9.516435e+00
0	 1.333333e+00	 4.814815e+00	 9.529009e+00
0	 1.407407e+00	 4.444444e+00	 9.509004e+00
0	 1.407407e+00	 4.518519e+00	 9.519358e+00
0	 1.407407e+00	 4.592593e+00	 9.529814e+00
0	 1.407407e+00	 4.666667e+00	 9.540371e+00
0	 1.407407e+00	 4.740741e+00	 9.551024e+00
0	 1.407407e+00	 4.814815e+00	 9.561770e+00
0	 1.481481e+00	 4.444444e+00	 9.551672e+00
0	 1.481481e+00	 4.518519e+00	 9.559977e+00
0	 1.481481e+00	 4.592593e+00	 9.568411e+00
0	 1.481481e+00	 4.666667e+00	 9.576996e+00
0	 1.481481e+00	 4.740741e+00	 9.585752e+00
0	 1.481481e+00	 4.814815e+00	 9.594699e+00
0	 1.111111e+00	 4.814815e+00	 9.434626e+00
0	 1.111111e+00	 4.888889e+00	 9.451918e+00
0	 1.111111e+00	 4.962963e+00	 9.468809e+00
0	 1.111111e+00	 5.037037e+00	 9.485331e+00
0	 1.111111e+00	 5.111111e+00	 9.501512e+00
0	 1.111111e+00	 5.185185e+00	 9.517383e+00
0	 1.185185e+00	 4.814815e+00	 9.465148e+00
0	 1.185185e+00	 4.888889e+00	 9.480937e+00
0	 1.185185e+00	 4.962963e+00	 9.496347e+00
0	 1.185185e+00	 5.037037e+00	 9.511422e+00
0	 1.185185e+00	 5.111111e+00	 9.526203e+00
0	 1.185185e+00	 5.185185e+00	 9.540734e+00
0	 1.259259e+00	 4.814815e+00	 9.496705e+00
0	 1.259259e+00	 4.888889e+00	 9.510862e+00
0	 1.259259e+00	 4.962963e+00	 9.524709e+00
0	 1.259259e+00	 5.037037e+00	 9.538296e+00
0	 1.259259e+00	 5.111111e+00	 9.551673e+00
0	 1.259259e+00	 5.185185e+00	 9.564888e+00
0	 1.333333e+00	 4.814815e+00	 9.529009e+00
0	 1.333333e+00	 4.888889e+00	 9.541460e+00
0	 1.333333e+00	 4.962963e+00	 9.553704e+00
0	 1.333333e+00	 5.037037e+00	 9.565790e+00
0	 1.333333e+00	 5.111111e+00	 9.577767e+00
0	 1.333333e+00	 5.185185e+00	 9.589686e+00
0	 1.407407e+00	 4.814815e+00	 9.561770e+00
0	 1.407407e+00	 4.888889e+00	 9.572501e+00
0	 1.407407e+00	 4.962963e+00	 9.583143e+00
0	 1.407407e+00	 5.037037e+00	 9.593739e+00
0	 1.407407e+00	 5.111111e+00	 9.604333e+00
0	 1.407407e+00	 5.185185e+00	 9.614969e+00
0	 1.481481e+00	 4.814815e+00	 9.594699e+00
0	 1.481481e+00	 4.888889e+00	 9.603753e+00
0	 1.481481e+00	 4.962963e+00	 9.612835e+00
0	 1.481481e+00	 5.037037e+00	 9.621978e+00
0	 1.481481e+00	 5.111111e+00	 9.631215e+00
0	 1.481481e+00	 5.185185e+00	 9.640579e+00
0	 1.111111e+00	 5.185185e+00	 9.517383e+00
0	 1.111111e+00	 5.259259e+00	 9.532929e+00
0	 1.111111e+00	 5.333333e+00	 9.548111e+00
0	 1.111111e+00	 5.407407e+00	 9.562926e+00
0	 1.111111e+00	 5.481481e+00	 9.577372e+00
0	 1.111111e+00	 5.555556e+00	 9.591444e+00
0	 1.185185e+00	 5.185185e+00	 9.540734e+00
0	 1.185185e+00	 5.259259e+00	 9.555019e+00
0	 1.185185e+00	 5.333333e+00	 9.569030e+00
0	 1.185185e+00	 5.407407e+00	 9.582760e+00
0	 1.185185e+00	 5.481481e+00	 9.596202e+00
0	 1.185185e+00	 5.555556e+00	 9.609349e+00
0	 1.259259e+00	 5.185185e+00	 9.564888e+00
0	 1.259259e+00	 5.259259e+00	 9.577936e+00
0	 1.259259e+00	 5.333333e+00	 9.590777e+00
0	 1.259259e+00	 5.407407e+00	 9.603401e+00
0	 1.259259e+00	 5.481481e+00	 9.615801e+00
0	 1.259259e+00	 5.555556e+00	 9.627970e+00
0	 1.333333e+00	 5.185185e+00	 9.589686e+00
0	 1.333333e+00	 5.259259e+00	 9.601513e+00
0	 1.333333e+00	 5.333333e+00	 9.613181e+00
0	 1.333333e+00	 5.407407e+00	 9.624683e+00
0	 1.333333e+00	 5.481481e+00	 9.636014e+00
0	 1.333333e+00	 5.555556e+00	 9.647168e+00
0	 1.407407e+00	 5.185185e+00	 9.614969e+00
0	 1.407407e+00	 5.259259e+00	 9.625580e+00
0	 1.407407e+00	 5.333333e+00	 9.636070e+00
0	 1.407407e+00	 5.407407e+00	 9.646437e+00
0	 1.407407e+00	 5.481481e+00	 9.656682e+00
0	 1.407407e+00	 5.555556e+00	 9.666805e+00
0	 1.481481e+00	 5.185185e+00	 9.640579e+00
0	 1.481481e+00	 5.259259e+00	 9.649970e+00
0	 1.481481e+00	 5.333333e+00	 9.659273e+00
0	 1.481481e+00	 5.407407e+00	 9.668497e+00
0	 1.481481e+00	 5.481481e+00	 9.677650e+00
0	 1.481481e+00	 5.555556e+00	 9.686741e+00
0	 1.111111e+00	 5.555556e+00	 9.591444e+00
0	 1.111111e+00	 5.629630e+00	 9.605167e+00
0	 1.111111e+00	 5.703704e+00	 9.618570e+00
0	 1.111111e+00	 5.777778e+00	 9.631663e+00
0	 1.111111e+00	 5.851852e+00	 9.644457e+00
0	 1.111111e+00	 5.925926e+00	 9.656961e+00
0	 1.185185e+00	 5.555556e+00	 9.609349e+00
0	 1.185185e+00	 5.629630e+00	 9.622194e+00
0	 1.185185e+00	 5.703704e+00	 9.634747e+00
0	 1.185185e+00	 5.777778e+00	 9.647021e+00
0	 1.185185e+00	 5.851852e+00	 9.659030e+00
0	 1.185185e+00	 5.925926e+00	 9.670790e+00
0	 1.259259e+00	 5.555556e+00	 9.627970e+00
0	 1.259259e+00	 5.629630e+00	 9.639887e+00
0	 1.259259e+00	 5.703704e+00	 9.651550e+00
0	 1.259259e+00	 5.777778e+00	 9.662976e+00
0	 1.259259e+00	 5.851852e+00	 9.674183e+00
0	 1.259259e+00	 5.925926e+00	 9.685187e+00
0	 1.333333e+00	 5.555556e+00	 9.647168e+00
0	 1.333333e+00	 5.629630e+00	 9.658123e+00
0	 1.333333e+00	 5.703704e+00	 9.668873e+00
0	 1.333333e+00	 5.777778e+00	 9.679435e+00
0	 1.333333e+00	 5.851852e+00	 9.689826e+00
0	 1.333333e+00	 5.925926e+00	 9.700064e+00
0	 1.407407e+00	 5.555556e+00	 9.666805e+00
0	 1.407407e+00	 5.629630e+00	 9.676784e+00
0	 1.407407e+00	 5.703704e+00	 9.686611e+00
0	 1.407407e+00	 5.777778e+00	 9.696301e+00
0	 1.407407e+00	 5.851852e+00	 9.705870e+00
0	 1.407407e+00	 5.925926e+00	 9.715336e+00
0	 1.481481e+00	 5.555556e+00	 9.686741e+00
0	 1.481481e+00	 5.629630e+00	 9.695749e+00
0	 1.481481e+00	 5.703704e+00	 9.704657e+00
0	 1.481481e+00	 5.777778e+00	 9.713479e+00
0	 1.481481e+00	 5.851852e+00	 9.722227e+00
0	 1.481481e+00	 5.925926e+00	 9.730914e+00
0	 1.111111e+00	 5.925926e+00	 9.656961e+00
0	 1.111111e+00	 6.000000e+00	 9.669179e+00
0	 1.111111e+00	 6.074074e+00	 9.681109e+00
0	 1.111111e+00	 6.148148e+00	 9.692752e+00
0	 1.111111e+00	 6.222222e+00	 9.704105e+00
0	 1.111111e+00	 6.296296e+00	 9.715170e+00
0	 1.185185e+00	 5.925926e+00	 9.670790e+00
0	 1.185185e+00	 6.000000e+00	 9.682304e+00
0	 1.185185e+00	 6.074074e+00	 9.693569e+00
0	 1.185185e+00	 6.148148e+00	 9.704582e+00
0	 1.185185e+00	 6.222222e+00	 9.715342e+00
0	 1.185185e+00	 6.296296e+00	 9.725850e+00
0	 1.259259e+00	 5.925926e+00	 9.685187e+00
0	 1.259259e+00	 6.000000e+00	 9.695986e+00
0	 1.259259e+00	 6.074074e+00	 9.706568e+00
0	 1.259259e+00	 6.148148e+00	 9.716931e+00
0	 1.259259e+00	 6.222222e+00	 9.727076e+00
0	 1.259259e+00	 6.296296e+00	 9.737000e+00
0	 1.333333e+00	 5.925926e+00	 9.700064e+00
0	 1.333333e+00	 6.000000e+00	 9.710138e+00
0	 1.333333e+00	 6.074074e+00	 9.720023e+00
0	 1.333333e+00	 6.148148e+00	 9.729720e+00
0	 1.333333e+00	 6.222222e+00	 9.739229e+00
0	 1.333333e+00	 6.296296e+00	 9.748550e+00
0	 1.407407e+00	 5.925926e+00	 9.715336e+00
0	 1.407407e+00	 6.000000e+00	 9.724674e+00
0	 1.407407e+00	 6.074074e+00	 9.733850e+00
0	 1.407407e+00	 6.148148e+00	 9.742867e+00
0	 1.407407e+00	 6.222222e+00	 9.751726e+00
0	 1.407407e+00	 6.296296e+00	 9.760431e+00
0	 1.481481e+00	 5.925926e+00	 9.730914e+00
0	 1.481481e+00	 6.000000e+00	 9.739507e+00
0	 1.481481e+00	 6.074074e+00	 9.747964e+00
0	 1.481481e+00	 6.148148e+00	 9.756291e+00
0	 1.481481e+00	 6.222222e+00	 9.764492e+00
0	 1.481481e+00	 6.296296e+00	 9.772572e+00
0	 1.111111e+00	 6.296296e+00	 9.715170e+00
0	 1.111111e+00	 6.370370e+00	 9.725965e+00
0	 1.111111e+00	 6.444444e+00	 9.736511e+00
0	 1.111111e+00	 6.518519e+00	 9.746813e+00
0	 1.111111e+00	 6.592593e+00	 9.756875e+00
0	 1.111111e+00	 6.666667e+00	 9.766700e+00
0	 1.185185e+00	 6.296296e+00	 9.725850e+00
0	 1.185185e+00	 6.370370e+00	 9.736114e+00
0	 1.185185e+00	 6.444444e+00	 9.746149e+00
0	 1.185185e+00	 6.518519e+00	 9.755960e+00
0	 1.185185e+00	 6.592593e+00	 9.765552e+00
0	 1.185185e+00	 6.666667e+00	 9.774932e+00
0	 1.259259e+00	 6.296296e+00	 9.737000e+00
0	 1.259259e+00	 6.370370e+00	 9.746708e+00
0	 1.259259e+00	 6.444444e+00	 9.756209e+00
0	 1.259259e+00	 6.518519e+00	 9.765510e+00
0	 1.259259e+00	 6.592593e+00	 9.774617e+00
0	 1.259259e+00	 6.666667e+00	 9.783536e+00
0	 1.333333e+00	 6.296296e+00	 9.748550e+00
0	 1.333333e+00	 6.370370e+00	 9.757684e+00
0	 1.333333e+00	 6.444444e+00	 9.766635e+00
0	 1.333333e+00	 6.518519e+00	 9.775411e+00
0	 1.333333e+00	 6.592593e+00	 9.784019e+00
0	 1.333333e+00	 6.666667e+00	 9.792464e+00
0	 1.407407e+00	 6.296296e+00	 9.760431e+00
0	 1.407407e+00	 6.370370e+00	 9.768978e+00
0	 1.407407e+00	 6.444444e+00	 9.777369e+00
0	 1.407407e+00	 6.518519e+00	 9.785610e+00
0	 1.407407e+00	 6.592593e+00	 9.793707e+00
0	 1.407407e+00	 6.666667e+00	 9.801669e+00
0	 1.481481e+00	 6.296296e+00	 9.772572e+00
0	 1.481481e+00	 6.370370e+00	 9.780527e+00
0	 1.481481e+00	 6.444444e+00	 9.788351e+00
0	 1.481481e+00	 6.518519e+00	 9.796051e+00
0	 1.481481e+00	 6.592593e+00	 9.803633e+00
0	 1.481481e+00	 6.666667e+00	 9.811102e+00
0	 1.111111e+00	 6.666667e+00	 9.766700e+00
0	 1.111111e+00	 6.740741e+00	 9.776295e+00
0	 1.111111e+00	 6.814815e+00	 9.785664e+00
0	 1.111111e+00	 6.888889e+00	 9.794810e+00
0	 1.111111e+00	 6.962963e+00	 9.803732e+00
0	 1.111111e+00	 7.037037e+00	 9.812434e+00
0	 1.185185e+00	 6.666667e+00	 9.774932e+00
0	 1.185185e+00	 6.740741e+00	 9.784102e+00
0	 1.185185e+00	 6.814815e+00	 9.793066e+00
0	 1.185185e+00	 6.888889e+00	 9.801823e+00
0	 1.185185e+00	 6.962963e+00	 9.810377e+00
0	 1.185185e+00	 7.037037e+00	 9.818727e+00
0	 1.259259e+00	 6.666667e+00	 9.783536e+00
0	 1.259259e+00	 6.740741e+00	 9.792267e+00
0	 1.259259e+00	 6.814815e+00	 9.800809e+00
0	 1.259259e+00	 6.888889e+00	 9.809163e+00
0	 1.259259e+00	 6.962963e+00	 9.817332e+00
0	 1.259259e+00	 7.037037e+00	 9.825316e+00
0	 1.333333e+00	 6.666667e+00	 9.792464e+00
0	 1.333333e+00	 6.740741e+00	 9.800743e+00
0	 1.333333e+00	 6.814815e+00	 9.808851e+00
0	 1.333333e+00	 6.888889e+00	 9.816788e+00
0	 1.333333e+00	 6.962963e+00	 9.824558e+00
0	 1.333333e+00	 7.037037e+00	 9.832162e+00
0	 1.407407e+00	 6.666667e+00	 9.801669e+00
0	 1.407407e+00	 6.740741e+00	 9.809485e+00
0	 1.407407e+00	 6.814815e+00	 9.817147e+00
0	 1.407407e+00	 6.888889e+00	 9.824656e+00
0	 1.407407e+00	 6.962963e+00	 9.832016e+00
0	 1.407407e+00	 7.037037e+00	 9.839230e+00
0	 1.481481e+00	 6.666667e+00	 9.811102e+00
0	 1.481481e+00	 6.740741e+00	 9.818447e+00
0	 1.481481e+00	 6.814815e+00	 9.825654e+00
0	 1.481481e+00	 6.888889e+00	 9.832726e+00
0	 1.481481e+00	 6.962963e+00	 9.839668e+00
0	 1.481481e+00	 7.037037e+00	 9.846483e+00
0	 1.111111e+00	 7.037037e+00	 9.812434e+00
0	 1.111111e+00	 7.111111e+00	 9.820923e+00
0	 1.111111e+00	 7.185185e+00	 9.829210e+00
0	 1.111111e+00	 7.259259e+00	 9.837299e+00
0	 1.111111e+00	 7.333333e+00	 9.845192e+00
0	 1.111111e+00	 7.407407e+00	 9.852892e+00
0	 1.185185e+00	 7.037037e+00	 9.818727e+00
0	 1.185185e+00	 7.111111e+00	 9.826881e+00
0	 1.185185e+00	 7.185185e+00	 9.834845e+00
0	 1.185185e+00	 7.259259e+00	 9.842622e+00
0	 1.185185e+00	 7.333333e+00	 9.850217e+00
0	 1.185185e+00	 7.407407e+00	 9.857633e+00
0	 1.259259e+00	 7.037037e+00	 9.825316e+00
0	 1.259259e+00	 7.111111e+00	 9.833118e+00
0	 1.259259e+00	 7.185185e+00	 9.840744e+00
0	 1.259259e+00	 7.259259e+00	 9.848197e+00
0	 1.259259e+00	 7.333333e+00	 9.855481e+00
0	 1.259259e+00	 7.407407e+00	 9.862600e+00
0	 1.333333e+00	 7.037037e+00	 9.832162e+00
0	 1.333333e+00	 7.111111e+00	 9.839601e+00
0	 1.333333e+00	 7.185185e+00	 9.846877e+00
0	 1.333333e+00	 7.259259e+00	 9.853994e+00
0	 1.333333e+00	 7.333333e+00	 9.860957e+00
0	 1.333333e+00	 7.407407e+00	 9.867769e+00
0	 1.407407e+00	 7.037037e+00	 9.839230e+00
0	 1.407407e+00	 7.111111e+00	 9.846295e+00
0	 1.407407e+00	 7.185185e+00	 9.853212e+00
0	 1.407407e+00	 7.259259e+00	 9.859984e+00
0	 1.407407e+00	 7.333333e+00	 9.866616e+00
0	 1.407407e+00	 7.407407e+00	 9.873112e+00
0	 1.481481e+00	 7.037037e+00	 9.846483e+00
0	 1.481481e+00	 7.111111e+00	 9.853168e+00
0	 1.481481e+00	 7.185185e+00	 9.859718e+00
0	 1.481481e+00	 7.259259e+00	 9.866138e+00
0	 1.481481e+00	 7.333333e+00	 9.872432e+00
0	 1.481481e+00	 7.407407e+00	 9.878604e+00
0	 1.111111e+00	 7.407407e+00	 9.852892e+00
0	 1.111111e+00	 7.481481e+00	 9.860400e+00
0	 1.111111e+00	 7.555556e+00	 9.867717e+00
0	 1.111111e+00	 7.629630e+00	 9.874846e+00
0	 1.111111e+00	 7.703704e+00	 9.881791e+00
0	 1.111111e+00	 7.777778e+00	 9.888555e+00
0	 1.185185e+00	 7.407407e+00	 9.857633e+00
0	 1.185185e+00	 7.481481e+00	 9.864868e+00
0	 1.185185e+00	 7.555556e+00	 9.871924e+00
0	 1.185185e+00	 7.629630e+00	 9.878801e+00
0	 1.185185e+00	 7.703704e+00	 9.885505e+00
0	 1.185185e+00	 7.777778e+00	 9.892038e+00
0	 1.259259e+00	 7.407407e+00	 9.862600e+00
0	 1.259259e+00	 7.481481e+00	 9.869552e+00
0	 1.259259e+00	 7.555556e+00	 9.876334e+00
0	 1.259259e+00	 7.629630e+00	 9.882948e+00
0	 1.259259e+00	 7.703704e+00	 9.889400e+00
0	 1.259259e+00	 7.777778e+00	 9.895691e+00
0	 1.333333e+00	 7.407407e+00	 9.867769e+00
0	 1.333333e+00	 7.481481e+00	 9.874426e+00
0	 1.333333e+00	 7.555556e+00	 9.880924e+00
0	 1.333333e+00	 7.629630e+00	 9.887265e+00
0	 1.333333e+00	 7.703704e+00	 9.893455e+00
0	 1.333333e+00	 7.777778e+00	 9.899495e+00
0	 1.407407e+00	 7.407407e+00	 9.873112e+00
0	 1.407407e+00	 7.481481e+00	 9.879466e+00
0	 1.407407e+00	 7.555556e+00	 9.885671e+00
0	 1.407407e+00	 7.629630e+00	 9.891731e+00
0	 1.407407e+00	 7.703704e+00	 9.897650e+00
0	 1.407407e+00	 7.777778e+00	 9.903431e+00
0	 1.481481e+00	 7.407407e+00	 9.878604e+00
0	 1.481481e+00	 7.481481e+00	 9.884646e+00
0	 1.481481e+00	 7.555556e+00	 9.890551e+00
0	 1.481481e+00	 7.629630e+00	 9.896322e+00
0	 1.481481e+00	 7.703704e+00	 9.901963e+00
0	 1.481481e+00	 7.777778e+00	 9.907479e+00
0	 1.111111e+00	 7.777778e+00	 9.888555e+00
0	 1.111111e+00	 7.851852e+00	 9.895135e+00
0	 1.111111e+00	 7.925926e+00	 9.901530e+00
0	 1.111111e+00	 8.000000e+00	 9.907744e+00
0	 1.111111e+00	 8.074074e+00	 9.913783e+00
0	 1.111111e+00	 8.148148e+00	 9.919651e+00
0	 1.185185e+00	 7.777778e+00	 9.892038e+00
0	 1.185185e+00	 7.851852e+00	 9.898396e+00
0	 1.185185e+00	 7.925926e+00	 9.904578e+00
0	 1.185185e+00	 8.000000e+00	 9.910587e+00
0	 1.185185e+00	 8.074074e+00	 9.916429e+00
0	 1.185185e+00	 8.148148e+00	 9.922108e+00
0	 1.259259e+00	 7.777778e+00	 9.895691e+00
0	 1.259259e+00	 7.851852e+00	 9.901818e+00
0	 1.259259e+00	 7.925926e+00	 9.907776e+00
0	 1.259259e+00	 8.000000e+00	 9.913571e+00
0	 1.259259e+00	 8.074074e+00	 9.919207e+00
0	 1.259259e+00	 8.148148e+00	 9.924688e+00
0	 1.333333e+00	 7.777778e+00	 9.899495e+00
0	 1.333333e+00	 7.851852e+00	 9.905381e+00
0	 1.333333e+00	 7.925926e+00	 9.911108e+00
0	 1.333333e+00	 8.000000e+00	 9.916679e+00
0	 1.333333e+00	 8.074074e+00	 9.922101e+00
0	 1.333333e+00	 8.148148e+00	 9.927377e+00
0	 1.407407e+00	 7.777778e+00	 9.903431e+00
0	 1.407407e+00	 7.851852e+00	 9.909069e+00
0	 1.407407e+00	 7.925926e+00	 9.914555e+00
0	 1.407407e+00	 8.000000e+00	 9.919896e+00
0	 1.407407e+00	 8.074074e+00	 9.925096e+00
0	 1.407407e+00	 8.148148e+00	 9.930160e+00
0	 1.481481e+00	 7.777778e+00	 9.907479e+00
0	 1.481481e+00	 7.851852e+00	 9.912862e+00
0	 1.481481e+00	 7.925926e+00	 9.918102e+00
0	 1.481481e+00	 8.000000e+00	 9.923206e+00
0	 1.481481e+00	 8.074074e+00	 9.928179e+00
0	 1.481481e+00	 8.148148e+00	 9.933024e+00
0	 1.111111e+00	 8.148148e+00	 9.919651e+00
0	 1.111111e+00	 8.222222e+00	 9.925338e+00
0	 1.111111e+00	 8.296296e+00	 9.930836e+00
0	 1.111111e+00	 8.370370e+00	 9.936150e+00
0	 1.111111e+00	 8.444444e+00	 9.941287e+00
0	 1.111111e+00	 8.518519e+00	 9.946252e+00
0	 1.185185e+00	 8.148148e+00	 9.922108e+00
0	 1.185185e+00	 8.222222e+00	 9.927615e+00
0	 1.185185e+00	 8.296296e+00	 9.932938e+00
0	 1.185185e+00	 8.370370e+00	 9.938086e+00
0	 1.185185e+00	 8.444444e+00	 9.943063e+00
0	 1.185185e+00	 8.518519e+00	 9.947874e+00
0	 1.259259e+00	 8.148148e+00	 9.924688e+00
0	 1.259259e+00	 8.222222e+00	 9.930005e+00
0	 1.259259e+00	 8.296296e+00	 9.935147e+00
0	 1.259259e+00	 8.370370e+00	 9.940119e+00
0	 1.259259e+00	 8.444444e+00	 9.944928e+00
0	 1.259259e+00	 8.518519e+00	 9.949580e+00
0	 1.333333e+00	 8.148148e+00	 9.927377e+00
0	 1.333333e+00	 8.222222e+00	 9.932496e+00
0	 1.333333e+00	 8.296296e+00	 9.937448e+00
0	 1.333333e+00	 8.370370e+00	 9.942239e+00
0	 1.333333e+00	 8.444444e+00	 9.946874e+00
0	 1.333333e+00	 8.518519e+00	 9.951358e+00
0	 1.407407e+00	 8.148148e+00	 9.930160e+00
0	 1.407407e+00	 8.222222e+00	 9.935075e+00
0	 1.407407e+00	 8.296296e+00	 9.939831e+00
0	 1.407407e+00	 8.370370e+00	 9.944433e+00
0	 1.407407e+00	 8.444444e+00	 9.948888e+00
0	 1.407407e+00	 8.518519e+00	 9.953199e+00
0	 1.481481e+00	 8.148148e+00	 9.933024e+00
0	 1.481481e+00	 8.222222e+00	 9.937729e+00
0	 1.481481e+00	 8.296296e+00	 9.942283e+00
0	 1.481481e+00	 8.370370e+00	 9.946692e+00
0	 1.481481e+00	 8.444444e+00	 9.950960e+00
0	 1.481481e+00	 8.518519e+00	 9.955093e+00
0	 1.111111e+00	 8.518519e+00	 9.946252e+00
0	 1.111111e+00	 8.592593e+00	 9.951029e+00
0	 1.111111e+00	 8.666667e+00	 9.955602e+00
0	 1.111111e+00	 8.740741e+00	 9.959980e+00
0	 1.111111e+00	 8.814815e+00	 9.964170e+00
0	 1.111111e+00	 8.888889e+00	 9.968181e+00
0	 1.185185e+00	 8.518519e+00	 9.947874e+00
0	 1.185185e+00	 8.592593e+00	 9.952505e+00
0	 1.185185e+00	 8.666667e+00	 9.956939e+00
0	 1.185185e+00	 8.740741e+00	 9.961183e+00
0	 1.185185e+00	 8.814815e+00	 9.965247e+00
0	 1.185185e+00	 8.888889e+00	 9.969136e+00
0	 1.259259e+00	 8.518519e+00	 9.949580e+00
0	 1.259259e+00	 8.592593e+00	 9.954057e+00
0	 1.259259e+00	 8.666667e+00	 9.958344e+00
0	 1.259259e+00	 8.740741e+00	 9.962450e+00
0	 1.259259e+00	 8.814815e+00	 9.966380e+00
0	 1.259259e+00	 8.888889e+00	 9.970143e+00
0	 1.333333e+00	 8.518519e+00	 9.951358e+00
0	 1.333333e+00	 8.592593e+00	 9.955676e+00
0	 1.333333e+00	 8.666667e+00	 9.959811e+00
0	 1.333333e+00	 8.740741e+00	 9.963770e+00
0	 1.333333e+00	 8.814815e+00	 9.967562e+00
0	 1.333333e+00	 8.888889e+00	 9.971193e+00
0	 1.407407e+00	 8.518519e+00	 9.953199e+00
0	 1.407407e+00	 8.592593e+00	 9.957351e+00
0	 1.407407e+00	 8.666667e+00	 9.961329e+00
0	 1.407407e+00	 8.740741e+00	 9.965138e+00
0	 1.407407e+00	 8.814815e+00	 9.968786e+00
0	 1.407407e+00	 8.888889e+00	 9.972280e+00
0	 1.481481e+00	 8.518519e+00	 9.955093e+00
0	 1.481481e+00	 8.592593e+00	 9.959075e+00
0	 1.481481e+00	 8.666667e+00	 9.962889e+00
0	 1.481481e+00	 8.740741e+00	 9.966543e+00
0	 1.481481e+00	 8.814815e+00	 9.970043e+00
0	 1.481481e+00	 8.888889e+00	 9.973396e+00
0	 1.111111e+00	 8.888889e+00	 9.968181e+00
0	 1.111111e+00	 8.962963e+00	 9.971986e+00
0	 1.111111e+00	 9.037037e+00	 9.975562e+00
0	 1.111111e+00	 9.111111e+00	 9.978919e+00
0	 1.111111e+00	 9.185185e+00	 9.982067e+00
0	 1.111111e+00	 9.259259e+00	 9.985017e+00
0	 1.185185e+00	 8.888889e+00	 9.969136e+00
0	 1.185185e+00	 8.962963e+00	 9.972827e+00
0	 1.185185e+00	 9.037037e+00	 9.976296e+00
0	 1.185185e+00	 9.111111e+00	 9.979552e+00
0	 1.185185e+00	 9.185185e+00	 9.982606e+00
0	 1.185185e+00	 9.259259e+00	 9.985467e+00
0	 1.259259e+00	 8.888889e+00	 9.970143e+00
0	 1.259259e+00	 8.962963e+00	 9.973714e+00
0	 1.259259e+00	 9.037037e+00	 9.977070e+00
0	 1.259259e+00	 9.111111e+00	 9.980221e+00
0	 1.259259e+00	 9.185185e+00	 9.983176e+00
0	 1.259259e+00	 9.259259e+00	 9.985944e+00
0	 1.333333e+00	 8.888889e+00	 9.971193e+00
0	 1.333333e+00	 8.962963e+00	 9.974640e+00
0	 1.333333e+00	 9.037037e+00	 9.977878e+00
0	 1.333333e+00	 9.111111e+00	 9.980919e+00
0	 1.333333e+00	 9.185185e+00	 9.983771e+00
0	 1.333333e+00	 9.259259e+00	 9.986443e+00
0	 1.407407e+00	 8.888889e+00	 9.972280e+00
0	 1.407407e+00	 8.962963e+00	 9.975597e+00
0	 1.407407e+00	 9.037037e+00	 9.978714e+00
0	 1.407407e+00	 9.111111e+00	 9.981641e+00
0	 1.407407e+00	 9.185185e+00	 9.984386e+00
0	 1.407407e+00	 9.259259e+00	 9.986958e+00
0	 1.481481e+00	 8.888889e+00	 9.973396e+00
0	 1.481481e+00	 8.962963e+00	 9.976580e+00
0	 1.481481e+00	 9.037037e+00	 9.979571e+00
0	 1.481481e+00	 9.111111e+00	 9.982380e+00
0	 1.481481e+00	 9.185185e+00	 9.985015e+00
0	 1.481481e+00	 9.259259e+00	 9.987483e+00
0	 1.111111e+00	 9.259259e+00	 9.985017e+00
0	 1.111111e+00	 9.333333e+00	 9.987731e+00
0	 1.111111e+00	 9.407407e+00	 9.990172e+00
0	 1.111111e+00	 9.481481e+00	 9.992356e+00
0	 1.111111e+00	 9.555556e+00	 9.994294e+00
0	 1.111111e+00	 9.629630e+00	 9.996001e+00
0	 1.185185e+00	 9.259259e+00	 9.985467e+00
0	 1.185185e+00	 9.333333e+00	 9.988099e+00
0	 1.185185e+00	 9.407407e+00	 9.990468e+00
0	 1.185185e+00	 9.481481e+00	 9.992585e+00
0	 1.185185e+00	 9.555556e+00	 9.994465e+00
0	 1.185185e+00	 9.629630e+00	 9.996119e+00
0	 1.259259e+00	 9.259259e+00	 9.985944e+00
0	 1.259259e+00	 9.333333e+00	 9.988491e+00
0	 1.259259e+00	 9.407407e+00	 9.990783e+00
0	 1.259259e+00	 9.481481e+00	 9.992832e+00
0	 1.259259e+00	 9.555556e+00	 9.994650e+00
0	 1.259259e+00	 9.629630e+00	 9.996250e+00
0	 1.333333e+00	 9.259259e+00	 9.986443e+00
0	 1.333333e+00	 9.333333e+00	 9.988901e+00
0	 1.333333e+00	 9.407407e+00	 9.991113e+00
0	 1.333333e+00	 9.481481e+00	 9.993090e+00
0	 1.333333e+00	 9.555556e+00	 9.994845e+00
0	 1.333333e+00	 9.629630e+00	 9.996389e+00
0	 1.407407e+00	 9.259259e+00	 9.986958e+00
0	 1.407407e+00	 9.333333e+00	 9.989324e+00
0	 1.407407e+00	 9.407407e+00	 9.991453e+00
0	 1.407407e+00	 9.481481e+00	 9.993356e+00
0	 1.407407e+00	 9.555556e+00	 9.995044e+00
0	 1.407407e+00	 9.629630e+00	 9.996529e+00
0	 1.481481e+00	 9.259259e+00	 9.987483e+00
0	 1.481481e+00	 9.333333e+00	 9.989754e+00
0	 1.481481e+00	 9.407407e+00	 9.991797e+00
0	 1.481481e+00	 9.481481e+00	 9.993623e+00
0	 1.481481e+00	 9.555556e+00	 9.995243e+00
0	 1.481481e+00	 9.629630e+00	 9.996667e+00
0	 1.111111e+00	 9.629630e+00	 9.996001e+00
0	 1.111111e+00	 9.703704e+00	 9.997427e+00
0	 1.111111e+00	 9.777778e+00	 9.998527e+00
0	 1.111111e+00	 9.851852e+00	 9.999318e+00
0	 1.111111e+00	 9.925926e+00	 9.999816e+00
0	 1.111111e+00	 1.000000e+01	 1.000004e+01
0	 1.185185e+00	 9.629630e+00	 9.996119e+00
0	 1.185185e+00	 9.703704e+00	 9.997502e+00
0	 1.185185e+00	 9.777778e+00	 9.998568e+00
0	 1.185185e+00	 9.851852e+00	 9.999334e+00
0	 1.185185e+00	 9.925926e+00	 9.999817e+00
0	 1.185185e+00	 1.000000e+01	 1.000003e+01
0	 1.259259e+00	 9.629630e+00	 9.996250e+00
0	 1.259259e+00	 9.703704e+00	 9.997588e+00
0	 1.259259e+00	 9.777778e+00	 9.998619e+00
0	 1.259259e+00	 9.851852e+00	 9.999360e+00
0	 1.259259e+00	 9.925926e+00	 9.999827e+00
0	 1.259259e+00	 1.000000e+01	 1.000003e+01
0	 1.333333e+00	 9.629630e+00	 9.996389e+00
0	 1.333333e+00	 9.703704e+00	 9.997679e+00
0	 1.333333e+00	 9.777778e+00	 9.998674e+00
0	 1.333333e+00	 9.851852e+00	 9.999389e+00
0	 1.333333e+00	 9.925926e+00	 9.999839e+00
0	 1.333333e+00	 1.000000e+01	 1.000004e+01
0	 1.407407e+00	 9.629630e+00	 9.996529e+00
0	 1.407407e+00	 9.703704e+00	 9.997770e+00
0	 1.407407e+00	 9.777778e+00	 9.998727e+00
0	 1.407407e+00	 9.851852e+00	 9.999415e+00
0	 1.407407e+00	 9.925926e+00	 9.999848e+00
0	 1.407407e+00	 1.000000e+01	 1.000004e+01
0	 1.481481e+00	 9.629630e+00	 9.996667e+00
0	 1.481481e+00	 9.703704e+00	 9.997857e+00
0	 1.481481e+00	 9.777778e+00	 9.998774e+00
0	 1.481481e+00	 9.851852e+00	 9.999433e+00
0	 1.481481e+00	 9.925926e+00	 9.999848e+00
0	 1.481481e+00	 1.000000e+01	 1.000003e+01
0	 1.481481e+00	 0.000000e+00	-2.119368e+00
0	 1.481481e+00	 7.407407e-02	-3.752985e-01
0	 1.481481e+00	 1.481481e-01	 1.091267e+00
0	 1.481481e+00	 2.222222e-01	 2.284183e+00
0	 1.481481e+00	 2.962963e-01	 3.207302e+00
0	 1.481481e+00	 3.703704e-01	 3.864479e+00
0	 1.555556e+00	 0.000000e+00	-1.890871e+00
0	 1.555556e+00	 7.407407e-02	-2.108642e-01
0	 1.555556e+00	 1.481481e-01	 1.726470e+00
0	 1.555556e+00	 2.222222e-01	 3.706967e+00
0	 1.555556e+00	 2.962963e-01	 5.516465e+00
0	 1.555556e+00	 3.703704e-01	 6.940799e+00
0	 1.629630e+00	 0.000000e+00	-9.402295e-01
0	 1.629630e+00	 7.407407e-02	 5.090647e-01
0	 1.629630e+00	 1.481481e-01	 2.585492e+00
0	 1.629630e+00	 2.222222e-01	 4.936791e+00
0	 1.629630e+00	 2.962963e-01	 7.210701e+00
0	 1.629630e+00	 3.703704e-01	 9.054961e+00
0	 1.703704e+00	 0.000000e+00	 7.170434e-01
0	 1.703704e+00	 7.407407e-02	 1.836071e+00
0	 1.703704e+00	 1.481481e-01	 3.775365e+00
0	 1.703704e+00	 2.222222e-01	 6.124486e+00
0	 1.703704e+00	 2.962963e-01	 8.472996e+00
0	 1.703704e+00	 3.703704e-01	 1.041046e+01
0	 1.777778e+00	 0.000000e+00	 3.065436e+00
0	 1.777778e+00	 7.407407e-02	 3.821739e+00
0	 1.777778e+00	 1.481481e-01	 5.403120e+00
0	 1.777778e+00	 2.222222e-01	 7.420883e+00
0	 1.777778e+00	 2.962963e-01	 9.486333e+00
0	 1.777778e+00	 3.703704e-01	 1.121077e+01
0	 1.851852e+00	 0.000000e+00	 6.089438e+00
0	 1.851852e+00	 7.407407e-02	 6.517650e+00
0	 1.851852e+00	 1.481481e-01	 7.575787e+00
0	 1.851852e+00	 2.222222e-01	 8.976814e+00
0	 1.851852e+00	 2.962963e-01	 1.043370e+01
0	 1.851852e+00	 3.703704e-01	 1.165941e+01
0	 1.481481e+00	 3.703704e-01	 3.864479e+00
0	 1.481481e+00	 4.444444e-01	 4.596074e+00
0	 1.481481e+00	 5.185185e-01	 5.742057e+00
0	 1.481481e+00	 5.925926e-01	 7.305693e+00
0	 1.481481e+00	 6.666667e-01	 9.290251e+00
0	 1.481481e+00	 7.407407e-01	 1.169900e+01
0	 1.555556e+00	 3.703704e-01	 6.940799e+00
0	 1.555556e+00	 4.444444e-01	 8.034095e+00
0	 1.555556e+00	 5.185185e-01	 9.042586e+00
0	 1.555556e+00	 5.925926e-01	 1.004027e+01
0	 1.555556e+00	 6.666667e-01	 1.110115e+01
0	 1.555556e+00	 7.407407e-01	 1.229922e+01
0	 1.629630e+00	 3.703704e-01	 9.054961e+00
0	 1.629630e+00	 4.444444e-01	 1.033422e+01
0	 1.629630e+00	 5.185185e-01	 1.122731e+01
0	 1.629630e+00	 5.925926e-01	 1.185325e+01
0	 1.629630e+00	 6.666667e-01	 1.233107e+01
0	 1.629630e+00	 7.407407e-01	 1.277979e+01
0	 1.703704e+00	 3.703704e-01	 1.041046e+01
0	 1.703704e+00	 4.444444e-01	 1.170148e+01
0	 1.703704e+00	 5.185185e-01	 1.247653e+01
0	 1.703704e+00	 5.925926e-01	 1.287396e+01
0	 1.703704e+00	 6.666667e-01	 1.303209e+01
0	 1.703704e+00	 7.407407e-01	 1.308927e+01
0	 1.777778e+00	 3.703704e-01	 1.121077e+01
0	 1.777778e+00	 4.444444e-01	 1.234092e+01
0	 1.777778e+00	 5.185185e-01	 1.297059e+01
0	 1.777778e+00	 5.925926e-01	 1.323173e+01
0	 1.777778e+00	 6.666667e-01	 1.325628e+01
0	 1.777778e+00	 7.407407e-01	 1.317619e+01
0	 1.851852e+00	 3.703704e-01	 1.165941e+01
0	 1.851852e+00	 4.444444e-01	 1.245759e+01
0	 1.851852e+00	 5.185185e-01	 1.288980e+01
0	 1.851852e+00	 5.925926e-01	 1.305590e+01
0	 1.851852e+00	 6.666667e-01	 1.305573e+01
0	 1.851852e+00	 7.407407e-01	 1.298913e+01
0	 1.481481e+00	 7.407407e-01	 1.169900e+01
0	 1.481481e+00	 8.148148e-01	 1.398678e+01
0	 1.481481e+00	 8.888889e-01	 1.557112e+01
0	 1.481481e+00	 9.629630e-01	 1.639925e+01
0	 1.481481e+00	 1.037037e+00	 1.641842e+01
0	 1.481481e+00	 1.111111e+00	 1.557589e+01
0	 1.555556e+00	 7.407407e-01	 1.229922e+01
0	 1.555556e+00	 8.148148e-01	 1.342814e+01
0	 1.555556e+00	 8.888889e-01	 1.420808e+01
0	 1.555556e+00	 9.629630e-01	 1.460278e+01
0	 1.555556e+00	 1.037037e+00	 1.457600e+01
0	 1.555556e+00	 1.111111e+00	 1.409148e+01
0	 1.629630e+00	 7.407407e-01	 1.277979e+01
0	 1.629630e+00	 8.148148e-01	 1.319269e+01
0	 1.629630e+00	 8.888889e-01	 1.346832e+01
0	 1.629630e+00	 9.629630e-01	 1.358364e+01
0	 1.629630e+00	 1.037037e+00	 1.351560e+01
0	 1.629630e+00	 1.111111e+00	 1.324115e+01
0	 1.703704e+00	 7.407407e-01	 1.308927e+01
0	 1.703704e+00	 8.148148e-01	 1.313023e+01
0	 1.703704e+00	 8.888889e-01	 1.313874e+01
0	 1.703704e+00	 9.629630e-01	 1.310164e+01
0	 1.703704e+00	 1.037037e+00	 1.300578e+01
0	 1.703704e+00	 1.111111e+00	 1.283801e+01
0	 1.777778e+00	 7.407407e-01	 1.317619e+01
0	 1.777778e+00	 8.148148e-01	 1.309059e+01
0	 1.777778e+00	 8.888889e-01	 1.300624e+01
0	 1.777778e+00	 9.629630e-01	 1.291659e+01
0	 1.777778e+00	 1.037037e+00	 1.281509e+01
0	 1.777778e+00	 1.111111e+00	 1.269517e+01
0	 1.851852e+00	 7.407407e-01	 1.298913e+01
0	 1.851852e+00	 8.148148e-01	 1.292355e+01
0	 1.851852e+00	 8.888889e-01	 1.285769e+01
0	 1.851852e+00	 9.629630e-01	 1.278828e+01
0	 1.851852e+00	 1.037037e+00	 1.271206e+01
0	 1.851852e+00	 1.111111e+00	 1.262576e+01
0	 1.481481e+00	 1.111111e+00	 1.557589e+01
0	 1.481481e+00	 1.185185e+00	 1.436196e+01
0	 1.481481e+00	 1.259259e+00	 1.332610e+01
0	 1.481481e+00	 1.333333e+00	 1.250424e+01
0	 1.481481e+00	 1.407407e+00	 1.193234e+01
0	 1.481481e+00	 1.481481e+00	 1.164634e+01
0	 1.555556e+00	 1.111111e+00	 1.409148e+01
0	 1.555556e+00	 1.185185e+00	 1.340298e+01
0	 1.555556e+00	 1.259259e+00	 1.280402e+01
0	 1.555556e+00	 1.333333e+00	 1.231801e+01
0	 1.555556e+00	 1.407407e+00	 1.196838e+01
0	 1.555556e+00	 1.481481e+00	 1.177855e+01
0	 1.629630e+00	 1.111111e+00	 1.324115e+01
0	 1.629630e+00	 1.185185e+00	 1.286952e+01
0	 1.629630e+00	 1.259259e+00	 1.253441e+01
0	 1.629630e+00	 1.333333e+00	 1.224945e+01
0	 1.629630e+00	 1.407407e+00	 1.202827e+01
0	 1.629630e+00	 1.481481e+00	 1.188452e+01
0	 1.703704e+00	 1.111111e+00	 1.283801e+01
0	 1.703704e+00	 1.185185e+00	 1.263213e+01
0	 1.703704e+00	 1.259259e+00	 1.243513e+01
0	 1.703704e+00	 1.333333e+00	 1.225360e+01
0	 1.703704e+00	 1.407407e+00	 1.209412e+01
0	 1.703704e+00	 1.481481e+00	 1.196330e+01
0	 1.777778e+00	 1.111111e+00	 1.269517e+01
0	 1.777778e+00	 1.185185e+00	 1.256135e+01
0	 1.777778e+00	 1.259259e+00	 1.242402e+01
0	 1.777778e+00	 1.333333e+00	 1.228548e+01
0	 1.777778e+00	 1.407407e+00	 1.214802e+01
0	 1.777778e+00	 1.481481e+00	 1.201395e+01
0	 1.851852e+00	 1.111111e+00	 1.262576e+01
0	 1.851852e+00	 1.185185e+00	 1.252771e+01
0	 1.851852e+00	 1.259259e+00	 1.241892e+01
0	 1.851852e+00	 1.333333e+00	 1.230013e+01
0	 1.851852e+00	 1.407407e+00	 1.217208e+01
0	 1.851852e+00	 1.481481e+00	 1.203551e+01
0	 1.481481e+00	 1.481481e+00	 1.164634e+01
0	 1.481481e+00	 1.555556e+00	 1.151065e+01
0	 1.481481e+00	 1.629630e+00	 1.136571e+01
0	 1.481481e+00	 1.703704e+00	 1.121148e+01
0	 1.481481e+00	 1.777778e+00	 1.104793e+01
0	 1.481481e+00	 1.851852e+00	 1.087501e+01
0	 1.555556e+00	 1.481481e+00	 1.177855e+01
0	 1.555556e+00	 1.555556e+00	 1.166832e+01
0	 1.555556e+00	 1.629630e+00	 1.154149e+01
0	 1.555556e+00	 1.703704e+00	 1.139745e+01
0	 1.555556e+00	 1.777778e+00	 1.123559e+01
0	 1.555556e+00	 1.851852e+00	 1.105530e+01
0	 1.629630e+00	 1.481481e+00	 1.188452e+01
0	 1.629630e+00	 1.555556e+00	 1.177677e+01
0	 1.629630e+00	 1.629630e+00	 1.165380e+01
0	 1.629630e+00	 1.703704e+00	 1.151450e+01
0	 1.629630e+00	 1.777778e+00	 1.135778e+01
0	 1.629630e+00	 1.851852e+00	 1.118252e+01
0	 1.703704e+00	 1.481481e+00	 1.196330e+01
0	 1.703704e+00	 1.555556e+00	 1.184516e+01
0	 1.703704e+00	 1.629630e+00	 1.171835e+01
0	 1.703704e+00	 1.703704e+00	 1.158133e+01
0	 1.703704e+00	 1.777778e+00	 1.143259e+01
0	 1.703704e+00	 1.851852e+00	 1.127060e+01
0	 1.777778e+00	 1.481481e+00	 1.201395e+01
0	 1.777778e+00	 1.555556e+00	 1.188267e+01
0	 1.777778e+00	 1.629630e+00	 1.175084e+01
0	 1.777778e+00	 1.703704e+00	 1.161661e+01
0	 1.777778e+00	 1.777778e+00	 1.147811e+01
0	 1.777778e+00	 1.851852e+00	 1.133347e+01
0	 1.851852e+00	 1.481481e+00	 1.203551e+01
0	 1.851852e+00	 1.555556e+00	 1.189845e+01
0	 1.851852e+00	 1.629630e+00	 1.176699e+01
0	 1.851852e+00	 1.703704e+00	 1.163902e+01
0	 1.851852e+00	 1.777778e+00	 1.151241e+01
0	 1.851852e+00	 1.851852e+00	 1.138505e+01
0	 1.481481e+00	 1.851852e+00	 1.087501e+01
0	 1.481481e+00	 1.925926e+00	 1.070712e+01
0	 1.481481e+00	 2.000000e+00	 1.055763e+01
0	 1.481481e+00	 2.074074e+00	 1.042500e+01
0	 1.481481e+00	 2.148148e+00	 1.030770e+01
0	 1.481481e+00	 2.222222e+00	 1.020418e+01
0	 1.555556e+00	 1.851852e+00	 1.105530e+01
0	 1.555556e+00	 1.925926e+00	 1.087718e+01
0	 1.555556e+00	 2.000000e+00	 1.072091e+01
0	 1.555556e+00	 2.074074e+00	 1.058449e+01
0	 1.555556e+00	 2.148148e+00	 1.046595e+01
0	 1.555556e+00	 2.222222e+00	 1.036328e+01
0	 1.629630e+00	 1.851852e+00	 1.118252e+01
0	 1.629630e+00	 1.925926e+00	 1.100894e+01
0	 1.629630e+00	 2.000000e+00	 1.085653e+01
0	 1.629630e+00	 2.074074e+00	 1.072313e+01
0	 1.629630e+00	 2.148148e+00	 1.060658e+01
0	 1.629630e+00	 2.222222e+00	 1.050471e+01
0	 1.703704e+00	 1.851852e+00	 1.127060e+01
0	 1.703704e+00	 1.925926e+00	 1.111104e+01
0	 1.703704e+00	 2.000000e+00	 1.096919e+01
0	 1.703704e+00	 2.074074e+00	 1.084300e+01
0	 1.703704e+00	 2.148148e+00	 1.073039e+01
0	 1.703704e+00	 2.222222e+00	 1.062929e+01
0	 1.777778e+00	 1.851852e+00	 1.133347e+01
0	 1.777778e+00	 1.925926e+00	 1.119213e+01
0	 1.777778e+00	 2.000000e+00	 1.106360e+01
0	 1.777778e+00	 2.074074e+00	 1.094618e+01
0	 1.777778e+00	 2.148148e+00	 1.083817e+01
0	 1.777778e+00	 2.222222e+00	 1.073786e+01
0	 1.851852e+00	 1.851852e+00	 1.138505e+01
0	 1.851852e+00	 1.925926e+00	 1.126085e+01
0	 1.851852e+00	 2.000000e+00	 1.114445e+01
0	 1.851852e+00	 2.074074e+00	 1.103476e+01
0	 1.851852e+00	 2.148148e+00	 1.093072e+01
0	 1.851852e+00	 2.222222e+00	 1.083127e+01
0	 1.481481e+00	 2.222222e+00	 1.020418e+01
0	 1.481481e+00	 2.296296e+00	 1.011084e+01
0	 1.481481e+00	 2.370370e+00	 1.002533e+01
0	 1.481481e+00	 2.444444e+00	 9.948023e+00
0	 1.481481e+00	 2.518519e+00	 9.879286e+00
0	 1.481481e+00	 2.592593e+00	 9.819485e+00
0	 1.555556e+00	 2.222222e+00	 1.036328e+01
0	 1.555556e+00	 2.296296e+00	 1.027050e+01
0	 1.555556e+00	 2.370370e+00	 1.018332e+01
0	 1.555556e+00	 2.444444e+00	 1.010239e+01
0	 1.555556e+00	 2.518519e+00	 1.002831e+01
0	 1.555556e+00	 2.592593e+00	 9.961731e+00
0	 1.629630e+00	 2.222222e+00	 1.050471e+01
0	 1.629630e+00	 2.296296e+00	 1.041149e+01
0	 1.629630e+00	 2.370370e+00	 1.032283e+01
0	 1.629630e+00	 2.444444e+00	 1.023943e+01
0	 1.629630e+00	 2.518519e+00	 1.016200e+01
0	 1.629630e+00	 2.592593e+00	 1.009125e+01
0	 1.703704e+00	 2.222222e+00	 1.062929e+01
0	 1.703704e+00	 2.296296e+00	 1.053524e+01
0	 1.703704e+00	 2.370370e+00	 1.044556e+01
0	 1.703704e+00	 2.444444e+00	 1.036089e+01
0	 1.703704e+00	 2.518519e+00	 1.028181e+01
0	 1.703704e+00	 2.592593e+00	 1.020897e+01
0	 1.777778e+00	 2.222222e+00	 1.073786e+01
0	 1.777778e+00	 2.296296e+00	 1.064313e+01
0	 1.777778e+00	 2.370370e+00	 1.055321e+01
0	 1.777778e+00	 2.444444e+00	 1.046846e+01
0	 1.777778e+00	 2.518519e+00	 1.038921e+01
0	 1.777778e+00	 2.592593e+00	 1.031581e+01
0	 1.851852e+00	 2.222222e+00	 1.083127e+01
0	 1.851852e+00	 2.296296e+00	 1.073657e+01
0	 1.851852e+00	 2.370370e+00	 1.064747e+01
0	 1.851852e+00	 2.444444e+00	 1.056386e+01
0	 1.851852e+00	 2.518519e+00	 1.048564e+01
0	 1.851852e+00	 2.592593e+00	 1.041271e+01
0	 1.481481e+00	 2.592593e+00	 9.819485e+00
0	 1.481481e+00	 2.666667e+00	 9.767274e+00
0	 1.481481e+00	 2.740741e+00	 9.721013e+00
0	 1.481481e+00	 2.814815e+00	 9.680638e+00
0	 1.481481e+00	 2.888889e+00	 9.646079e+00
0	 1.481481e+00	 2.962963e+00	 9.617271e+00
0	 1.555556e+00	 2.592593e+00	 9.961731e+00
0	 1.555556e+00	 2.666667e+00	 9.902654e+00
0	 1.555556e+00	 2.740741e+00	 9.850477e+00
0	 1.555556e+00	 2.814815e+00	 9.804889e+00
0	 1.555556e+00	 2.888889e+00	 9.765580e+00
0	 1.555556e+00	 2.962963e+00	 9.732240e+00
0	 1.629630e+00	 2.592593e+00	 1.009125e+01
0	 1.629630e+00	 2.666667e+00	 1.002779e+01
0	 1.629630e+00	 2.740741e+00	 9.971466e+00
0	 1.629630e+00	 2.814815e+00	 9.921839e+00
0	 1.629630e+00	 2.888889e+00	 9.878461e+00
0	 1.629630e+00	 2.962963e+00	 9.840884e+00
0	 1.703704e+00	 2.592593e+00	 1.020897e+01
0	 1.703704e+00	 2.666667e+00	 1.014301e+01
0	 1.703704e+00	 2.740741e+00	 1.008390e+01
0	 1.703704e+00	 2.814815e+00	 1.003116e+01
0	 1.703704e+00	 2.888889e+00	 9.984313e+00
0	 1.703704e+00	 2.962963e+00	 9.942880e+00
0	 1.777778e+00	 2.592593e+00	 1.031581e+01
0	 1.777778e+00	 2.666667e+00	 1.024867e+01
0	 1.777778e+00	 2.740741e+00	 1.018771e+01
0	 1.777778e+00	 2.814815e+00	 1.013253e+01
0	 1.777778e+00	 2.888889e+00	 1.008273e+01
0	 1.777778e+00	 2.962963e+00	 1.003790e+01
0	 1.851852e+00	 2.592593e+00	 1.041271e+01
0	 1.851852e+00	 2.666667e+00	 1.034511e+01
0	 1.851852e+00	 2.740741e+00	 1.028282e+01
0	 1.851852e+00	 2.814815e+00	 1.022562e+01
0	 1.851852e+00	 2.888889e+00	 1.017329e+01
0	 1.851852e+00	 2.962963e+00	 1.012563e+01
0	 1.481481e+00	 2.962963e+00	 9.617271e+00
0	 1.481481e+00	 3.037037e+00	 9.592718e+00
0	 1.481481e+00	 3.111111e+00	 9.571138e+00
0	 1.481481e+00	 3.185185e+00	 9.552780e+00
0	 1.481481e+00	 3.259259e+00	 9.537891e+00
0	 1.481481e+00	 3.333333e+00	 9.526722e+00
0	 1.555556e+00	 2.962963e+00	 9.732240e+00
0	 1.555556e+00	 3.037037e+00	 9.703034e+00
0	 1.555556e+00	 3.111111e+00	 9.676569e+00
0	 1.555556e+00	 3.185185e+00	 9.653204e+00
0	 1.555556e+00	 3.259259e+00	 9.633296e+00
0	 1.555556e+00	 3.333333e+00	 9.617204e+00
0	 1.629630e+00	 2.962963e+00	 9.840884e+00
0	 1.629630e+00	 3.037037e+00	 9.807300e+00
0	 1.629630e+00	 3.111111e+00	 9.776462e+00
0	 1.629630e+00	 3.185185e+00	 9.748774e+00
0	 1.629630e+00	 3.259259e+00	 9.724638e+00
0	 1.629630e+00	 3.333333e+00	 9.704456e+00
0	 1.703704e+00	 2.962963e+00	 9.942880e+00
0	 1.703704e+00	 3.037037e+00	 9.905330e+00
0	 1.703704e+00	 3.111111e+00	 9.870702e+00
0	 1.703704e+00	 3.185185e+00	 9.839378e+00
0	 1.703704e+00	 3.259259e+00	 9.811742e+00
0	 1.703704e+00	 3.333333e+00	 9.788177e+00
0	 1.777778e+00	 2.962963e+00	 1.003790e+01
0	 1.777778e+00	 3.037037e+00	 9.996937e+00
0	 1.777778e+00	 3.111111e+00	 9.959171e+00
0	 1.777778e+00	 3.185185e+00	 9.924905e+00
0	 1.777778e+00	 3.259259e+00	 9.894436e+00
0	 1.777778e+00	 3.333333e+00	 9.868064e+00
0	 1.851852e+00	 2.962963e+00	 1.012563e+01
0	 1.851852e+00	 3.037037e+00	 1.008194e+01
0	 1.851852e+00	 3.111111e+00	 1.004176e+01
0	 1.851852e+00	 3.185185e+00	 1.000524e+01
0	 1.851852e+00	 3.259259e+00	 9.972546e+00
0	 1.851852e+00	 3.333333e+00	 9.943816e+00
0	 1.481481e+00	 3.333333e+00	 9.526722e+00
0	 1.481481e+00	 3.407407e+00	 9.518366e+00
0	 1.481481e+00	 3.481481e+00	 9.511816e+00
0	 1.481481e+00	 3.555556e+00	 9.507171e+00
0	 1.481481e+00	 3.629630e+00	 9.504530e+00
0	 1.481481e+00	 3.703704e+00	 9.503990e+00
0	 1.555556e+00	 3.333333e+00	 9.617204e+00
0	 1.555556e+00	 3.407407e+00	 9.604255e+00
0	 1.555556e+00	 3.481481e+00	 9.593543e+00
0	 1.555556e+00	 3.555556e+00	 9.585071e+00
0	 1.555556e+00	 3.629630e+00	 9.578844e+00
0	 1.555556e+00	 3.703704e+00	 9.574866e+00
0	 1.629630e+00	 3.333333e+00	 9.704456e+00
0	 1.629630e+00	 3.407407e+00	 9.687625e+00
0	 1.629630e+00	 3.481481e+00	 9.673235e+00
0	 1.629630e+00	 3.555556e+00	 9.661237e+00
0	 1.629630e+00	 3.629630e+00	 9.651578e+00
0	 1.629630e+00	 3.703704e+00	 9.644207e+00
0	 1.703704e+00	 3.333333e+00	 9.788177e+00
0	 1.703704e+00	 3.407407e+00	 9.768038e+00
0	 1.703704e+00	 3.481481e+00	 9.750378e+00
0	 1.703704e+00	 3.555556e+00	 9.735129e+00
0	 1.703704e+00	 3.629630e+00	 9.722221e+00
0	 1.703704e+00	 3.703704e+00	 9.711583e+00
0	 1.777778e+00	 3.333333e+00	 9.868064e+00
0	 1.777778e+00	 3.407407e+00	 9.845059e+00
0	 1.777778e+00	 3.481481e+00	 9.824455e+00
0	 1.777778e+00	 3.555556e+00	 9.806205e+00
0	 1.777778e+00	 3.629630e+00	 9.790259e+00
0	 1.777778e+00	 3.703704e+00	 9.776566e+00
0	 1.851852e+00	 3.333333e+00	 9.943816e+00
0	 1.851852e+00	 3.407407e+00	 9.918251e+00
0	 1.851852e+00	 3.481481e+00	 9.894950e+00
0	 1.851852e+00	 3.555556e+00	 9.873924e+00
0	 1.851852e+00	 3.629630e+00	 9.855180e+00
0	 1.851852e+00	 3.703704e+00	 9.838727e+00
0	 1.481481e+00	 3.703704e+00	 9.503990e+00
0	 1.481481e+00	 3.777778e+00	 9.504945e+00
0	 1.481481e+00	 3.851852e+00	 9.506770e+00
0	 1.481481e+00	 3.925926e+00	 9.509537e+00
0	 1.481481e+00	 4.000000e+00	 9.513320e+00
0	 1.481481e+00	 4.074074e+00	 9.518190e+00
0	 1.555556e+00	 3.703704e+00	 9.574866e+00
0	 1.555556e+00	 3.777778e+00	 9.572419e+00
0	 1.555556e+00	 3.851852e+00	 9.570866e+00
0	 1.555556e+00	 3.925926e+00	 9.570335e+00
0	 1.555556e+00	 4.000000e+00	 9.570956e+00
0	 1.555556e+00	 4.074074e+00	 9.572855e+00
0	 1.629630e+00	 3.703704e+00	 9.644207e+00
0	 1.629630e+00	 3.777778e+00	 9.638416e+00
0	 1.629630e+00	 3.851852e+00	 9.633637e+00
0	 1.629630e+00	 3.925926e+00	 9.630031e+00
0	 1.629630e+00	 4.000000e+00	 9.627754e+00
0	 1.629630e+00	 4.074074e+00	 9.626966e+00
0	 1.703704e+00	 3.703704e+00	 9.711583e+00
0	 1.703704e+00	 3.777778e+00	 9.702600e+00
0	 1.703704e+00	 3.851852e+00	 9.694809e+00
0	 1.703704e+00	 3.925926e+00	 9.688375e+00
0	 1.703704e+00	 4.000000e+00	 9.683461e+00
0	 1.703704e+00	 4.074074e+00	 9.680230e+00
0	 1.777778e+00	 3.703704e+00	 9.776566e+00
0	 1.777778e+00	 3.777778e+00	 9.764637e+00
0	 1.777778e+00	 3.851852e+00	 9.754107e+00
0	 1.777778e+00	 3.925926e+00	 9.745122e+00
0	 1.777778e+00	 4.000000e+00	 9.737824e+00
0	 1.777778e+00	 4.074074e+00	 9.732357e+00
0	 1.851852e+00	 3.703704e+00	 9.838727e+00
0	 1.851852e+00	 3.777778e+00	 9.824190e+00
0	 1.851852e+00	 3.851852e+00	 9.811257e+00
0	 1.851852e+00	 3.925926e+00	 9.800024e+00
0	 1.851852e+00	 4.000000e+00	 9.790590e+00
0	 1.851852e+00	 4.074074e+00	 9.783052e+00
0	 1.481481e+00	 4.074074e+00	 9.518190e+00
0	 1.481481e+00	 4.148148e+00	 9.523834e+00
0	 1.481481e+00	 4.222222e+00	 9.529933e+00
0	 1.481481e+00	 4.296296e+00	 9.536559e+00
0	 1.481481e+00	 4.370370e+00	 9.543782e+00
0	 1.481481e+00	 4.444444e+00	 9.551672e+00
0	 1.555556e+00	 4.074074e+00	 9.572855e+00
0	 1.555556e+00	 4.148148e+00	 9.575757e+00
0	 1.555556e+00	 4.222222e+00	 9.579321e+00
0	 1.555556e+00	 4.296296e+00	 9.583584e+00
0	 1.555556e+00	 4.370370e+00	 9.588578e+00
0	 1.555556e+00	 4.444444e+00	 9.594338e+00
0	 1.629630e+00	 4.074074e+00	 9.626966e+00
0	 1.629630e+00	 4.148148e+00	 9.627364e+00
0	 1.629630e+00	 4.222222e+00	 9.628547e+00
0	 1.629630e+00	 4.296296e+00	 9.630528e+00
0	 1.629630e+00	 4.370370e+00	 9.633320e+00
0	 1.629630e+00	 4.444444e+00	 9.636934e+00
0	 1.703704e+00	 4.074074e+00	 9.680230e+00
0	 1.703704e+00	 4.148148e+00	 9.678318e+00
0	 1.703704e+00	 4.222222e+00	 9.677251e+00
0	 1.703704e+00	 4.296296e+00	 9.677034e+00
0	 1.703704e+00	 4.370370e+00	 9.677672e+00
0	 1.703704e+00	 4.444444e+00	 9.679168e+00
0	 1.777778e+00	 4.074074e+00	 9.732357e+00
0	 1.777778e+00	 4.148148e+00	 9.728282e+00
0	 1.777778e+00	 4.222222e+00	 9.725074e+00
0	 1.777778e+00	 4.296296e+00	 9.722743e+00
0	 1.777778e+00	 4.370370e+00	 9.721300e+00
0	 1.777778e+00	 4.444444e+00	 9.720754e+00
0	 1.851852e+00	 4.074074e+00	 9.783052e+00
0	 1.851852e+00	 4.148148e+00	 9.776920e+00
0	 1.851852e+00	 4.222222e+00	 9.771658e+00
0	 1.851852e+00	 4.296296e+00	 9.767297e+00
0	 1.851852e+00	 4.370370e+00	 9.763868e+00
0	 1.851852e+00	 4.444444e+00	 9.761401e+00
0	 1.481481e+00	 4.444444e+00	 9.551672e+00
0	 1.481481e+00	 4.518519e+00	 9.559977e+00
0	 1.481481e+00	 4.592593e+00	 9.568411e+00
0	 1.481481e+00	 4.666667e+00	 9.576996e+00
0	 1.481481e+00	 4.740741e+00	 9.585752e+00
0	 1.481481e+00	 4.814815e+00	 9.594699e+00
0	 1.555556e+00	 4.444444e+00	 9.594338e+00
0	 1.555556e+00	 4.518519e+00	 9.600569e+00
0	 1.555556e+00	 4.592593e+00	 9.606982e+00
0	 1.555556e+00	 4.666667e+00	 9.613621e+00
0	 1.555556e+00	 4.740741e+00	 9.620532e+00
0	 1.555556e+00	 4.814815e+00	 9.627758e+00
0	 1.629630e+00	 4.444444e+00	 9.636934e+00
0	 1.629630e+00	 4.518519e+00	 9.641079e+00
0	 1.629630e+00	 4.592593e+00	 9.645497e+00
0	 1.629630e+00	 4.666667e+00	 9.650246e+00
0	 1.629630e+00	 4.740741e+00	 9.655386e+00
0	 1.629630e+00	 4.814815e+00	 9.660975e+00
0	 1.703704e+00	 4.444444e+00	 9.679168e+00
0	 1.703704e+00	 4.518519e+00	 9.681267e+00
0	 1.703704e+00	 4.592593e+00	 9.683752e+00
0	 1.703704e+00	 4.666667e+00	 9.686687e+00
0	 1.703704e+00	 4.740741e+00	 9.690137e+00
0	 1.703704e+00	 4.814815e+00	 9.694165e+00
0	 1.777778e+00	 4.444444e+00	 9.720754e+00
0	 1.777778e+00	 4.518519e+00	 9.720895e+00
0	 1.777778e+00	 4.592593e+00	 9.721544e+00
0	 1.777778e+00	 4.666667e+00	 9.722762e+00
0	 1.777778e+00	 4.740741e+00	 9.724608e+00
0	 1.777778e+00	 4.814815e+00	 9.727144e+00
0	 1.851852e+00	 4.444444e+00	 9.761401e+00
0	 1.851852e+00	 4.518519e+00	 9.759723e+00
0	 1.851852e+00	 4.592593e+00	 9.758670e+00
0	 1.851852e+00	 4.666667e+00	 9.758288e+00
0	 1.851852e+00	 4.740741e+00	 9.758624e+00
0	 1.851852e+00	 4.814815e+00	 9.759725e+00
0	 1.481481e+00	 4.814815e+00	 9.594699e+00
0	 1.481481e+00	 4.888889e+00	 9.603753e+00
0	 1.481481e+00	 4.962963e+00	 9.612835e+00
0	 1.481481e+00	 5.037037e+00	 9.621978e+00
0	 1.481481e+00	 5.111111e+00	 9.631215e+00
0	 1.481481e+00	 5.185185e+00	 9.640579e+00
0	 1.555556e+00	 4.814815e+00	 9.627758e+00
0	 1.555556e+00	 4.888889e+00	 9.635212e+00
0	 1.555556e+00	 4.962963e+00	 9.642792e+00
0	 1.555556e+00	 5.037037e+00	 9.650518e+00
0	 1.555556e+00	 5.111111e+00	 9.658410e+00
0	 1.555556e+00	 5.185185e+00	 9.666488e+00
0	 1.629630e+00	 4.814815e+00	 9.660975e+00
0	 1.629630e+00	 4.888889e+00	 9.666901e+00
0	 1.629630e+00	 4.962963e+00	 9.673020e+00
0	 1.629630e+00	 5.037037e+00	 9.679344e+00
0	 1.629630e+00	 5.111111e+00	 9.685889e+00
0	 1.629630e+00	 5.185185e+00	 9.692666e+00
0	 1.703704e+00	 4.814815e+00	 9.694165e+00
0	 1.703704e+00	 4.888889e+00	 9.698621e+00
0	 1.703704e+00	 4.962963e+00	 9.703316e+00
0	 1.703704e+00	 5.037037e+00	 9.708261e+00
0	 1.703704e+00	 5.111111e+00	 9.713467e+00
0	 1.703704e+00	 5.185185e+00	 9.718946e+00
0	 1.777778e+00	 4.814815e+00	 9.727144e+00
0	 1.777778e+00	 4.888889e+00	 9.730175e+00
0	 1.777778e+00	 4.962963e+00	 9.733479e+00
0	 1.777778e+00	 5.037037e+00	 9.737070e+00
0	 1.777778e+00	 5.111111e+00	 9.740960e+00
0	 1.777778e+00	 5.185185e+00	 9.745163e+00
0	 1.851852e+00	 4.814815e+00	 9.759725e+00
0	 1.851852e+00	 4.888889e+00	 9.761367e+00
0	 1.851852e+00	 4.962963e+00	 9.763309e+00
0	 1.851852e+00	 5.037037e+00	 9.765574e+00
0	 1.851852e+00	 5.111111e+00	 9.768182e+00
0	 1.851852e+00	 5.185185e+00	 9.771154e+00
0	 1.481481e+00	 5.185185e+00	 9.640579e+00
0	 1.481481e+00	 5.259259e+00	 9.649970e+00
0	 1.481481e+00	 5.333333e+00	 9.659273e+00
0	 1.481481e+00	 5.407407e+00	 9.668497e+00
0	 1.481481e+00	 5.481481e+00	 9.677650e+00
0	 1.481481e+00	 5.555556e+00	 9.686741e+00
0	 1.555556e+00	 5.185185e+00	 9.666488e+00
0	 1.555556e+00	 5.259259e+00	 9.674639e+00
0	 1.555556e+00	 5.333333e+00	 9.682744e+00
0	 1.555556e+00	 5.407407e+00	 9.690821e+00
0	 1.555556e+00	 5.481481e+00	 9.698888e+00
0	 1.555556e+00	 5.555556e+00	 9.706961e+00
0	 1.629630e+00	 5.185185e+00	 9.692666e+00
0	 1.629630e+00	 5.259259e+00	 9.699561e+00
0	 1.629630e+00	 5.333333e+00	 9.706466e+00
0	 1.629630e+00	 5.407407e+00	 9.713404e+00
0	 1.629630e+00	 5.481481e+00	 9.720397e+00
0	 1.629630e+00	 5.555556e+00	 9.727470e+00
0	 1.703704e+00	 5.185185e+00	 9.718946e+00
0	 1.703704e+00	 5.259259e+00	 9.724592e+00
0	 1.703704e+00	 5.333333e+00	 9.730311e+00
0	 1.703704e+00	 5.407407e+00	 9.736128e+00
0	 1.703704e+00	 5.481481e+00	 9.742069e+00
0	 1.703704e+00	 5.555556e+00	 9.748159e+00
0	 1.777778e+00	 5.185185e+00	 9.745163e+00
0	 1.777778e+00	 5.259259e+00	 9.749589e+00
0	 1.777778e+00	 5.333333e+00	 9.754152e+00
0	 1.777778e+00	 5.407407e+00	 9.758878e+00
0	 1.777778e+00	 5.481481e+00	 9.763791e+00
0	 1.777778e+00	 5.555556e+00	 9.768917e+00
0	 1.851852e+00	 5.185185e+00	 9.771154e+00
0	 1.851852e+00	 5.259259e+00	 9.774408e+00
0	 1.851852e+00	 5.333333e+00	 9.777862e+00
0	 1.851852e+00	 5.407407e+00	 9.781537e+00
0	 1.851852e+00	 5.481481e+00	 9.785454e+00
0	 1.851852e+00	 5.555556e+00	 9.789634e+00
0	 1.481481e+00	 5.555556e+00	 9.686741e+00
0	 1.481481e+00	 5.629630e+00	 9.695749e+00
0	 1.481481e+00	 5.703704e+00	 9.704657e+00
0	 1.481481e+00	 5.777778e+00	 9.713479e+00
0	 1.481481e+00	 5.851852e+00	 9.722227e+00
0	 1.481481e+00	 5.925926e+00	 9.730914e+00
0	 1.555556e+00	 5.555556e+00	 9.706961e+00
0	 1.555556e+00	 5.629630e+00	 9.715014e+00
0	 1.555556e+00	 5.703704e+00	 9.723013e+00
0	 1.555556e+00	 5.777778e+00	 9.730968e+00
0	 1.555556e+00	 5.851852e+00	 9.738890e+00
0	 1.555556e+00	 5.925926e+00	 9.746790e+00
0	 1.629630e+00	 5.555556e+00	 9.727470e+00
0	 1.629630e+00	 5.629630e+00	 9.734580e+00
0	 1.629630e+00	 5.703704e+00	 9.741674e+00
0	 1.629630e+00	 5.777778e+00	 9.748762e+00
0	 1.629630e+00	 5.851852e+00	 9.755850e+00
0	 1.629630e+00	 5.925926e+00	 9.762949e+00
0	 1.703704e+00	 5.555556e+00	 9.748159e+00
0	 1.703704e+00	 5.629630e+00	 9.754338e+00
0	 1.703704e+00	 5.703704e+00	 9.760533e+00
0	 1.703704e+00	 5.777778e+00	 9.766753e+00
0	 1.703704e+00	 5.851852e+00	 9.773006e+00
0	 1.703704e+00	 5.925926e+00	 9.779300e+00
0	 1.777778e+00	 5.555556e+00	 9.768917e+00
0	 1.777778e+00	 5.629630e+00	 9.774176e+00
0	 1.777778e+00	 5.703704e+00	 9.779480e+00
0	 1.777778e+00	 5.777778e+00	 9.784838e+00
0	 1.777778e+00	 5.851852e+00	 9.790259e+00
0	 1.777778e+00	 5.925926e+00	 9.795754e+00
0	 1.851852e+00	 5.555556e+00	 9.789634e+00
0	 1.851852e+00	 5.629630e+00	 9.793985e+00
0	 1.851852e+00	 5.703704e+00	 9.798406e+00
0	 1.851852e+00	 5.777778e+00	 9.802910e+00
0	 1.851852e+00	 5.851852e+00	 9.807510e+00
0	 1.851852e+00	 5.925926e+00	 9.812217e+00
0	 1.481481e+00	 5.925926e+00	 9.730914e+00
0	 1.481481e+00	 6.000000e+00	 9.739507e+00
0	 1.481481e+00	 6.074074e+00	 9.747964e+00
0	 1.481481e+00	 6.148148e+00	 9.756291e+00
0	 1.481481e+00	 6.222222e+00	 9.764492e+00
0	 1.481481e+00	 6.296296e+00	 9.772572e+00
0	 1.555556e+00	 5.925926e+00	 9.746790e+00
0	 1.555556e+00	 6.000000e+00	 9.754624e+00
0	 1.555556e+00	 6.074074e+00	 9.762351e+00
0	 1.555556e+00	 6.148148e+00	 9.769979e+00
0	 1.555556e+00	 6.222222e+00	 9.777516e+00
0	 1.555556e+00	 6.296296e+00	 9.784969e+00
0	 1.629630e+00	 5.925926e+00	 9.762949e+00
0	 1.629630e+00	 6.000000e+00	 9.770014e+00
0	 1.629630e+00	 6.074074e+00	 9.777003e+00
0	 1.629630e+00	 6.148148e+00	 9.783928e+00
0	 1.629630e+00	 6.222222e+00	 9.790796e+00
0	 1.629630e+00	 6.296296e+00	 9.797620e+00
0	 1.703704e+00	 5.925926e+00	 9.779300e+00
0	 1.703704e+00	 6.000000e+00	 9.785593e+00
0	 1.703704e+00	 6.074074e+00	 9.791845e+00
0	 1.703704e+00	 6.148148e+00	 9.798066e+00
0	 1.703704e+00	 6.222222e+00	 9.804267e+00
0	 1.703704e+00	 6.296296e+00	 9.810461e+00
0	 1.777778e+00	 5.925926e+00	 9.795754e+00
0	 1.777778e+00	 6.000000e+00	 9.801280e+00
0	 1.777778e+00	 6.074074e+00	 9.806800e+00
0	 1.777778e+00	 6.148148e+00	 9.812324e+00
0	 1.777778e+00	 6.222222e+00	 9.817863e+00
0	 1.777778e+00	 6.296296e+00	 9.823428e+00
0	 1.851852e+00	 5.925926e+00	 9.812217e+00
0	 1.851852e+00	 6.000000e+00	 9.816993e+00
0	 1.851852e+00	 6.074074e+00	 9.821794e+00
0	 1.851852e+00	 6.148148e+00	 9.826632e+00
0	 1.851852e+00	 6.222222e+00	 9.831516e+00
0	 1.851852e+00	 6.296296e+00	 9.836457e+00
0	 1.481481e+00	 6.296296e+00	 9.772572e+00
0	 1.481481e+00	 6.370370e+00	 9.780527e+00
0	 1.481481e+00	 6.444444e+00	 9.788351e+00
0	 1.481481e+00	 6.518519e+00	 9.796051e+00
0	 1.481481e+00	 6.592593e+00	 9.803633e+00
0	 1.481481e+00	 6.666667e+00	 9.811102e+00
0	 1.555556e+00	 6.296296e+00	 9.784969e+00
0	 1.555556e+00	 6.370370e+00	 9.792328e+00
0	 1.555556e+00	 6.444444e+00	 9.799582e+00
0	 1.555556e+00	 6.518519e+00	 9.806734e+00
0	 1.555556e+00	 6.592593e+00	 9.813792e+00
0	 1.555556e+00	 6.666667e+00	 9.820761e+00
0	 1.629630e+00	 6.296296e+00	 9.797620e+00
0	 1.629630e+00	 6.370370e+00	 9.804380e+00
0	 1.629630e+00	 6.444444e+00	 9.811057e+00
0	 1.629630e+00	 6.518519e+00	 9.817655e+00
0	 1.629630e+00	 6.592593e+00	 9.824181e+00
0	 1.629630e+00	 6.666667e+00	 9.830639e+00
0	 1.703704e+00	 6.296296e+00	 9.810461e+00
0	 1.703704e+00	 6.370370e+00	 9.816620e+00
0	 1.703704e+00	 6.444444e+00	 9.822717e+00
0	 1.703704e+00	 6.518519e+00	 9.828756e+00
0	 1.703704e+00	 6.592593e+00	 9.834745e+00
0	 1.703704e+00	 6.666667e+00	 9.840687e+00
0	 1.777778e+00	 6.296296e+00	 9.823428e+00
0	 1.777778e+00	 6.370370e+00	 9.828986e+00
0	 1.777778e+00	 6.444444e+00	 9.834502e+00
0	 1.777778e+00	 6.518519e+00	 9.839981e+00
0	 1.777778e+00	 6.592593e+00	 9.845429e+00
0	 1.777778e+00	 6.666667e+00	 9.850854e+00
0	 1.851852e+00	 6.296296e+00	 9.836457e+00
0	 1.851852e+00	 6.370370e+00	 9.841416e+00
0	 1.851852e+00	 6.444444e+00	 9.846352e+00
0	 1.851852e+00	 6.518519e+00	 9.851271e+00
0	 1.851852e+00	 6.592593e+00	 9.856181e+00
0	 1.851852e+00	 6.666667e+00	 9.861089e+00
0	 1.481481e+00	 6.666667e+00	 9.811102e+00
0	 1.481481e+00	 6.740741e+00	 9.818447e+00
0	 1.481481e+00	 6.814815e+00	 9.825654e+00
0	 1.481481e+00	 6.888889e+00	 9.832726e+00
0	 1.481481e+00	 6.962963e+00	 9.839668e+00
0	 1.481481e+00	 7.037037e+00	 9.846483e+00
0	 1.555556e+00	 6.666667e+00	 9.820761e+00
0	 1.555556e+00	 6.740741e+00	 9.827624e+00
0	 1.555556e+00	 6.814815e+00	 9.834367e+00
0	 1.555556e+00	 6.888889e+00	 9.840994e+00
0	 1.555556e+00	 6.962963e+00	 9.847510e+00
0	 1.555556e+00	 7.037037e+00	 9.853920e+00
0	 1.629630e+00	 6.666667e+00	 9.830639e+00
0	 1.629630e+00	 6.740741e+00	 9.837012e+00
0	 1.629630e+00	 6.814815e+00	 9.843283e+00
0	 1.629630e+00	 6.888889e+00	 9.849458e+00
0	 1.629630e+00	 6.962963e+00	 9.855542e+00
0	 1.629630e+00	 7.037037e+00	 9.861540e+00
0	 1.703704e+00	 6.666667e+00	 9.840687e+00
0	 1.703704e+00	 6.740741e+00	 9.846564e+00
0	 1.703704e+00	 6.814815e+00	 9.852359e+00
0	 1.703704e+00	 6.888889e+00	 9.858077e+00
0	 1.703704e+00	 6.962963e+00	 9.863723e+00
0	 1.703704e+00	 7.037037e+00	 9.869305e+00
0	 1.777778e+00	 6.666667e+00	 9.850854e+00
0	 1.777778e+00	 6.740741e+00	 9.856234e+00
0	 1.777778e+00	 6.814815e+00	 9.861551e+00
0	 1.777778e+00	 6.888889e+00	 9.866810e+00
0	 1.777778e+00	 6.962963e+00	 9.872018e+00
0	 1.777778e+00	 7.037037e+00	 9.877180e+00
0	 1.851852e+00	 6.666667e+00	 9.861089e+00
0	 1.851852e+00	 6.740741e+00	 9.865975e+00
0	 1.851852e+00	 6.814815e+00	 9.870815e+00
0	 1.851852e+00	 6.888889e+00	 9.875617e+00
0	 1.851852e+00	 6.962963e+00	 9.880386e+00
0	 1.851852e+00	 7.037037e+00	 9.885127e+00
0	 1.481481e+00	 7.037037e+00	 9.846483e+00
0	 1.481481e+00	 7.111111e+00	 9.853168e+00
0	 1.481481e+00	 7.185185e+00	 9.859718e+00
0	 1.481481e+00	 7.259259e+00	 9.866138e+00
0	 1.481481e+00	 7.333333e+00	 9.872432e+00
0	 1.481481e+00	 7.407407e+00	 9.878604e+00
0	 1.555556e+00	 7.037037e+00	 9.853920e+00
0	 1.555556e+00	 7.111111e+00	 9.860217e+00
0	 1.555556e+00	 7.185185e+00	 9.866393e+00
0	 1.555556e+00	 7.259259e+00	 9.872454e+00
0	 1.555556e+00	 7.333333e+00	 9.878403e+00
0	 1.555556e+00	 7.407407e+00	 9.884244e+00
0	 1.629630e+00	 7.037037e+00	 9.861540e+00
0	 1.629630e+00	 7.111111e+00	 9.867442e+00
0	 1.629630e+00	 7.185185e+00	 9.873238e+00
0	 1.629630e+00	 7.259259e+00	 9.878932e+00
0	 1.629630e+00	 7.333333e+00	 9.884528e+00
0	 1.629630e+00	 7.407407e+00	 9.890030e+00
0	 1.703704e+00	 7.037037e+00	 9.869305e+00
0	 1.703704e+00	 7.111111e+00	 9.874808e+00
0	 1.703704e+00	 7.185185e+00	 9.880218e+00
0	 1.703704e+00	 7.259259e+00	 9.885539e+00
0	 1.703704e+00	 7.333333e+00	 9.890777e+00
0	 1.703704e+00	 7.407407e+00	 9.895936e+00
0	 1.777778e+00	 7.037037e+00	 9.877180e+00
0	 1.777778e+00	 7.111111e+00	 9.882279e+00
0	 1.777778e+00	 7.185185e+00	 9.887300e+00
0	 1.777778e+00	 7.259259e+00	 9.892246e+00
0	 1.777778e+00	 7.333333e+00	 9.897121e+00
0	 1.777778e+00	 7.407407e+00	 9.901932e+00
0	 1.851852e+00	 7.037037e+00	 9.885127e+00
0	 1.851852e+00	 7.111111e+00	 9.889822e+00
0	 1.851852e+00	 7.185185e+00	 9.894451e+00
0	 1.851852e+00	 7.259259e+00	 9.899019e+00
0	 1.851852e+00	 7.333333e+00	 9.903530e+00
0	 1.851852e+00	 7.407407e+00	 9.907991e+00
0	 1.481481e+00	 7.407407e+00	 9.878604e+00
0	 1.481481e+00	 7.481481e+00	 9.884646e+00
0	 1.481481e+00	 7.555556e+00	 9.890551e+00
0	 1.481481e+00	 7.629630e+00	 9.896322e+00
0	 1.481481e+00	 7.703704e+00	 9.901963e+00
0	 1.481481e+00	 7.777778e+00	 9.907479e+00
0	 1.555556e+00	 7.407407e+00	 9.884244e+00
0	 1.555556e+00	 7.481481e+00	 9.889968e+00
0	 1.555556e+00	 7.555556e+00	 9.895565e+00
0	 1.555556e+00	 7.629630e+00	 9.901040e+00
0	 1.555556e+00	 7.703704e+00	 9.906397e+00
0	 1.555556e+00	 7.777778e+00	 9.911641e+00
0	 1.629630e+00	 7.407407e+00	 9.890030e+00
0	 1.629630e+00	 7.481481e+00	 9.895428e+00
0	 1.629630e+00	 7.555556e+00	 9.900711e+00
0	 1.629630e+00	 7.629630e+00	 9.905884e+00
0	 1.629630e+00	 7.703704e+00	 9.910950e+00
0	 1.629630e+00	 7.777778e+00	 9.915916e+00
0	 1.703704e+00	 7.407407e+00	 9.895936e+00
0	 1.703704e+00	 7.481481e+00	 9.901002e+00
0	 1.703704e+00	 7.555556e+00	 9.905966e+00
0	 1.703704e+00	 7.629630e+00	 9.910831e+00
0	 1.703704e+00	 7.703704e+00	 9.915602e+00
0	 1.703704e+00	 7.777778e+00	 9.920283e+00
0	 1.777778e+00	 7.407407e+00	 9.901932e+00
0	 1.777778e+00	 7.481481e+00	 9.906664e+00
0	 1.777778e+00	 7.555556e+00	 9.911304e+00
0	 1.777778e+00	 7.629630e+00	 9.915858e+00
0	 1.777778e+00	 7.703704e+00	 9.920330e+00
0	 1.777778e+00	 7.777778e+00	 9.924724e+00
0	 1.851852e+00	 7.407407e+00	 9.907991e+00
0	 1.851852e+00	 7.481481e+00	 9.912386e+00
0	 1.851852e+00	 7.555556e+00	 9.916702e+00
0	 1.851852e+00	 7.629630e+00	 9.920942e+00
0	 1.851852e+00	 7.703704e+00	 9.925112e+00
0	 1.851852e+00	 7.777778e+00	 9.929217e+00
0	 1.481481e+00	 7.777778e+00	 9.907479e+00
0	 1.481481e+00	 7.851852e+00	 9.912862e+00
0	 1.481481e+00	 7.925926e+00	 9.918102e+00
0	 1.481481e+00	 8.000000e+00	 9.923206e+00
0	 1.481481e+00	 8.074074e+00	 9.928179e+00
0	 1.481481e+00	 8.148148e+00	 9.933024e+00
0	 1.555556e+00	 7.777778e+00	 9.911641e+00
0	 1.555556e+00	 7.851852e+00	 9.916761e+00
0	 1.555556e+00	 7.925926e+00	 9.921750e+00
0	 1.555556e+00	 8.000000e+00	 9.926611e+00
0	 1.555556e+00	 8.074074e+00	 9.931350e+00
0	 1.555556e+00	 8.148148e+00	 9.935970e+00
0	 1.629630e+00	 7.777778e+00	 9.915916e+00
0	 1.629630e+00	 7.851852e+00	 9.920769e+00
0	 1.629630e+00	 7.925926e+00	 9.925499e+00
0	 1.629630e+00	 8.000000e+00	 9.930111e+00
0	 1.629630e+00	 8.074074e+00	 9.934610e+00
0	 1.629630e+00	 8.148148e+00	 9.939001e+00
0	 1.703704e+00	 7.777778e+00	 9.920283e+00
0	 1.703704e+00	 7.851852e+00	 9.924864e+00
0	 1.703704e+00	 7.925926e+00	 9.929331e+00
0	 1.703704e+00	 8.000000e+00	 9.933689e+00
0	 1.703704e+00	 8.074074e+00	 9.937944e+00
0	 1.703704e+00	 8.148148e+00	 9.942100e+00
0	 1.777778e+00	 7.777778e+00	 9.924724e+00
0	 1.777778e+00	 7.851852e+00	 9.929028e+00
0	 1.777778e+00	 7.925926e+00	 9.933227e+00
0	 1.777778e+00	 8.000000e+00	 9.937328e+00
0	 1.777778e+00	 8.074074e+00	 9.941335e+00
0	 1.777778e+00	 8.148148e+00	 9.945252e+00
0	 1.851852e+00	 7.777778e+00	 9.929217e+00
0	 1.851852e+00	 7.851852e+00	 9.933241e+00
0	 1.851852e+00	 7.925926e+00	 9.937171e+00
0	 1.851852e+00	 8.000000e+00	 9.941011e+00
0	 1.851852e+00	 8.074074e+00	 9.944767e+00
0	 1.851852e+00	 8.148148e+00	 9.948442e+00
0	 1.481481e+00	 8.148148e+00	 9.933024e+00
0	 1.481481e+00	 8.222222e+00	 9.937729e+00
0	 1.481481e+00	 8.296296e+00	 9.942283e+00
0	 1.481481e+00	 8.370370e+00	 9.946692e+00
0	 1.481481e+00	 8.444444e+00	 9.950960e+00
0	 1.481481e+00	 8.518519e+00	 9.955093e+00
0	 1.555556e+00	 8.148148e+00	 9.935970e+00
0	 1.555556e+00	 8.222222e+00	 9.940460e+00
0	 1.555556e+00	 8.296296e+00	 9.944807e+00
0	 1.555556e+00	 8.370370e+00	 9.949016e+00
0	 1.555556e+00	 8.444444e+00	 9.953092e+00
0	 1.555556e+00	 8.518519e+00	 9.957042e+00
0	 1.629630e+00	 8.148148e+00	 9.939001e+00
0	 1.629630e+00	 8.222222e+00	 9.943269e+00
0	 1.629630e+00	 8.296296e+00	 9.947403e+00
0	 1.629630e+00	 8.370370e+00	 9.951407e+00
0	 1.629630e+00	 8.444444e+00	 9.955288e+00
0	 1.629630e+00	 8.518519e+00	 9.959050e+00
0	 1.703704e+00	 8.148148e+00	 9.942100e+00
0	 1.703704e+00	 8.222222e+00	 9.946142e+00
0	 1.703704e+00	 8.296296e+00	 9.950059e+00
0	 1.703704e+00	 8.370370e+00	 9.953854e+00
0	 1.703704e+00	 8.444444e+00	 9.957535e+00
0	 1.703704e+00	 8.518519e+00	 9.961105e+00
0	 1.777778e+00	 8.148148e+00	 9.945252e+00
0	 1.777778e+00	 8.222222e+00	 9.949065e+00
0	 1.777778e+00	 8.296296e+00	 9.952761e+00
0	 1.777778e+00	 8.370370e+00	 9.956344e+00
0	 1.777778e+00	 8.444444e+00	 9.959821e+00
0	 1.777778e+00	 8.518519e+00	 9.963195e+00
0	 1.851852e+00	 8.148148e+00	 9.948442e+00
0	 1.851852e+00	 8.222222e+00	 9.952024e+00
0	 1.851852e+00	 8.296296e+00	 9.955496e+00
0	 1.851852e+00	 8.370370e+00	 9.958865e+00
0	 1.851852e+00	 8.444444e+00	 9.962135e+00
0	 1.851852e+00	 8.518519e+00	 9.965311e+00
0	 1.481481e+00	 8.518519e+00	 9.955093e+00
0	 1.481481e+00	 8.592593e+00	 9.959075e+00
0	 1.481481e+00	 8.666667e+00	 9.962889e+00
0	 1.481481e+00	 8.740741e+00	 9.966543e+00
0	 1.481481e+00	 8.814815e+00	 9.970043e+00
0	 1.481481e+00	 8.888889e+00	 9.973396e+00
0	 1.555556e+00	 8.518519e+00	 9.957042e+00
0	 1.555556e+00	 8.592593e+00	 9.960849e+00
0	 1.555556e+00	 8.666667e+00	 9.964496e+00
0	 1.555556e+00	 8.740741e+00	 9.967990e+00
0	 1.555556e+00	 8.814815e+00	 9.971338e+00
0	 1.555556e+00	 8.888889e+00	 9.974546e+00
0	 1.629630e+00	 8.518519e+00	 9.959050e+00
0	 1.629630e+00	 8.592593e+00	 9.962677e+00
0	 1.629630e+00	 8.666667e+00	 9.966152e+00
0	 1.629630e+00	 8.740741e+00	 9.969482e+00
0	 1.629630e+00	 8.814815e+00	 9.972673e+00
0	 1.629630e+00	 8.888889e+00	 9.975732e+00
0	 1.703704e+00	 8.518519e+00	 9.961105e+00
0	 1.703704e+00	 8.592593e+00	 9.964548e+00
0	 1.703704e+00	 8.666667e+00	 9.967847e+00
0	 1.703704e+00	 8.740741e+00	 9.971009e+00
0	 1.703704e+00	 8.814815e+00	 9.974041e+00
0	 1.703704e+00	 8.888889e+00	 9.976947e+00
0	 1.777778e+00	 8.518519e+00	 9.963195e+00
0	 1.777778e+00	 8.592593e+00	 9.966451e+00
0	 1.777778e+00	 8.666667e+00	 9.969572e+00
0	 1.777778e+00	 8.740741e+00	 9.972563e+00
0	 1.777778e+00	 8.814815e+00	 9.975432e+00
0	 1.777778e+00	 8.888889e+00	 9.978183e+00
0	 1.851852e+00	 8.518519e+00	 9.965311e+00
0	 1.851852e+00	 8.592593e+00	 9.968377e+00
0	 1.851852e+00	 8.666667e+00	 9.971317e+00
0	 1.851852e+00	 8.740741e+00	 9.974135e+00
0	 1.851852e+00	 8.814815e+00	 9.976838e+00
0	 1.851852e+00	 8.888889e+00	 9.979432e+00
0	 1.481481e+00	 8.888889e+00	 9.973396e+00
0	 1.481481e+00	 8.962963e+00	 9.976580e+00
0	 1.481481e+00	 9.037037e+00	 9.979571e+00
0	 1.481481e+00	 9.111111e+00	 9.982380e+00
0	 1.481481e+00	 9.185185e+00	 9.985015e+00
0	 1.481481e+00	 9.259259e+00	 9.987483e+00
0	 1.555556e+00	 8.888889e+00	 9.974546e+00
0	 1.555556e+00	 8.962963e+00	 9.977592e+00
0	 1.555556e+00	 9.037037e+00	 9.980454e+00
0	 1.555556e+00	 9.111111e+00	 9.983142e+00
0	 1.555556e+00	 9.185185e+00	 9.985662e+00
0	 1.555556e+00	 9.259259e+00	 9.988024e+00
0	 1.629630e+00	 8.888889e+00	 9.975732e+00
0	 1.629630e+00	 8.962963e+00	 9.978637e+00
0	 1.629630e+00	 9.037037e+00	 9.981367e+00
0	 1.629630e+00	 9.111111e+00	 9.983930e+00
0	 1.629630e+00	 9.185185e+00	 9.986334e+00
0	 1.629630e+00	 9.259259e+00	 9.988587e+00
0	 1.703704e+00	 8.888889e+00	 9.976947e+00
0	 1.703704e+00	 8.962963e+00	 9.979708e+00
0	 1.703704e+00	 9.037037e+00	 9.982303e+00
0	 1.703704e+00	 9.111111e+00	 9.984738e+00
0	 1.703704e+00	 9.185185e+00	 9.987023e+00
0	 1.703704e+00	 9.259259e+00	 9.989164e+00
0	 1.777778e+00	 8.888889e+00	 9.978183e+00
0	 1.777778e+00	 8.962963e+00	 9.980797e+00
0	 1.777778e+00	 9.037037e+00	 9.983254e+00
0	 1.777778e+00	 9.111111e+00	 9.985560e+00
0	 1.777778e+00	 9.185185e+00	 9.987723e+00
0	 1.777778e+00	 9.259259e+00	 9.989750e+00
0	 1.851852e+00	 8.888889e+00	 9.979432e+00
0	 1.851852e+00	 8.962963e+00	 9.981896e+00
0	 1.851852e+00	 9.037037e+00	 9.984213e+00
0	 1.851852e+00	 9.111111e+00	 9.986387e+00
0	 1.851852e+00	 9.185185e+00	 9.988426e+00
0	 1.851852e+00	 9.259259e+00	 9.990338e+00
0	 1.481481e+00	 9.259259e+00	 9.987483e+00
0	 1.481481e+00	 9.333333e+00	 9.989754e+00
0	 1.481481e+00	 9.407407e+00	 9.991797e+00
0	 1.481481e+00	 9.481481e+00	 9.993623e+00
0	 1.481481e+00	 9.555556e+00	 9.995243e+00
0	 1.481481e+00	 9.629630e+00	 9.996667e+00
0	 1.555556e+00	 9.259259e+00	 9.988024e+00
0	 1.555556e+00	 9.333333e+00	 9.990197e+00
0	 1.555556e+00	 9.407407e+00	 9.992152e+00
0	 1.555556e+00	 9.481481e+00	 9.993898e+00
0	 1.555556e+00	 9.555556e+00	 9.995447e+00
0	 1.555556e+00	 9.629630e+00	 9.996809e+00
0	 1.629630e+00	 9.259259e+00	 9.988587e+00
0	 1.629630e+00	 9.333333e+00	 9.990659e+00
0	 1.629630e+00	 9.407407e+00	 9.992523e+00
0	 1.629630e+00	 9.481481e+00	 9.994189e+00
0	 1.629630e+00	 9.555556e+00	 9.995665e+00
0	 1.629630e+00	 9.629630e+00	 9.996963e+00
0	 1.703704e+00	 9.259259e+00	 9.989164e+00
0	 1.703704e+00	 9.333333e+00	 9.991134e+00
0	 1.703704e+00	 9.407407e+00	 9.992905e+00
0	 1.703704e+00	 9.481481e+00	 9.994488e+00
0	 1.703704e+00	 9.555556e+00	 9.995891e+00
0	 1.703704e+00	 9.629630e+00	 9.997123e+00
0	 1.777778e+00	 9.259259e+00	 9.989750e+00
0	 1.777778e+00	 9.333333e+00	 9.991615e+00
0	 1.777778e+00	 9.407407e+00	 9.993292e+00
0	 1.777778e+00	 9.481481e+00	 9.994790e+00
0	 1.777778e+00	 9.555556e+00	 9.996117e+00
0	 1.777778e+00	 9.629630e+00	 9.997283e+00
0	 1.851852e+00	 9.259259e+00	 9.990338e+00
0	 1.851852e+00	 9.333333e+00	 9.992096e+00
0	 1.851852e+00	 9.407407e+00	 9.993677e+00
0	 1.851852e+00	 9.481481e+00	 9.995089e+00
0	 1.851852e+00	 9.555556e+00	 9.996339e+00
0	 1.851852e+00	 9.629630e+00	 9.997437e+00
0	 1.481481e+00	 9.629630e+00	 9.996667e+00
0	 1.481481e+00	 9.703704e+00	 9.997857e+00
0	 1.481481e+00	 9.777778e+00	 9.998774e+00
0	 1.481481e+00	 9.851852e+00	 9.999433e+00
0	 1.481481e+00	 9.925926e+00	 9.999848e+00
0	 1.481481e+00	 1.000000e+01	 1.000003e+01
0	 1.555556e+00	 9.629630e+00	 9.996809e+00
0	 1.555556e+00	 9.703704e+00	 9.997946e+00
0	 1.555556e+00	 9.777778e+00	 9.998823e+00
0	 1.555556e+00	 9.851852e+00	 9.999453e+00
0	 1.555556e+00	 9.925926e+00	 9.999849e+00
0	 1.555556e+00	 1.000000e+01	 1.000002e+01
0	 1.629630e+00	 9.629630e+00	 9.996963e+00
0	 1.629630e+00	 9.703704e+00	 9.998047e+00
0	 1.629630e+00	 9.777778e+00	 9.998883e+00
0	 1.629630e+00	 9.851852e+00	 9.999483e+00
0	 1.629630e+00	 9.925926e+00	 9.999860e+00
0	 1.629630e+00	 1.000000e+01	 1.000002e+01
0	 1.703704e+00	 9.629630e+00	 9.997123e+00
0	 1.703704e+00	 9.703704e+00	 9.998152e+00
0	 1.703704e+00	 9.777778e+00	 9.998946e+00
0	 1.703704e+00	 9.851852e+00	 9.999516e+00
0	 1.703704e+00	 9.925926e+00	 9.999874e+00
0	 1.703704e+00	 1.000000e+01	 1.000003e+01
0	 1.777778e+00	 9.629630e+00	 9.997283e+00
0	 1.777778e+00	 9.703704e+00	 9.998256e+00
0	 1.777778e+00	 9.777778e+00	 9.999007e+00
0	 1.777778e+00	 9.851852e+00	 9.999546e+00
0	 1.777778e+00	 9.925926e+00	 9.999884e+00
0	 1.777778e+00	 1.000000e+01	 1.000003e+01
0	 1.851852e+00	 9.629630e+00	 9.997437e+00
0	 1.851852e+00	 9.703704e+00	 9.998353e+00
0	 1.851852e+00	 9.777778e+00	 9.999060e+00
0	 1.851852e+00	 9.851852e+00	 9.999567e+00
0	 1.851852e+00	 9.925926e+00	 9.999885e+00
0	 1.851852e+00	 1.000000e+01	 1.000002e+01
0	 1.851852e+00	 0.000000e+00	 6.089438e+00
0	 1.851852e+00	 7.407407e-02	 6.517650e+00
0	 1.851852e+00	 1.481481e-01	 7.575787e+00
0	 1.851852e+00	 2.222222e-01	 8.976814e+00
0	 1.851852e+00	 2.962963e-01	 1.043370e+01
0	 1.851852e+00	 3.703704e-01	 1.165941e+01
0	 1.925926e+00	 0.000000e+00	 8.965215e+00
0	 1.925926e+00	 7.407407e-02	 9.166727e+00
0	 1.925926e+00	 1.481481e-01	 9.728587e+00
0	 1.925926e+00	 2.222222e-01	 1.048948e+01
0	 1.925926e+00	 2.962963e-01	 1.128810e+01
0	 1.925926e+00	 3.703704e-01	 1.196312e+01
0	 2.000000e+00	 0.000000e+00	 1.093352e+01
0	 2.000000e+00	 7.407407e-02	 1.101197e+01
0	 2.000000e+00	 1.481481e-01	 1.124313e+01
0	 2.000000e+00	 2.222222e-01	 1.155960e+01
0	 2.000000e+00	 2.962963e-01	 1.189398e+01
0	 2.000000e+00	 3.703704e-01	 1.217887e+01
0	 2.074074e+00	 0.000000e+00	 1.207570e+01
0	 2.074074e+00	 7.407407e-02	 1.210508e+01
0	 2.074074e+00	 1.481481e-01	 1.214604e+01
0	 2.074074e+00	 2.222222e-01	 1.219328e+01
0	 2.074074e+00	 2.962963e-01	 1.224151e+01
0	 2.074074e+00	 3.703704e-01	 1.228544e+01
0	 2.148148e+00	 0.000000e+00	 1.247312e+01
0	 2.148148e+00	 7.407407e-02	 1.249776e+01
0	 2.148148e+00	 1.481481e-01	 1.246392e+01
0	 2.148148e+00	 2.222222e-01	 1.239661e+01
0	 2.148148e+00	 2.962963e-01	 1.232084e+01
0	 2.148148e+00	 3.703704e-01	 1.226164e+01
0	 2.222222e+00	 0.000000e+00	 1.220714e+01
0	 2.222222e+00	 7.407407e-02	 1.224171e+01
0	 2.222222e+00	 1.481481e-01	 1.222339e+01
0	 2.222222e+00	 2.222222e-01	 1.217570e+01
0	 2.222222e+00	 2.962963e-01	 1.212215e+01
0	 2.222222e+00	 3.703704e-01	 1.208626e+01
0	 1.851852e+00	 3.703704e-01	 1.165941e+01
0	 1.851852e+00	 4.444444e-01	 1.245759e+01
0	 1.851852e+00	 5.185185e-01	 1.288980e+01
0	 1.851852e+00	 5.925926e-01	 1.305590e+01
0	 1.851852e+00	 6.666667e-01	 1.305573e+01
0	 1.851852e+00	 7.407407e-01	 1.298913e+01
0	 1.925926e+00	 3.703704e-01	 1.196312e+01
0	 1.925926e+00	 4.444444e-01	 1.240016e+01
0	 1.925926e+00	 5.185185e-01	 1.263225e+01
0	 1.925926e+00	 5.925926e-01	 1.271916e+01
0	 1.925926e+00	 6.666667e-01	 1.272068e+01
0	 1.925926e+00	 7.407407e-01	 1.269660e+01
0	 2.000000e+00	 3.703704e-01	 1.217887e+01
0	 2.000000e+00	 4.444444e-01	 1.236159e+01
0	 2.000000e+00	 5.185185e-01	 1.245409e+01
0	 2.000000e+00	 5.925926e-01	 1.248587e+01
0	 2.000000e+00	 6.666667e-01	 1.248644e+01
0	 2.000000e+00	 7.407407e-01	 1.248533e+01
0	 2.074074e+00	 3.703704e-01	 1.228544e+01
0	 2.074074e+00	 4.444444e-01	 1.231328e+01
0	 2.074074e+00	 5.185185e-01	 1.232274e+01
0	 2.074074e+00	 5.925926e-01	 1.232286e+01
0	 2.074074e+00	 6.666667e-01	 1.232267e+01
0	 2.074074e+00	 7.407407e-01	 1.233119e+01
0	 2.148148e+00	 3.703704e-01	 1.226164e+01
0	 2.148148e+00	 4.444444e-01	 1.222663e+01
0	 2.148148e+00	 5.185185e-01	 1.220564e+01
0	 2.148148e+00	 5.925926e-01	 1.219699e+01
0	 2.148148e+00	 6.666667e-01	 1.219902e+01
0	 2.148148e+00	 7.407407e-01	 1.221005e+01
0	 2.222222e+00	 3.703704e-01	 1.208626e+01
0	 2.222222e+00	 4.444444e-01	 1.207306e+01
0	 2.222222e+00	 5.185185e-01	 1.207020e+01
0	 2.222222e+00	 5.925926e-01	 1.207508e+01
0	 2.222222e+00	 6.666667e-01	 1.208514e+01
0	 2.222222e+00	 7.407407e-01	 1.209779e+01
0	 1.851852e+00	 7.407407e-01	 1.298913e+01
0	 1.851852e+00	 8.148148e-01	 1.292355e+01
0	 1.851852e+00	 8.888889e-01	 1.285769e+01
0	 1.851852e+00	 9.629630e-01	 1.278828e+01
0	 1.851852e+00	 1.037037e+00	 1.271206e+01
0	 1.851852e+00	 1.111111e+00	 1.262576e+01
0	 1.925926e+00	 7.407407e-01	 1.269660e+01
0	 1.925926e+00	 8.148148e-01	 1.267721e+01
0	 1.925926e+00	 8.888889e-01	 1.265177e+01
0	 1.925926e+00	 9.629630e-01	 1.261850e+01
0	 1.925926e+00	 1.037037e+00	 1.257561e+01
0	 1.925926e+00	 1.111111e+00	 1.252133e+01
0	 2.000000e+00	 7.407407e-01	 1.248533e+01
0	 2.000000e+00	 8.148148e-01	 1.248874e+01
0	 2.000000e+00	 8.888889e-01	 1.248284e+01
0	 2.000000e+00	 9.629630e-01	 1.246702e+01
0	 2.000000e+00	 1.037037e+00	 1.244068e+01
0	 2.000000e+00	 1.111111e+00	 1.240320e+01
0	 2.074074e+00	 7.407407e-01	 1.233119e+01
0	 2.074074e+00	 8.148148e-01	 1.234163e+01
0	 2.074074e+00	 8.888889e-01	 1.234138e+01
0	 2.074074e+00	 9.629630e-01	 1.233070e+01
0	 2.074074e+00	 1.037037e+00	 1.230986e+01
0	 2.074074e+00	 1.111111e+00	 1.227913e+01
0	 2.148148e+00	 7.407407e-01	 1.221005e+01
0	 2.148148e+00	 8.148148e-01	 1.221935e+01
0	 2.148148e+00	 8.888889e-01	 1.221785e+01
0	 2.148148e+00	 9.629630e-01	 1.220638e+01
0	 2.148148e+00	 1.037037e+00	 1.218577e+01
0	 2.148148e+00	 1.111111e+00	 1.215686e+01
0	 2.222222e+00	 7.407407e-01	 1.209779e+01
0	 2.222222e+00	 8.148148e-01	 1.210538e+01
0	 2.222222e+00	 8.888889e-01	 1.210272e+01
0	 2.222222e+00	 9.629630e-01	 1.209090e+01
0	 2.222222e+00	 1.037037e+00	 1.207102e+01
0	 2.222222e+00	 1.111111e+00	 1.204414e+01
0	 1.851852e+00	 1.111111e+00	 1.262576e+01
0	 1.851852e+00	 1.185185e+00	 1.252771e+01
0	 1.851852e+00	 1.259259e+00	 1.241892e+01
0	 1.851852e+00	 1.333333e+00	 1.230013e+01
0	 1.851852e+00	 1.407407e+00	 1.217208e+01
0	 1.851852e+00	 1.481481e+00	 1.203551e+01
0	 1.925926e+00	 1.111111e+00	 1.252133e+01
0	 1.925926e+00	 1.185185e+00	 1.245273e+01
0	 1.925926e+00	 1.259259e+00	 1.236846e+01
0	 1.925926e+00	 1.333333e+00	 1.226909e+01
0	 1.925926e+00	 1.407407e+00	 1.215521e+01
0	 1.925926e+00	 1.481481e+00	 1.202737e+01
0	 2.000000e+00	 1.111111e+00	 1.240320e+01
0	 2.000000e+00	 1.185185e+00	 1.235199e+01
0	 2.000000e+00	 1.259259e+00	 1.228509e+01
0	 2.000000e+00	 1.333333e+00	 1.220297e+01
0	 2.000000e+00	 1.407407e+00	 1.210605e+01
0	 2.000000e+00	 1.481481e+00	 1.199478e+01
0	 2.074074e+00	 1.111111e+00	 1.227913e+01
0	 2.074074e+00	 1.185185e+00	 1.223710e+01
0	 2.074074e+00	 1.259259e+00	 1.218239e+01
0	 2.074074e+00	 1.333333e+00	 1.211536e+01
0	 2.074074e+00	 1.407407e+00	 1.203633e+01
0	 2.074074e+00	 1.481481e+00	 1.194564e+01
0	 2.148148e+00	 1.111111e+00	 1.215686e+01
0	 2.148148e+00	 1.185185e+00	 1.211969e+01
0	 2.148148e+00	 1.259259e+00	 1.207394e+01
0	 2.148148e+00	 1.333333e+00	 1.201987e+01
0	 2.148148e+00	 1.407407e+00	 1.195775e+01
0	 2.148148e+00	 1.481481e+00	 1.188787e+01
0	 2.222222e+00	 1.111111e+00	 1.204414e+01
0	 2.222222e+00	 1.185185e+00	 1.201139e+01
0	 2.222222e+00	 1.259259e+00	 1.197330e+01
0	 2.222222e+00	 1.333333e+00	 1.193011e+01
0	 2.222222e+00	 1.407407e+00	 1.188205e+01
0	 2.222222e+00	 1.481481e+00	 1.182935e+01
0	 1.851852e+00	 1.481481e+00	 1.203551e+01
0	 1.851852e+00	 1.555556e+00	 1.189845e+01
0	 1.851852e+00	 1.629630e+00	 1.176699e+01
0	 1.851852e+00	 1.703704e+00	 1.163902e+01
0	 1.851852e+00	 1.777778e+00	 1.151241e+01
0	 1.851852e+00	 1.851852e+00	 1.138505e+01
0	 1.925926e+00	 1.481481e+00	 1.202737e+01
0	 1.925926e+00	 1.555556e+00	 1.189729e+01
0	 1.925926e+00	 1.629630e+00	 1.177477e+01
0	 1.925926e+00	 1.703704e+00	 1.165755e+01
0	 1.925926e+00	 1.777778e+00	 1.154337e+01
0	 1.925926e+00	 1.851852e+00	 1.142997e+01
0	 2.000000e+00	 1.481481e+00	 1.199478e+01
0	 2.000000e+00	 1.555556e+00	 1.188038e+01
0	 2.000000e+00	 1.629630e+00	 1.177228e+01
0	 2.000000e+00	 1.703704e+00	 1.166825e+01
0	 2.000000e+00	 1.777778e+00	 1.156605e+01
0	 2.000000e+00	 1.851852e+00	 1.146343e+01
0	 2.074074e+00	 1.481481e+00	 1.194564e+01
0	 2.074074e+00	 1.555556e+00	 1.185148e+01
0	 2.074074e+00	 1.629630e+00	 1.176041e+01
0	 2.074074e+00	 1.703704e+00	 1.167038e+01
0	 2.074074e+00	 1.777778e+00	 1.157934e+01
0	 2.074074e+00	 1.851852e+00	 1.148524e+01
0	 2.148148e+00	 1.481481e+00	 1.188787e+01
0	 2.148148e+00	 1.555556e+00	 1.181435e+01
0	 2.148148e+00	 1.629630e+00	 1.174002e+01
0	 2.148148e+00	 1.703704e+00	 1.166319e+01
0	 2.148148e+00	 1.777778e+00	 1.158215e+01
0	 2.148148e+00	 1.851852e+00	 1.149521e+01
0	 2.222222e+00	 1.481481e+00	 1.182935e+01
0	 2.222222e+00	 1.555556e+00	 1.177274e+01
0	 2.222222e+00	 1.629630e+00	 1.171200e+01
0	 2.222222e+00	 1.703704e+00	 1.164594e+01
0	 2.222222e+00	 1.777778e+00	 1.157338e+01
0	 2.222222e+00	 1.851852e+00	 1.149314e+01
0	 1.851852e+00	 1.851852e+00	 1.138505e+01
0	 1.851852e+00	 1.925926e+00	 1.126085e+01
0	 1.851852e+00	 2.000000e+00	 1.114445e+01
0	 1.851852e+00	 2.074074e+00	 1.103476e+01
0	 1.851852e+00	 2.148148e+00	 1.093072e+01
0	 1.851852e+00	 2.222222e+00	 1.083127e+01
0	 1.925926e+00	 1.851852e+00	 1.142997e+01
0	 1.925926e+00	 1.925926e+00	 1.131840e+01
0	 1.925926e+00	 2.000000e+00	 1.121096e+01
0	 1.925926e+00	 2.074074e+00	 1.110722e+01
0	 1.925926e+00	 2.148148e+00	 1.100677e+01
0	 1.925926e+00	 2.222222e+00	 1.090918e+01
0	 2.000000e+00	 1.851852e+00	 1.146343e+01
0	 2.000000e+00	 1.925926e+00	 1.136093e+01
0	 2.000000e+00	 2.000000e+00	 1.126058e+01
0	 2.000000e+00	 2.074074e+00	 1.116234e+01
0	 2.000000e+00	 2.148148e+00	 1.106622e+01
0	 2.000000e+00	 2.222222e+00	 1.097218e+01
0	 2.074074e+00	 1.851852e+00	 1.148524e+01
0	 2.074074e+00	 1.925926e+00	 1.138958e+01
0	 2.074074e+00	 2.000000e+00	 1.129533e+01
0	 2.074074e+00	 2.074074e+00	 1.120263e+01
0	 2.074074e+00	 2.148148e+00	 1.111162e+01
0	 2.074074e+00	 2.222222e+00	 1.102245e+01
0	 2.148148e+00	 1.851852e+00	 1.149521e+01
0	 2.148148e+00	 1.925926e+00	 1.140548e+01
0	 2.148148e+00	 2.000000e+00	 1.131725e+01
0	 2.148148e+00	 2.074074e+00	 1.123058e+01
0	 2.148148e+00	 2.148148e+00	 1.114553e+01
0	 2.148148e+00	 2.222222e+00	 1.106216e+01
0	 2.222222e+00	 1.851852e+00	 1.149314e+01
0	 2.222222e+00	 1.925926e+00	 1.140975e+01
0	 2.222222e+00	 2.000000e+00	 1.132836e+01
0	 2.222222e+00	 2.074074e+00	 1.124871e+01
0	 2.222222e+00	 2.148148e+00	 1.117051e+01
0	 2.222222e+00	 2.222222e+00	 1.109349e+01
0	 1.851852e+00	 2.222222e+00	 1.083127e+01
0	 1.851852e+00	 2.296296e+00	 1.073657e+01
0	 1.851852e+00	 2.370370e+00	 1.064747e+01
0	 1.851852e+00	 2.444444e+00	 1.056386e+01
0	 1.851852e+00	 2.518519e+00	 1.048564e+01
0	 1.851852e+00	 2.592593e+00	 1.041271e+01
0	 1.925926e+00	 2.222222e+00	 1.090918e+01
0	 1.925926e+00	 2.296296e+00	 1.081611e+01
0	 1.925926e+00	 2.370370e+00	 1.072912e+01
0	 1.925926e+00	 2.444444e+00	 1.064767e+01
0	 1.925926e+00	 2.518519e+00	 1.057120e+01
0	 1.925926e+00	 2.592593e+00	 1.049916e+01
0	 2.000000e+00	 2.222222e+00	 1.097218e+01
0	 2.000000e+00	 2.296296e+00	 1.088244e+01
0	 2.000000e+00	 2.370370e+00	 1.079864e+01
0	 2.000000e+00	 2.444444e+00	 1.071997e+01
0	 2.000000e+00	 2.518519e+00	 1.064559e+01
0	 2.000000e+00	 2.592593e+00	 1.057467e+01
0	 2.074074e+00	 2.222222e+00	 1.102245e+01
0	 2.074074e+00	 2.296296e+00	 1.093722e+01
0	 2.074074e+00	 2.370370e+00	 1.085731e+01
0	 2.074074e+00	 2.444444e+00	 1.078178e+01
0	 2.074074e+00	 2.518519e+00	 1.070970e+01
0	 2.074074e+00	 2.592593e+00	 1.064011e+01
0	 2.148148e+00	 2.222222e+00	 1.106216e+01
0	 2.148148e+00	 2.296296e+00	 1.098210e+01
0	 2.148148e+00	 2.370370e+00	 1.090638e+01
0	 2.148148e+00	 2.444444e+00	 1.083411e+01
0	 2.148148e+00	 2.518519e+00	 1.076440e+01
0	 2.148148e+00	 2.592593e+00	 1.069639e+01
0	 2.222222e+00	 2.222222e+00	 1.109349e+01
0	 2.222222e+00	 2.296296e+00	 1.101875e+01
0	 2.222222e+00	 2.370370e+00	 1.094712e+01
0	 2.222222e+00	 2.444444e+00	 1.087795e+01
0	 2.222222e+00	 2.518519e+00	 1.081059e+01
0	 2.222222e+00	 2.592593e+00	 1.074438e+01
0	 1.851852e+00	 2.592593e+00	 1.041271e+01
0	 1.851852e+00	 2.666667e+00	 1.034511e+01
0	 1.851852e+00	 2.740741e+00	 1.028282e+01
0	 1.851852e+00	 2.814815e+00	 1.022562e+01
0	 1.851852e+00	 2.888889e+00	 1.017329e+01
0	 1.851852e+00	 2.962963e+00	 1.012563e+01
0	 1.925926e+00	 2.592593e+00	 1.049916e+01
0	 1.925926e+00	 2.666667e+00	 1.043144e+01
0	 1.925926e+00	 2.740741e+00	 1.036827e+01
0	 1.925926e+00	 2.814815e+00	 1.030964e+01
0	 1.925926e+00	 2.888889e+00	 1.025551e+01
0	 1.925926e+00	 2.962963e+00	 1.020588e+01
0	 2.000000e+00	 2.592593e+00	 1.057467e+01
0	 2.000000e+00	 2.666667e+00	 1.050720e+01
0	 2.000000e+00	 2.740741e+00	 1.044381e+01
0	 2.000000e+00	 2.814815e+00	 1.038459e+01
0	 2.000000e+00	 2.888889e+00	 1.032963e+01
0	 2.000000e+00	 2.962963e+00	 1.027902e+01
0	 2.074074e+00	 2.592593e+00	 1.064011e+01
0	 2.074074e+00	 2.666667e+00	 1.057332e+01
0	 2.074074e+00	 2.740741e+00	 1.051034e+01
0	 2.074074e+00	 2.814815e+00	 1.045130e+01
0	 2.074074e+00	 2.888889e+00	 1.039631e+01
0	 2.074074e+00	 2.962963e+00	 1.034551e+01
0	 2.148148e+00	 2.592593e+00	 1.069639e+01
0	 2.148148e+00	 2.666667e+00	 1.063074e+01
0	 2.148148e+00	 2.740741e+00	 1.056878e+01
0	 2.148148e+00	 2.814815e+00	 1.051059e+01
0	 2.148148e+00	 2.888889e+00	 1.045625e+01
0	 2.148148e+00	 2.962963e+00	 1.040582e+01
0	 2.222222e+00	 2.592593e+00	 1.074438e+01
0	 2.222222e+00	 2.666667e+00	 1.068038e+01
0	 2.222222e+00	 2.740741e+00	 1.062004e+01
0	 2.222222e+00	 2.814815e+00	 1.056331e+01
0	 2.222222e+00	 2.888889e+00	 1.051012e+01
0	 2.222222e+00	 2.962963e+00	 1.046043e+01
0	 1.851852e+00	 2.962963e+00	 1.012563e+01
0	 1.851852e+00	 3.037037e+00	 1.008194e+01
0	 1.851852e+00	 3.111111e+00	 1.004176e+01
0	 1.851852e+00	 3.185185e+00	 1.000524e+01
0	 1.851852e+00	 3.259259e+00	 9.972546e+00
0	 1.851852e+00	 3.333333e+00	 9.943816e+00
0	 1.925926e+00	 2.962963e+00	 1.020588e+01
0	 1.925926e+00	 3.037037e+00	 1.016034e+01
0	 1.925926e+00	 3.111111e+00	 1.011849e+01
0	 1.925926e+00	 3.185185e+00	 1.008033e+01
0	 1.925926e+00	 3.259259e+00	 1.004584e+01
0	 1.925926e+00	 3.333333e+00	 1.001504e+01
0	 2.000000e+00	 2.962963e+00	 1.027902e+01
0	 2.000000e+00	 3.037037e+00	 1.023248e+01
0	 2.000000e+00	 3.111111e+00	 1.018957e+01
0	 2.000000e+00	 3.185185e+00	 1.015018e+01
0	 2.000000e+00	 3.259259e+00	 1.011422e+01
0	 2.000000e+00	 3.333333e+00	 1.008156e+01
0	 2.074074e+00	 2.962963e+00	 1.034551e+01
0	 2.074074e+00	 3.037037e+00	 1.029860e+01
0	 2.074074e+00	 3.111111e+00	 1.025509e+01
0	 2.074074e+00	 3.185185e+00	 1.021484e+01
0	 2.074074e+00	 3.259259e+00	 1.017767e+01
0	 2.074074e+00	 3.333333e+00	 1.014342e+01
0	 2.148148e+00	 2.962963e+00	 1.040582e+01
0	 2.148148e+00	 3.037037e+00	 1.035897e+01
0	 2.148148e+00	 3.111111e+00	 1.031519e+01
0	 2.148148e+00	 3.185185e+00	 1.027432e+01
0	 2.148148e+00	 3.259259e+00	 1.023619e+01
0	 2.148148e+00	 3.333333e+00	 1.020065e+01
0	 2.222222e+00	 2.962963e+00	 1.046043e+01
0	 2.222222e+00	 3.037037e+00	 1.041385e+01
0	 2.222222e+00	 3.111111e+00	 1.036996e+01
0	 2.222222e+00	 3.185185e+00	 1.032865e+01
0	 2.222222e+00	 3.259259e+00	 1.028979e+01
0	 2.222222e+00	 3.333333e+00	 1.025328e+01
0	 1.851852e+00	 3.333333e+00	 9.943816e+00
0	 1.851852e+00	 3.407407e+00	 9.918251e+00
0	 1.851852e+00	 3.481481e+00	 9.894950e+00
0	 1.851852e+00	 3.555556e+00	 9.873924e+00
0	 1.851852e+00	 3.629630e+00	 9.855180e+00
0	 1.851852e+00	 3.703704e+00	 9.838727e+00
0	 1.925926e+00	 3.333333e+00	 1.001504e+01
0	 1.925926e+00	 3.407407e+00	 9.987132e+00
0	 1.925926e+00	 3.481481e+00	 9.961399e+00
0	 1.925926e+00	 3.555556e+00	 9.937911e+00
0	 1.925926e+00	 3.629630e+00	 9.916739e+00
0	 1.925926e+00	 3.703704e+00	 9.897955e+00
0	 2.000000e+00	 3.333333e+00	 1.008156e+01
0	 2.000000e+00	 3.407407e+00	 1.005157e+01
0	 2.000000e+00	 3.481481e+00	 1.002375e+01
0	 2.000000e+00	 3.555556e+00	 9.998214e+00
0	 2.000000e+00	 3.629630e+00	 9.975060e+00
0	 2.000000e+00	 3.703704e+00	 9.954399e+00
0	 2.074074e+00	 3.333333e+00	 1.014342e+01
0	 2.074074e+00	 3.407407e+00	 1.011165e+01
0	 2.074074e+00	 3.481481e+00	 1.008211e+01
0	 2.074074e+00	 3.555556e+00	 1.005492e+01
0	 2.074074e+00	 3.629630e+00	 1.003018e+01
0	 2.074074e+00	 3.703704e+00	 1.000802e+01
0	 2.148148e+00	 3.333333e+00	 1.020065e+01
0	 2.148148e+00	 3.407407e+00	 1.016746e+01
0	 2.148148e+00	 3.481481e+00	 1.013658e+01
0	 2.148148e+00	 3.555556e+00	 1.010812e+01
0	 2.148148e+00	 3.629630e+00	 1.008215e+01
0	 2.148148e+00	 3.703704e+00	 1.005877e+01
0	 2.222222e+00	 3.333333e+00	 1.025328e+01
0	 2.222222e+00	 3.407407e+00	 1.021908e+01
0	 2.222222e+00	 3.481481e+00	 1.018727e+01
0	 2.222222e+00	 3.555556e+00	 1.015789e+01
0	 2.222222e+00	 3.629630e+00	 1.013099e+01
0	 2.222222e+00	 3.703704e+00	 1.010661e+01
0	 1.851852e+00	 3.703704e+00	 9.838727e+00
0	 1.851852e+00	 3.777778e+00	 9.824190e+00
0	 1.851852e+00	 3.851852e+00	 9.811257e+00
0	 1.851852e+00	 3.925926e+00	 9.800024e+00
0	 1.851852e+00	 4.000000e+00	 9.790590e+00
0	 1.851852e+00	 4.074074e+00	 9.783052e+00
0	 1.925926e+00	 3.703704e+00	 9.897955e+00
0	 1.925926e+00	 3.777778e+00	 9.881237e+00
0	 1.925926e+00	 3.851852e+00	 9.866250e+00
0	 1.925926e+00	 3.925926e+00	 9.853043e+00
0	 1.925926e+00	 4.000000e+00	 9.841661e+00
0	 1.925926e+00	 4.074074e+00	 9.832155e+00
0	 2.000000e+00	 3.703704e+00	 9.954399e+00
0	 2.000000e+00	 3.777778e+00	 9.935893e+00
0	 2.000000e+00	 3.851852e+00	 9.919145e+00
0	 2.000000e+00	 3.925926e+00	 9.904169e+00
0	 2.000000e+00	 4.000000e+00	 9.890979e+00
0	 2.000000e+00	 4.074074e+00	 9.879590e+00
0	 2.074074e+00	 3.703704e+00	 1.000802e+01
0	 2.074074e+00	 3.777778e+00	 9.988033e+00
0	 2.074074e+00	 3.851852e+00	 9.969762e+00
0	 2.074074e+00	 3.925926e+00	 9.953201e+00
0	 2.074074e+00	 4.000000e+00	 9.938346e+00
0	 2.074074e+00	 4.074074e+00	 9.925195e+00
0	 2.148148e+00	 3.703704e+00	 1.005877e+01
0	 2.148148e+00	 3.777778e+00	 1.003753e+01
0	 2.148148e+00	 3.851852e+00	 1.001792e+01
0	 2.148148e+00	 3.925926e+00	 9.999934e+00
0	 2.148148e+00	 4.000000e+00	 9.983565e+00
0	 2.148148e+00	 4.074074e+00	 9.968808e+00
0	 2.222222e+00	 3.703704e+00	 1.010661e+01
0	 2.222222e+00	 3.777778e+00	 1.008426e+01
0	 2.222222e+00	 3.851852e+00	 1.006344e+01
0	 2.222222e+00	 3.925926e+00	 1.004417e+01
0	 2.222222e+00	 4.000000e+00	 1.002644e+01
0	 2.222222e+00	 4.074074e+00	 1.001027e+01
0	 1.851852e+00	 4.074074e+00	 9.783052e+00
0	 1.851852e+00	 4.148148e+00	 9.776920e+00
0	 1.851852e+00	 4.222222e+00	 9.771658e+00
0	 1.851852e+00	 4.296296e+00	 9.767297e+00
0	 1.851852e+00	 4.370370e+00	 9.763868e+00
0	 1.851852e+00	 4.444444e+00	 9.761401e+00
0	 1.925926e+00	 4.074074e+00	 9.832155e+00
0	 1.925926e+00	 4.148148e+00	 9.824032e+00
0	 1.925926e+00	 4.222222e+00	 9.816808e+00
0	 1.925926e+00	 4.296296e+00	 9.810535e+00
0	 1.925926e+00	 4.370370e+00	 9.805265e+00
0	 1.925926e+00	 4.444444e+00	 9.801053e+00
0	 2.000000e+00	 4.074074e+00	 9.879590e+00
0	 2.000000e+00	 4.148148e+00	 9.869565e+00
0	 2.000000e+00	 4.222222e+00	 9.860504e+00
0	 2.000000e+00	 4.296296e+00	 9.852473e+00
0	 2.000000e+00	 4.370370e+00	 9.845537e+00
0	 2.000000e+00	 4.444444e+00	 9.839762e+00
0	 2.074074e+00	 4.074074e+00	 9.925195e+00
0	 2.074074e+00	 4.148148e+00	 9.913397e+00
0	 2.074074e+00	 4.222222e+00	 9.902652e+00
0	 2.074074e+00	 4.296296e+00	 9.893026e+00
0	 2.074074e+00	 4.370370e+00	 9.884588e+00
0	 2.074074e+00	 4.444444e+00	 9.877406e+00
0	 2.148148e+00	 4.074074e+00	 9.968808e+00
0	 2.148148e+00	 4.148148e+00	 9.955409e+00
0	 2.148148e+00	 4.222222e+00	 9.943155e+00
0	 2.148148e+00	 4.296296e+00	 9.932106e+00
0	 2.148148e+00	 4.370370e+00	 9.922323e+00
0	 2.148148e+00	 4.444444e+00	 9.913864e+00
0	 2.222222e+00	 4.074074e+00	 1.001027e+01
0	 2.222222e+00	 4.148148e+00	 9.995480e+00
0	 2.222222e+00	 4.222222e+00	 9.981919e+00
0	 2.222222e+00	 4.296296e+00	 9.969625e+00
0	 2.222222e+00	 4.370370e+00	 9.958643e+00
0	 2.222222e+00	 4.444444e+00	 9.949014e+00
0	 1.851852e+00	 4.444444e+00	 9.761401e+00
0	 1.851852e+00	 4.518519e+00	 9.759723e+00
0	 1.851852e+00	 4.592593e+00	 9.758670e+00
0	 1.851852e+00	 4.666667e+00	 9.758288e+00
0	 1.851852e+00	 4.740741e+00	 9.758624e+00
0	 1.851852e+00	 4.814815e+00	 9.759725e+00
0	 1.925926e+00	 4.444444e+00	 9.801053e+00
0	 1.925926e+00	 4.518519e+00	 9.797731e+00
0	 1.925926e+00	 4.592593e+00	 9.795119e+00
0	 1.925926e+00	 4.666667e+00	 9.793246e+00
0	 1.925926e+00	 4.740741e+00	 9.792145e+00
0	 1.925926e+00	 4.814815e+00	 9.791846e+00
0	 2.000000e+00	 4.444444e+00	 9.839762e+00
0	 2.000000e+00	 4.518519e+00	 9.834958e+00
0	 2.000000e+00	 4.592593e+00	 9.830906e+00
0	 2.000000e+00	 4.666667e+00	 9.827628e+00
0	 2.000000e+00	 4.740741e+00	 9.825144e+00
0	 2.000000e+00	 4.814815e+00	 9.823476e+00
0	 2.074074e+00	 4.444444e+00	 9.877406e+00
0	 2.074074e+00	 4.518519e+00	 9.871252e+00
0	 2.074074e+00	 4.592593e+00	 9.865866e+00
0	 2.074074e+00	 4.666667e+00	 9.861262e+00
0	 2.074074e+00	 4.740741e+00	 9.857458e+00
0	 2.074074e+00	 4.814815e+00	 9.854471e+00
0	 2.148148e+00	 4.444444e+00	 9.913864e+00
0	 2.148148e+00	 4.518519e+00	 9.906465e+00
0	 2.148148e+00	 4.592593e+00	 9.899831e+00
0	 2.148148e+00	 4.666667e+00	 9.893979e+00
0	 2.148148e+00	 4.740741e+00	 9.888925e+00
0	 2.148148e+00	 4.814815e+00	 9.884688e+00
0	 2.222222e+00	 4.444444e+00	 9.949014e+00
0	 2.222222e+00	 4.518519e+00	 9.940447e+00
0	 2.222222e+00	 4.592593e+00	 9.932637e+00
0	 2.222222e+00	 4.666667e+00	 9.925608e+00
0	 2.222222e+00	 4.740741e+00	 9.919383e+00
0	 2.222222e+00	 4.814815e+00	 9.913984e+00
0	 1.851852e+00	 4.814815e+00	 9.759725e+00
0	 1.851852e+00	 4.888889e+00	 9.761367e+00
0	 1.851852e+00	 4.962963e+00	 9.763309e+00
0	 1.851852e+00	 5.037037e+00	 9.765574e+00
0	 1.851852e+00	 5.111111e+00	 9.768182e+00
0	 1.851852e+00	 5.185185e+00	 9.771154e+00
0	 1.925926e+00	 4.814815e+00	 9.791846e+00
0	 1.925926e+00	 4.888889e+00	 9.792119e+00
0	 1.925926e+00	 4.962963e+00	 9.792729e+00
0	 1.925926e+00	 5.037037e+00	 9.793709e+00
0	 1.925926e+00	 5.111111e+00	 9.795085e+00
0	 1.925926e+00	 5.185185e+00	 9.796889e+00
0	 2.000000e+00	 4.814815e+00	 9.823476e+00
0	 2.000000e+00	 4.888889e+00	 9.822407e+00
0	 2.000000e+00	 4.962963e+00	 9.821729e+00
0	 2.000000e+00	 5.037037e+00	 9.821476e+00
0	 2.000000e+00	 5.111111e+00	 9.821683e+00
0	 2.000000e+00	 5.185185e+00	 9.822383e+00
0	 2.074074e+00	 4.814815e+00	 9.854471e+00
0	 2.074074e+00	 4.888889e+00	 9.852110e+00
0	 2.074074e+00	 4.962963e+00	 9.850202e+00
0	 2.074074e+00	 5.037037e+00	 9.848780e+00
0	 2.074074e+00	 5.111111e+00	 9.847880e+00
0	 2.074074e+00	 5.185185e+00	 9.847536e+00
0	 2.148148e+00	 4.814815e+00	 9.884688e+00
0	 2.148148e+00	 4.888889e+00	 9.881109e+00
0	 2.148148e+00	 4.962963e+00	 9.878043e+00
0	 2.148148e+00	 5.037037e+00	 9.875523e+00
0	 2.148148e+00	 5.111111e+00	 9.873580e+00
0	 2.148148e+00	 5.185185e+00	 9.872248e+00
0	 2.222222e+00	 4.814815e+00	 9.913984e+00
0	 2.222222e+00	 4.888889e+00	 9.909282e+00
0	 2.222222e+00	 4.962963e+00	 9.905147e+00
0	 2.222222e+00	 5.037037e+00	 9.901607e+00
0	 2.222222e+00	 5.111111e+00	 9.898688e+00
0	 2.222222e+00	 5.185185e+00	 9.896416e+00
0	 1.851852e+00	 5.185185e+00	 9.771154e+00
0	 1.851852e+00	 5.259259e+00	 9.774408e+00
0	 1.851852e+00	 5.333333e+00	 9.777862e+00
0	 1.851852e+00	 5.407407e+00	 9.781537e+00
0	 1.851852e+00	 5.481481e+00	 9.785454e+00
0	 1.851852e+00	 5.555556e+00	 9.789634e+00
0	 1.925926e+00	 5.185185e+00	 9.796889e+00
0	 1.925926e+00	 5.259259e+00	 9.799035e+00
0	 1.925926e+00	 5.333333e+00	 9.801431e+00
0	 1.925926e+00	 5.407407e+00	 9.804094e+00
0	 1.925926e+00	 5.481481e+00	 9.807041e+00
0	 1.925926e+00	 5.555556e+00	 9.810287e+00
0	 2.000000e+00	 5.185185e+00	 9.822383e+00
0	 2.000000e+00	 5.259259e+00	 9.823480e+00
0	 2.000000e+00	 5.333333e+00	 9.824862e+00
0	 2.000000e+00	 5.407407e+00	 9.826543e+00
0	 2.000000e+00	 5.481481e+00	 9.828539e+00
0	 2.000000e+00	 5.555556e+00	 9.830862e+00
0	 2.074074e+00	 5.185185e+00	 9.847536e+00
0	 2.074074e+00	 5.259259e+00	 9.847634e+00
0	 2.074074e+00	 5.333333e+00	 9.848042e+00
0	 2.074074e+00	 5.407407e+00	 9.848775e+00
0	 2.074074e+00	 5.481481e+00	 9.849844e+00
0	 2.074074e+00	 5.555556e+00	 9.851263e+00
0	 2.148148e+00	 5.185185e+00	 9.872248e+00
0	 2.148148e+00	 5.259259e+00	 9.871391e+00
0	 2.148148e+00	 5.333333e+00	 9.870864e+00
0	 2.148148e+00	 5.407407e+00	 9.870679e+00
0	 2.148148e+00	 5.481481e+00	 9.870852e+00
0	 2.148148e+00	 5.555556e+00	 9.871396e+00
0	 2.222222e+00	 5.185185e+00	 9.896416e+00
0	 2.222222e+00	 5.259259e+00	 9.894643e+00
0	 2.222222e+00	 5.333333e+00	 9.893214e+00
0	 2.222222e+00	 5.407407e+00	 9.892148e+00
0	 2.222222e+00	 5.481481e+00	 9.891459e+00
0	 2.222222e+00	 5.555556e+00	 9.891166e+00
0	 1.851852e+00	 5.555556e+00	 9.789634e+00
0	 1.851852e+00	 5.629630e+00	 9.793985e+00
0	 1.851852e+00	 5.703704e+00	 9.798406e+00
0	 1.851852e+00	 5.777778e+00	 9.802910e+00
0	 1.851852e+00	 5.851852e+00	 9.807510e+00
0	 1.851852e+00	 5.925926e+00	 9.812217e+00
0	 1.925926e+00	 5.555556e+00	 9.810287e+00
0	 1.925926e+00	 5.629630e+00	 9.813735e+00
0	 1.925926e+00	 5.703704e+00	 9.817282e+00
0	 1.925926e+00	 5.777778e+00	 9.820945e+00
0	 1.925926e+00	 5.851852e+00	 9.824739e+00
0	 1.925926e+00	 5.925926e+00	 9.828679e+00
0	 2.000000e+00	 5.555556e+00	 9.830862e+00
0	 2.000000e+00	 5.629630e+00	 9.833415e+00
0	 2.000000e+00	 5.703704e+00	 9.836102e+00
0	 2.000000e+00	 5.777778e+00	 9.838941e+00
0	 2.000000e+00	 5.851852e+00	 9.841948e+00
0	 2.000000e+00	 5.925926e+00	 9.845140e+00
0	 2.074074e+00	 5.555556e+00	 9.851263e+00
0	 2.074074e+00	 5.629630e+00	 9.852941e+00
0	 2.074074e+00	 5.703704e+00	 9.854789e+00
0	 2.074074e+00	 5.777778e+00	 9.856826e+00
0	 2.074074e+00	 5.851852e+00	 9.859068e+00
0	 2.074074e+00	 5.925926e+00	 9.861534e+00
0	 2.148148e+00	 5.555556e+00	 9.871396e+00
0	 2.148148e+00	 5.629630e+00	 9.872227e+00
0	 2.148148e+00	 5.703704e+00	 9.873266e+00
0	 2.148148e+00	 5.777778e+00	 9.874528e+00
0	 2.148148e+00	 5.851852e+00	 9.876030e+00
0	 2.148148e+00	 5.925926e+00	 9.877790e+00
0	 2.222222e+00	 5.555556e+00	 9.891166e+00
0	 2.222222e+00	 5.629630e+00	 9.891190e+00
0	 2.222222e+00	 5.703704e+00	 9.891455e+00
0	 2.222222e+00	 5.777778e+00	 9.891975e+00
0	 2.222222e+00	 5.851852e+00	 9.892766e+00
0	 2.222222e+00	 5.925926e+00	 9.893841e+00
0	 1.851852e+00	 5.925926e+00	 9.812217e+00
0	 1.851852e+00	 6.000000e+00	 9.816993e+00
0	 1.851852e+00	 6.074074e+00	 9.821794e+00
0	 1.851852e+00	 6.148148e+00	 9.826632e+00
0	 1.851852e+00	 6.222222e+00	 9.831516e+00
0	 1.851852e+00	 6.296296e+00	 9.836457e+00
0	 1.925926e+00	 5.925926e+00	 9.828679e+00
0	 1.925926e+00	 6.000000e+00	 9.832721e+00
0	 1.925926e+00	 6.074074e+00	 9.836820e+00
0	 1.925926e+00	 6.148148e+00	 9.840983e+00
0	 1.925926e+00	 6.222222e+00	 9.845220e+00
0	 1.925926e+00	 6.296296e+00	 9.849540e+00
0	 2.000000e+00	 5.925926e+00	 9.845140e+00
0	 2.000000e+00	 6.000000e+00	 9.848468e+00
0	 2.000000e+00	 6.074074e+00	 9.851876e+00
0	 2.000000e+00	 6.148148e+00	 9.855373e+00
0	 2.000000e+00	 6.222222e+00	 9.858968e+00
0	 2.000000e+00	 6.296296e+00	 9.862669e+00
0	 2.074074e+00	 5.925926e+00	 9.861534e+00
0	 2.074074e+00	 6.000000e+00	 9.864164e+00
0	 2.074074e+00	 6.074074e+00	 9.866896e+00
0	 2.074074e+00	 6.148148e+00	 9.869738e+00
0	 2.074074e+00	 6.222222e+00	 9.872699e+00
0	 2.074074e+00	 6.296296e+00	 9.875787e+00
0	 2.148148e+00	 5.925926e+00	 9.877790e+00
0	 2.148148e+00	 6.000000e+00	 9.879741e+00
0	 2.148148e+00	 6.074074e+00	 9.881811e+00
0	 2.148148e+00	 6.148148e+00	 9.884011e+00
0	 2.148148e+00	 6.222222e+00	 9.886350e+00
0	 2.148148e+00	 6.296296e+00	 9.888836e+00
0	 2.222222e+00	 5.925926e+00	 9.893841e+00
0	 2.222222e+00	 6.000000e+00	 9.895129e+00
0	 2.222222e+00	 6.074074e+00	 9.896554e+00
0	 2.222222e+00	 6.148148e+00	 9.898127e+00
0	 2.222222e+00	 6.222222e+00	 9.899858e+00
0	 2.222222e+00	 6.296296e+00	 9.901758e+00
0	 1.851852e+00	 6.296296e+00	 9.836457e+00
0	 1.851852e+00	 6.370370e+00	 9.841416e+00
0	 1.851852e+00	 6.444444e+00	 9.846352e+00
0	 1.851852e+00	 6.518519e+00	 9.851271e+00
0	 1.851852e+00	 6.592593e+00	 9.856181e+00
0	 1.851852e+00	 6.666667e+00	 9.861089e+00
0	 1.925926e+00	 6.296296e+00	 9.849540e+00
0	 1.925926e+00	 6.370370e+00	 9.853900e+00
0	 1.925926e+00	 6.444444e+00	 9.858256e+00
0	 1.925926e+00	 6.518519e+00	 9.862618e+00
0	 1.925926e+00	 6.592593e+00	 9.866992e+00
0	 1.925926e+00	 6.666667e+00	 9.871388e+00
0	 2.000000e+00	 6.296296e+00	 9.862669e+00
0	 2.000000e+00	 6.370370e+00	 9.866432e+00
0	 2.000000e+00	 6.444444e+00	 9.870212e+00
0	 2.000000e+00	 6.518519e+00	 9.874019e+00
0	 2.000000e+00	 6.592593e+00	 9.877863e+00
0	 2.000000e+00	 6.666667e+00	 9.881751e+00
0	 2.074074e+00	 6.296296e+00	 9.875787e+00
0	 2.074074e+00	 6.370370e+00	 9.878958e+00
0	 2.074074e+00	 6.444444e+00	 9.882169e+00
0	 2.074074e+00	 6.518519e+00	 9.885429e+00
0	 2.074074e+00	 6.592593e+00	 9.888747e+00
0	 2.074074e+00	 6.666667e+00	 9.892133e+00
0	 2.148148e+00	 6.296296e+00	 9.888836e+00
0	 2.148148e+00	 6.370370e+00	 9.891427e+00
0	 2.148148e+00	 6.444444e+00	 9.894079e+00
0	 2.148148e+00	 6.518519e+00	 9.896801e+00
0	 2.148148e+00	 6.592593e+00	 9.899602e+00
0	 2.148148e+00	 6.666667e+00	 9.902492e+00
0	 2.222222e+00	 6.296296e+00	 9.901758e+00
0	 2.222222e+00	 6.370370e+00	 9.903783e+00
0	 2.222222e+00	 6.444444e+00	 9.905890e+00
0	 2.222222e+00	 6.518519e+00	 9.908087e+00
0	 2.222222e+00	 6.592593e+00	 9.910382e+00
0	 2.222222e+00	 6.666667e+00	 9.912785e+00
0	 1.851852e+00	 6.666667e+00	 9.861089e+00
0	 1.851852e+00	 6.740741e+00	 9.865975e+00
0	 1.851852e+00	 6.814815e+00	 9.870815e+00
0	 1.851852e+00	 6.888889e+00	 9.875617e+00
0	 1.851852e+00	 6.962963e+00	 9.880386e+00
0	 1.851852e+00	 7.037037e+00	 9.885127e+00
0	 1.925926e+00	 6.666667e+00	 9.871388e+00
0	 1.925926e+00	 6.740741e+00	 9.875782e+00
0	 1.925926e+00	 6.814815e+00	 9.880149e+00
0	 1.925926e+00	 6.888889e+00	 9.884495e+00
0	 1.925926e+00	 6.962963e+00	 9.888824e+00
0	 1.925926e+00	 7.037037e+00	 9.893144e+00
0	 2.000000e+00	 6.666667e+00	 9.881751e+00
0	 2.000000e+00	 6.740741e+00	 9.885656e+00
0	 2.000000e+00	 6.814815e+00	 9.889551e+00
0	 2.000000e+00	 6.888889e+00	 9.893441e+00
0	 2.000000e+00	 6.962963e+00	 9.897332e+00
0	 2.000000e+00	 7.037037e+00	 9.901229e+00
0	 2.074074e+00	 6.666667e+00	 9.892133e+00
0	 2.074074e+00	 6.740741e+00	 9.895555e+00
0	 2.074074e+00	 6.814815e+00	 9.898982e+00
0	 2.074074e+00	 6.888889e+00	 9.902418e+00
0	 2.074074e+00	 6.962963e+00	 9.905871e+00
0	 2.074074e+00	 7.037037e+00	 9.909346e+00
0	 2.148148e+00	 6.666667e+00	 9.902492e+00
0	 2.148148e+00	 6.740741e+00	 9.905437e+00
0	 2.148148e+00	 6.814815e+00	 9.908400e+00
0	 2.148148e+00	 6.888889e+00	 9.911388e+00
0	 2.148148e+00	 6.962963e+00	 9.914406e+00
0	 2.148148e+00	 7.037037e+00	 9.917463e+00
0	 2.222222e+00	 6.666667e+00	 9.912785e+00
0	 2.222222e+00	 6.740741e+00	 9.915259e+00
0	 2.222222e+00	 6.814815e+00	 9.917765e+00
0	 2.222222e+00	 6.888889e+00	 9.920310e+00
0	 2.222222e+00	 6.962963e+00	 9.922900e+00
0	 2.222222e+00	 7.037037e+00	 9.925543e+00
0	 1.851852e+00	 7.037037e+00	 9.885127e+00
0	 1.851852e+00	 7.111111e+00	 9.889822e+00
0	 1.851852e+00	 7.185185e+00	 9.894451e+00
0	 1.851852e+00	 7.259259e+00	 9.899019e+00
0	 1.851852e+00	 7.333333e+00	 9.903530e+00
0	 1.851852e+00	 7.407407e+00	 9.907991e+00
0	 1.925926e+00	 7.037037e+00	 9.893144e+00
0	 1.925926e+00	 7.111111e+00	 9.897433e+00
0	 1.925926e+00	 7.185185e+00	 9.901668e+00
0	 1.925926e+00	 7.259259e+00	 9.905856e+00
0	 1.925926e+00	 7.333333e+00	 9.910002e+00
0	 1.925926e+00	 7.407407e+00	 9.914112e+00
0	 2.000000e+00	 7.037037e+00	 9.901229e+00
0	 2.000000e+00	 7.111111e+00	 9.905109e+00
0	 2.000000e+00	 7.185185e+00	 9.908950e+00
0	 2.000000e+00	 7.259259e+00	 9.912758e+00
0	 2.000000e+00	 7.333333e+00	 9.916538e+00
0	 2.000000e+00	 7.407407e+00	 9.920295e+00
0	 2.074074e+00	 7.037037e+00	 9.909346e+00
0	 2.074074e+00	 7.111111e+00	 9.912819e+00
0	 2.074074e+00	 7.185185e+00	 9.916267e+00
0	 2.074074e+00	 7.259259e+00	 9.919695e+00
0	 2.074074e+00	 7.333333e+00	 9.923109e+00
0	 2.074074e+00	 7.407407e+00	 9.926515e+00
0	 2.148148e+00	 7.037037e+00	 9.917463e+00
0	 2.148148e+00	 7.111111e+00	 9.920531e+00
0	 2.148148e+00	 7.185185e+00	 9.923588e+00
0	 2.148148e+00	 7.259259e+00	 9.926639e+00
0	 2.148148e+00	 7.333333e+00	 9.929689e+00
0	 2.148148e+00	 7.407407e+00	 9.932745e+00
0	 2.222222e+00	 7.037037e+00	 9.925543e+00
0	 2.222222e+00	 7.111111e+00	 9.928213e+00
0	 2.222222e+00	 7.185185e+00	 9.930884e+00
0	 2.222222e+00	 7.259259e+00	 9.933561e+00
0	 2.222222e+00	 7.333333e+00	 9.936251e+00
0	 2.222222e+00	 7.407407e+00	 9.938960e+00
0	 1.851852e+00	 7.407407e+00	 9.907991e+00
0	 1.851852e+00	 7.481481e+00	 9.912386e+00
0	 1.851852e+00	 7.555556e+00	 9.916702e+00
0	 1.851852e+00	 7.629630e+00	 9.920942e+00
0	 1.851852e+00	 7.703704e+00	 9.925112e+00
0	 1.851852e+00	 7.777778e+00	 9.929217e+00
0	 1.925926e+00	 7.407407e+00	 9.914112e+00
0	 1.925926e+00	 7.481481e+00	 9.918170e+00
0	 1.925926e+00	 7.555556e+00	 9.922158e+00
0	 1.925926e+00	 7.629630e+00	 9.926084e+00
0	 1.925926e+00	 7.703704e+00	 9.929950e+00
0	 1.925926e+00	 7.777778e+00	 9.933762e+00
0	 2.000000e+00	 7.407407e+00	 9.920295e+00
0	 2.000000e+00	 7.481481e+00	 9.924013e+00
0	 2.000000e+00	 7.555556e+00	 9.927674e+00
0	 2.000000e+00	 7.629630e+00	 9.931282e+00
0	 2.000000e+00	 7.703704e+00	 9.934843e+00
0	 2.000000e+00	 7.777778e+00	 9.938360e+00
0	 2.074074e+00	 7.407407e+00	 9.926515e+00
0	 2.074074e+00	 7.481481e+00	 9.929894e+00
0	 2.074074e+00	 7.555556e+00	 9.933226e+00
0	 2.074074e+00	 7.629630e+00	 9.936516e+00
0	 2.074074e+00	 7.703704e+00	 9.939770e+00
0	 2.074074e+00	 7.777778e+00	 9.942991e+00
0	 2.148148e+00	 7.407407e+00	 9.932745e+00
0	 2.148148e+00	 7.481481e+00	 9.935785e+00
0	 2.148148e+00	 7.555556e+00	 9.938790e+00
0	 2.148148e+00	 7.629630e+00	 9.941763e+00
0	 2.148148e+00	 7.703704e+00	 9.944710e+00
0	 2.148148e+00	 7.777778e+00	 9.947636e+00
0	 2.222222e+00	 7.407407e+00	 9.938960e+00
0	 2.222222e+00	 7.481481e+00	 9.941664e+00
0	 2.222222e+00	 7.555556e+00	 9.944343e+00
0	 2.222222e+00	 7.629630e+00	 9.947001e+00
0	 2.222222e+00	 7.703704e+00	 9.949643e+00
0	 2.222222e+00	 7.777778e+00	 9.952274e+00
0	 1.851852e+00	 7.777778e+00	 9.929217e+00
0	 1.851852e+00	 7.851852e+00	 9.933241e+00
0	 1.851852e+00	 7.925926e+00	 9.937171e+00
0	 1.851852e+00	 8.000000e+00	 9.941011e+00
0	 1.851852e+00	 8.074074e+00	 9.944767e+00
0	 1.851852e+00	 8.148148e+00	 9.948442e+00
0	 1.925926e+00	 7.777778e+00	 9.933762e+00
0	 1.925926e+00	 7.851852e+00	 9.937504e+00
0	 1.925926e+00	 7.925926e+00	 9.941161e+00
0	 1.925926e+00	 8.000000e+00	 9.944739e+00
0	 1.925926e+00	 8.074074e+00	 9.948241e+00
0	 1.925926e+00	 8.148148e+00	 9.951673e+00
0	 2.000000e+00	 7.777778e+00	 9.938360e+00
0	 2.000000e+00	 7.851852e+00	 9.941818e+00
0	 2.000000e+00	 7.925926e+00	 9.945200e+00
0	 2.000000e+00	 8.000000e+00	 9.948512e+00
0	 2.000000e+00	 8.074074e+00	 9.951759e+00
0	 2.000000e+00	 8.148148e+00	 9.954945e+00
0	 2.074074e+00	 7.777778e+00	 9.942991e+00
0	 2.074074e+00	 7.851852e+00	 9.946163e+00
0	 2.074074e+00	 7.925926e+00	 9.949270e+00
0	 2.074074e+00	 8.000000e+00	 9.952316e+00
0	 2.074074e+00	 8.074074e+00	 9.955306e+00
0	 2.074074e+00	 8.148148e+00	 9.958245e+00
0	 2.148148e+00	 7.777778e+00	 9.947636e+00
0	 2.148148e+00	 7.851852e+00	 9.950522e+00
0	 2.148148e+00	 7.925926e+00	 9.953353e+00
0	 2.148148e+00	 8.000000e+00	 9.956133e+00
0	 2.148148e+00	 8.074074e+00	 9.958866e+00
0	 2.148148e+00	 8.148148e+00	 9.961557e+00
0	 2.222222e+00	 7.777778e+00	 9.952274e+00
0	 2.222222e+00	 7.851852e+00	 9.954876e+00
0	 2.222222e+00	 7.925926e+00	 9.957432e+00
0	 2.222222e+00	 8.000000e+00	 9.959946e+00
0	 2.222222e+00	 8.074074e+00	 9.962423e+00
0	 2.222222e+00	 8.148148e+00	 9.964867e+00
0	 1.851852e+00	 8.148148e+00	 9.948442e+00
0	 1.851852e+00	 8.222222e+00	 9.952024e+00
0	 1.851852e+00	 8.296296e+00	 9.955496e+00
0	 1.851852e+00	 8.370370e+00	 9.958865e+00
0	 1.851852e+00	 8.444444e+00	 9.962135e+00
0	 1.851852e+00	 8.518519e+00	 9.965311e+00
0	 1.925926e+00	 8.148148e+00	 9.951673e+00
0	 1.925926e+00	 8.222222e+00	 9.955020e+00
0	 1.925926e+00	 8.296296e+00	 9.958266e+00
0	 1.925926e+00	 8.370370e+00	 9.961418e+00
0	 1.925926e+00	 8.444444e+00	 9.964479e+00
0	 1.925926e+00	 8.518519e+00	 9.967455e+00
0	 2.000000e+00	 8.148148e+00	 9.954945e+00
0	 2.000000e+00	 8.222222e+00	 9.958056e+00
0	 2.000000e+00	 8.296296e+00	 9.961074e+00
0	 2.000000e+00	 8.370370e+00	 9.964006e+00
0	 2.000000e+00	 8.444444e+00	 9.966856e+00
0	 2.000000e+00	 8.518519e+00	 9.969630e+00
0	 2.074074e+00	 8.148148e+00	 9.958245e+00
0	 2.074074e+00	 8.222222e+00	 9.961117e+00
0	 2.074074e+00	 8.296296e+00	 9.963906e+00
0	 2.074074e+00	 8.370370e+00	 9.966617e+00
0	 2.074074e+00	 8.444444e+00	 9.969255e+00
0	 2.074074e+00	 8.518519e+00	 9.971824e+00
0	 2.148148e+00	 8.148148e+00	 9.961557e+00
0	 2.148148e+00	 8.222222e+00	 9.964191e+00
0	 2.148148e+00	 8.296296e+00	 9.966750e+00
0	 2.148148e+00	 8.370370e+00	 9.969239e+00
0	 2.148148e+00	 8.444444e+00	 9.971664e+00
0	 2.148148e+00	 8.518519e+00	 9.974028e+00
0	 2.222222e+00	 8.148148e+00	 9.964867e+00
0	 2.222222e+00	 8.222222e+00	 9.967262e+00
0	 2.222222e+00	 8.296296e+00	 9.969591e+00
0	 2.222222e+00	 8.370370e+00	 9.971859e+00
0	 2.222222e+00	 8.444444e+00	 9.974071e+00
0	 2.222222e+00	 8.518519e+00	 9.976230e+00
0	 1.851852e+00	 8.518519e+00	 9.965311e+00
0	 1.851852e+00	 8.592593e+00	 9.968377e+00
0	 1.851852e+00	 8.666667e+00	 9.971317e+00
0	 1.851852e+00	 8.740741e+00	 9.974135e+00
0	 1.851852e+00	 8.814815e+00	 9.976838e+00
0	 1.851852e+00	 8.888889e+00	 9.979432e+00
0	 1.925926e+00	 8.518519e+00	 9.967455e+00
0	 1.925926e+00	 8.592593e+00	 9.970329e+00
0	 1.925926e+00	 8.666667e+00	 9.973085e+00
0	 1.925926e+00	 8.740741e+00	 9.975727e+00
0	 1.925926e+00	 8.814815e+00	 9.978263e+00
0	 1.925926e+00	 8.888889e+00	 9.980697e+00
0	 2.000000e+00	 8.518519e+00	 9.969630e+00
0	 2.000000e+00	 8.592593e+00	 9.972310e+00
0	 2.000000e+00	 8.666667e+00	 9.974880e+00
0	 2.000000e+00	 8.740741e+00	 9.977345e+00
0	 2.000000e+00	 8.814815e+00	 9.979711e+00
0	 2.000000e+00	 8.888889e+00	 9.981984e+00
0	 2.074074e+00	 8.518519e+00	 9.971824e+00
0	 2.074074e+00	 8.592593e+00	 9.974309e+00
0	 2.074074e+00	 8.666667e+00	 9.976691e+00
0	 2.074074e+00	 8.740741e+00	 9.978978e+00
0	 2.074074e+00	 8.814815e+00	 9.981174e+00
0	 2.074074e+00	 8.888889e+00	 9.983284e+00
0	 2.148148e+00	 8.518519e+00	 9.974028e+00
0	 2.148148e+00	 8.592593e+00	 9.976316e+00
0	 2.148148e+00	 8.666667e+00	 9.978511e+00
0	 2.148148e+00	 8.740741e+00	 9.980618e+00
0	 2.148148e+00	 8.814815e+00	 9.982642e+00
0	 2.148148e+00	 8.888889e+00	 9.984589e+00
0	 2.222222e+00	 8.518519e+00	 9.976230e+00
0	 2.222222e+00	 8.592593e+00	 9.978321e+00
0	 2.222222e+00	 8.666667e+00	 9.980327e+00
0	 2.222222e+00	 8.740741e+00	 9.982255e+00
0	 2.222222e+00	 8.814815e+00	 9.984108e+00
0	 2.222222e+00	 8.888889e+00	 9.985890e+00
0	 1.851852e+00	 8.888889e+00	 9.979432e+00
0	 1.851852e+00	 8.962963e+00	 9.981896e+00
0	 1.851852e+00	 9.037037e+00	 9.984213e+00
0	 1.851852e+00	 9.111111e+00	 9.986387e+00
0	 1.851852e+00	 9.185185e+00	 9.988426e+00
0	 1.851852e+00	 9.259259e+00	 9.990338e+00
0	 1.925926e+00	 8.888889e+00	 9.980697e+00
0	 1.925926e+00	 8.962963e+00	 9.983011e+00
0	 1.925926e+00	 9.037037e+00	 9.985185e+00
0	 1.925926e+00	 9.111111e+00	 9.987225e+00
0	 1.925926e+00	 9.185185e+00	 9.989140e+00
0	 1.925926e+00	 9.259259e+00	 9.990934e+00
0	 2.000000e+00	 8.888889e+00	 9.981984e+00
0	 2.000000e+00	 8.962963e+00	 9.984145e+00
0	 2.000000e+00	 9.037037e+00	 9.986175e+00
0	 2.000000e+00	 9.111111e+00	 9.988081e+00
0	 2.000000e+00	 9.185185e+00	 9.989868e+00
0	 2.000000e+00	 9.259259e+00	 9.991544e+00
0	 2.074074e+00	 8.888889e+00	 9.983284e+00
0	 2.074074e+00	 8.962963e+00	 9.985291e+00
0	 2.074074e+00	 9.037037e+00	 9.987176e+00
0	 2.074074e+00	 9.111111e+00	 9.988946e+00
0	 2.074074e+00	 9.185185e+00	 9.990606e+00
0	 2.074074e+00	 9.259259e+00	 9.992162e+00
0	 2.148148e+00	 8.888889e+00	 9.984589e+00
0	 2.148148e+00	 8.962963e+00	 9.986440e+00
0	 2.148148e+00	 9.037037e+00	 9.988180e+00
0	 2.148148e+00	 9.111111e+00	 9.989813e+00
0	 2.148148e+00	 9.185185e+00	 9.991345e+00
0	 2.148148e+00	 9.259259e+00	 9.992780e+00
0	 2.222222e+00	 8.888889e+00	 9.985890e+00
0	 2.222222e+00	 8.962963e+00	 9.987586e+00
0	 2.222222e+00	 9.037037e+00	 9.989180e+00
0	 2.222222e+00	 9.111111e+00	 9.990675e+00
0	 2.222222e+00	 9.185185e+00	 9.992078e+00
0	 2.222222e+00	 9.259259e+00	 9.993393e+00
0	 1.851852e+00	 9.259259e+00	 9.990338e+00
0	 1.851852e+00	 9.333333e+00	 9.992096e+00
0	 1.851852e+00	 9.407407e+00	 9.993677e+00
0	 1.851852e+00	 9.481481e+00	 9.995089e+00
0	 1.851852e+00	 9.555556e+00	 9.996339e+00
0	 1.851852e+00	 9.629630e+00	 9.997437e+00
0	 1.925926e+00	 9.259259e+00	 9.990934e+00
0	 1.925926e+00	 9.333333e+00	 9.992584e+00
0	 1.925926e+00	 9.407407e+00	 9.994067e+00
0	 1.925926e+00	 9.481481e+00	 9.995392e+00
0	 1.925926e+00	 9.555556e+00	 9.996565e+00
0	 1.925926e+00	 9.629630e+00	 9.997593e+00
0	 2.000000e+00	 9.259259e+00	 9.991544e+00
0	 2.000000e+00	 9.333333e+00	 9.993085e+00
0	 2.000000e+00	 9.407407e+00	 9.994470e+00
0	 2.000000e+00	 9.481481e+00	 9.995706e+00
0	 2.000000e+00	 9.555556e+00	 9.996801e+00
0	 2.000000e+00	 9.629630e+00	 9.997760e+00
0	 2.074074e+00	 9.259259e+00	 9.992162e+00
0	 2.074074e+00	 9.333333e+00	 9.993593e+00
0	 2.074074e+00	 9.407407e+00	 9.994879e+00
0	 2.074074e+00	 9.481481e+00	 9.996026e+00
0	 2.074074e+00	 9.555556e+00	 9.997042e+00
0	 2.074074e+00	 9.629630e+00	 9.997931e+00
0	 2.148148e+00	 9.259259e+00	 9.992780e+00
0	 2.148148e+00	 9.333333e+00	 9.994101e+00
0	 2.148148e+00	 9.407407e+00	 9.995287e+00
0	 2.148148e+00	 9.481481e+00	 9.996345e+00
0	 2.148148e+00	 9.555556e+00	 9.997281e+00
0	 2.148148e+00	 9.629630e+00	 9.998100e+00
0	 2.222222e+00	 9.259259e+00	 9.993393e+00
0	 2.222222e+00	 9.333333e+00	 9.994602e+00
0	 2.222222e+00	 9.407407e+00	 9.995688e+00
0	 2.222222e+00	 9.481481e+00	 9.996656e+00
0	 2.222222e+00	 9.555556e+00	 9.997512e+00
0	 2.222222e+00	 9.629630e+00	 9.998260e+00
0	 1.851852e+00	 9.629630e+00	 9.997437e+00
0	 1.851852e+00	 9.703704e+00	 9.998353e+00
0	 1.851852e+00	 9.777778e+00	 9.999060e+00
0	 1.851852e+00	 9.851852e+00	 9.999567e+00
0	 1.851852e+00	 9.925926e+00	 9.999885e+00
0	 1.851852e+00	 1.000000e+01	 1.000002e+01
0	 1.925926e+00	 9.629630e+00	 9.997593e+00
0	 1.925926e+00	 9.703704e+00	 9.998451e+00
0	 1.925926e+00	 9.777778e+00	 9.999114e+00
0	 1.925926e+00	 9.851852e+00	 9.999589e+00
0	 1.925926e+00	 9.925926e+00	 9.999885e+00
0	 1.925926e+00	 1.000000e+01	 1.000001e+01
0	 2.000000e+00	 9.629630e+00	 9.997760e+00
0	 2.000000e+00	 9.703704e+00	 9.998560e+00
0	 2.000000e+00	 9.777778e+00	 9.999178e+00
0	 2.000000e+00	 9.851852e+00	 9.999621e+00
0	 2.000000e+00	 9.925926e+00	 9.999897e+00
0	 2.000000e+00	 1.000000e+01	 1.000001e+01
0	 2.074074e+00	 9.629630e+00	 9.997931e+00
0	 2.074074e+00	 9.703704e+00	 9.998673e+00
0	 2.074074e+00	 9.777778e+00	 9.999245e+00
0	 2.074074e+00	 9.851852e+00	 9.999656e+00
0	 2.074074e+00	 9.925926e+00	 9.999912e+00
0	 2.074074e+00	 1.000000e+01	 1.000002e+01
0	 2.148148e+00	 9.629630e+00	 9.998100e+00
0	 2.148148e+00	 9.703704e+00	 9.998783e+00
0	 2.148148e+00	 9.777778e+00	 9.999310e+00
0	 2.148148e+00	 9.851852e+00	 9.999688e+00
0	 2.148148e+00	 9.925926e+00	 9.999923e+00
0	 2.148148e+00	 1.000000e+01	 1.000002e+01
0	 2.222222e+00	 9.629630e+00	 9.998260e+00
0	 2.222222e+00	 9.703704e+00	 9.998884e+00
0	 2.222222e+00	 9.777778e+00	 9.999365e+00
0	 2.222222e+00	 9.851852e+00	 9.999710e+00
0	 2.222222e+00	 9.925926e+00	 9.999923e+00
0	 2.222222e+00	 1.000000e+01	 1.000001e+01
0	 2.222222e+00	 0.000000e+00	 1.220714e+01
0	 2.222222e+00	 7.407407e-02	 1.224171e+01
0	 2.222222e+00	 1.481481e-01	 1.222339e+01
0	 2.222222e+00	 2.222222e-01	 1.217570e+01
0	 2.222222e+00	 2.962963e-01	 1.212215e+01
0	 2.222222e+00	 3.703704e-01	 1.208626e+01
0	 2.296296e+00	 0.000000e+00	 1.173401e+01
0	 2.296296e+00	 7.407407e-02	 1.176767e+01
0	 2.296296e+00	 1.481481e-01	 1.178748e+01
0	 2.296296e+00	 2.222222e-01	 1.180187e+01
0	 2.296296e+00	 2.962963e-01	 1.181926e+01
0	 2.296296e+00	 3.703704e-01	 1.184808e+01
0	 2.370370e+00	 0.000000e+00	 1.143463e+01
0	 2.370370e+00	 7.407407e-02	 1.145539e+01
0	 2.370370e+00	 1.481481e-01	 1.148937e+01
0	 2.370370e+00	 2.222222e-01	 1.153457e+01
0	 2.370370e+00	 2.962963e-01	 1.158897e+01
0	 2.370370e+00	 3.703704e-01	 1.165055e+01
0	 2.444444e+00	 0.000000e+00	 1.127740e+01
0	 2.444444e+00	 7.407407e-02	 1.128004e+01
0	 2.444444e+00	 1.481481e-01	 1.131089e+01
0	 2.444444e+00	 2.222222e-01	 1.136211e+01
0	 2.444444e+00	 2.962963e-01	 1.142589e+01
0	 2.444444e+00	 3.703704e-01	 1.149442e+01
0	 2.518519e+00	 0.000000e+00	 1.123066e+01
0	 2.518519e+00	 7.407407e-02	 1.121682e+01
0	 2.518519e+00	 1.481481e-01	 1.123385e+01
0	 2.518519e+00	 2.222222e-01	 1.127279e+01
0	 2.518519e+00	 2.962963e-01	 1.132464e+01
0	 2.518519e+00	 3.703704e-01	 1.138044e+01
0	 2.592593e+00	 0.000000e+00	 1.126281e+01
0	 2.592593e+00	 7.407407e-02	 1.124089e+01
0	 2.592593e+00	 1.481481e-01	 1.124009e+01
0	 2.592593e+00	 2.222222e-01	 1.125491e+01
0	 2.592593e+00	 2.962963e-01	 1.127983e+01
0	 2.592593e+00	 3.703704e-01	 1.130936e+01
0	 2.222222e+00	 3.703704e-01	 1.208626e+01
0	 2.222222e+00	 4.444444e-01	 1.207306e+01
0	 2.222222e+00	 5.185185e-01	 1.207020e+01
0	 2.222222e+00	 5.925926e-01	 1.207508e+01
0	 2.222222e+00	 6.666667e-01	 1.208514e+01
0	 2.222222e+00	 7.407407e-01	 1.209779e+01
0	 2.296296e+00	 3.703704e-01	 1.184808e+01
0	 2.296296e+00	 4.444444e-01	 1.188242e+01
0	 2.296296e+00	 5.185185e-01	 1.191131e+01
0	 2.296296e+00	 5.925926e-01	 1.193557e+01
0	 2.296296e+00	 6.666667e-01	 1.195604e+01
0	 2.296296e+00	 7.407407e-01	 1.197355e+01
0	 2.370370e+00	 3.703704e-01	 1.165055e+01
0	 2.370370e+00	 4.444444e-01	 1.170760e+01
0	 2.370370e+00	 5.185185e-01	 1.175183e+01
0	 2.370370e+00	 5.925926e-01	 1.178634e+01
0	 2.370370e+00	 6.666667e-01	 1.181423e+01
0	 2.370370e+00	 7.407407e-01	 1.183862e+01
0	 2.444444e+00	 3.703704e-01	 1.149442e+01
0	 2.444444e+00	 4.444444e-01	 1.155453e+01
0	 2.444444e+00	 5.185185e-01	 1.160111e+01
0	 2.444444e+00	 5.925926e-01	 1.163840e+01
0	 2.444444e+00	 6.666667e-01	 1.167066e+01
0	 2.444444e+00	 7.407407e-01	 1.170211e+01
0	 2.518519e+00	 3.703704e-01	 1.138044e+01
0	 2.518519e+00	 4.444444e-01	 1.142913e+01
0	 2.518519e+00	 5.185185e-01	 1.146851e+01
0	 2.518519e+00	 5.925926e-01	 1.150280e+01
0	 2.518519e+00	 6.666667e-01	 1.153625e+01
0	 2.518519e+00	 7.407407e-01	 1.157310e+01
0	 2.592593e+00	 3.703704e-01	 1.130936e+01
0	 2.592593e+00	 4.444444e-01	 1.133735e+01
0	 2.592593e+00	 5.185185e-01	 1.136338e+01
0	 2.592593e+00	 5.925926e-01	 1.139055e+01
0	 2.592593e+00	 6.666667e-01	 1.142196e+01
0	 2.592593e+00	 7.407407e-01	 1.146070e+01
0	 2.222222e+00	 7.407407e-01	 1.209779e+01
0	 2.222222e+00	 8.148148e-01	 1.210538e+01
0	 2.222222e+00	 8.888889e-01	 1.210272e+01
0	 2.222222e+00	 9.629630e-01	 1.209090e+01
0	 2.222222e+00	 1.037037e+00	 1.207102e+01
0	 2.222222e+00	 1.111111e+00	 1.204414e+01
0	 2.296296e+00	 7.407407e-01	 1.197355e+01
0	 2.296296e+00	 8.148148e-01	 1.198456e+01
0	 2.296296e+00	 8.888889e-01	 1.198577e+01
0	 2.296296e+00	 9.629630e-01	 1.197837e+01
0	 2.296296e+00	 1.037037e+00	 1.196353e+01
0	 2.296296e+00	 1.111111e+00	 1.194243e+01
0	 2.370370e+00	 7.407407e-01	 1.183862e+01
0	 2.370370e+00	 8.148148e-01	 1.185706e+01
0	 2.370370e+00	 8.888889e-01	 1.186586e+01
0	 2.370370e+00	 9.629630e-01	 1.186628e+01
0	 2.370370e+00	 1.037037e+00	 1.185957e+01
0	 2.370370e+00	 1.111111e+00	 1.184698e+01
0	 2.444444e+00	 7.407407e-01	 1.170211e+01
0	 2.444444e+00	 8.148148e-01	 1.172938e+01
0	 2.444444e+00	 8.888889e-01	 1.174713e+01
0	 2.444444e+00	 9.629630e-01	 1.175666e+01
0	 2.444444e+00	 1.037037e+00	 1.175927e+01
0	 2.444444e+00	 1.111111e+00	 1.175625e+01
0	 2.518519e+00	 7.407407e-01	 1.157310e+01
0	 2.518519e+00	 8.148148e-01	 1.160802e+01
0	 2.518519e+00	 8.888889e-01	 1.163371e+01
0	 2.518519e+00	 9.629630e-01	 1.165150e+01
0	 2.518519e+00	 1.037037e+00	 1.166272e+01
0	 2.518519e+00	 1.111111e+00	 1.166869e+01
0	 2.592593e+00	 7.407407e-01	 1.146070e+01
0	 2.592593e+00	 8.148148e-01	 1.149946e+01
0	 2.592593e+00	 8.888889e-01	 1.152971e+01
0	 2.592593e+00	 9.629630e-01	 1.155280e+01
0	 2.592593e+00	 1.037037e+00	 1.157004e+01
0	 2.592593e+00	 1.111111e+00	 1.158277e+01
0	 2.222222e+00	 1.111111e+00	 1.204414e+01
0	 2.222222e+00	 1.185185e+00	 1.201139e+01
0	 2.222222e+00	 1.259259e+00	 1.197330e+01
0	 2.222222e+00	 1.333333e+00	 1.193011e+01
0	 2.222222e+00	 1.407407e+00	 1.188205e+01
0	 2.222222e+00	 1.481481e+00	 1.182935e+01
0	 2.296296e+00	 1.111111e+00	 1.194243e+01
0	 2.296296e+00	 1.185185e+00	 1.191645e+01
0	 2.296296e+00	 1.259259e+00	 1.188633e+01
0	 2.296296e+00	 1.333333e+00	 1.185229e+01
0	 2.296296e+00	 1.407407e+00	 1.181453e+01
0	 2.296296e+00	 1.481481e+00	 1.177329e+01
0	 2.370370e+00	 1.111111e+00	 1.184698e+01
0	 2.370370e+00	 1.185185e+00	 1.182955e+01
0	 2.370370e+00	 1.259259e+00	 1.180765e+01
0	 2.370370e+00	 1.333333e+00	 1.178148e+01
0	 2.370370e+00	 1.407407e+00	 1.175125e+01
0	 2.370370e+00	 1.481481e+00	 1.171717e+01
0	 2.444444e+00	 1.111111e+00	 1.175625e+01
0	 2.444444e+00	 1.185185e+00	 1.174795e+01
0	 2.444444e+00	 1.259259e+00	 1.173401e+01
0	 2.444444e+00	 1.333333e+00	 1.171464e+01
0	 2.444444e+00	 1.407407e+00	 1.169002e+01
0	 2.444444e+00	 1.481481e+00	 1.166037e+01
0	 2.518519e+00	 1.111111e+00	 1.166869e+01
0	 2.518519e+00	 1.185185e+00	 1.166893e+01
0	 2.518519e+00	 1.259259e+00	 1.166220e+01
0	 2.518519e+00	 1.333333e+00	 1.164870e+01
0	 2.518519e+00	 1.407407e+00	 1.162865e+01
0	 2.518519e+00	 1.481481e+00	 1.160226e+01
0	 2.592593e+00	 1.111111e+00	 1.158277e+01
0	 2.592593e+00	 1.185185e+00	 1.158974e+01
0	 2.592593e+00	 1.259259e+00	 1.158896e+01
0	 2.592593e+00	 1.333333e+00	 1.158062e+01
0	 2.592593e+00	 1.407407e+00	 1.156497e+01
0	 2.592593e+00	 1.481481e+00	 1.154221e+01
0	 2.222222e+00	 1.481481e+00	 1.182935e+01
0	 2.222222e+00	 1.555556e+00	 1.177274e+01
0	 2.222222e+00	 1.629630e+00	 1.171200e+01
0	 2.222222e+00	 1.703704e+00	 1.164594e+01
0	 2.222222e+00	 1.777778e+00	 1.157338e+01
0	 2.222222e+00	 1.851852e+00	 1.149314e+01
0	 2.296296e+00	 1.481481e+00	 1.177329e+01
0	 2.296296e+00	 1.555556e+00	 1.172766e+01
0	 2.296296e+00	 1.629630e+00	 1.167618e+01
0	 2.296296e+00	 1.703704e+00	 1.161818e+01
0	 2.296296e+00	 1.777778e+00	 1.155301e+01
0	 2.296296e+00	 1.851852e+00	 1.148001e+01
0	 2.370370e+00	 1.481481e+00	 1.171717e+01
0	 2.370370e+00	 1.555556e+00	 1.167827e+01
0	 2.370370e+00	 1.629630e+00	 1.163324e+01
0	 2.370370e+00	 1.703704e+00	 1.158182e+01
0	 2.370370e+00	 1.777778e+00	 1.152370e+01
0	 2.370370e+00	 1.851852e+00	 1.145861e+01
0	 2.444444e+00	 1.481481e+00	 1.166037e+01
0	 2.444444e+00	 1.555556e+00	 1.162557e+01
0	 2.444444e+00	 1.629630e+00	 1.158534e+01
0	 2.444444e+00	 1.703704e+00	 1.153961e+01
0	 2.444444e+00	 1.777778e+00	 1.148832e+01
0	 2.444444e+00	 1.851852e+00	 1.143140e+01
0	 2.518519e+00	 1.481481e+00	 1.160226e+01
0	 2.518519e+00	 1.555556e+00	 1.157060e+01
0	 2.518519e+00	 1.629630e+00	 1.153462e+01
0	 2.518519e+00	 1.703704e+00	 1.149433e+01
0	 2.518519e+00	 1.777778e+00	 1.144975e+01
0	 2.518519e+00	 1.851852e+00	 1.140088e+01
0	 2.592593e+00	 1.481481e+00	 1.154221e+01
0	 2.592593e+00	 1.555556e+00	 1.151435e+01
0	 2.592593e+00	 1.629630e+00	 1.148321e+01
0	 2.592593e+00	 1.703704e+00	 1.144874e+01
0	 2.592593e+00	 1.777778e+00	 1.141087e+01
0	 2.592593e+00	 1.851852e+00	 1.136953e+01
0	 2.222222e+00	 1.851852e+00	 1.149314e+01
0	 2.222222e+00	 1.925926e+00	 1.140975e+01
0	 2.222222e+00	 2.000000e+00	 1.132836e+01
0	 2.222222e+00	 2.074074e+00	 1.124871e+01
0	 2.222222e+00	 2.148148e+00	 1.117051e+01
0	 2.222222e+00	 2.222222e+00	 1.109349e+01
0	 2.296296e+00	 1.851852e+00	 1.148001e+01
0	 2.296296e+00	 1.925926e+00	 1.140420e+01
0	 2.296296e+00	 2.000000e+00	 1.133060e+01
0	 2.296296e+00	 2.074074e+00	 1.125855e+01
0	 2.296296e+00	 2.148148e+00	 1.118743e+01
0	 2.296296e+00	 2.222222e+00	 1.111657e+01
0	 2.370370e+00	 1.851852e+00	 1.145861e+01
0	 2.370370e+00	 1.925926e+00	 1.139114e+01
0	 2.370370e+00	 2.000000e+00	 1.132551e+01
0	 2.370370e+00	 2.074074e+00	 1.126085e+01
0	 2.370370e+00	 2.148148e+00	 1.119628e+01
0	 2.370370e+00	 2.222222e+00	 1.113094e+01
0	 2.444444e+00	 1.851852e+00	 1.143140e+01
0	 2.444444e+00	 1.925926e+00	 1.137250e+01
0	 2.444444e+00	 2.000000e+00	 1.131463e+01
0	 2.444444e+00	 2.074074e+00	 1.125687e+01
0	 2.444444e+00	 2.148148e+00	 1.119828e+01
0	 2.444444e+00	 2.222222e+00	 1.113791e+01
0	 2.518519e+00	 1.851852e+00	 1.140088e+01
0	 2.518519e+00	 1.925926e+00	 1.135017e+01
0	 2.518519e+00	 2.000000e+00	 1.129946e+01
0	 2.518519e+00	 2.074074e+00	 1.124790e+01
0	 2.518519e+00	 2.148148e+00	 1.119462e+01
0	 2.518519e+00	 2.222222e+00	 1.113878e+01
0	 2.592593e+00	 1.851852e+00	 1.136953e+01
0	 2.592593e+00	 1.925926e+00	 1.132607e+01
0	 2.592593e+00	 2.000000e+00	 1.128151e+01
0	 2.592593e+00	 2.074074e+00	 1.123519e+01
0	 2.592593e+00	 2.148148e+00	 1.118652e+01
0	 2.592593e+00	 2.222222e+00	 1.113486e+01
0	 2.222222e+00	 2.222222e+00	 1.109349e+01
0	 2.222222e+00	 2.296296e+00	 1.101875e+01
0	 2.222222e+00	 2.370370e+00	 1.094712e+01
0	 2.222222e+00	 2.444444e+00	 1.087795e+01
0	 2.222222e+00	 2.518519e+00	 1.081059e+01
0	 2.222222e+00	 2.592593e+00	 1.074438e+01
0	 2.296296e+00	 2.222222e+00	 1.111657e+01
0	 2.296296e+00	 2.296296e+00	 1.104678e+01
0	 2.296296e+00	 2.370370e+00	 1.097906e+01
0	 2.296296e+00	 2.444444e+00	 1.091301e+01
0	 2.296296e+00	 2.518519e+00	 1.084825e+01
0	 2.296296e+00	 2.592593e+00	 1.078439e+01
0	 2.370370e+00	 2.222222e+00	 1.113094e+01
0	 2.370370e+00	 2.296296e+00	 1.106569e+01
0	 2.370370e+00	 2.370370e+00	 1.100187e+01
0	 2.370370e+00	 2.444444e+00	 1.093925e+01
0	 2.370370e+00	 2.518519e+00	 1.087763e+01
0	 2.370370e+00	 2.592593e+00	 1.081681e+01
0	 2.444444e+00	 2.222222e+00	 1.113791e+01
0	 2.444444e+00	 2.296296e+00	 1.107692e+01
0	 2.444444e+00	 2.370370e+00	 1.101702e+01
0	 2.444444e+00	 2.444444e+00	 1.095810e+01
0	 2.444444e+00	 2.518519e+00	 1.090003e+01
0	 2.444444e+00	 2.592593e+00	 1.084270e+01
0	 2.518519e+00	 2.222222e+00	 1.113878e+01
0	 2.518519e+00	 2.296296e+00	 1.108190e+01
0	 2.518519e+00	 2.370370e+00	 1.102602e+01
0	 2.518519e+00	 2.444444e+00	 1.097101e+01
0	 2.518519e+00	 2.518519e+00	 1.091675e+01
0	 2.518519e+00	 2.592593e+00	 1.086312e+01
0	 2.592593e+00	 2.222222e+00	 1.113486e+01
0	 2.592593e+00	 2.296296e+00	 1.108208e+01
0	 2.592593e+00	 2.370370e+00	 1.103034e+01
0	 2.592593e+00	 2.444444e+00	 1.097941e+01
0	 2.592593e+00	 2.518519e+00	 1.092908e+01
0	 2.592593e+00	 2.592593e+00	 1.087914e+01
0	 2.222222e+00	 2.592593e+00	 1.074438e+01
0	 2.222222e+00	 2.666667e+00	 1.068038e+01
0	 2.222222e+00	 2.740741e+00	 1.062004e+01
0	 2.222222e+00	 2.814815e+00	 1.056331e+01
0	 2.222222e+00	 2.888889e+00	 1.051012e+01
0	 2.222222e+00	 2.962963e+00	 1.046043e+01
0	 2.296296e+00	 2.592593e+00	 1.078439e+01
0	 2.296296e+00	 2.666667e+00	 1.072269e+01
0	 2.296296e+00	 2.740741e+00	 1.066451e+01
0	 2.296296e+00	 2.814815e+00	 1.060965e+01
0	 2.296296e+00	 2.888889e+00	 1.055790e+01
0	 2.296296e+00	 2.962963e+00	 1.050908e+01
0	 2.370370e+00	 2.592593e+00	 1.081681e+01
0	 2.370370e+00	 2.666667e+00	 1.075800e+01
0	 2.370370e+00	 2.740741e+00	 1.070237e+01
0	 2.370370e+00	 2.814815e+00	 1.064961e+01
0	 2.370370e+00	 2.888889e+00	 1.059944e+01
0	 2.370370e+00	 2.962963e+00	 1.055154e+01
0	 2.444444e+00	 2.592593e+00	 1.084270e+01
0	 2.444444e+00	 2.666667e+00	 1.078715e+01
0	 2.444444e+00	 2.740741e+00	 1.073427e+01
0	 2.444444e+00	 2.814815e+00	 1.068374e+01
0	 2.444444e+00	 2.888889e+00	 1.063522e+01
0	 2.444444e+00	 2.962963e+00	 1.058836e+01
0	 2.518519e+00	 2.592593e+00	 1.086312e+01
0	 2.518519e+00	 2.666667e+00	 1.081093e+01
0	 2.518519e+00	 2.740741e+00	 1.076086e+01
0	 2.518519e+00	 2.814815e+00	 1.071257e+01
0	 2.518519e+00	 2.888889e+00	 1.066575e+01
0	 2.518519e+00	 2.962963e+00	 1.062005e+01
0	 2.592593e+00	 2.592593e+00	 1.087914e+01
0	 2.592593e+00	 2.666667e+00	 1.083018e+01
0	 2.592593e+00	 2.740741e+00	 1.078277e+01
0	 2.592593e+00	 2.814815e+00	 1.073663e+01
0	 2.592593e+00	 2.888889e+00	 1.069152e+01
0	 2.592593e+00	 2.962963e+00	 1.064715e+01
0	 2.222222e+00	 2.962963e+00	 1.046043e+01
0	 2.222222e+00	 3.037037e+00	 1.041385e+01
0	 2.222222e+00	 3.111111e+00	 1.036996e+01
0	 2.222222e+00	 3.185185e+00	 1.032865e+01
0	 2.222222e+00	 3.259259e+00	 1.028979e+01
0	 2.222222e+00	 3.333333e+00	 1.025328e+01
0	 2.296296e+00	 2.962963e+00	 1.050908e+01
0	 2.296296e+00	 3.037037e+00	 1.046285e+01
0	 2.296296e+00	 3.111111e+00	 1.041902e+01
0	 2.296296e+00	 3.185185e+00	 1.037751e+01
0	 2.296296e+00	 3.259259e+00	 1.033829e+01
0	 2.296296e+00	 3.333333e+00	 1.030128e+01
0	 2.370370e+00	 2.962963e+00	 1.055154e+01
0	 2.370370e+00	 3.037037e+00	 1.050581e+01
0	 2.370370e+00	 3.111111e+00	 1.046229e+01
0	 2.370370e+00	 3.185185e+00	 1.042096e+01
0	 2.370370e+00	 3.259259e+00	 1.038180e+01
0	 2.370370e+00	 3.333333e+00	 1.034479e+01
0	 2.444444e+00	 2.962963e+00	 1.058836e+01
0	 2.444444e+00	 3.037037e+00	 1.054329e+01
0	 2.444444e+00	 3.111111e+00	 1.050034e+01
0	 2.444444e+00	 3.185185e+00	 1.045951e+01
0	 2.444444e+00	 3.259259e+00	 1.042079e+01
0	 2.444444e+00	 3.333333e+00	 1.038414e+01
0	 2.518519e+00	 2.962963e+00	 1.062005e+01
0	 2.518519e+00	 3.037037e+00	 1.057587e+01
0	 2.518519e+00	 3.111111e+00	 1.053377e+01
0	 2.518519e+00	 3.185185e+00	 1.049373e+01
0	 2.518519e+00	 3.259259e+00	 1.045571e+01
0	 2.518519e+00	 3.333333e+00	 1.041969e+01
0	 2.592593e+00	 2.962963e+00	 1.064715e+01
0	 2.592593e+00	 3.037037e+00	 1.060413e+01
0	 2.592593e+00	 3.111111e+00	 1.056315e+01
0	 2.592593e+00	 3.185185e+00	 1.052415e+01
0	 2.592593e+00	 3.259259e+00	 1.048704e+01
0	 2.592593e+00	 3.333333e+00	 1.045177e+01
0	 2.222222e+00	 3.333333e+00	 1.025328e+01
0	 2.222222e+00	 3.407407e+00	 1.021908e+01
0	 2.222222e+00	 3.481481e+00	 1.018727e+01
0	 2.222222e+00	 3.555556e+00	 1.015789e+01
0	 2.222222e+00	 3.629630e+00	 1.013099e+01
0	 2.222222e+00	 3.703704e+00	 1.010661e+01
0	 2.296296e+00	 3.333333e+00	 1.030128e+01
0	 2.296296e+00	 3.407407e+00	 1.026655e+01
0	 2.296296e+00	 3.481481e+00	 1.023421e+01
0	 2.296296e+00	 3.555556e+00	 1.020425e+01
0	 2.296296e+00	 3.629630e+00	 1.017664e+01
0	 2.296296e+00	 3.703704e+00	 1.015138e+01
0	 2.370370e+00	 3.333333e+00	 1.034479e+01
0	 2.370370e+00	 3.407407e+00	 1.030999e+01
0	 2.370370e+00	 3.481481e+00	 1.027746e+01
0	 2.370370e+00	 3.555556e+00	 1.024715e+01
0	 2.370370e+00	 3.629630e+00	 1.021901e+01
0	 2.370370e+00	 3.703704e+00	 1.019300e+01
0	 2.444444e+00	 3.333333e+00	 1.038414e+01
0	 2.444444e+00	 3.407407e+00	 1.034960e+01
0	 2.444444e+00	 3.481481e+00	 1.031714e+01
0	 2.444444e+00	 3.555556e+00	 1.028669e+01
0	 2.444444e+00	 3.629630e+00	 1.025818e+01
0	 2.444444e+00	 3.703704e+00	 1.023154e+01
0	 2.518519e+00	 3.333333e+00	 1.041969e+01
0	 2.518519e+00	 3.407407e+00	 1.038561e+01
0	 2.518519e+00	 3.481481e+00	 1.035338e+01
0	 2.518519e+00	 3.555556e+00	 1.032293e+01
0	 2.518519e+00	 3.629630e+00	 1.029419e+01
0	 2.518519e+00	 3.703704e+00	 1.026709e+01
0	 2.592593e+00	 3.333333e+00	 1.045177e+01
0	 2.592593e+00	 3.407407e+00	 1.041822e+01
0	 2.592593e+00	 3.481481e+00	 1.038629e+01
0	 2.592593e+00	 3.555556e+00	 1.035594e+01
0	 2.592593e+00	 3.629630e+00	 1.032711e+01
0	 2.592593e+00	 3.703704e+00	 1.029973e+01
0	 2.222222e+00	 3.703704e+00	 1.010661e+01
0	 2.222222e+00	 3.777778e+00	 1.008426e+01
0	 2.222222e+00	 3.851852e+00	 1.006344e+01
0	 2.222222e+00	 3.925926e+00	 1.004417e+01
0	 2.222222e+00	 4.000000e+00	 1.002644e+01
0	 2.222222e+00	 4.074074e+00	 1.001027e+01
0	 2.296296e+00	 3.703704e+00	 1.015138e+01
0	 2.296296e+00	 3.777778e+00	 1.012802e+01
0	 2.296296e+00	 3.851852e+00	 1.010612e+01
0	 2.296296e+00	 3.925926e+00	 1.008572e+01
0	 2.296296e+00	 4.000000e+00	 1.006684e+01
0	 2.296296e+00	 4.074074e+00	 1.004950e+01
0	 2.370370e+00	 3.703704e+00	 1.019300e+01
0	 2.370370e+00	 3.777778e+00	 1.016874e+01
0	 2.370370e+00	 3.851852e+00	 1.014593e+01
0	 2.370370e+00	 3.925926e+00	 1.012461e+01
0	 2.370370e+00	 4.000000e+00	 1.010482e+01
0	 2.370370e+00	 4.074074e+00	 1.008658e+01
0	 2.444444e+00	 3.703704e+00	 1.023154e+01
0	 2.444444e+00	 3.777778e+00	 1.020654e+01
0	 2.444444e+00	 3.851852e+00	 1.018300e+01
0	 2.444444e+00	 3.925926e+00	 1.016097e+01
0	 2.444444e+00	 4.000000e+00	 1.014046e+01
0	 2.444444e+00	 4.074074e+00	 1.012153e+01
0	 2.518519e+00	 3.703704e+00	 1.026709e+01
0	 2.518519e+00	 3.777778e+00	 1.024153e+01
0	 2.518519e+00	 3.851852e+00	 1.021745e+01
0	 2.518519e+00	 3.925926e+00	 1.019489e+01
0	 2.518519e+00	 4.000000e+00	 1.017387e+01
0	 2.518519e+00	 4.074074e+00	 1.015440e+01
0	 2.592593e+00	 3.703704e+00	 1.029973e+01
0	 2.592593e+00	 3.777778e+00	 1.027382e+01
0	 2.592593e+00	 3.851852e+00	 1.024941e+01
0	 2.592593e+00	 3.925926e+00	 1.022650e+01
0	 2.592593e+00	 4.000000e+00	 1.020511e+01
0	 2.592593e+00	 4.074074e+00	 1.018522e+01
0	 2.222222e+00	 4.074074e+00	 1.001027e+01
0	 2.222222e+00	 4.148148e+00	 9.995480e+00
0	 2.222222e+00	 4.222222e+00	 9.981919e+00
0	 2.222222e+00	 4.296296e+00	 9.969625e+00
0	 2.222222e+00	 4.370370e+00	 9.958643e+00
0	 2.222222e+00	 4.444444e+00	 9.949014e+00
0	 2.296296e+00	 4.074074e+00	 1.004950e+01
0	 2.296296e+00	 4.148148e+00	 1.003358e+01
0	 2.296296e+00	 4.222222e+00	 1.001893e+01
0	 2.296296e+00	 4.296296e+00	 1.000556e+01
0	 2.296296e+00	 4.370370e+00	 9.993502e+00
0	 2.296296e+00	 4.444444e+00	 9.982778e+00
0	 2.370370e+00	 4.074074e+00	 1.008658e+01
0	 2.370370e+00	 4.148148e+00	 1.006976e+01
0	 2.370370e+00	 4.222222e+00	 1.005420e+01
0	 2.370370e+00	 4.296296e+00	 1.003990e+01
0	 2.370370e+00	 4.370370e+00	 1.002687e+01
0	 2.370370e+00	 4.444444e+00	 1.001512e+01
0	 2.444444e+00	 4.074074e+00	 1.012153e+01
0	 2.444444e+00	 4.148148e+00	 1.010400e+01
0	 2.444444e+00	 4.222222e+00	 1.008768e+01
0	 2.444444e+00	 4.296296e+00	 1.007258e+01
0	 2.444444e+00	 4.370370e+00	 1.005868e+01
0	 2.444444e+00	 4.444444e+00	 1.004600e+01
0	 2.518519e+00	 4.074074e+00	 1.015440e+01
0	 2.518519e+00	 4.148148e+00	 1.013630e+01
0	 2.518519e+00	 4.222222e+00	 1.011934e+01
0	 2.518519e+00	 4.296296e+00	 1.010353e+01
0	 2.518519e+00	 4.370370e+00	 1.008887e+01
0	 2.518519e+00	 4.444444e+00	 1.007535e+01
0	 2.592593e+00	 4.074074e+00	 1.018522e+01
0	 2.592593e+00	 4.148148e+00	 1.016663e+01
0	 2.592593e+00	 4.222222e+00	 1.014912e+01
0	 2.592593e+00	 4.296296e+00	 1.013270e+01
0	 2.592593e+00	 4.370370e+00	 1.011736e+01
0	 2.592593e+00	 4.444444e+00	 1.010312e+01
0	 2.222222e+00	 4.444444e+00	 9.949014e+00
0	 2.222222e+00	 4.518519e+00	 9.940447e+00
0	 2.222222e+00	 4.592593e+00	 9.932637e+00
0	 2.222222e+00	 4.666667e+00	 9.925608e+00
0	 2.222222e+00	 4.740741e+00	 9.919383e+00
0	 2.222222e+00	 4.814815e+00	 9.913984e+00
0	 2.296296e+00	 4.444444e+00	 9.982778e+00
0	 2.296296e+00	 4.518519e+00	 9.973100e+00
0	 2.296296e+00	 4.592593e+00	 9.964185e+00
0	 2.296296e+00	 4.666667e+00	 9.956063e+00
0	 2.296296e+00	 4.740741e+00	 9.948764e+00
0	 2.296296e+00	 4.814815e+00	 9.942318e+00
0	 2.370370e+00	 4.444444e+00	 1.001512e+01
0	 2.370370e+00	 4.518519e+00	 1.000440e+01
0	 2.370370e+00	 4.592593e+00	 9.994470e+00
0	 2.370370e+00	 4.666667e+00	 9.985354e+00
0	 2.370370e+00	 4.740741e+00	 9.977090e+00
0	 2.370370e+00	 4.814815e+00	 9.969711e+00
0	 2.444444e+00	 4.444444e+00	 1.004600e+01
0	 2.444444e+00	 4.518519e+00	 1.003432e+01
0	 2.444444e+00	 4.592593e+00	 1.002346e+01
0	 2.444444e+00	 4.666667e+00	 1.001346e+01
0	 2.444444e+00	 4.740741e+00	 1.000433e+01
0	 2.444444e+00	 4.814815e+00	 9.996119e+00
0	 2.518519e+00	 4.444444e+00	 1.007535e+01
0	 2.518519e+00	 4.518519e+00	 1.006282e+01
0	 2.518519e+00	 4.592593e+00	 1.005114e+01
0	 2.518519e+00	 4.666667e+00	 1.004035e+01
0	 2.518519e+00	 4.740741e+00	 1.003045e+01
0	 2.518519e+00	 4.814815e+00	 1.002149e+01
0	 2.592593e+00	 4.444444e+00	 1.010312e+01
0	 2.592593e+00	 4.518519e+00	 1.008986e+01
0	 2.592593e+00	 4.592593e+00	 1.007748e+01
0	 2.592593e+00	 4.666667e+00	 1.006600e+01
0	 2.592593e+00	 4.740741e+00	 1.005543e+01
0	 2.592593e+00	 4.814815e+00	 1.004579e+01
0	 2.222222e+00	 4.814815e+00	 9.913984e+00
0	 2.222222e+00	 4.888889e+00	 9.909282e+00
0	 2.222222e+00	 4.962963e+00	 9.905147e+00
0	 2.222222e+00	 5.037037e+00	 9.901607e+00
0	 2.222222e+00	 5.111111e+00	 9.898688e+00
0	 2.222222e+00	 5.185185e+00	 9.896416e+00
0	 2.296296e+00	 4.814815e+00	 9.942318e+00
0	 2.296296e+00	 4.888889e+00	 9.936604e+00
0	 2.296296e+00	 4.962963e+00	 9.931497e+00
0	 2.296296e+00	 5.037037e+00	 9.927015e+00
0	 2.296296e+00	 5.111111e+00	 9.923178e+00
0	 2.296296e+00	 5.185185e+00	 9.920005e+00
0	 2.370370e+00	 4.814815e+00	 9.969711e+00
0	 2.370370e+00	 4.888889e+00	 9.963092e+00
0	 2.370370e+00	 4.962963e+00	 9.957097e+00
0	 2.370370e+00	 5.037037e+00	 9.951740e+00
0	 2.370370e+00	 5.111111e+00	 9.947037e+00
0	 2.370370e+00	 5.185185e+00	 9.943002e+00
0	 2.444444e+00	 4.814815e+00	 9.996119e+00
0	 2.444444e+00	 4.888889e+00	 9.988684e+00
0	 2.444444e+00	 4.962963e+00	 9.981877e+00
0	 2.444444e+00	 5.037037e+00	 9.975708e+00
0	 2.444444e+00	 5.111111e+00	 9.970191e+00
0	 2.444444e+00	 5.185185e+00	 9.965339e+00
0	 2.518519e+00	 4.814815e+00	 1.002149e+01
0	 2.518519e+00	 4.888889e+00	 1.001332e+01
0	 2.518519e+00	 4.962963e+00	 1.000576e+01
0	 2.518519e+00	 5.037037e+00	 9.998842e+00
0	 2.518519e+00	 5.111111e+00	 9.992567e+00
0	 2.518519e+00	 5.185185e+00	 9.986950e+00
0	 2.592593e+00	 4.814815e+00	 1.004579e+01
0	 2.592593e+00	 4.888889e+00	 1.003693e+01
0	 2.592593e+00	 4.962963e+00	 1.002869e+01
0	 2.592593e+00	 5.037037e+00	 1.002107e+01
0	 2.592593e+00	 5.111111e+00	 1.001409e+01
0	 2.592593e+00	 5.185185e+00	 1.000777e+01
0	 2.222222e+00	 5.185185e+00	 9.896416e+00
0	 2.222222e+00	 5.259259e+00	 9.894643e+00
0	 2.222222e+00	 5.333333e+00	 9.893214e+00
0	 2.222222e+00	 5.407407e+00	 9.892148e+00
0	 2.222222e+00	 5.481481e+00	 9.891459e+00
0	 2.222222e+00	 5.555556e+00	 9.891166e+00
0	 2.296296e+00	 5.185185e+00	 9.920005e+00
0	 2.296296e+00	 5.259259e+00	 9.917346e+00
0	 2.296296e+00	 5.333333e+00	 9.915052e+00
0	 2.296296e+00	 5.407407e+00	 9.913142e+00
0	 2.296296e+00	 5.481481e+00	 9.911635e+00
0	 2.296296e+00	 5.555556e+00	 9.910551e+00
0	 2.370370e+00	 5.185185e+00	 9.943002e+00
0	 2.370370e+00	 5.259259e+00	 9.939493e+00
0	 2.370370e+00	 5.333333e+00	 9.936374e+00
0	 2.370370e+00	 5.407407e+00	 9.933664e+00
0	 2.370370e+00	 5.481481e+00	 9.931386e+00
0	 2.370370e+00	 5.555556e+00	 9.929559e+00
0	 2.444444e+00	 5.185185e+00	 9.965339e+00
0	 2.444444e+00	 5.259259e+00	 9.961024e+00
0	 2.444444e+00	 5.333333e+00	 9.957126e+00
0	 2.444444e+00	 5.407407e+00	 9.953664e+00
0	 2.444444e+00	 5.481481e+00	 9.950661e+00
0	 2.444444e+00	 5.555556e+00	 9.948135e+00
0	 2.518519e+00	 5.185185e+00	 9.986950e+00
0	 2.518519e+00	 5.259259e+00	 9.981881e+00
0	 2.518519e+00	 5.333333e+00	 9.977255e+00
0	 2.518519e+00	 5.407407e+00	 9.973092e+00
0	 2.518519e+00	 5.481481e+00	 9.969410e+00
0	 2.518519e+00	 5.555556e+00	 9.966228e+00
0	 2.592593e+00	 5.185185e+00	 1.000777e+01
0	 2.592593e+00	 5.259259e+00	 1.000201e+01
0	 2.592593e+00	 5.333333e+00	 9.996711e+00
0	 2.592593e+00	 5.407407e+00	 9.991898e+00
0	 2.592593e+00	 5.481481e+00	 9.987584e+00
0	 2.592593e+00	 5.555556e+00	 9.983784e+00
0	 2.222222e+00	 5.555556e+00	 9.891166e+00
0	 2.222222e+00	 5.629630e+00	 9.891190e+00
0	 2.222222e+00	 5.703704e+00	 9.891455e+00
0	 2.222222e+00	 5.777778e+00	 9.891975e+00
0	 2.222222e+00	 5.851852e+00	 9.892766e+00
0	 2.222222e+00	 5.925926e+00	 9.893841e+00
0	 2.296296e+00	 5.555556e+00	 9.910551e+00
0	 2.296296e+00	 5.629630e+00	 9.909814e+00
0	 2.296296e+00	 5.703704e+00	 9.909345e+00
0	 2.296296e+00	 5.777778e+00	 9.909156e+00
0	 2.296296e+00	 5.851852e+00	 9.909260e+00
0	 2.296296e+00	 5.925926e+00	 9.909670e+00
0	 2.370370e+00	 5.555556e+00	 9.929559e+00
0	 2.370370e+00	 5.629630e+00	 9.928104e+00
0	 2.370370e+00	 5.703704e+00	 9.926937e+00
0	 2.370370e+00	 5.777778e+00	 9.926068e+00
0	 2.370370e+00	 5.851852e+00	 9.925510e+00
0	 2.370370e+00	 5.925926e+00	 9.925272e+00
0	 2.444444e+00	 5.555556e+00	 9.948135e+00
0	 2.444444e+00	 5.629630e+00	 9.946003e+00
0	 2.444444e+00	 5.703704e+00	 9.944172e+00
0	 2.444444e+00	 5.777778e+00	 9.942653e+00
0	 2.444444e+00	 5.851852e+00	 9.941457e+00
0	 2.444444e+00	 5.925926e+00	 9.940595e+00
0	 2.518519e+00	 5.555556e+00	 9.966228e+00
0	 2.518519e+00	 5.629630e+00	 9.963454e+00
0	 2.518519e+00	 5.703704e+00	 9.960993e+00
0	 2.518519e+00	 5.777778e+00	 9.958853e+00
0	 2.518519e+00	 5.851852e+00	 9.957047e+00
0	 2.518519e+00	 5.925926e+00	 9.955585e+00
0	 2.592593e+00	 5.555556e+00	 9.983784e+00
0	 2.592593e+00	 5.629630e+00	 9.980402e+00
0	 2.592593e+00	 5.703704e+00	 9.977340e+00
0	 2.592593e+00	 5.777778e+00	 9.974610e+00
0	 2.592593e+00	 5.851852e+00	 9.972223e+00
0	 2.592593e+00	 5.925926e+00	 9.970192e+00
0	 2.222222e+00	 5.925926e+00	 9.893841e+00
0	 2.222222e+00	 6.000000e+00	 9.895129e+00
0	 2.222222e+00	 6.074074e+00	 9.896554e+00
0	 2.222222e+00	 6.148148e+00	 9.898127e+00
0	 2.222222e+00	 6.222222e+00	 9.899858e+00
0	 2.222222e+00	 6.296296e+00	 9.901758e+00
0	 2.296296e+00	 5.925926e+00	 9.909670e+00
0	 2.296296e+00	 6.000000e+00	 9.910311e+00
0	 2.296296e+00	 6.074074e+00	 9.911107e+00
0	 2.296296e+00	 6.148148e+00	 9.912070e+00
0	 2.296296e+00	 6.222222e+00	 9.913211e+00
0	 2.296296e+00	 6.296296e+00	 9.914543e+00
0	 2.370370e+00	 5.925926e+00	 9.925272e+00
0	 2.370370e+00	 6.000000e+00	 9.925282e+00
0	 2.370370e+00	 6.074074e+00	 9.925467e+00
0	 2.370370e+00	 6.148148e+00	 9.925839e+00
0	 2.370370e+00	 6.222222e+00	 9.926410e+00
0	 2.370370e+00	 6.296296e+00	 9.927191e+00
0	 2.444444e+00	 5.925926e+00	 9.940595e+00
0	 2.444444e+00	 6.000000e+00	 9.939995e+00
0	 2.444444e+00	 6.074074e+00	 9.939590e+00
0	 2.444444e+00	 6.148148e+00	 9.939392e+00
0	 2.444444e+00	 6.222222e+00	 9.939412e+00
0	 2.444444e+00	 6.296296e+00	 9.939662e+00
0	 2.518519e+00	 5.925926e+00	 9.955585e+00
0	 2.518519e+00	 6.000000e+00	 9.954401e+00
0	 2.518519e+00	 6.074074e+00	 9.953431e+00
0	 2.518519e+00	 6.148148e+00	 9.952686e+00
0	 2.518519e+00	 6.222222e+00	 9.952177e+00
0	 2.518519e+00	 6.296296e+00	 9.951916e+00
0	 2.592593e+00	 5.925926e+00	 9.970192e+00
0	 2.592593e+00	 6.000000e+00	 9.968453e+00
0	 2.592593e+00	 6.074074e+00	 9.966945e+00
0	 2.592593e+00	 6.148148e+00	 9.965679e+00
0	 2.592593e+00	 6.222222e+00	 9.964664e+00
0	 2.592593e+00	 6.296296e+00	 9.963911e+00
0	 2.222222e+00	 6.296296e+00	 9.901758e+00
0	 2.222222e+00	 6.370370e+00	 9.903783e+00
0	 2.222222e+00	 6.444444e+00	 9.905890e+00
0	 2.222222e+00	 6.518519e+00	 9.908087e+00
0	 2.222222e+00	 6.592593e+00	 9.910382e+00
0	 2.222222e+00	 6.666667e+00	 9.912785e+00
0	 2.296296e+00	 6.296296e+00	 9.914543e+00
0	 2.296296e+00	 6.370370e+00	 9.916020e+00
0	 2.296296e+00	 6.444444e+00	 9.917596e+00
0	 2.296296e+00	 6.518519e+00	 9.919281e+00
0	 2.296296e+00	 6.592593e+00	 9.921081e+00
0	 2.296296e+00	 6.666667e+00	 9.923006e+00
0	 2.370370e+00	 6.296296e+00	 9.927191e+00
0	 2.370370e+00	 6.370370e+00	 9.928137e+00
0	 2.370370e+00	 6.444444e+00	 9.929198e+00
0	 2.370370e+00	 6.518519e+00	 9.930382e+00
0	 2.370370e+00	 6.592593e+00	 9.931698e+00
0	 2.370370e+00	 6.666667e+00	 9.933151e+00
0	 2.444444e+00	 6.296296e+00	 9.939662e+00
0	 2.444444e+00	 6.370370e+00	 9.940094e+00
0	 2.444444e+00	 6.444444e+00	 9.940655e+00
0	 2.444444e+00	 6.518519e+00	 9.941352e+00
0	 2.444444e+00	 6.592593e+00	 9.942193e+00
0	 2.444444e+00	 6.666667e+00	 9.943186e+00
0	 2.518519e+00	 6.296296e+00	 9.951916e+00
0	 2.518519e+00	 6.370370e+00	 9.951851e+00
0	 2.518519e+00	 6.444444e+00	 9.951927e+00
0	 2.518519e+00	 6.518519e+00	 9.952151e+00
0	 2.518519e+00	 6.592593e+00	 9.952531e+00
0	 2.518519e+00	 6.666667e+00	 9.953075e+00
0	 2.592593e+00	 6.296296e+00	 9.963911e+00
0	 2.592593e+00	 6.370370e+00	 9.963366e+00
0	 2.592593e+00	 6.444444e+00	 9.962973e+00
0	 2.592593e+00	 6.518519e+00	 9.962739e+00
0	 2.592593e+00	 6.592593e+00	 9.962673e+00
0	 2.592593e+00	 6.666667e+00	 9.962783e+00
0	 2.222222e+00	 6.666667e+00	 9.912785e+00
0	 2.222222e+00	 6.740741e+00	 9.915259e+00
0	 2.222222e+00	 6.814815e+00	 9.917765e+00
0	 2.222222e+00	 6.888889e+00	 9.920310e+00
0	 2.222222e+00	 6.962963e+00	 9.922900e+00
0	 2.222222e+00	 7.037037e+00	 9.925543e+00
0	 2.296296e+00	 6.666667e+00	 9.923006e+00
0	 2.296296e+00	 6.740741e+00	 9.925015e+00
0	 2.296296e+00	 6.814815e+00	 9.927071e+00
0	 2.296296e+00	 6.888889e+00	 9.929180e+00
0	 2.296296e+00	 6.962963e+00	 9.931348e+00
0	 2.296296e+00	 7.037037e+00	 9.933584e+00
0	 2.370370e+00	 6.666667e+00	 9.933151e+00
0	 2.370370e+00	 6.740741e+00	 9.934704e+00
0	 2.370370e+00	 6.814815e+00	 9.936317e+00
0	 2.370370e+00	 6.888889e+00	 9.937996e+00
0	 2.370370e+00	 6.962963e+00	 9.939750e+00
0	 2.370370e+00	 7.037037e+00	 9.941586e+00
0	 2.444444e+00	 6.666667e+00	 9.943186e+00
0	 2.444444e+00	 6.740741e+00	 9.944291e+00
0	 2.444444e+00	 6.814815e+00	 9.945470e+00
0	 2.444444e+00	 6.888889e+00	 9.946730e+00
0	 2.444444e+00	 6.962963e+00	 9.948078e+00
0	 2.444444e+00	 7.037037e+00	 9.949521e+00
0	 2.518519e+00	 6.666667e+00	 9.953075e+00
0	 2.518519e+00	 6.740741e+00	 9.953745e+00
0	 2.518519e+00	 6.814815e+00	 9.954501e+00
0	 2.518519e+00	 6.888889e+00	 9.955351e+00
0	 2.518519e+00	 6.962963e+00	 9.956303e+00
0	 2.518519e+00	 7.037037e+00	 9.957362e+00
0	 2.592593e+00	 6.666667e+00	 9.962783e+00
0	 2.592593e+00	 6.740741e+00	 9.963031e+00
0	 2.592593e+00	 6.814815e+00	 9.963378e+00
0	 2.592593e+00	 6.888889e+00	 9.963830e+00
0	 2.592593e+00	 6.962963e+00	 9.964396e+00
0	 2.592593e+00	 7.037037e+00	 9.965081e+00
0	 2.222222e+00	 7.037037e+00	 9.925543e+00
0	 2.222222e+00	 7.111111e+00	 9.928213e+00
0	 2.222222e+00	 7.185185e+00	 9.930884e+00
0	 2.222222e+00	 7.259259e+00	 9.933561e+00
0	 2.222222e+00	 7.333333e+00	 9.936251e+00
0	 2.222222e+00	 7.407407e+00	 9.938960e+00
0	 2.296296e+00	 7.037037e+00	 9.933584e+00
0	 2.296296e+00	 7.111111e+00	 9.935861e+00
0	 2.296296e+00	 7.185185e+00	 9.938151e+00
0	 2.296296e+00	 7.259259e+00	 9.940460e+00
0	 2.296296e+00	 7.333333e+00	 9.942793e+00
0	 2.296296e+00	 7.407407e+00	 9.945157e+00
0	 2.370370e+00	 7.037037e+00	 9.941586e+00
0	 2.370370e+00	 7.111111e+00	 9.943476e+00
0	 2.370370e+00	 7.185185e+00	 9.945390e+00
0	 2.370370e+00	 7.259259e+00	 9.947335e+00
0	 2.370370e+00	 7.333333e+00	 9.949316e+00
0	 2.370370e+00	 7.407407e+00	 9.951338e+00
0	 2.444444e+00	 7.037037e+00	 9.949521e+00
0	 2.444444e+00	 7.111111e+00	 9.951031e+00
0	 2.444444e+00	 7.185185e+00	 9.952576e+00
0	 2.444444e+00	 7.259259e+00	 9.954162e+00
0	 2.444444e+00	 7.333333e+00	 9.955794e+00
0	 2.444444e+00	 7.407407e+00	 9.957479e+00
0	 2.518519e+00	 7.037037e+00	 9.957362e+00
0	 2.518519e+00	 7.111111e+00	 9.958499e+00
0	 2.518519e+00	 7.185185e+00	 9.959682e+00
0	 2.518519e+00	 7.259259e+00	 9.960916e+00
0	 2.518519e+00	 7.333333e+00	 9.962206e+00
0	 2.518519e+00	 7.407407e+00	 9.963559e+00
0	 2.592593e+00	 7.037037e+00	 9.965081e+00
0	 2.592593e+00	 7.111111e+00	 9.965855e+00
0	 2.592593e+00	 7.185185e+00	 9.966683e+00
0	 2.592593e+00	 7.259259e+00	 9.967572e+00
0	 2.592593e+00	 7.333333e+00	 9.968527e+00
0	 2.592593e+00	 7.407407e+00	 9.969555e+00
0	 2.222222e+00	 7.407407e+00	 9.938960e+00
0	 2.222222e+00	 7.481481e+00	 9.941664e+00
0	 2.222222e+00	 7.555556e+00	 9.944343e+00
0	 2.222222e+00	 7.629630e+00	 9.947001e+00
0	 2.222222e+00	 7.703704e+00	 9.949643e+00
0	 2.222222e+00	 7.777778e+00	 9.952274e+00
0	 2.296296e+00	 7.407407e+00	 9.945157e+00
0	 2.296296e+00	 7.481481e+00	 9.947528e+00
0	 2.296296e+00	 7.555556e+00	 9.949883e+00
0	 2.296296e+00	 7.629630e+00	 9.952228e+00
0	 2.296296e+00	 7.703704e+00	 9.954567e+00
0	 2.296296e+00	 7.777778e+00	 9.956906e+00
0	 2.370370e+00	 7.407407e+00	 9.951338e+00
0	 2.370370e+00	 7.481481e+00	 9.953378e+00
0	 2.370370e+00	 7.555556e+00	 9.955412e+00
0	 2.370370e+00	 7.629630e+00	 9.957446e+00
0	 2.370370e+00	 7.703704e+00	 9.959484e+00
0	 2.370370e+00	 7.777778e+00	 9.961532e+00
0	 2.444444e+00	 7.407407e+00	 9.957479e+00
0	 2.444444e+00	 7.481481e+00	 9.959192e+00
0	 2.444444e+00	 7.555556e+00	 9.960909e+00
0	 2.444444e+00	 7.629630e+00	 9.962635e+00
0	 2.444444e+00	 7.703704e+00	 9.964376e+00
0	 2.444444e+00	 7.777778e+00	 9.966137e+00
0	 2.518519e+00	 7.407407e+00	 9.963559e+00
0	 2.518519e+00	 7.481481e+00	 9.964950e+00
0	 2.518519e+00	 7.555556e+00	 9.966354e+00
0	 2.518519e+00	 7.629630e+00	 9.967778e+00
0	 2.518519e+00	 7.703704e+00	 9.969226e+00
0	 2.518519e+00	 7.777778e+00	 9.970702e+00
0	 2.592593e+00	 7.407407e+00	 9.969555e+00
0	 2.592593e+00	 7.481481e+00	 9.970630e+00
0	 2.592593e+00	 7.555556e+00	 9.971728e+00
0	 2.592593e+00	 7.629630e+00	 9.972855e+00
0	 2.592593e+00	 7.703704e+00	 9.974014e+00
0	 2.592593e+00	 7.777778e+00	 9.975212e+00
0	 2.222222e+00	 7.777778e+00	 9.952274e+00
0	 2.222222e+00	 7.851852e+00	 9.954876e+00
0	 2.222222e+00	 7.925926e+00	 9.957432e+00
0	 2.222222e+00	 8.000000e+00	 9.959946e+00
0	 2.222222e+00	 8.074074e+00	 9.962423e+00
0	 2.222222e+00	 8.148148e+00	 9.964867e+00
0	 2.296296e+00	 7.777778e+00	 9.956906e+00
0	 2.296296e+00	 7.851852e+00	 9.959225e+00
0	 2.296296e+00	 7.925926e+00	 9.961508e+00
0	 2.296296e+00	 8.000000e+00	 9.963757e+00
0	 2.296296e+00	 8.074074e+00	 9.965979e+00
0	 2.296296e+00	 8.148148e+00	 9.968176e+00
0	 2.370370e+00	 7.777778e+00	 9.961532e+00
0	 2.370370e+00	 7.851852e+00	 9.963571e+00
0	 2.370370e+00	 7.925926e+00	 9.965582e+00
0	 2.370370e+00	 8.000000e+00	 9.967568e+00
0	 2.370370e+00	 8.074074e+00	 9.969535e+00
0	 2.370370e+00	 8.148148e+00	 9.971487e+00
0	 2.444444e+00	 7.777778e+00	 9.966137e+00
0	 2.444444e+00	 7.851852e+00	 9.967898e+00
0	 2.444444e+00	 7.925926e+00	 9.969638e+00
0	 2.444444e+00	 8.000000e+00	 9.971364e+00
0	 2.444444e+00	 8.074074e+00	 9.973078e+00
0	 2.444444e+00	 8.148148e+00	 9.974785e+00
0	 2.518519e+00	 7.777778e+00	 9.970702e+00
0	 2.518519e+00	 7.851852e+00	 9.972188e+00
0	 2.518519e+00	 7.925926e+00	 9.973662e+00
0	 2.518519e+00	 8.000000e+00	 9.975129e+00
0	 2.518519e+00	 8.074074e+00	 9.976593e+00
0	 2.518519e+00	 8.148148e+00	 9.978059e+00
0	 2.592593e+00	 7.777778e+00	 9.975212e+00
0	 2.592593e+00	 7.851852e+00	 9.976426e+00
0	 2.592593e+00	 7.925926e+00	 9.977638e+00
0	 2.592593e+00	 8.000000e+00	 9.978850e+00
0	 2.592593e+00	 8.074074e+00	 9.980067e+00
0	 2.592593e+00	 8.148148e+00	 9.981294e+00
0	 2.222222e+00	 8.148148e+00	 9.964867e+00
0	 2.222222e+00	 8.222222e+00	 9.967262e+00
0	 2.222222e+00	 8.296296e+00	 9.969591e+00
0	 2.222222e+00	 8.370370e+00	 9.971859e+00
0	 2.222222e+00	 8.444444e+00	 9.974071e+00
0	 2.222222e+00	 8.518519e+00	 9.976230e+00
0	 2.296296e+00	 8.148148e+00	 9.968176e+00
0	 2.296296e+00	 8.222222e+00	 9.970333e+00
0	 2.296296e+00	 8.296296e+00	 9.972433e+00
0	 2.296296e+00	 8.370370e+00	 9.974480e+00
0	 2.296296e+00	 8.444444e+00	 9.976478e+00
0	 2.296296e+00	 8.518519e+00	 9.978432e+00
0	 2.370370e+00	 8.148148e+00	 9.971487e+00
0	 2.370370e+00	 8.222222e+00	 9.973406e+00
0	 2.370370e+00	 8.296296e+00	 9.975277e+00
0	 2.370370e+00	 8.370370e+00	 9.977103e+00
0	 2.370370e+00	 8.444444e+00	 9.978889e+00
0	 2.370370e+00	 8.518519e+00	 9.980639e+00
0	 2.444444e+00	 8.148148e+00	 9.974785e+00
0	 2.444444e+00	 8.222222e+00	 9.976469e+00
0	 2.444444e+00	 8.296296e+00	 9.978112e+00
0	 2.444444e+00	 8.370370e+00	 9.979719e+00
0	 2.444444e+00	 8.444444e+00	 9.981294e+00
0	 2.444444e+00	 8.518519e+00	 9.982840e+00
0	 2.518519e+00	 8.148148e+00	 9.978059e+00
0	 2.518519e+00	 8.222222e+00	 9.979509e+00
0	 2.518519e+00	 8.296296e+00	 9.980927e+00
0	 2.518519e+00	 8.370370e+00	 9.982316e+00
0	 2.518519e+00	 8.444444e+00	 9.983681e+00
0	 2.518519e+00	 8.518519e+00	 9.985025e+00
0	 2.592593e+00	 8.148148e+00	 9.981294e+00
0	 2.592593e+00	 8.222222e+00	 9.982513e+00
0	 2.592593e+00	 8.296296e+00	 9.983708e+00
0	 2.592593e+00	 8.370370e+00	 9.984883e+00
0	 2.592593e+00	 8.444444e+00	 9.986040e+00
0	 2.592593e+00	 8.518519e+00	 9.987185e+00
0	 2.222222e+00	 8.518519e+00	 9.976230e+00
0	 2.222222e+00	 8.592593e+00	 9.978321e+00
0	 2.222222e+00	 8.666667e+00	 9.980327e+00
0	 2.222222e+00	 8.740741e+00	 9.982255e+00
0	 2.222222e+00	 8.814815e+00	 9.984108e+00
0	 2.222222e+00	 8.888889e+00	 9.985890e+00
0	 2.296296e+00	 8.518519e+00	 9.978432e+00
0	 2.296296e+00	 8.592593e+00	 9.980326e+00
0	 2.296296e+00	 8.666667e+00	 9.982145e+00
0	 2.296296e+00	 8.740741e+00	 9.983893e+00
0	 2.296296e+00	 8.814815e+00	 9.985574e+00
0	 2.296296e+00	 8.888889e+00	 9.987192e+00
0	 2.370370e+00	 8.518519e+00	 9.980639e+00
0	 2.370370e+00	 8.592593e+00	 9.982337e+00
0	 2.370370e+00	 8.666667e+00	 9.983968e+00
0	 2.370370e+00	 8.740741e+00	 9.985536e+00
0	 2.370370e+00	 8.814815e+00	 9.987046e+00
0	 2.370370e+00	 8.888889e+00	 9.988501e+00
0	 2.444444e+00	 8.518519e+00	 9.982840e+00
0	 2.444444e+00	 8.592593e+00	 9.984343e+00
0	 2.444444e+00	 8.666667e+00	 9.985787e+00
0	 2.444444e+00	 8.740741e+00	 9.987177e+00
0	 2.444444e+00	 8.814815e+00	 9.988515e+00
0	 2.444444e+00	 8.888889e+00	 9.989807e+00
0	 2.518519e+00	 8.518519e+00	 9.985025e+00
0	 2.518519e+00	 8.592593e+00	 9.986334e+00
0	 2.518519e+00	 8.666667e+00	 9.987593e+00
0	 2.518519e+00	 8.740741e+00	 9.988805e+00
0	 2.518519e+00	 8.814815e+00	 9.989974e+00
0	 2.518519e+00	 8.888889e+00	 9.991103e+00
0	 2.592593e+00	 8.518519e+00	 9.987185e+00
0	 2.592593e+00	 8.592593e+00	 9.988302e+00
0	 2.592593e+00	 8.666667e+00	 9.989377e+00
0	 2.592593e+00	 8.740741e+00	 9.990413e+00
0	 2.592593e+00	 8.814815e+00	 9.991413e+00
0	 2.592593e+00	 8.888889e+00	 9.992381e+00
0	 2.222222e+00	 8.888889e+00	 9.985890e+00
0	 2.222222e+00	 8.962963e+00	 9.987586e+00
0	 2.222222e+00	 9.037037e+00	 9.989180e+00
0	 2.222222e+00	 9.111111e+00	 9.990675e+00
0	 2.222222e+00	 9.185185e+00	 9.992078e+00
0	 2.222222e+00	 9.259259e+00	 9.993393e+00
0	 2.296296e+00	 8.888889e+00	 9.987192e+00
0	 2.296296e+00	 8.962963e+00	 9.988733e+00
0	 2.296296e+00	 9.037037e+00	 9.990180e+00
0	 2.296296e+00	 9.111111e+00	 9.991538e+00
0	 2.296296e+00	 9.185185e+00	 9.992812e+00
0	 2.296296e+00	 9.259259e+00	 9.994006e+00
0	 2.370370e+00	 8.888889e+00	 9.988501e+00
0	 2.370370e+00	 8.962963e+00	 9.989886e+00
0	 2.370370e+00	 9.037037e+00	 9.991187e+00
0	 2.370370e+00	 9.111111e+00	 9.992408e+00
0	 2.370370e+00	 9.185185e+00	 9.993553e+00
0	 2.370370e+00	 9.259259e+00	 9.994626e+00
0	 2.444444e+00	 8.888889e+00	 9.989807e+00
0	 2.444444e+00	 8.962963e+00	 9.991037e+00
0	 2.444444e+00	 9.037037e+00	 9.992193e+00
0	 2.444444e+00	 9.111111e+00	 9.993277e+00
0	 2.444444e+00	 9.185185e+00	 9.994294e+00
0	 2.444444e+00	 9.259259e+00	 9.995247e+00
0	 2.518519e+00	 8.888889e+00	 9.991103e+00
0	 2.518519e+00	 8.962963e+00	 9.992179e+00
0	 2.518519e+00	 9.037037e+00	 9.993190e+00
0	 2.518519e+00	 9.111111e+00	 9.994139e+00
0	 2.518519e+00	 9.185185e+00	 9.995028e+00
0	 2.518519e+00	 9.259259e+00	 9.995862e+00
0	 2.592593e+00	 8.888889e+00	 9.992381e+00
0	 2.592593e+00	 8.962963e+00	 9.993305e+00
0	 2.592593e+00	 9.037037e+00	 9.994173e+00
0	 2.592593e+00	 9.111111e+00	 9.994986e+00
0	 2.592593e+00	 9.185185e+00	 9.995749e+00
0	 2.592593e+00	 9.259259e+00	 9.996464e+00
0	 2.222222e+00	 9.259259e+00	 9.993393e+00
0	 2.222222e+00	 9.333333e+00	 9.994602e+00
0	 2.222222e+00	 9.407407e+00	 9.995688e+00
0	 2.222222e+00	 9.481481e+00	 9.996656e+00
0	 2.222222e+00	 9.555556e+00	 9.997512e+00
0	 2.222222e+00	 9.629630e+00	 9.998260e+00
0	 2.296296e+00	 9.259259e+00	 9.994006e+00
0	 2.296296e+00	 9.333333e+00	 9.995104e+00
0	 2.296296e+00	 9.407407e+00	 9.996090e+00
0	 2.296296e+00	 9.481481e+00	 9.996968e+00
0	 2.296296e+00	 9.555556e+00	 9.997743e+00
0	 2.296296e+00	 9.629630e+00	 9.998421e+00
0	 2.370370e+00	 9.259259e+00	 9.994626e+00
0	 2.370370e+00	 9.333333e+00	 9.995613e+00
0	 2.370370e+00	 9.407407e+00	 9.996499e+00
0	 2.370370e+00	 9.481481e+00	 9.997288e+00
0	 2.370370e+00	 9.555556e+00	 9.997983e+00
0	 2.370370e+00	 9.629630e+00	 9.998590e+00
0	 2.444444e+00	 9.259259e+00	 9.995247e+00
0	 2.444444e+00	 9.333333e+00	 9.996123e+00
0	 2.444444e+00	 9.407407e+00	 9.996909e+00
0	 2.444444e+00	 9.481481e+00	 9.997609e+00
0	 2.444444e+00	 9.555556e+00	 9.998225e+00
0	 2.444444e+00	 9.629630e+00	 9.998762e+00
0	 2.518519e+00	 9.259259e+00	 9.995862e+00
0	 2.518519e+00	 9.333333e+00	 9.996628e+00
0	 2.518519e+00	 9.407407e+00	 9.997315e+00
0	 2.518519e+00	 9.481481e+00	 9.997925e+00
0	 2.518519e+00	 9.555556e+00	 9.998463e+00
0	 2.518519e+00	 9.629630e+00	 9.998929e+00
0	 2.592593e+00	 9.259259e+00	 9.996464e+00
0	 2.592593e+00	 9.333333e+00	 9.997120e+00
0	 2.592593e+00	 9.407407e+00	 9.997709e+00
0	 2.592593e+00	 9.481481e+00	 9.998231e+00
0	 2.592593e+00	 9.555556e+00	 9.998690e+00
0	 2.592593e+00	 9.629630e+00	 9.999087e+00
0	 2.222222e+00	 9.629630e+00	 9.998260e+00
0	 2.222222e+00	 9.703704e+00	 9.998884e+00
0	 2.222222e+00	 9.777778e+00	 9.999365e+00
0	 2.222222e+00	 9.851852e+00	 9.999710e+00
0	 2.222222e+00	 9.925926e+00	 9.999923e+00
0	 2.222222e+00	 1.000000e+01	 1.000001e+01
0	 2.296296e+00	 9.629630e+00	 9.998421e+00
0	 2.296296e+00	 9.703704e+00	 9.998984e+00
0	 2.296296e+00	 9.777778e+00	 9.999420e+00
0	 2.296296e+00	 9.851852e+00	 9.999732e+00
0	 2.296296e+00	 9.925926e+00	 9.999924e+00
0	 2.296296e+00	 1.000000e+01	 1.000000e+01
0	 2.370370e+00	 9.629630e+00	 9.998590e+00
0	 2.370370e+00	 9.703704e+00	 9.999095e+00
0	 2.370370e+00	 9.777778e+00	 9.999485e+00
0	 2.370370e+00	 9.851852e+00	 9.999764e+00
0	 2.370370e+00	 9.925926e+00	 9.999935e+00
0	 2.370370e+00	 1.000000e+01	 1.000000e+01
0	 2.444444e+00	 9.629630e+00	 9.998762e+00
0	 2.444444e+00	 9.703704e+00	 9.999208e+00
0	 2.444444e+00	 9.777778e+00	 9.999553e+00
0	 2.444444e+00	 9.851852e+00	 9.999799e+00
0	 2.444444e+00	 9.925926e+00	 9.999950e+00
0	 2.444444e+00	 1.000000e+01	 1.000001e+01
0	 2.518519e+00	 9.629630e+00	 9.998929e+00
0	 2.518519e+00	 9.703704e+00	 9.999317e+00
0	 2.518519e+00	 9.777778e+00	 9.999617e+00
0	 2.518519e+00	 9.851852e+00	 9.999831e+00
0	 2.518519e+00	 9.925926e+00	 9.999962e+00
0	 2.518519e+00	 1.000000e+01	 1.000001e+01
0	 2.592593e+00	 9.629630e+00	 9.999087e+00
0	 2.592593e+00	 9.703704e+00	 9.999416e+00
0	 2.592593e+00	 9.777778e+00	 9.999671e+00
0	 2.592593e+00	 9.851852e+00	 9.999853e+00
0	 2.592593e+00	 9.925926e+00	 9.999962e+00
0	 2.592593e+00	 1.000000e+01	 1.000000e+01
0	 2.592593e+00	 0.000000e+00	 1.126281e+01
0	 2.592593e+00	 7.407407e-02	 1.124089e+01
0	 2.592593e+00	 1.481481e-01	 1.124009e+01
0	 2.592593e+00	 2.222222e-01	 1.125491e+01
0	 2.592593e+00	 2.962963e-01	 1.127983e+01
0	 2.592593e+00	 3.703704e-01	 1.130936e+01
0	 2.666667e+00	 0.000000e+00	 1.128781e+01
0	 2.666667e+00	 7.407407e-02	 1.126888e+01
0	 2.666667e+00	 1.481481e-01	 1.125721e+01
0	 2.666667e+00	 2.222222e-01	 1.125228e+01
0	 2.666667e+00	 2.962963e-01	 1.125355e+01
0	 2.666667e+00	 3.703704e-01	 1.126049e+01
0	 2.740741e+00	 0.000000e+00	 1.125207e+01
0	 2.740741e+00	 7.407407e-02	 1.124265e+01
0	 2.740741e+00	 1.481481e-01	 1.123103e+01
0	 2.740741e+00	 2.222222e-01	 1.122000e+01
0	 2.740741e+00	 2.962963e-01	 1.121238e+01
0	 2.740741e+00	 3.703704e-01	 1.121099e+01
0	 2.814815e+00	 0.000000e+00	 1.117262e+01
0	 2.814815e+00	 7.407407e-02	 1.117524e+01
0	 2.814815e+00	 1.481481e-01	 1.117062e+01
0	 2.814815e+00	 2.222222e-01	 1.116327e+01
0	 2.814815e+00	 2.962963e-01	 1.115770e+01
0	 2.814815e+00	 3.703704e-01	 1.115842e+01
0	 2.888889e+00	 0.000000e+00	 1.106648e+01
0	 2.888889e+00	 7.407407e-02	 1.107968e+01
0	 2.888889e+00	 1.481481e-01	 1.108511e+01
0	 2.888889e+00	 2.222222e-01	 1.108731e+01
0	 2.888889e+00	 2.962963e-01	 1.109087e+01
0	 2.888889e+00	 3.703704e-01	 1.110035e+01
0	 2.962963e+00	 0.000000e+00	 1.095069e+01
0	 2.962963e+00	 7.407407e-02	 1.096903e+01
0	 2.962963e+00	 1.481481e-01	 1.098358e+01
0	 2.962963e+00	 2.222222e-01	 1.099732e+01
0	 2.962963e+00	 2.962963e-01	 1.101325e+01
0	 2.962963e+00	 3.703704e-01	 1.103435e+01
0	 2.592593e+00	 3.703704e-01	 1.130936e+01
0	 2.592593e+00	 4.444444e-01	 1.133735e+01
0	 2.592593e+00	 5.185185e-01	 1.136338e+01
0	 2.592593e+00	 5.925926e-01	 1.139055e+01
0	 2.592593e+00	 6.666667e-01	 1.142196e+01
0	 2.592593e+00	 7.407407e-01	 1.146070e+01
0	 2.666667e+00	 3.703704e-01	 1.126049e+01
0	 2.666667e+00	 4.444444e-01	 1.127156e+01
0	 2.666667e+00	 5.185185e-01	 1.128662e+01
0	 2.666667e+00	 5.925926e-01	 1.130730e+01
0	 2.666667e+00	 6.666667e-01	 1.133520e+01
0	 2.666667e+00	 7.407407e-01	 1.137194e+01
0	 2.740741e+00	 3.703704e-01	 1.121099e+01
0	 2.740741e+00	 4.444444e-01	 1.121640e+01
0	 2.740741e+00	 5.185185e-01	 1.122773e+01
0	 2.740741e+00	 5.925926e-01	 1.124555e+01
0	 2.740741e+00	 6.666667e-01	 1.127044e+01
0	 2.740741e+00	 7.407407e-01	 1.130299e+01
0	 2.814815e+00	 3.703704e-01	 1.115842e+01
0	 2.814815e+00	 4.444444e-01	 1.116624e+01
0	 2.814815e+00	 5.185185e-01	 1.117897e+01
0	 2.814815e+00	 5.925926e-01	 1.119661e+01
0	 2.814815e+00	 6.666667e-01	 1.121917e+01
0	 2.814815e+00	 7.407407e-01	 1.124664e+01
0	 2.888889e+00	 3.703704e-01	 1.110035e+01
0	 2.888889e+00	 4.444444e-01	 1.111543e+01
0	 2.888889e+00	 5.185185e-01	 1.113263e+01
0	 2.888889e+00	 5.925926e-01	 1.115182e+01
0	 2.888889e+00	 6.666667e-01	 1.117289e+01
0	 2.888889e+00	 7.407407e-01	 1.119569e+01
0	 2.962963e+00	 3.703704e-01	 1.103435e+01
0	 2.962963e+00	 4.444444e-01	 1.105832e+01
0	 2.962963e+00	 5.185185e-01	 1.108096e+01
0	 2.962963e+00	 5.925926e-01	 1.110249e+01
0	 2.962963e+00	 6.666667e-01	 1.112309e+01
0	 2.962963e+00	 7.407407e-01	 1.114296e+01
0	 2.592593e+00	 7.407407e-01	 1.146070e+01
0	 2.592593e+00	 8.148148e-01	 1.149946e+01
0	 2.592593e+00	 8.888889e-01	 1.152971e+01
0	 2.592593e+00	 9.629630e-01	 1.155280e+01
0	 2.592593e+00	 1.037037e+00	 1.157004e+01
0	 2.592593e+00	 1.111111e+00	 1.158277e+01
0	 2.666667e+00	 7.407407e-01	 1.137194e+01
0	 2.666667e+00	 8.148148e-01	 1.140956e+01
0	 2.666667e+00	 8.888889e-01	 1.143987e+01
0	 2.666667e+00	 9.629630e-01	 1.146418e+01
0	 2.666667e+00	 1.037037e+00	 1.148380e+01
0	 2.666667e+00	 1.111111e+00	 1.150002e+01
0	 2.740741e+00	 7.407407e-01	 1.130299e+01
0	 2.740741e+00	 8.148148e-01	 1.133621e+01
0	 2.740741e+00	 8.888889e-01	 1.136358e+01
0	 2.740741e+00	 9.629630e-01	 1.138631e+01
0	 2.740741e+00	 1.037037e+00	 1.140565e+01
0	 2.740741e+00	 1.111111e+00	 1.142282e+01
0	 2.814815e+00	 7.407407e-01	 1.124664e+01
0	 2.814815e+00	 8.148148e-01	 1.127400e+01
0	 2.814815e+00	 8.888889e-01	 1.129699e+01
0	 2.814815e+00	 9.629630e-01	 1.131673e+01
0	 2.814815e+00	 1.037037e+00	 1.133433e+01
0	 2.814815e+00	 1.111111e+00	 1.135092e+01
0	 2.888889e+00	 7.407407e-01	 1.119569e+01
0	 2.888889e+00	 8.148148e-01	 1.121749e+01
0	 2.888889e+00	 8.888889e-01	 1.123627e+01
0	 2.888889e+00	 9.629630e-01	 1.125298e+01
0	 2.888889e+00	 1.037037e+00	 1.126859e+01
0	 2.888889e+00	 1.111111e+00	 1.128408e+01
0	 2.962963e+00	 7.407407e-01	 1.114296e+01
0	 2.962963e+00	 8.148148e-01	 1.116126e+01
0	 2.962963e+00	 8.888889e-01	 1.117755e+01
0	 2.962963e+00	 9.629630e-01	 1.119260e+01
0	 2.962963e+00	 1.037037e+00	 1.120718e+01
0	 2.962963e+00	 1.111111e+00	 1.122204e+01
0	 2.592593e+00	 1.111111e+00	 1.158277e+01
0	 2.592593e+00	 1.185185e+00	 1.158974e+01
0	 2.592593e+00	 1.259259e+00	 1.158896e+01
0	 2.592593e+00	 1.333333e+00	 1.158062e+01
0	 2.592593e+00	 1.407407e+00	 1.156497e+01
0	 2.592593e+00	 1.481481e+00	 1.154221e+01
0	 2.666667e+00	 1.111111e+00	 1.150002e+01
0	 2.666667e+00	 1.185185e+00	 1.151108e+01
0	 2.666667e+00	 1.259259e+00	 1.151448e+01
0	 2.666667e+00	 1.333333e+00	 1.151048e+01
0	 2.666667e+00	 1.407407e+00	 1.149929e+01
0	 2.666667e+00	 1.481481e+00	 1.148116e+01
0	 2.740741e+00	 1.111111e+00	 1.142282e+01
0	 2.740741e+00	 1.185185e+00	 1.143577e+01
0	 2.740741e+00	 1.259259e+00	 1.144179e+01
0	 2.740741e+00	 1.333333e+00	 1.144115e+01
0	 2.740741e+00	 1.407407e+00	 1.143410e+01
0	 2.740741e+00	 1.481481e+00	 1.142091e+01
0	 2.814815e+00	 1.111111e+00	 1.135092e+01
0	 2.814815e+00	 1.185185e+00	 1.136433e+01
0	 2.814815e+00	 1.259259e+00	 1.137186e+01
0	 2.814815e+00	 1.333333e+00	 1.137381e+01
0	 2.814815e+00	 1.407407e+00	 1.137046e+01
0	 2.814815e+00	 1.481481e+00	 1.136211e+01
0	 2.888889e+00	 1.111111e+00	 1.128408e+01
0	 2.888889e+00	 1.185185e+00	 1.129729e+01
0	 2.888889e+00	 1.259259e+00	 1.130570e+01
0	 2.888889e+00	 1.333333e+00	 1.130962e+01
0	 2.888889e+00	 1.407407e+00	 1.130941e+01
0	 2.888889e+00	 1.481481e+00	 1.130540e+01
0	 2.962963e+00	 1.111111e+00	 1.122204e+01
0	 2.962963e+00	 1.185185e+00	 1.123516e+01
0	 2.962963e+00	 1.259259e+00	 1.124428e+01
0	 2.962963e+00	 1.333333e+00	 1.124976e+01
0	 2.962963e+00	 1.407407e+00	 1.125201e+01
0	 2.962963e+00	 1.481481e+00	 1.125142e+01
0	 2.592593e+00	 1.481481e+00	 1.154221e+01
0	 2.592593e+00	 1.555556e+00	 1.151435e+01
0	 2.592593e+00	 1.629630e+00	 1.148321e+01
0	 2.592593e+00	 1.703704e+00	 1.144874e+01
0	 2.592593e+00	 1.777778e+00	 1.141087e+01
0	 2.592593e+00	 1.851852e+00	 1.136953e+01
0	 2.666667e+00	 1.481481e+00	 1.148116e+01
0	 2.666667e+00	 1.555556e+00	 1.145832e+01
0	 2.666667e+00	 1.629630e+00	 1.143274e+01
0	 2.666667e+00	 1.703704e+00	 1.140422e+01
0	 2.666667e+00	 1.777778e+00	 1.137258e+01
0	 2.666667e+00	 1.851852e+00	 1.133762e+01
0	 2.740741e+00	 1.481481e+00	 1.142091e+01
0	 2.740741e+00	 1.555556e+00	 1.140346e+01
0	 2.740741e+00	 1.629630e+00	 1.138330e+01
0	 2.740741e+00	 1.703704e+00	 1.136017e+01
0	 2.740741e+00	 1.777778e+00	 1.133381e+01
0	 2.740741e+00	 1.851852e+00	 1.130396e+01
0	 2.814815e+00	 1.481481e+00	 1.136211e+01
0	 2.814815e+00	 1.555556e+00	 1.134996e+01
0	 2.814815e+00	 1.629630e+00	 1.133482e+01
0	 2.814815e+00	 1.703704e+00	 1.131642e+01
0	 2.814815e+00	 1.777778e+00	 1.129450e+01
0	 2.814815e+00	 1.851852e+00	 1.126878e+01
0	 2.888889e+00	 1.481481e+00	 1.130540e+01
0	 2.888889e+00	 1.555556e+00	 1.129798e+01
0	 2.888889e+00	 1.629630e+00	 1.128719e+01
0	 2.888889e+00	 1.703704e+00	 1.127280e+01
0	 2.888889e+00	 1.777778e+00	 1.125457e+01
0	 2.888889e+00	 1.851852e+00	 1.123229e+01
0	 2.962963e+00	 1.481481e+00	 1.125142e+01
0	 2.962963e+00	 1.555556e+00	 1.124772e+01
0	 2.962963e+00	 1.629630e+00	 1.124033e+01
0	 2.962963e+00	 1.703704e+00	 1.122912e+01
0	 2.962963e+00	 1.777778e+00	 1.121397e+01
0	 2.962963e+00	 1.851852e+00	 1.119473e+01
0	 2.592593e+00	 1.851852e+00	 1.136953e+01
0	 2.592593e+00	 1.925926e+00	 1.132607e+01
0	 2.592593e+00	 2.000000e+00	 1.128151e+01
0	 2.592593e+00	 2.074074e+00	 1.123519e+01
0	 2.592593e+00	 2.148148e+00	 1.118652e+01
0	 2.592593e+00	 2.222222e+00	 1.113486e+01
0	 2.666667e+00	 1.851852e+00	 1.133762e+01
0	 2.666667e+00	 1.925926e+00	 1.130009e+01
0	 2.666667e+00	 2.000000e+00	 1.126059e+01
0	 2.666667e+00	 2.074074e+00	 1.121878e+01
0	 2.666667e+00	 2.148148e+00	 1.117431e+01
0	 2.666667e+00	 2.222222e+00	 1.112683e+01
0	 2.740741e+00	 1.851852e+00	 1.130396e+01
0	 2.740741e+00	 1.925926e+00	 1.127117e+01
0	 2.740741e+00	 2.000000e+00	 1.123604e+01
0	 2.740741e+00	 2.074074e+00	 1.119840e+01
0	 2.740741e+00	 2.148148e+00	 1.115810e+01
0	 2.740741e+00	 2.222222e+00	 1.111498e+01
0	 2.814815e+00	 1.851852e+00	 1.126878e+01
0	 2.814815e+00	 1.925926e+00	 1.123990e+01
0	 2.814815e+00	 2.000000e+00	 1.120863e+01
0	 2.814815e+00	 2.074074e+00	 1.117494e+01
0	 2.814815e+00	 2.148148e+00	 1.113876e+01
0	 2.814815e+00	 2.222222e+00	 1.110005e+01
0	 2.888889e+00	 1.851852e+00	 1.123229e+01
0	 2.888889e+00	 1.925926e+00	 1.120682e+01
0	 2.888889e+00	 2.000000e+00	 1.117915e+01
0	 2.888889e+00	 2.074074e+00	 1.114927e+01
0	 2.888889e+00	 2.148148e+00	 1.111714e+01
0	 2.888889e+00	 2.222222e+00	 1.108277e+01
0	 2.962963e+00	 1.851852e+00	 1.119473e+01
0	 2.962963e+00	 1.925926e+00	 1.117250e+01
0	 2.962963e+00	 2.000000e+00	 1.114836e+01
0	 2.962963e+00	 2.074074e+00	 1.112226e+01
0	 2.962963e+00	 2.148148e+00	 1.109412e+01
0	 2.962963e+00	 2.222222e+00	 1.106385e+01
0	 2.592593e+00	 2.222222e+00	 1.113486e+01
0	 2.592593e+00	 2.296296e+00	 1.108208e+01
0	 2.592593e+00	 2.370370e+00	 1.103034e+01
0	 2.592593e+00	 2.444444e+00	 1.097941e+01
0	 2.592593e+00	 2.518519e+00	 1.092908e+01
0	 2.592593e+00	 2.592593e+00	 1.087914e+01
0	 2.666667e+00	 2.222222e+00	 1.112683e+01
0	 2.666667e+00	 2.296296e+00	 1.107832e+01
0	 2.666667e+00	 2.370370e+00	 1.103080e+01
0	 2.666667e+00	 2.444444e+00	 1.098392e+01
0	 2.666667e+00	 2.518519e+00	 1.093738e+01
0	 2.666667e+00	 2.592593e+00	 1.089083e+01
0	 2.740741e+00	 2.222222e+00	 1.111498e+01
0	 2.740741e+00	 2.296296e+00	 1.107089e+01
0	 2.740741e+00	 2.370370e+00	 1.102753e+01
0	 2.740741e+00	 2.444444e+00	 1.098452e+01
0	 2.740741e+00	 2.518519e+00	 1.094145e+01
0	 2.740741e+00	 2.592593e+00	 1.089793e+01
0	 2.814815e+00	 2.222222e+00	 1.110005e+01
0	 2.814815e+00	 2.296296e+00	 1.106037e+01
0	 2.814815e+00	 2.370370e+00	 1.102104e+01
0	 2.814815e+00	 2.444444e+00	 1.098164e+01
0	 2.814815e+00	 2.518519e+00	 1.094178e+01
0	 2.814815e+00	 2.592593e+00	 1.090104e+01
0	 2.888889e+00	 2.222222e+00	 1.108277e+01
0	 2.888889e+00	 2.296296e+00	 1.104732e+01
0	 2.888889e+00	 2.370370e+00	 1.101177e+01
0	 2.888889e+00	 2.444444e+00	 1.097574e+01
0	 2.888889e+00	 2.518519e+00	 1.093885e+01
0	 2.888889e+00	 2.592593e+00	 1.090072e+01
0	 2.962963e+00	 2.222222e+00	 1.106385e+01
0	 2.962963e+00	 2.296296e+00	 1.103233e+01
0	 2.962963e+00	 2.370370e+00	 1.100023e+01
0	 2.962963e+00	 2.444444e+00	 1.096727e+01
0	 2.962963e+00	 2.518519e+00	 1.093315e+01
0	 2.962963e+00	 2.592593e+00	 1.089757e+01
0	 2.592593e+00	 2.592593e+00	 1.087914e+01
0	 2.592593e+00	 2.666667e+00	 1.083018e+01
0	 2.592593e+00	 2.740741e+00	 1.078277e+01
0	 2.592593e+00	 2.814815e+00	 1.073663e+01
0	 2.592593e+00	 2.888889e+00	 1.069152e+01
0	 2.592593e+00	 2.962963e+00	 1.064715e+01
0	 2.666667e+00	 2.592593e+00	 1.089083e+01
0	 2.666667e+00	 2.666667e+00	 1.084478e+01
0	 2.666667e+00	 2.740741e+00	 1.079984e+01
0	 2.666667e+00	 2.814815e+00	 1.075582e+01
0	 2.666667e+00	 2.888889e+00	 1.071253e+01
0	 2.666667e+00	 2.962963e+00	 1.066978e+01
0	 2.740741e+00	 2.592593e+00	 1.089793e+01
0	 2.740741e+00	 2.666667e+00	 1.085454e+01
0	 2.740741e+00	 2.740741e+00	 1.081199e+01
0	 2.740741e+00	 2.814815e+00	 1.077015e+01
0	 2.740741e+00	 2.888889e+00	 1.072889e+01
0	 2.740741e+00	 2.962963e+00	 1.068807e+01
0	 2.814815e+00	 2.592593e+00	 1.090104e+01
0	 2.814815e+00	 2.666667e+00	 1.086012e+01
0	 2.814815e+00	 2.740741e+00	 1.081993e+01
0	 2.814815e+00	 2.814815e+00	 1.078035e+01
0	 2.814815e+00	 2.888889e+00	 1.074126e+01
0	 2.814815e+00	 2.962963e+00	 1.070257e+01
0	 2.888889e+00	 2.592593e+00	 1.090072e+01
0	 2.888889e+00	 2.666667e+00	 1.086223e+01
0	 2.888889e+00	 2.740741e+00	 1.082440e+01
0	 2.888889e+00	 2.814815e+00	 1.078713e+01
0	 2.888889e+00	 2.888889e+00	 1.075031e+01
0	 2.888889e+00	 2.962963e+00	 1.071382e+01
0	 2.962963e+00	 2.592593e+00	 1.089757e+01
0	 2.962963e+00	 2.666667e+00	 1.086153e+01
0	 2.962963e+00	 2.740741e+00	 1.082612e+01
0	 2.962963e+00	 2.814815e+00	 1.079122e+01
0	 2.962963e+00	 2.888889e+00	 1.075669e+01
0	 2.962963e+00	 2.962963e+00	 1.072238e+01
0	 2.592593e+00	 2.962963e+00	 1.064715e+01
0	 2.592593e+00	 3.037037e+00	 1.060413e+01
0	 2.592593e+00	 3.111111e+00	 1.056315e+01
0	 2.592593e+00	 3.185185e+00	 1.052415e+01
0	 2.592593e+00	 3.259259e+00	 1.048704e+01
0	 2.592593e+00	 3.333333e+00	 1.045177e+01
0	 2.666667e+00	 2.962963e+00	 1.066978e+01
0	 2.666667e+00	 3.037037e+00	 1.062826e+01
0	 2.666667e+00	 3.111111e+00	 1.058866e+01
0	 2.666667e+00	 3.185185e+00	 1.055089e+01
0	 2.666667e+00	 3.259259e+00	 1.051481e+01
0	 2.666667e+00	 3.333333e+00	 1.048031e+01
0	 2.740741e+00	 2.962963e+00	 1.068807e+01
0	 2.740741e+00	 3.037037e+00	 1.064835e+01
0	 2.740741e+00	 3.111111e+00	 1.061035e+01
0	 2.740741e+00	 3.185185e+00	 1.057393e+01
0	 2.740741e+00	 3.259259e+00	 1.053893e+01
0	 2.740741e+00	 3.333333e+00	 1.050522e+01
0	 2.814815e+00	 2.962963e+00	 1.070257e+01
0	 2.814815e+00	 3.037037e+00	 1.066482e+01
0	 2.814815e+00	 3.111111e+00	 1.062853e+01
0	 2.814815e+00	 3.185185e+00	 1.059354e+01
0	 2.814815e+00	 3.259259e+00	 1.055968e+01
0	 2.814815e+00	 3.333333e+00	 1.052679e+01
0	 2.888889e+00	 2.962963e+00	 1.071382e+01
0	 2.888889e+00	 3.037037e+00	 1.067811e+01
0	 2.888889e+00	 3.111111e+00	 1.064355e+01
0	 2.888889e+00	 3.185185e+00	 1.061001e+01
0	 2.888889e+00	 3.259259e+00	 1.057732e+01
0	 2.888889e+00	 3.333333e+00	 1.054532e+01
0	 2.962963e+00	 2.962963e+00	 1.072238e+01
0	 2.962963e+00	 3.037037e+00	 1.068862e+01
0	 2.962963e+00	 3.111111e+00	 1.065575e+01
0	 2.962963e+00	 3.185185e+00	 1.062363e+01
0	 2.962963e+00	 3.259259e+00	 1.059213e+01
0	 2.962963e+00	 3.333333e+00	 1.056111e+01
0	 2.592593e+00	 3.333333e+00	 1.045177e+01
0	 2.592593e+00	 3.407407e+00	 1.041822e+01
0	 2.592593e+00	 3.481481e+00	 1.038629e+01
0	 2.592593e+00	 3.555556e+00	 1.035594e+01
0	 2.592593e+00	 3.629630e+00	 1.032711e+01
0	 2.592593e+00	 3.703704e+00	 1.029973e+01
0	 2.666667e+00	 3.333333e+00	 1.048031e+01
0	 2.666667e+00	 3.407407e+00	 1.044730e+01
0	 2.666667e+00	 3.481481e+00	 1.041574e+01
0	 2.666667e+00	 3.555556e+00	 1.038560e+01
0	 2.666667e+00	 3.629630e+00	 1.035684e+01
0	 2.666667e+00	 3.703704e+00	 1.032943e+01
0	 2.740741e+00	 3.333333e+00	 1.050522e+01
0	 2.740741e+00	 3.407407e+00	 1.047278e+01
0	 2.740741e+00	 3.481481e+00	 1.044169e+01
0	 2.740741e+00	 3.555556e+00	 1.041192e+01
0	 2.740741e+00	 3.629630e+00	 1.038344e+01
0	 2.740741e+00	 3.703704e+00	 1.035624e+01
0	 2.814815e+00	 3.333333e+00	 1.052679e+01
0	 2.814815e+00	 3.407407e+00	 1.049499e+01
0	 2.814815e+00	 3.481481e+00	 1.046448e+01
0	 2.814815e+00	 3.555556e+00	 1.043522e+01
0	 2.814815e+00	 3.629630e+00	 1.040720e+01
0	 2.814815e+00	 3.703704e+00	 1.038038e+01
0	 2.888889e+00	 3.333333e+00	 1.054532e+01
0	 2.888889e+00	 3.407407e+00	 1.051426e+01
0	 2.888889e+00	 3.481481e+00	 1.048443e+01
0	 2.888889e+00	 3.555556e+00	 1.045582e+01
0	 2.888889e+00	 3.629630e+00	 1.042838e+01
0	 2.888889e+00	 3.703704e+00	 1.040208e+01
0	 2.962963e+00	 3.333333e+00	 1.056111e+01
0	 2.962963e+00	 3.407407e+00	 1.053090e+01
0	 2.962963e+00	 3.481481e+00	 1.050189e+01
0	 2.962963e+00	 3.555556e+00	 1.047403e+01
0	 2.962963e+00	 3.629630e+00	 1.044727e+01
0	 2.962963e+00	 3.703704e+00	 1.042155e+01
0	 2.592593e+00	 3.703704e+00	 1.029973e+01
0	 2.592593e+00	 3.777778e+00	 1.027382e+01
0	 2.592593e+00	 3.851852e+00	 1.024941e+01
0	 2.592593e+00	 3.925926e+00	 1.022650e+01
0	 2.592593e+00	 4.000000e+00	 1.020511e+01
0	 2.592593e+00	 4.074074e+00	 1.018522e+01
0	 2.666667e+00	 3.703704e+00	 1.032943e+01
0	 2.666667e+00	 3.777778e+00	 1.030342e+01
0	 2.666667e+00	 3.851852e+00	 1.027888e+01
0	 2.666667e+00	 3.925926e+00	 1.025580e+01
0	 2.666667e+00	 4.000000e+00	 1.023416e+01
0	 2.666667e+00	 4.074074e+00	 1.021393e+01
0	 2.740741e+00	 3.703704e+00	 1.035624e+01
0	 2.740741e+00	 3.777778e+00	 1.033037e+01
0	 2.740741e+00	 3.851852e+00	 1.030589e+01
0	 2.740741e+00	 3.925926e+00	 1.028277e+01
0	 2.740741e+00	 4.000000e+00	 1.026098e+01
0	 2.740741e+00	 4.074074e+00	 1.024049e+01
0	 2.814815e+00	 3.703704e+00	 1.038038e+01
0	 2.814815e+00	 3.777778e+00	 1.035482e+01
0	 2.814815e+00	 3.851852e+00	 1.033054e+01
0	 2.814815e+00	 3.925926e+00	 1.030750e+01
0	 2.814815e+00	 4.000000e+00	 1.028566e+01
0	 2.814815e+00	 4.074074e+00	 1.026497e+01
0	 2.888889e+00	 3.703704e+00	 1.040208e+01
0	 2.888889e+00	 3.777778e+00	 1.037694e+01
0	 2.888889e+00	 3.851852e+00	 1.035294e+01
0	 2.888889e+00	 3.925926e+00	 1.033006e+01
0	 2.888889e+00	 4.000000e+00	 1.030825e+01
0	 2.888889e+00	 4.074074e+00	 1.028747e+01
0	 2.962963e+00	 3.703704e+00	 1.042155e+01
0	 2.962963e+00	 3.777778e+00	 1.039686e+01
0	 2.962963e+00	 3.851852e+00	 1.037321e+01
0	 2.962963e+00	 3.925926e+00	 1.035054e+01
0	 2.962963e+00	 4.000000e+00	 1.032884e+01
0	 2.962963e+00	 4.074074e+00	 1.030806e+01
0	 2.592593e+00	 4.074074e+00	 1.018522e+01
0	 2.592593e+00	 4.148148e+00	 1.016663e+01
0	 2.592593e+00	 4.222222e+00	 1.014912e+01
0	 2.592593e+00	 4.296296e+00	 1.013270e+01
0	 2.592593e+00	 4.370370e+00	 1.011736e+01
0	 2.592593e+00	 4.444444e+00	 1.010312e+01
0	 2.666667e+00	 4.074074e+00	 1.021393e+01
0	 2.666667e+00	 4.148148e+00	 1.019492e+01
0	 2.666667e+00	 4.222222e+00	 1.017693e+01
0	 2.666667e+00	 4.296296e+00	 1.015999e+01
0	 2.666667e+00	 4.370370e+00	 1.014411e+01
0	 2.666667e+00	 4.444444e+00	 1.012928e+01
0	 2.740741e+00	 4.074074e+00	 1.024049e+01
0	 2.740741e+00	 4.148148e+00	 1.022112e+01
0	 2.740741e+00	 4.222222e+00	 1.020277e+01
0	 2.740741e+00	 4.296296e+00	 1.018543e+01
0	 2.740741e+00	 4.370370e+00	 1.016911e+01
0	 2.740741e+00	 4.444444e+00	 1.015385e+01
0	 2.814815e+00	 4.074074e+00	 1.026497e+01
0	 2.814815e+00	 4.148148e+00	 1.024535e+01
0	 2.814815e+00	 4.222222e+00	 1.022671e+01
0	 2.814815e+00	 4.296296e+00	 1.020908e+01
0	 2.814815e+00	 4.370370e+00	 1.019246e+01
0	 2.814815e+00	 4.444444e+00	 1.017687e+01
0	 2.888889e+00	 4.074074e+00	 1.028747e+01
0	 2.888889e+00	 4.148148e+00	 1.026768e+01
0	 2.888889e+00	 4.222222e+00	 1.024887e+01
0	 2.888889e+00	 4.296296e+00	 1.023105e+01
0	 2.888889e+00	 4.370370e+00	 1.021422e+01
0	 2.888889e+00	 4.444444e+00	 1.019839e+01
0	 2.962963e+00	 4.074074e+00	 1.030806e+01
0	 2.962963e+00	 4.148148e+00	 1.028821e+01
0	 2.962963e+00	 4.222222e+00	 1.026933e+01
0	 2.962963e+00	 4.296296e+00	 1.025141e+01
0	 2.962963e+00	 4.370370e+00	 1.023446e+01
0	 2.962963e+00	 4.444444e+00	 1.021846e+01
0	 2.592593e+00	 4.444444e+00	 1.010312e+01
0	 2.592593e+00	 4.518519e+00	 1.008986e+01
0	 2.592593e+00	 4.592593e+00	 1.007748e+01
0	 2.592593e+00	 4.666667e+00	 1.006600e+01
0	 2.592593e+00	 4.740741e+00	 1.005543e+01
0	 2.592593e+00	 4.814815e+00	 1.004579e+01
0	 2.666667e+00	 4.444444e+00	 1.012928e+01
0	 2.666667e+00	 4.518519e+00	 1.011543e+01
0	 2.666667e+00	 4.592593e+00	 1.010246e+01
0	 2.666667e+00	 4.666667e+00	 1.009039e+01
0	 2.666667e+00	 4.740741e+00	 1.007922e+01
0	 2.666667e+00	 4.814815e+00	 1.006897e+01
0	 2.740741e+00	 4.444444e+00	 1.015385e+01
0	 2.740741e+00	 4.518519e+00	 1.013953e+01
0	 2.740741e+00	 4.592593e+00	 1.012609e+01
0	 2.740741e+00	 4.666667e+00	 1.011353e+01
0	 2.740741e+00	 4.740741e+00	 1.010183e+01
0	 2.740741e+00	 4.814815e+00	 1.009102e+01
0	 2.814815e+00	 4.444444e+00	 1.017687e+01
0	 2.814815e+00	 4.518519e+00	 1.016220e+01
0	 2.814815e+00	 4.592593e+00	 1.014838e+01
0	 2.814815e+00	 4.666667e+00	 1.013539e+01
0	 2.814815e+00	 4.740741e+00	 1.012324e+01
0	 2.814815e+00	 4.814815e+00	 1.011193e+01
0	 2.888889e+00	 4.444444e+00	 1.019839e+01
0	 2.888889e+00	 4.518519e+00	 1.018346e+01
0	 2.888889e+00	 4.592593e+00	 1.016932e+01
0	 2.888889e+00	 4.666667e+00	 1.015598e+01
0	 2.888889e+00	 4.740741e+00	 1.014344e+01
0	 2.888889e+00	 4.814815e+00	 1.013169e+01
0	 2.962963e+00	 4.444444e+00	 1.021846e+01
0	 2.962963e+00	 4.518519e+00	 1.020332e+01
0	 2.962963e+00	 4.592593e+00	 1.018893e+01
0	 2.962963e+00	 4.666667e+00	 1.017530e+01
0	 2.962963e+00	 4.740741e+00	 1.016242e+01
0	 2.962963e+00	 4.814815e+00	 1.015030e+01
0	 2.592593e+00	 4.814815e+00	 1.004579e+01
0	 2.592593e+00	 4.888889e+00	 1.003693e+01
0	 2.592593e+00	 4.962963e+00	 1.002869e+01
0	 2.592593e+00	 5.037037e+00	 1.002107e+01
0	 2.592593e+00	 5.111111e+00	 1.001409e+01
0	 2.592593e+00	 5.185185e+00	 1.000777e+01
0	 2.666667e+00	 4.814815e+00	 1.006897e+01
0	 2.666667e+00	 4.888889e+00	 1.005948e+01
0	 2.666667e+00	 4.962963e+00	 1.005059e+01
0	 2.666667e+00	 5.037037e+00	 1.004234e+01
0	 2.666667e+00	 5.111111e+00	 1.003472e+01
0	 2.666667e+00	 5.185185e+00	 1.002776e+01
0	 2.740741e+00	 4.814815e+00	 1.009102e+01
0	 2.740741e+00	 4.888889e+00	 1.008095e+01
0	 2.740741e+00	 4.962963e+00	 1.007149e+01
0	 2.740741e+00	 5.037037e+00	 1.006266e+01
0	 2.740741e+00	 5.111111e+00	 1.005447e+01
0	 2.740741e+00	 5.185185e+00	 1.004695e+01
0	 2.814815e+00	 4.814815e+00	 1.011193e+01
0	 2.814815e+00	 4.888889e+00	 1.010133e+01
0	 2.814815e+00	 4.962963e+00	 1.009136e+01
0	 2.814815e+00	 5.037037e+00	 1.008202e+01
0	 2.814815e+00	 5.111111e+00	 1.007334e+01
0	 2.814815e+00	 5.185185e+00	 1.006532e+01
0	 2.888889e+00	 4.814815e+00	 1.013169e+01
0	 2.888889e+00	 4.888889e+00	 1.012064e+01
0	 2.888889e+00	 4.962963e+00	 1.011022e+01
0	 2.888889e+00	 5.037037e+00	 1.010044e+01
0	 2.888889e+00	 5.111111e+00	 1.009131e+01
0	 2.888889e+00	 5.185185e+00	 1.008284e+01
0	 2.962963e+00	 4.814815e+00	 1.015030e+01
0	 2.962963e+00	 4.888889e+00	 1.013887e+01
0	 2.962963e+00	 4.962963e+00	 1.012806e+01
0	 2.962963e+00	 5.037037e+00	 1.011790e+01
0	 2.962963e+00	 5.111111e+00	 1.010838e+01
0	 2.962963e+00	 5.185185e+00	 1.009952e+01
0	 2.592593e+00	 5.185185e+00	 1.000777e+01
0	 2.592593e+00	 5.259259e+00	 1.000201e+01
0	 2.592593e+00	 5.333333e+00	 9.996711e+00
0	 2.592593e+00	 5.407407e+00	 9.991898e+00
0	 2.592593e+00	 5.481481e+00	 9.987584e+00
0	 2.592593e+00	 5.555556e+00	 9.983784e+00
0	 2.666667e+00	 5.185185e+00	 1.002776e+01
0	 2.666667e+00	 5.259259e+00	 1.002138e+01
0	 2.666667e+00	 5.333333e+00	 1.001548e+01
0	 2.666667e+00	 5.407407e+00	 1.001007e+01
0	 2.666667e+00	 5.481481e+00	 1.000517e+01
0	 2.666667e+00	 5.555556e+00	 1.000078e+01
0	 2.740741e+00	 5.185185e+00	 1.004695e+01
0	 2.740741e+00	 5.259259e+00	 1.004001e+01
0	 2.740741e+00	 5.333333e+00	 1.003355e+01
0	 2.740741e+00	 5.407407e+00	 1.002760e+01
0	 2.740741e+00	 5.481481e+00	 1.002215e+01
0	 2.740741e+00	 5.555556e+00	 1.001721e+01
0	 2.814815e+00	 5.185185e+00	 1.006532e+01
0	 2.814815e+00	 5.259259e+00	 1.005787e+01
0	 2.814815e+00	 5.333333e+00	 1.005092e+01
0	 2.814815e+00	 5.407407e+00	 1.004446e+01
0	 2.814815e+00	 5.481481e+00	 1.003850e+01
0	 2.814815e+00	 5.555556e+00	 1.003305e+01
0	 2.888889e+00	 5.185185e+00	 1.008284e+01
0	 2.888889e+00	 5.259259e+00	 1.007495e+01
0	 2.888889e+00	 5.333333e+00	 1.006754e+01
0	 2.888889e+00	 5.407407e+00	 1.006062e+01
0	 2.888889e+00	 5.481481e+00	 1.005419e+01
0	 2.888889e+00	 5.555556e+00	 1.004827e+01
0	 2.962963e+00	 5.185185e+00	 1.009952e+01
0	 2.962963e+00	 5.259259e+00	 1.009122e+01
0	 2.962963e+00	 5.333333e+00	 1.008340e+01
0	 2.962963e+00	 5.407407e+00	 1.007605e+01
0	 2.962963e+00	 5.481481e+00	 1.006920e+01
0	 2.962963e+00	 5.555556e+00	 1.006284e+01
0	 2.592593e+00	 5.555556e+00	 9.983784e+00
0	 2.592593e+00	 5.629630e+00	 9.980402e+00
0	 2.592593e+00	 5.703704e+00	 9.977340e+00
0	 2.592593e+00	 5.777778e+00	 9.974610e+00
0	 2.592593e+00	 5.851852e+00	 9.972223e+00
0	 2.592593e+00	 5.925926e+00	 9.970192e+00
0	 2.666667e+00	 5.555556e+00	 1.000078e+01
0	 2.666667e+00	 5.629630e+00	 9.996821e+00
0	 2.666667e+00	 5.703704e+00	 9.993190e+00
0	 2.666667e+00	 5.777778e+00	 9.989902e+00
0	 2.666667e+00	 5.851852e+00	 9.986967e+00
0	 2.666667e+00	 5.925926e+00	 9.984400e+00
0	 2.740741e+00	 5.555556e+00	 1.001721e+01
0	 2.740741e+00	 5.629630e+00	 1.001271e+01
0	 2.740741e+00	 5.703704e+00	 1.000854e+01
0	 2.740741e+00	 5.777778e+00	 1.000473e+01
0	 2.740741e+00	 5.851852e+00	 1.000128e+01
0	 2.740741e+00	 5.925926e+00	 9.998212e+00
0	 2.814815e+00	 5.555556e+00	 1.003305e+01
0	 2.814815e+00	 5.629630e+00	 1.002804e+01
0	 2.814815e+00	 5.703704e+00	 1.002337e+01
0	 2.814815e+00	 5.777778e+00	 1.001907e+01
0	 2.814815e+00	 5.851852e+00	 1.001514e+01
0	 2.814815e+00	 5.925926e+00	 1.001160e+01
0	 2.888889e+00	 5.555556e+00	 1.004827e+01
0	 2.888889e+00	 5.629630e+00	 1.004278e+01
0	 2.888889e+00	 5.703704e+00	 1.003765e+01
0	 2.888889e+00	 5.777778e+00	 1.003290e+01
0	 2.888889e+00	 5.851852e+00	 1.002852e+01
0	 2.888889e+00	 5.925926e+00	 1.002455e+01
0	 2.962963e+00	 5.555556e+00	 1.006284e+01
0	 2.962963e+00	 5.629630e+00	 1.005692e+01
0	 2.962963e+00	 5.703704e+00	 1.005136e+01
0	 2.962963e+00	 5.777778e+00	 1.004619e+01
0	 2.962963e+00	 5.851852e+00	 1.004140e+01
0	 2.962963e+00	 5.925926e+00	 1.003702e+01
0	 2.592593e+00	 5.925926e+00	 9.970192e+00
0	 2.592593e+00	 6.000000e+00	 9.968453e+00
0	 2.592593e+00	 6.074074e+00	 9.966945e+00
0	 2.592593e+00	 6.148148e+00	 9.965679e+00
0	 2.592593e+00	 6.222222e+00	 9.964664e+00
0	 2.592593e+00	 6.296296e+00	 9.963911e+00
0	 2.666667e+00	 5.925926e+00	 9.984400e+00
0	 2.666667e+00	 6.000000e+00	 9.982139e+00
0	 2.666667e+00	 6.074074e+00	 9.980123e+00
0	 2.666667e+00	 6.148148e+00	 9.978361e+00
0	 2.666667e+00	 6.222222e+00	 9.976863e+00
0	 2.666667e+00	 6.296296e+00	 9.975637e+00
0	 2.740741e+00	 5.925926e+00	 9.998212e+00
0	 2.740741e+00	 6.000000e+00	 9.995461e+00
0	 2.740741e+00	 6.074074e+00	 9.992965e+00
0	 2.740741e+00	 6.148148e+00	 9.990732e+00
0	 2.740741e+00	 6.222222e+00	 9.988771e+00
0	 2.740741e+00	 6.296296e+00	 9.987090e+00
0	 2.814815e+00	 5.925926e+00	 1.001160e+01
0	 2.814815e+00	 6.000000e+00	 1.000839e+01
0	 2.814815e+00	 6.074074e+00	 1.000544e+01
0	 2.814815e+00	 6.148148e+00	 1.000276e+01
0	 2.814815e+00	 6.222222e+00	 1.000036e+01
0	 2.814815e+00	 6.296296e+00	 9.998245e+00
0	 2.888889e+00	 5.925926e+00	 1.002455e+01
0	 2.888889e+00	 6.000000e+00	 1.002090e+01
0	 2.888889e+00	 6.074074e+00	 1.001752e+01
0	 2.888889e+00	 6.148148e+00	 1.001442e+01
0	 2.888889e+00	 6.222222e+00	 1.001160e+01
0	 2.888889e+00	 6.296296e+00	 1.000907e+01
0	 2.962963e+00	 5.925926e+00	 1.003702e+01
0	 2.962963e+00	 6.000000e+00	 1.003296e+01
0	 2.962963e+00	 6.074074e+00	 1.002918e+01
0	 2.962963e+00	 6.148148e+00	 1.002568e+01
0	 2.962963e+00	 6.222222e+00	 1.002247e+01
0	 2.962963e+00	 6.296296e+00	 1.001955e+01
0	 2.592593e+00	 6.296296e+00	 9.963911e+00
0	 2.592593e+00	 6.370370e+00	 9.963366e+00
0	 2.592593e+00	 6.444444e+00	 9.962973e+00
0	 2.592593e+00	 6.518519e+00	 9.962739e+00
0	 2.592593e+00	 6.592593e+00	 9.962673e+00
0	 2.592593e+00	 6.666667e+00	 9.962783e+00
0	 2.666667e+00	 6.296296e+00	 9.975637e+00
0	 2.666667e+00	 6.370370e+00	 9.974628e+00
0	 2.666667e+00	 6.444444e+00	 9.973782e+00
0	 2.666667e+00	 6.518519e+00	 9.973107e+00
0	 2.666667e+00	 6.592593e+00	 9.972611e+00
0	 2.666667e+00	 6.666667e+00	 9.972303e+00
0	 2.740741e+00	 6.296296e+00	 9.987090e+00
0	 2.740741e+00	 6.370370e+00	 9.985636e+00
0	 2.740741e+00	 6.444444e+00	 9.984355e+00
0	 2.740741e+00	 6.518519e+00	 9.983256e+00
0	 2.740741e+00	 6.592593e+00	 9.982347e+00
0	 2.740741e+00	 6.666667e+00	 9.981636e+00
0	 2.814815e+00	 6.296296e+00	 9.998245e+00
0	 2.814815e+00	 6.370370e+00	 9.996364e+00
0	 2.814815e+00	 6.444444e+00	 9.994666e+00
0	 2.814815e+00	 6.518519e+00	 9.993161e+00
0	 2.814815e+00	 6.592593e+00	 9.991855e+00
0	 2.814815e+00	 6.666667e+00	 9.990758e+00
0	 2.888889e+00	 6.296296e+00	 1.000907e+01
0	 2.888889e+00	 6.370370e+00	 1.000679e+01
0	 2.888889e+00	 6.444444e+00	 1.000469e+01
0	 2.888889e+00	 6.518519e+00	 1.000280e+01
0	 2.888889e+00	 6.592593e+00	 1.000111e+01
0	 2.888889e+00	 6.666667e+00	 9.999648e+00
0	 2.962963e+00	 6.296296e+00	 1.001955e+01
0	 2.962963e+00	 6.370370e+00	 1.001688e+01
0	 2.962963e+00	 6.444444e+00	 1.001441e+01
0	 2.962963e+00	 6.518519e+00	 1.001215e+01
0	 2.962963e+00	 6.592593e+00	 1.001010e+01
0	 2.962963e+00	 6.666667e+00	 1.000828e+01
0	 2.592593e+00	 6.666667e+00	 9.962783e+00
0	 2.592593e+00	 6.740741e+00	 9.963031e+00
0	 2.592593e+00	 6.814815e+00	 9.963378e+00
0	 2.592593e+00	 6.888889e+00	 9.963830e+00
0	 2.592593e+00	 6.962963e+00	 9.964396e+00
0	 2.592593e+00	 7.037037e+00	 9.965081e+00
0	 2.666667e+00	 6.666667e+00	 9.972303e+00
0	 2.666667e+00	 6.740741e+00	 9.972144e+00
0	 2.666667e+00	 6.814815e+00	 9.972095e+00
0	 2.666667e+00	 6.888889e+00	 9.972163e+00
0	 2.666667e+00	 6.962963e+00	 9.972354e+00
0	 2.666667e+00	 7.037037e+00	 9.972674e+00
0	 2.740741e+00	 6.666667e+00	 9.981636e+00
0	 2.740741e+00	 6.740741e+00	 9.981085e+00
0	 2.740741e+00	 6.814815e+00	 9.980654e+00
0	 2.740741e+00	 6.888889e+00	 9.980348e+00
0	 2.740741e+00	 6.962963e+00	 9.980175e+00
0	 2.740741e+00	 7.037037e+00	 9.980141e+00
0	 2.814815e+00	 6.666667e+00	 9.990758e+00
0	 2.814815e+00	 6.740741e+00	 9.989831e+00
0	 2.814815e+00	 6.814815e+00	 9.989031e+00
0	 2.814815e+00	 6.888889e+00	 9.988365e+00
0	 2.814815e+00	 6.962963e+00	 9.987840e+00
0	 2.814815e+00	 7.037037e+00	 9.987461e+00
0	 2.888889e+00	 6.666667e+00	 9.999648e+00
0	 2.888889e+00	 6.740741e+00	 9.998358e+00
0	 2.888889e+00	 6.814815e+00	 9.997204e+00
0	 2.888889e+00	 6.888889e+00	 9.996191e+00
0	 2.888889e+00	 6.962963e+00	 9.995325e+00
0	 2.888889e+00	 7.037037e+00	 9.994613e+00
0	 2.962963e+00	 6.666667e+00	 1.000828e+01
0	 2.962963e+00	 6.740741e+00	 1.000664e+01
0	 2.962963e+00	 6.814815e+00	 1.000515e+01
0	 2.962963e+00	 6.888889e+00	 1.000380e+01
0	 2.962963e+00	 6.962963e+00	 1.000261e+01
0	 2.962963e+00	 7.037037e+00	 1.000158e+01
0	 2.592593e+00	 7.037037e+00	 9.965081e+00
0	 2.592593e+00	 7.111111e+00	 9.965855e+00
0	 2.592593e+00	 7.185185e+00	 9.966683e+00
0	 2.592593e+00	 7.259259e+00	 9.967572e+00
0	 2.592593e+00	 7.333333e+00	 9.968527e+00
0	 2.592593e+00	 7.407407e+00	 9.969555e+00
0	 2.666667e+00	 7.037037e+00	 9.972674e+00
0	 2.666667e+00	 7.111111e+00	 9.973092e+00
0	 2.666667e+00	 7.185185e+00	 9.973574e+00
0	 2.666667e+00	 7.259259e+00	 9.974127e+00
0	 2.666667e+00	 7.333333e+00	 9.974755e+00
0	 2.666667e+00	 7.407407e+00	 9.975464e+00
0	 2.740741e+00	 7.037037e+00	 9.980141e+00
0	 2.740741e+00	 7.111111e+00	 9.980212e+00
0	 2.740741e+00	 7.185185e+00	 9.980357e+00
0	 2.740741e+00	 7.259259e+00	 9.980581e+00
0	 2.740741e+00	 7.333333e+00	 9.980890e+00
0	 2.740741e+00	 7.407407e+00	 9.981289e+00
0	 2.814815e+00	 7.037037e+00	 9.987461e+00
0	 2.814815e+00	 7.111111e+00	 9.987196e+00
0	 2.814815e+00	 7.185185e+00	 9.987013e+00
0	 2.814815e+00	 7.259259e+00	 9.986918e+00
0	 2.814815e+00	 7.333333e+00	 9.986916e+00
0	 2.814815e+00	 7.407407e+00	 9.987013e+00
0	 2.888889e+00	 7.037037e+00	 9.994613e+00
0	 2.888889e+00	 7.111111e+00	 9.994022e+00
0	 2.888889e+00	 7.185185e+00	 9.993522e+00
0	 2.888889e+00	 7.259259e+00	 9.993118e+00
0	 2.888889e+00	 7.333333e+00	 9.992815e+00
0	 2.888889e+00	 7.407407e+00	 9.992619e+00
0	 2.962963e+00	 7.037037e+00	 1.000158e+01
0	 2.962963e+00	 7.111111e+00	 1.000067e+01
0	 2.962963e+00	 7.185185e+00	 9.999867e+00
0	 2.962963e+00	 7.259259e+00	 9.999165e+00
0	 2.962963e+00	 7.333333e+00	 9.998571e+00
0	 2.962963e+00	 7.407407e+00	 9.998090e+00
0	 2.592593e+00	 7.407407e+00	 9.969555e+00
0	 2.592593e+00	 7.481481e+00	 9.970630e+00
0	 2.592593e+00	 7.555556e+00	 9.971728e+00
0	 2.592593e+00	 7.629630e+00	 9.972855e+00
0	 2.592593e+00	 7.703704e+00	 9.974014e+00
0	 2.592593e+00	 7.777778e+00	 9.975212e+00
0	 2.666667e+00	 7.407407e+00	 9.975464e+00
0	 2.666667e+00	 7.481481e+00	 9.976231e+00
0	 2.666667e+00	 7.555556e+00	 9.977029e+00
0	 2.666667e+00	 7.629630e+00	 9.977865e+00
0	 2.666667e+00	 7.703704e+00	 9.978741e+00
0	 2.666667e+00	 7.777778e+00	 9.979664e+00
0	 2.740741e+00	 7.407407e+00	 9.981289e+00
0	 2.740741e+00	 7.481481e+00	 9.981754e+00
0	 2.740741e+00	 7.555556e+00	 9.982259e+00
0	 2.740741e+00	 7.629630e+00	 9.982809e+00
0	 2.740741e+00	 7.703704e+00	 9.983408e+00
0	 2.740741e+00	 7.777778e+00	 9.984061e+00
0	 2.814815e+00	 7.407407e+00	 9.987013e+00
0	 2.814815e+00	 7.481481e+00	 9.987184e+00
0	 2.814815e+00	 7.555556e+00	 9.987403e+00
0	 2.814815e+00	 7.629630e+00	 9.987673e+00
0	 2.814815e+00	 7.703704e+00	 9.988001e+00
0	 2.814815e+00	 7.777778e+00	 9.988389e+00
0	 2.888889e+00	 7.407407e+00	 9.992619e+00
0	 2.888889e+00	 7.481481e+00	 9.992503e+00
0	 2.888889e+00	 7.555556e+00	 9.992443e+00
0	 2.888889e+00	 7.629630e+00	 9.992442e+00
0	 2.888889e+00	 7.703704e+00	 9.992505e+00
0	 2.888889e+00	 7.777778e+00	 9.992635e+00
0	 2.962963e+00	 7.407407e+00	 9.998090e+00
0	 2.962963e+00	 7.481481e+00	 9.997697e+00
0	 2.962963e+00	 7.555556e+00	 9.997366e+00
0	 2.962963e+00	 7.629630e+00	 9.997100e+00
0	 2.962963e+00	 7.703704e+00	 9.996905e+00
0	 2.962963e+00	 7.777778e+00	 9.996785e+00
0	 2.592593e+00	 7.777778e+00	 9.975212e+00
0	 2.592593e+00	 7.851852e+00	 9.976426e+00
0	 2.592593e+00	 7.925926e+00	 9.977638e+00
0	 2.592593e+00	 8.000000e+00	 9.978850e+00
0	 2.592593e+00	 8.074074e+00	 9.980067e+00
0	 2.592593e+00	 8.148148e+00	 9.981294e+00
0	 2.666667e+00	 7.777778e+00	 9.979664e+00
0	 2.666667e+00	 7.851852e+00	 9.980612e+00
0	 2.666667e+00	 7.925926e+00	 9.981565e+00
0	 2.666667e+00	 8.000000e+00	 9.982526e+00
0	 2.666667e+00	 8.074074e+00	 9.983501e+00
0	 2.666667e+00	 8.148148e+00	 9.984492e+00
0	 2.740741e+00	 7.777778e+00	 9.984061e+00
0	 2.740741e+00	 7.851852e+00	 9.984747e+00
0	 2.740741e+00	 7.925926e+00	 9.985445e+00
0	 2.740741e+00	 8.000000e+00	 9.986160e+00
0	 2.740741e+00	 8.074074e+00	 9.986896e+00
0	 2.740741e+00	 8.148148e+00	 9.987655e+00
0	 2.814815e+00	 7.777778e+00	 9.988389e+00
0	 2.814815e+00	 7.851852e+00	 9.988818e+00
0	 2.814815e+00	 7.925926e+00	 9.989268e+00
0	 2.814815e+00	 8.000000e+00	 9.989741e+00
0	 2.814815e+00	 8.074074e+00	 9.990241e+00
0	 2.814815e+00	 8.148148e+00	 9.990773e+00
0	 2.888889e+00	 7.777778e+00	 9.992635e+00
0	 2.888889e+00	 7.851852e+00	 9.992813e+00
0	 2.888889e+00	 7.925926e+00	 9.993019e+00
0	 2.888889e+00	 8.000000e+00	 9.993255e+00
0	 2.888889e+00	 8.074074e+00	 9.993526e+00
0	 2.888889e+00	 8.148148e+00	 9.993835e+00
0	 2.962963e+00	 7.777778e+00	 9.996785e+00
0	 2.962963e+00	 7.851852e+00	 9.996718e+00
0	 2.962963e+00	 7.925926e+00	 9.996686e+00
0	 2.962963e+00	 8.000000e+00	 9.996692e+00
0	 2.962963e+00	 8.074074e+00	 9.996739e+00
0	 2.962963e+00	 8.148148e+00	 9.996831e+00
0	 2.592593e+00	 8.148148e+00	 9.981294e+00
0	 2.592593e+00	 8.222222e+00	 9.982513e+00
0	 2.592593e+00	 8.296296e+00	 9.983708e+00
0	 2.592593e+00	 8.370370e+00	 9.984883e+00
0	 2.592593e+00	 8.444444e+00	 9.986040e+00
0	 2.592593e+00	 8.518519e+00	 9.987185e+00
0	 2.666667e+00	 8.148148e+00	 9.984492e+00
0	 2.666667e+00	 8.222222e+00	 9.985484e+00
0	 2.666667e+00	 8.296296e+00	 9.986459e+00
0	 2.666667e+00	 8.370370e+00	 9.987421e+00
0	 2.666667e+00	 8.444444e+00	 9.988374e+00
0	 2.666667e+00	 8.518519e+00	 9.989321e+00
0	 2.740741e+00	 8.148148e+00	 9.987655e+00
0	 2.740741e+00	 8.222222e+00	 9.988423e+00
0	 2.740741e+00	 8.296296e+00	 9.989182e+00
0	 2.740741e+00	 8.370370e+00	 9.989935e+00
0	 2.740741e+00	 8.444444e+00	 9.990686e+00
0	 2.740741e+00	 8.518519e+00	 9.991438e+00
0	 2.814815e+00	 8.148148e+00	 9.990773e+00
0	 2.814815e+00	 8.222222e+00	 9.991321e+00
0	 2.814815e+00	 8.296296e+00	 9.991867e+00
0	 2.814815e+00	 8.370370e+00	 9.992414e+00
0	 2.814815e+00	 8.444444e+00	 9.992967e+00
0	 2.814815e+00	 8.518519e+00	 9.993527e+00
0	 2.888889e+00	 8.148148e+00	 9.993835e+00
0	 2.888889e+00	 8.222222e+00	 9.994167e+00
0	 2.888889e+00	 8.296296e+00	 9.994504e+00
0	 2.888889e+00	 8.370370e+00	 9.994850e+00
0	 2.888889e+00	 8.444444e+00	 9.995207e+00
0	 2.888889e+00	 8.518519e+00	 9.995579e+00
0	 2.962963e+00	 8.148148e+00	 9.996831e+00
0	 2.962963e+00	 8.222222e+00	 9.996951e+00
0	 2.962963e+00	 8.296296e+00	 9.997084e+00
0	 2.962963e+00	 8.370370e+00	 9.997233e+00
0	 2.962963e+00	 8.444444e+00	 9.997399e+00
0	 2.962963e+00	 8.518519e+00	 9.997586e+00
0	 2.592593e+00	 8.518519e+00	 9.987185e+00
0	 2.592593e+00	 8.592593e+00	 9.988302e+00
0	 2.592593e+00	 8.666667e+00	 9.989377e+00
0	 2.592593e+00	 8.740741e+00	 9.990413e+00
0	 2.592593e+00	 8.814815e+00	 9.991413e+00
0	 2.592593e+00	 8.888889e+00	 9.992381e+00
0	 2.666667e+00	 8.518519e+00	 9.989321e+00
0	 2.666667e+00	 8.592593e+00	 9.990248e+00
0	 2.666667e+00	 8.666667e+00	 9.991141e+00
0	 2.666667e+00	 8.740741e+00	 9.992003e+00
0	 2.666667e+00	 8.814815e+00	 9.992837e+00
0	 2.666667e+00	 8.888889e+00	 9.993646e+00
0	 2.740741e+00	 8.518519e+00	 9.991438e+00
0	 2.740741e+00	 8.592593e+00	 9.992178e+00
0	 2.740741e+00	 8.666667e+00	 9.992891e+00
0	 2.740741e+00	 8.740741e+00	 9.993582e+00
0	 2.740741e+00	 8.814815e+00	 9.994251e+00
0	 2.740741e+00	 8.888889e+00	 9.994903e+00
0	 2.814815e+00	 8.518519e+00	 9.993527e+00
0	 2.814815e+00	 8.592593e+00	 9.994082e+00
0	 2.814815e+00	 8.666667e+00	 9.994619e+00
0	 2.814815e+00	 8.740741e+00	 9.995140e+00
0	 2.814815e+00	 8.814815e+00	 9.995648e+00
0	 2.814815e+00	 8.888889e+00	 9.996145e+00
0	 2.888889e+00	 8.518519e+00	 9.995579e+00
0	 2.888889e+00	 8.592593e+00	 9.995953e+00
0	 2.888889e+00	 8.666667e+00	 9.996316e+00
0	 2.888889e+00	 8.740741e+00	 9.996671e+00
0	 2.888889e+00	 8.814815e+00	 9.997020e+00
0	 2.888889e+00	 8.888889e+00	 9.997364e+00
0	 2.962963e+00	 8.518519e+00	 9.997586e+00
0	 2.962963e+00	 8.592593e+00	 9.997782e+00
0	 2.962963e+00	 8.666667e+00	 9.997975e+00
0	 2.962963e+00	 8.740741e+00	 9.998167e+00
0	 2.962963e+00	 8.814815e+00	 9.998360e+00
0	 2.962963e+00	 8.888889e+00	 9.998555e+00
0	 2.592593e+00	 8.888889e+00	 9.992381e+00
0	 2.592593e+00	 8.962963e+00	 9.993305e+00
0	 2.592593e+00	 9.037037e+00	 9.994173e+00
0	 2.592593e+00	 9.111111e+00	 9.994986e+00
0	 2.592593e+00	 9.185185e+00	 9.995749e+00
0	 2.592593e+00	 9.259259e+00	 9.996464e+00
0	 2.666667e+00	 8.888889e+00	 9.993646e+00
0	 2.666667e+00	 8.962963e+00	 9.994419e+00
0	 2.666667e+00	 9.037037e+00	 9.995145e+00
0	 2.666667e+00	 9.111111e+00	 9.995825e+00
0	 2.666667e+00	 9.185185e+00	 9.996462e+00
0	 2.666667e+00	 9.259259e+00	 9.997059e+00
0	 2.740741e+00	 8.888889e+00	 9.994903e+00
0	 2.740741e+00	 8.962963e+00	 9.995527e+00
0	 2.740741e+00	 9.037037e+00	 9.996112e+00
0	 2.740741e+00	 9.111111e+00	 9.996661e+00
0	 2.740741e+00	 9.185185e+00	 9.997174e+00
0	 2.740741e+00	 9.259259e+00	 9.997655e+00
0	 2.814815e+00	 8.888889e+00	 9.996145e+00
0	 2.814815e+00	 8.962963e+00	 9.996622e+00
0	 2.814815e+00	 9.037037e+00	 9.997068e+00
0	 2.814815e+00	 9.111111e+00	 9.997487e+00
0	 2.814815e+00	 9.185185e+00	 9.997879e+00
0	 2.814815e+00	 9.259259e+00	 9.998245e+00
0	 2.888889e+00	 8.888889e+00	 9.997364e+00
0	 2.888889e+00	 8.962963e+00	 9.997696e+00
0	 2.888889e+00	 9.037037e+00	 9.998007e+00
0	 2.888889e+00	 9.111111e+00	 9.998298e+00
0	 2.888889e+00	 9.185185e+00	 9.998569e+00
0	 2.888889e+00	 9.259259e+00	 9.998823e+00
0	 2.962963e+00	 8.888889e+00	 9.998555e+00
0	 2.962963e+00	 8.962963e+00	 9.998745e+00
0	 2.962963e+00	 9.037037e+00	 9.998922e+00
0	 2.962963e+00	 9.111111e+00	 9.999087e+00
0	 2.962963e+00	 9.185185e+00	 9.999241e+00
0	 2.962963e+00	 9.259259e+00	 9.999384e+00
0	 2.592593e+00	 9.259259e+00	 9.996464e+00
0	 2.592593e+00	 9.333333e+00	 9.997120e+00
0	 2.592593e+00	 9.407407e+00	 9.997709e+00
0	 2.592593e+00	 9.481481e+00	 9.998231e+00
0	 2.592593e+00	 9.555556e+00	 9.998690e+00
0	 2.592593e+00	 9.629630e+00	 9.999087e+00
0	 2.666667e+00	 9.259259e+00	 9.997059e+00
0	 2.666667e+00	 9.333333e+00	 9.997607e+00
0	 2.666667e+00	 9.407407e+00	 9.998098e+00
0	 2.666667e+00	 9.481481e+00	 9.998533e+00
0	 2.666667e+00	 9.555556e+00	 9.998914e+00
0	 2.666667e+00	 9.629630e+00	 9.999242e+00
0	 2.740741e+00	 9.259259e+00	 9.997655e+00
0	 2.740741e+00	 9.333333e+00	 9.998096e+00
0	 2.740741e+00	 9.407407e+00	 9.998491e+00
0	 2.740741e+00	 9.481481e+00	 9.998840e+00
0	 2.740741e+00	 9.555556e+00	 9.999144e+00
0	 2.740741e+00	 9.629630e+00	 9.999404e+00
0	 2.814815e+00	 9.259259e+00	 9.998245e+00
0	 2.814815e+00	 9.333333e+00	 9.998581e+00
0	 2.814815e+00	 9.407407e+00	 9.998881e+00
0	 2.814815e+00	 9.481481e+00	 9.999145e+00
0	 2.814815e+00	 9.555556e+00	 9.999373e+00
0	 2.814815e+00	 9.629630e+00	 9.999567e+00
0	 2.888889e+00	 9.259259e+00	 9.998823e+00
0	 2.888889e+00	 9.333333e+00	 9.999056e+00
0	 2.888889e+00	 9.407407e+00	 9.999262e+00
0	 2.888889e+00	 9.481481e+00	 9.999442e+00
0	 2.888889e+00	 9.555556e+00	 9.999597e+00
0	 2.888889e+00	 9.629630e+00	 9.999725e+00
0	 2.962963e+00	 9.259259e+00	 9.999384e+00
0	 2.962963e+00	 9.333333e+00	 9.999514e+00
0	 2.962963e+00	 9.407407e+00	 9.999629e+00
0	 2.962963e+00	 9.481481e+00	 9.999727e+00
0	 2.962963e+00	 9.555556e+00	 9.999808e+00
0	 2.962963e+00	 9.629630e+00	 9.999871e+00
0	 2.592593e+00	 9.629630e+00	 9.999087e+00
0	 2.592593e+00	 9.703704e+00	 9.999416e+00
0	 2.592593e+00	 9.777778e+00	 9.999671e+00
0	 2.592593e+00	 9.851852e+00	 9.999853e+00
0	 2.592593e+00	 9.925926e+00	 9.999962e+00
0	 2.592593e+00	 1.000000e+01	 1.000000e+01
0	 2.666667e+00	 9.629630e+00	 9.999242e+00
0	 2.666667e+00	 9.703704e+00	 9.999514e+00
0	 2.666667e+00	 9.777778e+00	 9.999724e+00
0	 2.666667e+00	 9.851852e+00	 9.999873e+00
0	 2.666667e+00	 9.925926e+00	 9.999963e+00
0	 2.666667e+00	 1.000000e+01	 9.999992e+00
0	 2.740741e+00	 9.629630e+00	 9.999404e+00
0	 2.740741e+00	 9.703704e+00	 9.999619e+00
0	 2.740741e+00	 9.777778e+00	 9.999786e+00
0	 2.740741e+00	 9.851852e+00	 9.999904e+00
0	 2.740741e+00	 9.925926e+00	 9.999973e+00
0	 2.740741e+00	 1.000000e+01	 9.999994e+00
0	 2.814815e+00	 9.629630e+00	 9.999567e+00
0	 2.814815e+00	 9.703704e+00	 9.999726e+00
0	 2.814815e+00	 9.777778e+00	 9.999850e+00
0	 2.814815e+00	 9.851852e+00	 9.999937e+00
0	 2.814815e+00	 9.925926e+00	 9.999987e+00
0	 2.814815e+00	 1.000000e+01	 9.999999e+00
0	 2.888889e+00	 9.629630e+00	 9.999725e+00
0	 2.888889e+00	 9.703704e+00	 9.999829e+00
0	 2.888889e+00	 9.777778e+00	 9.999910e+00
0	 2.888889e+00	 9.851852e+00	 9.999968e+00
0	 2.888889e+00	 9.925926e+00	 9.999998e+00
0	 2.888889e+00	 1.000000e+01	 1.000000e+01
0	 2.962963e+00	 9.629630e+00	 9.999871e+00
0	 2.962963e+00	 9.703704e+00	 9.999921e+00
0	 2.962963e+00	 9.777778e+00	 9.999961e+00
0	 2.962963e+00	 9.851852e+00	 9.999987e+00
0	 2.962963e+00	 9.925926e+00	 9.999999e+00
0	 2.962963e+00	 1.000000e+01	 9.999993e+00
0	 2.962963e+00	 0.000000e+00	 1.095069e+01
0	 2.962963e+00	 7.407407e-02	 1.096903e+01
0	 2.962963e+00	 1.481481e-01	 1.098358e+01
0	 2.962963e+00	 2.222222e-01	 1.099732e+01
0	 2.962963e+00	 2.962963e-01	 1.101325e+01
0	 2.962963e+00	 3.703704e-01	 1.103435e+01
0	 3.037037e+00	 0.000000e+00	 1.085884e+01
0	 3.037037e+00	 7.407407e-02	 1.087543e+01
0	 3.037037e+00	 1.481481e-01	 1.089366e+01
0	 3.037037e+00	 2.222222e-01	 1.091441e+01
0	 3.037037e+00	 2.962963e-01	 1.093863e+01
0	 3.037037e+00	 3.703704e-01	 1.096720e+01
0	 3.111111e+00	 0.000000e+00	 1.080574e+01
0	 3.111111e+00	 7.407407e-02	 1.081652e+01
0	 3.111111e+00	 1.481481e-01	 1.083261e+01
0	 3.111111e+00	 2.222222e-01	 1.085349e+01
0	 3.111111e+00	 2.962963e-01	 1.087866e+01
0	 3.111111e+00	 3.703704e-01	 1.090761e+01
0	 3.185185e+00	 0.000000e+00	 1.078019e+01
0	 3.185185e+00	 7.407407e-02	 1.078350e+01
0	 3.185185e+00	 1.481481e-01	 1.079402e+01
0	 3.185185e+00	 2.222222e-01	 1.081046e+01
0	 3.185185e+00	 2.962963e-01	 1.083155e+01
0	 3.185185e+00	 3.703704e-01	 1.085603e+01
0	 3.259259e+00	 0.000000e+00	 1.077099e+01
0	 3.259259e+00	 7.407407e-02	 1.076758e+01
0	 3.259259e+00	 1.481481e-01	 1.077144e+01
0	 3.259259e+00	 2.222222e-01	 1.078121e+01
0	 3.259259e+00	 2.962963e-01	 1.079550e+01
0	 3.259259e+00	 3.703704e-01	 1.081293e+01
0	 3.333333e+00	 0.000000e+00	 1.076696e+01
0	 3.333333e+00	 7.407407e-02	 1.075995e+01
0	 3.333333e+00	 1.481481e-01	 1.075846e+01
0	 3.333333e+00	 2.222222e-01	 1.076166e+01
0	 3.333333e+00	 2.962963e-01	 1.076870e+01
0	 3.333333e+00	 3.703704e-01	 1.077875e+01
0	 2.962963e+00	 3.703704e-01	 1.103435e+01
0	 2.962963e+00	 4.444444e-01	 1.105832e+01
0	 2.962963e+00	 5.185185e-01	 1.108096e+01
0	 2.962963e+00	 5.925926e-01	 1.110249e+01
0	 2.962963e+00	 6.666667e-01	 1.112309e+01
0	 2.962963e+00	 7.407407e-01	 1.114296e+01
0	 3.037037e+00	 3.703704e-01	 1.096720e+01
0	 3.037037e+00	 4.444444e-01	 1.099632e+01
0	 3.037037e+00	 5.185185e-01	 1.102199e+01
0	 3.037037e+00	 5.925926e-01	 1.104486e+01
0	 3.037037e+00	 6.666667e-01	 1.106559e+01
0	 3.037037e+00	 7.407407e-01	 1.108482e+01
0	 3.111111e+00	 3.703704e-01	 1.090761e+01
0	 3.111111e+00	 4.444444e-01	 1.093620e+01
0	 3.111111e+00	 5.185185e-01	 1.096124e+01
0	 3.111111e+00	 5.925926e-01	 1.098370e+01
0	 3.111111e+00	 6.666667e-01	 1.100449e+01
0	 3.111111e+00	 7.407407e-01	 1.102458e+01
0	 3.185185e+00	 3.703704e-01	 1.085603e+01
0	 3.185185e+00	 4.444444e-01	 1.088029e+01
0	 3.185185e+00	 5.185185e-01	 1.090230e+01
0	 3.185185e+00	 5.925926e-01	 1.092310e+01
0	 3.185185e+00	 6.666667e-01	 1.094376e+01
0	 3.185185e+00	 7.407407e-01	 1.096533e+01
0	 3.259259e+00	 3.703704e-01	 1.081293e+01
0	 3.259259e+00	 4.444444e-01	 1.083097e+01
0	 3.259259e+00	 5.185185e-01	 1.084872e+01
0	 3.259259e+00	 5.925926e-01	 1.086717e+01
0	 3.259259e+00	 6.666667e-01	 1.088733e+01
0	 3.259259e+00	 7.407407e-01	 1.091019e+01
0	 3.333333e+00	 3.703704e-01	 1.077875e+01
0	 3.333333e+00	 4.444444e-01	 1.079059e+01
0	 3.333333e+00	 5.185185e-01	 1.080409e+01
0	 3.333333e+00	 5.925926e-01	 1.082003e+01
0	 3.333333e+00	 6.666667e-01	 1.083917e+01
0	 3.333333e+00	 7.407407e-01	 1.086228e+01
0	 2.962963e+00	 7.407407e-01	 1.114296e+01
0	 2.962963e+00	 8.148148e-01	 1.116126e+01
0	 2.962963e+00	 8.888889e-01	 1.117755e+01
0	 2.962963e+00	 9.629630e-01	 1.119260e+01
0	 2.962963e+00	 1.037037e+00	 1.120718e+01
0	 2.962963e+00	 1.111111e+00	 1.122204e+01
0	 3.037037e+00	 7.407407e-01	 1.108482e+01
0	 3.037037e+00	 8.148148e-01	 1.110258e+01
0	 3.037037e+00	 8.888889e-01	 1.111883e+01
0	 3.037037e+00	 9.629630e-01	 1.113414e+01
0	 3.037037e+00	 1.037037e+00	 1.114908e+01
0	 3.037037e+00	 1.111111e+00	 1.116424e+01
0	 3.111111e+00	 7.407407e-01	 1.102458e+01
0	 3.111111e+00	 8.148148e-01	 1.104373e+01
0	 3.111111e+00	 8.888889e-01	 1.106140e+01
0	 3.111111e+00	 9.629630e-01	 1.107803e+01
0	 3.111111e+00	 1.037037e+00	 1.109408e+01
0	 3.111111e+00	 1.111111e+00	 1.110999e+01
0	 3.185185e+00	 7.407407e-01	 1.096533e+01
0	 3.185185e+00	 8.148148e-01	 1.098672e+01
0	 3.185185e+00	 8.888889e-01	 1.100638e+01
0	 3.185185e+00	 9.629630e-01	 1.102470e+01
0	 3.185185e+00	 1.037037e+00	 1.104206e+01
0	 3.185185e+00	 1.111111e+00	 1.105883e+01
0	 3.259259e+00	 7.407407e-01	 1.091019e+01
0	 3.259259e+00	 8.148148e-01	 1.093358e+01
0	 3.259259e+00	 8.888889e-01	 1.095492e+01
0	 3.259259e+00	 9.629630e-01	 1.097457e+01
0	 3.259259e+00	 1.037037e+00	 1.099292e+01
0	 3.259259e+00	 1.111111e+00	 1.101033e+01
0	 3.333333e+00	 7.407407e-01	 1.086228e+01
0	 3.333333e+00	 8.148148e-01	 1.088635e+01
0	 3.333333e+00	 8.888889e-01	 1.090813e+01
0	 3.333333e+00	 9.629630e-01	 1.092805e+01
0	 3.333333e+00	 1.037037e+00	 1.094654e+01
0	 3.333333e+00	 1.111111e+00	 1.096404e+01
0	 2.962963e+00	 1.111111e+00	 1.122204e+01
0	 2.962963e+00	 1.185185e+00	 1.123516e+01
0	 2.962963e+00	 1.259259e+00	 1.124428e+01
0	 2.962963e+00	 1.333333e+00	 1.124976e+01
0	 2.962963e+00	 1.407407e+00	 1.125201e+01
0	 2.962963e+00	 1.481481e+00	 1.125142e+01
0	 3.037037e+00	 1.111111e+00	 1.116424e+01
0	 3.037037e+00	 1.185185e+00	 1.117777e+01
0	 3.037037e+00	 1.259259e+00	 1.118771e+01
0	 3.037037e+00	 1.333333e+00	 1.119450e+01
0	 3.037037e+00	 1.407407e+00	 1.119858e+01
0	 3.037037e+00	 1.481481e+00	 1.120036e+01
0	 3.111111e+00	 1.111111e+00	 1.110999e+01
0	 3.111111e+00	 1.185185e+00	 1.112415e+01
0	 3.111111e+00	 1.259259e+00	 1.113497e+01
0	 3.111111e+00	 1.333333e+00	 1.114288e+01
0	 3.111111e+00	 1.407407e+00	 1.114832e+01
0	 3.111111e+00	 1.481481e+00	 1.115175e+01
0	 3.185185e+00	 1.111111e+00	 1.105883e+01
0	 3.185185e+00	 1.185185e+00	 1.107369e+01
0	 3.185185e+00	 1.259259e+00	 1.108533e+01
0	 3.185185e+00	 1.333333e+00	 1.109419e+01
0	 3.185185e+00	 1.407407e+00	 1.110069e+01
0	 3.185185e+00	 1.481481e+00	 1.110527e+01
0	 3.259259e+00	 1.111111e+00	 1.101033e+01
0	 3.259259e+00	 1.185185e+00	 1.102574e+01
0	 3.259259e+00	 1.259259e+00	 1.103808e+01
0	 3.259259e+00	 1.333333e+00	 1.104774e+01
0	 3.259259e+00	 1.407407e+00	 1.105510e+01
0	 3.259259e+00	 1.481481e+00	 1.106056e+01
0	 3.333333e+00	 1.111111e+00	 1.096404e+01
0	 3.333333e+00	 1.185185e+00	 1.097968e+01
0	 3.333333e+00	 1.259259e+00	 1.099251e+01
0	 3.333333e+00	 1.333333e+00	 1.100284e+01
0	 3.333333e+00	 1.407407e+00	 1.101100e+01
0	 3.333333e+00	 1.481481e+00	 1.101731e+01
0	 2.962963e+00	 1.481481e+00	 1.125142e+01
0	 2.962963e+00	 1.555556e+00	 1.124772e+01
0	 2.962963e+00	 1.629630e+00	 1.124033e+01
0	 2.962963e+00	 1.703704e+00	 1.122912e+01
0	 2.962963e+00	 1.777778e+00	 1.121397e+01
0	 2.962963e+00	 1.851852e+00	 1.119473e+01
0	 3.037037e+00	 1.481481e+00	 1.120036e+01
0	 3.037037e+00	 1.555556e+00	 1.119925e+01
0	 3.037037e+00	 1.629630e+00	 1.119437e+01
0	 3.037037e+00	 1.703704e+00	 1.118569e+01
0	 3.037037e+00	 1.777778e+00	 1.117321e+01
0	 3.037037e+00	 1.851852e+00	 1.115690e+01
0	 3.111111e+00	 1.481481e+00	 1.115175e+01
0	 3.111111e+00	 1.555556e+00	 1.115247e+01
0	 3.111111e+00	 1.629630e+00	 1.114954e+01
0	 3.111111e+00	 1.703704e+00	 1.114303e+01
0	 3.111111e+00	 1.777778e+00	 1.113300e+01
0	 3.111111e+00	 1.851852e+00	 1.111952e+01
0	 3.185185e+00	 1.481481e+00	 1.110527e+01
0	 3.185185e+00	 1.555556e+00	 1.110729e+01
0	 3.185185e+00	 1.629630e+00	 1.110594e+01
0	 3.185185e+00	 1.703704e+00	 1.110132e+01
0	 3.185185e+00	 1.777778e+00	 1.109356e+01
0	 3.185185e+00	 1.851852e+00	 1.108277e+01
0	 3.259259e+00	 1.481481e+00	 1.106056e+01
0	 3.259259e+00	 1.555556e+00	 1.106363e+01
0	 3.259259e+00	 1.629630e+00	 1.106364e+01
0	 3.259259e+00	 1.703704e+00	 1.106075e+01
0	 3.259259e+00	 1.777778e+00	 1.105509e+01
0	 3.259259e+00	 1.851852e+00	 1.104680e+01
0	 3.333333e+00	 1.481481e+00	 1.101731e+01
0	 3.333333e+00	 1.555556e+00	 1.102139e+01
0	 3.333333e+00	 1.629630e+00	 1.102274e+01
0	 3.333333e+00	 1.703704e+00	 1.102150e+01
0	 3.333333e+00	 1.777778e+00	 1.101781e+01
0	 3.333333e+00	 1.851852e+00	 1.101179e+01
0	 2.962963e+00	 1.851852e+00	 1.119473e+01
0	 2.962963e+00	 1.925926e+00	 1.117250e+01
0	 2.962963e+00	 2.000000e+00	 1.114836e+01
0	 2.962963e+00	 2.074074e+00	 1.112226e+01
0	 2.962963e+00	 2.148148e+00	 1.109412e+01
0	 2.962963e+00	 2.222222e+00	 1.106385e+01
0	 3.037037e+00	 1.851852e+00	 1.115690e+01
0	 3.037037e+00	 1.925926e+00	 1.113788e+01
0	 3.037037e+00	 2.000000e+00	 1.111718e+01
0	 3.037037e+00	 2.074074e+00	 1.109465e+01
0	 3.037037e+00	 2.148148e+00	 1.107015e+01
0	 3.037037e+00	 2.222222e+00	 1.104353e+01
0	 3.111111e+00	 1.851852e+00	 1.111952e+01
0	 3.111111e+00	 1.925926e+00	 1.110359e+01
0	 3.111111e+00	 2.000000e+00	 1.108604e+01
0	 3.111111e+00	 2.074074e+00	 1.106667e+01
0	 3.111111e+00	 2.148148e+00	 1.104530e+01
0	 3.111111e+00	 2.222222e+00	 1.102173e+01
0	 3.185185e+00	 1.851852e+00	 1.108277e+01
0	 3.185185e+00	 1.925926e+00	 1.106973e+01
0	 3.185185e+00	 2.000000e+00	 1.105502e+01
0	 3.185185e+00	 2.074074e+00	 1.103842e+01
0	 3.185185e+00	 2.148148e+00	 1.101974e+01
0	 3.185185e+00	 2.222222e+00	 1.099878e+01
0	 3.259259e+00	 1.851852e+00	 1.104680e+01
0	 3.259259e+00	 1.925926e+00	 1.103641e+01
0	 3.259259e+00	 2.000000e+00	 1.102422e+01
0	 3.259259e+00	 2.074074e+00	 1.101004e+01
0	 3.259259e+00	 2.148148e+00	 1.099369e+01
0	 3.259259e+00	 2.222222e+00	 1.097500e+01
0	 3.333333e+00	 1.851852e+00	 1.101179e+01
0	 3.333333e+00	 1.925926e+00	 1.100373e+01
0	 3.333333e+00	 2.000000e+00	 1.099371e+01
0	 3.333333e+00	 2.074074e+00	 1.098162e+01
0	 3.333333e+00	 2.148148e+00	 1.096734e+01
0	 3.333333e+00	 2.222222e+00	 1.095073e+01
0	 2.962963e+00	 2.222222e+00	 1.106385e+01
0	 2.962963e+00	 2.296296e+00	 1.103233e+01
0	 2.962963e+00	 2.370370e+00	 1.100023e+01
0	 2.962963e+00	 2.444444e+00	 1.096727e+01
0	 2.962963e+00	 2.518519e+00	 1.093315e+01
0	 2.962963e+00	 2.592593e+00	 1.089757e+01
0	 3.037037e+00	 2.222222e+00	 1.104353e+01
0	 3.037037e+00	 2.296296e+00	 1.101541e+01
0	 3.037037e+00	 2.370370e+00	 1.098638e+01
0	 3.037037e+00	 2.444444e+00	 1.095624e+01
0	 3.037037e+00	 2.518519e+00	 1.092479e+01
0	 3.037037e+00	 2.592593e+00	 1.089183e+01
0	 3.111111e+00	 2.222222e+00	 1.102173e+01
0	 3.111111e+00	 2.296296e+00	 1.099651e+01
0	 3.111111e+00	 2.370370e+00	 1.097024e+01
0	 3.111111e+00	 2.444444e+00	 1.094276e+01
0	 3.111111e+00	 2.518519e+00	 1.091395e+01
0	 3.111111e+00	 2.592593e+00	 1.088367e+01
0	 3.185185e+00	 2.222222e+00	 1.099878e+01
0	 3.185185e+00	 2.296296e+00	 1.097609e+01
0	 3.185185e+00	 2.370370e+00	 1.095232e+01
0	 3.185185e+00	 2.444444e+00	 1.092737e+01
0	 3.185185e+00	 2.518519e+00	 1.090114e+01
0	 3.185185e+00	 2.592593e+00	 1.087353e+01
0	 3.259259e+00	 2.222222e+00	 1.097500e+01
0	 3.259259e+00	 2.296296e+00	 1.095460e+01
0	 3.259259e+00	 2.370370e+00	 1.093316e+01
0	 3.259259e+00	 2.444444e+00	 1.091061e+01
0	 3.259259e+00	 2.518519e+00	 1.088687e+01
0	 3.259259e+00	 2.592593e+00	 1.086186e+01
0	 3.333333e+00	 2.222222e+00	 1.095073e+01
0	 3.333333e+00	 2.296296e+00	 1.093247e+01
0	 3.333333e+00	 2.370370e+00	 1.091327e+01
0	 3.333333e+00	 2.444444e+00	 1.089303e+01
0	 3.333333e+00	 2.518519e+00	 1.087166e+01
0	 3.333333e+00	 2.592593e+00	 1.084908e+01
0	 2.962963e+00	 2.592593e+00	 1.089757e+01
0	 2.962963e+00	 2.666667e+00	 1.086153e+01
0	 2.962963e+00	 2.740741e+00	 1.082612e+01
0	 2.962963e+00	 2.814815e+00	 1.079122e+01
0	 2.962963e+00	 2.888889e+00	 1.075669e+01
0	 2.962963e+00	 2.962963e+00	 1.072238e+01
0	 3.037037e+00	 2.592593e+00	 1.089183e+01
0	 3.037037e+00	 2.666667e+00	 1.085836e+01
0	 3.037037e+00	 2.740741e+00	 1.082545e+01
0	 3.037037e+00	 2.814815e+00	 1.079291e+01
0	 3.037037e+00	 2.888889e+00	 1.076058e+01
0	 3.037037e+00	 2.962963e+00	 1.072830e+01
0	 3.111111e+00	 2.592593e+00	 1.088367e+01
0	 3.111111e+00	 2.666667e+00	 1.085285e+01
0	 3.111111e+00	 2.740741e+00	 1.082241e+01
0	 3.111111e+00	 2.814815e+00	 1.079217e+01
0	 3.111111e+00	 2.888889e+00	 1.076193e+01
0	 3.111111e+00	 2.962963e+00	 1.073151e+01
0	 3.185185e+00	 2.592593e+00	 1.087353e+01
0	 3.185185e+00	 2.666667e+00	 1.084535e+01
0	 3.185185e+00	 2.740741e+00	 1.081733e+01
0	 3.185185e+00	 2.814815e+00	 1.078927e+01
0	 3.185185e+00	 2.888889e+00	 1.076100e+01
0	 3.185185e+00	 2.962963e+00	 1.073233e+01
0	 3.259259e+00	 2.592593e+00	 1.086186e+01
0	 3.259259e+00	 2.666667e+00	 1.083621e+01
0	 3.259259e+00	 2.740741e+00	 1.081048e+01
0	 3.259259e+00	 2.814815e+00	 1.078450e+01
0	 3.259259e+00	 2.888889e+00	 1.075810e+01
0	 3.259259e+00	 2.962963e+00	 1.073109e+01
0	 3.333333e+00	 2.592593e+00	 1.084908e+01
0	 3.333333e+00	 2.666667e+00	 1.082577e+01
0	 3.333333e+00	 2.740741e+00	 1.080217e+01
0	 3.333333e+00	 2.814815e+00	 1.077812e+01
0	 3.333333e+00	 2.888889e+00	 1.075349e+01
0	 3.333333e+00	 2.962963e+00	 1.072812e+01
0	 2.962963e+00	 2.962963e+00	 1.072238e+01
0	 2.962963e+00	 3.037037e+00	 1.068862e+01
0	 2.962963e+00	 3.111111e+00	 1.065575e+01
0	 2.962963e+00	 3.185185e+00	 1.062363e+01
0	 2.962963e+00	 3.259259e+00	 1.059213e+01
0	 2.962963e+00	 3.333333e+00	 1.056111e+01
0	 3.037037e+00	 2.962963e+00	 1.072830e+01
0	 3.037037e+00	 3.037037e+00	 1.069635e+01
0	 3.037037e+00	 3.111111e+00	 1.066507e+01
0	 3.037037e+00	 3.185185e+00	 1.063435e+01
0	 3.037037e+00	 3.259259e+00	 1.060410e+01
0	 3.037037e+00	 3.333333e+00	 1.057419e+01
0	 3.111111e+00	 2.962963e+00	 1.073151e+01
0	 3.111111e+00	 3.037037e+00	 1.070123e+01
0	 3.111111e+00	 3.111111e+00	 1.067149e+01
0	 3.111111e+00	 3.185185e+00	 1.064221e+01
0	 3.111111e+00	 3.259259e+00	 1.061328e+01
0	 3.111111e+00	 3.333333e+00	 1.058463e+01
0	 3.185185e+00	 2.962963e+00	 1.073233e+01
0	 3.185185e+00	 3.037037e+00	 1.070365e+01
0	 3.185185e+00	 3.111111e+00	 1.067542e+01
0	 3.185185e+00	 3.185185e+00	 1.064758e+01
0	 3.185185e+00	 3.259259e+00	 1.062005e+01
0	 3.185185e+00	 3.333333e+00	 1.059274e+01
0	 3.259259e+00	 2.962963e+00	 1.073109e+01
0	 3.259259e+00	 3.037037e+00	 1.070396e+01
0	 3.259259e+00	 3.111111e+00	 1.067725e+01
0	 3.259259e+00	 3.185185e+00	 1.065087e+01
0	 3.259259e+00	 3.259259e+00	 1.062475e+01
0	 3.259259e+00	 3.333333e+00	 1.059881e+01
0	 3.333333e+00	 2.962963e+00	 1.072812e+01
0	 3.333333e+00	 3.037037e+00	 1.070256e+01
0	 3.333333e+00	 3.111111e+00	 1.067736e+01
0	 3.333333e+00	 3.185185e+00	 1.065246e+01
0	 3.333333e+00	 3.259259e+00	 1.062775e+01
0	 3.333333e+00	 3.333333e+00	 1.060316e+01
0	 2.962963e+00	 3.333333e+00	 1.056111e+01
0	 2.962963e+00	 3.407407e+00	 1.053090e+01
0	 2.962963e+00	 3.481481e+00	 1.050189e+01
0	 2.962963e+00	 3.555556e+00	 1.047403e+01
0	 2.962963e+00	 3.629630e+00	 1.044727e+01
0	 2.962963e+00	 3.703704e+00	 1.042155e+01
0	 3.037037e+00	 3.333333e+00	 1.057419e+01
0	 3.037037e+00	 3.407407e+00	 1.054501e+01
0	 3.037037e+00	 3.481481e+00	 1.051695e+01
0	 3.037037e+00	 3.555556e+00	 1.048993e+01
0	 3.037037e+00	 3.629630e+00	 1.046390e+01
0	 3.037037e+00	 3.703704e+00	 1.043878e+01
0	 3.111111e+00	 3.333333e+00	 1.058463e+01
0	 3.111111e+00	 3.407407e+00	 1.055661e+01
0	 3.111111e+00	 3.481481e+00	 1.052959e+01
0	 3.111111e+00	 3.555556e+00	 1.050349e+01
0	 3.111111e+00	 3.629630e+00	 1.047823e+01
0	 3.111111e+00	 3.703704e+00	 1.045372e+01
0	 3.185185e+00	 3.333333e+00	 1.059274e+01
0	 3.185185e+00	 3.407407e+00	 1.056597e+01
0	 3.185185e+00	 3.481481e+00	 1.054005e+01
0	 3.185185e+00	 3.555556e+00	 1.051490e+01
0	 3.185185e+00	 3.629630e+00	 1.049043e+01
0	 3.185185e+00	 3.703704e+00	 1.046656e+01
0	 3.259259e+00	 3.333333e+00	 1.059881e+01
0	 3.259259e+00	 3.407407e+00	 1.057331e+01
0	 3.259259e+00	 3.481481e+00	 1.054851e+01
0	 3.259259e+00	 3.555556e+00	 1.052433e+01
0	 3.259259e+00	 3.629630e+00	 1.050067e+01
0	 3.259259e+00	 3.703704e+00	 1.047747e+01
0	 3.333333e+00	 3.333333e+00	 1.060316e+01
0	 3.333333e+00	 3.407407e+00	 1.057890e+01
0	 3.333333e+00	 3.481481e+00	 1.055519e+01
0	 3.333333e+00	 3.555556e+00	 1.053196e+01
0	 3.333333e+00	 3.629630e+00	 1.050914e+01
0	 3.333333e+00	 3.703704e+00	 1.048665e+01
0	 2.962963e+00	 3.703704e+00	 1.042155e+01
0	 2.962963e+00	 3.777778e+00	 1.039686e+01
0	 2.962963e+00	 3.851852e+00	 1.037321e+01
0	 2.962963e+00	 3.925926e+00	 1.035054e+01
0	 2.962963e+00	 4.000000e+00	 1.032884e+01
0	 2.962963e+00	 4.074074e+00	 1.030806e+01
0	 3.037037e+00	 3.703704e+00	 1.043878e+01
0	 3.037037e+00	 3.777778e+00	 1.041456e+01
0	 3.037037e+00	 3.851852e+00	 1.039127e+01
0	 3.037037e+00	 3.925926e+00	 1.036889e+01
0	 3.037037e+00	 4.000000e+00	 1.034738e+01
0	 3.037037e+00	 4.074074e+00	 1.032671e+01
0	 3.111111e+00	 3.703704e+00	 1.045372e+01
0	 3.111111e+00	 3.777778e+00	 1.043000e+01
0	 3.111111e+00	 3.851852e+00	 1.040714e+01
0	 3.111111e+00	 3.925926e+00	 1.038511e+01
0	 3.111111e+00	 4.000000e+00	 1.036390e+01
0	 3.111111e+00	 4.074074e+00	 1.034347e+01
0	 3.185185e+00	 3.703704e+00	 1.046656e+01
0	 3.185185e+00	 3.777778e+00	 1.044337e+01
0	 3.185185e+00	 3.851852e+00	 1.042099e+01
0	 3.185185e+00	 3.925926e+00	 1.039939e+01
0	 3.185185e+00	 4.000000e+00	 1.037856e+01
0	 3.185185e+00	 4.074074e+00	 1.035846e+01
0	 3.259259e+00	 3.703704e+00	 1.047747e+01
0	 3.259259e+00	 3.777778e+00	 1.045486e+01
0	 3.259259e+00	 3.851852e+00	 1.043302e+01
0	 3.259259e+00	 3.925926e+00	 1.041192e+01
0	 3.259259e+00	 4.000000e+00	 1.039153e+01
0	 3.259259e+00	 4.074074e+00	 1.037183e+01
0	 3.333333e+00	 3.703704e+00	 1.048665e+01
0	 3.333333e+00	 3.777778e+00	 1.046467e+01
0	 3.333333e+00	 3.851852e+00	 1.044343e+01
0	 3.333333e+00	 3.925926e+00	 1.042288e+01
0	 3.333333e+00	 4.000000e+00	 1.040298e+01
0	 3.333333e+00	 4.074074e+00	 1.038372e+01
0	 2.962963e+00	 4.074074e+00	 1.030806e+01
0	 2.962963e+00	 4.148148e+00	 1.028821e+01
0	 2.962963e+00	 4.222222e+00	 1.026933e+01
0	 2.962963e+00	 4.296296e+00	 1.025141e+01
0	 2.962963e+00	 4.370370e+00	 1.023446e+01
0	 2.962963e+00	 4.444444e+00	 1.021846e+01
0	 3.037037e+00	 4.074074e+00	 1.032671e+01
0	 3.037037e+00	 4.148148e+00	 1.030694e+01
0	 3.037037e+00	 4.222222e+00	 1.028810e+01
0	 3.037037e+00	 4.296296e+00	 1.027018e+01
0	 3.037037e+00	 4.370370e+00	 1.025317e+01
0	 3.037037e+00	 4.444444e+00	 1.023705e+01
0	 3.111111e+00	 4.074074e+00	 1.034347e+01
0	 3.111111e+00	 4.148148e+00	 1.032388e+01
0	 3.111111e+00	 4.222222e+00	 1.030517e+01
0	 3.111111e+00	 4.296296e+00	 1.028733e+01
0	 3.111111e+00	 4.370370e+00	 1.027033e+01
0	 3.111111e+00	 4.444444e+00	 1.025415e+01
0	 3.185185e+00	 4.074074e+00	 1.035846e+01
0	 3.185185e+00	 4.148148e+00	 1.033915e+01
0	 3.185185e+00	 4.222222e+00	 1.032065e+01
0	 3.185185e+00	 4.296296e+00	 1.030294e+01
0	 3.185185e+00	 4.370370e+00	 1.028601e+01
0	 3.185185e+00	 4.444444e+00	 1.026982e+01
0	 3.259259e+00	 4.074074e+00	 1.037183e+01
0	 3.259259e+00	 4.148148e+00	 1.035285e+01
0	 3.259259e+00	 4.222222e+00	 1.033461e+01
0	 3.259259e+00	 4.296296e+00	 1.031710e+01
0	 3.259259e+00	 4.370370e+00	 1.030027e+01
0	 3.259259e+00	 4.444444e+00	 1.028412e+01
0	 3.333333e+00	 4.074074e+00	 1.038372e+01
0	 3.333333e+00	 4.148148e+00	 1.036510e+01
0	 3.333333e+00	 4.222222e+00	 1.034715e+01
0	 3.333333e+00	 4.296296e+00	 1.032985e+01
0	 3.333333e+00	 4.370370e+00	 1.031319e+01
0	 3.333333e+00	 4.444444e+00	 1.029712e+01
0	 2.962963e+00	 4.444444e+00	 1.021846e+01
0	 2.962963e+00	 4.518519e+00	 1.020332e+01
0	 2.962963e+00	 4.592593e+00	 1.018893e+01
0	 2.962963e+00	 4.666667e+00	 1.017530e+01
0	 2.962963e+00	 4.740741e+00	 1.016242e+01
0	 2.962963e+00	 4.814815e+00	 1.015030e+01
0	 3.037037e+00	 4.444444e+00	 1.023705e+01
0	 3.037037e+00	 4.518519e+00	 1.022174e+01
0	 3.037037e+00	 4.592593e+00	 1.020715e+01
0	 3.037037e+00	 4.666667e+00	 1.019329e+01
0	 3.037037e+00	 4.740741e+00	 1.018015e+01
0	 3.037037e+00	 4.814815e+00	 1.016773e+01
0	 3.111111e+00	 4.444444e+00	 1.025415e+01
0	 3.111111e+00	 4.518519e+00	 1.023872e+01
0	 3.111111e+00	 4.592593e+00	 1.022399e+01
0	 3.111111e+00	 4.666667e+00	 1.020996e+01
0	 3.111111e+00	 4.740741e+00	 1.019663e+01
0	 3.111111e+00	 4.814815e+00	 1.018400e+01
0	 3.185185e+00	 4.444444e+00	 1.026982e+01
0	 3.185185e+00	 4.518519e+00	 1.025433e+01
0	 3.185185e+00	 4.592593e+00	 1.023952e+01
0	 3.185185e+00	 4.666667e+00	 1.022538e+01
0	 3.185185e+00	 4.740741e+00	 1.021193e+01
0	 3.185185e+00	 4.814815e+00	 1.019915e+01
0	 3.259259e+00	 4.444444e+00	 1.028412e+01
0	 3.259259e+00	 4.518519e+00	 1.026862e+01
0	 3.259259e+00	 4.592593e+00	 1.025379e+01
0	 3.259259e+00	 4.666667e+00	 1.023961e+01
0	 3.259259e+00	 4.740741e+00	 1.022609e+01
0	 3.259259e+00	 4.814815e+00	 1.021322e+01
0	 3.333333e+00	 4.444444e+00	 1.029712e+01
0	 3.333333e+00	 4.518519e+00	 1.028168e+01
0	 3.333333e+00	 4.592593e+00	 1.026688e+01
0	 3.333333e+00	 4.666667e+00	 1.025271e+01
0	 3.333333e+00	 4.740741e+00	 1.023917e+01
0	 3.333333e+00	 4.814815e+00	 1.022625e+01
0	 2.962963e+00	 4.814815e+00	 1.015030e+01
0	 2.962963e+00	 4.888889e+00	 1.013887e+01
0	 2.962963e+00	 4.962963e+00	 1.012806e+01
0	 2.962963e+00	 5.037037e+00	 1.011790e+01
0	 2.962963e+00	 5.111111e+00	 1.010838e+01
0	 2.962963e+00	 5.185185e+00	 1.009952e+01
0	 3.037037e+00	 4.814815e+00	 1.016773e+01
0	 3.037037e+00	 4.888889e+00	 1.015599e+01
0	 3.037037e+00	 4.962963e+00	 1.014488e+01
0	 3.037037e+00	 5.037037e+00	 1.013439e+01
0	 3.037037e+00	 5.111111e+00	 1.012454e+01
0	 3.037037e+00	 5.185185e+00	 1.011532e+01
0	 3.111111e+00	 4.814815e+00	 1.018400e+01
0	 3.111111e+00	 4.888889e+00	 1.017203e+01
0	 3.111111e+00	 4.962963e+00	 1.016067e+01
0	 3.111111e+00	 5.037037e+00	 1.014992e+01
0	 3.111111e+00	 5.111111e+00	 1.013978e+01
0	 3.111111e+00	 5.185185e+00	 1.013025e+01
0	 3.185185e+00	 4.814815e+00	 1.019915e+01
0	 3.185185e+00	 4.888889e+00	 1.018701e+01
0	 3.185185e+00	 4.962963e+00	 1.017546e+01
0	 3.185185e+00	 5.037037e+00	 1.016449e+01
0	 3.185185e+00	 5.111111e+00	 1.015411e+01
0	 3.185185e+00	 5.185185e+00	 1.014431e+01
0	 3.259259e+00	 4.814815e+00	 1.021322e+01
0	 3.259259e+00	 4.888889e+00	 1.020096e+01
0	 3.259259e+00	 4.962963e+00	 1.018926e+01
0	 3.259259e+00	 5.037037e+00	 1.017812e+01
0	 3.259259e+00	 5.111111e+00	 1.016754e+01
0	 3.259259e+00	 5.185185e+00	 1.015750e+01
0	 3.333333e+00	 4.814815e+00	 1.022625e+01
0	 3.333333e+00	 4.888889e+00	 1.021391e+01
0	 3.333333e+00	 4.962963e+00	 1.020210e+01
0	 3.333333e+00	 5.037037e+00	 1.019082e+01
0	 3.333333e+00	 5.111111e+00	 1.018008e+01
0	 3.333333e+00	 5.185185e+00	 1.016986e+01
0	 2.962963e+00	 5.185185e+00	 1.009952e+01
0	 2.962963e+00	 5.259259e+00	 1.009122e+01
0	 2.962963e+00	 5.333333e+00	 1.008340e+01
0	 2.962963e+00	 5.407407e+00	 1.007605e+01
0	 2.962963e+00	 5.481481e+00	 1.006920e+01
0	 2.962963e+00	 5.555556e+00	 1.006284e+01
0	 3.037037e+00	 5.185185e+00	 1.011532e+01
0	 3.037037e+00	 5.259259e+00	 1.010666e+01
0	 3.037037e+00	 5.333333e+00	 1.009846e+01
0	 3.037037e+00	 5.407407e+00	 1.009073e+01
0	 3.037037e+00	 5.481481e+00	 1.008349e+01
0	 3.037037e+00	 5.555556e+00	 1.007674e+01
0	 3.111111e+00	 5.185185e+00	 1.013025e+01
0	 3.111111e+00	 5.259259e+00	 1.012125e+01
0	 3.111111e+00	 5.333333e+00	 1.011272e+01
0	 3.111111e+00	 5.407407e+00	 1.010466e+01
0	 3.111111e+00	 5.481481e+00	 1.009708e+01
0	 3.111111e+00	 5.555556e+00	 1.008999e+01
0	 3.185185e+00	 5.185185e+00	 1.014431e+01
0	 3.185185e+00	 5.259259e+00	 1.013502e+01
0	 3.185185e+00	 5.333333e+00	 1.012620e+01
0	 3.185185e+00	 5.407407e+00	 1.011784e+01
0	 3.185185e+00	 5.481481e+00	 1.010996e+01
0	 3.185185e+00	 5.555556e+00	 1.010257e+01
0	 3.259259e+00	 5.185185e+00	 1.015750e+01
0	 3.259259e+00	 5.259259e+00	 1.014798e+01
0	 3.259259e+00	 5.333333e+00	 1.013890e+01
0	 3.259259e+00	 5.407407e+00	 1.013029e+01
0	 3.259259e+00	 5.481481e+00	 1.012215e+01
0	 3.259259e+00	 5.555556e+00	 1.011449e+01
0	 3.333333e+00	 5.185185e+00	 1.016986e+01
0	 3.333333e+00	 5.259259e+00	 1.016012e+01
0	 3.333333e+00	 5.333333e+00	 1.015084e+01
0	 3.333333e+00	 5.407407e+00	 1.014202e+01
0	 3.333333e+00	 5.481481e+00	 1.013365e+01
0	 3.333333e+00	 5.555556e+00	 1.012575e+01
0	 2.962963e+00	 5.555556e+00	 1.006284e+01
0	 2.962963e+00	 5.629630e+00	 1.005692e+01
0	 2.962963e+00	 5.703704e+00	 1.005136e+01
0	 2.962963e+00	 5.777778e+00	 1.004619e+01
0	 2.962963e+00	 5.851852e+00	 1.004140e+01
0	 2.962963e+00	 5.925926e+00	 1.003702e+01
0	 3.037037e+00	 5.555556e+00	 1.007674e+01
0	 3.037037e+00	 5.629630e+00	 1.007043e+01
0	 3.037037e+00	 5.703704e+00	 1.006449e+01
0	 3.037037e+00	 5.777778e+00	 1.005894e+01
0	 3.037037e+00	 5.851852e+00	 1.005377e+01
0	 3.037037e+00	 5.925926e+00	 1.004900e+01
0	 3.111111e+00	 5.555556e+00	 1.008999e+01
0	 3.111111e+00	 5.629630e+00	 1.008333e+01
0	 3.111111e+00	 5.703704e+00	 1.007704e+01
0	 3.111111e+00	 5.777778e+00	 1.007114e+01
0	 3.111111e+00	 5.851852e+00	 1.006562e+01
0	 3.111111e+00	 5.925926e+00	 1.006049e+01
0	 3.185185e+00	 5.555556e+00	 1.010257e+01
0	 3.185185e+00	 5.629630e+00	 1.009560e+01
0	 3.185185e+00	 5.703704e+00	 1.008900e+01
0	 3.185185e+00	 5.777778e+00	 1.008278e+01
0	 3.185185e+00	 5.851852e+00	 1.007694e+01
0	 3.185185e+00	 5.925926e+00	 1.007149e+01
0	 3.259259e+00	 5.555556e+00	 1.011449e+01
0	 3.259259e+00	 5.629630e+00	 1.010725e+01
0	 3.259259e+00	 5.703704e+00	 1.010037e+01
0	 3.259259e+00	 5.777778e+00	 1.009386e+01
0	 3.259259e+00	 5.851852e+00	 1.008773e+01
0	 3.259259e+00	 5.925926e+00	 1.008197e+01
0	 3.333333e+00	 5.555556e+00	 1.012575e+01
0	 3.333333e+00	 5.629630e+00	 1.011827e+01
0	 3.333333e+00	 5.703704e+00	 1.011114e+01
0	 3.333333e+00	 5.777778e+00	 1.010437e+01
0	 3.333333e+00	 5.851852e+00	 1.009797e+01
0	 3.333333e+00	 5.925926e+00	 1.009194e+01
0	 2.962963e+00	 5.925926e+00	 1.003702e+01
0	 2.962963e+00	 6.000000e+00	 1.003296e+01
0	 2.962963e+00	 6.074074e+00	 1.002918e+01
0	 2.962963e+00	 6.148148e+00	 1.002568e+01
0	 2.962963e+00	 6.222222e+00	 1.002247e+01
0	 2.962963e+00	 6.296296e+00	 1.001955e+01
0	 3.037037e+00	 5.925926e+00	 1.004900e+01
0	 3.037037e+00	 6.000000e+00	 1.004456e+01
0	 3.037037e+00	 6.074074e+00	 1.004041e+01
0	 3.037037e+00	 6.148148e+00	 1.003653e+01
0	 3.037037e+00	 6.222222e+00	 1.003294e+01
0	 3.037037e+00	 6.296296e+00	 1.002966e+01
0	 3.111111e+00	 5.925926e+00	 1.006049e+01
0	 3.111111e+00	 6.000000e+00	 1.005570e+01
0	 3.111111e+00	 6.074074e+00	 1.005119e+01
0	 3.111111e+00	 6.148148e+00	 1.004697e+01
0	 3.111111e+00	 6.222222e+00	 1.004304e+01
0	 3.111111e+00	 6.296296e+00	 1.003941e+01
0	 3.185185e+00	 5.925926e+00	 1.007149e+01
0	 3.185185e+00	 6.000000e+00	 1.006637e+01
0	 3.185185e+00	 6.074074e+00	 1.006153e+01
0	 3.185185e+00	 6.148148e+00	 1.005698e+01
0	 3.185185e+00	 6.222222e+00	 1.005273e+01
0	 3.185185e+00	 6.296296e+00	 1.004879e+01
0	 3.259259e+00	 5.925926e+00	 1.008197e+01
0	 3.259259e+00	 6.000000e+00	 1.007655e+01
0	 3.259259e+00	 6.074074e+00	 1.007141e+01
0	 3.259259e+00	 6.148148e+00	 1.006657e+01
0	 3.259259e+00	 6.222222e+00	 1.006202e+01
0	 3.259259e+00	 6.296296e+00	 1.005778e+01
0	 3.333333e+00	 5.925926e+00	 1.009194e+01
0	 3.333333e+00	 6.000000e+00	 1.008624e+01
0	 3.333333e+00	 6.074074e+00	 1.008083e+01
0	 3.333333e+00	 6.148148e+00	 1.007571e+01
0	 3.333333e+00	 6.222222e+00	 1.007089e+01
0	 3.333333e+00	 6.296296e+00	 1.006638e+01
0	 2.962963e+00	 6.296296e+00	 1.001955e+01
0	 2.962963e+00	 6.370370e+00	 1.001688e+01
0	 2.962963e+00	 6.444444e+00	 1.001441e+01
0	 2.962963e+00	 6.518519e+00	 1.001215e+01
0	 2.962963e+00	 6.592593e+00	 1.001010e+01
0	 2.962963e+00	 6.666667e+00	 1.000828e+01
0	 3.037037e+00	 6.296296e+00	 1.002966e+01
0	 3.037037e+00	 6.370370e+00	 1.002663e+01
0	 3.037037e+00	 6.444444e+00	 1.002380e+01
0	 3.037037e+00	 6.518519e+00	 1.002119e+01
0	 3.037037e+00	 6.592593e+00	 1.001881e+01
0	 3.037037e+00	 6.666667e+00	 1.001665e+01
0	 3.111111e+00	 6.296296e+00	 1.003941e+01
0	 3.111111e+00	 6.370370e+00	 1.003604e+01
0	 3.111111e+00	 6.444444e+00	 1.003288e+01
0	 3.111111e+00	 6.518519e+00	 1.002995e+01
0	 3.111111e+00	 6.592593e+00	 1.002724e+01
0	 3.111111e+00	 6.666667e+00	 1.002476e+01
0	 3.185185e+00	 6.296296e+00	 1.004879e+01
0	 3.185185e+00	 6.370370e+00	 1.004510e+01
0	 3.185185e+00	 6.444444e+00	 1.004163e+01
0	 3.185185e+00	 6.518519e+00	 1.003839e+01
0	 3.185185e+00	 6.592593e+00	 1.003537e+01
0	 3.185185e+00	 6.666667e+00	 1.003259e+01
0	 3.259259e+00	 6.296296e+00	 1.005778e+01
0	 3.259259e+00	 6.370370e+00	 1.005380e+01
0	 3.259259e+00	 6.444444e+00	 1.005004e+01
0	 3.259259e+00	 6.518519e+00	 1.004651e+01
0	 3.259259e+00	 6.592593e+00	 1.004320e+01
0	 3.259259e+00	 6.666667e+00	 1.004013e+01
0	 3.333333e+00	 6.296296e+00	 1.006638e+01
0	 3.333333e+00	 6.370370e+00	 1.006212e+01
0	 3.333333e+00	 6.444444e+00	 1.005809e+01
0	 3.333333e+00	 6.518519e+00	 1.005428e+01
0	 3.333333e+00	 6.592593e+00	 1.005071e+01
0	 3.333333e+00	 6.666667e+00	 1.004737e+01
0	 2.962963e+00	 6.666667e+00	 1.000828e+01
0	 2.962963e+00	 6.740741e+00	 1.000664e+01
0	 2.962963e+00	 6.814815e+00	 1.000515e+01
0	 2.962963e+00	 6.888889e+00	 1.000380e+01
0	 2.962963e+00	 6.962963e+00	 1.000261e+01
0	 2.962963e+00	 7.037037e+00	 1.000158e+01
0	 3.037037e+00	 6.666667e+00	 1.001665e+01
0	 3.037037e+00	 6.740741e+00	 1.001468e+01
0	 3.037037e+00	 6.814815e+00	 1.001286e+01
0	 3.037037e+00	 6.888889e+00	 1.001120e+01
0	 3.037037e+00	 6.962963e+00	 1.000969e+01
0	 3.037037e+00	 7.037037e+00	 1.000835e+01
0	 3.111111e+00	 6.666667e+00	 1.002476e+01
0	 3.111111e+00	 6.740741e+00	 1.002247e+01
0	 3.111111e+00	 6.814815e+00	 1.002034e+01
0	 3.111111e+00	 6.888889e+00	 1.001837e+01
0	 3.111111e+00	 6.962963e+00	 1.001656e+01
0	 3.111111e+00	 7.037037e+00	 1.001493e+01
0	 3.185185e+00	 6.666667e+00	 1.003259e+01
0	 3.185185e+00	 6.740741e+00	 1.003000e+01
0	 3.185185e+00	 6.814815e+00	 1.002757e+01
0	 3.185185e+00	 6.888889e+00	 1.002531e+01
0	 3.185185e+00	 6.962963e+00	 1.002322e+01
0	 3.185185e+00	 7.037037e+00	 1.002131e+01
0	 3.259259e+00	 6.666667e+00	 1.004013e+01
0	 3.259259e+00	 6.740741e+00	 1.003726e+01
0	 3.259259e+00	 6.814815e+00	 1.003455e+01
0	 3.259259e+00	 6.888889e+00	 1.003201e+01
0	 3.259259e+00	 6.962963e+00	 1.002965e+01
0	 3.259259e+00	 7.037037e+00	 1.002747e+01
0	 3.333333e+00	 6.666667e+00	 1.004737e+01
0	 3.333333e+00	 6.740741e+00	 1.004423e+01
0	 3.333333e+00	 6.814815e+00	 1.004126e+01
0	 3.333333e+00	 6.888889e+00	 1.003846e+01
0	 3.333333e+00	 6.962963e+00	 1.003584e+01
0	 3.333333e+00	 7.037037e+00	 1.003341e+01
0	 2.962963e+00	 7.037037e+00	 1.000158e+01
0	 2.962963e+00	 7.111111e+00	 1.000067e+01
0	 2.962963e+00	 7.185185e+00	 9.999867e+00
0	 2.962963e+00	 7.259259e+00	 9.999165e+00
0	 2.962963e+00	 7.333333e+00	 9.998571e+00
0	 2.962963e+00	 7.407407e+00	 9.998090e+00
0	 3.037037e+00	 7.037037e+00	 1.000835e+01
0	 3.037037e+00	 7.111111e+00	 1.000714e+01
0	 3.037037e+00	 7.185185e+00	 1.000604e+01
0	 3.037037e+00	 7.259259e+00	 1.000506e+01
0	 3.037037e+00	 7.333333e+00	 1.000418e+01
0	 3.037037e+00	 7.407407e+00	 1.000342e+01
0	 3.111111e+00	 7.037037e+00	 1.001493e+01
0	 3.111111e+00	 7.111111e+00	 1.001344e+01
0	 3.111111e+00	 7.185185e+00	 1.001206e+01
0	 3.111111e+00	 7.259259e+00	 1.001079e+01
0	 3.111111e+00	 7.333333e+00	 1.000964e+01
0	 3.111111e+00	 7.407407e+00	 1.000862e+01
0	 3.185185e+00	 7.037037e+00	 1.002131e+01
0	 3.185185e+00	 7.111111e+00	 1.001954e+01
0	 3.185185e+00	 7.185185e+00	 1.001789e+01
0	 3.185185e+00	 7.259259e+00	 1.001636e+01
0	 3.185185e+00	 7.333333e+00	 1.001495e+01
0	 3.185185e+00	 7.407407e+00	 1.001367e+01
0	 3.259259e+00	 7.037037e+00	 1.002747e+01
0	 3.259259e+00	 7.111111e+00	 1.002544e+01
0	 3.259259e+00	 7.185185e+00	 1.002353e+01
0	 3.259259e+00	 7.259259e+00	 1.002175e+01
0	 3.259259e+00	 7.333333e+00	 1.002009e+01
0	 3.259259e+00	 7.407407e+00	 1.001857e+01
0	 3.333333e+00	 7.037037e+00	 1.003341e+01
0	 3.333333e+00	 7.111111e+00	 1.003113e+01
0	 3.333333e+00	 7.185185e+00	 1.002897e+01
0	 3.333333e+00	 7.259259e+00	 1.002694e+01
0	 3.333333e+00	 7.333333e+00	 1.002505e+01
0	 3.333333e+00	 7.407407e+00	 1.002329e+01
0	 2.962963e+00	 7.407407e+00	 9.998090e+00
0	 2.962963e+00	 7.481481e+00	 9.997697e+00
0	 2.962963e+00	 7.555556e+00	 9.997366e+00
0	 2.962963e+00	 7.629630e+00	 9.997100e+00
0	 2.962963e+00	 7.703704e+00	 9.996905e+00
0	 2.962963e+00	 7.777778e+00	 9.996785e+00
0	 3.037037e+00	 7.407407e+00	 1.000342e+01
0	 3.037037e+00	 7.481481e+00	 1.000276e+01
0	 3.037037e+00	 7.555556e+00	 1.000217e+01
0	 3.037037e+00	 7.629630e+00	 1.000165e+01
0	 3.037037e+00	 7.703704e+00	 1.000120e+01
0	 3.037037e+00	 7.777778e+00	 1.000084e+01
0	 3.111111e+00	 7.407407e+00	 1.000862e+01
0	 3.111111e+00	 7.481481e+00	 1.000770e+01
0	 3.111111e+00	 7.555556e+00	 1.000685e+01
0	 3.111111e+00	 7.629630e+00	 1.000608e+01
0	 3.111111e+00	 7.703704e+00	 1.000540e+01
0	 3.111111e+00	 7.777778e+00	 1.000480e+01
0	 3.185185e+00	 7.407407e+00	 1.001367e+01
0	 3.185185e+00	 7.481481e+00	 1.001250e+01
0	 3.185185e+00	 7.555556e+00	 1.001141e+01
0	 3.185185e+00	 7.629630e+00	 1.001040e+01
0	 3.185185e+00	 7.703704e+00	 1.000948e+01
0	 3.185185e+00	 7.777778e+00	 1.000865e+01
0	 3.259259e+00	 7.407407e+00	 1.001857e+01
0	 3.259259e+00	 7.481481e+00	 1.001715e+01
0	 3.259259e+00	 7.555556e+00	 1.001582e+01
0	 3.259259e+00	 7.629630e+00	 1.001459e+01
0	 3.259259e+00	 7.703704e+00	 1.001344e+01
0	 3.259259e+00	 7.777778e+00	 1.001239e+01
0	 3.333333e+00	 7.407407e+00	 1.002329e+01
0	 3.333333e+00	 7.481481e+00	 1.002165e+01
0	 3.333333e+00	 7.555556e+00	 1.002009e+01
0	 3.333333e+00	 7.629630e+00	 1.001863e+01
0	 3.333333e+00	 7.703704e+00	 1.001727e+01
0	 3.333333e+00	 7.777778e+00	 1.001601e+01
0	 2.962963e+00	 7.777778e+00	 9.996785e+00
0	 2.962963e+00	 7.851852e+00	 9.996718e+00
0	 2.962963e+00	 7.925926e+00	 9.996686e+00
0	 2.962963e+00	 8.000000e+00	 9.996692e+00
0	 2.962963e+00	 8.074074e+00	 9.996739e+00
0	 2.962963e+00	 8.148148e+00	 9.996831e+00
0	 3.037037e+00	 7.777778e+00	 1.000084e+01
0	 3.037037e+00	 7.851852e+00	 1.000053e+01
0	 3.037037e+00	 7.925926e+00	 1.000027e+01
0	 3.037037e+00	 8.000000e+00	 1.000005e+01
0	 3.037037e+00	 8.074074e+00	 9.999881e+00
0	 3.037037e+00	 8.148148e+00	 9.999760e+00
0	 3.111111e+00	 7.777778e+00	 1.000480e+01
0	 3.111111e+00	 7.851852e+00	 1.000426e+01
0	 3.111111e+00	 7.925926e+00	 1.000377e+01
0	 3.111111e+00	 8.000000e+00	 1.000334e+01
0	 3.111111e+00	 8.074074e+00	 1.000295e+01
0	 3.111111e+00	 8.148148e+00	 1.000263e+01
0	 3.185185e+00	 7.777778e+00	 1.000865e+01
0	 3.185185e+00	 7.851852e+00	 1.000789e+01
0	 3.185185e+00	 7.925926e+00	 1.000719e+01
0	 3.185185e+00	 8.000000e+00	 1.000654e+01
0	 3.185185e+00	 8.074074e+00	 1.000595e+01
0	 3.185185e+00	 8.148148e+00	 1.000542e+01
0	 3.259259e+00	 7.777778e+00	 1.001239e+01
0	 3.259259e+00	 7.851852e+00	 1.001142e+01
0	 3.259259e+00	 7.925926e+00	 1.001050e+01
0	 3.259259e+00	 8.000000e+00	 1.000965e+01
0	 3.259259e+00	 8.074074e+00	 1.000886e+01
0	 3.259259e+00	 8.148148e+00	 1.000814e+01
0	 3.333333e+00	 7.777778e+00	 1.001601e+01
0	 3.333333e+00	 7.851852e+00	 1.001483e+01
0	 3.333333e+00	 7.925926e+00	 1.001371e+01
0	 3.333333e+00	 8.000000e+00	 1.001266e+01
0	 3.333333e+00	 8.074074e+00	 1.001168e+01
0	 3.333333e+00	 8.148148e+00	 1.001077e+01
0	 2.962963e+00	 8.148148e+00	 9.996831e+00
0	 2.962963e+00	 8.222222e+00	 9.996951e+00
0	 2.962963e+00	 8.296296e+00	 9.997084e+00
0	 2.962963e+00	 8.370370e+00	 9.997233e+00
0	 2.962963e+00	 8.444444e+00	 9.997399e+00
0	 2.962963e+00	 8.518519e+00	 9.997586e+00
0	 3.037037e+00	 8.148148e+00	 9.999760e+00
0	 3.037037e+00	 8.222222e+00	 9.999675e+00
0	 3.037037e+00	 8.296296e+00	 9.999608e+00
0	 3.037037e+00	 8.370370e+00	 9.999564e+00
0	 3.037037e+00	 8.444444e+00	 9.999544e+00
0	 3.037037e+00	 8.518519e+00	 9.999550e+00
0	 3.111111e+00	 8.148148e+00	 1.000263e+01
0	 3.111111e+00	 8.222222e+00	 1.000234e+01
0	 3.111111e+00	 8.296296e+00	 1.000208e+01
0	 3.111111e+00	 8.370370e+00	 1.000185e+01
0	 3.111111e+00	 8.444444e+00	 1.000165e+01
0	 3.111111e+00	 8.518519e+00	 1.000148e+01
0	 3.185185e+00	 8.148148e+00	 1.000542e+01
0	 3.185185e+00	 8.222222e+00	 1.000494e+01
0	 3.185185e+00	 8.296296e+00	 1.000449e+01
0	 3.185185e+00	 8.370370e+00	 1.000408e+01
0	 3.185185e+00	 8.444444e+00	 1.000370e+01
0	 3.185185e+00	 8.518519e+00	 1.000336e+01
0	 3.259259e+00	 8.148148e+00	 1.000814e+01
0	 3.259259e+00	 8.222222e+00	 1.000747e+01
0	 3.259259e+00	 8.296296e+00	 1.000683e+01
0	 3.259259e+00	 8.370370e+00	 1.000624e+01
0	 3.259259e+00	 8.444444e+00	 1.000569e+01
0	 3.259259e+00	 8.518519e+00	 1.000518e+01
0	 3.333333e+00	 8.148148e+00	 1.001077e+01
0	 3.333333e+00	 8.222222e+00	 1.000991e+01
0	 3.333333e+00	 8.296296e+00	 1.000910e+01
0	 3.333333e+00	 8.370370e+00	 1.000834e+01
0	 3.333333e+00	 8.444444e+00	 1.000762e+01
0	 3.333333e+00	 8.518519e+00	 1.000695e+01
0	 2.962963e+00	 8.518519e+00	 9.997586e+00
0	 2.962963e+00	 8.592593e+00	 9.997782e+00
0	 2.962963e+00	 8.666667e+00	 9.997975e+00
0	 2.962963e+00	 8.740741e+00	 9.998167e+00
0	 2.962963e+00	 8.814815e+00	 9.998360e+00
0	 2.962963e+00	 8.888889e+00	 9.998555e+00
0	 3.037037e+00	 8.518519e+00	 9.999550e+00
0	 3.037037e+00	 8.592593e+00	 9.999573e+00
0	 3.037037e+00	 8.666667e+00	 9.999599e+00
0	 3.037037e+00	 8.740741e+00	 9.999632e+00
0	 3.037037e+00	 8.814815e+00	 9.999671e+00
0	 3.037037e+00	 8.888889e+00	 9.999720e+00
0	 3.111111e+00	 8.518519e+00	 1.000148e+01
0	 3.111111e+00	 8.592593e+00	 1.000133e+01
0	 3.111111e+00	 8.666667e+00	 1.000119e+01
0	 3.111111e+00	 8.740741e+00	 1.000107e+01
0	 3.111111e+00	 8.814815e+00	 1.000096e+01
0	 3.111111e+00	 8.888889e+00	 1.000087e+01
0	 3.185185e+00	 8.518519e+00	 1.000336e+01
0	 3.185185e+00	 8.592593e+00	 1.000304e+01
0	 3.185185e+00	 8.666667e+00	 1.000275e+01
0	 3.185185e+00	 8.740741e+00	 1.000247e+01
0	 3.185185e+00	 8.814815e+00	 1.000222e+01
0	 3.185185e+00	 8.888889e+00	 1.000198e+01
0	 3.259259e+00	 8.518519e+00	 1.000518e+01
0	 3.259259e+00	 8.592593e+00	 1.000471e+01
0	 3.259259e+00	 8.666667e+00	 1.000426e+01
0	 3.259259e+00	 8.740741e+00	 1.000384e+01
0	 3.259259e+00	 8.814815e+00	 1.000344e+01
0	 3.259259e+00	 8.888889e+00	 1.000307e+01
0	 3.333333e+00	 8.518519e+00	 1.000695e+01
0	 3.333333e+00	 8.592593e+00	 1.000632e+01
0	 3.333333e+00	 8.666667e+00	 1.000573e+01
0	 3.333333e+00	 8.740741e+00	 1.000516e+01
0	 3.333333e+00	 8.814815e+00	 1.000463e+01
0	 3.333333e+00	 8.888889e+00	 1.000412e+01
0	 2.962963e+00	 8.888889e+00	 9.998555e+00
0	 2.962963e+00	 8.962963e+00	 9.998745e+00
0	 2.962963e+00	 9.037037e+00	 9.998922e+00
0	 2.962963e+00	 9.111111e+00	 9.999087e+00
0	 2.962963e+00	 9.185185e+00	 9.999241e+00
0	 2.962963e+00	 9.259259e+00	 9.999384e+00
0	 3.037037e+00	 8.888889e+00	 9.999720e+00
0	 3.037037e+00	 8.962963e+00	 9.999771e+00
0	 3.037037e+00	 9.037037e+00	 9.999817e+00
0	 3.037037e+00	 9.111111e+00	 9.999859e+00
0	 3.037037e+00	 9.185185e+00	 9.999898e+00
0	 3.037037e+00	 9.259259e+00	 9.999932e+00
0	 3.111111e+00	 8.888889e+00	 1.000087e+01
0	 3.111111e+00	 8.962963e+00	 1.000078e+01
0	 3.111111e+00	 9.037037e+00	 1.000070e+01
0	 3.111111e+00	 9.111111e+00	 1.000062e+01
0	 3.111111e+00	 9.185185e+00	 1.000055e+01
0	 3.111111e+00	 9.259259e+00	 1.000047e+01
0	 3.185185e+00	 8.888889e+00	 1.000198e+01
0	 3.185185e+00	 8.962963e+00	 1.000177e+01
0	 3.185185e+00	 9.037037e+00	 1.000156e+01
0	 3.185185e+00	 9.111111e+00	 1.000137e+01
0	 3.185185e+00	 9.185185e+00	 1.000118e+01
0	 3.185185e+00	 9.259259e+00	 1.000101e+01
0	 3.259259e+00	 8.888889e+00	 1.000307e+01
0	 3.259259e+00	 8.962963e+00	 1.000273e+01
0	 3.259259e+00	 9.037037e+00	 1.000240e+01
0	 3.259259e+00	 9.111111e+00	 1.000209e+01
0	 3.259259e+00	 9.185185e+00	 1.000180e+01
0	 3.259259e+00	 9.259259e+00	 1.000152e+01
0	 3.333333e+00	 8.888889e+00	 1.000412e+01
0	 3.333333e+00	 8.962963e+00	 1.000365e+01
0	 3.333333e+00	 9.037037e+00	 1.000321e+01
0	 3.333333e+00	 9.111111e+00	 1.000279e+01
0	 3.333333e+00	 9.185185e+00	 1.000239e+01
0	 3.333333e+00	 9.259259e+00	 1.000202e+01
0	 2.962963e+00	 9.259259e+00	 9.999384e+00
0	 2.962963e+00	 9.333333e+00	 9.999514e+00
0	 2.962963e+00	 9.407407e+00	 9.999629e+00
0	 2.962963e+00	 9.481481e+00	 9.999727e+00
0	 2.962963e+00	 9.555556e+00	 9.999808e+00
0	 2.962963e+00	 9.629630e+00	 9.999871e+00
0	 3.037037e+00	 9.259259e+00	 9.999932e+00
0	 3.037037e+00	 9.333333e+00	 9.999962e+00
0	 3.037037e+00	 9.407407e+00	 9.999987e+00
0	 3.037037e+00	 9.481481e+00	 1.000000e+01
0	 3.037037e+00	 9.555556e+00	 1.000001e+01
0	 3.037037e+00	 9.629630e+00	 1.000001e+01
0	 3.111111e+00	 9.259259e+00	 1.000047e+01
0	 3.111111e+00	 9.333333e+00	 1.000041e+01
0	 3.111111e+00	 9.407407e+00	 1.000034e+01
0	 3.111111e+00	 9.481481e+00	 1.000028e+01
0	 3.111111e+00	 9.555556e+00	 1.000022e+01
0	 3.111111e+00	 9.629630e+00	 1.000016e+01
0	 3.185185e+00	 9.259259e+00	 1.000101e+01
0	 3.185185e+00	 9.333333e+00	 1.000084e+01
0	 3.185185e+00	 9.407407e+00	 1.000070e+01
0	 3.185185e+00	 9.481481e+00	 1.000056e+01
0	 3.185185e+00	 9.555556e+00	 1.000043e+01
0	 3.185185e+00	 9.629630e+00	 1.000031e+01
0	 3.259259e+00	 9.259259e+00	 1.000152e+01
0	 3.259259e+00	 9.333333e+00	 1.000127e+01
0	 3.259259e+00	 9.407407e+00	 1.000104e+01
0	 3.259259e+00	 9.481481e+00	 1.000082e+01
0	 3.259259e+00	 9.555556e+00	 1.000063e+01
0	 3.259259e+00	 9.629630e+00	 1.000045e+01
0	 3.333333e+00	 9.259259e+00	 1.000202e+01
0	 3.333333e+00	 9.333333e+00	 1.000167e+01
0	 3.333333e+00	 9.407407e+00	 1.000136e+01
0	 3.333333e+00	 9.481481e+00	 1.000107e+01
0	 3.333333e+00	 9.555556e+00	 1.000081e+01
0	 3.333333e+00	 9.629630e+00	 1.000058e+01
0	 2.962963e+00	 9.629630e+00	 9.999871e+00
0	 2.962963e+00	 9.703704e+00	 9.999921e+00
0	 2.962963e+00	 9.777778e+00	 9.999961e+00
0	 2.962963e+00	 9.851852e+00	 9.999987e+00
0	 2.962963e+00	 9.925926e+00	 9.999999e+00
0	 2.962963e+00	 1.000000e+01	 9.999993e+00
0	 3.037037e+00	 9.629630e+00	 1.000001e+01
0	 3.037037e+00	 9.703704e+00	 1.000001e+01
0	 3.037037e+00	 9.777778e+00	 1.000001e+01
0	 3.037037e+00	 9.851852e+00	 1.000001e+01
0	 3.037037e+00	 9.925926e+00	 9.999999e+00
0	 3.037037e+00	 1.000000e+01	 9.999984e+00
0	 3.111111e+00	 9.629630e+00	 1.000016e+01
0	 3.111111e+00	 9.703704e+00	 1.000011e+01
0	 3.111111e+00	 9.777778e+00	 1.000007e+01
0	 3.111111e+00	 9.851852e+00	 1.000003e+01
0	 3.111111e+00	 9.925926e+00	 1.000001e+01
0	 3.111111e+00	 1.000000e+01	 9.999985e+00
0	 3.185185e+00	 9.629630e+00	 1.000031e+01
0	 3.185185e+00	 9.703704e+00	 1.000020e+01
0	 3.185185e+00	 9.777778e+00	 1.000012e+01
0	 3.185185e+00	 9.851852e+00	 1.000006e+01
0	 3.185185e+00	 9.925926e+00	 1.000002e+01
0	 3.185185e+00	 1.000000e+01	 9.999990e+00
0	 3.259259e+00	 9.629630e+00	 1.000045e+01
0	 3.259259e+00	 9.703704e+00	 1.000029e+01
0	 3.259259e+00	 9.777778e+00	 1.000018e+01
0	 3.259259e+00	 9.851852e+00	 1.000009e+01
0	 3.259259e+00	 9.925926e+00	 1.000003e+01
0	 3.259259e+00	 1.000000e+01	 9.999992e+00
0	 3.333333e+00	 9.629630e+00	 1.000058e+01
0	 3.333333e+00	 9.703704e+00	 1.000038e+01
0	 3.333333e+00	 9.777778e+00	 1.000022e+01
0	 3.333333e+00	 9.851852e+00	 1.000011e+01
0	 3.333333e+00	 9.925926e+00	 1.000003e+01
0	 3.333333e+00	 1.000000e+01	 9.999985e+00
0	 3.333333e+00	 0.000000e+00	 1.076696e+01
0	 3.333333e+00	 7.407407e-02	 1.075995e+01
0	 3.333333e+00	 1.481481e-01	 1.075846e+01
0	 3.333333e+00	 2.222222e-01	 1.076166e+01
0	 3.333333e+00	 2.962963e-01	 1.076870e+01
0	 3.333333e+00	 3.703704e-01	 1.077875e+01
0	 3.407407e+00	 0.000000e+00	 1.075233e+01
0	 3.407407e+00	 7.407407e-02	 1.074572e+01
0	 3.407407e+00	 1.481481e-01	 1.074228e+01
0	 3.407407e+00	 2.222222e-01	 1.074191e+01
0	 3.407407e+00	 2.962963e-01	 1.074453e+01
0	 3.407407e+00	 3.703704e-01	 1.075003e+01
0	 3.481481e+00	 0.000000e+00	 1.072269e+01
0	 3.481481e+00	 7.407407e-02	 1.071886e+01
0	 3.481481e+00	 1.481481e-01	 1.071650e+01
0	 3.481481e+00	 2.222222e-01	 1.071605e+01
0	 3.481481e+00	 2.962963e-01	 1.071792e+01
0	 3.481481e+00	 3.703704e-01	 1.072254e+01
0	 3.555556e+00	 0.000000e+00	 1.068390e+01
0	 3.555556e+00	 7.407407e-02	 1.068386e+01
0	 3.555556e+00	 1.481481e-01	 1.068432e+01
0	 3.555556e+00	 2.222222e-01	 1.068596e+01
0	 3.555556e+00	 2.962963e-01	 1.068947e+01
0	 3.555556e+00	 3.703704e-01	 1.069556e+01
0	 3.629630e+00	 0.000000e+00	 1.064179e+01
0	 3.629630e+00	 7.407407e-02	 1.064524e+01
0	 3.629630e+00	 1.481481e-01	 1.064890e+01
0	 3.629630e+00	 2.222222e-01	 1.065350e+01
0	 3.629630e+00	 2.962963e-01	 1.065975e+01
0	 3.629630e+00	 3.703704e-01	 1.066839e+01
0	 3.703704e+00	 0.000000e+00	 1.060219e+01
0	 3.703704e+00	 7.407407e-02	 1.060749e+01
0	 3.703704e+00	 1.481481e-01	 1.061343e+01
0	 3.703704e+00	 2.222222e-01	 1.062054e+01
0	 3.703704e+00	 2.962963e-01	 1.062934e+01
0	 3.703704e+00	 3.703704e-01	 1.064035e+01
0	 3.333333e+00	 3.703704e-01	 1.077875e+01
0	 3.333333e+00	 4.444444e-01	 1.079059e+01
0	 3.333333e+00	 5.185185e-01	 1.080409e+01
0	 3.333333e+00	 5.925926e-01	 1.082003e+01
0	 3.333333e+00	 6.666667e-01	 1.083917e+01
0	 3.333333e+00	 7.407407e-01	 1.086228e+01
0	 3.407407e+00	 3.703704e-01	 1.075003e+01
0	 3.407407e+00	 4.444444e-01	 1.075815e+01
0	 3.407407e+00	 5.185185e-01	 1.076900e+01
0	 3.407407e+00	 5.925926e-01	 1.078306e+01
0	 3.407407e+00	 6.666667e-01	 1.080084e+01
0	 3.407407e+00	 7.407407e-01	 1.082282e+01
0	 3.481481e+00	 3.703704e-01	 1.072254e+01
0	 3.481481e+00	 4.444444e-01	 1.072992e+01
0	 3.481481e+00	 5.185185e-01	 1.074001e+01
0	 3.481481e+00	 5.925926e-01	 1.075311e+01
0	 3.481481e+00	 6.666667e-01	 1.076950e+01
0	 3.481481e+00	 7.407407e-01	 1.078949e+01
0	 3.555556e+00	 3.703704e-01	 1.069556e+01
0	 3.555556e+00	 4.444444e-01	 1.070410e+01
0	 3.555556e+00	 5.185185e-01	 1.071466e+01
0	 3.555556e+00	 5.925926e-01	 1.072739e+01
0	 3.555556e+00	 6.666667e-01	 1.074248e+01
0	 3.555556e+00	 7.407407e-01	 1.076008e+01
0	 3.629630e+00	 3.703704e-01	 1.066839e+01
0	 3.629630e+00	 4.444444e-01	 1.067893e+01
0	 3.629630e+00	 5.185185e-01	 1.069048e+01
0	 3.629630e+00	 5.925926e-01	 1.070316e+01
0	 3.629630e+00	 6.666667e-01	 1.071709e+01
0	 3.629630e+00	 7.407407e-01	 1.073241e+01
0	 3.703704e+00	 3.703704e-01	 1.064035e+01
0	 3.703704e+00	 4.444444e-01	 1.065263e+01
0	 3.703704e+00	 5.185185e-01	 1.066501e+01
0	 3.703704e+00	 5.925926e-01	 1.067764e+01
0	 3.703704e+00	 6.666667e-01	 1.069067e+01
0	 3.703704e+00	 7.407407e-01	 1.070427e+01
0	 3.333333e+00	 7.407407e-01	 1.086228e+01
0	 3.333333e+00	 8.148148e-01	 1.088635e+01
0	 3.333333e+00	 8.888889e-01	 1.090813e+01
0	 3.333333e+00	 9.629630e-01	 1.092805e+01
0	 3.333333e+00	 1.037037e+00	 1.094654e+01
0	 3.333333e+00	 1.111111e+00	 1.096404e+01
0	 3.407407e+00	 7.407407e-01	 1.082282e+01
0	 3.407407e+00	 8.148148e-01	 1.084579e+01
0	 3.407407e+00	 8.888889e-01	 1.086653e+01
0	 3.407407e+00	 9.629630e-01	 1.088554e+01
0	 3.407407e+00	 1.037037e+00	 1.090331e+01
0	 3.407407e+00	 1.111111e+00	 1.092036e+01
0	 3.481481e+00	 7.407407e-01	 1.078949e+01
0	 3.481481e+00	 8.148148e-01	 1.081025e+01
0	 3.481481e+00	 8.888889e-01	 1.082913e+01
0	 3.481481e+00	 9.629630e-01	 1.084665e+01
0	 3.481481e+00	 1.037037e+00	 1.086335e+01
0	 3.481481e+00	 1.111111e+00	 1.087974e+01
0	 3.555556e+00	 7.407407e-01	 1.076008e+01
0	 3.555556e+00	 8.148148e-01	 1.077814e+01
0	 3.555556e+00	 8.888889e-01	 1.079484e+01
0	 3.555556e+00	 9.629630e-01	 1.081068e+01
0	 3.555556e+00	 1.037037e+00	 1.082617e+01
0	 3.555556e+00	 1.111111e+00	 1.084184e+01
0	 3.629630e+00	 7.407407e-01	 1.073241e+01
0	 3.629630e+00	 8.148148e-01	 1.074789e+01
0	 3.629630e+00	 8.888889e-01	 1.076257e+01
0	 3.629630e+00	 9.629630e-01	 1.077689e+01
0	 3.629630e+00	 1.037037e+00	 1.079133e+01
0	 3.629630e+00	 1.111111e+00	 1.080633e+01
0	 3.703704e+00	 7.407407e-01	 1.070427e+01
0	 3.703704e+00	 8.148148e-01	 1.071791e+01
0	 3.703704e+00	 8.888889e-01	 1.073122e+01
0	 3.703704e+00	 9.629630e-01	 1.074457e+01
0	 3.703704e+00	 1.037037e+00	 1.075833e+01
0	 3.703704e+00	 1.111111e+00	 1.077286e+01
0	 3.333333e+00	 1.111111e+00	 1.096404e+01
0	 3.333333e+00	 1.185185e+00	 1.097968e+01
0	 3.333333e+00	 1.259259e+00	 1.099251e+01
0	 3.333333e+00	 1.333333e+00	 1.100284e+01
0	 3.333333e+00	 1.407407e+00	 1.101100e+01
0	 3.333333e+00	 1.481481e+00	 1.101731e+01
0	 3.407407e+00	 1.111111e+00	 1.092036e+01
0	 3.407407e+00	 1.185185e+00	 1.093590e+01
0	 3.407407e+00	 1.259259e+00	 1.094896e+01
0	 3.407407e+00	 1.333333e+00	 1.095980e+01
0	 3.407407e+00	 1.407407e+00	 1.096867e+01
0	 3.407407e+00	 1.481481e+00	 1.097581e+01
0	 3.481481e+00	 1.111111e+00	 1.087974e+01
0	 3.481481e+00	 1.185185e+00	 1.089501e+01
0	 3.481481e+00	 1.259259e+00	 1.090812e+01
0	 3.481481e+00	 1.333333e+00	 1.091926e+01
0	 3.481481e+00	 1.407407e+00	 1.092864e+01
0	 3.481481e+00	 1.481481e+00	 1.093646e+01
0	 3.555556e+00	 1.111111e+00	 1.084184e+01
0	 3.555556e+00	 1.185185e+00	 1.085675e+01
0	 3.555556e+00	 1.259259e+00	 1.086975e+01
0	 3.555556e+00	 1.333333e+00	 1.088102e+01
0	 3.555556e+00	 1.407407e+00	 1.089074e+01
0	 3.555556e+00	 1.481481e+00	 1.089909e+01
0	 3.629630e+00	 1.111111e+00	 1.080633e+01
0	 3.629630e+00	 1.185185e+00	 1.082084e+01
0	 3.629630e+00	 1.259259e+00	 1.083364e+01
0	 3.629630e+00	 1.333333e+00	 1.084489e+01
0	 3.629630e+00	 1.407407e+00	 1.085479e+01
0	 3.629630e+00	 1.481481e+00	 1.086350e+01
0	 3.703704e+00	 1.111111e+00	 1.077286e+01
0	 3.703704e+00	 1.185185e+00	 1.078701e+01
0	 3.703704e+00	 1.259259e+00	 1.079955e+01
0	 3.703704e+00	 1.333333e+00	 1.081068e+01
0	 3.703704e+00	 1.407407e+00	 1.082060e+01
0	 3.703704e+00	 1.481481e+00	 1.082952e+01
0	 3.333333e+00	 1.481481e+00	 1.101731e+01
0	 3.333333e+00	 1.555556e+00	 1.102139e+01
0	 3.333333e+00	 1.629630e+00	 1.102274e+01
0	 3.333333e+00	 1.703704e+00	 1.102150e+01
0	 3.333333e+00	 1.777778e+00	 1.101781e+01
0	 3.333333e+00	 1.851852e+00	 1.101179e+01
0	 3.407407e+00	 1.481481e+00	 1.097581e+01
0	 3.407407e+00	 1.555556e+00	 1.098089e+01
0	 3.407407e+00	 1.629630e+00	 1.098351e+01
0	 3.407407e+00	 1.703704e+00	 1.098378e+01
0	 3.407407e+00	 1.777778e+00	 1.098181e+01
0	 3.407407e+00	 1.851852e+00	 1.097771e+01
0	 3.481481e+00	 1.481481e+00	 1.093646e+01
0	 3.481481e+00	 1.555556e+00	 1.094240e+01
0	 3.481481e+00	 1.629630e+00	 1.094606e+01
0	 3.481481e+00	 1.703704e+00	 1.094756e+01
0	 3.481481e+00	 1.777778e+00	 1.094698e+01
0	 3.481481e+00	 1.851852e+00	 1.094444e+01
0	 3.555556e+00	 1.481481e+00	 1.089909e+01
0	 3.555556e+00	 1.555556e+00	 1.090571e+01
0	 3.555556e+00	 1.629630e+00	 1.091022e+01
0	 3.555556e+00	 1.703704e+00	 1.091271e+01
0	 3.555556e+00	 1.777778e+00	 1.091326e+01
0	 3.555556e+00	 1.851852e+00	 1.091197e+01
0	 3.629630e+00	 1.481481e+00	 1.086350e+01
0	 3.629630e+00	 1.555556e+00	 1.087066e+01
0	 3.629630e+00	 1.629630e+00	 1.087583e+01
0	 3.629630e+00	 1.703704e+00	 1.087911e+01
0	 3.629630e+00	 1.777778e+00	 1.088058e+01
0	 3.629630e+00	 1.851852e+00	 1.088032e+01
0	 3.703704e+00	 1.481481e+00	 1.082952e+01
0	 3.703704e+00	 1.555556e+00	 1.083705e+01
0	 3.703704e+00	 1.629630e+00	 1.084272e+01
0	 3.703704e+00	 1.703704e+00	 1.084663e+01
0	 3.703704e+00	 1.777778e+00	 1.084885e+01
0	 3.703704e+00	 1.851852e+00	 1.084948e+01
0	 3.333333e+00	 1.851852e+00	 1.101179e+01
0	 3.333333e+00	 1.925926e+00	 1.100373e+01
0	 3.333333e+00	 2.000000e+00	 1.099371e+01
0	 3.333333e+00	 2.074074e+00	 1.098162e+01
0	 3.333333e+00	 2.148148e+00	 1.096734e+01
0	 3.333333e+00	 2.222222e+00	 1.095073e+01
0	 3.407407e+00	 1.851852e+00	 1.097771e+01
0	 3.407407e+00	 1.925926e+00	 1.097160e+01
0	 3.407407e+00	 2.000000e+00	 1.096346e+01
0	 3.407407e+00	 2.074074e+00	 1.095322e+01
0	 3.407407e+00	 2.148148e+00	 1.094084e+01
0	 3.407407e+00	 2.222222e+00	 1.092623e+01
0	 3.481481e+00	 1.851852e+00	 1.094444e+01
0	 3.481481e+00	 1.925926e+00	 1.093994e+01
0	 3.481481e+00	 2.000000e+00	 1.093343e+01
0	 3.481481e+00	 2.074074e+00	 1.092488e+01
0	 3.481481e+00	 2.148148e+00	 1.091429e+01
0	 3.481481e+00	 2.222222e+00	 1.090163e+01
0	 3.555556e+00	 1.851852e+00	 1.091197e+01
0	 3.555556e+00	 1.925926e+00	 1.090882e+01
0	 3.555556e+00	 2.000000e+00	 1.090374e+01
0	 3.555556e+00	 2.074074e+00	 1.089673e+01
0	 3.555556e+00	 2.148148e+00	 1.088783e+01
0	 3.555556e+00	 2.222222e+00	 1.087704e+01
0	 3.629630e+00	 1.851852e+00	 1.088032e+01
0	 3.629630e+00	 1.925926e+00	 1.087832e+01
0	 3.629630e+00	 2.000000e+00	 1.087451e+01
0	 3.629630e+00	 2.074074e+00	 1.086892e+01
0	 3.629630e+00	 2.148148e+00	 1.086159e+01
0	 3.629630e+00	 2.222222e+00	 1.085254e+01
0	 3.703704e+00	 1.851852e+00	 1.084948e+01
0	 3.703704e+00	 1.925926e+00	 1.084850e+01
0	 3.703704e+00	 2.000000e+00	 1.084586e+01
0	 3.703704e+00	 2.074074e+00	 1.084159e+01
0	 3.703704e+00	 2.148148e+00	 1.083571e+01
0	 3.703704e+00	 2.222222e+00	 1.082825e+01
0	 3.333333e+00	 2.222222e+00	 1.095073e+01
0	 3.333333e+00	 2.296296e+00	 1.093247e+01
0	 3.333333e+00	 2.370370e+00	 1.091327e+01
0	 3.333333e+00	 2.444444e+00	 1.089303e+01
0	 3.333333e+00	 2.518519e+00	 1.087166e+01
0	 3.333333e+00	 2.592593e+00	 1.084908e+01
0	 3.407407e+00	 2.222222e+00	 1.092623e+01
0	 3.407407e+00	 2.296296e+00	 1.091008e+01
0	 3.407407e+00	 2.370370e+00	 1.089302e+01
0	 3.407407e+00	 2.444444e+00	 1.087495e+01
0	 3.407407e+00	 2.518519e+00	 1.085576e+01
0	 3.407407e+00	 2.592593e+00	 1.083535e+01
0	 3.481481e+00	 2.222222e+00	 1.090163e+01
0	 3.481481e+00	 2.296296e+00	 1.088751e+01
0	 3.481481e+00	 2.370370e+00	 1.087246e+01
0	 3.481481e+00	 2.444444e+00	 1.085637e+01
0	 3.481481e+00	 2.518519e+00	 1.083912e+01
0	 3.481481e+00	 2.592593e+00	 1.082060e+01
0	 3.555556e+00	 2.222222e+00	 1.087704e+01
0	 3.555556e+00	 2.296296e+00	 1.086484e+01
0	 3.555556e+00	 2.370370e+00	 1.085166e+01
0	 3.555556e+00	 2.444444e+00	 1.083736e+01
0	 3.555556e+00	 2.518519e+00	 1.082186e+01
0	 3.555556e+00	 2.592593e+00	 1.080502e+01
0	 3.629630e+00	 2.222222e+00	 1.085254e+01
0	 3.629630e+00	 2.296296e+00	 1.084214e+01
0	 3.629630e+00	 2.370370e+00	 1.083066e+01
0	 3.629630e+00	 2.444444e+00	 1.081800e+01
0	 3.629630e+00	 2.518519e+00	 1.080408e+01
0	 3.629630e+00	 2.592593e+00	 1.078877e+01
0	 3.703704e+00	 2.222222e+00	 1.082825e+01
0	 3.703704e+00	 2.296296e+00	 1.081947e+01
0	 3.703704e+00	 2.370370e+00	 1.080953e+01
0	 3.703704e+00	 2.444444e+00	 1.079836e+01
0	 3.703704e+00	 2.518519e+00	 1.078589e+01
0	 3.703704e+00	 2.592593e+00	 1.077203e+01
0	 3.333333e+00	 2.592593e+00	 1.084908e+01
0	 3.333333e+00	 2.666667e+00	 1.082577e+01
0	 3.333333e+00	 2.740741e+00	 1.080217e+01
0	 3.333333e+00	 2.814815e+00	 1.077812e+01
0	 3.333333e+00	 2.888889e+00	 1.075349e+01
0	 3.333333e+00	 2.962963e+00	 1.072812e+01
0	 3.407407e+00	 2.592593e+00	 1.083535e+01
0	 3.407407e+00	 2.666667e+00	 1.081411e+01
0	 3.407407e+00	 2.740741e+00	 1.079242e+01
0	 3.407407e+00	 2.814815e+00	 1.077017e+01
0	 3.407407e+00	 2.888889e+00	 1.074725e+01
0	 3.407407e+00	 2.962963e+00	 1.072354e+01
0	 3.481481e+00	 2.592593e+00	 1.082060e+01
0	 3.481481e+00	 2.666667e+00	 1.080118e+01
0	 3.481481e+00	 2.740741e+00	 1.078125e+01
0	 3.481481e+00	 2.814815e+00	 1.076070e+01
0	 3.481481e+00	 2.888889e+00	 1.073945e+01
0	 3.481481e+00	 2.962963e+00	 1.071740e+01
0	 3.555556e+00	 2.592593e+00	 1.080502e+01
0	 3.555556e+00	 2.666667e+00	 1.078724e+01
0	 3.555556e+00	 2.740741e+00	 1.076892e+01
0	 3.555556e+00	 2.814815e+00	 1.074998e+01
0	 3.555556e+00	 2.888889e+00	 1.073036e+01
0	 3.555556e+00	 2.962963e+00	 1.070996e+01
0	 3.629630e+00	 2.592593e+00	 1.078877e+01
0	 3.629630e+00	 2.666667e+00	 1.077251e+01
0	 3.629630e+00	 2.740741e+00	 1.075571e+01
0	 3.629630e+00	 2.814815e+00	 1.073831e+01
0	 3.629630e+00	 2.888889e+00	 1.072025e+01
0	 3.629630e+00	 2.962963e+00	 1.070145e+01
0	 3.703704e+00	 2.592593e+00	 1.077203e+01
0	 3.703704e+00	 2.666667e+00	 1.075722e+01
0	 3.703704e+00	 2.740741e+00	 1.074189e+01
0	 3.703704e+00	 2.814815e+00	 1.072598e+01
0	 3.703704e+00	 2.888889e+00	 1.070941e+01
0	 3.703704e+00	 2.962963e+00	 1.069212e+01
0	 3.333333e+00	 2.962963e+00	 1.072812e+01
0	 3.333333e+00	 3.037037e+00	 1.070256e+01
0	 3.333333e+00	 3.111111e+00	 1.067736e+01
0	 3.333333e+00	 3.185185e+00	 1.065246e+01
0	 3.333333e+00	 3.259259e+00	 1.062775e+01
0	 3.333333e+00	 3.333333e+00	 1.060316e+01
0	 3.407407e+00	 2.962963e+00	 1.072354e+01
0	 3.407407e+00	 3.037037e+00	 1.069958e+01
0	 3.407407e+00	 3.111111e+00	 1.067593e+01
0	 3.407407e+00	 3.185185e+00	 1.065248e+01
0	 3.407407e+00	 3.259259e+00	 1.062915e+01
0	 3.407407e+00	 3.333333e+00	 1.060584e+01
0	 3.481481e+00	 2.962963e+00	 1.071740e+01
0	 3.481481e+00	 3.037037e+00	 1.069507e+01
0	 3.481481e+00	 3.111111e+00	 1.067294e+01
0	 3.481481e+00	 3.185185e+00	 1.065092e+01
0	 3.481481e+00	 3.259259e+00	 1.062891e+01
0	 3.481481e+00	 3.333333e+00	 1.060680e+01
0	 3.555556e+00	 2.962963e+00	 1.070996e+01
0	 3.555556e+00	 3.037037e+00	 1.068923e+01
0	 3.555556e+00	 3.111111e+00	 1.066860e+01
0	 3.555556e+00	 3.185185e+00	 1.064796e+01
0	 3.555556e+00	 3.259259e+00	 1.062720e+01
0	 3.555556e+00	 3.333333e+00	 1.060624e+01
0	 3.629630e+00	 2.962963e+00	 1.070145e+01
0	 3.629630e+00	 3.037037e+00	 1.068228e+01
0	 3.629630e+00	 3.111111e+00	 1.066307e+01
0	 3.629630e+00	 3.185185e+00	 1.064375e+01
0	 3.629630e+00	 3.259259e+00	 1.062421e+01
0	 3.629630e+00	 3.333333e+00	 1.060436e+01
0	 3.703704e+00	 2.962963e+00	 1.069212e+01
0	 3.703704e+00	 3.037037e+00	 1.067440e+01
0	 3.703704e+00	 3.111111e+00	 1.065654e+01
0	 3.703704e+00	 3.185185e+00	 1.063847e+01
0	 3.703704e+00	 3.259259e+00	 1.062009e+01
0	 3.703704e+00	 3.333333e+00	 1.060133e+01
0	 3.333333e+00	 3.333333e+00	 1.060316e+01
0	 3.333333e+00	 3.407407e+00	 1.057890e+01
0	 3.333333e+00	 3.481481e+00	 1.055519e+01
0	 3.333333e+00	 3.555556e+00	 1.053196e+01
0	 3.333333e+00	 3.629630e+00	 1.050914e+01
0	 3.333333e+00	 3.703704e+00	 1.048665e+01
0	 3.407407e+00	 3.333333e+00	 1.060584e+01
0	 3.407407e+00	 3.407407e+00	 1.058274e+01
0	 3.407407e+00	 3.481481e+00	 1.056008e+01
0	 3.407407e+00	 3.555556e+00	 1.053780e+01
0	 3.407407e+00	 3.629630e+00	 1.051583e+01
0	 3.407407e+00	 3.703704e+00	 1.049411e+01
0	 3.481481e+00	 3.333333e+00	 1.060680e+01
0	 3.481481e+00	 3.407407e+00	 1.058481e+01
0	 3.481481e+00	 3.481481e+00	 1.056318e+01
0	 3.481481e+00	 3.555556e+00	 1.054185e+01
0	 3.481481e+00	 3.629630e+00	 1.052077e+01
0	 3.481481e+00	 3.703704e+00	 1.049988e+01
0	 3.555556e+00	 3.333333e+00	 1.060624e+01
0	 3.555556e+00	 3.407407e+00	 1.058531e+01
0	 3.555556e+00	 3.481481e+00	 1.056469e+01
0	 3.555556e+00	 3.555556e+00	 1.054432e+01
0	 3.555556e+00	 3.629630e+00	 1.052416e+01
0	 3.555556e+00	 3.703704e+00	 1.050414e+01
0	 3.629630e+00	 3.333333e+00	 1.060436e+01
0	 3.629630e+00	 3.407407e+00	 1.058447e+01
0	 3.629630e+00	 3.481481e+00	 1.056485e+01
0	 3.629630e+00	 3.555556e+00	 1.054544e+01
0	 3.629630e+00	 3.629630e+00	 1.052620e+01
0	 3.629630e+00	 3.703704e+00	 1.050707e+01
0	 3.703704e+00	 3.333333e+00	 1.060133e+01
0	 3.703704e+00	 3.407407e+00	 1.058249e+01
0	 3.703704e+00	 3.481481e+00	 1.056387e+01
0	 3.703704e+00	 3.555556e+00	 1.054543e+01
0	 3.703704e+00	 3.629630e+00	 1.052710e+01
0	 3.703704e+00	 3.703704e+00	 1.050885e+01
0	 3.333333e+00	 3.703704e+00	 1.048665e+01
0	 3.333333e+00	 3.777778e+00	 1.046467e+01
0	 3.333333e+00	 3.851852e+00	 1.044343e+01
0	 3.333333e+00	 3.925926e+00	 1.042288e+01
0	 3.333333e+00	 4.000000e+00	 1.040298e+01
0	 3.333333e+00	 4.074074e+00	 1.038372e+01
0	 3.407407e+00	 3.703704e+00	 1.049411e+01
0	 3.407407e+00	 3.777778e+00	 1.047285e+01
0	 3.407407e+00	 3.851852e+00	 1.045226e+01
0	 3.407407e+00	 3.925926e+00	 1.043230e+01
0	 3.407407e+00	 4.000000e+00	 1.041293e+01
0	 3.407407e+00	 4.074074e+00	 1.039411e+01
0	 3.481481e+00	 3.703704e+00	 1.049988e+01
0	 3.481481e+00	 3.777778e+00	 1.047939e+01
0	 3.481481e+00	 3.851852e+00	 1.045951e+01
0	 3.481481e+00	 3.925926e+00	 1.044018e+01
0	 3.481481e+00	 4.000000e+00	 1.042136e+01
0	 3.481481e+00	 4.074074e+00	 1.040300e+01
0	 3.555556e+00	 3.703704e+00	 1.050414e+01
0	 3.555556e+00	 3.777778e+00	 1.048447e+01
0	 3.555556e+00	 3.851852e+00	 1.046531e+01
0	 3.555556e+00	 3.925926e+00	 1.044663e+01
0	 3.555556e+00	 4.000000e+00	 1.042838e+01
0	 3.555556e+00	 4.074074e+00	 1.041050e+01
0	 3.629630e+00	 3.703704e+00	 1.050707e+01
0	 3.629630e+00	 3.777778e+00	 1.048822e+01
0	 3.629630e+00	 3.851852e+00	 1.046981e+01
0	 3.629630e+00	 3.925926e+00	 1.045179e+01
0	 3.629630e+00	 4.000000e+00	 1.043411e+01
0	 3.629630e+00	 4.074074e+00	 1.041673e+01
0	 3.703704e+00	 3.703704e+00	 1.050885e+01
0	 3.703704e+00	 3.777778e+00	 1.049080e+01
0	 3.703704e+00	 3.851852e+00	 1.047312e+01
0	 3.703704e+00	 3.925926e+00	 1.045576e+01
0	 3.703704e+00	 4.000000e+00	 1.043866e+01
0	 3.703704e+00	 4.074074e+00	 1.042180e+01
0	 3.333333e+00	 4.074074e+00	 1.038372e+01
0	 3.333333e+00	 4.148148e+00	 1.036510e+01
0	 3.333333e+00	 4.222222e+00	 1.034715e+01
0	 3.333333e+00	 4.296296e+00	 1.032985e+01
0	 3.333333e+00	 4.370370e+00	 1.031319e+01
0	 3.333333e+00	 4.444444e+00	 1.029712e+01
0	 3.407407e+00	 4.074074e+00	 1.039411e+01
0	 3.407407e+00	 4.148148e+00	 1.037587e+01
0	 3.407407e+00	 4.222222e+00	 1.035823e+01
0	 3.407407e+00	 4.296296e+00	 1.034120e+01
0	 3.407407e+00	 4.370370e+00	 1.032473e+01
0	 3.407407e+00	 4.444444e+00	 1.030883e+01
0	 3.481481e+00	 4.074074e+00	 1.040300e+01
0	 3.481481e+00	 4.148148e+00	 1.038515e+01
0	 3.481481e+00	 4.222222e+00	 1.036787e+01
0	 3.481481e+00	 4.296296e+00	 1.035113e+01
0	 3.481481e+00	 4.370370e+00	 1.033493e+01
0	 3.481481e+00	 4.444444e+00	 1.031923e+01
0	 3.555556e+00	 4.074074e+00	 1.041050e+01
0	 3.555556e+00	 4.148148e+00	 1.039307e+01
0	 3.555556e+00	 4.222222e+00	 1.037616e+01
0	 3.555556e+00	 4.296296e+00	 1.035977e+01
0	 3.555556e+00	 4.370370e+00	 1.034387e+01
0	 3.555556e+00	 4.444444e+00	 1.032844e+01
0	 3.629630e+00	 4.074074e+00	 1.041673e+01
0	 3.629630e+00	 4.148148e+00	 1.039974e+01
0	 3.629630e+00	 4.222222e+00	 1.038324e+01
0	 3.629630e+00	 4.296296e+00	 1.036722e+01
0	 3.629630e+00	 4.370370e+00	 1.035166e+01
0	 3.629630e+00	 4.444444e+00	 1.033653e+01
0	 3.703704e+00	 4.074074e+00	 1.042180e+01
0	 3.703704e+00	 4.148148e+00	 1.040528e+01
0	 3.703704e+00	 4.222222e+00	 1.038922e+01
0	 3.703704e+00	 4.296296e+00	 1.037360e+01
0	 3.703704e+00	 4.370370e+00	 1.035840e+01
0	 3.703704e+00	 4.444444e+00	 1.034360e+01
0	 3.333333e+00	 4.444444e+00	 1.029712e+01
0	 3.333333e+00	 4.518519e+00	 1.028168e+01
0	 3.333333e+00	 4.592593e+00	 1.026688e+01
0	 3.333333e+00	 4.666667e+00	 1.025271e+01
0	 3.333333e+00	 4.740741e+00	 1.023917e+01
0	 3.333333e+00	 4.814815e+00	 1.022625e+01
0	 3.407407e+00	 4.444444e+00	 1.030883e+01
0	 3.407407e+00	 4.518519e+00	 1.029350e+01
0	 3.407407e+00	 4.592593e+00	 1.027879e+01
0	 3.407407e+00	 4.666667e+00	 1.026468e+01
0	 3.407407e+00	 4.740741e+00	 1.025116e+01
0	 3.407407e+00	 4.814815e+00	 1.023823e+01
0	 3.481481e+00	 4.444444e+00	 1.031923e+01
0	 3.481481e+00	 4.518519e+00	 1.030408e+01
0	 3.481481e+00	 4.592593e+00	 1.028951e+01
0	 3.481481e+00	 4.666667e+00	 1.027551e+01
0	 3.481481e+00	 4.740741e+00	 1.026206e+01
0	 3.481481e+00	 4.814815e+00	 1.024914e+01
0	 3.555556e+00	 4.444444e+00	 1.032844e+01
0	 3.555556e+00	 4.518519e+00	 1.031351e+01
0	 3.555556e+00	 4.592593e+00	 1.029913e+01
0	 3.555556e+00	 4.666667e+00	 1.028527e+01
0	 3.555556e+00	 4.740741e+00	 1.027191e+01
0	 3.555556e+00	 4.814815e+00	 1.025905e+01
0	 3.629630e+00	 4.444444e+00	 1.033653e+01
0	 3.629630e+00	 4.518519e+00	 1.032186e+01
0	 3.629630e+00	 4.592593e+00	 1.030770e+01
0	 3.629630e+00	 4.666667e+00	 1.029401e+01
0	 3.629630e+00	 4.740741e+00	 1.028078e+01
0	 3.629630e+00	 4.814815e+00	 1.026800e+01
0	 3.703704e+00	 4.444444e+00	 1.034360e+01
0	 3.703704e+00	 4.518519e+00	 1.032921e+01
0	 3.703704e+00	 4.592593e+00	 1.031528e+01
0	 3.703704e+00	 4.666667e+00	 1.030178e+01
0	 3.703704e+00	 4.740741e+00	 1.028871e+01
0	 3.703704e+00	 4.814815e+00	 1.027604e+01
0	 3.333333e+00	 4.814815e+00	 1.022625e+01
0	 3.333333e+00	 4.888889e+00	 1.021391e+01
0	 3.333333e+00	 4.962963e+00	 1.020210e+01
0	 3.333333e+00	 5.037037e+00	 1.019082e+01
0	 3.333333e+00	 5.111111e+00	 1.018008e+01
0	 3.333333e+00	 5.185185e+00	 1.016986e+01
0	 3.407407e+00	 4.814815e+00	 1.023823e+01
0	 3.407407e+00	 4.888889e+00	 1.022584e+01
0	 3.407407e+00	 4.962963e+00	 1.021395e+01
0	 3.407407e+00	 5.037037e+00	 1.020258e+01
0	 3.407407e+00	 5.111111e+00	 1.019171e+01
0	 3.407407e+00	 5.185185e+00	 1.018135e+01
0	 3.481481e+00	 4.814815e+00	 1.024914e+01
0	 3.481481e+00	 4.888889e+00	 1.023674e+01
0	 3.481481e+00	 4.962963e+00	 1.022482e+01
0	 3.481481e+00	 5.037037e+00	 1.021339e+01
0	 3.481481e+00	 5.111111e+00	 1.020244e+01
0	 3.481481e+00	 5.185185e+00	 1.019198e+01
0	 3.555556e+00	 4.814815e+00	 1.025905e+01
0	 3.555556e+00	 4.888889e+00	 1.024666e+01
0	 3.555556e+00	 4.962963e+00	 1.023475e+01
0	 3.555556e+00	 5.037037e+00	 1.022330e+01
0	 3.555556e+00	 5.111111e+00	 1.021232e+01
0	 3.555556e+00	 5.185185e+00	 1.020180e+01
0	 3.629630e+00	 4.814815e+00	 1.026800e+01
0	 3.629630e+00	 4.888889e+00	 1.025567e+01
0	 3.629630e+00	 4.962963e+00	 1.024379e+01
0	 3.629630e+00	 5.037037e+00	 1.023235e+01
0	 3.629630e+00	 5.111111e+00	 1.022137e+01
0	 3.629630e+00	 5.185185e+00	 1.021083e+01
0	 3.703704e+00	 4.814815e+00	 1.027604e+01
0	 3.703704e+00	 4.888889e+00	 1.026380e+01
0	 3.703704e+00	 4.962963e+00	 1.025198e+01
0	 3.703704e+00	 5.037037e+00	 1.024060e+01
0	 3.703704e+00	 5.111111e+00	 1.022964e+01
0	 3.703704e+00	 5.185185e+00	 1.021910e+01
0	 3.333333e+00	 5.185185e+00	 1.016986e+01
0	 3.333333e+00	 5.259259e+00	 1.016012e+01
0	 3.333333e+00	 5.333333e+00	 1.015084e+01
0	 3.333333e+00	 5.407407e+00	 1.014202e+01
0	 3.333333e+00	 5.481481e+00	 1.013365e+01
0	 3.333333e+00	 5.555556e+00	 1.012575e+01
0	 3.407407e+00	 5.185185e+00	 1.018135e+01
0	 3.407407e+00	 5.259259e+00	 1.017146e+01
0	 3.407407e+00	 5.333333e+00	 1.016201e+01
0	 3.407407e+00	 5.407407e+00	 1.015301e+01
0	 3.407407e+00	 5.481481e+00	 1.014445e+01
0	 3.407407e+00	 5.555556e+00	 1.013635e+01
0	 3.481481e+00	 5.185185e+00	 1.019198e+01
0	 3.481481e+00	 5.259259e+00	 1.018198e+01
0	 3.481481e+00	 5.333333e+00	 1.017241e+01
0	 3.481481e+00	 5.407407e+00	 1.016326e+01
0	 3.481481e+00	 5.481481e+00	 1.015455e+01
0	 3.481481e+00	 5.555556e+00	 1.014627e+01
0	 3.555556e+00	 5.185185e+00	 1.020180e+01
0	 3.555556e+00	 5.259259e+00	 1.019172e+01
0	 3.555556e+00	 5.333333e+00	 1.018205e+01
0	 3.555556e+00	 5.407407e+00	 1.017280e+01
0	 3.555556e+00	 5.481481e+00	 1.016396e+01
0	 3.555556e+00	 5.555556e+00	 1.015553e+01
0	 3.629630e+00	 5.185185e+00	 1.021083e+01
0	 3.629630e+00	 5.259259e+00	 1.020070e+01
0	 3.629630e+00	 5.333333e+00	 1.019097e+01
0	 3.629630e+00	 5.407407e+00	 1.018164e+01
0	 3.629630e+00	 5.481481e+00	 1.017270e+01
0	 3.629630e+00	 5.555556e+00	 1.016415e+01
0	 3.703704e+00	 5.185185e+00	 1.021910e+01
0	 3.703704e+00	 5.259259e+00	 1.020896e+01
0	 3.703704e+00	 5.333333e+00	 1.019919e+01
0	 3.703704e+00	 5.407407e+00	 1.018980e+01
0	 3.703704e+00	 5.481481e+00	 1.018079e+01
0	 3.703704e+00	 5.555556e+00	 1.017215e+01
0	 3.333333e+00	 5.555556e+00	 1.012575e+01
0	 3.333333e+00	 5.629630e+00	 1.011827e+01
0	 3.333333e+00	 5.703704e+00	 1.011114e+01
0	 3.333333e+00	 5.777778e+00	 1.010437e+01
0	 3.333333e+00	 5.851852e+00	 1.009797e+01
0	 3.333333e+00	 5.925926e+00	 1.009194e+01
0	 3.407407e+00	 5.555556e+00	 1.013635e+01
0	 3.407407e+00	 5.629630e+00	 1.012864e+01
0	 3.407407e+00	 5.703704e+00	 1.012129e+01
0	 3.407407e+00	 5.777778e+00	 1.011429e+01
0	 3.407407e+00	 5.851852e+00	 1.010765e+01
0	 3.407407e+00	 5.925926e+00	 1.010138e+01
0	 3.481481e+00	 5.555556e+00	 1.014627e+01
0	 3.481481e+00	 5.629630e+00	 1.013837e+01
0	 3.481481e+00	 5.703704e+00	 1.013083e+01
0	 3.481481e+00	 5.777778e+00	 1.012363e+01
0	 3.481481e+00	 5.851852e+00	 1.011678e+01
0	 3.481481e+00	 5.925926e+00	 1.011030e+01
0	 3.555556e+00	 5.555556e+00	 1.015553e+01
0	 3.555556e+00	 5.629630e+00	 1.014748e+01
0	 3.555556e+00	 5.703704e+00	 1.013976e+01
0	 3.555556e+00	 5.777778e+00	 1.013239e+01
0	 3.555556e+00	 5.851852e+00	 1.012537e+01
0	 3.555556e+00	 5.925926e+00	 1.011870e+01
0	 3.629630e+00	 5.555556e+00	 1.016415e+01
0	 3.629630e+00	 5.629630e+00	 1.015597e+01
0	 3.629630e+00	 5.703704e+00	 1.014811e+01
0	 3.629630e+00	 5.777778e+00	 1.014060e+01
0	 3.629630e+00	 5.851852e+00	 1.013342e+01
0	 3.629630e+00	 5.925926e+00	 1.012659e+01
0	 3.703704e+00	 5.555556e+00	 1.017215e+01
0	 3.703704e+00	 5.629630e+00	 1.016385e+01
0	 3.703704e+00	 5.703704e+00	 1.015589e+01
0	 3.703704e+00	 5.777778e+00	 1.014825e+01
0	 3.703704e+00	 5.851852e+00	 1.014094e+01
0	 3.703704e+00	 5.925926e+00	 1.013397e+01
0	 3.333333e+00	 5.925926e+00	 1.009194e+01
0	 3.333333e+00	 6.000000e+00	 1.008624e+01
0	 3.333333e+00	 6.074074e+00	 1.008083e+01
0	 3.333333e+00	 6.148148e+00	 1.007571e+01
0	 3.333333e+00	 6.222222e+00	 1.007089e+01
0	 3.333333e+00	 6.296296e+00	 1.006638e+01
0	 3.407407e+00	 5.925926e+00	 1.010138e+01
0	 3.407407e+00	 6.000000e+00	 1.009544e+01
0	 3.407407e+00	 6.074074e+00	 1.008978e+01
0	 3.407407e+00	 6.148148e+00	 1.008441e+01
0	 3.407407e+00	 6.222222e+00	 1.007934e+01
0	 3.407407e+00	 6.296296e+00	 1.007457e+01
0	 3.481481e+00	 5.925926e+00	 1.011030e+01
0	 3.481481e+00	 6.000000e+00	 1.010413e+01
0	 3.481481e+00	 6.074074e+00	 1.009826e+01
0	 3.481481e+00	 6.148148e+00	 1.009267e+01
0	 3.481481e+00	 6.222222e+00	 1.008737e+01
0	 3.481481e+00	 6.296296e+00	 1.008237e+01
0	 3.555556e+00	 5.925926e+00	 1.011870e+01
0	 3.555556e+00	 6.000000e+00	 1.011234e+01
0	 3.555556e+00	 6.074074e+00	 1.010627e+01
0	 3.555556e+00	 6.148148e+00	 1.010048e+01
0	 3.555556e+00	 6.222222e+00	 1.009497e+01
0	 3.555556e+00	 6.296296e+00	 1.008976e+01
0	 3.629630e+00	 5.925926e+00	 1.012659e+01
0	 3.629630e+00	 6.000000e+00	 1.012006e+01
0	 3.629630e+00	 6.074074e+00	 1.011381e+01
0	 3.629630e+00	 6.148148e+00	 1.010784e+01
0	 3.629630e+00	 6.222222e+00	 1.010215e+01
0	 3.629630e+00	 6.296296e+00	 1.009674e+01
0	 3.703704e+00	 5.925926e+00	 1.013397e+01
0	 3.703704e+00	 6.000000e+00	 1.012730e+01
0	 3.703704e+00	 6.074074e+00	 1.012089e+01
0	 3.703704e+00	 6.148148e+00	 1.011476e+01
0	 3.703704e+00	 6.222222e+00	 1.010890e+01
0	 3.703704e+00	 6.296296e+00	 1.010332e+01
0	 3.333333e+00	 6.296296e+00	 1.006638e+01
0	 3.333333e+00	 6.370370e+00	 1.006212e+01
0	 3.333333e+00	 6.444444e+00	 1.005809e+01
0	 3.333333e+00	 6.518519e+00	 1.005428e+01
0	 3.333333e+00	 6.592593e+00	 1.005071e+01
0	 3.333333e+00	 6.666667e+00	 1.004737e+01
0	 3.407407e+00	 6.296296e+00	 1.007457e+01
0	 3.407407e+00	 6.370370e+00	 1.007007e+01
0	 3.407407e+00	 6.444444e+00	 1.006578e+01
0	 3.407407e+00	 6.518519e+00	 1.006172e+01
0	 3.407407e+00	 6.592593e+00	 1.005789e+01
0	 3.407407e+00	 6.666667e+00	 1.005430e+01
0	 3.481481e+00	 6.296296e+00	 1.008237e+01
0	 3.481481e+00	 6.370370e+00	 1.007762e+01
0	 3.481481e+00	 6.444444e+00	 1.007310e+01
0	 3.481481e+00	 6.518519e+00	 1.006881e+01
0	 3.481481e+00	 6.592593e+00	 1.006475e+01
0	 3.481481e+00	 6.666667e+00	 1.006092e+01
0	 3.555556e+00	 6.296296e+00	 1.008976e+01
0	 3.555556e+00	 6.370370e+00	 1.008480e+01
0	 3.555556e+00	 6.444444e+00	 1.008006e+01
0	 3.555556e+00	 6.518519e+00	 1.007555e+01
0	 3.555556e+00	 6.592593e+00	 1.007127e+01
0	 3.555556e+00	 6.666667e+00	 1.006723e+01
0	 3.629630e+00	 6.296296e+00	 1.009674e+01
0	 3.629630e+00	 6.370370e+00	 1.009159e+01
0	 3.629630e+00	 6.444444e+00	 1.008666e+01
0	 3.629630e+00	 6.518519e+00	 1.008195e+01
0	 3.629630e+00	 6.592593e+00	 1.007747e+01
0	 3.629630e+00	 6.666667e+00	 1.007323e+01
0	 3.703704e+00	 6.296296e+00	 1.010332e+01
0	 3.703704e+00	 6.370370e+00	 1.009799e+01
0	 3.703704e+00	 6.444444e+00	 1.009288e+01
0	 3.703704e+00	 6.518519e+00	 1.008800e+01
0	 3.703704e+00	 6.592593e+00	 1.008334e+01
0	 3.703704e+00	 6.666667e+00	 1.007891e+01
0	 3.333333e+00	 6.666667e+00	 1.004737e+01
0	 3.333333e+00	 6.740741e+00	 1.004423e+01
0	 3.333333e+00	 6.814815e+00	 1.004126e+01
0	 3.333333e+00	 6.888889e+00	 1.003846e+01
0	 3.333333e+00	 6.962963e+00	 1.003584e+01
0	 3.333333e+00	 7.037037e+00	 1.003341e+01
0	 3.407407e+00	 6.666667e+00	 1.005430e+01
0	 3.407407e+00	 6.740741e+00	 1.005091e+01
0	 3.407407e+00	 6.814815e+00	 1.004769e+01
0	 3.407407e+00	 6.888889e+00	 1.004465e+01
0	 3.407407e+00	 6.962963e+00	 1.004179e+01
0	 3.407407e+00	 7.037037e+00	 1.003911e+01
0	 3.481481e+00	 6.666667e+00	 1.006092e+01
0	 3.481481e+00	 6.740741e+00	 1.005730e+01
0	 3.481481e+00	 6.814815e+00	 1.005385e+01
0	 3.481481e+00	 6.888889e+00	 1.005058e+01
0	 3.481481e+00	 6.962963e+00	 1.004749e+01
0	 3.481481e+00	 7.037037e+00	 1.004459e+01
0	 3.555556e+00	 6.666667e+00	 1.006723e+01
0	 3.555556e+00	 6.740741e+00	 1.006339e+01
0	 3.555556e+00	 6.814815e+00	 1.005973e+01
0	 3.555556e+00	 6.888889e+00	 1.005625e+01
0	 3.555556e+00	 6.962963e+00	 1.005294e+01
0	 3.555556e+00	 7.037037e+00	 1.004983e+01
0	 3.629630e+00	 6.666667e+00	 1.007323e+01
0	 3.629630e+00	 6.740741e+00	 1.006919e+01
0	 3.629630e+00	 6.814815e+00	 1.006533e+01
0	 3.629630e+00	 6.888889e+00	 1.006164e+01
0	 3.629630e+00	 6.962963e+00	 1.005814e+01
0	 3.629630e+00	 7.037037e+00	 1.005483e+01
0	 3.703704e+00	 6.666667e+00	 1.007891e+01
0	 3.703704e+00	 6.740741e+00	 1.007469e+01
0	 3.703704e+00	 6.814815e+00	 1.007064e+01
0	 3.703704e+00	 6.888889e+00	 1.006677e+01
0	 3.703704e+00	 6.962963e+00	 1.006308e+01
0	 3.703704e+00	 7.037037e+00	 1.005958e+01
0	 3.333333e+00	 7.037037e+00	 1.003341e+01
0	 3.333333e+00	 7.111111e+00	 1.003113e+01
0	 3.333333e+00	 7.185185e+00	 1.002897e+01
0	 3.333333e+00	 7.259259e+00	 1.002694e+01
0	 3.333333e+00	 7.333333e+00	 1.002505e+01
0	 3.333333e+00	 7.407407e+00	 1.002329e+01
0	 3.407407e+00	 7.037037e+00	 1.003911e+01
0	 3.407407e+00	 7.111111e+00	 1.003659e+01
0	 3.407407e+00	 7.185185e+00	 1.003420e+01
0	 3.407407e+00	 7.259259e+00	 1.003195e+01
0	 3.407407e+00	 7.333333e+00	 1.002982e+01
0	 3.407407e+00	 7.407407e+00	 1.002784e+01
0	 3.481481e+00	 7.037037e+00	 1.004459e+01
0	 3.481481e+00	 7.111111e+00	 1.004184e+01
0	 3.481481e+00	 7.185185e+00	 1.003923e+01
0	 3.481481e+00	 7.259259e+00	 1.003676e+01
0	 3.481481e+00	 7.333333e+00	 1.003442e+01
0	 3.481481e+00	 7.407407e+00	 1.003222e+01
0	 3.555556e+00	 7.037037e+00	 1.004983e+01
0	 3.555556e+00	 7.111111e+00	 1.004687e+01
0	 3.555556e+00	 7.185185e+00	 1.004405e+01
0	 3.555556e+00	 7.259259e+00	 1.004137e+01
0	 3.555556e+00	 7.333333e+00	 1.003883e+01
0	 3.555556e+00	 7.407407e+00	 1.003643e+01
0	 3.629630e+00	 7.037037e+00	 1.005483e+01
0	 3.629630e+00	 7.111111e+00	 1.005167e+01
0	 3.629630e+00	 7.185185e+00	 1.004866e+01
0	 3.629630e+00	 7.259259e+00	 1.004578e+01
0	 3.629630e+00	 7.333333e+00	 1.004305e+01
0	 3.629630e+00	 7.407407e+00	 1.004046e+01
0	 3.703704e+00	 7.037037e+00	 1.005958e+01
0	 3.703704e+00	 7.111111e+00	 1.005624e+01
0	 3.703704e+00	 7.185185e+00	 1.005304e+01
0	 3.703704e+00	 7.259259e+00	 1.004998e+01
0	 3.703704e+00	 7.333333e+00	 1.004707e+01
0	 3.703704e+00	 7.407407e+00	 1.004430e+01
0	 3.333333e+00	 7.407407e+00	 1.002329e+01
0	 3.333333e+00	 7.481481e+00	 1.002165e+01
0	 3.333333e+00	 7.555556e+00	 1.002009e+01
0	 3.333333e+00	 7.629630e+00	 1.001863e+01
0	 3.333333e+00	 7.703704e+00	 1.001727e+01
0	 3.333333e+00	 7.777778e+00	 1.001601e+01
0	 3.407407e+00	 7.407407e+00	 1.002784e+01
0	 3.407407e+00	 7.481481e+00	 1.002598e+01
0	 3.407407e+00	 7.555556e+00	 1.002421e+01
0	 3.407407e+00	 7.629630e+00	 1.002254e+01
0	 3.407407e+00	 7.703704e+00	 1.002097e+01
0	 3.407407e+00	 7.777778e+00	 1.001950e+01
0	 3.481481e+00	 7.407407e+00	 1.003222e+01
0	 3.481481e+00	 7.481481e+00	 1.003015e+01
0	 3.481481e+00	 7.555556e+00	 1.002817e+01
0	 3.481481e+00	 7.629630e+00	 1.002630e+01
0	 3.481481e+00	 7.703704e+00	 1.002453e+01
0	 3.481481e+00	 7.777778e+00	 1.002287e+01
0	 3.555556e+00	 7.407407e+00	 1.003643e+01
0	 3.555556e+00	 7.481481e+00	 1.003416e+01
0	 3.555556e+00	 7.555556e+00	 1.003199e+01
0	 3.555556e+00	 7.629630e+00	 1.002992e+01
0	 3.555556e+00	 7.703704e+00	 1.002796e+01
0	 3.555556e+00	 7.777778e+00	 1.002612e+01
0	 3.629630e+00	 7.407407e+00	 1.004046e+01
0	 3.629630e+00	 7.481481e+00	 1.003800e+01
0	 3.629630e+00	 7.555556e+00	 1.003564e+01
0	 3.629630e+00	 7.629630e+00	 1.003339e+01
0	 3.629630e+00	 7.703704e+00	 1.003125e+01
0	 3.629630e+00	 7.777778e+00	 1.002923e+01
0	 3.703704e+00	 7.407407e+00	 1.004430e+01
0	 3.703704e+00	 7.481481e+00	 1.004166e+01
0	 3.703704e+00	 7.555556e+00	 1.003913e+01
0	 3.703704e+00	 7.629630e+00	 1.003671e+01
0	 3.703704e+00	 7.703704e+00	 1.003440e+01
0	 3.703704e+00	 7.777778e+00	 1.003220e+01
0	 3.333333e+00	 7.777778e+00	 1.001601e+01
0	 3.333333e+00	 7.851852e+00	 1.001483e+01
0	 3.333333e+00	 7.925926e+00	 1.001371e+01
0	 3.333333e+00	 8.000000e+00	 1.001266e+01
0	 3.333333e+00	 8.074074e+00	 1.001168e+01
0	 3.333333e+00	 8.148148e+00	 1.001077e+01
0	 3.407407e+00	 7.777778e+00	 1.001950e+01
0	 3.407407e+00	 7.851852e+00	 1.001812e+01
0	 3.407407e+00	 7.925926e+00	 1.001681e+01
0	 3.407407e+00	 8.000000e+00	 1.001557e+01
0	 3.407407e+00	 8.074074e+00	 1.001440e+01
0	 3.407407e+00	 8.148148e+00	 1.001331e+01
0	 3.481481e+00	 7.777778e+00	 1.002287e+01
0	 3.481481e+00	 7.851852e+00	 1.002130e+01
0	 3.481481e+00	 7.925926e+00	 1.001980e+01
0	 3.481481e+00	 8.000000e+00	 1.001838e+01
0	 3.481481e+00	 8.074074e+00	 1.001703e+01
0	 3.481481e+00	 8.148148e+00	 1.001577e+01
0	 3.555556e+00	 7.777778e+00	 1.002612e+01
0	 3.555556e+00	 7.851852e+00	 1.002436e+01
0	 3.555556e+00	 7.925926e+00	 1.002269e+01
0	 3.555556e+00	 8.000000e+00	 1.002109e+01
0	 3.555556e+00	 8.074074e+00	 1.001957e+01
0	 3.555556e+00	 8.148148e+00	 1.001814e+01
0	 3.629630e+00	 7.777778e+00	 1.002923e+01
0	 3.629630e+00	 7.851852e+00	 1.002730e+01
0	 3.629630e+00	 7.925926e+00	 1.002545e+01
0	 3.629630e+00	 8.000000e+00	 1.002369e+01
0	 3.629630e+00	 8.074074e+00	 1.002201e+01
0	 3.629630e+00	 8.148148e+00	 1.002041e+01
0	 3.703704e+00	 7.777778e+00	 1.003220e+01
0	 3.703704e+00	 7.851852e+00	 1.003011e+01
0	 3.703704e+00	 7.925926e+00	 1.002810e+01
0	 3.703704e+00	 8.000000e+00	 1.002618e+01
0	 3.703704e+00	 8.074074e+00	 1.002434e+01
0	 3.703704e+00	 8.148148e+00	 1.002259e+01
0	 3.333333e+00	 8.148148e+00	 1.001077e+01
0	 3.333333e+00	 8.222222e+00	 1.000991e+01
0	 3.333333e+00	 8.296296e+00	 1.000910e+01
0	 3.333333e+00	 8.370370e+00	 1.000834e+01
0	 3.333333e+00	 8.444444e+00	 1.000762e+01
0	 3.333333e+00	 8.518519e+00	 1.000695e+01
0	 3.407407e+00	 8.148148e+00	 1.001331e+01
0	 3.407407e+00	 8.222222e+00	 1.001228e+01
0	 3.407407e+00	 8.296296e+00	 1.001130e+01
0	 3.407407e+00	 8.370370e+00	 1.001037e+01
0	 3.407407e+00	 8.444444e+00	 1.000949e+01
0	 3.407407e+00	 8.518519e+00	 1.000866e+01
0	 3.481481e+00	 8.148148e+00	 1.001577e+01
0	 3.481481e+00	 8.222222e+00	 1.001457e+01
0	 3.481481e+00	 8.296296e+00	 1.001342e+01
0	 3.481481e+00	 8.370370e+00	 1.001233e+01
0	 3.481481e+00	 8.444444e+00	 1.001130e+01
0	 3.481481e+00	 8.518519e+00	 1.001032e+01
0	 3.555556e+00	 8.148148e+00	 1.001814e+01
0	 3.555556e+00	 8.222222e+00	 1.001678e+01
0	 3.555556e+00	 8.296296e+00	 1.001547e+01
0	 3.555556e+00	 8.370370e+00	 1.001423e+01
0	 3.555556e+00	 8.444444e+00	 1.001305e+01
0	 3.555556e+00	 8.518519e+00	 1.001193e+01
0	 3.629630e+00	 8.148148e+00	 1.002041e+01
0	 3.629630e+00	 8.222222e+00	 1.001890e+01
0	 3.629630e+00	 8.296296e+00	 1.001744e+01
0	 3.629630e+00	 8.370370e+00	 1.001605e+01
0	 3.629630e+00	 8.444444e+00	 1.001472e+01
0	 3.629630e+00	 8.518519e+00	 1.001346e+01
0	 3.703704e+00	 8.148148e+00	 1.002259e+01
0	 3.703704e+00	 8.222222e+00	 1.002092e+01
0	 3.703704e+00	 8.296296e+00	 1.001932e+01
0	 3.703704e+00	 8.370370e+00	 1.001779e+01
0	 3.703704e+00	 8.444444e+00	 1.001633e+01
0	 3.703704e+00	 8.518519e+00	 1.001494e+01
0	 3.333333e+00	 8.518519e+00	 1.000695e+01
0	 3.333333e+00	 8.592593e+00	 1.000632e+01
0	 3.333333e+00	 8.666667e+00	 1.000573e+01
0	 3.333333e+00	 8.740741e+00	 1.000516e+01
0	 3.333333e+00	 8.814815e+00	 1.000463e+01
0	 3.333333e+00	 8.888889e+00	 1.000412e+01
0	 3.407407e+00	 8.518519e+00	 1.000866e+01
0	 3.407407e+00	 8.592593e+00	 1.000788e+01
0	 3.407407e+00	 8.666667e+00	 1.000714e+01
0	 3.407407e+00	 8.740741e+00	 1.000644e+01
0	 3.407407e+00	 8.814815e+00	 1.000577e+01
0	 3.407407e+00	 8.888889e+00	 1.000514e+01
0	 3.481481e+00	 8.518519e+00	 1.001032e+01
0	 3.481481e+00	 8.592593e+00	 1.000940e+01
0	 3.481481e+00	 8.666667e+00	 1.000852e+01
0	 3.481481e+00	 8.740741e+00	 1.000768e+01
0	 3.481481e+00	 8.814815e+00	 1.000688e+01
0	 3.481481e+00	 8.888889e+00	 1.000613e+01
0	 3.555556e+00	 8.518519e+00	 1.001193e+01
0	 3.555556e+00	 8.592593e+00	 1.001086e+01
0	 3.555556e+00	 8.666667e+00	 1.000984e+01
0	 3.555556e+00	 8.740741e+00	 1.000888e+01
0	 3.555556e+00	 8.814815e+00	 1.000796e+01
0	 3.555556e+00	 8.888889e+00	 1.000709e+01
0	 3.629630e+00	 8.518519e+00	 1.001346e+01
0	 3.629630e+00	 8.592593e+00	 1.001226e+01
0	 3.629630e+00	 8.666667e+00	 1.001112e+01
0	 3.629630e+00	 8.740741e+00	 1.001003e+01
0	 3.629630e+00	 8.814815e+00	 1.000899e+01
0	 3.629630e+00	 8.888889e+00	 1.000800e+01
0	 3.703704e+00	 8.518519e+00	 1.001494e+01
0	 3.703704e+00	 8.592593e+00	 1.001361e+01
0	 3.703704e+00	 8.666667e+00	 1.001234e+01
0	 3.703704e+00	 8.740741e+00	 1.001113e+01
0	 3.703704e+00	 8.814815e+00	 1.000998e+01
0	 3.703704e+00	 8.888889e+00	 1.000888e+01
0	 3.333333e+00	 8.888889e+00	 1.000412e+01
0	 3.333333e+00	 8.962963e+00	 1.000365e+01
0	 3.333333e+00	 9.037037e+00	 1.000321e+01
0	 3.333333e+00	 9.111111e+00	 1.000279e+01
0	 3.333333e+00	 9.185185e+00	 1.000239e+01
0	 3.333333e+00	 9.259259e+00	 1.000202e+01
0	 3.407407e+00	 8.888889e+00	 1.000514e+01
0	 3.407407e+00	 8.962963e+00	 1.000455e+01
0	 3.407407e+00	 9.037037e+00	 1.000399e+01
0	 3.407407e+00	 9.111111e+00	 1.000346e+01
0	 3.407407e+00	 9.185185e+00	 1.000296e+01
0	 3.407407e+00	 9.259259e+00	 1.000250e+01
0	 3.481481e+00	 8.888889e+00	 1.000613e+01
0	 3.481481e+00	 8.962963e+00	 1.000542e+01
0	 3.481481e+00	 9.037037e+00	 1.000475e+01
0	 3.481481e+00	 9.111111e+00	 1.000412e+01
0	 3.481481e+00	 9.185185e+00	 1.000352e+01
0	 3.481481e+00	 9.259259e+00	 1.000296e+01
0	 3.555556e+00	 8.888889e+00	 1.000709e+01
0	 3.555556e+00	 8.962963e+00	 1.000626e+01
0	 3.555556e+00	 9.037037e+00	 1.000548e+01
0	 3.555556e+00	 9.111111e+00	 1.000475e+01
0	 3.555556e+00	 9.185185e+00	 1.000406e+01
0	 3.555556e+00	 9.259259e+00	 1.000342e+01
0	 3.629630e+00	 8.888889e+00	 1.000800e+01
0	 3.629630e+00	 8.962963e+00	 1.000707e+01
0	 3.629630e+00	 9.037037e+00	 1.000619e+01
0	 3.629630e+00	 9.111111e+00	 1.000536e+01
0	 3.629630e+00	 9.185185e+00	 1.000458e+01
0	 3.629630e+00	 9.259259e+00	 1.000385e+01
0	 3.703704e+00	 8.888889e+00	 1.000888e+01
0	 3.703704e+00	 8.962963e+00	 1.000784e+01
0	 3.703704e+00	 9.037037e+00	 1.000686e+01
0	 3.703704e+00	 9.111111e+00	 1.000594e+01
0	 3.703704e+00	 9.185185e+00	 1.000508e+01
0	 3.703704e+00	 9.259259e+00	 1.000426e+01
0	 3.333333e+00	 9.259259e+00	 1.000202e+01
0	 3.333333e+00	 9.333333e+00	 1.000167e+01
0	 3.333333e+00	 9.407407e+00	 1.000136e+01
0	 3.333333e+00	 9.481481e+00	 1.000107e+01
0	 3.333333e+00	 9.555556e+00	 1.000081e+01
0	 3.333333e+00	 9.629630e+00	 1.000058e+01
0	 3.407407e+00	 9.259259e+00	 1.000250e+01
0	 3.407407e+00	 9.333333e+00	 1.000206e+01
0	 3.407407e+00	 9.407407e+00	 1.000167e+01
0	 3.407407e+00	 9.481481e+00	 1.000132e+01
0	 3.407407e+00	 9.555556e+00	 1.000099e+01
0	 3.407407e+00	 9.629630e+00	 1.000070e+01
0	 3.481481e+00	 9.259259e+00	 1.000296e+01
0	 3.481481e+00	 9.333333e+00	 1.000245e+01
0	 3.481481e+00	 9.407407e+00	 1.000198e+01
0	 3.481481e+00	 9.481481e+00	 1.000156e+01
0	 3.481481e+00	 9.555556e+00	 1.000117e+01
0	 3.481481e+00	 9.629630e+00	 1.000083e+01
0	 3.555556e+00	 9.259259e+00	 1.000342e+01
0	 3.555556e+00	 9.333333e+00	 1.000282e+01
0	 3.555556e+00	 9.407407e+00	 1.000228e+01
0	 3.555556e+00	 9.481481e+00	 1.000179e+01
0	 3.555556e+00	 9.555556e+00	 1.000135e+01
0	 3.555556e+00	 9.629630e+00	 1.000095e+01
0	 3.629630e+00	 9.259259e+00	 1.000385e+01
0	 3.629630e+00	 9.333333e+00	 1.000318e+01
0	 3.629630e+00	 9.407407e+00	 1.000256e+01
0	 3.629630e+00	 9.481481e+00	 1.000201e+01
0	 3.629630e+00	 9.555556e+00	 1.000152e+01
0	 3.629630e+00	 9.629630e+00	 1.000107e+01
0	 3.703704e+00	 9.259259e+00	 1.000426e+01
0	 3.703704e+00	 9.333333e+00	 1.000351e+01
0	 3.703704e+00	 9.407407e+00	 1.000283e+01
0	 3.703704e+00	 9.481481e+00	 1.000222e+01
0	 3.703704e+00	 9.555556e+00	 1.000167e+01
0	 3.703704e+00	 9.629630e+00	 1.000118e+01
0	 3.333333e+00	 9.629630e+00	 1.000058e+01
0	 3.333333e+00	 9.703704e+00	 1.000038e+01
0	 3.333333e+00	 9.777778e+00	 1.000022e+01
0	 3.333333e+00	 9.851852e+00	 1.000011e+01
0	 3.333333e+00	 9.925926e+00	 1.000003e+01
0	 3.333333e+00	 1.000000e+01	 9.999985e+00
0	 3.407407e+00	 9.629630e+00	 1.000070e+01
0	 3.407407e+00	 9.703704e+00	 1.000045e+01
0	 3.407407e+00	 9.777778e+00	 1.000026e+01
0	 3.407407e+00	 9.851852e+00	 1.000012e+01
0	 3.407407e+00	 9.925926e+00	 1.000003e+01
0	 3.407407e+00	 1.000000e+01	 9.999978e+00
0	 3.481481e+00	 9.629630e+00	 1.000083e+01
0	 3.481481e+00	 9.703704e+00	 1.000053e+01
0	 3.481481e+00	 9.777778e+00	 1.000031e+01
0	 3.481481e+00	 9.851852e+00	 1.000015e+01
0	 3.481481e+00	 9.925926e+00	 1.000004e+01
0	 3.481481e+00	 1.000000e+01	 9.999979e+00
0	 3.555556e+00	 9.629630e+00	 1.000095e+01
0	 3.555556e+00	 9.703704e+00	 1.000062e+01
0	 3.555556e+00	 9.777778e+00	 1.000036e+01
0	 3.555556e+00	 9.851852e+00	 1.000017e+01
0	 3.555556e+00	 9.925926e+00	 1.000005e+01
0	 3.555556e+00	 1.000000e+01	 9.999983e+00
0	 3.629630e+00	 9.629630e+00	 1.000107e+01
0	 3.629630e+00	 9.703704e+00	 1.000069e+01
0	 3.629630e+00	 9.777778e+00	 1.000040e+01
0	 3.629630e+00	 9.851852e+00	 1.000020e+01
0	 3.629630e+00	 9.925926e+00	 1.000006e+01
0	 3.629630e+00	 1.000000e+01	 9.999985e+00
0	 3.703704e+00	 9.629630e+00	 1.000118e+01
0	 3.703704e+00	 9.703704e+00	 1.000076e+01
0	 3.703704e+00	 9.777778e+00	 1.000044e+01
0	 3.703704e+00	 9.851852e+00	 1.000021e+01
0	 3.703704e+00	 9.925926e+00	 1.000006e+01
0	 3.703704e+00	 1.000000e+01	 9.999980e+00
0	 3.703704e+00	 0.000000e+00	 1.060219e+01
0	 3.703704e+00	 7.407407e-02	 1.060749e+01
0	 3.703704e+00	 1.481481e-01	 1.061343e+01
0	 3.703704e+00	 2.222222e-01	 1.062054e+01
0	 3.703704e+00	 2.962963e-01	 1.062934e+01
0	 3.703704e+00	 3.703704e-01	 1.064035e+01
0	 3.777778e+00	 0.000000e+00	 1.057148e+01
0	 3.777778e+00	 7.407407e-02	 1.057652e+01
0	 3.777778e+00	 1.481481e-01	 1.058291e+01
0	 3.777778e+00	 2.222222e-01	 1.059089e+01
0	 3.777778e+00	 2.962963e-01	 1.060068e+01
0	 3.777778e+00	 3.703704e-01	 1.061253e+01
0	 3.851852e+00	 0.000000e+00	 1.055003e+01
0	 3.851852e+00	 7.407407e-02	 1.055365e+01
0	 3.851852e+00	 1.481481e-01	 1.055908e+01
0	 3.851852e+00	 2.222222e-01	 1.056636e+01
0	 3.851852e+00	 2.962963e-01	 1.057552e+01
0	 3.851852e+00	 3.703704e-01	 1.058662e+01
0	 3.925926e+00	 0.000000e+00	 1.053475e+01
0	 3.925926e+00	 7.407407e-02	 1.053642e+01
0	 3.925926e+00	 1.481481e-01	 1.054014e+01
0	 3.925926e+00	 2.222222e-01	 1.054582e+01
0	 3.925926e+00	 2.962963e-01	 1.055338e+01
0	 3.925926e+00	 3.703704e-01	 1.056274e+01
0	 4.000000e+00	 0.000000e+00	 1.052253e+01
0	 4.000000e+00	 7.407407e-02	 1.052241e+01
0	 4.000000e+00	 1.481481e-01	 1.052432e+01
0	 4.000000e+00	 2.222222e-01	 1.052814e+01
0	 4.000000e+00	 2.962963e-01	 1.053376e+01
0	 4.000000e+00	 3.703704e-01	 1.054106e+01
0	 4.074074e+00	 0.000000e+00	 1.051027e+01
0	 4.074074e+00	 7.407407e-02	 1.050917e+01
0	 4.074074e+00	 1.481481e-01	 1.050984e+01
0	 4.074074e+00	 2.222222e-01	 1.051220e+01
0	 4.074074e+00	 2.962963e-01	 1.051618e+01
0	 4.074074e+00	 3.703704e-01	 1.052171e+01
0	 3.703704e+00	 3.703704e-01	 1.064035e+01
0	 3.703704e+00	 4.444444e-01	 1.065263e+01
0	 3.703704e+00	 5.185185e-01	 1.066501e+01
0	 3.703704e+00	 5.925926e-01	 1.067764e+01
0	 3.703704e+00	 6.666667e-01	 1.069067e+01
0	 3.703704e+00	 7.407407e-01	 1.070427e+01
0	 3.777778e+00	 3.703704e-01	 1.061253e+01
0	 3.777778e+00	 4.444444e-01	 1.062525e+01
0	 3.777778e+00	 5.185185e-01	 1.063765e+01
0	 3.777778e+00	 5.925926e-01	 1.064994e+01
0	 3.777778e+00	 6.666667e-01	 1.066232e+01
0	 3.777778e+00	 7.407407e-01	 1.067502e+01
0	 3.851852e+00	 3.703704e-01	 1.058662e+01
0	 3.851852e+00	 4.444444e-01	 1.059848e+01
0	 3.851852e+00	 5.185185e-01	 1.061010e+01
0	 3.851852e+00	 5.925926e-01	 1.062172e+01
0	 3.851852e+00	 6.666667e-01	 1.063360e+01
0	 3.851852e+00	 7.407407e-01	 1.064598e+01
0	 3.925926e+00	 3.703704e-01	 1.056274e+01
0	 3.925926e+00	 4.444444e-01	 1.057297e+01
0	 3.925926e+00	 5.185185e-01	 1.058334e+01
0	 3.925926e+00	 5.925926e-01	 1.059412e+01
0	 3.925926e+00	 6.666667e-01	 1.060556e+01
0	 3.925926e+00	 7.407407e-01	 1.061793e+01
0	 4.000000e+00	 3.703704e-01	 1.054106e+01
0	 4.000000e+00	 4.444444e-01	 1.054940e+01
0	 4.000000e+00	 5.185185e-01	 1.055838e+01
0	 4.000000e+00	 5.925926e-01	 1.056825e+01
0	 4.000000e+00	 6.666667e-01	 1.057925e+01
0	 4.000000e+00	 7.407407e-01	 1.059163e+01
0	 4.074074e+00	 3.703704e-01	 1.052171e+01
0	 4.074074e+00	 4.444444e-01	 1.052843e+01
0	 4.074074e+00	 5.185185e-01	 1.053620e+01
0	 4.074074e+00	 5.925926e-01	 1.054522e+01
0	 4.074074e+00	 6.666667e-01	 1.055570e+01
0	 4.074074e+00	 7.407407e-01	 1.056785e+01
0	 3.703704e+00	 7.407407e-01	 1.070427e+01
0	 3.703704e+00	 8.148148e-01	 1.071791e+01
0	 3.703704e+00	 8.888889e-01	 1.073122e+01
0	 3.703704e+00	 9.629630e-01	 1.074457e+01
0	 3.703704e+00	 1.037037e+00	 1.075833e+01
0	 3.703704e+00	 1.111111e+00	 1.077286e+01
0	 3.777778e+00	 7.407407e-01	 1.067502e+01
0	 3.777778e+00	 8.148148e-01	 1.068783e+01
0	 3.777778e+00	 8.888889e-01	 1.070058e+01
0	 3.777778e+00	 9.629630e-01	 1.071355e+01
0	 3.777778e+00	 1.037037e+00	 1.072699e+01
0	 3.777778e+00	 1.111111e+00	 1.074118e+01
0	 3.851852e+00	 7.407407e-01	 1.064598e+01
0	 3.851852e+00	 8.148148e-01	 1.065863e+01
0	 3.851852e+00	 8.888889e-01	 1.067127e+01
0	 3.851852e+00	 9.629630e-01	 1.068411e+01
0	 3.851852e+00	 1.037037e+00	 1.069734e+01
0	 3.851852e+00	 1.111111e+00	 1.071116e+01
0	 3.925926e+00	 7.407407e-01	 1.061793e+01
0	 3.925926e+00	 8.148148e-01	 1.063074e+01
0	 3.925926e+00	 8.888889e-01	 1.064347e+01
0	 3.925926e+00	 9.629630e-01	 1.065627e+01
0	 3.925926e+00	 1.037037e+00	 1.066928e+01
0	 3.925926e+00	 1.111111e+00	 1.068267e+01
0	 4.000000e+00	 7.407407e-01	 1.059163e+01
0	 4.000000e+00	 8.148148e-01	 1.060461e+01
0	 4.000000e+00	 8.888889e-01	 1.061735e+01
0	 4.000000e+00	 9.629630e-01	 1.063000e+01
0	 4.000000e+00	 1.037037e+00	 1.064269e+01
0	 4.000000e+00	 1.111111e+00	 1.065557e+01
0	 4.074074e+00	 7.407407e-01	 1.056785e+01
0	 4.074074e+00	 8.148148e-01	 1.058067e+01
0	 4.074074e+00	 8.888889e-01	 1.059309e+01
0	 4.074074e+00	 9.629630e-01	 1.060530e+01
0	 4.074074e+00	 1.037037e+00	 1.061745e+01
0	 4.074074e+00	 1.111111e+00	 1.062971e+01
0	 3.703704e+00	 1.111111e+00	 1.077286e+01
0	 3.703704e+00	 1.185185e+00	 1.078701e+01
0	 3.703704e+00	 1.259259e+00	 1.079955e+01
0	 3.703704e+00	 1.333333e+00	 1.081068e+01
0	 3.703704e+00	 1.407407e+00	 1.082060e+01
0	 3.703704e+00	 1.481481e+00	 1.082952e+01
0	 3.777778e+00	 1.111111e+00	 1.074118e+01
0	 3.777778e+00	 1.185185e+00	 1.075497e+01
0	 3.777778e+00	 1.259259e+00	 1.076722e+01
0	 3.777778e+00	 1.333333e+00	 1.077817e+01
0	 3.777778e+00	 1.407407e+00	 1.078805e+01
0	 3.777778e+00	 1.481481e+00	 1.079709e+01
0	 3.851852e+00	 1.111111e+00	 1.071116e+01
0	 3.851852e+00	 1.185185e+00	 1.072453e+01
0	 3.851852e+00	 1.259259e+00	 1.073648e+01
0	 3.851852e+00	 1.333333e+00	 1.074724e+01
0	 3.851852e+00	 1.407407e+00	 1.075706e+01
0	 3.851852e+00	 1.481481e+00	 1.076621e+01
0	 3.925926e+00	 1.111111e+00	 1.068267e+01
0	 3.925926e+00	 1.185185e+00	 1.069557e+01
0	 3.925926e+00	 1.259259e+00	 1.070718e+01
0	 3.925926e+00	 1.333333e+00	 1.071775e+01
0	 3.925926e+00	 1.407407e+00	 1.072752e+01
0	 3.925926e+00	 1.481481e+00	 1.073674e+01
0	 4.000000e+00	 1.111111e+00	 1.065557e+01
0	 4.000000e+00	 1.185185e+00	 1.066795e+01
0	 4.000000e+00	 1.259259e+00	 1.067922e+01
0	 4.000000e+00	 1.333333e+00	 1.068960e+01
0	 4.000000e+00	 1.407407e+00	 1.069931e+01
0	 4.000000e+00	 1.481481e+00	 1.070857e+01
0	 4.074074e+00	 1.111111e+00	 1.062971e+01
0	 4.074074e+00	 1.185185e+00	 1.064155e+01
0	 4.074074e+00	 1.259259e+00	 1.065247e+01
0	 4.074074e+00	 1.333333e+00	 1.066265e+01
0	 4.074074e+00	 1.407407e+00	 1.067229e+01
0	 4.074074e+00	 1.481481e+00	 1.068156e+01
0	 3.703704e+00	 1.481481e+00	 1.082952e+01
0	 3.703704e+00	 1.555556e+00	 1.083705e+01
0	 3.703704e+00	 1.629630e+00	 1.084272e+01
0	 3.703704e+00	 1.703704e+00	 1.084663e+01
0	 3.703704e+00	 1.777778e+00	 1.084885e+01
0	 3.703704e+00	 1.851852e+00	 1.084948e+01
0	 3.777778e+00	 1.481481e+00	 1.079709e+01
0	 3.777778e+00	 1.555556e+00	 1.080490e+01
0	 3.777778e+00	 1.629630e+00	 1.081097e+01
0	 3.777778e+00	 1.703704e+00	 1.081540e+01
0	 3.777778e+00	 1.777778e+00	 1.081828e+01
0	 3.777778e+00	 1.851852e+00	 1.081970e+01
0	 3.851852e+00	 1.481481e+00	 1.076621e+01
0	 3.851852e+00	 1.555556e+00	 1.077425e+01
0	 3.851852e+00	 1.629630e+00	 1.078066e+01
0	 3.851852e+00	 1.703704e+00	 1.078555e+01
0	 3.851852e+00	 1.777778e+00	 1.078901e+01
0	 3.851852e+00	 1.851852e+00	 1.079112e+01
0	 3.925926e+00	 1.481481e+00	 1.073674e+01
0	 3.925926e+00	 1.555556e+00	 1.074497e+01
0	 3.925926e+00	 1.629630e+00	 1.075168e+01
0	 3.925926e+00	 1.703704e+00	 1.075696e+01
0	 3.925926e+00	 1.777778e+00	 1.076092e+01
0	 3.925926e+00	 1.851852e+00	 1.076364e+01
0	 4.000000e+00	 1.481481e+00	 1.070857e+01
0	 4.000000e+00	 1.555556e+00	 1.071694e+01
0	 4.000000e+00	 1.629630e+00	 1.072388e+01
0	 4.000000e+00	 1.703704e+00	 1.072949e+01
0	 4.000000e+00	 1.777778e+00	 1.073388e+01
0	 4.000000e+00	 1.851852e+00	 1.073713e+01
0	 4.074074e+00	 1.481481e+00	 1.068156e+01
0	 4.074074e+00	 1.555556e+00	 1.069002e+01
0	 4.074074e+00	 1.629630e+00	 1.069713e+01
0	 4.074074e+00	 1.703704e+00	 1.070301e+01
0	 4.074074e+00	 1.777778e+00	 1.070775e+01
0	 4.074074e+00	 1.851852e+00	 1.071146e+01
0	 3.703704e+00	 1.851852e+00	 1.084948e+01
0	 3.703704e+00	 1.925926e+00	 1.084850e+01
0	 3.703704e+00	 2.000000e+00	 1.084586e+01
0	 3.703704e+00	 2.074074e+00	 1.084159e+01
0	 3.703704e+00	 2.148148e+00	 1.083571e+01
0	 3.703704e+00	 2.222222e+00	 1.082825e+01
0	 3.777778e+00	 1.851852e+00	 1.081970e+01
0	 3.777778e+00	 1.925926e+00	 1.081964e+01
0	 3.777778e+00	 2.000000e+00	 1.081805e+01
0	 3.777778e+00	 2.074074e+00	 1.081495e+01
0	 3.777778e+00	 2.148148e+00	 1.081035e+01
0	 3.777778e+00	 2.222222e+00	 1.080426e+01
0	 3.851852e+00	 1.851852e+00	 1.079112e+01
0	 3.851852e+00	 1.925926e+00	 1.079188e+01
0	 3.851852e+00	 2.000000e+00	 1.079119e+01
0	 3.851852e+00	 2.074074e+00	 1.078907e+01
0	 3.851852e+00	 2.148148e+00	 1.078554e+01
0	 3.851852e+00	 2.222222e+00	 1.078061e+01
0	 3.925926e+00	 1.851852e+00	 1.076364e+01
0	 3.925926e+00	 1.925926e+00	 1.076510e+01
0	 3.925926e+00	 2.000000e+00	 1.076518e+01
0	 3.925926e+00	 2.074074e+00	 1.076391e+01
0	 3.925926e+00	 2.148148e+00	 1.076129e+01
0	 3.925926e+00	 2.222222e+00	 1.075733e+01
0	 4.000000e+00	 1.851852e+00	 1.073713e+01
0	 4.000000e+00	 1.925926e+00	 1.073920e+01
0	 4.000000e+00	 2.000000e+00	 1.073994e+01
0	 4.000000e+00	 2.074074e+00	 1.073939e+01
0	 4.000000e+00	 2.148148e+00	 1.073755e+01
0	 4.000000e+00	 2.222222e+00	 1.073444e+01
0	 4.074074e+00	 1.851852e+00	 1.071146e+01
0	 4.074074e+00	 1.925926e+00	 1.071406e+01
0	 4.074074e+00	 2.000000e+00	 1.071538e+01
0	 4.074074e+00	 2.074074e+00	 1.071547e+01
0	 4.074074e+00	 2.148148e+00	 1.071432e+01
0	 4.074074e+00	 2.222222e+00	 1.071198e+01
0	 3.703704e+00	 2.222222e+00	 1.082825e+01
0	 3.703704e+00	 2.296296e+00	 1.081947e+01
0	 3.703704e+00	 2.370370e+00	 1.080953e+01
0	 3.703704e+00	 2.444444e+00	 1.079836e+01
0	 3.703704e+00	 2.518519e+00	 1.078589e+01
0	 3.703704e+00	 2.592593e+00	 1.077203e+01
0	 3.777778e+00	 2.222222e+00	 1.080426e+01
0	 3.777778e+00	 2.296296e+00	 1.079688e+01
0	 3.777778e+00	 2.370370e+00	 1.078830e+01
0	 3.777778e+00	 2.444444e+00	 1.077849e+01
0	 3.777778e+00	 2.518519e+00	 1.076738e+01
0	 3.777778e+00	 2.592593e+00	 1.075492e+01
0	 3.851852e+00	 2.222222e+00	 1.078061e+01
0	 3.851852e+00	 2.296296e+00	 1.077442e+01
0	 3.851852e+00	 2.370370e+00	 1.076704e+01
0	 3.851852e+00	 2.444444e+00	 1.075846e+01
0	 3.851852e+00	 2.518519e+00	 1.074863e+01
0	 3.851852e+00	 2.592593e+00	 1.073752e+01
0	 3.925926e+00	 2.222222e+00	 1.075733e+01
0	 3.925926e+00	 2.296296e+00	 1.075216e+01
0	 3.925926e+00	 2.370370e+00	 1.074585e+01
0	 3.925926e+00	 2.444444e+00	 1.073840e+01
0	 3.925926e+00	 2.518519e+00	 1.072977e+01
0	 3.925926e+00	 2.592593e+00	 1.071994e+01
0	 4.000000e+00	 2.222222e+00	 1.073444e+01
0	 4.000000e+00	 2.296296e+00	 1.073017e+01
0	 4.000000e+00	 2.370370e+00	 1.072484e+01
0	 4.000000e+00	 2.444444e+00	 1.071842e+01
0	 4.000000e+00	 2.518519e+00	 1.071090e+01
0	 4.000000e+00	 2.592593e+00	 1.070227e+01
0	 4.074074e+00	 2.222222e+00	 1.071198e+01
0	 4.074074e+00	 2.296296e+00	 1.070854e+01
0	 4.074074e+00	 2.370370e+00	 1.070409e+01
0	 4.074074e+00	 2.444444e+00	 1.069863e+01
0	 4.074074e+00	 2.518519e+00	 1.069214e+01
0	 4.074074e+00	 2.592593e+00	 1.068461e+01
0	 3.703704e+00	 2.592593e+00	 1.077203e+01
0	 3.703704e+00	 2.666667e+00	 1.075722e+01
0	 3.703704e+00	 2.740741e+00	 1.074189e+01
0	 3.703704e+00	 2.814815e+00	 1.072598e+01
0	 3.703704e+00	 2.888889e+00	 1.070941e+01
0	 3.703704e+00	 2.962963e+00	 1.069212e+01
0	 3.777778e+00	 2.592593e+00	 1.075492e+01
0	 3.777778e+00	 2.666667e+00	 1.074153e+01
0	 3.777778e+00	 2.740741e+00	 1.072762e+01
0	 3.777778e+00	 2.814815e+00	 1.071312e+01
0	 3.777778e+00	 2.888889e+00	 1.069794e+01
0	 3.777778e+00	 2.962963e+00	 1.068203e+01
0	 3.851852e+00	 2.592593e+00	 1.073752e+01
0	 3.851852e+00	 2.666667e+00	 1.072551e+01
0	 3.851852e+00	 2.740741e+00	 1.071294e+01
0	 3.851852e+00	 2.814815e+00	 1.069974e+01
0	 3.851852e+00	 2.888889e+00	 1.068585e+01
0	 3.851852e+00	 2.962963e+00	 1.067120e+01
0	 3.925926e+00	 2.592593e+00	 1.071994e+01
0	 3.925926e+00	 2.666667e+00	 1.070923e+01
0	 3.925926e+00	 2.740741e+00	 1.069792e+01
0	 3.925926e+00	 2.814815e+00	 1.068594e+01
0	 3.925926e+00	 2.888889e+00	 1.067323e+01
0	 3.925926e+00	 2.962963e+00	 1.065972e+01
0	 4.000000e+00	 2.592593e+00	 1.070227e+01
0	 4.000000e+00	 2.666667e+00	 1.069277e+01
0	 4.000000e+00	 2.740741e+00	 1.068263e+01
0	 4.000000e+00	 2.814815e+00	 1.067179e+01
0	 4.000000e+00	 2.888889e+00	 1.066017e+01
0	 4.000000e+00	 2.962963e+00	 1.064773e+01
0	 4.074074e+00	 2.592593e+00	 1.068461e+01
0	 4.074074e+00	 2.666667e+00	 1.067623e+01
0	 4.074074e+00	 2.740741e+00	 1.066716e+01
0	 4.074074e+00	 2.814815e+00	 1.065736e+01
0	 4.074074e+00	 2.888889e+00	 1.064677e+01
0	 4.074074e+00	 2.962963e+00	 1.063534e+01
0	 3.703704e+00	 2.962963e+00	 1.069212e+01
0	 3.703704e+00	 3.037037e+00	 1.067440e+01
0	 3.703704e+00	 3.111111e+00	 1.065654e+01
0	 3.703704e+00	 3.185185e+00	 1.063847e+01
0	 3.703704e+00	 3.259259e+00	 1.062009e+01
0	 3.703704e+00	 3.333333e+00	 1.060133e+01
0	 3.777778e+00	 2.962963e+00	 1.068203e+01
0	 3.777778e+00	 3.037037e+00	 1.066565e+01
0	 3.777778e+00	 3.111111e+00	 1.064904e+01
0	 3.777778e+00	 3.185185e+00	 1.063215e+01
0	 3.777778e+00	 3.259259e+00	 1.061490e+01
0	 3.777778e+00	 3.333333e+00	 1.059723e+01
0	 3.851852e+00	 2.962963e+00	 1.067120e+01
0	 3.851852e+00	 3.037037e+00	 1.065602e+01
0	 3.851852e+00	 3.111111e+00	 1.064058e+01
0	 3.851852e+00	 3.185185e+00	 1.062482e+01
0	 3.851852e+00	 3.259259e+00	 1.060867e+01
0	 3.851852e+00	 3.333333e+00	 1.059208e+01
0	 3.925926e+00	 2.962963e+00	 1.065972e+01
0	 3.925926e+00	 3.037037e+00	 1.064567e+01
0	 3.925926e+00	 3.111111e+00	 1.063132e+01
0	 3.925926e+00	 3.185185e+00	 1.061664e+01
0	 3.925926e+00	 3.259259e+00	 1.060156e+01
0	 3.925926e+00	 3.333333e+00	 1.058604e+01
0	 4.000000e+00	 2.962963e+00	 1.064773e+01
0	 4.000000e+00	 3.037037e+00	 1.063473e+01
0	 4.000000e+00	 3.111111e+00	 1.062142e+01
0	 4.000000e+00	 3.185185e+00	 1.060777e+01
0	 4.000000e+00	 3.259259e+00	 1.059372e+01
0	 4.000000e+00	 3.333333e+00	 1.057923e+01
0	 4.074074e+00	 2.962963e+00	 1.063534e+01
0	 4.074074e+00	 3.037037e+00	 1.062334e+01
0	 4.074074e+00	 3.111111e+00	 1.061104e+01
0	 4.074074e+00	 3.185185e+00	 1.059838e+01
0	 4.074074e+00	 3.259259e+00	 1.058532e+01
0	 4.074074e+00	 3.333333e+00	 1.057182e+01
0	 3.703704e+00	 3.333333e+00	 1.060133e+01
0	 3.703704e+00	 3.407407e+00	 1.058249e+01
0	 3.703704e+00	 3.481481e+00	 1.056387e+01
0	 3.703704e+00	 3.555556e+00	 1.054543e+01
0	 3.703704e+00	 3.629630e+00	 1.052710e+01
0	 3.703704e+00	 3.703704e+00	 1.050885e+01
0	 3.777778e+00	 3.333333e+00	 1.059723e+01
0	 3.777778e+00	 3.407407e+00	 1.057944e+01
0	 3.777778e+00	 3.481481e+00	 1.056182e+01
0	 3.777778e+00	 3.555556e+00	 1.054433e+01
0	 3.777778e+00	 3.629630e+00	 1.052691e+01
0	 3.777778e+00	 3.703704e+00	 1.050950e+01
0	 3.851852e+00	 3.333333e+00	 1.059208e+01
0	 3.851852e+00	 3.407407e+00	 1.057534e+01
0	 3.851852e+00	 3.481481e+00	 1.055872e+01
0	 3.851852e+00	 3.555556e+00	 1.054216e+01
0	 3.851852e+00	 3.629630e+00	 1.052561e+01
0	 3.851852e+00	 3.703704e+00	 1.050900e+01
0	 3.925926e+00	 3.333333e+00	 1.058604e+01
0	 3.925926e+00	 3.407407e+00	 1.057032e+01
0	 3.925926e+00	 3.481481e+00	 1.055467e+01
0	 3.925926e+00	 3.555556e+00	 1.053902e+01
0	 3.925926e+00	 3.629630e+00	 1.052331e+01
0	 3.925926e+00	 3.703704e+00	 1.050749e+01
0	 4.000000e+00	 3.333333e+00	 1.057923e+01
0	 4.000000e+00	 3.407407e+00	 1.056452e+01
0	 4.000000e+00	 3.481481e+00	 1.054980e+01
0	 4.000000e+00	 3.555556e+00	 1.053503e+01
0	 4.000000e+00	 3.629630e+00	 1.052014e+01
0	 4.000000e+00	 3.703704e+00	 1.050508e+01
0	 4.074074e+00	 3.333333e+00	 1.057182e+01
0	 4.074074e+00	 3.407407e+00	 1.055806e+01
0	 4.074074e+00	 3.481481e+00	 1.054423e+01
0	 4.074074e+00	 3.555556e+00	 1.053030e+01
0	 4.074074e+00	 3.629630e+00	 1.051620e+01
0	 4.074074e+00	 3.703704e+00	 1.050189e+01
0	 3.703704e+00	 3.703704e+00	 1.050885e+01
0	 3.703704e+00	 3.777778e+00	 1.049080e+01
0	 3.703704e+00	 3.851852e+00	 1.047312e+01
0	 3.703704e+00	 3.925926e+00	 1.045576e+01
0	 3.703704e+00	 4.000000e+00	 1.043866e+01
0	 3.703704e+00	 4.074074e+00	 1.042180e+01
0	 3.777778e+00	 3.703704e+00	 1.050950e+01
0	 3.777778e+00	 3.777778e+00	 1.049223e+01
0	 3.777778e+00	 3.851852e+00	 1.047526e+01
0	 3.777778e+00	 3.925926e+00	 1.045855e+01
0	 3.777778e+00	 4.000000e+00	 1.044205e+01
0	 3.777778e+00	 4.074074e+00	 1.042573e+01
0	 3.851852e+00	 3.703704e+00	 1.050900e+01
0	 3.851852e+00	 3.777778e+00	 1.049249e+01
0	 3.851852e+00	 3.851852e+00	 1.047622e+01
0	 3.851852e+00	 3.925926e+00	 1.046016e+01
0	 3.851852e+00	 4.000000e+00	 1.044428e+01
0	 3.851852e+00	 4.074074e+00	 1.042854e+01
0	 3.925926e+00	 3.703704e+00	 1.050749e+01
0	 3.925926e+00	 3.777778e+00	 1.049171e+01
0	 3.925926e+00	 3.851852e+00	 1.047614e+01
0	 3.925926e+00	 3.925926e+00	 1.046074e+01
0	 3.925926e+00	 4.000000e+00	 1.044548e+01
0	 3.925926e+00	 4.074074e+00	 1.043033e+01
0	 4.000000e+00	 3.703704e+00	 1.050508e+01
0	 4.000000e+00	 3.777778e+00	 1.049002e+01
0	 4.000000e+00	 3.851852e+00	 1.047513e+01
0	 4.000000e+00	 3.925926e+00	 1.046039e+01
0	 4.000000e+00	 4.000000e+00	 1.044576e+01
0	 4.000000e+00	 4.074074e+00	 1.043120e+01
0	 4.074074e+00	 3.703704e+00	 1.050189e+01
0	 4.074074e+00	 3.777778e+00	 1.048754e+01
0	 4.074074e+00	 3.851852e+00	 1.047334e+01
0	 4.074074e+00	 3.925926e+00	 1.045925e+01
0	 4.074074e+00	 4.000000e+00	 1.044524e+01
0	 4.074074e+00	 4.074074e+00	 1.043128e+01
0	 3.703704e+00	 4.074074e+00	 1.042180e+01
0	 3.703704e+00	 4.148148e+00	 1.040528e+01
0	 3.703704e+00	 4.222222e+00	 1.038922e+01
0	 3.703704e+00	 4.296296e+00	 1.037360e+01
0	 3.703704e+00	 4.370370e+00	 1.035840e+01
0	 3.703704e+00	 4.444444e+00	 1.034360e+01
0	 3.777778e+00	 4.074074e+00	 1.042573e+01
0	 3.777778e+00	 4.148148e+00	 1.040972e+01
0	 3.777778e+00	 4.222222e+00	 1.039413e+01
0	 3.777778e+00	 4.296296e+00	 1.037893e+01
0	 3.777778e+00	 4.370370e+00	 1.036412e+01
0	 3.777778e+00	 4.444444e+00	 1.034964e+01
0	 3.851852e+00	 4.074074e+00	 1.042854e+01
0	 3.851852e+00	 4.148148e+00	 1.041306e+01
0	 3.851852e+00	 4.222222e+00	 1.039795e+01
0	 3.851852e+00	 4.296296e+00	 1.038321e+01
0	 3.851852e+00	 4.370370e+00	 1.036879e+01
0	 3.851852e+00	 4.444444e+00	 1.035466e+01
0	 3.925926e+00	 4.074074e+00	 1.043033e+01
0	 3.925926e+00	 4.148148e+00	 1.041539e+01
0	 3.925926e+00	 4.222222e+00	 1.040080e+01
0	 3.925926e+00	 4.296296e+00	 1.038651e+01
0	 3.925926e+00	 4.370370e+00	 1.037249e+01
0	 3.925926e+00	 4.444444e+00	 1.035873e+01
0	 4.000000e+00	 4.074074e+00	 1.043120e+01
0	 4.000000e+00	 4.148148e+00	 1.041683e+01
0	 4.000000e+00	 4.222222e+00	 1.040274e+01
0	 4.000000e+00	 4.296296e+00	 1.038891e+01
0	 4.000000e+00	 4.370370e+00	 1.037532e+01
0	 4.000000e+00	 4.444444e+00	 1.036192e+01
0	 4.074074e+00	 4.074074e+00	 1.043128e+01
0	 4.074074e+00	 4.148148e+00	 1.041745e+01
0	 4.074074e+00	 4.222222e+00	 1.040387e+01
0	 4.074074e+00	 4.296296e+00	 1.039051e+01
0	 4.074074e+00	 4.370370e+00	 1.037733e+01
0	 4.074074e+00	 4.444444e+00	 1.036431e+01
0	 3.703704e+00	 4.444444e+00	 1.034360e+01
0	 3.703704e+00	 4.518519e+00	 1.032921e+01
0	 3.703704e+00	 4.592593e+00	 1.031528e+01
0	 3.703704e+00	 4.666667e+00	 1.030178e+01
0	 3.703704e+00	 4.740741e+00	 1.028871e+01
0	 3.703704e+00	 4.814815e+00	 1.027604e+01
0	 3.777778e+00	 4.444444e+00	 1.034964e+01
0	 3.777778e+00	 4.518519e+00	 1.033555e+01
0	 3.777778e+00	 4.592593e+00	 1.032187e+01
0	 3.777778e+00	 4.666667e+00	 1.030859e+01
0	 3.777778e+00	 4.740741e+00	 1.029570e+01
0	 3.777778e+00	 4.814815e+00	 1.028318e+01
0	 3.851852e+00	 4.444444e+00	 1.035466e+01
0	 3.851852e+00	 4.518519e+00	 1.034087e+01
0	 3.851852e+00	 4.592593e+00	 1.032746e+01
0	 3.851852e+00	 4.666667e+00	 1.031443e+01
0	 3.851852e+00	 4.740741e+00	 1.030175e+01
0	 3.851852e+00	 4.814815e+00	 1.028941e+01
0	 3.925926e+00	 4.444444e+00	 1.035873e+01
0	 3.925926e+00	 4.518519e+00	 1.034526e+01
0	 3.925926e+00	 4.592593e+00	 1.033214e+01
0	 3.925926e+00	 4.666667e+00	 1.031937e+01
0	 3.925926e+00	 4.740741e+00	 1.030693e+01
0	 3.925926e+00	 4.814815e+00	 1.029480e+01
0	 4.000000e+00	 4.444444e+00	 1.036192e+01
0	 4.000000e+00	 4.518519e+00	 1.034878e+01
0	 4.000000e+00	 4.592593e+00	 1.033598e+01
0	 4.000000e+00	 4.666667e+00	 1.032349e+01
0	 4.000000e+00	 4.740741e+00	 1.031131e+01
0	 4.000000e+00	 4.814815e+00	 1.029941e+01
0	 4.074074e+00	 4.444444e+00	 1.036431e+01
0	 4.074074e+00	 4.518519e+00	 1.035153e+01
0	 4.074074e+00	 4.592593e+00	 1.033905e+01
0	 4.074074e+00	 4.666667e+00	 1.032686e+01
0	 4.074074e+00	 4.740741e+00	 1.031495e+01
0	 4.074074e+00	 4.814815e+00	 1.030329e+01
0	 3.703704e+00	 4.814815e+00	 1.027604e+01
0	 3.703704e+00	 4.888889e+00	 1.026380e+01
0	 3.703704e+00	 4.962963e+00	 1.025198e+01
0	 3.703704e+00	 5.037037e+00	 1.024060e+01
0	 3.703704e+00	 5.111111e+00	 1.022964e+01
0	 3.703704e+00	 5.185185e+00	 1.021910e+01
0	 3.777778e+00	 4.814815e+00	 1.028318e+01
0	 3.777778e+00	 4.888889e+00	 1.027105e+01
0	 3.777778e+00	 4.962963e+00	 1.025934e+01
0	 3.777778e+00	 5.037037e+00	 1.024804e+01
0	 3.777778e+00	 5.111111e+00	 1.023713e+01
0	 3.777778e+00	 5.185185e+00	 1.022662e+01
0	 3.851852e+00	 4.814815e+00	 1.028941e+01
0	 3.851852e+00	 4.888889e+00	 1.027744e+01
0	 3.851852e+00	 4.962963e+00	 1.026586e+01
0	 3.851852e+00	 5.037037e+00	 1.025466e+01
0	 3.851852e+00	 5.111111e+00	 1.024383e+01
0	 3.851852e+00	 5.185185e+00	 1.023337e+01
0	 3.925926e+00	 4.814815e+00	 1.029480e+01
0	 3.925926e+00	 4.888889e+00	 1.028301e+01
0	 3.925926e+00	 4.962963e+00	 1.027159e+01
0	 3.925926e+00	 5.037037e+00	 1.026052e+01
0	 3.925926e+00	 5.111111e+00	 1.024979e+01
0	 3.925926e+00	 5.185185e+00	 1.023939e+01
0	 4.000000e+00	 4.814815e+00	 1.029941e+01
0	 4.000000e+00	 4.888889e+00	 1.028782e+01
0	 4.000000e+00	 4.962963e+00	 1.027657e+01
0	 4.000000e+00	 5.037037e+00	 1.026565e+01
0	 4.000000e+00	 5.111111e+00	 1.025504e+01
0	 4.000000e+00	 5.185185e+00	 1.024474e+01
0	 4.074074e+00	 4.814815e+00	 1.030329e+01
0	 4.074074e+00	 4.888889e+00	 1.029192e+01
0	 4.074074e+00	 4.962963e+00	 1.028086e+01
0	 4.074074e+00	 5.037037e+00	 1.027010e+01
0	 4.074074e+00	 5.111111e+00	 1.025963e+01
0	 4.074074e+00	 5.185185e+00	 1.024943e+01
0	 3.703704e+00	 5.185185e+00	 1.021910e+01
0	 3.703704e+00	 5.259259e+00	 1.020896e+01
0	 3.703704e+00	 5.333333e+00	 1.019919e+01
0	 3.703704e+00	 5.407407e+00	 1.018980e+01
0	 3.703704e+00	 5.481481e+00	 1.018079e+01
0	 3.703704e+00	 5.555556e+00	 1.017215e+01
0	 3.777778e+00	 5.185185e+00	 1.022662e+01
0	 3.777778e+00	 5.259259e+00	 1.021648e+01
0	 3.777778e+00	 5.333333e+00	 1.020670e+01
0	 3.777778e+00	 5.407407e+00	 1.019728e+01
0	 3.777778e+00	 5.481481e+00	 1.018821e+01
0	 3.777778e+00	 5.555556e+00	 1.017951e+01
0	 3.851852e+00	 5.185185e+00	 1.023337e+01
0	 3.851852e+00	 5.259259e+00	 1.022325e+01
0	 3.851852e+00	 5.333333e+00	 1.021349e+01
0	 3.851852e+00	 5.407407e+00	 1.020406e+01
0	 3.851852e+00	 5.481481e+00	 1.019498e+01
0	 3.851852e+00	 5.555556e+00	 1.018623e+01
0	 3.925926e+00	 5.185185e+00	 1.023939e+01
0	 3.925926e+00	 5.259259e+00	 1.022933e+01
0	 3.925926e+00	 5.333333e+00	 1.021960e+01
0	 3.925926e+00	 5.407407e+00	 1.021019e+01
0	 3.925926e+00	 5.481481e+00	 1.020112e+01
0	 3.925926e+00	 5.555556e+00	 1.019236e+01
0	 4.000000e+00	 5.185185e+00	 1.024474e+01
0	 4.000000e+00	 5.259259e+00	 1.023474e+01
0	 4.000000e+00	 5.333333e+00	 1.022507e+01
0	 4.000000e+00	 5.407407e+00	 1.021571e+01
0	 4.000000e+00	 5.481481e+00	 1.020665e+01
0	 4.000000e+00	 5.555556e+00	 1.019790e+01
0	 4.074074e+00	 5.185185e+00	 1.024943e+01
0	 4.074074e+00	 5.259259e+00	 1.023953e+01
0	 4.074074e+00	 5.333333e+00	 1.022993e+01
0	 4.074074e+00	 5.407407e+00	 1.022063e+01
0	 4.074074e+00	 5.481481e+00	 1.021162e+01
0	 4.074074e+00	 5.555556e+00	 1.020290e+01
0	 3.703704e+00	 5.555556e+00	 1.017215e+01
0	 3.703704e+00	 5.629630e+00	 1.016385e+01
0	 3.703704e+00	 5.703704e+00	 1.015589e+01
0	 3.703704e+00	 5.777778e+00	 1.014825e+01
0	 3.703704e+00	 5.851852e+00	 1.014094e+01
0	 3.703704e+00	 5.925926e+00	 1.013397e+01
0	 3.777778e+00	 5.555556e+00	 1.017951e+01
0	 3.777778e+00	 5.629630e+00	 1.017113e+01
0	 3.777778e+00	 5.703704e+00	 1.016308e+01
0	 3.777778e+00	 5.777778e+00	 1.015535e+01
0	 3.777778e+00	 5.851852e+00	 1.014794e+01
0	 3.777778e+00	 5.925926e+00	 1.014084e+01
0	 3.851852e+00	 5.555556e+00	 1.018623e+01
0	 3.851852e+00	 5.629630e+00	 1.017781e+01
0	 3.851852e+00	 5.703704e+00	 1.016970e+01
0	 3.851852e+00	 5.777778e+00	 1.016189e+01
0	 3.851852e+00	 5.851852e+00	 1.015440e+01
0	 3.851852e+00	 5.925926e+00	 1.014721e+01
0	 3.925926e+00	 5.555556e+00	 1.019236e+01
0	 3.925926e+00	 5.629630e+00	 1.018391e+01
0	 3.925926e+00	 5.703704e+00	 1.017576e+01
0	 3.925926e+00	 5.777778e+00	 1.016790e+01
0	 3.925926e+00	 5.851852e+00	 1.016034e+01
0	 3.925926e+00	 5.925926e+00	 1.015307e+01
0	 4.000000e+00	 5.555556e+00	 1.019790e+01
0	 4.000000e+00	 5.629630e+00	 1.018945e+01
0	 4.000000e+00	 5.703704e+00	 1.018128e+01
0	 4.000000e+00	 5.777778e+00	 1.017339e+01
0	 4.000000e+00	 5.851852e+00	 1.016579e+01
0	 4.000000e+00	 5.925926e+00	 1.015846e+01
0	 4.074074e+00	 5.555556e+00	 1.020290e+01
0	 4.074074e+00	 5.629630e+00	 1.019446e+01
0	 4.074074e+00	 5.703704e+00	 1.018629e+01
0	 4.074074e+00	 5.777778e+00	 1.017838e+01
0	 4.074074e+00	 5.851852e+00	 1.017075e+01
0	 4.074074e+00	 5.925926e+00	 1.016338e+01
0	 3.703704e+00	 5.925926e+00	 1.013397e+01
0	 3.703704e+00	 6.000000e+00	 1.012730e+01
0	 3.703704e+00	 6.074074e+00	 1.012089e+01
0	 3.703704e+00	 6.148148e+00	 1.011476e+01
0	 3.703704e+00	 6.222222e+00	 1.010890e+01
0	 3.703704e+00	 6.296296e+00	 1.010332e+01
0	 3.777778e+00	 5.925926e+00	 1.014084e+01
0	 3.777778e+00	 6.000000e+00	 1.013404e+01
0	 3.777778e+00	 6.074074e+00	 1.012750e+01
0	 3.777778e+00	 6.148148e+00	 1.012123e+01
0	 3.777778e+00	 6.222222e+00	 1.011523e+01
0	 3.777778e+00	 6.296296e+00	 1.010950e+01
0	 3.851852e+00	 5.925926e+00	 1.014721e+01
0	 3.851852e+00	 6.000000e+00	 1.014030e+01
0	 3.851852e+00	 6.074074e+00	 1.013365e+01
0	 3.851852e+00	 6.148148e+00	 1.012726e+01
0	 3.851852e+00	 6.222222e+00	 1.012113e+01
0	 3.851852e+00	 6.296296e+00	 1.011526e+01
0	 3.925926e+00	 5.925926e+00	 1.015307e+01
0	 3.925926e+00	 6.000000e+00	 1.014608e+01
0	 3.925926e+00	 6.074074e+00	 1.013933e+01
0	 3.925926e+00	 6.148148e+00	 1.013284e+01
0	 3.925926e+00	 6.222222e+00	 1.012661e+01
0	 3.925926e+00	 6.296296e+00	 1.012063e+01
0	 4.000000e+00	 5.925926e+00	 1.015846e+01
0	 4.000000e+00	 6.000000e+00	 1.015139e+01
0	 4.000000e+00	 6.074074e+00	 1.014457e+01
0	 4.000000e+00	 6.148148e+00	 1.013800e+01
0	 4.000000e+00	 6.222222e+00	 1.013168e+01
0	 4.000000e+00	 6.296296e+00	 1.012560e+01
0	 4.074074e+00	 5.925926e+00	 1.016338e+01
0	 4.074074e+00	 6.000000e+00	 1.015626e+01
0	 4.074074e+00	 6.074074e+00	 1.014939e+01
0	 4.074074e+00	 6.148148e+00	 1.014275e+01
0	 4.074074e+00	 6.222222e+00	 1.013635e+01
0	 4.074074e+00	 6.296296e+00	 1.013020e+01
0	 3.703704e+00	 6.296296e+00	 1.010332e+01
0	 3.703704e+00	 6.370370e+00	 1.009799e+01
0	 3.703704e+00	 6.444444e+00	 1.009288e+01
0	 3.703704e+00	 6.518519e+00	 1.008800e+01
0	 3.703704e+00	 6.592593e+00	 1.008334e+01
0	 3.703704e+00	 6.666667e+00	 1.007891e+01
0	 3.777778e+00	 6.296296e+00	 1.010950e+01
0	 3.777778e+00	 6.370370e+00	 1.010401e+01
0	 3.777778e+00	 6.444444e+00	 1.009874e+01
0	 3.777778e+00	 6.518519e+00	 1.009369e+01
0	 3.777778e+00	 6.592593e+00	 1.008887e+01
0	 3.777778e+00	 6.666667e+00	 1.008427e+01
0	 3.851852e+00	 6.296296e+00	 1.011526e+01
0	 3.851852e+00	 6.370370e+00	 1.010963e+01
0	 3.851852e+00	 6.444444e+00	 1.010423e+01
0	 3.851852e+00	 6.518519e+00	 1.009904e+01
0	 3.851852e+00	 6.592593e+00	 1.009406e+01
0	 3.851852e+00	 6.666667e+00	 1.008932e+01
0	 3.925926e+00	 6.296296e+00	 1.012063e+01
0	 3.925926e+00	 6.370370e+00	 1.011488e+01
0	 3.925926e+00	 6.444444e+00	 1.010935e+01
0	 3.925926e+00	 6.518519e+00	 1.010403e+01
0	 3.925926e+00	 6.592593e+00	 1.009893e+01
0	 3.925926e+00	 6.666667e+00	 1.009404e+01
0	 4.000000e+00	 6.296296e+00	 1.012560e+01
0	 4.000000e+00	 6.370370e+00	 1.011975e+01
0	 4.000000e+00	 6.444444e+00	 1.011411e+01
0	 4.000000e+00	 6.518519e+00	 1.010868e+01
0	 4.000000e+00	 6.592593e+00	 1.010347e+01
0	 4.000000e+00	 6.666667e+00	 1.009846e+01
0	 4.074074e+00	 6.296296e+00	 1.013020e+01
0	 4.074074e+00	 6.370370e+00	 1.012426e+01
0	 4.074074e+00	 6.444444e+00	 1.011853e+01
0	 4.074074e+00	 6.518519e+00	 1.011300e+01
0	 4.074074e+00	 6.592593e+00	 1.010768e+01
0	 4.074074e+00	 6.666667e+00	 1.010256e+01
0	 3.703704e+00	 6.666667e+00	 1.007891e+01
0	 3.703704e+00	 6.740741e+00	 1.007469e+01
0	 3.703704e+00	 6.814815e+00	 1.007064e+01
0	 3.703704e+00	 6.888889e+00	 1.006677e+01
0	 3.703704e+00	 6.962963e+00	 1.006308e+01
0	 3.703704e+00	 7.037037e+00	 1.005958e+01
0	 3.777778e+00	 6.666667e+00	 1.008427e+01
0	 3.777778e+00	 6.740741e+00	 1.007988e+01
0	 3.777778e+00	 6.814815e+00	 1.007566e+01
0	 3.777778e+00	 6.888889e+00	 1.007162e+01
0	 3.777778e+00	 6.962963e+00	 1.006776e+01
0	 3.777778e+00	 7.037037e+00	 1.006409e+01
0	 3.851852e+00	 6.666667e+00	 1.008932e+01
0	 3.851852e+00	 6.740741e+00	 1.008477e+01
0	 3.851852e+00	 6.814815e+00	 1.008039e+01
0	 3.851852e+00	 6.888889e+00	 1.007620e+01
0	 3.851852e+00	 6.962963e+00	 1.007218e+01
0	 3.851852e+00	 7.037037e+00	 1.006834e+01
0	 3.925926e+00	 6.666667e+00	 1.009404e+01
0	 3.925926e+00	 6.740741e+00	 1.008935e+01
0	 3.925926e+00	 6.814815e+00	 1.008484e+01
0	 3.925926e+00	 6.888889e+00	 1.008050e+01
0	 3.925926e+00	 6.962963e+00	 1.007634e+01
0	 3.925926e+00	 7.037037e+00	 1.007236e+01
0	 4.000000e+00	 6.666667e+00	 1.009846e+01
0	 4.000000e+00	 6.740741e+00	 1.009364e+01
0	 4.000000e+00	 6.814815e+00	 1.008900e+01
0	 4.000000e+00	 6.888889e+00	 1.008453e+01
0	 4.000000e+00	 6.962963e+00	 1.008024e+01
0	 4.000000e+00	 7.037037e+00	 1.007612e+01
0	 4.074074e+00	 6.666667e+00	 1.010256e+01
0	 4.074074e+00	 6.740741e+00	 1.009763e+01
0	 4.074074e+00	 6.814815e+00	 1.009288e+01
0	 4.074074e+00	 6.888889e+00	 1.008829e+01
0	 4.074074e+00	 6.962963e+00	 1.008388e+01
0	 4.074074e+00	 7.037037e+00	 1.007965e+01
0	 3.703704e+00	 7.037037e+00	 1.005958e+01
0	 3.703704e+00	 7.111111e+00	 1.005624e+01
0	 3.703704e+00	 7.185185e+00	 1.005304e+01
0	 3.703704e+00	 7.259259e+00	 1.004998e+01
0	 3.703704e+00	 7.333333e+00	 1.004707e+01
0	 3.703704e+00	 7.407407e+00	 1.004430e+01
0	 3.777778e+00	 7.037037e+00	 1.006409e+01
0	 3.777778e+00	 7.111111e+00	 1.006057e+01
0	 3.777778e+00	 7.185185e+00	 1.005720e+01
0	 3.777778e+00	 7.259259e+00	 1.005397e+01
0	 3.777778e+00	 7.333333e+00	 1.005089e+01
0	 3.777778e+00	 7.407407e+00	 1.004795e+01
0	 3.851852e+00	 7.037037e+00	 1.006834e+01
0	 3.851852e+00	 7.111111e+00	 1.006467e+01
0	 3.851852e+00	 7.185185e+00	 1.006114e+01
0	 3.851852e+00	 7.259259e+00	 1.005775e+01
0	 3.851852e+00	 7.333333e+00	 1.005451e+01
0	 3.851852e+00	 7.407407e+00	 1.005142e+01
0	 3.925926e+00	 7.037037e+00	 1.007236e+01
0	 3.925926e+00	 7.111111e+00	 1.006854e+01
0	 3.925926e+00	 7.185185e+00	 1.006486e+01
0	 3.925926e+00	 7.259259e+00	 1.006133e+01
0	 3.925926e+00	 7.333333e+00	 1.005794e+01
0	 3.925926e+00	 7.407407e+00	 1.005470e+01
0	 4.000000e+00	 7.037037e+00	 1.007612e+01
0	 4.000000e+00	 7.111111e+00	 1.007217e+01
0	 4.000000e+00	 7.185185e+00	 1.006836e+01
0	 4.000000e+00	 7.259259e+00	 1.006469e+01
0	 4.000000e+00	 7.333333e+00	 1.006116e+01
0	 4.000000e+00	 7.407407e+00	 1.005779e+01
0	 4.074074e+00	 7.037037e+00	 1.007965e+01
0	 4.074074e+00	 7.111111e+00	 1.007557e+01
0	 4.074074e+00	 7.185185e+00	 1.007163e+01
0	 4.074074e+00	 7.259259e+00	 1.006784e+01
0	 4.074074e+00	 7.333333e+00	 1.006419e+01
0	 4.074074e+00	 7.407407e+00	 1.006069e+01
0	 3.703704e+00	 7.407407e+00	 1.004430e+01
0	 3.703704e+00	 7.481481e+00	 1.004166e+01
0	 3.703704e+00	 7.555556e+00	 1.003913e+01
0	 3.703704e+00	 7.629630e+00	 1.003671e+01
0	 3.703704e+00	 7.703704e+00	 1.003440e+01
0	 3.703704e+00	 7.777778e+00	 1.003220e+01
0	 3.777778e+00	 7.407407e+00	 1.004795e+01
0	 3.777778e+00	 7.481481e+00	 1.004514e+01
0	 3.777778e+00	 7.555556e+00	 1.004245e+01
0	 3.777778e+00	 7.629630e+00	 1.003986e+01
0	 3.777778e+00	 7.703704e+00	 1.003739e+01
0	 3.777778e+00	 7.777778e+00	 1.003504e+01
0	 3.851852e+00	 7.407407e+00	 1.005142e+01
0	 3.851852e+00	 7.481481e+00	 1.004845e+01
0	 3.851852e+00	 7.555556e+00	 1.004560e+01
0	 3.851852e+00	 7.629630e+00	 1.004286e+01
0	 3.851852e+00	 7.703704e+00	 1.004024e+01
0	 3.851852e+00	 7.777778e+00	 1.003774e+01
0	 3.925926e+00	 7.407407e+00	 1.005470e+01
0	 3.925926e+00	 7.481481e+00	 1.005158e+01
0	 3.925926e+00	 7.555556e+00	 1.004859e+01
0	 3.925926e+00	 7.629630e+00	 1.004571e+01
0	 3.925926e+00	 7.703704e+00	 1.004294e+01
0	 3.925926e+00	 7.777778e+00	 1.004030e+01
0	 4.000000e+00	 7.407407e+00	 1.005779e+01
0	 4.000000e+00	 7.481481e+00	 1.005454e+01
0	 4.000000e+00	 7.555556e+00	 1.005141e+01
0	 4.000000e+00	 7.629630e+00	 1.004839e+01
0	 4.000000e+00	 7.703704e+00	 1.004549e+01
0	 4.000000e+00	 7.777778e+00	 1.004272e+01
0	 4.074074e+00	 7.407407e+00	 1.006069e+01
0	 4.074074e+00	 7.481481e+00	 1.005731e+01
0	 4.074074e+00	 7.555556e+00	 1.005406e+01
0	 4.074074e+00	 7.629630e+00	 1.005092e+01
0	 4.074074e+00	 7.703704e+00	 1.004790e+01
0	 4.074074e+00	 7.777778e+00	 1.004499e+01
0	 3.703704e+00	 7.777778e+00	 1.003220e+01
0	 3.703704e+00	 7.851852e+00	 1.003011e+01
0	 3.703704e+00	 7.925926e+00	 1.002810e+01
0	 3.703704e+00	 8.000000e+00	 1.002618e+01
0	 3.703704e+00	 8.074074e+00	 1.002434e+01
0	 3.703704e+00	 8.148148e+00	 1.002259e+01
0	 3.777778e+00	 7.777778e+00	 1.003504e+01
0	 3.777778e+00	 7.851852e+00	 1.003279e+01
0	 3.777778e+00	 7.925926e+00	 1.003062e+01
0	 3.777778e+00	 8.000000e+00	 1.002855e+01
0	 3.777778e+00	 8.074074e+00	 1.002657e+01
0	 3.777778e+00	 8.148148e+00	 1.002467e+01
0	 3.851852e+00	 7.777778e+00	 1.003774e+01
0	 3.851852e+00	 7.851852e+00	 1.003534e+01
0	 3.851852e+00	 7.925926e+00	 1.003303e+01
0	 3.851852e+00	 8.000000e+00	 1.003081e+01
0	 3.851852e+00	 8.074074e+00	 1.002869e+01
0	 3.851852e+00	 8.148148e+00	 1.002666e+01
0	 3.925926e+00	 7.777778e+00	 1.004030e+01
0	 3.925926e+00	 7.851852e+00	 1.003776e+01
0	 3.925926e+00	 7.925926e+00	 1.003531e+01
0	 3.925926e+00	 8.000000e+00	 1.003296e+01
0	 3.925926e+00	 8.074074e+00	 1.003071e+01
0	 3.925926e+00	 8.148148e+00	 1.002854e+01
0	 4.000000e+00	 7.777778e+00	 1.004272e+01
0	 4.000000e+00	 7.851852e+00	 1.004005e+01
0	 4.000000e+00	 7.925926e+00	 1.003747e+01
0	 4.000000e+00	 8.000000e+00	 1.003500e+01
0	 4.000000e+00	 8.074074e+00	 1.003261e+01
0	 4.000000e+00	 8.148148e+00	 1.003033e+01
0	 4.074074e+00	 7.777778e+00	 1.004499e+01
0	 4.074074e+00	 7.851852e+00	 1.004220e+01
0	 4.074074e+00	 7.925926e+00	 1.003951e+01
0	 4.074074e+00	 8.000000e+00	 1.003691e+01
0	 4.074074e+00	 8.074074e+00	 1.003441e+01
0	 4.074074e+00	 8.148148e+00	 1.003201e+01
0	 3.703704e+00	 8.148148e+00	 1.002259e+01
0	 3.703704e+00	 8.222222e+00	 1.002092e+01
0	 3.703704e+00	 8.296296e+00	 1.001932e+01
0	 3.703704e+00	 8.370370e+00	 1.001779e+01
0	 3.703704e+00	 8.444444e+00	 1.001633e+01
0	 3.703704e+00	 8.518519e+00	 1.001494e+01
0	 3.777778e+00	 8.148148e+00	 1.002467e+01
0	 3.777778e+00	 8.222222e+00	 1.002286e+01
0	 3.777778e+00	 8.296296e+00	 1.002112e+01
0	 3.777778e+00	 8.370370e+00	 1.001946e+01
0	 3.777778e+00	 8.444444e+00	 1.001786e+01
0	 3.777778e+00	 8.518519e+00	 1.001634e+01
0	 3.851852e+00	 8.148148e+00	 1.002666e+01
0	 3.851852e+00	 8.222222e+00	 1.002471e+01
0	 3.851852e+00	 8.296296e+00	 1.002284e+01
0	 3.851852e+00	 8.370370e+00	 1.002105e+01
0	 3.851852e+00	 8.444444e+00	 1.001933e+01
0	 3.851852e+00	 8.518519e+00	 1.001769e+01
0	 3.925926e+00	 8.148148e+00	 1.002854e+01
0	 3.925926e+00	 8.222222e+00	 1.002647e+01
0	 3.925926e+00	 8.296296e+00	 1.002448e+01
0	 3.925926e+00	 8.370370e+00	 1.002256e+01
0	 3.925926e+00	 8.444444e+00	 1.002073e+01
0	 3.925926e+00	 8.518519e+00	 1.001897e+01
0	 4.000000e+00	 8.148148e+00	 1.003033e+01
0	 4.000000e+00	 8.222222e+00	 1.002814e+01
0	 4.000000e+00	 8.296296e+00	 1.002603e+01
0	 4.000000e+00	 8.370370e+00	 1.002400e+01
0	 4.000000e+00	 8.444444e+00	 1.002205e+01
0	 4.000000e+00	 8.518519e+00	 1.002018e+01
0	 4.074074e+00	 8.148148e+00	 1.003201e+01
0	 4.074074e+00	 8.222222e+00	 1.002971e+01
0	 4.074074e+00	 8.296296e+00	 1.002749e+01
0	 4.074074e+00	 8.370370e+00	 1.002535e+01
0	 4.074074e+00	 8.444444e+00	 1.002330e+01
0	 4.074074e+00	 8.518519e+00	 1.002133e+01
0	 3.703704e+00	 8.518519e+00	 1.001494e+01
0	 3.703704e+00	 8.592593e+00	 1.001361e+01
0	 3.703704e+00	 8.666667e+00	 1.001234e+01
0	 3.703704e+00	 8.740741e+00	 1.001113e+01
0	 3.703704e+00	 8.814815e+00	 1.000998e+01
0	 3.703704e+00	 8.888889e+00	 1.000888e+01
0	 3.777778e+00	 8.518519e+00	 1.001634e+01
0	 3.777778e+00	 8.592593e+00	 1.001489e+01
0	 3.777778e+00	 8.666667e+00	 1.001350e+01
0	 3.777778e+00	 8.740741e+00	 1.001218e+01
0	 3.777778e+00	 8.814815e+00	 1.001092e+01
0	 3.777778e+00	 8.888889e+00	 1.000972e+01
0	 3.851852e+00	 8.518519e+00	 1.001769e+01
0	 3.851852e+00	 8.592593e+00	 1.001612e+01
0	 3.851852e+00	 8.666667e+00	 1.001462e+01
0	 3.851852e+00	 8.740741e+00	 1.001319e+01
0	 3.851852e+00	 8.814815e+00	 1.001182e+01
0	 3.851852e+00	 8.888889e+00	 1.001052e+01
0	 3.925926e+00	 8.518519e+00	 1.001897e+01
0	 3.925926e+00	 8.592593e+00	 1.001729e+01
0	 3.925926e+00	 8.666667e+00	 1.001568e+01
0	 3.925926e+00	 8.740741e+00	 1.001415e+01
0	 3.925926e+00	 8.814815e+00	 1.001268e+01
0	 3.925926e+00	 8.888889e+00	 1.001129e+01
0	 4.000000e+00	 8.518519e+00	 1.002018e+01
0	 4.000000e+00	 8.592593e+00	 1.001840e+01
0	 4.000000e+00	 8.666667e+00	 1.001669e+01
0	 4.000000e+00	 8.740741e+00	 1.001506e+01
0	 4.000000e+00	 8.814815e+00	 1.001350e+01
0	 4.000000e+00	 8.888889e+00	 1.001201e+01
0	 4.074074e+00	 8.518519e+00	 1.002133e+01
0	 4.074074e+00	 8.592593e+00	 1.001944e+01
0	 4.074074e+00	 8.666667e+00	 1.001764e+01
0	 4.074074e+00	 8.740741e+00	 1.001591e+01
0	 4.074074e+00	 8.814815e+00	 1.001427e+01
0	 4.074074e+00	 8.888889e+00	 1.001269e+01
0	 3.703704e+00	 8.888889e+00	 1.000888e+01
0	 3.703704e+00	 8.962963e+00	 1.000784e+01
0	 3.703704e+00	 9.037037e+00	 1.000686e+01
0	 3.703704e+00	 9.111111e+00	 1.000594e+01
0	 3.703704e+00	 9.185185e+00	 1.000508e+01
0	 3.703704e+00	 9.259259e+00	 1.000426e+01
0	 3.777778e+00	 8.888889e+00	 1.000972e+01
0	 3.777778e+00	 8.962963e+00	 1.000858e+01
0	 3.777778e+00	 9.037037e+00	 1.000751e+01
0	 3.777778e+00	 9.111111e+00	 1.000650e+01
0	 3.777778e+00	 9.185185e+00	 1.000555e+01
0	 3.777778e+00	 9.259259e+00	 1.000466e+01
0	 3.851852e+00	 8.888889e+00	 1.001052e+01
0	 3.851852e+00	 8.962963e+00	 1.000929e+01
0	 3.851852e+00	 9.037037e+00	 1.000813e+01
0	 3.851852e+00	 9.111111e+00	 1.000703e+01
0	 3.851852e+00	 9.185185e+00	 1.000600e+01
0	 3.851852e+00	 9.259259e+00	 1.000504e+01
0	 3.925926e+00	 8.888889e+00	 1.001129e+01
0	 3.925926e+00	 8.962963e+00	 1.000996e+01
0	 3.925926e+00	 9.037037e+00	 1.000872e+01
0	 3.925926e+00	 9.111111e+00	 1.000754e+01
0	 3.925926e+00	 9.185185e+00	 1.000644e+01
0	 3.925926e+00	 9.259259e+00	 1.000540e+01
0	 4.000000e+00	 8.888889e+00	 1.001201e+01
0	 4.000000e+00	 8.962963e+00	 1.001060e+01
0	 4.000000e+00	 9.037037e+00	 1.000927e+01
0	 4.000000e+00	 9.111111e+00	 1.000802e+01
0	 4.000000e+00	 9.185185e+00	 1.000685e+01
0	 4.000000e+00	 9.259259e+00	 1.000574e+01
0	 4.074074e+00	 8.888889e+00	 1.001269e+01
0	 4.074074e+00	 8.962963e+00	 1.001120e+01
0	 4.074074e+00	 9.037037e+00	 1.000980e+01
0	 4.074074e+00	 9.111111e+00	 1.000848e+01
0	 4.074074e+00	 9.185185e+00	 1.000723e+01
0	 4.074074e+00	 9.259259e+00	 1.000606e+01
0	 3.703704e+00	 9.259259e+00	 1.000426e+01
0	 3.703704e+00	 9.333333e+00	 1.000351e+01
0	 3.703704e+00	 9.407407e+00	 1.000283e+01
0	 3.703704e+00	 9.481481e+00	 1.000222e+01
0	 3.703704e+00	 9.555556e+00	 1.000167e+01
0	 3.703704e+00	 9.629630e+00	 1.000118e+01
0	 3.777778e+00	 9.259259e+00	 1.000466e+01
0	 3.777778e+00	 9.333333e+00	 1.000383e+01
0	 3.777778e+00	 9.407407e+00	 1.000309e+01
0	 3.777778e+00	 9.481481e+00	 1.000242e+01
0	 3.777778e+00	 9.555556e+00	 1.000182e+01
0	 3.777778e+00	 9.629630e+00	 1.000128e+01
0	 3.851852e+00	 9.259259e+00	 1.000504e+01
0	 3.851852e+00	 9.333333e+00	 1.000414e+01
0	 3.851852e+00	 9.407407e+00	 1.000334e+01
0	 3.851852e+00	 9.481481e+00	 1.000261e+01
0	 3.851852e+00	 9.555556e+00	 1.000196e+01
0	 3.851852e+00	 9.629630e+00	 1.000138e+01
0	 3.925926e+00	 9.259259e+00	 1.000540e+01
0	 3.925926e+00	 9.333333e+00	 1.000444e+01
0	 3.925926e+00	 9.407407e+00	 1.000358e+01
0	 3.925926e+00	 9.481481e+00	 1.000280e+01
0	 3.925926e+00	 9.555556e+00	 1.000210e+01
0	 3.925926e+00	 9.629630e+00	 1.000148e+01
0	 4.000000e+00	 9.259259e+00	 1.000574e+01
0	 4.000000e+00	 9.333333e+00	 1.000472e+01
0	 4.000000e+00	 9.407407e+00	 1.000380e+01
0	 4.000000e+00	 9.481481e+00	 1.000298e+01
0	 4.000000e+00	 9.555556e+00	 1.000223e+01
0	 4.000000e+00	 9.629630e+00	 1.000157e+01
0	 4.074074e+00	 9.259259e+00	 1.000606e+01
0	 4.074074e+00	 9.333333e+00	 1.000498e+01
0	 4.074074e+00	 9.407407e+00	 1.000401e+01
0	 4.074074e+00	 9.481481e+00	 1.000314e+01
0	 4.074074e+00	 9.555556e+00	 1.000235e+01
0	 4.074074e+00	 9.629630e+00	 1.000166e+01
0	 3.703704e+00	 9.629630e+00	 1.000118e+01
0	 3.703704e+00	 9.703704e+00	 1.000076e+01
0	 3.703704e+00	 9.777778e+00	 1.000044e+01
0	 3.703704e+00	 9.851852e+00	 1.000021e+01
0	 3.703704e+00	 9.925926e+00	 1.000006e+01
0	 3.703704e+00	 1.000000e+01	 9.999980e+00
0	 3.777778e+00	 9.629630e+00	 1.000128e+01
0	 3.777778e+00	 9.703704e+00	 1.000082e+01
0	 3.777778e+00	 9.777778e+00	 1.000048e+01
0	 3.777778e+00	 9.851852e+00	 1.000022e+01
0	 3.777778e+00	 9.925926e+00	 1.000006e+01
0	 3.777778e+00	 1.000000e+01	 9.999973e+00
0	 3.851852e+00	 9.629630e+00	 1.000138e+01
0	 3.851852e+00	 9.703704e+00	 1.000089e+01
0	 3.851852e+00	 9.777778e+00	 1.000051e+01
0	 3.851852e+00	 9.851852e+00	 1.000024e+01
0	 3.851852e+00	 9.925926e+00	 1.000007e+01
0	 3.851852e+00	 1.000000e+01	 9.999974e+00
0	 3.925926e+00	 9.629630e+00	 1.000148e+01
0	 3.925926e+00	 9.703704e+00	 1.000096e+01
0	 3.925926e+00	 9.777778e+00	 1.000055e+01
0	 3.925926e+00	 9.851852e+00	 1.000026e+01
0	 3.925926e+00	 9.925926e+00	 1.000007e+01
0	 3.925926e+00	 1.000000e+01	 9.999978e+00
0	 4.000000e+00	 9.629630e+00	 1.000157e+01
0	 4.000000e+00	 9.703704e+00	 1.000102e+01
0	 4.000000e+00	 9.777778e+00	 1.000059e+01
0	 4.000000e+00	 9.851852e+00	 1.000028e+01
0	 4.000000e+00	 9.925926e+00	 1.000008e+01
0	 4.000000e+00	 1.000000e+01	 9.999980e+00
0	 4.074074e+00	 9.629630e+00	 1.000166e+01
0	 4.074074e+00	 9.703704e+00	 1.000107e+01
0	 4.074074e+00	 9.777778e+00	 1.000062e+01
0	 4.074074e+00	 9.851852e+00	 1.000029e+01
0	 4.074074e+00	 9.925926e+00	 1.000008e+01
0	 4.074074e+00	 1.000000e+01	 9.999976e+00
0	 4.074074e+00	 0.000000e+00	 1.051027e+01
0	 4.074074e+00	 7.407407e-02	 1.050917e+01
0	 4.074074e+00	 1.481481e-01	 1.050984e+01
0	 4.074074e+00	 2.222222e-01	 1.051220e+01
0	 4.074074e+00	 2.962963e-01	 1.051618e+01
0	 4.074074e+00	 3.703704e-01	 1.052171e+01
0	 4.148148e+00	 0.000000e+00	 1.049515e+01
0	 4.148148e+00	 7.407407e-02	 1.049409e+01
0	 4.148148e+00	 1.481481e-01	 1.049443e+01
0	 4.148148e+00	 2.222222e-01	 1.049618e+01
0	 4.148148e+00	 2.962963e-01	 1.049936e+01
0	 4.148148e+00	 3.703704e-01	 1.050395e+01
0	 4.222222e+00	 0.000000e+00	 1.047737e+01
0	 4.222222e+00	 7.407407e-02	 1.047686e+01
0	 4.222222e+00	 1.481481e-01	 1.047750e+01
0	 4.222222e+00	 2.222222e-01	 1.047934e+01
0	 4.222222e+00	 2.962963e-01	 1.048244e+01
0	 4.222222e+00	 3.703704e-01	 1.048687e+01
0	 4.296296e+00	 0.000000e+00	 1.045829e+01
0	 4.296296e+00	 7.407407e-02	 1.045857e+01
0	 4.296296e+00	 1.481481e-01	 1.045982e+01
0	 4.296296e+00	 2.222222e-01	 1.046213e+01
0	 4.296296e+00	 2.962963e-01	 1.046559e+01
0	 4.296296e+00	 3.703704e-01	 1.047030e+01
0	 4.370370e+00	 0.000000e+00	 1.043929e+01
0	 4.370370e+00	 7.407407e-02	 1.044028e+01
0	 4.370370e+00	 1.481481e-01	 1.044216e+01
0	 4.370370e+00	 2.222222e-01	 1.044502e+01
0	 4.370370e+00	 2.962963e-01	 1.044896e+01
0	 4.370370e+00	 3.703704e-01	 1.045408e+01
0	 4.444444e+00	 0.000000e+00	 1.042175e+01
0	 4.444444e+00	 7.407407e-02	 1.042307e+01
0	 4.444444e+00	 1.481481e-01	 1.042528e+01
0	 4.444444e+00	 2.222222e-01	 1.042846e+01
0	 4.444444e+00	 2.962963e-01	 1.043269e+01
0	 4.444444e+00	 3.703704e-01	 1.043807e+01
0	 4.074074e+00	 3.703704e-01	 1.052171e+01
0	 4.074074e+00	 4.444444e-01	 1.052843e+01
0	 4.074074e+00	 5.185185e-01	 1.053620e+01
0	 4.074074e+00	 5.925926e-01	 1.054522e+01
0	 4.074074e+00	 6.666667e-01	 1.055570e+01
0	 4.074074e+00	 7.407407e-01	 1.056785e+01
0	 4.148148e+00	 3.703704e-01	 1.050395e+01
0	 4.148148e+00	 4.444444e-01	 1.050979e+01
0	 4.148148e+00	 5.185185e-01	 1.051681e+01
0	 4.148148e+00	 5.925926e-01	 1.052518e+01
0	 4.148148e+00	 6.666667e-01	 1.053506e+01
0	 4.148148e+00	 7.407407e-01	 1.054663e+01
0	 4.222222e+00	 3.703704e-01	 1.048687e+01
0	 4.222222e+00	 4.444444e-01	 1.049247e+01
0	 4.222222e+00	 5.185185e-01	 1.049917e+01
0	 4.222222e+00	 5.925926e-01	 1.050708e+01
0	 4.222222e+00	 6.666667e-01	 1.051636e+01
0	 4.222222e+00	 7.407407e-01	 1.052712e+01
0	 4.296296e+00	 3.703704e-01	 1.047030e+01
0	 4.296296e+00	 4.444444e-01	 1.047605e+01
0	 4.296296e+00	 5.185185e-01	 1.048267e+01
0	 4.296296e+00	 5.925926e-01	 1.049026e+01
0	 4.296296e+00	 6.666667e-01	 1.049895e+01
0	 4.296296e+00	 7.407407e-01	 1.050883e+01
0	 4.370370e+00	 3.703704e-01	 1.045408e+01
0	 4.370370e+00	 4.444444e-01	 1.046010e+01
0	 4.370370e+00	 5.185185e-01	 1.046673e+01
0	 4.370370e+00	 5.925926e-01	 1.047407e+01
0	 4.370370e+00	 6.666667e-01	 1.048220e+01
0	 4.370370e+00	 7.407407e-01	 1.049123e+01
0	 4.444444e+00	 3.703704e-01	 1.043807e+01
0	 4.444444e+00	 4.444444e-01	 1.044422e+01
0	 4.444444e+00	 5.185185e-01	 1.045078e+01
0	 4.444444e+00	 5.925926e-01	 1.045784e+01
0	 4.444444e+00	 6.666667e-01	 1.046548e+01
0	 4.444444e+00	 7.407407e-01	 1.047381e+01
0	 4.074074e+00	 7.407407e-01	 1.056785e+01
0	 4.074074e+00	 8.148148e-01	 1.058067e+01
0	 4.074074e+00	 8.888889e-01	 1.059309e+01
0	 4.074074e+00	 9.629630e-01	 1.060530e+01
0	 4.074074e+00	 1.037037e+00	 1.061745e+01
0	 4.074074e+00	 1.111111e+00	 1.062971e+01
0	 4.148148e+00	 7.407407e-01	 1.054663e+01
0	 4.148148e+00	 8.148148e-01	 1.055881e+01
0	 4.148148e+00	 8.888889e-01	 1.057057e+01
0	 4.148148e+00	 9.629630e-01	 1.058209e+01
0	 4.148148e+00	 1.037037e+00	 1.059357e+01
0	 4.148148e+00	 1.111111e+00	 1.060519e+01
0	 4.222222e+00	 7.407407e-01	 1.052712e+01
0	 4.222222e+00	 8.148148e-01	 1.053843e+01
0	 4.222222e+00	 8.888889e-01	 1.054937e+01
0	 4.222222e+00	 9.629630e-01	 1.056016e+01
0	 4.222222e+00	 1.037037e+00	 1.057098e+01
0	 4.222222e+00	 1.111111e+00	 1.058205e+01
0	 4.296296e+00	 7.407407e-01	 1.050883e+01
0	 4.296296e+00	 8.148148e-01	 1.051916e+01
0	 4.296296e+00	 8.888889e-01	 1.052925e+01
0	 4.296296e+00	 9.629630e-01	 1.053931e+01
0	 4.296296e+00	 1.037037e+00	 1.054954e+01
0	 4.296296e+00	 1.111111e+00	 1.056013e+01
0	 4.370370e+00	 7.407407e-01	 1.049123e+01
0	 4.370370e+00	 8.148148e-01	 1.050063e+01
0	 4.370370e+00	 8.888889e-01	 1.050995e+01
0	 4.370370e+00	 9.629630e-01	 1.051938e+01
0	 4.370370e+00	 1.037037e+00	 1.052909e+01
0	 4.370370e+00	 1.111111e+00	 1.053928e+01
0	 4.444444e+00	 7.407407e-01	 1.047381e+01
0	 4.444444e+00	 8.148148e-01	 1.048248e+01
0	 4.444444e+00	 8.888889e-01	 1.049121e+01
0	 4.444444e+00	 9.629630e-01	 1.050016e+01
0	 4.444444e+00	 1.037037e+00	 1.050948e+01
0	 4.444444e+00	 1.111111e+00	 1.051932e+01
0	 4.074074e+00	 1.111111e+00	 1.062971e+01
0	 4.074074e+00	 1.185185e+00	 1.064155e+01
0	 4.074074e+00	 1.259259e+00	 1.065247e+01
0	 4.074074e+00	 1.333333e+00	 1.066265e+01
0	 4.074074e+00	 1.407407e+00	 1.067229e+01
0	 4.074074e+00	 1.481481e+00	 1.068156e+01
0	 4.148148e+00	 1.111111e+00	 1.060519e+01
0	 4.148148e+00	 1.185185e+00	 1.061652e+01
0	 4.148148e+00	 1.259259e+00	 1.062709e+01
0	 4.148148e+00	 1.333333e+00	 1.063707e+01
0	 4.148148e+00	 1.407407e+00	 1.064659e+01
0	 4.148148e+00	 1.481481e+00	 1.065580e+01
0	 4.222222e+00	 1.111111e+00	 1.058205e+01
0	 4.222222e+00	 1.185185e+00	 1.059295e+01
0	 4.222222e+00	 1.259259e+00	 1.060320e+01
0	 4.222222e+00	 1.333333e+00	 1.061294e+01
0	 4.222222e+00	 1.407407e+00	 1.062227e+01
0	 4.222222e+00	 1.481481e+00	 1.063132e+01
0	 4.296296e+00	 1.111111e+00	 1.056013e+01
0	 4.296296e+00	 1.185185e+00	 1.057066e+01
0	 4.296296e+00	 1.259259e+00	 1.058060e+01
0	 4.296296e+00	 1.333333e+00	 1.059006e+01
0	 4.296296e+00	 1.407407e+00	 1.059916e+01
0	 4.296296e+00	 1.481481e+00	 1.060798e+01
0	 4.370370e+00	 1.111111e+00	 1.053928e+01
0	 4.370370e+00	 1.185185e+00	 1.054946e+01
0	 4.370370e+00	 1.259259e+00	 1.055908e+01
0	 4.370370e+00	 1.333333e+00	 1.056825e+01
0	 4.370370e+00	 1.407407e+00	 1.057707e+01
0	 4.370370e+00	 1.481481e+00	 1.058563e+01
0	 4.444444e+00	 1.111111e+00	 1.051932e+01
0	 4.444444e+00	 1.185185e+00	 1.052917e+01
0	 4.444444e+00	 1.259259e+00	 1.053846e+01
0	 4.444444e+00	 1.333333e+00	 1.054732e+01
0	 4.444444e+00	 1.407407e+00	 1.055584e+01
0	 4.444444e+00	 1.481481e+00	 1.056412e+01
0	 4.074074e+00	 1.481481e+00	 1.068156e+01
0	 4.074074e+00	 1.555556e+00	 1.069002e+01
0	 4.074074e+00	 1.629630e+00	 1.069713e+01
0	 4.074074e+00	 1.703704e+00	 1.070301e+01
0	 4.074074e+00	 1.777778e+00	 1.070775e+01
0	 4.074074e+00	 1.851852e+00	 1.071146e+01
0	 4.148148e+00	 1.481481e+00	 1.065580e+01
0	 4.148148e+00	 1.555556e+00	 1.066425e+01
0	 4.148148e+00	 1.629630e+00	 1.067145e+01
0	 4.148148e+00	 1.703704e+00	 1.067751e+01
0	 4.148148e+00	 1.777778e+00	 1.068254e+01
0	 4.148148e+00	 1.851852e+00	 1.068663e+01
0	 4.222222e+00	 1.481481e+00	 1.063132e+01
0	 4.222222e+00	 1.555556e+00	 1.063967e+01
0	 4.222222e+00	 1.629630e+00	 1.064687e+01
0	 4.222222e+00	 1.703704e+00	 1.065304e+01
0	 4.222222e+00	 1.777778e+00	 1.065827e+01
0	 4.222222e+00	 1.851852e+00	 1.066266e+01
0	 4.296296e+00	 1.481481e+00	 1.060798e+01
0	 4.296296e+00	 1.555556e+00	 1.061616e+01
0	 4.296296e+00	 1.629630e+00	 1.062330e+01
0	 4.296296e+00	 1.703704e+00	 1.062951e+01
0	 4.296296e+00	 1.777778e+00	 1.063489e+01
0	 4.296296e+00	 1.851852e+00	 1.063952e+01
0	 4.370370e+00	 1.481481e+00	 1.058563e+01
0	 4.370370e+00	 1.555556e+00	 1.059361e+01
0	 4.370370e+00	 1.629630e+00	 1.060065e+01
0	 4.370370e+00	 1.703704e+00	 1.060687e+01
0	 4.370370e+00	 1.777778e+00	 1.061234e+01
0	 4.370370e+00	 1.851852e+00	 1.061716e+01
0	 4.444444e+00	 1.481481e+00	 1.056412e+01
0	 4.444444e+00	 1.555556e+00	 1.057189e+01
0	 4.444444e+00	 1.629630e+00	 1.057883e+01
0	 4.444444e+00	 1.703704e+00	 1.058503e+01
0	 4.444444e+00	 1.777778e+00	 1.059057e+01
0	 4.444444e+00	 1.851852e+00	 1.059553e+01
0	 4.074074e+00	 1.851852e+00	 1.071146e+01
0	 4.074074e+00	 1.925926e+00	 1.071406e+01
0	 4.074074e+00	 2.000000e+00	 1.071538e+01
0	 4.074074e+00	 2.074074e+00	 1.071547e+01
0	 4.074074e+00	 2.148148e+00	 1.071432e+01
0	 4.074074e+00	 2.222222e+00	 1.071198e+01
0	 4.148148e+00	 1.851852e+00	 1.068663e+01
0	 4.148148e+00	 1.925926e+00	 1.068967e+01
0	 4.148148e+00	 2.000000e+00	 1.069151e+01
0	 4.148148e+00	 2.074074e+00	 1.069216e+01
0	 4.148148e+00	 2.148148e+00	 1.069165e+01
0	 4.148148e+00	 2.222222e+00	 1.069002e+01
0	 4.222222e+00	 1.851852e+00	 1.066266e+01
0	 4.222222e+00	 1.925926e+00	 1.066609e+01
0	 4.222222e+00	 2.000000e+00	 1.066837e+01
0	 4.222222e+00	 2.074074e+00	 1.066953e+01
0	 4.222222e+00	 2.148148e+00	 1.066960e+01
0	 4.222222e+00	 2.222222e+00	 1.066862e+01
0	 4.296296e+00	 1.851852e+00	 1.063952e+01
0	 4.296296e+00	 1.925926e+00	 1.064327e+01
0	 4.296296e+00	 2.000000e+00	 1.064593e+01
0	 4.296296e+00	 2.074074e+00	 1.064753e+01
0	 4.296296e+00	 2.148148e+00	 1.064813e+01
0	 4.296296e+00	 2.222222e+00	 1.064775e+01
0	 4.370370e+00	 1.851852e+00	 1.061716e+01
0	 4.370370e+00	 1.925926e+00	 1.062117e+01
0	 4.370370e+00	 2.000000e+00	 1.062415e+01
0	 4.370370e+00	 2.074074e+00	 1.062615e+01
0	 4.370370e+00	 2.148148e+00	 1.062721e+01
0	 4.370370e+00	 2.222222e+00	 1.062736e+01
0	 4.444444e+00	 1.851852e+00	 1.059553e+01
0	 4.444444e+00	 1.925926e+00	 1.059974e+01
0	 4.444444e+00	 2.000000e+00	 1.060300e+01
0	 4.444444e+00	 2.074074e+00	 1.060534e+01
0	 4.444444e+00	 2.148148e+00	 1.060680e+01
0	 4.444444e+00	 2.222222e+00	 1.060743e+01
0	 4.074074e+00	 2.222222e+00	 1.071198e+01
0	 4.074074e+00	 2.296296e+00	 1.070854e+01
0	 4.074074e+00	 2.370370e+00	 1.070409e+01
0	 4.074074e+00	 2.444444e+00	 1.069863e+01
0	 4.074074e+00	 2.518519e+00	 1.069214e+01
0	 4.074074e+00	 2.592593e+00	 1.068461e+01
0	 4.148148e+00	 2.222222e+00	 1.069002e+01
0	 4.148148e+00	 2.296296e+00	 1.068736e+01
0	 4.148148e+00	 2.370370e+00	 1.068373e+01
0	 4.148148e+00	 2.444444e+00	 1.067915e+01
0	 4.148148e+00	 2.518519e+00	 1.067358e+01
0	 4.148148e+00	 2.592593e+00	 1.066703e+01
0	 4.222222e+00	 2.222222e+00	 1.066862e+01
0	 4.222222e+00	 2.296296e+00	 1.066667e+01
0	 4.222222e+00	 2.370370e+00	 1.066379e+01
0	 4.222222e+00	 2.444444e+00	 1.065999e+01
0	 4.222222e+00	 2.518519e+00	 1.065524e+01
0	 4.222222e+00	 2.592593e+00	 1.064954e+01
0	 4.296296e+00	 2.222222e+00	 1.064775e+01
0	 4.296296e+00	 2.296296e+00	 1.064644e+01
0	 4.296296e+00	 2.370370e+00	 1.064424e+01
0	 4.296296e+00	 2.444444e+00	 1.064113e+01
0	 4.296296e+00	 2.518519e+00	 1.063711e+01
0	 4.296296e+00	 2.592593e+00	 1.063217e+01
0	 4.370370e+00	 2.222222e+00	 1.062736e+01
0	 4.370370e+00	 2.296296e+00	 1.062664e+01
0	 4.370370e+00	 2.370370e+00	 1.062505e+01
0	 4.370370e+00	 2.444444e+00	 1.062257e+01
0	 4.370370e+00	 2.518519e+00	 1.061920e+01
0	 4.370370e+00	 2.592593e+00	 1.061494e+01
0	 4.444444e+00	 2.222222e+00	 1.060743e+01
0	 4.444444e+00	 2.296296e+00	 1.060723e+01
0	 4.444444e+00	 2.370370e+00	 1.060618e+01
0	 4.444444e+00	 2.444444e+00	 1.060427e+01
0	 4.444444e+00	 2.518519e+00	 1.060150e+01
0	 4.444444e+00	 2.592593e+00	 1.059787e+01
0	 4.074074e+00	 2.592593e+00	 1.068461e+01
0	 4.074074e+00	 2.666667e+00	 1.067623e+01
0	 4.074074e+00	 2.740741e+00	 1.066716e+01
0	 4.074074e+00	 2.814815e+00	 1.065736e+01
0	 4.074074e+00	 2.888889e+00	 1.064677e+01
0	 4.074074e+00	 2.962963e+00	 1.063534e+01
0	 4.148148e+00	 2.592593e+00	 1.066703e+01
0	 4.148148e+00	 2.666667e+00	 1.065963e+01
0	 4.148148e+00	 2.740741e+00	 1.065154e+01
0	 4.148148e+00	 2.814815e+00	 1.064270e+01
0	 4.148148e+00	 2.888889e+00	 1.063307e+01
0	 4.148148e+00	 2.962963e+00	 1.062262e+01
0	 4.222222e+00	 2.592593e+00	 1.064954e+01
0	 4.222222e+00	 2.666667e+00	 1.064302e+01
0	 4.222222e+00	 2.740741e+00	 1.063580e+01
0	 4.222222e+00	 2.814815e+00	 1.062785e+01
0	 4.222222e+00	 2.888889e+00	 1.061913e+01
0	 4.222222e+00	 2.962963e+00	 1.060961e+01
0	 4.296296e+00	 2.592593e+00	 1.063217e+01
0	 4.296296e+00	 2.666667e+00	 1.062643e+01
0	 4.296296e+00	 2.740741e+00	 1.062001e+01
0	 4.296296e+00	 2.814815e+00	 1.061287e+01
0	 4.296296e+00	 2.888889e+00	 1.060500e+01
0	 4.296296e+00	 2.962963e+00	 1.059637e+01
0	 4.370370e+00	 2.592593e+00	 1.061494e+01
0	 4.370370e+00	 2.666667e+00	 1.060991e+01
0	 4.370370e+00	 2.740741e+00	 1.060422e+01
0	 4.370370e+00	 2.814815e+00	 1.059785e+01
0	 4.370370e+00	 2.888889e+00	 1.059077e+01
0	 4.370370e+00	 2.962963e+00	 1.058297e+01
0	 4.444444e+00	 2.592593e+00	 1.059787e+01
0	 4.444444e+00	 2.666667e+00	 1.059351e+01
0	 4.444444e+00	 2.740741e+00	 1.058850e+01
0	 4.444444e+00	 2.814815e+00	 1.058285e+01
0	 4.444444e+00	 2.888889e+00	 1.057651e+01
0	 4.444444e+00	 2.962963e+00	 1.056949e+01
0	 4.074074e+00	 2.962963e+00	 1.063534e+01
0	 4.074074e+00	 3.037037e+00	 1.062334e+01
0	 4.074074e+00	 3.111111e+00	 1.061104e+01
0	 4.074074e+00	 3.185185e+00	 1.059838e+01
0	 4.074074e+00	 3.259259e+00	 1.058532e+01
0	 4.074074e+00	 3.333333e+00	 1.057182e+01
0	 4.148148e+00	 2.962963e+00	 1.062262e+01
0	 4.148148e+00	 3.037037e+00	 1.061160e+01
0	 4.148148e+00	 3.111111e+00	 1.060026e+01
0	 4.148148e+00	 3.185185e+00	 1.058855e+01
0	 4.148148e+00	 3.259259e+00	 1.057643e+01
0	 4.148148e+00	 3.333333e+00	 1.056384e+01
0	 4.222222e+00	 2.962963e+00	 1.060961e+01
0	 4.222222e+00	 3.037037e+00	 1.059952e+01
0	 4.222222e+00	 3.111111e+00	 1.058909e+01
0	 4.222222e+00	 3.185185e+00	 1.057828e+01
0	 4.222222e+00	 3.259259e+00	 1.056703e+01
0	 4.222222e+00	 3.333333e+00	 1.055530e+01
0	 4.296296e+00	 2.962963e+00	 1.059637e+01
0	 4.296296e+00	 3.037037e+00	 1.058717e+01
0	 4.296296e+00	 3.111111e+00	 1.057761e+01
0	 4.296296e+00	 3.185185e+00	 1.056763e+01
0	 4.296296e+00	 3.259259e+00	 1.055720e+01
0	 4.296296e+00	 3.333333e+00	 1.054627e+01
0	 4.370370e+00	 2.962963e+00	 1.058297e+01
0	 4.370370e+00	 3.037037e+00	 1.057461e+01
0	 4.370370e+00	 3.111111e+00	 1.056586e+01
0	 4.370370e+00	 3.185185e+00	 1.055667e+01
0	 4.370370e+00	 3.259259e+00	 1.054701e+01
0	 4.370370e+00	 3.333333e+00	 1.053683e+01
0	 4.444444e+00	 2.962963e+00	 1.056949e+01
0	 4.444444e+00	 3.037037e+00	 1.056191e+01
0	 4.444444e+00	 3.111111e+00	 1.055391e+01
0	 4.444444e+00	 3.185185e+00	 1.054546e+01
0	 4.444444e+00	 3.259259e+00	 1.053653e+01
0	 4.444444e+00	 3.333333e+00	 1.052707e+01
0	 4.074074e+00	 3.333333e+00	 1.057182e+01
0	 4.074074e+00	 3.407407e+00	 1.055806e+01
0	 4.074074e+00	 3.481481e+00	 1.054423e+01
0	 4.074074e+00	 3.555556e+00	 1.053030e+01
0	 4.074074e+00	 3.629630e+00	 1.051620e+01
0	 4.074074e+00	 3.703704e+00	 1.050189e+01
0	 4.148148e+00	 3.333333e+00	 1.056384e+01
0	 4.148148e+00	 3.407407e+00	 1.055097e+01
0	 4.148148e+00	 3.481481e+00	 1.053799e+01
0	 4.148148e+00	 3.555556e+00	 1.052485e+01
0	 4.148148e+00	 3.629630e+00	 1.051152e+01
0	 4.148148e+00	 3.703704e+00	 1.049795e+01
0	 4.222222e+00	 3.333333e+00	 1.055530e+01
0	 4.222222e+00	 3.407407e+00	 1.054325e+01
0	 4.222222e+00	 3.481481e+00	 1.053107e+01
0	 4.222222e+00	 3.555556e+00	 1.051870e+01
0	 4.222222e+00	 3.629630e+00	 1.050612e+01
0	 4.222222e+00	 3.703704e+00	 1.049328e+01
0	 4.296296e+00	 3.333333e+00	 1.054627e+01
0	 4.296296e+00	 3.407407e+00	 1.053500e+01
0	 4.296296e+00	 3.481481e+00	 1.052357e+01
0	 4.296296e+00	 3.555556e+00	 1.051195e+01
0	 4.296296e+00	 3.629630e+00	 1.050010e+01
0	 4.296296e+00	 3.703704e+00	 1.048798e+01
0	 4.370370e+00	 3.333333e+00	 1.053683e+01
0	 4.370370e+00	 3.407407e+00	 1.052631e+01
0	 4.370370e+00	 3.481481e+00	 1.051561e+01
0	 4.370370e+00	 3.555556e+00	 1.050470e+01
0	 4.370370e+00	 3.629630e+00	 1.049355e+01
0	 4.370370e+00	 3.703704e+00	 1.048212e+01
0	 4.444444e+00	 3.333333e+00	 1.052707e+01
0	 4.444444e+00	 3.407407e+00	 1.051726e+01
0	 4.444444e+00	 3.481481e+00	 1.050726e+01
0	 4.444444e+00	 3.555556e+00	 1.049704e+01
0	 4.444444e+00	 3.629630e+00	 1.048656e+01
0	 4.444444e+00	 3.703704e+00	 1.047581e+01
0	 4.074074e+00	 3.703704e+00	 1.050189e+01
0	 4.074074e+00	 3.777778e+00	 1.048754e+01
0	 4.074074e+00	 3.851852e+00	 1.047334e+01
0	 4.074074e+00	 3.925926e+00	 1.045925e+01
0	 4.074074e+00	 4.000000e+00	 1.044524e+01
0	 4.074074e+00	 4.074074e+00	 1.043128e+01
0	 4.148148e+00	 3.703704e+00	 1.049795e+01
0	 4.148148e+00	 3.777778e+00	 1.048431e+01
0	 4.148148e+00	 3.851852e+00	 1.047079e+01
0	 4.148148e+00	 3.925926e+00	 1.045735e+01
0	 4.148148e+00	 4.000000e+00	 1.044396e+01
0	 4.148148e+00	 4.074074e+00	 1.043057e+01
0	 4.222222e+00	 3.703704e+00	 1.049328e+01
0	 4.222222e+00	 3.777778e+00	 1.048035e+01
0	 4.222222e+00	 3.851852e+00	 1.046750e+01
0	 4.222222e+00	 3.925926e+00	 1.045470e+01
0	 4.222222e+00	 4.000000e+00	 1.044190e+01
0	 4.222222e+00	 4.074074e+00	 1.042907e+01
0	 4.296296e+00	 3.703704e+00	 1.048798e+01
0	 4.296296e+00	 3.777778e+00	 1.047574e+01
0	 4.296296e+00	 3.851852e+00	 1.046355e+01
0	 4.296296e+00	 3.925926e+00	 1.045136e+01
0	 4.296296e+00	 4.000000e+00	 1.043915e+01
0	 4.296296e+00	 4.074074e+00	 1.042687e+01
0	 4.370370e+00	 3.703704e+00	 1.048212e+01
0	 4.370370e+00	 3.777778e+00	 1.047056e+01
0	 4.370370e+00	 3.851852e+00	 1.045901e+01
0	 4.370370e+00	 3.925926e+00	 1.044742e+01
0	 4.370370e+00	 4.000000e+00	 1.043578e+01
0	 4.370370e+00	 4.074074e+00	 1.042403e+01
0	 4.444444e+00	 3.703704e+00	 1.047581e+01
0	 4.444444e+00	 3.777778e+00	 1.046490e+01
0	 4.444444e+00	 3.851852e+00	 1.045396e+01
0	 4.444444e+00	 3.925926e+00	 1.044295e+01
0	 4.444444e+00	 4.000000e+00	 1.043186e+01
0	 4.444444e+00	 4.074074e+00	 1.042065e+01
0	 4.074074e+00	 4.074074e+00	 1.043128e+01
0	 4.074074e+00	 4.148148e+00	 1.041745e+01
0	 4.074074e+00	 4.222222e+00	 1.040387e+01
0	 4.074074e+00	 4.296296e+00	 1.039051e+01
0	 4.074074e+00	 4.370370e+00	 1.037733e+01
0	 4.074074e+00	 4.444444e+00	 1.036431e+01
0	 4.148148e+00	 4.074074e+00	 1.043057e+01
0	 4.148148e+00	 4.148148e+00	 1.041728e+01
0	 4.148148e+00	 4.222222e+00	 1.040420e+01
0	 4.148148e+00	 4.296296e+00	 1.039130e+01
0	 4.148148e+00	 4.370370e+00	 1.037855e+01
0	 4.148148e+00	 4.444444e+00	 1.036593e+01
0	 4.222222e+00	 4.074074e+00	 1.042907e+01
0	 4.222222e+00	 4.148148e+00	 1.041632e+01
0	 4.222222e+00	 4.222222e+00	 1.040373e+01
0	 4.222222e+00	 4.296296e+00	 1.039129e+01
0	 4.222222e+00	 4.370370e+00	 1.037897e+01
0	 4.222222e+00	 4.444444e+00	 1.036676e+01
0	 4.296296e+00	 4.074074e+00	 1.042687e+01
0	 4.296296e+00	 4.148148e+00	 1.041463e+01
0	 4.296296e+00	 4.222222e+00	 1.040253e+01
0	 4.296296e+00	 4.296296e+00	 1.039056e+01
0	 4.296296e+00	 4.370370e+00	 1.037868e+01
0	 4.296296e+00	 4.444444e+00	 1.036688e+01
0	 4.370370e+00	 4.074074e+00	 1.042403e+01
0	 4.370370e+00	 4.148148e+00	 1.041230e+01
0	 4.370370e+00	 4.222222e+00	 1.040069e+01
0	 4.370370e+00	 4.296296e+00	 1.038918e+01
0	 4.370370e+00	 4.370370e+00	 1.037774e+01
0	 4.370370e+00	 4.444444e+00	 1.036636e+01
0	 4.444444e+00	 4.074074e+00	 1.042065e+01
0	 4.444444e+00	 4.148148e+00	 1.040942e+01
0	 4.444444e+00	 4.222222e+00	 1.039829e+01
0	 4.444444e+00	 4.296296e+00	 1.038724e+01
0	 4.444444e+00	 4.370370e+00	 1.037624e+01
0	 4.444444e+00	 4.444444e+00	 1.036528e+01
0	 4.074074e+00	 4.444444e+00	 1.036431e+01
0	 4.074074e+00	 4.518519e+00	 1.035153e+01
0	 4.074074e+00	 4.592593e+00	 1.033905e+01
0	 4.074074e+00	 4.666667e+00	 1.032686e+01
0	 4.074074e+00	 4.740741e+00	 1.031495e+01
0	 4.074074e+00	 4.814815e+00	 1.030329e+01
0	 4.148148e+00	 4.444444e+00	 1.036593e+01
0	 4.148148e+00	 4.518519e+00	 1.035350e+01
0	 4.148148e+00	 4.592593e+00	 1.034136e+01
0	 4.148148e+00	 4.666667e+00	 1.032949e+01
0	 4.148148e+00	 4.740741e+00	 1.031786e+01
0	 4.148148e+00	 4.814815e+00	 1.030646e+01
0	 4.222222e+00	 4.444444e+00	 1.036676e+01
0	 4.222222e+00	 4.518519e+00	 1.035472e+01
0	 4.222222e+00	 4.592593e+00	 1.034293e+01
0	 4.222222e+00	 4.666667e+00	 1.033138e+01
0	 4.222222e+00	 4.740741e+00	 1.032004e+01
0	 4.222222e+00	 4.814815e+00	 1.030890e+01
0	 4.296296e+00	 4.444444e+00	 1.036688e+01
0	 4.296296e+00	 4.518519e+00	 1.035523e+01
0	 4.296296e+00	 4.592593e+00	 1.034380e+01
0	 4.296296e+00	 4.666667e+00	 1.033258e+01
0	 4.296296e+00	 4.740741e+00	 1.032154e+01
0	 4.296296e+00	 4.814815e+00	 1.031067e+01
0	 4.370370e+00	 4.444444e+00	 1.036636e+01
0	 4.370370e+00	 4.518519e+00	 1.035510e+01
0	 4.370370e+00	 4.592593e+00	 1.034404e+01
0	 4.370370e+00	 4.666667e+00	 1.033315e+01
0	 4.370370e+00	 4.740741e+00	 1.032242e+01
0	 4.370370e+00	 4.814815e+00	 1.031183e+01
0	 4.444444e+00	 4.444444e+00	 1.036528e+01
0	 4.444444e+00	 4.518519e+00	 1.035441e+01
0	 4.444444e+00	 4.592593e+00	 1.034371e+01
0	 4.444444e+00	 4.666667e+00	 1.033315e+01
0	 4.444444e+00	 4.740741e+00	 1.032273e+01
0	 4.444444e+00	 4.814815e+00	 1.031243e+01
0	 4.074074e+00	 4.814815e+00	 1.030329e+01
0	 4.074074e+00	 4.888889e+00	 1.029192e+01
0	 4.074074e+00	 4.962963e+00	 1.028086e+01
0	 4.074074e+00	 5.037037e+00	 1.027010e+01
0	 4.074074e+00	 5.111111e+00	 1.025963e+01
0	 4.074074e+00	 5.185185e+00	 1.024943e+01
0	 4.148148e+00	 4.814815e+00	 1.030646e+01
0	 4.148148e+00	 4.888889e+00	 1.029531e+01
0	 4.148148e+00	 4.962963e+00	 1.028445e+01
0	 4.148148e+00	 5.037037e+00	 1.027386e+01
0	 4.148148e+00	 5.111111e+00	 1.026355e+01
0	 4.148148e+00	 5.185185e+00	 1.025348e+01
0	 4.222222e+00	 4.814815e+00	 1.030890e+01
0	 4.222222e+00	 4.888889e+00	 1.029799e+01
0	 4.222222e+00	 4.962963e+00	 1.028734e+01
0	 4.222222e+00	 5.037037e+00	 1.027695e+01
0	 4.222222e+00	 5.111111e+00	 1.026680e+01
0	 4.222222e+00	 5.185185e+00	 1.025689e+01
0	 4.296296e+00	 4.814815e+00	 1.031067e+01
0	 4.296296e+00	 4.888889e+00	 1.030001e+01
0	 4.296296e+00	 4.962963e+00	 1.028959e+01
0	 4.296296e+00	 5.037037e+00	 1.027940e+01
0	 4.296296e+00	 5.111111e+00	 1.026944e+01
0	 4.296296e+00	 5.185185e+00	 1.025970e+01
0	 4.370370e+00	 4.814815e+00	 1.031183e+01
0	 4.370370e+00	 4.888889e+00	 1.030142e+01
0	 4.370370e+00	 4.962963e+00	 1.029124e+01
0	 4.370370e+00	 5.037037e+00	 1.028127e+01
0	 4.370370e+00	 5.111111e+00	 1.027151e+01
0	 4.370370e+00	 5.185185e+00	 1.026194e+01
0	 4.444444e+00	 4.814815e+00	 1.031243e+01
0	 4.444444e+00	 4.888889e+00	 1.030228e+01
0	 4.444444e+00	 4.962963e+00	 1.029234e+01
0	 4.444444e+00	 5.037037e+00	 1.028260e+01
0	 4.444444e+00	 5.111111e+00	 1.027305e+01
0	 4.444444e+00	 5.185185e+00	 1.026367e+01
0	 4.074074e+00	 5.185185e+00	 1.024943e+01
0	 4.074074e+00	 5.259259e+00	 1.023953e+01
0	 4.074074e+00	 5.333333e+00	 1.022993e+01
0	 4.074074e+00	 5.407407e+00	 1.022063e+01
0	 4.074074e+00	 5.481481e+00	 1.021162e+01
0	 4.074074e+00	 5.555556e+00	 1.020290e+01
0	 4.148148e+00	 5.185185e+00	 1.025348e+01
0	 4.148148e+00	 5.259259e+00	 1.024369e+01
0	 4.148148e+00	 5.333333e+00	 1.023419e+01
0	 4.148148e+00	 5.407407e+00	 1.022497e+01
0	 4.148148e+00	 5.481481e+00	 1.021602e+01
0	 4.148148e+00	 5.555556e+00	 1.020734e+01
0	 4.222222e+00	 5.185185e+00	 1.025689e+01
0	 4.222222e+00	 5.259259e+00	 1.024723e+01
0	 4.222222e+00	 5.333333e+00	 1.023784e+01
0	 4.222222e+00	 5.407407e+00	 1.022871e+01
0	 4.222222e+00	 5.481481e+00	 1.021985e+01
0	 4.222222e+00	 5.555556e+00	 1.021123e+01
0	 4.296296e+00	 5.185185e+00	 1.025970e+01
0	 4.296296e+00	 5.259259e+00	 1.025018e+01
0	 4.296296e+00	 5.333333e+00	 1.024092e+01
0	 4.296296e+00	 5.407407e+00	 1.023191e+01
0	 4.296296e+00	 5.481481e+00	 1.022313e+01
0	 4.296296e+00	 5.555556e+00	 1.021459e+01
0	 4.370370e+00	 5.185185e+00	 1.026194e+01
0	 4.370370e+00	 5.259259e+00	 1.025259e+01
0	 4.370370e+00	 5.333333e+00	 1.024347e+01
0	 4.370370e+00	 5.407407e+00	 1.023458e+01
0	 4.370370e+00	 5.481481e+00	 1.022591e+01
0	 4.370370e+00	 5.555556e+00	 1.021746e+01
0	 4.444444e+00	 5.185185e+00	 1.026367e+01
0	 4.444444e+00	 5.259259e+00	 1.025449e+01
0	 4.444444e+00	 5.333333e+00	 1.024552e+01
0	 4.444444e+00	 5.407407e+00	 1.023677e+01
0	 4.444444e+00	 5.481481e+00	 1.022821e+01
0	 4.444444e+00	 5.555556e+00	 1.021986e+01
0	 4.074074e+00	 5.555556e+00	 1.020290e+01
0	 4.074074e+00	 5.629630e+00	 1.019446e+01
0	 4.074074e+00	 5.703704e+00	 1.018629e+01
0	 4.074074e+00	 5.777778e+00	 1.017838e+01
0	 4.074074e+00	 5.851852e+00	 1.017075e+01
0	 4.074074e+00	 5.925926e+00	 1.016338e+01
0	 4.148148e+00	 5.555556e+00	 1.020734e+01
0	 4.148148e+00	 5.629630e+00	 1.019892e+01
0	 4.148148e+00	 5.703704e+00	 1.019077e+01
0	 4.148148e+00	 5.777778e+00	 1.018287e+01
0	 4.148148e+00	 5.851852e+00	 1.017523e+01
0	 4.148148e+00	 5.925926e+00	 1.016783e+01
0	 4.222222e+00	 5.555556e+00	 1.021123e+01
0	 4.222222e+00	 5.629630e+00	 1.020286e+01
0	 4.222222e+00	 5.703704e+00	 1.019473e+01
0	 4.222222e+00	 5.777778e+00	 1.018685e+01
0	 4.222222e+00	 5.851852e+00	 1.017922e+01
0	 4.222222e+00	 5.925926e+00	 1.017182e+01
0	 4.296296e+00	 5.555556e+00	 1.021459e+01
0	 4.296296e+00	 5.629630e+00	 1.020628e+01
0	 4.296296e+00	 5.703704e+00	 1.019820e+01
0	 4.296296e+00	 5.777778e+00	 1.019036e+01
0	 4.296296e+00	 5.851852e+00	 1.018275e+01
0	 4.296296e+00	 5.925926e+00	 1.017536e+01
0	 4.370370e+00	 5.555556e+00	 1.021746e+01
0	 4.370370e+00	 5.629630e+00	 1.020922e+01
0	 4.370370e+00	 5.703704e+00	 1.020120e+01
0	 4.370370e+00	 5.777778e+00	 1.019341e+01
0	 4.370370e+00	 5.851852e+00	 1.018584e+01
0	 4.370370e+00	 5.925926e+00	 1.017848e+01
0	 4.444444e+00	 5.555556e+00	 1.021986e+01
0	 4.444444e+00	 5.629630e+00	 1.021170e+01
0	 4.444444e+00	 5.703704e+00	 1.020376e+01
0	 4.444444e+00	 5.777778e+00	 1.019603e+01
0	 4.444444e+00	 5.851852e+00	 1.018851e+01
0	 4.444444e+00	 5.925926e+00	 1.018119e+01
0	 4.074074e+00	 5.925926e+00	 1.016338e+01
0	 4.074074e+00	 6.000000e+00	 1.015626e+01
0	 4.074074e+00	 6.074074e+00	 1.014939e+01
0	 4.074074e+00	 6.148148e+00	 1.014275e+01
0	 4.074074e+00	 6.222222e+00	 1.013635e+01
0	 4.074074e+00	 6.296296e+00	 1.013020e+01
0	 4.148148e+00	 5.925926e+00	 1.016783e+01
0	 4.148148e+00	 6.000000e+00	 1.016068e+01
0	 4.148148e+00	 6.074074e+00	 1.015377e+01
0	 4.148148e+00	 6.148148e+00	 1.014708e+01
0	 4.148148e+00	 6.222222e+00	 1.014063e+01
0	 4.148148e+00	 6.296296e+00	 1.013441e+01
0	 4.222222e+00	 5.925926e+00	 1.017182e+01
0	 4.222222e+00	 6.000000e+00	 1.016466e+01
0	 4.222222e+00	 6.074074e+00	 1.015772e+01
0	 4.222222e+00	 6.148148e+00	 1.015100e+01
0	 4.222222e+00	 6.222222e+00	 1.014451e+01
0	 4.222222e+00	 6.296296e+00	 1.013823e+01
0	 4.296296e+00	 5.925926e+00	 1.017536e+01
0	 4.296296e+00	 6.000000e+00	 1.016820e+01
0	 4.296296e+00	 6.074074e+00	 1.016125e+01
0	 4.296296e+00	 6.148148e+00	 1.015452e+01
0	 4.296296e+00	 6.222222e+00	 1.014800e+01
0	 4.296296e+00	 6.296296e+00	 1.014169e+01
0	 4.370370e+00	 5.925926e+00	 1.017848e+01
0	 4.370370e+00	 6.000000e+00	 1.017133e+01
0	 4.370370e+00	 6.074074e+00	 1.016439e+01
0	 4.370370e+00	 6.148148e+00	 1.015765e+01
0	 4.370370e+00	 6.222222e+00	 1.015112e+01
0	 4.370370e+00	 6.296296e+00	 1.014479e+01
0	 4.444444e+00	 5.925926e+00	 1.018119e+01
0	 4.444444e+00	 6.000000e+00	 1.017407e+01
0	 4.444444e+00	 6.074074e+00	 1.016715e+01
0	 4.444444e+00	 6.148148e+00	 1.016042e+01
0	 4.444444e+00	 6.222222e+00	 1.015389e+01
0	 4.444444e+00	 6.296296e+00	 1.014754e+01
0	 4.074074e+00	 6.296296e+00	 1.013020e+01
0	 4.074074e+00	 6.370370e+00	 1.012426e+01
0	 4.074074e+00	 6.444444e+00	 1.011853e+01
0	 4.074074e+00	 6.518519e+00	 1.011300e+01
0	 4.074074e+00	 6.592593e+00	 1.010768e+01
0	 4.074074e+00	 6.666667e+00	 1.010256e+01
0	 4.148148e+00	 6.296296e+00	 1.013441e+01
0	 4.148148e+00	 6.370370e+00	 1.012840e+01
0	 4.148148e+00	 6.444444e+00	 1.012259e+01
0	 4.148148e+00	 6.518519e+00	 1.011698e+01
0	 4.148148e+00	 6.592593e+00	 1.011157e+01
0	 4.148148e+00	 6.666667e+00	 1.010636e+01
0	 4.222222e+00	 6.296296e+00	 1.013823e+01
0	 4.222222e+00	 6.370370e+00	 1.013217e+01
0	 4.222222e+00	 6.444444e+00	 1.012629e+01
0	 4.222222e+00	 6.518519e+00	 1.012061e+01
0	 4.222222e+00	 6.592593e+00	 1.011513e+01
0	 4.222222e+00	 6.666667e+00	 1.010984e+01
0	 4.296296e+00	 6.296296e+00	 1.014169e+01
0	 4.296296e+00	 6.370370e+00	 1.013558e+01
0	 4.296296e+00	 6.444444e+00	 1.012966e+01
0	 4.296296e+00	 6.518519e+00	 1.012392e+01
0	 4.296296e+00	 6.592593e+00	 1.011838e+01
0	 4.296296e+00	 6.666667e+00	 1.011302e+01
0	 4.370370e+00	 6.296296e+00	 1.014479e+01
0	 4.370370e+00	 6.370370e+00	 1.013865e+01
0	 4.370370e+00	 6.444444e+00	 1.013269e+01
0	 4.370370e+00	 6.518519e+00	 1.012691e+01
0	 4.370370e+00	 6.592593e+00	 1.012132e+01
0	 4.370370e+00	 6.666667e+00	 1.011591e+01
0	 4.444444e+00	 6.296296e+00	 1.014754e+01
0	 4.444444e+00	 6.370370e+00	 1.014138e+01
0	 4.444444e+00	 6.444444e+00	 1.013540e+01
0	 4.444444e+00	 6.518519e+00	 1.012960e+01
0	 4.444444e+00	 6.592593e+00	 1.012397e+01
0	 4.444444e+00	 6.666667e+00	 1.011852e+01
0	 4.074074e+00	 6.666667e+00	 1.010256e+01
0	 4.074074e+00	 6.740741e+00	 1.009763e+01
0	 4.074074e+00	 6.814815e+00	 1.009288e+01
0	 4.074074e+00	 6.888889e+00	 1.008829e+01
0	 4.074074e+00	 6.962963e+00	 1.008388e+01
0	 4.074074e+00	 7.037037e+00	 1.007965e+01
0	 4.148148e+00	 6.666667e+00	 1.010636e+01
0	 4.148148e+00	 6.740741e+00	 1.010133e+01
0	 4.148148e+00	 6.814815e+00	 1.009647e+01
0	 4.148148e+00	 6.888889e+00	 1.009179e+01
0	 4.148148e+00	 6.962963e+00	 1.008727e+01
0	 4.148148e+00	 7.037037e+00	 1.008292e+01
0	 4.222222e+00	 6.666667e+00	 1.010984e+01
0	 4.222222e+00	 6.740741e+00	 1.010473e+01
0	 4.222222e+00	 6.814815e+00	 1.009978e+01
0	 4.222222e+00	 6.888889e+00	 1.009501e+01
0	 4.222222e+00	 6.962963e+00	 1.009040e+01
0	 4.222222e+00	 7.037037e+00	 1.008596e+01
0	 4.296296e+00	 6.666667e+00	 1.011302e+01
0	 4.296296e+00	 6.740741e+00	 1.010784e+01
0	 4.296296e+00	 6.814815e+00	 1.010282e+01
0	 4.296296e+00	 6.888889e+00	 1.009797e+01
0	 4.296296e+00	 6.962963e+00	 1.009328e+01
0	 4.296296e+00	 7.037037e+00	 1.008875e+01
0	 4.370370e+00	 6.666667e+00	 1.011591e+01
0	 4.370370e+00	 6.740741e+00	 1.011067e+01
0	 4.370370e+00	 6.814815e+00	 1.010559e+01
0	 4.370370e+00	 6.888889e+00	 1.010067e+01
0	 4.370370e+00	 6.962963e+00	 1.009591e+01
0	 4.370370e+00	 7.037037e+00	 1.009131e+01
0	 4.444444e+00	 6.666667e+00	 1.011852e+01
0	 4.444444e+00	 6.740741e+00	 1.011323e+01
0	 4.444444e+00	 6.814815e+00	 1.010810e+01
0	 4.444444e+00	 6.888889e+00	 1.010312e+01
0	 4.444444e+00	 6.962963e+00	 1.009830e+01
0	 4.444444e+00	 7.037037e+00	 1.009364e+01
0	 4.074074e+00	 7.037037e+00	 1.007965e+01
0	 4.074074e+00	 7.111111e+00	 1.007557e+01
0	 4.074074e+00	 7.185185e+00	 1.007163e+01
0	 4.074074e+00	 7.259259e+00	 1.006784e+01
0	 4.074074e+00	 7.333333e+00	 1.006419e+01
0	 4.074074e+00	 7.407407e+00	 1.006069e+01
0	 4.148148e+00	 7.037037e+00	 1.008292e+01
0	 4.148148e+00	 7.111111e+00	 1.007874e+01
0	 4.148148e+00	 7.185185e+00	 1.007469e+01
0	 4.148148e+00	 7.259259e+00	 1.007078e+01
0	 4.148148e+00	 7.333333e+00	 1.006702e+01
0	 4.148148e+00	 7.407407e+00	 1.006340e+01
0	 4.222222e+00	 7.037037e+00	 1.008596e+01
0	 4.222222e+00	 7.111111e+00	 1.008167e+01
0	 4.222222e+00	 7.185185e+00	 1.007752e+01
0	 4.222222e+00	 7.259259e+00	 1.007351e+01
0	 4.222222e+00	 7.333333e+00	 1.006964e+01
0	 4.222222e+00	 7.407407e+00	 1.006592e+01
0	 4.296296e+00	 7.037037e+00	 1.008875e+01
0	 4.296296e+00	 7.111111e+00	 1.008437e+01
0	 4.296296e+00	 7.185185e+00	 1.008013e+01
0	 4.296296e+00	 7.259259e+00	 1.007604e+01
0	 4.296296e+00	 7.333333e+00	 1.007208e+01
0	 4.296296e+00	 7.407407e+00	 1.006826e+01
0	 4.370370e+00	 7.037037e+00	 1.009131e+01
0	 4.370370e+00	 7.111111e+00	 1.008685e+01
0	 4.370370e+00	 7.185185e+00	 1.008254e+01
0	 4.370370e+00	 7.259259e+00	 1.007836e+01
0	 4.370370e+00	 7.333333e+00	 1.007431e+01
0	 4.370370e+00	 7.407407e+00	 1.007041e+01
0	 4.444444e+00	 7.037037e+00	 1.009364e+01
0	 4.444444e+00	 7.111111e+00	 1.008911e+01
0	 4.444444e+00	 7.185185e+00	 1.008473e+01
0	 4.444444e+00	 7.259259e+00	 1.008048e+01
0	 4.444444e+00	 7.333333e+00	 1.007636e+01
0	 4.444444e+00	 7.407407e+00	 1.007238e+01
0	 4.074074e+00	 7.407407e+00	 1.006069e+01
0	 4.074074e+00	 7.481481e+00	 1.005731e+01
0	 4.074074e+00	 7.555556e+00	 1.005406e+01
0	 4.074074e+00	 7.629630e+00	 1.005092e+01
0	 4.074074e+00	 7.703704e+00	 1.004790e+01
0	 4.074074e+00	 7.777778e+00	 1.004499e+01
0	 4.148148e+00	 7.407407e+00	 1.006340e+01
0	 4.148148e+00	 7.481481e+00	 1.005991e+01
0	 4.148148e+00	 7.555556e+00	 1.005653e+01
0	 4.148148e+00	 7.629630e+00	 1.005328e+01
0	 4.148148e+00	 7.703704e+00	 1.005015e+01
0	 4.148148e+00	 7.777778e+00	 1.004713e+01
0	 4.222222e+00	 7.407407e+00	 1.006592e+01
0	 4.222222e+00	 7.481481e+00	 1.006232e+01
0	 4.222222e+00	 7.555556e+00	 1.005885e+01
0	 4.222222e+00	 7.629630e+00	 1.005549e+01
0	 4.222222e+00	 7.703704e+00	 1.005225e+01
0	 4.222222e+00	 7.777778e+00	 1.004913e+01
0	 4.296296e+00	 7.407407e+00	 1.006826e+01
0	 4.296296e+00	 7.481481e+00	 1.006456e+01
0	 4.296296e+00	 7.555556e+00	 1.006099e+01
0	 4.296296e+00	 7.629630e+00	 1.005754e+01
0	 4.296296e+00	 7.703704e+00	 1.005420e+01
0	 4.296296e+00	 7.777778e+00	 1.005098e+01
0	 4.370370e+00	 7.407407e+00	 1.007041e+01
0	 4.370370e+00	 7.481481e+00	 1.006663e+01
0	 4.370370e+00	 7.555556e+00	 1.006297e+01
0	 4.370370e+00	 7.629630e+00	 1.005943e+01
0	 4.370370e+00	 7.703704e+00	 1.005601e+01
0	 4.370370e+00	 7.777778e+00	 1.005270e+01
0	 4.444444e+00	 7.407407e+00	 1.007238e+01
0	 4.444444e+00	 7.481481e+00	 1.006853e+01
0	 4.444444e+00	 7.555556e+00	 1.006479e+01
0	 4.444444e+00	 7.629630e+00	 1.006117e+01
0	 4.444444e+00	 7.703704e+00	 1.005767e+01
0	 4.444444e+00	 7.777778e+00	 1.005428e+01
0	 4.074074e+00	 7.777778e+00	 1.004499e+01
0	 4.074074e+00	 7.851852e+00	 1.004220e+01
0	 4.074074e+00	 7.925926e+00	 1.003951e+01
0	 4.074074e+00	 8.000000e+00	 1.003691e+01
0	 4.074074e+00	 8.074074e+00	 1.003441e+01
0	 4.074074e+00	 8.148148e+00	 1.003201e+01
0	 4.148148e+00	 7.777778e+00	 1.004713e+01
0	 4.148148e+00	 7.851852e+00	 1.004422e+01
0	 4.148148e+00	 7.925926e+00	 1.004142e+01
0	 4.148148e+00	 8.000000e+00	 1.003871e+01
0	 4.148148e+00	 8.074074e+00	 1.003610e+01
0	 4.148148e+00	 8.148148e+00	 1.003360e+01
0	 4.222222e+00	 7.777778e+00	 1.004913e+01
0	 4.222222e+00	 7.851852e+00	 1.004611e+01
0	 4.222222e+00	 7.925926e+00	 1.004320e+01
0	 4.222222e+00	 8.000000e+00	 1.004040e+01
0	 4.222222e+00	 8.074074e+00	 1.003769e+01
0	 4.222222e+00	 8.148148e+00	 1.003508e+01
0	 4.296296e+00	 7.777778e+00	 1.005098e+01
0	 4.296296e+00	 7.851852e+00	 1.004787e+01
0	 4.296296e+00	 7.925926e+00	 1.004487e+01
0	 4.296296e+00	 8.000000e+00	 1.004196e+01
0	 4.296296e+00	 8.074074e+00	 1.003916e+01
0	 4.296296e+00	 8.148148e+00	 1.003646e+01
0	 4.370370e+00	 7.777778e+00	 1.005270e+01
0	 4.370370e+00	 7.851852e+00	 1.004950e+01
0	 4.370370e+00	 7.925926e+00	 1.004641e+01
0	 4.370370e+00	 8.000000e+00	 1.004342e+01
0	 4.370370e+00	 8.074074e+00	 1.004053e+01
0	 4.370370e+00	 8.148148e+00	 1.003774e+01
0	 4.444444e+00	 7.777778e+00	 1.005428e+01
0	 4.444444e+00	 7.851852e+00	 1.005100e+01
0	 4.444444e+00	 7.925926e+00	 1.004783e+01
0	 4.444444e+00	 8.000000e+00	 1.004476e+01
0	 4.444444e+00	 8.074074e+00	 1.004179e+01
0	 4.444444e+00	 8.148148e+00	 1.003893e+01
0	 4.074074e+00	 8.148148e+00	 1.003201e+01
0	 4.074074e+00	 8.222222e+00	 1.002971e+01
0	 4.074074e+00	 8.296296e+00	 1.002749e+01
0	 4.074074e+00	 8.370370e+00	 1.002535e+01
0	 4.074074e+00	 8.444444e+00	 1.002330e+01
0	 4.074074e+00	 8.518519e+00	 1.002133e+01
0	 4.148148e+00	 8.148148e+00	 1.003360e+01
0	 4.148148e+00	 8.222222e+00	 1.003118e+01
0	 4.148148e+00	 8.296296e+00	 1.002886e+01
0	 4.148148e+00	 8.370370e+00	 1.002662e+01
0	 4.148148e+00	 8.444444e+00	 1.002447e+01
0	 4.148148e+00	 8.518519e+00	 1.002241e+01
0	 4.222222e+00	 8.148148e+00	 1.003508e+01
0	 4.222222e+00	 8.222222e+00	 1.003257e+01
0	 4.222222e+00	 8.296296e+00	 1.003015e+01
0	 4.222222e+00	 8.370370e+00	 1.002782e+01
0	 4.222222e+00	 8.444444e+00	 1.002557e+01
0	 4.222222e+00	 8.518519e+00	 1.002342e+01
0	 4.296296e+00	 8.148148e+00	 1.003646e+01
0	 4.296296e+00	 8.222222e+00	 1.003386e+01
0	 4.296296e+00	 8.296296e+00	 1.003135e+01
0	 4.296296e+00	 8.370370e+00	 1.002893e+01
0	 4.296296e+00	 8.444444e+00	 1.002660e+01
0	 4.296296e+00	 8.518519e+00	 1.002436e+01
0	 4.370370e+00	 8.148148e+00	 1.003774e+01
0	 4.370370e+00	 8.222222e+00	 1.003506e+01
0	 4.370370e+00	 8.296296e+00	 1.003246e+01
0	 4.370370e+00	 8.370370e+00	 1.002996e+01
0	 4.370370e+00	 8.444444e+00	 1.002756e+01
0	 4.370370e+00	 8.518519e+00	 1.002524e+01
0	 4.444444e+00	 8.148148e+00	 1.003893e+01
0	 4.444444e+00	 8.222222e+00	 1.003616e+01
0	 4.444444e+00	 8.296296e+00	 1.003349e+01
0	 4.444444e+00	 8.370370e+00	 1.003092e+01
0	 4.444444e+00	 8.444444e+00	 1.002844e+01
0	 4.444444e+00	 8.518519e+00	 1.002605e+01
0	 4.074074e+00	 8.518519e+00	 1.002133e+01
0	 4.074074e+00	 8.592593e+00	 1.001944e+01
0	 4.074074e+00	 8.666667e+00	 1.001764e+01
0	 4.074074e+00	 8.740741e+00	 1.001591e+01
0	 4.074074e+00	 8.814815e+00	 1.001427e+01
0	 4.074074e+00	 8.888889e+00	 1.001269e+01
0	 4.148148e+00	 8.518519e+00	 1.002241e+01
0	 4.148148e+00	 8.592593e+00	 1.002043e+01
0	 4.148148e+00	 8.666667e+00	 1.001853e+01
0	 4.148148e+00	 8.740741e+00	 1.001672e+01
0	 4.148148e+00	 8.814815e+00	 1.001499e+01
0	 4.148148e+00	 8.888889e+00	 1.001334e+01
0	 4.222222e+00	 8.518519e+00	 1.002342e+01
0	 4.222222e+00	 8.592593e+00	 1.002135e+01
0	 4.222222e+00	 8.666667e+00	 1.001937e+01
0	 4.222222e+00	 8.740741e+00	 1.001748e+01
0	 4.222222e+00	 8.814815e+00	 1.001567e+01
0	 4.222222e+00	 8.888889e+00	 1.001394e+01
0	 4.296296e+00	 8.518519e+00	 1.002436e+01
0	 4.296296e+00	 8.592593e+00	 1.002221e+01
0	 4.296296e+00	 8.666667e+00	 1.002016e+01
0	 4.296296e+00	 8.740741e+00	 1.001819e+01
0	 4.296296e+00	 8.814815e+00	 1.001630e+01
0	 4.296296e+00	 8.888889e+00	 1.001451e+01
0	 4.370370e+00	 8.518519e+00	 1.002524e+01
0	 4.370370e+00	 8.592593e+00	 1.002301e+01
0	 4.370370e+00	 8.666667e+00	 1.002088e+01
0	 4.370370e+00	 8.740741e+00	 1.001885e+01
0	 4.370370e+00	 8.814815e+00	 1.001690e+01
0	 4.370370e+00	 8.888889e+00	 1.001503e+01
0	 4.444444e+00	 8.518519e+00	 1.002605e+01
0	 4.444444e+00	 8.592593e+00	 1.002375e+01
0	 4.444444e+00	 8.666667e+00	 1.002156e+01
0	 4.444444e+00	 8.740741e+00	 1.001945e+01
0	 4.444444e+00	 8.814815e+00	 1.001744e+01
0	 4.444444e+00	 8.888889e+00	 1.001551e+01
0	 4.074074e+00	 8.888889e+00	 1.001269e+01
0	 4.074074e+00	 8.962963e+00	 1.001120e+01
0	 4.074074e+00	 9.037037e+00	 1.000980e+01
0	 4.074074e+00	 9.111111e+00	 1.000848e+01
0	 4.074074e+00	 9.185185e+00	 1.000723e+01
0	 4.074074e+00	 9.259259e+00	 1.000606e+01
0	 4.148148e+00	 8.888889e+00	 1.001334e+01
0	 4.148148e+00	 8.962963e+00	 1.001177e+01
0	 4.148148e+00	 9.037037e+00	 1.001029e+01
0	 4.148148e+00	 9.111111e+00	 1.000890e+01
0	 4.148148e+00	 9.185185e+00	 1.000759e+01
0	 4.148148e+00	 9.259259e+00	 1.000636e+01
0	 4.222222e+00	 8.888889e+00	 1.001394e+01
0	 4.222222e+00	 8.962963e+00	 1.001230e+01
0	 4.222222e+00	 9.037037e+00	 1.001076e+01
0	 4.222222e+00	 9.111111e+00	 1.000930e+01
0	 4.222222e+00	 9.185185e+00	 1.000793e+01
0	 4.222222e+00	 9.259259e+00	 1.000665e+01
0	 4.296296e+00	 8.888889e+00	 1.001451e+01
0	 4.296296e+00	 8.962963e+00	 1.001280e+01
0	 4.296296e+00	 9.037037e+00	 1.001119e+01
0	 4.296296e+00	 9.111111e+00	 1.000968e+01
0	 4.296296e+00	 9.185185e+00	 1.000825e+01
0	 4.296296e+00	 9.259259e+00	 1.000692e+01
0	 4.370370e+00	 8.888889e+00	 1.001503e+01
0	 4.370370e+00	 8.962963e+00	 1.001326e+01
0	 4.370370e+00	 9.037037e+00	 1.001159e+01
0	 4.370370e+00	 9.111111e+00	 1.001003e+01
0	 4.370370e+00	 9.185185e+00	 1.000855e+01
0	 4.370370e+00	 9.259259e+00	 1.000716e+01
0	 4.444444e+00	 8.888889e+00	 1.001551e+01
0	 4.444444e+00	 8.962963e+00	 1.001369e+01
0	 4.444444e+00	 9.037037e+00	 1.001197e+01
0	 4.444444e+00	 9.111111e+00	 1.001035e+01
0	 4.444444e+00	 9.185185e+00	 1.000882e+01
0	 4.444444e+00	 9.259259e+00	 1.000739e+01
0	 4.074074e+00	 9.259259e+00	 1.000606e+01
0	 4.074074e+00	 9.333333e+00	 1.000498e+01
0	 4.074074e+00	 9.407407e+00	 1.000401e+01
0	 4.074074e+00	 9.481481e+00	 1.000314e+01
0	 4.074074e+00	 9.555556e+00	 1.000235e+01
0	 4.074074e+00	 9.629630e+00	 1.000166e+01
0	 4.148148e+00	 9.259259e+00	 1.000636e+01
0	 4.148148e+00	 9.333333e+00	 1.000523e+01
0	 4.148148e+00	 9.407407e+00	 1.000421e+01
0	 4.148148e+00	 9.481481e+00	 1.000329e+01
0	 4.148148e+00	 9.555556e+00	 1.000247e+01
0	 4.148148e+00	 9.629630e+00	 1.000173e+01
0	 4.222222e+00	 9.259259e+00	 1.000665e+01
0	 4.222222e+00	 9.333333e+00	 1.000546e+01
0	 4.222222e+00	 9.407407e+00	 1.000439e+01
0	 4.222222e+00	 9.481481e+00	 1.000343e+01
0	 4.222222e+00	 9.555556e+00	 1.000257e+01
0	 4.222222e+00	 9.629630e+00	 1.000181e+01
0	 4.296296e+00	 9.259259e+00	 1.000692e+01
0	 4.296296e+00	 9.333333e+00	 1.000568e+01
0	 4.296296e+00	 9.407407e+00	 1.000457e+01
0	 4.296296e+00	 9.481481e+00	 1.000357e+01
0	 4.296296e+00	 9.555556e+00	 1.000268e+01
0	 4.296296e+00	 9.629630e+00	 1.000188e+01
0	 4.370370e+00	 9.259259e+00	 1.000716e+01
0	 4.370370e+00	 9.333333e+00	 1.000589e+01
0	 4.370370e+00	 9.407407e+00	 1.000473e+01
0	 4.370370e+00	 9.481481e+00	 1.000370e+01
0	 4.370370e+00	 9.555556e+00	 1.000277e+01
0	 4.370370e+00	 9.629630e+00	 1.000195e+01
0	 4.444444e+00	 9.259259e+00	 1.000739e+01
0	 4.444444e+00	 9.333333e+00	 1.000607e+01
0	 4.444444e+00	 9.407407e+00	 1.000488e+01
0	 4.444444e+00	 9.481481e+00	 1.000381e+01
0	 4.444444e+00	 9.555556e+00	 1.000285e+01
0	 4.444444e+00	 9.629630e+00	 1.000201e+01
0	 4.074074e+00	 9.629630e+00	 1.000166e+01
0	 4.074074e+00	 9.703704e+00	 1.000107e+01
0	 4.074074e+00	 9.777778e+00	 1.000062e+01
0	 4.074074e+00	 9.851852e+00	 1.000029e+01
0	 4.074074e+00	 9.925926e+00	 1.000008e+01
0	 4.074074e+00	 1.000000e+01	 9.999976e+00
0	 4.148148e+00	 9.629630e+00	 1.000173e+01
0	 4.148148e+00	 9.703704e+00	 1.000112e+01
0	 4.148148e+00	 9.777778e+00	 1.000064e+01
0	 4.148148e+00	 9.851852e+00	 1.000030e+01
0	 4.148148e+00	 9.925926e+00	 1.000008e+01
0	 4.148148e+00	 1.000000e+01	 9.999971e+00
0	 4.222222e+00	 9.629630e+00	 1.000181e+01
0	 4.222222e+00	 9.703704e+00	 1.000117e+01
0	 4.222222e+00	 9.777778e+00	 1.000067e+01
0	 4.222222e+00	 9.851852e+00	 1.000031e+01
0	 4.222222e+00	 9.925926e+00	 1.000008e+01
0	 4.222222e+00	 1.000000e+01	 9.999972e+00
0	 4.296296e+00	 9.629630e+00	 1.000188e+01
0	 4.296296e+00	 9.703704e+00	 1.000121e+01
0	 4.296296e+00	 9.777778e+00	 1.000070e+01
0	 4.296296e+00	 9.851852e+00	 1.000033e+01
0	 4.296296e+00	 9.925926e+00	 1.000009e+01
0	 4.296296e+00	 1.000000e+01	 9.999974e+00
0	 4.370370e+00	 9.629630e+00	 1.000195e+01
0	 4.370370e+00	 9.703704e+00	 1.000126e+01
0	 4.370370e+00	 9.777778e+00	 1.000073e+01
0	 4.370370e+00	 9.851852e+00	 1.000034e+01
0	 4.370370e+00	 9.925926e+00	 1.000010e+01
0	 4.370370e+00	 1.000000e+01	 9.999976e+00
0	 4.444444e+00	 9.629630e+00	 1.000201e+01
0	 4.444444e+00	 9.703704e+00	 1.000129e+01
0	 4.444444e+00	 9.777778e+00	 1.000074e+01
0	 4.444444e+00	 9.851852e+00	 1.000035e+01
0	 4.444444e+00	 9.925926e+00	 1.000010e+01
0	 4.444444e+00	 1.000000e+01	 9.999973e+00
0	 4.444444e+00	 0.000000e+00	 1.042175e+01
0	 4.444444e+00	 7.407407e-02	 1.042307e+01
0	 4.444444e+00	 1.481481e-01	 1.042528e+01
0	 4.444444e+00	 2.222222e-01	 1.042846e+01
0	 4.444444e+00	 2.962963e-01	 1.043269e+01
0	 4.444444e+00	 3.703704e-01	 1.043807e+01
0	 4.518519e+00	 0.000000e+00	 1.040655e+01
0	 4.518519e+00	 7.407407e-02	 1.040778e+01
0	 4.518519e+00	 1.481481e-01	 1.040993e+01
0	 4.518519e+00	 2.222222e-01	 1.041305e+01
0	 4.518519e+00	 2.962963e-01	 1.041720e+01
0	 4.518519e+00	 3.703704e-01	 1.042246e+01
0	 4.592593e+00	 0.000000e+00	 1.039324e+01
0	 4.592593e+00	 7.407407e-02	 1.039419e+01
0	 4.592593e+00	 1.481481e-01	 1.039606e+01
0	 4.592593e+00	 2.222222e-01	 1.039887e+01
0	 4.592593e+00	 2.962963e-01	 1.040269e+01
0	 4.592593e+00	 3.703704e-01	 1.040755e+01
0	 4.666667e+00	 0.000000e+00	 1.038120e+01
0	 4.666667e+00	 7.407407e-02	 1.038180e+01
0	 4.666667e+00	 1.481481e-01	 1.038329e+01
0	 4.666667e+00	 2.222222e-01	 1.038569e+01
0	 4.666667e+00	 2.962963e-01	 1.038903e+01
0	 4.666667e+00	 3.703704e-01	 1.039335e+01
0	 4.740741e+00	 0.000000e+00	 1.036981e+01
0	 4.740741e+00	 7.407407e-02	 1.037010e+01
0	 4.740741e+00	 1.481481e-01	 1.037123e+01
0	 4.740741e+00	 2.222222e-01	 1.037322e+01
0	 4.740741e+00	 2.962963e-01	 1.037609e+01
0	 4.740741e+00	 3.703704e-01	 1.037985e+01
0	 4.814815e+00	 0.000000e+00	 1.035843e+01
0	 4.814815e+00	 7.407407e-02	 1.035859e+01
0	 4.814815e+00	 1.481481e-01	 1.035951e+01
0	 4.814815e+00	 2.222222e-01	 1.036123e+01
0	 4.814815e+00	 2.962963e-01	 1.036374e+01
0	 4.814815e+00	 3.703704e-01	 1.036707e+01
0	 4.444444e+00	 3.703704e-01	 1.043807e+01
0	 4.444444e+00	 4.444444e-01	 1.044422e+01
0	 4.444444e+00	 5.185185e-01	 1.045078e+01
0	 4.444444e+00	 5.925926e-01	 1.045784e+01
0	 4.444444e+00	 6.666667e-01	 1.046548e+01
0	 4.444444e+00	 7.407407e-01	 1.047381e+01
0	 4.518519e+00	 3.703704e-01	 1.042246e+01
0	 4.518519e+00	 4.444444e-01	 1.042842e+01
0	 4.518519e+00	 5.185185e-01	 1.043472e+01
0	 4.518519e+00	 5.925926e-01	 1.044145e+01
0	 4.518519e+00	 6.666667e-01	 1.044868e+01
0	 4.518519e+00	 7.407407e-01	 1.045652e+01
0	 4.592593e+00	 3.703704e-01	 1.040755e+01
0	 4.592593e+00	 4.444444e-01	 1.041309e+01
0	 4.592593e+00	 5.185185e-01	 1.041900e+01
0	 4.592593e+00	 5.925926e-01	 1.042535e+01
0	 4.592593e+00	 6.666667e-01	 1.043223e+01
0	 4.592593e+00	 7.407407e-01	 1.043973e+01
0	 4.666667e+00	 3.703704e-01	 1.039335e+01
0	 4.666667e+00	 4.444444e-01	 1.039835e+01
0	 4.666667e+00	 5.185185e-01	 1.040379e+01
0	 4.666667e+00	 5.925926e-01	 1.040976e+01
0	 4.666667e+00	 6.666667e-01	 1.041632e+01
0	 4.666667e+00	 7.407407e-01	 1.042357e+01
0	 4.740741e+00	 3.703704e-01	 1.037985e+01
0	 4.740741e+00	 4.444444e-01	 1.038431e+01
0	 4.740741e+00	 5.185185e-01	 1.038929e+01
0	 4.740741e+00	 5.925926e-01	 1.039488e+01
0	 4.740741e+00	 6.666667e-01	 1.040114e+01
0	 4.740741e+00	 7.407407e-01	 1.040815e+01
0	 4.814815e+00	 3.703704e-01	 1.036707e+01
0	 4.814815e+00	 4.444444e-01	 1.037108e+01
0	 4.814815e+00	 5.185185e-01	 1.037567e+01
0	 4.814815e+00	 5.925926e-01	 1.038091e+01
0	 4.814815e+00	 6.666667e-01	 1.038687e+01
0	 4.814815e+00	 7.407407e-01	 1.039361e+01
0	 4.444444e+00	 7.407407e-01	 1.047381e+01
0	 4.444444e+00	 8.148148e-01	 1.048248e+01
0	 4.444444e+00	 8.888889e-01	 1.049121e+01
0	 4.444444e+00	 9.629630e-01	 1.050016e+01
0	 4.444444e+00	 1.037037e+00	 1.050948e+01
0	 4.444444e+00	 1.111111e+00	 1.051932e+01
0	 4.518519e+00	 7.407407e-01	 1.045652e+01
0	 4.518519e+00	 8.148148e-01	 1.046472e+01
0	 4.518519e+00	 8.888889e-01	 1.047306e+01
0	 4.518519e+00	 9.629630e-01	 1.048167e+01
0	 4.518519e+00	 1.037037e+00	 1.049066e+01
0	 4.518519e+00	 1.111111e+00	 1.050016e+01
0	 4.592593e+00	 7.407407e-01	 1.043973e+01
0	 4.592593e+00	 8.148148e-01	 1.044761e+01
0	 4.592593e+00	 8.888889e-01	 1.045567e+01
0	 4.592593e+00	 9.629630e-01	 1.046398e+01
0	 4.592593e+00	 1.037037e+00	 1.047265e+01
0	 4.592593e+00	 1.111111e+00	 1.048178e+01
0	 4.666667e+00	 7.407407e-01	 1.042357e+01
0	 4.666667e+00	 8.148148e-01	 1.043122e+01
0	 4.666667e+00	 8.888889e-01	 1.043903e+01
0	 4.666667e+00	 9.629630e-01	 1.044706e+01
0	 4.666667e+00	 1.037037e+00	 1.045540e+01
0	 4.666667e+00	 1.111111e+00	 1.046412e+01
0	 4.740741e+00	 7.407407e-01	 1.040815e+01
0	 4.740741e+00	 8.148148e-01	 1.041559e+01
0	 4.740741e+00	 8.888889e-01	 1.042314e+01
0	 4.740741e+00	 9.629630e-01	 1.043087e+01
0	 4.740741e+00	 1.037037e+00	 1.043885e+01
0	 4.740741e+00	 1.111111e+00	 1.044716e+01
0	 4.814815e+00	 7.407407e-01	 1.039361e+01
0	 4.814815e+00	 8.148148e-01	 1.040077e+01
0	 4.814815e+00	 8.888889e-01	 1.040800e+01
0	 4.814815e+00	 9.629630e-01	 1.041537e+01
0	 4.814815e+00	 1.037037e+00	 1.042295e+01
0	 4.814815e+00	 1.111111e+00	 1.043083e+01
0	 4.444444e+00	 1.111111e+00	 1.051932e+01
0	 4.444444e+00	 1.185185e+00	 1.052917e+01
0	 4.444444e+00	 1.259259e+00	 1.053846e+01
0	 4.444444e+00	 1.333333e+00	 1.054732e+01
0	 4.444444e+00	 1.407407e+00	 1.055584e+01
0	 4.444444e+00	 1.481481e+00	 1.056412e+01
0	 4.518519e+00	 1.111111e+00	 1.050016e+01
0	 4.518519e+00	 1.185185e+00	 1.050965e+01
0	 4.518519e+00	 1.259259e+00	 1.051861e+01
0	 4.518519e+00	 1.333333e+00	 1.052714e+01
0	 4.518519e+00	 1.407407e+00	 1.053538e+01
0	 4.518519e+00	 1.481481e+00	 1.054342e+01
0	 4.592593e+00	 1.111111e+00	 1.048178e+01
0	 4.592593e+00	 1.185185e+00	 1.049088e+01
0	 4.592593e+00	 1.259259e+00	 1.049949e+01
0	 4.592593e+00	 1.333333e+00	 1.050772e+01
0	 4.592593e+00	 1.407407e+00	 1.051571e+01
0	 4.592593e+00	 1.481481e+00	 1.052356e+01
0	 4.666667e+00	 1.111111e+00	 1.046412e+01
0	 4.666667e+00	 1.185185e+00	 1.047282e+01
0	 4.666667e+00	 1.259259e+00	 1.048108e+01
0	 4.666667e+00	 1.333333e+00	 1.048903e+01
0	 4.666667e+00	 1.407407e+00	 1.049679e+01
0	 4.666667e+00	 1.481481e+00	 1.050447e+01
0	 4.740741e+00	 1.111111e+00	 1.044716e+01
0	 4.740741e+00	 1.185185e+00	 1.045544e+01
0	 4.740741e+00	 1.259259e+00	 1.046336e+01
0	 4.740741e+00	 1.333333e+00	 1.047105e+01
0	 4.740741e+00	 1.407407e+00	 1.047859e+01
0	 4.740741e+00	 1.481481e+00	 1.048611e+01
0	 4.814815e+00	 1.111111e+00	 1.043083e+01
0	 4.814815e+00	 1.185185e+00	 1.043871e+01
0	 4.814815e+00	 1.259259e+00	 1.044631e+01
0	 4.814815e+00	 1.333333e+00	 1.045373e+01
0	 4.814815e+00	 1.407407e+00	 1.046107e+01
0	 4.814815e+00	 1.481481e+00	 1.046842e+01
0	 4.444444e+00	 1.481481e+00	 1.056412e+01
0	 4.444444e+00	 1.555556e+00	 1.057189e+01
0	 4.444444e+00	 1.629630e+00	 1.057883e+01
0	 4.444444e+00	 1.703704e+00	 1.058503e+01
0	 4.444444e+00	 1.777778e+00	 1.059057e+01
0	 4.444444e+00	 1.851852e+00	 1.059553e+01
0	 4.518519e+00	 1.481481e+00	 1.054342e+01
0	 4.518519e+00	 1.555556e+00	 1.055101e+01
0	 4.518519e+00	 1.629630e+00	 1.055786e+01
0	 4.518519e+00	 1.703704e+00	 1.056404e+01
0	 4.518519e+00	 1.777778e+00	 1.056962e+01
0	 4.518519e+00	 1.851852e+00	 1.057469e+01
0	 4.592593e+00	 1.481481e+00	 1.052356e+01
0	 4.592593e+00	 1.555556e+00	 1.053101e+01
0	 4.592593e+00	 1.629630e+00	 1.053778e+01
0	 4.592593e+00	 1.703704e+00	 1.054393e+01
0	 4.592593e+00	 1.777778e+00	 1.054954e+01
0	 4.592593e+00	 1.851852e+00	 1.055466e+01
0	 4.666667e+00	 1.481481e+00	 1.050447e+01
0	 4.666667e+00	 1.555556e+00	 1.051181e+01
0	 4.666667e+00	 1.629630e+00	 1.051850e+01
0	 4.666667e+00	 1.703704e+00	 1.052461e+01
0	 4.666667e+00	 1.777778e+00	 1.053021e+01
0	 4.666667e+00	 1.851852e+00	 1.053536e+01
0	 4.740741e+00	 1.481481e+00	 1.048611e+01
0	 4.740741e+00	 1.555556e+00	 1.049332e+01
0	 4.740741e+00	 1.629630e+00	 1.049993e+01
0	 4.740741e+00	 1.703704e+00	 1.050598e+01
0	 4.740741e+00	 1.777778e+00	 1.051155e+01
0	 4.740741e+00	 1.851852e+00	 1.051670e+01
0	 4.814815e+00	 1.481481e+00	 1.046842e+01
0	 4.814815e+00	 1.555556e+00	 1.047548e+01
0	 4.814815e+00	 1.629630e+00	 1.048197e+01
0	 4.814815e+00	 1.703704e+00	 1.048794e+01
0	 4.814815e+00	 1.777778e+00	 1.049346e+01
0	 4.814815e+00	 1.851852e+00	 1.049859e+01
0	 4.444444e+00	 1.851852e+00	 1.059553e+01
0	 4.444444e+00	 1.925926e+00	 1.059974e+01
0	 4.444444e+00	 2.000000e+00	 1.060300e+01
0	 4.444444e+00	 2.074074e+00	 1.060534e+01
0	 4.444444e+00	 2.148148e+00	 1.060680e+01
0	 4.444444e+00	 2.222222e+00	 1.060743e+01
0	 4.518519e+00	 1.851852e+00	 1.057469e+01
0	 4.518519e+00	 1.925926e+00	 1.057906e+01
0	 4.518519e+00	 2.000000e+00	 1.058253e+01
0	 4.518519e+00	 2.074074e+00	 1.058515e+01
0	 4.518519e+00	 2.148148e+00	 1.058695e+01
0	 4.518519e+00	 2.222222e+00	 1.058799e+01
0	 4.592593e+00	 1.851852e+00	 1.055466e+01
0	 4.592593e+00	 1.925926e+00	 1.055914e+01
0	 4.592593e+00	 2.000000e+00	 1.056277e+01
0	 4.592593e+00	 2.074074e+00	 1.056561e+01
0	 4.592593e+00	 2.148148e+00	 1.056770e+01
0	 4.592593e+00	 2.222222e+00	 1.056907e+01
0	 4.666667e+00	 1.851852e+00	 1.053536e+01
0	 4.666667e+00	 1.925926e+00	 1.053990e+01
0	 4.666667e+00	 2.000000e+00	 1.054366e+01
0	 4.666667e+00	 2.074074e+00	 1.054668e+01
0	 4.666667e+00	 2.148148e+00	 1.054899e+01
0	 4.666667e+00	 2.222222e+00	 1.055066e+01
0	 4.740741e+00	 1.851852e+00	 1.051670e+01
0	 4.740741e+00	 1.925926e+00	 1.052128e+01
0	 4.740741e+00	 2.000000e+00	 1.052513e+01
0	 4.740741e+00	 2.074074e+00	 1.052829e+01
0	 4.740741e+00	 2.148148e+00	 1.053080e+01
0	 4.740741e+00	 2.222222e+00	 1.053270e+01
0	 4.814815e+00	 1.851852e+00	 1.049859e+01
0	 4.814815e+00	 1.925926e+00	 1.050319e+01
0	 4.814815e+00	 2.000000e+00	 1.050711e+01
0	 4.814815e+00	 2.074074e+00	 1.051039e+01
0	 4.814815e+00	 2.148148e+00	 1.051307e+01
0	 4.814815e+00	 2.222222e+00	 1.051519e+01
0	 4.444444e+00	 2.222222e+00	 1.060743e+01
0	 4.444444e+00	 2.296296e+00	 1.060723e+01
0	 4.444444e+00	 2.370370e+00	 1.060618e+01
0	 4.444444e+00	 2.444444e+00	 1.060427e+01
0	 4.444444e+00	 2.518519e+00	 1.060150e+01
0	 4.444444e+00	 2.592593e+00	 1.059787e+01
0	 4.518519e+00	 2.222222e+00	 1.058799e+01
0	 4.518519e+00	 2.296296e+00	 1.058824e+01
0	 4.518519e+00	 2.370370e+00	 1.058767e+01
0	 4.518519e+00	 2.444444e+00	 1.058627e+01
0	 4.518519e+00	 2.518519e+00	 1.058406e+01
0	 4.518519e+00	 2.592593e+00	 1.058102e+01
0	 4.592593e+00	 2.222222e+00	 1.056907e+01
0	 4.592593e+00	 2.296296e+00	 1.056971e+01
0	 4.592593e+00	 2.370370e+00	 1.056956e+01
0	 4.592593e+00	 2.444444e+00	 1.056862e+01
0	 4.592593e+00	 2.518519e+00	 1.056691e+01
0	 4.592593e+00	 2.592593e+00	 1.056442e+01
0	 4.666667e+00	 2.222222e+00	 1.055066e+01
0	 4.666667e+00	 2.296296e+00	 1.055162e+01
0	 4.666667e+00	 2.370370e+00	 1.055184e+01
0	 4.666667e+00	 2.444444e+00	 1.055132e+01
0	 4.666667e+00	 2.518519e+00	 1.055006e+01
0	 4.666667e+00	 2.592593e+00	 1.054807e+01
0	 4.740741e+00	 2.222222e+00	 1.053270e+01
0	 4.740741e+00	 2.296296e+00	 1.053396e+01
0	 4.740741e+00	 2.370370e+00	 1.053450e+01
0	 4.740741e+00	 2.444444e+00	 1.053434e+01
0	 4.740741e+00	 2.518519e+00	 1.053350e+01
0	 4.740741e+00	 2.592593e+00	 1.053197e+01
0	 4.814815e+00	 2.222222e+00	 1.051519e+01
0	 4.814815e+00	 2.296296e+00	 1.051670e+01
0	 4.814815e+00	 2.370370e+00	 1.051753e+01
0	 4.814815e+00	 2.444444e+00	 1.051770e+01
0	 4.814815e+00	 2.518519e+00	 1.051723e+01
0	 4.814815e+00	 2.592593e+00	 1.051612e+01
0	 4.444444e+00	 2.592593e+00	 1.059787e+01
0	 4.444444e+00	 2.666667e+00	 1.059351e+01
0	 4.444444e+00	 2.740741e+00	 1.058850e+01
0	 4.444444e+00	 2.814815e+00	 1.058285e+01
0	 4.444444e+00	 2.888889e+00	 1.057651e+01
0	 4.444444e+00	 2.962963e+00	 1.056949e+01
0	 4.518519e+00	 2.592593e+00	 1.058102e+01
0	 4.518519e+00	 2.666667e+00	 1.057728e+01
0	 4.518519e+00	 2.740741e+00	 1.057292e+01
0	 4.518519e+00	 2.814815e+00	 1.056792e+01
0	 4.518519e+00	 2.888889e+00	 1.056227e+01
0	 4.518519e+00	 2.962963e+00	 1.055595e+01
0	 4.592593e+00	 2.592593e+00	 1.056442e+01
0	 4.592593e+00	 2.666667e+00	 1.056126e+01
0	 4.592593e+00	 2.740741e+00	 1.055748e+01
0	 4.592593e+00	 2.814815e+00	 1.055309e+01
0	 4.592593e+00	 2.888889e+00	 1.054807e+01
0	 4.592593e+00	 2.962963e+00	 1.054239e+01
0	 4.666667e+00	 2.592593e+00	 1.054807e+01
0	 4.666667e+00	 2.666667e+00	 1.054544e+01
0	 4.666667e+00	 2.740741e+00	 1.054221e+01
0	 4.666667e+00	 2.814815e+00	 1.053837e+01
0	 4.666667e+00	 2.888889e+00	 1.053391e+01
0	 4.666667e+00	 2.962963e+00	 1.052882e+01
0	 4.740741e+00	 2.592593e+00	 1.053197e+01
0	 4.740741e+00	 2.666667e+00	 1.052982e+01
0	 4.740741e+00	 2.740741e+00	 1.052709e+01
0	 4.740741e+00	 2.814815e+00	 1.052376e+01
0	 4.740741e+00	 2.888889e+00	 1.051982e+01
0	 4.740741e+00	 2.962963e+00	 1.051527e+01
0	 4.814815e+00	 2.592593e+00	 1.051612e+01
0	 4.814815e+00	 2.666667e+00	 1.051441e+01
0	 4.814815e+00	 2.740741e+00	 1.051213e+01
0	 4.814815e+00	 2.814815e+00	 1.050927e+01
0	 4.814815e+00	 2.888889e+00	 1.050582e+01
0	 4.814815e+00	 2.962963e+00	 1.050177e+01
0	 4.444444e+00	 2.962963e+00	 1.056949e+01
0	 4.444444e+00	 3.037037e+00	 1.056191e+01
0	 4.444444e+00	 3.111111e+00	 1.055391e+01
0	 4.444444e+00	 3.185185e+00	 1.054546e+01
0	 4.444444e+00	 3.259259e+00	 1.053653e+01
0	 4.444444e+00	 3.333333e+00	 1.052707e+01
0	 4.518519e+00	 2.962963e+00	 1.055595e+01
0	 4.518519e+00	 3.037037e+00	 1.054909e+01
0	 4.518519e+00	 3.111111e+00	 1.054179e+01
0	 4.518519e+00	 3.185185e+00	 1.053404e+01
0	 4.518519e+00	 3.259259e+00	 1.052579e+01
0	 4.518519e+00	 3.333333e+00	 1.051702e+01
0	 4.592593e+00	 2.962963e+00	 1.054239e+01
0	 4.592593e+00	 3.037037e+00	 1.053617e+01
0	 4.592593e+00	 3.111111e+00	 1.052952e+01
0	 4.592593e+00	 3.185185e+00	 1.052241e+01
0	 4.592593e+00	 3.259259e+00	 1.051482e+01
0	 4.592593e+00	 3.333333e+00	 1.050671e+01
0	 4.666667e+00	 2.962963e+00	 1.052882e+01
0	 4.666667e+00	 3.037037e+00	 1.052320e+01
0	 4.666667e+00	 3.111111e+00	 1.051715e+01
0	 4.666667e+00	 3.185185e+00	 1.051064e+01
0	 4.666667e+00	 3.259259e+00	 1.050366e+01
0	 4.666667e+00	 3.333333e+00	 1.049618e+01
0	 4.740741e+00	 2.962963e+00	 1.051527e+01
0	 4.740741e+00	 3.037037e+00	 1.051020e+01
0	 4.740741e+00	 3.111111e+00	 1.050470e+01
0	 4.740741e+00	 3.185185e+00	 1.049877e+01
0	 4.740741e+00	 3.259259e+00	 1.049237e+01
0	 4.740741e+00	 3.333333e+00	 1.048549e+01
0	 4.814815e+00	 2.962963e+00	 1.050177e+01
0	 4.814815e+00	 3.037037e+00	 1.049721e+01
0	 4.814815e+00	 3.111111e+00	 1.049225e+01
0	 4.814815e+00	 3.185185e+00	 1.048684e+01
0	 4.814815e+00	 3.259259e+00	 1.048099e+01
0	 4.814815e+00	 3.333333e+00	 1.047467e+01
0	 4.444444e+00	 3.333333e+00	 1.052707e+01
0	 4.444444e+00	 3.407407e+00	 1.051726e+01
0	 4.444444e+00	 3.481481e+00	 1.050726e+01
0	 4.444444e+00	 3.555556e+00	 1.049704e+01
0	 4.444444e+00	 3.629630e+00	 1.048656e+01
0	 4.444444e+00	 3.703704e+00	 1.047581e+01
0	 4.518519e+00	 3.333333e+00	 1.051702e+01
0	 4.518519e+00	 3.407407e+00	 1.050790e+01
0	 4.518519e+00	 3.481481e+00	 1.049857e+01
0	 4.518519e+00	 3.555556e+00	 1.048901e+01
0	 4.518519e+00	 3.629630e+00	 1.047919e+01
0	 4.518519e+00	 3.703704e+00	 1.046907e+01
0	 4.592593e+00	 3.333333e+00	 1.050671e+01
0	 4.592593e+00	 3.407407e+00	 1.049824e+01
0	 4.592593e+00	 3.481481e+00	 1.048956e+01
0	 4.592593e+00	 3.555556e+00	 1.048063e+01
0	 4.592593e+00	 3.629630e+00	 1.047141e+01
0	 4.592593e+00	 3.703704e+00	 1.046190e+01
0	 4.666667e+00	 3.333333e+00	 1.049618e+01
0	 4.666667e+00	 3.407407e+00	 1.048834e+01
0	 4.666667e+00	 3.481481e+00	 1.048027e+01
0	 4.666667e+00	 3.555556e+00	 1.047193e+01
0	 4.666667e+00	 3.629630e+00	 1.046330e+01
0	 4.666667e+00	 3.703704e+00	 1.045435e+01
0	 4.740741e+00	 3.333333e+00	 1.048549e+01
0	 4.740741e+00	 3.407407e+00	 1.047824e+01
0	 4.740741e+00	 3.481481e+00	 1.047075e+01
0	 4.740741e+00	 3.555556e+00	 1.046297e+01
0	 4.740741e+00	 3.629630e+00	 1.045490e+01
0	 4.740741e+00	 3.703704e+00	 1.044649e+01
0	 4.814815e+00	 3.333333e+00	 1.047467e+01
0	 4.814815e+00	 3.407407e+00	 1.046799e+01
0	 4.814815e+00	 3.481481e+00	 1.046104e+01
0	 4.814815e+00	 3.555556e+00	 1.045380e+01
0	 4.814815e+00	 3.629630e+00	 1.044626e+01
0	 4.814815e+00	 3.703704e+00	 1.043837e+01
0	 4.444444e+00	 3.703704e+00	 1.047581e+01
0	 4.444444e+00	 3.777778e+00	 1.046490e+01
0	 4.444444e+00	 3.851852e+00	 1.045396e+01
0	 4.444444e+00	 3.925926e+00	 1.044295e+01
0	 4.444444e+00	 4.000000e+00	 1.043186e+01
0	 4.444444e+00	 4.074074e+00	 1.042065e+01
0	 4.518519e+00	 3.703704e+00	 1.046907e+01
0	 4.518519e+00	 3.777778e+00	 1.045877e+01
0	 4.518519e+00	 3.851852e+00	 1.044841e+01
0	 4.518519e+00	 3.925926e+00	 1.043797e+01
0	 4.518519e+00	 4.000000e+00	 1.042742e+01
0	 4.518519e+00	 4.074074e+00	 1.041673e+01
0	 4.592593e+00	 3.703704e+00	 1.046190e+01
0	 4.592593e+00	 3.777778e+00	 1.045218e+01
0	 4.592593e+00	 3.851852e+00	 1.044239e+01
0	 4.592593e+00	 3.925926e+00	 1.043249e+01
0	 4.592593e+00	 4.000000e+00	 1.042247e+01
0	 4.592593e+00	 4.074074e+00	 1.041228e+01
0	 4.666667e+00	 3.703704e+00	 1.045435e+01
0	 4.666667e+00	 3.777778e+00	 1.044519e+01
0	 4.666667e+00	 3.851852e+00	 1.043594e+01
0	 4.666667e+00	 3.925926e+00	 1.042657e+01
0	 4.666667e+00	 4.000000e+00	 1.041706e+01
0	 4.666667e+00	 4.074074e+00	 1.040738e+01
0	 4.740741e+00	 3.703704e+00	 1.044649e+01
0	 4.740741e+00	 3.777778e+00	 1.043787e+01
0	 4.740741e+00	 3.851852e+00	 1.042913e+01
0	 4.740741e+00	 3.925926e+00	 1.042027e+01
0	 4.740741e+00	 4.000000e+00	 1.041126e+01
0	 4.740741e+00	 4.074074e+00	 1.040206e+01
0	 4.814815e+00	 3.703704e+00	 1.043837e+01
0	 4.814815e+00	 3.777778e+00	 1.043026e+01
0	 4.814815e+00	 3.851852e+00	 1.042203e+01
0	 4.814815e+00	 3.925926e+00	 1.041366e+01
0	 4.814815e+00	 4.000000e+00	 1.040513e+01
0	 4.814815e+00	 4.074074e+00	 1.039641e+01
0	 4.444444e+00	 4.074074e+00	 1.042065e+01
0	 4.444444e+00	 4.148148e+00	 1.040942e+01
0	 4.444444e+00	 4.222222e+00	 1.039829e+01
0	 4.444444e+00	 4.296296e+00	 1.038724e+01
0	 4.444444e+00	 4.370370e+00	 1.037624e+01
0	 4.444444e+00	 4.444444e+00	 1.036528e+01
0	 4.518519e+00	 4.074074e+00	 1.041673e+01
0	 4.518519e+00	 4.148148e+00	 1.040600e+01
0	 4.518519e+00	 4.222222e+00	 1.039535e+01
0	 4.518519e+00	 4.296296e+00	 1.038475e+01
0	 4.518519e+00	 4.370370e+00	 1.037419e+01
0	 4.518519e+00	 4.444444e+00	 1.036363e+01
0	 4.592593e+00	 4.074074e+00	 1.041228e+01
0	 4.592593e+00	 4.148148e+00	 1.040205e+01
0	 4.592593e+00	 4.222222e+00	 1.039187e+01
0	 4.592593e+00	 4.296296e+00	 1.038172e+01
0	 4.592593e+00	 4.370370e+00	 1.037158e+01
0	 4.592593e+00	 4.444444e+00	 1.036143e+01
0	 4.666667e+00	 4.074074e+00	 1.040738e+01
0	 4.666667e+00	 4.148148e+00	 1.039763e+01
0	 4.666667e+00	 4.222222e+00	 1.038791e+01
0	 4.666667e+00	 4.296296e+00	 1.037820e+01
0	 4.666667e+00	 4.370370e+00	 1.036848e+01
0	 4.666667e+00	 4.444444e+00	 1.035872e+01
0	 4.740741e+00	 4.074074e+00	 1.040206e+01
0	 4.740741e+00	 4.148148e+00	 1.039279e+01
0	 4.740741e+00	 4.222222e+00	 1.038352e+01
0	 4.740741e+00	 4.296296e+00	 1.037424e+01
0	 4.740741e+00	 4.370370e+00	 1.036493e+01
0	 4.740741e+00	 4.444444e+00	 1.035556e+01
0	 4.814815e+00	 4.074074e+00	 1.039641e+01
0	 4.814815e+00	 4.148148e+00	 1.038759e+01
0	 4.814815e+00	 4.222222e+00	 1.037876e+01
0	 4.814815e+00	 4.296296e+00	 1.036990e+01
0	 4.814815e+00	 4.370370e+00	 1.036099e+01
0	 4.814815e+00	 4.444444e+00	 1.035200e+01
0	 4.444444e+00	 4.444444e+00	 1.036528e+01
0	 4.444444e+00	 4.518519e+00	 1.035441e+01
0	 4.444444e+00	 4.592593e+00	 1.034371e+01
0	 4.444444e+00	 4.666667e+00	 1.033315e+01
0	 4.444444e+00	 4.740741e+00	 1.032273e+01
0	 4.444444e+00	 4.814815e+00	 1.031243e+01
0	 4.518519e+00	 4.444444e+00	 1.036363e+01
0	 4.518519e+00	 4.518519e+00	 1.035315e+01
0	 4.518519e+00	 4.592593e+00	 1.034281e+01
0	 4.518519e+00	 4.666667e+00	 1.033259e+01
0	 4.518519e+00	 4.740741e+00	 1.032248e+01
0	 4.518519e+00	 4.814815e+00	 1.031247e+01
0	 4.592593e+00	 4.444444e+00	 1.036143e+01
0	 4.592593e+00	 4.518519e+00	 1.035132e+01
0	 4.592593e+00	 4.592593e+00	 1.034134e+01
0	 4.592593e+00	 4.666667e+00	 1.033146e+01
0	 4.592593e+00	 4.740741e+00	 1.032167e+01
0	 4.592593e+00	 4.814815e+00	 1.031196e+01
0	 4.666667e+00	 4.444444e+00	 1.035872e+01
0	 4.666667e+00	 4.518519e+00	 1.034899e+01
0	 4.666667e+00	 4.592593e+00	 1.033936e+01
0	 4.666667e+00	 4.666667e+00	 1.032982e+01
0	 4.666667e+00	 4.740741e+00	 1.032035e+01
0	 4.666667e+00	 4.814815e+00	 1.031094e+01
0	 4.740741e+00	 4.444444e+00	 1.035556e+01
0	 4.740741e+00	 4.518519e+00	 1.034620e+01
0	 4.740741e+00	 4.592593e+00	 1.033693e+01
0	 4.740741e+00	 4.666667e+00	 1.032772e+01
0	 4.740741e+00	 4.740741e+00	 1.031858e+01
0	 4.740741e+00	 4.814815e+00	 1.030947e+01
0	 4.814815e+00	 4.444444e+00	 1.035200e+01
0	 4.814815e+00	 4.518519e+00	 1.034301e+01
0	 4.814815e+00	 4.592593e+00	 1.033408e+01
0	 4.814815e+00	 4.666667e+00	 1.032522e+01
0	 4.814815e+00	 4.740741e+00	 1.031639e+01
0	 4.814815e+00	 4.814815e+00	 1.030758e+01
0	 4.444444e+00	 4.814815e+00	 1.031243e+01
0	 4.444444e+00	 4.888889e+00	 1.030228e+01
0	 4.444444e+00	 4.962963e+00	 1.029234e+01
0	 4.444444e+00	 5.037037e+00	 1.028260e+01
0	 4.444444e+00	 5.111111e+00	 1.027305e+01
0	 4.444444e+00	 5.185185e+00	 1.026367e+01
0	 4.518519e+00	 4.814815e+00	 1.031247e+01
0	 4.518519e+00	 4.888889e+00	 1.030259e+01
0	 4.518519e+00	 4.962963e+00	 1.029291e+01
0	 4.518519e+00	 5.037037e+00	 1.028340e+01
0	 4.518519e+00	 5.111111e+00	 1.027406e+01
0	 4.518519e+00	 5.185185e+00	 1.026488e+01
0	 4.592593e+00	 4.814815e+00	 1.031196e+01
0	 4.592593e+00	 4.888889e+00	 1.030236e+01
0	 4.592593e+00	 4.962963e+00	 1.029294e+01
0	 4.592593e+00	 5.037037e+00	 1.028367e+01
0	 4.592593e+00	 5.111111e+00	 1.027456e+01
0	 4.592593e+00	 5.185185e+00	 1.026558e+01
0	 4.666667e+00	 4.814815e+00	 1.031094e+01
0	 4.666667e+00	 4.888889e+00	 1.030163e+01
0	 4.666667e+00	 4.962963e+00	 1.029247e+01
0	 4.666667e+00	 5.037037e+00	 1.028346e+01
0	 4.666667e+00	 5.111111e+00	 1.027457e+01
0	 4.666667e+00	 5.185185e+00	 1.026580e+01
0	 4.740741e+00	 4.814815e+00	 1.030947e+01
0	 4.740741e+00	 4.888889e+00	 1.030044e+01
0	 4.740741e+00	 4.962963e+00	 1.029155e+01
0	 4.740741e+00	 5.037037e+00	 1.028279e+01
0	 4.740741e+00	 5.111111e+00	 1.027413e+01
0	 4.740741e+00	 5.185185e+00	 1.026558e+01
0	 4.814815e+00	 4.814815e+00	 1.030758e+01
0	 4.814815e+00	 4.888889e+00	 1.029884e+01
0	 4.814815e+00	 4.962963e+00	 1.029023e+01
0	 4.814815e+00	 5.037037e+00	 1.028171e+01
0	 4.814815e+00	 5.111111e+00	 1.027329e+01
0	 4.814815e+00	 5.185185e+00	 1.026495e+01
0	 4.444444e+00	 5.185185e+00	 1.026367e+01
0	 4.444444e+00	 5.259259e+00	 1.025449e+01
0	 4.444444e+00	 5.333333e+00	 1.024552e+01
0	 4.444444e+00	 5.407407e+00	 1.023677e+01
0	 4.444444e+00	 5.481481e+00	 1.022821e+01
0	 4.444444e+00	 5.555556e+00	 1.021986e+01
0	 4.518519e+00	 5.185185e+00	 1.026488e+01
0	 4.518519e+00	 5.259259e+00	 1.025587e+01
0	 4.518519e+00	 5.333333e+00	 1.024707e+01
0	 4.518519e+00	 5.407407e+00	 1.023846e+01
0	 4.518519e+00	 5.481481e+00	 1.023004e+01
0	 4.518519e+00	 5.555556e+00	 1.022179e+01
0	 4.592593e+00	 5.185185e+00	 1.026558e+01
0	 4.592593e+00	 5.259259e+00	 1.025676e+01
0	 4.592593e+00	 5.333333e+00	 1.024812e+01
0	 4.592593e+00	 5.407407e+00	 1.023967e+01
0	 4.592593e+00	 5.481481e+00	 1.023138e+01
0	 4.592593e+00	 5.555556e+00	 1.022326e+01
0	 4.666667e+00	 5.185185e+00	 1.026580e+01
0	 4.666667e+00	 5.259259e+00	 1.025717e+01
0	 4.666667e+00	 5.333333e+00	 1.024871e+01
0	 4.666667e+00	 5.407407e+00	 1.024042e+01
0	 4.666667e+00	 5.481481e+00	 1.023229e+01
0	 4.666667e+00	 5.555556e+00	 1.022430e+01
0	 4.740741e+00	 5.185185e+00	 1.026558e+01
0	 4.740741e+00	 5.259259e+00	 1.025714e+01
0	 4.740741e+00	 5.333333e+00	 1.024887e+01
0	 4.740741e+00	 5.407407e+00	 1.024075e+01
0	 4.740741e+00	 5.481481e+00	 1.023278e+01
0	 4.740741e+00	 5.555556e+00	 1.022494e+01
0	 4.814815e+00	 5.185185e+00	 1.026495e+01
0	 4.814815e+00	 5.259259e+00	 1.025672e+01
0	 4.814815e+00	 5.333333e+00	 1.024864e+01
0	 4.814815e+00	 5.407407e+00	 1.024070e+01
0	 4.814815e+00	 5.481481e+00	 1.023289e+01
0	 4.814815e+00	 5.555556e+00	 1.022520e+01
0	 4.444444e+00	 5.555556e+00	 1.021986e+01
0	 4.444444e+00	 5.629630e+00	 1.021170e+01
0	 4.444444e+00	 5.703704e+00	 1.020376e+01
0	 4.444444e+00	 5.777778e+00	 1.019603e+01
0	 4.444444e+00	 5.851852e+00	 1.018851e+01
0	 4.444444e+00	 5.925926e+00	 1.018119e+01
0	 4.518519e+00	 5.555556e+00	 1.022179e+01
0	 4.518519e+00	 5.629630e+00	 1.021374e+01
0	 4.518519e+00	 5.703704e+00	 1.020588e+01
0	 4.518519e+00	 5.777778e+00	 1.019823e+01
0	 4.518519e+00	 5.851852e+00	 1.019077e+01
0	 4.518519e+00	 5.925926e+00	 1.018350e+01
0	 4.592593e+00	 5.555556e+00	 1.022326e+01
0	 4.592593e+00	 5.629630e+00	 1.021532e+01
0	 4.592593e+00	 5.703704e+00	 1.020757e+01
0	 4.592593e+00	 5.777778e+00	 1.020000e+01
0	 4.592593e+00	 5.851852e+00	 1.019262e+01
0	 4.592593e+00	 5.925926e+00	 1.018541e+01
0	 4.666667e+00	 5.555556e+00	 1.022430e+01
0	 4.666667e+00	 5.629630e+00	 1.021648e+01
0	 4.666667e+00	 5.703704e+00	 1.020884e+01
0	 4.666667e+00	 5.777778e+00	 1.020137e+01
0	 4.666667e+00	 5.851852e+00	 1.019407e+01
0	 4.666667e+00	 5.925926e+00	 1.018693e+01
0	 4.740741e+00	 5.555556e+00	 1.022494e+01
0	 4.740741e+00	 5.629630e+00	 1.021724e+01
0	 4.740741e+00	 5.703704e+00	 1.020972e+01
0	 4.740741e+00	 5.777778e+00	 1.020236e+01
0	 4.740741e+00	 5.851852e+00	 1.019515e+01
0	 4.740741e+00	 5.925926e+00	 1.018810e+01
0	 4.814815e+00	 5.555556e+00	 1.022520e+01
0	 4.814815e+00	 5.629630e+00	 1.021764e+01
0	 4.814815e+00	 5.703704e+00	 1.021025e+01
0	 4.814815e+00	 5.777778e+00	 1.020300e+01
0	 4.814815e+00	 5.851852e+00	 1.019589e+01
0	 4.814815e+00	 5.925926e+00	 1.018893e+01
0	 4.444444e+00	 5.925926e+00	 1.018119e+01
0	 4.444444e+00	 6.000000e+00	 1.017407e+01
0	 4.444444e+00	 6.074074e+00	 1.016715e+01
0	 4.444444e+00	 6.148148e+00	 1.016042e+01
0	 4.444444e+00	 6.222222e+00	 1.015389e+01
0	 4.444444e+00	 6.296296e+00	 1.014754e+01
0	 4.518519e+00	 5.925926e+00	 1.018350e+01
0	 4.518519e+00	 6.000000e+00	 1.017642e+01
0	 4.518519e+00	 6.074074e+00	 1.016953e+01
0	 4.518519e+00	 6.148148e+00	 1.016282e+01
0	 4.518519e+00	 6.222222e+00	 1.015630e+01
0	 4.518519e+00	 6.296296e+00	 1.014996e+01
0	 4.592593e+00	 5.925926e+00	 1.018541e+01
0	 4.592593e+00	 6.000000e+00	 1.017838e+01
0	 4.592593e+00	 6.074074e+00	 1.017153e+01
0	 4.592593e+00	 6.148148e+00	 1.016485e+01
0	 4.592593e+00	 6.222222e+00	 1.015835e+01
0	 4.592593e+00	 6.296296e+00	 1.015203e+01
0	 4.666667e+00	 5.925926e+00	 1.018693e+01
0	 4.666667e+00	 6.000000e+00	 1.017996e+01
0	 4.666667e+00	 6.074074e+00	 1.017316e+01
0	 4.666667e+00	 6.148148e+00	 1.016653e+01
0	 4.666667e+00	 6.222222e+00	 1.016007e+01
0	 4.666667e+00	 6.296296e+00	 1.015377e+01
0	 4.740741e+00	 5.925926e+00	 1.018810e+01
0	 4.740741e+00	 6.000000e+00	 1.018120e+01
0	 4.740741e+00	 6.074074e+00	 1.017446e+01
0	 4.740741e+00	 6.148148e+00	 1.016789e+01
0	 4.740741e+00	 6.222222e+00	 1.016147e+01
0	 4.740741e+00	 6.296296e+00	 1.015520e+01
0	 4.814815e+00	 5.925926e+00	 1.018893e+01
0	 4.814815e+00	 6.000000e+00	 1.018211e+01
0	 4.814815e+00	 6.074074e+00	 1.017544e+01
0	 4.814815e+00	 6.148148e+00	 1.016893e+01
0	 4.814815e+00	 6.222222e+00	 1.016257e+01
0	 4.814815e+00	 6.296296e+00	 1.015635e+01
0	 4.444444e+00	 6.296296e+00	 1.014754e+01
0	 4.444444e+00	 6.370370e+00	 1.014138e+01
0	 4.444444e+00	 6.444444e+00	 1.013540e+01
0	 4.444444e+00	 6.518519e+00	 1.012960e+01
0	 4.444444e+00	 6.592593e+00	 1.012397e+01
0	 4.444444e+00	 6.666667e+00	 1.011852e+01
0	 4.518519e+00	 6.296296e+00	 1.014996e+01
0	 4.518519e+00	 6.370370e+00	 1.014379e+01
0	 4.518519e+00	 6.444444e+00	 1.013780e+01
0	 4.518519e+00	 6.518519e+00	 1.013198e+01
0	 4.518519e+00	 6.592593e+00	 1.012632e+01
0	 4.518519e+00	 6.666667e+00	 1.012084e+01
0	 4.592593e+00	 6.296296e+00	 1.015203e+01
0	 4.592593e+00	 6.370370e+00	 1.014587e+01
0	 4.592593e+00	 6.444444e+00	 1.013987e+01
0	 4.592593e+00	 6.518519e+00	 1.013405e+01
0	 4.592593e+00	 6.592593e+00	 1.012838e+01
0	 4.592593e+00	 6.666667e+00	 1.012288e+01
0	 4.666667e+00	 6.296296e+00	 1.015377e+01
0	 4.666667e+00	 6.370370e+00	 1.014763e+01
0	 4.666667e+00	 6.444444e+00	 1.014165e+01
0	 4.666667e+00	 6.518519e+00	 1.013583e+01
0	 4.666667e+00	 6.592593e+00	 1.013016e+01
0	 4.666667e+00	 6.666667e+00	 1.012465e+01
0	 4.740741e+00	 6.296296e+00	 1.015520e+01
0	 4.740741e+00	 6.370370e+00	 1.014909e+01
0	 4.740741e+00	 6.444444e+00	 1.014313e+01
0	 4.740741e+00	 6.518519e+00	 1.013733e+01
0	 4.740741e+00	 6.592593e+00	 1.013167e+01
0	 4.740741e+00	 6.666667e+00	 1.012615e+01
0	 4.814815e+00	 6.296296e+00	 1.015635e+01
0	 4.814815e+00	 6.370370e+00	 1.015027e+01
0	 4.814815e+00	 6.444444e+00	 1.014434e+01
0	 4.814815e+00	 6.518519e+00	 1.013856e+01
0	 4.814815e+00	 6.592593e+00	 1.013292e+01
0	 4.814815e+00	 6.666667e+00	 1.012741e+01
0	 4.444444e+00	 6.666667e+00	 1.011852e+01
0	 4.444444e+00	 6.740741e+00	 1.011323e+01
0	 4.444444e+00	 6.814815e+00	 1.010810e+01
0	 4.444444e+00	 6.888889e+00	 1.010312e+01
0	 4.444444e+00	 6.962963e+00	 1.009830e+01
0	 4.444444e+00	 7.037037e+00	 1.009364e+01
0	 4.518519e+00	 6.666667e+00	 1.012084e+01
0	 4.518519e+00	 6.740741e+00	 1.011552e+01
0	 4.518519e+00	 6.814815e+00	 1.011034e+01
0	 4.518519e+00	 6.888889e+00	 1.010532e+01
0	 4.518519e+00	 6.962963e+00	 1.010045e+01
0	 4.518519e+00	 7.037037e+00	 1.009573e+01
0	 4.592593e+00	 6.666667e+00	 1.012288e+01
0	 4.592593e+00	 6.740741e+00	 1.011753e+01
0	 4.592593e+00	 6.814815e+00	 1.011233e+01
0	 4.592593e+00	 6.888889e+00	 1.010727e+01
0	 4.592593e+00	 6.962963e+00	 1.010237e+01
0	 4.592593e+00	 7.037037e+00	 1.009760e+01
0	 4.666667e+00	 6.666667e+00	 1.012465e+01
0	 4.666667e+00	 6.740741e+00	 1.011928e+01
0	 4.666667e+00	 6.814815e+00	 1.011406e+01
0	 4.666667e+00	 6.888889e+00	 1.010898e+01
0	 4.666667e+00	 6.962963e+00	 1.010405e+01
0	 4.666667e+00	 7.037037e+00	 1.009925e+01
0	 4.740741e+00	 6.666667e+00	 1.012615e+01
0	 4.740741e+00	 6.740741e+00	 1.012078e+01
0	 4.740741e+00	 6.814815e+00	 1.011555e+01
0	 4.740741e+00	 6.888889e+00	 1.011046e+01
0	 4.740741e+00	 6.962963e+00	 1.010551e+01
0	 4.740741e+00	 7.037037e+00	 1.010069e+01
0	 4.814815e+00	 6.666667e+00	 1.012741e+01
0	 4.814815e+00	 6.740741e+00	 1.012205e+01
0	 4.814815e+00	 6.814815e+00	 1.011681e+01
0	 4.814815e+00	 6.888889e+00	 1.011172e+01
0	 4.814815e+00	 6.962963e+00	 1.010675e+01
0	 4.814815e+00	 7.037037e+00	 1.010192e+01
0	 4.444444e+00	 7.037037e+00	 1.009364e+01
0	 4.444444e+00	 7.111111e+00	 1.008911e+01
0	 4.444444e+00	 7.185185e+00	 1.008473e+01
0	 4.444444e+00	 7.259259e+00	 1.008048e+01
0	 4.444444e+00	 7.333333e+00	 1.007636e+01
0	 4.444444e+00	 7.407407e+00	 1.007238e+01
0	 4.518519e+00	 7.037037e+00	 1.009573e+01
0	 4.518519e+00	 7.111111e+00	 1.009116e+01
0	 4.518519e+00	 7.185185e+00	 1.008671e+01
0	 4.518519e+00	 7.259259e+00	 1.008240e+01
0	 4.518519e+00	 7.333333e+00	 1.007822e+01
0	 4.518519e+00	 7.407407e+00	 1.007417e+01
0	 4.592593e+00	 7.037037e+00	 1.009760e+01
0	 4.592593e+00	 7.111111e+00	 1.009298e+01
0	 4.592593e+00	 7.185185e+00	 1.008849e+01
0	 4.592593e+00	 7.259259e+00	 1.008412e+01
0	 4.592593e+00	 7.333333e+00	 1.007989e+01
0	 4.592593e+00	 7.407407e+00	 1.007579e+01
0	 4.666667e+00	 7.037037e+00	 1.009925e+01
0	 4.666667e+00	 7.111111e+00	 1.009459e+01
0	 4.666667e+00	 7.185185e+00	 1.009006e+01
0	 4.666667e+00	 7.259259e+00	 1.008565e+01
0	 4.666667e+00	 7.333333e+00	 1.008138e+01
0	 4.666667e+00	 7.407407e+00	 1.007722e+01
0	 4.740741e+00	 7.037037e+00	 1.010069e+01
0	 4.740741e+00	 7.111111e+00	 1.009600e+01
0	 4.740741e+00	 7.185185e+00	 1.009144e+01
0	 4.740741e+00	 7.259259e+00	 1.008700e+01
0	 4.740741e+00	 7.333333e+00	 1.008268e+01
0	 4.740741e+00	 7.407407e+00	 1.007849e+01
0	 4.814815e+00	 7.037037e+00	 1.010192e+01
0	 4.814815e+00	 7.111111e+00	 1.009721e+01
0	 4.814815e+00	 7.185185e+00	 1.009263e+01
0	 4.814815e+00	 7.259259e+00	 1.008816e+01
0	 4.814815e+00	 7.333333e+00	 1.008382e+01
0	 4.814815e+00	 7.407407e+00	 1.007960e+01
0	 4.444444e+00	 7.407407e+00	 1.007238e+01
0	 4.444444e+00	 7.481481e+00	 1.006853e+01
0	 4.444444e+00	 7.555556e+00	 1.006479e+01
0	 4.444444e+00	 7.629630e+00	 1.006117e+01
0	 4.444444e+00	 7.703704e+00	 1.005767e+01
0	 4.444444e+00	 7.777778e+00	 1.005428e+01
0	 4.518519e+00	 7.407407e+00	 1.007417e+01
0	 4.518519e+00	 7.481481e+00	 1.007025e+01
0	 4.518519e+00	 7.555556e+00	 1.006644e+01
0	 4.518519e+00	 7.629630e+00	 1.006275e+01
0	 4.518519e+00	 7.703704e+00	 1.005918e+01
0	 4.518519e+00	 7.777778e+00	 1.005572e+01
0	 4.592593e+00	 7.407407e+00	 1.007579e+01
0	 4.592593e+00	 7.481481e+00	 1.007180e+01
0	 4.592593e+00	 7.555556e+00	 1.006794e+01
0	 4.592593e+00	 7.629630e+00	 1.006419e+01
0	 4.592593e+00	 7.703704e+00	 1.006055e+01
0	 4.592593e+00	 7.777778e+00	 1.005703e+01
0	 4.666667e+00	 7.407407e+00	 1.007722e+01
0	 4.666667e+00	 7.481481e+00	 1.007319e+01
0	 4.666667e+00	 7.555556e+00	 1.006927e+01
0	 4.666667e+00	 7.629630e+00	 1.006547e+01
0	 4.666667e+00	 7.703704e+00	 1.006178e+01
0	 4.666667e+00	 7.777778e+00	 1.005820e+01
0	 4.740741e+00	 7.407407e+00	 1.007849e+01
0	 4.740741e+00	 7.481481e+00	 1.007442e+01
0	 4.740741e+00	 7.555556e+00	 1.007046e+01
0	 4.740741e+00	 7.629630e+00	 1.006661e+01
0	 4.740741e+00	 7.703704e+00	 1.006287e+01
0	 4.740741e+00	 7.777778e+00	 1.005925e+01
0	 4.814815e+00	 7.407407e+00	 1.007960e+01
0	 4.814815e+00	 7.481481e+00	 1.007549e+01
0	 4.814815e+00	 7.555556e+00	 1.007149e+01
0	 4.814815e+00	 7.629630e+00	 1.006761e+01
0	 4.814815e+00	 7.703704e+00	 1.006383e+01
0	 4.814815e+00	 7.777778e+00	 1.006017e+01
0	 4.444444e+00	 7.777778e+00	 1.005428e+01
0	 4.444444e+00	 7.851852e+00	 1.005100e+01
0	 4.444444e+00	 7.925926e+00	 1.004783e+01
0	 4.444444e+00	 8.000000e+00	 1.004476e+01
0	 4.444444e+00	 8.074074e+00	 1.004179e+01
0	 4.444444e+00	 8.148148e+00	 1.003893e+01
0	 4.518519e+00	 7.777778e+00	 1.005572e+01
0	 4.518519e+00	 7.851852e+00	 1.005237e+01
0	 4.518519e+00	 7.925926e+00	 1.004913e+01
0	 4.518519e+00	 8.000000e+00	 1.004599e+01
0	 4.518519e+00	 8.074074e+00	 1.004295e+01
0	 4.518519e+00	 8.148148e+00	 1.004001e+01
0	 4.592593e+00	 7.777778e+00	 1.005703e+01
0	 4.592593e+00	 7.851852e+00	 1.005361e+01
0	 4.592593e+00	 7.925926e+00	 1.005031e+01
0	 4.592593e+00	 8.000000e+00	 1.004710e+01
0	 4.592593e+00	 8.074074e+00	 1.004400e+01
0	 4.592593e+00	 8.148148e+00	 1.004100e+01
0	 4.666667e+00	 7.777778e+00	 1.005820e+01
0	 4.666667e+00	 7.851852e+00	 1.005473e+01
0	 4.666667e+00	 7.925926e+00	 1.005137e+01
0	 4.666667e+00	 8.000000e+00	 1.004811e+01
0	 4.666667e+00	 8.074074e+00	 1.004495e+01
0	 4.666667e+00	 8.148148e+00	 1.004189e+01
0	 4.740741e+00	 7.777778e+00	 1.005925e+01
0	 4.740741e+00	 7.851852e+00	 1.005573e+01
0	 4.740741e+00	 7.925926e+00	 1.005232e+01
0	 4.740741e+00	 8.000000e+00	 1.004900e+01
0	 4.740741e+00	 8.074074e+00	 1.004580e+01
0	 4.740741e+00	 8.148148e+00	 1.004269e+01
0	 4.814815e+00	 7.777778e+00	 1.006017e+01
0	 4.814815e+00	 7.851852e+00	 1.005661e+01
0	 4.814815e+00	 7.925926e+00	 1.005315e+01
0	 4.814815e+00	 8.000000e+00	 1.004980e+01
0	 4.814815e+00	 8.074074e+00	 1.004654e+01
0	 4.814815e+00	 8.148148e+00	 1.004339e+01
0	 4.444444e+00	 8.148148e+00	 1.003893e+01
0	 4.444444e+00	 8.222222e+00	 1.003616e+01
0	 4.444444e+00	 8.296296e+00	 1.003349e+01
0	 4.444444e+00	 8.370370e+00	 1.003092e+01
0	 4.444444e+00	 8.444444e+00	 1.002844e+01
0	 4.444444e+00	 8.518519e+00	 1.002605e+01
0	 4.518519e+00	 8.148148e+00	 1.004001e+01
0	 4.518519e+00	 8.222222e+00	 1.003718e+01
0	 4.518519e+00	 8.296296e+00	 1.003444e+01
0	 4.518519e+00	 8.370370e+00	 1.003180e+01
0	 4.518519e+00	 8.444444e+00	 1.002925e+01
0	 4.518519e+00	 8.518519e+00	 1.002679e+01
0	 4.592593e+00	 8.148148e+00	 1.004100e+01
0	 4.592593e+00	 8.222222e+00	 1.003810e+01
0	 4.592593e+00	 8.296296e+00	 1.003530e+01
0	 4.592593e+00	 8.370370e+00	 1.003259e+01
0	 4.592593e+00	 8.444444e+00	 1.002999e+01
0	 4.592593e+00	 8.518519e+00	 1.002747e+01
0	 4.666667e+00	 8.148148e+00	 1.004189e+01
0	 4.666667e+00	 8.222222e+00	 1.003893e+01
0	 4.666667e+00	 8.296296e+00	 1.003608e+01
0	 4.666667e+00	 8.370370e+00	 1.003332e+01
0	 4.666667e+00	 8.444444e+00	 1.003065e+01
0	 4.666667e+00	 8.518519e+00	 1.002808e+01
0	 4.740741e+00	 8.148148e+00	 1.004269e+01
0	 4.740741e+00	 8.222222e+00	 1.003968e+01
0	 4.740741e+00	 8.296296e+00	 1.003677e+01
0	 4.740741e+00	 8.370370e+00	 1.003396e+01
0	 4.740741e+00	 8.444444e+00	 1.003125e+01
0	 4.740741e+00	 8.518519e+00	 1.002864e+01
0	 4.814815e+00	 8.148148e+00	 1.004339e+01
0	 4.814815e+00	 8.222222e+00	 1.004034e+01
0	 4.814815e+00	 8.296296e+00	 1.003739e+01
0	 4.814815e+00	 8.370370e+00	 1.003454e+01
0	 4.814815e+00	 8.444444e+00	 1.003178e+01
0	 4.814815e+00	 8.518519e+00	 1.002912e+01
0	 4.444444e+00	 8.518519e+00	 1.002605e+01
0	 4.444444e+00	 8.592593e+00	 1.002375e+01
0	 4.444444e+00	 8.666667e+00	 1.002156e+01
0	 4.444444e+00	 8.740741e+00	 1.001945e+01
0	 4.444444e+00	 8.814815e+00	 1.001744e+01
0	 4.444444e+00	 8.888889e+00	 1.001551e+01
0	 4.518519e+00	 8.518519e+00	 1.002679e+01
0	 4.518519e+00	 8.592593e+00	 1.002443e+01
0	 4.518519e+00	 8.666667e+00	 1.002217e+01
0	 4.518519e+00	 8.740741e+00	 1.002001e+01
0	 4.518519e+00	 8.814815e+00	 1.001794e+01
0	 4.518519e+00	 8.888889e+00	 1.001596e+01
0	 4.592593e+00	 8.518519e+00	 1.002747e+01
0	 4.592593e+00	 8.592593e+00	 1.002505e+01
0	 4.592593e+00	 8.666667e+00	 1.002274e+01
0	 4.592593e+00	 8.740741e+00	 1.002052e+01
0	 4.592593e+00	 8.814815e+00	 1.001840e+01
0	 4.592593e+00	 8.888889e+00	 1.001636e+01
0	 4.666667e+00	 8.518519e+00	 1.002808e+01
0	 4.666667e+00	 8.592593e+00	 1.002561e+01
0	 4.666667e+00	 8.666667e+00	 1.002325e+01
0	 4.666667e+00	 8.740741e+00	 1.002098e+01
0	 4.666667e+00	 8.814815e+00	 1.001881e+01
0	 4.666667e+00	 8.888889e+00	 1.001673e+01
0	 4.740741e+00	 8.518519e+00	 1.002864e+01
0	 4.740741e+00	 8.592593e+00	 1.002612e+01
0	 4.740741e+00	 8.666667e+00	 1.002371e+01
0	 4.740741e+00	 8.740741e+00	 1.002140e+01
0	 4.740741e+00	 8.814815e+00	 1.001918e+01
0	 4.740741e+00	 8.888889e+00	 1.001706e+01
0	 4.814815e+00	 8.518519e+00	 1.002912e+01
0	 4.814815e+00	 8.592593e+00	 1.002656e+01
0	 4.814815e+00	 8.666667e+00	 1.002411e+01
0	 4.814815e+00	 8.740741e+00	 1.002176e+01
0	 4.814815e+00	 8.814815e+00	 1.001951e+01
0	 4.814815e+00	 8.888889e+00	 1.001736e+01
0	 4.444444e+00	 8.888889e+00	 1.001551e+01
0	 4.444444e+00	 8.962963e+00	 1.001369e+01
0	 4.444444e+00	 9.037037e+00	 1.001197e+01
0	 4.444444e+00	 9.111111e+00	 1.001035e+01
0	 4.444444e+00	 9.185185e+00	 1.000882e+01
0	 4.444444e+00	 9.259259e+00	 1.000739e+01
0	 4.518519e+00	 8.888889e+00	 1.001596e+01
0	 4.518519e+00	 8.962963e+00	 1.001408e+01
0	 4.518519e+00	 9.037037e+00	 1.001231e+01
0	 4.518519e+00	 9.111111e+00	 1.001064e+01
0	 4.518519e+00	 9.185185e+00	 1.000907e+01
0	 4.518519e+00	 9.259259e+00	 1.000760e+01
0	 4.592593e+00	 8.888889e+00	 1.001636e+01
0	 4.592593e+00	 8.962963e+00	 1.001443e+01
0	 4.592593e+00	 9.037037e+00	 1.001262e+01
0	 4.592593e+00	 9.111111e+00	 1.001091e+01
0	 4.592593e+00	 9.185185e+00	 1.000930e+01
0	 4.592593e+00	 9.259259e+00	 1.000779e+01
0	 4.666667e+00	 8.888889e+00	 1.001673e+01
0	 4.666667e+00	 8.962963e+00	 1.001476e+01
0	 4.666667e+00	 9.037037e+00	 1.001290e+01
0	 4.666667e+00	 9.111111e+00	 1.001115e+01
0	 4.666667e+00	 9.185185e+00	 1.000951e+01
0	 4.666667e+00	 9.259259e+00	 1.000796e+01
0	 4.740741e+00	 8.888889e+00	 1.001706e+01
0	 4.740741e+00	 8.962963e+00	 1.001505e+01
0	 4.740741e+00	 9.037037e+00	 1.001315e+01
0	 4.740741e+00	 9.111111e+00	 1.001137e+01
0	 4.740741e+00	 9.185185e+00	 1.000969e+01
0	 4.740741e+00	 9.259259e+00	 1.000812e+01
0	 4.814815e+00	 8.888889e+00	 1.001736e+01
0	 4.814815e+00	 8.962963e+00	 1.001531e+01
0	 4.814815e+00	 9.037037e+00	 1.001338e+01
0	 4.814815e+00	 9.111111e+00	 1.001156e+01
0	 4.814815e+00	 9.185185e+00	 1.000986e+01
0	 4.814815e+00	 9.259259e+00	 1.000825e+01
0	 4.444444e+00	 9.259259e+00	 1.000739e+01
0	 4.444444e+00	 9.333333e+00	 1.000607e+01
0	 4.444444e+00	 9.407407e+00	 1.000488e+01
0	 4.444444e+00	 9.481481e+00	 1.000381e+01
0	 4.444444e+00	 9.555556e+00	 1.000285e+01
0	 4.444444e+00	 9.629630e+00	 1.000201e+01
0	 4.518519e+00	 9.259259e+00	 1.000760e+01
0	 4.518519e+00	 9.333333e+00	 1.000624e+01
0	 4.518519e+00	 9.407407e+00	 1.000501e+01
0	 4.518519e+00	 9.481481e+00	 1.000391e+01
0	 4.518519e+00	 9.555556e+00	 1.000293e+01
0	 4.518519e+00	 9.629630e+00	 1.000206e+01
0	 4.592593e+00	 9.259259e+00	 1.000779e+01
0	 4.592593e+00	 9.333333e+00	 1.000639e+01
0	 4.592593e+00	 9.407407e+00	 1.000514e+01
0	 4.592593e+00	 9.481481e+00	 1.000401e+01
0	 4.592593e+00	 9.555556e+00	 1.000300e+01
0	 4.592593e+00	 9.629630e+00	 1.000211e+01
0	 4.666667e+00	 9.259259e+00	 1.000796e+01
0	 4.666667e+00	 9.333333e+00	 1.000654e+01
0	 4.666667e+00	 9.407407e+00	 1.000525e+01
0	 4.666667e+00	 9.481481e+00	 1.000410e+01
0	 4.666667e+00	 9.555556e+00	 1.000307e+01
0	 4.666667e+00	 9.629630e+00	 1.000215e+01
0	 4.740741e+00	 9.259259e+00	 1.000812e+01
0	 4.740741e+00	 9.333333e+00	 1.000666e+01
0	 4.740741e+00	 9.407407e+00	 1.000535e+01
0	 4.740741e+00	 9.481481e+00	 1.000418e+01
0	 4.740741e+00	 9.555556e+00	 1.000313e+01
0	 4.740741e+00	 9.629630e+00	 1.000220e+01
0	 4.814815e+00	 9.259259e+00	 1.000825e+01
0	 4.814815e+00	 9.333333e+00	 1.000677e+01
0	 4.814815e+00	 9.407407e+00	 1.000544e+01
0	 4.814815e+00	 9.481481e+00	 1.000424e+01
0	 4.814815e+00	 9.555556e+00	 1.000318e+01
0	 4.814815e+00	 9.629630e+00	 1.000223e+01
0	 4.444444e+00	 9.629630e+00	 1.000201e+01
0	 4.444444e+00	 9.703704e+00	 1.000129e+01
0	 4.444444e+00	 9.777778e+00	 1.000074e+01
0	 4.444444e+00	 9.851852e+00	 1.000035e+01
0	 4.444444e+00	 9.925926e+00	 1.000010e+01
0	 4.444444e+00	 1.000000e+01	 9.999973e+00
0	 4.518519e+00	 9.629630e+00	 1.000206e+01
0	 4.518519e+00	 9.703704e+00	 1.000133e+01
0	 4.518519e+00	 9.777778e+00	 1.000076e+01
0	 4.518519e+00	 9.851852e+00	 1.000036e+01
0	 4.518519e+00	 9.925926e+00	 1.000010e+01
0	 4.518519e+00	 1.000000e+01	 9.999970e+00
0	 4.592593e+00	 9.629630e+00	 1.000211e+01
0	 4.592593e+00	 9.703704e+00	 1.000136e+01
0	 4.592593e+00	 9.777778e+00	 1.000078e+01
0	 4.592593e+00	 9.851852e+00	 1.000036e+01
0	 4.592593e+00	 9.925926e+00	 1.000010e+01
0	 4.592593e+00	 1.000000e+01	 9.999971e+00
0	 4.666667e+00	 9.629630e+00	 1.000215e+01
0	 4.666667e+00	 9.703704e+00	 1.000139e+01
0	 4.666667e+00	 9.777778e+00	 1.000080e+01
0	 4.666667e+00	 9.851852e+00	 1.000037e+01
0	 4.666667e+00	 9.925926e+00	 1.000010e+01
0	 4.666667e+00	 1.000000e+01	 9.999972e+00
0	 4.740741e+00	 9.629630e+00	 1.000220e+01
0	 4.740741e+00	 9.703704e+00	 1.000142e+01
0	 4.740741e+00	 9.777778e+00	 1.000081e+01
0	 4.740741e+00	 9.851852e+00	 1.000038e+01
0	 4.740741e+00	 9.925926e+00	 1.000011e+01
0	 4.740741e+00	 1.000000e+01	 9.999974e+00
0	 4.814815e+00	 9.629630e+00	 1.000223e+01
0	 4.814815e+00	 9.703704e+00	 1.000144e+01
0	 4.814815e+00	 9.777778e+00	 1.000083e+01
0	 4.814815e+00	 9.851852e+00	 1.000039e+01
0	 4.814815e+00	 9.925926e+00	 1.000011e+01
0	 4.814815e+00	 1.000000e+01	 9.999973e+00
0	 4.814815e+00	 0.000000e+00	 1.035843e+01
0	 4.814815e+00	 7.407407e-02	 1.035859e+01
0	 4.814815e+00	 1.481481e-01	 1.035951e+01
0	 4.814815e+00	 2.222222e-01	 1.036123e+01
0	 4.814815e+00	 2.962963e-01	 1.036374e+01
0	 4.814815e+00	 3.703704e-01	 1.036707e+01
0	 4.888889e+00	 0.000000e+00	 1.034671e+01
0	 4.888889e+00	 7.407407e-02	 1.034689e+01
0	 4.888889e+00	 1.481481e-01	 1.034777e+01
0	 4.888889e+00	 2.222222e-01	 1.034937e+01
0	 4.888889e+00	 2.962963e-01	 1.035171e+01
0	 4.888889e+00	 3.703704e-01	 1.035480e+01
0	 4.962963e+00	 0.000000e+00	 1.033484e+01
0	 4.962963e+00	 7.407407e-02	 1.033509e+01
0	 4.962963e+00	 1.481481e-01	 1.033599e+01
0	 4.962963e+00	 2.222222e-01	 1.033758e+01
0	 4.962963e+00	 2.962963e-01	 1.033985e+01
0	 4.962963e+00	 3.703704e-01	 1.034283e+01
0	 5.037037e+00	 0.000000e+00	 1.032304e+01
0	 5.037037e+00	 7.407407e-02	 1.032337e+01
0	 5.037037e+00	 1.481481e-01	 1.032433e+01
0	 5.037037e+00	 2.222222e-01	 1.032593e+01
0	 5.037037e+00	 2.962963e-01	 1.032820e+01
0	 5.037037e+00	 3.703704e-01	 1.033114e+01
0	 5.111111e+00	 0.000000e+00	 1.031154e+01
0	 5.111111e+00	 7.407407e-02	 1.031192e+01
0	 5.111111e+00	 1.481481e-01	 1.031291e+01
0	 5.111111e+00	 2.222222e-01	 1.031453e+01
0	 5.111111e+00	 2.962963e-01	 1.031679e+01
0	 5.111111e+00	 3.703704e-01	 1.031971e+01
0	 5.185185e+00	 0.000000e+00	 1.030055e+01
0	 5.185185e+00	 7.407407e-02	 1.030093e+01
0	 5.185185e+00	 1.481481e-01	 1.030189e+01
0	 5.185185e+00	 2.222222e-01	 1.030347e+01
0	 5.185185e+00	 2.962963e-01	 1.030567e+01
0	 5.185185e+00	 3.703704e-01	 1.030851e+01
0	 4.814815e+00	 3.703704e-01	 1.036707e+01
0	 4.814815e+00	 4.444444e-01	 1.037108e+01
0	 4.814815e+00	 5.185185e-01	 1.037567e+01
0	 4.814815e+00	 5.925926e-01	 1.038091e+01
0	 4.814815e+00	 6.666667e-01	 1.038687e+01
0	 4.814815e+00	 7.407407e-01	 1.039361e+01
0	 4.888889e+00	 3.703704e-01	 1.035480e+01
0	 4.888889e+00	 4.444444e-01	 1.035854e+01
0	 4.888889e+00	 5.185185e-01	 1.036285e+01
0	 4.888889e+00	 5.925926e-01	 1.036779e+01
0	 4.888889e+00	 6.666667e-01	 1.037344e+01
0	 4.888889e+00	 7.407407e-01	 1.037985e+01
0	 4.962963e+00	 3.703704e-01	 1.034283e+01
0	 4.962963e+00	 4.444444e-01	 1.034642e+01
0	 4.962963e+00	 5.185185e-01	 1.035053e+01
0	 4.962963e+00	 5.925926e-01	 1.035524e+01
0	 4.962963e+00	 6.666667e-01	 1.036058e+01
0	 4.962963e+00	 7.407407e-01	 1.036663e+01
0	 5.037037e+00	 3.703704e-01	 1.033114e+01
0	 5.037037e+00	 4.444444e-01	 1.033465e+01
0	 5.037037e+00	 5.185185e-01	 1.033862e+01
0	 5.037037e+00	 5.925926e-01	 1.034311e+01
0	 5.037037e+00	 6.666667e-01	 1.034817e+01
0	 5.037037e+00	 7.407407e-01	 1.035387e+01
0	 5.111111e+00	 3.703704e-01	 1.031971e+01
0	 5.111111e+00	 4.444444e-01	 1.032315e+01
0	 5.111111e+00	 5.185185e-01	 1.032699e+01
0	 5.111111e+00	 5.925926e-01	 1.033129e+01
0	 5.111111e+00	 6.666667e-01	 1.033609e+01
0	 5.111111e+00	 7.407407e-01	 1.034144e+01
0	 5.185185e+00	 3.703704e-01	 1.030851e+01
0	 5.185185e+00	 4.444444e-01	 1.031184e+01
0	 5.185185e+00	 5.185185e-01	 1.031554e+01
0	 5.185185e+00	 5.925926e-01	 1.031965e+01
0	 5.185185e+00	 6.666667e-01	 1.032420e+01
0	 5.185185e+00	 7.407407e-01	 1.032925e+01
0	 4.814815e+00	 7.407407e-01	 1.039361e+01
0	 4.814815e+00	 8.148148e-01	 1.040077e+01
0	 4.814815e+00	 8.888889e-01	 1.040800e+01
0	 4.814815e+00	 9.629630e-01	 1.041537e+01
0	 4.814815e+00	 1.037037e+00	 1.042295e+01
0	 4.814815e+00	 1.111111e+00	 1.043083e+01
0	 4.888889e+00	 7.407407e-01	 1.037985e+01
0	 4.888889e+00	 8.148148e-01	 1.038665e+01
0	 4.888889e+00	 8.888889e-01	 1.039351e+01
0	 4.888889e+00	 9.629630e-01	 1.040048e+01
0	 4.888889e+00	 1.037037e+00	 1.040767e+01
0	 4.888889e+00	 1.111111e+00	 1.041515e+01
0	 4.962963e+00	 7.407407e-01	 1.036663e+01
0	 4.962963e+00	 8.148148e-01	 1.037306e+01
0	 4.962963e+00	 8.888889e-01	 1.037953e+01
0	 4.962963e+00	 9.629630e-01	 1.038614e+01
0	 4.962963e+00	 1.037037e+00	 1.039297e+01
0	 4.962963e+00	 1.111111e+00	 1.040011e+01
0	 5.037037e+00	 7.407407e-01	 1.035387e+01
0	 5.037037e+00	 8.148148e-01	 1.035990e+01
0	 5.037037e+00	 8.888889e-01	 1.036601e+01
0	 5.037037e+00	 9.629630e-01	 1.037229e+01
0	 5.037037e+00	 1.037037e+00	 1.037880e+01
0	 5.037037e+00	 1.111111e+00	 1.038563e+01
0	 5.111111e+00	 7.407407e-01	 1.034144e+01
0	 5.111111e+00	 8.148148e-01	 1.034711e+01
0	 5.111111e+00	 8.888889e-01	 1.035289e+01
0	 5.111111e+00	 9.629630e-01	 1.035886e+01
0	 5.111111e+00	 1.037037e+00	 1.036509e+01
0	 5.111111e+00	 1.111111e+00	 1.037165e+01
0	 5.185185e+00	 7.407407e-01	 1.032925e+01
0	 5.185185e+00	 8.148148e-01	 1.033460e+01
0	 5.185185e+00	 8.888889e-01	 1.034010e+01
0	 5.185185e+00	 9.629630e-01	 1.034580e+01
0	 5.185185e+00	 1.037037e+00	 1.035178e+01
0	 5.185185e+00	 1.111111e+00	 1.035809e+01
0	 4.814815e+00	 1.111111e+00	 1.043083e+01
0	 4.814815e+00	 1.185185e+00	 1.043871e+01
0	 4.814815e+00	 1.259259e+00	 1.044631e+01
0	 4.814815e+00	 1.333333e+00	 1.045373e+01
0	 4.814815e+00	 1.407407e+00	 1.046107e+01
0	 4.814815e+00	 1.481481e+00	 1.046842e+01
0	 4.888889e+00	 1.111111e+00	 1.041515e+01
0	 4.888889e+00	 1.185185e+00	 1.042266e+01
0	 4.888889e+00	 1.259259e+00	 1.042997e+01
0	 4.888889e+00	 1.333333e+00	 1.043714e+01
0	 4.888889e+00	 1.407407e+00	 1.044425e+01
0	 4.888889e+00	 1.481481e+00	 1.045139e+01
0	 4.962963e+00	 1.111111e+00	 1.040011e+01
0	 4.962963e+00	 1.185185e+00	 1.040731e+01
0	 4.962963e+00	 1.259259e+00	 1.041433e+01
0	 4.962963e+00	 1.333333e+00	 1.042125e+01
0	 4.962963e+00	 1.407407e+00	 1.042812e+01
0	 4.962963e+00	 1.481481e+00	 1.043503e+01
0	 5.037037e+00	 1.111111e+00	 1.038563e+01
0	 5.037037e+00	 1.185185e+00	 1.039255e+01
0	 5.037037e+00	 1.259259e+00	 1.039931e+01
0	 5.037037e+00	 1.333333e+00	 1.040598e+01
0	 5.037037e+00	 1.407407e+00	 1.041261e+01
0	 5.037037e+00	 1.481481e+00	 1.041926e+01
0	 5.111111e+00	 1.111111e+00	 1.037165e+01
0	 5.111111e+00	 1.185185e+00	 1.037831e+01
0	 5.111111e+00	 1.259259e+00	 1.038482e+01
0	 5.111111e+00	 1.333333e+00	 1.039124e+01
0	 5.111111e+00	 1.407407e+00	 1.039761e+01
0	 5.111111e+00	 1.481481e+00	 1.040401e+01
0	 5.185185e+00	 1.111111e+00	 1.035809e+01
0	 5.185185e+00	 1.185185e+00	 1.036450e+01
0	 5.185185e+00	 1.259259e+00	 1.037076e+01
0	 5.185185e+00	 1.333333e+00	 1.037693e+01
0	 5.185185e+00	 1.407407e+00	 1.038306e+01
0	 5.185185e+00	 1.481481e+00	 1.038920e+01
0	 4.814815e+00	 1.481481e+00	 1.046842e+01
0	 4.814815e+00	 1.555556e+00	 1.047548e+01
0	 4.814815e+00	 1.629630e+00	 1.048197e+01
0	 4.814815e+00	 1.703704e+00	 1.048794e+01
0	 4.814815e+00	 1.777778e+00	 1.049346e+01
0	 4.814815e+00	 1.851852e+00	 1.049859e+01
0	 4.888889e+00	 1.481481e+00	 1.045139e+01
0	 4.888889e+00	 1.555556e+00	 1.045827e+01
0	 4.888889e+00	 1.629630e+00	 1.046462e+01
0	 4.888889e+00	 1.703704e+00	 1.047048e+01
0	 4.888889e+00	 1.777778e+00	 1.047593e+01
0	 4.888889e+00	 1.851852e+00	 1.048102e+01
0	 4.962963e+00	 1.481481e+00	 1.043503e+01
0	 4.962963e+00	 1.555556e+00	 1.044170e+01
0	 4.962963e+00	 1.629630e+00	 1.044787e+01
0	 4.962963e+00	 1.703704e+00	 1.045361e+01
0	 4.962963e+00	 1.777778e+00	 1.045898e+01
0	 4.962963e+00	 1.851852e+00	 1.046404e+01
0	 5.037037e+00	 1.481481e+00	 1.041926e+01
0	 5.037037e+00	 1.555556e+00	 1.042570e+01
0	 5.037037e+00	 1.629630e+00	 1.043169e+01
0	 5.037037e+00	 1.703704e+00	 1.043729e+01
0	 5.037037e+00	 1.777778e+00	 1.044257e+01
0	 5.037037e+00	 1.851852e+00	 1.044759e+01
0	 5.111111e+00	 1.481481e+00	 1.040401e+01
0	 5.111111e+00	 1.555556e+00	 1.041021e+01
0	 5.111111e+00	 1.629630e+00	 1.041602e+01
0	 5.111111e+00	 1.703704e+00	 1.042149e+01
0	 5.111111e+00	 1.777778e+00	 1.042668e+01
0	 5.111111e+00	 1.851852e+00	 1.043164e+01
0	 5.185185e+00	 1.481481e+00	 1.038920e+01
0	 5.185185e+00	 1.555556e+00	 1.039519e+01
0	 5.185185e+00	 1.629630e+00	 1.040082e+01
0	 5.185185e+00	 1.703704e+00	 1.040615e+01
0	 5.185185e+00	 1.777778e+00	 1.041124e+01
0	 5.185185e+00	 1.851852e+00	 1.041614e+01
0	 4.814815e+00	 1.851852e+00	 1.049859e+01
0	 4.814815e+00	 1.925926e+00	 1.050319e+01
0	 4.814815e+00	 2.000000e+00	 1.050711e+01
0	 4.814815e+00	 2.074074e+00	 1.051039e+01
0	 4.814815e+00	 2.148148e+00	 1.051307e+01
0	 4.814815e+00	 2.222222e+00	 1.051519e+01
0	 4.888889e+00	 1.851852e+00	 1.048102e+01
0	 4.888889e+00	 1.925926e+00	 1.048564e+01
0	 4.888889e+00	 2.000000e+00	 1.048962e+01
0	 4.888889e+00	 2.074074e+00	 1.049301e+01
0	 4.888889e+00	 2.148148e+00	 1.049584e+01
0	 4.888889e+00	 2.222222e+00	 1.049814e+01
0	 4.962963e+00	 1.851852e+00	 1.046404e+01
0	 4.962963e+00	 1.925926e+00	 1.046866e+01
0	 4.962963e+00	 2.000000e+00	 1.047269e+01
0	 4.962963e+00	 2.074074e+00	 1.047616e+01
0	 4.962963e+00	 2.148148e+00	 1.047911e+01
0	 4.962963e+00	 2.222222e+00	 1.048158e+01
0	 5.037037e+00	 1.851852e+00	 1.044759e+01
0	 5.037037e+00	 1.925926e+00	 1.045221e+01
0	 5.037037e+00	 2.000000e+00	 1.045627e+01
0	 5.037037e+00	 2.074074e+00	 1.045981e+01
0	 5.037037e+00	 2.148148e+00	 1.046286e+01
0	 5.037037e+00	 2.222222e+00	 1.046545e+01
0	 5.111111e+00	 1.851852e+00	 1.043164e+01
0	 5.111111e+00	 1.925926e+00	 1.043624e+01
0	 5.111111e+00	 2.000000e+00	 1.044031e+01
0	 5.111111e+00	 2.074074e+00	 1.044390e+01
0	 5.111111e+00	 2.148148e+00	 1.044702e+01
0	 5.111111e+00	 2.222222e+00	 1.044973e+01
0	 5.185185e+00	 1.851852e+00	 1.041614e+01
0	 5.185185e+00	 1.925926e+00	 1.042071e+01
0	 5.185185e+00	 2.000000e+00	 1.042478e+01
0	 5.185185e+00	 2.074074e+00	 1.042839e+01
0	 5.185185e+00	 2.148148e+00	 1.043157e+01
0	 5.185185e+00	 2.222222e+00	 1.043436e+01
0	 4.814815e+00	 2.222222e+00	 1.051519e+01
0	 4.814815e+00	 2.296296e+00	 1.051670e+01
0	 4.814815e+00	 2.370370e+00	 1.051753e+01
0	 4.814815e+00	 2.444444e+00	 1.051770e+01
0	 4.814815e+00	 2.518519e+00	 1.051723e+01
0	 4.814815e+00	 2.592593e+00	 1.051612e+01
0	 4.888889e+00	 2.222222e+00	 1.049814e+01
0	 4.888889e+00	 2.296296e+00	 1.049987e+01
0	 4.888889e+00	 2.370370e+00	 1.050096e+01
0	 4.888889e+00	 2.444444e+00	 1.050143e+01
0	 4.888889e+00	 2.518519e+00	 1.050128e+01
0	 4.888889e+00	 2.592593e+00	 1.050054e+01
0	 4.962963e+00	 2.222222e+00	 1.048158e+01
0	 4.962963e+00	 2.296296e+00	 1.048350e+01
0	 4.962963e+00	 2.370370e+00	 1.048481e+01
0	 4.962963e+00	 2.444444e+00	 1.048553e+01
0	 4.962963e+00	 2.518519e+00	 1.048567e+01
0	 4.962963e+00	 2.592593e+00	 1.048526e+01
0	 5.037037e+00	 2.222222e+00	 1.046545e+01
0	 5.037037e+00	 2.296296e+00	 1.046754e+01
0	 5.037037e+00	 2.370370e+00	 1.046904e+01
0	 5.037037e+00	 2.444444e+00	 1.046999e+01
0	 5.037037e+00	 2.518519e+00	 1.047038e+01
0	 5.037037e+00	 2.592593e+00	 1.047025e+01
0	 5.111111e+00	 2.222222e+00	 1.044973e+01
0	 5.111111e+00	 2.296296e+00	 1.045195e+01
0	 5.111111e+00	 2.370370e+00	 1.045362e+01
0	 5.111111e+00	 2.444444e+00	 1.045477e+01
0	 5.111111e+00	 2.518519e+00	 1.045539e+01
0	 5.111111e+00	 2.592593e+00	 1.045552e+01
0	 5.185185e+00	 2.222222e+00	 1.043436e+01
0	 5.185185e+00	 2.296296e+00	 1.043671e+01
0	 5.185185e+00	 2.370370e+00	 1.043853e+01
0	 5.185185e+00	 2.444444e+00	 1.043985e+01
0	 5.185185e+00	 2.518519e+00	 1.044068e+01
0	 5.185185e+00	 2.592593e+00	 1.044103e+01
0	 4.814815e+00	 2.592593e+00	 1.051612e+01
0	 4.814815e+00	 2.666667e+00	 1.051441e+01
0	 4.814815e+00	 2.740741e+00	 1.051213e+01
0	 4.814815e+00	 2.814815e+00	 1.050927e+01
0	 4.814815e+00	 2.888889e+00	 1.050582e+01
0	 4.814815e+00	 2.962963e+00	 1.050177e+01
0	 4.888889e+00	 2.592593e+00	 1.050054e+01
0	 4.888889e+00	 2.666667e+00	 1.049923e+01
0	 4.888889e+00	 2.740741e+00	 1.049736e+01
0	 4.888889e+00	 2.814815e+00	 1.049493e+01
0	 4.888889e+00	 2.888889e+00	 1.049192e+01
0	 4.888889e+00	 2.962963e+00	 1.048835e+01
0	 4.962963e+00	 2.592593e+00	 1.048526e+01
0	 4.962963e+00	 2.666667e+00	 1.048430e+01
0	 4.962963e+00	 2.740741e+00	 1.048280e+01
0	 4.962963e+00	 2.814815e+00	 1.048075e+01
0	 4.962963e+00	 2.888889e+00	 1.047816e+01
0	 4.962963e+00	 2.962963e+00	 1.047502e+01
0	 5.037037e+00	 2.592593e+00	 1.047025e+01
0	 5.037037e+00	 2.666667e+00	 1.046961e+01
0	 5.037037e+00	 2.740741e+00	 1.046844e+01
0	 5.037037e+00	 2.814815e+00	 1.046675e+01
0	 5.037037e+00	 2.888889e+00	 1.046454e+01
0	 5.037037e+00	 2.962963e+00	 1.046181e+01
0	 5.111111e+00	 2.592593e+00	 1.045552e+01
0	 5.111111e+00	 2.666667e+00	 1.045515e+01
0	 5.111111e+00	 2.740741e+00	 1.045429e+01
0	 5.111111e+00	 2.814815e+00	 1.045292e+01
0	 5.111111e+00	 2.888889e+00	 1.045106e+01
0	 5.111111e+00	 2.962963e+00	 1.044871e+01
0	 5.185185e+00	 2.592593e+00	 1.044103e+01
0	 5.185185e+00	 2.666667e+00	 1.044092e+01
0	 5.185185e+00	 2.740741e+00	 1.044034e+01
0	 5.185185e+00	 2.814815e+00	 1.043927e+01
0	 5.185185e+00	 2.888889e+00	 1.043774e+01
0	 5.185185e+00	 2.962963e+00	 1.043573e+01
0	 4.814815e+00	 2.962963e+00	 1.050177e+01
0	 4.814815e+00	 3.037037e+00	 1.049721e+01
0	 4.814815e+00	 3.111111e+00	 1.049225e+01
0	 4.814815e+00	 3.185185e+00	 1.048684e+01
0	 4.814815e+00	 3.259259e+00	 1.048099e+01
0	 4.814815e+00	 3.333333e+00	 1.047467e+01
0	 4.888889e+00	 2.962963e+00	 1.048835e+01
0	 4.888889e+00	 3.037037e+00	 1.048428e+01
0	 4.888889e+00	 3.111111e+00	 1.047980e+01
0	 4.888889e+00	 3.185185e+00	 1.047490e+01
0	 4.888889e+00	 3.259259e+00	 1.046956e+01
0	 4.888889e+00	 3.333333e+00	 1.046377e+01
0	 4.962963e+00	 2.962963e+00	 1.047502e+01
0	 4.962963e+00	 3.037037e+00	 1.047141e+01
0	 4.962963e+00	 3.111111e+00	 1.046740e+01
0	 4.962963e+00	 3.185185e+00	 1.046296e+01
0	 4.962963e+00	 3.259259e+00	 1.045809e+01
0	 4.962963e+00	 3.333333e+00	 1.045278e+01
0	 5.037037e+00	 2.962963e+00	 1.046181e+01
0	 5.037037e+00	 3.037037e+00	 1.045862e+01
0	 5.037037e+00	 3.111111e+00	 1.045503e+01
0	 5.037037e+00	 3.185185e+00	 1.045103e+01
0	 5.037037e+00	 3.259259e+00	 1.044660e+01
0	 5.037037e+00	 3.333333e+00	 1.044174e+01
0	 5.111111e+00	 2.962963e+00	 1.044871e+01
0	 5.111111e+00	 3.037037e+00	 1.044591e+01
0	 5.111111e+00	 3.111111e+00	 1.044272e+01
0	 5.111111e+00	 3.185185e+00	 1.043912e+01
0	 5.111111e+00	 3.259259e+00	 1.043510e+01
0	 5.111111e+00	 3.333333e+00	 1.043066e+01
0	 5.185185e+00	 2.962963e+00	 1.043573e+01
0	 5.185185e+00	 3.037037e+00	 1.043329e+01
0	 5.185185e+00	 3.111111e+00	 1.043047e+01
0	 5.185185e+00	 3.185185e+00	 1.042725e+01
0	 5.185185e+00	 3.259259e+00	 1.042362e+01
0	 5.185185e+00	 3.333333e+00	 1.041957e+01
0	 4.814815e+00	 3.333333e+00	 1.047467e+01
0	 4.814815e+00	 3.407407e+00	 1.046799e+01
0	 4.814815e+00	 3.481481e+00	 1.046104e+01
0	 4.814815e+00	 3.555556e+00	 1.045380e+01
0	 4.814815e+00	 3.629630e+00	 1.044626e+01
0	 4.814815e+00	 3.703704e+00	 1.043837e+01
0	 4.888889e+00	 3.333333e+00	 1.046377e+01
0	 4.888889e+00	 3.407407e+00	 1.045761e+01
0	 4.888889e+00	 3.481481e+00	 1.045117e+01
0	 4.888889e+00	 3.555556e+00	 1.044444e+01
0	 4.888889e+00	 3.629630e+00	 1.043740e+01
0	 4.888889e+00	 3.703704e+00	 1.043001e+01
0	 4.962963e+00	 3.333333e+00	 1.045278e+01
0	 4.962963e+00	 3.407407e+00	 1.044711e+01
0	 4.962963e+00	 3.481481e+00	 1.044115e+01
0	 4.962963e+00	 3.555556e+00	 1.043490e+01
0	 4.962963e+00	 3.629630e+00	 1.042833e+01
0	 4.962963e+00	 3.703704e+00	 1.042143e+01
0	 5.037037e+00	 3.333333e+00	 1.044174e+01
0	 5.037037e+00	 3.407407e+00	 1.043651e+01
0	 5.037037e+00	 3.481481e+00	 1.043101e+01
0	 5.037037e+00	 3.555556e+00	 1.042521e+01
0	 5.037037e+00	 3.629630e+00	 1.041910e+01
0	 5.037037e+00	 3.703704e+00	 1.041266e+01
0	 5.111111e+00	 3.333333e+00	 1.043066e+01
0	 5.111111e+00	 3.407407e+00	 1.042586e+01
0	 5.111111e+00	 3.481481e+00	 1.042079e+01
0	 5.111111e+00	 3.555556e+00	 1.041541e+01
0	 5.111111e+00	 3.629630e+00	 1.040973e+01
0	 5.111111e+00	 3.703704e+00	 1.040373e+01
0	 5.185185e+00	 3.333333e+00	 1.041957e+01
0	 5.185185e+00	 3.407407e+00	 1.041517e+01
0	 5.185185e+00	 3.481481e+00	 1.041050e+01
0	 5.185185e+00	 3.555556e+00	 1.040554e+01
0	 5.185185e+00	 3.629630e+00	 1.040027e+01
0	 5.185185e+00	 3.703704e+00	 1.039468e+01
0	 4.814815e+00	 3.703704e+00	 1.043837e+01
0	 4.814815e+00	 3.777778e+00	 1.043026e+01
0	 4.814815e+00	 3.851852e+00	 1.042203e+01
0	 4.814815e+00	 3.925926e+00	 1.041366e+01
0	 4.814815e+00	 4.000000e+00	 1.040513e+01
0	 4.814815e+00	 4.074074e+00	 1.039641e+01
0	 4.888889e+00	 3.703704e+00	 1.043001e+01
0	 4.888889e+00	 3.777778e+00	 1.042240e+01
0	 4.888889e+00	 3.851852e+00	 1.041465e+01
0	 4.888889e+00	 3.925926e+00	 1.040675e+01
0	 4.888889e+00	 4.000000e+00	 1.039869e+01
0	 4.888889e+00	 4.074074e+00	 1.039042e+01
0	 4.962963e+00	 3.703704e+00	 1.042143e+01
0	 4.962963e+00	 3.777778e+00	 1.041429e+01
0	 4.962963e+00	 3.851852e+00	 1.040701e+01
0	 4.962963e+00	 3.925926e+00	 1.039957e+01
0	 4.962963e+00	 4.000000e+00	 1.039194e+01
0	 4.962963e+00	 4.074074e+00	 1.038411e+01
0	 5.037037e+00	 3.703704e+00	 1.041266e+01
0	 5.037037e+00	 3.777778e+00	 1.040597e+01
0	 5.037037e+00	 3.851852e+00	 1.039914e+01
0	 5.037037e+00	 3.925926e+00	 1.039213e+01
0	 5.037037e+00	 4.000000e+00	 1.038493e+01
0	 5.037037e+00	 4.074074e+00	 1.037752e+01
0	 5.111111e+00	 3.703704e+00	 1.040373e+01
0	 5.111111e+00	 3.777778e+00	 1.039748e+01
0	 5.111111e+00	 3.851852e+00	 1.039107e+01
0	 5.111111e+00	 3.925926e+00	 1.038448e+01
0	 5.111111e+00	 4.000000e+00	 1.037769e+01
0	 5.111111e+00	 4.074074e+00	 1.037068e+01
0	 5.185185e+00	 3.703704e+00	 1.039468e+01
0	 5.185185e+00	 3.777778e+00	 1.038885e+01
0	 5.185185e+00	 3.851852e+00	 1.038285e+01
0	 5.185185e+00	 3.925926e+00	 1.037665e+01
0	 5.185185e+00	 4.000000e+00	 1.037025e+01
0	 5.185185e+00	 4.074074e+00	 1.036363e+01
0	 4.814815e+00	 4.074074e+00	 1.039641e+01
0	 4.814815e+00	 4.148148e+00	 1.038759e+01
0	 4.814815e+00	 4.222222e+00	 1.037876e+01
0	 4.814815e+00	 4.296296e+00	 1.036990e+01
0	 4.814815e+00	 4.370370e+00	 1.036099e+01
0	 4.814815e+00	 4.444444e+00	 1.035200e+01
0	 4.888889e+00	 4.074074e+00	 1.039042e+01
0	 4.888889e+00	 4.148148e+00	 1.038205e+01
0	 4.888889e+00	 4.222222e+00	 1.037364e+01
0	 4.888889e+00	 4.296296e+00	 1.036519e+01
0	 4.888889e+00	 4.370370e+00	 1.035666e+01
0	 4.888889e+00	 4.444444e+00	 1.034805e+01
0	 4.962963e+00	 4.074074e+00	 1.038411e+01
0	 4.962963e+00	 4.148148e+00	 1.037616e+01
0	 4.962963e+00	 4.222222e+00	 1.036816e+01
0	 4.962963e+00	 4.296296e+00	 1.036010e+01
0	 4.962963e+00	 4.370370e+00	 1.035196e+01
0	 4.962963e+00	 4.444444e+00	 1.034372e+01
0	 5.037037e+00	 4.074074e+00	 1.037752e+01
0	 5.037037e+00	 4.148148e+00	 1.036997e+01
0	 5.037037e+00	 4.222222e+00	 1.036237e+01
0	 5.037037e+00	 4.296296e+00	 1.035469e+01
0	 5.037037e+00	 4.370370e+00	 1.034692e+01
0	 5.037037e+00	 4.444444e+00	 1.033905e+01
0	 5.111111e+00	 4.074074e+00	 1.037068e+01
0	 5.111111e+00	 4.148148e+00	 1.036352e+01
0	 5.111111e+00	 4.222222e+00	 1.035630e+01
0	 5.111111e+00	 4.296296e+00	 1.034900e+01
0	 5.111111e+00	 4.370370e+00	 1.034160e+01
0	 5.111111e+00	 4.444444e+00	 1.033408e+01
0	 5.185185e+00	 4.074074e+00	 1.036363e+01
0	 5.185185e+00	 4.148148e+00	 1.035685e+01
0	 5.185185e+00	 4.222222e+00	 1.035000e+01
0	 5.185185e+00	 4.296296e+00	 1.034306e+01
0	 5.185185e+00	 4.370370e+00	 1.033602e+01
0	 5.185185e+00	 4.444444e+00	 1.032884e+01
0	 4.814815e+00	 4.444444e+00	 1.035200e+01
0	 4.814815e+00	 4.518519e+00	 1.034301e+01
0	 4.814815e+00	 4.592593e+00	 1.033408e+01
0	 4.814815e+00	 4.666667e+00	 1.032522e+01
0	 4.814815e+00	 4.740741e+00	 1.031639e+01
0	 4.814815e+00	 4.814815e+00	 1.030758e+01
0	 4.888889e+00	 4.444444e+00	 1.034805e+01
0	 4.888889e+00	 4.518519e+00	 1.033942e+01
0	 4.888889e+00	 4.592593e+00	 1.033085e+01
0	 4.888889e+00	 4.666667e+00	 1.032231e+01
0	 4.888889e+00	 4.740741e+00	 1.031380e+01
0	 4.888889e+00	 4.814815e+00	 1.030529e+01
0	 4.962963e+00	 4.444444e+00	 1.034372e+01
0	 4.962963e+00	 4.518519e+00	 1.033545e+01
0	 4.962963e+00	 4.592593e+00	 1.032722e+01
0	 4.962963e+00	 4.666667e+00	 1.031901e+01
0	 4.962963e+00	 4.740741e+00	 1.031081e+01
0	 4.962963e+00	 4.814815e+00	 1.030260e+01
0	 5.037037e+00	 4.444444e+00	 1.033905e+01
0	 5.037037e+00	 4.518519e+00	 1.033113e+01
0	 5.037037e+00	 4.592593e+00	 1.032324e+01
0	 5.037037e+00	 4.666667e+00	 1.031535e+01
0	 5.037037e+00	 4.740741e+00	 1.030746e+01
0	 5.037037e+00	 4.814815e+00	 1.029955e+01
0	 5.111111e+00	 4.444444e+00	 1.033408e+01
0	 5.111111e+00	 4.518519e+00	 1.032651e+01
0	 5.111111e+00	 4.592593e+00	 1.031894e+01
0	 5.111111e+00	 4.666667e+00	 1.031137e+01
0	 5.111111e+00	 4.740741e+00	 1.030379e+01
0	 5.111111e+00	 4.814815e+00	 1.029616e+01
0	 5.185185e+00	 4.444444e+00	 1.032884e+01
0	 5.185185e+00	 4.518519e+00	 1.032161e+01
0	 5.185185e+00	 4.592593e+00	 1.031437e+01
0	 5.185185e+00	 4.666667e+00	 1.030711e+01
0	 5.185185e+00	 4.740741e+00	 1.029982e+01
0	 5.185185e+00	 4.814815e+00	 1.029249e+01
0	 4.814815e+00	 4.814815e+00	 1.030758e+01
0	 4.814815e+00	 4.888889e+00	 1.029884e+01
0	 4.814815e+00	 4.962963e+00	 1.029023e+01
0	 4.814815e+00	 5.037037e+00	 1.028171e+01
0	 4.814815e+00	 5.111111e+00	 1.027329e+01
0	 4.814815e+00	 5.185185e+00	 1.026495e+01
0	 4.888889e+00	 4.814815e+00	 1.030529e+01
0	 4.888889e+00	 4.888889e+00	 1.029684e+01
0	 4.888889e+00	 4.962963e+00	 1.028849e+01
0	 4.888889e+00	 5.037037e+00	 1.028023e+01
0	 4.888889e+00	 5.111111e+00	 1.027205e+01
0	 4.888889e+00	 5.185185e+00	 1.026393e+01
0	 4.962963e+00	 4.814815e+00	 1.030260e+01
0	 4.962963e+00	 4.888889e+00	 1.029443e+01
0	 4.962963e+00	 4.962963e+00	 1.028635e+01
0	 4.962963e+00	 5.037037e+00	 1.027834e+01
0	 4.962963e+00	 5.111111e+00	 1.027040e+01
0	 4.962963e+00	 5.185185e+00	 1.026251e+01
0	 5.037037e+00	 4.814815e+00	 1.029955e+01
0	 5.037037e+00	 4.888889e+00	 1.029166e+01
0	 5.037037e+00	 4.962963e+00	 1.028384e+01
0	 5.037037e+00	 5.037037e+00	 1.027609e+01
0	 5.037037e+00	 5.111111e+00	 1.026839e+01
0	 5.037037e+00	 5.185185e+00	 1.026073e+01
0	 5.111111e+00	 4.814815e+00	 1.029616e+01
0	 5.111111e+00	 4.888889e+00	 1.028855e+01
0	 5.111111e+00	 4.962963e+00	 1.028100e+01
0	 5.111111e+00	 5.037037e+00	 1.027350e+01
0	 5.111111e+00	 5.111111e+00	 1.026604e+01
0	 5.111111e+00	 5.185185e+00	 1.025861e+01
0	 5.185185e+00	 4.814815e+00	 1.029249e+01
0	 5.185185e+00	 4.888889e+00	 1.028515e+01
0	 5.185185e+00	 4.962963e+00	 1.027787e+01
0	 5.185185e+00	 5.037037e+00	 1.027062e+01
0	 5.185185e+00	 5.111111e+00	 1.026340e+01
0	 5.185185e+00	 5.185185e+00	 1.025620e+01
0	 4.814815e+00	 5.185185e+00	 1.026495e+01
0	 4.814815e+00	 5.259259e+00	 1.025672e+01
0	 4.814815e+00	 5.333333e+00	 1.024864e+01
0	 4.814815e+00	 5.407407e+00	 1.024070e+01
0	 4.814815e+00	 5.481481e+00	 1.023289e+01
0	 4.814815e+00	 5.555556e+00	 1.022520e+01
0	 4.888889e+00	 5.185185e+00	 1.026393e+01
0	 4.888889e+00	 5.259259e+00	 1.025591e+01
0	 4.888889e+00	 5.333333e+00	 1.024802e+01
0	 4.888889e+00	 5.407407e+00	 1.024026e+01
0	 4.888889e+00	 5.481481e+00	 1.023262e+01
0	 4.888889e+00	 5.555556e+00	 1.022509e+01
0	 4.962963e+00	 5.185185e+00	 1.026251e+01
0	 4.962963e+00	 5.259259e+00	 1.025470e+01
0	 4.962963e+00	 5.333333e+00	 1.024702e+01
0	 4.962963e+00	 5.407407e+00	 1.023945e+01
0	 4.962963e+00	 5.481481e+00	 1.023198e+01
0	 4.962963e+00	 5.555556e+00	 1.022461e+01
0	 5.037037e+00	 5.185185e+00	 1.026073e+01
0	 5.037037e+00	 5.259259e+00	 1.025314e+01
0	 5.037037e+00	 5.333333e+00	 1.024566e+01
0	 5.037037e+00	 5.407407e+00	 1.023828e+01
0	 5.037037e+00	 5.481481e+00	 1.023099e+01
0	 5.037037e+00	 5.555556e+00	 1.022378e+01
0	 5.111111e+00	 5.185185e+00	 1.025861e+01
0	 5.111111e+00	 5.259259e+00	 1.025124e+01
0	 5.111111e+00	 5.333333e+00	 1.024397e+01
0	 5.111111e+00	 5.407407e+00	 1.023679e+01
0	 5.111111e+00	 5.481481e+00	 1.022968e+01
0	 5.111111e+00	 5.555556e+00	 1.022264e+01
0	 5.185185e+00	 5.185185e+00	 1.025620e+01
0	 5.185185e+00	 5.259259e+00	 1.024905e+01
0	 5.185185e+00	 5.333333e+00	 1.024199e+01
0	 5.185185e+00	 5.407407e+00	 1.023500e+01
0	 5.185185e+00	 5.481481e+00	 1.022807e+01
0	 5.185185e+00	 5.555556e+00	 1.022121e+01
0	 4.814815e+00	 5.555556e+00	 1.022520e+01
0	 4.814815e+00	 5.629630e+00	 1.021764e+01
0	 4.814815e+00	 5.703704e+00	 1.021025e+01
0	 4.814815e+00	 5.777778e+00	 1.020300e+01
0	 4.814815e+00	 5.851852e+00	 1.019589e+01
0	 4.814815e+00	 5.925926e+00	 1.018893e+01
0	 4.888889e+00	 5.555556e+00	 1.022509e+01
0	 4.888889e+00	 5.629630e+00	 1.021768e+01
0	 4.888889e+00	 5.703704e+00	 1.021041e+01
0	 4.888889e+00	 5.777778e+00	 1.020328e+01
0	 4.888889e+00	 5.851852e+00	 1.019629e+01
0	 4.888889e+00	 5.925926e+00	 1.018942e+01
0	 4.962963e+00	 5.555556e+00	 1.022461e+01
0	 4.962963e+00	 5.629630e+00	 1.021734e+01
0	 4.962963e+00	 5.703704e+00	 1.021022e+01
0	 4.962963e+00	 5.777778e+00	 1.020322e+01
0	 4.962963e+00	 5.851852e+00	 1.019634e+01
0	 4.962963e+00	 5.925926e+00	 1.018958e+01
0	 5.037037e+00	 5.555556e+00	 1.022378e+01
0	 5.037037e+00	 5.629630e+00	 1.021667e+01
0	 5.037037e+00	 5.703704e+00	 1.020969e+01
0	 5.037037e+00	 5.777778e+00	 1.020283e+01
0	 5.037037e+00	 5.851852e+00	 1.019608e+01
0	 5.037037e+00	 5.925926e+00	 1.018943e+01
0	 5.111111e+00	 5.555556e+00	 1.022264e+01
0	 5.111111e+00	 5.629630e+00	 1.021569e+01
0	 5.111111e+00	 5.703704e+00	 1.020886e+01
0	 5.111111e+00	 5.777778e+00	 1.020214e+01
0	 5.111111e+00	 5.851852e+00	 1.019551e+01
0	 5.111111e+00	 5.925926e+00	 1.018899e+01
0	 5.185185e+00	 5.555556e+00	 1.022121e+01
0	 5.185185e+00	 5.629630e+00	 1.021442e+01
0	 5.185185e+00	 5.703704e+00	 1.020775e+01
0	 5.185185e+00	 5.777778e+00	 1.020116e+01
0	 5.185185e+00	 5.851852e+00	 1.019468e+01
0	 5.185185e+00	 5.925926e+00	 1.018827e+01
0	 4.814815e+00	 5.925926e+00	 1.018893e+01
0	 4.814815e+00	 6.000000e+00	 1.018211e+01
0	 4.814815e+00	 6.074074e+00	 1.017544e+01
0	 4.814815e+00	 6.148148e+00	 1.016893e+01
0	 4.814815e+00	 6.222222e+00	 1.016257e+01
0	 4.814815e+00	 6.296296e+00	 1.015635e+01
0	 4.888889e+00	 5.925926e+00	 1.018942e+01
0	 4.888889e+00	 6.000000e+00	 1.018269e+01
0	 4.888889e+00	 6.074074e+00	 1.017611e+01
0	 4.888889e+00	 6.148148e+00	 1.016966e+01
0	 4.888889e+00	 6.222222e+00	 1.016336e+01
0	 4.888889e+00	 6.296296e+00	 1.015720e+01
0	 4.962963e+00	 5.925926e+00	 1.018958e+01
0	 4.962963e+00	 6.000000e+00	 1.018295e+01
0	 4.962963e+00	 6.074074e+00	 1.017645e+01
0	 4.962963e+00	 6.148148e+00	 1.017009e+01
0	 4.962963e+00	 6.222222e+00	 1.016386e+01
0	 4.962963e+00	 6.296296e+00	 1.015775e+01
0	 5.037037e+00	 5.925926e+00	 1.018943e+01
0	 5.037037e+00	 6.000000e+00	 1.018290e+01
0	 5.037037e+00	 6.074074e+00	 1.017650e+01
0	 5.037037e+00	 6.148148e+00	 1.017023e+01
0	 5.037037e+00	 6.222222e+00	 1.016407e+01
0	 5.037037e+00	 6.296296e+00	 1.015804e+01
0	 5.111111e+00	 5.925926e+00	 1.018899e+01
0	 5.111111e+00	 6.000000e+00	 1.018257e+01
0	 5.111111e+00	 6.074074e+00	 1.017627e+01
0	 5.111111e+00	 6.148148e+00	 1.017009e+01
0	 5.111111e+00	 6.222222e+00	 1.016402e+01
0	 5.111111e+00	 6.296296e+00	 1.015806e+01
0	 5.185185e+00	 5.925926e+00	 1.018827e+01
0	 5.185185e+00	 6.000000e+00	 1.018197e+01
0	 5.185185e+00	 6.074074e+00	 1.017578e+01
0	 5.185185e+00	 6.148148e+00	 1.016970e+01
0	 5.185185e+00	 6.222222e+00	 1.016373e+01
0	 5.185185e+00	 6.296296e+00	 1.015785e+01
0	 4.814815e+00	 6.296296e+00	 1.015635e+01
0	 4.814815e+00	 6.370370e+00	 1.015027e+01
0	 4.814815e+00	 6.444444e+00	 1.014434e+01
0	 4.814815e+00	 6.518519e+00	 1.013856e+01
0	 4.814815e+00	 6.592593e+00	 1.013292e+01
0	 4.814815e+00	 6.666667e+00	 1.012741e+01
0	 4.888889e+00	 6.296296e+00	 1.015720e+01
0	 4.888889e+00	 6.370370e+00	 1.015117e+01
0	 4.888889e+00	 6.444444e+00	 1.014528e+01
0	 4.888889e+00	 6.518519e+00	 1.013952e+01
0	 4.888889e+00	 6.592593e+00	 1.013391e+01
0	 4.888889e+00	 6.666667e+00	 1.012842e+01
0	 4.962963e+00	 6.296296e+00	 1.015775e+01
0	 4.962963e+00	 6.370370e+00	 1.015178e+01
0	 4.962963e+00	 6.444444e+00	 1.014594e+01
0	 4.962963e+00	 6.518519e+00	 1.014022e+01
0	 4.962963e+00	 6.592593e+00	 1.013464e+01
0	 4.962963e+00	 6.666667e+00	 1.012918e+01
0	 5.037037e+00	 6.296296e+00	 1.015804e+01
0	 5.037037e+00	 6.370370e+00	 1.015212e+01
0	 5.037037e+00	 6.444444e+00	 1.014634e+01
0	 5.037037e+00	 6.518519e+00	 1.014067e+01
0	 5.037037e+00	 6.592593e+00	 1.013513e+01
0	 5.037037e+00	 6.666667e+00	 1.012971e+01
0	 5.111111e+00	 6.296296e+00	 1.015806e+01
0	 5.111111e+00	 6.370370e+00	 1.015222e+01
0	 5.111111e+00	 6.444444e+00	 1.014649e+01
0	 5.111111e+00	 6.518519e+00	 1.014089e+01
0	 5.111111e+00	 6.592593e+00	 1.013540e+01
0	 5.111111e+00	 6.666667e+00	 1.013002e+01
0	 5.185185e+00	 6.296296e+00	 1.015785e+01
0	 5.185185e+00	 6.370370e+00	 1.015208e+01
0	 5.185185e+00	 6.444444e+00	 1.014642e+01
0	 5.185185e+00	 6.518519e+00	 1.014088e+01
0	 5.185185e+00	 6.592593e+00	 1.013545e+01
0	 5.185185e+00	 6.666667e+00	 1.013012e+01
0	 4.814815e+00	 6.666667e+00	 1.012741e+01
0	 4.814815e+00	 6.740741e+00	 1.012205e+01
0	 4.814815e+00	 6.814815e+00	 1.011681e+01
0	 4.814815e+00	 6.888889e+00	 1.011172e+01
0	 4.814815e+00	 6.962963e+00	 1.010675e+01
0	 4.814815e+00	 7.037037e+00	 1.010192e+01
0	 4.888889e+00	 6.666667e+00	 1.012842e+01
0	 4.888889e+00	 6.740741e+00	 1.012307e+01
0	 4.888889e+00	 6.814815e+00	 1.011785e+01
0	 4.888889e+00	 6.888889e+00	 1.011275e+01
0	 4.888889e+00	 6.962963e+00	 1.010779e+01
0	 4.888889e+00	 7.037037e+00	 1.010295e+01
0	 4.962963e+00	 6.666667e+00	 1.012918e+01
0	 4.962963e+00	 6.740741e+00	 1.012385e+01
0	 4.962963e+00	 6.814815e+00	 1.011865e+01
0	 4.962963e+00	 6.888889e+00	 1.011357e+01
0	 4.962963e+00	 6.962963e+00	 1.010861e+01
0	 4.962963e+00	 7.037037e+00	 1.010377e+01
0	 5.037037e+00	 6.666667e+00	 1.012971e+01
0	 5.037037e+00	 6.740741e+00	 1.012441e+01
0	 5.037037e+00	 6.814815e+00	 1.011923e+01
0	 5.037037e+00	 6.888889e+00	 1.011417e+01
0	 5.037037e+00	 6.962963e+00	 1.010923e+01
0	 5.037037e+00	 7.037037e+00	 1.010440e+01
0	 5.111111e+00	 6.666667e+00	 1.013002e+01
0	 5.111111e+00	 6.740741e+00	 1.012476e+01
0	 5.111111e+00	 6.814815e+00	 1.011961e+01
0	 5.111111e+00	 6.888889e+00	 1.011458e+01
0	 5.111111e+00	 6.962963e+00	 1.010965e+01
0	 5.111111e+00	 7.037037e+00	 1.010484e+01
0	 5.185185e+00	 6.666667e+00	 1.013012e+01
0	 5.185185e+00	 6.740741e+00	 1.012490e+01
0	 5.185185e+00	 6.814815e+00	 1.011979e+01
0	 5.185185e+00	 6.888889e+00	 1.011479e+01
0	 5.185185e+00	 6.962963e+00	 1.010990e+01
0	 5.185185e+00	 7.037037e+00	 1.010511e+01
0	 4.814815e+00	 7.037037e+00	 1.010192e+01
0	 4.814815e+00	 7.111111e+00	 1.009721e+01
0	 4.814815e+00	 7.185185e+00	 1.009263e+01
0	 4.814815e+00	 7.259259e+00	 1.008816e+01
0	 4.814815e+00	 7.333333e+00	 1.008382e+01
0	 4.814815e+00	 7.407407e+00	 1.007960e+01
0	 4.888889e+00	 7.037037e+00	 1.010295e+01
0	 4.888889e+00	 7.111111e+00	 1.009823e+01
0	 4.888889e+00	 7.185185e+00	 1.009363e+01
0	 4.888889e+00	 7.259259e+00	 1.008915e+01
0	 4.888889e+00	 7.333333e+00	 1.008479e+01
0	 4.888889e+00	 7.407407e+00	 1.008054e+01
0	 4.962963e+00	 7.037037e+00	 1.010377e+01
0	 4.962963e+00	 7.111111e+00	 1.009905e+01
0	 4.962963e+00	 7.185185e+00	 1.009445e+01
0	 4.962963e+00	 7.259259e+00	 1.008996e+01
0	 4.962963e+00	 7.333333e+00	 1.008558e+01
0	 4.962963e+00	 7.407407e+00	 1.008132e+01
0	 5.037037e+00	 7.037037e+00	 1.010440e+01
0	 5.037037e+00	 7.111111e+00	 1.009968e+01
0	 5.037037e+00	 7.185185e+00	 1.009508e+01
0	 5.037037e+00	 7.259259e+00	 1.009059e+01
0	 5.037037e+00	 7.333333e+00	 1.008622e+01
0	 5.037037e+00	 7.407407e+00	 1.008194e+01
0	 5.111111e+00	 7.037037e+00	 1.010484e+01
0	 5.111111e+00	 7.111111e+00	 1.010014e+01
0	 5.111111e+00	 7.185185e+00	 1.009555e+01
0	 5.111111e+00	 7.259259e+00	 1.009107e+01
0	 5.111111e+00	 7.333333e+00	 1.008669e+01
0	 5.111111e+00	 7.407407e+00	 1.008242e+01
0	 5.185185e+00	 7.037037e+00	 1.010511e+01
0	 5.185185e+00	 7.111111e+00	 1.010043e+01
0	 5.185185e+00	 7.185185e+00	 1.009586e+01
0	 5.185185e+00	 7.259259e+00	 1.009139e+01
0	 5.185185e+00	 7.333333e+00	 1.008702e+01
0	 5.185185e+00	 7.407407e+00	 1.008275e+01
0	 4.814815e+00	 7.407407e+00	 1.007960e+01
0	 4.814815e+00	 7.481481e+00	 1.007549e+01
0	 4.814815e+00	 7.555556e+00	 1.007149e+01
0	 4.814815e+00	 7.629630e+00	 1.006761e+01
0	 4.814815e+00	 7.703704e+00	 1.006383e+01
0	 4.814815e+00	 7.777778e+00	 1.006017e+01
0	 4.888889e+00	 7.407407e+00	 1.008054e+01
0	 4.888889e+00	 7.481481e+00	 1.007641e+01
0	 4.888889e+00	 7.555556e+00	 1.007238e+01
0	 4.888889e+00	 7.629630e+00	 1.006847e+01
0	 4.888889e+00	 7.703704e+00	 1.006466e+01
0	 4.888889e+00	 7.777778e+00	 1.006096e+01
0	 4.962963e+00	 7.407407e+00	 1.008132e+01
0	 4.962963e+00	 7.481481e+00	 1.007717e+01
0	 4.962963e+00	 7.555556e+00	 1.007312e+01
0	 4.962963e+00	 7.629630e+00	 1.006919e+01
0	 4.962963e+00	 7.703704e+00	 1.006536e+01
0	 4.962963e+00	 7.777778e+00	 1.006163e+01
0	 5.037037e+00	 7.407407e+00	 1.008194e+01
0	 5.037037e+00	 7.481481e+00	 1.007778e+01
0	 5.037037e+00	 7.555556e+00	 1.007373e+01
0	 5.037037e+00	 7.629630e+00	 1.006978e+01
0	 5.037037e+00	 7.703704e+00	 1.006593e+01
0	 5.037037e+00	 7.777778e+00	 1.006218e+01
0	 5.111111e+00	 7.407407e+00	 1.008242e+01
0	 5.111111e+00	 7.481481e+00	 1.007825e+01
0	 5.111111e+00	 7.555556e+00	 1.007419e+01
0	 5.111111e+00	 7.629630e+00	 1.007023e+01
0	 5.111111e+00	 7.703704e+00	 1.006638e+01
0	 5.111111e+00	 7.777778e+00	 1.006262e+01
0	 5.185185e+00	 7.407407e+00	 1.008275e+01
0	 5.185185e+00	 7.481481e+00	 1.007859e+01
0	 5.185185e+00	 7.555556e+00	 1.007453e+01
0	 5.185185e+00	 7.629630e+00	 1.007057e+01
0	 5.185185e+00	 7.703704e+00	 1.006671e+01
0	 5.185185e+00	 7.777778e+00	 1.006294e+01
0	 4.814815e+00	 7.777778e+00	 1.006017e+01
0	 4.814815e+00	 7.851852e+00	 1.005661e+01
0	 4.814815e+00	 7.925926e+00	 1.005315e+01
0	 4.814815e+00	 8.000000e+00	 1.004980e+01
0	 4.814815e+00	 8.074074e+00	 1.004654e+01
0	 4.814815e+00	 8.148148e+00	 1.004339e+01
0	 4.888889e+00	 7.777778e+00	 1.006096e+01
0	 4.888889e+00	 7.851852e+00	 1.005737e+01
0	 4.888889e+00	 7.925926e+00	 1.005387e+01
0	 4.888889e+00	 8.000000e+00	 1.005049e+01
0	 4.888889e+00	 8.074074e+00	 1.004720e+01
0	 4.888889e+00	 8.148148e+00	 1.004400e+01
0	 4.962963e+00	 7.777778e+00	 1.006163e+01
0	 4.962963e+00	 7.851852e+00	 1.005801e+01
0	 4.962963e+00	 7.925926e+00	 1.005449e+01
0	 4.962963e+00	 8.000000e+00	 1.005107e+01
0	 4.962963e+00	 8.074074e+00	 1.004775e+01
0	 4.962963e+00	 8.148148e+00	 1.004453e+01
0	 5.037037e+00	 7.777778e+00	 1.006218e+01
0	 5.037037e+00	 7.851852e+00	 1.005854e+01
0	 5.037037e+00	 7.925926e+00	 1.005500e+01
0	 5.037037e+00	 8.000000e+00	 1.005155e+01
0	 5.037037e+00	 8.074074e+00	 1.004821e+01
0	 5.037037e+00	 8.148148e+00	 1.004496e+01
0	 5.111111e+00	 7.777778e+00	 1.006262e+01
0	 5.111111e+00	 7.851852e+00	 1.005896e+01
0	 5.111111e+00	 7.925926e+00	 1.005540e+01
0	 5.111111e+00	 8.000000e+00	 1.005194e+01
0	 5.111111e+00	 8.074074e+00	 1.004858e+01
0	 5.111111e+00	 8.148148e+00	 1.004532e+01
0	 5.185185e+00	 7.777778e+00	 1.006294e+01
0	 5.185185e+00	 7.851852e+00	 1.005927e+01
0	 5.185185e+00	 7.925926e+00	 1.005571e+01
0	 5.185185e+00	 8.000000e+00	 1.005224e+01
0	 5.185185e+00	 8.074074e+00	 1.004887e+01
0	 5.185185e+00	 8.148148e+00	 1.004559e+01
0	 4.814815e+00	 8.148148e+00	 1.004339e+01
0	 4.814815e+00	 8.222222e+00	 1.004034e+01
0	 4.814815e+00	 8.296296e+00	 1.003739e+01
0	 4.814815e+00	 8.370370e+00	 1.003454e+01
0	 4.814815e+00	 8.444444e+00	 1.003178e+01
0	 4.814815e+00	 8.518519e+00	 1.002912e+01
0	 4.888889e+00	 8.148148e+00	 1.004400e+01
0	 4.888889e+00	 8.222222e+00	 1.004091e+01
0	 4.888889e+00	 8.296296e+00	 1.003793e+01
0	 4.888889e+00	 8.370370e+00	 1.003504e+01
0	 4.888889e+00	 8.444444e+00	 1.003225e+01
0	 4.888889e+00	 8.518519e+00	 1.002955e+01
0	 4.962963e+00	 8.148148e+00	 1.004453e+01
0	 4.962963e+00	 8.222222e+00	 1.004141e+01
0	 4.962963e+00	 8.296296e+00	 1.003839e+01
0	 4.962963e+00	 8.370370e+00	 1.003547e+01
0	 4.962963e+00	 8.444444e+00	 1.003264e+01
0	 4.962963e+00	 8.518519e+00	 1.002992e+01
0	 5.037037e+00	 8.148148e+00	 1.004496e+01
0	 5.037037e+00	 8.222222e+00	 1.004182e+01
0	 5.037037e+00	 8.296296e+00	 1.003877e+01
0	 5.037037e+00	 8.370370e+00	 1.003583e+01
0	 5.037037e+00	 8.444444e+00	 1.003298e+01
0	 5.037037e+00	 8.518519e+00	 1.003022e+01
0	 5.111111e+00	 8.148148e+00	 1.004532e+01
0	 5.111111e+00	 8.222222e+00	 1.004215e+01
0	 5.111111e+00	 8.296296e+00	 1.003908e+01
0	 5.111111e+00	 8.370370e+00	 1.003612e+01
0	 5.111111e+00	 8.444444e+00	 1.003325e+01
0	 5.111111e+00	 8.518519e+00	 1.003047e+01
0	 5.185185e+00	 8.148148e+00	 1.004559e+01
0	 5.185185e+00	 8.222222e+00	 1.004240e+01
0	 5.185185e+00	 8.296296e+00	 1.003932e+01
0	 5.185185e+00	 8.370370e+00	 1.003634e+01
0	 5.185185e+00	 8.444444e+00	 1.003346e+01
0	 5.185185e+00	 8.518519e+00	 1.003067e+01
0	 4.814815e+00	 8.518519e+00	 1.002912e+01
0	 4.814815e+00	 8.592593e+00	 1.002656e+01
0	 4.814815e+00	 8.666667e+00	 1.002411e+01
0	 4.814815e+00	 8.740741e+00	 1.002176e+01
0	 4.814815e+00	 8.814815e+00	 1.001951e+01
0	 4.814815e+00	 8.888889e+00	 1.001736e+01
0	 4.888889e+00	 8.518519e+00	 1.002955e+01
0	 4.888889e+00	 8.592593e+00	 1.002695e+01
0	 4.888889e+00	 8.666667e+00	 1.002447e+01
0	 4.888889e+00	 8.740741e+00	 1.002208e+01
0	 4.888889e+00	 8.814815e+00	 1.001980e+01
0	 4.888889e+00	 8.888889e+00	 1.001761e+01
0	 4.962963e+00	 8.518519e+00	 1.002992e+01
0	 4.962963e+00	 8.592593e+00	 1.002729e+01
0	 4.962963e+00	 8.666667e+00	 1.002477e+01
0	 4.962963e+00	 8.740741e+00	 1.002236e+01
0	 4.962963e+00	 8.814815e+00	 1.002005e+01
0	 4.962963e+00	 8.888889e+00	 1.001783e+01
0	 5.037037e+00	 8.518519e+00	 1.003022e+01
0	 5.037037e+00	 8.592593e+00	 1.002757e+01
0	 5.037037e+00	 8.666667e+00	 1.002503e+01
0	 5.037037e+00	 8.740741e+00	 1.002259e+01
0	 5.037037e+00	 8.814815e+00	 1.002025e+01
0	 5.037037e+00	 8.888889e+00	 1.001801e+01
0	 5.111111e+00	 8.518519e+00	 1.003047e+01
0	 5.111111e+00	 8.592593e+00	 1.002780e+01
0	 5.111111e+00	 8.666667e+00	 1.002524e+01
0	 5.111111e+00	 8.740741e+00	 1.002278e+01
0	 5.111111e+00	 8.814815e+00	 1.002042e+01
0	 5.111111e+00	 8.888889e+00	 1.001816e+01
0	 5.185185e+00	 8.518519e+00	 1.003067e+01
0	 5.185185e+00	 8.592593e+00	 1.002798e+01
0	 5.185185e+00	 8.666667e+00	 1.002540e+01
0	 5.185185e+00	 8.740741e+00	 1.002293e+01
0	 5.185185e+00	 8.814815e+00	 1.002056e+01
0	 5.185185e+00	 8.888889e+00	 1.001828e+01
0	 4.814815e+00	 8.888889e+00	 1.001736e+01
0	 4.814815e+00	 8.962963e+00	 1.001531e+01
0	 4.814815e+00	 9.037037e+00	 1.001338e+01
0	 4.814815e+00	 9.111111e+00	 1.001156e+01
0	 4.814815e+00	 9.185185e+00	 1.000986e+01
0	 4.814815e+00	 9.259259e+00	 1.000825e+01
0	 4.888889e+00	 8.888889e+00	 1.001761e+01
0	 4.888889e+00	 8.962963e+00	 1.001553e+01
0	 4.888889e+00	 9.037037e+00	 1.001357e+01
0	 4.888889e+00	 9.111111e+00	 1.001173e+01
0	 4.888889e+00	 9.185185e+00	 1.001000e+01
0	 4.888889e+00	 9.259259e+00	 1.000837e+01
0	 4.962963e+00	 8.888889e+00	 1.001783e+01
0	 4.962963e+00	 8.962963e+00	 1.001572e+01
0	 4.962963e+00	 9.037037e+00	 1.001374e+01
0	 4.962963e+00	 9.111111e+00	 1.001187e+01
0	 4.962963e+00	 9.185185e+00	 1.001012e+01
0	 4.962963e+00	 9.259259e+00	 1.000847e+01
0	 5.037037e+00	 8.888889e+00	 1.001801e+01
0	 5.037037e+00	 8.962963e+00	 1.001589e+01
0	 5.037037e+00	 9.037037e+00	 1.001388e+01
0	 5.037037e+00	 9.111111e+00	 1.001200e+01
0	 5.037037e+00	 9.185185e+00	 1.001022e+01
0	 5.037037e+00	 9.259259e+00	 1.000856e+01
0	 5.111111e+00	 8.888889e+00	 1.001816e+01
0	 5.111111e+00	 8.962963e+00	 1.001602e+01
0	 5.111111e+00	 9.037037e+00	 1.001400e+01
0	 5.111111e+00	 9.111111e+00	 1.001210e+01
0	 5.111111e+00	 9.185185e+00	 1.001031e+01
0	 5.111111e+00	 9.259259e+00	 1.000863e+01
0	 5.185185e+00	 8.888889e+00	 1.001828e+01
0	 5.185185e+00	 8.962963e+00	 1.001612e+01
0	 5.185185e+00	 9.037037e+00	 1.001409e+01
0	 5.185185e+00	 9.111111e+00	 1.001217e+01
0	 5.185185e+00	 9.185185e+00	 1.001037e+01
0	 5.185185e+00	 9.259259e+00	 1.000868e+01
0	 4.814815e+00	 9.259259e+00	 1.000825e+01
0	 4.814815e+00	 9.333333e+00	 1.000677e+01
0	 4.814815e+00	 9.407407e+00	 1.000544e+01
0	 4.814815e+00	 9.481481e+00	 1.000424e+01
0	 4.814815e+00	 9.555556e+00	 1.000318e+01
0	 4.814815e+00	 9.629630e+00	 1.000223e+01
0	 4.888889e+00	 9.259259e+00	 1.000837e+01
0	 4.888889e+00	 9.333333e+00	 1.000687e+01
0	 4.888889e+00	 9.407407e+00	 1.000551e+01
0	 4.888889e+00	 9.481481e+00	 1.000430e+01
0	 4.888889e+00	 9.555556e+00	 1.000322e+01
0	 4.888889e+00	 9.629630e+00	 1.000226e+01
0	 4.962963e+00	 9.259259e+00	 1.000847e+01
0	 4.962963e+00	 9.333333e+00	 1.000695e+01
0	 4.962963e+00	 9.407407e+00	 1.000558e+01
0	 4.962963e+00	 9.481481e+00	 1.000435e+01
0	 4.962963e+00	 9.555556e+00	 1.000326e+01
0	 4.962963e+00	 9.629630e+00	 1.000229e+01
0	 5.037037e+00	 9.259259e+00	 1.000856e+01
0	 5.037037e+00	 9.333333e+00	 1.000702e+01
0	 5.037037e+00	 9.407407e+00	 1.000564e+01
0	 5.037037e+00	 9.481481e+00	 1.000439e+01
0	 5.037037e+00	 9.555556e+00	 1.000329e+01
0	 5.037037e+00	 9.629630e+00	 1.000231e+01
0	 5.111111e+00	 9.259259e+00	 1.000863e+01
0	 5.111111e+00	 9.333333e+00	 1.000708e+01
0	 5.111111e+00	 9.407407e+00	 1.000568e+01
0	 5.111111e+00	 9.481481e+00	 1.000443e+01
0	 5.111111e+00	 9.555556e+00	 1.000331e+01
0	 5.111111e+00	 9.629630e+00	 1.000233e+01
0	 5.185185e+00	 9.259259e+00	 1.000868e+01
0	 5.185185e+00	 9.333333e+00	 1.000712e+01
0	 5.185185e+00	 9.407407e+00	 1.000571e+01
0	 5.185185e+00	 9.481481e+00	 1.000445e+01
0	 5.185185e+00	 9.555556e+00	 1.000333e+01
0	 5.185185e+00	 9.629630e+00	 1.000234e+01
0	 4.814815e+00	 9.629630e+00	 1.000223e+01
0	 4.814815e+00	 9.703704e+00	 1.000144e+01
0	 4.814815e+00	 9.777778e+00	 1.000083e+01
0	 4.814815e+00	 9.851852e+00	 1.000039e+01
0	 4.814815e+00	 9.925926e+00	 1.000011e+01
0	 4.814815e+00	 1.000000e+01	 9.999973e+00
0	 4.888889e+00	 9.629630e+00	 1.000226e+01
0	 4.888889e+00	 9.703704e+00	 1.000145e+01
0	 4.888889e+00	 9.777778e+00	 1.000084e+01
0	 4.888889e+00	 9.851852e+00	 1.000039e+01
0	 4.888889e+00	 9.925926e+00	 1.000011e+01
0	 4.888889e+00	 1.000000e+01	 9.999971e+00
0	 4.962963e+00	 9.629630e+00	 1.000229e+01
0	 4.962963e+00	 9.703704e+00	 1.000147e+01
0	 4.962963e+00	 9.777778e+00	 1.000084e+01
0	 4.962963e+00	 9.851852e+00	 1.000039e+01
0	 4.962963e+00	 9.925926e+00	 1.000011e+01
0	 4.962963e+00	 1.000000e+01	 9.999971e+00
0	 5.037037e+00	 9.629630e+00	 1.000231e+01
0	 5.037037e+00	 9.703704e+00	 1.000149e+01
0	 5.037037e+00	 9.777778e+00	 1.000085e+01
0	 5.037037e+00	 9.851852e+00	 1.000040e+01
0	 5.037037e+00	 9.925926e+00	 1.000011e+01
0	 5.037037e+00	 1.000000e+01	 9.999972e+00
0	 5.111111e+00	 9.629630e+00	 1.000233e+01
0	 5.111111e+00	 9.703704e+00	 1.000150e+01
0	 5.111111e+00	 9.777778e+00	 1.000086e+01
0	 5.111111e+00	 9.851852e+00	 1.000040e+01
0	 5.111111e+00	 9.925926e+00	 1.000011e+01
0	 5.111111e+00	 1.000000e+01	 9.999973e+00
0	 5.185185e+00	 9.629630e+00	 1.000234e+01
0	 5.185185e+00	 9.703704e+00	 1.000151e+01
0	 5.185185e+00	 9.777778e+00	 1.000086e+01
0	 5.185185e+00	 9.851852e+00	 1.000040e+01
0	 5.185185e+00	 9.925926e+00	 1.000011e+01
0	 5.185185e+00	 1.000000e+01	 9.999973e+00
0	 5.185185e+00	 0.000000e+00	 1.030055e+01
0	 5.185185e+00	 7.407407e-02	 1.030093e+01
0	 5.185185e+00	 1.481481e-01	 1.030189e+01
0	 5.185185e+00	 2.222222e-01	 1.030347e+01
0	 5.185185e+00	 2.962963e-01	 1.030567e+01
0	 5.185185e+00	 3.703704e-01	 1.030851e+01
0	 5.259259e+00	 0.000000e+00	 1.029011e+01
0	 5.259259e+00	 7.407407e-02	 1.029043e+01
0	 5.259259e+00	 1.481481e-01	 1.029133e+01
0	 5.259259e+00	 2.222222e-01	 1.029280e+01
0	 5.259259e+00	 2.962963e-01	 1.029488e+01
0	 5.259259e+00	 3.703704e-01	 1.029758e+01
0	 5.333333e+00	 0.000000e+00	 1.028003e+01
0	 5.333333e+00	 7.407407e-02	 1.028031e+01
0	 5.333333e+00	 1.481481e-01	 1.028112e+01
0	 5.333333e+00	 2.222222e-01	 1.028249e+01
0	 5.333333e+00	 2.962963e-01	 1.028443e+01
0	 5.333333e+00	 3.703704e-01	 1.028696e+01
0	 5.407407e+00	 0.000000e+00	 1.027022e+01
0	 5.407407e+00	 7.407407e-02	 1.027047e+01
0	 5.407407e+00	 1.481481e-01	 1.027122e+01
0	 5.407407e+00	 2.222222e-01	 1.027248e+01
0	 5.407407e+00	 2.962963e-01	 1.027428e+01
0	 5.407407e+00	 3.703704e-01	 1.027662e+01
0	 5.481481e+00	 0.000000e+00	 1.026061e+01
0	 5.481481e+00	 7.407407e-02	 1.026084e+01
0	 5.481481e+00	 1.481481e-01	 1.026154e+01
0	 5.481481e+00	 2.222222e-01	 1.026271e+01
0	 5.481481e+00	 2.962963e-01	 1.026438e+01
0	 5.481481e+00	 3.703704e-01	 1.026656e+01
0	 5.555556e+00	 0.000000e+00	 1.025110e+01
0	 5.555556e+00	 7.407407e-02	 1.025135e+01
0	 5.555556e+00	 1.481481e-01	 1.025202e+01
0	 5.555556e+00	 2.222222e-01	 1.025314e+01
0	 5.555556e+00	 2.962963e-01	 1.025471e+01
0	 5.555556e+00	 3.703704e-01	 1.025675e+01
0	 5.185185e+00	 3.703704e-01	 1.030851e+01
0	 5.185185e+00	 4.444444e-01	 1.031184e+01
0	 5.185185e+00	 5.185185e-01	 1.031554e+01
0	 5.185185e+00	 5.925926e-01	 1.031965e+01
0	 5.185185e+00	 6.666667e-01	 1.032420e+01
0	 5.185185e+00	 7.407407e-01	 1.032925e+01
0	 5.259259e+00	 3.703704e-01	 1.029758e+01
0	 5.259259e+00	 4.444444e-01	 1.030076e+01
0	 5.259259e+00	 5.185185e-01	 1.030428e+01
0	 5.259259e+00	 5.925926e-01	 1.030818e+01
0	 5.259259e+00	 6.666667e-01	 1.031251e+01
0	 5.259259e+00	 7.407407e-01	 1.031730e+01
0	 5.333333e+00	 3.703704e-01	 1.028696e+01
0	 5.333333e+00	 4.444444e-01	 1.028994e+01
0	 5.333333e+00	 5.185185e-01	 1.029327e+01
0	 5.333333e+00	 5.925926e-01	 1.029698e+01
0	 5.333333e+00	 6.666667e-01	 1.030109e+01
0	 5.333333e+00	 7.407407e-01	 1.030566e+01
0	 5.407407e+00	 3.703704e-01	 1.027662e+01
0	 5.407407e+00	 4.444444e-01	 1.027941e+01
0	 5.407407e+00	 5.185185e-01	 1.028254e+01
0	 5.407407e+00	 5.925926e-01	 1.028605e+01
0	 5.407407e+00	 6.666667e-01	 1.028998e+01
0	 5.407407e+00	 7.407407e-01	 1.029435e+01
0	 5.481481e+00	 3.703704e-01	 1.026656e+01
0	 5.481481e+00	 4.444444e-01	 1.026915e+01
0	 5.481481e+00	 5.185185e-01	 1.027210e+01
0	 5.481481e+00	 5.925926e-01	 1.027543e+01
0	 5.481481e+00	 6.666667e-01	 1.027917e+01
0	 5.481481e+00	 7.407407e-01	 1.028335e+01
0	 5.555556e+00	 3.703704e-01	 1.025675e+01
0	 5.555556e+00	 4.444444e-01	 1.025919e+01
0	 5.555556e+00	 5.185185e-01	 1.026197e+01
0	 5.555556e+00	 5.925926e-01	 1.026513e+01
0	 5.555556e+00	 6.666667e-01	 1.026869e+01
0	 5.555556e+00	 7.407407e-01	 1.027268e+01
0	 5.185185e+00	 7.407407e-01	 1.032925e+01
0	 5.185185e+00	 8.148148e-01	 1.033460e+01
0	 5.185185e+00	 8.888889e-01	 1.034010e+01
0	 5.185185e+00	 9.629630e-01	 1.034580e+01
0	 5.185185e+00	 1.037037e+00	 1.035178e+01
0	 5.185185e+00	 1.111111e+00	 1.035809e+01
0	 5.259259e+00	 7.407407e-01	 1.031730e+01
0	 5.259259e+00	 8.148148e-01	 1.032239e+01
0	 5.259259e+00	 8.888889e-01	 1.032765e+01
0	 5.259259e+00	 9.629630e-01	 1.033311e+01
0	 5.259259e+00	 1.037037e+00	 1.033885e+01
0	 5.259259e+00	 1.111111e+00	 1.034492e+01
0	 5.333333e+00	 7.407407e-01	 1.030566e+01
0	 5.333333e+00	 8.148148e-01	 1.031053e+01
0	 5.333333e+00	 8.888889e-01	 1.031556e+01
0	 5.333333e+00	 9.629630e-01	 1.032081e+01
0	 5.333333e+00	 1.037037e+00	 1.032631e+01
0	 5.333333e+00	 1.111111e+00	 1.033212e+01
0	 5.407407e+00	 7.407407e-01	 1.029435e+01
0	 5.407407e+00	 8.148148e-01	 1.029901e+01
0	 5.407407e+00	 8.888889e-01	 1.030384e+01
0	 5.407407e+00	 9.629630e-01	 1.030886e+01
0	 5.407407e+00	 1.037037e+00	 1.031413e+01
0	 5.407407e+00	 1.111111e+00	 1.031968e+01
0	 5.481481e+00	 7.407407e-01	 1.028335e+01
0	 5.481481e+00	 8.148148e-01	 1.028782e+01
0	 5.481481e+00	 8.888889e-01	 1.029244e+01
0	 5.481481e+00	 9.629630e-01	 1.029725e+01
0	 5.481481e+00	 1.037037e+00	 1.030229e+01
0	 5.481481e+00	 1.111111e+00	 1.030759e+01
0	 5.555556e+00	 7.407407e-01	 1.027268e+01
0	 5.555556e+00	 8.148148e-01	 1.027696e+01
0	 5.555556e+00	 8.888889e-01	 1.028137e+01
0	 5.555556e+00	 9.629630e-01	 1.028595e+01
0	 5.555556e+00	 1.037037e+00	 1.029075e+01
0	 5.555556e+00	 1.111111e+00	 1.029581e+01
0	 5.185185e+00	 1.111111e+00	 1.035809e+01
0	 5.185185e+00	 1.185185e+00	 1.036450e+01
0	 5.185185e+00	 1.259259e+00	 1.037076e+01
0	 5.185185e+00	 1.333333e+00	 1.037693e+01
0	 5.185185e+00	 1.407407e+00	 1.038306e+01
0	 5.185185e+00	 1.481481e+00	 1.038920e+01
0	 5.259259e+00	 1.111111e+00	 1.034492e+01
0	 5.259259e+00	 1.185185e+00	 1.035107e+01
0	 5.259259e+00	 1.259259e+00	 1.035708e+01
0	 5.259259e+00	 1.333333e+00	 1.036301e+01
0	 5.259259e+00	 1.407407e+00	 1.036891e+01
0	 5.259259e+00	 1.481481e+00	 1.037483e+01
0	 5.333333e+00	 1.111111e+00	 1.033212e+01
0	 5.333333e+00	 1.185185e+00	 1.033802e+01
0	 5.333333e+00	 1.259259e+00	 1.034379e+01
0	 5.333333e+00	 1.333333e+00	 1.034949e+01
0	 5.333333e+00	 1.407407e+00	 1.035517e+01
0	 5.333333e+00	 1.481481e+00	 1.036090e+01
0	 5.407407e+00	 1.111111e+00	 1.031968e+01
0	 5.407407e+00	 1.185185e+00	 1.032532e+01
0	 5.407407e+00	 1.259259e+00	 1.033086e+01
0	 5.407407e+00	 1.333333e+00	 1.033635e+01
0	 5.407407e+00	 1.407407e+00	 1.034184e+01
0	 5.407407e+00	 1.481481e+00	 1.034739e+01
0	 5.481481e+00	 1.111111e+00	 1.030759e+01
0	 5.481481e+00	 1.185185e+00	 1.031298e+01
0	 5.481481e+00	 1.259259e+00	 1.031829e+01
0	 5.481481e+00	 1.333333e+00	 1.032357e+01
0	 5.481481e+00	 1.407407e+00	 1.032887e+01
0	 5.481481e+00	 1.481481e+00	 1.033425e+01
0	 5.555556e+00	 1.111111e+00	 1.029581e+01
0	 5.555556e+00	 1.185185e+00	 1.030095e+01
0	 5.555556e+00	 1.259259e+00	 1.030605e+01
0	 5.555556e+00	 1.333333e+00	 1.031113e+01
0	 5.555556e+00	 1.407407e+00	 1.031626e+01
0	 5.555556e+00	 1.481481e+00	 1.032147e+01
0	 5.185185e+00	 1.481481e+00	 1.038920e+01
0	 5.185185e+00	 1.555556e+00	 1.039519e+01
0	 5.185185e+00	 1.629630e+00	 1.040082e+01
0	 5.185185e+00	 1.703704e+00	 1.040615e+01
0	 5.185185e+00	 1.777778e+00	 1.041124e+01
0	 5.185185e+00	 1.851852e+00	 1.041614e+01
0	 5.259259e+00	 1.481481e+00	 1.037483e+01
0	 5.259259e+00	 1.555556e+00	 1.038062e+01
0	 5.259259e+00	 1.629630e+00	 1.038609e+01
0	 5.259259e+00	 1.703704e+00	 1.039130e+01
0	 5.259259e+00	 1.777778e+00	 1.039629e+01
0	 5.259259e+00	 1.851852e+00	 1.040111e+01
0	 5.333333e+00	 1.481481e+00	 1.036090e+01
0	 5.333333e+00	 1.555556e+00	 1.036651e+01
0	 5.333333e+00	 1.629630e+00	 1.037184e+01
0	 5.333333e+00	 1.703704e+00	 1.037693e+01
0	 5.333333e+00	 1.777778e+00	 1.038181e+01
0	 5.333333e+00	 1.851852e+00	 1.038654e+01
0	 5.407407e+00	 1.481481e+00	 1.034739e+01
0	 5.407407e+00	 1.555556e+00	 1.035284e+01
0	 5.407407e+00	 1.629630e+00	 1.035803e+01
0	 5.407407e+00	 1.703704e+00	 1.036299e+01
0	 5.407407e+00	 1.777778e+00	 1.036777e+01
0	 5.407407e+00	 1.851852e+00	 1.037240e+01
0	 5.481481e+00	 1.481481e+00	 1.033425e+01
0	 5.481481e+00	 1.555556e+00	 1.033955e+01
0	 5.481481e+00	 1.629630e+00	 1.034460e+01
0	 5.481481e+00	 1.703704e+00	 1.034944e+01
0	 5.481481e+00	 1.777778e+00	 1.035410e+01
0	 5.481481e+00	 1.851852e+00	 1.035863e+01
0	 5.555556e+00	 1.481481e+00	 1.032147e+01
0	 5.555556e+00	 1.555556e+00	 1.032661e+01
0	 5.555556e+00	 1.629630e+00	 1.033151e+01
0	 5.555556e+00	 1.703704e+00	 1.033622e+01
0	 5.555556e+00	 1.777778e+00	 1.034076e+01
0	 5.555556e+00	 1.851852e+00	 1.034519e+01
0	 5.185185e+00	 1.851852e+00	 1.041614e+01
0	 5.185185e+00	 1.925926e+00	 1.042071e+01
0	 5.185185e+00	 2.000000e+00	 1.042478e+01
0	 5.185185e+00	 2.074074e+00	 1.042839e+01
0	 5.185185e+00	 2.148148e+00	 1.043157e+01
0	 5.185185e+00	 2.222222e+00	 1.043436e+01
0	 5.259259e+00	 1.851852e+00	 1.040111e+01
0	 5.259259e+00	 1.925926e+00	 1.040562e+01
0	 5.259259e+00	 2.000000e+00	 1.040967e+01
0	 5.259259e+00	 2.074074e+00	 1.041329e+01
0	 5.259259e+00	 2.148148e+00	 1.041651e+01
0	 5.259259e+00	 2.222222e+00	 1.041937e+01
0	 5.333333e+00	 1.851852e+00	 1.038654e+01
0	 5.333333e+00	 1.925926e+00	 1.039099e+01
0	 5.333333e+00	 2.000000e+00	 1.039500e+01
0	 5.333333e+00	 2.074074e+00	 1.039861e+01
0	 5.333333e+00	 2.148148e+00	 1.040186e+01
0	 5.333333e+00	 2.222222e+00	 1.040477e+01
0	 5.407407e+00	 1.851852e+00	 1.037240e+01
0	 5.407407e+00	 1.925926e+00	 1.037676e+01
0	 5.407407e+00	 2.000000e+00	 1.038072e+01
0	 5.407407e+00	 2.074074e+00	 1.038432e+01
0	 5.407407e+00	 2.148148e+00	 1.038758e+01
0	 5.407407e+00	 2.222222e+00	 1.039054e+01
0	 5.481481e+00	 1.851852e+00	 1.035863e+01
0	 5.481481e+00	 1.925926e+00	 1.036291e+01
0	 5.481481e+00	 2.000000e+00	 1.036682e+01
0	 5.481481e+00	 2.074074e+00	 1.037038e+01
0	 5.481481e+00	 2.148148e+00	 1.037365e+01
0	 5.481481e+00	 2.222222e+00	 1.037663e+01
0	 5.555556e+00	 1.851852e+00	 1.034519e+01
0	 5.555556e+00	 1.925926e+00	 1.034938e+01
0	 5.555556e+00	 2.000000e+00	 1.035323e+01
0	 5.555556e+00	 2.074074e+00	 1.035677e+01
0	 5.555556e+00	 2.148148e+00	 1.036003e+01
0	 5.555556e+00	 2.222222e+00	 1.036303e+01
0	 5.185185e+00	 2.222222e+00	 1.043436e+01
0	 5.185185e+00	 2.296296e+00	 1.043671e+01
0	 5.185185e+00	 2.370370e+00	 1.043853e+01
0	 5.185185e+00	 2.444444e+00	 1.043985e+01
0	 5.185185e+00	 2.518519e+00	 1.044068e+01
0	 5.185185e+00	 2.592593e+00	 1.044103e+01
0	 5.259259e+00	 2.222222e+00	 1.041937e+01
0	 5.259259e+00	 2.296296e+00	 1.042182e+01
0	 5.259259e+00	 2.370370e+00	 1.042377e+01
0	 5.259259e+00	 2.444444e+00	 1.042524e+01
0	 5.259259e+00	 2.518519e+00	 1.042625e+01
0	 5.259259e+00	 2.592593e+00	 1.042682e+01
0	 5.333333e+00	 2.222222e+00	 1.040477e+01
0	 5.333333e+00	 2.296296e+00	 1.040730e+01
0	 5.333333e+00	 2.370370e+00	 1.040936e+01
0	 5.333333e+00	 2.444444e+00	 1.041097e+01
0	 5.333333e+00	 2.518519e+00	 1.041214e+01
0	 5.333333e+00	 2.592593e+00	 1.041290e+01
0	 5.407407e+00	 2.222222e+00	 1.039054e+01
0	 5.407407e+00	 2.296296e+00	 1.039313e+01
0	 5.407407e+00	 2.370370e+00	 1.039528e+01
0	 5.407407e+00	 2.444444e+00	 1.039700e+01
0	 5.407407e+00	 2.518519e+00	 1.039832e+01
0	 5.407407e+00	 2.592593e+00	 1.039924e+01
0	 5.481481e+00	 2.222222e+00	 1.037663e+01
0	 5.481481e+00	 2.296296e+00	 1.037928e+01
0	 5.481481e+00	 2.370370e+00	 1.038150e+01
0	 5.481481e+00	 2.444444e+00	 1.038333e+01
0	 5.481481e+00	 2.518519e+00	 1.038477e+01
0	 5.481481e+00	 2.592593e+00	 1.038584e+01
0	 5.555556e+00	 2.222222e+00	 1.036303e+01
0	 5.555556e+00	 2.296296e+00	 1.036572e+01
0	 5.555556e+00	 2.370370e+00	 1.036801e+01
0	 5.555556e+00	 2.444444e+00	 1.036992e+01
0	 5.555556e+00	 2.518519e+00	 1.037147e+01
0	 5.555556e+00	 2.592593e+00	 1.037267e+01
0	 5.185185e+00	 2.592593e+00	 1.044103e+01
0	 5.185185e+00	 2.666667e+00	 1.044092e+01
0	 5.185185e+00	 2.740741e+00	 1.044034e+01
0	 5.185185e+00	 2.814815e+00	 1.043927e+01
0	 5.185185e+00	 2.888889e+00	 1.043774e+01
0	 5.185185e+00	 2.962963e+00	 1.043573e+01
0	 5.259259e+00	 2.592593e+00	 1.042682e+01
0	 5.259259e+00	 2.666667e+00	 1.042694e+01
0	 5.259259e+00	 2.740741e+00	 1.042661e+01
0	 5.259259e+00	 2.814815e+00	 1.042582e+01
0	 5.259259e+00	 2.888889e+00	 1.042458e+01
0	 5.259259e+00	 2.962963e+00	 1.042289e+01
0	 5.333333e+00	 2.592593e+00	 1.041290e+01
0	 5.333333e+00	 2.666667e+00	 1.041323e+01
0	 5.333333e+00	 2.740741e+00	 1.041312e+01
0	 5.333333e+00	 2.814815e+00	 1.041258e+01
0	 5.333333e+00	 2.888889e+00	 1.041161e+01
0	 5.333333e+00	 2.962963e+00	 1.041021e+01
0	 5.407407e+00	 2.592593e+00	 1.039924e+01
0	 5.407407e+00	 2.666667e+00	 1.039976e+01
0	 5.407407e+00	 2.740741e+00	 1.039986e+01
0	 5.407407e+00	 2.814815e+00	 1.039954e+01
0	 5.407407e+00	 2.888889e+00	 1.039881e+01
0	 5.407407e+00	 2.962963e+00	 1.039767e+01
0	 5.481481e+00	 2.592593e+00	 1.038584e+01
0	 5.481481e+00	 2.666667e+00	 1.038653e+01
0	 5.481481e+00	 2.740741e+00	 1.038681e+01
0	 5.481481e+00	 2.814815e+00	 1.038670e+01
0	 5.481481e+00	 2.888889e+00	 1.038619e+01
0	 5.481481e+00	 2.962963e+00	 1.038529e+01
0	 5.555556e+00	 2.592593e+00	 1.037267e+01
0	 5.555556e+00	 2.666667e+00	 1.037351e+01
0	 5.555556e+00	 2.740741e+00	 1.037396e+01
0	 5.555556e+00	 2.814815e+00	 1.037403e+01
0	 5.555556e+00	 2.888889e+00	 1.037373e+01
0	 5.555556e+00	 2.962963e+00	 1.037305e+01
0	 5.185185e+00	 2.962963e+00	 1.043573e+01
0	 5.185185e+00	 3.037037e+00	 1.043329e+01
0	 5.185185e+00	 3.111111e+00	 1.043047e+01
0	 5.185185e+00	 3.185185e+00	 1.042725e+01
0	 5.185185e+00	 3.259259e+00	 1.042362e+01
0	 5.185185e+00	 3.333333e+00	 1.041957e+01
0	 5.259259e+00	 2.962963e+00	 1.042289e+01
0	 5.259259e+00	 3.037037e+00	 1.042079e+01
0	 5.259259e+00	 3.111111e+00	 1.041831e+01
0	 5.259259e+00	 3.185185e+00	 1.041543e+01
0	 5.259259e+00	 3.259259e+00	 1.041216e+01
0	 5.259259e+00	 3.333333e+00	 1.040849e+01
0	 5.333333e+00	 2.962963e+00	 1.041021e+01
0	 5.333333e+00	 3.037037e+00	 1.040841e+01
0	 5.333333e+00	 3.111111e+00	 1.040624e+01
0	 5.333333e+00	 3.185185e+00	 1.040369e+01
0	 5.333333e+00	 3.259259e+00	 1.040076e+01
0	 5.333333e+00	 3.333333e+00	 1.039743e+01
0	 5.407407e+00	 2.962963e+00	 1.039767e+01
0	 5.407407e+00	 3.037037e+00	 1.039615e+01
0	 5.407407e+00	 3.111111e+00	 1.039427e+01
0	 5.407407e+00	 3.185185e+00	 1.039202e+01
0	 5.407407e+00	 3.259259e+00	 1.038940e+01
0	 5.407407e+00	 3.333333e+00	 1.038641e+01
0	 5.481481e+00	 2.962963e+00	 1.038529e+01
0	 5.481481e+00	 3.037037e+00	 1.038402e+01
0	 5.481481e+00	 3.111111e+00	 1.038241e+01
0	 5.481481e+00	 3.185185e+00	 1.038044e+01
0	 5.481481e+00	 3.259259e+00	 1.037811e+01
0	 5.481481e+00	 3.333333e+00	 1.037542e+01
0	 5.555556e+00	 2.962963e+00	 1.037305e+01
0	 5.555556e+00	 3.037037e+00	 1.037202e+01
0	 5.555556e+00	 3.111111e+00	 1.037065e+01
0	 5.555556e+00	 3.185185e+00	 1.036895e+01
0	 5.555556e+00	 3.259259e+00	 1.036689e+01
0	 5.555556e+00	 3.333333e+00	 1.036449e+01
0	 5.185185e+00	 3.333333e+00	 1.041957e+01
0	 5.185185e+00	 3.407407e+00	 1.041517e+01
0	 5.185185e+00	 3.481481e+00	 1.041050e+01
0	 5.185185e+00	 3.555556e+00	 1.040554e+01
0	 5.185185e+00	 3.629630e+00	 1.040027e+01
0	 5.185185e+00	 3.703704e+00	 1.039468e+01
0	 5.259259e+00	 3.333333e+00	 1.040849e+01
0	 5.259259e+00	 3.407407e+00	 1.040447e+01
0	 5.259259e+00	 3.481481e+00	 1.040019e+01
0	 5.259259e+00	 3.555556e+00	 1.039561e+01
0	 5.259259e+00	 3.629630e+00	 1.039073e+01
0	 5.259259e+00	 3.703704e+00	 1.038553e+01
0	 5.333333e+00	 3.333333e+00	 1.039743e+01
0	 5.333333e+00	 3.407407e+00	 1.039378e+01
0	 5.333333e+00	 3.481481e+00	 1.038985e+01
0	 5.333333e+00	 3.555556e+00	 1.038563e+01
0	 5.333333e+00	 3.629630e+00	 1.038112e+01
0	 5.333333e+00	 3.703704e+00	 1.037629e+01
0	 5.407407e+00	 3.333333e+00	 1.038641e+01
0	 5.407407e+00	 3.407407e+00	 1.038309e+01
0	 5.407407e+00	 3.481481e+00	 1.037950e+01
0	 5.407407e+00	 3.555556e+00	 1.037562e+01
0	 5.407407e+00	 3.629630e+00	 1.037145e+01
0	 5.407407e+00	 3.703704e+00	 1.036698e+01
0	 5.481481e+00	 3.333333e+00	 1.037542e+01
0	 5.481481e+00	 3.407407e+00	 1.037242e+01
0	 5.481481e+00	 3.481481e+00	 1.036915e+01
0	 5.481481e+00	 3.555556e+00	 1.036559e+01
0	 5.481481e+00	 3.629630e+00	 1.036175e+01
0	 5.481481e+00	 3.703704e+00	 1.035760e+01
0	 5.555556e+00	 3.333333e+00	 1.036449e+01
0	 5.555556e+00	 3.407407e+00	 1.036179e+01
0	 5.555556e+00	 3.481481e+00	 1.035881e+01
0	 5.555556e+00	 3.555556e+00	 1.035556e+01
0	 5.555556e+00	 3.629630e+00	 1.035203e+01
0	 5.555556e+00	 3.703704e+00	 1.034820e+01
0	 5.185185e+00	 3.703704e+00	 1.039468e+01
0	 5.185185e+00	 3.777778e+00	 1.038885e+01
0	 5.185185e+00	 3.851852e+00	 1.038285e+01
0	 5.185185e+00	 3.925926e+00	 1.037665e+01
0	 5.185185e+00	 4.000000e+00	 1.037025e+01
0	 5.185185e+00	 4.074074e+00	 1.036363e+01
0	 5.259259e+00	 3.703704e+00	 1.038553e+01
0	 5.259259e+00	 3.777778e+00	 1.038009e+01
0	 5.259259e+00	 3.851852e+00	 1.037447e+01
0	 5.259259e+00	 3.925926e+00	 1.036866e+01
0	 5.259259e+00	 4.000000e+00	 1.036264e+01
0	 5.259259e+00	 4.074074e+00	 1.035639e+01
0	 5.333333e+00	 3.703704e+00	 1.037629e+01
0	 5.333333e+00	 3.777778e+00	 1.037122e+01
0	 5.333333e+00	 3.851852e+00	 1.036597e+01
0	 5.333333e+00	 3.925926e+00	 1.036052e+01
0	 5.333333e+00	 4.000000e+00	 1.035485e+01
0	 5.333333e+00	 4.074074e+00	 1.034896e+01
0	 5.407407e+00	 3.703704e+00	 1.036698e+01
0	 5.407407e+00	 3.777778e+00	 1.036226e+01
0	 5.407407e+00	 3.851852e+00	 1.035735e+01
0	 5.407407e+00	 3.925926e+00	 1.035224e+01
0	 5.407407e+00	 4.000000e+00	 1.034692e+01
0	 5.407407e+00	 4.074074e+00	 1.034138e+01
0	 5.481481e+00	 3.703704e+00	 1.035760e+01
0	 5.481481e+00	 3.777778e+00	 1.035322e+01
0	 5.481481e+00	 3.851852e+00	 1.034864e+01
0	 5.481481e+00	 3.925926e+00	 1.034386e+01
0	 5.481481e+00	 4.000000e+00	 1.033887e+01
0	 5.481481e+00	 4.074074e+00	 1.033366e+01
0	 5.555556e+00	 3.703704e+00	 1.034820e+01
0	 5.555556e+00	 3.777778e+00	 1.034412e+01
0	 5.555556e+00	 3.851852e+00	 1.033986e+01
0	 5.555556e+00	 3.925926e+00	 1.033540e+01
0	 5.555556e+00	 4.000000e+00	 1.033073e+01
0	 5.555556e+00	 4.074074e+00	 1.032584e+01
0	 5.185185e+00	 4.074074e+00	 1.036363e+01
0	 5.185185e+00	 4.148148e+00	 1.035685e+01
0	 5.185185e+00	 4.222222e+00	 1.035000e+01
0	 5.185185e+00	 4.296296e+00	 1.034306e+01
0	 5.185185e+00	 4.370370e+00	 1.033602e+01
0	 5.185185e+00	 4.444444e+00	 1.032884e+01
0	 5.259259e+00	 4.074074e+00	 1.035639e+01
0	 5.259259e+00	 4.148148e+00	 1.034998e+01
0	 5.259259e+00	 4.222222e+00	 1.034349e+01
0	 5.259259e+00	 4.296296e+00	 1.033690e+01
0	 5.259259e+00	 4.370370e+00	 1.033020e+01
0	 5.259259e+00	 4.444444e+00	 1.032336e+01
0	 5.333333e+00	 4.074074e+00	 1.034896e+01
0	 5.333333e+00	 4.148148e+00	 1.034291e+01
0	 5.333333e+00	 4.222222e+00	 1.033677e+01
0	 5.333333e+00	 4.296296e+00	 1.033052e+01
0	 5.333333e+00	 4.370370e+00	 1.032415e+01
0	 5.333333e+00	 4.444444e+00	 1.031764e+01
0	 5.407407e+00	 4.074074e+00	 1.034138e+01
0	 5.407407e+00	 4.148148e+00	 1.033567e+01
0	 5.407407e+00	 4.222222e+00	 1.032986e+01
0	 5.407407e+00	 4.296296e+00	 1.032394e+01
0	 5.407407e+00	 4.370370e+00	 1.031789e+01
0	 5.407407e+00	 4.444444e+00	 1.031169e+01
0	 5.481481e+00	 4.074074e+00	 1.033366e+01
0	 5.481481e+00	 4.148148e+00	 1.032828e+01
0	 5.481481e+00	 4.222222e+00	 1.032280e+01
0	 5.481481e+00	 4.296296e+00	 1.031719e+01
0	 5.481481e+00	 4.370370e+00	 1.031145e+01
0	 5.481481e+00	 4.444444e+00	 1.030556e+01
0	 5.555556e+00	 4.074074e+00	 1.032584e+01
0	 5.555556e+00	 4.148148e+00	 1.032078e+01
0	 5.555556e+00	 4.222222e+00	 1.031560e+01
0	 5.555556e+00	 4.296296e+00	 1.031030e+01
0	 5.555556e+00	 4.370370e+00	 1.030486e+01
0	 5.555556e+00	 4.444444e+00	 1.029926e+01
0	 5.185185e+00	 4.444444e+00	 1.032884e+01
0	 5.185185e+00	 4.518519e+00	 1.032161e+01
0	 5.185185e+00	 4.592593e+00	 1.031437e+01
0	 5.185185e+00	 4.666667e+00	 1.030711e+01
0	 5.185185e+00	 4.740741e+00	 1.029982e+01
0	 5.185185e+00	 4.814815e+00	 1.029249e+01
0	 5.259259e+00	 4.444444e+00	 1.032336e+01
0	 5.259259e+00	 4.518519e+00	 1.031646e+01
0	 5.259259e+00	 4.592593e+00	 1.030953e+01
0	 5.259259e+00	 4.666667e+00	 1.030258e+01
0	 5.259259e+00	 4.740741e+00	 1.029558e+01
0	 5.259259e+00	 4.814815e+00	 1.028853e+01
0	 5.333333e+00	 4.444444e+00	 1.031764e+01
0	 5.333333e+00	 4.518519e+00	 1.031105e+01
0	 5.333333e+00	 4.592593e+00	 1.030443e+01
0	 5.333333e+00	 4.666667e+00	 1.029777e+01
0	 5.333333e+00	 4.740741e+00	 1.029106e+01
0	 5.333333e+00	 4.814815e+00	 1.028429e+01
0	 5.407407e+00	 4.444444e+00	 1.031169e+01
0	 5.407407e+00	 4.518519e+00	 1.030541e+01
0	 5.407407e+00	 4.592593e+00	 1.029909e+01
0	 5.407407e+00	 4.666667e+00	 1.029272e+01
0	 5.407407e+00	 4.740741e+00	 1.028629e+01
0	 5.407407e+00	 4.814815e+00	 1.027980e+01
0	 5.481481e+00	 4.444444e+00	 1.030556e+01
0	 5.481481e+00	 4.518519e+00	 1.029957e+01
0	 5.481481e+00	 4.592593e+00	 1.029354e+01
0	 5.481481e+00	 4.666667e+00	 1.028746e+01
0	 5.481481e+00	 4.740741e+00	 1.028131e+01
0	 5.481481e+00	 4.814815e+00	 1.027508e+01
0	 5.555556e+00	 4.444444e+00	 1.029926e+01
0	 5.555556e+00	 4.518519e+00	 1.029357e+01
0	 5.555556e+00	 4.592593e+00	 1.028782e+01
0	 5.555556e+00	 4.666667e+00	 1.028202e+01
0	 5.555556e+00	 4.740741e+00	 1.027614e+01
0	 5.555556e+00	 4.814815e+00	 1.027018e+01
0	 5.185185e+00	 4.814815e+00	 1.029249e+01
0	 5.185185e+00	 4.888889e+00	 1.028515e+01
0	 5.185185e+00	 4.962963e+00	 1.027787e+01
0	 5.185185e+00	 5.037037e+00	 1.027062e+01
0	 5.185185e+00	 5.111111e+00	 1.026340e+01
0	 5.185185e+00	 5.185185e+00	 1.025620e+01
0	 5.259259e+00	 4.814815e+00	 1.028853e+01
0	 5.259259e+00	 4.888889e+00	 1.028146e+01
0	 5.259259e+00	 4.962963e+00	 1.027444e+01
0	 5.259259e+00	 5.037037e+00	 1.026745e+01
0	 5.259259e+00	 5.111111e+00	 1.026047e+01
0	 5.259259e+00	 5.185185e+00	 1.025350e+01
0	 5.333333e+00	 4.814815e+00	 1.028429e+01
0	 5.333333e+00	 4.888889e+00	 1.027750e+01
0	 5.333333e+00	 4.962963e+00	 1.027073e+01
0	 5.333333e+00	 5.037037e+00	 1.026399e+01
0	 5.333333e+00	 5.111111e+00	 1.025725e+01
0	 5.333333e+00	 5.185185e+00	 1.025051e+01
0	 5.407407e+00	 4.814815e+00	 1.027980e+01
0	 5.407407e+00	 4.888889e+00	 1.027327e+01
0	 5.407407e+00	 4.962963e+00	 1.026677e+01
0	 5.407407e+00	 5.037037e+00	 1.026027e+01
0	 5.407407e+00	 5.111111e+00	 1.025377e+01
0	 5.407407e+00	 5.185185e+00	 1.024725e+01
0	 5.481481e+00	 4.814815e+00	 1.027508e+01
0	 5.481481e+00	 4.888889e+00	 1.026882e+01
0	 5.481481e+00	 4.962963e+00	 1.026257e+01
0	 5.481481e+00	 5.037037e+00	 1.025631e+01
0	 5.481481e+00	 5.111111e+00	 1.025004e+01
0	 5.481481e+00	 5.185185e+00	 1.024376e+01
0	 5.555556e+00	 4.814815e+00	 1.027018e+01
0	 5.555556e+00	 4.888889e+00	 1.026417e+01
0	 5.555556e+00	 4.962963e+00	 1.025817e+01
0	 5.555556e+00	 5.037037e+00	 1.025215e+01
0	 5.555556e+00	 5.111111e+00	 1.024611e+01
0	 5.555556e+00	 5.185185e+00	 1.024005e+01
0	 5.185185e+00	 5.185185e+00	 1.025620e+01
0	 5.185185e+00	 5.259259e+00	 1.024905e+01
0	 5.185185e+00	 5.333333e+00	 1.024199e+01
0	 5.185185e+00	 5.407407e+00	 1.023500e+01
0	 5.185185e+00	 5.481481e+00	 1.022807e+01
0	 5.185185e+00	 5.555556e+00	 1.022121e+01
0	 5.259259e+00	 5.185185e+00	 1.025350e+01
0	 5.259259e+00	 5.259259e+00	 1.024657e+01
0	 5.259259e+00	 5.333333e+00	 1.023971e+01
0	 5.259259e+00	 5.407407e+00	 1.023292e+01
0	 5.259259e+00	 5.481481e+00	 1.022618e+01
0	 5.259259e+00	 5.555556e+00	 1.021949e+01
0	 5.333333e+00	 5.185185e+00	 1.025051e+01
0	 5.333333e+00	 5.259259e+00	 1.024380e+01
0	 5.333333e+00	 5.333333e+00	 1.023715e+01
0	 5.333333e+00	 5.407407e+00	 1.023055e+01
0	 5.333333e+00	 5.481481e+00	 1.022400e+01
0	 5.333333e+00	 5.555556e+00	 1.021749e+01
0	 5.407407e+00	 5.185185e+00	 1.024725e+01
0	 5.407407e+00	 5.259259e+00	 1.024076e+01
0	 5.407407e+00	 5.333333e+00	 1.023431e+01
0	 5.407407e+00	 5.407407e+00	 1.022792e+01
0	 5.407407e+00	 5.481481e+00	 1.022156e+01
0	 5.407407e+00	 5.555556e+00	 1.021523e+01
0	 5.481481e+00	 5.185185e+00	 1.024376e+01
0	 5.481481e+00	 5.259259e+00	 1.023748e+01
0	 5.481481e+00	 5.333333e+00	 1.023124e+01
0	 5.481481e+00	 5.407407e+00	 1.022505e+01
0	 5.481481e+00	 5.481481e+00	 1.021888e+01
0	 5.481481e+00	 5.555556e+00	 1.021273e+01
0	 5.555556e+00	 5.185185e+00	 1.024005e+01
0	 5.555556e+00	 5.259259e+00	 1.023398e+01
0	 5.555556e+00	 5.333333e+00	 1.022796e+01
0	 5.555556e+00	 5.407407e+00	 1.022196e+01
0	 5.555556e+00	 5.481481e+00	 1.021598e+01
0	 5.555556e+00	 5.555556e+00	 1.021002e+01
0	 5.185185e+00	 5.555556e+00	 1.022121e+01
0	 5.185185e+00	 5.629630e+00	 1.021442e+01
0	 5.185185e+00	 5.703704e+00	 1.020775e+01
0	 5.185185e+00	 5.777778e+00	 1.020116e+01
0	 5.185185e+00	 5.851852e+00	 1.019468e+01
0	 5.185185e+00	 5.925926e+00	 1.018827e+01
0	 5.259259e+00	 5.555556e+00	 1.021949e+01
0	 5.259259e+00	 5.629630e+00	 1.021287e+01
0	 5.259259e+00	 5.703704e+00	 1.020635e+01
0	 5.259259e+00	 5.777778e+00	 1.019992e+01
0	 5.259259e+00	 5.851852e+00	 1.019357e+01
0	 5.259259e+00	 5.925926e+00	 1.018730e+01
0	 5.333333e+00	 5.555556e+00	 1.021749e+01
0	 5.333333e+00	 5.629630e+00	 1.021104e+01
0	 5.333333e+00	 5.703704e+00	 1.020468e+01
0	 5.333333e+00	 5.777778e+00	 1.019840e+01
0	 5.333333e+00	 5.851852e+00	 1.019220e+01
0	 5.333333e+00	 5.925926e+00	 1.018606e+01
0	 5.407407e+00	 5.555556e+00	 1.021523e+01
0	 5.407407e+00	 5.629630e+00	 1.020896e+01
0	 5.407407e+00	 5.703704e+00	 1.020276e+01
0	 5.407407e+00	 5.777778e+00	 1.019663e+01
0	 5.407407e+00	 5.851852e+00	 1.019057e+01
0	 5.407407e+00	 5.925926e+00	 1.018457e+01
0	 5.481481e+00	 5.555556e+00	 1.021273e+01
0	 5.481481e+00	 5.629630e+00	 1.020663e+01
0	 5.481481e+00	 5.703704e+00	 1.020060e+01
0	 5.481481e+00	 5.777778e+00	 1.019463e+01
0	 5.481481e+00	 5.851852e+00	 1.018872e+01
0	 5.481481e+00	 5.925926e+00	 1.018286e+01
0	 5.555556e+00	 5.555556e+00	 1.021002e+01
0	 5.555556e+00	 5.629630e+00	 1.020409e+01
0	 5.555556e+00	 5.703704e+00	 1.019823e+01
0	 5.555556e+00	 5.777778e+00	 1.019242e+01
0	 5.555556e+00	 5.851852e+00	 1.018666e+01
0	 5.555556e+00	 5.925926e+00	 1.018094e+01
0	 5.185185e+00	 5.925926e+00	 1.018827e+01
0	 5.185185e+00	 6.000000e+00	 1.018197e+01
0	 5.185185e+00	 6.074074e+00	 1.017578e+01
0	 5.185185e+00	 6.148148e+00	 1.016970e+01
0	 5.185185e+00	 6.222222e+00	 1.016373e+01
0	 5.185185e+00	 6.296296e+00	 1.015785e+01
0	 5.259259e+00	 5.925926e+00	 1.018730e+01
0	 5.259259e+00	 6.000000e+00	 1.018112e+01
0	 5.259259e+00	 6.074074e+00	 1.017504e+01
0	 5.259259e+00	 6.148148e+00	 1.016906e+01
0	 5.259259e+00	 6.222222e+00	 1.016318e+01
0	 5.259259e+00	 6.296296e+00	 1.015740e+01
0	 5.333333e+00	 5.925926e+00	 1.018606e+01
0	 5.333333e+00	 6.000000e+00	 1.018000e+01
0	 5.333333e+00	 6.074074e+00	 1.017404e+01
0	 5.333333e+00	 6.148148e+00	 1.016817e+01
0	 5.333333e+00	 6.222222e+00	 1.016240e+01
0	 5.333333e+00	 6.296296e+00	 1.015670e+01
0	 5.407407e+00	 5.925926e+00	 1.018457e+01
0	 5.407407e+00	 6.000000e+00	 1.017864e+01
0	 5.407407e+00	 6.074074e+00	 1.017280e+01
0	 5.407407e+00	 6.148148e+00	 1.016705e+01
0	 5.407407e+00	 6.222222e+00	 1.016138e+01
0	 5.407407e+00	 6.296296e+00	 1.015579e+01
0	 5.481481e+00	 5.925926e+00	 1.018286e+01
0	 5.481481e+00	 6.000000e+00	 1.017706e+01
0	 5.481481e+00	 6.074074e+00	 1.017135e+01
0	 5.481481e+00	 6.148148e+00	 1.016572e+01
0	 5.481481e+00	 6.222222e+00	 1.016016e+01
0	 5.481481e+00	 6.296296e+00	 1.015467e+01
0	 5.555556e+00	 5.925926e+00	 1.018094e+01
0	 5.555556e+00	 6.000000e+00	 1.017528e+01
0	 5.555556e+00	 6.074074e+00	 1.016970e+01
0	 5.555556e+00	 6.148148e+00	 1.016419e+01
0	 5.555556e+00	 6.222222e+00	 1.015875e+01
0	 5.555556e+00	 6.296296e+00	 1.015337e+01
0	 5.185185e+00	 6.296296e+00	 1.015785e+01
0	 5.185185e+00	 6.370370e+00	 1.015208e+01
0	 5.185185e+00	 6.444444e+00	 1.014642e+01
0	 5.185185e+00	 6.518519e+00	 1.014088e+01
0	 5.185185e+00	 6.592593e+00	 1.013545e+01
0	 5.185185e+00	 6.666667e+00	 1.013012e+01
0	 5.259259e+00	 6.296296e+00	 1.015740e+01
0	 5.259259e+00	 6.370370e+00	 1.015171e+01
0	 5.259259e+00	 6.444444e+00	 1.014613e+01
0	 5.259259e+00	 6.518519e+00	 1.014065e+01
0	 5.259259e+00	 6.592593e+00	 1.013528e+01
0	 5.259259e+00	 6.666667e+00	 1.013001e+01
0	 5.333333e+00	 6.296296e+00	 1.015670e+01
0	 5.333333e+00	 6.370370e+00	 1.015110e+01
0	 5.333333e+00	 6.444444e+00	 1.014561e+01
0	 5.333333e+00	 6.518519e+00	 1.014021e+01
0	 5.333333e+00	 6.592593e+00	 1.013491e+01
0	 5.333333e+00	 6.666667e+00	 1.012970e+01
0	 5.407407e+00	 6.296296e+00	 1.015579e+01
0	 5.407407e+00	 6.370370e+00	 1.015028e+01
0	 5.407407e+00	 6.444444e+00	 1.014487e+01
0	 5.407407e+00	 6.518519e+00	 1.013956e+01
0	 5.407407e+00	 6.592593e+00	 1.013433e+01
0	 5.407407e+00	 6.666667e+00	 1.012919e+01
0	 5.481481e+00	 6.296296e+00	 1.015467e+01
0	 5.481481e+00	 6.370370e+00	 1.014926e+01
0	 5.481481e+00	 6.444444e+00	 1.014395e+01
0	 5.481481e+00	 6.518519e+00	 1.013872e+01
0	 5.481481e+00	 6.592593e+00	 1.013357e+01
0	 5.481481e+00	 6.666667e+00	 1.012850e+01
0	 5.555556e+00	 6.296296e+00	 1.015337e+01
0	 5.555556e+00	 6.370370e+00	 1.014806e+01
0	 5.555556e+00	 6.444444e+00	 1.014284e+01
0	 5.555556e+00	 6.518519e+00	 1.013770e+01
0	 5.555556e+00	 6.592593e+00	 1.013263e+01
0	 5.555556e+00	 6.666667e+00	 1.012764e+01
0	 5.185185e+00	 6.666667e+00	 1.013012e+01
0	 5.185185e+00	 6.740741e+00	 1.012490e+01
0	 5.185185e+00	 6.814815e+00	 1.011979e+01
0	 5.185185e+00	 6.888889e+00	 1.011479e+01
0	 5.185185e+00	 6.962963e+00	 1.010990e+01
0	 5.185185e+00	 7.037037e+00	 1.010511e+01
0	 5.259259e+00	 6.666667e+00	 1.013001e+01
0	 5.259259e+00	 6.740741e+00	 1.012484e+01
0	 5.259259e+00	 6.814815e+00	 1.011978e+01
0	 5.259259e+00	 6.888889e+00	 1.011482e+01
0	 5.259259e+00	 6.962963e+00	 1.010996e+01
0	 5.259259e+00	 7.037037e+00	 1.010521e+01
0	 5.333333e+00	 6.666667e+00	 1.012970e+01
0	 5.333333e+00	 6.740741e+00	 1.012458e+01
0	 5.333333e+00	 6.814815e+00	 1.011957e+01
0	 5.333333e+00	 6.888889e+00	 1.011466e+01
0	 5.333333e+00	 6.962963e+00	 1.010985e+01
0	 5.333333e+00	 7.037037e+00	 1.010513e+01
0	 5.407407e+00	 6.666667e+00	 1.012919e+01
0	 5.407407e+00	 6.740741e+00	 1.012414e+01
0	 5.407407e+00	 6.814815e+00	 1.011919e+01
0	 5.407407e+00	 6.888889e+00	 1.011433e+01
0	 5.407407e+00	 6.962963e+00	 1.010957e+01
0	 5.407407e+00	 7.037037e+00	 1.010489e+01
0	 5.481481e+00	 6.666667e+00	 1.012850e+01
0	 5.481481e+00	 6.740741e+00	 1.012352e+01
0	 5.481481e+00	 6.814815e+00	 1.011863e+01
0	 5.481481e+00	 6.888889e+00	 1.011383e+01
0	 5.481481e+00	 6.962963e+00	 1.010912e+01
0	 5.481481e+00	 7.037037e+00	 1.010450e+01
0	 5.555556e+00	 6.666667e+00	 1.012764e+01
0	 5.555556e+00	 6.740741e+00	 1.012274e+01
0	 5.555556e+00	 6.814815e+00	 1.011792e+01
0	 5.555556e+00	 6.888889e+00	 1.011318e+01
0	 5.555556e+00	 6.962963e+00	 1.010853e+01
0	 5.555556e+00	 7.037037e+00	 1.010396e+01
0	 5.185185e+00	 7.037037e+00	 1.010511e+01
0	 5.185185e+00	 7.111111e+00	 1.010043e+01
0	 5.185185e+00	 7.185185e+00	 1.009586e+01
0	 5.185185e+00	 7.259259e+00	 1.009139e+01
0	 5.185185e+00	 7.333333e+00	 1.008702e+01
0	 5.185185e+00	 7.407407e+00	 1.008275e+01
0	 5.259259e+00	 7.037037e+00	 1.010521e+01
0	 5.259259e+00	 7.111111e+00	 1.010055e+01
0	 5.259259e+00	 7.185185e+00	 1.009600e+01
0	 5.259259e+00	 7.259259e+00	 1.009155e+01
0	 5.259259e+00	 7.333333e+00	 1.008720e+01
0	 5.259259e+00	 7.407407e+00	 1.008295e+01
0	 5.333333e+00	 7.037037e+00	 1.010513e+01
0	 5.333333e+00	 7.111111e+00	 1.010051e+01
0	 5.333333e+00	 7.185185e+00	 1.009599e+01
0	 5.333333e+00	 7.259259e+00	 1.009156e+01
0	 5.333333e+00	 7.333333e+00	 1.008724e+01
0	 5.333333e+00	 7.407407e+00	 1.008300e+01
0	 5.407407e+00	 7.037037e+00	 1.010489e+01
0	 5.407407e+00	 7.111111e+00	 1.010031e+01
0	 5.407407e+00	 7.185185e+00	 1.009582e+01
0	 5.407407e+00	 7.259259e+00	 1.009143e+01
0	 5.407407e+00	 7.333333e+00	 1.008713e+01
0	 5.407407e+00	 7.407407e+00	 1.008292e+01
0	 5.481481e+00	 7.037037e+00	 1.010450e+01
0	 5.481481e+00	 7.111111e+00	 1.009996e+01
0	 5.481481e+00	 7.185185e+00	 1.009551e+01
0	 5.481481e+00	 7.259259e+00	 1.009116e+01
0	 5.481481e+00	 7.333333e+00	 1.008690e+01
0	 5.481481e+00	 7.407407e+00	 1.008272e+01
0	 5.555556e+00	 7.037037e+00	 1.010396e+01
0	 5.555556e+00	 7.111111e+00	 1.009947e+01
0	 5.555556e+00	 7.185185e+00	 1.009508e+01
0	 5.555556e+00	 7.259259e+00	 1.009077e+01
0	 5.555556e+00	 7.333333e+00	 1.008654e+01
0	 5.555556e+00	 7.407407e+00	 1.008240e+01
0	 5.185185e+00	 7.407407e+00	 1.008275e+01
0	 5.185185e+00	 7.481481e+00	 1.007859e+01
0	 5.185185e+00	 7.555556e+00	 1.007453e+01
0	 5.185185e+00	 7.629630e+00	 1.007057e+01
0	 5.185185e+00	 7.703704e+00	 1.006671e+01
0	 5.185185e+00	 7.777778e+00	 1.006294e+01
0	 5.259259e+00	 7.407407e+00	 1.008295e+01
0	 5.259259e+00	 7.481481e+00	 1.007879e+01
0	 5.259259e+00	 7.555556e+00	 1.007474e+01
0	 5.259259e+00	 7.629630e+00	 1.007078e+01
0	 5.259259e+00	 7.703704e+00	 1.006692e+01
0	 5.259259e+00	 7.777778e+00	 1.006316e+01
0	 5.333333e+00	 7.407407e+00	 1.008300e+01
0	 5.333333e+00	 7.481481e+00	 1.007886e+01
0	 5.333333e+00	 7.555556e+00	 1.007482e+01
0	 5.333333e+00	 7.629630e+00	 1.007088e+01
0	 5.333333e+00	 7.703704e+00	 1.006703e+01
0	 5.333333e+00	 7.777778e+00	 1.006326e+01
0	 5.407407e+00	 7.407407e+00	 1.008292e+01
0	 5.407407e+00	 7.481481e+00	 1.007880e+01
0	 5.407407e+00	 7.555556e+00	 1.007478e+01
0	 5.407407e+00	 7.629630e+00	 1.007086e+01
0	 5.407407e+00	 7.703704e+00	 1.006702e+01
0	 5.407407e+00	 7.777778e+00	 1.006327e+01
0	 5.481481e+00	 7.407407e+00	 1.008272e+01
0	 5.481481e+00	 7.481481e+00	 1.007863e+01
0	 5.481481e+00	 7.555556e+00	 1.007463e+01
0	 5.481481e+00	 7.629630e+00	 1.007073e+01
0	 5.481481e+00	 7.703704e+00	 1.006691e+01
0	 5.481481e+00	 7.777778e+00	 1.006318e+01
0	 5.555556e+00	 7.407407e+00	 1.008240e+01
0	 5.555556e+00	 7.481481e+00	 1.007834e+01
0	 5.555556e+00	 7.555556e+00	 1.007437e+01
0	 5.555556e+00	 7.629630e+00	 1.007049e+01
0	 5.555556e+00	 7.703704e+00	 1.006670e+01
0	 5.555556e+00	 7.777778e+00	 1.006299e+01
0	 5.185185e+00	 7.777778e+00	 1.006294e+01
0	 5.185185e+00	 7.851852e+00	 1.005927e+01
0	 5.185185e+00	 7.925926e+00	 1.005571e+01
0	 5.185185e+00	 8.000000e+00	 1.005224e+01
0	 5.185185e+00	 8.074074e+00	 1.004887e+01
0	 5.185185e+00	 8.148148e+00	 1.004559e+01
0	 5.259259e+00	 7.777778e+00	 1.006316e+01
0	 5.259259e+00	 7.851852e+00	 1.005949e+01
0	 5.259259e+00	 7.925926e+00	 1.005592e+01
0	 5.259259e+00	 8.000000e+00	 1.005244e+01
0	 5.259259e+00	 8.074074e+00	 1.004906e+01
0	 5.259259e+00	 8.148148e+00	 1.004578e+01
0	 5.333333e+00	 7.777778e+00	 1.006326e+01
0	 5.333333e+00	 7.851852e+00	 1.005960e+01
0	 5.333333e+00	 7.925926e+00	 1.005603e+01
0	 5.333333e+00	 8.000000e+00	 1.005256e+01
0	 5.333333e+00	 8.074074e+00	 1.004918e+01
0	 5.333333e+00	 8.148148e+00	 1.004589e+01
0	 5.407407e+00	 7.777778e+00	 1.006327e+01
0	 5.407407e+00	 7.851852e+00	 1.005961e+01
0	 5.407407e+00	 7.925926e+00	 1.005605e+01
0	 5.407407e+00	 8.000000e+00	 1.005259e+01
0	 5.407407e+00	 8.074074e+00	 1.004921e+01
0	 5.407407e+00	 8.148148e+00	 1.004592e+01
0	 5.481481e+00	 7.777778e+00	 1.006318e+01
0	 5.481481e+00	 7.851852e+00	 1.005953e+01
0	 5.481481e+00	 7.925926e+00	 1.005599e+01
0	 5.481481e+00	 8.000000e+00	 1.005253e+01
0	 5.481481e+00	 8.074074e+00	 1.004917e+01
0	 5.481481e+00	 8.148148e+00	 1.004589e+01
0	 5.555556e+00	 7.777778e+00	 1.006299e+01
0	 5.555556e+00	 7.851852e+00	 1.005937e+01
0	 5.555556e+00	 7.925926e+00	 1.005584e+01
0	 5.555556e+00	 8.000000e+00	 1.005240e+01
0	 5.555556e+00	 8.074074e+00	 1.004905e+01
0	 5.555556e+00	 8.148148e+00	 1.004578e+01
0	 5.185185e+00	 8.148148e+00	 1.004559e+01
0	 5.185185e+00	 8.222222e+00	 1.004240e+01
0	 5.185185e+00	 8.296296e+00	 1.003932e+01
0	 5.185185e+00	 8.370370e+00	 1.003634e+01
0	 5.185185e+00	 8.444444e+00	 1.003346e+01
0	 5.185185e+00	 8.518519e+00	 1.003067e+01
0	 5.259259e+00	 8.148148e+00	 1.004578e+01
0	 5.259259e+00	 8.222222e+00	 1.004259e+01
0	 5.259259e+00	 8.296296e+00	 1.003950e+01
0	 5.259259e+00	 8.370370e+00	 1.003651e+01
0	 5.259259e+00	 8.444444e+00	 1.003361e+01
0	 5.259259e+00	 8.518519e+00	 1.003081e+01
0	 5.333333e+00	 8.148148e+00	 1.004589e+01
0	 5.333333e+00	 8.222222e+00	 1.004269e+01
0	 5.333333e+00	 8.296296e+00	 1.003960e+01
0	 5.333333e+00	 8.370370e+00	 1.003660e+01
0	 5.333333e+00	 8.444444e+00	 1.003370e+01
0	 5.333333e+00	 8.518519e+00	 1.003089e+01
0	 5.407407e+00	 8.148148e+00	 1.004592e+01
0	 5.407407e+00	 8.222222e+00	 1.004273e+01
0	 5.407407e+00	 8.296296e+00	 1.003964e+01
0	 5.407407e+00	 8.370370e+00	 1.003664e+01
0	 5.407407e+00	 8.444444e+00	 1.003374e+01
0	 5.407407e+00	 8.518519e+00	 1.003093e+01
0	 5.481481e+00	 8.148148e+00	 1.004589e+01
0	 5.481481e+00	 8.222222e+00	 1.004270e+01
0	 5.481481e+00	 8.296296e+00	 1.003961e+01
0	 5.481481e+00	 8.370370e+00	 1.003662e+01
0	 5.481481e+00	 8.444444e+00	 1.003372e+01
0	 5.481481e+00	 8.518519e+00	 1.003091e+01
0	 5.555556e+00	 8.148148e+00	 1.004578e+01
0	 5.555556e+00	 8.222222e+00	 1.004260e+01
0	 5.555556e+00	 8.296296e+00	 1.003953e+01
0	 5.555556e+00	 8.370370e+00	 1.003655e+01
0	 5.555556e+00	 8.444444e+00	 1.003366e+01
0	 5.555556e+00	 8.518519e+00	 1.003085e+01
0	 5.185185e+00	 8.518519e+00	 1.003067e+01
0	 5.185185e+00	 8.592593e+00	 1.002798e+01
0	 5.185185e+00	 8.666667e+00	 1.002540e+01
0	 5.185185e+00	 8.740741e+00	 1.002293e+01
0	 5.185185e+00	 8.814815e+00	 1.002056e+01
0	 5.185185e+00	 8.888889e+00	 1.001828e+01
0	 5.259259e+00	 8.518519e+00	 1.003081e+01
0	 5.259259e+00	 8.592593e+00	 1.002811e+01
0	 5.259259e+00	 8.666667e+00	 1.002552e+01
0	 5.259259e+00	 8.740741e+00	 1.002303e+01
0	 5.259259e+00	 8.814815e+00	 1.002065e+01
0	 5.259259e+00	 8.888889e+00	 1.001837e+01
0	 5.333333e+00	 8.518519e+00	 1.003089e+01
0	 5.333333e+00	 8.592593e+00	 1.002819e+01
0	 5.333333e+00	 8.666667e+00	 1.002559e+01
0	 5.333333e+00	 8.740741e+00	 1.002310e+01
0	 5.333333e+00	 8.814815e+00	 1.002071e+01
0	 5.333333e+00	 8.888889e+00	 1.001842e+01
0	 5.407407e+00	 8.518519e+00	 1.003093e+01
0	 5.407407e+00	 8.592593e+00	 1.002822e+01
0	 5.407407e+00	 8.666667e+00	 1.002562e+01
0	 5.407407e+00	 8.740741e+00	 1.002313e+01
0	 5.407407e+00	 8.814815e+00	 1.002073e+01
0	 5.407407e+00	 8.888889e+00	 1.001844e+01
0	 5.481481e+00	 8.518519e+00	 1.003091e+01
0	 5.481481e+00	 8.592593e+00	 1.002821e+01
0	 5.481481e+00	 8.666667e+00	 1.002561e+01
0	 5.481481e+00	 8.740741e+00	 1.002312e+01
0	 5.481481e+00	 8.814815e+00	 1.002073e+01
0	 5.481481e+00	 8.888889e+00	 1.001843e+01
0	 5.555556e+00	 8.518519e+00	 1.003085e+01
0	 5.555556e+00	 8.592593e+00	 1.002815e+01
0	 5.555556e+00	 8.666667e+00	 1.002556e+01
0	 5.555556e+00	 8.740741e+00	 1.002307e+01
0	 5.555556e+00	 8.814815e+00	 1.002069e+01
0	 5.555556e+00	 8.888889e+00	 1.001840e+01
0	 5.185185e+00	 8.888889e+00	 1.001828e+01
0	 5.185185e+00	 8.962963e+00	 1.001612e+01
0	 5.185185e+00	 9.037037e+00	 1.001409e+01
0	 5.185185e+00	 9.111111e+00	 1.001217e+01
0	 5.185185e+00	 9.185185e+00	 1.001037e+01
0	 5.185185e+00	 9.259259e+00	 1.000868e+01
0	 5.259259e+00	 8.888889e+00	 1.001837e+01
0	 5.259259e+00	 8.962963e+00	 1.001619e+01
0	 5.259259e+00	 9.037037e+00	 1.001415e+01
0	 5.259259e+00	 9.111111e+00	 1.001222e+01
0	 5.259259e+00	 9.185185e+00	 1.001042e+01
0	 5.259259e+00	 9.259259e+00	 1.000872e+01
0	 5.333333e+00	 8.888889e+00	 1.001842e+01
0	 5.333333e+00	 8.962963e+00	 1.001624e+01
0	 5.333333e+00	 9.037037e+00	 1.001419e+01
0	 5.333333e+00	 9.111111e+00	 1.001226e+01
0	 5.333333e+00	 9.185185e+00	 1.001044e+01
0	 5.333333e+00	 9.259259e+00	 1.000874e+01
0	 5.407407e+00	 8.888889e+00	 1.001844e+01
0	 5.407407e+00	 8.962963e+00	 1.001626e+01
0	 5.407407e+00	 9.037037e+00	 1.001420e+01
0	 5.407407e+00	 9.111111e+00	 1.001227e+01
0	 5.407407e+00	 9.185185e+00	 1.001045e+01
0	 5.407407e+00	 9.259259e+00	 1.000875e+01
0	 5.481481e+00	 8.888889e+00	 1.001843e+01
0	 5.481481e+00	 8.962963e+00	 1.001625e+01
0	 5.481481e+00	 9.037037e+00	 1.001420e+01
0	 5.481481e+00	 9.111111e+00	 1.001226e+01
0	 5.481481e+00	 9.185185e+00	 1.001045e+01
0	 5.481481e+00	 9.259259e+00	 1.000874e+01
0	 5.555556e+00	 8.888889e+00	 1.001840e+01
0	 5.555556e+00	 8.962963e+00	 1.001622e+01
0	 5.555556e+00	 9.037037e+00	 1.001417e+01
0	 5.555556e+00	 9.111111e+00	 1.001224e+01
0	 5.555556e+00	 9.185185e+00	 1.001043e+01
0	 5.555556e+00	 9.259259e+00	 1.000872e+01
0	 5.185185e+00	 9.259259e+00	 1.000868e+01
0	 5.185185e+00	 9.333333e+00	 1.000712e+01
0	 5.185185e+00	 9.407407e+00	 1.000571e+01
0	 5.185185e+00	 9.481481e+00	 1.000445e+01
0	 5.185185e+00	 9.555556e+00	 1.000333e+01
0	 5.185185e+00	 9.629630e+00	 1.000234e+01
0	 5.259259e+00	 9.259259e+00	 1.000872e+01
0	 5.259259e+00	 9.333333e+00	 1.000715e+01
0	 5.259259e+00	 9.407407e+00	 1.000574e+01
0	 5.259259e+00	 9.481481e+00	 1.000447e+01
0	 5.259259e+00	 9.555556e+00	 1.000334e+01
0	 5.259259e+00	 9.629630e+00	 1.000235e+01
0	 5.333333e+00	 9.259259e+00	 1.000874e+01
0	 5.333333e+00	 9.333333e+00	 1.000716e+01
0	 5.333333e+00	 9.407407e+00	 1.000575e+01
0	 5.333333e+00	 9.481481e+00	 1.000448e+01
0	 5.333333e+00	 9.555556e+00	 1.000335e+01
0	 5.333333e+00	 9.629630e+00	 1.000235e+01
0	 5.407407e+00	 9.259259e+00	 1.000875e+01
0	 5.407407e+00	 9.333333e+00	 1.000717e+01
0	 5.407407e+00	 9.407407e+00	 1.000575e+01
0	 5.407407e+00	 9.481481e+00	 1.000448e+01
0	 5.407407e+00	 9.555556e+00	 1.000335e+01
0	 5.407407e+00	 9.629630e+00	 1.000235e+01
0	 5.481481e+00	 9.259259e+00	 1.000874e+01
0	 5.481481e+00	 9.333333e+00	 1.000717e+01
0	 5.481481e+00	 9.407407e+00	 1.000575e+01
0	 5.481481e+00	 9.481481e+00	 1.000448e+01
0	 5.481481e+00	 9.555556e+00	 1.000335e+01
0	 5.481481e+00	 9.629630e+00	 1.000235e+01
0	 5.555556e+00	 9.259259e+00	 1.000872e+01
0	 5.555556e+00	 9.333333e+00	 1.000715e+01
0	 5.555556e+00	 9.407407e+00	 1.000573e+01
0	 5.555556e+00	 9.481481e+00	 1.000447e+01
0	 5.555556e+00	 9.555556e+00	 1.000334e+01
0	 5.555556e+00	 9.629630e+00	 1.000234e+01
0	 5.185185e+00	 9.629630e+00	 1.000234e+01
0	 5.185185e+00	 9.703704e+00	 1.000151e+01
0	 5.185185e+00	 9.777778e+00	 1.000086e+01
0	 5.185185e+00	 9.851852e+00	 1.000040e+01
0	 5.185185e+00	 9.925926e+00	 1.000011e+01
0	 5.185185e+00	 1.000000e+01	 9.999973e+00
0	 5.259259e+00	 9.629630e+00	 1.000235e+01
0	 5.259259e+00	 9.703704e+00	 1.000151e+01
0	 5.259259e+00	 9.777778e+00	 1.000087e+01
0	 5.259259e+00	 9.851852e+00	 1.000040e+01
0	 5.259259e+00	 9.925926e+00	 1.000011e+01
0	 5.259259e+00	 1.000000e+01	 9.999973e+00
0	 5.333333e+00	 9.629630e+00	 1.000235e+01
0	 5.333333e+00	 9.703704e+00	 1.000151e+01
0	 5.333333e+00	 9.777778e+00	 1.000087e+01
0	 5.333333e+00	 9.851852e+00	 1.000040e+01
0	 5.333333e+00	 9.925926e+00	 1.000011e+01
0	 5.333333e+00	 1.000000e+01	 9.999973e+00
0	 5.407407e+00	 9.629630e+00	 1.000235e+01
0	 5.407407e+00	 9.703704e+00	 1.000151e+01
0	 5.407407e+00	 9.777778e+00	 1.000087e+01
0	 5.407407e+00	 9.851852e+00	 1.000040e+01
0	 5.407407e+00	 9.925926e+00	 1.000011e+01
0	 5.407407e+00	 1.000000e+01	 9.999973e+00
0	 5.481481e+00	 9.629630e+00	 1.000235e+01
0	 5.481481e+00	 9.703704e+00	 1.000151e+01
0	 5.481481e+00	 9.777778e+00	 1.000087e+01
0	 5.481481e+00	 9.851852e+00	 1.000040e+01
0	 5.481481e+00	 9.925926e+00	 1.000011e+01
0	 5.481481e+00	 1.000000e+01	 9.999974e+00
0	 5.555556e+00	 9.629630e+00	 1.000234e+01
0	 5.555556e+00	 9.703704e+00	 1.000151e+01
0	 5.555556e+00	 9.777778e+00	 1.000086e+01
0	 5.555556e+00	 9.851852e+00	 1.000040e+01
0	 5.555556e+00	 9.925926e+00	 1.000011e+01
0	 5.555556e+00	 1.000000e+01	 9.999975e+00
0	 5.555556e+00	 0.000000e+00	 1.025110e+01
0	 5.555556e+00	 7.407407e-02	 1.025135e+01
0	 5.555556e+00	 1.481481e-01	 1.025202e+01
0	 5.555556e+00	 2.222222e-01	 1.025314e+01
0	 5.555556e+00	 2.962963e-01	 1.025471e+01
0	 5.555556e+00	 3.703704e-01	 1.025675e+01
0	 5.629630e+00	 0.000000e+00	 1.024169e+01
0	 5.629630e+00	 7.407407e-02	 1.024195e+01
0	 5.629630e+00	 1.481481e-01	 1.024261e+01
0	 5.629630e+00	 2.222222e-01	 1.024368e+01
0	 5.629630e+00	 2.962963e-01	 1.024519e+01
0	 5.629630e+00	 3.703704e-01	 1.024713e+01
0	 5.703704e+00	 0.000000e+00	 1.023241e+01
0	 5.703704e+00	 7.407407e-02	 1.023266e+01
0	 5.703704e+00	 1.481481e-01	 1.023330e+01
0	 5.703704e+00	 2.222222e-01	 1.023434e+01
0	 5.703704e+00	 2.962963e-01	 1.023578e+01
0	 5.703704e+00	 3.703704e-01	 1.023764e+01
0	 5.777778e+00	 0.000000e+00	 1.022328e+01
0	 5.777778e+00	 7.407407e-02	 1.022350e+01
0	 5.777778e+00	 1.481481e-01	 1.022411e+01
0	 5.777778e+00	 2.222222e-01	 1.022511e+01
0	 5.777778e+00	 2.962963e-01	 1.022650e+01
0	 5.777778e+00	 3.703704e-01	 1.022829e+01
0	 5.851852e+00	 0.000000e+00	 1.021430e+01
0	 5.851852e+00	 7.407407e-02	 1.021449e+01
0	 5.851852e+00	 1.481481e-01	 1.021507e+01
0	 5.851852e+00	 2.222222e-01	 1.021602e+01
0	 5.851852e+00	 2.962963e-01	 1.021735e+01
0	 5.851852e+00	 3.703704e-01	 1.021907e+01
0	 5.925926e+00	 0.000000e+00	 1.020549e+01
0	 5.925926e+00	 7.407407e-02	 1.020565e+01
0	 5.925926e+00	 1.481481e-01	 1.020618e+01
0	 5.925926e+00	 2.222222e-01	 1.020707e+01
0	 5.925926e+00	 2.962963e-01	 1.020834e+01
0	 5.925926e+00	 3.703704e-01	 1.020999e+01
0	 5.555556e+00	 3.703704e-01	 1.025675e+01
0	 5.555556e+00	 4.444444e-01	 1.025919e+01
0	 5.555556e+00	 5.185185e-01	 1.026197e+01
0	 5.555556e+00	 5.925926e-01	 1.026513e+01
0	 5.555556e+00	 6.666667e-01	 1.026869e+01
0	 5.555556e+00	 7.407407e-01	 1.027268e+01
0	 5.629630e+00	 3.703704e-01	 1.024713e+01
0	 5.629630e+00	 4.444444e-01	 1.024944e+01
0	 5.629630e+00	 5.185185e-01	 1.025209e+01
0	 5.629630e+00	 5.925926e-01	 1.025510e+01
0	 5.629630e+00	 6.666667e-01	 1.025849e+01
0	 5.629630e+00	 7.407407e-01	 1.026229e+01
0	 5.703704e+00	 3.703704e-01	 1.023764e+01
0	 5.703704e+00	 4.444444e-01	 1.023986e+01
0	 5.703704e+00	 5.185185e-01	 1.024239e+01
0	 5.703704e+00	 5.925926e-01	 1.024526e+01
0	 5.703704e+00	 6.666667e-01	 1.024849e+01
0	 5.703704e+00	 7.407407e-01	 1.025211e+01
0	 5.777778e+00	 3.703704e-01	 1.022829e+01
0	 5.777778e+00	 4.444444e-01	 1.023042e+01
0	 5.777778e+00	 5.185185e-01	 1.023285e+01
0	 5.777778e+00	 5.925926e-01	 1.023559e+01
0	 5.777778e+00	 6.666667e-01	 1.023868e+01
0	 5.777778e+00	 7.407407e-01	 1.024213e+01
0	 5.851852e+00	 3.703704e-01	 1.021907e+01
0	 5.851852e+00	 4.444444e-01	 1.022113e+01
0	 5.851852e+00	 5.185185e-01	 1.022345e+01
0	 5.851852e+00	 5.925926e-01	 1.022608e+01
0	 5.851852e+00	 6.666667e-01	 1.022902e+01
0	 5.851852e+00	 7.407407e-01	 1.023231e+01
0	 5.925926e+00	 3.703704e-01	 1.020999e+01
0	 5.925926e+00	 4.444444e-01	 1.021196e+01
0	 5.925926e+00	 5.185185e-01	 1.021419e+01
0	 5.925926e+00	 5.925926e-01	 1.021669e+01
0	 5.925926e+00	 6.666667e-01	 1.021951e+01
0	 5.925926e+00	 7.407407e-01	 1.022264e+01
0	 5.555556e+00	 7.407407e-01	 1.027268e+01
0	 5.555556e+00	 8.148148e-01	 1.027696e+01
0	 5.555556e+00	 8.888889e-01	 1.028137e+01
0	 5.555556e+00	 9.629630e-01	 1.028595e+01
0	 5.555556e+00	 1.037037e+00	 1.029075e+01
0	 5.555556e+00	 1.111111e+00	 1.029581e+01
0	 5.629630e+00	 7.407407e-01	 1.026229e+01
0	 5.629630e+00	 8.148148e-01	 1.026636e+01
0	 5.629630e+00	 8.888889e-01	 1.027057e+01
0	 5.629630e+00	 9.629630e-01	 1.027494e+01
0	 5.629630e+00	 1.037037e+00	 1.027951e+01
0	 5.629630e+00	 1.111111e+00	 1.028434e+01
0	 5.703704e+00	 7.407407e-01	 1.025211e+01
0	 5.703704e+00	 8.148148e-01	 1.025599e+01
0	 5.703704e+00	 8.888889e-01	 1.026000e+01
0	 5.703704e+00	 9.629630e-01	 1.026417e+01
0	 5.703704e+00	 1.037037e+00	 1.026855e+01
0	 5.703704e+00	 1.111111e+00	 1.027316e+01
0	 5.777778e+00	 7.407407e-01	 1.024213e+01
0	 5.777778e+00	 8.148148e-01	 1.024582e+01
0	 5.777778e+00	 8.888889e-01	 1.024964e+01
0	 5.777778e+00	 9.629630e-01	 1.025363e+01
0	 5.777778e+00	 1.037037e+00	 1.025782e+01
0	 5.777778e+00	 1.111111e+00	 1.026225e+01
0	 5.851852e+00	 7.407407e-01	 1.023231e+01
0	 5.851852e+00	 8.148148e-01	 1.023583e+01
0	 5.851852e+00	 8.888889e-01	 1.023948e+01
0	 5.851852e+00	 9.629630e-01	 1.024330e+01
0	 5.851852e+00	 1.037037e+00	 1.024732e+01
0	 5.851852e+00	 1.111111e+00	 1.025158e+01
0	 5.925926e+00	 7.407407e-01	 1.022264e+01
0	 5.925926e+00	 8.148148e-01	 1.022600e+01
0	 5.925926e+00	 8.888889e-01	 1.022950e+01
0	 5.925926e+00	 9.629630e-01	 1.023316e+01
0	 5.925926e+00	 1.037037e+00	 1.023702e+01
0	 5.925926e+00	 1.111111e+00	 1.024111e+01
0	 5.555556e+00	 1.111111e+00	 1.029581e+01
0	 5.555556e+00	 1.185185e+00	 1.030095e+01
0	 5.555556e+00	 1.259259e+00	 1.030605e+01
0	 5.555556e+00	 1.333333e+00	 1.031113e+01
0	 5.555556e+00	 1.407407e+00	 1.031626e+01
0	 5.555556e+00	 1.481481e+00	 1.032147e+01
0	 5.629630e+00	 1.111111e+00	 1.028434e+01
0	 5.629630e+00	 1.185185e+00	 1.028926e+01
0	 5.629630e+00	 1.259259e+00	 1.029415e+01
0	 5.629630e+00	 1.333333e+00	 1.029905e+01
0	 5.629630e+00	 1.407407e+00	 1.030399e+01
0	 5.629630e+00	 1.481481e+00	 1.030903e+01
0	 5.703704e+00	 1.111111e+00	 1.027316e+01
0	 5.703704e+00	 1.185185e+00	 1.027789e+01
0	 5.703704e+00	 1.259259e+00	 1.028259e+01
0	 5.703704e+00	 1.333333e+00	 1.028730e+01
0	 5.703704e+00	 1.407407e+00	 1.029207e+01
0	 5.703704e+00	 1.481481e+00	 1.029692e+01
0	 5.777778e+00	 1.111111e+00	 1.026225e+01
0	 5.777778e+00	 1.185185e+00	 1.026679e+01
0	 5.777778e+00	 1.259259e+00	 1.027131e+01
0	 5.777778e+00	 1.333333e+00	 1.027585e+01
0	 5.777778e+00	 1.407407e+00	 1.028044e+01
0	 5.777778e+00	 1.481481e+00	 1.028512e+01
0	 5.851852e+00	 1.111111e+00	 1.025158e+01
0	 5.851852e+00	 1.185185e+00	 1.025594e+01
0	 5.851852e+00	 1.259259e+00	 1.026029e+01
0	 5.851852e+00	 1.333333e+00	 1.026466e+01
0	 5.851852e+00	 1.407407e+00	 1.026908e+01
0	 5.851852e+00	 1.481481e+00	 1.027358e+01
0	 5.925926e+00	 1.111111e+00	 1.024111e+01
0	 5.925926e+00	 1.185185e+00	 1.024530e+01
0	 5.925926e+00	 1.259259e+00	 1.024949e+01
0	 5.925926e+00	 1.333333e+00	 1.025369e+01
0	 5.925926e+00	 1.407407e+00	 1.025794e+01
0	 5.925926e+00	 1.481481e+00	 1.026228e+01
0	 5.555556e+00	 1.481481e+00	 1.032147e+01
0	 5.555556e+00	 1.555556e+00	 1.032661e+01
0	 5.555556e+00	 1.629630e+00	 1.033151e+01
0	 5.555556e+00	 1.703704e+00	 1.033622e+01
0	 5.555556e+00	 1.777778e+00	 1.034076e+01
0	 5.555556e+00	 1.851852e+00	 1.034519e+01
0	 5.629630e+00	 1.481481e+00	 1.030903e+01
0	 5.629630e+00	 1.555556e+00	 1.031400e+01
0	 5.629630e+00	 1.629630e+00	 1.031875e+01
0	 5.629630e+00	 1.703704e+00	 1.032333e+01
0	 5.629630e+00	 1.777778e+00	 1.032775e+01
0	 5.629630e+00	 1.851852e+00	 1.033207e+01
0	 5.703704e+00	 1.481481e+00	 1.029692e+01
0	 5.703704e+00	 1.555556e+00	 1.030172e+01
0	 5.703704e+00	 1.629630e+00	 1.030632e+01
0	 5.703704e+00	 1.703704e+00	 1.031076e+01
0	 5.703704e+00	 1.777778e+00	 1.031507e+01
0	 5.703704e+00	 1.851852e+00	 1.031929e+01
0	 5.777778e+00	 1.481481e+00	 1.028512e+01
0	 5.777778e+00	 1.555556e+00	 1.028975e+01
0	 5.777778e+00	 1.629630e+00	 1.029420e+01
0	 5.777778e+00	 1.703704e+00	 1.029850e+01
0	 5.777778e+00	 1.777778e+00	 1.030270e+01
0	 5.777778e+00	 1.851852e+00	 1.030683e+01
0	 5.851852e+00	 1.481481e+00	 1.027358e+01
0	 5.851852e+00	 1.555556e+00	 1.027804e+01
0	 5.851852e+00	 1.629630e+00	 1.028235e+01
0	 5.851852e+00	 1.703704e+00	 1.028653e+01
0	 5.851852e+00	 1.777778e+00	 1.029061e+01
0	 5.851852e+00	 1.851852e+00	 1.029464e+01
0	 5.925926e+00	 1.481481e+00	 1.026228e+01
0	 5.925926e+00	 1.555556e+00	 1.026658e+01
0	 5.925926e+00	 1.629630e+00	 1.027074e+01
0	 5.925926e+00	 1.703704e+00	 1.027480e+01
0	 5.925926e+00	 1.777778e+00	 1.027878e+01
0	 5.925926e+00	 1.851852e+00	 1.028272e+01
0	 5.555556e+00	 1.851852e+00	 1.034519e+01
0	 5.555556e+00	 1.925926e+00	 1.034938e+01
0	 5.555556e+00	 2.000000e+00	 1.035323e+01
0	 5.555556e+00	 2.074074e+00	 1.035677e+01
0	 5.555556e+00	 2.148148e+00	 1.036003e+01
0	 5.555556e+00	 2.222222e+00	 1.036303e+01
0	 5.629630e+00	 1.851852e+00	 1.033207e+01
0	 5.629630e+00	 1.925926e+00	 1.033618e+01
0	 5.629630e+00	 2.000000e+00	 1.033998e+01
0	 5.629630e+00	 2.074074e+00	 1.034348e+01
0	 5.629630e+00	 2.148148e+00	 1.034673e+01
0	 5.629630e+00	 2.222222e+00	 1.034974e+01
0	 5.703704e+00	 1.851852e+00	 1.031929e+01
0	 5.703704e+00	 1.925926e+00	 1.032332e+01
0	 5.703704e+00	 2.000000e+00	 1.032706e+01
0	 5.703704e+00	 2.074074e+00	 1.033053e+01
0	 5.703704e+00	 2.148148e+00	 1.033376e+01
0	 5.703704e+00	 2.222222e+00	 1.033677e+01
0	 5.777778e+00	 1.851852e+00	 1.030683e+01
0	 5.777778e+00	 1.925926e+00	 1.031078e+01
0	 5.777778e+00	 2.000000e+00	 1.031446e+01
0	 5.777778e+00	 2.074074e+00	 1.031789e+01
0	 5.777778e+00	 2.148148e+00	 1.032109e+01
0	 5.777778e+00	 2.222222e+00	 1.032409e+01
0	 5.851852e+00	 1.851852e+00	 1.029464e+01
0	 5.851852e+00	 1.925926e+00	 1.029852e+01
0	 5.851852e+00	 2.000000e+00	 1.030213e+01
0	 5.851852e+00	 2.074074e+00	 1.030551e+01
0	 5.851852e+00	 2.148148e+00	 1.030869e+01
0	 5.851852e+00	 2.222222e+00	 1.031167e+01
0	 5.925926e+00	 1.851852e+00	 1.028272e+01
0	 5.925926e+00	 1.925926e+00	 1.028651e+01
0	 5.925926e+00	 2.000000e+00	 1.029006e+01
0	 5.925926e+00	 2.074074e+00	 1.029339e+01
0	 5.925926e+00	 2.148148e+00	 1.029652e+01
0	 5.925926e+00	 2.222222e+00	 1.029949e+01
0	 5.555556e+00	 2.222222e+00	 1.036303e+01
0	 5.555556e+00	 2.296296e+00	 1.036572e+01
0	 5.555556e+00	 2.370370e+00	 1.036801e+01
0	 5.555556e+00	 2.444444e+00	 1.036992e+01
0	 5.555556e+00	 2.518519e+00	 1.037147e+01
0	 5.555556e+00	 2.592593e+00	 1.037267e+01
0	 5.629630e+00	 2.222222e+00	 1.034974e+01
0	 5.629630e+00	 2.296296e+00	 1.035246e+01
0	 5.629630e+00	 2.370370e+00	 1.035479e+01
0	 5.629630e+00	 2.444444e+00	 1.035678e+01
0	 5.629630e+00	 2.518519e+00	 1.035842e+01
0	 5.629630e+00	 2.592593e+00	 1.035974e+01
0	 5.703704e+00	 2.222222e+00	 1.033677e+01
0	 5.703704e+00	 2.296296e+00	 1.033950e+01
0	 5.703704e+00	 2.370370e+00	 1.034188e+01
0	 5.703704e+00	 2.444444e+00	 1.034392e+01
0	 5.703704e+00	 2.518519e+00	 1.034564e+01
0	 5.703704e+00	 2.592593e+00	 1.034706e+01
0	 5.777778e+00	 2.222222e+00	 1.032409e+01
0	 5.777778e+00	 2.296296e+00	 1.032683e+01
0	 5.777778e+00	 2.370370e+00	 1.032923e+01
0	 5.777778e+00	 2.444444e+00	 1.033132e+01
0	 5.777778e+00	 2.518519e+00	 1.033311e+01
0	 5.777778e+00	 2.592593e+00	 1.033462e+01
0	 5.851852e+00	 2.222222e+00	 1.031167e+01
0	 5.851852e+00	 2.296296e+00	 1.031441e+01
0	 5.851852e+00	 2.370370e+00	 1.031683e+01
0	 5.851852e+00	 2.444444e+00	 1.031896e+01
0	 5.851852e+00	 2.518519e+00	 1.032081e+01
0	 5.851852e+00	 2.592593e+00	 1.032239e+01
0	 5.925926e+00	 2.222222e+00	 1.029949e+01
0	 5.925926e+00	 2.296296e+00	 1.030222e+01
0	 5.925926e+00	 2.370370e+00	 1.030466e+01
0	 5.925926e+00	 2.444444e+00	 1.030682e+01
0	 5.925926e+00	 2.518519e+00	 1.030872e+01
0	 5.925926e+00	 2.592593e+00	 1.031037e+01
0	 5.555556e+00	 2.592593e+00	 1.037267e+01
0	 5.555556e+00	 2.666667e+00	 1.037351e+01
0	 5.555556e+00	 2.740741e+00	 1.037396e+01
0	 5.555556e+00	 2.814815e+00	 1.037403e+01
0	 5.555556e+00	 2.888889e+00	 1.037373e+01
0	 5.555556e+00	 2.962963e+00	 1.037305e+01
0	 5.629630e+00	 2.592593e+00	 1.035974e+01
0	 5.629630e+00	 2.666667e+00	 1.036071e+01
0	 5.629630e+00	 2.740741e+00	 1.036132e+01
0	 5.629630e+00	 2.814815e+00	 1.036156e+01
0	 5.629630e+00	 2.888889e+00	 1.036144e+01
0	 5.629630e+00	 2.962963e+00	 1.036097e+01
0	 5.703704e+00	 2.592593e+00	 1.034706e+01
0	 5.703704e+00	 2.666667e+00	 1.034815e+01
0	 5.703704e+00	 2.740741e+00	 1.034889e+01
0	 5.703704e+00	 2.814815e+00	 1.034929e+01
0	 5.703704e+00	 2.888889e+00	 1.034934e+01
0	 5.703704e+00	 2.962963e+00	 1.034906e+01
0	 5.777778e+00	 2.592593e+00	 1.033462e+01
0	 5.777778e+00	 2.666667e+00	 1.033582e+01
0	 5.777778e+00	 2.740741e+00	 1.033668e+01
0	 5.777778e+00	 2.814815e+00	 1.033721e+01
0	 5.777778e+00	 2.888889e+00	 1.033742e+01
0	 5.777778e+00	 2.962963e+00	 1.033731e+01
0	 5.851852e+00	 2.592593e+00	 1.032239e+01
0	 5.851852e+00	 2.666667e+00	 1.032369e+01
0	 5.851852e+00	 2.740741e+00	 1.032466e+01
0	 5.851852e+00	 2.814815e+00	 1.032532e+01
0	 5.851852e+00	 2.888889e+00	 1.032566e+01
0	 5.851852e+00	 2.962963e+00	 1.032571e+01
0	 5.925926e+00	 2.592593e+00	 1.031037e+01
0	 5.925926e+00	 2.666667e+00	 1.031175e+01
0	 5.925926e+00	 2.740741e+00	 1.031282e+01
0	 5.925926e+00	 2.814815e+00	 1.031359e+01
0	 5.925926e+00	 2.888889e+00	 1.031406e+01
0	 5.925926e+00	 2.962963e+00	 1.031426e+01
0	 5.555556e+00	 2.962963e+00	 1.037305e+01
0	 5.555556e+00	 3.037037e+00	 1.037202e+01
0	 5.555556e+00	 3.111111e+00	 1.037065e+01
0	 5.555556e+00	 3.185185e+00	 1.036895e+01
0	 5.555556e+00	 3.259259e+00	 1.036689e+01
0	 5.555556e+00	 3.333333e+00	 1.036449e+01
0	 5.629630e+00	 2.962963e+00	 1.036097e+01
0	 5.629630e+00	 3.037037e+00	 1.036016e+01
0	 5.629630e+00	 3.111111e+00	 1.035902e+01
0	 5.629630e+00	 3.185185e+00	 1.035756e+01
0	 5.629630e+00	 3.259259e+00	 1.035576e+01
0	 5.629630e+00	 3.333333e+00	 1.035363e+01
0	 5.703704e+00	 2.962963e+00	 1.034906e+01
0	 5.703704e+00	 3.037037e+00	 1.034845e+01
0	 5.703704e+00	 3.111111e+00	 1.034753e+01
0	 5.703704e+00	 3.185185e+00	 1.034629e+01
0	 5.703704e+00	 3.259259e+00	 1.034472e+01
0	 5.703704e+00	 3.333333e+00	 1.034284e+01
0	 5.777778e+00	 2.962963e+00	 1.033731e+01
0	 5.777778e+00	 3.037037e+00	 1.033689e+01
0	 5.777778e+00	 3.111111e+00	 1.033616e+01
0	 5.777778e+00	 3.185185e+00	 1.033512e+01
0	 5.777778e+00	 3.259259e+00	 1.033378e+01
0	 5.777778e+00	 3.333333e+00	 1.033213e+01
0	 5.851852e+00	 2.962963e+00	 1.032571e+01
0	 5.851852e+00	 3.037037e+00	 1.032546e+01
0	 5.851852e+00	 3.111111e+00	 1.032491e+01
0	 5.851852e+00	 3.185185e+00	 1.032407e+01
0	 5.851852e+00	 3.259259e+00	 1.032293e+01
0	 5.851852e+00	 3.333333e+00	 1.032150e+01
0	 5.925926e+00	 2.962963e+00	 1.031426e+01
0	 5.925926e+00	 3.037037e+00	 1.031416e+01
0	 5.925926e+00	 3.111111e+00	 1.031379e+01
0	 5.925926e+00	 3.185185e+00	 1.031312e+01
0	 5.925926e+00	 3.259259e+00	 1.031218e+01
0	 5.925926e+00	 3.333333e+00	 1.031095e+01
0	 5.555556e+00	 3.333333e+00	 1.036449e+01
0	 5.555556e+00	 3.407407e+00	 1.036179e+01
0	 5.555556e+00	 3.481481e+00	 1.035881e+01
0	 5.555556e+00	 3.555556e+00	 1.035556e+01
0	 5.555556e+00	 3.629630e+00	 1.035203e+01
0	 5.555556e+00	 3.703704e+00	 1.034820e+01
0	 5.629630e+00	 3.333333e+00	 1.035363e+01
0	 5.629630e+00	 3.407407e+00	 1.035120e+01
0	 5.629630e+00	 3.481481e+00	 1.034851e+01
0	 5.629630e+00	 3.555556e+00	 1.034554e+01
0	 5.629630e+00	 3.629630e+00	 1.034230e+01
0	 5.629630e+00	 3.703704e+00	 1.033877e+01
0	 5.703704e+00	 3.333333e+00	 1.034284e+01
0	 5.703704e+00	 3.407407e+00	 1.034067e+01
0	 5.703704e+00	 3.481481e+00	 1.033824e+01
0	 5.703704e+00	 3.555556e+00	 1.033554e+01
0	 5.703704e+00	 3.629630e+00	 1.033257e+01
0	 5.703704e+00	 3.703704e+00	 1.032932e+01
0	 5.777778e+00	 3.333333e+00	 1.033213e+01
0	 5.777778e+00	 3.407407e+00	 1.033020e+01
0	 5.777778e+00	 3.481481e+00	 1.032802e+01
0	 5.777778e+00	 3.555556e+00	 1.032557e+01
0	 5.777778e+00	 3.629630e+00	 1.032286e+01
0	 5.777778e+00	 3.703704e+00	 1.031988e+01
0	 5.851852e+00	 3.333333e+00	 1.032150e+01
0	 5.851852e+00	 3.407407e+00	 1.031979e+01
0	 5.851852e+00	 3.481481e+00	 1.031784e+01
0	 5.851852e+00	 3.555556e+00	 1.031563e+01
0	 5.851852e+00	 3.629630e+00	 1.031317e+01
0	 5.851852e+00	 3.703704e+00	 1.031044e+01
0	 5.925926e+00	 3.333333e+00	 1.031095e+01
0	 5.925926e+00	 3.407407e+00	 1.030945e+01
0	 5.925926e+00	 3.481481e+00	 1.030772e+01
0	 5.925926e+00	 3.555556e+00	 1.030573e+01
0	 5.925926e+00	 3.629630e+00	 1.030350e+01
0	 5.925926e+00	 3.703704e+00	 1.030102e+01
0	 5.555556e+00	 3.703704e+00	 1.034820e+01
0	 5.555556e+00	 3.777778e+00	 1.034412e+01
0	 5.555556e+00	 3.851852e+00	 1.033986e+01
0	 5.555556e+00	 3.925926e+00	 1.033540e+01
0	 5.555556e+00	 4.000000e+00	 1.033073e+01
0	 5.555556e+00	 4.074074e+00	 1.032584e+01
0	 5.629630e+00	 3.703704e+00	 1.033877e+01
0	 5.629630e+00	 3.777778e+00	 1.033500e+01
0	 5.629630e+00	 3.851852e+00	 1.033104e+01
0	 5.629630e+00	 3.925926e+00	 1.032688e+01
0	 5.629630e+00	 4.000000e+00	 1.032251e+01
0	 5.629630e+00	 4.074074e+00	 1.031792e+01
0	 5.703704e+00	 3.703704e+00	 1.032932e+01
0	 5.703704e+00	 3.777778e+00	 1.032584e+01
0	 5.703704e+00	 3.851852e+00	 1.032217e+01
0	 5.703704e+00	 3.925926e+00	 1.031830e+01
0	 5.703704e+00	 4.000000e+00	 1.031422e+01
0	 5.703704e+00	 4.074074e+00	 1.030992e+01
0	 5.777778e+00	 3.703704e+00	 1.031988e+01
0	 5.777778e+00	 3.777778e+00	 1.031667e+01
0	 5.777778e+00	 3.851852e+00	 1.031327e+01
0	 5.777778e+00	 3.925926e+00	 1.030967e+01
0	 5.777778e+00	 4.000000e+00	 1.030586e+01
0	 5.777778e+00	 4.074074e+00	 1.030184e+01
0	 5.851852e+00	 3.703704e+00	 1.031044e+01
0	 5.851852e+00	 3.777778e+00	 1.030749e+01
0	 5.851852e+00	 3.851852e+00	 1.030434e+01
0	 5.851852e+00	 3.925926e+00	 1.030101e+01
0	 5.851852e+00	 4.000000e+00	 1.029746e+01
0	 5.851852e+00	 4.074074e+00	 1.029371e+01
0	 5.925926e+00	 3.703704e+00	 1.030102e+01
0	 5.925926e+00	 3.777778e+00	 1.029831e+01
0	 5.925926e+00	 3.851852e+00	 1.029541e+01
0	 5.925926e+00	 3.925926e+00	 1.029232e+01
0	 5.925926e+00	 4.000000e+00	 1.028903e+01
0	 5.925926e+00	 4.074074e+00	 1.028553e+01
0	 5.555556e+00	 4.074074e+00	 1.032584e+01
0	 5.555556e+00	 4.148148e+00	 1.032078e+01
0	 5.555556e+00	 4.222222e+00	 1.031560e+01
0	 5.555556e+00	 4.296296e+00	 1.031030e+01
0	 5.555556e+00	 4.370370e+00	 1.030486e+01
0	 5.555556e+00	 4.444444e+00	 1.029926e+01
0	 5.629630e+00	 4.074074e+00	 1.031792e+01
0	 5.629630e+00	 4.148148e+00	 1.031317e+01
0	 5.629630e+00	 4.222222e+00	 1.030829e+01
0	 5.629630e+00	 4.296296e+00	 1.030328e+01
0	 5.629630e+00	 4.370370e+00	 1.029813e+01
0	 5.629630e+00	 4.444444e+00	 1.029282e+01
0	 5.703704e+00	 4.074074e+00	 1.030992e+01
0	 5.703704e+00	 4.148148e+00	 1.030545e+01
0	 5.703704e+00	 4.222222e+00	 1.030086e+01
0	 5.703704e+00	 4.296296e+00	 1.029613e+01
0	 5.703704e+00	 4.370370e+00	 1.029126e+01
0	 5.703704e+00	 4.444444e+00	 1.028623e+01
0	 5.777778e+00	 4.074074e+00	 1.030184e+01
0	 5.777778e+00	 4.148148e+00	 1.029765e+01
0	 5.777778e+00	 4.222222e+00	 1.029333e+01
0	 5.777778e+00	 4.296296e+00	 1.028887e+01
0	 5.777778e+00	 4.370370e+00	 1.028427e+01
0	 5.777778e+00	 4.444444e+00	 1.027951e+01
0	 5.851852e+00	 4.074074e+00	 1.029371e+01
0	 5.851852e+00	 4.148148e+00	 1.028978e+01
0	 5.851852e+00	 4.222222e+00	 1.028572e+01
0	 5.851852e+00	 4.296296e+00	 1.028153e+01
0	 5.851852e+00	 4.370370e+00	 1.027718e+01
0	 5.851852e+00	 4.444444e+00	 1.027269e+01
0	 5.925926e+00	 4.074074e+00	 1.028553e+01
0	 5.925926e+00	 4.148148e+00	 1.028186e+01
0	 5.925926e+00	 4.222222e+00	 1.027805e+01
0	 5.925926e+00	 4.296296e+00	 1.027411e+01
0	 5.925926e+00	 4.370370e+00	 1.027002e+01
0	 5.925926e+00	 4.444444e+00	 1.026577e+01
0	 5.555556e+00	 4.444444e+00	 1.029926e+01
0	 5.555556e+00	 4.518519e+00	 1.029357e+01
0	 5.555556e+00	 4.592593e+00	 1.028782e+01
0	 5.555556e+00	 4.666667e+00	 1.028202e+01
0	 5.555556e+00	 4.740741e+00	 1.027614e+01
0	 5.555556e+00	 4.814815e+00	 1.027018e+01
0	 5.629630e+00	 4.444444e+00	 1.029282e+01
0	 5.629630e+00	 4.518519e+00	 1.028741e+01
0	 5.629630e+00	 4.592593e+00	 1.028194e+01
0	 5.629630e+00	 4.666667e+00	 1.027640e+01
0	 5.629630e+00	 4.740741e+00	 1.027079e+01
0	 5.629630e+00	 4.814815e+00	 1.026508e+01
0	 5.703704e+00	 4.444444e+00	 1.028623e+01
0	 5.703704e+00	 4.518519e+00	 1.028109e+01
0	 5.703704e+00	 4.592593e+00	 1.027589e+01
0	 5.703704e+00	 4.666667e+00	 1.027061e+01
0	 5.703704e+00	 4.740741e+00	 1.026526e+01
0	 5.703704e+00	 4.814815e+00	 1.025980e+01
0	 5.777778e+00	 4.444444e+00	 1.027951e+01
0	 5.777778e+00	 4.518519e+00	 1.027464e+01
0	 5.777778e+00	 4.592593e+00	 1.026970e+01
0	 5.777778e+00	 4.666667e+00	 1.026468e+01
0	 5.777778e+00	 4.740741e+00	 1.025957e+01
0	 5.777778e+00	 4.814815e+00	 1.025436e+01
0	 5.851852e+00	 4.444444e+00	 1.027269e+01
0	 5.851852e+00	 4.518519e+00	 1.026807e+01
0	 5.851852e+00	 4.592593e+00	 1.026338e+01
0	 5.851852e+00	 4.666667e+00	 1.025861e+01
0	 5.851852e+00	 4.740741e+00	 1.025375e+01
0	 5.851852e+00	 4.814815e+00	 1.024878e+01
0	 5.925926e+00	 4.444444e+00	 1.026577e+01
0	 5.925926e+00	 4.518519e+00	 1.026141e+01
0	 5.925926e+00	 4.592593e+00	 1.025697e+01
0	 5.925926e+00	 4.666667e+00	 1.025244e+01
0	 5.925926e+00	 4.740741e+00	 1.024781e+01
0	 5.925926e+00	 4.814815e+00	 1.024308e+01
0	 5.555556e+00	 4.814815e+00	 1.027018e+01
0	 5.555556e+00	 4.888889e+00	 1.026417e+01
0	 5.555556e+00	 4.962963e+00	 1.025817e+01
0	 5.555556e+00	 5.037037e+00	 1.025215e+01
0	 5.555556e+00	 5.111111e+00	 1.024611e+01
0	 5.555556e+00	 5.185185e+00	 1.024005e+01
0	 5.629630e+00	 4.814815e+00	 1.026508e+01
0	 5.629630e+00	 4.888889e+00	 1.025933e+01
0	 5.629630e+00	 4.962963e+00	 1.025357e+01
0	 5.629630e+00	 5.037037e+00	 1.024779e+01
0	 5.629630e+00	 5.111111e+00	 1.024198e+01
0	 5.629630e+00	 5.185185e+00	 1.023613e+01
0	 5.703704e+00	 4.814815e+00	 1.025980e+01
0	 5.703704e+00	 4.888889e+00	 1.025430e+01
0	 5.703704e+00	 4.962963e+00	 1.024877e+01
0	 5.703704e+00	 5.037037e+00	 1.024323e+01
0	 5.703704e+00	 5.111111e+00	 1.023764e+01
0	 5.703704e+00	 5.185185e+00	 1.023202e+01
0	 5.777778e+00	 4.814815e+00	 1.025436e+01
0	 5.777778e+00	 4.888889e+00	 1.024910e+01
0	 5.777778e+00	 4.962963e+00	 1.024381e+01
0	 5.777778e+00	 5.037037e+00	 1.023849e+01
0	 5.777778e+00	 5.111111e+00	 1.023313e+01
0	 5.777778e+00	 5.185185e+00	 1.022772e+01
0	 5.851852e+00	 4.814815e+00	 1.024878e+01
0	 5.851852e+00	 4.888889e+00	 1.024375e+01
0	 5.851852e+00	 4.962963e+00	 1.023869e+01
0	 5.851852e+00	 5.037037e+00	 1.023359e+01
0	 5.851852e+00	 5.111111e+00	 1.022845e+01
0	 5.851852e+00	 5.185185e+00	 1.022326e+01
0	 5.925926e+00	 4.814815e+00	 1.024308e+01
0	 5.925926e+00	 4.888889e+00	 1.023828e+01
0	 5.925926e+00	 4.962963e+00	 1.023344e+01
0	 5.925926e+00	 5.037037e+00	 1.022857e+01
0	 5.925926e+00	 5.111111e+00	 1.022364e+01
0	 5.925926e+00	 5.185185e+00	 1.021866e+01
0	 5.555556e+00	 5.185185e+00	 1.024005e+01
0	 5.555556e+00	 5.259259e+00	 1.023398e+01
0	 5.555556e+00	 5.333333e+00	 1.022796e+01
0	 5.555556e+00	 5.407407e+00	 1.022196e+01
0	 5.555556e+00	 5.481481e+00	 1.021598e+01
0	 5.555556e+00	 5.555556e+00	 1.021002e+01
0	 5.629630e+00	 5.185185e+00	 1.023613e+01
0	 5.629630e+00	 5.259259e+00	 1.023028e+01
0	 5.629630e+00	 5.333333e+00	 1.022446e+01
0	 5.629630e+00	 5.407407e+00	 1.021867e+01
0	 5.629630e+00	 5.481481e+00	 1.021288e+01
0	 5.629630e+00	 5.555556e+00	 1.020710e+01
0	 5.703704e+00	 5.185185e+00	 1.023202e+01
0	 5.703704e+00	 5.259259e+00	 1.022638e+01
0	 5.703704e+00	 5.333333e+00	 1.022076e+01
0	 5.703704e+00	 5.407407e+00	 1.021516e+01
0	 5.703704e+00	 5.481481e+00	 1.020957e+01
0	 5.703704e+00	 5.555556e+00	 1.020397e+01
0	 5.777778e+00	 5.185185e+00	 1.022772e+01
0	 5.777778e+00	 5.259259e+00	 1.022229e+01
0	 5.777778e+00	 5.333333e+00	 1.021688e+01
0	 5.777778e+00	 5.407407e+00	 1.021147e+01
0	 5.777778e+00	 5.481481e+00	 1.020607e+01
0	 5.777778e+00	 5.555556e+00	 1.020065e+01
0	 5.851852e+00	 5.185185e+00	 1.022326e+01
0	 5.851852e+00	 5.259259e+00	 1.021804e+01
0	 5.851852e+00	 5.333333e+00	 1.021283e+01
0	 5.851852e+00	 5.407407e+00	 1.020762e+01
0	 5.851852e+00	 5.481481e+00	 1.020240e+01
0	 5.851852e+00	 5.555556e+00	 1.019717e+01
0	 5.925926e+00	 5.185185e+00	 1.021866e+01
0	 5.925926e+00	 5.259259e+00	 1.021364e+01
0	 5.925926e+00	 5.333333e+00	 1.020863e+01
0	 5.925926e+00	 5.407407e+00	 1.020361e+01
0	 5.925926e+00	 5.481481e+00	 1.019858e+01
0	 5.925926e+00	 5.555556e+00	 1.019353e+01
0	 5.555556e+00	 5.555556e+00	 1.021002e+01
0	 5.555556e+00	 5.629630e+00	 1.020409e+01
0	 5.555556e+00	 5.703704e+00	 1.019823e+01
0	 5.555556e+00	 5.777778e+00	 1.019242e+01
0	 5.555556e+00	 5.851852e+00	 1.018666e+01
0	 5.555556e+00	 5.925926e+00	 1.018094e+01
0	 5.629630e+00	 5.555556e+00	 1.020710e+01
0	 5.629630e+00	 5.629630e+00	 1.020135e+01
0	 5.629630e+00	 5.703704e+00	 1.019565e+01
0	 5.629630e+00	 5.777778e+00	 1.019000e+01
0	 5.629630e+00	 5.851852e+00	 1.018439e+01
0	 5.629630e+00	 5.925926e+00	 1.017882e+01
0	 5.703704e+00	 5.555556e+00	 1.020397e+01
0	 5.703704e+00	 5.629630e+00	 1.019839e+01
0	 5.703704e+00	 5.703704e+00	 1.019287e+01
0	 5.703704e+00	 5.777778e+00	 1.018738e+01
0	 5.703704e+00	 5.851852e+00	 1.018193e+01
0	 5.703704e+00	 5.925926e+00	 1.017650e+01
0	 5.777778e+00	 5.555556e+00	 1.020065e+01
0	 5.777778e+00	 5.629630e+00	 1.019525e+01
0	 5.777778e+00	 5.703704e+00	 1.018989e+01
0	 5.777778e+00	 5.777778e+00	 1.018457e+01
0	 5.777778e+00	 5.851852e+00	 1.017927e+01
0	 5.777778e+00	 5.925926e+00	 1.017400e+01
0	 5.851852e+00	 5.555556e+00	 1.019717e+01
0	 5.851852e+00	 5.629630e+00	 1.019194e+01
0	 5.851852e+00	 5.703704e+00	 1.018675e+01
0	 5.851852e+00	 5.777778e+00	 1.018159e+01
0	 5.851852e+00	 5.851852e+00	 1.017645e+01
0	 5.851852e+00	 5.925926e+00	 1.017132e+01
0	 5.925926e+00	 5.555556e+00	 1.019353e+01
0	 5.925926e+00	 5.629630e+00	 1.018848e+01
0	 5.925926e+00	 5.703704e+00	 1.018346e+01
0	 5.925926e+00	 5.777778e+00	 1.017846e+01
0	 5.925926e+00	 5.851852e+00	 1.017348e+01
0	 5.925926e+00	 5.925926e+00	 1.016850e+01
0	 5.555556e+00	 5.925926e+00	 1.018094e+01
0	 5.555556e+00	 6.000000e+00	 1.017528e+01
0	 5.555556e+00	 6.074074e+00	 1.016970e+01
0	 5.555556e+00	 6.148148e+00	 1.016419e+01
0	 5.555556e+00	 6.222222e+00	 1.015875e+01
0	 5.555556e+00	 6.296296e+00	 1.015337e+01
0	 5.629630e+00	 5.925926e+00	 1.017882e+01
0	 5.629630e+00	 6.000000e+00	 1.017330e+01
0	 5.629630e+00	 6.074074e+00	 1.016785e+01
0	 5.629630e+00	 6.148148e+00	 1.016247e+01
0	 5.629630e+00	 6.222222e+00	 1.015714e+01
0	 5.629630e+00	 6.296296e+00	 1.015187e+01
0	 5.703704e+00	 5.925926e+00	 1.017650e+01
0	 5.703704e+00	 6.000000e+00	 1.017112e+01
0	 5.703704e+00	 6.074074e+00	 1.016580e+01
0	 5.703704e+00	 6.148148e+00	 1.016055e+01
0	 5.703704e+00	 6.222222e+00	 1.015535e+01
0	 5.703704e+00	 6.296296e+00	 1.015019e+01
0	 5.777778e+00	 5.925926e+00	 1.017400e+01
0	 5.777778e+00	 6.000000e+00	 1.016876e+01
0	 5.777778e+00	 6.074074e+00	 1.016358e+01
0	 5.777778e+00	 6.148148e+00	 1.015846e+01
0	 5.777778e+00	 6.222222e+00	 1.015338e+01
0	 5.777778e+00	 6.296296e+00	 1.014834e+01
0	 5.851852e+00	 5.925926e+00	 1.017132e+01
0	 5.851852e+00	 6.000000e+00	 1.016623e+01
0	 5.851852e+00	 6.074074e+00	 1.016119e+01
0	 5.851852e+00	 6.148148e+00	 1.015620e+01
0	 5.851852e+00	 6.222222e+00	 1.015125e+01
0	 5.851852e+00	 6.296296e+00	 1.014634e+01
0	 5.925926e+00	 5.925926e+00	 1.016850e+01
0	 5.925926e+00	 6.000000e+00	 1.016356e+01
0	 5.925926e+00	 6.074074e+00	 1.015866e+01
0	 5.925926e+00	 6.148148e+00	 1.015380e+01
0	 5.925926e+00	 6.222222e+00	 1.014898e+01
0	 5.925926e+00	 6.296296e+00	 1.014419e+01
0	 5.555556e+00	 6.296296e+00	 1.015337e+01
0	 5.555556e+00	 6.370370e+00	 1.014806e+01
0	 5.555556e+00	 6.444444e+00	 1.014284e+01
0	 5.555556e+00	 6.518519e+00	 1.013770e+01
0	 5.555556e+00	 6.592593e+00	 1.013263e+01
0	 5.555556e+00	 6.666667e+00	 1.012764e+01
0	 5.629630e+00	 6.296296e+00	 1.015187e+01
0	 5.629630e+00	 6.370370e+00	 1.014667e+01
0	 5.629630e+00	 6.444444e+00	 1.014155e+01
0	 5.629630e+00	 6.518519e+00	 1.013650e+01
0	 5.629630e+00	 6.592593e+00	 1.013153e+01
0	 5.629630e+00	 6.666667e+00	 1.012662e+01
0	 5.703704e+00	 6.296296e+00	 1.015019e+01
0	 5.703704e+00	 6.370370e+00	 1.014510e+01
0	 5.703704e+00	 6.444444e+00	 1.014009e+01
0	 5.703704e+00	 6.518519e+00	 1.013514e+01
0	 5.703704e+00	 6.592593e+00	 1.013026e+01
0	 5.703704e+00	 6.666667e+00	 1.012544e+01
0	 5.777778e+00	 6.296296e+00	 1.014834e+01
0	 5.777778e+00	 6.370370e+00	 1.014337e+01
0	 5.777778e+00	 6.444444e+00	 1.013846e+01
0	 5.777778e+00	 6.518519e+00	 1.013361e+01
0	 5.777778e+00	 6.592593e+00	 1.012883e+01
0	 5.777778e+00	 6.666667e+00	 1.012410e+01
0	 5.851852e+00	 6.296296e+00	 1.014634e+01
0	 5.851852e+00	 6.370370e+00	 1.014148e+01
0	 5.851852e+00	 6.444444e+00	 1.013668e+01
0	 5.851852e+00	 6.518519e+00	 1.013194e+01
0	 5.851852e+00	 6.592593e+00	 1.012725e+01
0	 5.851852e+00	 6.666667e+00	 1.012262e+01
0	 5.925926e+00	 6.296296e+00	 1.014419e+01
0	 5.925926e+00	 6.370370e+00	 1.013945e+01
0	 5.925926e+00	 6.444444e+00	 1.013476e+01
0	 5.925926e+00	 6.518519e+00	 1.013013e+01
0	 5.925926e+00	 6.592593e+00	 1.012555e+01
0	 5.925926e+00	 6.666667e+00	 1.012102e+01
0	 5.555556e+00	 6.666667e+00	 1.012764e+01
0	 5.555556e+00	 6.740741e+00	 1.012274e+01
0	 5.555556e+00	 6.814815e+00	 1.011792e+01
0	 5.555556e+00	 6.888889e+00	 1.011318e+01
0	 5.555556e+00	 6.962963e+00	 1.010853e+01
0	 5.555556e+00	 7.037037e+00	 1.010396e+01
0	 5.629630e+00	 6.666667e+00	 1.012662e+01
0	 5.629630e+00	 6.740741e+00	 1.012179e+01
0	 5.629630e+00	 6.814815e+00	 1.011705e+01
0	 5.629630e+00	 6.888889e+00	 1.011238e+01
0	 5.629630e+00	 6.962963e+00	 1.010779e+01
0	 5.629630e+00	 7.037037e+00	 1.010328e+01
0	 5.703704e+00	 6.666667e+00	 1.012544e+01
0	 5.703704e+00	 6.740741e+00	 1.012069e+01
0	 5.703704e+00	 6.814815e+00	 1.011602e+01
0	 5.703704e+00	 6.888889e+00	 1.011143e+01
0	 5.703704e+00	 6.962963e+00	 1.010691e+01
0	 5.703704e+00	 7.037037e+00	 1.010246e+01
0	 5.777778e+00	 6.666667e+00	 1.012410e+01
0	 5.777778e+00	 6.740741e+00	 1.011944e+01
0	 5.777778e+00	 6.814815e+00	 1.011485e+01
0	 5.777778e+00	 6.888889e+00	 1.011034e+01
0	 5.777778e+00	 6.962963e+00	 1.010589e+01
0	 5.777778e+00	 7.037037e+00	 1.010151e+01
0	 5.851852e+00	 6.666667e+00	 1.012262e+01
0	 5.851852e+00	 6.740741e+00	 1.011805e+01
0	 5.851852e+00	 6.814815e+00	 1.011355e+01
0	 5.851852e+00	 6.888889e+00	 1.010912e+01
0	 5.851852e+00	 6.962963e+00	 1.010475e+01
0	 5.851852e+00	 7.037037e+00	 1.010044e+01
0	 5.925926e+00	 6.666667e+00	 1.012102e+01
0	 5.925926e+00	 6.740741e+00	 1.011654e+01
0	 5.925926e+00	 6.814815e+00	 1.011213e+01
0	 5.925926e+00	 6.888889e+00	 1.010778e+01
0	 5.925926e+00	 6.962963e+00	 1.010349e+01
0	 5.925926e+00	 7.037037e+00	 1.009926e+01
0	 5.555556e+00	 7.037037e+00	 1.010396e+01
0	 5.555556e+00	 7.111111e+00	 1.009947e+01
0	 5.555556e+00	 7.185185e+00	 1.009508e+01
0	 5.555556e+00	 7.259259e+00	 1.009077e+01
0	 5.555556e+00	 7.333333e+00	 1.008654e+01
0	 5.555556e+00	 7.407407e+00	 1.008240e+01
0	 5.629630e+00	 7.037037e+00	 1.010328e+01
0	 5.629630e+00	 7.111111e+00	 1.009885e+01
0	 5.629630e+00	 7.185185e+00	 1.009450e+01
0	 5.629630e+00	 7.259259e+00	 1.009024e+01
0	 5.629630e+00	 7.333333e+00	 1.008606e+01
0	 5.629630e+00	 7.407407e+00	 1.008196e+01
0	 5.703704e+00	 7.037037e+00	 1.010246e+01
0	 5.703704e+00	 7.111111e+00	 1.009809e+01
0	 5.703704e+00	 7.185185e+00	 1.009380e+01
0	 5.703704e+00	 7.259259e+00	 1.008959e+01
0	 5.703704e+00	 7.333333e+00	 1.008546e+01
0	 5.703704e+00	 7.407407e+00	 1.008140e+01
0	 5.777778e+00	 7.037037e+00	 1.010151e+01
0	 5.777778e+00	 7.111111e+00	 1.009721e+01
0	 5.777778e+00	 7.185185e+00	 1.009298e+01
0	 5.777778e+00	 7.259259e+00	 1.008883e+01
0	 5.777778e+00	 7.333333e+00	 1.008475e+01
0	 5.777778e+00	 7.407407e+00	 1.008074e+01
0	 5.851852e+00	 7.037037e+00	 1.010044e+01
0	 5.851852e+00	 7.111111e+00	 1.009621e+01
0	 5.851852e+00	 7.185185e+00	 1.009204e+01
0	 5.851852e+00	 7.259259e+00	 1.008795e+01
0	 5.851852e+00	 7.333333e+00	 1.008394e+01
0	 5.851852e+00	 7.407407e+00	 1.007998e+01
0	 5.925926e+00	 7.037037e+00	 1.009926e+01
0	 5.925926e+00	 7.111111e+00	 1.009510e+01
0	 5.925926e+00	 7.185185e+00	 1.009100e+01
0	 5.925926e+00	 7.259259e+00	 1.008698e+01
0	 5.925926e+00	 7.333333e+00	 1.008302e+01
0	 5.925926e+00	 7.407407e+00	 1.007913e+01
0	 5.555556e+00	 7.407407e+00	 1.008240e+01
0	 5.555556e+00	 7.481481e+00	 1.007834e+01
0	 5.555556e+00	 7.555556e+00	 1.007437e+01
0	 5.555556e+00	 7.629630e+00	 1.007049e+01
0	 5.555556e+00	 7.703704e+00	 1.006670e+01
0	 5.555556e+00	 7.777778e+00	 1.006299e+01
0	 5.629630e+00	 7.407407e+00	 1.008196e+01
0	 5.629630e+00	 7.481481e+00	 1.007794e+01
0	 5.629630e+00	 7.555556e+00	 1.007401e+01
0	 5.629630e+00	 7.629630e+00	 1.007016e+01
0	 5.629630e+00	 7.703704e+00	 1.006640e+01
0	 5.629630e+00	 7.777778e+00	 1.006271e+01
0	 5.703704e+00	 7.407407e+00	 1.008140e+01
0	 5.703704e+00	 7.481481e+00	 1.007743e+01
0	 5.703704e+00	 7.555556e+00	 1.007354e+01
0	 5.703704e+00	 7.629630e+00	 1.006973e+01
0	 5.703704e+00	 7.703704e+00	 1.006600e+01
0	 5.703704e+00	 7.777778e+00	 1.006235e+01
0	 5.777778e+00	 7.407407e+00	 1.008074e+01
0	 5.777778e+00	 7.481481e+00	 1.007681e+01
0	 5.777778e+00	 7.555556e+00	 1.007297e+01
0	 5.777778e+00	 7.629630e+00	 1.006920e+01
0	 5.777778e+00	 7.703704e+00	 1.006551e+01
0	 5.777778e+00	 7.777778e+00	 1.006189e+01
0	 5.851852e+00	 7.407407e+00	 1.007998e+01
0	 5.851852e+00	 7.481481e+00	 1.007610e+01
0	 5.851852e+00	 7.555556e+00	 1.007231e+01
0	 5.851852e+00	 7.629630e+00	 1.006858e+01
0	 5.851852e+00	 7.703704e+00	 1.006494e+01
0	 5.851852e+00	 7.777778e+00	 1.006136e+01
0	 5.925926e+00	 7.407407e+00	 1.007913e+01
0	 5.925926e+00	 7.481481e+00	 1.007531e+01
0	 5.925926e+00	 7.555556e+00	 1.007156e+01
0	 5.925926e+00	 7.629630e+00	 1.006789e+01
0	 5.925926e+00	 7.703704e+00	 1.006429e+01
0	 5.925926e+00	 7.777778e+00	 1.006076e+01
0	 5.555556e+00	 7.777778e+00	 1.006299e+01
0	 5.555556e+00	 7.851852e+00	 1.005937e+01
0	 5.555556e+00	 7.925926e+00	 1.005584e+01
0	 5.555556e+00	 8.000000e+00	 1.005240e+01
0	 5.555556e+00	 8.074074e+00	 1.004905e+01
0	 5.555556e+00	 8.148148e+00	 1.004578e+01
0	 5.629630e+00	 7.777778e+00	 1.006271e+01
0	 5.629630e+00	 7.851852e+00	 1.005911e+01
0	 5.629630e+00	 7.925926e+00	 1.005561e+01
0	 5.629630e+00	 8.000000e+00	 1.005219e+01
0	 5.629630e+00	 8.074074e+00	 1.004886e+01
0	 5.629630e+00	 8.148148e+00	 1.004561e+01
0	 5.703704e+00	 7.777778e+00	 1.006235e+01
0	 5.703704e+00	 7.851852e+00	 1.005878e+01
0	 5.703704e+00	 7.925926e+00	 1.005530e+01
0	 5.703704e+00	 8.000000e+00	 1.005191e+01
0	 5.703704e+00	 8.074074e+00	 1.004860e+01
0	 5.703704e+00	 8.148148e+00	 1.004537e+01
0	 5.777778e+00	 7.777778e+00	 1.006189e+01
0	 5.777778e+00	 7.851852e+00	 1.005836e+01
0	 5.777778e+00	 7.925926e+00	 1.005491e+01
0	 5.777778e+00	 8.000000e+00	 1.005155e+01
0	 5.777778e+00	 8.074074e+00	 1.004827e+01
0	 5.777778e+00	 8.148148e+00	 1.004507e+01
0	 5.851852e+00	 7.777778e+00	 1.006136e+01
0	 5.851852e+00	 7.851852e+00	 1.005787e+01
0	 5.851852e+00	 7.925926e+00	 1.005445e+01
0	 5.851852e+00	 8.000000e+00	 1.005113e+01
0	 5.851852e+00	 8.074074e+00	 1.004788e+01
0	 5.851852e+00	 8.148148e+00	 1.004470e+01
0	 5.925926e+00	 7.777778e+00	 1.006076e+01
0	 5.925926e+00	 7.851852e+00	 1.005730e+01
0	 5.925926e+00	 7.925926e+00	 1.005393e+01
0	 5.925926e+00	 8.000000e+00	 1.005064e+01
0	 5.925926e+00	 8.074074e+00	 1.004743e+01
0	 5.925926e+00	 8.148148e+00	 1.004429e+01
0	 5.555556e+00	 8.148148e+00	 1.004578e+01
0	 5.555556e+00	 8.222222e+00	 1.004260e+01
0	 5.555556e+00	 8.296296e+00	 1.003953e+01
0	 5.555556e+00	 8.370370e+00	 1.003655e+01
0	 5.555556e+00	 8.444444e+00	 1.003366e+01
0	 5.555556e+00	 8.518519e+00	 1.003085e+01
0	 5.629630e+00	 8.148148e+00	 1.004561e+01
0	 5.629630e+00	 8.222222e+00	 1.004245e+01
0	 5.629630e+00	 8.296296e+00	 1.003938e+01
0	 5.629630e+00	 8.370370e+00	 1.003642e+01
0	 5.629630e+00	 8.444444e+00	 1.003354e+01
0	 5.629630e+00	 8.518519e+00	 1.003075e+01
0	 5.703704e+00	 8.148148e+00	 1.004537e+01
0	 5.703704e+00	 8.222222e+00	 1.004223e+01
0	 5.703704e+00	 8.296296e+00	 1.003918e+01
0	 5.703704e+00	 8.370370e+00	 1.003623e+01
0	 5.703704e+00	 8.444444e+00	 1.003337e+01
0	 5.703704e+00	 8.518519e+00	 1.003060e+01
0	 5.777778e+00	 8.148148e+00	 1.004507e+01
0	 5.777778e+00	 8.222222e+00	 1.004195e+01
0	 5.777778e+00	 8.296296e+00	 1.003893e+01
0	 5.777778e+00	 8.370370e+00	 1.003600e+01
0	 5.777778e+00	 8.444444e+00	 1.003316e+01
0	 5.777778e+00	 8.518519e+00	 1.003040e+01
0	 5.851852e+00	 8.148148e+00	 1.004470e+01
0	 5.851852e+00	 8.222222e+00	 1.004162e+01
0	 5.851852e+00	 8.296296e+00	 1.003862e+01
0	 5.851852e+00	 8.370370e+00	 1.003572e+01
0	 5.851852e+00	 8.444444e+00	 1.003290e+01
0	 5.851852e+00	 8.518519e+00	 1.003017e+01
0	 5.925926e+00	 8.148148e+00	 1.004429e+01
0	 5.925926e+00	 8.222222e+00	 1.004123e+01
0	 5.925926e+00	 8.296296e+00	 1.003827e+01
0	 5.925926e+00	 8.370370e+00	 1.003540e+01
0	 5.925926e+00	 8.444444e+00	 1.003260e+01
0	 5.925926e+00	 8.518519e+00	 1.002989e+01
0	 5.555556e+00	 8.518519e+00	 1.003085e+01
0	 5.555556e+00	 8.592593e+00	 1.002815e+01
0	 5.555556e+00	 8.666667e+00	 1.002556e+01
0	 5.555556e+00	 8.740741e+00	 1.002307e+01
0	 5.555556e+00	 8.814815e+00	 1.002069e+01
0	 5.555556e+00	 8.888889e+00	 1.001840e+01
0	 5.629630e+00	 8.518519e+00	 1.003075e+01
0	 5.629630e+00	 8.592593e+00	 1.002805e+01
0	 5.629630e+00	 8.666667e+00	 1.002547e+01
0	 5.629630e+00	 8.740741e+00	 1.002299e+01
0	 5.629630e+00	 8.814815e+00	 1.002062e+01
0	 5.629630e+00	 8.888889e+00	 1.001833e+01
0	 5.703704e+00	 8.518519e+00	 1.003060e+01
0	 5.703704e+00	 8.592593e+00	 1.002792e+01
0	 5.703704e+00	 8.666667e+00	 1.002535e+01
0	 5.703704e+00	 8.740741e+00	 1.002288e+01
0	 5.703704e+00	 8.814815e+00	 1.002051e+01
0	 5.703704e+00	 8.888889e+00	 1.001824e+01
0	 5.777778e+00	 8.518519e+00	 1.003040e+01
0	 5.777778e+00	 8.592593e+00	 1.002774e+01
0	 5.777778e+00	 8.666667e+00	 1.002519e+01
0	 5.777778e+00	 8.740741e+00	 1.002274e+01
0	 5.777778e+00	 8.814815e+00	 1.002038e+01
0	 5.777778e+00	 8.888889e+00	 1.001813e+01
0	 5.851852e+00	 8.518519e+00	 1.003017e+01
0	 5.851852e+00	 8.592593e+00	 1.002753e+01
0	 5.851852e+00	 8.666667e+00	 1.002499e+01
0	 5.851852e+00	 8.740741e+00	 1.002256e+01
0	 5.851852e+00	 8.814815e+00	 1.002023e+01
0	 5.851852e+00	 8.888889e+00	 1.001799e+01
0	 5.925926e+00	 8.518519e+00	 1.002989e+01
0	 5.925926e+00	 8.592593e+00	 1.002728e+01
0	 5.925926e+00	 8.666667e+00	 1.002477e+01
0	 5.925926e+00	 8.740741e+00	 1.002236e+01
0	 5.925926e+00	 8.814815e+00	 1.002005e+01
0	 5.925926e+00	 8.888889e+00	 1.001782e+01
0	 5.555556e+00	 8.888889e+00	 1.001840e+01
0	 5.555556e+00	 8.962963e+00	 1.001622e+01
0	 5.555556e+00	 9.037037e+00	 1.001417e+01
0	 5.555556e+00	 9.111111e+00	 1.001224e+01
0	 5.555556e+00	 9.185185e+00	 1.001043e+01
0	 5.555556e+00	 9.259259e+00	 1.000872e+01
0	 5.629630e+00	 8.888889e+00	 1.001833e+01
0	 5.629630e+00	 8.962963e+00	 1.001616e+01
0	 5.629630e+00	 9.037037e+00	 1.001412e+01
0	 5.629630e+00	 9.111111e+00	 1.001219e+01
0	 5.629630e+00	 9.185185e+00	 1.001039e+01
0	 5.629630e+00	 9.259259e+00	 1.000869e+01
0	 5.703704e+00	 8.888889e+00	 1.001824e+01
0	 5.703704e+00	 8.962963e+00	 1.001608e+01
0	 5.703704e+00	 9.037037e+00	 1.001405e+01
0	 5.703704e+00	 9.111111e+00	 1.001213e+01
0	 5.703704e+00	 9.185185e+00	 1.001033e+01
0	 5.703704e+00	 9.259259e+00	 1.000864e+01
0	 5.777778e+00	 8.888889e+00	 1.001813e+01
0	 5.777778e+00	 8.962963e+00	 1.001598e+01
0	 5.777778e+00	 9.037037e+00	 1.001395e+01
0	 5.777778e+00	 9.111111e+00	 1.001205e+01
0	 5.777778e+00	 9.185185e+00	 1.001027e+01
0	 5.777778e+00	 9.259259e+00	 1.000858e+01
0	 5.851852e+00	 8.888889e+00	 1.001799e+01
0	 5.851852e+00	 8.962963e+00	 1.001585e+01
0	 5.851852e+00	 9.037037e+00	 1.001385e+01
0	 5.851852e+00	 9.111111e+00	 1.001196e+01
0	 5.851852e+00	 9.185185e+00	 1.001018e+01
0	 5.851852e+00	 9.259259e+00	 1.000852e+01
0	 5.925926e+00	 8.888889e+00	 1.001782e+01
0	 5.925926e+00	 8.962963e+00	 1.001571e+01
0	 5.925926e+00	 9.037037e+00	 1.001372e+01
0	 5.925926e+00	 9.111111e+00	 1.001185e+01
0	 5.925926e+00	 9.185185e+00	 1.001009e+01
0	 5.925926e+00	 9.259259e+00	 1.000844e+01
0	 5.555556e+00	 9.259259e+00	 1.000872e+01
0	 5.555556e+00	 9.333333e+00	 1.000715e+01
0	 5.555556e+00	 9.407407e+00	 1.000573e+01
0	 5.555556e+00	 9.481481e+00	 1.000447e+01
0	 5.555556e+00	 9.555556e+00	 1.000334e+01
0	 5.555556e+00	 9.629630e+00	 1.000234e+01
0	 5.629630e+00	 9.259259e+00	 1.000869e+01
0	 5.629630e+00	 9.333333e+00	 1.000712e+01
0	 5.629630e+00	 9.407407e+00	 1.000571e+01
0	 5.629630e+00	 9.481481e+00	 1.000445e+01
0	 5.629630e+00	 9.555556e+00	 1.000332e+01
0	 5.629630e+00	 9.629630e+00	 1.000233e+01
0	 5.703704e+00	 9.259259e+00	 1.000864e+01
0	 5.703704e+00	 9.333333e+00	 1.000708e+01
0	 5.703704e+00	 9.407407e+00	 1.000568e+01
0	 5.703704e+00	 9.481481e+00	 1.000442e+01
0	 5.703704e+00	 9.555556e+00	 1.000331e+01
0	 5.703704e+00	 9.629630e+00	 1.000232e+01
0	 5.777778e+00	 9.259259e+00	 1.000858e+01
0	 5.777778e+00	 9.333333e+00	 1.000703e+01
0	 5.777778e+00	 9.407407e+00	 1.000564e+01
0	 5.777778e+00	 9.481481e+00	 1.000439e+01
0	 5.777778e+00	 9.555556e+00	 1.000328e+01
0	 5.777778e+00	 9.629630e+00	 1.000230e+01
0	 5.851852e+00	 9.259259e+00	 1.000852e+01
0	 5.851852e+00	 9.333333e+00	 1.000698e+01
0	 5.851852e+00	 9.407407e+00	 1.000559e+01
0	 5.851852e+00	 9.481481e+00	 1.000435e+01
0	 5.851852e+00	 9.555556e+00	 1.000325e+01
0	 5.851852e+00	 9.629630e+00	 1.000228e+01
0	 5.925926e+00	 9.259259e+00	 1.000844e+01
0	 5.925926e+00	 9.333333e+00	 1.000691e+01
0	 5.925926e+00	 9.407407e+00	 1.000554e+01
0	 5.925926e+00	 9.481481e+00	 1.000431e+01
0	 5.925926e+00	 9.555556e+00	 1.000322e+01
0	 5.925926e+00	 9.629630e+00	 1.000226e+01
0	 5.555556e+00	 9.629630e+00	 1.000234e+01
0	 5.555556e+00	 9.703704e+00	 1.000151e+01
0	 5.555556e+00	 9.777778e+00	 1.000086e+01
0	 5.555556e+00	 9.851852e+00	 1.000040e+01
0	 5.555556e+00	 9.925926e+00	 1.000011e+01
0	 5.555556e+00	 1.000000e+01	 9.999975e+00
0	 5.629630e+00	 9.629630e+00	 1.000233e+01
0	 5.629630e+00	 9.703704e+00	 1.000150e+01
0	 5.629630e+00	 9.777778e+00	 1.000086e+01
0	 5.629630e+00	 9.851852e+00	 1.000040e+01
0	 5.629630e+00	 9.925926e+00	 1.000011e+01
0	 5.629630e+00	 1.000000e+01	 9.999976e+00
0	 5.703704e+00	 9.629630e+00	 1.000232e+01
0	 5.703704e+00	 9.703704e+00	 1.000149e+01
0	 5.703704e+00	 9.777778e+00	 1.000085e+01
0	 5.703704e+00	 9.851852e+00	 1.000040e+01
0	 5.703704e+00	 9.925926e+00	 1.000011e+01
0	 5.703704e+00	 1.000000e+01	 9.999975e+00
0	 5.777778e+00	 9.629630e+00	 1.000230e+01
0	 5.777778e+00	 9.703704e+00	 1.000148e+01
0	 5.777778e+00	 9.777778e+00	 1.000085e+01
0	 5.777778e+00	 9.851852e+00	 1.000039e+01
0	 5.777778e+00	 9.925926e+00	 1.000011e+01
0	 5.777778e+00	 1.000000e+01	 9.999975e+00
0	 5.851852e+00	 9.629630e+00	 1.000228e+01
0	 5.851852e+00	 9.703704e+00	 1.000147e+01
0	 5.851852e+00	 9.777778e+00	 1.000084e+01
0	 5.851852e+00	 9.851852e+00	 1.000039e+01
0	 5.851852e+00	 9.925926e+00	 1.000010e+01
0	 5.851852e+00	 1.000000e+01	 9.999975e+00
0	 5.925926e+00	 9.629630e+00	 1.000226e+01
0	 5.925926e+00	 9.703704e+00	 1.000145e+01
0	 5.925926e+00	 9.777778e+00	 1.000083e+01
0	 5.925926e+00	 9.851852e+00	 1.000039e+01
0	 5.925926e+00	 9.925926e+00	 1.000010e+01
0	 5.925926e+00	 1.000000e+01	 9.999977e+00
0	 5.925926e+00	 0.000000e+00	 1.020549e+01
0	 5.925926e+00	 7.407407e-02	 1.020565e+01
0	 5.925926e+00	 1.481481e-01	 1.020618e+01
0	 5.925926e+00	 2.222222e-01	 1.020707e+01
0	 5.925926e+00	 2.962963e-01	 1.020834e+01
0	 5.925926e+00	 3.703704e-01	 1.020999e+01
0	 6.000000e+00	 0.000000e+00	 1.019680e+01
0	 6.000000e+00	 7.407407e-02	 1.019694e+01
0	 6.000000e+00	 1.481481e-01	 1.019743e+01
0	 6.000000e+00	 2.222222e-01	 1.019827e+01
0	 6.000000e+00	 2.962963e-01	 1.019947e+01
0	 6.000000e+00	 3.703704e-01	 1.020104e+01
0	 6.074074e+00	 0.000000e+00	 1.018819e+01
0	 6.074074e+00	 7.407407e-02	 1.018833e+01
0	 6.074074e+00	 1.481481e-01	 1.018879e+01
0	 6.074074e+00	 2.222222e-01	 1.018959e+01
0	 6.074074e+00	 2.962963e-01	 1.019073e+01
0	 6.074074e+00	 3.703704e-01	 1.019221e+01
0	 6.148148e+00	 0.000000e+00	 1.017965e+01
0	 6.148148e+00	 7.407407e-02	 1.017979e+01
0	 6.148148e+00	 1.481481e-01	 1.018024e+01
0	 6.148148e+00	 2.222222e-01	 1.018100e+01
0	 6.148148e+00	 2.962963e-01	 1.018209e+01
0	 6.148148e+00	 3.703704e-01	 1.018350e+01
0	 6.222222e+00	 0.000000e+00	 1.017118e+01
0	 6.222222e+00	 7.407407e-02	 1.017134e+01
0	 6.222222e+00	 1.481481e-01	 1.017178e+01
0	 6.222222e+00	 2.222222e-01	 1.017251e+01
0	 6.222222e+00	 2.962963e-01	 1.017354e+01
0	 6.222222e+00	 3.703704e-01	 1.017489e+01
0	 6.296296e+00	 0.000000e+00	 1.016278e+01
0	 6.296296e+00	 7.407407e-02	 1.016294e+01
0	 6.296296e+00	 1.481481e-01	 1.016338e+01
0	 6.296296e+00	 2.222222e-01	 1.016409e+01
0	 6.296296e+00	 2.962963e-01	 1.016508e+01
0	 6.296296e+00	 3.703704e-01	 1.016636e+01
0	 5.925926e+00	 3.703704e-01	 1.020999e+01
0	 5.925926e+00	 4.444444e-01	 1.021196e+01
0	 5.925926e+00	 5.185185e-01	 1.021419e+01
0	 5.925926e+00	 5.925926e-01	 1.021669e+01
0	 5.925926e+00	 6.666667e-01	 1.021951e+01
0	 5.925926e+00	 7.407407e-01	 1.022264e+01
0	 6.000000e+00	 3.703704e-01	 1.020104e+01
0	 6.000000e+00	 4.444444e-01	 1.020292e+01
0	 6.000000e+00	 5.185185e-01	 1.020504e+01
0	 6.000000e+00	 5.925926e-01	 1.020744e+01
0	 6.000000e+00	 6.666667e-01	 1.021012e+01
0	 6.000000e+00	 7.407407e-01	 1.021311e+01
0	 6.074074e+00	 3.703704e-01	 1.019221e+01
0	 6.074074e+00	 4.444444e-01	 1.019400e+01
0	 6.074074e+00	 5.185185e-01	 1.019602e+01
0	 6.074074e+00	 5.925926e-01	 1.019831e+01
0	 6.074074e+00	 6.666667e-01	 1.020087e+01
0	 6.074074e+00	 7.407407e-01	 1.020374e+01
0	 6.148148e+00	 3.703704e-01	 1.018350e+01
0	 6.148148e+00	 4.444444e-01	 1.018519e+01
0	 6.148148e+00	 5.185185e-01	 1.018712e+01
0	 6.148148e+00	 5.925926e-01	 1.018931e+01
0	 6.148148e+00	 6.666667e-01	 1.019176e+01
0	 6.148148e+00	 7.407407e-01	 1.019450e+01
0	 6.222222e+00	 3.703704e-01	 1.017489e+01
0	 6.222222e+00	 4.444444e-01	 1.017650e+01
0	 6.222222e+00	 5.185185e-01	 1.017834e+01
0	 6.222222e+00	 5.925926e-01	 1.018042e+01
0	 6.222222e+00	 6.666667e-01	 1.018277e+01
0	 6.222222e+00	 7.407407e-01	 1.018539e+01
0	 6.296296e+00	 3.703704e-01	 1.016636e+01
0	 6.296296e+00	 4.444444e-01	 1.016790e+01
0	 6.296296e+00	 5.185185e-01	 1.016966e+01
0	 6.296296e+00	 5.925926e-01	 1.017165e+01
0	 6.296296e+00	 6.666667e-01	 1.017390e+01
0	 6.296296e+00	 7.407407e-01	 1.017641e+01
0	 5.925926e+00	 7.407407e-01	 1.022264e+01
0	 5.925926e+00	 8.148148e-01	 1.022600e+01
0	 5.925926e+00	 8.888889e-01	 1.022950e+01
0	 5.925926e+00	 9.629630e-01	 1.023316e+01
0	 5.925926e+00	 1.037037e+00	 1.023702e+01
0	 5.925926e+00	 1.111111e+00	 1.024111e+01
0	 6.000000e+00	 7.407407e-01	 1.021311e+01
0	 6.000000e+00	 8.148148e-01	 1.021632e+01
0	 6.000000e+00	 8.888889e-01	 1.021967e+01
0	 6.000000e+00	 9.629630e-01	 1.022319e+01
0	 6.000000e+00	 1.037037e+00	 1.022690e+01
0	 6.000000e+00	 1.111111e+00	 1.023082e+01
0	 6.074074e+00	 7.407407e-01	 1.020374e+01
0	 6.074074e+00	 8.148148e-01	 1.020681e+01
0	 6.074074e+00	 8.888889e-01	 1.021002e+01
0	 6.074074e+00	 9.629630e-01	 1.021339e+01
0	 6.074074e+00	 1.037037e+00	 1.021695e+01
0	 6.074074e+00	 1.111111e+00	 1.022072e+01
0	 6.148148e+00	 7.407407e-01	 1.019450e+01
0	 6.148148e+00	 8.148148e-01	 1.019744e+01
0	 6.148148e+00	 8.888889e-01	 1.020052e+01
0	 6.148148e+00	 9.629630e-01	 1.020376e+01
0	 6.148148e+00	 1.037037e+00	 1.020717e+01
0	 6.148148e+00	 1.111111e+00	 1.021079e+01
0	 6.222222e+00	 7.407407e-01	 1.018539e+01
0	 6.222222e+00	 8.148148e-01	 1.018821e+01
0	 6.222222e+00	 8.888889e-01	 1.019117e+01
0	 6.222222e+00	 9.629630e-01	 1.019427e+01
0	 6.222222e+00	 1.037037e+00	 1.019755e+01
0	 6.222222e+00	 1.111111e+00	 1.020102e+01
0	 6.296296e+00	 7.407407e-01	 1.017641e+01
0	 6.296296e+00	 8.148148e-01	 1.017911e+01
0	 6.296296e+00	 8.888889e-01	 1.018194e+01
0	 6.296296e+00	 9.629630e-01	 1.018492e+01
0	 6.296296e+00	 1.037037e+00	 1.018806e+01
0	 6.296296e+00	 1.111111e+00	 1.019139e+01
0	 5.925926e+00	 1.111111e+00	 1.024111e+01
0	 5.925926e+00	 1.185185e+00	 1.024530e+01
0	 5.925926e+00	 1.259259e+00	 1.024949e+01
0	 5.925926e+00	 1.333333e+00	 1.025369e+01
0	 5.925926e+00	 1.407407e+00	 1.025794e+01
0	 5.925926e+00	 1.481481e+00	 1.026228e+01
0	 6.000000e+00	 1.111111e+00	 1.023082e+01
0	 6.000000e+00	 1.185185e+00	 1.023486e+01
0	 6.000000e+00	 1.259259e+00	 1.023888e+01
0	 6.000000e+00	 1.333333e+00	 1.024292e+01
0	 6.000000e+00	 1.407407e+00	 1.024702e+01
0	 6.000000e+00	 1.481481e+00	 1.025120e+01
0	 6.074074e+00	 1.111111e+00	 1.022072e+01
0	 6.074074e+00	 1.185185e+00	 1.022459e+01
0	 6.074074e+00	 1.259259e+00	 1.022846e+01
0	 6.074074e+00	 1.333333e+00	 1.023236e+01
0	 6.074074e+00	 1.407407e+00	 1.023631e+01
0	 6.074074e+00	 1.481481e+00	 1.024035e+01
0	 6.148148e+00	 1.111111e+00	 1.021079e+01
0	 6.148148e+00	 1.185185e+00	 1.021451e+01
0	 6.148148e+00	 1.259259e+00	 1.021823e+01
0	 6.148148e+00	 1.333333e+00	 1.022199e+01
0	 6.148148e+00	 1.407407e+00	 1.022580e+01
0	 6.148148e+00	 1.481481e+00	 1.022971e+01
0	 6.222222e+00	 1.111111e+00	 1.020102e+01
0	 6.222222e+00	 1.185185e+00	 1.020459e+01
0	 6.222222e+00	 1.259259e+00	 1.020817e+01
0	 6.222222e+00	 1.333333e+00	 1.021179e+01
0	 6.222222e+00	 1.407407e+00	 1.021548e+01
0	 6.222222e+00	 1.481481e+00	 1.021926e+01
0	 6.296296e+00	 1.111111e+00	 1.019139e+01
0	 6.296296e+00	 1.185185e+00	 1.019482e+01
0	 6.296296e+00	 1.259259e+00	 1.019827e+01
0	 6.296296e+00	 1.333333e+00	 1.020176e+01
0	 6.296296e+00	 1.407407e+00	 1.020532e+01
0	 6.296296e+00	 1.481481e+00	 1.020898e+01
0	 5.925926e+00	 1.481481e+00	 1.026228e+01
0	 5.925926e+00	 1.555556e+00	 1.026658e+01
0	 5.925926e+00	 1.629630e+00	 1.027074e+01
0	 5.925926e+00	 1.703704e+00	 1.027480e+01
0	 5.925926e+00	 1.777778e+00	 1.027878e+01
0	 5.925926e+00	 1.851852e+00	 1.028272e+01
0	 6.000000e+00	 1.481481e+00	 1.025120e+01
0	 6.000000e+00	 1.555556e+00	 1.025535e+01
0	 6.000000e+00	 1.629630e+00	 1.025939e+01
0	 6.000000e+00	 1.703704e+00	 1.026333e+01
0	 6.000000e+00	 1.777778e+00	 1.026721e+01
0	 6.000000e+00	 1.851852e+00	 1.027104e+01
0	 6.074074e+00	 1.481481e+00	 1.024035e+01
0	 6.074074e+00	 1.555556e+00	 1.024437e+01
0	 6.074074e+00	 1.629630e+00	 1.024828e+01
0	 6.074074e+00	 1.703704e+00	 1.025211e+01
0	 6.074074e+00	 1.777778e+00	 1.025588e+01
0	 6.074074e+00	 1.851852e+00	 1.025962e+01
0	 6.148148e+00	 1.481481e+00	 1.022971e+01
0	 6.148148e+00	 1.555556e+00	 1.023360e+01
0	 6.148148e+00	 1.629630e+00	 1.023740e+01
0	 6.148148e+00	 1.703704e+00	 1.024112e+01
0	 6.148148e+00	 1.777778e+00	 1.024479e+01
0	 6.148148e+00	 1.851852e+00	 1.024843e+01
0	 6.222222e+00	 1.481481e+00	 1.021926e+01
0	 6.222222e+00	 1.555556e+00	 1.022303e+01
0	 6.222222e+00	 1.629630e+00	 1.022672e+01
0	 6.222222e+00	 1.703704e+00	 1.023033e+01
0	 6.222222e+00	 1.777778e+00	 1.023390e+01
0	 6.222222e+00	 1.851852e+00	 1.023745e+01
0	 6.296296e+00	 1.481481e+00	 1.020898e+01
0	 6.296296e+00	 1.555556e+00	 1.021264e+01
0	 6.296296e+00	 1.629630e+00	 1.021621e+01
0	 6.296296e+00	 1.703704e+00	 1.021972e+01
0	 6.296296e+00	 1.777778e+00	 1.022319e+01
0	 6.296296e+00	 1.851852e+00	 1.022664e+01
0	 5.925926e+00	 1.851852e+00	 1.028272e+01
0	 5.925926e+00	 1.925926e+00	 1.028651e+01
0	 5.925926e+00	 2.000000e+00	 1.029006e+01
0	 5.925926e+00	 2.074074e+00	 1.029339e+01
0	 5.925926e+00	 2.148148e+00	 1.029652e+01
0	 5.925926e+00	 2.222222e+00	 1.029949e+01
0	 6.000000e+00	 1.851852e+00	 1.027104e+01
0	 6.000000e+00	 1.925926e+00	 1.027475e+01
0	 6.000000e+00	 2.000000e+00	 1.027823e+01
0	 6.000000e+00	 2.074074e+00	 1.028151e+01
0	 6.000000e+00	 2.148148e+00	 1.028460e+01
0	 6.000000e+00	 2.222222e+00	 1.028754e+01
0	 6.074074e+00	 1.851852e+00	 1.025962e+01
0	 6.074074e+00	 1.925926e+00	 1.026324e+01
0	 6.074074e+00	 2.000000e+00	 1.026665e+01
0	 6.074074e+00	 2.074074e+00	 1.026987e+01
0	 6.074074e+00	 2.148148e+00	 1.027293e+01
0	 6.074074e+00	 2.222222e+00	 1.027584e+01
0	 6.148148e+00	 1.851852e+00	 1.024843e+01
0	 6.148148e+00	 1.925926e+00	 1.025196e+01
0	 6.148148e+00	 2.000000e+00	 1.025530e+01
0	 6.148148e+00	 2.074074e+00	 1.025847e+01
0	 6.148148e+00	 2.148148e+00	 1.026148e+01
0	 6.148148e+00	 2.222222e+00	 1.026436e+01
0	 6.222222e+00	 1.851852e+00	 1.023745e+01
0	 6.222222e+00	 1.925926e+00	 1.024089e+01
0	 6.222222e+00	 2.000000e+00	 1.024416e+01
0	 6.222222e+00	 2.074074e+00	 1.024727e+01
0	 6.222222e+00	 2.148148e+00	 1.025024e+01
0	 6.222222e+00	 2.222222e+00	 1.025309e+01
0	 6.296296e+00	 1.851852e+00	 1.022664e+01
0	 6.296296e+00	 1.925926e+00	 1.023000e+01
0	 6.296296e+00	 2.000000e+00	 1.023320e+01
0	 6.296296e+00	 2.074074e+00	 1.023625e+01
0	 6.296296e+00	 2.148148e+00	 1.023918e+01
0	 6.296296e+00	 2.222222e+00	 1.024200e+01
0	 5.925926e+00	 2.222222e+00	 1.029949e+01
0	 5.925926e+00	 2.296296e+00	 1.030222e+01
0	 5.925926e+00	 2.370370e+00	 1.030466e+01
0	 5.925926e+00	 2.444444e+00	 1.030682e+01
0	 5.925926e+00	 2.518519e+00	 1.030872e+01
0	 5.925926e+00	 2.592593e+00	 1.031037e+01
0	 6.000000e+00	 2.222222e+00	 1.028754e+01
0	 6.000000e+00	 2.296296e+00	 1.029026e+01
0	 6.000000e+00	 2.370370e+00	 1.029271e+01
0	 6.000000e+00	 2.444444e+00	 1.029490e+01
0	 6.000000e+00	 2.518519e+00	 1.029684e+01
0	 6.000000e+00	 2.592593e+00	 1.029855e+01
0	 6.074074e+00	 2.222222e+00	 1.027584e+01
0	 6.074074e+00	 2.296296e+00	 1.027855e+01
0	 6.074074e+00	 2.370370e+00	 1.028101e+01
0	 6.074074e+00	 2.444444e+00	 1.028321e+01
0	 6.074074e+00	 2.518519e+00	 1.028519e+01
0	 6.074074e+00	 2.592593e+00	 1.028695e+01
0	 6.148148e+00	 2.222222e+00	 1.026436e+01
0	 6.148148e+00	 2.296296e+00	 1.026706e+01
0	 6.148148e+00	 2.370370e+00	 1.026952e+01
0	 6.148148e+00	 2.444444e+00	 1.027174e+01
0	 6.148148e+00	 2.518519e+00	 1.027375e+01
0	 6.148148e+00	 2.592593e+00	 1.027555e+01
0	 6.222222e+00	 2.222222e+00	 1.025309e+01
0	 6.222222e+00	 2.296296e+00	 1.025577e+01
0	 6.222222e+00	 2.370370e+00	 1.025822e+01
0	 6.222222e+00	 2.444444e+00	 1.026046e+01
0	 6.222222e+00	 2.518519e+00	 1.026249e+01
0	 6.222222e+00	 2.592593e+00	 1.026432e+01
0	 6.296296e+00	 2.222222e+00	 1.024200e+01
0	 6.296296e+00	 2.296296e+00	 1.024466e+01
0	 6.296296e+00	 2.370370e+00	 1.024711e+01
0	 6.296296e+00	 2.444444e+00	 1.024935e+01
0	 6.296296e+00	 2.518519e+00	 1.025139e+01
0	 6.296296e+00	 2.592593e+00	 1.025326e+01
0	 5.925926e+00	 2.592593e+00	 1.031037e+01
0	 5.925926e+00	 2.666667e+00	 1.031175e+01
0	 5.925926e+00	 2.740741e+00	 1.031282e+01
0	 5.925926e+00	 2.814815e+00	 1.031359e+01
0	 5.925926e+00	 2.888889e+00	 1.031406e+01
0	 5.925926e+00	 2.962963e+00	 1.031426e+01
0	 6.000000e+00	 2.592593e+00	 1.029855e+01
0	 6.000000e+00	 2.666667e+00	 1.030000e+01
0	 6.000000e+00	 2.740741e+00	 1.030116e+01
0	 6.000000e+00	 2.814815e+00	 1.030204e+01
0	 6.000000e+00	 2.888889e+00	 1.030263e+01
0	 6.000000e+00	 2.962963e+00	 1.030296e+01
0	 6.074074e+00	 2.592593e+00	 1.028695e+01
0	 6.074074e+00	 2.666667e+00	 1.028847e+01
0	 6.074074e+00	 2.740741e+00	 1.028970e+01
0	 6.074074e+00	 2.814815e+00	 1.029067e+01
0	 6.074074e+00	 2.888889e+00	 1.029137e+01
0	 6.074074e+00	 2.962963e+00	 1.029182e+01
0	 6.148148e+00	 2.592593e+00	 1.027555e+01
0	 6.148148e+00	 2.666667e+00	 1.027712e+01
0	 6.148148e+00	 2.740741e+00	 1.027842e+01
0	 6.148148e+00	 2.814815e+00	 1.027947e+01
0	 6.148148e+00	 2.888889e+00	 1.028027e+01
0	 6.148148e+00	 2.962963e+00	 1.028083e+01
0	 6.222222e+00	 2.592593e+00	 1.026432e+01
0	 6.222222e+00	 2.666667e+00	 1.026594e+01
0	 6.222222e+00	 2.740741e+00	 1.026731e+01
0	 6.222222e+00	 2.814815e+00	 1.026844e+01
0	 6.222222e+00	 2.888889e+00	 1.026932e+01
0	 6.222222e+00	 2.962963e+00	 1.026998e+01
0	 6.296296e+00	 2.592593e+00	 1.025326e+01
0	 6.296296e+00	 2.666667e+00	 1.025493e+01
0	 6.296296e+00	 2.740741e+00	 1.025635e+01
0	 6.296296e+00	 2.814815e+00	 1.025754e+01
0	 6.296296e+00	 2.888889e+00	 1.025851e+01
0	 6.296296e+00	 2.962963e+00	 1.025927e+01
0	 5.925926e+00	 2.962963e+00	 1.031426e+01
0	 5.925926e+00	 3.037037e+00	 1.031416e+01
0	 5.925926e+00	 3.111111e+00	 1.031379e+01
0	 5.925926e+00	 3.185185e+00	 1.031312e+01
0	 5.925926e+00	 3.259259e+00	 1.031218e+01
0	 5.925926e+00	 3.333333e+00	 1.031095e+01
0	 6.000000e+00	 2.962963e+00	 1.030296e+01
0	 6.000000e+00	 3.037037e+00	 1.030301e+01
0	 6.000000e+00	 3.111111e+00	 1.030279e+01
0	 6.000000e+00	 3.185185e+00	 1.030229e+01
0	 6.000000e+00	 3.259259e+00	 1.030152e+01
0	 6.000000e+00	 3.333333e+00	 1.030048e+01
0	 6.074074e+00	 2.962963e+00	 1.029182e+01
0	 6.074074e+00	 3.037037e+00	 1.029200e+01
0	 6.074074e+00	 3.111111e+00	 1.029193e+01
0	 6.074074e+00	 3.185185e+00	 1.029159e+01
0	 6.074074e+00	 3.259259e+00	 1.029098e+01
0	 6.074074e+00	 3.333333e+00	 1.029012e+01
0	 6.148148e+00	 2.962963e+00	 1.028083e+01
0	 6.148148e+00	 3.037037e+00	 1.028114e+01
0	 6.148148e+00	 3.111111e+00	 1.028120e+01
0	 6.148148e+00	 3.185185e+00	 1.028100e+01
0	 6.148148e+00	 3.259259e+00	 1.028055e+01
0	 6.148148e+00	 3.333333e+00	 1.027985e+01
0	 6.222222e+00	 2.962963e+00	 1.026998e+01
0	 6.222222e+00	 3.037037e+00	 1.027041e+01
0	 6.222222e+00	 3.111111e+00	 1.027059e+01
0	 6.222222e+00	 3.185185e+00	 1.027052e+01
0	 6.222222e+00	 3.259259e+00	 1.027022e+01
0	 6.222222e+00	 3.333333e+00	 1.026968e+01
0	 6.296296e+00	 2.962963e+00	 1.025927e+01
0	 6.296296e+00	 3.037037e+00	 1.025980e+01
0	 6.296296e+00	 3.111111e+00	 1.026009e+01
0	 6.296296e+00	 3.185185e+00	 1.026015e+01
0	 6.296296e+00	 3.259259e+00	 1.025999e+01
0	 6.296296e+00	 3.333333e+00	 1.025959e+01
0	 5.925926e+00	 3.333333e+00	 1.031095e+01
0	 5.925926e+00	 3.407407e+00	 1.030945e+01
0	 5.925926e+00	 3.481481e+00	 1.030772e+01
0	 5.925926e+00	 3.555556e+00	 1.030573e+01
0	 5.925926e+00	 3.629630e+00	 1.030350e+01
0	 5.925926e+00	 3.703704e+00	 1.030102e+01
0	 6.000000e+00	 3.333333e+00	 1.030048e+01
0	 6.000000e+00	 3.407407e+00	 1.029919e+01
0	 6.000000e+00	 3.481481e+00	 1.029766e+01
0	 6.000000e+00	 3.555556e+00	 1.029589e+01
0	 6.000000e+00	 3.629630e+00	 1.029388e+01
0	 6.000000e+00	 3.703704e+00	 1.029162e+01
0	 6.074074e+00	 3.333333e+00	 1.029012e+01
0	 6.074074e+00	 3.407407e+00	 1.028901e+01
0	 6.074074e+00	 3.481481e+00	 1.028768e+01
0	 6.074074e+00	 3.555556e+00	 1.028611e+01
0	 6.074074e+00	 3.629630e+00	 1.028430e+01
0	 6.074074e+00	 3.703704e+00	 1.028226e+01
0	 6.148148e+00	 3.333333e+00	 1.027985e+01
0	 6.148148e+00	 3.407407e+00	 1.027892e+01
0	 6.148148e+00	 3.481481e+00	 1.027776e+01
0	 6.148148e+00	 3.555556e+00	 1.027638e+01
0	 6.148148e+00	 3.629630e+00	 1.027477e+01
0	 6.148148e+00	 3.703704e+00	 1.027293e+01
0	 6.222222e+00	 3.333333e+00	 1.026968e+01
0	 6.222222e+00	 3.407407e+00	 1.026891e+01
0	 6.222222e+00	 3.481481e+00	 1.026792e+01
0	 6.222222e+00	 3.555556e+00	 1.026672e+01
0	 6.222222e+00	 3.629630e+00	 1.026529e+01
0	 6.222222e+00	 3.703704e+00	 1.026365e+01
0	 6.296296e+00	 3.333333e+00	 1.025959e+01
0	 6.296296e+00	 3.407407e+00	 1.025898e+01
0	 6.296296e+00	 3.481481e+00	 1.025816e+01
0	 6.296296e+00	 3.555556e+00	 1.025712e+01
0	 6.296296e+00	 3.629630e+00	 1.025587e+01
0	 6.296296e+00	 3.703704e+00	 1.025441e+01
0	 5.925926e+00	 3.703704e+00	 1.030102e+01
0	 5.925926e+00	 3.777778e+00	 1.029831e+01
0	 5.925926e+00	 3.851852e+00	 1.029541e+01
0	 5.925926e+00	 3.925926e+00	 1.029232e+01
0	 5.925926e+00	 4.000000e+00	 1.028903e+01
0	 5.925926e+00	 4.074074e+00	 1.028553e+01
0	 6.000000e+00	 3.703704e+00	 1.029162e+01
0	 6.000000e+00	 3.777778e+00	 1.028914e+01
0	 6.000000e+00	 3.851852e+00	 1.028648e+01
0	 6.000000e+00	 3.925926e+00	 1.028363e+01
0	 6.000000e+00	 4.000000e+00	 1.028058e+01
0	 6.000000e+00	 4.074074e+00	 1.027732e+01
0	 6.074074e+00	 3.703704e+00	 1.028226e+01
0	 6.074074e+00	 3.777778e+00	 1.028000e+01
0	 6.074074e+00	 3.851852e+00	 1.027756e+01
0	 6.074074e+00	 3.925926e+00	 1.027494e+01
0	 6.074074e+00	 4.000000e+00	 1.027211e+01
0	 6.074074e+00	 4.074074e+00	 1.026909e+01
0	 6.148148e+00	 3.703704e+00	 1.027293e+01
0	 6.148148e+00	 3.777778e+00	 1.027088e+01
0	 6.148148e+00	 3.851852e+00	 1.026866e+01
0	 6.148148e+00	 3.925926e+00	 1.026624e+01
0	 6.148148e+00	 4.000000e+00	 1.026364e+01
0	 6.148148e+00	 4.074074e+00	 1.026083e+01
0	 6.222222e+00	 3.703704e+00	 1.026365e+01
0	 6.222222e+00	 3.777778e+00	 1.026180e+01
0	 6.222222e+00	 3.851852e+00	 1.025977e+01
0	 6.222222e+00	 3.925926e+00	 1.025756e+01
0	 6.222222e+00	 4.000000e+00	 1.025517e+01
0	 6.222222e+00	 4.074074e+00	 1.025258e+01
0	 6.296296e+00	 3.703704e+00	 1.025441e+01
0	 6.296296e+00	 3.777778e+00	 1.025275e+01
0	 6.296296e+00	 3.851852e+00	 1.025091e+01
0	 6.296296e+00	 3.925926e+00	 1.024890e+01
0	 6.296296e+00	 4.000000e+00	 1.024670e+01
0	 6.296296e+00	 4.074074e+00	 1.024432e+01
0	 5.925926e+00	 4.074074e+00	 1.028553e+01
0	 5.925926e+00	 4.148148e+00	 1.028186e+01
0	 5.925926e+00	 4.222222e+00	 1.027805e+01
0	 5.925926e+00	 4.296296e+00	 1.027411e+01
0	 5.925926e+00	 4.370370e+00	 1.027002e+01
0	 5.925926e+00	 4.444444e+00	 1.026577e+01
0	 6.000000e+00	 4.074074e+00	 1.027732e+01
0	 6.000000e+00	 4.148148e+00	 1.027389e+01
0	 6.000000e+00	 4.222222e+00	 1.027033e+01
0	 6.000000e+00	 4.296296e+00	 1.026663e+01
0	 6.000000e+00	 4.370370e+00	 1.026279e+01
0	 6.000000e+00	 4.444444e+00	 1.025878e+01
0	 6.074074e+00	 4.074074e+00	 1.026909e+01
0	 6.074074e+00	 4.148148e+00	 1.026589e+01
0	 6.074074e+00	 4.222222e+00	 1.026257e+01
0	 6.074074e+00	 4.296296e+00	 1.025910e+01
0	 6.074074e+00	 4.370370e+00	 1.025549e+01
0	 6.074074e+00	 4.444444e+00	 1.025172e+01
0	 6.148148e+00	 4.074074e+00	 1.026083e+01
0	 6.148148e+00	 4.148148e+00	 1.025787e+01
0	 6.148148e+00	 4.222222e+00	 1.025477e+01
0	 6.148148e+00	 4.296296e+00	 1.025153e+01
0	 6.148148e+00	 4.370370e+00	 1.024814e+01
0	 6.148148e+00	 4.444444e+00	 1.024459e+01
0	 6.222222e+00	 4.074074e+00	 1.025258e+01
0	 6.222222e+00	 4.148148e+00	 1.024983e+01
0	 6.222222e+00	 4.222222e+00	 1.024694e+01
0	 6.222222e+00	 4.296296e+00	 1.024392e+01
0	 6.222222e+00	 4.370370e+00	 1.024074e+01
0	 6.222222e+00	 4.444444e+00	 1.023742e+01
0	 6.296296e+00	 4.074074e+00	 1.024432e+01
0	 6.296296e+00	 4.148148e+00	 1.024178e+01
0	 6.296296e+00	 4.222222e+00	 1.023910e+01
0	 6.296296e+00	 4.296296e+00	 1.023628e+01
0	 6.296296e+00	 4.370370e+00	 1.023332e+01
0	 6.296296e+00	 4.444444e+00	 1.023021e+01
0	 5.925926e+00	 4.444444e+00	 1.026577e+01
0	 5.925926e+00	 4.518519e+00	 1.026141e+01
0	 5.925926e+00	 4.592593e+00	 1.025697e+01
0	 5.925926e+00	 4.666667e+00	 1.025244e+01
0	 5.925926e+00	 4.740741e+00	 1.024781e+01
0	 5.925926e+00	 4.814815e+00	 1.024308e+01
0	 6.000000e+00	 4.444444e+00	 1.025878e+01
0	 6.000000e+00	 4.518519e+00	 1.025466e+01
0	 6.000000e+00	 4.592593e+00	 1.025046e+01
0	 6.000000e+00	 4.666667e+00	 1.024616e+01
0	 6.000000e+00	 4.740741e+00	 1.024177e+01
0	 6.000000e+00	 4.814815e+00	 1.023726e+01
0	 6.074074e+00	 4.444444e+00	 1.025172e+01
0	 6.074074e+00	 4.518519e+00	 1.024783e+01
0	 6.074074e+00	 4.592593e+00	 1.024386e+01
0	 6.074074e+00	 4.666667e+00	 1.023979e+01
0	 6.074074e+00	 4.740741e+00	 1.023562e+01
0	 6.074074e+00	 4.814815e+00	 1.023134e+01
0	 6.148148e+00	 4.444444e+00	 1.024459e+01
0	 6.148148e+00	 4.518519e+00	 1.024093e+01
0	 6.148148e+00	 4.592593e+00	 1.023718e+01
0	 6.148148e+00	 4.666667e+00	 1.023333e+01
0	 6.148148e+00	 4.740741e+00	 1.022938e+01
0	 6.148148e+00	 4.814815e+00	 1.022532e+01
0	 6.222222e+00	 4.444444e+00	 1.023742e+01
0	 6.222222e+00	 4.518519e+00	 1.023397e+01
0	 6.222222e+00	 4.592593e+00	 1.023044e+01
0	 6.222222e+00	 4.666667e+00	 1.022680e+01
0	 6.222222e+00	 4.740741e+00	 1.022306e+01
0	 6.222222e+00	 4.814815e+00	 1.021921e+01
0	 6.296296e+00	 4.444444e+00	 1.023021e+01
0	 6.296296e+00	 4.518519e+00	 1.022697e+01
0	 6.296296e+00	 4.592593e+00	 1.022365e+01
0	 6.296296e+00	 4.666667e+00	 1.022022e+01
0	 6.296296e+00	 4.740741e+00	 1.021669e+01
0	 6.296296e+00	 4.814815e+00	 1.021305e+01
0	 5.925926e+00	 4.814815e+00	 1.024308e+01
0	 5.925926e+00	 4.888889e+00	 1.023828e+01
0	 5.925926e+00	 4.962963e+00	 1.023344e+01
0	 5.925926e+00	 5.037037e+00	 1.022857e+01
0	 5.925926e+00	 5.111111e+00	 1.022364e+01
0	 5.925926e+00	 5.185185e+00	 1.021866e+01
0	 6.000000e+00	 4.814815e+00	 1.023726e+01
0	 6.000000e+00	 4.888889e+00	 1.023269e+01
0	 6.000000e+00	 4.962963e+00	 1.022807e+01
0	 6.000000e+00	 5.037037e+00	 1.022341e+01
0	 6.000000e+00	 5.111111e+00	 1.021870e+01
0	 6.000000e+00	 5.185185e+00	 1.021392e+01
0	 6.074074e+00	 4.814815e+00	 1.023134e+01
0	 6.074074e+00	 4.888889e+00	 1.022698e+01
0	 6.074074e+00	 4.962963e+00	 1.022258e+01
0	 6.074074e+00	 5.037037e+00	 1.021813e+01
0	 6.074074e+00	 5.111111e+00	 1.021362e+01
0	 6.074074e+00	 5.185185e+00	 1.020905e+01
0	 6.148148e+00	 4.814815e+00	 1.022532e+01
0	 6.148148e+00	 4.888889e+00	 1.022118e+01
0	 6.148148e+00	 4.962963e+00	 1.021699e+01
0	 6.148148e+00	 5.037037e+00	 1.021274e+01
0	 6.148148e+00	 5.111111e+00	 1.020844e+01
0	 6.148148e+00	 5.185185e+00	 1.020406e+01
0	 6.222222e+00	 4.814815e+00	 1.021921e+01
0	 6.222222e+00	 4.888889e+00	 1.021528e+01
0	 6.222222e+00	 4.962963e+00	 1.021130e+01
0	 6.222222e+00	 5.037037e+00	 1.020726e+01
0	 6.222222e+00	 5.111111e+00	 1.020315e+01
0	 6.222222e+00	 5.185185e+00	 1.019897e+01
0	 6.296296e+00	 4.814815e+00	 1.021305e+01
0	 6.296296e+00	 4.888889e+00	 1.020932e+01
0	 6.296296e+00	 4.962963e+00	 1.020554e+01
0	 6.296296e+00	 5.037037e+00	 1.020170e+01
0	 6.296296e+00	 5.111111e+00	 1.019779e+01
0	 6.296296e+00	 5.185185e+00	 1.019380e+01
0	 5.925926e+00	 5.185185e+00	 1.021866e+01
0	 5.925926e+00	 5.259259e+00	 1.021364e+01
0	 5.925926e+00	 5.333333e+00	 1.020863e+01
0	 5.925926e+00	 5.407407e+00	 1.020361e+01
0	 5.925926e+00	 5.481481e+00	 1.019858e+01
0	 5.925926e+00	 5.555556e+00	 1.019353e+01
0	 6.000000e+00	 5.185185e+00	 1.021392e+01
0	 6.000000e+00	 5.259259e+00	 1.020911e+01
0	 6.000000e+00	 5.333333e+00	 1.020429e+01
0	 6.000000e+00	 5.407407e+00	 1.019946e+01
0	 6.000000e+00	 5.481481e+00	 1.019462e+01
0	 6.000000e+00	 5.555556e+00	 1.018974e+01
0	 6.074074e+00	 5.185185e+00	 1.020905e+01
0	 6.074074e+00	 5.259259e+00	 1.020444e+01
0	 6.074074e+00	 5.333333e+00	 1.019981e+01
0	 6.074074e+00	 5.407407e+00	 1.019517e+01
0	 6.074074e+00	 5.481481e+00	 1.019051e+01
0	 6.074074e+00	 5.555556e+00	 1.018582e+01
0	 6.148148e+00	 5.185185e+00	 1.020406e+01
0	 6.148148e+00	 5.259259e+00	 1.019964e+01
0	 6.148148e+00	 5.333333e+00	 1.019521e+01
0	 6.148148e+00	 5.407407e+00	 1.019076e+01
0	 6.148148e+00	 5.481481e+00	 1.018628e+01
0	 6.148148e+00	 5.555556e+00	 1.018176e+01
0	 6.222222e+00	 5.185185e+00	 1.019897e+01
0	 6.222222e+00	 5.259259e+00	 1.019475e+01
0	 6.222222e+00	 5.333333e+00	 1.019051e+01
0	 6.222222e+00	 5.407407e+00	 1.018624e+01
0	 6.222222e+00	 5.481481e+00	 1.018194e+01
0	 6.222222e+00	 5.555556e+00	 1.017760e+01
0	 6.296296e+00	 5.185185e+00	 1.019380e+01
0	 6.296296e+00	 5.259259e+00	 1.018977e+01
0	 6.296296e+00	 5.333333e+00	 1.018571e+01
0	 6.296296e+00	 5.407407e+00	 1.018162e+01
0	 6.296296e+00	 5.481481e+00	 1.017750e+01
0	 6.296296e+00	 5.555556e+00	 1.017333e+01
0	 5.925926e+00	 5.555556e+00	 1.019353e+01
0	 5.925926e+00	 5.629630e+00	 1.018848e+01
0	 5.925926e+00	 5.703704e+00	 1.018346e+01
0	 5.925926e+00	 5.777778e+00	 1.017846e+01
0	 5.925926e+00	 5.851852e+00	 1.017348e+01
0	 5.925926e+00	 5.925926e+00	 1.016850e+01
0	 6.000000e+00	 5.555556e+00	 1.018974e+01
0	 6.000000e+00	 5.629630e+00	 1.018487e+01
0	 6.000000e+00	 5.703704e+00	 1.018002e+01
0	 6.000000e+00	 5.777778e+00	 1.017518e+01
0	 6.000000e+00	 5.851852e+00	 1.017036e+01
0	 6.000000e+00	 5.925926e+00	 1.016554e+01
0	 6.074074e+00	 5.555556e+00	 1.018582e+01
0	 6.074074e+00	 5.629630e+00	 1.018112e+01
0	 6.074074e+00	 5.703704e+00	 1.017643e+01
0	 6.074074e+00	 5.777778e+00	 1.017176e+01
0	 6.074074e+00	 5.851852e+00	 1.016710e+01
0	 6.074074e+00	 5.925926e+00	 1.016243e+01
0	 6.148148e+00	 5.555556e+00	 1.018176e+01
0	 6.148148e+00	 5.629630e+00	 1.017724e+01
0	 6.148148e+00	 5.703704e+00	 1.017272e+01
0	 6.148148e+00	 5.777778e+00	 1.016821e+01
0	 6.148148e+00	 5.851852e+00	 1.016370e+01
0	 6.148148e+00	 5.925926e+00	 1.015919e+01
0	 6.222222e+00	 5.555556e+00	 1.017760e+01
0	 6.222222e+00	 5.629630e+00	 1.017324e+01
0	 6.222222e+00	 5.703704e+00	 1.016889e+01
0	 6.222222e+00	 5.777778e+00	 1.016455e+01
0	 6.222222e+00	 5.851852e+00	 1.016019e+01
0	 6.222222e+00	 5.925926e+00	 1.015583e+01
0	 6.296296e+00	 5.555556e+00	 1.017333e+01
0	 6.296296e+00	 5.629630e+00	 1.016915e+01
0	 6.296296e+00	 5.703704e+00	 1.016497e+01
0	 6.296296e+00	 5.777778e+00	 1.016078e+01
0	 6.296296e+00	 5.851852e+00	 1.015658e+01
0	 6.296296e+00	 5.925926e+00	 1.015238e+01
0	 5.925926e+00	 5.925926e+00	 1.016850e+01
0	 5.925926e+00	 6.000000e+00	 1.016356e+01
0	 5.925926e+00	 6.074074e+00	 1.015866e+01
0	 5.925926e+00	 6.148148e+00	 1.015380e+01
0	 5.925926e+00	 6.222222e+00	 1.014898e+01
0	 5.925926e+00	 6.296296e+00	 1.014419e+01
0	 6.000000e+00	 5.925926e+00	 1.016554e+01
0	 6.000000e+00	 6.000000e+00	 1.016074e+01
0	 6.000000e+00	 6.074074e+00	 1.015598e+01
0	 6.000000e+00	 6.148148e+00	 1.015126e+01
0	 6.000000e+00	 6.222222e+00	 1.014657e+01
0	 6.000000e+00	 6.296296e+00	 1.014191e+01
0	 6.074074e+00	 5.925926e+00	 1.016243e+01
0	 6.074074e+00	 6.000000e+00	 1.015778e+01
0	 6.074074e+00	 6.074074e+00	 1.015316e+01
0	 6.074074e+00	 6.148148e+00	 1.014858e+01
0	 6.074074e+00	 6.222222e+00	 1.014402e+01
0	 6.074074e+00	 6.296296e+00	 1.013948e+01
0	 6.148148e+00	 5.925926e+00	 1.015919e+01
0	 6.148148e+00	 6.000000e+00	 1.015469e+01
0	 6.148148e+00	 6.074074e+00	 1.015021e+01
0	 6.148148e+00	 6.148148e+00	 1.014577e+01
0	 6.148148e+00	 6.222222e+00	 1.014134e+01
0	 6.148148e+00	 6.296296e+00	 1.013694e+01
0	 6.222222e+00	 5.925926e+00	 1.015583e+01
0	 6.222222e+00	 6.000000e+00	 1.015148e+01
0	 6.222222e+00	 6.074074e+00	 1.014715e+01
0	 6.222222e+00	 6.148148e+00	 1.014284e+01
0	 6.222222e+00	 6.222222e+00	 1.013855e+01
0	 6.222222e+00	 6.296296e+00	 1.013428e+01
0	 6.296296e+00	 5.925926e+00	 1.015238e+01
0	 6.296296e+00	 6.000000e+00	 1.014817e+01
0	 6.296296e+00	 6.074074e+00	 1.014399e+01
0	 6.296296e+00	 6.148148e+00	 1.013982e+01
0	 6.296296e+00	 6.222222e+00	 1.013567e+01
0	 6.296296e+00	 6.296296e+00	 1.013152e+01
0	 5.925926e+00	 6.296296e+00	 1.014419e+01
0	 5.925926e+00	 6.370370e+00	 1.013945e+01
0	 5.925926e+00	 6.444444e+00	 1.013476e+01
0	 5.925926e+00	 6.518519e+00	 1.013013e+01
0	 5.925926e+00	 6.592593e+00	 1.012555e+01
0	 5.925926e+00	 6.666667e+00	 1.012102e+01
0	 6.000000e+00	 6.296296e+00	 1.014191e+01
0	 6.000000e+00	 6.370370e+00	 1.013728e+01
0	 6.000000e+00	 6.444444e+00	 1.013271e+01
0	 6.000000e+00	 6.518519e+00	 1.012819e+01
0	 6.000000e+00	 6.592593e+00	 1.012372e+01
0	 6.000000e+00	 6.666667e+00	 1.011928e+01
0	 6.074074e+00	 6.296296e+00	 1.013948e+01
0	 6.074074e+00	 6.370370e+00	 1.013498e+01
0	 6.074074e+00	 6.444444e+00	 1.013053e+01
0	 6.074074e+00	 6.518519e+00	 1.012612e+01
0	 6.074074e+00	 6.592593e+00	 1.012176e+01
0	 6.074074e+00	 6.666667e+00	 1.011743e+01
0	 6.148148e+00	 6.296296e+00	 1.013694e+01
0	 6.148148e+00	 6.370370e+00	 1.013256e+01
0	 6.148148e+00	 6.444444e+00	 1.012823e+01
0	 6.148148e+00	 6.518519e+00	 1.012393e+01
0	 6.148148e+00	 6.592593e+00	 1.011968e+01
0	 6.148148e+00	 6.666667e+00	 1.011546e+01
0	 6.222222e+00	 6.296296e+00	 1.013428e+01
0	 6.222222e+00	 6.370370e+00	 1.013003e+01
0	 6.222222e+00	 6.444444e+00	 1.012581e+01
0	 6.222222e+00	 6.518519e+00	 1.012164e+01
0	 6.222222e+00	 6.592593e+00	 1.011750e+01
0	 6.222222e+00	 6.666667e+00	 1.011338e+01
0	 6.296296e+00	 6.296296e+00	 1.013152e+01
0	 6.296296e+00	 6.370370e+00	 1.012739e+01
0	 6.296296e+00	 6.444444e+00	 1.012331e+01
0	 6.296296e+00	 6.518519e+00	 1.011925e+01
0	 6.296296e+00	 6.592593e+00	 1.011522e+01
0	 6.296296e+00	 6.666667e+00	 1.011122e+01
0	 5.925926e+00	 6.666667e+00	 1.012102e+01
0	 5.925926e+00	 6.740741e+00	 1.011654e+01
0	 5.925926e+00	 6.814815e+00	 1.011213e+01
0	 5.925926e+00	 6.888889e+00	 1.010778e+01
0	 5.925926e+00	 6.962963e+00	 1.010349e+01
0	 5.925926e+00	 7.037037e+00	 1.009926e+01
0	 6.000000e+00	 6.666667e+00	 1.011928e+01
0	 6.000000e+00	 6.740741e+00	 1.011490e+01
0	 6.000000e+00	 6.814815e+00	 1.011058e+01
0	 6.000000e+00	 6.888889e+00	 1.010633e+01
0	 6.000000e+00	 6.962963e+00	 1.010212e+01
0	 6.000000e+00	 7.037037e+00	 1.009797e+01
0	 6.074074e+00	 6.666667e+00	 1.011743e+01
0	 6.074074e+00	 6.740741e+00	 1.011315e+01
0	 6.074074e+00	 6.814815e+00	 1.010892e+01
0	 6.074074e+00	 6.888889e+00	 1.010476e+01
0	 6.074074e+00	 6.962963e+00	 1.010064e+01
0	 6.074074e+00	 7.037037e+00	 1.009657e+01
0	 6.148148e+00	 6.666667e+00	 1.011546e+01
0	 6.148148e+00	 6.740741e+00	 1.011128e+01
0	 6.148148e+00	 6.814815e+00	 1.010715e+01
0	 6.148148e+00	 6.888889e+00	 1.010308e+01
0	 6.148148e+00	 6.962963e+00	 1.009905e+01
0	 6.148148e+00	 7.037037e+00	 1.009507e+01
0	 6.222222e+00	 6.666667e+00	 1.011338e+01
0	 6.222222e+00	 6.740741e+00	 1.010931e+01
0	 6.222222e+00	 6.814815e+00	 1.010528e+01
0	 6.222222e+00	 6.888889e+00	 1.010131e+01
0	 6.222222e+00	 6.962963e+00	 1.009738e+01
0	 6.222222e+00	 7.037037e+00	 1.009348e+01
0	 6.296296e+00	 6.666667e+00	 1.011122e+01
0	 6.296296e+00	 6.740741e+00	 1.010725e+01
0	 6.296296e+00	 6.814815e+00	 1.010333e+01
0	 6.296296e+00	 6.888889e+00	 1.009945e+01
0	 6.296296e+00	 6.962963e+00	 1.009562e+01
0	 6.296296e+00	 7.037037e+00	 1.009181e+01
0	 5.925926e+00	 7.037037e+00	 1.009926e+01
0	 5.925926e+00	 7.111111e+00	 1.009510e+01
0	 5.925926e+00	 7.185185e+00	 1.009100e+01
0	 5.925926e+00	 7.259259e+00	 1.008698e+01
0	 5.925926e+00	 7.333333e+00	 1.008302e+01
0	 5.925926e+00	 7.407407e+00	 1.007913e+01
0	 6.000000e+00	 7.037037e+00	 1.009797e+01
0	 6.000000e+00	 7.111111e+00	 1.009388e+01
0	 6.000000e+00	 7.185185e+00	 1.008986e+01
0	 6.000000e+00	 7.259259e+00	 1.008591e+01
0	 6.000000e+00	 7.333333e+00	 1.008202e+01
0	 6.000000e+00	 7.407407e+00	 1.007818e+01
0	 6.074074e+00	 7.037037e+00	 1.009657e+01
0	 6.074074e+00	 7.111111e+00	 1.009256e+01
0	 6.074074e+00	 7.185185e+00	 1.008862e+01
0	 6.074074e+00	 7.259259e+00	 1.008474e+01
0	 6.074074e+00	 7.333333e+00	 1.008092e+01
0	 6.074074e+00	 7.407407e+00	 1.007715e+01
0	 6.148148e+00	 7.037037e+00	 1.009507e+01
0	 6.148148e+00	 7.111111e+00	 1.009115e+01
0	 6.148148e+00	 7.185185e+00	 1.008728e+01
0	 6.148148e+00	 7.259259e+00	 1.008348e+01
0	 6.148148e+00	 7.333333e+00	 1.007973e+01
0	 6.148148e+00	 7.407407e+00	 1.007603e+01
0	 6.222222e+00	 7.037037e+00	 1.009348e+01
0	 6.222222e+00	 7.111111e+00	 1.008964e+01
0	 6.222222e+00	 7.185185e+00	 1.008586e+01
0	 6.222222e+00	 7.259259e+00	 1.008213e+01
0	 6.222222e+00	 7.333333e+00	 1.007846e+01
0	 6.222222e+00	 7.407407e+00	 1.007484e+01
0	 6.296296e+00	 7.037037e+00	 1.009181e+01
0	 6.296296e+00	 7.111111e+00	 1.008806e+01
0	 6.296296e+00	 7.185185e+00	 1.008436e+01
0	 6.296296e+00	 7.259259e+00	 1.008072e+01
0	 6.296296e+00	 7.333333e+00	 1.007712e+01
0	 6.296296e+00	 7.407407e+00	 1.007358e+01
0	 5.925926e+00	 7.407407e+00	 1.007913e+01
0	 5.925926e+00	 7.481481e+00	 1.007531e+01
0	 5.925926e+00	 7.555556e+00	 1.007156e+01
0	 5.925926e+00	 7.629630e+00	 1.006789e+01
0	 5.925926e+00	 7.703704e+00	 1.006429e+01
0	 5.925926e+00	 7.777778e+00	 1.006076e+01
0	 6.000000e+00	 7.407407e+00	 1.007818e+01
0	 6.000000e+00	 7.481481e+00	 1.007442e+01
0	 6.000000e+00	 7.555556e+00	 1.007073e+01
0	 6.000000e+00	 7.629630e+00	 1.006711e+01
0	 6.000000e+00	 7.703704e+00	 1.006357e+01
0	 6.000000e+00	 7.777778e+00	 1.006008e+01
0	 6.074074e+00	 7.407407e+00	 1.007715e+01
0	 6.074074e+00	 7.481481e+00	 1.007345e+01
0	 6.074074e+00	 7.555556e+00	 1.006982e+01
0	 6.074074e+00	 7.629630e+00	 1.006626e+01
0	 6.074074e+00	 7.703704e+00	 1.006277e+01
0	 6.074074e+00	 7.777778e+00	 1.005933e+01
0	 6.148148e+00	 7.407407e+00	 1.007603e+01
0	 6.148148e+00	 7.481481e+00	 1.007240e+01
0	 6.148148e+00	 7.555556e+00	 1.006883e+01
0	 6.148148e+00	 7.629630e+00	 1.006533e+01
0	 6.148148e+00	 7.703704e+00	 1.006190e+01
0	 6.148148e+00	 7.777778e+00	 1.005852e+01
0	 6.222222e+00	 7.407407e+00	 1.007484e+01
0	 6.222222e+00	 7.481481e+00	 1.007127e+01
0	 6.222222e+00	 7.555556e+00	 1.006777e+01
0	 6.222222e+00	 7.629630e+00	 1.006434e+01
0	 6.222222e+00	 7.703704e+00	 1.006096e+01
0	 6.222222e+00	 7.777778e+00	 1.005765e+01
0	 6.296296e+00	 7.407407e+00	 1.007358e+01
0	 6.296296e+00	 7.481481e+00	 1.007008e+01
0	 6.296296e+00	 7.555556e+00	 1.006665e+01
0	 6.296296e+00	 7.629630e+00	 1.006329e+01
0	 6.296296e+00	 7.703704e+00	 1.005997e+01
0	 6.296296e+00	 7.777778e+00	 1.005672e+01
0	 5.925926e+00	 7.777778e+00	 1.006076e+01
0	 5.925926e+00	 7.851852e+00	 1.005730e+01
0	 5.925926e+00	 7.925926e+00	 1.005393e+01
0	 5.925926e+00	 8.000000e+00	 1.005064e+01
0	 5.925926e+00	 8.074074e+00	 1.004743e+01
0	 5.925926e+00	 8.148148e+00	 1.004429e+01
0	 6.000000e+00	 7.777778e+00	 1.006008e+01
0	 6.000000e+00	 7.851852e+00	 1.005667e+01
0	 6.000000e+00	 7.925926e+00	 1.005335e+01
0	 6.000000e+00	 8.000000e+00	 1.005010e+01
0	 6.000000e+00	 8.074074e+00	 1.004692e+01
0	 6.000000e+00	 8.148148e+00	 1.004382e+01
0	 6.074074e+00	 7.777778e+00	 1.005933e+01
0	 6.074074e+00	 7.851852e+00	 1.005597e+01
0	 6.074074e+00	 7.925926e+00	 1.005269e+01
0	 6.074074e+00	 8.000000e+00	 1.004949e+01
0	 6.074074e+00	 8.074074e+00	 1.004636e+01
0	 6.074074e+00	 8.148148e+00	 1.004330e+01
0	 6.148148e+00	 7.777778e+00	 1.005852e+01
0	 6.148148e+00	 7.851852e+00	 1.005521e+01
0	 6.148148e+00	 7.925926e+00	 1.005198e+01
0	 6.148148e+00	 8.000000e+00	 1.004883e+01
0	 6.148148e+00	 8.074074e+00	 1.004575e+01
0	 6.148148e+00	 8.148148e+00	 1.004273e+01
0	 6.222222e+00	 7.777778e+00	 1.005765e+01
0	 6.222222e+00	 7.851852e+00	 1.005440e+01
0	 6.222222e+00	 7.925926e+00	 1.005122e+01
0	 6.222222e+00	 8.000000e+00	 1.004812e+01
0	 6.222222e+00	 8.074074e+00	 1.004508e+01
0	 6.222222e+00	 8.148148e+00	 1.004211e+01
0	 6.296296e+00	 7.777778e+00	 1.005672e+01
0	 6.296296e+00	 7.851852e+00	 1.005353e+01
0	 6.296296e+00	 7.925926e+00	 1.005041e+01
0	 6.296296e+00	 8.000000e+00	 1.004736e+01
0	 6.296296e+00	 8.074074e+00	 1.004438e+01
0	 6.296296e+00	 8.148148e+00	 1.004145e+01
0	 5.925926e+00	 8.148148e+00	 1.004429e+01
0	 5.925926e+00	 8.222222e+00	 1.004123e+01
0	 5.925926e+00	 8.296296e+00	 1.003827e+01
0	 5.925926e+00	 8.370370e+00	 1.003540e+01
0	 5.925926e+00	 8.444444e+00	 1.003260e+01
0	 5.925926e+00	 8.518519e+00	 1.002989e+01
0	 6.000000e+00	 8.148148e+00	 1.004382e+01
0	 6.000000e+00	 8.222222e+00	 1.004080e+01
0	 6.000000e+00	 8.296296e+00	 1.003787e+01
0	 6.000000e+00	 8.370370e+00	 1.003503e+01
0	 6.000000e+00	 8.444444e+00	 1.003227e+01
0	 6.000000e+00	 8.518519e+00	 1.002959e+01
0	 6.074074e+00	 8.148148e+00	 1.004330e+01
0	 6.074074e+00	 8.222222e+00	 1.004032e+01
0	 6.074074e+00	 8.296296e+00	 1.003742e+01
0	 6.074074e+00	 8.370370e+00	 1.003462e+01
0	 6.074074e+00	 8.444444e+00	 1.003189e+01
0	 6.074074e+00	 8.518519e+00	 1.002924e+01
0	 6.148148e+00	 8.148148e+00	 1.004273e+01
0	 6.148148e+00	 8.222222e+00	 1.003979e+01
0	 6.148148e+00	 8.296296e+00	 1.003693e+01
0	 6.148148e+00	 8.370370e+00	 1.003417e+01
0	 6.148148e+00	 8.444444e+00	 1.003148e+01
0	 6.148148e+00	 8.518519e+00	 1.002886e+01
0	 6.222222e+00	 8.148148e+00	 1.004211e+01
0	 6.222222e+00	 8.222222e+00	 1.003922e+01
0	 6.222222e+00	 8.296296e+00	 1.003641e+01
0	 6.222222e+00	 8.370370e+00	 1.003368e+01
0	 6.222222e+00	 8.444444e+00	 1.003103e+01
0	 6.222222e+00	 8.518519e+00	 1.002845e+01
0	 6.296296e+00	 8.148148e+00	 1.004145e+01
0	 6.296296e+00	 8.222222e+00	 1.003861e+01
0	 6.296296e+00	 8.296296e+00	 1.003584e+01
0	 6.296296e+00	 8.370370e+00	 1.003316e+01
0	 6.296296e+00	 8.444444e+00	 1.003055e+01
0	 6.296296e+00	 8.518519e+00	 1.002802e+01
0	 5.925926e+00	 8.518519e+00	 1.002989e+01
0	 5.925926e+00	 8.592593e+00	 1.002728e+01
0	 5.925926e+00	 8.666667e+00	 1.002477e+01
0	 5.925926e+00	 8.740741e+00	 1.002236e+01
0	 5.925926e+00	 8.814815e+00	 1.002005e+01
0	 5.925926e+00	 8.888889e+00	 1.001782e+01
0	 6.000000e+00	 8.518519e+00	 1.002959e+01
0	 6.000000e+00	 8.592593e+00	 1.002700e+01
0	 6.000000e+00	 8.666667e+00	 1.002451e+01
0	 6.000000e+00	 8.740741e+00	 1.002213e+01
0	 6.000000e+00	 8.814815e+00	 1.001984e+01
0	 6.000000e+00	 8.888889e+00	 1.001764e+01
0	 6.074074e+00	 8.518519e+00	 1.002924e+01
0	 6.074074e+00	 8.592593e+00	 1.002668e+01
0	 6.074074e+00	 8.666667e+00	 1.002423e+01
0	 6.074074e+00	 8.740741e+00	 1.002187e+01
0	 6.074074e+00	 8.814815e+00	 1.001961e+01
0	 6.074074e+00	 8.888889e+00	 1.001743e+01
0	 6.148148e+00	 8.518519e+00	 1.002886e+01
0	 6.148148e+00	 8.592593e+00	 1.002634e+01
0	 6.148148e+00	 8.666667e+00	 1.002392e+01
0	 6.148148e+00	 8.740741e+00	 1.002159e+01
0	 6.148148e+00	 8.814815e+00	 1.001935e+01
0	 6.148148e+00	 8.888889e+00	 1.001721e+01
0	 6.222222e+00	 8.518519e+00	 1.002845e+01
0	 6.222222e+00	 8.592593e+00	 1.002597e+01
0	 6.222222e+00	 8.666667e+00	 1.002358e+01
0	 6.222222e+00	 8.740741e+00	 1.002128e+01
0	 6.222222e+00	 8.814815e+00	 1.001908e+01
0	 6.222222e+00	 8.888889e+00	 1.001696e+01
0	 6.296296e+00	 8.518519e+00	 1.002802e+01
0	 6.296296e+00	 8.592593e+00	 1.002557e+01
0	 6.296296e+00	 8.666667e+00	 1.002322e+01
0	 6.296296e+00	 8.740741e+00	 1.002096e+01
0	 6.296296e+00	 8.814815e+00	 1.001879e+01
0	 6.296296e+00	 8.888889e+00	 1.001670e+01
0	 5.925926e+00	 8.888889e+00	 1.001782e+01
0	 5.925926e+00	 8.962963e+00	 1.001571e+01
0	 5.925926e+00	 9.037037e+00	 1.001372e+01
0	 5.925926e+00	 9.111111e+00	 1.001185e+01
0	 5.925926e+00	 9.185185e+00	 1.001009e+01
0	 5.925926e+00	 9.259259e+00	 1.000844e+01
0	 6.000000e+00	 8.888889e+00	 1.001764e+01
0	 6.000000e+00	 8.962963e+00	 1.001555e+01
0	 6.000000e+00	 9.037037e+00	 1.001358e+01
0	 6.000000e+00	 9.111111e+00	 1.001173e+01
0	 6.000000e+00	 9.185185e+00	 1.000998e+01
0	 6.000000e+00	 9.259259e+00	 1.000835e+01
0	 6.074074e+00	 8.888889e+00	 1.001743e+01
0	 6.074074e+00	 8.962963e+00	 1.001536e+01
0	 6.074074e+00	 9.037037e+00	 1.001342e+01
0	 6.074074e+00	 9.111111e+00	 1.001159e+01
0	 6.074074e+00	 9.185185e+00	 1.000987e+01
0	 6.074074e+00	 9.259259e+00	 1.000825e+01
0	 6.148148e+00	 8.888889e+00	 1.001721e+01
0	 6.148148e+00	 8.962963e+00	 1.001516e+01
0	 6.148148e+00	 9.037037e+00	 1.001324e+01
0	 6.148148e+00	 9.111111e+00	 1.001143e+01
0	 6.148148e+00	 9.185185e+00	 1.000973e+01
0	 6.148148e+00	 9.259259e+00	 1.000814e+01
0	 6.222222e+00	 8.888889e+00	 1.001696e+01
0	 6.222222e+00	 8.962963e+00	 1.001495e+01
0	 6.222222e+00	 9.037037e+00	 1.001305e+01
0	 6.222222e+00	 9.111111e+00	 1.001127e+01
0	 6.222222e+00	 9.185185e+00	 1.000959e+01
0	 6.222222e+00	 9.259259e+00	 1.000802e+01
0	 6.296296e+00	 8.888889e+00	 1.001670e+01
0	 6.296296e+00	 8.962963e+00	 1.001472e+01
0	 6.296296e+00	 9.037037e+00	 1.001285e+01
0	 6.296296e+00	 9.111111e+00	 1.001110e+01
0	 6.296296e+00	 9.185185e+00	 1.000945e+01
0	 6.296296e+00	 9.259259e+00	 1.000789e+01
0	 5.925926e+00	 9.259259e+00	 1.000844e+01
0	 5.925926e+00	 9.333333e+00	 1.000691e+01
0	 5.925926e+00	 9.407407e+00	 1.000554e+01
0	 5.925926e+00	 9.481481e+00	 1.000431e+01
0	 5.925926e+00	 9.555556e+00	 1.000322e+01
0	 5.925926e+00	 9.629630e+00	 1.000226e+01
0	 6.000000e+00	 9.259259e+00	 1.000835e+01
0	 6.000000e+00	 9.333333e+00	 1.000684e+01
0	 6.000000e+00	 9.407407e+00	 1.000548e+01
0	 6.000000e+00	 9.481481e+00	 1.000427e+01
0	 6.000000e+00	 9.555556e+00	 1.000319e+01
0	 6.000000e+00	 9.629630e+00	 1.000223e+01
0	 6.074074e+00	 9.259259e+00	 1.000825e+01
0	 6.074074e+00	 9.333333e+00	 1.000676e+01
0	 6.074074e+00	 9.407407e+00	 1.000541e+01
0	 6.074074e+00	 9.481481e+00	 1.000421e+01
0	 6.074074e+00	 9.555556e+00	 1.000315e+01
0	 6.074074e+00	 9.629630e+00	 1.000221e+01
0	 6.148148e+00	 9.259259e+00	 1.000814e+01
0	 6.148148e+00	 9.333333e+00	 1.000667e+01
0	 6.148148e+00	 9.407407e+00	 1.000534e+01
0	 6.148148e+00	 9.481481e+00	 1.000416e+01
0	 6.148148e+00	 9.555556e+00	 1.000310e+01
0	 6.148148e+00	 9.629630e+00	 1.000217e+01
0	 6.222222e+00	 9.259259e+00	 1.000802e+01
0	 6.222222e+00	 9.333333e+00	 1.000657e+01
0	 6.222222e+00	 9.407407e+00	 1.000526e+01
0	 6.222222e+00	 9.481481e+00	 1.000409e+01
0	 6.222222e+00	 9.555556e+00	 1.000306e+01
0	 6.222222e+00	 9.629630e+00	 1.000214e+01
0	 6.296296e+00	 9.259259e+00	 1.000789e+01
0	 6.296296e+00	 9.333333e+00	 1.000647e+01
0	 6.296296e+00	 9.407407e+00	 1.000518e+01
0	 6.296296e+00	 9.481481e+00	 1.000403e+01
0	 6.296296e+00	 9.555556e+00	 1.000301e+01
0	 6.296296e+00	 9.629630e+00	 1.000211e+01
0	 5.925926e+00	 9.629630e+00	 1.000226e+01
0	 5.925926e+00	 9.703704e+00	 1.000145e+01
0	 5.925926e+00	 9.777778e+00	 1.000083e+01
0	 5.925926e+00	 9.851852e+00	 1.000039e+01
0	 5.925926e+00	 9.925926e+00	 1.000010e+01
0	 5.925926e+00	 1.000000e+01	 9.999977e+00
0	 6.000000e+00	 9.629630e+00	 1.000223e+01
0	 6.000000e+00	 9.703704e+00	 1.000144e+01
0	 6.000000e+00	 9.777778e+00	 1.000082e+01
0	 6.000000e+00	 9.851852e+00	 1.000038e+01
0	 6.000000e+00	 9.925926e+00	 1.000010e+01
0	 6.000000e+00	 1.000000e+01	 9.999979e+00
0	 6.074074e+00	 9.629630e+00	 1.000221e+01
0	 6.074074e+00	 9.703704e+00	 1.000142e+01
0	 6.074074e+00	 9.777778e+00	 1.000081e+01
0	 6.074074e+00	 9.851852e+00	 1.000038e+01
0	 6.074074e+00	 9.925926e+00	 1.000010e+01
0	 6.074074e+00	 1.000000e+01	 9.999979e+00
0	 6.148148e+00	 9.629630e+00	 1.000217e+01
0	 6.148148e+00	 9.703704e+00	 1.000140e+01
0	 6.148148e+00	 9.777778e+00	 1.000080e+01
0	 6.148148e+00	 9.851852e+00	 1.000037e+01
0	 6.148148e+00	 9.925926e+00	 1.000010e+01
0	 6.148148e+00	 1.000000e+01	 9.999978e+00
0	 6.222222e+00	 9.629630e+00	 1.000214e+01
0	 6.222222e+00	 9.703704e+00	 1.000138e+01
0	 6.222222e+00	 9.777778e+00	 1.000079e+01
0	 6.222222e+00	 9.851852e+00	 1.000036e+01
0	 6.222222e+00	 9.925926e+00	 1.000010e+01
0	 6.222222e+00	 1.000000e+01	 9.999978e+00
0	 6.296296e+00	 9.629630e+00	 1.000211e+01
0	 6.296296e+00	 9.703704e+00	 1.000136e+01
0	 6.296296e+00	 9.777778e+00	 1.000077e+01
0	 6.296296e+00	 9.851852e+00	 1.000036e+01
0	 6.296296e+00	 9.925926e+00	 1.000010e+01
0	 6.296296e+00	 1.000000e+01	 9.999980e+00
0	 6.296296e+00	 0.000000e+00	 1.016278e+01
0	 6.296296e+00	 7.407407e-02	 1.016294e+01
0	 6.296296e+00	 1.481481e-01	 1.016338e+01
0	 6.296296e+00	 2.222222e-01	 1.016409e+01
0	 6.296296e+00	 2.962963e-01	 1.016508e+01
0	 6.296296e+00	 3.703704e-01	 1.016636e+01
0	 6.370370e+00	 0.000000e+00	 1.015445e+01
0	 6.370370e+00	 7.407407e-02	 1.015461e+01
0	 6.370370e+00	 1.481481e-01	 1.015504e+01
0	 6.370370e+00	 2.222222e-01	 1.015572e+01
0	 6.370370e+00	 2.962963e-01	 1.015668e+01
0	 6.370370e+00	 3.703704e-01	 1.015791e+01
0	 6.444444e+00	 0.000000e+00	 1.014618e+01
0	 6.444444e+00	 7.407407e-02	 1.014634e+01
0	 6.444444e+00	 1.481481e-01	 1.014674e+01
0	 6.444444e+00	 2.222222e-01	 1.014740e+01
0	 6.444444e+00	 2.962963e-01	 1.014832e+01
0	 6.444444e+00	 3.703704e-01	 1.014949e+01
0	 6.518519e+00	 0.000000e+00	 1.013797e+01
0	 6.518519e+00	 7.407407e-02	 1.013811e+01
0	 6.518519e+00	 1.481481e-01	 1.013849e+01
0	 6.518519e+00	 2.222222e-01	 1.013912e+01
0	 6.518519e+00	 2.962963e-01	 1.014000e+01
0	 6.518519e+00	 3.703704e-01	 1.014113e+01
0	 6.592593e+00	 0.000000e+00	 1.012980e+01
0	 6.592593e+00	 7.407407e-02	 1.012993e+01
0	 6.592593e+00	 1.481481e-01	 1.013028e+01
0	 6.592593e+00	 2.222222e-01	 1.013088e+01
0	 6.592593e+00	 2.962963e-01	 1.013172e+01
0	 6.592593e+00	 3.703704e-01	 1.013281e+01
0	 6.666667e+00	 0.000000e+00	 1.012168e+01
0	 6.666667e+00	 7.407407e-02	 1.012178e+01
0	 6.666667e+00	 1.481481e-01	 1.012211e+01
0	 6.666667e+00	 2.222222e-01	 1.012268e+01
0	 6.666667e+00	 2.962963e-01	 1.012348e+01
0	 6.666667e+00	 3.703704e-01	 1.012453e+01
0	 6.296296e+00	 3.703704e-01	 1.016636e+01
0	 6.296296e+00	 4.444444e-01	 1.016790e+01
0	 6.296296e+00	 5.185185e-01	 1.016966e+01
0	 6.296296e+00	 5.925926e-01	 1.017165e+01
0	 6.296296e+00	 6.666667e-01	 1.017390e+01
0	 6.296296e+00	 7.407407e-01	 1.017641e+01
0	 6.370370e+00	 3.703704e-01	 1.015791e+01
0	 6.370370e+00	 4.444444e-01	 1.015937e+01
0	 6.370370e+00	 5.185185e-01	 1.016106e+01
0	 6.370370e+00	 5.925926e-01	 1.016297e+01
0	 6.370370e+00	 6.666667e-01	 1.016512e+01
0	 6.370370e+00	 7.407407e-01	 1.016752e+01
0	 6.444444e+00	 3.703704e-01	 1.014949e+01
0	 6.444444e+00	 4.444444e-01	 1.015090e+01
0	 6.444444e+00	 5.185185e-01	 1.015252e+01
0	 6.444444e+00	 5.925926e-01	 1.015435e+01
0	 6.444444e+00	 6.666667e-01	 1.015641e+01
0	 6.444444e+00	 7.407407e-01	 1.015872e+01
0	 6.518519e+00	 3.703704e-01	 1.014113e+01
0	 6.518519e+00	 4.444444e-01	 1.014248e+01
0	 6.518519e+00	 5.185185e-01	 1.014403e+01
0	 6.518519e+00	 5.925926e-01	 1.014579e+01
0	 6.518519e+00	 6.666667e-01	 1.014777e+01
0	 6.518519e+00	 7.407407e-01	 1.014999e+01
0	 6.592593e+00	 3.703704e-01	 1.013281e+01
0	 6.592593e+00	 4.444444e-01	 1.013411e+01
0	 6.592593e+00	 5.185185e-01	 1.013560e+01
0	 6.592593e+00	 5.925926e-01	 1.013729e+01
0	 6.592593e+00	 6.666667e-01	 1.013920e+01
0	 6.592593e+00	 7.407407e-01	 1.014132e+01
0	 6.666667e+00	 3.703704e-01	 1.012453e+01
0	 6.666667e+00	 4.444444e-01	 1.012578e+01
0	 6.666667e+00	 5.185185e-01	 1.012721e+01
0	 6.666667e+00	 5.925926e-01	 1.012884e+01
0	 6.666667e+00	 6.666667e-01	 1.013067e+01
0	 6.666667e+00	 7.407407e-01	 1.013271e+01
0	 6.296296e+00	 7.407407e-01	 1.017641e+01
0	 6.296296e+00	 8.148148e-01	 1.017911e+01
0	 6.296296e+00	 8.888889e-01	 1.018194e+01
0	 6.296296e+00	 9.629630e-01	 1.018492e+01
0	 6.296296e+00	 1.037037e+00	 1.018806e+01
0	 6.296296e+00	 1.111111e+00	 1.019139e+01
0	 6.370370e+00	 7.407407e-01	 1.016752e+01
0	 6.370370e+00	 8.148148e-01	 1.017011e+01
0	 6.370370e+00	 8.888889e-01	 1.017283e+01
0	 6.370370e+00	 9.629630e-01	 1.017568e+01
0	 6.370370e+00	 1.037037e+00	 1.017870e+01
0	 6.370370e+00	 1.111111e+00	 1.018189e+01
0	 6.444444e+00	 7.407407e-01	 1.015872e+01
0	 6.444444e+00	 8.148148e-01	 1.016120e+01
0	 6.444444e+00	 8.888889e-01	 1.016381e+01
0	 6.444444e+00	 9.629630e-01	 1.016655e+01
0	 6.444444e+00	 1.037037e+00	 1.016945e+01
0	 6.444444e+00	 1.111111e+00	 1.017253e+01
0	 6.518519e+00	 7.407407e-01	 1.014999e+01
0	 6.518519e+00	 8.148148e-01	 1.015237e+01
0	 6.518519e+00	 8.888889e-01	 1.015488e+01
0	 6.518519e+00	 9.629630e-01	 1.015752e+01
0	 6.518519e+00	 1.037037e+00	 1.016031e+01
0	 6.518519e+00	 1.111111e+00	 1.016327e+01
0	 6.592593e+00	 7.407407e-01	 1.014132e+01
0	 6.592593e+00	 8.148148e-01	 1.014361e+01
0	 6.592593e+00	 8.888889e-01	 1.014602e+01
0	 6.592593e+00	 9.629630e-01	 1.014857e+01
0	 6.592593e+00	 1.037037e+00	 1.015126e+01
0	 6.592593e+00	 1.111111e+00	 1.015411e+01
0	 6.666667e+00	 7.407407e-01	 1.013271e+01
0	 6.666667e+00	 8.148148e-01	 1.013491e+01
0	 6.666667e+00	 8.888889e-01	 1.013723e+01
0	 6.666667e+00	 9.629630e-01	 1.013968e+01
0	 6.666667e+00	 1.037037e+00	 1.014228e+01
0	 6.666667e+00	 1.111111e+00	 1.014504e+01
0	 6.296296e+00	 1.111111e+00	 1.019139e+01
0	 6.296296e+00	 1.185185e+00	 1.019482e+01
0	 6.296296e+00	 1.259259e+00	 1.019827e+01
0	 6.296296e+00	 1.333333e+00	 1.020176e+01
0	 6.296296e+00	 1.407407e+00	 1.020532e+01
0	 6.296296e+00	 1.481481e+00	 1.020898e+01
0	 6.370370e+00	 1.111111e+00	 1.018189e+01
0	 6.370370e+00	 1.185185e+00	 1.018519e+01
0	 6.370370e+00	 1.259259e+00	 1.018851e+01
0	 6.370370e+00	 1.333333e+00	 1.019189e+01
0	 6.370370e+00	 1.407407e+00	 1.019533e+01
0	 6.370370e+00	 1.481481e+00	 1.019886e+01
0	 6.444444e+00	 1.111111e+00	 1.017253e+01
0	 6.444444e+00	 1.185185e+00	 1.017570e+01
0	 6.444444e+00	 1.259259e+00	 1.017891e+01
0	 6.444444e+00	 1.333333e+00	 1.018216e+01
0	 6.444444e+00	 1.407407e+00	 1.018549e+01
0	 6.444444e+00	 1.481481e+00	 1.018891e+01
0	 6.518519e+00	 1.111111e+00	 1.016327e+01
0	 6.518519e+00	 1.185185e+00	 1.016633e+01
0	 6.518519e+00	 1.259259e+00	 1.016943e+01
0	 6.518519e+00	 1.333333e+00	 1.017257e+01
0	 6.518519e+00	 1.407407e+00	 1.017579e+01
0	 6.518519e+00	 1.481481e+00	 1.017909e+01
0	 6.592593e+00	 1.111111e+00	 1.015411e+01
0	 6.592593e+00	 1.185185e+00	 1.015707e+01
0	 6.592593e+00	 1.259259e+00	 1.016006e+01
0	 6.592593e+00	 1.333333e+00	 1.016310e+01
0	 6.592593e+00	 1.407407e+00	 1.016621e+01
0	 6.592593e+00	 1.481481e+00	 1.016940e+01
0	 6.666667e+00	 1.111111e+00	 1.014504e+01
0	 6.666667e+00	 1.185185e+00	 1.014789e+01
0	 6.666667e+00	 1.259259e+00	 1.015078e+01
0	 6.666667e+00	 1.333333e+00	 1.015372e+01
0	 6.666667e+00	 1.407407e+00	 1.015673e+01
0	 6.666667e+00	 1.481481e+00	 1.015982e+01
0	 6.296296e+00	 1.481481e+00	 1.020898e+01
0	 6.296296e+00	 1.555556e+00	 1.021264e+01
0	 6.296296e+00	 1.629630e+00	 1.021621e+01
0	 6.296296e+00	 1.703704e+00	 1.021972e+01
0	 6.296296e+00	 1.777778e+00	 1.022319e+01
0	 6.296296e+00	 1.851852e+00	 1.022664e+01
0	 6.370370e+00	 1.481481e+00	 1.019886e+01
0	 6.370370e+00	 1.555556e+00	 1.020240e+01
0	 6.370370e+00	 1.629630e+00	 1.020587e+01
0	 6.370370e+00	 1.703704e+00	 1.020928e+01
0	 6.370370e+00	 1.777778e+00	 1.021265e+01
0	 6.370370e+00	 1.851852e+00	 1.021602e+01
0	 6.444444e+00	 1.481481e+00	 1.018891e+01
0	 6.444444e+00	 1.555556e+00	 1.019233e+01
0	 6.444444e+00	 1.629630e+00	 1.019569e+01
0	 6.444444e+00	 1.703704e+00	 1.019901e+01
0	 6.444444e+00	 1.777778e+00	 1.020229e+01
0	 6.444444e+00	 1.851852e+00	 1.020557e+01
0	 6.518519e+00	 1.481481e+00	 1.017909e+01
0	 6.518519e+00	 1.555556e+00	 1.018241e+01
0	 6.518519e+00	 1.629630e+00	 1.018567e+01
0	 6.518519e+00	 1.703704e+00	 1.018889e+01
0	 6.518519e+00	 1.777778e+00	 1.019209e+01
0	 6.518519e+00	 1.851852e+00	 1.019529e+01
0	 6.592593e+00	 1.481481e+00	 1.016940e+01
0	 6.592593e+00	 1.555556e+00	 1.017262e+01
0	 6.592593e+00	 1.629630e+00	 1.017578e+01
0	 6.592593e+00	 1.703704e+00	 1.017891e+01
0	 6.592593e+00	 1.777778e+00	 1.018203e+01
0	 6.592593e+00	 1.851852e+00	 1.018515e+01
0	 6.666667e+00	 1.481481e+00	 1.015982e+01
0	 6.666667e+00	 1.555556e+00	 1.016294e+01
0	 6.666667e+00	 1.629630e+00	 1.016601e+01
0	 6.666667e+00	 1.703704e+00	 1.016906e+01
0	 6.666667e+00	 1.777778e+00	 1.017210e+01
0	 6.666667e+00	 1.851852e+00	 1.017514e+01
0	 6.296296e+00	 1.851852e+00	 1.022664e+01
0	 6.296296e+00	 1.925926e+00	 1.023000e+01
0	 6.296296e+00	 2.000000e+00	 1.023320e+01
0	 6.296296e+00	 2.074074e+00	 1.023625e+01
0	 6.296296e+00	 2.148148e+00	 1.023918e+01
0	 6.296296e+00	 2.222222e+00	 1.024200e+01
0	 6.370370e+00	 1.851852e+00	 1.021602e+01
0	 6.370370e+00	 1.925926e+00	 1.021930e+01
0	 6.370370e+00	 2.000000e+00	 1.022243e+01
0	 6.370370e+00	 2.074074e+00	 1.022543e+01
0	 6.370370e+00	 2.148148e+00	 1.022831e+01
0	 6.370370e+00	 2.222222e+00	 1.023110e+01
0	 6.444444e+00	 1.851852e+00	 1.020557e+01
0	 6.444444e+00	 1.925926e+00	 1.020878e+01
0	 6.444444e+00	 2.000000e+00	 1.021184e+01
0	 6.444444e+00	 2.074074e+00	 1.021479e+01
0	 6.444444e+00	 2.148148e+00	 1.021763e+01
0	 6.444444e+00	 2.222222e+00	 1.022038e+01
0	 6.518519e+00	 1.851852e+00	 1.019529e+01
0	 6.518519e+00	 1.925926e+00	 1.019842e+01
0	 6.518519e+00	 2.000000e+00	 1.020143e+01
0	 6.518519e+00	 2.074074e+00	 1.020432e+01
0	 6.518519e+00	 2.148148e+00	 1.020712e+01
0	 6.518519e+00	 2.222222e+00	 1.020984e+01
0	 6.592593e+00	 1.851852e+00	 1.018515e+01
0	 6.592593e+00	 1.925926e+00	 1.018822e+01
0	 6.592593e+00	 2.000000e+00	 1.019116e+01
0	 6.592593e+00	 2.074074e+00	 1.019401e+01
0	 6.592593e+00	 2.148148e+00	 1.019676e+01
0	 6.592593e+00	 2.222222e+00	 1.019944e+01
0	 6.666667e+00	 1.851852e+00	 1.017514e+01
0	 6.666667e+00	 1.925926e+00	 1.017814e+01
0	 6.666667e+00	 2.000000e+00	 1.018103e+01
0	 6.666667e+00	 2.074074e+00	 1.018382e+01
0	 6.666667e+00	 2.148148e+00	 1.018653e+01
0	 6.666667e+00	 2.222222e+00	 1.018918e+01
0	 6.296296e+00	 2.222222e+00	 1.024200e+01
0	 6.296296e+00	 2.296296e+00	 1.024466e+01
0	 6.296296e+00	 2.370370e+00	 1.024711e+01
0	 6.296296e+00	 2.444444e+00	 1.024935e+01
0	 6.296296e+00	 2.518519e+00	 1.025139e+01
0	 6.296296e+00	 2.592593e+00	 1.025326e+01
0	 6.370370e+00	 2.222222e+00	 1.023110e+01
0	 6.370370e+00	 2.296296e+00	 1.023374e+01
0	 6.370370e+00	 2.370370e+00	 1.023617e+01
0	 6.370370e+00	 2.444444e+00	 1.023841e+01
0	 6.370370e+00	 2.518519e+00	 1.024047e+01
0	 6.370370e+00	 2.592593e+00	 1.024237e+01
0	 6.444444e+00	 2.222222e+00	 1.022038e+01
0	 6.444444e+00	 2.296296e+00	 1.022300e+01
0	 6.444444e+00	 2.370370e+00	 1.022542e+01
0	 6.444444e+00	 2.444444e+00	 1.022766e+01
0	 6.444444e+00	 2.518519e+00	 1.022973e+01
0	 6.444444e+00	 2.592593e+00	 1.023165e+01
0	 6.518519e+00	 2.222222e+00	 1.020984e+01
0	 6.518519e+00	 2.296296e+00	 1.021242e+01
0	 6.518519e+00	 2.370370e+00	 1.021483e+01
0	 6.518519e+00	 2.444444e+00	 1.021707e+01
0	 6.518519e+00	 2.518519e+00	 1.021915e+01
0	 6.518519e+00	 2.592593e+00	 1.022109e+01
0	 6.592593e+00	 2.222222e+00	 1.019944e+01
0	 6.592593e+00	 2.296296e+00	 1.020200e+01
0	 6.592593e+00	 2.370370e+00	 1.020439e+01
0	 6.592593e+00	 2.444444e+00	 1.020663e+01
0	 6.592593e+00	 2.518519e+00	 1.020872e+01
0	 6.592593e+00	 2.592593e+00	 1.021067e+01
0	 6.666667e+00	 2.222222e+00	 1.018918e+01
0	 6.666667e+00	 2.296296e+00	 1.019171e+01
0	 6.666667e+00	 2.370370e+00	 1.019409e+01
0	 6.666667e+00	 2.444444e+00	 1.019632e+01
0	 6.666667e+00	 2.518519e+00	 1.019841e+01
0	 6.666667e+00	 2.592593e+00	 1.020038e+01
0	 6.296296e+00	 2.592593e+00	 1.025326e+01
0	 6.296296e+00	 2.666667e+00	 1.025493e+01
0	 6.296296e+00	 2.740741e+00	 1.025635e+01
0	 6.296296e+00	 2.814815e+00	 1.025754e+01
0	 6.296296e+00	 2.888889e+00	 1.025851e+01
0	 6.296296e+00	 2.962963e+00	 1.025927e+01
0	 6.370370e+00	 2.592593e+00	 1.024237e+01
0	 6.370370e+00	 2.666667e+00	 1.024407e+01
0	 6.370370e+00	 2.740741e+00	 1.024555e+01
0	 6.370370e+00	 2.814815e+00	 1.024680e+01
0	 6.370370e+00	 2.888889e+00	 1.024785e+01
0	 6.370370e+00	 2.962963e+00	 1.024869e+01
0	 6.444444e+00	 2.592593e+00	 1.023165e+01
0	 6.444444e+00	 2.666667e+00	 1.023339e+01
0	 6.444444e+00	 2.740741e+00	 1.023491e+01
0	 6.444444e+00	 2.814815e+00	 1.023622e+01
0	 6.444444e+00	 2.888889e+00	 1.023734e+01
0	 6.444444e+00	 2.962963e+00	 1.023826e+01
0	 6.518519e+00	 2.592593e+00	 1.022109e+01
0	 6.518519e+00	 2.666667e+00	 1.022286e+01
0	 6.518519e+00	 2.740741e+00	 1.022442e+01
0	 6.518519e+00	 2.814815e+00	 1.022579e+01
0	 6.518519e+00	 2.888889e+00	 1.022696e+01
0	 6.518519e+00	 2.962963e+00	 1.022796e+01
0	 6.592593e+00	 2.592593e+00	 1.021067e+01
0	 6.592593e+00	 2.666667e+00	 1.021247e+01
0	 6.592593e+00	 2.740741e+00	 1.021407e+01
0	 6.592593e+00	 2.814815e+00	 1.021548e+01
0	 6.592593e+00	 2.888889e+00	 1.021672e+01
0	 6.592593e+00	 2.962963e+00	 1.021778e+01
0	 6.666667e+00	 2.592593e+00	 1.020038e+01
0	 6.666667e+00	 2.666667e+00	 1.020221e+01
0	 6.666667e+00	 2.740741e+00	 1.020384e+01
0	 6.666667e+00	 2.814815e+00	 1.020530e+01
0	 6.666667e+00	 2.888889e+00	 1.020659e+01
0	 6.666667e+00	 2.962963e+00	 1.020772e+01
0	 6.296296e+00	 2.962963e+00	 1.025927e+01
0	 6.296296e+00	 3.037037e+00	 1.025980e+01
0	 6.296296e+00	 3.111111e+00	 1.026009e+01
0	 6.296296e+00	 3.185185e+00	 1.026015e+01
0	 6.296296e+00	 3.259259e+00	 1.025999e+01
0	 6.296296e+00	 3.333333e+00	 1.025959e+01
0	 6.370370e+00	 2.962963e+00	 1.024869e+01
0	 6.370370e+00	 3.037037e+00	 1.024932e+01
0	 6.370370e+00	 3.111111e+00	 1.024972e+01
0	 6.370370e+00	 3.185185e+00	 1.024990e+01
0	 6.370370e+00	 3.259259e+00	 1.024986e+01
0	 6.370370e+00	 3.333333e+00	 1.024960e+01
0	 6.444444e+00	 2.962963e+00	 1.023826e+01
0	 6.444444e+00	 3.037037e+00	 1.023898e+01
0	 6.444444e+00	 3.111111e+00	 1.023948e+01
0	 6.444444e+00	 3.185185e+00	 1.023977e+01
0	 6.444444e+00	 3.259259e+00	 1.023985e+01
0	 6.444444e+00	 3.333333e+00	 1.023972e+01
0	 6.518519e+00	 2.962963e+00	 1.022796e+01
0	 6.518519e+00	 3.037037e+00	 1.022876e+01
0	 6.518519e+00	 3.111111e+00	 1.022936e+01
0	 6.518519e+00	 3.185185e+00	 1.022975e+01
0	 6.518519e+00	 3.259259e+00	 1.022994e+01
0	 6.518519e+00	 3.333333e+00	 1.022993e+01
0	 6.592593e+00	 2.962963e+00	 1.021778e+01
0	 6.592593e+00	 3.037037e+00	 1.021866e+01
0	 6.592593e+00	 3.111111e+00	 1.021935e+01
0	 6.592593e+00	 3.185185e+00	 1.021983e+01
0	 6.592593e+00	 3.259259e+00	 1.022013e+01
0	 6.592593e+00	 3.333333e+00	 1.022024e+01
0	 6.666667e+00	 2.962963e+00	 1.020772e+01
0	 6.666667e+00	 3.037037e+00	 1.020867e+01
0	 6.666667e+00	 3.111111e+00	 1.020944e+01
0	 6.666667e+00	 3.185185e+00	 1.021002e+01
0	 6.666667e+00	 3.259259e+00	 1.021041e+01
0	 6.666667e+00	 3.333333e+00	 1.021063e+01
0	 6.296296e+00	 3.333333e+00	 1.025959e+01
0	 6.296296e+00	 3.407407e+00	 1.025898e+01
0	 6.296296e+00	 3.481481e+00	 1.025816e+01
0	 6.296296e+00	 3.555556e+00	 1.025712e+01
0	 6.296296e+00	 3.629630e+00	 1.025587e+01
0	 6.296296e+00	 3.703704e+00	 1.025441e+01
0	 6.370370e+00	 3.333333e+00	 1.024960e+01
0	 6.370370e+00	 3.407407e+00	 1.024914e+01
0	 6.370370e+00	 3.481481e+00	 1.024847e+01
0	 6.370370e+00	 3.555556e+00	 1.024759e+01
0	 6.370370e+00	 3.629630e+00	 1.024651e+01
0	 6.370370e+00	 3.703704e+00	 1.024522e+01
0	 6.444444e+00	 3.333333e+00	 1.023972e+01
0	 6.444444e+00	 3.407407e+00	 1.023939e+01
0	 6.444444e+00	 3.481481e+00	 1.023886e+01
0	 6.444444e+00	 3.555556e+00	 1.023814e+01
0	 6.444444e+00	 3.629630e+00	 1.023721e+01
0	 6.444444e+00	 3.703704e+00	 1.023609e+01
0	 6.518519e+00	 3.333333e+00	 1.022993e+01
0	 6.518519e+00	 3.407407e+00	 1.022973e+01
0	 6.518519e+00	 3.481481e+00	 1.022934e+01
0	 6.518519e+00	 3.555556e+00	 1.022876e+01
0	 6.518519e+00	 3.629630e+00	 1.022798e+01
0	 6.518519e+00	 3.703704e+00	 1.022702e+01
0	 6.592593e+00	 3.333333e+00	 1.022024e+01
0	 6.592593e+00	 3.407407e+00	 1.022016e+01
0	 6.592593e+00	 3.481481e+00	 1.021990e+01
0	 6.592593e+00	 3.555556e+00	 1.021945e+01
0	 6.592593e+00	 3.629630e+00	 1.021882e+01
0	 6.592593e+00	 3.703704e+00	 1.021801e+01
0	 6.666667e+00	 3.333333e+00	 1.021063e+01
0	 6.666667e+00	 3.407407e+00	 1.021067e+01
0	 6.666667e+00	 3.481481e+00	 1.021053e+01
0	 6.666667e+00	 3.555556e+00	 1.021022e+01
0	 6.666667e+00	 3.629630e+00	 1.020972e+01
0	 6.666667e+00	 3.703704e+00	 1.020905e+01
0	 6.296296e+00	 3.703704e+00	 1.025441e+01
0	 6.296296e+00	 3.777778e+00	 1.025275e+01
0	 6.296296e+00	 3.851852e+00	 1.025091e+01
0	 6.296296e+00	 3.925926e+00	 1.024890e+01
0	 6.296296e+00	 4.000000e+00	 1.024670e+01
0	 6.296296e+00	 4.074074e+00	 1.024432e+01
0	 6.370370e+00	 3.703704e+00	 1.024522e+01
0	 6.370370e+00	 3.777778e+00	 1.024374e+01
0	 6.370370e+00	 3.851852e+00	 1.024209e+01
0	 6.370370e+00	 3.925926e+00	 1.024026e+01
0	 6.370370e+00	 4.000000e+00	 1.023826e+01
0	 6.370370e+00	 4.074074e+00	 1.023607e+01
0	 6.444444e+00	 3.703704e+00	 1.023609e+01
0	 6.444444e+00	 3.777778e+00	 1.023478e+01
0	 6.444444e+00	 3.851852e+00	 1.023330e+01
0	 6.444444e+00	 3.925926e+00	 1.023166e+01
0	 6.444444e+00	 4.000000e+00	 1.022984e+01
0	 6.444444e+00	 4.074074e+00	 1.022784e+01
0	 6.518519e+00	 3.703704e+00	 1.022702e+01
0	 6.518519e+00	 3.777778e+00	 1.022587e+01
0	 6.518519e+00	 3.851852e+00	 1.022456e+01
0	 6.518519e+00	 3.925926e+00	 1.022309e+01
0	 6.518519e+00	 4.000000e+00	 1.022144e+01
0	 6.518519e+00	 4.074074e+00	 1.021963e+01
0	 6.592593e+00	 3.703704e+00	 1.021801e+01
0	 6.592593e+00	 3.777778e+00	 1.021702e+01
0	 6.592593e+00	 3.851852e+00	 1.021587e+01
0	 6.592593e+00	 3.925926e+00	 1.021456e+01
0	 6.592593e+00	 4.000000e+00	 1.021308e+01
0	 6.592593e+00	 4.074074e+00	 1.021144e+01
0	 6.666667e+00	 3.703704e+00	 1.020905e+01
0	 6.666667e+00	 3.777778e+00	 1.020821e+01
0	 6.666667e+00	 3.851852e+00	 1.020722e+01
0	 6.666667e+00	 3.925926e+00	 1.020607e+01
0	 6.666667e+00	 4.000000e+00	 1.020475e+01
0	 6.666667e+00	 4.074074e+00	 1.020327e+01
0	 6.296296e+00	 4.074074e+00	 1.024432e+01
0	 6.296296e+00	 4.148148e+00	 1.024178e+01
0	 6.296296e+00	 4.222222e+00	 1.023910e+01
0	 6.296296e+00	 4.296296e+00	 1.023628e+01
0	 6.296296e+00	 4.370370e+00	 1.023332e+01
0	 6.296296e+00	 4.444444e+00	 1.023021e+01
0	 6.370370e+00	 4.074074e+00	 1.023607e+01
0	 6.370370e+00	 4.148148e+00	 1.023373e+01
0	 6.370370e+00	 4.222222e+00	 1.023125e+01
0	 6.370370e+00	 4.296296e+00	 1.022864e+01
0	 6.370370e+00	 4.370370e+00	 1.022588e+01
0	 6.370370e+00	 4.444444e+00	 1.022297e+01
0	 6.444444e+00	 4.074074e+00	 1.022784e+01
0	 6.444444e+00	 4.148148e+00	 1.022569e+01
0	 6.444444e+00	 4.222222e+00	 1.022340e+01
0	 6.444444e+00	 4.296296e+00	 1.022098e+01
0	 6.444444e+00	 4.370370e+00	 1.021842e+01
0	 6.444444e+00	 4.444444e+00	 1.021571e+01
0	 6.518519e+00	 4.074074e+00	 1.021963e+01
0	 6.518519e+00	 4.148148e+00	 1.021766e+01
0	 6.518519e+00	 4.222222e+00	 1.021556e+01
0	 6.518519e+00	 4.296296e+00	 1.021332e+01
0	 6.518519e+00	 4.370370e+00	 1.021095e+01
0	 6.518519e+00	 4.444444e+00	 1.020843e+01
0	 6.592593e+00	 4.074074e+00	 1.021144e+01
0	 6.592593e+00	 4.148148e+00	 1.020964e+01
0	 6.592593e+00	 4.222222e+00	 1.020772e+01
0	 6.592593e+00	 4.296296e+00	 1.020567e+01
0	 6.592593e+00	 4.370370e+00	 1.020347e+01
0	 6.592593e+00	 4.444444e+00	 1.020114e+01
0	 6.666667e+00	 4.074074e+00	 1.020327e+01
0	 6.666667e+00	 4.148148e+00	 1.020165e+01
0	 6.666667e+00	 4.222222e+00	 1.019990e+01
0	 6.666667e+00	 4.296296e+00	 1.019802e+01
0	 6.666667e+00	 4.370370e+00	 1.019601e+01
0	 6.666667e+00	 4.444444e+00	 1.019385e+01
0	 6.296296e+00	 4.444444e+00	 1.023021e+01
0	 6.296296e+00	 4.518519e+00	 1.022697e+01
0	 6.296296e+00	 4.592593e+00	 1.022365e+01
0	 6.296296e+00	 4.666667e+00	 1.022022e+01
0	 6.296296e+00	 4.740741e+00	 1.021669e+01
0	 6.296296e+00	 4.814815e+00	 1.021305e+01
0	 6.370370e+00	 4.444444e+00	 1.022297e+01
0	 6.370370e+00	 4.518519e+00	 1.021994e+01
0	 6.370370e+00	 4.592593e+00	 1.021682e+01
0	 6.370370e+00	 4.666667e+00	 1.021359e+01
0	 6.370370e+00	 4.740741e+00	 1.021026e+01
0	 6.370370e+00	 4.814815e+00	 1.020682e+01
0	 6.444444e+00	 4.444444e+00	 1.021571e+01
0	 6.444444e+00	 4.518519e+00	 1.021287e+01
0	 6.444444e+00	 4.592593e+00	 1.020995e+01
0	 6.444444e+00	 4.666667e+00	 1.020692e+01
0	 6.444444e+00	 4.740741e+00	 1.020379e+01
0	 6.444444e+00	 4.814815e+00	 1.020054e+01
0	 6.518519e+00	 4.444444e+00	 1.020843e+01
0	 6.518519e+00	 4.518519e+00	 1.020579e+01
0	 6.518519e+00	 4.592593e+00	 1.020305e+01
0	 6.518519e+00	 4.666667e+00	 1.020022e+01
0	 6.518519e+00	 4.740741e+00	 1.019727e+01
0	 6.518519e+00	 4.814815e+00	 1.019422e+01
0	 6.592593e+00	 4.444444e+00	 1.020114e+01
0	 6.592593e+00	 4.518519e+00	 1.019869e+01
0	 6.592593e+00	 4.592593e+00	 1.019614e+01
0	 6.592593e+00	 4.666667e+00	 1.019349e+01
0	 6.592593e+00	 4.740741e+00	 1.019073e+01
0	 6.592593e+00	 4.814815e+00	 1.018786e+01
0	 6.666667e+00	 4.444444e+00	 1.019385e+01
0	 6.666667e+00	 4.518519e+00	 1.019158e+01
0	 6.666667e+00	 4.592593e+00	 1.018921e+01
0	 6.666667e+00	 4.666667e+00	 1.018674e+01
0	 6.666667e+00	 4.740741e+00	 1.018417e+01
0	 6.666667e+00	 4.814815e+00	 1.018148e+01
0	 6.296296e+00	 4.814815e+00	 1.021305e+01
0	 6.296296e+00	 4.888889e+00	 1.020932e+01
0	 6.296296e+00	 4.962963e+00	 1.020554e+01
0	 6.296296e+00	 5.037037e+00	 1.020170e+01
0	 6.296296e+00	 5.111111e+00	 1.019779e+01
0	 6.296296e+00	 5.185185e+00	 1.019380e+01
0	 6.370370e+00	 4.814815e+00	 1.020682e+01
0	 6.370370e+00	 4.888889e+00	 1.020330e+01
0	 6.370370e+00	 4.962963e+00	 1.019971e+01
0	 6.370370e+00	 5.037037e+00	 1.019606e+01
0	 6.370370e+00	 5.111111e+00	 1.019234e+01
0	 6.370370e+00	 5.185185e+00	 1.018855e+01
0	 6.444444e+00	 4.814815e+00	 1.020054e+01
0	 6.444444e+00	 4.888889e+00	 1.019721e+01
0	 6.444444e+00	 4.962963e+00	 1.019382e+01
0	 6.444444e+00	 5.037037e+00	 1.019036e+01
0	 6.444444e+00	 5.111111e+00	 1.018683e+01
0	 6.444444e+00	 5.185185e+00	 1.018322e+01
0	 6.518519e+00	 4.814815e+00	 1.019422e+01
0	 6.518519e+00	 4.888889e+00	 1.019108e+01
0	 6.518519e+00	 4.962963e+00	 1.018787e+01
0	 6.518519e+00	 5.037037e+00	 1.018460e+01
0	 6.518519e+00	 5.111111e+00	 1.018125e+01
0	 6.518519e+00	 5.185185e+00	 1.017782e+01
0	 6.592593e+00	 4.814815e+00	 1.018786e+01
0	 6.592593e+00	 4.888889e+00	 1.018490e+01
0	 6.592593e+00	 4.962963e+00	 1.018188e+01
0	 6.592593e+00	 5.037037e+00	 1.017879e+01
0	 6.592593e+00	 5.111111e+00	 1.017562e+01
0	 6.592593e+00	 5.185185e+00	 1.017237e+01
0	 6.666667e+00	 4.814815e+00	 1.018148e+01
0	 6.666667e+00	 4.888889e+00	 1.017870e+01
0	 6.666667e+00	 4.962963e+00	 1.017586e+01
0	 6.666667e+00	 5.037037e+00	 1.017295e+01
0	 6.666667e+00	 5.111111e+00	 1.016995e+01
0	 6.666667e+00	 5.185185e+00	 1.016688e+01
0	 6.296296e+00	 5.185185e+00	 1.019380e+01
0	 6.296296e+00	 5.259259e+00	 1.018977e+01
0	 6.296296e+00	 5.333333e+00	 1.018571e+01
0	 6.296296e+00	 5.407407e+00	 1.018162e+01
0	 6.296296e+00	 5.481481e+00	 1.017750e+01
0	 6.296296e+00	 5.555556e+00	 1.017333e+01
0	 6.370370e+00	 5.185185e+00	 1.018855e+01
0	 6.370370e+00	 5.259259e+00	 1.018470e+01
0	 6.370370e+00	 5.333333e+00	 1.018082e+01
0	 6.370370e+00	 5.407407e+00	 1.017691e+01
0	 6.370370e+00	 5.481481e+00	 1.017297e+01
0	 6.370370e+00	 5.555556e+00	 1.016898e+01
0	 6.444444e+00	 5.185185e+00	 1.018322e+01
0	 6.444444e+00	 5.259259e+00	 1.017955e+01
0	 6.444444e+00	 5.333333e+00	 1.017586e+01
0	 6.444444e+00	 5.407407e+00	 1.017212e+01
0	 6.444444e+00	 5.481481e+00	 1.016835e+01
0	 6.444444e+00	 5.555556e+00	 1.016453e+01
0	 6.518519e+00	 5.185185e+00	 1.017782e+01
0	 6.518519e+00	 5.259259e+00	 1.017434e+01
0	 6.518519e+00	 5.333333e+00	 1.017082e+01
0	 6.518519e+00	 5.407407e+00	 1.016726e+01
0	 6.518519e+00	 5.481481e+00	 1.016366e+01
0	 6.518519e+00	 5.555556e+00	 1.016000e+01
0	 6.592593e+00	 5.185185e+00	 1.017237e+01
0	 6.592593e+00	 5.259259e+00	 1.016906e+01
0	 6.592593e+00	 5.333333e+00	 1.016572e+01
0	 6.592593e+00	 5.407407e+00	 1.016233e+01
0	 6.592593e+00	 5.481481e+00	 1.015890e+01
0	 6.592593e+00	 5.555556e+00	 1.015541e+01
0	 6.666667e+00	 5.185185e+00	 1.016688e+01
0	 6.666667e+00	 5.259259e+00	 1.016375e+01
0	 6.666667e+00	 5.333333e+00	 1.016058e+01
0	 6.666667e+00	 5.407407e+00	 1.015736e+01
0	 6.666667e+00	 5.481481e+00	 1.015409e+01
0	 6.666667e+00	 5.555556e+00	 1.015077e+01
0	 6.296296e+00	 5.555556e+00	 1.017333e+01
0	 6.296296e+00	 5.629630e+00	 1.016915e+01
0	 6.296296e+00	 5.703704e+00	 1.016497e+01
0	 6.296296e+00	 5.777778e+00	 1.016078e+01
0	 6.296296e+00	 5.851852e+00	 1.015658e+01
0	 6.296296e+00	 5.925926e+00	 1.015238e+01
0	 6.370370e+00	 5.555556e+00	 1.016898e+01
0	 6.370370e+00	 5.629630e+00	 1.016496e+01
0	 6.370370e+00	 5.703704e+00	 1.016094e+01
0	 6.370370e+00	 5.777778e+00	 1.015692e+01
0	 6.370370e+00	 5.851852e+00	 1.015288e+01
0	 6.370370e+00	 5.925926e+00	 1.014882e+01
0	 6.444444e+00	 5.555556e+00	 1.016453e+01
0	 6.444444e+00	 5.629630e+00	 1.016068e+01
0	 6.444444e+00	 5.703704e+00	 1.015682e+01
0	 6.444444e+00	 5.777778e+00	 1.015296e+01
0	 6.444444e+00	 5.851852e+00	 1.014908e+01
0	 6.444444e+00	 5.925926e+00	 1.014517e+01
0	 6.518519e+00	 5.555556e+00	 1.016000e+01
0	 6.518519e+00	 5.629630e+00	 1.015632e+01
0	 6.518519e+00	 5.703704e+00	 1.015263e+01
0	 6.518519e+00	 5.777778e+00	 1.014892e+01
0	 6.518519e+00	 5.851852e+00	 1.014519e+01
0	 6.518519e+00	 5.925926e+00	 1.014144e+01
0	 6.592593e+00	 5.555556e+00	 1.015541e+01
0	 6.592593e+00	 5.629630e+00	 1.015189e+01
0	 6.592593e+00	 5.703704e+00	 1.014836e+01
0	 6.592593e+00	 5.777778e+00	 1.014481e+01
0	 6.592593e+00	 5.851852e+00	 1.014123e+01
0	 6.592593e+00	 5.925926e+00	 1.013763e+01
0	 6.666667e+00	 5.555556e+00	 1.015077e+01
0	 6.666667e+00	 5.629630e+00	 1.014741e+01
0	 6.666667e+00	 5.703704e+00	 1.014404e+01
0	 6.666667e+00	 5.777778e+00	 1.014064e+01
0	 6.666667e+00	 5.851852e+00	 1.013722e+01
0	 6.666667e+00	 5.925926e+00	 1.013377e+01
0	 6.296296e+00	 5.925926e+00	 1.015238e+01
0	 6.296296e+00	 6.000000e+00	 1.014817e+01
0	 6.296296e+00	 6.074074e+00	 1.014399e+01
0	 6.296296e+00	 6.148148e+00	 1.013982e+01
0	 6.296296e+00	 6.222222e+00	 1.013567e+01
0	 6.296296e+00	 6.296296e+00	 1.013152e+01
0	 6.370370e+00	 5.925926e+00	 1.014882e+01
0	 6.370370e+00	 6.000000e+00	 1.014476e+01
0	 6.370370e+00	 6.074074e+00	 1.014072e+01
0	 6.370370e+00	 6.148148e+00	 1.013670e+01
0	 6.370370e+00	 6.222222e+00	 1.013268e+01
0	 6.370370e+00	 6.296296e+00	 1.012867e+01
0	 6.444444e+00	 5.925926e+00	 1.014517e+01
0	 6.444444e+00	 6.000000e+00	 1.014126e+01
0	 6.444444e+00	 6.074074e+00	 1.013737e+01
0	 6.444444e+00	 6.148148e+00	 1.013348e+01
0	 6.444444e+00	 6.222222e+00	 1.012960e+01
0	 6.444444e+00	 6.296296e+00	 1.012572e+01
0	 6.518519e+00	 5.925926e+00	 1.014144e+01
0	 6.518519e+00	 6.000000e+00	 1.013768e+01
0	 6.518519e+00	 6.074074e+00	 1.013393e+01
0	 6.518519e+00	 6.148148e+00	 1.013018e+01
0	 6.518519e+00	 6.222222e+00	 1.012643e+01
0	 6.518519e+00	 6.296296e+00	 1.012269e+01
0	 6.592593e+00	 5.925926e+00	 1.013763e+01
0	 6.592593e+00	 6.000000e+00	 1.013402e+01
0	 6.592593e+00	 6.074074e+00	 1.013041e+01
0	 6.592593e+00	 6.148148e+00	 1.012681e+01
0	 6.592593e+00	 6.222222e+00	 1.012320e+01
0	 6.592593e+00	 6.296296e+00	 1.011958e+01
0	 6.666667e+00	 5.925926e+00	 1.013377e+01
0	 6.666667e+00	 6.000000e+00	 1.013030e+01
0	 6.666667e+00	 6.074074e+00	 1.012684e+01
0	 6.666667e+00	 6.148148e+00	 1.012337e+01
0	 6.666667e+00	 6.222222e+00	 1.011990e+01
0	 6.666667e+00	 6.296296e+00	 1.011641e+01
0	 6.296296e+00	 6.296296e+00	 1.013152e+01
0	 6.296296e+00	 6.370370e+00	 1.012739e+01
0	 6.296296e+00	 6.444444e+00	 1.012331e+01
0	 6.296296e+00	 6.518519e+00	 1.011925e+01
0	 6.296296e+00	 6.592593e+00	 1.011522e+01
0	 6.296296e+00	 6.666667e+00	 1.011122e+01
0	 6.370370e+00	 6.296296e+00	 1.012867e+01
0	 6.370370e+00	 6.370370e+00	 1.012467e+01
0	 6.370370e+00	 6.444444e+00	 1.012070e+01
0	 6.370370e+00	 6.518519e+00	 1.011677e+01
0	 6.370370e+00	 6.592593e+00	 1.011286e+01
0	 6.370370e+00	 6.666667e+00	 1.010896e+01
0	 6.444444e+00	 6.296296e+00	 1.012572e+01
0	 6.444444e+00	 6.370370e+00	 1.012185e+01
0	 6.444444e+00	 6.444444e+00	 1.011801e+01
0	 6.444444e+00	 6.518519e+00	 1.011419e+01
0	 6.444444e+00	 6.592593e+00	 1.011040e+01
0	 6.444444e+00	 6.666667e+00	 1.010662e+01
0	 6.518519e+00	 6.296296e+00	 1.012269e+01
0	 6.518519e+00	 6.370370e+00	 1.011895e+01
0	 6.518519e+00	 6.444444e+00	 1.011523e+01
0	 6.518519e+00	 6.518519e+00	 1.011154e+01
0	 6.518519e+00	 6.592593e+00	 1.010786e+01
0	 6.518519e+00	 6.666667e+00	 1.010420e+01
0	 6.592593e+00	 6.296296e+00	 1.011958e+01
0	 6.592593e+00	 6.370370e+00	 1.011597e+01
0	 6.592593e+00	 6.444444e+00	 1.011238e+01
0	 6.592593e+00	 6.518519e+00	 1.010881e+01
0	 6.592593e+00	 6.592593e+00	 1.010526e+01
0	 6.592593e+00	 6.666667e+00	 1.010171e+01
0	 6.666667e+00	 6.296296e+00	 1.011641e+01
0	 6.666667e+00	 6.370370e+00	 1.011294e+01
0	 6.666667e+00	 6.444444e+00	 1.010948e+01
0	 6.666667e+00	 6.518519e+00	 1.010603e+01
0	 6.666667e+00	 6.592593e+00	 1.010259e+01
0	 6.666667e+00	 6.666667e+00	 1.009916e+01
0	 6.296296e+00	 6.666667e+00	 1.011122e+01
0	 6.296296e+00	 6.740741e+00	 1.010725e+01
0	 6.296296e+00	 6.814815e+00	 1.010333e+01
0	 6.296296e+00	 6.888889e+00	 1.009945e+01
0	 6.296296e+00	 6.962963e+00	 1.009562e+01
0	 6.296296e+00	 7.037037e+00	 1.009181e+01
0	 6.370370e+00	 6.666667e+00	 1.010896e+01
0	 6.370370e+00	 6.740741e+00	 1.010510e+01
0	 6.370370e+00	 6.814815e+00	 1.010129e+01
0	 6.370370e+00	 6.888889e+00	 1.009751e+01
0	 6.370370e+00	 6.962963e+00	 1.009377e+01
0	 6.370370e+00	 7.037037e+00	 1.009007e+01
0	 6.444444e+00	 6.666667e+00	 1.010662e+01
0	 6.444444e+00	 6.740741e+00	 1.010287e+01
0	 6.444444e+00	 6.814815e+00	 1.009916e+01
0	 6.444444e+00	 6.888889e+00	 1.009549e+01
0	 6.444444e+00	 6.962963e+00	 1.009185e+01
0	 6.444444e+00	 7.037037e+00	 1.008824e+01
0	 6.518519e+00	 6.666667e+00	 1.010420e+01
0	 6.518519e+00	 6.740741e+00	 1.010056e+01
0	 6.518519e+00	 6.814815e+00	 1.009696e+01
0	 6.518519e+00	 6.888889e+00	 1.009339e+01
0	 6.518519e+00	 6.962963e+00	 1.008985e+01
0	 6.518519e+00	 7.037037e+00	 1.008634e+01
0	 6.592593e+00	 6.666667e+00	 1.010171e+01
0	 6.592593e+00	 6.740741e+00	 1.009818e+01
0	 6.592593e+00	 6.814815e+00	 1.009469e+01
0	 6.592593e+00	 6.888889e+00	 1.009123e+01
0	 6.592593e+00	 6.962963e+00	 1.008779e+01
0	 6.592593e+00	 7.037037e+00	 1.008438e+01
0	 6.666667e+00	 6.666667e+00	 1.009916e+01
0	 6.666667e+00	 6.740741e+00	 1.009575e+01
0	 6.666667e+00	 6.814815e+00	 1.009237e+01
0	 6.666667e+00	 6.888889e+00	 1.008901e+01
0	 6.666667e+00	 6.962963e+00	 1.008568e+01
0	 6.666667e+00	 7.037037e+00	 1.008237e+01
0	 6.296296e+00	 7.037037e+00	 1.009181e+01
0	 6.296296e+00	 7.111111e+00	 1.008806e+01
0	 6.296296e+00	 7.185185e+00	 1.008436e+01
0	 6.296296e+00	 7.259259e+00	 1.008072e+01
0	 6.296296e+00	 7.333333e+00	 1.007712e+01
0	 6.296296e+00	 7.407407e+00	 1.007358e+01
0	 6.370370e+00	 7.037037e+00	 1.009007e+01
0	 6.370370e+00	 7.111111e+00	 1.008640e+01
0	 6.370370e+00	 7.185185e+00	 1.008279e+01
0	 6.370370e+00	 7.259259e+00	 1.007923e+01
0	 6.370370e+00	 7.333333e+00	 1.007572e+01
0	 6.370370e+00	 7.407407e+00	 1.007225e+01
0	 6.444444e+00	 7.037037e+00	 1.008824e+01
0	 6.444444e+00	 7.111111e+00	 1.008467e+01
0	 6.444444e+00	 7.185185e+00	 1.008115e+01
0	 6.444444e+00	 7.259259e+00	 1.007767e+01
0	 6.444444e+00	 7.333333e+00	 1.007424e+01
0	 6.444444e+00	 7.407407e+00	 1.007085e+01
0	 6.518519e+00	 7.037037e+00	 1.008634e+01
0	 6.518519e+00	 7.111111e+00	 1.008286e+01
0	 6.518519e+00	 7.185185e+00	 1.007943e+01
0	 6.518519e+00	 7.259259e+00	 1.007605e+01
0	 6.518519e+00	 7.333333e+00	 1.007270e+01
0	 6.518519e+00	 7.407407e+00	 1.006940e+01
0	 6.592593e+00	 7.037037e+00	 1.008438e+01
0	 6.592593e+00	 7.111111e+00	 1.008100e+01
0	 6.592593e+00	 7.185185e+00	 1.007767e+01
0	 6.592593e+00	 7.259259e+00	 1.007437e+01
0	 6.592593e+00	 7.333333e+00	 1.007111e+01
0	 6.592593e+00	 7.407407e+00	 1.006789e+01
0	 6.666667e+00	 7.037037e+00	 1.008237e+01
0	 6.666667e+00	 7.111111e+00	 1.007909e+01
0	 6.666667e+00	 7.185185e+00	 1.007584e+01
0	 6.666667e+00	 7.259259e+00	 1.007264e+01
0	 6.666667e+00	 7.333333e+00	 1.006947e+01
0	 6.666667e+00	 7.407407e+00	 1.006634e+01
0	 6.296296e+00	 7.407407e+00	 1.007358e+01
0	 6.296296e+00	 7.481481e+00	 1.007008e+01
0	 6.296296e+00	 7.555556e+00	 1.006665e+01
0	 6.296296e+00	 7.629630e+00	 1.006329e+01
0	 6.296296e+00	 7.703704e+00	 1.005997e+01
0	 6.296296e+00	 7.777778e+00	 1.005672e+01
0	 6.370370e+00	 7.407407e+00	 1.007225e+01
0	 6.370370e+00	 7.481481e+00	 1.006883e+01
0	 6.370370e+00	 7.555556e+00	 1.006547e+01
0	 6.370370e+00	 7.629630e+00	 1.006217e+01
0	 6.370370e+00	 7.703704e+00	 1.005893e+01
0	 6.370370e+00	 7.777778e+00	 1.005574e+01
0	 6.444444e+00	 7.407407e+00	 1.007085e+01
0	 6.444444e+00	 7.481481e+00	 1.006751e+01
0	 6.444444e+00	 7.555556e+00	 1.006423e+01
0	 6.444444e+00	 7.629630e+00	 1.006100e+01
0	 6.444444e+00	 7.703704e+00	 1.005783e+01
0	 6.444444e+00	 7.777778e+00	 1.005470e+01
0	 6.518519e+00	 7.407407e+00	 1.006940e+01
0	 6.518519e+00	 7.481481e+00	 1.006613e+01
0	 6.518519e+00	 7.555556e+00	 1.006293e+01
0	 6.518519e+00	 7.629630e+00	 1.005978e+01
0	 6.518519e+00	 7.703704e+00	 1.005668e+01
0	 6.518519e+00	 7.777778e+00	 1.005362e+01
0	 6.592593e+00	 7.407407e+00	 1.006789e+01
0	 6.592593e+00	 7.481481e+00	 1.006471e+01
0	 6.592593e+00	 7.555556e+00	 1.006158e+01
0	 6.592593e+00	 7.629630e+00	 1.005851e+01
0	 6.592593e+00	 7.703704e+00	 1.005548e+01
0	 6.592593e+00	 7.777778e+00	 1.005249e+01
0	 6.666667e+00	 7.407407e+00	 1.006634e+01
0	 6.666667e+00	 7.481481e+00	 1.006324e+01
0	 6.666667e+00	 7.555556e+00	 1.006019e+01
0	 6.666667e+00	 7.629630e+00	 1.005720e+01
0	 6.666667e+00	 7.703704e+00	 1.005425e+01
0	 6.666667e+00	 7.777778e+00	 1.005133e+01
0	 6.296296e+00	 7.777778e+00	 1.005672e+01
0	 6.296296e+00	 7.851852e+00	 1.005353e+01
0	 6.296296e+00	 7.925926e+00	 1.005041e+01
0	 6.296296e+00	 8.000000e+00	 1.004736e+01
0	 6.296296e+00	 8.074074e+00	 1.004438e+01
0	 6.296296e+00	 8.148148e+00	 1.004145e+01
0	 6.370370e+00	 7.777778e+00	 1.005574e+01
0	 6.370370e+00	 7.851852e+00	 1.005261e+01
0	 6.370370e+00	 7.925926e+00	 1.004955e+01
0	 6.370370e+00	 8.000000e+00	 1.004655e+01
0	 6.370370e+00	 8.074074e+00	 1.004363e+01
0	 6.370370e+00	 8.148148e+00	 1.004076e+01
0	 6.444444e+00	 7.777778e+00	 1.005470e+01
0	 6.444444e+00	 7.851852e+00	 1.005164e+01
0	 6.444444e+00	 7.925926e+00	 1.004864e+01
0	 6.444444e+00	 8.000000e+00	 1.004571e+01
0	 6.444444e+00	 8.074074e+00	 1.004283e+01
0	 6.444444e+00	 8.148148e+00	 1.004002e+01
0	 6.518519e+00	 7.777778e+00	 1.005362e+01
0	 6.518519e+00	 7.851852e+00	 1.005062e+01
0	 6.518519e+00	 7.925926e+00	 1.004769e+01
0	 6.518519e+00	 8.000000e+00	 1.004482e+01
0	 6.518519e+00	 8.074074e+00	 1.004200e+01
0	 6.518519e+00	 8.148148e+00	 1.003925e+01
0	 6.592593e+00	 7.777778e+00	 1.005249e+01
0	 6.592593e+00	 7.851852e+00	 1.004956e+01
0	 6.592593e+00	 7.925926e+00	 1.004670e+01
0	 6.592593e+00	 8.000000e+00	 1.004389e+01
0	 6.592593e+00	 8.074074e+00	 1.004114e+01
0	 6.592593e+00	 8.148148e+00	 1.003845e+01
0	 6.666667e+00	 7.777778e+00	 1.005133e+01
0	 6.666667e+00	 7.851852e+00	 1.004847e+01
0	 6.666667e+00	 7.925926e+00	 1.004567e+01
0	 6.666667e+00	 8.000000e+00	 1.004293e+01
0	 6.666667e+00	 8.074074e+00	 1.004025e+01
0	 6.666667e+00	 8.148148e+00	 1.003761e+01
0	 6.296296e+00	 8.148148e+00	 1.004145e+01
0	 6.296296e+00	 8.222222e+00	 1.003861e+01
0	 6.296296e+00	 8.296296e+00	 1.003584e+01
0	 6.296296e+00	 8.370370e+00	 1.003316e+01
0	 6.296296e+00	 8.444444e+00	 1.003055e+01
0	 6.296296e+00	 8.518519e+00	 1.002802e+01
0	 6.370370e+00	 8.148148e+00	 1.004076e+01
0	 6.370370e+00	 8.222222e+00	 1.003796e+01
0	 6.370370e+00	 8.296296e+00	 1.003525e+01
0	 6.370370e+00	 8.370370e+00	 1.003261e+01
0	 6.370370e+00	 8.444444e+00	 1.003005e+01
0	 6.370370e+00	 8.518519e+00	 1.002755e+01
0	 6.444444e+00	 8.148148e+00	 1.004002e+01
0	 6.444444e+00	 8.222222e+00	 1.003728e+01
0	 6.444444e+00	 8.296296e+00	 1.003461e+01
0	 6.444444e+00	 8.370370e+00	 1.003203e+01
0	 6.444444e+00	 8.444444e+00	 1.002951e+01
0	 6.444444e+00	 8.518519e+00	 1.002706e+01
0	 6.518519e+00	 8.148148e+00	 1.003925e+01
0	 6.518519e+00	 8.222222e+00	 1.003656e+01
0	 6.518519e+00	 8.296296e+00	 1.003395e+01
0	 6.518519e+00	 8.370370e+00	 1.003141e+01
0	 6.518519e+00	 8.444444e+00	 1.002895e+01
0	 6.518519e+00	 8.518519e+00	 1.002655e+01
0	 6.592593e+00	 8.148148e+00	 1.003845e+01
0	 6.592593e+00	 8.222222e+00	 1.003581e+01
0	 6.592593e+00	 8.296296e+00	 1.003326e+01
0	 6.592593e+00	 8.370370e+00	 1.003078e+01
0	 6.592593e+00	 8.444444e+00	 1.002836e+01
0	 6.592593e+00	 8.518519e+00	 1.002601e+01
0	 6.666667e+00	 8.148148e+00	 1.003761e+01
0	 6.666667e+00	 8.222222e+00	 1.003504e+01
0	 6.666667e+00	 8.296296e+00	 1.003254e+01
0	 6.666667e+00	 8.370370e+00	 1.003012e+01
0	 6.666667e+00	 8.444444e+00	 1.002775e+01
0	 6.666667e+00	 8.518519e+00	 1.002545e+01
0	 6.296296e+00	 8.518519e+00	 1.002802e+01
0	 6.296296e+00	 8.592593e+00	 1.002557e+01
0	 6.296296e+00	 8.666667e+00	 1.002322e+01
0	 6.296296e+00	 8.740741e+00	 1.002096e+01
0	 6.296296e+00	 8.814815e+00	 1.001879e+01
0	 6.296296e+00	 8.888889e+00	 1.001670e+01
0	 6.370370e+00	 8.518519e+00	 1.002755e+01
0	 6.370370e+00	 8.592593e+00	 1.002514e+01
0	 6.370370e+00	 8.666667e+00	 1.002283e+01
0	 6.370370e+00	 8.740741e+00	 1.002061e+01
0	 6.370370e+00	 8.814815e+00	 1.001848e+01
0	 6.370370e+00	 8.888889e+00	 1.001643e+01
0	 6.444444e+00	 8.518519e+00	 1.002706e+01
0	 6.444444e+00	 8.592593e+00	 1.002470e+01
0	 6.444444e+00	 8.666667e+00	 1.002243e+01
0	 6.444444e+00	 8.740741e+00	 1.002024e+01
0	 6.444444e+00	 8.814815e+00	 1.001815e+01
0	 6.444444e+00	 8.888889e+00	 1.001613e+01
0	 6.518519e+00	 8.518519e+00	 1.002655e+01
0	 6.518519e+00	 8.592593e+00	 1.002423e+01
0	 6.518519e+00	 8.666667e+00	 1.002200e+01
0	 6.518519e+00	 8.740741e+00	 1.001986e+01
0	 6.518519e+00	 8.814815e+00	 1.001780e+01
0	 6.518519e+00	 8.888889e+00	 1.001582e+01
0	 6.592593e+00	 8.518519e+00	 1.002601e+01
0	 6.592593e+00	 8.592593e+00	 1.002374e+01
0	 6.592593e+00	 8.666667e+00	 1.002155e+01
0	 6.592593e+00	 8.740741e+00	 1.001946e+01
0	 6.592593e+00	 8.814815e+00	 1.001744e+01
0	 6.592593e+00	 8.888889e+00	 1.001550e+01
0	 6.666667e+00	 8.518519e+00	 1.002545e+01
0	 6.666667e+00	 8.592593e+00	 1.002323e+01
0	 6.666667e+00	 8.666667e+00	 1.002109e+01
0	 6.666667e+00	 8.740741e+00	 1.001904e+01
0	 6.666667e+00	 8.814815e+00	 1.001707e+01
0	 6.666667e+00	 8.888889e+00	 1.001517e+01
0	 6.296296e+00	 8.888889e+00	 1.001670e+01
0	 6.296296e+00	 8.962963e+00	 1.001472e+01
0	 6.296296e+00	 9.037037e+00	 1.001285e+01
0	 6.296296e+00	 9.111111e+00	 1.001110e+01
0	 6.296296e+00	 9.185185e+00	 1.000945e+01
0	 6.296296e+00	 9.259259e+00	 1.000789e+01
0	 6.370370e+00	 8.888889e+00	 1.001643e+01
0	 6.370370e+00	 8.962963e+00	 1.001447e+01
0	 6.370370e+00	 9.037037e+00	 1.001264e+01
0	 6.370370e+00	 9.111111e+00	 1.001091e+01
0	 6.370370e+00	 9.185185e+00	 1.000929e+01
0	 6.370370e+00	 9.259259e+00	 1.000776e+01
0	 6.444444e+00	 8.888889e+00	 1.001613e+01
0	 6.444444e+00	 8.962963e+00	 1.001421e+01
0	 6.444444e+00	 9.037037e+00	 1.001241e+01
0	 6.444444e+00	 9.111111e+00	 1.001071e+01
0	 6.444444e+00	 9.185185e+00	 1.000912e+01
0	 6.444444e+00	 9.259259e+00	 1.000762e+01
0	 6.518519e+00	 8.888889e+00	 1.001582e+01
0	 6.518519e+00	 8.962963e+00	 1.001394e+01
0	 6.518519e+00	 9.037037e+00	 1.001217e+01
0	 6.518519e+00	 9.111111e+00	 1.001051e+01
0	 6.518519e+00	 9.185185e+00	 1.000894e+01
0	 6.518519e+00	 9.259259e+00	 1.000747e+01
0	 6.592593e+00	 8.888889e+00	 1.001550e+01
0	 6.592593e+00	 8.962963e+00	 1.001366e+01
0	 6.592593e+00	 9.037037e+00	 1.001192e+01
0	 6.592593e+00	 9.111111e+00	 1.001029e+01
0	 6.592593e+00	 9.185185e+00	 1.000876e+01
0	 6.592593e+00	 9.259259e+00	 1.000732e+01
0	 6.666667e+00	 8.888889e+00	 1.001517e+01
0	 6.666667e+00	 8.962963e+00	 1.001337e+01
0	 6.666667e+00	 9.037037e+00	 1.001167e+01
0	 6.666667e+00	 9.111111e+00	 1.001007e+01
0	 6.666667e+00	 9.185185e+00	 1.000857e+01
0	 6.666667e+00	 9.259259e+00	 1.000716e+01
0	 6.296296e+00	 9.259259e+00	 1.000789e+01
0	 6.296296e+00	 9.333333e+00	 1.000647e+01
0	 6.296296e+00	 9.407407e+00	 1.000518e+01
0	 6.296296e+00	 9.481481e+00	 1.000403e+01
0	 6.296296e+00	 9.555556e+00	 1.000301e+01
0	 6.296296e+00	 9.629630e+00	 1.000211e+01
0	 6.370370e+00	 9.259259e+00	 1.000776e+01
0	 6.370370e+00	 9.333333e+00	 1.000636e+01
0	 6.370370e+00	 9.407407e+00	 1.000509e+01
0	 6.370370e+00	 9.481481e+00	 1.000396e+01
0	 6.370370e+00	 9.555556e+00	 1.000296e+01
0	 6.370370e+00	 9.629630e+00	 1.000207e+01
0	 6.444444e+00	 9.259259e+00	 1.000762e+01
0	 6.444444e+00	 9.333333e+00	 1.000624e+01
0	 6.444444e+00	 9.407407e+00	 1.000500e+01
0	 6.444444e+00	 9.481481e+00	 1.000389e+01
0	 6.444444e+00	 9.555556e+00	 1.000290e+01
0	 6.444444e+00	 9.629630e+00	 1.000203e+01
0	 6.518519e+00	 9.259259e+00	 1.000747e+01
0	 6.518519e+00	 9.333333e+00	 1.000612e+01
0	 6.518519e+00	 9.407407e+00	 1.000490e+01
0	 6.518519e+00	 9.481481e+00	 1.000381e+01
0	 6.518519e+00	 9.555556e+00	 1.000284e+01
0	 6.518519e+00	 9.629630e+00	 1.000199e+01
0	 6.592593e+00	 9.259259e+00	 1.000732e+01
0	 6.592593e+00	 9.333333e+00	 1.000599e+01
0	 6.592593e+00	 9.407407e+00	 1.000480e+01
0	 6.592593e+00	 9.481481e+00	 1.000373e+01
0	 6.592593e+00	 9.555556e+00	 1.000278e+01
0	 6.592593e+00	 9.629630e+00	 1.000195e+01
0	 6.666667e+00	 9.259259e+00	 1.000716e+01
0	 6.666667e+00	 9.333333e+00	 1.000586e+01
0	 6.666667e+00	 9.407407e+00	 1.000469e+01
0	 6.666667e+00	 9.481481e+00	 1.000365e+01
0	 6.666667e+00	 9.555556e+00	 1.000272e+01
0	 6.666667e+00	 9.629630e+00	 1.000191e+01
0	 6.296296e+00	 9.629630e+00	 1.000211e+01
0	 6.296296e+00	 9.703704e+00	 1.000136e+01
0	 6.296296e+00	 9.777778e+00	 1.000077e+01
0	 6.296296e+00	 9.851852e+00	 1.000036e+01
0	 6.296296e+00	 9.925926e+00	 1.000010e+01
0	 6.296296e+00	 1.000000e+01	 9.999980e+00
0	 6.370370e+00	 9.629630e+00	 1.000207e+01
0	 6.370370e+00	 9.703704e+00	 1.000133e+01
0	 6.370370e+00	 9.777778e+00	 1.000076e+01
0	 6.370370e+00	 9.851852e+00	 1.000035e+01
0	 6.370370e+00	 9.925926e+00	 1.000010e+01
0	 6.370370e+00	 1.000000e+01	 9.999983e+00
0	 6.444444e+00	 9.629630e+00	 1.000203e+01
0	 6.444444e+00	 9.703704e+00	 1.000131e+01
0	 6.444444e+00	 9.777778e+00	 1.000075e+01
0	 6.444444e+00	 9.851852e+00	 1.000035e+01
0	 6.444444e+00	 9.925926e+00	 1.000009e+01
0	 6.444444e+00	 1.000000e+01	 9.999982e+00
0	 6.518519e+00	 9.629630e+00	 1.000199e+01
0	 6.518519e+00	 9.703704e+00	 1.000128e+01
0	 6.518519e+00	 9.777778e+00	 1.000073e+01
0	 6.518519e+00	 9.851852e+00	 1.000034e+01
0	 6.518519e+00	 9.925926e+00	 1.000009e+01
0	 6.518519e+00	 1.000000e+01	 9.999981e+00
0	 6.592593e+00	 9.629630e+00	 1.000195e+01
0	 6.592593e+00	 9.703704e+00	 1.000125e+01
0	 6.592593e+00	 9.777778e+00	 1.000071e+01
0	 6.592593e+00	 9.851852e+00	 1.000033e+01
0	 6.592593e+00	 9.925926e+00	 1.000009e+01
0	 6.592593e+00	 1.000000e+01	 9.999981e+00
0	 6.666667e+00	 9.629630e+00	 1.000191e+01
0	 6.666667e+00	 9.703704e+00	 1.000122e+01
0	 6.666667e+00	 9.777778e+00	 1.000070e+01
0	 6.666667e+00	 9.851852e+00	 1.000032e+01
0	 6.666667e+00	 9.925926e+00	 1.000009e+01
0	 6.666667e+00	 1.000000e+01	 9.999984e+00
0	 6.666667e+00	 0.000000e+00	 1.012168e+01
0	 6.666667e+00	 7.407407e-02	 1.012178e+01
0	 6.666667e+00	 1.481481e-01	 1.012211e+01
0	 6.666667e+00	 2.222222e-01	 1.012268e+01
0	 6.666667e+00	 2.962963e-01	 1.012348e+01
0	 6.666667e+00	 3.703704e-01	 1.012453e+01
0	 6.740741e+00	 0.000000e+00	 1.011356e+01
0	 6.740741e+00	 7.407407e-02	 1.011366e+01
0	 6.740741e+00	 1.481481e-01	 1.011397e+01
0	 6.740741e+00	 2.222222e-01	 1.011451e+01
0	 6.740741e+00	 2.962963e-01	 1.011528e+01
0	 6.740741e+00	 3.703704e-01	 1.011628e+01
0	 6.814815e+00	 0.000000e+00	 1.010544e+01
0	 6.814815e+00	 7.407407e-02	 1.010554e+01
0	 6.814815e+00	 1.481481e-01	 1.010584e+01
0	 6.814815e+00	 2.222222e-01	 1.010636e+01
0	 6.814815e+00	 2.962963e-01	 1.010710e+01
0	 6.814815e+00	 3.703704e-01	 1.010806e+01
0	 6.888889e+00	 0.000000e+00	 1.009732e+01
0	 6.888889e+00	 7.407407e-02	 1.009742e+01
0	 6.888889e+00	 1.481481e-01	 1.009771e+01
0	 6.888889e+00	 2.222222e-01	 1.009822e+01
0	 6.888889e+00	 2.962963e-01	 1.009893e+01
0	 6.888889e+00	 3.703704e-01	 1.009985e+01
0	 6.962963e+00	 0.000000e+00	 1.008919e+01
0	 6.962963e+00	 7.407407e-02	 1.008930e+01
0	 6.962963e+00	 1.481481e-01	 1.008959e+01
0	 6.962963e+00	 2.222222e-01	 1.009008e+01
0	 6.962963e+00	 2.962963e-01	 1.009076e+01
0	 6.962963e+00	 3.703704e-01	 1.009165e+01
0	 7.037037e+00	 0.000000e+00	 1.008107e+01
0	 7.037037e+00	 7.407407e-02	 1.008117e+01
0	 7.037037e+00	 1.481481e-01	 1.008146e+01
0	 7.037037e+00	 2.222222e-01	 1.008193e+01
0	 7.037037e+00	 2.962963e-01	 1.008260e+01
0	 7.037037e+00	 3.703704e-01	 1.008345e+01
0	 6.666667e+00	 3.703704e-01	 1.012453e+01
0	 6.666667e+00	 4.444444e-01	 1.012578e+01
0	 6.666667e+00	 5.185185e-01	 1.012721e+01
0	 6.666667e+00	 5.925926e-01	 1.012884e+01
0	 6.666667e+00	 6.666667e-01	 1.013067e+01
0	 6.666667e+00	 7.407407e-01	 1.013271e+01
0	 6.740741e+00	 3.703704e-01	 1.011628e+01
0	 6.740741e+00	 4.444444e-01	 1.011748e+01
0	 6.740741e+00	 5.185185e-01	 1.011886e+01
0	 6.740741e+00	 5.925926e-01	 1.012042e+01
0	 6.740741e+00	 6.666667e-01	 1.012218e+01
0	 6.740741e+00	 7.407407e-01	 1.012415e+01
0	 6.814815e+00	 3.703704e-01	 1.010806e+01
0	 6.814815e+00	 4.444444e-01	 1.010921e+01
0	 6.814815e+00	 5.185185e-01	 1.011054e+01
0	 6.814815e+00	 5.925926e-01	 1.011204e+01
0	 6.814815e+00	 6.666667e-01	 1.011373e+01
0	 6.814815e+00	 7.407407e-01	 1.011563e+01
0	 6.888889e+00	 3.703704e-01	 1.009985e+01
0	 6.888889e+00	 4.444444e-01	 1.010096e+01
0	 6.888889e+00	 5.185185e-01	 1.010223e+01
0	 6.888889e+00	 5.925926e-01	 1.010368e+01
0	 6.888889e+00	 6.666667e-01	 1.010532e+01
0	 6.888889e+00	 7.407407e-01	 1.010714e+01
0	 6.962963e+00	 3.703704e-01	 1.009165e+01
0	 6.962963e+00	 4.444444e-01	 1.009272e+01
0	 6.962963e+00	 5.185185e-01	 1.009395e+01
0	 6.962963e+00	 5.925926e-01	 1.009535e+01
0	 6.962963e+00	 6.666667e-01	 1.009692e+01
0	 6.962963e+00	 7.407407e-01	 1.009868e+01
0	 7.037037e+00	 3.703704e-01	 1.008345e+01
0	 7.037037e+00	 4.444444e-01	 1.008448e+01
0	 7.037037e+00	 5.185185e-01	 1.008567e+01
0	 7.037037e+00	 5.925926e-01	 1.008702e+01
0	 7.037037e+00	 6.666667e-01	 1.008854e+01
0	 7.037037e+00	 7.407407e-01	 1.009024e+01
0	 6.666667e+00	 7.407407e-01	 1.013271e+01
0	 6.666667e+00	 8.148148e-01	 1.013491e+01
0	 6.666667e+00	 8.888889e-01	 1.013723e+01
0	 6.666667e+00	 9.629630e-01	 1.013968e+01
0	 6.666667e+00	 1.037037e+00	 1.014228e+01
0	 6.666667e+00	 1.111111e+00	 1.014504e+01
0	 6.740741e+00	 7.407407e-01	 1.012415e+01
0	 6.740741e+00	 8.148148e-01	 1.012627e+01
0	 6.740741e+00	 8.888889e-01	 1.012850e+01
0	 6.740741e+00	 9.629630e-01	 1.013087e+01
0	 6.740741e+00	 1.037037e+00	 1.013337e+01
0	 6.740741e+00	 1.111111e+00	 1.013603e+01
0	 6.814815e+00	 7.407407e-01	 1.011563e+01
0	 6.814815e+00	 8.148148e-01	 1.011767e+01
0	 6.814815e+00	 8.888889e-01	 1.011983e+01
0	 6.814815e+00	 9.629630e-01	 1.012211e+01
0	 6.814815e+00	 1.037037e+00	 1.012453e+01
0	 6.814815e+00	 1.111111e+00	 1.012710e+01
0	 6.888889e+00	 7.407407e-01	 1.010714e+01
0	 6.888889e+00	 8.148148e-01	 1.010911e+01
0	 6.888889e+00	 8.888889e-01	 1.011119e+01
0	 6.888889e+00	 9.629630e-01	 1.011340e+01
0	 6.888889e+00	 1.037037e+00	 1.011574e+01
0	 6.888889e+00	 1.111111e+00	 1.011822e+01
0	 6.962963e+00	 7.407407e-01	 1.009868e+01
0	 6.962963e+00	 8.148148e-01	 1.010058e+01
0	 6.962963e+00	 8.888889e-01	 1.010260e+01
0	 6.962963e+00	 9.629630e-01	 1.010473e+01
0	 6.962963e+00	 1.037037e+00	 1.010699e+01
0	 6.962963e+00	 1.111111e+00	 1.010939e+01
0	 7.037037e+00	 7.407407e-01	 1.009024e+01
0	 7.037037e+00	 8.148148e-01	 1.009208e+01
0	 7.037037e+00	 8.888889e-01	 1.009402e+01
0	 7.037037e+00	 9.629630e-01	 1.009609e+01
0	 7.037037e+00	 1.037037e+00	 1.009828e+01
0	 7.037037e+00	 1.111111e+00	 1.010060e+01
0	 6.666667e+00	 1.111111e+00	 1.014504e+01
0	 6.666667e+00	 1.185185e+00	 1.014789e+01
0	 6.666667e+00	 1.259259e+00	 1.015078e+01
0	 6.666667e+00	 1.333333e+00	 1.015372e+01
0	 6.666667e+00	 1.407407e+00	 1.015673e+01
0	 6.666667e+00	 1.481481e+00	 1.015982e+01
0	 6.740741e+00	 1.111111e+00	 1.013603e+01
0	 6.740741e+00	 1.185185e+00	 1.013879e+01
0	 6.740741e+00	 1.259259e+00	 1.014158e+01
0	 6.740741e+00	 1.333333e+00	 1.014443e+01
0	 6.740741e+00	 1.407407e+00	 1.014734e+01
0	 6.740741e+00	 1.481481e+00	 1.015034e+01
0	 6.814815e+00	 1.111111e+00	 1.012710e+01
0	 6.814815e+00	 1.185185e+00	 1.012976e+01
0	 6.814815e+00	 1.259259e+00	 1.013246e+01
0	 6.814815e+00	 1.333333e+00	 1.013522e+01
0	 6.814815e+00	 1.407407e+00	 1.013805e+01
0	 6.814815e+00	 1.481481e+00	 1.014096e+01
0	 6.888889e+00	 1.111111e+00	 1.011822e+01
0	 6.888889e+00	 1.185185e+00	 1.012080e+01
0	 6.888889e+00	 1.259259e+00	 1.012342e+01
0	 6.888889e+00	 1.333333e+00	 1.012609e+01
0	 6.888889e+00	 1.407407e+00	 1.012883e+01
0	 6.888889e+00	 1.481481e+00	 1.013166e+01
0	 6.962963e+00	 1.111111e+00	 1.010939e+01
0	 6.962963e+00	 1.185185e+00	 1.011189e+01
0	 6.962963e+00	 1.259259e+00	 1.011443e+01
0	 6.962963e+00	 1.333333e+00	 1.011702e+01
0	 6.962963e+00	 1.407407e+00	 1.011969e+01
0	 6.962963e+00	 1.481481e+00	 1.012244e+01
0	 7.037037e+00	 1.111111e+00	 1.010060e+01
0	 7.037037e+00	 1.185185e+00	 1.010302e+01
0	 7.037037e+00	 1.259259e+00	 1.010549e+01
0	 7.037037e+00	 1.333333e+00	 1.010801e+01
0	 7.037037e+00	 1.407407e+00	 1.011061e+01
0	 7.037037e+00	 1.481481e+00	 1.011329e+01
0	 6.666667e+00	 1.481481e+00	 1.015982e+01
0	 6.666667e+00	 1.555556e+00	 1.016294e+01
0	 6.666667e+00	 1.629630e+00	 1.016601e+01
0	 6.666667e+00	 1.703704e+00	 1.016906e+01
0	 6.666667e+00	 1.777778e+00	 1.017210e+01
0	 6.666667e+00	 1.851852e+00	 1.017514e+01
0	 6.740741e+00	 1.481481e+00	 1.015034e+01
0	 6.740741e+00	 1.555556e+00	 1.015336e+01
0	 6.740741e+00	 1.629630e+00	 1.015635e+01
0	 6.740741e+00	 1.703704e+00	 1.015932e+01
0	 6.740741e+00	 1.777778e+00	 1.016228e+01
0	 6.740741e+00	 1.851852e+00	 1.016526e+01
0	 6.814815e+00	 1.481481e+00	 1.014096e+01
0	 6.814815e+00	 1.555556e+00	 1.014390e+01
0	 6.814815e+00	 1.629630e+00	 1.014680e+01
0	 6.814815e+00	 1.703704e+00	 1.014970e+01
0	 6.814815e+00	 1.777778e+00	 1.015259e+01
0	 6.814815e+00	 1.851852e+00	 1.015550e+01
0	 6.888889e+00	 1.481481e+00	 1.013166e+01
0	 6.888889e+00	 1.555556e+00	 1.013452e+01
0	 6.888889e+00	 1.629630e+00	 1.013736e+01
0	 6.888889e+00	 1.703704e+00	 1.014018e+01
0	 6.888889e+00	 1.777778e+00	 1.014301e+01
0	 6.888889e+00	 1.851852e+00	 1.014585e+01
0	 6.962963e+00	 1.481481e+00	 1.012244e+01
0	 6.962963e+00	 1.555556e+00	 1.012523e+01
0	 6.962963e+00	 1.629630e+00	 1.012799e+01
0	 6.962963e+00	 1.703704e+00	 1.013075e+01
0	 6.962963e+00	 1.777778e+00	 1.013351e+01
0	 6.962963e+00	 1.851852e+00	 1.013630e+01
0	 7.037037e+00	 1.481481e+00	 1.011329e+01
0	 7.037037e+00	 1.555556e+00	 1.011600e+01
0	 7.037037e+00	 1.629630e+00	 1.011870e+01
0	 7.037037e+00	 1.703704e+00	 1.012139e+01
0	 7.037037e+00	 1.777778e+00	 1.012410e+01
0	 7.037037e+00	 1.851852e+00	 1.012682e+01
0	 6.666667e+00	 1.851852e+00	 1.017514e+01
0	 6.666667e+00	 1.925926e+00	 1.017814e+01
0	 6.666667e+00	 2.000000e+00	 1.018103e+01
0	 6.666667e+00	 2.074074e+00	 1.018382e+01
0	 6.666667e+00	 2.148148e+00	 1.018653e+01
0	 6.666667e+00	 2.222222e+00	 1.018918e+01
0	 6.740741e+00	 1.851852e+00	 1.016526e+01
0	 6.740741e+00	 1.925926e+00	 1.016819e+01
0	 6.740741e+00	 2.000000e+00	 1.017103e+01
0	 6.740741e+00	 2.074074e+00	 1.017377e+01
0	 6.740741e+00	 2.148148e+00	 1.017644e+01
0	 6.740741e+00	 2.222222e+00	 1.017905e+01
0	 6.814815e+00	 1.851852e+00	 1.015550e+01
0	 6.814815e+00	 1.925926e+00	 1.015837e+01
0	 6.814815e+00	 2.000000e+00	 1.016115e+01
0	 6.814815e+00	 2.074074e+00	 1.016385e+01
0	 6.814815e+00	 2.148148e+00	 1.016648e+01
0	 6.814815e+00	 2.222222e+00	 1.016906e+01
0	 6.888889e+00	 1.851852e+00	 1.014585e+01
0	 6.888889e+00	 1.925926e+00	 1.014866e+01
0	 6.888889e+00	 2.000000e+00	 1.015139e+01
0	 6.888889e+00	 2.074074e+00	 1.015405e+01
0	 6.888889e+00	 2.148148e+00	 1.015664e+01
0	 6.888889e+00	 2.222222e+00	 1.015919e+01
0	 6.962963e+00	 1.851852e+00	 1.013630e+01
0	 6.962963e+00	 1.925926e+00	 1.013905e+01
0	 6.962963e+00	 2.000000e+00	 1.014173e+01
0	 6.962963e+00	 2.074074e+00	 1.014435e+01
0	 6.962963e+00	 2.148148e+00	 1.014691e+01
0	 6.962963e+00	 2.222222e+00	 1.014943e+01
0	 7.037037e+00	 1.851852e+00	 1.012682e+01
0	 7.037037e+00	 1.925926e+00	 1.012953e+01
0	 7.037037e+00	 2.000000e+00	 1.013216e+01
0	 7.037037e+00	 2.074074e+00	 1.013474e+01
0	 7.037037e+00	 2.148148e+00	 1.013727e+01
0	 7.037037e+00	 2.222222e+00	 1.013976e+01
0	 6.666667e+00	 2.222222e+00	 1.018918e+01
0	 6.666667e+00	 2.296296e+00	 1.019171e+01
0	 6.666667e+00	 2.370370e+00	 1.019409e+01
0	 6.666667e+00	 2.444444e+00	 1.019632e+01
0	 6.666667e+00	 2.518519e+00	 1.019841e+01
0	 6.666667e+00	 2.592593e+00	 1.020038e+01
0	 6.740741e+00	 2.222222e+00	 1.017905e+01
0	 6.740741e+00	 2.296296e+00	 1.018156e+01
0	 6.740741e+00	 2.370370e+00	 1.018392e+01
0	 6.740741e+00	 2.444444e+00	 1.018614e+01
0	 6.740741e+00	 2.518519e+00	 1.018824e+01
0	 6.740741e+00	 2.592593e+00	 1.019023e+01
0	 6.814815e+00	 2.222222e+00	 1.016906e+01
0	 6.814815e+00	 2.296296e+00	 1.017154e+01
0	 6.814815e+00	 2.370370e+00	 1.017389e+01
0	 6.814815e+00	 2.444444e+00	 1.017611e+01
0	 6.814815e+00	 2.518519e+00	 1.017821e+01
0	 6.814815e+00	 2.592593e+00	 1.018021e+01
0	 6.888889e+00	 2.222222e+00	 1.015919e+01
0	 6.888889e+00	 2.296296e+00	 1.016165e+01
0	 6.888889e+00	 2.370370e+00	 1.016398e+01
0	 6.888889e+00	 2.444444e+00	 1.016620e+01
0	 6.888889e+00	 2.518519e+00	 1.016831e+01
0	 6.888889e+00	 2.592593e+00	 1.017032e+01
0	 6.962963e+00	 2.222222e+00	 1.014943e+01
0	 6.962963e+00	 2.296296e+00	 1.015187e+01
0	 6.962963e+00	 2.370370e+00	 1.015419e+01
0	 6.962963e+00	 2.444444e+00	 1.015640e+01
0	 6.962963e+00	 2.518519e+00	 1.015851e+01
0	 6.962963e+00	 2.592593e+00	 1.016053e+01
0	 7.037037e+00	 2.222222e+00	 1.013976e+01
0	 7.037037e+00	 2.296296e+00	 1.014218e+01
0	 7.037037e+00	 2.370370e+00	 1.014449e+01
0	 7.037037e+00	 2.444444e+00	 1.014670e+01
0	 7.037037e+00	 2.518519e+00	 1.014881e+01
0	 7.037037e+00	 2.592593e+00	 1.015084e+01
0	 6.666667e+00	 2.592593e+00	 1.020038e+01
0	 6.666667e+00	 2.666667e+00	 1.020221e+01
0	 6.666667e+00	 2.740741e+00	 1.020384e+01
0	 6.666667e+00	 2.814815e+00	 1.020530e+01
0	 6.666667e+00	 2.888889e+00	 1.020659e+01
0	 6.666667e+00	 2.962963e+00	 1.020772e+01
0	 6.740741e+00	 2.592593e+00	 1.019023e+01
0	 6.740741e+00	 2.666667e+00	 1.019207e+01
0	 6.740741e+00	 2.740741e+00	 1.019374e+01
0	 6.740741e+00	 2.814815e+00	 1.019524e+01
0	 6.740741e+00	 2.888889e+00	 1.019659e+01
0	 6.740741e+00	 2.962963e+00	 1.019777e+01
0	 6.814815e+00	 2.592593e+00	 1.018021e+01
0	 6.814815e+00	 2.666667e+00	 1.018207e+01
0	 6.814815e+00	 2.740741e+00	 1.018377e+01
0	 6.814815e+00	 2.814815e+00	 1.018531e+01
0	 6.814815e+00	 2.888889e+00	 1.018670e+01
0	 6.814815e+00	 2.962963e+00	 1.018795e+01
0	 6.888889e+00	 2.592593e+00	 1.017032e+01
0	 6.888889e+00	 2.666667e+00	 1.017220e+01
0	 6.888889e+00	 2.740741e+00	 1.017392e+01
0	 6.888889e+00	 2.814815e+00	 1.017550e+01
0	 6.888889e+00	 2.888889e+00	 1.017694e+01
0	 6.888889e+00	 2.962963e+00	 1.017824e+01
0	 6.962963e+00	 2.592593e+00	 1.016053e+01
0	 6.962963e+00	 2.666667e+00	 1.016243e+01
0	 6.962963e+00	 2.740741e+00	 1.016418e+01
0	 6.962963e+00	 2.814815e+00	 1.016580e+01
0	 6.962963e+00	 2.888889e+00	 1.016728e+01
0	 6.962963e+00	 2.962963e+00	 1.016863e+01
0	 7.037037e+00	 2.592593e+00	 1.015084e+01
0	 7.037037e+00	 2.666667e+00	 1.015276e+01
0	 7.037037e+00	 2.740741e+00	 1.015454e+01
0	 7.037037e+00	 2.814815e+00	 1.015619e+01
0	 7.037037e+00	 2.888889e+00	 1.015771e+01
0	 7.037037e+00	 2.962963e+00	 1.015912e+01
0	 6.666667e+00	 2.962963e+00	 1.020772e+01
0	 6.666667e+00	 3.037037e+00	 1.020867e+01
0	 6.666667e+00	 3.111111e+00	 1.020944e+01
0	 6.666667e+00	 3.185185e+00	 1.021002e+01
0	 6.666667e+00	 3.259259e+00	 1.021041e+01
0	 6.666667e+00	 3.333333e+00	 1.021063e+01
0	 6.740741e+00	 2.962963e+00	 1.019777e+01
0	 6.740741e+00	 3.037037e+00	 1.019880e+01
0	 6.740741e+00	 3.111111e+00	 1.019964e+01
0	 6.740741e+00	 3.185185e+00	 1.020031e+01
0	 6.740741e+00	 3.259259e+00	 1.020080e+01
0	 6.740741e+00	 3.333333e+00	 1.020112e+01
0	 6.814815e+00	 2.962963e+00	 1.018795e+01
0	 6.814815e+00	 3.037037e+00	 1.018904e+01
0	 6.814815e+00	 3.111111e+00	 1.018996e+01
0	 6.814815e+00	 3.185185e+00	 1.019071e+01
0	 6.814815e+00	 3.259259e+00	 1.019129e+01
0	 6.814815e+00	 3.333333e+00	 1.019171e+01
0	 6.888889e+00	 2.962963e+00	 1.017824e+01
0	 6.888889e+00	 3.037037e+00	 1.017939e+01
0	 6.888889e+00	 3.111111e+00	 1.018038e+01
0	 6.888889e+00	 3.185185e+00	 1.018121e+01
0	 6.888889e+00	 3.259259e+00	 1.018187e+01
0	 6.888889e+00	 3.333333e+00	 1.018239e+01
0	 6.962963e+00	 2.962963e+00	 1.016863e+01
0	 6.962963e+00	 3.037037e+00	 1.016984e+01
0	 6.962963e+00	 3.111111e+00	 1.017090e+01
0	 6.962963e+00	 3.185185e+00	 1.017180e+01
0	 6.962963e+00	 3.259259e+00	 1.017255e+01
0	 6.962963e+00	 3.333333e+00	 1.017316e+01
0	 7.037037e+00	 2.962963e+00	 1.015912e+01
0	 7.037037e+00	 3.037037e+00	 1.016039e+01
0	 7.037037e+00	 3.111111e+00	 1.016151e+01
0	 7.037037e+00	 3.185185e+00	 1.016248e+01
0	 7.037037e+00	 3.259259e+00	 1.016331e+01
0	 7.037037e+00	 3.333333e+00	 1.016401e+01
0	 6.666667e+00	 3.333333e+00	 1.021063e+01
0	 6.666667e+00	 3.407407e+00	 1.021067e+01
0	 6.666667e+00	 3.481481e+00	 1.021053e+01
0	 6.666667e+00	 3.555556e+00	 1.021022e+01
0	 6.666667e+00	 3.629630e+00	 1.020972e+01
0	 6.666667e+00	 3.703704e+00	 1.020905e+01
0	 6.740741e+00	 3.333333e+00	 1.020112e+01
0	 6.740741e+00	 3.407407e+00	 1.020127e+01
0	 6.740741e+00	 3.481481e+00	 1.020125e+01
0	 6.740741e+00	 3.555556e+00	 1.020106e+01
0	 6.740741e+00	 3.629630e+00	 1.020070e+01
0	 6.740741e+00	 3.703704e+00	 1.020016e+01
0	 6.814815e+00	 3.333333e+00	 1.019171e+01
0	 6.814815e+00	 3.407407e+00	 1.019197e+01
0	 6.814815e+00	 3.481481e+00	 1.019206e+01
0	 6.814815e+00	 3.555556e+00	 1.019198e+01
0	 6.814815e+00	 3.629630e+00	 1.019175e+01
0	 6.814815e+00	 3.703704e+00	 1.019134e+01
0	 6.888889e+00	 3.333333e+00	 1.018239e+01
0	 6.888889e+00	 3.407407e+00	 1.018275e+01
0	 6.888889e+00	 3.481481e+00	 1.018295e+01
0	 6.888889e+00	 3.555556e+00	 1.018299e+01
0	 6.888889e+00	 3.629630e+00	 1.018287e+01
0	 6.888889e+00	 3.703704e+00	 1.018259e+01
0	 6.962963e+00	 3.333333e+00	 1.017316e+01
0	 6.962963e+00	 3.407407e+00	 1.017361e+01
0	 6.962963e+00	 3.481481e+00	 1.017392e+01
0	 6.962963e+00	 3.555556e+00	 1.017407e+01
0	 6.962963e+00	 3.629630e+00	 1.017406e+01
0	 6.962963e+00	 3.703704e+00	 1.017391e+01
0	 7.037037e+00	 3.333333e+00	 1.016401e+01
0	 7.037037e+00	 3.407407e+00	 1.016456e+01
0	 7.037037e+00	 3.481481e+00	 1.016496e+01
0	 7.037037e+00	 3.555556e+00	 1.016522e+01
0	 7.037037e+00	 3.629630e+00	 1.016533e+01
0	 7.037037e+00	 3.703704e+00	 1.016529e+01
0	 6.666667e+00	 3.703704e+00	 1.020905e+01
0	 6.666667e+00	 3.777778e+00	 1.020821e+01
0	 6.666667e+00	 3.851852e+00	 1.020722e+01
0	 6.666667e+00	 3.925926e+00	 1.020607e+01
0	 6.666667e+00	 4.000000e+00	 1.020475e+01
0	 6.666667e+00	 4.074074e+00	 1.020327e+01
0	 6.740741e+00	 3.703704e+00	 1.020016e+01
0	 6.740741e+00	 3.777778e+00	 1.019947e+01
0	 6.740741e+00	 3.851852e+00	 1.019862e+01
0	 6.740741e+00	 3.925926e+00	 1.019762e+01
0	 6.740741e+00	 4.000000e+00	 1.019646e+01
0	 6.740741e+00	 4.074074e+00	 1.019515e+01
0	 6.814815e+00	 3.703704e+00	 1.019134e+01
0	 6.814815e+00	 3.777778e+00	 1.019079e+01
0	 6.814815e+00	 3.851852e+00	 1.019008e+01
0	 6.814815e+00	 3.925926e+00	 1.018923e+01
0	 6.814815e+00	 4.000000e+00	 1.018822e+01
0	 6.814815e+00	 4.074074e+00	 1.018706e+01
0	 6.888889e+00	 3.703704e+00	 1.018259e+01
0	 6.888889e+00	 3.777778e+00	 1.018217e+01
0	 6.888889e+00	 3.851852e+00	 1.018160e+01
0	 6.888889e+00	 3.925926e+00	 1.018088e+01
0	 6.888889e+00	 4.000000e+00	 1.018002e+01
0	 6.888889e+00	 4.074074e+00	 1.017901e+01
0	 6.962963e+00	 3.703704e+00	 1.017391e+01
0	 6.962963e+00	 3.777778e+00	 1.017361e+01
0	 6.962963e+00	 3.851852e+00	 1.017317e+01
0	 6.962963e+00	 3.925926e+00	 1.017260e+01
0	 6.962963e+00	 4.000000e+00	 1.017188e+01
0	 6.962963e+00	 4.074074e+00	 1.017101e+01
0	 7.037037e+00	 3.703704e+00	 1.016529e+01
0	 7.037037e+00	 3.777778e+00	 1.016512e+01
0	 7.037037e+00	 3.851852e+00	 1.016481e+01
0	 7.037037e+00	 3.925926e+00	 1.016436e+01
0	 7.037037e+00	 4.000000e+00	 1.016378e+01
0	 7.037037e+00	 4.074074e+00	 1.016305e+01
0	 6.666667e+00	 4.074074e+00	 1.020327e+01
0	 6.666667e+00	 4.148148e+00	 1.020165e+01
0	 6.666667e+00	 4.222222e+00	 1.019990e+01
0	 6.666667e+00	 4.296296e+00	 1.019802e+01
0	 6.666667e+00	 4.370370e+00	 1.019601e+01
0	 6.666667e+00	 4.444444e+00	 1.019385e+01
0	 6.740741e+00	 4.074074e+00	 1.019515e+01
0	 6.740741e+00	 4.148148e+00	 1.019369e+01
0	 6.740741e+00	 4.222222e+00	 1.019211e+01
0	 6.740741e+00	 4.296296e+00	 1.019040e+01
0	 6.740741e+00	 4.370370e+00	 1.018855e+01
0	 6.740741e+00	 4.444444e+00	 1.018657e+01
0	 6.814815e+00	 4.074074e+00	 1.018706e+01
0	 6.814815e+00	 4.148148e+00	 1.018576e+01
0	 6.814815e+00	 4.222222e+00	 1.018434e+01
0	 6.814815e+00	 4.296296e+00	 1.018279e+01
0	 6.814815e+00	 4.370370e+00	 1.018111e+01
0	 6.814815e+00	 4.444444e+00	 1.017930e+01
0	 6.888889e+00	 4.074074e+00	 1.017901e+01
0	 6.888889e+00	 4.148148e+00	 1.017787e+01
0	 6.888889e+00	 4.222222e+00	 1.017660e+01
0	 6.888889e+00	 4.296296e+00	 1.017521e+01
0	 6.888889e+00	 4.370370e+00	 1.017370e+01
0	 6.888889e+00	 4.444444e+00	 1.017205e+01
0	 6.962963e+00	 4.074074e+00	 1.017101e+01
0	 6.962963e+00	 4.148148e+00	 1.017001e+01
0	 6.962963e+00	 4.222222e+00	 1.016890e+01
0	 6.962963e+00	 4.296296e+00	 1.016766e+01
0	 6.962963e+00	 4.370370e+00	 1.016630e+01
0	 6.962963e+00	 4.444444e+00	 1.016481e+01
0	 7.037037e+00	 4.074074e+00	 1.016305e+01
0	 7.037037e+00	 4.148148e+00	 1.016220e+01
0	 7.037037e+00	 4.222222e+00	 1.016124e+01
0	 7.037037e+00	 4.296296e+00	 1.016015e+01
0	 7.037037e+00	 4.370370e+00	 1.015894e+01
0	 7.037037e+00	 4.444444e+00	 1.015761e+01
0	 6.666667e+00	 4.444444e+00	 1.019385e+01
0	 6.666667e+00	 4.518519e+00	 1.019158e+01
0	 6.666667e+00	 4.592593e+00	 1.018921e+01
0	 6.666667e+00	 4.666667e+00	 1.018674e+01
0	 6.666667e+00	 4.740741e+00	 1.018417e+01
0	 6.666667e+00	 4.814815e+00	 1.018148e+01
0	 6.740741e+00	 4.444444e+00	 1.018657e+01
0	 6.740741e+00	 4.518519e+00	 1.018448e+01
0	 6.740741e+00	 4.592593e+00	 1.018228e+01
0	 6.740741e+00	 4.666667e+00	 1.017999e+01
0	 6.740741e+00	 4.740741e+00	 1.017759e+01
0	 6.740741e+00	 4.814815e+00	 1.017508e+01
0	 6.814815e+00	 4.444444e+00	 1.017930e+01
0	 6.814815e+00	 4.518519e+00	 1.017738e+01
0	 6.814815e+00	 4.592593e+00	 1.017535e+01
0	 6.814815e+00	 4.666667e+00	 1.017323e+01
0	 6.814815e+00	 4.740741e+00	 1.017100e+01
0	 6.814815e+00	 4.814815e+00	 1.016866e+01
0	 6.888889e+00	 4.444444e+00	 1.017205e+01
0	 6.888889e+00	 4.518519e+00	 1.017029e+01
0	 6.888889e+00	 4.592593e+00	 1.016843e+01
0	 6.888889e+00	 4.666667e+00	 1.016647e+01
0	 6.888889e+00	 4.740741e+00	 1.016441e+01
0	 6.888889e+00	 4.814815e+00	 1.016224e+01
0	 6.962963e+00	 4.444444e+00	 1.016481e+01
0	 6.962963e+00	 4.518519e+00	 1.016321e+01
0	 6.962963e+00	 4.592593e+00	 1.016152e+01
0	 6.962963e+00	 4.666667e+00	 1.015972e+01
0	 6.962963e+00	 4.740741e+00	 1.015783e+01
0	 6.962963e+00	 4.814815e+00	 1.015582e+01
0	 7.037037e+00	 4.444444e+00	 1.015761e+01
0	 7.037037e+00	 4.518519e+00	 1.015616e+01
0	 7.037037e+00	 4.592593e+00	 1.015463e+01
0	 7.037037e+00	 4.666667e+00	 1.015299e+01
0	 7.037037e+00	 4.740741e+00	 1.015125e+01
0	 7.037037e+00	 4.814815e+00	 1.014941e+01
0	 6.666667e+00	 4.814815e+00	 1.018148e+01
0	 6.666667e+00	 4.888889e+00	 1.017870e+01
0	 6.666667e+00	 4.962963e+00	 1.017586e+01
0	 6.666667e+00	 5.037037e+00	 1.017295e+01
0	 6.666667e+00	 5.111111e+00	 1.016995e+01
0	 6.666667e+00	 5.185185e+00	 1.016688e+01
0	 6.740741e+00	 4.814815e+00	 1.017508e+01
0	 6.740741e+00	 4.888889e+00	 1.017248e+01
0	 6.740741e+00	 4.962963e+00	 1.016981e+01
0	 6.740741e+00	 5.037037e+00	 1.016707e+01
0	 6.740741e+00	 5.111111e+00	 1.016426e+01
0	 6.740741e+00	 5.185185e+00	 1.016136e+01
0	 6.814815e+00	 4.814815e+00	 1.016866e+01
0	 6.814815e+00	 4.888889e+00	 1.016624e+01
0	 6.814815e+00	 4.962963e+00	 1.016374e+01
0	 6.814815e+00	 5.037037e+00	 1.016117e+01
0	 6.814815e+00	 5.111111e+00	 1.015853e+01
0	 6.814815e+00	 5.185185e+00	 1.015579e+01
0	 6.888889e+00	 4.814815e+00	 1.016224e+01
0	 6.888889e+00	 4.888889e+00	 1.015999e+01
0	 6.888889e+00	 4.962963e+00	 1.015766e+01
0	 6.888889e+00	 5.037037e+00	 1.015526e+01
0	 6.888889e+00	 5.111111e+00	 1.015277e+01
0	 6.888889e+00	 5.185185e+00	 1.015021e+01
0	 6.962963e+00	 4.814815e+00	 1.015582e+01
0	 6.962963e+00	 4.888889e+00	 1.015373e+01
0	 6.962963e+00	 4.962963e+00	 1.015157e+01
0	 6.962963e+00	 5.037037e+00	 1.014933e+01
0	 6.962963e+00	 5.111111e+00	 1.014701e+01
0	 6.962963e+00	 5.185185e+00	 1.014461e+01
0	 7.037037e+00	 4.814815e+00	 1.014941e+01
0	 7.037037e+00	 4.888889e+00	 1.014748e+01
0	 7.037037e+00	 4.962963e+00	 1.014548e+01
0	 7.037037e+00	 5.037037e+00	 1.014340e+01
0	 7.037037e+00	 5.111111e+00	 1.014124e+01
0	 7.037037e+00	 5.185185e+00	 1.013900e+01
0	 6.666667e+00	 5.185185e+00	 1.016688e+01
0	 6.666667e+00	 5.259259e+00	 1.016375e+01
0	 6.666667e+00	 5.333333e+00	 1.016058e+01
0	 6.666667e+00	 5.407407e+00	 1.015736e+01
0	 6.666667e+00	 5.481481e+00	 1.015409e+01
0	 6.666667e+00	 5.555556e+00	 1.015077e+01
0	 6.740741e+00	 5.185185e+00	 1.016136e+01
0	 6.740741e+00	 5.259259e+00	 1.015839e+01
0	 6.740741e+00	 5.333333e+00	 1.015539e+01
0	 6.740741e+00	 5.407407e+00	 1.015234e+01
0	 6.740741e+00	 5.481481e+00	 1.014923e+01
0	 6.740741e+00	 5.555556e+00	 1.014607e+01
0	 6.814815e+00	 5.185185e+00	 1.015579e+01
0	 6.814815e+00	 5.259259e+00	 1.015300e+01
0	 6.814815e+00	 5.333333e+00	 1.015016e+01
0	 6.814815e+00	 5.407407e+00	 1.014727e+01
0	 6.814815e+00	 5.481481e+00	 1.014433e+01
0	 6.814815e+00	 5.555556e+00	 1.014133e+01
0	 6.888889e+00	 5.185185e+00	 1.015021e+01
0	 6.888889e+00	 5.259259e+00	 1.014758e+01
0	 6.888889e+00	 5.333333e+00	 1.014490e+01
0	 6.888889e+00	 5.407407e+00	 1.014218e+01
0	 6.888889e+00	 5.481481e+00	 1.013940e+01
0	 6.888889e+00	 5.555556e+00	 1.013655e+01
0	 6.962963e+00	 5.185185e+00	 1.014461e+01
0	 6.962963e+00	 5.259259e+00	 1.014214e+01
0	 6.962963e+00	 5.333333e+00	 1.013963e+01
0	 6.962963e+00	 5.407407e+00	 1.013706e+01
0	 6.962963e+00	 5.481481e+00	 1.013443e+01
0	 6.962963e+00	 5.555556e+00	 1.013175e+01
0	 7.037037e+00	 5.185185e+00	 1.013900e+01
0	 7.037037e+00	 5.259259e+00	 1.013669e+01
0	 7.037037e+00	 5.333333e+00	 1.013434e+01
0	 7.037037e+00	 5.407407e+00	 1.013192e+01
0	 7.037037e+00	 5.481481e+00	 1.012946e+01
0	 7.037037e+00	 5.555556e+00	 1.012692e+01
0	 6.666667e+00	 5.555556e+00	 1.015077e+01
0	 6.666667e+00	 5.629630e+00	 1.014741e+01
0	 6.666667e+00	 5.703704e+00	 1.014404e+01
0	 6.666667e+00	 5.777778e+00	 1.014064e+01
0	 6.666667e+00	 5.851852e+00	 1.013722e+01
0	 6.666667e+00	 5.925926e+00	 1.013377e+01
0	 6.740741e+00	 5.555556e+00	 1.014607e+01
0	 6.740741e+00	 5.629630e+00	 1.014288e+01
0	 6.740741e+00	 5.703704e+00	 1.013966e+01
0	 6.740741e+00	 5.777778e+00	 1.013642e+01
0	 6.740741e+00	 5.851852e+00	 1.013315e+01
0	 6.740741e+00	 5.925926e+00	 1.012984e+01
0	 6.814815e+00	 5.555556e+00	 1.014133e+01
0	 6.814815e+00	 5.629630e+00	 1.013829e+01
0	 6.814815e+00	 5.703704e+00	 1.013523e+01
0	 6.814815e+00	 5.777778e+00	 1.013214e+01
0	 6.814815e+00	 5.851852e+00	 1.012902e+01
0	 6.814815e+00	 5.925926e+00	 1.012587e+01
0	 6.888889e+00	 5.555556e+00	 1.013655e+01
0	 6.888889e+00	 5.629630e+00	 1.013367e+01
0	 6.888889e+00	 5.703704e+00	 1.013076e+01
0	 6.888889e+00	 5.777778e+00	 1.012782e+01
0	 6.888889e+00	 5.851852e+00	 1.012485e+01
0	 6.888889e+00	 5.925926e+00	 1.012184e+01
0	 6.962963e+00	 5.555556e+00	 1.013175e+01
0	 6.962963e+00	 5.629630e+00	 1.012902e+01
0	 6.962963e+00	 5.703704e+00	 1.012626e+01
0	 6.962963e+00	 5.777778e+00	 1.012347e+01
0	 6.962963e+00	 5.851852e+00	 1.012065e+01
0	 6.962963e+00	 5.925926e+00	 1.011779e+01
0	 7.037037e+00	 5.555556e+00	 1.012692e+01
0	 7.037037e+00	 5.629630e+00	 1.012435e+01
0	 7.037037e+00	 5.703704e+00	 1.012174e+01
0	 7.037037e+00	 5.777778e+00	 1.011910e+01
0	 7.037037e+00	 5.851852e+00	 1.011642e+01
0	 7.037037e+00	 5.925926e+00	 1.011370e+01
0	 6.666667e+00	 5.925926e+00	 1.013377e+01
0	 6.666667e+00	 6.000000e+00	 1.013030e+01
0	 6.666667e+00	 6.074074e+00	 1.012684e+01
0	 6.666667e+00	 6.148148e+00	 1.012337e+01
0	 6.666667e+00	 6.222222e+00	 1.011990e+01
0	 6.666667e+00	 6.296296e+00	 1.011641e+01
0	 6.740741e+00	 5.925926e+00	 1.012984e+01
0	 6.740741e+00	 6.000000e+00	 1.012652e+01
0	 6.740741e+00	 6.074074e+00	 1.012320e+01
0	 6.740741e+00	 6.148148e+00	 1.011987e+01
0	 6.740741e+00	 6.222222e+00	 1.011654e+01
0	 6.740741e+00	 6.296296e+00	 1.011319e+01
0	 6.814815e+00	 5.925926e+00	 1.012587e+01
0	 6.814815e+00	 6.000000e+00	 1.012269e+01
0	 6.814815e+00	 6.074074e+00	 1.011951e+01
0	 6.814815e+00	 6.148148e+00	 1.011632e+01
0	 6.814815e+00	 6.222222e+00	 1.011312e+01
0	 6.814815e+00	 6.296296e+00	 1.010991e+01
0	 6.888889e+00	 5.925926e+00	 1.012184e+01
0	 6.888889e+00	 6.000000e+00	 1.011881e+01
0	 6.888889e+00	 6.074074e+00	 1.011577e+01
0	 6.888889e+00	 6.148148e+00	 1.011272e+01
0	 6.888889e+00	 6.222222e+00	 1.010966e+01
0	 6.888889e+00	 6.296296e+00	 1.010658e+01
0	 6.962963e+00	 5.925926e+00	 1.011779e+01
0	 6.962963e+00	 6.000000e+00	 1.011490e+01
0	 6.962963e+00	 6.074074e+00	 1.011200e+01
0	 6.962963e+00	 6.148148e+00	 1.010909e+01
0	 6.962963e+00	 6.222222e+00	 1.010616e+01
0	 6.962963e+00	 6.296296e+00	 1.010321e+01
0	 7.037037e+00	 5.925926e+00	 1.011370e+01
0	 7.037037e+00	 6.000000e+00	 1.011096e+01
0	 7.037037e+00	 6.074074e+00	 1.010820e+01
0	 7.037037e+00	 6.148148e+00	 1.010542e+01
0	 7.037037e+00	 6.222222e+00	 1.010263e+01
0	 7.037037e+00	 6.296296e+00	 1.009981e+01
0	 6.666667e+00	 6.296296e+00	 1.011641e+01
0	 6.666667e+00	 6.370370e+00	 1.011294e+01
0	 6.666667e+00	 6.444444e+00	 1.010948e+01
0	 6.666667e+00	 6.518519e+00	 1.010603e+01
0	 6.666667e+00	 6.592593e+00	 1.010259e+01
0	 6.666667e+00	 6.666667e+00	 1.009916e+01
0	 6.740741e+00	 6.296296e+00	 1.011319e+01
0	 6.740741e+00	 6.370370e+00	 1.010984e+01
0	 6.740741e+00	 6.444444e+00	 1.010651e+01
0	 6.740741e+00	 6.518519e+00	 1.010318e+01
0	 6.740741e+00	 6.592593e+00	 1.009987e+01
0	 6.740741e+00	 6.666667e+00	 1.009656e+01
0	 6.814815e+00	 6.296296e+00	 1.010991e+01
0	 6.814815e+00	 6.370370e+00	 1.010669e+01
0	 6.814815e+00	 6.444444e+00	 1.010348e+01
0	 6.814815e+00	 6.518519e+00	 1.010028e+01
0	 6.814815e+00	 6.592593e+00	 1.009709e+01
0	 6.814815e+00	 6.666667e+00	 1.009389e+01
0	 6.888889e+00	 6.296296e+00	 1.010658e+01
0	 6.888889e+00	 6.370370e+00	 1.010349e+01
0	 6.888889e+00	 6.444444e+00	 1.010041e+01
0	 6.888889e+00	 6.518519e+00	 1.009734e+01
0	 6.888889e+00	 6.592593e+00	 1.009426e+01
0	 6.888889e+00	 6.666667e+00	 1.009118e+01
0	 6.962963e+00	 6.296296e+00	 1.010321e+01
0	 6.962963e+00	 6.370370e+00	 1.010025e+01
0	 6.962963e+00	 6.444444e+00	 1.009730e+01
0	 6.962963e+00	 6.518519e+00	 1.009435e+01
0	 6.962963e+00	 6.592593e+00	 1.009140e+01
0	 6.962963e+00	 6.666667e+00	 1.008844e+01
0	 7.037037e+00	 6.296296e+00	 1.009981e+01
0	 7.037037e+00	 6.370370e+00	 1.009698e+01
0	 7.037037e+00	 6.444444e+00	 1.009416e+01
0	 7.037037e+00	 6.518519e+00	 1.009133e+01
0	 7.037037e+00	 6.592593e+00	 1.008850e+01
0	 7.037037e+00	 6.666667e+00	 1.008566e+01
0	 6.666667e+00	 6.666667e+00	 1.009916e+01
0	 6.666667e+00	 6.740741e+00	 1.009575e+01
0	 6.666667e+00	 6.814815e+00	 1.009237e+01
0	 6.666667e+00	 6.888889e+00	 1.008901e+01
0	 6.666667e+00	 6.962963e+00	 1.008568e+01
0	 6.666667e+00	 7.037037e+00	 1.008237e+01
0	 6.740741e+00	 6.666667e+00	 1.009656e+01
0	 6.740741e+00	 6.740741e+00	 1.009326e+01
0	 6.740741e+00	 6.814815e+00	 1.008999e+01
0	 6.740741e+00	 6.888889e+00	 1.008674e+01
0	 6.740741e+00	 6.962963e+00	 1.008351e+01
0	 6.740741e+00	 7.037037e+00	 1.008030e+01
0	 6.814815e+00	 6.666667e+00	 1.009389e+01
0	 6.814815e+00	 6.740741e+00	 1.009071e+01
0	 6.814815e+00	 6.814815e+00	 1.008755e+01
0	 6.814815e+00	 6.888889e+00	 1.008441e+01
0	 6.814815e+00	 6.962963e+00	 1.008129e+01
0	 6.814815e+00	 7.037037e+00	 1.007819e+01
0	 6.888889e+00	 6.666667e+00	 1.009118e+01
0	 6.888889e+00	 6.740741e+00	 1.008812e+01
0	 6.888889e+00	 6.814815e+00	 1.008507e+01
0	 6.888889e+00	 6.888889e+00	 1.008204e+01
0	 6.888889e+00	 6.962963e+00	 1.007903e+01
0	 6.888889e+00	 7.037037e+00	 1.007603e+01
0	 6.962963e+00	 6.666667e+00	 1.008844e+01
0	 6.962963e+00	 6.740741e+00	 1.008549e+01
0	 6.962963e+00	 6.814815e+00	 1.008255e+01
0	 6.962963e+00	 6.888889e+00	 1.007964e+01
0	 6.962963e+00	 6.962963e+00	 1.007673e+01
0	 6.962963e+00	 7.037037e+00	 1.007383e+01
0	 7.037037e+00	 6.666667e+00	 1.008566e+01
0	 7.037037e+00	 6.740741e+00	 1.008282e+01
0	 7.037037e+00	 6.814815e+00	 1.008001e+01
0	 7.037037e+00	 6.888889e+00	 1.007720e+01
0	 7.037037e+00	 6.962963e+00	 1.007440e+01
0	 7.037037e+00	 7.037037e+00	 1.007161e+01
0	 6.666667e+00	 7.037037e+00	 1.008237e+01
0	 6.666667e+00	 7.111111e+00	 1.007909e+01
0	 6.666667e+00	 7.185185e+00	 1.007584e+01
0	 6.666667e+00	 7.259259e+00	 1.007264e+01
0	 6.666667e+00	 7.333333e+00	 1.006947e+01
0	 6.666667e+00	 7.407407e+00	 1.006634e+01
0	 6.740741e+00	 7.037037e+00	 1.008030e+01
0	 6.740741e+00	 7.111111e+00	 1.007712e+01
0	 6.740741e+00	 7.185185e+00	 1.007398e+01
0	 6.740741e+00	 7.259259e+00	 1.007087e+01
0	 6.740741e+00	 7.333333e+00	 1.006779e+01
0	 6.740741e+00	 7.407407e+00	 1.006474e+01
0	 6.814815e+00	 7.037037e+00	 1.007819e+01
0	 6.814815e+00	 7.111111e+00	 1.007510e+01
0	 6.814815e+00	 7.185185e+00	 1.007206e+01
0	 6.814815e+00	 7.259259e+00	 1.006904e+01
0	 6.814815e+00	 7.333333e+00	 1.006606e+01
0	 6.814815e+00	 7.407407e+00	 1.006310e+01
0	 6.888889e+00	 7.037037e+00	 1.007603e+01
0	 6.888889e+00	 7.111111e+00	 1.007305e+01
0	 6.888889e+00	 7.185185e+00	 1.007010e+01
0	 6.888889e+00	 7.259259e+00	 1.006718e+01
0	 6.888889e+00	 7.333333e+00	 1.006429e+01
0	 6.888889e+00	 7.407407e+00	 1.006142e+01
0	 6.962963e+00	 7.037037e+00	 1.007383e+01
0	 6.962963e+00	 7.111111e+00	 1.007095e+01
0	 6.962963e+00	 7.185185e+00	 1.006811e+01
0	 6.962963e+00	 7.259259e+00	 1.006528e+01
0	 6.962963e+00	 7.333333e+00	 1.006249e+01
0	 6.962963e+00	 7.407407e+00	 1.005971e+01
0	 7.037037e+00	 7.037037e+00	 1.007161e+01
0	 7.037037e+00	 7.111111e+00	 1.006883e+01
0	 7.037037e+00	 7.185185e+00	 1.006608e+01
0	 7.037037e+00	 7.259259e+00	 1.006336e+01
0	 7.037037e+00	 7.333333e+00	 1.006066e+01
0	 7.037037e+00	 7.407407e+00	 1.005797e+01
0	 6.666667e+00	 7.407407e+00	 1.006634e+01
0	 6.666667e+00	 7.481481e+00	 1.006324e+01
0	 6.666667e+00	 7.555556e+00	 1.006019e+01
0	 6.666667e+00	 7.629630e+00	 1.005720e+01
0	 6.666667e+00	 7.703704e+00	 1.005425e+01
0	 6.666667e+00	 7.777778e+00	 1.005133e+01
0	 6.740741e+00	 7.407407e+00	 1.006474e+01
0	 6.740741e+00	 7.481481e+00	 1.006173e+01
0	 6.740741e+00	 7.555556e+00	 1.005877e+01
0	 6.740741e+00	 7.629630e+00	 1.005585e+01
0	 6.740741e+00	 7.703704e+00	 1.005297e+01
0	 6.740741e+00	 7.777778e+00	 1.005014e+01
0	 6.814815e+00	 7.407407e+00	 1.006310e+01
0	 6.814815e+00	 7.481481e+00	 1.006017e+01
0	 6.814815e+00	 7.555556e+00	 1.005729e+01
0	 6.814815e+00	 7.629630e+00	 1.005446e+01
0	 6.814815e+00	 7.703704e+00	 1.005166e+01
0	 6.814815e+00	 7.777778e+00	 1.004890e+01
0	 6.888889e+00	 7.407407e+00	 1.006142e+01
0	 6.888889e+00	 7.481481e+00	 1.005858e+01
0	 6.888889e+00	 7.555556e+00	 1.005579e+01
0	 6.888889e+00	 7.629630e+00	 1.005304e+01
0	 6.888889e+00	 7.703704e+00	 1.005032e+01
0	 6.888889e+00	 7.777778e+00	 1.004764e+01
0	 6.962963e+00	 7.407407e+00	 1.005971e+01
0	 6.962963e+00	 7.481481e+00	 1.005696e+01
0	 6.962963e+00	 7.555556e+00	 1.005425e+01
0	 6.962963e+00	 7.629630e+00	 1.005159e+01
0	 6.962963e+00	 7.703704e+00	 1.004895e+01
0	 6.962963e+00	 7.777778e+00	 1.004635e+01
0	 7.037037e+00	 7.407407e+00	 1.005797e+01
0	 7.037037e+00	 7.481481e+00	 1.005532e+01
0	 7.037037e+00	 7.555556e+00	 1.005270e+01
0	 7.037037e+00	 7.629630e+00	 1.005011e+01
0	 7.037037e+00	 7.703704e+00	 1.004756e+01
0	 7.037037e+00	 7.777778e+00	 1.004504e+01
0	 6.666667e+00	 7.777778e+00	 1.005133e+01
0	 6.666667e+00	 7.851852e+00	 1.004847e+01
0	 6.666667e+00	 7.925926e+00	 1.004567e+01
0	 6.666667e+00	 8.000000e+00	 1.004293e+01
0	 6.666667e+00	 8.074074e+00	 1.004025e+01
0	 6.666667e+00	 8.148148e+00	 1.003761e+01
0	 6.740741e+00	 7.777778e+00	 1.005014e+01
0	 6.740741e+00	 7.851852e+00	 1.004735e+01
0	 6.740741e+00	 7.925926e+00	 1.004462e+01
0	 6.740741e+00	 8.000000e+00	 1.004195e+01
0	 6.740741e+00	 8.074074e+00	 1.003933e+01
0	 6.740741e+00	 8.148148e+00	 1.003676e+01
0	 6.814815e+00	 7.777778e+00	 1.004890e+01
0	 6.814815e+00	 7.851852e+00	 1.004619e+01
0	 6.814815e+00	 7.925926e+00	 1.004353e+01
0	 6.814815e+00	 8.000000e+00	 1.004093e+01
0	 6.814815e+00	 8.074074e+00	 1.003838e+01
0	 6.814815e+00	 8.148148e+00	 1.003587e+01
0	 6.888889e+00	 7.777778e+00	 1.004764e+01
0	 6.888889e+00	 7.851852e+00	 1.004500e+01
0	 6.888889e+00	 7.925926e+00	 1.004242e+01
0	 6.888889e+00	 8.000000e+00	 1.003989e+01
0	 6.888889e+00	 8.074074e+00	 1.003740e+01
0	 6.888889e+00	 8.148148e+00	 1.003496e+01
0	 6.962963e+00	 7.777778e+00	 1.004635e+01
0	 6.962963e+00	 7.851852e+00	 1.004379e+01
0	 6.962963e+00	 7.925926e+00	 1.004128e+01
0	 6.962963e+00	 8.000000e+00	 1.003882e+01
0	 6.962963e+00	 8.074074e+00	 1.003641e+01
0	 6.962963e+00	 8.148148e+00	 1.003404e+01
0	 7.037037e+00	 7.777778e+00	 1.004504e+01
0	 7.037037e+00	 7.851852e+00	 1.004256e+01
0	 7.037037e+00	 7.925926e+00	 1.004012e+01
0	 7.037037e+00	 8.000000e+00	 1.003774e+01
0	 7.037037e+00	 8.074074e+00	 1.003540e+01
0	 7.037037e+00	 8.148148e+00	 1.003309e+01
0	 6.666667e+00	 8.148148e+00	 1.003761e+01
0	 6.666667e+00	 8.222222e+00	 1.003504e+01
0	 6.666667e+00	 8.296296e+00	 1.003254e+01
0	 6.666667e+00	 8.370370e+00	 1.003012e+01
0	 6.666667e+00	 8.444444e+00	 1.002775e+01
0	 6.666667e+00	 8.518519e+00	 1.002545e+01
0	 6.740741e+00	 8.148148e+00	 1.003676e+01
0	 6.740741e+00	 8.222222e+00	 1.003425e+01
0	 6.740741e+00	 8.296296e+00	 1.003181e+01
0	 6.740741e+00	 8.370370e+00	 1.002944e+01
0	 6.740741e+00	 8.444444e+00	 1.002713e+01
0	 6.740741e+00	 8.518519e+00	 1.002488e+01
0	 6.814815e+00	 8.148148e+00	 1.003587e+01
0	 6.814815e+00	 8.222222e+00	 1.003342e+01
0	 6.814815e+00	 8.296296e+00	 1.003104e+01
0	 6.814815e+00	 8.370370e+00	 1.002873e+01
0	 6.814815e+00	 8.444444e+00	 1.002648e+01
0	 6.814815e+00	 8.518519e+00	 1.002429e+01
0	 6.888889e+00	 8.148148e+00	 1.003496e+01
0	 6.888889e+00	 8.222222e+00	 1.003258e+01
0	 6.888889e+00	 8.296296e+00	 1.003026e+01
0	 6.888889e+00	 8.370370e+00	 1.002801e+01
0	 6.888889e+00	 8.444444e+00	 1.002582e+01
0	 6.888889e+00	 8.518519e+00	 1.002368e+01
0	 6.962963e+00	 8.148148e+00	 1.003404e+01
0	 6.962963e+00	 8.222222e+00	 1.003172e+01
0	 6.962963e+00	 8.296296e+00	 1.002946e+01
0	 6.962963e+00	 8.370370e+00	 1.002727e+01
0	 6.962963e+00	 8.444444e+00	 1.002514e+01
0	 6.962963e+00	 8.518519e+00	 1.002306e+01
0	 7.037037e+00	 8.148148e+00	 1.003309e+01
0	 7.037037e+00	 8.222222e+00	 1.003084e+01
0	 7.037037e+00	 8.296296e+00	 1.002865e+01
0	 7.037037e+00	 8.370370e+00	 1.002652e+01
0	 7.037037e+00	 8.444444e+00	 1.002445e+01
0	 7.037037e+00	 8.518519e+00	 1.002243e+01
0	 6.666667e+00	 8.518519e+00	 1.002545e+01
0	 6.666667e+00	 8.592593e+00	 1.002323e+01
0	 6.666667e+00	 8.666667e+00	 1.002109e+01
0	 6.666667e+00	 8.740741e+00	 1.001904e+01
0	 6.666667e+00	 8.814815e+00	 1.001707e+01
0	 6.666667e+00	 8.888889e+00	 1.001517e+01
0	 6.740741e+00	 8.518519e+00	 1.002488e+01
0	 6.740741e+00	 8.592593e+00	 1.002271e+01
0	 6.740741e+00	 8.666667e+00	 1.002062e+01
0	 6.740741e+00	 8.740741e+00	 1.001861e+01
0	 6.740741e+00	 8.814815e+00	 1.001669e+01
0	 6.740741e+00	 8.888889e+00	 1.001483e+01
0	 6.814815e+00	 8.518519e+00	 1.002429e+01
0	 6.814815e+00	 8.592593e+00	 1.002216e+01
0	 6.814815e+00	 8.666667e+00	 1.002013e+01
0	 6.814815e+00	 8.740741e+00	 1.001817e+01
0	 6.814815e+00	 8.814815e+00	 1.001629e+01
0	 6.814815e+00	 8.888889e+00	 1.001448e+01
0	 6.888889e+00	 8.518519e+00	 1.002368e+01
0	 6.888889e+00	 8.592593e+00	 1.002161e+01
0	 6.888889e+00	 8.666667e+00	 1.001962e+01
0	 6.888889e+00	 8.740741e+00	 1.001771e+01
0	 6.888889e+00	 8.814815e+00	 1.001588e+01
0	 6.888889e+00	 8.888889e+00	 1.001411e+01
0	 6.962963e+00	 8.518519e+00	 1.002306e+01
0	 6.962963e+00	 8.592593e+00	 1.002104e+01
0	 6.962963e+00	 8.666667e+00	 1.001911e+01
0	 6.962963e+00	 8.740741e+00	 1.001725e+01
0	 6.962963e+00	 8.814815e+00	 1.001546e+01
0	 6.962963e+00	 8.888889e+00	 1.001374e+01
0	 7.037037e+00	 8.518519e+00	 1.002243e+01
0	 7.037037e+00	 8.592593e+00	 1.002047e+01
0	 7.037037e+00	 8.666667e+00	 1.001859e+01
0	 7.037037e+00	 8.740741e+00	 1.001678e+01
0	 7.037037e+00	 8.814815e+00	 1.001504e+01
0	 7.037037e+00	 8.888889e+00	 1.001337e+01
0	 6.666667e+00	 8.888889e+00	 1.001517e+01
0	 6.666667e+00	 8.962963e+00	 1.001337e+01
0	 6.666667e+00	 9.037037e+00	 1.001167e+01
0	 6.666667e+00	 9.111111e+00	 1.001007e+01
0	 6.666667e+00	 9.185185e+00	 1.000857e+01
0	 6.666667e+00	 9.259259e+00	 1.000716e+01
0	 6.740741e+00	 8.888889e+00	 1.001483e+01
0	 6.740741e+00	 8.962963e+00	 1.001307e+01
0	 6.740741e+00	 9.037037e+00	 1.001140e+01
0	 6.740741e+00	 9.111111e+00	 1.000984e+01
0	 6.740741e+00	 9.185185e+00	 1.000838e+01
0	 6.740741e+00	 9.259259e+00	 1.000700e+01
0	 6.814815e+00	 8.888889e+00	 1.001448e+01
0	 6.814815e+00	 8.962963e+00	 1.001275e+01
0	 6.814815e+00	 9.037037e+00	 1.001113e+01
0	 6.814815e+00	 9.111111e+00	 1.000961e+01
0	 6.814815e+00	 9.185185e+00	 1.000817e+01
0	 6.814815e+00	 9.259259e+00	 1.000683e+01
0	 6.888889e+00	 8.888889e+00	 1.001411e+01
0	 6.888889e+00	 8.962963e+00	 1.001243e+01
0	 6.888889e+00	 9.037037e+00	 1.001085e+01
0	 6.888889e+00	 9.111111e+00	 1.000936e+01
0	 6.888889e+00	 9.185185e+00	 1.000797e+01
0	 6.888889e+00	 9.259259e+00	 1.000665e+01
0	 6.962963e+00	 8.888889e+00	 1.001374e+01
0	 6.962963e+00	 8.962963e+00	 1.001211e+01
0	 6.962963e+00	 9.037037e+00	 1.001056e+01
0	 6.962963e+00	 9.111111e+00	 1.000912e+01
0	 6.962963e+00	 9.185185e+00	 1.000776e+01
0	 6.962963e+00	 9.259259e+00	 1.000648e+01
0	 7.037037e+00	 8.888889e+00	 1.001337e+01
0	 7.037037e+00	 8.962963e+00	 1.001177e+01
0	 7.037037e+00	 9.037037e+00	 1.001028e+01
0	 7.037037e+00	 9.111111e+00	 1.000887e+01
0	 7.037037e+00	 9.185185e+00	 1.000754e+01
0	 7.037037e+00	 9.259259e+00	 1.000630e+01
0	 6.666667e+00	 9.259259e+00	 1.000716e+01
0	 6.666667e+00	 9.333333e+00	 1.000586e+01
0	 6.666667e+00	 9.407407e+00	 1.000469e+01
0	 6.666667e+00	 9.481481e+00	 1.000365e+01
0	 6.666667e+00	 9.555556e+00	 1.000272e+01
0	 6.666667e+00	 9.629630e+00	 1.000191e+01
0	 6.740741e+00	 9.259259e+00	 1.000700e+01
0	 6.740741e+00	 9.333333e+00	 1.000573e+01
0	 6.740741e+00	 9.407407e+00	 1.000459e+01
0	 6.740741e+00	 9.481481e+00	 1.000356e+01
0	 6.740741e+00	 9.555556e+00	 1.000266e+01
0	 6.740741e+00	 9.629630e+00	 1.000186e+01
0	 6.814815e+00	 9.259259e+00	 1.000683e+01
0	 6.814815e+00	 9.333333e+00	 1.000559e+01
0	 6.814815e+00	 9.407407e+00	 1.000447e+01
0	 6.814815e+00	 9.481481e+00	 1.000348e+01
0	 6.814815e+00	 9.555556e+00	 1.000259e+01
0	 6.814815e+00	 9.629630e+00	 1.000182e+01
0	 6.888889e+00	 9.259259e+00	 1.000665e+01
0	 6.888889e+00	 9.333333e+00	 1.000544e+01
0	 6.888889e+00	 9.407407e+00	 1.000436e+01
0	 6.888889e+00	 9.481481e+00	 1.000339e+01
0	 6.888889e+00	 9.555556e+00	 1.000252e+01
0	 6.888889e+00	 9.629630e+00	 1.000177e+01
0	 6.962963e+00	 9.259259e+00	 1.000648e+01
0	 6.962963e+00	 9.333333e+00	 1.000530e+01
0	 6.962963e+00	 9.407407e+00	 1.000424e+01
0	 6.962963e+00	 9.481481e+00	 1.000329e+01
0	 6.962963e+00	 9.555556e+00	 1.000246e+01
0	 6.962963e+00	 9.629630e+00	 1.000172e+01
0	 7.037037e+00	 9.259259e+00	 1.000630e+01
0	 7.037037e+00	 9.333333e+00	 1.000515e+01
0	 7.037037e+00	 9.407407e+00	 1.000412e+01
0	 7.037037e+00	 9.481481e+00	 1.000320e+01
0	 7.037037e+00	 9.555556e+00	 1.000239e+01
0	 7.037037e+00	 9.629630e+00	 1.000167e+01
0	 6.666667e+00	 9.629630e+00	 1.000191e+01
0	 6.666667e+00	 9.703704e+00	 1.000122e+01
0	 6.666667e+00	 9.777778e+00	 1.000070e+01
0	 6.666667e+00	 9.851852e+00	 1.000032e+01
0	 6.666667e+00	 9.925926e+00	 1.000009e+01
0	 6.666667e+00	 1.000000e+01	 9.999984e+00
0	 6.740741e+00	 9.629630e+00	 1.000186e+01
0	 6.740741e+00	 9.703704e+00	 1.000120e+01
0	 6.740741e+00	 9.777778e+00	 1.000068e+01
0	 6.740741e+00	 9.851852e+00	 1.000032e+01
0	 6.740741e+00	 9.925926e+00	 1.000009e+01
0	 6.740741e+00	 1.000000e+01	 9.999986e+00
0	 6.814815e+00	 9.629630e+00	 1.000182e+01
0	 6.814815e+00	 9.703704e+00	 1.000117e+01
0	 6.814815e+00	 9.777778e+00	 1.000067e+01
0	 6.814815e+00	 9.851852e+00	 1.000031e+01
0	 6.814815e+00	 9.925926e+00	 1.000008e+01
0	 6.814815e+00	 1.000000e+01	 9.999986e+00
0	 6.888889e+00	 9.629630e+00	 1.000177e+01
0	 6.888889e+00	 9.703704e+00	 1.000114e+01
0	 6.888889e+00	 9.777778e+00	 1.000065e+01
0	 6.888889e+00	 9.851852e+00	 1.000030e+01
0	 6.888889e+00	 9.925926e+00	 1.000008e+01
0	 6.888889e+00	 1.000000e+01	 9.999984e+00
0	 6.962963e+00	 9.629630e+00	 1.000172e+01
0	 6.962963e+00	 9.703704e+00	 1.000110e+01
0	 6.962963e+00	 9.777778e+00	 1.000063e+01
0	 6.962963e+00	 9.851852e+00	 1.000029e+01
0	 6.962963e+00	 9.925926e+00	 1.000008e+01
0	 6.962963e+00	 1.000000e+01	 9.999984e+00
0	 7.037037e+00	 9.629630e+00	 1.000167e+01
0	 7.037037e+00	 9.703704e+00	 1.000107e+01
0	 7.037037e+00	 9.777778e+00	 1.000061e+01
0	 7.037037e+00	 9.851852e+00	 1.000028e+01
0	 7.037037e+00	 9.925926e+00	 1.000007e+01
0	 7.037037e+00	 1.000000e+01	 9.999987e+00
0	 7.037037e+00	 0.000000e+00	 1.008107e+01
0	 7.037037e+00	 7.407407e-02	 1.008117e+01
0	 7.037037e+00	 1.481481e-01	 1.008146e+01
0	 7.037037e+00	 2.222222e-01	 1.008193e+01
0	 7.037037e+00	 2.962963e-01	 1.008260e+01
0	 7.037037e+00	 3.703704e-01	 1.008345e+01
0	 7.111111e+00	 0.000000e+00	 1.007293e+01
0	 7.111111e+00	 7.407407e-02	 1.007303e+01
0	 7.111111e+00	 1.481481e-01	 1.007332e+01
0	 7.111111e+00	 2.222222e-01	 1.007378e+01
0	 7.111111e+00	 2.962963e-01	 1.007442e+01
0	 7.111111e+00	 3.703704e-01	 1.007525e+01
0	 7.185185e+00	 0.000000e+00	 1.006478e+01
0	 7.185185e+00	 7.407407e-02	 1.006488e+01
0	 7.185185e+00	 1.481481e-01	 1.006515e+01
0	 7.185185e+00	 2.222222e-01	 1.006559e+01
0	 7.185185e+00	 2.962963e-01	 1.006622e+01
0	 7.185185e+00	 3.703704e-01	 1.006702e+01
0	 7.259259e+00	 0.000000e+00	 1.005660e+01
0	 7.259259e+00	 7.407407e-02	 1.005670e+01
0	 7.259259e+00	 1.481481e-01	 1.005695e+01
0	 7.259259e+00	 2.222222e-01	 1.005738e+01
0	 7.259259e+00	 2.962963e-01	 1.005799e+01
0	 7.259259e+00	 3.703704e-01	 1.005876e+01
0	 7.333333e+00	 0.000000e+00	 1.004839e+01
0	 7.333333e+00	 7.407407e-02	 1.004848e+01
0	 7.333333e+00	 1.481481e-01	 1.004873e+01
0	 7.333333e+00	 2.222222e-01	 1.004914e+01
0	 7.333333e+00	 2.962963e-01	 1.004972e+01
0	 7.333333e+00	 3.703704e-01	 1.005048e+01
0	 7.407407e+00	 0.000000e+00	 1.004014e+01
0	 7.407407e+00	 7.407407e-02	 1.004022e+01
0	 7.407407e+00	 1.481481e-01	 1.004046e+01
0	 7.407407e+00	 2.222222e-01	 1.004086e+01
0	 7.407407e+00	 2.962963e-01	 1.004142e+01
0	 7.407407e+00	 3.703704e-01	 1.004215e+01
0	 7.037037e+00	 3.703704e-01	 1.008345e+01
0	 7.037037e+00	 4.444444e-01	 1.008448e+01
0	 7.037037e+00	 5.185185e-01	 1.008567e+01
0	 7.037037e+00	 5.925926e-01	 1.008702e+01
0	 7.037037e+00	 6.666667e-01	 1.008854e+01
0	 7.037037e+00	 7.407407e-01	 1.009024e+01
0	 7.111111e+00	 3.703704e-01	 1.007525e+01
0	 7.111111e+00	 4.444444e-01	 1.007624e+01
0	 7.111111e+00	 5.185185e-01	 1.007739e+01
0	 7.111111e+00	 5.925926e-01	 1.007869e+01
0	 7.111111e+00	 6.666667e-01	 1.008016e+01
0	 7.111111e+00	 7.407407e-01	 1.008181e+01
0	 7.185185e+00	 3.703704e-01	 1.006702e+01
0	 7.185185e+00	 4.444444e-01	 1.006798e+01
0	 7.185185e+00	 5.185185e-01	 1.006909e+01
0	 7.185185e+00	 5.925926e-01	 1.007035e+01
0	 7.185185e+00	 6.666667e-01	 1.007178e+01
0	 7.185185e+00	 7.407407e-01	 1.007337e+01
0	 7.259259e+00	 3.703704e-01	 1.005876e+01
0	 7.259259e+00	 4.444444e-01	 1.005969e+01
0	 7.259259e+00	 5.185185e-01	 1.006077e+01
0	 7.259259e+00	 5.925926e-01	 1.006200e+01
0	 7.259259e+00	 6.666667e-01	 1.006338e+01
0	 7.259259e+00	 7.407407e-01	 1.006493e+01
0	 7.333333e+00	 3.703704e-01	 1.005048e+01
0	 7.333333e+00	 4.444444e-01	 1.005138e+01
0	 7.333333e+00	 5.185185e-01	 1.005243e+01
0	 7.333333e+00	 5.925926e-01	 1.005362e+01
0	 7.333333e+00	 6.666667e-01	 1.005497e+01
0	 7.333333e+00	 7.407407e-01	 1.005647e+01
0	 7.407407e+00	 3.703704e-01	 1.004215e+01
0	 7.407407e+00	 4.444444e-01	 1.004303e+01
0	 7.407407e+00	 5.185185e-01	 1.004405e+01
0	 7.407407e+00	 5.925926e-01	 1.004521e+01
0	 7.407407e+00	 6.666667e-01	 1.004652e+01
0	 7.407407e+00	 7.407407e-01	 1.004798e+01
0	 7.037037e+00	 7.407407e-01	 1.009024e+01
0	 7.037037e+00	 8.148148e-01	 1.009208e+01
0	 7.037037e+00	 8.888889e-01	 1.009402e+01
0	 7.037037e+00	 9.629630e-01	 1.009609e+01
0	 7.037037e+00	 1.037037e+00	 1.009828e+01
0	 7.037037e+00	 1.111111e+00	 1.010060e+01
0	 7.111111e+00	 7.407407e-01	 1.008181e+01
0	 7.111111e+00	 8.148148e-01	 1.008359e+01
0	 7.111111e+00	 8.888889e-01	 1.008547e+01
0	 7.111111e+00	 9.629630e-01	 1.008747e+01
0	 7.111111e+00	 1.037037e+00	 1.008959e+01
0	 7.111111e+00	 1.111111e+00	 1.009185e+01
0	 7.185185e+00	 7.407407e-01	 1.007337e+01
0	 7.185185e+00	 8.148148e-01	 1.007510e+01
0	 7.185185e+00	 8.888889e-01	 1.007692e+01
0	 7.185185e+00	 9.629630e-01	 1.007886e+01
0	 7.185185e+00	 1.037037e+00	 1.008093e+01
0	 7.185185e+00	 1.111111e+00	 1.008312e+01
0	 7.259259e+00	 7.407407e-01	 1.006493e+01
0	 7.259259e+00	 8.148148e-01	 1.006660e+01
0	 7.259259e+00	 8.888889e-01	 1.006838e+01
0	 7.259259e+00	 9.629630e-01	 1.007026e+01
0	 7.259259e+00	 1.037037e+00	 1.007227e+01
0	 7.259259e+00	 1.111111e+00	 1.007440e+01
0	 7.333333e+00	 7.407407e-01	 1.005647e+01
0	 7.333333e+00	 8.148148e-01	 1.005810e+01
0	 7.333333e+00	 8.888889e-01	 1.005982e+01
0	 7.333333e+00	 9.629630e-01	 1.006166e+01
0	 7.333333e+00	 1.037037e+00	 1.006362e+01
0	 7.333333e+00	 1.111111e+00	 1.006569e+01
0	 7.407407e+00	 7.407407e-01	 1.004798e+01
0	 7.407407e+00	 8.148148e-01	 1.004957e+01
0	 7.407407e+00	 8.888889e-01	 1.005125e+01
0	 7.407407e+00	 9.629630e-01	 1.005305e+01
0	 7.407407e+00	 1.037037e+00	 1.005495e+01
0	 7.407407e+00	 1.111111e+00	 1.005698e+01
0	 7.037037e+00	 1.111111e+00	 1.010060e+01
0	 7.037037e+00	 1.185185e+00	 1.010302e+01
0	 7.037037e+00	 1.259259e+00	 1.010549e+01
0	 7.037037e+00	 1.333333e+00	 1.010801e+01
0	 7.037037e+00	 1.407407e+00	 1.011061e+01
0	 7.037037e+00	 1.481481e+00	 1.011329e+01
0	 7.111111e+00	 1.111111e+00	 1.009185e+01
0	 7.111111e+00	 1.185185e+00	 1.009420e+01
0	 7.111111e+00	 1.259259e+00	 1.009659e+01
0	 7.111111e+00	 1.333333e+00	 1.009905e+01
0	 7.111111e+00	 1.407407e+00	 1.010157e+01
0	 7.111111e+00	 1.481481e+00	 1.010419e+01
0	 7.185185e+00	 1.111111e+00	 1.008312e+01
0	 7.185185e+00	 1.185185e+00	 1.008540e+01
0	 7.185185e+00	 1.259259e+00	 1.008773e+01
0	 7.185185e+00	 1.333333e+00	 1.009012e+01
0	 7.185185e+00	 1.407407e+00	 1.009259e+01
0	 7.185185e+00	 1.481481e+00	 1.009514e+01
0	 7.259259e+00	 1.111111e+00	 1.007440e+01
0	 7.259259e+00	 1.185185e+00	 1.007663e+01
0	 7.259259e+00	 1.259259e+00	 1.007890e+01
0	 7.259259e+00	 1.333333e+00	 1.008123e+01
0	 7.259259e+00	 1.407407e+00	 1.008364e+01
0	 7.259259e+00	 1.481481e+00	 1.008613e+01
0	 7.333333e+00	 1.111111e+00	 1.006569e+01
0	 7.333333e+00	 1.185185e+00	 1.006786e+01
0	 7.333333e+00	 1.259259e+00	 1.007008e+01
0	 7.333333e+00	 1.333333e+00	 1.007236e+01
0	 7.333333e+00	 1.407407e+00	 1.007472e+01
0	 7.333333e+00	 1.481481e+00	 1.007715e+01
0	 7.407407e+00	 1.111111e+00	 1.005698e+01
0	 7.407407e+00	 1.185185e+00	 1.005910e+01
0	 7.407407e+00	 1.259259e+00	 1.006127e+01
0	 7.407407e+00	 1.333333e+00	 1.006350e+01
0	 7.407407e+00	 1.407407e+00	 1.006581e+01
0	 7.407407e+00	 1.481481e+00	 1.006819e+01
0	 7.037037e+00	 1.481481e+00	 1.011329e+01
0	 7.037037e+00	 1.555556e+00	 1.011600e+01
0	 7.037037e+00	 1.629630e+00	 1.011870e+01
0	 7.037037e+00	 1.703704e+00	 1.012139e+01
0	 7.037037e+00	 1.777778e+00	 1.012410e+01
0	 7.037037e+00	 1.851852e+00	 1.012682e+01
0	 7.111111e+00	 1.481481e+00	 1.010419e+01
0	 7.111111e+00	 1.555556e+00	 1.010683e+01
0	 7.111111e+00	 1.629630e+00	 1.010947e+01
0	 7.111111e+00	 1.703704e+00	 1.011211e+01
0	 7.111111e+00	 1.777778e+00	 1.011475e+01
0	 7.111111e+00	 1.851852e+00	 1.011743e+01
0	 7.185185e+00	 1.481481e+00	 1.009514e+01
0	 7.185185e+00	 1.555556e+00	 1.009772e+01
0	 7.185185e+00	 1.629630e+00	 1.010030e+01
0	 7.185185e+00	 1.703704e+00	 1.010288e+01
0	 7.185185e+00	 1.777778e+00	 1.010548e+01
0	 7.185185e+00	 1.851852e+00	 1.010811e+01
0	 7.259259e+00	 1.481481e+00	 1.008613e+01
0	 7.259259e+00	 1.555556e+00	 1.008866e+01
0	 7.259259e+00	 1.629630e+00	 1.009118e+01
0	 7.259259e+00	 1.703704e+00	 1.009372e+01
0	 7.259259e+00	 1.777778e+00	 1.009627e+01
0	 7.259259e+00	 1.851852e+00	 1.009885e+01
0	 7.333333e+00	 1.481481e+00	 1.007715e+01
0	 7.333333e+00	 1.555556e+00	 1.007963e+01
0	 7.333333e+00	 1.629630e+00	 1.008211e+01
0	 7.333333e+00	 1.703704e+00	 1.008460e+01
0	 7.333333e+00	 1.777778e+00	 1.008711e+01
0	 7.333333e+00	 1.851852e+00	 1.008965e+01
0	 7.407407e+00	 1.481481e+00	 1.006819e+01
0	 7.407407e+00	 1.555556e+00	 1.007062e+01
0	 7.407407e+00	 1.629630e+00	 1.007306e+01
0	 7.407407e+00	 1.703704e+00	 1.007551e+01
0	 7.407407e+00	 1.777778e+00	 1.007798e+01
0	 7.407407e+00	 1.851852e+00	 1.008049e+01
0	 7.037037e+00	 1.851852e+00	 1.012682e+01
0	 7.037037e+00	 1.925926e+00	 1.012953e+01
0	 7.037037e+00	 2.000000e+00	 1.013216e+01
0	 7.037037e+00	 2.074074e+00	 1.013474e+01
0	 7.037037e+00	 2.148148e+00	 1.013727e+01
0	 7.037037e+00	 2.222222e+00	 1.013976e+01
0	 7.111111e+00	 1.851852e+00	 1.011743e+01
0	 7.111111e+00	 1.925926e+00	 1.012008e+01
0	 7.111111e+00	 2.000000e+00	 1.012268e+01
0	 7.111111e+00	 2.074074e+00	 1.012522e+01
0	 7.111111e+00	 2.148148e+00	 1.012772e+01
0	 7.111111e+00	 2.222222e+00	 1.013019e+01
0	 7.185185e+00	 1.851852e+00	 1.010811e+01
0	 7.185185e+00	 1.925926e+00	 1.011072e+01
0	 7.185185e+00	 2.000000e+00	 1.011327e+01
0	 7.185185e+00	 2.074074e+00	 1.011578e+01
0	 7.185185e+00	 2.148148e+00	 1.011826e+01
0	 7.185185e+00	 2.222222e+00	 1.012071e+01
0	 7.259259e+00	 1.851852e+00	 1.009885e+01
0	 7.259259e+00	 1.925926e+00	 1.010143e+01
0	 7.259259e+00	 2.000000e+00	 1.010395e+01
0	 7.259259e+00	 2.074074e+00	 1.010643e+01
0	 7.259259e+00	 2.148148e+00	 1.010888e+01
0	 7.259259e+00	 2.222222e+00	 1.011131e+01
0	 7.333333e+00	 1.851852e+00	 1.008965e+01
0	 7.333333e+00	 1.925926e+00	 1.009219e+01
0	 7.333333e+00	 2.000000e+00	 1.009468e+01
0	 7.333333e+00	 2.074074e+00	 1.009714e+01
0	 7.333333e+00	 2.148148e+00	 1.009957e+01
0	 7.333333e+00	 2.222222e+00	 1.010198e+01
0	 7.407407e+00	 1.851852e+00	 1.008049e+01
0	 7.407407e+00	 1.925926e+00	 1.008299e+01
0	 7.407407e+00	 2.000000e+00	 1.008546e+01
0	 7.407407e+00	 2.074074e+00	 1.008790e+01
0	 7.407407e+00	 2.148148e+00	 1.009031e+01
0	 7.407407e+00	 2.222222e+00	 1.009271e+01
0	 7.037037e+00	 2.222222e+00	 1.013976e+01
0	 7.037037e+00	 2.296296e+00	 1.014218e+01
0	 7.037037e+00	 2.370370e+00	 1.014449e+01
0	 7.037037e+00	 2.444444e+00	 1.014670e+01
0	 7.037037e+00	 2.518519e+00	 1.014881e+01
0	 7.037037e+00	 2.592593e+00	 1.015084e+01
0	 7.111111e+00	 2.222222e+00	 1.013019e+01
0	 7.111111e+00	 2.296296e+00	 1.013259e+01
0	 7.111111e+00	 2.370370e+00	 1.013489e+01
0	 7.111111e+00	 2.444444e+00	 1.013710e+01
0	 7.111111e+00	 2.518519e+00	 1.013921e+01
0	 7.111111e+00	 2.592593e+00	 1.014125e+01
0	 7.185185e+00	 2.222222e+00	 1.012071e+01
0	 7.185185e+00	 2.296296e+00	 1.012310e+01
0	 7.185185e+00	 2.370370e+00	 1.012539e+01
0	 7.185185e+00	 2.444444e+00	 1.012759e+01
0	 7.185185e+00	 2.518519e+00	 1.012971e+01
0	 7.185185e+00	 2.592593e+00	 1.013177e+01
0	 7.259259e+00	 2.222222e+00	 1.011131e+01
0	 7.259259e+00	 2.296296e+00	 1.011368e+01
0	 7.259259e+00	 2.370370e+00	 1.011597e+01
0	 7.259259e+00	 2.444444e+00	 1.011817e+01
0	 7.259259e+00	 2.518519e+00	 1.012030e+01
0	 7.259259e+00	 2.592593e+00	 1.012237e+01
0	 7.333333e+00	 2.222222e+00	 1.010198e+01
0	 7.333333e+00	 2.296296e+00	 1.010434e+01
0	 7.333333e+00	 2.370370e+00	 1.010663e+01
0	 7.333333e+00	 2.444444e+00	 1.010883e+01
0	 7.333333e+00	 2.518519e+00	 1.011097e+01
0	 7.333333e+00	 2.592593e+00	 1.011305e+01
0	 7.407407e+00	 2.222222e+00	 1.009271e+01
0	 7.407407e+00	 2.296296e+00	 1.009507e+01
0	 7.407407e+00	 2.370370e+00	 1.009735e+01
0	 7.407407e+00	 2.444444e+00	 1.009956e+01
0	 7.407407e+00	 2.518519e+00	 1.010171e+01
0	 7.407407e+00	 2.592593e+00	 1.010381e+01
0	 7.037037e+00	 2.592593e+00	 1.015084e+01
0	 7.037037e+00	 2.666667e+00	 1.015276e+01
0	 7.037037e+00	 2.740741e+00	 1.015454e+01
0	 7.037037e+00	 2.814815e+00	 1.015619e+01
0	 7.037037e+00	 2.888889e+00	 1.015771e+01
0	 7.037037e+00	 2.962963e+00	 1.015912e+01
0	 7.111111e+00	 2.592593e+00	 1.014125e+01
0	 7.111111e+00	 2.666667e+00	 1.014319e+01
0	 7.111111e+00	 2.740741e+00	 1.014500e+01
0	 7.111111e+00	 2.814815e+00	 1.014668e+01
0	 7.111111e+00	 2.888889e+00	 1.014824e+01
0	 7.111111e+00	 2.962963e+00	 1.014970e+01
0	 7.185185e+00	 2.592593e+00	 1.013177e+01
0	 7.185185e+00	 2.666667e+00	 1.013372e+01
0	 7.185185e+00	 2.740741e+00	 1.013555e+01
0	 7.185185e+00	 2.814815e+00	 1.013727e+01
0	 7.185185e+00	 2.888889e+00	 1.013888e+01
0	 7.185185e+00	 2.962963e+00	 1.014038e+01
0	 7.259259e+00	 2.592593e+00	 1.012237e+01
0	 7.259259e+00	 2.666667e+00	 1.012434e+01
0	 7.259259e+00	 2.740741e+00	 1.012621e+01
0	 7.259259e+00	 2.814815e+00	 1.012796e+01
0	 7.259259e+00	 2.888889e+00	 1.012960e+01
0	 7.259259e+00	 2.962963e+00	 1.013115e+01
0	 7.333333e+00	 2.592593e+00	 1.011305e+01
0	 7.333333e+00	 2.666667e+00	 1.011505e+01
0	 7.333333e+00	 2.740741e+00	 1.011694e+01
0	 7.333333e+00	 2.814815e+00	 1.011872e+01
0	 7.333333e+00	 2.888889e+00	 1.012041e+01
0	 7.333333e+00	 2.962963e+00	 1.012201e+01
0	 7.407407e+00	 2.592593e+00	 1.010381e+01
0	 7.407407e+00	 2.666667e+00	 1.010583e+01
0	 7.407407e+00	 2.740741e+00	 1.010774e+01
0	 7.407407e+00	 2.814815e+00	 1.010956e+01
0	 7.407407e+00	 2.888889e+00	 1.011129e+01
0	 7.407407e+00	 2.962963e+00	 1.011294e+01
0	 7.037037e+00	 2.962963e+00	 1.015912e+01
0	 7.037037e+00	 3.037037e+00	 1.016039e+01
0	 7.037037e+00	 3.111111e+00	 1.016151e+01
0	 7.037037e+00	 3.185185e+00	 1.016248e+01
0	 7.037037e+00	 3.259259e+00	 1.016331e+01
0	 7.037037e+00	 3.333333e+00	 1.016401e+01
0	 7.111111e+00	 2.962963e+00	 1.014970e+01
0	 7.111111e+00	 3.037037e+00	 1.015102e+01
0	 7.111111e+00	 3.111111e+00	 1.015221e+01
0	 7.111111e+00	 3.185185e+00	 1.015325e+01
0	 7.111111e+00	 3.259259e+00	 1.015416e+01
0	 7.111111e+00	 3.333333e+00	 1.015494e+01
0	 7.185185e+00	 2.962963e+00	 1.014038e+01
0	 7.185185e+00	 3.037037e+00	 1.014176e+01
0	 7.185185e+00	 3.111111e+00	 1.014301e+01
0	 7.185185e+00	 3.185185e+00	 1.014412e+01
0	 7.185185e+00	 3.259259e+00	 1.014511e+01
0	 7.185185e+00	 3.333333e+00	 1.014597e+01
0	 7.259259e+00	 2.962963e+00	 1.013115e+01
0	 7.259259e+00	 3.037037e+00	 1.013259e+01
0	 7.259259e+00	 3.111111e+00	 1.013390e+01
0	 7.259259e+00	 3.185185e+00	 1.013508e+01
0	 7.259259e+00	 3.259259e+00	 1.013614e+01
0	 7.259259e+00	 3.333333e+00	 1.013708e+01
0	 7.333333e+00	 2.962963e+00	 1.012201e+01
0	 7.333333e+00	 3.037037e+00	 1.012350e+01
0	 7.333333e+00	 3.111111e+00	 1.012487e+01
0	 7.333333e+00	 3.185185e+00	 1.012611e+01
0	 7.333333e+00	 3.259259e+00	 1.012725e+01
0	 7.333333e+00	 3.333333e+00	 1.012826e+01
0	 7.407407e+00	 2.962963e+00	 1.011294e+01
0	 7.407407e+00	 3.037037e+00	 1.011448e+01
0	 7.407407e+00	 3.111111e+00	 1.011591e+01
0	 7.407407e+00	 3.185185e+00	 1.011722e+01
0	 7.407407e+00	 3.259259e+00	 1.011843e+01
0	 7.407407e+00	 3.333333e+00	 1.011953e+01
0	 7.037037e+00	 3.333333e+00	 1.016401e+01
0	 7.037037e+00	 3.407407e+00	 1.016456e+01
0	 7.037037e+00	 3.481481e+00	 1.016496e+01
0	 7.037037e+00	 3.555556e+00	 1.016522e+01
0	 7.037037e+00	 3.629630e+00	 1.016533e+01
0	 7.037037e+00	 3.703704e+00	 1.016529e+01
0	 7.111111e+00	 3.333333e+00	 1.015494e+01
0	 7.111111e+00	 3.407407e+00	 1.015558e+01
0	 7.111111e+00	 3.481481e+00	 1.015608e+01
0	 7.111111e+00	 3.555556e+00	 1.015644e+01
0	 7.111111e+00	 3.629630e+00	 1.015666e+01
0	 7.111111e+00	 3.703704e+00	 1.015674e+01
0	 7.185185e+00	 3.333333e+00	 1.014597e+01
0	 7.185185e+00	 3.407407e+00	 1.014670e+01
0	 7.185185e+00	 3.481481e+00	 1.014729e+01
0	 7.185185e+00	 3.555556e+00	 1.014775e+01
0	 7.185185e+00	 3.629630e+00	 1.014807e+01
0	 7.185185e+00	 3.703704e+00	 1.014827e+01
0	 7.259259e+00	 3.333333e+00	 1.013708e+01
0	 7.259259e+00	 3.407407e+00	 1.013789e+01
0	 7.259259e+00	 3.481481e+00	 1.013858e+01
0	 7.259259e+00	 3.555556e+00	 1.013913e+01
0	 7.259259e+00	 3.629630e+00	 1.013956e+01
0	 7.259259e+00	 3.703704e+00	 1.013986e+01
0	 7.333333e+00	 3.333333e+00	 1.012826e+01
0	 7.333333e+00	 3.407407e+00	 1.012917e+01
0	 7.333333e+00	 3.481481e+00	 1.012994e+01
0	 7.333333e+00	 3.555556e+00	 1.013059e+01
0	 7.333333e+00	 3.629630e+00	 1.013112e+01
0	 7.333333e+00	 3.703704e+00	 1.013153e+01
0	 7.407407e+00	 3.333333e+00	 1.011953e+01
0	 7.407407e+00	 3.407407e+00	 1.012051e+01
0	 7.407407e+00	 3.481481e+00	 1.012138e+01
0	 7.407407e+00	 3.555556e+00	 1.012212e+01
0	 7.407407e+00	 3.629630e+00	 1.012275e+01
0	 7.407407e+00	 3.703704e+00	 1.012326e+01
0	 7.037037e+00	 3.703704e+00	 1.016529e+01
0	 7.037037e+00	 3.777778e+00	 1.016512e+01
0	 7.037037e+00	 3.851852e+00	 1.016481e+01
0	 7.037037e+00	 3.925926e+00	 1.016436e+01
0	 7.037037e+00	 4.000000e+00	 1.016378e+01
0	 7.037037e+00	 4.074074e+00	 1.016305e+01
0	 7.111111e+00	 3.703704e+00	 1.015674e+01
0	 7.111111e+00	 3.777778e+00	 1.015669e+01
0	 7.111111e+00	 3.851852e+00	 1.015650e+01
0	 7.111111e+00	 3.925926e+00	 1.015618e+01
0	 7.111111e+00	 4.000000e+00	 1.015573e+01
0	 7.111111e+00	 4.074074e+00	 1.015515e+01
0	 7.185185e+00	 3.703704e+00	 1.014827e+01
0	 7.185185e+00	 3.777778e+00	 1.014833e+01
0	 7.185185e+00	 3.851852e+00	 1.014826e+01
0	 7.185185e+00	 3.925926e+00	 1.014807e+01
0	 7.185185e+00	 4.000000e+00	 1.014775e+01
0	 7.185185e+00	 4.074074e+00	 1.014729e+01
0	 7.259259e+00	 3.703704e+00	 1.013986e+01
0	 7.259259e+00	 3.777778e+00	 1.014004e+01
0	 7.259259e+00	 3.851852e+00	 1.014009e+01
0	 7.259259e+00	 3.925926e+00	 1.014002e+01
0	 7.259259e+00	 4.000000e+00	 1.013982e+01
0	 7.259259e+00	 4.074074e+00	 1.013950e+01
0	 7.333333e+00	 3.703704e+00	 1.013153e+01
0	 7.333333e+00	 3.777778e+00	 1.013181e+01
0	 7.333333e+00	 3.851852e+00	 1.013198e+01
0	 7.333333e+00	 3.925926e+00	 1.013203e+01
0	 7.333333e+00	 4.000000e+00	 1.013195e+01
0	 7.333333e+00	 4.074074e+00	 1.013176e+01
0	 7.407407e+00	 3.703704e+00	 1.012326e+01
0	 7.407407e+00	 3.777778e+00	 1.012366e+01
0	 7.407407e+00	 3.851852e+00	 1.012394e+01
0	 7.407407e+00	 3.925926e+00	 1.012410e+01
0	 7.407407e+00	 4.000000e+00	 1.012415e+01
0	 7.407407e+00	 4.074074e+00	 1.012408e+01
0	 7.037037e+00	 4.074074e+00	 1.016305e+01
0	 7.037037e+00	 4.148148e+00	 1.016220e+01
0	 7.037037e+00	 4.222222e+00	 1.016124e+01
0	 7.037037e+00	 4.296296e+00	 1.016015e+01
0	 7.037037e+00	 4.370370e+00	 1.015894e+01
0	 7.037037e+00	 4.444444e+00	 1.015761e+01
0	 7.111111e+00	 4.074074e+00	 1.015515e+01
0	 7.111111e+00	 4.148148e+00	 1.015444e+01
0	 7.111111e+00	 4.222222e+00	 1.015361e+01
0	 7.111111e+00	 4.296296e+00	 1.015267e+01
0	 7.111111e+00	 4.370370e+00	 1.015161e+01
0	 7.111111e+00	 4.444444e+00	 1.015043e+01
0	 7.185185e+00	 4.074074e+00	 1.014729e+01
0	 7.185185e+00	 4.148148e+00	 1.014672e+01
0	 7.185185e+00	 4.222222e+00	 1.014604e+01
0	 7.185185e+00	 4.296296e+00	 1.014524e+01
0	 7.185185e+00	 4.370370e+00	 1.014432e+01
0	 7.185185e+00	 4.444444e+00	 1.014329e+01
0	 7.259259e+00	 4.074074e+00	 1.013950e+01
0	 7.259259e+00	 4.148148e+00	 1.013906e+01
0	 7.259259e+00	 4.222222e+00	 1.013851e+01
0	 7.259259e+00	 4.296296e+00	 1.013785e+01
0	 7.259259e+00	 4.370370e+00	 1.013708e+01
0	 7.259259e+00	 4.444444e+00	 1.013619e+01
0	 7.333333e+00	 4.074074e+00	 1.013176e+01
0	 7.333333e+00	 4.148148e+00	 1.013145e+01
0	 7.333333e+00	 4.222222e+00	 1.013103e+01
0	 7.333333e+00	 4.296296e+00	 1.013051e+01
0	 7.333333e+00	 4.370370e+00	 1.012987e+01
0	 7.333333e+00	 4.444444e+00	 1.012912e+01
0	 7.407407e+00	 4.074074e+00	 1.012408e+01
0	 7.407407e+00	 4.148148e+00	 1.012390e+01
0	 7.407407e+00	 4.222222e+00	 1.012361e+01
0	 7.407407e+00	 4.296296e+00	 1.012322e+01
0	 7.407407e+00	 4.370370e+00	 1.012272e+01
0	 7.407407e+00	 4.444444e+00	 1.012211e+01
0	 7.037037e+00	 4.444444e+00	 1.015761e+01
0	 7.037037e+00	 4.518519e+00	 1.015616e+01
0	 7.037037e+00	 4.592593e+00	 1.015463e+01
0	 7.037037e+00	 4.666667e+00	 1.015299e+01
0	 7.037037e+00	 4.740741e+00	 1.015125e+01
0	 7.037037e+00	 4.814815e+00	 1.014941e+01
0	 7.111111e+00	 4.444444e+00	 1.015043e+01
0	 7.111111e+00	 4.518519e+00	 1.014914e+01
0	 7.111111e+00	 4.592593e+00	 1.014776e+01
0	 7.111111e+00	 4.666667e+00	 1.014628e+01
0	 7.111111e+00	 4.740741e+00	 1.014470e+01
0	 7.111111e+00	 4.814815e+00	 1.014301e+01
0	 7.185185e+00	 4.444444e+00	 1.014329e+01
0	 7.185185e+00	 4.518519e+00	 1.014215e+01
0	 7.185185e+00	 4.592593e+00	 1.014092e+01
0	 7.185185e+00	 4.666667e+00	 1.013959e+01
0	 7.185185e+00	 4.740741e+00	 1.013816e+01
0	 7.185185e+00	 4.814815e+00	 1.013663e+01
0	 7.259259e+00	 4.444444e+00	 1.013619e+01
0	 7.259259e+00	 4.518519e+00	 1.013519e+01
0	 7.259259e+00	 4.592593e+00	 1.013411e+01
0	 7.259259e+00	 4.666667e+00	 1.013293e+01
0	 7.259259e+00	 4.740741e+00	 1.013165e+01
0	 7.259259e+00	 4.814815e+00	 1.013027e+01
0	 7.333333e+00	 4.444444e+00	 1.012912e+01
0	 7.333333e+00	 4.518519e+00	 1.012827e+01
0	 7.333333e+00	 4.592593e+00	 1.012733e+01
0	 7.333333e+00	 4.666667e+00	 1.012630e+01
0	 7.333333e+00	 4.740741e+00	 1.012517e+01
0	 7.333333e+00	 4.814815e+00	 1.012394e+01
0	 7.407407e+00	 4.444444e+00	 1.012211e+01
0	 7.407407e+00	 4.518519e+00	 1.012140e+01
0	 7.407407e+00	 4.592593e+00	 1.012060e+01
0	 7.407407e+00	 4.666667e+00	 1.011971e+01
0	 7.407407e+00	 4.740741e+00	 1.011872e+01
0	 7.407407e+00	 4.814815e+00	 1.011764e+01
0	 7.037037e+00	 4.814815e+00	 1.014941e+01
0	 7.037037e+00	 4.888889e+00	 1.014748e+01
0	 7.037037e+00	 4.962963e+00	 1.014548e+01
0	 7.037037e+00	 5.037037e+00	 1.014340e+01
0	 7.037037e+00	 5.111111e+00	 1.014124e+01
0	 7.037037e+00	 5.185185e+00	 1.013900e+01
0	 7.111111e+00	 4.814815e+00	 1.014301e+01
0	 7.111111e+00	 4.888889e+00	 1.014124e+01
0	 7.111111e+00	 4.962963e+00	 1.013940e+01
0	 7.111111e+00	 5.037037e+00	 1.013748e+01
0	 7.111111e+00	 5.111111e+00	 1.013548e+01
0	 7.111111e+00	 5.185185e+00	 1.013339e+01
0	 7.185185e+00	 4.814815e+00	 1.013663e+01
0	 7.185185e+00	 4.888889e+00	 1.013501e+01
0	 7.185185e+00	 4.962963e+00	 1.013332e+01
0	 7.185185e+00	 5.037037e+00	 1.013156e+01
0	 7.185185e+00	 5.111111e+00	 1.012971e+01
0	 7.185185e+00	 5.185185e+00	 1.012778e+01
0	 7.259259e+00	 4.814815e+00	 1.013027e+01
0	 7.259259e+00	 4.888889e+00	 1.012880e+01
0	 7.259259e+00	 4.962963e+00	 1.012727e+01
0	 7.259259e+00	 5.037037e+00	 1.012565e+01
0	 7.259259e+00	 5.111111e+00	 1.012396e+01
0	 7.259259e+00	 5.185185e+00	 1.012218e+01
0	 7.333333e+00	 4.814815e+00	 1.012394e+01
0	 7.333333e+00	 4.888889e+00	 1.012262e+01
0	 7.333333e+00	 4.962963e+00	 1.012123e+01
0	 7.333333e+00	 5.037037e+00	 1.011977e+01
0	 7.333333e+00	 5.111111e+00	 1.011822e+01
0	 7.333333e+00	 5.185185e+00	 1.011660e+01
0	 7.407407e+00	 4.814815e+00	 1.011764e+01
0	 7.407407e+00	 4.888889e+00	 1.011647e+01
0	 7.407407e+00	 4.962963e+00	 1.011523e+01
0	 7.407407e+00	 5.037037e+00	 1.011391e+01
0	 7.407407e+00	 5.111111e+00	 1.011251e+01
0	 7.407407e+00	 5.185185e+00	 1.011103e+01
0	 7.037037e+00	 5.185185e+00	 1.013900e+01
0	 7.037037e+00	 5.259259e+00	 1.013669e+01
0	 7.037037e+00	 5.333333e+00	 1.013434e+01
0	 7.037037e+00	 5.407407e+00	 1.013192e+01
0	 7.037037e+00	 5.481481e+00	 1.012946e+01
0	 7.037037e+00	 5.555556e+00	 1.012692e+01
0	 7.111111e+00	 5.185185e+00	 1.013339e+01
0	 7.111111e+00	 5.259259e+00	 1.013124e+01
0	 7.111111e+00	 5.333333e+00	 1.012904e+01
0	 7.111111e+00	 5.407407e+00	 1.012678e+01
0	 7.111111e+00	 5.481481e+00	 1.012447e+01
0	 7.111111e+00	 5.555556e+00	 1.012209e+01
0	 7.185185e+00	 5.185185e+00	 1.012778e+01
0	 7.185185e+00	 5.259259e+00	 1.012579e+01
0	 7.185185e+00	 5.333333e+00	 1.012374e+01
0	 7.185185e+00	 5.407407e+00	 1.012163e+01
0	 7.185185e+00	 5.481481e+00	 1.011947e+01
0	 7.185185e+00	 5.555556e+00	 1.011724e+01
0	 7.259259e+00	 5.185185e+00	 1.012218e+01
0	 7.259259e+00	 5.259259e+00	 1.012034e+01
0	 7.259259e+00	 5.333333e+00	 1.011844e+01
0	 7.259259e+00	 5.407407e+00	 1.011648e+01
0	 7.259259e+00	 5.481481e+00	 1.011447e+01
0	 7.259259e+00	 5.555556e+00	 1.011239e+01
0	 7.333333e+00	 5.185185e+00	 1.011660e+01
0	 7.333333e+00	 5.259259e+00	 1.011490e+01
0	 7.333333e+00	 5.333333e+00	 1.011315e+01
0	 7.333333e+00	 5.407407e+00	 1.011134e+01
0	 7.333333e+00	 5.481481e+00	 1.010947e+01
0	 7.333333e+00	 5.555556e+00	 1.010754e+01
0	 7.407407e+00	 5.185185e+00	 1.011103e+01
0	 7.407407e+00	 5.259259e+00	 1.010949e+01
0	 7.407407e+00	 5.333333e+00	 1.010788e+01
0	 7.407407e+00	 5.407407e+00	 1.010622e+01
0	 7.407407e+00	 5.481481e+00	 1.010449e+01
0	 7.407407e+00	 5.555556e+00	 1.010270e+01
0	 7.037037e+00	 5.555556e+00	 1.012692e+01
0	 7.037037e+00	 5.629630e+00	 1.012435e+01
0	 7.037037e+00	 5.703704e+00	 1.012174e+01
0	 7.037037e+00	 5.777778e+00	 1.011910e+01
0	 7.037037e+00	 5.851852e+00	 1.011642e+01
0	 7.037037e+00	 5.925926e+00	 1.011370e+01
0	 7.111111e+00	 5.555556e+00	 1.012209e+01
0	 7.111111e+00	 5.629630e+00	 1.011966e+01
0	 7.111111e+00	 5.703704e+00	 1.011720e+01
0	 7.111111e+00	 5.777778e+00	 1.011471e+01
0	 7.111111e+00	 5.851852e+00	 1.011218e+01
0	 7.111111e+00	 5.925926e+00	 1.010960e+01
0	 7.185185e+00	 5.555556e+00	 1.011724e+01
0	 7.185185e+00	 5.629630e+00	 1.011496e+01
0	 7.185185e+00	 5.703704e+00	 1.011265e+01
0	 7.185185e+00	 5.777778e+00	 1.011030e+01
0	 7.185185e+00	 5.851852e+00	 1.010791e+01
0	 7.185185e+00	 5.925926e+00	 1.010548e+01
0	 7.259259e+00	 5.555556e+00	 1.011239e+01
0	 7.259259e+00	 5.629630e+00	 1.011026e+01
0	 7.259259e+00	 5.703704e+00	 1.010809e+01
0	 7.259259e+00	 5.777778e+00	 1.010588e+01
0	 7.259259e+00	 5.851852e+00	 1.010363e+01
0	 7.259259e+00	 5.925926e+00	 1.010134e+01
0	 7.333333e+00	 5.555556e+00	 1.010754e+01
0	 7.333333e+00	 5.629630e+00	 1.010555e+01
0	 7.333333e+00	 5.703704e+00	 1.010353e+01
0	 7.333333e+00	 5.777778e+00	 1.010146e+01
0	 7.333333e+00	 5.851852e+00	 1.009936e+01
0	 7.333333e+00	 5.925926e+00	 1.009720e+01
0	 7.407407e+00	 5.555556e+00	 1.010270e+01
0	 7.407407e+00	 5.629630e+00	 1.010086e+01
0	 7.407407e+00	 5.703704e+00	 1.009898e+01
0	 7.407407e+00	 5.777778e+00	 1.009705e+01
0	 7.407407e+00	 5.851852e+00	 1.009508e+01
0	 7.407407e+00	 5.925926e+00	 1.009307e+01
0	 7.037037e+00	 5.925926e+00	 1.011370e+01
0	 7.037037e+00	 6.000000e+00	 1.011096e+01
0	 7.037037e+00	 6.074074e+00	 1.010820e+01
0	 7.037037e+00	 6.148148e+00	 1.010542e+01
0	 7.037037e+00	 6.222222e+00	 1.010263e+01
0	 7.037037e+00	 6.296296e+00	 1.009981e+01
0	 7.111111e+00	 5.925926e+00	 1.010960e+01
0	 7.111111e+00	 6.000000e+00	 1.010699e+01
0	 7.111111e+00	 6.074074e+00	 1.010437e+01
0	 7.111111e+00	 6.148148e+00	 1.010173e+01
0	 7.111111e+00	 6.222222e+00	 1.009907e+01
0	 7.111111e+00	 6.296296e+00	 1.009639e+01
0	 7.185185e+00	 5.925926e+00	 1.010548e+01
0	 7.185185e+00	 6.000000e+00	 1.010301e+01
0	 7.185185e+00	 6.074074e+00	 1.010053e+01
0	 7.185185e+00	 6.148148e+00	 1.009802e+01
0	 7.185185e+00	 6.222222e+00	 1.009549e+01
0	 7.185185e+00	 6.296296e+00	 1.009294e+01
0	 7.259259e+00	 5.925926e+00	 1.010134e+01
0	 7.259259e+00	 6.000000e+00	 1.009901e+01
0	 7.259259e+00	 6.074074e+00	 1.009666e+01
0	 7.259259e+00	 6.148148e+00	 1.009429e+01
0	 7.259259e+00	 6.222222e+00	 1.009190e+01
0	 7.259259e+00	 6.296296e+00	 1.008947e+01
0	 7.333333e+00	 5.925926e+00	 1.009720e+01
0	 7.333333e+00	 6.000000e+00	 1.009501e+01
0	 7.333333e+00	 6.074074e+00	 1.009280e+01
0	 7.333333e+00	 6.148148e+00	 1.009056e+01
0	 7.333333e+00	 6.222222e+00	 1.008829e+01
0	 7.333333e+00	 6.296296e+00	 1.008600e+01
0	 7.407407e+00	 5.925926e+00	 1.009307e+01
0	 7.407407e+00	 6.000000e+00	 1.009101e+01
0	 7.407407e+00	 6.074074e+00	 1.008893e+01
0	 7.407407e+00	 6.148148e+00	 1.008683e+01
0	 7.407407e+00	 6.222222e+00	 1.008469e+01
0	 7.407407e+00	 6.296296e+00	 1.008252e+01
0	 7.037037e+00	 6.296296e+00	 1.009981e+01
0	 7.037037e+00	 6.370370e+00	 1.009698e+01
0	 7.037037e+00	 6.444444e+00	 1.009416e+01
0	 7.037037e+00	 6.518519e+00	 1.009133e+01
0	 7.037037e+00	 6.592593e+00	 1.008850e+01
0	 7.037037e+00	 6.666667e+00	 1.008566e+01
0	 7.111111e+00	 6.296296e+00	 1.009639e+01
0	 7.111111e+00	 6.370370e+00	 1.009369e+01
0	 7.111111e+00	 6.444444e+00	 1.009099e+01
0	 7.111111e+00	 6.518519e+00	 1.008828e+01
0	 7.111111e+00	 6.592593e+00	 1.008557e+01
0	 7.111111e+00	 6.666667e+00	 1.008285e+01
0	 7.185185e+00	 6.296296e+00	 1.009294e+01
0	 7.185185e+00	 6.370370e+00	 1.009037e+01
0	 7.185185e+00	 6.444444e+00	 1.008779e+01
0	 7.185185e+00	 6.518519e+00	 1.008521e+01
0	 7.185185e+00	 6.592593e+00	 1.008262e+01
0	 7.185185e+00	 6.666667e+00	 1.008002e+01
0	 7.259259e+00	 6.296296e+00	 1.008947e+01
0	 7.259259e+00	 6.370370e+00	 1.008703e+01
0	 7.259259e+00	 6.444444e+00	 1.008458e+01
0	 7.259259e+00	 6.518519e+00	 1.008212e+01
0	 7.259259e+00	 6.592593e+00	 1.007965e+01
0	 7.259259e+00	 6.666667e+00	 1.007717e+01
0	 7.333333e+00	 6.296296e+00	 1.008600e+01
0	 7.333333e+00	 6.370370e+00	 1.008368e+01
0	 7.333333e+00	 6.444444e+00	 1.008135e+01
0	 7.333333e+00	 6.518519e+00	 1.007902e+01
0	 7.333333e+00	 6.592593e+00	 1.007667e+01
0	 7.333333e+00	 6.666667e+00	 1.007431e+01
0	 7.407407e+00	 6.296296e+00	 1.008252e+01
0	 7.407407e+00	 6.370370e+00	 1.008033e+01
0	 7.407407e+00	 6.444444e+00	 1.007813e+01
0	 7.407407e+00	 6.518519e+00	 1.007592e+01
0	 7.407407e+00	 6.592593e+00	 1.007369e+01
0	 7.407407e+00	 6.666667e+00	 1.007144e+01
0	 7.037037e+00	 6.666667e+00	 1.008566e+01
0	 7.037037e+00	 6.740741e+00	 1.008282e+01
0	 7.037037e+00	 6.814815e+00	 1.008001e+01
0	 7.037037e+00	 6.888889e+00	 1.007720e+01
0	 7.037037e+00	 6.962963e+00	 1.007440e+01
0	 7.037037e+00	 7.037037e+00	 1.007161e+01
0	 7.111111e+00	 6.666667e+00	 1.008285e+01
0	 7.111111e+00	 6.740741e+00	 1.008014e+01
0	 7.111111e+00	 6.814815e+00	 1.007743e+01
0	 7.111111e+00	 6.888889e+00	 1.007473e+01
0	 7.111111e+00	 6.962963e+00	 1.007204e+01
0	 7.111111e+00	 7.037037e+00	 1.006936e+01
0	 7.185185e+00	 6.666667e+00	 1.008002e+01
0	 7.185185e+00	 6.740741e+00	 1.007742e+01
0	 7.185185e+00	 6.814815e+00	 1.007483e+01
0	 7.185185e+00	 6.888889e+00	 1.007224e+01
0	 7.185185e+00	 6.962963e+00	 1.006966e+01
0	 7.185185e+00	 7.037037e+00	 1.006708e+01
0	 7.259259e+00	 6.666667e+00	 1.007717e+01
0	 7.259259e+00	 6.740741e+00	 1.007468e+01
0	 7.259259e+00	 6.814815e+00	 1.007220e+01
0	 7.259259e+00	 6.888889e+00	 1.006973e+01
0	 7.259259e+00	 6.962963e+00	 1.006726e+01
0	 7.259259e+00	 7.037037e+00	 1.006478e+01
0	 7.333333e+00	 6.666667e+00	 1.007431e+01
0	 7.333333e+00	 6.740741e+00	 1.007194e+01
0	 7.333333e+00	 6.814815e+00	 1.006957e+01
0	 7.333333e+00	 6.888889e+00	 1.006721e+01
0	 7.333333e+00	 6.962963e+00	 1.006484e+01
0	 7.333333e+00	 7.037037e+00	 1.006247e+01
0	 7.407407e+00	 6.666667e+00	 1.007144e+01
0	 7.407407e+00	 6.740741e+00	 1.006918e+01
0	 7.407407e+00	 6.814815e+00	 1.006693e+01
0	 7.407407e+00	 6.888889e+00	 1.006468e+01
0	 7.407407e+00	 6.962963e+00	 1.006242e+01
0	 7.407407e+00	 7.037037e+00	 1.006016e+01
0	 7.037037e+00	 7.037037e+00	 1.007161e+01
0	 7.037037e+00	 7.111111e+00	 1.006883e+01
0	 7.037037e+00	 7.185185e+00	 1.006608e+01
0	 7.037037e+00	 7.259259e+00	 1.006336e+01
0	 7.037037e+00	 7.333333e+00	 1.006066e+01
0	 7.037037e+00	 7.407407e+00	 1.005797e+01
0	 7.111111e+00	 7.037037e+00	 1.006936e+01
0	 7.111111e+00	 7.111111e+00	 1.006669e+01
0	 7.111111e+00	 7.185185e+00	 1.006404e+01
0	 7.111111e+00	 7.259259e+00	 1.006141e+01
0	 7.111111e+00	 7.333333e+00	 1.005881e+01
0	 7.111111e+00	 7.407407e+00	 1.005621e+01
0	 7.185185e+00	 7.037037e+00	 1.006708e+01
0	 7.185185e+00	 7.111111e+00	 1.006451e+01
0	 7.185185e+00	 7.185185e+00	 1.006197e+01
0	 7.185185e+00	 7.259259e+00	 1.005944e+01
0	 7.185185e+00	 7.333333e+00	 1.005693e+01
0	 7.185185e+00	 7.407407e+00	 1.005443e+01
0	 7.259259e+00	 7.037037e+00	 1.006478e+01
0	 7.259259e+00	 7.111111e+00	 1.006232e+01
0	 7.259259e+00	 7.185185e+00	 1.005987e+01
0	 7.259259e+00	 7.259259e+00	 1.005745e+01
0	 7.259259e+00	 7.333333e+00	 1.005503e+01
0	 7.259259e+00	 7.407407e+00	 1.005263e+01
0	 7.333333e+00	 7.037037e+00	 1.006247e+01
0	 7.333333e+00	 7.111111e+00	 1.006011e+01
0	 7.333333e+00	 7.185185e+00	 1.005777e+01
0	 7.333333e+00	 7.259259e+00	 1.005544e+01
0	 7.333333e+00	 7.333333e+00	 1.005312e+01
0	 7.333333e+00	 7.407407e+00	 1.005082e+01
0	 7.407407e+00	 7.037037e+00	 1.006016e+01
0	 7.407407e+00	 7.111111e+00	 1.005790e+01
0	 7.407407e+00	 7.185185e+00	 1.005566e+01
0	 7.407407e+00	 7.259259e+00	 1.005343e+01
0	 7.407407e+00	 7.333333e+00	 1.005121e+01
0	 7.407407e+00	 7.407407e+00	 1.004900e+01
0	 7.037037e+00	 7.407407e+00	 1.005797e+01
0	 7.037037e+00	 7.481481e+00	 1.005532e+01
0	 7.037037e+00	 7.555556e+00	 1.005270e+01
0	 7.037037e+00	 7.629630e+00	 1.005011e+01
0	 7.037037e+00	 7.703704e+00	 1.004756e+01
0	 7.037037e+00	 7.777778e+00	 1.004504e+01
0	 7.111111e+00	 7.407407e+00	 1.005621e+01
0	 7.111111e+00	 7.481481e+00	 1.005365e+01
0	 7.111111e+00	 7.555556e+00	 1.005112e+01
0	 7.111111e+00	 7.629630e+00	 1.004862e+01
0	 7.111111e+00	 7.703704e+00	 1.004615e+01
0	 7.111111e+00	 7.777778e+00	 1.004371e+01
0	 7.185185e+00	 7.407407e+00	 1.005443e+01
0	 7.185185e+00	 7.481481e+00	 1.005196e+01
0	 7.185185e+00	 7.555556e+00	 1.004951e+01
0	 7.185185e+00	 7.629630e+00	 1.004710e+01
0	 7.185185e+00	 7.703704e+00	 1.004472e+01
0	 7.185185e+00	 7.777778e+00	 1.004236e+01
0	 7.259259e+00	 7.407407e+00	 1.005263e+01
0	 7.259259e+00	 7.481481e+00	 1.005025e+01
0	 7.259259e+00	 7.555556e+00	 1.004789e+01
0	 7.259259e+00	 7.629630e+00	 1.004557e+01
0	 7.259259e+00	 7.703704e+00	 1.004327e+01
0	 7.259259e+00	 7.777778e+00	 1.004100e+01
0	 7.333333e+00	 7.407407e+00	 1.005082e+01
0	 7.333333e+00	 7.481481e+00	 1.004852e+01
0	 7.333333e+00	 7.555556e+00	 1.004626e+01
0	 7.333333e+00	 7.629630e+00	 1.004403e+01
0	 7.333333e+00	 7.703704e+00	 1.004182e+01
0	 7.333333e+00	 7.777778e+00	 1.003962e+01
0	 7.407407e+00	 7.407407e+00	 1.004900e+01
0	 7.407407e+00	 7.481481e+00	 1.004680e+01
0	 7.407407e+00	 7.555556e+00	 1.004463e+01
0	 7.407407e+00	 7.629630e+00	 1.004248e+01
0	 7.407407e+00	 7.703704e+00	 1.004035e+01
0	 7.407407e+00	 7.777778e+00	 1.003824e+01
0	 7.037037e+00	 7.777778e+00	 1.004504e+01
0	 7.037037e+00	 7.851852e+00	 1.004256e+01
0	 7.037037e+00	 7.925926e+00	 1.004012e+01
0	 7.037037e+00	 8.000000e+00	 1.003774e+01
0	 7.037037e+00	 8.074074e+00	 1.003540e+01
0	 7.037037e+00	 8.148148e+00	 1.003309e+01
0	 7.111111e+00	 7.777778e+00	 1.004371e+01
0	 7.111111e+00	 7.851852e+00	 1.004131e+01
0	 7.111111e+00	 7.925926e+00	 1.003895e+01
0	 7.111111e+00	 8.000000e+00	 1.003664e+01
0	 7.111111e+00	 8.074074e+00	 1.003437e+01
0	 7.111111e+00	 8.148148e+00	 1.003214e+01
0	 7.185185e+00	 7.777778e+00	 1.004236e+01
0	 7.185185e+00	 7.851852e+00	 1.004004e+01
0	 7.185185e+00	 7.925926e+00	 1.003776e+01
0	 7.185185e+00	 8.000000e+00	 1.003552e+01
0	 7.185185e+00	 8.074074e+00	 1.003332e+01
0	 7.185185e+00	 8.148148e+00	 1.003116e+01
0	 7.259259e+00	 7.777778e+00	 1.004100e+01
0	 7.259259e+00	 7.851852e+00	 1.003875e+01
0	 7.259259e+00	 7.925926e+00	 1.003655e+01
0	 7.259259e+00	 8.000000e+00	 1.003439e+01
0	 7.259259e+00	 8.074074e+00	 1.003227e+01
0	 7.259259e+00	 8.148148e+00	 1.003018e+01
0	 7.333333e+00	 7.777778e+00	 1.003962e+01
0	 7.333333e+00	 7.851852e+00	 1.003746e+01
0	 7.333333e+00	 7.925926e+00	 1.003534e+01
0	 7.333333e+00	 8.000000e+00	 1.003325e+01
0	 7.333333e+00	 8.074074e+00	 1.003120e+01
0	 7.333333e+00	 8.148148e+00	 1.002919e+01
0	 7.407407e+00	 7.777778e+00	 1.003824e+01
0	 7.407407e+00	 7.851852e+00	 1.003616e+01
0	 7.407407e+00	 7.925926e+00	 1.003412e+01
0	 7.407407e+00	 8.000000e+00	 1.003211e+01
0	 7.407407e+00	 8.074074e+00	 1.003013e+01
0	 7.407407e+00	 8.148148e+00	 1.002819e+01
0	 7.037037e+00	 8.148148e+00	 1.003309e+01
0	 7.037037e+00	 8.222222e+00	 1.003084e+01
0	 7.037037e+00	 8.296296e+00	 1.002865e+01
0	 7.037037e+00	 8.370370e+00	 1.002652e+01
0	 7.037037e+00	 8.444444e+00	 1.002445e+01
0	 7.037037e+00	 8.518519e+00	 1.002243e+01
0	 7.111111e+00	 8.148148e+00	 1.003214e+01
0	 7.111111e+00	 8.222222e+00	 1.002995e+01
0	 7.111111e+00	 8.296296e+00	 1.002783e+01
0	 7.111111e+00	 8.370370e+00	 1.002576e+01
0	 7.111111e+00	 8.444444e+00	 1.002375e+01
0	 7.111111e+00	 8.518519e+00	 1.002178e+01
0	 7.185185e+00	 8.148148e+00	 1.003116e+01
0	 7.185185e+00	 8.222222e+00	 1.002905e+01
0	 7.185185e+00	 8.296296e+00	 1.002699e+01
0	 7.185185e+00	 8.370370e+00	 1.002499e+01
0	 7.185185e+00	 8.444444e+00	 1.002304e+01
0	 7.185185e+00	 8.518519e+00	 1.002113e+01
0	 7.259259e+00	 8.148148e+00	 1.003018e+01
0	 7.259259e+00	 8.222222e+00	 1.002813e+01
0	 7.259259e+00	 8.296296e+00	 1.002614e+01
0	 7.259259e+00	 8.370370e+00	 1.002420e+01
0	 7.259259e+00	 8.444444e+00	 1.002231e+01
0	 7.259259e+00	 8.518519e+00	 1.002047e+01
0	 7.333333e+00	 8.148148e+00	 1.002919e+01
0	 7.333333e+00	 8.222222e+00	 1.002721e+01
0	 7.333333e+00	 8.296296e+00	 1.002529e+01
0	 7.333333e+00	 8.370370e+00	 1.002341e+01
0	 7.333333e+00	 8.444444e+00	 1.002159e+01
0	 7.333333e+00	 8.518519e+00	 1.001980e+01
0	 7.407407e+00	 8.148148e+00	 1.002819e+01
0	 7.407407e+00	 8.222222e+00	 1.002628e+01
0	 7.407407e+00	 8.296296e+00	 1.002443e+01
0	 7.407407e+00	 8.370370e+00	 1.002262e+01
0	 7.407407e+00	 8.444444e+00	 1.002086e+01
0	 7.407407e+00	 8.518519e+00	 1.001914e+01
0	 7.037037e+00	 8.518519e+00	 1.002243e+01
0	 7.037037e+00	 8.592593e+00	 1.002047e+01
0	 7.037037e+00	 8.666667e+00	 1.001859e+01
0	 7.037037e+00	 8.740741e+00	 1.001678e+01
0	 7.037037e+00	 8.814815e+00	 1.001504e+01
0	 7.037037e+00	 8.888889e+00	 1.001337e+01
0	 7.111111e+00	 8.518519e+00	 1.002178e+01
0	 7.111111e+00	 8.592593e+00	 1.001988e+01
0	 7.111111e+00	 8.666667e+00	 1.001806e+01
0	 7.111111e+00	 8.740741e+00	 1.001630e+01
0	 7.111111e+00	 8.814815e+00	 1.001461e+01
0	 7.111111e+00	 8.888889e+00	 1.001299e+01
0	 7.185185e+00	 8.518519e+00	 1.002113e+01
0	 7.185185e+00	 8.592593e+00	 1.001929e+01
0	 7.185185e+00	 8.666667e+00	 1.001752e+01
0	 7.185185e+00	 8.740741e+00	 1.001581e+01
0	 7.185185e+00	 8.814815e+00	 1.001418e+01
0	 7.185185e+00	 8.888889e+00	 1.001260e+01
0	 7.259259e+00	 8.518519e+00	 1.002047e+01
0	 7.259259e+00	 8.592593e+00	 1.001868e+01
0	 7.259259e+00	 8.666667e+00	 1.001697e+01
0	 7.259259e+00	 8.740741e+00	 1.001532e+01
0	 7.259259e+00	 8.814815e+00	 1.001373e+01
0	 7.259259e+00	 8.888889e+00	 1.001220e+01
0	 7.333333e+00	 8.518519e+00	 1.001980e+01
0	 7.333333e+00	 8.592593e+00	 1.001808e+01
0	 7.333333e+00	 8.666667e+00	 1.001642e+01
0	 7.333333e+00	 8.740741e+00	 1.001482e+01
0	 7.333333e+00	 8.814815e+00	 1.001329e+01
0	 7.333333e+00	 8.888889e+00	 1.001181e+01
0	 7.407407e+00	 8.518519e+00	 1.001914e+01
0	 7.407407e+00	 8.592593e+00	 1.001747e+01
0	 7.407407e+00	 8.666667e+00	 1.001587e+01
0	 7.407407e+00	 8.740741e+00	 1.001432e+01
0	 7.407407e+00	 8.814815e+00	 1.001284e+01
0	 7.407407e+00	 8.888889e+00	 1.001141e+01
0	 7.037037e+00	 8.888889e+00	 1.001337e+01
0	 7.037037e+00	 8.962963e+00	 1.001177e+01
0	 7.037037e+00	 9.037037e+00	 1.001028e+01
0	 7.037037e+00	 9.111111e+00	 1.000887e+01
0	 7.037037e+00	 9.185185e+00	 1.000754e+01
0	 7.037037e+00	 9.259259e+00	 1.000630e+01
0	 7.111111e+00	 8.888889e+00	 1.001299e+01
0	 7.111111e+00	 8.962963e+00	 1.001144e+01
0	 7.111111e+00	 9.037037e+00	 1.000998e+01
0	 7.111111e+00	 9.111111e+00	 1.000861e+01
0	 7.111111e+00	 9.185185e+00	 1.000733e+01
0	 7.111111e+00	 9.259259e+00	 1.000612e+01
0	 7.185185e+00	 8.888889e+00	 1.001260e+01
0	 7.185185e+00	 8.962963e+00	 1.001110e+01
0	 7.185185e+00	 9.037037e+00	 1.000968e+01
0	 7.185185e+00	 9.111111e+00	 1.000835e+01
0	 7.185185e+00	 9.185185e+00	 1.000711e+01
0	 7.185185e+00	 9.259259e+00	 1.000593e+01
0	 7.259259e+00	 8.888889e+00	 1.001220e+01
0	 7.259259e+00	 8.962963e+00	 1.001075e+01
0	 7.259259e+00	 9.037037e+00	 1.000938e+01
0	 7.259259e+00	 9.111111e+00	 1.000809e+01
0	 7.259259e+00	 9.185185e+00	 1.000688e+01
0	 7.259259e+00	 9.259259e+00	 1.000575e+01
0	 7.333333e+00	 8.888889e+00	 1.001181e+01
0	 7.333333e+00	 8.962963e+00	 1.001040e+01
0	 7.333333e+00	 9.037037e+00	 1.000907e+01
0	 7.333333e+00	 9.111111e+00	 1.000783e+01
0	 7.333333e+00	 9.185185e+00	 1.000666e+01
0	 7.333333e+00	 9.259259e+00	 1.000556e+01
0	 7.407407e+00	 8.888889e+00	 1.001141e+01
0	 7.407407e+00	 8.962963e+00	 1.001005e+01
0	 7.407407e+00	 9.037037e+00	 1.000877e+01
0	 7.407407e+00	 9.111111e+00	 1.000757e+01
0	 7.407407e+00	 9.185185e+00	 1.000643e+01
0	 7.407407e+00	 9.259259e+00	 1.000537e+01
0	 7.037037e+00	 9.259259e+00	 1.000630e+01
0	 7.037037e+00	 9.333333e+00	 1.000515e+01
0	 7.037037e+00	 9.407407e+00	 1.000412e+01
0	 7.037037e+00	 9.481481e+00	 1.000320e+01
0	 7.037037e+00	 9.555556e+00	 1.000239e+01
0	 7.037037e+00	 9.629630e+00	 1.000167e+01
0	 7.111111e+00	 9.259259e+00	 1.000612e+01
0	 7.111111e+00	 9.333333e+00	 1.000501e+01
0	 7.111111e+00	 9.407407e+00	 1.000401e+01
0	 7.111111e+00	 9.481481e+00	 1.000311e+01
0	 7.111111e+00	 9.555556e+00	 1.000232e+01
0	 7.111111e+00	 9.629630e+00	 1.000162e+01
0	 7.185185e+00	 9.259259e+00	 1.000593e+01
0	 7.185185e+00	 9.333333e+00	 1.000485e+01
0	 7.185185e+00	 9.407407e+00	 1.000388e+01
0	 7.185185e+00	 9.481481e+00	 1.000302e+01
0	 7.185185e+00	 9.555556e+00	 1.000225e+01
0	 7.185185e+00	 9.629630e+00	 1.000157e+01
0	 7.259259e+00	 9.259259e+00	 1.000575e+01
0	 7.259259e+00	 9.333333e+00	 1.000470e+01
0	 7.259259e+00	 9.407407e+00	 1.000376e+01
0	 7.259259e+00	 9.481481e+00	 1.000292e+01
0	 7.259259e+00	 9.555556e+00	 1.000217e+01
0	 7.259259e+00	 9.629630e+00	 1.000152e+01
0	 7.333333e+00	 9.259259e+00	 1.000556e+01
0	 7.333333e+00	 9.333333e+00	 1.000455e+01
0	 7.333333e+00	 9.407407e+00	 1.000363e+01
0	 7.333333e+00	 9.481481e+00	 1.000282e+01
0	 7.333333e+00	 9.555556e+00	 1.000210e+01
0	 7.333333e+00	 9.629630e+00	 1.000147e+01
0	 7.407407e+00	 9.259259e+00	 1.000537e+01
0	 7.407407e+00	 9.333333e+00	 1.000439e+01
0	 7.407407e+00	 9.407407e+00	 1.000351e+01
0	 7.407407e+00	 9.481481e+00	 1.000273e+01
0	 7.407407e+00	 9.555556e+00	 1.000203e+01
0	 7.407407e+00	 9.629630e+00	 1.000142e+01
0	 7.037037e+00	 9.629630e+00	 1.000167e+01
0	 7.037037e+00	 9.703704e+00	 1.000107e+01
0	 7.037037e+00	 9.777778e+00	 1.000061e+01
0	 7.037037e+00	 9.851852e+00	 1.000028e+01
0	 7.037037e+00	 9.925926e+00	 1.000007e+01
0	 7.037037e+00	 1.000000e+01	 9.999987e+00
0	 7.111111e+00	 9.629630e+00	 1.000162e+01
0	 7.111111e+00	 9.703704e+00	 1.000104e+01
0	 7.111111e+00	 9.777778e+00	 1.000060e+01
0	 7.111111e+00	 9.851852e+00	 1.000027e+01
0	 7.111111e+00	 9.925926e+00	 1.000007e+01
0	 7.111111e+00	 1.000000e+01	 9.999990e+00
0	 7.185185e+00	 9.629630e+00	 1.000157e+01
0	 7.185185e+00	 9.703704e+00	 1.000101e+01
0	 7.185185e+00	 9.777778e+00	 1.000058e+01
0	 7.185185e+00	 9.851852e+00	 1.000027e+01
0	 7.185185e+00	 9.925926e+00	 1.000007e+01
0	 7.185185e+00	 1.000000e+01	 9.999989e+00
0	 7.259259e+00	 9.629630e+00	 1.000152e+01
0	 7.259259e+00	 9.703704e+00	 1.000098e+01
0	 7.259259e+00	 9.777778e+00	 1.000056e+01
0	 7.259259e+00	 9.851852e+00	 1.000025e+01
0	 7.259259e+00	 9.925926e+00	 1.000007e+01
0	 7.259259e+00	 1.000000e+01	 9.999988e+00
0	 7.333333e+00	 9.629630e+00	 1.000147e+01
0	 7.333333e+00	 9.703704e+00	 1.000094e+01
0	 7.333333e+00	 9.777778e+00	 1.000054e+01
0	 7.333333e+00	 9.851852e+00	 1.000024e+01
0	 7.333333e+00	 9.925926e+00	 1.000006e+01
0	 7.333333e+00	 1.000000e+01	 9.999987e+00
0	 7.407407e+00	 9.629630e+00	 1.000142e+01
0	 7.407407e+00	 9.703704e+00	 1.000091e+01
0	 7.407407e+00	 9.777778e+00	 1.000052e+01
0	 7.407407e+00	 9.851852e+00	 1.000024e+01
0	 7.407407e+00	 9.925926e+00	 1.000006e+01
0	 7.407407e+00	 1.000000e+01	 9.999990e+00
0	 7.407407e+00	 0.000000e+00	 1.004014e+01
0	 7.407407e+00	 7.407407e-02	 1.004022e+01
0	 7.407407e+00	 1.481481e-01	 1.004046e+01
0	 7.407407e+00	 2.222222e-01	 1.004086e+01
0	 7.407407e+00	 2.962963e-01	 1.004142e+01
0	 7.407407e+00	 3.703704e-01	 1.004215e+01
0	 7.481481e+00	 0.000000e+00	 1.003183e+01
0	 7.481481e+00	 7.407407e-02	 1.003191e+01
0	 7.481481e+00	 1.481481e-01	 1.003214e+01
0	 7.481481e+00	 2.222222e-01	 1.003253e+01
0	 7.481481e+00	 2.962963e-01	 1.003308e+01
0	 7.481481e+00	 3.703704e-01	 1.003379e+01
0	 7.555556e+00	 0.000000e+00	 1.002346e+01
0	 7.555556e+00	 7.407407e-02	 1.002354e+01
0	 7.555556e+00	 1.481481e-01	 1.002376e+01
0	 7.555556e+00	 2.222222e-01	 1.002414e+01
0	 7.555556e+00	 2.962963e-01	 1.002468e+01
0	 7.555556e+00	 3.703704e-01	 1.002537e+01
0	 7.629630e+00	 0.000000e+00	 1.001503e+01
0	 7.629630e+00	 7.407407e-02	 1.001510e+01
0	 7.629630e+00	 1.481481e-01	 1.001532e+01
0	 7.629630e+00	 2.222222e-01	 1.001569e+01
0	 7.629630e+00	 2.962963e-01	 1.001622e+01
0	 7.629630e+00	 3.703704e-01	 1.001690e+01
0	 7.703704e+00	 0.000000e+00	 1.000651e+01
0	 7.703704e+00	 7.407407e-02	 1.000659e+01
0	 7.703704e+00	 1.481481e-01	 1.000681e+01
0	 7.703704e+00	 2.222222e-01	 1.000717e+01
0	 7.703704e+00	 2.962963e-01	 1.000769e+01
0	 7.703704e+00	 3.703704e-01	 1.000835e+01
0	 7.777778e+00	 0.000000e+00	 9.997921e+00
0	 7.777778e+00	 7.407407e-02	 9.997996e+00
0	 7.777778e+00	 1.481481e-01	 9.998213e+00
0	 7.777778e+00	 2.222222e-01	 9.998574e+00
0	 7.777778e+00	 2.962963e-01	 9.999079e+00
0	 7.777778e+00	 3.703704e-01	 9.999730e+00
0	 7.407407e+00	 3.703704e-01	 1.004215e+01
0	 7.407407e+00	 4.444444e-01	 1.004303e+01
0	 7.407407e+00	 5.185185e-01	 1.004405e+01
0	 7.407407e+00	 5.925926e-01	 1.004521e+01
0	 7.407407e+00	 6.666667e-01	 1.004652e+01
0	 7.407407e+00	 7.407407e-01	 1.004798e+01
0	 7.481481e+00	 3.703704e-01	 1.003379e+01
0	 7.481481e+00	 4.444444e-01	 1.003465e+01
0	 7.481481e+00	 5.185185e-01	 1.003564e+01
0	 7.481481e+00	 5.925926e-01	 1.003677e+01
0	 7.481481e+00	 6.666667e-01	 1.003804e+01
0	 7.481481e+00	 7.407407e-01	 1.003947e+01
0	 7.555556e+00	 3.703704e-01	 1.002537e+01
0	 7.555556e+00	 4.444444e-01	 1.002621e+01
0	 7.555556e+00	 5.185185e-01	 1.002718e+01
0	 7.555556e+00	 5.925926e-01	 1.002828e+01
0	 7.555556e+00	 6.666667e-01	 1.002953e+01
0	 7.555556e+00	 7.407407e-01	 1.003092e+01
0	 7.629630e+00	 3.703704e-01	 1.001690e+01
0	 7.629630e+00	 4.444444e-01	 1.001771e+01
0	 7.629630e+00	 5.185185e-01	 1.001866e+01
0	 7.629630e+00	 5.925926e-01	 1.001974e+01
0	 7.629630e+00	 6.666667e-01	 1.002096e+01
0	 7.629630e+00	 7.407407e-01	 1.002232e+01
0	 7.703704e+00	 3.703704e-01	 1.000835e+01
0	 7.703704e+00	 4.444444e-01	 1.000915e+01
0	 7.703704e+00	 5.185185e-01	 1.001008e+01
0	 7.703704e+00	 5.925926e-01	 1.001114e+01
0	 7.703704e+00	 6.666667e-01	 1.001234e+01
0	 7.703704e+00	 7.407407e-01	 1.001367e+01
0	 7.777778e+00	 3.703704e-01	 9.999730e+00
0	 7.777778e+00	 4.444444e-01	 1.000052e+01
0	 7.777778e+00	 5.185185e-01	 1.000143e+01
0	 7.777778e+00	 5.925926e-01	 1.000247e+01
0	 7.777778e+00	 6.666667e-01	 1.000364e+01
0	 7.777778e+00	 7.407407e-01	 1.000496e+01
0	 7.407407e+00	 7.407407e-01	 1.004798e+01
0	 7.407407e+00	 8.148148e-01	 1.004957e+01
0	 7.407407e+00	 8.888889e-01	 1.005125e+01
0	 7.407407e+00	 9.629630e-01	 1.005305e+01
0	 7.407407e+00	 1.037037e+00	 1.005495e+01
0	 7.407407e+00	 1.111111e+00	 1.005698e+01
0	 7.481481e+00	 7.407407e-01	 1.003947e+01
0	 7.481481e+00	 8.148148e-01	 1.004101e+01
0	 7.481481e+00	 8.888889e-01	 1.004266e+01
0	 7.481481e+00	 9.629630e-01	 1.004441e+01
0	 7.481481e+00	 1.037037e+00	 1.004627e+01
0	 7.481481e+00	 1.111111e+00	 1.004826e+01
0	 7.555556e+00	 7.407407e-01	 1.003092e+01
0	 7.555556e+00	 8.148148e-01	 1.003243e+01
0	 7.555556e+00	 8.888889e-01	 1.003404e+01
0	 7.555556e+00	 9.629630e-01	 1.003575e+01
0	 7.555556e+00	 1.037037e+00	 1.003758e+01
0	 7.555556e+00	 1.111111e+00	 1.003952e+01
0	 7.629630e+00	 7.407407e-01	 1.002232e+01
0	 7.629630e+00	 8.148148e-01	 1.002380e+01
0	 7.629630e+00	 8.888889e-01	 1.002538e+01
0	 7.629630e+00	 9.629630e-01	 1.002706e+01
0	 7.629630e+00	 1.037037e+00	 1.002885e+01
0	 7.629630e+00	 1.111111e+00	 1.003076e+01
0	 7.703704e+00	 7.407407e-01	 1.001367e+01
0	 7.703704e+00	 8.148148e-01	 1.001512e+01
0	 7.703704e+00	 8.888889e-01	 1.001667e+01
0	 7.703704e+00	 9.629630e-01	 1.001832e+01
0	 7.703704e+00	 1.037037e+00	 1.002008e+01
0	 7.703704e+00	 1.111111e+00	 1.002196e+01
0	 7.777778e+00	 7.407407e-01	 1.000496e+01
0	 7.777778e+00	 8.148148e-01	 1.000638e+01
0	 7.777778e+00	 8.888889e-01	 1.000791e+01
0	 7.777778e+00	 9.629630e-01	 1.000954e+01
0	 7.777778e+00	 1.037037e+00	 1.001127e+01
0	 7.777778e+00	 1.111111e+00	 1.001312e+01
0	 7.407407e+00	 1.111111e+00	 1.005698e+01
0	 7.407407e+00	 1.185185e+00	 1.005910e+01
0	 7.407407e+00	 1.259259e+00	 1.006127e+01
0	 7.407407e+00	 1.333333e+00	 1.006350e+01
0	 7.407407e+00	 1.407407e+00	 1.006581e+01
0	 7.407407e+00	 1.481481e+00	 1.006819e+01
0	 7.481481e+00	 1.111111e+00	 1.004826e+01
0	 7.481481e+00	 1.185185e+00	 1.005033e+01
0	 7.481481e+00	 1.259259e+00	 1.005246e+01
0	 7.481481e+00	 1.333333e+00	 1.005465e+01
0	 7.481481e+00	 1.407407e+00	 1.005691e+01
0	 7.481481e+00	 1.481481e+00	 1.005925e+01
0	 7.555556e+00	 1.111111e+00	 1.003952e+01
0	 7.555556e+00	 1.185185e+00	 1.004155e+01
0	 7.555556e+00	 1.259259e+00	 1.004364e+01
0	 7.555556e+00	 1.333333e+00	 1.004579e+01
0	 7.555556e+00	 1.407407e+00	 1.004801e+01
0	 7.555556e+00	 1.481481e+00	 1.005031e+01
0	 7.629630e+00	 1.111111e+00	 1.003076e+01
0	 7.629630e+00	 1.185185e+00	 1.003275e+01
0	 7.629630e+00	 1.259259e+00	 1.003480e+01
0	 7.629630e+00	 1.333333e+00	 1.003692e+01
0	 7.629630e+00	 1.407407e+00	 1.003911e+01
0	 7.629630e+00	 1.481481e+00	 1.004138e+01
0	 7.703704e+00	 1.111111e+00	 1.002196e+01
0	 7.703704e+00	 1.185185e+00	 1.002392e+01
0	 7.703704e+00	 1.259259e+00	 1.002594e+01
0	 7.703704e+00	 1.333333e+00	 1.002803e+01
0	 7.703704e+00	 1.407407e+00	 1.003019e+01
0	 7.703704e+00	 1.481481e+00	 1.003244e+01
0	 7.777778e+00	 1.111111e+00	 1.001312e+01
0	 7.777778e+00	 1.185185e+00	 1.001505e+01
0	 7.777778e+00	 1.259259e+00	 1.001705e+01
0	 7.777778e+00	 1.333333e+00	 1.001911e+01
0	 7.777778e+00	 1.407407e+00	 1.002125e+01
0	 7.777778e+00	 1.481481e+00	 1.002347e+01
0	 7.407407e+00	 1.481481e+00	 1.006819e+01
0	 7.407407e+00	 1.555556e+00	 1.007062e+01
0	 7.407407e+00	 1.629630e+00	 1.007306e+01
0	 7.407407e+00	 1.703704e+00	 1.007551e+01
0	 7.407407e+00	 1.777778e+00	 1.007798e+01
0	 7.407407e+00	 1.851852e+00	 1.008049e+01
0	 7.481481e+00	 1.481481e+00	 1.005925e+01
0	 7.481481e+00	 1.555556e+00	 1.006164e+01
0	 7.481481e+00	 1.629630e+00	 1.006403e+01
0	 7.481481e+00	 1.703704e+00	 1.006645e+01
0	 7.481481e+00	 1.777778e+00	 1.006889e+01
0	 7.481481e+00	 1.851852e+00	 1.007136e+01
0	 7.555556e+00	 1.481481e+00	 1.005031e+01
0	 7.555556e+00	 1.555556e+00	 1.005267e+01
0	 7.555556e+00	 1.629630e+00	 1.005503e+01
0	 7.555556e+00	 1.703704e+00	 1.005741e+01
0	 7.555556e+00	 1.777778e+00	 1.005982e+01
0	 7.555556e+00	 1.851852e+00	 1.006228e+01
0	 7.629630e+00	 1.481481e+00	 1.004138e+01
0	 7.629630e+00	 1.555556e+00	 1.004370e+01
0	 7.629630e+00	 1.629630e+00	 1.004603e+01
0	 7.629630e+00	 1.703704e+00	 1.004839e+01
0	 7.629630e+00	 1.777778e+00	 1.005078e+01
0	 7.629630e+00	 1.851852e+00	 1.005321e+01
0	 7.703704e+00	 1.481481e+00	 1.003244e+01
0	 7.703704e+00	 1.555556e+00	 1.003473e+01
0	 7.703704e+00	 1.629630e+00	 1.003704e+01
0	 7.703704e+00	 1.703704e+00	 1.003938e+01
0	 7.703704e+00	 1.777778e+00	 1.004175e+01
0	 7.703704e+00	 1.851852e+00	 1.004416e+01
0	 7.777778e+00	 1.481481e+00	 1.002347e+01
0	 7.777778e+00	 1.555556e+00	 1.002574e+01
0	 7.777778e+00	 1.629630e+00	 1.002804e+01
0	 7.777778e+00	 1.703704e+00	 1.003036e+01
0	 7.777778e+00	 1.777778e+00	 1.003272e+01
0	 7.777778e+00	 1.851852e+00	 1.003512e+01
0	 7.407407e+00	 1.851852e+00	 1.008049e+01
0	 7.407407e+00	 1.925926e+00	 1.008299e+01
0	 7.407407e+00	 2.000000e+00	 1.008546e+01
0	 7.407407e+00	 2.074074e+00	 1.008790e+01
0	 7.407407e+00	 2.148148e+00	 1.009031e+01
0	 7.407407e+00	 2.222222e+00	 1.009271e+01
0	 7.481481e+00	 1.851852e+00	 1.007136e+01
0	 7.481481e+00	 1.925926e+00	 1.007384e+01
0	 7.481481e+00	 2.000000e+00	 1.007629e+01
0	 7.481481e+00	 2.074074e+00	 1.007870e+01
0	 7.481481e+00	 2.148148e+00	 1.008110e+01
0	 7.481481e+00	 2.222222e+00	 1.008350e+01
0	 7.555556e+00	 1.851852e+00	 1.006228e+01
0	 7.555556e+00	 1.925926e+00	 1.006473e+01
0	 7.555556e+00	 2.000000e+00	 1.006716e+01
0	 7.555556e+00	 2.074074e+00	 1.006956e+01
0	 7.555556e+00	 2.148148e+00	 1.007195e+01
0	 7.555556e+00	 2.222222e+00	 1.007434e+01
0	 7.629630e+00	 1.851852e+00	 1.005321e+01
0	 7.629630e+00	 1.925926e+00	 1.005565e+01
0	 7.629630e+00	 2.000000e+00	 1.005806e+01
0	 7.629630e+00	 2.074074e+00	 1.006046e+01
0	 7.629630e+00	 2.148148e+00	 1.006284e+01
0	 7.629630e+00	 2.222222e+00	 1.006523e+01
0	 7.703704e+00	 1.851852e+00	 1.004416e+01
0	 7.703704e+00	 1.925926e+00	 1.004659e+01
0	 7.703704e+00	 2.000000e+00	 1.004899e+01
0	 7.703704e+00	 2.074074e+00	 1.005138e+01
0	 7.703704e+00	 2.148148e+00	 1.005377e+01
0	 7.703704e+00	 2.222222e+00	 1.005615e+01
0	 7.777778e+00	 1.851852e+00	 1.003512e+01
0	 7.777778e+00	 1.925926e+00	 1.003753e+01
0	 7.777778e+00	 2.000000e+00	 1.003993e+01
0	 7.777778e+00	 2.074074e+00	 1.004232e+01
0	 7.777778e+00	 2.148148e+00	 1.004471e+01
0	 7.777778e+00	 2.222222e+00	 1.004710e+01
0	 7.407407e+00	 2.222222e+00	 1.009271e+01
0	 7.407407e+00	 2.296296e+00	 1.009507e+01
0	 7.407407e+00	 2.370370e+00	 1.009735e+01
0	 7.407407e+00	 2.444444e+00	 1.009956e+01
0	 7.407407e+00	 2.518519e+00	 1.010171e+01
0	 7.407407e+00	 2.592593e+00	 1.010381e+01
0	 7.481481e+00	 2.222222e+00	 1.008350e+01
0	 7.481481e+00	 2.296296e+00	 1.008585e+01
0	 7.481481e+00	 2.370370e+00	 1.008813e+01
0	 7.481481e+00	 2.444444e+00	 1.009035e+01
0	 7.481481e+00	 2.518519e+00	 1.009251e+01
0	 7.481481e+00	 2.592593e+00	 1.009463e+01
0	 7.555556e+00	 2.222222e+00	 1.007434e+01
0	 7.555556e+00	 2.296296e+00	 1.007669e+01
0	 7.555556e+00	 2.370370e+00	 1.007898e+01
0	 7.555556e+00	 2.444444e+00	 1.008121e+01
0	 7.555556e+00	 2.518519e+00	 1.008339e+01
0	 7.555556e+00	 2.592593e+00	 1.008552e+01
0	 7.629630e+00	 2.222222e+00	 1.006523e+01
0	 7.629630e+00	 2.296296e+00	 1.006758e+01
0	 7.629630e+00	 2.370370e+00	 1.006988e+01
0	 7.629630e+00	 2.444444e+00	 1.007212e+01
0	 7.629630e+00	 2.518519e+00	 1.007432e+01
0	 7.629630e+00	 2.592593e+00	 1.007648e+01
0	 7.703704e+00	 2.222222e+00	 1.005615e+01
0	 7.703704e+00	 2.296296e+00	 1.005851e+01
0	 7.703704e+00	 2.370370e+00	 1.006082e+01
0	 7.703704e+00	 2.444444e+00	 1.006309e+01
0	 7.703704e+00	 2.518519e+00	 1.006531e+01
0	 7.703704e+00	 2.592593e+00	 1.006749e+01
0	 7.777778e+00	 2.222222e+00	 1.004710e+01
0	 7.777778e+00	 2.296296e+00	 1.004948e+01
0	 7.777778e+00	 2.370370e+00	 1.005180e+01
0	 7.777778e+00	 2.444444e+00	 1.005409e+01
0	 7.777778e+00	 2.518519e+00	 1.005633e+01
0	 7.777778e+00	 2.592593e+00	 1.005855e+01
0	 7.407407e+00	 2.592593e+00	 1.010381e+01
0	 7.407407e+00	 2.666667e+00	 1.010583e+01
0	 7.407407e+00	 2.740741e+00	 1.010774e+01
0	 7.407407e+00	 2.814815e+00	 1.010956e+01
0	 7.407407e+00	 2.888889e+00	 1.011129e+01
0	 7.407407e+00	 2.962963e+00	 1.011294e+01
0	 7.481481e+00	 2.592593e+00	 1.009463e+01
0	 7.481481e+00	 2.666667e+00	 1.009667e+01
0	 7.481481e+00	 2.740741e+00	 1.009862e+01
0	 7.481481e+00	 2.814815e+00	 1.010048e+01
0	 7.481481e+00	 2.888889e+00	 1.010225e+01
0	 7.481481e+00	 2.962963e+00	 1.010395e+01
0	 7.555556e+00	 2.592593e+00	 1.008552e+01
0	 7.555556e+00	 2.666667e+00	 1.008759e+01
0	 7.555556e+00	 2.740741e+00	 1.008958e+01
0	 7.555556e+00	 2.814815e+00	 1.009147e+01
0	 7.555556e+00	 2.888889e+00	 1.009329e+01
0	 7.555556e+00	 2.962963e+00	 1.009503e+01
0	 7.629630e+00	 2.592593e+00	 1.007648e+01
0	 7.629630e+00	 2.666667e+00	 1.007858e+01
0	 7.629630e+00	 2.740741e+00	 1.008060e+01
0	 7.629630e+00	 2.814815e+00	 1.008253e+01
0	 7.629630e+00	 2.888889e+00	 1.008440e+01
0	 7.629630e+00	 2.962963e+00	 1.008619e+01
0	 7.703704e+00	 2.592593e+00	 1.006749e+01
0	 7.703704e+00	 2.666667e+00	 1.006962e+01
0	 7.703704e+00	 2.740741e+00	 1.007168e+01
0	 7.703704e+00	 2.814815e+00	 1.007366e+01
0	 7.703704e+00	 2.888889e+00	 1.007557e+01
0	 7.703704e+00	 2.962963e+00	 1.007741e+01
0	 7.777778e+00	 2.592593e+00	 1.005855e+01
0	 7.777778e+00	 2.666667e+00	 1.006071e+01
0	 7.777778e+00	 2.740741e+00	 1.006281e+01
0	 7.777778e+00	 2.814815e+00	 1.006483e+01
0	 7.777778e+00	 2.888889e+00	 1.006679e+01
0	 7.777778e+00	 2.962963e+00	 1.006869e+01
0	 7.407407e+00	 2.962963e+00	 1.011294e+01
0	 7.407407e+00	 3.037037e+00	 1.011448e+01
0	 7.407407e+00	 3.111111e+00	 1.011591e+01
0	 7.407407e+00	 3.185185e+00	 1.011722e+01
0	 7.407407e+00	 3.259259e+00	 1.011843e+01
0	 7.407407e+00	 3.333333e+00	 1.011953e+01
0	 7.481481e+00	 2.962963e+00	 1.010395e+01
0	 7.481481e+00	 3.037037e+00	 1.010554e+01
0	 7.481481e+00	 3.111111e+00	 1.010703e+01
0	 7.481481e+00	 3.185185e+00	 1.010841e+01
0	 7.481481e+00	 3.259259e+00	 1.010969e+01
0	 7.481481e+00	 3.333333e+00	 1.011086e+01
0	 7.555556e+00	 2.962963e+00	 1.009503e+01
0	 7.555556e+00	 3.037037e+00	 1.009668e+01
0	 7.555556e+00	 3.111111e+00	 1.009823e+01
0	 7.555556e+00	 3.185185e+00	 1.009968e+01
0	 7.555556e+00	 3.259259e+00	 1.010103e+01
0	 7.555556e+00	 3.333333e+00	 1.010228e+01
0	 7.629630e+00	 2.962963e+00	 1.008619e+01
0	 7.629630e+00	 3.037037e+00	 1.008790e+01
0	 7.629630e+00	 3.111111e+00	 1.008951e+01
0	 7.629630e+00	 3.185185e+00	 1.009102e+01
0	 7.629630e+00	 3.259259e+00	 1.009244e+01
0	 7.629630e+00	 3.333333e+00	 1.009377e+01
0	 7.703704e+00	 2.962963e+00	 1.007741e+01
0	 7.703704e+00	 3.037037e+00	 1.007918e+01
0	 7.703704e+00	 3.111111e+00	 1.008085e+01
0	 7.703704e+00	 3.185185e+00	 1.008243e+01
0	 7.703704e+00	 3.259259e+00	 1.008393e+01
0	 7.703704e+00	 3.333333e+00	 1.008534e+01
0	 7.777778e+00	 2.962963e+00	 1.006869e+01
0	 7.777778e+00	 3.037037e+00	 1.007052e+01
0	 7.777778e+00	 3.111111e+00	 1.007226e+01
0	 7.777778e+00	 3.185185e+00	 1.007391e+01
0	 7.777778e+00	 3.259259e+00	 1.007548e+01
0	 7.777778e+00	 3.333333e+00	 1.007696e+01
0	 7.407407e+00	 3.333333e+00	 1.011953e+01
0	 7.407407e+00	 3.407407e+00	 1.012051e+01
0	 7.407407e+00	 3.481481e+00	 1.012138e+01
0	 7.407407e+00	 3.555556e+00	 1.012212e+01
0	 7.407407e+00	 3.629630e+00	 1.012275e+01
0	 7.407407e+00	 3.703704e+00	 1.012326e+01
0	 7.481481e+00	 3.333333e+00	 1.011086e+01
0	 7.481481e+00	 3.407407e+00	 1.011193e+01
0	 7.481481e+00	 3.481481e+00	 1.011288e+01
0	 7.481481e+00	 3.555556e+00	 1.011372e+01
0	 7.481481e+00	 3.629630e+00	 1.011445e+01
0	 7.481481e+00	 3.703704e+00	 1.011506e+01
0	 7.555556e+00	 3.333333e+00	 1.010228e+01
0	 7.555556e+00	 3.407407e+00	 1.010343e+01
0	 7.555556e+00	 3.481481e+00	 1.010447e+01
0	 7.555556e+00	 3.555556e+00	 1.010540e+01
0	 7.555556e+00	 3.629630e+00	 1.010623e+01
0	 7.555556e+00	 3.703704e+00	 1.010694e+01
0	 7.629630e+00	 3.333333e+00	 1.009377e+01
0	 7.629630e+00	 3.407407e+00	 1.009501e+01
0	 7.629630e+00	 3.481481e+00	 1.009613e+01
0	 7.629630e+00	 3.555556e+00	 1.009716e+01
0	 7.629630e+00	 3.629630e+00	 1.009807e+01
0	 7.629630e+00	 3.703704e+00	 1.009889e+01
0	 7.703704e+00	 3.333333e+00	 1.008534e+01
0	 7.703704e+00	 3.407407e+00	 1.008665e+01
0	 7.703704e+00	 3.481481e+00	 1.008787e+01
0	 7.703704e+00	 3.555556e+00	 1.008898e+01
0	 7.703704e+00	 3.629630e+00	 1.008999e+01
0	 7.703704e+00	 3.703704e+00	 1.009091e+01
0	 7.777778e+00	 3.333333e+00	 1.007696e+01
0	 7.777778e+00	 3.407407e+00	 1.007836e+01
0	 7.777778e+00	 3.481481e+00	 1.007967e+01
0	 7.777778e+00	 3.555556e+00	 1.008087e+01
0	 7.777778e+00	 3.629630e+00	 1.008198e+01
0	 7.777778e+00	 3.703704e+00	 1.008300e+01
0	 7.407407e+00	 3.703704e+00	 1.012326e+01
0	 7.407407e+00	 3.777778e+00	 1.012366e+01
0	 7.407407e+00	 3.851852e+00	 1.012394e+01
0	 7.407407e+00	 3.925926e+00	 1.012410e+01
0	 7.407407e+00	 4.000000e+00	 1.012415e+01
0	 7.407407e+00	 4.074074e+00	 1.012408e+01
0	 7.481481e+00	 3.703704e+00	 1.011506e+01
0	 7.481481e+00	 3.777778e+00	 1.011557e+01
0	 7.481481e+00	 3.851852e+00	 1.011596e+01
0	 7.481481e+00	 3.925926e+00	 1.011624e+01
0	 7.481481e+00	 4.000000e+00	 1.011640e+01
0	 7.481481e+00	 4.074074e+00	 1.011645e+01
0	 7.555556e+00	 3.703704e+00	 1.010694e+01
0	 7.555556e+00	 3.777778e+00	 1.010755e+01
0	 7.555556e+00	 3.851852e+00	 1.010805e+01
0	 7.555556e+00	 3.925926e+00	 1.010844e+01
0	 7.555556e+00	 4.000000e+00	 1.010872e+01
0	 7.555556e+00	 4.074074e+00	 1.010890e+01
0	 7.629630e+00	 3.703704e+00	 1.009889e+01
0	 7.629630e+00	 3.777778e+00	 1.009960e+01
0	 7.629630e+00	 3.851852e+00	 1.010021e+01
0	 7.629630e+00	 3.925926e+00	 1.010072e+01
0	 7.629630e+00	 4.000000e+00	 1.010112e+01
0	 7.629630e+00	 4.074074e+00	 1.010141e+01
0	 7.703704e+00	 3.703704e+00	 1.009091e+01
0	 7.703704e+00	 3.777778e+00	 1.009173e+01
0	 7.703704e+00	 3.851852e+00	 1.009245e+01
0	 7.703704e+00	 3.925926e+00	 1.009306e+01
0	 7.703704e+00	 4.000000e+00	 1.009357e+01
0	 7.703704e+00	 4.074074e+00	 1.009399e+01
0	 7.777778e+00	 3.703704e+00	 1.008300e+01
0	 7.777778e+00	 3.777778e+00	 1.008392e+01
0	 7.777778e+00	 3.851852e+00	 1.008475e+01
0	 7.777778e+00	 3.925926e+00	 1.008547e+01
0	 7.777778e+00	 4.000000e+00	 1.008610e+01
0	 7.777778e+00	 4.074074e+00	 1.008663e+01
0	 7.407407e+00	 4.074074e+00	 1.012408e+01
0	 7.407407e+00	 4.148148e+00	 1.012390e+01
0	 7.407407e+00	 4.222222e+00	 1.012361e+01
0	 7.407407e+00	 4.296296e+00	 1.012322e+01
0	 7.407407e+00	 4.370370e+00	 1.012272e+01
0	 7.407407e+00	 4.444444e+00	 1.012211e+01
0	 7.481481e+00	 4.074074e+00	 1.011645e+01
0	 7.481481e+00	 4.148148e+00	 1.011640e+01
0	 7.481481e+00	 4.222222e+00	 1.011624e+01
0	 7.481481e+00	 4.296296e+00	 1.011598e+01
0	 7.481481e+00	 4.370370e+00	 1.011562e+01
0	 7.481481e+00	 4.444444e+00	 1.011514e+01
0	 7.555556e+00	 4.074074e+00	 1.010890e+01
0	 7.555556e+00	 4.148148e+00	 1.010897e+01
0	 7.555556e+00	 4.222222e+00	 1.010894e+01
0	 7.555556e+00	 4.296296e+00	 1.010881e+01
0	 7.555556e+00	 4.370370e+00	 1.010857e+01
0	 7.555556e+00	 4.444444e+00	 1.010823e+01
0	 7.629630e+00	 4.074074e+00	 1.010141e+01
0	 7.629630e+00	 4.148148e+00	 1.010160e+01
0	 7.629630e+00	 4.222222e+00	 1.010169e+01
0	 7.629630e+00	 4.296296e+00	 1.010169e+01
0	 7.629630e+00	 4.370370e+00	 1.010158e+01
0	 7.629630e+00	 4.444444e+00	 1.010138e+01
0	 7.703704e+00	 4.074074e+00	 1.009399e+01
0	 7.703704e+00	 4.148148e+00	 1.009430e+01
0	 7.703704e+00	 4.222222e+00	 1.009452e+01
0	 7.703704e+00	 4.296296e+00	 1.009464e+01
0	 7.703704e+00	 4.370370e+00	 1.009466e+01
0	 7.703704e+00	 4.444444e+00	 1.009458e+01
0	 7.777778e+00	 4.074074e+00	 1.008663e+01
0	 7.777778e+00	 4.148148e+00	 1.008706e+01
0	 7.777778e+00	 4.222222e+00	 1.008740e+01
0	 7.777778e+00	 4.296296e+00	 1.008765e+01
0	 7.777778e+00	 4.370370e+00	 1.008780e+01
0	 7.777778e+00	 4.444444e+00	 1.008785e+01
0	 7.407407e+00	 4.444444e+00	 1.012211e+01
0	 7.407407e+00	 4.518519e+00	 1.012140e+01
0	 7.407407e+00	 4.592593e+00	 1.012060e+01
0	 7.407407e+00	 4.666667e+00	 1.011971e+01
0	 7.407407e+00	 4.740741e+00	 1.011872e+01
0	 7.407407e+00	 4.814815e+00	 1.011764e+01
0	 7.481481e+00	 4.444444e+00	 1.011514e+01
0	 7.481481e+00	 4.518519e+00	 1.011457e+01
0	 7.481481e+00	 4.592593e+00	 1.011391e+01
0	 7.481481e+00	 4.666667e+00	 1.011316e+01
0	 7.481481e+00	 4.740741e+00	 1.011232e+01
0	 7.481481e+00	 4.814815e+00	 1.011138e+01
0	 7.555556e+00	 4.444444e+00	 1.010823e+01
0	 7.555556e+00	 4.518519e+00	 1.010780e+01
0	 7.555556e+00	 4.592593e+00	 1.010728e+01
0	 7.555556e+00	 4.666667e+00	 1.010666e+01
0	 7.555556e+00	 4.740741e+00	 1.010596e+01
0	 7.555556e+00	 4.814815e+00	 1.010516e+01
0	 7.629630e+00	 4.444444e+00	 1.010138e+01
0	 7.629630e+00	 4.518519e+00	 1.010108e+01
0	 7.629630e+00	 4.592593e+00	 1.010069e+01
0	 7.629630e+00	 4.666667e+00	 1.010021e+01
0	 7.629630e+00	 4.740741e+00	 1.009965e+01
0	 7.629630e+00	 4.814815e+00	 1.009899e+01
0	 7.703704e+00	 4.444444e+00	 1.009458e+01
0	 7.703704e+00	 4.518519e+00	 1.009441e+01
0	 7.703704e+00	 4.592593e+00	 1.009416e+01
0	 7.703704e+00	 4.666667e+00	 1.009382e+01
0	 7.703704e+00	 4.740741e+00	 1.009339e+01
0	 7.703704e+00	 4.814815e+00	 1.009286e+01
0	 7.777778e+00	 4.444444e+00	 1.008785e+01
0	 7.777778e+00	 4.518519e+00	 1.008781e+01
0	 7.777778e+00	 4.592593e+00	 1.008769e+01
0	 7.777778e+00	 4.666667e+00	 1.008748e+01
0	 7.777778e+00	 4.740741e+00	 1.008718e+01
0	 7.777778e+00	 4.814815e+00	 1.008680e+01
0	 7.407407e+00	 4.814815e+00	 1.011764e+01
0	 7.407407e+00	 4.888889e+00	 1.011647e+01
0	 7.407407e+00	 4.962963e+00	 1.011523e+01
0	 7.407407e+00	 5.037037e+00	 1.011391e+01
0	 7.407407e+00	 5.111111e+00	 1.011251e+01
0	 7.407407e+00	 5.185185e+00	 1.011103e+01
0	 7.481481e+00	 4.814815e+00	 1.011138e+01
0	 7.481481e+00	 4.888889e+00	 1.011035e+01
0	 7.481481e+00	 4.962963e+00	 1.010926e+01
0	 7.481481e+00	 5.037037e+00	 1.010808e+01
0	 7.481481e+00	 5.111111e+00	 1.010683e+01
0	 7.481481e+00	 5.185185e+00	 1.010550e+01
0	 7.555556e+00	 4.814815e+00	 1.010516e+01
0	 7.555556e+00	 4.888889e+00	 1.010428e+01
0	 7.555556e+00	 4.962963e+00	 1.010332e+01
0	 7.555556e+00	 5.037037e+00	 1.010229e+01
0	 7.555556e+00	 5.111111e+00	 1.010118e+01
0	 7.555556e+00	 5.185185e+00	 1.009999e+01
0	 7.629630e+00	 4.814815e+00	 1.009899e+01
0	 7.629630e+00	 4.888889e+00	 1.009824e+01
0	 7.629630e+00	 4.962963e+00	 1.009743e+01
0	 7.629630e+00	 5.037037e+00	 1.009654e+01
0	 7.629630e+00	 5.111111e+00	 1.009557e+01
0	 7.629630e+00	 5.185185e+00	 1.009452e+01
0	 7.703704e+00	 4.814815e+00	 1.009286e+01
0	 7.703704e+00	 4.888889e+00	 1.009226e+01
0	 7.703704e+00	 4.962963e+00	 1.009158e+01
0	 7.703704e+00	 5.037037e+00	 1.009083e+01
0	 7.703704e+00	 5.111111e+00	 1.009000e+01
0	 7.703704e+00	 5.185185e+00	 1.008909e+01
0	 7.777778e+00	 4.814815e+00	 1.008680e+01
0	 7.777778e+00	 4.888889e+00	 1.008633e+01
0	 7.777778e+00	 4.962963e+00	 1.008579e+01
0	 7.777778e+00	 5.037037e+00	 1.008517e+01
0	 7.777778e+00	 5.111111e+00	 1.008448e+01
0	 7.777778e+00	 5.185185e+00	 1.008371e+01
0	 7.407407e+00	 5.185185e+00	 1.011103e+01
0	 7.407407e+00	 5.259259e+00	 1.010949e+01
0	 7.407407e+00	 5.333333e+00	 1.010788e+01
0	 7.407407e+00	 5.407407e+00	 1.010622e+01
0	 7.407407e+00	 5.481481e+00	 1.010449e+01
0	 7.407407e+00	 5.555556e+00	 1.010270e+01
0	 7.481481e+00	 5.185185e+00	 1.010550e+01
0	 7.481481e+00	 5.259259e+00	 1.010409e+01
0	 7.481481e+00	 5.333333e+00	 1.010263e+01
0	 7.481481e+00	 5.407407e+00	 1.010112e+01
0	 7.481481e+00	 5.481481e+00	 1.009953e+01
0	 7.481481e+00	 5.555556e+00	 1.009789e+01
0	 7.555556e+00	 5.185185e+00	 1.009999e+01
0	 7.555556e+00	 5.259259e+00	 1.009873e+01
0	 7.555556e+00	 5.333333e+00	 1.009741e+01
0	 7.555556e+00	 5.407407e+00	 1.009603e+01
0	 7.555556e+00	 5.481481e+00	 1.009459e+01
0	 7.555556e+00	 5.555556e+00	 1.009309e+01
0	 7.629630e+00	 5.185185e+00	 1.009452e+01
0	 7.629630e+00	 5.259259e+00	 1.009340e+01
0	 7.629630e+00	 5.333333e+00	 1.009222e+01
0	 7.629630e+00	 5.407407e+00	 1.009098e+01
0	 7.629630e+00	 5.481481e+00	 1.008968e+01
0	 7.629630e+00	 5.555556e+00	 1.008831e+01
0	 7.703704e+00	 5.185185e+00	 1.008909e+01
0	 7.703704e+00	 5.259259e+00	 1.008811e+01
0	 7.703704e+00	 5.333333e+00	 1.008707e+01
0	 7.703704e+00	 5.407407e+00	 1.008597e+01
0	 7.703704e+00	 5.481481e+00	 1.008480e+01
0	 7.703704e+00	 5.555556e+00	 1.008357e+01
0	 7.777778e+00	 5.185185e+00	 1.008371e+01
0	 7.777778e+00	 5.259259e+00	 1.008286e+01
0	 7.777778e+00	 5.333333e+00	 1.008196e+01
0	 7.777778e+00	 5.407407e+00	 1.008100e+01
0	 7.777778e+00	 5.481481e+00	 1.007997e+01
0	 7.777778e+00	 5.555556e+00	 1.007887e+01
0	 7.407407e+00	 5.555556e+00	 1.010270e+01
0	 7.407407e+00	 5.629630e+00	 1.010086e+01
0	 7.407407e+00	 5.703704e+00	 1.009898e+01
0	 7.407407e+00	 5.777778e+00	 1.009705e+01
0	 7.407407e+00	 5.851852e+00	 1.009508e+01
0	 7.407407e+00	 5.925926e+00	 1.009307e+01
0	 7.481481e+00	 5.555556e+00	 1.009789e+01
0	 7.481481e+00	 5.629630e+00	 1.009618e+01
0	 7.481481e+00	 5.703704e+00	 1.009444e+01
0	 7.481481e+00	 5.777778e+00	 1.009266e+01
0	 7.481481e+00	 5.851852e+00	 1.009082e+01
0	 7.481481e+00	 5.925926e+00	 1.008894e+01
0	 7.555556e+00	 5.555556e+00	 1.009309e+01
0	 7.555556e+00	 5.629630e+00	 1.009152e+01
0	 7.555556e+00	 5.703704e+00	 1.008992e+01
0	 7.555556e+00	 5.777778e+00	 1.008827e+01
0	 7.555556e+00	 5.851852e+00	 1.008657e+01
0	 7.555556e+00	 5.925926e+00	 1.008482e+01
0	 7.629630e+00	 5.555556e+00	 1.008831e+01
0	 7.629630e+00	 5.629630e+00	 1.008689e+01
0	 7.629630e+00	 5.703704e+00	 1.008542e+01
0	 7.629630e+00	 5.777778e+00	 1.008390e+01
0	 7.629630e+00	 5.851852e+00	 1.008234e+01
0	 7.629630e+00	 5.925926e+00	 1.008072e+01
0	 7.703704e+00	 5.555556e+00	 1.008357e+01
0	 7.703704e+00	 5.629630e+00	 1.008228e+01
0	 7.703704e+00	 5.703704e+00	 1.008095e+01
0	 7.703704e+00	 5.777778e+00	 1.007957e+01
0	 7.703704e+00	 5.851852e+00	 1.007813e+01
0	 7.703704e+00	 5.925926e+00	 1.007665e+01
0	 7.777778e+00	 5.555556e+00	 1.007887e+01
0	 7.777778e+00	 5.629630e+00	 1.007771e+01
0	 7.777778e+00	 5.703704e+00	 1.007651e+01
0	 7.777778e+00	 5.777778e+00	 1.007526e+01
0	 7.777778e+00	 5.851852e+00	 1.007396e+01
0	 7.777778e+00	 5.925926e+00	 1.007261e+01
0	 7.407407e+00	 5.925926e+00	 1.009307e+01
0	 7.407407e+00	 6.000000e+00	 1.009101e+01
0	 7.407407e+00	 6.074074e+00	 1.008893e+01
0	 7.407407e+00	 6.148148e+00	 1.008683e+01
0	 7.407407e+00	 6.222222e+00	 1.008469e+01
0	 7.407407e+00	 6.296296e+00	 1.008252e+01
0	 7.481481e+00	 5.925926e+00	 1.008894e+01
0	 7.481481e+00	 6.000000e+00	 1.008702e+01
0	 7.481481e+00	 6.074074e+00	 1.008507e+01
0	 7.481481e+00	 6.148148e+00	 1.008310e+01
0	 7.481481e+00	 6.222222e+00	 1.008109e+01
0	 7.481481e+00	 6.296296e+00	 1.007905e+01
0	 7.555556e+00	 5.925926e+00	 1.008482e+01
0	 7.555556e+00	 6.000000e+00	 1.008303e+01
0	 7.555556e+00	 6.074074e+00	 1.008122e+01
0	 7.555556e+00	 6.148148e+00	 1.007937e+01
0	 7.555556e+00	 6.222222e+00	 1.007749e+01
0	 7.555556e+00	 6.296296e+00	 1.007557e+01
0	 7.629630e+00	 5.925926e+00	 1.008072e+01
0	 7.629630e+00	 6.000000e+00	 1.007907e+01
0	 7.629630e+00	 6.074074e+00	 1.007738e+01
0	 7.629630e+00	 6.148148e+00	 1.007566e+01
0	 7.629630e+00	 6.222222e+00	 1.007391e+01
0	 7.629630e+00	 6.296296e+00	 1.007211e+01
0	 7.703704e+00	 5.925926e+00	 1.007665e+01
0	 7.703704e+00	 6.000000e+00	 1.007512e+01
0	 7.703704e+00	 6.074074e+00	 1.007356e+01
0	 7.703704e+00	 6.148148e+00	 1.007197e+01
0	 7.703704e+00	 6.222222e+00	 1.007034e+01
0	 7.703704e+00	 6.296296e+00	 1.006867e+01
0	 7.777778e+00	 5.925926e+00	 1.007261e+01
0	 7.777778e+00	 6.000000e+00	 1.007121e+01
0	 7.777778e+00	 6.074074e+00	 1.006978e+01
0	 7.777778e+00	 6.148148e+00	 1.006831e+01
0	 7.777778e+00	 6.222222e+00	 1.006680e+01
0	 7.777778e+00	 6.296296e+00	 1.006525e+01
0	 7.407407e+00	 6.296296e+00	 1.008252e+01
0	 7.407407e+00	 6.370370e+00	 1.008033e+01
0	 7.407407e+00	 6.444444e+00	 1.007813e+01
0	 7.407407e+00	 6.518519e+00	 1.007592e+01
0	 7.407407e+00	 6.592593e+00	 1.007369e+01
0	 7.407407e+00	 6.666667e+00	 1.007144e+01
0	 7.481481e+00	 6.296296e+00	 1.007905e+01
0	 7.481481e+00	 6.370370e+00	 1.007698e+01
0	 7.481481e+00	 6.444444e+00	 1.007490e+01
0	 7.481481e+00	 6.518519e+00	 1.007281e+01
0	 7.481481e+00	 6.592593e+00	 1.007070e+01
0	 7.481481e+00	 6.666667e+00	 1.006857e+01
0	 7.555556e+00	 6.296296e+00	 1.007557e+01
0	 7.555556e+00	 6.370370e+00	 1.007363e+01
0	 7.555556e+00	 6.444444e+00	 1.007168e+01
0	 7.555556e+00	 6.518519e+00	 1.006970e+01
0	 7.555556e+00	 6.592593e+00	 1.006771e+01
0	 7.555556e+00	 6.666667e+00	 1.006569e+01
0	 7.629630e+00	 6.296296e+00	 1.007211e+01
0	 7.629630e+00	 6.370370e+00	 1.007030e+01
0	 7.629630e+00	 6.444444e+00	 1.006846e+01
0	 7.629630e+00	 6.518519e+00	 1.006661e+01
0	 7.629630e+00	 6.592593e+00	 1.006473e+01
0	 7.629630e+00	 6.666667e+00	 1.006283e+01
0	 7.703704e+00	 6.296296e+00	 1.006867e+01
0	 7.703704e+00	 6.370370e+00	 1.006697e+01
0	 7.703704e+00	 6.444444e+00	 1.006526e+01
0	 7.703704e+00	 6.518519e+00	 1.006352e+01
0	 7.703704e+00	 6.592593e+00	 1.006176e+01
0	 7.703704e+00	 6.666667e+00	 1.005997e+01
0	 7.777778e+00	 6.296296e+00	 1.006525e+01
0	 7.777778e+00	 6.370370e+00	 1.006368e+01
0	 7.777778e+00	 6.444444e+00	 1.006208e+01
0	 7.777778e+00	 6.518519e+00	 1.006046e+01
0	 7.777778e+00	 6.592593e+00	 1.005881e+01
0	 7.777778e+00	 6.666667e+00	 1.005714e+01
0	 7.407407e+00	 6.666667e+00	 1.007144e+01
0	 7.407407e+00	 6.740741e+00	 1.006918e+01
0	 7.407407e+00	 6.814815e+00	 1.006693e+01
0	 7.407407e+00	 6.888889e+00	 1.006468e+01
0	 7.407407e+00	 6.962963e+00	 1.006242e+01
0	 7.407407e+00	 7.037037e+00	 1.006016e+01
0	 7.481481e+00	 6.666667e+00	 1.006857e+01
0	 7.481481e+00	 6.740741e+00	 1.006643e+01
0	 7.481481e+00	 6.814815e+00	 1.006428e+01
0	 7.481481e+00	 6.888889e+00	 1.006214e+01
0	 7.481481e+00	 6.962963e+00	 1.005999e+01
0	 7.481481e+00	 7.037037e+00	 1.005784e+01
0	 7.555556e+00	 6.666667e+00	 1.006569e+01
0	 7.555556e+00	 6.740741e+00	 1.006367e+01
0	 7.555556e+00	 6.814815e+00	 1.006164e+01
0	 7.555556e+00	 6.888889e+00	 1.005960e+01
0	 7.555556e+00	 6.962963e+00	 1.005756e+01
0	 7.555556e+00	 7.037037e+00	 1.005551e+01
0	 7.629630e+00	 6.666667e+00	 1.006283e+01
0	 7.629630e+00	 6.740741e+00	 1.006091e+01
0	 7.629630e+00	 6.814815e+00	 1.005899e+01
0	 7.629630e+00	 6.888889e+00	 1.005707e+01
0	 7.629630e+00	 6.962963e+00	 1.005514e+01
0	 7.629630e+00	 7.037037e+00	 1.005319e+01
0	 7.703704e+00	 6.666667e+00	 1.005997e+01
0	 7.703704e+00	 6.740741e+00	 1.005817e+01
0	 7.703704e+00	 6.814815e+00	 1.005636e+01
0	 7.703704e+00	 6.888889e+00	 1.005454e+01
0	 7.703704e+00	 6.962963e+00	 1.005272e+01
0	 7.703704e+00	 7.037037e+00	 1.005087e+01
0	 7.777778e+00	 6.666667e+00	 1.005714e+01
0	 7.777778e+00	 6.740741e+00	 1.005545e+01
0	 7.777778e+00	 6.814815e+00	 1.005374e+01
0	 7.777778e+00	 6.888889e+00	 1.005203e+01
0	 7.777778e+00	 6.962963e+00	 1.005031e+01
0	 7.777778e+00	 7.037037e+00	 1.004857e+01
0	 7.407407e+00	 7.037037e+00	 1.006016e+01
0	 7.407407e+00	 7.111111e+00	 1.005790e+01
0	 7.407407e+00	 7.185185e+00	 1.005566e+01
0	 7.407407e+00	 7.259259e+00	 1.005343e+01
0	 7.407407e+00	 7.333333e+00	 1.005121e+01
0	 7.407407e+00	 7.407407e+00	 1.004900e+01
0	 7.481481e+00	 7.037037e+00	 1.005784e+01
0	 7.481481e+00	 7.111111e+00	 1.005568e+01
0	 7.481481e+00	 7.185185e+00	 1.005354e+01
0	 7.481481e+00	 7.259259e+00	 1.005141e+01
0	 7.481481e+00	 7.333333e+00	 1.004929e+01
0	 7.481481e+00	 7.407407e+00	 1.004717e+01
0	 7.555556e+00	 7.037037e+00	 1.005551e+01
0	 7.555556e+00	 7.111111e+00	 1.005346e+01
0	 7.555556e+00	 7.185185e+00	 1.005142e+01
0	 7.555556e+00	 7.259259e+00	 1.004939e+01
0	 7.555556e+00	 7.333333e+00	 1.004736e+01
0	 7.555556e+00	 7.407407e+00	 1.004534e+01
0	 7.629630e+00	 7.037037e+00	 1.005319e+01
0	 7.629630e+00	 7.111111e+00	 1.005124e+01
0	 7.629630e+00	 7.185185e+00	 1.004930e+01
0	 7.629630e+00	 7.259259e+00	 1.004737e+01
0	 7.629630e+00	 7.333333e+00	 1.004544e+01
0	 7.629630e+00	 7.407407e+00	 1.004351e+01
0	 7.703704e+00	 7.037037e+00	 1.005087e+01
0	 7.703704e+00	 7.111111e+00	 1.004903e+01
0	 7.703704e+00	 7.185185e+00	 1.004719e+01
0	 7.703704e+00	 7.259259e+00	 1.004535e+01
0	 7.703704e+00	 7.333333e+00	 1.004352e+01
0	 7.703704e+00	 7.407407e+00	 1.004168e+01
0	 7.777778e+00	 7.037037e+00	 1.004857e+01
0	 7.777778e+00	 7.111111e+00	 1.004683e+01
0	 7.777778e+00	 7.185185e+00	 1.004509e+01
0	 7.777778e+00	 7.259259e+00	 1.004335e+01
0	 7.777778e+00	 7.333333e+00	 1.004160e+01
0	 7.777778e+00	 7.407407e+00	 1.003986e+01
0	 7.407407e+00	 7.407407e+00	 1.004900e+01
0	 7.407407e+00	 7.481481e+00	 1.004680e+01
0	 7.407407e+00	 7.555556e+00	 1.004463e+01
0	 7.407407e+00	 7.629630e+00	 1.004248e+01
0	 7.407407e+00	 7.703704e+00	 1.004035e+01
0	 7.407407e+00	 7.777778e+00	 1.003824e+01
0	 7.481481e+00	 7.407407e+00	 1.004717e+01
0	 7.481481e+00	 7.481481e+00	 1.004506e+01
0	 7.481481e+00	 7.555556e+00	 1.004298e+01
0	 7.481481e+00	 7.629630e+00	 1.004092e+01
0	 7.481481e+00	 7.703704e+00	 1.003888e+01
0	 7.481481e+00	 7.777778e+00	 1.003685e+01
0	 7.555556e+00	 7.407407e+00	 1.004534e+01
0	 7.555556e+00	 7.481481e+00	 1.004332e+01
0	 7.555556e+00	 7.555556e+00	 1.004133e+01
0	 7.555556e+00	 7.629630e+00	 1.003936e+01
0	 7.555556e+00	 7.703704e+00	 1.003740e+01
0	 7.555556e+00	 7.777778e+00	 1.003546e+01
0	 7.629630e+00	 7.407407e+00	 1.004351e+01
0	 7.629630e+00	 7.481481e+00	 1.004158e+01
0	 7.629630e+00	 7.555556e+00	 1.003968e+01
0	 7.629630e+00	 7.629630e+00	 1.003780e+01
0	 7.629630e+00	 7.703704e+00	 1.003593e+01
0	 7.629630e+00	 7.777778e+00	 1.003407e+01
0	 7.703704e+00	 7.407407e+00	 1.004168e+01
0	 7.703704e+00	 7.481481e+00	 1.003985e+01
0	 7.703704e+00	 7.555556e+00	 1.003804e+01
0	 7.703704e+00	 7.629630e+00	 1.003624e+01
0	 7.703704e+00	 7.703704e+00	 1.003445e+01
0	 7.703704e+00	 7.777778e+00	 1.003268e+01
0	 7.777778e+00	 7.407407e+00	 1.003986e+01
0	 7.777778e+00	 7.481481e+00	 1.003812e+01
0	 7.777778e+00	 7.555556e+00	 1.003640e+01
0	 7.777778e+00	 7.629630e+00	 1.003469e+01
0	 7.777778e+00	 7.703704e+00	 1.003299e+01
0	 7.777778e+00	 7.777778e+00	 1.003129e+01
0	 7.407407e+00	 7.777778e+00	 1.003824e+01
0	 7.407407e+00	 7.851852e+00	 1.003616e+01
0	 7.407407e+00	 7.925926e+00	 1.003412e+01
0	 7.407407e+00	 8.000000e+00	 1.003211e+01
0	 7.407407e+00	 8.074074e+00	 1.003013e+01
0	 7.407407e+00	 8.148148e+00	 1.002819e+01
0	 7.481481e+00	 7.777778e+00	 1.003685e+01
0	 7.481481e+00	 7.851852e+00	 1.003485e+01
0	 7.481481e+00	 7.925926e+00	 1.003289e+01
0	 7.481481e+00	 8.000000e+00	 1.003096e+01
0	 7.481481e+00	 8.074074e+00	 1.002906e+01
0	 7.481481e+00	 8.148148e+00	 1.002719e+01
0	 7.555556e+00	 7.777778e+00	 1.003546e+01
0	 7.555556e+00	 7.851852e+00	 1.003354e+01
0	 7.555556e+00	 7.925926e+00	 1.003166e+01
0	 7.555556e+00	 8.000000e+00	 1.002981e+01
0	 7.555556e+00	 8.074074e+00	 1.002798e+01
0	 7.555556e+00	 8.148148e+00	 1.002618e+01
0	 7.629630e+00	 7.777778e+00	 1.003407e+01
0	 7.629630e+00	 7.851852e+00	 1.003223e+01
0	 7.629630e+00	 7.925926e+00	 1.003043e+01
0	 7.629630e+00	 8.000000e+00	 1.002865e+01
0	 7.629630e+00	 8.074074e+00	 1.002690e+01
0	 7.629630e+00	 8.148148e+00	 1.002517e+01
0	 7.703704e+00	 7.777778e+00	 1.003268e+01
0	 7.703704e+00	 7.851852e+00	 1.003092e+01
0	 7.703704e+00	 7.925926e+00	 1.002920e+01
0	 7.703704e+00	 8.000000e+00	 1.002750e+01
0	 7.703704e+00	 8.074074e+00	 1.002582e+01
0	 7.703704e+00	 8.148148e+00	 1.002417e+01
0	 7.777778e+00	 7.777778e+00	 1.003129e+01
0	 7.777778e+00	 7.851852e+00	 1.002962e+01
0	 7.777778e+00	 7.925926e+00	 1.002797e+01
0	 7.777778e+00	 8.000000e+00	 1.002635e+01
0	 7.777778e+00	 8.074074e+00	 1.002475e+01
0	 7.777778e+00	 8.148148e+00	 1.002316e+01
0	 7.407407e+00	 8.148148e+00	 1.002819e+01
0	 7.407407e+00	 8.222222e+00	 1.002628e+01
0	 7.407407e+00	 8.296296e+00	 1.002443e+01
0	 7.407407e+00	 8.370370e+00	 1.002262e+01
0	 7.407407e+00	 8.444444e+00	 1.002086e+01
0	 7.407407e+00	 8.518519e+00	 1.001914e+01
0	 7.481481e+00	 8.148148e+00	 1.002719e+01
0	 7.481481e+00	 8.222222e+00	 1.002535e+01
0	 7.481481e+00	 8.296296e+00	 1.002356e+01
0	 7.481481e+00	 8.370370e+00	 1.002182e+01
0	 7.481481e+00	 8.444444e+00	 1.002013e+01
0	 7.481481e+00	 8.518519e+00	 1.001847e+01
0	 7.555556e+00	 8.148148e+00	 1.002618e+01
0	 7.555556e+00	 8.222222e+00	 1.002442e+01
0	 7.555556e+00	 8.296296e+00	 1.002270e+01
0	 7.555556e+00	 8.370370e+00	 1.002102e+01
0	 7.555556e+00	 8.444444e+00	 1.001939e+01
0	 7.555556e+00	 8.518519e+00	 1.001779e+01
0	 7.629630e+00	 8.148148e+00	 1.002517e+01
0	 7.629630e+00	 8.222222e+00	 1.002348e+01
0	 7.629630e+00	 8.296296e+00	 1.002183e+01
0	 7.629630e+00	 8.370370e+00	 1.002022e+01
0	 7.629630e+00	 8.444444e+00	 1.001865e+01
0	 7.629630e+00	 8.518519e+00	 1.001711e+01
0	 7.703704e+00	 8.148148e+00	 1.002417e+01
0	 7.703704e+00	 8.222222e+00	 1.002254e+01
0	 7.703704e+00	 8.296296e+00	 1.002096e+01
0	 7.703704e+00	 8.370370e+00	 1.001942e+01
0	 7.703704e+00	 8.444444e+00	 1.001791e+01
0	 7.703704e+00	 8.518519e+00	 1.001644e+01
0	 7.777778e+00	 8.148148e+00	 1.002316e+01
0	 7.777778e+00	 8.222222e+00	 1.002161e+01
0	 7.777778e+00	 8.296296e+00	 1.002010e+01
0	 7.777778e+00	 8.370370e+00	 1.001862e+01
0	 7.777778e+00	 8.444444e+00	 1.001718e+01
0	 7.777778e+00	 8.518519e+00	 1.001577e+01
0	 7.407407e+00	 8.518519e+00	 1.001914e+01
0	 7.407407e+00	 8.592593e+00	 1.001747e+01
0	 7.407407e+00	 8.666667e+00	 1.001587e+01
0	 7.407407e+00	 8.740741e+00	 1.001432e+01
0	 7.407407e+00	 8.814815e+00	 1.001284e+01
0	 7.407407e+00	 8.888889e+00	 1.001141e+01
0	 7.481481e+00	 8.518519e+00	 1.001847e+01
0	 7.481481e+00	 8.592593e+00	 1.001686e+01
0	 7.481481e+00	 8.666667e+00	 1.001531e+01
0	 7.481481e+00	 8.740741e+00	 1.001382e+01
0	 7.481481e+00	 8.814815e+00	 1.001239e+01
0	 7.481481e+00	 8.888889e+00	 1.001101e+01
0	 7.555556e+00	 8.518519e+00	 1.001779e+01
0	 7.555556e+00	 8.592593e+00	 1.001624e+01
0	 7.555556e+00	 8.666667e+00	 1.001475e+01
0	 7.555556e+00	 8.740741e+00	 1.001332e+01
0	 7.555556e+00	 8.814815e+00	 1.001194e+01
0	 7.555556e+00	 8.888889e+00	 1.001061e+01
0	 7.629630e+00	 8.518519e+00	 1.001711e+01
0	 7.629630e+00	 8.592593e+00	 1.001562e+01
0	 7.629630e+00	 8.666667e+00	 1.001419e+01
0	 7.629630e+00	 8.740741e+00	 1.001281e+01
0	 7.629630e+00	 8.814815e+00	 1.001149e+01
0	 7.629630e+00	 8.888889e+00	 1.001021e+01
0	 7.703704e+00	 8.518519e+00	 1.001644e+01
0	 7.703704e+00	 8.592593e+00	 1.001501e+01
0	 7.703704e+00	 8.666667e+00	 1.001363e+01
0	 7.703704e+00	 8.740741e+00	 1.001231e+01
0	 7.703704e+00	 8.814815e+00	 1.001104e+01
0	 7.703704e+00	 8.888889e+00	 1.000981e+01
0	 7.777778e+00	 8.518519e+00	 1.001577e+01
0	 7.777778e+00	 8.592593e+00	 1.001440e+01
0	 7.777778e+00	 8.666667e+00	 1.001308e+01
0	 7.777778e+00	 8.740741e+00	 1.001181e+01
0	 7.777778e+00	 8.814815e+00	 1.001059e+01
0	 7.777778e+00	 8.888889e+00	 1.000941e+01
0	 7.407407e+00	 8.888889e+00	 1.001141e+01
0	 7.407407e+00	 8.962963e+00	 1.001005e+01
0	 7.407407e+00	 9.037037e+00	 1.000877e+01
0	 7.407407e+00	 9.111111e+00	 1.000757e+01
0	 7.407407e+00	 9.185185e+00	 1.000643e+01
0	 7.407407e+00	 9.259259e+00	 1.000537e+01
0	 7.481481e+00	 8.888889e+00	 1.001101e+01
0	 7.481481e+00	 8.962963e+00	 1.000970e+01
0	 7.481481e+00	 9.037037e+00	 1.000846e+01
0	 7.481481e+00	 9.111111e+00	 1.000730e+01
0	 7.481481e+00	 9.185185e+00	 1.000621e+01
0	 7.481481e+00	 9.259259e+00	 1.000518e+01
0	 7.555556e+00	 8.888889e+00	 1.001061e+01
0	 7.555556e+00	 8.962963e+00	 1.000935e+01
0	 7.555556e+00	 9.037037e+00	 1.000815e+01
0	 7.555556e+00	 9.111111e+00	 1.000703e+01
0	 7.555556e+00	 9.185185e+00	 1.000598e+01
0	 7.555556e+00	 9.259259e+00	 1.000499e+01
0	 7.629630e+00	 8.888889e+00	 1.001021e+01
0	 7.629630e+00	 8.962963e+00	 1.000899e+01
0	 7.629630e+00	 9.037037e+00	 1.000784e+01
0	 7.629630e+00	 9.111111e+00	 1.000677e+01
0	 7.629630e+00	 9.185185e+00	 1.000575e+01
0	 7.629630e+00	 9.259259e+00	 1.000480e+01
0	 7.703704e+00	 8.888889e+00	 1.000981e+01
0	 7.703704e+00	 8.962963e+00	 1.000864e+01
0	 7.703704e+00	 9.037037e+00	 1.000754e+01
0	 7.703704e+00	 9.111111e+00	 1.000650e+01
0	 7.703704e+00	 9.185185e+00	 1.000553e+01
0	 7.703704e+00	 9.259259e+00	 1.000461e+01
0	 7.777778e+00	 8.888889e+00	 1.000941e+01
0	 7.777778e+00	 8.962963e+00	 1.000829e+01
0	 7.777778e+00	 9.037037e+00	 1.000723e+01
0	 7.777778e+00	 9.111111e+00	 1.000624e+01
0	 7.777778e+00	 9.185185e+00	 1.000530e+01
0	 7.777778e+00	 9.259259e+00	 1.000443e+01
0	 7.407407e+00	 9.259259e+00	 1.000537e+01
0	 7.407407e+00	 9.333333e+00	 1.000439e+01
0	 7.407407e+00	 9.407407e+00	 1.000351e+01
0	 7.407407e+00	 9.481481e+00	 1.000273e+01
0	 7.407407e+00	 9.555556e+00	 1.000203e+01
0	 7.407407e+00	 9.629630e+00	 1.000142e+01
0	 7.481481e+00	 9.259259e+00	 1.000518e+01
0	 7.481481e+00	 9.333333e+00	 1.000424e+01
0	 7.481481e+00	 9.407407e+00	 1.000339e+01
0	 7.481481e+00	 9.481481e+00	 1.000263e+01
0	 7.481481e+00	 9.555556e+00	 1.000196e+01
0	 7.481481e+00	 9.629630e+00	 1.000137e+01
0	 7.555556e+00	 9.259259e+00	 1.000499e+01
0	 7.555556e+00	 9.333333e+00	 1.000408e+01
0	 7.555556e+00	 9.407407e+00	 1.000326e+01
0	 7.555556e+00	 9.481481e+00	 1.000253e+01
0	 7.555556e+00	 9.555556e+00	 1.000189e+01
0	 7.555556e+00	 9.629630e+00	 1.000132e+01
0	 7.629630e+00	 9.259259e+00	 1.000480e+01
0	 7.629630e+00	 9.333333e+00	 1.000393e+01
0	 7.629630e+00	 9.407407e+00	 1.000314e+01
0	 7.629630e+00	 9.481481e+00	 1.000244e+01
0	 7.629630e+00	 9.555556e+00	 1.000181e+01
0	 7.629630e+00	 9.629630e+00	 1.000127e+01
0	 7.703704e+00	 9.259259e+00	 1.000461e+01
0	 7.703704e+00	 9.333333e+00	 1.000377e+01
0	 7.703704e+00	 9.407407e+00	 1.000301e+01
0	 7.703704e+00	 9.481481e+00	 1.000234e+01
0	 7.703704e+00	 9.555556e+00	 1.000174e+01
0	 7.703704e+00	 9.629630e+00	 1.000122e+01
0	 7.777778e+00	 9.259259e+00	 1.000443e+01
0	 7.777778e+00	 9.333333e+00	 1.000362e+01
0	 7.777778e+00	 9.407407e+00	 1.000289e+01
0	 7.777778e+00	 9.481481e+00	 1.000225e+01
0	 7.777778e+00	 9.555556e+00	 1.000167e+01
0	 7.777778e+00	 9.629630e+00	 1.000117e+01
0	 7.407407e+00	 9.629630e+00	 1.000142e+01
0	 7.407407e+00	 9.703704e+00	 1.000091e+01
0	 7.407407e+00	 9.777778e+00	 1.000052e+01
0	 7.407407e+00	 9.851852e+00	 1.000024e+01
0	 7.407407e+00	 9.925926e+00	 1.000006e+01
0	 7.407407e+00	 1.000000e+01	 9.999990e+00
0	 7.481481e+00	 9.629630e+00	 1.000137e+01
0	 7.481481e+00	 9.703704e+00	 1.000088e+01
0	 7.481481e+00	 9.777778e+00	 1.000050e+01
0	 7.481481e+00	 9.851852e+00	 1.000023e+01
0	 7.481481e+00	 9.925926e+00	 1.000006e+01
0	 7.481481e+00	 1.000000e+01	 9.999993e+00
0	 7.555556e+00	 9.629630e+00	 1.000132e+01
0	 7.555556e+00	 9.703704e+00	 1.000085e+01
0	 7.555556e+00	 9.777778e+00	 1.000048e+01
0	 7.555556e+00	 9.851852e+00	 1.000022e+01
0	 7.555556e+00	 9.925926e+00	 1.000006e+01
0	 7.555556e+00	 1.000000e+01	 9.999992e+00
0	 7.629630e+00	 9.629630e+00	 1.000127e+01
0	 7.629630e+00	 9.703704e+00	 1.000081e+01
0	 7.629630e+00	 9.777778e+00	 1.000046e+01
0	 7.629630e+00	 9.851852e+00	 1.000021e+01
0	 7.629630e+00	 9.925926e+00	 1.000005e+01
0	 7.629630e+00	 1.000000e+01	 9.999990e+00
0	 7.703704e+00	 9.629630e+00	 1.000122e+01
0	 7.703704e+00	 9.703704e+00	 1.000078e+01
0	 7.703704e+00	 9.777778e+00	 1.000044e+01
0	 7.703704e+00	 9.851852e+00	 1.000020e+01
0	 7.703704e+00	 9.925926e+00	 1.000005e+01
0	 7.703704e+00	 1.000000e+01	 9.999989e+00
0	 7.777778e+00	 9.629630e+00	 1.000117e+01
0	 7.777778e+00	 9.703704e+00	 1.000075e+01
0	 7.777778e+00	 9.777778e+00	 1.000043e+01
0	 7.777778e+00	 9.851852e+00	 1.000020e+01
0	 7.777778e+00	 9.925926e+00	 1.000005e+01
0	 7.777778e+00	 1.000000e+01	 9.999992e+00
0	 7.777778e+00	 0.000000e+00	 9.997921e+00
0	 7.777778e+00	 7.407407e-02	 9.997996e+00
0	 7.777778e+00	 1.481481e-01	 9.998213e+00
0	 7.777778e+00	 2.222222e-01	 9.998574e+00
0	 7.777778e+00	 2.962963e-01	 9.999079e+00
0	 7.777778e+00	 3.703704e-01	 9.999730e+00
0	 7.851852e+00	 0.000000e+00	 9.989243e+00
0	 7.851852e+00	 7.407407e-02	 9.989318e+00
0	 7.851852e+00	 1.481481e-01	 9.989532e+00
0	 7.851852e+00	 2.222222e-01	 9.989887e+00
0	 7.851852e+00	 2.962963e-01	 9.990384e+00
0	 7.851852e+00	 3.703704e-01	 9.991025e+00
0	 7.925926e+00	 0.000000e+00	 9.980472e+00
0	 7.925926e+00	 7.407407e-02	 9.980545e+00
0	 7.925926e+00	 1.481481e-01	 9.980756e+00
0	 7.925926e+00	 2.222222e-01	 9.981106e+00
0	 7.925926e+00	 2.962963e-01	 9.981597e+00
0	 7.925926e+00	 3.703704e-01	 9.982228e+00
0	 8.000000e+00	 0.000000e+00	 9.971597e+00
0	 8.000000e+00	 7.407407e-02	 9.971668e+00
0	 8.000000e+00	 1.481481e-01	 9.971876e+00
0	 8.000000e+00	 2.222222e-01	 9.972222e+00
0	 8.000000e+00	 2.962963e-01	 9.972706e+00
0	 8.000000e+00	 3.703704e-01	 9.973331e+00
0	 8.074074e+00	 0.000000e+00	 9.962606e+00
0	 8.074074e+00	 7.407407e-02	 9.962676e+00
0	 8.074074e+00	 1.481481e-01	 9.962881e+00
0	 8.074074e+00	 2.222222e-01	 9.963223e+00
0	 8.074074e+00	 2.962963e-01	 9.963704e+00
0	 8.074074e+00	 3.703704e-01	 9.964323e+00
0	 8.148148e+00	 0.000000e+00	 9.953490e+00
0	 8.148148e+00	 7.407407e-02	 9.953558e+00
0	 8.148148e+00	 1.481481e-01	 9.953762e+00
0	 8.148148e+00	 2.222222e-01	 9.954102e+00
0	 8.148148e+00	 2.962963e-01	 9.954579e+00
0	 8.148148e+00	 3.703704e-01	 9.955195e+00
0	 7.777778e+00	 3.703704e-01	 9.999730e+00
0	 7.777778e+00	 4.444444e-01	 1.000052e+01
0	 7.777778e+00	 5.185185e-01	 1.000143e+01
0	 7.777778e+00	 5.925926e-01	 1.000247e+01
0	 7.777778e+00	 6.666667e-01	 1.000364e+01
0	 7.777778e+00	 7.407407e-01	 1.000496e+01
0	 7.851852e+00	 3.703704e-01	 9.991025e+00
0	 7.851852e+00	 4.444444e-01	 9.991798e+00
0	 7.851852e+00	 5.185185e-01	 9.992696e+00
0	 7.851852e+00	 5.925926e-01	 9.993722e+00
0	 7.851852e+00	 6.666667e-01	 9.994880e+00
0	 7.851852e+00	 7.407407e-01	 9.996172e+00
0	 7.925926e+00	 3.703704e-01	 9.982228e+00
0	 7.925926e+00	 4.444444e-01	 9.982992e+00
0	 7.925926e+00	 5.185185e-01	 9.983878e+00
0	 7.925926e+00	 5.925926e-01	 9.984892e+00
0	 7.925926e+00	 6.666667e-01	 9.986035e+00
0	 7.925926e+00	 7.407407e-01	 9.987312e+00
0	 8.000000e+00	 3.703704e-01	 9.973331e+00
0	 8.000000e+00	 4.444444e-01	 9.974086e+00
0	 8.000000e+00	 5.185185e-01	 9.974964e+00
0	 8.000000e+00	 5.925926e-01	 9.975968e+00
0	 8.000000e+00	 6.666667e-01	 9.977101e+00
0	 8.000000e+00	 7.407407e-01	 9.978365e+00
0	 8.074074e+00	 3.703704e-01	 9.964323e+00
0	 8.074074e+00	 4.444444e-01	 9.965072e+00
0	 8.074074e+00	 5.185185e-01	 9.965944e+00
0	 8.074074e+00	 5.925926e-01	 9.966941e+00
0	 8.074074e+00	 6.666667e-01	 9.968066e+00
0	 8.074074e+00	 7.407407e-01	 9.969321e+00
0	 8.148148e+00	 3.703704e-01	 9.955195e+00
0	 8.148148e+00	 4.444444e-01	 9.955940e+00
0	 8.148148e+00	 5.185185e-01	 9.956808e+00
0	 8.148148e+00	 5.925926e-01	 9.957800e+00
0	 8.148148e+00	 6.666667e-01	 9.958920e+00
0	 8.148148e+00	 7.407407e-01	 9.960170e+00
0	 7.777778e+00	 7.407407e-01	 1.000496e+01
0	 7.777778e+00	 8.148148e-01	 1.000638e+01
0	 7.777778e+00	 8.888889e-01	 1.000791e+01
0	 7.777778e+00	 9.629630e-01	 1.000954e+01
0	 7.777778e+00	 1.037037e+00	 1.001127e+01
0	 7.777778e+00	 1.111111e+00	 1.001312e+01
0	 7.851852e+00	 7.407407e-01	 9.996172e+00
0	 7.851852e+00	 8.148148e-01	 9.997580e+00
0	 7.851852e+00	 8.888889e-01	 9.999084e+00
0	 7.851852e+00	 9.629630e-01	 1.000069e+01
0	 7.851852e+00	 1.037037e+00	 1.000240e+01
0	 7.851852e+00	 1.111111e+00	 1.000423e+01
0	 7.925926e+00	 7.407407e-01	 9.987312e+00
0	 7.925926e+00	 8.148148e-01	 9.988703e+00
0	 7.925926e+00	 8.888889e-01	 9.990191e+00
0	 7.925926e+00	 9.629630e-01	 9.991780e+00
0	 7.925926e+00	 1.037037e+00	 9.993477e+00
0	 7.925926e+00	 1.111111e+00	 9.995285e+00
0	 8.000000e+00	 7.407407e-01	 9.978365e+00
0	 8.000000e+00	 8.148148e-01	 9.979743e+00
0	 8.000000e+00	 8.888889e-01	 9.981219e+00
0	 8.000000e+00	 9.629630e-01	 9.982796e+00
0	 8.000000e+00	 1.037037e+00	 9.984481e+00
0	 8.000000e+00	 1.111111e+00	 9.986276e+00
0	 8.074074e+00	 7.407407e-01	 9.969321e+00
0	 8.074074e+00	 8.148148e-01	 9.970690e+00
0	 8.074074e+00	 8.888889e-01	 9.972158e+00
0	 8.074074e+00	 9.629630e-01	 9.973727e+00
0	 8.074074e+00	 1.037037e+00	 9.975404e+00
0	 8.074074e+00	 1.111111e+00	 9.977192e+00
0	 8.148148e+00	 7.407407e-01	 9.960170e+00
0	 8.148148e+00	 8.148148e-01	 9.961534e+00
0	 8.148148e+00	 8.888889e-01	 9.962997e+00
0	 8.148148e+00	 9.629630e-01	 9.964563e+00
0	 8.148148e+00	 1.037037e+00	 9.966236e+00
0	 8.148148e+00	 1.111111e+00	 9.968021e+00
0	 7.777778e+00	 1.111111e+00	 1.001312e+01
0	 7.777778e+00	 1.185185e+00	 1.001505e+01
0	 7.777778e+00	 1.259259e+00	 1.001705e+01
0	 7.777778e+00	 1.333333e+00	 1.001911e+01
0	 7.777778e+00	 1.407407e+00	 1.002125e+01
0	 7.777778e+00	 1.481481e+00	 1.002347e+01
0	 7.851852e+00	 1.111111e+00	 1.000423e+01
0	 7.851852e+00	 1.185185e+00	 1.000614e+01
0	 7.851852e+00	 1.259259e+00	 1.000812e+01
0	 7.851852e+00	 1.333333e+00	 1.001016e+01
0	 7.851852e+00	 1.407407e+00	 1.001228e+01
0	 7.851852e+00	 1.481481e+00	 1.001448e+01
0	 7.925926e+00	 1.111111e+00	 9.995285e+00
0	 7.925926e+00	 1.185185e+00	 9.997181e+00
0	 7.925926e+00	 1.259259e+00	 9.999141e+00
0	 7.925926e+00	 1.333333e+00	 1.000117e+01
0	 7.925926e+00	 1.407407e+00	 1.000328e+01
0	 7.925926e+00	 1.481481e+00	 1.000547e+01
0	 8.000000e+00	 1.111111e+00	 9.986276e+00
0	 8.000000e+00	 1.185185e+00	 9.988160e+00
0	 8.000000e+00	 1.259259e+00	 9.990110e+00
0	 8.000000e+00	 1.333333e+00	 9.992131e+00
0	 8.000000e+00	 1.407407e+00	 9.994229e+00
0	 8.000000e+00	 1.481481e+00	 9.996410e+00
0	 8.074074e+00	 1.111111e+00	 9.977192e+00
0	 8.074074e+00	 1.185185e+00	 9.979068e+00
0	 8.074074e+00	 1.259259e+00	 9.981013e+00
0	 8.074074e+00	 1.333333e+00	 9.983030e+00
0	 8.074074e+00	 1.407407e+00	 9.985125e+00
0	 8.074074e+00	 1.481481e+00	 9.987304e+00
0	 8.148148e+00	 1.111111e+00	 9.968021e+00
0	 8.148148e+00	 1.185185e+00	 9.969895e+00
0	 8.148148e+00	 1.259259e+00	 9.971839e+00
0	 8.148148e+00	 1.333333e+00	 9.973858e+00
0	 8.148148e+00	 1.407407e+00	 9.975956e+00
0	 8.148148e+00	 1.481481e+00	 9.978138e+00
0	 7.777778e+00	 1.481481e+00	 1.002347e+01
0	 7.777778e+00	 1.555556e+00	 1.002574e+01
0	 7.777778e+00	 1.629630e+00	 1.002804e+01
0	 7.777778e+00	 1.703704e+00	 1.003036e+01
0	 7.777778e+00	 1.777778e+00	 1.003272e+01
0	 7.777778e+00	 1.851852e+00	 1.003512e+01
0	 7.851852e+00	 1.481481e+00	 1.001448e+01
0	 7.851852e+00	 1.555556e+00	 1.001674e+01
0	 7.851852e+00	 1.629630e+00	 1.001902e+01
0	 7.851852e+00	 1.703704e+00	 1.002133e+01
0	 7.851852e+00	 1.777778e+00	 1.002368e+01
0	 7.851852e+00	 1.851852e+00	 1.002607e+01
0	 7.925926e+00	 1.481481e+00	 1.000547e+01
0	 7.925926e+00	 1.555556e+00	 1.000771e+01
0	 7.925926e+00	 1.629630e+00	 1.000998e+01
0	 7.925926e+00	 1.703704e+00	 1.001229e+01
0	 7.925926e+00	 1.777778e+00	 1.001463e+01
0	 7.925926e+00	 1.851852e+00	 1.001702e+01
0	 8.000000e+00	 1.481481e+00	 9.996410e+00
0	 8.000000e+00	 1.555556e+00	 9.998648e+00
0	 8.000000e+00	 1.629630e+00	 1.000092e+01
0	 8.000000e+00	 1.703704e+00	 1.000322e+01
0	 8.000000e+00	 1.777778e+00	 1.000557e+01
0	 8.000000e+00	 1.851852e+00	 1.000797e+01
0	 8.074074e+00	 1.481481e+00	 9.987304e+00
0	 8.074074e+00	 1.555556e+00	 9.989542e+00
0	 8.074074e+00	 1.629630e+00	 9.991813e+00
0	 8.074074e+00	 1.703704e+00	 9.994124e+00
0	 8.074074e+00	 1.777778e+00	 9.996481e+00
0	 8.074074e+00	 1.851852e+00	 9.998888e+00
0	 8.148148e+00	 1.481481e+00	 9.978138e+00
0	 8.148148e+00	 1.555556e+00	 9.980381e+00
0	 8.148148e+00	 1.629630e+00	 9.982661e+00
0	 8.148148e+00	 1.703704e+00	 9.984984e+00
0	 8.148148e+00	 1.777778e+00	 9.987354e+00
0	 8.148148e+00	 1.851852e+00	 9.989777e+00
0	 7.777778e+00	 1.851852e+00	 1.003512e+01
0	 7.777778e+00	 1.925926e+00	 1.003753e+01
0	 7.777778e+00	 2.000000e+00	 1.003993e+01
0	 7.777778e+00	 2.074074e+00	 1.004232e+01
0	 7.777778e+00	 2.148148e+00	 1.004471e+01
0	 7.777778e+00	 2.222222e+00	 1.004710e+01
0	 7.851852e+00	 1.851852e+00	 1.002607e+01
0	 7.851852e+00	 1.925926e+00	 1.002848e+01
0	 7.851852e+00	 2.000000e+00	 1.003088e+01
0	 7.851852e+00	 2.074074e+00	 1.003328e+01
0	 7.851852e+00	 2.148148e+00	 1.003568e+01
0	 7.851852e+00	 2.222222e+00	 1.003808e+01
0	 7.925926e+00	 1.851852e+00	 1.001702e+01
0	 7.925926e+00	 1.925926e+00	 1.001944e+01
0	 7.925926e+00	 2.000000e+00	 1.002184e+01
0	 7.925926e+00	 2.074074e+00	 1.002425e+01
0	 7.925926e+00	 2.148148e+00	 1.002666e+01
0	 7.925926e+00	 2.222222e+00	 1.002908e+01
0	 8.000000e+00	 1.851852e+00	 1.000797e+01
0	 8.000000e+00	 1.925926e+00	 1.001039e+01
0	 8.000000e+00	 2.000000e+00	 1.001280e+01
0	 8.000000e+00	 2.074074e+00	 1.001522e+01
0	 8.000000e+00	 2.148148e+00	 1.001765e+01
0	 8.000000e+00	 2.222222e+00	 1.002010e+01
0	 8.074074e+00	 1.851852e+00	 9.998888e+00
0	 8.074074e+00	 1.925926e+00	 1.000132e+01
0	 8.074074e+00	 2.000000e+00	 1.000376e+01
0	 8.074074e+00	 2.074074e+00	 1.000620e+01
0	 8.074074e+00	 2.148148e+00	 1.000865e+01
0	 8.074074e+00	 2.222222e+00	 1.001112e+01
0	 8.148148e+00	 1.851852e+00	 9.989777e+00
0	 8.148148e+00	 1.925926e+00	 9.992228e+00
0	 8.148148e+00	 2.000000e+00	 9.994685e+00
0	 8.148148e+00	 2.074074e+00	 9.997151e+00
0	 8.148148e+00	 2.148148e+00	 9.999632e+00
0	 8.148148e+00	 2.222222e+00	 1.000213e+01
0	 7.777778e+00	 2.222222e+00	 1.004710e+01
0	 7.777778e+00	 2.296296e+00	 1.004948e+01
0	 7.777778e+00	 2.370370e+00	 1.005180e+01
0	 7.777778e+00	 2.444444e+00	 1.005409e+01
0	 7.777778e+00	 2.518519e+00	 1.005633e+01
0	 7.777778e+00	 2.592593e+00	 1.005855e+01
0	 7.851852e+00	 2.222222e+00	 1.003808e+01
0	 7.851852e+00	 2.296296e+00	 1.004047e+01
0	 7.851852e+00	 2.370370e+00	 1.004281e+01
0	 7.851852e+00	 2.444444e+00	 1.004512e+01
0	 7.851852e+00	 2.518519e+00	 1.004740e+01
0	 7.851852e+00	 2.592593e+00	 1.004965e+01
0	 7.925926e+00	 2.222222e+00	 1.002908e+01
0	 7.925926e+00	 2.296296e+00	 1.003149e+01
0	 7.925926e+00	 2.370370e+00	 1.003386e+01
0	 7.925926e+00	 2.444444e+00	 1.003620e+01
0	 7.925926e+00	 2.518519e+00	 1.003851e+01
0	 7.925926e+00	 2.592593e+00	 1.004079e+01
0	 8.000000e+00	 2.222222e+00	 1.002010e+01
0	 8.000000e+00	 2.296296e+00	 1.002253e+01
0	 8.000000e+00	 2.370370e+00	 1.002493e+01
0	 8.000000e+00	 2.444444e+00	 1.002730e+01
0	 8.000000e+00	 2.518519e+00	 1.002965e+01
0	 8.000000e+00	 2.592593e+00	 1.003197e+01
0	 8.074074e+00	 2.222222e+00	 1.001112e+01
0	 8.074074e+00	 2.296296e+00	 1.001358e+01
0	 8.074074e+00	 2.370370e+00	 1.001601e+01
0	 8.074074e+00	 2.444444e+00	 1.001842e+01
0	 8.074074e+00	 2.518519e+00	 1.002081e+01
0	 8.074074e+00	 2.592593e+00	 1.002319e+01
0	 8.148148e+00	 2.222222e+00	 1.000213e+01
0	 8.148148e+00	 2.296296e+00	 1.000463e+01
0	 8.148148e+00	 2.370370e+00	 1.000710e+01
0	 8.148148e+00	 2.444444e+00	 1.000956e+01
0	 8.148148e+00	 2.518519e+00	 1.001199e+01
0	 8.148148e+00	 2.592593e+00	 1.001442e+01
0	 7.777778e+00	 2.592593e+00	 1.005855e+01
0	 7.777778e+00	 2.666667e+00	 1.006071e+01
0	 7.777778e+00	 2.740741e+00	 1.006281e+01
0	 7.777778e+00	 2.814815e+00	 1.006483e+01
0	 7.777778e+00	 2.888889e+00	 1.006679e+01
0	 7.777778e+00	 2.962963e+00	 1.006869e+01
0	 7.851852e+00	 2.592593e+00	 1.004965e+01
0	 7.851852e+00	 2.666667e+00	 1.005185e+01
0	 7.851852e+00	 2.740741e+00	 1.005399e+01
0	 7.851852e+00	 2.814815e+00	 1.005606e+01
0	 7.851852e+00	 2.888889e+00	 1.005807e+01
0	 7.851852e+00	 2.962963e+00	 1.006003e+01
0	 7.925926e+00	 2.592593e+00	 1.004079e+01
0	 7.925926e+00	 2.666667e+00	 1.004304e+01
0	 7.925926e+00	 2.740741e+00	 1.004522e+01
0	 7.925926e+00	 2.814815e+00	 1.004734e+01
0	 7.925926e+00	 2.888889e+00	 1.004941e+01
0	 7.925926e+00	 2.962963e+00	 1.005143e+01
0	 8.000000e+00	 2.592593e+00	 1.003197e+01
0	 8.000000e+00	 2.666667e+00	 1.003426e+01
0	 8.000000e+00	 2.740741e+00	 1.003650e+01
0	 8.000000e+00	 2.814815e+00	 1.003868e+01
0	 8.000000e+00	 2.888889e+00	 1.004080e+01
0	 8.000000e+00	 2.962963e+00	 1.004288e+01
0	 8.074074e+00	 2.592593e+00	 1.002319e+01
0	 8.074074e+00	 2.666667e+00	 1.002553e+01
0	 8.074074e+00	 2.740741e+00	 1.002781e+01
0	 8.074074e+00	 2.814815e+00	 1.003005e+01
0	 8.074074e+00	 2.888889e+00	 1.003224e+01
0	 8.074074e+00	 2.962963e+00	 1.003439e+01
0	 8.148148e+00	 2.592593e+00	 1.001442e+01
0	 8.148148e+00	 2.666667e+00	 1.001681e+01
0	 8.148148e+00	 2.740741e+00	 1.001916e+01
0	 8.148148e+00	 2.814815e+00	 1.002146e+01
0	 8.148148e+00	 2.888889e+00	 1.002372e+01
0	 8.148148e+00	 2.962963e+00	 1.002594e+01
0	 7.777778e+00	 2.962963e+00	 1.006869e+01
0	 7.777778e+00	 3.037037e+00	 1.007052e+01
0	 7.777778e+00	 3.111111e+00	 1.007226e+01
0	 7.777778e+00	 3.185185e+00	 1.007391e+01
0	 7.777778e+00	 3.259259e+00	 1.007548e+01
0	 7.777778e+00	 3.333333e+00	 1.007696e+01
0	 7.851852e+00	 2.962963e+00	 1.006003e+01
0	 7.851852e+00	 3.037037e+00	 1.006192e+01
0	 7.851852e+00	 3.111111e+00	 1.006372e+01
0	 7.851852e+00	 3.185185e+00	 1.006545e+01
0	 7.851852e+00	 3.259259e+00	 1.006709e+01
0	 7.851852e+00	 3.333333e+00	 1.006866e+01
0	 7.925926e+00	 2.962963e+00	 1.005143e+01
0	 7.925926e+00	 3.037037e+00	 1.005338e+01
0	 7.925926e+00	 3.111111e+00	 1.005526e+01
0	 7.925926e+00	 3.185185e+00	 1.005705e+01
0	 7.925926e+00	 3.259259e+00	 1.005878e+01
0	 7.925926e+00	 3.333333e+00	 1.006043e+01
0	 8.000000e+00	 2.962963e+00	 1.004288e+01
0	 8.000000e+00	 3.037037e+00	 1.004491e+01
0	 8.000000e+00	 3.111111e+00	 1.004685e+01
0	 8.000000e+00	 3.185185e+00	 1.004872e+01
0	 8.000000e+00	 3.259259e+00	 1.005053e+01
0	 8.000000e+00	 3.333333e+00	 1.005226e+01
0	 8.074074e+00	 2.962963e+00	 1.003439e+01
0	 8.074074e+00	 3.037037e+00	 1.003648e+01
0	 8.074074e+00	 3.111111e+00	 1.003850e+01
0	 8.074074e+00	 3.185185e+00	 1.004045e+01
0	 8.074074e+00	 3.259259e+00	 1.004234e+01
0	 8.074074e+00	 3.333333e+00	 1.004416e+01
0	 8.148148e+00	 2.962963e+00	 1.002594e+01
0	 8.148148e+00	 3.037037e+00	 1.002810e+01
0	 8.148148e+00	 3.111111e+00	 1.003020e+01
0	 8.148148e+00	 3.185185e+00	 1.003223e+01
0	 8.148148e+00	 3.259259e+00	 1.003421e+01
0	 8.148148e+00	 3.333333e+00	 1.003612e+01
0	 7.777778e+00	 3.333333e+00	 1.007696e+01
0	 7.777778e+00	 3.407407e+00	 1.007836e+01
0	 7.777778e+00	 3.481481e+00	 1.007967e+01
0	 7.777778e+00	 3.555556e+00	 1.008087e+01
0	 7.777778e+00	 3.629630e+00	 1.008198e+01
0	 7.777778e+00	 3.703704e+00	 1.008300e+01
0	 7.851852e+00	 3.333333e+00	 1.006866e+01
0	 7.851852e+00	 3.407407e+00	 1.007014e+01
0	 7.851852e+00	 3.481481e+00	 1.007154e+01
0	 7.851852e+00	 3.555556e+00	 1.007283e+01
0	 7.851852e+00	 3.629630e+00	 1.007404e+01
0	 7.851852e+00	 3.703704e+00	 1.007516e+01
0	 7.925926e+00	 3.333333e+00	 1.006043e+01
0	 7.925926e+00	 3.407407e+00	 1.006200e+01
0	 7.925926e+00	 3.481481e+00	 1.006348e+01
0	 7.925926e+00	 3.555556e+00	 1.006487e+01
0	 7.925926e+00	 3.629630e+00	 1.006618e+01
0	 7.925926e+00	 3.703704e+00	 1.006740e+01
0	 8.000000e+00	 3.333333e+00	 1.005226e+01
0	 8.000000e+00	 3.407407e+00	 1.005392e+01
0	 8.000000e+00	 3.481481e+00	 1.005549e+01
0	 8.000000e+00	 3.555556e+00	 1.005698e+01
0	 8.000000e+00	 3.629630e+00	 1.005838e+01
0	 8.000000e+00	 3.703704e+00	 1.005970e+01
0	 8.074074e+00	 3.333333e+00	 1.004416e+01
0	 8.074074e+00	 3.407407e+00	 1.004591e+01
0	 8.074074e+00	 3.481481e+00	 1.004757e+01
0	 8.074074e+00	 3.555556e+00	 1.004916e+01
0	 8.074074e+00	 3.629630e+00	 1.005066e+01
0	 8.074074e+00	 3.703704e+00	 1.005209e+01
0	 8.148148e+00	 3.333333e+00	 1.003612e+01
0	 8.148148e+00	 3.407407e+00	 1.003796e+01
0	 8.148148e+00	 3.481481e+00	 1.003972e+01
0	 8.148148e+00	 3.555556e+00	 1.004140e+01
0	 8.148148e+00	 3.629630e+00	 1.004301e+01
0	 8.148148e+00	 3.703704e+00	 1.004454e+01
0	 7.777778e+00	 3.703704e+00	 1.008300e+01
0	 7.777778e+00	 3.777778e+00	 1.008392e+01
0	 7.777778e+00	 3.851852e+00	 1.008475e+01
0	 7.777778e+00	 3.925926e+00	 1.008547e+01
0	 7.777778e+00	 4.000000e+00	 1.008610e+01
0	 7.777778e+00	 4.074074e+00	 1.008663e+01
0	 7.851852e+00	 3.703704e+00	 1.007516e+01
0	 7.851852e+00	 3.777778e+00	 1.007619e+01
0	 7.851852e+00	 3.851852e+00	 1.007712e+01
0	 7.851852e+00	 3.925926e+00	 1.007796e+01
0	 7.851852e+00	 4.000000e+00	 1.007870e+01
0	 7.851852e+00	 4.074074e+00	 1.007934e+01
0	 7.925926e+00	 3.703704e+00	 1.006740e+01
0	 7.925926e+00	 3.777778e+00	 1.006853e+01
0	 7.925926e+00	 3.851852e+00	 1.006957e+01
0	 7.925926e+00	 3.925926e+00	 1.007051e+01
0	 7.925926e+00	 4.000000e+00	 1.007137e+01
0	 7.925926e+00	 4.074074e+00	 1.007213e+01
0	 8.000000e+00	 3.703704e+00	 1.005970e+01
0	 8.000000e+00	 3.777778e+00	 1.006094e+01
0	 8.000000e+00	 3.851852e+00	 1.006209e+01
0	 8.000000e+00	 3.925926e+00	 1.006315e+01
0	 8.000000e+00	 4.000000e+00	 1.006412e+01
0	 8.000000e+00	 4.074074e+00	 1.006499e+01
0	 8.074074e+00	 3.703704e+00	 1.005209e+01
0	 8.074074e+00	 3.777778e+00	 1.005343e+01
0	 8.074074e+00	 3.851852e+00	 1.005469e+01
0	 8.074074e+00	 3.925926e+00	 1.005586e+01
0	 8.074074e+00	 4.000000e+00	 1.005694e+01
0	 8.074074e+00	 4.074074e+00	 1.005794e+01
0	 8.148148e+00	 3.703704e+00	 1.004454e+01
0	 8.148148e+00	 3.777778e+00	 1.004599e+01
0	 8.148148e+00	 3.851852e+00	 1.004736e+01
0	 8.148148e+00	 3.925926e+00	 1.004864e+01
0	 8.148148e+00	 4.000000e+00	 1.004984e+01
0	 8.148148e+00	 4.074074e+00	 1.005095e+01
0	 7.777778e+00	 4.074074e+00	 1.008663e+01
0	 7.777778e+00	 4.148148e+00	 1.008706e+01
0	 7.777778e+00	 4.222222e+00	 1.008740e+01
0	 7.777778e+00	 4.296296e+00	 1.008765e+01
0	 7.777778e+00	 4.370370e+00	 1.008780e+01
0	 7.777778e+00	 4.444444e+00	 1.008785e+01
0	 7.851852e+00	 4.074074e+00	 1.007934e+01
0	 7.851852e+00	 4.148148e+00	 1.007990e+01
0	 7.851852e+00	 4.222222e+00	 1.008036e+01
0	 7.851852e+00	 4.296296e+00	 1.008073e+01
0	 7.851852e+00	 4.370370e+00	 1.008100e+01
0	 7.851852e+00	 4.444444e+00	 1.008118e+01
0	 7.925926e+00	 4.074074e+00	 1.007213e+01
0	 7.925926e+00	 4.148148e+00	 1.007280e+01
0	 7.925926e+00	 4.222222e+00	 1.007339e+01
0	 7.925926e+00	 4.296296e+00	 1.007388e+01
0	 7.925926e+00	 4.370370e+00	 1.007428e+01
0	 7.925926e+00	 4.444444e+00	 1.007459e+01
0	 8.000000e+00	 4.074074e+00	 1.006499e+01
0	 8.000000e+00	 4.148148e+00	 1.006579e+01
0	 8.000000e+00	 4.222222e+00	 1.006649e+01
0	 8.000000e+00	 4.296296e+00	 1.006710e+01
0	 8.000000e+00	 4.370370e+00	 1.006763e+01
0	 8.000000e+00	 4.444444e+00	 1.006806e+01
0	 8.074074e+00	 4.074074e+00	 1.005794e+01
0	 8.074074e+00	 4.148148e+00	 1.005885e+01
0	 8.074074e+00	 4.222222e+00	 1.005967e+01
0	 8.074074e+00	 4.296296e+00	 1.006041e+01
0	 8.074074e+00	 4.370370e+00	 1.006106e+01
0	 8.074074e+00	 4.444444e+00	 1.006162e+01
0	 8.148148e+00	 4.074074e+00	 1.005095e+01
0	 8.148148e+00	 4.148148e+00	 1.005199e+01
0	 8.148148e+00	 4.222222e+00	 1.005293e+01
0	 8.148148e+00	 4.296296e+00	 1.005379e+01
0	 8.148148e+00	 4.370370e+00	 1.005456e+01
0	 8.148148e+00	 4.444444e+00	 1.005525e+01
0	 7.777778e+00	 4.444444e+00	 1.008785e+01
0	 7.777778e+00	 4.518519e+00	 1.008781e+01
0	 7.777778e+00	 4.592593e+00	 1.008769e+01
0	 7.777778e+00	 4.666667e+00	 1.008748e+01
0	 7.777778e+00	 4.740741e+00	 1.008718e+01
0	 7.777778e+00	 4.814815e+00	 1.008680e+01
0	 7.851852e+00	 4.444444e+00	 1.008118e+01
0	 7.851852e+00	 4.518519e+00	 1.008128e+01
0	 7.851852e+00	 4.592593e+00	 1.008128e+01
0	 7.851852e+00	 4.666667e+00	 1.008121e+01
0	 7.851852e+00	 4.740741e+00	 1.008104e+01
0	 7.851852e+00	 4.814815e+00	 1.008079e+01
0	 7.925926e+00	 4.444444e+00	 1.007459e+01
0	 7.925926e+00	 4.518519e+00	 1.007481e+01
0	 7.925926e+00	 4.592593e+00	 1.007495e+01
0	 7.925926e+00	 4.666667e+00	 1.007500e+01
0	 7.925926e+00	 4.740741e+00	 1.007497e+01
0	 7.925926e+00	 4.814815e+00	 1.007485e+01
0	 8.000000e+00	 4.444444e+00	 1.006806e+01
0	 8.000000e+00	 4.518519e+00	 1.006841e+01
0	 8.000000e+00	 4.592593e+00	 1.006868e+01
0	 8.000000e+00	 4.666667e+00	 1.006886e+01
0	 8.000000e+00	 4.740741e+00	 1.006896e+01
0	 8.000000e+00	 4.814815e+00	 1.006897e+01
0	 8.074074e+00	 4.444444e+00	 1.006162e+01
0	 8.074074e+00	 4.518519e+00	 1.006209e+01
0	 8.074074e+00	 4.592593e+00	 1.006249e+01
0	 8.074074e+00	 4.666667e+00	 1.006280e+01
0	 8.074074e+00	 4.740741e+00	 1.006303e+01
0	 8.074074e+00	 4.814815e+00	 1.006317e+01
0	 8.148148e+00	 4.444444e+00	 1.005525e+01
0	 8.148148e+00	 4.518519e+00	 1.005585e+01
0	 8.148148e+00	 4.592593e+00	 1.005638e+01
0	 8.148148e+00	 4.666667e+00	 1.005682e+01
0	 8.148148e+00	 4.740741e+00	 1.005718e+01
0	 8.148148e+00	 4.814815e+00	 1.005745e+01
0	 7.777778e+00	 4.814815e+00	 1.008680e+01
0	 7.777778e+00	 4.888889e+00	 1.008633e+01
0	 7.777778e+00	 4.962963e+00	 1.008579e+01
0	 7.777778e+00	 5.037037e+00	 1.008517e+01
0	 7.777778e+00	 5.111111e+00	 1.008448e+01
0	 7.777778e+00	 5.185185e+00	 1.008371e+01
0	 7.851852e+00	 4.814815e+00	 1.008079e+01
0	 7.851852e+00	 4.888889e+00	 1.008046e+01
0	 7.851852e+00	 4.962963e+00	 1.008005e+01
0	 7.851852e+00	 5.037037e+00	 1.007957e+01
0	 7.851852e+00	 5.111111e+00	 1.007901e+01
0	 7.851852e+00	 5.185185e+00	 1.007838e+01
0	 7.925926e+00	 4.814815e+00	 1.007485e+01
0	 7.925926e+00	 4.888889e+00	 1.007465e+01
0	 7.925926e+00	 4.962963e+00	 1.007438e+01
0	 7.925926e+00	 5.037037e+00	 1.007403e+01
0	 7.925926e+00	 5.111111e+00	 1.007361e+01
0	 7.925926e+00	 5.185185e+00	 1.007310e+01
0	 8.000000e+00	 4.814815e+00	 1.006897e+01
0	 8.000000e+00	 4.888889e+00	 1.006891e+01
0	 8.000000e+00	 4.962963e+00	 1.006877e+01
0	 8.000000e+00	 5.037037e+00	 1.006855e+01
0	 8.000000e+00	 5.111111e+00	 1.006826e+01
0	 8.000000e+00	 5.185185e+00	 1.006789e+01
0	 8.074074e+00	 4.814815e+00	 1.006317e+01
0	 8.074074e+00	 4.888889e+00	 1.006324e+01
0	 8.074074e+00	 4.962963e+00	 1.006323e+01
0	 8.074074e+00	 5.037037e+00	 1.006314e+01
0	 8.074074e+00	 5.111111e+00	 1.006298e+01
0	 8.074074e+00	 5.185185e+00	 1.006274e+01
0	 8.148148e+00	 4.814815e+00	 1.005745e+01
0	 8.148148e+00	 4.888889e+00	 1.005764e+01
0	 8.148148e+00	 4.962963e+00	 1.005776e+01
0	 8.148148e+00	 5.037037e+00	 1.005781e+01
0	 8.148148e+00	 5.111111e+00	 1.005778e+01
0	 8.148148e+00	 5.185185e+00	 1.005767e+01
0	 7.777778e+00	 5.185185e+00	 1.008371e+01
0	 7.777778e+00	 5.259259e+00	 1.008286e+01
0	 7.777778e+00	 5.333333e+00	 1.008196e+01
0	 7.777778e+00	 5.407407e+00	 1.008100e+01
0	 7.777778e+00	 5.481481e+00	 1.007997e+01
0	 7.777778e+00	 5.555556e+00	 1.007887e+01
0	 7.851852e+00	 5.185185e+00	 1.007838e+01
0	 7.851852e+00	 5.259259e+00	 1.007767e+01
0	 7.851852e+00	 5.333333e+00	 1.007690e+01
0	 7.851852e+00	 5.407407e+00	 1.007607e+01
0	 7.851852e+00	 5.481481e+00	 1.007518e+01
0	 7.851852e+00	 5.555556e+00	 1.007421e+01
0	 7.925926e+00	 5.185185e+00	 1.007310e+01
0	 7.925926e+00	 5.259259e+00	 1.007253e+01
0	 7.925926e+00	 5.333333e+00	 1.007189e+01
0	 7.925926e+00	 5.407407e+00	 1.007120e+01
0	 7.925926e+00	 5.481481e+00	 1.007043e+01
0	 7.925926e+00	 5.555556e+00	 1.006960e+01
0	 8.000000e+00	 5.185185e+00	 1.006789e+01
0	 8.000000e+00	 5.259259e+00	 1.006745e+01
0	 8.000000e+00	 5.333333e+00	 1.006694e+01
0	 8.000000e+00	 5.407407e+00	 1.006638e+01
0	 8.000000e+00	 5.481481e+00	 1.006574e+01
0	 8.000000e+00	 5.555556e+00	 1.006504e+01
0	 8.074074e+00	 5.185185e+00	 1.006274e+01
0	 8.074074e+00	 5.259259e+00	 1.006243e+01
0	 8.074074e+00	 5.333333e+00	 1.006206e+01
0	 8.074074e+00	 5.407407e+00	 1.006162e+01
0	 8.074074e+00	 5.481481e+00	 1.006112e+01
0	 8.074074e+00	 5.555556e+00	 1.006054e+01
0	 8.148148e+00	 5.185185e+00	 1.005767e+01
0	 8.148148e+00	 5.259259e+00	 1.005749e+01
0	 8.148148e+00	 5.333333e+00	 1.005724e+01
0	 8.148148e+00	 5.407407e+00	 1.005693e+01
0	 8.148148e+00	 5.481481e+00	 1.005656e+01
0	 8.148148e+00	 5.555556e+00	 1.005611e+01
0	 7.777778e+00	 5.555556e+00	 1.007887e+01
0	 7.777778e+00	 5.629630e+00	 1.007771e+01
0	 7.777778e+00	 5.703704e+00	 1.007651e+01
0	 7.777778e+00	 5.777778e+00	 1.007526e+01
0	 7.777778e+00	 5.851852e+00	 1.007396e+01
0	 7.777778e+00	 5.925926e+00	 1.007261e+01
0	 7.851852e+00	 5.555556e+00	 1.007421e+01
0	 7.851852e+00	 5.629630e+00	 1.007319e+01
0	 7.851852e+00	 5.703704e+00	 1.007212e+01
0	 7.851852e+00	 5.777778e+00	 1.007100e+01
0	 7.851852e+00	 5.851852e+00	 1.006983e+01
0	 7.851852e+00	 5.925926e+00	 1.006860e+01
0	 7.925926e+00	 5.555556e+00	 1.006960e+01
0	 7.925926e+00	 5.629630e+00	 1.006871e+01
0	 7.925926e+00	 5.703704e+00	 1.006777e+01
0	 7.925926e+00	 5.777778e+00	 1.006678e+01
0	 7.925926e+00	 5.851852e+00	 1.006573e+01
0	 7.925926e+00	 5.925926e+00	 1.006463e+01
0	 8.000000e+00	 5.555556e+00	 1.006504e+01
0	 8.000000e+00	 5.629630e+00	 1.006428e+01
0	 8.000000e+00	 5.703704e+00	 1.006347e+01
0	 8.000000e+00	 5.777778e+00	 1.006260e+01
0	 8.000000e+00	 5.851852e+00	 1.006168e+01
0	 8.000000e+00	 5.925926e+00	 1.006070e+01
0	 8.074074e+00	 5.555556e+00	 1.006054e+01
0	 8.074074e+00	 5.629630e+00	 1.005991e+01
0	 8.074074e+00	 5.703704e+00	 1.005922e+01
0	 8.074074e+00	 5.777778e+00	 1.005848e+01
0	 8.074074e+00	 5.851852e+00	 1.005768e+01
0	 8.074074e+00	 5.925926e+00	 1.005683e+01
0	 8.148148e+00	 5.555556e+00	 1.005611e+01
0	 8.148148e+00	 5.629630e+00	 1.005560e+01
0	 8.148148e+00	 5.703704e+00	 1.005504e+01
0	 8.148148e+00	 5.777778e+00	 1.005442e+01
0	 8.148148e+00	 5.851852e+00	 1.005375e+01
0	 8.148148e+00	 5.925926e+00	 1.005301e+01
0	 7.777778e+00	 5.925926e+00	 1.007261e+01
0	 7.777778e+00	 6.000000e+00	 1.007121e+01
0	 7.777778e+00	 6.074074e+00	 1.006978e+01
0	 7.777778e+00	 6.148148e+00	 1.006831e+01
0	 7.777778e+00	 6.222222e+00	 1.006680e+01
0	 7.777778e+00	 6.296296e+00	 1.006525e+01
0	 7.851852e+00	 5.925926e+00	 1.006860e+01
0	 7.851852e+00	 6.000000e+00	 1.006733e+01
0	 7.851852e+00	 6.074074e+00	 1.006602e+01
0	 7.851852e+00	 6.148148e+00	 1.006467e+01
0	 7.851852e+00	 6.222222e+00	 1.006329e+01
0	 7.851852e+00	 6.296296e+00	 1.006186e+01
0	 7.925926e+00	 5.925926e+00	 1.006463e+01
0	 7.925926e+00	 6.000000e+00	 1.006348e+01
0	 7.925926e+00	 6.074074e+00	 1.006230e+01
0	 7.925926e+00	 6.148148e+00	 1.006107e+01
0	 7.925926e+00	 6.222222e+00	 1.005981e+01
0	 7.925926e+00	 6.296296e+00	 1.005850e+01
0	 8.000000e+00	 5.925926e+00	 1.006070e+01
0	 8.000000e+00	 6.000000e+00	 1.005968e+01
0	 8.000000e+00	 6.074074e+00	 1.005862e+01
0	 8.000000e+00	 6.148148e+00	 1.005751e+01
0	 8.000000e+00	 6.222222e+00	 1.005637e+01
0	 8.000000e+00	 6.296296e+00	 1.005518e+01
0	 8.074074e+00	 5.925926e+00	 1.005683e+01
0	 8.074074e+00	 6.000000e+00	 1.005593e+01
0	 8.074074e+00	 6.074074e+00	 1.005498e+01
0	 8.074074e+00	 6.148148e+00	 1.005400e+01
0	 8.074074e+00	 6.222222e+00	 1.005297e+01
0	 8.074074e+00	 6.296296e+00	 1.005189e+01
0	 8.148148e+00	 5.925926e+00	 1.005301e+01
0	 8.148148e+00	 6.000000e+00	 1.005223e+01
0	 8.148148e+00	 6.074074e+00	 1.005140e+01
0	 8.148148e+00	 6.148148e+00	 1.005053e+01
0	 8.148148e+00	 6.222222e+00	 1.004962e+01
0	 8.148148e+00	 6.296296e+00	 1.004866e+01
0	 7.777778e+00	 6.296296e+00	 1.006525e+01
0	 7.777778e+00	 6.370370e+00	 1.006368e+01
0	 7.777778e+00	 6.444444e+00	 1.006208e+01
0	 7.777778e+00	 6.518519e+00	 1.006046e+01
0	 7.777778e+00	 6.592593e+00	 1.005881e+01
0	 7.777778e+00	 6.666667e+00	 1.005714e+01
0	 7.851852e+00	 6.296296e+00	 1.006186e+01
0	 7.851852e+00	 6.370370e+00	 1.006040e+01
0	 7.851852e+00	 6.444444e+00	 1.005892e+01
0	 7.851852e+00	 6.518519e+00	 1.005742e+01
0	 7.851852e+00	 6.592593e+00	 1.005588e+01
0	 7.851852e+00	 6.666667e+00	 1.005432e+01
0	 7.925926e+00	 6.296296e+00	 1.005850e+01
0	 7.925926e+00	 6.370370e+00	 1.005716e+01
0	 7.925926e+00	 6.444444e+00	 1.005579e+01
0	 7.925926e+00	 6.518519e+00	 1.005440e+01
0	 7.925926e+00	 6.592593e+00	 1.005298e+01
0	 7.925926e+00	 6.666667e+00	 1.005153e+01
0	 8.000000e+00	 6.296296e+00	 1.005518e+01
0	 8.000000e+00	 6.370370e+00	 1.005395e+01
0	 8.000000e+00	 6.444444e+00	 1.005270e+01
0	 8.000000e+00	 6.518519e+00	 1.005142e+01
0	 8.000000e+00	 6.592593e+00	 1.005010e+01
0	 8.000000e+00	 6.666667e+00	 1.004876e+01
0	 8.074074e+00	 6.296296e+00	 1.005189e+01
0	 8.074074e+00	 6.370370e+00	 1.005078e+01
0	 8.074074e+00	 6.444444e+00	 1.004964e+01
0	 8.074074e+00	 6.518519e+00	 1.004847e+01
0	 8.074074e+00	 6.592593e+00	 1.004727e+01
0	 8.074074e+00	 6.666667e+00	 1.004603e+01
0	 8.148148e+00	 6.296296e+00	 1.004866e+01
0	 8.148148e+00	 6.370370e+00	 1.004766e+01
0	 8.148148e+00	 6.444444e+00	 1.004663e+01
0	 8.148148e+00	 6.518519e+00	 1.004556e+01
0	 8.148148e+00	 6.592593e+00	 1.004447e+01
0	 8.148148e+00	 6.666667e+00	 1.004334e+01
0	 7.777778e+00	 6.666667e+00	 1.005714e+01
0	 7.777778e+00	 6.740741e+00	 1.005545e+01
0	 7.777778e+00	 6.814815e+00	 1.005374e+01
0	 7.777778e+00	 6.888889e+00	 1.005203e+01
0	 7.777778e+00	 6.962963e+00	 1.005031e+01
0	 7.777778e+00	 7.037037e+00	 1.004857e+01
0	 7.851852e+00	 6.666667e+00	 1.005432e+01
0	 7.851852e+00	 6.740741e+00	 1.005274e+01
0	 7.851852e+00	 6.814815e+00	 1.005115e+01
0	 7.851852e+00	 6.888889e+00	 1.004954e+01
0	 7.851852e+00	 6.962963e+00	 1.004792e+01
0	 7.851852e+00	 7.037037e+00	 1.004628e+01
0	 7.925926e+00	 6.666667e+00	 1.005153e+01
0	 7.925926e+00	 6.740741e+00	 1.005005e+01
0	 7.925926e+00	 6.814815e+00	 1.004857e+01
0	 7.925926e+00	 6.888889e+00	 1.004707e+01
0	 7.925926e+00	 6.962963e+00	 1.004555e+01
0	 7.925926e+00	 7.037037e+00	 1.004401e+01
0	 8.000000e+00	 6.666667e+00	 1.004876e+01
0	 8.000000e+00	 6.740741e+00	 1.004739e+01
0	 8.000000e+00	 6.814815e+00	 1.004601e+01
0	 8.000000e+00	 6.888889e+00	 1.004461e+01
0	 8.000000e+00	 6.962963e+00	 1.004320e+01
0	 8.000000e+00	 7.037037e+00	 1.004176e+01
0	 8.074074e+00	 6.666667e+00	 1.004603e+01
0	 8.074074e+00	 6.740741e+00	 1.004477e+01
0	 8.074074e+00	 6.814815e+00	 1.004349e+01
0	 8.074074e+00	 6.888889e+00	 1.004219e+01
0	 8.074074e+00	 6.962963e+00	 1.004087e+01
0	 8.074074e+00	 7.037037e+00	 1.003954e+01
0	 8.148148e+00	 6.666667e+00	 1.004334e+01
0	 8.148148e+00	 6.740741e+00	 1.004218e+01
0	 8.148148e+00	 6.814815e+00	 1.004100e+01
0	 8.148148e+00	 6.888889e+00	 1.003980e+01
0	 8.148148e+00	 6.962963e+00	 1.003858e+01
0	 8.148148e+00	 7.037037e+00	 1.003734e+01
0	 7.777778e+00	 7.037037e+00	 1.004857e+01
0	 7.777778e+00	 7.111111e+00	 1.004683e+01
0	 7.777778e+00	 7.185185e+00	 1.004509e+01
0	 7.777778e+00	 7.259259e+00	 1.004335e+01
0	 7.777778e+00	 7.333333e+00	 1.004160e+01
0	 7.777778e+00	 7.407407e+00	 1.003986e+01
0	 7.851852e+00	 7.037037e+00	 1.004628e+01
0	 7.851852e+00	 7.111111e+00	 1.004464e+01
0	 7.851852e+00	 7.185185e+00	 1.004300e+01
0	 7.851852e+00	 7.259259e+00	 1.004135e+01
0	 7.851852e+00	 7.333333e+00	 1.003970e+01
0	 7.851852e+00	 7.407407e+00	 1.003805e+01
0	 7.925926e+00	 7.037037e+00	 1.004401e+01
0	 7.925926e+00	 7.111111e+00	 1.004247e+01
0	 7.925926e+00	 7.185185e+00	 1.004092e+01
0	 7.925926e+00	 7.259259e+00	 1.003937e+01
0	 7.925926e+00	 7.333333e+00	 1.003782e+01
0	 7.925926e+00	 7.407407e+00	 1.003625e+01
0	 8.000000e+00	 7.037037e+00	 1.004176e+01
0	 8.000000e+00	 7.111111e+00	 1.004031e+01
0	 8.000000e+00	 7.185185e+00	 1.003886e+01
0	 8.000000e+00	 7.259259e+00	 1.003741e+01
0	 8.000000e+00	 7.333333e+00	 1.003594e+01
0	 8.000000e+00	 7.407407e+00	 1.003447e+01
0	 8.074074e+00	 7.037037e+00	 1.003954e+01
0	 8.074074e+00	 7.111111e+00	 1.003818e+01
0	 8.074074e+00	 7.185185e+00	 1.003683e+01
0	 8.074074e+00	 7.259259e+00	 1.003546e+01
0	 8.074074e+00	 7.333333e+00	 1.003409e+01
0	 8.074074e+00	 7.407407e+00	 1.003271e+01
0	 8.148148e+00	 7.037037e+00	 1.003734e+01
0	 8.148148e+00	 7.111111e+00	 1.003608e+01
0	 8.148148e+00	 7.185185e+00	 1.003482e+01
0	 8.148148e+00	 7.259259e+00	 1.003355e+01
0	 8.148148e+00	 7.333333e+00	 1.003226e+01
0	 8.148148e+00	 7.407407e+00	 1.003097e+01
0	 7.777778e+00	 7.407407e+00	 1.003986e+01
0	 7.777778e+00	 7.481481e+00	 1.003812e+01
0	 7.777778e+00	 7.555556e+00	 1.003640e+01
0	 7.777778e+00	 7.629630e+00	 1.003469e+01
0	 7.777778e+00	 7.703704e+00	 1.003299e+01
0	 7.777778e+00	 7.777778e+00	 1.003129e+01
0	 7.851852e+00	 7.407407e+00	 1.003805e+01
0	 7.851852e+00	 7.481481e+00	 1.003640e+01
0	 7.851852e+00	 7.555556e+00	 1.003477e+01
0	 7.851852e+00	 7.629630e+00	 1.003314e+01
0	 7.851852e+00	 7.703704e+00	 1.003153e+01
0	 7.851852e+00	 7.777778e+00	 1.002992e+01
0	 7.925926e+00	 7.407407e+00	 1.003625e+01
0	 7.925926e+00	 7.481481e+00	 1.003469e+01
0	 7.925926e+00	 7.555556e+00	 1.003315e+01
0	 7.925926e+00	 7.629630e+00	 1.003161e+01
0	 7.925926e+00	 7.703704e+00	 1.003007e+01
0	 7.925926e+00	 7.777778e+00	 1.002854e+01
0	 8.000000e+00	 7.407407e+00	 1.003447e+01
0	 8.000000e+00	 7.481481e+00	 1.003300e+01
0	 8.000000e+00	 7.555556e+00	 1.003154e+01
0	 8.000000e+00	 7.629630e+00	 1.003008e+01
0	 8.000000e+00	 7.703704e+00	 1.002863e+01
0	 8.000000e+00	 7.777778e+00	 1.002718e+01
0	 8.074074e+00	 7.407407e+00	 1.003271e+01
0	 8.074074e+00	 7.481481e+00	 1.003132e+01
0	 8.074074e+00	 7.555556e+00	 1.002995e+01
0	 8.074074e+00	 7.629630e+00	 1.002857e+01
0	 8.074074e+00	 7.703704e+00	 1.002720e+01
0	 8.074074e+00	 7.777778e+00	 1.002584e+01
0	 8.148148e+00	 7.407407e+00	 1.003097e+01
0	 8.148148e+00	 7.481481e+00	 1.002967e+01
0	 8.148148e+00	 7.555556e+00	 1.002838e+01
0	 8.148148e+00	 7.629630e+00	 1.002708e+01
0	 8.148148e+00	 7.703704e+00	 1.002580e+01
0	 8.148148e+00	 7.777778e+00	 1.002451e+01
0	 7.777778e+00	 7.777778e+00	 1.003129e+01
0	 7.777778e+00	 7.851852e+00	 1.002962e+01
0	 7.777778e+00	 7.925926e+00	 1.002797e+01
0	 7.777778e+00	 8.000000e+00	 1.002635e+01
0	 7.777778e+00	 8.074074e+00	 1.002475e+01
0	 7.777778e+00	 8.148148e+00	 1.002316e+01
0	 7.851852e+00	 7.777778e+00	 1.002992e+01
0	 7.851852e+00	 7.851852e+00	 1.002832e+01
0	 7.851852e+00	 7.925926e+00	 1.002675e+01
0	 7.851852e+00	 8.000000e+00	 1.002520e+01
0	 7.851852e+00	 8.074074e+00	 1.002368e+01
0	 7.851852e+00	 8.148148e+00	 1.002217e+01
0	 7.925926e+00	 7.777778e+00	 1.002854e+01
0	 7.925926e+00	 7.851852e+00	 1.002703e+01
0	 7.925926e+00	 7.925926e+00	 1.002554e+01
0	 7.925926e+00	 8.000000e+00	 1.002407e+01
0	 7.925926e+00	 8.074074e+00	 1.002261e+01
0	 7.925926e+00	 8.148148e+00	 1.002117e+01
0	 8.000000e+00	 7.777778e+00	 1.002718e+01
0	 8.000000e+00	 7.851852e+00	 1.002575e+01
0	 8.000000e+00	 7.925926e+00	 1.002433e+01
0	 8.000000e+00	 8.000000e+00	 1.002293e+01
0	 8.000000e+00	 8.074074e+00	 1.002155e+01
0	 8.000000e+00	 8.148148e+00	 1.002018e+01
0	 8.074074e+00	 7.777778e+00	 1.002584e+01
0	 8.074074e+00	 7.851852e+00	 1.002448e+01
0	 8.074074e+00	 7.925926e+00	 1.002314e+01
0	 8.074074e+00	 8.000000e+00	 1.002181e+01
0	 8.074074e+00	 8.074074e+00	 1.002050e+01
0	 8.074074e+00	 8.148148e+00	 1.001921e+01
0	 8.148148e+00	 7.777778e+00	 1.002451e+01
0	 8.148148e+00	 7.851852e+00	 1.002322e+01
0	 8.148148e+00	 7.925926e+00	 1.002196e+01
0	 8.148148e+00	 8.000000e+00	 1.002071e+01
0	 8.148148e+00	 8.074074e+00	 1.001947e+01
0	 8.148148e+00	 8.148148e+00	 1.001824e+01
0	 7.777778e+00	 8.148148e+00	 1.002316e+01
0	 7.777778e+00	 8.222222e+00	 1.002161e+01
0	 7.777778e+00	 8.296296e+00	 1.002010e+01
0	 7.777778e+00	 8.370370e+00	 1.001862e+01
0	 7.777778e+00	 8.444444e+00	 1.001718e+01
0	 7.777778e+00	 8.518519e+00	 1.001577e+01
0	 7.851852e+00	 8.148148e+00	 1.002217e+01
0	 7.851852e+00	 8.222222e+00	 1.002068e+01
0	 7.851852e+00	 8.296296e+00	 1.001924e+01
0	 7.851852e+00	 8.370370e+00	 1.001783e+01
0	 7.851852e+00	 8.444444e+00	 1.001645e+01
0	 7.851852e+00	 8.518519e+00	 1.001510e+01
0	 7.925926e+00	 8.148148e+00	 1.002117e+01
0	 7.925926e+00	 8.222222e+00	 1.001976e+01
0	 7.925926e+00	 8.296296e+00	 1.001838e+01
0	 7.925926e+00	 8.370370e+00	 1.001704e+01
0	 7.925926e+00	 8.444444e+00	 1.001572e+01
0	 7.925926e+00	 8.518519e+00	 1.001443e+01
0	 8.000000e+00	 8.148148e+00	 1.002018e+01
0	 8.000000e+00	 8.222222e+00	 1.001884e+01
0	 8.000000e+00	 8.296296e+00	 1.001753e+01
0	 8.000000e+00	 8.370370e+00	 1.001625e+01
0	 8.000000e+00	 8.444444e+00	 1.001499e+01
0	 8.000000e+00	 8.518519e+00	 1.001377e+01
0	 8.074074e+00	 8.148148e+00	 1.001921e+01
0	 8.074074e+00	 8.222222e+00	 1.001793e+01
0	 8.074074e+00	 8.296296e+00	 1.001668e+01
0	 8.074074e+00	 8.370370e+00	 1.001547e+01
0	 8.074074e+00	 8.444444e+00	 1.001428e+01
0	 8.074074e+00	 8.518519e+00	 1.001311e+01
0	 8.148148e+00	 8.148148e+00	 1.001824e+01
0	 8.148148e+00	 8.222222e+00	 1.001703e+01
0	 8.148148e+00	 8.296296e+00	 1.001585e+01
0	 8.148148e+00	 8.370370e+00	 1.001470e+01
0	 8.148148e+00	 8.444444e+00	 1.001357e+01
0	 8.148148e+00	 8.518519e+00	 1.001246e+01
0	 7.777778e+00	 8.518519e+00	 1.001577e+01
0	 7.777778e+00	 8.592593e+00	 1.001440e+01
0	 7.777778e+00	 8.666667e+00	 1.001308e+01
0	 7.777778e+00	 8.740741e+00	 1.001181e+01
0	 7.777778e+00	 8.814815e+00	 1.001059e+01
0	 7.777778e+00	 8.888889e+00	 1.000941e+01
0	 7.851852e+00	 8.518519e+00	 1.001510e+01
0	 7.851852e+00	 8.592593e+00	 1.001379e+01
0	 7.851852e+00	 8.666667e+00	 1.001253e+01
0	 7.851852e+00	 8.740741e+00	 1.001131e+01
0	 7.851852e+00	 8.814815e+00	 1.001014e+01
0	 7.851852e+00	 8.888889e+00	 1.000901e+01
0	 7.925926e+00	 8.518519e+00	 1.001443e+01
0	 7.925926e+00	 8.592593e+00	 1.001318e+01
0	 7.925926e+00	 8.666667e+00	 1.001197e+01
0	 7.925926e+00	 8.740741e+00	 1.001081e+01
0	 7.925926e+00	 8.814815e+00	 1.000970e+01
0	 7.925926e+00	 8.888889e+00	 1.000862e+01
0	 8.000000e+00	 8.518519e+00	 1.001377e+01
0	 8.000000e+00	 8.592593e+00	 1.001257e+01
0	 8.000000e+00	 8.666667e+00	 1.001142e+01
0	 8.000000e+00	 8.740741e+00	 1.001032e+01
0	 8.000000e+00	 8.814815e+00	 1.000925e+01
0	 8.000000e+00	 8.888889e+00	 1.000822e+01
0	 8.074074e+00	 8.518519e+00	 1.001311e+01
0	 8.074074e+00	 8.592593e+00	 1.001197e+01
0	 8.074074e+00	 8.666667e+00	 1.001088e+01
0	 8.074074e+00	 8.740741e+00	 1.000983e+01
0	 8.074074e+00	 8.814815e+00	 1.000881e+01
0	 8.074074e+00	 8.888889e+00	 1.000783e+01
0	 8.148148e+00	 8.518519e+00	 1.001246e+01
0	 8.148148e+00	 8.592593e+00	 1.001138e+01
0	 8.148148e+00	 8.666667e+00	 1.001034e+01
0	 8.148148e+00	 8.740741e+00	 1.000934e+01
0	 8.148148e+00	 8.814815e+00	 1.000838e+01
0	 8.148148e+00	 8.888889e+00	 1.000745e+01
0	 7.777778e+00	 8.888889e+00	 1.000941e+01
0	 7.777778e+00	 8.962963e+00	 1.000829e+01
0	 7.777778e+00	 9.037037e+00	 1.000723e+01
0	 7.777778e+00	 9.111111e+00	 1.000624e+01
0	 7.777778e+00	 9.185185e+00	 1.000530e+01
0	 7.777778e+00	 9.259259e+00	 1.000443e+01
0	 7.851852e+00	 8.888889e+00	 1.000901e+01
0	 7.851852e+00	 8.962963e+00	 1.000794e+01
0	 7.851852e+00	 9.037037e+00	 1.000693e+01
0	 7.851852e+00	 9.111111e+00	 1.000598e+01
0	 7.851852e+00	 9.185185e+00	 1.000508e+01
0	 7.851852e+00	 9.259259e+00	 1.000424e+01
0	 7.925926e+00	 8.888889e+00	 1.000862e+01
0	 7.925926e+00	 8.962963e+00	 1.000759e+01
0	 7.925926e+00	 9.037037e+00	 1.000662e+01
0	 7.925926e+00	 9.111111e+00	 1.000571e+01
0	 7.925926e+00	 9.185185e+00	 1.000486e+01
0	 7.925926e+00	 9.259259e+00	 1.000405e+01
0	 8.000000e+00	 8.888889e+00	 1.000822e+01
0	 8.000000e+00	 8.962963e+00	 1.000724e+01
0	 8.000000e+00	 9.037037e+00	 1.000632e+01
0	 8.000000e+00	 9.111111e+00	 1.000545e+01
0	 8.000000e+00	 9.185185e+00	 1.000464e+01
0	 8.000000e+00	 9.259259e+00	 1.000387e+01
0	 8.074074e+00	 8.888889e+00	 1.000783e+01
0	 8.074074e+00	 8.962963e+00	 1.000690e+01
0	 8.074074e+00	 9.037037e+00	 1.000602e+01
0	 8.074074e+00	 9.111111e+00	 1.000519e+01
0	 8.074074e+00	 9.185185e+00	 1.000442e+01
0	 8.074074e+00	 9.259259e+00	 1.000368e+01
0	 8.148148e+00	 8.888889e+00	 1.000745e+01
0	 8.148148e+00	 8.962963e+00	 1.000656e+01
0	 8.148148e+00	 9.037037e+00	 1.000572e+01
0	 8.148148e+00	 9.111111e+00	 1.000494e+01
0	 8.148148e+00	 9.185185e+00	 1.000420e+01
0	 8.148148e+00	 9.259259e+00	 1.000350e+01
0	 7.777778e+00	 9.259259e+00	 1.000443e+01
0	 7.777778e+00	 9.333333e+00	 1.000362e+01
0	 7.777778e+00	 9.407407e+00	 1.000289e+01
0	 7.777778e+00	 9.481481e+00	 1.000225e+01
0	 7.777778e+00	 9.555556e+00	 1.000167e+01
0	 7.777778e+00	 9.629630e+00	 1.000117e+01
0	 7.851852e+00	 9.259259e+00	 1.000424e+01
0	 7.851852e+00	 9.333333e+00	 1.000347e+01
0	 7.851852e+00	 9.407407e+00	 1.000277e+01
0	 7.851852e+00	 9.481481e+00	 1.000215e+01
0	 7.851852e+00	 9.555556e+00	 1.000160e+01
0	 7.851852e+00	 9.629630e+00	 1.000112e+01
0	 7.925926e+00	 9.259259e+00	 1.000405e+01
0	 7.925926e+00	 9.333333e+00	 1.000331e+01
0	 7.925926e+00	 9.407407e+00	 1.000265e+01
0	 7.925926e+00	 9.481481e+00	 1.000206e+01
0	 7.925926e+00	 9.555556e+00	 1.000153e+01
0	 7.925926e+00	 9.629630e+00	 1.000107e+01
0	 8.000000e+00	 9.259259e+00	 1.000387e+01
0	 8.000000e+00	 9.333333e+00	 1.000316e+01
0	 8.000000e+00	 9.407407e+00	 1.000253e+01
0	 8.000000e+00	 9.481481e+00	 1.000196e+01
0	 8.000000e+00	 9.555556e+00	 1.000146e+01
0	 8.000000e+00	 9.629630e+00	 1.000102e+01
0	 8.074074e+00	 9.259259e+00	 1.000368e+01
0	 8.074074e+00	 9.333333e+00	 1.000301e+01
0	 8.074074e+00	 9.407407e+00	 1.000241e+01
0	 8.074074e+00	 9.481481e+00	 1.000187e+01
0	 8.074074e+00	 9.555556e+00	 1.000139e+01
0	 8.074074e+00	 9.629630e+00	 1.000097e+01
0	 8.148148e+00	 9.259259e+00	 1.000350e+01
0	 8.148148e+00	 9.333333e+00	 1.000286e+01
0	 8.148148e+00	 9.407407e+00	 1.000229e+01
0	 8.148148e+00	 9.481481e+00	 1.000178e+01
0	 8.148148e+00	 9.555556e+00	 1.000132e+01
0	 8.148148e+00	 9.629630e+00	 1.000092e+01
0	 7.777778e+00	 9.629630e+00	 1.000117e+01
0	 7.777778e+00	 9.703704e+00	 1.000075e+01
0	 7.777778e+00	 9.777778e+00	 1.000043e+01
0	 7.777778e+00	 9.851852e+00	 1.000020e+01
0	 7.777778e+00	 9.925926e+00	 1.000005e+01
0	 7.777778e+00	 1.000000e+01	 9.999992e+00
0	 7.851852e+00	 9.629630e+00	 1.000112e+01
0	 7.851852e+00	 9.703704e+00	 1.000072e+01
0	 7.851852e+00	 9.777778e+00	 1.000041e+01
0	 7.851852e+00	 9.851852e+00	 1.000019e+01
0	 7.851852e+00	 9.925926e+00	 1.000005e+01
0	 7.851852e+00	 1.000000e+01	 9.999995e+00
0	 7.925926e+00	 9.629630e+00	 1.000107e+01
0	 7.925926e+00	 9.703704e+00	 1.000069e+01
0	 7.925926e+00	 9.777778e+00	 1.000039e+01
0	 7.925926e+00	 9.851852e+00	 1.000018e+01
0	 7.925926e+00	 9.925926e+00	 1.000005e+01
0	 7.925926e+00	 1.000000e+01	 9.999995e+00
0	 8.000000e+00	 9.629630e+00	 1.000102e+01
0	 8.000000e+00	 9.703704e+00	 1.000065e+01
0	 8.000000e+00	 9.777778e+00	 1.000037e+01
0	 8.000000e+00	 9.851852e+00	 1.000017e+01
0	 8.000000e+00	 9.925926e+00	 1.000004e+01
0	 8.000000e+00	 1.000000e+01	 9.999993e+00
0	 8.074074e+00	 9.629630e+00	 1.000097e+01
0	 8.074074e+00	 9.703704e+00	 1.000062e+01
0	 8.074074e+00	 9.777778e+00	 1.000035e+01
0	 8.074074e+00	 9.851852e+00	 1.000016e+01
0	 8.074074e+00	 9.925926e+00	 1.000004e+01
0	 8.074074e+00	 1.000000e+01	 9.999992e+00
0	 8.148148e+00	 9.629630e+00	 1.000092e+01
0	 8.148148e+00	 9.703704e+00	 1.000059e+01
0	 8.148148e+00	 9.777778e+00	 1.000034e+01
0	 8.148148e+00	 9.851852e+00	 1.000015e+01
0	 8.148148e+00	 9.925926e+00	 1.000004e+01
0	 8.148148e+00	 1.000000e+01	 9.999994e+00
0	 8.148148e+00	 0.000000e+00	 9.953490e+00
0	 8.148148e+00	 7.407407e-02	 9.953558e+00
0	 8.148148e+00	 1.481481e-01	 9.953762e+00
0	 8.148148e+00	 2.222222e-01	 9.954102e+00
0	 8.148148e+00	 2.962963e-01	 9.954579e+00
0	 8.148148e+00	 3.703704e-01	 9.955195e+00
0	 8.222222e+00	 0.000000e+00	 9.944241e+00
0	 8.222222e+00	 7.407407e-02	 9.944309e+00
0	 8.222222e+00	 1.481481e-01	 9.944512e+00
0	 8.222222e+00	 2.222222e-01	 9.944851e+00
0	 8.222222e+00	 2.962963e-01	 9.945327e+00
0	 8.222222e+00	 3.703704e-01	 9.945941e+00
0	 8.296296e+00	 0.000000e+00	 9.934853e+00
0	 8.296296e+00	 7.407407e-02	 9.934921e+00
0	 8.296296e+00	 1.481481e-01	 9.935124e+00
0	 8.296296e+00	 2.222222e-01	 9.935463e+00
0	 8.296296e+00	 2.962963e-01	 9.935940e+00
0	 8.296296e+00	 3.703704e-01	 9.936553e+00
0	 8.370370e+00	 0.000000e+00	 9.925312e+00
0	 8.370370e+00	 7.407407e-02	 9.925381e+00
0	 8.370370e+00	 1.481481e-01	 9.925585e+00
0	 8.370370e+00	 2.222222e-01	 9.925926e+00
0	 8.370370e+00	 2.962963e-01	 9.926404e+00
0	 8.370370e+00	 3.703704e-01	 9.927020e+00
0	 8.444444e+00	 0.000000e+00	 9.915606e+00
0	 8.444444e+00	 7.407407e-02	 9.915676e+00
0	 8.444444e+00	 1.481481e-01	 9.915882e+00
0	 8.444444e+00	 2.222222e-01	 9.916225e+00
0	 8.444444e+00	 2.962963e-01	 9.916706e+00
0	 8.444444e+00	 3.703704e-01	 9.917326e+00
0	 8.518519e+00	 0.000000e+00	 9.905723e+00
0	 8.518519e+00	 7.407407e-02	 9.905793e+00
0	 8.518519e+00	 1.481481e-01	 9.906002e+00
0	 8.518519e+00	 2.222222e-01	 9.906348e+00
0	 8.518519e+00	 2.962963e-01	 9.906834e+00
0	 8.518519e+00	 3.703704e-01	 9.907460e+00
0	 8.148148e+00	 3.703704e-01	 9.955195e+00
0	 8.148148e+00	 4.444444e-01	 9.955940e+00
0	 8.148148e+00	 5.185185e-01	 9.956808e+00
0	 8.148148e+00	 5.925926e-01	 9.957800e+00
0	 8.148148e+00	 6.666667e-01	 9.958920e+00
0	 8.148148e+00	 7.407407e-01	 9.960170e+00
0	 8.222222e+00	 3.703704e-01	 9.945941e+00
0	 8.222222e+00	 4.444444e-01	 9.946684e+00
0	 8.222222e+00	 5.185185e-01	 9.947550e+00
0	 8.222222e+00	 5.925926e-01	 9.948541e+00
0	 8.222222e+00	 6.666667e-01	 9.949660e+00
0	 8.222222e+00	 7.407407e-01	 9.950907e+00
0	 8.296296e+00	 3.703704e-01	 9.936553e+00
0	 8.296296e+00	 4.444444e-01	 9.937297e+00
0	 8.296296e+00	 5.185185e-01	 9.938164e+00
0	 8.296296e+00	 5.925926e-01	 9.939156e+00
0	 8.296296e+00	 6.666667e-01	 9.940276e+00
0	 8.296296e+00	 7.407407e-01	 9.941526e+00
0	 8.370370e+00	 3.703704e-01	 9.927020e+00
0	 8.370370e+00	 4.444444e-01	 9.927766e+00
0	 8.370370e+00	 5.185185e-01	 9.928636e+00
0	 8.370370e+00	 5.925926e-01	 9.929633e+00
0	 8.370370e+00	 6.666667e-01	 9.930758e+00
0	 8.370370e+00	 7.407407e-01	 9.932013e+00
0	 8.444444e+00	 3.703704e-01	 9.917326e+00
0	 8.444444e+00	 4.444444e-01	 9.918077e+00
0	 8.444444e+00	 5.185185e-01	 9.918954e+00
0	 8.444444e+00	 5.925926e-01	 9.919958e+00
0	 8.444444e+00	 6.666667e-01	 9.921091e+00
0	 8.444444e+00	 7.407407e-01	 9.922355e+00
0	 8.518519e+00	 3.703704e-01	 9.907460e+00
0	 8.518519e+00	 4.444444e-01	 9.908218e+00
0	 8.518519e+00	 5.185185e-01	 9.909104e+00
0	 8.518519e+00	 5.925926e-01	 9.910118e+00
0	 8.518519e+00	 6.666667e-01	 9.911263e+00
0	 8.518519e+00	 7.407407e-01	 9.912541e+00
0	 8.148148e+00	 7.407407e-01	 9.960170e+00
0	 8.148148e+00	 8.148148e-01	 9.961534e+00
0	 8.148148e+00	 8.888889e-01	 9.962997e+00
0	 8.148148e+00	 9.629630e-01	 9.964563e+00
0	 8.148148e+00	 1.037037e+00	 9.966236e+00
0	 8.148148e+00	 1.111111e+00	 9.968021e+00
0	 8.222222e+00	 7.407407e-01	 9.950907e+00
0	 8.222222e+00	 8.148148e-01	 9.952270e+00
0	 8.222222e+00	 8.888889e-01	 9.953733e+00
0	 8.222222e+00	 9.629630e-01	 9.955299e+00
0	 8.222222e+00	 1.037037e+00	 9.956974e+00
0	 8.222222e+00	 1.111111e+00	 9.958759e+00
0	 8.296296e+00	 7.407407e-01	 9.941526e+00
0	 8.296296e+00	 8.148148e-01	 9.942891e+00
0	 8.296296e+00	 8.888889e-01	 9.944358e+00
0	 8.296296e+00	 9.629630e-01	 9.945929e+00
0	 8.296296e+00	 1.037037e+00	 9.947609e+00
0	 8.296296e+00	 1.111111e+00	 9.949402e+00
0	 8.370370e+00	 7.407407e-01	 9.932013e+00
0	 8.370370e+00	 8.148148e-01	 9.933384e+00
0	 8.370370e+00	 8.888889e-01	 9.934859e+00
0	 8.370370e+00	 9.629630e-01	 9.936441e+00
0	 8.370370e+00	 1.037037e+00	 9.938132e+00
0	 8.370370e+00	 1.111111e+00	 9.939936e+00
0	 8.444444e+00	 7.407407e-01	 9.922355e+00
0	 8.444444e+00	 8.148148e-01	 9.923738e+00
0	 8.444444e+00	 8.888889e-01	 9.925225e+00
0	 8.444444e+00	 9.629630e-01	 9.926821e+00
0	 8.444444e+00	 1.037037e+00	 9.928528e+00
0	 8.444444e+00	 1.111111e+00	 9.930349e+00
0	 8.518519e+00	 7.407407e-01	 9.912541e+00
0	 8.518519e+00	 8.148148e-01	 9.913938e+00
0	 8.518519e+00	 8.888889e-01	 9.915443e+00
0	 8.518519e+00	 9.629630e-01	 9.917058e+00
0	 8.518519e+00	 1.037037e+00	 9.918786e+00
0	 8.518519e+00	 1.111111e+00	 9.920630e+00
0	 8.148148e+00	 1.111111e+00	 9.968021e+00
0	 8.148148e+00	 1.185185e+00	 9.969895e+00
0	 8.148148e+00	 1.259259e+00	 9.971839e+00
0	 8.148148e+00	 1.333333e+00	 9.973858e+00
0	 8.148148e+00	 1.407407e+00	 9.975956e+00
0	 8.148148e+00	 1.481481e+00	 9.978138e+00
0	 8.222222e+00	 1.111111e+00	 9.958759e+00
0	 8.222222e+00	 1.185185e+00	 9.960636e+00
0	 8.222222e+00	 1.259259e+00	 9.962585e+00
0	 8.222222e+00	 1.333333e+00	 9.964610e+00
0	 8.222222e+00	 1.407407e+00	 9.966717e+00
0	 8.222222e+00	 1.481481e+00	 9.968908e+00
0	 8.296296e+00	 1.111111e+00	 9.949402e+00
0	 8.296296e+00	 1.185185e+00	 9.951287e+00
0	 8.296296e+00	 1.259259e+00	 9.953246e+00
0	 8.296296e+00	 1.333333e+00	 9.955284e+00
0	 8.296296e+00	 1.407407e+00	 9.957404e+00
0	 8.296296e+00	 1.481481e+00	 9.959611e+00
0	 8.370370e+00	 1.111111e+00	 9.939936e+00
0	 8.370370e+00	 1.185185e+00	 9.941834e+00
0	 8.370370e+00	 1.259259e+00	 9.943810e+00
0	 8.370370e+00	 1.333333e+00	 9.945865e+00
0	 8.370370e+00	 1.407407e+00	 9.948005e+00
0	 8.370370e+00	 1.481481e+00	 9.950234e+00
0	 8.444444e+00	 1.111111e+00	 9.930349e+00
0	 8.444444e+00	 1.185185e+00	 9.932267e+00
0	 8.444444e+00	 1.259259e+00	 9.934264e+00
0	 8.444444e+00	 1.333333e+00	 9.936343e+00
0	 8.444444e+00	 1.407407e+00	 9.938510e+00
0	 8.444444e+00	 1.481481e+00	 9.940766e+00
0	 8.518519e+00	 1.111111e+00	 9.920630e+00
0	 8.518519e+00	 1.185185e+00	 9.922573e+00
0	 8.518519e+00	 1.259259e+00	 9.924597e+00
0	 8.518519e+00	 1.333333e+00	 9.926707e+00
0	 8.518519e+00	 1.407407e+00	 9.928905e+00
0	 8.518519e+00	 1.481481e+00	 9.931196e+00
0	 8.148148e+00	 1.481481e+00	 9.978138e+00
0	 8.148148e+00	 1.555556e+00	 9.980381e+00
0	 8.148148e+00	 1.629630e+00	 9.982661e+00
0	 8.148148e+00	 1.703704e+00	 9.984984e+00
0	 8.148148e+00	 1.777778e+00	 9.987354e+00
0	 8.148148e+00	 1.851852e+00	 9.989777e+00
0	 8.222222e+00	 1.481481e+00	 9.968908e+00
0	 8.222222e+00	 1.555556e+00	 9.971162e+00
0	 8.222222e+00	 1.629630e+00	 9.973457e+00
0	 8.222222e+00	 1.703704e+00	 9.975797e+00
0	 8.222222e+00	 1.777778e+00	 9.978186e+00
0	 8.222222e+00	 1.851852e+00	 9.980631e+00
0	 8.296296e+00	 1.481481e+00	 9.959611e+00
0	 8.296296e+00	 1.555556e+00	 9.961882e+00
0	 8.296296e+00	 1.629630e+00	 9.964198e+00
0	 8.296296e+00	 1.703704e+00	 9.966561e+00
0	 8.296296e+00	 1.777778e+00	 9.968976e+00
0	 8.296296e+00	 1.851852e+00	 9.971449e+00
0	 8.370370e+00	 1.481481e+00	 9.950234e+00
0	 8.370370e+00	 1.555556e+00	 9.952529e+00
0	 8.370370e+00	 1.629630e+00	 9.954872e+00
0	 8.370370e+00	 1.703704e+00	 9.957264e+00
0	 8.370370e+00	 1.777778e+00	 9.959712e+00
0	 8.370370e+00	 1.851852e+00	 9.962219e+00
0	 8.444444e+00	 1.481481e+00	 9.940766e+00
0	 8.444444e+00	 1.555556e+00	 9.943092e+00
0	 8.444444e+00	 1.629630e+00	 9.945468e+00
0	 8.444444e+00	 1.703704e+00	 9.947897e+00
0	 8.444444e+00	 1.777778e+00	 9.950384e+00
0	 8.444444e+00	 1.851852e+00	 9.952932e+00
0	 8.518519e+00	 1.481481e+00	 9.931196e+00
0	 8.518519e+00	 1.555556e+00	 9.933560e+00
0	 8.518519e+00	 1.629630e+00	 9.935976e+00
0	 8.518519e+00	 1.703704e+00	 9.938448e+00
0	 8.518519e+00	 1.777778e+00	 9.940981e+00
0	 8.518519e+00	 1.851852e+00	 9.943578e+00
0	 8.148148e+00	 1.851852e+00	 9.989777e+00
0	 8.148148e+00	 1.925926e+00	 9.992228e+00
0	 8.148148e+00	 2.000000e+00	 9.994685e+00
0	 8.148148e+00	 2.074074e+00	 9.997151e+00
0	 8.148148e+00	 2.148148e+00	 9.999632e+00
0	 8.148148e+00	 2.222222e+00	 1.000213e+01
0	 8.222222e+00	 1.851852e+00	 9.980631e+00
0	 8.222222e+00	 1.925926e+00	 9.983107e+00
0	 8.222222e+00	 2.000000e+00	 9.985592e+00
0	 8.222222e+00	 2.074074e+00	 9.988090e+00
0	 8.222222e+00	 2.148148e+00	 9.990605e+00
0	 8.222222e+00	 2.222222e+00	 9.993143e+00
0	 8.296296e+00	 1.851852e+00	 9.971449e+00
0	 8.296296e+00	 1.925926e+00	 9.973956e+00
0	 8.296296e+00	 2.000000e+00	 9.976475e+00
0	 8.296296e+00	 2.074074e+00	 9.979010e+00
0	 8.296296e+00	 2.148148e+00	 9.981567e+00
0	 8.296296e+00	 2.222222e+00	 9.984149e+00
0	 8.370370e+00	 1.851852e+00	 9.962219e+00
0	 8.370370e+00	 1.925926e+00	 9.964764e+00
0	 8.370370e+00	 2.000000e+00	 9.967324e+00
0	 8.370370e+00	 2.074074e+00	 9.969903e+00
0	 8.370370e+00	 2.148148e+00	 9.972507e+00
0	 8.370370e+00	 2.222222e+00	 9.975139e+00
0	 8.444444e+00	 1.851852e+00	 9.952932e+00
0	 8.444444e+00	 1.925926e+00	 9.955521e+00
0	 8.444444e+00	 2.000000e+00	 9.958129e+00
0	 8.444444e+00	 2.074074e+00	 9.960760e+00
0	 8.444444e+00	 2.148148e+00	 9.963417e+00
0	 8.444444e+00	 2.222222e+00	 9.966106e+00
0	 8.518519e+00	 1.851852e+00	 9.943578e+00
0	 8.518519e+00	 1.925926e+00	 9.946218e+00
0	 8.518519e+00	 2.000000e+00	 9.948880e+00
0	 8.518519e+00	 2.074074e+00	 9.951570e+00
0	 8.518519e+00	 2.148148e+00	 9.954289e+00
0	 8.518519e+00	 2.222222e+00	 9.957042e+00
0	 8.148148e+00	 2.222222e+00	 1.000213e+01
0	 8.148148e+00	 2.296296e+00	 1.000463e+01
0	 8.148148e+00	 2.370370e+00	 1.000710e+01
0	 8.148148e+00	 2.444444e+00	 1.000956e+01
0	 8.148148e+00	 2.518519e+00	 1.001199e+01
0	 8.148148e+00	 2.592593e+00	 1.001442e+01
0	 8.222222e+00	 2.222222e+00	 9.993143e+00
0	 8.222222e+00	 2.296296e+00	 9.995682e+00
0	 8.222222e+00	 2.370370e+00	 9.998201e+00
0	 8.222222e+00	 2.444444e+00	 1.000070e+01
0	 8.222222e+00	 2.518519e+00	 1.000319e+01
0	 8.222222e+00	 2.592593e+00	 1.000567e+01
0	 8.296296e+00	 2.222222e+00	 9.984149e+00
0	 8.296296e+00	 2.296296e+00	 9.986735e+00
0	 8.296296e+00	 2.370370e+00	 9.989304e+00
0	 8.296296e+00	 2.444444e+00	 9.991861e+00
0	 8.296296e+00	 2.518519e+00	 9.994408e+00
0	 8.296296e+00	 2.592593e+00	 9.996951e+00
0	 8.370370e+00	 2.222222e+00	 9.975139e+00
0	 8.370370e+00	 2.296296e+00	 9.977779e+00
0	 8.370370e+00	 2.370370e+00	 9.980405e+00
0	 8.370370e+00	 2.444444e+00	 9.983023e+00
0	 8.370370e+00	 2.518519e+00	 9.985634e+00
0	 8.370370e+00	 2.592593e+00	 9.988244e+00
0	 8.444444e+00	 2.222222e+00	 9.966106e+00
0	 8.444444e+00	 2.296296e+00	 9.968806e+00
0	 8.444444e+00	 2.370370e+00	 9.971496e+00
0	 8.444444e+00	 2.444444e+00	 9.974181e+00
0	 8.444444e+00	 2.518519e+00	 9.976863e+00
0	 8.444444e+00	 2.592593e+00	 9.979546e+00
0	 8.518519e+00	 2.222222e+00	 9.957042e+00
0	 8.518519e+00	 2.296296e+00	 9.959809e+00
0	 8.518519e+00	 2.370370e+00	 9.962570e+00
0	 8.518519e+00	 2.444444e+00	 9.965328e+00
0	 8.518519e+00	 2.518519e+00	 9.968087e+00
0	 8.518519e+00	 2.592593e+00	 9.970850e+00
0	 8.148148e+00	 2.592593e+00	 1.001442e+01
0	 8.148148e+00	 2.666667e+00	 1.001681e+01
0	 8.148148e+00	 2.740741e+00	 1.001916e+01
0	 8.148148e+00	 2.814815e+00	 1.002146e+01
0	 8.148148e+00	 2.888889e+00	 1.002372e+01
0	 8.148148e+00	 2.962963e+00	 1.002594e+01
0	 8.222222e+00	 2.592593e+00	 1.000567e+01
0	 8.222222e+00	 2.666667e+00	 1.000813e+01
0	 8.222222e+00	 2.740741e+00	 1.001054e+01
0	 8.222222e+00	 2.814815e+00	 1.001291e+01
0	 8.222222e+00	 2.888889e+00	 1.001524e+01
0	 8.222222e+00	 2.962963e+00	 1.001753e+01
0	 8.296296e+00	 2.592593e+00	 9.996951e+00
0	 8.296296e+00	 2.666667e+00	 9.999471e+00
0	 8.296296e+00	 2.740741e+00	 1.000195e+01
0	 8.296296e+00	 2.814815e+00	 1.000439e+01
0	 8.296296e+00	 2.888889e+00	 1.000679e+01
0	 8.296296e+00	 2.962963e+00	 1.000917e+01
0	 8.370370e+00	 2.592593e+00	 9.988244e+00
0	 8.370370e+00	 2.666667e+00	 9.990834e+00
0	 8.370370e+00	 2.740741e+00	 9.993387e+00
0	 8.370370e+00	 2.814815e+00	 9.995904e+00
0	 8.370370e+00	 2.888889e+00	 9.998390e+00
0	 8.370370e+00	 2.962963e+00	 1.000085e+01
0	 8.444444e+00	 2.592593e+00	 9.979546e+00
0	 8.444444e+00	 2.666667e+00	 9.982213e+00
0	 8.444444e+00	 2.740741e+00	 9.984845e+00
0	 8.444444e+00	 2.814815e+00	 9.987446e+00
0	 8.444444e+00	 2.888889e+00	 9.990018e+00
0	 8.444444e+00	 2.962963e+00	 9.992565e+00
0	 8.518519e+00	 2.592593e+00	 9.970850e+00
0	 8.518519e+00	 2.666667e+00	 9.973600e+00
0	 8.518519e+00	 2.740741e+00	 9.976319e+00
0	 8.518519e+00	 2.814815e+00	 9.979009e+00
0	 8.518519e+00	 2.888889e+00	 9.981674e+00
0	 8.518519e+00	 2.962963e+00	 9.984316e+00
0	 8.148148e+00	 2.962963e+00	 1.002594e+01
0	 8.148148e+00	 3.037037e+00	 1.002810e+01
0	 8.148148e+00	 3.111111e+00	 1.003020e+01
0	 8.148148e+00	 3.185185e+00	 1.003223e+01
0	 8.148148e+00	 3.259259e+00	 1.003421e+01
0	 8.148148e+00	 3.333333e+00	 1.003612e+01
0	 8.222222e+00	 2.962963e+00	 1.001753e+01
0	 8.222222e+00	 3.037037e+00	 1.001977e+01
0	 8.222222e+00	 3.111111e+00	 1.002195e+01
0	 8.222222e+00	 3.185185e+00	 1.002407e+01
0	 8.222222e+00	 3.259259e+00	 1.002613e+01
0	 8.222222e+00	 3.333333e+00	 1.002814e+01
0	 8.296296e+00	 2.962963e+00	 1.000917e+01
0	 8.296296e+00	 3.037037e+00	 1.001149e+01
0	 8.296296e+00	 3.111111e+00	 1.001376e+01
0	 8.296296e+00	 3.185185e+00	 1.001597e+01
0	 8.296296e+00	 3.259259e+00	 1.001812e+01
0	 8.296296e+00	 3.333333e+00	 1.002022e+01
0	 8.370370e+00	 2.962963e+00	 1.000085e+01
0	 8.370370e+00	 3.037037e+00	 1.000326e+01
0	 8.370370e+00	 3.111111e+00	 1.000562e+01
0	 8.370370e+00	 3.185185e+00	 1.000792e+01
0	 8.370370e+00	 3.259259e+00	 1.001017e+01
0	 8.370370e+00	 3.333333e+00	 1.001237e+01
0	 8.444444e+00	 2.962963e+00	 9.992565e+00
0	 8.444444e+00	 3.037037e+00	 9.995071e+00
0	 8.444444e+00	 3.111111e+00	 9.997524e+00
0	 8.444444e+00	 3.185185e+00	 9.999924e+00
0	 8.444444e+00	 3.259259e+00	 1.000227e+01
0	 8.444444e+00	 3.333333e+00	 1.000458e+01
0	 8.518519e+00	 2.962963e+00	 9.984316e+00
0	 8.518519e+00	 3.037037e+00	 9.986920e+00
0	 8.518519e+00	 3.111111e+00	 9.989474e+00
0	 8.518519e+00	 3.185185e+00	 9.991977e+00
0	 8.518519e+00	 3.259259e+00	 9.994433e+00
0	 8.518519e+00	 3.333333e+00	 9.996844e+00
0	 8.148148e+00	 3.333333e+00	 1.003612e+01
0	 8.148148e+00	 3.407407e+00	 1.003796e+01
0	 8.148148e+00	 3.481481e+00	 1.003972e+01
0	 8.148148e+00	 3.555556e+00	 1.004140e+01
0	 8.148148e+00	 3.629630e+00	 1.004301e+01
0	 8.148148e+00	 3.703704e+00	 1.004454e+01
0	 8.222222e+00	 3.333333e+00	 1.002814e+01
0	 8.222222e+00	 3.407407e+00	 1.003007e+01
0	 8.222222e+00	 3.481481e+00	 1.003193e+01
0	 8.222222e+00	 3.555556e+00	 1.003372e+01
0	 8.222222e+00	 3.629630e+00	 1.003543e+01
0	 8.222222e+00	 3.703704e+00	 1.003707e+01
0	 8.296296e+00	 3.333333e+00	 1.002022e+01
0	 8.296296e+00	 3.407407e+00	 1.002226e+01
0	 8.296296e+00	 3.481481e+00	 1.002422e+01
0	 8.296296e+00	 3.555556e+00	 1.002611e+01
0	 8.296296e+00	 3.629630e+00	 1.002792e+01
0	 8.296296e+00	 3.703704e+00	 1.002967e+01
0	 8.370370e+00	 3.333333e+00	 1.001237e+01
0	 8.370370e+00	 3.407407e+00	 1.001450e+01
0	 8.370370e+00	 3.481481e+00	 1.001657e+01
0	 8.370370e+00	 3.555556e+00	 1.001857e+01
0	 8.370370e+00	 3.629630e+00	 1.002050e+01
0	 8.370370e+00	 3.703704e+00	 1.002236e+01
0	 8.444444e+00	 3.333333e+00	 1.000458e+01
0	 8.444444e+00	 3.407407e+00	 1.000682e+01
0	 8.444444e+00	 3.481481e+00	 1.000899e+01
0	 8.444444e+00	 3.555556e+00	 1.001110e+01
0	 8.444444e+00	 3.629630e+00	 1.001314e+01
0	 8.444444e+00	 3.703704e+00	 1.001512e+01
0	 8.518519e+00	 3.333333e+00	 9.996844e+00
0	 8.518519e+00	 3.407407e+00	 9.999198e+00
0	 8.518519e+00	 3.481481e+00	 1.000149e+01
0	 8.518519e+00	 3.555556e+00	 1.000371e+01
0	 8.518519e+00	 3.629630e+00	 1.000587e+01
0	 8.518519e+00	 3.703704e+00	 1.000796e+01
0	 8.148148e+00	 3.703704e+00	 1.004454e+01
0	 8.148148e+00	 3.777778e+00	 1.004599e+01
0	 8.148148e+00	 3.851852e+00	 1.004736e+01
0	 8.148148e+00	 3.925926e+00	 1.004864e+01
0	 8.148148e+00	 4.000000e+00	 1.004984e+01
0	 8.148148e+00	 4.074074e+00	 1.005095e+01
0	 8.222222e+00	 3.703704e+00	 1.003707e+01
0	 8.222222e+00	 3.777778e+00	 1.003863e+01
0	 8.222222e+00	 3.851852e+00	 1.004011e+01
0	 8.222222e+00	 3.925926e+00	 1.004151e+01
0	 8.222222e+00	 4.000000e+00	 1.004282e+01
0	 8.222222e+00	 4.074074e+00	 1.004406e+01
0	 8.296296e+00	 3.703704e+00	 1.002967e+01
0	 8.296296e+00	 3.777778e+00	 1.003135e+01
0	 8.296296e+00	 3.851852e+00	 1.003294e+01
0	 8.296296e+00	 3.925926e+00	 1.003445e+01
0	 8.296296e+00	 4.000000e+00	 1.003589e+01
0	 8.296296e+00	 4.074074e+00	 1.003724e+01
0	 8.370370e+00	 3.703704e+00	 1.002236e+01
0	 8.370370e+00	 3.777778e+00	 1.002415e+01
0	 8.370370e+00	 3.851852e+00	 1.002586e+01
0	 8.370370e+00	 3.925926e+00	 1.002749e+01
0	 8.370370e+00	 4.000000e+00	 1.002904e+01
0	 8.370370e+00	 4.074074e+00	 1.003051e+01
0	 8.444444e+00	 3.703704e+00	 1.001512e+01
0	 8.444444e+00	 3.777778e+00	 1.001703e+01
0	 8.444444e+00	 3.851852e+00	 1.001885e+01
0	 8.444444e+00	 3.925926e+00	 1.002060e+01
0	 8.444444e+00	 4.000000e+00	 1.002228e+01
0	 8.444444e+00	 4.074074e+00	 1.002388e+01
0	 8.518519e+00	 3.703704e+00	 1.000796e+01
0	 8.518519e+00	 3.777778e+00	 1.000999e+01
0	 8.518519e+00	 3.851852e+00	 1.001194e+01
0	 8.518519e+00	 3.925926e+00	 1.001381e+01
0	 8.518519e+00	 4.000000e+00	 1.001561e+01
0	 8.518519e+00	 4.074074e+00	 1.001734e+01
0	 8.148148e+00	 4.074074e+00	 1.005095e+01
0	 8.148148e+00	 4.148148e+00	 1.005199e+01
0	 8.148148e+00	 4.222222e+00	 1.005293e+01
0	 8.148148e+00	 4.296296e+00	 1.005379e+01
0	 8.148148e+00	 4.370370e+00	 1.005456e+01
0	 8.148148e+00	 4.444444e+00	 1.005525e+01
0	 8.222222e+00	 4.074074e+00	 1.004406e+01
0	 8.222222e+00	 4.148148e+00	 1.004521e+01
0	 8.222222e+00	 4.222222e+00	 1.004627e+01
0	 8.222222e+00	 4.296296e+00	 1.004726e+01
0	 8.222222e+00	 4.370370e+00	 1.004816e+01
0	 8.222222e+00	 4.444444e+00	 1.004897e+01
0	 8.296296e+00	 4.074074e+00	 1.003724e+01
0	 8.296296e+00	 4.148148e+00	 1.003851e+01
0	 8.296296e+00	 4.222222e+00	 1.003970e+01
0	 8.296296e+00	 4.296296e+00	 1.004081e+01
0	 8.296296e+00	 4.370370e+00	 1.004183e+01
0	 8.296296e+00	 4.444444e+00	 1.004277e+01
0	 8.370370e+00	 4.074074e+00	 1.003051e+01
0	 8.370370e+00	 4.148148e+00	 1.003191e+01
0	 8.370370e+00	 4.222222e+00	 1.003322e+01
0	 8.370370e+00	 4.296296e+00	 1.003445e+01
0	 8.370370e+00	 4.370370e+00	 1.003560e+01
0	 8.370370e+00	 4.444444e+00	 1.003667e+01
0	 8.444444e+00	 4.074074e+00	 1.002388e+01
0	 8.444444e+00	 4.148148e+00	 1.002540e+01
0	 8.444444e+00	 4.222222e+00	 1.002684e+01
0	 8.444444e+00	 4.296296e+00	 1.002819e+01
0	 8.444444e+00	 4.370370e+00	 1.002947e+01
0	 8.444444e+00	 4.444444e+00	 1.003066e+01
0	 8.518519e+00	 4.074074e+00	 1.001734e+01
0	 8.518519e+00	 4.148148e+00	 1.001898e+01
0	 8.518519e+00	 4.222222e+00	 1.002055e+01
0	 8.518519e+00	 4.296296e+00	 1.002203e+01
0	 8.518519e+00	 4.370370e+00	 1.002344e+01
0	 8.518519e+00	 4.444444e+00	 1.002476e+01
0	 8.148148e+00	 4.444444e+00	 1.005525e+01
0	 8.148148e+00	 4.518519e+00	 1.005585e+01
0	 8.148148e+00	 4.592593e+00	 1.005638e+01
0	 8.148148e+00	 4.666667e+00	 1.005682e+01
0	 8.148148e+00	 4.740741e+00	 1.005718e+01
0	 8.148148e+00	 4.814815e+00	 1.005745e+01
0	 8.222222e+00	 4.444444e+00	 1.004897e+01
0	 8.222222e+00	 4.518519e+00	 1.004970e+01
0	 8.222222e+00	 4.592593e+00	 1.005035e+01
0	 8.222222e+00	 4.666667e+00	 1.005092e+01
0	 8.222222e+00	 4.740741e+00	 1.005140e+01
0	 8.222222e+00	 4.814815e+00	 1.005181e+01
0	 8.296296e+00	 4.444444e+00	 1.004277e+01
0	 8.296296e+00	 4.518519e+00	 1.004363e+01
0	 8.296296e+00	 4.592593e+00	 1.004441e+01
0	 8.296296e+00	 4.666667e+00	 1.004511e+01
0	 8.296296e+00	 4.740741e+00	 1.004572e+01
0	 8.296296e+00	 4.814815e+00	 1.004625e+01
0	 8.370370e+00	 4.444444e+00	 1.003667e+01
0	 8.370370e+00	 4.518519e+00	 1.003766e+01
0	 8.370370e+00	 4.592593e+00	 1.003856e+01
0	 8.370370e+00	 4.666667e+00	 1.003938e+01
0	 8.370370e+00	 4.740741e+00	 1.004013e+01
0	 8.370370e+00	 4.814815e+00	 1.004079e+01
0	 8.444444e+00	 4.444444e+00	 1.003066e+01
0	 8.444444e+00	 4.518519e+00	 1.003178e+01
0	 8.444444e+00	 4.592593e+00	 1.003281e+01
0	 8.444444e+00	 4.666667e+00	 1.003376e+01
0	 8.444444e+00	 4.740741e+00	 1.003463e+01
0	 8.444444e+00	 4.814815e+00	 1.003542e+01
0	 8.518519e+00	 4.444444e+00	 1.002476e+01
0	 8.518519e+00	 4.518519e+00	 1.002600e+01
0	 8.518519e+00	 4.592593e+00	 1.002716e+01
0	 8.518519e+00	 4.666667e+00	 1.002824e+01
0	 8.518519e+00	 4.740741e+00	 1.002924e+01
0	 8.518519e+00	 4.814815e+00	 1.003016e+01
0	 8.148148e+00	 4.814815e+00	 1.005745e+01
0	 8.148148e+00	 4.888889e+00	 1.005764e+01
0	 8.148148e+00	 4.962963e+00	 1.005776e+01
0	 8.148148e+00	 5.037037e+00	 1.005781e+01
0	 8.148148e+00	 5.111111e+00	 1.005778e+01
0	 8.148148e+00	 5.185185e+00	 1.005767e+01
0	 8.222222e+00	 4.814815e+00	 1.005181e+01
0	 8.222222e+00	 4.888889e+00	 1.005213e+01
0	 8.222222e+00	 4.962963e+00	 1.005238e+01
0	 8.222222e+00	 5.037037e+00	 1.005256e+01
0	 8.222222e+00	 5.111111e+00	 1.005265e+01
0	 8.222222e+00	 5.185185e+00	 1.005267e+01
0	 8.296296e+00	 4.814815e+00	 1.004625e+01
0	 8.296296e+00	 4.888889e+00	 1.004670e+01
0	 8.296296e+00	 4.962963e+00	 1.004708e+01
0	 8.296296e+00	 5.037037e+00	 1.004739e+01
0	 8.296296e+00	 5.111111e+00	 1.004761e+01
0	 8.296296e+00	 5.185185e+00	 1.004776e+01
0	 8.370370e+00	 4.814815e+00	 1.004079e+01
0	 8.370370e+00	 4.888889e+00	 1.004137e+01
0	 8.370370e+00	 4.962963e+00	 1.004187e+01
0	 8.370370e+00	 5.037037e+00	 1.004230e+01
0	 8.370370e+00	 5.111111e+00	 1.004266e+01
0	 8.370370e+00	 5.185185e+00	 1.004293e+01
0	 8.444444e+00	 4.814815e+00	 1.003542e+01
0	 8.444444e+00	 4.888889e+00	 1.003613e+01
0	 8.444444e+00	 4.962963e+00	 1.003676e+01
0	 8.444444e+00	 5.037037e+00	 1.003732e+01
0	 8.444444e+00	 5.111111e+00	 1.003780e+01
0	 8.444444e+00	 5.185185e+00	 1.003820e+01
0	 8.518519e+00	 4.814815e+00	 1.003016e+01
0	 8.518519e+00	 4.888889e+00	 1.003099e+01
0	 8.518519e+00	 4.962963e+00	 1.003175e+01
0	 8.518519e+00	 5.037037e+00	 1.003244e+01
0	 8.518519e+00	 5.111111e+00	 1.003304e+01
0	 8.518519e+00	 5.185185e+00	 1.003356e+01
0	 8.148148e+00	 5.185185e+00	 1.005767e+01
0	 8.148148e+00	 5.259259e+00	 1.005749e+01
0	 8.148148e+00	 5.333333e+00	 1.005724e+01
0	 8.148148e+00	 5.407407e+00	 1.005693e+01
0	 8.148148e+00	 5.481481e+00	 1.005656e+01
0	 8.148148e+00	 5.555556e+00	 1.005611e+01
0	 8.222222e+00	 5.185185e+00	 1.005267e+01
0	 8.222222e+00	 5.259259e+00	 1.005262e+01
0	 8.222222e+00	 5.333333e+00	 1.005250e+01
0	 8.222222e+00	 5.407407e+00	 1.005232e+01
0	 8.222222e+00	 5.481481e+00	 1.005207e+01
0	 8.222222e+00	 5.555556e+00	 1.005175e+01
0	 8.296296e+00	 5.185185e+00	 1.004776e+01
0	 8.296296e+00	 5.259259e+00	 1.004783e+01
0	 8.296296e+00	 5.333333e+00	 1.004784e+01
0	 8.296296e+00	 5.407407e+00	 1.004778e+01
0	 8.296296e+00	 5.481481e+00	 1.004765e+01
0	 8.296296e+00	 5.555556e+00	 1.004746e+01
0	 8.370370e+00	 5.185185e+00	 1.004293e+01
0	 8.370370e+00	 5.259259e+00	 1.004313e+01
0	 8.370370e+00	 5.333333e+00	 1.004326e+01
0	 8.370370e+00	 5.407407e+00	 1.004333e+01
0	 8.370370e+00	 5.481481e+00	 1.004332e+01
0	 8.370370e+00	 5.555556e+00	 1.004324e+01
0	 8.444444e+00	 5.185185e+00	 1.003820e+01
0	 8.444444e+00	 5.259259e+00	 1.003852e+01
0	 8.444444e+00	 5.333333e+00	 1.003878e+01
0	 8.444444e+00	 5.407407e+00	 1.003896e+01
0	 8.444444e+00	 5.481481e+00	 1.003908e+01
0	 8.444444e+00	 5.555556e+00	 1.003912e+01
0	 8.518519e+00	 5.185185e+00	 1.003356e+01
0	 8.518519e+00	 5.259259e+00	 1.003401e+01
0	 8.518519e+00	 5.333333e+00	 1.003439e+01
0	 8.518519e+00	 5.407407e+00	 1.003470e+01
0	 8.518519e+00	 5.481481e+00	 1.003493e+01
0	 8.518519e+00	 5.555556e+00	 1.003509e+01
0	 8.148148e+00	 5.555556e+00	 1.005611e+01
0	 8.148148e+00	 5.629630e+00	 1.005560e+01
0	 8.148148e+00	 5.703704e+00	 1.005504e+01
0	 8.148148e+00	 5.777778e+00	 1.005442e+01
0	 8.148148e+00	 5.851852e+00	 1.005375e+01
0	 8.148148e+00	 5.925926e+00	 1.005301e+01
0	 8.222222e+00	 5.555556e+00	 1.005175e+01
0	 8.222222e+00	 5.629630e+00	 1.005136e+01
0	 8.222222e+00	 5.703704e+00	 1.005092e+01
0	 8.222222e+00	 5.777778e+00	 1.005043e+01
0	 8.222222e+00	 5.851852e+00	 1.004987e+01
0	 8.222222e+00	 5.925926e+00	 1.004926e+01
0	 8.296296e+00	 5.555556e+00	 1.004746e+01
0	 8.296296e+00	 5.629630e+00	 1.004719e+01
0	 8.296296e+00	 5.703704e+00	 1.004687e+01
0	 8.296296e+00	 5.777778e+00	 1.004650e+01
0	 8.296296e+00	 5.851852e+00	 1.004606e+01
0	 8.296296e+00	 5.925926e+00	 1.004556e+01
0	 8.370370e+00	 5.555556e+00	 1.004324e+01
0	 8.370370e+00	 5.629630e+00	 1.004310e+01
0	 8.370370e+00	 5.703704e+00	 1.004290e+01
0	 8.370370e+00	 5.777778e+00	 1.004264e+01
0	 8.370370e+00	 5.851852e+00	 1.004233e+01
0	 8.370370e+00	 5.925926e+00	 1.004194e+01
0	 8.444444e+00	 5.555556e+00	 1.003912e+01
0	 8.444444e+00	 5.629630e+00	 1.003910e+01
0	 8.444444e+00	 5.703704e+00	 1.003902e+01
0	 8.444444e+00	 5.777778e+00	 1.003887e+01
0	 8.444444e+00	 5.851852e+00	 1.003867e+01
0	 8.444444e+00	 5.925926e+00	 1.003840e+01
0	 8.518519e+00	 5.555556e+00	 1.003509e+01
0	 8.518519e+00	 5.629630e+00	 1.003519e+01
0	 8.518519e+00	 5.703704e+00	 1.003522e+01
0	 8.518519e+00	 5.777778e+00	 1.003519e+01
0	 8.518519e+00	 5.851852e+00	 1.003510e+01
0	 8.518519e+00	 5.925926e+00	 1.003494e+01
0	 8.148148e+00	 5.925926e+00	 1.005301e+01
0	 8.148148e+00	 6.000000e+00	 1.005223e+01
0	 8.148148e+00	 6.074074e+00	 1.005140e+01
0	 8.148148e+00	 6.148148e+00	 1.005053e+01
0	 8.148148e+00	 6.222222e+00	 1.004962e+01
0	 8.148148e+00	 6.296296e+00	 1.004866e+01
0	 8.222222e+00	 5.925926e+00	 1.004926e+01
0	 8.222222e+00	 6.000000e+00	 1.004859e+01
0	 8.222222e+00	 6.074074e+00	 1.004788e+01
0	 8.222222e+00	 6.148148e+00	 1.004713e+01
0	 8.222222e+00	 6.222222e+00	 1.004633e+01
0	 8.222222e+00	 6.296296e+00	 1.004548e+01
0	 8.296296e+00	 5.925926e+00	 1.004556e+01
0	 8.296296e+00	 6.000000e+00	 1.004501e+01
0	 8.296296e+00	 6.074074e+00	 1.004442e+01
0	 8.296296e+00	 6.148148e+00	 1.004378e+01
0	 8.296296e+00	 6.222222e+00	 1.004309e+01
0	 8.296296e+00	 6.296296e+00	 1.004235e+01
0	 8.370370e+00	 5.925926e+00	 1.004194e+01
0	 8.370370e+00	 6.000000e+00	 1.004151e+01
0	 8.370370e+00	 6.074074e+00	 1.004102e+01
0	 8.370370e+00	 6.148148e+00	 1.004049e+01
0	 8.370370e+00	 6.222222e+00	 1.003991e+01
0	 8.370370e+00	 6.296296e+00	 1.003928e+01
0	 8.444444e+00	 5.925926e+00	 1.003840e+01
0	 8.444444e+00	 6.000000e+00	 1.003807e+01
0	 8.444444e+00	 6.074074e+00	 1.003770e+01
0	 8.444444e+00	 6.148148e+00	 1.003728e+01
0	 8.444444e+00	 6.222222e+00	 1.003680e+01
0	 8.444444e+00	 6.296296e+00	 1.003627e+01
0	 8.518519e+00	 5.925926e+00	 1.003494e+01
0	 8.518519e+00	 6.000000e+00	 1.003473e+01
0	 8.518519e+00	 6.074074e+00	 1.003446e+01
0	 8.518519e+00	 6.148148e+00	 1.003414e+01
0	 8.518519e+00	 6.222222e+00	 1.003377e+01
0	 8.518519e+00	 6.296296e+00	 1.003334e+01
0	 8.148148e+00	 6.296296e+00	 1.004866e+01
0	 8.148148e+00	 6.370370e+00	 1.004766e+01
0	 8.148148e+00	 6.444444e+00	 1.004663e+01
0	 8.148148e+00	 6.518519e+00	 1.004556e+01
0	 8.148148e+00	 6.592593e+00	 1.004447e+01
0	 8.148148e+00	 6.666667e+00	 1.004334e+01
0	 8.222222e+00	 6.296296e+00	 1.004548e+01
0	 8.222222e+00	 6.370370e+00	 1.004458e+01
0	 8.222222e+00	 6.444444e+00	 1.004366e+01
0	 8.222222e+00	 6.518519e+00	 1.004271e+01
0	 8.222222e+00	 6.592593e+00	 1.004171e+01
0	 8.222222e+00	 6.666667e+00	 1.004068e+01
0	 8.296296e+00	 6.296296e+00	 1.004235e+01
0	 8.296296e+00	 6.370370e+00	 1.004156e+01
0	 8.296296e+00	 6.444444e+00	 1.004075e+01
0	 8.296296e+00	 6.518519e+00	 1.003989e+01
0	 8.296296e+00	 6.592593e+00	 1.003900e+01
0	 8.296296e+00	 6.666667e+00	 1.003808e+01
0	 8.370370e+00	 6.296296e+00	 1.003928e+01
0	 8.370370e+00	 6.370370e+00	 1.003860e+01
0	 8.370370e+00	 6.444444e+00	 1.003789e+01
0	 8.370370e+00	 6.518519e+00	 1.003714e+01
0	 8.370370e+00	 6.592593e+00	 1.003635e+01
0	 8.370370e+00	 6.666667e+00	 1.003552e+01
0	 8.444444e+00	 6.296296e+00	 1.003627e+01
0	 8.444444e+00	 6.370370e+00	 1.003570e+01
0	 8.444444e+00	 6.444444e+00	 1.003509e+01
0	 8.444444e+00	 6.518519e+00	 1.003444e+01
0	 8.444444e+00	 6.592593e+00	 1.003375e+01
0	 8.444444e+00	 6.666667e+00	 1.003301e+01
0	 8.518519e+00	 6.296296e+00	 1.003334e+01
0	 8.518519e+00	 6.370370e+00	 1.003287e+01
0	 8.518519e+00	 6.444444e+00	 1.003236e+01
0	 8.518519e+00	 6.518519e+00	 1.003180e+01
0	 8.518519e+00	 6.592593e+00	 1.003121e+01
0	 8.518519e+00	 6.666667e+00	 1.003057e+01
0	 8.148148e+00	 6.666667e+00	 1.004334e+01
0	 8.148148e+00	 6.740741e+00	 1.004218e+01
0	 8.148148e+00	 6.814815e+00	 1.004100e+01
0	 8.148148e+00	 6.888889e+00	 1.003980e+01
0	 8.148148e+00	 6.962963e+00	 1.003858e+01
0	 8.148148e+00	 7.037037e+00	 1.003734e+01
0	 8.222222e+00	 6.666667e+00	 1.004068e+01
0	 8.222222e+00	 6.740741e+00	 1.003963e+01
0	 8.222222e+00	 6.814815e+00	 1.003855e+01
0	 8.222222e+00	 6.888889e+00	 1.003745e+01
0	 8.222222e+00	 6.962963e+00	 1.003633e+01
0	 8.222222e+00	 7.037037e+00	 1.003518e+01
0	 8.296296e+00	 6.666667e+00	 1.003808e+01
0	 8.296296e+00	 6.740741e+00	 1.003712e+01
0	 8.296296e+00	 6.814815e+00	 1.003614e+01
0	 8.296296e+00	 6.888889e+00	 1.003514e+01
0	 8.296296e+00	 6.962963e+00	 1.003411e+01
0	 8.296296e+00	 7.037037e+00	 1.003305e+01
0	 8.370370e+00	 6.666667e+00	 1.003552e+01
0	 8.370370e+00	 6.740741e+00	 1.003466e+01
0	 8.370370e+00	 6.814815e+00	 1.003377e+01
0	 8.370370e+00	 6.888889e+00	 1.003286e+01
0	 8.370370e+00	 6.962963e+00	 1.003193e+01
0	 8.370370e+00	 7.037037e+00	 1.003096e+01
0	 8.444444e+00	 6.666667e+00	 1.003301e+01
0	 8.444444e+00	 6.740741e+00	 1.003225e+01
0	 8.444444e+00	 6.814815e+00	 1.003146e+01
0	 8.444444e+00	 6.888889e+00	 1.003064e+01
0	 8.444444e+00	 6.962963e+00	 1.002979e+01
0	 8.444444e+00	 7.037037e+00	 1.002891e+01
0	 8.518519e+00	 6.666667e+00	 1.003057e+01
0	 8.518519e+00	 6.740741e+00	 1.002990e+01
0	 8.518519e+00	 6.814815e+00	 1.002920e+01
0	 8.518519e+00	 6.888889e+00	 1.002847e+01
0	 8.518519e+00	 6.962963e+00	 1.002771e+01
0	 8.518519e+00	 7.037037e+00	 1.002691e+01
0	 8.148148e+00	 7.037037e+00	 1.003734e+01
0	 8.148148e+00	 7.111111e+00	 1.003608e+01
0	 8.148148e+00	 7.185185e+00	 1.003482e+01
0	 8.148148e+00	 7.259259e+00	 1.003355e+01
0	 8.148148e+00	 7.333333e+00	 1.003226e+01
0	 8.148148e+00	 7.407407e+00	 1.003097e+01
0	 8.222222e+00	 7.037037e+00	 1.003518e+01
0	 8.222222e+00	 7.111111e+00	 1.003401e+01
0	 8.222222e+00	 7.185185e+00	 1.003284e+01
0	 8.222222e+00	 7.259259e+00	 1.003166e+01
0	 8.222222e+00	 7.333333e+00	 1.003046e+01
0	 8.222222e+00	 7.407407e+00	 1.002925e+01
0	 8.296296e+00	 7.037037e+00	 1.003305e+01
0	 8.296296e+00	 7.111111e+00	 1.003198e+01
0	 8.296296e+00	 7.185185e+00	 1.003089e+01
0	 8.296296e+00	 7.259259e+00	 1.002980e+01
0	 8.296296e+00	 7.333333e+00	 1.002869e+01
0	 8.296296e+00	 7.407407e+00	 1.002756e+01
0	 8.370370e+00	 7.037037e+00	 1.003096e+01
0	 8.370370e+00	 7.111111e+00	 1.002998e+01
0	 8.370370e+00	 7.185185e+00	 1.002898e+01
0	 8.370370e+00	 7.259259e+00	 1.002797e+01
0	 8.370370e+00	 7.333333e+00	 1.002694e+01
0	 8.370370e+00	 7.407407e+00	 1.002590e+01
0	 8.444444e+00	 7.037037e+00	 1.002891e+01
0	 8.444444e+00	 7.111111e+00	 1.002801e+01
0	 8.444444e+00	 7.185185e+00	 1.002710e+01
0	 8.444444e+00	 7.259259e+00	 1.002617e+01
0	 8.444444e+00	 7.333333e+00	 1.002523e+01
0	 8.444444e+00	 7.407407e+00	 1.002426e+01
0	 8.518519e+00	 7.037037e+00	 1.002691e+01
0	 8.518519e+00	 7.111111e+00	 1.002610e+01
0	 8.518519e+00	 7.185185e+00	 1.002527e+01
0	 8.518519e+00	 7.259259e+00	 1.002442e+01
0	 8.518519e+00	 7.333333e+00	 1.002355e+01
0	 8.518519e+00	 7.407407e+00	 1.002267e+01
0	 8.148148e+00	 7.407407e+00	 1.003097e+01
0	 8.148148e+00	 7.481481e+00	 1.002967e+01
0	 8.148148e+00	 7.555556e+00	 1.002838e+01
0	 8.148148e+00	 7.629630e+00	 1.002708e+01
0	 8.148148e+00	 7.703704e+00	 1.002580e+01
0	 8.148148e+00	 7.777778e+00	 1.002451e+01
0	 8.222222e+00	 7.407407e+00	 1.002925e+01
0	 8.222222e+00	 7.481481e+00	 1.002804e+01
0	 8.222222e+00	 7.555556e+00	 1.002683e+01
0	 8.222222e+00	 7.629630e+00	 1.002562e+01
0	 8.222222e+00	 7.703704e+00	 1.002440e+01
0	 8.222222e+00	 7.777778e+00	 1.002319e+01
0	 8.296296e+00	 7.407407e+00	 1.002756e+01
0	 8.296296e+00	 7.481481e+00	 1.002643e+01
0	 8.296296e+00	 7.555556e+00	 1.002530e+01
0	 8.296296e+00	 7.629630e+00	 1.002417e+01
0	 8.296296e+00	 7.703704e+00	 1.002303e+01
0	 8.296296e+00	 7.777778e+00	 1.002189e+01
0	 8.370370e+00	 7.407407e+00	 1.002590e+01
0	 8.370370e+00	 7.481481e+00	 1.002484e+01
0	 8.370370e+00	 7.555556e+00	 1.002379e+01
0	 8.370370e+00	 7.629630e+00	 1.002274e+01
0	 8.370370e+00	 7.703704e+00	 1.002168e+01
0	 8.370370e+00	 7.777778e+00	 1.002062e+01
0	 8.444444e+00	 7.407407e+00	 1.002426e+01
0	 8.444444e+00	 7.481481e+00	 1.002329e+01
0	 8.444444e+00	 7.555556e+00	 1.002231e+01
0	 8.444444e+00	 7.629630e+00	 1.002134e+01
0	 8.444444e+00	 7.703704e+00	 1.002035e+01
0	 8.444444e+00	 7.777778e+00	 1.001936e+01
0	 8.518519e+00	 7.407407e+00	 1.002267e+01
0	 8.518519e+00	 7.481481e+00	 1.002177e+01
0	 8.518519e+00	 7.555556e+00	 1.002087e+01
0	 8.518519e+00	 7.629630e+00	 1.001996e+01
0	 8.518519e+00	 7.703704e+00	 1.001905e+01
0	 8.518519e+00	 7.777778e+00	 1.001813e+01
0	 8.148148e+00	 7.777778e+00	 1.002451e+01
0	 8.148148e+00	 7.851852e+00	 1.002322e+01
0	 8.148148e+00	 7.925926e+00	 1.002196e+01
0	 8.148148e+00	 8.000000e+00	 1.002071e+01
0	 8.148148e+00	 8.074074e+00	 1.001947e+01
0	 8.148148e+00	 8.148148e+00	 1.001824e+01
0	 8.222222e+00	 7.777778e+00	 1.002319e+01
0	 8.222222e+00	 7.851852e+00	 1.002198e+01
0	 8.222222e+00	 7.925926e+00	 1.002079e+01
0	 8.222222e+00	 8.000000e+00	 1.001961e+01
0	 8.222222e+00	 8.074074e+00	 1.001844e+01
0	 8.222222e+00	 8.148148e+00	 1.001728e+01
0	 8.296296e+00	 7.777778e+00	 1.002189e+01
0	 8.296296e+00	 7.851852e+00	 1.002076e+01
0	 8.296296e+00	 7.925926e+00	 1.001964e+01
0	 8.296296e+00	 8.000000e+00	 1.001853e+01
0	 8.296296e+00	 8.074074e+00	 1.001743e+01
0	 8.296296e+00	 8.148148e+00	 1.001634e+01
0	 8.370370e+00	 7.777778e+00	 1.002062e+01
0	 8.370370e+00	 7.851852e+00	 1.001955e+01
0	 8.370370e+00	 7.925926e+00	 1.001850e+01
0	 8.370370e+00	 8.000000e+00	 1.001746e+01
0	 8.370370e+00	 8.074074e+00	 1.001643e+01
0	 8.370370e+00	 8.148148e+00	 1.001540e+01
0	 8.444444e+00	 7.777778e+00	 1.001936e+01
0	 8.444444e+00	 7.851852e+00	 1.001837e+01
0	 8.444444e+00	 7.925926e+00	 1.001739e+01
0	 8.444444e+00	 8.000000e+00	 1.001641e+01
0	 8.444444e+00	 8.074074e+00	 1.001545e+01
0	 8.444444e+00	 8.148148e+00	 1.001448e+01
0	 8.518519e+00	 7.777778e+00	 1.001813e+01
0	 8.518519e+00	 7.851852e+00	 1.001720e+01
0	 8.518519e+00	 7.925926e+00	 1.001629e+01
0	 8.518519e+00	 8.000000e+00	 1.001538e+01
0	 8.518519e+00	 8.074074e+00	 1.001448e+01
0	 8.518519e+00	 8.148148e+00	 1.001358e+01
0	 8.148148e+00	 8.148148e+00	 1.001824e+01
0	 8.148148e+00	 8.222222e+00	 1.001703e+01
0	 8.148148e+00	 8.296296e+00	 1.001585e+01
0	 8.148148e+00	 8.370370e+00	 1.001470e+01
0	 8.148148e+00	 8.444444e+00	 1.001357e+01
0	 8.148148e+00	 8.518519e+00	 1.001246e+01
0	 8.222222e+00	 8.148148e+00	 1.001728e+01
0	 8.222222e+00	 8.222222e+00	 1.001614e+01
0	 8.222222e+00	 8.296296e+00	 1.001503e+01
0	 8.222222e+00	 8.370370e+00	 1.001393e+01
0	 8.222222e+00	 8.444444e+00	 1.001286e+01
0	 8.222222e+00	 8.518519e+00	 1.001181e+01
0	 8.296296e+00	 8.148148e+00	 1.001634e+01
0	 8.296296e+00	 8.222222e+00	 1.001526e+01
0	 8.296296e+00	 8.296296e+00	 1.001421e+01
0	 8.296296e+00	 8.370370e+00	 1.001318e+01
0	 8.296296e+00	 8.444444e+00	 1.001217e+01
0	 8.296296e+00	 8.518519e+00	 1.001118e+01
0	 8.370370e+00	 8.148148e+00	 1.001540e+01
0	 8.370370e+00	 8.222222e+00	 1.001439e+01
0	 8.370370e+00	 8.296296e+00	 1.001340e+01
0	 8.370370e+00	 8.370370e+00	 1.001243e+01
0	 8.370370e+00	 8.444444e+00	 1.001148e+01
0	 8.370370e+00	 8.518519e+00	 1.001054e+01
0	 8.444444e+00	 8.148148e+00	 1.001448e+01
0	 8.444444e+00	 8.222222e+00	 1.001353e+01
0	 8.444444e+00	 8.296296e+00	 1.001260e+01
0	 8.444444e+00	 8.370370e+00	 1.001169e+01
0	 8.444444e+00	 8.444444e+00	 1.001080e+01
0	 8.444444e+00	 8.518519e+00	 1.000992e+01
0	 8.518519e+00	 8.148148e+00	 1.001358e+01
0	 8.518519e+00	 8.222222e+00	 1.001269e+01
0	 8.518519e+00	 8.296296e+00	 1.001182e+01
0	 8.518519e+00	 8.370370e+00	 1.001097e+01
0	 8.518519e+00	 8.444444e+00	 1.001013e+01
0	 8.518519e+00	 8.518519e+00	 1.000930e+01
0	 8.148148e+00	 8.518519e+00	 1.001246e+01
0	 8.148148e+00	 8.592593e+00	 1.001138e+01
0	 8.148148e+00	 8.666667e+00	 1.001034e+01
0	 8.148148e+00	 8.740741e+00	 1.000934e+01
0	 8.148148e+00	 8.814815e+00	 1.000838e+01
0	 8.148148e+00	 8.888889e+00	 1.000745e+01
0	 8.222222e+00	 8.518519e+00	 1.001181e+01
0	 8.222222e+00	 8.592593e+00	 1.001079e+01
0	 8.222222e+00	 8.666667e+00	 1.000981e+01
0	 8.222222e+00	 8.740741e+00	 1.000886e+01
0	 8.222222e+00	 8.814815e+00	 1.000795e+01
0	 8.222222e+00	 8.888889e+00	 1.000707e+01
0	 8.296296e+00	 8.518519e+00	 1.001118e+01
0	 8.296296e+00	 8.592593e+00	 1.001021e+01
0	 8.296296e+00	 8.666667e+00	 1.000928e+01
0	 8.296296e+00	 8.740741e+00	 1.000839e+01
0	 8.296296e+00	 8.814815e+00	 1.000752e+01
0	 8.296296e+00	 8.888889e+00	 1.000669e+01
0	 8.370370e+00	 8.518519e+00	 1.001054e+01
0	 8.370370e+00	 8.592593e+00	 1.000963e+01
0	 8.370370e+00	 8.666667e+00	 1.000876e+01
0	 8.370370e+00	 8.740741e+00	 1.000791e+01
0	 8.370370e+00	 8.814815e+00	 1.000710e+01
0	 8.370370e+00	 8.888889e+00	 1.000631e+01
0	 8.444444e+00	 8.518519e+00	 1.000992e+01
0	 8.444444e+00	 8.592593e+00	 1.000906e+01
0	 8.444444e+00	 8.666667e+00	 1.000824e+01
0	 8.444444e+00	 8.740741e+00	 1.000744e+01
0	 8.444444e+00	 8.814815e+00	 1.000668e+01
0	 8.444444e+00	 8.888889e+00	 1.000593e+01
0	 8.518519e+00	 8.518519e+00	 1.000930e+01
0	 8.518519e+00	 8.592593e+00	 1.000850e+01
0	 8.518519e+00	 8.666667e+00	 1.000773e+01
0	 8.518519e+00	 8.740741e+00	 1.000698e+01
0	 8.518519e+00	 8.814815e+00	 1.000626e+01
0	 8.518519e+00	 8.888889e+00	 1.000557e+01
0	 8.148148e+00	 8.888889e+00	 1.000745e+01
0	 8.148148e+00	 8.962963e+00	 1.000656e+01
0	 8.148148e+00	 9.037037e+00	 1.000572e+01
0	 8.148148e+00	 9.111111e+00	 1.000494e+01
0	 8.148148e+00	 9.185185e+00	 1.000420e+01
0	 8.148148e+00	 9.259259e+00	 1.000350e+01
0	 8.222222e+00	 8.888889e+00	 1.000707e+01
0	 8.222222e+00	 8.962963e+00	 1.000622e+01
0	 8.222222e+00	 9.037037e+00	 1.000543e+01
0	 8.222222e+00	 9.111111e+00	 1.000469e+01
0	 8.222222e+00	 9.185185e+00	 1.000398e+01
0	 8.222222e+00	 9.259259e+00	 1.000333e+01
0	 8.296296e+00	 8.888889e+00	 1.000669e+01
0	 8.296296e+00	 8.962963e+00	 1.000589e+01
0	 8.296296e+00	 9.037037e+00	 1.000514e+01
0	 8.296296e+00	 9.111111e+00	 1.000443e+01
0	 8.296296e+00	 9.185185e+00	 1.000377e+01
0	 8.296296e+00	 9.259259e+00	 1.000315e+01
0	 8.370370e+00	 8.888889e+00	 1.000631e+01
0	 8.370370e+00	 8.962963e+00	 1.000556e+01
0	 8.370370e+00	 9.037037e+00	 1.000485e+01
0	 8.370370e+00	 9.111111e+00	 1.000418e+01
0	 8.370370e+00	 9.185185e+00	 1.000356e+01
0	 8.370370e+00	 9.259259e+00	 1.000297e+01
0	 8.444444e+00	 8.888889e+00	 1.000593e+01
0	 8.444444e+00	 8.962963e+00	 1.000523e+01
0	 8.444444e+00	 9.037037e+00	 1.000456e+01
0	 8.444444e+00	 9.111111e+00	 1.000393e+01
0	 8.444444e+00	 9.185185e+00	 1.000334e+01
0	 8.444444e+00	 9.259259e+00	 1.000279e+01
0	 8.518519e+00	 8.888889e+00	 1.000557e+01
0	 8.518519e+00	 8.962963e+00	 1.000490e+01
0	 8.518519e+00	 9.037037e+00	 1.000428e+01
0	 8.518519e+00	 9.111111e+00	 1.000369e+01
0	 8.518519e+00	 9.185185e+00	 1.000314e+01
0	 8.518519e+00	 9.259259e+00	 1.000262e+01
0	 8.148148e+00	 9.259259e+00	 1.000350e+01
0	 8.148148e+00	 9.333333e+00	 1.000286e+01
0	 8.148148e+00	 9.407407e+00	 1.000229e+01
0	 8.148148e+00	 9.481481e+00	 1.000178e+01
0	 8.148148e+00	 9.555556e+00	 1.000132e+01
0	 8.148148e+00	 9.629630e+00	 1.000092e+01
0	 8.222222e+00	 9.259259e+00	 1.000333e+01
0	 8.222222e+00	 9.333333e+00	 1.000272e+01
0	 8.222222e+00	 9.407407e+00	 1.000217e+01
0	 8.222222e+00	 9.481481e+00	 1.000169e+01
0	 8.222222e+00	 9.555556e+00	 1.000126e+01
0	 8.222222e+00	 9.629630e+00	 1.000088e+01
0	 8.296296e+00	 9.259259e+00	 1.000315e+01
0	 8.296296e+00	 9.333333e+00	 1.000257e+01
0	 8.296296e+00	 9.407407e+00	 1.000206e+01
0	 8.296296e+00	 9.481481e+00	 1.000160e+01
0	 8.296296e+00	 9.555556e+00	 1.000119e+01
0	 8.296296e+00	 9.629630e+00	 1.000083e+01
0	 8.370370e+00	 9.259259e+00	 1.000297e+01
0	 8.370370e+00	 9.333333e+00	 1.000243e+01
0	 8.370370e+00	 9.407407e+00	 1.000194e+01
0	 8.370370e+00	 9.481481e+00	 1.000150e+01
0	 8.370370e+00	 9.555556e+00	 1.000112e+01
0	 8.370370e+00	 9.629630e+00	 1.000078e+01
0	 8.444444e+00	 9.259259e+00	 1.000279e+01
0	 8.444444e+00	 9.333333e+00	 1.000228e+01
0	 8.444444e+00	 9.407407e+00	 1.000182e+01
0	 8.444444e+00	 9.481481e+00	 1.000141e+01
0	 8.444444e+00	 9.555556e+00	 1.000105e+01
0	 8.444444e+00	 9.629630e+00	 1.000074e+01
0	 8.518519e+00	 9.259259e+00	 1.000262e+01
0	 8.518519e+00	 9.333333e+00	 1.000214e+01
0	 8.518519e+00	 9.407407e+00	 1.000171e+01
0	 8.518519e+00	 9.481481e+00	 1.000133e+01
0	 8.518519e+00	 9.555556e+00	 1.000099e+01
0	 8.518519e+00	 9.629630e+00	 1.000069e+01
0	 8.148148e+00	 9.629630e+00	 1.000092e+01
0	 8.148148e+00	 9.703704e+00	 1.000059e+01
0	 8.148148e+00	 9.777778e+00	 1.000034e+01
0	 8.148148e+00	 9.851852e+00	 1.000015e+01
0	 8.148148e+00	 9.925926e+00	 1.000004e+01
0	 8.148148e+00	 1.000000e+01	 9.999994e+00
0	 8.222222e+00	 9.629630e+00	 1.000088e+01
0	 8.222222e+00	 9.703704e+00	 1.000056e+01
0	 8.222222e+00	 9.777778e+00	 1.000032e+01
0	 8.222222e+00	 9.851852e+00	 1.000015e+01
0	 8.222222e+00	 9.925926e+00	 1.000004e+01
0	 8.222222e+00	 1.000000e+01	 9.999996e+00
0	 8.296296e+00	 9.629630e+00	 1.000083e+01
0	 8.296296e+00	 9.703704e+00	 1.000053e+01
0	 8.296296e+00	 9.777778e+00	 1.000030e+01
0	 8.296296e+00	 9.851852e+00	 1.000014e+01
0	 8.296296e+00	 9.925926e+00	 1.000004e+01
0	 8.296296e+00	 1.000000e+01	 9.999995e+00
0	 8.370370e+00	 9.629630e+00	 1.000078e+01
0	 8.370370e+00	 9.703704e+00	 1.000050e+01
0	 8.370370e+00	 9.777778e+00	 1.000029e+01
0	 8.370370e+00	 9.851852e+00	 1.000013e+01
0	 8.370370e+00	 9.925926e+00	 1.000003e+01
0	 8.370370e+00	 1.000000e+01	 9.999993e+00
0	 8.444444e+00	 9.629630e+00	 1.000074e+01
0	 8.444444e+00	 9.703704e+00	 1.000047e+01
0	 8.444444e+00	 9.777778e+00	 1.000027e+01
0	 8.444444e+00	 9.851852e+00	 1.000012e+01
0	 8.444444e+00	 9.925926e+00	 1.000003e+01
0	 8.444444e+00	 1.000000e+01	 9.999992e+00
0	 8.518519e+00	 9.629630e+00	 1.000069e+01
0	 8.518519e+00	 9.703704e+00	 1.000044e+01
0	 8.518519e+00	 9.777778e+00	 1.000025e+01
0	 8.518519e+00	 9.851852e+00	 1.000012e+01
0	 8.518519e+00	 9.925926e+00	 1.000003e+01
0	 8.518519e+00	 1.000000e+01	 9.999995e+00
0	 8.518519e+00	 0.000000e+00	 9.905723e+00
0	 8.518519e+00	 7.407407e-02	 9.905793e+00
0	 8.518519e+00	 1.481481e-01	 9.906002e+00
0	 8.518519e+00	 2.222222e-01	 9.906348e+00
0	 8.518519e+00	 2.962963e-01	 9.906834e+00
0	 8.518519e+00	 3.703704e-01	 9.907460e+00
0	 8.592593e+00	 0.000000e+00	 9.895657e+00
0	 8.592593e+00	 7.407407e-02	 9.895728e+00
0	 8.592593e+00	 1.481481e-01	 9.895939e+00
0	 8.592593e+00	 2.222222e-01	 9.896290e+00
0	 8.592593e+00	 2.962963e-01	 9.896782e+00
0	 8.592593e+00	 3.703704e-01	 9.897415e+00
0	 8.666667e+00	 0.000000e+00	 9.885400e+00
0	 8.666667e+00	 7.407407e-02	 9.885472e+00
0	 8.666667e+00	 1.481481e-01	 9.885687e+00
0	 8.666667e+00	 2.222222e-01	 9.886043e+00
0	 8.666667e+00	 2.962963e-01	 9.886543e+00
0	 8.666667e+00	 3.703704e-01	 9.887186e+00
0	 8.740741e+00	 0.000000e+00	 9.874935e+00
0	 8.740741e+00	 7.407407e-02	 9.875009e+00
0	 8.740741e+00	 1.481481e-01	 9.875227e+00
0	 8.740741e+00	 2.222222e-01	 9.875590e+00
0	 8.740741e+00	 2.962963e-01	 9.876099e+00
0	 8.740741e+00	 3.703704e-01	 9.876754e+00
0	 8.814815e+00	 0.000000e+00	 9.864245e+00
0	 8.814815e+00	 7.407407e-02	 9.864319e+00
0	 8.814815e+00	 1.481481e-01	 9.864542e+00
0	 8.814815e+00	 2.222222e-01	 9.864913e+00
0	 8.814815e+00	 2.962963e-01	 9.865433e+00
0	 8.814815e+00	 3.703704e-01	 9.866102e+00
0	 8.888889e+00	 0.000000e+00	 9.853311e+00
0	 8.888889e+00	 7.407407e-02	 9.853387e+00
0	 8.888889e+00	 1.481481e-01	 9.853616e+00
0	 8.888889e+00	 2.222222e-01	 9.853996e+00
0	 8.888889e+00	 2.962963e-01	 9.854529e+00
0	 8.888889e+00	 3.703704e-01	 9.855215e+00
0	 8.518519e+00	 3.703704e-01	 9.907460e+00
0	 8.518519e+00	 4.444444e-01	 9.908218e+00
0	 8.518519e+00	 5.185185e-01	 9.909104e+00
0	 8.518519e+00	 5.925926e-01	 9.910118e+00
0	 8.518519e+00	 6.666667e-01	 9.911263e+00
0	 8.518519e+00	 7.407407e-01	 9.912541e+00
0	 8.592593e+00	 3.703704e-01	 9.897415e+00
0	 8.592593e+00	 4.444444e-01	 9.898184e+00
0	 8.592593e+00	 5.185185e-01	 9.899081e+00
0	 8.592593e+00	 5.925926e-01	 9.900109e+00
0	 8.592593e+00	 6.666667e-01	 9.901270e+00
0	 8.592593e+00	 7.407407e-01	 9.902565e+00
0	 8.666667e+00	 3.703704e-01	 9.887186e+00
0	 8.666667e+00	 4.444444e-01	 9.887966e+00
0	 8.666667e+00	 5.185185e-01	 9.888878e+00
0	 8.666667e+00	 5.925926e-01	 9.889923e+00
0	 8.666667e+00	 6.666667e-01	 9.891103e+00
0	 8.666667e+00	 7.407407e-01	 9.892420e+00
0	 8.740741e+00	 3.703704e-01	 9.876754e+00
0	 8.740741e+00	 4.444444e-01	 9.877549e+00
0	 8.740741e+00	 5.185185e-01	 9.878479e+00
0	 8.740741e+00	 5.925926e-01	 9.879544e+00
0	 8.740741e+00	 6.666667e-01	 9.880748e+00
0	 8.740741e+00	 7.407407e-01	 9.882090e+00
0	 8.814815e+00	 3.703704e-01	 9.866102e+00
0	 8.814815e+00	 4.444444e-01	 9.866915e+00
0	 8.814815e+00	 5.185185e-01	 9.867866e+00
0	 8.814815e+00	 5.925926e-01	 9.868956e+00
0	 8.814815e+00	 6.666667e-01	 9.870186e+00
0	 8.814815e+00	 7.407407e-01	 9.871559e+00
0	 8.888889e+00	 3.703704e-01	 9.855215e+00
0	 8.888889e+00	 4.444444e-01	 9.856048e+00
0	 8.888889e+00	 5.185185e-01	 9.857022e+00
0	 8.888889e+00	 5.925926e-01	 9.858140e+00
0	 8.888889e+00	 6.666667e-01	 9.859402e+00
0	 8.888889e+00	 7.407407e-01	 9.860810e+00
0	 8.518519e+00	 7.407407e-01	 9.912541e+00
0	 8.518519e+00	 8.148148e-01	 9.913938e+00
0	 8.518519e+00	 8.888889e-01	 9.915443e+00
0	 8.518519e+00	 9.629630e-01	 9.917058e+00
0	 8.518519e+00	 1.037037e+00	 9.918786e+00
0	 8.518519e+00	 1.111111e+00	 9.920630e+00
0	 8.592593e+00	 7.407407e-01	 9.902565e+00
0	 8.592593e+00	 8.148148e-01	 9.903982e+00
0	 8.592593e+00	 8.888889e-01	 9.905508e+00
0	 8.592593e+00	 9.629630e-01	 9.907147e+00
0	 8.592593e+00	 1.037037e+00	 9.908902e+00
0	 8.592593e+00	 1.111111e+00	 9.910774e+00
0	 8.666667e+00	 7.407407e-01	 9.892420e+00
0	 8.666667e+00	 8.148148e-01	 9.893861e+00
0	 8.666667e+00	 8.888889e-01	 9.895414e+00
0	 8.666667e+00	 9.629630e-01	 9.897082e+00
0	 8.666667e+00	 1.037037e+00	 9.898869e+00
0	 8.666667e+00	 1.111111e+00	 9.900775e+00
0	 8.740741e+00	 7.407407e-01	 9.882090e+00
0	 8.740741e+00	 8.148148e-01	 9.883559e+00
0	 8.740741e+00	 8.888889e-01	 9.885144e+00
0	 8.740741e+00	 9.629630e-01	 9.886848e+00
0	 8.740741e+00	 1.037037e+00	 9.888672e+00
0	 8.740741e+00	 1.111111e+00	 9.890618e+00
0	 8.814815e+00	 7.407407e-01	 9.871559e+00
0	 8.814815e+00	 8.148148e-01	 9.873062e+00
0	 8.814815e+00	 8.888889e-01	 9.874684e+00
0	 8.814815e+00	 9.629630e-01	 9.876428e+00
0	 8.814815e+00	 1.037037e+00	 9.878296e+00
0	 8.814815e+00	 1.111111e+00	 9.880289e+00
0	 8.888889e+00	 7.407407e-01	 9.860810e+00
0	 8.888889e+00	 8.148148e-01	 9.862352e+00
0	 8.888889e+00	 8.888889e-01	 9.864017e+00
0	 8.888889e+00	 9.629630e-01	 9.865807e+00
0	 8.888889e+00	 1.037037e+00	 9.867725e+00
0	 8.888889e+00	 1.111111e+00	 9.869772e+00
0	 8.518519e+00	 1.111111e+00	 9.920630e+00
0	 8.518519e+00	 1.185185e+00	 9.922573e+00
0	 8.518519e+00	 1.259259e+00	 9.924597e+00
0	 8.518519e+00	 1.333333e+00	 9.926707e+00
0	 8.518519e+00	 1.407407e+00	 9.928905e+00
0	 8.518519e+00	 1.481481e+00	 9.931196e+00
0	 8.592593e+00	 1.111111e+00	 9.910774e+00
0	 8.592593e+00	 1.185185e+00	 9.912747e+00
0	 8.592593e+00	 1.259259e+00	 9.914805e+00
0	 8.592593e+00	 1.333333e+00	 9.916951e+00
0	 8.592593e+00	 1.407407e+00	 9.919189e+00
0	 8.592593e+00	 1.481481e+00	 9.921521e+00
0	 8.666667e+00	 1.111111e+00	 9.900775e+00
0	 8.666667e+00	 1.185185e+00	 9.902785e+00
0	 8.666667e+00	 1.259259e+00	 9.904883e+00
0	 8.666667e+00	 1.333333e+00	 9.907073e+00
0	 8.666667e+00	 1.407407e+00	 9.909356e+00
0	 8.666667e+00	 1.481481e+00	 9.911736e+00
0	 8.740741e+00	 1.111111e+00	 9.890618e+00
0	 8.740741e+00	 1.185185e+00	 9.892672e+00
0	 8.740741e+00	 1.259259e+00	 9.894817e+00
0	 8.740741e+00	 1.333333e+00	 9.897056e+00
0	 8.740741e+00	 1.407407e+00	 9.899392e+00
0	 8.740741e+00	 1.481481e+00	 9.901828e+00
0	 8.814815e+00	 1.111111e+00	 9.880289e+00
0	 8.814815e+00	 1.185185e+00	 9.882393e+00
0	 8.814815e+00	 1.259259e+00	 9.884592e+00
0	 8.814815e+00	 1.333333e+00	 9.886888e+00
0	 8.814815e+00	 1.407407e+00	 9.889285e+00
0	 8.814815e+00	 1.481481e+00	 9.891784e+00
0	 8.888889e+00	 1.111111e+00	 9.869772e+00
0	 8.888889e+00	 1.185185e+00	 9.871933e+00
0	 8.888889e+00	 1.259259e+00	 9.874193e+00
0	 8.888889e+00	 1.333333e+00	 9.876554e+00
0	 8.888889e+00	 1.407407e+00	 9.879020e+00
0	 8.888889e+00	 1.481481e+00	 9.881591e+00
0	 8.518519e+00	 1.481481e+00	 9.931196e+00
0	 8.518519e+00	 1.555556e+00	 9.933560e+00
0	 8.518519e+00	 1.629630e+00	 9.935976e+00
0	 8.518519e+00	 1.703704e+00	 9.938448e+00
0	 8.518519e+00	 1.777778e+00	 9.940981e+00
0	 8.518519e+00	 1.851852e+00	 9.943578e+00
0	 8.592593e+00	 1.481481e+00	 9.921521e+00
0	 8.592593e+00	 1.555556e+00	 9.923929e+00
0	 8.592593e+00	 1.629630e+00	 9.926392e+00
0	 8.592593e+00	 1.703704e+00	 9.928915e+00
0	 8.592593e+00	 1.777778e+00	 9.931501e+00
0	 8.592593e+00	 1.851852e+00	 9.934153e+00
0	 8.666667e+00	 1.481481e+00	 9.911736e+00
0	 8.666667e+00	 1.555556e+00	 9.914195e+00
0	 8.666667e+00	 1.629630e+00	 9.916713e+00
0	 8.666667e+00	 1.703704e+00	 9.919293e+00
0	 8.666667e+00	 1.777778e+00	 9.921940e+00
0	 8.666667e+00	 1.851852e+00	 9.924656e+00
0	 8.740741e+00	 1.481481e+00	 9.901828e+00
0	 8.740741e+00	 1.555556e+00	 9.904346e+00
0	 8.740741e+00	 1.629630e+00	 9.906926e+00
0	 8.740741e+00	 1.703704e+00	 9.909572e+00
0	 8.740741e+00	 1.777778e+00	 9.912288e+00
0	 8.740741e+00	 1.851852e+00	 9.915075e+00
0	 8.814815e+00	 1.481481e+00	 9.891784e+00
0	 8.814815e+00	 1.555556e+00	 9.894369e+00
0	 8.814815e+00	 1.629630e+00	 9.897019e+00
0	 8.814815e+00	 1.703704e+00	 9.899740e+00
0	 8.814815e+00	 1.777778e+00	 9.902532e+00
0	 8.814815e+00	 1.851852e+00	 9.905400e+00
0	 8.888889e+00	 1.481481e+00	 9.881591e+00
0	 8.888889e+00	 1.555556e+00	 9.884251e+00
0	 8.888889e+00	 1.629630e+00	 9.886981e+00
0	 8.888889e+00	 1.703704e+00	 9.889783e+00
0	 8.888889e+00	 1.777778e+00	 9.892662e+00
0	 8.888889e+00	 1.851852e+00	 9.895619e+00
0	 8.518519e+00	 1.851852e+00	 9.943578e+00
0	 8.518519e+00	 1.925926e+00	 9.946218e+00
0	 8.518519e+00	 2.000000e+00	 9.948880e+00
0	 8.518519e+00	 2.074074e+00	 9.951570e+00
0	 8.518519e+00	 2.148148e+00	 9.954289e+00
0	 8.518519e+00	 2.222222e+00	 9.957042e+00
0	 8.592593e+00	 1.851852e+00	 9.934153e+00
0	 8.592593e+00	 1.925926e+00	 9.936852e+00
0	 8.592593e+00	 2.000000e+00	 9.939577e+00
0	 8.592593e+00	 2.074074e+00	 9.942332e+00
0	 8.592593e+00	 2.148148e+00	 9.945119e+00
0	 8.592593e+00	 2.222222e+00	 9.947944e+00
0	 8.666667e+00	 1.851852e+00	 9.924656e+00
0	 8.666667e+00	 1.925926e+00	 9.927421e+00
0	 8.666667e+00	 2.000000e+00	 9.930216e+00
0	 8.666667e+00	 2.074074e+00	 9.933044e+00
0	 8.666667e+00	 2.148148e+00	 9.935908e+00
0	 8.666667e+00	 2.222222e+00	 9.938811e+00
0	 8.740741e+00	 1.851852e+00	 9.915075e+00
0	 8.740741e+00	 1.925926e+00	 9.917915e+00
0	 8.740741e+00	 2.000000e+00	 9.920788e+00
0	 8.740741e+00	 2.074074e+00	 9.923697e+00
0	 8.740741e+00	 2.148148e+00	 9.926646e+00
0	 8.740741e+00	 2.222222e+00	 9.929636e+00
0	 8.814815e+00	 1.851852e+00	 9.905400e+00
0	 8.814815e+00	 1.925926e+00	 9.908323e+00
0	 8.814815e+00	 2.000000e+00	 9.911283e+00
0	 8.814815e+00	 2.074074e+00	 9.914282e+00
0	 8.814815e+00	 2.148148e+00	 9.917324e+00
0	 8.814815e+00	 2.222222e+00	 9.920410e+00
0	 8.888889e+00	 1.851852e+00	 9.895619e+00
0	 8.888889e+00	 1.925926e+00	 9.898635e+00
0	 8.888889e+00	 2.000000e+00	 9.901691e+00
0	 8.888889e+00	 2.074074e+00	 9.904789e+00
0	 8.888889e+00	 2.148148e+00	 9.907933e+00
0	 8.888889e+00	 2.222222e+00	 9.911125e+00
0	 8.518519e+00	 2.222222e+00	 9.957042e+00
0	 8.518519e+00	 2.296296e+00	 9.959809e+00
0	 8.518519e+00	 2.370370e+00	 9.962570e+00
0	 8.518519e+00	 2.444444e+00	 9.965328e+00
0	 8.518519e+00	 2.518519e+00	 9.968087e+00
0	 8.518519e+00	 2.592593e+00	 9.970850e+00
0	 8.592593e+00	 2.222222e+00	 9.947944e+00
0	 8.592593e+00	 2.296296e+00	 9.950785e+00
0	 8.592593e+00	 2.370370e+00	 9.953624e+00
0	 8.592593e+00	 2.444444e+00	 9.956463e+00
0	 8.592593e+00	 2.518519e+00	 9.959307e+00
0	 8.592593e+00	 2.592593e+00	 9.962157e+00
0	 8.666667e+00	 2.222222e+00	 9.938811e+00
0	 8.666667e+00	 2.296296e+00	 9.941735e+00
0	 8.666667e+00	 2.370370e+00	 9.944659e+00
0	 8.666667e+00	 2.444444e+00	 9.947587e+00
0	 8.666667e+00	 2.518519e+00	 9.950521e+00
0	 8.666667e+00	 2.592593e+00	 9.953465e+00
0	 8.740741e+00	 2.222222e+00	 9.929636e+00
0	 8.740741e+00	 2.296296e+00	 9.932650e+00
0	 8.740741e+00	 2.370370e+00	 9.935668e+00
0	 8.740741e+00	 2.444444e+00	 9.938692e+00
0	 8.740741e+00	 2.518519e+00	 9.941725e+00
0	 8.740741e+00	 2.592593e+00	 9.944771e+00
0	 8.814815e+00	 2.222222e+00	 9.920410e+00
0	 8.814815e+00	 2.296296e+00	 9.923523e+00
0	 8.814815e+00	 2.370370e+00	 9.926642e+00
0	 8.814815e+00	 2.444444e+00	 9.929771e+00
0	 8.814815e+00	 2.518519e+00	 9.932913e+00
0	 8.814815e+00	 2.592593e+00	 9.936069e+00
0	 8.888889e+00	 2.222222e+00	 9.911125e+00
0	 8.888889e+00	 2.296296e+00	 9.914346e+00
0	 8.888889e+00	 2.370370e+00	 9.917576e+00
0	 8.888889e+00	 2.444444e+00	 9.920819e+00
0	 8.888889e+00	 2.518519e+00	 9.924077e+00
0	 8.888889e+00	 2.592593e+00	 9.927353e+00
0	 8.518519e+00	 2.592593e+00	 9.970850e+00
0	 8.518519e+00	 2.666667e+00	 9.973600e+00
0	 8.518519e+00	 2.740741e+00	 9.976319e+00
0	 8.518519e+00	 2.814815e+00	 9.979009e+00
0	 8.518519e+00	 2.888889e+00	 9.981674e+00
0	 8.518519e+00	 2.962963e+00	 9.984316e+00
0	 8.592593e+00	 2.592593e+00	 9.962157e+00
0	 8.592593e+00	 2.666667e+00	 9.964996e+00
0	 8.592593e+00	 2.740741e+00	 9.967808e+00
0	 8.592593e+00	 2.814815e+00	 9.970594e+00
0	 8.592593e+00	 2.888889e+00	 9.973357e+00
0	 8.592593e+00	 2.962963e+00	 9.976101e+00
0	 8.666667e+00	 2.592593e+00	 9.953465e+00
0	 8.666667e+00	 2.666667e+00	 9.956402e+00
0	 8.666667e+00	 2.740741e+00	 9.959313e+00
0	 8.666667e+00	 2.814815e+00	 9.962202e+00
0	 8.666667e+00	 2.888889e+00	 9.965070e+00
0	 8.666667e+00	 2.962963e+00	 9.967921e+00
0	 8.740741e+00	 2.592593e+00	 9.944771e+00
0	 8.740741e+00	 2.666667e+00	 9.947812e+00
0	 8.740741e+00	 2.740741e+00	 9.950831e+00
0	 8.740741e+00	 2.814815e+00	 9.953829e+00
0	 8.740741e+00	 2.888889e+00	 9.956810e+00
0	 8.740741e+00	 2.962963e+00	 9.959775e+00
0	 8.814815e+00	 2.592593e+00	 9.936069e+00
0	 8.814815e+00	 2.666667e+00	 9.939223e+00
0	 8.814815e+00	 2.740741e+00	 9.942356e+00
0	 8.814815e+00	 2.814815e+00	 9.945472e+00
0	 8.814815e+00	 2.888889e+00	 9.948572e+00
0	 8.814815e+00	 2.962963e+00	 9.951659e+00
0	 8.888889e+00	 2.592593e+00	 9.927353e+00
0	 8.888889e+00	 2.666667e+00	 9.930628e+00
0	 8.888889e+00	 2.740741e+00	 9.933885e+00
0	 8.888889e+00	 2.814815e+00	 9.937127e+00
0	 8.888889e+00	 2.888889e+00	 9.940355e+00
0	 8.888889e+00	 2.962963e+00	 9.943573e+00
0	 8.518519e+00	 2.962963e+00	 9.984316e+00
0	 8.518519e+00	 3.037037e+00	 9.986920e+00
0	 8.518519e+00	 3.111111e+00	 9.989474e+00
0	 8.518519e+00	 3.185185e+00	 9.991977e+00
0	 8.518519e+00	 3.259259e+00	 9.994433e+00
0	 8.518519e+00	 3.333333e+00	 9.996844e+00
0	 8.592593e+00	 2.962963e+00	 9.976101e+00
0	 8.592593e+00	 3.037037e+00	 9.978809e+00
0	 8.592593e+00	 3.111111e+00	 9.981469e+00
0	 8.592593e+00	 3.185185e+00	 9.984081e+00
0	 8.592593e+00	 3.259259e+00	 9.986649e+00
0	 8.592593e+00	 3.333333e+00	 9.989172e+00
0	 8.666667e+00	 2.962963e+00	 9.967921e+00
0	 8.666667e+00	 3.037037e+00	 9.970740e+00
0	 8.666667e+00	 3.111111e+00	 9.973512e+00
0	 8.666667e+00	 3.185185e+00	 9.976238e+00
0	 8.666667e+00	 3.259259e+00	 9.978922e+00
0	 8.666667e+00	 3.333333e+00	 9.981565e+00
0	 8.740741e+00	 2.962963e+00	 9.959775e+00
0	 8.740741e+00	 3.037037e+00	 9.962710e+00
0	 8.740741e+00	 3.111111e+00	 9.965600e+00
0	 8.740741e+00	 3.185185e+00	 9.968448e+00
0	 8.740741e+00	 3.259259e+00	 9.971254e+00
0	 8.740741e+00	 3.333333e+00	 9.974021e+00
0	 8.814815e+00	 2.962963e+00	 9.951659e+00
0	 8.814815e+00	 3.037037e+00	 9.954719e+00
0	 8.814815e+00	 3.111111e+00	 9.957735e+00
0	 8.814815e+00	 3.185185e+00	 9.960709e+00
0	 8.814815e+00	 3.259259e+00	 9.963644e+00
0	 8.814815e+00	 3.333333e+00	 9.966542e+00
0	 8.888889e+00	 2.962963e+00	 9.943573e+00
0	 8.888889e+00	 3.037037e+00	 9.946763e+00
0	 8.888889e+00	 3.111111e+00	 9.949913e+00
0	 8.888889e+00	 3.185185e+00	 9.953022e+00
0	 8.888889e+00	 3.259259e+00	 9.956093e+00
0	 8.888889e+00	 3.333333e+00	 9.959128e+00
0	 8.518519e+00	 3.333333e+00	 9.996844e+00
0	 8.518519e+00	 3.407407e+00	 9.999198e+00
0	 8.518519e+00	 3.481481e+00	 1.000149e+01
0	 8.518519e+00	 3.555556e+00	 1.000371e+01
0	 8.518519e+00	 3.629630e+00	 1.000587e+01
0	 8.518519e+00	 3.703704e+00	 1.000796e+01
0	 8.592593e+00	 3.333333e+00	 9.989172e+00
0	 8.592593e+00	 3.407407e+00	 9.991643e+00
0	 8.592593e+00	 3.481481e+00	 9.994048e+00
0	 8.592593e+00	 3.555556e+00	 9.996389e+00
0	 8.592593e+00	 3.629630e+00	 9.998669e+00
0	 8.592593e+00	 3.703704e+00	 1.000089e+01
0	 8.666667e+00	 3.333333e+00	 9.981565e+00
0	 8.666667e+00	 3.407407e+00	 9.984155e+00
0	 8.666667e+00	 3.481481e+00	 9.986682e+00
0	 8.666667e+00	 3.555556e+00	 9.989147e+00
0	 8.666667e+00	 3.629630e+00	 9.991551e+00
0	 8.666667e+00	 3.703704e+00	 9.993896e+00
0	 8.740741e+00	 3.333333e+00	 9.974021e+00
0	 8.740741e+00	 3.407407e+00	 9.976737e+00
0	 8.740741e+00	 3.481481e+00	 9.979391e+00
0	 8.740741e+00	 3.555556e+00	 9.981985e+00
0	 8.740741e+00	 3.629630e+00	 9.984518e+00
0	 8.740741e+00	 3.703704e+00	 9.986993e+00
0	 8.814815e+00	 3.333333e+00	 9.966542e+00
0	 8.814815e+00	 3.407407e+00	 9.969390e+00
0	 8.814815e+00	 3.481481e+00	 9.972177e+00
0	 8.814815e+00	 3.555556e+00	 9.974904e+00
0	 8.814815e+00	 3.629630e+00	 9.977572e+00
0	 8.814815e+00	 3.703704e+00	 9.980182e+00
0	 8.888889e+00	 3.333333e+00	 9.959128e+00
0	 8.888889e+00	 3.407407e+00	 9.962114e+00
0	 8.888889e+00	 3.481481e+00	 9.965040e+00
0	 8.888889e+00	 3.555556e+00	 9.967907e+00
0	 8.888889e+00	 3.629630e+00	 9.970715e+00
0	 8.888889e+00	 3.703704e+00	 9.973466e+00
0	 8.518519e+00	 3.703704e+00	 1.000796e+01
0	 8.518519e+00	 3.777778e+00	 1.000999e+01
0	 8.518519e+00	 3.851852e+00	 1.001194e+01
0	 8.518519e+00	 3.925926e+00	 1.001381e+01
0	 8.518519e+00	 4.000000e+00	 1.001561e+01
0	 8.518519e+00	 4.074074e+00	 1.001734e+01
0	 8.592593e+00	 3.703704e+00	 1.000089e+01
0	 8.592593e+00	 3.777778e+00	 1.000304e+01
0	 8.592593e+00	 3.851852e+00	 1.000511e+01
0	 8.592593e+00	 3.925926e+00	 1.000711e+01
0	 8.592593e+00	 4.000000e+00	 1.000904e+01
0	 8.592593e+00	 4.074074e+00	 1.001089e+01
0	 8.666667e+00	 3.703704e+00	 9.993896e+00
0	 8.666667e+00	 3.777778e+00	 9.996173e+00
0	 8.666667e+00	 3.851852e+00	 9.998376e+00
0	 8.666667e+00	 3.925926e+00	 1.000050e+01
0	 8.666667e+00	 4.000000e+00	 1.000256e+01
0	 8.666667e+00	 4.074074e+00	 1.000454e+01
0	 8.740741e+00	 3.703704e+00	 9.986993e+00
0	 8.740741e+00	 3.777778e+00	 9.989402e+00
0	 8.740741e+00	 3.851852e+00	 9.991737e+00
0	 8.740741e+00	 3.925926e+00	 9.993998e+00
0	 8.740741e+00	 4.000000e+00	 9.996186e+00
0	 8.740741e+00	 4.074074e+00	 9.998303e+00
0	 8.814815e+00	 3.703704e+00	 9.980182e+00
0	 8.814815e+00	 3.777778e+00	 9.982727e+00
0	 8.814815e+00	 3.851852e+00	 9.985198e+00
0	 8.814815e+00	 3.925926e+00	 9.987596e+00
0	 8.814815e+00	 4.000000e+00	 9.989921e+00
0	 8.814815e+00	 4.074074e+00	 9.992173e+00
0	 8.888889e+00	 3.703704e+00	 9.973466e+00
0	 8.888889e+00	 3.777778e+00	 9.976152e+00
0	 8.888889e+00	 3.851852e+00	 9.978764e+00
0	 8.888889e+00	 3.925926e+00	 9.981302e+00
0	 8.888889e+00	 4.000000e+00	 9.983768e+00
0	 8.888889e+00	 4.074074e+00	 9.986161e+00
0	 8.518519e+00	 4.074074e+00	 1.001734e+01
0	 8.518519e+00	 4.148148e+00	 1.001898e+01
0	 8.518519e+00	 4.222222e+00	 1.002055e+01
0	 8.518519e+00	 4.296296e+00	 1.002203e+01
0	 8.518519e+00	 4.370370e+00	 1.002344e+01
0	 8.518519e+00	 4.444444e+00	 1.002476e+01
0	 8.592593e+00	 4.074074e+00	 1.001089e+01
0	 8.592593e+00	 4.148148e+00	 1.001266e+01
0	 8.592593e+00	 4.222222e+00	 1.001436e+01
0	 8.592593e+00	 4.296296e+00	 1.001597e+01
0	 8.592593e+00	 4.370370e+00	 1.001751e+01
0	 8.592593e+00	 4.444444e+00	 1.001896e+01
0	 8.666667e+00	 4.074074e+00	 1.000454e+01
0	 8.666667e+00	 4.148148e+00	 1.000645e+01
0	 8.666667e+00	 4.222222e+00	 1.000827e+01
0	 8.666667e+00	 4.296296e+00	 1.001002e+01
0	 8.666667e+00	 4.370370e+00	 1.001168e+01
0	 8.666667e+00	 4.444444e+00	 1.001327e+01
0	 8.740741e+00	 4.074074e+00	 9.998303e+00
0	 8.740741e+00	 4.148148e+00	 1.000034e+01
0	 8.740741e+00	 4.222222e+00	 1.000230e+01
0	 8.740741e+00	 4.296296e+00	 1.000418e+01
0	 8.740741e+00	 4.370370e+00	 1.000598e+01
0	 8.740741e+00	 4.444444e+00	 1.000769e+01
0	 8.814815e+00	 4.074074e+00	 9.992173e+00
0	 8.814815e+00	 4.148148e+00	 9.994349e+00
0	 8.814815e+00	 4.222222e+00	 9.996444e+00
0	 8.814815e+00	 4.296296e+00	 9.998457e+00
0	 8.814815e+00	 4.370370e+00	 1.000039e+01
0	 8.814815e+00	 4.444444e+00	 1.000224e+01
0	 8.888889e+00	 4.074074e+00	 9.986161e+00
0	 8.888889e+00	 4.148148e+00	 9.988477e+00
0	 8.888889e+00	 4.222222e+00	 9.990710e+00
0	 8.888889e+00	 4.296296e+00	 9.992862e+00
0	 8.888889e+00	 4.370370e+00	 9.994931e+00
0	 8.888889e+00	 4.444444e+00	 9.996918e+00
0	 8.518519e+00	 4.444444e+00	 1.002476e+01
0	 8.518519e+00	 4.518519e+00	 1.002600e+01
0	 8.518519e+00	 4.592593e+00	 1.002716e+01
0	 8.518519e+00	 4.666667e+00	 1.002824e+01
0	 8.518519e+00	 4.740741e+00	 1.002924e+01
0	 8.518519e+00	 4.814815e+00	 1.003016e+01
0	 8.592593e+00	 4.444444e+00	 1.001896e+01
0	 8.592593e+00	 4.518519e+00	 1.002033e+01
0	 8.592593e+00	 4.592593e+00	 1.002162e+01
0	 8.592593e+00	 4.666667e+00	 1.002283e+01
0	 8.592593e+00	 4.740741e+00	 1.002396e+01
0	 8.592593e+00	 4.814815e+00	 1.002500e+01
0	 8.666667e+00	 4.444444e+00	 1.001327e+01
0	 8.666667e+00	 4.518519e+00	 1.001477e+01
0	 8.666667e+00	 4.592593e+00	 1.001619e+01
0	 8.666667e+00	 4.666667e+00	 1.001753e+01
0	 8.666667e+00	 4.740741e+00	 1.001879e+01
0	 8.666667e+00	 4.814815e+00	 1.001996e+01
0	 8.740741e+00	 4.444444e+00	 1.000769e+01
0	 8.740741e+00	 4.518519e+00	 1.000933e+01
0	 8.740741e+00	 4.592593e+00	 1.001088e+01
0	 8.740741e+00	 4.666667e+00	 1.001235e+01
0	 8.740741e+00	 4.740741e+00	 1.001373e+01
0	 8.740741e+00	 4.814815e+00	 1.001503e+01
0	 8.814815e+00	 4.444444e+00	 1.000224e+01
0	 8.814815e+00	 4.518519e+00	 1.000401e+01
0	 8.814815e+00	 4.592593e+00	 1.000569e+01
0	 8.814815e+00	 4.666667e+00	 1.000729e+01
0	 8.814815e+00	 4.740741e+00	 1.000881e+01
0	 8.814815e+00	 4.814815e+00	 1.001024e+01
0	 8.888889e+00	 4.444444e+00	 9.996918e+00
0	 8.888889e+00	 4.518519e+00	 9.998822e+00
0	 8.888889e+00	 4.592593e+00	 1.000064e+01
0	 8.888889e+00	 4.666667e+00	 1.000237e+01
0	 8.888889e+00	 4.740741e+00	 1.000402e+01
0	 8.888889e+00	 4.814815e+00	 1.000558e+01
0	 8.518519e+00	 4.814815e+00	 1.003016e+01
0	 8.518519e+00	 4.888889e+00	 1.003099e+01
0	 8.518519e+00	 4.962963e+00	 1.003175e+01
0	 8.518519e+00	 5.037037e+00	 1.003244e+01
0	 8.518519e+00	 5.111111e+00	 1.003304e+01
0	 8.518519e+00	 5.185185e+00	 1.003356e+01
0	 8.592593e+00	 4.814815e+00	 1.002500e+01
0	 8.592593e+00	 4.888889e+00	 1.002597e+01
0	 8.592593e+00	 4.962963e+00	 1.002685e+01
0	 8.592593e+00	 5.037037e+00	 1.002766e+01
0	 8.592593e+00	 5.111111e+00	 1.002839e+01
0	 8.592593e+00	 5.185185e+00	 1.002904e+01
0	 8.666667e+00	 4.814815e+00	 1.001996e+01
0	 8.666667e+00	 4.888889e+00	 1.002105e+01
0	 8.666667e+00	 4.962963e+00	 1.002206e+01
0	 8.666667e+00	 5.037037e+00	 1.002299e+01
0	 8.666667e+00	 5.111111e+00	 1.002385e+01
0	 8.666667e+00	 5.185185e+00	 1.002462e+01
0	 8.740741e+00	 4.814815e+00	 1.001503e+01
0	 8.740741e+00	 4.888889e+00	 1.001625e+01
0	 8.740741e+00	 4.962963e+00	 1.001739e+01
0	 8.740741e+00	 5.037037e+00	 1.001845e+01
0	 8.740741e+00	 5.111111e+00	 1.001942e+01
0	 8.740741e+00	 5.185185e+00	 1.002031e+01
0	 8.814815e+00	 4.814815e+00	 1.001024e+01
0	 8.814815e+00	 4.888889e+00	 1.001158e+01
0	 8.814815e+00	 4.962963e+00	 1.001285e+01
0	 8.814815e+00	 5.037037e+00	 1.001403e+01
0	 8.814815e+00	 5.111111e+00	 1.001512e+01
0	 8.814815e+00	 5.185185e+00	 1.001614e+01
0	 8.888889e+00	 4.814815e+00	 1.000558e+01
0	 8.888889e+00	 4.888889e+00	 1.000705e+01
0	 8.888889e+00	 4.962963e+00	 1.000844e+01
0	 8.888889e+00	 5.037037e+00	 1.000974e+01
0	 8.888889e+00	 5.111111e+00	 1.001096e+01
0	 8.888889e+00	 5.185185e+00	 1.001210e+01
0	 8.518519e+00	 5.185185e+00	 1.003356e+01
0	 8.518519e+00	 5.259259e+00	 1.003401e+01
0	 8.518519e+00	 5.333333e+00	 1.003439e+01
0	 8.518519e+00	 5.407407e+00	 1.003470e+01
0	 8.518519e+00	 5.481481e+00	 1.003493e+01
0	 8.518519e+00	 5.555556e+00	 1.003509e+01
0	 8.592593e+00	 5.185185e+00	 1.002904e+01
0	 8.592593e+00	 5.259259e+00	 1.002961e+01
0	 8.592593e+00	 5.333333e+00	 1.003011e+01
0	 8.592593e+00	 5.407407e+00	 1.003053e+01
0	 8.592593e+00	 5.481481e+00	 1.003089e+01
0	 8.592593e+00	 5.555556e+00	 1.003116e+01
0	 8.666667e+00	 5.185185e+00	 1.002462e+01
0	 8.666667e+00	 5.259259e+00	 1.002531e+01
0	 8.666667e+00	 5.333333e+00	 1.002593e+01
0	 8.666667e+00	 5.407407e+00	 1.002647e+01
0	 8.666667e+00	 5.481481e+00	 1.002694e+01
0	 8.666667e+00	 5.555556e+00	 1.002734e+01
0	 8.740741e+00	 5.185185e+00	 1.002031e+01
0	 8.740741e+00	 5.259259e+00	 1.002113e+01
0	 8.740741e+00	 5.333333e+00	 1.002186e+01
0	 8.740741e+00	 5.407407e+00	 1.002252e+01
0	 8.740741e+00	 5.481481e+00	 1.002311e+01
0	 8.740741e+00	 5.555556e+00	 1.002362e+01
0	 8.814815e+00	 5.185185e+00	 1.001614e+01
0	 8.814815e+00	 5.259259e+00	 1.001707e+01
0	 8.814815e+00	 5.333333e+00	 1.001792e+01
0	 8.814815e+00	 5.407407e+00	 1.001870e+01
0	 8.814815e+00	 5.481481e+00	 1.001940e+01
0	 8.814815e+00	 5.555556e+00	 1.002002e+01
0	 8.888889e+00	 5.185185e+00	 1.001210e+01
0	 8.888889e+00	 5.259259e+00	 1.001315e+01
0	 8.888889e+00	 5.333333e+00	 1.001412e+01
0	 8.888889e+00	 5.407407e+00	 1.001501e+01
0	 8.888889e+00	 5.481481e+00	 1.001582e+01
0	 8.888889e+00	 5.555556e+00	 1.001654e+01
0	 8.518519e+00	 5.555556e+00	 1.003509e+01
0	 8.518519e+00	 5.629630e+00	 1.003519e+01
0	 8.518519e+00	 5.703704e+00	 1.003522e+01
0	 8.518519e+00	 5.777778e+00	 1.003519e+01
0	 8.518519e+00	 5.851852e+00	 1.003510e+01
0	 8.518519e+00	 5.925926e+00	 1.003494e+01
0	 8.592593e+00	 5.555556e+00	 1.003116e+01
0	 8.592593e+00	 5.629630e+00	 1.003137e+01
0	 8.592593e+00	 5.703704e+00	 1.003152e+01
0	 8.592593e+00	 5.777778e+00	 1.003160e+01
0	 8.592593e+00	 5.851852e+00	 1.003162e+01
0	 8.592593e+00	 5.925926e+00	 1.003157e+01
0	 8.666667e+00	 5.555556e+00	 1.002734e+01
0	 8.666667e+00	 5.629630e+00	 1.002766e+01
0	 8.666667e+00	 5.703704e+00	 1.002792e+01
0	 8.666667e+00	 5.777778e+00	 1.002811e+01
0	 8.666667e+00	 5.851852e+00	 1.002823e+01
0	 8.666667e+00	 5.925926e+00	 1.002829e+01
0	 8.740741e+00	 5.555556e+00	 1.002362e+01
0	 8.740741e+00	 5.629630e+00	 1.002405e+01
0	 8.740741e+00	 5.703704e+00	 1.002442e+01
0	 8.740741e+00	 5.777778e+00	 1.002472e+01
0	 8.740741e+00	 5.851852e+00	 1.002495e+01
0	 8.740741e+00	 5.925926e+00	 1.002511e+01
0	 8.814815e+00	 5.555556e+00	 1.002002e+01
0	 8.814815e+00	 5.629630e+00	 1.002056e+01
0	 8.814815e+00	 5.703704e+00	 1.002103e+01
0	 8.814815e+00	 5.777778e+00	 1.002144e+01
0	 8.814815e+00	 5.851852e+00	 1.002177e+01
0	 8.814815e+00	 5.925926e+00	 1.002204e+01
0	 8.888889e+00	 5.555556e+00	 1.001654e+01
0	 8.888889e+00	 5.629630e+00	 1.001719e+01
0	 8.888889e+00	 5.703704e+00	 1.001777e+01
0	 8.888889e+00	 5.777778e+00	 1.001828e+01
0	 8.888889e+00	 5.851852e+00	 1.001872e+01
0	 8.888889e+00	 5.925926e+00	 1.001908e+01
0	 8.518519e+00	 5.925926e+00	 1.003494e+01
0	 8.518519e+00	 6.000000e+00	 1.003473e+01
0	 8.518519e+00	 6.074074e+00	 1.003446e+01
0	 8.518519e+00	 6.148148e+00	 1.003414e+01
0	 8.518519e+00	 6.222222e+00	 1.003377e+01
0	 8.518519e+00	 6.296296e+00	 1.003334e+01
0	 8.592593e+00	 5.925926e+00	 1.003157e+01
0	 8.592593e+00	 6.000000e+00	 1.003146e+01
0	 8.592593e+00	 6.074074e+00	 1.003130e+01
0	 8.592593e+00	 6.148148e+00	 1.003109e+01
0	 8.592593e+00	 6.222222e+00	 1.003082e+01
0	 8.592593e+00	 6.296296e+00	 1.003049e+01
0	 8.666667e+00	 5.925926e+00	 1.002829e+01
0	 8.666667e+00	 6.000000e+00	 1.002829e+01
0	 8.666667e+00	 6.074074e+00	 1.002823e+01
0	 8.666667e+00	 6.148148e+00	 1.002811e+01
0	 8.666667e+00	 6.222222e+00	 1.002794e+01
0	 8.666667e+00	 6.296296e+00	 1.002771e+01
0	 8.740741e+00	 5.925926e+00	 1.002511e+01
0	 8.740741e+00	 6.000000e+00	 1.002521e+01
0	 8.740741e+00	 6.074074e+00	 1.002525e+01
0	 8.740741e+00	 6.148148e+00	 1.002523e+01
0	 8.740741e+00	 6.222222e+00	 1.002516e+01
0	 8.740741e+00	 6.296296e+00	 1.002502e+01
0	 8.814815e+00	 5.925926e+00	 1.002204e+01
0	 8.814815e+00	 6.000000e+00	 1.002223e+01
0	 8.814815e+00	 6.074074e+00	 1.002237e+01
0	 8.814815e+00	 6.148148e+00	 1.002245e+01
0	 8.814815e+00	 6.222222e+00	 1.002247e+01
0	 8.814815e+00	 6.296296e+00	 1.002242e+01
0	 8.888889e+00	 5.925926e+00	 1.001908e+01
0	 8.888889e+00	 6.000000e+00	 1.001937e+01
0	 8.888889e+00	 6.074074e+00	 1.001960e+01
0	 8.888889e+00	 6.148148e+00	 1.001977e+01
0	 8.888889e+00	 6.222222e+00	 1.001988e+01
0	 8.888889e+00	 6.296296e+00	 1.001992e+01
0	 8.518519e+00	 6.296296e+00	 1.003334e+01
0	 8.518519e+00	 6.370370e+00	 1.003287e+01
0	 8.518519e+00	 6.444444e+00	 1.003236e+01
0	 8.518519e+00	 6.518519e+00	 1.003180e+01
0	 8.518519e+00	 6.592593e+00	 1.003121e+01
0	 8.518519e+00	 6.666667e+00	 1.003057e+01
0	 8.592593e+00	 6.296296e+00	 1.003049e+01
0	 8.592593e+00	 6.370370e+00	 1.003011e+01
0	 8.592593e+00	 6.444444e+00	 1.002970e+01
0	 8.592593e+00	 6.518519e+00	 1.002924e+01
0	 8.592593e+00	 6.592593e+00	 1.002874e+01
0	 8.592593e+00	 6.666667e+00	 1.002819e+01
0	 8.666667e+00	 6.296296e+00	 1.002771e+01
0	 8.666667e+00	 6.370370e+00	 1.002743e+01
0	 8.666667e+00	 6.444444e+00	 1.002711e+01
0	 8.666667e+00	 6.518519e+00	 1.002674e+01
0	 8.666667e+00	 6.592593e+00	 1.002633e+01
0	 8.666667e+00	 6.666667e+00	 1.002587e+01
0	 8.740741e+00	 6.296296e+00	 1.002502e+01
0	 8.740741e+00	 6.370370e+00	 1.002483e+01
0	 8.740741e+00	 6.444444e+00	 1.002460e+01
0	 8.740741e+00	 6.518519e+00	 1.002432e+01
0	 8.740741e+00	 6.592593e+00	 1.002400e+01
0	 8.740741e+00	 6.666667e+00	 1.002362e+01
0	 8.814815e+00	 6.296296e+00	 1.002242e+01
0	 8.814815e+00	 6.370370e+00	 1.002232e+01
0	 8.814815e+00	 6.444444e+00	 1.002218e+01
0	 8.814815e+00	 6.518519e+00	 1.002199e+01
0	 8.814815e+00	 6.592593e+00	 1.002174e+01
0	 8.814815e+00	 6.666667e+00	 1.002145e+01
0	 8.888889e+00	 6.296296e+00	 1.001992e+01
0	 8.888889e+00	 6.370370e+00	 1.001991e+01
0	 8.888889e+00	 6.444444e+00	 1.001985e+01
0	 8.888889e+00	 6.518519e+00	 1.001974e+01
0	 8.888889e+00	 6.592593e+00	 1.001957e+01
0	 8.888889e+00	 6.666667e+00	 1.001936e+01
0	 8.518519e+00	 6.666667e+00	 1.003057e+01
0	 8.518519e+00	 6.740741e+00	 1.002990e+01
0	 8.518519e+00	 6.814815e+00	 1.002920e+01
0	 8.518519e+00	 6.888889e+00	 1.002847e+01
0	 8.518519e+00	 6.962963e+00	 1.002771e+01
0	 8.518519e+00	 7.037037e+00	 1.002691e+01
0	 8.592593e+00	 6.666667e+00	 1.002819e+01
0	 8.592593e+00	 6.740741e+00	 1.002760e+01
0	 8.592593e+00	 6.814815e+00	 1.002699e+01
0	 8.592593e+00	 6.888889e+00	 1.002635e+01
0	 8.592593e+00	 6.962963e+00	 1.002567e+01
0	 8.592593e+00	 7.037037e+00	 1.002496e+01
0	 8.666667e+00	 6.666667e+00	 1.002587e+01
0	 8.666667e+00	 6.740741e+00	 1.002537e+01
0	 8.666667e+00	 6.814815e+00	 1.002484e+01
0	 8.666667e+00	 6.888889e+00	 1.002428e+01
0	 8.666667e+00	 6.962963e+00	 1.002369e+01
0	 8.666667e+00	 7.037037e+00	 1.002306e+01
0	 8.740741e+00	 6.666667e+00	 1.002362e+01
0	 8.740741e+00	 6.740741e+00	 1.002321e+01
0	 8.740741e+00	 6.814815e+00	 1.002276e+01
0	 8.740741e+00	 6.888889e+00	 1.002228e+01
0	 8.740741e+00	 6.962963e+00	 1.002176e+01
0	 8.740741e+00	 7.037037e+00	 1.002121e+01
0	 8.814815e+00	 6.666667e+00	 1.002145e+01
0	 8.814815e+00	 6.740741e+00	 1.002112e+01
0	 8.814815e+00	 6.814815e+00	 1.002075e+01
0	 8.814815e+00	 6.888889e+00	 1.002034e+01
0	 8.814815e+00	 6.962963e+00	 1.001990e+01
0	 8.814815e+00	 7.037037e+00	 1.001942e+01
0	 8.888889e+00	 6.666667e+00	 1.001936e+01
0	 8.888889e+00	 6.740741e+00	 1.001910e+01
0	 8.888889e+00	 6.814815e+00	 1.001880e+01
0	 8.888889e+00	 6.888889e+00	 1.001847e+01
0	 8.888889e+00	 6.962963e+00	 1.001810e+01
0	 8.888889e+00	 7.037037e+00	 1.001769e+01
0	 8.518519e+00	 7.037037e+00	 1.002691e+01
0	 8.518519e+00	 7.111111e+00	 1.002610e+01
0	 8.518519e+00	 7.185185e+00	 1.002527e+01
0	 8.518519e+00	 7.259259e+00	 1.002442e+01
0	 8.518519e+00	 7.333333e+00	 1.002355e+01
0	 8.518519e+00	 7.407407e+00	 1.002267e+01
0	 8.592593e+00	 7.037037e+00	 1.002496e+01
0	 8.592593e+00	 7.111111e+00	 1.002423e+01
0	 8.592593e+00	 7.185185e+00	 1.002348e+01
0	 8.592593e+00	 7.259259e+00	 1.002271e+01
0	 8.592593e+00	 7.333333e+00	 1.002192e+01
0	 8.592593e+00	 7.407407e+00	 1.002111e+01
0	 8.666667e+00	 7.037037e+00	 1.002306e+01
0	 8.666667e+00	 7.111111e+00	 1.002240e+01
0	 8.666667e+00	 7.185185e+00	 1.002173e+01
0	 8.666667e+00	 7.259259e+00	 1.002103e+01
0	 8.666667e+00	 7.333333e+00	 1.002032e+01
0	 8.666667e+00	 7.407407e+00	 1.001958e+01
0	 8.740741e+00	 7.037037e+00	 1.002121e+01
0	 8.740741e+00	 7.111111e+00	 1.002063e+01
0	 8.740741e+00	 7.185185e+00	 1.002003e+01
0	 8.740741e+00	 7.259259e+00	 1.001941e+01
0	 8.740741e+00	 7.333333e+00	 1.001876e+01
0	 8.740741e+00	 7.407407e+00	 1.001809e+01
0	 8.814815e+00	 7.037037e+00	 1.001942e+01
0	 8.814815e+00	 7.111111e+00	 1.001891e+01
0	 8.814815e+00	 7.185185e+00	 1.001838e+01
0	 8.814815e+00	 7.259259e+00	 1.001783e+01
0	 8.814815e+00	 7.333333e+00	 1.001725e+01
0	 8.814815e+00	 7.407407e+00	 1.001665e+01
0	 8.888889e+00	 7.037037e+00	 1.001769e+01
0	 8.888889e+00	 7.111111e+00	 1.001725e+01
0	 8.888889e+00	 7.185185e+00	 1.001679e+01
0	 8.888889e+00	 7.259259e+00	 1.001630e+01
0	 8.888889e+00	 7.333333e+00	 1.001578e+01
0	 8.888889e+00	 7.407407e+00	 1.001524e+01
0	 8.518519e+00	 7.407407e+00	 1.002267e+01
0	 8.518519e+00	 7.481481e+00	 1.002177e+01
0	 8.518519e+00	 7.555556e+00	 1.002087e+01
0	 8.518519e+00	 7.629630e+00	 1.001996e+01
0	 8.518519e+00	 7.703704e+00	 1.001905e+01
0	 8.518519e+00	 7.777778e+00	 1.001813e+01
0	 8.592593e+00	 7.407407e+00	 1.002111e+01
0	 8.592593e+00	 7.481481e+00	 1.002028e+01
0	 8.592593e+00	 7.555556e+00	 1.001945e+01
0	 8.592593e+00	 7.629630e+00	 1.001862e+01
0	 8.592593e+00	 7.703704e+00	 1.001777e+01
0	 8.592593e+00	 7.777778e+00	 1.001692e+01
0	 8.666667e+00	 7.407407e+00	 1.001958e+01
0	 8.666667e+00	 7.481481e+00	 1.001883e+01
0	 8.666667e+00	 7.555556e+00	 1.001807e+01
0	 8.666667e+00	 7.629630e+00	 1.001730e+01
0	 8.666667e+00	 7.703704e+00	 1.001652e+01
0	 8.666667e+00	 7.777778e+00	 1.001573e+01
0	 8.740741e+00	 7.407407e+00	 1.001809e+01
0	 8.740741e+00	 7.481481e+00	 1.001741e+01
0	 8.740741e+00	 7.555556e+00	 1.001671e+01
0	 8.740741e+00	 7.629630e+00	 1.001601e+01
0	 8.740741e+00	 7.703704e+00	 1.001530e+01
0	 8.740741e+00	 7.777778e+00	 1.001457e+01
0	 8.814815e+00	 7.407407e+00	 1.001665e+01
0	 8.814815e+00	 7.481481e+00	 1.001603e+01
0	 8.814815e+00	 7.555556e+00	 1.001540e+01
0	 8.814815e+00	 7.629630e+00	 1.001476e+01
0	 8.814815e+00	 7.703704e+00	 1.001411e+01
0	 8.814815e+00	 7.777778e+00	 1.001344e+01
0	 8.888889e+00	 7.407407e+00	 1.001524e+01
0	 8.888889e+00	 7.481481e+00	 1.001469e+01
0	 8.888889e+00	 7.555556e+00	 1.001412e+01
0	 8.888889e+00	 7.629630e+00	 1.001354e+01
0	 8.888889e+00	 7.703704e+00	 1.001294e+01
0	 8.888889e+00	 7.777778e+00	 1.001234e+01
0	 8.518519e+00	 7.777778e+00	 1.001813e+01
0	 8.518519e+00	 7.851852e+00	 1.001720e+01
0	 8.518519e+00	 7.925926e+00	 1.001629e+01
0	 8.518519e+00	 8.000000e+00	 1.001538e+01
0	 8.518519e+00	 8.074074e+00	 1.001448e+01
0	 8.518519e+00	 8.148148e+00	 1.001358e+01
0	 8.592593e+00	 7.777778e+00	 1.001692e+01
0	 8.592593e+00	 7.851852e+00	 1.001606e+01
0	 8.592593e+00	 7.925926e+00	 1.001521e+01
0	 8.592593e+00	 8.000000e+00	 1.001437e+01
0	 8.592593e+00	 8.074074e+00	 1.001353e+01
0	 8.592593e+00	 8.148148e+00	 1.001269e+01
0	 8.666667e+00	 7.777778e+00	 1.001573e+01
0	 8.666667e+00	 7.851852e+00	 1.001494e+01
0	 8.666667e+00	 7.925926e+00	 1.001416e+01
0	 8.666667e+00	 8.000000e+00	 1.001337e+01
0	 8.666667e+00	 8.074074e+00	 1.001259e+01
0	 8.666667e+00	 8.148148e+00	 1.001181e+01
0	 8.740741e+00	 7.777778e+00	 1.001457e+01
0	 8.740741e+00	 7.851852e+00	 1.001384e+01
0	 8.740741e+00	 7.925926e+00	 1.001312e+01
0	 8.740741e+00	 8.000000e+00	 1.001240e+01
0	 8.740741e+00	 8.074074e+00	 1.001167e+01
0	 8.740741e+00	 8.148148e+00	 1.001095e+01
0	 8.814815e+00	 7.777778e+00	 1.001344e+01
0	 8.814815e+00	 7.851852e+00	 1.001277e+01
0	 8.814815e+00	 7.925926e+00	 1.001210e+01
0	 8.814815e+00	 8.000000e+00	 1.001144e+01
0	 8.814815e+00	 8.074074e+00	 1.001077e+01
0	 8.814815e+00	 8.148148e+00	 1.001010e+01
0	 8.888889e+00	 7.777778e+00	 1.001234e+01
0	 8.888889e+00	 7.851852e+00	 1.001172e+01
0	 8.888889e+00	 7.925926e+00	 1.001111e+01
0	 8.888889e+00	 8.000000e+00	 1.001050e+01
0	 8.888889e+00	 8.074074e+00	 1.000989e+01
0	 8.888889e+00	 8.148148e+00	 1.000927e+01
0	 8.518519e+00	 8.148148e+00	 1.001358e+01
0	 8.518519e+00	 8.222222e+00	 1.001269e+01
0	 8.518519e+00	 8.296296e+00	 1.001182e+01
0	 8.518519e+00	 8.370370e+00	 1.001097e+01
0	 8.518519e+00	 8.444444e+00	 1.001013e+01
0	 8.518519e+00	 8.518519e+00	 1.000930e+01
0	 8.592593e+00	 8.148148e+00	 1.001269e+01
0	 8.592593e+00	 8.222222e+00	 1.001186e+01
0	 8.592593e+00	 8.296296e+00	 1.001105e+01
0	 8.592593e+00	 8.370370e+00	 1.001025e+01
0	 8.592593e+00	 8.444444e+00	 1.000947e+01
0	 8.592593e+00	 8.518519e+00	 1.000870e+01
0	 8.666667e+00	 8.148148e+00	 1.001181e+01
0	 8.666667e+00	 8.222222e+00	 1.001104e+01
0	 8.666667e+00	 8.296296e+00	 1.001028e+01
0	 8.666667e+00	 8.370370e+00	 1.000954e+01
0	 8.666667e+00	 8.444444e+00	 1.000881e+01
0	 8.666667e+00	 8.518519e+00	 1.000809e+01
0	 8.740741e+00	 8.148148e+00	 1.001095e+01
0	 8.740741e+00	 8.222222e+00	 1.001023e+01
0	 8.740741e+00	 8.296296e+00	 1.000953e+01
0	 8.740741e+00	 8.370370e+00	 1.000884e+01
0	 8.740741e+00	 8.444444e+00	 1.000817e+01
0	 8.740741e+00	 8.518519e+00	 1.000750e+01
0	 8.814815e+00	 8.148148e+00	 1.001010e+01
0	 8.814815e+00	 8.222222e+00	 1.000944e+01
0	 8.814815e+00	 8.296296e+00	 1.000879e+01
0	 8.814815e+00	 8.370370e+00	 1.000815e+01
0	 8.814815e+00	 8.444444e+00	 1.000753e+01
0	 8.814815e+00	 8.518519e+00	 1.000691e+01
0	 8.888889e+00	 8.148148e+00	 1.000927e+01
0	 8.888889e+00	 8.222222e+00	 1.000866e+01
0	 8.888889e+00	 8.296296e+00	 1.000806e+01
0	 8.888889e+00	 8.370370e+00	 1.000747e+01
0	 8.888889e+00	 8.444444e+00	 1.000690e+01
0	 8.888889e+00	 8.518519e+00	 1.000632e+01
0	 8.518519e+00	 8.518519e+00	 1.000930e+01
0	 8.518519e+00	 8.592593e+00	 1.000850e+01
0	 8.518519e+00	 8.666667e+00	 1.000773e+01
0	 8.518519e+00	 8.740741e+00	 1.000698e+01
0	 8.518519e+00	 8.814815e+00	 1.000626e+01
0	 8.518519e+00	 8.888889e+00	 1.000557e+01
0	 8.592593e+00	 8.518519e+00	 1.000870e+01
0	 8.592593e+00	 8.592593e+00	 1.000795e+01
0	 8.592593e+00	 8.666667e+00	 1.000722e+01
0	 8.592593e+00	 8.740741e+00	 1.000652e+01
0	 8.592593e+00	 8.814815e+00	 1.000585e+01
0	 8.592593e+00	 8.888889e+00	 1.000520e+01
0	 8.666667e+00	 8.518519e+00	 1.000809e+01
0	 8.666667e+00	 8.592593e+00	 1.000739e+01
0	 8.666667e+00	 8.666667e+00	 1.000672e+01
0	 8.666667e+00	 8.740741e+00	 1.000607e+01
0	 8.666667e+00	 8.814815e+00	 1.000544e+01
0	 8.666667e+00	 8.888889e+00	 1.000484e+01
0	 8.740741e+00	 8.518519e+00	 1.000750e+01
0	 8.740741e+00	 8.592593e+00	 1.000685e+01
0	 8.740741e+00	 8.666667e+00	 1.000622e+01
0	 8.740741e+00	 8.740741e+00	 1.000562e+01
0	 8.740741e+00	 8.814815e+00	 1.000503e+01
0	 8.740741e+00	 8.888889e+00	 1.000447e+01
0	 8.814815e+00	 8.518519e+00	 1.000691e+01
0	 8.814815e+00	 8.592593e+00	 1.000631e+01
0	 8.814815e+00	 8.666667e+00	 1.000573e+01
0	 8.814815e+00	 8.740741e+00	 1.000517e+01
0	 8.814815e+00	 8.814815e+00	 1.000463e+01
0	 8.814815e+00	 8.888889e+00	 1.000411e+01
0	 8.888889e+00	 8.518519e+00	 1.000632e+01
0	 8.888889e+00	 8.592593e+00	 1.000577e+01
0	 8.888889e+00	 8.666667e+00	 1.000523e+01
0	 8.888889e+00	 8.740741e+00	 1.000472e+01
0	 8.888889e+00	 8.814815e+00	 1.000422e+01
0	 8.888889e+00	 8.888889e+00	 1.000374e+01
0	 8.518519e+00	 8.888889e+00	 1.000557e+01
0	 8.518519e+00	 8.962963e+00	 1.000490e+01
0	 8.518519e+00	 9.037037e+00	 1.000428e+01
0	 8.518519e+00	 9.111111e+00	 1.000369e+01
0	 8.518519e+00	 9.185185e+00	 1.000314e+01
0	 8.518519e+00	 9.259259e+00	 1.000262e+01
0	 8.592593e+00	 8.888889e+00	 1.000520e+01
0	 8.592593e+00	 8.962963e+00	 1.000458e+01
0	 8.592593e+00	 9.037037e+00	 1.000399e+01
0	 8.592593e+00	 9.111111e+00	 1.000344e+01
0	 8.592593e+00	 9.185185e+00	 1.000293e+01
0	 8.592593e+00	 9.259259e+00	 1.000244e+01
0	 8.666667e+00	 8.888889e+00	 1.000484e+01
0	 8.666667e+00	 8.962963e+00	 1.000426e+01
0	 8.666667e+00	 9.037037e+00	 1.000371e+01
0	 8.666667e+00	 9.111111e+00	 1.000320e+01
0	 8.666667e+00	 9.185185e+00	 1.000272e+01
0	 8.666667e+00	 9.259259e+00	 1.000227e+01
0	 8.740741e+00	 8.888889e+00	 1.000447e+01
0	 8.740741e+00	 8.962963e+00	 1.000393e+01
0	 8.740741e+00	 9.037037e+00	 1.000343e+01
0	 8.740741e+00	 9.111111e+00	 1.000295e+01
0	 8.740741e+00	 9.185185e+00	 1.000251e+01
0	 8.740741e+00	 9.259259e+00	 1.000209e+01
0	 8.814815e+00	 8.888889e+00	 1.000411e+01
0	 8.814815e+00	 8.962963e+00	 1.000361e+01
0	 8.814815e+00	 9.037037e+00	 1.000314e+01
0	 8.814815e+00	 9.111111e+00	 1.000271e+01
0	 8.814815e+00	 9.185185e+00	 1.000230e+01
0	 8.814815e+00	 9.259259e+00	 1.000191e+01
0	 8.888889e+00	 8.888889e+00	 1.000374e+01
0	 8.888889e+00	 8.962963e+00	 1.000329e+01
0	 8.888889e+00	 9.037037e+00	 1.000286e+01
0	 8.888889e+00	 9.111111e+00	 1.000246e+01
0	 8.888889e+00	 9.185185e+00	 1.000209e+01
0	 8.888889e+00	 9.259259e+00	 1.000174e+01
0	 8.518519e+00	 9.259259e+00	 1.000262e+01
0	 8.518519e+00	 9.333333e+00	 1.000214e+01
0	 8.518519e+00	 9.407407e+00	 1.000171e+01
0	 8.518519e+00	 9.481481e+00	 1.000133e+01
0	 8.518519e+00	 9.555556e+00	 1.000099e+01
0	 8.518519e+00	 9.629630e+00	 1.000069e+01
0	 8.592593e+00	 9.259259e+00	 1.000244e+01
0	 8.592593e+00	 9.333333e+00	 1.000200e+01
0	 8.592593e+00	 9.407407e+00	 1.000160e+01
0	 8.592593e+00	 9.481481e+00	 1.000124e+01
0	 8.592593e+00	 9.555556e+00	 1.000092e+01
0	 8.592593e+00	 9.629630e+00	 1.000065e+01
0	 8.666667e+00	 9.259259e+00	 1.000227e+01
0	 8.666667e+00	 9.333333e+00	 1.000185e+01
0	 8.666667e+00	 9.407407e+00	 1.000148e+01
0	 8.666667e+00	 9.481481e+00	 1.000115e+01
0	 8.666667e+00	 9.555556e+00	 1.000085e+01
0	 8.666667e+00	 9.629630e+00	 1.000060e+01
0	 8.740741e+00	 9.259259e+00	 1.000209e+01
0	 8.740741e+00	 9.333333e+00	 1.000171e+01
0	 8.740741e+00	 9.407407e+00	 1.000136e+01
0	 8.740741e+00	 9.481481e+00	 1.000106e+01
0	 8.740741e+00	 9.555556e+00	 1.000079e+01
0	 8.740741e+00	 9.629630e+00	 1.000055e+01
0	 8.814815e+00	 9.259259e+00	 1.000191e+01
0	 8.814815e+00	 9.333333e+00	 1.000156e+01
0	 8.814815e+00	 9.407407e+00	 1.000124e+01
0	 8.814815e+00	 9.481481e+00	 1.000096e+01
0	 8.814815e+00	 9.555556e+00	 1.000072e+01
0	 8.814815e+00	 9.629630e+00	 1.000050e+01
0	 8.888889e+00	 9.259259e+00	 1.000174e+01
0	 8.888889e+00	 9.333333e+00	 1.000141e+01
0	 8.888889e+00	 9.407407e+00	 1.000113e+01
0	 8.888889e+00	 9.481481e+00	 1.000087e+01
0	 8.888889e+00	 9.555556e+00	 1.000065e+01
0	 8.888889e+00	 9.629630e+00	 1.000045e+01
0	 8.518519e+00	 9.629630e+00	 1.000069e+01
0	 8.518519e+00	 9.703704e+00	 1.000044e+01
0	 8.518519e+00	 9.777778e+00	 1.000025e+01
0	 8.518519e+00	 9.851852e+00	 1.000012e+01
0	 8.518519e+00	 9.925926e+00	 1.000003e+01
0	 8.518519e+00	 1.000000e+01	 9.999995e+00
0	 8.592593e+00	 9.629630e+00	 1.000065e+01
0	 8.592593e+00	 9.703704e+00	 1.000042e+01
0	 8.592593e+00	 9.777778e+00	 1.000024e+01
0	 8.592593e+00	 9.851852e+00	 1.000011e+01
0	 8.592593e+00	 9.925926e+00	 1.000003e+01
0	 8.592593e+00	 1.000000e+01	 9.999998e+00
0	 8.666667e+00	 9.629630e+00	 1.000060e+01
0	 8.666667e+00	 9.703704e+00	 1.000038e+01
0	 8.666667e+00	 9.777778e+00	 1.000022e+01
0	 8.666667e+00	 9.851852e+00	 1.000010e+01
0	 8.666667e+00	 9.925926e+00	 1.000003e+01
0	 8.666667e+00	 1.000000e+01	 9.999998e+00
0	 8.740741e+00	 9.629630e+00	 1.000055e+01
0	 8.740741e+00	 9.703704e+00	 1.000035e+01
0	 8.740741e+00	 9.777778e+00	 1.000020e+01
0	 8.740741e+00	 9.851852e+00	 1.000009e+01
0	 8.740741e+00	 9.925926e+00	 1.000002e+01
0	 8.740741e+00	 1.000000e+01	 9.999997e+00
0	 8.814815e+00	 9.629630e+00	 1.000050e+01
0	 8.814815e+00	 9.703704e+00	 1.000032e+01
0	 8.814815e+00	 9.777778e+00	 1.000018e+01
0	 8.814815e+00	 9.851852e+00	 1.000008e+01
0	 8.814815e+00	 9.925926e+00	 1.000002e+01
0	 8.814815e+00	 1.000000e+01	 9.999996e+00
0	 8.888889e+00	 9.629630e+00	 1.000045e+01
0	 8.888889e+00	 9.703704e+00	 1.000029e+01
0	 8.888889e+00	 9.777778e+00	 1.000017e+01
0	 8.888889e+00	 9.851852e+00	 1.000008e+01
0	 8.888889e+00	 9.925926e+00	 1.000002e+01
0	 8.888889e+00	 1.000000e+01	 9.999997e+00
0	 8.888889e+00	 0.000000e+00	 9.853311e+00
0	 8.888889e+00	 7.407407e-02	 9.853387e+00
0	 8.888889e+00	 1.481481e-01	 9.853616e+00
0	 8.888889e+00	 2.222222e-01	 9.853996e+00
0	 8.888889e+00	 2.962963e-01	 9.854529e+00
0	 8.888889e+00	 3.703704e-01	 9.855215e+00
0	 8.962963e+00	 0.000000e+00	 9.842129e+00
0	 8.962963e+00	 7.407407e-02	 9.842207e+00
0	 8.962963e+00	 1.481481e-01	 9.842442e+00
0	 8.962963e+00	 2.222222e-01	 9.842833e+00
0	 8.962963e+00	 2.962963e-01	 9.843381e+00
0	 8.962963e+00	 3.703704e-01	 9.844085e+00
0	 9.037037e+00	 0.000000e+00	 9.830690e+00
0	 9.037037e+00	 7.407407e-02	 9.830771e+00
0	 9.037037e+00	 1.481481e-01	 9.831013e+00
0	 9.037037e+00	 2.222222e-01	 9.831416e+00
0	 9.037037e+00	 2.962963e-01	 9.831980e+00
0	 9.037037e+00	 3.703704e-01	 9.832706e+00
0	 9.111111e+00	 0.000000e+00	 9.818971e+00
0	 9.111111e+00	 7.407407e-02	 9.819055e+00
0	 9.111111e+00	 1.481481e-01	 9.819305e+00
0	 9.111111e+00	 2.222222e-01	 9.819721e+00
0	 9.111111e+00	 2.962963e-01	 9.820304e+00
0	 9.111111e+00	 3.703704e-01	 9.821055e+00
0	 9.185185e+00	 0.000000e+00	 9.806949e+00
0	 9.185185e+00	 7.407407e-02	 9.807036e+00
0	 9.185185e+00	 1.481481e-01	 9.807295e+00
0	 9.185185e+00	 2.222222e-01	 9.807727e+00
0	 9.185185e+00	 2.962963e-01	 9.808331e+00
0	 9.185185e+00	 3.703704e-01	 9.809108e+00
0	 9.259259e+00	 0.000000e+00	 9.794601e+00
0	 9.259259e+00	 7.407407e-02	 9.794691e+00
0	 9.259259e+00	 1.481481e-01	 9.794961e+00
0	 9.259259e+00	 2.222222e-01	 9.795409e+00
0	 9.259259e+00	 2.962963e-01	 9.796037e+00
0	 9.259259e+00	 3.703704e-01	 9.796844e+00
0	 8.888889e+00	 3.703704e-01	 9.855215e+00
0	 8.888889e+00	 4.444444e-01	 9.856048e+00
0	 8.888889e+00	 5.185185e-01	 9.857022e+00
0	 8.888889e+00	 5.925926e-01	 9.858140e+00
0	 8.888889e+00	 6.666667e-01	 9.859402e+00
0	 8.888889e+00	 7.407407e-01	 9.860810e+00
0	 8.962963e+00	 3.703704e-01	 9.844085e+00
0	 8.962963e+00	 4.444444e-01	 9.844942e+00
0	 8.962963e+00	 5.185185e-01	 9.845944e+00
0	 8.962963e+00	 5.925926e-01	 9.847093e+00
0	 8.962963e+00	 6.666667e-01	 9.848391e+00
0	 8.962963e+00	 7.407407e-01	 9.849839e+00
0	 9.037037e+00	 3.703704e-01	 9.832706e+00
0	 9.037037e+00	 4.444444e-01	 9.833589e+00
0	 9.037037e+00	 5.185185e-01	 9.834622e+00
0	 9.037037e+00	 5.925926e-01	 9.835808e+00
0	 9.037037e+00	 6.666667e-01	 9.837146e+00
0	 9.037037e+00	 7.407407e-01	 9.838638e+00
0	 9.111111e+00	 3.703704e-01	 9.821055e+00
0	 9.111111e+00	 4.444444e-01	 9.821967e+00
0	 9.111111e+00	 5.185185e-01	 9.823035e+00
0	 9.111111e+00	 5.925926e-01	 9.824260e+00
0	 9.111111e+00	 6.666667e-01	 9.825644e+00
0	 9.111111e+00	 7.407407e-01	 9.827187e+00
0	 9.185185e+00	 3.703704e-01	 9.809108e+00
0	 9.185185e+00	 4.444444e-01	 9.810053e+00
0	 9.185185e+00	 5.185185e-01	 9.811160e+00
0	 9.185185e+00	 5.925926e-01	 9.812430e+00
0	 9.185185e+00	 6.666667e-01	 9.813864e+00
0	 9.185185e+00	 7.407407e-01	 9.815464e+00
0	 9.259259e+00	 3.703704e-01	 9.796844e+00
0	 9.259259e+00	 4.444444e-01	 9.797826e+00
0	 9.259259e+00	 5.185185e-01	 9.798976e+00
0	 9.259259e+00	 5.925926e-01	 9.800295e+00
0	 9.259259e+00	 6.666667e-01	 9.801785e+00
0	 9.259259e+00	 7.407407e-01	 9.803447e+00
0	 8.888889e+00	 7.407407e-01	 9.860810e+00
0	 8.888889e+00	 8.148148e-01	 9.862352e+00
0	 8.888889e+00	 8.888889e-01	 9.864017e+00
0	 8.888889e+00	 9.629630e-01	 9.865807e+00
0	 8.888889e+00	 1.037037e+00	 9.867725e+00
0	 8.888889e+00	 1.111111e+00	 9.869772e+00
0	 8.962963e+00	 7.407407e-01	 9.849839e+00
0	 8.962963e+00	 8.148148e-01	 9.851425e+00
0	 8.962963e+00	 8.888889e-01	 9.853138e+00
0	 8.962963e+00	 9.629630e-01	 9.854981e+00
0	 8.962963e+00	 1.037037e+00	 9.856956e+00
0	 8.962963e+00	 1.111111e+00	 9.859064e+00
0	 9.037037e+00	 7.407407e-01	 9.838638e+00
0	 9.037037e+00	 8.148148e-01	 9.840274e+00
0	 9.037037e+00	 8.888889e-01	 9.842042e+00
0	 9.037037e+00	 9.629630e-01	 9.843944e+00
0	 9.037037e+00	 1.037037e+00	 9.845981e+00
0	 9.037037e+00	 1.111111e+00	 9.848157e+00
0	 9.111111e+00	 7.407407e-01	 9.827187e+00
0	 9.111111e+00	 8.148148e-01	 9.828878e+00
0	 9.111111e+00	 8.888889e-01	 9.830707e+00
0	 9.111111e+00	 9.629630e-01	 9.832674e+00
0	 9.111111e+00	 1.037037e+00	 9.834783e+00
0	 9.111111e+00	 1.111111e+00	 9.837033e+00
0	 9.185185e+00	 7.407407e-01	 9.815464e+00
0	 9.185185e+00	 8.148148e-01	 9.817217e+00
0	 9.185185e+00	 8.888889e-01	 9.819113e+00
0	 9.185185e+00	 9.629630e-01	 9.821153e+00
0	 9.185185e+00	 1.037037e+00	 9.823340e+00
0	 9.185185e+00	 1.111111e+00	 9.825674e+00
0	 9.259259e+00	 7.407407e-01	 9.803447e+00
0	 9.259259e+00	 8.148148e-01	 9.805269e+00
0	 9.259259e+00	 8.888889e-01	 9.807239e+00
0	 9.259259e+00	 9.629630e-01	 9.809360e+00
0	 9.259259e+00	 1.037037e+00	 9.811634e+00
0	 9.259259e+00	 1.111111e+00	 9.814060e+00
0	 8.888889e+00	 1.111111e+00	 9.869772e+00
0	 8.888889e+00	 1.185185e+00	 9.871933e+00
0	 8.888889e+00	 1.259259e+00	 9.874193e+00
0	 8.888889e+00	 1.333333e+00	 9.876554e+00
0	 8.888889e+00	 1.407407e+00	 9.879020e+00
0	 8.888889e+00	 1.481481e+00	 9.881591e+00
0	 8.962963e+00	 1.111111e+00	 9.859064e+00
0	 8.962963e+00	 1.185185e+00	 9.861289e+00
0	 8.962963e+00	 1.259259e+00	 9.863618e+00
0	 8.962963e+00	 1.333333e+00	 9.866052e+00
0	 8.962963e+00	 1.407407e+00	 9.868593e+00
0	 8.962963e+00	 1.481481e+00	 9.871245e+00
0	 9.037037e+00	 1.111111e+00	 9.848157e+00
0	 9.037037e+00	 1.185185e+00	 9.850455e+00
0	 9.037037e+00	 1.259259e+00	 9.852860e+00
0	 9.037037e+00	 1.333333e+00	 9.855374e+00
0	 9.037037e+00	 1.407407e+00	 9.858001e+00
0	 9.037037e+00	 1.481481e+00	 9.860742e+00
0	 9.111111e+00	 1.111111e+00	 9.837033e+00
0	 9.111111e+00	 1.185185e+00	 9.839411e+00
0	 9.111111e+00	 1.259259e+00	 9.841901e+00
0	 9.111111e+00	 1.333333e+00	 9.844505e+00
0	 9.111111e+00	 1.407407e+00	 9.847226e+00
0	 9.111111e+00	 1.481481e+00	 9.850065e+00
0	 9.185185e+00	 1.111111e+00	 9.825674e+00
0	 9.185185e+00	 1.185185e+00	 9.828141e+00
0	 9.185185e+00	 1.259259e+00	 9.830725e+00
0	 9.185185e+00	 1.333333e+00	 9.833428e+00
0	 9.185185e+00	 1.407407e+00	 9.836252e+00
0	 9.185185e+00	 1.481481e+00	 9.839200e+00
0	 9.259259e+00	 1.111111e+00	 9.814060e+00
0	 9.259259e+00	 1.185185e+00	 9.816625e+00
0	 9.259259e+00	 1.259259e+00	 9.819313e+00
0	 9.259259e+00	 1.333333e+00	 9.822125e+00
0	 9.259259e+00	 1.407407e+00	 9.825063e+00
0	 9.259259e+00	 1.481481e+00	 9.828130e+00
0	 8.888889e+00	 1.481481e+00	 9.881591e+00
0	 8.888889e+00	 1.555556e+00	 9.884251e+00
0	 8.888889e+00	 1.629630e+00	 9.886981e+00
0	 8.888889e+00	 1.703704e+00	 9.889783e+00
0	 8.888889e+00	 1.777778e+00	 9.892662e+00
0	 8.888889e+00	 1.851852e+00	 9.895619e+00
0	 8.962963e+00	 1.481481e+00	 9.871245e+00
0	 8.962963e+00	 1.555556e+00	 9.873989e+00
0	 8.962963e+00	 1.629630e+00	 9.876806e+00
0	 8.962963e+00	 1.703704e+00	 9.879701e+00
0	 8.962963e+00	 1.777778e+00	 9.882675e+00
0	 8.962963e+00	 1.851852e+00	 9.885730e+00
0	 9.037037e+00	 1.481481e+00	 9.860742e+00
0	 9.037037e+00	 1.555556e+00	 9.863578e+00
0	 9.037037e+00	 1.629630e+00	 9.866493e+00
0	 9.037037e+00	 1.703704e+00	 9.869488e+00
0	 9.037037e+00	 1.777778e+00	 9.872567e+00
0	 9.037037e+00	 1.851852e+00	 9.875731e+00
0	 9.111111e+00	 1.481481e+00	 9.850065e+00
0	 9.111111e+00	 1.555556e+00	 9.853005e+00
0	 9.111111e+00	 1.629630e+00	 9.856026e+00
0	 9.111111e+00	 1.703704e+00	 9.859132e+00
0	 9.111111e+00	 1.777778e+00	 9.862326e+00
0	 9.111111e+00	 1.851852e+00	 9.865608e+00
0	 9.185185e+00	 1.481481e+00	 9.839200e+00
0	 9.185185e+00	 1.555556e+00	 9.842252e+00
0	 9.185185e+00	 1.629630e+00	 9.845391e+00
0	 9.185185e+00	 1.703704e+00	 9.848619e+00
0	 9.185185e+00	 1.777778e+00	 9.851938e+00
0	 9.185185e+00	 1.851852e+00	 9.855350e+00
0	 9.259259e+00	 1.481481e+00	 9.828130e+00
0	 9.259259e+00	 1.555556e+00	 9.831306e+00
0	 9.259259e+00	 1.629630e+00	 9.834574e+00
0	 9.259259e+00	 1.703704e+00	 9.837935e+00
0	 9.259259e+00	 1.777778e+00	 9.841391e+00
0	 9.259259e+00	 1.851852e+00	 9.844945e+00
0	 8.888889e+00	 1.851852e+00	 9.895619e+00
0	 8.888889e+00	 1.925926e+00	 9.898635e+00
0	 8.888889e+00	 2.000000e+00	 9.901691e+00
0	 8.888889e+00	 2.074074e+00	 9.904789e+00
0	 8.888889e+00	 2.148148e+00	 9.907933e+00
0	 8.888889e+00	 2.222222e+00	 9.911125e+00
0	 8.962963e+00	 1.851852e+00	 9.885730e+00
0	 8.962963e+00	 1.925926e+00	 9.888848e+00
0	 8.962963e+00	 2.000000e+00	 9.892010e+00
0	 8.962963e+00	 2.074074e+00	 9.895217e+00
0	 8.962963e+00	 2.148148e+00	 9.898472e+00
0	 8.962963e+00	 2.222222e+00	 9.901779e+00
0	 9.037037e+00	 1.851852e+00	 9.875731e+00
0	 9.037037e+00	 1.925926e+00	 9.878960e+00
0	 9.037037e+00	 2.000000e+00	 9.882237e+00
0	 9.037037e+00	 2.074074e+00	 9.885563e+00
0	 9.037037e+00	 2.148148e+00	 9.888940e+00
0	 9.037037e+00	 2.222222e+00	 9.892371e+00
0	 9.111111e+00	 1.851852e+00	 9.865608e+00
0	 9.111111e+00	 1.925926e+00	 9.868960e+00
0	 9.111111e+00	 2.000000e+00	 9.872362e+00
0	 9.111111e+00	 2.074074e+00	 9.875817e+00
0	 9.111111e+00	 2.148148e+00	 9.879326e+00
0	 9.111111e+00	 2.222222e+00	 9.882893e+00
0	 9.185185e+00	 1.851852e+00	 9.855350e+00
0	 9.185185e+00	 1.925926e+00	 9.858836e+00
0	 9.185185e+00	 2.000000e+00	 9.862375e+00
0	 9.185185e+00	 2.074074e+00	 9.865970e+00
0	 9.185185e+00	 2.148148e+00	 9.869623e+00
0	 9.185185e+00	 2.222222e+00	 9.873337e+00
0	 9.259259e+00	 1.851852e+00	 9.844945e+00
0	 9.259259e+00	 1.925926e+00	 9.848576e+00
0	 9.259259e+00	 2.000000e+00	 9.852265e+00
0	 9.259259e+00	 2.074074e+00	 9.856012e+00
0	 9.259259e+00	 2.148148e+00	 9.859821e+00
0	 9.259259e+00	 2.222222e+00	 9.863694e+00
0	 8.888889e+00	 2.222222e+00	 9.911125e+00
0	 8.888889e+00	 2.296296e+00	 9.914346e+00
0	 8.888889e+00	 2.370370e+00	 9.917576e+00
0	 8.888889e+00	 2.444444e+00	 9.920819e+00
0	 8.888889e+00	 2.518519e+00	 9.924077e+00
0	 8.888889e+00	 2.592593e+00	 9.927353e+00
0	 8.962963e+00	 2.222222e+00	 9.901779e+00
0	 8.962963e+00	 2.296296e+00	 9.905117e+00
0	 8.962963e+00	 2.370370e+00	 9.908469e+00
0	 8.962963e+00	 2.444444e+00	 9.911835e+00
0	 8.962963e+00	 2.518519e+00	 9.915218e+00
0	 8.962963e+00	 2.592593e+00	 9.918622e+00
0	 9.037037e+00	 2.222222e+00	 9.892371e+00
0	 9.037037e+00	 2.296296e+00	 9.895837e+00
0	 9.037037e+00	 2.370370e+00	 9.899318e+00
0	 9.037037e+00	 2.444444e+00	 9.902817e+00
0	 9.037037e+00	 2.518519e+00	 9.906336e+00
0	 9.037037e+00	 2.592593e+00	 9.909878e+00
0	 9.111111e+00	 2.222222e+00	 9.882893e+00
0	 9.111111e+00	 2.296296e+00	 9.886497e+00
0	 9.111111e+00	 2.370370e+00	 9.890119e+00
0	 9.111111e+00	 2.444444e+00	 9.893762e+00
0	 9.111111e+00	 2.518519e+00	 9.897426e+00
0	 9.111111e+00	 2.592593e+00	 9.901116e+00
0	 9.185185e+00	 2.222222e+00	 9.873337e+00
0	 9.185185e+00	 2.296296e+00	 9.877091e+00
0	 9.185185e+00	 2.370370e+00	 9.880865e+00
0	 9.185185e+00	 2.444444e+00	 9.884662e+00
0	 9.185185e+00	 2.518519e+00	 9.888483e+00
0	 9.185185e+00	 2.592593e+00	 9.892332e+00
0	 9.259259e+00	 2.222222e+00	 9.863694e+00
0	 9.259259e+00	 2.296296e+00	 9.867610e+00
0	 9.259259e+00	 2.370370e+00	 9.871549e+00
0	 9.259259e+00	 2.444444e+00	 9.875512e+00
0	 9.259259e+00	 2.518519e+00	 9.879503e+00
0	 9.259259e+00	 2.592593e+00	 9.883522e+00
0	 8.888889e+00	 2.592593e+00	 9.927353e+00
0	 8.888889e+00	 2.666667e+00	 9.930628e+00
0	 8.888889e+00	 2.740741e+00	 9.933885e+00
0	 8.888889e+00	 2.814815e+00	 9.937127e+00
0	 8.888889e+00	 2.888889e+00	 9.940355e+00
0	 8.888889e+00	 2.962963e+00	 9.943573e+00
0	 8.962963e+00	 2.592593e+00	 9.918622e+00
0	 8.962963e+00	 2.666667e+00	 9.922028e+00
0	 8.962963e+00	 2.740741e+00	 9.925418e+00
0	 8.962963e+00	 2.814815e+00	 9.928794e+00
0	 8.962963e+00	 2.888889e+00	 9.932159e+00
0	 8.962963e+00	 2.962963e+00	 9.935514e+00
0	 9.037037e+00	 2.592593e+00	 9.909878e+00
0	 9.037037e+00	 2.666667e+00	 9.913423e+00
0	 9.037037e+00	 2.740741e+00	 9.916955e+00
0	 9.037037e+00	 2.814815e+00	 9.920475e+00
0	 9.037037e+00	 2.888889e+00	 9.923985e+00
0	 9.037037e+00	 2.962963e+00	 9.927487e+00
0	 9.111111e+00	 2.592593e+00	 9.901116e+00
0	 9.111111e+00	 2.666667e+00	 9.904811e+00
0	 9.111111e+00	 2.740741e+00	 9.908495e+00
0	 9.111111e+00	 2.814815e+00	 9.912167e+00
0	 9.111111e+00	 2.888889e+00	 9.915832e+00
0	 9.111111e+00	 2.962963e+00	 9.919490e+00
0	 9.185185e+00	 2.592593e+00	 9.892332e+00
0	 9.185185e+00	 2.666667e+00	 9.896188e+00
0	 9.185185e+00	 2.740741e+00	 9.900034e+00
0	 9.185185e+00	 2.814815e+00	 9.903870e+00
0	 9.185185e+00	 2.888889e+00	 9.907700e+00
0	 9.185185e+00	 2.962963e+00	 9.911524e+00
0	 9.259259e+00	 2.592593e+00	 9.883522e+00
0	 9.259259e+00	 2.666667e+00	 9.887551e+00
0	 9.259259e+00	 2.740741e+00	 9.891570e+00
0	 9.259259e+00	 2.814815e+00	 9.895582e+00
0	 9.259259e+00	 2.888889e+00	 9.899587e+00
0	 9.259259e+00	 2.962963e+00	 9.903589e+00
0	 8.888889e+00	 2.962963e+00	 9.943573e+00
0	 8.888889e+00	 3.037037e+00	 9.946763e+00
0	 8.888889e+00	 3.111111e+00	 9.949913e+00
0	 8.888889e+00	 3.185185e+00	 9.953022e+00
0	 8.888889e+00	 3.259259e+00	 9.956093e+00
0	 8.888889e+00	 3.333333e+00	 9.959128e+00
0	 8.962963e+00	 2.962963e+00	 9.935514e+00
0	 8.962963e+00	 3.037037e+00	 9.938845e+00
0	 8.962963e+00	 3.111111e+00	 9.942135e+00
0	 8.962963e+00	 3.185185e+00	 9.945387e+00
0	 8.962963e+00	 3.259259e+00	 9.948601e+00
0	 8.962963e+00	 3.333333e+00	 9.951780e+00
0	 9.037037e+00	 2.962963e+00	 9.927487e+00
0	 9.037037e+00	 3.037037e+00	 9.930965e+00
0	 9.037037e+00	 3.111111e+00	 9.934405e+00
0	 9.037037e+00	 3.185185e+00	 9.937806e+00
0	 9.037037e+00	 3.259259e+00	 9.941171e+00
0	 9.037037e+00	 3.333333e+00	 9.944502e+00
0	 9.111111e+00	 2.962963e+00	 9.919490e+00
0	 9.111111e+00	 3.037037e+00	 9.923126e+00
0	 9.111111e+00	 3.111111e+00	 9.926723e+00
0	 9.111111e+00	 3.185185e+00	 9.930282e+00
0	 9.111111e+00	 3.259259e+00	 9.933806e+00
0	 9.111111e+00	 3.333333e+00	 9.937296e+00
0	 9.185185e+00	 2.962963e+00	 9.911524e+00
0	 9.185185e+00	 3.037037e+00	 9.915327e+00
0	 9.185185e+00	 3.111111e+00	 9.919091e+00
0	 9.185185e+00	 3.185185e+00	 9.922818e+00
0	 9.185185e+00	 3.259259e+00	 9.926510e+00
0	 9.185185e+00	 3.333333e+00	 9.930167e+00
0	 9.259259e+00	 2.962963e+00	 9.903589e+00
0	 9.259259e+00	 3.037037e+00	 9.907569e+00
0	 9.259259e+00	 3.111111e+00	 9.911510e+00
0	 9.259259e+00	 3.185185e+00	 9.915415e+00
0	 9.259259e+00	 3.259259e+00	 9.919284e+00
0	 9.259259e+00	 3.333333e+00	 9.923119e+00
0	 8.888889e+00	 3.333333e+00	 9.959128e+00
0	 8.888889e+00	 3.407407e+00	 9.962114e+00
0	 8.888889e+00	 3.481481e+00	 9.965040e+00
0	 8.888889e+00	 3.555556e+00	 9.967907e+00
0	 8.888889e+00	 3.629630e+00	 9.970715e+00
0	 8.888889e+00	 3.703704e+00	 9.973466e+00
0	 8.962963e+00	 3.333333e+00	 9.951780e+00
0	 8.962963e+00	 3.407407e+00	 9.954911e+00
0	 8.962963e+00	 3.481481e+00	 9.957983e+00
0	 8.962963e+00	 3.555556e+00	 9.960995e+00
0	 8.962963e+00	 3.629630e+00	 9.963949e+00
0	 8.962963e+00	 3.703704e+00	 9.966847e+00
0	 9.037037e+00	 3.333333e+00	 9.944502e+00
0	 9.037037e+00	 3.407407e+00	 9.947785e+00
0	 9.037037e+00	 3.481481e+00	 9.951008e+00
0	 9.037037e+00	 3.555556e+00	 9.954172e+00
0	 9.037037e+00	 3.629630e+00	 9.957278e+00
0	 9.037037e+00	 3.703704e+00	 9.960328e+00
0	 9.111111e+00	 3.333333e+00	 9.937296e+00
0	 9.111111e+00	 3.407407e+00	 9.940739e+00
0	 9.111111e+00	 3.481481e+00	 9.944121e+00
0	 9.111111e+00	 3.555556e+00	 9.947444e+00
0	 9.111111e+00	 3.629630e+00	 9.950709e+00
0	 9.111111e+00	 3.703704e+00	 9.953916e+00
0	 9.185185e+00	 3.333333e+00	 9.930167e+00
0	 9.185185e+00	 3.407407e+00	 9.933778e+00
0	 9.185185e+00	 3.481481e+00	 9.937327e+00
0	 9.185185e+00	 3.555556e+00	 9.940816e+00
0	 9.185185e+00	 3.629630e+00	 9.944246e+00
0	 9.185185e+00	 3.703704e+00	 9.947618e+00
0	 9.259259e+00	 3.333333e+00	 9.923119e+00
0	 9.259259e+00	 3.407407e+00	 9.926906e+00
0	 9.259259e+00	 3.481481e+00	 9.930630e+00
0	 9.259259e+00	 3.555556e+00	 9.934294e+00
0	 9.259259e+00	 3.629630e+00	 9.937897e+00
0	 9.259259e+00	 3.703704e+00	 9.941442e+00
0	 8.888889e+00	 3.703704e+00	 9.973466e+00
0	 8.888889e+00	 3.777778e+00	 9.976152e+00
0	 8.888889e+00	 3.851852e+00	 9.978764e+00
0	 8.888889e+00	 3.925926e+00	 9.981302e+00
0	 8.888889e+00	 4.000000e+00	 9.983768e+00
0	 8.888889e+00	 4.074074e+00	 9.986161e+00
0	 8.962963e+00	 3.703704e+00	 9.966847e+00
0	 8.962963e+00	 3.777778e+00	 9.969679e+00
0	 8.962963e+00	 3.851852e+00	 9.972436e+00
0	 8.962963e+00	 3.925926e+00	 9.975120e+00
0	 8.962963e+00	 4.000000e+00	 9.977730e+00
0	 8.962963e+00	 4.074074e+00	 9.980267e+00
0	 9.037037e+00	 3.703704e+00	 9.960328e+00
0	 9.037037e+00	 3.777778e+00	 9.963311e+00
0	 9.037037e+00	 3.851852e+00	 9.966219e+00
0	 9.037037e+00	 3.925926e+00	 9.969052e+00
0	 9.037037e+00	 4.000000e+00	 9.971811e+00
0	 9.037037e+00	 4.074074e+00	 9.974497e+00
0	 9.111111e+00	 3.703704e+00	 9.953916e+00
0	 9.111111e+00	 3.777778e+00	 9.957057e+00
0	 9.111111e+00	 3.851852e+00	 9.960121e+00
0	 9.111111e+00	 3.925926e+00	 9.963109e+00
0	 9.111111e+00	 4.000000e+00	 9.966021e+00
0	 9.111111e+00	 4.074074e+00	 9.968859e+00
0	 9.185185e+00	 3.703704e+00	 9.947618e+00
0	 9.185185e+00	 3.777778e+00	 9.950923e+00
0	 9.185185e+00	 3.851852e+00	 9.954149e+00
0	 9.185185e+00	 3.925926e+00	 9.957297e+00
0	 9.185185e+00	 4.000000e+00	 9.960368e+00
0	 9.185185e+00	 4.074074e+00	 9.963364e+00
0	 9.259259e+00	 3.703704e+00	 9.941442e+00
0	 9.259259e+00	 3.777778e+00	 9.944916e+00
0	 9.259259e+00	 3.851852e+00	 9.948311e+00
0	 9.259259e+00	 3.925926e+00	 9.951625e+00
0	 9.259259e+00	 4.000000e+00	 9.954861e+00
0	 9.259259e+00	 4.074074e+00	 9.958019e+00
0	 8.888889e+00	 4.074074e+00	 9.986161e+00
0	 8.888889e+00	 4.148148e+00	 9.988477e+00
0	 8.888889e+00	 4.222222e+00	 9.990710e+00
0	 8.888889e+00	 4.296296e+00	 9.992862e+00
0	 8.888889e+00	 4.370370e+00	 9.994931e+00
0	 8.888889e+00	 4.444444e+00	 9.996918e+00
0	 8.962963e+00	 4.074074e+00	 9.980267e+00
0	 8.962963e+00	 4.148148e+00	 9.982727e+00
0	 8.962963e+00	 4.222222e+00	 9.985102e+00
0	 8.962963e+00	 4.296296e+00	 9.987394e+00
0	 8.962963e+00	 4.370370e+00	 9.989603e+00
0	 8.962963e+00	 4.444444e+00	 9.991729e+00
0	 9.037037e+00	 4.074074e+00	 9.974497e+00
0	 9.037037e+00	 4.148148e+00	 9.977103e+00
0	 9.037037e+00	 4.222222e+00	 9.979624e+00
0	 9.037037e+00	 4.296296e+00	 9.982060e+00
0	 9.037037e+00	 4.370370e+00	 9.984411e+00
0	 9.037037e+00	 4.444444e+00	 9.986678e+00
0	 9.111111e+00	 4.074074e+00	 9.968859e+00
0	 9.111111e+00	 4.148148e+00	 9.971616e+00
0	 9.111111e+00	 4.222222e+00	 9.974286e+00
0	 9.111111e+00	 4.296296e+00	 9.976869e+00
0	 9.111111e+00	 4.370370e+00	 9.979365e+00
0	 9.111111e+00	 4.444444e+00	 9.981775e+00
0	 9.185185e+00	 4.074074e+00	 9.963364e+00
0	 9.185185e+00	 4.148148e+00	 9.966276e+00
0	 9.185185e+00	 4.222222e+00	 9.969099e+00
0	 9.185185e+00	 4.296296e+00	 9.971832e+00
0	 9.185185e+00	 4.370370e+00	 9.974476e+00
0	 9.185185e+00	 4.444444e+00	 9.977032e+00
0	 9.259259e+00	 4.074074e+00	 9.958019e+00
0	 9.259259e+00	 4.148148e+00	 9.961091e+00
0	 9.259259e+00	 4.222222e+00	 9.964071e+00
0	 9.259259e+00	 4.296296e+00	 9.966959e+00
0	 9.259259e+00	 4.370370e+00	 9.969754e+00
0	 9.259259e+00	 4.444444e+00	 9.972459e+00
0	 8.888889e+00	 4.444444e+00	 9.996918e+00
0	 8.888889e+00	 4.518519e+00	 9.998822e+00
0	 8.888889e+00	 4.592593e+00	 1.000064e+01
0	 8.888889e+00	 4.666667e+00	 1.000237e+01
0	 8.888889e+00	 4.740741e+00	 1.000402e+01
0	 8.888889e+00	 4.814815e+00	 1.000558e+01
0	 8.962963e+00	 4.444444e+00	 9.991729e+00
0	 8.962963e+00	 4.518519e+00	 9.993770e+00
0	 8.962963e+00	 4.592593e+00	 9.995723e+00
0	 8.962963e+00	 4.666667e+00	 9.997588e+00
0	 8.962963e+00	 4.740741e+00	 9.999365e+00
0	 8.962963e+00	 4.814815e+00	 1.000105e+01
0	 9.037037e+00	 4.444444e+00	 9.986678e+00
0	 9.037037e+00	 4.518519e+00	 9.988857e+00
0	 9.037037e+00	 4.592593e+00	 9.990947e+00
0	 9.037037e+00	 4.666667e+00	 9.992947e+00
0	 9.037037e+00	 4.740741e+00	 9.994857e+00
0	 9.037037e+00	 4.814815e+00	 9.996677e+00
0	 9.111111e+00	 4.444444e+00	 9.981775e+00
0	 9.111111e+00	 4.518519e+00	 9.984096e+00
0	 9.111111e+00	 4.592593e+00	 9.986324e+00
0	 9.111111e+00	 4.666667e+00	 9.988460e+00
0	 9.111111e+00	 4.740741e+00	 9.990504e+00
0	 9.111111e+00	 4.814815e+00	 9.992455e+00
0	 9.185185e+00	 4.444444e+00	 9.977032e+00
0	 9.185185e+00	 4.518519e+00	 9.979496e+00
0	 9.185185e+00	 4.592593e+00	 9.981865e+00
0	 9.185185e+00	 4.666667e+00	 9.984138e+00
0	 9.185185e+00	 4.740741e+00	 9.986317e+00
0	 9.185185e+00	 4.814815e+00	 9.988400e+00
0	 9.259259e+00	 4.444444e+00	 9.972459e+00
0	 9.259259e+00	 4.518519e+00	 9.975069e+00
0	 9.259259e+00	 4.592593e+00	 9.977580e+00
0	 9.259259e+00	 4.666667e+00	 9.979993e+00
0	 9.259259e+00	 4.740741e+00	 9.982308e+00
0	 9.259259e+00	 4.814815e+00	 9.984524e+00
0	 8.888889e+00	 4.814815e+00	 1.000558e+01
0	 8.888889e+00	 4.888889e+00	 1.000705e+01
0	 8.888889e+00	 4.962963e+00	 1.000844e+01
0	 8.888889e+00	 5.037037e+00	 1.000974e+01
0	 8.888889e+00	 5.111111e+00	 1.001096e+01
0	 8.888889e+00	 5.185185e+00	 1.001210e+01
0	 8.962963e+00	 4.814815e+00	 1.000105e+01
0	 8.962963e+00	 4.888889e+00	 1.000266e+01
0	 8.962963e+00	 4.962963e+00	 1.000417e+01
0	 8.962963e+00	 5.037037e+00	 1.000560e+01
0	 8.962963e+00	 5.111111e+00	 1.000694e+01
0	 8.962963e+00	 5.185185e+00	 1.000819e+01
0	 9.037037e+00	 4.814815e+00	 9.996677e+00
0	 9.037037e+00	 4.888889e+00	 9.998407e+00
0	 9.037037e+00	 4.962963e+00	 1.000005e+01
0	 9.037037e+00	 5.037037e+00	 1.000160e+01
0	 9.037037e+00	 5.111111e+00	 1.000306e+01
0	 9.037037e+00	 5.185185e+00	 1.000443e+01
0	 9.111111e+00	 4.814815e+00	 9.992455e+00
0	 9.111111e+00	 4.888889e+00	 9.994314e+00
0	 9.111111e+00	 4.962963e+00	 9.996080e+00
0	 9.111111e+00	 5.037037e+00	 9.997755e+00
0	 9.111111e+00	 5.111111e+00	 9.999336e+00
0	 9.111111e+00	 5.185185e+00	 1.000082e+01
0	 9.185185e+00	 4.814815e+00	 9.988400e+00
0	 9.185185e+00	 4.888889e+00	 9.990388e+00
0	 9.185185e+00	 4.962963e+00	 9.992280e+00
0	 9.185185e+00	 5.037037e+00	 9.994077e+00
0	 9.185185e+00	 5.111111e+00	 9.995778e+00
0	 9.185185e+00	 5.185185e+00	 9.997383e+00
0	 9.259259e+00	 4.814815e+00	 9.984524e+00
0	 9.259259e+00	 4.888889e+00	 9.986641e+00
0	 9.259259e+00	 4.962963e+00	 9.988660e+00
0	 9.259259e+00	 5.037037e+00	 9.990580e+00
0	 9.259259e+00	 5.111111e+00	 9.992400e+00
0	 9.259259e+00	 5.185185e+00	 9.994120e+00
0	 8.888889e+00	 5.185185e+00	 1.001210e+01
0	 8.888889e+00	 5.259259e+00	 1.001315e+01
0	 8.888889e+00	 5.333333e+00	 1.001412e+01
0	 8.888889e+00	 5.407407e+00	 1.001501e+01
0	 8.888889e+00	 5.481481e+00	 1.001582e+01
0	 8.888889e+00	 5.555556e+00	 1.001654e+01
0	 8.962963e+00	 5.185185e+00	 1.000819e+01
0	 8.962963e+00	 5.259259e+00	 1.000936e+01
0	 8.962963e+00	 5.333333e+00	 1.001044e+01
0	 8.962963e+00	 5.407407e+00	 1.001145e+01
0	 8.962963e+00	 5.481481e+00	 1.001237e+01
0	 8.962963e+00	 5.555556e+00	 1.001320e+01
0	 9.037037e+00	 5.185185e+00	 1.000443e+01
0	 9.037037e+00	 5.259259e+00	 1.000571e+01
0	 9.037037e+00	 5.333333e+00	 1.000691e+01
0	 9.037037e+00	 5.407407e+00	 1.000803e+01
0	 9.037037e+00	 5.481481e+00	 1.000905e+01
0	 9.037037e+00	 5.555556e+00	 1.000999e+01
0	 9.111111e+00	 5.185185e+00	 1.000082e+01
0	 9.111111e+00	 5.259259e+00	 1.000222e+01
0	 9.111111e+00	 5.333333e+00	 1.000353e+01
0	 9.111111e+00	 5.407407e+00	 1.000475e+01
0	 9.111111e+00	 5.481481e+00	 1.000589e+01
0	 9.111111e+00	 5.555556e+00	 1.000693e+01
0	 9.185185e+00	 5.185185e+00	 9.997383e+00
0	 9.185185e+00	 5.259259e+00	 9.998894e+00
0	 9.185185e+00	 5.333333e+00	 1.000031e+01
0	 9.185185e+00	 5.407407e+00	 1.000164e+01
0	 9.185185e+00	 5.481481e+00	 1.000288e+01
0	 9.185185e+00	 5.555556e+00	 1.000403e+01
0	 9.259259e+00	 5.185185e+00	 9.994120e+00
0	 9.259259e+00	 5.259259e+00	 9.995743e+00
0	 9.259259e+00	 5.333333e+00	 9.997272e+00
0	 9.259259e+00	 5.407407e+00	 9.998706e+00
0	 9.259259e+00	 5.481481e+00	 1.000004e+01
0	 9.259259e+00	 5.555556e+00	 1.000129e+01
0	 8.888889e+00	 5.555556e+00	 1.001654e+01
0	 8.888889e+00	 5.629630e+00	 1.001719e+01
0	 8.888889e+00	 5.703704e+00	 1.001777e+01
0	 8.888889e+00	 5.777778e+00	 1.001828e+01
0	 8.888889e+00	 5.851852e+00	 1.001872e+01
0	 8.888889e+00	 5.925926e+00	 1.001908e+01
0	 8.962963e+00	 5.555556e+00	 1.001320e+01
0	 8.962963e+00	 5.629630e+00	 1.001396e+01
0	 8.962963e+00	 5.703704e+00	 1.001464e+01
0	 8.962963e+00	 5.777778e+00	 1.001525e+01
0	 8.962963e+00	 5.851852e+00	 1.001578e+01
0	 8.962963e+00	 5.925926e+00	 1.001624e+01
0	 9.037037e+00	 5.555556e+00	 1.000999e+01
0	 9.037037e+00	 5.629630e+00	 1.001085e+01
0	 9.037037e+00	 5.703704e+00	 1.001164e+01
0	 9.037037e+00	 5.777778e+00	 1.001234e+01
0	 9.037037e+00	 5.851852e+00	 1.001297e+01
0	 9.037037e+00	 5.925926e+00	 1.001352e+01
0	 9.111111e+00	 5.555556e+00	 1.000693e+01
0	 9.111111e+00	 5.629630e+00	 1.000789e+01
0	 9.111111e+00	 5.703704e+00	 1.000877e+01
0	 9.111111e+00	 5.777778e+00	 1.000957e+01
0	 9.111111e+00	 5.851852e+00	 1.001029e+01
0	 9.111111e+00	 5.925926e+00	 1.001093e+01
0	 9.185185e+00	 5.555556e+00	 1.000403e+01
0	 9.185185e+00	 5.629630e+00	 1.000508e+01
0	 9.185185e+00	 5.703704e+00	 1.000606e+01
0	 9.185185e+00	 5.777778e+00	 1.000695e+01
0	 9.185185e+00	 5.851852e+00	 1.000776e+01
0	 9.185185e+00	 5.925926e+00	 1.000848e+01
0	 9.259259e+00	 5.555556e+00	 1.000129e+01
0	 9.259259e+00	 5.629630e+00	 1.000244e+01
0	 9.259259e+00	 5.703704e+00	 1.000351e+01
0	 9.259259e+00	 5.777778e+00	 1.000449e+01
0	 9.259259e+00	 5.851852e+00	 1.000538e+01
0	 9.259259e+00	 5.925926e+00	 1.000618e+01
0	 8.888889e+00	 5.925926e+00	 1.001908e+01
0	 8.888889e+00	 6.000000e+00	 1.001937e+01
0	 8.888889e+00	 6.074074e+00	 1.001960e+01
0	 8.888889e+00	 6.148148e+00	 1.001977e+01
0	 8.888889e+00	 6.222222e+00	 1.001988e+01
0	 8.888889e+00	 6.296296e+00	 1.001992e+01
0	 8.962963e+00	 5.925926e+00	 1.001624e+01
0	 8.962963e+00	 6.000000e+00	 1.001662e+01
0	 8.962963e+00	 6.074074e+00	 1.001695e+01
0	 8.962963e+00	 6.148148e+00	 1.001720e+01
0	 8.962963e+00	 6.222222e+00	 1.001740e+01
0	 8.962963e+00	 6.296296e+00	 1.001753e+01
0	 9.037037e+00	 5.925926e+00	 1.001352e+01
0	 9.037037e+00	 6.000000e+00	 1.001399e+01
0	 9.037037e+00	 6.074074e+00	 1.001440e+01
0	 9.037037e+00	 6.148148e+00	 1.001475e+01
0	 9.037037e+00	 6.222222e+00	 1.001502e+01
0	 9.037037e+00	 6.296296e+00	 1.001523e+01
0	 9.111111e+00	 5.925926e+00	 1.001093e+01
0	 9.111111e+00	 6.000000e+00	 1.001149e+01
0	 9.111111e+00	 6.074074e+00	 1.001198e+01
0	 9.111111e+00	 6.148148e+00	 1.001241e+01
0	 9.111111e+00	 6.222222e+00	 1.001276e+01
0	 9.111111e+00	 6.296296e+00	 1.001305e+01
0	 9.185185e+00	 5.925926e+00	 1.000848e+01
0	 9.185185e+00	 6.000000e+00	 1.000912e+01
0	 9.185185e+00	 6.074074e+00	 1.000970e+01
0	 9.185185e+00	 6.148148e+00	 1.001020e+01
0	 9.185185e+00	 6.222222e+00	 1.001063e+01
0	 9.185185e+00	 6.296296e+00	 1.001099e+01
0	 9.259259e+00	 5.925926e+00	 1.000618e+01
0	 9.259259e+00	 6.000000e+00	 1.000691e+01
0	 9.259259e+00	 6.074074e+00	 1.000756e+01
0	 9.259259e+00	 6.148148e+00	 1.000813e+01
0	 9.259259e+00	 6.222222e+00	 1.000863e+01
0	 9.259259e+00	 6.296296e+00	 1.000905e+01
0	 8.888889e+00	 6.296296e+00	 1.001992e+01
0	 8.888889e+00	 6.370370e+00	 1.001991e+01
0	 8.888889e+00	 6.444444e+00	 1.001985e+01
0	 8.888889e+00	 6.518519e+00	 1.001974e+01
0	 8.888889e+00	 6.592593e+00	 1.001957e+01
0	 8.888889e+00	 6.666667e+00	 1.001936e+01
0	 8.962963e+00	 6.296296e+00	 1.001753e+01
0	 8.962963e+00	 6.370370e+00	 1.001759e+01
0	 8.962963e+00	 6.444444e+00	 1.001761e+01
0	 8.962963e+00	 6.518519e+00	 1.001758e+01
0	 8.962963e+00	 6.592593e+00	 1.001749e+01
0	 8.962963e+00	 6.666667e+00	 1.001735e+01
0	 9.037037e+00	 6.296296e+00	 1.001523e+01
0	 9.037037e+00	 6.370370e+00	 1.001538e+01
0	 9.037037e+00	 6.444444e+00	 1.001547e+01
0	 9.037037e+00	 6.518519e+00	 1.001551e+01
0	 9.037037e+00	 6.592593e+00	 1.001550e+01
0	 9.037037e+00	 6.666667e+00	 1.001543e+01
0	 9.111111e+00	 6.296296e+00	 1.001305e+01
0	 9.111111e+00	 6.370370e+00	 1.001327e+01
0	 9.111111e+00	 6.444444e+00	 1.001344e+01
0	 9.111111e+00	 6.518519e+00	 1.001354e+01
0	 9.111111e+00	 6.592593e+00	 1.001360e+01
0	 9.111111e+00	 6.666667e+00	 1.001359e+01
0	 9.185185e+00	 6.296296e+00	 1.001099e+01
0	 9.185185e+00	 6.370370e+00	 1.001128e+01
0	 9.185185e+00	 6.444444e+00	 1.001151e+01
0	 9.185185e+00	 6.518519e+00	 1.001168e+01
0	 9.185185e+00	 6.592593e+00	 1.001180e+01
0	 9.185185e+00	 6.666667e+00	 1.001185e+01
0	 9.259259e+00	 6.296296e+00	 1.000905e+01
0	 9.259259e+00	 6.370370e+00	 1.000941e+01
0	 9.259259e+00	 6.444444e+00	 1.000970e+01
0	 9.259259e+00	 6.518519e+00	 1.000994e+01
0	 9.259259e+00	 6.592593e+00	 1.001011e+01
0	 9.259259e+00	 6.666667e+00	 1.001022e+01
0	 8.888889e+00	 6.666667e+00	 1.001936e+01
0	 8.888889e+00	 6.740741e+00	 1.001910e+01
0	 8.888889e+00	 6.814815e+00	 1.001880e+01
0	 8.888889e+00	 6.888889e+00	 1.001847e+01
0	 8.888889e+00	 6.962963e+00	 1.001810e+01
0	 8.888889e+00	 7.037037e+00	 1.001769e+01
0	 8.962963e+00	 6.666667e+00	 1.001735e+01
0	 8.962963e+00	 6.740741e+00	 1.001716e+01
0	 8.962963e+00	 6.814815e+00	 1.001694e+01
0	 8.962963e+00	 6.888889e+00	 1.001667e+01
0	 8.962963e+00	 6.962963e+00	 1.001637e+01
0	 8.962963e+00	 7.037037e+00	 1.001603e+01
0	 9.037037e+00	 6.666667e+00	 1.001543e+01
0	 9.037037e+00	 6.740741e+00	 1.001531e+01
0	 9.037037e+00	 6.814815e+00	 1.001515e+01
0	 9.037037e+00	 6.888889e+00	 1.001495e+01
0	 9.037037e+00	 6.962963e+00	 1.001471e+01
0	 9.037037e+00	 7.037037e+00	 1.001443e+01
0	 9.111111e+00	 6.666667e+00	 1.001359e+01
0	 9.111111e+00	 6.740741e+00	 1.001354e+01
0	 9.111111e+00	 6.814815e+00	 1.001344e+01
0	 9.111111e+00	 6.888889e+00	 1.001330e+01
0	 9.111111e+00	 6.962963e+00	 1.001312e+01
0	 9.111111e+00	 7.037037e+00	 1.001289e+01
0	 9.185185e+00	 6.666667e+00	 1.001185e+01
0	 9.185185e+00	 6.740741e+00	 1.001186e+01
0	 9.185185e+00	 6.814815e+00	 1.001182e+01
0	 9.185185e+00	 6.888889e+00	 1.001173e+01
0	 9.185185e+00	 6.962963e+00	 1.001161e+01
0	 9.185185e+00	 7.037037e+00	 1.001143e+01
0	 9.259259e+00	 6.666667e+00	 1.001022e+01
0	 9.259259e+00	 6.740741e+00	 1.001028e+01
0	 9.259259e+00	 6.814815e+00	 1.001029e+01
0	 9.259259e+00	 6.888889e+00	 1.001026e+01
0	 9.259259e+00	 6.962963e+00	 1.001017e+01
0	 9.259259e+00	 7.037037e+00	 1.001005e+01
0	 8.888889e+00	 7.037037e+00	 1.001769e+01
0	 8.888889e+00	 7.111111e+00	 1.001725e+01
0	 8.888889e+00	 7.185185e+00	 1.001679e+01
0	 8.888889e+00	 7.259259e+00	 1.001630e+01
0	 8.888889e+00	 7.333333e+00	 1.001578e+01
0	 8.888889e+00	 7.407407e+00	 1.001524e+01
0	 8.962963e+00	 7.037037e+00	 1.001603e+01
0	 8.962963e+00	 7.111111e+00	 1.001565e+01
0	 8.962963e+00	 7.185185e+00	 1.001525e+01
0	 8.962963e+00	 7.259259e+00	 1.001482e+01
0	 8.962963e+00	 7.333333e+00	 1.001437e+01
0	 8.962963e+00	 7.407407e+00	 1.001389e+01
0	 9.037037e+00	 7.037037e+00	 1.001443e+01
0	 9.037037e+00	 7.111111e+00	 1.001411e+01
0	 9.037037e+00	 7.185185e+00	 1.001377e+01
0	 9.037037e+00	 7.259259e+00	 1.001340e+01
0	 9.037037e+00	 7.333333e+00	 1.001300e+01
0	 9.037037e+00	 7.407407e+00	 1.001257e+01
0	 9.111111e+00	 7.037037e+00	 1.001289e+01
0	 9.111111e+00	 7.111111e+00	 1.001263e+01
0	 9.111111e+00	 7.185185e+00	 1.001234e+01
0	 9.111111e+00	 7.259259e+00	 1.001203e+01
0	 9.111111e+00	 7.333333e+00	 1.001168e+01
0	 9.111111e+00	 7.407407e+00	 1.001131e+01
0	 9.185185e+00	 7.037037e+00	 1.001143e+01
0	 9.185185e+00	 7.111111e+00	 1.001122e+01
0	 9.185185e+00	 7.185185e+00	 1.001098e+01
0	 9.185185e+00	 7.259259e+00	 1.001071e+01
0	 9.185185e+00	 7.333333e+00	 1.001042e+01
0	 9.185185e+00	 7.407407e+00	 1.001009e+01
0	 9.259259e+00	 7.037037e+00	 1.001005e+01
0	 9.259259e+00	 7.111111e+00	 1.000988e+01
0	 9.259259e+00	 7.185185e+00	 1.000969e+01
0	 9.259259e+00	 7.259259e+00	 1.000946e+01
0	 9.259259e+00	 7.333333e+00	 1.000921e+01
0	 9.259259e+00	 7.407407e+00	 1.000892e+01
0	 8.888889e+00	 7.407407e+00	 1.001524e+01
0	 8.888889e+00	 7.481481e+00	 1.001469e+01
0	 8.888889e+00	 7.555556e+00	 1.001412e+01
0	 8.888889e+00	 7.629630e+00	 1.001354e+01
0	 8.888889e+00	 7.703704e+00	 1.001294e+01
0	 8.888889e+00	 7.777778e+00	 1.001234e+01
0	 8.962963e+00	 7.407407e+00	 1.001389e+01
0	 8.962963e+00	 7.481481e+00	 1.001339e+01
0	 8.962963e+00	 7.555556e+00	 1.001287e+01
0	 8.962963e+00	 7.629630e+00	 1.001235e+01
0	 8.962963e+00	 7.703704e+00	 1.001181e+01
0	 8.962963e+00	 7.777778e+00	 1.001126e+01
0	 9.037037e+00	 7.407407e+00	 1.001257e+01
0	 9.037037e+00	 7.481481e+00	 1.001213e+01
0	 9.037037e+00	 7.555556e+00	 1.001167e+01
0	 9.037037e+00	 7.629630e+00	 1.001120e+01
0	 9.037037e+00	 7.703704e+00	 1.001071e+01
0	 9.037037e+00	 7.777778e+00	 1.001021e+01
0	 9.111111e+00	 7.407407e+00	 1.001131e+01
0	 9.111111e+00	 7.481481e+00	 1.001091e+01
0	 9.111111e+00	 7.555556e+00	 1.001050e+01
0	 9.111111e+00	 7.629630e+00	 1.001008e+01
0	 9.111111e+00	 7.703704e+00	 1.000964e+01
0	 9.111111e+00	 7.777778e+00	 1.000918e+01
0	 9.185185e+00	 7.407407e+00	 1.001009e+01
0	 9.185185e+00	 7.481481e+00	 1.000974e+01
0	 9.185185e+00	 7.555556e+00	 1.000937e+01
0	 9.185185e+00	 7.629630e+00	 1.000899e+01
0	 9.185185e+00	 7.703704e+00	 1.000860e+01
0	 9.185185e+00	 7.777778e+00	 1.000818e+01
0	 9.259259e+00	 7.407407e+00	 1.000892e+01
0	 9.259259e+00	 7.481481e+00	 1.000861e+01
0	 9.259259e+00	 7.555556e+00	 1.000828e+01
0	 9.259259e+00	 7.629630e+00	 1.000794e+01
0	 9.259259e+00	 7.703704e+00	 1.000759e+01
0	 9.259259e+00	 7.777778e+00	 1.000721e+01
0	 8.888889e+00	 7.777778e+00	 1.001234e+01
0	 8.888889e+00	 7.851852e+00	 1.001172e+01
0	 8.888889e+00	 7.925926e+00	 1.001111e+01
0	 8.888889e+00	 8.000000e+00	 1.001050e+01
0	 8.888889e+00	 8.074074e+00	 1.000989e+01
0	 8.888889e+00	 8.148148e+00	 1.000927e+01
0	 8.962963e+00	 7.777778e+00	 1.001126e+01
0	 8.962963e+00	 7.851852e+00	 1.001070e+01
0	 8.962963e+00	 7.925926e+00	 1.001014e+01
0	 8.962963e+00	 8.000000e+00	 1.000958e+01
0	 8.962963e+00	 8.074074e+00	 1.000902e+01
0	 8.962963e+00	 8.148148e+00	 1.000845e+01
0	 9.037037e+00	 7.777778e+00	 1.001021e+01
0	 9.037037e+00	 7.851852e+00	 1.000970e+01
0	 9.037037e+00	 7.925926e+00	 1.000919e+01
0	 9.037037e+00	 8.000000e+00	 1.000868e+01
0	 9.037037e+00	 8.074074e+00	 1.000816e+01
0	 9.037037e+00	 8.148148e+00	 1.000764e+01
0	 9.111111e+00	 7.777778e+00	 1.000918e+01
0	 9.111111e+00	 7.851852e+00	 1.000872e+01
0	 9.111111e+00	 7.925926e+00	 1.000826e+01
0	 9.111111e+00	 8.000000e+00	 1.000779e+01
0	 9.111111e+00	 8.074074e+00	 1.000732e+01
0	 9.111111e+00	 8.148148e+00	 1.000685e+01
0	 9.185185e+00	 7.777778e+00	 1.000818e+01
0	 9.185185e+00	 7.851852e+00	 1.000776e+01
0	 9.185185e+00	 7.925926e+00	 1.000734e+01
0	 9.185185e+00	 8.000000e+00	 1.000692e+01
0	 9.185185e+00	 8.074074e+00	 1.000649e+01
0	 9.185185e+00	 8.148148e+00	 1.000606e+01
0	 9.259259e+00	 7.777778e+00	 1.000721e+01
0	 9.259259e+00	 7.851852e+00	 1.000683e+01
0	 9.259259e+00	 7.925926e+00	 1.000645e+01
0	 9.259259e+00	 8.000000e+00	 1.000606e+01
0	 9.259259e+00	 8.074074e+00	 1.000567e+01
0	 9.259259e+00	 8.148148e+00	 1.000528e+01
0	 8.888889e+00	 8.148148e+00	 1.000927e+01
0	 8.888889e+00	 8.222222e+00	 1.000866e+01
0	 8.888889e+00	 8.296296e+00	 1.000806e+01
0	 8.888889e+00	 8.370370e+00	 1.000747e+01
0	 8.888889e+00	 8.444444e+00	 1.000690e+01
0	 8.888889e+00	 8.518519e+00	 1.000632e+01
0	 8.962963e+00	 8.148148e+00	 1.000845e+01
0	 8.962963e+00	 8.222222e+00	 1.000789e+01
0	 8.962963e+00	 8.296296e+00	 1.000734e+01
0	 8.962963e+00	 8.370370e+00	 1.000680e+01
0	 8.962963e+00	 8.444444e+00	 1.000627e+01
0	 8.962963e+00	 8.518519e+00	 1.000575e+01
0	 9.037037e+00	 8.148148e+00	 1.000764e+01
0	 9.037037e+00	 8.222222e+00	 1.000713e+01
0	 9.037037e+00	 8.296296e+00	 1.000663e+01
0	 9.037037e+00	 8.370370e+00	 1.000613e+01
0	 9.037037e+00	 8.444444e+00	 1.000565e+01
0	 9.037037e+00	 8.518519e+00	 1.000517e+01
0	 9.111111e+00	 8.148148e+00	 1.000685e+01
0	 9.111111e+00	 8.222222e+00	 1.000638e+01
0	 9.111111e+00	 8.296296e+00	 1.000592e+01
0	 9.111111e+00	 8.370370e+00	 1.000547e+01
0	 9.111111e+00	 8.444444e+00	 1.000503e+01
0	 9.111111e+00	 8.518519e+00	 1.000459e+01
0	 9.185185e+00	 8.148148e+00	 1.000606e+01
0	 9.185185e+00	 8.222222e+00	 1.000563e+01
0	 9.185185e+00	 8.296296e+00	 1.000522e+01
0	 9.185185e+00	 8.370370e+00	 1.000481e+01
0	 9.185185e+00	 8.444444e+00	 1.000440e+01
0	 9.185185e+00	 8.518519e+00	 1.000401e+01
0	 9.259259e+00	 8.148148e+00	 1.000528e+01
0	 9.259259e+00	 8.222222e+00	 1.000489e+01
0	 9.259259e+00	 8.296296e+00	 1.000451e+01
0	 9.259259e+00	 8.370370e+00	 1.000414e+01
0	 9.259259e+00	 8.444444e+00	 1.000378e+01
0	 9.259259e+00	 8.518519e+00	 1.000342e+01
0	 8.888889e+00	 8.518519e+00	 1.000632e+01
0	 8.888889e+00	 8.592593e+00	 1.000577e+01
0	 8.888889e+00	 8.666667e+00	 1.000523e+01
0	 8.888889e+00	 8.740741e+00	 1.000472e+01
0	 8.888889e+00	 8.814815e+00	 1.000422e+01
0	 8.888889e+00	 8.888889e+00	 1.000374e+01
0	 8.962963e+00	 8.518519e+00	 1.000575e+01
0	 8.962963e+00	 8.592593e+00	 1.000523e+01
0	 8.962963e+00	 8.666667e+00	 1.000474e+01
0	 8.962963e+00	 8.740741e+00	 1.000427e+01
0	 8.962963e+00	 8.814815e+00	 1.000382e+01
0	 8.962963e+00	 8.888889e+00	 1.000338e+01
0	 9.037037e+00	 8.518519e+00	 1.000517e+01
0	 9.037037e+00	 8.592593e+00	 1.000470e+01
0	 9.037037e+00	 8.666667e+00	 1.000425e+01
0	 9.037037e+00	 8.740741e+00	 1.000382e+01
0	 9.037037e+00	 8.814815e+00	 1.000341e+01
0	 9.037037e+00	 8.888889e+00	 1.000301e+01
0	 9.111111e+00	 8.518519e+00	 1.000459e+01
0	 9.111111e+00	 8.592593e+00	 1.000417e+01
0	 9.111111e+00	 8.666667e+00	 1.000376e+01
0	 9.111111e+00	 8.740741e+00	 1.000337e+01
0	 9.111111e+00	 8.814815e+00	 1.000300e+01
0	 9.111111e+00	 8.888889e+00	 1.000264e+01
0	 9.185185e+00	 8.518519e+00	 1.000401e+01
0	 9.185185e+00	 8.592593e+00	 1.000363e+01
0	 9.185185e+00	 8.666667e+00	 1.000326e+01
0	 9.185185e+00	 8.740741e+00	 1.000291e+01
0	 9.185185e+00	 8.814815e+00	 1.000258e+01
0	 9.185185e+00	 8.888889e+00	 1.000226e+01
0	 9.259259e+00	 8.518519e+00	 1.000342e+01
0	 9.259259e+00	 8.592593e+00	 1.000308e+01
0	 9.259259e+00	 8.666667e+00	 1.000275e+01
0	 9.259259e+00	 8.740741e+00	 1.000244e+01
0	 9.259259e+00	 8.814815e+00	 1.000215e+01
0	 9.259259e+00	 8.888889e+00	 1.000187e+01
0	 8.888889e+00	 8.888889e+00	 1.000374e+01
0	 8.888889e+00	 8.962963e+00	 1.000329e+01
0	 8.888889e+00	 9.037037e+00	 1.000286e+01
0	 8.888889e+00	 9.111111e+00	 1.000246e+01
0	 8.888889e+00	 9.185185e+00	 1.000209e+01
0	 8.888889e+00	 9.259259e+00	 1.000174e+01
0	 8.962963e+00	 8.888889e+00	 1.000338e+01
0	 8.962963e+00	 8.962963e+00	 1.000296e+01
0	 8.962963e+00	 9.037037e+00	 1.000257e+01
0	 8.962963e+00	 9.111111e+00	 1.000221e+01
0	 8.962963e+00	 9.185185e+00	 1.000187e+01
0	 8.962963e+00	 9.259259e+00	 1.000155e+01
0	 9.037037e+00	 8.888889e+00	 1.000301e+01
0	 9.037037e+00	 8.962963e+00	 1.000263e+01
0	 9.037037e+00	 9.037037e+00	 1.000228e+01
0	 9.037037e+00	 9.111111e+00	 1.000195e+01
0	 9.037037e+00	 9.185185e+00	 1.000165e+01
0	 9.037037e+00	 9.259259e+00	 1.000137e+01
0	 9.111111e+00	 8.888889e+00	 1.000264e+01
0	 9.111111e+00	 8.962963e+00	 1.000230e+01
0	 9.111111e+00	 9.037037e+00	 1.000198e+01
0	 9.111111e+00	 9.111111e+00	 1.000169e+01
0	 9.111111e+00	 9.185185e+00	 1.000142e+01
0	 9.111111e+00	 9.259259e+00	 1.000117e+01
0	 9.185185e+00	 8.888889e+00	 1.000226e+01
0	 9.185185e+00	 8.962963e+00	 1.000196e+01
0	 9.185185e+00	 9.037037e+00	 1.000168e+01
0	 9.185185e+00	 9.111111e+00	 1.000142e+01
0	 9.185185e+00	 9.185185e+00	 1.000119e+01
0	 9.185185e+00	 9.259259e+00	 1.000097e+01
0	 9.259259e+00	 8.888889e+00	 1.000187e+01
0	 9.259259e+00	 8.962963e+00	 1.000160e+01
0	 9.259259e+00	 9.037037e+00	 1.000136e+01
0	 9.259259e+00	 9.111111e+00	 1.000114e+01
0	 9.259259e+00	 9.185185e+00	 1.000094e+01
0	 9.259259e+00	 9.259259e+00	 1.000076e+01
0	 8.888889e+00	 9.259259e+00	 1.000174e+01
0	 8.888889e+00	 9.333333e+00	 1.000141e+01
0	 8.888889e+00	 9.407407e+00	 1.000113e+01
0	 8.888889e+00	 9.481481e+00	 1.000087e+01
0	 8.888889e+00	 9.555556e+00	 1.000065e+01
0	 8.888889e+00	 9.629630e+00	 1.000045e+01
0	 8.962963e+00	 9.259259e+00	 1.000155e+01
0	 8.962963e+00	 9.333333e+00	 1.000126e+01
0	 8.962963e+00	 9.407407e+00	 1.000101e+01
0	 8.962963e+00	 9.481481e+00	 1.000078e+01
0	 8.962963e+00	 9.555556e+00	 1.000058e+01
0	 8.962963e+00	 9.629630e+00	 1.000040e+01
0	 9.037037e+00	 9.259259e+00	 1.000137e+01
0	 9.037037e+00	 9.333333e+00	 1.000111e+01
0	 9.037037e+00	 9.407407e+00	 1.000088e+01
0	 9.037037e+00	 9.481481e+00	 1.000068e+01
0	 9.037037e+00	 9.555556e+00	 1.000050e+01
0	 9.037037e+00	 9.629630e+00	 1.000035e+01
0	 9.111111e+00	 9.259259e+00	 1.000117e+01
0	 9.111111e+00	 9.333333e+00	 1.000095e+01
0	 9.111111e+00	 9.407407e+00	 1.000075e+01
0	 9.111111e+00	 9.481481e+00	 1.000057e+01
0	 9.111111e+00	 9.555556e+00	 1.000042e+01
0	 9.111111e+00	 9.629630e+00	 1.000029e+01
0	 9.185185e+00	 9.259259e+00	 1.000097e+01
0	 9.185185e+00	 9.333333e+00	 1.000078e+01
0	 9.185185e+00	 9.407407e+00	 1.000061e+01
0	 9.185185e+00	 9.481481e+00	 1.000046e+01
0	 9.185185e+00	 9.555556e+00	 1.000033e+01
0	 9.185185e+00	 9.629630e+00	 1.000023e+01
0	 9.259259e+00	 9.259259e+00	 1.000076e+01
0	 9.259259e+00	 9.333333e+00	 1.000060e+01
0	 9.259259e+00	 9.407407e+00	 1.000046e+01
0	 9.259259e+00	 9.481481e+00	 1.000034e+01
0	 9.259259e+00	 9.555556e+00	 1.000024e+01
0	 9.259259e+00	 9.629630e+00	 1.000016e+01
0	 8.888889e+00	 9.629630e+00	 1.000045e+01
0	 8.888889e+00	 9.703704e+00	 1.000029e+01
0	 8.888889e+00	 9.777778e+00	 1.000017e+01
0	 8.888889e+00	 9.851852e+00	 1.000008e+01
0	 8.888889e+00	 9.925926e+00	 1.000002e+01
0	 8.888889e+00	 1.000000e+01	 9.999997e+00
0	 8.962963e+00	 9.629630e+00	 1.000040e+01
0	 8.962963e+00	 9.703704e+00	 1.000026e+01
0	 8.962963e+00	 9.777778e+00	 1.000015e+01
0	 8.962963e+00	 9.851852e+00	 1.000007e+01
0	 8.962963e+00	 9.925926e+00	 1.000002e+01
0	 8.962963e+00	 1.000000e+01	 9.999998e+00
0	 9.037037e+00	 9.629630e+00	 1.000035e+01
0	 9.037037e+00	 9.703704e+00	 1.000022e+01
0	 9.037037e+00	 9.777778e+00	 1.000013e+01
0	 9.037037e+00	 9.851852e+00	 1.000006e+01
0	 9.037037e+00	 9.925926e+00	 1.000001e+01
0	 9.037037e+00	 1.000000e+01	 9.999996e+00
0	 9.111111e+00	 9.629630e+00	 1.000029e+01
0	 9.111111e+00	 9.703704e+00	 1.000019e+01
0	 9.111111e+00	 9.777778e+00	 1.000010e+01
0	 9.111111e+00	 9.851852e+00	 1.000004e+01
0	 9.111111e+00	 9.925926e+00	 1.000001e+01
0	 9.111111e+00	 1.000000e+01	 9.999995e+00
0	 9.185185e+00	 9.629630e+00	 1.000023e+01
0	 9.185185e+00	 9.703704e+00	 1.000014e+01
0	 9.185185e+00	 9.777778e+00	 1.000008e+01
0	 9.185185e+00	 9.851852e+00	 1.000003e+01
0	 9.185185e+00	 9.925926e+00	 1.000000e+01
0	 9.185185e+00	 1.000000e+01	 9.999998e+00
0	 9.259259e+00	 9.629630e+00	 1.000016e+01
0	 9.259259e+00	 9.703704e+00	 1.000010e+01
0	 9.259259e+00	 9.777778e+00	 1.000005e+01
0	 9.259259e+00	 9.851852e+00	 1.000002e+01
0	 9.259259e+00	 9.925926e+00	 1.000001e+01
0	 9.259259e+00	 1.000000e+01	 1.000001e+01
0	 9.259259e+00	 0.000000e+00	 9.794601e+00
0	 9.259259e+00	 7.407407e-02	 9.794691e+00
0	 9.259259e+00	 1.481481e-01	 9.794961e+00
0	 9.259259e+00	 2.222222e-01	 9.795409e+00
0	 9.259259e+00	 2.962963e-01	 9.796037e+00
0	 9.259259e+00	 3.703704e-01	 9.796844e+00
0	 9.333333e+00	 0.000000e+00	 9.781923e+00
0	 9.333333e+00	 7.407407e-02	 9.782017e+00
0	 9.333333e+00	 1.481481e-01	 9.782297e+00
0	 9.333333e+00	 2.222222e-01	 9.782764e+00
0	 9.333333e+00	 2.962963e-01	 9.783417e+00
0	 9.333333e+00	 3.703704e-01	 9.784258e+00
0	 9.407407e+00	 0.000000e+00	 9.768905e+00
0	 9.407407e+00	 7.407407e-02	 9.769003e+00
0	 9.407407e+00	 1.481481e-01	 9.769295e+00
0	 9.407407e+00	 2.222222e-01	 9.769782e+00
0	 9.407407e+00	 2.962963e-01	 9.770464e+00
0	 9.407407e+00	 3.703704e-01	 9.771341e+00
0	 9.481481e+00	 0.000000e+00	 9.755516e+00
0	 9.481481e+00	 7.407407e-02	 9.755618e+00
0	 9.481481e+00	 1.481481e-01	 9.755924e+00
0	 9.481481e+00	 2.222222e-01	 9.756433e+00
0	 9.481481e+00	 2.962963e-01	 9.757145e+00
0	 9.481481e+00	 3.703704e-01	 9.758062e+00
0	 9.555556e+00	 0.000000e+00	 9.741724e+00
0	 9.555556e+00	 7.407407e-02	 9.741832e+00
0	 9.555556e+00	 1.481481e-01	 9.742152e+00
0	 9.555556e+00	 2.222222e-01	 9.742685e+00
0	 9.555556e+00	 2.962963e-01	 9.743431e+00
0	 9.555556e+00	 3.703704e-01	 9.744392e+00
0	 9.629630e+00	 0.000000e+00	 9.727499e+00
0	 9.629630e+00	 7.407407e-02	 9.727612e+00
0	 9.629630e+00	 1.481481e-01	 9.727948e+00
0	 9.629630e+00	 2.222222e-01	 9.728508e+00
0	 9.629630e+00	 2.962963e-01	 9.729291e+00
0	 9.629630e+00	 3.703704e-01	 9.730299e+00
0	 9.259259e+00	 3.703704e-01	 9.796844e+00
0	 9.259259e+00	 4.444444e-01	 9.797826e+00
0	 9.259259e+00	 5.185185e-01	 9.798976e+00
0	 9.259259e+00	 5.925926e-01	 9.800295e+00
0	 9.259259e+00	 6.666667e-01	 9.801785e+00
0	 9.259259e+00	 7.407407e-01	 9.803447e+00
0	 9.333333e+00	 3.703704e-01	 9.784258e+00
0	 9.333333e+00	 4.444444e-01	 9.785280e+00
0	 9.333333e+00	 5.185185e-01	 9.786477e+00
0	 9.333333e+00	 5.925926e-01	 9.787852e+00
0	 9.333333e+00	 6.666667e-01	 9.789403e+00
0	 9.333333e+00	 7.407407e-01	 9.791133e+00
0	 9.407407e+00	 3.703704e-01	 9.771341e+00
0	 9.407407e+00	 4.444444e-01	 9.772407e+00
0	 9.407407e+00	 5.185185e-01	 9.773656e+00
0	 9.407407e+00	 5.925926e-01	 9.775090e+00
0	 9.407407e+00	 6.666667e-01	 9.776709e+00
0	 9.407407e+00	 7.407407e-01	 9.778514e+00
0	 9.481481e+00	 3.703704e-01	 9.758062e+00
0	 9.481481e+00	 4.444444e-01	 9.759177e+00
0	 9.481481e+00	 5.185185e-01	 9.760483e+00
0	 9.481481e+00	 5.925926e-01	 9.761982e+00
0	 9.481481e+00	 6.666667e-01	 9.763675e+00
0	 9.481481e+00	 7.407407e-01	 9.765562e+00
0	 9.555556e+00	 3.703704e-01	 9.744392e+00
0	 9.555556e+00	 4.444444e-01	 9.745559e+00
0	 9.555556e+00	 5.185185e-01	 9.746927e+00
0	 9.555556e+00	 5.925926e-01	 9.748498e+00
0	 9.555556e+00	 6.666667e-01	 9.750271e+00
0	 9.555556e+00	 7.407407e-01	 9.752248e+00
0	 9.629630e+00	 3.703704e-01	 9.730299e+00
0	 9.629630e+00	 4.444444e-01	 9.731524e+00
0	 9.629630e+00	 5.185185e-01	 9.732960e+00
0	 9.629630e+00	 5.925926e-01	 9.734609e+00
0	 9.629630e+00	 6.666667e-01	 9.736470e+00
0	 9.629630e+00	 7.407407e-01	 9.738545e+00
0	 9.259259e+00	 7.407407e-01	 9.803447e+00
0	 9.259259e+00	 8.148148e-01	 9.805269e+00
0	 9.259259e+00	 8.888889e-01	 9.807239e+00
0	 9.259259e+00	 9.629630e-01	 9.809360e+00
0	 9.259259e+00	 1.037037e+00	 9.811634e+00
0	 9.259259e+00	 1.111111e+00	 9.814060e+00
0	 9.333333e+00	 7.407407e-01	 9.791133e+00
0	 9.333333e+00	 8.148148e-01	 9.793030e+00
0	 9.333333e+00	 8.888889e-01	 9.795083e+00
0	 9.333333e+00	 9.629630e-01	 9.797293e+00
0	 9.333333e+00	 1.037037e+00	 9.799661e+00
0	 9.333333e+00	 1.111111e+00	 9.802189e+00
0	 9.407407e+00	 7.407407e-01	 9.778514e+00
0	 9.407407e+00	 8.148148e-01	 9.780494e+00
0	 9.407407e+00	 8.888889e-01	 9.782636e+00
0	 9.407407e+00	 9.629630e-01	 9.784942e+00
0	 9.407407e+00	 1.037037e+00	 9.787414e+00
0	 9.407407e+00	 1.111111e+00	 9.790052e+00
0	 9.481481e+00	 7.407407e-01	 9.765562e+00
0	 9.481481e+00	 8.148148e-01	 9.767631e+00
0	 9.481481e+00	 8.888889e-01	 9.769871e+00
0	 9.481481e+00	 9.629630e-01	 9.772283e+00
0	 9.481481e+00	 1.037037e+00	 9.774867e+00
0	 9.481481e+00	 1.111111e+00	 9.777627e+00
0	 9.555556e+00	 7.407407e-01	 9.752248e+00
0	 9.555556e+00	 8.148148e-01	 9.754416e+00
0	 9.555556e+00	 8.888889e-01	 9.756762e+00
0	 9.555556e+00	 9.629630e-01	 9.759289e+00
0	 9.555556e+00	 1.037037e+00	 9.761997e+00
0	 9.555556e+00	 1.111111e+00	 9.764888e+00
0	 9.629630e+00	 7.407407e-01	 9.738545e+00
0	 9.629630e+00	 8.148148e-01	 9.740820e+00
0	 9.629630e+00	 8.888889e-01	 9.743283e+00
0	 9.629630e+00	 9.629630e-01	 9.745935e+00
0	 9.629630e+00	 1.037037e+00	 9.748777e+00
0	 9.629630e+00	 1.111111e+00	 9.751812e+00
0	 9.259259e+00	 1.111111e+00	 9.814060e+00
0	 9.259259e+00	 1.185185e+00	 9.816625e+00
0	 9.259259e+00	 1.259259e+00	 9.819313e+00
0	 9.259259e+00	 1.333333e+00	 9.822125e+00
0	 9.259259e+00	 1.407407e+00	 9.825063e+00
0	 9.259259e+00	 1.481481e+00	 9.828130e+00
0	 9.333333e+00	 1.111111e+00	 9.802189e+00
0	 9.333333e+00	 1.185185e+00	 9.804861e+00
0	 9.333333e+00	 1.259259e+00	 9.807662e+00
0	 9.333333e+00	 1.333333e+00	 9.810593e+00
0	 9.333333e+00	 1.407407e+00	 9.813656e+00
0	 9.333333e+00	 1.481481e+00	 9.816853e+00
0	 9.407407e+00	 1.111111e+00	 9.790052e+00
0	 9.407407e+00	 1.185185e+00	 9.792842e+00
0	 9.407407e+00	 1.259259e+00	 9.795766e+00
0	 9.407407e+00	 1.333333e+00	 9.798826e+00
0	 9.407407e+00	 1.407407e+00	 9.802024e+00
0	 9.407407e+00	 1.481481e+00	 9.805363e+00
0	 9.481481e+00	 1.111111e+00	 9.777627e+00
0	 9.481481e+00	 1.185185e+00	 9.780544e+00
0	 9.481481e+00	 1.259259e+00	 9.783602e+00
0	 9.481481e+00	 1.333333e+00	 9.786803e+00
0	 9.481481e+00	 1.407407e+00	 9.790149e+00
0	 9.481481e+00	 1.481481e+00	 9.793641e+00
0	 9.555556e+00	 1.111111e+00	 9.764888e+00
0	 9.555556e+00	 1.185185e+00	 9.767944e+00
0	 9.555556e+00	 1.259259e+00	 9.771148e+00
0	 9.555556e+00	 1.333333e+00	 9.774502e+00
0	 9.555556e+00	 1.407407e+00	 9.778008e+00
0	 9.555556e+00	 1.481481e+00	 9.781667e+00
0	 9.629630e+00	 1.111111e+00	 9.751812e+00
0	 9.629630e+00	 1.185185e+00	 9.755019e+00
0	 9.629630e+00	 1.259259e+00	 9.758382e+00
0	 9.629630e+00	 1.333333e+00	 9.761903e+00
0	 9.629630e+00	 1.407407e+00	 9.765583e+00
0	 9.629630e+00	 1.481481e+00	 9.769423e+00
0	 9.259259e+00	 1.481481e+00	 9.828130e+00
0	 9.259259e+00	 1.555556e+00	 9.831306e+00
0	 9.259259e+00	 1.629630e+00	 9.834574e+00
0	 9.259259e+00	 1.703704e+00	 9.837935e+00
0	 9.259259e+00	 1.777778e+00	 9.841391e+00
0	 9.259259e+00	 1.851852e+00	 9.844945e+00
0	 9.333333e+00	 1.481481e+00	 9.816853e+00
0	 9.333333e+00	 1.555556e+00	 9.820164e+00
0	 9.333333e+00	 1.629630e+00	 9.823572e+00
0	 9.333333e+00	 1.703704e+00	 9.827078e+00
0	 9.333333e+00	 1.777778e+00	 9.830683e+00
0	 9.333333e+00	 1.851852e+00	 9.834391e+00
0	 9.407407e+00	 1.481481e+00	 9.805363e+00
0	 9.407407e+00	 1.555556e+00	 9.808821e+00
0	 9.407407e+00	 1.629630e+00	 9.812381e+00
0	 9.407407e+00	 1.703704e+00	 9.816043e+00
0	 9.407407e+00	 1.777778e+00	 9.819810e+00
0	 9.407407e+00	 1.851852e+00	 9.823684e+00
0	 9.481481e+00	 1.481481e+00	 9.793641e+00
0	 9.481481e+00	 1.555556e+00	 9.797259e+00
0	 9.481481e+00	 1.629630e+00	 9.800983e+00
0	 9.481481e+00	 1.703704e+00	 9.804815e+00
0	 9.481481e+00	 1.777778e+00	 9.808757e+00
0	 9.481481e+00	 1.851852e+00	 9.812811e+00
0	 9.555556e+00	 1.481481e+00	 9.781667e+00
0	 9.555556e+00	 1.555556e+00	 9.785458e+00
0	 9.555556e+00	 1.629630e+00	 9.789361e+00
0	 9.555556e+00	 1.703704e+00	 9.793377e+00
0	 9.555556e+00	 1.777778e+00	 9.797509e+00
0	 9.555556e+00	 1.851852e+00	 9.801757e+00
0	 9.629630e+00	 1.481481e+00	 9.769423e+00
0	 9.629630e+00	 1.555556e+00	 9.773402e+00
0	 9.629630e+00	 1.629630e+00	 9.777499e+00
0	 9.629630e+00	 1.703704e+00	 9.781714e+00
0	 9.629630e+00	 1.777778e+00	 9.786050e+00
0	 9.629630e+00	 1.851852e+00	 9.790510e+00
0	 9.259259e+00	 1.851852e+00	 9.844945e+00
0	 9.259259e+00	 1.925926e+00	 9.848576e+00
0	 9.259259e+00	 2.000000e+00	 9.852265e+00
0	 9.259259e+00	 2.074074e+00	 9.856012e+00
0	 9.259259e+00	 2.148148e+00	 9.859821e+00
0	 9.259259e+00	 2.222222e+00	 9.863694e+00
0	 9.333333e+00	 1.851852e+00	 9.834391e+00
0	 9.333333e+00	 1.925926e+00	 9.838180e+00
0	 9.333333e+00	 2.000000e+00	 9.842030e+00
0	 9.333333e+00	 2.074074e+00	 9.845942e+00
0	 9.333333e+00	 2.148148e+00	 9.849919e+00
0	 9.333333e+00	 2.222222e+00	 9.853964e+00
0	 9.407407e+00	 1.851852e+00	 9.823684e+00
0	 9.407407e+00	 1.925926e+00	 9.827644e+00
0	 9.407407e+00	 2.000000e+00	 9.831667e+00
0	 9.407407e+00	 2.074074e+00	 9.835757e+00
0	 9.407407e+00	 2.148148e+00	 9.839916e+00
0	 9.407407e+00	 2.222222e+00	 9.844145e+00
0	 9.481481e+00	 1.851852e+00	 9.812811e+00
0	 9.481481e+00	 1.925926e+00	 9.816955e+00
0	 9.481481e+00	 2.000000e+00	 9.821166e+00
0	 9.481481e+00	 2.074074e+00	 9.825448e+00
0	 9.481481e+00	 2.148148e+00	 9.829801e+00
0	 9.481481e+00	 2.222222e+00	 9.834229e+00
0	 9.555556e+00	 1.851852e+00	 9.801757e+00
0	 9.555556e+00	 1.925926e+00	 9.806101e+00
0	 9.555556e+00	 2.000000e+00	 9.810515e+00
0	 9.555556e+00	 2.074074e+00	 9.815003e+00
0	 9.555556e+00	 2.148148e+00	 9.819567e+00
0	 9.555556e+00	 2.222222e+00	 9.824208e+00
0	 9.629630e+00	 1.851852e+00	 9.790510e+00
0	 9.629630e+00	 1.925926e+00	 9.795069e+00
0	 9.629630e+00	 2.000000e+00	 9.799702e+00
0	 9.629630e+00	 2.074074e+00	 9.804413e+00
0	 9.629630e+00	 2.148148e+00	 9.809203e+00
0	 9.629630e+00	 2.222222e+00	 9.814075e+00
0	 9.259259e+00	 2.222222e+00	 9.863694e+00
0	 9.259259e+00	 2.296296e+00	 9.867610e+00
0	 9.259259e+00	 2.370370e+00	 9.871549e+00
0	 9.259259e+00	 2.444444e+00	 9.875512e+00
0	 9.259259e+00	 2.518519e+00	 9.879503e+00
0	 9.259259e+00	 2.592593e+00	 9.883522e+00
0	 9.333333e+00	 2.222222e+00	 9.853964e+00
0	 9.333333e+00	 2.296296e+00	 9.858054e+00
0	 9.333333e+00	 2.370370e+00	 9.862170e+00
0	 9.333333e+00	 2.444444e+00	 9.866312e+00
0	 9.333333e+00	 2.518519e+00	 9.870483e+00
0	 9.333333e+00	 2.592593e+00	 9.874686e+00
0	 9.407407e+00	 2.222222e+00	 9.844145e+00
0	 9.407407e+00	 2.296296e+00	 9.848422e+00
0	 9.407407e+00	 2.370370e+00	 9.852727e+00
0	 9.407407e+00	 2.444444e+00	 9.857061e+00
0	 9.407407e+00	 2.518519e+00	 9.861426e+00
0	 9.407407e+00	 2.592593e+00	 9.865824e+00
0	 9.481481e+00	 2.222222e+00	 9.834229e+00
0	 9.481481e+00	 2.296296e+00	 9.838708e+00
0	 9.481481e+00	 2.370370e+00	 9.843216e+00
0	 9.481481e+00	 2.444444e+00	 9.847755e+00
0	 9.481481e+00	 2.518519e+00	 9.852327e+00
0	 9.481481e+00	 2.592593e+00	 9.856934e+00
0	 9.555556e+00	 2.222222e+00	 9.824208e+00
0	 9.555556e+00	 2.296296e+00	 9.828904e+00
0	 9.555556e+00	 2.370370e+00	 9.833630e+00
0	 9.555556e+00	 2.444444e+00	 9.838389e+00
0	 9.555556e+00	 2.518519e+00	 9.843183e+00
0	 9.555556e+00	 2.592593e+00	 9.848014e+00
0	 9.629630e+00	 2.222222e+00	 9.814075e+00
0	 9.629630e+00	 2.296296e+00	 9.819003e+00
0	 9.629630e+00	 2.370370e+00	 9.823964e+00
0	 9.629630e+00	 2.444444e+00	 9.828960e+00
0	 9.629630e+00	 2.518519e+00	 9.833992e+00
0	 9.629630e+00	 2.592593e+00	 9.839062e+00
0	 9.259259e+00	 2.592593e+00	 9.883522e+00
0	 9.259259e+00	 2.666667e+00	 9.887551e+00
0	 9.259259e+00	 2.740741e+00	 9.891570e+00
0	 9.259259e+00	 2.814815e+00	 9.895582e+00
0	 9.259259e+00	 2.888889e+00	 9.899587e+00
0	 9.259259e+00	 2.962963e+00	 9.903589e+00
0	 9.333333e+00	 2.592593e+00	 9.874686e+00
0	 9.333333e+00	 2.666667e+00	 9.878899e+00
0	 9.333333e+00	 2.740741e+00	 9.883104e+00
0	 9.333333e+00	 2.814815e+00	 9.887302e+00
0	 9.333333e+00	 2.888889e+00	 9.891495e+00
0	 9.333333e+00	 2.962963e+00	 9.895684e+00
0	 9.407407e+00	 2.592593e+00	 9.865824e+00
0	 9.407407e+00	 2.666667e+00	 9.870234e+00
0	 9.407407e+00	 2.740741e+00	 9.874637e+00
0	 9.407407e+00	 2.814815e+00	 9.879032e+00
0	 9.407407e+00	 2.888889e+00	 9.883424e+00
0	 9.407407e+00	 2.962963e+00	 9.887812e+00
0	 9.481481e+00	 2.592593e+00	 9.856934e+00
0	 9.481481e+00	 2.666667e+00	 9.861555e+00
0	 9.481481e+00	 2.740741e+00	 9.866168e+00
0	 9.481481e+00	 2.814815e+00	 9.870774e+00
0	 9.481481e+00	 2.888889e+00	 9.875377e+00
0	 9.481481e+00	 2.962963e+00	 9.879977e+00
0	 9.555556e+00	 2.592593e+00	 9.848014e+00
0	 9.555556e+00	 2.666667e+00	 9.852860e+00
0	 9.555556e+00	 2.740741e+00	 9.857697e+00
0	 9.555556e+00	 2.814815e+00	 9.862529e+00
0	 9.555556e+00	 2.888889e+00	 9.867357e+00
0	 9.555556e+00	 2.962963e+00	 9.872182e+00
0	 9.629630e+00	 2.592593e+00	 9.839062e+00
0	 9.629630e+00	 2.666667e+00	 9.844148e+00
0	 9.629630e+00	 2.740741e+00	 9.849226e+00
0	 9.629630e+00	 2.814815e+00	 9.854297e+00
0	 9.629630e+00	 2.888889e+00	 9.859365e+00
0	 9.629630e+00	 2.962963e+00	 9.864429e+00
0	 9.259259e+00	 2.962963e+00	 9.903589e+00
0	 9.259259e+00	 3.037037e+00	 9.907569e+00
0	 9.259259e+00	 3.111111e+00	 9.911510e+00
0	 9.259259e+00	 3.185185e+00	 9.915415e+00
0	 9.259259e+00	 3.259259e+00	 9.919284e+00
0	 9.259259e+00	 3.333333e+00	 9.923119e+00
0	 9.333333e+00	 2.962963e+00	 9.895684e+00
0	 9.333333e+00	 3.037037e+00	 9.899852e+00
0	 9.333333e+00	 3.111111e+00	 9.903982e+00
0	 9.333333e+00	 3.185185e+00	 9.908073e+00
0	 9.333333e+00	 3.259259e+00	 9.912129e+00
0	 9.333333e+00	 3.333333e+00	 9.916151e+00
0	 9.407407e+00	 2.962963e+00	 9.887812e+00
0	 9.407407e+00	 3.037037e+00	 9.892180e+00
0	 9.407407e+00	 3.111111e+00	 9.896508e+00
0	 9.407407e+00	 3.185185e+00	 9.900797e+00
0	 9.407407e+00	 3.259259e+00	 9.905050e+00
0	 9.407407e+00	 3.333333e+00	 9.909268e+00
0	 9.481481e+00	 2.962963e+00	 9.879977e+00
0	 9.481481e+00	 3.037037e+00	 9.884556e+00
0	 9.481481e+00	 3.111111e+00	 9.889094e+00
0	 9.481481e+00	 3.185185e+00	 9.893593e+00
0	 9.481481e+00	 3.259259e+00	 9.898053e+00
0	 9.481481e+00	 3.333333e+00	 9.902478e+00
0	 9.555556e+00	 2.962963e+00	 9.872182e+00
0	 9.555556e+00	 3.037037e+00	 9.876985e+00
0	 9.555556e+00	 3.111111e+00	 9.881745e+00
0	 9.555556e+00	 3.185185e+00	 9.886465e+00
0	 9.555556e+00	 3.259259e+00	 9.891146e+00
0	 9.555556e+00	 3.333333e+00	 9.895788e+00
0	 9.629630e+00	 2.962963e+00	 9.864429e+00
0	 9.629630e+00	 3.037037e+00	 9.869471e+00
0	 9.629630e+00	 3.111111e+00	 9.874467e+00
0	 9.629630e+00	 3.185185e+00	 9.879421e+00
0	 9.629630e+00	 3.259259e+00	 9.884334e+00
0	 9.629630e+00	 3.333333e+00	 9.889207e+00
0	 9.259259e+00	 3.333333e+00	 9.923119e+00
0	 9.259259e+00	 3.407407e+00	 9.926906e+00
0	 9.259259e+00	 3.481481e+00	 9.930630e+00
0	 9.259259e+00	 3.555556e+00	 9.934294e+00
0	 9.259259e+00	 3.629630e+00	 9.937897e+00
0	 9.259259e+00	 3.703704e+00	 9.941442e+00
0	 9.333333e+00	 3.333333e+00	 9.916151e+00
0	 9.333333e+00	 3.407407e+00	 9.920124e+00
0	 9.333333e+00	 3.481481e+00	 9.924033e+00
0	 9.333333e+00	 3.555556e+00	 9.927879e+00
0	 9.333333e+00	 3.629630e+00	 9.931663e+00
0	 9.333333e+00	 3.703704e+00	 9.935387e+00
0	 9.407407e+00	 3.333333e+00	 9.909268e+00
0	 9.407407e+00	 3.407407e+00	 9.913436e+00
0	 9.407407e+00	 3.481481e+00	 9.917537e+00
0	 9.407407e+00	 3.555556e+00	 9.921574e+00
0	 9.407407e+00	 3.629630e+00	 9.925548e+00
0	 9.407407e+00	 3.703704e+00	 9.929459e+00
0	 9.481481e+00	 3.333333e+00	 9.902478e+00
0	 9.481481e+00	 3.407407e+00	 9.906851e+00
0	 9.481481e+00	 3.481481e+00	 9.911155e+00
0	 9.481481e+00	 3.555556e+00	 9.915392e+00
0	 9.481481e+00	 3.629630e+00	 9.919563e+00
0	 9.481481e+00	 3.703704e+00	 9.923669e+00
0	 9.555556e+00	 3.333333e+00	 9.895788e+00
0	 9.555556e+00	 3.407407e+00	 9.900377e+00
0	 9.555556e+00	 3.481481e+00	 9.904894e+00
0	 9.555556e+00	 3.555556e+00	 9.909341e+00
0	 9.555556e+00	 3.629630e+00	 9.913719e+00
0	 9.555556e+00	 3.703704e+00	 9.918030e+00
0	 9.629630e+00	 3.333333e+00	 9.889207e+00
0	 9.629630e+00	 3.407407e+00	 9.894023e+00
0	 9.629630e+00	 3.481481e+00	 9.898765e+00
0	 9.629630e+00	 3.555556e+00	 9.903432e+00
0	 9.629630e+00	 3.629630e+00	 9.908028e+00
0	 9.629630e+00	 3.703704e+00	 9.912552e+00
0	 9.259259e+00	 3.703704e+00	 9.941442e+00
0	 9.259259e+00	 3.777778e+00	 9.944916e+00
0	 9.259259e+00	 3.851852e+00	 9.948311e+00
0	 9.259259e+00	 3.925926e+00	 9.951625e+00
0	 9.259259e+00	 4.000000e+00	 9.954861e+00
0	 9.259259e+00	 4.074074e+00	 9.958019e+00
0	 9.333333e+00	 3.703704e+00	 9.935387e+00
0	 9.333333e+00	 3.777778e+00	 9.939039e+00
0	 9.333333e+00	 3.851852e+00	 9.942609e+00
0	 9.333333e+00	 3.925926e+00	 9.946096e+00
0	 9.333333e+00	 4.000000e+00	 9.949501e+00
0	 9.333333e+00	 4.074074e+00	 9.952827e+00
0	 9.407407e+00	 3.703704e+00	 9.929459e+00
0	 9.407407e+00	 3.777778e+00	 9.933296e+00
0	 9.407407e+00	 3.851852e+00	 9.937047e+00
0	 9.407407e+00	 3.925926e+00	 9.940713e+00
0	 9.407407e+00	 4.000000e+00	 9.944294e+00
0	 9.407407e+00	 4.074074e+00	 9.947792e+00
0	 9.481481e+00	 3.703704e+00	 9.923669e+00
0	 9.481481e+00	 3.777778e+00	 9.927699e+00
0	 9.481481e+00	 3.851852e+00	 9.931639e+00
0	 9.481481e+00	 3.925926e+00	 9.935490e+00
0	 9.481481e+00	 4.000000e+00	 9.939254e+00
0	 9.481481e+00	 4.074074e+00	 9.942931e+00
0	 9.555556e+00	 3.703704e+00	 9.918030e+00
0	 9.555556e+00	 3.777778e+00	 9.922260e+00
0	 9.555556e+00	 3.851852e+00	 9.926397e+00
0	 9.555556e+00	 3.925926e+00	 9.930441e+00
0	 9.555556e+00	 4.000000e+00	 9.934394e+00
0	 9.555556e+00	 4.074074e+00	 9.938256e+00
0	 9.629630e+00	 3.703704e+00	 9.912552e+00
0	 9.629630e+00	 3.777778e+00	 9.916993e+00
0	 9.629630e+00	 3.851852e+00	 9.921335e+00
0	 9.629630e+00	 3.925926e+00	 9.925580e+00
0	 9.629630e+00	 4.000000e+00	 9.929729e+00
0	 9.629630e+00	 4.074074e+00	 9.933782e+00
0	 9.259259e+00	 4.074074e+00	 9.958019e+00
0	 9.259259e+00	 4.148148e+00	 9.961091e+00
0	 9.259259e+00	 4.222222e+00	 9.964071e+00
0	 9.259259e+00	 4.296296e+00	 9.966959e+00
0	 9.259259e+00	 4.370370e+00	 9.969754e+00
0	 9.259259e+00	 4.444444e+00	 9.972459e+00
0	 9.333333e+00	 4.074074e+00	 9.952827e+00
0	 9.333333e+00	 4.148148e+00	 9.956064e+00
0	 9.333333e+00	 4.222222e+00	 9.959205e+00
0	 9.333333e+00	 4.296296e+00	 9.962251e+00
0	 9.333333e+00	 4.370370e+00	 9.965202e+00
0	 9.333333e+00	 4.444444e+00	 9.968059e+00
0	 9.407407e+00	 4.074074e+00	 9.947792e+00
0	 9.407407e+00	 4.148148e+00	 9.951199e+00
0	 9.407407e+00	 4.222222e+00	 9.954506e+00
0	 9.407407e+00	 4.296296e+00	 9.957715e+00
0	 9.407407e+00	 4.370370e+00	 9.960824e+00
0	 9.407407e+00	 4.444444e+00	 9.963836e+00
0	 9.481481e+00	 4.074074e+00	 9.942931e+00
0	 9.481481e+00	 4.148148e+00	 9.946512e+00
0	 9.481481e+00	 4.222222e+00	 9.949990e+00
0	 9.481481e+00	 4.296296e+00	 9.953365e+00
0	 9.481481e+00	 4.370370e+00	 9.956637e+00
0	 9.481481e+00	 4.444444e+00	 9.959807e+00
0	 9.555556e+00	 4.074074e+00	 9.938256e+00
0	 9.555556e+00	 4.148148e+00	 9.942018e+00
0	 9.555556e+00	 4.222222e+00	 9.945672e+00
0	 9.555556e+00	 4.296296e+00	 9.949218e+00
0	 9.555556e+00	 4.370370e+00	 9.952657e+00
0	 9.555556e+00	 4.444444e+00	 9.955988e+00
0	 9.629630e+00	 4.074074e+00	 9.933782e+00
0	 9.629630e+00	 4.148148e+00	 9.937731e+00
0	 9.629630e+00	 4.222222e+00	 9.941566e+00
0	 9.629630e+00	 4.296296e+00	 9.945289e+00
0	 9.629630e+00	 4.370370e+00	 9.948898e+00
0	 9.629630e+00	 4.444444e+00	 9.952395e+00
0	 9.259259e+00	 4.444444e+00	 9.972459e+00
0	 9.259259e+00	 4.518519e+00	 9.975069e+00
0	 9.259259e+00	 4.592593e+00	 9.977580e+00
0	 9.259259e+00	 4.666667e+00	 9.979993e+00
0	 9.259259e+00	 4.740741e+00	 9.982308e+00
0	 9.259259e+00	 4.814815e+00	 9.984524e+00
0	 9.333333e+00	 4.444444e+00	 9.968059e+00
0	 9.333333e+00	 4.518519e+00	 9.970817e+00
0	 9.333333e+00	 4.592593e+00	 9.973473e+00
0	 9.333333e+00	 4.666667e+00	 9.976027e+00
0	 9.333333e+00	 4.740741e+00	 9.978479e+00
0	 9.333333e+00	 4.814815e+00	 9.980829e+00
0	 9.407407e+00	 4.444444e+00	 9.963836e+00
0	 9.407407e+00	 4.518519e+00	 9.966746e+00
0	 9.407407e+00	 4.592593e+00	 9.969549e+00
0	 9.407407e+00	 4.666667e+00	 9.972246e+00
0	 9.407407e+00	 4.740741e+00	 9.974837e+00
0	 9.407407e+00	 4.814815e+00	 9.977321e+00
0	 9.481481e+00	 4.444444e+00	 9.959807e+00
0	 9.481481e+00	 4.518519e+00	 9.962871e+00
0	 9.481481e+00	 4.592593e+00	 9.965823e+00
0	 9.481481e+00	 4.666667e+00	 9.968665e+00
0	 9.481481e+00	 4.740741e+00	 9.971396e+00
0	 9.481481e+00	 4.814815e+00	 9.974016e+00
0	 9.555556e+00	 4.444444e+00	 9.955988e+00
0	 9.555556e+00	 4.518519e+00	 9.959209e+00
0	 9.555556e+00	 4.592593e+00	 9.962313e+00
0	 9.555556e+00	 4.666667e+00	 9.965302e+00
0	 9.555556e+00	 4.740741e+00	 9.968174e+00
0	 9.555556e+00	 4.814815e+00	 9.970931e+00
0	 9.629630e+00	 4.444444e+00	 9.952395e+00
0	 9.629630e+00	 4.518519e+00	 9.955776e+00
0	 9.629630e+00	 4.592593e+00	 9.959035e+00
0	 9.629630e+00	 4.666667e+00	 9.962172e+00
0	 9.629630e+00	 4.740741e+00	 9.965188e+00
0	 9.629630e+00	 4.814815e+00	 9.968082e+00
0	 9.259259e+00	 4.814815e+00	 9.984524e+00
0	 9.259259e+00	 4.888889e+00	 9.986641e+00
0	 9.259259e+00	 4.962963e+00	 9.988660e+00
0	 9.259259e+00	 5.037037e+00	 9.990580e+00
0	 9.259259e+00	 5.111111e+00	 9.992400e+00
0	 9.259259e+00	 5.185185e+00	 9.994120e+00
0	 9.333333e+00	 4.814815e+00	 9.980829e+00
0	 9.333333e+00	 4.888889e+00	 9.983077e+00
0	 9.333333e+00	 4.962963e+00	 9.985222e+00
0	 9.333333e+00	 5.037037e+00	 9.987264e+00
0	 9.333333e+00	 5.111111e+00	 9.989202e+00
0	 9.333333e+00	 5.185185e+00	 9.991037e+00
0	 9.407407e+00	 4.814815e+00	 9.977321e+00
0	 9.407407e+00	 4.888889e+00	 9.979699e+00
0	 9.407407e+00	 4.962963e+00	 9.981971e+00
0	 9.407407e+00	 5.037037e+00	 9.984134e+00
0	 9.407407e+00	 5.111111e+00	 9.986191e+00
0	 9.407407e+00	 5.185185e+00	 9.988139e+00
0	 9.481481e+00	 4.814815e+00	 9.974016e+00
0	 9.481481e+00	 4.888889e+00	 9.976526e+00
0	 9.481481e+00	 4.962963e+00	 9.978923e+00
0	 9.481481e+00	 5.037037e+00	 9.981208e+00
0	 9.481481e+00	 5.111111e+00	 9.983382e+00
0	 9.481481e+00	 5.185185e+00	 9.985442e+00
0	 9.555556e+00	 4.814815e+00	 9.970931e+00
0	 9.555556e+00	 4.888889e+00	 9.973572e+00
0	 9.555556e+00	 4.962963e+00	 9.976096e+00
0	 9.555556e+00	 5.037037e+00	 9.978502e+00
0	 9.555556e+00	 5.111111e+00	 9.980791e+00
0	 9.555556e+00	 5.185185e+00	 9.982963e+00
0	 9.629630e+00	 4.814815e+00	 9.968082e+00
0	 9.629630e+00	 4.888889e+00	 9.970855e+00
0	 9.629630e+00	 4.962963e+00	 9.973505e+00
0	 9.629630e+00	 5.037037e+00	 9.976032e+00
0	 9.629630e+00	 5.111111e+00	 9.978436e+00
0	 9.629630e+00	 5.185185e+00	 9.980717e+00
0	 9.259259e+00	 5.185185e+00	 9.994120e+00
0	 9.259259e+00	 5.259259e+00	 9.995743e+00
0	 9.259259e+00	 5.333333e+00	 9.997272e+00
0	 9.259259e+00	 5.407407e+00	 9.998706e+00
0	 9.259259e+00	 5.481481e+00	 1.000004e+01
0	 9.259259e+00	 5.555556e+00	 1.000129e+01
0	 9.333333e+00	 5.185185e+00	 9.991037e+00
0	 9.333333e+00	 5.259259e+00	 9.992771e+00
0	 9.333333e+00	 5.333333e+00	 9.994407e+00
0	 9.333333e+00	 5.407407e+00	 9.995944e+00
0	 9.333333e+00	 5.481481e+00	 9.997382e+00
0	 9.333333e+00	 5.555556e+00	 9.998720e+00
0	 9.407407e+00	 5.185185e+00	 9.988139e+00
0	 9.407407e+00	 5.259259e+00	 9.989982e+00
0	 9.407407e+00	 5.333333e+00	 9.991724e+00
0	 9.407407e+00	 5.407407e+00	 9.993362e+00
0	 9.407407e+00	 5.481481e+00	 9.994896e+00
0	 9.407407e+00	 5.555556e+00	 9.996327e+00
0	 9.481481e+00	 5.185185e+00	 9.985442e+00
0	 9.481481e+00	 5.259259e+00	 9.987393e+00
0	 9.481481e+00	 5.333333e+00	 9.989238e+00
0	 9.481481e+00	 5.407407e+00	 9.990974e+00
0	 9.481481e+00	 5.481481e+00	 9.992603e+00
0	 9.481481e+00	 5.555556e+00	 9.994124e+00
0	 9.555556e+00	 5.185185e+00	 9.982963e+00
0	 9.555556e+00	 5.259259e+00	 9.985020e+00
0	 9.555556e+00	 5.333333e+00	 9.986965e+00
0	 9.555556e+00	 5.407407e+00	 9.988798e+00
0	 9.555556e+00	 5.481481e+00	 9.990518e+00
0	 9.555556e+00	 5.555556e+00	 9.992124e+00
0	 9.629630e+00	 5.185185e+00	 9.980717e+00
0	 9.629630e+00	 5.259259e+00	 9.982877e+00
0	 9.629630e+00	 5.333333e+00	 9.984921e+00
0	 9.629630e+00	 5.407407e+00	 9.986847e+00
0	 9.629630e+00	 5.481481e+00	 9.988654e+00
0	 9.629630e+00	 5.555556e+00	 9.990344e+00
0	 9.259259e+00	 5.555556e+00	 1.000129e+01
0	 9.259259e+00	 5.629630e+00	 1.000244e+01
0	 9.259259e+00	 5.703704e+00	 1.000351e+01
0	 9.259259e+00	 5.777778e+00	 1.000449e+01
0	 9.259259e+00	 5.851852e+00	 1.000538e+01
0	 9.259259e+00	 5.925926e+00	 1.000618e+01
0	 9.333333e+00	 5.555556e+00	 9.998720e+00
0	 9.333333e+00	 5.629630e+00	 9.999964e+00
0	 9.333333e+00	 5.703704e+00	 1.000112e+01
0	 9.333333e+00	 5.777778e+00	 1.000218e+01
0	 9.333333e+00	 5.851852e+00	 1.000316e+01
0	 9.333333e+00	 5.925926e+00	 1.000404e+01
0	 9.407407e+00	 5.555556e+00	 9.996327e+00
0	 9.407407e+00	 5.629630e+00	 9.997660e+00
0	 9.407407e+00	 5.703704e+00	 9.998899e+00
0	 9.407407e+00	 5.777778e+00	 1.000004e+01
0	 9.407407e+00	 5.851852e+00	 1.000110e+01
0	 9.407407e+00	 5.925926e+00	 1.000205e+01
0	 9.481481e+00	 5.555556e+00	 9.994124e+00
0	 9.481481e+00	 5.629630e+00	 9.995542e+00
0	 9.481481e+00	 5.703704e+00	 9.996862e+00
0	 9.481481e+00	 5.777778e+00	 9.998085e+00
0	 9.481481e+00	 5.851852e+00	 9.999209e+00
0	 9.481481e+00	 5.925926e+00	 1.000023e+01
0	 9.555556e+00	 5.555556e+00	 9.992124e+00
0	 9.555556e+00	 5.629630e+00	 9.993624e+00
0	 9.555556e+00	 5.703704e+00	 9.995021e+00
0	 9.555556e+00	 5.777778e+00	 9.996317e+00
0	 9.555556e+00	 5.851852e+00	 9.997509e+00
0	 9.555556e+00	 5.925926e+00	 9.998598e+00
0	 9.629630e+00	 5.555556e+00	 9.990344e+00
0	 9.629630e+00	 5.629630e+00	 9.991920e+00
0	 9.629630e+00	 5.703704e+00	 9.993391e+00
0	 9.629630e+00	 5.777778e+00	 9.994754e+00
0	 9.629630e+00	 5.851852e+00	 9.996010e+00
0	 9.629630e+00	 5.925926e+00	 9.997157e+00
0	 9.259259e+00	 5.925926e+00	 1.000618e+01
0	 9.259259e+00	 6.000000e+00	 1.000691e+01
0	 9.259259e+00	 6.074074e+00	 1.000756e+01
0	 9.259259e+00	 6.148148e+00	 1.000813e+01
0	 9.259259e+00	 6.222222e+00	 1.000863e+01
0	 9.259259e+00	 6.296296e+00	 1.000905e+01
0	 9.333333e+00	 5.925926e+00	 1.000404e+01
0	 9.333333e+00	 6.000000e+00	 1.000484e+01
0	 9.333333e+00	 6.074074e+00	 1.000556e+01
0	 9.333333e+00	 6.148148e+00	 1.000620e+01
0	 9.333333e+00	 6.222222e+00	 1.000677e+01
0	 9.333333e+00	 6.296296e+00	 1.000725e+01
0	 9.407407e+00	 5.925926e+00	 1.000205e+01
0	 9.407407e+00	 6.000000e+00	 1.000292e+01
0	 9.407407e+00	 6.074074e+00	 1.000371e+01
0	 9.407407e+00	 6.148148e+00	 1.000442e+01
0	 9.407407e+00	 6.222222e+00	 1.000504e+01
0	 9.407407e+00	 6.296296e+00	 1.000558e+01
0	 9.481481e+00	 5.925926e+00	 1.000023e+01
0	 9.481481e+00	 6.000000e+00	 1.000117e+01
0	 9.481481e+00	 6.074074e+00	 1.000202e+01
0	 9.481481e+00	 6.148148e+00	 1.000278e+01
0	 9.481481e+00	 6.222222e+00	 1.000346e+01
0	 9.481481e+00	 6.296296e+00	 1.000406e+01
0	 9.555556e+00	 5.925926e+00	 9.998598e+00
0	 9.555556e+00	 6.000000e+00	 9.999592e+00
0	 9.555556e+00	 6.074074e+00	 1.000050e+01
0	 9.555556e+00	 6.148148e+00	 1.000132e+01
0	 9.555556e+00	 6.222222e+00	 1.000204e+01
0	 9.555556e+00	 6.296296e+00	 1.000268e+01
0	 9.629630e+00	 5.925926e+00	 9.997157e+00
0	 9.629630e+00	 6.000000e+00	 9.998205e+00
0	 9.629630e+00	 6.074074e+00	 9.999161e+00
0	 9.629630e+00	 6.148148e+00	 1.000002e+01
0	 9.629630e+00	 6.222222e+00	 1.000080e+01
0	 9.629630e+00	 6.296296e+00	 1.000147e+01
0	 9.259259e+00	 6.296296e+00	 1.000905e+01
0	 9.259259e+00	 6.370370e+00	 1.000941e+01
0	 9.259259e+00	 6.444444e+00	 1.000970e+01
0	 9.259259e+00	 6.518519e+00	 1.000994e+01
0	 9.259259e+00	 6.592593e+00	 1.001011e+01
0	 9.259259e+00	 6.666667e+00	 1.001022e+01
0	 9.333333e+00	 6.296296e+00	 1.000725e+01
0	 9.333333e+00	 6.370370e+00	 1.000767e+01
0	 9.333333e+00	 6.444444e+00	 1.000802e+01
0	 9.333333e+00	 6.518519e+00	 1.000831e+01
0	 9.333333e+00	 6.592593e+00	 1.000853e+01
0	 9.333333e+00	 6.666667e+00	 1.000869e+01
0	 9.407407e+00	 6.296296e+00	 1.000558e+01
0	 9.407407e+00	 6.370370e+00	 1.000605e+01
0	 9.407407e+00	 6.444444e+00	 1.000645e+01
0	 9.407407e+00	 6.518519e+00	 1.000679e+01
0	 9.407407e+00	 6.592593e+00	 1.000706e+01
0	 9.407407e+00	 6.666667e+00	 1.000727e+01
0	 9.481481e+00	 6.296296e+00	 1.000406e+01
0	 9.481481e+00	 6.370370e+00	 1.000457e+01
0	 9.481481e+00	 6.444444e+00	 1.000502e+01
0	 9.481481e+00	 6.518519e+00	 1.000540e+01
0	 9.481481e+00	 6.592593e+00	 1.000572e+01
0	 9.481481e+00	 6.666667e+00	 1.000596e+01
0	 9.555556e+00	 6.296296e+00	 1.000268e+01
0	 9.555556e+00	 6.370370e+00	 1.000324e+01
0	 9.555556e+00	 6.444444e+00	 1.000373e+01
0	 9.555556e+00	 6.518519e+00	 1.000415e+01
0	 9.555556e+00	 6.592593e+00	 1.000449e+01
0	 9.555556e+00	 6.666667e+00	 1.000477e+01
0	 9.629630e+00	 6.296296e+00	 1.000147e+01
0	 9.629630e+00	 6.370370e+00	 1.000207e+01
0	 9.629630e+00	 6.444444e+00	 1.000259e+01
0	 9.629630e+00	 6.518519e+00	 1.000304e+01
0	 9.629630e+00	 6.592593e+00	 1.000341e+01
0	 9.629630e+00	 6.666667e+00	 1.000370e+01
0	 9.259259e+00	 6.666667e+00	 1.001022e+01
0	 9.259259e+00	 6.740741e+00	 1.001028e+01
0	 9.259259e+00	 6.814815e+00	 1.001029e+01
0	 9.259259e+00	 6.888889e+00	 1.001026e+01
0	 9.259259e+00	 6.962963e+00	 1.001017e+01
0	 9.259259e+00	 7.037037e+00	 1.001005e+01
0	 9.333333e+00	 6.666667e+00	 1.000869e+01
0	 9.333333e+00	 6.740741e+00	 1.000880e+01
0	 9.333333e+00	 6.814815e+00	 1.000885e+01
0	 9.333333e+00	 6.888889e+00	 1.000886e+01
0	 9.333333e+00	 6.962963e+00	 1.000883e+01
0	 9.333333e+00	 7.037037e+00	 1.000874e+01
0	 9.407407e+00	 6.666667e+00	 1.000727e+01
0	 9.407407e+00	 6.740741e+00	 1.000741e+01
0	 9.407407e+00	 6.814815e+00	 1.000751e+01
0	 9.407407e+00	 6.888889e+00	 1.000756e+01
0	 9.407407e+00	 6.962963e+00	 1.000756e+01
0	 9.407407e+00	 7.037037e+00	 1.000751e+01
0	 9.481481e+00	 6.666667e+00	 1.000596e+01
0	 9.481481e+00	 6.740741e+00	 1.000614e+01
0	 9.481481e+00	 6.814815e+00	 1.000627e+01
0	 9.481481e+00	 6.888889e+00	 1.000635e+01
0	 9.481481e+00	 6.962963e+00	 1.000638e+01
0	 9.481481e+00	 7.037037e+00	 1.000636e+01
0	 9.555556e+00	 6.666667e+00	 1.000477e+01
0	 9.555556e+00	 6.740741e+00	 1.000498e+01
0	 9.555556e+00	 6.814815e+00	 1.000514e+01
0	 9.555556e+00	 6.888889e+00	 1.000524e+01
0	 9.555556e+00	 6.962963e+00	 1.000530e+01
0	 9.555556e+00	 7.037037e+00	 1.000529e+01
0	 9.629630e+00	 6.666667e+00	 1.000370e+01
0	 9.629630e+00	 6.740741e+00	 1.000393e+01
0	 9.629630e+00	 6.814815e+00	 1.000411e+01
0	 9.629630e+00	 6.888889e+00	 1.000424e+01
0	 9.629630e+00	 6.962963e+00	 1.000431e+01
0	 9.629630e+00	 7.037037e+00	 1.000432e+01
0	 9.259259e+00	 7.037037e+00	 1.001005e+01
0	 9.259259e+00	 7.111111e+00	 1.000988e+01
0	 9.259259e+00	 7.185185e+00	 1.000969e+01
0	 9.259259e+00	 7.259259e+00	 1.000946e+01
0	 9.259259e+00	 7.333333e+00	 1.000921e+01
0	 9.259259e+00	 7.407407e+00	 1.000892e+01
0	 9.333333e+00	 7.037037e+00	 1.000874e+01
0	 9.333333e+00	 7.111111e+00	 1.000861e+01
0	 9.333333e+00	 7.185185e+00	 1.000846e+01
0	 9.333333e+00	 7.259259e+00	 1.000827e+01
0	 9.333333e+00	 7.333333e+00	 1.000805e+01
0	 9.333333e+00	 7.407407e+00	 1.000780e+01
0	 9.407407e+00	 7.037037e+00	 1.000751e+01
0	 9.407407e+00	 7.111111e+00	 1.000742e+01
0	 9.407407e+00	 7.185185e+00	 1.000729e+01
0	 9.407407e+00	 7.259259e+00	 1.000714e+01
0	 9.407407e+00	 7.333333e+00	 1.000695e+01
0	 9.407407e+00	 7.407407e+00	 1.000673e+01
0	 9.481481e+00	 7.037037e+00	 1.000636e+01
0	 9.481481e+00	 7.111111e+00	 1.000629e+01
0	 9.481481e+00	 7.185185e+00	 1.000620e+01
0	 9.481481e+00	 7.259259e+00	 1.000607e+01
0	 9.481481e+00	 7.333333e+00	 1.000591e+01
0	 9.481481e+00	 7.407407e+00	 1.000571e+01
0	 9.555556e+00	 7.037037e+00	 1.000529e+01
0	 9.555556e+00	 7.111111e+00	 1.000525e+01
0	 9.555556e+00	 7.185185e+00	 1.000517e+01
0	 9.555556e+00	 7.259259e+00	 1.000506e+01
0	 9.555556e+00	 7.333333e+00	 1.000492e+01
0	 9.555556e+00	 7.407407e+00	 1.000474e+01
0	 9.629630e+00	 7.037037e+00	 1.000432e+01
0	 9.629630e+00	 7.111111e+00	 1.000429e+01
0	 9.629630e+00	 7.185185e+00	 1.000422e+01
0	 9.629630e+00	 7.259259e+00	 1.000412e+01
0	 9.629630e+00	 7.333333e+00	 1.000399e+01
0	 9.629630e+00	 7.407407e+00	 1.000382e+01
0	 9.259259e+00	 7.407407e+00	 1.000892e+01
0	 9.259259e+00	 7.481481e+00	 1.000861e+01
0	 9.259259e+00	 7.555556e+00	 1.000828e+01
0	 9.259259e+00	 7.629630e+00	 1.000794e+01
0	 9.259259e+00	 7.703704e+00	 1.000759e+01
0	 9.259259e+00	 7.777778e+00	 1.000721e+01
0	 9.333333e+00	 7.407407e+00	 1.000780e+01
0	 9.333333e+00	 7.481481e+00	 1.000752e+01
0	 9.333333e+00	 7.555556e+00	 1.000723e+01
0	 9.333333e+00	 7.629630e+00	 1.000693e+01
0	 9.333333e+00	 7.703704e+00	 1.000661e+01
0	 9.333333e+00	 7.777778e+00	 1.000627e+01
0	 9.407407e+00	 7.407407e+00	 1.000673e+01
0	 9.407407e+00	 7.481481e+00	 1.000648e+01
0	 9.407407e+00	 7.555556e+00	 1.000622e+01
0	 9.407407e+00	 7.629630e+00	 1.000595e+01
0	 9.407407e+00	 7.703704e+00	 1.000565e+01
0	 9.407407e+00	 7.777778e+00	 1.000535e+01
0	 9.481481e+00	 7.407407e+00	 1.000571e+01
0	 9.481481e+00	 7.481481e+00	 1.000549e+01
0	 9.481481e+00	 7.555556e+00	 1.000525e+01
0	 9.481481e+00	 7.629630e+00	 1.000500e+01
0	 9.481481e+00	 7.703704e+00	 1.000473e+01
0	 9.481481e+00	 7.777778e+00	 1.000445e+01
0	 9.555556e+00	 7.407407e+00	 1.000474e+01
0	 9.555556e+00	 7.481481e+00	 1.000453e+01
0	 9.555556e+00	 7.555556e+00	 1.000431e+01
0	 9.555556e+00	 7.629630e+00	 1.000408e+01
0	 9.555556e+00	 7.703704e+00	 1.000383e+01
0	 9.555556e+00	 7.777778e+00	 1.000356e+01
0	 9.629630e+00	 7.407407e+00	 1.000382e+01
0	 9.629630e+00	 7.481481e+00	 1.000362e+01
0	 9.629630e+00	 7.555556e+00	 1.000342e+01
0	 9.629630e+00	 7.629630e+00	 1.000319e+01
0	 9.629630e+00	 7.703704e+00	 1.000295e+01
0	 9.629630e+00	 7.777778e+00	 1.000270e+01
0	 9.259259e+00	 7.777778e+00	 1.000721e+01
0	 9.259259e+00	 7.851852e+00	 1.000683e+01
0	 9.259259e+00	 7.925926e+00	 1.000645e+01
0	 9.259259e+00	 8.000000e+00	 1.000606e+01
0	 9.259259e+00	 8.074074e+00	 1.000567e+01
0	 9.259259e+00	 8.148148e+00	 1.000528e+01
0	 9.333333e+00	 7.777778e+00	 1.000627e+01
0	 9.333333e+00	 7.851852e+00	 1.000592e+01
0	 9.333333e+00	 7.925926e+00	 1.000557e+01
0	 9.333333e+00	 8.000000e+00	 1.000522e+01
0	 9.333333e+00	 8.074074e+00	 1.000487e+01
0	 9.333333e+00	 8.148148e+00	 1.000451e+01
0	 9.407407e+00	 7.777778e+00	 1.000535e+01
0	 9.407407e+00	 7.851852e+00	 1.000503e+01
0	 9.407407e+00	 7.925926e+00	 1.000471e+01
0	 9.407407e+00	 8.000000e+00	 1.000439e+01
0	 9.407407e+00	 8.074074e+00	 1.000407e+01
0	 9.407407e+00	 8.148148e+00	 1.000374e+01
0	 9.481481e+00	 7.777778e+00	 1.000445e+01
0	 9.481481e+00	 7.851852e+00	 1.000415e+01
0	 9.481481e+00	 7.925926e+00	 1.000386e+01
0	 9.481481e+00	 8.000000e+00	 1.000356e+01
0	 9.481481e+00	 8.074074e+00	 1.000327e+01
0	 9.481481e+00	 8.148148e+00	 1.000297e+01
0	 9.555556e+00	 7.777778e+00	 1.000356e+01
0	 9.555556e+00	 7.851852e+00	 1.000329e+01
0	 9.555556e+00	 7.925926e+00	 1.000302e+01
0	 9.555556e+00	 8.000000e+00	 1.000274e+01
0	 9.555556e+00	 8.074074e+00	 1.000247e+01
0	 9.555556e+00	 8.148148e+00	 1.000220e+01
0	 9.629630e+00	 7.777778e+00	 1.000270e+01
0	 9.629630e+00	 7.851852e+00	 1.000244e+01
0	 9.629630e+00	 7.925926e+00	 1.000218e+01
0	 9.629630e+00	 8.000000e+00	 1.000192e+01
0	 9.629630e+00	 8.074074e+00	 1.000167e+01
0	 9.629630e+00	 8.148148e+00	 1.000141e+01
0	 9.259259e+00	 8.148148e+00	 1.000528e+01
0	 9.259259e+00	 8.222222e+00	 1.000489e+01
0	 9.259259e+00	 8.296296e+00	 1.000451e+01
0	 9.259259e+00	 8.370370e+00	 1.000414e+01
0	 9.259259e+00	 8.444444e+00	 1.000378e+01
0	 9.259259e+00	 8.518519e+00	 1.000342e+01
0	 9.333333e+00	 8.148148e+00	 1.000451e+01
0	 9.333333e+00	 8.222222e+00	 1.000416e+01
0	 9.333333e+00	 8.296296e+00	 1.000381e+01
0	 9.333333e+00	 8.370370e+00	 1.000348e+01
0	 9.333333e+00	 8.444444e+00	 1.000315e+01
0	 9.333333e+00	 8.518519e+00	 1.000283e+01
0	 9.407407e+00	 8.148148e+00	 1.000374e+01
0	 9.407407e+00	 8.222222e+00	 1.000342e+01
0	 9.407407e+00	 8.296296e+00	 1.000311e+01
0	 9.407407e+00	 8.370370e+00	 1.000281e+01
0	 9.407407e+00	 8.444444e+00	 1.000252e+01
0	 9.407407e+00	 8.518519e+00	 1.000223e+01
0	 9.481481e+00	 8.148148e+00	 1.000297e+01
0	 9.481481e+00	 8.222222e+00	 1.000268e+01
0	 9.481481e+00	 8.296296e+00	 1.000240e+01
0	 9.481481e+00	 8.370370e+00	 1.000213e+01
0	 9.481481e+00	 8.444444e+00	 1.000187e+01
0	 9.481481e+00	 8.518519e+00	 1.000162e+01
0	 9.555556e+00	 8.148148e+00	 1.000220e+01
0	 9.555556e+00	 8.222222e+00	 1.000193e+01
0	 9.555556e+00	 8.296296e+00	 1.000168e+01
0	 9.555556e+00	 8.370370e+00	 1.000143e+01
0	 9.555556e+00	 8.444444e+00	 1.000120e+01
0	 9.555556e+00	 8.518519e+00	 1.000098e+01
0	 9.629630e+00	 8.148148e+00	 1.000141e+01
0	 9.629630e+00	 8.222222e+00	 1.000116e+01
0	 9.629630e+00	 8.296296e+00	 1.000093e+01
0	 9.629630e+00	 8.370370e+00	 1.000072e+01
0	 9.629630e+00	 8.444444e+00	 1.000051e+01
0	 9.629630e+00	 8.518519e+00	 1.000032e+01
0	 9.259259e+00	 8.518519e+00	 1.000342e+01
0	 9.259259e+00	 8.592593e+00	 1.000308e+01
0	 9.259259e+00	 8.666667e+00	 1.000275e+01
0	 9.259259e+00	 8.740741e+00	 1.000244e+01
0	 9.259259e+00	 8.814815e+00	 1.000215e+01
0	 9.259259e+00	 8.888889e+00	 1.000187e+01
0	 9.333333e+00	 8.518519e+00	 1.000283e+01
0	 9.333333e+00	 8.592593e+00	 1.000253e+01
0	 9.333333e+00	 8.666667e+00	 1.000224e+01
0	 9.333333e+00	 8.740741e+00	 1.000197e+01
0	 9.333333e+00	 8.814815e+00	 1.000171e+01
0	 9.333333e+00	 8.888889e+00	 1.000147e+01
0	 9.407407e+00	 8.518519e+00	 1.000223e+01
0	 9.407407e+00	 8.592593e+00	 1.000196e+01
0	 9.407407e+00	 8.666667e+00	 1.000171e+01
0	 9.407407e+00	 8.740741e+00	 1.000148e+01
0	 9.407407e+00	 8.814815e+00	 1.000125e+01
0	 9.407407e+00	 8.888889e+00	 1.000105e+01
0	 9.481481e+00	 8.518519e+00	 1.000162e+01
0	 9.481481e+00	 8.592593e+00	 1.000138e+01
0	 9.481481e+00	 8.666667e+00	 1.000117e+01
0	 9.481481e+00	 8.740741e+00	 1.000097e+01
0	 9.481481e+00	 8.814815e+00	 1.000078e+01
0	 9.481481e+00	 8.888889e+00	 1.000061e+01
0	 9.555556e+00	 8.518519e+00	 1.000098e+01
0	 9.555556e+00	 8.592593e+00	 1.000078e+01
0	 9.555556e+00	 8.666667e+00	 1.000060e+01
0	 9.555556e+00	 8.740741e+00	 1.000043e+01
0	 9.555556e+00	 8.814815e+00	 1.000028e+01
0	 9.555556e+00	 8.888889e+00	 1.000016e+01
0	 9.629630e+00	 8.518519e+00	 1.000032e+01
0	 9.629630e+00	 8.592593e+00	 1.000015e+01
0	 9.629630e+00	 8.666667e+00	 9.999996e+00
0	 9.629630e+00	 8.740741e+00	 9.999866e+00
0	 9.629630e+00	 8.814815e+00	 9.999756e+00
0	 9.629630e+00	 8.888889e+00	 9.999666e+00
0	 9.259259e+00	 8.888889e+00	 1.000187e+01
0	 9.259259e+00	 8.962963e+00	 1.000160e+01
0	 9.259259e+00	 9.037037e+00	 1.000136e+01
0	 9.259259e+00	 9.111111e+00	 1.000114e+01
0	 9.259259e+00	 9.185185e+00	 1.000094e+01
0	 9.259259e+00	 9.259259e+00	 1.000076e+01
0	 9.333333e+00	 8.888889e+00	 1.000147e+01
0	 9.333333e+00	 8.962963e+00	 1.000124e+01
0	 9.333333e+00	 9.037037e+00	 1.000104e+01
0	 9.333333e+00	 9.111111e+00	 1.000085e+01
0	 9.333333e+00	 9.185185e+00	 1.000069e+01
0	 9.333333e+00	 9.259259e+00	 1.000054e+01
0	 9.407407e+00	 8.888889e+00	 1.000105e+01
0	 9.407407e+00	 8.962963e+00	 1.000086e+01
0	 9.407407e+00	 9.037037e+00	 1.000069e+01
0	 9.407407e+00	 9.111111e+00	 1.000055e+01
0	 9.407407e+00	 9.185185e+00	 1.000042e+01
0	 9.407407e+00	 9.259259e+00	 1.000031e+01
0	 9.481481e+00	 8.888889e+00	 1.000061e+01
0	 9.481481e+00	 8.962963e+00	 1.000047e+01
0	 9.481481e+00	 9.037037e+00	 1.000034e+01
0	 9.481481e+00	 9.111111e+00	 1.000022e+01
0	 9.481481e+00	 9.185185e+00	 1.000013e+01
0	 9.481481e+00	 9.259259e+00	 1.000006e+01
0	 9.555556e+00	 8.888889e+00	 1.000016e+01
0	 9.555556e+00	 8.962963e+00	 1.000005e+01
0	 9.555556e+00	 9.037037e+00	 9.999954e+00
0	 9.555556e+00	 9.111111e+00	 9.999881e+00
0	 9.555556e+00	 9.185185e+00	 9.999826e+00
0	 9.555556e+00	 9.259259e+00	 9.999790e+00
0	 9.629630e+00	 8.888889e+00	 9.999666e+00
0	 9.629630e+00	 8.962963e+00	 9.999596e+00
0	 9.629630e+00	 9.037037e+00	 9.999546e+00
0	 9.629630e+00	 9.111111e+00	 9.999514e+00
0	 9.629630e+00	 9.185185e+00	 9.999500e+00
0	 9.629630e+00	 9.259259e+00	 9.999506e+00
0	 9.259259e+00	 9.259259e+00	 1.000076e+01
0	 9.259259e+00	 9.333333e+00	 1.000060e+01
0	 9.259259e+00	 9.407407e+00	 1.000046e+01
0	 9.259259e+00	 9.481481e+00	 1.000034e+01
0	 9.259259e+00	 9.555556e+00	 1.000024e+01
0	 9.259259e+00	 9.629630e+00	 1.000016e+01
0	 9.333333e+00	 9.259259e+00	 1.000054e+01
0	 9.333333e+00	 9.333333e+00	 1.000041e+01
0	 9.333333e+00	 9.407407e+00	 1.000030e+01
0	 9.333333e+00	 9.481481e+00	 1.000021e+01
0	 9.333333e+00	 9.555556e+00	 1.000014e+01
0	 9.333333e+00	 9.629630e+00	 1.000009e+01
0	 9.407407e+00	 9.259259e+00	 1.000031e+01
0	 9.407407e+00	 9.333333e+00	 1.000021e+01
0	 9.407407e+00	 9.407407e+00	 1.000013e+01
0	 9.407407e+00	 9.481481e+00	 1.000008e+01
0	 9.407407e+00	 9.555556e+00	 1.000004e+01
0	 9.407407e+00	 9.629630e+00	 1.000002e+01
0	 9.481481e+00	 9.259259e+00	 1.000006e+01
0	 9.481481e+00	 9.333333e+00	 9.999997e+00
0	 9.481481e+00	 9.407407e+00	 9.999954e+00
0	 9.481481e+00	 9.481481e+00	 9.999929e+00
0	 9.481481e+00	 9.555556e+00	 9.999922e+00
0	 9.481481e+00	 9.629630e+00	 9.999933e+00
0	 9.555556e+00	 9.259259e+00	 9.999790e+00
0	 9.555556e+00	 9.333333e+00	 9.999769e+00
0	 9.555556e+00	 9.407407e+00	 9.999763e+00
0	 9.555556e+00	 9.481481e+00	 9.999773e+00
0	 9.555556e+00	 9.555556e+00	 9.999800e+00
0	 9.555556e+00	 9.629630e+00	 9.999843e+00
0	 9.629630e+00	 9.259259e+00	 9.999506e+00
0	 9.629630e+00	 9.333333e+00	 9.999527e+00
0	 9.629630e+00	 9.407407e+00	 9.999561e+00
0	 9.629630e+00	 9.481481e+00	 9.999608e+00
0	 9.629630e+00	 9.555556e+00	 9.999670e+00
0	 9.629630e+00	 9.629630e+00	 9.999746e+00
0	 9.259259e+00	 9.629630e+00	 1.000016e+01
0	 9.259259e+00	 9.703704e+00	 1.000010e+01
0	 9.259259e+00	 9.777778e+00	 1.000005e+01
0	 9.259259e+00	 9.851852e+00	 1.000002e+01
0	 9.259259e+00	 9.925926e+00	 1.000001e+01
0	 9.259259e+00	 1.000000e+01	 1.000001e+01
0	 9.333333e+00	 9.629630e+00	 1.000009e+01
0	 9.333333e+00	 9.703704e+00	 1.000006e+01
0	 9.333333e+00	 9.777778e+00	 1.000003e+01
0	 9.333333e+00	 9.851852e+00	 1.000001e+01
0	 9.333333e+00	 9.925926e+00	 1.000000e+01
0	 9.333333e+00	 1.000000e+01	 1.000002e+01
0	 9.407407e+00	 9.629630e+00	 1.000002e+01
0	 9.407407e+00	 9.703704e+00	 1.000001e+01
0	 9.407407e+00	 9.777778e+00	 9.999997e+00
0	 9.407407e+00	 9.851852e+00	 9.999993e+00
0	 9.407407e+00	 9.925926e+00	 9.999999e+00
0	 9.407407e+00	 1.000000e+01	 1.000002e+01
0	 9.481481e+00	 9.629630e+00	 9.999933e+00
0	 9.481481e+00	 9.703704e+00	 9.999949e+00
0	 9.481481e+00	 9.777778e+00	 9.999960e+00
0	 9.481481e+00	 9.851852e+00	 9.999972e+00
0	 9.481481e+00	 9.925926e+00	 9.999990e+00
0	 9.481481e+00	 1.000000e+01	 1.000002e+01
0	 9.555556e+00	 9.629630e+00	 9.999843e+00
0	 9.555556e+00	 9.703704e+00	 9.999886e+00
0	 9.555556e+00	 9.777778e+00	 9.999919e+00
0	 9.555556e+00	 9.851852e+00	 9.999947e+00
0	 9.555556e+00	 9.925926e+00	 9.999980e+00
0	 9.555556e+00	 1.000000e+01	 1.000002e+01
0	 9.629630e+00	 9.629630e+00	 9.999746e+00
0	 9.629630e+00	 9.703704e+00	 9.999817e+00
0	 9.629630e+00	 9.777778e+00	 9.999873e+00
0	 9.629630e+00	 9.851852e+00	 9.999921e+00
0	 9.629630e+00	 9.925926e+00	 9.999973e+00
0	 9.629630e+00	 1.000000e+01	 1.000004e+01
0	 9.629630e+00	 0.000000e+00	 9.727499e+00
0	 9.629630e+00	 7.407407e-02	 9.727612e+00
0	 9.629630e+00	 1.481481e-01	 9.727948e+00
0	 9.629630e+00	 2.222222e-01	 9.728508e+00
0	 9.629630e+00	 2.962963e-01	 9.729291e+00
0	 9.629630e+00	 3.703704e-01	 9.730299e+00
0	 9.703704e+00	 0.000000e+00	 9.712835e+00
0	 9.703704e+00	 7.407407e-02	 9.712954e+00
0	 9.703704e+00	 1.481481e-01	 9.713307e+00
0	 9.703704e+00	 2.222222e-01	 9.713895e+00
0	 9.703704e+00	 2.962963e-01	 9.714719e+00
0	 9.703704e+00	 3.703704e-01	 9.715779e+00
0	 9.777778e+00	 0.000000e+00	 9.697720e+00
0	 9.777778e+00	 7.407407e-02	 9.697844e+00
0	 9.777778e+00	 1.481481e-01	 9.698216e+00
0	 9.777778e+00	 2.222222e-01	 9.698836e+00
0	 9.777778e+00	 2.962963e-01	 9.699703e+00
0	 9.777778e+00	 3.703704e-01	 9.700818e+00
0	 9.851852e+00	 0.000000e+00	 9.682111e+00
0	 9.851852e+00	 7.407407e-02	 9.682242e+00
0	 9.851852e+00	 1.481481e-01	 9.682634e+00
0	 9.851852e+00	 2.222222e-01	 9.683288e+00
0	 9.851852e+00	 2.962963e-01	 9.684202e+00
0	 9.851852e+00	 3.703704e-01	 9.685378e+00
0	 9.925926e+00	 0.000000e+00	 9.665967e+00
0	 9.925926e+00	 7.407407e-02	 9.666106e+00
0	 9.925926e+00	 1.481481e-01	 9.666520e+00
0	 9.925926e+00	 2.222222e-01	 9.667210e+00
0	 9.925926e+00	 2.962963e-01	 9.668175e+00
0	 9.925926e+00	 3.703704e-01	 9.669417e+00
0	 1.000000e+01	 0.000000e+00	 9.649247e+00
0	 1.000000e+01	 7.407407e-02	 9.649394e+00
0	 1.000000e+01	 1.481481e-01	 9.649832e+00
0	 1.000000e+01	 2.222222e-01	 9.650561e+00
0	 1.000000e+01	 2.962963e-01	 9.651582e+00
0	 1.000000e+01	 3.703704e-01	 9.652895e+00
0	 9.629630e+00	 3.703704e-01	 9.730299e+00
0	 9.629630e+00	 4.444444e-01	 9.731524e+00
0	 9.629630e+00	 5.185185e-01	 9.732960e+00
0	 9.629630e+00	 5.925926e-01	 9.734609e+00
0	 9.629630e+00	 6.666667e-01	 9.736470e+00
0	 9.629630e+00	 7.407407e-01	 9.738545e+00
0	 9.703704e+00	 3.703704e-01	 9.715779e+00
0	 9.703704e+00	 4.444444e-01	 9.717067e+00
0	 9.703704e+00	 5.185185e-01	 9.718577e+00
0	 9.703704e+00	 5.925926e-01	 9.720309e+00
0	 9.703704e+00	 6.666667e-01	 9.722266e+00
0	 9.703704e+00	 7.407407e-01	 9.724447e+00
0	 9.777778e+00	 3.703704e-01	 9.700818e+00
0	 9.777778e+00	 4.444444e-01	 9.702174e+00
0	 9.777778e+00	 5.185185e-01	 9.703764e+00
0	 9.777778e+00	 5.925926e-01	 9.705588e+00
0	 9.777778e+00	 6.666667e-01	 9.707648e+00
0	 9.777778e+00	 7.407407e-01	 9.709944e+00
0	 9.851852e+00	 3.703704e-01	 9.685378e+00
0	 9.851852e+00	 4.444444e-01	 9.686808e+00
0	 9.851852e+00	 5.185185e-01	 9.688484e+00
0	 9.851852e+00	 5.925926e-01	 9.690407e+00
0	 9.851852e+00	 6.666667e-01	 9.692578e+00
0	 9.851852e+00	 7.407407e-01	 9.694999e+00
0	 9.925926e+00	 3.703704e-01	 9.669417e+00
0	 9.925926e+00	 4.444444e-01	 9.670927e+00
0	 9.925926e+00	 5.185185e-01	 9.672696e+00
0	 9.925926e+00	 5.925926e-01	 9.674727e+00
0	 9.925926e+00	 6.666667e-01	 9.677019e+00
0	 9.925926e+00	 7.407407e-01	 9.679575e+00
0	 1.000000e+01	 3.703704e-01	 9.652895e+00
0	 1.000000e+01	 4.444444e-01	 9.654492e+00
0	 1.000000e+01	 5.185185e-01	 9.656363e+00
0	 1.000000e+01	 5.925926e-01	 9.658510e+00
0	 1.000000e+01	 6.666667e-01	 9.660933e+00
0	 1.000000e+01	 7.407407e-01	 9.663635e+00
0	 9.629630e+00	 7.407407e-01	 9.738545e+00
0	 9.629630e+00	 8.148148e-01	 9.740820e+00
0	 9.629630e+00	 8.888889e-01	 9.743283e+00
0	 9.629630e+00	 9.629630e-01	 9.745935e+00
0	 9.629630e+00	 1.037037e+00	 9.748777e+00
0	 9.629630e+00	 1.111111e+00	 9.751812e+00
0	 9.703704e+00	 7.407407e-01	 9.724447e+00
0	 9.703704e+00	 8.148148e-01	 9.726839e+00
0	 9.703704e+00	 8.888889e-01	 9.729428e+00
0	 9.703704e+00	 9.629630e-01	 9.732216e+00
0	 9.703704e+00	 1.037037e+00	 9.735204e+00
0	 9.703704e+00	 1.111111e+00	 9.738393e+00
0	 9.777778e+00	 7.407407e-01	 9.709944e+00
0	 9.777778e+00	 8.148148e-01	 9.712462e+00
0	 9.777778e+00	 8.888889e-01	 9.715187e+00
0	 9.777778e+00	 9.629630e-01	 9.718122e+00
0	 9.777778e+00	 1.037037e+00	 9.721267e+00
0	 9.777778e+00	 1.111111e+00	 9.724623e+00
0	 9.851852e+00	 7.407407e-01	 9.694999e+00
0	 9.851852e+00	 8.148148e-01	 9.697653e+00
0	 9.851852e+00	 8.888889e-01	 9.700526e+00
0	 9.851852e+00	 9.629630e-01	 9.703619e+00
0	 9.851852e+00	 1.037037e+00	 9.706934e+00
0	 9.851852e+00	 1.111111e+00	 9.710471e+00
0	 9.925926e+00	 7.407407e-01	 9.679575e+00
0	 9.925926e+00	 8.148148e-01	 9.682376e+00
0	 9.925926e+00	 8.888889e-01	 9.685409e+00
0	 9.925926e+00	 9.629630e-01	 9.688674e+00
0	 9.925926e+00	 1.037037e+00	 9.692172e+00
0	 9.925926e+00	 1.111111e+00	 9.695906e+00
0	 1.000000e+01	 7.407407e-01	 9.663635e+00
0	 1.000000e+01	 8.148148e-01	 9.666596e+00
0	 1.000000e+01	 8.888889e-01	 9.669802e+00
0	 1.000000e+01	 9.629630e-01	 9.673252e+00
0	 1.000000e+01	 1.037037e+00	 9.676950e+00
0	 1.000000e+01	 1.111111e+00	 9.680896e+00
0	 9.629630e+00	 1.111111e+00	 9.751812e+00
0	 9.629630e+00	 1.185185e+00	 9.755019e+00
0	 9.629630e+00	 1.259259e+00	 9.758382e+00
0	 9.629630e+00	 1.333333e+00	 9.761903e+00
0	 9.629630e+00	 1.407407e+00	 9.765583e+00
0	 9.629630e+00	 1.481481e+00	 9.769423e+00
0	 9.703704e+00	 1.111111e+00	 9.738393e+00
0	 9.703704e+00	 1.185185e+00	 9.741765e+00
0	 9.703704e+00	 1.259259e+00	 9.745300e+00
0	 9.703704e+00	 1.333333e+00	 9.749000e+00
0	 9.703704e+00	 1.407407e+00	 9.752868e+00
0	 9.703704e+00	 1.481481e+00	 9.756904e+00
0	 9.777778e+00	 1.111111e+00	 9.724623e+00
0	 9.777778e+00	 1.185185e+00	 9.728172e+00
0	 9.777778e+00	 1.259259e+00	 9.731893e+00
0	 9.777778e+00	 1.333333e+00	 9.735787e+00
0	 9.777778e+00	 1.407407e+00	 9.739857e+00
0	 9.777778e+00	 1.481481e+00	 9.744104e+00
0	 9.851852e+00	 1.111111e+00	 9.710471e+00
0	 9.851852e+00	 1.185185e+00	 9.714211e+00
0	 9.851852e+00	 1.259259e+00	 9.718132e+00
0	 9.851852e+00	 1.333333e+00	 9.722236e+00
0	 9.851852e+00	 1.407407e+00	 9.726524e+00
0	 9.851852e+00	 1.481481e+00	 9.730999e+00
0	 9.925926e+00	 1.111111e+00	 9.695906e+00
0	 9.925926e+00	 1.185185e+00	 9.699853e+00
0	 9.925926e+00	 1.259259e+00	 9.703990e+00
0	 9.925926e+00	 1.333333e+00	 9.708320e+00
0	 9.925926e+00	 1.407407e+00	 9.712844e+00
0	 9.925926e+00	 1.481481e+00	 9.717565e+00
0	 1.000000e+01	 1.111111e+00	 9.680896e+00
0	 1.000000e+01	 1.185185e+00	 9.685067e+00
0	 1.000000e+01	 1.259259e+00	 9.689438e+00
0	 1.000000e+01	 1.333333e+00	 9.694012e+00
0	 1.000000e+01	 1.407407e+00	 9.698792e+00
0	 1.000000e+01	 1.481481e+00	 9.703778e+00
0	 9.629630e+00	 1.481481e+00	 9.769423e+00
0	 9.629630e+00	 1.555556e+00	 9.773402e+00
0	 9.629630e+00	 1.629630e+00	 9.777499e+00
0	 9.629630e+00	 1.703704e+00	 9.781714e+00
0	 9.629630e+00	 1.777778e+00	 9.786050e+00
0	 9.629630e+00	 1.851852e+00	 9.790510e+00
0	 9.703704e+00	 1.481481e+00	 9.756904e+00
0	 9.703704e+00	 1.555556e+00	 9.761087e+00
0	 9.703704e+00	 1.629630e+00	 9.765392e+00
0	 9.703704e+00	 1.703704e+00	 9.769822e+00
0	 9.703704e+00	 1.777778e+00	 9.774379e+00
0	 9.703704e+00	 1.851852e+00	 9.779066e+00
0	 9.777778e+00	 1.481481e+00	 9.744104e+00
0	 9.777778e+00	 1.555556e+00	 9.748505e+00
0	 9.777778e+00	 1.629630e+00	 9.753035e+00
0	 9.777778e+00	 1.703704e+00	 9.757696e+00
0	 9.777778e+00	 1.777778e+00	 9.762491e+00
0	 9.777778e+00	 1.851852e+00	 9.767421e+00
0	 9.851852e+00	 1.481481e+00	 9.730999e+00
0	 9.851852e+00	 1.555556e+00	 9.735635e+00
0	 9.851852e+00	 1.629630e+00	 9.740407e+00
0	 9.851852e+00	 1.703704e+00	 9.745317e+00
0	 9.851852e+00	 1.777778e+00	 9.750367e+00
0	 9.851852e+00	 1.851852e+00	 9.755559e+00
0	 9.925926e+00	 1.481481e+00	 9.717565e+00
0	 9.925926e+00	 1.555556e+00	 9.722455e+00
0	 9.925926e+00	 1.629630e+00	 9.727488e+00
0	 9.925926e+00	 1.703704e+00	 9.732665e+00
0	 9.925926e+00	 1.777778e+00	 9.737990e+00
0	 9.925926e+00	 1.851852e+00	 9.743464e+00
0	 1.000000e+01	 1.481481e+00	 9.703778e+00
0	 1.000000e+01	 1.555556e+00	 9.708942e+00
0	 1.000000e+01	 1.629630e+00	 9.714256e+00
0	 1.000000e+01	 1.703704e+00	 9.719722e+00
0	 1.000000e+01	 1.777778e+00	 9.725343e+00
0	 1.000000e+01	 1.851852e+00	 9.731120e+00
0	 9.629630e+00	 1.851852e+00	 9.790510e+00
0	 9.629630e+00	 1.925926e+00	 9.795069e+00
0	 9.629630e+00	 2.000000e+00	 9.799702e+00
0	 9.629630e+00	 2.074074e+00	 9.804413e+00
0	 9.629630e+00	 2.148148e+00	 9.809203e+00
0	 9.629630e+00	 2.222222e+00	 9.814075e+00
0	 9.703704e+00	 1.851852e+00	 9.779066e+00
0	 9.703704e+00	 1.925926e+00	 9.783856e+00
0	 9.703704e+00	 2.000000e+00	 9.788725e+00
0	 9.703704e+00	 2.074074e+00	 9.793675e+00
0	 9.703704e+00	 2.148148e+00	 9.798709e+00
0	 9.703704e+00	 2.222222e+00	 9.803827e+00
0	 9.777778e+00	 1.851852e+00	 9.767421e+00
0	 9.777778e+00	 1.925926e+00	 9.772460e+00
0	 9.777778e+00	 2.000000e+00	 9.777581e+00
0	 9.777778e+00	 2.074074e+00	 9.782787e+00
0	 9.777778e+00	 2.148148e+00	 9.788081e+00
0	 9.777778e+00	 2.222222e+00	 9.793463e+00
0	 9.851852e+00	 1.851852e+00	 9.755559e+00
0	 9.851852e+00	 1.925926e+00	 9.760865e+00
0	 9.851852e+00	 2.000000e+00	 9.766257e+00
0	 9.851852e+00	 2.074074e+00	 9.771738e+00
0	 9.851852e+00	 2.148148e+00	 9.777311e+00
0	 9.851852e+00	 2.222222e+00	 9.782976e+00
0	 9.925926e+00	 1.851852e+00	 9.743464e+00
0	 9.925926e+00	 1.925926e+00	 9.749057e+00
0	 9.925926e+00	 2.000000e+00	 9.754741e+00
0	 9.925926e+00	 2.074074e+00	 9.760518e+00
0	 9.925926e+00	 2.148148e+00	 9.766389e+00
0	 9.925926e+00	 2.222222e+00	 9.772358e+00
0	 1.000000e+01	 1.851852e+00	 9.731120e+00
0	 1.000000e+01	 1.925926e+00	 9.737023e+00
0	 1.000000e+01	 2.000000e+00	 9.743020e+00
0	 1.000000e+01	 2.074074e+00	 9.749114e+00
0	 1.000000e+01	 2.148148e+00	 9.755306e+00
0	 1.000000e+01	 2.222222e+00	 9.761601e+00
0	 9.629630e+00	 2.222222e+00	 9.814075e+00
0	 9.629630e+00	 2.296296e+00	 9.819003e+00
0	 9.629630e+00	 2.370370e+00	 9.823964e+00
0	 9.629630e+00	 2.444444e+00	 9.828960e+00
0	 9.629630e+00	 2.518519e+00	 9.833992e+00
0	 9.629630e+00	 2.592593e+00	 9.839062e+00
0	 9.703704e+00	 2.222222e+00	 9.803827e+00
0	 9.703704e+00	 2.296296e+00	 9.809005e+00
0	 9.703704e+00	 2.370370e+00	 9.814217e+00
0	 9.703704e+00	 2.444444e+00	 9.819465e+00
0	 9.703704e+00	 2.518519e+00	 9.824751e+00
0	 9.703704e+00	 2.592593e+00	 9.830077e+00
0	 9.777778e+00	 2.222222e+00	 9.793463e+00
0	 9.777778e+00	 2.296296e+00	 9.798908e+00
0	 9.777778e+00	 2.370370e+00	 9.804388e+00
0	 9.777778e+00	 2.444444e+00	 9.809905e+00
0	 9.777778e+00	 2.518519e+00	 9.815462e+00
0	 9.777778e+00	 2.592593e+00	 9.821061e+00
0	 9.851852e+00	 2.222222e+00	 9.782976e+00
0	 9.851852e+00	 2.296296e+00	 9.788706e+00
0	 9.851852e+00	 2.370370e+00	 9.794473e+00
0	 9.851852e+00	 2.444444e+00	 9.800278e+00
0	 9.851852e+00	 2.518519e+00	 9.806124e+00
0	 9.851852e+00	 2.592593e+00	 9.812013e+00
0	 9.925926e+00	 2.222222e+00	 9.772358e+00
0	 9.925926e+00	 2.296296e+00	 9.778394e+00
0	 9.925926e+00	 2.370370e+00	 9.784467e+00
0	 9.925926e+00	 2.444444e+00	 9.790580e+00
0	 9.925926e+00	 2.518519e+00	 9.796735e+00
0	 9.925926e+00	 2.592593e+00	 9.802934e+00
0	 1.000000e+01	 2.222222e+00	 9.761601e+00
0	 1.000000e+01	 2.296296e+00	 9.767965e+00
0	 1.000000e+01	 2.370370e+00	 9.774367e+00
0	 1.000000e+01	 2.444444e+00	 9.780809e+00
0	 1.000000e+01	 2.518519e+00	 9.787294e+00
0	 1.000000e+01	 2.592593e+00	 9.793825e+00
0	 9.629630e+00	 2.592593e+00	 9.839062e+00
0	 9.629630e+00	 2.666667e+00	 9.844148e+00
0	 9.629630e+00	 2.740741e+00	 9.849226e+00
0	 9.629630e+00	 2.814815e+00	 9.854297e+00
0	 9.629630e+00	 2.888889e+00	 9.859365e+00
0	 9.629630e+00	 2.962963e+00	 9.864429e+00
0	 9.703704e+00	 2.592593e+00	 9.830077e+00
0	 9.703704e+00	 2.666667e+00	 9.835420e+00
0	 9.703704e+00	 2.740741e+00	 9.840753e+00
0	 9.703704e+00	 2.814815e+00	 9.846080e+00
0	 9.703704e+00	 2.888889e+00	 9.851401e+00
0	 9.703704e+00	 2.962963e+00	 9.856720e+00
0	 9.777778e+00	 2.592593e+00	 9.821061e+00
0	 9.777778e+00	 2.666667e+00	 9.826676e+00
0	 9.777778e+00	 2.740741e+00	 9.832281e+00
0	 9.777778e+00	 2.814815e+00	 9.837878e+00
0	 9.777778e+00	 2.888889e+00	 9.843469e+00
0	 9.777778e+00	 2.962963e+00	 9.849057e+00
0	 9.851852e+00	 2.592593e+00	 9.812013e+00
0	 9.851852e+00	 2.666667e+00	 9.817918e+00
0	 9.851852e+00	 2.740741e+00	 9.823812e+00
0	 9.851852e+00	 2.814815e+00	 9.829697e+00
0	 9.851852e+00	 2.888889e+00	 9.835575e+00
0	 9.851852e+00	 2.962963e+00	 9.841448e+00
0	 9.925926e+00	 2.592593e+00	 9.802934e+00
0	 9.925926e+00	 2.666667e+00	 9.809149e+00
0	 9.925926e+00	 2.740741e+00	 9.815351e+00
0	 9.925926e+00	 2.814815e+00	 9.821542e+00
0	 9.925926e+00	 2.888889e+00	 9.827725e+00
0	 9.925926e+00	 2.962963e+00	 9.833901e+00
0	 1.000000e+01	 2.592593e+00	 9.793825e+00
0	 1.000000e+01	 2.666667e+00	 9.800371e+00
0	 1.000000e+01	 2.740741e+00	 9.806901e+00
0	 1.000000e+01	 2.814815e+00	 9.813418e+00
0	 1.000000e+01	 2.888889e+00	 9.819925e+00
0	 1.000000e+01	 2.962963e+00	 9.826423e+00
0	 9.629630e+00	 2.962963e+00	 9.864429e+00
0	 9.629630e+00	 3.037037e+00	 9.869471e+00
0	 9.629630e+00	 3.111111e+00	 9.874467e+00
0	 9.629630e+00	 3.185185e+00	 9.879421e+00
0	 9.629630e+00	 3.259259e+00	 9.884334e+00
0	 9.629630e+00	 3.333333e+00	 9.889207e+00
0	 9.703704e+00	 2.962963e+00	 9.856720e+00
0	 9.703704e+00	 3.037037e+00	 9.862014e+00
0	 9.703704e+00	 3.111111e+00	 9.867261e+00
0	 9.703704e+00	 3.185185e+00	 9.872462e+00
0	 9.703704e+00	 3.259259e+00	 9.877620e+00
0	 9.703704e+00	 3.333333e+00	 9.882736e+00
0	 9.777778e+00	 2.962963e+00	 9.849057e+00
0	 9.777778e+00	 3.037037e+00	 9.854618e+00
0	 9.777778e+00	 3.111111e+00	 9.860129e+00
0	 9.777778e+00	 3.185185e+00	 9.865592e+00
0	 9.777778e+00	 3.259259e+00	 9.871008e+00
0	 9.777778e+00	 3.333333e+00	 9.876379e+00
0	 9.851852e+00	 2.962963e+00	 9.841448e+00
0	 9.851852e+00	 3.037037e+00	 9.847292e+00
0	 9.851852e+00	 3.111111e+00	 9.853083e+00
0	 9.851852e+00	 3.185185e+00	 9.858821e+00
0	 9.851852e+00	 3.259259e+00	 9.864510e+00
0	 9.851852e+00	 3.333333e+00	 9.870151e+00
0	 9.925926e+00	 2.962963e+00	 9.833901e+00
0	 9.925926e+00	 3.037037e+00	 9.840045e+00
0	 9.925926e+00	 3.111111e+00	 9.846132e+00
0	 9.925926e+00	 3.185185e+00	 9.852163e+00
0	 9.925926e+00	 3.259259e+00	 9.858139e+00
0	 9.925926e+00	 3.333333e+00	 9.864064e+00
0	 1.000000e+01	 2.962963e+00	 9.826423e+00
0	 1.000000e+01	 3.037037e+00	 9.832886e+00
0	 1.000000e+01	 3.111111e+00	 9.839287e+00
0	 1.000000e+01	 3.185185e+00	 9.845627e+00
0	 1.000000e+01	 3.259259e+00	 9.851908e+00
0	 1.000000e+01	 3.333333e+00	 9.858133e+00
0	 9.629630e+00	 3.333333e+00	 9.889207e+00
0	 9.629630e+00	 3.407407e+00	 9.894023e+00
0	 9.629630e+00	 3.481481e+00	 9.898765e+00
0	 9.629630e+00	 3.555556e+00	 9.903432e+00
0	 9.629630e+00	 3.629630e+00	 9.908028e+00
0	 9.629630e+00	 3.703704e+00	 9.912552e+00
0	 9.703704e+00	 3.333333e+00	 9.882736e+00
0	 9.703704e+00	 3.407407e+00	 9.887792e+00
0	 9.703704e+00	 3.481481e+00	 9.892768e+00
0	 9.703704e+00	 3.555556e+00	 9.897668e+00
0	 9.703704e+00	 3.629630e+00	 9.902491e+00
0	 9.703704e+00	 3.703704e+00	 9.907239e+00
0	 9.777778e+00	 3.333333e+00	 9.876379e+00
0	 9.777778e+00	 3.407407e+00	 9.881687e+00
0	 9.777778e+00	 3.481481e+00	 9.886910e+00
0	 9.777778e+00	 3.555556e+00	 9.892052e+00
0	 9.777778e+00	 3.629630e+00	 9.897113e+00
0	 9.777778e+00	 3.703704e+00	 9.902095e+00
0	 9.851852e+00	 3.333333e+00	 9.870151e+00
0	 9.851852e+00	 3.407407e+00	 9.875723e+00
0	 9.851852e+00	 3.481481e+00	 9.881207e+00
0	 9.851852e+00	 3.555556e+00	 9.886603e+00
0	 9.851852e+00	 3.629630e+00	 9.891913e+00
0	 9.851852e+00	 3.703704e+00	 9.897139e+00
0	 9.925926e+00	 3.333333e+00	 9.864064e+00
0	 9.925926e+00	 3.407407e+00	 9.869916e+00
0	 9.925926e+00	 3.481481e+00	 9.875673e+00
0	 9.925926e+00	 3.555556e+00	 9.881336e+00
0	 9.925926e+00	 3.629630e+00	 9.886908e+00
0	 9.925926e+00	 3.703704e+00	 9.892390e+00
0	 1.000000e+01	 3.333333e+00	 9.858133e+00
0	 1.000000e+01	 3.407407e+00	 9.864279e+00
0	 1.000000e+01	 3.481481e+00	 9.870324e+00
0	 1.000000e+01	 3.555556e+00	 9.876269e+00
0	 1.000000e+01	 3.629630e+00	 9.882115e+00
0	 1.000000e+01	 3.703704e+00	 9.887865e+00
0	 9.629630e+00	 3.703704e+00	 9.912552e+00
0	 9.629630e+00	 3.777778e+00	 9.916993e+00
0	 9.629630e+00	 3.851852e+00	 9.921335e+00
0	 9.629630e+00	 3.925926e+00	 9.925580e+00
0	 9.629630e+00	 4.000000e+00	 9.929729e+00
0	 9.629630e+00	 4.074074e+00	 9.933782e+00
0	 9.703704e+00	 3.703704e+00	 9.907239e+00
0	 9.703704e+00	 3.777778e+00	 9.911898e+00
0	 9.703704e+00	 3.851852e+00	 9.916454e+00
0	 9.703704e+00	 3.925926e+00	 9.920908e+00
0	 9.703704e+00	 4.000000e+00	 9.925260e+00
0	 9.703704e+00	 4.074074e+00	 9.929512e+00
0	 9.777778e+00	 3.703704e+00	 9.902095e+00
0	 9.777778e+00	 3.777778e+00	 9.906983e+00
0	 9.777778e+00	 3.851852e+00	 9.911761e+00
0	 9.777778e+00	 3.925926e+00	 9.916432e+00
0	 9.777778e+00	 4.000000e+00	 9.920995e+00
0	 9.777778e+00	 4.074074e+00	 9.925452e+00
0	 9.851852e+00	 3.703704e+00	 9.897139e+00
0	 9.851852e+00	 3.777778e+00	 9.902266e+00
0	 9.851852e+00	 3.851852e+00	 9.907276e+00
0	 9.851852e+00	 3.925926e+00	 9.912172e+00
0	 9.851852e+00	 4.000000e+00	 9.916955e+00
0	 9.851852e+00	 4.074074e+00	 9.921625e+00
0	 9.925926e+00	 3.703704e+00	 9.892390e+00
0	 9.925926e+00	 3.777778e+00	 9.897766e+00
0	 9.925926e+00	 3.851852e+00	 9.903018e+00
0	 9.925926e+00	 3.925926e+00	 9.908149e+00
0	 9.925926e+00	 4.000000e+00	 9.913159e+00
0	 9.925926e+00	 4.074074e+00	 9.918050e+00
0	 1.000000e+01	 3.703704e+00	 9.887865e+00
0	 1.000000e+01	 3.777778e+00	 9.893502e+00
0	 1.000000e+01	 3.851852e+00	 9.899007e+00
0	 1.000000e+01	 3.925926e+00	 9.904383e+00
0	 1.000000e+01	 4.000000e+00	 9.909630e+00
0	 1.000000e+01	 4.074074e+00	 9.914749e+00
0	 9.629630e+00	 4.074074e+00	 9.933782e+00
0	 9.629630e+00	 4.148148e+00	 9.937731e+00
0	 9.629630e+00	 4.222222e+00	 9.941566e+00
0	 9.629630e+00	 4.296296e+00	 9.945289e+00
0	 9.629630e+00	 4.370370e+00	 9.948898e+00
0	 9.629630e+00	 4.444444e+00	 9.952395e+00
0	 9.703704e+00	 4.074074e+00	 9.929512e+00
0	 9.703704e+00	 4.148148e+00	 9.933654e+00
0	 9.703704e+00	 4.222222e+00	 9.937676e+00
0	 9.703704e+00	 4.296296e+00	 9.941580e+00
0	 9.703704e+00	 4.370370e+00	 9.945364e+00
0	 9.703704e+00	 4.444444e+00	 9.949031e+00
0	 9.777778e+00	 4.074074e+00	 9.925452e+00
0	 9.777778e+00	 4.148148e+00	 9.929794e+00
0	 9.777778e+00	 4.222222e+00	 9.934009e+00
0	 9.777778e+00	 4.296296e+00	 9.938098e+00
0	 9.777778e+00	 4.370370e+00	 9.942063e+00
0	 9.777778e+00	 4.444444e+00	 9.945903e+00
0	 9.851852e+00	 4.074074e+00	 9.921625e+00
0	 9.851852e+00	 4.148148e+00	 9.926172e+00
0	 9.851852e+00	 4.222222e+00	 9.930586e+00
0	 9.851852e+00	 4.296296e+00	 9.934867e+00
0	 9.851852e+00	 4.370370e+00	 9.939016e+00
0	 9.851852e+00	 4.444444e+00	 9.943033e+00
0	 9.925926e+00	 4.074074e+00	 9.918050e+00
0	 9.925926e+00	 4.148148e+00	 9.922810e+00
0	 9.925926e+00	 4.222222e+00	 9.927429e+00
0	 9.925926e+00	 4.296296e+00	 9.931908e+00
0	 9.925926e+00	 4.370370e+00	 9.936246e+00
0	 9.925926e+00	 4.444444e+00	 9.940445e+00
0	 1.000000e+01	 4.074074e+00	 9.914749e+00
0	 1.000000e+01	 4.148148e+00	 9.919730e+00
0	 1.000000e+01	 4.222222e+00	 9.924561e+00
0	 1.000000e+01	 4.296296e+00	 9.929243e+00
0	 1.000000e+01	 4.370370e+00	 9.933775e+00
0	 1.000000e+01	 4.444444e+00	 9.938160e+00
0	 9.629630e+00	 4.444444e+00	 9.952395e+00
0	 9.629630e+00	 4.518519e+00	 9.955776e+00
0	 9.629630e+00	 4.592593e+00	 9.959035e+00
0	 9.629630e+00	 4.666667e+00	 9.962172e+00
0	 9.629630e+00	 4.740741e+00	 9.965188e+00
0	 9.629630e+00	 4.814815e+00	 9.968082e+00
0	 9.703704e+00	 4.444444e+00	 9.949031e+00
0	 9.703704e+00	 4.518519e+00	 9.952575e+00
0	 9.703704e+00	 4.592593e+00	 9.955991e+00
0	 9.703704e+00	 4.666667e+00	 9.959279e+00
0	 9.703704e+00	 4.740741e+00	 9.962440e+00
0	 9.703704e+00	 4.814815e+00	 9.965473e+00
0	 9.777778e+00	 4.444444e+00	 9.945903e+00
0	 9.777778e+00	 4.518519e+00	 9.949613e+00
0	 9.777778e+00	 4.592593e+00	 9.953189e+00
0	 9.777778e+00	 4.666667e+00	 9.956630e+00
0	 9.777778e+00	 4.740741e+00	 9.959937e+00
0	 9.777778e+00	 4.814815e+00	 9.963109e+00
0	 9.851852e+00	 4.444444e+00	 9.943033e+00
0	 9.851852e+00	 4.518519e+00	 9.946914e+00
0	 9.851852e+00	 4.592593e+00	 9.950652e+00
0	 9.851852e+00	 4.666667e+00	 9.954248e+00
0	 9.851852e+00	 4.740741e+00	 9.957702e+00
0	 9.851852e+00	 4.814815e+00	 9.961015e+00
0	 9.925926e+00	 4.444444e+00	 9.940445e+00
0	 9.925926e+00	 4.518519e+00	 9.944498e+00
0	 9.925926e+00	 4.592593e+00	 9.948402e+00
0	 9.925926e+00	 4.666667e+00	 9.952155e+00
0	 9.925926e+00	 4.740741e+00	 9.955759e+00
0	 9.925926e+00	 4.814815e+00	 9.959212e+00
0	 1.000000e+01	 4.444444e+00	 9.938160e+00
0	 1.000000e+01	 4.518519e+00	 9.942391e+00
0	 1.000000e+01	 4.592593e+00	 9.946462e+00
0	 1.000000e+01	 4.666667e+00	 9.950375e+00
0	 1.000000e+01	 4.740741e+00	 9.954129e+00
0	 1.000000e+01	 4.814815e+00	 9.957724e+00
0	 9.629630e+00	 4.814815e+00	 9.968082e+00
0	 9.629630e+00	 4.888889e+00	 9.970855e+00
0	 9.629630e+00	 4.962963e+00	 9.973505e+00
0	 9.629630e+00	 5.037037e+00	 9.976032e+00
0	 9.629630e+00	 5.111111e+00	 9.978436e+00
0	 9.629630e+00	 5.185185e+00	 9.980717e+00
0	 9.703704e+00	 4.814815e+00	 9.965473e+00
0	 9.703704e+00	 4.888889e+00	 9.968378e+00
0	 9.703704e+00	 4.962963e+00	 9.971154e+00
0	 9.703704e+00	 5.037037e+00	 9.973801e+00
0	 9.703704e+00	 5.111111e+00	 9.976318e+00
0	 9.703704e+00	 5.185185e+00	 9.978707e+00
0	 9.777778e+00	 4.814815e+00	 9.963109e+00
0	 9.777778e+00	 4.888889e+00	 9.966147e+00
0	 9.777778e+00	 4.962963e+00	 9.969049e+00
0	 9.777778e+00	 5.037037e+00	 9.971815e+00
0	 9.777778e+00	 5.111111e+00	 9.974446e+00
0	 9.777778e+00	 5.185185e+00	 9.976940e+00
0	 9.851852e+00	 4.814815e+00	 9.961015e+00
0	 9.851852e+00	 4.888889e+00	 9.964185e+00
0	 9.851852e+00	 4.962963e+00	 9.967213e+00
0	 9.851852e+00	 5.037037e+00	 9.970098e+00
0	 9.851852e+00	 5.111111e+00	 9.972839e+00
0	 9.851852e+00	 5.185185e+00	 9.975437e+00
0	 9.925926e+00	 4.814815e+00	 9.959212e+00
0	 9.925926e+00	 4.888889e+00	 9.962515e+00
0	 9.925926e+00	 4.962963e+00	 9.965668e+00
0	 9.925926e+00	 5.037037e+00	 9.968670e+00
0	 9.925926e+00	 5.111111e+00	 9.971521e+00
0	 9.925926e+00	 5.185185e+00	 9.974220e+00
0	 1.000000e+01	 4.814815e+00	 9.957724e+00
0	 1.000000e+01	 4.888889e+00	 9.961160e+00
0	 1.000000e+01	 4.962963e+00	 9.964437e+00
0	 1.000000e+01	 5.037037e+00	 9.967554e+00
0	 1.000000e+01	 5.111111e+00	 9.970512e+00
0	 1.000000e+01	 5.185185e+00	 9.973311e+00
0	 9.629630e+00	 5.185185e+00	 9.980717e+00
0	 9.629630e+00	 5.259259e+00	 9.982877e+00
0	 9.629630e+00	 5.333333e+00	 9.984921e+00
0	 9.629630e+00	 5.407407e+00	 9.986847e+00
0	 9.629630e+00	 5.481481e+00	 9.988654e+00
0	 9.629630e+00	 5.555556e+00	 9.990344e+00
0	 9.703704e+00	 5.185185e+00	 9.978707e+00
0	 9.703704e+00	 5.259259e+00	 9.980969e+00
0	 9.703704e+00	 5.333333e+00	 9.983109e+00
0	 9.703704e+00	 5.407407e+00	 9.985125e+00
0	 9.703704e+00	 5.481481e+00	 9.987017e+00
0	 9.703704e+00	 5.555556e+00	 9.988785e+00
0	 9.777778e+00	 5.185185e+00	 9.976940e+00
0	 9.777778e+00	 5.259259e+00	 9.979302e+00
0	 9.777778e+00	 5.333333e+00	 9.981534e+00
0	 9.777778e+00	 5.407407e+00	 9.983637e+00
0	 9.777778e+00	 5.481481e+00	 9.985610e+00
0	 9.777778e+00	 5.555556e+00	 9.987453e+00
0	 9.851852e+00	 5.185185e+00	 9.975437e+00
0	 9.851852e+00	 5.259259e+00	 9.977896e+00
0	 9.851852e+00	 5.333333e+00	 9.980219e+00
0	 9.851852e+00	 5.407407e+00	 9.982405e+00
0	 9.851852e+00	 5.481481e+00	 9.984455e+00
0	 9.851852e+00	 5.555556e+00	 9.986367e+00
0	 9.925926e+00	 5.185185e+00	 9.974220e+00
0	 9.925926e+00	 5.259259e+00	 9.976773e+00
0	 9.925926e+00	 5.333333e+00	 9.979183e+00
0	 9.925926e+00	 5.407407e+00	 9.981449e+00
0	 9.925926e+00	 5.481481e+00	 9.983570e+00
0	 9.925926e+00	 5.555556e+00	 9.985548e+00
0	 1.000000e+01	 5.185185e+00	 9.973311e+00
0	 1.000000e+01	 5.259259e+00	 9.975954e+00
0	 1.000000e+01	 5.333333e+00	 9.978446e+00
0	 1.000000e+01	 5.407407e+00	 9.980787e+00
0	 1.000000e+01	 5.481481e+00	 9.982976e+00
0	 1.000000e+01	 5.555556e+00	 9.985013e+00
0	 9.629630e+00	 5.555556e+00	 9.990344e+00
0	 9.629630e+00	 5.629630e+00	 9.991920e+00
0	 9.629630e+00	 5.703704e+00	 9.993391e+00
0	 9.629630e+00	 5.777778e+00	 9.994754e+00
0	 9.629630e+00	 5.851852e+00	 9.996010e+00
0	 9.629630e+00	 5.925926e+00	 9.997157e+00
0	 9.703704e+00	 5.555556e+00	 9.988785e+00
0	 9.703704e+00	 5.629630e+00	 9.990435e+00
0	 9.703704e+00	 5.703704e+00	 9.991973e+00
0	 9.703704e+00	 5.777778e+00	 9.993399e+00
0	 9.703704e+00	 5.851852e+00	 9.994713e+00
0	 9.703704e+00	 5.925926e+00	 9.995913e+00
0	 9.777778e+00	 5.555556e+00	 9.987453e+00
0	 9.777778e+00	 5.629630e+00	 9.989171e+00
0	 9.777778e+00	 5.703704e+00	 9.990773e+00
0	 9.777778e+00	 5.777778e+00	 9.992258e+00
0	 9.777778e+00	 5.851852e+00	 9.993624e+00
0	 9.777778e+00	 5.925926e+00	 9.994871e+00
0	 9.851852e+00	 5.555556e+00	 9.986367e+00
0	 9.851852e+00	 5.629630e+00	 9.988150e+00
0	 9.851852e+00	 5.703704e+00	 9.989810e+00
0	 9.851852e+00	 5.777778e+00	 9.991346e+00
0	 9.851852e+00	 5.851852e+00	 9.992759e+00
0	 9.851852e+00	 5.925926e+00	 9.994046e+00
0	 9.925926e+00	 5.555556e+00	 9.985548e+00
0	 9.925926e+00	 5.629630e+00	 9.987389e+00
0	 9.925926e+00	 5.703704e+00	 9.989101e+00
0	 9.925926e+00	 5.777778e+00	 9.990683e+00
0	 9.925926e+00	 5.851852e+00	 9.992135e+00
0	 9.925926e+00	 5.925926e+00	 9.993456e+00
0	 1.000000e+01	 5.555556e+00	 9.985013e+00
0	 1.000000e+01	 5.629630e+00	 9.986906e+00
0	 1.000000e+01	 5.703704e+00	 9.988664e+00
0	 1.000000e+01	 5.777778e+00	 9.990285e+00
0	 1.000000e+01	 5.851852e+00	 9.991769e+00
0	 1.000000e+01	 5.925926e+00	 9.993115e+00
0	 9.629630e+00	 5.925926e+00	 9.997157e+00
0	 9.629630e+00	 6.000000e+00	 9.998205e+00
0	 9.629630e+00	 6.074074e+00	 9.999161e+00
0	 9.629630e+00	 6.148148e+00	 1.000002e+01
0	 9.629630e+00	 6.222222e+00	 1.000080e+01
0	 9.629630e+00	 6.296296e+00	 1.000147e+01
0	 9.703704e+00	 5.925926e+00	 9.995913e+00
0	 9.703704e+00	 6.000000e+00	 9.997009e+00
0	 9.703704e+00	 6.074074e+00	 9.998009e+00
0	 9.703704e+00	 6.148148e+00	 9.998913e+00
0	 9.703704e+00	 6.222222e+00	 9.999720e+00
0	 9.703704e+00	 6.296296e+00	 1.000043e+01
0	 9.777778e+00	 5.925926e+00	 9.994871e+00
0	 9.777778e+00	 6.000000e+00	 9.996009e+00
0	 9.777778e+00	 6.074074e+00	 9.997047e+00
0	 9.777778e+00	 6.148148e+00	 9.997984e+00
0	 9.777778e+00	 6.222222e+00	 9.998820e+00
0	 9.777778e+00	 6.296296e+00	 9.999553e+00
0	 9.851852e+00	 5.925926e+00	 9.994046e+00
0	 9.851852e+00	 6.000000e+00	 9.995219e+00
0	 9.851852e+00	 6.074074e+00	 9.996288e+00
0	 9.851852e+00	 6.148148e+00	 9.997251e+00
0	 9.851852e+00	 6.222222e+00	 9.998109e+00
0	 9.851852e+00	 6.296296e+00	 9.998858e+00
0	 9.925926e+00	 5.925926e+00	 9.993456e+00
0	 9.925926e+00	 6.000000e+00	 9.994657e+00
0	 9.925926e+00	 6.074074e+00	 9.995748e+00
0	 9.925926e+00	 6.148148e+00	 9.996729e+00
0	 9.925926e+00	 6.222222e+00	 9.997599e+00
0	 9.925926e+00	 6.296296e+00	 9.998357e+00
0	 1.000000e+01	 5.925926e+00	 9.993115e+00
0	 1.000000e+01	 6.000000e+00	 9.994336e+00
0	 1.000000e+01	 6.074074e+00	 9.995441e+00
0	 1.000000e+01	 6.148148e+00	 9.996431e+00
0	 1.000000e+01	 6.222222e+00	 9.997305e+00
0	 1.000000e+01	 6.296296e+00	 9.998061e+00
0	 9.629630e+00	 6.296296e+00	 1.000147e+01
0	 9.629630e+00	 6.370370e+00	 1.000207e+01
0	 9.629630e+00	 6.444444e+00	 1.000259e+01
0	 9.629630e+00	 6.518519e+00	 1.000304e+01
0	 9.629630e+00	 6.592593e+00	 1.000341e+01
0	 9.629630e+00	 6.666667e+00	 1.000370e+01
0	 9.703704e+00	 6.296296e+00	 1.000043e+01
0	 9.703704e+00	 6.370370e+00	 1.000105e+01
0	 9.703704e+00	 6.444444e+00	 1.000160e+01
0	 9.703704e+00	 6.518519e+00	 1.000207e+01
0	 9.703704e+00	 6.592593e+00	 1.000246e+01
0	 9.703704e+00	 6.666667e+00	 1.000277e+01
0	 9.777778e+00	 6.296296e+00	 9.999553e+00
0	 9.777778e+00	 6.370370e+00	 1.000020e+01
0	 9.777778e+00	 6.444444e+00	 1.000076e+01
0	 9.777778e+00	 6.518519e+00	 1.000124e+01
0	 9.777778e+00	 6.592593e+00	 1.000164e+01
0	 9.777778e+00	 6.666667e+00	 1.000196e+01
0	 9.851852e+00	 6.296296e+00	 9.998858e+00
0	 9.851852e+00	 6.370370e+00	 9.999514e+00
0	 9.851852e+00	 6.444444e+00	 1.000009e+01
0	 9.851852e+00	 6.518519e+00	 1.000057e+01
0	 9.851852e+00	 6.592593e+00	 1.000098e+01
0	 9.851852e+00	 6.666667e+00	 1.000130e+01
0	 9.925926e+00	 6.296296e+00	 9.998357e+00
0	 9.925926e+00	 6.370370e+00	 9.999015e+00
0	 9.925926e+00	 6.444444e+00	 9.999588e+00
0	 9.925926e+00	 6.518519e+00	 1.000007e+01
0	 9.925926e+00	 6.592593e+00	 1.000047e+01
0	 9.925926e+00	 6.666667e+00	 1.000078e+01
0	 1.000000e+01	 6.296296e+00	 9.998061e+00
0	 1.000000e+01	 6.370370e+00	 9.998713e+00
0	 1.000000e+01	 6.444444e+00	 9.999275e+00
0	 1.000000e+01	 6.518519e+00	 9.999747e+00
0	 1.000000e+01	 6.592593e+00	 1.000013e+01
0	 1.000000e+01	 6.666667e+00	 1.000041e+01
0	 9.629630e+00	 6.666667e+00	 1.000370e+01
0	 9.629630e+00	 6.740741e+00	 1.000393e+01
0	 9.629630e+00	 6.814815e+00	 1.000411e+01
0	 9.629630e+00	 6.888889e+00	 1.000424e+01
0	 9.629630e+00	 6.962963e+00	 1.000431e+01
0	 9.629630e+00	 7.037037e+00	 1.000432e+01
0	 9.703704e+00	 6.666667e+00	 1.000277e+01
0	 9.703704e+00	 6.740741e+00	 1.000301e+01
0	 9.703704e+00	 6.814815e+00	 1.000320e+01
0	 9.703704e+00	 6.888889e+00	 1.000334e+01
0	 9.703704e+00	 6.962963e+00	 1.000341e+01
0	 9.703704e+00	 7.037037e+00	 1.000343e+01
0	 9.777778e+00	 6.666667e+00	 1.000196e+01
0	 9.777778e+00	 6.740741e+00	 1.000221e+01
0	 9.777778e+00	 6.814815e+00	 1.000241e+01
0	 9.777778e+00	 6.888889e+00	 1.000254e+01
0	 9.777778e+00	 6.962963e+00	 1.000262e+01
0	 9.777778e+00	 7.037037e+00	 1.000263e+01
0	 9.851852e+00	 6.666667e+00	 1.000130e+01
0	 9.851852e+00	 6.740741e+00	 1.000154e+01
0	 9.851852e+00	 6.814815e+00	 1.000173e+01
0	 9.851852e+00	 6.888889e+00	 1.000186e+01
0	 9.851852e+00	 6.962963e+00	 1.000193e+01
0	 9.851852e+00	 7.037037e+00	 1.000193e+01
0	 9.925926e+00	 6.666667e+00	 1.000078e+01
0	 9.925926e+00	 6.740741e+00	 1.000101e+01
0	 9.925926e+00	 6.814815e+00	 1.000118e+01
0	 9.925926e+00	 6.888889e+00	 1.000129e+01
0	 9.925926e+00	 6.962963e+00	 1.000134e+01
0	 9.925926e+00	 7.037037e+00	 1.000132e+01
0	 1.000000e+01	 6.666667e+00	 1.000041e+01
0	 1.000000e+01	 6.740741e+00	 1.000062e+01
0	 1.000000e+01	 6.814815e+00	 1.000077e+01
0	 1.000000e+01	 6.888889e+00	 1.000085e+01
0	 1.000000e+01	 6.962963e+00	 1.000087e+01
0	 1.000000e+01	 7.037037e+00	 1.000082e+01
0	 9.629630e+00	 7.037037e+00	 1.000432e+01
0	 9.629630e+00	 7.111111e+00	 1.000429e+01
0	 9.629630e+00	 7.185185e+00	 1.000422e+01
0	 9.629630e+00	 7.259259e+00	 1.000412e+01
0	 9.629630e+00	 7.333333e+00	 1.000399e+01
0	 9.629630e+00	 7.407407e+00	 1.000382e+01
0	 9.703704e+00	 7.037037e+00	 1.000343e+01
0	 9.703704e+00	 7.111111e+00	 1.000340e+01
0	 9.703704e+00	 7.185185e+00	 1.000334e+01
0	 9.703704e+00	 7.259259e+00	 1.000325e+01
0	 9.703704e+00	 7.333333e+00	 1.000312e+01
0	 9.703704e+00	 7.407407e+00	 1.000295e+01
0	 9.777778e+00	 7.037037e+00	 1.000263e+01
0	 9.777778e+00	 7.111111e+00	 1.000260e+01
0	 9.777778e+00	 7.185185e+00	 1.000254e+01
0	 9.777778e+00	 7.259259e+00	 1.000244e+01
0	 9.777778e+00	 7.333333e+00	 1.000230e+01
0	 9.777778e+00	 7.407407e+00	 1.000213e+01
0	 9.851852e+00	 7.037037e+00	 1.000193e+01
0	 9.851852e+00	 7.111111e+00	 1.000189e+01
0	 9.851852e+00	 7.185185e+00	 1.000181e+01
0	 9.851852e+00	 7.259259e+00	 1.000170e+01
0	 9.851852e+00	 7.333333e+00	 1.000155e+01
0	 9.851852e+00	 7.407407e+00	 1.000136e+01
0	 9.925926e+00	 7.037037e+00	 1.000132e+01
0	 9.925926e+00	 7.111111e+00	 1.000126e+01
0	 9.925926e+00	 7.185185e+00	 1.000116e+01
0	 9.925926e+00	 7.259259e+00	 1.000102e+01
0	 9.925926e+00	 7.333333e+00	 1.000085e+01
0	 9.925926e+00	 7.407407e+00	 1.000064e+01
0	 1.000000e+01	 7.037037e+00	 1.000082e+01
0	 1.000000e+01	 7.111111e+00	 1.000072e+01
0	 1.000000e+01	 7.185185e+00	 1.000058e+01
0	 1.000000e+01	 7.259259e+00	 1.000041e+01
0	 1.000000e+01	 7.333333e+00	 1.000021e+01
0	 1.000000e+01	 7.407407e+00	 9.999962e+00
0	 9.629630e+00	 7.407407e+00	 1.000382e+01
0	 9.629630e+00	 7.481481e+00	 1.000362e+01
0	 9.629630e+00	 7.555556e+00	 1.000342e+01
0	 9.629630e+00	 7.629630e+00	 1.000319e+01
0	 9.629630e+00	 7.703704e+00	 1.000295e+01
0	 9.629630e+00	 7.777778e+00	 1.000270e+01
0	 9.703704e+00	 7.407407e+00	 1.000295e+01
0	 9.703704e+00	 7.481481e+00	 1.000276e+01
0	 9.703704e+00	 7.555556e+00	 1.000255e+01
0	 9.703704e+00	 7.629630e+00	 1.000233e+01
0	 9.703704e+00	 7.703704e+00	 1.000210e+01
0	 9.703704e+00	 7.777778e+00	 1.000185e+01
0	 9.777778e+00	 7.407407e+00	 1.000213e+01
0	 9.777778e+00	 7.481481e+00	 1.000193e+01
0	 9.777778e+00	 7.555556e+00	 1.000172e+01
0	 9.777778e+00	 7.629630e+00	 1.000150e+01
0	 9.777778e+00	 7.703704e+00	 1.000127e+01
0	 9.777778e+00	 7.777778e+00	 1.000102e+01
0	 9.851852e+00	 7.407407e+00	 1.000136e+01
0	 9.851852e+00	 7.481481e+00	 1.000115e+01
0	 9.851852e+00	 7.555556e+00	 1.000093e+01
0	 9.851852e+00	 7.629630e+00	 1.000069e+01
0	 9.851852e+00	 7.703704e+00	 1.000045e+01
0	 9.851852e+00	 7.777778e+00	 1.000019e+01
0	 9.925926e+00	 7.407407e+00	 1.000064e+01
0	 9.925926e+00	 7.481481e+00	 1.000040e+01
0	 9.925926e+00	 7.555556e+00	 1.000016e+01
0	 9.925926e+00	 7.629630e+00	 9.999906e+00
0	 9.925926e+00	 7.703704e+00	 9.999641e+00
0	 9.925926e+00	 7.777778e+00	 9.999362e+00
0	 1.000000e+01	 7.407407e+00	 9.999962e+00
0	 1.000000e+01	 7.481481e+00	 9.999694e+00
0	 1.000000e+01	 7.555556e+00	 9.999418e+00
0	 1.000000e+01	 7.629630e+00	 9.999133e+00
0	 1.000000e+01	 7.703704e+00	 9.998839e+00
0	 1.000000e+01	 7.777778e+00	 9.998533e+00
0	 9.629630e+00	 7.777778e+00	 1.000270e+01
0	 9.629630e+00	 7.851852e+00	 1.000244e+01
0	 9.629630e+00	 7.925926e+00	 1.000218e+01
0	 9.629630e+00	 8.000000e+00	 1.000192e+01
0	 9.629630e+00	 8.074074e+00	 1.000167e+01
0	 9.629630e+00	 8.148148e+00	 1.000141e+01
0	 9.703704e+00	 7.777778e+00	 1.000185e+01
0	 9.703704e+00	 7.851852e+00	 1.000160e+01
0	 9.703704e+00	 7.925926e+00	 1.000134e+01
0	 9.703704e+00	 8.000000e+00	 1.000110e+01
0	 9.703704e+00	 8.074074e+00	 1.000086e+01
0	 9.703704e+00	 8.148148e+00	 1.000061e+01
0	 9.777778e+00	 7.777778e+00	 1.000102e+01
0	 9.777778e+00	 7.851852e+00	 1.000076e+01
0	 9.777778e+00	 7.925926e+00	 1.000051e+01
0	 9.777778e+00	 8.000000e+00	 1.000027e+01
0	 9.777778e+00	 8.074074e+00	 1.000003e+01
0	 9.777778e+00	 8.148148e+00	 9.999802e+00
0	 9.851852e+00	 7.777778e+00	 1.000019e+01
0	 9.851852e+00	 7.851852e+00	 9.999925e+00
0	 9.851852e+00	 7.925926e+00	 9.999672e+00
0	 9.851852e+00	 8.000000e+00	 9.999428e+00
0	 9.851852e+00	 8.074074e+00	 9.999192e+00
0	 9.851852e+00	 8.148148e+00	 9.998963e+00
0	 9.925926e+00	 7.777778e+00	 9.999362e+00
0	 9.925926e+00	 7.851852e+00	 9.999084e+00
0	 9.925926e+00	 7.925926e+00	 9.998819e+00
0	 9.925926e+00	 8.000000e+00	 9.998565e+00
0	 9.925926e+00	 8.074074e+00	 9.998322e+00
0	 9.925926e+00	 8.148148e+00	 9.998089e+00
0	 1.000000e+01	 7.777778e+00	 9.998533e+00
0	 1.000000e+01	 7.851852e+00	 9.998230e+00
0	 1.000000e+01	 7.925926e+00	 9.997943e+00
0	 1.000000e+01	 8.000000e+00	 9.997671e+00
0	 1.000000e+01	 8.074074e+00	 9.997413e+00
0	 1.000000e+01	 8.148148e+00	 9.997169e+00
0	 9.629630e+00	 8.148148e+00	 1.000141e+01
0	 9.629630e+00	 8.222222e+00	 1.000116e+01
0	 9.629630e+00	 8.296296e+00	 1.000093e+01
0	 9.629630e+00	 8.370370e+00	 1.000072e+01
0	 9.629630e+00	 8.444444e+00	 1.000051e+01
0	 9.629630e+00	 8.518519e+00	 1.000032e+01
0	 9.703704e+00	 8.148148e+00	 1.000061e+01
0	 9.703704e+00	 8.222222e+00	 1.000038e+01
0	 9.703704e+00	 8.296296e+00	 1.000017e+01
0	 9.703704e+00	 8.370370e+00	 9.999974e+00
0	 9.703704e+00	 8.444444e+00	 9.999794e+00
0	 9.703704e+00	 8.518519e+00	 9.999630e+00
0	 9.777778e+00	 8.148148e+00	 9.999802e+00
0	 9.777778e+00	 8.222222e+00	 9.999582e+00
0	 9.777778e+00	 8.296296e+00	 9.999384e+00
0	 9.777778e+00	 8.370370e+00	 9.999205e+00
0	 9.777778e+00	 8.444444e+00	 9.999046e+00
0	 9.777778e+00	 8.518519e+00	 9.998905e+00
0	 9.851852e+00	 8.148148e+00	 9.998963e+00
0	 9.851852e+00	 8.222222e+00	 9.998750e+00
0	 9.851852e+00	 8.296296e+00	 9.998561e+00
0	 9.851852e+00	 8.370370e+00	 9.998395e+00
0	 9.851852e+00	 8.444444e+00	 9.998253e+00
0	 9.851852e+00	 8.518519e+00	 9.998134e+00
0	 9.925926e+00	 8.148148e+00	 9.998089e+00
0	 9.925926e+00	 8.222222e+00	 9.997875e+00
0	 9.925926e+00	 8.296296e+00	 9.997690e+00
0	 9.925926e+00	 8.370370e+00	 9.997534e+00
0	 9.925926e+00	 8.444444e+00	 9.997405e+00
0	 9.925926e+00	 8.518519e+00	 9.997304e+00
0	 1.000000e+01	 8.148148e+00	 9.997169e+00
0	 1.000000e+01	 8.222222e+00	 9.996947e+00
0	 1.000000e+01	 8.296296e+00	 9.996761e+00
0	 1.000000e+01	 8.370370e+00	 9.996608e+00
0	 1.000000e+01	 8.444444e+00	 9.996489e+00
0	 1.000000e+01	 8.518519e+00	 9.996402e+00
0	 9.629630e+00	 8.518519e+00	 1.000032e+01
0	 9.629630e+00	 8.592593e+00	 1.000015e+01
0	 9.629630e+00	 8.666667e+00	 9.999996e+00
0	 9.629630e+00	 8.740741e+00	 9.999866e+00
0	 9.629630e+00	 8.814815e+00	 9.999756e+00
0	 9.629630e+00	 8.888889e+00	 9.999666e+00
0	 9.703704e+00	 8.518519e+00	 9.999630e+00
0	 9.703704e+00	 8.592593e+00	 9.999486e+00
0	 9.703704e+00	 8.666667e+00	 9.999365e+00
0	 9.703704e+00	 8.740741e+00	 9.999269e+00
0	 9.703704e+00	 8.814815e+00	 9.999196e+00
0	 9.703704e+00	 8.888889e+00	 9.999147e+00
0	 9.777778e+00	 8.518519e+00	 9.998905e+00
0	 9.777778e+00	 8.592593e+00	 9.998788e+00
0	 9.777778e+00	 8.666667e+00	 9.998698e+00
0	 9.777778e+00	 8.740741e+00	 9.998635e+00
0	 9.777778e+00	 8.814815e+00	 9.998600e+00
0	 9.777778e+00	 8.888889e+00	 9.998591e+00
0	 9.851852e+00	 8.518519e+00	 9.998134e+00
0	 9.851852e+00	 8.592593e+00	 9.998042e+00
0	 9.851852e+00	 8.666667e+00	 9.997981e+00
0	 9.851852e+00	 8.740741e+00	 9.997951e+00
0	 9.851852e+00	 8.814815e+00	 9.997953e+00
0	 9.851852e+00	 8.888889e+00	 9.997985e+00
0	 9.925926e+00	 8.518519e+00	 9.997304e+00
0	 9.925926e+00	 8.592593e+00	 9.997234e+00
0	 9.925926e+00	 8.666667e+00	 9.997201e+00
0	 9.925926e+00	 8.740741e+00	 9.997204e+00
0	 9.925926e+00	 8.814815e+00	 9.997243e+00
0	 9.925926e+00	 8.888889e+00	 9.997317e+00
0	 1.000000e+01	 8.518519e+00	 9.996402e+00
0	 1.000000e+01	 8.592593e+00	 9.996353e+00
0	 1.000000e+01	 8.666667e+00	 9.996346e+00
0	 1.000000e+01	 8.740741e+00	 9.996380e+00
0	 1.000000e+01	 8.814815e+00	 9.996456e+00
0	 1.000000e+01	 8.888889e+00	 9.996574e+00
0	 9.629630e+00	 8.888889e+00	 9.999666e+00
0	 9.629630e+00	 8.962963e+00	 9.999596e+00
0	 9.629630e+00	 9.037037e+00	 9.999546e+00
0	 9.629630e+00	 9.111111e+00	 9.999514e+00
0	 9.629630e+00	 9.185185e+00	 9.999500e+00
0	 9.629630e+00	 9.259259e+00	 9.999506e+00
0	 9.703704e+00	 8.888889e+00	 9.999147e+00
0	 9.703704e+00	 8.962963e+00	 9.999119e+00
0	 9.703704e+00	 9.037037e+00	 9.999110e+00
0	 9.703704e+00	 9.111111e+00	 9.999121e+00
0	 9.703704e+00	 9.185185e+00	 9.999152e+00
0	 9.703704e+00	 9.259259e+00	 9.999203e+00
0	 9.777778e+00	 8.888889e+00	 9.998591e+00
0	 9.777778e+00	 8.962963e+00	 9.998606e+00
0	 9.777778e+00	 9.037037e+00	 9.998642e+00
0	 9.777778e+00	 9.111111e+00	 9.998699e+00
0	 9.777778e+00	 9.185185e+00	 9.998778e+00
0	 9.777778e+00	 9.259259e+00	 9.998879e+00
0	 9.851852e+00	 8.888889e+00	 9.997985e+00
0	 9.851852e+00	 8.962963e+00	 9.998045e+00
0	 9.851852e+00	 9.037037e+00	 9.998129e+00
0	 9.851852e+00	 9.111111e+00	 9.998237e+00
0	 9.851852e+00	 9.185185e+00	 9.998371e+00
0	 9.851852e+00	 9.259259e+00	 9.998530e+00
0	 9.925926e+00	 8.888889e+00	 9.997317e+00
0	 9.925926e+00	 8.962963e+00	 9.997424e+00
0	 9.925926e+00	 9.037037e+00	 9.997560e+00
0	 9.925926e+00	 9.111111e+00	 9.997727e+00
0	 9.925926e+00	 9.185185e+00	 9.997924e+00
0	 9.925926e+00	 9.259259e+00	 9.998152e+00
0	 1.000000e+01	 8.888889e+00	 9.996574e+00
0	 1.000000e+01	 8.962963e+00	 9.996730e+00
0	 1.000000e+01	 9.037037e+00	 9.996924e+00
0	 1.000000e+01	 9.111111e+00	 9.997157e+00
0	 1.000000e+01	 9.185185e+00	 9.997430e+00
0	 1.000000e+01	 9.259259e+00	 9.997743e+00
0	 9.629630e+00	 9.259259e+00	 9.999506e+00
0	 9.629630e+00	 9.333333e+00	 9.999527e+00
0	 9.629630e+00	 9.407407e+00	 9.999561e+00
0	 9.629630e+00	 9.481481e+00	 9.999608e+00
0	 9.629630e+00	 9.555556e+00	 9.999670e+00
0	 9.629630e+00	 9.629630e+00	 9.999746e+00
0	 9.703704e+00	 9.259259e+00	 9.999203e+00
0	 9.703704e+00	 9.333333e+00	 9.999269e+00
0	 9.703704e+00	 9.407407e+00	 9.999345e+00
0	 9.703704e+00	 9.481481e+00	 9.999432e+00
0	 9.703704e+00	 9.555556e+00	 9.999529e+00
0	 9.703704e+00	 9.629630e+00	 9.999638e+00
0	 9.777778e+00	 9.259259e+00	 9.998879e+00
0	 9.777778e+00	 9.333333e+00	 9.998994e+00
0	 9.777778e+00	 9.407407e+00	 9.999116e+00
0	 9.777778e+00	 9.481481e+00	 9.999246e+00
0	 9.777778e+00	 9.555556e+00	 9.999383e+00
0	 9.777778e+00	 9.629630e+00	 9.999527e+00
0	 9.851852e+00	 9.259259e+00	 9.998530e+00
0	 9.851852e+00	 9.333333e+00	 9.998703e+00
0	 9.851852e+00	 9.407407e+00	 9.998880e+00
0	 9.851852e+00	 9.481481e+00	 9.999060e+00
0	 9.851852e+00	 9.555556e+00	 9.999244e+00
0	 9.851852e+00	 9.629630e+00	 9.999434e+00
0	 9.925926e+00	 9.259259e+00	 9.998152e+00
0	 9.925926e+00	 9.333333e+00	 9.998397e+00
0	 9.925926e+00	 9.407407e+00	 9.998640e+00
0	 9.925926e+00	 9.481481e+00	 9.998883e+00
0	 9.925926e+00	 9.555556e+00	 9.999129e+00
0	 9.925926e+00	 9.629630e+00	 9.999377e+00
0	 1.000000e+01	 9.259259e+00	 9.997743e+00
0	 1.000000e+01	 9.333333e+00	 9.998075e+00
0	 1.000000e+01	 9.407407e+00	 9.998401e+00
0	 1.000000e+01	 9.481481e+00	 9.998726e+00
0	 1.000000e+01	 9.555556e+00	 9.999050e+00
0	 1.000000e+01	 9.629630e+00	 9.999376e+00
0	 9.629630e+00	 9.629630e+00	 9.999746e+00
0	 9.629630e+00	 9.703704e+00	 9.999817e+00
0	 9.629630e+00	 9.777778e+00	 9.999873e+00
0	 9.629630e+00	 9.851852e+00	 9.999921e+00
0	 9.629630e+00	 9.925926e+00	 9.999973e+00
0	 9.629630e+00	 1.000000e+01	 1.000004e+01
0	 9.703704e+00	 9.629630e+00	 9.999638e+00
0	 9.703704e+00	 9.703704e+00	 9.999738e+00
0	 9.703704e+00	 9.777778e+00	 9.999818e+00
0	 9.703704e+00	 9.851852e+00	 9.999888e+00
0	 9.703704e+00	 9.925926e+00	 9.999960e+00
0	 9.703704e+00	 1.000000e+01	 1.000004e+01
0	 9.777778e+00	 9.629630e+00	 9.999527e+00
0	 9.777778e+00	 9.703704e+00	 9.999660e+00
0	 9.777778e+00	 9.777778e+00	 9.999766e+00
0	 9.777778e+00	 9.851852e+00	 9.999857e+00
0	 9.777778e+00	 9.925926e+00	 9.999943e+00
0	 9.777778e+00	 1.000000e+01	 1.000004e+01
0	 9.851852e+00	 9.629630e+00	 9.999434e+00
0	 9.851852e+00	 9.703704e+00	 9.999605e+00
0	 9.851852e+00	 9.777778e+00	 9.999740e+00
0	 9.851852e+00	 9.851852e+00	 9.999848e+00
0	 9.851852e+00	 9.925926e+00	 9.999941e+00
0	 9.851852e+00	 1.000000e+01	 1.000003e+01
0	 9.925926e+00	 9.629630e+00	 9.999377e+00
0	 9.925926e+00	 9.703704e+00	 9.999598e+00
0	 9.925926e+00	 9.777778e+00	 9.999765e+00
0	 9.925926e+00	 9.851852e+00	 9.999886e+00
0	 9.925926e+00	 9.925926e+00	 9.999969e+00
0	 9.925926e+00	 1.000000e+01	 1.000002e+01
0	 1.000000e+01	 9.629630e+00	 9.999376e+00
0	 1.000000e+01	 9.703704e+00	 9.999661e+00
0	 1.000000e+01	 9.777778e+00	 9.999865e+00
0	 1.000000e+01	 9.851852e+00	 9.999992e+00
0	 1.000000e+01	 9.925926e+00	 1.000005e+01
0	 1.000000e+01	 1.000000e+01	 1.000003e+01
1	 1.000000e+00	 0.000000e+00	 3.174577e+01
1	 9.999449e-01	 1.049814e-02	 3.165111e+01
1	 9.997786e-01	 2.104029e-02	 3.155043e+01
1	 9.994998e-01	 3.162495e-02	 3.144312e+01
1	 9.991070e-01	 4.225058e-02	 3.132857e+01
1	 9.985990e-01	 5.291561e-02	 3.120626e+01
1	 1.007407e+00	 0.000000e+00	 3.127573e+01
1	 1.007352e+00	 1.057591e-02	 3.117786e+01
1	 1.007184e+00	 2.119614e-02	 3.107546e+01
1	 1.006904e+00	 3.185921e-02	 3.096792e+01
1	 1.006508e+00	 4.256355e-02	 3.085468e+01
1	 1.005996e+00	 5.330758e-02	 3.073521e+01
1	 1.014815e+00	 0.000000e+00	 3.082441e+01
1	 1.014759e+00	 1.065367e-02	 3.072341e+01
1	 1.014590e+00	 2.135200e-02	 3.061931e+01
1	 1.014307e+00	 3.209346e-02	 3.051150e+01
1	 1.013909e+00	 4.287651e-02	 3.039944e+01
1	 1.013393e+00	 5.369955e-02	 3.028259e+01
1	 1.022222e+00	 0.000000e+00	 3.039065e+01
1	 1.022166e+00	 1.073144e-02	 3.028649e+01
1	 1.021996e+00	 2.150785e-02	 3.018065e+01
1	 1.021711e+00	 3.232772e-02	 3.007252e+01
1	 1.021309e+00	 4.318948e-02	 2.996151e+01
1	 1.020790e+00	 5.409151e-02	 2.984708e+01
1	 1.029630e+00	 0.000000e+00	 2.997334e+01
1	 1.029573e+00	 1.080920e-02	 2.986590e+01
1	 1.029402e+00	 2.166371e-02	 2.975821e+01
1	 1.029115e+00	 3.256198e-02	 2.964963e+01
1	 1.028710e+00	 4.350245e-02	 2.953956e+01
1	 1.028187e+00	 5.448348e-02	 2.942739e+01
1	 1.037037e+00	 0.000000e+00	 2.957139e+01
1	 1.036980e+00	 1.088696e-02	 2.946045e+01
1	 1.036807e+00	 2.181956e-02	 2.935074e+01
1	 1.036518e+00	 3.279624e-02	 2.924158e+01
1	 1.036111e+00	 4.381542e-02	 2.913230e+01
1	 1.035584e+00	 5.487545e-02	 2.902226e+01
1	 9.985990e-01	 5.291561e-02	 3.120626e+01
1	 9.979743e-01	 6.361843e-02	 3.107621e+01
1	 9.972317e-01	 7.435736e-02	 3.093850e+01
1	 9.963698e-01	 8.513072e-02	 3.079264e+01
1	 9.953874e-01	 9.593675e-02	 3.063823e+01
1	 9.942834e-01	 1.067737e-01	 3.047485e+01
1	 1.005996e+00	 5.330758e-02	 3.073521e+01
1	 1.005367e+00	 6.408967e-02	 3.060937e+01
1	 1.004619e+00	 7.490816e-02	 3.047696e+01
1	 1.003750e+00	 8.576131e-02	 3.033748e+01
1	 1.002761e+00	 9.664739e-02	 3.019043e+01
1	 1.001648e+00	 1.075646e-01	 3.003534e+01
1	 1.013393e+00	 5.369955e-02	 3.028259e+01
1	 1.012759e+00	 6.456092e-02	 3.016070e+01
1	 1.012005e+00	 7.545895e-02	 3.003346e+01
1	 1.011131e+00	 8.639191e-02	 2.990027e+01
1	 1.010134e+00	 9.735803e-02	 2.976059e+01
1	 1.009013e+00	 1.083555e-01	 2.961389e+01
1	 1.020790e+00	 5.409151e-02	 2.984708e+01
1	 1.020152e+00	 6.503217e-02	 2.972894e+01
1	 1.019392e+00	 7.600975e-02	 2.960672e+01
1	 1.018511e+00	 8.702251e-02	 2.947975e+01
1	 1.017507e+00	 9.806867e-02	 2.934743e+01
1	 1.016379e+00	 1.091464e-01	 2.920917e+01
1	 1.028187e+00	 5.448348e-02	 2.942739e+01
1	 1.027544e+00	 6.550342e-02	 2.931284e+01
1	 1.026779e+00	 7.656054e-02	 2.919550e+01
1	 1.025892e+00	 8.765311e-02	 2.907468e+01
1	 1.024880e+00	 9.877932e-02	 2.894969e+01
1	 1.023744e+00	 1.099373e-01	 2.881988e+01
1	 1.035584e+00	 5.487545e-02	 2.902226e+01
1	 1.034936e+00	 6.597466e-02	 2.891117e+01
1	 1.034166e+00	 7.711134e-02	 2.879863e+01
1	 1.033272e+00	 8.828371e-02	 2.868386e+01
1	 1.032254e+00	 9.948996e-02	 2.856613e+01
1	 1.031109e+00	 1.107283e-01	 2.844474e+01
1	 9.942834e-01	 1.067737e-01	 3.047485e+01
1	 9.930563e-01	 1.176397e-01	 3.030179e+01
1	 9.917053e-01	 1.285329e-01	 3.011825e+01
1	 9.902289e-01	 1.394514e-01	 2.992377e+01
1	 9.886263e-01	 1.503932e-01	 2.971797e+01
1	 9.868962e-01	 1.613564e-01	 2.950050e+01
1	 1.001648e+00	 1.075646e-01	 3.003534e+01
1	 1.000412e+00	 1.185111e-01	 2.987162e+01
1	 9.990512e-01	 1.294850e-01	 2.969862e+01
1	 9.975640e-01	 1.404843e-01	 2.951584e+01
1	 9.959494e-01	 1.515072e-01	 2.932284e+01
1	 9.942065e-01	 1.625517e-01	 2.911923e+01
1	 1.009013e+00	 1.083555e-01	 2.961389e+01
1	 1.007768e+00	 1.193825e-01	 2.945961e+01
1	 1.006397e+00	 1.304371e-01	 2.929714e+01
1	 1.004899e+00	 1.415173e-01	 2.912593e+01
1	 1.003273e+00	 1.526213e-01	 2.894548e+01
1	 1.001517e+00	 1.637469e-01	 2.875535e+01
1	 1.016379e+00	 1.091464e-01	 2.920917e+01
1	 1.015124e+00	 1.202539e-01	 2.906439e+01
1	 1.013743e+00	 1.313891e-01	 2.891243e+01
1	 1.012234e+00	 1.425503e-01	 2.875269e+01
1	 1.010596e+00	 1.537353e-01	 2.858461e+01
1	 1.008827e+00	 1.649421e-01	 2.840767e+01
1	 1.023744e+00	 1.099373e-01	 2.881988e+01
1	 1.022480e+00	 1.211253e-01	 2.868460e+01
1	 1.021089e+00	 1.323412e-01	 2.854312e+01
1	 1.019569e+00	 1.435833e-01	 2.839477e+01
1	 1.017919e+00	 1.548493e-01	 2.823893e+01
1	 1.016138e+00	 1.661374e-01	 2.807501e+01
1	 1.031109e+00	 1.107283e-01	 2.844474e+01
1	 1.029836e+00	 1.219967e-01	 2.831893e+01
1	 1.028435e+00	 1.332933e-01	 2.818789e+01
1	 1.026904e+00	 1.446162e-01	 2.805089e+01
1	 1.025242e+00	 1.559633e-01	 2.790723e+01
1	 1.023448e+00	 1.673326e-01	 2.775624e+01
1	 9.868962e-01	 1.613564e-01	 2.950050e+01
1	 9.850377e-01	 1.723390e-01	 2.927106e+01
1	 9.830498e-01	 1.833389e-01	 2.902949e+01
1	 9.809315e-01	 1.943540e-01	 2.877586e+01
1	 9.786818e-01	 2.053822e-01	 2.851023e+01
1	 9.763001e-01	 2.164213e-01	 2.823275e+01
1	 9.942065e-01	 1.625517e-01	 2.911923e+01
1	 9.923343e-01	 1.736156e-01	 2.890444e+01
1	 9.903316e-01	 1.846970e-01	 2.867810e+01
1	 9.881976e-01	 1.957937e-01	 2.844024e+01
1	 9.859313e-01	 2.069035e-01	 2.819092e+01
1	 9.835319e-01	 2.180244e-01	 2.793025e+01
1	 1.001517e+00	 1.637469e-01	 2.875535e+01
1	 9.996308e-01	 1.748922e-01	 2.855482e+01
1	 9.976135e-01	 1.860550e-01	 2.834339e+01
1	 9.954638e-01	 1.972333e-01	 2.812104e+01
1	 9.931808e-01	 2.084249e-01	 2.788782e+01
1	 9.907638e-01	 2.196275e-01	 2.764383e+01
1	 1.008827e+00	 1.649421e-01	 2.840767e+01
1	 1.006927e+00	 1.761688e-01	 2.822109e+01
1	 1.004895e+00	 1.874131e-01	 2.802431e+01
1	 1.002730e+00	 1.986730e-01	 2.781726e+01
1	 1.000430e+00	 2.099462e-01	 2.759996e+01
1	 9.979956e-01	 2.212306e-01	 2.737247e+01
1	 1.016138e+00	 1.661374e-01	 2.807501e+01
1	 1.014224e+00	 1.774454e-01	 2.790218e+01
1	 1.012177e+00	 1.887712e-01	 2.771985e+01
1	 1.009996e+00	 2.001126e-01	 2.752793e+01
1	 1.007680e+00	 2.114676e-01	 2.732636e+01
1	 1.005227e+00	 2.228337e-01	 2.711518e+01
1	 1.023448e+00	 1.673326e-01	 2.775624e+01
1	 1.021521e+00	 1.787220e-01	 2.759705e+01
1	 1.019459e+00	 1.901292e-01	 2.742905e+01
1	 1.017262e+00	 2.015523e-01	 2.725210e+01
1	 1.014929e+00	 2.129889e-01	 2.706609e+01
1	 1.012459e+00	 2.244369e-01	 2.687100e+01
1	 9.763001e-01	 2.164213e-01	 2.823275e+01
1	 9.737853e-01	 2.274691e-01	 2.794227e+01
1	 9.711368e-01	 2.385234e-01	 2.763769e+01
1	 9.683537e-01	 2.495819e-01	 2.731930e+01
1	 9.654354e-01	 2.606423e-01	 2.698742e+01
1	 9.623813e-01	 2.717024e-01	 2.664246e+01
1	 9.835319e-01	 2.180244e-01	 2.793025e+01
1	 9.809985e-01	 2.291540e-01	 2.765704e+01
1	 9.783304e-01	 2.402902e-01	 2.737009e+01
1	 9.755267e-01	 2.514306e-01	 2.706961e+01
1	 9.725868e-01	 2.625730e-01	 2.675586e+01
1	 9.695101e-01	 2.737150e-01	 2.642916e+01
1	 9.907638e-01	 2.196275e-01	 2.764383e+01
1	 9.882118e-01	 2.308390e-01	 2.738771e+01
1	 9.855240e-01	 2.420570e-01	 2.711813e+01
1	 9.826997e-01	 2.532794e-01	 2.683522e+01
1	 9.797382e-01	 2.645037e-01	 2.653921e+01
1	 9.766388e-01	 2.757276e-01	 2.623032e+01
1	 9.979956e-01	 2.212306e-01	 2.737247e+01
1	 9.954250e-01	 2.325239e-01	 2.713324e+01
1	 9.927176e-01	 2.438239e-01	 2.688073e+01
1	 9.898727e-01	 2.551281e-01	 2.661505e+01
1	 9.868896e-01	 2.664344e-01	 2.633636e+01
1	 9.837676e-01	 2.777402e-01	 2.604486e+01
1	 1.005227e+00	 2.228337e-01	 2.711518e+01
1	 1.002638e+00	 2.342089e-01	 2.689260e+01
1	 9.999112e-01	 2.455907e-01	 2.665685e+01
1	 9.970457e-01	 2.569769e-01	 2.640802e+01
1	 9.940409e-01	 2.683651e-01	 2.614623e+01
1	 9.908963e-01	 2.797528e-01	 2.587168e+01
1	 1.012459e+00	 2.244369e-01	 2.687100e+01
1	 1.009851e+00	 2.358938e-01	 2.666479e+01
1	 1.007105e+00	 2.473576e-01	 2.644546e+01
1	 1.004219e+00	 2.588256e-01	 2.621308e+01
1	 1.001192e+00	 2.702957e-01	 2.596779e+01
1	 9.980251e-01	 2.817654e-01	 2.570974e+01
1	 9.623813e-01	 2.717024e-01	 2.664246e+01
1	 9.591908e-01	 2.827597e-01	 2.628482e+01
1	 9.558632e-01	 2.938119e-01	 2.591541e+01
1	 9.523983e-01	 3.048566e-01	 2.553550e+01
1	 9.487954e-01	 3.158914e-01	 2.514647e+01
1	 9.450542e-01	 3.269137e-01	 2.474979e+01
1	 9.695101e-01	 2.737150e-01	 2.642916e+01
1	 9.662959e-01	 2.848542e-01	 2.609005e+01
1	 9.629437e-01	 2.959883e-01	 2.573972e+01
1	 9.594531e-01	 3.071148e-01	 2.537947e+01
1	 9.558235e-01	 3.182313e-01	 2.501074e+01
1	 9.520546e-01	 3.293353e-01	 2.463503e+01
1	 9.766388e-01	 2.757276e-01	 2.623032e+01
1	 9.734010e-01	 2.869488e-01	 2.590930e+01
1	 9.700242e-01	 2.981647e-01	 2.557755e+01
1	 9.665079e-01	 3.093730e-01	 2.523643e+01
1	 9.628516e-01	 3.205713e-01	 2.488739e+01
1	 9.590550e-01	 3.317569e-01	 2.453198e+01
1	 9.837676e-01	 2.777402e-01	 2.604486e+01
1	 9.805061e-01	 2.890433e-01	 2.574147e+01
1	 9.771047e-01	 3.003411e-01	 2.542783e+01
1	 9.735627e-01	 3.116312e-01	 2.510531e+01
1	 9.698797e-01	 3.229112e-01	 2.477538e+01
1	 9.660554e-01	 3.341785e-01	 2.443961e+01
1	 9.908963e-01	 2.797528e-01	 2.587168e+01
1	 9.876112e-01	 2.911378e-01	 2.558547e+01
1	 9.841851e-01	 3.025175e-01	 2.528948e+01
1	 9.806175e-01	 3.138894e-01	 2.498506e+01
1	 9.769078e-01	 3.252511e-01	 2.467370e+01
1	 9.730558e-01	 3.366001e-01	 2.435694e+01
1	 9.980251e-01	 2.817654e-01	 2.570974e+01
1	 9.947164e-01	 2.932323e-01	 2.544028e+01
1	 9.912656e-01	 3.046939e-01	 2.516147e+01
1	 9.876723e-01	 3.161476e-01	 2.487467e+01
1	 9.839359e-01	 3.275911e-01	 2.458133e+01
1	 9.800562e-01	 3.390217e-01	 2.428299e+01
1	 9.450542e-01	 3.269137e-01	 2.474979e+01
1	 9.411744e-01	 3.379212e-01	 2.434241e+01
1	 9.371557e-01	 3.489113e-01	 2.392055e+01
1	 9.329980e-01	 3.598816e-01	 2.348451e+01
1	 9.287010e-01	 3.708294e-01	 2.303445e+01
1	 9.242647e-01	 3.817523e-01	 2.257043e+01
1	 9.520546e-01	 3.293353e-01	 2.463503e+01
1	 9.481461e-01	 3.404243e-01	 2.424799e+01
1	 9.440976e-01	 3.514959e-01	 2.384443e+01
1	 9.399091e-01	 3.625474e-01	 2.342453e+01
1	 9.355803e-01	 3.735763e-01	 2.298837e+01
1	 9.311111e-01	 3.845801e-01	 2.253591e+01
1	 9.590550e-01	 3.317569e-01	 2.453198e+01
1	 9.551177e-01	 3.429275e-01	 2.416446e+01
1	 9.510395e-01	 3.540804e-01	 2.377816e+01
1	 9.468202e-01	 3.652132e-01	 2.337324e+01
1	 9.424595e-01	 3.763232e-01	 2.294966e+01
1	 9.379575e-01	 3.874079e-01	 2.250730e+01
1	 9.660554e-01	 3.341785e-01	 2.443961e+01
1	 9.620894e-01	 3.454306e-01	 2.409081e+01
1	 9.579814e-01	 3.566649e-01	 2.372082e+01
1	 9.537313e-01	 3.678790e-01	 2.332972e+01
1	 9.493388e-01	 3.790701e-01	 2.291744e+01
1	 9.448039e-01	 3.902357e-01	 2.248377e+01
1	 9.730558e-01	 3.366001e-01	 2.435694e+01
1	 9.690610e-01	 3.479337e-01	 2.402608e+01
1	 9.649233e-01	 3.592495e-01	 2.367146e+01
1	 9.606424e-01	 3.705447e-01	 2.329310e+01
1	 9.562181e-01	 3.818170e-01	 2.289089e+01
1	 9.516503e-01	 3.930635e-01	 2.246455e+01
1	 9.800562e-01	 3.390217e-01	 2.428299e+01
1	 9.760327e-01	 3.504368e-01	 2.396935e+01
1	 9.718652e-01	 3.618340e-01	 2.362919e+01
1	 9.675535e-01	 3.732105e-01	 2.326252e+01
1	 9.630973e-01	 3.845639e-01	 2.286918e+01
1	 9.584967e-01	 3.958913e-01	 2.244886e+01
1	 9.242647e-01	 3.817523e-01	 2.257043e+01
1	 9.196890e-01	 3.926477e-01	 2.208023e+01
1	 9.149739e-01	 4.035130e-01	 2.155220e+01
1	 9.101196e-01	 4.143457e-01	 2.098718e+01
1	 9.051262e-01	 4.251431e-01	 2.038601e+01
1	 8.999938e-01	 4.359027e-01	 1.974949e+01
1	 9.311111e-01	 3.845801e-01	 2.253591e+01
1	 9.265015e-01	 3.955562e-01	 2.205543e+01
1	 9.217515e-01	 4.065020e-01	 2.153589e+01
1	 9.168612e-01	 4.174149e-01	 2.097820e+01
1	 9.118308e-01	 4.282923e-01	 2.038321e+01
1	 9.066604e-01	 4.391316e-01	 1.975180e+01
1	 9.379575e-01	 3.874079e-01	 2.250730e+01
1	 9.333140e-01	 3.984647e-01	 2.203504e+01
1	 9.285291e-01	 4.094910e-01	 2.152258e+01
1	 9.236028e-01	 4.204841e-01	 2.097083e+01
1	 9.185354e-01	 4.314415e-01	 2.038073e+01
1	 9.133271e-01	 4.423605e-01	 1.975316e+01
1	 9.448039e-01	 3.902357e-01	 2.248377e+01
1	 9.401265e-01	 4.013732e-01	 2.201831e+01
1	 9.353067e-01	 4.124800e-01	 2.151154e+01
1	 9.303445e-01	 4.235534e-01	 2.096441e+01
1	 9.252401e-01	 4.345907e-01	 2.037791e+01
1	 9.199937e-01	 4.455894e-01	 1.975297e+01
1	 9.516503e-01	 3.930635e-01	 2.246455e+01
1	 9.469390e-01	 4.042817e-01	 2.200449e+01
1	 9.420842e-01	 4.154690e-01	 2.150207e+01
1	 9.370861e-01	 4.266226e-01	 2.095827e+01
1	 9.319447e-01	 4.377399e-01	 2.037412e+01
1	 9.266603e-01	 4.488183e-01	 1.975062e+01
1	 9.584967e-01	 3.958913e-01	 2.244886e+01
1	 9.537515e-01	 4.071902e-01	 2.199287e+01
1	 9.488618e-01	 4.184580e-01	 2.149349e+01
1	 9.438277e-01	 4.296918e-01	 2.095177e+01
1	 9.386493e-01	 4.408891e-01	 2.036877e+01
1	 9.333269e-01	 4.520472e-01	 1.974554e+01
1	 8.999938e-01	 4.359027e-01	 1.974949e+01
1	 8.947229e-01	 4.466218e-01	 1.908791e+01
1	 8.893136e-01	 4.572978e-01	 1.841120e+01
1	 8.837665e-01	 4.679282e-01	 1.771963e+01
1	 8.780819e-01	 4.785104e-01	 1.701344e+01
1	 8.722604e-01	 4.890417e-01	 1.629286e+01
1	 9.066604e-01	 4.391316e-01	 1.975180e+01
1	 9.013504e-01	 4.499301e-01	 1.909440e+01
1	 8.959011e-01	 4.606852e-01	 1.842107e+01
1	 8.903129e-01	 4.713944e-01	 1.773210e+01
1	 8.845862e-01	 4.820549e-01	 1.702775e+01
1	 8.787216e-01	 4.926642e-01	 1.630827e+01
1	 9.133271e-01	 4.423605e-01	 1.975316e+01
1	 9.079780e-01	 4.532384e-01	 1.909873e+01
1	 9.024886e-01	 4.640726e-01	 1.842762e+01
1	 8.968593e-01	 4.748605e-01	 1.774011e+01
1	 8.910905e-01	 4.855994e-01	 1.703646e+01
1	 8.851828e-01	 4.962867e-01	 1.631695e+01
1	 9.199937e-01	 4.455894e-01	 1.975297e+01
1	 9.146056e-01	 4.565467e-01	 1.910033e+01
1	 9.090761e-01	 4.674600e-01	 1.843028e+01
1	 9.034057e-01	 4.783267e-01	 1.774309e+01
1	 8.975948e-01	 4.891440e-01	 1.703903e+01
1	 8.916440e-01	 4.999093e-01	 1.631836e+01
1	 9.266603e-01	 4.488183e-01	 1.975062e+01
1	 9.212332e-01	 4.598550e-01	 1.909862e+01
1	 9.156636e-01	 4.708474e-01	 1.842849e+01
1	 9.099521e-01	 4.817928e-01	 1.774050e+01
1	 9.040991e-01	 4.926885e-01	 1.703490e+01
1	 8.981052e-01	 5.035318e-01	 1.631194e+01
1	 9.333269e-01	 4.520472e-01	 1.974554e+01
1	 9.278607e-01	 4.631633e-01	 1.909304e+01
1	 9.222511e-01	 4.742348e-01	 1.842172e+01
1	 9.164986e-01	 4.852589e-01	 1.773182e+01
1	 9.106034e-01	 4.962330e-01	 1.702357e+01
1	 9.045664e-01	 5.071543e-01	 1.629721e+01
1	 8.722604e-01	 4.890417e-01	 1.629286e+01
1	 8.663026e-01	 4.995195e-01	 1.556334e+01
1	 8.602092e-01	 5.099413e-01	 1.483086e+01
1	 8.539809e-01	 5.203044e-01	 1.409649e+01
1	 8.476184e-01	 5.306063e-01	 1.336137e+01
1	 8.411226e-01	 5.408444e-01	 1.262668e+01
1	 8.787216e-01	 4.926642e-01	 1.630827e+01
1	 8.727197e-01	 5.032196e-01	 1.557958e+01
1	 8.665811e-01	 5.137186e-01	 1.484802e+01
1	 8.603067e-01	 5.241585e-01	 1.411455e+01
1	 8.538971e-01	 5.345367e-01	 1.338017e+01
1	 8.473532e-01	 5.448507e-01	 1.264591e+01
1	 8.851828e-01	 4.962867e-01	 1.631695e+01
1	 8.791368e-01	 5.069198e-01	 1.558789e+01
1	 8.729531e-01	 5.174959e-01	 1.485595e+01
1	 8.666325e-01	 5.280126e-01	 1.412199e+01
1	 8.601757e-01	 5.384671e-01	 1.338688e+01
1	 8.535837e-01	 5.488569e-01	 1.265156e+01
1	 8.916440e-01	 4.999093e-01	 1.631836e+01
1	 8.855538e-01	 5.106199e-01	 1.558773e+01
1	 8.793250e-01	 5.212733e-01	 1.485413e+01
1	 8.729582e-01	 5.318667e-01	 1.411832e+01
1	 8.664544e-01	 5.423975e-01	 1.338109e+01
1	 8.598143e-01	 5.528632e-01	 1.264327e+01
1	 8.981052e-01	 5.035318e-01	 1.631194e+01
1	 8.919709e-01	 5.143201e-01	 1.557858e+01
1	 8.856969e-01	 5.250506e-01	 1.484206e+01
1	 8.792840e-01	 5.357208e-01	 1.410308e+01
1	 8.727330e-01	 5.463280e-01	 1.336237e+01
1	 8.660448e-01	 5.568695e-01	 1.262068e+01
1	 9.045664e-01	 5.071543e-01	 1.629721e+01
1	 8.983879e-01	 5.180202e-01	 1.555993e+01
1	 8.920688e-01	 5.288280e-01	 1.481925e+01
1	 8.856098e-01	 5.395749e-01	 1.407582e+01
1	 8.790117e-01	 5.502584e-01	 1.333032e+01
1	 8.722753e-01	 5.608757e-01	 1.258345e+01
1	 8.411226e-01	 5.408444e-01	 1.262668e+01
1	 8.344945e-01	 5.510163e-01	 1.190006e+01
1	 8.277350e-01	 5.611192e-01	 1.118863e+01
1	 8.208451e-01	 5.711508e-01	 1.049284e+01
1	 8.138260e-01	 5.811086e-01	 9.813193e+00
1	 8.066789e-01	 5.909900e-01	 9.150184e+00
1	 8.473532e-01	 5.448507e-01	 1.264591e+01
1	 8.406760e-01	 5.550979e-01	 1.191923e+01
1	 8.338664e-01	 5.652757e-01	 1.120728e+01
1	 8.269255e-01	 5.753816e-01	 1.051074e+01
1	 8.198544e-01	 5.854131e-01	 9.830328e+00
1	 8.126543e-01	 5.953677e-01	 9.166783e+00
1	 8.535837e-01	 5.488569e-01	 1.265156e+01
1	 8.468574e-01	 5.591795e-01	 1.192343e+01
1	 8.399977e-01	 5.694321e-01	 1.120981e+01
1	 8.330058e-01	 5.796123e-01	 1.051154e+01
1	 8.258827e-01	 5.897176e-01	 9.829499e+00
1	 8.186297e-01	 5.997454e-01	 9.164627e+00
1	 8.598143e-01	 5.528632e-01	 1.264327e+01
1	 8.530388e-01	 5.632611e-01	 1.191237e+01
1	 8.461291e-01	 5.735885e-01	 1.119593e+01
1	 8.390861e-01	 5.838431e-01	 1.049492e+01
1	 8.319111e-01	 5.940221e-01	 9.810343e+00
1	 8.246051e-01	 6.041231e-01	 9.143271e+00
1	 8.660448e-01	 5.568695e-01	 1.262068e+01
1	 8.592203e-01	 5.673427e-01	 1.188573e+01
1	 8.522605e-01	 5.777450e-01	 1.116535e+01
1	 8.451665e-01	 5.880738e-01	 1.046058e+01
1	 8.379394e-01	 5.983266e-01	 9.772506e+00
1	 8.305805e-01	 6.085008e-01	 9.102283e+00
1	 8.722753e-01	 5.608757e-01	 1.258345e+01
1	 8.654017e-01	 5.714243e-01	 1.184321e+01
1	 8.583918e-01	 5.819014e-01	 1.111779e+01
1	 8.512468e-01	 5.923046e-01	 1.040822e+01
1	 8.439677e-01	 6.026311e-01	 9.715645e+00
1	 8.365559e-01	 6.128785e-01	 9.041243e+00
1	 8.066789e-01	 5.909900e-01	 9.150184e+00
1	 7.994049e-01	 6.007927e-01	 8.507550e+00
1	 7.920053e-01	 6.105142e-01	 7.890045e+00
1	 7.844816e-01	 6.201521e-01	 7.299780e+00
1	 7.768351e-01	 6.297040e-01	 6.738969e+00
1	 7.690674e-01	 6.391677e-01	 6.209919e+00
1	 8.126543e-01	 5.953677e-01	 9.166783e+00
1	 8.053264e-01	 6.052430e-01	 8.524462e+00
1	 7.978720e-01	 6.150365e-01	 7.908350e+00
1	 7.902926e-01	 6.247458e-01	 7.320219e+00
1	 7.825895e-01	 6.343685e-01	 6.761923e+00
1	 7.747642e-01	 6.439023e-01	 6.235396e+00
1	 8.186297e-01	 5.997454e-01	 9.164627e+00
1	 8.112479e-01	 6.096933e-01	 8.521689e+00
1	 8.037388e-01	 6.195588e-01	 7.905787e+00
1	 7.961036e-01	 6.293395e-01	 7.318440e+00
1	 7.883438e-01	 6.390330e-01	 6.761236e+00
1	 7.804609e-01	 6.486369e-01	 6.235832e+00
1	 8.246051e-01	 6.041231e-01	 9.143271e+00
1	 8.171694e-01	 6.141436e-01	 8.498724e+00
1	 8.096055e-01	 6.240811e-01	 7.881848e+00
1	 8.019145e-01	 6.339332e-01	 7.293997e+00
1	 7.940981e-01	 6.436975e-01	 6.736583e+00
1	 7.861577e-01	 6.533715e-01	 6.211081e+00
1	 8.305805e-01	 6.085008e-01	 9.102283e+00
1	 8.230909e-01	 6.185939e-01	 8.455070e+00
1	 8.154722e-01	 6.286035e-01	 7.836038e+00
1	 8.077255e-01	 6.385269e-01	 7.246455e+00
1	 7.998525e-01	 6.483619e-01	 6.687648e+00
1	 7.918545e-01	 6.581060e-01	 6.161004e+00
1	 8.365559e-01	 6.128785e-01	 9.041243e+00
1	 8.290125e-01	 6.230443e-01	 8.390249e+00
1	 8.213389e-01	 6.331258e-01	 7.767877e+00
1	 8.135365e-01	 6.431207e-01	 7.175392e+00
1	 8.056068e-01	 6.530264e-01	 6.614124e+00
1	 7.975513e-01	 6.628406e-01	 6.085465e+00
1	 7.690674e-01	 6.391677e-01	 6.209919e+00
1	 7.611798e-01	 6.485409e-01	 5.711583e+00
1	 7.531741e-01	 6.578212e-01	 5.241911e+00
1	 7.450519e-01	 6.670065e-01	 4.801812e+00
1	 7.368148e-01	 6.760946e-01	 4.392251e+00
1	 7.284647e-01	 6.850833e-01	 4.014239e+00
1	 7.747642e-01	 6.439023e-01	 6.235396e+00
1	 7.668182e-01	 6.533449e-01	 5.739356e+00
1	 7.587532e-01	 6.626940e-01	 5.272330e+00
1	 7.505708e-01	 6.719473e-01	 4.836081e+00
1	 7.422727e-01	 6.811027e-01	 4.432459e+00
1	 7.338607e-01	 6.901580e-01	 4.063399e+00
1	 7.804609e-01	 6.486369e-01	 6.235832e+00
1	 7.724566e-01	 6.581489e-01	 5.741043e+00
1	 7.643322e-01	 6.675667e-01	 5.276119e+00
1	 7.560897e-01	 6.768881e-01	 4.843501e+00
1	 7.477306e-01	 6.861108e-01	 4.445742e+00
1	 7.392568e-01	 6.952327e-01	 4.085502e+00
1	 7.861577e-01	 6.533715e-01	 6.211081e+00
1	 7.780949e-01	 6.629529e-01	 5.716657e+00
1	 7.699113e-01	 6.724395e-01	 5.253356e+00
1	 7.616086e-01	 6.818289e-01	 4.824123e+00
1	 7.531885e-01	 6.911189e-01	 4.432032e+00
1	 7.446528e-01	 7.003074e-01	 4.080282e+00
1	 7.918545e-01	 6.581060e-01	 6.161004e+00
1	 7.837333e-01	 6.677569e-01	 5.666213e+00
1	 7.754904e-01	 6.773122e-01	 5.204118e+00
1	 7.671275e-01	 6.867697e-01	 4.777996e+00
1	 7.586464e-01	 6.961270e-01	 4.391263e+00
1	 7.500488e-01	 7.053821e-01	 4.047477e+00
1	 7.975513e-01	 6.628406e-01	 6.085465e+00
1	 7.893717e-01	 6.725609e-01	 5.589726e+00
1	 7.810694e-01	 6.821850e-01	 5.128479e+00
1	 7.726464e-01	 6.917105e-01	 4.705165e+00
1	 7.641043e-01	 7.011351e-01	 4.323373e+00
1	 7.554449e-01	 7.104568e-01	 3.986833e+00
1	 7.284647e-01	 6.850833e-01	 4.014239e+00
1	 7.200033e-01	 6.939706e-01	 3.666774e+00
1	 7.114326e-01	 7.027543e-01	 3.349072e+00
1	 7.027543e-01	 7.114326e-01	 3.062514e+00
1	 6.939706e-01	 7.200033e-01	 2.808475e+00
1	 6.850833e-01	 7.284647e-01	 2.588321e+00
1	 7.338607e-01	 6.901580e-01	 4.063399e+00
1	 7.253367e-01	 6.991111e-01	 3.727870e+00
1	 7.167025e-01	 7.079599e-01	 3.423476e+00
1	 7.079599e-01	 7.167025e-01	 3.150118e+00
1	 6.991111e-01	 7.253367e-01	 2.907641e+00
1	 6.901580e-01	 7.338607e-01	 2.695833e+00
1	 7.392568e-01	 6.952327e-01	 4.085502e+00
1	 7.306701e-01	 7.042516e-01	 3.761132e+00
1	 7.219723e-01	 7.131655e-01	 3.468318e+00
1	 7.131655e-01	 7.219723e-01	 3.205730e+00
1	 7.042516e-01	 7.306701e-01	 2.971936e+00
1	 6.952327e-01	 7.392568e-01	 2.765409e+00
1	 7.446528e-01	 7.003074e-01	 4.080282e+00
1	 7.360034e-01	 7.093922e-01	 3.766113e+00
1	 7.272422e-01	 7.183711e-01	 3.483091e+00
1	 7.183711e-01	 7.272422e-01	 3.228892e+00
1	 7.093922e-01	 7.360034e-01	 3.001062e+00
1	 7.003074e-01	 7.446528e-01	 2.797018e+00
1	 7.500488e-01	 7.053821e-01	 4.047477e+00
1	 7.413368e-01	 7.145327e-01	 3.742376e+00
1	 7.325121e-01	 7.235767e-01	 3.467297e+00
1	 7.235767e-01	 7.325121e-01	 3.219162e+00
1	 7.145327e-01	 7.413368e-01	 2.994734e+00
1	 7.053821e-01	 7.500488e-01	 2.790628e+00
1	 7.554449e-01	 7.104568e-01	 3.986833e+00
1	 7.466701e-01	 7.196732e-01	 3.689498e+00
1	 7.377819e-01	 7.287823e-01	 3.420457e+00
1	 7.287823e-01	 7.377819e-01	 3.176107e+00
1	 7.196732e-01	 7.466701e-01	 2.952671e+00
1	 7.104568e-01	 7.554449e-01	 2.746210e+00
1	 6.850833e-01	 7.284647e-01	 2.588321e+00
1	 6.760946e-01	 7.368148e-01	 2.393366e+00
1	 6.670065e-01	 7.450519e-01	 2.210341e+00
1	 6.578212e-01	 7.531741e-01	 2.033513e+00
1	 6.485409e-01	 7.611798e-01	 1.856864e+00
1	 6.391677e-01	 7.690674e-01	 1.674106e+00
1	 6.901580e-01	 7.338607e-01	 2.695833e+00
1	 6.811027e-01	 7.422727e-01	 2.503166e+00
1	 6.719473e-01	 7.505708e-01	 2.315335e+00
1	 6.626940e-01	 7.587532e-01	 2.127733e+00
1	 6.533449e-01	 7.668182e-01	 1.935506e+00
1	 6.439023e-01	 7.747642e-01	 1.733571e+00
1	 6.952327e-01	 7.392568e-01	 2.765409e+00
1	 6.861108e-01	 7.477306e-01	 2.572491e+00
1	 6.768881e-01	 7.560897e-01	 2.378281e+00
1	 6.675667e-01	 7.643322e-01	 2.179156e+00
1	 6.581489e-01	 7.724566e-01	 1.971283e+00
1	 6.486369e-01	 7.804609e-01	 1.750636e+00
1	 7.003074e-01	 7.446528e-01	 2.797018e+00
1	 6.911189e-01	 7.531885e-01	 2.601582e+00
1	 6.818289e-01	 7.616086e-01	 2.399607e+00
1	 6.724395e-01	 7.699113e-01	 2.188318e+00
1	 6.629529e-01	 7.780949e-01	 1.964765e+00
1	 6.533715e-01	 7.861577e-01	 1.725827e+00
1	 7.053821e-01	 7.500488e-01	 2.790628e+00
1	 6.961270e-01	 7.586464e-01	 2.590670e+00
1	 6.867697e-01	 7.671275e-01	 2.379726e+00
1	 6.773122e-01	 7.754904e-01	 2.155739e+00
1	 6.677569e-01	 7.837333e-01	 1.916503e+00
1	 6.581060e-01	 7.918545e-01	 1.659658e+00
1	 7.104568e-01	 7.554449e-01	 2.746210e+00
1	 7.011351e-01	 7.641043e-01	 2.539981e+00
1	 6.917105e-01	 7.726464e-01	 2.319042e+00
1	 6.821850e-01	 7.810694e-01	 2.081927e+00
1	 6.725609e-01	 7.893717e-01	 1.827033e+00
1	 6.628406e-01	 7.975513e-01	 1.552627e+00
1	 6.391677e-01	 7.690674e-01	 1.674106e+00
1	 6.297040e-01	 7.768351e-01	 1.475192e+00
1	 6.201521e-01	 7.844816e-01	 1.254828e+00
1	 6.105142e-01	 7.920053e-01	 1.013651e+00
1	 6.007927e-01	 7.994049e-01	 7.522915e-01
1	 5.909900e-01	 8.066789e-01	 4.713743e-01
1	 6.439023e-01	 7.747642e-01	 1.733571e+00
1	 6.343685e-01	 7.825895e-01	 1.514157e+00
1	 6.247458e-01	 7.902926e-01	 1.273155e+00
1	 6.150365e-01	 7.978720e-01	 1.010793e+00
1	 6.052430e-01	 8.053264e-01	 7.272716e-01
1	 5.953677e-01	 8.126543e-01	 4.227689e-01
1	 6.486369e-01	 7.804609e-01	 1.750636e+00
1	 6.390330e-01	 7.883438e-01	 1.511263e+00
1	 6.293395e-01	 7.961036e-01	 1.249915e+00
1	 6.195588e-01	 8.037388e-01	 9.664368e-01
1	 6.096933e-01	 8.112479e-01	 6.606345e-01
1	 5.997454e-01	 8.186297e-01	 3.322740e-01
1	 6.533715e-01	 7.861577e-01	 1.725827e+00
1	 6.436975e-01	 7.940981e-01	 1.466981e+00
1	 6.339332e-01	 8.019145e-01	 1.185557e+00
1	 6.240811e-01	 8.096055e-01	 8.810494e-01
1	 6.141436e-01	 8.171694e-01	 5.528986e-01
1	 6.041231e-01	 8.246051e-01	 2.004946e-01
1	 6.581060e-01	 7.918545e-01	 1.659658e+00
1	 6.483619e-01	 7.998525e-01	 1.381768e+00
1	 6.385269e-01	 8.077255e-01	 1.080520e+00
1	 6.286035e-01	 8.154722e-01	 7.550839e-01
1	 6.185939e-01	 8.230909e-01	 4.045676e-01
1	 6.085008e-01	 8.305805e-01	 2.801816e-02
1	 6.628406e-01	 7.975513e-01	 1.552627e+00
1	 6.530264e-01	 8.056068e-01	 1.256069e+00
1	 6.431207e-01	 8.135365e-01	 9.352283e-01
1	 6.331258e-01	 8.213389e-01	 5.889808e-01
1	 6.230443e-01	 8.290125e-01	 2.161305e-01
1	 6.128785e-01	 8.365559e-01	-1.845844e-01
1	 5.909900e-01	 8.066789e-01	 4.713743e-01
1	 5.811086e-01	 8.138260e-01	 1.739764e-01
1	 5.711508e-01	 8.208451e-01	-1.383559e-01
1	 5.611192e-01	 8.277350e-01	-4.673496e-01
1	 5.510163e-01	 8.344945e-01	-8.147910e-01
1	 5.408444e-01	 8.411226e-01	-1.182520e+00
1	 5.953677e-01	 8.126543e-01	 4.227689e-01
1	 5.854131e-01	 8.198544e-01	 9.971620e-02
1	 5.753816e-01	 8.269255e-01	-2.404936e-01
1	 5.652757e-01	 8.338664e-01	-5.992961e-01
1	 5.550979e-01	 8.406760e-01	-9.781716e-01
1	 5.448507e-01	 8.473532e-01	-1.378641e+00
1	 5.997454e-01	 8.186297e-01	 3.322740e-01
1	 5.897176e-01	 8.258827e-01	-1.665115e-02
1	 5.796123e-01	 8.330058e-01	-3.847555e-01
1	 5.694321e-01	 8.399977e-01	-7.732415e-01
1	 5.591795e-01	 8.468574e-01	-1.183346e+00
1	 5.488569e-01	 8.535837e-01	-1.616335e+00
1	 6.041231e-01	 8.246051e-01	 2.004946e-01
1	 5.940221e-01	 8.319111e-01	-1.744446e-01
1	 5.838431e-01	 8.390861e-01	-5.704385e-01
1	 5.735885e-01	 8.461291e-01	-9.885136e-01
1	 5.632611e-01	 8.530388e-01	-1.429724e+00
1	 5.528632e-01	 8.598143e-01	-1.895147e+00
1	 6.085008e-01	 8.305805e-01	 2.801816e-02
1	 5.983266e-01	 8.379394e-01	-3.730026e-01
1	 5.880738e-01	 8.451665e-01	-7.968598e-01
1	 5.777450e-01	 8.522605e-01	-1.244459e+00
1	 5.673427e-01	 8.592203e-01	-1.716733e+00
1	 5.568695e-01	 8.660448e-01	-2.214631e+00
1	 6.128785e-01	 8.365559e-01	-1.845844e-01
1	 6.026311e-01	 8.439677e-01	-6.116827e-01
1	 5.923046e-01	 8.512468e-01	-1.063356e+00
1	 5.819014e-01	 8.583918e-01	-1.540445e+00
1	 5.714243e-01	 8.654017e-01	-2.043815e+00
1	 5.608757e-01	 8.722753e-01	-2.574356e+00
1	 5.408444e-01	 8.411226e-01	-1.182520e+00
1	 5.306063e-01	 8.476184e-01	-1.567379e+00
1	 5.203044e-01	 8.539809e-01	-1.964325e+00
1	 5.099413e-01	 8.602092e-01	-2.372381e+00
1	 4.995195e-01	 8.663026e-01	-2.790537e+00
1	 4.890417e-01	 8.722604e-01	-3.217748e+00
1	 5.448507e-01	 8.473532e-01	-1.378641e+00
1	 5.345367e-01	 8.538971e-01	-1.796736e+00
1	 5.241585e-01	 8.603067e-01	-2.226946e+00
1	 5.137186e-01	 8.665811e-01	-2.668483e+00
1	 5.032196e-01	 8.727197e-01	-3.120535e+00
1	 4.926642e-01	 8.787216e-01	-3.582268e+00
1	 5.488569e-01	 8.535837e-01	-1.616335e+00
1	 5.384671e-01	 8.601757e-01	-2.067623e+00
1	 5.280126e-01	 8.666325e-01	-2.531330e+00
1	 5.174959e-01	 8.729531e-01	-3.006791e+00
1	 5.069198e-01	 8.791368e-01	-3.493325e+00
1	 4.962867e-01	 8.851828e-01	-3.990234e+00
1	 5.528632e-01	 8.598143e-01	-1.895147e+00
1	 5.423975e-01	 8.664544e-01	-2.379708e+00
1	 5.318667e-01	 8.729582e-01	-2.877205e+00
1	 5.212733e-01	 8.793250e-01	-3.387036e+00
1	 5.106199e-01	 8.855538e-01	-3.908579e+00
1	 4.999093e-01	 8.916440e-01	-4.441203e+00
1	 5.568695e-01	 8.660448e-01	-2.214631e+00
1	 5.463280e-01	 8.727330e-01	-2.732666e+00
1	 5.357208e-01	 8.792840e-01	-3.264310e+00
1	 5.250506e-01	 8.856969e-01	-3.808955e+00
1	 5.143201e-01	 8.919709e-01	-4.365979e+00
1	 5.035318e-01	 8.981052e-01	-4.934741e+00
1	 5.608757e-01	 8.722753e-01	-2.574356e+00
1	 5.502584e-01	 8.790117e-01	-3.126186e+00
1	 5.395749e-01	 8.856098e-01	-3.692388e+00
1	 5.288280e-01	 8.920688e-01	-4.272294e+00
1	 5.180202e-01	 8.983879e-01	-4.865214e+00
1	 5.071543e-01	 9.045664e-01	-5.470430e+00
1	 4.890417e-01	 8.722604e-01	-3.217748e+00
1	 4.785104e-01	 8.780819e-01	-3.647423e+00
1	 4.679282e-01	 8.837665e-01	-4.073435e+00
1	 4.572978e-01	 8.893136e-01	-4.495414e+00
1	 4.466218e-01	 8.947229e-01	-4.912988e+00
1	 4.359027e-01	 8.999938e-01	-5.325787e+00
1	 4.926642e-01	 8.787216e-01	-3.582268e+00
1	 4.820549e-01	 8.845862e-01	-4.047271e+00
1	 4.713944e-01	 8.903129e-01	-4.509238e+00
1	 4.606852e-01	 8.959011e-01	-4.967457e+00
1	 4.499301e-01	 9.013504e-01	-5.421201e+00
1	 4.391316e-01	 9.066604e-01	-5.869730e+00
1	 4.962867e-01	 8.851828e-01	-3.990234e+00
1	 4.855994e-01	 8.910905e-01	-4.491074e+00
1	 4.748605e-01	 8.968593e-01	-4.989230e+00
1	 4.640726e-01	 9.024886e-01	-5.483717e+00
1	 4.532384e-01	 9.079780e-01	-5.973521e+00
1	 4.423605e-01	 9.133271e-01	-6.457606e+00
1	 4.999093e-01	 8.916440e-01	-4.441203e+00
1	 4.891440e-01	 8.975948e-01	-4.978271e+00
1	 4.783267e-01	 9.034057e-01	-5.512798e+00
1	 4.674600e-01	 9.090761e-01	-6.043587e+00
1	 4.565467e-01	 9.146056e-01	-6.569403e+00
1	 4.455894e-01	 9.199937e-01	-7.088986e+00
1	 5.035318e-01	 8.981052e-01	-4.934741e+00
1	 4.926885e-01	 9.040991e-01	-5.508320e+00
1	 4.817928e-01	 9.099521e-01	-6.079347e+00
1	 4.708474e-01	 9.156636e-01	-6.646474e+00
1	 4.598550e-01	 9.212332e-01	-7.208316e+00
1	 4.488183e-01	 9.266603e-01	-7.763455e+00
1	 5.071543e-01	 9.045664e-01	-5.470430e+00
1	 4.962330e-01	 9.106034e-01	-6.080693e+00
1	 4.852589e-01	 9.164986e-01	-6.688298e+00
1	 4.742348e-01	 9.222511e-01	-7.291807e+00
1	 4.631633e-01	 9.278607e-01	-7.889746e+00
1	 4.520472e-01	 9.333269e-01	-8.480609e+00
1	 4.359027e-01	 8.999938e-01	-5.325787e+00
1	 4.251431e-01	 9.051262e-01	-5.727641e+00
1	 4.143457e-01	 9.101196e-01	-6.110341e+00
1	 4.035130e-01	 9.149739e-01	-6.470411e+00
1	 3.926477e-01	 9.196890e-01	-6.804323e+00
1	 3.817523e-01	 9.242647e-01	-7.108501e+00
1	 4.391316e-01	 9.066604e-01	-5.869730e+00
1	 4.282923e-01	 9.118308e-01	-6.305957e+00
1	 4.174149e-01	 9.168612e-01	-6.721067e+00
1	 4.065020e-01	 9.217515e-01	-7.111681e+00
1	 3.955562e-01	 9.265015e-01	-7.474373e+00
1	 3.845801e-01	 9.311111e-01	-7.805685e+00
1	 4.423605e-01	 9.133271e-01	-6.457606e+00
1	 4.314415e-01	 9.185354e-01	-6.928165e+00
1	 4.204841e-01	 9.236028e-01	-7.375890e+00
1	 4.094910e-01	 9.285291e-01	-7.797435e+00
1	 3.984647e-01	 9.333140e-01	-8.189417e+00
1	 3.874079e-01	 9.379575e-01	-8.548426e+00
1	 4.455894e-01	 9.199937e-01	-7.088986e+00
1	 4.345907e-01	 9.252401e-01	-7.593959e+00
1	 4.235534e-01	 9.303445e-01	-8.074576e+00
1	 4.124800e-01	 9.353067e-01	-8.527469e+00
1	 4.013732e-01	 9.401265e-01	-8.949233e+00
1	 3.902357e-01	 9.448039e-01	-9.336441e+00
1	 4.488183e-01	 9.266603e-01	-7.763455e+00
1	 4.377399e-01	 9.319447e-01	-8.303040e+00
1	 4.266226e-01	 9.370861e-01	-8.816899e+00
1	 4.154690e-01	 9.420842e-01	-9.301582e+00
1	 4.042817e-01	 9.469390e-01	-9.753603e+00
1	 3.930635e-01	 9.516503e-01	-1.016946e+01
1	 4.520472e-01	 9.333269e-01	-8.480609e+00
1	 4.408891e-01	 9.386493e-01	-9.055118e+00
1	 4.296918e-01	 9.438277e-01	-9.602639e+00
1	 4.184580e-01	 9.488618e-01	-1.011958e+01
1	 4.071902e-01	 9.537515e-01	-1.060232e+01
1	 3.958913e-01	 9.584967e-01	-1.104721e+01
1	 3.817523e-01	 9.242647e-01	-7.108501e+00
1	 3.708294e-01	 9.287010e-01	-7.383380e+00
1	 3.598816e-01	 9.329980e-01	-7.629602e+00
1	 3.489113e-01	 9.371557e-01	-7.843868e+00
1	 3.379212e-01	 9.411744e-01	-8.022886e+00
1	 3.269137e-01	 9.450542e-01	-8.163374e+00
1	 3.845801e-01	 9.311111e-01	-7.805685e+00
1	 3.735763e-01	 9.355803e-01	-8.106152e+00
1	 3.625474e-01	 9.399091e-01	-8.376126e+00
1	 3.514959e-01	 9.440976e-01	-8.611837e+00
1	 3.404243e-01	 9.481461e-01	-8.809515e+00
1	 3.293353e-01	 9.520546e-01	-8.965397e+00
1	 3.874079e-01	 9.379575e-01	-8.548426e+00
1	 3.763232e-01	 9.424595e-01	-8.874900e+00
1	 3.652132e-01	 9.468202e-01	-9.168756e+00
1	 3.540804e-01	 9.510395e-01	-9.425769e+00
1	 3.429275e-01	 9.551177e-01	-9.641704e+00
1	 3.317569e-01	 9.590550e-01	-9.812329e+00
1	 3.902357e-01	 9.448039e-01	-9.336441e+00
1	 3.790701e-01	 9.493388e-01	-9.689265e+00
1	 3.678790e-01	 9.537313e-01	-1.000707e+01
1	 3.566649e-01	 9.579814e-01	-1.028519e+01
1	 3.454306e-01	 9.620894e-01	-1.051893e+01
1	 3.341785e-01	 9.660554e-01	-1.070362e+01
1	 3.930635e-01	 9.516503e-01	-1.016946e+01
1	 3.818170e-01	 9.562181e-01	-1.054890e+01
1	 3.705447e-01	 9.606424e-01	-1.089066e+01
1	 3.592495e-01	 9.649233e-01	-1.118963e+01
1	 3.479337e-01	 9.690610e-01	-1.144069e+01
1	 3.366001e-01	 9.730558e-01	-1.163872e+01
1	 3.958913e-01	 9.584967e-01	-1.104721e+01
1	 3.845639e-01	 9.630973e-01	-1.145347e+01
1	 3.732105e-01	 9.675535e-01	-1.181913e+01
1	 3.618340e-01	 9.718652e-01	-1.213865e+01
1	 3.504368e-01	 9.760327e-01	-1.240649e+01
1	 3.390217e-01	 9.800562e-01	-1.261711e+01
1	 3.269137e-01	 9.450542e-01	-8.163374e+00
1	 3.158914e-01	 9.487954e-01	-8.267127e+00
1	 3.048566e-01	 9.523983e-01	-8.338254e+00
1	 2.938119e-01	 9.558632e-01	-8.376994e+00
1	 2.827597e-01	 9.591908e-01	-8.383630e+00
1	 2.717024e-01	 9.623813e-01	-8.358494e+00
1	 3.293353e-01	 9.520546e-01	-8.965397e+00
1	 3.182313e-01	 9.558235e-01	-9.081349e+00
1	 3.071148e-01	 9.594531e-01	-9.161831e+00
1	 2.959883e-01	 9.629437e-01	-9.207014e+00
1	 2.848542e-01	 9.662959e-01	-9.217118e+00
1	 2.737150e-01	 9.695101e-01	-9.192414e+00
1	 3.317569e-01	 9.590550e-01	-9.812329e+00
1	 3.205713e-01	 9.628516e-01	-9.939679e+00
1	 3.093730e-01	 9.665079e-01	-1.002866e+01
1	 2.981647e-01	 9.700242e-01	-1.007940e+01
1	 2.869488e-01	 9.734010e-01	-1.009208e+01
1	 2.757276e-01	 9.766388e-01	-1.006693e+01
1	 3.341785e-01	 9.660554e-01	-1.070362e+01
1	 3.229112e-01	 9.698797e-01	-1.084154e+01
1	 3.116312e-01	 9.735627e-01	-1.093815e+01
1	 3.003411e-01	 9.771047e-01	-1.099356e+01
1	 2.890433e-01	 9.805061e-01	-1.100793e+01
1	 2.777402e-01	 9.837676e-01	-1.098148e+01
1	 3.366001e-01	 9.730558e-01	-1.163872e+01
1	 3.252511e-01	 9.769078e-01	-1.178636e+01
1	 3.138894e-01	 9.806175e-01	-1.188973e+01
1	 3.025175e-01	 9.841851e-01	-1.194893e+01
1	 2.911378e-01	 9.876112e-01	-1.196412e+01
1	 2.797528e-01	 9.908963e-01	-1.193554e+01
1	 3.390217e-01	 9.800562e-01	-1.261711e+01
1	 3.275911e-01	 9.839359e-01	-1.277360e+01
1	 3.161476e-01	 9.876723e-01	-1.288284e+01
1	 3.046939e-01	 9.912656e-01	-1.294494e+01
1	 2.932323e-01	 9.947164e-01	-1.296010e+01
1	 2.817654e-01	 9.980251e-01	-1.292858e+01
1	 2.717024e-01	 9.623813e-01	-8.358494e+00
1	 2.606423e-01	 9.654354e-01	-8.302710e+00
1	 2.495819e-01	 9.683537e-01	-8.218386e+00
1	 2.385234e-01	 9.711368e-01	-8.107401e+00
1	 2.274691e-01	 9.737853e-01	-7.971678e+00
1	 2.164213e-01	 9.763001e-01	-7.813181e+00
1	 2.737150e-01	 9.695101e-01	-9.192414e+00
1	 2.625730e-01	 9.725868e-01	-9.134228e+00
1	 2.514306e-01	 9.755267e-01	-9.045048e+00
1	 2.402902e-01	 9.783304e-01	-8.926956e+00
1	 2.291540e-01	 9.809985e-01	-8.782079e+00
1	 2.180244e-01	 9.835319e-01	-8.612581e+00
1	 2.757276e-01	 9.766388e-01	-1.006693e+01
1	 2.645037e-01	 9.797382e-01	-1.000548e+01
1	 2.532794e-01	 9.826997e-01	-9.910552e+00
1	 2.420570e-01	 9.855240e-01	-9.784397e+00
1	 2.308390e-01	 9.882118e-01	-9.629301e+00
1	 2.196275e-01	 9.907638e-01	-9.447592e+00
1	 2.777402e-01	 9.837676e-01	-1.098148e+01
1	 2.664344e-01	 9.868896e-01	-1.091594e+01
1	 2.551281e-01	 9.898727e-01	-1.081441e+01
1	 2.438239e-01	 9.927176e-01	-1.067928e+01
1	 2.325239e-01	 9.954250e-01	-1.051294e+01
1	 2.212306e-01	 9.979956e-01	-1.031786e+01
1	 2.797528e-01	 9.908963e-01	-1.193554e+01
1	 2.683651e-01	 9.940409e-01	-1.186510e+01
1	 2.569769e-01	 9.970457e-01	-1.175616e+01
1	 2.455907e-01	 9.999112e-01	-1.161116e+01
1	 2.342089e-01	 1.002638e+00	-1.143262e+01
1	 2.228337e-01	 1.005227e+00	-1.122306e+01
1	 2.817654e-01	 9.980251e-01	-1.292858e+01
1	 2.702957e-01	 1.001192e+00	-1.285248e+01
1	 2.588256e-01	 1.004219e+00	-1.273533e+01
1	 2.473576e-01	 1.007105e+00	-1.257964e+01
1	 2.358938e-01	 1.009851e+00	-1.238795e+01
1	 2.244369e-01	 1.012459e+00	-1.216285e+01
1	 2.164213e-01	 9.763001e-01	-7.813181e+00
1	 2.053822e-01	 9.786818e-01	-7.636058e+00
1	 1.943540e-01	 9.809315e-01	-7.445221e+00
1	 1.833389e-01	 9.830498e-01	-7.243800e+00
1	 1.723390e-01	 9.850377e-01	-7.034913e+00
1	 1.613564e-01	 9.868962e-01	-6.821658e+00
1	 2.180244e-01	 9.835319e-01	-8.612581e+00
1	 2.069035e-01	 9.859313e-01	-8.422790e+00
1	 1.957937e-01	 9.881976e-01	-8.217858e+00
1	 1.846970e-01	 9.903316e-01	-8.001206e+00
1	 1.736156e-01	 9.923343e-01	-7.776249e+00
1	 1.625517e-01	 9.942065e-01	-7.546388e+00
1	 2.196275e-01	 9.907638e-01	-9.447592e+00
1	 2.084249e-01	 9.931808e-01	-9.243818e+00
1	 1.972333e-01	 9.954638e-01	-9.023435e+00
1	 1.860550e-01	 9.976135e-01	-8.790153e+00
1	 1.748922e-01	 9.996308e-01	-8.547683e+00
1	 1.637469e-01	 1.001517e+00	-8.299721e+00
1	 2.212306e-01	 9.979956e-01	-1.031786e+01
1	 2.099462e-01	 1.000430e+00	-1.009883e+01
1	 1.986730e-01	 1.002730e+00	-9.861651e+00
1	 1.874131e-01	 1.004895e+00	-9.610323e+00
1	 1.761688e-01	 1.006927e+00	-9.348847e+00
1	 1.649421e-01	 1.008827e+00	-9.081211e+00
1	 2.228337e-01	 1.005227e+00	-1.122306e+01
1	 2.114676e-01	 1.007680e+00	-1.098753e+01
1	 2.001126e-01	 1.009996e+00	-1.073222e+01
1	 1.887712e-01	 1.012177e+00	-1.046141e+01
1	 1.774454e-01	 1.014224e+00	-1.017938e+01
1	 1.661374e-01	 1.016138e+00	-9.890424e+00
1	 2.244369e-01	 1.012459e+00	-1.216285e+01
1	 2.129889e-01	 1.014929e+00	-1.190962e+01
1	 2.015523e-01	 1.017262e+00	-1.163485e+01
1	 1.901292e-01	 1.019459e+00	-1.134310e+01
1	 1.787220e-01	 1.021521e+00	-1.103895e+01
1	 1.673326e-01	 1.023448e+00	-1.072694e+01
1	 1.613564e-01	 9.868962e-01	-6.821658e+00
1	 1.503932e-01	 9.886263e-01	-6.607425e+00
1	 1.394514e-01	 9.902289e-01	-6.396267e+00
1	 1.285329e-01	 9.917053e-01	-6.192237e+00
1	 1.176397e-01	 9.930563e-01	-5.999359e+00
1	 1.067737e-01	 9.942834e-01	-5.821612e+00
1	 1.625517e-01	 9.942065e-01	-7.546388e+00
1	 1.515072e-01	 9.959494e-01	-7.315476e+00
1	 1.404843e-01	 9.975640e-01	-7.087931e+00
1	 1.294850e-01	 9.990512e-01	-6.867967e+00
1	 1.185111e-01	 1.000412e+00	-6.659758e+00
1	 1.075646e-01	 1.001648e+00	-6.467430e+00
1	 1.637469e-01	 1.001517e+00	-8.299721e+00
1	 1.526213e-01	 1.003273e+00	-8.050508e+00
1	 1.415173e-01	 1.004899e+00	-7.804801e+00
1	 1.304371e-01	 1.006397e+00	-7.567032e+00
1	 1.193825e-01	 1.007768e+00	-7.341588e+00
1	 1.083555e-01	 1.009013e+00	-7.132802e+00
1	 1.649421e-01	 1.008827e+00	-9.081211e+00
1	 1.537353e-01	 1.010596e+00	-8.811999e+00
1	 1.425503e-01	 1.012234e+00	-8.546306e+00
1	 1.313891e-01	 1.013743e+00	-8.288843e+00
1	 1.202539e-01	 1.015124e+00	-8.044268e+00
1	 1.091464e-01	 1.016379e+00	-7.817179e+00
1	 1.661374e-01	 1.016138e+00	-9.890424e+00
1	 1.548493e-01	 1.017919e+00	-9.599440e+00
1	 1.435833e-01	 1.019569e+00	-9.311893e+00
1	 1.323412e-01	 1.021089e+00	-9.032827e+00
1	 1.211253e-01	 1.022480e+00	-8.767232e+00
1	 1.099373e-01	 1.023744e+00	-8.520028e+00
1	 1.673326e-01	 1.023448e+00	-1.072694e+01
1	 1.559633e-01	 1.025242e+00	-1.041234e+01
1	 1.446162e-01	 1.026904e+00	-1.010102e+01
1	 1.332933e-01	 1.028435e+00	-9.798429e+00
1	 1.219967e-01	 1.029836e+00	-9.509931e+00
1	 1.107283e-01	 1.031109e+00	-9.240831e+00
1	 1.067737e-01	 9.942834e-01	-5.821612e+00
1	 9.593675e-02	 9.953874e-01	-5.663114e+00
1	 8.513072e-02	 9.963698e-01	-5.527464e+00
1	 7.435736e-02	 9.972317e-01	-5.417786e+00
1	 6.361843e-02	 9.979743e-01	-5.337133e+00
1	 5.291561e-02	 9.985990e-01	-5.288484e+00
1	 1.075646e-01	 1.001648e+00	-6.467430e+00
1	 9.664739e-02	 1.002761e+00	-6.295184e+00
1	 8.576131e-02	 1.003750e+00	-6.146834e+00
1	 7.490816e-02	 1.004619e+00	-6.025833e+00
1	 6.408967e-02	 1.005367e+00	-5.935558e+00
1	 5.330758e-02	 1.005996e+00	-5.879308e+00
1	 1.083555e-01	 1.009013e+00	-7.132802e+00
1	 9.735803e-02	 1.010134e+00	-6.945065e+00
1	 8.639191e-02	 1.011131e+00	-6.782467e+00
1	 7.545895e-02	 1.012005e+00	-6.648784e+00
1	 6.456092e-02	 1.012759e+00	-6.547715e+00
1	 5.369955e-02	 1.013393e+00	-6.482870e+00
1	 1.091464e-01	 1.016379e+00	-7.817179e+00
1	 9.806867e-02	 1.017507e+00	-7.612244e+00
1	 8.702251e-02	 1.018511e+00	-7.433872e+00
1	 7.600975e-02	 1.019392e+00	-7.286160e+00
1	 6.503217e-02	 1.020152e+00	-7.173119e+00
1	 5.409151e-02	 1.020790e+00	-7.098669e+00
1	 1.099373e-01	 1.023744e+00	-8.520028e+00
1	 9.877932e-02	 1.024880e+00	-8.296226e+00
1	 8.765311e-02	 1.025892e+00	-8.100578e+00
1	 7.656054e-02	 1.026779e+00	-7.937497e+00
1	 6.550342e-02	 1.027544e+00	-7.811302e+00
1	 5.448348e-02	 1.028187e+00	-7.726216e+00
1	 1.107283e-01	 1.031109e+00	-9.240831e+00
1	 9.948996e-02	 1.032254e+00	-8.996529e+00
1	 8.828371e-02	 1.033272e+00	-8.782125e+00
1	 7.711134e-02	 1.034166e+00	-8.602343e+00
1	 6.597466e-02	 1.034936e+00	-8.461808e+00
1	 5.487545e-02	 1.035584e+00	-8.365037e+00
1	 5.291561e-02	 9.985990e-01	-5.288484e+00
1	 4.225058e-02	 9.991070e-01	-5.274565e+00
1	 3.162495e-02	 9.994998e-01	-5.297675e+00
1	 2.104029e-02	 9.997786e-01	-5.360039e+00
1	 1.049814e-02	 9.999449e-01	-5.463822e+00
1	 0.000000e+00	 1.000000e+00	-5.611117e+00
1	 5.330758e-02	 1.005996e+00	-5.879308e+00
1	 4.256355e-02	 1.006508e+00	-5.860181e+00
1	 3.185921e-02	 1.006904e+00	-5.880681e+00
1	 2.119614e-02	 1.007184e+00	-5.943093e+00
1	 1.057591e-02	 1.007352e+00	-6.049630e+00
1	 0.000000e+00	 1.007407e+00	-6.202428e+00
1	 5.369955e-02	 1.013393e+00	-6.482870e+00
1	 4.287651e-02	 1.013909e+00	-6.457683e+00
1	 3.209346e-02	 1.014307e+00	-6.474856e+00
1	 2.135200e-02	 1.014590e+00	-6.536778e+00
1	 1.065367e-02	 1.014759e+00	-6.645757e+00
1	 0.000000e+00	 1.014815e+00	-6.804018e+00
1	 5.409151e-02	 1.020790e+00	-7.098669e+00
1	 4.318948e-02	 1.021309e+00	-7.066550e+00
1	 3.232772e-02	 1.021711e+00	-7.079673e+00
1	 2.150785e-02	 1.021996e+00	-7.140575e+00
1	 1.073144e-02	 1.022166e+00	-7.251703e+00
1	 0.000000e+00	 1.022222e+00	-7.415413e+00
1	 5.448348e-02	 1.028187e+00	-7.726216e+00
1	 4.350245e-02	 1.028710e+00	-7.686275e+00
1	 3.256198e-02	 1.029115e+00	-7.694620e+00
1	 2.166371e-02	 1.029402e+00	-7.753978e+00
1	 1.080920e-02	 1.029573e+00	-7.866979e+00
1	 0.000000e+00	 1.029630e+00	-8.036154e+00
1	 5.487545e-02	 1.035584e+00	-8.365037e+00
1	 4.381542e-02	 1.036111e+00	-8.316365e+00
1	 3.279624e-02	 1.036518e+00	-8.319199e+00
1	 2.181956e-02	 1.036807e+00	-8.376497e+00
1	 1.088696e-02	 1.036980e+00	-8.491114e+00
1	 0.000000e+00	 1.037037e+00	-8.665795e+00
1	 1.037037e+00	 0.000000e+00	 2.957139e+01
1	 1.036980e+00	 1.088696e-02	 2.946045e+01
1	 1.036807e+00	 2.181956e-02	 2.935074e+01
1	 1.036518e+00	 3.279624e-02	 2.924158e+01
1	 1.036111e+00	 4.381542e-02	 2.913230e+01
1	 1.035584e+00	 5.487545e-02	 2.902226e+01
1	 1.044444e+00	 0.000000e+00	 2.918464e+01
1	 1.044387e+00	 1.096473e-02	 2.906992e+01
1	 1.044213e+00	 2.197541e-02	 2.895797e+01
1	 1.043922e+00	 3.303050e-02	 2.884805e+01
1	 1.043512e+00	 4.412838e-02	 2.873943e+01
1	 1.042981e+00	 5.526742e-02	 2.863141e+01
1	 1.051852e+00	 0.000000e+00	 2.881292e+01
1	 1.051794e+00	 1.104249e-02	 2.869417e+01
1	 1.051619e+00	 2.213127e-02	 2.857977e+01
1	 1.051326e+00	 3.326476e-02	 2.846890e+01
1	 1.050913e+00	 4.444135e-02	 2.836079e+01
1	 1.050378e+00	 5.565938e-02	 2.825466e+01
1	 1.059259e+00	 0.000000e+00	 2.845523e+01
1	 1.059201e+00	 1.112026e-02	 2.833221e+01
1	 1.059025e+00	 2.228712e-02	 2.821514e+01
1	 1.058729e+00	 3.349902e-02	 2.810315e+01
1	 1.058313e+00	 4.475432e-02	 2.799539e+01
1	 1.057775e+00	 5.605135e-02	 2.789102e+01
1	 1.066667e+00	 0.000000e+00	 2.811060e+01
1	 1.066608e+00	 1.119802e-02	 2.798308e+01
1	 1.066431e+00	 2.244298e-02	 2.786312e+01
1	 1.066133e+00	 3.373328e-02	 2.774982e+01
1	 1.065714e+00	 4.506728e-02	 2.764225e+01
1	 1.065172e+00	 5.644332e-02	 2.753951e+01
1	 1.074074e+00	 0.000000e+00	 2.777809e+01
1	 1.074015e+00	 1.127578e-02	 2.764582e+01
1	 1.073836e+00	 2.259883e-02	 2.752278e+01
1	 1.073537e+00	 3.396754e-02	 2.740798e+01
1	 1.073115e+00	 4.538025e-02	 2.730044e+01
1	 1.072569e+00	 5.683529e-02	 2.719919e+01
1	 1.035584e+00	 5.487545e-02	 2.902226e+01
1	 1.034936e+00	 6.597466e-02	 2.891117e+01
1	 1.034166e+00	 7.711134e-02	 2.879863e+01
1	 1.033272e+00	 8.828371e-02	 2.868386e+01
1	 1.032254e+00	 9.948996e-02	 2.856613e+01
1	 1.031109e+00	 1.107283e-01	 2.844474e+01
1	 1.042981e+00	 5.526742e-02	 2.863141e+01
1	 1.042329e+00	 6.644591e-02	 2.852368e+01
1	 1.041553e+00	 7.766213e-02	 2.841583e+01
1	 1.040653e+00	 8.891430e-02	 2.830703e+01
1	 1.039627e+00	 1.002006e-01	 2.819647e+01
1	 1.038474e+00	 1.115192e-01	 2.808340e+01
1	 1.050378e+00	 5.565938e-02	 2.825466e+01
1	 1.049721e+00	 6.691716e-02	 2.815019e+01
1	 1.048940e+00	 7.821293e-02	 2.804693e+01
1	 1.048033e+00	 8.954490e-02	 2.794400e+01
1	 1.047000e+00	 1.009112e-01	 2.784052e+01
1	 1.045839e+00	 1.123101e-01	 2.773566e+01
1	 1.057775e+00	 5.605135e-02	 2.789102e+01
1	 1.057114e+00	 6.738841e-02	 2.778969e+01
1	 1.056327e+00	 7.876372e-02	 2.769093e+01
1	 1.055414e+00	 9.017550e-02	 2.759377e+01
1	 1.054373e+00	 1.016219e-01	 2.749728e+01
1	 1.053204e+00	 1.131010e-01	 2.740055e+01
1	 1.065172e+00	 5.644332e-02	 2.753951e+01
1	 1.064506e+00	 6.785965e-02	 2.744121e+01
1	 1.063714e+00	 7.931452e-02	 2.734684e+01
1	 1.062794e+00	 9.080610e-02	 2.725536e+01
1	 1.061747e+00	 1.023325e-01	 2.716577e+01
1	 1.060569e+00	 1.138919e-01	 2.707708e+01
1	 1.072569e+00	 5.683529e-02	 2.719919e+01
1	 1.071898e+00	 6.833090e-02	 2.710379e+01
1	 1.071101e+00	 7.986531e-02	 2.701371e+01
1	 1.070175e+00	 9.143669e-02	 2.692783e+01
1	 1.069120e+00	 1.030432e-01	 2.684505e+01
1	 1.067934e+00	 1.146828e-01	 2.676433e+01
1	 1.031109e+00	 1.107283e-01	 2.844474e+01
1	 1.029836e+00	 1.219967e-01	 2.831893e+01
1	 1.028435e+00	 1.332933e-01	 2.818789e+01
1	 1.026904e+00	 1.446162e-01	 2.805089e+01
1	 1.025242e+00	 1.559633e-01	 2.790723e+01
1	 1.023448e+00	 1.673326e-01	 2.775624e+01
1	 1.038474e+00	 1.115192e-01	 2.808340e+01
1	 1.037192e+00	 1.228681e-01	 2.796698e+01
1	 1.035781e+00	 1.342454e-01	 2.784633e+01
1	 1.034239e+00	 1.456492e-01	 2.772063e+01
1	 1.032565e+00	 1.570774e-01	 2.758911e+01
1	 1.030758e+00	 1.685278e-01	 2.745102e+01
1	 1.045839e+00	 1.123101e-01	 2.773566e+01
1	 1.044548e+00	 1.237395e-01	 2.762854e+01
1	 1.043127e+00	 1.351975e-01	 2.751820e+01
1	 1.041574e+00	 1.466822e-01	 2.740373e+01
1	 1.039888e+00	 1.581914e-01	 2.728430e+01
1	 1.038069e+00	 1.697231e-01	 2.715909e+01
1	 1.053204e+00	 1.131010e-01	 2.740055e+01
1	 1.051904e+00	 1.246109e-01	 2.730263e+01
1	 1.050473e+00	 1.361496e-01	 2.720250e+01
1	 1.048909e+00	 1.477151e-01	 2.709920e+01
1	 1.047212e+00	 1.593054e-01	 2.699179e+01
1	 1.045379e+00	 1.709183e-01	 2.687939e+01
1	 1.060569e+00	 1.138919e-01	 2.707708e+01
1	 1.059260e+00	 1.254823e-01	 2.698828e+01
1	 1.057819e+00	 1.371017e-01	 2.689829e+01
1	 1.056244e+00	 1.487481e-01	 2.680606e+01
1	 1.054535e+00	 1.604194e-01	 2.671060e+01
1	 1.052689e+00	 1.721135e-01	 2.661093e+01
1	 1.067934e+00	 1.146828e-01	 2.676433e+01
1	 1.066616e+00	 1.263537e-01	 2.668457e+01
1	 1.065165e+00	 1.380538e-01	 2.660463e+01
1	 1.063579e+00	 1.497811e-01	 2.652339e+01
1	 1.061858e+00	 1.615335e-01	 2.643976e+01
1	 1.060000e+00	 1.733088e-01	 2.635272e+01
1	 1.023448e+00	 1.673326e-01	 2.775624e+01
1	 1.021521e+00	 1.787220e-01	 2.759705e+01
1	 1.019459e+00	 1.901292e-01	 2.742905e+01
1	 1.017262e+00	 2.015523e-01	 2.725210e+01
1	 1.014929e+00	 2.129889e-01	 2.706609e+01
1	 1.012459e+00	 2.244369e-01	 2.687100e+01
1	 1.030758e+00	 1.685278e-01	 2.745102e+01
1	 1.028817e+00	 1.799985e-01	 2.730544e+01
1	 1.026741e+00	 1.914873e-01	 2.715171e+01
1	 1.024528e+00	 2.029920e-01	 2.698963e+01
1	 1.022179e+00	 2.145103e-01	 2.681904e+01
1	 1.019691e+00	 2.260400e-01	 2.663986e+01
1	 1.038069e+00	 1.697231e-01	 2.715909e+01
1	 1.036114e+00	 1.812751e-01	 2.702708e+01
1	 1.034023e+00	 1.928454e-01	 2.688755e+01
1	 1.031795e+00	 2.044316e-01	 2.674024e+01
1	 1.029428e+00	 2.160316e-01	 2.658496e+01
1	 1.026923e+00	 2.276431e-01	 2.642155e+01
1	 1.045379e+00	 1.709183e-01	 2.687939e+01
1	 1.043410e+00	 1.825517e-01	 2.676089e+01
1	 1.041305e+00	 1.942034e-01	 2.663547e+01
1	 1.039061e+00	 2.058713e-01	 2.650284e+01
1	 1.036678e+00	 2.175530e-01	 2.636273e+01
1	 1.034155e+00	 2.292462e-01	 2.621496e+01
1	 1.052689e+00	 1.721135e-01	 2.661093e+01
1	 1.050707e+00	 1.838283e-01	 2.650584e+01
1	 1.048586e+00	 1.955615e-01	 2.639443e+01
1	 1.046327e+00	 2.073109e-01	 2.627635e+01
1	 1.043927e+00	 2.190743e-01	 2.615129e+01
1	 1.041387e+00	 2.308493e-01	 2.601901e+01
1	 1.060000e+00	 1.733088e-01	 2.635272e+01
1	 1.058003e+00	 1.851049e-01	 2.626092e+01
1	 1.055868e+00	 1.969196e-01	 2.616340e+01
1	 1.053593e+00	 2.087506e-01	 2.605974e+01
1	 1.051177e+00	 2.205957e-01	 2.594959e+01
1	 1.048619e+00	 2.324525e-01	 2.583265e+01
1	 1.012459e+00	 2.244369e-01	 2.687100e+01
1	 1.009851e+00	 2.358938e-01	 2.666479e+01
1	 1.007105e+00	 2.473576e-01	 2.644546e+01
1	 1.004219e+00	 2.588256e-01	 2.621308e+01
1	 1.001192e+00	 2.702957e-01	 2.596779e+01
1	 9.980251e-01	 2.817654e-01	 2.570974e+01
1	 1.019691e+00	 2.260400e-01	 2.663986e+01
1	 1.017065e+00	 2.375788e-01	 2.644979e+01
1	 1.014298e+00	 2.491244e-01	 2.624661e+01
1	 1.011392e+00	 2.606744e-01	 2.603038e+01
1	 1.008344e+00	 2.722264e-01	 2.580123e+01
1	 1.005154e+00	 2.837781e-01	 2.555931e+01
1	 1.026923e+00	 2.276431e-01	 2.642155e+01
1	 1.024278e+00	 2.392638e-01	 2.624748e+01
1	 1.021492e+00	 2.508912e-01	 2.606030e+01
1	 1.018565e+00	 2.625232e-01	 2.586005e+01
1	 1.015495e+00	 2.741571e-01	 2.564684e+01
1	 1.012283e+00	 2.857907e-01	 2.542080e+01
1	 1.034155e+00	 2.292462e-01	 2.621496e+01
1	 1.031491e+00	 2.409487e-01	 2.605676e+01
1	 1.028686e+00	 2.526581e-01	 2.588546e+01
1	 1.025738e+00	 2.643719e-01	 2.570108e+01
1	 1.022646e+00	 2.760878e-01	 2.550369e+01
1	 1.019411e+00	 2.878033e-01	 2.529342e+01
1	 1.041387e+00	 2.308493e-01	 2.601901e+01
1	 1.038704e+00	 2.426337e-01	 2.587655e+01
1	 1.035879e+00	 2.544249e-01	 2.572106e+01
1	 1.032911e+00	 2.662207e-01	 2.555250e+01
1	 1.029798e+00	 2.780185e-01	 2.537091e+01
1	 1.026540e+00	 2.898159e-01	 2.517638e+01
1	 1.048619e+00	 2.324525e-01	 2.583265e+01
1	 1.045918e+00	 2.443186e-01	 2.570582e+01
1	 1.043073e+00	 2.561918e-01	 2.556609e+01
1	 1.040084e+00	 2.680694e-01	 2.541337e+01
1	 1.036949e+00	 2.799492e-01	 2.524763e+01
1	 1.033669e+00	 2.918285e-01	 2.506892e+01
1	 9.980251e-01	 2.817654e-01	 2.570974e+01
1	 9.947164e-01	 2.932323e-01	 2.544028e+01
1	 9.912656e-01	 3.046939e-01	 2.516147e+01
1	 9.876723e-01	 3.161476e-01	 2.487467e+01
1	 9.839359e-01	 3.275911e-01	 2.458133e+01
1	 9.800562e-01	 3.390217e-01	 2.428299e+01
1	 1.005154e+00	 2.837781e-01	 2.555931e+01
1	 1.001821e+00	 2.953268e-01	 2.530618e+01
1	 9.983461e-01	 3.068702e-01	 2.504409e+01
1	 9.947271e-01	 3.184058e-01	 2.477440e+01
1	 9.909640e-01	 3.299310e-01	 2.449850e+01
1	 9.870566e-01	 3.414432e-01	 2.421791e+01
1	 1.012283e+00	 2.857907e-01	 2.542080e+01
1	 1.008927e+00	 2.974213e-01	 2.518367e+01
1	 1.005427e+00	 3.090466e-01	 2.493788e+01
1	 1.001782e+00	 3.206640e-01	 2.468473e+01
1	 9.979922e-01	 3.322709e-01	 2.442563e+01
1	 9.940570e-01	 3.438648e-01	 2.416204e+01
1	 1.019411e+00	 2.878033e-01	 2.529342e+01
1	 1.016032e+00	 2.995159e-01	 2.507207e+01
1	 1.012507e+00	 3.112230e-01	 2.484220e+01
1	 1.008837e+00	 3.229222e-01	 2.460509e+01
1	 1.005020e+00	 3.346109e-01	 2.436213e+01
1	 1.001057e+00	 3.462864e-01	 2.411475e+01
1	 1.026540e+00	 2.898159e-01	 2.517638e+01
1	 1.023137e+00	 3.016104e-01	 2.497070e+01
1	 1.019587e+00	 3.133994e-01	 2.475645e+01
1	 1.015891e+00	 3.251804e-01	 2.453491e+01
1	 1.012048e+00	 3.369508e-01	 2.430741e+01
1	 1.008058e+00	 3.487080e-01	 2.407539e+01
1	 1.033669e+00	 2.918285e-01	 2.506892e+01
1	 1.030242e+00	 3.037049e-01	 2.487892e+01
1	 1.026668e+00	 3.155758e-01	 2.468006e+01
1	 1.022946e+00	 3.274386e-01	 2.447361e+01
1	 1.019076e+00	 3.392907e-01	 2.426092e+01
1	 1.015058e+00	 3.511296e-01	 2.404335e+01
1	 9.800562e-01	 3.390217e-01	 2.428299e+01
1	 9.760327e-01	 3.504368e-01	 2.396935e+01
1	 9.718652e-01	 3.618340e-01	 2.362919e+01
1	 9.675535e-01	 3.732105e-01	 2.326252e+01
1	 9.630973e-01	 3.845639e-01	 2.286918e+01
1	 9.584967e-01	 3.958913e-01	 2.244886e+01
1	 9.870566e-01	 3.414432e-01	 2.421791e+01
1	 9.830044e-01	 3.529399e-01	 2.392072e+01
1	 9.788071e-01	 3.644185e-01	 2.359409e+01
1	 9.744646e-01	 3.758763e-01	 2.323802e+01
1	 9.699766e-01	 3.873107e-01	 2.285236e+01
1	 9.653431e-01	 3.987191e-01	 2.243677e+01
1	 9.940570e-01	 3.438648e-01	 2.416204e+01
1	 9.899760e-01	 3.554431e-01	 2.388042e+01
1	 9.857490e-01	 3.670030e-01	 2.356630e+01
1	 9.813757e-01	 3.785421e-01	 2.321971e+01
1	 9.768559e-01	 3.900576e-01	 2.284050e+01
1	 9.721895e-01	 4.015469e-01	 2.242833e+01
1	 1.001057e+00	 3.462864e-01	 2.411475e+01
1	 9.969477e-01	 3.579462e-01	 2.384775e+01
1	 9.926909e-01	 3.695876e-01	 2.354509e+01
1	 9.882868e-01	 3.812079e-01	 2.320682e+01
1	 9.837351e-01	 3.928045e-01	 2.283282e+01
1	 9.790359e-01	 4.043747e-01	 2.242281e+01
1	 1.008058e+00	 3.487080e-01	 2.407539e+01
1	 1.003919e+00	 3.604493e-01	 2.382202e+01
1	 9.996328e-01	 3.721721e-01	 2.352972e+01
1	 9.951979e-01	 3.838737e-01	 2.319860e+01
1	 9.906144e-01	 3.955514e-01	 2.282861e+01
1	 9.858823e-01	 4.072025e-01	 2.241948e+01
1	 1.015058e+00	 3.511296e-01	 2.404335e+01
1	 1.010891e+00	 3.629524e-01	 2.380256e+01
1	 1.006575e+00	 3.747566e-01	 2.351950e+01
1	 1.002109e+00	 3.865395e-01	 2.319435e+01
1	 9.974937e-01	 3.982983e-01	 2.282713e+01
1	 9.927287e-01	 4.100303e-01	 2.241765e+01
1	 9.584967e-01	 3.958913e-01	 2.244886e+01
1	 9.537515e-01	 4.071902e-01	 2.199287e+01
1	 9.488618e-01	 4.184580e-01	 2.149349e+01
1	 9.438277e-01	 4.296918e-01	 2.095177e+01
1	 9.386493e-01	 4.408891e-01	 2.036877e+01
1	 9.333269e-01	 4.520472e-01	 1.974554e+01
1	 9.653431e-01	 3.987191e-01	 2.243677e+01
1	 9.605640e-01	 4.100987e-01	 2.198353e+01
1	 9.556394e-01	 4.214469e-01	 2.148594e+01
1	 9.505693e-01	 4.327610e-01	 2.094508e+01
1	 9.453540e-01	 4.440383e-01	 2.036206e+01
1	 9.399935e-01	 4.552761e-01	 1.973796e+01
1	 9.721895e-01	 4.015469e-01	 2.242833e+01
1	 9.673765e-01	 4.130072e-01	 2.197655e+01
1	 9.624170e-01	 4.244359e-01	 2.147953e+01
1	 9.573110e-01	 4.358303e-01	 2.093839e+01
1	 9.520586e-01	 4.471875e-01	 2.035423e+01
1	 9.466602e-01	 4.585050e-01	 1.972819e+01
1	 9.790359e-01	 4.043747e-01	 2.242281e+01
1	 9.741890e-01	 4.159157e-01	 2.197124e+01
1	 9.691946e-01	 4.274249e-01	 2.147362e+01
1	 9.640526e-01	 4.388995e-01	 2.093108e+01
1	 9.587633e-01	 4.503368e-01	 2.034475e+01
1	 9.533268e-01	 4.617339e-01	 1.971578e+01
1	 9.858823e-01	 4.072025e-01	 2.241948e+01
1	 9.810016e-01	 4.188242e-01	 2.196690e+01
1	 9.759722e-01	 4.304139e-01	 2.146756e+01
1	 9.707942e-01	 4.419687e-01	 2.092257e+01
1	 9.654679e-01	 4.534860e-01	 2.033310e+01
1	 9.599934e-01	 4.649628e-01	 1.970029e+01
1	 9.927287e-01	 4.100303e-01	 2.241765e+01
1	 9.878141e-01	 4.217327e-01	 2.196288e+01
1	 9.827497e-01	 4.334029e-01	 2.146072e+01
1	 9.775358e-01	 4.450380e-01	 2.091231e+01
1	 9.721725e-01	 4.566352e-01	 2.031877e+01
1	 9.666600e-01	 4.681917e-01	 1.968128e+01
1	 9.333269e-01	 4.520472e-01	 1.974554e+01
1	 9.278607e-01	 4.631633e-01	 1.909304e+01
1	 9.222511e-01	 4.742348e-01	 1.842172e+01
1	 9.164986e-01	 4.852589e-01	 1.773182e+01
1	 9.106034e-01	 4.962330e-01	 1.702357e+01
1	 9.045664e-01	 5.071543e-01	 1.629721e+01
1	 9.399935e-01	 4.552761e-01	 1.973796e+01
1	 9.344883e-01	 4.664716e-01	 1.908385e+01
1	 9.288387e-01	 4.776222e-01	 1.841023e+01
1	 9.230450e-01	 4.887251e-01	 1.771731e+01
1	 9.171078e-01	 4.997775e-01	 1.700530e+01
1	 9.110275e-01	 5.107769e-01	 1.627441e+01
1	 9.466602e-01	 4.585050e-01	 1.972819e+01
1	 9.411159e-01	 4.697799e-01	 1.907141e+01
1	 9.354262e-01	 4.810096e-01	 1.839439e+01
1	 9.295914e-01	 4.921912e-01	 1.769735e+01
1	 9.236121e-01	 5.033220e-01	 1.698047e+01
1	 9.174887e-01	 5.143994e-01	 1.624392e+01
1	 9.533268e-01	 4.617339e-01	 1.971578e+01
1	 9.477435e-01	 4.730882e-01	 1.905533e+01
1	 9.420137e-01	 4.843970e-01	 1.837388e+01
1	 9.361378e-01	 4.956573e-01	 1.767164e+01
1	 9.301164e-01	 5.068666e-01	 1.694875e+01
1	 9.239499e-01	 5.180219e-01	 1.620538e+01
1	 9.599934e-01	 4.649628e-01	 1.970029e+01
1	 9.543711e-01	 4.763966e-01	 1.903524e+01
1	 9.486012e-01	 4.877844e-01	 1.834836e+01
1	 9.426842e-01	 4.991235e-01	 1.763985e+01
1	 9.366207e-01	 5.104111e-01	 1.690982e+01
1	 9.304111e-01	 5.216445e-01	 1.615842e+01
1	 9.666600e-01	 4.681917e-01	 1.968128e+01
1	 9.609986e-01	 4.797049e-01	 1.901078e+01
1	 9.551887e-01	 4.911717e-01	 1.831752e+01
1	 9.492306e-01	 5.025896e-01	 1.760167e+01
1	 9.431250e-01	 5.139556e-01	 1.686337e+01
1	 9.368723e-01	 5.252670e-01	 1.610270e+01
1	 9.045664e-01	 5.071543e-01	 1.629721e+01
1	 8.983879e-01	 5.180202e-01	 1.555993e+01
1	 8.920688e-01	 5.288280e-01	 1.481925e+01
1	 8.856098e-01	 5.395749e-01	 1.407582e+01
1	 8.790117e-01	 5.502584e-01	 1.333032e+01
1	 8.722753e-01	 5.608757e-01	 1.258345e+01
1	 9.110275e-01	 5.107769e-01	 1.627441e+01
1	 9.048050e-01	 5.217204e-01	 1.553208e+01
1	 8.984407e-01	 5.326053e-01	 1.478605e+01
1	 8.919356e-01	 5.434290e-01	 1.403694e+01
1	 8.852903e-01	 5.541888e-01	 1.328540e+01
1	 8.785059e-01	 5.648820e-01	 1.253210e+01
1	 9.174887e-01	 5.143994e-01	 1.624392e+01
1	 9.112220e-01	 5.254205e-01	 1.549539e+01
1	 9.048127e-01	 5.363827e-01	 1.474284e+01
1	 8.982614e-01	 5.472831e-01	 1.398687e+01
1	 8.915690e-01	 5.581192e-01	 1.322809e+01
1	 8.847364e-01	 5.688882e-01	 1.246714e+01
1	 9.239499e-01	 5.180219e-01	 1.620538e+01
1	 9.176391e-01	 5.291207e-01	 1.544945e+01
1	 9.111846e-01	 5.401600e-01	 1.468920e+01
1	 9.045872e-01	 5.511372e-01	 1.392519e+01
1	 8.978476e-01	 5.620496e-01	 1.315800e+01
1	 8.909669e-01	 5.728945e-01	 1.238824e+01
1	 9.304111e-01	 5.216445e-01	 1.615842e+01
1	 9.240562e-01	 5.328208e-01	 1.539388e+01
1	 9.175565e-01	 5.439373e-01	 1.462473e+01
1	 9.109129e-01	 5.549913e-01	 1.385150e+01
1	 9.041263e-01	 5.659800e-01	 1.307475e+01
1	 8.971975e-01	 5.769007e-01	 1.229506e+01
1	 9.368723e-01	 5.252670e-01	 1.610270e+01
1	 9.304732e-01	 5.365209e-01	 1.532829e+01
1	 9.239284e-01	 5.477147e-01	 1.454902e+01
1	 9.172387e-01	 5.588454e-01	 1.376541e+01
1	 9.104050e-01	 5.699105e-01	 1.297798e+01
1	 9.034280e-01	 5.809070e-01	 1.218729e+01
1	 8.722753e-01	 5.608757e-01	 1.258345e+01
1	 8.654017e-01	 5.714243e-01	 1.184321e+01
1	 8.583918e-01	 5.819014e-01	 1.111779e+01
1	 8.512468e-01	 5.923046e-01	 1.040822e+01
1	 8.439677e-01	 6.026311e-01	 9.715645e+00
1	 8.365559e-01	 6.128785e-01	 9.041243e+00
1	 8.785059e-01	 5.648820e-01	 1.253210e+01
1	 8.715832e-01	 5.755059e-01	 1.178537e+01
1	 8.645232e-01	 5.860579e-01	 1.105375e+01
1	 8.573271e-01	 5.965353e-01	 1.033830e+01
1	 8.499961e-01	 6.069356e-01	 9.640137e+00
1	 8.425313e-01	 6.172562e-01	 8.960457e+00
1	 8.847364e-01	 5.688882e-01	 1.246714e+01
1	 8.777646e-01	 5.795875e-01	 1.171272e+01
1	 8.706546e-01	 5.902143e-01	 1.097376e+01
1	 8.634075e-01	 6.007661e-01	 1.025128e+01
1	 8.560244e-01	 6.112401e-01	 9.546403e+00
1	 8.485067e-01	 6.216339e-01	 8.860306e+00
1	 8.909669e-01	 5.728945e-01	 1.238824e+01
1	 8.839460e-01	 5.836691e-01	 1.162499e+01
1	 8.767860e-01	 5.943707e-01	 1.087754e+01
1	 8.694878e-01	 6.049968e-01	 1.014691e+01
1	 8.620528e-01	 6.155446e-01	 9.434178e+00
1	 8.544821e-01	 6.260116e-01	 8.740493e+00
1	 8.971975e-01	 5.769007e-01	 1.229506e+01
1	 8.901275e-01	 5.877507e-01	 1.152188e+01
1	 8.829173e-01	 5.985272e-01	 1.076485e+01
1	 8.755681e-01	 6.092275e-01	 1.002495e+01
1	 8.680811e-01	 6.198492e-01	 9.303204e+00
1	 8.604575e-01	 6.303893e-01	 8.600731e+00
1	 9.034280e-01	 5.809070e-01	 1.218729e+01
1	 8.963089e-01	 5.918323e-01	 1.140312e+01
1	 8.890487e-01	 6.026836e-01	 1.063544e+01
1	 8.816485e-01	 6.134583e-01	 9.885147e+00
1	 8.741094e-01	 6.241537e-01	 9.153229e+00
1	 8.664329e-01	 6.347671e-01	 8.440741e+00
1	 8.365559e-01	 6.128785e-01	 9.041243e+00
1	 8.290125e-01	 6.230443e-01	 8.390249e+00
1	 8.213389e-01	 6.331258e-01	 7.767877e+00
1	 8.135365e-01	 6.431207e-01	 7.175392e+00
1	 8.056068e-01	 6.530264e-01	 6.614124e+00
1	 7.975513e-01	 6.628406e-01	 6.085465e+00
1	 8.425313e-01	 6.172562e-01	 8.960457e+00
1	 8.349340e-01	 6.274946e-01	 8.304549e+00
1	 8.272056e-01	 6.376481e-01	 7.677706e+00
1	 8.193475e-01	 6.477144e-01	 7.081248e+00
1	 8.113611e-01	 6.576909e-01	 6.516561e+00
1	 8.032481e-01	 6.675752e-01	 5.985100e+00
1	 8.485067e-01	 6.216339e-01	 8.860306e+00
1	 8.408555e-01	 6.319449e-01	 8.198348e+00
1	 8.330723e-01	 6.421704e-01	 7.565947e+00
1	 8.251584e-01	 6.523081e-01	 6.964498e+00
1	 8.171155e-01	 6.623554e-01	 6.395472e+00
1	 8.089449e-01	 6.723098e-01	 5.860414e+00
1	 8.544821e-01	 6.260116e-01	 8.740493e+00
1	 8.467770e-01	 6.363952e-01	 8.071317e+00
1	 8.389390e-01	 6.466928e-01	 7.432252e+00
1	 8.309694e-01	 6.569018e-01	 6.824790e+00
1	 8.228698e-01	 6.670198e-01	 6.250513e+00
1	 8.146417e-01	 6.770443e-01	 5.711083e+00
1	 8.604575e-01	 6.303893e-01	 8.600731e+00
1	 8.526985e-01	 6.408455e-01	 7.923139e+00
1	 8.448057e-01	 6.512151e-01	 7.276283e+00
1	 8.367804e-01	 6.614955e-01	 6.661781e+00
1	 8.286241e-01	 6.716843e-01	 6.081347e+00
1	 8.203385e-01	 6.817789e-01	 5.536789e+00
1	 8.664329e-01	 6.347671e-01	 8.440741e+00
1	 8.586201e-01	 6.452958e-01	 7.753501e+00
1	 8.506724e-01	 6.557374e-01	 7.097712e+00
1	 8.425914e-01	 6.660893e-01	 6.475138e+00
1	 8.343785e-01	 6.763488e-01	 5.887651e+00
1	 8.260353e-01	 6.865135e-01	 5.337227e+00
1	 7.975513e-01	 6.628406e-01	 6.085465e+00
1	 7.893717e-01	 6.725609e-01	 5.589726e+00
1	 7.810694e-01	 6.821850e-01	 5.128479e+00
1	 7.726464e-01	 6.917105e-01	 4.705165e+00
1	 7.641043e-01	 7.011351e-01	 4.323373e+00
1	 7.554449e-01	 7.104568e-01	 3.986833e+00
1	 8.032481e-01	 6.675752e-01	 5.985100e+00
1	 7.950100e-01	 6.773649e-01	 5.487814e+00
1	 7.866485e-01	 6.870577e-01	 5.026888e+00
1	 7.781653e-01	 6.966513e-01	 4.605801e+00
1	 7.695621e-01	 7.061433e-01	 4.228174e+00
1	 7.608409e-01	 7.155315e-01	 3.897772e+00
1	 8.089449e-01	 6.723098e-01	 5.860414e+00
1	 8.006484e-01	 6.821689e-01	 5.360874e+00
1	 7.922276e-01	 6.919305e-01	 4.899534e+00
1	 7.836842e-01	 7.015921e-01	 4.479808e+00
1	 7.750200e-01	 7.111514e-01	 4.105254e+00
1	 7.662370e-01	 7.206062e-01	 3.779569e+00
1	 8.146417e-01	 6.770443e-01	 5.711083e+00
1	 8.062868e-01	 6.869729e-01	 5.208596e+00
1	 7.978066e-01	 6.968032e-01	 4.746096e+00
1	 7.892031e-01	 7.065328e-01	 4.326839e+00
1	 7.804779e-01	 7.161595e-01	 3.954221e+00
1	 7.716330e-01	 7.256809e-01	 3.631773e+00
1	 8.203385e-01	 6.817789e-01	 5.536789e+00
1	 8.119251e-01	 6.917770e-01	 5.030678e+00
1	 8.033857e-01	 7.016760e-01	 4.566266e+00
1	 7.947220e-01	 7.114736e-01	 4.146558e+00
1	 7.859358e-01	 7.211676e-01	 3.774695e+00
1	 7.770290e-01	 7.307556e-01	 3.453944e+00
1	 8.260353e-01	 6.865135e-01	 5.337227e+00
1	 8.175635e-01	 6.965810e-01	 4.826824e+00
1	 8.089648e-01	 7.065487e-01	 4.359740e+00
1	 8.002409e-01	 7.164144e-01	 3.938638e+00
1	 7.913937e-01	 7.261757e-01	 3.566305e+00
1	 7.824251e-01	 7.358302e-01	 3.245654e+00
1	 7.554449e-01	 7.104568e-01	 3.986833e+00
1	 7.466701e-01	 7.196732e-01	 3.689498e+00
1	 7.377819e-01	 7.287823e-01	 3.420457e+00
1	 7.287823e-01	 7.377819e-01	 3.176107e+00
1	 7.196732e-01	 7.466701e-01	 2.952671e+00
1	 7.104568e-01	 7.554449e-01	 2.746210e+00
1	 7.608409e-01	 7.155315e-01	 3.897772e+00
1	 7.520035e-01	 7.248137e-01	 3.606594e+00
1	 7.430518e-01	 7.339879e-01	 3.341566e+00
1	 7.339879e-01	 7.430518e-01	 3.098794e+00
1	 7.248137e-01	 7.520035e-01	 2.874205e+00
1	 7.155315e-01	 7.608409e-01	 2.663553e+00
1	 7.662370e-01	 7.206062e-01	 3.779569e+00
1	 7.573368e-01	 7.299543e-01	 3.492730e+00
1	 7.483217e-01	 7.391935e-01	 3.229650e+00
1	 7.391935e-01	 7.483217e-01	 2.986384e+00
1	 7.299543e-01	 7.573368e-01	 2.758805e+00
1	 7.206062e-01	 7.662370e-01	 2.542615e+00
1	 7.716330e-01	 7.256809e-01	 3.631773e+00
1	 7.626702e-01	 7.350948e-01	 3.347429e+00
1	 7.535916e-01	 7.443991e-01	 3.084291e+00
1	 7.443991e-01	 7.535916e-01	 2.838596e+00
1	 7.350948e-01	 7.626702e-01	 2.606404e+00
1	 7.256809e-01	 7.716330e-01	 2.383609e+00
1	 7.770290e-01	 7.307556e-01	 3.453944e+00
1	 7.680036e-01	 7.402353e-01	 3.170229e+00
1	 7.588614e-01	 7.496046e-01	 2.905085e+00
1	 7.496046e-01	 7.588614e-01	 2.655161e+00
1	 7.402353e-01	 7.680036e-01	 2.416938e+00
1	 7.307556e-01	 7.770290e-01	 2.186745e+00
1	 7.824251e-01	 7.358302e-01	 3.245654e+00
1	 7.733369e-01	 7.453758e-01	 2.960678e+00
1	 7.641313e-01	 7.548102e-01	 2.691637e+00
1	 7.548102e-01	 7.641313e-01	 2.435814e+00
1	 7.453758e-01	 7.733369e-01	 2.190345e+00
1	 7.358302e-01	 7.824251e-01	 1.952225e+00
1	 7.104568e-01	 7.554449e-01	 2.746210e+00
1	 7.011351e-01	 7.641043e-01	 2.539981e+00
1	 6.917105e-01	 7.726464e-01	 2.319042e+00
1	 6.821850e-01	 7.810694e-01	 2.081927e+00
1	 6.725609e-01	 7.893717e-01	 1.827033e+00
1	 6.628406e-01	 7.975513e-01	 1.552627e+00
1	 7.155315e-01	 7.608409e-01	 2.663553e+00
1	 7.061433e-01	 7.695621e-01	 2.449869e+00
1	 6.966513e-01	 7.781653e-01	 2.218459e+00
1	 6.870577e-01	 7.866485e-01	 1.968278e+00
1	 6.773649e-01	 7.950100e-01	 1.698149e+00
1	 6.675752e-01	 8.032481e-01	 1.406778e+00
1	 7.206062e-01	 7.662370e-01	 2.542615e+00
1	 7.111514e-01	 7.750200e-01	 2.320868e+00
1	 7.015921e-01	 7.836842e-01	 2.079069e+00
1	 6.919305e-01	 7.922276e-01	 1.816373e+00
1	 6.821689e-01	 8.006484e-01	 1.531815e+00
1	 6.723098e-01	 8.089449e-01	 1.224311e+00
1	 7.256809e-01	 7.716330e-01	 2.383609e+00
1	 7.161595e-01	 7.804779e-01	 2.153462e+00
1	 7.065328e-01	 7.892031e-01	 1.901530e+00
1	 6.968032e-01	 7.978066e-01	 1.626966e+00
1	 6.869729e-01	 8.062868e-01	 1.328796e+00
1	 6.770443e-01	 8.146417e-01	 1.005926e+00
1	 7.307556e-01	 7.770290e-01	 2.186745e+00
1	 7.211676e-01	 7.859358e-01	 1.948118e+00
1	 7.114736e-01	 7.947220e-01	 1.686485e+00
1	 7.016760e-01	 8.033857e-01	 1.400787e+00
1	 6.917770e-01	 8.119251e-01	 1.089834e+00
1	 6.817789e-01	 8.203385e-01	 7.523057e-01
1	 7.358302e-01	 7.824251e-01	 1.952225e+00
1	 7.261757e-01	 7.913937e-01	 1.705294e+00
1	 7.164144e-01	 8.002409e-01	 1.434556e+00
1	 7.065487e-01	 8.089648e-01	 1.138549e+00
1	 6.965810e-01	 8.175635e-01	 8.156549e-01
1	 6.865135e-01	 8.260353e-01	 4.641142e-01
1	 6.628406e-01	 7.975513e-01	 1.552627e+00
1	 6.530264e-01	 8.056068e-01	 1.256069e+00
1	 6.431207e-01	 8.135365e-01	 9.352283e-01
1	 6.331258e-01	 8.213389e-01	 5.889808e-01
1	 6.230443e-01	 8.290125e-01	 2.161305e-01
1	 6.128785e-01	 8.365559e-01	-1.845844e-01
1	 6.675752e-01	 8.032481e-01	 1.406778e+00
1	 6.576909e-01	 8.113611e-01	 1.092052e+00
1	 6.477144e-01	 8.193475e-01	 7.519033e-01
1	 6.376481e-01	 8.272056e-01	 3.849566e-01
1	 6.274946e-01	 8.349340e-01	-1.024004e-02
1	 6.172562e-01	 8.425313e-01	-4.352103e-01
1	 6.723098e-01	 8.089449e-01	 1.224311e+00
1	 6.623554e-01	 8.171155e-01	 8.920120e-01
1	 6.523081e-01	 8.251584e-01	 5.328494e-01
1	 6.421704e-01	 8.330723e-01	 1.452568e-01
1	 6.319449e-01	 8.408555e-01	-2.724131e-01
1	 6.216339e-01	 8.485067e-01	-7.218834e-01
1	 6.770443e-01	 8.146417e-01	 1.005926e+00
1	 6.670198e-01	 8.228698e-01	 6.565586e-01
1	 6.569018e-01	 8.309694e-01	 2.785975e-01
1	 6.466928e-01	 8.389390e-01	-1.296548e-01
1	 6.363952e-01	 8.467770e-01	-5.699809e-01
1	 6.260116e-01	 8.544821e-01	-1.044243e+00
1	 6.817789e-01	 8.203385e-01	 7.523057e-01
1	 6.716843e-01	 8.286241e-01	 3.862845e-01
1	 6.614955e-01	 8.367804e-01	-1.033611e-02
1	 6.512151e-01	 8.448057e-01	-4.393269e-01
1	 6.408455e-01	 8.526985e-01	-9.025469e-01
1	 6.303893e-01	 8.604575e-01	-1.401938e+00
1	 6.865135e-01	 8.260353e-01	 4.641142e-01
1	 6.763488e-01	 8.343785e-01	 8.176628e-02
1	 6.660893e-01	 8.425914e-01	-3.334496e-01
1	 6.557374e-01	 8.506724e-01	-7.833209e-01
1	 6.452958e-01	 8.586201e-01	-1.269726e+00
1	 6.347671e-01	 8.664329e-01	-1.794627e+00
1	 6.128785e-01	 8.365559e-01	-1.845844e-01
1	 6.026311e-01	 8.439677e-01	-6.116827e-01
1	 5.923046e-01	 8.512468e-01	-1.063356e+00
1	 5.819014e-01	 8.583918e-01	-1.540445e+00
1	 5.714243e-01	 8.654017e-01	-2.043815e+00
1	 5.608757e-01	 8.722753e-01	-2.574356e+00
1	 6.172562e-01	 8.425313e-01	-4.352103e-01
1	 6.069356e-01	 8.499961e-01	-8.884943e-01
1	 5.965353e-01	 8.573271e-01	-1.368101e+00
1	 5.860579e-01	 8.645232e-01	-1.874832e+00
1	 5.755059e-01	 8.715832e-01	-2.409514e+00
1	 5.648820e-01	 8.785059e-01	-2.973001e+00
1	 6.216339e-01	 8.485067e-01	-7.218834e-01
1	 6.112401e-01	 8.560244e-01	-1.201642e+00
1	 6.007661e-01	 8.634075e-01	-1.709484e+00
1	 5.902143e-01	 8.706546e-01	-2.246169e+00
1	 5.795875e-01	 8.777646e-01	-2.812484e+00
1	 5.688882e-01	 8.847364e-01	-3.409240e+00
1	 6.260116e-01	 8.544821e-01	-1.044243e+00
1	 6.155446e-01	 8.620528e-01	-1.550797e+00
1	 6.049968e-01	 8.694878e-01	-2.087185e+00
1	 5.943707e-01	 8.767860e-01	-2.654125e+00
1	 5.836691e-01	 8.839460e-01	-3.252357e+00
1	 5.728945e-01	 8.909669e-01	-3.882648e+00
1	 6.303893e-01	 8.604575e-01	-1.401938e+00
1	 6.198492e-01	 8.680811e-01	-1.935639e+00
1	 6.092275e-01	 8.755681e-01	-2.500894e+00
1	 5.985272e-01	 8.829173e-01	-3.098375e+00
1	 5.877507e-01	 8.901275e-01	-3.728776e+00
1	 5.769007e-01	 8.971975e-01	-4.392812e+00
1	 6.347671e-01	 8.664329e-01	-1.794627e+00
1	 6.241537e-01	 8.741094e-01	-2.355856e+00
1	 6.134583e-01	 8.816485e-01	-2.950307e+00
1	 6.026836e-01	 8.890487e-01	-3.578605e+00
1	 5.918323e-01	 8.963089e-01	-4.241394e+00
1	 5.809070e-01	 9.034280e-01	-4.939332e+00
1	 5.608757e-01	 8.722753e-01	-2.574356e+00
1	 5.502584e-01	 8.790117e-01	-3.126186e+00
1	 5.395749e-01	 8.856098e-01	-3.692388e+00
1	 5.288280e-01	 8.920688e-01	-4.272294e+00
1	 5.180202e-01	 8.983879e-01	-4.865214e+00
1	 5.071543e-01	 9.045664e-01	-5.470430e+00
1	 5.648820e-01	 8.785059e-01	-2.973001e+00
1	 5.541888e-01	 8.852903e-01	-3.558982e+00
1	 5.434290e-01	 8.919356e-01	-4.160091e+00
1	 5.326053e-01	 8.984407e-01	-4.775595e+00
1	 5.217204e-01	 9.048050e-01	-5.404728e+00
1	 5.107769e-01	 9.110275e-01	-6.046693e+00
1	 5.688882e-01	 8.847364e-01	-3.409240e+00
1	 5.581192e-01	 8.915690e-01	-4.029656e+00
1	 5.472831e-01	 8.982614e-01	-4.665914e+00
1	 5.363827e-01	 9.048127e-01	-5.317264e+00
1	 5.254205e-01	 9.112220e-01	-5.982918e+00
1	 5.143994e-01	 9.174887e-01	-6.662054e+00
1	 5.728945e-01	 8.909669e-01	-3.882648e+00
1	 5.620496e-01	 8.978476e-01	-4.537737e+00
1	 5.511372e-01	 9.045872e-01	-5.209381e+00
1	 5.401600e-01	 9.111846e-01	-5.896860e+00
1	 5.291207e-01	 9.176391e-01	-6.599416e+00
1	 5.180219e-01	 9.239499e-01	-7.316258e+00
1	 5.769007e-01	 8.971975e-01	-4.392812e+00
1	 5.659800e-01	 9.041263e-01	-5.082766e+00
1	 5.549913e-01	 9.109129e-01	-5.790028e+00
1	 5.439373e-01	 9.175565e-01	-6.513954e+00
1	 5.328208e-01	 9.240562e-01	-7.253868e+00
1	 5.216445e-01	 9.304111e-01	-8.009059e+00
1	 5.809070e-01	 9.034280e-01	-4.939332e+00
1	 5.699105e-01	 9.104050e-01	-5.664300e+00
1	 5.588454e-01	 9.172387e-01	-6.407405e+00
1	 5.477147e-01	 9.239284e-01	-7.168129e+00
1	 5.365209e-01	 9.304732e-01	-7.945924e+00
1	 5.252670e-01	 9.368723e-01	-8.740215e+00
1	 5.071543e-01	 9.045664e-01	-5.470430e+00
1	 4.962330e-01	 9.106034e-01	-6.080693e+00
1	 4.852589e-01	 9.164986e-01	-6.688298e+00
1	 4.742348e-01	 9.222511e-01	-7.291807e+00
1	 4.631633e-01	 9.278607e-01	-7.889746e+00
1	 4.520472e-01	 9.333269e-01	-8.480609e+00
1	 5.107769e-01	 9.110275e-01	-6.046693e+00
1	 4.997775e-01	 9.171078e-01	-6.693951e+00
1	 4.887251e-01	 9.230450e-01	-7.338499e+00
1	 4.776222e-01	 9.288387e-01	-7.978798e+00
1	 4.664716e-01	 9.344883e-01	-8.613273e+00
1	 4.552761e-01	 9.399935e-01	-9.240321e+00
1	 5.143994e-01	 9.174887e-01	-6.662054e+00
1	 5.033220e-01	 9.236121e-01	-7.346898e+00
1	 4.921912e-01	 9.295914e-01	-8.029110e+00
1	 4.810096e-01	 9.354262e-01	-8.706970e+00
1	 4.697799e-01	 9.411159e-01	-9.378721e+00
1	 4.585050e-01	 9.466602e-01	-1.004257e+01
1	 5.180219e-01	 9.239499e-01	-7.316258e+00
1	 5.068666e-01	 9.301164e-01	-8.039383e+00
1	 4.956573e-01	 9.361378e-01	-8.760035e+00
1	 4.843970e-01	 9.420137e-01	-9.476233e+00
1	 4.730882e-01	 9.477435e-01	-1.018595e+01
1	 4.617339e-01	 9.533268e-01	-1.088714e+01
1	 5.216445e-01	 9.304111e-01	-8.009059e+00
1	 5.104111e-01	 9.366207e-01	-8.771261e+00
1	 4.991235e-01	 9.426842e-01	-9.531180e+00
1	 4.877844e-01	 9.486012e-01	-1.028650e+01
1	 4.763966e-01	 9.543711e-01	-1.103484e+01
1	 4.649628e-01	 9.599934e-01	-1.177380e+01
1	 5.252670e-01	 9.368723e-01	-8.740215e+00
1	 5.139556e-01	 9.431250e-01	-9.542391e+00
1	 5.025896e-01	 9.492306e-01	-1.034245e+01
1	 4.911717e-01	 9.551887e-01	-1.113767e+01
1	 4.797049e-01	 9.609986e-01	-1.192525e+01
1	 4.681917e-01	 9.666600e-01	-1.270234e+01
1	 4.520472e-01	 9.333269e-01	-8.480609e+00
1	 4.408891e-01	 9.386493e-01	-9.055118e+00
1	 4.296918e-01	 9.438277e-01	-9.602639e+00
1	 4.184580e-01	 9.488618e-01	-1.011958e+01
1	 4.071902e-01	 9.537515e-01	-1.060232e+01
1	 3.958913e-01	 9.584967e-01	-1.104721e+01
1	 4.552761e-01	 9.399935e-01	-9.240321e+00
1	 4.440383e-01	 9.453540e-01	-9.850191e+00
1	 4.327610e-01	 9.505693e-01	-1.043176e+01
1	 4.214469e-01	 9.556394e-01	-1.098132e+01
1	 4.100987e-01	 9.605640e-01	-1.149511e+01
1	 3.987191e-01	 9.653431e-01	-1.196935e+01
1	 4.585050e-01	 9.466602e-01	-1.004257e+01
1	 4.471875e-01	 9.520586e-01	-1.068823e+01
1	 4.358303e-01	 9.573110e-01	-1.130412e+01
1	 4.244359e-01	 9.624170e-01	-1.188649e+01
1	 4.130072e-01	 9.673765e-01	-1.243154e+01
1	 4.015469e-01	 9.721895e-01	-1.293546e+01
1	 4.617339e-01	 9.533268e-01	-1.088714e+01
1	 4.503368e-01	 9.587633e-01	-1.156891e+01
1	 4.388995e-01	 9.640526e-01	-1.221933e+01
1	 4.274249e-01	 9.691946e-01	-1.283468e+01
1	 4.159157e-01	 9.741890e-01	-1.341121e+01
1	 4.043747e-01	 9.790359e-01	-1.394513e+01
1	 4.649628e-01	 9.599934e-01	-1.177380e+01
1	 4.534860e-01	 9.654679e-01	-1.249192e+01
1	 4.419687e-01	 9.707942e-01	-1.317702e+01
1	 4.304139e-01	 9.759722e-01	-1.382549e+01
1	 4.188242e-01	 9.810016e-01	-1.443370e+01
1	 4.072025e-01	 9.858823e-01	-1.499800e+01
1	 4.681917e-01	 9.666600e-01	-1.270234e+01
1	 4.566352e-01	 9.721725e-01	-1.345696e+01
1	 4.450380e-01	 9.775358e-01	-1.417683e+01
1	 4.334029e-01	 9.827497e-01	-1.485853e+01
1	 4.217327e-01	 9.878141e-01	-1.549863e+01
1	 4.100303e-01	 9.927287e-01	-1.609369e+01
1	 3.958913e-01	 9.584967e-01	-1.104721e+01
1	 3.845639e-01	 9.630973e-01	-1.145347e+01
1	 3.732105e-01	 9.675535e-01	-1.181913e+01
1	 3.618340e-01	 9.718652e-01	-1.213865e+01
1	 3.504368e-01	 9.760327e-01	-1.240649e+01
1	 3.390217e-01	 9.800562e-01	-1.261711e+01
1	 3.987191e-01	 9.653431e-01	-1.196935e+01
1	 3.873107e-01	 9.699766e-01	-1.240272e+01
1	 3.758763e-01	 9.744646e-01	-1.279244e+01
1	 3.644185e-01	 9.788071e-01	-1.313256e+01
1	 3.529399e-01	 9.830044e-01	-1.341710e+01
1	 3.414432e-01	 9.870566e-01	-1.364006e+01
1	 4.015469e-01	 9.721895e-01	-1.293546e+01
1	 3.900576e-01	 9.768559e-01	-1.339635e+01
1	 3.785421e-01	 9.813757e-01	-1.381060e+01
1	 3.670030e-01	 9.857490e-01	-1.417179e+01
1	 3.554431e-01	 9.899760e-01	-1.447346e+01
1	 3.438648e-01	 9.940570e-01	-1.470914e+01
1	 4.043747e-01	 9.790359e-01	-1.394513e+01
1	 3.928045e-01	 9.837351e-01	-1.443401e+01
1	 3.812079e-01	 9.882868e-01	-1.487332e+01
1	 3.695876e-01	 9.926909e-01	-1.525611e+01
1	 3.579462e-01	 9.969477e-01	-1.557541e+01
1	 3.462864e-01	 1.001057e+00	-1.582425e+01
1	 4.072025e-01	 9.858823e-01	-1.499800e+01
1	 3.955514e-01	 9.906144e-01	-1.551538e+01
1	 3.838737e-01	 9.951979e-01	-1.598030e+01
1	 3.721721e-01	 9.996328e-01	-1.638528e+01
1	 3.604493e-01	 1.003919e+00	-1.672279e+01
1	 3.487080e-01	 1.008058e+00	-1.698529e+01
1	 4.100303e-01	 9.927287e-01	-1.609369e+01
1	 3.982983e-01	 9.974937e-01	-1.664012e+01
1	 3.865395e-01	 1.002109e+00	-1.713127e+01
1	 3.747566e-01	 1.006575e+00	-1.755907e+01
1	 3.629524e-01	 1.010891e+00	-1.791542e+01
1	 3.511296e-01	 1.015058e+00	-1.819218e+01
1	 3.390217e-01	 9.800562e-01	-1.261711e+01
1	 3.275911e-01	 9.839359e-01	-1.277360e+01
1	 3.161476e-01	 9.876723e-01	-1.288284e+01
1	 3.046939e-01	 9.912656e-01	-1.294494e+01
1	 2.932323e-01	 9.947164e-01	-1.296010e+01
1	 2.817654e-01	 9.980251e-01	-1.292858e+01
1	 3.414432e-01	 9.870566e-01	-1.364006e+01
1	 3.299310e-01	 9.909640e-01	-1.380510e+01
1	 3.184058e-01	 9.947271e-01	-1.391984e+01
1	 3.068702e-01	 9.983461e-01	-1.398440e+01
1	 2.953268e-01	 1.001821e+00	-1.399895e+01
1	 2.837781e-01	 1.005154e+00	-1.396375e+01
1	 3.438648e-01	 9.940570e-01	-1.470914e+01
1	 3.322709e-01	 9.979922e-01	-1.488300e+01
1	 3.206640e-01	 1.001782e+00	-1.500344e+01
1	 3.090466e-01	 1.005427e+00	-1.507043e+01
1	 2.974213e-01	 1.008927e+00	-1.508401e+01
1	 2.857907e-01	 1.012283e+00	-1.504432e+01
1	 3.462864e-01	 1.001057e+00	-1.582425e+01
1	 3.346109e-01	 1.005020e+00	-1.600728e+01
1	 3.229222e-01	 1.008837e+00	-1.613360e+01
1	 3.112230e-01	 1.012507e+00	-1.620294e+01
1	 2.995159e-01	 1.016032e+00	-1.621512e+01
1	 2.878033e-01	 1.019411e+00	-1.617002e+01
1	 3.487080e-01	 1.008058e+00	-1.698529e+01
1	 3.369508e-01	 1.012048e+00	-1.717791e+01
1	 3.251804e-01	 1.015891e+00	-1.731031e+01
1	 3.133994e-01	 1.019587e+00	-1.738189e+01
1	 3.016104e-01	 1.023137e+00	-1.739213e+01
1	 2.898159e-01	 1.026540e+00	-1.734057e+01
1	 3.511296e-01	 1.015058e+00	-1.819218e+01
1	 3.392907e-01	 1.019076e+00	-1.839484e+01
1	 3.274386e-01	 1.022946e+00	-1.853353e+01
1	 3.155758e-01	 1.026668e+00	-1.860721e+01
1	 3.037049e-01	 1.030242e+00	-1.861490e+01
1	 2.918285e-01	 1.033669e+00	-1.855572e+01
1	 2.817654e-01	 9.980251e-01	-1.292858e+01
1	 2.702957e-01	 1.001192e+00	-1.285248e+01
1	 2.588256e-01	 1.004219e+00	-1.273533e+01
1	 2.473576e-01	 1.007105e+00	-1.257964e+01
1	 2.358938e-01	 1.009851e+00	-1.238795e+01
1	 2.244369e-01	 1.012459e+00	-1.216285e+01
1	 2.837781e-01	 1.005154e+00	-1.396375e+01
1	 2.722264e-01	 1.008344e+00	-1.388101e+01
1	 2.606744e-01	 1.011392e+00	-1.375445e+01
1	 2.491244e-01	 1.014298e+00	-1.358669e+01
1	 2.375788e-01	 1.017065e+00	-1.338036e+01
1	 2.260400e-01	 1.019691e+00	-1.313815e+01
1	 2.857907e-01	 1.012283e+00	-1.504432e+01
1	 2.741571e-01	 1.015495e+00	-1.495365e+01
1	 2.625232e-01	 1.018565e+00	-1.481600e+01
1	 2.508912e-01	 1.021492e+00	-1.463421e+01
1	 2.392638e-01	 1.024278e+00	-1.441114e+01
1	 2.276431e-01	 1.026923e+00	-1.414970e+01
1	 2.878033e-01	 1.019411e+00	-1.617002e+01
1	 2.760878e-01	 1.022646e+00	-1.606999e+01
1	 2.643719e-01	 1.025738e+00	-1.591946e+01
1	 2.526581e-01	 1.028686e+00	-1.572162e+01
1	 2.409487e-01	 1.031491e+00	-1.547967e+01
1	 2.292462e-01	 1.034155e+00	-1.519690e+01
1	 2.898159e-01	 1.026540e+00	-1.734057e+01
1	 2.780185e-01	 1.029798e+00	-1.722963e+01
1	 2.662207e-01	 1.032911e+00	-1.706435e+01
1	 2.544249e-01	 1.035879e+00	-1.684837e+01
1	 2.426337e-01	 1.038704e+00	-1.658538e+01
1	 2.308493e-01	 1.041387e+00	-1.627914e+01
1	 2.918285e-01	 1.033669e+00	-1.855572e+01
1	 2.799492e-01	 1.036949e+00	-1.843219e+01
1	 2.680694e-01	 1.040084e+00	-1.825018e+01
1	 2.561918e-01	 1.043073e+00	-1.801392e+01
1	 2.443186e-01	 1.045918e+00	-1.772770e+01
1	 2.324525e-01	 1.048619e+00	-1.739588e+01
1	 2.244369e-01	 1.012459e+00	-1.216285e+01
1	 2.129889e-01	 1.014929e+00	-1.190962e+01
1	 2.015523e-01	 1.017262e+00	-1.163485e+01
1	 1.901292e-01	 1.019459e+00	-1.134310e+01
1	 1.787220e-01	 1.021521e+00	-1.103895e+01
1	 1.673326e-01	 1.023448e+00	-1.072694e+01
1	 2.260400e-01	 1.019691e+00	-1.313815e+01
1	 2.145103e-01	 1.022179e+00	-1.286562e+01
1	 2.029920e-01	 1.024528e+00	-1.256976e+01
1	 1.914873e-01	 1.026741e+00	-1.225540e+01
1	 1.799985e-01	 1.028817e+00	-1.192739e+01
1	 1.685278e-01	 1.030758e+00	-1.159057e+01
1	 2.276431e-01	 1.026923e+00	-1.414970e+01
1	 2.160316e-01	 1.029428e+00	-1.385585e+01
1	 2.044316e-01	 1.031795e+00	-1.353695e+01
1	 1.928454e-01	 1.034023e+00	-1.319813e+01
1	 1.812751e-01	 1.036114e+00	-1.284447e+01
1	 1.697231e-01	 1.038069e+00	-1.248108e+01
1	 2.292462e-01	 1.034155e+00	-1.519690e+01
1	 2.175530e-01	 1.036678e+00	-1.487970e+01
1	 2.058713e-01	 1.039061e+00	-1.453586e+01
1	 1.942034e-01	 1.041305e+00	-1.417074e+01
1	 1.825517e-01	 1.043410e+00	-1.378969e+01
1	 1.709183e-01	 1.045379e+00	-1.339804e+01
1	 2.308493e-01	 1.041387e+00	-1.627914e+01
1	 2.190743e-01	 1.043927e+00	-1.593661e+01
1	 2.073109e-01	 1.046327e+00	-1.556593e+01
1	 1.955615e-01	 1.048586e+00	-1.517271e+01
1	 1.838283e-01	 1.050707e+00	-1.476254e+01
1	 1.721135e-01	 1.052689e+00	-1.434099e+01
1	 2.324525e-01	 1.048619e+00	-1.739588e+01
1	 2.205957e-01	 1.051177e+00	-1.702601e+01
1	 2.087506e-01	 1.053593e+00	-1.662662e+01
1	 1.969196e-01	 1.055868e+00	-1.620354e+01
1	 1.851049e-01	 1.058003e+00	-1.576257e+01
1	 1.733088e-01	 1.060000e+00	-1.530952e+01
1	 1.673326e-01	 1.023448e+00	-1.072694e+01
1	 1.559633e-01	 1.025242e+00	-1.041234e+01
1	 1.446162e-01	 1.026904e+00	-1.010102e+01
1	 1.332933e-01	 1.028435e+00	-9.798429e+00
1	 1.219967e-01	 1.029836e+00	-9.509931e+00
1	 1.107283e-01	 1.031109e+00	-9.240831e+00
1	 1.685278e-01	 1.030758e+00	-1.159057e+01
1	 1.570774e-01	 1.032565e+00	-1.125055e+01
1	 1.456492e-01	 1.034239e+00	-1.091369e+01
1	 1.342454e-01	 1.035781e+00	-1.058584e+01
1	 1.228681e-01	 1.037192e+00	-1.027278e+01
1	 1.115192e-01	 1.038474e+00	-9.980232e+00
1	 1.697231e-01	 1.038069e+00	-1.248108e+01
1	 1.581914e-01	 1.039888e+00	-1.211397e+01
1	 1.466822e-01	 1.041574e+00	-1.174999e+01
1	 1.351975e-01	 1.043127e+00	-1.139538e+01
1	 1.237395e-01	 1.044548e+00	-1.105634e+01
1	 1.123101e-01	 1.045839e+00	-1.073899e+01
1	 1.709183e-01	 1.045379e+00	-1.339804e+01
1	 1.593054e-01	 1.047212e+00	-1.300221e+01
1	 1.477151e-01	 1.048909e+00	-1.260954e+01
1	 1.361496e-01	 1.050473e+00	-1.222670e+01
1	 1.246109e-01	 1.051904e+00	-1.186027e+01
1	 1.131010e-01	 1.053204e+00	-1.151676e+01
1	 1.721135e-01	 1.052689e+00	-1.434099e+01
1	 1.604194e-01	 1.054535e+00	-1.391486e+01
1	 1.487481e-01	 1.056244e+00	-1.349200e+01
1	 1.371017e-01	 1.057819e+00	-1.307947e+01
1	 1.254823e-01	 1.059260e+00	-1.268425e+01
1	 1.138919e-01	 1.060569e+00	-1.231322e+01
1	 1.733088e-01	 1.060000e+00	-1.530952e+01
1	 1.615335e-01	 1.061858e+00	-1.485156e+01
1	 1.497811e-01	 1.063579e+00	-1.439702e+01
1	 1.380538e-01	 1.065165e+00	-1.395336e+01
1	 1.263537e-01	 1.066616e+00	-1.352796e+01
1	 1.146828e-01	 1.067934e+00	-1.312807e+01
1	 1.107283e-01	 1.031109e+00	-9.240831e+00
1	 9.948996e-02	 1.032254e+00	-8.996529e+00
1	 8.828371e-02	 1.033272e+00	-8.782125e+00
1	 7.711134e-02	 1.034166e+00	-8.602343e+00
1	 6.597466e-02	 1.034936e+00	-8.461808e+00
1	 5.487545e-02	 1.035584e+00	-8.365037e+00
1	 1.115192e-01	 1.038474e+00	-9.980232e+00
1	 1.002006e-01	 1.039627e+00	-9.713979e+00
1	 8.891430e-02	 1.040653e+00	-9.479468e+00
1	 7.766213e-02	 1.041553e+00	-9.281743e+00
1	 6.644591e-02	 1.042329e+00	-9.125739e+00
1	 5.526742e-02	 1.042981e+00	-9.016276e+00
1	 1.123101e-01	 1.045839e+00	-1.073899e+01
1	 1.009112e-01	 1.047000e+00	-1.044949e+01
1	 8.954490e-02	 1.048033e+00	-1.019363e+01
1	 7.821293e-02	 1.048940e+00	-9.976800e+00
1	 6.691716e-02	 1.049721e+00	-9.804262e+00
1	 5.565938e-02	 1.050378e+00	-9.681154e+00
1	 1.131010e-01	 1.053204e+00	-1.151676e+01
1	 1.016219e-01	 1.054373e+00	-1.120271e+01
1	 9.017550e-02	 1.055414e+00	-1.092427e+01
1	 7.876372e-02	 1.056327e+00	-1.068717e+01
1	 6.738841e-02	 1.057114e+00	-1.049703e+01
1	 5.605135e-02	 1.057775e+00	-1.035933e+01
1	 1.138919e-01	 1.060569e+00	-1.231322e+01
1	 1.023325e-01	 1.061747e+00	-1.197332e+01
1	 9.080610e-02	 1.062794e+00	-1.167105e+01
1	 7.931452e-02	 1.063714e+00	-1.141253e+01
1	 6.785965e-02	 1.064506e+00	-1.120372e+01
1	 5.644332e-02	 1.065172e+00	-1.105047e+01
1	 1.146828e-01	 1.067934e+00	-1.312807e+01
1	 1.030432e-01	 1.069120e+00	-1.276100e+01
1	 9.143669e-02	 1.070175e+00	-1.243365e+01
1	 7.986531e-02	 1.071101e+00	-1.215253e+01
1	 6.833090e-02	 1.071898e+00	-1.192400e+01
1	 5.683529e-02	 1.072569e+00	-1.175426e+01
1	 5.487545e-02	 1.035584e+00	-8.365037e+00
1	 4.381542e-02	 1.036111e+00	-8.316365e+00
1	 3.279624e-02	 1.036518e+00	-8.319199e+00
1	 2.181956e-02	 1.036807e+00	-8.376497e+00
1	 1.088696e-02	 1.036980e+00	-8.491114e+00
1	 0.000000e+00	 1.037037e+00	-8.665795e+00
1	 5.526742e-02	 1.042981e+00	-9.016276e+00
1	 4.412838e-02	 1.043512e+00	-8.958009e+00
1	 3.303050e-02	 1.043922e+00	-8.954643e+00
1	 2.197541e-02	 1.044213e+00	-9.009400e+00
1	 1.096473e-02	 1.044387e+00	-9.125388e+00
1	 0.000000e+00	 1.044444e+00	-9.305598e+00
1	 5.565938e-02	 1.050378e+00	-9.681154e+00
1	 4.444135e-02	 1.050913e+00	-9.612478e+00
1	 3.326476e-02	 1.051326e+00	-9.602269e+00
1	 2.213127e-02	 1.051619e+00	-9.654027e+00
1	 1.104249e-02	 1.051794e+00	-9.771131e+00
1	 0.000000e+00	 1.051852e+00	-9.956832e+00
1	 5.605135e-02	 1.057775e+00	-1.035933e+01
1	 4.475432e-02	 1.058313e+00	-1.027943e+01
1	 3.349902e-02	 1.058729e+00	-1.026173e+01
1	 2.228712e-02	 1.059025e+00	-1.031002e+01
1	 1.112026e-02	 1.059201e+00	-1.042796e+01
1	 0.000000e+00	 1.059259e+00	-1.061909e+01
1	 5.644332e-02	 1.065172e+00	-1.105047e+01
1	 4.506728e-02	 1.065714e+00	-1.095854e+01
1	 3.373328e-02	 1.066133e+00	-1.093268e+01
1	 2.244298e-02	 1.066431e+00	-1.097701e+01
1	 1.119802e-02	 1.066608e+00	-1.109550e+01
1	 0.000000e+00	 1.066667e+00	-1.129196e+01
1	 5.683529e-02	 1.072569e+00	-1.175426e+01
1	 4.538025e-02	 1.073115e+00	-1.164948e+01
1	 3.396754e-02	 1.073537e+00	-1.161480e+01
1	 2.259883e-02	 1.073836e+00	-1.165467e+01
1	 1.127578e-02	 1.074015e+00	-1.177338e+01
1	 0.000000e+00	 1.074074e+00	-1.197506e+01
1	 1.074074e+00	 0.000000e+00	 2.777809e+01
1	 1.074015e+00	 1.127578e-02	 2.764582e+01
1	 1.073836e+00	 2.259883e-02	 2.752278e+01
1	 1.073537e+00	 3.396754e-02	 2.740798e+01
1	 1.073115e+00	 4.538025e-02	 2.730044e+01
1	 1.072569e+00	 5.683529e-02	 2.719919e+01
1	 1.081481e+00	 0.000000e+00	 2.745754e+01
1	 1.081422e+00	 1.135355e-02	 2.732028e+01
1	 1.081242e+00	 2.275468e-02	 2.719395e+01
1	 1.080941e+00	 3.420179e-02	 2.707749e+01
1	 1.080516e+00	 4.569322e-02	 2.696984e+01
1	 1.079966e+00	 5.722725e-02	 2.686997e+01
1	 1.088889e+00	 0.000000e+00	 2.714888e+01
1	 1.088829e+00	 1.143131e-02	 2.700638e+01
1	 1.088648e+00	 2.291054e-02	 2.687655e+01
1	 1.088344e+00	 3.443605e-02	 2.675826e+01
1	 1.087917e+00	 4.600619e-02	 2.665038e+01
1	 1.087363e+00	 5.761922e-02	 2.655182e+01
1	 1.096296e+00	 0.000000e+00	 2.685130e+01
1	 1.096236e+00	 1.150908e-02	 2.670328e+01
1	 1.096054e+00	 2.306639e-02	 2.656971e+01
1	 1.095748e+00	 3.467031e-02	 2.644942e+01
1	 1.095317e+00	 4.631915e-02	 2.634118e+01
1	 1.094760e+00	 5.801119e-02	 2.624383e+01
1	 1.103704e+00	 0.000000e+00	 2.656403e+01
1	 1.103643e+00	 1.158684e-02	 2.641018e+01
1	 1.103459e+00	 2.322225e-02	 2.627264e+01
1	 1.103152e+00	 3.490457e-02	 2.615014e+01
1	 1.102718e+00	 4.663212e-02	 2.604140e+01
1	 1.102157e+00	 5.840316e-02	 2.594515e+01
1	 1.111111e+00	 0.000000e+00	 2.628630e+01
1	 1.111050e+00	 1.166460e-02	 2.612631e+01
1	 1.110865e+00	 2.337810e-02	 2.598452e+01
1	 1.110555e+00	 3.513883e-02	 2.585960e+01
1	 1.110119e+00	 4.694509e-02	 2.575019e+01
1	 1.109554e+00	 5.879512e-02	 2.565494e+01
1	 1.072569e+00	 5.683529e-02	 2.719919e+01
1	 1.071898e+00	 6.833090e-02	 2.710379e+01
1	 1.071101e+00	 7.986531e-02	 2.701371e+01
1	 1.070175e+00	 9.143669e-02	 2.692783e+01
1	 1.069120e+00	 1.030432e-01	 2.684505e+01
1	 1.067934e+00	 1.146828e-01	 2.676433e+01
1	 1.079966e+00	 5.722725e-02	 2.686997e+01
1	 1.079291e+00	 6.880215e-02	 2.677741e+01
1	 1.078488e+00	 8.041611e-02	 2.669157e+01
1	 1.077555e+00	 9.206729e-02	 2.661126e+01
1	 1.076493e+00	 1.037538e-01	 2.653530e+01
1	 1.075299e+00	 1.154737e-01	 2.646256e+01
1	 1.087363e+00	 5.761922e-02	 2.655182e+01
1	 1.086683e+00	 6.927340e-02	 2.646205e+01
1	 1.085874e+00	 8.096690e-02	 2.638045e+01
1	 1.084936e+00	 9.269789e-02	 2.630575e+01
1	 1.083866e+00	 1.044645e-01	 2.623668e+01
1	 1.082664e+00	 1.162647e-01	 2.617200e+01
1	 1.094760e+00	 5.801119e-02	 2.624383e+01
1	 1.094076e+00	 6.974464e-02	 2.615681e+01
1	 1.093261e+00	 8.151770e-02	 2.607945e+01
1	 1.092317e+00	 9.332849e-02	 2.601037e+01
1	 1.091240e+00	 1.051751e-01	 2.594823e+01
1	 1.090029e+00	 1.170556e-01	 2.589169e+01
1	 1.102157e+00	 5.840316e-02	 2.594515e+01
1	 1.101468e+00	 7.021589e-02	 2.586081e+01
1	 1.100648e+00	 8.206849e-02	 2.578766e+01
1	 1.099697e+00	 9.395909e-02	 2.572422e+01
1	 1.098613e+00	 1.058857e-01	 2.566904e+01
1	 1.097394e+00	 1.178465e-01	 2.562068e+01
1	 1.109554e+00	 5.879512e-02	 2.565494e+01
1	 1.108860e+00	 7.068714e-02	 2.557321e+01
1	 1.108035e+00	 8.261929e-02	 2.550423e+01
1	 1.107078e+00	 9.458968e-02	 2.544642e+01
1	 1.105986e+00	 1.065964e-01	 2.539821e+01
1	 1.104759e+00	 1.186374e-01	 2.535808e+01
1	 1.067934e+00	 1.146828e-01	 2.676433e+01
1	 1.066616e+00	 1.263537e-01	 2.668457e+01
1	 1.065165e+00	 1.380538e-01	 2.660463e+01
1	 1.063579e+00	 1.497811e-01	 2.652339e+01
1	 1.061858e+00	 1.615335e-01	 2.643976e+01
1	 1.060000e+00	 1.733088e-01	 2.635272e+01
1	 1.075299e+00	 1.154737e-01	 2.646256e+01
1	 1.073972e+00	 1.272251e-01	 2.639186e+01
1	 1.072511e+00	 1.390059e-01	 2.632198e+01
1	 1.070914e+00	 1.508141e-01	 2.625171e+01
1	 1.069181e+00	 1.626475e-01	 2.617989e+01
1	 1.067310e+00	 1.745040e-01	 2.610540e+01
1	 1.082664e+00	 1.162647e-01	 2.617200e+01
1	 1.081328e+00	 1.280965e-01	 2.611046e+01
1	 1.079857e+00	 1.399580e-01	 2.605073e+01
1	 1.078249e+00	 1.518470e-01	 2.599152e+01
1	 1.076504e+00	 1.637615e-01	 2.593158e+01
1	 1.074620e+00	 1.756992e-01	 2.586970e+01
1	 1.090029e+00	 1.170556e-01	 2.589169e+01
1	 1.088684e+00	 1.289679e-01	 2.583940e+01
1	 1.087203e+00	 1.409101e-01	 2.578993e+01
1	 1.085584e+00	 1.528800e-01	 2.574190e+01
1	 1.083827e+00	 1.648755e-01	 2.569395e+01
1	 1.081931e+00	 1.768945e-01	 2.564479e+01
1	 1.097394e+00	 1.178465e-01	 2.562068e+01
1	 1.096040e+00	 1.298393e-01	 2.557772e+01
1	 1.094549e+00	 1.418622e-01	 2.553863e+01
1	 1.092919e+00	 1.539130e-01	 2.550192e+01
1	 1.091150e+00	 1.659895e-01	 2.546613e+01
1	 1.089241e+00	 1.780897e-01	 2.542984e+01
1	 1.104759e+00	 1.186374e-01	 2.535808e+01
1	 1.103396e+00	 1.307107e-01	 2.532451e+01
1	 1.101895e+00	 1.428143e-01	 2.529592e+01
1	 1.100254e+00	 1.549460e-01	 2.527070e+01
1	 1.098474e+00	 1.671036e-01	 2.524725e+01
1	 1.096551e+00	 1.792849e-01	 2.522406e+01
1	 1.060000e+00	 1.733088e-01	 2.635272e+01
1	 1.058003e+00	 1.851049e-01	 2.626092e+01
1	 1.055868e+00	 1.969196e-01	 2.616340e+01
1	 1.053593e+00	 2.087506e-01	 2.605974e+01
1	 1.051177e+00	 2.205957e-01	 2.594959e+01
1	 1.048619e+00	 2.324525e-01	 2.583265e+01
1	 1.067310e+00	 1.745040e-01	 2.610540e+01
1	 1.065300e+00	 1.863815e-01	 2.602681e+01
1	 1.063150e+00	 1.982776e-01	 2.594306e+01
1	 1.060859e+00	 2.101903e-01	 2.585367e+01
1	 1.058426e+00	 2.221170e-01	 2.575822e+01
1	 1.055850e+00	 2.340556e-01	 2.565638e+01
1	 1.074620e+00	 1.756992e-01	 2.586970e+01
1	 1.072597e+00	 1.876581e-01	 2.580433e+01
1	 1.070432e+00	 1.996357e-01	 2.573428e+01
1	 1.068125e+00	 2.116299e-01	 2.565903e+01
1	 1.065676e+00	 2.236384e-01	 2.557809e+01
1	 1.063082e+00	 2.356587e-01	 2.549104e+01
1	 1.081931e+00	 1.768945e-01	 2.564479e+01
1	 1.079893e+00	 1.889346e-01	 2.559269e+01
1	 1.077714e+00	 2.009938e-01	 2.553636e+01
1	 1.075392e+00	 2.130696e-01	 2.547519e+01
1	 1.072925e+00	 2.251597e-01	 2.540860e+01
1	 1.070314e+00	 2.372618e-01	 2.533609e+01
1	 1.089241e+00	 1.780897e-01	 2.542984e+01
1	 1.087190e+00	 1.902112e-01	 2.539116e+01
1	 1.084996e+00	 2.023518e-01	 2.534862e+01
1	 1.082658e+00	 2.145092e-01	 2.530152e+01
1	 1.080175e+00	 2.266811e-01	 2.524918e+01
1	 1.077546e+00	 2.388649e-01	 2.519101e+01
1	 1.096551e+00	 1.792849e-01	 2.522406e+01
1	 1.094486e+00	 1.914878e-01	 2.519901e+01
1	 1.092278e+00	 2.037099e-01	 2.517040e+01
1	 1.089924e+00	 2.159489e-01	 2.513742e+01
1	 1.087424e+00	 2.282024e-01	 2.509929e+01
1	 1.084778e+00	 2.404681e-01	 2.505531e+01
1	 1.048619e+00	 2.324525e-01	 2.583265e+01
1	 1.045918e+00	 2.443186e-01	 2.570582e+01
1	 1.043073e+00	 2.561918e-01	 2.556609e+01
1	 1.040084e+00	 2.680694e-01	 2.541337e+01
1	 1.036949e+00	 2.799492e-01	 2.524763e+01
1	 1.033669e+00	 2.918285e-01	 2.506892e+01
1	 1.055850e+00	 2.340556e-01	 2.565638e+01
1	 1.053131e+00	 2.460036e-01	 2.554494e+01
1	 1.050266e+00	 2.579586e-01	 2.542077e+01
1	 1.047257e+00	 2.699182e-01	 2.528375e+01
1	 1.044101e+00	 2.818799e-01	 2.513381e+01
1	 1.040798e+00	 2.938411e-01	 2.497096e+01
1	 1.063082e+00	 2.356587e-01	 2.549104e+01
1	 1.060344e+00	 2.476885e-01	 2.539461e+01
1	 1.057460e+00	 2.597254e-01	 2.528564e+01
1	 1.054430e+00	 2.717669e-01	 2.516400e+01
1	 1.051252e+00	 2.838105e-01	 2.502960e+01
1	 1.047926e+00	 2.958537e-01	 2.488245e+01
1	 1.070314e+00	 2.372618e-01	 2.533609e+01
1	 1.067557e+00	 2.493735e-01	 2.525434e+01
1	 1.064654e+00	 2.614923e-01	 2.516022e+01
1	 1.061603e+00	 2.736157e-01	 2.505360e+01
1	 1.058403e+00	 2.857412e-01	 2.493443e+01
1	 1.055055e+00	 2.978663e-01	 2.480275e+01
1	 1.077546e+00	 2.388649e-01	 2.519101e+01
1	 1.074770e+00	 2.510584e-01	 2.512366e+01
1	 1.071847e+00	 2.632591e-01	 2.504404e+01
1	 1.068776e+00	 2.754644e-01	 2.495207e+01
1	 1.065555e+00	 2.876719e-01	 2.484778e+01
1	 1.062184e+00	 2.998789e-01	 2.473125e+01
1	 1.084778e+00	 2.404681e-01	 2.505531e+01
1	 1.081984e+00	 2.527434e-01	 2.500209e+01
1	 1.079041e+00	 2.650260e-01	 2.493663e+01
1	 1.075949e+00	 2.773132e-01	 2.485894e+01
1	 1.072706e+00	 2.896026e-01	 2.476912e+01
1	 1.069313e+00	 3.018915e-01	 2.466736e+01
1	 1.033669e+00	 2.918285e-01	 2.506892e+01
1	 1.030242e+00	 3.037049e-01	 2.487892e+01
1	 1.026668e+00	 3.155758e-01	 2.468006e+01
1	 1.022946e+00	 3.274386e-01	 2.447361e+01
1	 1.019076e+00	 3.392907e-01	 2.426092e+01
1	 1.015058e+00	 3.511296e-01	 2.404335e+01
1	 1.040798e+00	 2.938411e-01	 2.497096e+01
1	 1.037347e+00	 3.057994e-01	 2.479659e+01
1	 1.033748e+00	 3.177522e-01	 2.461288e+01
1	 1.030001e+00	 3.296968e-01	 2.442109e+01
1	 1.026105e+00	 3.416307e-01	 2.422252e+01
1	 1.022059e+00	 3.535512e-01	 2.401849e+01
1	 1.047926e+00	 2.958537e-01	 2.488245e+01
1	 1.044452e+00	 3.078939e-01	 2.472355e+01
1	 1.040829e+00	 3.199286e-01	 2.455467e+01
1	 1.037056e+00	 3.319550e-01	 2.437702e+01
1	 1.033133e+00	 3.439706e-01	 2.419187e+01
1	 1.029059e+00	 3.559727e-01	 2.400049e+01
1	 1.055055e+00	 2.978663e-01	 2.480275e+01
1	 1.051557e+00	 3.099884e-01	 2.465907e+01
1	 1.047909e+00	 3.221049e-01	 2.450462e+01
1	 1.044111e+00	 3.342132e-01	 2.434059e+01
1	 1.040161e+00	 3.463106e-01	 2.416815e+01
1	 1.036059e+00	 3.583943e-01	 2.398851e+01
1	 1.062184e+00	 2.998789e-01	 2.473125e+01
1	 1.058662e+00	 3.120830e-01	 2.460246e+01
1	 1.054990e+00	 3.242813e-01	 2.446200e+01
1	 1.051165e+00	 3.364714e-01	 2.431098e+01
1	 1.047189e+00	 3.486505e-01	 2.415053e+01
1	 1.043060e+00	 3.608159e-01	 2.398174e+01
1	 1.069313e+00	 3.018915e-01	 2.466736e+01
1	 1.065768e+00	 3.141775e-01	 2.455303e+01
1	 1.062070e+00	 3.264577e-01	 2.442605e+01
1	 1.058220e+00	 3.387296e-01	 2.428743e+01
1	 1.054217e+00	 3.509904e-01	 2.413820e+01
1	 1.050060e+00	 3.632375e-01	 2.397936e+01
1	 1.015058e+00	 3.511296e-01	 2.404335e+01
1	 1.010891e+00	 3.629524e-01	 2.380256e+01
1	 1.006575e+00	 3.747566e-01	 2.351950e+01
1	 1.002109e+00	 3.865395e-01	 2.319435e+01
1	 9.974937e-01	 3.982983e-01	 2.282713e+01
1	 9.927287e-01	 4.100303e-01	 2.241765e+01
1	 1.022059e+00	 3.535512e-01	 2.401849e+01
1	 1.017863e+00	 3.654555e-01	 2.378922e+01
1	 1.013517e+00	 3.773412e-01	 2.351427e+01
1	 1.009020e+00	 3.892053e-01	 2.319394e+01
1	 1.004373e+00	 4.010452e-01	 2.282830e+01
1	 9.995751e-01	 4.128581e-01	 2.241728e+01
1	 1.029059e+00	 3.559727e-01	 2.400049e+01
1	 1.024834e+00	 3.679587e-01	 2.378171e+01
1	 1.020458e+00	 3.799257e-01	 2.351384e+01
1	 1.015931e+00	 3.918711e-01	 2.319726e+01
1	 1.011252e+00	 4.037920e-01	 2.283215e+01
1	 1.006422e+00	 4.156859e-01	 2.241853e+01
1	 1.036059e+00	 3.583943e-01	 2.398851e+01
1	 1.031806e+00	 3.704618e-01	 2.377923e+01
1	 1.027400e+00	 3.825102e-01	 2.351745e+01
1	 1.022842e+00	 3.945369e-01	 2.320365e+01
1	 1.018131e+00	 4.065389e-01	 2.283813e+01
1	 1.013268e+00	 4.185137e-01	 2.242102e+01
1	 1.043060e+00	 3.608159e-01	 2.398174e+01
1	 1.038778e+00	 3.729649e-01	 2.378098e+01
1	 1.034342e+00	 3.850947e-01	 2.352436e+01
1	 1.029753e+00	 3.972026e-01	 2.321247e+01
1	 1.025011e+00	 4.092858e-01	 2.284571e+01
1	 1.020114e+00	 4.213415e-01	 2.242436e+01
1	 1.050060e+00	 3.632375e-01	 2.397936e+01
1	 1.045749e+00	 3.754680e-01	 2.378620e+01
1	 1.041284e+00	 3.876793e-01	 2.353387e+01
1	 1.036664e+00	 3.998684e-01	 2.322309e+01
1	 1.031890e+00	 4.120327e-01	 2.285439e+01
1	 1.026961e+00	 4.241693e-01	 2.242819e+01
1	 9.927287e-01	 4.100303e-01	 2.241765e+01
1	 9.878141e-01	 4.217327e-01	 2.196288e+01
1	 9.827497e-01	 4.334029e-01	 2.146072e+01
1	 9.775358e-01	 4.450380e-01	 2.091231e+01
1	 9.721725e-01	 4.566352e-01	 2.031877e+01
1	 9.666600e-01	 4.681917e-01	 1.968128e+01
1	 9.995751e-01	 4.128581e-01	 2.241728e+01
1	 9.946266e-01	 4.246412e-01	 2.195918e+01
1	 9.895273e-01	 4.363919e-01	 2.145317e+01
1	 9.842775e-01	 4.481072e-01	 2.090036e+01
1	 9.788772e-01	 4.597844e-01	 2.030190e+01
1	 9.733267e-01	 4.714206e-01	 1.965894e+01
1	 1.006422e+00	 4.156859e-01	 2.241853e+01
1	 1.001439e+00	 4.275497e-01	 2.195607e+01
1	 9.963049e-01	 4.393809e-01	 2.144522e+01
1	 9.910191e-01	 4.511764e-01	 2.088708e+01
1	 9.855818e-01	 4.629336e-01	 2.028280e+01
1	 9.799933e-01	 4.746496e-01	 1.963351e+01
1	 1.013268e+00	 4.185137e-01	 2.242102e+01
1	 1.008252e+00	 4.304582e-01	 2.195331e+01
1	 1.003082e+00	 4.423698e-01	 2.143671e+01
1	 9.977607e-01	 4.542456e-01	 2.087233e+01
1	 9.922865e-01	 4.660828e-01	 2.026129e+01
1	 9.866599e-01	 4.778785e-01	 1.960473e+01
1	 1.020114e+00	 4.213415e-01	 2.242436e+01
1	 1.015064e+00	 4.333667e-01	 2.195065e+01
1	 1.009860e+00	 4.453588e-01	 2.142749e+01
1	 1.004502e+00	 4.573149e-01	 2.085597e+01
1	 9.989911e-01	 4.692320e-01	 2.023721e+01
1	 9.933265e-01	 4.811074e-01	 1.957234e+01
1	 1.026961e+00	 4.241693e-01	 2.242819e+01
1	 1.021877e+00	 4.362752e-01	 2.194787e+01
1	 1.016638e+00	 4.483478e-01	 2.141739e+01
1	 1.011244e+00	 4.603841e-01	 2.083785e+01
1	 1.005696e+00	 4.723812e-01	 2.021038e+01
1	 9.999931e-01	 4.843363e-01	 1.953605e+01
1	 9.666600e-01	 4.681917e-01	 1.968128e+01
1	 9.609986e-01	 4.797049e-01	 1.901078e+01
1	 9.551887e-01	 4.911717e-01	 1.831752e+01
1	 9.492306e-01	 5.025896e-01	 1.760167e+01
1	 9.431250e-01	 5.139556e-01	 1.686337e+01
1	 9.368723e-01	 5.252670e-01	 1.610270e+01
1	 9.733267e-01	 4.714206e-01	 1.965894e+01
1	 9.676262e-01	 4.830132e-01	 1.898216e+01
1	 9.617762e-01	 4.945591e-01	 1.828161e+01
1	 9.557771e-01	 5.060557e-01	 1.755742e+01
1	 9.496293e-01	 5.175001e-01	 1.680971e+01
1	 9.433335e-01	 5.288895e-01	 1.603855e+01
1	 9.799933e-01	 4.746496e-01	 1.963351e+01
1	 9.742538e-01	 4.863215e-01	 1.894961e+01
1	 9.683637e-01	 4.979465e-01	 1.824082e+01
1	 9.623235e-01	 5.095219e-01	 1.750727e+01
1	 9.561336e-01	 5.210447e-01	 1.674908e+01
1	 9.497947e-01	 5.325120e-01	 1.596629e+01
1	 9.866599e-01	 4.778785e-01	 1.960473e+01
1	 9.808814e-01	 4.896298e-01	 1.891273e+01
1	 9.749512e-01	 5.013339e-01	 1.819471e+01
1	 9.688699e-01	 5.129880e-01	 1.745081e+01
1	 9.626379e-01	 5.245892e-01	 1.668111e+01
1	 9.562559e-01	 5.361346e-01	 1.588564e+01
1	 9.933265e-01	 4.811074e-01	 1.957234e+01
1	 9.875089e-01	 4.929381e-01	 1.887117e+01
1	 9.815387e-01	 5.047213e-01	 1.814289e+01
1	 9.754163e-01	 5.164541e-01	 1.738761e+01
1	 9.691422e-01	 5.281337e-01	 1.660541e+01
1	 9.627171e-01	 5.397571e-01	 1.579632e+01
1	 9.999931e-01	 4.843363e-01	 1.953605e+01
1	 9.941365e-01	 4.962464e-01	 1.882456e+01
1	 9.881262e-01	 5.081087e-01	 1.808492e+01
1	 9.819627e-01	 5.199203e-01	 1.731725e+01
1	 9.756465e-01	 5.316782e-01	 1.652161e+01
1	 9.691782e-01	 5.433796e-01	 1.569803e+01
1	 9.368723e-01	 5.252670e-01	 1.610270e+01
1	 9.304732e-01	 5.365209e-01	 1.532829e+01
1	 9.239284e-01	 5.477147e-01	 1.454902e+01
1	 9.172387e-01	 5.588454e-01	 1.376541e+01
1	 9.104050e-01	 5.699105e-01	 1.297798e+01
1	 9.034280e-01	 5.809070e-01	 1.218729e+01
1	 9.433335e-01	 5.288895e-01	 1.603855e+01
1	 9.368903e-01	 5.402211e-01	 1.525301e+01
1	 9.303003e-01	 5.514920e-01	 1.446244e+01
1	 9.235645e-01	 5.626996e-01	 1.366731e+01
1	 9.166836e-01	 5.738409e-01	 1.286812e+01
1	 9.096586e-01	 5.849132e-01	 1.206540e+01
1	 9.497947e-01	 5.325120e-01	 1.596629e+01
1	 9.433073e-01	 5.439212e-01	 1.516848e+01
1	 9.366723e-01	 5.552694e-01	 1.436550e+01
1	 9.298903e-01	 5.665537e-01	 1.355778e+01
1	 9.229623e-01	 5.777713e-01	 1.274577e+01
1	 9.158891e-01	 5.889195e-01	 1.192996e+01
1	 9.562559e-01	 5.361346e-01	 1.588564e+01
1	 9.497244e-01	 5.476214e-01	 1.507452e+01
1	 9.430442e-01	 5.590467e-01	 1.425807e+01
1	 9.362161e-01	 5.704078e-01	 1.343669e+01
1	 9.292409e-01	 5.817017e-01	 1.261077e+01
1	 9.221196e-01	 5.929257e-01	 1.178075e+01
1	 9.627171e-01	 5.397571e-01	 1.579632e+01
1	 9.561414e-01	 5.513215e-01	 1.497092e+01
1	 9.494161e-01	 5.628241e-01	 1.414002e+01
1	 9.425419e-01	 5.742619e-01	 1.330393e+01
1	 9.355196e-01	 5.856321e-01	 1.246299e+01
1	 9.283502e-01	 5.969320e-01	 1.161758e+01
1	 9.691782e-01	 5.433796e-01	 1.569803e+01
1	 9.625585e-01	 5.550217e-01	 1.485751e+01
1	 9.557880e-01	 5.666014e-01	 1.401121e+01
1	 9.488676e-01	 5.781160e-01	 1.315938e+01
1	 9.417982e-01	 5.895626e-01	 1.230230e+01
1	 9.345807e-01	 6.009383e-01	 1.144026e+01
1	 9.034280e-01	 5.809070e-01	 1.218729e+01
1	 8.963089e-01	 5.918323e-01	 1.140312e+01
1	 8.890487e-01	 6.026836e-01	 1.063544e+01
1	 8.816485e-01	 6.134583e-01	 9.885147e+00
1	 8.741094e-01	 6.241537e-01	 9.153229e+00
1	 8.664329e-01	 6.347671e-01	 8.440741e+00
1	 9.096586e-01	 5.849132e-01	 1.206540e+01
1	 9.024904e-01	 5.959139e-01	 1.126922e+01
1	 8.951801e-01	 6.068400e-01	 1.048980e+01
1	 8.877288e-01	 6.176890e-01	 9.727982e+00
1	 8.801378e-01	 6.284582e-01	 8.984709e+00
1	 8.724083e-01	 6.391448e-01	 8.260973e+00
1	 9.158891e-01	 5.889195e-01	 1.192996e+01
1	 9.086718e-01	 5.999955e-01	 1.112067e+01
1	 9.013114e-01	 6.109965e-01	 1.032837e+01
1	 8.938091e-01	 6.219198e-01	 9.553860e+00
1	 8.861661e-01	 6.327627e-01	 8.798041e+00
1	 8.783837e-01	 6.435225e-01	 8.061863e+00
1	 9.221196e-01	 5.929257e-01	 1.178075e+01
1	 9.148532e-01	 6.040771e-01	 1.095720e+01
1	 9.074428e-01	 6.151529e-01	 1.015083e+01
1	 8.998895e-01	 6.261505e-01	 9.362449e+00
1	 8.921945e-01	 6.370672e-01	 8.592902e+00
1	 8.843591e-01	 6.479002e-01	 7.843119e+00
1	 9.283502e-01	 5.969320e-01	 1.161758e+01
1	 9.210347e-01	 6.081587e-01	 1.077853e+01
1	 9.135742e-01	 6.193094e-01	 9.956891e+00
1	 9.059698e-01	 6.303813e-01	 9.153424e+00
1	 8.982228e-01	 6.413717e-01	 8.368974e+00
1	 8.903345e-01	 6.522779e-01	 7.604456e+00
1	 9.345807e-01	 6.009383e-01	 1.144026e+01
1	 9.272161e-01	 6.122403e-01	 1.058442e+01
1	 9.197055e-01	 6.234658e-01	 9.746241e+00
1	 9.120501e-01	 6.346120e-01	 8.926470e+00
1	 9.042512e-01	 6.456762e-01	 8.125949e+00
1	 8.963099e-01	 6.566556e-01	 7.345598e+00
1	 8.664329e-01	 6.347671e-01	 8.440741e+00
1	 8.586201e-01	 6.452958e-01	 7.753501e+00
1	 8.506724e-01	 6.557374e-01	 7.097712e+00
1	 8.425914e-01	 6.660893e-01	 6.475138e+00
1	 8.343785e-01	 6.763488e-01	 5.887651e+00
1	 8.260353e-01	 6.865135e-01	 5.337227e+00
1	 8.724083e-01	 6.391448e-01	 8.260973e+00
1	 8.645416e-01	 6.497462e-01	 7.562887e+00
1	 8.565391e-01	 6.602598e-01	 6.897073e+00
1	 8.484023e-01	 6.706830e-01	 6.265434e+00
1	 8.401328e-01	 6.810133e-01	 5.669992e+00
1	 8.317321e-01	 6.912481e-01	 5.112882e+00
1	 8.783837e-01	 6.435225e-01	 8.061863e+00
1	 8.704631e-01	 6.541965e-01	 7.351804e+00
1	 8.624058e-01	 6.647821e-01	 6.674945e+00
1	 8.542133e-01	 6.752767e-01	 6.033288e+00
1	 8.458871e-01	 6.856777e-01	 5.428963e+00
1	 8.374289e-01	 6.959827e-01	 4.864224e+00
1	 8.843591e-01	 6.479002e-01	 7.843119e+00
1	 8.763846e-01	 6.586468e-01	 7.119996e+00
1	 8.682725e-01	 6.693044e-01	 6.431084e+00
1	 8.600243e-01	 6.798704e-01	 5.778448e+00
1	 8.516415e-01	 6.903422e-01	 5.164286e+00
1	 8.431257e-01	 7.007172e-01	 4.590926e+00
1	 8.903345e-01	 6.522779e-01	 7.604456e+00
1	 8.823061e-01	 6.630971e-01	 6.867211e+00
1	 8.741392e-01	 6.738267e-01	 6.165254e+00
1	 8.658353e-01	 6.844641e-01	 5.500671e+00
1	 8.573958e-01	 6.950067e-01	 4.875690e+00
1	 8.488225e-01	 7.054518e-01	 4.292672e+00
1	 8.963099e-01	 6.566556e-01	 7.345598e+00
1	 8.882276e-01	 6.675474e-01	 6.593206e+00
1	 8.800059e-01	 6.783491e-01	 5.877221e+00
1	 8.716462e-01	 6.890578e-01	 5.199717e+00
1	 8.631502e-01	 6.996711e-01	 4.562909e+00
1	 8.545193e-01	 7.101864e-01	 3.969155e+00
1	 8.260353e-01	 6.865135e-01	 5.337227e+00
1	 8.175635e-01	 6.965810e-01	 4.826824e+00
1	 8.089648e-01	 7.065487e-01	 4.359740e+00
1	 8.002409e-01	 7.164144e-01	 3.938638e+00
1	 7.913937e-01	 7.261757e-01	 3.566305e+00
1	 7.824251e-01	 7.358302e-01	 3.245654e+00
1	 8.317321e-01	 6.912481e-01	 5.112882e+00
1	 8.232019e-01	 7.013850e-01	 4.597338e+00
1	 8.145438e-01	 7.114215e-01	 4.126589e+00
1	 8.057598e-01	 7.213552e-01	 3.702947e+00
1	 7.968516e-01	 7.311838e-01	 3.328845e+00
1	 7.878211e-01	 7.409049e-01	 3.006831e+00
1	 8.374289e-01	 6.959827e-01	 4.864224e+00
1	 8.288402e-01	 7.061890e-01	 4.342469e+00
1	 8.201229e-01	 7.162942e-01	 3.866832e+00
1	 8.112787e-01	 7.262960e-01	 3.439352e+00
1	 8.023095e-01	 7.361919e-01	 3.062183e+00
1	 7.932171e-01	 7.459796e-01	 2.737594e+00
1	 8.431257e-01	 7.007172e-01	 4.590926e+00
1	 8.344786e-01	 7.109930e-01	 4.061856e+00
1	 8.257020e-01	 7.211670e-01	 3.580114e+00
1	 8.167976e-01	 7.312368e-01	 3.147538e+00
1	 8.077674e-01	 7.412000e-01	 2.766083e+00
1	 7.986132e-01	 7.510543e-01	 2.437818e+00
1	 8.488225e-01	 7.054518e-01	 4.292672e+00
1	 8.401170e-01	 7.157970e-01	 3.755149e+00
1	 8.312810e-01	 7.260397e-01	 3.266088e+00
1	 8.223165e-01	 7.361776e-01	 2.827199e+00
1	 8.132252e-01	 7.462081e-01	 2.440313e+00
1	 8.040092e-01	 7.561290e-01	 2.107380e+00
1	 8.545193e-01	 7.101864e-01	 3.969155e+00
1	 8.457553e-01	 7.206010e-01	 3.422007e+00
1	 8.368601e-01	 7.309125e-01	 2.924415e+00
1	 8.278354e-01	 7.411184e-01	 2.478035e+00
1	 8.186831e-01	 7.512162e-01	 2.084648e+00
1	 8.094052e-01	 7.612037e-01	 1.746159e+00
1	 7.824251e-01	 7.358302e-01	 3.245654e+00
1	 7.733369e-01	 7.453758e-01	 2.960678e+00
1	 7.641313e-01	 7.548102e-01	 2.691637e+00
1	 7.548102e-01	 7.641313e-01	 2.435814e+00
1	 7.453758e-01	 7.733369e-01	 2.190345e+00
1	 7.358302e-01	 7.824251e-01	 1.952225e+00
1	 7.878211e-01	 7.409049e-01	 3.006831e+00
1	 7.786703e-01	 7.505163e-01	 2.719141e+00
1	 7.694012e-01	 7.600158e-01	 2.444989e+00
1	 7.600158e-01	 7.694012e-01	 2.182380e+00
1	 7.505163e-01	 7.786703e-01	 1.929193e+00
1	 7.409049e-01	 7.878211e-01	 1.683186e+00
1	 7.932171e-01	 7.459796e-01	 2.737594e+00
1	 7.840036e-01	 7.556569e-01	 2.446268e+00
1	 7.746710e-01	 7.652214e-01	 2.166494e+00
1	 7.652214e-01	 7.746710e-01	 1.896956e+00
1	 7.556569e-01	 7.840036e-01	 1.636228e+00
1	 7.459796e-01	 7.932171e-01	 1.382782e+00
1	 7.986132e-01	 7.510543e-01	 2.437818e+00
1	 7.893370e-01	 7.607974e-01	 2.142048e+00
1	 7.799409e-01	 7.704270e-01	 1.856234e+00
1	 7.704270e-01	 7.799409e-01	 1.579692e+00
1	 7.607974e-01	 7.893370e-01	 1.311646e+00
1	 7.510543e-01	 7.986132e-01	 1.051235e+00
1	 8.040092e-01	 7.561290e-01	 2.107380e+00
1	 7.946704e-01	 7.659379e-01	 1.806473e+00
1	 7.852108e-01	 7.756326e-01	 1.514289e+00
1	 7.756326e-01	 7.852108e-01	 1.230734e+00
1	 7.659379e-01	 7.946704e-01	 9.556378e-01
1	 7.561290e-01	 8.040092e-01	 6.887604e-01
1	 8.094052e-01	 7.612037e-01	 1.746159e+00
1	 8.000037e-01	 7.710784e-01	 1.439533e+00
1	 7.904807e-01	 7.808382e-01	 1.140736e+00
1	 7.808382e-01	 7.904807e-01	 8.502240e-01
1	 7.710784e-01	 8.000037e-01	 5.683906e-01
1	 7.612037e-01	 8.094052e-01	 2.955681e-01
1	 7.358302e-01	 7.824251e-01	 1.952225e+00
1	 7.261757e-01	 7.913937e-01	 1.705294e+00
1	 7.164144e-01	 8.002409e-01	 1.434556e+00
1	 7.065487e-01	 8.089648e-01	 1.138549e+00
1	 6.965810e-01	 8.175635e-01	 8.156549e-01
1	 6.865135e-01	 8.260353e-01	 4.641142e-01
1	 7.409049e-01	 7.878211e-01	 1.683186e+00
1	 7.311838e-01	 7.968516e-01	 1.428347e+00
1	 7.213552e-01	 8.057598e-01	 1.148994e+00
1	 7.114215e-01	 8.145438e-01	 8.431720e-01
1	 7.013850e-01	 8.232019e-01	 5.087517e-01
1	 6.912481e-01	 8.317321e-01	 1.434425e-01
1	 7.459796e-01	 7.932171e-01	 1.382782e+00
1	 7.361919e-01	 8.023095e-01	 1.120502e+00
1	 7.262960e-01	 8.112787e-01	 8.328189e-01
1	 7.162942e-01	 8.201229e-01	 5.173109e-01
1	 7.061890e-01	 8.288402e-01	 1.713661e-01
1	 6.959827e-01	 8.374289e-01	-2.078089e-01
1	 7.510543e-01	 7.986132e-01	 1.051235e+00
1	 7.412000e-01	 8.077674e-01	 7.819988e-01
1	 7.312368e-01	 8.167976e-01	 4.862921e-01
1	 7.211670e-01	 8.257020e-01	 1.612553e-01
1	 7.109930e-01	 8.344786e-01	-1.961804e-01
1	 7.007172e-01	 8.431257e-01	-5.892833e-01
1	 7.561290e-01	 8.040092e-01	 6.887604e-01
1	 7.462081e-01	 8.132252e-01	 4.130700e-01
1	 7.361776e-01	 8.223165e-01	 1.096694e-01
1	 7.260397e-01	 8.312810e-01	-2.247127e-01
1	 7.157970e-01	 8.401170e-01	-5.935751e-01
1	 7.054518e-01	 8.488225e-01	-1.000634e+00
1	 7.612037e-01	 8.094052e-01	 2.955681e-01
1	 7.512162e-01	 8.186831e-01	 1.394261e-02
1	 7.411184e-01	 8.278354e-01	-2.968010e-01
1	 7.309125e-01	 8.368601e-01	-6.403188e-01
1	 7.206010e-01	 8.457553e-01	-1.020513e+00
1	 7.101864e-01	 8.545193e-01	-1.441522e+00
1	 6.865135e-01	 8.260353e-01	 4.641142e-01
1	 6.763488e-01	 8.343785e-01	 8.176628e-02
1	 6.660893e-01	 8.425914e-01	-3.334496e-01
1	 6.557374e-01	 8.506724e-01	-7.833209e-01
1	 6.452958e-01	 8.586201e-01	-1.269726e+00
1	 6.347671e-01	 8.664329e-01	-1.794627e+00
1	 6.912481e-01	 8.317321e-01	 1.434425e-01
1	 6.810133e-01	 8.401328e-01	-2.551567e-01
1	 6.706830e-01	 8.484023e-01	-6.889865e-01
1	 6.602598e-01	 8.565391e-01	-1.159838e+00
1	 6.497462e-01	 8.645416e-01	-1.669597e+00
1	 6.391448e-01	 8.724083e-01	-2.220232e+00
1	 6.959827e-01	 8.374289e-01	-2.078089e-01
1	 6.856777e-01	 8.458871e-01	-6.227552e-01
1	 6.752767e-01	 8.542133e-01	-1.075232e+00
1	 6.647821e-01	 8.624058e-01	-1.567063e+00
1	 6.541965e-01	 8.704631e-01	-2.100171e+00
1	 6.435225e-01	 8.783837e-01	-2.676565e+00
1	 7.007172e-01	 8.431257e-01	-5.892833e-01
1	 6.903422e-01	 8.516415e-01	-1.020638e+00
1	 6.798704e-01	 8.600243e-01	-1.491763e+00
1	 6.693044e-01	 8.682725e-01	-2.004548e+00
1	 6.586468e-01	 8.763846e-01	-2.560979e+00
1	 6.479002e-01	 8.843591e-01	-3.163133e+00
1	 7.054518e-01	 8.488225e-01	-1.000634e+00
1	 6.950067e-01	 8.573958e-01	-1.448425e+00
1	 6.844641e-01	 8.658353e-01	-1.938173e+00
1	 6.738267e-01	 8.741392e-01	-2.471857e+00
1	 6.630971e-01	 8.823061e-01	-3.051561e+00
1	 6.522779e-01	 8.903345e-01	-3.679459e+00
1	 7.101864e-01	 8.545193e-01	-1.441522e+00
1	 6.996711e-01	 8.631502e-01	-1.905746e+00
1	 6.890578e-01	 8.716462e-01	-2.414060e+00
1	 6.783491e-01	 8.800059e-01	-2.968568e+00
1	 6.675474e-01	 8.882276e-01	-3.571473e+00
1	 6.566556e-01	 8.963099e-01	-4.225077e+00
1	 6.347671e-01	 8.664329e-01	-1.794627e+00
1	 6.241537e-01	 8.741094e-01	-2.355856e+00
1	 6.134583e-01	 8.816485e-01	-2.950307e+00
1	 6.026836e-01	 8.890487e-01	-3.578605e+00
1	 5.918323e-01	 8.963089e-01	-4.241394e+00
1	 5.809070e-01	 9.034280e-01	-4.939332e+00
1	 6.391448e-01	 8.724083e-01	-2.220232e+00
1	 6.284582e-01	 8.801378e-01	-2.809217e+00
1	 6.176890e-01	 8.877288e-01	-3.433064e+00
1	 6.068400e-01	 8.951801e-01	-4.092375e+00
1	 5.959139e-01	 9.024904e-01	-4.787766e+00
1	 5.849132e-01	 9.096586e-01	-5.519862e+00
1	 6.435225e-01	 8.783837e-01	-2.676565e+00
1	 6.327627e-01	 8.861661e-01	-3.293356e+00
1	 6.219198e-01	 8.938091e-01	-3.946687e+00
1	 6.109965e-01	 9.013114e-01	-4.637182e+00
1	 5.999955e-01	 9.086718e-01	-5.365475e+00
1	 5.889195e-01	 9.158891e-01	-6.132206e+00
1	 6.479002e-01	 8.843591e-01	-3.163133e+00
1	 6.370672e-01	 8.921945e-01	-3.807781e+00
1	 6.261505e-01	 8.998895e-01	-4.490717e+00
1	 6.151529e-01	 9.074428e-01	-5.212631e+00
1	 6.040771e-01	 9.148532e-01	-5.974223e+00
1	 5.929257e-01	 9.221196e-01	-6.776198e+00
1	 6.522779e-01	 8.903345e-01	-3.679459e+00
1	 6.413717e-01	 8.982228e-01	-4.352010e+00
1	 6.303813e-01	 9.059698e-01	-5.064704e+00
1	 6.193094e-01	 9.135742e-01	-5.818337e+00
1	 6.081587e-01	 9.210347e-01	-6.613722e+00
1	 5.969320e-01	 9.283502e-01	-7.451678e+00
1	 6.566556e-01	 8.963099e-01	-4.225077e+00
1	 6.456762e-01	 9.042512e-01	-4.925577e+00
1	 6.346120e-01	 9.120501e-01	-5.668211e+00
1	 6.234658e-01	 9.197055e-01	-6.453927e+00
1	 6.122403e-01	 9.272161e-01	-7.283691e+00
1	 6.009383e-01	 9.345807e-01	-8.158487e+00
1	 5.809070e-01	 9.034280e-01	-4.939332e+00
1	 5.699105e-01	 9.104050e-01	-5.664300e+00
1	 5.588454e-01	 9.172387e-01	-6.407405e+00
1	 5.477147e-01	 9.239284e-01	-7.168129e+00
1	 5.365209e-01	 9.304732e-01	-7.945924e+00
1	 5.252670e-01	 9.368723e-01	-8.740215e+00
1	 5.849132e-01	 9.096586e-01	-5.519862e+00
1	 5.738409e-01	 9.166836e-01	-6.280223e+00
1	 5.626996e-01	 9.235645e-01	-7.059723e+00
1	 5.514920e-01	 9.303003e-01	-7.857941e+00
1	 5.402211e-01	 9.368903e-01	-8.674429e+00
1	 5.288895e-01	 9.433335e-01	-9.508713e+00
1	 5.889195e-01	 9.158891e-01	-6.132206e+00
1	 5.777713e-01	 9.229623e-01	-6.928676e+00
1	 5.665537e-01	 9.298903e-01	-7.745482e+00
1	 5.552694e-01	 9.366723e-01	-8.582199e+00
1	 5.439212e-01	 9.433073e-01	-9.438371e+00
1	 5.325120e-01	 9.497947e-01	-1.031352e+01
1	 5.929257e-01	 9.221196e-01	-6.776198e+00
1	 5.817017e-01	 9.292409e-01	-7.609603e+00
1	 5.704078e-01	 9.362161e-01	-8.464672e+00
1	 5.590467e-01	 9.430442e-01	-9.340872e+00
1	 5.476214e-01	 9.497244e-01	-1.023764e+01
1	 5.361346e-01	 9.562559e-01	-1.115438e+01
1	 5.969320e-01	 9.283502e-01	-7.451678e+00
1	 5.856321e-01	 9.355196e-01	-8.322954e+00
1	 5.742619e-01	 9.425419e-01	-9.217282e+00
1	 5.628241e-01	 9.494161e-01	-1.013393e+01
1	 5.513215e-01	 9.561414e-01	-1.107212e+01
1	 5.397571e-01	 9.627171e-01	-1.203104e+01
1	 6.009383e-01	 9.345807e-01	-8.158487e+00
1	 5.895626e-01	 9.417982e-01	-9.068675e+00
1	 5.781160e-01	 9.488676e-01	-1.000331e+01
1	 5.666014e-01	 9.557880e-01	-1.096135e+01
1	 5.550217e-01	 9.625585e-01	-1.194172e+01
1	 5.433796e-01	 9.691782e-01	-1.294327e+01
1	 5.252670e-01	 9.368723e-01	-8.740215e+00
1	 5.139556e-01	 9.431250e-01	-9.542391e+00
1	 5.025896e-01	 9.492306e-01	-1.034245e+01
1	 4.911717e-01	 9.551887e-01	-1.113767e+01
1	 4.797049e-01	 9.609986e-01	-1.192525e+01
1	 4.681917e-01	 9.666600e-01	-1.270234e+01
1	 5.288895e-01	 9.433335e-01	-9.508713e+00
1	 5.175001e-01	 9.496293e-01	-1.035169e+01
1	 5.060557e-01	 9.557771e-01	-1.119254e+01
1	 4.945591e-01	 9.617762e-01	-1.202818e+01
1	 4.830132e-01	 9.676262e-01	-1.285543e+01
1	 4.714206e-01	 9.733267e-01	-1.367104e+01
1	 5.325120e-01	 9.497947e-01	-1.031352e+01
1	 5.210447e-01	 9.561336e-01	-1.119789e+01
1	 5.095219e-01	 9.623235e-01	-1.207989e+01
1	 4.979465e-01	 9.683637e-01	-1.295622e+01
1	 4.863215e-01	 9.742538e-01	-1.382349e+01
1	 4.746496e-01	 9.799933e-01	-1.467823e+01
1	 5.361346e-01	 9.562559e-01	-1.115438e+01
1	 5.245892e-01	 9.626379e-01	-1.208061e+01
1	 5.129880e-01	 9.688699e-01	-1.300406e+01
1	 5.013339e-01	 9.749512e-01	-1.392139e+01
1	 4.896298e-01	 9.808814e-01	-1.482914e+01
1	 4.778785e-01	 9.866599e-01	-1.572380e+01
1	 5.397571e-01	 9.627171e-01	-1.203104e+01
1	 5.281337e-01	 9.691422e-01	-1.299947e+01
1	 5.164541e-01	 9.754163e-01	-1.396464e+01
1	 5.047213e-01	 9.815387e-01	-1.492330e+01
1	 4.929381e-01	 9.875089e-01	-1.587210e+01
1	 4.811074e-01	 9.933265e-01	-1.680764e+01
1	 5.433796e-01	 9.691782e-01	-1.294327e+01
1	 5.316782e-01	 9.756465e-01	-1.395412e+01
1	 5.199203e-01	 9.819627e-01	-1.496122e+01
1	 5.081087e-01	 9.881262e-01	-1.596157e+01
1	 4.962464e-01	 9.941365e-01	-1.695209e+01
1	 4.843363e-01	 9.999931e-01	-1.792965e+01
1	 4.681917e-01	 9.666600e-01	-1.270234e+01
1	 4.566352e-01	 9.721725e-01	-1.345696e+01
1	 4.450380e-01	 9.775358e-01	-1.417683e+01
1	 4.334029e-01	 9.827497e-01	-1.485853e+01
1	 4.217327e-01	 9.878141e-01	-1.549863e+01
1	 4.100303e-01	 9.927287e-01	-1.609369e+01
1	 4.714206e-01	 9.733267e-01	-1.367104e+01
1	 4.597844e-01	 9.788772e-01	-1.446266e+01
1	 4.481072e-01	 9.842775e-01	-1.521797e+01
1	 4.363919e-01	 9.895273e-01	-1.593370e+01
1	 4.246412e-01	 9.946266e-01	-1.660654e+01
1	 4.128581e-01	 9.995751e-01	-1.723316e+01
1	 4.746496e-01	 9.799933e-01	-1.467823e+01
1	 4.629336e-01	 9.855818e-01	-1.550788e+01
1	 4.511764e-01	 9.910191e-01	-1.630003e+01
1	 4.393809e-01	 9.963049e-01	-1.705130e+01
1	 4.275497e-01	 1.001439e+00	-1.775831e+01
1	 4.156859e-01	 1.006422e+00	-1.841763e+01
1	 4.778785e-01	 9.866599e-01	-1.572380e+01
1	 4.660828e-01	 9.922865e-01	-1.659270e+01
1	 4.542456e-01	 9.977607e-01	-1.742316e+01
1	 4.423698e-01	 1.003082e+00	-1.821152e+01
1	 4.304582e-01	 1.008252e+00	-1.895408e+01
1	 4.185137e-01	 1.013268e+00	-1.964716e+01
1	 4.811074e-01	 9.933265e-01	-1.680764e+01
1	 4.692320e-01	 9.989911e-01	-1.771717e+01
1	 4.573149e-01	 1.004502e+00	-1.858752e+01
1	 4.453588e-01	 1.009860e+00	-1.941453e+01
1	 4.333667e-01	 1.015064e+00	-2.019402e+01
1	 4.213415e-01	 1.020114e+00	-2.092176e+01
1	 4.843363e-01	 9.999931e-01	-1.792965e+01
1	 4.723812e-01	 1.005696e+00	-1.888136e+01
1	 4.603841e-01	 1.011244e+00	-1.979327e+01
1	 4.483478e-01	 1.016638e+00	-2.066052e+01
1	 4.362752e-01	 1.021877e+00	-2.147824e+01
1	 4.241693e-01	 1.026961e+00	-2.224149e+01
1	 4.100303e-01	 9.927287e-01	-1.609369e+01
1	 3.982983e-01	 9.974937e-01	-1.664012e+01
1	 3.865395e-01	 1.002109e+00	-1.713127e+01
1	 3.747566e-01	 1.006575e+00	-1.755907e+01
1	 3.629524e-01	 1.010891e+00	-1.791542e+01
1	 3.511296e-01	 1.015058e+00	-1.819218e+01
1	 4.128581e-01	 9.995751e-01	-1.723316e+01
1	 4.010452e-01	 1.004373e+00	-1.780928e+01
1	 3.892053e-01	 1.009020e+00	-1.832710e+01
1	 3.773412e-01	 1.013517e+00	-1.877801e+01
1	 3.654555e-01	 1.017863e+00	-1.915335e+01
1	 3.535512e-01	 1.022059e+00	-1.944447e+01
1	 4.156859e-01	 1.006422e+00	-1.841763e+01
1	 4.037920e-01	 1.011252e+00	-1.902409e+01
1	 3.918711e-01	 1.015931e+00	-1.956874e+01
1	 3.799257e-01	 1.020458e+00	-2.004255e+01
1	 3.679587e-01	 1.024834e+00	-2.043647e+01
1	 3.559727e-01	 1.029059e+00	-2.074144e+01
1	 4.185137e-01	 1.013268e+00	-1.964716e+01
1	 4.065389e-01	 1.018131e+00	-2.028445e+01
1	 3.945369e-01	 1.022842e+00	-2.085597e+01
1	 3.825102e-01	 1.027400e+00	-2.135241e+01
1	 3.704618e-01	 1.031806e+00	-2.176441e+01
1	 3.583943e-01	 1.036059e+00	-2.208264e+01
1	 4.213415e-01	 1.020114e+00	-2.092176e+01
1	 4.092858e-01	 1.025011e+00	-2.159028e+01
1	 3.972026e-01	 1.029753e+00	-2.218862e+01
1	 3.850947e-01	 1.034342e+00	-2.270730e+01
1	 3.729649e-01	 1.038778e+00	-2.313680e+01
1	 3.608159e-01	 1.043060e+00	-2.346764e+01
1	 4.241693e-01	 1.026961e+00	-2.224149e+01
1	 4.120327e-01	 1.031890e+00	-2.294150e+01
1	 3.998684e-01	 1.036664e+00	-2.356649e+01
1	 3.876793e-01	 1.041284e+00	-2.410693e+01
1	 3.754680e-01	 1.045749e+00	-2.455329e+01
1	 3.632375e-01	 1.050060e+00	-2.489601e+01
1	 3.511296e-01	 1.015058e+00	-1.819218e+01
1	 3.392907e-01	 1.019076e+00	-1.839484e+01
1	 3.274386e-01	 1.022946e+00	-1.853353e+01
1	 3.155758e-01	 1.026668e+00	-1.860721e+01
1	 3.037049e-01	 1.030242e+00	-1.861490e+01
1	 2.918285e-01	 1.033669e+00	-1.855572e+01
1	 3.535512e-01	 1.022059e+00	-1.944447e+01
1	 3.416307e-01	 1.026105e+00	-1.965717e+01
1	 3.296968e-01	 1.030001e+00	-1.980199e+01
1	 3.177522e-01	 1.033748e+00	-1.987741e+01
1	 3.057994e-01	 1.037347e+00	-1.988202e+01
1	 2.938411e-01	 1.040798e+00	-1.981446e+01
1	 3.559727e-01	 1.029059e+00	-2.074144e+01
1	 3.439706e-01	 1.033133e+00	-2.096365e+01
1	 3.319550e-01	 1.037056e+00	-2.111406e+01
1	 3.199286e-01	 1.040829e+00	-2.119076e+01
1	 3.078939e-01	 1.044452e+00	-2.119195e+01
1	 2.958537e-01	 1.047926e+00	-2.111587e+01
1	 3.583943e-01	 1.036059e+00	-2.208264e+01
1	 3.463106e-01	 1.040161e+00	-2.231379e+01
1	 3.342132e-01	 1.044111e+00	-2.246926e+01
1	 3.221049e-01	 1.047909e+00	-2.254682e+01
1	 3.099884e-01	 1.051557e+00	-2.254434e+01
1	 2.978663e-01	 1.055055e+00	-2.245975e+01
1	 3.608159e-01	 1.043060e+00	-2.346764e+01
1	 3.486505e-01	 1.047189e+00	-2.370710e+01
1	 3.364714e-01	 1.051165e+00	-2.386711e+01
1	 3.242813e-01	 1.054990e+00	-2.394517e+01
1	 3.120830e-01	 1.058662e+00	-2.393887e+01
1	 2.998789e-01	 1.062184e+00	-2.384590e+01
1	 3.632375e-01	 1.050060e+00	-2.489601e+01
1	 3.509904e-01	 1.054217e+00	-2.514312e+01
1	 3.387296e-01	 1.058220e+00	-2.530714e+01
1	 3.264577e-01	 1.062070e+00	-2.538538e+01
1	 3.141775e-01	 1.065768e+00	-2.537521e+01
1	 3.018915e-01	 1.069313e+00	-2.527414e+01
1	 2.918285e-01	 1.033669e+00	-1.855572e+01
1	 2.799492e-01	 1.036949e+00	-1.843219e+01
1	 2.680694e-01	 1.040084e+00	-1.825018e+01
1	 2.561918e-01	 1.043073e+00	-1.801392e+01
1	 2.443186e-01	 1.045918e+00	-1.772770e+01
1	 2.324525e-01	 1.048619e+00	-1.739588e+01
1	 2.938411e-01	 1.040798e+00	-1.981446e+01
1	 2.818799e-01	 1.044101e+00	-1.967753e+01
1	 2.699182e-01	 1.047257e+00	-1.947799e+01
1	 2.579586e-01	 1.050266e+00	-1.922063e+01
1	 2.460036e-01	 1.053131e+00	-1.891029e+01
1	 2.340556e-01	 1.055850e+00	-1.855188e+01
1	 2.958537e-01	 1.047926e+00	-2.111587e+01
1	 2.838105e-01	 1.051252e+00	-2.096572e+01
1	 2.717669e-01	 1.054430e+00	-2.074915e+01
1	 2.597254e-01	 1.057460e+00	-2.047125e+01
1	 2.476885e-01	 1.060344e+00	-2.013723e+01
1	 2.356587e-01	 1.063082e+00	-1.975231e+01
1	 2.978663e-01	 1.055055e+00	-2.245975e+01
1	 2.857412e-01	 1.058403e+00	-2.229671e+01
1	 2.736157e-01	 1.061603e+00	-2.206366e+01
1	 2.614923e-01	 1.064654e+00	-2.176584e+01
1	 2.493735e-01	 1.067557e+00	-2.140856e+01
1	 2.372618e-01	 1.070314e+00	-2.099721e+01
1	 2.998789e-01	 1.062184e+00	-2.384590e+01
1	 2.876719e-01	 1.065555e+00	-2.367044e+01
1	 2.754644e-01	 1.068776e+00	-2.342157e+01
1	 2.632591e-01	 1.071847e+00	-2.310446e+01
1	 2.510584e-01	 1.074770e+00	-2.272435e+01
1	 2.388649e-01	 1.077546e+00	-2.228657e+01
1	 3.018915e-01	 1.069313e+00	-2.527414e+01
1	 2.896026e-01	 1.072706e+00	-2.508685e+01
1	 2.773132e-01	 1.075949e+00	-2.482290e+01
1	 2.650260e-01	 1.079041e+00	-2.448717e+01
1	 2.527434e-01	 1.081984e+00	-2.408465e+01
1	 2.404681e-01	 1.084778e+00	-2.362041e+01
1	 2.324525e-01	 1.048619e+00	-1.739588e+01
1	 2.205957e-01	 1.051177e+00	-1.702601e+01
1	 2.087506e-01	 1.053593e+00	-1.662662e+01
1	 1.969196e-01	 1.055868e+00	-1.620354e+01
1	 1.851049e-01	 1.058003e+00	-1.576257e+01
1	 1.733088e-01	 1.060000e+00	-1.530952e+01
1	 2.340556e-01	 1.055850e+00	-1.855188e+01
1	 2.221170e-01	 1.058426e+00	-1.815350e+01
1	 2.101903e-01	 1.060859e+00	-1.772402e+01
1	 1.982776e-01	 1.063150e+00	-1.726953e+01
1	 1.863815e-01	 1.065300e+00	-1.679609e+01
1	 1.745040e-01	 1.067310e+00	-1.630976e+01
1	 2.356587e-01	 1.063082e+00	-1.975231e+01
1	 2.236384e-01	 1.065676e+00	-1.932500e+01
1	 2.116299e-01	 1.068125e+00	-1.886450e+01
1	 1.996357e-01	 1.070432e+00	-1.837722e+01
1	 1.876581e-01	 1.072597e+00	-1.786957e+01
1	 1.756992e-01	 1.074620e+00	-1.734791e+01
1	 2.372618e-01	 1.070314e+00	-2.099721e+01
1	 2.251597e-01	 1.072925e+00	-2.054047e+01
1	 2.130696e-01	 1.075392e+00	-2.004795e+01
1	 2.009938e-01	 1.077714e+00	-1.952645e+01
1	 1.889346e-01	 1.079893e+00	-1.898277e+01
1	 1.768945e-01	 1.081931e+00	-1.842369e+01
1	 2.388649e-01	 1.077546e+00	-2.228657e+01
1	 2.266811e-01	 1.080175e+00	-2.179986e+01
1	 2.145092e-01	 1.082658e+00	-2.127426e+01
1	 2.023518e-01	 1.084996e+00	-2.071704e+01
1	 1.902112e-01	 1.087190e+00	-2.013547e+01
1	 1.780897e-01	 1.089241e+00	-1.953680e+01
1	 2.404681e-01	 1.084778e+00	-2.362041e+01
1	 2.282024e-01	 1.087424e+00	-2.310313e+01
1	 2.159489e-01	 1.089924e+00	-2.254334e+01
1	 2.037099e-01	 1.092278e+00	-2.194884e+01
1	 1.914878e-01	 1.094486e+00	-2.132745e+01
1	 1.792849e-01	 1.096551e+00	-2.068695e+01
1	 1.733088e-01	 1.060000e+00	-1.530952e+01
1	 1.615335e-01	 1.061858e+00	-1.485156e+01
1	 1.497811e-01	 1.063579e+00	-1.439702e+01
1	 1.380538e-01	 1.065165e+00	-1.395336e+01
1	 1.263537e-01	 1.066616e+00	-1.352796e+01
1	 1.146828e-01	 1.067934e+00	-1.312807e+01
1	 1.745040e-01	 1.067310e+00	-1.630976e+01
1	 1.626475e-01	 1.069181e+00	-1.581809e+01
1	 1.508141e-01	 1.070914e+00	-1.532995e+01
1	 1.390059e-01	 1.072511e+00	-1.485322e+01
1	 1.272251e-01	 1.073972e+00	-1.439567e+01
1	 1.154737e-01	 1.075299e+00	-1.396500e+01
1	 1.756992e-01	 1.074620e+00	-1.734791e+01
1	 1.637615e-01	 1.076504e+00	-1.682029e+01
1	 1.518470e-01	 1.078249e+00	-1.629612e+01
1	 1.399580e-01	 1.079857e+00	-1.578380e+01
1	 1.280965e-01	 1.081328e+00	-1.529160e+01
1	 1.162647e-01	 1.082664e+00	-1.482769e+01
1	 1.768945e-01	 1.081931e+00	-1.842369e+01
1	 1.648755e-01	 1.083827e+00	-1.785778e+01
1	 1.528800e-01	 1.085584e+00	-1.729514e+01
1	 1.409101e-01	 1.087203e+00	-1.674470e+01
1	 1.289679e-01	 1.088684e+00	-1.621532e+01
1	 1.170556e-01	 1.090029e+00	-1.571571e+01
1	 1.780897e-01	 1.089241e+00	-1.953680e+01
1	 1.659895e-01	 1.091150e+00	-1.893023e+01
1	 1.539130e-01	 1.092919e+00	-1.832660e+01
1	 1.418622e-01	 1.094549e+00	-1.773551e+01
1	 1.298393e-01	 1.096040e+00	-1.716642e+01
1	 1.178465e-01	 1.097394e+00	-1.662868e+01
1	 1.792849e-01	 1.096551e+00	-2.068695e+01
1	 1.671036e-01	 1.098474e+00	-2.003728e+01
1	 1.549460e-01	 1.100254e+00	-1.939014e+01
1	 1.428143e-01	 1.101895e+00	-1.875583e+01
1	 1.307107e-01	 1.103396e+00	-1.814451e+01
1	 1.186374e-01	 1.104759e+00	-1.756622e+01
1	 1.146828e-01	 1.067934e+00	-1.312807e+01
1	 1.030432e-01	 1.069120e+00	-1.276100e+01
1	 9.143669e-02	 1.070175e+00	-1.243365e+01
1	 7.986531e-02	 1.071101e+00	-1.215253e+01
1	 6.833090e-02	 1.071898e+00	-1.192400e+01
1	 5.683529e-02	 1.072569e+00	-1.175426e+01
1	 1.154737e-01	 1.075299e+00	-1.396500e+01
1	 1.037538e-01	 1.076493e+00	-1.356893e+01
1	 9.206729e-02	 1.077555e+00	-1.321480e+01
1	 8.041611e-02	 1.078488e+00	-1.290952e+01
1	 6.880215e-02	 1.079291e+00	-1.265984e+01
1	 5.722725e-02	 1.079966e+00	-1.247237e+01
1	 1.162647e-01	 1.082664e+00	-1.482769e+01
1	 1.044645e-01	 1.083866e+00	-1.440028e+01
1	 9.269789e-02	 1.084936e+00	-1.401719e+01
1	 8.096690e-02	 1.085874e+00	-1.368576e+01
1	 6.927340e-02	 1.086683e+00	-1.341319e+01
1	 5.761922e-02	 1.087363e+00	-1.320648e+01
1	 1.170556e-01	 1.090029e+00	-1.571571e+01
1	 1.051751e-01	 1.091240e+00	-1.525465e+01
1	 9.332849e-02	 1.092317e+00	-1.484045e+01
1	 8.151770e-02	 1.093261e+00	-1.448091e+01
1	 6.974464e-02	 1.094076e+00	-1.418369e+01
1	 5.801119e-02	 1.094760e+00	-1.395623e+01
1	 1.178465e-01	 1.097394e+00	-1.662868e+01
1	 1.058857e-01	 1.098613e+00	-1.613167e+01
1	 9.395909e-02	 1.099697e+00	-1.568422e+01
1	 8.206849e-02	 1.100648e+00	-1.529464e+01
1	 7.021589e-02	 1.101468e+00	-1.497103e+01
1	 5.840316e-02	 1.102157e+00	-1.472130e+01
1	 1.186374e-01	 1.104759e+00	-1.756622e+01
1	 1.065964e-01	 1.105986e+00	-1.703098e+01
1	 9.458968e-02	 1.107078e+00	-1.654817e+01
1	 8.261929e-02	 1.108035e+00	-1.612659e+01
1	 7.068714e-02	 1.108860e+00	-1.577486e+01
1	 5.879512e-02	 1.109554e+00	-1.550137e+01
1	 5.683529e-02	 1.072569e+00	-1.175426e+01
1	 4.538025e-02	 1.073115e+00	-1.164948e+01
1	 3.396754e-02	 1.073537e+00	-1.161480e+01
1	 2.259883e-02	 1.073836e+00	-1.165467e+01
1	 1.127578e-02	 1.074015e+00	-1.177338e+01
1	 0.000000e+00	 1.074074e+00	-1.197506e+01
1	 5.722725e-02	 1.079966e+00	-1.247237e+01
1	 4.569322e-02	 1.080516e+00	-1.235370e+01
1	 3.420179e-02	 1.080941e+00	-1.230938e+01
1	 2.275468e-02	 1.081242e+00	-1.234418e+01
1	 1.135355e-02	 1.081422e+00	-1.246272e+01
1	 0.000000e+00	 1.081481e+00	-1.266945e+01
1	 5.761922e-02	 1.087363e+00	-1.320648e+01
1	 4.600619e-02	 1.087917e+00	-1.307267e+01
1	 3.443605e-02	 1.088344e+00	-1.301770e+01
1	 2.291054e-02	 1.088648e+00	-1.304671e+01
1	 1.143131e-02	 1.088829e+00	-1.316463e+01
1	 0.000000e+00	 1.088889e+00	-1.337622e+01
1	 5.801119e-02	 1.094760e+00	-1.395623e+01
1	 4.631915e-02	 1.095317e+00	-1.380602e+01
1	 3.467031e-02	 1.095748e+00	-1.373944e+01
1	 2.306639e-02	 1.096054e+00	-1.376193e+01
1	 1.150908e-02	 1.096236e+00	-1.387877e+01
1	 0.000000e+00	 1.096296e+00	-1.409503e+01
1	 5.840316e-02	 1.102157e+00	-1.472130e+01
1	 4.663212e-02	 1.102718e+00	-1.455345e+01
1	 3.490457e-02	 1.103152e+00	-1.447425e+01
1	 2.322225e-02	 1.103459e+00	-1.448951e+01
1	 1.158684e-02	 1.103643e+00	-1.460482e+01
1	 0.000000e+00	 1.103704e+00	-1.482556e+01
1	 5.879512e-02	 1.109554e+00	-1.550137e+01
1	 4.694509e-02	 1.110119e+00	-1.531463e+01
1	 3.513883e-02	 1.110555e+00	-1.522183e+01
1	 2.337810e-02	 1.110865e+00	-1.522913e+01
1	 1.166460e-02	 1.111050e+00	-1.534245e+01
1	 0.000000e+00	 1.111111e+00	-1.556750e+01
1	 1.111111e+00	 0.000000e+00	 2.628630e+01
1	 1.111050e+00	 1.166460e-02	 2.612631e+01
1	 1.110865e+00	 2.337810e-02	 2.598452e+01
1	 1.110555e+00	 3.513883e-02	 2.585960e+01
1	 1.110119e+00	 4.694509e-02	 2.575019e+01
1	 1.109554e+00	 5.879512e-02	 2.565494e+01
1	 1.118519e+00	 0.000000e+00	 2.601633e+01
1	 1.118457e+00	 1.174237e-02	 2.584994e+01
1	 1.118271e+00	 2.353395e-02	 2.570369e+01
1	 1.117959e+00	 3.537309e-02	 2.557613e+01
1	 1.117520e+00	 4.725806e-02	 2.546585e+01
1	 1.116951e+00	 5.918709e-02	 2.537141e+01
1	 1.125926e+00	 0.000000e+00	 2.575252e+01
1	 1.125864e+00	 1.182013e-02	 2.557959e+01
1	 1.125677e+00	 2.368981e-02	 2.542869e+01
1	 1.125363e+00	 3.560735e-02	 2.529831e+01
1	 1.124921e+00	 4.757102e-02	 2.518694e+01
1	 1.124348e+00	 5.957906e-02	 2.509307e+01
1	 1.133333e+00	 0.000000e+00	 2.549442e+01
1	 1.133271e+00	 1.189790e-02	 2.531483e+01
1	 1.133082e+00	 2.384566e-02	 2.515912e+01
1	 1.132766e+00	 3.584161e-02	 2.502573e+01
1	 1.132321e+00	 4.788399e-02	 2.491306e+01
1	 1.131746e+00	 5.997103e-02	 2.481953e+01
1	 1.140741e+00	 0.000000e+00	 2.524163e+01
1	 1.140678e+00	 1.197566e-02	 2.505526e+01
1	 1.140488e+00	 2.400152e-02	 2.489460e+01
1	 1.140170e+00	 3.607587e-02	 2.475800e+01
1	 1.139722e+00	 4.819696e-02	 2.464382e+01
1	 1.139143e+00	 6.036299e-02	 2.455038e+01
1	 1.148148e+00	 0.000000e+00	 2.499373e+01
1	 1.148085e+00	 1.205342e-02	 2.480049e+01
1	 1.147894e+00	 2.415737e-02	 2.463473e+01
1	 1.147574e+00	 3.631012e-02	 2.449476e+01
1	 1.147123e+00	 4.850992e-02	 2.437885e+01
1	 1.146540e+00	 6.075496e-02	 2.428526e+01
1	 1.109554e+00	 5.879512e-02	 2.565494e+01
1	 1.108860e+00	 7.068714e-02	 2.557321e+01
1	 1.108035e+00	 8.261929e-02	 2.550423e+01
1	 1.107078e+00	 9.458968e-02	 2.544642e+01
1	 1.105986e+00	 1.065964e-01	 2.539821e+01
1	 1.104759e+00	 1.186374e-01	 2.535808e+01
1	 1.116951e+00	 5.918709e-02	 2.537141e+01
1	 1.116253e+00	 7.115839e-02	 2.529213e+01
1	 1.115422e+00	 8.317009e-02	 2.522717e+01
1	 1.114458e+00	 9.522028e-02	 2.517484e+01
1	 1.113359e+00	 1.073070e-01	 2.513349e+01
1	 1.112124e+00	 1.194283e-01	 2.510148e+01
1	 1.124348e+00	 5.957906e-02	 2.509307e+01
1	 1.123645e+00	 7.162963e-02	 2.501599e+01
1	 1.122809e+00	 8.372088e-02	 2.495477e+01
1	 1.121839e+00	 9.585088e-02	 2.490766e+01
1	 1.120733e+00	 1.080177e-01	 2.487291e+01
1	 1.119489e+00	 1.202192e-01	 2.484876e+01
1	 1.131746e+00	 5.997103e-02	 2.481953e+01
1	 1.131038e+00	 7.210088e-02	 2.474437e+01
1	 1.130196e+00	 8.427168e-02	 2.468662e+01
1	 1.129219e+00	 9.648148e-02	 2.464445e+01
1	 1.128106e+00	 1.087283e-01	 2.461601e+01
1	 1.126854e+00	 1.210102e-01	 2.459947e+01
1	 1.139143e+00	 6.036299e-02	 2.455038e+01
1	 1.138430e+00	 7.257213e-02	 2.447688e+01
1	 1.137583e+00	 8.482247e-02	 2.442232e+01
1	 1.136600e+00	 9.711208e-02	 2.438478e+01
1	 1.135479e+00	 1.094390e-01	 2.436236e+01
1	 1.134220e+00	 1.218011e-01	 2.435314e+01
1	 1.146540e+00	 6.075496e-02	 2.428526e+01
1	 1.145822e+00	 7.304338e-02	 2.421314e+01
1	 1.144970e+00	 8.537327e-02	 2.416146e+01
1	 1.143980e+00	 9.774267e-02	 2.412825e+01
1	 1.142852e+00	 1.101496e-01	 2.411153e+01
1	 1.141585e+00	 1.225920e-01	 2.410933e+01
1	 1.104759e+00	 1.186374e-01	 2.535808e+01
1	 1.103396e+00	 1.307107e-01	 2.532451e+01
1	 1.101895e+00	 1.428143e-01	 2.529592e+01
1	 1.100254e+00	 1.549460e-01	 2.527070e+01
1	 1.098474e+00	 1.671036e-01	 2.524725e+01
1	 1.096551e+00	 1.792849e-01	 2.522406e+01
1	 1.112124e+00	 1.194283e-01	 2.510148e+01
1	 1.110752e+00	 1.315821e-01	 2.507726e+01
1	 1.109241e+00	 1.437664e-01	 2.505920e+01
1	 1.107589e+00	 1.559789e-01	 2.504558e+01
1	 1.105797e+00	 1.682176e-01	 2.503469e+01
1	 1.103862e+00	 1.804802e-01	 2.502490e+01
1	 1.119489e+00	 1.202192e-01	 2.484876e+01
1	 1.118108e+00	 1.324535e-01	 2.483370e+01
1	 1.116587e+00	 1.447185e-01	 2.482609e+01
1	 1.114924e+00	 1.570119e-01	 2.482407e+01
1	 1.113120e+00	 1.693316e-01	 2.482587e+01
1	 1.111172e+00	 1.816754e-01	 2.482972e+01
1	 1.126854e+00	 1.210102e-01	 2.459947e+01
1	 1.125464e+00	 1.333250e-01	 2.459334e+01
1	 1.123933e+00	 1.456706e-01	 2.459601e+01
1	 1.122259e+00	 1.580449e-01	 2.460555e+01
1	 1.120443e+00	 1.704456e-01	 2.462005e+01
1	 1.118482e+00	 1.828706e-01	 2.463767e+01
1	 1.134220e+00	 1.218011e-01	 2.435314e+01
1	 1.132820e+00	 1.341964e-01	 2.435569e+01
1	 1.131279e+00	 1.466227e-01	 2.436844e+01
1	 1.129594e+00	 1.590778e-01	 2.438938e+01
1	 1.127766e+00	 1.715597e-01	 2.441653e+01
1	 1.125793e+00	 1.840659e-01	 2.444796e+01
1	 1.141585e+00	 1.225920e-01	 2.410933e+01
1	 1.140176e+00	 1.350678e-01	 2.412026e+01
1	 1.138625e+00	 1.475748e-01	 2.414285e+01
1	 1.136930e+00	 1.601108e-01	 2.417499e+01
1	 1.135089e+00	 1.726737e-01	 2.421463e+01
1	 1.133103e+00	 1.852611e-01	 2.425976e+01
1	 1.096551e+00	 1.792849e-01	 2.522406e+01
1	 1.094486e+00	 1.914878e-01	 2.519901e+01
1	 1.092278e+00	 2.037099e-01	 2.517040e+01
1	 1.089924e+00	 2.159489e-01	 2.513742e+01
1	 1.087424e+00	 2.282024e-01	 2.509929e+01
1	 1.084778e+00	 2.404681e-01	 2.505531e+01
1	 1.103862e+00	 1.804802e-01	 2.502490e+01
1	 1.101783e+00	 1.927644e-01	 2.501381e+01
1	 1.099559e+00	 2.050680e-01	 2.499945e+01
1	 1.097190e+00	 2.173886e-01	 2.498090e+01
1	 1.094674e+00	 2.297238e-01	 2.495727e+01
1	 1.092010e+00	 2.420712e-01	 2.492773e+01
1	 1.111172e+00	 1.816754e-01	 2.482972e+01
1	 1.109079e+00	 1.940410e-01	 2.483294e+01
1	 1.106841e+00	 2.064260e-01	 2.483324e+01
1	 1.104456e+00	 2.188282e-01	 2.482959e+01
1	 1.101923e+00	 2.312451e-01	 2.482098e+01
1	 1.099242e+00	 2.436743e-01	 2.480646e+01
1	 1.118482e+00	 1.828706e-01	 2.463767e+01
1	 1.116376e+00	 1.953176e-01	 2.465543e+01
1	 1.114123e+00	 2.077841e-01	 2.467071e+01
1	 1.111722e+00	 2.202679e-01	 2.468233e+01
1	 1.109173e+00	 2.327665e-01	 2.468917e+01
1	 1.106473e+00	 2.452774e-01	 2.469018e+01
1	 1.125793e+00	 1.840659e-01	 2.444796e+01
1	 1.123673e+00	 1.965942e-01	 2.448036e+01
1	 1.121405e+00	 2.091422e-01	 2.451080e+01
1	 1.118988e+00	 2.217075e-01	 2.453798e+01
1	 1.116422e+00	 2.342878e-01	 2.456065e+01
1	 1.113705e+00	 2.468805e-01	 2.457762e+01
1	 1.133103e+00	 1.852611e-01	 2.425976e+01
1	 1.130969e+00	 1.978707e-01	 2.430681e+01
1	 1.128687e+00	 2.105002e-01	 2.435252e+01
1	 1.126255e+00	 2.231472e-01	 2.439545e+01
1	 1.123672e+00	 2.358092e-01	 2.443423e+01
1	 1.120937e+00	 2.484837e-01	 2.446755e+01
1	 1.084778e+00	 2.404681e-01	 2.505531e+01
1	 1.081984e+00	 2.527434e-01	 2.500209e+01
1	 1.079041e+00	 2.650260e-01	 2.493663e+01
1	 1.075949e+00	 2.773132e-01	 2.485894e+01
1	 1.072706e+00	 2.896026e-01	 2.476912e+01
1	 1.069313e+00	 3.018915e-01	 2.466736e+01
1	 1.092010e+00	 2.420712e-01	 2.492773e+01
1	 1.089197e+00	 2.544284e-01	 2.488885e+01
1	 1.086234e+00	 2.667928e-01	 2.483769e+01
1	 1.083122e+00	 2.791619e-01	 2.477433e+01
1	 1.079857e+00	 2.915333e-01	 2.469894e+01
1	 1.076441e+00	 3.039042e-01	 2.461176e+01
1	 1.099242e+00	 2.436743e-01	 2.480646e+01
1	 1.096410e+00	 2.561133e-01	 2.478254e+01
1	 1.093428e+00	 2.685596e-01	 2.474633e+01
1	 1.090295e+00	 2.810107e-01	 2.469788e+01
1	 1.087009e+00	 2.934640e-01	 2.463736e+01
1	 1.083570e+00	 3.059168e-01	 2.456501e+01
1	 1.106473e+00	 2.452774e-01	 2.469018e+01
1	 1.103623e+00	 2.577983e-01	 2.468184e+01
1	 1.100622e+00	 2.703265e-01	 2.466124e+01
1	 1.097468e+00	 2.828595e-01	 2.462839e+01
1	 1.094160e+00	 2.953946e-01	 2.458335e+01
1	 1.090699e+00	 3.079294e-01	 2.452634e+01
1	 1.113705e+00	 2.468805e-01	 2.457762e+01
1	 1.110837e+00	 2.594832e-01	 2.458542e+01
1	 1.107815e+00	 2.720933e-01	 2.458117e+01
1	 1.104641e+00	 2.847082e-01	 2.456469e+01
1	 1.101312e+00	 2.973253e-01	 2.453594e+01
1	 1.097828e+00	 3.099420e-01	 2.449498e+01
1	 1.120937e+00	 2.484837e-01	 2.446755e+01
1	 1.118050e+00	 2.611682e-01	 2.449203e+01
1	 1.115009e+00	 2.738601e-01	 2.450487e+01
1	 1.111814e+00	 2.865570e-01	 2.450565e+01
1	 1.108463e+00	 2.992560e-01	 2.449413e+01
1	 1.104956e+00	 3.119546e-01	 2.447021e+01
1	 1.069313e+00	 3.018915e-01	 2.466736e+01
1	 1.065768e+00	 3.141775e-01	 2.455303e+01
1	 1.062070e+00	 3.264577e-01	 2.442605e+01
1	 1.058220e+00	 3.387296e-01	 2.428743e+01
1	 1.054217e+00	 3.509904e-01	 2.413820e+01
1	 1.050060e+00	 3.632375e-01	 2.397936e+01
1	 1.076441e+00	 3.039042e-01	 2.461176e+01
1	 1.072873e+00	 3.162720e-01	 2.451153e+01
1	 1.069151e+00	 3.286341e-01	 2.439744e+01
1	 1.065275e+00	 3.409878e-01	 2.427045e+01
1	 1.061245e+00	 3.533304e-01	 2.413150e+01
1	 1.057061e+00	 3.656591e-01	 2.398152e+01
1	 1.083570e+00	 3.059168e-01	 2.456501e+01
1	 1.079978e+00	 3.183665e-01	 2.447880e+01
1	 1.076231e+00	 3.308105e-01	 2.437714e+01
1	 1.072330e+00	 3.432460e-01	 2.426097e+01
1	 1.068273e+00	 3.556703e-01	 2.413123e+01
1	 1.064061e+00	 3.680807e-01	 2.398881e+01
1	 1.090699e+00	 3.079294e-01	 2.452634e+01
1	 1.087083e+00	 3.204610e-01	 2.445432e+01
1	 1.083312e+00	 3.329869e-01	 2.436481e+01
1	 1.079385e+00	 3.455042e-01	 2.425882e+01
1	 1.075301e+00	 3.580102e-01	 2.413731e+01
1	 1.071061e+00	 3.705022e-01	 2.400121e+01
1	 1.097828e+00	 3.099420e-01	 2.449498e+01
1	 1.094188e+00	 3.225555e-01	 2.443758e+01
1	 1.090392e+00	 3.351632e-01	 2.436015e+01
1	 1.086439e+00	 3.477624e-01	 2.426382e+01
1	 1.082330e+00	 3.603502e-01	 2.414967e+01
1	 1.078062e+00	 3.729238e-01	 2.401866e+01
1	 1.104956e+00	 3.119546e-01	 2.447021e+01
1	 1.101293e+00	 3.246501e-01	 2.442809e+01
1	 1.097473e+00	 3.373396e-01	 2.436286e+01
1	 1.093494e+00	 3.500206e-01	 2.427583e+01
1	 1.089358e+00	 3.626901e-01	 2.416822e+01
1	 1.085062e+00	 3.753454e-01	 2.404113e+01
1	 1.050060e+00	 3.632375e-01	 2.397936e+01
1	 1.045749e+00	 3.754680e-01	 2.378620e+01
1	 1.041284e+00	 3.876793e-01	 2.353387e+01
1	 1.036664e+00	 3.998684e-01	 2.322309e+01
1	 1.031890e+00	 4.120327e-01	 2.285439e+01
1	 1.026961e+00	 4.241693e-01	 2.242819e+01
1	 1.057061e+00	 3.656591e-01	 2.398152e+01
1	 1.052721e+00	 3.779711e-01	 2.379483e+01
1	 1.048226e+00	 3.902638e-01	 2.354579e+01
1	 1.043576e+00	 4.025342e-01	 2.323524e+01
1	 1.038769e+00	 4.147796e-01	 2.286390e+01
1	 1.033807e+00	 4.269970e-01	 2.243230e+01
1	 1.064061e+00	 3.680807e-01	 2.398881e+01
1	 1.059693e+00	 3.804743e-01	 2.380727e+01
1	 1.055168e+00	 3.928483e-01	 2.356031e+01
1	 1.050487e+00	 4.052000e-01	 2.324896e+01
1	 1.045649e+00	 4.175265e-01	 2.287409e+01
1	 1.040654e+00	 4.298248e-01	 2.243644e+01
1	 1.071061e+00	 3.705022e-01	 2.400121e+01
1	 1.066664e+00	 3.829774e-01	 2.382347e+01
1	 1.062110e+00	 3.954329e-01	 2.357735e+01
1	 1.057398e+00	 4.078658e-01	 2.326406e+01
1	 1.052528e+00	 4.202734e-01	 2.288468e+01
1	 1.047500e+00	 4.326526e-01	 2.244017e+01
1	 1.078062e+00	 3.729238e-01	 2.401866e+01
1	 1.073636e+00	 3.854805e-01	 2.384339e+01
1	 1.069052e+00	 3.980174e-01	 2.359681e+01
1	 1.064309e+00	 4.105316e-01	 2.328038e+01
1	 1.059407e+00	 4.230202e-01	 2.289540e+01
1	 1.054346e+00	 4.354804e-01	 2.244308e+01
1	 1.085062e+00	 3.753454e-01	 2.404113e+01
1	 1.080608e+00	 3.879836e-01	 2.386696e+01
1	 1.075994e+00	 4.006019e-01	 2.361860e+01
1	 1.071220e+00	 4.131974e-01	 2.329775e+01
1	 1.066286e+00	 4.257671e-01	 2.290598e+01
1	 1.061193e+00	 4.383082e-01	 2.244476e+01
1	 1.026961e+00	 4.241693e-01	 2.242819e+01
1	 1.021877e+00	 4.362752e-01	 2.194787e+01
1	 1.016638e+00	 4.483478e-01	 2.141739e+01
1	 1.011244e+00	 4.603841e-01	 2.083785e+01
1	 1.005696e+00	 4.723812e-01	 2.021038e+01
1	 9.999931e-01	 4.843363e-01	 1.953605e+01
1	 1.033807e+00	 4.269970e-01	 2.243230e+01
1	 1.028689e+00	 4.391837e-01	 2.194487e+01
1	 1.023415e+00	 4.513368e-01	 2.140644e+01
1	 1.017986e+00	 4.634533e-01	 2.081811e+01
1	 1.012400e+00	 4.755304e-01	 2.018097e+01
1	 1.006660e+00	 4.875652e-01	 1.949608e+01
1	 1.040654e+00	 4.298248e-01	 2.243644e+01
1	 1.035502e+00	 4.420922e-01	 2.194134e+01
1	 1.030193e+00	 4.543258e-01	 2.139437e+01
1	 1.024727e+00	 4.665225e-01	 2.079658e+01
1	 1.019105e+00	 4.786796e-01	 2.014900e+01
1	 1.013326e+00	 4.907941e-01	 1.945261e+01
1	 1.047500e+00	 4.326526e-01	 2.244017e+01
1	 1.042314e+00	 4.450007e-01	 2.193672e+01
1	 1.036970e+00	 4.573148e-01	 2.138058e+01
1	 1.031469e+00	 4.695918e-01	 2.077270e+01
1	 1.025810e+00	 4.818288e-01	 2.011401e+01
1	 1.019993e+00	 4.940230e-01	 1.940542e+01
1	 1.054346e+00	 4.354804e-01	 2.244308e+01
1	 1.049127e+00	 4.479092e-01	 2.193048e+01
1	 1.043748e+00	 4.603037e-01	 2.136449e+01
1	 1.038210e+00	 4.726610e-01	 2.074593e+01
1	 1.032514e+00	 4.849780e-01	 2.007561e+01
1	 1.026660e+00	 4.972519e-01	 1.935429e+01
1	 1.061193e+00	 4.383082e-01	 2.244476e+01
1	 1.055939e+00	 4.508177e-01	 2.192209e+01
1	 1.050526e+00	 4.632927e-01	 2.134554e+01
1	 1.044952e+00	 4.757302e-01	 2.071575e+01
1	 1.039219e+00	 4.881272e-01	 2.003336e+01
1	 1.033326e+00	 5.004808e-01	 1.929901e+01
1	 9.999931e-01	 4.843363e-01	 1.953605e+01
1	 9.941365e-01	 4.962464e-01	 1.882456e+01
1	 9.881262e-01	 5.081087e-01	 1.808492e+01
1	 9.819627e-01	 5.199203e-01	 1.731725e+01
1	 9.756465e-01	 5.316782e-01	 1.652161e+01
1	 9.691782e-01	 5.433796e-01	 1.569803e+01
1	 1.006660e+00	 4.875652e-01	 1.949608e+01
1	 1.000764e+00	 4.995547e-01	 1.877307e+01
1	 9.947137e-01	 5.114961e-01	 1.802099e+01
1	 9.885092e-01	 5.233864e-01	 1.723993e+01
1	 9.821509e-01	 5.352227e-01	 1.642995e+01
1	 9.756394e-01	 5.470022e-01	 1.559110e+01
1	 1.013326e+00	 4.907941e-01	 1.945261e+01
1	 1.007392e+00	 5.028630e-01	 1.871709e+01
1	 1.001301e+00	 5.148835e-01	 1.795158e+01
1	 9.950556e-01	 5.268525e-01	 1.715617e+01
1	 9.886552e-01	 5.387673e-01	 1.633095e+01
1	 9.821006e-01	 5.506247e-01	 1.547596e+01
1	 1.019993e+00	 4.940230e-01	 1.940542e+01
1	 1.014019e+00	 5.061713e-01	 1.865660e+01
1	 1.007889e+00	 5.182709e-01	 1.787679e+01
1	 1.001602e+00	 5.303187e-01	 1.706612e+01
1	 9.951595e-01	 5.423118e-01	 1.622470e+01
1	 9.885618e-01	 5.542472e-01	 1.535257e+01
1	 1.026660e+00	 4.972519e-01	 1.935429e+01
1	 1.020647e+00	 5.094796e-01	 1.859158e+01
1	 1.014476e+00	 5.216583e-01	 1.779672e+01
1	 1.008148e+00	 5.337848e-01	 1.696990e+01
1	 1.001664e+00	 5.458563e-01	 1.611126e+01
1	 9.950230e-01	 5.578698e-01	 1.522088e+01
1	 1.033326e+00	 5.004808e-01	 1.929901e+01
1	 1.027274e+00	 5.127880e-01	 1.852200e+01
1	 1.021064e+00	 5.250457e-01	 1.771146e+01
1	 1.014695e+00	 5.372509e-01	 1.686765e+01
1	 1.008168e+00	 5.494008e-01	 1.599073e+01
1	 1.001484e+00	 5.614923e-01	 1.508082e+01
1	 9.691782e-01	 5.433796e-01	 1.569803e+01
1	 9.625585e-01	 5.550217e-01	 1.485751e+01
1	 9.557880e-01	 5.666014e-01	 1.401121e+01
1	 9.488676e-01	 5.781160e-01	 1.315938e+01
1	 9.417982e-01	 5.895626e-01	 1.230230e+01
1	 9.345807e-01	 6.009383e-01	 1.144026e+01
1	 9.756394e-01	 5.470022e-01	 1.559110e+01
1	 9.689756e-01	 5.587218e-01	 1.473467e+01
1	 9.621599e-01	 5.703787e-01	 1.387208e+01
1	 9.551934e-01	 5.819701e-01	 1.300353e+01
1	 9.480769e-01	 5.934930e-01	 1.212920e+01
1	 9.408113e-01	 6.049445e-01	 1.124930e+01
1	 9.821006e-01	 5.506247e-01	 1.547596e+01
1	 9.753926e-01	 5.624220e-01	 1.460276e+01
1	 9.685319e-01	 5.741561e-01	 1.372297e+01
1	 9.615192e-01	 5.858242e-01	 1.283670e+01
1	 9.543555e-01	 5.974234e-01	 1.194408e+01
1	 9.470418e-01	 6.089508e-01	 1.104522e+01
1	 9.885618e-01	 5.542472e-01	 1.535257e+01
1	 9.818097e-01	 5.661221e-01	 1.446159e+01
1	 9.749038e-01	 5.779334e-01	 1.356358e+01
1	 9.678450e-01	 5.896783e-01	 1.265860e+01
1	 9.606342e-01	 6.013538e-01	 1.174667e+01
1	 9.532723e-01	 6.129570e-01	 1.082786e+01
1	 9.950230e-01	 5.578698e-01	 1.522088e+01
1	 9.882267e-01	 5.698222e-01	 1.431095e+01
1	 9.812757e-01	 5.817108e-01	 1.339363e+01
1	 9.741708e-01	 5.935324e-01	 1.246890e+01
1	 9.669128e-01	 6.052842e-01	 1.153671e+01
1	 9.595029e-01	 6.169633e-01	 1.059705e+01
1	 1.001484e+00	 5.614923e-01	 1.508082e+01
1	 9.946438e-01	 5.735224e-01	 1.415065e+01
1	 9.876476e-01	 5.854881e-01	 1.321285e+01
1	 9.804966e-01	 5.973865e-01	 1.226731e+01
1	 9.731915e-01	 6.092146e-01	 1.131392e+01
1	 9.657334e-01	 6.209695e-01	 1.035261e+01
1	 9.345807e-01	 6.009383e-01	 1.144026e+01
1	 9.272161e-01	 6.122403e-01	 1.058442e+01
1	 9.197055e-01	 6.234658e-01	 9.746241e+00
1	 9.120501e-01	 6.346120e-01	 8.926470e+00
1	 9.042512e-01	 6.456762e-01	 8.125949e+00
1	 8.963099e-01	 6.566556e-01	 7.345598e+00
1	 9.408113e-01	 6.049445e-01	 1.124930e+01
1	 9.333976e-01	 6.163219e-01	 1.037542e+01
1	 9.258369e-01	 6.276222e-01	 9.519501e+00
1	 9.181305e-01	 6.388428e-01	 8.682273e+00
1	 9.102795e-01	 6.499807e-01	 7.864564e+00
1	 9.022853e-01	 6.610333e-01	 7.067282e+00
1	 9.470418e-01	 6.089508e-01	 1.104522e+01
1	 9.395790e-01	 6.204035e-01	 1.015221e+01
1	 9.319683e-01	 6.317787e-01	 9.277468e+00
1	 9.242108e-01	 6.430735e-01	 8.421696e+00
1	 9.163078e-01	 6.542852e-01	 7.585669e+00
1	 9.082607e-01	 6.654110e-01	 6.770249e+00
1	 9.532723e-01	 6.129570e-01	 1.082786e+01
1	 9.457604e-01	 6.244851e-01	 9.914708e+00
1	 9.380997e-01	 6.359351e-01	 9.020112e+00
1	 9.302912e-01	 6.473043e-01	 8.144690e+00
1	 9.223362e-01	 6.585897e-01	 7.289140e+00
1	 9.142361e-01	 6.697887e-01	 6.454236e+00
1	 9.595029e-01	 6.169633e-01	 1.059705e+01
1	 9.519419e-01	 6.285667e-01	 9.662856e+00
1	 9.442310e-01	 6.400916e-01	 8.747405e+00
1	 9.363715e-01	 6.515350e-01	 7.851210e+00
1	 9.283645e-01	 6.628942e-01	 6.974855e+00
1	 9.202115e-01	 6.741664e-01	 6.118989e+00
1	 9.657334e-01	 6.209695e-01	 1.035261e+01
1	 9.581233e-01	 6.326483e-01	 9.396583e+00
1	 9.503624e-01	 6.442480e-01	 8.459321e+00
1	 9.424518e-01	 6.557658e-01	 7.541212e+00
1	 9.343929e-01	 6.671987e-01	 6.642697e+00
1	 9.261869e-01	 6.785441e-01	 5.764261e+00
1	 8.963099e-01	 6.566556e-01	 7.345598e+00
1	 8.882276e-01	 6.675474e-01	 6.593206e+00
1	 8.800059e-01	 6.783491e-01	 5.877221e+00
1	 8.716462e-01	 6.890578e-01	 5.199717e+00
1	 8.631502e-01	 6.996711e-01	 4.562909e+00
1	 8.545193e-01	 7.101864e-01	 3.969155e+00
1	 9.022853e-01	 6.610333e-01	 7.067282e+00
1	 8.941492e-01	 6.719977e-01	 6.298649e+00
1	 8.858726e-01	 6.828714e-01	 5.567536e+00
1	 8.774572e-01	 6.936516e-01	 4.876015e+00
1	 8.689045e-01	 7.043356e-01	 4.226304e+00
1	 8.602161e-01	 7.149210e-01	 3.620769e+00
1	 9.082607e-01	 6.654110e-01	 6.770249e+00
1	 9.000707e-01	 6.764481e-01	 5.984101e+00
1	 8.917393e-01	 6.873937e-01	 5.236604e+00
1	 8.832682e-01	 6.982453e-01	 4.529878e+00
1	 8.746588e-01	 7.090001e-01	 3.866207e+00
1	 8.659129e-01	 7.196555e-01	 3.248035e+00
1	 9.142361e-01	 6.697887e-01	 6.454236e+00
1	 9.059922e-01	 6.808984e-01	 5.649176e+00
1	 8.976061e-01	 6.919160e-01	 4.883989e+00
1	 8.890792e-01	 7.028390e-01	 4.160902e+00
1	 8.804132e-01	 7.136646e-01	 3.482325e+00
1	 8.716097e-01	 7.243901e-01	 2.850847e+00
1	 9.202115e-01	 6.741664e-01	 6.118989e+00
1	 9.119137e-01	 6.853487e-01	 5.293495e+00
1	 9.034728e-01	 6.964384e-01	 4.509270e+00
1	 8.948901e-01	 7.074327e-01	 3.768697e+00
1	 8.861675e-01	 7.183290e-01	 3.074372e+00
1	 8.773065e-01	 7.291247e-01	 2.429099e+00
1	 9.261869e-01	 6.785441e-01	 5.764261e+00
1	 9.178352e-01	 6.897990e-01	 4.916692e+00
1	 9.093395e-01	 7.009607e-01	 4.112035e+00
1	 9.007011e-01	 7.120264e-01	 3.352881e+00
1	 8.919218e-01	 7.229935e-01	 2.642071e+00
1	 8.830033e-01	 7.338593e-01	 1.982689e+00
1	 8.545193e-01	 7.101864e-01	 3.969155e+00
1	 8.457553e-01	 7.206010e-01	 3.422007e+00
1	 8.368601e-01	 7.309125e-01	 2.924415e+00
1	 8.278354e-01	 7.411184e-01	 2.478035e+00
1	 8.186831e-01	 7.512162e-01	 2.084648e+00
1	 8.094052e-01	 7.612037e-01	 1.746159e+00
1	 8.602161e-01	 7.149210e-01	 3.620769e+00
1	 8.513937e-01	 7.254050e-01	 3.063019e+00
1	 8.424392e-01	 7.357852e-01	 2.556038e+00
1	 8.333543e-01	 7.460592e-01	 2.101455e+00
1	 8.241410e-01	 7.562243e-01	 1.701036e+00
1	 8.148013e-01	 7.662784e-01	 1.356673e+00
1	 8.659129e-01	 7.196555e-01	 3.248035e+00
1	 8.570321e-01	 7.302090e-01	 2.679062e+00
1	 8.480183e-01	 7.406580e-01	 2.162279e+00
1	 8.388732e-01	 7.509999e-01	 1.699289e+00
1	 8.295989e-01	 7.612324e-01	 1.291830e+00
1	 8.201973e-01	 7.713531e-01	 9.417728e-01
1	 8.716097e-01	 7.243901e-01	 2.850847e+00
1	 8.626705e-01	 7.350130e-01	 2.270224e+00
1	 8.535973e-01	 7.455307e-01	 1.743374e+00
1	 8.443921e-01	 7.559407e-01	 1.271870e+00
1	 8.350568e-01	 7.662406e-01	 8.574133e-01
1	 8.255933e-01	 7.764278e-01	 5.018363e-01
1	 8.773065e-01	 7.291247e-01	 2.429099e+00
1	 8.683088e-01	 7.398170e-01	 1.836593e+00
1	 8.591764e-01	 7.504035e-01	 1.299556e+00
1	 8.499110e-01	 7.608815e-01	 8.195236e-01
1	 8.405147e-01	 7.712487e-01	 3.981553e-01
1	 8.309894e-01	 7.815025e-01	 3.723163e-02
1	 8.830033e-01	 7.338593e-01	 1.982689e+00
1	 8.739472e-01	 7.446210e-01	 1.378254e+00
1	 8.647555e-01	 7.552762e-01	 8.310485e-01
1	 8.554299e-01	 7.658223e-01	 3.425670e-01
1	 8.459726e-01	 7.762568e-01	-8.558234e-02
1	 8.363854e-01	 7.865772e-01	-4.516826e-01
1	 8.094052e-01	 7.612037e-01	 1.746159e+00
1	 8.000037e-01	 7.710784e-01	 1.439533e+00
1	 7.904807e-01	 7.808382e-01	 1.140736e+00
1	 7.808382e-01	 7.904807e-01	 8.502240e-01
1	 7.710784e-01	 8.000037e-01	 5.683906e-01
1	 7.612037e-01	 8.094052e-01	 2.955681e-01
1	 8.148013e-01	 7.662784e-01	 1.356673e+00
1	 8.053371e-01	 7.762190e-01	 1.044271e+00
1	 7.957505e-01	 7.860438e-01	 7.390519e-01
1	 7.860438e-01	 7.957505e-01	 4.419455e-01
1	 7.762190e-01	 8.053371e-01	 1.538311e-01
1	 7.662784e-01	 8.148013e-01	-1.244629e-01
1	 8.201973e-01	 7.713531e-01	 9.417728e-01
1	 8.106704e-01	 7.813595e-01	 6.239668e-01
1	 8.010204e-01	 7.912493e-01	 3.128398e-01
1	 7.912493e-01	 8.010204e-01	 9.691406e-03
1	 7.813595e-01	 8.106704e-01	-2.842211e-01
1	 7.713531e-01	 8.201973e-01	-5.676841e-01
1	 8.255933e-01	 7.764278e-01	 5.018363e-01
1	 8.160038e-01	 7.865000e-01	 1.789535e-01
1	 8.062903e-01	 7.964549e-01	-1.376423e-01
1	 7.964549e-01	 8.062903e-01	-4.463850e-01
1	 7.865000e-01	 8.160038e-01	-7.457453e-01
1	 7.764278e-01	 8.255933e-01	-1.034233e+00
1	 8.309894e-01	 7.815025e-01	 3.723163e-02
1	 8.213371e-01	 7.916405e-01	-2.904437e-01
1	 8.115601e-01	 8.016605e-01	-6.121428e-01
1	 8.016605e-01	 8.115601e-01	-9.261344e-01
1	 7.916405e-01	 8.213371e-01	-1.230721e+00
1	 7.815025e-01	 8.309894e-01	-1.524242e+00
1	 8.363854e-01	 7.865772e-01	-4.516826e-01
1	 8.266705e-01	 7.967811e-01	-7.839081e-01
1	 8.168300e-01	 8.068661e-01	-1.110417e+00
1	 8.068661e-01	 8.168300e-01	-1.429412e+00
1	 7.967811e-01	 8.266705e-01	-1.739130e+00
1	 7.865772e-01	 8.363854e-01	-2.037843e+00
1	 7.612037e-01	 8.094052e-01	 2.955681e-01
1	 7.512162e-01	 8.186831e-01	 1.394261e-02
1	 7.411184e-01	 8.278354e-01	-2.968010e-01
1	 7.309125e-01	 8.368601e-01	-6.403188e-01
1	 7.206010e-01	 8.457553e-01	-1.020513e+00
1	 7.101864e-01	 8.545193e-01	-1.441522e+00
1	 7.662784e-01	 8.148013e-01	-1.244629e-01
1	 7.562243e-01	 8.241410e-01	-4.117405e-01
1	 7.460592e-01	 8.333543e-01	-7.298208e-01
1	 7.357852e-01	 8.424392e-01	-1.082639e+00
1	 7.254050e-01	 8.513937e-01	-1.474391e+00
1	 7.149210e-01	 8.602161e-01	-1.909523e+00
1	 7.713531e-01	 8.201973e-01	-5.676841e-01
1	 7.612324e-01	 8.295989e-01	-8.606595e-01
1	 7.509999e-01	 8.388732e-01	-1.186445e+00
1	 7.406580e-01	 8.480183e-01	-1.549072e+00
1	 7.302090e-01	 8.570321e-01	-1.952839e+00
1	 7.196555e-01	 8.659129e-01	-2.402299e+00
1	 7.764278e-01	 8.255933e-01	-1.034233e+00
1	 7.662406e-01	 8.350568e-01	-1.333072e+00
1	 7.559407e-01	 8.443921e-01	-1.666955e+00
1	 7.455307e-01	 8.535973e-01	-2.039830e+00
1	 7.350130e-01	 8.626705e-01	-2.455910e+00
1	 7.243901e-01	 8.716097e-01	-2.919659e+00
1	 7.815025e-01	 8.309894e-01	-1.524242e+00
1	 7.712487e-01	 8.405147e-01	-1.829228e+00
1	 7.608815e-01	 8.499110e-01	-2.171624e+00
1	 7.504035e-01	 8.591764e-01	-2.555119e+00
1	 7.398170e-01	 8.683088e-01	-2.983654e+00
1	 7.291247e-01	 8.773065e-01	-3.461417e+00
1	 7.865772e-01	 8.363854e-01	-2.037843e+00
1	 7.762568e-01	 8.459726e-01	-2.349372e+00
1	 7.658223e-01	 8.554299e-01	-2.700719e+00
1	 7.552762e-01	 8.647555e-01	-3.095138e+00
1	 7.446210e-01	 8.739472e-01	-3.536122e+00
1	 7.338593e-01	 8.830033e-01	-4.027389e+00
1	 7.101864e-01	 8.545193e-01	-1.441522e+00
1	 6.996711e-01	 8.631502e-01	-1.905746e+00
1	 6.890578e-01	 8.716462e-01	-2.414060e+00
1	 6.783491e-01	 8.800059e-01	-2.968568e+00
1	 6.675474e-01	 8.882276e-01	-3.571473e+00
1	 6.566556e-01	 8.963099e-01	-4.225077e+00
1	 7.149210e-01	 8.602161e-01	-1.909523e+00
1	 7.043356e-01	 8.689045e-01	-2.390166e+00
1	 6.936516e-01	 8.774572e-01	-2.916868e+00
1	 6.828714e-01	 8.858726e-01	-3.491957e+00
1	 6.719977e-01	 8.941492e-01	-4.117875e+00
1	 6.610333e-01	 9.022853e-01	-4.797167e+00
1	 7.196555e-01	 8.659129e-01	-2.402299e+00
1	 7.090001e-01	 8.746588e-01	-2.899208e+00
1	 6.982453e-01	 8.832682e-01	-3.443929e+00
1	 6.873937e-01	 8.917393e-01	-4.039204e+00
1	 6.764481e-01	 9.000707e-01	-4.687907e+00
1	 6.654110e-01	 9.082607e-01	-5.393029e+00
1	 7.243901e-01	 8.716097e-01	-2.919659e+00
1	 7.136646e-01	 8.804132e-01	-3.432451e+00
1	 7.028390e-01	 8.890792e-01	-3.994704e+00
1	 6.919160e-01	 8.976061e-01	-4.609757e+00
1	 6.808984e-01	 9.059922e-01	-5.281106e+00
1	 6.697887e-01	 9.142361e-01	-6.012390e+00
1	 7.291247e-01	 8.773065e-01	-3.461417e+00
1	 7.183290e-01	 8.861675e-01	-3.989483e+00
1	 7.074327e-01	 8.948901e-01	-4.568666e+00
1	 6.964384e-01	 9.034728e-01	-5.203077e+00
1	 6.853487e-01	 9.119137e-01	-5.897023e+00
1	 6.741664e-01	 9.202115e-01	-6.654985e+00
1	 7.338593e-01	 8.830033e-01	-4.027389e+00
1	 7.229935e-01	 8.919218e-01	-4.569905e+00
1	 7.120264e-01	 9.007011e-01	-5.165302e+00
1	 7.009607e-01	 9.093395e-01	-5.818641e+00
1	 6.897990e-01	 9.178352e-01	-6.535219e+00
1	 6.785441e-01	 9.261869e-01	-7.320553e+00
1	 6.566556e-01	 8.963099e-01	-4.225077e+00
1	 6.456762e-01	 9.042512e-01	-4.925577e+00
1	 6.346120e-01	 9.120501e-01	-5.668211e+00
1	 6.234658e-01	 9.197055e-01	-6.453927e+00
1	 6.122403e-01	 9.272161e-01	-7.283691e+00
1	 6.009383e-01	 9.345807e-01	-8.158487e+00
1	 6.610333e-01	 9.022853e-01	-4.797167e+00
1	 6.499807e-01	 9.102795e-01	-5.525873e+00
1	 6.388428e-01	 9.181305e-01	-6.298964e+00
1	 6.276222e-01	 9.258369e-01	-7.117479e+00
1	 6.163219e-01	 9.333976e-01	-7.982478e+00
1	 6.049445e-01	 9.408113e-01	-8.895040e+00
1	 6.654110e-01	 9.082607e-01	-5.393029e+00
1	 6.542852e-01	 9.163078e-01	-6.150535e+00
1	 6.430735e-01	 9.242108e-01	-6.954972e+00
1	 6.317787e-01	 9.319683e-01	-7.807309e+00
1	 6.204035e-01	 9.395790e-01	-8.708532e+00
1	 6.089508e-01	 9.470418e-01	-9.659642e+00
1	 6.697887e-01	 9.142361e-01	-6.012390e+00
1	 6.585897e-01	 9.223362e-01	-6.799478e+00
1	 6.473043e-01	 9.302912e-01	-7.636234e+00
1	 6.359351e-01	 9.380997e-01	-8.523405e+00
1	 6.244851e-01	 9.457604e-01	-9.461737e+00
1	 6.129570e-01	 9.532723e-01	-1.045198e+01
1	 6.741664e-01	 9.202115e-01	-6.654985e+00
1	 6.628942e-01	 9.283645e-01	-7.472616e+00
1	 6.515350e-01	 9.363715e-01	-8.342750e+00
1	 6.400916e-01	 9.442310e-01	-9.265754e+00
1	 6.285667e-01	 9.519419e-01	-1.024198e+01
1	 6.169633e-01	 9.595029e-01	-1.127175e+01
1	 6.785441e-01	 9.261869e-01	-7.320553e+00
1	 6.671987e-01	 9.343929e-01	-8.169868e+00
1	 6.557658e-01	 9.424518e-01	-9.074518e+00
1	 6.442480e-01	 9.503624e-01	-1.003435e+01
1	 6.326483e-01	 9.581233e-01	-1.104914e+01
1	 6.209695e-01	 9.657334e-01	-1.211866e+01
1	 6.009383e-01	 9.345807e-01	-8.158487e+00
1	 5.895626e-01	 9.417982e-01	-9.068675e+00
1	 5.781160e-01	 9.488676e-01	-1.000331e+01
1	 5.666014e-01	 9.557880e-01	-1.096135e+01
1	 5.550217e-01	 9.625585e-01	-1.194172e+01
1	 5.433796e-01	 9.691782e-01	-1.294327e+01
1	 6.049445e-01	 9.408113e-01	-8.895040e+00
1	 5.934930e-01	 9.480769e-01	-9.844960e+00
1	 5.819701e-01	 9.551934e-01	-1.082052e+01
1	 5.703787e-01	 9.621599e-01	-1.182046e+01
1	 5.587218e-01	 9.689756e-01	-1.284346e+01
1	 5.470022e-01	 9.756394e-01	-1.388813e+01
1	 6.089508e-01	 9.470418e-01	-9.659642e+00
1	 5.974234e-01	 9.543555e-01	-1.064971e+01
1	 5.858242e-01	 9.615192e-01	-1.166634e+01
1	 5.741561e-01	 9.685319e-01	-1.270830e+01
1	 5.624220e-01	 9.753926e-01	-1.377429e+01
1	 5.506247e-01	 9.821006e-01	-1.486291e+01
1	 6.129570e-01	 9.532723e-01	-1.045198e+01
1	 6.013538e-01	 9.606342e-01	-1.148242e+01
1	 5.896783e-01	 9.678450e-01	-1.254024e+01
1	 5.779334e-01	 9.749038e-01	-1.362444e+01
1	 5.661221e-01	 9.818097e-01	-1.473396e+01
1	 5.542472e-01	 9.885618e-01	-1.586767e+01
1	 6.169633e-01	 9.595029e-01	-1.127175e+01
1	 6.052842e-01	 9.669128e-01	-1.234265e+01
1	 5.935324e-01	 9.741708e-01	-1.344171e+01
1	 5.817108e-01	 9.812757e-01	-1.456842e+01
1	 5.698222e-01	 9.882267e-01	-1.572222e+01
1	 5.578698e-01	 9.950230e-01	-1.690247e+01
1	 6.209695e-01	 9.657334e-01	-1.211866e+01
1	 6.092146e-01	 9.731915e-01	-1.322991e+01
1	 5.973865e-01	 9.804966e-01	-1.437024e+01
1	 5.854881e-01	 9.876476e-01	-1.553983e+01
1	 5.735224e-01	 9.946438e-01	-1.673884e+01
1	 5.614923e-01	 1.001484e+00	-1.796738e+01
1	 5.433796e-01	 9.691782e-01	-1.294327e+01
1	 5.316782e-01	 9.756465e-01	-1.395412e+01
1	 5.199203e-01	 9.819627e-01	-1.496122e+01
1	 5.081087e-01	 9.881262e-01	-1.596157e+01
1	 4.962464e-01	 9.941365e-01	-1.695209e+01
1	 4.843363e-01	 9.999931e-01	-1.792965e+01
1	 5.470022e-01	 9.756394e-01	-1.388813e+01
1	 5.352227e-01	 9.821509e-01	-1.494213e+01
1	 5.233864e-01	 9.885092e-01	-1.599223e+01
1	 5.114961e-01	 9.947137e-01	-1.703555e+01
1	 4.995547e-01	 1.000764e+00	-1.806919e+01
1	 4.875652e-01	 1.006660e+00	-1.909015e+01
1	 5.506247e-01	 9.821006e-01	-1.486291e+01
1	 5.387673e-01	 9.886552e-01	-1.596159e+01
1	 5.268525e-01	 9.950556e-01	-1.705670e+01
1	 5.148835e-01	 1.001301e+00	-1.814515e+01
1	 5.028630e-01	 1.007392e+00	-1.922382e+01
1	 4.907941e-01	 1.013326e+00	-2.028948e+01
1	 5.542472e-01	 9.885618e-01	-1.586767e+01
1	 5.423118e-01	 9.951595e-01	-1.701283e+01
1	 5.303187e-01	 1.001602e+00	-1.815509e+01
1	 5.182709e-01	 1.007889e+00	-1.929079e+01
1	 5.061713e-01	 1.014019e+00	-2.041622e+01
1	 4.940230e-01	 1.019993e+00	-2.152755e+01
1	 5.578698e-01	 9.950230e-01	-1.690247e+01
1	 5.458563e-01	 1.001664e+00	-1.809620e+01
1	 5.337848e-01	 1.008148e+00	-1.928786e+01
1	 5.216583e-01	 1.014476e+00	-2.047290e+01
1	 5.094796e-01	 1.020647e+00	-2.164662e+01
1	 4.972519e-01	 1.026660e+00	-2.280427e+01
1	 5.614923e-01	 1.001484e+00	-1.796738e+01
1	 5.494008e-01	 1.008168e+00	-1.921202e+01
1	 5.372509e-01	 1.014695e+00	-2.045546e+01
1	 5.250457e-01	 1.021064e+00	-2.169187e+01
1	 5.127880e-01	 1.027274e+00	-2.291527e+01
1	 5.004808e-01	 1.033326e+00	-2.411955e+01
1	 4.843363e-01	 9.999931e-01	-1.792965e+01
1	 4.723812e-01	 1.005696e+00	-1.888136e+01
1	 4.603841e-01	 1.011244e+00	-1.979327e+01
1	 4.483478e-01	 1.016638e+00	-2.066052e+01
1	 4.362752e-01	 1.021877e+00	-2.147824e+01
1	 4.241693e-01	 1.026961e+00	-2.224149e+01
1	 4.875652e-01	 1.006660e+00	-1.909015e+01
1	 4.755304e-01	 1.012400e+00	-2.008516e+01
1	 4.634533e-01	 1.017986e+00	-2.103935e+01
1	 4.513368e-01	 1.023415e+00	-2.194734e+01
1	 4.391837e-01	 1.028689e+00	-2.280366e+01
1	 4.269970e-01	 1.033807e+00	-2.360282e+01
1	 4.907941e-01	 1.013326e+00	-2.028948e+01
1	 4.786796e-01	 1.019105e+00	-2.132812e+01
1	 4.665225e-01	 1.024727e+00	-2.232422e+01
1	 4.543258e-01	 1.030193e+00	-2.327230e+01
1	 4.420922e-01	 1.035502e+00	-2.416677e+01
1	 4.298248e-01	 1.040654e+00	-2.500203e+01
1	 4.940230e-01	 1.019993e+00	-2.152755e+01
1	 4.818288e-01	 1.025810e+00	-2.260985e+01
1	 4.695918e-01	 1.031469e+00	-2.364732e+01
1	 4.573148e-01	 1.036970e+00	-2.463480e+01
1	 4.450007e-01	 1.042314e+00	-2.556707e+01
1	 4.326526e-01	 1.047500e+00	-2.643886e+01
1	 4.972519e-01	 1.026660e+00	-2.280427e+01
1	 4.849780e-01	 1.032514e+00	-2.392994e+01
1	 4.726610e-01	 1.038210e+00	-2.500806e+01
1	 4.603037e-01	 1.043748e+00	-2.603425e+01
1	 4.479092e-01	 1.049127e+00	-2.700408e+01
1	 4.354804e-01	 1.054346e+00	-2.791307e+01
1	 5.004808e-01	 1.033326e+00	-2.411955e+01
1	 4.881272e-01	 1.039219e+00	-2.528801e+01
1	 4.757302e-01	 1.044952e+00	-2.640592e+01
1	 4.632927e-01	 1.050526e+00	-2.747010e+01
1	 4.508177e-01	 1.055939e+00	-2.847734e+01
1	 4.383082e-01	 1.061193e+00	-2.942440e+01
1	 4.241693e-01	 1.026961e+00	-2.224149e+01
1	 4.120327e-01	 1.031890e+00	-2.294150e+01
1	 3.998684e-01	 1.036664e+00	-2.356649e+01
1	 3.876793e-01	 1.041284e+00	-2.410693e+01
1	 3.754680e-01	 1.045749e+00	-2.455329e+01
1	 3.632375e-01	 1.050060e+00	-2.489601e+01
1	 4.269970e-01	 1.033807e+00	-2.360282e+01
1	 4.147796e-01	 1.038769e+00	-2.433494e+01
1	 4.025342e-01	 1.043576e+00	-2.498745e+01
1	 3.902638e-01	 1.048226e+00	-2.555072e+01
1	 3.779711e-01	 1.052721e+00	-2.601509e+01
1	 3.656591e-01	 1.057061e+00	-2.637088e+01
1	 4.298248e-01	 1.040654e+00	-2.500203e+01
1	 4.175265e-01	 1.045649e+00	-2.576748e+01
1	 4.052000e-01	 1.050487e+00	-2.644966e+01
1	 3.928483e-01	 1.055168e+00	-2.703851e+01
1	 3.804743e-01	 1.059693e+00	-2.752399e+01
1	 3.680807e-01	 1.064061e+00	-2.789604e+01
1	 4.326526e-01	 1.047500e+00	-2.643886e+01
1	 4.202734e-01	 1.052528e+00	-2.723915e+01
1	 4.078658e-01	 1.057398e+00	-2.795331e+01
1	 3.954329e-01	 1.062110e+00	-2.857067e+01
1	 3.829774e-01	 1.066664e+00	-2.908050e+01
1	 3.705022e-01	 1.071061e+00	-2.947209e+01
1	 4.354804e-01	 1.054346e+00	-2.791307e+01
1	 4.230202e-01	 1.059407e+00	-2.874992e+01
1	 4.105316e-01	 1.064309e+00	-2.949863e+01
1	 3.980174e-01	 1.069052e+00	-3.014757e+01
1	 3.854805e-01	 1.073636e+00	-3.068510e+01
1	 3.729238e-01	 1.078062e+00	-3.109958e+01
1	 4.383082e-01	 1.061193e+00	-2.942440e+01
1	 4.257671e-01	 1.066286e+00	-3.029982e+01
1	 4.131974e-01	 1.071220e+00	-3.108581e+01
1	 4.006019e-01	 1.075994e+00	-3.176956e+01
1	 3.879836e-01	 1.080608e+00	-3.233826e+01
1	 3.753454e-01	 1.085062e+00	-3.277907e+01
1	 3.632375e-01	 1.050060e+00	-2.489601e+01
1	 3.509904e-01	 1.054217e+00	-2.514312e+01
1	 3.387296e-01	 1.058220e+00	-2.530714e+01
1	 3.264577e-01	 1.062070e+00	-2.538538e+01
1	 3.141775e-01	 1.065768e+00	-2.537521e+01
1	 3.018915e-01	 1.069313e+00	-2.527414e+01
1	 3.656591e-01	 1.057061e+00	-2.637088e+01
1	 3.533304e-01	 1.061245e+00	-2.662678e+01
1	 3.409878e-01	 1.065275e+00	-2.679579e+01
1	 3.286341e-01	 1.069151e+00	-2.687485e+01
1	 3.162720e-01	 1.072873e+00	-2.686099e+01
1	 3.039042e-01	 1.076441e+00	-2.675136e+01
1	 3.680807e-01	 1.064061e+00	-2.789604e+01
1	 3.556703e-01	 1.068273e+00	-2.816370e+01
1	 3.432460e-01	 1.072330e+00	-2.834011e+01
1	 3.308105e-01	 1.076231e+00	-2.842146e+01
1	 3.183665e-01	 1.079978e+00	-2.840407e+01
1	 3.059168e-01	 1.083570e+00	-2.828436e+01
1	 3.705022e-01	 1.071061e+00	-2.947209e+01
1	 3.580102e-01	 1.075301e+00	-2.975449e+01
1	 3.455042e-01	 1.079385e+00	-2.994060e+01
1	 3.329869e-01	 1.083312e+00	-3.002551e+01
1	 3.204610e-01	 1.087083e+00	-3.000446e+01
1	 3.079294e-01	 1.090699e+00	-2.987276e+01
1	 3.729238e-01	 1.078062e+00	-3.109958e+01
1	 3.603502e-01	 1.082330e+00	-3.139973e+01
1	 3.477624e-01	 1.086439e+00	-3.159775e+01
1	 3.351632e-01	 1.090392e+00	-3.168730e+01
1	 3.225555e-01	 1.094188e+00	-3.166217e+01
1	 3.099420e-01	 1.097828e+00	-3.151624e+01
1	 3.753454e-01	 1.085062e+00	-3.277907e+01
1	 3.626901e-01	 1.089358e+00	-3.309997e+01
1	 3.500206e-01	 1.093494e+00	-3.331203e+01
1	 3.373396e-01	 1.097473e+00	-3.340712e+01
1	 3.246501e-01	 1.101293e+00	-3.337722e+01
1	 3.119546e-01	 1.104956e+00	-3.321443e+01
1	 3.018915e-01	 1.069313e+00	-2.527414e+01
1	 2.896026e-01	 1.072706e+00	-2.508685e+01
1	 2.773132e-01	 1.075949e+00	-2.482290e+01
1	 2.650260e-01	 1.079041e+00	-2.448717e+01
1	 2.527434e-01	 1.081984e+00	-2.408465e+01
1	 2.404681e-01	 1.084778e+00	-2.362041e+01
1	 3.039042e-01	 1.076441e+00	-2.675136e+01
1	 2.915333e-01	 1.079857e+00	-2.655101e+01
1	 2.791619e-01	 1.083122e+00	-2.626999e+01
1	 2.667928e-01	 1.086234e+00	-2.591311e+01
1	 2.544284e-01	 1.089197e+00	-2.548526e+01
1	 2.420712e-01	 1.092010e+00	-2.499140e+01
1	 3.059168e-01	 1.083570e+00	-2.828436e+01
1	 2.934640e-01	 1.087009e+00	-2.806753e+01
1	 2.810107e-01	 1.090295e+00	-2.776456e+01
1	 2.685596e-01	 1.093428e+00	-2.738067e+01
1	 2.561133e-01	 1.096410e+00	-2.692118e+01
1	 2.436743e-01	 1.099242e+00	-2.639149e+01
1	 3.079294e-01	 1.090699e+00	-2.987276e+01
1	 2.953946e-01	 1.094160e+00	-2.963570e+01
1	 2.828595e-01	 1.097468e+00	-2.930566e+01
1	 2.703265e-01	 1.100622e+00	-2.888877e+01
1	 2.577983e-01	 1.103623e+00	-2.839131e+01
1	 2.452774e-01	 1.106473e+00	-2.781961e+01
1	 3.099420e-01	 1.097828e+00	-3.151624e+01
1	 2.973253e-01	 1.101312e+00	-3.125484e+01
1	 2.847082e-01	 1.104641e+00	-3.089236e+01
1	 2.720933e-01	 1.107815e+00	-3.043636e+01
1	 2.594832e-01	 1.110837e+00	-2.989456e+01
1	 2.468805e-01	 1.113705e+00	-2.927473e+01
1	 3.119546e-01	 1.104956e+00	-3.321443e+01
1	 2.992560e-01	 1.108463e+00	-3.292428e+01
1	 2.865570e-01	 1.111814e+00	-3.252377e+01
1	 2.738601e-01	 1.115009e+00	-3.202242e+01
1	 2.611682e-01	 1.118050e+00	-3.142987e+01
1	 2.484837e-01	 1.120937e+00	-3.075583e+01
1	 2.404681e-01	 1.084778e+00	-2.362041e+01
1	 2.282024e-01	 1.087424e+00	-2.310313e+01
1	 2.159489e-01	 1.089924e+00	-2.254334e+01
1	 2.037099e-01	 1.092278e+00	-2.194884e+01
1	 1.914878e-01	 1.094486e+00	-2.132745e+01
1	 1.792849e-01	 1.096551e+00	-2.068695e+01
1	 2.420712e-01	 1.092010e+00	-2.499140e+01
1	 2.297238e-01	 1.094674e+00	-2.444037e+01
1	 2.173886e-01	 1.097190e+00	-2.384325e+01
1	 2.050680e-01	 1.099559e+00	-2.320843e+01
1	 1.927644e-01	 1.101783e+00	-2.254430e+01
1	 1.804802e-01	 1.103862e+00	-2.185920e+01
1	 2.436743e-01	 1.099242e+00	-2.639149e+01
1	 2.312451e-01	 1.101923e+00	-2.580102e+01
1	 2.188282e-01	 1.104456e+00	-2.516152e+01
1	 2.064260e-01	 1.106841e+00	-2.448198e+01
1	 1.940410e-01	 1.109079e+00	-2.377132e+01
1	 1.816754e-01	 1.111172e+00	-2.303846e+01
1	 2.452774e-01	 1.106473e+00	-2.781961e+01
1	 2.327665e-01	 1.109173e+00	-2.718410e+01
1	 2.202679e-01	 1.111722e+00	-2.649730e+01
1	 2.077841e-01	 1.114123e+00	-2.576871e+01
1	 1.953176e-01	 1.116376e+00	-2.500787e+01
1	 1.828706e-01	 1.118482e+00	-2.422422e+01
1	 2.468805e-01	 1.113705e+00	-2.927473e+01
1	 2.342878e-01	 1.116422e+00	-2.858868e+01
1	 2.217075e-01	 1.118988e+00	-2.784971e+01
1	 2.091422e-01	 1.121405e+00	-2.706790e+01
1	 1.965942e-01	 1.123673e+00	-2.625332e+01
1	 1.840659e-01	 1.125793e+00	-2.541598e+01
1	 2.484837e-01	 1.120937e+00	-3.075583e+01
1	 2.358092e-01	 1.123672e+00	-3.001383e+01
1	 2.231472e-01	 1.126255e+00	-2.921794e+01
1	 2.105002e-01	 1.128687e+00	-2.837881e+01
1	 1.978707e-01	 1.130969e+00	-2.750706e+01
1	 1.852611e-01	 1.133103e+00	-2.661325e+01
1	 1.792849e-01	 1.096551e+00	-2.068695e+01
1	 1.671036e-01	 1.098474e+00	-2.003728e+01
1	 1.549460e-01	 1.100254e+00	-1.939014e+01
1	 1.428143e-01	 1.101895e+00	-1.875583e+01
1	 1.307107e-01	 1.103396e+00	-1.814451e+01
1	 1.186374e-01	 1.104759e+00	-1.756622e+01
1	 1.804802e-01	 1.103862e+00	-2.185920e+01
1	 1.682176e-01	 1.105797e+00	-2.116389e+01
1	 1.559789e-01	 1.107589e+00	-2.047097e+01
1	 1.437664e-01	 1.109241e+00	-1.979142e+01
1	 1.315821e-01	 1.110752e+00	-1.913610e+01
1	 1.194283e-01	 1.112124e+00	-1.851571e+01
1	 1.816754e-01	 1.111172e+00	-2.303846e+01
1	 1.693316e-01	 1.113120e+00	-2.229499e+01
1	 1.570119e-01	 1.114924e+00	-2.155435e+01
1	 1.447185e-01	 1.116587e+00	-2.082814e+01
1	 1.324535e-01	 1.118108e+00	-2.012782e+01
1	 1.202192e-01	 1.119489e+00	-1.946470e+01
1	 1.828706e-01	 1.118482e+00	-2.422422e+01
1	 1.704456e-01	 1.120443e+00	-2.343017e+01
1	 1.580449e-01	 1.122259e+00	-2.263999e+01
1	 1.456706e-01	 1.123933e+00	-2.186578e+01
1	 1.333250e-01	 1.125464e+00	-2.111952e+01
1	 1.210102e-01	 1.126854e+00	-2.041303e+01
1	 1.840659e-01	 1.125793e+00	-2.541598e+01
1	 1.715597e-01	 1.127766e+00	-2.456908e+01
1	 1.590778e-01	 1.129594e+00	-2.372761e+01
1	 1.466227e-01	 1.131279e+00	-2.290412e+01
1	 1.341964e-01	 1.132820e+00	-2.211103e+01
1	 1.218011e-01	 1.134220e+00	-2.136058e+01
1	 1.852611e-01	 1.133103e+00	-2.661325e+01
1	 1.726737e-01	 1.135089e+00	-2.571134e+01
1	 1.601108e-01	 1.136930e+00	-2.481693e+01
1	 1.475748e-01	 1.138625e+00	-2.394296e+01
1	 1.350678e-01	 1.140176e+00	-2.310219e+01
1	 1.225920e-01	 1.141585e+00	-2.230721e+01
1	 1.186374e-01	 1.104759e+00	-1.756622e+01
1	 1.065964e-01	 1.105986e+00	-1.703098e+01
1	 9.458968e-02	 1.107078e+00	-1.654817e+01
1	 8.261929e-02	 1.108035e+00	-1.612659e+01
1	 7.068714e-02	 1.108860e+00	-1.577486e+01
1	 5.879512e-02	 1.109554e+00	-1.550137e+01
1	 1.194283e-01	 1.112124e+00	-1.851571e+01
1	 1.073070e-01	 1.113359e+00	-1.794091e+01
1	 9.522028e-02	 1.114458e+00	-1.742154e+01
1	 8.317009e-02	 1.115422e+00	-1.696690e+01
1	 7.115839e-02	 1.116253e+00	-1.658608e+01
1	 5.918709e-02	 1.116951e+00	-1.628793e+01
1	 1.202192e-01	 1.119489e+00	-1.946470e+01
1	 1.080177e-01	 1.120733e+00	-1.884991e+01
1	 9.585088e-02	 1.121839e+00	-1.829372e+01
1	 8.372088e-02	 1.122809e+00	-1.780582e+01
1	 7.162963e-02	 1.123645e+00	-1.739571e+01
1	 5.957906e-02	 1.124348e+00	-1.707263e+01
1	 1.210102e-01	 1.126854e+00	-2.041303e+01
1	 1.087283e-01	 1.128106e+00	-1.975787e+01
1	 9.648148e-02	 1.129219e+00	-1.916459e+01
1	 8.427168e-02	 1.130196e+00	-1.864326e+01
1	 7.210088e-02	 1.131038e+00	-1.820367e+01
1	 5.997103e-02	 1.131746e+00	-1.785540e+01
1	 1.218011e-01	 1.134220e+00	-2.136058e+01
1	 1.094390e-01	 1.135479e+00	-2.066466e+01
1	 9.711208e-02	 1.136600e+00	-2.003407e+01
1	 8.482247e-02	 1.137583e+00	-1.947913e+01
1	 7.257213e-02	 1.138430e+00	-1.900990e+01
1	 6.036299e-02	 1.139143e+00	-1.863621e+01
1	 1.225920e-01	 1.141585e+00	-2.230721e+01
1	 1.101496e-01	 1.142852e+00	-2.157017e+01
1	 9.774267e-02	 1.143980e+00	-2.090203e+01
1	 8.537327e-02	 1.144970e+00	-2.031333e+01
1	 7.304338e-02	 1.145822e+00	-1.981431e+01
1	 6.075496e-02	 1.146540e+00	-1.941498e+01
1	 5.879512e-02	 1.109554e+00	-1.550137e+01
1	 4.694509e-02	 1.110119e+00	-1.531463e+01
1	 3.513883e-02	 1.110555e+00	-1.522183e+01
1	 2.337810e-02	 1.110865e+00	-1.522913e+01
1	 1.166460e-02	 1.111050e+00	-1.534245e+01
1	 0.000000e+00	 1.111111e+00	-1.556750e+01
1	 5.918709e-02	 1.116951e+00	-1.628793e+01
1	 4.725806e-02	 1.117520e+00	-1.608145e+01
1	 3.537309e-02	 1.117959e+00	-1.597429e+01
1	 2.353395e-02	 1.118271e+00	-1.597294e+01
1	 1.174237e-02	 1.118457e+00	-1.608364e+01
1	 0.000000e+00	 1.118519e+00	-1.631242e+01
1	 5.957906e-02	 1.124348e+00	-1.707263e+01
1	 4.757102e-02	 1.124921e+00	-1.684602e+01
1	 3.560735e-02	 1.125363e+00	-1.672396e+01
1	 2.368981e-02	 1.125677e+00	-1.671327e+01
1	 1.182013e-02	 1.125864e+00	-1.682055e+01
1	 0.000000e+00	 1.125926e+00	-1.705212e+01
1	 5.997103e-02	 1.131746e+00	-1.785540e+01
1	 4.788399e-02	 1.132321e+00	-1.760828e+01
1	 3.584161e-02	 1.132766e+00	-1.747080e+01
1	 2.384566e-02	 1.133082e+00	-1.745013e+01
1	 1.189790e-02	 1.133271e+00	-1.755317e+01
1	 0.000000e+00	 1.133333e+00	-1.778659e+01
1	 6.036299e-02	 1.139143e+00	-1.863621e+01
1	 4.819696e-02	 1.139722e+00	-1.836821e+01
1	 3.607587e-02	 1.140170e+00	-1.821480e+01
1	 2.400152e-02	 1.140488e+00	-1.818349e+01
1	 1.197566e-02	 1.140678e+00	-1.828151e+01
1	 0.000000e+00	 1.140741e+00	-1.851581e+01
1	 6.075496e-02	 1.146540e+00	-1.941498e+01
1	 4.850992e-02	 1.147123e+00	-1.912577e+01
1	 3.631012e-02	 1.147574e+00	-1.895594e+01
1	 2.415737e-02	 1.147894e+00	-1.891335e+01
1	 1.205342e-02	 1.148085e+00	-1.900554e+01
1	 0.000000e+00	 1.148148e+00	-1.923980e+01
1	 1.148148e+00	 0.000000e+00	 2.499373e+01
1	 1.148085e+00	 1.205342e-02	 2.480049e+01
1	 1.147894e+00	 2.415737e-02	 2.463473e+01
1	 1.147574e+00	 3.631012e-02	 2.449476e+01
1	 1.147123e+00	 4.850992e-02	 2.437885e+01
1	 1.146540e+00	 6.075496e-02	 2.428526e+01
1	 1.155556e+00	 0.000000e+00	 2.475078e+01
1	 1.155492e+00	 1.213119e-02	 2.455059e+01
1	 1.155300e+00	 2.431322e-02	 2.437961e+01
1	 1.154978e+00	 3.654438e-02	 2.423607e+01
1	 1.154524e+00	 4.882289e-02	 2.411819e+01
1	 1.153937e+00	 6.114693e-02	 2.402416e+01
1	 1.162963e+00	 0.000000e+00	 2.451289e+01
1	 1.162899e+00	 1.220895e-02	 2.430569e+01
1	 1.162706e+00	 2.446908e-02	 2.412935e+01
1	 1.162381e+00	 3.677864e-02	 2.398205e+01
1	 1.161924e+00	 4.913586e-02	 2.386193e+01
1	 1.161334e+00	 6.153890e-02	 2.376713e+01
1	 1.170370e+00	 0.000000e+00	 2.427974e+01
1	 1.170306e+00	 1.228672e-02	 2.406548e+01
1	 1.170111e+00	 2.462493e-02	 2.388366e+01
1	 1.169785e+00	 3.701290e-02	 2.373240e+01
1	 1.169325e+00	 4.944883e-02	 2.360979e+01
1	 1.168731e+00	 6.193086e-02	 2.351391e+01
1	 1.177778e+00	 0.000000e+00	 2.405104e+01
1	 1.177713e+00	 1.236448e-02	 2.382966e+01
1	 1.177517e+00	 2.478079e-02	 2.364222e+01
1	 1.177189e+00	 3.724716e-02	 2.348681e+01
1	 1.176726e+00	 4.976179e-02	 2.336147e+01
1	 1.176128e+00	 6.232283e-02	 2.326423e+01
1	 1.185185e+00	 0.000000e+00	 2.382647e+01
1	 1.185120e+00	 1.244224e-02	 2.359791e+01
1	 1.184923e+00	 2.493664e-02	 2.340475e+01
1	 1.184592e+00	 3.748142e-02	 2.324501e+01
1	 1.184127e+00	 5.007476e-02	 2.311671e+01
1	 1.183525e+00	 6.271480e-02	 2.301782e+01
1	 1.146540e+00	 6.075496e-02	 2.428526e+01
1	 1.145822e+00	 7.304338e-02	 2.421314e+01
1	 1.144970e+00	 8.537327e-02	 2.416146e+01
1	 1.143980e+00	 9.774267e-02	 2.412825e+01
1	 1.142852e+00	 1.101496e-01	 2.411153e+01
1	 1.141585e+00	 1.225920e-01	 2.410933e+01
1	 1.153937e+00	 6.114693e-02	 2.402416e+01
1	 1.153215e+00	 7.351463e-02	 2.395308e+01
1	 1.152357e+00	 8.592406e-02	 2.390392e+01
1	 1.151361e+00	 9.837327e-02	 2.387462e+01
1	 1.150225e+00	 1.108602e-01	 2.386316e+01
1	 1.148950e+00	 1.233829e-01	 2.386750e+01
1	 1.161334e+00	 6.153890e-02	 2.376713e+01
1	 1.160607e+00	 7.398587e-02	 2.369673e+01
1	 1.159743e+00	 8.647486e-02	 2.364964e+01
1	 1.158741e+00	 9.900387e-02	 2.362378e+01
1	 1.157599e+00	 1.115709e-01	 2.361703e+01
1	 1.156315e+00	 1.241738e-01	 2.362731e+01
1	 1.168731e+00	 6.193086e-02	 2.351391e+01
1	 1.168000e+00	 7.445712e-02	 2.344382e+01
1	 1.167130e+00	 8.702565e-02	 2.339840e+01
1	 1.166122e+00	 9.963447e-02	 2.337550e+01
1	 1.164972e+00	 1.122815e-01	 2.337294e+01
1	 1.163680e+00	 1.249647e-01	 2.338857e+01
1	 1.176128e+00	 6.232283e-02	 2.326423e+01
1	 1.175392e+00	 7.492837e-02	 2.319410e+01
1	 1.174517e+00	 8.757645e-02	 2.314995e+01
1	 1.173502e+00	 1.002651e-01	 2.312956e+01
1	 1.172345e+00	 1.129922e-01	 2.313070e+01
1	 1.171045e+00	 1.257557e-01	 2.315112e+01
1	 1.183525e+00	 6.271480e-02	 2.301782e+01
1	 1.182784e+00	 7.539962e-02	 2.294733e+01
1	 1.181904e+00	 8.812724e-02	 2.290408e+01
1	 1.180883e+00	 1.008957e-01	 2.288577e+01
1	 1.179718e+00	 1.137028e-01	 2.289011e+01
1	 1.178410e+00	 1.265466e-01	 2.291478e+01
1	 1.141585e+00	 1.225920e-01	 2.410933e+01
1	 1.140176e+00	 1.350678e-01	 2.412026e+01
1	 1.138625e+00	 1.475748e-01	 2.414285e+01
1	 1.136930e+00	 1.601108e-01	 2.417499e+01
1	 1.135089e+00	 1.726737e-01	 2.421463e+01
1	 1.133103e+00	 1.852611e-01	 2.425976e+01
1	 1.148950e+00	 1.233829e-01	 2.386750e+01
1	 1.147532e+00	 1.359392e-01	 2.388633e+01
1	 1.145971e+00	 1.485269e-01	 2.391823e+01
1	 1.144265e+00	 1.611438e-01	 2.396104e+01
1	 1.142413e+00	 1.737877e-01	 2.401265e+01
1	 1.140413e+00	 1.864563e-01	 2.407098e+01
1	 1.156315e+00	 1.241738e-01	 2.362731e+01
1	 1.154888e+00	 1.368106e-01	 2.365336e+01
1	 1.153316e+00	 1.494790e-01	 2.369385e+01
1	 1.151600e+00	 1.621768e-01	 2.374656e+01
1	 1.149736e+00	 1.749017e-01	 2.380931e+01
1	 1.147724e+00	 1.876516e-01	 2.387999e+01
1	 1.163680e+00	 1.249647e-01	 2.338857e+01
1	 1.162244e+00	 1.376820e-01	 2.342121e+01
1	 1.160662e+00	 1.504311e-01	 2.346958e+01
1	 1.158935e+00	 1.632097e-01	 2.353143e+01
1	 1.157059e+00	 1.760158e-01	 2.360455e+01
1	 1.155034e+00	 1.888468e-01	 2.368676e+01
1	 1.171045e+00	 1.257557e-01	 2.315112e+01
1	 1.169600e+00	 1.385534e-01	 2.318971e+01
1	 1.168008e+00	 1.513831e-01	 2.324529e+01
1	 1.166270e+00	 1.642427e-01	 2.331558e+01
1	 1.164382e+00	 1.771298e-01	 2.339831e+01
1	 1.162344e+00	 1.900420e-01	 2.349129e+01
1	 1.178410e+00	 1.265466e-01	 2.291478e+01
1	 1.176956e+00	 1.394248e-01	 2.295872e+01
1	 1.175354e+00	 1.523352e-01	 2.302087e+01
1	 1.173605e+00	 1.652757e-01	 2.309890e+01
1	 1.171705e+00	 1.782438e-01	 2.319053e+01
1	 1.169655e+00	 1.912373e-01	 2.329353e+01
1	 1.133103e+00	 1.852611e-01	 2.425976e+01
1	 1.130969e+00	 1.978707e-01	 2.430681e+01
1	 1.128687e+00	 2.105002e-01	 2.435252e+01
1	 1.126255e+00	 2.231472e-01	 2.439545e+01
1	 1.123672e+00	 2.358092e-01	 2.443423e+01
1	 1.120937e+00	 2.484837e-01	 2.446755e+01
1	 1.140413e+00	 1.864563e-01	 2.407098e+01
1	 1.138266e+00	 1.991473e-01	 2.413221e+01
1	 1.135969e+00	 2.118583e-01	 2.419279e+01
1	 1.133521e+00	 2.245868e-01	 2.425117e+01
1	 1.130921e+00	 2.373305e-01	 2.430584e+01
1	 1.128169e+00	 2.500868e-01	 2.435536e+01
1	 1.147724e+00	 1.876516e-01	 2.387999e+01
1	 1.145562e+00	 2.004239e-01	 2.395455e+01
1	 1.143250e+00	 2.132164e-01	 2.402920e+01
1	 1.140787e+00	 2.260265e-01	 2.410228e+01
1	 1.138171e+00	 2.388519e-01	 2.417217e+01
1	 1.135401e+00	 2.516899e-01	 2.423730e+01
1	 1.155034e+00	 1.888468e-01	 2.368676e+01
1	 1.152859e+00	 2.017005e-01	 2.377385e+01
1	 1.150532e+00	 2.145744e-01	 2.386180e+01
1	 1.148053e+00	 2.274662e-01	 2.394883e+01
1	 1.145420e+00	 2.403732e-01	 2.403323e+01
1	 1.142633e+00	 2.532930e-01	 2.411335e+01
1	 1.162344e+00	 1.900420e-01	 2.349129e+01
1	 1.160156e+00	 2.029771e-01	 2.359011e+01
1	 1.157814e+00	 2.159325e-01	 2.369059e+01
1	 1.155319e+00	 2.289058e-01	 2.379084e+01
1	 1.152670e+00	 2.418946e-01	 2.388906e+01
1	 1.149865e+00	 2.548962e-01	 2.398350e+01
1	 1.169655e+00	 1.912373e-01	 2.329353e+01
1	 1.167452e+00	 2.042537e-01	 2.340336e+01
1	 1.165096e+00	 2.172906e-01	 2.351561e+01
1	 1.162585e+00	 2.303455e-01	 2.362834e+01
1	 1.159919e+00	 2.434159e-01	 2.373966e+01
1	 1.157096e+00	 2.564993e-01	 2.384774e+01
1	 1.120937e+00	 2.484837e-01	 2.446755e+01
1	 1.118050e+00	 2.611682e-01	 2.449203e+01
1	 1.115009e+00	 2.738601e-01	 2.450487e+01
1	 1.111814e+00	 2.865570e-01	 2.450565e+01
1	 1.108463e+00	 2.992560e-01	 2.449413e+01
1	 1.104956e+00	 3.119546e-01	 2.447021e+01
1	 1.128169e+00	 2.500868e-01	 2.435536e+01
1	 1.125263e+00	 2.628531e-01	 2.439662e+01
1	 1.122202e+00	 2.756270e-01	 2.442692e+01
1	 1.118986e+00	 2.884057e-01	 2.444565e+01
1	 1.115614e+00	 3.011867e-01	 2.445236e+01
1	 1.112085e+00	 3.139672e-01	 2.444674e+01
1	 1.135401e+00	 2.516899e-01	 2.423730e+01
1	 1.132476e+00	 2.645381e-01	 2.429490e+01
1	 1.129396e+00	 2.773938e-01	 2.434256e+01
1	 1.126159e+00	 2.902545e-01	 2.437949e+01
1	 1.122766e+00	 3.031174e-01	 2.440507e+01
1	 1.119214e+00	 3.159798e-01	 2.441886e+01
1	 1.142633e+00	 2.532930e-01	 2.411335e+01
1	 1.139689e+00	 2.662231e-01	 2.418678e+01
1	 1.136590e+00	 2.791607e-01	 2.425152e+01
1	 1.133332e+00	 2.921032e-01	 2.430664e+01
1	 1.129917e+00	 3.050481e-01	 2.435141e+01
1	 1.126343e+00	 3.179924e-01	 2.438528e+01
1	 1.149865e+00	 2.548962e-01	 2.398350e+01
1	 1.146903e+00	 2.679080e-01	 2.407219e+01
1	 1.143783e+00	 2.809275e-01	 2.415355e+01
1	 1.140505e+00	 2.939520e-01	 2.422660e+01
1	 1.137068e+00	 3.069787e-01	 2.429053e+01
1	 1.133471e+00	 3.200050e-01	 2.434473e+01
1	 1.157096e+00	 2.564993e-01	 2.384774e+01
1	 1.154116e+00	 2.695930e-01	 2.395103e+01
1	 1.150977e+00	 2.826943e-01	 2.404842e+01
1	 1.147678e+00	 2.958007e-01	 2.413889e+01
1	 1.144220e+00	 3.089094e-01	 2.422163e+01
1	 1.140600e+00	 3.220177e-01	 2.429596e+01
1	 1.104956e+00	 3.119546e-01	 2.447021e+01
1	 1.101293e+00	 3.246501e-01	 2.442809e+01
1	 1.097473e+00	 3.373396e-01	 2.436286e+01
1	 1.093494e+00	 3.500206e-01	 2.427583e+01
1	 1.089358e+00	 3.626901e-01	 2.416822e+01
1	 1.085062e+00	 3.753454e-01	 2.404113e+01
1	 1.112085e+00	 3.139672e-01	 2.444674e+01
1	 1.108398e+00	 3.267446e-01	 2.442112e+01
1	 1.104553e+00	 3.395160e-01	 2.436895e+01
1	 1.100549e+00	 3.522788e-01	 2.429169e+01
1	 1.096386e+00	 3.650300e-01	 2.419068e+01
1	 1.092063e+00	 3.777670e-01	 2.406713e+01
1	 1.119214e+00	 3.159798e-01	 2.441886e+01
1	 1.115503e+00	 3.288391e-01	 2.441110e+01
1	 1.111634e+00	 3.416924e-01	 2.437329e+01
1	 1.107604e+00	 3.545370e-01	 2.430693e+01
1	 1.103414e+00	 3.673700e-01	 2.421339e+01
1	 1.099063e+00	 3.801886e-01	 2.409392e+01
1	 1.126343e+00	 3.179924e-01	 2.438528e+01
1	 1.122608e+00	 3.309336e-01	 2.439632e+01
1	 1.118714e+00	 3.438688e-01	 2.437390e+01
1	 1.114659e+00	 3.567952e-01	 2.431946e+01
1	 1.110442e+00	 3.697099e-01	 2.423431e+01
1	 1.106063e+00	 3.826102e-01	 2.411965e+01
1	 1.133471e+00	 3.200050e-01	 2.434473e+01
1	 1.129714e+00	 3.330281e-01	 2.437511e+01
1	 1.125794e+00	 3.460452e-01	 2.436884e+01
1	 1.121713e+00	 3.590534e-01	 2.432723e+01
1	 1.117470e+00	 3.720499e-01	 2.425143e+01
1	 1.113064e+00	 3.850317e-01	 2.414252e+01
1	 1.140600e+00	 3.220177e-01	 2.429596e+01
1	 1.136819e+00	 3.351226e-01	 2.434582e+01
1	 1.132875e+00	 3.482216e-01	 2.435624e+01
1	 1.128768e+00	 3.613116e-01	 2.432825e+01
1	 1.124498e+00	 3.743898e-01	 2.426280e+01
1	 1.120064e+00	 3.874533e-01	 2.416076e+01
1	 1.085062e+00	 3.753454e-01	 2.404113e+01
1	 1.080608e+00	 3.879836e-01	 2.386696e+01
1	 1.075994e+00	 4.006019e-01	 2.361860e+01
1	 1.071220e+00	 4.131974e-01	 2.329775e+01
1	 1.066286e+00	 4.257671e-01	 2.290598e+01
1	 1.061193e+00	 4.383082e-01	 2.244476e+01
1	 1.092063e+00	 3.777670e-01	 2.406713e+01
1	 1.087579e+00	 3.904867e-01	 2.389341e+01
1	 1.082936e+00	 4.031864e-01	 2.364250e+01
1	 1.078131e+00	 4.158632e-01	 2.331638e+01
1	 1.073166e+00	 4.285140e-01	 2.291687e+01
1	 1.068039e+00	 4.411360e-01	 2.244570e+01
1	 1.099063e+00	 3.801886e-01	 2.409392e+01
1	 1.094551e+00	 3.929899e-01	 2.392091e+01
1	 1.089877e+00	 4.057710e-01	 2.366754e+01
1	 1.085042e+00	 4.185290e-01	 2.333600e+01
1	 1.080045e+00	 4.312609e-01	 2.292839e+01
1	 1.074886e+00	 4.439638e-01	 2.244669e+01
1	 1.106063e+00	 3.826102e-01	 2.411965e+01
1	 1.101523e+00	 3.954930e-01	 2.394791e+01
1	 1.096819e+00	 4.083555e-01	 2.369248e+01
1	 1.091953e+00	 4.211947e-01	 2.335576e+01
1	 1.086924e+00	 4.340078e-01	 2.294011e+01
1	 1.081732e+00	 4.467916e-01	 2.244773e+01
1	 1.113064e+00	 3.850317e-01	 2.414252e+01
1	 1.108494e+00	 3.979961e-01	 2.397290e+01
1	 1.103761e+00	 4.109400e-01	 2.371612e+01
1	 1.098864e+00	 4.238605e-01	 2.337484e+01
1	 1.093803e+00	 4.367547e-01	 2.295159e+01
1	 1.088578e+00	 4.496194e-01	 2.244885e+01
1	 1.120064e+00	 3.874533e-01	 2.416076e+01
1	 1.115466e+00	 4.004992e-01	 2.399438e+01
1	 1.110703e+00	 4.135246e-01	 2.373732e+01
1	 1.105775e+00	 4.265263e-01	 2.339241e+01
1	 1.100683e+00	 4.395015e-01	 2.296243e+01
1	 1.095425e+00	 4.524472e-01	 2.245006e+01
1	 1.061193e+00	 4.383082e-01	 2.244476e+01
1	 1.055939e+00	 4.508177e-01	 2.192209e+01
1	 1.050526e+00	 4.632927e-01	 2.134554e+01
1	 1.044952e+00	 4.757302e-01	 2.071575e+01
1	 1.039219e+00	 4.881272e-01	 2.003336e+01
1	 1.033326e+00	 5.004808e-01	 1.929901e+01
1	 1.068039e+00	 4.411360e-01	 2.244570e+01
1	 1.062752e+00	 4.537262e-01	 2.191194e+01
1	 1.057303e+00	 4.662817e-01	 2.132393e+01
1	 1.051694e+00	 4.787995e-01	 2.068218e+01
1	 1.045924e+00	 4.912765e-01	 1.998721e+01
1	 1.039993e+00	 5.037097e-01	 1.923953e+01
1	 1.074886e+00	 4.439638e-01	 2.244669e+01
1	 1.069564e+00	 4.566347e-01	 2.190103e+01
1	 1.064081e+00	 4.692707e-01	 2.130065e+01
1	 1.058435e+00	 4.818687e-01	 2.064604e+01
1	 1.052628e+00	 4.944257e-01	 1.993769e+01
1	 1.046659e+00	 5.069386e-01	 1.917608e+01
1	 1.081732e+00	 4.467916e-01	 2.244773e+01
1	 1.076377e+00	 4.595433e-01	 2.188977e+01
1	 1.070858e+00	 4.722597e-01	 2.127632e+01
1	 1.065177e+00	 4.849379e-01	 2.060798e+01
1	 1.059333e+00	 4.975749e-01	 1.988531e+01
1	 1.053326e+00	 5.101675e-01	 1.910884e+01
1	 1.088578e+00	 4.496194e-01	 2.244885e+01
1	 1.083189e+00	 4.624518e-01	 2.187853e+01
1	 1.077636e+00	 4.752487e-01	 2.125152e+01
1	 1.071919e+00	 4.880071e-01	 2.056862e+01
1	 1.066037e+00	 5.007241e-01	 1.983055e+01
1	 1.059993e+00	 5.133965e-01	 1.903798e+01
1	 1.095425e+00	 4.524472e-01	 2.245006e+01
1	 1.090002e+00	 4.653603e-01	 2.186771e+01
1	 1.084414e+00	 4.782377e-01	 2.122685e+01
1	 1.078660e+00	 4.910764e-01	 2.052858e+01
1	 1.072742e+00	 5.038733e-01	 1.977389e+01
1	 1.066659e+00	 5.166254e-01	 1.896366e+01
1	 1.033326e+00	 5.004808e-01	 1.929901e+01
1	 1.027274e+00	 5.127880e-01	 1.852200e+01
1	 1.021064e+00	 5.250457e-01	 1.771146e+01
1	 1.014695e+00	 5.372509e-01	 1.686765e+01
1	 1.008168e+00	 5.494008e-01	 1.599073e+01
1	 1.001484e+00	 5.614923e-01	 1.508082e+01
1	 1.039993e+00	 5.037097e-01	 1.923953e+01
1	 1.033902e+00	 5.160963e-01	 1.844799e+01
1	 1.027651e+00	 5.284331e-01	 1.762132e+01
1	 1.021241e+00	 5.407171e-01	 1.675983e+01
1	 1.014672e+00	 5.529453e-01	 1.586371e+01
1	 1.007945e+00	 5.651148e-01	 1.493303e+01
1	 1.046659e+00	 5.069386e-01	 1.917608e+01
1	 1.040530e+00	 5.194046e-01	 1.836954e+01
1	 1.034239e+00	 5.318204e-01	 1.752629e+01
1	 1.027788e+00	 5.441832e-01	 1.664656e+01
1	 1.021177e+00	 5.564899e-01	 1.573048e+01
1	 1.014407e+00	 5.687374e-01	 1.477808e+01
1	 1.053326e+00	 5.101675e-01	 1.910884e+01
1	 1.047157e+00	 5.227129e-01	 1.828650e+01
1	 1.040826e+00	 5.352078e-01	 1.742598e+01
1	 1.034334e+00	 5.476494e-01	 1.652737e+01
1	 1.027681e+00	 5.600344e-01	 1.559067e+01
1	 1.020868e+00	 5.723599e-01	 1.461576e+01
1	 1.059993e+00	 5.133965e-01	 1.903798e+01
1	 1.053785e+00	 5.260212e-01	 1.819869e+01
1	 1.047414e+00	 5.385952e-01	 1.732001e+01
1	 1.040880e+00	 5.511155e-01	 1.640181e+01
1	 1.034185e+00	 5.635789e-01	 1.544387e+01
1	 1.027329e+00	 5.759824e-01	 1.444590e+01
1	 1.066659e+00	 5.166254e-01	 1.896366e+01
1	 1.060412e+00	 5.293295e-01	 1.810594e+01
1	 1.054001e+00	 5.419826e-01	 1.720801e+01
1	 1.047427e+00	 5.545816e-01	 1.626944e+01
1	 1.040690e+00	 5.671234e-01	 1.528972e+01
1	 1.033790e+00	 5.796049e-01	 1.426831e+01
1	 1.001484e+00	 5.614923e-01	 1.508082e+01
1	 9.946438e-01	 5.735224e-01	 1.415065e+01
1	 9.876476e-01	 5.854881e-01	 1.321285e+01
1	 9.804966e-01	 5.973865e-01	 1.226731e+01
1	 9.731915e-01	 6.092146e-01	 1.131392e+01
1	 9.657334e-01	 6.209695e-01	 1.035261e+01
1	 1.007945e+00	 5.651148e-01	 1.493303e+01
1	 1.001061e+00	 5.772225e-01	 1.398128e+01
1	 9.940195e-01	 5.892655e-01	 1.302179e+01
1	 9.868224e-01	 6.012406e-01	 1.205436e+01
1	 9.794702e-01	 6.131451e-01	 1.107886e+01
1	 9.719639e-01	 6.249758e-01	 1.009517e+01
1	 1.014407e+00	 5.687374e-01	 1.477808e+01
1	 1.007478e+00	 5.809227e-01	 1.380362e+01
1	 1.000391e+00	 5.930428e-01	 1.282130e+01
1	 9.931481e-01	 6.050947e-01	 1.183093e+01
1	 9.857488e-01	 6.170755e-01	 1.083236e+01
1	 9.781945e-01	 6.289820e-01	 9.825468e+00
1	 1.020868e+00	 5.723599e-01	 1.461576e+01
1	 1.013895e+00	 5.846228e-01	 1.361770e+01
1	 1.006763e+00	 5.968201e-01	 1.261158e+01
1	 9.994739e-01	 6.089488e-01	 1.159725e+01
1	 9.920275e-01	 6.210059e-01	 1.057459e+01
1	 9.844250e-01	 6.329883e-01	 9.543520e+00
1	 1.027329e+00	 5.759824e-01	 1.444590e+01
1	 1.020312e+00	 5.883230e-01	 1.342357e+01
1	 1.013135e+00	 6.005975e-01	 1.239280e+01
1	 1.005800e+00	 6.128029e-01	 1.135353e+01
1	 9.983061e-01	 6.249363e-01	 1.030572e+01
1	 9.906556e-01	 6.369946e-01	 9.249353e+00
1	 1.033790e+00	 5.796049e-01	 1.426831e+01
1	 1.026729e+00	 5.920231e-01	 1.322128e+01
1	 1.019507e+00	 6.043748e-01	 1.216514e+01
1	 1.012125e+00	 6.166570e-01	 1.110000e+01
1	 1.004585e+00	 6.288667e-01	 1.002592e+01
1	 9.968861e-01	 6.410008e-01	 8.942990e+00
1	 9.657334e-01	 6.209695e-01	 1.035261e+01
1	 9.581233e-01	 6.326483e-01	 9.396583e+00
1	 9.503624e-01	 6.442480e-01	 8.459321e+00
1	 9.424518e-01	 6.557658e-01	 7.541212e+00
1	 9.343929e-01	 6.671987e-01	 6.642697e+00
1	 9.261869e-01	 6.785441e-01	 5.764261e+00
1	 9.719639e-01	 6.249758e-01	 1.009517e+01
1	 9.643048e-01	 6.367299e-01	 9.116599e+00
1	 9.564938e-01	 6.484044e-01	 8.156642e+00
1	 9.485322e-01	 6.599965e-01	 7.215525e+00
1	 9.404212e-01	 6.715032e-01	 6.293507e+00
1	 9.321623e-01	 6.829218e-01	 5.390876e+00
1	 9.781945e-01	 6.289820e-01	 9.825468e+00
1	 9.704862e-01	 6.408115e-01	 8.823559e+00
1	 9.626251e-01	 6.525609e-01	 7.839999e+00
1	 9.546125e-01	 6.642273e-01	 6.874807e+00
1	 9.464495e-01	 6.758078e-01	 5.928020e+00
1	 9.381377e-01	 6.872995e-01	 4.999694e+00
1	 9.844250e-01	 6.329883e-01	 9.543520e+00
1	 9.766677e-01	 6.448931e-01	 8.517317e+00
1	 9.687565e-01	 6.567173e-01	 7.509143e+00
1	 9.606928e-01	 6.684580e-01	 6.518764e+00
1	 9.524779e-01	 6.801123e-01	 5.545960e+00
1	 9.441131e-01	 6.916772e-01	 4.590525e+00
1	 9.906556e-01	 6.369946e-01	 9.249353e+00
1	 9.828491e-01	 6.489747e-01	 8.197734e+00
1	 9.748879e-01	 6.608737e-01	 7.163829e+00
1	 9.667732e-01	 6.726888e-01	 6.147109e+00
1	 9.585062e-01	 6.844168e-01	 5.147061e+00
1	 9.500885e-01	 6.960549e-01	 4.163185e+00
1	 9.968861e-01	 6.410008e-01	 8.942990e+00
1	 9.890305e-01	 6.530563e-01	 7.864673e+00
1	 9.810193e-01	 6.650302e-01	 6.803818e+00
1	 9.728535e-01	 6.769195e-01	 5.759562e+00
1	 9.645346e-01	 6.887213e-01	 4.731062e+00
1	 9.560638e-01	 7.004326e-01	 3.717493e+00
1	 9.261869e-01	 6.785441e-01	 5.764261e+00
1	 9.178352e-01	 6.897990e-01	 4.916692e+00
1	 9.093395e-01	 7.009607e-01	 4.112035e+00
1	 9.007011e-01	 7.120264e-01	 3.352881e+00
1	 8.919218e-01	 7.229935e-01	 2.642071e+00
1	 8.830033e-01	 7.338593e-01	 1.982689e+00
1	 9.321623e-01	 6.829218e-01	 5.390876e+00
1	 9.237567e-01	 6.942493e-01	 4.519604e+00
1	 9.152062e-01	 7.054830e-01	 3.693224e+00
1	 9.065121e-01	 7.166202e-01	 2.914603e+00
1	 8.976762e-01	 7.276580e-01	 2.186899e+00
1	 8.887001e-01	 7.385938e-01	 1.513550e+00
1	 9.381377e-01	 6.872995e-01	 4.999694e+00
1	 9.296783e-01	 6.986996e-01	 4.103258e+00
1	 9.210729e-01	 7.100054e-01	 3.254074e+00
1	 9.123231e-01	 7.212139e-01	 2.455370e+00
1	 9.034305e-01	 7.323225e-01	 1.710696e+00
1	 8.943969e-01	 7.433284e-01	 1.023928e+00
1	 9.441131e-01	 6.916772e-01	 4.590525e+00
1	 9.355998e-01	 7.031499e-01	 3.667580e+00
1	 9.269396e-01	 7.145277e-01	 2.794630e+00
1	 9.181340e-01	 7.258076e-01	 1.975335e+00
1	 9.091848e-01	 7.369869e-01	 1.213726e+00
1	 9.000936e-01	 7.480630e-01	 5.141919e-01
1	 9.500885e-01	 6.960549e-01	 4.163185e+00
1	 9.415213e-01	 7.076003e-01	 3.212501e+00
1	 9.328063e-01	 7.190500e-01	 2.314930e+00
1	 9.239450e-01	 7.304013e-01	 1.474650e+00
1	 9.149392e-01	 7.416514e-01	 6.962459e-01
1	 9.057904e-01	 7.527976e-01	-1.530117e-02
1	 9.560638e-01	 7.004326e-01	 3.717493e+00
1	 9.474428e-01	 7.120506e-01	 2.737949e+00
1	 9.386730e-01	 7.235723e-01	 1.815016e+00
1	 9.297560e-01	 7.349950e-01	 9.534629e-01
1	 9.206935e-01	 7.463159e-01	 1.585058e-01
1	 9.114872e-01	 7.575321e-01	-5.642022e-01
1	 8.830033e-01	 7.338593e-01	 1.982689e+00
1	 8.739472e-01	 7.446210e-01	 1.378254e+00
1	 8.647555e-01	 7.552762e-01	 8.310485e-01
1	 8.554299e-01	 7.658223e-01	 3.425670e-01
1	 8.459726e-01	 7.762568e-01	-8.558234e-02
1	 8.363854e-01	 7.865772e-01	-4.516826e-01
1	 8.887001e-01	 7.385938e-01	 1.513550e+00
1	 8.795856e-01	 7.494250e-01	 8.976643e-01
1	 8.703345e-01	 7.601490e-01	 3.408103e-01
1	 8.609488e-01	 7.707631e-01	-1.556077e-01
1	 8.514305e-01	 7.812649e-01	-5.900892e-01
1	 8.417814e-01	 7.916518e-01	-9.610412e-01
1	 8.943969e-01	 7.433284e-01	 1.023928e+00
1	 8.852239e-01	 7.542290e-01	 3.975226e-01
1	 8.759136e-01	 7.650217e-01	-1.680286e-01
1	 8.664677e-01	 7.757039e-01	-6.715088e-01
1	 8.568883e-01	 7.862730e-01	-1.111627e+00
1	 8.471775e-01	 7.967265e-01	-1.487021e+00
1	 9.000936e-01	 7.480630e-01	 5.141919e-01
1	 8.908623e-01	 7.590330e-01	-1.217279e-01
1	 8.814927e-01	 7.698945e-01	-6.949979e-01
1	 8.719866e-01	 7.806447e-01	-1.204685e+00
1	 8.623462e-01	 7.912811e-01	-1.649807e+00
1	 8.525735e-01	 8.018012e-01	-2.029337e+00
1	 9.057904e-01	 7.527976e-01	-1.530117e-02
1	 8.965007e-01	 7.638371e-01	-6.596560e-01
1	 8.870717e-01	 7.747672e-01	-1.239639e+00
1	 8.775055e-01	 7.855855e-01	-1.754696e+00
1	 8.678041e-01	 7.962892e-01	-2.204251e+00
1	 8.579695e-01	 8.068759e-01	-2.587715e+00
1	 9.114872e-01	 7.575321e-01	-5.642022e-01
1	 9.021390e-01	 7.686411e-01	-1.215841e+00
1	 8.926508e-01	 7.796400e-01	-1.801506e+00
1	 8.830244e-01	 7.905263e-01	-2.321112e+00
1	 8.732620e-01	 8.012973e-01	-2.774589e+00
1	 8.633656e-01	 8.119506e-01	-3.161884e+00
1	 8.363854e-01	 7.865772e-01	-4.516826e-01
1	 8.266705e-01	 7.967811e-01	-7.839081e-01
1	 8.168300e-01	 8.068661e-01	-1.110417e+00
1	 8.068661e-01	 8.168300e-01	-1.429412e+00
1	 7.967811e-01	 8.266705e-01	-1.739130e+00
1	 7.865772e-01	 8.363854e-01	-2.037843e+00
1	 8.417814e-01	 7.916518e-01	-9.610412e-01
1	 8.320039e-01	 8.019216e-01	-1.297599e+00
1	 8.220999e-01	 8.120717e-01	-1.628764e+00
1	 8.120717e-01	 8.220999e-01	-1.952702e+00
1	 8.019216e-01	 8.320039e-01	-2.267610e+00
1	 7.916518e-01	 8.417814e-01	-2.571722e+00
1	 8.471775e-01	 7.967265e-01	-1.487021e+00
1	 8.373372e-01	 8.070621e-01	-1.827763e+00
1	 8.273697e-01	 8.172773e-01	-2.163579e+00
1	 8.172773e-01	 8.273697e-01	-2.492552e+00
1	 8.070621e-01	 8.373372e-01	-2.812795e+00
1	 7.967265e-01	 8.471775e-01	-3.122453e+00
1	 8.525735e-01	 8.018012e-01	-2.029337e+00
1	 8.426706e-01	 8.122026e-01	-2.374227e+00
1	 8.326396e-01	 8.224829e-01	-2.714766e+00
1	 8.224829e-01	 8.326396e-01	-3.048913e+00
1	 8.122026e-01	 8.426706e-01	-3.374653e+00
1	 8.018012e-01	 8.525735e-01	-3.689995e+00
1	 8.579695e-01	 8.068759e-01	-2.587715e+00
1	 8.480039e-01	 8.173431e-01	-2.936822e+00
1	 8.379095e-01	 8.276885e-01	-3.282230e+00
1	 8.276885e-01	 8.379095e-01	-3.621738e+00
1	 8.173431e-01	 8.480039e-01	-3.953154e+00
1	 8.068759e-01	 8.579695e-01	-4.274305e+00
1	 8.633656e-01	 8.119506e-01	-3.161884e+00
1	 8.533373e-01	 8.224837e-01	-3.515381e+00
1	 8.431794e-01	 8.328940e-01	-3.865882e+00
1	 8.328940e-01	 8.431794e-01	-4.210980e+00
1	 8.224837e-01	 8.533373e-01	-4.548268e+00
1	 8.119506e-01	 8.633656e-01	-4.875342e+00
1	 7.865772e-01	 8.363854e-01	-2.037843e+00
1	 7.762568e-01	 8.459726e-01	-2.349372e+00
1	 7.658223e-01	 8.554299e-01	-2.700719e+00
1	 7.552762e-01	 8.647555e-01	-3.095138e+00
1	 7.446210e-01	 8.739472e-01	-3.536122e+00
1	 7.338593e-01	 8.830033e-01	-4.027389e+00
1	 7.916518e-01	 8.417814e-01	-2.571722e+00
1	 7.812649e-01	 8.514305e-01	-2.890043e+00
1	 7.707631e-01	 8.609488e-01	-3.250474e+00
1	 7.601490e-01	 8.703345e-01	-3.655789e+00
1	 7.494250e-01	 8.795856e-01	-4.108976e+00
1	 7.385938e-01	 8.887001e-01	-4.613232e+00
1	 7.967265e-01	 8.471775e-01	-3.122453e+00
1	 7.862730e-01	 8.568883e-01	-3.447586e+00
1	 7.757039e-01	 8.664677e-01	-3.816944e+00
1	 7.650217e-01	 8.759136e-01	-4.232883e+00
1	 7.542290e-01	 8.852239e-01	-4.697965e+00
1	 7.433284e-01	 8.943969e-01	-5.214940e+00
1	 8.018012e-01	 8.525735e-01	-3.689995e+00
1	 7.912811e-01	 8.623462e-01	-4.021956e+00
1	 7.806447e-01	 8.719866e-01	-4.400113e+00
1	 7.698945e-01	 8.814927e-01	-4.826481e+00
1	 7.590330e-01	 8.908623e-01	-5.303260e+00
1	 7.480630e-01	 9.000936e-01	-5.832829e+00
1	 8.068759e-01	 8.579695e-01	-4.274305e+00
1	 7.962892e-01	 8.678041e-01	-4.613104e+00
1	 7.855855e-01	 8.775055e-01	-4.999972e+00
1	 7.747672e-01	 8.870717e-01	-5.436642e+00
1	 7.638371e-01	 8.965007e-01	-5.925027e+00
1	 7.527976e-01	 9.057904e-01	-6.467209e+00
1	 8.119506e-01	 8.633656e-01	-4.875342e+00
1	 8.012973e-01	 8.732620e-01	-5.220986e+00
1	 7.905263e-01	 8.830244e-01	-5.616506e+00
1	 7.796400e-01	 8.926508e-01	-6.063423e+00
1	 7.686411e-01	 9.021390e-01	-6.563429e+00
1	 7.575321e-01	 9.114872e-01	-7.118381e+00
1	 7.338593e-01	 8.830033e-01	-4.027389e+00
1	 7.229935e-01	 8.919218e-01	-4.569905e+00
1	 7.120264e-01	 9.007011e-01	-5.165302e+00
1	 7.009607e-01	 9.093395e-01	-5.818641e+00
1	 6.897990e-01	 9.178352e-01	-6.535219e+00
1	 6.785441e-01	 9.261869e-01	-7.320553e+00
1	 7.385938e-01	 8.887001e-01	-4.613232e+00
1	 7.276580e-01	 8.976762e-01	-5.169744e+00
1	 7.166202e-01	 9.065121e-01	-5.781307e+00
1	 7.054830e-01	 9.152062e-01	-6.453901e+00
1	 6.942493e-01	 9.237567e-01	-7.193787e+00
1	 6.829218e-01	 9.321623e-01	-8.007487e+00
1	 7.433284e-01	 8.943969e-01	-5.214940e+00
1	 7.323225e-01	 9.034305e-01	-5.785570e+00
1	 7.212139e-01	 9.123231e-01	-6.413976e+00
1	 7.100054e-01	 9.210729e-01	-7.106827e+00
1	 6.986996e-01	 9.296783e-01	-7.871106e+00
1	 6.872995e-01	 9.381377e-01	-8.714092e+00
1	 7.480630e-01	 9.000936e-01	-5.832829e+00
1	 7.369869e-01	 9.091848e-01	-6.417803e+00
1	 7.258076e-01	 9.181340e-01	-7.063704e+00
1	 7.145277e-01	 9.269396e-01	-7.777670e+00
1	 7.031499e-01	 9.355998e-01	-8.567171e+00
1	 6.916772e-01	 9.441131e-01	-9.439996e+00
1	 7.527976e-01	 9.057904e-01	-6.467209e+00
1	 7.416514e-01	 9.149392e-01	-7.066849e+00
1	 7.304013e-01	 9.239450e-01	-7.730878e+00
1	 7.190500e-01	 9.328063e-01	-8.466677e+00
1	 7.076003e-01	 9.415213e-01	-9.281977e+00
1	 6.960549e-01	 9.500885e-01	-1.018484e+01
1	 7.575321e-01	 9.114872e-01	-7.118381e+00
1	 7.463159e-01	 9.206935e-01	-7.733106e+00
1	 7.349950e-01	 9.297560e-01	-8.415871e+00
1	 7.235723e-01	 9.386730e-01	-9.174087e+00
1	 7.120506e-01	 9.474428e-01	-1.001552e+01
1	 7.004326e-01	 9.560638e-01	-1.094826e+01
1	 6.785441e-01	 9.261869e-01	-7.320553e+00
1	 6.671987e-01	 9.343929e-01	-8.169868e+00
1	 6.557658e-01	 9.424518e-01	-9.074518e+00
1	 6.442480e-01	 9.503624e-01	-1.003435e+01
1	 6.326483e-01	 9.581233e-01	-1.104914e+01
1	 6.209695e-01	 9.657334e-01	-1.211866e+01
1	 6.829218e-01	 9.321623e-01	-8.007487e+00
1	 6.715032e-01	 9.404212e-01	-8.889378e+00
1	 6.599965e-01	 9.485322e-01	-9.829035e+00
1	 6.484044e-01	 9.564938e-01	-1.082590e+01
1	 6.367299e-01	 9.643048e-01	-1.187935e+01
1	 6.249758e-01	 9.719639e-01	-1.298868e+01
1	 6.872995e-01	 9.381377e-01	-8.714092e+00
1	 6.758078e-01	 9.464495e-01	-9.628882e+00
1	 6.642273e-01	 9.546125e-01	-1.060326e+01
1	 6.525609e-01	 9.626251e-01	-1.163668e+01
1	 6.408115e-01	 9.704862e-01	-1.272850e+01
1	 6.289820e-01	 9.781945e-01	-1.387802e+01
1	 6.916772e-01	 9.441131e-01	-9.439996e+00
1	 6.801123e-01	 9.524779e-01	-1.038769e+01
1	 6.684580e-01	 9.606928e-01	-1.139640e+01
1	 6.567173e-01	 9.687565e-01	-1.246597e+01
1	 6.448931e-01	 9.766677e-01	-1.359619e+01
1	 6.329883e-01	 9.844250e-01	-1.478675e+01
1	 6.960549e-01	 9.500885e-01	-1.018484e+01
1	 6.844168e-01	 9.585062e-01	-1.116514e+01
1	 6.726888e-01	 9.667732e-01	-1.220769e+01
1	 6.608737e-01	 9.748879e-01	-1.331312e+01
1	 6.489747e-01	 9.828491e-01	-1.448202e+01
1	 6.369946e-01	 9.906556e-01	-1.571494e+01
1	 7.004326e-01	 9.560638e-01	-1.094826e+01
1	 6.887213e-01	 9.645346e-01	-1.196058e+01
1	 6.769195e-01	 9.728535e-01	-1.303638e+01
1	 6.650302e-01	 9.810193e-01	-1.417746e+01
1	 6.530563e-01	 9.890305e-01	-1.538562e+01
1	 6.410008e-01	 9.968861e-01	-1.666265e+01
1	 6.209695e-01	 9.657334e-01	-1.211866e+01
1	 6.092146e-01	 9.731915e-01	-1.322991e+01
1	 5.973865e-01	 9.804966e-01	-1.437024e+01
1	 5.854881e-01	 9.876476e-01	-1.553983e+01
1	 5.735224e-01	 9.946438e-01	-1.673884e+01
1	 5.614923e-01	 1.001484e+00	-1.796738e+01
1	 6.249758e-01	 9.719639e-01	-1.298868e+01
1	 6.131451e-01	 9.794702e-01	-1.414076e+01
1	 6.012406e-01	 9.868224e-01	-1.532346e+01
1	 5.892655e-01	 9.940195e-01	-1.653749e+01
1	 5.772225e-01	 1.001061e+00	-1.778353e+01
1	 5.651148e-01	 1.007945e+00	-1.906228e+01
1	 6.289820e-01	 9.781945e-01	-1.387802e+01
1	 6.170755e-01	 9.857488e-01	-1.507240e+01
1	 6.050947e-01	 9.931481e-01	-1.629980e+01
1	 5.930428e-01	 1.000391e+00	-1.756089e+01
1	 5.809227e-01	 1.007478e+00	-1.885635e+01
1	 5.687374e-01	 1.014407e+00	-2.018684e+01
1	 6.329883e-01	 9.844250e-01	-1.478675e+01
1	 6.210059e-01	 9.920275e-01	-1.602532e+01
1	 6.089488e-01	 9.994739e-01	-1.729990e+01
1	 5.968201e-01	 1.006763e+00	-1.861061e+01
1	 5.846228e-01	 1.013895e+00	-1.995754e+01
1	 5.723599e-01	 1.020868e+00	-2.134077e+01
1	 6.369946e-01	 9.906556e-01	-1.571494e+01
1	 6.249363e-01	 9.983061e-01	-1.700001e+01
1	 6.128029e-01	 1.005800e+00	-1.832442e+01
1	 6.005975e-01	 1.013135e+00	-1.968722e+01
1	 5.883230e-01	 1.020312e+00	-2.108737e+01
1	 5.759824e-01	 1.027329e+00	-2.252378e+01
1	 6.410008e-01	 9.968861e-01	-1.666265e+01
1	 6.288667e-01	 1.004585e+00	-1.799693e+01
1	 6.166570e-01	 1.012125e+00	-1.937399e+01
1	 6.043748e-01	 1.019507e+00	-2.079127e+01
1	 5.920231e-01	 1.026729e+00	-2.224608e+01
1	 5.796049e-01	 1.033790e+00	-2.373560e+01
1	 5.614923e-01	 1.001484e+00	-1.796738e+01
1	 5.494008e-01	 1.008168e+00	-1.921202e+01
1	 5.372509e-01	 1.014695e+00	-2.045546e+01
1	 5.250457e-01	 1.021064e+00	-2.169187e+01
1	 5.127880e-01	 1.027274e+00	-2.291527e+01
1	 5.004808e-01	 1.033326e+00	-2.411955e+01
1	 5.651148e-01	 1.007945e+00	-1.906228e+01
1	 5.529453e-01	 1.014672e+00	-2.035933e+01
1	 5.407171e-01	 1.021241e+00	-2.165536e+01
1	 5.284331e-01	 1.027651e+00	-2.294355e+01
1	 5.160963e-01	 1.033902e+00	-2.421686e+01
1	 5.037097e-01	 1.039993e+00	-2.546815e+01
1	 5.687374e-01	 1.014407e+00	-2.018684e+01
1	 5.564899e-01	 1.021177e+00	-2.153642e+01
1	 5.441832e-01	 1.027788e+00	-2.288412e+01
1	 5.318204e-01	 1.034239e+00	-2.422296e+01
1	 5.194046e-01	 1.040530e+00	-2.554572e+01
1	 5.069386e-01	 1.046659e+00	-2.684507e+01
1	 5.723599e-01	 1.020868e+00	-2.134077e+01
1	 5.600344e-01	 1.027681e+00	-2.274250e+01
1	 5.476494e-01	 1.034334e+00	-2.414079e+01
1	 5.352078e-01	 1.040826e+00	-2.552928e+01
1	 5.227129e-01	 1.047157e+00	-2.690145e+01
1	 5.101675e-01	 1.053326e+00	-2.825062e+01
1	 5.759824e-01	 1.027329e+00	-2.252378e+01
1	 5.635789e-01	 1.034185e+00	-2.397681e+01
1	 5.511155e-01	 1.040880e+00	-2.542443e+01
1	 5.385952e-01	 1.047414e+00	-2.686173e+01
1	 5.260212e-01	 1.053785e+00	-2.828368e+01
1	 5.133965e-01	 1.059993e+00	-2.968510e+01
1	 5.796049e-01	 1.033790e+00	-2.373560e+01
1	 5.671234e-01	 1.040690e+00	-2.523862e+01
1	 5.545816e-01	 1.047427e+00	-2.673415e+01
1	 5.419826e-01	 1.054001e+00	-2.821954e+01
1	 5.293295e-01	 1.060412e+00	-2.969203e+01
1	 5.166254e-01	 1.066659e+00	-3.114882e+01
1	 5.004808e-01	 1.033326e+00	-2.411955e+01
1	 4.881272e-01	 1.039219e+00	-2.528801e+01
1	 4.757302e-01	 1.044952e+00	-2.640592e+01
1	 4.632927e-01	 1.050526e+00	-2.747010e+01
1	 4.508177e-01	 1.055939e+00	-2.847734e+01
1	 4.383082e-01	 1.061193e+00	-2.942440e+01
1	 5.037097e-01	 1.039993e+00	-2.546815e+01
1	 4.912765e-01	 1.045924e+00	-2.668044e+01
1	 4.787995e-01	 1.051694e+00	-2.784005e+01
1	 4.662817e-01	 1.057303e+00	-2.894464e+01
1	 4.537262e-01	 1.062752e+00	-2.999186e+01
1	 4.411360e-01	 1.068039e+00	-3.097935e+01
1	 5.069386e-01	 1.046659e+00	-2.684507e+01
1	 4.944257e-01	 1.052628e+00	-2.810452e+01
1	 4.818687e-01	 1.058435e+00	-2.931085e+01
1	 4.692707e-01	 1.064081e+00	-3.046143e+01
1	 4.566347e-01	 1.069564e+00	-3.155365e+01
1	 4.439638e-01	 1.074886e+00	-3.258486e+01
1	 5.101675e-01	 1.053326e+00	-2.825062e+01
1	 4.975749e-01	 1.059333e+00	-2.956122e+01
1	 4.849379e-01	 1.065177e+00	-3.081958e+01
1	 4.722597e-01	 1.070858e+00	-3.202174e+01
1	 4.595433e-01	 1.076377e+00	-3.316366e+01
1	 4.467916e-01	 1.081732e+00	-3.424132e+01
1	 5.133965e-01	 1.059993e+00	-2.968510e+01
1	 5.007241e-01	 1.066037e+00	-3.105147e+01
1	 4.880071e-01	 1.071919e+00	-3.236750e+01
1	 4.752487e-01	 1.077636e+00	-3.362679e+01
1	 4.624518e-01	 1.083189e+00	-3.482285e+01
1	 4.496194e-01	 1.088578e+00	-3.594913e+01
1	 5.166254e-01	 1.066659e+00	-3.114882e+01
1	 5.038733e-01	 1.072742e+00	-3.257618e+01
1	 4.910764e-01	 1.078660e+00	-3.395581e+01
1	 4.782377e-01	 1.084414e+00	-3.527781e+01
1	 4.653603e-01	 1.090002e+00	-3.653214e+01
1	 4.524472e-01	 1.095425e+00	-3.770867e+01
1	 4.383082e-01	 1.061193e+00	-2.942440e+01
1	 4.257671e-01	 1.066286e+00	-3.029982e+01
1	 4.131974e-01	 1.071220e+00	-3.108581e+01
1	 4.006019e-01	 1.075994e+00	-3.176956e+01
1	 3.879836e-01	 1.080608e+00	-3.233826e+01
1	 3.753454e-01	 1.085062e+00	-3.277907e+01
1	 4.411360e-01	 1.068039e+00	-3.097935e+01
1	 4.285140e-01	 1.073166e+00	-3.189491e+01
1	 4.158632e-01	 1.078131e+00	-3.271865e+01
1	 4.031864e-01	 1.082936e+00	-3.343666e+01
1	 3.904867e-01	 1.087579e+00	-3.403496e+01
1	 3.777670e-01	 1.092063e+00	-3.449958e+01
1	 4.439638e-01	 1.074886e+00	-3.258486e+01
1	 4.312609e-01	 1.080045e+00	-3.354108e+01
1	 4.185290e-01	 1.085042e+00	-3.440028e+01
1	 4.057710e-01	 1.089877e+00	-3.514774e+01
1	 3.929899e-01	 1.094551e+00	-3.576868e+01
1	 3.801886e-01	 1.099063e+00	-3.624833e+01
1	 4.467916e-01	 1.081732e+00	-3.424132e+01
1	 4.340078e-01	 1.086924e+00	-3.523808e+01
1	 4.211947e-01	 1.091953e+00	-3.612987e+01
1	 4.083555e-01	 1.096819e+00	-3.690148e+01
1	 3.954930e-01	 1.101523e+00	-3.753768e+01
1	 3.826102e-01	 1.106063e+00	-3.802322e+01
1	 4.496194e-01	 1.088578e+00	-3.594913e+01
1	 4.367547e-01	 1.093803e+00	-3.698565e+01
1	 4.238605e-01	 1.098864e+00	-3.790660e+01
1	 4.109400e-01	 1.103761e+00	-3.869659e+01
1	 3.979961e-01	 1.108494e+00	-3.934025e+01
1	 3.850317e-01	 1.113064e+00	-3.982217e+01
1	 4.524472e-01	 1.095425e+00	-3.770867e+01
1	 4.395015e-01	 1.100683e+00	-3.878357e+01
1	 4.265263e-01	 1.105775e+00	-3.972969e+01
1	 4.135246e-01	 1.110703e+00	-4.053182e+01
1	 4.004992e-01	 1.115466e+00	-4.117472e+01
1	 3.874533e-01	 1.120064e+00	-4.164319e+01
1	 3.753454e-01	 1.085062e+00	-3.277907e+01
1	 3.626901e-01	 1.089358e+00	-3.309997e+01
1	 3.500206e-01	 1.093494e+00	-3.331203e+01
1	 3.373396e-01	 1.097473e+00	-3.340712e+01
1	 3.246501e-01	 1.101293e+00	-3.337722e+01
1	 3.119546e-01	 1.104956e+00	-3.321443e+01
1	 3.777670e-01	 1.092063e+00	-3.449958e+01
1	 3.650300e-01	 1.096386e+00	-3.483769e+01
1	 3.522788e-01	 1.100549e+00	-3.505928e+01
1	 3.395160e-01	 1.104553e+00	-3.515472e+01
1	 3.267446e-01	 1.108398e+00	-3.511444e+01
1	 3.139672e-01	 1.112085e+00	-3.492899e+01
1	 3.801886e-01	 1.099063e+00	-3.624833e+01
1	 3.673700e-01	 1.103414e+00	-3.659339e+01
1	 3.545370e-01	 1.107604e+00	-3.681347e+01
1	 3.416924e-01	 1.111634e+00	-3.689822e+01
1	 3.288391e-01	 1.115503e+00	-3.683742e+01
1	 3.159798e-01	 1.119214e+00	-3.662092e+01
1	 3.826102e-01	 1.106063e+00	-3.802322e+01
1	 3.697099e-01	 1.110442e+00	-3.836475e+01
1	 3.567952e-01	 1.114659e+00	-3.857224e+01
1	 3.438688e-01	 1.118714e+00	-3.863549e+01
1	 3.309336e-01	 1.122608e+00	-3.854440e+01
1	 3.179924e-01	 1.126343e+00	-3.828900e+01
1	 3.850317e-01	 1.113064e+00	-3.982217e+01
1	 3.720499e-01	 1.117470e+00	-4.014949e+01
1	 3.590534e-01	 1.121713e+00	-4.033332e+01
1	 3.460452e-01	 1.125794e+00	-4.036442e+01
1	 3.330281e-01	 1.129714e+00	-4.023366e+01
1	 3.200050e-01	 1.133471e+00	-3.993203e+01
1	 3.874533e-01	 1.120064e+00	-4.164319e+01
1	 3.743898e-01	 1.124498e+00	-4.194538e+01
1	 3.613116e-01	 1.128768e+00	-4.209448e+01
1	 3.482216e-01	 1.132875e+00	-4.208297e+01
1	 3.351226e-01	 1.136819e+00	-4.190350e+01
1	 3.220177e-01	 1.140600e+00	-4.154884e+01
1	 3.119546e-01	 1.104956e+00	-3.321443e+01
1	 2.992560e-01	 1.108463e+00	-3.292428e+01
1	 2.865570e-01	 1.111814e+00	-3.252377e+01
1	 2.738601e-01	 1.115009e+00	-3.202242e+01
1	 2.611682e-01	 1.118050e+00	-3.142987e+01
1	 2.484837e-01	 1.120937e+00	-3.075583e+01
1	 3.139672e-01	 1.112085e+00	-3.492899e+01
1	 3.011867e-01	 1.115614e+00	-3.460468e+01
1	 2.884057e-01	 1.118986e+00	-3.416158e+01
1	 2.756270e-01	 1.122202e+00	-3.361109e+01
1	 2.628531e-01	 1.125263e+00	-3.296475e+01
1	 2.500868e-01	 1.128169e+00	-3.223420e+01
1	 3.159798e-01	 1.119214e+00	-3.662092e+01
1	 3.031174e-01	 1.122766e+00	-3.625671e+01
1	 2.902545e-01	 1.126159e+00	-3.576787e+01
1	 2.773938e-01	 1.129396e+00	-3.516718e+01
1	 2.645381e-01	 1.132476e+00	-3.446755e+01
1	 2.516899e-01	 1.135401e+00	-3.368201e+01
1	 3.179924e-01	 1.126343e+00	-3.828900e+01
1	 3.050481e-01	 1.129917e+00	-3.787967e+01
1	 2.921032e-01	 1.133332e+00	-3.734237e+01
1	 2.791607e-01	 1.136590e+00	-3.669071e+01
1	 2.662231e-01	 1.139689e+00	-3.593848e+01
1	 2.532930e-01	 1.142633e+00	-3.509953e+01
1	 3.200050e-01	 1.133471e+00	-3.993203e+01
1	 3.069787e-01	 1.137068e+00	-3.947292e+01
1	 2.939520e-01	 1.140505e+00	-3.888482e+01
1	 2.809275e-01	 1.143783e+00	-3.818173e+01
1	 2.679080e-01	 1.146903e+00	-3.737773e+01
1	 2.548962e-01	 1.149865e+00	-3.648707e+01
1	 3.220177e-01	 1.140600e+00	-4.154884e+01
1	 3.089094e-01	 1.144220e+00	-4.103579e+01
1	 2.958007e-01	 1.147678e+00	-4.039498e+01
1	 2.826943e-01	 1.150977e+00	-3.964024e+01
1	 2.695930e-01	 1.154116e+00	-3.878553e+01
1	 2.564993e-01	 1.157096e+00	-3.784488e+01
1	 2.484837e-01	 1.120937e+00	-3.075583e+01
1	 2.358092e-01	 1.123672e+00	-3.001383e+01
1	 2.231472e-01	 1.126255e+00	-2.921794e+01
1	 2.105002e-01	 1.128687e+00	-2.837881e+01
1	 1.978707e-01	 1.130969e+00	-2.750706e+01
1	 1.852611e-01	 1.133103e+00	-2.661325e+01
1	 2.500868e-01	 1.128169e+00	-3.223420e+01
1	 2.373305e-01	 1.130921e+00	-3.143456e+01
1	 2.245868e-01	 1.133521e+00	-3.058056e+01
1	 2.118583e-01	 1.135969e+00	-2.968337e+01
1	 1.991473e-01	 1.138266e+00	-2.875410e+01
1	 1.864563e-01	 1.140413e+00	-2.780386e+01
1	 2.516899e-01	 1.135401e+00	-3.368201e+01
1	 2.388519e-01	 1.138171e+00	-3.282673e+01
1	 2.260265e-01	 1.140787e+00	-3.191691e+01
1	 2.132164e-01	 1.143250e+00	-3.096415e+01
1	 2.004239e-01	 1.145562e+00	-2.998004e+01
1	 1.876516e-01	 1.147724e+00	-2.897610e+01
1	 2.532930e-01	 1.142633e+00	-3.509953e+01
1	 2.403732e-01	 1.145420e+00	-3.419066e+01
1	 2.274662e-01	 1.148053e+00	-3.322731e+01
1	 2.145744e-01	 1.150532e+00	-3.222148e+01
1	 2.017005e-01	 1.152859e+00	-3.118513e+01
1	 1.888468e-01	 1.155034e+00	-3.013017e+01
1	 2.548962e-01	 1.149865e+00	-3.648707e+01
1	 2.418946e-01	 1.152670e+00	-3.552664e+01
1	 2.289058e-01	 1.155319e+00	-3.451207e+01
1	 2.159325e-01	 1.157814e+00	-3.345564e+01
1	 2.029771e-01	 1.160156e+00	-3.236964e+01
1	 1.900420e-01	 1.162344e+00	-3.126630e+01
1	 2.564993e-01	 1.157096e+00	-3.784488e+01
1	 2.434159e-01	 1.159919e+00	-3.683499e+01
1	 2.303455e-01	 1.162585e+00	-3.577149e+01
1	 2.172906e-01	 1.165096e+00	-3.466693e+01
1	 2.042537e-01	 1.167452e+00	-3.353384e+01
1	 1.912373e-01	 1.169655e+00	-3.238469e+01
1	 1.852611e-01	 1.133103e+00	-2.661325e+01
1	 1.726737e-01	 1.135089e+00	-2.571134e+01
1	 1.601108e-01	 1.136930e+00	-2.481693e+01
1	 1.475748e-01	 1.138625e+00	-2.394296e+01
1	 1.350678e-01	 1.140176e+00	-2.310219e+01
1	 1.225920e-01	 1.141585e+00	-2.230721e+01
1	 1.864563e-01	 1.140413e+00	-2.780386e+01
1	 1.737877e-01	 1.142413e+00	-2.684726e+01
1	 1.611438e-01	 1.144265e+00	-2.590044e+01
1	 1.485269e-01	 1.145971e+00	-2.497663e+01
1	 1.359392e-01	 1.147532e+00	-2.408886e+01
1	 1.233829e-01	 1.148950e+00	-2.325001e+01
1	 1.876516e-01	 1.147724e+00	-2.897610e+01
1	 1.749017e-01	 1.149736e+00	-2.796752e+01
1	 1.621768e-01	 1.151600e+00	-2.697087e+01
1	 1.494790e-01	 1.153316e+00	-2.599961e+01
1	 1.368106e-01	 1.154888e+00	-2.506701e+01
1	 1.241738e-01	 1.156315e+00	-2.418617e+01
1	 1.888468e-01	 1.155034e+00	-3.013017e+01
1	 1.760158e-01	 1.157059e+00	-2.907226e+01
1	 1.632097e-01	 1.158935e+00	-2.802833e+01
1	 1.504311e-01	 1.160662e+00	-2.701199e+01
1	 1.376820e-01	 1.162244e+00	-2.603671e+01
1	 1.249647e-01	 1.163680e+00	-2.511573e+01
1	 1.900420e-01	 1.162344e+00	-3.126630e+01
1	 1.771298e-01	 1.164382e+00	-3.016167e+01
1	 1.642427e-01	 1.166270e+00	-2.907294e+01
1	 1.513831e-01	 1.168008e+00	-2.801386e+01
1	 1.385534e-01	 1.169600e+00	-2.699800e+01
1	 1.257557e-01	 1.171045e+00	-2.603871e+01
1	 1.912373e-01	 1.169655e+00	-3.238469e+01
1	 1.782438e-01	 1.171705e+00	-3.123589e+01
1	 1.652757e-01	 1.173605e+00	-3.010482e+01
1	 1.523352e-01	 1.175354e+00	-2.900529e+01
1	 1.394248e-01	 1.176956e+00	-2.795093e+01
1	 1.265466e-01	 1.178410e+00	-2.695515e+01
1	 1.225920e-01	 1.141585e+00	-2.230721e+01
1	 1.101496e-01	 1.142852e+00	-2.157017e+01
1	 9.774267e-02	 1.143980e+00	-2.090203e+01
1	 8.537327e-02	 1.144970e+00	-2.031333e+01
1	 7.304338e-02	 1.145822e+00	-1.981431e+01
1	 6.075496e-02	 1.146540e+00	-1.941498e+01
1	 1.233829e-01	 1.148950e+00	-2.325001e+01
1	 1.108602e-01	 1.150225e+00	-2.247244e+01
1	 9.837327e-02	 1.151361e+00	-2.176728e+01
1	 8.592406e-02	 1.152357e+00	-2.114523e+01
1	 7.351463e-02	 1.153215e+00	-2.061671e+01
1	 6.114693e-02	 1.153937e+00	-2.019187e+01
1	 1.241738e-01	 1.156315e+00	-2.418617e+01
1	 1.115709e-01	 1.157599e+00	-2.336963e+01
1	 9.900387e-02	 1.158741e+00	-2.262869e+01
1	 8.647486e-02	 1.159743e+00	-2.197424e+01
1	 7.398587e-02	 1.160607e+00	-2.141691e+01
1	 6.153890e-02	 1.161334e+00	-2.096705e+01
1	 1.249647e-01	 1.163680e+00	-2.511573e+01
1	 1.122815e-01	 1.164972e+00	-2.426174e+01
1	 9.963447e-02	 1.166122e+00	-2.348625e+01
1	 8.702565e-02	 1.167130e+00	-2.280037e+01
1	 7.445712e-02	 1.168000e+00	-2.221493e+01
1	 6.193086e-02	 1.168731e+00	-2.174049e+01
1	 1.257557e-01	 1.171045e+00	-2.603871e+01
1	 1.129922e-01	 1.172345e+00	-2.514880e+01
1	 1.002651e-01	 1.173502e+00	-2.433998e+01
1	 8.757645e-02	 1.174517e+00	-2.362360e+01
1	 7.492837e-02	 1.175392e+00	-2.301074e+01
1	 6.232283e-02	 1.176128e+00	-2.251217e+01
1	 1.265466e-01	 1.178410e+00	-2.695515e+01
1	 1.137028e-01	 1.179718e+00	-2.603083e+01
1	 1.008957e-01	 1.180883e+00	-2.518989e+01
1	 8.812724e-02	 1.181904e+00	-2.444394e+01
1	 7.539962e-02	 1.182784e+00	-2.380433e+01
1	 6.271480e-02	 1.183525e+00	-2.328209e+01
1	 6.075496e-02	 1.146540e+00	-1.941498e+01
1	 4.850992e-02	 1.147123e+00	-1.912577e+01
1	 3.631012e-02	 1.147574e+00	-1.895594e+01
1	 2.415737e-02	 1.147894e+00	-1.891335e+01
1	 1.205342e-02	 1.148085e+00	-1.900554e+01
1	 0.000000e+00	 1.148148e+00	-1.923980e+01
1	 6.114693e-02	 1.153937e+00	-2.019187e+01
1	 4.882289e-02	 1.154524e+00	-1.988139e+01
1	 3.654438e-02	 1.154978e+00	-1.969489e+01
1	 2.431322e-02	 1.155300e+00	-1.964052e+01
1	 1.213119e-02	 1.155492e+00	-1.972615e+01
1	 0.000000e+00	 1.155556e+00	-1.995935e+01
1	 6.153890e-02	 1.161334e+00	-2.096705e+01
1	 4.913586e-02	 1.161924e+00	-2.063554e+01
1	 3.677864e-02	 1.162381e+00	-2.043232e+01
1	 2.446908e-02	 1.162706e+00	-2.036583e+01
1	 1.220895e-02	 1.162899e+00	-2.044423e+01
1	 0.000000e+00	 1.162963e+00	-2.067531e+01
1	 6.193086e-02	 1.168731e+00	-2.174049e+01
1	 4.944883e-02	 1.169325e+00	-2.138818e+01
1	 3.701290e-02	 1.169785e+00	-2.116821e+01
1	 2.462493e-02	 1.170111e+00	-2.108929e+01
1	 1.228672e-02	 1.170306e+00	-2.115979e+01
1	 0.000000e+00	 1.170370e+00	-2.138774e+01
1	 6.232283e-02	 1.176128e+00	-2.251217e+01
1	 4.976179e-02	 1.176726e+00	-2.213929e+01
1	 3.724716e-02	 1.177189e+00	-2.190255e+01
1	 2.478079e-02	 1.177517e+00	-2.181088e+01
1	 1.236448e-02	 1.177713e+00	-2.187284e+01
1	 0.000000e+00	 1.177778e+00	-2.209669e+01
1	 6.271480e-02	 1.183525e+00	-2.328209e+01
1	 5.007476e-02	 1.184127e+00	-2.288885e+01
1	 3.748142e-02	 1.184592e+00	-2.263532e+01
1	 2.493664e-02	 1.184923e+00	-2.253059e+01
1	 1.244224e-02	 1.185120e+00	-2.258342e+01
1	 0.000000e+00	 1.185185e+00	-2.280220e+01
1	 1.185185e+00	 0.000000e+00	 2.382647e+01
1	 1.185120e+00	 1.244224e-02	 2.359791e+01
1	 1.184923e+00	 2.493664e-02	 2.340475e+01
1	 1.184592e+00	 3.748142e-02	 2.324501e+01
1	 1.184127e+00	 5.007476e-02	 2.311671e+01
1	 1.183525e+00	 6.271480e-02	 2.301782e+01
1	 1.192593e+00	 0.000000e+00	 2.360611e+01
1	 1.192527e+00	 1.252001e-02	 2.337033e+01
1	 1.192329e+00	 2.509249e-02	 2.317133e+01
1	 1.191996e+00	 3.771568e-02	 2.300710e+01
1	 1.191528e+00	 5.038773e-02	 2.287561e+01
1	 1.190922e+00	 6.310677e-02	 2.277479e+01
1	 1.200000e+00	 0.000000e+00	 2.339009e+01
1	 1.199934e+00	 1.259777e-02	 2.314704e+01
1	 1.199734e+00	 2.524835e-02	 2.294210e+01
1	 1.199400e+00	 3.794994e-02	 2.277323e+01
1	 1.198928e+00	 5.070070e-02	 2.263834e+01
1	 1.198319e+00	 6.349873e-02	 2.253533e+01
1	 1.207407e+00	 0.000000e+00	 2.317816e+01
1	 1.207341e+00	 1.267554e-02	 2.292782e+01
1	 1.207140e+00	 2.540420e-02	 2.271687e+01
1	 1.206803e+00	 3.818419e-02	 2.254322e+01
1	 1.206329e+00	 5.101366e-02	 2.240474e+01
1	 1.205716e+00	 6.389070e-02	 2.229927e+01
1	 1.214815e+00	 0.000000e+00	 2.297011e+01
1	 1.214748e+00	 1.275330e-02	 2.271248e+01
1	 1.214546e+00	 2.556006e-02	 2.249546e+01
1	 1.214207e+00	 3.841845e-02	 2.231689e+01
1	 1.213730e+00	 5.132663e-02	 2.217462e+01
1	 1.213113e+00	 6.428267e-02	 2.206644e+01
1	 1.222222e+00	 0.000000e+00	 2.276571e+01
1	 1.222155e+00	 1.283106e-02	 2.250081e+01
1	 1.221952e+00	 2.571591e-02	 2.227766e+01
1	 1.221611e+00	 3.865271e-02	 2.209407e+01
1	 1.221131e+00	 5.163960e-02	 2.194783e+01
1	 1.220510e+00	 6.467464e-02	 2.183668e+01
1	 1.183525e+00	 6.271480e-02	 2.301782e+01
1	 1.182784e+00	 7.539962e-02	 2.294733e+01
1	 1.181904e+00	 8.812724e-02	 2.290408e+01
1	 1.180883e+00	 1.008957e-01	 2.288577e+01
1	 1.179718e+00	 1.137028e-01	 2.289011e+01
1	 1.178410e+00	 1.265466e-01	 2.291478e+01
1	 1.190922e+00	 6.310677e-02	 2.277479e+01
1	 1.190177e+00	 7.587086e-02	 2.270362e+01
1	 1.189291e+00	 8.867804e-02	 2.266088e+01
1	 1.188263e+00	 1.015263e-01	 2.264423e+01
1	 1.187092e+00	 1.144135e-01	 2.265128e+01
1	 1.185775e+00	 1.273375e-01	 2.267968e+01
1	 1.198319e+00	 6.349873e-02	 2.253533e+01
1	 1.197569e+00	 7.634211e-02	 2.246314e+01
1	 1.196678e+00	 8.922883e-02	 2.242052e+01
1	 1.195644e+00	 1.021569e-01	 2.240508e+01
1	 1.194465e+00	 1.151241e-01	 2.241437e+01
1	 1.193140e+00	 1.281284e-01	 2.244599e+01
1	 1.205716e+00	 6.389070e-02	 2.229927e+01
1	 1.204962e+00	 7.681336e-02	 2.222572e+01
1	 1.204065e+00	 8.977963e-02	 2.218285e+01
1	 1.203024e+00	 1.027875e-01	 2.216818e+01
1	 1.201838e+00	 1.158347e-01	 2.217926e+01
1	 1.200505e+00	 1.289193e-01	 2.221359e+01
1	 1.213113e+00	 6.428267e-02	 2.206644e+01
1	 1.212354e+00	 7.728461e-02	 2.199123e+01
1	 1.211452e+00	 9.033042e-02	 2.194772e+01
1	 1.210405e+00	 1.034181e-01	 2.193341e+01
1	 1.209211e+00	 1.165454e-01	 2.194581e+01
1	 1.207870e+00	 1.297102e-01	 2.198239e+01
1	 1.220510e+00	 6.467464e-02	 2.183668e+01
1	 1.219746e+00	 7.775585e-02	 2.175949e+01
1	 1.218839e+00	 9.088122e-02	 2.171499e+01
1	 1.217785e+00	 1.040487e-01	 2.170064e+01
1	 1.216585e+00	 1.172560e-01	 2.171392e+01
1	 1.215235e+00	 1.305012e-01	 2.175227e+01
1	 1.178410e+00	 1.265466e-01	 2.291478e+01
1	 1.176956e+00	 1.394248e-01	 2.295872e+01
1	 1.175354e+00	 1.523352e-01	 2.302087e+01
1	 1.173605e+00	 1.652757e-01	 2.309890e+01
1	 1.171705e+00	 1.782438e-01	 2.319053e+01
1	 1.169655e+00	 1.912373e-01	 2.329353e+01
1	 1.185775e+00	 1.273375e-01	 2.267968e+01
1	 1.184312e+00	 1.402962e-01	 2.272842e+01
1	 1.182700e+00	 1.532873e-01	 2.279654e+01
1	 1.180940e+00	 1.663087e-01	 2.288169e+01
1	 1.179028e+00	 1.793578e-01	 2.298156e+01
1	 1.176965e+00	 1.924325e-01	 2.309391e+01
1	 1.193140e+00	 1.281284e-01	 2.244599e+01
1	 1.191668e+00	 1.411676e-01	 2.249900e+01
1	 1.190046e+00	 1.542394e-01	 2.257253e+01
1	 1.188275e+00	 1.673416e-01	 2.266421e+01
1	 1.186352e+00	 1.804719e-01	 2.277172e+01
1	 1.184275e+00	 1.936277e-01	 2.289275e+01
1	 1.200505e+00	 1.289193e-01	 2.221359e+01
1	 1.199024e+00	 1.420390e-01	 2.227035e+01
1	 1.197392e+00	 1.551915e-01	 2.234875e+01
1	 1.195610e+00	 1.683746e-01	 2.244639e+01
1	 1.193675e+00	 1.815859e-01	 2.256090e+01
1	 1.191586e+00	 1.948230e-01	 2.268996e+01
1	 1.207870e+00	 1.297102e-01	 2.198239e+01
1	 1.206380e+00	 1.429104e-01	 2.204239e+01
1	 1.204738e+00	 1.561436e-01	 2.212511e+01
1	 1.202945e+00	 1.694076e-01	 2.222812e+01
1	 1.200998e+00	 1.826999e-01	 2.234901e+01
1	 1.198896e+00	 1.960182e-01	 2.248542e+01
1	 1.215235e+00	 1.305012e-01	 2.175227e+01
1	 1.213736e+00	 1.437818e-01	 2.181502e+01
1	 1.212084e+00	 1.570957e-01	 2.190152e+01
1	 1.210280e+00	 1.704405e-01	 2.200931e+01
1	 1.208321e+00	 1.838139e-01	 2.213595e+01
1	 1.206206e+00	 1.972134e-01	 2.227903e+01
1	 1.169655e+00	 1.912373e-01	 2.329353e+01
1	 1.167452e+00	 2.042537e-01	 2.340336e+01
1	 1.165096e+00	 2.172906e-01	 2.351561e+01
1	 1.162585e+00	 2.303455e-01	 2.362834e+01
1	 1.159919e+00	 2.434159e-01	 2.373966e+01
1	 1.157096e+00	 2.564993e-01	 2.384774e+01
1	 1.176965e+00	 1.924325e-01	 2.309391e+01
1	 1.174749e+00	 2.055302e-01	 2.321402e+01
1	 1.172378e+00	 2.186486e-01	 2.333731e+01
1	 1.169852e+00	 2.317851e-01	 2.346177e+01
1	 1.167169e+00	 2.449373e-01	 2.358543e+01
1	 1.164328e+00	 2.581024e-01	 2.370640e+01
1	 1.184275e+00	 1.936277e-01	 2.289275e+01
1	 1.182045e+00	 2.068068e-01	 2.302245e+01
1	 1.179660e+00	 2.200067e-01	 2.315605e+01
1	 1.177118e+00	 2.332248e-01	 2.329147e+01
1	 1.174418e+00	 2.464586e-01	 2.342669e+01
1	 1.171560e+00	 2.597055e-01	 2.355975e+01
1	 1.191586e+00	 1.948230e-01	 2.268996e+01
1	 1.189342e+00	 2.080834e-01	 2.282854e+01
1	 1.186942e+00	 2.213648e-01	 2.297171e+01
1	 1.184384e+00	 2.346645e-01	 2.311733e+01
1	 1.181668e+00	 2.479800e-01	 2.326333e+01
1	 1.178792e+00	 2.613086e-01	 2.340771e+01
1	 1.198896e+00	 1.960182e-01	 2.248542e+01
1	 1.196638e+00	 2.093600e-01	 2.263217e+01
1	 1.194223e+00	 2.227228e-01	 2.278416e+01
1	 1.191650e+00	 2.361041e-01	 2.293922e+01
1	 1.188917e+00	 2.495013e-01	 2.309525e+01
1	 1.186024e+00	 2.629118e-01	 2.325019e+01
1	 1.206206e+00	 1.972134e-01	 2.227903e+01
1	 1.203935e+00	 2.106366e-01	 2.243322e+01
1	 1.201505e+00	 2.240809e-01	 2.259329e+01
1	 1.198916e+00	 2.375438e-01	 2.275705e+01
1	 1.196167e+00	 2.510227e-01	 2.292235e+01
1	 1.193256e+00	 2.645149e-01	 2.308710e+01
1	 1.157096e+00	 2.564993e-01	 2.384774e+01
1	 1.154116e+00	 2.695930e-01	 2.395103e+01
1	 1.150977e+00	 2.826943e-01	 2.404842e+01
1	 1.147678e+00	 2.958007e-01	 2.413889e+01
1	 1.144220e+00	 3.089094e-01	 2.422163e+01
1	 1.140600e+00	 3.220177e-01	 2.429596e+01
1	 1.164328e+00	 2.581024e-01	 2.370640e+01
1	 1.161329e+00	 2.712779e-01	 2.382350e+01
1	 1.158171e+00	 2.844612e-01	 2.393605e+01
1	 1.154851e+00	 2.976495e-01	 2.404303e+01
1	 1.151371e+00	 3.108401e-01	 2.414358e+01
1	 1.147729e+00	 3.240303e-01	 2.423701e+01
1	 1.171560e+00	 2.597055e-01	 2.355975e+01
1	 1.168542e+00	 2.729629e-01	 2.368982e+01
1	 1.165364e+00	 2.862280e-01	 2.381657e+01
1	 1.162024e+00	 2.994982e-01	 2.393893e+01
1	 1.158523e+00	 3.127708e-01	 2.405601e+01
1	 1.154858e+00	 3.260429e-01	 2.416705e+01
1	 1.178792e+00	 2.613086e-01	 2.340771e+01
1	 1.175756e+00	 2.746478e-01	 2.354994e+01
1	 1.172558e+00	 2.879949e-01	 2.368999e+01
1	 1.169197e+00	 3.013470e-01	 2.382673e+01
1	 1.165674e+00	 3.147015e-01	 2.395918e+01
1	 1.161986e+00	 3.280555e-01	 2.408650e+01
1	 1.186024e+00	 2.629118e-01	 2.325019e+01
1	 1.182969e+00	 2.763328e-01	 2.340381e+01
1	 1.179751e+00	 2.897617e-01	 2.355635e+01
1	 1.176370e+00	 3.031958e-01	 2.370656e+01
1	 1.172825e+00	 3.166322e-01	 2.385336e+01
1	 1.169115e+00	 3.300681e-01	 2.399582e+01
1	 1.193256e+00	 2.645149e-01	 2.308710e+01
1	 1.190182e+00	 2.780177e-01	 2.325139e+01
1	 1.186945e+00	 2.915285e-01	 2.341565e+01
1	 1.183543e+00	 3.050445e-01	 2.357853e+01
1	 1.179977e+00	 3.185628e-01	 2.373880e+01
1	 1.176244e+00	 3.320807e-01	 2.389541e+01
1	 1.140600e+00	 3.220177e-01	 2.429596e+01
1	 1.136819e+00	 3.351226e-01	 2.434582e+01
1	 1.132875e+00	 3.482216e-01	 2.435624e+01
1	 1.128768e+00	 3.613116e-01	 2.432825e+01
1	 1.124498e+00	 3.743898e-01	 2.426280e+01
1	 1.120064e+00	 3.874533e-01	 2.416076e+01
1	 1.147729e+00	 3.240303e-01	 2.423701e+01
1	 1.143924e+00	 3.372172e-01	 2.430549e+01
1	 1.139955e+00	 3.503979e-01	 2.433213e+01
1	 1.135823e+00	 3.635698e-01	 2.431772e+01
1	 1.131526e+00	 3.767297e-01	 2.426301e+01
1	 1.127065e+00	 3.898749e-01	 2.416867e+01
1	 1.154858e+00	 3.260429e-01	 2.416705e+01
1	 1.151029e+00	 3.393117e-01	 2.425261e+01
1	 1.147036e+00	 3.525743e-01	 2.429415e+01
1	 1.142878e+00	 3.658280e-01	 2.429238e+01
1	 1.138554e+00	 3.790697e-01	 2.424794e+01
1	 1.134065e+00	 3.922965e-01	 2.416143e+01
1	 1.161986e+00	 3.280555e-01	 2.408650e+01
1	 1.158134e+00	 3.414062e-01	 2.418773e+01
1	 1.154116e+00	 3.547507e-01	 2.424286e+01
1	 1.149933e+00	 3.680862e-01	 2.425261e+01
1	 1.145583e+00	 3.814096e-01	 2.421766e+01
1	 1.141065e+00	 3.947181e-01	 2.413862e+01
1	 1.169115e+00	 3.300681e-01	 2.399582e+01
1	 1.165239e+00	 3.435007e-01	 2.411141e+01
1	 1.161197e+00	 3.569271e-01	 2.417878e+01
1	 1.156988e+00	 3.703444e-01	 2.419878e+01
1	 1.152611e+00	 3.837495e-01	 2.417222e+01
1	 1.148066e+00	 3.971397e-01	 2.409985e+01
1	 1.176244e+00	 3.320807e-01	 2.389541e+01
1	 1.172344e+00	 3.455952e-01	 2.402419e+01
1	 1.168277e+00	 3.591035e-01	 2.410243e+01
1	 1.164042e+00	 3.726026e-01	 2.413124e+01
1	 1.159639e+00	 3.860895e-01	 2.411169e+01
1	 1.155066e+00	 3.995612e-01	 2.404473e+01
1	 1.120064e+00	 3.874533e-01	 2.416076e+01
1	 1.115466e+00	 4.004992e-01	 2.399438e+01
1	 1.110703e+00	 4.135246e-01	 2.373732e+01
1	 1.105775e+00	 4.265263e-01	 2.339241e+01
1	 1.100683e+00	 4.395015e-01	 2.296243e+01
1	 1.095425e+00	 4.524472e-01	 2.245006e+01
1	 1.127065e+00	 3.898749e-01	 2.416867e+01
1	 1.122438e+00	 4.030023e-01	 2.400674e+01
1	 1.117645e+00	 4.161091e-01	 2.375083e+01
1	 1.112686e+00	 4.291921e-01	 2.340393e+01
1	 1.107562e+00	 4.422484e-01	 2.296894e+01
1	 1.102271e+00	 4.552750e-01	 2.244872e+01
1	 1.134065e+00	 3.922965e-01	 2.416143e+01
1	 1.129409e+00	 4.055055e-01	 2.400471e+01
1	 1.124587e+00	 4.186936e-01	 2.375130e+01
1	 1.119598e+00	 4.318579e-01	 2.340419e+01
1	 1.114441e+00	 4.449953e-01	 2.296634e+01
1	 1.109118e+00	 4.581028e-01	 2.244072e+01
1	 1.141065e+00	 3.947181e-01	 2.413862e+01
1	 1.136381e+00	 4.080086e-01	 2.398738e+01
1	 1.131529e+00	 4.212781e-01	 2.373736e+01
1	 1.126509e+00	 4.345237e-01	 2.339148e+01
1	 1.121320e+00	 4.477422e-01	 2.295266e+01
1	 1.115964e+00	 4.609306e-01	 2.242385e+01
1	 1.148066e+00	 3.971397e-01	 2.409985e+01
1	 1.143353e+00	 4.105117e-01	 2.395384e+01
1	 1.138471e+00	 4.238627e-01	 2.370769e+01
1	 1.133420e+00	 4.371895e-01	 2.336413e+01
1	 1.128200e+00	 4.504891e-01	 2.292594e+01
1	 1.122810e+00	 4.637584e-01	 2.239596e+01
1	 1.155066e+00	 3.995612e-01	 2.404473e+01
1	 1.150324e+00	 4.130148e-01	 2.390323e+01
1	 1.145413e+00	 4.264472e-01	 2.366100e+01
1	 1.140331e+00	 4.398553e-01	 2.332050e+01
1	 1.135079e+00	 4.532360e-01	 2.288429e+01
1	 1.129657e+00	 4.665862e-01	 2.235497e+01
1	 1.095425e+00	 4.524472e-01	 2.245006e+01
1	 1.090002e+00	 4.653603e-01	 2.186771e+01
1	 1.084414e+00	 4.782377e-01	 2.122685e+01
1	 1.078660e+00	 4.910764e-01	 2.052858e+01
1	 1.072742e+00	 5.038733e-01	 1.977389e+01
1	 1.066659e+00	 5.166254e-01	 1.896366e+01
1	 1.102271e+00	 4.552750e-01	 2.244872e+01
1	 1.096814e+00	 4.682688e-01	 2.185578e+01
1	 1.091191e+00	 4.812266e-01	 2.120176e+01
1	 1.085402e+00	 4.941456e-01	 2.048810e+01
1	 1.079447e+00	 5.070225e-01	 1.971606e+01
1	 1.073326e+00	 5.198543e-01	 1.888674e+01
1	 1.109118e+00	 4.581028e-01	 2.244072e+01
1	 1.103627e+00	 4.711773e-01	 2.183944e+01
1	 1.097969e+00	 4.842156e-01	 2.117392e+01
1	 1.092144e+00	 4.972148e-01	 2.044583e+01
1	 1.086151e+00	 5.101717e-01	 1.965666e+01
1	 1.079993e+00	 5.230832e-01	 1.880768e+01
1	 1.115964e+00	 4.609306e-01	 2.242385e+01
1	 1.110439e+00	 4.740858e-01	 2.181643e+01
1	 1.104746e+00	 4.872046e-01	 2.114120e+01
1	 1.098885e+00	 5.002840e-01	 2.040001e+01
1	 1.092856e+00	 5.133209e-01	 1.959449e+01
1	 1.086659e+00	 5.263121e-01	 1.872606e+01
1	 1.122810e+00	 4.637584e-01	 2.239596e+01
1	 1.117252e+00	 4.769943e-01	 2.178455e+01
1	 1.111524e+00	 4.901936e-01	 2.110155e+01
1	 1.105627e+00	 5.033533e-01	 2.034892e+01
1	 1.099561e+00	 5.164701e-01	 1.952839e+01
1	 1.093326e+00	 5.295410e-01	 1.864148e+01
1	 1.129657e+00	 4.665862e-01	 2.235497e+01
1	 1.124064e+00	 4.799028e-01	 2.174164e+01
1	 1.118301e+00	 4.931826e-01	 2.105296e+01
1	 1.112368e+00	 5.064225e-01	 2.029090e+01
1	 1.106265e+00	 5.196193e-01	 1.945722e+01
1	 1.099992e+00	 5.327699e-01	 1.855354e+01
1	 1.066659e+00	 5.166254e-01	 1.896366e+01
1	 1.060412e+00	 5.293295e-01	 1.810594e+01
1	 1.054001e+00	 5.419826e-01	 1.720801e+01
1	 1.047427e+00	 5.545816e-01	 1.626944e+01
1	 1.040690e+00	 5.671234e-01	 1.528972e+01
1	 1.033790e+00	 5.796049e-01	 1.426831e+01
1	 1.073326e+00	 5.198543e-01	 1.888674e+01
1	 1.067040e+00	 5.326378e-01	 1.800896e+01
1	 1.060589e+00	 5.453700e-01	 1.709043e+01
1	 1.053973e+00	 5.580478e-01	 1.613047e+01
1	 1.047194e+00	 5.706680e-01	 1.512834e+01
1	 1.040251e+00	 5.832275e-01	 1.408324e+01
1	 1.079993e+00	 5.230832e-01	 1.880768e+01
1	 1.073667e+00	 5.359461e-01	 1.790877e+01
1	 1.067176e+00	 5.487574e-01	 1.696851e+01
1	 1.060520e+00	 5.615139e-01	 1.598611e+01
1	 1.053698e+00	 5.742125e-01	 1.496072e+01
1	 1.046713e+00	 5.868500e-01	 1.389145e+01
1	 1.086659e+00	 5.263121e-01	 1.872606e+01
1	 1.080295e+00	 5.392544e-01	 1.780570e+01
1	 1.073764e+00	 5.521448e-01	 1.684305e+01
1	 1.067066e+00	 5.649800e-01	 1.583737e+01
1	 1.060203e+00	 5.777570e-01	 1.478784e+01
1	 1.053174e+00	 5.904725e-01	 1.369354e+01
1	 1.093326e+00	 5.295410e-01	 1.864148e+01
1	 1.086923e+00	 5.425627e-01	 1.770008e+01
1	 1.080351e+00	 5.555322e-01	 1.671485e+01
1	 1.073613e+00	 5.684462e-01	 1.568526e+01
1	 1.066707e+00	 5.813015e-01	 1.461061e+01
1	 1.059635e+00	 5.940951e-01	 1.349011e+01
1	 1.099992e+00	 5.327699e-01	 1.855354e+01
1	 1.093550e+00	 5.458710e-01	 1.759223e+01
1	 1.086939e+00	 5.589196e-01	 1.658469e+01
1	 1.080159e+00	 5.719123e-01	 1.553073e+01
1	 1.073211e+00	 5.848460e-01	 1.442995e+01
1	 1.066096e+00	 5.977176e-01	 1.328175e+01
1	 1.033790e+00	 5.796049e-01	 1.426831e+01
1	 1.026729e+00	 5.920231e-01	 1.322128e+01
1	 1.019507e+00	 6.043748e-01	 1.216514e+01
1	 1.012125e+00	 6.166570e-01	 1.110000e+01
1	 1.004585e+00	 6.288667e-01	 1.002592e+01
1	 9.968861e-01	 6.410008e-01	 8.942990e+00
1	 1.040251e+00	 5.832275e-01	 1.408324e+01
1	 1.033146e+00	 5.957233e-01	 1.301136e+01
1	 1.025879e+00	 6.081522e-01	 1.192951e+01
1	 1.018451e+00	 6.205112e-01	 1.083789e+01
1	 1.010863e+00	 6.327971e-01	 9.736624e+00
1	 1.003117e+00	 6.450071e-01	 8.625844e+00
1	 1.046713e+00	 5.868500e-01	 1.389145e+01
1	 1.039563e+00	 5.994234e-01	 1.279445e+01
1	 1.032251e+00	 6.119295e-01	 1.168662e+01
1	 1.024777e+00	 6.243653e-01	 1.056807e+01
1	 1.017142e+00	 6.367276e-01	 9.438874e+00
1	 1.009347e+00	 6.490133e-01	 8.299057e+00
1	 1.053174e+00	 5.904725e-01	 1.369354e+01
1	 1.045980e+00	 6.031235e-01	 1.257075e+01
1	 1.038623e+00	 6.157069e-01	 1.143634e+01
1	 1.031103e+00	 6.282194e-01	 1.029022e+01
1	 1.023421e+00	 6.406580e-01	 9.132253e+00
1	 1.015578e+00	 6.530196e-01	 7.962248e+00
1	 1.059635e+00	 5.940951e-01	 1.349011e+01
1	 1.052397e+00	 6.068237e-01	 1.234042e+01
1	 1.044995e+00	 6.194842e-01	 1.117854e+01
1	 1.037429e+00	 6.320735e-01	 1.000401e+01
1	 1.029699e+00	 6.445884e-01	 8.816356e+00
1	 1.021808e+00	 6.570258e-01	 7.615046e+00
1	 1.066096e+00	 5.977176e-01	 1.328175e+01
1	 1.058814e+00	 6.105238e-01	 1.210365e+01
1	 1.051367e+00	 6.232615e-01	 1.091309e+01
1	 1.043754e+00	 6.359276e-01	 9.709127e+00
1	 1.035978e+00	 6.485188e-01	 8.490785e+00
1	 1.028039e+00	 6.610321e-01	 7.257088e+00
1	 9.968861e-01	 6.410008e-01	 8.942990e+00
1	 9.890305e-01	 6.530563e-01	 7.864673e+00
1	 9.810193e-01	 6.650302e-01	 6.803818e+00
1	 9.728535e-01	 6.769195e-01	 5.759562e+00
1	 9.645346e-01	 6.887213e-01	 4.731062e+00
1	 9.560638e-01	 7.004326e-01	 3.717493e+00
1	 1.003117e+00	 6.450071e-01	 8.625844e+00
1	 9.952120e-01	 6.571379e-01	 7.519322e+00
1	 9.871506e-01	 6.691866e-01	 6.430013e+00
1	 9.789338e-01	 6.811502e-01	 5.356795e+00
1	 9.705629e-01	 6.930258e-01	 4.298573e+00
1	 9.620392e-01	 7.048103e-01	 3.254284e+00
1	 1.009347e+00	 6.490133e-01	 8.299057e+00
1	 1.001393e+00	 6.612195e-01	 7.162780e+00
1	 9.932820e-01	 6.733431e-01	 6.043388e+00
1	 9.850142e-01	 6.853810e-01	 4.939690e+00
1	 9.765912e-01	 6.973303e-01	 3.850537e+00
1	 9.680146e-01	 7.091880e-01	 2.774821e+00
1	 1.015578e+00	 6.530196e-01	 7.962248e+00
1	 1.007575e+00	 6.653011e-01	 6.794780e+00
1	 9.994134e-01	 6.774995e-01	 5.643818e+00
1	 9.910945e-01	 6.896117e-01	 4.508294e+00
1	 9.826196e-01	 7.016348e-01	 3.387191e+00
1	 9.739900e-01	 7.135657e-01	 2.279555e+00
1	 1.021808e+00	 6.570258e-01	 7.615046e+00
1	 1.013756e+00	 6.693827e-01	 6.415059e+00
1	 1.005545e+00	 6.816559e-01	 5.231183e+00
1	 9.971748e-01	 6.938425e-01	 4.062649e+00
1	 9.886479e-01	 7.059393e-01	 2.908767e+00
1	 9.799654e-01	 7.179434e-01	 1.768924e+00
1	 1.028039e+00	 6.610321e-01	 7.257088e+00
1	 1.019938e+00	 6.734643e-01	 6.023364e+00
1	 1.011676e+00	 6.858124e-01	 4.805362e+00
1	 1.003255e+00	 6.980732e-01	 3.602800e+00
1	 9.946763e-01	 7.102438e-01	 2.415493e+00
1	 9.859408e-01	 7.223211e-01	 1.243358e+00
1	 9.560638e-01	 7.004326e-01	 3.717493e+00
1	 9.474428e-01	 7.120506e-01	 2.737949e+00
1	 9.386730e-01	 7.235723e-01	 1.815016e+00
1	 9.297560e-01	 7.349950e-01	 9.534629e-01
1	 9.206935e-01	 7.463159e-01	 1.585058e-01
1	 9.114872e-01	 7.575321e-01	-5.642022e-01
1	 9.620392e-01	 7.048103e-01	 3.254284e+00
1	 9.533643e-01	 7.165009e-01	 2.245313e+00
1	 9.445397e-01	 7.280947e-01	 1.297023e+00
1	 9.355670e-01	 7.395888e-01	 4.147106e-01
1	 9.264478e-01	 7.509804e-01	-3.958445e-01
1	 9.171840e-01	 7.622667e-01	-1.128392e+00
1	 9.680146e-01	 7.091880e-01	 2.774821e+00
1	 9.592859e-01	 7.209512e-01	 1.736451e+00
1	 9.504064e-01	 7.326170e-01	 7.635372e-01
1	 9.413779e-01	 7.441825e-01	-1.382966e-01
1	 9.322022e-01	 7.556448e-01	-9.629192e-01
1	 9.228808e-01	 7.670013e-01	-1.703701e+00
1	 9.739900e-01	 7.135657e-01	 2.279555e+00
1	 9.652074e-01	 7.254015e-01	 1.211987e+00
1	 9.562731e-01	 7.371393e-01	 2.152617e-01
1	 9.471889e-01	 7.487762e-01	-7.048691e-01
1	 9.379565e-01	 7.603093e-01	-1.542128e+00
1	 9.285776e-01	 7.717359e-01	-2.289725e+00
1	 9.799654e-01	 7.179434e-01	 1.768924e+00
1	 9.711289e-01	 7.298518e-01	 6.725288e-01
1	 9.621398e-01	 7.416616e-01	-3.471189e-01
1	 9.529999e-01	 7.533699e-01	-1.284334e+00
1	 9.437108e-01	 7.649738e-01	-2.132897e+00
1	 9.342744e-01	 7.764704e-01	-2.886065e+00
1	 9.859408e-01	 7.223211e-01	 1.243358e+00
1	 9.770504e-01	 7.343022e-01	 1.186714e-01
1	 9.680065e-01	 7.461840e-01	-9.229361e-01
1	 9.588109e-01	 7.579636e-01	-1.876035e+00
1	 9.494652e-01	 7.696383e-01	-2.734663e+00
1	 9.399712e-01	 7.812050e-01	-3.492335e+00
1	 9.114872e-01	 7.575321e-01	-5.642022e-01
1	 9.021390e-01	 7.686411e-01	-1.215841e+00
1	 8.926508e-01	 7.796400e-01	-1.801506e+00
1	 8.830244e-01	 7.905263e-01	-2.321112e+00
1	 8.732620e-01	 8.012973e-01	-2.774589e+00
1	 8.633656e-01	 8.119506e-01	-3.161884e+00
1	 9.171840e-01	 7.622667e-01	-1.128392e+00
1	 9.077774e-01	 7.734451e-01	-1.786045e+00
1	 8.982299e-01	 7.845127e-01	-2.376521e+00
1	 8.885433e-01	 7.954670e-01	-2.900168e+00
1	 8.787199e-01	 8.063054e-01	-3.357382e+00
1	 8.687616e-01	 8.170253e-01	-3.748611e+00
1	 9.228808e-01	 7.670013e-01	-1.703701e+00
1	 9.134158e-01	 7.782491e-01	-2.366152e+00
1	 9.038089e-01	 7.893855e-01	-2.960818e+00
1	 8.940622e-01	 8.004078e-01	-3.488316e+00
1	 8.841778e-01	 8.113135e-01	-3.949344e+00
1	 8.741576e-01	 8.221000e-01	-4.344673e+00
1	 9.285776e-01	 7.717359e-01	-2.289725e+00
1	 9.190541e-01	 7.830531e-01	-2.955941e+00
1	 9.093880e-01	 7.942582e-01	-3.554277e+00
1	 8.995811e-01	 8.053486e-01	-4.085467e+00
1	 8.896357e-01	 8.163216e-01	-4.550343e+00
1	 8.795537e-01	 8.271747e-01	-4.949827e+00
1	 9.342744e-01	 7.764704e-01	-2.886065e+00
1	 9.246925e-01	 7.878571e-01	-3.555191e+00
1	 9.149671e-01	 7.991310e-01	-4.156783e+00
1	 9.051001e-01	 8.102894e-01	-4.691536e+00
1	 8.950936e-01	 8.213297e-01	-5.160251e+00
1	 8.849497e-01	 8.322494e-01	-5.563837e+00
1	 9.399712e-01	 7.812050e-01	-3.492335e+00
1	 9.303309e-01	 7.926611e-01	-4.163690e+00
1	 9.205461e-01	 8.040037e-01	-4.768223e+00
1	 9.106190e-01	 8.152302e-01	-5.306436e+00
1	 9.005514e-01	 8.263379e-01	-5.778944e+00
1	 8.903458e-01	 8.373241e-01	-6.186472e+00
1	 8.633656e-01	 8.119506e-01	-3.161884e+00
1	 8.533373e-01	 8.224837e-01	-3.515381e+00
1	 8.431794e-01	 8.328940e-01	-3.865882e+00
1	 8.328940e-01	 8.431794e-01	-4.210980e+00
1	 8.224837e-01	 8.533373e-01	-4.548268e+00
1	 8.119506e-01	 8.633656e-01	-4.875342e+00
1	 8.687616e-01	 8.170253e-01	-3.748611e+00
1	 8.586707e-01	 8.276242e-01	-4.106634e+00
1	 8.484492e-01	 8.380996e-01	-4.462216e+00
1	 8.380996e-01	 8.484492e-01	-4.812811e+00
1	 8.276242e-01	 8.586707e-01	-5.155863e+00
1	 8.170253e-01	 8.687616e-01	-5.488810e+00
1	 8.741576e-01	 8.221000e-01	-4.344673e+00
1	 8.640040e-01	 8.327647e-01	-4.707184e+00
1	 8.537191e-01	 8.433052e-01	-5.067538e+00
1	 8.433052e-01	 8.537191e-01	-5.423218e+00
1	 8.327647e-01	 8.640040e-01	-5.771699e+00
1	 8.221000e-01	 8.741576e-01	-6.110446e+00
1	 8.795537e-01	 8.271747e-01	-4.949827e+00
1	 8.693374e-01	 8.379052e-01	-5.316684e+00
1	 8.589890e-01	 8.485108e-01	-5.681477e+00
1	 8.485108e-01	 8.589890e-01	-6.041887e+00
1	 8.379052e-01	 8.693374e-01	-6.395591e+00
1	 8.271747e-01	 8.795537e-01	-6.740263e+00
1	 8.849497e-01	 8.322494e-01	-5.563837e+00
1	 8.746707e-01	 8.430458e-01	-5.934797e+00
1	 8.642588e-01	 8.537164e-01	-6.303674e+00
1	 8.537164e-01	 8.642588e-01	-6.668510e+00
1	 8.430458e-01	 8.746707e-01	-7.027356e+00
1	 8.322494e-01	 8.849497e-01	-7.378271e+00
1	 8.903458e-01	 8.373241e-01	-6.186472e+00
1	 8.800041e-01	 8.481863e-01	-6.561193e+00
1	 8.695287e-01	 8.589220e-01	-6.933776e+00
1	 8.589220e-01	 8.695287e-01	-7.302787e+00
1	 8.481863e-01	 8.800041e-01	-7.666816e+00
1	 8.373241e-01	 8.903458e-01	-8.024485e+00
1	 8.119506e-01	 8.633656e-01	-4.875342e+00
1	 8.012973e-01	 8.732620e-01	-5.220986e+00
1	 7.905263e-01	 8.830244e-01	-5.616506e+00
1	 7.796400e-01	 8.926508e-01	-6.063423e+00
1	 7.686411e-01	 9.021390e-01	-6.563429e+00
1	 7.575321e-01	 9.114872e-01	-7.118381e+00
1	 8.170253e-01	 8.687616e-01	-5.488810e+00
1	 8.063054e-01	 8.787199e-01	-5.841373e+00
1	 7.954670e-01	 8.885433e-01	-6.245730e+00
1	 7.845127e-01	 8.982299e-01	-6.703143e+00
1	 7.734451e-01	 9.077774e-01	-7.215033e+00
1	 7.622667e-01	 9.171840e-01	-7.782975e+00
1	 8.221000e-01	 8.741576e-01	-6.110446e+00
1	 8.113135e-01	 8.841778e-01	-6.470199e+00
1	 8.004078e-01	 8.940622e-01	-6.883871e+00
1	 7.893855e-01	 9.038089e-01	-7.352300e+00
1	 7.782491e-01	 9.134158e-01	-7.876467e+00
1	 7.670013e-01	 9.228808e-01	-8.457491e+00
1	 8.271747e-01	 8.795537e-01	-6.740263e+00
1	 8.163216e-01	 8.896357e-01	-7.107667e+00
1	 8.053486e-01	 8.995811e-01	-7.531229e+00
1	 7.942582e-01	 9.093880e-01	-8.011208e+00
1	 7.830531e-01	 9.190541e-01	-8.547978e+00
1	 7.717359e-01	 9.285776e-01	-9.142031e+00
1	 8.322494e-01	 8.849497e-01	-7.378271e+00
1	 8.213297e-01	 8.950936e-01	-7.753972e+00
1	 8.102894e-01	 9.051001e-01	-8.188098e+00
1	 7.991310e-01	 9.149671e-01	-8.680175e+00
1	 7.878571e-01	 9.246925e-01	-9.229810e+00
1	 7.764704e-01	 9.342744e-01	-9.836694e+00
1	 8.373241e-01	 8.903458e-01	-8.024485e+00
1	 8.263379e-01	 9.005514e-01	-8.409305e+00
1	 8.152302e-01	 9.106190e-01	-8.854765e+00
1	 8.040037e-01	 9.205461e-01	-9.359502e+00
1	 7.926611e-01	 9.303309e-01	-9.922198e+00
1	 7.812050e-01	 9.399712e-01	-1.054158e+01
1	 7.575321e-01	 9.114872e-01	-7.118381e+00
1	 7.463159e-01	 9.206935e-01	-7.733106e+00
1	 7.349950e-01	 9.297560e-01	-8.415871e+00
1	 7.235723e-01	 9.386730e-01	-9.174087e+00
1	 7.120506e-01	 9.474428e-01	-1.001552e+01
1	 7.004326e-01	 9.560638e-01	-1.094826e+01
1	 7.622667e-01	 9.171840e-01	-7.782975e+00
1	 7.509804e-01	 9.264478e-01	-8.412957e+00
1	 7.395888e-01	 9.355670e-01	-9.114605e+00
1	 7.280947e-01	 9.445397e-01	-9.895347e+00
1	 7.165009e-01	 9.533643e-01	-1.076297e+01
1	 7.048103e-01	 9.620392e-01	-1.172559e+01
1	 7.670013e-01	 9.228808e-01	-8.457491e+00
1	 7.556448e-01	 9.322022e-01	-9.102503e+00
1	 7.441825e-01	 9.413779e-01	-9.822713e+00
1	 7.326170e-01	 9.504064e-01	-1.062575e+01
1	 7.209512e-01	 9.592859e-01	-1.151961e+01
1	 7.091880e-01	 9.680146e-01	-1.251264e+01
1	 7.717359e-01	 9.285776e-01	-9.142031e+00
1	 7.603093e-01	 9.379565e-01	-9.801715e+00
1	 7.487762e-01	 9.471889e-01	-1.054013e+01
1	 7.371393e-01	 9.562731e-01	-1.136530e+01
1	 7.254015e-01	 9.652074e-01	-1.228561e+01
1	 7.135657e-01	 9.739900e-01	-1.330984e+01
1	 7.764704e-01	 9.342744e-01	-9.836694e+00
1	 7.649738e-01	 9.437108e-01	-1.051056e+01
1	 7.533699e-01	 9.529999e-01	-1.126681e+01
1	 7.416616e-01	 9.621398e-01	-1.211401e+01
1	 7.298518e-01	 9.711289e-01	-1.306115e+01
1	 7.179434e-01	 9.799654e-01	-1.411761e+01
1	 7.812050e-01	 9.399712e-01	-1.054158e+01
1	 7.696383e-01	 9.494652e-01	-1.122902e+01
1	 7.579636e-01	 9.588109e-01	-1.200268e+01
1	 7.461840e-01	 9.680065e-01	-1.287188e+01
1	 7.343022e-01	 9.770504e-01	-1.384637e+01
1	 7.223211e-01	 9.859408e-01	-1.493635e+01
1	 7.004326e-01	 9.560638e-01	-1.094826e+01
1	 6.887213e-01	 9.645346e-01	-1.196058e+01
1	 6.769195e-01	 9.728535e-01	-1.303638e+01
1	 6.650302e-01	 9.810193e-01	-1.417746e+01
1	 6.530563e-01	 9.890305e-01	-1.538562e+01
1	 6.410008e-01	 9.968861e-01	-1.666265e+01
1	 7.048103e-01	 9.620392e-01	-1.172559e+01
1	 6.930258e-01	 9.705629e-01	-1.277011e+01
1	 6.811502e-01	 9.789338e-01	-1.387980e+01
1	 6.691866e-01	 9.871506e-01	-1.505761e+01
1	 6.571379e-01	 9.952120e-01	-1.630652e+01
1	 6.450071e-01	 1.003117e+00	-1.762952e+01
1	 7.091880e-01	 9.680146e-01	-1.251264e+01
1	 6.973303e-01	 9.765912e-01	-1.359067e+01
1	 6.853810e-01	 9.850142e-01	-1.473622e+01
1	 6.733431e-01	 9.932820e-01	-1.595292e+01
1	 6.612195e-01	 1.001393e+00	-1.724450e+01
1	 6.490133e-01	 1.009347e+00	-1.861472e+01
1	 7.135657e-01	 9.739900e-01	-1.330984e+01
1	 7.016348e-01	 9.826196e-01	-1.442288e+01
1	 6.896117e-01	 9.910945e-01	-1.560621e+01
1	 6.774995e-01	 9.994134e-01	-1.686377e+01
1	 6.653011e-01	 1.007575e+00	-1.819955e+01
1	 6.530196e-01	 1.015578e+00	-1.961764e+01
1	 7.179434e-01	 9.799654e-01	-1.411761e+01
1	 7.059393e-01	 9.886479e-01	-1.526735e+01
1	 6.938425e-01	 9.971748e-01	-1.649038e+01
1	 6.816559e-01	 1.005545e+00	-1.779052e+01
1	 6.693827e-01	 1.013756e+00	-1.917165e+01
1	 6.570258e-01	 1.021808e+00	-2.063769e+01
1	 7.223211e-01	 9.859408e-01	-1.493635e+01
1	 7.102438e-01	 9.946763e-01	-1.612465e+01
1	 6.980732e-01	 1.003255e+00	-1.738929e+01
1	 6.858124e-01	 1.011676e+00	-1.873356e+01
1	 6.734643e-01	 1.019938e+00	-2.016077e+01
1	 6.610321e-01	 1.028039e+00	-2.167428e+01
1	 6.410008e-01	 9.968861e-01	-1.666265e+01
1	 6.288667e-01	 1.004585e+00	-1.799693e+01
1	 6.166570e-01	 1.012125e+00	-1.937399e+01
1	 6.043748e-01	 1.019507e+00	-2.079127e+01
1	 5.920231e-01	 1.026729e+00	-2.224608e+01
1	 5.796049e-01	 1.033790e+00	-2.373560e+01
1	 6.450071e-01	 1.003117e+00	-1.762952e+01
1	 6.327971e-01	 1.010863e+00	-1.901461e+01
1	 6.205112e-01	 1.018451e+00	-2.044521e+01
1	 6.081522e-01	 1.025879e+00	-2.191738e+01
1	 5.957233e-01	 1.033146e+00	-2.342700e+01
1	 5.832275e-01	 1.040251e+00	-2.496975e+01
1	 6.490133e-01	 1.009347e+00	-1.861472e+01
1	 6.367276e-01	 1.017142e+00	-2.005051e+01
1	 6.243653e-01	 1.024777e+00	-2.153345e+01
1	 6.119295e-01	 1.032251e+00	-2.305918e+01
1	 5.994234e-01	 1.039563e+00	-2.462310e+01
1	 5.868500e-01	 1.046713e+00	-2.622042e+01
1	 6.530196e-01	 1.015578e+00	-1.961764e+01
1	 6.406580e-01	 1.023421e+00	-2.110354e+01
1	 6.282194e-01	 1.031103e+00	-2.263755e+01
1	 6.157069e-01	 1.038623e+00	-2.421578e+01
1	 6.031235e-01	 1.045980e+00	-2.583413e+01
1	 5.904725e-01	 1.053174e+00	-2.748832e+01
1	 6.570258e-01	 1.021808e+00	-2.063769e+01
1	 6.445884e-01	 1.029699e+00	-2.217266e+01
1	 6.320735e-01	 1.037429e+00	-2.375636e+01
1	 6.194842e-01	 1.044995e+00	-2.538631e+01
1	 6.068237e-01	 1.052397e+00	-2.705986e+01
1	 5.940951e-01	 1.059635e+00	-2.877416e+01
1	 6.610321e-01	 1.028039e+00	-2.167428e+01
1	 6.485188e-01	 1.035978e+00	-2.325682e+01
1	 6.359276e-01	 1.043754e+00	-2.488877e+01
1	 6.232615e-01	 1.051367e+00	-2.656994e+01
1	 6.105238e-01	 1.058814e+00	-2.830003e+01
1	 5.977176e-01	 1.066096e+00	-3.007863e+01
1	 5.796049e-01	 1.033790e+00	-2.373560e+01
1	 5.671234e-01	 1.040690e+00	-2.523862e+01
1	 5.545816e-01	 1.047427e+00	-2.673415e+01
1	 5.419826e-01	 1.054001e+00	-2.821954e+01
1	 5.293295e-01	 1.060412e+00	-2.969203e+01
1	 5.166254e-01	 1.066659e+00	-3.114882e+01
1	 5.832275e-01	 1.040251e+00	-2.496975e+01
1	 5.706680e-01	 1.047194e+00	-2.652373e+01
1	 5.580478e-01	 1.053973e+00	-2.806940e+01
1	 5.453700e-01	 1.060589e+00	-2.960589e+01
1	 5.326378e-01	 1.067040e+00	-3.113229e+01
1	 5.198543e-01	 1.073326e+00	-3.264764e+01
1	 5.868500e-01	 1.046713e+00	-2.622042e+01
1	 5.742125e-01	 1.053698e+00	-2.782949e+01
1	 5.615139e-01	 1.060520e+00	-2.943145e+01
1	 5.487574e-01	 1.067176e+00	-3.102554e+01
1	 5.359461e-01	 1.073667e+00	-3.261098e+01
1	 5.230832e-01	 1.079993e+00	-3.418693e+01
1	 5.904725e-01	 1.053174e+00	-2.748832e+01
1	 5.777570e-01	 1.060203e+00	-2.915746e+01
1	 5.649800e-01	 1.067066e+00	-3.082212e+01
1	 5.521448e-01	 1.073764e+00	-3.248004e+01
1	 5.392544e-01	 1.080295e+00	-3.412886e+01
1	 5.263121e-01	 1.086659e+00	-3.576620e+01
1	 5.940951e-01	 1.059635e+00	-2.877416e+01
1	 5.813015e-01	 1.066707e+00	-3.050916e+01
1	 5.684462e-01	 1.073613e+00	-3.224320e+01
1	 5.555322e-01	 1.080351e+00	-3.397089e+01
1	 5.425627e-01	 1.086923e+00	-3.568670e+01
1	 5.295410e-01	 1.093326e+00	-3.738495e+01
1	 5.977176e-01	 1.066096e+00	-3.007863e+01
1	 5.848460e-01	 1.073211e+00	-3.188607e+01
1	 5.719123e-01	 1.080159e+00	-3.369642e+01
1	 5.589196e-01	 1.086939e+00	-3.549958e+01
1	 5.458710e-01	 1.093550e+00	-3.728520e+01
1	 5.327699e-01	 1.099992e+00	-3.904272e+01
1	 5.166254e-01	 1.066659e+00	-3.114882e+01
1	 5.038733e-01	 1.072742e+00	-3.257618e+01
1	 4.910764e-01	 1.078660e+00	-3.395581e+01
1	 4.782377e-01	 1.084414e+00	-3.527781e+01
1	 4.653603e-01	 1.090002e+00	-3.653214e+01
1	 4.524472e-01	 1.095425e+00	-3.770867e+01
1	 5.198543e-01	 1.073326e+00	-3.264764e+01
1	 5.070225e-01	 1.079447e+00	-3.413780e+01
1	 4.941456e-01	 1.085402e+00	-3.558050e+01
1	 4.812266e-01	 1.091191e+00	-3.696243e+01
1	 4.682688e-01	 1.096814e+00	-3.827010e+01
1	 4.552750e-01	 1.102271e+00	-3.948985e+01
1	 5.230832e-01	 1.079993e+00	-3.418693e+01
1	 5.101717e-01	 1.086151e+00	-3.573697e+01
1	 4.972148e-01	 1.092144e+00	-3.723495e+01
1	 4.842156e-01	 1.097969e+00	-3.866534e+01
1	 4.711773e-01	 1.103627e+00	-4.001238e+01
1	 4.581028e-01	 1.109118e+00	-4.126013e+01
1	 5.263121e-01	 1.086659e+00	-3.576620e+01
1	 5.133209e-01	 1.092856e+00	-3.737190e+01
1	 5.002840e-01	 1.098885e+00	-3.891649e+01
1	 4.872046e-01	 1.104746e+00	-4.038335e+01
1	 4.740858e-01	 1.110439e+00	-4.175563e+01
1	 4.609306e-01	 1.115964e+00	-4.301630e+01
1	 5.295410e-01	 1.093326e+00	-3.738495e+01
1	 5.164701e-01	 1.099561e+00	-3.904086e+01
1	 5.033533e-01	 1.105627e+00	-4.062251e+01
1	 4.901936e-01	 1.111524e+00	-4.211333e+01
1	 4.769943e-01	 1.117252e+00	-4.349654e+01
1	 4.637584e-01	 1.122810e+00	-4.475521e+01
1	 5.327699e-01	 1.099992e+00	-3.904272e+01
1	 5.196193e-01	 1.106265e+00	-4.074215e+01
1	 5.064225e-01	 1.112368e+00	-4.235047e+01
1	 4.931826e-01	 1.118301e+00	-4.385225e+01
1	 4.799028e-01	 1.124064e+00	-4.523193e+01
1	 4.665862e-01	 1.129657e+00	-4.647379e+01
1	 4.524472e-01	 1.095425e+00	-3.770867e+01
1	 4.395015e-01	 1.100683e+00	-3.878357e+01
1	 4.265263e-01	 1.105775e+00	-3.972969e+01
1	 4.135246e-01	 1.110703e+00	-4.053182e+01
1	 4.004992e-01	 1.115466e+00	-4.117472e+01
1	 3.874533e-01	 1.120064e+00	-4.164319e+01
1	 4.552750e-01	 1.102271e+00	-3.948985e+01
1	 4.422484e-01	 1.107562e+00	-4.059464e+01
1	 4.291921e-01	 1.112686e+00	-4.155689e+01
1	 4.161091e-01	 1.117645e+00	-4.236203e+01
1	 4.030023e-01	 1.122438e+00	-4.299549e+01
1	 3.898749e-01	 1.127065e+00	-4.344272e+01
1	 4.581028e-01	 1.109118e+00	-4.126013e+01
1	 4.449953e-01	 1.114441e+00	-4.237990e+01
1	 4.318579e-01	 1.119598e+00	-4.334486e+01
1	 4.186936e-01	 1.124587e+00	-4.414173e+01
1	 4.055055e-01	 1.129409e+00	-4.475728e+01
1	 3.922965e-01	 1.134065e+00	-4.517832e+01
1	 4.609306e-01	 1.115964e+00	-4.301630e+01
1	 4.477422e-01	 1.121320e+00	-4.413649e+01
1	 4.345237e-01	 1.126509e+00	-4.509121e+01
1	 4.212781e-01	 1.131529e+00	-4.586915e+01
1	 4.080086e-01	 1.136381e+00	-4.645905e+01
1	 3.947181e-01	 1.141065e+00	-4.684971e+01
1	 4.637584e-01	 1.122810e+00	-4.475521e+01
1	 4.504891e-01	 1.128200e+00	-4.586163e+01
1	 4.371895e-01	 1.133420e+00	-4.679366e+01
1	 4.238627e-01	 1.138471e+00	-4.754258e+01
1	 4.105117e-01	 1.143353e+00	-4.809977e+01
1	 3.971397e-01	 1.148066e+00	-4.845664e+01
1	 4.665862e-01	 1.129657e+00	-4.647379e+01
1	 4.532360e-01	 1.135079e+00	-4.755260e+01
1	 4.398553e-01	 1.140331e+00	-4.844994e+01
1	 4.264472e-01	 1.145413e+00	-4.916034e+01
1	 4.130148e-01	 1.150324e+00	-4.967841e+01
1	 3.995612e-01	 1.155066e+00	-4.999885e+01
1	 3.874533e-01	 1.120064e+00	-4.164319e+01
1	 3.743898e-01	 1.124498e+00	-4.194538e+01
1	 3.613116e-01	 1.128768e+00	-4.209448e+01
1	 3.482216e-01	 1.132875e+00	-4.208297e+01
1	 3.351226e-01	 1.136819e+00	-4.190350e+01
1	 3.220177e-01	 1.140600e+00	-4.154884e+01
1	 3.898749e-01	 1.127065e+00	-4.344272e+01
1	 3.767297e-01	 1.131526e+00	-4.371352e+01
1	 3.635698e-01	 1.135823e+00	-4.382334e+01
1	 3.503979e-01	 1.139955e+00	-4.376628e+01
1	 3.372172e-01	 1.143924e+00	-4.353659e+01
1	 3.240303e-01	 1.147729e+00	-4.312872e+01
1	 3.922965e-01	 1.134065e+00	-4.517832e+01
1	 3.790697e-01	 1.138554e+00	-4.541674e+01
1	 3.658280e-01	 1.142878e+00	-4.548957e+01
1	 3.525743e-01	 1.147036e+00	-4.539152e+01
1	 3.393117e-01	 1.151029e+00	-4.511741e+01
1	 3.260429e-01	 1.154858e+00	-4.466231e+01
1	 3.947181e-01	 1.141065e+00	-4.684971e+01
1	 3.814096e-01	 1.145583e+00	-4.705544e+01
1	 3.680862e-01	 1.149933e+00	-4.709403e+01
1	 3.547507e-01	 1.154116e+00	-4.695975e+01
1	 3.414062e-01	 1.158134e+00	-4.664702e+01
1	 3.280555e-01	 1.161986e+00	-4.615046e+01
1	 3.971397e-01	 1.148066e+00	-4.845664e+01
1	 3.837495e-01	 1.152611e+00	-4.863004e+01
1	 3.703444e-01	 1.156988e+00	-4.863756e+01
1	 3.569271e-01	 1.161197e+00	-4.847203e+01
1	 3.435007e-01	 1.165239e+00	-4.812645e+01
1	 3.300681e-01	 1.169115e+00	-4.759400e+01
1	 3.995612e-01	 1.155066e+00	-4.999885e+01
1	 3.860895e-01	 1.159639e+00	-5.014094e+01
1	 3.726026e-01	 1.164042e+00	-5.012097e+01
1	 3.591035e-01	 1.168277e+00	-4.992936e+01
1	 3.455952e-01	 1.172344e+00	-4.955670e+01
1	 3.320807e-01	 1.176244e+00	-4.899374e+01
1	 3.220177e-01	 1.140600e+00	-4.154884e+01
1	 3.089094e-01	 1.144220e+00	-4.103579e+01
1	 2.958007e-01	 1.147678e+00	-4.039498e+01
1	 2.826943e-01	 1.150977e+00	-3.964024e+01
1	 2.695930e-01	 1.154116e+00	-3.878553e+01
1	 2.564993e-01	 1.157096e+00	-3.784488e+01
1	 3.240303e-01	 1.147729e+00	-4.312872e+01
1	 3.108401e-01	 1.151371e+00	-4.256249e+01
1	 2.976495e-01	 1.154851e+00	-4.187030e+01
1	 2.844612e-01	 1.158171e+00	-4.106567e+01
1	 2.712779e-01	 1.161329e+00	-4.016228e+01
1	 2.581024e-01	 1.164328e+00	-3.917390e+01
1	 3.260429e-01	 1.154858e+00	-4.466231e+01
1	 3.127708e-01	 1.158523e+00	-4.404806e+01
1	 2.994982e-01	 1.162024e+00	-4.330865e+01
1	 2.862280e-01	 1.165364e+00	-4.245756e+01
1	 2.729629e-01	 1.168542e+00	-4.150840e+01
1	 2.597055e-01	 1.171560e+00	-4.047491e+01
1	 3.280555e-01	 1.161986e+00	-4.615046e+01
1	 3.147015e-01	 1.165674e+00	-4.549308e+01
1	 3.013470e-01	 1.169197e+00	-4.471042e+01
1	 2.879949e-01	 1.172558e+00	-4.381615e+01
1	 2.746478e-01	 1.175756e+00	-4.282405e+01
1	 2.613086e-01	 1.178792e+00	-4.174803e+01
1	 3.300681e-01	 1.169115e+00	-4.759400e+01
1	 3.166322e-01	 1.172825e+00	-4.689812e+01
1	 3.031958e-01	 1.176370e+00	-4.607600e+01
1	 2.897617e-01	 1.179751e+00	-4.514169e+01
1	 2.763328e-01	 1.182969e+00	-4.410938e+01
1	 2.629118e-01	 1.186024e+00	-4.299338e+01
1	 3.320807e-01	 1.176244e+00	-4.899374e+01
1	 3.185628e-01	 1.179977e+00	-4.826376e+01
1	 3.050445e-01	 1.183543e+00	-4.740575e+01
1	 2.915285e-01	 1.186945e+00	-4.643440e+01
1	 2.780177e-01	 1.190182e+00	-4.536454e+01
1	 2.645149e-01	 1.193256e+00	-4.421107e+01
1	 2.564993e-01	 1.157096e+00	-3.784488e+01
1	 2.434159e-01	 1.159919e+00	-3.683499e+01
1	 2.303455e-01	 1.162585e+00	-3.577149e+01
1	 2.172906e-01	 1.165096e+00	-3.466693e+01
1	 2.042537e-01	 1.167452e+00	-3.353384e+01
1	 1.912373e-01	 1.169655e+00	-3.238469e+01
1	 2.581024e-01	 1.164328e+00	-3.917390e+01
1	 2.449373e-01	 1.167169e+00	-3.811688e+01
1	 2.317851e-01	 1.169852e+00	-3.700689e+01
1	 2.186486e-01	 1.172378e+00	-3.585669e+01
1	 2.055302e-01	 1.174749e+00	-3.467900e+01
1	 1.924325e-01	 1.176965e+00	-3.348648e+01
1	 2.597055e-01	 1.171560e+00	-4.047491e+01
1	 2.464586e-01	 1.174418e+00	-3.937335e+01
1	 2.332248e-01	 1.177118e+00	-3.821946e+01
1	 2.200067e-01	 1.179660e+00	-3.702615e+01
1	 2.068068e-01	 1.182045e+00	-3.580629e+01
1	 1.936277e-01	 1.184275e+00	-3.457269e+01
1	 2.613086e-01	 1.178792e+00	-4.174803e+01
1	 2.479800e-01	 1.181668e+00	-4.060450e+01
1	 2.346645e-01	 1.184384e+00	-3.940928e+01
1	 2.213648e-01	 1.186942e+00	-3.817538e+01
1	 2.080834e-01	 1.189342e+00	-3.691579e+01
1	 1.948230e-01	 1.191586e+00	-3.564341e+01
1	 2.629118e-01	 1.186024e+00	-4.299338e+01
1	 2.495013e-01	 1.188917e+00	-4.181043e+01
1	 2.361041e-01	 1.191650e+00	-4.057644e+01
1	 2.227228e-01	 1.194223e+00	-3.930447e+01
1	 2.093600e-01	 1.196638e+00	-3.800756e+01
1	 1.960182e-01	 1.198896e+00	-3.669871e+01
1	 2.645149e-01	 1.193256e+00	-4.421107e+01
1	 2.510227e-01	 1.196167e+00	-4.299123e+01
1	 2.375438e-01	 1.198916e+00	-4.172100e+01
1	 2.240809e-01	 1.201505e+00	-4.041347e+01
1	 2.106366e-01	 1.203935e+00	-3.908169e+01
1	 1.972134e-01	 1.206206e+00	-3.773866e+01
1	 1.912373e-01	 1.169655e+00	-3.238469e+01
1	 1.782438e-01	 1.171705e+00	-3.123589e+01
1	 1.652757e-01	 1.173605e+00	-3.010482e+01
1	 1.523352e-01	 1.175354e+00	-2.900529e+01
1	 1.394248e-01	 1.176956e+00	-2.795093e+01
1	 1.265466e-01	 1.178410e+00	-2.695515e+01
1	 1.924325e-01	 1.176965e+00	-3.348648e+01
1	 1.793578e-01	 1.179028e+00	-3.229581e+01
1	 1.663087e-01	 1.180940e+00	-3.112459e+01
1	 1.532873e-01	 1.182700e+00	-2.998666e+01
1	 1.402962e-01	 1.184312e+00	-2.889569e+01
1	 1.273375e-01	 1.185775e+00	-2.786514e+01
1	 1.936277e-01	 1.184275e+00	-3.457269e+01
1	 1.804719e-01	 1.186352e+00	-3.334229e+01
1	 1.673416e-01	 1.188275e+00	-3.213287e+01
1	 1.542394e-01	 1.190046e+00	-3.095836e+01
1	 1.411676e-01	 1.191668e+00	-2.983249e+01
1	 1.281284e-01	 1.193140e+00	-2.876877e+01
1	 1.948230e-01	 1.191586e+00	-3.564341e+01
1	 1.815859e-01	 1.193675e+00	-3.437540e+01
1	 1.683746e-01	 1.195610e+00	-3.312975e+01
1	 1.551915e-01	 1.197392e+00	-3.192048e+01
1	 1.420390e-01	 1.199024e+00	-3.076140e+01
1	 1.289193e-01	 1.200505e+00	-2.966612e+01
1	 1.960182e-01	 1.198896e+00	-3.669871e+01
1	 1.826999e-01	 1.200998e+00	-3.539522e+01
1	 1.694076e-01	 1.202945e+00	-3.411530e+01
1	 1.561436e-01	 1.204738e+00	-3.287308e+01
1	 1.429104e-01	 1.206380e+00	-3.168249e+01
1	 1.297102e-01	 1.207870e+00	-3.055723e+01
1	 1.972134e-01	 1.206206e+00	-3.773866e+01
1	 1.838139e-01	 1.208321e+00	-3.640183e+01
1	 1.704405e-01	 1.210280e+00	-3.508960e+01
1	 1.570957e-01	 1.212084e+00	-3.381625e+01
1	 1.437818e-01	 1.213736e+00	-3.259582e+01
1	 1.305012e-01	 1.215235e+00	-3.144215e+01
1	 1.265466e-01	 1.178410e+00	-2.695515e+01
1	 1.137028e-01	 1.179718e+00	-2.603083e+01
1	 1.008957e-01	 1.180883e+00	-2.518989e+01
1	 8.812724e-02	 1.181904e+00	-2.444394e+01
1	 7.539962e-02	 1.182784e+00	-2.380433e+01
1	 6.271480e-02	 1.183525e+00	-2.328209e+01
1	 1.273375e-01	 1.185775e+00	-2.786514e+01
1	 1.144135e-01	 1.187092e+00	-2.690792e+01
1	 1.015263e-01	 1.188263e+00	-2.603616e+01
1	 8.867804e-02	 1.189291e+00	-2.526172e+01
1	 7.587086e-02	 1.190177e+00	-2.459618e+01
1	 6.310677e-02	 1.190922e+00	-2.405081e+01
1	 1.281284e-01	 1.193140e+00	-2.876877e+01
1	 1.151241e-01	 1.194465e+00	-2.778019e+01
1	 1.021569e-01	 1.195644e+00	-2.687900e+01
1	 8.922883e-02	 1.196678e+00	-2.607727e+01
1	 7.634211e-02	 1.197569e+00	-2.538677e+01
1	 6.349873e-02	 1.198319e+00	-2.481895e+01
1	 1.289193e-01	 1.200505e+00	-2.966612e+01
1	 1.158347e-01	 1.201838e+00	-2.864768e+01
1	 1.027875e-01	 1.203024e+00	-2.771843e+01
1	 8.977963e-02	 1.204065e+00	-2.689061e+01
1	 7.681336e-02	 1.204962e+00	-2.617612e+01
1	 6.389070e-02	 1.205716e+00	-2.558653e+01
1	 1.297102e-01	 1.207870e+00	-3.055723e+01
1	 1.165454e-01	 1.209211e+00	-2.951041e+01
1	 1.034181e-01	 1.210405e+00	-2.855449e+01
1	 9.033042e-02	 1.211452e+00	-2.770177e+01
1	 7.728461e-02	 1.212354e+00	-2.696424e+01
1	 6.428267e-02	 1.213113e+00	-2.635357e+01
1	 1.305012e-01	 1.215235e+00	-3.144215e+01
1	 1.172560e-01	 1.216585e+00	-3.036844e+01
1	 1.040487e-01	 1.217785e+00	-2.938720e+01
1	 9.088122e-02	 1.218839e+00	-2.851076e+01
1	 7.775585e-02	 1.219746e+00	-2.775116e+01
1	 6.467464e-02	 1.220510e+00	-2.712010e+01
1	 6.271480e-02	 1.183525e+00	-2.328209e+01
1	 5.007476e-02	 1.184127e+00	-2.288885e+01
1	 3.748142e-02	 1.184592e+00	-2.263532e+01
1	 2.493664e-02	 1.184923e+00	-2.253059e+01
1	 1.244224e-02	 1.185120e+00	-2.258342e+01
1	 0.000000e+00	 1.185185e+00	-2.280220e+01
1	 6.310677e-02	 1.190922e+00	-2.405081e+01
1	 5.038773e-02	 1.191528e+00	-2.363751e+01
1	 3.771568e-02	 1.191996e+00	-2.336718e+01
1	 2.509249e-02	 1.192329e+00	-2.324911e+01
1	 1.252001e-02	 1.192527e+00	-2.329220e+01
1	 0.000000e+00	 1.192593e+00	-2.350501e+01
1	 6.349873e-02	 1.198319e+00	-2.481895e+01
1	 5.070070e-02	 1.198928e+00	-2.438592e+01
1	 3.794994e-02	 1.199400e+00	-2.409883e+01
1	 2.524835e-02	 1.199734e+00	-2.396713e+01
1	 1.259777e-02	 1.199934e+00	-2.399991e+01
1	 0.000000e+00	 1.200000e+00	-2.420589e+01
1	 6.389070e-02	 1.205716e+00	-2.558653e+01
1	 5.101366e-02	 1.206329e+00	-2.513414e+01
1	 3.818419e-02	 1.206803e+00	-2.483031e+01
1	 2.540420e-02	 1.207140e+00	-2.468470e+01
1	 1.267554e-02	 1.207341e+00	-2.470659e+01
1	 0.000000e+00	 1.207407e+00	-2.490489e+01
1	 6.428267e-02	 1.213113e+00	-2.635357e+01
1	 5.132663e-02	 1.213730e+00	-2.588218e+01
1	 3.841845e-02	 1.214207e+00	-2.556166e+01
1	 2.556006e-02	 1.214546e+00	-2.540187e+01
1	 1.275330e-02	 1.214748e+00	-2.541232e+01
1	 0.000000e+00	 1.214815e+00	-2.560209e+01
1	 6.467464e-02	 1.220510e+00	-2.712010e+01
1	 5.163960e-02	 1.221131e+00	-2.663009e+01
1	 3.865271e-02	 1.221611e+00	-2.629292e+01
1	 2.571591e-02	 1.221952e+00	-2.611870e+01
1	 1.283106e-02	 1.222155e+00	-2.611714e+01
1	 0.000000e+00	 1.222222e+00	-2.629755e+01
1	 1.222222e+00	 0.000000e+00	 2.276571e+01
1	 1.222155e+00	 1.283106e-02	 2.250081e+01
1	 1.221952e+00	 2.571591e-02	 2.227766e+01
1	 1.221611e+00	 3.865271e-02	 2.209407e+01
1	 1.221131e+00	 5.163960e-02	 2.194783e+01
1	 1.220510e+00	 6.467464e-02	 2.183668e+01
1	 1.229630e+00	 0.000000e+00	 2.256503e+01
1	 1.229562e+00	 1.290883e-02	 2.229291e+01
1	 1.229357e+00	 2.587176e-02	 2.206359e+01
1	 1.229015e+00	 3.888697e-02	 2.187486e+01
1	 1.228532e+00	 5.195256e-02	 2.172446e+01
1	 1.227907e+00	 6.506660e-02	 2.161008e+01
1	 1.237037e+00	 0.000000e+00	 2.236818e+01
1	 1.236969e+00	 1.298659e-02	 2.208892e+01
1	 1.236763e+00	 2.602762e-02	 2.185341e+01
1	 1.236418e+00	 3.912123e-02	 2.165941e+01
1	 1.235932e+00	 5.226553e-02	 2.150463e+01
1	 1.235304e+00	 6.545857e-02	 2.138672e+01
1	 1.244444e+00	 0.000000e+00	 2.217499e+01
1	 1.244376e+00	 1.306436e-02	 2.188868e+01
1	 1.244169e+00	 2.618347e-02	 2.164696e+01
1	 1.243822e+00	 3.935549e-02	 2.144758e+01
1	 1.243333e+00	 5.257850e-02	 2.128822e+01
1	 1.242701e+00	 6.585054e-02	 2.116652e+01
1	 1.251852e+00	 0.000000e+00	 2.198530e+01
1	 1.251783e+00	 1.314212e-02	 2.169205e+01
1	 1.251575e+00	 2.633933e-02	 2.144413e+01
1	 1.251226e+00	 3.958975e-02	 2.123926e+01
1	 1.250734e+00	 5.289147e-02	 2.107513e+01
1	 1.250098e+00	 6.624251e-02	 2.094937e+01
1	 1.259259e+00	 0.000000e+00	 2.179897e+01
1	 1.259190e+00	 1.321988e-02	 2.149889e+01
1	 1.258980e+00	 2.649518e-02	 2.124477e+01
1	 1.258629e+00	 3.982401e-02	 2.103433e+01
1	 1.258135e+00	 5.320443e-02	 2.086526e+01
1	 1.257495e+00	 6.663447e-02	 2.073519e+01
1	 1.220510e+00	 6.467464e-02	 2.183668e+01
1	 1.219746e+00	 7.775585e-02	 2.175949e+01
1	 1.218839e+00	 9.088122e-02	 2.171499e+01
1	 1.217785e+00	 1.040487e-01	 2.170064e+01
1	 1.216585e+00	 1.172560e-01	 2.171392e+01
1	 1.215235e+00	 1.305012e-01	 2.175227e+01
1	 1.227907e+00	 6.506660e-02	 2.161008e+01
1	 1.227139e+00	 7.822710e-02	 2.153058e+01
1	 1.226226e+00	 9.143201e-02	 2.148469e+01
1	 1.225166e+00	 1.046793e-01	 2.146987e+01
1	 1.223958e+00	 1.179667e-01	 2.148356e+01
1	 1.222600e+00	 1.312921e-01	 2.152318e+01
1	 1.235304e+00	 6.545857e-02	 2.138672e+01
1	 1.234531e+00	 7.869835e-02	 2.130457e+01
1	 1.233612e+00	 9.198281e-02	 2.125691e+01
1	 1.232546e+00	 1.053098e-01	 2.124117e+01
1	 1.231331e+00	 1.186773e-01	 2.125477e+01
1	 1.229965e+00	 1.320830e-01	 2.129511e+01
1	 1.242701e+00	 6.585054e-02	 2.116652e+01
1	 1.241924e+00	 7.916960e-02	 2.108138e+01
1	 1.240999e+00	 9.253360e-02	 2.103156e+01
1	 1.239927e+00	 1.059404e-01	 2.101448e+01
1	 1.238704e+00	 1.193880e-01	 2.102751e+01
1	 1.237330e+00	 1.328739e-01	 2.106803e+01
1	 1.250098e+00	 6.624251e-02	 2.094937e+01
1	 1.249316e+00	 7.964084e-02	 2.086092e+01
1	 1.248386e+00	 9.308440e-02	 2.080858e+01
1	 1.247307e+00	 1.065710e-01	 2.078974e+01
1	 1.246078e+00	 1.200986e-01	 2.080174e+01
1	 1.244695e+00	 1.336648e-01	 2.084194e+01
1	 1.257495e+00	 6.663447e-02	 2.073519e+01
1	 1.256708e+00	 8.011209e-02	 2.064312e+01
1	 1.255773e+00	 9.363520e-02	 2.058790e+01
1	 1.254688e+00	 1.072016e-01	 2.056689e+01
1	 1.253451e+00	 1.208092e-01	 2.057742e+01
1	 1.252061e+00	 1.344557e-01	 2.061681e+01
1	 1.215235e+00	 1.305012e-01	 2.175227e+01
1	 1.213736e+00	 1.437818e-01	 2.181502e+01
1	 1.212084e+00	 1.570957e-01	 2.190152e+01
1	 1.210280e+00	 1.704405e-01	 2.200931e+01
1	 1.208321e+00	 1.838139e-01	 2.213595e+01
1	 1.206206e+00	 1.972134e-01	 2.227903e+01
1	 1.222600e+00	 1.312921e-01	 2.152318e+01
1	 1.221092e+00	 1.446532e-01	 2.158811e+01
1	 1.219430e+00	 1.580478e-01	 2.167778e+01
1	 1.217615e+00	 1.714735e-01	 2.178969e+01
1	 1.215644e+00	 1.849280e-01	 2.192137e+01
1	 1.213517e+00	 1.984087e-01	 2.207036e+01
1	 1.229965e+00	 1.320830e-01	 2.129511e+01
1	 1.228447e+00	 1.455246e-01	 2.136161e+01
1	 1.226776e+00	 1.589999e-01	 2.145376e+01
1	 1.224950e+00	 1.725065e-01	 2.156906e+01
1	 1.222967e+00	 1.860420e-01	 2.170499e+01
1	 1.220827e+00	 1.996039e-01	 2.185910e+01
1	 1.237330e+00	 1.328739e-01	 2.106803e+01
1	 1.235803e+00	 1.463960e-01	 2.113551e+01
1	 1.234122e+00	 1.599520e-01	 2.122947e+01
1	 1.232285e+00	 1.735395e-01	 2.134742e+01
1	 1.230290e+00	 1.871560e-01	 2.148684e+01
1	 1.228137e+00	 2.007991e-01	 2.164528e+01
1	 1.244695e+00	 1.336648e-01	 2.084194e+01
1	 1.243159e+00	 1.472674e-01	 2.090981e+01
1	 1.241468e+00	 1.609041e-01	 2.100493e+01
1	 1.239620e+00	 1.745724e-01	 2.112481e+01
1	 1.237614e+00	 1.882700e-01	 2.126696e+01
1	 1.235448e+00	 2.019944e-01	 2.142892e+01
1	 1.252061e+00	 1.344557e-01	 2.061681e+01
1	 1.250515e+00	 1.481388e-01	 2.068451e+01
1	 1.248814e+00	 1.618562e-01	 2.078015e+01
1	 1.246955e+00	 1.756054e-01	 2.090125e+01
1	 1.244937e+00	 1.893840e-01	 2.104537e+01
1	 1.242758e+00	 2.031896e-01	 2.121005e+01
1	 1.206206e+00	 1.972134e-01	 2.227903e+01
1	 1.203935e+00	 2.106366e-01	 2.243322e+01
1	 1.201505e+00	 2.240809e-01	 2.259329e+01
1	 1.198916e+00	 2.375438e-01	 2.275705e+01
1	 1.196167e+00	 2.510227e-01	 2.292235e+01
1	 1.193256e+00	 2.645149e-01	 2.308710e+01
1	 1.213517e+00	 1.984087e-01	 2.207036e+01
1	 1.211232e+00	 2.119132e-01	 2.223124e+01
1	 1.208787e+00	 2.254390e-01	 2.239865e+01
1	 1.206182e+00	 2.389834e-01	 2.257036e+01
1	 1.203416e+00	 2.525440e-01	 2.274420e+01
1	 1.200488e+00	 2.661180e-01	 2.291804e+01
1	 1.220827e+00	 1.996039e-01	 2.185910e+01
1	 1.218528e+00	 2.131898e-01	 2.202588e+01
1	 1.216069e+00	 2.267970e-01	 2.219988e+01
1	 1.213449e+00	 2.404231e-01	 2.237884e+01
1	 1.210666e+00	 2.540654e-01	 2.256050e+01
1	 1.207719e+00	 2.677211e-01	 2.274273e+01
1	 1.228137e+00	 2.007991e-01	 2.164528e+01
1	 1.225825e+00	 2.144663e-01	 2.181718e+01
1	 1.223351e+00	 2.281551e-01	 2.199705e+01
1	 1.220715e+00	 2.418628e-01	 2.218255e+01
1	 1.217915e+00	 2.555867e-01	 2.237138e+01
1	 1.214951e+00	 2.693242e-01	 2.256131e+01
1	 1.235448e+00	 2.019944e-01	 2.142892e+01
1	 1.233121e+00	 2.157429e-01	 2.160517e+01
1	 1.230633e+00	 2.295132e-01	 2.179020e+01
1	 1.227981e+00	 2.433024e-01	 2.198157e+01
1	 1.225165e+00	 2.571081e-01	 2.217692e+01
1	 1.222183e+00	 2.709274e-01	 2.237395e+01
1	 1.242758e+00	 2.031896e-01	 2.121005e+01
1	 1.240418e+00	 2.170195e-01	 2.138989e+01
1	 1.237915e+00	 2.308712e-01	 2.157937e+01
1	 1.235247e+00	 2.447421e-01	 2.177598e+01
1	 1.232414e+00	 2.586294e-01	 2.197724e+01
1	 1.229415e+00	 2.725305e-01	 2.218077e+01
1	 1.193256e+00	 2.645149e-01	 2.308710e+01
1	 1.190182e+00	 2.780177e-01	 2.325139e+01
1	 1.186945e+00	 2.915285e-01	 2.341565e+01
1	 1.183543e+00	 3.050445e-01	 2.357853e+01
1	 1.179977e+00	 3.185628e-01	 2.373880e+01
1	 1.176244e+00	 3.320807e-01	 2.389541e+01
1	 1.200488e+00	 2.661180e-01	 2.291804e+01
1	 1.197395e+00	 2.797027e-01	 2.309225e+01
1	 1.194139e+00	 2.932954e-01	 2.326752e+01
1	 1.190716e+00	 3.068933e-01	 2.344235e+01
1	 1.187128e+00	 3.204935e-01	 2.361540e+01
1	 1.183373e+00	 3.340933e-01	 2.378548e+01
1	 1.207719e+00	 2.677211e-01	 2.274273e+01
1	 1.204608e+00	 2.813877e-01	 2.292613e+01
1	 1.201332e+00	 2.950622e-01	 2.311163e+01
1	 1.197889e+00	 3.087420e-01	 2.329767e+01
1	 1.194279e+00	 3.224242e-01	 2.348282e+01
1	 1.190501e+00	 3.361059e-01	 2.366580e+01
1	 1.214951e+00	 2.693242e-01	 2.256131e+01
1	 1.211822e+00	 2.830726e-01	 2.275319e+01
1	 1.208526e+00	 2.968291e-01	 2.294815e+01
1	 1.205062e+00	 3.105908e-01	 2.314459e+01
1	 1.201431e+00	 3.243549e-01	 2.334104e+01
1	 1.197630e+00	 3.381185e-01	 2.353616e+01
1	 1.222183e+00	 2.709274e-01	 2.237395e+01
1	 1.219035e+00	 2.847576e-01	 2.257361e+01
1	 1.215719e+00	 2.985959e-01	 2.277722e+01
1	 1.212235e+00	 3.124395e-01	 2.298318e+01
1	 1.208582e+00	 3.262856e-01	 2.319001e+01
1	 1.204759e+00	 3.401311e-01	 2.339635e+01
1	 1.229415e+00	 2.725305e-01	 2.218077e+01
1	 1.226248e+00	 2.864425e-01	 2.238755e+01
1	 1.222913e+00	 3.003627e-01	 2.259899e+01
1	 1.219408e+00	 3.142883e-01	 2.281352e+01
1	 1.215734e+00	 3.282163e-01	 2.302969e+01
1	 1.211888e+00	 3.421438e-01	 2.324617e+01
1	 1.176244e+00	 3.320807e-01	 2.389541e+01
1	 1.172344e+00	 3.455952e-01	 2.402419e+01
1	 1.168277e+00	 3.591035e-01	 2.410243e+01
1	 1.164042e+00	 3.726026e-01	 2.413124e+01
1	 1.159639e+00	 3.860895e-01	 2.411169e+01
1	 1.155066e+00	 3.995612e-01	 2.404473e+01
1	 1.183373e+00	 3.340933e-01	 2.378548e+01
1	 1.179449e+00	 3.476897e-01	 2.392667e+01
1	 1.175358e+00	 3.612799e-01	 2.401473e+01
1	 1.171097e+00	 3.748607e-01	 2.405110e+01
1	 1.166667e+00	 3.884294e-01	 2.403708e+01
1	 1.162067e+00	 4.019828e-01	 2.397391e+01
1	 1.190501e+00	 3.361059e-01	 2.366580e+01
1	 1.186555e+00	 3.497843e-01	 2.381883e+01
1	 1.182438e+00	 3.634562e-01	 2.391602e+01
1	 1.178152e+00	 3.771189e-01	 2.395903e+01
1	 1.173695e+00	 3.907693e-01	 2.394939e+01
1	 1.169067e+00	 4.044044e-01	 2.388852e+01
1	 1.197630e+00	 3.381185e-01	 2.353616e+01
1	 1.193660e+00	 3.518788e-01	 2.370032e+01
1	 1.189519e+00	 3.656326e-01	 2.380593e+01
1	 1.185207e+00	 3.793771e-01	 2.385479e+01
1	 1.180723e+00	 3.931093e-01	 2.384859e+01
1	 1.176067e+00	 4.068260e-01	 2.378889e+01
1	 1.204759e+00	 3.401311e-01	 2.339635e+01
1	 1.200765e+00	 3.539733e-01	 2.357081e+01
1	 1.196599e+00	 3.678090e-01	 2.368410e+01
1	 1.192262e+00	 3.816353e-01	 2.373812e+01
1	 1.187751e+00	 3.954492e-01	 2.373464e+01
1	 1.183068e+00	 4.092476e-01	 2.367534e+01
1	 1.211888e+00	 3.421438e-01	 2.324617e+01
1	 1.207870e+00	 3.560678e-01	 2.342995e+01
1	 1.203680e+00	 3.699854e-01	 2.355018e+01
1	 1.199316e+00	 3.838935e-01	 2.360876e+01
1	 1.194779e+00	 3.977892e-01	 2.360752e+01
1	 1.190068e+00	 4.116692e-01	 2.354819e+01
1	 1.155066e+00	 3.995612e-01	 2.404473e+01
1	 1.150324e+00	 4.130148e-01	 2.390323e+01
1	 1.145413e+00	 4.264472e-01	 2.366100e+01
1	 1.140331e+00	 4.398553e-01	 2.332050e+01
1	 1.135079e+00	 4.532360e-01	 2.288429e+01
1	 1.129657e+00	 4.665862e-01	 2.235497e+01
1	 1.162067e+00	 4.019828e-01	 2.397391e+01
1	 1.157296e+00	 4.155179e-01	 2.383552e+01
1	 1.152354e+00	 4.290317e-01	 2.359646e+01
1	 1.147242e+00	 4.425211e-01	 2.325891e+01
1	 1.141958e+00	 4.559829e-01	 2.282518e+01
1	 1.136503e+00	 4.694140e-01	 2.229768e+01
1	 1.169067e+00	 4.044044e-01	 2.388852e+01
1	 1.164268e+00	 4.180211e-01	 2.375171e+01
1	 1.159296e+00	 4.316163e-01	 2.351463e+01
1	 1.154153e+00	 4.451869e-01	 2.317927e+01
1	 1.148838e+00	 4.587297e-01	 2.274778e+01
1	 1.143350e+00	 4.722418e-01	 2.222244e+01
1	 1.176067e+00	 4.068260e-01	 2.378889e+01
1	 1.171239e+00	 4.205242e-01	 2.365248e+01
1	 1.166238e+00	 4.342008e-01	 2.341635e+01
1	 1.161064e+00	 4.478526e-01	 2.308239e+01
1	 1.155717e+00	 4.614766e-01	 2.265270e+01
1	 1.150196e+00	 4.750696e-01	 2.212948e+01
1	 1.183068e+00	 4.092476e-01	 2.367534e+01
1	 1.178211e+00	 4.230273e-01	 2.353847e+01
1	 1.173180e+00	 4.367853e-01	 2.330240e+01
1	 1.167975e+00	 4.505184e-01	 2.296907e+01
1	 1.162596e+00	 4.642235e-01	 2.254054e+01
1	 1.157042e+00	 4.778974e-01	 2.201906e+01
1	 1.190068e+00	 4.116692e-01	 2.354819e+01
1	 1.185183e+00	 4.255304e-01	 2.341031e+01
1	 1.180122e+00	 4.393698e-01	 2.317360e+01
1	 1.174886e+00	 4.531842e-01	 2.284007e+01
1	 1.169475e+00	 4.669704e-01	 2.241191e+01
1	 1.163889e+00	 4.807252e-01	 2.189141e+01
1	 1.129657e+00	 4.665862e-01	 2.235497e+01
1	 1.124064e+00	 4.799028e-01	 2.174164e+01
1	 1.118301e+00	 4.931826e-01	 2.105296e+01
1	 1.112368e+00	 5.064225e-01	 2.029090e+01
1	 1.106265e+00	 5.196193e-01	 1.945722e+01
1	 1.099992e+00	 5.327699e-01	 1.855354e+01
1	 1.136503e+00	 4.694140e-01	 2.229768e+01
1	 1.130877e+00	 4.828113e-01	 2.168409e+01
1	 1.125079e+00	 4.961716e-01	 2.099172e+01
1	 1.119110e+00	 5.094917e-01	 2.022250e+01
1	 1.112970e+00	 5.227685e-01	 1.937817e+01
1	 1.106659e+00	 5.359988e-01	 1.846037e+01
1	 1.143350e+00	 4.722418e-01	 2.222244e+01
1	 1.137689e+00	 4.857198e-01	 2.160953e+01
1	 1.131857e+00	 4.991606e-01	 2.091499e+01
1	 1.125852e+00	 5.125610e-01	 2.014062e+01
1	 1.119675e+00	 5.259177e-01	 1.928811e+01
1	 1.113326e+00	 5.392277e-01	 1.835903e+01
1	 1.150196e+00	 4.750696e-01	 2.212948e+01
1	 1.144502e+00	 4.886283e-01	 2.151776e+01
1	 1.138634e+00	 5.021495e-01	 2.082211e+01
1	 1.132593e+00	 5.156302e-01	 2.004416e+01
1	 1.126379e+00	 5.290670e-01	 1.918548e+01
1	 1.119992e+00	 5.424566e-01	 1.824755e+01
1	 1.157042e+00	 4.778974e-01	 2.201906e+01
1	 1.151314e+00	 4.915368e-01	 2.140857e+01
1	 1.145412e+00	 5.051385e-01	 2.071242e+01
1	 1.139335e+00	 5.186994e-01	 1.993204e+01
1	 1.133084e+00	 5.322162e-01	 1.906879e+01
1	 1.126659e+00	 5.456855e-01	 1.812400e+01
1	 1.163889e+00	 4.807252e-01	 2.189141e+01
1	 1.158127e+00	 4.944453e-01	 2.128175e+01
1	 1.152189e+00	 5.081275e-01	 2.058530e+01
1	 1.146077e+00	 5.217686e-01	 1.980320e+01
1	 1.139788e+00	 5.353654e-01	 1.893656e+01
1	 1.133326e+00	 5.489144e-01	 1.798649e+01
1	 1.099992e+00	 5.327699e-01	 1.855354e+01
1	 1.093550e+00	 5.458710e-01	 1.759223e+01
1	 1.086939e+00	 5.589196e-01	 1.658469e+01
1	 1.080159e+00	 5.719123e-01	 1.553073e+01
1	 1.073211e+00	 5.848460e-01	 1.442995e+01
1	 1.066096e+00	 5.977176e-01	 1.328175e+01
1	 1.106659e+00	 5.359988e-01	 1.846037e+01
1	 1.100178e+00	 5.491794e-01	 1.748138e+01
1	 1.093526e+00	 5.623070e-01	 1.645277e+01
1	 1.086705e+00	 5.753784e-01	 1.537474e+01
1	 1.079716e+00	 5.883906e-01	 1.424724e+01
1	 1.072557e+00	 6.013401e-01	 1.306989e+01
1	 1.113326e+00	 5.392277e-01	 1.835903e+01
1	 1.106805e+00	 5.524877e-01	 1.736502e+01
1	 1.100114e+00	 5.656944e-01	 1.631724e+01
1	 1.093252e+00	 5.788446e-01	 1.521626e+01
1	 1.086220e+00	 5.919351e-01	 1.406230e+01
1	 1.079018e+00	 6.049627e-01	 1.285528e+01
1	 1.119992e+00	 5.424566e-01	 1.824755e+01
1	 1.113433e+00	 5.557960e-01	 1.724090e+01
1	 1.106701e+00	 5.690817e-01	 1.617587e+01
1	 1.099798e+00	 5.823107e-01	 1.505332e+01
1	 1.092724e+00	 5.954796e-01	 1.387378e+01
1	 1.085480e+00	 6.085852e-01	 1.263739e+01
1	 1.126659e+00	 5.456855e-01	 1.812400e+01
1	 1.120060e+00	 5.591043e-01	 1.710682e+01
1	 1.113289e+00	 5.724691e-01	 1.602645e+01
1	 1.106345e+00	 5.857768e-01	 1.488403e+01
1	 1.099228e+00	 5.990241e-01	 1.368032e+01
1	 1.091941e+00	 6.122077e-01	 1.241575e+01
1	 1.133326e+00	 5.489144e-01	 1.798649e+01
1	 1.126688e+00	 5.624126e-01	 1.696062e+01
1	 1.119876e+00	 5.758565e-01	 1.586685e+01
1	 1.112891e+00	 5.892430e-01	 1.470652e+01
1	 1.105733e+00	 6.025686e-01	 1.348063e+01
1	 1.098402e+00	 6.158303e-01	 1.218989e+01
1	 1.066096e+00	 5.977176e-01	 1.328175e+01
1	 1.058814e+00	 6.105238e-01	 1.210365e+01
1	 1.051367e+00	 6.232615e-01	 1.091309e+01
1	 1.043754e+00	 6.359276e-01	 9.709127e+00
1	 1.035978e+00	 6.485188e-01	 8.490785e+00
1	 1.028039e+00	 6.610321e-01	 7.257088e+00
1	 1.072557e+00	 6.013401e-01	 1.306989e+01
1	 1.065231e+00	 6.142240e-01	 1.186169e+01
1	 1.057739e+00	 6.270389e-01	 1.064101e+01
1	 1.050080e+00	 6.397817e-01	 9.406357e+00
1	 1.042257e+00	 6.524492e-01	 8.156238e+00
1	 1.034269e+00	 6.650383e-01	 6.889147e+00
1	 1.079018e+00	 6.049627e-01	 1.285528e+01
1	 1.071648e+00	 6.179241e-01	 1.161594e+01
1	 1.064111e+00	 6.308162e-01	 1.036399e+01
1	 1.056406e+00	 6.436358e-01	 9.097461e+00
1	 1.048535e+00	 6.563796e-01	 7.814348e+00
1	 1.040500e+00	 6.690446e-01	 6.512614e+00
1	 1.085480e+00	 6.085852e-01	 1.263739e+01
1	 1.078066e+00	 6.216243e-01	 1.136674e+01
1	 1.070483e+00	 6.345936e-01	 1.008293e+01
1	 1.062732e+00	 6.474899e-01	 8.783547e+00
1	 1.054814e+00	 6.603101e-01	 7.466115e+00
1	 1.046730e+00	 6.730509e-01	 6.128054e+00
1	 1.091941e+00	 6.122077e-01	 1.241575e+01
1	 1.084483e+00	 6.253244e-01	 1.111446e+01
1	 1.076855e+00	 6.383709e-01	 9.798698e+00
1	 1.069058e+00	 6.513440e-01	 8.465699e+00
1	 1.061093e+00	 6.642405e-01	 7.112513e+00
1	 1.052961e+00	 6.770571e-01	 5.736021e+00
1	 1.098402e+00	 6.158303e-01	 1.218989e+01
1	 1.090900e+00	 6.290246e-01	 1.085943e+01
1	 1.083226e+00	 6.421483e-01	 9.512158e+00
1	 1.075383e+00	 6.551981e-01	 8.144973e+00
1	 1.067371e+00	 6.681709e-01	 6.754496e+00
1	 1.059191e+00	 6.810634e-01	 5.337051e+00
1	 1.028039e+00	 6.610321e-01	 7.257088e+00
1	 1.019938e+00	 6.734643e-01	 6.023364e+00
1	 1.011676e+00	 6.858124e-01	 4.805362e+00
1	 1.003255e+00	 6.980732e-01	 3.602800e+00
1	 9.946763e-01	 7.102438e-01	 2.415493e+00
1	 9.859408e-01	 7.223211e-01	 1.243358e+00
1	 1.034269e+00	 6.650383e-01	 6.889147e+00
1	 1.026119e+00	 6.775459e-01	 5.620747e+00
1	 1.017807e+00	 6.899688e-01	 4.367848e+00
1	 1.009335e+00	 7.023040e-01	 3.130757e+00
1	 1.000705e+00	 7.145483e-01	 1.909918e+00
1	 9.919162e-01	 7.266988e-01	 7.059097e-01
1	 1.040500e+00	 6.690446e-01	 6.512614e+00
1	 1.032301e+00	 6.816275e-01	 5.208483e+00
1	 1.023939e+00	 6.941253e-01	 3.920080e+00
1	 1.015416e+00	 7.065347e-01	 2.648340e+00
1	 1.006733e+00	 7.188528e-01	 1.394393e+00
1	 9.978916e-01	 7.310765e-01	 1.595605e-01
1	 1.046730e+00	 6.730509e-01	 6.128054e+00
1	 1.038482e+00	 6.857091e-01	 4.786649e+00
1	 1.030070e+00	 6.982817e-01	 3.461868e+00
1	 1.021496e+00	 7.107655e-01	 2.155309e+00
1	 1.012761e+00	 7.231573e-01	 8.688457e-01
1	 1.003867e+00	 7.354542e-01	-3.953792e-01
1	 1.052961e+00	 6.770571e-01	 5.736021e+00
1	 1.044663e+00	 6.897907e-01	 4.355323e+00
1	 1.036202e+00	 7.024381e-01	 2.993027e+00
1	 1.027576e+00	 7.149962e-01	 1.651431e+00
1	 1.018790e+00	 7.274619e-01	 3.332052e-01
1	 1.009842e+00	 7.398319e-01	-9.586063e-01
1	 1.059191e+00	 6.810634e-01	 5.337051e+00
1	 1.050845e+00	 6.938723e-01	 3.914578e+00
1	 1.042333e+00	 7.065946e-01	 2.513376e+00
1	 1.033657e+00	 7.192270e-01	 1.136475e+00
1	 1.024818e+00	 7.317664e-01	-2.125982e-01
1	 1.015818e+00	 7.442096e-01	-1.529825e+00
1	 9.859408e-01	 7.223211e-01	 1.243358e+00
1	 9.770504e-01	 7.343022e-01	 1.186714e-01
1	 9.680065e-01	 7.461840e-01	-9.229361e-01
1	 9.588109e-01	 7.579636e-01	-1.876035e+00
1	 9.494652e-01	 7.696383e-01	-2.734663e+00
1	 9.399712e-01	 7.812050e-01	-3.492335e+00
1	 9.919162e-01	 7.266988e-01	 7.059097e-01
1	 9.829719e-01	 7.387525e-01	-4.461728e-01
1	 9.738732e-01	 7.507063e-01	-1.508593e+00
1	 9.646218e-01	 7.625574e-01	-2.476314e+00
1	 9.552195e-01	 7.743027e-01	-3.343779e+00
1	 9.456680e-01	 7.859396e-01	-4.104923e+00
1	 9.978916e-01	 7.310765e-01	 1.595605e-01
1	 9.888934e-01	 7.432028e-01	-1.018492e+00
1	 9.797399e-01	 7.552286e-01	-2.100282e+00
1	 9.704328e-01	 7.671511e-01	-3.081245e+00
1	 9.609738e-01	 7.789672e-01	-3.956329e+00
1	 9.513648e-01	 7.906742e-01	-4.720006e+00
1	 1.003867e+00	 7.354542e-01	-3.953792e-01
1	 9.948150e-01	 7.476531e-01	-1.597570e+00
1	 9.856066e-01	 7.597510e-01	-2.697046e+00
1	 9.762438e-01	 7.717448e-01	-3.689796e+00
1	 9.667282e-01	 7.836317e-01	-4.571372e+00
1	 9.570616e-01	 7.954087e-01	-5.336894e+00
1	 1.009842e+00	 7.398319e-01	-9.586063e-01
1	 1.000736e+00	 7.521034e-01	-2.182706e+00
1	 9.914734e-01	 7.642733e-01	-3.297950e+00
1	 9.820548e-01	 7.763385e-01	-4.300961e+00
1	 9.724825e-01	 7.882962e-01	-5.187989e+00
1	 9.627584e-01	 8.001433e-01	-5.954915e+00
1	 1.015818e+00	 7.442096e-01	-1.529825e+00
1	 1.006658e+00	 7.565537e-01	-2.773216e+00
1	 9.973401e-01	 7.687956e-01	-3.902082e+00
1	 9.878657e-01	 7.809322e-01	-4.913757e+00
1	 9.782368e-01	 7.929606e-01	-5.805283e+00
1	 9.684552e-01	 8.048779e-01	-6.573414e+00
1	 9.399712e-01	 7.812050e-01	-3.492335e+00
1	 9.303309e-01	 7.926611e-01	-4.163690e+00
1	 9.205461e-01	 8.040037e-01	-4.768223e+00
1	 9.106190e-01	 8.152302e-01	-5.306436e+00
1	 9.005514e-01	 8.263379e-01	-5.778944e+00
1	 8.903458e-01	 8.373241e-01	-6.186472e+00
1	 9.456680e-01	 7.859396e-01	-4.104923e+00
1	 9.359693e-01	 7.974651e-01	-4.777783e+00
1	 9.261252e-01	 8.088765e-01	-5.384790e+00
1	 9.161379e-01	 8.201710e-01	-5.926176e+00
1	 9.060093e-01	 8.313460e-01	-6.402285e+00
1	 8.957418e-01	 8.423988e-01	-6.813567e+00
1	 9.513648e-01	 7.906742e-01	-4.720006e+00
1	 9.416076e-01	 8.022691e-01	-5.393691e+00
1	 9.317043e-01	 8.137492e-01	-6.002648e+00
1	 9.216568e-01	 8.251118e-01	-6.546833e+00
1	 9.114672e-01	 8.363541e-01	-7.026304e+00
1	 9.011378e-01	 8.474735e-01	-7.441219e+00
1	 9.570616e-01	 7.954087e-01	-5.336894e+00
1	 9.472460e-01	 8.070731e-01	-6.011026e+00
1	 9.372833e-01	 8.186220e-01	-6.621642e+00
1	 9.271757e-01	 8.300526e-01	-7.168420e+00
1	 9.169251e-01	 8.413622e-01	-7.651121e+00
1	 9.065339e-01	 8.525481e-01	-8.069590e+00
1	 9.627584e-01	 8.001433e-01	-5.954915e+00
1	 9.528844e-01	 8.118771e-01	-6.629408e+00
1	 9.428624e-01	 8.234947e-01	-7.241623e+00
1	 9.326946e-01	 8.349934e-01	-7.790954e+00
1	 9.223830e-01	 8.463703e-01	-8.276853e+00
1	 9.119299e-01	 8.576228e-01	-8.698837e+00
1	 9.684552e-01	 8.048779e-01	-6.573414e+00
1	 9.585227e-01	 8.166811e-01	-7.248466e+00
1	 9.484415e-01	 8.283675e-01	-7.862445e+00
1	 9.382135e-01	 8.399341e-01	-8.414450e+00
1	 9.278409e-01	 8.513784e-01	-8.903617e+00
1	 9.173259e-01	 8.626975e-01	-9.329114e+00
1	 8.903458e-01	 8.373241e-01	-6.186472e+00
1	 8.800041e-01	 8.481863e-01	-6.561193e+00
1	 8.695287e-01	 8.589220e-01	-6.933776e+00
1	 8.589220e-01	 8.695287e-01	-7.302787e+00
1	 8.481863e-01	 8.800041e-01	-7.666816e+00
1	 8.373241e-01	 8.903458e-01	-8.024485e+00
1	 8.957418e-01	 8.423988e-01	-6.813567e+00
1	 8.853374e-01	 8.533268e-01	-7.191892e+00
1	 8.747986e-01	 8.641276e-01	-7.568159e+00
1	 8.641276e-01	 8.747986e-01	-7.941470e+00
1	 8.533268e-01	 8.853374e-01	-8.310976e+00
1	 8.423988e-01	 8.957418e-01	-8.675876e+00
1	 9.011378e-01	 8.474735e-01	-7.441219e+00
1	 8.906708e-01	 8.584673e-01	-7.823229e+00
1	 8.800685e-01	 8.693332e-01	-8.203475e+00
1	 8.693332e-01	 8.800685e-01	-8.581475e+00
1	 8.584673e-01	 8.906708e-01	-8.956810e+00
1	 8.474735e-01	 9.011378e-01	-9.329122e+00
1	 9.065339e-01	 8.525481e-01	-8.069590e+00
1	 8.960042e-01	 8.636079e-01	-8.455345e+00
1	 8.853383e-01	 8.745387e-01	-8.839799e+00
1	 8.745387e-01	 8.853383e-01	-9.222760e+00
1	 8.636079e-01	 8.960042e-01	-9.604110e+00
1	 8.525481e-01	 9.065339e-01	-9.983805e+00
1	 9.119299e-01	 8.576228e-01	-8.698837e+00
1	 9.013375e-01	 8.687484e-01	-9.088383e+00
1	 8.906082e-01	 8.797443e-01	-9.477204e+00
1	 8.797443e-01	 8.906082e-01	-9.865280e+00
1	 8.687484e-01	 9.013375e-01	-1.025267e+01
1	 8.576228e-01	 9.119299e-01	-1.063951e+01
1	 9.173259e-01	 8.626975e-01	-9.329114e+00
1	 9.066709e-01	 8.738889e-01	-9.722477e+00
1	 8.958781e-01	 8.849499e-01	-1.011576e+01
1	 8.849499e-01	 8.958781e-01	-1.050899e+01
1	 8.738889e-01	 9.066709e-01	-1.090229e+01
1	 8.626975e-01	 9.173259e-01	-1.129584e+01
1	 8.373241e-01	 8.903458e-01	-8.024485e+00
1	 8.263379e-01	 9.005514e-01	-8.409305e+00
1	 8.152302e-01	 9.106190e-01	-8.854765e+00
1	 8.040037e-01	 9.205461e-01	-9.359502e+00
1	 7.926611e-01	 9.303309e-01	-9.922198e+00
1	 7.812050e-01	 9.399712e-01	-1.054158e+01
1	 8.423988e-01	 8.957418e-01	-8.675876e+00
1	 8.313460e-01	 9.060093e-01	-9.070190e+00
1	 8.201710e-01	 9.161379e-01	-9.527012e+00
1	 8.088765e-01	 9.261252e-01	-1.004420e+01
1	 7.974651e-01	 9.359693e-01	-1.061960e+01
1	 7.859396e-01	 9.456680e-01	-1.125109e+01
1	 8.474735e-01	 9.011378e-01	-9.329122e+00
1	 8.363541e-01	 9.114672e-01	-9.732640e+00
1	 8.251118e-01	 9.216568e-01	-1.020008e+01
1	 8.137492e-01	 9.317043e-01	-1.072885e+01
1	 8.022691e-01	 9.416076e-01	-1.131635e+01
1	 7.906742e-01	 9.513648e-01	-1.195998e+01
1	 8.525481e-01	 9.065339e-01	-9.983805e+00
1	 8.413622e-01	 9.169251e-01	-1.039609e+01
1	 8.300526e-01	 9.271757e-01	-1.087343e+01
1	 8.186220e-01	 9.372833e-01	-1.141314e+01
1	 8.070731e-01	 9.472460e-01	-1.201250e+01
1	 7.954087e-01	 9.570616e-01	-1.266880e+01
1	 8.576228e-01	 9.119299e-01	-1.063951e+01
1	 8.463703e-01	 9.223830e-01	-1.106000e+01
1	 8.349934e-01	 9.326946e-01	-1.154656e+01
1	 8.234947e-01	 9.428624e-01	-1.209674e+01
1	 8.118771e-01	 9.528844e-01	-1.270808e+01
1	 8.001433e-01	 9.627584e-01	-1.337810e+01
1	 8.626975e-01	 9.173259e-01	-1.129584e+01
1	 8.513784e-01	 9.278409e-01	-1.172382e+01
1	 8.399341e-01	 9.382135e-01	-1.221896e+01
1	 8.283675e-01	 9.484415e-01	-1.277935e+01
1	 8.166811e-01	 9.585227e-01	-1.340313e+01
1	 8.048779e-01	 9.684552e-01	-1.408843e+01
1	 7.812050e-01	 9.399712e-01	-1.054158e+01
1	 7.696383e-01	 9.494652e-01	-1.122902e+01
1	 7.579636e-01	 9.588109e-01	-1.200268e+01
1	 7.461840e-01	 9.680065e-01	-1.287188e+01
1	 7.343022e-01	 9.770504e-01	-1.384637e+01
1	 7.223211e-01	 9.859408e-01	-1.493635e+01
1	 7.859396e-01	 9.456680e-01	-1.125109e+01
1	 7.743027e-01	 9.552195e-01	-1.195215e+01
1	 7.625574e-01	 9.646218e-01	-1.274395e+01
1	 7.507063e-01	 9.738732e-01	-1.363630e+01
1	 7.387525e-01	 9.829719e-01	-1.463951e+01
1	 7.266988e-01	 9.919162e-01	-1.576432e+01
1	 7.906742e-01	 9.513648e-01	-1.195998e+01
1	 7.789672e-01	 9.609738e-01	-1.267574e+01
1	 7.671511e-01	 9.704328e-01	-1.348763e+01
1	 7.552286e-01	 9.797399e-01	-1.440534e+01
1	 7.432028e-01	 9.888934e-01	-1.543906e+01
1	 7.310765e-01	 9.978916e-01	-1.659944e+01
1	 7.954087e-01	 9.570616e-01	-1.266880e+01
1	 7.836317e-01	 9.667282e-01	-1.340081e+01
1	 7.717448e-01	 9.762438e-01	-1.423488e+01
1	 7.597510e-01	 9.856066e-01	-1.517999e+01
1	 7.476531e-01	 9.948150e-01	-1.624559e+01
1	 7.354542e-01	 1.003867e+00	-1.744155e+01
1	 8.001433e-01	 9.627584e-01	-1.337810e+01
1	 7.882962e-01	 9.724825e-01	-1.412833e+01
1	 7.763385e-01	 9.820548e-01	-1.498681e+01
1	 7.642733e-01	 9.914734e-01	-1.596122e+01
1	 7.521034e-01	 1.000736e+00	-1.705963e+01
1	 7.398319e-01	 1.009842e+00	-1.829050e+01
1	 8.048779e-01	 9.684552e-01	-1.408843e+01
1	 7.929606e-01	 9.782368e-01	-1.485927e+01
1	 7.809322e-01	 9.878657e-01	-1.574453e+01
1	 7.687956e-01	 9.973401e-01	-1.674998e+01
1	 7.565537e-01	 1.006658e+00	-1.788172e+01
1	 7.442096e-01	 1.015818e+00	-1.914615e+01
1	 7.223211e-01	 9.859408e-01	-1.493635e+01
1	 7.102438e-01	 9.946763e-01	-1.612465e+01
1	 6.980732e-01	 1.003255e+00	-1.738929e+01
1	 6.858124e-01	 1.011676e+00	-1.873356e+01
1	 6.734643e-01	 1.019938e+00	-2.016077e+01
1	 6.610321e-01	 1.028039e+00	-2.167428e+01
1	 7.266988e-01	 9.919162e-01	-1.576432e+01
1	 7.145483e-01	 1.000705e+00	-1.699199e+01
1	 7.023040e-01	 1.009335e+00	-1.829838e+01
1	 6.899688e-01	 1.017807e+00	-1.968653e+01
1	 6.775459e-01	 1.026119e+00	-2.115953e+01
1	 6.650383e-01	 1.034269e+00	-2.272046e+01
1	 7.310765e-01	 9.978916e-01	-1.659944e+01
1	 7.188528e-01	 1.006733e+00	-1.786565e+01
1	 7.065347e-01	 1.015416e+00	-1.921202e+01
1	 6.941253e-01	 1.023939e+00	-2.064234e+01
1	 6.816275e-01	 1.032301e+00	-2.216043e+01
1	 6.690446e-01	 1.040500e+00	-2.377015e+01
1	 7.354542e-01	 1.003867e+00	-1.744155e+01
1	 7.231573e-01	 1.012761e+00	-1.874485e+01
1	 7.107655e-01	 1.021496e+00	-2.012925e+01
1	 6.982817e-01	 1.030070e+00	-2.160021e+01
1	 6.857091e-01	 1.038482e+00	-2.316329e+01
1	 6.730509e-01	 1.046730e+00	-2.482412e+01
1	 7.398319e-01	 1.009842e+00	-1.829050e+01
1	 7.274619e-01	 1.018790e+00	-1.962884e+01
1	 7.149962e-01	 1.027576e+00	-2.104911e+01
1	 7.024381e-01	 1.036202e+00	-2.255939e+01
1	 6.897907e-01	 1.044663e+00	-2.416791e+01
1	 6.770571e-01	 1.052961e+00	-2.588311e+01
1	 7.442096e-01	 1.015818e+00	-1.914615e+01
1	 7.317664e-01	 1.024818e+00	-2.051689e+01
1	 7.192270e-01	 1.033657e+00	-2.197068e+01
1	 7.065946e-01	 1.042333e+00	-2.351913e+01
1	 6.938723e-01	 1.050845e+00	-2.517412e+01
1	 6.810634e-01	 1.059191e+00	-2.694784e+01
1	 6.610321e-01	 1.028039e+00	-2.167428e+01
1	 6.485188e-01	 1.035978e+00	-2.325682e+01
1	 6.359276e-01	 1.043754e+00	-2.488877e+01
1	 6.232615e-01	 1.051367e+00	-2.656994e+01
1	 6.105238e-01	 1.058814e+00	-2.830003e+01
1	 5.977176e-01	 1.066096e+00	-3.007863e+01
1	 6.650383e-01	 1.034269e+00	-2.272046e+01
1	 6.524492e-01	 1.042257e+00	-2.435150e+01
1	 6.397817e-01	 1.050080e+00	-2.603395e+01
1	 6.270389e-01	 1.057739e+00	-2.776947e+01
1	 6.142240e-01	 1.065231e+00	-2.955969e+01
1	 6.013401e-01	 1.072557e+00	-3.140617e+01
1	 6.690446e-01	 1.040500e+00	-2.377015e+01
1	 6.563796e-01	 1.048535e+00	-2.545396e+01
1	 6.436358e-01	 1.056406e+00	-2.719302e+01
1	 6.308162e-01	 1.064111e+00	-2.898919e+01
1	 6.179241e-01	 1.071648e+00	-3.084429e+01
1	 6.049627e-01	 1.079018e+00	-3.276008e+01
1	 6.730509e-01	 1.046730e+00	-2.482412e+01
1	 6.603101e-01	 1.054814e+00	-2.656575e+01
1	 6.474899e-01	 1.062732e+00	-2.836774e+01
1	 6.345936e-01	 1.070483e+00	-3.023048e+01
1	 6.216243e-01	 1.078066e+00	-3.215427e+01
1	 6.085852e-01	 1.085480e+00	-3.413930e+01
1	 6.770571e-01	 1.052961e+00	-2.588311e+01
1	 6.642405e-01	 1.061093e+00	-2.768840e+01
1	 6.513440e-01	 1.069058e+00	-2.955983e+01
1	 6.383709e-01	 1.076855e+00	-3.149467e+01
1	 6.253244e-01	 1.084483e+00	-3.349002e+01
1	 6.122077e-01	 1.091941e+00	-3.554281e+01
1	 6.810634e-01	 1.059191e+00	-2.694784e+01
1	 6.681709e-01	 1.067371e+00	-2.882343e+01
1	 6.551981e-01	 1.075383e+00	-3.077098e+01
1	 6.421483e-01	 1.083226e+00	-3.278307e+01
1	 6.290246e-01	 1.090900e+00	-3.485196e+01
1	 6.158303e-01	 1.098402e+00	-3.696960e+01
1	 5.977176e-01	 1.066096e+00	-3.007863e+01
1	 5.848460e-01	 1.073211e+00	-3.188607e+01
1	 5.719123e-01	 1.080159e+00	-3.369642e+01
1	 5.589196e-01	 1.086939e+00	-3.549958e+01
1	 5.458710e-01	 1.093550e+00	-3.728520e+01
1	 5.327699e-01	 1.099992e+00	-3.904272e+01
1	 6.013401e-01	 1.072557e+00	-3.140617e+01
1	 5.883906e-01	 1.079716e+00	-3.328808e+01
1	 5.753784e-01	 1.086705e+00	-3.517389e+01
1	 5.623070e-01	 1.093526e+00	-3.704876e+01
1	 5.491794e-01	 1.100178e+00	-3.889753e+01
1	 5.359988e-01	 1.106659e+00	-4.070470e+01
1	 6.049627e-01	 1.079018e+00	-3.276008e+01
1	 5.919351e-01	 1.086220e+00	-3.471243e+01
1	 5.788446e-01	 1.093252e+00	-3.666428e+01
1	 5.656944e-01	 1.100114e+00	-3.859757e+01
1	 5.524877e-01	 1.106805e+00	-4.049385e+01
1	 5.392277e-01	 1.113326e+00	-4.233426e+01
1	 6.085852e-01	 1.085480e+00	-3.413930e+01
1	 5.954796e-01	 1.092724e+00	-3.615661e+01
1	 5.823107e-01	 1.099798e+00	-3.816418e+01
1	 5.690817e-01	 1.106701e+00	-4.014220e+01
1	 5.557960e-01	 1.113433e+00	-4.207044e+01
1	 5.424566e-01	 1.119992e+00	-4.392823e+01
1	 6.122077e-01	 1.091941e+00	-3.554281e+01
1	 5.990241e-01	 1.099228e+00	-3.761819e+01
1	 5.857768e-01	 1.106345e+00	-3.967027e+01
1	 5.724691e-01	 1.113289e+00	-4.167895e+01
1	 5.591043e-01	 1.120060e+00	-4.362368e+01
1	 5.456855e-01	 1.126659e+00	-4.548351e+01
1	 6.158303e-01	 1.098402e+00	-3.696960e+01
1	 6.025686e-01	 1.105733e+00	-3.909478e+01
1	 5.892430e-01	 1.112891e+00	-4.117932e+01
1	 5.758565e-01	 1.119876e+00	-4.320420e+01
1	 5.624126e-01	 1.126688e+00	-4.515004e+01
1	 5.489144e-01	 1.133326e+00	-4.699709e+01
1	 5.327699e-01	 1.099992e+00	-3.904272e+01
1	 5.196193e-01	 1.106265e+00	-4.074215e+01
1	 5.064225e-01	 1.112368e+00	-4.235047e+01
1	 4.931826e-01	 1.118301e+00	-4.385225e+01
1	 4.799028e-01	 1.124064e+00	-4.523193e+01
1	 4.665862e-01	 1.129657e+00	-4.647379e+01
1	 5.359988e-01	 1.106659e+00	-4.070470e+01
1	 5.227685e-01	 1.112970e+00	-4.243619e+01
1	 5.094917e-01	 1.119110e+00	-4.405937e+01
1	 4.961716e-01	 1.125079e+00	-4.556068e+01
1	 4.828113e-01	 1.130877e+00	-4.692640e+01
1	 4.694140e-01	 1.136503e+00	-4.814276e+01
1	 5.392277e-01	 1.113326e+00	-4.233426e+01
1	 5.259177e-01	 1.119675e+00	-4.408286e+01
1	 5.125610e-01	 1.125852e+00	-4.570877e+01
1	 4.991606e-01	 1.131857e+00	-4.720050e+01
1	 4.857198e-01	 1.137689e+00	-4.854646e+01
1	 4.722418e-01	 1.143350e+00	-4.973508e+01
1	 5.424566e-01	 1.119992e+00	-4.392823e+01
1	 5.290670e-01	 1.126379e+00	-4.567974e+01
1	 5.156302e-01	 1.132593e+00	-4.729696e+01
1	 5.021495e-01	 1.138634e+00	-4.877072e+01
1	 4.886283e-01	 1.144502e+00	-5.009182e+01
1	 4.750696e-01	 1.150196e+00	-5.125107e+01
1	 5.456855e-01	 1.126659e+00	-4.548351e+01
1	 5.322162e-01	 1.133084e+00	-4.722447e+01
1	 5.186994e-01	 1.139335e+00	-4.882230e+01
1	 5.051385e-01	 1.145412e+00	-5.027039e+01
1	 4.915368e-01	 1.151314e+00	-5.156217e+01
1	 4.778974e-01	 1.157042e+00	-5.269106e+01
1	 5.489144e-01	 1.133326e+00	-4.699709e+01
1	 5.353654e-01	 1.139788e+00	-4.871474e+01
1	 5.217686e-01	 1.146077e+00	-5.028316e+01
1	 5.081275e-01	 1.152189e+00	-5.169857e+01
1	 4.944453e-01	 1.158127e+00	-5.295720e+01
1	 4.807252e-01	 1.163889e+00	-5.405538e+01
1	 4.665862e-01	 1.129657e+00	-4.647379e+01
1	 4.532360e-01	 1.135079e+00	-4.755260e+01
1	 4.398553e-01	 1.140331e+00	-4.844994e+01
1	 4.264472e-01	 1.145413e+00	-4.916034e+01
1	 4.130148e-01	 1.150324e+00	-4.967841e+01
1	 3.995612e-01	 1.155066e+00	-4.999885e+01
1	 4.694140e-01	 1.136503e+00	-4.814276e+01
1	 4.559829e-01	 1.141958e+00	-4.918763e+01
1	 4.425211e-01	 1.147242e+00	-5.004634e+01
1	 4.290317e-01	 1.152354e+00	-5.071639e+01
1	 4.155179e-01	 1.157296e+00	-5.119539e+01
1	 4.019828e-01	 1.162067e+00	-5.148107e+01
1	 4.722418e-01	 1.143350e+00	-4.973508e+01
1	 4.587297e-01	 1.148838e+00	-5.074728e+01
1	 4.451869e-01	 1.154153e+00	-5.157130e+01
1	 4.316163e-01	 1.159296e+00	-5.220650e+01
1	 4.180211e-01	 1.164268e+00	-5.265236e+01
1	 4.044044e-01	 1.169067e+00	-5.290849e+01
1	 4.750696e-01	 1.150196e+00	-5.125107e+01
1	 4.614766e-01	 1.155717e+00	-5.223239e+01
1	 4.478526e-01	 1.161064e+00	-5.302590e+01
1	 4.342008e-01	 1.166238e+00	-5.363172e+01
1	 4.205242e-01	 1.171239e+00	-5.405013e+01
1	 4.068260e-01	 1.176067e+00	-5.428152e+01
1	 4.778974e-01	 1.157042e+00	-5.269106e+01
1	 4.642235e-01	 1.162596e+00	-5.364376e+01
1	 4.505184e-01	 1.167975e+00	-5.441115e+01
1	 4.367853e-01	 1.173180e+00	-5.499309e+01
1	 4.230273e-01	 1.178211e+00	-5.538953e+01
1	 4.092476e-01	 1.183068e+00	-5.560055e+01
1	 4.807252e-01	 1.163889e+00	-5.405538e+01
1	 4.669704e-01	 1.169475e+00	-5.498218e+01
1	 4.531842e-01	 1.174886e+00	-5.572808e+01
1	 4.393698e-01	 1.180122e+00	-5.629160e+01
1	 4.255304e-01	 1.185183e+00	-5.667133e+01
1	 4.116692e-01	 1.190068e+00	-5.686598e+01
1	 3.995612e-01	 1.155066e+00	-4.999885e+01
1	 3.860895e-01	 1.159639e+00	-5.014094e+01
1	 3.726026e-01	 1.164042e+00	-5.012097e+01
1	 3.591035e-01	 1.168277e+00	-4.992936e+01
1	 3.455952e-01	 1.172344e+00	-4.955670e+01
1	 3.320807e-01	 1.176244e+00	-4.899374e+01
1	 4.019828e-01	 1.162067e+00	-5.148107e+01
1	 3.884294e-01	 1.166667e+00	-5.159438e+01
1	 3.748607e-01	 1.171097e+00	-5.154962e+01
1	 3.612799e-01	 1.175358e+00	-5.133472e+01
1	 3.476897e-01	 1.179449e+00	-5.093773e+01
1	 3.340933e-01	 1.183373e+00	-5.034690e+01
1	 4.044044e-01	 1.169067e+00	-5.290849e+01
1	 3.907693e-01	 1.173695e+00	-5.299632e+01
1	 3.771189e-01	 1.178152e+00	-5.292816e+01
1	 3.634562e-01	 1.182438e+00	-5.269019e+01
1	 3.497843e-01	 1.186555e+00	-5.226869e+01
1	 3.361059e-01	 1.190501e+00	-5.165012e+01
1	 4.068260e-01	 1.176067e+00	-5.428152e+01
1	 3.931093e-01	 1.180723e+00	-5.434673e+01
1	 3.793771e-01	 1.185207e+00	-5.425634e+01
1	 3.656326e-01	 1.189519e+00	-5.399544e+01
1	 3.518788e-01	 1.193660e+00	-5.354931e+01
1	 3.381185e-01	 1.197630e+00	-5.290335e+01
1	 4.092476e-01	 1.183068e+00	-5.560055e+01
1	 3.954492e-01	 1.187751e+00	-5.564562e+01
1	 3.816353e-01	 1.192262e+00	-5.553389e+01
1	 3.678090e-01	 1.196599e+00	-5.525014e+01
1	 3.539733e-01	 1.200765e+00	-5.477933e+01
1	 3.401311e-01	 1.204759e+00	-5.410654e+01
1	 4.116692e-01	 1.190068e+00	-5.686598e+01
1	 3.977892e-01	 1.194779e+00	-5.689297e+01
1	 3.838935e-01	 1.199316e+00	-5.676058e+01
1	 3.699854e-01	 1.203680e+00	-5.645399e+01
1	 3.560678e-01	 1.207870e+00	-5.595851e+01
1	 3.421438e-01	 1.211888e+00	-5.525965e+01
1	 3.320807e-01	 1.176244e+00	-4.899374e+01
1	 3.185628e-01	 1.179977e+00	-4.826376e+01
1	 3.050445e-01	 1.183543e+00	-4.740575e+01
1	 2.915285e-01	 1.186945e+00	-4.643440e+01
1	 2.780177e-01	 1.190182e+00	-4.536454e+01
1	 2.645149e-01	 1.193256e+00	-4.421107e+01
1	 3.340933e-01	 1.183373e+00	-5.034690e+01
1	 3.204935e-01	 1.187128e+00	-4.958545e+01
1	 3.068933e-01	 1.190716e+00	-4.869440e+01
1	 2.932954e-01	 1.194139e+00	-4.768898e+01
1	 2.797027e-01	 1.197395e+00	-4.658456e+01
1	 2.661180e-01	 1.200488e+00	-4.539659e+01
1	 3.361059e-01	 1.190501e+00	-5.165012e+01
1	 3.224242e-01	 1.194279e+00	-5.085844e+01
1	 3.087420e-01	 1.197889e+00	-4.993668e+01
1	 2.950622e-01	 1.201332e+00	-4.890025e+01
1	 2.813877e-01	 1.204608e+00	-4.776467e+01
1	 2.677211e-01	 1.207719e+00	-4.654560e+01
1	 3.381185e-01	 1.197630e+00	-5.290335e+01
1	 3.243549e-01	 1.201431e+00	-5.208289e+01
1	 3.105908e-01	 1.205062e+00	-5.113290e+01
1	 2.968291e-01	 1.208526e+00	-5.006859e+01
1	 2.830726e-01	 1.211822e+00	-4.890530e+01
1	 2.693242e-01	 1.214951e+00	-4.765847e+01
1	 3.401311e-01	 1.204759e+00	-5.410654e+01
1	 3.262856e-01	 1.208582e+00	-5.325899e+01
1	 3.124395e-01	 1.212235e+00	-5.228339e+01
1	 2.985959e-01	 1.215719e+00	-5.119440e+01
1	 2.847576e-01	 1.219035e+00	-5.000682e+01
1	 2.709274e-01	 1.222183e+00	-4.873555e+01
1	 3.421438e-01	 1.211888e+00	-5.525965e+01
1	 3.282163e-01	 1.215734e+00	-5.438691e+01
1	 3.142883e-01	 1.219408e+00	-5.338847e+01
1	 3.003627e-01	 1.222913e+00	-5.227808e+01
1	 2.864425e-01	 1.226248e+00	-5.106964e+01
1	 2.725305e-01	 1.229415e+00	-4.977716e+01
1	 2.645149e-01	 1.193256e+00	-4.421107e+01
1	 2.510227e-01	 1.196167e+00	-4.299123e+01
1	 2.375438e-01	 1.198916e+00	-4.172100e+01
1	 2.240809e-01	 1.201505e+00	-4.041347e+01
1	 2.106366e-01	 1.203935e+00	-3.908169e+01
1	 1.972134e-01	 1.206206e+00	-3.773866e+01
1	 2.661180e-01	 1.200488e+00	-4.539659e+01
1	 2.525440e-01	 1.203416e+00	-4.414270e+01
1	 2.389834e-01	 1.206182e+00	-4.283895e+01
1	 2.254390e-01	 1.208787e+00	-4.149847e+01
1	 2.119132e-01	 1.211232e+00	-4.013437e+01
1	 1.984087e-01	 1.213517e+00	-3.875971e+01
1	 2.677211e-01	 1.207719e+00	-4.654560e+01
1	 2.540654e-01	 1.210666e+00	-4.526077e+01
1	 2.404231e-01	 1.213449e+00	-4.392633e+01
1	 2.267970e-01	 1.216069e+00	-4.255560e+01
1	 2.131898e-01	 1.218528e+00	-4.116187e+01
1	 1.996039e-01	 1.220827e+00	-3.975836e+01
1	 2.693242e-01	 1.214951e+00	-4.765847e+01
1	 2.555867e-01	 1.217915e+00	-4.634572e+01
1	 2.418628e-01	 1.220715e+00	-4.498339e+01
1	 2.281551e-01	 1.223351e+00	-4.358507e+01
1	 2.144663e-01	 1.225825e+00	-4.216436e+01
1	 2.007991e-01	 1.228137e+00	-4.073477e+01
1	 2.709274e-01	 1.222183e+00	-4.873555e+01
1	 2.571081e-01	 1.225165e+00	-4.739784e+01
1	 2.433024e-01	 1.227981e+00	-4.601034e+01
1	 2.295132e-01	 1.230633e+00	-4.458707e+01
1	 2.157429e-01	 1.233121e+00	-4.314201e+01
1	 2.019944e-01	 1.235448e+00	-4.168910e+01
1	 2.725305e-01	 1.229415e+00	-4.977716e+01
1	 2.586294e-01	 1.232414e+00	-4.841739e+01
1	 2.447421e-01	 1.235247e+00	-4.700741e+01
1	 2.308712e-01	 1.237915e+00	-4.556178e+01
1	 2.170195e-01	 1.240418e+00	-4.409499e+01
1	 2.031896e-01	 1.242758e+00	-4.262151e+01
1	 1.972134e-01	 1.206206e+00	-3.773866e+01
1	 1.838139e-01	 1.208321e+00	-3.640183e+01
1	 1.704405e-01	 1.210280e+00	-3.508960e+01
1	 1.570957e-01	 1.212084e+00	-3.381625e+01
1	 1.437818e-01	 1.213736e+00	-3.259582e+01
1	 1.305012e-01	 1.215235e+00	-3.144215e+01
1	 1.984087e-01	 1.213517e+00	-3.875971e+01
1	 1.849280e-01	 1.215644e+00	-3.739207e+01
1	 1.714735e-01	 1.217615e+00	-3.605002e+01
1	 1.580478e-01	 1.219430e+00	-3.474790e+01
1	 1.446532e-01	 1.221092e+00	-3.349987e+01
1	 1.312921e-01	 1.222600e+00	-3.231983e+01
1	 1.996039e-01	 1.220827e+00	-3.975836e+01
1	 1.860420e-01	 1.222967e+00	-3.836284e+01
1	 1.725065e-01	 1.224950e+00	-3.699395e+01
1	 1.589999e-01	 1.226776e+00	-3.566601e+01
1	 1.455246e-01	 1.228447e+00	-3.439315e+01
1	 1.320830e-01	 1.229965e+00	-3.318926e+01
1	 2.007991e-01	 1.228137e+00	-4.073477e+01
1	 1.871560e-01	 1.230290e+00	-3.931430e+01
1	 1.735395e-01	 1.232285e+00	-3.792153e+01
1	 1.599520e-01	 1.234122e+00	-3.657068e+01
1	 1.463960e-01	 1.235803e+00	-3.527574e+01
1	 1.328739e-01	 1.237330e+00	-3.405050e+01
1	 2.019944e-01	 1.235448e+00	-4.168910e+01
1	 1.882700e-01	 1.237614e+00	-4.024660e+01
1	 1.745724e-01	 1.239620e+00	-3.883291e+01
1	 1.609041e-01	 1.241468e+00	-3.746204e+01
1	 1.472674e-01	 1.243159e+00	-3.614776e+01
1	 1.336648e-01	 1.244695e+00	-3.490363e+01
1	 2.031896e-01	 1.242758e+00	-4.262151e+01
1	 1.893840e-01	 1.244937e+00	-4.115987e+01
1	 1.756054e-01	 1.246955e+00	-3.972821e+01
1	 1.618562e-01	 1.248814e+00	-3.834020e+01
1	 1.481388e-01	 1.250515e+00	-3.700930e+01
1	 1.344557e-01	 1.252061e+00	-3.574873e+01
1	 1.305012e-01	 1.215235e+00	-3.144215e+01
1	 1.172560e-01	 1.216585e+00	-3.036844e+01
1	 1.040487e-01	 1.217785e+00	-2.938720e+01
1	 9.088122e-02	 1.218839e+00	-2.851076e+01
1	 7.775585e-02	 1.219746e+00	-2.775116e+01
1	 6.467464e-02	 1.220510e+00	-2.712010e+01
1	 1.312921e-01	 1.222600e+00	-3.231983e+01
1	 1.179667e-01	 1.223958e+00	-3.122107e+01
1	 1.046793e-01	 1.225166e+00	-3.021612e+01
1	 9.143201e-02	 1.226226e+00	-2.931734e+01
1	 7.822710e-02	 1.227139e+00	-2.853680e+01
1	 6.506660e-02	 1.227907e+00	-2.788621e+01
1	 1.320830e-01	 1.229965e+00	-3.318926e+01
1	 1.186773e-01	 1.231331e+00	-3.206763e+01
1	 1.053098e-01	 1.232546e+00	-3.104083e+01
1	 9.198281e-02	 1.233612e+00	-3.012129e+01
1	 7.869835e-02	 1.234531e+00	-2.932109e+01
1	 6.545857e-02	 1.235304e+00	-2.865199e+01
1	 1.328739e-01	 1.237330e+00	-3.405050e+01
1	 1.193880e-01	 1.238704e+00	-3.290816e+01
1	 1.059404e-01	 1.239927e+00	-3.186139e+01
1	 9.253360e-02	 1.240999e+00	-3.092264e+01
1	 7.916960e-02	 1.241924e+00	-3.010407e+01
1	 6.585054e-02	 1.242701e+00	-2.941749e+01
1	 1.336648e-01	 1.244695e+00	-3.490363e+01
1	 1.200986e-01	 1.246078e+00	-3.374274e+01
1	 1.065710e-01	 1.247307e+00	-3.267783e+01
1	 9.308440e-02	 1.248386e+00	-3.172144e+01
1	 7.964084e-02	 1.249316e+00	-3.088578e+01
1	 6.624251e-02	 1.250098e+00	-3.018273e+01
1	 1.344557e-01	 1.252061e+00	-3.574873e+01
1	 1.208092e-01	 1.253451e+00	-3.457142e+01
1	 1.072016e-01	 1.254688e+00	-3.349021e+01
1	 9.363520e-02	 1.255773e+00	-3.251771e+01
1	 8.011209e-02	 1.256708e+00	-3.166624e+01
1	 6.663447e-02	 1.257495e+00	-3.094774e+01
1	 6.467464e-02	 1.220510e+00	-2.712010e+01
1	 5.163960e-02	 1.221131e+00	-2.663009e+01
1	 3.865271e-02	 1.221611e+00	-2.629292e+01
1	 2.571591e-02	 1.221952e+00	-2.611870e+01
1	 1.283106e-02	 1.222155e+00	-2.611714e+01
1	 0.000000e+00	 1.222222e+00	-2.629755e+01
1	 6.506660e-02	 1.227907e+00	-2.788621e+01
1	 5.195256e-02	 1.228532e+00	-2.737813e+01
1	 3.888697e-02	 1.229015e+00	-2.702454e+01
1	 2.587176e-02	 1.229357e+00	-2.683576e+01
1	 1.290883e-02	 1.229562e+00	-2.682169e+01
1	 0.000000e+00	 1.229630e+00	-2.699182e+01
1	 6.545857e-02	 1.235304e+00	-2.865199e+01
1	 5.226553e-02	 1.235932e+00	-2.812659e+01
1	 3.912123e-02	 1.236418e+00	-2.775699e+01
1	 2.602762e-02	 1.236763e+00	-2.755364e+01
1	 1.298659e-02	 1.236969e+00	-2.752658e+01
1	 0.000000e+00	 1.237037e+00	-2.768544e+01
1	 6.585054e-02	 1.242701e+00	-2.941749e+01
1	 5.257850e-02	 1.243333e+00	-2.887551e+01
1	 3.935549e-02	 1.243822e+00	-2.849030e+01
1	 2.618347e-02	 1.244169e+00	-2.827239e+01
1	 1.306436e-02	 1.244376e+00	-2.823191e+01
1	 0.000000e+00	 1.244444e+00	-2.837853e+01
1	 6.624251e-02	 1.250098e+00	-3.018273e+01
1	 5.289147e-02	 1.250734e+00	-2.962492e+01
1	 3.958975e-02	 1.251226e+00	-2.922452e+01
1	 2.633933e-02	 1.251575e+00	-2.899208e+01
1	 1.314212e-02	 1.251783e+00	-2.893773e+01
1	 0.000000e+00	 1.251852e+00	-2.907118e+01
1	 6.663447e-02	 1.257495e+00	-3.094774e+01
1	 5.320443e-02	 1.258135e+00	-3.037487e+01
1	 3.982401e-02	 1.258629e+00	-2.995970e+01
1	 2.649518e-02	 1.258980e+00	-2.971276e+01
1	 1.321988e-02	 1.259190e+00	-2.964413e+01
1	 0.000000e+00	 1.259259e+00	-2.976348e+01
1	 1.259259e+00	 0.000000e+00	 2.179897e+01
1	 1.259190e+00	 1.321988e-02	 2.149889e+01
1	 1.258980e+00	 2.649518e-02	 2.124477e+01
1	 1.258629e+00	 3.982401e-02	 2.103433e+01
1	 1.258135e+00	 5.320443e-02	 2.086526e+01
1	 1.257495e+00	 6.663447e-02	 2.073519e+01
1	 1.266667e+00	 0.000000e+00	 2.161609e+01
1	 1.266597e+00	 1.329765e-02	 2.130929e+01
1	 1.266386e+00	 2.665103e-02	 2.104898e+01
1	 1.266033e+00	 4.005827e-02	 2.083290e+01
1	 1.265536e+00	 5.351740e-02	 2.065872e+01
1	 1.264892e+00	 6.702644e-02	 2.052407e+01
1	 1.274074e+00	 0.000000e+00	 2.143677e+01
1	 1.274004e+00	 1.337541e-02	 2.112339e+01
1	 1.273792e+00	 2.680689e-02	 2.085692e+01
1	 1.273437e+00	 4.029252e-02	 2.063511e+01
1	 1.272936e+00	 5.383037e-02	 2.045566e+01
1	 1.272289e+00	 6.741841e-02	 2.031618e+01
1	 1.281481e+00	 0.000000e+00	 2.126094e+01
1	 1.281411e+00	 1.345318e-02	 2.094109e+01
1	 1.281198e+00	 2.696274e-02	 2.066850e+01
1	 1.280840e+00	 4.052678e-02	 2.044092e+01
1	 1.280337e+00	 5.414334e-02	 2.025604e+01
1	 1.279686e+00	 6.781038e-02	 2.011149e+01
1	 1.288889e+00	 0.000000e+00	 2.108850e+01
1	 1.288818e+00	 1.353094e-02	 2.076231e+01
1	 1.288604e+00	 2.711860e-02	 2.048364e+01
1	 1.288244e+00	 4.076104e-02	 2.025025e+01
1	 1.287738e+00	 5.445630e-02	 2.005982e+01
1	 1.287083e+00	 6.820234e-02	 1.990997e+01
1	 1.296296e+00	 0.000000e+00	 2.091935e+01
1	 1.296225e+00	 1.360871e-02	 2.058696e+01
1	 1.296009e+00	 2.727445e-02	 2.030228e+01
1	 1.295648e+00	 4.099530e-02	 2.006305e+01
1	 1.295139e+00	 5.476927e-02	 1.986695e+01
1	 1.294480e+00	 6.859431e-02	 1.971160e+01
1	 1.257495e+00	 6.663447e-02	 2.073519e+01
1	 1.256708e+00	 8.011209e-02	 2.064312e+01
1	 1.255773e+00	 9.363520e-02	 2.058790e+01
1	 1.254688e+00	 1.072016e-01	 2.056689e+01
1	 1.253451e+00	 1.208092e-01	 2.057742e+01
1	 1.252061e+00	 1.344557e-01	 2.061681e+01
1	 1.264892e+00	 6.702644e-02	 2.052407e+01
1	 1.264101e+00	 8.058334e-02	 2.042805e+01
1	 1.263160e+00	 9.418599e-02	 2.036957e+01
1	 1.262068e+00	 1.078322e-01	 2.034597e+01
1	 1.260824e+00	 1.215199e-01	 2.035456e+01
1	 1.259426e+00	 1.352467e-01	 2.039262e+01
1	 1.272289e+00	 6.741841e-02	 2.031618e+01
1	 1.271493e+00	 8.105459e-02	 2.021587e+01
1	 1.270547e+00	 9.473679e-02	 2.015372e+01
1	 1.269449e+00	 1.084628e-01	 2.012705e+01
1	 1.268197e+00	 1.222305e-01	 2.013318e+01
1	 1.266791e+00	 1.360376e-01	 2.016939e+01
1	 1.279686e+00	 6.781038e-02	 2.011149e+01
1	 1.278886e+00	 8.152583e-02	 2.000655e+01
1	 1.277934e+00	 9.528758e-02	 1.994033e+01
1	 1.276829e+00	 1.090934e-01	 1.991015e+01
1	 1.275571e+00	 1.229412e-01	 1.991333e+01
1	 1.274156e+00	 1.368285e-01	 1.994715e+01
1	 1.287083e+00	 6.820234e-02	 1.990997e+01
1	 1.286278e+00	 8.199708e-02	 1.980009e+01
1	 1.285321e+00	 9.583838e-02	 1.972941e+01
1	 1.284210e+00	 1.097240e-01	 1.969527e+01
1	 1.282944e+00	 1.236518e-01	 1.969500e+01
1	 1.281521e+00	 1.376194e-01	 1.972592e+01
1	 1.294480e+00	 6.859431e-02	 1.971160e+01
1	 1.293670e+00	 8.246833e-02	 1.959648e+01
1	 1.292708e+00	 9.638917e-02	 1.952097e+01
1	 1.291590e+00	 1.103546e-01	 1.948244e+01
1	 1.290317e+00	 1.243625e-01	 1.947824e+01
1	 1.288886e+00	 1.384103e-01	 1.950573e+01
1	 1.252061e+00	 1.344557e-01	 2.061681e+01
1	 1.250515e+00	 1.481388e-01	 2.068451e+01
1	 1.248814e+00	 1.618562e-01	 2.078015e+01
1	 1.246955e+00	 1.756054e-01	 2.090125e+01
1	 1.244937e+00	 1.893840e-01	 2.104537e+01
1	 1.242758e+00	 2.031896e-01	 2.121005e+01
1	 1.259426e+00	 1.352467e-01	 2.039262e+01
1	 1.257871e+00	 1.490102e-01	 2.045959e+01
1	 1.256160e+00	 1.628083e-01	 2.055511e+01
1	 1.254290e+00	 1.766384e-01	 2.067673e+01
1	 1.252260e+00	 1.904981e-01	 2.082205e+01
1	 1.250069e+00	 2.043848e-01	 2.098864e+01
1	 1.266791e+00	 1.360376e-01	 2.016939e+01
1	 1.265227e+00	 1.498816e-01	 2.023506e+01
1	 1.263506e+00	 1.637604e-01	 2.032982e+01
1	 1.261625e+00	 1.776714e-01	 2.045127e+01
1	 1.259583e+00	 1.916121e-01	 2.059702e+01
1	 1.257379e+00	 2.055801e-01	 2.076468e+01
1	 1.274156e+00	 1.368285e-01	 1.994715e+01
1	 1.272583e+00	 1.507531e-01	 2.001095e+01
1	 1.270852e+00	 1.647125e-01	 2.010433e+01
1	 1.268960e+00	 1.787043e-01	 2.022493e+01
1	 1.266906e+00	 1.927261e-01	 2.037036e+01
1	 1.264689e+00	 2.067753e-01	 2.053829e+01
1	 1.281521e+00	 1.376194e-01	 1.972592e+01
1	 1.279939e+00	 1.516245e-01	 1.978730e+01
1	 1.278198e+00	 1.656646e-01	 1.987869e+01
1	 1.276295e+00	 1.797373e-01	 1.999775e+01
1	 1.274229e+00	 1.938401e-01	 2.014215e+01
1	 1.272000e+00	 2.079705e-01	 2.030955e+01
1	 1.288886e+00	 1.384103e-01	 1.950573e+01
1	 1.287295e+00	 1.524959e-01	 1.956412e+01
1	 1.285544e+00	 1.666167e-01	 1.965292e+01
1	 1.283630e+00	 1.807703e-01	 1.976980e+01
1	 1.281553e+00	 1.949542e-01	 1.991246e+01
1	 1.279310e+00	 2.091658e-01	 2.007858e+01
1	 1.242758e+00	 2.031896e-01	 2.121005e+01
1	 1.240418e+00	 2.170195e-01	 2.138989e+01
1	 1.237915e+00	 2.308712e-01	 2.157937e+01
1	 1.235247e+00	 2.447421e-01	 2.177598e+01
1	 1.232414e+00	 2.586294e-01	 2.197724e+01
1	 1.229415e+00	 2.725305e-01	 2.218077e+01
1	 1.250069e+00	 2.043848e-01	 2.098864e+01
1	 1.247714e+00	 2.182961e-01	 2.117125e+01
1	 1.245196e+00	 2.322293e-01	 2.136443e+01
1	 1.242513e+00	 2.461817e-01	 2.156557e+01
1	 1.239664e+00	 2.601508e-01	 2.177212e+01
1	 1.236647e+00	 2.741336e-01	 2.198161e+01
1	 1.257379e+00	 2.055801e-01	 2.076468e+01
1	 1.255011e+00	 2.195727e-01	 2.094920e+01
1	 1.252478e+00	 2.335874e-01	 2.114527e+01
1	 1.249779e+00	 2.476214e-01	 2.135020e+01
1	 1.246913e+00	 2.616721e-01	 2.156136e+01
1	 1.243879e+00	 2.757367e-01	 2.177622e+01
1	 1.264689e+00	 2.067753e-01	 2.053829e+01
1	 1.262308e+00	 2.208493e-01	 2.072389e+01
1	 1.259760e+00	 2.349454e-01	 2.092204e+01
1	 1.257045e+00	 2.490611e-01	 2.112999e+01
1	 1.254163e+00	 2.631935e-01	 2.134506e+01
1	 1.251110e+00	 2.773398e-01	 2.156464e+01
1	 1.272000e+00	 2.079705e-01	 2.030955e+01
1	 1.269604e+00	 2.221259e-01	 2.049542e+01
1	 1.267042e+00	 2.363035e-01	 2.069485e+01
1	 1.264312e+00	 2.505007e-01	 2.090505e+01
1	 1.261412e+00	 2.647148e-01	 2.112329e+01
1	 1.258342e+00	 2.789430e-01	 2.134694e+01
1	 1.279310e+00	 2.091658e-01	 2.007858e+01
1	 1.276901e+00	 2.234024e-01	 2.026391e+01
1	 1.274324e+00	 2.376616e-01	 2.046383e+01
1	 1.271578e+00	 2.519404e-01	 2.067550e+01
1	 1.268662e+00	 2.662362e-01	 2.089617e+01
1	 1.265574e+00	 2.805461e-01	 2.112316e+01
1	 1.229415e+00	 2.725305e-01	 2.218077e+01
1	 1.226248e+00	 2.864425e-01	 2.238755e+01
1	 1.222913e+00	 3.003627e-01	 2.259899e+01
1	 1.219408e+00	 3.142883e-01	 2.281352e+01
1	 1.215734e+00	 3.282163e-01	 2.302969e+01
1	 1.211888e+00	 3.421438e-01	 2.324617e+01
1	 1.236647e+00	 2.741336e-01	 2.198161e+01
1	 1.233461e+00	 2.881275e-01	 2.219489e+01
1	 1.230107e+00	 3.021296e-01	 2.241336e+01
1	 1.226581e+00	 3.161370e-01	 2.263551e+01
1	 1.222885e+00	 3.301469e-01	 2.285992e+01
1	 1.219016e+00	 3.441564e-01	 2.308528e+01
1	 1.243879e+00	 2.757367e-01	 2.177622e+01
1	 1.240675e+00	 2.898124e-01	 2.199539e+01
1	 1.237300e+00	 3.038964e-01	 2.222015e+01
1	 1.233754e+00	 3.179858e-01	 2.244902e+01
1	 1.230036e+00	 3.320776e-01	 2.268062e+01
1	 1.226145e+00	 3.461690e-01	 2.291364e+01
1	 1.251110e+00	 2.773398e-01	 2.156464e+01
1	 1.247888e+00	 2.914974e-01	 2.178908e+01
1	 1.244494e+00	 3.056633e-01	 2.201939e+01
1	 1.240927e+00	 3.198345e-01	 2.225412e+01
1	 1.237188e+00	 3.340083e-01	 2.249192e+01
1	 1.233274e+00	 3.481816e-01	 2.273148e+01
1	 1.258342e+00	 2.789430e-01	 2.134694e+01
1	 1.255101e+00	 2.931823e-01	 2.157597e+01
1	 1.251687e+00	 3.074301e-01	 2.181108e+01
1	 1.248100e+00	 3.216833e-01	 2.205086e+01
1	 1.244339e+00	 3.359390e-01	 2.229394e+01
1	 1.240403e+00	 3.501942e-01	 2.253904e+01
1	 1.265574e+00	 2.805461e-01	 2.112316e+01
1	 1.262314e+00	 2.948673e-01	 2.135608e+01
1	 1.258881e+00	 3.091969e-01	 2.159526e+01
1	 1.255273e+00	 3.235321e-01	 2.183930e+01
1	 1.251490e+00	 3.378697e-01	 2.208682e+01
1	 1.247531e+00	 3.522068e-01	 2.233652e+01
1	 1.211888e+00	 3.421438e-01	 2.324617e+01
1	 1.207870e+00	 3.560678e-01	 2.342995e+01
1	 1.203680e+00	 3.699854e-01	 2.355018e+01
1	 1.199316e+00	 3.838935e-01	 2.360876e+01
1	 1.194779e+00	 3.977892e-01	 2.360752e+01
1	 1.190068e+00	 4.116692e-01	 2.354819e+01
1	 1.219016e+00	 3.441564e-01	 2.308528e+01
1	 1.214975e+00	 3.581623e-01	 2.327723e+01
1	 1.210760e+00	 3.721618e-01	 2.340353e+01
1	 1.206371e+00	 3.861517e-01	 2.346610e+01
1	 1.201807e+00	 4.001291e-01	 2.346681e+01
1	 1.197069e+00	 4.140907e-01	 2.340744e+01
1	 1.226145e+00	 3.461690e-01	 2.291364e+01
1	 1.222080e+00	 3.602568e-01	 2.311255e+01
1	 1.217841e+00	 3.743382e-01	 2.324397e+01
1	 1.213426e+00	 3.884099e-01	 2.330988e+01
1	 1.208836e+00	 4.024690e-01	 2.331221e+01
1	 1.204069e+00	 4.165123e-01	 2.325287e+01
1	 1.233274e+00	 3.481816e-01	 2.273148e+01
1	 1.229185e+00	 3.623513e-01	 2.293624e+01
1	 1.224921e+00	 3.765146e-01	 2.307185e+01
1	 1.220481e+00	 3.906681e-01	 2.314038e+01
1	 1.215864e+00	 4.048090e-01	 2.314389e+01
1	 1.211069e+00	 4.189339e-01	 2.308441e+01
1	 1.240403e+00	 3.501942e-01	 2.253904e+01
1	 1.236290e+00	 3.644459e-01	 2.274861e+01
1	 1.232002e+00	 3.786909e-01	 2.288747e+01
1	 1.227536e+00	 3.929263e-01	 2.295786e+01
1	 1.222892e+00	 4.071489e-01	 2.296198e+01
1	 1.218070e+00	 4.213555e-01	 2.290202e+01
1	 1.247531e+00	 3.522068e-01	 2.233652e+01
1	 1.243395e+00	 3.665404e-01	 2.254997e+01
1	 1.239082e+00	 3.808673e-01	 2.269118e+01
1	 1.234590e+00	 3.951845e-01	 2.276260e+01
1	 1.229920e+00	 4.094888e-01	 2.276663e+01
1	 1.225070e+00	 4.237771e-01	 2.270565e+01
1	 1.190068e+00	 4.116692e-01	 2.354819e+01
1	 1.185183e+00	 4.255304e-01	 2.341031e+01
1	 1.180122e+00	 4.393698e-01	 2.317360e+01
1	 1.174886e+00	 4.531842e-01	 2.284007e+01
1	 1.169475e+00	 4.669704e-01	 2.241191e+01
1	 1.163889e+00	 4.807252e-01	 2.189141e+01
1	 1.197069e+00	 4.140907e-01	 2.340744e+01
1	 1.192154e+00	 4.280335e-01	 2.326858e+01
1	 1.187064e+00	 4.419544e-01	 2.303100e+01
1	 1.181797e+00	 4.558500e-01	 2.269686e+01
1	 1.176355e+00	 4.697173e-01	 2.226842e+01
1	 1.170735e+00	 4.835529e-01	 2.174802e+01
1	 1.204069e+00	 4.165123e-01	 2.325287e+01
1	 1.199126e+00	 4.305367e-01	 2.311327e+01
1	 1.194006e+00	 4.445389e-01	 2.287501e+01
1	 1.188709e+00	 4.585158e-01	 2.254026e+01
1	 1.183234e+00	 4.724642e-01	 2.211130e+01
1	 1.177582e+00	 4.863807e-01	 2.159049e+01
1	 1.211069e+00	 4.189339e-01	 2.308441e+01
1	 1.206098e+00	 4.330398e-01	 2.294415e+01
1	 1.200948e+00	 4.471234e-01	 2.270533e+01
1	 1.195620e+00	 4.611816e-01	 2.237007e+01
1	 1.190113e+00	 4.752110e-01	 2.194058e+01
1	 1.184428e+00	 4.892085e-01	 2.141917e+01
1	 1.218070e+00	 4.213555e-01	 2.290202e+01
1	 1.213069e+00	 4.355429e-01	 2.276098e+01
1	 1.207890e+00	 4.497080e-01	 2.252168e+01
1	 1.202531e+00	 4.638474e-01	 2.218608e+01
1	 1.196992e+00	 4.779579e-01	 2.175626e+01
1	 1.191274e+00	 4.920363e-01	 2.123442e+01
1	 1.225070e+00	 4.237771e-01	 2.270565e+01
1	 1.220041e+00	 4.380460e-01	 2.256356e+01
1	 1.214832e+00	 4.522925e-01	 2.232380e+01
1	 1.209442e+00	 4.665132e-01	 2.198810e+01
1	 1.203872e+00	 4.807048e-01	 2.155836e+01
1	 1.198121e+00	 4.948641e-01	 2.103657e+01
1	 1.163889e+00	 4.807252e-01	 2.189141e+01
1	 1.158127e+00	 4.944453e-01	 2.128175e+01
1	 1.152189e+00	 5.081275e-01	 2.058530e+01
1	 1.146077e+00	 5.217686e-01	 1.980320e+01
1	 1.139788e+00	 5.353654e-01	 1.893656e+01
1	 1.133326e+00	 5.489144e-01	 1.798649e+01
1	 1.170735e+00	 4.835529e-01	 2.174802e+01
1	 1.164939e+00	 4.973538e-01	 2.113842e+01
1	 1.158967e+00	 5.111165e-01	 2.044132e+01
1	 1.152818e+00	 5.248379e-01	 1.965757e+01
1	 1.146493e+00	 5.385146e-01	 1.878808e+01
1	 1.139992e+00	 5.521434e-01	 1.783375e+01
1	 1.177582e+00	 4.863807e-01	 2.159049e+01
1	 1.171752e+00	 5.002623e-01	 2.098029e+01
1	 1.165745e+00	 5.141055e-01	 2.028201e+01
1	 1.159560e+00	 5.279071e-01	 1.949636e+01
1	 1.153198e+00	 5.416638e-01	 1.862407e+01
1	 1.146659e+00	 5.553723e-01	 1.766589e+01
1	 1.184428e+00	 4.892085e-01	 2.141917e+01
1	 1.178564e+00	 5.031708e-01	 2.080805e+01
1	 1.172522e+00	 5.170945e-01	 2.010824e+01
1	 1.166301e+00	 5.309763e-01	 1.932038e+01
1	 1.159902e+00	 5.448130e-01	 1.844513e+01
1	 1.153325e+00	 5.586012e-01	 1.748315e+01
1	 1.191274e+00	 4.920363e-01	 2.123442e+01
1	 1.185377e+00	 5.060793e-01	 2.062235e+01
1	 1.179300e+00	 5.200835e-01	 1.992081e+01
1	 1.173043e+00	 5.340455e-01	 1.913043e+01
1	 1.166607e+00	 5.479622e-01	 1.825188e+01
1	 1.159992e+00	 5.618301e-01	 1.728579e+01
1	 1.198121e+00	 4.948641e-01	 2.103657e+01
1	 1.192189e+00	 5.089878e-01	 2.042387e+01
1	 1.186077e+00	 5.230724e-01	 1.972053e+01
1	 1.179785e+00	 5.371148e-01	 1.892730e+01
1	 1.173312e+00	 5.511114e-01	 1.804491e+01
1	 1.166659e+00	 5.650590e-01	 1.707403e+01
1	 1.133326e+00	 5.489144e-01	 1.798649e+01
1	 1.126688e+00	 5.624126e-01	 1.696062e+01
1	 1.119876e+00	 5.758565e-01	 1.586685e+01
1	 1.112891e+00	 5.892430e-01	 1.470652e+01
1	 1.105733e+00	 6.025686e-01	 1.348063e+01
1	 1.098402e+00	 6.158303e-01	 1.218989e+01
1	 1.139992e+00	 5.521434e-01	 1.783375e+01
1	 1.133316e+00	 5.657209e-01	 1.680066e+01
1	 1.126464e+00	 5.792439e-01	 1.569538e+01
1	 1.119438e+00	 5.927091e-01	 1.451939e+01
1	 1.112237e+00	 6.061132e-01	 1.327389e+01
1	 1.104863e+00	 6.194528e-01	 1.195983e+01
1	 1.146659e+00	 5.553723e-01	 1.766589e+01
1	 1.139943e+00	 5.690292e-01	 1.662654e+01
1	 1.133051e+00	 5.826313e-01	 1.551133e+01
1	 1.125984e+00	 5.961752e-01	 1.432179e+01
1	 1.118741e+00	 6.096577e-01	 1.305925e+01
1	 1.111324e+00	 6.230753e-01	 1.172480e+01
1	 1.153325e+00	 5.586012e-01	 1.748315e+01
1	 1.146571e+00	 5.723375e-01	 1.643806e+01
1	 1.139639e+00	 5.860187e-01	 1.531408e+01
1	 1.132530e+00	 5.996414e-01	 1.411273e+01
1	 1.125246e+00	 6.132022e-01	 1.283536e+01
1	 1.117786e+00	 6.266979e-01	 1.148315e+01
1	 1.159992e+00	 5.618301e-01	 1.728579e+01
1	 1.153198e+00	 5.756458e-01	 1.623503e+01
1	 1.146226e+00	 5.894061e-01	 1.510305e+01
1	 1.139077e+00	 6.031075e-01	 1.389124e+01
1	 1.131750e+00	 6.167467e-01	 1.260092e+01
1	 1.124247e+00	 6.303204e-01	 1.123330e+01
1	 1.166659e+00	 5.650590e-01	 1.707403e+01
1	 1.159826e+00	 5.789541e-01	 1.601726e+01
1	 1.152814e+00	 5.927935e-01	 1.487764e+01
1	 1.145623e+00	 6.065737e-01	 1.365638e+01
1	 1.138254e+00	 6.202913e-01	 1.235468e+01
1	 1.130708e+00	 6.339429e-01	 1.097369e+01
1	 1.098402e+00	 6.158303e-01	 1.218989e+01
1	 1.090900e+00	 6.290246e-01	 1.085943e+01
1	 1.083226e+00	 6.421483e-01	 9.512158e+00
1	 1.075383e+00	 6.551981e-01	 8.144973e+00
1	 1.067371e+00	 6.681709e-01	 6.754496e+00
1	 1.059191e+00	 6.810634e-01	 5.337051e+00
1	 1.104863e+00	 6.194528e-01	 1.195983e+01
1	 1.097317e+00	 6.327247e-01	 1.060251e+01
1	 1.089598e+00	 6.459256e-01	 9.224722e+00
1	 1.081709e+00	 6.590522e-01	 7.823111e+00
1	 1.073650e+00	 6.721013e-01	 6.393917e+00
1	 1.065422e+00	 6.850696e-01	 4.932968e+00
1	 1.111324e+00	 6.230753e-01	 1.172480e+01
1	 1.103734e+00	 6.364248e-01	 1.034310e+01
1	 1.095970e+00	 6.497029e-01	 8.936091e+00
1	 1.088035e+00	 6.629063e-01	 7.500226e+00
1	 1.079929e+00	 6.760317e-01	 6.031462e+00
1	 1.071653e+00	 6.890759e-01	 4.525251e+00
1	 1.117786e+00	 6.266979e-01	 1.148315e+01
1	 1.110151e+00	 6.401250e-01	 1.007941e+01
1	 1.102342e+00	 6.534803e-01	 8.644556e+00
1	 1.094361e+00	 6.667604e-01	 7.174939e+00
1	 1.086207e+00	 6.799621e-01	 5.666328e+00
1	 1.077883e+00	 6.930821e-01	 4.113914e+00
1	 1.124247e+00	 6.303204e-01	 1.123330e+01
1	 1.116568e+00	 6.438251e-01	 9.809680e+00
1	 1.108714e+00	 6.572576e-01	 8.348448e+00
1	 1.100686e+00	 6.706145e-01	 6.845906e+00
1	 1.092486e+00	 6.838926e-01	 5.297729e+00
1	 1.084114e+00	 6.970884e-01	 3.698971e+00
1	 1.130708e+00	 6.339429e-01	 1.097369e+01
1	 1.122985e+00	 6.475253e-01	 9.532203e+00
1	 1.115086e+00	 6.610350e-01	 8.046135e+00
1	 1.107012e+00	 6.744686e-01	 6.511809e+00
1	 1.098765e+00	 6.878230e-01	 4.924899e+00
1	 1.090344e+00	 7.010946e-01	 3.280434e+00
1	 1.059191e+00	 6.810634e-01	 5.337051e+00
1	 1.050845e+00	 6.938723e-01	 3.914578e+00
1	 1.042333e+00	 7.065946e-01	 2.513376e+00
1	 1.033657e+00	 7.192270e-01	 1.136475e+00
1	 1.024818e+00	 7.317664e-01	-2.125982e-01
1	 1.015818e+00	 7.442096e-01	-1.529825e+00
1	 1.065422e+00	 6.850696e-01	 4.932968e+00
1	 1.057026e+00	 6.979539e-01	 3.466296e+00
1	 1.048464e+00	 7.107510e-01	 2.025103e+00
1	 1.039737e+00	 7.234577e-01	 6.131304e-01
1	 1.030846e+00	 7.360709e-01	-7.652642e-01
1	 1.021793e+00	 7.485873e-01	-2.105112e+00
1	 1.071653e+00	 6.890759e-01	 4.525251e+00
1	 1.063208e+00	 7.020355e-01	 3.012857e+00
1	 1.054596e+00	 7.149075e-01	 1.531396e+00
1	 1.045818e+00	 7.276885e-01	 8.525043e-02
1	 1.036875e+00	 7.403754e-01	-1.320490e+00
1	 1.027769e+00	 7.529651e-01	-2.680039e+00
1	 1.077883e+00	 6.930821e-01	 4.113914e+00
1	 1.069389e+00	 7.061171e-01	 2.555064e+00
1	 1.060727e+00	 7.190639e-01	 1.033553e+00
1	 1.051898e+00	 7.319192e-01	-4.456635e-01
1	 1.042903e+00	 7.446799e-01	-1.876866e+00
1	 1.033744e+00	 7.573428e-01	-3.253576e+00
1	 1.084114e+00	 6.970884e-01	 3.698971e+00
1	 1.075571e+00	 7.101987e-01	 2.093703e+00
1	 1.066858e+00	 7.232203e-01	 5.328445e-01
1	 1.057978e+00	 7.361500e-01	-9.781449e-01
1	 1.048931e+00	 7.489844e-01	-2.433012e+00
1	 1.039719e+00	 7.617205e-01	-3.824718e+00
1	 1.090344e+00	 7.010946e-01	 3.280434e+00
1	 1.081752e+00	 7.142803e-01	 1.629541e+00
1	 1.072990e+00	 7.273768e-01	 3.051090e-02
1	 1.064059e+00	 7.403807e-01	-1.510761e+00
1	 1.054960e+00	 7.532889e-01	-2.987584e+00
1	 1.045695e+00	 7.660982e-01	-4.392480e+00
1	 1.015818e+00	 7.442096e-01	-1.529825e+00
1	 1.006658e+00	 7.565537e-01	-2.773216e+00
1	 9.973401e-01	 7.687956e-01	-3.902082e+00
1	 9.878657e-01	 7.809322e-01	-4.913757e+00
1	 9.782368e-01	 7.929606e-01	-5.805283e+00
1	 9.684552e-01	 8.048779e-01	-6.573414e+00
1	 1.021793e+00	 7.485873e-01	-2.105112e+00
1	 1.012580e+00	 7.610041e-01	-3.364758e+00
1	 1.003207e+00	 7.733179e-01	-4.504983e+00
1	 9.936767e-01	 7.855259e-01	-5.523857e+00
1	 9.839912e-01	 7.976251e-01	-6.419237e+00
1	 9.741520e-01	 8.096125e-01	-7.188775e+00
1	 1.027769e+00	 7.529651e-01	-2.680039e+00
1	 1.018501e+00	 7.654544e-01	-3.953047e+00
1	 1.009073e+00	 7.778403e-01	-5.102625e+00
1	 9.994877e-01	 7.901197e-01	-6.127543e+00
1	 9.897455e-01	 8.022896e-01	-7.026428e+00
1	 9.798488e-01	 8.143470e-01	-7.797773e+00
1	 1.033744e+00	 7.573428e-01	-3.253576e+00
1	 1.024423e+00	 7.699047e-01	-4.537514e+00
1	 1.014940e+00	 7.823626e-01	-5.694762e+00
1	 1.005299e+00	 7.947134e-01	-6.724760e+00
1	 9.954998e-01	 8.069541e-01	-7.626864e+00
1	 9.855456e-01	 8.190816e-01	-8.400347e+00
1	 1.039719e+00	 7.617205e-01	-3.824718e+00
1	 1.030344e+00	 7.743550e-01	-5.117599e+00
1	 1.020807e+00	 7.868849e-01	-6.281152e+00
1	 1.011110e+00	 7.993071e-01	-7.315457e+00
1	 1.001254e+00	 8.116185e-01	-8.220553e+00
1	 9.912424e-01	 8.238162e-01	-8.996438e+00
1	 1.045695e+00	 7.660982e-01	-4.392480e+00
1	 1.036266e+00	 7.788053e-01	-5.692757e+00
1	 1.026674e+00	 7.914072e-01	-6.861561e+00
1	 1.016921e+00	 8.039008e-01	-7.899583e+00
1	 1.007009e+00	 8.162830e-01	-8.807503e+00
1	 9.969392e-01	 8.285508e-01	-9.585988e+00
1	 9.684552e-01	 8.048779e-01	-6.573414e+00
1	 9.585227e-01	 8.166811e-01	-7.248466e+00
1	 9.484415e-01	 8.283675e-01	-7.862445e+00
1	 9.382135e-01	 8.399341e-01	-8.414450e+00
1	 9.278409e-01	 8.513784e-01	-8.903617e+00
1	 9.173259e-01	 8.626975e-01	-9.329114e+00
1	 9.741520e-01	 8.096125e-01	-7.188775e+00
1	 9.641611e-01	 8.214851e-01	-7.864926e+00
1	 9.540205e-01	 8.332402e-01	-8.481014e+00
1	 9.437324e-01	 8.448749e-01	-9.035850e+00
1	 9.332988e-01	 8.563865e-01	-9.528246e+00
1	 9.227220e-01	 8.677722e-01	-9.957017e+00
1	 9.798488e-01	 8.143470e-01	-7.797773e+00
1	 9.697995e-01	 8.262891e-01	-8.475633e+00
1	 9.595996e-01	 8.381130e-01	-9.094165e+00
1	 9.492513e-01	 8.498157e-01	-9.651887e+00
1	 9.387567e-01	 8.613946e-01	-1.014730e+01
1	 9.281180e-01	 8.728469e-01	-1.057887e+01
1	 9.855456e-01	 8.190816e-01	-8.400347e+00
1	 9.754378e-01	 8.310931e-01	-9.080415e+00
1	 9.651787e-01	 8.429857e-01	-9.701645e+00
1	 9.547702e-01	 8.547565e-01	-1.026227e+01
1	 9.442145e-01	 8.664027e-01	-1.076047e+01
1	 9.335140e-01	 8.779216e-01	-1.119440e+01
1	 9.912424e-01	 8.238162e-01	-8.996438e+00
1	 9.810762e-01	 8.358972e-01	-9.679098e+00
1	 9.707577e-01	 8.478585e-01	-1.030321e+01
1	 9.602891e-01	 8.596973e-01	-1.086671e+01
1	 9.496724e-01	 8.714108e-01	-1.136750e+01
1	 9.389101e-01	 8.829963e-01	-1.180337e+01
1	 9.969392e-01	 8.285508e-01	-9.585988e+00
1	 9.867146e-01	 8.407012e-01	-1.027152e+01
1	 9.763368e-01	 8.527312e-01	-1.089861e+01
1	 9.658080e-01	 8.646381e-01	-1.146494e+01
1	 9.551303e-01	 8.764189e-01	-1.196808e+01
1	 9.443061e-01	 8.880710e-01	-1.240553e+01
1	 9.173259e-01	 8.626975e-01	-9.329114e+00
1	 9.066709e-01	 8.738889e-01	-9.722477e+00
1	 8.958781e-01	 8.849499e-01	-1.011576e+01
1	 8.849499e-01	 8.958781e-01	-1.050899e+01
1	 8.738889e-01	 9.066709e-01	-1.090229e+01
1	 8.626975e-01	 9.173259e-01	-1.129584e+01
1	 9.227220e-01	 8.677722e-01	-9.957017e+00
1	 9.120042e-01	 8.790294e-01	-1.035389e+01
1	 9.011479e-01	 8.901555e-01	-1.075137e+01
1	 8.901555e-01	 9.011479e-01	-1.114950e+01
1	 8.790294e-01	 9.120042e-01	-1.154841e+01
1	 8.677722e-01	 9.227220e-01	-1.194833e+01
1	 9.281180e-01	 8.728469e-01	-1.057887e+01
1	 9.173376e-01	 8.841699e-01	-1.097866e+01
1	 9.064178e-01	 8.953611e-01	-1.137979e+01
1	 8.953611e-01	 9.064178e-01	-1.178239e+01
1	 8.841699e-01	 9.173376e-01	-1.218664e+01
1	 8.728469e-01	 9.281180e-01	-1.259284e+01
1	 9.335140e-01	 8.779216e-01	-1.119440e+01
1	 9.226709e-01	 8.893105e-01	-1.159658e+01
1	 9.116877e-01	 9.005667e-01	-1.200091e+01
1	 9.005667e-01	 9.116877e-01	-1.240761e+01
1	 8.893105e-01	 9.226709e-01	-1.281701e+01
1	 8.779216e-01	 9.335140e-01	-1.322950e+01
1	 9.389101e-01	 8.829963e-01	-1.180337e+01
1	 9.280043e-01	 8.944510e-01	-1.220746e+01
1	 9.169576e-01	 9.057723e-01	-1.261458e+01
1	 9.057723e-01	 9.169576e-01	-1.302511e+01
1	 8.944510e-01	 9.280043e-01	-1.343955e+01
1	 8.829963e-01	 9.389101e-01	-1.385844e+01
1	 9.443061e-01	 8.880710e-01	-1.240553e+01
1	 9.333377e-01	 8.995915e-01	-1.281111e+01
1	 9.222274e-01	 9.109779e-01	-1.322068e+01
1	 9.109779e-01	 9.222274e-01	-1.363484e+01
1	 8.995915e-01	 9.333377e-01	-1.405428e+01
1	 8.880710e-01	 9.443061e-01	-1.447977e+01
1	 8.626975e-01	 9.173259e-01	-1.129584e+01
1	 8.513784e-01	 9.278409e-01	-1.172382e+01
1	 8.399341e-01	 9.382135e-01	-1.221896e+01
1	 8.283675e-01	 9.484415e-01	-1.277935e+01
1	 8.166811e-01	 9.585227e-01	-1.340313e+01
1	 8.048779e-01	 9.684552e-01	-1.408843e+01
1	 8.677722e-01	 9.227220e-01	-1.194833e+01
1	 8.563865e-01	 9.332988e-01	-1.238353e+01
1	 8.448749e-01	 9.437324e-01	-1.288727e+01
1	 8.332402e-01	 9.540205e-01	-1.345827e+01
1	 8.214851e-01	 9.641611e-01	-1.409534e+01
1	 8.096125e-01	 9.741520e-01	-1.479730e+01
1	 8.728469e-01	 9.281180e-01	-1.259284e+01
1	 8.613946e-01	 9.387567e-01	-1.303555e+01
1	 8.498157e-01	 9.492513e-01	-1.354856e+01
1	 8.381130e-01	 9.595996e-01	-1.413105e+01
1	 8.262891e-01	 9.697995e-01	-1.478229e+01
1	 8.143470e-01	 9.798488e-01	-1.550161e+01
1	 8.779216e-01	 9.335140e-01	-1.322950e+01
1	 8.664027e-01	 9.442145e-01	-1.368008e+01
1	 8.547565e-01	 9.547702e-01	-1.420300e+01
1	 8.429857e-01	 9.651787e-01	-1.479775e+01
1	 8.310931e-01	 9.754378e-01	-1.546387e+01
1	 8.190816e-01	 9.855456e-01	-1.620102e+01
1	 8.829963e-01	 9.389101e-01	-1.385844e+01
1	 8.714108e-01	 9.496724e-01	-1.431727e+01
1	 8.596973e-01	 9.602891e-01	-1.485074e+01
1	 8.478585e-01	 9.707577e-01	-1.545842e+01
1	 8.358972e-01	 9.810762e-01	-1.613998e+01
1	 8.238162e-01	 9.912424e-01	-1.689517e+01
1	 8.880710e-01	 9.443061e-01	-1.447977e+01
1	 8.764189e-01	 9.551303e-01	-1.494731e+01
1	 8.646381e-01	 9.658080e-01	-1.549193e+01
1	 8.527312e-01	 9.763368e-01	-1.611313e+01
1	 8.407012e-01	 9.867146e-01	-1.681050e+01
1	 8.285508e-01	 9.969392e-01	-1.758375e+01
1	 8.048779e-01	 9.684552e-01	-1.408843e+01
1	 7.929606e-01	 9.782368e-01	-1.485927e+01
1	 7.809322e-01	 9.878657e-01	-1.574453e+01
1	 7.687956e-01	 9.973401e-01	-1.674998e+01
1	 7.565537e-01	 1.006658e+00	-1.788172e+01
1	 7.442096e-01	 1.015818e+00	-1.914615e+01
1	 8.096125e-01	 9.741520e-01	-1.479730e+01
1	 7.976251e-01	 9.839912e-01	-1.559010e+01
1	 7.855259e-01	 9.936767e-01	-1.650285e+01
1	 7.733179e-01	 1.003207e+00	-1.753942e+01
1	 7.610041e-01	 1.012580e+00	-1.870393e+01
1	 7.485873e-01	 1.021793e+00	-2.000073e+01
1	 8.143470e-01	 9.798488e-01	-1.550161e+01
1	 8.022896e-01	 9.897455e-01	-1.631628e+01
1	 7.901197e-01	 9.994877e-01	-1.725556e+01
1	 7.778403e-01	 1.009073e+00	-1.832197e+01
1	 7.654544e-01	 1.018501e+00	-1.951825e+01
1	 7.529651e-01	 1.027769e+00	-2.084729e+01
1	 8.190816e-01	 9.855456e-01	-1.620102e+01
1	 8.069541e-01	 9.954998e-01	-1.703733e+01
1	 7.947134e-01	 1.005299e+00	-1.800224e+01
1	 7.823626e-01	 1.014940e+00	-1.909751e+01
1	 7.699047e-01	 1.024423e+00	-2.032507e+01
1	 7.573428e-01	 1.033744e+00	-2.168694e+01
1	 8.238162e-01	 9.912424e-01	-1.689517e+01
1	 8.116185e-01	 1.001254e+00	-1.775274e+01
1	 7.993071e-01	 1.011110e+00	-1.874247e+01
1	 7.868849e-01	 1.020807e+00	-1.986592e+01
1	 7.743550e-01	 1.030344e+00	-2.112474e+01
1	 7.617205e-01	 1.039719e+00	-2.252074e+01
1	 8.285508e-01	 9.969392e-01	-1.758375e+01
1	 8.162830e-01	 1.007009e+00	-1.846204e+01
1	 8.039008e-01	 1.016921e+00	-1.947585e+01
1	 7.914072e-01	 1.026674e+00	-2.062706e+01
1	 7.788053e-01	 1.036266e+00	-2.191765e+01
1	 7.660982e-01	 1.045695e+00	-2.334972e+01
1	 7.442096e-01	 1.015818e+00	-1.914615e+01
1	 7.317664e-01	 1.024818e+00	-2.051689e+01
1	 7.192270e-01	 1.033657e+00	-2.197068e+01
1	 7.065946e-01	 1.042333e+00	-2.351913e+01
1	 6.938723e-01	 1.050845e+00	-2.517412e+01
1	 6.810634e-01	 1.059191e+00	-2.694784e+01
1	 7.485873e-01	 1.021793e+00	-2.000073e+01
1	 7.360709e-01	 1.030846e+00	-2.140317e+01
1	 7.234577e-01	 1.039737e+00	-2.289131e+01
1	 7.107510e-01	 1.048464e+00	-2.448008e+01
1	 6.979539e-01	 1.057026e+00	-2.618481e+01
1	 6.850696e-01	 1.065422e+00	-2.802124e+01
1	 7.529651e-01	 1.027769e+00	-2.084729e+01
1	 7.403754e-01	 1.036875e+00	-2.228346e+01
1	 7.276885e-01	 1.045818e+00	-2.381014e+01
1	 7.149075e-01	 1.054596e+00	-2.544428e+01
1	 7.020355e-01	 1.063208e+00	-2.720334e+01
1	 6.890759e-01	 1.071653e+00	-2.910527e+01
1	 7.573428e-01	 1.033744e+00	-2.168694e+01
1	 7.446799e-01	 1.042903e+00	-2.315942e+01
1	 7.319192e-01	 1.051898e+00	-2.472889e+01
1	 7.190639e-01	 1.060727e+00	-2.641308e+01
1	 7.061171e-01	 1.069389e+00	-2.823028e+01
1	 6.930821e-01	 1.077883e+00	-3.019928e+01
1	 7.617205e-01	 1.039719e+00	-2.252074e+01
1	 7.489844e-01	 1.048931e+00	-2.403266e+01
1	 7.361500e-01	 1.057978e+00	-2.564927e+01
1	 7.232203e-01	 1.066858e+00	-2.738782e+01
1	 7.101987e-01	 1.075571e+00	-2.926616e+01
1	 6.970884e-01	 1.084114e+00	-3.130262e+01
1	 7.660982e-01	 1.045695e+00	-2.334972e+01
1	 7.532889e-01	 1.054960e+00	-2.490475e+01
1	 7.403807e-01	 1.064059e+00	-2.657291e+01
1	 7.273768e-01	 1.072990e+00	-2.836979e+01
1	 7.142803e-01	 1.081752e+00	-3.031150e+01
1	 7.010946e-01	 1.090344e+00	-3.241466e+01
1	 6.810634e-01	 1.059191e+00	-2.694784e+01
1	 6.681709e-01	 1.067371e+00	-2.882343e+01
1	 6.551981e-01	 1.075383e+00	-3.077098e+01
1	 6.421483e-01	 1.083226e+00	-3.278307e+01
1	 6.290246e-01	 1.090900e+00	-3.485196e+01
1	 6.158303e-01	 1.098402e+00	-3.696960e+01
1	 6.850696e-01	 1.065422e+00	-2.802124e+01
1	 6.721013e-01	 1.073650e+00	-2.997042e+01
1	 6.590522e-01	 1.081709e+00	-3.199468e+01
1	 6.459256e-01	 1.089598e+00	-3.408163e+01
1	 6.327247e-01	 1.097317e+00	-3.621840e+01
1	 6.194528e-01	 1.104863e+00	-3.839171e+01
1	 6.890759e-01	 1.071653e+00	-2.910527e+01
1	 6.760317e-01	 1.079929e+00	-3.112671e+01
1	 6.629063e-01	 1.088035e+00	-3.322152e+01
1	 6.497029e-01	 1.095970e+00	-3.537334e+01
1	 6.364248e-01	 1.103734e+00	-3.756527e+01
1	 6.230753e-01	 1.111324e+00	-3.977987e+01
1	 6.930821e-01	 1.077883e+00	-3.019928e+01
1	 6.799621e-01	 1.086207e+00	-3.229044e+01
1	 6.667604e-01	 1.094361e+00	-3.444882e+01
1	 6.534803e-01	 1.102342e+00	-3.665513e+01
1	 6.401250e-01	 1.110151e+00	-3.888945e+01
1	 6.266979e-01	 1.117786e+00	-4.113127e+01
1	 6.970884e-01	 1.084114e+00	-3.130262e+01
1	 6.838926e-01	 1.092486e+00	-3.345980e+01
1	 6.706145e-01	 1.100686e+00	-3.567399e+01
1	 6.572576e-01	 1.108714e+00	-3.792398e+01
1	 6.438251e-01	 1.116568e+00	-4.018787e+01
1	 6.303204e-01	 1.124247e+00	-4.244311e+01
1	 7.010946e-01	 1.090344e+00	-3.241466e+01
1	 6.878230e-01	 1.098765e+00	-3.463299e+01
1	 6.744686e-01	 1.107012e+00	-3.689448e+01
1	 6.610350e-01	 1.115086e+00	-3.917696e+01
1	 6.475253e-01	 1.122985e+00	-4.145754e+01
1	 6.339429e-01	 1.130708e+00	-4.371270e+01
1	 6.158303e-01	 1.098402e+00	-3.696960e+01
1	 6.025686e-01	 1.105733e+00	-3.909478e+01
1	 5.892430e-01	 1.112891e+00	-4.117932e+01
1	 5.758565e-01	 1.119876e+00	-4.320420e+01
1	 5.624126e-01	 1.126688e+00	-4.515004e+01
1	 5.489144e-01	 1.133326e+00	-4.699709e+01
1	 6.194528e-01	 1.104863e+00	-3.839171e+01
1	 6.061132e-01	 1.112237e+00	-4.055496e+01
1	 5.927091e-01	 1.119438e+00	-4.265950e+01
1	 5.792439e-01	 1.126464e+00	-4.468837e+01
1	 5.657209e-01	 1.133316e+00	-4.662428e+01
1	 5.521434e-01	 1.139992e+00	-4.844964e+01
1	 6.230753e-01	 1.111324e+00	-3.977987e+01
1	 6.096577e-01	 1.118741e+00	-4.196726e+01
1	 5.961752e-01	 1.125984e+00	-4.407993e+01
1	 5.826313e-01	 1.133051e+00	-4.610343e+01
1	 5.690292e-01	 1.139943e+00	-4.802308e+01
1	 5.553723e-01	 1.146659e+00	-4.982391e+01
1	 6.266979e-01	 1.117786e+00	-4.113127e+01
1	 6.132022e-01	 1.125246e+00	-4.332932e+01
1	 5.996414e-01	 1.132530e+00	-4.543878e+01
1	 5.860187e-01	 1.139639e+00	-4.744819e+01
1	 5.723375e-01	 1.146571e+00	-4.934587e+01
1	 5.586012e-01	 1.153325e+00	-5.112000e+01
1	 6.303204e-01	 1.124247e+00	-4.244311e+01
1	 6.167467e-01	 1.131750e+00	-4.463887e+01
1	 6.031075e-01	 1.139077e+00	-4.673432e+01
1	 5.894061e-01	 1.146226e+00	-4.872146e+01
1	 5.756458e-01	 1.153198e+00	-5.059211e+01
1	 5.618301e-01	 1.159992e+00	-5.233802e+01
1	 6.339429e-01	 1.130708e+00	-4.371270e+01
1	 6.202913e-01	 1.138254e+00	-4.589364e+01
1	 6.065737e-01	 1.145623e+00	-4.796482e+01
1	 5.927935e-01	 1.152814e+00	-4.992210e+01
1	 5.789541e-01	 1.159826e+00	-5.176126e+01
1	 5.650590e-01	 1.166659e+00	-5.347806e+01
1	 5.489144e-01	 1.133326e+00	-4.699709e+01
1	 5.353654e-01	 1.139788e+00	-4.871474e+01
1	 5.217686e-01	 1.146077e+00	-5.028316e+01
1	 5.081275e-01	 1.152189e+00	-5.169857e+01
1	 4.944453e-01	 1.158127e+00	-5.295720e+01
1	 4.807252e-01	 1.163889e+00	-5.405538e+01
1	 5.521434e-01	 1.139992e+00	-4.844964e+01
1	 5.385146e-01	 1.146493e+00	-5.013800e+01
1	 5.248379e-01	 1.152818e+00	-5.167374e+01
1	 5.111165e-01	 1.158967e+00	-5.305538e+01
1	 4.973538e-01	 1.164939e+00	-5.428153e+01
1	 4.835529e-01	 1.170735e+00	-5.535087e+01
1	 5.553723e-01	 1.146659e+00	-4.982391e+01
1	 5.416638e-01	 1.153198e+00	-5.148366e+01
1	 5.279071e-01	 1.159560e+00	-5.298986e+01
1	 5.141055e-01	 1.165745e+00	-5.434219e+01
1	 5.002623e-01	 1.171752e+00	-5.554039e+01
1	 4.863807e-01	 1.177582e+00	-5.658430e+01
1	 5.586012e-01	 1.153325e+00	-5.112000e+01
1	 5.448130e-01	 1.159902e+00	-5.275236e+01
1	 5.309763e-01	 1.166301e+00	-5.423244e+01
1	 5.170945e-01	 1.172522e+00	-5.555989e+01
1	 5.031708e-01	 1.178564e+00	-5.673443e+01
1	 4.892085e-01	 1.184428e+00	-5.775586e+01
1	 5.618301e-01	 1.159992e+00	-5.233802e+01
1	 5.479622e-01	 1.166607e+00	-5.394473e+01
1	 5.340455e-01	 1.173043e+00	-5.540234e+01
1	 5.200835e-01	 1.179300e+00	-5.670935e+01
1	 5.060793e-01	 1.185377e+00	-5.786428e+01
1	 4.920363e-01	 1.191274e+00	-5.886572e+01
1	 5.650590e-01	 1.166659e+00	-5.347806e+01
1	 5.511114e-01	 1.173312e+00	-5.506139e+01
1	 5.371148e-01	 1.179785e+00	-5.650044e+01
1	 5.230724e-01	 1.186077e+00	-5.779143e+01
1	 5.089878e-01	 1.192189e+00	-5.893057e+01
1	 4.948641e-01	 1.198121e+00	-5.991406e+01
1	 4.807252e-01	 1.163889e+00	-5.405538e+01
1	 4.669704e-01	 1.169475e+00	-5.498218e+01
1	 4.531842e-01	 1.174886e+00	-5.572808e+01
1	 4.393698e-01	 1.180122e+00	-5.629160e+01
1	 4.255304e-01	 1.185183e+00	-5.667133e+01
1	 4.116692e-01	 1.190068e+00	-5.686598e+01
1	 4.835529e-01	 1.170735e+00	-5.535087e+01
1	 4.697173e-01	 1.176355e+00	-5.625402e+01
1	 4.558500e-01	 1.181797e+00	-5.698047e+01
1	 4.419544e-01	 1.187064e+00	-5.752733e+01
1	 4.280335e-01	 1.192154e+00	-5.789177e+01
1	 4.140907e-01	 1.197069e+00	-5.807105e+01
1	 4.863807e-01	 1.177582e+00	-5.658430e+01
1	 4.724642e-01	 1.183234e+00	-5.746494e+01
1	 4.585158e-01	 1.188709e+00	-5.817109e+01
1	 4.445389e-01	 1.194006e+00	-5.869934e+01
1	 4.305367e-01	 1.199126e+00	-5.904631e+01
1	 4.165123e-01	 1.204069e+00	-5.920871e+01
1	 4.892085e-01	 1.184428e+00	-5.775586e+01
1	 4.752110e-01	 1.190113e+00	-5.861468e+01
1	 4.611816e-01	 1.195620e+00	-5.929945e+01
1	 4.471234e-01	 1.200948e+00	-5.980707e+01
1	 4.330398e-01	 1.206098e+00	-6.013453e+01
1	 4.189339e-01	 1.211069e+00	-6.027886e+01
1	 4.920363e-01	 1.191274e+00	-5.886572e+01
1	 4.779579e-01	 1.196992e+00	-5.970299e+01
1	 4.638474e-01	 1.202531e+00	-6.036505e+01
1	 4.497080e-01	 1.207890e+00	-6.085000e+01
1	 4.355429e-01	 1.213069e+00	-6.115604e+01
1	 4.213555e-01	 1.218070e+00	-6.128140e+01
1	 4.948641e-01	 1.198121e+00	-5.991406e+01
1	 4.807048e-01	 1.203872e+00	-6.072960e+01
1	 4.665132e-01	 1.209442e+00	-6.136740e+01
1	 4.522925e-01	 1.214832e+00	-6.182761e+01
1	 4.380460e-01	 1.220041e+00	-6.211045e+01
1	 4.237771e-01	 1.225070e+00	-6.221624e+01
1	 4.116692e-01	 1.190068e+00	-5.686598e+01
1	 3.977892e-01	 1.194779e+00	-5.689297e+01
1	 3.838935e-01	 1.199316e+00	-5.676058e+01
1	 3.699854e-01	 1.203680e+00	-5.645399e+01
1	 3.560678e-01	 1.207870e+00	-5.595851e+01
1	 3.421438e-01	 1.211888e+00	-5.525965e+01
1	 4.140907e-01	 1.197069e+00	-5.807105e+01
1	 4.001291e-01	 1.201807e+00	-5.808077e+01
1	 3.861517e-01	 1.206371e+00	-5.792870e+01
1	 3.721618e-01	 1.210760e+00	-5.760052e+01
1	 3.581623e-01	 1.214975e+00	-5.708207e+01
1	 3.441564e-01	 1.219016e+00	-5.635939e+01
1	 4.165123e-01	 1.204069e+00	-5.920871e+01
1	 4.024690e-01	 1.208836e+00	-5.920119e+01
1	 3.884099e-01	 1.213426e+00	-5.903098e+01
1	 3.743382e-01	 1.217841e+00	-5.868385e+01
1	 3.602568e-01	 1.222080e+00	-5.814575e+01
1	 3.461690e-01	 1.226145e+00	-5.740281e+01
1	 4.189339e-01	 1.211069e+00	-6.027886e+01
1	 4.048090e-01	 1.215864e+00	-6.025445e+01
1	 3.906681e-01	 1.220481e+00	-6.006785e+01
1	 3.765146e-01	 1.224921e+00	-5.970450e+01
1	 3.623513e-01	 1.229185e+00	-5.915003e+01
1	 3.481816e-01	 1.233274e+00	-5.839028e+01
1	 4.213555e-01	 1.218070e+00	-6.128140e+01
1	 4.071489e-01	 1.222892e+00	-6.124078e+01
1	 3.929263e-01	 1.227536e+00	-6.103971e+01
1	 3.786909e-01	 1.232002e+00	-6.066295e+01
1	 3.644459e-01	 1.236290e+00	-6.009541e+01
1	 3.501942e-01	 1.240403e+00	-5.932216e+01
1	 4.237771e-01	 1.225070e+00	-6.221624e+01
1	 4.094888e-01	 1.229920e+00	-6.216037e+01
1	 3.951845e-01	 1.234590e+00	-6.194698e+01
1	 3.808673e-01	 1.239082e+00	-6.155971e+01
1	 3.665404e-01	 1.243395e+00	-6.098233e+01
1	 3.522068e-01	 1.247531e+00	-6.019882e+01
1	 3.421438e-01	 1.211888e+00	-5.525965e+01
1	 3.282163e-01	 1.215734e+00	-5.438691e+01
1	 3.142883e-01	 1.219408e+00	-5.338847e+01
1	 3.003627e-01	 1.222913e+00	-5.227808e+01
1	 2.864425e-01	 1.226248e+00	-5.106964e+01
1	 2.725305e-01	 1.229415e+00	-4.977716e+01
1	 3.441564e-01	 1.219016e+00	-5.635939e+01
1	 3.301469e-01	 1.222885e+00	-5.546420e+01
1	 3.161370e-01	 1.226581e+00	-5.444586e+01
1	 3.021296e-01	 1.230107e+00	-5.331712e+01
1	 2.881275e-01	 1.233461e+00	-5.209089e+01
1	 2.741336e-01	 1.236647e+00	-5.078014e+01
1	 3.461690e-01	 1.226145e+00	-5.740281e+01
1	 3.320776e-01	 1.230036e+00	-5.648849e+01
1	 3.179858e-01	 1.233754e+00	-5.545322e+01
1	 3.038964e-01	 1.237300e+00	-5.430888e+01
1	 2.898124e-01	 1.240675e+00	-5.306751e+01
1	 2.757367e-01	 1.243879e+00	-5.174121e+01
1	 3.481816e-01	 1.233274e+00	-5.839028e+01
1	 3.340083e-01	 1.237188e+00	-5.746001e+01
1	 3.198345e-01	 1.240927e+00	-5.641069e+01
1	 3.056633e-01	 1.244494e+00	-5.525347e+01
1	 2.914974e-01	 1.247888e+00	-5.399962e+01
1	 2.773398e-01	 1.251110e+00	-5.266052e+01
1	 3.501942e-01	 1.240403e+00	-5.932216e+01
1	 3.359390e-01	 1.244339e+00	-5.837899e+01
1	 3.216833e-01	 1.248100e+00	-5.731842e+01
1	 3.074301e-01	 1.251687e+00	-5.615098e+01
1	 2.931823e-01	 1.255101e+00	-5.488734e+01
1	 2.789430e-01	 1.258342e+00	-5.353824e+01
1	 3.522068e-01	 1.247531e+00	-6.019882e+01
1	 3.378697e-01	 1.251490e+00	-5.924566e+01
1	 3.235321e-01	 1.255273e+00	-5.817656e+01
1	 3.091969e-01	 1.258881e+00	-5.700155e+01
1	 2.948673e-01	 1.262314e+00	-5.573077e+01
1	 2.805461e-01	 1.265574e+00	-5.437452e+01
1	 2.725305e-01	 1.229415e+00	-4.977716e+01
1	 2.586294e-01	 1.232414e+00	-4.841739e+01
1	 2.447421e-01	 1.235247e+00	-4.700741e+01
1	 2.308712e-01	 1.237915e+00	-4.556178e+01
1	 2.170195e-01	 1.240418e+00	-4.409499e+01
1	 2.031896e-01	 1.242758e+00	-4.262151e+01
1	 2.741336e-01	 1.236647e+00	-5.078014e+01
1	 2.601508e-01	 1.239664e+00	-4.940119e+01
1	 2.461817e-01	 1.242513e+00	-4.797169e+01
1	 2.322293e-01	 1.245196e+00	-4.650670e+01
1	 2.182961e-01	 1.247714e+00	-4.502127e+01
1	 2.043848e-01	 1.250069e+00	-4.353037e+01
1	 2.757367e-01	 1.243879e+00	-5.174121e+01
1	 2.616721e-01	 1.246913e+00	-5.034604e+01
1	 2.476214e-01	 1.249779e+00	-4.890028e+01
1	 2.335874e-01	 1.252478e+00	-4.741941e+01
1	 2.195727e-01	 1.255011e+00	-4.591888e+01
1	 2.055801e-01	 1.257379e+00	-4.441411e+01
1	 2.773398e-01	 1.251110e+00	-5.266052e+01
1	 2.631935e-01	 1.254163e+00	-5.125215e+01
1	 2.490611e-01	 1.257045e+00	-4.979343e+01
1	 2.349454e-01	 1.259760e+00	-4.830014e+01
1	 2.208493e-01	 1.262308e+00	-4.678806e+01
1	 2.067753e-01	 1.264689e+00	-4.527291e+01
1	 2.789430e-01	 1.258342e+00	-5.353824e+01
1	 2.647148e-01	 1.261412e+00	-5.211974e+01
1	 2.505007e-01	 1.264312e+00	-5.065138e+01
1	 2.363035e-01	 1.267042e+00	-4.914915e+01
1	 2.221259e-01	 1.269604e+00	-4.762904e+01
1	 2.079705e-01	 1.272000e+00	-4.610698e+01
1	 2.805461e-01	 1.265574e+00	-5.437452e+01
1	 2.662362e-01	 1.268662e+00	-5.294902e+01
1	 2.519404e-01	 1.271578e+00	-5.147436e+01
1	 2.376616e-01	 1.274324e+00	-4.996666e+01
1	 2.234024e-01	 1.276901e+00	-4.844203e+01
1	 2.091658e-01	 1.279310e+00	-4.691650e+01
1	 2.031896e-01	 1.242758e+00	-4.262151e+01
1	 1.893840e-01	 1.244937e+00	-4.115987e+01
1	 1.756054e-01	 1.246955e+00	-3.972821e+01
1	 1.618562e-01	 1.248814e+00	-3.834020e+01
1	 1.481388e-01	 1.250515e+00	-3.700930e+01
1	 1.344557e-01	 1.252061e+00	-3.574873e+01
1	 2.043848e-01	 1.250069e+00	-4.353037e+01
1	 1.904981e-01	 1.252260e+00	-4.205276e+01
1	 1.766384e-01	 1.254290e+00	-4.060620e+01
1	 1.628083e-01	 1.256160e+00	-3.920399e+01
1	 1.490102e-01	 1.257871e+00	-3.785923e+01
1	 1.352467e-01	 1.259426e+00	-3.658478e+01
1	 2.055801e-01	 1.257379e+00	-4.441411e+01
1	 1.916121e-01	 1.259583e+00	-4.292391e+01
1	 1.776714e-01	 1.261625e+00	-4.146563e+01
1	 1.637604e-01	 1.263506e+00	-4.005222e+01
1	 1.498816e-01	 1.265227e+00	-3.869642e+01
1	 1.360376e-01	 1.266791e+00	-3.741076e+01
1	 2.067753e-01	 1.264689e+00	-4.527291e+01
1	 1.927261e-01	 1.266906e+00	-4.377348e+01
1	 1.787043e-01	 1.268960e+00	-4.230663e+01
1	 1.647125e-01	 1.270852e+00	-4.088499e+01
1	 1.507531e-01	 1.272583e+00	-3.952097e+01
1	 1.368285e-01	 1.274156e+00	-3.822677e+01
1	 2.079705e-01	 1.272000e+00	-4.610698e+01
1	 1.938401e-01	 1.274229e+00	-4.460162e+01
1	 1.797373e-01	 1.276295e+00	-4.312933e+01
1	 1.656646e-01	 1.278198e+00	-4.170241e+01
1	 1.516245e-01	 1.279939e+00	-4.033297e+01
1	 1.376194e-01	 1.281521e+00	-3.903288e+01
1	 2.091658e-01	 1.279310e+00	-4.691650e+01
1	 1.949542e-01	 1.281553e+00	-4.540848e+01
1	 1.807703e-01	 1.283630e+00	-4.393384e+01
1	 1.666167e-01	 1.285544e+00	-4.250457e+01
1	 1.524959e-01	 1.287295e+00	-4.113249e+01
1	 1.384103e-01	 1.288886e+00	-3.982918e+01
1	 1.344557e-01	 1.252061e+00	-3.574873e+01
1	 1.208092e-01	 1.253451e+00	-3.457142e+01
1	 1.072016e-01	 1.254688e+00	-3.349021e+01
1	 9.363520e-02	 1.255773e+00	-3.251771e+01
1	 8.011209e-02	 1.256708e+00	-3.166624e+01
1	 6.663447e-02	 1.257495e+00	-3.094774e+01
1	 1.352467e-01	 1.259426e+00	-3.658478e+01
1	 1.215199e-01	 1.260824e+00	-3.539338e+01
1	 1.078322e-01	 1.262068e+00	-3.429796e+01
1	 9.418599e-02	 1.263160e+00	-3.331120e+01
1	 8.058334e-02	 1.264101e+00	-3.244546e+01
1	 6.702644e-02	 1.264892e+00	-3.171274e+01
1	 1.360376e-01	 1.266791e+00	-3.741076e+01
1	 1.222305e-01	 1.268197e+00	-3.620781e+01
1	 1.084628e-01	 1.269449e+00	-3.510055e+01
1	 9.473679e-02	 1.270547e+00	-3.410164e+01
1	 8.105459e-02	 1.271493e+00	-3.322345e+01
1	 6.741841e-02	 1.272289e+00	-3.247795e+01
1	 1.368285e-01	 1.274156e+00	-3.822677e+01
1	 1.229412e-01	 1.275571e+00	-3.701480e+01
1	 1.090934e-01	 1.276829e+00	-3.589805e+01
1	 9.528758e-02	 1.277934e+00	-3.488912e+01
1	 8.152583e-02	 1.278886e+00	-3.400027e+01
1	 6.781038e-02	 1.279686e+00	-3.324343e+01
1	 1.376194e-01	 1.281521e+00	-3.903288e+01
1	 1.236518e-01	 1.282944e+00	-3.781442e+01
1	 1.097240e-01	 1.284210e+00	-3.669054e+01
1	 9.583838e-02	 1.285321e+00	-3.567369e+01
1	 8.199708e-02	 1.286278e+00	-3.477600e+01
1	 6.820234e-02	 1.287083e+00	-3.400924e+01
1	 1.384103e-01	 1.288886e+00	-3.982918e+01
1	 1.243625e-01	 1.290317e+00	-3.860677e+01
1	 1.103546e-01	 1.291590e+00	-3.747810e+01
1	 9.638917e-02	 1.292708e+00	-3.645544e+01
1	 8.246833e-02	 1.293670e+00	-3.555068e+01
1	 6.859431e-02	 1.294480e+00	-3.477542e+01
1	 6.663447e-02	 1.257495e+00	-3.094774e+01
1	 5.320443e-02	 1.258135e+00	-3.037487e+01
1	 3.982401e-02	 1.258629e+00	-2.995970e+01
1	 2.649518e-02	 1.258980e+00	-2.971276e+01
1	 1.321988e-02	 1.259190e+00	-2.964413e+01
1	 0.000000e+00	 1.259259e+00	-2.976348e+01
1	 6.702644e-02	 1.264892e+00	-3.171274e+01
1	 5.351740e-02	 1.265536e+00	-3.112567e+01
1	 4.005827e-02	 1.266033e+00	-3.069622e+01
1	 2.665103e-02	 1.266386e+00	-3.043484e+01
1	 1.329765e-02	 1.266597e+00	-3.035157e+01
1	 0.000000e+00	 1.266667e+00	-3.045599e+01
1	 6.741841e-02	 1.272289e+00	-3.247795e+01
1	 5.383037e-02	 1.272936e+00	-3.187768e+01
1	 4.029252e-02	 1.273437e+00	-3.143449e+01
1	 2.680689e-02	 1.273792e+00	-3.115877e+01
1	 1.337541e-02	 1.274004e+00	-3.106052e+01
1	 0.000000e+00	 1.274074e+00	-3.114926e+01
1	 6.781038e-02	 1.279686e+00	-3.324343e+01
1	 5.414334e-02	 1.280337e+00	-3.263096e+01
1	 4.052678e-02	 1.280840e+00	-3.217457e+01
1	 2.696274e-02	 1.281198e+00	-3.188463e+01
1	 1.345318e-02	 1.281411e+00	-3.177109e+01
1	 0.000000e+00	 1.281481e+00	-3.184342e+01
1	 6.820234e-02	 1.287083e+00	-3.400924e+01
1	 5.445630e-02	 1.287738e+00	-3.338555e+01
1	 4.076104e-02	 1.288244e+00	-3.291653e+01
1	 2.711860e-02	 1.288604e+00	-3.261250e+01
1	 1.353094e-02	 1.288818e+00	-3.248337e+01
1	 0.000000e+00	 1.288889e+00	-3.253861e+01
1	 6.859431e-02	 1.294480e+00	-3.477542e+01
1	 5.476927e-02	 1.295139e+00	-3.414152e+01
1	 4.099530e-02	 1.295648e+00	-3.366042e+01
1	 2.727445e-02	 1.296009e+00	-3.334244e+01
1	 1.360871e-02	 1.296225e+00	-3.319748e+01
1	 0.000000e+00	 1.296296e+00	-3.323496e+01
1	 1.296296e+00	 0.000000e+00	 2.091935e+01
1	 1.296225e+00	 1.360871e-02	 2.058696e+01
1	 1.296009e+00	 2.727445e-02	 2.030228e+01
1	 1.295648e+00	 4.099530e-02	 2.006305e+01
1	 1.295139e+00	 5.476927e-02	 1.986695e+01
1	 1.294480e+00	 6.859431e-02	 1.971160e+01
1	 1.303704e+00	 0.000000e+00	 2.075358e+01
1	 1.303632e+00	 1.368647e-02	 2.041518e+01
1	 1.303415e+00	 2.743030e-02	 2.012455e+01
1	 1.303052e+00	 4.122956e-02	 1.987944e+01
1	 1.302540e+00	 5.508224e-02	 1.967753e+01
1	 1.301877e+00	 6.898628e-02	 1.951645e+01
1	 1.311111e+00	 0.000000e+00	 2.059128e+01
1	 1.311039e+00	 1.376423e-02	 2.024709e+01
1	 1.310821e+00	 2.758616e-02	 1.995059e+01
1	 1.310455e+00	 4.146382e-02	 1.969957e+01
1	 1.309940e+00	 5.539520e-02	 1.949171e+01
1	 1.309274e+00	 6.937825e-02	 1.932466e+01
1	 1.318519e+00	 0.000000e+00	 2.043240e+01
1	 1.318446e+00	 1.384200e-02	 2.008265e+01
1	 1.318227e+00	 2.774201e-02	 1.978039e+01
1	 1.317859e+00	 4.169808e-02	 1.952342e+01
1	 1.317341e+00	 5.570817e-02	 1.930948e+01
1	 1.316671e+00	 6.977021e-02	 1.913623e+01
1	 1.325926e+00	 0.000000e+00	 2.027685e+01
1	 1.325853e+00	 1.391976e-02	 1.992181e+01
1	 1.325632e+00	 2.789787e-02	 1.961390e+01
1	 1.325263e+00	 4.193234e-02	 1.935099e+01
1	 1.324742e+00	 5.602114e-02	 1.913084e+01
1	 1.324068e+00	 7.016218e-02	 1.895119e+01
1	 1.333333e+00	 0.000000e+00	 2.012458e+01
1	 1.333260e+00	 1.399753e-02	 1.976451e+01
1	 1.333038e+00	 2.805372e-02	 1.945110e+01
1	 1.332666e+00	 4.216660e-02	 1.918225e+01
1	 1.332143e+00	 5.633411e-02	 1.895581e+01
1	 1.331465e+00	 7.055415e-02	 1.876955e+01
1	 1.294480e+00	 6.859431e-02	 1.971160e+01
1	 1.293670e+00	 8.246833e-02	 1.959648e+01
1	 1.292708e+00	 9.638917e-02	 1.952097e+01
1	 1.291590e+00	 1.103546e-01	 1.948244e+01
1	 1.290317e+00	 1.243625e-01	 1.947824e+01
1	 1.288886e+00	 1.384103e-01	 1.950573e+01
1	 1.301877e+00	 6.898628e-02	 1.951645e+01
1	 1.301063e+00	 8.293958e-02	 1.939580e+01
1	 1.300095e+00	 9.693997e-02	 1.931507e+01
1	 1.298971e+00	 1.109852e-01	 1.927170e+01
1	 1.297690e+00	 1.250731e-01	 1.926307e+01
1	 1.296251e+00	 1.392012e-01	 1.928657e+01
1	 1.309274e+00	 6.937825e-02	 1.932466e+01
1	 1.308455e+00	 8.341082e-02	 1.919814e+01
1	 1.307482e+00	 9.749076e-02	 1.911182e+01
1	 1.306352e+00	 1.116158e-01	 1.906315e+01
1	 1.305064e+00	 1.257837e-01	 1.904957e+01
1	 1.303616e+00	 1.399921e-01	 1.906849e+01
1	 1.316671e+00	 6.977021e-02	 1.913623e+01
1	 1.315848e+00	 8.388207e-02	 1.900356e+01
1	 1.314868e+00	 9.804156e-02	 1.891127e+01
1	 1.313732e+00	 1.122464e-01	 1.885686e+01
1	 1.312437e+00	 1.264944e-01	 1.883782e+01
1	 1.310981e+00	 1.407831e-01	 1.885160e+01
1	 1.324068e+00	 7.016218e-02	 1.895119e+01
1	 1.323240e+00	 8.435332e-02	 1.881207e+01
1	 1.322255e+00	 9.859235e-02	 1.871346e+01
1	 1.321113e+00	 1.128770e-01	 1.865289e+01
1	 1.319810e+00	 1.272050e-01	 1.862790e+01
1	 1.318346e+00	 1.415740e-01	 1.863599e+01
1	 1.331465e+00	 7.055415e-02	 1.876955e+01
1	 1.330632e+00	 8.482457e-02	 1.862371e+01
1	 1.329642e+00	 9.914315e-02	 1.851843e+01
1	 1.328493e+00	 1.135076e-01	 1.845131e+01
1	 1.327183e+00	 1.279157e-01	 1.841991e+01
1	 1.325711e+00	 1.423649e-01	 1.842177e+01
1	 1.288886e+00	 1.384103e-01	 1.950573e+01
1	 1.287295e+00	 1.524959e-01	 1.956412e+01
1	 1.285544e+00	 1.666167e-01	 1.965292e+01
1	 1.283630e+00	 1.807703e-01	 1.976980e+01
1	 1.281553e+00	 1.949542e-01	 1.991246e+01
1	 1.279310e+00	 2.091658e-01	 2.007858e+01
1	 1.296251e+00	 1.392012e-01	 1.928657e+01
1	 1.294651e+00	 1.533673e-01	 1.934137e+01
1	 1.292890e+00	 1.675688e-01	 1.942691e+01
1	 1.290965e+00	 1.818033e-01	 1.954090e+01
1	 1.288876e+00	 1.960682e-01	 1.968107e+01
1	 1.286620e+00	 2.103610e-01	 1.984514e+01
1	 1.303616e+00	 1.399921e-01	 1.906849e+01
1	 1.302007e+00	 1.542387e-01	 1.911904e+01
1	 1.300236e+00	 1.685209e-01	 1.920059e+01
1	 1.298300e+00	 1.828362e-01	 1.931093e+01
1	 1.296199e+00	 1.971822e-01	 1.944782e+01
1	 1.293931e+00	 2.115562e-01	 1.960903e+01
1	 1.310981e+00	 1.407831e-01	 1.885160e+01
1	 1.309363e+00	 1.551101e-01	 1.889725e+01
1	 1.307582e+00	 1.694730e-01	 1.897410e+01
1	 1.305635e+00	 1.838692e-01	 1.908002e+01
1	 1.303522e+00	 1.982962e-01	 1.921283e+01
1	 1.301241e+00	 2.127515e-01	 1.937037e+01
1	 1.318346e+00	 1.415740e-01	 1.863599e+01
1	 1.316719e+00	 1.559815e-01	 1.867612e+01
1	 1.314928e+00	 1.704251e-01	 1.874758e+01
1	 1.312970e+00	 1.849022e-01	 1.884831e+01
1	 1.310845e+00	 1.994103e-01	 1.897624e+01
1	 1.308551e+00	 2.139467e-01	 1.912929e+01
1	 1.325711e+00	 1.423649e-01	 1.842177e+01
1	 1.324075e+00	 1.568529e-01	 1.845577e+01
1	 1.322274e+00	 1.713771e-01	 1.852114e+01
1	 1.320305e+00	 1.859351e-01	 1.861594e+01
1	 1.318168e+00	 2.005243e-01	 1.873818e+01
1	 1.315862e+00	 2.151419e-01	 1.888590e+01
1	 1.279310e+00	 2.091658e-01	 2.007858e+01
1	 1.276901e+00	 2.234024e-01	 2.026391e+01
1	 1.274324e+00	 2.376616e-01	 2.046383e+01
1	 1.271578e+00	 2.519404e-01	 2.067550e+01
1	 1.268662e+00	 2.662362e-01	 2.089617e+01
1	 1.265574e+00	 2.805461e-01	 2.112316e+01
1	 1.286620e+00	 2.103610e-01	 1.984514e+01
1	 1.284197e+00	 2.246790e-01	 2.002917e+01
1	 1.281606e+00	 2.390196e-01	 2.022880e+01
1	 1.278844e+00	 2.533800e-01	 2.044117e+01
1	 1.275911e+00	 2.677575e-01	 2.066351e+01
1	 1.272806e+00	 2.821492e-01	 2.089310e+01
1	 1.293931e+00	 2.115562e-01	 1.960903e+01
1	 1.291494e+00	 2.259556e-01	 1.979097e+01
1	 1.288887e+00	 2.403777e-01	 1.998957e+01
1	 1.286110e+00	 2.548197e-01	 2.020192e+01
1	 1.283161e+00	 2.692789e-01	 2.042520e+01
1	 1.280038e+00	 2.837523e-01	 2.065665e+01
1	 1.301241e+00	 2.127515e-01	 1.937037e+01
1	 1.298790e+00	 2.272322e-01	 1.954943e+01
1	 1.296169e+00	 2.417358e-01	 1.974626e+01
1	 1.293376e+00	 2.562594e-01	 1.995787e+01
1	 1.290410e+00	 2.708002e-01	 2.018139e+01
1	 1.287270e+00	 2.853554e-01	 2.041402e+01
1	 1.308551e+00	 2.139467e-01	 1.912929e+01
1	 1.306087e+00	 2.285088e-01	 1.930468e+01
1	 1.303451e+00	 2.430938e-01	 1.949898e+01
1	 1.300642e+00	 2.576990e-01	 1.970916e+01
1	 1.297660e+00	 2.723216e-01	 1.993225e+01
1	 1.294502e+00	 2.869586e-01	 2.016538e+01
1	 1.315862e+00	 2.151419e-01	 1.888590e+01
1	 1.313384e+00	 2.297854e-01	 1.905681e+01
1	 1.310733e+00	 2.444519e-01	 1.924785e+01
1	 1.307909e+00	 2.591387e-01	 1.945590e+01
1	 1.304909e+00	 2.738429e-01	 1.967792e+01
1	 1.301733e+00	 2.885617e-01	 1.991093e+01
1	 1.265574e+00	 2.805461e-01	 2.112316e+01
1	 1.262314e+00	 2.948673e-01	 2.135608e+01
1	 1.258881e+00	 3.091969e-01	 2.159526e+01
1	 1.255273e+00	 3.235321e-01	 2.183930e+01
1	 1.251490e+00	 3.378697e-01	 2.208682e+01
1	 1.247531e+00	 3.522068e-01	 2.233652e+01
1	 1.272806e+00	 2.821492e-01	 2.089310e+01
1	 1.269528e+00	 2.965523e-01	 2.112914e+01
1	 1.266075e+00	 3.109638e-01	 2.137161e+01
1	 1.262446e+00	 3.253808e-01	 2.161911e+01
1	 1.258642e+00	 3.398004e-01	 2.187029e+01
1	 1.254660e+00	 3.542194e-01	 2.212386e+01
1	 1.280038e+00	 2.837523e-01	 2.065665e+01
1	 1.276741e+00	 2.982372e-01	 2.089504e+01
1	 1.273268e+00	 3.127306e-01	 2.113997e+01
1	 1.269619e+00	 3.272296e-01	 2.139010e+01
1	 1.265793e+00	 3.417311e-01	 2.164416e+01
1	 1.261789e+00	 3.562320e-01	 2.190089e+01
1	 1.287270e+00	 2.853554e-01	 2.041402e+01
1	 1.283954e+00	 2.999222e-01	 2.065399e+01
1	 1.280462e+00	 3.144975e-01	 2.090055e+01
1	 1.276792e+00	 3.290783e-01	 2.115246e+01
1	 1.272944e+00	 3.436617e-01	 2.140853e+01
1	 1.268918e+00	 3.582446e-01	 2.166762e+01
1	 1.294502e+00	 2.869586e-01	 2.016538e+01
1	 1.291167e+00	 3.016071e-01	 2.040622e+01
1	 1.287655e+00	 3.162643e-01	 2.065358e+01
1	 1.283965e+00	 3.309271e-01	 2.090637e+01
1	 1.280096e+00	 3.455924e-01	 2.116355e+01
1	 1.276046e+00	 3.602572e-01	 2.142410e+01
1	 1.301733e+00	 2.885617e-01	 1.991093e+01
1	 1.298380e+00	 3.032921e-01	 2.015194e+01
1	 1.294849e+00	 3.180311e-01	 2.039926e+01
1	 1.291138e+00	 3.327758e-01	 2.065201e+01
1	 1.287247e+00	 3.475231e-01	 2.090933e+01
1	 1.283175e+00	 3.622699e-01	 2.117036e+01
1	 1.247531e+00	 3.522068e-01	 2.233652e+01
1	 1.243395e+00	 3.665404e-01	 2.254997e+01
1	 1.239082e+00	 3.808673e-01	 2.269118e+01
1	 1.234590e+00	 3.951845e-01	 2.276260e+01
1	 1.229920e+00	 4.094888e-01	 2.276663e+01
1	 1.225070e+00	 4.237771e-01	 2.270565e+01
1	 1.254660e+00	 3.542194e-01	 2.212386e+01
1	 1.250501e+00	 3.686349e-01	 2.234048e+01
1	 1.246162e+00	 3.830437e-01	 2.248337e+01
1	 1.241645e+00	 3.974427e-01	 2.255517e+01
1	 1.236948e+00	 4.118288e-01	 2.255848e+01
1	 1.232071e+00	 4.261987e-01	 2.249586e+01
1	 1.261789e+00	 3.562320e-01	 2.190089e+01
1	 1.257606e+00	 3.707294e-01	 2.212009e+01
1	 1.253243e+00	 3.852201e-01	 2.226421e+01
1	 1.248700e+00	 3.997009e-01	 2.233599e+01
1	 1.243976e+00	 4.141687e-01	 2.233817e+01
1	 1.239071e+00	 4.286202e-01	 2.227345e+01
1	 1.268918e+00	 3.582446e-01	 2.166762e+01
1	 1.264711e+00	 3.728239e-01	 2.188876e+01
1	 1.260323e+00	 3.873965e-01	 2.203362e+01
1	 1.255755e+00	 4.019591e-01	 2.210502e+01
1	 1.251004e+00	 4.165086e-01	 2.210578e+01
1	 1.246071e+00	 4.310418e-01	 2.203869e+01
1	 1.276046e+00	 3.602572e-01	 2.142410e+01
1	 1.271816e+00	 3.749184e-01	 2.164644e+01
1	 1.267404e+00	 3.895729e-01	 2.179155e+01
1	 1.262810e+00	 4.042173e-01	 2.186227e+01
1	 1.258032e+00	 4.188486e-01	 2.186143e+01
1	 1.253072e+00	 4.334634e-01	 2.179186e+01
1	 1.283175e+00	 3.622699e-01	 2.117036e+01
1	 1.278921e+00	 3.770130e-01	 2.139310e+01
1	 1.274484e+00	 3.917493e-01	 2.153795e+01
1	 1.269864e+00	 4.064755e-01	 2.160771e+01
1	 1.265060e+00	 4.211885e-01	 2.160519e+01
1	 1.260072e+00	 4.358850e-01	 2.153322e+01
1	 1.225070e+00	 4.237771e-01	 2.270565e+01
1	 1.220041e+00	 4.380460e-01	 2.256356e+01
1	 1.214832e+00	 4.522925e-01	 2.232380e+01
1	 1.209442e+00	 4.665132e-01	 2.198810e+01
1	 1.203872e+00	 4.807048e-01	 2.155836e+01
1	 1.198121e+00	 4.948641e-01	 2.103657e+01
1	 1.232071e+00	 4.261987e-01	 2.249586e+01
1	 1.227013e+00	 4.405491e-01	 2.235227e+01
1	 1.221773e+00	 4.548770e-01	 2.211192e+01
1	 1.216353e+00	 4.691790e-01	 2.177632e+01
1	 1.210751e+00	 4.834517e-01	 2.134713e+01
1	 1.204967e+00	 4.976919e-01	 2.082617e+01
1	 1.239071e+00	 4.286202e-01	 2.227345e+01
1	 1.233984e+00	 4.430523e-01	 2.212794e+01
1	 1.228715e+00	 4.574615e-01	 2.188679e+01
1	 1.223264e+00	 4.718447e-01	 2.155132e+01
1	 1.217630e+00	 4.861986e-01	 2.112303e+01
1	 1.211814e+00	 5.005197e-01	 2.060359e+01
1	 1.246071e+00	 4.310418e-01	 2.203869e+01
1	 1.240956e+00	 4.455554e-01	 2.189102e+01
1	 1.235657e+00	 4.600461e-01	 2.164890e+01
1	 1.230175e+00	 4.745105e-01	 2.131355e+01
1	 1.224509e+00	 4.889455e-01	 2.088634e+01
1	 1.218660e+00	 5.033475e-01	 2.036884e+01
1	 1.253072e+00	 4.334634e-01	 2.179186e+01
1	 1.247928e+00	 4.480585e-01	 2.164192e+01
1	 1.242599e+00	 4.626306e-01	 2.139873e+01
1	 1.237086e+00	 4.771763e-01	 2.106344e+01
1	 1.231389e+00	 4.916924e-01	 2.063735e+01
1	 1.225506e+00	 5.061753e-01	 2.012193e+01
1	 1.260072e+00	 4.358850e-01	 2.153322e+01
1	 1.254899e+00	 4.505616e-01	 2.138106e+01
1	 1.249541e+00	 4.652151e-01	 2.113675e+01
1	 1.243997e+00	 4.798421e-01	 2.080141e+01
1	 1.238268e+00	 4.944392e-01	 2.037631e+01
1	 1.232353e+00	 5.090031e-01	 1.986288e+01
1	 1.198121e+00	 4.948641e-01	 2.103657e+01
1	 1.192189e+00	 5.089878e-01	 2.042387e+01
1	 1.186077e+00	 5.230724e-01	 1.972053e+01
1	 1.179785e+00	 5.371148e-01	 1.892730e+01
1	 1.173312e+00	 5.511114e-01	 1.804491e+01
1	 1.166659e+00	 5.650590e-01	 1.707403e+01
1	 1.204967e+00	 4.976919e-01	 2.082617e+01
1	 1.199002e+00	 5.118963e-01	 2.021356e+01
1	 1.192855e+00	 5.260614e-01	 1.950875e+01
1	 1.186526e+00	 5.401840e-01	 1.871261e+01
1	 1.180016e+00	 5.542606e-01	 1.782595e+01
1	 1.173325e+00	 5.682879e-01	 1.684949e+01
1	 1.211814e+00	 5.005197e-01	 2.060359e+01
1	 1.205814e+00	 5.148048e-01	 1.999184e+01
1	 1.199632e+00	 5.290504e-01	 1.928612e+01
1	 1.193268e+00	 5.432532e-01	 1.848735e+01
1	 1.186721e+00	 5.574098e-01	 1.759640e+01
1	 1.179992e+00	 5.715168e-01	 1.661402e+01
1	 1.218660e+00	 5.033475e-01	 2.036884e+01
1	 1.212627e+00	 5.177133e-01	 1.975849e+01
1	 1.206410e+00	 5.320394e-01	 1.905235e+01
1	 1.200010e+00	 5.463225e-01	 1.825137e+01
1	 1.193426e+00	 5.605590e-01	 1.735639e+01
1	 1.186659e+00	 5.747457e-01	 1.636818e+01
1	 1.225506e+00	 5.061753e-01	 2.012193e+01
1	 1.219439e+00	 5.206218e-01	 1.951330e+01
1	 1.213188e+00	 5.350284e-01	 1.880718e+01
1	 1.206751e+00	 5.493917e-01	 1.800448e+01
1	 1.200130e+00	 5.637082e-01	 1.710603e+01
1	 1.193325e+00	 5.779746e-01	 1.611256e+01
1	 1.232353e+00	 5.090031e-01	 1.986288e+01
1	 1.226252e+00	 5.235303e-01	 1.925606e+01
1	 1.219965e+00	 5.380174e-01	 1.855034e+01
1	 1.213493e+00	 5.524609e-01	 1.774655e+01
1	 1.206835e+00	 5.668575e-01	 1.684544e+01
1	 1.199992e+00	 5.812035e-01	 1.584771e+01
1	 1.166659e+00	 5.650590e-01	 1.707403e+01
1	 1.159826e+00	 5.789541e-01	 1.601726e+01
1	 1.152814e+00	 5.927935e-01	 1.487764e+01
1	 1.145623e+00	 6.065737e-01	 1.365638e+01
1	 1.138254e+00	 6.202913e-01	 1.235468e+01
1	 1.130708e+00	 6.339429e-01	 1.097369e+01
1	 1.173325e+00	 5.682879e-01	 1.684949e+01
1	 1.166454e+00	 5.822625e-01	 1.578608e+01
1	 1.159401e+00	 5.961809e-01	 1.463882e+01
1	 1.152170e+00	 6.100398e-01	 1.340872e+01
1	 1.144759e+00	 6.238358e-01	 1.209684e+01
1	 1.137169e+00	 6.375654e-01	 1.070421e+01
1	 1.179992e+00	 5.715168e-01	 1.661402e+01
1	 1.173081e+00	 5.855708e-01	 1.554360e+01
1	 1.165989e+00	 5.995683e-01	 1.438869e+01
1	 1.158716e+00	 6.135059e-01	 1.315013e+01
1	 1.151263e+00	 6.273803e-01	 1.182882e+01
1	 1.143630e+00	 6.411880e-01	 1.042567e+01
1	 1.186659e+00	 5.747457e-01	 1.636818e+01
1	 1.179709e+00	 5.888791e-01	 1.529081e+01
1	 1.172576e+00	 6.029557e-01	 1.412836e+01
1	 1.165262e+00	 6.169721e-01	 1.288157e+01
1	 1.157767e+00	 6.309248e-01	 1.155116e+01
1	 1.150092e+00	 6.448105e-01	 1.013789e+01
1	 1.193325e+00	 5.779746e-01	 1.611256e+01
1	 1.186336e+00	 5.921874e-01	 1.502868e+01
1	 1.179164e+00	 6.063431e-01	 1.385895e+01
1	 1.171809e+00	 6.204382e-01	 1.260399e+01
1	 1.164272e+00	 6.344693e-01	 1.126439e+01
1	 1.156553e+00	 6.484330e-01	 9.840724e+00
1	 1.199992e+00	 5.812035e-01	 1.584771e+01
1	 1.192964e+00	 5.954957e-01	 1.475814e+01
1	 1.185751e+00	 6.097304e-01	 1.358151e+01
1	 1.178355e+00	 6.239043e-01	 1.231832e+01
1	 1.170776e+00	 6.380139e-01	 1.096904e+01
1	 1.163014e+00	 6.520556e-01	 9.534004e+00
1	 1.130708e+00	 6.339429e-01	 1.097369e+01
1	 1.122985e+00	 6.475253e-01	 9.532203e+00
1	 1.115086e+00	 6.610350e-01	 8.046135e+00
1	 1.107012e+00	 6.744686e-01	 6.511809e+00
1	 1.098765e+00	 6.878230e-01	 4.924899e+00
1	 1.090344e+00	 7.010946e-01	 3.280434e+00
1	 1.137169e+00	 6.375654e-01	 1.070421e+01
1	 1.129402e+00	 6.512254e-01	 9.246733e+00
1	 1.121458e+00	 6.648123e-01	 7.737534e+00
1	 1.113338e+00	 6.783228e-01	 6.173012e+00
1	 1.105043e+00	 6.917534e-01	 4.548926e+00
1	 1.096575e+00	 7.051009e-01	 2.860392e+00
1	 1.143630e+00	 6.411880e-01	 1.042567e+01
1	 1.135819e+00	 6.549256e-01	 8.953566e+00
1	 1.127830e+00	 6.685897e-01	 7.422788e+00
1	 1.119664e+00	 6.821769e-01	 5.829850e+00
1	 1.111322e+00	 6.956838e-01	 4.170670e+00
1	 1.102805e+00	 7.091071e-01	 2.440563e+00
1	 1.150092e+00	 6.448105e-01	 1.013789e+01
1	 1.142236e+00	 6.586257e-01	 8.651844e+00
1	 1.134202e+00	 6.723670e-01	 7.100656e+00
1	 1.125990e+00	 6.860310e-01	 5.481009e+00
1	 1.117601e+00	 6.996142e-01	 3.789055e+00
1	 1.109036e+00	 7.131134e-01	 2.020417e+00
1	 1.156553e+00	 6.484330e-01	 9.840724e+00
1	 1.148653e+00	 6.623259e-01	 8.340725e+00
1	 1.140574e+00	 6.761443e-01	 6.769922e+00
1	 1.132315e+00	 6.898851e-01	 5.125202e+00
1	 1.123879e+00	 7.035446e-01	 3.403027e+00
1	 1.115266e+00	 7.171197e-01	 1.599433e+00
1	 1.163014e+00	 6.520556e-01	 9.534004e+00
1	 1.155070e+00	 6.660260e-01	 8.019388e+00
1	 1.146946e+00	 6.799217e-01	 6.429399e+00
1	 1.138641e+00	 6.937392e-01	 4.761174e+00
1	 1.130158e+00	 7.074751e-01	 3.011558e+00
1	 1.121497e+00	 7.211259e-01	 1.177103e+00
1	 1.090344e+00	 7.010946e-01	 3.280434e+00
1	 1.081752e+00	 7.142803e-01	 1.629541e+00
1	 1.072990e+00	 7.273768e-01	 3.051090e-02
1	 1.064059e+00	 7.403807e-01	-1.510761e+00
1	 1.054960e+00	 7.532889e-01	-2.987584e+00
1	 1.045695e+00	 7.660982e-01	-4.392480e+00
1	 1.096575e+00	 7.051009e-01	 2.860392e+00
1	 1.087934e+00	 7.183619e-01	 1.165683e+00
1	 1.079121e+00	 7.315332e-01	-4.695889e-01
1	 1.070139e+00	 7.446114e-01	-2.039189e+00
1	 1.060988e+00	 7.575934e-01	-3.536111e+00
1	 1.051670e+00	 7.704759e-01	-4.952586e+00
1	 1.102805e+00	 7.091071e-01	 2.440563e+00
1	 1.094115e+00	 7.224435e-01	 7.047800e-01
1	 1.085253e+00	 7.356896e-01	-9.640774e-01
1	 1.076219e+00	 7.488422e-01	-2.559560e+00
1	 1.067016e+00	 7.618979e-01	-4.074490e+00
1	 1.057646e+00	 7.748536e-01	-5.500975e+00
1	 1.109036e+00	 7.131134e-01	 2.020417e+00
1	 1.100296e+00	 7.265251e-01	 2.469046e-01
1	 1.091384e+00	 7.398461e-01	-1.452466e+00
1	 1.082300e+00	 7.530729e-01	-3.071155e+00
1	 1.073045e+00	 7.662024e-01	-4.601959e+00
1	 1.063621e+00	 7.792313e-01	-6.037020e+00
1	 1.115266e+00	 7.171197e-01	 1.599433e+00
1	 1.106478e+00	 7.306067e-01	-2.078721e-01
1	 1.097515e+00	 7.440025e-01	-1.934278e+00
1	 1.088380e+00	 7.573037e-01	-3.573274e+00
1	 1.079073e+00	 7.705069e-01	-5.117770e+00
1	 1.069596e+00	 7.836090e-01	-6.560109e+00
1	 1.121497e+00	 7.211259e-01	 1.177103e+00
1	 1.112659e+00	 7.346883e-01	-6.594807e-01
1	 1.103647e+00	 7.481590e-01	-2.409045e+00
1	 1.094460e+00	 7.615344e-01	-4.065229e+00
1	 1.085101e+00	 7.748114e-01	-5.621195e+00
1	 1.075572e+00	 7.879867e-01	-7.069641e+00
1	 1.045695e+00	 7.660982e-01	-4.392480e+00
1	 1.036266e+00	 7.788053e-01	-5.692757e+00
1	 1.026674e+00	 7.914072e-01	-6.861561e+00
1	 1.016921e+00	 8.039008e-01	-7.899583e+00
1	 1.007009e+00	 8.162830e-01	-8.807503e+00
1	 9.969392e-01	 8.285508e-01	-9.585988e+00
1	 1.051670e+00	 7.704759e-01	-4.952586e+00
1	 1.042187e+00	 7.832556e-01	-6.259062e+00
1	 1.032540e+00	 7.959296e-01	-7.432370e+00
1	 1.022732e+00	 8.084945e-01	-8.473751e+00
1	 1.012763e+00	 8.209475e-01	-9.384457e+00
1	 1.002636e+00	 8.332854e-01	-1.016575e+01
1	 1.057646e+00	 7.748536e-01	-5.500975e+00
1	 1.048109e+00	 7.877060e-01	-6.812658e+00
1	 1.038407e+00	 8.004519e-01	-7.989929e+00
1	 1.028543e+00	 8.130883e-01	-9.034494e+00
1	 1.018517e+00	 8.256120e-01	-9.948085e+00
1	 1.008333e+00	 8.380199e-01	-1.073246e+01
1	 1.063621e+00	 7.792313e-01	-6.037020e+00
1	 1.054030e+00	 7.921563e-01	-7.353120e+00
1	 1.044274e+00	 8.049742e-01	-8.533967e+00
1	 1.034354e+00	 8.176820e-01	-9.581649e+00
1	 1.024272e+00	 8.302764e-01	-1.049829e+01
1	 1.014030e+00	 8.427545e-01	-1.128603e+01
1	 1.069596e+00	 7.836090e-01	-6.560109e+00
1	 1.059952e+00	 7.966066e-01	-7.880030e+00
1	 1.050140e+00	 8.094966e-01	-9.064219e+00
1	 1.040165e+00	 8.222757e-01	-1.011506e+01
1	 1.030026e+00	 8.349409e-01	-1.103496e+01
1	 1.019726e+00	 8.474891e-01	-1.182641e+01
1	 1.075572e+00	 7.879867e-01	-7.069641e+00
1	 1.065873e+00	 8.010569e-01	-8.392981e+00
1	 1.056007e+00	 8.140189e-01	-9.580424e+00
1	 1.045975e+00	 8.268694e-01	-1.063456e+01
1	 1.035780e+00	 8.396054e-01	-1.155803e+01
1	 1.025423e+00	 8.522237e-01	-1.235350e+01
1	 9.969392e-01	 8.285508e-01	-9.585988e+00
1	 9.867146e-01	 8.407012e-01	-1.027152e+01
1	 9.763368e-01	 8.527312e-01	-1.089861e+01
1	 9.658080e-01	 8.646381e-01	-1.146494e+01
1	 9.551303e-01	 8.764189e-01	-1.196808e+01
1	 9.443061e-01	 8.880710e-01	-1.240553e+01
1	 1.002636e+00	 8.332854e-01	-1.016575e+01
1	 9.923529e-01	 8.455052e-01	-1.085436e+01
1	 9.819159e-01	 8.576040e-01	-1.148450e+01
1	 9.713269e-01	 8.695789e-01	-1.205356e+01
1	 9.605882e-01	 8.814270e-01	-1.255883e+01
1	 9.497021e-01	 8.931457e-01	-1.299751e+01
1	 1.008333e+00	 8.380199e-01	-1.073246e+01
1	 9.979913e-01	 8.503092e-01	-1.142439e+01
1	 9.874949e-01	 8.624767e-01	-1.205763e+01
1	 9.768458e-01	 8.745197e-01	-1.262931e+01
1	 9.660461e-01	 8.864352e-01	-1.313646e+01
1	 9.550982e-01	 8.982204e-01	-1.357600e+01
1	 1.014030e+00	 8.427545e-01	-1.128603e+01
1	 1.003630e+00	 8.551132e-01	-1.198151e+01
1	 9.930740e-01	 8.673495e-01	-1.261790e+01
1	 9.823647e-01	 8.794605e-01	-1.319208e+01
1	 9.715040e-01	 8.914433e-01	-1.370085e+01
1	 9.604942e-01	 9.032951e-01	-1.414087e+01
1	 1.019726e+00	 8.474891e-01	-1.182641e+01
1	 1.009268e+00	 8.599172e-01	-1.252566e+01
1	 9.986531e-01	 8.722222e-01	-1.316523e+01
1	 9.878836e-01	 8.844012e-01	-1.374179e+01
1	 9.769619e-01	 8.964514e-01	-1.425189e+01
1	 9.658902e-01	 9.083697e-01	-1.469197e+01
1	 1.025423e+00	 8.522237e-01	-1.235350e+01
1	 1.014906e+00	 8.647212e-01	-1.305675e+01
1	 1.004232e+00	 8.770950e-01	-1.369953e+01
1	 9.934025e-01	 8.893420e-01	-1.427832e+01
1	 9.824198e-01	 9.014595e-01	-1.478947e+01
1	 9.712863e-01	 9.134444e-01	-1.522916e+01
1	 9.443061e-01	 8.880710e-01	-1.240553e+01
1	 9.333377e-01	 8.995915e-01	-1.281111e+01
1	 9.222274e-01	 9.109779e-01	-1.322068e+01
1	 9.109779e-01	 9.222274e-01	-1.363484e+01
1	 8.995915e-01	 9.333377e-01	-1.405428e+01
1	 8.880710e-01	 9.443061e-01	-1.447977e+01
1	 9.497021e-01	 8.931457e-01	-1.299751e+01
1	 9.386710e-01	 9.047320e-01	-1.340421e+01
1	 9.274973e-01	 9.161834e-01	-1.381593e+01
1	 9.161834e-01	 9.274973e-01	-1.423350e+01
1	 9.047320e-01	 9.386710e-01	-1.465785e+01
1	 8.931457e-01	 9.497021e-01	-1.508997e+01
1	 9.550982e-01	 8.982204e-01	-1.357600e+01
1	 9.440044e-01	 9.098726e-01	-1.398344e+01
1	 9.327672e-01	 9.213890e-01	-1.439699e+01
1	 9.213890e-01	 9.327672e-01	-1.481772e+01
1	 9.098726e-01	 9.440044e-01	-1.524678e+01
1	 8.982204e-01	 9.550982e-01	-1.568540e+01
1	 9.604942e-01	 9.032951e-01	-1.414087e+01
1	 9.493377e-01	 9.150131e-01	-1.454863e+01
1	 9.380370e-01	 9.265946e-01	-1.496371e+01
1	 9.265946e-01	 9.380370e-01	-1.538735e+01
1	 9.150131e-01	 9.493377e-01	-1.582095e+01
1	 9.032951e-01	 9.604942e-01	-1.626597e+01
1	 9.658902e-01	 9.083697e-01	-1.469197e+01
1	 9.546711e-01	 9.201536e-01	-1.509964e+01
1	 9.433069e-01	 9.318002e-01	-1.551590e+01
1	 9.318002e-01	 9.433069e-01	-1.594224e+01
1	 9.201536e-01	 9.546711e-01	-1.638024e+01
1	 9.083697e-01	 9.658902e-01	-1.683162e+01
1	 9.712863e-01	 9.134444e-01	-1.522916e+01
1	 9.600045e-01	 9.252941e-01	-1.563628e+01
1	 9.485768e-01	 9.370058e-01	-1.605341e+01
1	 9.370058e-01	 9.485768e-01	-1.648222e+01
1	 9.252941e-01	 9.600045e-01	-1.692453e+01
1	 9.134444e-01	 9.712863e-01	-1.738226e+01
1	 8.880710e-01	 9.443061e-01	-1.447977e+01
1	 8.764189e-01	 9.551303e-01	-1.494731e+01
1	 8.646381e-01	 9.658080e-01	-1.549193e+01
1	 8.527312e-01	 9.763368e-01	-1.611313e+01
1	 8.407012e-01	 9.867146e-01	-1.681050e+01
1	 8.285508e-01	 9.969392e-01	-1.758375e+01
1	 8.931457e-01	 9.497021e-01	-1.508997e+01
1	 8.814270e-01	 9.605882e-01	-1.556639e+01
1	 8.695789e-01	 9.713269e-01	-1.612240e+01
1	 8.576040e-01	 9.819159e-01	-1.675736e+01
1	 8.455052e-01	 9.923529e-01	-1.747074e+01
1	 8.332854e-01	 1.002636e+00	-1.826211e+01
1	 8.982204e-01	 9.550982e-01	-1.568540e+01
1	 8.864352e-01	 9.660461e-01	-1.617058e+01
1	 8.745197e-01	 9.768458e-01	-1.673790e+01
1	 8.624767e-01	 9.874949e-01	-1.738661e+01
1	 8.503092e-01	 9.979913e-01	-1.811610e+01
1	 8.380199e-01	 1.008333e+00	-1.892583e+01
1	 9.032951e-01	 9.604942e-01	-1.626597e+01
1	 8.914433e-01	 9.715040e-01	-1.675986e+01
1	 8.794605e-01	 9.823647e-01	-1.733843e+01
1	 8.673495e-01	 9.930740e-01	-1.800090e+01
1	 8.551132e-01	 1.003630e+00	-1.874661e+01
1	 8.427545e-01	 1.014030e+00	-1.957495e+01
1	 9.083697e-01	 9.658902e-01	-1.683162e+01
1	 8.964514e-01	 9.769619e-01	-1.733419e+01
1	 8.844012e-01	 9.878836e-01	-1.792400e+01
1	 8.722222e-01	 9.986531e-01	-1.860027e+01
1	 8.599172e-01	 1.009268e+00	-1.936230e+01
1	 8.474891e-01	 1.019726e+00	-2.020948e+01
1	 9.134444e-01	 9.712863e-01	-1.738226e+01
1	 9.014595e-01	 9.824198e-01	-1.789356e+01
1	 8.893420e-01	 9.934025e-01	-1.849463e+01
1	 8.770950e-01	 1.004232e+00	-1.918473e+01
1	 8.647212e-01	 1.014906e+00	-1.996320e+01
1	 8.522237e-01	 1.025423e+00	-2.082945e+01
1	 8.285508e-01	 9.969392e-01	-1.758375e+01
1	 8.162830e-01	 1.007009e+00	-1.846204e+01
1	 8.039008e-01	 1.016921e+00	-1.947585e+01
1	 7.914072e-01	 1.026674e+00	-2.062706e+01
1	 7.788053e-01	 1.036266e+00	-2.191765e+01
1	 7.660982e-01	 1.045695e+00	-2.334972e+01
1	 8.332854e-01	 1.002636e+00	-1.826211e+01
1	 8.209475e-01	 1.012763e+00	-1.916107e+01
1	 8.084945e-01	 1.022732e+00	-2.019903e+01
1	 7.959296e-01	 1.032540e+00	-2.137844e+01
1	 7.832556e-01	 1.042187e+00	-2.270184e+01
1	 7.704759e-01	 1.051670e+00	-2.417194e+01
1	 8.380199e-01	 1.008333e+00	-1.892583e+01
1	 8.256120e-01	 1.018517e+00	-1.984599e+01
1	 8.130883e-01	 1.028543e+00	-2.090895e+01
1	 8.004519e-01	 1.038407e+00	-2.211767e+01
1	 7.877060e-01	 1.048109e+00	-2.347526e+01
1	 7.748536e-01	 1.057646e+00	-2.498497e+01
1	 8.427545e-01	 1.014030e+00	-1.957495e+01
1	 8.302764e-01	 1.024272e+00	-2.051682e+01
1	 8.176820e-01	 1.034354e+00	-2.160564e+01
1	 8.049742e-01	 1.044274e+00	-2.284485e+01
1	 7.921563e-01	 1.054030e+00	-2.423808e+01
1	 7.792313e-01	 1.063621e+00	-2.578907e+01
1	 8.474891e-01	 1.019726e+00	-2.020948e+01
1	 8.349409e-01	 1.030026e+00	-2.117356e+01
1	 8.222757e-01	 1.040165e+00	-2.228913e+01
1	 8.094966e-01	 1.050140e+00	-2.356006e+01
1	 7.966066e-01	 1.059952e+00	-2.499044e+01
1	 7.836090e-01	 1.069596e+00	-2.658450e+01
1	 8.522237e-01	 1.025423e+00	-2.082945e+01
1	 8.396054e-01	 1.035780e+00	-2.181624e+01
1	 8.268694e-01	 1.045975e+00	-2.295945e+01
1	 8.140189e-01	 1.056007e+00	-2.426336e+01
1	 8.010569e-01	 1.065873e+00	-2.573249e+01
1	 7.879867e-01	 1.075572e+00	-2.737153e+01
1	 7.660982e-01	 1.045695e+00	-2.334972e+01
1	 7.532889e-01	 1.054960e+00	-2.490475e+01
1	 7.403807e-01	 1.064059e+00	-2.657291e+01
1	 7.273768e-01	 1.072990e+00	-2.836979e+01
1	 7.142803e-01	 1.081752e+00	-3.031150e+01
1	 7.010946e-01	 1.090344e+00	-3.241466e+01
1	 7.704759e-01	 1.051670e+00	-2.417194e+01
1	 7.575934e-01	 1.060988e+00	-2.577266e+01
1	 7.446114e-01	 1.070139e+00	-2.749453e+01
1	 7.315332e-01	 1.079121e+00	-2.935056e+01
1	 7.183619e-01	 1.087934e+00	-3.135424e+01
1	 7.051009e-01	 1.096575e+00	-3.351947e+01
1	 7.748536e-01	 1.057646e+00	-2.498497e+01
1	 7.618979e-01	 1.067016e+00	-2.663251e+01
1	 7.488422e-01	 1.076219e+00	-2.840776e+01
1	 7.356896e-01	 1.085253e+00	-3.032060e+01
1	 7.224435e-01	 1.094115e+00	-3.238124e+01
1	 7.091071e-01	 1.102805e+00	-3.460026e+01
1	 7.792313e-01	 1.063621e+00	-2.578907e+01
1	 7.662024e-01	 1.073045e+00	-2.748457e+01
1	 7.530729e-01	 1.082300e+00	-2.931268e+01
1	 7.398461e-01	 1.091384e+00	-3.127953e+01
1	 7.265251e-01	 1.100296e+00	-3.339149e+01
1	 7.131134e-01	 1.109036e+00	-3.565518e+01
1	 7.836090e-01	 1.069596e+00	-2.658450e+01
1	 7.705069e-01	 1.079073e+00	-2.832911e+01
1	 7.573037e-01	 1.088380e+00	-3.020934e+01
1	 7.440025e-01	 1.097515e+00	-3.222699e+01
1	 7.306067e-01	 1.106478e+00	-3.438399e+01
1	 7.171197e-01	 1.115266e+00	-3.668241e+01
1	 7.879867e-01	 1.075572e+00	-2.737153e+01
1	 7.748114e-01	 1.085101e+00	-2.916641e+01
1	 7.615344e-01	 1.094460e+00	-3.109780e+01
1	 7.481590e-01	 1.103647e+00	-3.316262e+01
1	 7.346883e-01	 1.112659e+00	-3.535778e+01
1	 7.211259e-01	 1.121497e+00	-3.768018e+01
1	 7.010946e-01	 1.090344e+00	-3.241466e+01
1	 6.878230e-01	 1.098765e+00	-3.463299e+01
1	 6.744686e-01	 1.107012e+00	-3.689448e+01
1	 6.610350e-01	 1.115086e+00	-3.917696e+01
1	 6.475253e-01	 1.122985e+00	-4.145754e+01
1	 6.339429e-01	 1.130708e+00	-4.371270e+01
1	 7.051009e-01	 1.096575e+00	-3.351947e+01
1	 6.917534e-01	 1.105043e+00	-3.579074e+01
1	 6.783228e-01	 1.113338e+00	-3.808886e+01
1	 6.648123e-01	 1.121458e+00	-4.039193e+01
1	 6.512254e-01	 1.129402e+00	-4.267740e+01
1	 6.375654e-01	 1.137169e+00	-4.492208e+01
1	 7.091071e-01	 1.102805e+00	-3.460026e+01
1	 6.956838e-01	 1.111322e+00	-3.691323e+01
1	 6.821769e-01	 1.119664e+00	-3.923551e+01
1	 6.685897e-01	 1.127830e+00	-4.154703e+01
1	 6.549256e-01	 1.135819e+00	-4.382716e+01
1	 6.411880e-01	 1.143630e+00	-4.605467e+01
1	 7.131134e-01	 1.109036e+00	-3.565518e+01
1	 6.996142e-01	 1.117601e+00	-3.799793e+01
1	 6.860310e-01	 1.125990e+00	-4.033170e+01
1	 6.723670e-01	 1.134202e+00	-4.263981e+01
1	 6.586257e-01	 1.142236e+00	-4.490509e+01
1	 6.448105e-01	 1.150092e+00	-4.710987e+01
1	 7.171197e-01	 1.115266e+00	-3.668241e+01
1	 7.035446e-01	 1.123879e+00	-3.904234e+01
1	 6.898851e-01	 1.132315e+00	-4.137477e+01
1	 6.761443e-01	 1.140574e+00	-4.366789e+01
1	 6.623259e-01	 1.148653e+00	-4.590949e+01
1	 6.484330e-01	 1.156553e+00	-4.808707e+01
1	 7.211259e-01	 1.121497e+00	-3.768018e+01
1	 7.074751e-01	 1.130158e+00	-4.004406e+01
1	 6.937392e-01	 1.138641e+00	-4.236213e+01
1	 6.799217e-01	 1.146946e+00	-4.462891e+01
1	 6.660260e-01	 1.155070e+00	-4.683872e+01
1	 6.520556e-01	 1.163014e+00	-4.898571e+01
1	 6.339429e-01	 1.130708e+00	-4.371270e+01
1	 6.202913e-01	 1.138254e+00	-4.589364e+01
1	 6.065737e-01	 1.145623e+00	-4.796482e+01
1	 5.927935e-01	 1.152814e+00	-4.992210e+01
1	 5.789541e-01	 1.159826e+00	-5.176126e+01
1	 5.650590e-01	 1.166659e+00	-5.347806e+01
1	 6.375654e-01	 1.137169e+00	-4.492208e+01
1	 6.238358e-01	 1.144759e+00	-4.708078e+01
1	 6.100398e-01	 1.152170e+00	-4.912348e+01
1	 5.961809e-01	 1.159401e+00	-5.104932e+01
1	 5.822625e-01	 1.166454e+00	-5.285746e+01
1	 5.682879e-01	 1.173325e+00	-5.454705e+01
1	 6.411880e-01	 1.143630e+00	-4.605467e+01
1	 6.273803e-01	 1.151263e+00	-4.818921e+01
1	 6.135059e-01	 1.158716e+00	-5.020534e+01
1	 5.995683e-01	 1.165989e+00	-5.210395e+01
1	 5.855708e-01	 1.173081e+00	-5.388590e+01
1	 5.715168e-01	 1.179992e+00	-5.555207e+01
1	 6.448105e-01	 1.150092e+00	-4.710987e+01
1	 6.309248e-01	 1.157767e+00	-4.921938e+01
1	 6.169721e-01	 1.165262e+00	-5.121150e+01
1	 6.029557e-01	 1.172576e+00	-5.308723e+01
1	 5.888791e-01	 1.179709e+00	-5.484757e+01
1	 5.747457e-01	 1.186659e+00	-5.649352e+01
1	 6.484330e-01	 1.156553e+00	-4.808707e+01
1	 6.344693e-01	 1.164272e+00	-5.017177e+01
1	 6.204382e-01	 1.171809e+00	-5.214301e+01
1	 6.063431e-01	 1.179164e+00	-5.400039e+01
1	 5.921874e-01	 1.186336e+00	-5.574347e+01
1	 5.779746e-01	 1.193325e+00	-5.737176e+01
1	 6.520556e-01	 1.163014e+00	-4.898571e+01
1	 6.380139e-01	 1.170776e+00	-5.104683e+01
1	 6.239043e-01	 1.178355e+00	-5.300091e+01
1	 6.097304e-01	 1.185751e+00	-5.484462e+01
1	 5.954957e-01	 1.192964e+00	-5.657456e+01
1	 5.812035e-01	 1.199992e+00	-5.818717e+01
1	 5.650590e-01	 1.166659e+00	-5.347806e+01
1	 5.511114e-01	 1.173312e+00	-5.506139e+01
1	 5.371148e-01	 1.179785e+00	-5.650044e+01
1	 5.230724e-01	 1.186077e+00	-5.779143e+01
1	 5.089878e-01	 1.192189e+00	-5.893057e+01
1	 4.948641e-01	 1.198121e+00	-5.991406e+01
1	 5.682879e-01	 1.173325e+00	-5.454705e+01
1	 5.542606e-01	 1.180016e+00	-5.610906e+01
1	 5.401840e-01	 1.186526e+00	-5.753098e+01
1	 5.260614e-01	 1.192855e+00	-5.880672e+01
1	 5.118963e-01	 1.199002e+00	-5.993014e+01
1	 4.976919e-01	 1.204967e+00	-6.089510e+01
1	 5.715168e-01	 1.179992e+00	-5.555207e+01
1	 5.574098e-01	 1.186721e+00	-5.709387e+01
1	 5.432532e-01	 1.193268e+00	-5.849720e+01
1	 5.290504e-01	 1.199632e+00	-5.975474e+01
1	 5.148048e-01	 1.205814e+00	-6.085908e+01
1	 5.005197e-01	 1.211814e+00	-6.180280e+01
1	 5.747457e-01	 1.186659e+00	-5.649352e+01
1	 5.605590e-01	 1.193426e+00	-5.801555e+01
1	 5.463225e-01	 1.200010e+00	-5.939847e+01
1	 5.320394e-01	 1.206410e+00	-6.063475e+01
1	 5.177133e-01	 1.212627e+00	-6.171679e+01
1	 5.033475e-01	 1.218660e+00	-6.263697e+01
1	 5.779746e-01	 1.193325e+00	-5.737176e+01
1	 5.637082e-01	 1.200130e+00	-5.887384e+01
1	 5.493917e-01	 1.206751e+00	-6.023417e+01
1	 5.350284e-01	 1.213188e+00	-6.144604e+01
1	 5.206218e-01	 1.219439e+00	-6.250272e+01
1	 5.061753e-01	 1.225506e+00	-6.339744e+01
1	 5.812035e-01	 1.199992e+00	-5.818717e+01
1	 5.668575e-01	 1.206835e+00	-5.966848e+01
1	 5.524609e-01	 1.213493e+00	-6.100369e+01
1	 5.380174e-01	 1.219965e+00	-6.218793e+01
1	 5.235303e-01	 1.226252e+00	-6.321632e+01
1	 5.090031e-01	 1.232353e+00	-6.408404e+01
1	 4.948641e-01	 1.198121e+00	-5.991406e+01
1	 4.807048e-01	 1.203872e+00	-6.072960e+01
1	 4.665132e-01	 1.209442e+00	-6.136740e+01
1	 4.522925e-01	 1.214832e+00	-6.182761e+01
1	 4.380460e-01	 1.220041e+00	-6.211045e+01
1	 4.237771e-01	 1.225070e+00	-6.221624e+01
1	 4.976919e-01	 1.204967e+00	-6.089510e+01
1	 4.834517e-01	 1.210751e+00	-6.168811e+01
1	 4.691790e-01	 1.216353e+00	-6.230122e+01
1	 4.548770e-01	 1.221773e+00	-6.273667e+01
1	 4.405491e-01	 1.227013e+00	-6.299682e+01
1	 4.261987e-01	 1.232071e+00	-6.308412e+01
1	 5.005197e-01	 1.211814e+00	-6.180280e+01
1	 4.861986e-01	 1.217630e+00	-6.257243e+01
1	 4.718447e-01	 1.223264e+00	-6.316184e+01
1	 4.574615e-01	 1.228715e+00	-6.357468e+01
1	 4.430523e-01	 1.233984e+00	-6.381476e+01
1	 4.286202e-01	 1.239071e+00	-6.388596e+01
1	 5.033475e-01	 1.218660e+00	-6.263697e+01
1	 4.889455e-01	 1.224509e+00	-6.338279e+01
1	 4.745105e-01	 1.230175e+00	-6.394970e+01
1	 4.600461e-01	 1.235657e+00	-6.434214e+01
1	 4.455554e-01	 1.240956e+00	-6.456465e+01
1	 4.310418e-01	 1.246071e+00	-6.462190e+01
1	 5.061753e-01	 1.225506e+00	-6.339744e+01
1	 4.916924e-01	 1.231389e+00	-6.411940e+01
1	 4.771763e-01	 1.237086e+00	-6.466525e+01
1	 4.626306e-01	 1.242599e+00	-6.503953e+01
1	 4.480585e-01	 1.247928e+00	-6.524689e+01
1	 4.334634e-01	 1.253072e+00	-6.529208e+01
1	 5.090031e-01	 1.232353e+00	-6.408404e+01
1	 4.944392e-01	 1.238268e+00	-6.478248e+01
1	 4.798421e-01	 1.243997e+00	-6.530890e+01
1	 4.652151e-01	 1.249541e+00	-6.566733e+01
1	 4.505616e-01	 1.254899e+00	-6.586186e+01
1	 4.358850e-01	 1.260072e+00	-6.589666e+01
1	 4.237771e-01	 1.225070e+00	-6.221624e+01
1	 4.094888e-01	 1.229920e+00	-6.216037e+01
1	 3.951845e-01	 1.234590e+00	-6.194698e+01
1	 3.808673e-01	 1.239082e+00	-6.155971e+01
1	 3.665404e-01	 1.243395e+00	-6.098233e+01
1	 3.522068e-01	 1.247531e+00	-6.019882e+01
1	 4.261987e-01	 1.232071e+00	-6.308412e+01
1	 4.118288e-01	 1.236948e+00	-6.301440e+01
1	 3.974427e-01	 1.241645e+00	-6.279012e+01
1	 3.830437e-01	 1.246162e+00	-6.239388e+01
1	 3.686349e-01	 1.250501e+00	-6.180839e+01
1	 3.542194e-01	 1.254660e+00	-6.101652e+01
1	 4.286202e-01	 1.239071e+00	-6.388596e+01
1	 4.141687e-01	 1.243976e+00	-6.380382e+01
1	 3.997009e-01	 1.248700e+00	-6.356919e+01
1	 3.852201e-01	 1.253243e+00	-6.316411e+01
1	 3.707294e-01	 1.257606e+00	-6.257072e+01
1	 3.562320e-01	 1.261789e+00	-6.177133e+01
1	 4.310418e-01	 1.246071e+00	-6.462190e+01
1	 4.165086e-01	 1.251004e+00	-6.452852e+01
1	 4.019591e-01	 1.255755e+00	-6.428396e+01
1	 3.873965e-01	 1.260323e+00	-6.387015e+01
1	 3.728239e-01	 1.264711e+00	-6.326917e+01
1	 3.582446e-01	 1.268918e+00	-6.246325e+01
1	 4.334634e-01	 1.253072e+00	-6.529208e+01
1	 4.188486e-01	 1.258032e+00	-6.518841e+01
1	 4.042173e-01	 1.262810e+00	-6.493417e+01
1	 3.895729e-01	 1.267404e+00	-6.451173e+01
1	 3.749184e-01	 1.271816e+00	-6.390356e+01
1	 3.602572e-01	 1.276046e+00	-6.309232e+01
1	 4.358850e-01	 1.260072e+00	-6.589666e+01
1	 4.211885e-01	 1.265060e+00	-6.578338e+01
1	 4.064755e-01	 1.269864e+00	-6.551963e+01
1	 3.917493e-01	 1.274484e+00	-6.508862e+01
1	 3.770130e-01	 1.278921e+00	-6.447375e+01
1	 3.622699e-01	 1.283175e+00	-6.365854e+01
1	 3.522068e-01	 1.247531e+00	-6.019882e+01
1	 3.378697e-01	 1.251490e+00	-5.924566e+01
1	 3.235321e-01	 1.255273e+00	-5.817656e+01
1	 3.091969e-01	 1.258881e+00	-5.700155e+01
1	 2.948673e-01	 1.262314e+00	-5.573077e+01
1	 2.805461e-01	 1.265574e+00	-5.437452e+01
1	 3.542194e-01	 1.254660e+00	-6.101652e+01
1	 3.398004e-01	 1.258642e+00	-6.005566e+01
1	 3.253808e-01	 1.262446e+00	-5.898069e+01
1	 3.109638e-01	 1.266075e+00	-5.780106e+01
1	 2.965523e-01	 1.269528e+00	-5.652635e+01
1	 2.821492e-01	 1.272806e+00	-5.516626e+01
1	 3.562320e-01	 1.261789e+00	-6.177133e+01
1	 3.417311e-01	 1.265793e+00	-6.080460e+01
1	 3.272296e-01	 1.269619e+00	-5.972651e+01
1	 3.127306e-01	 1.273268e+00	-5.854563e+01
1	 2.982372e-01	 1.276741e+00	-5.727067e+01
1	 2.837523e-01	 1.280038e+00	-5.591045e+01
1	 3.582446e-01	 1.268918e+00	-6.246325e+01
1	 3.436617e-01	 1.272944e+00	-6.149269e+01
1	 3.290783e-01	 1.276792e+00	-6.041436e+01
1	 3.144975e-01	 1.280462e+00	-5.923565e+01
1	 2.999222e-01	 1.283954e+00	-5.796412e+01
1	 2.853554e-01	 1.287270e+00	-5.660742e+01
1	 3.602572e-01	 1.276046e+00	-6.309232e+01
1	 3.455924e-01	 1.280096e+00	-6.212015e+01
1	 3.309271e-01	 1.283965e+00	-6.104456e+01
1	 3.162643e-01	 1.287655e+00	-5.987150e+01
1	 3.016071e-01	 1.291167e+00	-5.860706e+01
1	 2.869586e-01	 1.294502e+00	-5.725746e+01
1	 3.622699e-01	 1.283175e+00	-6.365854e+01
1	 3.475231e-01	 1.287247e+00	-6.268718e+01
1	 3.327758e-01	 1.291138e+00	-6.161744e+01
1	 3.180311e-01	 1.294849e+00	-6.045354e+01
1	 3.032921e-01	 1.298380e+00	-5.919986e+01
1	 2.885617e-01	 1.301733e+00	-5.786089e+01
1	 2.805461e-01	 1.265574e+00	-5.437452e+01
1	 2.662362e-01	 1.268662e+00	-5.294902e+01
1	 2.519404e-01	 1.271578e+00	-5.147436e+01
1	 2.376616e-01	 1.274324e+00	-4.996666e+01
1	 2.234024e-01	 1.276901e+00	-4.844203e+01
1	 2.091658e-01	 1.279310e+00	-4.691650e+01
1	 2.821492e-01	 1.272806e+00	-5.516626e+01
1	 2.677575e-01	 1.275911e+00	-5.373711e+01
1	 2.533800e-01	 1.278844e+00	-5.225956e+01
1	 2.390196e-01	 1.281606e+00	-5.074982e+01
1	 2.246790e-01	 1.284197e+00	-4.922410e+01
1	 2.103610e-01	 1.286620e+00	-4.769857e+01
1	 2.837523e-01	 1.280038e+00	-5.591045e+01
1	 2.692789e-01	 1.283161e+00	-5.448120e+01
1	 2.548197e-01	 1.286110e+00	-5.300413e+01
1	 2.403777e-01	 1.288887e+00	-5.149569e+01
1	 2.259556e-01	 1.291494e+00	-4.997229e+01
1	 2.115562e-01	 1.293931e+00	-4.845027e+01
1	 2.853554e-01	 1.287270e+00	-5.660742e+01
1	 2.708002e-01	 1.290410e+00	-5.518150e+01
1	 2.562594e-01	 1.293376e+00	-5.370826e+01
1	 2.417358e-01	 1.296169e+00	-5.220444e+01
1	 2.272322e-01	 1.298790e+00	-5.068674e+01
1	 2.127515e-01	 1.301241e+00	-4.917178e+01
1	 2.869586e-01	 1.294502e+00	-5.725746e+01
1	 2.723216e-01	 1.297660e+00	-5.583824e+01
1	 2.576990e-01	 1.300642e+00	-5.437213e+01
1	 2.430938e-01	 1.303451e+00	-5.287621e+01
1	 2.285088e-01	 1.306087e+00	-5.136758e+01
1	 2.139467e-01	 1.308551e+00	-4.986324e+01
1	 2.885617e-01	 1.301733e+00	-5.786089e+01
1	 2.738429e-01	 1.304909e+00	-5.645166e+01
1	 2.591387e-01	 1.307909e+00	-5.499590e+01
1	 2.444519e-01	 1.310733e+00	-5.351115e+01
1	 2.297854e-01	 1.313384e+00	-5.201496e+01
1	 2.151419e-01	 1.315862e+00	-5.052481e+01
1	 2.091658e-01	 1.279310e+00	-4.691650e+01
1	 1.949542e-01	 1.281553e+00	-4.540848e+01
1	 1.807703e-01	 1.283630e+00	-4.393384e+01
1	 1.666167e-01	 1.285544e+00	-4.250457e+01
1	 1.524959e-01	 1.287295e+00	-4.113249e+01
1	 1.384103e-01	 1.288886e+00	-3.982918e+01
1	 2.103610e-01	 1.286620e+00	-4.769857e+01
1	 1.960682e-01	 1.288876e+00	-4.619137e+01
1	 1.818033e-01	 1.290965e+00	-4.471781e+01
1	 1.675688e-01	 1.292890e+00	-4.328956e+01
1	 1.533673e-01	 1.294651e+00	-4.191807e+01
1	 1.392012e-01	 1.296251e+00	-4.061458e+01
1	 2.115562e-01	 1.293931e+00	-4.845027e+01
1	 1.971822e-01	 1.296199e+00	-4.694760e+01
1	 1.828362e-01	 1.298300e+00	-4.547893e+01
1	 1.685209e-01	 1.300236e+00	-4.405548e+01
1	 1.542387e-01	 1.302007e+00	-4.268825e+01
1	 1.399921e-01	 1.303616e+00	-4.138804e+01
1	 2.127515e-01	 1.301241e+00	-4.917178e+01
1	 1.982962e-01	 1.303522e+00	-4.767736e+01
1	 1.838692e-01	 1.305635e+00	-4.621739e+01
1	 1.694730e-01	 1.307582e+00	-4.480252e+01
1	 1.551101e-01	 1.309363e+00	-4.344320e+01
1	 1.407831e-01	 1.310981e+00	-4.214969e+01
1	 2.139467e-01	 1.308551e+00	-4.986324e+01
1	 1.994103e-01	 1.310845e+00	-4.838081e+01
1	 1.849022e-01	 1.312970e+00	-4.693336e+01
1	 1.704251e-01	 1.314928e+00	-4.553085e+01
1	 1.559815e-01	 1.316719e+00	-4.418308e+01
1	 1.415740e-01	 1.318346e+00	-4.289964e+01
1	 2.151419e-01	 1.315862e+00	-5.052481e+01
1	 2.005243e-01	 1.318168e+00	-4.905815e+01
1	 1.859351e-01	 1.320305e+00	-4.762702e+01
1	 1.713771e-01	 1.322274e+00	-4.624063e+01
1	 1.568529e-01	 1.324075e+00	-4.490802e+01
1	 1.423649e-01	 1.325711e+00	-4.363802e+01
1	 1.384103e-01	 1.288886e+00	-3.982918e+01
1	 1.243625e-01	 1.290317e+00	-3.860677e+01
1	 1.103546e-01	 1.291590e+00	-3.747810e+01
1	 9.638917e-02	 1.292708e+00	-3.645544e+01
1	 8.246833e-02	 1.293670e+00	-3.555068e+01
1	 6.859431e-02	 1.294480e+00	-3.477542e+01
1	 1.392012e-01	 1.296251e+00	-4.061458e+01
1	 1.250731e-01	 1.297690e+00	-3.939105e+01
1	 1.109852e-01	 1.298971e+00	-3.826018e+01
1	 9.693997e-02	 1.300095e+00	-3.723397e+01
1	 8.293958e-02	 1.301063e+00	-3.632411e+01
1	 6.898628e-02	 1.301877e+00	-3.554191e+01
1	 1.399921e-01	 1.303616e+00	-4.138804e+01
1	 1.257837e-01	 1.305064e+00	-4.016652e+01
1	 1.116158e-01	 1.306352e+00	-3.903622e+01
1	 9.749076e-02	 1.307482e+00	-3.800892e+01
1	 8.341082e-02	 1.308455e+00	-3.709603e+01
1	 6.937825e-02	 1.309274e+00	-3.630865e+01
1	 1.407831e-01	 1.310981e+00	-4.214969e+01
1	 1.264944e-01	 1.312437e+00	-4.093326e+01
1	 1.122464e-01	 1.313732e+00	-3.980632e+01
1	 9.804156e-02	 1.314868e+00	-3.878035e+01
1	 8.388207e-02	 1.315848e+00	-3.786653e+01
1	 6.977021e-02	 1.316671e+00	-3.707570e+01
1	 1.415740e-01	 1.318346e+00	-4.289964e+01
1	 1.272050e-01	 1.319810e+00	-4.169139e+01
1	 1.128770e-01	 1.321113e+00	-4.057054e+01
1	 9.859235e-02	 1.322255e+00	-3.954832e+01
1	 8.435332e-02	 1.323240e+00	-3.863565e+01
1	 7.016218e-02	 1.324068e+00	-3.784312e+01
1	 1.423649e-01	 1.325711e+00	-4.363802e+01
1	 1.279157e-01	 1.327183e+00	-4.244100e+01
1	 1.135076e-01	 1.328493e+00	-4.132897e+01
1	 9.914315e-02	 1.329642e+00	-4.031291e+01
1	 8.482457e-02	 1.330632e+00	-3.940347e+01
1	 7.055415e-02	 1.331465e+00	-3.861098e+01
1	 6.859431e-02	 1.294480e+00	-3.477542e+01
1	 5.476927e-02	 1.295139e+00	-3.414152e+01
1	 4.099530e-02	 1.295648e+00	-3.366042e+01
1	 2.727445e-02	 1.296009e+00	-3.334244e+01
1	 1.360871e-02	 1.296225e+00	-3.319748e+01
1	 0.000000e+00	 1.296296e+00	-3.323496e+01
1	 6.898628e-02	 1.301877e+00	-3.554191e+01
1	 5.508224e-02	 1.302540e+00	-3.489897e+01
1	 4.122956e-02	 1.303052e+00	-3.440654e+01
1	 2.743030e-02	 1.303415e+00	-3.407489e+01
1	 1.368647e-02	 1.303632e+00	-3.391386e+01
1	 0.000000e+00	 1.303704e+00	-3.393284e+01
1	 6.937825e-02	 1.309274e+00	-3.630865e+01
1	 5.539520e-02	 1.309940e+00	-3.565804e+01
1	 4.146382e-02	 1.310455e+00	-3.515520e+01
1	 2.758616e-02	 1.310821e+00	-3.481029e+01
1	 1.376423e-02	 1.311039e+00	-3.463302e+01
1	 0.000000e+00	 1.311111e+00	-3.463264e+01
1	 6.977021e-02	 1.316671e+00	-3.707570e+01
1	 5.570817e-02	 1.317341e+00	-3.641878e+01
1	 4.169808e-02	 1.317859e+00	-3.590648e+01
1	 2.774201e-02	 1.318227e+00	-3.554873e+01
1	 1.384200e-02	 1.318446e+00	-3.535505e+01
1	 0.000000e+00	 1.318519e+00	-3.533450e+01
1	 7.016218e-02	 1.324068e+00	-3.784312e+01
1	 5.602114e-02	 1.324742e+00	-3.718128e+01
1	 4.193234e-02	 1.325263e+00	-3.666045e+01
1	 2.789787e-02	 1.325632e+00	-3.629030e+01
1	 1.391976e-02	 1.325853e+00	-3.608006e+01
1	 0.000000e+00	 1.325926e+00	-3.603853e+01
1	 7.055415e-02	 1.331465e+00	-3.861098e+01
1	 5.633411e-02	 1.332143e+00	-3.794560e+01
1	 4.216660e-02	 1.332666e+00	-3.741720e+01
1	 2.805372e-02	 1.333038e+00	-3.703508e+01
1	 1.399753e-02	 1.333260e+00	-3.680814e+01
1	 0.000000e+00	 1.333333e+00	-3.674486e+01
1	 1.333333e+00	 0.000000e+00	 2.012458e+01
1	 1.333260e+00	 1.399753e-02	 1.976451e+01
1	 1.333038e+00	 2.805372e-02	 1.945110e+01
1	 1.332666e+00	 4.216660e-02	 1.918225e+01
1	 1.332143e+00	 5.633411e-02	 1.895581e+01
1	 1.331465e+00	 7.055415e-02	 1.876955e+01
1	 1.340741e+00	 0.000000e+00	 1.997568e+01
1	 1.340667e+00	 1.407529e-02	 1.961088e+01
1	 1.340444e+00	 2.820957e-02	 1.929210e+01
1	 1.340070e+00	 4.240085e-02	 1.901733e+01
1	 1.339544e+00	 5.664707e-02	 1.878449e+01
1	 1.338862e+00	 7.094612e-02	 1.859143e+01
1	 1.348148e+00	 0.000000e+00	 1.983030e+01
1	 1.348074e+00	 1.415305e-02	 1.946102e+01
1	 1.347850e+00	 2.836543e-02	 1.913703e+01
1	 1.347474e+00	 4.263511e-02	 1.885638e+01
1	 1.346944e+00	 5.696004e-02	 1.861705e+01
1	 1.346259e+00	 7.133808e-02	 1.841697e+01
1	 1.355556e+00	 0.000000e+00	 1.968843e+01
1	 1.355481e+00	 1.423082e-02	 1.931495e+01
1	 1.355255e+00	 2.852128e-02	 1.898590e+01
1	 1.354878e+00	 4.286937e-02	 1.869941e+01
1	 1.354345e+00	 5.727301e-02	 1.845352e+01
1	 1.353656e+00	 7.173005e-02	 1.824622e+01
1	 1.362963e+00	 0.000000e+00	 1.955008e+01
1	 1.362888e+00	 1.430858e-02	 1.917266e+01
1	 1.362661e+00	 2.867714e-02	 1.883872e+01
1	 1.362281e+00	 4.310363e-02	 1.854644e+01
1	 1.361746e+00	 5.758597e-02	 1.829393e+01
1	 1.361053e+00	 7.212202e-02	 1.807925e+01
1	 1.370370e+00	 0.000000e+00	 1.941522e+01
1	 1.370295e+00	 1.438635e-02	 1.903416e+01
1	 1.370067e+00	 2.883299e-02	 1.869549e+01
1	 1.369685e+00	 4.333789e-02	 1.839749e+01
1	 1.369147e+00	 5.789894e-02	 1.813832e+01
1	 1.368450e+00	 7.251399e-02	 1.791612e+01
1	 1.331465e+00	 7.055415e-02	 1.876955e+01
1	 1.330632e+00	 8.482457e-02	 1.862371e+01
1	 1.329642e+00	 9.914315e-02	 1.851843e+01
1	 1.328493e+00	 1.135076e-01	 1.845131e+01
1	 1.327183e+00	 1.279157e-01	 1.841991e+01
1	 1.325711e+00	 1.423649e-01	 1.842177e+01
1	 1.338862e+00	 7.094612e-02	 1.859143e+01
1	 1.338025e+00	 8.529582e-02	 1.843857e+01
1	 1.337029e+00	 9.969394e-02	 1.832624e+01
1	 1.335874e+00	 1.141382e-01	 1.825211e+01
1	 1.334556e+00	 1.286263e-01	 1.821379e+01
1	 1.333076e+00	 1.431558e-01	 1.820888e+01
1	 1.346259e+00	 7.133808e-02	 1.841697e+01
1	 1.345417e+00	 8.576706e-02	 1.825676e+01
1	 1.344416e+00	 1.002447e-01	 1.813697e+01
1	 1.343254e+00	 1.147688e-01	 1.805534e+01
1	 1.341930e+00	 1.293369e-01	 1.800955e+01
1	 1.340441e+00	 1.439467e-01	 1.799729e+01
1	 1.353656e+00	 7.173005e-02	 1.824622e+01
1	 1.352810e+00	 8.623831e-02	 1.807836e+01
1	 1.351803e+00	 1.007955e-01	 1.795072e+01
1	 1.350635e+00	 1.153994e-01	 1.786110e+01
1	 1.349303e+00	 1.300476e-01	 1.780730e+01
1	 1.347806e+00	 1.447376e-01	 1.778708e+01
1	 1.361053e+00	 7.212202e-02	 1.807925e+01
1	 1.360202e+00	 8.670956e-02	 1.790346e+01
1	 1.359190e+00	 1.013463e-01	 1.776757e+01
1	 1.358015e+00	 1.160300e-01	 1.766949e+01
1	 1.356676e+00	 1.307582e-01	 1.760714e+01
1	 1.355171e+00	 1.455286e-01	 1.757838e+01
1	 1.368450e+00	 7.251399e-02	 1.791612e+01
1	 1.367594e+00	 8.718081e-02	 1.773214e+01
1	 1.366577e+00	 1.018971e-01	 1.758762e+01
1	 1.365396e+00	 1.166606e-01	 1.748063e+01
1	 1.364049e+00	 1.314689e-01	 1.740918e+01
1	 1.362536e+00	 1.463195e-01	 1.737127e+01
1	 1.325711e+00	 1.423649e-01	 1.842177e+01
1	 1.324075e+00	 1.568529e-01	 1.845577e+01
1	 1.322274e+00	 1.713771e-01	 1.852114e+01
1	 1.320305e+00	 1.859351e-01	 1.861594e+01
1	 1.318168e+00	 2.005243e-01	 1.873818e+01
1	 1.315862e+00	 2.151419e-01	 1.888590e+01
1	 1.333076e+00	 1.431558e-01	 1.820888e+01
1	 1.331431e+00	 1.577243e-01	 1.823615e+01
1	 1.329620e+00	 1.723292e-01	 1.829475e+01
1	 1.327640e+00	 1.869681e-01	 1.838284e+01
1	 1.325492e+00	 2.016383e-01	 1.849859e+01
1	 1.323172e+00	 2.163372e-01	 1.864010e+01
1	 1.340441e+00	 1.439467e-01	 1.799729e+01
1	 1.338787e+00	 1.585957e-01	 1.801718e+01
1	 1.336966e+00	 1.732813e-01	 1.806832e+01
1	 1.334975e+00	 1.880011e-01	 1.814898e+01
1	 1.332815e+00	 2.027523e-01	 1.825741e+01
1	 1.330482e+00	 2.175324e-01	 1.839185e+01
1	 1.347806e+00	 1.447376e-01	 1.778708e+01
1	 1.346143e+00	 1.594671e-01	 1.779898e+01
1	 1.344312e+00	 1.742334e-01	 1.784199e+01
1	 1.342310e+00	 1.890341e-01	 1.791448e+01
1	 1.340138e+00	 2.038664e-01	 1.801483e+01
1	 1.337793e+00	 2.187276e-01	 1.814138e+01
1	 1.355171e+00	 1.455286e-01	 1.757838e+01
1	 1.353499e+00	 1.603385e-01	 1.758165e+01
1	 1.351658e+00	 1.751855e-01	 1.761586e+01
1	 1.349645e+00	 1.900670e-01	 1.767949e+01
1	 1.347461e+00	 2.049804e-01	 1.777102e+01
1	 1.345103e+00	 2.199229e-01	 1.788891e+01
1	 1.362536e+00	 1.463195e-01	 1.737127e+01
1	 1.360855e+00	 1.612099e-01	 1.736530e+01
1	 1.359003e+00	 1.761376e-01	 1.739005e+01
1	 1.356980e+00	 1.911000e-01	 1.744414e+01
1	 1.354784e+00	 2.060944e-01	 1.752615e+01
1	 1.352413e+00	 2.211181e-01	 1.763464e+01
1	 1.315862e+00	 2.151419e-01	 1.888590e+01
1	 1.313384e+00	 2.297854e-01	 1.905681e+01
1	 1.310733e+00	 2.444519e-01	 1.924785e+01
1	 1.307909e+00	 2.591387e-01	 1.945590e+01
1	 1.304909e+00	 2.738429e-01	 1.967792e+01
1	 1.301733e+00	 2.885617e-01	 1.991093e+01
1	 1.323172e+00	 2.163372e-01	 1.864010e+01
1	 1.320680e+00	 2.310620e-01	 1.880566e+01
1	 1.318015e+00	 2.458099e-01	 1.899265e+01
1	 1.315175e+00	 2.605783e-01	 1.919785e+01
1	 1.312159e+00	 2.753642e-01	 1.941812e+01
1	 1.308965e+00	 2.901648e-01	 1.965044e+01
1	 1.330482e+00	 2.175324e-01	 1.839185e+01
1	 1.327977e+00	 2.323385e-01	 1.855119e+01
1	 1.325297e+00	 2.471680e-01	 1.873327e+01
1	 1.322441e+00	 2.620180e-01	 1.893482e+01
1	 1.319408e+00	 2.768856e-01	 1.915264e+01
1	 1.316197e+00	 2.917679e-01	 1.938365e+01
1	 1.337793e+00	 2.187276e-01	 1.814138e+01
1	 1.335273e+00	 2.336151e-01	 1.829364e+01
1	 1.332579e+00	 2.485261e-01	 1.846998e+01
1	 1.329707e+00	 2.634577e-01	 1.866708e+01
1	 1.326658e+00	 2.784069e-01	 1.888171e+01
1	 1.323429e+00	 2.933710e-01	 1.911072e+01
1	 1.345103e+00	 2.199229e-01	 1.788891e+01
1	 1.342570e+00	 2.348917e-01	 1.803328e+01
1	 1.339860e+00	 2.498841e-01	 1.820305e+01
1	 1.336973e+00	 2.648973e-01	 1.839489e+01
1	 1.333907e+00	 2.799283e-01	 1.860553e+01
1	 1.330661e+00	 2.949742e-01	 1.883180e+01
1	 1.352413e+00	 2.211181e-01	 1.763464e+01
1	 1.349866e+00	 2.361683e-01	 1.777035e+01
1	 1.347142e+00	 2.512422e-01	 1.793274e+01
1	 1.344239e+00	 2.663370e-01	 1.811849e+01
1	 1.341157e+00	 2.814496e-01	 1.832432e+01
1	 1.337893e+00	 2.965773e-01	 1.854703e+01
1	 1.301733e+00	 2.885617e-01	 1.991093e+01
1	 1.298380e+00	 3.032921e-01	 2.015194e+01
1	 1.294849e+00	 3.180311e-01	 2.039926e+01
1	 1.291138e+00	 3.327758e-01	 2.065201e+01
1	 1.287247e+00	 3.475231e-01	 2.090933e+01
1	 1.283175e+00	 3.622699e-01	 2.117036e+01
1	 1.308965e+00	 2.901648e-01	 1.965044e+01
1	 1.305594e+00	 3.049770e-01	 1.989100e+01
1	 1.302043e+00	 3.197980e-01	 2.013755e+01
1	 1.298311e+00	 3.346246e-01	 2.038942e+01
1	 1.294399e+00	 3.494538e-01	 2.064594e+01
1	 1.290304e+00	 3.642825e-01	 2.090646e+01
1	 1.316197e+00	 2.917679e-01	 1.938365e+01
1	 1.312807e+00	 3.066620e-01	 1.962318e+01
1	 1.309236e+00	 3.215648e-01	 1.986830e+01
1	 1.305484e+00	 3.364733e-01	 2.011855e+01
1	 1.301550e+00	 3.513845e-01	 2.037346e+01
1	 1.297433e+00	 3.662951e-01	 2.063255e+01
1	 1.323429e+00	 2.933710e-01	 1.911072e+01
1	 1.320020e+00	 3.083470e-01	 1.934856e+01
1	 1.316430e+00	 3.233317e-01	 1.959157e+01
1	 1.312657e+00	 3.383221e-01	 1.983947e+01
1	 1.308701e+00	 3.533152e-01	 2.009198e+01
1	 1.304561e+00	 3.683077e-01	 2.034880e+01
1	 1.330661e+00	 2.949742e-01	 1.883180e+01
1	 1.327233e+00	 3.100319e-01	 1.906723e+01
1	 1.323623e+00	 3.250985e-01	 1.930740e+01
1	 1.319830e+00	 3.401709e-01	 1.955222e+01
1	 1.315853e+00	 3.552458e-01	 1.980159e+01
1	 1.311690e+00	 3.703203e-01	 2.005539e+01
1	 1.337893e+00	 2.965773e-01	 1.854703e+01
1	 1.334447e+00	 3.117169e-01	 1.877929e+01
1	 1.330817e+00	 3.268653e-01	 1.901587e+01
1	 1.327003e+00	 3.420196e-01	 1.925688e+01
1	 1.323004e+00	 3.571765e-01	 1.950239e+01
1	 1.318819e+00	 3.723329e-01	 1.975247e+01
1	 1.283175e+00	 3.622699e-01	 2.117036e+01
1	 1.278921e+00	 3.770130e-01	 2.139310e+01
1	 1.274484e+00	 3.917493e-01	 2.153795e+01
1	 1.269864e+00	 4.064755e-01	 2.160771e+01
1	 1.265060e+00	 4.211885e-01	 2.160519e+01
1	 1.260072e+00	 4.358850e-01	 2.153322e+01
1	 1.290304e+00	 3.642825e-01	 2.090646e+01
1	 1.286026e+00	 3.791075e-01	 2.112873e+01
1	 1.281565e+00	 3.939256e-01	 2.127279e+01
1	 1.276919e+00	 4.087337e-01	 2.134136e+01
1	 1.272089e+00	 4.235284e-01	 2.133722e+01
1	 1.267073e+00	 4.383066e-01	 2.126316e+01
1	 1.297433e+00	 3.662951e-01	 2.063255e+01
1	 1.293131e+00	 3.812020e-01	 2.085355e+01
1	 1.288645e+00	 3.961020e-01	 2.099628e+01
1	 1.283974e+00	 4.109919e-01	 2.106343e+01
1	 1.279117e+00	 4.258684e-01	 2.105774e+01
1	 1.274073e+00	 4.407281e-01	 2.098200e+01
1	 1.304561e+00	 3.683077e-01	 2.034880e+01
1	 1.300236e+00	 3.832965e-01	 2.056778e+01
1	 1.295726e+00	 3.982784e-01	 2.070869e+01
1	 1.291029e+00	 4.132501e-01	 2.077419e+01
1	 1.286145e+00	 4.282083e-01	 2.076698e+01
1	 1.281073e+00	 4.431497e-01	 2.068986e+01
1	 1.311690e+00	 3.703203e-01	 2.005539e+01
1	 1.307341e+00	 3.853910e-01	 2.027167e+01
1	 1.302806e+00	 4.004548e-01	 2.041029e+01
1	 1.298084e+00	 4.155083e-01	 2.047388e+01
1	 1.293173e+00	 4.305483e-01	 2.046515e+01
1	 1.288074e+00	 4.455713e-01	 2.038687e+01
1	 1.318819e+00	 3.723329e-01	 1.975247e+01
1	 1.314447e+00	 3.874855e-01	 1.996544e+01
1	 1.309887e+00	 4.026312e-01	 2.010134e+01
1	 1.305138e+00	 4.177665e-01	 2.016278e+01
1	 1.300201e+00	 4.328882e-01	 2.015246e+01
1	 1.295074e+00	 4.479929e-01	 2.007317e+01
1	 1.260072e+00	 4.358850e-01	 2.153322e+01
1	 1.254899e+00	 4.505616e-01	 2.138106e+01
1	 1.249541e+00	 4.652151e-01	 2.113675e+01
1	 1.243997e+00	 4.798421e-01	 2.080141e+01
1	 1.238268e+00	 4.944392e-01	 2.037631e+01
1	 1.232353e+00	 5.090031e-01	 1.986288e+01
1	 1.267073e+00	 4.383066e-01	 2.126316e+01
1	 1.261871e+00	 4.530647e-01	 2.110916e+01
1	 1.256483e+00	 4.677997e-01	 2.086395e+01
1	 1.250908e+00	 4.825079e-01	 2.052864e+01
1	 1.245147e+00	 4.971861e-01	 2.010446e+01
1	 1.239199e+00	 5.118309e-01	 1.959278e+01
1	 1.274073e+00	 4.407281e-01	 2.098200e+01
1	 1.268843e+00	 4.555679e-01	 2.082668e+01
1	 1.263425e+00	 4.703842e-01	 2.058102e+01
1	 1.257820e+00	 4.851737e-01	 2.024604e+01
1	 1.252027e+00	 4.999330e-01	 1.982290e+01
1	 1.246046e+00	 5.146587e-01	 1.931287e+01
1	 1.281073e+00	 4.431497e-01	 2.068986e+01
1	 1.275814e+00	 4.580710e-01	 2.053368e+01
1	 1.270367e+00	 4.729687e-01	 2.028799e+01
1	 1.264731e+00	 4.878395e-01	 1.995368e+01
1	 1.258906e+00	 5.026799e-01	 1.953177e+01
1	 1.252892e+00	 5.174865e-01	 1.902340e+01
1	 1.288074e+00	 4.455713e-01	 2.038687e+01
1	 1.282786e+00	 4.605741e-01	 2.023021e+01
1	 1.277309e+00	 4.755532e-01	 1.998488e+01
1	 1.271642e+00	 4.905053e-01	 1.965159e+01
1	 1.265785e+00	 5.054268e-01	 1.923120e+01
1	 1.259738e+00	 5.203143e-01	 1.872462e+01
1	 1.295074e+00	 4.479929e-01	 2.007317e+01
1	 1.289758e+00	 4.630772e-01	 1.991633e+01
1	 1.284250e+00	 4.781378e-01	 1.967172e+01
1	 1.278553e+00	 4.931711e-01	 1.933983e+01
1	 1.272664e+00	 5.081737e-01	 1.892129e+01
1	 1.266585e+00	 5.231421e-01	 1.841679e+01
1	 1.232353e+00	 5.090031e-01	 1.986288e+01
1	 1.226252e+00	 5.235303e-01	 1.925606e+01
1	 1.219965e+00	 5.380174e-01	 1.855034e+01
1	 1.213493e+00	 5.524609e-01	 1.774655e+01
1	 1.206835e+00	 5.668575e-01	 1.684544e+01
1	 1.199992e+00	 5.812035e-01	 1.584771e+01
1	 1.239199e+00	 5.118309e-01	 1.959278e+01
1	 1.233064e+00	 5.264388e-01	 1.898762e+01
1	 1.226743e+00	 5.410064e-01	 1.828252e+01
1	 1.220234e+00	 5.555301e-01	 1.747821e+01
1	 1.213540e+00	 5.700067e-01	 1.657540e+01
1	 1.206658e+00	 5.844324e-01	 1.557477e+01
1	 1.246046e+00	 5.146587e-01	 1.931287e+01
1	 1.239877e+00	 5.293473e-01	 1.870923e+01
1	 1.233520e+00	 5.439953e-01	 1.800485e+01
1	 1.226976e+00	 5.585994e-01	 1.720047e+01
1	 1.220244e+00	 5.731559e-01	 1.629682e+01
1	 1.213325e+00	 5.876614e-01	 1.529464e+01
1	 1.252892e+00	 5.174865e-01	 1.902340e+01
1	 1.246689e+00	 5.322558e-01	 1.842125e+01
1	 1.240298e+00	 5.469843e-01	 1.771776e+01
1	 1.233718e+00	 5.616686e-01	 1.691373e+01
1	 1.226949e+00	 5.763051e-01	 1.601000e+01
1	 1.219992e+00	 5.908903e-01	 1.500744e+01
1	 1.259738e+00	 5.203143e-01	 1.872462e+01
1	 1.253502e+00	 5.351643e-01	 1.812407e+01
1	 1.247076e+00	 5.499733e-01	 1.742166e+01
1	 1.240459e+00	 5.647378e-01	 1.661839e+01
1	 1.233653e+00	 5.794543e-01	 1.571525e+01
1	 1.226658e+00	 5.941192e-01	 1.471329e+01
1	 1.266585e+00	 5.231421e-01	 1.841679e+01
1	 1.260314e+00	 5.380728e-01	 1.781803e+01
1	 1.253853e+00	 5.529623e-01	 1.711697e+01
1	 1.247201e+00	 5.678070e-01	 1.631483e+01
1	 1.240358e+00	 5.826035e-01	 1.541285e+01
1	 1.233325e+00	 5.973481e-01	 1.441232e+01
1	 1.199992e+00	 5.812035e-01	 1.584771e+01
1	 1.192964e+00	 5.954957e-01	 1.475814e+01
1	 1.185751e+00	 6.097304e-01	 1.358151e+01
1	 1.178355e+00	 6.239043e-01	 1.231832e+01
1	 1.170776e+00	 6.380139e-01	 1.096904e+01
1	 1.163014e+00	 6.520556e-01	 9.534004e+00
1	 1.206658e+00	 5.844324e-01	 1.557477e+01
1	 1.199591e+00	 5.988040e-01	 1.448083e+01
1	 1.192339e+00	 6.131178e-01	 1.329797e+01
1	 1.184902e+00	 6.273705e-01	 1.202661e+01
1	 1.177280e+00	 6.415584e-01	 1.066700e+01
1	 1.169475e+00	 6.556781e-01	 9.219237e+00
1	 1.213325e+00	 5.876614e-01	 1.529464e+01
1	 1.206219e+00	 6.021123e-01	 1.419771e+01
1	 1.198926e+00	 6.165052e-01	 1.300953e+01
1	 1.191448e+00	 6.308366e-01	 1.173030e+01
1	 1.183784e+00	 6.451029e-01	 1.036001e+01
1	 1.175936e+00	 6.593006e-01	 8.898410e+00
1	 1.219992e+00	 5.908903e-01	 1.500744e+01
1	 1.212847e+00	 6.054206e-01	 1.390875e+01
1	 1.205514e+00	 6.198926e-01	 1.271612e+01
1	 1.197995e+00	 6.343027e-01	 1.142943e+01
1	 1.190289e+00	 6.486474e-01	 1.004830e+01
1	 1.182397e+00	 6.629232e-01	 8.572085e+00
1	 1.226658e+00	 5.941192e-01	 1.471329e+01
1	 1.219474e+00	 6.087289e-01	 1.361393e+01
1	 1.212102e+00	 6.232800e-01	 1.241768e+01
1	 1.204541e+00	 6.377689e-01	 1.112400e+01
1	 1.196793e+00	 6.521919e-01	 9.732090e+00
1	 1.188859e+00	 6.665457e-01	 8.240812e+00
1	 1.233325e+00	 5.973481e-01	 1.441232e+01
1	 1.226102e+00	 6.120372e-01	 1.331323e+01
1	 1.218689e+00	 6.266674e-01	 1.211415e+01
1	 1.211087e+00	 6.412350e-01	 1.081405e+01
1	 1.203297e+00	 6.557365e-01	 9.411606e+00
1	 1.195320e+00	 6.701682e-01	 7.905129e+00
1	 1.163014e+00	 6.520556e-01	 9.534004e+00
1	 1.155070e+00	 6.660260e-01	 8.019388e+00
1	 1.146946e+00	 6.799217e-01	 6.429399e+00
1	 1.138641e+00	 6.937392e-01	 4.761174e+00
1	 1.130158e+00	 7.074751e-01	 3.011558e+00
1	 1.121497e+00	 7.211259e-01	 1.177103e+00
1	 1.169475e+00	 6.556781e-01	 9.219237e+00
1	 1.161487e+00	 6.697261e-01	 7.688872e+00
1	 1.153318e+00	 6.836990e-01	 6.079875e+00
1	 1.144967e+00	 6.975933e-01	 4.389733e+00
1	 1.136437e+00	 7.114055e-01	 2.615778e+00
1	 1.127727e+00	 7.251322e-01	 7.551966e-01
1	 1.175936e+00	 6.593006e-01	 8.898410e+00
1	 1.167904e+00	 6.734263e-01	 7.351346e+00
1	 1.159689e+00	 6.874764e-01	 5.723609e+00
1	 1.151293e+00	 7.014474e-01	 4.013187e+00
1	 1.142715e+00	 7.153359e-01	 2.218042e+00
1	 1.133958e+00	 7.291384e-01	 3.361153e-01
1	 1.182397e+00	 6.629232e-01	 8.572085e+00
1	 1.174321e+00	 6.771264e-01	 7.007685e+00
1	 1.166061e+00	 6.912537e-01	 5.361620e+00
1	 1.157619e+00	 7.053015e-01	 3.632535e+00
1	 1.148994e+00	 7.192663e-01	 1.819157e+00
1	 1.140188e+00	 7.331447e-01	-7.969945e-02
1	 1.188859e+00	 6.665457e-01	 8.240812e+00
1	 1.180738e+00	 6.808266e-01	 6.658742e+00
1	 1.172433e+00	 6.950311e-01	 4.994907e+00
1	 1.163944e+00	 7.091556e-01	 3.248754e+00
1	 1.155272e+00	 7.231967e-01	 1.419911e+00
1	 1.146419e+00	 7.371509e-01	-4.918156e-01
1	 1.195320e+00	 6.701682e-01	 7.905129e+00
1	 1.187155e+00	 6.845267e-01	 6.305356e+00
1	 1.178805e+00	 6.988084e-01	 4.624446e+00
1	 1.170270e+00	 7.130097e-01	 2.862801e+00
1	 1.161551e+00	 7.271271e-01	 1.021077e+00
1	 1.152650e+00	 7.411572e-01	-8.998106e-01
1	 1.121497e+00	 7.211259e-01	 1.177103e+00
1	 1.112659e+00	 7.346883e-01	-6.594807e-01
1	 1.103647e+00	 7.481590e-01	-2.409045e+00
1	 1.094460e+00	 7.615344e-01	-4.065229e+00
1	 1.085101e+00	 7.748114e-01	-5.621195e+00
1	 1.075572e+00	 7.879867e-01	-7.069641e+00
1	 1.127727e+00	 7.251322e-01	 7.551966e-01
1	 1.118841e+00	 7.387699e-01	-1.105396e+00
1	 1.109778e+00	 7.523154e-01	-2.873609e+00
1	 1.100541e+00	 7.657652e-01	-4.543414e+00
1	 1.091130e+00	 7.791159e-01	-6.108415e+00
1	 1.081547e+00	 7.923644e-01	-7.561863e+00
1	 1.133958e+00	 7.291384e-01	 3.361153e-01
1	 1.125022e+00	 7.428515e-01	-1.543108e+00
1	 1.115909e+00	 7.564718e-01	-3.325270e+00
1	 1.106621e+00	 7.699959e-01	-5.004930e+00
1	 1.097158e+00	 7.834205e-01	-6.576370e+00
1	 1.087523e+00	 7.967421e-01	-8.033619e+00
1	 1.140188e+00	 7.331447e-01	-7.969945e-02
1	 1.131204e+00	 7.469331e-01	-1.972567e+00
1	 1.122041e+00	 7.606283e-01	-3.764258e+00
1	 1.112701e+00	 7.742267e-01	-5.450158e+00
1	 1.103186e+00	 7.877250e-01	-7.025469e+00
1	 1.093498e+00	 8.011198e-01	-8.485213e+00
1	 1.146419e+00	 7.371509e-01	-4.918156e-01
1	 1.137385e+00	 7.510147e-01	-2.393730e+00
1	 1.128172e+00	 7.647847e-01	-4.190796e+00
1	 1.118782e+00	 7.784574e-01	-5.879474e+00
1	 1.109215e+00	 7.920295e-01	-7.456109e+00
1	 1.099473e+00	 8.054975e-01	-8.916945e+00
1	 1.152650e+00	 7.411572e-01	-8.998106e-01
1	 1.143567e+00	 7.550963e-01	-2.806549e+00
1	 1.134304e+00	 7.689412e-01	-4.605102e+00
1	 1.124862e+00	 7.826882e-01	-6.293240e+00
1	 1.115243e+00	 7.963340e-01	-7.868683e+00
1	 1.105449e+00	 8.098752e-01	-9.329105e+00
1	 1.075572e+00	 7.879867e-01	-7.069641e+00
1	 1.065873e+00	 8.010569e-01	-8.392981e+00
1	 1.056007e+00	 8.140189e-01	-9.580424e+00
1	 1.045975e+00	 8.268694e-01	-1.063456e+01
1	 1.035780e+00	 8.396054e-01	-1.155803e+01
1	 1.025423e+00	 8.522237e-01	-1.235350e+01
1	 1.081547e+00	 7.923644e-01	-7.561863e+00
1	 1.071795e+00	 8.055072e-01	-8.888482e+00
1	 1.061874e+00	 8.185412e-01	-1.007941e+01
1	 1.051786e+00	 8.314631e-01	-1.113729e+01
1	 1.041535e+00	 8.442699e-01	-1.206480e+01
1	 1.031120e+00	 8.569582e-01	-1.286467e+01
1	 1.087523e+00	 7.967421e-01	-8.033619e+00
1	 1.077716e+00	 8.099575e-01	-9.363405e+00
1	 1.067741e+00	 8.230635e-01	-1.055818e+01
1	 1.057597e+00	 8.360569e-01	-1.162039e+01
1	 1.047289e+00	 8.489343e-01	-1.255254e+01
1	 1.036817e+00	 8.616928e-01	-1.335717e+01
1	 1.093498e+00	 8.011198e-01	-8.485213e+00
1	 1.083638e+00	 8.144079e-01	-9.817893e+00
1	 1.073607e+00	 8.275859e-01	-1.101674e+01
1	 1.063408e+00	 8.406506e-01	-1.208377e+01
1	 1.053043e+00	 8.535988e-01	-1.302107e+01
1	 1.042514e+00	 8.664274e-01	-1.383075e+01
1	 1.099473e+00	 8.054975e-01	-8.916945e+00
1	 1.089559e+00	 8.188582e-01	-1.025209e+01
1	 1.079474e+00	 8.321082e-01	-1.145509e+01
1	 1.069219e+00	 8.452443e-01	-1.252731e+01
1	 1.058798e+00	 8.582633e-01	-1.347019e+01
1	 1.048210e+00	 8.711620e-01	-1.428519e+01
1	 1.105449e+00	 8.098752e-01	-9.329105e+00
1	 1.095481e+00	 8.233085e-01	-1.066613e+01
1	 1.085341e+00	 8.366305e-01	-1.187324e+01
1	 1.075030e+00	 8.498380e-01	-1.295092e+01
1	 1.064552e+00	 8.629278e-01	-1.389972e+01
1	 1.053907e+00	 8.758965e-01	-1.472025e+01
1	 1.025423e+00	 8.522237e-01	-1.235350e+01
1	 1.014906e+00	 8.647212e-01	-1.305675e+01
1	 1.004232e+00	 8.770950e-01	-1.369953e+01
1	 9.934025e-01	 8.893420e-01	-1.427832e+01
1	 9.824198e-01	 9.014595e-01	-1.478947e+01
1	 9.712863e-01	 9.134444e-01	-1.522916e+01
1	 1.031120e+00	 8.569582e-01	-1.286467e+01
1	 1.020545e+00	 8.695252e-01	-1.357199e+01
1	 1.009811e+00	 8.819677e-01	-1.421774e+01
1	 9.989214e-01	 8.942828e-01	-1.479832e+01
1	 9.878776e-01	 9.064676e-01	-1.530999e+01
1	 9.766823e-01	 9.185191e-01	-1.574882e+01
1	 1.036817e+00	 8.616928e-01	-1.335717e+01
1	 1.026183e+00	 8.743292e-01	-1.406846e+01
1	 1.015390e+00	 8.868405e-01	-1.471668e+01
1	 1.004440e+00	 8.992236e-01	-1.529838e+01
1	 9.933355e-01	 9.114757e-01	-1.580993e+01
1	 9.820783e-01	 9.235938e-01	-1.624751e+01
1	 1.042514e+00	 8.664274e-01	-1.383075e+01
1	 1.031822e+00	 8.791332e-01	-1.454590e+01
1	 1.020969e+00	 8.917132e-01	-1.519614e+01
1	 1.009959e+00	 9.041644e-01	-1.577837e+01
1	 9.987934e-01	 9.164838e-01	-1.628928e+01
1	 9.874744e-01	 9.286685e-01	-1.672539e+01
1	 1.048210e+00	 8.711620e-01	-1.428519e+01
1	 1.037460e+00	 8.839372e-01	-1.500407e+01
1	 1.026548e+00	 8.965860e-01	-1.565592e+01
1	 1.015478e+00	 9.091052e-01	-1.623816e+01
1	 1.004251e+00	 9.214919e-01	-1.674802e+01
1	 9.928704e-01	 9.337432e-01	-1.718257e+01
1	 1.053907e+00	 8.758965e-01	-1.472025e+01
1	 1.043098e+00	 8.887412e-01	-1.544273e+01
1	 1.032127e+00	 9.014587e-01	-1.609580e+01
1	 1.020997e+00	 9.140460e-01	-1.667762e+01
1	 1.009709e+00	 9.265000e-01	-1.718615e+01
1	 9.982665e-01	 9.388179e-01	-1.761920e+01
1	 9.712863e-01	 9.134444e-01	-1.522916e+01
1	 9.600045e-01	 9.252941e-01	-1.563628e+01
1	 9.485768e-01	 9.370058e-01	-1.605341e+01
1	 9.370058e-01	 9.485768e-01	-1.648222e+01
1	 9.252941e-01	 9.600045e-01	-1.692453e+01
1	 9.134444e-01	 9.712863e-01	-1.738226e+01
1	 9.766823e-01	 9.185191e-01	-1.574882e+01
1	 9.653378e-01	 9.304346e-01	-1.615517e+01
1	 9.538467e-01	 9.422114e-01	-1.657320e+01
1	 9.422114e-01	 9.538467e-01	-1.700464e+01
1	 9.304346e-01	 9.653378e-01	-1.745138e+01
1	 9.185191e-01	 9.766823e-01	-1.791543e+01
1	 9.820783e-01	 9.235938e-01	-1.624751e+01
1	 9.706712e-01	 9.355752e-01	-1.665316e+01
1	 9.591165e-01	 9.474170e-01	-1.707248e+01
1	 9.474170e-01	 9.591165e-01	-1.750700e+01
1	 9.355752e-01	 9.706712e-01	-1.795839e+01
1	 9.235938e-01	 9.820783e-01	-1.842846e+01
1	 9.874744e-01	 9.286685e-01	-1.672539e+01
1	 9.760045e-01	 9.407157e-01	-1.713051e+01
1	 9.643864e-01	 9.526226e-01	-1.755152e+01
1	 9.526226e-01	 9.643864e-01	-1.798947e+01
1	 9.407157e-01	 9.760045e-01	-1.844552e+01
1	 9.286685e-01	 9.874744e-01	-1.892097e+01
1	 9.928704e-01	 9.337432e-01	-1.718257e+01
1	 9.813379e-01	 9.458562e-01	-1.758746e+01
1	 9.696563e-01	 9.578282e-01	-1.801056e+01
1	 9.578282e-01	 9.696563e-01	-1.845218e+01
1	 9.458562e-01	 9.813379e-01	-1.891270e+01
1	 9.337432e-01	 9.928704e-01	-1.939263e+01
1	 9.982665e-01	 9.388179e-01	-1.761920e+01
1	 9.866712e-01	 9.509967e-01	-1.802425e+01
1	 9.749261e-01	 9.630337e-01	-1.844985e+01
1	 9.630337e-01	 9.749261e-01	-1.889527e+01
1	 9.509967e-01	 9.866712e-01	-1.935988e+01
1	 9.388179e-01	 9.982665e-01	-1.984308e+01
1	 9.134444e-01	 9.712863e-01	-1.738226e+01
1	 9.014595e-01	 9.824198e-01	-1.789356e+01
1	 8.893420e-01	 9.934025e-01	-1.849463e+01
1	 8.770950e-01	 1.004232e+00	-1.918473e+01
1	 8.647212e-01	 1.014906e+00	-1.996320e+01
1	 8.522237e-01	 1.025423e+00	-2.082945e+01
1	 9.185191e-01	 9.766823e-01	-1.791543e+01
1	 9.064676e-01	 9.878776e-01	-1.843508e+01
1	 8.942828e-01	 9.989214e-01	-1.904681e+01
1	 8.819677e-01	 1.009811e+00	-1.975016e+01
1	 8.695252e-01	 1.020545e+00	-2.054477e+01
1	 8.569582e-01	 1.031120e+00	-2.143031e+01
1	 9.235938e-01	 9.820783e-01	-1.842846e+01
1	 9.114757e-01	 9.933355e-01	-1.895548e+01
1	 8.992236e-01	 1.004440e+00	-1.957660e+01
1	 8.868405e-01	 1.015390e+00	-2.029208e+01
1	 8.743292e-01	 1.026183e+00	-2.110231e+01
1	 8.616928e-01	 1.036817e+00	-2.200774e+01
1	 9.286685e-01	 9.874744e-01	-1.892097e+01
1	 9.164838e-01	 9.987934e-01	-1.945415e+01
1	 9.041644e-01	 1.009959e+00	-2.008333e+01
1	 8.917132e-01	 1.020969e+00	-2.080997e+01
1	 8.791332e-01	 1.031822e+00	-2.163565e+01
1	 8.664274e-01	 1.042514e+00	-2.256207e+01
1	 9.337432e-01	 9.928704e-01	-1.939263e+01
1	 9.214919e-01	 1.004251e+00	-1.993049e+01
1	 9.091052e-01	 1.015478e+00	-2.056638e+01
1	 8.965860e-01	 1.026548e+00	-2.130333e+01
1	 8.839372e-01	 1.037460e+00	-2.214459e+01
1	 8.711620e-01	 1.048210e+00	-2.309359e+01
1	 9.388179e-01	 9.982665e-01	-1.984308e+01
1	 9.265000e-01	 1.009709e+00	-2.038393e+01
1	 9.140460e-01	 1.020997e+00	-2.102510e+01
1	 9.014587e-01	 1.032127e+00	-2.177165e+01
1	 8.887412e-01	 1.043098e+00	-2.262895e+01
1	 8.758965e-01	 1.053907e+00	-2.360262e+01
1	 8.522237e-01	 1.025423e+00	-2.082945e+01
1	 8.396054e-01	 1.035780e+00	-2.181624e+01
1	 8.268694e-01	 1.045975e+00	-2.295945e+01
1	 8.140189e-01	 1.056007e+00	-2.426336e+01
1	 8.010569e-01	 1.065873e+00	-2.573249e+01
1	 7.879867e-01	 1.075572e+00	-2.737153e+01
1	 8.569582e-01	 1.031120e+00	-2.143031e+01
1	 8.442699e-01	 1.041535e+00	-2.244085e+01
1	 8.314631e-01	 1.051786e+00	-2.361331e+01
1	 8.185412e-01	 1.061874e+00	-2.495187e+01
1	 8.055072e-01	 1.071795e+00	-2.646094e+01
1	 7.923644e-01	 1.081547e+00	-2.814511e+01
1	 8.616928e-01	 1.036817e+00	-2.200774e+01
1	 8.489343e-01	 1.047289e+00	-2.304390e+01
1	 8.360569e-01	 1.057597e+00	-2.424791e+01
1	 8.230635e-01	 1.067741e+00	-2.562289e+01
1	 8.099575e-01	 1.077716e+00	-2.717214e+01
1	 7.967421e-01	 1.087523e+00	-2.889912e+01
1	 8.664274e-01	 1.042514e+00	-2.256207e+01
1	 8.535988e-01	 1.053043e+00	-2.362609e+01
1	 8.406506e-01	 1.063408e+00	-2.486398e+01
1	 8.275859e-01	 1.073607e+00	-2.627682e+01
1	 8.144079e-01	 1.083638e+00	-2.786581e+01
1	 8.011198e-01	 1.093498e+00	-2.963225e+01
1	 8.711620e-01	 1.048210e+00	-2.309359e+01
1	 8.582633e-01	 1.058798e+00	-2.418811e+01
1	 8.452443e-01	 1.069219e+00	-2.546221e+01
1	 8.321082e-01	 1.079474e+00	-2.691402e+01
1	 8.188582e-01	 1.089559e+00	-2.854165e+01
1	 8.054975e-01	 1.099473e+00	-3.034324e+01
1	 8.758965e-01	 1.053907e+00	-2.360262e+01
1	 8.629278e-01	 1.064552e+00	-2.473064e+01
1	 8.498380e-01	 1.075030e+00	-2.604333e+01
1	 8.366305e-01	 1.085341e+00	-2.753488e+01
1	 8.233085e-01	 1.095481e+00	-2.919939e+01
1	 8.098752e-01	 1.105449e+00	-3.103083e+01
1	 7.879867e-01	 1.075572e+00	-2.737153e+01
1	 7.748114e-01	 1.085101e+00	-2.916641e+01
1	 7.615344e-01	 1.094460e+00	-3.109780e+01
1	 7.481590e-01	 1.103647e+00	-3.316262e+01
1	 7.346883e-01	 1.112659e+00	-3.535778e+01
1	 7.211259e-01	 1.121497e+00	-3.768018e+01
1	 7.923644e-01	 1.081547e+00	-2.814511e+01
1	 7.791159e-01	 1.091130e+00	-2.998807e+01
1	 7.657652e-01	 1.100541e+00	-3.196545e+01
1	 7.523154e-01	 1.109778e+00	-3.406982e+01
1	 7.387699e-01	 1.118841e+00	-3.629359e+01
1	 7.251322e-01	 1.127727e+00	-3.862904e+01
1	 7.967421e-01	 1.087523e+00	-2.889912e+01
1	 7.834205e-01	 1.097158e+00	-3.078402e+01
1	 7.699959e-01	 1.106621e+00	-3.279795e+01
1	 7.564718e-01	 1.115909e+00	-3.493066e+01
1	 7.428515e-01	 1.125022e+00	-3.717170e+01
1	 7.291384e-01	 1.133958e+00	-3.951040e+01
1	 8.011198e-01	 1.093498e+00	-2.963225e+01
1	 7.877250e-01	 1.103186e+00	-3.155208e+01
1	 7.742267e-01	 1.112701e+00	-3.359277e+01
1	 7.606283e-01	 1.122041e+00	-3.574283e+01
1	 7.469331e-01	 1.131204e+00	-3.799050e+01
1	 7.331447e-01	 1.140188e+00	-4.032379e+01
1	 8.054975e-01	 1.099473e+00	-3.034324e+01
1	 7.920295e-01	 1.109215e+00	-3.229011e+01
1	 7.784574e-01	 1.118782e+00	-3.434746e+01
1	 7.647847e-01	 1.128172e+00	-3.650406e+01
1	 7.510147e-01	 1.137385e+00	-3.874840e+01
1	 7.371509e-01	 1.146419e+00	-4.106879e+01
1	 8.098752e-01	 1.105449e+00	-3.103083e+01
1	 7.963340e-01	 1.115243e+00	-3.299601e+01
1	 7.826882e-01	 1.124862e+00	-3.505961e+01
1	 7.689412e-01	 1.134304e+00	-3.721211e+01
1	 7.550963e-01	 1.143567e+00	-3.944384e+01
1	 7.411572e-01	 1.152650e+00	-4.174494e+01
1	 7.211259e-01	 1.121497e+00	-3.768018e+01
1	 7.074751e-01	 1.130158e+00	-4.004406e+01
1	 6.937392e-01	 1.138641e+00	-4.236213e+01
1	 6.799217e-01	 1.146946e+00	-4.462891e+01
1	 6.660260e-01	 1.155070e+00	-4.683872e+01
1	 6.520556e-01	 1.163014e+00	-4.898571e+01
1	 7.251322e-01	 1.127727e+00	-3.862904e+01
1	 7.114055e-01	 1.136437e+00	-4.098682e+01
1	 6.975933e-01	 1.144967e+00	-4.328330e+01
1	 6.836990e-01	 1.153318e+00	-4.551929e+01
1	 6.697261e-01	 1.161487e+00	-4.769562e+01
1	 6.556781e-01	 1.169475e+00	-4.981308e+01
1	 7.291384e-01	 1.133958e+00	-3.951040e+01
1	 7.153359e-01	 1.142715e+00	-4.185643e+01
1	 7.014474e-01	 1.151293e+00	-4.413039e+01
1	 6.874764e-01	 1.159689e+00	-4.633796e+01
1	 6.734263e-01	 1.167904e+00	-4.848493e+01
1	 6.593006e-01	 1.175936e+00	-5.057721e+01
1	 7.331447e-01	 1.140188e+00	-4.032379e+01
1	 7.192663e-01	 1.148994e+00	-4.265357e+01
1	 7.053015e-01	 1.157619e+00	-4.490474e+01
1	 6.912537e-01	 1.166061e+00	-4.708640e+01
1	 6.771264e-01	 1.174321e+00	-4.920783e+01
1	 6.629232e-01	 1.182397e+00	-5.127853e+01
1	 7.371509e-01	 1.146419e+00	-4.106879e+01
1	 7.231967e-01	 1.155272e+00	-4.337891e+01
1	 7.091556e-01	 1.163944e+00	-4.560763e+01
1	 6.950311e-01	 1.172433e+00	-4.776603e+01
1	 6.808266e-01	 1.180738e+00	-4.986546e+01
1	 6.665457e-01	 1.188859e+00	-5.191751e+01
1	 7.411572e-01	 1.152650e+00	-4.174494e+01
1	 7.271271e-01	 1.161551e+00	-4.403311e+01
1	 7.130097e-01	 1.170270e+00	-4.624033e+01
1	 6.988084e-01	 1.178805e+00	-4.837829e+01
1	 6.845267e-01	 1.187155e+00	-5.045895e+01
1	 6.701682e-01	 1.195320e+00	-5.249456e+01
1	 6.520556e-01	 1.163014e+00	-4.898571e+01
1	 6.380139e-01	 1.170776e+00	-5.104683e+01
1	 6.239043e-01	 1.178355e+00	-5.300091e+01
1	 6.097304e-01	 1.185751e+00	-5.484462e+01
1	 5.954957e-01	 1.192964e+00	-5.657456e+01
1	 5.812035e-01	 1.199992e+00	-5.818717e+01
1	 6.556781e-01	 1.169475e+00	-4.981308e+01
1	 6.415584e-01	 1.177280e+00	-5.185294e+01
1	 6.273705e-01	 1.184902e+00	-5.379174e+01
1	 6.131178e-01	 1.192339e+00	-5.562299e+01
1	 5.988040e-01	 1.199591e+00	-5.734001e+01
1	 5.844324e-01	 1.206658e+00	-5.893595e+01
1	 6.593006e-01	 1.175936e+00	-5.057721e+01
1	 6.451029e-01	 1.183784e+00	-5.259800e+01
1	 6.308366e-01	 1.191448e+00	-5.452088e+01
1	 6.165052e-01	 1.198926e+00	-5.633716e+01
1	 6.021123e-01	 1.206219e+00	-5.803789e+01
1	 5.876614e-01	 1.213325e+00	-5.961389e+01
1	 6.629232e-01	 1.182397e+00	-5.127853e+01
1	 6.486474e-01	 1.190289e+00	-5.328170e+01
1	 6.343027e-01	 1.197995e+00	-5.518760e+01
1	 6.198926e-01	 1.205514e+00	-5.698628e+01
1	 6.054206e-01	 1.212847e+00	-5.866749e+01
1	 5.908903e-01	 1.219992e+00	-6.022070e+01
1	 6.665457e-01	 1.188859e+00	-5.191751e+01
1	 6.521919e-01	 1.196793e+00	-5.390374e+01
1	 6.377689e-01	 1.204541e+00	-5.579117e+01
1	 6.232800e-01	 1.212102e+00	-5.756949e+01
1	 6.087289e-01	 1.219474e+00	-5.922810e+01
1	 5.941192e-01	 1.226658e+00	-6.075612e+01
1	 6.701682e-01	 1.195320e+00	-5.249456e+01
1	 6.557365e-01	 1.203297e+00	-5.446383e+01
1	 6.412350e-01	 1.211087e+00	-5.633088e+01
1	 6.266674e-01	 1.218689e+00	-5.808596e+01
1	 6.120372e-01	 1.226102e+00	-5.971904e+01
1	 5.973481e-01	 1.233325e+00	-6.121986e+01
1	 5.812035e-01	 1.199992e+00	-5.818717e+01
1	 5.668575e-01	 1.206835e+00	-5.966848e+01
1	 5.524609e-01	 1.213493e+00	-6.100369e+01
1	 5.380174e-01	 1.219965e+00	-6.218793e+01
1	 5.235303e-01	 1.226252e+00	-6.321632e+01
1	 5.090031e-01	 1.232353e+00	-6.408404e+01
1	 5.844324e-01	 1.206658e+00	-5.893595e+01
1	 5.700067e-01	 1.213540e+00	-6.039482e+01
1	 5.555301e-01	 1.220234e+00	-6.170340e+01
1	 5.410064e-01	 1.226743e+00	-6.285885e+01
1	 5.264388e-01	 1.233064e+00	-6.385838e+01
1	 5.118309e-01	 1.239199e+00	-6.469924e+01
1	 5.876614e-01	 1.213325e+00	-5.961389e+01
1	 5.731559e-01	 1.220244e+00	-6.104851e+01
1	 5.585994e-01	 1.226976e+00	-6.233037e+01
1	 5.439953e-01	 1.233520e+00	-6.345808e+01
1	 5.293473e-01	 1.239877e+00	-6.443029e+01
1	 5.146587e-01	 1.246046e+00	-6.524572e+01
1	 5.908903e-01	 1.219992e+00	-6.022070e+01
1	 5.763051e-01	 1.226949e+00	-6.162972e+01
1	 5.616686e-01	 1.233718e+00	-6.288504e+01
1	 5.469843e-01	 1.240298e+00	-6.398611e+01
1	 5.322558e-01	 1.246689e+00	-6.493244e+01
1	 5.174865e-01	 1.252892e+00	-6.572359e+01
1	 5.941192e-01	 1.226658e+00	-6.075612e+01
1	 5.794543e-01	 1.233653e+00	-6.213862e+01
1	 5.647378e-01	 1.240459e+00	-6.336784e+01
1	 5.499733e-01	 1.247076e+00	-6.444345e+01
1	 5.351643e-01	 1.253502e+00	-6.536522e+01
1	 5.203143e-01	 1.259738e+00	-6.613296e+01
1	 5.973481e-01	 1.233325e+00	-6.121986e+01
1	 5.826035e-01	 1.240358e+00	-6.257541e+01
1	 5.678070e-01	 1.247201e+00	-6.377919e+01
1	 5.529623e-01	 1.253853e+00	-6.483058e+01
1	 5.380728e-01	 1.260314e+00	-6.572900e+01
1	 5.231421e-01	 1.266585e+00	-6.647391e+01
1	 5.090031e-01	 1.232353e+00	-6.408404e+01
1	 4.944392e-01	 1.238268e+00	-6.478248e+01
1	 4.798421e-01	 1.243997e+00	-6.530890e+01
1	 4.652151e-01	 1.249541e+00	-6.566733e+01
1	 4.505616e-01	 1.254899e+00	-6.586186e+01
1	 4.358850e-01	 1.260072e+00	-6.589666e+01
1	 5.118309e-01	 1.239199e+00	-6.469924e+01
1	 4.971861e-01	 1.245147e+00	-6.537484e+01
1	 4.825079e-01	 1.250908e+00	-6.588258e+01
1	 4.677997e-01	 1.256483e+00	-6.622583e+01
1	 4.530647e-01	 1.261871e+00	-6.640800e+01
1	 4.383066e-01	 1.267073e+00	-6.643257e+01
1	 5.146587e-01	 1.246046e+00	-6.524572e+01
1	 4.999330e-01	 1.252027e+00	-6.589903e+01
1	 4.851737e-01	 1.257820e+00	-6.638767e+01
1	 4.703842e-01	 1.263425e+00	-6.671473e+01
1	 4.555679e-01	 1.268843e+00	-6.688331e+01
1	 4.407281e-01	 1.274073e+00	-6.689658e+01
1	 5.174865e-01	 1.252892e+00	-6.572359e+01
1	 5.026799e-01	 1.258906e+00	-6.635486e+01
1	 4.878395e-01	 1.264731e+00	-6.682382e+01
1	 4.729687e-01	 1.270367e+00	-6.713362e+01
1	 4.580710e-01	 1.275814e+00	-6.728745e+01
1	 4.431497e-01	 1.281073e+00	-6.728854e+01
1	 5.203143e-01	 1.259738e+00	-6.613296e+01
1	 5.054268e-01	 1.265785e+00	-6.674213e+01
1	 4.905053e-01	 1.271642e+00	-6.719066e+01
1	 4.755532e-01	 1.277309e+00	-6.748211e+01
1	 4.605741e-01	 1.282786e+00	-6.762011e+01
1	 4.455713e-01	 1.288074e+00	-6.760832e+01
1	 5.231421e-01	 1.266585e+00	-6.647391e+01
1	 5.081737e-01	 1.272664e+00	-6.706068e+01
1	 4.931711e-01	 1.278553e+00	-6.748786e+01
1	 4.781378e-01	 1.284250e+00	-6.775982e+01
1	 4.630772e-01	 1.289758e+00	-6.788096e+01
1	 4.479929e-01	 1.295074e+00	-6.785576e+01
1	 4.358850e-01	 1.260072e+00	-6.589666e+01
1	 4.211885e-01	 1.265060e+00	-6.578338e+01
1	 4.064755e-01	 1.269864e+00	-6.551963e+01
1	 3.917493e-01	 1.274484e+00	-6.508862e+01
1	 3.770130e-01	 1.278921e+00	-6.447375e+01
1	 3.622699e-01	 1.283175e+00	-6.365854e+01
1	 4.383066e-01	 1.267073e+00	-6.643257e+01
1	 4.235284e-01	 1.272089e+00	-6.630969e+01
1	 4.087337e-01	 1.276919e+00	-6.603661e+01
1	 3.939256e-01	 1.281565e+00	-6.559763e+01
1	 3.791075e-01	 1.286026e+00	-6.497720e+01
1	 3.642825e-01	 1.290304e+00	-6.415991e+01
1	 4.407281e-01	 1.274073e+00	-6.689658e+01
1	 4.258684e-01	 1.279117e+00	-6.676368e+01
1	 4.109919e-01	 1.283974e+00	-6.648170e+01
1	 3.961020e-01	 1.288645e+00	-6.603588e+01
1	 3.812020e-01	 1.293131e+00	-6.541162e+01
1	 3.662951e-01	 1.297433e+00	-6.459446e+01
1	 4.431497e-01	 1.281073e+00	-6.728854e+01
1	 4.282083e-01	 1.286145e+00	-6.714541e+01
1	 4.132501e-01	 1.291029e+00	-6.685507e+01
1	 3.982784e-01	 1.295726e+00	-6.640361e+01
1	 3.832965e-01	 1.300236e+00	-6.577723e+01
1	 3.683077e-01	 1.304561e+00	-6.496234e+01
1	 4.455713e-01	 1.288074e+00	-6.760832e+01
1	 4.305483e-01	 1.293173e+00	-6.745495e+01
1	 4.155083e-01	 1.298084e+00	-6.715692e+01
1	 4.004548e-01	 1.302806e+00	-6.670104e+01
1	 3.853910e-01	 1.307341e+00	-6.607426e+01
1	 3.703203e-01	 1.311690e+00	-6.526369e+01
1	 4.479929e-01	 1.295074e+00	-6.785576e+01
1	 4.328882e-01	 1.300201e+00	-6.769235e+01
1	 4.177665e-01	 1.305138e+00	-6.738742e+01
1	 4.026312e-01	 1.309887e+00	-6.692842e+01
1	 3.874855e-01	 1.314447e+00	-6.630292e+01
1	 3.723329e-01	 1.318819e+00	-6.549863e+01
1	 3.622699e-01	 1.283175e+00	-6.365854e+01
1	 3.475231e-01	 1.287247e+00	-6.268718e+01
1	 3.327758e-01	 1.291138e+00	-6.161744e+01
1	 3.180311e-01	 1.294849e+00	-6.045354e+01
1	 3.032921e-01	 1.298380e+00	-5.919986e+01
1	 2.885617e-01	 1.301733e+00	-5.786089e+01
1	 3.642825e-01	 1.290304e+00	-6.415991e+01
1	 3.494538e-01	 1.294399e+00	-6.319184e+01
1	 3.346246e-01	 1.298311e+00	-6.213075e+01
1	 3.197980e-01	 1.302043e+00	-6.097903e+01
1	 3.049770e-01	 1.305594e+00	-5.973924e+01
1	 2.901648e-01	 1.308965e+00	-5.841403e+01
1	 3.662951e-01	 1.297433e+00	-6.459446e+01
1	 3.513845e-01	 1.301550e+00	-6.363208e+01
1	 3.364733e-01	 1.305484e+00	-6.258203e+01
1	 3.215648e-01	 1.309236e+00	-6.144497e+01
1	 3.066620e-01	 1.312807e+00	-6.022170e+01
1	 2.917679e-01	 1.316197e+00	-5.891314e+01
1	 3.683077e-01	 1.304561e+00	-6.496234e+01
1	 3.533152e-01	 1.308701e+00	-6.400795e+01
1	 3.383221e-01	 1.312657e+00	-6.297130e+01
1	 3.233317e-01	 1.316430e+00	-6.185137e+01
1	 3.083470e-01	 1.320020e+00	-6.064732e+01
1	 2.933710e-01	 1.323429e+00	-5.935839e+01
1	 3.703203e-01	 1.311690e+00	-6.526369e+01
1	 3.552458e-01	 1.315853e+00	-6.431949e+01
1	 3.401709e-01	 1.319830e+00	-6.329854e+01
1	 3.250985e-01	 1.323623e+00	-6.219824e+01
1	 3.100319e-01	 1.327233e+00	-6.101614e+01
1	 2.949742e-01	 1.330661e+00	-5.974992e+01
1	 3.723329e-01	 1.318819e+00	-6.549863e+01
1	 3.571765e-01	 1.323004e+00	-6.456674e+01
1	 3.420196e-01	 1.327003e+00	-6.356376e+01
1	 3.268653e-01	 1.330817e+00	-6.248557e+01
1	 3.117169e-01	 1.334447e+00	-6.132822e+01
1	 2.965773e-01	 1.337893e+00	-6.008789e+01
1	 2.885617e-01	 1.301733e+00	-5.786089e+01
1	 2.738429e-01	 1.304909e+00	-5.645166e+01
1	 2.591387e-01	 1.307909e+00	-5.499590e+01
1	 2.444519e-01	 1.310733e+00	-5.351115e+01
1	 2.297854e-01	 1.313384e+00	-5.201496e+01
1	 2.151419e-01	 1.315862e+00	-5.052481e+01
1	 2.901648e-01	 1.308965e+00	-5.841403e+01
1	 2.753642e-01	 1.312159e+00	-5.701805e+01
1	 2.605783e-01	 1.315175e+00	-5.557610e+01
1	 2.458099e-01	 1.318015e+00	-5.410620e+01
1	 2.310620e-01	 1.320680e+00	-5.262630e+01
1	 2.163372e-01	 1.323172e+00	-5.115434e+01
1	 2.917679e-01	 1.316197e+00	-5.891314e+01
1	 2.768856e-01	 1.319408e+00	-5.753372e+01
1	 2.620180e-01	 1.322441e+00	-5.610939e+01
1	 2.471680e-01	 1.325297e+00	-5.465844e+01
1	 2.323385e-01	 1.327977e+00	-5.319915e+01
1	 2.175324e-01	 1.330482e+00	-5.174975e+01
1	 2.933710e-01	 1.323429e+00	-5.935839e+01
1	 2.784069e-01	 1.326658e+00	-5.799895e+01
1	 2.634577e-01	 1.329707e+00	-5.659607e+01
1	 2.485261e-01	 1.332579e+00	-5.516821e+01
1	 2.336151e-01	 1.335273e+00	-5.373382e+01
1	 2.187276e-01	 1.337793e+00	-5.231128e+01
1	 2.949742e-01	 1.330661e+00	-5.974992e+01
1	 2.799283e-01	 1.333907e+00	-5.841397e+01
1	 2.648973e-01	 1.336973e+00	-5.703644e+01
1	 2.498841e-01	 1.339860e+00	-5.563582e+01
1	 2.348917e-01	 1.342570e+00	-5.423060e+01
1	 2.199229e-01	 1.345103e+00	-5.283918e+01
1	 2.965773e-01	 1.337893e+00	-6.008789e+01
1	 2.814496e-01	 1.341157e+00	-5.877904e+01
1	 2.663370e-01	 1.344239e+00	-5.743081e+01
1	 2.512422e-01	 1.347142e+00	-5.606160e+01
1	 2.361683e-01	 1.349866e+00	-5.468979e+01
1	 2.211181e-01	 1.352413e+00	-5.333370e+01
1	 2.151419e-01	 1.315862e+00	-5.052481e+01
1	 2.005243e-01	 1.318168e+00	-4.905815e+01
1	 1.859351e-01	 1.320305e+00	-4.762702e+01
1	 1.713771e-01	 1.322274e+00	-4.624063e+01
1	 1.568529e-01	 1.324075e+00	-4.490802e+01
1	 1.423649e-01	 1.325711e+00	-4.363802e+01
1	 2.163372e-01	 1.323172e+00	-5.115434e+01
1	 2.016383e-01	 1.325492e+00	-4.970747e+01
1	 1.869681e-01	 1.327640e+00	-4.829663e+01
1	 1.723292e-01	 1.329620e+00	-4.693020e+01
1	 1.577243e-01	 1.331431e+00	-4.561644e+01
1	 1.431558e-01	 1.333076e+00	-4.436336e+01
1	 2.175324e-01	 1.330482e+00	-5.174975e+01
1	 2.027523e-01	 1.332815e+00	-5.032693e+01
1	 1.880011e-01	 1.334975e+00	-4.894044e+01
1	 1.732813e-01	 1.336966e+00	-4.759788e+01
1	 1.585957e-01	 1.338787e+00	-4.630671e+01
1	 1.439467e-01	 1.340441e+00	-4.507419e+01
1	 2.187276e-01	 1.337793e+00	-5.231128e+01
1	 2.038664e-01	 1.340138e+00	-5.091670e+01
1	 1.890341e-01	 1.342310e+00	-4.955858e+01
1	 1.742334e-01	 1.344312e+00	-4.824377e+01
1	 1.594671e-01	 1.346143e+00	-4.697893e+01
1	 1.447376e-01	 1.347806e+00	-4.577058e+01
1	 2.199229e-01	 1.345103e+00	-5.283918e+01
1	 2.049804e-01	 1.347461e+00	-5.147696e+01
1	 1.900670e-01	 1.349645e+00	-5.015119e+01
1	 1.751855e-01	 1.351658e+00	-4.886796e+01
1	 1.603385e-01	 1.353499e+00	-4.763318e+01
1	 1.455286e-01	 1.355171e+00	-4.645264e+01
1	 2.211181e-01	 1.352413e+00	-5.333370e+01
1	 2.060944e-01	 1.354784e+00	-5.200789e+01
1	 1.911000e-01	 1.356980e+00	-5.071840e+01
1	 1.761376e-01	 1.359003e+00	-4.947056e+01
1	 1.612099e-01	 1.360855e+00	-4.826955e+01
1	 1.463195e-01	 1.362536e+00	-4.712044e+01
1	 1.423649e-01	 1.325711e+00	-4.363802e+01
1	 1.279157e-01	 1.327183e+00	-4.244100e+01
1	 1.135076e-01	 1.328493e+00	-4.132897e+01
1	 9.914315e-02	 1.329642e+00	-4.031291e+01
1	 8.482457e-02	 1.330632e+00	-3.940347e+01
1	 7.055415e-02	 1.331465e+00	-3.861098e+01
1	 1.431558e-01	 1.333076e+00	-4.436336e+01
1	 1.286263e-01	 1.334556e+00	-4.318083e+01
1	 1.141382e-01	 1.335874e+00	-4.208066e+01
1	 9.969394e-02	 1.337029e+00	-4.107349e+01
1	 8.529582e-02	 1.338025e+00	-4.016966e+01
1	 7.094612e-02	 1.338862e+00	-3.937921e+01
1	 1.439467e-01	 1.340441e+00	-4.507419e+01
1	 1.293369e-01	 1.341930e+00	-4.390966e+01
1	 1.147688e-01	 1.343254e+00	-4.282467e+01
1	 1.002447e-01	 1.344416e+00	-4.182945e+01
1	 8.576706e-02	 1.345417e+00	-4.093393e+01
1	 7.133808e-02	 1.346259e+00	-4.014776e+01
1	 1.447376e-01	 1.347806e+00	-4.577058e+01
1	 1.300476e-01	 1.349303e+00	-4.462757e+01
1	 1.153994e-01	 1.350635e+00	-4.356109e+01
1	 1.007955e-01	 1.351803e+00	-4.258088e+01
1	 8.623831e-02	 1.352810e+00	-4.169637e+01
1	 7.173005e-02	 1.353656e+00	-4.091671e+01
1	 1.455286e-01	 1.355171e+00	-4.645264e+01
1	 1.307582e-01	 1.356676e+00	-4.533466e+01
1	 1.160300e-01	 1.358015e+00	-4.429004e+01
1	 1.013463e-01	 1.359190e+00	-4.332789e+01
1	 8.670956e-02	 1.360202e+00	-4.245706e+01
1	 7.212202e-02	 1.361053e+00	-4.168613e+01
1	 1.463195e-01	 1.362536e+00	-4.712044e+01
1	 1.314689e-01	 1.364049e+00	-4.603103e+01
1	 1.166606e-01	 1.365396e+00	-4.501159e+01
1	 1.018971e-01	 1.366577e+00	-4.407055e+01
1	 8.718081e-02	 1.367594e+00	-4.321608e+01
1	 7.251399e-02	 1.368450e+00	-4.245609e+01
1	 7.055415e-02	 1.331465e+00	-3.861098e+01
1	 5.633411e-02	 1.332143e+00	-3.794560e+01
1	 4.216660e-02	 1.332666e+00	-3.741720e+01
1	 2.805372e-02	 1.333038e+00	-3.703508e+01
1	 1.399753e-02	 1.333260e+00	-3.680814e+01
1	 0.000000e+00	 1.333333e+00	-3.674486e+01
1	 7.094612e-02	 1.338862e+00	-3.937921e+01
1	 5.664707e-02	 1.339544e+00	-3.871184e+01
1	 4.240085e-02	 1.340070e+00	-3.817690e+01
1	 2.820957e-02	 1.340444e+00	-3.778332e+01
1	 1.407529e-02	 1.340667e+00	-3.753962e+01
1	 0.000000e+00	 1.340741e+00	-3.745391e+01
1	 7.133808e-02	 1.346259e+00	-4.014776e+01
1	 5.696004e-02	 1.346944e+00	-3.948010e+01
1	 4.263511e-02	 1.347474e+00	-3.893975e+01
1	 2.836543e-02	 1.347850e+00	-3.853527e+01
1	 1.415305e-02	 1.348074e+00	-3.827482e+01
1	 0.000000e+00	 1.348148e+00	-3.816614e+01
1	 7.173005e-02	 1.353656e+00	-4.091671e+01
1	 5.727301e-02	 1.354345e+00	-4.025044e+01
1	 4.286937e-02	 1.354878e+00	-3.970583e+01
1	 2.852128e-02	 1.355255e+00	-3.929104e+01
1	 1.423082e-02	 1.355481e+00	-3.901388e+01
1	 0.000000e+00	 1.355556e+00	-3.888174e+01
1	 7.212202e-02	 1.361053e+00	-4.168613e+01
1	 5.758597e-02	 1.361746e+00	-4.102295e+01
1	 4.310363e-02	 1.362281e+00	-4.047521e+01
1	 2.867714e-02	 1.362661e+00	-4.005072e+01
1	 1.430858e-02	 1.362888e+00	-3.975693e+01
1	 0.000000e+00	 1.362963e+00	-3.960086e+01
1	 7.251399e-02	 1.368450e+00	-4.245609e+01
1	 5.789894e-02	 1.369147e+00	-4.179768e+01
1	 4.333789e-02	 1.369685e+00	-4.124797e+01
1	 2.883299e-02	 1.370067e+00	-4.081441e+01
1	 1.438635e-02	 1.370295e+00	-4.050408e+01
1	 0.000000e+00	 1.370370e+00	-4.032368e+01
1	 1.370370e+00	 0.000000e+00	 1.941522e+01
1	 1.370295e+00	 1.438635e-02	 1.903416e+01
1	 1.370067e+00	 2.883299e-02	 1.869549e+01
1	 1.369685e+00	 4.333789e-02	 1.839749e+01
1	 1.369147e+00	 5.789894e-02	 1.813832e+01
1	 1.368450e+00	 7.251399e-02	 1.791612e+01
1	 1.377778e+00	 0.000000e+00	 1.928397e+01
1	 1.377702e+00	 1.446411e-02	 1.889957e+01
1	 1.377473e+00	 2.898884e-02	 1.855637e+01
1	 1.377089e+00	 4.357215e-02	 1.825270e+01
1	 1.376547e+00	 5.821191e-02	 1.798683e+01
1	 1.375847e+00	 7.290595e-02	 1.775695e+01
1	 1.385185e+00	 0.000000e+00	 1.915643e+01
1	 1.385109e+00	 1.454187e-02	 1.876904e+01
1	 1.384879e+00	 2.914470e-02	 1.842151e+01
1	 1.384492e+00	 4.380641e-02	 1.811225e+01
1	 1.383948e+00	 5.852488e-02	 1.783961e+01
1	 1.383245e+00	 7.329792e-02	 1.760189e+01
1	 1.392593e+00	 0.000000e+00	 1.903257e+01
1	 1.392516e+00	 1.461964e-02	 1.864259e+01
1	 1.392284e+00	 2.930055e-02	 1.829095e+01
1	 1.391896e+00	 4.404067e-02	 1.797618e+01
1	 1.391349e+00	 5.883784e-02	 1.769675e+01
1	 1.390642e+00	 7.368989e-02	 1.745105e+01
1	 1.400000e+00	 0.000000e+00	 1.891239e+01
1	 1.399923e+00	 1.469740e-02	 1.852021e+01
1	 1.399690e+00	 2.945641e-02	 1.816472e+01
1	 1.399300e+00	 4.427493e-02	 1.784455e+01
1	 1.398750e+00	 5.915081e-02	 1.755831e+01
1	 1.398039e+00	 7.408186e-02	 1.730452e+01
1	 1.407407e+00	 0.000000e+00	 1.879587e+01
1	 1.407330e+00	 1.477517e-02	 1.840191e+01
1	 1.407096e+00	 2.961226e-02	 1.804283e+01
1	 1.406703e+00	 4.450918e-02	 1.771741e+01
1	 1.406151e+00	 5.946378e-02	 1.742437e+01
1	 1.405436e+00	 7.447382e-02	 1.716239e+01
1	 1.368450e+00	 7.251399e-02	 1.791612e+01
1	 1.367594e+00	 8.718081e-02	 1.773214e+01
1	 1.366577e+00	 1.018971e-01	 1.758762e+01
1	 1.365396e+00	 1.166606e-01	 1.748063e+01
1	 1.364049e+00	 1.314689e-01	 1.740918e+01
1	 1.362536e+00	 1.463195e-01	 1.737127e+01
1	 1.375847e+00	 7.290595e-02	 1.775695e+01
1	 1.374987e+00	 8.765205e-02	 1.756451e+01
1	 1.373964e+00	 1.024479e-01	 1.741099e+01
1	 1.372776e+00	 1.172912e-01	 1.729460e+01
1	 1.371423e+00	 1.321795e-01	 1.721349e+01
1	 1.369902e+00	 1.471104e-01	 1.716580e+01
1	 1.383245e+00	 7.329792e-02	 1.760189e+01
1	 1.382379e+00	 8.812330e-02	 1.740073e+01
1	 1.381351e+00	 1.029987e-01	 1.723784e+01
1	 1.380157e+00	 1.179218e-01	 1.711156e+01
1	 1.378796e+00	 1.328902e-01	 1.702021e+01
1	 1.377267e+00	 1.479013e-01	 1.696206e+01
1	 1.390642e+00	 7.368989e-02	 1.745105e+01
1	 1.389772e+00	 8.859455e-02	 1.724092e+01
1	 1.388737e+00	 1.035495e-01	 1.706829e+01
1	 1.387537e+00	 1.185524e-01	 1.693167e+01
1	 1.386169e+00	 1.336008e-01	 1.682952e+01
1	 1.384632e+00	 1.486922e-01	 1.676026e+01
1	 1.398039e+00	 7.408186e-02	 1.730452e+01
1	 1.397164e+00	 8.906580e-02	 1.708520e+01
1	 1.396124e+00	 1.041003e-01	 1.690251e+01
1	 1.394918e+00	 1.191830e-01	 1.675511e+01
1	 1.393542e+00	 1.343114e-01	 1.664161e+01
1	 1.391997e+00	 1.494831e-01	 1.656061e+01
1	 1.405436e+00	 7.447382e-02	 1.716239e+01
1	 1.404556e+00	 8.953704e-02	 1.693369e+01
1	 1.403511e+00	 1.046511e-01	 1.674063e+01
1	 1.402298e+00	 1.198136e-01	 1.658202e+01
1	 1.400916e+00	 1.350221e-01	 1.645666e+01
1	 1.399362e+00	 1.502741e-01	 1.636331e+01
1	 1.362536e+00	 1.463195e-01	 1.737127e+01
1	 1.360855e+00	 1.612099e-01	 1.736530e+01
1	 1.359003e+00	 1.761376e-01	 1.739005e+01
1	 1.356980e+00	 1.911000e-01	 1.744414e+01
1	 1.354784e+00	 2.060944e-01	 1.752615e+01
1	 1.352413e+00	 2.211181e-01	 1.763464e+01
1	 1.369902e+00	 1.471104e-01	 1.716580e+01
1	 1.368211e+00	 1.620813e-01	 1.714988e+01
1	 1.366349e+00	 1.770897e-01	 1.716447e+01
1	 1.364315e+00	 1.921330e-01	 1.720829e+01
1	 1.362107e+00	 2.072084e-01	 1.728005e+01
1	 1.359724e+00	 2.223133e-01	 1.737840e+01
1	 1.377267e+00	 1.479013e-01	 1.696206e+01
1	 1.375567e+00	 1.629527e-01	 1.693545e+01
1	 1.373695e+00	 1.780418e-01	 1.693910e+01
1	 1.371650e+00	 1.931660e-01	 1.697186e+01
1	 1.369430e+00	 2.083225e-01	 1.703257e+01
1	 1.367034e+00	 2.235086e-01	 1.712003e+01
1	 1.384632e+00	 1.486922e-01	 1.676026e+01
1	 1.382923e+00	 1.638241e-01	 1.672224e+01
1	 1.381041e+00	 1.789939e-01	 1.671418e+01
1	 1.378985e+00	 1.941989e-01	 1.673509e+01
1	 1.376754e+00	 2.094365e-01	 1.678394e+01
1	 1.374344e+00	 2.247038e-01	 1.685969e+01
1	 1.391997e+00	 1.494831e-01	 1.656061e+01
1	 1.390279e+00	 1.646955e-01	 1.651046e+01
1	 1.388387e+00	 1.799460e-01	 1.648993e+01
1	 1.386320e+00	 1.952319e-01	 1.649818e+01
1	 1.384077e+00	 2.105505e-01	 1.653436e+01
1	 1.381655e+00	 2.258990e-01	 1.659758e+01
1	 1.399362e+00	 1.502741e-01	 1.636331e+01
1	 1.397635e+00	 1.655669e-01	 1.630034e+01
1	 1.395733e+00	 1.808981e-01	 1.626658e+01
1	 1.393656e+00	 1.962649e-01	 1.626137e+01
1	 1.391400e+00	 2.116645e-01	 1.628404e+01
1	 1.388965e+00	 2.270943e-01	 1.633388e+01
1	 1.352413e+00	 2.211181e-01	 1.763464e+01
1	 1.349866e+00	 2.361683e-01	 1.777035e+01
1	 1.347142e+00	 2.512422e-01	 1.793274e+01
1	 1.344239e+00	 2.663370e-01	 1.811849e+01
1	 1.341157e+00	 2.814496e-01	 1.832432e+01
1	 1.337893e+00	 2.965773e-01	 1.854703e+01
1	 1.359724e+00	 2.223133e-01	 1.737840e+01
1	 1.357163e+00	 2.374449e-01	 1.750470e+01
1	 1.354424e+00	 2.526003e-01	 1.765894e+01
1	 1.351506e+00	 2.677766e-01	 1.783778e+01
1	 1.348406e+00	 2.829710e-01	 1.803797e+01
1	 1.345125e+00	 2.981804e-01	 1.825631e+01
1	 1.367034e+00	 2.235086e-01	 1.712003e+01
1	 1.364460e+00	 2.387215e-01	 1.723615e+01
1	 1.361706e+00	 2.539583e-01	 1.738145e+01
1	 1.358772e+00	 2.692163e-01	 1.755260e+01
1	 1.355656e+00	 2.844923e-01	 1.774636e+01
1	 1.352356e+00	 2.997835e-01	 1.795954e+01
1	 1.374344e+00	 2.247038e-01	 1.685969e+01
1	 1.371756e+00	 2.399981e-01	 1.696485e+01
1	 1.368988e+00	 2.553164e-01	 1.710042e+01
1	 1.366038e+00	 2.706559e-01	 1.726311e+01
1	 1.362905e+00	 2.860137e-01	 1.744967e+01
1	 1.359588e+00	 3.013866e-01	 1.765692e+01
1	 1.381655e+00	 2.258990e-01	 1.659758e+01
1	 1.379053e+00	 2.412746e-01	 1.669096e+01
1	 1.376270e+00	 2.566745e-01	 1.681601e+01
1	 1.373304e+00	 2.720956e-01	 1.696945e+01
1	 1.370155e+00	 2.875350e-01	 1.714805e+01
1	 1.366820e+00	 3.029898e-01	 1.734865e+01
1	 1.388965e+00	 2.270943e-01	 1.633388e+01
1	 1.386349e+00	 2.425512e-01	 1.641465e+01
1	 1.383552e+00	 2.580325e-01	 1.652836e+01
1	 1.380570e+00	 2.735353e-01	 1.667177e+01
1	 1.377404e+00	 2.890564e-01	 1.684167e+01
1	 1.374052e+00	 3.045929e-01	 1.703491e+01
1	 1.337893e+00	 2.965773e-01	 1.854703e+01
1	 1.334447e+00	 3.117169e-01	 1.877929e+01
1	 1.330817e+00	 3.268653e-01	 1.901587e+01
1	 1.327003e+00	 3.420196e-01	 1.925688e+01
1	 1.323004e+00	 3.571765e-01	 1.950239e+01
1	 1.318819e+00	 3.723329e-01	 1.975247e+01
1	 1.345125e+00	 2.981804e-01	 1.825631e+01
1	 1.341660e+00	 3.134018e-01	 1.848458e+01
1	 1.338011e+00	 3.286322e-01	 1.871684e+01
1	 1.334176e+00	 3.438684e-01	 1.895336e+01
1	 1.330155e+00	 3.591072e-01	 1.919441e+01
1	 1.325948e+00	 3.743455e-01	 1.944022e+01
1	 1.352356e+00	 2.997835e-01	 1.795954e+01
1	 1.348873e+00	 3.150868e-01	 1.818307e+01
1	 1.345204e+00	 3.303990e-01	 1.841031e+01
1	 1.341349e+00	 3.457171e-01	 1.864172e+01
1	 1.337307e+00	 3.610379e-01	 1.887775e+01
1	 1.333076e+00	 3.763581e-01	 1.911883e+01
1	 1.359588e+00	 3.013866e-01	 1.765692e+01
1	 1.356086e+00	 3.167717e-01	 1.787499e+01
1	 1.352398e+00	 3.321659e-01	 1.809652e+01
1	 1.348522e+00	 3.475659e-01	 1.832218e+01
1	 1.344458e+00	 3.629686e-01	 1.855263e+01
1	 1.340205e+00	 3.783707e-01	 1.878848e+01
1	 1.366820e+00	 3.029898e-01	 1.734865e+01
1	 1.363299e+00	 3.184567e-01	 1.756054e+01
1	 1.359591e+00	 3.339327e-01	 1.777568e+01
1	 1.355695e+00	 3.494146e-01	 1.799496e+01
1	 1.351610e+00	 3.648993e-01	 1.821923e+01
1	 1.347334e+00	 3.803834e-01	 1.844932e+01
1	 1.374052e+00	 3.045929e-01	 1.703491e+01
1	 1.370513e+00	 3.201416e-01	 1.723993e+01
1	 1.366785e+00	 3.356995e-01	 1.744802e+01
1	 1.362868e+00	 3.512634e-01	 1.766027e+01
1	 1.358761e+00	 3.668299e-01	 1.787776e+01
1	 1.354463e+00	 3.823960e-01	 1.810153e+01
1	 1.318819e+00	 3.723329e-01	 1.975247e+01
1	 1.314447e+00	 3.874855e-01	 1.996544e+01
1	 1.309887e+00	 4.026312e-01	 2.010134e+01
1	 1.305138e+00	 4.177665e-01	 2.016278e+01
1	 1.300201e+00	 4.328882e-01	 2.015246e+01
1	 1.295074e+00	 4.479929e-01	 2.007317e+01
1	 1.325948e+00	 3.743455e-01	 1.944022e+01
1	 1.321552e+00	 3.895801e-01	 1.964946e+01
1	 1.316967e+00	 4.048076e-01	 1.978235e+01
1	 1.312193e+00	 4.200247e-01	 1.984150e+01
1	 1.307229e+00	 4.352281e-01	 1.982960e+01
1	 1.302075e+00	 4.504145e-01	 1.974944e+01
1	 1.333076e+00	 3.763581e-01	 1.911883e+01
1	 1.328657e+00	 3.916746e-01	 1.932401e+01
1	 1.324048e+00	 4.069839e-01	 1.945375e+01
1	 1.319248e+00	 4.222829e-01	 1.951061e+01
1	 1.314257e+00	 4.375681e-01	 1.949723e+01
1	 1.309075e+00	 4.528361e-01	 1.941638e+01
1	 1.340205e+00	 3.783707e-01	 1.878848e+01
1	 1.335762e+00	 3.937691e-01	 1.898925e+01
1	 1.331128e+00	 4.091603e-01	 1.911566e+01
1	 1.326303e+00	 4.245411e-01	 1.917021e+01
1	 1.321285e+00	 4.399080e-01	 1.915548e+01
1	 1.316075e+00	 4.552576e-01	 1.907417e+01
1	 1.347334e+00	 3.803834e-01	 1.844932e+01
1	 1.342867e+00	 3.958636e-01	 1.864529e+01
1	 1.338209e+00	 4.113367e-01	 1.876819e+01
1	 1.333358e+00	 4.267993e-01	 1.882042e+01
1	 1.328314e+00	 4.422479e-01	 1.880447e+01
1	 1.323076e+00	 4.576792e-01	 1.872295e+01
1	 1.354463e+00	 3.823960e-01	 1.810153e+01
1	 1.349972e+00	 3.979581e-01	 1.829227e+01
1	 1.345289e+00	 4.135131e-01	 1.841146e+01
1	 1.340412e+00	 4.290575e-01	 1.846135e+01
1	 1.335342e+00	 4.445879e-01	 1.844432e+01
1	 1.330076e+00	 4.601008e-01	 1.836288e+01
1	 1.295074e+00	 4.479929e-01	 2.007317e+01
1	 1.289758e+00	 4.630772e-01	 1.991633e+01
1	 1.284250e+00	 4.781378e-01	 1.967172e+01
1	 1.278553e+00	 4.931711e-01	 1.933983e+01
1	 1.272664e+00	 5.081737e-01	 1.892129e+01
1	 1.266585e+00	 5.231421e-01	 1.841679e+01
1	 1.302075e+00	 4.504145e-01	 1.974944e+01
1	 1.296729e+00	 4.655803e-01	 1.959265e+01
1	 1.291192e+00	 4.807223e-01	 1.934907e+01
1	 1.285464e+00	 4.958369e-01	 1.901896e+01
1	 1.279544e+00	 5.109205e-01	 1.860267e+01
1	 1.273431e+00	 5.259699e-01	 1.810069e+01
1	 1.309075e+00	 4.528361e-01	 1.941638e+01
1	 1.303701e+00	 4.680835e-01	 1.925988e+01
1	 1.298134e+00	 4.833068e-01	 1.901762e+01
1	 1.292375e+00	 4.985026e-01	 1.868963e+01
1	 1.286423e+00	 5.136674e-01	 1.827604e+01
1	 1.280278e+00	 5.287977e-01	 1.777708e+01
1	 1.316075e+00	 4.552576e-01	 1.907417e+01
1	 1.310672e+00	 4.705866e-01	 1.891823e+01
1	 1.305076e+00	 4.858914e-01	 1.867760e+01
1	 1.299286e+00	 5.011684e-01	 1.835208e+01
1	 1.293302e+00	 5.164143e-01	 1.794160e+01
1	 1.287124e+00	 5.316255e-01	 1.744617e+01
1	 1.323076e+00	 4.576792e-01	 1.872295e+01
1	 1.317644e+00	 4.730897e-01	 1.856789e+01
1	 1.312018e+00	 4.884759e-01	 1.832921e+01
1	 1.306197e+00	 5.038342e-01	 1.800653e+01
1	 1.300181e+00	 5.191612e-01	 1.759956e+01
1	 1.293971e+00	 5.344533e-01	 1.710812e+01
1	 1.330076e+00	 4.601008e-01	 1.836288e+01
1	 1.324616e+00	 4.755928e-01	 1.820905e+01
1	 1.318960e+00	 4.910604e-01	 1.797267e+01
1	 1.313108e+00	 5.065000e-01	 1.765318e+01
1	 1.307061e+00	 5.219081e-01	 1.725011e+01
1	 1.300817e+00	 5.372811e-01	 1.676311e+01
1	 1.266585e+00	 5.231421e-01	 1.841679e+01
1	 1.260314e+00	 5.380728e-01	 1.781803e+01
1	 1.253853e+00	 5.529623e-01	 1.711697e+01
1	 1.247201e+00	 5.678070e-01	 1.631483e+01
1	 1.240358e+00	 5.826035e-01	 1.541285e+01
1	 1.233325e+00	 5.973481e-01	 1.441232e+01
1	 1.273431e+00	 5.259699e-01	 1.810069e+01
1	 1.267127e+00	 5.409813e-01	 1.750419e+01
1	 1.260631e+00	 5.559513e-01	 1.680497e+01
1	 1.253943e+00	 5.708763e-01	 1.600450e+01
1	 1.247063e+00	 5.857527e-01	 1.510430e+01
1	 1.239991e+00	 6.005770e-01	 1.410592e+01
1	 1.280278e+00	 5.287977e-01	 1.777708e+01
1	 1.273940e+00	 5.438898e-01	 1.718346e+01
1	 1.267408e+00	 5.589403e-01	 1.648676e+01
1	 1.260684e+00	 5.739455e-01	 1.568868e+01
1	 1.253767e+00	 5.889019e-01	 1.479098e+01
1	 1.246658e+00	 6.038059e-01	 1.379548e+01
1	 1.287124e+00	 5.316255e-01	 1.744617e+01
1	 1.280752e+00	 5.467983e-01	 1.685600e+01
1	 1.274186e+00	 5.619293e-01	 1.616247e+01
1	 1.267426e+00	 5.770147e-01	 1.536748e+01
1	 1.260472e+00	 5.920511e-01	 1.447303e+01
1	 1.253325e+00	 6.070348e-01	 1.348112e+01
1	 1.293971e+00	 5.344533e-01	 1.710812e+01
1	 1.287565e+00	 5.497068e-01	 1.652196e+01
1	 1.280963e+00	 5.649182e-01	 1.583223e+01
1	 1.274167e+00	 5.800840e-01	 1.504104e+01
1	 1.267177e+00	 5.952003e-01	 1.415054e+01
1	 1.259991e+00	 6.102637e-01	 1.316297e+01
1	 1.300817e+00	 5.372811e-01	 1.676311e+01
1	 1.294377e+00	 5.526153e-01	 1.618148e+01
1	 1.287741e+00	 5.679072e-01	 1.549617e+01
1	 1.280909e+00	 5.831532e-01	 1.470945e+01
1	 1.273881e+00	 5.983495e-01	 1.382364e+01
1	 1.266658e+00	 6.134926e-01	 1.284116e+01
1	 1.233325e+00	 5.973481e-01	 1.441232e+01
1	 1.226102e+00	 6.120372e-01	 1.331323e+01
1	 1.218689e+00	 6.266674e-01	 1.211415e+01
1	 1.211087e+00	 6.412350e-01	 1.081405e+01
1	 1.203297e+00	 6.557365e-01	 9.411606e+00
1	 1.195320e+00	 6.701682e-01	 7.905129e+00
1	 1.239991e+00	 6.005770e-01	 1.410592e+01
1	 1.232729e+00	 6.153455e-01	 1.300782e+01
1	 1.225277e+00	 6.300548e-01	 1.180652e+01
1	 1.217634e+00	 6.447011e-01	 1.050050e+01
1	 1.209802e+00	 6.592810e-01	 9.087873e+00
1	 1.201781e+00	 6.737908e-01	 7.566413e+00
1	 1.246658e+00	 6.038059e-01	 1.379548e+01
1	 1.239357e+00	 6.186539e-01	 1.269899e+01
1	 1.231864e+00	 6.334422e-01	 1.149598e+01
1	 1.224180e+00	 6.481673e-01	 1.018444e+01
1	 1.216306e+00	 6.628255e-01	 8.762036e+00
1	 1.208242e+00	 6.774133e-01	 7.226041e+00
1	 1.253325e+00	 6.070348e-01	 1.348112e+01
1	 1.245984e+00	 6.219622e-01	 1.238690e+01
1	 1.238452e+00	 6.368296e-01	 1.118271e+01
1	 1.230727e+00	 6.516334e-01	 9.866167e+00
1	 1.222810e+00	 6.663700e-01	 8.434489e+00
1	 1.214703e+00	 6.810358e-01	 6.884536e+00
1	 1.259991e+00	 6.102637e-01	 1.316297e+01
1	 1.252612e+00	 6.252705e-01	 1.207170e+01
1	 1.245039e+00	 6.402170e-01	 1.086694e+01
1	 1.237273e+00	 6.550995e-01	 9.545956e+00
1	 1.229315e+00	 6.699146e-01	 8.105615e+00
1	 1.221165e+00	 6.846583e-01	 6.542409e+00
1	 1.266658e+00	 6.134926e-01	 1.284116e+01
1	 1.259240e+00	 6.285788e-01	 1.175353e+01
1	 1.251627e+00	 6.436044e-01	 1.054886e+01
1	 1.243819e+00	 6.585657e-01	 9.224086e+00
1	 1.235819e+00	 6.734591e-01	 7.775792e+00
1	 1.227626e+00	 6.882809e-01	 6.200158e+00
1	 1.195320e+00	 6.701682e-01	 7.905129e+00
1	 1.187155e+00	 6.845267e-01	 6.305356e+00
1	 1.178805e+00	 6.988084e-01	 4.624446e+00
1	 1.170270e+00	 7.130097e-01	 2.862801e+00
1	 1.161551e+00	 7.271271e-01	 1.021077e+00
1	 1.152650e+00	 7.411572e-01	-8.998106e-01
1	 1.201781e+00	 6.737908e-01	 7.566413e+00
1	 1.193573e+00	 6.882269e-01	 5.949415e+00
1	 1.185177e+00	 7.025857e-01	 4.252601e+00
1	 1.176596e+00	 7.168638e-01	 2.477369e+00
1	 1.167830e+00	 7.310576e-01	 6.254361e-01
1	 1.158880e+00	 7.451634e-01	-1.301154e+00
1	 1.208242e+00	 6.774133e-01	 7.226041e+00
1	 1.199990e+00	 6.919270e-01	 5.592698e+00
1	 1.191549e+00	 7.063631e-01	 3.881593e+00
1	 1.182922e+00	 7.207179e-01	 2.095058e+00
1	 1.174108e+00	 7.349880e-01	 2.358077e-01
1	 1.165111e+00	 7.491697e-01	-1.693057e+00
1	 1.214703e+00	 6.810358e-01	 6.884536e+00
1	 1.206407e+00	 6.956271e-01	 5.235848e+00
1	 1.197921e+00	 7.101404e-01	 3.512154e+00
1	 1.189247e+00	 7.245720e-01	 1.716655e+00
1	 1.180387e+00	 7.389184e-01	-1.470018e-01
1	 1.171341e+00	 7.531760e-01	-2.074724e+00
1	 1.221165e+00	 6.846583e-01	 6.542409e+00
1	 1.212824e+00	 6.993273e-01	 4.879499e+00
1	 1.204293e+00	 7.139178e-01	 3.145001e+00
1	 1.195573e+00	 7.284261e-01	 1.342928e+00
1	 1.186666e+00	 7.428488e-01	-5.222033e-01
1	 1.177572e+00	 7.571822e-01	-2.445378e+00
1	 1.227626e+00	 6.882809e-01	 6.200158e+00
1	 1.219241e+00	 7.030274e-01	 4.524266e+00
1	 1.210665e+00	 7.176951e-01	 2.780835e+00
1	 1.201899e+00	 7.322802e-01	 9.746311e-01
1	 1.192944e+00	 7.467792e-01	-8.890244e-01
1	 1.183802e+00	 7.611885e-01	-2.804258e+00
1	 1.152650e+00	 7.411572e-01	-8.998106e-01
1	 1.143567e+00	 7.550963e-01	-2.806549e+00
1	 1.134304e+00	 7.689412e-01	-4.605102e+00
1	 1.124862e+00	 7.826882e-01	-6.293240e+00
1	 1.115243e+00	 7.963340e-01	-7.868683e+00
1	 1.105449e+00	 8.098752e-01	-9.329105e+00
1	 1.158880e+00	 7.451634e-01	-1.301154e+00
1	 1.149748e+00	 7.591779e-01	-3.209019e+00
1	 1.140435e+00	 7.730976e-01	-5.005745e+00
1	 1.130942e+00	 7.869189e-01	-6.690506e+00
1	 1.121271e+00	 8.006385e-01	-8.262489e+00
1	 1.111424e+00	 8.142529e-01	-9.720888e+00
1	 1.165111e+00	 7.491697e-01	-1.693057e+00
1	 1.155929e+00	 7.632595e-01	-3.598659e+00
1	 1.146566e+00	 7.772540e-01	-5.390704e+00
1	 1.137023e+00	 7.911497e-01	-7.069728e+00
1	 1.127300e+00	 8.049430e-01	-8.636341e+00
1	 1.117400e+00	 8.186306e-01	-1.009122e+01
1	 1.171341e+00	 7.531760e-01	-2.074724e+00
1	 1.162111e+00	 7.673412e-01	-3.974724e+00
1	 1.152698e+00	 7.814105e-01	-5.759329e+00
1	 1.143103e+00	 7.953804e-01	-7.430391e+00
1	 1.133328e+00	 8.092475e-01	-8.989905e+00
1	 1.123375e+00	 8.230083e-01	-1.044001e+01
1	 1.177572e+00	 7.571822e-01	-2.445378e+00
1	 1.168292e+00	 7.714228e-01	-4.336485e+00
1	 1.158829e+00	 7.855669e-01	-6.110980e+00
1	 1.149183e+00	 7.996112e-01	-7.771989e+00
1	 1.139356e+00	 8.135520e-01	-9.322855e+00
1	 1.129350e+00	 8.273860e-01	-1.076713e+01
1	 1.183802e+00	 7.611885e-01	-2.804258e+00
1	 1.174474e+00	 7.755044e-01	-4.683228e+00
1	 1.164960e+00	 7.897233e-01	-6.445033e+00
1	 1.155264e+00	 8.038419e-01	-8.094029e+00
1	 1.145385e+00	 8.178565e-01	-9.634868e+00
1	 1.135326e+00	 8.317637e-01	-1.107249e+01
1	 1.105449e+00	 8.098752e-01	-9.329105e+00
1	 1.095481e+00	 8.233085e-01	-1.066613e+01
1	 1.085341e+00	 8.366305e-01	-1.187324e+01
1	 1.075030e+00	 8.498380e-01	-1.295092e+01
1	 1.064552e+00	 8.629278e-01	-1.389972e+01
1	 1.053907e+00	 8.758965e-01	-1.472025e+01
1	 1.111424e+00	 8.142529e-01	-9.720888e+00
1	 1.101402e+00	 8.277588e-01	-1.105873e+01
1	 1.091207e+00	 8.411528e-01	-1.226923e+01
1	 1.080841e+00	 8.544317e-01	-1.335194e+01
1	 1.070306e+00	 8.675922e-01	-1.430647e+01
1	 1.059604e+00	 8.806311e-01	-1.513251e+01
1	 1.117400e+00	 8.186306e-01	-1.009122e+01
1	 1.107324e+00	 8.322091e-01	-1.142859e+01
1	 1.097074e+00	 8.456752e-01	-1.264129e+01
1	 1.086652e+00	 8.590255e-01	-1.372803e+01
1	 1.076061e+00	 8.722567e-01	-1.468763e+01
1	 1.065301e+00	 8.853657e-01	-1.551893e+01
1	 1.123375e+00	 8.230083e-01	-1.044001e+01
1	 1.113245e+00	 8.366594e-01	-1.177583e+01
1	 1.102941e+00	 8.501975e-01	-1.298967e+01
1	 1.092463e+00	 8.636192e-01	-1.407954e+01
1	 1.081815e+00	 8.769212e-01	-1.504354e+01
1	 1.070998e+00	 8.901003e-01	-1.587981e+01
1	 1.129350e+00	 8.273860e-01	-1.076713e+01
1	 1.119167e+00	 8.411097e-01	-1.210055e+01
1	 1.108807e+00	 8.547198e-01	-1.331463e+01
1	 1.098274e+00	 8.682129e-01	-1.440682e+01
1	 1.087569e+00	 8.815856e-01	-1.537458e+01
1	 1.076694e+00	 8.948348e-01	-1.621545e+01
1	 1.135326e+00	 8.317637e-01	-1.107249e+01
1	 1.125088e+00	 8.455601e-01	-1.240285e+01
1	 1.114674e+00	 8.592421e-01	-1.361643e+01
1	 1.104085e+00	 8.728066e-01	-1.471019e+01
1	 1.093324e+00	 8.862501e-01	-1.568110e+01
1	 1.082391e+00	 8.995694e-01	-1.652617e+01
1	 1.053907e+00	 8.758965e-01	-1.472025e+01
1	 1.043098e+00	 8.887412e-01	-1.544273e+01
1	 1.032127e+00	 9.014587e-01	-1.609580e+01
1	 1.020997e+00	 9.140460e-01	-1.667762e+01
1	 1.009709e+00	 9.265000e-01	-1.718615e+01
1	 9.982665e-01	 9.388179e-01	-1.761920e+01
1	 1.059604e+00	 8.806311e-01	-1.513251e+01
1	 1.048737e+00	 8.935452e-01	-1.585867e+01
1	 1.037707e+00	 9.063315e-01	-1.651307e+01
1	 1.026516e+00	 9.189868e-01	-1.709459e+01
1	 1.015167e+00	 9.315081e-01	-1.760195e+01
1	 1.003662e+00	 9.438926e-01	-1.803367e+01
1	 1.065301e+00	 8.853657e-01	-1.551893e+01
1	 1.054375e+00	 8.983492e-01	-1.624897e+01
1	 1.043286e+00	 9.112042e-01	-1.690520e+01
1	 1.032035e+00	 9.239276e-01	-1.748700e+01
1	 1.020625e+00	 9.365162e-01	-1.799361e+01
1	 1.009059e+00	 9.489673e-01	-1.842408e+01
1	 1.070998e+00	 8.901003e-01	-1.587981e+01
1	 1.060013e+00	 9.031532e-01	-1.661385e+01
1	 1.048865e+00	 9.160770e-01	-1.727229e+01
1	 1.037554e+00	 9.288683e-01	-1.785482e+01
1	 1.026083e+00	 9.415243e-01	-1.836097e+01
1	 1.014455e+00	 9.540420e-01	-1.879013e+01
1	 1.076694e+00	 8.948348e-01	-1.621545e+01
1	 1.065652e+00	 9.079573e-01	-1.695352e+01
1	 1.054444e+00	 9.209497e-01	-1.761444e+01
1	 1.043073e+00	 9.338091e-01	-1.819801e+01
1	 1.031541e+00	 9.465325e-01	-1.870388e+01
1	 1.019851e+00	 9.591167e-01	-1.913153e+01
1	 1.082391e+00	 8.995694e-01	-1.652617e+01
1	 1.071290e+00	 9.127613e-01	-1.726817e+01
1	 1.060023e+00	 9.258225e-01	-1.793173e+01
1	 1.048592e+00	 9.387499e-01	-1.851656e+01
1	 1.036999e+00	 9.515406e-01	-1.902218e+01
1	 1.025247e+00	 9.641914e-01	-1.944798e+01
1	 9.982665e-01	 9.388179e-01	-1.761920e+01
1	 9.866712e-01	 9.509967e-01	-1.802425e+01
1	 9.749261e-01	 9.630337e-01	-1.844985e+01
1	 9.630337e-01	 9.749261e-01	-1.889527e+01
1	 9.509967e-01	 9.866712e-01	-1.935988e+01
1	 9.388179e-01	 9.982665e-01	-1.984308e+01
1	 1.003662e+00	 9.438926e-01	-1.803367e+01
1	 9.920046e-01	 9.561373e-01	-1.843886e+01
1	 9.801960e-01	 9.682393e-01	-1.886656e+01
1	 9.682393e-01	 9.801960e-01	-1.931509e+01
1	 9.561373e-01	 9.920046e-01	-1.978277e+01
1	 9.438926e-01	 1.003662e+00	-2.026797e+01
1	 1.009059e+00	 9.489673e-01	-1.842408e+01
1	 9.973380e-01	 9.612778e-01	-1.882884e+01
1	 9.854659e-01	 9.734449e-01	-1.925748e+01
1	 9.734449e-01	 9.854659e-01	-1.970768e+01
1	 9.612778e-01	 9.973380e-01	-2.017708e+01
1	 9.489673e-01	 1.009059e+00	-2.066336e+01
1	 1.014455e+00	 9.540420e-01	-1.879013e+01
1	 1.002671e+00	 9.664183e-01	-1.919380e+01
1	 9.907357e-01	 9.786505e-01	-1.962225e+01
1	 9.786505e-01	 9.907357e-01	-2.007281e+01
1	 9.664183e-01	 1.002671e+00	-2.054280e+01
1	 9.540420e-01	 1.014455e+00	-2.102952e+01
1	 1.019851e+00	 9.591167e-01	-1.913153e+01
1	 1.008005e+00	 9.715588e-01	-1.953337e+01
1	 9.960056e-01	 9.838561e-01	-1.996049e+01
1	 9.838561e-01	 9.960056e-01	-2.041023e+01
1	 9.715588e-01	 1.008005e+00	-2.087989e+01
1	 9.591167e-01	 1.019851e+00	-2.136675e+01
1	 1.025247e+00	 9.641914e-01	-1.944798e+01
1	 1.013338e+00	 9.766994e-01	-1.984716e+01
1	 1.001275e+00	 9.890617e-01	-2.027186e+01
1	 9.890617e-01	 1.001275e+00	-2.071972e+01
1	 9.766994e-01	 1.013338e+00	-2.118834e+01
1	 9.641914e-01	 1.025247e+00	-2.167532e+01
1	 9.388179e-01	 9.982665e-01	-1.984308e+01
1	 9.265000e-01	 1.009709e+00	-2.038393e+01
1	 9.140460e-01	 1.020997e+00	-2.102510e+01
1	 9.014587e-01	 1.032127e+00	-2.177165e+01
1	 8.887412e-01	 1.043098e+00	-2.262895e+01
1	 8.758965e-01	 1.053907e+00	-2.360262e+01
1	 9.438926e-01	 1.003662e+00	-2.026797e+01
1	 9.315081e-01	 1.015167e+00	-2.081088e+01
1	 9.189868e-01	 1.026516e+00	-2.145722e+01
1	 9.063315e-01	 1.037707e+00	-2.221399e+01
1	 8.935452e-01	 1.048737e+00	-2.308853e+01
1	 8.806311e-01	 1.059604e+00	-2.408854e+01
1	 9.489673e-01	 1.009059e+00	-2.066336e+01
1	 9.365162e-01	 1.020625e+00	-2.120846e+01
1	 9.239276e-01	 1.032035e+00	-2.186122e+01
1	 9.112042e-01	 1.043286e+00	-2.262988e+01
1	 8.983492e-01	 1.054375e+00	-2.352311e+01
1	 8.853657e-01	 1.065301e+00	-2.454999e+01
1	 9.540420e-01	 1.014455e+00	-2.102952e+01
1	 9.415243e-01	 1.026083e+00	-2.157722e+01
1	 9.288683e-01	 1.037554e+00	-2.223761e+01
1	 9.160770e-01	 1.048865e+00	-2.301960e+01
1	 9.031532e-01	 1.060013e+00	-2.393252e+01
1	 8.901003e-01	 1.070998e+00	-2.498613e+01
1	 9.591167e-01	 1.019851e+00	-2.136675e+01
1	 9.465325e-01	 1.031541e+00	-2.191764e+01
1	 9.338091e-01	 1.043073e+00	-2.258689e+01
1	 9.209497e-01	 1.054444e+00	-2.338342e+01
1	 9.079573e-01	 1.065652e+00	-2.431658e+01
1	 8.948348e-01	 1.076694e+00	-2.539615e+01
1	 9.641914e-01	 1.025247e+00	-2.167532e+01
1	 9.515406e-01	 1.036999e+00	-2.223022e+01
1	 9.387499e-01	 1.048592e+00	-2.290956e+01
1	 9.258225e-01	 1.060023e+00	-2.372161e+01
1	 9.127613e-01	 1.071290e+00	-2.467513e+01
1	 8.995694e-01	 1.082391e+00	-2.577925e+01
1	 8.758965e-01	 1.053907e+00	-2.360262e+01
1	 8.629278e-01	 1.064552e+00	-2.473064e+01
1	 8.498380e-01	 1.075030e+00	-2.604333e+01
1	 8.366305e-01	 1.085341e+00	-2.753488e+01
1	 8.233085e-01	 1.095481e+00	-2.919939e+01
1	 8.098752e-01	 1.105449e+00	-3.103083e+01
1	 8.806311e-01	 1.059604e+00	-2.408854e+01
1	 8.675922e-01	 1.070306e+00	-2.525102e+01
1	 8.544317e-01	 1.080841e+00	-2.660134e+01
1	 8.411528e-01	 1.091207e+00	-2.812978e+01
1	 8.277588e-01	 1.101402e+00	-2.982636e+01
1	 8.142529e-01	 1.111424e+00	-3.168085e+01
1	 8.853657e-01	 1.065301e+00	-2.454999e+01
1	 8.722567e-01	 1.076061e+00	-2.574515e+01
1	 8.590255e-01	 1.086652e+00	-2.712867e+01
1	 8.456752e-01	 1.097074e+00	-2.868774e+01
1	 8.322091e-01	 1.107324e+00	-3.040919e+01
1	 8.186306e-01	 1.117400e+00	-3.227949e+01
1	 8.901003e-01	 1.070998e+00	-2.498613e+01
1	 8.769212e-01	 1.081815e+00	-2.621161e+01
1	 8.636192e-01	 1.092463e+00	-2.762362e+01
1	 8.501975e-01	 1.102941e+00	-2.920709e+01
1	 8.366594e-01	 1.113245e+00	-3.094653e+01
1	 8.230083e-01	 1.123375e+00	-3.282601e+01
1	 8.948348e-01	 1.076694e+00	-2.539615e+01
1	 8.815856e-01	 1.087569e+00	-2.664900e+01
1	 8.682129e-01	 1.098274e+00	-2.808452e+01
1	 8.547198e-01	 1.108807e+00	-2.968621e+01
1	 8.411097e-01	 1.119167e+00	-3.143709e+01
1	 8.273860e-01	 1.129350e+00	-3.331971e+01
1	 8.995694e-01	 1.082391e+00	-2.577925e+01
1	 8.862501e-01	 1.093324e+00	-2.705595e+01
1	 8.728066e-01	 1.104085e+00	-2.850974e+01
1	 8.592421e-01	 1.114674e+00	-3.012350e+01
1	 8.455601e-01	 1.125088e+00	-3.187958e+01
1	 8.317637e-01	 1.135326e+00	-3.375990e+01
1	 8.098752e-01	 1.105449e+00	-3.103083e+01
1	 7.963340e-01	 1.115243e+00	-3.299601e+01
1	 7.826882e-01	 1.124862e+00	-3.505961e+01
1	 7.689412e-01	 1.134304e+00	-3.721211e+01
1	 7.550963e-01	 1.143567e+00	-3.944384e+01
1	 7.411572e-01	 1.152650e+00	-4.174494e+01
1	 8.142529e-01	 1.111424e+00	-3.168085e+01
1	 8.006385e-01	 1.121271e+00	-3.365665e+01
1	 7.869189e-01	 1.130942e+00	-3.571929e+01
1	 7.730976e-01	 1.140435e+00	-3.786152e+01
1	 7.591779e-01	 1.149748e+00	-4.007596e+01
1	 7.451634e-01	 1.158880e+00	-4.235517e+01
1	 8.186306e-01	 1.117400e+00	-3.227949e+01
1	 8.049430e-01	 1.127300e+00	-3.426020e+01
1	 7.911497e-01	 1.137023e+00	-3.631842e+01
1	 7.772540e-01	 1.146566e+00	-3.844865e+01
1	 7.632595e-01	 1.155929e+00	-4.064539e+01
1	 7.491697e-01	 1.165111e+00	-4.290305e+01
1	 8.230083e-01	 1.123375e+00	-3.282601e+01
1	 8.092475e-01	 1.133328e+00	-3.480659e+01
1	 7.953804e-01	 1.143103e+00	-3.685734e+01
1	 7.814105e-01	 1.152698e+00	-3.897412e+01
1	 7.673412e-01	 1.162111e+00	-4.115277e+01
1	 7.531760e-01	 1.171341e+00	-4.338912e+01
1	 8.273860e-01	 1.129350e+00	-3.331971e+01
1	 8.135520e-01	 1.139356e+00	-3.529573e+01
1	 7.996112e-01	 1.149183e+00	-3.733642e+01
1	 7.855669e-01	 1.158829e+00	-3.943852e+01
1	 7.714228e-01	 1.168292e+00	-4.159877e+01
1	 7.571822e-01	 1.177572e+00	-4.381391e+01
1	 8.317637e-01	 1.135326e+00	-3.375990e+01
1	 8.178565e-01	 1.145385e+00	-3.572754e+01
1	 8.038419e-01	 1.155264e+00	-3.775600e+01
1	 7.897233e-01	 1.164960e+00	-3.984242e+01
1	 7.755044e-01	 1.174474e+00	-4.198401e+01
1	 7.611885e-01	 1.183802e+00	-4.417795e+01
1	 7.411572e-01	 1.152650e+00	-4.174494e+01
1	 7.271271e-01	 1.161551e+00	-4.403311e+01
1	 7.130097e-01	 1.170270e+00	-4.624033e+01
1	 6.988084e-01	 1.178805e+00	-4.837829e+01
1	 6.845267e-01	 1.187155e+00	-5.045895e+01
1	 6.701682e-01	 1.195320e+00	-5.249456e+01
1	 7.451634e-01	 1.158880e+00	-4.235517e+01
1	 7.310576e-01	 1.167830e+00	-4.462085e+01
1	 7.168638e-01	 1.176596e+00	-4.680732e+01
1	 7.025857e-01	 1.185177e+00	-4.892620e+01
1	 6.882269e-01	 1.193573e+00	-5.098940e+01
1	 6.737908e-01	 1.201781e+00	-5.300907e+01
1	 7.491697e-01	 1.165111e+00	-4.290305e+01
1	 7.349880e-01	 1.174108e+00	-4.514664e+01
1	 7.207179e-01	 1.182922e+00	-4.731242e+01
1	 7.063631e-01	 1.191549e+00	-4.941200e+01
1	 6.919270e-01	 1.199990e+00	-5.145722e+01
1	 6.774133e-01	 1.208242e+00	-5.346020e+01
1	 7.531760e-01	 1.171341e+00	-4.338912e+01
1	 7.389184e-01	 1.180387e+00	-4.561083e+01
1	 7.245720e-01	 1.189247e+00	-4.775588e+01
1	 7.101404e-01	 1.197921e+00	-4.983584e+01
1	 6.956271e-01	 1.206407e+00	-5.186255e+01
1	 6.810358e-01	 1.214703e+00	-5.384811e+01
1	 7.571822e-01	 1.177572e+00	-4.381391e+01
1	 7.428488e-01	 1.186666e+00	-4.601379e+01
1	 7.284261e-01	 1.195573e+00	-4.813792e+01
1	 7.139178e-01	 1.204293e+00	-5.019787e+01
1	 6.993273e-01	 1.212824e+00	-5.220550e+01
1	 6.846583e-01	 1.221165e+00	-5.417293e+01
1	 7.611885e-01	 1.183802e+00	-4.417795e+01
1	 7.467792e-01	 1.192944e+00	-4.635586e+01
1	 7.322802e-01	 1.201899e+00	-4.845875e+01
1	 7.176951e-01	 1.210665e+00	-5.049823e+01
1	 7.030274e-01	 1.219241e+00	-5.248619e+01
1	 6.882809e-01	 1.227626e+00	-5.443481e+01
1	 6.701682e-01	 1.195320e+00	-5.249456e+01
1	 6.557365e-01	 1.203297e+00	-5.446383e+01
1	 6.412350e-01	 1.211087e+00	-5.633088e+01
1	 6.266674e-01	 1.218689e+00	-5.808596e+01
1	 6.120372e-01	 1.226102e+00	-5.971904e+01
1	 5.973481e-01	 1.233325e+00	-6.121986e+01
1	 6.737908e-01	 1.201781e+00	-5.300907e+01
1	 6.592810e-01	 1.209802e+00	-5.496072e+01
1	 6.447011e-01	 1.217634e+00	-5.680598e+01
1	 6.300548e-01	 1.225277e+00	-5.853611e+01
1	 6.153455e-01	 1.232729e+00	-6.014212e+01
1	 6.005770e-01	 1.239991e+00	-6.161479e+01
1	 6.774133e-01	 1.208242e+00	-5.346020e+01
1	 6.628255e-01	 1.216306e+00	-5.539347e+01
1	 6.481673e-01	 1.224180e+00	-5.721633e+01
1	 6.334422e-01	 1.231864e+00	-5.892103e+01
1	 6.186539e-01	 1.239357e+00	-6.049959e+01
1	 6.038059e-01	 1.246658e+00	-6.194384e+01
1	 6.810358e-01	 1.214703e+00	-5.384811e+01
1	 6.663700e-01	 1.222810e+00	-5.576224e+01
1	 6.516334e-01	 1.230727e+00	-5.756206e+01
1	 6.368296e-01	 1.238452e+00	-5.924080e+01
1	 6.219622e-01	 1.245984e+00	-6.079147e+01
1	 6.070348e-01	 1.253325e+00	-6.220691e+01
1	 6.846583e-01	 1.221165e+00	-5.417293e+01
1	 6.699146e-01	 1.229315e+00	-5.606720e+01
1	 6.550995e-01	 1.237273e+00	-5.784334e+01
1	 6.402170e-01	 1.245039e+00	-5.949553e+01
1	 6.252705e-01	 1.252612e+00	-6.101778e+01
1	 6.102637e-01	 1.259991e+00	-6.240389e+01
1	 6.882809e-01	 1.227626e+00	-5.443481e+01
1	 6.734591e-01	 1.235819e+00	-5.630851e+01
1	 6.585657e-01	 1.243819e+00	-5.806031e+01
1	 6.436044e-01	 1.251627e+00	-5.968533e+01
1	 6.285788e-01	 1.259240e+00	-6.117853e+01
1	 6.134926e-01	 1.266658e+00	-6.253469e+01
1	 5.973481e-01	 1.233325e+00	-6.121986e+01
1	 5.826035e-01	 1.240358e+00	-6.257541e+01
1	 5.678070e-01	 1.247201e+00	-6.377919e+01
1	 5.529623e-01	 1.253853e+00	-6.483058e+01
1	 5.380728e-01	 1.260314e+00	-6.572900e+01
1	 5.231421e-01	 1.266585e+00	-6.647391e+01
1	 6.005770e-01	 1.239991e+00	-6.161479e+01
1	 5.857527e-01	 1.247063e+00	-6.294309e+01
1	 5.708763e-01	 1.253943e+00	-6.412146e+01
1	 5.559513e-01	 1.260631e+00	-6.514872e+01
1	 5.409813e-01	 1.267127e+00	-6.602371e+01
1	 5.259699e-01	 1.273431e+00	-6.674531e+01
1	 6.038059e-01	 1.246658e+00	-6.194384e+01
1	 5.889019e-01	 1.253767e+00	-6.324446e+01
1	 5.739455e-01	 1.260684e+00	-6.439658e+01
1	 5.589403e-01	 1.267408e+00	-6.539860e+01
1	 5.438898e-01	 1.273940e+00	-6.624890e+01
1	 5.287977e-01	 1.280278e+00	-6.694586e+01
1	 6.070348e-01	 1.253325e+00	-6.220691e+01
1	 5.920511e-01	 1.260472e+00	-6.347927e+01
1	 5.770147e-01	 1.267426e+00	-6.460427e+01
1	 5.619293e-01	 1.274186e+00	-6.557995e+01
1	 5.467983e-01	 1.280752e+00	-6.640433e+01
1	 5.316255e-01	 1.287124e+00	-6.707542e+01
1	 6.102637e-01	 1.259991e+00	-6.240389e+01
1	 5.952003e-01	 1.267177e+00	-6.364732e+01
1	 5.800840e-01	 1.274167e+00	-6.474425e+01
1	 5.649182e-01	 1.280963e+00	-6.569248e+01
1	 5.497068e-01	 1.287565e+00	-6.648978e+01
1	 5.344533e-01	 1.293971e+00	-6.713389e+01
1	 6.134926e-01	 1.266658e+00	-6.253469e+01
1	 5.983495e-01	 1.273881e+00	-6.374840e+01
1	 5.831532e-01	 1.280909e+00	-6.481626e+01
1	 5.679072e-01	 1.287741e+00	-6.573594e+01
1	 5.526153e-01	 1.294377e+00	-6.650504e+01
1	 5.372811e-01	 1.300817e+00	-6.712113e+01
1	 5.231421e-01	 1.266585e+00	-6.647391e+01
1	 5.081737e-01	 1.272664e+00	-6.706068e+01
1	 4.931711e-01	 1.278553e+00	-6.748786e+01
1	 4.781378e-01	 1.284250e+00	-6.775982e+01
1	 4.630772e-01	 1.289758e+00	-6.788096e+01
1	 4.479929e-01	 1.295074e+00	-6.785576e+01
1	 5.259699e-01	 1.273431e+00	-6.674531e+01
1	 5.109205e-01	 1.279544e+00	-6.730884e+01
1	 4.958369e-01	 1.285464e+00	-6.771386e+01
1	 4.807223e-01	 1.291192e+00	-6.796560e+01
1	 4.655803e-01	 1.296729e+00	-6.806943e+01
1	 4.504145e-01	 1.302075e+00	-6.803073e+01
1	 5.287977e-01	 1.280278e+00	-6.694586e+01
1	 5.136674e-01	 1.286423e+00	-6.748510e+01
1	 4.985026e-01	 1.292375e+00	-6.786734e+01
1	 4.833068e-01	 1.298134e+00	-6.809863e+01
1	 4.680835e-01	 1.303701e+00	-6.818514e+01
1	 4.528361e-01	 1.309075e+00	-6.813311e+01
1	 5.316255e-01	 1.287124e+00	-6.707542e+01
1	 5.164143e-01	 1.293302e+00	-6.758942e+01
1	 5.011684e-01	 1.299286e+00	-6.794834e+01
1	 4.858914e-01	 1.305076e+00	-6.815893e+01
1	 4.705866e-01	 1.310672e+00	-6.822809e+01
1	 4.552576e-01	 1.316075e+00	-6.816279e+01
1	 5.344533e-01	 1.293971e+00	-6.713389e+01
1	 5.191612e-01	 1.300181e+00	-6.762179e+01
1	 5.038342e-01	 1.306197e+00	-6.795688e+01
1	 4.884759e-01	 1.312018e+00	-6.814654e+01
1	 4.730897e-01	 1.317644e+00	-6.819828e+01
1	 4.576792e-01	 1.323076e+00	-6.811968e+01
1	 5.372811e-01	 1.300817e+00	-6.712113e+01
1	 5.219081e-01	 1.307061e+00	-6.758219e+01
1	 5.065000e-01	 1.313108e+00	-6.789300e+01
1	 4.910604e-01	 1.318960e+00	-6.806149e+01
1	 4.755928e-01	 1.324616e+00	-6.809568e+01
1	 4.601008e-01	 1.330076e+00	-6.800370e+01
1	 4.479929e-01	 1.295074e+00	-6.785576e+01
1	 4.328882e-01	 1.300201e+00	-6.769235e+01
1	 4.177665e-01	 1.305138e+00	-6.738742e+01
1	 4.026312e-01	 1.309887e+00	-6.692842e+01
1	 3.874855e-01	 1.314447e+00	-6.630292e+01
1	 3.723329e-01	 1.318819e+00	-6.549863e+01
1	 4.504145e-01	 1.302075e+00	-6.803073e+01
1	 4.352281e-01	 1.307229e+00	-6.785752e+01
1	 4.200247e-01	 1.312193e+00	-6.754617e+01
1	 4.048076e-01	 1.316967e+00	-6.708481e+01
1	 3.895801e-01	 1.321552e+00	-6.646164e+01
1	 3.743455e-01	 1.325948e+00	-6.566499e+01
1	 4.528361e-01	 1.309075e+00	-6.813311e+01
1	 4.375681e-01	 1.314257e+00	-6.795021e+01
1	 4.222829e-01	 1.319248e+00	-6.763253e+01
1	 4.069839e-01	 1.324048e+00	-6.716900e+01
1	 3.916746e-01	 1.328657e+00	-6.654863e+01
1	 3.763581e-01	 1.333076e+00	-6.576054e+01
1	 4.552576e-01	 1.316075e+00	-6.816279e+01
1	 4.399080e-01	 1.321285e+00	-6.797025e+01
1	 4.245411e-01	 1.326303e+00	-6.764629e+01
1	 4.091603e-01	 1.331128e+00	-6.718081e+01
1	 3.937691e-01	 1.335762e+00	-6.656379e+01
1	 3.783707e-01	 1.340205e+00	-6.578528e+01
1	 4.576792e-01	 1.323076e+00	-6.811968e+01
1	 4.422479e-01	 1.328314e+00	-6.791747e+01
1	 4.267993e-01	 1.333358e+00	-6.758726e+01
1	 4.113367e-01	 1.338209e+00	-6.712007e+01
1	 3.958636e-01	 1.342867e+00	-6.650700e+01
1	 3.803834e-01	 1.347334e+00	-6.573921e+01
1	 4.601008e-01	 1.330076e+00	-6.800370e+01
1	 4.445879e-01	 1.335342e+00	-6.779170e+01
1	 4.290575e-01	 1.340412e+00	-6.745524e+01
1	 4.135131e-01	 1.345289e+00	-6.698661e+01
1	 3.979581e-01	 1.349972e+00	-6.637816e+01
1	 3.823960e-01	 1.354463e+00	-6.562233e+01
1	 3.723329e-01	 1.318819e+00	-6.549863e+01
1	 3.571765e-01	 1.323004e+00	-6.456674e+01
1	 3.420196e-01	 1.327003e+00	-6.356376e+01
1	 3.268653e-01	 1.330817e+00	-6.248557e+01
1	 3.117169e-01	 1.334447e+00	-6.132822e+01
1	 2.965773e-01	 1.337893e+00	-6.008789e+01
1	 3.743455e-01	 1.325948e+00	-6.566499e+01
1	 3.591072e-01	 1.330155e+00	-6.474713e+01
1	 3.438684e-01	 1.334176e+00	-6.376419e+01
1	 3.286322e-01	 1.338011e+00	-6.271055e+01
1	 3.134018e-01	 1.341660e+00	-6.158076e+01
1	 2.981804e-01	 1.345125e+00	-6.036953e+01
1	 3.763581e-01	 1.333076e+00	-6.576054e+01
1	 3.610379e-01	 1.337307e+00	-6.485815e+01
1	 3.457171e-01	 1.341349e+00	-6.389719e+01
1	 3.303990e-01	 1.345204e+00	-6.287049e+01
1	 3.150868e-01	 1.348873e+00	-6.177107e+01
1	 2.997835e-01	 1.352356e+00	-6.059210e+01
1	 3.783707e-01	 1.340205e+00	-6.578528e+01
1	 3.629686e-01	 1.344458e+00	-6.489992e+01
1	 3.475659e-01	 1.348522e+00	-6.396296e+01
1	 3.321659e-01	 1.352398e+00	-6.296565e+01
1	 3.167717e-01	 1.356086e+00	-6.189940e+01
1	 3.013866e-01	 1.359588e+00	-6.075581e+01
1	 3.803834e-01	 1.347334e+00	-6.573921e+01
1	 3.648993e-01	 1.351610e+00	-6.487255e+01
1	 3.494146e-01	 1.355695e+00	-6.396170e+01
1	 3.339327e-01	 1.359591e+00	-6.299625e+01
1	 3.184567e-01	 1.363299e+00	-6.196598e+01
1	 3.029898e-01	 1.366820e+00	-6.086084e+01
1	 3.823960e-01	 1.354463e+00	-6.562233e+01
1	 3.668299e-01	 1.358761e+00	-6.477617e+01
1	 3.512634e-01	 1.362868e+00	-6.389359e+01
1	 3.356995e-01	 1.366785e+00	-6.296252e+01
1	 3.201416e-01	 1.370513e+00	-6.197104e+01
1	 3.045929e-01	 1.374052e+00	-6.090741e+01
1	 2.965773e-01	 1.337893e+00	-6.008789e+01
1	 2.814496e-01	 1.341157e+00	-5.877904e+01
1	 2.663370e-01	 1.344239e+00	-5.743081e+01
1	 2.512422e-01	 1.347142e+00	-5.606160e+01
1	 2.361683e-01	 1.349866e+00	-5.468979e+01
1	 2.211181e-01	 1.352413e+00	-5.333370e+01
1	 2.981804e-01	 1.345125e+00	-6.036953e+01
1	 2.829710e-01	 1.348406e+00	-5.909134e+01
1	 2.677766e-01	 1.351506e+00	-5.777626e+01
1	 2.526003e-01	 1.354424e+00	-5.644252e+01
1	 2.374449e-01	 1.357163e+00	-5.510832e+01
1	 2.223133e-01	 1.359724e+00	-5.379179e+01
1	 2.997835e-01	 1.352356e+00	-6.059210e+01
1	 2.844923e-01	 1.355656e+00	-5.934803e+01
1	 2.692163e-01	 1.358772e+00	-5.806980e+01
1	 2.539583e-01	 1.361706e+00	-5.677545e+01
1	 2.387215e-01	 1.364460e+00	-5.548299e+01
1	 2.235086e-01	 1.367034e+00	-5.421037e+01
1	 3.013866e-01	 1.359588e+00	-6.075581e+01
1	 2.860137e-01	 1.362905e+00	-5.954925e+01
1	 2.706559e-01	 1.366038e+00	-5.831153e+01
1	 2.553164e-01	 1.368988e+00	-5.706050e+01
1	 2.399981e-01	 1.371756e+00	-5.581395e+01
1	 2.247038e-01	 1.374344e+00	-5.458962e+01
1	 3.029898e-01	 1.366820e+00	-6.086084e+01
1	 2.875350e-01	 1.370155e+00	-5.969516e+01
1	 2.720956e-01	 1.373304e+00	-5.850160e+01
1	 2.566745e-01	 1.376270e+00	-5.729779e+01
1	 2.412746e-01	 1.379053e+00	-5.610131e+01
1	 2.258990e-01	 1.381655e+00	-5.492968e+01
1	 3.045929e-01	 1.374052e+00	-6.090741e+01
1	 2.890564e-01	 1.377404e+00	-5.978592e+01
1	 2.735353e-01	 1.380570e+00	-5.864013e+01
1	 2.580325e-01	 1.383552e+00	-5.748745e+01
1	 2.425512e-01	 1.386349e+00	-5.634521e+01
1	 2.270943e-01	 1.388965e+00	-5.523070e+01
1	 2.211181e-01	 1.352413e+00	-5.333370e+01
1	 2.060944e-01	 1.354784e+00	-5.200789e+01
1	 1.911000e-01	 1.356980e+00	-5.071840e+01
1	 1.761376e-01	 1.359003e+00	-4.947056e+01
1	 1.612099e-01	 1.360855e+00	-4.826955e+01
1	 1.463195e-01	 1.362536e+00	-4.712044e+01
1	 2.223133e-01	 1.359724e+00	-5.379179e+01
1	 2.072084e-01	 1.362107e+00	-5.250667e+01
1	 1.921330e-01	 1.364315e+00	-5.125774e+01
1	 1.770897e-01	 1.366349e+00	-5.004954e+01
1	 1.620813e-01	 1.368211e+00	-4.888649e+01
1	 1.471104e-01	 1.369902e+00	-4.777286e+01
1	 2.235086e-01	 1.367034e+00	-5.421037e+01
1	 2.083225e-01	 1.369430e+00	-5.297049e+01
1	 1.931660e-01	 1.371650e+00	-5.176681e+01
1	 1.780418e-01	 1.373695e+00	-5.060296e+01
1	 1.629527e-01	 1.375567e+00	-4.948249e+01
1	 1.479013e-01	 1.377267e+00	-4.840880e+01
1	 2.247038e-01	 1.374344e+00	-5.458962e+01
1	 2.094365e-01	 1.376754e+00	-5.339955e+01
1	 1.941989e-01	 1.378985e+00	-5.224580e+01
1	 1.789939e-01	 1.381041e+00	-5.113102e+01
1	 1.638241e-01	 1.382923e+00	-5.005775e+01
1	 1.486922e-01	 1.384632e+00	-4.902844e+01
1	 2.258990e-01	 1.381655e+00	-5.492968e+01
1	 2.105505e-01	 1.384077e+00	-5.379402e+01
1	 1.952319e-01	 1.386320e+00	-5.269492e+01
1	 1.799460e-01	 1.388387e+00	-5.163391e+01
1	 1.646955e-01	 1.390279e+00	-5.061246e+01
1	 1.494831e-01	 1.391997e+00	-4.963193e+01
1	 2.270943e-01	 1.388965e+00	-5.523070e+01
1	 2.116645e-01	 1.391400e+00	-5.415409e+01
1	 1.962649e-01	 1.393656e+00	-5.311436e+01
1	 1.808981e-01	 1.395733e+00	-5.211183e+01
1	 1.655669e-01	 1.397635e+00	-5.114679e+01
1	 1.502741e-01	 1.399362e+00	-5.021944e+01
1	 1.463195e-01	 1.362536e+00	-4.712044e+01
1	 1.314689e-01	 1.364049e+00	-4.603103e+01
1	 1.166606e-01	 1.365396e+00	-4.501159e+01
1	 1.018971e-01	 1.366577e+00	-4.407055e+01
1	 8.718081e-02	 1.367594e+00	-4.321608e+01
1	 7.251399e-02	 1.368450e+00	-4.245609e+01
1	 1.471104e-01	 1.369902e+00	-4.777286e+01
1	 1.321795e-01	 1.371423e+00	-4.671587e+01
1	 1.172912e-01	 1.372776e+00	-4.572518e+01
1	 1.024479e-01	 1.373964e+00	-4.480848e+01
1	 8.765205e-02	 1.374987e+00	-4.397319e+01
1	 7.290595e-02	 1.375847e+00	-4.322650e+01
1	 1.479013e-01	 1.377267e+00	-4.840880e+01
1	 1.328902e-01	 1.378796e+00	-4.738839e+01
1	 1.179218e-01	 1.380157e+00	-4.643026e+01
1	 1.029987e-01	 1.381351e+00	-4.554129e+01
1	 8.812330e-02	 1.382379e+00	-4.472816e+01
1	 7.329792e-02	 1.383245e+00	-4.399729e+01
1	 1.486922e-01	 1.384632e+00	-4.902844e+01
1	 1.336008e-01	 1.386169e+00	-4.804875e+01
1	 1.185524e-01	 1.387537e+00	-4.712694e+01
1	 1.035495e-01	 1.388737e+00	-4.626909e+01
1	 8.859455e-02	 1.389772e+00	-4.548108e+01
1	 7.368989e-02	 1.390642e+00	-4.476853e+01
1	 1.494831e-01	 1.391997e+00	-4.963193e+01
1	 1.343114e-01	 1.393542e+00	-4.869708e+01
1	 1.191830e-01	 1.394918e+00	-4.781535e+01
1	 1.041003e-01	 1.396124e+00	-4.699198e+01
1	 8.906580e-02	 1.397164e+00	-4.623203e+01
1	 7.408186e-02	 1.398039e+00	-4.554031e+01
1	 1.502741e-01	 1.399362e+00	-5.021944e+01
1	 1.350221e-01	 1.400916e+00	-4.933351e+01
1	 1.198136e-01	 1.402298e+00	-4.849559e+01
1	 1.046511e-01	 1.403511e+00	-4.771006e+01
1	 8.953704e-02	 1.404556e+00	-4.698110e+01
1	 7.447382e-02	 1.405436e+00	-4.631272e+01
1	 7.251399e-02	 1.368450e+00	-4.245609e+01
1	 5.789894e-02	 1.369147e+00	-4.179768e+01
1	 4.333789e-02	 1.369685e+00	-4.124797e+01
1	 2.883299e-02	 1.370067e+00	-4.081441e+01
1	 1.438635e-02	 1.370295e+00	-4.050408e+01
1	 0.000000e+00	 1.370370e+00	-4.032368e+01
1	 7.290595e-02	 1.375847e+00	-4.322650e+01
1	 5.821191e-02	 1.376547e+00	-4.257472e+01
1	 4.357215e-02	 1.377089e+00	-4.202436e+01
1	 2.898884e-02	 1.377473e+00	-4.158247e+01
1	 1.446411e-02	 1.377702e+00	-4.125573e+01
1	 0.000000e+00	 1.377778e+00	-4.105047e+01
1	 7.329792e-02	 1.383245e+00	-4.399729e+01
1	 5.852488e-02	 1.383948e+00	-4.335416e+01
1	 4.380641e-02	 1.384492e+00	-4.280464e+01
1	 2.914470e-02	 1.384879e+00	-4.235528e+01
1	 1.454187e-02	 1.385109e+00	-4.201228e+01
1	 0.000000e+00	 1.385185e+00	-4.178150e+01
1	 7.368989e-02	 1.390642e+00	-4.476853e+01
1	 5.883784e-02	 1.391349e+00	-4.413610e+01
1	 4.404067e-02	 1.391896e+00	-4.358891e+01
1	 2.930055e-02	 1.392284e+00	-4.313294e+01
1	 1.461964e-02	 1.392516e+00	-4.277384e+01
1	 0.000000e+00	 1.392593e+00	-4.251691e+01
1	 7.408186e-02	 1.398039e+00	-4.554031e+01
1	 5.915081e-02	 1.398750e+00	-4.492060e+01
1	 4.427493e-02	 1.399300e+00	-4.437725e+01
1	 2.945641e-02	 1.399690e+00	-4.391555e+01
1	 1.469740e-02	 1.399923e+00	-4.354052e+01
1	 0.000000e+00	 1.400000e+00	-4.325686e+01
1	 7.447382e-02	 1.405436e+00	-4.631272e+01
1	 5.946378e-02	 1.406151e+00	-4.570776e+01
1	 4.450918e-02	 1.406703e+00	-4.516973e+01
1	 2.961226e-02	 1.407096e+00	-4.470319e+01
1	 1.477517e-02	 1.407330e+00	-4.431244e+01
1	 0.000000e+00	 1.407407e+00	-4.400148e+01
1	 1.407407e+00	 0.000000e+00	 1.879587e+01
1	 1.407330e+00	 1.477517e-02	 1.840191e+01
1	 1.407096e+00	 2.961226e-02	 1.804283e+01
1	 1.406703e+00	 4.450918e-02	 1.771741e+01
1	 1.406151e+00	 5.946378e-02	 1.742437e+01
1	 1.405436e+00	 7.447382e-02	 1.716239e+01
1	 1.414815e+00	 0.000000e+00	 1.868312e+01
1	 1.414737e+00	 1.485293e-02	 1.828781e+01
1	 1.414502e+00	 2.976811e-02	 1.792541e+01
1	 1.414107e+00	 4.474344e-02	 1.759485e+01
1	 1.413551e+00	 5.977675e-02	 1.729502e+01
1	 1.412833e+00	 7.486579e-02	 1.702474e+01
1	 1.422222e+00	 0.000000e+00	 1.857429e+01
1	 1.422144e+00	 1.493069e-02	 1.817803e+01
1	 1.421907e+00	 2.992397e-02	 1.781257e+01
1	 1.421511e+00	 4.497770e-02	 1.747701e+01
1	 1.420952e+00	 6.008971e-02	 1.717036e+01
1	 1.420230e+00	 7.525776e-02	 1.689162e+01
1	 1.429630e+00	 0.000000e+00	 1.846940e+01
1	 1.429551e+00	 1.500846e-02	 1.807264e+01
1	 1.429313e+00	 3.007982e-02	 1.770441e+01
1	 1.428915e+00	 4.521196e-02	 1.736397e+01
1	 1.428353e+00	 6.040268e-02	 1.705050e+01
1	 1.427627e+00	 7.564973e-02	 1.676316e+01
1	 1.437037e+00	 0.000000e+00	 1.836851e+01
1	 1.436958e+00	 1.508622e-02	 1.797170e+01
1	 1.436719e+00	 3.023568e-02	 1.760100e+01
1	 1.436318e+00	 4.544622e-02	 1.725582e+01
1	 1.435754e+00	 6.071565e-02	 1.693553e+01
1	 1.435024e+00	 7.604169e-02	 1.663946e+01
1	 1.444444e+00	 0.000000e+00	 1.827165e+01
1	 1.444365e+00	 1.516399e-02	 1.787527e+01
1	 1.444125e+00	 3.039153e-02	 1.750241e+01
1	 1.443722e+00	 4.568048e-02	 1.715266e+01
1	 1.443155e+00	 6.102861e-02	 1.682556e+01
1	 1.442421e+00	 7.643366e-02	 1.652063e+01
1	 1.405436e+00	 7.447382e-02	 1.716239e+01
1	 1.404556e+00	 8.953704e-02	 1.693369e+01
1	 1.403511e+00	 1.046511e-01	 1.674063e+01
1	 1.402298e+00	 1.198136e-01	 1.658202e+01
1	 1.400916e+00	 1.350221e-01	 1.645666e+01
1	 1.399362e+00	 1.502741e-01	 1.636331e+01
1	 1.412833e+00	 7.486579e-02	 1.702474e+01
1	 1.411949e+00	 9.000829e-02	 1.678641e+01
1	 1.410898e+00	 1.052019e-01	 1.658261e+01
1	 1.409679e+00	 1.204442e-01	 1.641234e+01
1	 1.408289e+00	 1.357327e-01	 1.627456e+01
1	 1.406727e+00	 1.510650e-01	 1.616822e+01
1	 1.420230e+00	 7.525776e-02	 1.689162e+01
1	 1.419341e+00	 9.047954e-02	 1.664339e+01
1	 1.418285e+00	 1.057527e-01	 1.642843e+01
1	 1.417059e+00	 1.210748e-01	 1.624595e+01
1	 1.415662e+00	 1.364434e-01	 1.609515e+01
1	 1.414092e+00	 1.518559e-01	 1.597516e+01
1	 1.427627e+00	 7.564973e-02	 1.676316e+01
1	 1.426734e+00	 9.095079e-02	 1.650473e+01
1	 1.425672e+00	 1.063035e-01	 1.627819e+01
1	 1.424440e+00	 1.217054e-01	 1.608300e+01
1	 1.423035e+00	 1.371540e-01	 1.591857e+01
1	 1.421457e+00	 1.526468e-01	 1.578428e+01
1	 1.435024e+00	 7.604169e-02	 1.663946e+01
1	 1.434126e+00	 9.142203e-02	 1.637055e+01
1	 1.433059e+00	 1.068543e-01	 1.613204e+01
1	 1.431820e+00	 1.223360e-01	 1.592362e+01
1	 1.430409e+00	 1.378647e-01	 1.574496e+01
1	 1.428822e+00	 1.534377e-01	 1.559572e+01
1	 1.442421e+00	 7.643366e-02	 1.652063e+01
1	 1.441518e+00	 9.189328e-02	 1.624098e+01
1	 1.440446e+00	 1.074051e-01	 1.599008e+01
1	 1.439201e+00	 1.229666e-01	 1.576792e+01
1	 1.437782e+00	 1.385753e-01	 1.557446e+01
1	 1.436187e+00	 1.542286e-01	 1.540962e+01
1	 1.399362e+00	 1.502741e-01	 1.636331e+01
1	 1.397635e+00	 1.655669e-01	 1.630034e+01
1	 1.395733e+00	 1.808981e-01	 1.626658e+01
1	 1.393656e+00	 1.962649e-01	 1.626137e+01
1	 1.391400e+00	 2.116645e-01	 1.628404e+01
1	 1.388965e+00	 2.270943e-01	 1.633388e+01
1	 1.406727e+00	 1.510650e-01	 1.616822e+01
1	 1.404991e+00	 1.664383e-01	 1.609175e+01
1	 1.403079e+00	 1.818502e-01	 1.604401e+01
1	 1.400991e+00	 1.972978e-01	 1.602456e+01
1	 1.398723e+00	 2.127785e-01	 1.603289e+01
1	 1.396275e+00	 2.282895e-01	 1.606851e+01
1	 1.414092e+00	 1.518559e-01	 1.597516e+01
1	 1.412347e+00	 1.673097e-01	 1.588450e+01
1	 1.410425e+00	 1.828023e-01	 1.582209e+01
1	 1.408326e+00	 1.983308e-01	 1.578765e+01
1	 1.406046e+00	 2.138926e-01	 1.578088e+01
1	 1.403586e+00	 2.294847e-01	 1.580145e+01
1	 1.421457e+00	 1.526468e-01	 1.578428e+01
1	 1.419703e+00	 1.681811e-01	 1.567875e+01
1	 1.417771e+00	 1.837544e-01	 1.560098e+01
1	 1.415661e+00	 1.993638e-01	 1.555085e+01
1	 1.413369e+00	 2.150066e-01	 1.552824e+01
1	 1.410896e+00	 2.306800e-01	 1.553300e+01
1	 1.428822e+00	 1.534377e-01	 1.559572e+01
1	 1.427059e+00	 1.690526e-01	 1.547466e+01
1	 1.425117e+00	 1.847065e-01	 1.538084e+01
1	 1.422996e+00	 2.003968e-01	 1.531435e+01
1	 1.420693e+00	 2.161206e-01	 1.527521e+01
1	 1.418206e+00	 2.318752e-01	 1.526344e+01
1	 1.436187e+00	 1.542286e-01	 1.540962e+01
1	 1.434415e+00	 1.699240e-01	 1.527236e+01
1	 1.432463e+00	 1.856586e-01	 1.516185e+01
1	 1.430331e+00	 2.014297e-01	 1.507834e+01
1	 1.428016e+00	 2.172346e-01	 1.502201e+01
1	 1.425517e+00	 2.330704e-01	 1.499306e+01
1	 1.388965e+00	 2.270943e-01	 1.633388e+01
1	 1.386349e+00	 2.425512e-01	 1.641465e+01
1	 1.383552e+00	 2.580325e-01	 1.652836e+01
1	 1.380570e+00	 2.735353e-01	 1.667177e+01
1	 1.377404e+00	 2.890564e-01	 1.684167e+01
1	 1.374052e+00	 3.045929e-01	 1.703491e+01
1	 1.396275e+00	 2.282895e-01	 1.606851e+01
1	 1.393646e+00	 2.438278e-01	 1.613579e+01
1	 1.390833e+00	 2.593906e-01	 1.623733e+01
1	 1.387836e+00	 2.749749e-01	 1.636990e+01
1	 1.384654e+00	 2.905777e-01	 1.653034e+01
1	 1.381284e+00	 3.061960e-01	 1.671553e+01
1	 1.403586e+00	 2.294847e-01	 1.580145e+01
1	 1.400942e+00	 2.451044e-01	 1.585440e+01
1	 1.398115e+00	 2.607487e-01	 1.594291e+01
1	 1.395103e+00	 2.764146e-01	 1.606381e+01
1	 1.391903e+00	 2.920991e-01	 1.621400e+01
1	 1.388516e+00	 3.077991e-01	 1.639043e+01
1	 1.410896e+00	 2.306800e-01	 1.553300e+01
1	 1.408239e+00	 2.463810e-01	 1.557082e+01
1	 1.405397e+00	 2.621067e-01	 1.564545e+01
1	 1.402369e+00	 2.778542e-01	 1.575384e+01
1	 1.399153e+00	 2.936204e-01	 1.589297e+01
1	 1.395748e+00	 3.094022e-01	 1.605986e+01
1	 1.418206e+00	 2.318752e-01	 1.526344e+01
1	 1.415536e+00	 2.476576e-01	 1.528536e+01
1	 1.412679e+00	 2.634648e-01	 1.534530e+01
1	 1.409635e+00	 2.792939e-01	 1.544034e+01
1	 1.406402e+00	 2.951418e-01	 1.556757e+01
1	 1.402979e+00	 3.110054e-01	 1.572411e+01
1	 1.425517e+00	 2.330704e-01	 1.499306e+01
1	 1.422832e+00	 2.489342e-01	 1.499835e+01
1	 1.419961e+00	 2.648229e-01	 1.504281e+01
1	 1.416901e+00	 2.807336e-01	 1.512366e+01
1	 1.413652e+00	 2.966631e-01	 1.523811e+01
1	 1.410211e+00	 3.126085e-01	 1.538341e+01
1	 1.374052e+00	 3.045929e-01	 1.703491e+01
1	 1.370513e+00	 3.201416e-01	 1.723993e+01
1	 1.366785e+00	 3.356995e-01	 1.744802e+01
1	 1.362868e+00	 3.512634e-01	 1.766027e+01
1	 1.358761e+00	 3.668299e-01	 1.787776e+01
1	 1.354463e+00	 3.823960e-01	 1.810153e+01
1	 1.381284e+00	 3.061960e-01	 1.671553e+01
1	 1.377726e+00	 3.218266e-01	 1.691307e+01
1	 1.373979e+00	 3.374664e-01	 1.711350e+01
1	 1.370041e+00	 3.531121e-01	 1.731815e+01
1	 1.365912e+00	 3.687606e-01	 1.752833e+01
1	 1.361591e+00	 3.844086e-01	 1.774528e+01
1	 1.388516e+00	 3.077991e-01	 1.639043e+01
1	 1.384939e+00	 3.235116e-01	 1.657983e+01
1	 1.381172e+00	 3.392332e-01	 1.677203e+01
1	 1.377214e+00	 3.549609e-01	 1.696858e+01
1	 1.373064e+00	 3.706913e-01	 1.717099e+01
1	 1.368720e+00	 3.864212e-01	 1.738073e+01
1	 1.395748e+00	 3.094022e-01	 1.605986e+01
1	 1.392152e+00	 3.251965e-01	 1.624044e+01
1	 1.388366e+00	 3.410001e-01	 1.642378e+01
1	 1.384387e+00	 3.568096e-01	 1.661168e+01
1	 1.380215e+00	 3.726220e-01	 1.680586e+01
1	 1.375849e+00	 3.884338e-01	 1.700800e+01
1	 1.402979e+00	 3.110054e-01	 1.572411e+01
1	 1.399366e+00	 3.268815e-01	 1.589509e+01
1	 1.395559e+00	 3.427669e-01	 1.606892e+01
1	 1.391560e+00	 3.586584e-01	 1.624759e+01
1	 1.387366e+00	 3.745527e-01	 1.643306e+01
1	 1.382978e+00	 3.904464e-01	 1.662721e+01
1	 1.410211e+00	 3.126085e-01	 1.538341e+01
1	 1.406579e+00	 3.285664e-01	 1.554400e+01
1	 1.402753e+00	 3.445337e-01	 1.570761e+01
1	 1.398733e+00	 3.605072e-01	 1.587646e+01
1	 1.394518e+00	 3.764834e-01	 1.605271e+01
1	 1.390106e+00	 3.924590e-01	 1.623848e+01
1	 1.354463e+00	 3.823960e-01	 1.810153e+01
1	 1.349972e+00	 3.979581e-01	 1.829227e+01
1	 1.345289e+00	 4.135131e-01	 1.841146e+01
1	 1.340412e+00	 4.290575e-01	 1.846135e+01
1	 1.335342e+00	 4.445879e-01	 1.844432e+01
1	 1.330076e+00	 4.601008e-01	 1.836288e+01
1	 1.361591e+00	 3.844086e-01	 1.774528e+01
1	 1.357077e+00	 4.000526e-01	 1.793045e+01
1	 1.352369e+00	 4.156895e-01	 1.804582e+01
1	 1.347467e+00	 4.313157e-01	 1.809346e+01
1	 1.342370e+00	 4.469278e-01	 1.807562e+01
1	 1.337077e+00	 4.625224e-01	 1.799465e+01
1	 1.368720e+00	 3.864212e-01	 1.738073e+01
1	 1.364182e+00	 4.021472e-01	 1.756010e+01
1	 1.359450e+00	 4.178659e-01	 1.767164e+01
1	 1.354522e+00	 4.335739e-01	 1.771724e+01
1	 1.349398e+00	 4.492677e-01	 1.769894e+01
1	 1.344077e+00	 4.649440e-01	 1.761891e+01
1	 1.375849e+00	 3.884338e-01	 1.700800e+01
1	 1.371288e+00	 4.042417e-01	 1.718135e+01
1	 1.366530e+00	 4.200423e-01	 1.728907e+01
1	 1.361577e+00	 4.358321e-01	 1.733282e+01
1	 1.356426e+00	 4.516077e-01	 1.731441e+01
1	 1.351077e+00	 4.673656e-01	 1.723580e+01
1	 1.382978e+00	 3.904464e-01	 1.662721e+01
1	 1.378393e+00	 4.063362e-01	 1.679432e+01
1	 1.373611e+00	 4.222186e-01	 1.689823e+01
1	 1.368632e+00	 4.380903e-01	 1.694034e+01
1	 1.363454e+00	 4.539476e-01	 1.692217e+01
1	 1.358078e+00	 4.697871e-01	 1.684545e+01
1	 1.390106e+00	 3.924590e-01	 1.623848e+01
1	 1.385498e+00	 4.084307e-01	 1.639913e+01
1	 1.380691e+00	 4.243950e-01	 1.649925e+01
1	 1.375686e+00	 4.403485e-01	 1.653991e+01
1	 1.370482e+00	 4.562876e-01	 1.652235e+01
1	 1.365078e+00	 4.722087e-01	 1.644799e+01
1	 1.330076e+00	 4.601008e-01	 1.836288e+01
1	 1.324616e+00	 4.755928e-01	 1.820905e+01
1	 1.318960e+00	 4.910604e-01	 1.797267e+01
1	 1.313108e+00	 5.065000e-01	 1.765318e+01
1	 1.307061e+00	 5.219081e-01	 1.725011e+01
1	 1.300817e+00	 5.372811e-01	 1.676311e+01
1	 1.337077e+00	 4.625224e-01	 1.799465e+01
1	 1.331587e+00	 4.780959e-01	 1.784246e+01
1	 1.325902e+00	 4.936449e-01	 1.760877e+01
1	 1.320019e+00	 5.091658e-01	 1.729288e+01
1	 1.313940e+00	 5.246550e-01	 1.689414e+01
1	 1.307663e+00	 5.401088e-01	 1.641205e+01
1	 1.344077e+00	 4.649440e-01	 1.761891e+01
1	 1.338559e+00	 4.805991e-01	 1.746885e+01
1	 1.332844e+00	 4.962295e-01	 1.723831e+01
1	 1.326930e+00	 5.118316e-01	 1.692644e+01
1	 1.320819e+00	 5.274019e-01	 1.653250e+01
1	 1.314510e+00	 5.429366e-01	 1.605585e+01
1	 1.351077e+00	 4.673656e-01	 1.723580e+01
1	 1.345531e+00	 4.831022e-01	 1.708836e+01
1	 1.339786e+00	 4.988140e-01	 1.686140e+01
1	 1.333842e+00	 5.144974e-01	 1.655401e+01
1	 1.327698e+00	 5.301487e-01	 1.616535e+01
1	 1.321356e+00	 5.457644e-01	 1.569470e+01
1	 1.358078e+00	 4.697871e-01	 1.684545e+01
1	 1.352502e+00	 4.856053e-01	 1.670112e+01
1	 1.346728e+00	 5.013985e-01	 1.647821e+01
1	 1.340753e+00	 5.171632e-01	 1.617576e+01
1	 1.334578e+00	 5.328956e-01	 1.579288e+01
1	 1.328203e+00	 5.485922e-01	 1.532880e+01
1	 1.365078e+00	 4.722087e-01	 1.644799e+01
1	 1.359474e+00	 4.881084e-01	 1.630726e+01
1	 1.353669e+00	 5.039830e-01	 1.608887e+01
1	 1.347664e+00	 5.198290e-01	 1.579182e+01
1	 1.341457e+00	 5.356425e-01	 1.541524e+01
1	 1.335049e+00	 5.514200e-01	 1.495832e+01
1	 1.300817e+00	 5.372811e-01	 1.676311e+01
1	 1.294377e+00	 5.526153e-01	 1.618148e+01
1	 1.287741e+00	 5.679072e-01	 1.549617e+01
1	 1.280909e+00	 5.831532e-01	 1.470945e+01
1	 1.273881e+00	 5.983495e-01	 1.382364e+01
1	 1.266658e+00	 6.134926e-01	 1.284116e+01
1	 1.307663e+00	 5.401088e-01	 1.641205e+01
1	 1.301190e+00	 5.555238e-01	 1.583552e+01
1	 1.294519e+00	 5.708962e-01	 1.515532e+01
1	 1.287651e+00	 5.862224e-01	 1.437382e+01
1	 1.280586e+00	 6.014987e-01	 1.349348e+01
1	 1.273325e+00	 6.167215e-01	 1.251683e+01
1	 1.314510e+00	 5.429366e-01	 1.605585e+01
1	 1.308002e+00	 5.584323e-01	 1.548507e+01
1	 1.301296e+00	 5.738852e-01	 1.481073e+01
1	 1.294392e+00	 5.892916e-01	 1.403526e+01
1	 1.287291e+00	 6.046479e-01	 1.316119e+01
1	 1.279991e+00	 6.199504e-01	 1.219113e+01
1	 1.321356e+00	 5.457644e-01	 1.569470e+01
1	 1.314815e+00	 5.613408e-01	 1.513034e+01
1	 1.308074e+00	 5.768742e-01	 1.446261e+01
1	 1.301134e+00	 5.923609e-01	 1.369395e+01
1	 1.293995e+00	 6.077972e-01	 1.282691e+01
1	 1.286658e+00	 6.231793e-01	 1.186409e+01
1	 1.328203e+00	 5.485922e-01	 1.532880e+01
1	 1.321627e+00	 5.642493e-01	 1.477153e+01
1	 1.314851e+00	 5.798632e-01	 1.411116e+01
1	 1.307876e+00	 5.954301e-01	 1.335007e+01
1	 1.300700e+00	 6.109464e-01	 1.249075e+01
1	 1.293324e+00	 6.264083e-01	 1.153578e+01
1	 1.335049e+00	 5.514200e-01	 1.495832e+01
1	 1.328440e+00	 5.671578e-01	 1.440885e+01
1	 1.321629e+00	 5.828521e-01	 1.375655e+01
1	 1.314617e+00	 5.984993e-01	 1.300376e+01
1	 1.307404e+00	 6.140956e-01	 1.215283e+01
1	 1.299991e+00	 6.296372e-01	 1.120625e+01
1	 1.266658e+00	 6.134926e-01	 1.284116e+01
1	 1.259240e+00	 6.285788e-01	 1.175353e+01
1	 1.251627e+00	 6.436044e-01	 1.054886e+01
1	 1.243819e+00	 6.585657e-01	 9.224086e+00
1	 1.235819e+00	 6.734591e-01	 7.775792e+00
1	 1.227626e+00	 6.882809e-01	 6.200158e+00
1	 1.273325e+00	 6.167215e-01	 1.251683e+01
1	 1.265867e+00	 6.318871e-01	 1.143355e+01
1	 1.258214e+00	 6.469918e-01	 1.022959e+01
1	 1.250366e+00	 6.620318e-01	 8.901711e+00
1	 1.242323e+00	 6.770036e-01	 7.446265e+00
1	 1.234087e+00	 6.919034e-01	 5.859229e+00
1	 1.279991e+00	 6.199504e-01	 1.219113e+01
1	 1.272495e+00	 6.351954e-01	 1.111281e+01
1	 1.264802e+00	 6.503791e-01	 9.910187e+00
1	 1.256912e+00	 6.654979e-01	 8.579908e+00
1	 1.248828e+00	 6.805481e-01	 7.118253e+00
1	 1.240548e+00	 6.955259e-01	 5.521120e+00
1	 1.286658e+00	 6.231793e-01	 1.186409e+01
1	 1.279122e+00	 6.385037e-01	 1.079134e+01
1	 1.271389e+00	 6.537665e-01	 9.590692e+00
1	 1.263459e+00	 6.689641e-01	 8.258833e+00
1	 1.255332e+00	 6.840926e-01	 6.792081e+00
1	 1.247009e+00	 6.991485e-01	 5.186392e+00
1	 1.293324e+00	 6.264083e-01	 1.153578e+01
1	 1.285750e+00	 6.418120e-01	 1.046914e+01
1	 1.277977e+00	 6.571539e-01	 9.271157e+00
1	 1.270005e+00	 6.724302e-01	 7.938637e+00
1	 1.261836e+00	 6.876372e-01	 6.468069e+00
1	 1.253471e+00	 7.027710e-01	 4.855599e+00
1	 1.299991e+00	 6.296372e-01	 1.120625e+01
1	 1.292377e+00	 6.451203e-01	 1.014625e+01
1	 1.284564e+00	 6.605413e-01	 8.951633e+00
1	 1.276552e+00	 6.758964e-01	 7.619470e+00
1	 1.268341e+00	 6.911817e-01	 6.146530e+00
1	 1.259932e+00	 7.063935e-01	 4.529279e+00
1	 1.227626e+00	 6.882809e-01	 6.200158e+00
1	 1.219241e+00	 7.030274e-01	 4.524266e+00
1	 1.210665e+00	 7.176951e-01	 2.780835e+00
1	 1.201899e+00	 7.322802e-01	 9.746311e-01
1	 1.192944e+00	 7.467792e-01	-8.890244e-01
1	 1.183802e+00	 7.611885e-01	-2.804258e+00
1	 1.234087e+00	 6.919034e-01	 5.859229e+00
1	 1.225658e+00	 7.067276e-01	 4.171887e+00
1	 1.217037e+00	 7.214724e-01	 2.421687e+00
1	 1.208225e+00	 7.361344e-01	 6.140192e-01
1	 1.199223e+00	 7.507096e-01	-1.245128e+00
1	 1.190033e+00	 7.651947e-01	-3.149171e+00
1	 1.240548e+00	 6.955259e-01	 5.521120e+00
1	 1.232075e+00	 7.104277e-01	 3.824213e+00
1	 1.223409e+00	 7.252498e-01	 2.069715e+00
1	 1.214551e+00	 7.399885e-01	 2.634359e-01
1	 1.205502e+00	 7.546401e-01	-1.588182e+00
1	 1.196263e+00	 7.692010e-01	-3.478073e+00
1	 1.247009e+00	 6.991485e-01	 5.186392e+00
1	 1.238492e+00	 7.141279e-01	 3.482021e+00
1	 1.229781e+00	 7.290271e-01	 1.725792e+00
1	 1.220876e+00	 7.438426e-01	-7.625884e-02
1	 1.211780e+00	 7.585705e-01	-1.917448e+00
1	 1.202494e+00	 7.732072e-01	-3.790450e+00
1	 1.253471e+00	 7.027710e-01	 4.855599e+00
1	 1.244909e+00	 7.178280e-01	 3.146069e+00
1	 1.236153e+00	 7.328045e-01	 1.390773e+00
1	 1.227202e+00	 7.476967e-01	-4.042230e-01
1	 1.218059e+00	 7.625009e-01	-2.232201e+00
1	 1.208724e+00	 7.772135e-01	-4.085799e+00
1	 1.259932e+00	 7.063935e-01	 4.529279e+00
1	 1.251326e+00	 7.215282e-01	 2.817101e+00
1	 1.242524e+00	 7.365818e-01	 1.065495e+00
1	 1.233528e+00	 7.515508e-01	-7.196317e-01
1	 1.224338e+00	 7.664313e-01	-2.531733e+00
1	 1.214955e+00	 7.812197e-01	-4.363626e+00
1	 1.183802e+00	 7.611885e-01	-2.804258e+00
1	 1.174474e+00	 7.755044e-01	-4.683228e+00
1	 1.164960e+00	 7.897233e-01	-6.445033e+00
1	 1.155264e+00	 8.038419e-01	-8.094029e+00
1	 1.145385e+00	 8.178565e-01	-9.634868e+00
1	 1.135326e+00	 8.317637e-01	-1.107249e+01
1	 1.190033e+00	 7.651947e-01	-3.149171e+00
1	 1.180655e+00	 7.795860e-01	-5.013168e+00
1	 1.171092e+00	 7.938798e-01	-6.760290e+00
1	 1.161344e+00	 8.080727e-01	-8.395964e+00
1	 1.151413e+00	 8.221610e-01	-9.925988e+00
1	 1.141301e+00	 8.361414e-01	-1.135653e+01
1	 1.196263e+00	 7.692010e-01	-3.478073e+00
1	 1.186837e+00	 7.836676e-01	-5.324796e+00
1	 1.177223e+00	 7.980362e-01	-7.055860e+00
1	 1.167424e+00	 8.123034e-01	-8.677491e+00
1	 1.157441e+00	 8.264655e-01	-1.019635e+01
1	 1.147277e+00	 8.405191e-01	-1.161954e+01
1	 1.202494e+00	 7.732072e-01	-3.790450e+00
1	 1.193018e+00	 7.877492e-01	-5.617824e+00
1	 1.183354e+00	 8.021927e-01	-7.331586e+00
1	 1.173505e+00	 8.165341e-01	-8.938494e+00
1	 1.163470e+00	 8.307700e-01	-1.044580e+01
1	 1.153252e+00	 8.448968e-01	-1.186123e+01
1	 1.208724e+00	 7.772135e-01	-4.085799e+00
1	 1.199200e+00	 7.918308e-01	-5.891971e+00
1	 1.189486e+00	 8.063491e-01	-7.587314e+00
1	 1.179585e+00	 8.207649e-01	-9.178857e+00
1	 1.169498e+00	 8.350746e-01	-1.067416e+01
1	 1.159227e+00	 8.492745e-01	-1.208131e+01
1	 1.214955e+00	 7.812197e-01	-4.363626e+00
1	 1.205381e+00	 7.959124e-01	-6.146959e+00
1	 1.195617e+00	 8.105055e-01	-7.822893e+00
1	 1.185665e+00	 8.249956e-01	-9.398466e+00
1	 1.175526e+00	 8.393791e-01	-1.088128e+01
1	 1.165203e+00	 8.536522e-01	-1.227948e+01
1	 1.135326e+00	 8.317637e-01	-1.107249e+01
1	 1.125088e+00	 8.455601e-01	-1.240285e+01
1	 1.114674e+00	 8.592421e-01	-1.361643e+01
1	 1.104085e+00	 8.728066e-01	-1.471019e+01
1	 1.093324e+00	 8.862501e-01	-1.568110e+01
1	 1.082391e+00	 8.995694e-01	-1.652617e+01
1	 1.141301e+00	 8.361414e-01	-1.135653e+01
1	 1.131010e+00	 8.500104e-01	-1.268325e+01
1	 1.120541e+00	 8.637645e-01	-1.389533e+01
1	 1.109896e+00	 8.774003e-01	-1.498947e+01
1	 1.099078e+00	 8.909146e-01	-1.596234e+01
1	 1.088088e+00	 9.043040e-01	-1.681063e+01
1	 1.147277e+00	 8.405191e-01	-1.161954e+01
1	 1.136931e+00	 8.544607e-01	-1.294189e+01
1	 1.126408e+00	 8.682868e-01	-1.415113e+01
1	 1.115707e+00	 8.819940e-01	-1.524397e+01
1	 1.104832e+00	 8.955791e-01	-1.621711e+01
1	 1.093785e+00	 9.090386e-01	-1.706725e+01
1	 1.153252e+00	 8.448968e-01	-1.186123e+01
1	 1.142853e+00	 8.589110e-01	-1.317835e+01
1	 1.132274e+00	 8.728091e-01	-1.438335e+01
1	 1.121518e+00	 8.865878e-01	-1.547326e+01
1	 1.110587e+00	 9.002435e-01	-1.644510e+01
1	 1.099481e+00	 9.137731e-01	-1.729587e+01
1	 1.159227e+00	 8.492745e-01	-1.208131e+01
1	 1.148774e+00	 8.633613e-01	-1.339220e+01
1	 1.138141e+00	 8.773315e-01	-1.459153e+01
1	 1.127329e+00	 8.911815e-01	-1.567692e+01
1	 1.116341e+00	 9.049080e-01	-1.664600e+01
1	 1.105178e+00	 9.185077e-01	-1.749637e+01
1	 1.165203e+00	 8.536522e-01	-1.227948e+01
1	 1.154696e+00	 8.678116e-01	-1.358305e+01
1	 1.144008e+00	 8.818538e-01	-1.477523e+01
1	 1.133140e+00	 8.957752e-01	-1.585454e+01
1	 1.122095e+00	 9.095725e-01	-1.681949e+01
1	 1.110875e+00	 9.232423e-01	-1.766862e+01
1	 1.082391e+00	 8.995694e-01	-1.652617e+01
1	 1.071290e+00	 9.127613e-01	-1.726817e+01
1	 1.060023e+00	 9.258225e-01	-1.793173e+01
1	 1.048592e+00	 9.387499e-01	-1.851656e+01
1	 1.036999e+00	 9.515406e-01	-1.902218e+01
1	 1.025247e+00	 9.641914e-01	-1.944798e+01
1	 1.088088e+00	 9.043040e-01	-1.681063e+01
1	 1.076928e+00	 9.175653e-01	-1.755603e+01
1	 1.065602e+00	 9.306952e-01	-1.822206e+01
1	 1.054110e+00	 9.436907e-01	-1.880814e+01
1	 1.042457e+00	 9.565487e-01	-1.931348e+01
1	 1.030643e+00	 9.692660e-01	-1.973716e+01
1	 1.093785e+00	 9.090386e-01	-1.706725e+01
1	 1.082567e+00	 9.223693e-01	-1.781519e+01
1	 1.071181e+00	 9.355680e-01	-1.848334e+01
1	 1.059629e+00	 9.486315e-01	-1.907057e+01
1	 1.047914e+00	 9.615568e-01	-1.957560e+01
1	 1.036039e+00	 9.743407e-01	-1.999695e+01
1	 1.099481e+00	 9.137731e-01	-1.729587e+01
1	 1.088205e+00	 9.271733e-01	-1.804572e+01
1	 1.076760e+00	 9.404407e-01	-1.871571e+01
1	 1.065148e+00	 9.535723e-01	-1.930404e+01
1	 1.053372e+00	 9.665649e-01	-1.980868e+01
1	 1.041435e+00	 9.794154e-01	-2.022743e+01
1	 1.105178e+00	 9.185077e-01	-1.749637e+01
1	 1.093844e+00	 9.319773e-01	-1.824765e+01
1	 1.082339e+00	 9.453135e-01	-1.891933e+01
1	 1.070667e+00	 9.585131e-01	-1.950873e+01
1	 1.058830e+00	 9.715730e-01	-2.001289e+01
1	 1.046831e+00	 9.844901e-01	-2.042865e+01
1	 1.110875e+00	 9.232423e-01	-1.766862e+01
1	 1.099482e+00	 9.367813e-01	-1.842102e+01
1	 1.087918e+00	 9.501862e-01	-1.909435e+01
1	 1.076186e+00	 9.634539e-01	-1.968482e+01
1	 1.064288e+00	 9.765811e-01	-2.018838e+01
1	 1.052227e+00	 9.895648e-01	-2.060068e+01
1	 1.025247e+00	 9.641914e-01	-1.944798e+01
1	 1.013338e+00	 9.766994e-01	-1.984716e+01
1	 1.001275e+00	 9.890617e-01	-2.027186e+01
1	 9.890617e-01	 1.001275e+00	-2.071972e+01
1	 9.766994e-01	 1.013338e+00	-2.118834e+01
1	 9.641914e-01	 1.025247e+00	-2.167532e+01
1	 1.030643e+00	 9.692660e-01	-1.973716e+01
1	 1.018671e+00	 9.818399e-01	-2.013306e+01
1	 1.006545e+00	 9.942673e-01	-2.055456e+01
1	 9.942673e-01	 1.006545e+00	-2.099979e+01
1	 9.818399e-01	 1.018671e+00	-2.146688e+01
1	 9.692660e-01	 1.030643e+00	-2.195392e+01
1	 1.036039e+00	 9.743407e-01	-1.999695e+01
1	 1.024005e+00	 9.869804e-01	-2.038916e+01
1	 1.011815e+00	 9.994729e-01	-2.080695e+01
1	 9.994729e-01	 1.011815e+00	-2.124903e+01
1	 9.869804e-01	 1.024005e+00	-2.171413e+01
1	 9.743407e-01	 1.036039e+00	-2.220097e+01
1	 1.041435e+00	 9.794154e-01	-2.022743e+01
1	 1.029338e+00	 9.921209e-01	-2.061541e+01
1	 1.017085e+00	 1.004678e+00	-2.102890e+01
1	 1.004678e+00	 1.017085e+00	-2.146727e+01
1	 9.921209e-01	 1.029338e+00	-2.192994e+01
1	 9.794154e-01	 1.041435e+00	-2.241633e+01
1	 1.046831e+00	 9.844901e-01	-2.042865e+01
1	 1.034671e+00	 9.972614e-01	-2.081178e+01
1	 1.022355e+00	 1.009884e+00	-2.122030e+01
1	 1.009884e+00	 1.022355e+00	-2.165436e+01
1	 9.972614e-01	 1.034671e+00	-2.211414e+01
1	 9.844901e-01	 1.046831e+00	-2.259986e+01
1	 1.052227e+00	 9.895648e-01	-2.060068e+01
1	 1.040005e+00	 1.002402e+00	-2.097821e+01
1	 1.027625e+00	 1.015090e+00	-2.138105e+01
1	 1.015090e+00	 1.027625e+00	-2.181015e+01
1	 1.002402e+00	 1.040005e+00	-2.226656e+01
1	 9.895648e-01	 1.052227e+00	-2.275140e+01
1	 9.641914e-01	 1.025247e+00	-2.167532e+01
1	 9.515406e-01	 1.036999e+00	-2.223022e+01
1	 9.387499e-01	 1.048592e+00	-2.290956e+01
1	 9.258225e-01	 1.060023e+00	-2.372161e+01
1	 9.127613e-01	 1.071290e+00	-2.467513e+01
1	 8.995694e-01	 1.082391e+00	-2.577925e+01
1	 9.692660e-01	 1.030643e+00	-2.195392e+01
1	 9.565487e-01	 1.042457e+00	-2.251320e+01
1	 9.436907e-01	 1.054110e+00	-2.320290e+01
1	 9.306952e-01	 1.065602e+00	-2.403033e+01
1	 9.175653e-01	 1.076928e+00	-2.500318e+01
1	 9.043040e-01	 1.088088e+00	-2.612955e+01
1	 9.743407e-01	 1.036039e+00	-2.220097e+01
1	 9.615568e-01	 1.047914e+00	-2.276435e+01
1	 9.486315e-01	 1.059629e+00	-2.346379e+01
1	 9.355680e-01	 1.071181e+00	-2.430538e+01
1	 9.223693e-01	 1.082567e+00	-2.529560e+01
1	 9.090386e-01	 1.093785e+00	-2.644128e+01
1	 9.794154e-01	 1.041435e+00	-2.241633e+01
1	 9.665649e-01	 1.053372e+00	-2.298355e+01
1	 9.535723e-01	 1.065148e+00	-2.369202e+01
1	 9.404407e-01	 1.076760e+00	-2.454647e+01
1	 9.271733e-01	 1.088205e+00	-2.555196e+01
1	 9.137731e-01	 1.099481e+00	-2.671382e+01
1	 9.844901e-01	 1.046831e+00	-2.259986e+01
1	 9.715730e-01	 1.058830e+00	-2.317065e+01
1	 9.585131e-01	 1.070667e+00	-2.388743e+01
1	 9.453135e-01	 1.082339e+00	-2.475334e+01
1	 9.319773e-01	 1.093844e+00	-2.577183e+01
1	 9.185077e-01	 1.105178e+00	-2.694659e+01
1	 9.895648e-01	 1.052227e+00	-2.275140e+01
1	 9.765811e-01	 1.064288e+00	-2.332552e+01
1	 9.634539e-01	 1.076186e+00	-2.404982e+01
1	 9.501862e-01	 1.087918e+00	-2.492571e+01
1	 9.367813e-01	 1.099482e+00	-2.595482e+01
1	 9.232423e-01	 1.110875e+00	-2.713899e+01
1	 8.995694e-01	 1.082391e+00	-2.577925e+01
1	 8.862501e-01	 1.093324e+00	-2.705595e+01
1	 8.728066e-01	 1.104085e+00	-2.850974e+01
1	 8.592421e-01	 1.114674e+00	-3.012350e+01
1	 8.455601e-01	 1.125088e+00	-3.187958e+01
1	 8.317637e-01	 1.135326e+00	-3.375990e+01
1	 9.043040e-01	 1.088088e+00	-2.612955e+01
1	 8.909146e-01	 1.099078e+00	-2.742630e+01
1	 8.774003e-01	 1.109896e+00	-2.889361e+01
1	 8.637645e-01	 1.120541e+00	-3.051432e+01
1	 8.500104e-01	 1.131010e+00	-3.227083e+01
1	 8.361414e-01	 1.141301e+00	-3.414504e+01
1	 9.090386e-01	 1.093785e+00	-2.644128e+01
1	 8.955791e-01	 1.104832e+00	-2.775430e+01
1	 8.819940e-01	 1.115707e+00	-2.923099e+01
1	 8.682868e-01	 1.126408e+00	-3.085467e+01
1	 8.544607e-01	 1.136931e+00	-3.260820e+01
1	 8.405191e-01	 1.147277e+00	-3.447399e+01
1	 9.137731e-01	 1.099481e+00	-2.671382e+01
1	 9.002435e-01	 1.110587e+00	-2.803917e+01
1	 8.865878e-01	 1.121518e+00	-2.952112e+01
1	 8.728091e-01	 1.132274e+00	-3.114388e+01
1	 8.589110e-01	 1.142853e+00	-3.289127e+01
1	 8.448968e-01	 1.153252e+00	-3.474665e+01
1	 9.185077e-01	 1.105178e+00	-2.694659e+01
1	 9.049080e-01	 1.116341e+00	-2.828020e+01
1	 8.911815e-01	 1.127329e+00	-2.976324e+01
1	 8.773315e-01	 1.138141e+00	-3.138131e+01
1	 8.633613e-01	 1.148774e+00	-3.311959e+01
1	 8.492745e-01	 1.159227e+00	-3.496291e+01
1	 9.232423e-01	 1.110875e+00	-2.713899e+01
1	 9.095725e-01	 1.122095e+00	-2.847664e+01
1	 8.957752e-01	 1.133140e+00	-2.995663e+01
1	 8.818538e-01	 1.144008e+00	-3.156632e+01
1	 8.678116e-01	 1.154696e+00	-3.329276e+01
1	 8.536522e-01	 1.165203e+00	-3.512267e+01
1	 8.317637e-01	 1.135326e+00	-3.375990e+01
1	 8.178565e-01	 1.145385e+00	-3.572754e+01
1	 8.038419e-01	 1.155264e+00	-3.775600e+01
1	 7.897233e-01	 1.164960e+00	-3.984242e+01
1	 7.755044e-01	 1.174474e+00	-4.198401e+01
1	 7.611885e-01	 1.183802e+00	-4.417795e+01
1	 8.361414e-01	 1.141301e+00	-3.414504e+01
1	 8.221610e-01	 1.151413e+00	-3.610199e+01
1	 8.080727e-01	 1.161344e+00	-3.811712e+01
1	 7.938798e-01	 1.171092e+00	-4.018762e+01
1	 7.795860e-01	 1.180655e+00	-4.231071e+01
1	 7.651947e-01	 1.190033e+00	-4.448358e+01
1	 8.405191e-01	 1.147277e+00	-3.447399e+01
1	 8.264655e-01	 1.157441e+00	-3.641922e+01
1	 8.123034e-01	 1.167424e+00	-3.842092e+01
1	 7.980362e-01	 1.177223e+00	-4.047593e+01
1	 7.836676e-01	 1.186837e+00	-4.258107e+01
1	 7.692010e-01	 1.196263e+00	-4.473316e+01
1	 8.448968e-01	 1.153252e+00	-3.474665e+01
1	 8.307700e-01	 1.163470e+00	-3.667946e+01
1	 8.165341e-01	 1.173505e+00	-3.866784e+01
1	 8.021927e-01	 1.183354e+00	-4.070789e+01
1	 7.877492e-01	 1.193018e+00	-4.279569e+01
1	 7.732072e-01	 1.202494e+00	-4.492726e+01
1	 8.492745e-01	 1.159227e+00	-3.496291e+01
1	 8.350746e-01	 1.169498e+00	-3.688292e+01
1	 8.207649e-01	 1.179585e+00	-3.885830e+01
1	 8.063491e-01	 1.189486e+00	-4.088408e+01
1	 7.918308e-01	 1.199200e+00	-4.295516e+01
1	 7.772135e-01	 1.208724e+00	-4.506640e+01
1	 8.536522e-01	 1.165203e+00	-3.512267e+01
1	 8.393791e-01	 1.175526e+00	-3.702981e+01
1	 8.249956e-01	 1.185665e+00	-3.899275e+01
1	 8.105055e-01	 1.195617e+00	-4.100503e+01
1	 7.959124e-01	 1.205381e+00	-4.306006e+01
1	 7.812197e-01	 1.214955e+00	-4.515111e+01
1	 7.611885e-01	 1.183802e+00	-4.417795e+01
1	 7.467792e-01	 1.192944e+00	-4.635586e+01
1	 7.322802e-01	 1.201899e+00	-4.845875e+01
1	 7.176951e-01	 1.210665e+00	-5.049823e+01
1	 7.030274e-01	 1.219241e+00	-5.248619e+01
1	 6.882809e-01	 1.227626e+00	-5.443481e+01
1	 7.651947e-01	 1.190033e+00	-4.448358e+01
1	 7.507096e-01	 1.199223e+00	-4.663936e+01
1	 7.361344e-01	 1.208225e+00	-4.872066e+01
1	 7.214724e-01	 1.217037e+00	-5.073912e+01
1	 7.067276e-01	 1.225658e+00	-5.270674e+01
1	 6.919034e-01	 1.234087e+00	-5.463578e+01
1	 7.692010e-01	 1.196263e+00	-4.473316e+01
1	 7.546401e-01	 1.205502e+00	-4.686671e+01
1	 7.399885e-01	 1.214551e+00	-4.892600e+01
1	 7.252498e-01	 1.223409e+00	-5.092282e+01
1	 7.104277e-01	 1.232075e+00	-5.286929e+01
1	 6.955259e-01	 1.240548e+00	-5.477787e+01
1	 7.732072e-01	 1.202494e+00	-4.492726e+01
1	 7.585705e-01	 1.211780e+00	-4.703834e+01
1	 7.438426e-01	 1.220876e+00	-4.907513e+01
1	 7.290271e-01	 1.229781e+00	-5.104960e+01
1	 7.141279e-01	 1.238492e+00	-5.297407e+01
1	 6.991485e-01	 1.247009e+00	-5.486119e+01
1	 7.772135e-01	 1.208724e+00	-4.506640e+01
1	 7.625009e-01	 1.218059e+00	-4.715471e+01
1	 7.476967e-01	 1.227202e+00	-4.916842e+01
1	 7.328045e-01	 1.236153e+00	-5.111974e+01
1	 7.178280e-01	 1.244909e+00	-5.302125e+01
1	 7.027710e-01	 1.253471e+00	-5.488589e+01
1	 7.812197e-01	 1.214955e+00	-4.515111e+01
1	 7.664313e-01	 1.224338e+00	-4.721625e+01
1	 7.515508e-01	 1.233528e+00	-4.920622e+01
1	 7.365818e-01	 1.242524e+00	-5.113352e+01
1	 7.215282e-01	 1.251326e+00	-5.301105e+01
1	 7.063935e-01	 1.259932e+00	-5.485206e+01
1	 6.882809e-01	 1.227626e+00	-5.443481e+01
1	 6.734591e-01	 1.235819e+00	-5.630851e+01
1	 6.585657e-01	 1.243819e+00	-5.806031e+01
1	 6.436044e-01	 1.251627e+00	-5.968533e+01
1	 6.285788e-01	 1.259240e+00	-6.117853e+01
1	 6.134926e-01	 1.266658e+00	-6.253469e+01
1	 6.919034e-01	 1.234087e+00	-5.463578e+01
1	 6.770036e-01	 1.242323e+00	-5.648813e+01
1	 6.620318e-01	 1.250366e+00	-5.821481e+01
1	 6.469918e-01	 1.258214e+00	-5.981188e+01
1	 6.318871e-01	 1.265867e+00	-6.127522e+01
1	 6.167215e-01	 1.273325e+00	-6.260058e+01
1	 6.955259e-01	 1.240548e+00	-5.477787e+01
1	 6.805481e-01	 1.248828e+00	-5.660794e+01
1	 6.654979e-01	 1.256912e+00	-5.830857e+01
1	 6.503791e-01	 1.264802e+00	-5.987673e+01
1	 6.351954e-01	 1.272495e+00	-6.130924e+01
1	 6.199504e-01	 1.279991e+00	-6.260281e+01
1	 6.991485e-01	 1.247009e+00	-5.486119e+01
1	 6.840926e-01	 1.255332e+00	-5.666800e+01
1	 6.689641e-01	 1.263459e+00	-5.834157e+01
1	 6.537665e-01	 1.271389e+00	-5.987981e+01
1	 6.385037e-01	 1.279122e+00	-6.128048e+01
1	 6.231793e-01	 1.286658e+00	-6.254123e+01
1	 7.027710e-01	 1.253471e+00	-5.488589e+01
1	 6.876372e-01	 1.261836e+00	-5.666833e+01
1	 6.724302e-01	 1.270005e+00	-5.831378e+01
1	 6.571539e-01	 1.277977e+00	-5.982104e+01
1	 6.418120e-01	 1.285750e+00	-6.118881e+01
1	 6.264083e-01	 1.293324e+00	-6.241567e+01
1	 7.063935e-01	 1.259932e+00	-5.485206e+01
1	 6.911817e-01	 1.268341e+00	-5.660901e+01
1	 6.758964e-01	 1.276552e+00	-5.822520e+01
1	 6.605413e-01	 1.284564e+00	-5.970036e+01
1	 6.451203e-01	 1.292377e+00	-6.103411e+01
1	 6.296372e-01	 1.299991e+00	-6.222596e+01
1	 6.134926e-01	 1.266658e+00	-6.253469e+01
1	 5.983495e-01	 1.273881e+00	-6.374840e+01
1	 5.831532e-01	 1.280909e+00	-6.481626e+01
1	 5.679072e-01	 1.287741e+00	-6.573594e+01
1	 5.526153e-01	 1.294377e+00	-6.650504e+01
1	 5.372811e-01	 1.300817e+00	-6.712113e+01
1	 6.167215e-01	 1.273325e+00	-6.260058e+01
1	 6.014987e-01	 1.280586e+00	-6.378361e+01
1	 5.862224e-01	 1.287651e+00	-6.482130e+01
1	 5.708962e-01	 1.294519e+00	-6.571124e+01
1	 5.555238e-01	 1.301190e+00	-6.645097e+01
1	 5.401088e-01	 1.307663e+00	-6.703802e+01
1	 6.199504e-01	 1.279991e+00	-6.260281e+01
1	 6.046479e-01	 1.287291e+00	-6.375408e+01
1	 5.892916e-01	 1.294392e+00	-6.476038e+01
1	 5.738852e-01	 1.301296e+00	-6.561934e+01
1	 5.584323e-01	 1.308002e+00	-6.632851e+01
1	 5.429366e-01	 1.314510e+00	-6.688543e+01
1	 6.231793e-01	 1.286658e+00	-6.254123e+01
1	 6.077972e-01	 1.293995e+00	-6.365961e+01
1	 5.923609e-01	 1.301134e+00	-6.463332e+01
1	 5.768742e-01	 1.308074e+00	-6.546006e+01
1	 5.613408e-01	 1.314815e+00	-6.613748e+01
1	 5.457644e-01	 1.321356e+00	-6.666319e+01
1	 6.264083e-01	 1.293324e+00	-6.241567e+01
1	 6.109464e-01	 1.300700e+00	-6.350003e+01
1	 5.954301e-01	 1.307876e+00	-6.443992e+01
1	 5.798632e-01	 1.314851e+00	-6.523321e+01
1	 5.642493e-01	 1.321627e+00	-6.587771e+01
1	 5.485922e-01	 1.328203e+00	-6.637120e+01
1	 6.296372e-01	 1.299991e+00	-6.222596e+01
1	 6.140956e-01	 1.307404e+00	-6.327514e+01
1	 5.984993e-01	 1.314617e+00	-6.417998e+01
1	 5.828521e-01	 1.321629e+00	-6.493859e+01
1	 5.671578e-01	 1.328440e+00	-6.554902e+01
1	 5.514200e-01	 1.335049e+00	-6.600930e+01
1	 5.372811e-01	 1.300817e+00	-6.712113e+01
1	 5.219081e-01	 1.307061e+00	-6.758219e+01
1	 5.065000e-01	 1.313108e+00	-6.789300e+01
1	 4.910604e-01	 1.318960e+00	-6.806149e+01
1	 4.755928e-01	 1.324616e+00	-6.809568e+01
1	 4.601008e-01	 1.330076e+00	-6.800370e+01
1	 5.401088e-01	 1.307663e+00	-6.703802e+01
1	 5.246550e-01	 1.313940e+00	-6.747142e+01
1	 5.091658e-01	 1.320019e+00	-6.775738e+01
1	 4.936449e-01	 1.325902e+00	-6.790424e+01
1	 4.780959e-01	 1.331587e+00	-6.792047e+01
1	 4.625224e-01	 1.337077e+00	-6.781462e+01
1	 5.429366e-01	 1.314510e+00	-6.688543e+01
1	 5.274019e-01	 1.320819e+00	-6.729027e+01
1	 5.118316e-01	 1.326930e+00	-6.755063e+01
1	 4.962295e-01	 1.332844e+00	-6.767520e+01
1	 4.805991e-01	 1.338559e+00	-6.767276e+01
1	 4.649440e-01	 1.344077e+00	-6.755219e+01
1	 5.457644e-01	 1.321356e+00	-6.666319e+01
1	 5.301487e-01	 1.327698e+00	-6.703862e+01
1	 5.144974e-01	 1.333842e+00	-6.727267e+01
1	 4.988140e-01	 1.339786e+00	-6.737427e+01
1	 4.831022e-01	 1.345531e+00	-6.735244e+01
1	 4.673656e-01	 1.351077e+00	-6.721629e+01
1	 5.485922e-01	 1.328203e+00	-6.637120e+01
1	 5.328956e-01	 1.334578e+00	-6.671637e+01
1	 5.171632e-01	 1.340753e+00	-6.692341e+01
1	 5.013985e-01	 1.346728e+00	-6.700137e+01
1	 4.856053e-01	 1.352502e+00	-6.695942e+01
1	 4.697871e-01	 1.358078e+00	-6.680681e+01
1	 5.514200e-01	 1.335049e+00	-6.600930e+01
1	 5.356425e-01	 1.341457e+00	-6.632342e+01
1	 5.198290e-01	 1.347664e+00	-6.650275e+01
1	 5.039830e-01	 1.353669e+00	-6.655641e+01
1	 4.881084e-01	 1.359474e+00	-6.649360e+01
1	 4.722087e-01	 1.365078e+00	-6.632363e+01
1	 4.601008e-01	 1.330076e+00	-6.800370e+01
1	 4.445879e-01	 1.335342e+00	-6.779170e+01
1	 4.290575e-01	 1.340412e+00	-6.745524e+01
1	 4.135131e-01	 1.345289e+00	-6.698661e+01
1	 3.979581e-01	 1.349972e+00	-6.637816e+01
1	 3.823960e-01	 1.354463e+00	-6.562233e+01
1	 4.625224e-01	 1.337077e+00	-6.781462e+01
1	 4.469278e-01	 1.342370e+00	-6.759228e+01
1	 4.313157e-01	 1.347467e+00	-6.724915e+01
1	 4.156895e-01	 1.352369e+00	-6.677893e+01
1	 4.000526e-01	 1.357077e+00	-6.617541e+01
1	 3.844086e-01	 1.361591e+00	-6.543243e+01
1	 4.649440e-01	 1.344077e+00	-6.755219e+01
1	 4.492677e-01	 1.349398e+00	-6.731858e+01
1	 4.335739e-01	 1.354522e+00	-6.696793e+01
1	 4.178659e-01	 1.359450e+00	-6.649556e+01
1	 4.021472e-01	 1.364182e+00	-6.589684e+01
1	 3.864212e-01	 1.368720e+00	-6.516719e+01
1	 4.673656e-01	 1.351077e+00	-6.721629e+01
1	 4.516077e-01	 1.356426e+00	-6.697044e+01
1	 4.358321e-01	 1.361577e+00	-6.661144e+01
1	 4.200423e-01	 1.366530e+00	-6.613636e+01
1	 4.042417e-01	 1.371288e+00	-6.554231e+01
1	 3.884338e-01	 1.375849e+00	-6.482647e+01
1	 4.697871e-01	 1.358078e+00	-6.680681e+01
1	 4.539476e-01	 1.363454e+00	-6.654774e+01
1	 4.380903e-01	 1.368632e+00	-6.617953e+01
1	 4.222186e-01	 1.373611e+00	-6.570116e+01
1	 4.063362e-01	 1.378393e+00	-6.511167e+01
1	 3.904464e-01	 1.382978e+00	-6.441014e+01
1	 4.722087e-01	 1.365078e+00	-6.632363e+01
1	 4.562876e-01	 1.370482e+00	-6.605034e+01
1	 4.403485e-01	 1.375686e+00	-6.567205e+01
1	 4.243950e-01	 1.380691e+00	-6.518983e+01
1	 4.084307e-01	 1.385498e+00	-6.460479e+01
1	 3.924590e-01	 1.390106e+00	-6.391805e+01
1	 3.823960e-01	 1.354463e+00	-6.562233e+01
1	 3.668299e-01	 1.358761e+00	-6.477617e+01
1	 3.512634e-01	 1.362868e+00	-6.389359e+01
1	 3.356995e-01	 1.366785e+00	-6.296252e+01
1	 3.201416e-01	 1.370513e+00	-6.197104e+01
1	 3.045929e-01	 1.374052e+00	-6.090741e+01
1	 3.844086e-01	 1.361591e+00	-6.543243e+01
1	 3.687606e-01	 1.365912e+00	-6.460821e+01
1	 3.531121e-01	 1.370041e+00	-6.375575e+01
1	 3.374664e-01	 1.373979e+00	-6.286130e+01
1	 3.218266e-01	 1.377726e+00	-6.191123e+01
1	 3.061960e-01	 1.381284e+00	-6.089215e+01
1	 3.864212e-01	 1.368720e+00	-6.516719e+01
1	 3.706913e-01	 1.373064e+00	-6.436595e+01
1	 3.549609e-01	 1.377214e+00	-6.354511e+01
1	 3.392332e-01	 1.381172e+00	-6.268926e+01
1	 3.235116e-01	 1.384939e+00	-6.178314e+01
1	 3.077991e-01	 1.388516e+00	-6.081169e+01
1	 3.884338e-01	 1.375849e+00	-6.482647e+01
1	 3.726220e-01	 1.380215e+00	-6.404928e+01
1	 3.568096e-01	 1.384387e+00	-6.326159e+01
1	 3.410001e-01	 1.388366e+00	-6.244638e+01
1	 3.251965e-01	 1.392152e+00	-6.158682e+01
1	 3.094022e-01	 1.395748e+00	-6.066622e+01
1	 3.904464e-01	 1.382978e+00	-6.441014e+01
1	 3.745527e-01	 1.387366e+00	-6.365807e+01
1	 3.586584e-01	 1.391560e+00	-6.290510e+01
1	 3.427669e-01	 1.395559e+00	-6.213267e+01
1	 3.268815e-01	 1.399366e+00	-6.132234e+01
1	 3.110054e-01	 1.402979e+00	-6.045589e+01
1	 3.924590e-01	 1.390106e+00	-6.391805e+01
1	 3.764834e-01	 1.394518e+00	-6.319221e+01
1	 3.605072e-01	 1.398733e+00	-6.247559e+01
1	 3.445337e-01	 1.402753e+00	-6.174809e+01
1	 3.285664e-01	 1.406579e+00	-6.098977e+01
1	 3.126085e-01	 1.410211e+00	-6.018090e+01
1	 3.045929e-01	 1.374052e+00	-6.090741e+01
1	 2.890564e-01	 1.377404e+00	-5.978592e+01
1	 2.735353e-01	 1.380570e+00	-5.864013e+01
1	 2.580325e-01	 1.383552e+00	-5.748745e+01
1	 2.425512e-01	 1.386349e+00	-5.634521e+01
1	 2.270943e-01	 1.388965e+00	-5.523070e+01
1	 3.061960e-01	 1.381284e+00	-6.089215e+01
1	 2.905777e-01	 1.384654e+00	-5.981832e+01
1	 2.749749e-01	 1.387836e+00	-5.872425e+01
1	 2.593906e-01	 1.390833e+00	-5.762698e+01
1	 2.438278e-01	 1.393646e+00	-5.654352e+01
1	 2.282895e-01	 1.396275e+00	-5.549081e+01
1	 3.077991e-01	 1.388516e+00	-6.081169e+01
1	 2.920991e-01	 1.391903e+00	-5.978928e+01
1	 2.764146e-01	 1.395103e+00	-5.875123e+01
1	 2.607487e-01	 1.398115e+00	-5.771405e+01
1	 2.451044e-01	 1.400942e+00	-5.669424e+01
1	 2.294847e-01	 1.403586e+00	-5.570822e+01
1	 3.094022e-01	 1.395748e+00	-6.066622e+01
1	 2.936204e-01	 1.399153e+00	-5.969906e+01
1	 2.778542e-01	 1.402369e+00	-5.872139e+01
1	 2.621067e-01	 1.405397e+00	-5.774900e+01
1	 2.463810e-01	 1.408239e+00	-5.679769e+01
1	 2.306800e-01	 1.410896e+00	-5.588317e+01
1	 3.110054e-01	 1.402979e+00	-6.045589e+01
1	 2.951418e-01	 1.406402e+00	-5.954793e+01
1	 2.792939e-01	 1.409635e+00	-5.863504e+01
1	 2.634648e-01	 1.412679e+00	-5.773216e+01
1	 2.476576e-01	 1.415536e+00	-5.685417e+01
1	 2.318752e-01	 1.418206e+00	-5.601591e+01
1	 3.126085e-01	 1.410211e+00	-6.018090e+01
1	 2.966631e-01	 1.413652e+00	-5.933614e+01
1	 2.807336e-01	 1.416901e+00	-5.849250e+01
1	 2.648229e-01	 1.419961e+00	-5.766383e+01
1	 2.489342e-01	 1.422832e+00	-5.686397e+01
1	 2.330704e-01	 1.425517e+00	-5.610668e+01
1	 2.270943e-01	 1.388965e+00	-5.523070e+01
1	 2.116645e-01	 1.391400e+00	-5.415409e+01
1	 1.962649e-01	 1.393656e+00	-5.311436e+01
1	 1.808981e-01	 1.395733e+00	-5.211183e+01
1	 1.655669e-01	 1.397635e+00	-5.114679e+01
1	 1.502741e-01	 1.399362e+00	-5.021944e+01
1	 2.282895e-01	 1.396275e+00	-5.549081e+01
1	 2.127785e-01	 1.398723e+00	-5.447796e+01
1	 1.972978e-01	 1.400991e+00	-5.350224e+01
1	 1.818502e-01	 1.403079e+00	-5.256278e+01
1	 1.664383e-01	 1.404991e+00	-5.165865e+01
1	 1.510650e-01	 1.406727e+00	-5.078887e+01
1	 2.294847e-01	 1.403586e+00	-5.570822e+01
1	 2.138926e-01	 1.406046e+00	-5.476383e+01
1	 1.983308e-01	 1.408326e+00	-5.385667e+01
1	 1.828023e-01	 1.410425e+00	-5.298471e+01
1	 1.673097e-01	 1.412347e+00	-5.214588e+01
1	 1.518559e-01	 1.414092e+00	-5.133807e+01
1	 2.306800e-01	 1.410896e+00	-5.588317e+01
1	 2.150066e-01	 1.413369e+00	-5.501189e+01
1	 1.993638e-01	 1.415661e+00	-5.417779e+01
1	 1.837544e-01	 1.417771e+00	-5.337773e+01
1	 1.681811e-01	 1.419703e+00	-5.260857e+01
1	 1.526468e-01	 1.421457e+00	-5.186713e+01
1	 2.318752e-01	 1.418206e+00	-5.601591e+01
1	 2.161206e-01	 1.420693e+00	-5.522232e+01
1	 2.003968e-01	 1.422996e+00	-5.446573e+01
1	 1.847065e-01	 1.425117e+00	-5.374195e+01
1	 1.690526e-01	 1.427059e+00	-5.304680e+01
1	 1.534377e-01	 1.428822e+00	-5.237611e+01
1	 2.330704e-01	 1.425517e+00	-5.610668e+01
1	 2.172346e-01	 1.428016e+00	-5.539531e+01
1	 2.014297e-01	 1.430331e+00	-5.472063e+01
1	 1.856586e-01	 1.432463e+00	-5.407746e+01
1	 1.699240e-01	 1.434415e+00	-5.346066e+01
1	 1.542286e-01	 1.436187e+00	-5.286511e+01
1	 1.502741e-01	 1.399362e+00	-5.021944e+01
1	 1.350221e-01	 1.400916e+00	-4.933351e+01
1	 1.198136e-01	 1.402298e+00	-4.849559e+01
1	 1.046511e-01	 1.403511e+00	-4.771006e+01
1	 8.953704e-02	 1.404556e+00	-4.698110e+01
1	 7.447382e-02	 1.405436e+00	-4.631272e+01
1	 1.510650e-01	 1.406727e+00	-5.078887e+01
1	 1.357327e-01	 1.408289e+00	-4.995610e+01
1	 1.204442e-01	 1.409679e+00	-4.916603e+01
1	 1.052019e-01	 1.410898e+00	-4.842205e+01
1	 9.000829e-02	 1.411949e+00	-4.772742e+01
1	 7.486579e-02	 1.412833e+00	-4.708519e+01
1	 1.518559e-01	 1.414092e+00	-5.133807e+01
1	 1.364434e-01	 1.415662e+00	-5.056290e+01
1	 1.210748e-01	 1.417059e+00	-4.982500e+01
1	 1.057527e-01	 1.418285e+00	-4.912667e+01
1	 9.047954e-02	 1.419341e+00	-4.847007e+01
1	 7.525776e-02	 1.420230e+00	-4.785721e+01
1	 1.526468e-01	 1.421457e+00	-5.186713e+01
1	 1.371540e-01	 1.423035e+00	-5.115398e+01
1	 1.217054e-01	 1.424440e+00	-5.047258e+01
1	 1.063035e-01	 1.425672e+00	-4.982399e+01
1	 9.095079e-02	 1.426734e+00	-4.920913e+01
1	 7.564973e-02	 1.427627e+00	-4.862883e+01
1	 1.534377e-01	 1.428822e+00	-5.237611e+01
1	 1.378647e-01	 1.430409e+00	-5.172941e+01
1	 1.223360e-01	 1.431820e+00	-5.110884e+01
1	 1.068543e-01	 1.433059e+00	-5.051408e+01
1	 9.142203e-02	 1.434126e+00	-4.994468e+01
1	 7.604169e-02	 1.435024e+00	-4.940013e+01
1	 1.542286e-01	 1.436187e+00	-5.286511e+01
1	 1.385753e-01	 1.437782e+00	-5.228927e+01
1	 1.229666e-01	 1.439201e+00	-5.173386e+01
1	 1.074051e-01	 1.440446e+00	-5.119700e+01
1	 9.189328e-02	 1.441518e+00	-5.067678e+01
1	 7.643366e-02	 1.442421e+00	-5.017119e+01
1	 7.447382e-02	 1.405436e+00	-4.631272e+01
1	 5.946378e-02	 1.406151e+00	-4.570776e+01
1	 4.450918e-02	 1.406703e+00	-4.516973e+01
1	 2.961226e-02	 1.407096e+00	-4.470319e+01
1	 1.477517e-02	 1.407330e+00	-4.431244e+01
1	 0.000000e+00	 1.407407e+00	-4.400148e+01
1	 7.486579e-02	 1.412833e+00	-4.708519e+01
1	 5.977675e-02	 1.413551e+00	-4.649728e+01
1	 4.474344e-02	 1.414107e+00	-4.596627e+01
1	 2.976811e-02	 1.414502e+00	-4.549594e+01
1	 1.485293e-02	 1.414737e+00	-4.508980e+01
1	 0.000000e+00	 1.414815e+00	-4.475113e+01
1	 7.525776e-02	 1.420230e+00	-4.785721e+01
1	 6.008971e-02	 1.420952e+00	-4.728890e+01
1	 4.497770e-02	 1.421511e+00	-4.676680e+01
1	 2.992397e-02	 1.421907e+00	-4.629388e+01
1	 1.493069e-02	 1.422144e+00	-4.587286e+01
1	 0.000000e+00	 1.422222e+00	-4.550624e+01
1	 7.564973e-02	 1.427627e+00	-4.862883e+01
1	 6.040268e-02	 1.428353e+00	-4.808270e+01
1	 4.521196e-02	 1.428915e+00	-4.757142e+01
1	 3.007982e-02	 1.429313e+00	-4.709713e+01
1	 1.500846e-02	 1.429551e+00	-4.666174e+01
1	 0.000000e+00	 1.429630e+00	-4.626698e+01
1	 7.604169e-02	 1.435024e+00	-4.940013e+01
1	 6.071565e-02	 1.435754e+00	-4.887876e+01
1	 4.544622e-02	 1.436318e+00	-4.838023e+01
1	 3.023568e-02	 1.436719e+00	-4.790582e+01
1	 1.508622e-02	 1.436958e+00	-4.745662e+01
1	 0.000000e+00	 1.437037e+00	-4.703353e+01
1	 7.643366e-02	 1.442421e+00	-5.017119e+01
1	 6.102861e-02	 1.443155e+00	-4.967717e+01
1	 4.568048e-02	 1.443722e+00	-4.919333e+01
1	 3.039153e-02	 1.444125e+00	-4.872007e+01
1	 1.516399e-02	 1.444365e+00	-4.825761e+01
1	 0.000000e+00	 1.444444e+00	-4.780606e+01
1	 1.444444e+00	 0.000000e+00	 1.827165e+01
1	 1.444365e+00	 1.516399e-02	 1.787527e+01
1	 1.444125e+00	 3.039153e-02	 1.750241e+01
1	 1.443722e+00	 4.568048e-02	 1.715266e+01
1	 1.443155e+00	 6.102861e-02	 1.682556e+01
1	 1.442421e+00	 7.643366e-02	 1.652063e+01
1	 1.451852e+00	 0.000000e+00	 1.817893e+01
1	 1.451772e+00	 1.524175e-02	 1.778350e+01
1	 1.451530e+00	 3.054738e-02	 1.740884e+01
1	 1.451126e+00	 4.591474e-02	 1.705471e+01
1	 1.450555e+00	 6.134158e-02	 1.672086e+01
1	 1.449818e+00	 7.682563e-02	 1.640698e+01
1	 1.459259e+00	 0.000000e+00	 1.809045e+01
1	 1.459179e+00	 1.531951e-02	 1.769654e+01
1	 1.458936e+00	 3.070324e-02	 1.732048e+01
1	 1.458529e+00	 4.614900e-02	 1.696223e+01
1	 1.457956e+00	 6.165455e-02	 1.662172e+01
1	 1.457215e+00	 7.721760e-02	 1.629884e+01
1	 1.466667e+00	 0.000000e+00	 1.800624e+01
1	 1.466586e+00	 1.539728e-02	 1.761444e+01
1	 1.466342e+00	 3.085909e-02	 1.723741e+01
1	 1.465933e+00	 4.638326e-02	 1.687530e+01
1	 1.465357e+00	 6.196752e-02	 1.652826e+01
1	 1.464612e+00	 7.760956e-02	 1.619639e+01
1	 1.474074e+00	 0.000000e+00	 1.792633e+01
1	 1.473993e+00	 1.547504e-02	 1.753725e+01
1	 1.473748e+00	 3.101495e-02	 1.715968e+01
1	 1.473337e+00	 4.661751e-02	 1.679402e+01
1	 1.472758e+00	 6.228048e-02	 1.644062e+01
1	 1.472009e+00	 7.800153e-02	 1.609981e+01
1	 1.481481e+00	 0.000000e+00	 1.785075e+01
1	 1.481400e+00	 1.555281e-02	 1.746500e+01
1	 1.481154e+00	 3.117080e-02	 1.708737e+01
1	 1.480740e+00	 4.685177e-02	 1.671848e+01
1	 1.480159e+00	 6.259345e-02	 1.635892e+01
1	 1.479406e+00	 7.839350e-02	 1.600925e+01
1	 1.442421e+00	 7.643366e-02	 1.652063e+01
1	 1.441518e+00	 9.189328e-02	 1.624098e+01
1	 1.440446e+00	 1.074051e-01	 1.599008e+01
1	 1.439201e+00	 1.229666e-01	 1.576792e+01
1	 1.437782e+00	 1.385753e-01	 1.557446e+01
1	 1.436187e+00	 1.542286e-01	 1.540962e+01
1	 1.449818e+00	 7.682563e-02	 1.640698e+01
1	 1.448911e+00	 9.236453e-02	 1.611635e+01
1	 1.447833e+00	 1.079559e-01	 1.585269e+01
1	 1.446581e+00	 1.235972e-01	 1.561629e+01
1	 1.445155e+00	 1.392859e-01	 1.540740e+01
1	 1.443552e+00	 1.550196e-01	 1.522625e+01
1	 1.457215e+00	 7.721760e-02	 1.629884e+01
1	 1.456303e+00	 9.283578e-02	 1.599706e+01
1	 1.455220e+00	 1.085067e-01	 1.572032e+01
1	 1.453962e+00	 1.242278e-01	 1.546920e+01
1	 1.452528e+00	 1.399966e-01	 1.524427e+01
1	 1.450917e+00	 1.558105e-01	 1.504605e+01
1	 1.464612e+00	 7.760956e-02	 1.619639e+01
1	 1.463696e+00	 9.330702e-02	 1.588333e+01
1	 1.462606e+00	 1.090575e-01	 1.559321e+01
1	 1.461342e+00	 1.248584e-01	 1.532695e+01
1	 1.459902e+00	 1.407072e-01	 1.508539e+01
1	 1.458282e+00	 1.566014e-01	 1.486936e+01
1	 1.472009e+00	 7.800153e-02	 1.609981e+01
1	 1.471088e+00	 9.377827e-02	 1.577536e+01
1	 1.469993e+00	 1.096083e-01	 1.547163e+01
1	 1.468723e+00	 1.254890e-01	 1.518981e+01
1	 1.467275e+00	 1.414179e-01	 1.493107e+01
1	 1.465647e+00	 1.573923e-01	 1.469653e+01
1	 1.479406e+00	 7.839350e-02	 1.600925e+01
1	 1.478480e+00	 9.424952e-02	 1.567338e+01
1	 1.477380e+00	 1.101591e-01	 1.535582e+01
1	 1.476103e+00	 1.261196e-01	 1.505807e+01
1	 1.474648e+00	 1.421285e-01	 1.478161e+01
1	 1.473012e+00	 1.581832e-01	 1.452788e+01
1	 1.436187e+00	 1.542286e-01	 1.540962e+01
1	 1.434415e+00	 1.699240e-01	 1.527236e+01
1	 1.432463e+00	 1.856586e-01	 1.516185e+01
1	 1.430331e+00	 2.014297e-01	 1.507834e+01
1	 1.428016e+00	 2.172346e-01	 1.502201e+01
1	 1.425517e+00	 2.330704e-01	 1.499306e+01
1	 1.443552e+00	 1.550196e-01	 1.522625e+01
1	 1.441771e+00	 1.707954e-01	 1.507202e+01
1	 1.439809e+00	 1.866107e-01	 1.494405e+01
1	 1.437666e+00	 2.024627e-01	 1.484274e+01
1	 1.435339e+00	 2.183487e-01	 1.476847e+01
1	 1.432827e+00	 2.342656e-01	 1.472161e+01
1	 1.450917e+00	 1.558105e-01	 1.504605e+01
1	 1.449127e+00	 1.716668e-01	 1.487398e+01
1	 1.447155e+00	 1.875628e-01	 1.472761e+01
1	 1.445001e+00	 2.034957e-01	 1.460757e+01
1	 1.442662e+00	 2.194627e-01	 1.451445e+01
1	 1.440137e+00	 2.354609e-01	 1.444883e+01
1	 1.458282e+00	 1.566014e-01	 1.486936e+01
1	 1.456483e+00	 1.725382e-01	 1.467860e+01
1	 1.454501e+00	 1.885149e-01	 1.451290e+01
1	 1.452336e+00	 2.045287e-01	 1.437316e+01
1	 1.449985e+00	 2.205767e-01	 1.426024e+01
1	 1.447448e+00	 2.366561e-01	 1.417496e+01
1	 1.465647e+00	 1.573923e-01	 1.469653e+01
1	 1.463839e+00	 1.734096e-01	 1.448623e+01
1	 1.461847e+00	 1.894670e-01	 1.430027e+01
1	 1.459671e+00	 2.055616e-01	 1.413984e+01
1	 1.457308e+00	 2.216907e-01	 1.400611e+01
1	 1.454758e+00	 2.378513e-01	 1.390021e+01
1	 1.473012e+00	 1.581832e-01	 1.452788e+01
1	 1.471195e+00	 1.742810e-01	 1.429721e+01
1	 1.469193e+00	 1.904191e-01	 1.409005e+01
1	 1.467006e+00	 2.065946e-01	 1.390794e+01
1	 1.464631e+00	 2.228048e-01	 1.375236e+01
1	 1.462068e+00	 2.390466e-01	 1.362480e+01
1	 1.425517e+00	 2.330704e-01	 1.499306e+01
1	 1.422832e+00	 2.489342e-01	 1.499835e+01
1	 1.419961e+00	 2.648229e-01	 1.504281e+01
1	 1.416901e+00	 2.807336e-01	 1.512366e+01
1	 1.413652e+00	 2.966631e-01	 1.523811e+01
1	 1.410211e+00	 3.126085e-01	 1.538341e+01
1	 1.432827e+00	 2.342656e-01	 1.472161e+01
1	 1.430129e+00	 2.502107e-01	 1.470956e+01
1	 1.427243e+00	 2.661809e-01	 1.473779e+01
1	 1.424167e+00	 2.821732e-01	 1.480365e+01
1	 1.420901e+00	 2.981845e-01	 1.490453e+01
1	 1.417443e+00	 3.142116e-01	 1.503782e+01
1	 1.440137e+00	 2.354609e-01	 1.444883e+01
1	 1.437425e+00	 2.514873e-01	 1.441867e+01
1	 1.434524e+00	 2.675390e-01	 1.442989e+01
1	 1.431433e+00	 2.836129e-01	 1.448003e+01
1	 1.428151e+00	 2.997058e-01	 1.456663e+01
1	 1.424675e+00	 3.158147e-01	 1.468723e+01
1	 1.447448e+00	 2.366561e-01	 1.417496e+01
1	 1.444722e+00	 2.527639e-01	 1.412582e+01
1	 1.441806e+00	 2.688971e-01	 1.411921e+01
1	 1.438699e+00	 2.850525e-01	 1.415286e+01
1	 1.435400e+00	 3.012272e-01	 1.422445e+01
1	 1.431907e+00	 3.174178e-01	 1.433169e+01
1	 1.454758e+00	 2.378513e-01	 1.390021e+01
1	 1.452019e+00	 2.540405e-01	 1.383117e+01
1	 1.449088e+00	 2.702551e-01	 1.380587e+01
1	 1.445966e+00	 2.864922e-01	 1.382220e+01
1	 1.442650e+00	 3.027485e-01	 1.387803e+01
1	 1.439139e+00	 3.190210e-01	 1.397122e+01
1	 1.462068e+00	 2.390466e-01	 1.362480e+01
1	 1.459315e+00	 2.553171e-01	 1.353486e+01
1	 1.456370e+00	 2.716132e-01	 1.348995e+01
1	 1.453232e+00	 2.879319e-01	 1.348813e+01
1	 1.449899e+00	 3.042699e-01	 1.352742e+01
1	 1.446370e+00	 3.206241e-01	 1.360586e+01
1	 1.410211e+00	 3.126085e-01	 1.538341e+01
1	 1.406579e+00	 3.285664e-01	 1.554400e+01
1	 1.402753e+00	 3.445337e-01	 1.570761e+01
1	 1.398733e+00	 3.605072e-01	 1.587646e+01
1	 1.394518e+00	 3.764834e-01	 1.605271e+01
1	 1.390106e+00	 3.924590e-01	 1.623848e+01
1	 1.417443e+00	 3.142116e-01	 1.503782e+01
1	 1.413792e+00	 3.302514e-01	 1.518730e+01
1	 1.409947e+00	 3.463006e-01	 1.534010e+01
1	 1.405906e+00	 3.623559e-01	 1.549865e+01
1	 1.401669e+00	 3.784140e-01	 1.566531e+01
1	 1.397235e+00	 3.944716e-01	 1.584239e+01
1	 1.424675e+00	 3.158147e-01	 1.468723e+01
1	 1.421005e+00	 3.319363e-01	 1.482504e+01
1	 1.417140e+00	 3.480674e-01	 1.496662e+01
1	 1.413079e+00	 3.642047e-01	 1.511456e+01
1	 1.408821e+00	 3.803447e-01	 1.527142e+01
1	 1.404364e+00	 3.964842e-01	 1.543967e+01
1	 1.431907e+00	 3.174178e-01	 1.433169e+01
1	 1.428218e+00	 3.336213e-01	 1.445726e+01
1	 1.424334e+00	 3.498343e-01	 1.458723e+01
1	 1.420252e+00	 3.660534e-01	 1.472433e+01
1	 1.415972e+00	 3.822754e-01	 1.487124e+01
1	 1.411493e+00	 3.984968e-01	 1.503060e+01
1	 1.439139e+00	 3.190210e-01	 1.397122e+01
1	 1.435432e+00	 3.353062e-01	 1.408401e+01
1	 1.431528e+00	 3.516011e-01	 1.420202e+01
1	 1.427425e+00	 3.679022e-01	 1.432807e+01
1	 1.423123e+00	 3.842061e-01	 1.446497e+01
1	 1.418621e+00	 4.005095e-01	 1.461548e+01
1	 1.446370e+00	 3.206241e-01	 1.360586e+01
1	 1.442645e+00	 3.369912e-01	 1.370535e+01
1	 1.438721e+00	 3.533679e-01	 1.381107e+01
1	 1.434598e+00	 3.697509e-01	 1.392592e+01
1	 1.430275e+00	 3.861368e-01	 1.405281e+01
1	 1.425750e+00	 4.025221e-01	 1.419458e+01
1	 1.390106e+00	 3.924590e-01	 1.623848e+01
1	 1.385498e+00	 4.084307e-01	 1.639913e+01
1	 1.380691e+00	 4.243950e-01	 1.649925e+01
1	 1.375686e+00	 4.403485e-01	 1.653991e+01
1	 1.370482e+00	 4.562876e-01	 1.652235e+01
1	 1.365078e+00	 4.722087e-01	 1.644799e+01
1	 1.397235e+00	 3.944716e-01	 1.584239e+01
1	 1.392603e+00	 4.105252e-01	 1.599641e+01
1	 1.387772e+00	 4.265714e-01	 1.609276e+01
1	 1.382741e+00	 4.426067e-01	 1.613216e+01
1	 1.377510e+00	 4.586275e-01	 1.611555e+01
1	 1.372079e+00	 4.746303e-01	 1.604402e+01
1	 1.404364e+00	 3.964842e-01	 1.543967e+01
1	 1.399708e+00	 4.126197e-01	 1.558699e+01
1	 1.394852e+00	 4.287478e-01	 1.567958e+01
1	 1.389796e+00	 4.448649e-01	 1.571788e+01
1	 1.384538e+00	 4.609674e-01	 1.570247e+01
1	 1.379079e+00	 4.770519e-01	 1.563414e+01
1	 1.411493e+00	 3.984968e-01	 1.503060e+01
1	 1.406813e+00	 4.147143e-01	 1.517121e+01
1	 1.401933e+00	 4.309242e-01	 1.526011e+01
1	 1.396851e+00	 4.471231e-01	 1.529740e+01
1	 1.391567e+00	 4.633074e-01	 1.528337e+01
1	 1.386079e+00	 4.794735e-01	 1.521847e+01
1	 1.418621e+00	 4.005095e-01	 1.461548e+01
1	 1.413918e+00	 4.168088e-01	 1.474946e+01
1	 1.409013e+00	 4.331006e-01	 1.483473e+01
1	 1.403906e+00	 4.493813e-01	 1.487109e+01
1	 1.398595e+00	 4.656473e-01	 1.485851e+01
1	 1.393080e+00	 4.818951e-01	 1.479711e+01
1	 1.425750e+00	 4.025221e-01	 1.419458e+01
1	 1.421023e+00	 4.189033e-01	 1.432207e+01
1	 1.416094e+00	 4.352769e-01	 1.440380e+01
1	 1.410960e+00	 4.516395e-01	 1.443928e+01
1	 1.405623e+00	 4.679872e-01	 1.442814e+01
1	 1.400080e+00	 4.843166e-01	 1.437019e+01
1	 1.365078e+00	 4.722087e-01	 1.644799e+01
1	 1.359474e+00	 4.881084e-01	 1.630726e+01
1	 1.353669e+00	 5.039830e-01	 1.608887e+01
1	 1.347664e+00	 5.198290e-01	 1.579182e+01
1	 1.341457e+00	 5.356425e-01	 1.541524e+01
1	 1.335049e+00	 5.514200e-01	 1.495832e+01
1	 1.372079e+00	 4.746303e-01	 1.604402e+01
1	 1.366446e+00	 4.906116e-01	 1.590742e+01
1	 1.360611e+00	 5.065676e-01	 1.569408e+01
1	 1.354575e+00	 5.224948e-01	 1.540301e+01
1	 1.348336e+00	 5.383894e-01	 1.503332e+01
1	 1.341895e+00	 5.542478e-01	 1.458423e+01
1	 1.379079e+00	 4.770519e-01	 1.563414e+01
1	 1.373417e+00	 4.931147e-01	 1.550214e+01
1	 1.367553e+00	 5.091521e-01	 1.529439e+01
1	 1.361486e+00	 5.251605e-01	 1.500991e+01
1	 1.355216e+00	 5.411363e-01	 1.464782e+01
1	 1.348742e+00	 5.570756e-01	 1.420736e+01
1	 1.386079e+00	 4.794735e-01	 1.521847e+01
1	 1.380389e+00	 4.956178e-01	 1.509139e+01
1	 1.374495e+00	 5.117366e-01	 1.488970e+01
1	 1.368397e+00	 5.278263e-01	 1.461242e+01
1	 1.362095e+00	 5.438832e-01	 1.425868e+01
1	 1.355588e+00	 5.599034e-01	 1.382776e+01
1	 1.393080e+00	 4.818951e-01	 1.479711e+01
1	 1.387361e+00	 4.981209e-01	 1.467513e+01
1	 1.381437e+00	 5.143212e-01	 1.447989e+01
1	 1.375308e+00	 5.304921e-01	 1.421040e+01
1	 1.368974e+00	 5.466301e-01	 1.386582e+01
1	 1.362435e+00	 5.627312e-01	 1.344545e+01
1	 1.400080e+00	 4.843166e-01	 1.437019e+01
1	 1.394332e+00	 5.006240e-01	 1.425334e+01
1	 1.388379e+00	 5.169057e-01	 1.406487e+01
1	 1.382219e+00	 5.331579e-01	 1.380375e+01
1	 1.375853e+00	 5.493769e-01	 1.346917e+01
1	 1.369281e+00	 5.655590e-01	 1.306049e+01
1	 1.335049e+00	 5.514200e-01	 1.495832e+01
1	 1.328440e+00	 5.671578e-01	 1.440885e+01
1	 1.321629e+00	 5.828521e-01	 1.375655e+01
1	 1.314617e+00	 5.984993e-01	 1.300376e+01
1	 1.307404e+00	 6.140956e-01	 1.215283e+01
1	 1.299991e+00	 6.296372e-01	 1.120625e+01
1	 1.341895e+00	 5.542478e-01	 1.458423e+01
1	 1.335252e+00	 5.700663e-01	 1.404325e+01
1	 1.328407e+00	 5.858411e-01	 1.339977e+01
1	 1.321359e+00	 6.015685e-01	 1.265595e+01
1	 1.314109e+00	 6.172448e-01	 1.181405e+01
1	 1.306658e+00	 6.328661e-01	 1.087636e+01
1	 1.348742e+00	 5.570756e-01	 1.420736e+01
1	 1.342065e+00	 5.729748e-01	 1.367570e+01
1	 1.335184e+00	 5.888301e-01	 1.304179e+01
1	 1.328100e+00	 6.046378e-01	 1.230764e+01
1	 1.320814e+00	 6.203940e-01	 1.147534e+01
1	 1.313324e+00	 6.360950e-01	 1.054702e+01
1	 1.355588e+00	 5.599034e-01	 1.382776e+01
1	 1.348877e+00	 5.758833e-01	 1.330636e+01
1	 1.341962e+00	 5.918191e-01	 1.268284e+01
1	 1.334842e+00	 6.077070e-01	 1.195907e+01
1	 1.327518e+00	 6.235432e-01	 1.113693e+01
1	 1.319991e+00	 6.393239e-01	 1.021835e+01
1	 1.362435e+00	 5.627312e-01	 1.344545e+01
1	 1.355690e+00	 5.787918e-01	 1.293537e+01
1	 1.348739e+00	 5.948081e-01	 1.232314e+01
1	 1.341584e+00	 6.107762e-01	 1.161046e+01
1	 1.334223e+00	 6.266924e-01	 1.079900e+01
1	 1.326658e+00	 6.425528e-01	 9.890473e+00
1	 1.369281e+00	 5.655590e-01	 1.306049e+01
1	 1.362502e+00	 5.817003e-01	 1.256290e+01
1	 1.355517e+00	 5.977971e-01	 1.196292e+01
1	 1.348325e+00	 6.138455e-01	 1.126205e+01
1	 1.340928e+00	 6.298416e-01	 1.046176e+01
1	 1.333324e+00	 6.457817e-01	 9.563491e+00
1	 1.299991e+00	 6.296372e-01	 1.120625e+01
1	 1.292377e+00	 6.451203e-01	 1.014625e+01
1	 1.284564e+00	 6.605413e-01	 8.951633e+00
1	 1.276552e+00	 6.758964e-01	 7.619470e+00
1	 1.268341e+00	 6.911817e-01	 6.146530e+00
1	 1.259932e+00	 7.063935e-01	 4.529279e+00
1	 1.306658e+00	 6.328661e-01	 1.087636e+01
1	 1.299005e+00	 6.484286e-01	 9.823556e+00
1	 1.291152e+00	 6.639287e-01	 8.633145e+00
1	 1.283098e+00	 6.793625e-01	 7.302531e+00
1	 1.274845e+00	 6.947262e-01	 5.828856e+00
1	 1.266393e+00	 7.100161e-01	 4.209001e+00
1	 1.313324e+00	 6.360950e-01	 1.054702e+01
1	 1.305633e+00	 6.517370e-01	 9.501982e+00
1	 1.297739e+00	 6.673161e-01	 8.316711e+00
1	 1.289644e+00	 6.828286e-01	 6.988993e+00
1	 1.281349e+00	 6.982707e-01	 5.516394e+00
1	 1.272854e+00	 7.136386e-01	 3.896275e+00
1	 1.319991e+00	 6.393239e-01	 1.021835e+01
1	 1.312260e+00	 6.550453e-01	 9.181568e+00
1	 1.304327e+00	 6.707035e-01	 8.002367e+00
1	 1.296191e+00	 6.862948e-01	 6.678954e+00
1	 1.287853e+00	 7.018152e-01	 5.209379e+00
1	 1.279315e+00	 7.172611e-01	 3.591541e+00
1	 1.326658e+00	 6.425528e-01	 9.890473e+00
1	 1.318888e+00	 6.583536e-01	 8.862354e+00
1	 1.310914e+00	 6.740909e-01	 7.690146e+00
1	 1.302737e+00	 6.897609e-01	 6.372514e+00
1	 1.294358e+00	 7.053598e-01	 4.908041e+00
1	 1.285776e+00	 7.208837e-01	 3.295227e+00
1	 1.333324e+00	 6.457817e-01	 9.563491e+00
1	 1.325515e+00	 6.616619e-01	 8.544381e+00
1	 1.317502e+00	 6.774783e-01	 7.380082e+00
1	 1.309284e+00	 6.932270e-01	 6.069768e+00
1	 1.300862e+00	 7.089043e-01	 4.612606e+00
1	 1.292238e+00	 7.245062e-01	 3.007756e+00
1	 1.259932e+00	 7.063935e-01	 4.529279e+00
1	 1.251326e+00	 7.215282e-01	 2.817101e+00
1	 1.242524e+00	 7.365818e-01	 1.065495e+00
1	 1.233528e+00	 7.515508e-01	-7.196317e-01
1	 1.224338e+00	 7.664313e-01	-2.531733e+00
1	 1.214955e+00	 7.812197e-01	-4.363626e+00
1	 1.266393e+00	 7.100161e-01	 4.209001e+00
1	 1.257743e+00	 7.252283e-01	 2.496735e+00
1	 1.248896e+00	 7.403592e-01	 7.514558e-01
1	 1.239854e+00	 7.554049e-01	-1.021234e+00
1	 1.230616e+00	 7.703617e-01	-2.815114e+00
1	 1.221185e+00	 7.852260e-01	-4.623346e+00
1	 1.272854e+00	 7.136386e-01	 3.896275e+00
1	 1.264160e+00	 7.289284e-01	 2.186524e+00
1	 1.255268e+00	 7.441365e-01	 4.500708e-01
1	 1.246180e+00	 7.592590e-01	-1.307879e+00
1	 1.236895e+00	 7.742922e-01	-3.081535e+00
1	 1.227416e+00	 7.892322e-01	-4.864528e+00
1	 1.279315e+00	 7.172611e-01	 3.591541e+00
1	 1.270577e+00	 7.326286e-01	 1.887090e+00
1	 1.261640e+00	 7.479138e-01	 1.620333e-01
1	 1.252505e+00	 7.631131e-01	-1.578911e+00
1	 1.243174e+00	 7.782226e-01	-3.330489e+00
1	 1.233647e+00	 7.932385e-01	-5.086918e+00
1	 1.285776e+00	 7.208837e-01	 3.295227e+00
1	 1.276994e+00	 7.363287e-01	 1.599042e+00
1	 1.268012e+00	 7.516912e-01	-1.119774e-01
1	 1.258831e+00	 7.669672e-01	-1.833689e+00
1	 1.249452e+00	 7.821530e-01	-3.561480e+00
1	 1.239877e+00	 7.972448e-01	-5.290268e+00
1	 1.292238e+00	 7.245062e-01	 3.007756e+00
1	 1.283411e+00	 7.400289e-01	 1.322976e+00
1	 1.274384e+00	 7.554685e-01	-3.712961e-01
1	 1.265157e+00	 7.708213e-01	-2.071586e+00
1	 1.255731e+00	 7.860834e-01	-3.774020e+00
1	 1.246108e+00	 8.012510e-01	-5.474336e+00
1	 1.214955e+00	 7.812197e-01	-4.363626e+00
1	 1.205381e+00	 7.959124e-01	-6.146959e+00
1	 1.195617e+00	 8.105055e-01	-7.822893e+00
1	 1.185665e+00	 8.249956e-01	-9.398466e+00
1	 1.175526e+00	 8.393791e-01	-1.088128e+01
1	 1.165203e+00	 8.536522e-01	-1.227948e+01
1	 1.221185e+00	 7.852260e-01	-4.623346e+00
1	 1.211562e+00	 7.999940e-01	-6.382450e+00
1	 1.201749e+00	 8.146620e-01	-8.038084e+00
1	 1.191746e+00	 8.292264e-01	-9.597111e+00
1	 1.181555e+00	 8.436836e-01	-1.106698e+01
1	 1.171178e+00	 8.580299e-01	-1.245569e+01
1	 1.227416e+00	 7.892322e-01	-4.864528e+00
1	 1.217744e+00	 8.040756e-01	-6.598282e+00
1	 1.207880e+00	 8.188184e-01	-8.232839e+00
1	 1.197826e+00	 8.334571e-01	-9.774772e+00
1	 1.187583e+00	 8.479881e-01	-1.123124e+01
1	 1.177154e+00	 8.624076e-01	-1.260999e+01
1	 1.233647e+00	 7.932385e-01	-5.086918e+00
1	 1.223925e+00	 8.081572e-01	-6.794455e+00
1	 1.214011e+00	 8.229749e-01	-8.407298e+00
1	 1.203906e+00	 8.376879e-01	-9.931621e+00
1	 1.193612e+00	 8.522926e-01	-1.137418e+01
1	 1.183129e+00	 8.667854e-01	-1.274230e+01
1	 1.239877e+00	 7.972448e-01	-5.290268e+00
1	 1.230107e+00	 8.122388e-01	-6.970965e+00
1	 1.220143e+00	 8.271313e-01	-8.561596e+00
1	 1.209987e+00	 8.419186e-01	-1.006783e+01
1	 1.199640e+00	 8.565971e-01	-1.149588e+01
1	 1.189104e+00	 8.711631e-01	-1.285254e+01
1	 1.246108e+00	 8.012510e-01	-5.474336e+00
1	 1.236288e+00	 8.163204e-01	-7.127813e+00
1	 1.226274e+00	 8.312877e-01	-8.695868e+00
1	 1.216067e+00	 8.461494e-01	-1.018355e+01
1	 1.205668e+00	 8.609016e-01	-1.159644e+01
1	 1.195080e+00	 8.755408e-01	-1.294062e+01
1	 1.165203e+00	 8.536522e-01	-1.227948e+01
1	 1.154696e+00	 8.678116e-01	-1.358305e+01
1	 1.144008e+00	 8.818538e-01	-1.477523e+01
1	 1.133140e+00	 8.957752e-01	-1.585454e+01
1	 1.122095e+00	 9.095725e-01	-1.681949e+01
1	 1.110875e+00	 9.232423e-01	-1.766862e+01
1	 1.171178e+00	 8.580299e-01	-1.245569e+01
1	 1.160617e+00	 8.722620e-01	-1.375111e+01
1	 1.149874e+00	 8.863761e-01	-1.493512e+01
1	 1.138951e+00	 9.003689e-01	-1.600725e+01
1	 1.127850e+00	 9.142370e-01	-1.696705e+01
1	 1.116572e+00	 9.279769e-01	-1.781413e+01
1	 1.177154e+00	 8.624076e-01	-1.260999e+01
1	 1.166539e+00	 8.767123e-01	-1.389669e+01
1	 1.155741e+00	 8.908984e-01	-1.507187e+01
1	 1.144762e+00	 9.049626e-01	-1.613609e+01
1	 1.133604e+00	 9.189014e-01	-1.708992e+01
1	 1.122269e+00	 9.327114e-01	-1.793405e+01
1	 1.183129e+00	 8.667854e-01	-1.274230e+01
1	 1.172460e+00	 8.811626e-01	-1.401949e+01
1	 1.161608e+00	 8.954208e-01	-1.518504e+01
1	 1.150573e+00	 9.095564e-01	-1.624049e+01
1	 1.139358e+00	 9.235659e-01	-1.718748e+01
1	 1.127965e+00	 9.374460e-01	-1.802774e+01
1	 1.189104e+00	 8.711631e-01	-1.285254e+01
1	 1.178382e+00	 8.856129e-01	-1.411922e+01
1	 1.167475e+00	 8.999431e-01	-1.527418e+01
1	 1.156384e+00	 9.141501e-01	-1.631992e+01
1	 1.145113e+00	 9.282304e-01	-1.725912e+01
1	 1.133662e+00	 9.421806e-01	-1.809458e+01
1	 1.195080e+00	 8.755408e-01	-1.294062e+01
1	 1.184304e+00	 8.900632e-01	-1.419562e+01
1	 1.173341e+00	 9.044654e-01	-1.533886e+01
1	 1.162195e+00	 9.187438e-01	-1.637384e+01
1	 1.150867e+00	 9.328949e-01	-1.730424e+01
1	 1.139359e+00	 9.469152e-01	-1.813396e+01
1	 1.110875e+00	 9.232423e-01	-1.766862e+01
1	 1.099482e+00	 9.367813e-01	-1.842102e+01
1	 1.087918e+00	 9.501862e-01	-1.909435e+01
1	 1.076186e+00	 9.634539e-01	-1.968482e+01
1	 1.064288e+00	 9.765811e-01	-2.018838e+01
1	 1.052227e+00	 9.895648e-01	-2.060068e+01
1	 1.116572e+00	 9.279769e-01	-1.781413e+01
1	 1.105120e+00	 9.415853e-01	-1.856694e+01
1	 1.093497e+00	 9.550590e-01	-1.924111e+01
1	 1.081705e+00	 9.683947e-01	-1.983178e+01
1	 1.069746e+00	 9.815892e-01	-2.033378e+01
1	 1.057623e+00	 9.946395e-01	-2.074164e+01
1	 1.122269e+00	 9.327114e-01	-1.793405e+01
1	 1.110759e+00	 9.463893e-01	-1.868608e+01
1	 1.099076e+00	 9.599317e-01	-1.935952e+01
1	 1.087224e+00	 9.733355e-01	-1.994868e+01
1	 1.075204e+00	 9.865973e-01	-2.044751e+01
1	 1.063019e+00	 9.997142e-01	-2.084960e+01
1	 1.127965e+00	 9.374460e-01	-1.802774e+01
1	 1.116397e+00	 9.511933e-01	-1.877783e+01
1	 1.104655e+00	 9.648045e-01	-1.944907e+01
1	 1.092743e+00	 9.782762e-01	-2.003514e+01
1	 1.080662e+00	 9.916054e-01	-2.052933e+01
1	 1.068415e+00	 1.004789e+00	-2.092457e+01
1	 1.133662e+00	 9.421806e-01	-1.809458e+01
1	 1.122035e+00	 9.559973e-01	-1.884160e+01
1	 1.110234e+00	 9.696772e-01	-1.950925e+01
1	 1.098262e+00	 9.832170e-01	-2.009077e+01
1	 1.086120e+00	 9.966135e-01	-2.057904e+01
1	 1.073811e+00	 1.009864e+00	-2.096651e+01
1	 1.139359e+00	 9.469152e-01	-1.813396e+01
1	 1.127674e+00	 9.608013e-01	-1.887683e+01
1	 1.115813e+00	 9.745500e-01	-1.953955e+01
1	 1.103781e+00	 9.881578e-01	-2.011520e+01
1	 1.091578e+00	 1.001622e+00	-2.059641e+01
1	 1.079207e+00	 1.014938e+00	-2.097542e+01
1	 1.052227e+00	 9.895648e-01	-2.060068e+01
1	 1.040005e+00	 1.002402e+00	-2.097821e+01
1	 1.027625e+00	 1.015090e+00	-2.138105e+01
1	 1.015090e+00	 1.027625e+00	-2.181015e+01
1	 1.002402e+00	 1.040005e+00	-2.226656e+01
1	 9.895648e-01	 1.052227e+00	-2.275140e+01
1	 1.057623e+00	 9.946395e-01	-2.074164e+01
1	 1.045338e+00	 1.007542e+00	-2.111279e+01
1	 1.032895e+00	 1.020295e+00	-2.150952e+01
1	 1.020295e+00	 1.032895e+00	-2.193347e+01
1	 1.007542e+00	 1.045338e+00	-2.238641e+01
1	 9.946395e-01	 1.057623e+00	-2.287016e+01
1	 1.063019e+00	 9.997142e-01	-2.084960e+01
1	 1.050672e+00	 1.012683e+00	-2.121373e+01
1	 1.038165e+00	 1.025501e+00	-2.160433e+01
1	 1.025501e+00	 1.038165e+00	-2.202337e+01
1	 1.012683e+00	 1.050672e+00	-2.247295e+01
1	 9.997142e-01	 1.063019e+00	-2.295525e+01
1	 1.068415e+00	 1.004789e+00	-2.092457e+01
1	 1.056005e+00	 1.017824e+00	-2.128119e+01
1	 1.043434e+00	 1.030706e+00	-2.166569e+01
1	 1.030706e+00	 1.043434e+00	-2.208000e+01
1	 1.017824e+00	 1.056005e+00	-2.252618e+01
1	 1.004789e+00	 1.068415e+00	-2.300639e+01
1	 1.073811e+00	 1.009864e+00	-2.096651e+01
1	 1.061338e+00	 1.022964e+00	-2.131532e+01
1	 1.048704e+00	 1.035912e+00	-2.169379e+01
1	 1.035912e+00	 1.048704e+00	-2.210349e+01
1	 1.022964e+00	 1.061338e+00	-2.254609e+01
1	 1.009864e+00	 1.073811e+00	-2.302332e+01
1	 1.079207e+00	 1.014938e+00	-2.097542e+01
1	 1.066672e+00	 1.028105e+00	-2.131625e+01
1	 1.053974e+00	 1.041118e+00	-2.168884e+01
1	 1.041118e+00	 1.053974e+00	-2.209400e+01
1	 1.028105e+00	 1.066672e+00	-2.253266e+01
1	 1.014938e+00	 1.079207e+00	-2.300579e+01
1	 9.895648e-01	 1.052227e+00	-2.275140e+01
1	 9.765811e-01	 1.064288e+00	-2.332552e+01
1	 9.634539e-01	 1.076186e+00	-2.404982e+01
1	 9.501862e-01	 1.087918e+00	-2.492571e+01
1	 9.367813e-01	 1.099482e+00	-2.595482e+01
1	 9.232423e-01	 1.110875e+00	-2.713899e+01
1	 9.946395e-01	 1.057623e+00	-2.287016e+01
1	 9.815892e-01	 1.069746e+00	-2.344686e+01
1	 9.683947e-01	 1.081705e+00	-2.417709e+01
1	 9.550590e-01	 1.093497e+00	-2.506064e+01
1	 9.415853e-01	 1.105120e+00	-2.609747e+01
1	 9.279769e-01	 1.116572e+00	-2.728770e+01
1	 9.997142e-01	 1.063019e+00	-2.295525e+01
1	 9.865973e-01	 1.075204e+00	-2.353311e+01
1	 9.733355e-01	 1.087224e+00	-2.426685e+01
1	 9.599317e-01	 1.099076e+00	-2.515503e+01
1	 9.463893e-01	 1.110759e+00	-2.619639e+01
1	 9.327114e-01	 1.122269e+00	-2.738980e+01
1	 1.004789e+00	 1.068415e+00	-2.300639e+01
1	 9.916054e-01	 1.080662e+00	-2.358379e+01
1	 9.782762e-01	 1.092743e+00	-2.431850e+01
1	 9.648045e-01	 1.104655e+00	-2.520835e+01
1	 9.511933e-01	 1.116397e+00	-2.625125e+01
1	 9.374460e-01	 1.127965e+00	-2.744527e+01
1	 1.009864e+00	 1.073811e+00	-2.302332e+01
1	 9.966135e-01	 1.086120e+00	-2.359839e+01
1	 9.832170e-01	 1.098262e+00	-2.433150e+01
1	 9.696772e-01	 1.110234e+00	-2.522009e+01
1	 9.559973e-01	 1.122035e+00	-2.626173e+01
1	 9.421806e-01	 1.133662e+00	-2.745409e+01
1	 1.014938e+00	 1.079207e+00	-2.300579e+01
1	 1.001622e+00	 1.091578e+00	-2.357645e+01
1	 9.881578e-01	 1.103781e+00	-2.430528e+01
1	 9.745500e-01	 1.115813e+00	-2.518975e+01
1	 9.608013e-01	 1.127674e+00	-2.622750e+01
1	 9.469152e-01	 1.139359e+00	-2.741627e+01
1	 9.232423e-01	 1.110875e+00	-2.713899e+01
1	 9.095725e-01	 1.122095e+00	-2.847664e+01
1	 8.957752e-01	 1.133140e+00	-2.995663e+01
1	 8.818538e-01	 1.144008e+00	-3.156632e+01
1	 8.678116e-01	 1.154696e+00	-3.329276e+01
1	 8.536522e-01	 1.165203e+00	-3.512267e+01
1	 9.279769e-01	 1.116572e+00	-2.728770e+01
1	 9.142370e-01	 1.127850e+00	-2.862622e+01
1	 9.003689e-01	 1.138951e+00	-3.010070e+01
1	 8.863761e-01	 1.149874e+00	-3.170035e+01
1	 8.722620e-01	 1.160617e+00	-3.341406e+01
1	 8.580299e-01	 1.171178e+00	-3.523050e+01
1	 9.327114e-01	 1.122269e+00	-2.738980e+01
1	 9.189014e-01	 1.133604e+00	-2.872734e+01
1	 9.049626e-01	 1.144762e+00	-3.019570e+01
1	 8.908984e-01	 1.155741e+00	-3.178554e+01
1	 8.767123e-01	 1.166539e+00	-3.348729e+01
1	 8.624076e-01	 1.177154e+00	-3.529115e+01
1	 9.374460e-01	 1.127965e+00	-2.744527e+01
1	 9.235659e-01	 1.139358e+00	-2.878028e+01
1	 9.095564e-01	 1.150573e+00	-3.024206e+01
1	 8.954208e-01	 1.161608e+00	-3.182239e+01
1	 8.811626e-01	 1.172460e+00	-3.351284e+01
1	 8.667854e-01	 1.183129e+00	-3.530475e+01
1	 9.421806e-01	 1.133662e+00	-2.745409e+01
1	 9.282304e-01	 1.145113e+00	-2.878534e+01
1	 9.141501e-01	 1.156384e+00	-3.024025e+01
1	 8.999431e-01	 1.167475e+00	-3.181137e+01
1	 8.856129e-01	 1.178382e+00	-3.349105e+01
1	 8.711631e-01	 1.189104e+00	-3.527144e+01
1	 9.469152e-01	 1.139359e+00	-2.741627e+01
1	 9.328949e-01	 1.150867e+00	-2.874280e+01
1	 9.187438e-01	 1.162195e+00	-3.019070e+01
1	 9.044654e-01	 1.173341e+00	-3.175294e+01
1	 8.900632e-01	 1.184304e+00	-3.342230e+01
1	 8.755408e-01	 1.195080e+00	-3.519135e+01
1	 8.536522e-01	 1.165203e+00	-3.512267e+01
1	 8.393791e-01	 1.175526e+00	-3.702981e+01
1	 8.249956e-01	 1.185665e+00	-3.899275e+01
1	 8.105055e-01	 1.195617e+00	-4.100503e+01
1	 7.959124e-01	 1.205381e+00	-4.306006e+01
1	 7.812197e-01	 1.214955e+00	-4.515111e+01
1	 8.580299e-01	 1.171178e+00	-3.523050e+01
1	 8.436836e-01	 1.181555e+00	-3.712507e+01
1	 8.292264e-01	 1.191746e+00	-3.907566e+01
1	 8.146620e-01	 1.201749e+00	-4.107432e+01
1	 7.999940e-01	 1.211562e+00	-4.311291e+01
1	 7.852260e-01	 1.221185e+00	-4.518310e+01
1	 8.624076e-01	 1.177154e+00	-3.529115e+01
1	 8.479881e-01	 1.187583e+00	-3.717343e+01
1	 8.334571e-01	 1.197826e+00	-3.911112e+01
1	 8.188184e-01	 1.207880e+00	-4.109505e+01
1	 8.040756e-01	 1.217744e+00	-4.311584e+01
1	 7.892322e-01	 1.227416e+00	-4.516389e+01
1	 8.667854e-01	 1.183129e+00	-3.530475e+01
1	 8.522926e-01	 1.193612e+00	-3.717480e+01
1	 8.376879e-01	 1.203906e+00	-3.909892e+01
1	 8.229749e-01	 1.214011e+00	-4.106703e+01
1	 8.081572e-01	 1.223925e+00	-4.306880e+01
1	 7.932385e-01	 1.233647e+00	-4.509367e+01
1	 8.711631e-01	 1.189104e+00	-3.527144e+01
1	 8.565971e-01	 1.199640e+00	-3.712909e+01
1	 8.419186e-01	 1.209987e+00	-3.903888e+01
1	 8.271313e-01	 1.220143e+00	-4.099009e+01
1	 8.122388e-01	 1.230107e+00	-4.297174e+01
1	 7.972448e-01	 1.239877e+00	-4.497262e+01
1	 8.755408e-01	 1.195080e+00	-3.519135e+01
1	 8.609016e-01	 1.205668e+00	-3.703620e+01
1	 8.461494e-01	 1.216067e+00	-3.893078e+01
1	 8.312877e-01	 1.226274e+00	-4.086403e+01
1	 8.163204e-01	 1.236288e+00	-4.282461e+01
1	 8.012510e-01	 1.246108e+00	-4.480094e+01
1	 7.812197e-01	 1.214955e+00	-4.515111e+01
1	 7.664313e-01	 1.224338e+00	-4.721625e+01
1	 7.515508e-01	 1.233528e+00	-4.920622e+01
1	 7.365818e-01	 1.242524e+00	-5.113352e+01
1	 7.215282e-01	 1.251326e+00	-5.301105e+01
1	 7.063935e-01	 1.259932e+00	-5.485206e+01
1	 7.852260e-01	 1.221185e+00	-4.518310e+01
1	 7.703617e-01	 1.230616e+00	-4.722438e+01
1	 7.554049e-01	 1.239854e+00	-4.919008e+01
1	 7.403592e-01	 1.248896e+00	-5.109287e+01
1	 7.252283e-01	 1.257743e+00	-5.294580e+01
1	 7.100161e-01	 1.266393e+00	-5.476234e+01
1	 7.892322e-01	 1.227416e+00	-4.516389e+01
1	 7.742922e-01	 1.236895e+00	-4.718052e+01
1	 7.592590e-01	 1.246180e+00	-4.912169e+01
1	 7.441365e-01	 1.255268e+00	-5.099988e+01
1	 7.289284e-01	 1.264160e+00	-5.282802e+01
1	 7.136386e-01	 1.272854e+00	-5.461940e+01
1	 7.932385e-01	 1.233647e+00	-4.509367e+01
1	 7.782226e-01	 1.243174e+00	-4.708511e+01
1	 7.631131e-01	 1.252505e+00	-4.900157e+01
1	 7.479138e-01	 1.261640e+00	-5.085510e+01
1	 7.326286e-01	 1.270577e+00	-5.265812e+01
1	 7.172611e-01	 1.279315e+00	-5.442344e+01
1	 7.972448e-01	 1.239877e+00	-4.497262e+01
1	 7.821530e-01	 1.249452e+00	-4.693855e+01
1	 7.669672e-01	 1.258831e+00	-4.883028e+01
1	 7.516912e-01	 1.268012e+00	-5.065905e+01
1	 7.363287e-01	 1.276994e+00	-5.243651e+01
1	 7.208837e-01	 1.285776e+00	-5.417466e+01
1	 8.012510e-01	 1.246108e+00	-4.480094e+01
1	 7.860834e-01	 1.255731e+00	-4.674128e+01
1	 7.708213e-01	 1.265157e+00	-4.860833e+01
1	 7.554685e-01	 1.274384e+00	-5.041226e+01
1	 7.400289e-01	 1.283411e+00	-5.216361e+01
1	 7.245062e-01	 1.292238e+00	-5.387323e+01
1	 7.063935e-01	 1.259932e+00	-5.485206e+01
1	 6.911817e-01	 1.268341e+00	-5.660901e+01
1	 6.758964e-01	 1.276552e+00	-5.822520e+01
1	 6.605413e-01	 1.284564e+00	-5.970036e+01
1	 6.451203e-01	 1.292377e+00	-6.103411e+01
1	 6.296372e-01	 1.299991e+00	-6.222596e+01
1	 7.100161e-01	 1.266393e+00	-5.476234e+01
1	 6.947262e-01	 1.274845e+00	-5.649263e+01
1	 6.793625e-01	 1.283098e+00	-5.807822e+01
1	 6.639287e-01	 1.291152e+00	-5.951985e+01
1	 6.484286e-01	 1.299005e+00	-6.081817e+01
1	 6.328661e-01	 1.306658e+00	-6.197374e+01
1	 7.136386e-01	 1.272854e+00	-5.461940e+01
1	 6.982707e-01	 1.281349e+00	-5.632176e+01
1	 6.828286e-01	 1.289644e+00	-5.787513e+01
1	 6.673161e-01	 1.297739e+00	-5.928147e+01
1	 6.517370e-01	 1.305633e+00	-6.054269e+01
1	 6.360950e-01	 1.313324e+00	-6.166064e+01
1	 7.172611e-01	 1.279315e+00	-5.442344e+01
1	 7.018152e-01	 1.287853e+00	-5.609637e+01
1	 6.862948e-01	 1.296191e+00	-5.761575e+01
1	 6.707035e-01	 1.304327e+00	-5.898498e+01
1	 6.550453e-01	 1.312260e+00	-6.020745e+01
1	 6.393239e-01	 1.319991e+00	-6.128652e+01
1	 7.208837e-01	 1.285776e+00	-5.417466e+01
1	 7.053598e-01	 1.294358e+00	-5.581641e+01
1	 6.897609e-01	 1.302737e+00	-5.729989e+01
1	 6.740909e-01	 1.310914e+00	-5.863014e+01
1	 6.583536e-01	 1.318888e+00	-5.981223e+01
1	 6.425528e-01	 1.326658e+00	-6.085125e+01
1	 7.245062e-01	 1.292238e+00	-5.387323e+01
1	 7.089043e-01	 1.300862e+00	-5.548185e+01
1	 6.932270e-01	 1.309284e+00	-5.692739e+01
1	 6.774783e-01	 1.317502e+00	-5.821672e+01
1	 6.616619e-01	 1.325515e+00	-5.935681e+01
1	 6.457817e-01	 1.333324e+00	-6.035470e+01
1	 6.296372e-01	 1.299991e+00	-6.222596e+01
1	 6.140956e-01	 1.307404e+00	-6.327514e+01
1	 5.984993e-01	 1.314617e+00	-6.417998e+01
1	 5.828521e-01	 1.321629e+00	-6.493859e+01
1	 5.671578e-01	 1.328440e+00	-6.554902e+01
1	 5.514200e-01	 1.335049e+00	-6.600930e+01
1	 6.328661e-01	 1.306658e+00	-6.197374e+01
1	 6.172448e-01	 1.314109e+00	-6.298661e+01
1	 6.015685e-01	 1.321359e+00	-6.385532e+01
1	 5.858411e-01	 1.328407e+00	-6.457818e+01
1	 5.700663e-01	 1.335252e+00	-6.515344e+01
1	 5.542478e-01	 1.341895e+00	-6.557928e+01
1	 6.360950e-01	 1.313324e+00	-6.166064e+01
1	 6.203940e-01	 1.320814e+00	-6.263619e+01
1	 6.046378e-01	 1.328100e+00	-6.346790e+01
1	 5.888301e-01	 1.335184e+00	-6.415408e+01
1	 5.729748e-01	 1.342065e+00	-6.469299e+01
1	 5.570756e-01	 1.348742e+00	-6.508284e+01
1	 6.393239e-01	 1.319991e+00	-6.128652e+01
1	 6.235432e-01	 1.327518e+00	-6.222385e+01
1	 6.077070e-01	 1.334842e+00	-6.301770e+01
1	 5.918191e-01	 1.341962e+00	-6.366623e+01
1	 5.758833e-01	 1.348877e+00	-6.416756e+01
1	 5.599034e-01	 1.355588e+00	-6.451971e+01
1	 6.425528e-01	 1.326658e+00	-6.085125e+01
1	 6.266924e-01	 1.334223e+00	-6.174955e+01
1	 6.107762e-01	 1.341584e+00	-6.250472e+01
1	 5.948081e-01	 1.348739e+00	-6.311462e+01
1	 5.787918e-01	 1.355690e+00	-6.357702e+01
1	 5.627312e-01	 1.362435e+00	-6.388962e+01
1	 6.457817e-01	 1.333324e+00	-6.035470e+01
1	 6.298416e-01	 1.340928e+00	-6.121326e+01
1	 6.138455e-01	 1.348325e+00	-6.192896e+01
1	 5.977971e-01	 1.355517e+00	-6.249921e+01
1	 5.817003e-01	 1.362502e+00	-6.292128e+01
1	 5.655590e-01	 1.369281e+00	-6.319235e+01
1	 5.514200e-01	 1.335049e+00	-6.600930e+01
1	 5.356425e-01	 1.341457e+00	-6.632342e+01
1	 5.198290e-01	 1.347664e+00	-6.650275e+01
1	 5.039830e-01	 1.353669e+00	-6.655641e+01
1	 4.881084e-01	 1.359474e+00	-6.649360e+01
1	 4.722087e-01	 1.365078e+00	-6.632363e+01
1	 5.542478e-01	 1.341895e+00	-6.557928e+01
1	 5.383894e-01	 1.348336e+00	-6.586099e+01
1	 5.224948e-01	 1.354575e+00	-6.601116e+01
1	 5.065676e-01	 1.360611e+00	-6.603906e+01
1	 4.906116e-01	 1.366446e+00	-6.595404e+01
1	 4.746303e-01	 1.372079e+00	-6.576554e+01
1	 5.570756e-01	 1.348742e+00	-6.508284e+01
1	 5.411363e-01	 1.355216e+00	-6.533010e+01
1	 5.251605e-01	 1.361486e+00	-6.544884e+01
1	 5.091521e-01	 1.367553e+00	-6.544874e+01
1	 4.931147e-01	 1.373417e+00	-6.533960e+01
1	 4.770519e-01	 1.379079e+00	-6.513126e+01
1	 5.599034e-01	 1.355588e+00	-6.451971e+01
1	 5.438832e-01	 1.362095e+00	-6.473035e+01
1	 5.278263e-01	 1.368397e+00	-6.481533e+01
1	 5.117366e-01	 1.374495e+00	-6.478503e+01
1	 4.956178e-01	 1.380389e+00	-6.464992e+01
1	 4.794735e-01	 1.386079e+00	-6.442057e+01
1	 5.627312e-01	 1.362435e+00	-6.388962e+01
1	 5.466301e-01	 1.368974e+00	-6.406135e+01
1	 5.304921e-01	 1.375308e+00	-6.411020e+01
1	 5.143212e-01	 1.381437e+00	-6.404748e+01
1	 4.981209e-01	 1.387361e+00	-6.388465e+01
1	 4.818951e-01	 1.393080e+00	-6.363325e+01
1	 5.655590e-01	 1.369281e+00	-6.319235e+01
1	 5.493769e-01	 1.375853e+00	-6.332275e+01
1	 5.331579e-01	 1.382219e+00	-6.333301e+01
1	 5.169057e-01	 1.388379e+00	-6.323569e+01
1	 5.006240e-01	 1.394332e+00	-6.304346e+01
1	 4.843166e-01	 1.400080e+00	-6.276911e+01
1	 4.722087e-01	 1.365078e+00	-6.632363e+01
1	 4.562876e-01	 1.370482e+00	-6.605034e+01
1	 4.403485e-01	 1.375686e+00	-6.567205e+01
1	 4.243950e-01	 1.380691e+00	-6.518983e+01
1	 4.084307e-01	 1.385498e+00	-6.460479e+01
1	 3.924590e-01	 1.390106e+00	-6.391805e+01
1	 4.746303e-01	 1.372079e+00	-6.576554e+01
1	 4.586275e-01	 1.377510e+00	-6.547725e+01
1	 4.426067e-01	 1.382741e+00	-6.508858e+01
1	 4.265714e-01	 1.387772e+00	-6.460263e+01
1	 4.105252e-01	 1.392603e+00	-6.402251e+01
1	 3.944716e-01	 1.397235e+00	-6.335135e+01
1	 4.770519e-01	 1.379079e+00	-6.513126e+01
1	 4.609674e-01	 1.384538e+00	-6.482752e+01
1	 4.448649e-01	 1.389796e+00	-6.442880e+01
1	 4.287478e-01	 1.394852e+00	-6.393995e+01
1	 4.126197e-01	 1.399708e+00	-6.336582e+01
1	 3.964842e-01	 1.404364e+00	-6.271126e+01
1	 4.794735e-01	 1.386079e+00	-6.442057e+01
1	 4.633074e-01	 1.391567e+00	-6.410109e+01
1	 4.471231e-01	 1.396851e+00	-6.369274e+01
1	 4.309242e-01	 1.401933e+00	-6.320187e+01
1	 4.147143e-01	 1.406813e+00	-6.263479e+01
1	 3.984968e-01	 1.411493e+00	-6.199782e+01
1	 4.818951e-01	 1.393080e+00	-6.363325e+01
1	 4.656473e-01	 1.398595e+00	-6.329787e+01
1	 4.493813e-01	 1.403906e+00	-6.288041e+01
1	 4.331006e-01	 1.409013e+00	-6.238844e+01
1	 4.168088e-01	 1.413918e+00	-6.182949e+01
1	 4.005095e-01	 1.418621e+00	-6.121108e+01
1	 4.843166e-01	 1.400080e+00	-6.276911e+01
1	 4.679872e-01	 1.405623e+00	-6.241781e+01
1	 4.516395e-01	 1.410960e+00	-6.199183e+01
1	 4.352769e-01	 1.416094e+00	-6.149972e+01
1	 4.189033e-01	 1.421023e+00	-6.094999e+01
1	 4.025221e-01	 1.425750e+00	-6.035107e+01
1	 3.924590e-01	 1.390106e+00	-6.391805e+01
1	 3.764834e-01	 1.394518e+00	-6.319221e+01
1	 3.605072e-01	 1.398733e+00	-6.247559e+01
1	 3.445337e-01	 1.402753e+00	-6.174809e+01
1	 3.285664e-01	 1.406579e+00	-6.098977e+01
1	 3.126085e-01	 1.410211e+00	-6.018090e+01
1	 3.944716e-01	 1.397235e+00	-6.335135e+01
1	 3.784140e-01	 1.401669e+00	-6.265265e+01
1	 3.623559e-01	 1.405906e+00	-6.197344e+01
1	 3.463006e-01	 1.409947e+00	-6.129226e+01
1	 3.302514e-01	 1.413792e+00	-6.058781e+01
1	 3.142116e-01	 1.417443e+00	-5.983899e+01
1	 3.964842e-01	 1.404364e+00	-6.271126e+01
1	 3.803447e-01	 1.408821e+00	-6.204041e+01
1	 3.642047e-01	 1.413079e+00	-6.139908e+01
1	 3.480674e-01	 1.417140e+00	-6.076475e+01
1	 3.319363e-01	 1.421005e+00	-6.011504e+01
1	 3.158147e-01	 1.424675e+00	-5.942780e+01
1	 3.984968e-01	 1.411493e+00	-6.199782e+01
1	 3.822754e-01	 1.415972e+00	-6.135549e+01
1	 3.660534e-01	 1.420252e+00	-6.075250e+01
1	 3.498343e-01	 1.424334e+00	-6.016553e+01
1	 3.336213e-01	 1.428218e+00	-5.957144e+01
1	 3.174178e-01	 1.431907e+00	-5.894726e+01
1	 4.005095e-01	 1.418621e+00	-6.121108e+01
1	 3.842061e-01	 1.423123e+00	-6.059789e+01
1	 3.679022e-01	 1.427425e+00	-6.003365e+01
1	 3.516011e-01	 1.431528e+00	-5.949455e+01
1	 3.353062e-01	 1.435432e+00	-5.895694e+01
1	 3.190210e-01	 1.439139e+00	-5.839734e+01
1	 4.025221e-01	 1.425750e+00	-6.035107e+01
1	 3.861368e-01	 1.430275e+00	-5.976760e+01
1	 3.697509e-01	 1.434598e+00	-5.924251e+01
1	 3.533679e-01	 1.438721e+00	-5.875178e+01
1	 3.369912e-01	 1.442645e+00	-5.827150e+01
1	 3.206241e-01	 1.446370e+00	-5.777796e+01
1	 3.126085e-01	 1.410211e+00	-6.018090e+01
1	 2.966631e-01	 1.413652e+00	-5.933614e+01
1	 2.807336e-01	 1.416901e+00	-5.849250e+01
1	 2.648229e-01	 1.419961e+00	-5.766383e+01
1	 2.489342e-01	 1.422832e+00	-5.686397e+01
1	 2.330704e-01	 1.425517e+00	-5.610668e+01
1	 3.142116e-01	 1.417443e+00	-5.983899e+01
1	 2.981845e-01	 1.420901e+00	-5.906064e+01
1	 2.821732e-01	 1.424167e+00	-5.829001e+01
1	 2.661809e-01	 1.427243e+00	-5.753979e+01
1	 2.502107e-01	 1.430129e+00	-5.682266e+01
1	 2.342656e-01	 1.432827e+00	-5.615120e+01
1	 3.158147e-01	 1.424675e+00	-5.942780e+01
1	 2.997058e-01	 1.428151e+00	-5.871816e+01
1	 2.836129e-01	 1.431433e+00	-5.802360e+01
1	 2.675390e-01	 1.434524e+00	-5.735562e+01
1	 2.514873e-01	 1.437425e+00	-5.672566e+01
1	 2.354609e-01	 1.440137e+00	-5.614511e+01
1	 3.174178e-01	 1.431907e+00	-5.894726e+01
1	 3.012272e-01	 1.435400e+00	-5.830865e+01
1	 2.850525e-01	 1.438699e+00	-5.769325e+01
1	 2.688971e-01	 1.441806e+00	-5.711131e+01
1	 2.527639e-01	 1.444722e+00	-5.657303e+01
1	 2.366561e-01	 1.447448e+00	-5.608854e+01
1	 3.190210e-01	 1.439139e+00	-5.839734e+01
1	 3.027485e-01	 1.442650e+00	-5.783206e+01
1	 2.864922e-01	 1.445966e+00	-5.729893e+01
1	 2.702551e-01	 1.449088e+00	-5.680688e+01
1	 2.540405e-01	 1.452019e+00	-5.636483e+01
1	 2.378513e-01	 1.454758e+00	-5.598165e+01
1	 3.206241e-01	 1.446370e+00	-5.777796e+01
1	 3.042699e-01	 1.449899e+00	-5.728835e+01
1	 2.879319e-01	 1.453232e+00	-5.684060e+01
1	 2.716132e-01	 1.456370e+00	-5.644233e+01
1	 2.553171e-01	 1.459315e+00	-5.610114e+01
1	 2.390466e-01	 1.462068e+00	-5.582455e+01
1	 2.330704e-01	 1.425517e+00	-5.610668e+01
1	 2.172346e-01	 1.428016e+00	-5.539531e+01
1	 2.014297e-01	 1.430331e+00	-5.472063e+01
1	 1.856586e-01	 1.432463e+00	-5.407746e+01
1	 1.699240e-01	 1.434415e+00	-5.346066e+01
1	 1.542286e-01	 1.436187e+00	-5.286511e+01
1	 2.342656e-01	 1.432827e+00	-5.615120e+01
1	 2.183487e-01	 1.435339e+00	-5.552711e+01
1	 2.024627e-01	 1.437666e+00	-5.493958e+01
1	 1.866107e-01	 1.439809e+00	-5.438234e+01
1	 1.707954e-01	 1.441771e+00	-5.384919e+01
1	 1.550196e-01	 1.443552e+00	-5.333395e+01
1	 2.354609e-01	 1.440137e+00	-5.614511e+01
1	 2.194627e-01	 1.442662e+00	-5.561400e+01
1	 2.034957e-01	 1.445001e+00	-5.511974e+01
1	 1.875628e-01	 1.447155e+00	-5.465476e+01
1	 1.716668e-01	 1.449127e+00	-5.421153e+01
1	 1.558105e-01	 1.450917e+00	-5.378260e+01
1	 2.366561e-01	 1.447448e+00	-5.608854e+01
1	 2.205767e-01	 1.449985e+00	-5.565616e+01
1	 2.045287e-01	 1.452336e+00	-5.526136e+01
1	 1.885149e-01	 1.454501e+00	-5.489497e+01
1	 1.725382e-01	 1.456483e+00	-5.454795e+01
1	 1.566014e-01	 1.458282e+00	-5.421129e+01
1	 2.378513e-01	 1.454758e+00	-5.598165e+01
1	 2.216907e-01	 1.457308e+00	-5.565383e+01
1	 2.055616e-01	 1.459671e+00	-5.536468e+01
1	 1.894670e-01	 1.461847e+00	-5.510325e+01
1	 1.734096e-01	 1.463839e+00	-5.485869e+01
1	 1.573923e-01	 1.465647e+00	-5.462024e+01
1	 2.390466e-01	 1.462068e+00	-5.582455e+01
1	 2.228048e-01	 1.464631e+00	-5.560718e+01
1	 2.065946e-01	 1.467006e+00	-5.542994e+01
1	 1.904191e-01	 1.469193e+00	-5.527984e+01
1	 1.742810e-01	 1.471195e+00	-5.514400e+01
1	 1.581832e-01	 1.473012e+00	-5.500968e+01
1	 1.542286e-01	 1.436187e+00	-5.286511e+01
1	 1.385753e-01	 1.437782e+00	-5.228927e+01
1	 1.229666e-01	 1.439201e+00	-5.173386e+01
1	 1.074051e-01	 1.440446e+00	-5.119700e+01
1	 9.189328e-02	 1.441518e+00	-5.067678e+01
1	 7.643366e-02	 1.442421e+00	-5.017119e+01
1	 1.550196e-01	 1.443552e+00	-5.333395e+01
1	 1.392859e-01	 1.445155e+00	-5.283394e+01
1	 1.235972e-01	 1.446581e+00	-5.234828e+01
1	 1.079559e-01	 1.447833e+00	-5.187352e+01
1	 9.236453e-02	 1.448911e+00	-5.140616e+01
1	 7.682563e-02	 1.449818e+00	-5.094269e+01
1	 1.558105e-01	 1.450917e+00	-5.378260e+01
1	 1.399966e-01	 1.452528e+00	-5.336387e+01
1	 1.242278e-01	 1.453962e+00	-5.295283e+01
1	 1.085067e-01	 1.455220e+00	-5.254443e+01
1	 9.283578e-02	 1.456303e+00	-5.213361e+01
1	 7.721760e-02	 1.457215e+00	-5.171531e+01
1	 1.566014e-01	 1.458282e+00	-5.421129e+01
1	 1.407072e-01	 1.459902e+00	-5.387927e+01
1	 1.248584e-01	 1.461342e+00	-5.354769e+01
1	 1.090575e-01	 1.462606e+00	-5.320989e+01
1	 9.330702e-02	 1.463696e+00	-5.285924e+01
1	 7.760956e-02	 1.464612e+00	-5.248916e+01
1	 1.573923e-01	 1.465647e+00	-5.462024e+01
1	 1.414179e-01	 1.467275e+00	-5.438035e+01
1	 1.254890e-01	 1.468723e+00	-5.413303e+01
1	 1.096083e-01	 1.469993e+00	-5.387003e+01
1	 9.377827e-02	 1.471088e+00	-5.358319e+01
1	 7.800153e-02	 1.472009e+00	-5.326434e+01
1	 1.581832e-01	 1.473012e+00	-5.500968e+01
1	 1.421285e-01	 1.474648e+00	-5.486728e+01
1	 1.261196e-01	 1.476103e+00	-5.470901e+01
1	 1.101591e-01	 1.477380e+00	-5.452502e+01
1	 9.424952e-02	 1.478480e+00	-5.430555e+01
1	 7.839350e-02	 1.479406e+00	-5.404095e+01
1	 7.643366e-02	 1.442421e+00	-5.017119e+01
1	 6.102861e-02	 1.443155e+00	-4.967717e+01
1	 4.568048e-02	 1.443722e+00	-4.919333e+01
1	 3.039153e-02	 1.444125e+00	-4.872007e+01
1	 1.516399e-02	 1.444365e+00	-4.825761e+01
1	 0.000000e+00	 1.444444e+00	-4.780606e+01
1	 7.682563e-02	 1.449818e+00	-5.094269e+01
1	 6.134158e-02	 1.450555e+00	-5.047855e+01
1	 4.591474e-02	 1.451126e+00	-5.001128e+01
1	 3.054738e-02	 1.451530e+00	-4.954035e+01
1	 1.524175e-02	 1.451772e+00	-4.906510e+01
1	 0.000000e+00	 1.451852e+00	-4.858476e+01
1	 7.721760e-02	 1.457215e+00	-5.171531e+01
1	 6.165455e-02	 1.457956e+00	-5.128352e+01
1	 4.614900e-02	 1.458529e+00	-5.083464e+01
1	 3.070324e-02	 1.458936e+00	-5.036715e+01
1	 1.531951e-02	 1.459179e+00	-4.987944e+01
1	 0.000000e+00	 1.459259e+00	-4.936983e+01
1	 7.760956e-02	 1.464612e+00	-5.248916e+01
1	 6.196752e-02	 1.465357e+00	-5.209217e+01
1	 4.638326e-02	 1.465933e+00	-5.166348e+01
1	 3.085909e-02	 1.466342e+00	-5.120055e+01
1	 1.539728e-02	 1.466586e+00	-5.070075e+01
1	 0.000000e+00	 1.466667e+00	-5.016144e+01
1	 7.800153e-02	 1.472009e+00	-5.326434e+01
1	 6.228048e-02	 1.472758e+00	-5.290458e+01
1	 4.661751e-02	 1.473337e+00	-5.249790e+01
1	 3.101495e-02	 1.473748e+00	-5.204065e+01
1	 1.547504e-02	 1.473993e+00	-5.152916e+01
1	 0.000000e+00	 1.474074e+00	-5.095973e+01
1	 7.839350e-02	 1.479406e+00	-5.404095e+01
1	 6.259345e-02	 1.480159e+00	-5.372083e+01
1	 4.685177e-02	 1.480740e+00	-5.333796e+01
1	 3.117080e-02	 1.481154e+00	-5.288754e+01
1	 1.555281e-02	 1.481400e+00	-5.236477e+01
1	 0.000000e+00	 1.481481e+00	-5.176489e+01
1	 1.481481e+00	 0.000000e+00	 1.785075e+01
1	 1.481400e+00	 1.555281e-02	 1.746500e+01
1	 1.481154e+00	 3.117080e-02	 1.708737e+01
1	 1.480740e+00	 4.685177e-02	 1.671848e+01
1	 1.480159e+00	 6.259345e-02	 1.635892e+01
1	 1.479406e+00	 7.839350e-02	 1.600925e+01
1	 1.488889e+00	 0.000000e+00	 1.777467e+01
1	 1.488807e+00	 1.563057e-02	 1.739270e+01
1	 1.488559e+00	 3.132665e-02	 1.701546e+01
1	 1.488144e+00	 4.708603e-02	 1.664376e+01
1	 1.487559e+00	 6.290642e-02	 1.627843e+01
1	 1.486803e+00	 7.878547e-02	 1.592029e+01
1	 1.496296e+00	 0.000000e+00	 1.769321e+01
1	 1.496214e+00	 1.570833e-02	 1.731532e+01
1	 1.495965e+00	 3.148251e-02	 1.693886e+01
1	 1.495548e+00	 4.732029e-02	 1.656484e+01
1	 1.494960e+00	 6.321939e-02	 1.619433e+01
1	 1.494200e+00	 7.917743e-02	 1.582833e+01
1	 1.503704e+00	 0.000000e+00	 1.760632e+01
1	 1.503621e+00	 1.578610e-02	 1.723281e+01
1	 1.503371e+00	 3.163836e-02	 1.685751e+01
1	 1.502952e+00	 4.755455e-02	 1.648167e+01
1	 1.502361e+00	 6.353235e-02	 1.610652e+01
1	 1.501597e+00	 7.956940e-02	 1.573330e+01
1	 1.511111e+00	 0.000000e+00	 1.751396e+01
1	 1.511028e+00	 1.586386e-02	 1.714511e+01
1	 1.510777e+00	 3.179422e-02	 1.677137e+01
1	 1.510355e+00	 4.778881e-02	 1.639418e+01
1	 1.509762e+00	 6.384532e-02	 1.601494e+01
1	 1.508994e+00	 7.996137e-02	 1.563511e+01
1	 1.518519e+00	 0.000000e+00	 1.741609e+01
1	 1.518435e+00	 1.594163e-02	 1.705218e+01
1	 1.518182e+00	 3.195007e-02	 1.668039e+01
1	 1.517759e+00	 4.802307e-02	 1.630230e+01
1	 1.517163e+00	 6.415829e-02	 1.591953e+01
1	 1.516391e+00	 8.035334e-02	 1.553368e+01
1	 1.479406e+00	 7.839350e-02	 1.600925e+01
1	 1.478480e+00	 9.424952e-02	 1.567338e+01
1	 1.477380e+00	 1.101591e-01	 1.535582e+01
1	 1.476103e+00	 1.261196e-01	 1.505807e+01
1	 1.474648e+00	 1.421285e-01	 1.478161e+01
1	 1.473012e+00	 1.581832e-01	 1.452788e+01
1	 1.486803e+00	 7.878547e-02	 1.592029e+01
1	 1.485873e+00	 9.472077e-02	 1.557331e+01
1	 1.484767e+00	 1.107098e-01	 1.524214e+01
1	 1.483484e+00	 1.267502e-01	 1.492858e+01
1	 1.482021e+00	 1.428392e-01	 1.463442e+01
1	 1.480377e+00	 1.589741e-01	 1.436138e+01
1	 1.494200e+00	 7.917743e-02	 1.582833e+01
1	 1.493265e+00	 9.519201e-02	 1.547089e+01
1	 1.492154e+00	 1.112606e-01	 1.512674e+01
1	 1.490864e+00	 1.273808e-01	 1.479797e+01
1	 1.489395e+00	 1.435498e-01	 1.448664e+01
1	 1.487742e+00	 1.597650e-01	 1.419477e+01
1	 1.501597e+00	 7.956940e-02	 1.573330e+01
1	 1.500658e+00	 9.566326e-02	 1.536604e+01
1	 1.499541e+00	 1.118114e-01	 1.500954e+01
1	 1.498245e+00	 1.280114e-01	 1.466615e+01
1	 1.496768e+00	 1.442604e-01	 1.433822e+01
1	 1.495108e+00	 1.605560e-01	 1.402804e+01
1	 1.508994e+00	 7.996137e-02	 1.563511e+01
1	 1.508050e+00	 9.613451e-02	 1.525868e+01
1	 1.506928e+00	 1.123622e-01	 1.489045e+01
1	 1.505625e+00	 1.286420e-01	 1.453306e+01
1	 1.504141e+00	 1.449711e-01	 1.418911e+01
1	 1.502473e+00	 1.613469e-01	 1.386116e+01
1	 1.516391e+00	 8.035334e-02	 1.553368e+01
1	 1.515442e+00	 9.660576e-02	 1.514871e+01
1	 1.514315e+00	 1.129130e-01	 1.476940e+01
1	 1.513006e+00	 1.292726e-01	 1.439863e+01
1	 1.511514e+00	 1.456817e-01	 1.403926e+01
1	 1.509838e+00	 1.621378e-01	 1.369412e+01
1	 1.473012e+00	 1.581832e-01	 1.452788e+01
1	 1.471195e+00	 1.742810e-01	 1.429721e+01
1	 1.469193e+00	 1.904191e-01	 1.409005e+01
1	 1.467006e+00	 2.065946e-01	 1.390794e+01
1	 1.464631e+00	 2.228048e-01	 1.375236e+01
1	 1.462068e+00	 2.390466e-01	 1.362480e+01
1	 1.480377e+00	 1.589741e-01	 1.436138e+01
1	 1.478551e+00	 1.751524e-01	 1.411012e+01
1	 1.476539e+00	 1.913711e-01	 1.388141e+01
1	 1.474341e+00	 2.076276e-01	 1.367712e+01
1	 1.471955e+00	 2.239188e-01	 1.349907e+01
1	 1.469379e+00	 2.402418e-01	 1.334907e+01
1	 1.487742e+00	 1.597650e-01	 1.419477e+01
1	 1.485907e+00	 1.760238e-01	 1.392333e+01
1	 1.483885e+00	 1.923232e-01	 1.367335e+01
1	 1.481676e+00	 2.086606e-01	 1.344700e+01
1	 1.479278e+00	 2.250328e-01	 1.324639e+01
1	 1.476689e+00	 2.414370e-01	 1.307359e+01
1	 1.495108e+00	 1.605560e-01	 1.402804e+01
1	 1.493263e+00	 1.768952e-01	 1.373686e+01
1	 1.491231e+00	 1.932753e-01	 1.346599e+01
1	 1.489011e+00	 2.096935e-01	 1.321782e+01
1	 1.486601e+00	 2.261468e-01	 1.299468e+01
1	 1.483999e+00	 2.426323e-01	 1.279889e+01
1	 1.502473e+00	 1.613469e-01	 1.386116e+01
1	 1.500618e+00	 1.777666e-01	 1.355076e+01
1	 1.498577e+00	 1.942274e-01	 1.325944e+01
1	 1.496346e+00	 2.107265e-01	 1.298978e+01
1	 1.493924e+00	 2.272609e-01	 1.274430e+01
1	 1.491310e+00	 2.438275e-01	 1.252549e+01
1	 1.509838e+00	 1.621378e-01	 1.369412e+01
1	 1.507974e+00	 1.786380e-01	 1.336505e+01
1	 1.505923e+00	 1.951795e-01	 1.305380e+01
1	 1.503681e+00	 2.117595e-01	 1.276309e+01
1	 1.501247e+00	 2.283749e-01	 1.249558e+01
1	 1.498620e+00	 2.450227e-01	 1.225389e+01
1	 1.462068e+00	 2.390466e-01	 1.362480e+01
1	 1.459315e+00	 2.553171e-01	 1.353486e+01
1	 1.456370e+00	 2.716132e-01	 1.348995e+01
1	 1.453232e+00	 2.879319e-01	 1.348813e+01
1	 1.449899e+00	 3.042699e-01	 1.352742e+01
1	 1.446370e+00	 3.206241e-01	 1.360586e+01
1	 1.469379e+00	 2.402418e-01	 1.334907e+01
1	 1.466612e+00	 2.565937e-01	 1.323735e+01
1	 1.463652e+00	 2.729713e-01	 1.317186e+01
1	 1.460498e+00	 2.893715e-01	 1.315090e+01
1	 1.457149e+00	 3.057912e-01	 1.317271e+01
1	 1.453602e+00	 3.222272e-01	 1.323554e+01
1	 1.476689e+00	 2.414370e-01	 1.307359e+01
1	 1.473908e+00	 2.578702e-01	 1.293943e+01
1	 1.470934e+00	 2.743293e-01	 1.285246e+01
1	 1.467764e+00	 2.908112e-01	 1.281130e+01
1	 1.464398e+00	 3.073126e-01	 1.281452e+01
1	 1.460834e+00	 3.238303e-01	 1.286066e+01
1	 1.483999e+00	 2.426323e-01	 1.279889e+01
1	 1.481205e+00	 2.591468e-01	 1.264178e+01
1	 1.478216e+00	 2.756874e-01	 1.253253e+01
1	 1.475030e+00	 2.922508e-01	 1.247018e+01
1	 1.471648e+00	 3.088339e-01	 1.245368e+01
1	 1.468066e+00	 3.254335e-01	 1.248195e+01
1	 1.491310e+00	 2.438275e-01	 1.252549e+01
1	 1.488501e+00	 2.604234e-01	 1.234508e+01
1	 1.485497e+00	 2.770455e-01	 1.221285e+01
1	 1.482296e+00	 2.936905e-01	 1.212834e+01
1	 1.478897e+00	 3.103553e-01	 1.209098e+01
1	 1.475298e+00	 3.270366e-01	 1.210016e+01
1	 1.498620e+00	 2.450227e-01	 1.225389e+01
1	 1.495798e+00	 2.617000e-01	 1.204998e+01
1	 1.492779e+00	 2.784035e-01	 1.189417e+01
1	 1.489563e+00	 2.951302e-01	 1.178658e+01
1	 1.486147e+00	 3.118766e-01	 1.172722e+01
1	 1.482530e+00	 3.286397e-01	 1.171600e+01
1	 1.446370e+00	 3.206241e-01	 1.360586e+01
1	 1.442645e+00	 3.369912e-01	 1.370535e+01
1	 1.438721e+00	 3.533679e-01	 1.381107e+01
1	 1.434598e+00	 3.697509e-01	 1.392592e+01
1	 1.430275e+00	 3.861368e-01	 1.405281e+01
1	 1.425750e+00	 4.025221e-01	 1.419458e+01
1	 1.453602e+00	 3.222272e-01	 1.323554e+01
1	 1.449858e+00	 3.386762e-01	 1.332105e+01
1	 1.445915e+00	 3.551348e-01	 1.341406e+01
1	 1.441771e+00	 3.715997e-01	 1.351756e+01
1	 1.437426e+00	 3.880675e-01	 1.363450e+01
1	 1.432879e+00	 4.045347e-01	 1.376783e+01
1	 1.460834e+00	 3.238303e-01	 1.286066e+01
1	 1.457071e+00	 3.403611e-01	 1.293127e+01
1	 1.453108e+00	 3.569016e-01	 1.301096e+01
1	 1.448944e+00	 3.734484e-01	 1.310277e+01
1	 1.444577e+00	 3.899981e-01	 1.320974e+01
1	 1.440008e+00	 4.065473e-01	 1.333488e+01
1	 1.468066e+00	 3.254335e-01	 1.248195e+01
1	 1.464285e+00	 3.420461e-01	 1.253665e+01
1	 1.460302e+00	 3.586685e-01	 1.260225e+01
1	 1.456117e+00	 3.752972e-01	 1.268188e+01
1	 1.451729e+00	 3.919288e-01	 1.277863e+01
1	 1.447136e+00	 4.085599e-01	 1.289560e+01
1	 1.475298e+00	 3.270366e-01	 1.210016e+01
1	 1.471498e+00	 3.437310e-01	 1.213780e+01
1	 1.467496e+00	 3.604353e-01	 1.218841e+01
1	 1.463290e+00	 3.771459e-01	 1.225519e+01
1	 1.458880e+00	 3.938595e-01	 1.234129e+01
1	 1.454265e+00	 4.105725e-01	 1.244988e+01
1	 1.482530e+00	 3.286397e-01	 1.171600e+01
1	 1.478711e+00	 3.454160e-01	 1.173534e+01
1	 1.474689e+00	 3.622021e-01	 1.176992e+01
1	 1.470463e+00	 3.789947e-01	 1.182300e+01
1	 1.466032e+00	 3.957902e-01	 1.189782e+01
1	 1.461394e+00	 4.125851e-01	 1.199760e+01
1	 1.425750e+00	 4.025221e-01	 1.419458e+01
1	 1.421023e+00	 4.189033e-01	 1.432207e+01
1	 1.416094e+00	 4.352769e-01	 1.440380e+01
1	 1.410960e+00	 4.516395e-01	 1.443928e+01
1	 1.405623e+00	 4.679872e-01	 1.442814e+01
1	 1.400080e+00	 4.843166e-01	 1.437019e+01
1	 1.432879e+00	 4.045347e-01	 1.376783e+01
1	 1.428128e+00	 4.209978e-01	 1.388922e+01
1	 1.423174e+00	 4.374533e-01	 1.396777e+01
1	 1.418015e+00	 4.538977e-01	 1.400263e+01
1	 1.412651e+00	 4.703272e-01	 1.399309e+01
1	 1.407081e+00	 4.867382e-01	 1.393856e+01
1	 1.440008e+00	 4.065473e-01	 1.333488e+01
1	 1.435234e+00	 4.230923e-01	 1.345064e+01
1	 1.430255e+00	 4.396297e-01	 1.352654e+01
1	 1.425070e+00	 4.561559e-01	 1.356132e+01
1	 1.419679e+00	 4.726671e-01	 1.355383e+01
1	 1.414081e+00	 4.891598e-01	 1.350306e+01
1	 1.447136e+00	 4.085599e-01	 1.289560e+01
1	 1.442339e+00	 4.251868e-01	 1.300599e+01
1	 1.437335e+00	 4.418061e-01	 1.307972e+01
1	 1.432125e+00	 4.584140e-01	 1.311498e+01
1	 1.426707e+00	 4.750070e-01	 1.311014e+01
1	 1.421081e+00	 4.915814e-01	 1.306367e+01
1	 1.454265e+00	 4.105725e-01	 1.244988e+01
1	 1.449444e+00	 4.272814e-01	 1.255499e+01
1	 1.444416e+00	 4.439825e-01	 1.262691e+01
1	 1.439180e+00	 4.606722e-01	 1.266325e+01
1	 1.433735e+00	 4.773470e-01	 1.266178e+01
1	 1.428082e+00	 4.940030e-01	 1.262041e+01
1	 1.461394e+00	 4.125851e-01	 1.199760e+01
1	 1.456549e+00	 4.293759e-01	 1.209733e+01
1	 1.451496e+00	 4.461589e-01	 1.216773e+01
1	 1.446234e+00	 4.629304e-01	 1.220576e+01
1	 1.440763e+00	 4.796869e-01	 1.220851e+01
1	 1.435082e+00	 4.964246e-01	 1.217329e+01
1	 1.400080e+00	 4.843166e-01	 1.437019e+01
1	 1.394332e+00	 5.006240e-01	 1.425334e+01
1	 1.388379e+00	 5.169057e-01	 1.406487e+01
1	 1.382219e+00	 5.331579e-01	 1.380375e+01
1	 1.375853e+00	 5.493769e-01	 1.346917e+01
1	 1.369281e+00	 5.655590e-01	 1.306049e+01
1	 1.407081e+00	 4.867382e-01	 1.393856e+01
1	 1.401304e+00	 5.031272e-01	 1.382688e+01
1	 1.395321e+00	 5.194902e-01	 1.364543e+01
1	 1.389130e+00	 5.358237e-01	 1.339321e+01
1	 1.382733e+00	 5.521238e-01	 1.306947e+01
1	 1.376127e+00	 5.683868e-01	 1.267363e+01
1	 1.414081e+00	 4.891598e-01	 1.350306e+01
1	 1.408276e+00	 5.056303e-01	 1.339678e+01
1	 1.402263e+00	 5.220747e-01	 1.322270e+01
1	 1.396041e+00	 5.384895e-01	 1.297990e+01
1	 1.389612e+00	 5.548707e-01	 1.266772e+01
1	 1.382974e+00	 5.712146e-01	 1.228569e+01
1	 1.421081e+00	 4.915814e-01	 1.306367e+01
1	 1.415247e+00	 5.081334e-01	 1.296330e+01
1	 1.409205e+00	 5.246593e-01	 1.279707e+01
1	 1.402953e+00	 5.411553e-01	 1.256422e+01
1	 1.396491e+00	 5.576176e-01	 1.226421e+01
1	 1.389820e+00	 5.740424e-01	 1.189676e+01
1	 1.428082e+00	 4.940030e-01	 1.262041e+01
1	 1.422219e+00	 5.106365e-01	 1.252668e+01
1	 1.416146e+00	 5.272438e-01	 1.236892e+01
1	 1.409864e+00	 5.438211e-01	 1.214656e+01
1	 1.403370e+00	 5.603645e-01	 1.185927e+01
1	 1.396667e+00	 5.768702e-01	 1.150693e+01
1	 1.435082e+00	 4.964246e-01	 1.217329e+01
1	 1.429191e+00	 5.131396e-01	 1.208717e+01
1	 1.423088e+00	 5.298283e-01	 1.193862e+01
1	 1.416775e+00	 5.464869e-01	 1.172732e+01
1	 1.410250e+00	 5.631114e-01	 1.145319e+01
1	 1.403513e+00	 5.796980e-01	 1.111631e+01
1	 1.369281e+00	 5.655590e-01	 1.306049e+01
1	 1.362502e+00	 5.817003e-01	 1.256290e+01
1	 1.355517e+00	 5.977971e-01	 1.196292e+01
1	 1.348325e+00	 6.138455e-01	 1.126205e+01
1	 1.340928e+00	 6.298416e-01	 1.046176e+01
1	 1.333324e+00	 6.457817e-01	 9.563491e+00
1	 1.376127e+00	 5.683868e-01	 1.267363e+01
1	 1.369315e+00	 5.846088e-01	 1.218974e+01
1	 1.362294e+00	 6.007861e-01	 1.160300e+01
1	 1.355067e+00	 6.169147e-01	 1.091468e+01
1	 1.347632e+00	 6.329908e-01	 1.012602e+01
1	 1.339991e+00	 6.490106e-01	 9.238190e+00
1	 1.382974e+00	 5.712146e-01	 1.228569e+01
1	 1.376127e+00	 5.875173e-01	 1.181654e+01
1	 1.369072e+00	 6.037750e-01	 1.124392e+01
1	 1.361809e+00	 6.199839e-01	 1.056886e+01
1	 1.354337e+00	 6.361400e-01	 9.792351e+00
1	 1.346657e+00	 6.522395e-01	 8.915300e+00
1	 1.389820e+00	 5.740424e-01	 1.189676e+01
1	 1.382940e+00	 5.904258e-01	 1.144317e+01
1	 1.375850e+00	 6.067640e-01	 1.088543e+01
1	 1.368550e+00	 6.230531e-01	 1.022433e+01
1	 1.361042e+00	 6.392892e-01	 9.460590e+00
1	 1.353324e+00	 6.554684e-01	 8.594848e+00
1	 1.396667e+00	 5.768702e-01	 1.150693e+01
1	 1.389752e+00	 5.933343e-01	 1.106951e+01
1	 1.382627e+00	 6.097530e-01	 1.052731e+01
1	 1.375292e+00	 6.261224e-01	 9.880852e+00
1	 1.367746e+00	 6.424384e-01	 9.130578e+00
1	 1.359991e+00	 6.586973e-01	 8.276864e+00
1	 1.403513e+00	 5.796980e-01	 1.111631e+01
1	 1.396565e+00	 5.962428e-01	 1.069545e+01
1	 1.389405e+00	 6.127420e-01	 1.016933e+01
1	 1.382033e+00	 6.291916e-01	 9.538180e+00
1	 1.374451e+00	 6.455877e-01	 8.802159e+00
1	 1.366657e+00	 6.619262e-01	 7.961376e+00
1	 1.333324e+00	 6.457817e-01	 9.563491e+00
1	 1.325515e+00	 6.616619e-01	 8.544381e+00
1	 1.317502e+00	 6.774783e-01	 7.380082e+00
1	 1.309284e+00	 6.932270e-01	 6.069768e+00
1	 1.300862e+00	 7.089043e-01	 4.612606e+00
1	 1.292238e+00	 7.245062e-01	 3.007756e+00
1	 1.339991e+00	 6.490106e-01	 9.238190e+00
1	 1.332143e+00	 6.649702e-01	 8.228443e+00
1	 1.324089e+00	 6.808657e-01	 7.073043e+00
1	 1.315830e+00	 6.966932e-01	 5.771696e+00
1	 1.307366e+00	 7.124488e-01	 4.324170e+00
1	 1.298699e+00	 7.281287e-01	 2.730307e+00
1	 1.346657e+00	 6.522395e-01	 8.915300e+00
1	 1.338771e+00	 6.682785e-01	 7.915465e+00
1	 1.330677e+00	 6.842531e-01	 6.770123e+00
1	 1.322376e+00	 7.001593e-01	 5.479499e+00
1	 1.313871e+00	 7.159933e-01	 4.043954e+00
1	 1.305160e+00	 7.317512e-01	 2.463985e+00
1	 1.353324e+00	 6.554684e-01	 8.594848e+00
1	 1.345398e+00	 6.715868e-01	 7.605683e+00
1	 1.337264e+00	 6.876404e-01	 6.471686e+00
1	 1.328923e+00	 7.036254e-01	 5.193597e+00
1	 1.320375e+00	 7.195379e-01	 3.772355e+00
1	 1.311621e+00	 7.353738e-01	 2.209093e+00
1	 1.359991e+00	 6.586973e-01	 8.276864e+00
1	 1.352026e+00	 6.748951e-01	 7.299328e+00
1	 1.343852e+00	 6.910278e-01	 6.178089e+00
1	 1.335469e+00	 7.070916e-01	 4.914401e+00
1	 1.326879e+00	 7.230824e-01	 3.509764e+00
1	 1.318082e+00	 7.389963e-01	 1.965925e+00
1	 1.366657e+00	 6.619262e-01	 7.961376e+00
1	 1.358653e+00	 6.782034e-01	 6.996624e+00
1	 1.350439e+00	 6.944152e-01	 5.889682e+00
1	 1.342016e+00	 7.105577e-01	 4.642312e+00
1	 1.333384e+00	 7.266269e-01	 3.256563e+00
1	 1.324544e+00	 7.426188e-01	 1.734773e+00
1	 1.292238e+00	 7.245062e-01	 3.007756e+00
1	 1.283411e+00	 7.400289e-01	 1.322976e+00
1	 1.274384e+00	 7.554685e-01	-3.712961e-01
1	 1.265157e+00	 7.708213e-01	-2.071586e+00
1	 1.255731e+00	 7.860834e-01	-3.774020e+00
1	 1.246108e+00	 8.012510e-01	-5.474336e+00
1	 1.298699e+00	 7.281287e-01	 2.730307e+00
1	 1.289828e+00	 7.437290e-01	 1.060020e+00
1	 1.280756e+00	 7.592459e-01	-6.150181e-01
1	 1.271483e+00	 7.746754e-01	-2.292038e+00
1	 1.262010e+00	 7.900138e-01	-3.967955e+00
1	 1.252338e+00	 8.052573e-01	-5.639373e+00
1	 1.305160e+00	 7.317512e-01	 2.463985e+00
1	 1.296245e+00	 7.474292e-01	 8.110306e-01
1	 1.287128e+00	 7.630232e-01	-8.426117e-01
1	 1.277808e+00	 7.785295e-01	-2.494873e+00
1	 1.268288e+00	 7.939442e-01	-4.143445e+00
1	 1.258569e+00	 8.092635e-01	-5.785785e+00
1	 1.311621e+00	 7.353738e-01	 2.209093e+00
1	 1.302662e+00	 7.511293e-01	 5.761919e-01
1	 1.293500e+00	 7.668006e-01	-1.053983e+00
1	 1.284134e+00	 7.823836e-01	-2.680054e+00
1	 1.274567e+00	 7.978747e-01	-4.300482e+00
1	 1.264799e+00	 8.132698e-01	-5.913563e+00
1	 1.318082e+00	 7.389963e-01	 1.965925e+00
1	 1.309080e+00	 7.548295e-01	 3.556830e-01
1	 1.299872e+00	 7.705779e-01	-1.249038e+00
1	 1.290460e+00	 7.862377e-01	-2.847547e+00
1	 1.280846e+00	 8.018051e-01	-4.439060e+00
1	 1.271030e+00	 8.172760e-01	-6.022699e+00
1	 1.324544e+00	 7.426188e-01	 1.734773e+00
1	 1.315497e+00	 7.585296e-01	 1.496796e-01
1	 1.306244e+00	 7.743552e-01	-1.427688e+00
1	 1.296786e+00	 7.900918e-01	-2.997317e+00
1	 1.287124e+00	 8.057355e-01	-4.559170e+00
1	 1.277260e+00	 8.212823e-01	-6.113184e+00
1	 1.246108e+00	 8.012510e-01	-5.474336e+00
1	 1.236288e+00	 8.163204e-01	-7.127813e+00
1	 1.226274e+00	 8.312877e-01	-8.695868e+00
1	 1.216067e+00	 8.461494e-01	-1.018355e+01
1	 1.205668e+00	 8.609016e-01	-1.159644e+01
1	 1.195080e+00	 8.755408e-01	-1.294062e+01
1	 1.252338e+00	 8.052573e-01	-5.639373e+00
1	 1.242470e+00	 8.204020e-01	-7.265522e+00
1	 1.232405e+00	 8.354442e-01	-8.810729e+00
1	 1.222147e+00	 8.503801e-01	-1.027938e+01
1	 1.211697e+00	 8.652061e-01	-1.167635e+01
1	 1.201055e+00	 8.799185e-01	-1.300699e+01
1	 1.258569e+00	 8.092635e-01	-5.785785e+00
1	 1.248651e+00	 8.244836e-01	-7.384605e+00
1	 1.238537e+00	 8.396006e-01	-8.906693e+00
1	 1.228228e+00	 8.546109e-01	-1.035578e+01
1	 1.217725e+00	 8.695106e-01	-1.173607e+01
1	 1.207031e+00	 8.842962e-01	-1.305217e+01
1	 1.264799e+00	 8.132698e-01	-5.913563e+00
1	 1.254832e+00	 8.285652e-01	-7.485043e+00
1	 1.244668e+00	 8.437571e-01	-8.983741e+00
1	 1.234308e+00	 8.588416e-01	-1.041276e+01
1	 1.223753e+00	 8.738151e-01	-1.177560e+01
1	 1.213006e+00	 8.886739e-01	-1.307620e+01
1	 1.271030e+00	 8.172760e-01	-6.022699e+00
1	 1.261014e+00	 8.326468e-01	-7.566817e+00
1	 1.250800e+00	 8.479135e-01	-9.041856e+00
1	 1.240388e+00	 8.630724e-01	-1.045029e+01
1	 1.229782e+00	 8.781196e-01	-1.179497e+01
1	 1.218981e+00	 8.930516e-01	-1.307913e+01
1	 1.277260e+00	 8.212823e-01	-6.113184e+00
1	 1.267195e+00	 8.367284e-01	-7.629909e+00
1	 1.256931e+00	 8.520699e-01	-9.081019e+00
1	 1.246469e+00	 8.673031e-01	-1.046838e+01
1	 1.235810e+00	 8.824241e-01	-1.179419e+01
1	 1.224957e+00	 8.974293e-01	-1.306102e+01
1	 1.195080e+00	 8.755408e-01	-1.294062e+01
1	 1.184304e+00	 8.900632e-01	-1.419562e+01
1	 1.173341e+00	 9.044654e-01	-1.533886e+01
1	 1.162195e+00	 9.187438e-01	-1.637384e+01
1	 1.150867e+00	 9.328949e-01	-1.730424e+01
1	 1.139359e+00	 9.469152e-01	-1.813396e+01
1	 1.201055e+00	 8.799185e-01	-1.300699e+01
1	 1.190225e+00	 8.945135e-01	-1.424919e+01
1	 1.179208e+00	 9.089877e-01	-1.537982e+01
1	 1.168006e+00	 9.233375e-01	-1.640329e+01
1	 1.156621e+00	 9.375593e-01	-1.732425e+01
1	 1.145056e+00	 9.516498e-01	-1.814760e+01
1	 1.207031e+00	 8.842962e-01	-1.305217e+01
1	 1.196147e+00	 8.989639e-01	-1.428065e+01
1	 1.185075e+00	 9.135101e-01	-1.539807e+01
1	 1.173817e+00	 9.279312e-01	-1.640962e+01
1	 1.162376e+00	 9.422238e-01	-1.732076e+01
1	 1.150753e+00	 9.563843e-01	-1.813726e+01
1	 1.213006e+00	 8.886739e-01	-1.307620e+01
1	 1.202068e+00	 9.034142e-01	-1.429007e+01
1	 1.190941e+00	 9.180324e-01	-1.539363e+01
1	 1.179628e+00	 9.325250e-01	-1.639273e+01
1	 1.168130e+00	 9.468883e-01	-1.729352e+01
1	 1.156449e+00	 9.611189e-01	-1.810249e+01
1	 1.218981e+00	 8.930516e-01	-1.307913e+01
1	 1.207990e+00	 9.078645e-01	-1.427749e+01
1	 1.196808e+00	 9.225547e-01	-1.536650e+01
1	 1.185439e+00	 9.371187e-01	-1.635252e+01
1	 1.173884e+00	 9.515528e-01	-1.724228e+01
1	 1.162146e+00	 9.658535e-01	-1.804283e+01
1	 1.224957e+00	 8.974293e-01	-1.306102e+01
1	 1.213911e+00	 9.123148e-01	-1.424298e+01
1	 1.202675e+00	 9.270771e-01	-1.531669e+01
1	 1.191250e+00	 9.417124e-01	-1.628890e+01
1	 1.179639e+00	 9.562172e-01	-1.716677e+01
1	 1.167843e+00	 9.705881e-01	-1.795781e+01
1	 1.139359e+00	 9.469152e-01	-1.813396e+01
1	 1.127674e+00	 9.608013e-01	-1.887683e+01
1	 1.115813e+00	 9.745500e-01	-1.953955e+01
1	 1.103781e+00	 9.881578e-01	-2.011520e+01
1	 1.091578e+00	 1.001622e+00	-2.059641e+01
1	 1.079207e+00	 1.014938e+00	-2.097542e+01
1	 1.145056e+00	 9.516498e-01	-1.814760e+01
1	 1.133312e+00	 9.656053e-01	-1.888541e+01
1	 1.121393e+00	 9.794227e-01	-1.954197e+01
1	 1.109299e+00	 9.930986e-01	-2.011034e+01
1	 1.097035e+00	 1.006630e+00	-2.058314e+01
1	 1.084603e+00	 1.020013e+00	-2.095257e+01
1	 1.150753e+00	 9.563843e-01	-1.813726e+01
1	 1.138951e+00	 9.704093e-01	-1.886918e+01
1	 1.126972e+00	 9.842955e-01	-1.951828e+01
1	 1.114818e+00	 9.980394e-01	-2.007780e+01
1	 1.102493e+00	 1.011638e+00	-2.054050e+01
1	 1.089999e+00	 1.025088e+00	-2.089876e+01
1	 1.156449e+00	 9.611189e-01	-1.810249e+01
1	 1.144589e+00	 9.752133e-01	-1.882746e+01
1	 1.132551e+00	 9.891682e-01	-1.946770e+01
1	 1.120337e+00	 1.002980e+00	-2.001674e+01
1	 1.107951e+00	 1.016646e+00	-2.046771e+01
1	 1.095395e+00	 1.030162e+00	-2.081330e+01
1	 1.162146e+00	 9.658535e-01	-1.804283e+01
1	 1.150227e+00	 9.800173e-01	-1.875962e+01
1	 1.138130e+00	 9.940410e-01	-1.938945e+01
1	 1.125856e+00	 1.007921e+00	-1.992636e+01
1	 1.113409e+00	 1.021654e+00	-2.036397e+01
1	 1.100791e+00	 1.035237e+00	-2.069551e+01
1	 1.167843e+00	 9.705881e-01	-1.795781e+01
1	 1.155866e+00	 9.848214e-01	-1.866499e+01
1	 1.143709e+00	 9.989137e-01	-1.928278e+01
1	 1.131375e+00	 1.012862e+00	-1.980585e+01
1	 1.118867e+00	 1.026662e+00	-2.022852e+01
1	 1.106187e+00	 1.040312e+00	-2.054472e+01
1	 1.079207e+00	 1.014938e+00	-2.097542e+01
1	 1.066672e+00	 1.028105e+00	-2.131625e+01
1	 1.053974e+00	 1.041118e+00	-2.168884e+01
1	 1.041118e+00	 1.053974e+00	-2.209400e+01
1	 1.028105e+00	 1.066672e+00	-2.253266e+01
1	 1.014938e+00	 1.079207e+00	-2.300579e+01
1	 1.084603e+00	 1.020013e+00	-2.095257e+01
1	 1.072005e+00	 1.033245e+00	-2.128462e+01
1	 1.059244e+00	 1.046323e+00	-2.165064e+01
1	 1.046323e+00	 1.059244e+00	-2.205057e+01
1	 1.033245e+00	 1.072005e+00	-2.248439e+01
1	 1.020013e+00	 1.084603e+00	-2.295214e+01
1	 1.089999e+00	 1.025088e+00	-2.089876e+01
1	 1.077338e+00	 1.038386e+00	-2.122057e+01
1	 1.064514e+00	 1.051529e+00	-2.157863e+01
1	 1.051529e+00	 1.064514e+00	-2.197200e+01
1	 1.038386e+00	 1.077338e+00	-2.239977e+01
1	 1.025088e+00	 1.089999e+00	-2.286103e+01
1	 1.095395e+00	 1.030162e+00	-2.081330e+01
1	 1.082672e+00	 1.043526e+00	-2.112356e+01
1	 1.069784e+00	 1.056734e+00	-2.147243e+01
1	 1.056734e+00	 1.069784e+00	-2.185811e+01
1	 1.043526e+00	 1.082672e+00	-2.227879e+01
1	 1.030162e+00	 1.095395e+00	-2.273267e+01
1	 1.100791e+00	 1.035237e+00	-2.069551e+01
1	 1.088005e+00	 1.048667e+00	-2.099305e+01
1	 1.075054e+00	 1.061940e+00	-2.133165e+01
1	 1.061940e+00	 1.075054e+00	-2.170867e+01
1	 1.048667e+00	 1.088005e+00	-2.212144e+01
1	 1.035237e+00	 1.100791e+00	-2.256725e+01
1	 1.106187e+00	 1.040312e+00	-2.054472e+01
1	 1.093338e+00	 1.053807e+00	-2.082851e+01
1	 1.080324e+00	 1.067145e+00	-2.115593e+01
1	 1.067145e+00	 1.080324e+00	-2.152351e+01
1	 1.053807e+00	 1.093338e+00	-2.192772e+01
1	 1.040312e+00	 1.106187e+00	-2.236496e+01
1	 1.014938e+00	 1.079207e+00	-2.300579e+01
1	 1.001622e+00	 1.091578e+00	-2.357645e+01
1	 9.881578e-01	 1.103781e+00	-2.430528e+01
1	 9.745500e-01	 1.115813e+00	-2.518975e+01
1	 9.608013e-01	 1.127674e+00	-2.622750e+01
1	 9.469152e-01	 1.139359e+00	-2.741627e+01
1	 1.020013e+00	 1.084603e+00	-2.295214e+01
1	 1.006630e+00	 1.097035e+00	-2.351680e+01
1	 9.930986e-01	 1.109299e+00	-2.423972e+01
1	 9.794227e-01	 1.121393e+00	-2.511856e+01
1	 9.656053e-01	 1.133312e+00	-2.615117e+01
1	 9.516498e-01	 1.145056e+00	-2.733551e+01
1	 1.025088e+00	 1.089999e+00	-2.286103e+01
1	 1.011638e+00	 1.102493e+00	-2.341886e+01
1	 9.980394e-01	 1.114818e+00	-2.413539e+01
1	 9.842955e-01	 1.126972e+00	-2.500840e+01
1	 9.704093e-01	 1.138951e+00	-2.603581e+01
1	 9.563843e-01	 1.150753e+00	-2.721572e+01
1	 1.030162e+00	 1.095395e+00	-2.273267e+01
1	 1.016646e+00	 1.107951e+00	-2.328301e+01
1	 1.002980e+00	 1.120337e+00	-2.399277e+01
1	 9.891682e-01	 1.132551e+00	-2.485974e+01
1	 9.752133e-01	 1.144589e+00	-2.588184e+01
1	 9.611189e-01	 1.156449e+00	-2.705716e+01
1	 1.035237e+00	 1.100791e+00	-2.256725e+01
1	 1.021654e+00	 1.113409e+00	-2.310962e+01
1	 1.007921e+00	 1.125856e+00	-2.381232e+01
1	 9.940410e-01	 1.138130e+00	-2.467306e+01
1	 9.800173e-01	 1.150227e+00	-2.568966e+01
1	 9.658535e-01	 1.162146e+00	-2.686010e+01
1	 1.040312e+00	 1.106187e+00	-2.236496e+01
1	 1.026662e+00	 1.118867e+00	-2.289904e+01
1	 1.012862e+00	 1.131375e+00	-2.359449e+01
1	 9.989137e-01	 1.143709e+00	-2.444883e+01
1	 9.848214e-01	 1.155866e+00	-2.545968e+01
1	 9.705881e-01	 1.167843e+00	-2.662479e+01
1	 9.469152e-01	 1.139359e+00	-2.741627e+01
1	 9.328949e-01	 1.150867e+00	-2.874280e+01
1	 9.187438e-01	 1.162195e+00	-3.019070e+01
1	 9.044654e-01	 1.173341e+00	-3.175294e+01
1	 8.900632e-01	 1.184304e+00	-3.342230e+01
1	 8.755408e-01	 1.195080e+00	-3.519135e+01
1	 9.516498e-01	 1.145056e+00	-2.733551e+01
1	 9.375593e-01	 1.156621e+00	-2.865694e+01
1	 9.233375e-01	 1.168006e+00	-3.009771e+01
1	 9.089877e-01	 1.179208e+00	-3.165107e+01
1	 8.945135e-01	 1.190225e+00	-3.331006e+01
1	 8.799185e-01	 1.201055e+00	-3.506752e+01
1	 9.563843e-01	 1.150753e+00	-2.721572e+01
1	 9.422238e-01	 1.162376e+00	-2.853194e+01
1	 9.279312e-01	 1.173817e+00	-2.996532e+01
1	 9.135101e-01	 1.185075e+00	-3.150942e+01
1	 8.989639e-01	 1.196147e+00	-3.315758e+01
1	 8.842962e-01	 1.207031e+00	-3.490294e+01
1	 9.611189e-01	 1.156449e+00	-2.705716e+01
1	 9.468883e-01	 1.168130e+00	-2.836791e+01
1	 9.325250e-01	 1.179628e+00	-2.979353e+01
1	 9.180324e-01	 1.190941e+00	-3.132793e+01
1	 9.034142e-01	 1.202068e+00	-3.296481e+01
1	 8.886739e-01	 1.213006e+00	-3.469766e+01
1	 9.658535e-01	 1.162146e+00	-2.686010e+01
1	 9.515528e-01	 1.173884e+00	-2.816495e+01
1	 9.371187e-01	 1.185439e+00	-2.958235e+01
1	 9.225547e-01	 1.196808e+00	-3.110658e+01
1	 9.078645e-01	 1.207990e+00	-3.273174e+01
1	 8.930516e-01	 1.218981e+00	-3.445170e+01
1	 9.705881e-01	 1.167843e+00	-2.662479e+01
1	 9.562172e-01	 1.179639e+00	-2.792316e+01
1	 9.417124e-01	 1.191250e+00	-2.933177e+01
1	 9.270771e-01	 1.202675e+00	-3.084533e+01
1	 9.123148e-01	 1.213911e+00	-3.245833e+01
1	 8.974293e-01	 1.224957e+00	-3.416512e+01
1	 8.755408e-01	 1.195080e+00	-3.519135e+01
1	 8.609016e-01	 1.205668e+00	-3.703620e+01
1	 8.461494e-01	 1.216067e+00	-3.893078e+01
1	 8.312877e-01	 1.226274e+00	-4.086403e+01
1	 8.163204e-01	 1.236288e+00	-4.282461e+01
1	 8.012510e-01	 1.246108e+00	-4.480094e+01
1	 8.799185e-01	 1.201055e+00	-3.506752e+01
1	 8.652061e-01	 1.211697e+00	-3.689904e+01
1	 8.503801e-01	 1.222147e+00	-3.877773e+01
1	 8.354442e-01	 1.232405e+00	-4.069229e+01
1	 8.204020e-01	 1.242470e+00	-4.263115e+01
1	 8.052573e-01	 1.252338e+00	-4.458251e+01
1	 8.842962e-01	 1.207031e+00	-3.490294e+01
1	 8.695106e-01	 1.217725e+00	-3.672067e+01
1	 8.546109e-01	 1.228228e+00	-3.858304e+01
1	 8.396006e-01	 1.238537e+00	-4.047848e+01
1	 8.244836e-01	 1.248651e+00	-4.239519e+01
1	 8.092635e-01	 1.258569e+00	-4.432111e+01
1	 8.886739e-01	 1.213006e+00	-3.469766e+01
1	 8.738151e-01	 1.223753e+00	-3.650120e+01
1	 8.588416e-01	 1.234308e+00	-3.834684e+01
1	 8.437571e-01	 1.244668e+00	-4.022275e+01
1	 8.285652e-01	 1.254832e+00	-4.211684e+01
1	 8.132698e-01	 1.264799e+00	-4.401675e+01
1	 8.930516e-01	 1.218981e+00	-3.445170e+01
1	 8.781196e-01	 1.229782e+00	-3.624073e+01
1	 8.630724e-01	 1.240388e+00	-3.806928e+01
1	 8.479135e-01	 1.250800e+00	-3.992523e+01
1	 8.326468e-01	 1.261014e+00	-4.179617e+01
1	 8.172760e-01	 1.271030e+00	-4.366944e+01
1	 8.974293e-01	 1.224957e+00	-3.416512e+01
1	 8.824241e-01	 1.235810e+00	-3.593938e+01
1	 8.673031e-01	 1.246469e+00	-3.775051e+01
1	 8.520699e-01	 1.256931e+00	-3.958606e+01
1	 8.367284e-01	 1.267195e+00	-4.143328e+01
1	 8.212823e-01	 1.277260e+00	-4.327917e+01
1	 8.012510e-01	 1.246108e+00	-4.480094e+01
1	 7.860834e-01	 1.255731e+00	-4.674128e+01
1	 7.708213e-01	 1.265157e+00	-4.860833e+01
1	 7.554685e-01	 1.274384e+00	-5.041226e+01
1	 7.400289e-01	 1.283411e+00	-5.216361e+01
1	 7.245062e-01	 1.292238e+00	-5.387323e+01
1	 8.052573e-01	 1.252338e+00	-4.458251e+01
1	 7.900138e-01	 1.262010e+00	-4.649694e+01
1	 7.746754e-01	 1.271483e+00	-4.833882e+01
1	 7.592459e-01	 1.280756e+00	-5.011715e+01
1	 7.437290e-01	 1.289828e+00	-5.184122e+01
1	 7.281287e-01	 1.298699e+00	-5.352065e+01
1	 8.092635e-01	 1.258569e+00	-4.432111e+01
1	 7.939442e-01	 1.268288e+00	-4.620891e+01
1	 7.785295e-01	 1.277808e+00	-4.802450e+01
1	 7.630232e-01	 1.287128e+00	-4.977578e+01
1	 7.474292e-01	 1.296245e+00	-5.147095e+01
1	 7.317512e-01	 1.305160e+00	-5.311845e+01
1	 8.132698e-01	 1.264799e+00	-4.401675e+01
1	 7.978747e-01	 1.274567e+00	-4.587710e+01
1	 7.823836e-01	 1.284134e+00	-4.766526e+01
1	 7.668006e-01	 1.293500e+00	-4.938813e+01
1	 7.511293e-01	 1.302662e+00	-5.105287e+01
1	 7.353738e-01	 1.311621e+00	-5.266687e+01
1	 8.172760e-01	 1.271030e+00	-4.366944e+01
1	 8.018051e-01	 1.280846e+00	-4.550145e+01
1	 7.862377e-01	 1.290460e+00	-4.726104e+01
1	 7.705779e-01	 1.299872e+00	-4.895417e+01
1	 7.548295e-01	 1.309080e+00	-5.058706e+01
1	 7.389963e-01	 1.318082e+00	-5.216616e+01
1	 8.212823e-01	 1.277260e+00	-4.327917e+01
1	 8.057355e-01	 1.287124e+00	-4.508191e+01
1	 7.900918e-01	 1.296786e+00	-4.681176e+01
1	 7.743552e-01	 1.306244e+00	-4.847387e+01
1	 7.585296e-01	 1.315497e+00	-5.007359e+01
1	 7.426188e-01	 1.324544e+00	-5.161653e+01
1	 7.245062e-01	 1.292238e+00	-5.387323e+01
1	 7.089043e-01	 1.300862e+00	-5.548185e+01
1	 6.932270e-01	 1.309284e+00	-5.692739e+01
1	 6.774783e-01	 1.317502e+00	-5.821672e+01
1	 6.616619e-01	 1.325515e+00	-5.935681e+01
1	 6.457817e-01	 1.333324e+00	-6.035470e+01
1	 7.281287e-01	 1.298699e+00	-5.352065e+01
1	 7.124488e-01	 1.307366e+00	-5.509436e+01
1	 6.966932e-01	 1.315830e+00	-5.650044e+01
1	 6.808657e-01	 1.324089e+00	-5.774759e+01
1	 6.649702e-01	 1.332143e+00	-5.884460e+01
1	 6.490106e-01	 1.339991e+00	-5.980041e+01
1	 7.317512e-01	 1.305160e+00	-5.311845e+01
1	 7.159933e-01	 1.313871e+00	-5.465585e+01
1	 7.001593e-01	 1.322376e+00	-5.602165e+01
1	 6.842531e-01	 1.330677e+00	-5.722600e+01
1	 6.682785e-01	 1.338771e+00	-5.827923e+01
1	 6.522395e-01	 1.346657e+00	-5.919183e+01
1	 7.353738e-01	 1.311621e+00	-5.266687e+01
1	 7.195379e-01	 1.320375e+00	-5.416672e+01
1	 7.036254e-01	 1.328923e+00	-5.549139e+01
1	 6.876404e-01	 1.337264e+00	-5.665221e+01
1	 6.715868e-01	 1.345398e+00	-5.766074e+01
1	 6.554684e-01	 1.353324e+00	-5.852868e+01
1	 7.389963e-01	 1.318082e+00	-5.216616e+01
1	 7.230824e-01	 1.326879e+00	-5.362732e+01
1	 7.070916e-01	 1.335469e+00	-5.491003e+01
1	 6.910278e-01	 1.343852e+00	-5.602650e+01
1	 6.748951e-01	 1.352026e+00	-5.698918e+01
1	 6.586973e-01	 1.359991e+00	-5.781070e+01
1	 7.426188e-01	 1.324544e+00	-5.161653e+01
1	 7.266269e-01	 1.333384e+00	-5.303801e+01
1	 7.105577e-01	 1.342016e+00	-5.427793e+01
1	 6.944152e-01	 1.350439e+00	-5.534912e+01
1	 6.782034e-01	 1.358653e+00	-5.626460e+01
1	 6.619262e-01	 1.366657e+00	-5.703761e+01
1	 6.457817e-01	 1.333324e+00	-6.035470e+01
1	 6.298416e-01	 1.340928e+00	-6.121326e+01
1	 6.138455e-01	 1.348325e+00	-6.192896e+01
1	 5.977971e-01	 1.355517e+00	-6.249921e+01
1	 5.817003e-01	 1.362502e+00	-6.292128e+01
1	 5.655590e-01	 1.369281e+00	-6.319235e+01
1	 6.490106e-01	 1.339991e+00	-5.980041e+01
1	 6.329908e-01	 1.347632e+00	-6.061800e+01
1	 6.169147e-01	 1.355067e+00	-6.129251e+01
1	 6.007861e-01	 1.362294e+00	-6.182103e+01
1	 5.846088e-01	 1.369315e+00	-6.220053e+01
1	 5.683868e-01	 1.376127e+00	-6.242788e+01
1	 6.522395e-01	 1.346657e+00	-5.919183e+01
1	 6.361400e-01	 1.354337e+00	-5.996645e+01
1	 6.199839e-01	 1.361809e+00	-6.059695e+01
1	 6.037750e-01	 1.369072e+00	-6.108066e+01
1	 5.875173e-01	 1.376127e+00	-6.141475e+01
1	 5.712146e-01	 1.382974e+00	-6.159628e+01
1	 6.554684e-01	 1.353324e+00	-5.852868e+01
1	 6.392892e-01	 1.361042e+00	-5.925803e+01
1	 6.230531e-01	 1.368550e+00	-5.984162e+01
1	 6.067640e-01	 1.375850e+00	-6.027746e+01
1	 5.904258e-01	 1.382940e+00	-6.056347e+01
1	 5.740424e-01	 1.389820e+00	-6.069741e+01
1	 6.586973e-01	 1.359991e+00	-5.781070e+01
1	 6.424384e-01	 1.367746e+00	-5.849219e+01
1	 6.261224e-01	 1.375292e+00	-5.902581e+01
1	 6.097530e-01	 1.382627e+00	-5.941078e+01
1	 5.933343e-01	 1.389752e+00	-5.964622e+01
1	 5.768702e-01	 1.396667e+00	-5.973115e+01
1	 6.619262e-01	 1.366657e+00	-5.703761e+01
1	 6.455877e-01	 1.374451e+00	-5.766838e+01
1	 6.291916e-01	 1.382033e+00	-5.814887e+01
1	 6.127420e-01	 1.389405e+00	-5.847998e+01
1	 5.962428e-01	 1.396565e+00	-5.866255e+01
1	 5.796980e-01	 1.403513e+00	-5.869735e+01
1	 5.655590e-01	 1.369281e+00	-6.319235e+01
1	 5.493769e-01	 1.375853e+00	-6.332275e+01
1	 5.331579e-01	 1.382219e+00	-6.333301e+01
1	 5.169057e-01	 1.388379e+00	-6.323569e+01
1	 5.006240e-01	 1.394332e+00	-6.304346e+01
1	 4.843166e-01	 1.400080e+00	-6.276911e+01
1	 5.683868e-01	 1.376127e+00	-6.242788e+01
1	 5.521238e-01	 1.382733e+00	-6.251516e+01
1	 5.358237e-01	 1.389130e+00	-6.248559e+01
1	 5.194902e-01	 1.395321e+00	-6.235271e+01
1	 5.031272e-01	 1.401304e+00	-6.213024e+01
1	 4.867382e-01	 1.407081e+00	-6.183198e+01
1	 5.712146e-01	 1.382974e+00	-6.159628e+01
1	 5.548707e-01	 1.389612e+00	-6.163959e+01
1	 5.384895e-01	 1.396041e+00	-6.157023e+01
1	 5.220747e-01	 1.402263e+00	-6.140208e+01
1	 5.056303e-01	 1.408276e+00	-6.114917e+01
1	 4.891598e-01	 1.414081e+00	-6.082568e+01
1	 5.740424e-01	 1.389820e+00	-6.069741e+01
1	 5.576176e-01	 1.396491e+00	-6.069620e+01
1	 5.411553e-01	 1.402953e+00	-6.058723e+01
1	 5.246593e-01	 1.409205e+00	-6.038404e+01
1	 5.081334e-01	 1.415247e+00	-6.010034e+01
1	 4.915814e-01	 1.421081e+00	-5.974994e+01
1	 5.768702e-01	 1.396667e+00	-5.973115e+01
1	 5.603645e-01	 1.403370e+00	-5.968517e+01
1	 5.438211e-01	 1.409864e+00	-5.953689e+01
1	 5.272438e-01	 1.416146e+00	-5.929887e+01
1	 5.106365e-01	 1.422219e+00	-5.898382e+01
1	 4.940030e-01	 1.428082e+00	-5.860450e+01
1	 5.796980e-01	 1.403513e+00	-5.869735e+01
1	 5.631114e-01	 1.410250e+00	-5.860666e+01
1	 5.464869e-01	 1.416775e+00	-5.841950e+01
1	 5.298283e-01	 1.423088e+00	-5.814683e+01
1	 5.131396e-01	 1.429191e+00	-5.779967e+01
1	 4.964246e-01	 1.435082e+00	-5.738912e+01
1	 4.843166e-01	 1.400080e+00	-6.276911e+01
1	 4.679872e-01	 1.405623e+00	-6.241781e+01
1	 4.516395e-01	 1.410960e+00	-6.199183e+01
1	 4.352769e-01	 1.416094e+00	-6.149972e+01
1	 4.189033e-01	 1.421023e+00	-6.094999e+01
1	 4.025221e-01	 1.425750e+00	-6.035107e+01
1	 4.867382e-01	 1.407081e+00	-6.183198e+01
1	 4.703272e-01	 1.412651e+00	-6.146343e+01
1	 4.538977e-01	 1.418015e+00	-6.102733e+01
1	 4.374533e-01	 1.423174e+00	-6.053345e+01
1	 4.209978e-01	 1.428128e+00	-5.999152e+01
1	 4.045347e-01	 1.432879e+00	-5.941119e+01
1	 4.891598e-01	 1.414081e+00	-6.082568e+01
1	 4.726671e-01	 1.419679e+00	-6.043695e+01
1	 4.561559e-01	 1.425070e+00	-5.998672e+01
1	 4.396297e-01	 1.430255e+00	-5.948676e+01
1	 4.230923e-01	 1.435234e+00	-5.894880e+01
1	 4.065473e-01	 1.440008e+00	-5.838448e+01
1	 4.915814e-01	 1.421081e+00	-5.974994e+01
1	 4.750070e-01	 1.426707e+00	-5.933777e+01
1	 4.584140e-01	 1.432125e+00	-5.886922e+01
1	 4.418061e-01	 1.437335e+00	-5.835884e+01
1	 4.251868e-01	 1.442339e+00	-5.782111e+01
1	 4.085599e-01	 1.447136e+00	-5.727043e+01
1	 4.940030e-01	 1.428082e+00	-5.860450e+01
1	 4.773470e-01	 1.433735e+00	-5.816531e+01
1	 4.606722e-01	 1.439180e+00	-5.767408e+01
1	 4.439825e-01	 1.444416e+00	-5.714890e+01
1	 4.272814e-01	 1.449444e+00	-5.660774e+01
1	 4.105725e-01	 1.454265e+00	-5.606853e+01
1	 4.964246e-01	 1.435082e+00	-5.738912e+01
1	 4.796869e-01	 1.440763e+00	-5.691899e+01
1	 4.629304e-01	 1.446234e+00	-5.640057e+01
1	 4.461589e-01	 1.451496e+00	-5.585615e+01
1	 4.293759e-01	 1.456549e+00	-5.530800e+01
1	 4.125851e-01	 1.461394e+00	-5.477828e+01
1	 4.025221e-01	 1.425750e+00	-6.035107e+01
1	 3.861368e-01	 1.430275e+00	-5.976760e+01
1	 3.697509e-01	 1.434598e+00	-5.924251e+01
1	 3.533679e-01	 1.438721e+00	-5.875178e+01
1	 3.369912e-01	 1.442645e+00	-5.827150e+01
1	 3.206241e-01	 1.446370e+00	-5.777796e+01
1	 4.045347e-01	 1.432879e+00	-5.941119e+01
1	 3.880675e-01	 1.437426e+00	-5.885726e+01
1	 3.715997e-01	 1.441771e+00	-5.837194e+01
1	 3.551348e-01	 1.445915e+00	-5.793104e+01
1	 3.386762e-01	 1.449858e+00	-5.751049e+01
1	 3.222272e-01	 1.453602e+00	-5.708638e+01
1	 4.065473e-01	 1.440008e+00	-5.838448e+01
1	 3.899981e-01	 1.444577e+00	-5.785933e+01
1	 3.734484e-01	 1.448944e+00	-5.741478e+01
1	 3.569016e-01	 1.453108e+00	-5.702631e+01
1	 3.403611e-01	 1.457071e+00	-5.666952e+01
1	 3.238303e-01	 1.460834e+00	-5.632017e+01
1	 4.085599e-01	 1.447136e+00	-5.727043e+01
1	 3.919288e-01	 1.451729e+00	-5.677354e+01
1	 3.752972e-01	 1.456117e+00	-5.637097e+01
1	 3.586685e-01	 1.460302e+00	-5.603772e+01
1	 3.420461e-01	 1.464285e+00	-5.574891e+01
1	 3.254335e-01	 1.468066e+00	-5.547983e+01
1	 4.105725e-01	 1.454265e+00	-5.606853e+01
1	 3.938595e-01	 1.458880e+00	-5.559963e+01
1	 3.771459e-01	 1.463290e+00	-5.524047e+01
1	 3.604353e-01	 1.467496e+00	-5.496542e+01
1	 3.437310e-01	 1.471498e+00	-5.474899e+01
1	 3.270366e-01	 1.475298e+00	-5.456582e+01
1	 4.125851e-01	 1.461394e+00	-5.477828e+01
1	 3.957902e-01	 1.466032e+00	-5.433734e+01
1	 3.789947e-01	 1.470463e+00	-5.402322e+01
1	 3.622021e-01	 1.474689e+00	-5.380955e+01
1	 3.454160e-01	 1.478711e+00	-5.367006e+01
1	 3.286397e-01	 1.482530e+00	-5.357860e+01
1	 3.206241e-01	 1.446370e+00	-5.777796e+01
1	 3.042699e-01	 1.449899e+00	-5.728835e+01
1	 2.879319e-01	 1.453232e+00	-5.684060e+01
1	 2.716132e-01	 1.456370e+00	-5.644233e+01
1	 2.553171e-01	 1.459315e+00	-5.610114e+01
1	 2.390466e-01	 1.462068e+00	-5.582455e+01
1	 3.222272e-01	 1.453602e+00	-5.708638e+01
1	 3.057912e-01	 1.457149e+00	-5.667672e+01
1	 2.893715e-01	 1.460498e+00	-5.631931e+01
1	 2.729713e-01	 1.463652e+00	-5.602012e+01
1	 2.565937e-01	 1.466612e+00	-5.578511e+01
1	 2.402418e-01	 1.469379e+00	-5.562017e+01
1	 3.238303e-01	 1.460834e+00	-5.632017e+01
1	 3.073126e-01	 1.464398e+00	-5.599681e+01
1	 2.908112e-01	 1.467764e+00	-5.573654e+01
1	 2.743293e-01	 1.470934e+00	-5.554309e+01
1	 2.578702e-01	 1.473908e+00	-5.542019e+01
1	 2.414370e-01	 1.476689e+00	-5.537155e+01
1	 3.254335e-01	 1.468066e+00	-5.547983e+01
1	 3.088339e-01	 1.471648e+00	-5.524923e+01
1	 2.922508e-01	 1.475030e+00	-5.509291e+01
1	 2.756874e-01	 1.478216e+00	-5.501180e+01
1	 2.591468e-01	 1.481205e+00	-5.500686e+01
1	 2.426323e-01	 1.483999e+00	-5.507899e+01
1	 3.270366e-01	 1.475298e+00	-5.456582e+01
1	 3.103553e-01	 1.478897e+00	-5.443454e+01
1	 2.936905e-01	 1.482296e+00	-5.438902e+01
1	 2.770455e-01	 1.485497e+00	-5.442683e+01
1	 2.604234e-01	 1.488501e+00	-5.454555e+01
1	 2.438275e-01	 1.491310e+00	-5.474278e+01
1	 3.286397e-01	 1.482530e+00	-5.357860e+01
1	 3.118766e-01	 1.486147e+00	-5.355332e+01
1	 2.951302e-01	 1.489563e+00	-5.362547e+01
1	 2.784035e-01	 1.492779e+00	-5.378871e+01
1	 2.617000e-01	 1.495798e+00	-5.403673e+01
1	 2.450227e-01	 1.498620e+00	-5.436322e+01
1	 2.390466e-01	 1.462068e+00	-5.582455e+01
1	 2.228048e-01	 1.464631e+00	-5.560718e+01
1	 2.065946e-01	 1.467006e+00	-5.542994e+01
1	 1.904191e-01	 1.469193e+00	-5.527984e+01
1	 1.742810e-01	 1.471195e+00	-5.514400e+01
1	 1.581832e-01	 1.473012e+00	-5.500968e+01
1	 2.402418e-01	 1.469379e+00	-5.562017e+01
1	 2.239188e-01	 1.471955e+00	-5.551774e+01
1	 2.076276e-01	 1.474341e+00	-5.545629e+01
1	 1.913711e-01	 1.476539e+00	-5.542085e+01
1	 1.751524e-01	 1.478551e+00	-5.539661e+01
1	 1.589741e-01	 1.480377e+00	-5.536889e+01
1	 2.414370e-01	 1.476689e+00	-5.537155e+01
1	 2.250328e-01	 1.479278e+00	-5.538697e+01
1	 2.086606e-01	 1.481676e+00	-5.544270e+01
1	 1.923232e-01	 1.483885e+00	-5.552217e+01
1	 1.760238e-01	 1.485907e+00	-5.560898e+01
1	 1.597650e-01	 1.487742e+00	-5.568690e+01
1	 2.426323e-01	 1.483999e+00	-5.507899e+01
1	 2.261468e-01	 1.486601e+00	-5.521502e+01
1	 2.096935e-01	 1.489011e+00	-5.538921e+01
1	 1.932753e-01	 1.491231e+00	-5.558374e+01
1	 1.768952e-01	 1.493263e+00	-5.578100e+01
1	 1.605560e-01	 1.495108e+00	-5.596355e+01
1	 2.438275e-01	 1.491310e+00	-5.474278e+01
1	 2.272609e-01	 1.493924e+00	-5.500201e+01
1	 2.107265e-01	 1.496346e+00	-5.529581e+01
1	 1.942274e-01	 1.498577e+00	-5.560549e+01
1	 1.777666e-01	 1.500618e+00	-5.591254e+01
1	 1.613469e-01	 1.502473e+00	-5.619871e+01
1	 2.450227e-01	 1.498620e+00	-5.436322e+01
1	 2.283749e-01	 1.501247e+00	-5.474809e+01
1	 2.117595e-01	 1.503681e+00	-5.516254e+01
1	 1.951795e-01	 1.505923e+00	-5.558735e+01
1	 1.786380e-01	 1.507974e+00	-5.600350e+01
1	 1.621378e-01	 1.509838e+00	-5.639223e+01
1	 1.581832e-01	 1.473012e+00	-5.500968e+01
1	 1.421285e-01	 1.474648e+00	-5.486728e+01
1	 1.261196e-01	 1.476103e+00	-5.470901e+01
1	 1.101591e-01	 1.477380e+00	-5.452502e+01
1	 9.424952e-02	 1.478480e+00	-5.430555e+01
1	 7.839350e-02	 1.479406e+00	-5.404095e+01
1	 1.589741e-01	 1.480377e+00	-5.536889e+01
1	 1.428392e-01	 1.482021e+00	-5.532612e+01
1	 1.267502e-01	 1.483484e+00	-5.525872e+01
1	 1.107098e-01	 1.484767e+00	-5.515528e+01
1	 9.472077e-02	 1.485873e+00	-5.500452e+01
1	 7.878547e-02	 1.486803e+00	-5.479525e+01
1	 1.597650e-01	 1.487742e+00	-5.568690e+01
1	 1.435498e-01	 1.489395e+00	-5.574266e+01
1	 1.273808e-01	 1.490864e+00	-5.576503e+01
1	 1.112606e-01	 1.492154e+00	-5.574109e+01
1	 9.519201e-02	 1.493265e+00	-5.565806e+01
1	 7.917743e-02	 1.494200e+00	-5.550335e+01
1	 1.605560e-01	 1.495108e+00	-5.596355e+01
1	 1.442604e-01	 1.496768e+00	-5.611675e+01
1	 1.280114e-01	 1.498245e+00	-5.622777e+01
1	 1.118114e-01	 1.499541e+00	-5.628226e+01
1	 9.566326e-02	 1.500658e+00	-5.626603e+01
1	 7.956940e-02	 1.501597e+00	-5.616510e+01
1	 1.613469e-01	 1.502473e+00	-5.619871e+01
1	 1.449711e-01	 1.504141e+00	-5.644823e+01
1	 1.286420e-01	 1.505625e+00	-5.664678e+01
1	 1.123622e-01	 1.506928e+00	-5.677864e+01
1	 9.613451e-02	 1.508050e+00	-5.682827e+01
1	 7.996137e-02	 1.508994e+00	-5.678036e+01
1	 1.621378e-01	 1.509838e+00	-5.639223e+01
1	 1.456817e-01	 1.511514e+00	-5.673694e+01
1	 1.292726e-01	 1.513006e+00	-5.702191e+01
1	 1.129130e-01	 1.514315e+00	-5.723008e+01
1	 9.660576e-02	 1.515442e+00	-5.734463e+01
1	 8.035334e-02	 1.516391e+00	-5.734899e+01
1	 7.839350e-02	 1.479406e+00	-5.404095e+01
1	 6.259345e-02	 1.480159e+00	-5.372083e+01
1	 4.685177e-02	 1.480740e+00	-5.333796e+01
1	 3.117080e-02	 1.481154e+00	-5.288754e+01
1	 1.555281e-02	 1.481400e+00	-5.236477e+01
1	 0.000000e+00	 1.481481e+00	-5.176489e+01
1	 7.878547e-02	 1.486803e+00	-5.479525e+01
1	 6.290642e-02	 1.487559e+00	-5.451571e+01
1	 4.708603e-02	 1.488144e+00	-5.415750e+01
1	 3.132665e-02	 1.488559e+00	-5.371467e+01
1	 1.563057e-02	 1.488807e+00	-5.318132e+01
1	 0.000000e+00	 1.488889e+00	-5.255165e+01
1	 7.917743e-02	 1.494200e+00	-5.550335e+01
1	 6.321939e-02	 1.494960e+00	-5.526387e+01
1	 4.732029e-02	 1.495548e+00	-5.493018e+01
1	 3.148251e-02	 1.495965e+00	-5.449529e+01
1	 1.570833e-02	 1.496214e+00	-5.395232e+01
1	 0.000000e+00	 1.496296e+00	-5.329450e+01
1	 7.956940e-02	 1.501597e+00	-5.616510e+01
1	 6.353235e-02	 1.502361e+00	-5.596518e+01
1	 4.755455e-02	 1.502952e+00	-5.565587e+01
1	 3.163836e-02	 1.503371e+00	-5.522927e+01
1	 1.578610e-02	 1.503621e+00	-5.467760e+01
1	 0.000000e+00	 1.503704e+00	-5.399323e+01
1	 7.996137e-02	 1.508994e+00	-5.678036e+01
1	 6.384532e-02	 1.509762e+00	-5.661949e+01
1	 4.778881e-02	 1.510355e+00	-5.633444e+01
1	 3.179422e-02	 1.510777e+00	-5.591646e+01
1	 1.586386e-02	 1.511028e+00	-5.535699e+01
1	 0.000000e+00	 1.511111e+00	-5.464765e+01
1	 8.035334e-02	 1.516391e+00	-5.734899e+01
1	 6.415829e-02	 1.517163e+00	-5.722668e+01
1	 4.802307e-02	 1.517759e+00	-5.696574e+01
1	 3.195007e-02	 1.518182e+00	-5.655671e+01
1	 1.594163e-02	 1.518435e+00	-5.599033e+01
1	 0.000000e+00	 1.518519e+00	-5.525754e+01
1	 1.518519e+00	 0.000000e+00	 1.741609e+01
1	 1.518435e+00	 1.594163e-02	 1.705218e+01
1	 1.518182e+00	 3.195007e-02	 1.668039e+01
1	 1.517759e+00	 4.802307e-02	 1.630230e+01
1	 1.517163e+00	 6.415829e-02	 1.591953e+01
1	 1.516391e+00	 8.035334e-02	 1.553368e+01
1	 1.525926e+00	 0.000000e+00	 1.731268e+01
1	 1.525842e+00	 1.601939e-02	 1.695401e+01
1	 1.525588e+00	 3.210592e-02	 1.658452e+01
1	 1.525163e+00	 4.825733e-02	 1.620596e+01
1	 1.524563e+00	 6.447125e-02	 1.582011e+01
1	 1.523788e+00	 8.074530e-02	 1.542878e+01
1	 1.533333e+00	 0.000000e+00	 1.720371e+01
1	 1.533249e+00	 1.609715e-02	 1.685059e+01
1	 1.532994e+00	 3.226178e-02	 1.648371e+01
1	 1.532566e+00	 4.849159e-02	 1.610502e+01
1	 1.531964e+00	 6.478422e-02	 1.571650e+01
1	 1.531185e+00	 8.113727e-02	 1.532014e+01
1	 1.540741e+00	 0.000000e+00	 1.708911e+01
1	 1.540656e+00	 1.617492e-02	 1.674183e+01
1	 1.540400e+00	 3.241763e-02	 1.637789e+01
1	 1.539970e+00	 4.872584e-02	 1.599942e+01
1	 1.539365e+00	 6.509719e-02	 1.560860e+01
1	 1.538582e+00	 8.152924e-02	 1.520764e+01
1	 1.548148e+00	 0.000000e+00	 1.696880e+01
1	 1.548063e+00	 1.625268e-02	 1.662768e+01
1	 1.547805e+00	 3.257349e-02	 1.626698e+01
1	 1.547374e+00	 4.896010e-02	 1.588905e+01
1	 1.546766e+00	 6.541016e-02	 1.549631e+01
1	 1.545979e+00	 8.192121e-02	 1.509116e+01
1	 1.555556e+00	 0.000000e+00	 1.684272e+01
1	 1.555470e+00	 1.633045e-02	 1.650805e+01
1	 1.555211e+00	 3.272934e-02	 1.615090e+01
1	 1.554777e+00	 4.919436e-02	 1.577385e+01
1	 1.554167e+00	 6.572312e-02	 1.537953e+01
1	 1.553376e+00	 8.231317e-02	 1.497060e+01
1	 1.516391e+00	 8.035334e-02	 1.553368e+01
1	 1.515442e+00	 9.660576e-02	 1.514871e+01
1	 1.514315e+00	 1.129130e-01	 1.476940e+01
1	 1.513006e+00	 1.292726e-01	 1.439863e+01
1	 1.511514e+00	 1.456817e-01	 1.403926e+01
1	 1.509838e+00	 1.621378e-01	 1.369412e+01
1	 1.523788e+00	 8.074530e-02	 1.542878e+01
1	 1.522835e+00	 9.707701e-02	 1.503584e+01
1	 1.521702e+00	 1.134638e-01	 1.464605e+01
1	 1.520386e+00	 1.299032e-01	 1.426253e+01
1	 1.518887e+00	 1.463924e-01	 1.388837e+01
1	 1.517203e+00	 1.629287e-01	 1.352665e+01
1	 1.531185e+00	 8.113727e-02	 1.532014e+01
1	 1.530227e+00	 9.754825e-02	 1.491975e+01
1	 1.529089e+00	 1.140146e-01	 1.452003e+01
1	 1.527767e+00	 1.305338e-01	 1.412435e+01
1	 1.526261e+00	 1.471030e-01	 1.373602e+01
1	 1.524568e+00	 1.637196e-01	 1.335838e+01
1	 1.538582e+00	 8.152924e-02	 1.520764e+01
1	 1.537620e+00	 9.801950e-02	 1.480028e+01
1	 1.536475e+00	 1.145654e-01	 1.439119e+01
1	 1.535148e+00	 1.311644e-01	 1.398393e+01
1	 1.533634e+00	 1.478137e-01	 1.358207e+01
1	 1.531933e+00	 1.645105e-01	 1.318914e+01
1	 1.545979e+00	 8.192121e-02	 1.509116e+01
1	 1.545012e+00	 9.849075e-02	 1.467732e+01
1	 1.543862e+00	 1.151162e-01	 1.425939e+01
1	 1.542528e+00	 1.317950e-01	 1.384114e+01
1	 1.541007e+00	 1.485243e-01	 1.342635e+01
1	 1.539298e+00	 1.653015e-01	 1.301879e+01
1	 1.553376e+00	 8.231317e-02	 1.497060e+01
1	 1.552404e+00	 9.896200e-02	 1.455074e+01
1	 1.551249e+00	 1.156670e-01	 1.412447e+01
1	 1.549909e+00	 1.324256e-01	 1.369580e+01
1	 1.548380e+00	 1.492349e-01	 1.326870e+01
1	 1.546663e+00	 1.660924e-01	 1.284715e+01
1	 1.509838e+00	 1.621378e-01	 1.369412e+01
1	 1.507974e+00	 1.786380e-01	 1.336505e+01
1	 1.505923e+00	 1.951795e-01	 1.305380e+01
1	 1.503681e+00	 2.117595e-01	 1.276309e+01
1	 1.501247e+00	 2.283749e-01	 1.249558e+01
1	 1.498620e+00	 2.450227e-01	 1.225389e+01
1	 1.517203e+00	 1.629287e-01	 1.352665e+01
1	 1.515330e+00	 1.795094e-01	 1.317954e+01
1	 1.513269e+00	 1.961316e-01	 1.284905e+01
1	 1.511016e+00	 2.127924e-01	 1.253799e+01
1	 1.508570e+00	 2.294889e-01	 1.224914e+01
1	 1.505930e+00	 2.462180e-01	 1.198527e+01
1	 1.524568e+00	 1.637196e-01	 1.335838e+01
1	 1.522686e+00	 1.803808e-01	 1.299393e+01
1	 1.520615e+00	 1.970837e-01	 1.264495e+01
1	 1.518351e+00	 2.138254e-01	 1.231440e+01
1	 1.515894e+00	 2.306029e-01	 1.200518e+01
1	 1.513241e+00	 2.474132e-01	 1.172021e+01
1	 1.531933e+00	 1.645105e-01	 1.318914e+01
1	 1.530042e+00	 1.812522e-01	 1.280803e+01
1	 1.527961e+00	 1.980358e-01	 1.244131e+01
1	 1.525686e+00	 2.148584e-01	 1.209207e+01
1	 1.523217e+00	 2.317170e-01	 1.176338e+01
1	 1.520551e+00	 2.486084e-01	 1.145829e+01
1	 1.539298e+00	 1.653015e-01	 1.301879e+01
1	 1.537398e+00	 1.821236e-01	 1.262168e+01
1	 1.535307e+00	 1.989879e-01	 1.223792e+01
1	 1.533021e+00	 2.158914e-01	 1.187077e+01
1	 1.530540e+00	 2.328310e-01	 1.152343e+01
1	 1.527862e+00	 2.498037e-01	 1.119913e+01
1	 1.546663e+00	 1.660924e-01	 1.284715e+01
1	 1.544754e+00	 1.829950e-01	 1.243472e+01
1	 1.542653e+00	 1.999400e-01	 1.203462e+01
1	 1.540356e+00	 2.169243e-01	 1.165026e+01
1	 1.537863e+00	 2.339450e-01	 1.128503e+01
1	 1.535172e+00	 2.509989e-01	 1.094233e+01
1	 1.498620e+00	 2.450227e-01	 1.225389e+01
1	 1.495798e+00	 2.617000e-01	 1.204998e+01
1	 1.492779e+00	 2.784035e-01	 1.189417e+01
1	 1.489563e+00	 2.951302e-01	 1.178658e+01
1	 1.486147e+00	 3.118766e-01	 1.172722e+01
1	 1.482530e+00	 3.286397e-01	 1.171600e+01
1	 1.505930e+00	 2.462180e-01	 1.198527e+01
1	 1.503095e+00	 2.629766e-01	 1.175837e+01
1	 1.500061e+00	 2.797616e-01	 1.157912e+01
1	 1.496829e+00	 2.965698e-01	 1.144824e+01
1	 1.493396e+00	 3.133980e-01	 1.136630e+01
1	 1.489762e+00	 3.302428e-01	 1.133377e+01
1	 1.513241e+00	 2.474132e-01	 1.172021e+01
1	 1.510391e+00	 2.642532e-01	 1.147137e+01
1	 1.507343e+00	 2.811197e-01	 1.126954e+01
1	 1.504095e+00	 2.980095e-01	 1.111591e+01
1	 1.500646e+00	 3.149193e-01	 1.101156e+01
1	 1.496993e+00	 3.318459e-01	 1.095744e+01
1	 1.520551e+00	 2.486084e-01	 1.145829e+01
1	 1.517688e+00	 2.655298e-01	 1.118853e+01
1	 1.514625e+00	 2.824777e-01	 1.096499e+01
1	 1.511361e+00	 2.994491e-01	 1.078929e+01
1	 1.507895e+00	 3.164407e-01	 1.066293e+01
1	 1.504225e+00	 3.334491e-01	 1.058725e+01
1	 1.527862e+00	 2.498037e-01	 1.119913e+01
1	 1.524984e+00	 2.668063e-01	 1.090940e+01
1	 1.521907e+00	 2.838358e-01	 1.066507e+01
1	 1.518627e+00	 3.008888e-01	 1.046810e+01
1	 1.515144e+00	 3.179620e-01	 1.032033e+01
1	 1.511457e+00	 3.350522e-01	 1.022343e+01
1	 1.535172e+00	 2.509989e-01	 1.094233e+01
1	 1.532281e+00	 2.680829e-01	 1.063354e+01
1	 1.529189e+00	 2.851939e-01	 1.036937e+01
1	 1.525893e+00	 3.023285e-01	 1.015205e+01
1	 1.522394e+00	 3.194834e-01	 9.983677e+00
1	 1.518689e+00	 3.366553e-01	 9.866209e+00
1	 1.482530e+00	 3.286397e-01	 1.171600e+01
1	 1.478711e+00	 3.454160e-01	 1.173534e+01
1	 1.474689e+00	 3.622021e-01	 1.176992e+01
1	 1.470463e+00	 3.789947e-01	 1.182300e+01
1	 1.466032e+00	 3.957902e-01	 1.189782e+01
1	 1.461394e+00	 4.125851e-01	 1.199760e+01
1	 1.489762e+00	 3.302428e-01	 1.133377e+01
1	 1.485924e+00	 3.471009e-01	 1.133368e+01
1	 1.481883e+00	 3.639690e-01	 1.135107e+01
1	 1.477636e+00	 3.808435e-01	 1.138929e+01
1	 1.473183e+00	 3.977209e-01	 1.145167e+01
1	 1.468523e+00	 4.145977e-01	 1.154151e+01
1	 1.496993e+00	 3.318459e-01	 1.095744e+01
1	 1.493137e+00	 3.487859e-01	 1.093724e+01
1	 1.489076e+00	 3.657358e-01	 1.093647e+01
1	 1.484809e+00	 3.826922e-01	 1.095862e+01
1	 1.480334e+00	 3.996516e-01	 1.100715e+01
1	 1.475651e+00	 4.166103e-01	 1.108546e+01
1	 1.504225e+00	 3.334491e-01	 1.058725e+01
1	 1.500351e+00	 3.504709e-01	 1.054660e+01
1	 1.496270e+00	 3.675027e-01	 1.052699e+01
1	 1.491982e+00	 3.845410e-01	 1.053211e+01
1	 1.487486e+00	 4.015823e-01	 1.056559e+01
1	 1.482780e+00	 4.186229e-01	 1.063099e+01
1	 1.511457e+00	 3.350522e-01	 1.022343e+01
1	 1.507564e+00	 3.521558e-01	 1.016232e+01
1	 1.503464e+00	 3.692695e-01	 1.012351e+01
1	 1.499155e+00	 3.863897e-01	 1.011090e+01
1	 1.494637e+00	 4.035129e-01	 1.012834e+01
1	 1.489909e+00	 4.206356e-01	 1.017959e+01
1	 1.518689e+00	 3.366553e-01	 9.866209e+00
1	 1.514777e+00	 3.538408e-01	 9.784963e+00
1	 1.510657e+00	 3.710363e-01	 9.726853e+00
1	 1.506328e+00	 3.882385e-01	 9.696069e+00
1	 1.501788e+00	 4.054436e-01	 9.696702e+00
1	 1.497038e+00	 4.226482e-01	 9.732737e+00
1	 1.461394e+00	 4.125851e-01	 1.199760e+01
1	 1.456549e+00	 4.293759e-01	 1.209733e+01
1	 1.451496e+00	 4.461589e-01	 1.216773e+01
1	 1.446234e+00	 4.629304e-01	 1.220576e+01
1	 1.440763e+00	 4.796869e-01	 1.220851e+01
1	 1.435082e+00	 4.964246e-01	 1.217329e+01
1	 1.468523e+00	 4.145977e-01	 1.154151e+01
1	 1.463654e+00	 4.314704e-01	 1.163495e+01
1	 1.458577e+00	 4.483353e-01	 1.170338e+01
1	 1.453289e+00	 4.651886e-01	 1.174307e+01
1	 1.447791e+00	 4.820269e-01	 1.175051e+01
1	 1.442083e+00	 4.988461e-01	 1.172236e+01
1	 1.475651e+00	 4.166103e-01	 1.108546e+01
1	 1.470759e+00	 4.335649e-01	 1.117108e+01
1	 1.465657e+00	 4.505116e-01	 1.123631e+01
1	 1.460344e+00	 4.674468e-01	 1.127686e+01
1	 1.454820e+00	 4.843668e-01	 1.128866e+01
1	 1.449083e+00	 5.012677e-01	 1.126785e+01
1	 1.482780e+00	 4.186229e-01	 1.063099e+01
1	 1.477864e+00	 4.356594e-01	 1.070733e+01
1	 1.472737e+00	 4.526880e-01	 1.076803e+01
1	 1.467399e+00	 4.697050e-01	 1.080836e+01
1	 1.461848e+00	 4.867067e-01	 1.082379e+01
1	 1.456083e+00	 5.036893e-01	 1.081000e+01
1	 1.489909e+00	 4.206356e-01	 1.017959e+01
1	 1.484969e+00	 4.377539e-01	 1.024525e+01
1	 1.479818e+00	 4.548644e-01	 1.030002e+01
1	 1.474454e+00	 4.719632e-01	 1.033881e+01
1	 1.468876e+00	 4.890467e-01	 1.035672e+01
1	 1.463084e+00	 5.061109e-01	 1.034906e+01
1	 1.497038e+00	 4.226482e-01	 9.732737e+00
1	 1.492075e+00	 4.398485e-01	 9.786402e+00
1	 1.486898e+00	 4.570408e-01	 9.833730e+00
1	 1.481508e+00	 4.742214e-01	 9.869411e+00
1	 1.475904e+00	 4.913866e-01	 9.888263e+00
1	 1.470084e+00	 5.085325e-01	 9.885249e+00
1	 1.435082e+00	 4.964246e-01	 1.217329e+01
1	 1.429191e+00	 5.131396e-01	 1.208717e+01
1	 1.423088e+00	 5.298283e-01	 1.193862e+01
1	 1.416775e+00	 5.464869e-01	 1.172732e+01
1	 1.410250e+00	 5.631114e-01	 1.145319e+01
1	 1.403513e+00	 5.796980e-01	 1.111631e+01
1	 1.442083e+00	 4.988461e-01	 1.172236e+01
1	 1.436162e+00	 5.156428e-01	 1.164498e+01
1	 1.430030e+00	 5.324129e-01	 1.150664e+01
1	 1.423686e+00	 5.491526e-01	 1.130723e+01
1	 1.417129e+00	 5.658582e-01	 1.104686e+01
1	 1.410359e+00	 5.825258e-01	 1.072581e+01
1	 1.449083e+00	 5.012677e-01	 1.126785e+01
1	 1.443134e+00	 5.181459e-01	 1.119994e+01
1	 1.436972e+00	 5.349974e-01	 1.107275e+01
1	 1.430597e+00	 5.518184e-01	 1.088622e+01
1	 1.424008e+00	 5.686051e-01	 1.064051e+01
1	 1.417206e+00	 5.853536e-01	 1.033597e+01
1	 1.456083e+00	 5.036893e-01	 1.081000e+01
1	 1.450106e+00	 5.206490e-01	 1.075174e+01
1	 1.443914e+00	 5.375819e-01	 1.063628e+01
1	 1.437508e+00	 5.544842e-01	 1.046348e+01
1	 1.430887e+00	 5.713520e-01	 1.023341e+01
1	 1.424052e+00	 5.881814e-01	 9.946376e+00
1	 1.463084e+00	 5.061109e-01	 1.034906e+01
1	 1.457077e+00	 5.231521e-01	 1.030005e+01
1	 1.450856e+00	 5.401664e-01	 1.019657e+01
1	 1.444419e+00	 5.571500e-01	 1.003821e+01
1	 1.437767e+00	 5.740989e-01	 9.824825e+00
1	 1.430899e+00	 5.910092e-01	 9.556596e+00
1	 1.470084e+00	 5.085325e-01	 9.885249e+00
1	 1.464049e+00	 5.256552e-01	 9.844566e+00
1	 1.457798e+00	 5.427510e-01	 9.752965e+00
1	 1.451330e+00	 5.598158e-01	 9.609617e+00
1	 1.444646e+00	 5.768458e-01	 9.414063e+00
1	 1.437745e+00	 5.938370e-01	 9.166220e+00
1	 1.403513e+00	 5.796980e-01	 1.111631e+01
1	 1.396565e+00	 5.962428e-01	 1.069545e+01
1	 1.389405e+00	 6.127420e-01	 1.016933e+01
1	 1.382033e+00	 6.291916e-01	 9.538180e+00
1	 1.374451e+00	 6.455877e-01	 8.802159e+00
1	 1.366657e+00	 6.619262e-01	 7.961376e+00
1	 1.410359e+00	 5.825258e-01	 1.072581e+01
1	 1.403377e+00	 5.991513e-01	 1.032176e+01
1	 1.396182e+00	 6.157310e-01	 9.812091e+00
1	 1.388775e+00	 6.322608e-01	 9.196777e+00
1	 1.381155e+00	 6.487369e-01	 8.475736e+00
1	 1.373324e+00	 6.651552e-01	 7.648852e+00
1	 1.417206e+00	 5.853536e-01	 1.033597e+01
1	 1.410190e+00	 6.020598e-01	 9.949230e+00
1	 1.402960e+00	 6.187200e-01	 9.456464e+00
1	 1.395517e+00	 6.353300e-01	 8.857482e+00
1	 1.387860e+00	 6.518861e-01	 8.152056e+00
1	 1.379991e+00	 6.683841e-01	 7.339925e+00
1	 1.424052e+00	 5.881814e-01	 9.946376e+00
1	 1.417002e+00	 6.049683e-01	 9.577802e+00
1	 1.409738e+00	 6.217090e-01	 9.102630e+00
1	 1.402258e+00	 6.383993e-01	 8.520616e+00
1	 1.394565e+00	 6.550353e-01	 7.831471e+00
1	 1.386657e+00	 6.716130e-01	 7.034866e+00
1	 1.430899e+00	 5.910092e-01	 9.556596e+00
1	 1.423815e+00	 6.078768e-01	 9.207402e+00
1	 1.416515e+00	 6.246979e-01	 8.750768e+00
1	 1.409000e+00	 6.414685e-01	 8.186496e+00
1	 1.401269e+00	 6.581845e-01	 7.514327e+00
1	 1.393324e+00	 6.748419e-01	 6.733939e+00
1	 1.437745e+00	 5.938370e-01	 9.166220e+00
1	 1.430627e+00	 6.107853e-01	 8.837965e+00
1	 1.423293e+00	 6.276869e-01	 8.401052e+00
1	 1.415742e+00	 6.445377e-01	 7.855433e+00
1	 1.407974e+00	 6.613337e-01	 7.200963e+00
1	 1.399990e+00	 6.780708e-01	 6.437405e+00
1	 1.366657e+00	 6.619262e-01	 7.961376e+00
1	 1.358653e+00	 6.782034e-01	 6.996624e+00
1	 1.350439e+00	 6.944152e-01	 5.889682e+00
1	 1.342016e+00	 7.105577e-01	 4.642312e+00
1	 1.333384e+00	 7.266269e-01	 3.256563e+00
1	 1.324544e+00	 7.426188e-01	 1.734773e+00
1	 1.373324e+00	 6.651552e-01	 7.648852e+00
1	 1.365281e+00	 6.815117e-01	 6.698184e+00
1	 1.357027e+00	 6.978026e-01	 5.607203e+00
1	 1.348562e+00	 7.140238e-01	 4.378127e+00
1	 1.339888e+00	 7.301714e-01	 3.013499e+00
1	 1.331005e+00	 7.462414e-01	 1.516192e+00
1	 1.379991e+00	 6.683841e-01	 7.339925e+00
1	 1.371908e+00	 6.848200e-01	 6.404568e+00
1	 1.363614e+00	 7.011900e-01	 5.331186e+00
1	 1.355109e+00	 7.174900e-01	 4.122354e+00
1	 1.346392e+00	 7.337159e-01	 2.781016e+00
1	 1.337466e+00	 7.498639e-01	 1.310485e+00
1	 1.386657e+00	 6.716130e-01	 7.034866e+00
1	 1.378536e+00	 6.881284e-01	 6.115919e+00
1	 1.370202e+00	 7.045774e-01	 5.061673e+00
1	 1.361655e+00	 7.209561e-01	 3.874962e+00
1	 1.352897e+00	 7.372605e-01	 2.559036e+00
1	 1.343927e+00	 7.534864e-01	 1.117560e+00
1	 1.393324e+00	 6.748419e-01	 6.733939e+00
1	 1.385164e+00	 6.914367e-01	 5.832378e+00
1	 1.376789e+00	 7.079648e-01	 4.798706e+00
1	 1.368201e+00	 7.244222e-01	 3.635920e+00
1	 1.359401e+00	 7.408050e-01	 2.347484e+00
1	 1.350388e+00	 7.571090e-01	 9.373248e-01
1	 1.399990e+00	 6.780708e-01	 6.437405e+00
1	 1.391791e+00	 6.947450e-01	 5.554084e+00
1	 1.383377e+00	 7.113522e-01	 4.542325e+00
1	 1.374748e+00	 7.278884e-01	 3.405197e+00
1	 1.365905e+00	 7.443495e-01	 2.146286e+00
1	 1.356850e+00	 7.607315e-01	 7.696905e-01
1	 1.324544e+00	 7.426188e-01	 1.734773e+00
1	 1.315497e+00	 7.585296e-01	 1.496796e-01
1	 1.306244e+00	 7.743552e-01	-1.427688e+00
1	 1.296786e+00	 7.900918e-01	-2.997317e+00
1	 1.287124e+00	 8.057355e-01	-4.559170e+00
1	 1.277260e+00	 8.212823e-01	-6.113184e+00
1	 1.331005e+00	 7.462414e-01	 1.516192e+00
1	 1.321914e+00	 7.622297e-01	-4.157322e-02
1	 1.312616e+00	 7.781326e-01	-1.590040e+00
1	 1.303112e+00	 7.939459e-01	-3.129818e+00
1	 1.293403e+00	 8.096659e-01	-4.661555e+00
1	 1.283491e+00	 8.252885e-01	-6.185941e+00
1	 1.337466e+00	 7.498639e-01	 1.310485e+00
1	 1.328331e+00	 7.659299e-01	-2.180066e-01
1	 1.318987e+00	 7.819099e-01	-1.736318e+00
1	 1.309437e+00	 7.978001e-01	-3.245572e+00
1	 1.299682e+00	 8.135963e-01	-4.746996e+00
1	 1.289721e+00	 8.292948e-01	-6.241922e+00
1	 1.343927e+00	 7.534864e-01	 1.117560e+00
1	 1.334748e+00	 7.696300e-01	-3.797102e-01
1	 1.325359e+00	 7.856873e-01	-1.866603e+00
1	 1.315763e+00	 8.016542e-01	-3.344648e+00
1	 1.305960e+00	 8.175267e-01	-4.815545e+00
1	 1.295952e+00	 8.333011e-01	-6.281161e+00
1	 1.350388e+00	 7.571090e-01	 9.373248e-01
1	 1.341165e+00	 7.733302e-01	-5.267722e-01
1	 1.331731e+00	 7.894646e-01	-1.980973e+00
1	 1.322089e+00	 8.055083e-01	-3.427112e+00
1	 1.312239e+00	 8.214572e-01	-4.867252e+00
1	 1.302182e+00	 8.373073e-01	-6.303691e+00
1	 1.356850e+00	 7.607315e-01	 7.696905e-01
1	 1.347582e+00	 7.770303e-01	-6.592788e-01
1	 1.338103e+00	 7.932420e-01	-2.079507e+00
1	 1.328415e+00	 8.093624e-01	-3.493027e+00
1	 1.318518e+00	 8.253876e-01	-4.902167e+00
1	 1.308413e+00	 8.413136e-01	-6.309546e+00
1	 1.277260e+00	 8.212823e-01	-6.113184e+00
1	 1.267195e+00	 8.367284e-01	-7.629909e+00
1	 1.256931e+00	 8.520699e-01	-9.081019e+00
1	 1.246469e+00	 8.673031e-01	-1.046838e+01
1	 1.235810e+00	 8.824241e-01	-1.179419e+01
1	 1.224957e+00	 8.974293e-01	-1.306102e+01
1	 1.283491e+00	 8.252885e-01	-6.185941e+00
1	 1.273377e+00	 8.408100e-01	-7.675302e+00
1	 1.263062e+00	 8.562264e-01	-9.102203e+00
1	 1.252549e+00	 8.715339e-01	-1.046796e+01
1	 1.241838e+00	 8.867286e-01	-1.177419e+01
1	 1.230932e+00	 9.018070e-01	-1.302283e+01
1	 1.289721e+00	 8.292948e-01	-6.241922e+00
1	 1.279558e+00	 8.448916e-01	-7.704011e+00
1	 1.269194e+00	 8.603828e-01	-9.106421e+00
1	 1.258629e+00	 8.757646e-01	-1.045002e+01
1	 1.247867e+00	 8.910332e-01	-1.173596e+01
1	 1.236908e+00	 9.061847e-01	-1.296566e+01
1	 1.295952e+00	 8.333011e-01	-6.281161e+00
1	 1.285740e+00	 8.489732e-01	-7.716063e+00
1	 1.275325e+00	 8.645392e-01	-9.093714e+00
1	 1.264710e+00	 8.799953e-01	-1.041464e+01
1	 1.253895e+00	 8.953377e-01	-1.167962e+01
1	 1.242883e+00	 9.105624e-01	-1.288969e+01
1	 1.302182e+00	 8.373073e-01	-6.303691e+00
1	 1.291921e+00	 8.530548e-01	-7.711485e+00
1	 1.281456e+00	 8.686957e-01	-9.064121e+00
1	 1.270790e+00	 8.842261e-01	-1.036189e+01
1	 1.259923e+00	 8.996422e-01	-1.160530e+01
1	 1.248858e+00	 9.149401e-01	-1.279511e+01
1	 1.308413e+00	 8.413136e-01	-6.309546e+00
1	 1.298103e+00	 8.571364e-01	-7.690304e+00
1	 1.287588e+00	 8.728521e-01	-9.017683e+00
1	 1.276870e+00	 8.884568e-01	-1.029183e+01
1	 1.265952e+00	 9.039467e-01	-1.151312e+01
1	 1.254834e+00	 9.193178e-01	-1.268211e+01
1	 1.224957e+00	 8.974293e-01	-1.306102e+01
1	 1.213911e+00	 9.123148e-01	-1.424298e+01
1	 1.202675e+00	 9.270771e-01	-1.531669e+01
1	 1.191250e+00	 9.417124e-01	-1.628890e+01
1	 1.179639e+00	 9.562172e-01	-1.716677e+01
1	 1.167843e+00	 9.705881e-01	-1.795781e+01
1	 1.230932e+00	 9.018070e-01	-1.302283e+01
1	 1.219833e+00	 9.167651e-01	-1.418765e+01
1	 1.208541e+00	 9.315994e-01	-1.524548e+01
1	 1.197061e+00	 9.463061e-01	-1.620333e+01
1	 1.185393e+00	 9.608817e-01	-1.706864e+01
1	 1.173540e+00	 9.753226e-01	-1.784920e+01
1	 1.236908e+00	 9.061847e-01	-1.296566e+01
1	 1.225754e+00	 9.212154e-01	-1.411274e+01
1	 1.214408e+00	 9.361217e-01	-1.515428e+01
1	 1.202872e+00	 9.508998e-01	-1.609741e+01
1	 1.191147e+00	 9.655462e-01	-1.694963e+01
1	 1.179237e+00	 9.800572e-01	-1.771885e+01
1	 1.242883e+00	 9.105624e-01	-1.288969e+01
1	 1.231676e+00	 9.256658e-01	-1.401848e+01
1	 1.220275e+00	 9.406440e-01	-1.504330e+01
1	 1.208683e+00	 9.554936e-01	-1.597122e+01
1	 1.196902e+00	 9.702107e-01	-1.680967e+01
1	 1.184933e+00	 9.847918e-01	-1.756648e+01
1	 1.248858e+00	 9.149401e-01	-1.279511e+01
1	 1.237597e+00	 9.301161e-01	-1.390509e+01
1	 1.226142e+00	 9.451664e-01	-1.491273e+01
1	 1.214494e+00	 9.600873e-01	-1.582486e+01
1	 1.202656e+00	 9.748751e-01	-1.664869e+01
1	 1.190630e+00	 9.895264e-01	-1.739178e+01
1	 1.254834e+00	 9.193178e-01	-1.268211e+01
1	 1.243519e+00	 9.345664e-01	-1.377278e+01
1	 1.232008e+00	 9.496887e-01	-1.476273e+01
1	 1.220305e+00	 9.646810e-01	-1.565842e+01
1	 1.208410e+00	 9.795396e-01	-1.646663e+01
1	 1.196327e+00	 9.942609e-01	-1.719449e+01
1	 1.167843e+00	 9.705881e-01	-1.795781e+01
1	 1.155866e+00	 9.848214e-01	-1.866499e+01
1	 1.143709e+00	 9.989137e-01	-1.928278e+01
1	 1.131375e+00	 1.012862e+00	-1.980585e+01
1	 1.118867e+00	 1.026662e+00	-2.022852e+01
1	 1.106187e+00	 1.040312e+00	-2.054472e+01
1	 1.173540e+00	 9.753226e-01	-1.784920e+01
1	 1.161504e+00	 9.896254e-01	-1.854547e+01
1	 1.149288e+00	 1.003786e+00	-1.914974e+01
1	 1.136894e+00	 1.017803e+00	-1.965747e+01
1	 1.124325e+00	 1.031670e+00	-2.006377e+01
1	 1.111583e+00	 1.045386e+00	-2.036344e+01
1	 1.179237e+00	 9.800572e-01	-1.771885e+01
1	 1.167142e+00	 9.944294e-01	-1.840304e+01
1	 1.154867e+00	 1.008659e+00	-1.899246e+01
1	 1.142413e+00	 1.022743e+00	-1.948347e+01
1	 1.129783e+00	 1.036678e+00	-1.987211e+01
1	 1.116979e+00	 1.050461e+00	-2.015414e+01
1	 1.184933e+00	 9.847918e-01	-1.756648e+01
1	 1.172781e+00	 9.992334e-01	-1.823718e+01
1	 1.160446e+00	 1.013532e+00	-1.881029e+01
1	 1.147932e+00	 1.027684e+00	-1.928313e+01
1	 1.135241e+00	 1.041687e+00	-1.965281e+01
1	 1.122375e+00	 1.055536e+00	-1.991617e+01
1	 1.190630e+00	 9.895264e-01	-1.739178e+01
1	 1.178419e+00	 1.004037e+00	-1.804738e+01
1	 1.166025e+00	 1.018405e+00	-1.860256e+01
1	 1.153451e+00	 1.032625e+00	-1.905574e+01
1	 1.140699e+00	 1.046695e+00	-1.940516e+01
1	 1.127771e+00	 1.060610e+00	-1.964887e+01
1	 1.196327e+00	 9.942609e-01	-1.719449e+01
1	 1.184057e+00	 1.008841e+00	-1.783315e+01
1	 1.171604e+00	 1.023277e+00	-1.836866e+01
1	 1.158970e+00	 1.037566e+00	-1.880059e+01
1	 1.146156e+00	 1.051703e+00	-1.912844e+01
1	 1.133167e+00	 1.065685e+00	-1.935160e+01
1	 1.106187e+00	 1.040312e+00	-2.054472e+01
1	 1.093338e+00	 1.053807e+00	-2.082851e+01
1	 1.080324e+00	 1.067145e+00	-2.115593e+01
1	 1.067145e+00	 1.080324e+00	-2.152351e+01
1	 1.053807e+00	 1.093338e+00	-2.192772e+01
1	 1.040312e+00	 1.106187e+00	-2.236496e+01
1	 1.111583e+00	 1.045386e+00	-2.036344e+01
1	 1.098672e+00	 1.058948e+00	-2.063246e+01
1	 1.085593e+00	 1.072351e+00	-2.094773e+01
1	 1.072351e+00	 1.085593e+00	-2.130501e+01
1	 1.058948e+00	 1.098672e+00	-2.170003e+01
1	 1.045386e+00	 1.111583e+00	-2.212838e+01
1	 1.116979e+00	 1.050461e+00	-2.015414e+01
1	 1.104005e+00	 1.064088e+00	-2.040738e+01
1	 1.090863e+00	 1.077557e+00	-2.070945e+01
1	 1.077557e+00	 1.090863e+00	-2.105555e+01
1	 1.064088e+00	 1.104005e+00	-2.144077e+01
1	 1.050461e+00	 1.116979e+00	-2.186008e+01
1	 1.122375e+00	 1.055536e+00	-1.991617e+01
1	 1.109338e+00	 1.069229e+00	-2.015271e+01
1	 1.096133e+00	 1.082762e+00	-2.044070e+01
1	 1.082762e+00	 1.096133e+00	-2.077489e+01
1	 1.069229e+00	 1.109338e+00	-2.114989e+01
1	 1.055536e+00	 1.122375e+00	-2.156021e+01
1	 1.127771e+00	 1.060610e+00	-1.964887e+01
1	 1.114672e+00	 1.074369e+00	-1.986792e+01
1	 1.101403e+00	 1.087968e+00	-2.014107e+01
1	 1.087968e+00	 1.101403e+00	-2.046278e+01
1	 1.074369e+00	 1.114672e+00	-2.082734e+01
1	 1.060610e+00	 1.127771e+00	-2.122893e+01
1	 1.133167e+00	 1.065685e+00	-1.935160e+01
1	 1.120005e+00	 1.079510e+00	-1.955246e+01
1	 1.106673e+00	 1.093173e+00	-1.981017e+01
1	 1.093173e+00	 1.106673e+00	-2.011900e+01
1	 1.079510e+00	 1.120005e+00	-2.047308e+01
1	 1.065685e+00	 1.133167e+00	-2.086639e+01
1	 1.040312e+00	 1.106187e+00	-2.236496e+01
1	 1.026662e+00	 1.118867e+00	-2.289904e+01
1	 1.012862e+00	 1.131375e+00	-2.359449e+01
1	 9.989137e-01	 1.143709e+00	-2.444883e+01
1	 9.848214e-01	 1.155866e+00	-2.545968e+01
1	 9.705881e-01	 1.167843e+00	-2.662479e+01
1	 1.045386e+00	 1.111583e+00	-2.212838e+01
1	 1.031670e+00	 1.124325e+00	-2.265417e+01
1	 1.017803e+00	 1.136894e+00	-2.334252e+01
1	 1.003786e+00	 1.149288e+00	-2.419064e+01
1	 9.896254e-01	 1.161504e+00	-2.519581e+01
1	 9.753226e-01	 1.173540e+00	-2.635538e+01
1	 1.050461e+00	 1.116979e+00	-2.186008e+01
1	 1.036678e+00	 1.129783e+00	-2.237786e+01
1	 1.022743e+00	 1.142413e+00	-2.305966e+01
1	 1.008659e+00	 1.154867e+00	-2.390215e+01
1	 9.944294e-01	 1.167142e+00	-2.490205e+01
1	 9.800572e-01	 1.179237e+00	-2.605614e+01
1	 1.055536e+00	 1.122375e+00	-2.156021e+01
1	 1.041687e+00	 1.135241e+00	-2.207047e+01
1	 1.027684e+00	 1.147932e+00	-2.274636e+01
1	 1.013532e+00	 1.160446e+00	-2.358384e+01
1	 9.992334e-01	 1.172781e+00	-2.457889e+01
1	 9.847918e-01	 1.184933e+00	-2.572747e+01
1	 1.060610e+00	 1.127771e+00	-2.122893e+01
1	 1.046695e+00	 1.140699e+00	-2.173233e+01
1	 1.032625e+00	 1.153451e+00	-2.240307e+01
1	 1.018405e+00	 1.166025e+00	-2.323622e+01
1	 1.004037e+00	 1.178419e+00	-2.422680e+01
1	 9.895264e-01	 1.190630e+00	-2.536976e+01
1	 1.065685e+00	 1.133167e+00	-2.086639e+01
1	 1.051703e+00	 1.146156e+00	-2.136378e+01
1	 1.037566e+00	 1.158970e+00	-2.203024e+01
1	 1.023277e+00	 1.171604e+00	-2.285977e+01
1	 1.008841e+00	 1.184057e+00	-2.384624e+01
1	 9.942609e-01	 1.196327e+00	-2.498338e+01
1	 9.705881e-01	 1.167843e+00	-2.662479e+01
1	 9.562172e-01	 1.179639e+00	-2.792316e+01
1	 9.417124e-01	 1.191250e+00	-2.933177e+01
1	 9.270771e-01	 1.202675e+00	-3.084533e+01
1	 9.123148e-01	 1.213911e+00	-3.245833e+01
1	 8.974293e-01	 1.224957e+00	-3.416512e+01
1	 9.753226e-01	 1.173540e+00	-2.635538e+01
1	 9.608817e-01	 1.185393e+00	-2.764685e+01
1	 9.463061e-01	 1.197061e+00	-2.904623e+01
1	 9.315994e-01	 1.208541e+00	-3.054864e+01
1	 9.167651e-01	 1.219833e+00	-3.214902e+01
1	 9.018070e-01	 1.230932e+00	-3.384218e+01
1	 9.800572e-01	 1.179237e+00	-2.605614e+01
1	 9.655462e-01	 1.191147e+00	-2.734045e+01
1	 9.508998e-01	 1.202872e+00	-2.873024e+01
1	 9.361217e-01	 1.214408e+00	-3.022102e+01
1	 9.212154e-01	 1.225754e+00	-3.180819e+01
1	 9.061847e-01	 1.236908e+00	-3.348702e+01
1	 9.847918e-01	 1.184933e+00	-2.572747e+01
1	 9.702107e-01	 1.196902e+00	-2.700426e+01
1	 9.554936e-01	 1.208683e+00	-2.838397e+01
1	 9.406440e-01	 1.220275e+00	-2.986254e+01
1	 9.256658e-01	 1.231676e+00	-3.143579e+01
1	 9.105624e-01	 1.242883e+00	-3.309944e+01
1	 9.895264e-01	 1.190630e+00	-2.536976e+01
1	 9.748751e-01	 1.202656e+00	-2.663853e+01
1	 9.600873e-01	 1.214494e+00	-2.800758e+01
1	 9.451664e-01	 1.226142e+00	-2.947322e+01
1	 9.301161e-01	 1.237597e+00	-3.103173e+01
1	 9.149401e-01	 1.248858e+00	-3.267925e+01
1	 9.942609e-01	 1.196327e+00	-2.498338e+01
1	 9.795396e-01	 1.208410e+00	-2.624356e+01
1	 9.646810e-01	 1.220305e+00	-2.760123e+01
1	 9.496887e-01	 1.232008e+00	-2.905313e+01
1	 9.345664e-01	 1.243519e+00	-3.059594e+01
1	 9.193178e-01	 1.254834e+00	-3.222627e+01
1	 8.974293e-01	 1.224957e+00	-3.416512e+01
1	 8.824241e-01	 1.235810e+00	-3.593938e+01
1	 8.673031e-01	 1.246469e+00	-3.775051e+01
1	 8.520699e-01	 1.256931e+00	-3.958606e+01
1	 8.367284e-01	 1.267195e+00	-4.143328e+01
1	 8.212823e-01	 1.277260e+00	-4.327917e+01
1	 9.018070e-01	 1.230932e+00	-3.384218e+01
1	 8.867286e-01	 1.241838e+00	-3.560113e+01
1	 8.715339e-01	 1.252549e+00	-3.739411e+01
1	 8.562264e-01	 1.263062e+00	-3.920842e+01
1	 8.408100e-01	 1.273377e+00	-4.103107e+01
1	 8.252885e-01	 1.283491e+00	-4.284876e+01
1	 9.061847e-01	 1.236908e+00	-3.348702e+01
1	 8.910332e-01	 1.247867e+00	-3.522972e+01
1	 8.757646e-01	 1.258629e+00	-3.700341e+01
1	 8.603828e-01	 1.269194e+00	-3.879529e+01
1	 8.448916e-01	 1.279558e+00	-4.059231e+01
1	 8.292948e-01	 1.289721e+00	-4.238109e+01
1	 9.105624e-01	 1.242883e+00	-3.309944e+01
1	 8.953377e-01	 1.253895e+00	-3.482488e+01
1	 8.799953e-01	 1.264710e+00	-3.657810e+01
1	 8.645392e-01	 1.275325e+00	-3.834644e+01
1	 8.489732e-01	 1.285740e+00	-4.011690e+01
1	 8.333011e-01	 1.295952e+00	-4.187625e+01
1	 9.149401e-01	 1.248858e+00	-3.267925e+01
1	 8.996422e-01	 1.259923e+00	-3.438632e+01
1	 8.842261e-01	 1.270790e+00	-3.611792e+01
1	 8.686957e-01	 1.281456e+00	-3.786163e+01
1	 8.530548e-01	 1.291921e+00	-3.960477e+01
1	 8.373073e-01	 1.302182e+00	-4.133435e+01
1	 9.193178e-01	 1.254834e+00	-3.222627e+01
1	 9.039467e-01	 1.265952e+00	-3.391378e+01
1	 8.884568e-01	 1.276870e+00	-3.562257e+01
1	 8.728521e-01	 1.287588e+00	-3.734067e+01
1	 8.571364e-01	 1.298103e+00	-3.905581e+01
1	 8.413136e-01	 1.308413e+00	-4.075550e+01
1	 8.212823e-01	 1.277260e+00	-4.327917e+01
1	 8.057355e-01	 1.287124e+00	-4.508191e+01
1	 7.900918e-01	 1.296786e+00	-4.681176e+01
1	 7.743552e-01	 1.306244e+00	-4.847387e+01
1	 7.585296e-01	 1.315497e+00	-5.007359e+01
1	 7.426188e-01	 1.324544e+00	-5.161653e+01
1	 8.252885e-01	 1.283491e+00	-4.284876e+01
1	 8.096659e-01	 1.293403e+00	-4.462148e+01
1	 7.939459e-01	 1.303112e+00	-4.632086e+01
1	 7.781326e-01	 1.312616e+00	-4.795109e+01
1	 7.622297e-01	 1.321914e+00	-4.951660e+01
1	 7.462414e-01	 1.331005e+00	-5.102202e+01
1	 8.292948e-01	 1.289721e+00	-4.238109e+01
1	 8.135963e-01	 1.299682e+00	-4.412343e+01
1	 7.978001e-01	 1.309437e+00	-4.579205e+01
1	 7.819099e-01	 1.318987e+00	-4.738993e+01
1	 7.659299e-01	 1.328331e+00	-4.892026e+01
1	 7.498639e-01	 1.337466e+00	-5.038641e+01
1	 8.333011e-01	 1.295952e+00	-4.187625e+01
1	 8.175267e-01	 1.305960e+00	-4.358802e+01
1	 8.016542e-01	 1.315763e+00	-4.522566e+01
1	 7.856873e-01	 1.325359e+00	-4.679065e+01
1	 7.696300e-01	 1.334748e+00	-4.828468e+01
1	 7.534864e-01	 1.343927e+00	-4.970956e+01
1	 8.373073e-01	 1.302182e+00	-4.133435e+01
1	 8.214572e-01	 1.312239e+00	-4.301554e+01
1	 8.055083e-01	 1.322089e+00	-4.462202e+01
1	 7.894646e-01	 1.331731e+00	-4.615355e+01
1	 7.733302e-01	 1.341165e+00	-4.761000e+01
1	 7.571090e-01	 1.350388e+00	-4.899134e+01
1	 8.413136e-01	 1.308413e+00	-4.075550e+01
1	 8.253876e-01	 1.318518e+00	-4.240625e+01
1	 8.093624e-01	 1.328415e+00	-4.398147e+01
1	 7.932420e-01	 1.338103e+00	-4.547890e+01
1	 7.770303e-01	 1.347582e+00	-4.689634e+01
1	 7.607315e-01	 1.356850e+00	-4.823162e+01
1	 7.426188e-01	 1.324544e+00	-5.161653e+01
1	 7.266269e-01	 1.333384e+00	-5.303801e+01
1	 7.105577e-01	 1.342016e+00	-5.427793e+01
1	 6.944152e-01	 1.350439e+00	-5.534912e+01
1	 6.782034e-01	 1.358653e+00	-5.626460e+01
1	 6.619262e-01	 1.366657e+00	-5.703761e+01
1	 7.462414e-01	 1.331005e+00	-5.102202e+01
1	 7.301714e-01	 1.339888e+00	-5.240216e+01
1	 7.140238e-01	 1.348562e+00	-5.359749e+01
1	 6.978026e-01	 1.357027e+00	-5.462145e+01
1	 6.815117e-01	 1.365281e+00	-5.548770e+01
1	 6.651552e-01	 1.373324e+00	-5.621016e+01
1	 7.498639e-01	 1.337466e+00	-5.038641e+01
1	 7.337159e-01	 1.346392e+00	-5.172268e+01
1	 7.174900e-01	 1.355109e+00	-5.287053e+01
1	 7.011900e-01	 1.363614e+00	-5.384442e+01
1	 6.848200e-01	 1.371908e+00	-5.465905e+01
1	 6.683841e-01	 1.379991e+00	-5.532939e+01
1	 7.534864e-01	 1.343927e+00	-4.970956e+01
1	 7.372605e-01	 1.352897e+00	-5.099919e+01
1	 7.209561e-01	 1.361655e+00	-5.209661e+01
1	 7.045774e-01	 1.370202e+00	-5.301765e+01
1	 6.881284e-01	 1.378536e+00	-5.377846e+01
1	 6.716130e-01	 1.386657e+00	-5.439546e+01
1	 7.571090e-01	 1.350388e+00	-4.899134e+01
1	 7.408050e-01	 1.359401e+00	-5.023134e+01
1	 7.244222e-01	 1.368201e+00	-5.127529e+01
1	 7.079648e-01	 1.376789e+00	-5.214077e+01
1	 6.914367e-01	 1.385164e+00	-5.284576e+01
1	 6.748419e-01	 1.393324e+00	-5.340851e+01
1	 7.607315e-01	 1.356850e+00	-4.823162e+01
1	 7.443495e-01	 1.365905e+00	-4.941877e+01
1	 7.278884e-01	 1.374748e+00	-5.040613e+01
1	 7.113522e-01	 1.383377e+00	-5.121341e+01
1	 6.947450e-01	 1.391791e+00	-5.186076e+01
1	 6.780708e-01	 1.399990e+00	-5.236870e+01
1	 6.619262e-01	 1.366657e+00	-5.703761e+01
1	 6.455877e-01	 1.374451e+00	-5.766838e+01
1	 6.291916e-01	 1.382033e+00	-5.814887e+01
1	 6.127420e-01	 1.389405e+00	-5.847998e+01
1	 5.962428e-01	 1.396565e+00	-5.866255e+01
1	 5.796980e-01	 1.403513e+00	-5.869735e+01
1	 6.651552e-01	 1.373324e+00	-5.621016e+01
1	 6.487369e-01	 1.381155e+00	-5.678838e+01
1	 6.322608e-01	 1.388775e+00	-5.721422e+01
1	 6.157310e-01	 1.396182e+00	-5.749009e+01
1	 5.991513e-01	 1.403377e+00	-5.761838e+01
1	 5.825258e-01	 1.410359e+00	-5.760143e+01
1	 6.683841e-01	 1.379991e+00	-5.532939e+01
1	 6.518861e-01	 1.387860e+00	-5.585465e+01
1	 6.353300e-01	 1.395517e+00	-5.622607e+01
1	 6.187200e-01	 1.402960e+00	-5.644677e+01
1	 6.020598e-01	 1.410190e+00	-5.651985e+01
1	 5.853536e-01	 1.417206e+00	-5.644841e+01
1	 6.716130e-01	 1.386657e+00	-5.439546e+01
1	 6.550353e-01	 1.394565e+00	-5.486761e+01
1	 6.383993e-01	 1.402258e+00	-5.518488e+01
1	 6.217090e-01	 1.409738e+00	-5.535030e+01
1	 6.049683e-01	 1.417002e+00	-5.536688e+01
1	 5.881814e-01	 1.424052e+00	-5.523761e+01
1	 6.748419e-01	 1.393324e+00	-5.340851e+01
1	 6.581845e-01	 1.401269e+00	-5.382770e+01
1	 6.414685e-01	 1.409000e+00	-5.409114e+01
1	 6.246979e-01	 1.416515e+00	-5.420098e+01
1	 6.078768e-01	 1.423815e+00	-5.415936e+01
1	 5.910092e-01	 1.430899e+00	-5.396835e+01
1	 6.780708e-01	 1.399990e+00	-5.236870e+01
1	 6.613337e-01	 1.407974e+00	-5.273533e+01
1	 6.445377e-01	 1.415742e+00	-5.294529e+01
1	 6.276869e-01	 1.423293e+00	-5.299910e+01
1	 6.107853e-01	 1.430627e+00	-5.289721e+01
1	 5.938370e-01	 1.437745e+00	-5.263998e+01
1	 5.796980e-01	 1.403513e+00	-5.869735e+01
1	 5.631114e-01	 1.410250e+00	-5.860666e+01
1	 5.464869e-01	 1.416775e+00	-5.841950e+01
1	 5.298283e-01	 1.423088e+00	-5.814683e+01
1	 5.131396e-01	 1.429191e+00	-5.779967e+01
1	 4.964246e-01	 1.435082e+00	-5.738912e+01
1	 5.825258e-01	 1.410359e+00	-5.760143e+01
1	 5.658582e-01	 1.417129e+00	-5.746369e+01
1	 5.491526e-01	 1.423686e+00	-5.723454e+01
1	 5.324129e-01	 1.430030e+00	-5.692376e+01
1	 5.156428e-01	 1.436162e+00	-5.654118e+01
1	 4.988461e-01	 1.442083e+00	-5.609665e+01
1	 5.853536e-01	 1.417206e+00	-5.644841e+01
1	 5.686051e-01	 1.424008e+00	-5.625838e+01
1	 5.518184e-01	 1.430597e+00	-5.598038e+01
1	 5.349974e-01	 1.436972e+00	-5.562454e+01
1	 5.181459e-01	 1.443134e+00	-5.520105e+01
1	 5.012677e-01	 1.449083e+00	-5.472010e+01
1	 5.881814e-01	 1.424052e+00	-5.523761e+01
1	 5.713520e-01	 1.430887e+00	-5.498952e+01
1	 5.544842e-01	 1.437508e+00	-5.465564e+01
1	 5.375819e-01	 1.443914e+00	-5.424794e+01
1	 5.206490e-01	 1.450106e+00	-5.377849e+01
1	 5.036893e-01	 1.456083e+00	-5.325938e+01
1	 5.910092e-01	 1.430899e+00	-5.396835e+01
1	 5.740989e-01	 1.437767e+00	-5.365596e+01
1	 5.571500e-01	 1.444419e+00	-5.325898e+01
1	 5.401664e-01	 1.450856e+00	-5.279276e+01
1	 5.231521e-01	 1.457077e+00	-5.227273e+01
1	 5.061109e-01	 1.463084e+00	-5.171440e+01
1	 5.938370e-01	 1.437745e+00	-5.263998e+01
1	 5.768458e-01	 1.444646e+00	-5.225652e+01
1	 5.598158e-01	 1.451330e+00	-5.178908e+01
1	 5.427510e-01	 1.457798e+00	-5.125782e+01
1	 5.256552e-01	 1.464049e+00	-5.068302e+01
1	 5.085325e-01	 1.470084e+00	-5.008511e+01
1	 4.964246e-01	 1.435082e+00	-5.738912e+01
1	 4.796869e-01	 1.440763e+00	-5.691899e+01
1	 4.629304e-01	 1.446234e+00	-5.640057e+01
1	 4.461589e-01	 1.451496e+00	-5.585615e+01
1	 4.293759e-01	 1.456549e+00	-5.530800e+01
1	 4.125851e-01	 1.461394e+00	-5.477828e+01
1	 4.988461e-01	 1.442083e+00	-5.609665e+01
1	 4.820269e-01	 1.447791e+00	-5.559433e+01
1	 4.651886e-01	 1.453289e+00	-5.504928e+01
1	 4.483353e-01	 1.458577e+00	-5.448782e+01
1	 4.314704e-01	 1.463654e+00	-5.393621e+01
1	 4.145977e-01	 1.468523e+00	-5.342062e+01
1	 5.012677e-01	 1.449083e+00	-5.472010e+01
1	 4.843668e-01	 1.454820e+00	-5.418761e+01
1	 4.674468e-01	 1.460344e+00	-5.362207e+01
1	 4.505116e-01	 1.465657e+00	-5.305255e+01
1	 4.335649e-01	 1.470759e+00	-5.250811e+01
1	 4.166103e-01	 1.475651e+00	-5.201769e+01
1	 5.036893e-01	 1.456083e+00	-5.325938e+01
1	 4.867067e-01	 1.461848e+00	-5.269947e+01
1	 4.697050e-01	 1.467399e+00	-5.212003e+01
1	 4.526880e-01	 1.472737e+00	-5.155170e+01
1	 4.356594e-01	 1.477864e+00	-5.102513e+01
1	 4.186229e-01	 1.482780e+00	-5.057081e+01
1	 5.061109e-01	 1.463084e+00	-5.171440e+01
1	 4.890467e-01	 1.468876e+00	-5.113053e+01
1	 4.719632e-01	 1.474454e+00	-5.054424e+01
1	 4.548644e-01	 1.479818e+00	-4.998662e+01
1	 4.377539e-01	 1.484969e+00	-4.948867e+01
1	 4.206356e-01	 1.489909e+00	-4.908126e+01
1	 5.085325e-01	 1.470084e+00	-5.008511e+01
1	 4.913866e-01	 1.475904e+00	-4.948139e+01
1	 4.742214e-01	 1.481508e+00	-4.889578e+01
1	 4.570408e-01	 1.486898e+00	-4.835862e+01
1	 4.398485e-01	 1.492075e+00	-4.790011e+01
1	 4.226482e-01	 1.497038e+00	-4.755031e+01
1	 4.125851e-01	 1.461394e+00	-5.477828e+01
1	 3.957902e-01	 1.466032e+00	-5.433734e+01
1	 3.789947e-01	 1.470463e+00	-5.402322e+01
1	 3.622021e-01	 1.474689e+00	-5.380955e+01
1	 3.454160e-01	 1.478711e+00	-5.367006e+01
1	 3.286397e-01	 1.482530e+00	-5.357860e+01
1	 4.145977e-01	 1.468523e+00	-5.342062e+01
1	 3.977209e-01	 1.473183e+00	-5.301282e+01
1	 3.808435e-01	 1.477636e+00	-5.274898e+01
1	 3.639690e-01	 1.481883e+00	-5.260179e+01
1	 3.471009e-01	 1.485924e+00	-5.254399e+01
1	 3.302428e-01	 1.489762e+00	-5.254847e+01
1	 4.166103e-01	 1.475651e+00	-5.201769e+01
1	 3.996516e-01	 1.480334e+00	-5.165316e+01
1	 3.826922e-01	 1.484809e+00	-5.144813e+01
1	 3.657358e-01	 1.489076e+00	-5.137411e+01
1	 3.487859e-01	 1.493137e+00	-5.140264e+01
1	 3.318459e-01	 1.496993e+00	-5.150536e+01
1	 4.186229e-01	 1.482780e+00	-5.057081e+01
1	 4.015823e-01	 1.487486e+00	-5.025944e+01
1	 3.845410e-01	 1.491982e+00	-5.012152e+01
1	 3.675027e-01	 1.496270e+00	-5.012709e+01
1	 3.504709e-01	 1.500351e+00	-5.024626e+01
1	 3.334491e-01	 1.504225e+00	-5.044922e+01
1	 4.206356e-01	 1.489909e+00	-4.908126e+01
1	 4.035129e-01	 1.494637e+00	-4.883276e+01
1	 3.863897e-01	 1.499155e+00	-4.876996e+01
1	 3.692695e-01	 1.503464e+00	-4.886128e+01
1	 3.521558e-01	 1.507564e+00	-4.907513e+01
1	 3.350522e-01	 1.511457e+00	-4.938000e+01
1	 4.226482e-01	 1.497038e+00	-4.755031e+01
1	 4.054436e-01	 1.501788e+00	-4.737415e+01
1	 3.882385e-01	 1.506328e+00	-4.739430e+01
1	 3.710363e-01	 1.510657e+00	-4.757725e+01
1	 3.538408e-01	 1.514777e+00	-4.788951e+01
1	 3.366553e-01	 1.518689e+00	-4.829766e+01
1	 3.286397e-01	 1.482530e+00	-5.357860e+01
1	 3.118766e-01	 1.486147e+00	-5.355332e+01
1	 2.951302e-01	 1.489563e+00	-5.362547e+01
1	 2.784035e-01	 1.492779e+00	-5.378871e+01
1	 2.617000e-01	 1.495798e+00	-5.403673e+01
1	 2.450227e-01	 1.498620e+00	-5.436322e+01
1	 3.302428e-01	 1.489762e+00	-5.254847e+01
1	 3.133980e-01	 1.493396e+00	-5.263252e+01
1	 2.965698e-01	 1.496829e+00	-5.282466e+01
1	 2.797616e-01	 1.500061e+00	-5.311470e+01
1	 2.629766e-01	 1.503095e+00	-5.349248e+01
1	 2.462180e-01	 1.505930e+00	-5.394788e+01
1	 3.318459e-01	 1.496993e+00	-5.150536e+01
1	 3.149193e-01	 1.500646e+00	-5.169853e+01
1	 2.980095e-01	 1.504095e+00	-5.200828e+01
1	 2.811197e-01	 1.507343e+00	-5.242129e+01
1	 2.642532e-01	 1.510391e+00	-5.292422e+01
1	 2.474132e-01	 1.513241e+00	-5.350382e+01
1	 3.334491e-01	 1.504225e+00	-5.044922e+01
1	 3.164407e-01	 1.507895e+00	-5.075100e+01
1	 2.994491e-01	 1.511361e+00	-5.117584e+01
1	 2.824777e-01	 1.514625e+00	-5.170790e+01
1	 2.655298e-01	 1.517688e+00	-5.233139e+01
1	 2.486084e-01	 1.520551e+00	-5.303057e+01
1	 3.350522e-01	 1.511457e+00	-4.938000e+01
1	 3.179620e-01	 1.515144e+00	-4.978962e+01
1	 3.008888e-01	 1.518627e+00	-5.032685e+01
1	 2.838358e-01	 1.521907e+00	-5.097399e+01
1	 2.668063e-01	 1.524984e+00	-5.171345e+01
1	 2.498037e-01	 1.527862e+00	-5.252767e+01
1	 3.366553e-01	 1.518689e+00	-4.829766e+01
1	 3.194834e-01	 1.522394e+00	-4.881408e+01
1	 3.023285e-01	 1.525893e+00	-4.946082e+01
1	 2.851939e-01	 1.529189e+00	-5.021899e+01
1	 2.680829e-01	 1.532281e+00	-5.106984e+01
1	 2.509989e-01	 1.535172e+00	-5.199466e+01
1	 2.450227e-01	 1.498620e+00	-5.436322e+01
1	 2.283749e-01	 1.501247e+00	-5.474809e+01
1	 2.117595e-01	 1.503681e+00	-5.516254e+01
1	 1.951795e-01	 1.505923e+00	-5.558735e+01
1	 1.786380e-01	 1.507974e+00	-5.600350e+01
1	 1.621378e-01	 1.509838e+00	-5.639223e+01
1	 2.462180e-01	 1.505930e+00	-5.394788e+01
1	 2.294889e-01	 1.508570e+00	-5.445745e+01
1	 2.127924e-01	 1.511016e+00	-5.499130e+01
1	 1.961316e-01	 1.513269e+00	-5.552978e+01
1	 1.795094e-01	 1.515330e+00	-5.605348e+01
1	 1.629287e-01	 1.517203e+00	-5.654323e+01
1	 2.474132e-01	 1.513241e+00	-5.350382e+01
1	 2.306029e-01	 1.515894e+00	-5.413397e+01
1	 2.138254e-01	 1.518351e+00	-5.478380e+01
1	 1.970837e-01	 1.520615e+00	-5.543313e+01
1	 1.803808e-01	 1.522686e+00	-5.606201e+01
1	 1.637196e-01	 1.524568e+00	-5.665079e+01
1	 2.486084e-01	 1.520551e+00	-5.303057e+01
1	 2.317170e-01	 1.523217e+00	-5.377727e+01
1	 2.148584e-01	 1.525686e+00	-5.453975e+01
1	 1.980358e-01	 1.527961e+00	-5.529716e+01
1	 1.812522e-01	 1.530042e+00	-5.602893e+01
1	 1.645105e-01	 1.531933e+00	-5.671474e+01
1	 2.498037e-01	 1.527862e+00	-5.252767e+01
1	 2.328310e-01	 1.530540e+00	-5.338700e+01
1	 2.158914e-01	 1.533021e+00	-5.425887e+01
1	 1.989879e-01	 1.535307e+00	-5.512166e+01
1	 1.821236e-01	 1.537398e+00	-5.595403e+01
1	 1.653015e-01	 1.539298e+00	-5.673491e+01
1	 2.509989e-01	 1.535172e+00	-5.199466e+01
1	 2.339450e-01	 1.537863e+00	-5.296280e+01
1	 2.169243e-01	 1.540356e+00	-5.394089e+01
1	 1.999400e-01	 1.542653e+00	-5.490641e+01
1	 1.829950e-01	 1.544754e+00	-5.583713e+01
1	 1.660924e-01	 1.546663e+00	-5.671115e+01
1	 1.621378e-01	 1.509838e+00	-5.639223e+01
1	 1.456817e-01	 1.511514e+00	-5.673694e+01
1	 1.292726e-01	 1.513006e+00	-5.702191e+01
1	 1.129130e-01	 1.514315e+00	-5.723008e+01
1	 9.660576e-02	 1.515442e+00	-5.734463e+01
1	 8.035334e-02	 1.516391e+00	-5.734899e+01
1	 1.629287e-01	 1.517203e+00	-5.654323e+01
1	 1.463924e-01	 1.518887e+00	-5.698167e+01
1	 1.299032e-01	 1.520386e+00	-5.735173e+01
1	 1.134638e-01	 1.521702e+00	-5.763510e+01
1	 9.707701e-02	 1.522835e+00	-5.781371e+01
1	 8.074530e-02	 1.523788e+00	-5.786979e+01
1	 1.637196e-01	 1.524568e+00	-5.665079e+01
1	 1.471030e-01	 1.526261e+00	-5.718121e+01
1	 1.305338e-01	 1.527767e+00	-5.763486e+01
1	 1.140146e-01	 1.529089e+00	-5.799222e+01
1	 9.754825e-02	 1.530227e+00	-5.823409e+01
1	 8.113727e-02	 1.531185e+00	-5.834157e+01
1	 1.645105e-01	 1.531933e+00	-5.671474e+01
1	 1.478137e-01	 1.533634e+00	-5.733538e+01
1	 1.311644e-01	 1.535148e+00	-5.787111e+01
1	 1.145654e-01	 1.536475e+00	-5.830130e+01
1	 9.801950e-02	 1.537620e+00	-5.860563e+01
1	 8.152924e-02	 1.538582e+00	-5.876416e+01
1	 1.653015e-01	 1.539298e+00	-5.673491e+01
1	 1.485243e-01	 1.541007e+00	-5.744403e+01
1	 1.317950e-01	 1.542528e+00	-5.806035e+01
1	 1.151162e-01	 1.543862e+00	-5.856217e+01
1	 9.849075e-02	 1.545012e+00	-5.892818e+01
1	 8.192121e-02	 1.545979e+00	-5.913741e+01
1	 1.660924e-01	 1.546663e+00	-5.671115e+01
1	 1.492349e-01	 1.548380e+00	-5.750700e+01
1	 1.324256e-01	 1.549909e+00	-5.820241e+01
1	 1.156670e-01	 1.551249e+00	-5.877469e+01
1	 9.896200e-02	 1.552404e+00	-5.920158e+01
1	 8.231317e-02	 1.553376e+00	-5.946116e+01
1	 8.035334e-02	 1.516391e+00	-5.734899e+01
1	 6.415829e-02	 1.517163e+00	-5.722668e+01
1	 4.802307e-02	 1.517759e+00	-5.696574e+01
1	 3.195007e-02	 1.518182e+00	-5.655671e+01
1	 1.594163e-02	 1.518435e+00	-5.599033e+01
1	 0.000000e+00	 1.518519e+00	-5.525754e+01
1	 8.074530e-02	 1.523788e+00	-5.786979e+01
1	 6.447125e-02	 1.524563e+00	-5.778588e+01
1	 4.825733e-02	 1.525163e+00	-5.754928e+01
1	 3.210592e-02	 1.525588e+00	-5.714980e+01
1	 1.601939e-02	 1.525842e+00	-5.657748e+01
1	 0.000000e+00	 1.525926e+00	-5.582259e+01
1	 8.113727e-02	 1.531185e+00	-5.834157e+01
1	 6.478422e-02	 1.531964e+00	-5.829621e+01
1	 4.849159e-02	 1.532566e+00	-5.808453e+01
1	 3.226178e-02	 1.532994e+00	-5.769548e+01
1	 1.609715e-02	 1.533249e+00	-5.711830e+01
1	 0.000000e+00	 1.533333e+00	-5.634249e+01
1	 8.152924e-02	 1.538582e+00	-5.876416e+01
1	 6.509719e-02	 1.539365e+00	-5.875751e+01
1	 4.872584e-02	 1.539970e+00	-5.857130e+01
1	 3.241763e-02	 1.540400e+00	-5.819355e+01
1	 1.617492e-02	 1.540656e+00	-5.761259e+01
1	 0.000000e+00	 1.540741e+00	-5.681702e+01
1	 8.192121e-02	 1.545979e+00	-5.913741e+01
1	 6.541016e-02	 1.546766e+00	-5.916960e+01
1	 4.896010e-02	 1.547374e+00	-5.900942e+01
1	 3.257349e-02	 1.547805e+00	-5.864384e+01
1	 1.625268e-02	 1.548063e+00	-5.806015e+01
1	 0.000000e+00	 1.548148e+00	-5.724600e+01
1	 8.231317e-02	 1.553376e+00	-5.946116e+01
1	 6.572312e-02	 1.554167e+00	-5.953233e+01
1	 4.919436e-02	 1.554777e+00	-5.939873e+01
1	 3.272934e-02	 1.555211e+00	-5.904616e+01
1	 1.633045e-02	 1.555470e+00	-5.846081e+01
1	 0.000000e+00	 1.555556e+00	-5.762921e+01
1	 1.555556e+00	 0.000000e+00	 1.684272e+01
1	 1.555470e+00	 1.633045e-02	 1.650805e+01
1	 1.555211e+00	 3.272934e-02	 1.615090e+01
1	 1.554777e+00	 4.919436e-02	 1.577385e+01
1	 1.554167e+00	 6.572312e-02	 1.537953e+01
1	 1.553376e+00	 8.231317e-02	 1.497060e+01
1	 1.562963e+00	 0.000000e+00	 1.671088e+01
1	 1.562877e+00	 1.640821e-02	 1.638292e+01
1	 1.562617e+00	 3.288519e-02	 1.602963e+01
1	 1.562181e+00	 4.942862e-02	 1.565383e+01
1	 1.561567e+00	 6.603609e-02	 1.525834e+01
1	 1.560773e+00	 8.270514e-02	 1.484608e+01
1	 1.570370e+00	 0.000000e+00	 1.657333e+01
1	 1.570284e+00	 1.648597e-02	 1.625228e+01
1	 1.570023e+00	 3.304105e-02	 1.590317e+01
1	 1.569585e+00	 4.966288e-02	 1.552900e+01
1	 1.568968e+00	 6.634906e-02	 1.513282e+01
1	 1.568170e+00	 8.309711e-02	 1.471774e+01
1	 1.577778e+00	 0.000000e+00	 1.643006e+01
1	 1.577691e+00	 1.656374e-02	 1.611608e+01
1	 1.577429e+00	 3.319690e-02	 1.577144e+01
1	 1.576989e+00	 4.989714e-02	 1.539930e+01
1	 1.576369e+00	 6.666203e-02	 1.500289e+01
1	 1.575567e+00	 8.348908e-02	 1.458549e+01
1	 1.585185e+00	 0.000000e+00	 1.628105e+01
1	 1.585098e+00	 1.664150e-02	 1.597430e+01
1	 1.584834e+00	 3.335276e-02	 1.563439e+01
1	 1.584392e+00	 5.013140e-02	 1.526465e+01
1	 1.583770e+00	 6.697499e-02	 1.486845e+01
1	 1.582964e+00	 8.388104e-02	 1.444923e+01
1	 1.592593e+00	 0.000000e+00	 1.612629e+01
1	 1.592505e+00	 1.671927e-02	 1.582689e+01
1	 1.592240e+00	 3.350861e-02	 1.549197e+01
1	 1.591796e+00	 5.036566e-02	 1.512499e+01
1	 1.591170e+00	 6.728796e-02	 1.472943e+01
1	 1.590361e+00	 8.427301e-02	 1.430889e+01
1	 1.553376e+00	 8.231317e-02	 1.497060e+01
1	 1.552404e+00	 9.896200e-02	 1.455074e+01
1	 1.551249e+00	 1.156670e-01	 1.412447e+01
1	 1.549909e+00	 1.324256e-01	 1.369580e+01
1	 1.548380e+00	 1.492349e-01	 1.326870e+01
1	 1.546663e+00	 1.660924e-01	 1.284715e+01
1	 1.560773e+00	 8.270514e-02	 1.484608e+01
1	 1.559797e+00	 9.943324e-02	 1.442069e+01
1	 1.558636e+00	 1.162178e-01	 1.398664e+01
1	 1.557289e+00	 1.330562e-01	 1.354815e+01
1	 1.555754e+00	 1.499456e-01	 1.310939e+01
1	 1.554028e+00	 1.668833e-01	 1.267456e+01
1	 1.568170e+00	 8.309711e-02	 1.471774e+01
1	 1.567189e+00	 9.990449e-02	 1.428735e+01
1	 1.566023e+00	 1.167686e-01	 1.384611e+01
1	 1.564670e+00	 1.336868e-01	 1.339842e+01
1	 1.563127e+00	 1.506562e-01	 1.294867e+01
1	 1.561393e+00	 1.676742e-01	 1.250127e+01
1	 1.575567e+00	 8.348908e-02	 1.458549e+01
1	 1.574582e+00	 1.003757e-01	 1.415064e+01
1	 1.573410e+00	 1.173194e-01	 1.370277e+01
1	 1.572050e+00	 1.343174e-01	 1.324648e+01
1	 1.570500e+00	 1.513669e-01	 1.278639e+01
1	 1.568758e+00	 1.684651e-01	 1.232713e+01
1	 1.582964e+00	 8.388104e-02	 1.444923e+01
1	 1.581974e+00	 1.008470e-01	 1.401046e+01
1	 1.580797e+00	 1.178702e-01	 1.355650e+01
1	 1.579431e+00	 1.349479e-01	 1.309219e+01
1	 1.577873e+00	 1.520775e-01	 1.262239e+01
1	 1.576123e+00	 1.692560e-01	 1.215193e+01
1	 1.590361e+00	 8.427301e-02	 1.430889e+01
1	 1.589366e+00	 1.013182e-01	 1.386670e+01
1	 1.588184e+00	 1.184210e-01	 1.340720e+01
1	 1.586811e+00	 1.355785e-01	 1.293545e+01
1	 1.585247e+00	 1.527882e-01	 1.245652e+01
1	 1.583488e+00	 1.700470e-01	 1.197550e+01
1	 1.546663e+00	 1.660924e-01	 1.284715e+01
1	 1.544754e+00	 1.829950e-01	 1.243472e+01
1	 1.542653e+00	 1.999400e-01	 1.203462e+01
1	 1.540356e+00	 2.169243e-01	 1.165026e+01
1	 1.537863e+00	 2.339450e-01	 1.128503e+01
1	 1.535172e+00	 2.509989e-01	 1.094233e+01
1	 1.554028e+00	 1.668833e-01	 1.267456e+01
1	 1.552110e+00	 1.838664e-01	 1.224752e+01
1	 1.549999e+00	 2.008921e-01	 1.183179e+01
1	 1.547691e+00	 2.179573e-01	 1.143095e+01
1	 1.545186e+00	 2.350590e-01	 1.104855e+01
1	 1.542482e+00	 2.521941e-01	 1.068814e+01
1	 1.561393e+00	 1.676742e-01	 1.250127e+01
1	 1.559466e+00	 1.847378e-01	 1.206041e+01
1	 1.557345e+00	 2.018442e-01	 1.162984e+01
1	 1.555026e+00	 2.189903e-01	 1.121329e+01
1	 1.552509e+00	 2.361730e-01	 1.081444e+01
1	 1.549793e+00	 2.533894e-01	 1.043699e+01
1	 1.568758e+00	 1.684651e-01	 1.232713e+01
1	 1.566822e+00	 1.856092e-01	 1.187318e+01
1	 1.564691e+00	 2.027963e-01	 1.142855e+01
1	 1.562361e+00	 2.200233e-01	 1.099706e+01
1	 1.559833e+00	 2.372871e-01	 1.058253e+01
1	 1.557103e+00	 2.545846e-01	 1.018876e+01
1	 1.576123e+00	 1.692560e-01	 1.215193e+01
1	 1.574178e+00	 1.864807e-01	 1.168563e+01
1	 1.572036e+00	 2.037484e-01	 1.122770e+01
1	 1.569696e+00	 2.210562e-01	 1.078207e+01
1	 1.567156e+00	 2.384011e-01	 1.035265e+01
1	 1.564413e+00	 2.557798e-01	 9.943329e+00
1	 1.583488e+00	 1.700470e-01	 1.197550e+01
1	 1.581534e+00	 1.873521e-01	 1.149754e+01
1	 1.579382e+00	 2.047005e-01	 1.102708e+01
1	 1.577031e+00	 2.220892e-01	 1.056812e+01
1	 1.574479e+00	 2.395151e-01	 1.012464e+01
1	 1.571724e+00	 2.569751e-01	 9.700592e+00
1	 1.535172e+00	 2.509989e-01	 1.094233e+01
1	 1.532281e+00	 2.680829e-01	 1.063354e+01
1	 1.529189e+00	 2.851939e-01	 1.036937e+01
1	 1.525893e+00	 3.023285e-01	 1.015205e+01
1	 1.522394e+00	 3.194834e-01	 9.983677e+00
1	 1.518689e+00	 3.366553e-01	 9.866209e+00
1	 1.542482e+00	 2.521941e-01	 1.068814e+01
1	 1.539577e+00	 2.693595e-01	 1.036103e+01
1	 1.536470e+00	 2.865519e-01	 1.007788e+01
1	 1.533160e+00	 3.037681e-01	 9.841170e+00
1	 1.529643e+00	 3.210047e-01	 9.653248e+00
1	 1.525921e+00	 3.382584e-01	 9.516343e+00
1	 1.549793e+00	 2.533894e-01	 1.043699e+01
1	 1.546874e+00	 2.706361e-01	 1.009220e+01
1	 1.543752e+00	 2.879100e-01	 9.790803e+00
1	 1.540426e+00	 3.052078e-01	 9.535568e+00
1	 1.536893e+00	 3.225261e-01	 9.329152e+00
1	 1.533153e+00	 3.398615e-01	 9.174095e+00
1	 1.557103e+00	 2.545846e-01	 1.018876e+01
1	 1.554171e+00	 2.719127e-01	 9.826976e+00
1	 1.551034e+00	 2.892681e-01	 9.508040e+00
1	 1.547692e+00	 3.066474e-01	 9.235069e+00
1	 1.544142e+00	 3.240474e-01	 9.011076e+00
1	 1.540385e+00	 3.414647e-01	 8.838958e+00
1	 1.564413e+00	 2.557798e-01	 9.943329e+00
1	 1.561467e+00	 2.731893e-01	 9.565276e+00
1	 1.558316e+00	 2.906261e-01	 9.229490e+00
1	 1.554958e+00	 3.080871e-01	 8.939498e+00
1	 1.551392e+00	 3.255688e-01	 8.698714e+00
1	 1.547616e+00	 3.430678e-01	 8.510435e+00
1	 1.571724e+00	 2.569751e-01	 9.700592e+00
1	 1.568764e+00	 2.744659e-01	 9.307024e+00
1	 1.565598e+00	 2.919842e-01	 8.955059e+00
1	 1.562224e+00	 3.095267e-01	 8.648683e+00
1	 1.558641e+00	 3.270901e-01	 8.391764e+00
1	 1.554848e+00	 3.446709e-01	 8.188038e+00
1	 1.518689e+00	 3.366553e-01	 9.866209e+00
1	 1.514777e+00	 3.538408e-01	 9.784963e+00
1	 1.510657e+00	 3.710363e-01	 9.726853e+00
1	 1.506328e+00	 3.882385e-01	 9.696069e+00
1	 1.501788e+00	 4.054436e-01	 9.696702e+00
1	 1.497038e+00	 4.226482e-01	 9.732737e+00
1	 1.525921e+00	 3.382584e-01	 9.516343e+00
1	 1.521990e+00	 3.555257e-01	 9.416003e+00
1	 1.517851e+00	 3.728032e-01	 9.339354e+00
1	 1.513501e+00	 3.900872e-01	 9.290819e+00
1	 1.508940e+00	 4.073743e-01	 9.274702e+00
1	 1.504166e+00	 4.246608e-01	 9.295177e+00
1	 1.533153e+00	 3.398615e-01	 9.174095e+00
1	 1.529204e+00	 3.572107e-01	 9.056089e+00
1	 1.525044e+00	 3.745700e-01	 8.962268e+00
1	 1.520674e+00	 3.919360e-01	 8.897157e+00
1	 1.516091e+00	 4.093050e-01	 8.865151e+00
1	 1.511295e+00	 4.266734e-01	 8.870506e+00
1	 1.540385e+00	 3.414647e-01	 8.838958e+00
1	 1.536417e+00	 3.588956e-01	 8.704544e+00
1	 1.532238e+00	 3.763368e-01	 8.594852e+00
1	 1.527847e+00	 3.937847e-01	 8.514380e+00
1	 1.523243e+00	 4.112357e-01	 8.467498e+00
1	 1.518424e+00	 4.286860e-01	 8.458437e+00
1	 1.547616e+00	 3.430678e-01	 8.510435e+00
1	 1.543630e+00	 3.605806e-01	 8.360702e+00
1	 1.539432e+00	 3.781037e-01	 8.236374e+00
1	 1.535020e+00	 3.956335e-01	 8.141798e+00
1	 1.530394e+00	 4.131664e-01	 8.081203e+00
1	 1.525553e+00	 4.306986e-01	 8.058689e+00
1	 1.554848e+00	 3.446709e-01	 8.188038e+00
1	 1.550843e+00	 3.622655e-01	 8.023910e+00
1	 1.546625e+00	 3.798705e-01	 7.886118e+00
1	 1.542193e+00	 3.974822e-01	 7.778736e+00
1	 1.537545e+00	 4.150970e-01	 7.705736e+00
1	 1.532681e+00	 4.327112e-01	 7.670983e+00
1	 1.497038e+00	 4.226482e-01	 9.732737e+00
1	 1.492075e+00	 4.398485e-01	 9.786402e+00
1	 1.486898e+00	 4.570408e-01	 9.833730e+00
1	 1.481508e+00	 4.742214e-01	 9.869411e+00
1	 1.475904e+00	 4.913866e-01	 9.888263e+00
1	 1.470084e+00	 5.085325e-01	 9.885249e+00
1	 1.504166e+00	 4.246608e-01	 9.295177e+00
1	 1.499180e+00	 4.419430e-01	 9.336009e+00
1	 1.493979e+00	 4.592172e-01	 9.374571e+00
1	 1.488563e+00	 4.764796e-01	 9.405397e+00
1	 1.482932e+00	 4.937265e-01	 9.423099e+00
1	 1.477085e+00	 5.109541e-01	 9.422384e+00
1	 1.511295e+00	 4.266734e-01	 8.870506e+00
1	 1.506285e+00	 4.440375e-01	 8.898340e+00
1	 1.501059e+00	 4.613936e-01	 8.927285e+00
1	 1.495618e+00	 4.787378e-01	 8.951777e+00
1	 1.489960e+00	 4.960665e-01	 8.966290e+00
1	 1.484085e+00	 5.133756e-01	 8.965346e+00
1	 1.518424e+00	 4.286860e-01	 8.458437e+00
1	 1.513390e+00	 4.461320e-01	 8.473448e+00
1	 1.508140e+00	 4.635699e-01	 8.492307e+00
1	 1.502673e+00	 4.809960e-01	 8.509413e+00
1	 1.496988e+00	 4.984064e-01	 8.519161e+00
1	 1.491085e+00	 5.157972e-01	 8.515959e+00
1	 1.525553e+00	 4.306986e-01	 8.058689e+00
1	 1.520495e+00	 4.482265e-01	 8.061386e+00
1	 1.515220e+00	 4.657463e-01	 8.070066e+00
1	 1.509728e+00	 4.832542e-01	 8.079145e+00
1	 1.504016e+00	 5.007463e-01	 8.083008e+00
1	 1.498086e+00	 5.182188e-01	 8.076015e+00
1	 1.532681e+00	 4.327112e-01	 7.670983e+00
1	 1.527600e+00	 4.503210e-01	 7.662206e+00
1	 1.522301e+00	 4.679227e-01	 7.660980e+00
1	 1.516782e+00	 4.855124e-01	 7.661802e+00
1	 1.511044e+00	 5.030863e-01	 7.659106e+00
1	 1.505086e+00	 5.206404e-01	 7.647275e+00
1	 1.470084e+00	 5.085325e-01	 9.885249e+00
1	 1.464049e+00	 5.256552e-01	 9.844566e+00
1	 1.457798e+00	 5.427510e-01	 9.752965e+00
1	 1.451330e+00	 5.598158e-01	 9.609617e+00
1	 1.444646e+00	 5.768458e-01	 9.414063e+00
1	 1.437745e+00	 5.938370e-01	 9.166220e+00
1	 1.477085e+00	 5.109541e-01	 9.422384e+00
1	 1.471021e+00	 5.281584e-01	 9.388007e+00
1	 1.464740e+00	 5.453355e-01	 9.307146e+00
1	 1.458241e+00	 5.624816e-01	 9.178543e+00
1	 1.451525e+00	 5.795927e-01	 9.001383e+00
1	 1.444591e+00	 5.966647e-01	 8.775297e+00
1	 1.484085e+00	 5.133756e-01	 8.965346e+00
1	 1.477992e+00	 5.306615e-01	 8.934773e+00
1	 1.471682e+00	 5.479200e-01	 8.862742e+00
1	 1.465152e+00	 5.651474e-01	 8.747674e+00
1	 1.458405e+00	 5.823396e-01	 8.588467e+00
1	 1.451438e+00	 5.994925e-01	 8.384508e+00
1	 1.491085e+00	 5.157972e-01	 8.515959e+00
1	 1.484964e+00	 5.331646e-01	 8.487059e+00
1	 1.478623e+00	 5.505046e-01	 8.422005e+00
1	 1.472063e+00	 5.678132e-01	 8.319004e+00
1	 1.465284e+00	 5.850864e-01	 8.176741e+00
1	 1.458284e+00	 6.023203e-01	 7.994387e+00
1	 1.498086e+00	 5.182188e-01	 8.076015e+00
1	 1.491936e+00	 5.356677e-01	 8.047017e+00
1	 1.485565e+00	 5.530891e-01	 7.987144e+00
1	 1.478975e+00	 5.704790e-01	 7.894492e+00
1	 1.472163e+00	 5.878333e-01	 7.767601e+00
1	 1.465131e+00	 6.051481e-01	 7.605461e+00
1	 1.505086e+00	 5.206404e-01	 7.647275e+00
1	 1.498907e+00	 5.381708e-01	 7.616761e+00
1	 1.492507e+00	 5.556736e-01	 7.560328e+00
1	 1.485886e+00	 5.731448e-01	 7.476060e+00
1	 1.479042e+00	 5.905802e-01	 7.362418e+00
1	 1.471977e+00	 6.079759e-01	 7.218246e+00
1	 1.437745e+00	 5.938370e-01	 9.166220e+00
1	 1.430627e+00	 6.107853e-01	 8.837965e+00
1	 1.423293e+00	 6.276869e-01	 8.401052e+00
1	 1.415742e+00	 6.445377e-01	 7.855433e+00
1	 1.407974e+00	 6.613337e-01	 7.200963e+00
1	 1.399990e+00	 6.780708e-01	 6.437405e+00
1	 1.444591e+00	 5.966647e-01	 8.775297e+00
1	 1.437440e+00	 6.136938e-01	 8.469621e+00
1	 1.430070e+00	 6.306759e-01	 8.053819e+00
1	 1.422483e+00	 6.476070e-01	 7.527974e+00
1	 1.414679e+00	 6.644829e-01	 6.892064e+00
1	 1.406657e+00	 6.812997e-01	 6.145951e+00
1	 1.451438e+00	 5.994925e-01	 8.384508e+00
1	 1.444252e+00	 6.166023e-01	 8.102317e+00
1	 1.436848e+00	 6.336649e-01	 7.708691e+00
1	 1.429225e+00	 6.506762e-01	 7.203733e+00
1	 1.421383e+00	 6.676321e-01	 6.587457e+00
1	 1.413324e+00	 6.845286e-01	 5.859790e+00
1	 1.458284e+00	 6.023203e-01	 7.994387e+00
1	 1.451065e+00	 6.195108e-01	 7.735708e+00
1	 1.443625e+00	 6.366539e-01	 7.364787e+00
1	 1.435966e+00	 6.537454e-01	 6.881625e+00
1	 1.428088e+00	 6.707813e-01	 6.286202e+00
1	 1.419990e+00	 6.877575e-01	 5.578469e+00
1	 1.465131e+00	 6.051481e-01	 7.605461e+00
1	 1.457877e+00	 6.224193e-01	 7.369459e+00
1	 1.450403e+00	 6.396429e-01	 7.021239e+00
1	 1.442708e+00	 6.568146e-01	 6.560590e+00
1	 1.434793e+00	 6.739305e-01	 5.987377e+00
1	 1.426657e+00	 6.909864e-01	 5.301543e+00
1	 1.471977e+00	 6.079759e-01	 7.218246e+00
1	 1.464690e+00	 6.253278e-01	 7.003238e+00
1	 1.457181e+00	 6.426319e-01	 6.677196e+00
1	 1.449450e+00	 6.598839e-01	 6.239584e+00
1	 1.441497e+00	 6.770797e-01	 5.690078e+00
1	 1.433323e+00	 6.942153e-01	 5.028578e+00
1	 1.399990e+00	 6.780708e-01	 6.437405e+00
1	 1.391791e+00	 6.947450e-01	 5.554084e+00
1	 1.383377e+00	 7.113522e-01	 4.542325e+00
1	 1.374748e+00	 7.278884e-01	 3.405197e+00
1	 1.365905e+00	 7.443495e-01	 2.146286e+00
1	 1.356850e+00	 7.607315e-01	 7.696905e-01
1	 1.406657e+00	 6.812997e-01	 6.145951e+00
1	 1.398419e+00	 6.980533e-01	 5.281583e+00
1	 1.389964e+00	 7.147396e-01	 4.292849e+00
1	 1.381294e+00	 7.313545e-01	 3.182849e+00
1	 1.372409e+00	 7.478940e-01	 1.955236e+00
1	 1.363311e+00	 7.643540e-01	 6.142162e-01
1	 1.413324e+00	 6.845286e-01	 5.859790e+00
1	 1.405046e+00	 7.013616e-01	 5.015398e+00
1	 1.396552e+00	 7.181270e-01	 4.050856e+00
1	 1.387841e+00	 7.348207e-01	 2.969305e+00
1	 1.378914e+00	 7.514385e-01	 1.774449e+00
1	 1.369772e+00	 7.679766e-01	 4.705549e-01
1	 1.419990e+00	 6.877575e-01	 5.578469e+00
1	 1.411674e+00	 7.046699e-01	 4.755624e+00
1	 1.403139e+00	 7.215144e-01	 3.816766e+00
1	 1.394387e+00	 7.382868e-01	 2.765086e+00
1	 1.385418e+00	 7.549831e-01	 1.604322e+00
1	 1.376233e+00	 7.715991e-01	 3.387584e-01
1	 1.426657e+00	 6.909864e-01	 5.301543e+00
1	 1.418301e+00	 7.079782e-01	 4.502354e+00
1	 1.409727e+00	 7.249018e-01	 3.590990e+00
1	 1.400934e+00	 7.417529e-01	 2.570703e+00
1	 1.391922e+00	 7.585276e-01	 1.445246e+00
1	 1.382694e+00	 7.752216e-01	 2.188776e-01
1	 1.433323e+00	 6.942153e-01	 5.028578e+00
1	 1.424929e+00	 7.112865e-01	 4.255681e+00
1	 1.416314e+00	 7.282891e-01	 3.373934e+00
1	 1.407480e+00	 7.452191e-01	 2.386657e+00
1	 1.398427e+00	 7.620721e-01	 1.297604e+00
1	 1.389155e+00	 7.788442e-01	 1.109625e-01
1	 1.356850e+00	 7.607315e-01	 7.696905e-01
1	 1.347582e+00	 7.770303e-01	-6.592788e-01
1	 1.338103e+00	 7.932420e-01	-2.079507e+00
1	 1.328415e+00	 8.093624e-01	-3.493027e+00
1	 1.318518e+00	 8.253876e-01	-4.902167e+00
1	 1.308413e+00	 8.413136e-01	-6.309546e+00
1	 1.363311e+00	 7.643540e-01	 6.142162e-01
1	 1.353999e+00	 7.807305e-01	-7.778574e-01
1	 1.344475e+00	 7.970193e-01	-2.162969e+00
1	 1.334740e+00	 8.132165e-01	-3.543270e+00
1	 1.324796e+00	 8.293180e-01	-4.921258e+00
1	 1.314644e+00	 8.453198e-01	-6.299777e+00
1	 1.369772e+00	 7.679766e-01	 4.705549e-01
1	 1.360416e+00	 7.844306e-01	-8.833018e-01
1	 1.350847e+00	 8.007966e-01	-2.232453e+00
1	 1.341066e+00	 8.170706e-01	-3.579106e+00
1	 1.331075e+00	 8.332484e-01	-4.925849e+00
1	 1.320874e+00	 8.493261e-01	-6.275650e+00
1	 1.376233e+00	 7.715991e-01	 3.387584e-01
1	 1.366833e+00	 7.881308e-01	-9.759422e-01
1	 1.357219e+00	 8.045740e-01	-2.288519e+00
1	 1.347392e+00	 8.209247e-01	-3.601175e+00
1	 1.337353e+00	 8.371788e-01	-4.916510e+00
1	 1.327105e+00	 8.533323e-01	-6.237515e+00
1	 1.382694e+00	 7.752216e-01	 2.188776e-01
1	 1.373250e+00	 7.918309e-01	-1.056103e+00
1	 1.363591e+00	 8.083513e-01	-2.331717e+00
1	 1.353718e+00	 8.247788e-01	-3.610104e+00
1	 1.343632e+00	 8.411092e-01	-4.893797e+00
1	 1.333335e+00	 8.573386e-01	-6.185716e+00
1	 1.389155e+00	 7.788442e-01	 1.109625e-01
1	 1.379667e+00	 7.955310e-01	-1.124101e+00
1	 1.369963e+00	 8.121287e-01	-2.362586e+00
1	 1.360044e+00	 8.286329e-01	-3.606511e+00
1	 1.349911e+00	 8.450397e-01	-4.858261e+00
1	 1.339566e+00	 8.613448e-01	-6.120591e+00
1	 1.308413e+00	 8.413136e-01	-6.309546e+00
1	 1.298103e+00	 8.571364e-01	-7.690304e+00
1	 1.287588e+00	 8.728521e-01	-9.017683e+00
1	 1.276870e+00	 8.884568e-01	-1.029183e+01
1	 1.265952e+00	 9.039467e-01	-1.151312e+01
1	 1.254834e+00	 9.193178e-01	-1.268211e+01
1	 1.314644e+00	 8.453198e-01	-6.299777e+00
1	 1.304284e+00	 8.612180e-01	-7.653661e+00
1	 1.293719e+00	 8.770086e-01	-8.955653e+00
1	 1.282951e+00	 8.926876e-01	-1.020586e+01
1	 1.271980e+00	 9.082512e-01	-1.140457e+01
1	 1.260809e+00	 9.236955e-01	-1.255228e+01
1	 1.320874e+00	 8.493261e-01	-6.275650e+00
1	 1.310465e+00	 8.652996e-01	-7.602752e+00
1	 1.299851e+00	 8.811650e-01	-8.879226e+00
1	 1.289031e+00	 8.969183e-01	-1.010520e+01
1	 1.278008e+00	 9.125557e-01	-1.128101e+01
1	 1.266785e+00	 9.280732e-01	-1.240716e+01
1	 1.327105e+00	 8.533323e-01	-6.237515e+00
1	 1.316647e+00	 8.693812e-01	-7.537680e+00
1	 1.305982e+00	 8.853214e-01	-8.788355e+00
1	 1.295111e+00	 9.011491e-01	-9.989774e+00
1	 1.284037e+00	 9.168602e-01	-1.114237e+01
1	 1.272760e+00	 9.324509e-01	-1.224678e+01
1	 1.333335e+00	 8.573386e-01	-6.185716e+00
1	 1.322828e+00	 8.734628e-01	-7.458546e+00
1	 1.312113e+00	 8.894779e-01	-8.682991e+00
1	 1.301192e+00	 9.053798e-01	-9.859459e+00
1	 1.290065e+00	 9.211647e-01	-1.098858e+01
1	 1.278735e+00	 9.368286e-01	-1.207121e+01
1	 1.339566e+00	 8.613448e-01	-6.120591e+00
1	 1.329010e+00	 8.775444e-01	-7.365452e+00
1	 1.318245e+00	 8.936343e-01	-8.563088e+00
1	 1.307272e+00	 9.096106e-01	-9.714155e+00
1	 1.296093e+00	 9.254692e-01	-1.081956e+01
1	 1.284711e+00	 9.412063e-01	-1.188047e+01
1	 1.254834e+00	 9.193178e-01	-1.268211e+01
1	 1.243519e+00	 9.345664e-01	-1.377278e+01
1	 1.232008e+00	 9.496887e-01	-1.476273e+01
1	 1.220305e+00	 9.646810e-01	-1.565842e+01
1	 1.208410e+00	 9.795396e-01	-1.646663e+01
1	 1.196327e+00	 9.942609e-01	-1.719449e+01
1	 1.260809e+00	 9.236955e-01	-1.255228e+01
1	 1.249440e+00	 9.390167e-01	-1.362323e+01
1	 1.237875e+00	 9.542110e-01	-1.459502e+01
1	 1.226116e+00	 9.692747e-01	-1.547356e+01
1	 1.214165e+00	 9.842041e-01	-1.626512e+01
1	 1.202024e+00	 9.989955e-01	-1.697625e+01
1	 1.266785e+00	 9.280732e-01	-1.240716e+01
1	 1.255362e+00	 9.434670e-01	-1.345811e+01
1	 1.243742e+00	 9.587333e-01	-1.441130e+01
1	 1.231927e+00	 9.738684e-01	-1.527205e+01
1	 1.219919e+00	 9.888686e-01	-1.604597e+01
1	 1.207721e+00	 1.003730e+00	-1.673893e+01
1	 1.272760e+00	 9.324509e-01	-1.224678e+01
1	 1.261283e+00	 9.479173e-01	-1.327759e+01
1	 1.249608e+00	 9.632557e-01	-1.421183e+01
1	 1.237738e+00	 9.784621e-01	-1.505413e+01
1	 1.225673e+00	 9.935330e-01	-1.580934e+01
1	 1.213417e+00	 1.008465e+00	-1.648257e+01
1	 1.278735e+00	 9.368286e-01	-1.207121e+01
1	 1.267205e+00	 9.523677e-01	-1.308186e+01
1	 1.255475e+00	 9.677780e-01	-1.399684e+01
1	 1.243549e+00	 9.830559e-01	-1.482002e+01
1	 1.231428e+00	 9.981975e-01	-1.555541e+01
1	 1.219114e+00	 1.013199e+00	-1.620720e+01
1	 1.284711e+00	 9.412063e-01	-1.188047e+01
1	 1.273126e+00	 9.568180e-01	-1.287107e+01
1	 1.261342e+00	 9.723003e-01	-1.376657e+01
1	 1.249360e+00	 9.876496e-01	-1.456996e+01
1	 1.237182e+00	 1.002862e+00	-1.528432e+01
1	 1.224811e+00	 1.017934e+00	-1.591285e+01
1	 1.196327e+00	 9.942609e-01	-1.719449e+01
1	 1.184057e+00	 1.008841e+00	-1.783315e+01
1	 1.171604e+00	 1.023277e+00	-1.836866e+01
1	 1.158970e+00	 1.037566e+00	-1.880059e+01
1	 1.146156e+00	 1.051703e+00	-1.912844e+01
1	 1.133167e+00	 1.065685e+00	-1.935160e+01
1	 1.202024e+00	 9.989955e-01	-1.697625e+01
1	 1.189696e+00	 1.013645e+00	-1.759630e+01
1	 1.177183e+00	 1.028150e+00	-1.811067e+01
1	 1.164488e+00	 1.042506e+00	-1.852021e+01
1	 1.151614e+00	 1.056711e+00	-1.882571e+01
1	 1.138563e+00	 1.070760e+00	-1.902796e+01
1	 1.207721e+00	 1.003730e+00	-1.673893e+01
1	 1.195334e+00	 1.018449e+00	-1.733885e+01
1	 1.182762e+00	 1.033023e+00	-1.783097e+01
1	 1.170007e+00	 1.047447e+00	-1.821739e+01
1	 1.157072e+00	 1.061719e+00	-1.850026e+01
1	 1.143959e+00	 1.075835e+00	-1.868181e+01
1	 1.213417e+00	 1.008465e+00	-1.648257e+01
1	 1.200973e+00	 1.023253e+00	-1.706071e+01
1	 1.188341e+00	 1.037896e+00	-1.752934e+01
1	 1.175526e+00	 1.052388e+00	-1.789185e+01
1	 1.162530e+00	 1.066727e+00	-1.815179e+01
1	 1.149355e+00	 1.080909e+00	-1.831285e+01
1	 1.219114e+00	 1.013199e+00	-1.620720e+01
1	 1.206611e+00	 1.028057e+00	-1.676176e+01
1	 1.193920e+00	 1.042768e+00	-1.720556e+01
1	 1.181045e+00	 1.057329e+00	-1.754332e+01
1	 1.167988e+00	 1.071735e+00	-1.778000e+01
1	 1.154751e+00	 1.085984e+00	-1.792082e+01
1	 1.224811e+00	 1.017934e+00	-1.591285e+01
1	 1.212249e+00	 1.032861e+00	-1.644187e+01
1	 1.199499e+00	 1.047641e+00	-1.685941e+01
1	 1.186564e+00	 1.062270e+00	-1.717151e+01
1	 1.173446e+00	 1.076743e+00	-1.738460e+01
1	 1.160147e+00	 1.091059e+00	-1.750542e+01
1	 1.133167e+00	 1.065685e+00	-1.935160e+01
1	 1.120005e+00	 1.079510e+00	-1.955246e+01
1	 1.106673e+00	 1.093173e+00	-1.981017e+01
1	 1.093173e+00	 1.106673e+00	-2.011900e+01
1	 1.079510e+00	 1.120005e+00	-2.047308e+01
1	 1.065685e+00	 1.133167e+00	-2.086639e+01
1	 1.138563e+00	 1.070760e+00	-1.902796e+01
1	 1.125339e+00	 1.084650e+00	-1.921053e+01
1	 1.111943e+00	 1.098379e+00	-1.945268e+01
1	 1.098379e+00	 1.111943e+00	-1.974867e+01
1	 1.084650e+00	 1.125339e+00	-2.009255e+01
1	 1.070760e+00	 1.138563e+00	-2.047826e+01
1	 1.143959e+00	 1.075835e+00	-1.868181e+01
1	 1.130672e+00	 1.089791e+00	-1.884647e+01
1	 1.117213e+00	 1.103585e+00	-1.907344e+01
1	 1.103585e+00	 1.117213e+00	-1.935699e+01
1	 1.089791e+00	 1.130672e+00	-1.969123e+01
1	 1.075835e+00	 1.143959e+00	-2.007010e+01
1	 1.149355e+00	 1.080909e+00	-1.831285e+01
1	 1.136005e+00	 1.094931e+00	-1.846006e+01
1	 1.122483e+00	 1.108790e+00	-1.867225e+01
1	 1.108790e+00	 1.122483e+00	-1.894383e+01
1	 1.094931e+00	 1.136005e+00	-1.926903e+01
1	 1.080909e+00	 1.149355e+00	-1.964192e+01
1	 1.154751e+00	 1.085984e+00	-1.792082e+01
1	 1.141339e+00	 1.100072e+00	-1.805105e+01
1	 1.127752e+00	 1.113996e+00	-1.824893e+01
1	 1.113996e+00	 1.127752e+00	-1.850906e+01
1	 1.100072e+00	 1.141339e+00	-1.882590e+01
1	 1.085984e+00	 1.154751e+00	-1.919372e+01
1	 1.160147e+00	 1.091059e+00	-1.750542e+01
1	 1.146672e+00	 1.105212e+00	-1.761922e+01
1	 1.133022e+00	 1.119201e+00	-1.780330e+01
1	 1.119201e+00	 1.133022e+00	-1.805257e+01
1	 1.105212e+00	 1.146672e+00	-1.836178e+01
1	 1.091059e+00	 1.160147e+00	-1.872550e+01
1	 1.065685e+00	 1.133167e+00	-2.086639e+01
1	 1.051703e+00	 1.146156e+00	-2.136378e+01
1	 1.037566e+00	 1.158970e+00	-2.203024e+01
1	 1.023277e+00	 1.171604e+00	-2.285977e+01
1	 1.008841e+00	 1.184057e+00	-2.384624e+01
1	 9.942609e-01	 1.196327e+00	-2.498338e+01
1	 1.070760e+00	 1.138563e+00	-2.047826e+01
1	 1.056711e+00	 1.151614e+00	-2.097049e+01
1	 1.042506e+00	 1.164488e+00	-2.163335e+01
1	 1.028150e+00	 1.177183e+00	-2.245963e+01
1	 1.013645e+00	 1.189696e+00	-2.344189e+01
1	 9.989955e-01	 1.202024e+00	-2.457253e+01
1	 1.075835e+00	 1.143959e+00	-2.007010e+01
1	 1.061719e+00	 1.157072e+00	-2.055794e+01
1	 1.047447e+00	 1.170007e+00	-2.121764e+01
1	 1.033023e+00	 1.182762e+00	-2.204065e+01
1	 1.018449e+00	 1.195334e+00	-2.301818e+01
1	 1.003730e+00	 1.207721e+00	-2.414113e+01
1	 1.080909e+00	 1.149355e+00	-1.964192e+01
1	 1.066727e+00	 1.162530e+00	-2.012621e+01
1	 1.052388e+00	 1.175526e+00	-2.078318e+01
1	 1.037896e+00	 1.188341e+00	-2.160292e+01
1	 1.023253e+00	 1.200973e+00	-2.257512e+01
1	 1.008465e+00	 1.213417e+00	-2.368915e+01
1	 1.085984e+00	 1.154751e+00	-1.919372e+01
1	 1.071735e+00	 1.167988e+00	-1.967533e+01
1	 1.057329e+00	 1.181045e+00	-2.033006e+01
1	 1.042768e+00	 1.193920e+00	-2.114650e+01
1	 1.028057e+00	 1.206611e+00	-2.211276e+01
1	 1.013199e+00	 1.219114e+00	-2.321655e+01
1	 1.091059e+00	 1.160147e+00	-1.872550e+01
1	 1.076743e+00	 1.173446e+00	-1.920536e+01
1	 1.062270e+00	 1.186564e+00	-1.985836e+01
1	 1.047641e+00	 1.199499e+00	-2.067146e+01
1	 1.032861e+00	 1.212249e+00	-2.163113e+01
1	 1.017934e+00	 1.224811e+00	-2.272332e+01
1	 9.942609e-01	 1.196327e+00	-2.498338e+01
1	 9.795396e-01	 1.208410e+00	-2.624356e+01
1	 9.646810e-01	 1.220305e+00	-2.760123e+01
1	 9.496887e-01	 1.232008e+00	-2.905313e+01
1	 9.345664e-01	 1.243519e+00	-3.059594e+01
1	 9.193178e-01	 1.254834e+00	-3.222627e+01
1	 9.989955e-01	 1.202024e+00	-2.457253e+01
1	 9.842041e-01	 1.214165e+00	-2.582305e+01
1	 9.692747e-01	 1.226116e+00	-2.716827e+01
1	 9.542110e-01	 1.237875e+00	-2.860539e+01
1	 9.390167e-01	 1.249440e+00	-3.013155e+01
1	 9.236955e-01	 1.260809e+00	-3.174386e+01
1	 1.003730e+00	 1.207721e+00	-2.414113e+01
1	 9.888686e-01	 1.219919e+00	-2.538049e+01
1	 9.738684e-01	 1.231927e+00	-2.671191e+01
1	 9.587333e-01	 1.243742e+00	-2.813309e+01
1	 9.434670e-01	 1.255362e+00	-2.964176e+01
1	 9.280732e-01	 1.266785e+00	-3.123562e+01
1	 1.008465e+00	 1.213417e+00	-2.368915e+01
1	 9.935330e-01	 1.225673e+00	-2.491581e+01
1	 9.784621e-01	 1.237738e+00	-2.623204e+01
1	 9.632557e-01	 1.249608e+00	-2.763618e+01
1	 9.479173e-01	 1.261283e+00	-2.912661e+01
1	 9.324509e-01	 1.272760e+00	-3.070173e+01
1	 1.013199e+00	 1.219114e+00	-2.321655e+01
1	 9.981975e-01	 1.231428e+00	-2.442890e+01
1	 9.830559e-01	 1.243549e+00	-2.572857e+01
1	 9.677780e-01	 1.255475e+00	-2.711461e+01
1	 9.523677e-01	 1.267205e+00	-2.858614e+01
1	 9.368286e-01	 1.278735e+00	-3.014234e+01
1	 1.017934e+00	 1.224811e+00	-2.272332e+01
1	 1.002862e+00	 1.237182e+00	-2.391971e+01
1	 9.876496e-01	 1.249360e+00	-2.520143e+01
1	 9.723003e-01	 1.261342e+00	-2.656833e+01
1	 9.568180e-01	 1.273126e+00	-2.802037e+01
1	 9.412063e-01	 1.284711e+00	-2.955761e+01
1	 9.193178e-01	 1.254834e+00	-3.222627e+01
1	 9.039467e-01	 1.265952e+00	-3.391378e+01
1	 8.884568e-01	 1.276870e+00	-3.562257e+01
1	 8.728521e-01	 1.287588e+00	-3.734067e+01
1	 8.571364e-01	 1.298103e+00	-3.905581e+01
1	 8.413136e-01	 1.308413e+00	-4.075550e+01
1	 9.236955e-01	 1.260809e+00	-3.174386e+01
1	 9.082512e-01	 1.271980e+00	-3.341116e+01
1	 8.926876e-01	 1.282951e+00	-3.509664e+01
1	 8.770086e-01	 1.293719e+00	-3.678870e+01
1	 8.612180e-01	 1.304284e+00	-3.847549e+01
1	 8.453198e-01	 1.314644e+00	-4.014493e+01
1	 9.280732e-01	 1.266785e+00	-3.123562e+01
1	 9.125557e-01	 1.278008e+00	-3.288269e+01
1	 8.969183e-01	 1.289031e+00	-3.454501e+01
1	 8.811650e-01	 1.299851e+00	-3.621111e+01
1	 8.652996e-01	 1.310465e+00	-3.786928e+01
1	 8.493261e-01	 1.320874e+00	-3.950756e+01
1	 9.324509e-01	 1.272760e+00	-3.070173e+01
1	 9.168602e-01	 1.284037e+00	-3.232865e+01
1	 9.011491e-01	 1.295111e+00	-3.396795e+01
1	 8.853214e-01	 1.305982e+00	-3.560804e+01
1	 8.693812e-01	 1.316647e+00	-3.723708e+01
1	 8.533323e-01	 1.327105e+00	-3.884297e+01
1	 9.368286e-01	 1.278735e+00	-3.014234e+01
1	 9.211647e-01	 1.290065e+00	-3.174928e+01
1	 9.053798e-01	 1.301192e+00	-3.336569e+01
1	 8.894779e-01	 1.312113e+00	-3.497960e+01
1	 8.734628e-01	 1.322828e+00	-3.657879e+01
1	 8.573386e-01	 1.333335e+00	-3.815076e+01
1	 9.412063e-01	 1.284711e+00	-2.955761e+01
1	 9.254692e-01	 1.296093e+00	-3.114483e+01
1	 9.096106e-01	 1.307272e+00	-3.273846e+01
1	 8.936343e-01	 1.318245e+00	-3.432592e+01
1	 8.775444e-01	 1.329010e+00	-3.589432e+01
1	 8.613448e-01	 1.339566e+00	-3.743051e+01
1	 8.413136e-01	 1.308413e+00	-4.075550e+01
1	 8.253876e-01	 1.318518e+00	-4.240625e+01
1	 8.093624e-01	 1.328415e+00	-4.398147e+01
1	 7.932420e-01	 1.338103e+00	-4.547890e+01
1	 7.770303e-01	 1.347582e+00	-4.689634e+01
1	 7.607315e-01	 1.356850e+00	-4.823162e+01
1	 8.453198e-01	 1.314644e+00	-4.014493e+01
1	 8.293180e-01	 1.324796e+00	-4.176447e+01
1	 8.132165e-01	 1.334740e+00	-4.330697e+01
1	 7.970193e-01	 1.344475e+00	-4.476832e+01
1	 7.807305e-01	 1.353999e+00	-4.614442e+01
1	 7.643540e-01	 1.363311e+00	-4.743118e+01
1	 8.493261e-01	 1.320874e+00	-3.950756e+01
1	 8.332484e-01	 1.331075e+00	-4.109392e+01
1	 8.170706e-01	 1.341066e+00	-4.260081e+01
1	 8.007966e-01	 1.350847e+00	-4.402289e+01
1	 7.844306e-01	 1.360416e+00	-4.535479e+01
1	 7.679766e-01	 1.369772e+00	-4.659110e+01
1	 8.533323e-01	 1.327105e+00	-3.884297e+01
1	 8.371788e-01	 1.337353e+00	-4.039392e+01
1	 8.209247e-01	 1.347392e+00	-4.186229e+01
1	 8.045740e-01	 1.357219e+00	-4.324208e+01
1	 7.881308e-01	 1.366833e+00	-4.452727e+01
1	 7.715991e-01	 1.376233e+00	-4.571177e+01
1	 8.573386e-01	 1.333335e+00	-3.815076e+01
1	 8.411092e-01	 1.343632e+00	-3.966382e+01
1	 8.247788e-01	 1.353718e+00	-4.109070e+01
1	 8.083513e-01	 1.363591e+00	-4.242535e+01
1	 7.918309e-01	 1.373250e+00	-4.366168e+01
1	 7.752216e-01	 1.382694e+00	-4.479356e+01
1	 8.613448e-01	 1.339566e+00	-3.743051e+01
1	 8.450397e-01	 1.349911e+00	-3.890297e+01
1	 8.286329e-01	 1.360044e+00	-4.028538e+01
1	 8.121287e-01	 1.369963e+00	-4.157218e+01
1	 7.955310e-01	 1.379667e+00	-4.275784e+01
1	 7.788442e-01	 1.389155e+00	-4.383681e+01
1	 7.607315e-01	 1.356850e+00	-4.823162e+01
1	 7.443495e-01	 1.365905e+00	-4.941877e+01
1	 7.278884e-01	 1.374748e+00	-5.040613e+01
1	 7.113522e-01	 1.383377e+00	-5.121341e+01
1	 6.947450e-01	 1.391791e+00	-5.186076e+01
1	 6.780708e-01	 1.399990e+00	-5.236870e+01
1	 7.643540e-01	 1.363311e+00	-4.743118e+01
1	 7.478940e-01	 1.372409e+00	-4.856354e+01
1	 7.313545e-01	 1.381294e+00	-4.949323e+01
1	 7.147396e-01	 1.389964e+00	-5.024166e+01
1	 6.980533e-01	 1.398419e+00	-5.083072e+01
1	 6.812997e-01	 1.406657e+00	-5.128276e+01
1	 7.679766e-01	 1.369772e+00	-4.659110e+01
1	 7.514385e-01	 1.378914e+00	-4.766850e+01
1	 7.348207e-01	 1.387841e+00	-4.854160e+01
1	 7.181270e-01	 1.396552e+00	-4.923233e+01
1	 7.013616e-01	 1.405046e+00	-4.976312e+01
1	 6.845286e-01	 1.413324e+00	-5.015686e+01
1	 7.715991e-01	 1.376233e+00	-4.571177e+01
1	 7.549831e-01	 1.385418e+00	-4.673446e+01
1	 7.382868e-01	 1.394387e+00	-4.755216e+01
1	 7.215144e-01	 1.403139e+00	-4.818612e+01
1	 7.046699e-01	 1.411674e+00	-4.865809e+01
1	 6.877575e-01	 1.419990e+00	-4.899028e+01
1	 7.752216e-01	 1.382694e+00	-4.479356e+01
1	 7.585276e-01	 1.391922e+00	-4.576226e+01
1	 7.417529e-01	 1.400934e+00	-4.652585e+01
1	 7.249018e-01	 1.409727e+00	-4.710373e+01
1	 7.079782e-01	 1.418301e+00	-4.751579e+01
1	 6.909864e-01	 1.426657e+00	-4.778234e+01
1	 7.788442e-01	 1.389155e+00	-4.383681e+01
1	 7.620721e-01	 1.398427e+00	-4.475269e+01
1	 7.452191e-01	 1.407480e+00	-4.546355e+01
1	 7.282891e-01	 1.416314e+00	-4.598583e+01
1	 7.112865e-01	 1.424929e+00	-4.633637e+01
1	 6.942153e-01	 1.433323e+00	-4.653238e+01
1	 6.780708e-01	 1.399990e+00	-5.236870e+01
1	 6.613337e-01	 1.407974e+00	-5.273533e+01
1	 6.445377e-01	 1.415742e+00	-5.294529e+01
1	 6.276869e-01	 1.423293e+00	-5.299910e+01
1	 6.107853e-01	 1.430627e+00	-5.289721e+01
1	 5.938370e-01	 1.437745e+00	-5.263998e+01
1	 6.812997e-01	 1.406657e+00	-5.128276e+01
1	 6.644829e-01	 1.414679e+00	-5.159450e+01
1	 6.476070e-01	 1.422483e+00	-5.174733e+01
1	 6.306759e-01	 1.430070e+00	-5.174084e+01
1	 6.136938e-01	 1.437440e+00	-5.157449e+01
1	 5.966647e-01	 1.444591e+00	-5.124761e+01
1	 6.845286e-01	 1.413324e+00	-5.015686e+01
1	 6.676321e-01	 1.421383e+00	-5.040794e+01
1	 6.506762e-01	 1.429225e+00	-5.049584e+01
1	 6.336649e-01	 1.436848e+00	-5.042127e+01
1	 6.166023e-01	 1.444252e+00	-5.018486e+01
1	 5.994925e-01	 1.451438e+00	-4.978711e+01
1	 6.877575e-01	 1.419990e+00	-4.899028e+01
1	 6.707813e-01	 1.428088e+00	-4.917424e+01
1	 6.537454e-01	 1.435966e+00	-4.918917e+01
1	 6.366539e-01	 1.443625e+00	-4.903902e+01
1	 6.195108e-01	 1.451065e+00	-4.872769e+01
1	 6.023203e-01	 1.458284e+00	-4.825897e+01
1	 6.909864e-01	 1.426657e+00	-4.778234e+01
1	 6.739305e-01	 1.434793e+00	-4.789198e+01
1	 6.568146e-01	 1.442708e+00	-4.782571e+01
1	 6.396429e-01	 1.450403e+00	-4.759274e+01
1	 6.224193e-01	 1.457877e+00	-4.720232e+01
1	 6.051481e-01	 1.465131e+00	-4.666370e+01
1	 6.942153e-01	 1.433323e+00	-4.653238e+01
1	 6.770797e-01	 1.441497e+00	-4.655980e+01
1	 6.598839e-01	 1.449450e+00	-4.640388e+01
1	 6.426319e-01	 1.457181e+00	-4.608111e+01
1	 6.253278e-01	 1.464690e+00	-4.560814e+01
1	 6.079759e-01	 1.471977e+00	-4.500175e+01
1	 5.938370e-01	 1.437745e+00	-5.263998e+01
1	 5.768458e-01	 1.444646e+00	-5.225652e+01
1	 5.598158e-01	 1.451330e+00	-5.178908e+01
1	 5.427510e-01	 1.457798e+00	-5.125782e+01
1	 5.256552e-01	 1.464049e+00	-5.068302e+01
1	 5.085325e-01	 1.470084e+00	-5.008511e+01
1	 5.966647e-01	 1.444591e+00	-5.124761e+01
1	 5.795927e-01	 1.451525e+00	-5.079170e+01
1	 5.624816e-01	 1.458241e+00	-5.025512e+01
1	 5.453355e-01	 1.464740e+00	-4.966257e+01
1	 5.281584e-01	 1.471021e+00	-4.903896e+01
1	 5.109541e-01	 1.477085e+00	-4.840935e+01
1	 5.994925e-01	 1.451438e+00	-4.978711e+01
1	 5.823396e-01	 1.458405e+00	-4.926383e+01
1	 5.651474e-01	 1.465152e+00	-4.866866e+01
1	 5.479200e-01	 1.471682e+00	-4.802895e+01
1	 5.306615e-01	 1.477992e+00	-4.737227e+01
1	 5.133756e-01	 1.484085e+00	-4.672635e+01
1	 6.023203e-01	 1.458284e+00	-4.825897e+01
1	 5.850864e-01	 1.465284e+00	-4.767451e+01
1	 5.678132e-01	 1.472063e+00	-4.703198e+01
1	 5.505046e-01	 1.478623e+00	-4.635950e+01
1	 5.331646e-01	 1.484964e+00	-4.568536e+01
1	 5.157972e-01	 1.491085e+00	-4.503802e+01
1	 6.051481e-01	 1.465131e+00	-4.666370e+01
1	 5.878333e-01	 1.472163e+00	-4.602531e+01
1	 5.704790e-01	 1.478975e+00	-4.534732e+01
1	 5.530891e-01	 1.485565e+00	-4.465669e+01
1	 5.356677e-01	 1.491936e+00	-4.398057e+01
1	 5.182188e-01	 1.498086e+00	-4.334622e+01
1	 6.079759e-01	 1.471977e+00	-4.500175e+01
1	 5.905802e-01	 1.479042e+00	-4.431780e+01
1	 5.731448e-01	 1.485886e+00	-4.361686e+01
1	 5.556736e-01	 1.492507e+00	-4.292297e+01
1	 5.381708e-01	 1.498907e+00	-4.226022e+01
1	 5.206404e-01	 1.505086e+00	-4.165277e+01
1	 5.085325e-01	 1.470084e+00	-5.008511e+01
1	 4.913866e-01	 1.475904e+00	-4.948139e+01
1	 4.742214e-01	 1.481508e+00	-4.889578e+01
1	 4.570408e-01	 1.486898e+00	-4.835862e+01
1	 4.398485e-01	 1.492075e+00	-4.790011e+01
1	 4.226482e-01	 1.497038e+00	-4.755031e+01
1	 5.109541e-01	 1.477085e+00	-4.840935e+01
1	 4.937265e-01	 1.482932e+00	-4.779475e+01
1	 4.764796e-01	 1.488563e+00	-4.721874e+01
1	 4.592172e-01	 1.493979e+00	-4.671031e+01
1	 4.419430e-01	 1.499180e+00	-4.629828e+01
1	 4.246608e-01	 1.504166e+00	-4.601129e+01
1	 5.133756e-01	 1.484085e+00	-4.672635e+01
1	 4.960665e-01	 1.489960e+00	-4.611378e+01
1	 4.787378e-01	 1.495618e+00	-4.555701e+01
1	 4.613936e-01	 1.501059e+00	-4.508361e+01
1	 4.440375e-01	 1.506285e+00	-4.472099e+01
1	 4.266734e-01	 1.511295e+00	-4.449630e+01
1	 5.157972e-01	 1.491085e+00	-4.503802e+01
1	 4.984064e-01	 1.496988e+00	-4.443976e+01
1	 4.809960e-01	 1.502673e+00	-4.391130e+01
1	 4.635699e-01	 1.508140e+00	-4.347874e+01
1	 4.461320e-01	 1.513390e+00	-4.316802e+01
1	 4.286860e-01	 1.518424e+00	-4.300481e+01
1	 5.182188e-01	 1.498086e+00	-4.334622e+01
1	 5.007463e-01	 1.504016e+00	-4.277393e+01
1	 4.832542e-01	 1.509728e+00	-4.228230e+01
1	 4.657463e-01	 1.515220e+00	-4.189592e+01
1	 4.482265e-01	 1.520495e+00	-4.163919e+01
1	 4.306986e-01	 1.525553e+00	-4.153627e+01
1	 5.206404e-01	 1.505086e+00	-4.165277e+01
1	 5.030863e-01	 1.511044e+00	-4.111754e+01
1	 4.855124e-01	 1.516782e+00	-4.067072e+01
1	 4.679227e-01	 1.522301e+00	-4.033537e+01
1	 4.503210e-01	 1.527600e+00	-4.013431e+01
1	 4.327112e-01	 1.532681e+00	-4.009015e+01
1	 4.226482e-01	 1.497038e+00	-4.755031e+01
1	 4.054436e-01	 1.501788e+00	-4.737415e+01
1	 3.882385e-01	 1.506328e+00	-4.739430e+01
1	 3.710363e-01	 1.510657e+00	-4.757725e+01
1	 3.538408e-01	 1.514777e+00	-4.788951e+01
1	 3.366553e-01	 1.518689e+00	-4.829766e+01
1	 4.246608e-01	 1.504166e+00	-4.601129e+01
1	 4.073743e-01	 1.508940e+00	-4.591036e+01
1	 3.900872e-01	 1.513501e+00	-4.601426e+01
1	 3.728032e-01	 1.517851e+00	-4.628799e+01
1	 3.555257e-01	 1.521990e+00	-4.669655e+01
1	 3.382584e-01	 1.525921e+00	-4.720498e+01
1	 4.266734e-01	 1.511295e+00	-4.449630e+01
1	 4.093050e-01	 1.516091e+00	-4.446688e+01
1	 3.919360e-01	 1.520674e+00	-4.464844e+01
1	 3.745700e-01	 1.525044e+00	-4.500553e+01
1	 3.572107e-01	 1.529204e+00	-4.550266e+01
1	 3.398615e-01	 1.533153e+00	-4.610441e+01
1	 4.286860e-01	 1.518424e+00	-4.300481e+01
1	 4.112357e-01	 1.523243e+00	-4.304292e+01
1	 3.937847e-01	 1.527847e+00	-4.329593e+01
1	 3.763368e-01	 1.532238e+00	-4.372896e+01
1	 3.588956e-01	 1.536417e+00	-4.430705e+01
1	 3.414647e-01	 1.540385e+00	-4.499529e+01
1	 4.306986e-01	 1.525553e+00	-4.153627e+01
1	 4.131664e-01	 1.530394e+00	-4.163769e+01
1	 3.956335e-01	 1.535020e+00	-4.195585e+01
1	 3.781037e-01	 1.539432e+00	-4.245739e+01
1	 3.605806e-01	 1.543630e+00	-4.310891e+01
1	 3.430678e-01	 1.547616e+00	-4.387704e+01
1	 4.327112e-01	 1.532681e+00	-4.009015e+01
1	 4.150970e-01	 1.537545e+00	-4.025043e+01
1	 3.974822e-01	 1.542193e+00	-4.062730e+01
1	 3.798705e-01	 1.546625e+00	-4.118993e+01
1	 3.622655e-01	 1.550843e+00	-4.190747e+01
1	 3.446709e-01	 1.554848e+00	-4.274905e+01
1	 3.366553e-01	 1.518689e+00	-4.829766e+01
1	 3.194834e-01	 1.522394e+00	-4.881408e+01
1	 3.023285e-01	 1.525893e+00	-4.946082e+01
1	 2.851939e-01	 1.529189e+00	-5.021899e+01
1	 2.680829e-01	 1.532281e+00	-5.106984e+01
1	 2.509989e-01	 1.535172e+00	-5.199466e+01
1	 3.382584e-01	 1.525921e+00	-4.720498e+01
1	 3.210047e-01	 1.529643e+00	-4.782484e+01
1	 3.037681e-01	 1.533160e+00	-4.857754e+01
1	 2.865519e-01	 1.536470e+00	-4.944315e+01
1	 2.693595e-01	 1.539577e+00	-5.040182e+01
1	 2.521941e-01	 1.542482e+00	-5.143379e+01
1	 3.398615e-01	 1.533153e+00	-4.610441e+01
1	 3.225261e-01	 1.536893e+00	-4.682226e+01
1	 3.052078e-01	 1.540426e+00	-4.767692e+01
1	 2.879100e-01	 1.543752e+00	-4.864692e+01
1	 2.706361e-01	 1.546874e+00	-4.971085e+01
1	 2.533894e-01	 1.549793e+00	-5.084748e+01
1	 3.414647e-01	 1.540385e+00	-4.499529e+01
1	 3.240474e-01	 1.544142e+00	-4.580592e+01
1	 3.066474e-01	 1.547692e+00	-4.675866e+01
1	 2.892681e-01	 1.551034e+00	-4.783006e+01
1	 2.719127e-01	 1.554171e+00	-4.899674e+01
1	 2.545846e-01	 1.557103e+00	-5.023551e+01
1	 3.430678e-01	 1.547616e+00	-4.387704e+01
1	 3.255688e-01	 1.551392e+00	-4.477539e+01
1	 3.080871e-01	 1.554958e+00	-4.582247e+01
1	 2.906261e-01	 1.558316e+00	-4.699236e+01
1	 2.731893e-01	 1.561467e+00	-4.825930e+01
1	 2.557798e-01	 1.564413e+00	-4.959767e+01
1	 3.446709e-01	 1.554848e+00	-4.274905e+01
1	 3.270901e-01	 1.558641e+00	-4.373027e+01
1	 3.095267e-01	 1.562224e+00	-4.486804e+01
1	 2.919842e-01	 1.565598e+00	-4.613361e+01
1	 2.744659e-01	 1.568764e+00	-4.749834e+01
1	 2.569751e-01	 1.571724e+00	-4.893378e+01
1	 2.509989e-01	 1.535172e+00	-5.199466e+01
1	 2.339450e-01	 1.537863e+00	-5.296280e+01
1	 2.169243e-01	 1.540356e+00	-5.394089e+01
1	 1.999400e-01	 1.542653e+00	-5.490641e+01
1	 1.829950e-01	 1.544754e+00	-5.583713e+01
1	 1.660924e-01	 1.546663e+00	-5.671115e+01
1	 2.521941e-01	 1.542482e+00	-5.143379e+01
1	 2.350590e-01	 1.545186e+00	-5.250748e+01
1	 2.179573e-01	 1.547691e+00	-5.358868e+01
1	 2.008921e-01	 1.549999e+00	-5.465405e+01
1	 1.838664e-01	 1.552110e+00	-5.568051e+01
1	 1.668833e-01	 1.554028e+00	-5.664532e+01
1	 2.533894e-01	 1.549793e+00	-5.084748e+01
1	 2.361730e-01	 1.552509e+00	-5.202388e+01
1	 2.189903e-01	 1.555026e+00	-5.320513e+01
1	 2.018442e-01	 1.557345e+00	-5.436720e+01
1	 1.847378e-01	 1.559466e+00	-5.548637e+01
1	 1.676742e-01	 1.561393e+00	-5.653927e+01
1	 2.545846e-01	 1.557103e+00	-5.023551e+01
1	 2.372871e-01	 1.559833e+00	-5.151179e+01
1	 2.200233e-01	 1.562361e+00	-5.278999e+01
1	 2.027963e-01	 1.564691e+00	-5.404561e+01
1	 1.856092e-01	 1.566822e+00	-5.525449e+01
1	 1.684651e-01	 1.568758e+00	-5.639280e+01
1	 2.557798e-01	 1.564413e+00	-4.959767e+01
1	 2.384011e-01	 1.567156e+00	-5.097097e+01
1	 2.210562e-01	 1.569696e+00	-5.234302e+01
1	 2.037484e-01	 1.572036e+00	-5.368906e+01
1	 1.864807e-01	 1.574178e+00	-5.498464e+01
1	 1.692560e-01	 1.576123e+00	-5.620569e+01
1	 2.569751e-01	 1.571724e+00	-4.893378e+01
1	 2.395151e-01	 1.574479e+00	-5.040119e+01
1	 2.220892e-01	 1.577031e+00	-5.186398e+01
1	 2.047005e-01	 1.579382e+00	-5.329729e+01
1	 1.873521e-01	 1.581534e+00	-5.467660e+01
1	 1.700470e-01	 1.583488e+00	-5.597774e+01
1	 1.660924e-01	 1.546663e+00	-5.671115e+01
1	 1.492349e-01	 1.548380e+00	-5.750700e+01
1	 1.324256e-01	 1.549909e+00	-5.820241e+01
1	 1.156670e-01	 1.551249e+00	-5.877469e+01
1	 9.896200e-02	 1.552404e+00	-5.920158e+01
1	 8.231317e-02	 1.553376e+00	-5.946116e+01
1	 1.668833e-01	 1.554028e+00	-5.664532e+01
1	 1.499456e-01	 1.555754e+00	-5.752591e+01
1	 1.330562e-01	 1.557289e+00	-5.829877e+01
1	 1.162178e-01	 1.558636e+00	-5.894022e+01
1	 9.943324e-02	 1.559797e+00	-5.942703e+01
1	 8.270514e-02	 1.560773e+00	-5.973635e+01
1	 1.676742e-01	 1.561393e+00	-5.653927e+01
1	 1.506562e-01	 1.563127e+00	-5.750238e+01
1	 1.336868e-01	 1.564670e+00	-5.835089e+01
1	 1.167686e-01	 1.566023e+00	-5.906010e+01
1	 9.990449e-02	 1.567189e+00	-5.960573e+01
1	 8.309711e-02	 1.568170e+00	-5.996395e+01
1	 1.684651e-01	 1.568758e+00	-5.639280e+01
1	 1.513669e-01	 1.570500e+00	-5.743619e+01
1	 1.343174e-01	 1.572050e+00	-5.835859e+01
1	 1.173194e-01	 1.573410e+00	-5.913416e+01
1	 1.003757e-01	 1.574582e+00	-5.973753e+01
1	 8.348908e-02	 1.575567e+00	-6.014379e+01
1	 1.692560e-01	 1.576123e+00	-5.620569e+01
1	 1.520775e-01	 1.577873e+00	-5.732717e+01
1	 1.349479e-01	 1.579431e+00	-5.832170e+01
1	 1.178702e-01	 1.580797e+00	-5.916225e+01
1	 1.008470e-01	 1.581974e+00	-5.982228e+01
1	 8.388104e-02	 1.582964e+00	-6.027574e+01
1	 1.700470e-01	 1.583488e+00	-5.597774e+01
1	 1.527882e-01	 1.585247e+00	-5.717513e+01
1	 1.355785e-01	 1.586811e+00	-5.824004e+01
1	 1.184210e-01	 1.588184e+00	-5.914420e+01
1	 1.013182e-01	 1.589366e+00	-5.985982e+01
1	 8.427301e-02	 1.590361e+00	-6.035967e+01
1	 8.231317e-02	 1.553376e+00	-5.946116e+01
1	 6.572312e-02	 1.554167e+00	-5.953233e+01
1	 4.919436e-02	 1.554777e+00	-5.939873e+01
1	 3.272934e-02	 1.555211e+00	-5.904616e+01
1	 1.633045e-02	 1.555470e+00	-5.846081e+01
1	 0.000000e+00	 1.555556e+00	-5.762921e+01
1	 8.270514e-02	 1.560773e+00	-5.973635e+01
1	 6.603609e-02	 1.561567e+00	-5.984625e+01
1	 4.942862e-02	 1.562181e+00	-5.973935e+01
1	 3.288519e-02	 1.562617e+00	-5.940035e+01
1	 1.640821e-02	 1.562877e+00	-5.881432e+01
1	 0.000000e+00	 1.562963e+00	-5.796675e+01
1	 8.309711e-02	 1.568170e+00	-5.996395e+01
1	 6.634906e-02	 1.568968e+00	-6.011193e+01
1	 4.966288e-02	 1.569585e+00	-6.003146e+01
1	 3.304105e-02	 1.570023e+00	-5.970626e+01
1	 1.648597e-02	 1.570284e+00	-5.912046e+01
1	 0.000000e+00	 1.570370e+00	-5.825867e+01
1	 8.348908e-02	 1.575567e+00	-6.014379e+01
1	 6.666203e-02	 1.576369e+00	-6.032924e+01
1	 4.989714e-02	 1.576989e+00	-6.027492e+01
1	 3.319690e-02	 1.577429e+00	-5.996374e+01
1	 1.656374e-02	 1.577691e+00	-5.937907e+01
1	 0.000000e+00	 1.577778e+00	-5.850476e+01
1	 8.388104e-02	 1.582964e+00	-6.027574e+01
1	 6.697499e-02	 1.583770e+00	-6.049804e+01
1	 5.013140e-02	 1.584392e+00	-6.046958e+01
1	 3.335276e-02	 1.584834e+00	-6.017264e+01
1	 1.664150e-02	 1.585098e+00	-5.958997e+01
1	 0.000000e+00	 1.585185e+00	-5.870482e+01
1	 8.427301e-02	 1.590361e+00	-6.035967e+01
1	 6.728796e-02	 1.591170e+00	-6.061819e+01
1	 5.036566e-02	 1.591796e+00	-6.061532e+01
1	 3.350861e-02	 1.592240e+00	-6.033283e+01
1	 1.671927e-02	 1.592505e+00	-5.975300e+01
1	 0.000000e+00	 1.592593e+00	-5.885866e+01
1	 1.592593e+00	 0.000000e+00	 1.612629e+01
1	 1.592505e+00	 1.671927e-02	 1.582689e+01
1	 1.592240e+00	 3.350861e-02	 1.549197e+01
1	 1.591796e+00	 5.036566e-02	 1.512499e+01
1	 1.591170e+00	 6.728796e-02	 1.472943e+01
1	 1.590361e+00	 8.427301e-02	 1.430889e+01
1	 1.600000e+00	 0.000000e+00	 1.596574e+01
1	 1.599912e+00	 1.679703e-02	 1.567385e+01
1	 1.599646e+00	 3.366446e-02	 1.534417e+01
1	 1.599200e+00	 5.059991e-02	 1.498027e+01
1	 1.598571e+00	 6.760093e-02	 1.458577e+01
1	 1.597758e+00	 8.466498e-02	 1.416438e+01
1	 1.607407e+00	 0.000000e+00	 1.579936e+01
1	 1.607319e+00	 1.687479e-02	 1.551519e+01
1	 1.607052e+00	 3.382032e-02	 1.519099e+01
1	 1.606603e+00	 5.083417e-02	 1.483047e+01
1	 1.605972e+00	 6.791389e-02	 1.443740e+01
1	 1.605155e+00	 8.505695e-02	 1.401564e+01
1	 1.614815e+00	 0.000000e+00	 1.562710e+01
1	 1.614726e+00	 1.695256e-02	 1.535086e+01
1	 1.614457e+00	 3.397617e-02	 1.503238e+01
1	 1.614007e+00	 5.106843e-02	 1.467553e+01
1	 1.613373e+00	 6.822686e-02	 1.428424e+01
1	 1.612552e+00	 8.544891e-02	 1.386254e+01
1	 1.622222e+00	 0.000000e+00	 1.544889e+01
1	 1.622133e+00	 1.703032e-02	 1.518081e+01
1	 1.621863e+00	 3.413203e-02	 1.486829e+01
1	 1.621411e+00	 5.130269e-02	 1.451539e+01
1	 1.620774e+00	 6.853983e-02	 1.412623e+01
1	 1.619949e+00	 8.584088e-02	 1.370500e+01
1	 1.629630e+00	 0.000000e+00	 1.526469e+01
1	 1.629540e+00	 1.710809e-02	 1.500498e+01
1	 1.629269e+00	 3.428788e-02	 1.469867e+01
1	 1.628814e+00	 5.153695e-02	 1.435000e+01
1	 1.628174e+00	 6.885280e-02	 1.396328e+01
1	 1.627346e+00	 8.623285e-02	 1.354290e+01
1	 1.590361e+00	 8.427301e-02	 1.430889e+01
1	 1.589366e+00	 1.013182e-01	 1.386670e+01
1	 1.588184e+00	 1.184210e-01	 1.340720e+01
1	 1.586811e+00	 1.355785e-01	 1.293545e+01
1	 1.585247e+00	 1.527882e-01	 1.245652e+01
1	 1.583488e+00	 1.700470e-01	 1.197550e+01
1	 1.597758e+00	 8.466498e-02	 1.416438e+01
1	 1.596759e+00	 1.017895e-01	 1.371933e+01
1	 1.595571e+00	 1.189718e-01	 1.325488e+01
1	 1.594192e+00	 1.362091e-01	 1.277631e+01
1	 1.592620e+00	 1.534988e-01	 1.228891e+01
1	 1.590853e+00	 1.708379e-01	 1.179798e+01
1	 1.605155e+00	 8.505695e-02	 1.401564e+01
1	 1.604151e+00	 1.022607e-01	 1.356829e+01
1	 1.602958e+00	 1.195226e-01	 1.309953e+01
1	 1.601572e+00	 1.368397e-01	 1.261482e+01
1	 1.599993e+00	 1.542094e-01	 1.211965e+01
1	 1.598218e+00	 1.716288e-01	 1.161954e+01
1	 1.612552e+00	 8.544891e-02	 1.386254e+01
1	 1.611544e+00	 1.027320e-01	 1.341344e+01
1	 1.610344e+00	 1.200734e-01	 1.294098e+01
1	 1.608953e+00	 1.374703e-01	 1.245081e+01
1	 1.607366e+00	 1.549201e-01	 1.194860e+01
1	 1.605583e+00	 1.724197e-01	 1.144002e+01
1	 1.619949e+00	 8.584088e-02	 1.370500e+01
1	 1.618936e+00	 1.032032e-01	 1.325464e+01
1	 1.617731e+00	 1.206242e-01	 1.277909e+01
1	 1.616333e+00	 1.381009e-01	 1.228414e+01
1	 1.614740e+00	 1.556307e-01	 1.177560e+01
1	 1.612949e+00	 1.732106e-01	 1.125930e+01
1	 1.627346e+00	 8.623285e-02	 1.354290e+01
1	 1.626328e+00	 1.036745e-01	 1.309176e+01
1	 1.625118e+00	 1.211750e-01	 1.261371e+01
1	 1.623714e+00	 1.387315e-01	 1.211464e+01
1	 1.622113e+00	 1.563414e-01	 1.160050e+01
1	 1.620314e+00	 1.740015e-01	 1.107723e+01
1	 1.583488e+00	 1.700470e-01	 1.197550e+01
1	 1.581534e+00	 1.873521e-01	 1.149754e+01
1	 1.579382e+00	 2.047005e-01	 1.102708e+01
1	 1.577031e+00	 2.220892e-01	 1.056812e+01
1	 1.574479e+00	 2.395151e-01	 1.012464e+01
1	 1.571724e+00	 2.569751e-01	 9.700592e+00
1	 1.590853e+00	 1.708379e-01	 1.179798e+01
1	 1.588890e+00	 1.882235e-01	 1.130906e+01
1	 1.586728e+00	 2.056526e-01	 1.082683e+01
1	 1.584366e+00	 2.231222e-01	 1.035537e+01
1	 1.581802e+00	 2.406291e-01	 9.898714e+00
1	 1.579034e+00	 2.581703e-01	 9.460895e+00
1	 1.598218e+00	 1.716288e-01	 1.161954e+01
1	 1.596246e+00	 1.890949e-01	 1.112037e+01
1	 1.594074e+00	 2.066047e-01	 1.062714e+01
1	 1.591701e+00	 2.241551e-01	 1.014399e+01
1	 1.589125e+00	 2.417432e-01	 9.675053e+00
1	 1.586344e+00	 2.593655e-01	 9.224454e+00
1	 1.605583e+00	 1.724197e-01	 1.144002e+01
1	 1.603602e+00	 1.899663e-01	 1.093134e+01
1	 1.601420e+00	 2.075568e-01	 1.042784e+01
1	 1.599036e+00	 2.251881e-01	 9.933795e+00
1	 1.596448e+00	 2.428572e-01	 9.453425e+00
1	 1.593655e+00	 2.605608e-01	 8.990961e+00
1	 1.612949e+00	 1.732106e-01	 1.125930e+01
1	 1.610958e+00	 1.908377e-01	 1.074183e+01
1	 1.608766e+00	 2.085089e-01	 1.022882e+01
1	 1.606371e+00	 2.262211e-01	 9.724620e+00
1	 1.603771e+00	 2.439712e-01	 9.233604e+00
1	 1.600965e+00	 2.617560e-01	 8.760117e+00
1	 1.620314e+00	 1.740015e-01	 1.107723e+01
1	 1.618314e+00	 1.917091e-01	 1.055173e+01
1	 1.616112e+00	 2.094610e-01	 1.002991e+01
1	 1.613706e+00	 2.272541e-01	 9.516292e+00
1	 1.611095e+00	 2.450852e-01	 9.015370e+00
1	 1.608275e+00	 2.629512e-01	 8.531627e+00
1	 1.571724e+00	 2.569751e-01	 9.700592e+00
1	 1.568764e+00	 2.744659e-01	 9.307024e+00
1	 1.565598e+00	 2.919842e-01	 8.955059e+00
1	 1.562224e+00	 3.095267e-01	 8.648683e+00
1	 1.558641e+00	 3.270901e-01	 8.391764e+00
1	 1.554848e+00	 3.446709e-01	 8.188038e+00
1	 1.579034e+00	 2.581703e-01	 9.460895e+00
1	 1.576060e+00	 2.757424e-01	 9.052738e+00
1	 1.572880e+00	 2.933423e-01	 8.685412e+00
1	 1.569490e+00	 3.109664e-01	 8.363363e+00
1	 1.565891e+00	 3.286115e-01	 8.090911e+00
1	 1.562080e+00	 3.462740e-01	 7.872231e+00
1	 1.586344e+00	 2.593655e-01	 9.224454e+00
1	 1.583357e+00	 2.770190e-01	 8.802740e+00
1	 1.580161e+00	 2.947003e-01	 8.421023e+00
1	 1.576756e+00	 3.124061e-01	 8.084160e+00
1	 1.573140e+00	 3.301328e-01	 7.796871e+00
1	 1.569312e+00	 3.478771e-01	 7.563735e+00
1	 1.593655e+00	 2.605608e-01	 8.990961e+00
1	 1.590653e+00	 2.782956e-01	 8.556661e+00
1	 1.587443e+00	 2.960584e-01	 8.161515e+00
1	 1.584023e+00	 3.138457e-01	 7.810736e+00
1	 1.580390e+00	 3.316542e-01	 7.509404e+00
1	 1.576544e+00	 3.494803e-01	 7.262454e+00
1	 1.600965e+00	 2.617560e-01	 8.760117e+00
1	 1.597950e+00	 2.795722e-01	 8.314142e+00
1	 1.594725e+00	 2.974165e-01	 7.906516e+00
1	 1.591289e+00	 3.152854e-01	 7.542761e+00
1	 1.587639e+00	 3.331755e-01	 7.228269e+00
1	 1.583776e+00	 3.510834e-01	 6.968296e+00
1	 1.608275e+00	 2.629512e-01	 8.531627e+00
1	 1.605247e+00	 2.808488e-01	 8.074827e+00
1	 1.602007e+00	 2.987745e-01	 7.655662e+00
1	 1.598555e+00	 3.167250e-01	 7.279910e+00
1	 1.594889e+00	 3.346969e-01	 6.953235e+00
1	 1.591008e+00	 3.526865e-01	 6.681170e+00
1	 1.554848e+00	 3.446709e-01	 8.188038e+00
1	 1.550843e+00	 3.622655e-01	 8.023910e+00
1	 1.546625e+00	 3.798705e-01	 7.886118e+00
1	 1.542193e+00	 3.974822e-01	 7.778736e+00
1	 1.537545e+00	 4.150970e-01	 7.705736e+00
1	 1.532681e+00	 4.327112e-01	 7.670983e+00
1	 1.562080e+00	 3.462740e-01	 7.872231e+00
1	 1.558056e+00	 3.639505e-01	 7.694281e+00
1	 1.553819e+00	 3.816374e-01	 7.543844e+00
1	 1.549366e+00	 3.993310e-01	 7.424681e+00
1	 1.544697e+00	 4.170277e-01	 7.340473e+00
1	 1.539810e+00	 4.347238e-01	 7.294813e+00
1	 1.569312e+00	 3.478771e-01	 7.563735e+00
1	 1.565270e+00	 3.656355e-01	 7.372381e+00
1	 1.561012e+00	 3.834042e-01	 7.209829e+00
1	 1.556539e+00	 4.011798e-01	 7.079573e+00
1	 1.551848e+00	 4.189584e-01	 6.985042e+00
1	 1.546939e+00	 4.367364e-01	 6.929585e+00
1	 1.576544e+00	 3.494803e-01	 7.262454e+00
1	 1.572483e+00	 3.673204e-01	 7.058246e+00
1	 1.568206e+00	 3.851710e-01	 6.884143e+00
1	 1.563712e+00	 4.030285e-01	 6.743425e+00
1	 1.558999e+00	 4.208891e-01	 6.639303e+00
1	 1.554068e+00	 4.387491e-01	 6.574910e+00
1	 1.583776e+00	 3.510834e-01	 6.968296e+00
1	 1.579696e+00	 3.690054e-01	 6.751909e+00
1	 1.575400e+00	 3.869379e-01	 6.566856e+00
1	 1.570885e+00	 4.048773e-01	 6.416248e+00
1	 1.566151e+00	 4.228198e-01	 6.303116e+00
1	 1.561196e+00	 4.407617e-01	 6.230404e+00
1	 1.591008e+00	 3.526865e-01	 6.681170e+00
1	 1.586909e+00	 3.706903e-01	 6.453403e+00
1	 1.582593e+00	 3.887047e-01	 6.258035e+00
1	 1.578058e+00	 4.067260e-01	 6.098054e+00
1	 1.573302e+00	 4.247505e-01	 5.976345e+00
1	 1.568325e+00	 4.427743e-01	 5.895690e+00
1	 1.532681e+00	 4.327112e-01	 7.670983e+00
1	 1.527600e+00	 4.503210e-01	 7.662206e+00
1	 1.522301e+00	 4.679227e-01	 7.660980e+00
1	 1.516782e+00	 4.855124e-01	 7.661802e+00
1	 1.511044e+00	 5.030863e-01	 7.659106e+00
1	 1.505086e+00	 5.206404e-01	 7.647275e+00
1	 1.539810e+00	 4.347238e-01	 7.294813e+00
1	 1.534705e+00	 4.524156e-01	 7.275767e+00
1	 1.529381e+00	 4.700991e-01	 7.265482e+00
1	 1.523837e+00	 4.877706e-01	 7.258532e+00
1	 1.518073e+00	 5.054262e-01	 7.249413e+00
1	 1.512087e+00	 5.230620e-01	 7.232548e+00
1	 1.546939e+00	 4.367364e-01	 6.929585e+00
1	 1.541810e+00	 4.545101e-01	 6.901470e+00
1	 1.536462e+00	 4.722755e-01	 6.883220e+00
1	 1.530892e+00	 4.900288e-01	 6.869434e+00
1	 1.525101e+00	 5.077662e-01	 6.854627e+00
1	 1.519087e+00	 5.254836e-01	 6.833237e+00
1	 1.554068e+00	 4.387491e-01	 6.574910e+00
1	 1.548915e+00	 4.566046e-01	 6.538687e+00
1	 1.543542e+00	 4.744519e-01	 6.513448e+00
1	 1.537947e+00	 4.922870e-01	 6.493762e+00
1	 1.532129e+00	 5.101061e-01	 6.474124e+00
1	 1.526087e+00	 5.279051e-01	 6.448961e+00
1	 1.561196e+00	 4.407617e-01	 6.230404e+00
1	 1.556021e+00	 4.586991e-01	 6.186799e+00
1	 1.550623e+00	 4.766283e-01	 6.155429e+00
1	 1.545002e+00	 4.945452e-01	 6.130783e+00
1	 1.539157e+00	 5.124460e-01	 6.107293e+00
1	 1.533088e+00	 5.303267e-01	 6.079347e+00
1	 1.568325e+00	 4.427743e-01	 5.895690e+00
1	 1.563126e+00	 4.607936e-01	 5.845201e+00
1	 1.557703e+00	 4.788046e-01	 5.808445e+00
1	 1.552056e+00	 4.968034e-01	 5.779777e+00
1	 1.546185e+00	 5.147860e-01	 5.753531e+00
1	 1.540088e+00	 5.327483e-01	 5.724030e+00
1	 1.505086e+00	 5.206404e-01	 7.647275e+00
1	 1.498907e+00	 5.381708e-01	 7.616761e+00
1	 1.492507e+00	 5.556736e-01	 7.560328e+00
1	 1.485886e+00	 5.731448e-01	 7.476060e+00
1	 1.479042e+00	 5.905802e-01	 7.362418e+00
1	 1.471977e+00	 6.079759e-01	 7.218246e+00
1	 1.512087e+00	 5.230620e-01	 7.232548e+00
1	 1.505879e+00	 5.406740e-01	 7.199810e+00
1	 1.499449e+00	 5.582581e-01	 7.145429e+00
1	 1.492797e+00	 5.758105e-01	 7.067537e+00
1	 1.485922e+00	 5.933271e-01	 6.964558e+00
1	 1.478823e+00	 6.108037e-01	 6.835212e+00
1	 1.519087e+00	 5.254836e-01	 6.833237e+00
1	 1.512851e+00	 5.431771e-01	 6.798256e+00
1	 1.506391e+00	 5.608427e-01	 6.745105e+00
1	 1.499708e+00	 5.784763e-01	 6.671975e+00
1	 1.492801e+00	 5.960740e-01	 6.577267e+00
1	 1.485670e+00	 6.136315e-01	 6.459602e+00
1	 1.526087e+00	 5.279051e-01	 6.448961e+00
1	 1.519822e+00	 5.456802e-01	 6.412044e+00
1	 1.513333e+00	 5.634272e-01	 6.359667e+00
1	 1.506619e+00	 5.811421e-01	 6.290088e+00
1	 1.499680e+00	 5.988209e-01	 6.201705e+00
1	 1.492516e+00	 6.164593e-01	 6.093058e+00
1	 1.533088e+00	 5.303267e-01	 6.079347e+00
1	 1.526794e+00	 5.481833e-01	 6.041123e+00
1	 1.520275e+00	 5.660117e-01	 5.989419e+00
1	 1.513530e+00	 5.838079e-01	 5.922578e+00
1	 1.506559e+00	 6.015677e-01	 5.839009e+00
1	 1.499363e+00	 6.192871e-01	 5.737193e+00
1	 1.540088e+00	 5.327483e-01	 5.724030e+00
1	 1.533766e+00	 5.506864e-01	 5.685439e+00
1	 1.527217e+00	 5.685963e-01	 5.634662e+00
1	 1.520441e+00	 5.864737e-01	 5.570134e+00
1	 1.513439e+00	 6.043146e-01	 5.490296e+00
1	 1.506209e+00	 6.221149e-01	 5.393590e+00
1	 1.471977e+00	 6.079759e-01	 7.218246e+00
1	 1.464690e+00	 6.253278e-01	 7.003238e+00
1	 1.457181e+00	 6.426319e-01	 6.677196e+00
1	 1.449450e+00	 6.598839e-01	 6.239584e+00
1	 1.441497e+00	 6.770797e-01	 5.690078e+00
1	 1.433323e+00	 6.942153e-01	 5.028578e+00
1	 1.478823e+00	 6.108037e-01	 6.835212e+00
1	 1.471502e+00	 6.282363e-01	 6.638458e+00
1	 1.463958e+00	 6.456208e-01	 6.333188e+00
1	 1.456191e+00	 6.629531e-01	 5.918518e+00
1	 1.448202e+00	 6.802289e-01	 5.393924e+00
1	 1.439990e+00	 6.974442e-01	 4.759246e+00
1	 1.485670e+00	 6.136315e-01	 6.459602e+00
1	 1.478315e+00	 6.311448e-01	 6.278104e+00
1	 1.470736e+00	 6.486098e-01	 5.991705e+00
1	 1.462933e+00	 6.660223e-01	 5.599251e+00
1	 1.454906e+00	 6.833781e-01	 5.100051e+00
1	 1.446657e+00	 7.006731e-01	 4.493894e+00
1	 1.492516e+00	 6.164593e-01	 6.093058e+00
1	 1.485127e+00	 6.340533e-01	 5.924179e+00
1	 1.477513e+00	 6.515988e-01	 5.654827e+00
1	 1.469675e+00	 6.690915e-01	 5.283647e+00
1	 1.461611e+00	 6.865274e-01	 4.809823e+00
1	 1.453323e+00	 7.039021e-01	 4.233094e+00
1	 1.499363e+00	 6.192871e-01	 5.737193e+00
1	 1.491940e+00	 6.369618e-01	 5.578649e+00
1	 1.484291e+00	 6.545878e-01	 5.324593e+00
1	 1.476416e+00	 6.721608e-01	 4.973538e+00
1	 1.468316e+00	 6.896766e-01	 4.524580e+00
1	 1.459990e+00	 7.071310e-01	 3.977410e+00
1	 1.506209e+00	 6.221149e-01	 5.393590e+00
1	 1.498752e+00	 6.398703e-01	 5.243446e+00
1	 1.491069e+00	 6.575768e-01	 5.003006e+00
1	 1.483158e+00	 6.752300e-01	 4.670722e+00
1	 1.475020e+00	 6.928258e-01	 4.245636e+00
1	 1.466657e+00	 7.103599e-01	 3.727393e+00
1	 1.433323e+00	 6.942153e-01	 5.028578e+00
1	 1.424929e+00	 7.112865e-01	 4.255681e+00
1	 1.416314e+00	 7.282891e-01	 3.373934e+00
1	 1.407480e+00	 7.452191e-01	 2.386657e+00
1	 1.398427e+00	 7.620721e-01	 1.297604e+00
1	 1.389155e+00	 7.788442e-01	 1.109625e-01
1	 1.439990e+00	 6.974442e-01	 4.759246e+00
1	 1.431557e+00	 7.145948e-01	 4.015474e+00
1	 1.422902e+00	 7.316765e-01	 3.165564e+00
1	 1.414026e+00	 7.486852e-01	 2.212860e+00
1	 1.404931e+00	 7.656166e-01	 1.161079e+00
1	 1.395617e+00	 7.824667e-01	 1.430205e-02
1	 1.446657e+00	 7.006731e-01	 4.493894e+00
1	 1.438184e+00	 7.179031e-01	 3.781389e+00
1	 1.429489e+00	 7.350639e-01	 2.965066e+00
1	 1.420573e+00	 7.521513e-01	 2.048203e+00
1	 1.411435e+00	 7.691612e-01	 1.034419e+00
1	 1.402078e+00	 7.860892e-01	-7.233517e-02
1	 1.453323e+00	 7.039021e-01	 4.233094e+00
1	 1.444812e+00	 7.212114e-01	 3.553197e+00
1	 1.436077e+00	 7.384513e-01	 2.771680e+00
1	 1.427119e+00	 7.556175e-01	 1.891666e+00
1	 1.417940e+00	 7.727057e-01	 9.166169e-01
1	 1.408539e+00	 7.897117e-01	-1.496708e-01
1	 1.459990e+00	 7.071310e-01	 3.977410e+00
1	 1.451439e+00	 7.245198e-01	 3.330674e+00
1	 1.442664e+00	 7.418387e-01	 2.584660e+00
1	 1.433666e+00	 7.590836e-01	 1.742246e+00
1	 1.424444e+00	 7.762502e-01	 8.066826e-01
1	 1.415000e+00	 7.933343e-01	-2.184131e-01
1	 1.466657e+00	 7.103599e-01	 3.727393e+00
1	 1.458067e+00	 7.278281e-01	 3.113598e+00
1	 1.449252e+00	 7.452261e-01	 2.403272e+00
1	 1.440212e+00	 7.625497e-01	 1.598961e+00
1	 1.430948e+00	 7.797947e-01	 7.036449e-01
1	 1.421461e+00	 7.969568e-01	-2.792578e-01
1	 1.389155e+00	 7.788442e-01	 1.109625e-01
1	 1.379667e+00	 7.955310e-01	-1.124101e+00
1	 1.369963e+00	 8.121287e-01	-2.362586e+00
1	 1.360044e+00	 8.286329e-01	-3.606511e+00
1	 1.349911e+00	 8.450397e-01	-4.858261e+00
1	 1.339566e+00	 8.613448e-01	-6.120591e+00
1	 1.395617e+00	 7.824667e-01	 1.430205e-02
1	 1.386084e+00	 7.992312e-01	-1.181055e+00
1	 1.376335e+00	 8.159060e-01	-2.382528e+00
1	 1.366369e+00	 8.324870e-01	-3.591942e+00
1	 1.356189e+00	 8.489701e-01	-4.811473e+00
1	 1.345796e+00	 8.653511e-01	-6.043634e+00
1	 1.402078e+00	 7.860892e-01	-7.233517e-02
1	 1.392501e+00	 8.029313e-01	-1.228118e+00
1	 1.382707e+00	 8.196834e-01	-2.392663e+00
1	 1.372695e+00	 8.363411e-01	-3.567535e+00
1	 1.362468e+00	 8.529005e-01	-4.754633e+00
1	 1.352027e+00	 8.693573e-01	-5.956193e+00
1	 1.408539e+00	 7.897117e-01	-1.496708e-01
1	 1.398918e+00	 8.066315e-01	-1.265647e+00
1	 1.389079e+00	 8.234607e-01	-2.393106e+00
1	 1.379021e+00	 8.401952e-01	-3.533277e+00
1	 1.368747e+00	 8.568309e-01	-4.687729e+00
1	 1.358257e+00	 8.733636e-01	-5.858372e+00
1	 1.415000e+00	 7.933343e-01	-2.184131e-01
1	 1.405335e+00	 8.103316e-01	-1.293992e+00
1	 1.395451e+00	 8.272380e-01	-2.383967e+00
1	 1.385347e+00	 8.440493e-01	-3.489157e+00
1	 1.375025e+00	 8.607613e-01	-4.610746e+00
1	 1.364488e+00	 8.773699e-01	-5.750273e+00
1	 1.421461e+00	 7.969568e-01	-2.792578e-01
1	 1.411752e+00	 8.140318e-01	-1.313498e+00
1	 1.401822e+00	 8.310154e-01	-2.365354e+00
1	 1.391673e+00	 8.479034e-01	-3.435166e+00
1	 1.381304e+00	 8.646917e-01	-4.523669e+00
1	 1.370718e+00	 8.813761e-01	-5.631996e+00
1	 1.339566e+00	 8.613448e-01	-6.120591e+00
1	 1.329010e+00	 8.775444e-01	-7.365452e+00
1	 1.318245e+00	 8.936343e-01	-8.563088e+00
1	 1.307272e+00	 9.096106e-01	-9.714155e+00
1	 1.296093e+00	 9.254692e-01	-1.081956e+01
1	 1.284711e+00	 9.412063e-01	-1.188047e+01
1	 1.345796e+00	 8.653511e-01	-6.043634e+00
1	 1.335191e+00	 8.816260e-01	-7.259832e+00
1	 1.324376e+00	 8.977908e-01	-8.430112e+00
1	 1.313352e+00	 9.138413e-01	-9.555428e+00
1	 1.302122e+00	 9.297737e-01	-1.063702e+01
1	 1.290686e+00	 9.455840e-01	-1.167643e+01
1	 1.352027e+00	 8.693573e-01	-5.956193e+00
1	 1.341373e+00	 8.857076e-01	-7.143224e+00
1	 1.330507e+00	 9.019472e-01	-8.285779e+00
1	 1.319433e+00	 9.180721e-01	-9.385141e+00
1	 1.308150e+00	 9.340782e-01	-1.044291e+01
1	 1.296662e+00	 9.499617e-01	-1.146100e+01
1	 1.358257e+00	 8.733636e-01	-5.858372e+00
1	 1.347554e+00	 8.897892e-01	-7.015880e+00
1	 1.336639e+00	 9.061036e-01	-8.130417e+00
1	 1.325513e+00	 9.223028e-01	-9.203631e+00
1	 1.314178e+00	 9.383827e-01	-1.023750e+01
1	 1.302637e+00	 9.543394e-01	-1.123434e+01
1	 1.364488e+00	 8.773699e-01	-5.750273e+00
1	 1.353736e+00	 8.938708e-01	-6.878045e+00
1	 1.342770e+00	 9.102601e-01	-7.964349e+00
1	 1.331593e+00	 9.265336e-01	-9.011228e+00
1	 1.320207e+00	 9.426873e-01	-1.002107e+01
1	 1.308612e+00	 9.587171e-01	-1.099659e+01
1	 1.370718e+00	 8.813761e-01	-5.631996e+00
1	 1.359917e+00	 8.979524e-01	-6.729960e+00
1	 1.348901e+00	 9.144165e-01	-7.787891e+00
1	 1.337674e+00	 9.307643e-01	-8.808259e+00
1	 1.326235e+00	 9.469918e-01	-9.793872e+00
1	 1.314588e+00	 9.630948e-01	-1.074788e+01
1	 1.284711e+00	 9.412063e-01	-1.188047e+01
1	 1.273126e+00	 9.568180e-01	-1.287107e+01
1	 1.261342e+00	 9.723003e-01	-1.376657e+01
1	 1.249360e+00	 9.876496e-01	-1.456996e+01
1	 1.237182e+00	 1.002862e+00	-1.528432e+01
1	 1.224811e+00	 1.017934e+00	-1.591285e+01
1	 1.290686e+00	 9.455840e-01	-1.167643e+01
1	 1.279048e+00	 9.612683e-01	-1.264715e+01
1	 1.267209e+00	 9.768227e-01	-1.352289e+01
1	 1.255171e+00	 9.922433e-01	-1.430574e+01
1	 1.242936e+00	 1.007526e+00	-1.499780e+01
1	 1.230508e+00	 1.022668e+00	-1.560127e+01
1	 1.296662e+00	 9.499617e-01	-1.146100e+01
1	 1.284969e+00	 9.657186e-01	-1.241191e+01
1	 1.273075e+00	 9.813450e-01	-1.326748e+01
1	 1.260982e+00	 9.968370e-01	-1.402895e+01
1	 1.248691e+00	 1.012191e+00	-1.469750e+01
1	 1.236205e+00	 1.027403e+00	-1.527432e+01
1	 1.302637e+00	 9.543394e-01	-1.123434e+01
1	 1.290891e+00	 9.701689e-01	-1.216535e+01
1	 1.278942e+00	 9.858673e-01	-1.300030e+01
1	 1.266793e+00	 1.001431e+00	-1.373956e+01
1	 1.254445e+00	 1.016855e+00	-1.438344e+01
1	 1.241901e+00	 1.032138e+00	-1.493217e+01
1	 1.308612e+00	 9.587171e-01	-1.099659e+01
1	 1.296812e+00	 9.746192e-01	-1.190750e+01
1	 1.284809e+00	 9.903896e-01	-1.272131e+01
1	 1.272604e+00	 1.006024e+00	-1.343754e+01
1	 1.260199e+00	 1.021520e+00	-1.405566e+01
1	 1.247598e+00	 1.036872e+00	-1.457501e+01
1	 1.314588e+00	 9.630948e-01	-1.074788e+01
1	 1.302734e+00	 9.790695e-01	-1.163838e+01
1	 1.290675e+00	 9.949120e-01	-1.243045e+01
1	 1.278414e+00	 1.010618e+00	-1.312285e+01
1	 1.265954e+00	 1.026184e+00	-1.371420e+01
1	 1.253295e+00	 1.041607e+00	-1.420300e+01
1	 1.224811e+00	 1.017934e+00	-1.591285e+01
1	 1.212249e+00	 1.032861e+00	-1.644187e+01
1	 1.199499e+00	 1.047641e+00	-1.685941e+01
1	 1.186564e+00	 1.062270e+00	-1.717151e+01
1	 1.173446e+00	 1.076743e+00	-1.738460e+01
1	 1.160147e+00	 1.091059e+00	-1.750542e+01
1	 1.230508e+00	 1.022668e+00	-1.560127e+01
1	 1.217888e+00	 1.037665e+00	-1.610305e+01
1	 1.205079e+00	 1.052514e+00	-1.649333e+01
1	 1.192083e+00	 1.067210e+00	-1.677947e+01
1	 1.178904e+00	 1.081751e+00	-1.696932e+01
1	 1.165544e+00	 1.096133e+00	-1.707117e+01
1	 1.236205e+00	 1.027403e+00	-1.527432e+01
1	 1.223526e+00	 1.042469e+00	-1.574757e+01
1	 1.210658e+00	 1.057387e+00	-1.611014e+01
1	 1.197602e+00	 1.072151e+00	-1.637067e+01
1	 1.184362e+00	 1.086759e+00	-1.653836e+01
1	 1.170940e+00	 1.101208e+00	-1.662295e+01
1	 1.241901e+00	 1.032138e+00	-1.493217e+01
1	 1.229164e+00	 1.047273e+00	-1.537575e+01
1	 1.216237e+00	 1.062259e+00	-1.571026e+01
1	 1.203121e+00	 1.077092e+00	-1.594556e+01
1	 1.189819e+00	 1.091768e+00	-1.609213e+01
1	 1.176336e+00	 1.106283e+00	-1.616110e+01
1	 1.247598e+00	 1.036872e+00	-1.457501e+01
1	 1.234803e+00	 1.052077e+00	-1.498790e+01
1	 1.221816e+00	 1.067132e+00	-1.529409e+01
1	 1.208640e+00	 1.082033e+00	-1.550456e+01
1	 1.195277e+00	 1.096776e+00	-1.563104e+01
1	 1.181732e+00	 1.111357e+00	-1.568594e+01
1	 1.253295e+00	 1.041607e+00	-1.420300e+01
1	 1.240441e+00	 1.056881e+00	-1.458434e+01
1	 1.227395e+00	 1.072005e+00	-1.486202e+01
1	 1.214159e+00	 1.086974e+00	-1.504811e+01
1	 1.200735e+00	 1.101784e+00	-1.515548e+01
1	 1.187128e+00	 1.116432e+00	-1.519780e+01
1	 1.160147e+00	 1.091059e+00	-1.750542e+01
1	 1.146672e+00	 1.105212e+00	-1.761922e+01
1	 1.133022e+00	 1.119201e+00	-1.780330e+01
1	 1.119201e+00	 1.133022e+00	-1.805257e+01
1	 1.105212e+00	 1.146672e+00	-1.836178e+01
1	 1.091059e+00	 1.160147e+00	-1.872550e+01
1	 1.165544e+00	 1.096133e+00	-1.707117e+01
1	 1.152005e+00	 1.110353e+00	-1.716981e+01
1	 1.138292e+00	 1.124407e+00	-1.734124e+01
1	 1.124407e+00	 1.138292e+00	-1.758068e+01
1	 1.110353e+00	 1.152005e+00	-1.788319e+01
1	 1.096133e+00	 1.165544e+00	-1.824363e+01
1	 1.170940e+00	 1.101208e+00	-1.662295e+01
1	 1.157339e+00	 1.115493e+00	-1.670834e+01
1	 1.143562e+00	 1.129613e+00	-1.686878e+01
1	 1.129613e+00	 1.143562e+00	-1.709975e+01
1	 1.115493e+00	 1.157339e+00	-1.739652e+01
1	 1.101208e+00	 1.170940e+00	-1.775417e+01
1	 1.176336e+00	 1.106283e+00	-1.616110e+01
1	 1.162672e+00	 1.120634e+00	-1.623504e+01
1	 1.148832e+00	 1.134818e+00	-1.638601e+01
1	 1.134818e+00	 1.148832e+00	-1.660968e+01
1	 1.120634e+00	 1.162672e+00	-1.690148e+01
1	 1.106283e+00	 1.176336e+00	-1.725664e+01
1	 1.181732e+00	 1.111357e+00	-1.568594e+01
1	 1.168005e+00	 1.125775e+00	-1.575010e+01
1	 1.154102e+00	 1.140024e+00	-1.589299e+01
1	 1.140024e+00	 1.154102e+00	-1.611039e+01
1	 1.125775e+00	 1.168005e+00	-1.639782e+01
1	 1.111357e+00	 1.181732e+00	-1.675059e+01
1	 1.187128e+00	 1.116432e+00	-1.519780e+01
1	 1.173339e+00	 1.130915e+00	-1.525372e+01
1	 1.159372e+00	 1.145229e+00	-1.538978e+01
1	 1.145229e+00	 1.159372e+00	-1.560178e+01
1	 1.130915e+00	 1.173339e+00	-1.588526e+01
1	 1.116432e+00	 1.187128e+00	-1.623554e+01
1	 1.091059e+00	 1.160147e+00	-1.872550e+01
1	 1.076743e+00	 1.173446e+00	-1.920536e+01
1	 1.062270e+00	 1.186564e+00	-1.985836e+01
1	 1.047641e+00	 1.199499e+00	-2.067146e+01
1	 1.032861e+00	 1.212249e+00	-2.163113e+01
1	 1.017934e+00	 1.224811e+00	-2.272332e+01
1	 1.096133e+00	 1.165544e+00	-1.824363e+01
1	 1.081751e+00	 1.178904e+00	-1.872215e+01
1	 1.067210e+00	 1.192083e+00	-1.937311e+01
1	 1.052514e+00	 1.205079e+00	-2.018202e+01
1	 1.037665e+00	 1.217888e+00	-2.113378e+01
1	 1.022668e+00	 1.230508e+00	-2.221271e+01
1	 1.101208e+00	 1.170940e+00	-1.775417e+01
1	 1.086759e+00	 1.184362e+00	-1.823108e+01
1	 1.072151e+00	 1.197602e+00	-1.887891e+01
1	 1.057387e+00	 1.210658e+00	-1.968202e+01
1	 1.042469e+00	 1.223526e+00	-2.062404e+01
1	 1.027403e+00	 1.236205e+00	-2.168800e+01
1	 1.106283e+00	 1.176336e+00	-1.725664e+01
1	 1.091768e+00	 1.189819e+00	-1.773152e+01
1	 1.077092e+00	 1.203121e+00	-1.837511e+01
1	 1.062259e+00	 1.216237e+00	-1.917088e+01
1	 1.047273e+00	 1.229164e+00	-2.010155e+01
1	 1.032138e+00	 1.241901e+00	-2.114916e+01
1	 1.111357e+00	 1.181732e+00	-1.675059e+01
1	 1.096776e+00	 1.195277e+00	-1.722287e+01
1	 1.082033e+00	 1.208640e+00	-1.786107e+01
1	 1.067132e+00	 1.221816e+00	-1.864808e+01
1	 1.052077e+00	 1.234803e+00	-1.956599e+01
1	 1.036872e+00	 1.247598e+00	-2.059617e+01
1	 1.116432e+00	 1.187128e+00	-1.623554e+01
1	 1.101784e+00	 1.200735e+00	-1.670453e+01
1	 1.086974e+00	 1.214159e+00	-1.733618e+01
1	 1.072005e+00	 1.227395e+00	-1.811308e+01
1	 1.056881e+00	 1.240441e+00	-1.901701e+01
1	 1.041607e+00	 1.253295e+00	-2.002900e+01
1	 1.017934e+00	 1.224811e+00	-2.272332e+01
1	 1.002862e+00	 1.237182e+00	-2.391971e+01
1	 9.876496e-01	 1.249360e+00	-2.520143e+01
1	 9.723003e-01	 1.261342e+00	-2.656833e+01
1	 9.568180e-01	 1.273126e+00	-2.802037e+01
1	 9.412063e-01	 1.284711e+00	-2.955761e+01
1	 1.022668e+00	 1.230508e+00	-2.221271e+01
1	 1.007526e+00	 1.242936e+00	-2.339172e+01
1	 9.922433e-01	 1.255171e+00	-2.465471e+01
1	 9.768227e-01	 1.267209e+00	-2.600211e+01
1	 9.612683e-01	 1.279048e+00	-2.743457e+01
1	 9.455840e-01	 1.290686e+00	-2.895283e+01
1	 1.027403e+00	 1.236205e+00	-2.168800e+01
1	 1.012191e+00	 1.248691e+00	-2.284867e+01
1	 9.968370e-01	 1.260982e+00	-2.409279e+01
1	 9.813450e-01	 1.273075e+00	-2.542098e+01
1	 9.657186e-01	 1.284969e+00	-2.683408e+01
1	 9.499617e-01	 1.296662e+00	-2.833306e+01
1	 1.032138e+00	 1.241901e+00	-2.114916e+01
1	 1.016855e+00	 1.254445e+00	-2.229081e+01
1	 1.001431e+00	 1.266793e+00	-2.351605e+01
1	 9.858673e-01	 1.278942e+00	-2.482528e+01
1	 9.701689e-01	 1.290891e+00	-2.621906e+01
1	 9.543394e-01	 1.302637e+00	-2.769812e+01
1	 1.036872e+00	 1.247598e+00	-2.059617e+01
1	 1.021520e+00	 1.260199e+00	-2.171839e+01
1	 1.006024e+00	 1.272604e+00	-2.292488e+01
1	 9.903896e-01	 1.284809e+00	-2.421534e+01
1	 9.746192e-01	 1.296812e+00	-2.558965e+01
1	 9.587171e-01	 1.308612e+00	-2.704784e+01
1	 1.041607e+00	 1.253295e+00	-2.002900e+01
1	 1.026184e+00	 1.265954e+00	-2.113166e+01
1	 1.010618e+00	 1.278414e+00	-2.231963e+01
1	 9.949120e-01	 1.290675e+00	-2.359150e+01
1	 9.790695e-01	 1.302734e+00	-2.494601e+01
1	 9.630948e-01	 1.314588e+00	-2.638203e+01
1	 9.412063e-01	 1.284711e+00	-2.955761e+01
1	 9.254692e-01	 1.296093e+00	-3.114483e+01
1	 9.096106e-01	 1.307272e+00	-3.273846e+01
1	 8.936343e-01	 1.318245e+00	-3.432592e+01
1	 8.775444e-01	 1.329010e+00	-3.589432e+01
1	 8.613448e-01	 1.339566e+00	-3.743051e+01
1	 9.455840e-01	 1.290686e+00	-2.895283e+01
1	 9.297737e-01	 1.302122e+00	-3.051993e+01
1	 9.138413e-01	 1.313352e+00	-3.208979e+01
1	 8.977908e-01	 1.324376e+00	-3.364937e+01
1	 8.816260e-01	 1.335191e+00	-3.518532e+01
1	 8.653511e-01	 1.345796e+00	-3.668397e+01
1	 9.499617e-01	 1.296662e+00	-2.833306e+01
1	 9.340782e-01	 1.308150e+00	-2.987871e+01
1	 9.180721e-01	 1.319433e+00	-3.142264e+01
1	 9.019472e-01	 1.330507e+00	-3.295193e+01
1	 8.857076e-01	 1.341373e+00	-3.445331e+01
1	 8.693573e-01	 1.352027e+00	-3.591324e+01
1	 9.543394e-01	 1.302637e+00	-2.769812e+01
1	 9.383827e-01	 1.314178e+00	-2.922070e+01
1	 9.223028e-01	 1.325513e+00	-3.073643e+01
1	 9.061036e-01	 1.336639e+00	-3.223307e+01
1	 8.897892e-01	 1.347554e+00	-3.369803e+01
1	 8.733636e-01	 1.358257e+00	-3.511848e+01
1	 9.587171e-01	 1.308612e+00	-2.704784e+01
1	 9.426873e-01	 1.320207e+00	-2.854541e+01
1	 9.265336e-01	 1.331593e+00	-3.003058e+01
1	 9.102601e-01	 1.342770e+00	-3.149229e+01
1	 8.938708e-01	 1.353736e+00	-3.291924e+01
1	 8.773699e-01	 1.364488e+00	-3.429986e+01
1	 9.630948e-01	 1.314588e+00	-2.638203e+01
1	 9.469918e-01	 1.326235e+00	-2.785238e+01
1	 9.307643e-01	 1.337674e+00	-2.930450e+01
1	 9.144165e-01	 1.348901e+00	-3.072910e+01
1	 8.979524e-01	 1.359917e+00	-3.211668e+01
1	 8.813761e-01	 1.370718e+00	-3.345755e+01
1	 8.613448e-01	 1.339566e+00	-3.743051e+01
1	 8.450397e-01	 1.349911e+00	-3.890297e+01
1	 8.286329e-01	 1.360044e+00	-4.028538e+01
1	 8.121287e-01	 1.369963e+00	-4.157218e+01
1	 7.955310e-01	 1.379667e+00	-4.275784e+01
1	 7.788442e-01	 1.389155e+00	-4.383681e+01
1	 8.653511e-01	 1.345796e+00	-3.668397e+01
1	 8.489701e-01	 1.356189e+00	-3.811436e+01
1	 8.324870e-01	 1.366369e+00	-3.945128e+01
1	 8.159060e-01	 1.376335e+00	-4.068950e+01
1	 7.992312e-01	 1.386084e+00	-4.182384e+01
1	 7.824667e-01	 1.395617e+00	-4.284912e+01
1	 8.693573e-01	 1.352027e+00	-3.591324e+01
1	 8.529005e-01	 1.362468e+00	-3.730177e+01
1	 8.363411e-01	 1.372695e+00	-3.859425e+01
1	 8.196834e-01	 1.382707e+00	-3.978487e+01
1	 8.029313e-01	 1.392501e+00	-4.086784e+01
1	 7.860892e-01	 1.402078e+00	-4.183740e+01
1	 8.733636e-01	 1.358257e+00	-3.511848e+01
1	 8.568309e-01	 1.368747e+00	-3.646572e+01
1	 8.401952e-01	 1.379021e+00	-3.771490e+01
1	 8.234607e-01	 1.389079e+00	-3.885871e+01
1	 8.066315e-01	 1.398918e+00	-3.988983e+01
1	 7.897117e-01	 1.408539e+00	-4.080092e+01
1	 8.773699e-01	 1.364488e+00	-3.429986e+01
1	 8.607613e-01	 1.375025e+00	-3.560674e+01
1	 8.440493e-01	 1.385347e+00	-3.681384e+01
1	 8.272380e-01	 1.395451e+00	-3.791145e+01
1	 8.103316e-01	 1.405335e+00	-3.888978e+01
1	 7.933343e-01	 1.415000e+00	-3.973901e+01
1	 8.813761e-01	 1.370718e+00	-3.345755e+01
1	 8.646917e-01	 1.381304e+00	-3.472534e+01
1	 8.479034e-01	 1.391673e+00	-3.589166e+01
1	 8.310154e-01	 1.401822e+00	-3.694349e+01
1	 8.140318e-01	 1.411752e+00	-3.786769e+01
1	 7.969568e-01	 1.421461e+00	-3.865097e+01
1	 7.788442e-01	 1.389155e+00	-4.383681e+01
1	 7.620721e-01	 1.398427e+00	-4.475269e+01
1	 7.452191e-01	 1.407480e+00	-4.546355e+01
1	 7.282891e-01	 1.416314e+00	-4.598583e+01
1	 7.112865e-01	 1.424929e+00	-4.633637e+01
1	 6.942153e-01	 1.433323e+00	-4.653238e+01
1	 7.824667e-01	 1.395617e+00	-4.284912e+01
1	 7.656166e-01	 1.404931e+00	-4.371065e+01
1	 7.486852e-01	 1.414026e+00	-4.436616e+01
1	 7.316765e-01	 1.422902e+00	-4.482943e+01
1	 7.145948e-01	 1.431557e+00	-4.511460e+01
1	 6.974442e-01	 1.439990e+00	-4.523610e+01
1	 7.860892e-01	 1.402078e+00	-4.183740e+01
1	 7.691612e-01	 1.411435e+00	-4.263967e+01
1	 7.521513e-01	 1.420573e+00	-4.323302e+01
1	 7.350639e-01	 1.429489e+00	-4.363037e+01
1	 7.179031e-01	 1.438184e+00	-4.384493e+01
1	 7.006731e-01	 1.446657e+00	-4.389023e+01
1	 7.897117e-01	 1.408539e+00	-4.080092e+01
1	 7.727057e-01	 1.417940e+00	-4.153846e+01
1	 7.556175e-01	 1.427119e+00	-4.206276e+01
1	 7.384513e-01	 1.436077e+00	-4.238761e+01
1	 7.212114e-01	 1.444812e+00	-4.252708e+01
1	 7.039021e-01	 1.453323e+00	-4.249560e+01
1	 7.933343e-01	 1.415000e+00	-3.973901e+01
1	 7.762502e-01	 1.424444e+00	-4.040579e+01
1	 7.590836e-01	 1.433666e+00	-4.085405e+01
1	 7.418387e-01	 1.442664e+00	-4.110012e+01
1	 7.245198e-01	 1.451439e+00	-4.116075e+01
1	 7.071310e-01	 1.459990e+00	-4.105301e+01
1	 7.969568e-01	 1.421461e+00	-3.865097e+01
1	 7.797947e-01	 1.430948e+00	-3.924043e+01
1	 7.625497e-01	 1.440212e+00	-3.960555e+01
1	 7.452261e-01	 1.449252e+00	-3.976692e+01
1	 7.278281e-01	 1.458067e+00	-3.974565e+01
1	 7.103599e-01	 1.466657e+00	-3.956326e+01
1	 6.942153e-01	 1.433323e+00	-4.653238e+01
1	 6.770797e-01	 1.441497e+00	-4.655980e+01
1	 6.598839e-01	 1.449450e+00	-4.640388e+01
1	 6.426319e-01	 1.457181e+00	-4.608111e+01
1	 6.253278e-01	 1.464690e+00	-4.560814e+01
1	 6.079759e-01	 1.471977e+00	-4.500175e+01
1	 6.974442e-01	 1.439990e+00	-4.523610e+01
1	 6.802289e-01	 1.448202e+00	-4.517879e+01
1	 6.629531e-01	 1.456191e+00	-4.493355e+01
1	 6.456208e-01	 1.463958e+00	-4.452424e+01
1	 6.282363e-01	 1.471502e+00	-4.397504e+01
1	 6.108037e-01	 1.478823e+00	-4.331033e+01
1	 7.006731e-01	 1.446657e+00	-4.389023e+01
1	 6.833781e-01	 1.454906e+00	-4.375226e+01
1	 6.660223e-01	 1.462933e+00	-4.342735e+01
1	 6.486098e-01	 1.470736e+00	-4.294498e+01
1	 6.311448e-01	 1.478315e+00	-4.233502e+01
1	 6.136315e-01	 1.485670e+00	-4.162763e+01
1	 7.039021e-01	 1.453323e+00	-4.249560e+01
1	 6.865274e-01	 1.461611e+00	-4.228210e+01
1	 6.690915e-01	 1.469675e+00	-4.188779e+01
1	 6.515988e-01	 1.477513e+00	-4.134602e+01
1	 6.340533e-01	 1.485127e+00	-4.069056e+01
1	 6.164593e-01	 1.492516e+00	-3.995553e+01
1	 7.071310e-01	 1.459990e+00	-4.105301e+01
1	 6.896766e-01	 1.468316e+00	-4.077017e+01
1	 6.721608e-01	 1.476416e+00	-4.031734e+01
1	 6.545878e-01	 1.484291e+00	-3.973001e+01
1	 6.369618e-01	 1.491940e+00	-3.904410e+01
1	 6.192871e-01	 1.499363e+00	-3.829589e+01
1	 7.103599e-01	 1.466657e+00	-3.956326e+01
1	 6.928258e-01	 1.475020e+00	-3.921830e+01
1	 6.752300e-01	 1.483158e+00	-3.871842e+01
1	 6.575768e-01	 1.491069e+00	-3.809956e+01
1	 6.398703e-01	 1.498752e+00	-3.739804e+01
1	 6.221149e-01	 1.506209e+00	-3.665055e+01
1	 6.079759e-01	 1.471977e+00	-4.500175e+01
1	 5.905802e-01	 1.479042e+00	-4.431780e+01
1	 5.731448e-01	 1.485886e+00	-4.361686e+01
1	 5.556736e-01	 1.492507e+00	-4.292297e+01
1	 5.381708e-01	 1.498907e+00	-4.226022e+01
1	 5.206404e-01	 1.505086e+00	-4.165277e+01
1	 6.108037e-01	 1.478823e+00	-4.331033e+01
1	 5.933271e-01	 1.485922e+00	-4.259219e+01
1	 5.758105e-01	 1.492797e+00	-4.187976e+01
1	 5.582581e-01	 1.499449e+00	-4.119323e+01
1	 5.406740e-01	 1.505879e+00	-4.055283e+01
1	 5.230620e-01	 1.512087e+00	-3.997873e+01
1	 6.136315e-01	 1.485670e+00	-4.162763e+01
1	 5.960740e-01	 1.492801e+00	-4.088851e+01
1	 5.784763e-01	 1.499708e+00	-4.017410e+01
1	 5.608427e-01	 1.506391e+00	-3.950087e+01
1	 5.431771e-01	 1.512851e+00	-3.888523e+01
1	 5.254836e-01	 1.519087e+00	-3.834354e+01
1	 6.164593e-01	 1.492516e+00	-3.995553e+01
1	 5.988209e-01	 1.499680e+00	-3.920793e+01
1	 5.811421e-01	 1.506619e+00	-3.850047e+01
1	 5.634272e-01	 1.513333e+00	-3.784597e+01
1	 5.456802e-01	 1.519822e+00	-3.725717e+01
1	 5.279051e-01	 1.526087e+00	-3.674668e+01
1	 6.192871e-01	 1.499363e+00	-3.829589e+01
1	 6.015677e-01	 1.506559e+00	-3.755162e+01
1	 5.838079e-01	 1.513530e+00	-3.685944e+01
1	 5.660117e-01	 1.520275e+00	-3.622863e+01
1	 5.481833e-01	 1.526794e+00	-3.566836e+01
1	 5.303267e-01	 1.533088e+00	-3.518763e+01
1	 6.221149e-01	 1.506209e+00	-3.665055e+01
1	 6.043146e-01	 1.513439e+00	-3.592072e+01
1	 5.864737e-01	 1.520441e+00	-3.525158e+01
1	 5.685963e-01	 1.527217e+00	-3.464897e+01
1	 5.506864e-01	 1.533766e+00	-3.411856e+01
1	 5.327483e-01	 1.540088e+00	-3.366588e+01
1	 5.206404e-01	 1.505086e+00	-4.165277e+01
1	 5.030863e-01	 1.511044e+00	-4.111754e+01
1	 4.855124e-01	 1.516782e+00	-4.067072e+01
1	 4.679227e-01	 1.522301e+00	-4.033537e+01
1	 4.503210e-01	 1.527600e+00	-4.013431e+01
1	 4.327112e-01	 1.532681e+00	-4.009015e+01
1	 5.230620e-01	 1.512087e+00	-3.997873e+01
1	 5.054262e-01	 1.518073e+00	-3.948407e+01
1	 4.877706e-01	 1.523837e+00	-3.908321e+01
1	 4.700991e-01	 1.529381e+00	-3.879804e+01
1	 4.524156e-01	 1.534705e+00	-3.865025e+01
1	 4.347238e-01	 1.539810e+00	-3.866130e+01
1	 5.254836e-01	 1.519087e+00	-3.834354e+01
1	 5.077662e-01	 1.525101e+00	-3.788575e+01
1	 4.900288e-01	 1.530892e+00	-3.752547e+01
1	 4.722755e-01	 1.536462e+00	-3.728429e+01
1	 4.545101e-01	 1.541810e+00	-3.718360e+01
1	 4.367364e-01	 1.546939e+00	-3.724461e+01
1	 5.279051e-01	 1.526087e+00	-3.674668e+01
1	 5.101061e-01	 1.532129e+00	-3.632191e+01
1	 4.922870e-01	 1.537947e+00	-3.599677e+01
1	 4.744519e-01	 1.543542e+00	-3.579340e+01
1	 4.566046e-01	 1.548915e+00	-3.573379e+01
1	 4.387491e-01	 1.554068e+00	-3.583968e+01
1	 5.303267e-01	 1.533088e+00	-3.518763e+01
1	 5.124460e-01	 1.539157e+00	-3.479187e+01
1	 4.945452e-01	 1.545002e+00	-3.449638e+01
1	 4.766283e-01	 1.550623e+00	-3.432470e+01
1	 4.586991e-01	 1.556021e+00	-3.430022e+01
1	 4.407617e-01	 1.561196e+00	-3.444610e+01
1	 5.327483e-01	 1.540088e+00	-3.366588e+01
1	 5.147860e-01	 1.546185e+00	-3.329498e+01
1	 4.968034e-01	 1.552056e+00	-3.302360e+01
1	 4.788046e-01	 1.557703e+00	-3.287751e+01
1	 4.607936e-01	 1.563126e+00	-3.288233e+01
1	 4.427743e-01	 1.568325e+00	-3.306347e+01
1	 4.327112e-01	 1.532681e+00	-4.009015e+01
1	 4.150970e-01	 1.537545e+00	-4.025043e+01
1	 3.974822e-01	 1.542193e+00	-4.062730e+01
1	 3.798705e-01	 1.546625e+00	-4.118993e+01
1	 3.622655e-01	 1.550843e+00	-4.190747e+01
1	 3.446709e-01	 1.554848e+00	-4.274905e+01
1	 4.347238e-01	 1.539810e+00	-3.866130e+01
1	 4.170277e-01	 1.544697e+00	-3.887627e+01
1	 3.993310e-01	 1.549366e+00	-3.930741e+01
1	 3.816374e-01	 1.553819e+00	-3.992664e+01
1	 3.639505e-01	 1.558056e+00	-4.070578e+01
1	 3.462740e-01	 1.562080e+00	-4.161665e+01
1	 4.367364e-01	 1.546939e+00	-3.724461e+01
1	 4.189584e-01	 1.551848e+00	-3.751065e+01
1	 4.011798e-01	 1.556539e+00	-3.799378e+01
1	 3.834042e-01	 1.561012e+00	-3.866801e+01
1	 3.656355e-01	 1.565270e+00	-3.950726e+01
1	 3.478771e-01	 1.569312e+00	-4.048538e+01
1	 4.387491e-01	 1.554068e+00	-3.583968e+01
1	 4.208891e-01	 1.558999e+00	-3.615331e+01
1	 4.030285e-01	 1.563712e+00	-3.668623e+01
1	 3.851710e-01	 1.568206e+00	-3.741390e+01
1	 3.673204e-01	 1.572483e+00	-3.831170e+01
1	 3.494803e-01	 1.576544e+00	-3.935492e+01
1	 4.407617e-01	 1.561196e+00	-3.444610e+01
1	 4.228198e-01	 1.566151e+00	-3.480401e+01
1	 4.048773e-01	 1.570885e+00	-3.538459e+01
1	 3.869379e-01	 1.575400e+00	-3.616415e+01
1	 3.690054e-01	 1.579696e+00	-3.711889e+01
1	 3.510834e-01	 1.583776e+00	-3.822496e+01
1	 4.427743e-01	 1.568325e+00	-3.306347e+01
1	 4.247505e-01	 1.573302e+00	-3.346251e+01
1	 4.067260e-01	 1.578058e+00	-3.408869e+01
1	 3.887047e-01	 1.582593e+00	-3.491859e+01
1	 3.706903e-01	 1.586909e+00	-3.592864e+01
1	 3.526865e-01	 1.591008e+00	-3.709521e+01
1	 3.446709e-01	 1.554848e+00	-4.274905e+01
1	 3.270901e-01	 1.558641e+00	-4.373027e+01
1	 3.095267e-01	 1.562224e+00	-4.486804e+01
1	 2.919842e-01	 1.565598e+00	-4.613361e+01
1	 2.744659e-01	 1.568764e+00	-4.749834e+01
1	 2.569751e-01	 1.571724e+00	-4.893378e+01
1	 3.462740e-01	 1.562080e+00	-4.161665e+01
1	 3.286115e-01	 1.565891e+00	-4.267680e+01
1	 3.109664e-01	 1.569490e+00	-4.390138e+01
1	 2.933423e-01	 1.572880e+00	-4.525878e+01
1	 2.757424e-01	 1.576060e+00	-4.671751e+01
1	 2.581703e-01	 1.579034e+00	-4.824630e+01
1	 3.478771e-01	 1.569312e+00	-4.048538e+01
1	 3.301328e-01	 1.573140e+00	-4.162124e+01
1	 3.124061e-01	 1.576756e+00	-4.292835e+01
1	 2.947003e-01	 1.580161e+00	-4.437267e+01
1	 2.770190e-01	 1.583357e+00	-4.592031e+01
1	 2.593655e-01	 1.586344e+00	-4.753763e+01
1	 3.494803e-01	 1.576544e+00	-3.935492e+01
1	 3.316542e-01	 1.580390e+00	-4.056318e+01
1	 3.138457e-01	 1.584023e+00	-4.194849e+01
1	 2.960584e-01	 1.587443e+00	-4.347483e+01
1	 2.782956e-01	 1.590653e+00	-4.510634e+01
1	 2.605608e-01	 1.593655e+00	-4.680741e+01
1	 3.510834e-01	 1.583776e+00	-3.822496e+01
1	 3.331755e-01	 1.587639e+00	-3.950222e+01
1	 3.152854e-01	 1.591289e+00	-4.096136e+01
1	 2.974165e-01	 1.594725e+00	-4.256481e+01
1	 2.795722e-01	 1.597950e+00	-4.427517e+01
1	 2.617560e-01	 1.600965e+00	-4.605531e+01
1	 3.526865e-01	 1.591008e+00	-3.709521e+01
1	 3.346969e-01	 1.594889e+00	-3.843797e+01
1	 3.167250e-01	 1.598555e+00	-3.996653e+01
1	 2.987745e-01	 1.602007e+00	-4.164217e+01
1	 2.808488e-01	 1.605247e+00	-4.342640e+01
1	 2.629512e-01	 1.608275e+00	-4.528097e+01
1	 2.569751e-01	 1.571724e+00	-4.893378e+01
1	 2.395151e-01	 1.574479e+00	-5.040119e+01
1	 2.220892e-01	 1.577031e+00	-5.186398e+01
1	 2.047005e-01	 1.579382e+00	-5.329729e+01
1	 1.873521e-01	 1.581534e+00	-5.467660e+01
1	 1.700470e-01	 1.583488e+00	-5.597774e+01
1	 2.581703e-01	 1.579034e+00	-4.824630e+01
1	 2.406291e-01	 1.581802e+00	-4.980426e+01
1	 2.231222e-01	 1.584366e+00	-5.135443e+01
1	 2.056526e-01	 1.586728e+00	-5.287189e+01
1	 1.882235e-01	 1.588890e+00	-5.433201e+01
1	 1.708379e-01	 1.590853e+00	-5.571057e+01
1	 2.593655e-01	 1.586344e+00	-4.753763e+01
1	 2.417432e-01	 1.589125e+00	-4.918194e+01
1	 2.241551e-01	 1.591701e+00	-5.081594e+01
1	 2.066047e-01	 1.594074e+00	-5.241443e+01
1	 1.890949e-01	 1.596246e+00	-5.395255e+01
1	 1.716288e-01	 1.598218e+00	-5.540581e+01
1	 2.605608e-01	 1.593655e+00	-4.680741e+01
1	 2.428572e-01	 1.596448e+00	-4.853397e+01
1	 2.251881e-01	 1.599036e+00	-5.024827e+01
1	 2.075568e-01	 1.601420e+00	-5.192472e+01
1	 1.899663e-01	 1.603602e+00	-5.353802e+01
1	 1.724197e-01	 1.605583e+00	-5.506329e+01
1	 2.617560e-01	 1.600965e+00	-4.605531e+01
1	 2.439712e-01	 1.603771e+00	-4.786005e+01
1	 2.262211e-01	 1.606371e+00	-4.965121e+01
1	 2.085089e-01	 1.608766e+00	-5.140257e+01
1	 1.908377e-01	 1.610958e+00	-5.308827e+01
1	 1.732106e-01	 1.612949e+00	-5.468284e+01
1	 2.629512e-01	 1.608275e+00	-4.528097e+01
1	 2.450852e-01	 1.611095e+00	-4.715993e+01
1	 2.272541e-01	 1.613706e+00	-4.902453e+01
1	 2.094610e-01	 1.616112e+00	-5.084779e+01
1	 1.917091e-01	 1.618314e+00	-5.260311e+01
1	 1.740015e-01	 1.620314e+00	-5.426428e+01
1	 1.700470e-01	 1.583488e+00	-5.597774e+01
1	 1.527882e-01	 1.585247e+00	-5.717513e+01
1	 1.355785e-01	 1.586811e+00	-5.824004e+01
1	 1.184210e-01	 1.588184e+00	-5.914420e+01
1	 1.013182e-01	 1.589366e+00	-5.985982e+01
1	 8.427301e-02	 1.590361e+00	-6.035967e+01
1	 1.708379e-01	 1.590853e+00	-5.571057e+01
1	 1.534988e-01	 1.592620e+00	-5.698143e+01
1	 1.362091e-01	 1.594192e+00	-5.811456e+01
1	 1.189718e-01	 1.595571e+00	-5.908046e+01
1	 1.017895e-01	 1.596759e+00	-5.985018e+01
1	 8.466498e-02	 1.597758e+00	-6.039533e+01
1	 1.716288e-01	 1.598218e+00	-5.540581e+01
1	 1.542094e-01	 1.599993e+00	-5.674744e+01
1	 1.368397e-01	 1.601572e+00	-5.794618e+01
1	 1.195226e-01	 1.602958e+00	-5.897149e+01
1	 1.022607e-01	 1.604151e+00	-5.979340e+01
1	 8.505695e-02	 1.605155e+00	-6.038252e+01
1	 1.724197e-01	 1.605583e+00	-5.506329e+01
1	 1.549201e-01	 1.607366e+00	-5.647298e+01
1	 1.374703e-01	 1.608953e+00	-5.773473e+01
1	 1.200734e-01	 1.610344e+00	-5.881713e+01
1	 1.027320e-01	 1.611544e+00	-5.968932e+01
1	 8.544891e-02	 1.612552e+00	-6.032108e+01
1	 1.732106e-01	 1.612949e+00	-5.468284e+01
1	 1.556307e-01	 1.614740e+00	-5.615788e+01
1	 1.381009e-01	 1.616333e+00	-5.748006e+01
1	 1.206242e-01	 1.617731e+00	-5.861722e+01
1	 1.032032e-01	 1.618936e+00	-5.953780e+01
1	 8.584088e-02	 1.619949e+00	-6.021088e+01
1	 1.740015e-01	 1.620314e+00	-5.426428e+01
1	 1.563414e-01	 1.622113e+00	-5.580197e+01
1	 1.387315e-01	 1.623714e+00	-5.718199e+01
1	 1.211750e-01	 1.625118e+00	-5.837160e+01
1	 1.036745e-01	 1.626328e+00	-5.933869e+01
1	 8.623285e-02	 1.627346e+00	-6.005178e+01
1	 8.427301e-02	 1.590361e+00	-6.035967e+01
1	 6.728796e-02	 1.591170e+00	-6.061819e+01
1	 5.036566e-02	 1.591796e+00	-6.061532e+01
1	 3.350861e-02	 1.592240e+00	-6.033283e+01
1	 1.671927e-02	 1.592505e+00	-5.975300e+01
1	 0.000000e+00	 1.592593e+00	-5.885866e+01
1	 8.466498e-02	 1.597758e+00	-6.039533e+01
1	 6.760093e-02	 1.598571e+00	-6.068946e+01
1	 5.059991e-02	 1.599200e+00	-6.071200e+01
1	 3.366446e-02	 1.599646e+00	-6.044427e+01
1	 1.679703e-02	 1.599912e+00	-5.986810e+01
1	 0.000000e+00	 1.600000e+00	-5.896588e+01
1	 8.505695e-02	 1.605155e+00	-6.038252e+01
1	 6.791389e-02	 1.605972e+00	-6.071158e+01
1	 5.083417e-02	 1.606603e+00	-6.075948e+01
1	 3.382032e-02	 1.607052e+00	-6.050692e+01
1	 1.687479e-02	 1.607319e+00	-5.993519e+01
1	 0.000000e+00	 1.607407e+00	-5.902612e+01
1	 8.544891e-02	 1.612552e+00	-6.032108e+01
1	 6.822686e-02	 1.613373e+00	-6.068442e+01
1	 5.106843e-02	 1.614007e+00	-6.075760e+01
1	 3.397617e-02	 1.614457e+00	-6.052062e+01
1	 1.695256e-02	 1.614726e+00	-5.995408e+01
1	 0.000000e+00	 1.614815e+00	-5.903917e+01
1	 8.584088e-02	 1.619949e+00	-6.021088e+01
1	 6.853983e-02	 1.620774e+00	-6.060785e+01
1	 5.130269e-02	 1.621411e+00	-6.070623e+01
1	 3.413203e-02	 1.621863e+00	-6.048521e+01
1	 1.703032e-02	 1.622133e+00	-5.992460e+01
1	 0.000000e+00	 1.622222e+00	-5.900483e+01
1	 8.623285e-02	 1.627346e+00	-6.005178e+01
1	 6.885280e-02	 1.628174e+00	-6.048173e+01
1	 5.153695e-02	 1.628814e+00	-6.060523e+01
1	 3.428788e-02	 1.629269e+00	-6.040055e+01
1	 1.710809e-02	 1.629540e+00	-5.984658e+01
1	 0.000000e+00	 1.629630e+00	-5.892289e+01
1	 1.629630e+00	 0.000000e+00	 1.526469e+01
1	 1.629540e+00	 1.710809e-02	 1.500498e+01
1	 1.629269e+00	 3.428788e-02	 1.469867e+01
1	 1.628814e+00	 5.153695e-02	 1.435000e+01
1	 1.628174e+00	 6.885280e-02	 1.396328e+01
1	 1.627346e+00	 8.623285e-02	 1.354290e+01
1	 1.637037e+00	 0.000000e+00	 1.507451e+01
1	 1.636947e+00	 1.718585e-02	 1.482337e+01
1	 1.636675e+00	 3.444373e-02	 1.452350e+01
1	 1.636218e+00	 5.177121e-02	 1.417936e+01
1	 1.635575e+00	 6.916576e-02	 1.379543e+01
1	 1.634744e+00	 8.662482e-02	 1.337632e+01
1	 1.644444e+00	 0.000000e+00	 1.487843e+01
1	 1.644354e+00	 1.726361e-02	 1.463592e+01
1	 1.644080e+00	 3.459959e-02	 1.434273e+01
1	 1.643622e+00	 5.200547e-02	 1.400345e+01
1	 1.642976e+00	 6.947873e-02	 1.362273e+01
1	 1.642141e+00	 8.701678e-02	 1.320534e+01
1	 1.651852e+00	 0.000000e+00	 1.467644e+01
1	 1.651761e+00	 1.734138e-02	 1.444263e+01
1	 1.651486e+00	 3.475544e-02	 1.415630e+01
1	 1.651026e+00	 5.223973e-02	 1.382218e+01
1	 1.650377e+00	 6.979170e-02	 1.344507e+01
1	 1.649538e+00	 8.740875e-02	 1.302985e+01
1	 1.659259e+00	 0.000000e+00	 1.446855e+01
1	 1.659168e+00	 1.741914e-02	 1.424344e+01
1	 1.658892e+00	 3.491130e-02	 1.396414e+01
1	 1.658429e+00	 5.247399e-02	 1.363548e+01
1	 1.657778e+00	 7.010467e-02	 1.326237e+01
1	 1.656935e+00	 8.780072e-02	 1.284978e+01
1	 1.666667e+00	 0.000000e+00	 1.425476e+01
1	 1.666575e+00	 1.749691e-02	 1.403833e+01
1	 1.666298e+00	 3.506715e-02	 1.376620e+01
1	 1.665833e+00	 5.270824e-02	 1.344327e+01
1	 1.665178e+00	 7.041763e-02	 1.307452e+01
1	 1.664332e+00	 8.819269e-02	 1.266502e+01
1	 1.627346e+00	 8.623285e-02	 1.354290e+01
1	 1.626328e+00	 1.036745e-01	 1.309176e+01
1	 1.625118e+00	 1.211750e-01	 1.261371e+01
1	 1.623714e+00	 1.387315e-01	 1.211464e+01
1	 1.622113e+00	 1.563414e-01	 1.160050e+01
1	 1.620314e+00	 1.740015e-01	 1.107723e+01
1	 1.634744e+00	 8.662482e-02	 1.337632e+01
1	 1.633721e+00	 1.041457e-01	 1.292489e+01
1	 1.632505e+00	 1.217258e-01	 1.244491e+01
1	 1.631094e+00	 1.393621e-01	 1.194239e+01
1	 1.629486e+00	 1.570520e-01	 1.142339e+01
1	 1.627679e+00	 1.747925e-01	 1.089398e+01
1	 1.642141e+00	 8.701678e-02	 1.320534e+01
1	 1.641113e+00	 1.046170e-01	 1.275412e+01
1	 1.639892e+00	 1.222765e-01	 1.227280e+01
1	 1.638475e+00	 1.399927e-01	 1.176750e+01
1	 1.636859e+00	 1.577627e-01	 1.124439e+01
1	 1.635044e+00	 1.755834e-01	 1.070967e+01
1	 1.649538e+00	 8.740875e-02	 1.302985e+01
1	 1.648506e+00	 1.050882e-01	 1.257936e+01
1	 1.647279e+00	 1.228273e-01	 1.209727e+01
1	 1.645855e+00	 1.406233e-01	 1.158983e+01
1	 1.644233e+00	 1.584733e-01	 1.106334e+01
1	 1.642409e+00	 1.763743e-01	 1.052411e+01
1	 1.656935e+00	 8.780072e-02	 1.284978e+01
1	 1.655898e+00	 1.055595e-01	 1.240051e+01
1	 1.654666e+00	 1.233781e-01	 1.191822e+01
1	 1.653236e+00	 1.412539e-01	 1.140927e+01
1	 1.651606e+00	 1.591839e-01	 1.088009e+01
1	 1.649774e+00	 1.771652e-01	 1.033711e+01
1	 1.664332e+00	 8.819269e-02	 1.266502e+01
1	 1.663290e+00	 1.060307e-01	 1.221748e+01
1	 1.662053e+00	 1.239289e-01	 1.173554e+01
1	 1.660616e+00	 1.418845e-01	 1.122569e+01
1	 1.658979e+00	 1.598946e-01	 1.069448e+01
1	 1.657139e+00	 1.779561e-01	 1.014848e+01
1	 1.620314e+00	 1.740015e-01	 1.107723e+01
1	 1.618314e+00	 1.917091e-01	 1.055173e+01
1	 1.616112e+00	 2.094610e-01	 1.002991e+01
1	 1.613706e+00	 2.272541e-01	 9.516292e+00
1	 1.611095e+00	 2.450852e-01	 9.015370e+00
1	 1.608275e+00	 2.629512e-01	 8.531627e+00
1	 1.627679e+00	 1.747925e-01	 1.089398e+01
1	 1.625670e+00	 1.925805e-01	 1.036128e+01
1	 1.623458e+00	 2.104131e-01	 9.831479e+00
1	 1.621041e+00	 2.282870e-01	 9.309223e+00
1	 1.618418e+00	 2.461993e-01	 8.799152e+00
1	 1.615586e+00	 2.641465e-01	 8.305880e+00
1	 1.635044e+00	 1.755834e-01	 1.070967e+01
1	 1.633026e+00	 1.934519e-01	 1.017067e+01
1	 1.630804e+00	 2.113652e-01	 9.633783e+00
1	 1.628376e+00	 2.293200e-01	 9.103769e+00
1	 1.625741e+00	 2.473133e-01	 8.585378e+00
1	 1.622896e+00	 2.653417e-01	 8.083336e+00
1	 1.642409e+00	 1.763743e-01	 1.052411e+01
1	 1.640382e+00	 1.943233e-01	 9.979675e+00
1	 1.638150e+00	 2.123172e-01	 9.436581e+00
1	 1.635711e+00	 2.303530e-01	 8.899685e+00
1	 1.633064e+00	 2.484273e-01	 8.373824e+00
1	 1.630206e+00	 2.665369e-01	 7.863811e+00
1	 1.649774e+00	 1.771652e-01	 1.033711e+01
1	 1.647738e+00	 1.951947e-01	 9.788062e+00
1	 1.645496e+00	 2.132693e-01	 9.239629e+00
1	 1.643047e+00	 2.313860e-01	 8.696731e+00
1	 1.640387e+00	 2.495413e-01	 8.164271e+00
1	 1.637517e+00	 2.677322e-01	 7.647126e+00
1	 1.657139e+00	 1.779561e-01	 1.014848e+01
1	 1.655094e+00	 1.960661e-01	 9.595613e+00
1	 1.652842e+00	 2.142214e-01	 9.042690e+00
1	 1.650382e+00	 2.324189e-01	 8.494672e+00
1	 1.647710e+00	 2.506554e-01	 7.956503e+00
1	 1.644827e+00	 2.689274e-01	 7.433103e+00
1	 1.608275e+00	 2.629512e-01	 8.531627e+00
1	 1.605247e+00	 2.808488e-01	 8.074827e+00
1	 1.602007e+00	 2.987745e-01	 7.655662e+00
1	 1.598555e+00	 3.167250e-01	 7.279910e+00
1	 1.594889e+00	 3.346969e-01	 6.953235e+00
1	 1.591008e+00	 3.526865e-01	 6.681170e+00
1	 1.615586e+00	 2.641465e-01	 8.305880e+00
1	 1.612543e+00	 2.821254e-01	 7.839016e+00
1	 1.609289e+00	 3.001326e-01	 7.409168e+00
1	 1.605821e+00	 3.181647e-01	 7.022361e+00
1	 1.602138e+00	 3.362182e-01	 6.684517e+00
1	 1.598239e+00	 3.542896e-01	 6.401436e+00
1	 1.622896e+00	 2.653417e-01	 8.083336e+00
1	 1.619840e+00	 2.834020e-01	 7.607139e+00
1	 1.616571e+00	 3.014907e-01	 7.167388e+00
1	 1.613087e+00	 3.196044e-01	 6.770379e+00
1	 1.609388e+00	 3.377396e-01	 6.422308e+00
1	 1.605471e+00	 3.558927e-01	 6.129262e+00
1	 1.630206e+00	 2.665369e-01	 7.863811e+00
1	 1.627136e+00	 2.846785e-01	 7.379046e+00
1	 1.623853e+00	 3.028487e-01	 6.930171e+00
1	 1.620353e+00	 3.210440e-01	 6.523773e+00
1	 1.616637e+00	 3.392609e-01	 6.166345e+00
1	 1.612703e+00	 3.574959e-01	 5.864274e+00
1	 1.637517e+00	 2.677322e-01	 7.647126e+00
1	 1.634433e+00	 2.859551e-01	 7.154591e+00
1	 1.631134e+00	 3.042068e-01	 6.697368e+00
1	 1.627620e+00	 3.224837e-01	 6.282358e+00
1	 1.623887e+00	 3.407823e-01	 5.916371e+00
1	 1.619935e+00	 3.590990e-01	 5.606108e+00
1	 1.644827e+00	 2.689274e-01	 7.433103e+00
1	 1.641729e+00	 2.872317e-01	 6.933627e+00
1	 1.638416e+00	 3.055649e-01	 6.468830e+00
1	 1.634886e+00	 3.239233e-01	 6.045950e+00
1	 1.631136e+00	 3.423036e-01	 5.672131e+00
1	 1.627167e+00	 3.607021e-01	 5.354403e+00
1	 1.591008e+00	 3.526865e-01	 6.681170e+00
1	 1.586909e+00	 3.706903e-01	 6.453403e+00
1	 1.582593e+00	 3.887047e-01	 6.258035e+00
1	 1.578058e+00	 4.067260e-01	 6.098054e+00
1	 1.573302e+00	 4.247505e-01	 5.976345e+00
1	 1.568325e+00	 4.427743e-01	 5.895690e+00
1	 1.598239e+00	 3.542896e-01	 6.401436e+00
1	 1.594123e+00	 3.723753e-01	 6.163295e+00
1	 1.589787e+00	 3.904716e-01	 5.958420e+00
1	 1.585231e+00	 4.085748e-01	 5.789659e+00
1	 1.580454e+00	 4.266811e-01	 5.659743e+00
1	 1.575454e+00	 4.447869e-01	 5.571272e+00
1	 1.605471e+00	 3.558927e-01	 6.129262e+00
1	 1.601336e+00	 3.740602e-01	 5.881817e+00
1	 1.596980e+00	 3.922384e-01	 5.668377e+00
1	 1.592404e+00	 4.104235e-01	 5.491586e+00
1	 1.587605e+00	 4.286118e-01	 5.353954e+00
1	 1.582583e+00	 4.467995e-01	 5.257849e+00
1	 1.612703e+00	 3.574959e-01	 5.864274e+00
1	 1.608549e+00	 3.757452e-01	 5.608504e+00
1	 1.604174e+00	 3.940052e-01	 5.387427e+00
1	 1.599577e+00	 4.122723e-01	 5.203411e+00
1	 1.594756e+00	 4.305425e-01	 5.058687e+00
1	 1.589711e+00	 4.488121e-01	 4.955338e+00
1	 1.619935e+00	 3.590990e-01	 5.606108e+00
1	 1.615762e+00	 3.774301e-01	 5.342902e+00
1	 1.611368e+00	 3.957721e-01	 5.115097e+00
1	 1.606750e+00	 4.141210e-01	 4.924718e+00
1	 1.601908e+00	 4.324732e-01	 4.773657e+00
1	 1.596840e+00	 4.508247e-01	 4.663663e+00
1	 1.627167e+00	 3.607021e-01	 5.354403e+00
1	 1.622976e+00	 3.791151e-01	 5.084564e+00
1	 1.618561e+00	 3.975389e-01	 4.850923e+00
1	 1.613923e+00	 4.159698e-01	 4.655099e+00
1	 1.609059e+00	 4.344039e-01	 4.498585e+00
1	 1.603969e+00	 4.528373e-01	 4.382744e+00
1	 1.568325e+00	 4.427743e-01	 5.895690e+00
1	 1.563126e+00	 4.607936e-01	 5.845201e+00
1	 1.557703e+00	 4.788046e-01	 5.808445e+00
1	 1.552056e+00	 4.968034e-01	 5.779777e+00
1	 1.546185e+00	 5.147860e-01	 5.753531e+00
1	 1.540088e+00	 5.327483e-01	 5.724030e+00
1	 1.575454e+00	 4.447869e-01	 5.571272e+00
1	 1.570231e+00	 4.628881e-01	 5.514021e+00
1	 1.564784e+00	 4.809810e-01	 5.472253e+00
1	 1.559111e+00	 4.990616e-01	 5.440208e+00
1	 1.553213e+00	 5.171259e-01	 5.412141e+00
1	 1.547089e+00	 5.351699e-01	 5.382329e+00
1	 1.582583e+00	 4.467995e-01	 5.257849e+00
1	 1.577336e+00	 4.649827e-01	 5.193858e+00
1	 1.571864e+00	 4.831574e-01	 5.147195e+00
1	 1.566166e+00	 5.013198e-01	 5.112075e+00
1	 1.560241e+00	 5.194658e-01	 5.082749e+00
1	 1.554089e+00	 5.375915e-01	 5.053509e+00
1	 1.589711e+00	 4.488121e-01	 4.955338e+00
1	 1.584441e+00	 4.670772e-01	 4.884818e+00
1	 1.578944e+00	 4.853338e-01	 4.833437e+00
1	 1.573221e+00	 5.035780e-01	 4.795475e+00
1	 1.567269e+00	 5.218058e-01	 4.765251e+00
1	 1.561090e+00	 5.400131e-01	 4.737136e+00
1	 1.596840e+00	 4.508247e-01	 4.663663e+00
1	 1.591546e+00	 4.691717e-01	 4.587005e+00
1	 1.586025e+00	 4.875102e-01	 4.531140e+00
1	 1.580276e+00	 5.058362e-01	 4.490500e+00
1	 1.574297e+00	 5.241457e-01	 4.459547e+00
1	 1.568090e+00	 5.424346e-01	 4.432784e+00
1	 1.603969e+00	 4.528373e-01	 4.382744e+00
1	 1.598651e+00	 4.712662e-01	 4.300519e+00
1	 1.593105e+00	 4.896866e-01	 4.240463e+00
1	 1.587330e+00	 5.080944e-01	 4.197242e+00
1	 1.581326e+00	 5.264856e-01	 4.165534e+00
1	 1.575090e+00	 5.448562e-01	 4.140033e+00
1	 1.540088e+00	 5.327483e-01	 5.724030e+00
1	 1.533766e+00	 5.506864e-01	 5.685439e+00
1	 1.527217e+00	 5.685963e-01	 5.634662e+00
1	 1.520441e+00	 5.864737e-01	 5.570134e+00
1	 1.513439e+00	 6.043146e-01	 5.490296e+00
1	 1.506209e+00	 6.221149e-01	 5.393590e+00
1	 1.547089e+00	 5.351699e-01	 5.382329e+00
1	 1.540737e+00	 5.531896e-01	 5.344517e+00
1	 1.534159e+00	 5.711808e-01	 5.295270e+00
1	 1.527352e+00	 5.891395e-01	 5.233088e+00
1	 1.520318e+00	 6.070615e-01	 5.156421e+00
1	 1.513055e+00	 6.249427e-01	 5.063672e+00
1	 1.554089e+00	 5.375915e-01	 5.053509e+00
1	 1.547709e+00	 5.556927e-01	 5.017420e+00
1	 1.541101e+00	 5.737653e-01	 4.970352e+00
1	 1.534263e+00	 5.918053e-01	 4.910796e+00
1	 1.527197e+00	 6.098084e-01	 4.837166e+00
1	 1.519902e+00	 6.277705e-01	 4.747797e+00
1	 1.561090e+00	 5.400131e-01	 4.737136e+00
1	 1.554681e+00	 5.581958e-01	 4.703409e+00
1	 1.548042e+00	 5.763498e-01	 4.659056e+00
1	 1.541174e+00	 5.944711e-01	 4.602486e+00
1	 1.534076e+00	 6.125553e-01	 4.532028e+00
1	 1.526748e+00	 6.305983e-01	 4.445921e+00
1	 1.568090e+00	 5.424346e-01	 4.432784e+00
1	 1.561652e+00	 5.606989e-01	 4.401762e+00
1	 1.554984e+00	 5.789344e-01	 4.360547e+00
1	 1.548086e+00	 5.971369e-01	 4.307399e+00
1	 1.540956e+00	 6.153022e-01	 4.240511e+00
1	 1.533595e+00	 6.334261e-01	 4.158004e+00
1	 1.575090e+00	 5.448562e-01	 4.140033e+00
1	 1.568624e+00	 5.632020e-01	 4.111769e+00
1	 1.561926e+00	 5.815189e-01	 4.074007e+00
1	 1.554997e+00	 5.998026e-01	 4.024790e+00
1	 1.547835e+00	 6.180491e-01	 3.962129e+00
1	 1.540441e+00	 6.362539e-01	 3.884005e+00
1	 1.506209e+00	 6.221149e-01	 5.393590e+00
1	 1.498752e+00	 6.398703e-01	 5.243446e+00
1	 1.491069e+00	 6.575768e-01	 5.003006e+00
1	 1.483158e+00	 6.752300e-01	 4.670722e+00
1	 1.475020e+00	 6.928258e-01	 4.245636e+00
1	 1.466657e+00	 7.103599e-01	 3.727393e+00
1	 1.513055e+00	 6.249427e-01	 5.063672e+00
1	 1.505565e+00	 6.427789e-01	 4.920435e+00
1	 1.497846e+00	 6.605658e-01	 4.692069e+00
1	 1.489899e+00	 6.782992e-01	 4.377020e+00
1	 1.481725e+00	 6.959750e-01	 3.974305e+00
1	 1.473323e+00	 7.135888e-01	 3.483526e+00
1	 1.519902e+00	 6.277705e-01	 4.747797e+00
1	 1.512377e+00	 6.456874e-01	 4.610521e+00
1	 1.504624e+00	 6.635548e-01	 4.393036e+00
1	 1.496641e+00	 6.813685e-01	 4.093815e+00
1	 1.488430e+00	 6.991242e-01	 3.711876e+00
1	 1.479990e+00	 7.168177e-01	 3.246788e+00
1	 1.526748e+00	 6.305983e-01	 4.445921e+00
1	 1.519190e+00	 6.485959e-01	 4.314163e+00
1	 1.511401e+00	 6.665437e-01	 4.106746e+00
1	 1.503383e+00	 6.844377e-01	 3.822213e+00
1	 1.495134e+00	 7.022734e-01	 3.459600e+00
1	 1.486656e+00	 7.200466e-01	 3.018454e+00
1	 1.533595e+00	 6.334261e-01	 4.158004e+00
1	 1.526002e+00	 6.515044e-01	 4.031810e+00
1	 1.518179e+00	 6.695327e-01	 3.834025e+00
1	 1.510124e+00	 6.875069e-01	 3.563295e+00
1	 1.501839e+00	 7.054226e-01	 3.218703e+00
1	 1.493323e+00	 7.232755e-01	 2.799777e+00
1	 1.540441e+00	 6.362539e-01	 3.884005e+00
1	 1.532815e+00	 6.544129e-01	 3.763903e+00
1	 1.524956e+00	 6.725217e-01	 3.575681e+00
1	 1.516866e+00	 6.905761e-01	 3.318126e+00
1	 1.508544e+00	 7.085718e-01	 2.990388e+00
1	 1.499990e+00	 7.265044e-01	 2.591985e+00
1	 1.466657e+00	 7.103599e-01	 3.727393e+00
1	 1.458067e+00	 7.278281e-01	 3.113598e+00
1	 1.449252e+00	 7.452261e-01	 2.403272e+00
1	 1.440212e+00	 7.625497e-01	 1.598961e+00
1	 1.430948e+00	 7.797947e-01	 7.036449e-01
1	 1.421461e+00	 7.969568e-01	-2.792578e-01
1	 1.473323e+00	 7.135888e-01	 3.483526e+00
1	 1.464694e+00	 7.311364e-01	 2.901545e+00
1	 1.455839e+00	 7.486135e-01	 2.226390e+00
1	 1.446758e+00	 7.660159e-01	 1.460235e+00
1	 1.437453e+00	 7.833392e-01	 6.057648e-01
1	 1.427923e+00	 8.005793e-01	-3.338217e-01
1	 1.479990e+00	 7.168177e-01	 3.246788e+00
1	 1.471322e+00	 7.344447e-01	 2.695043e+00
1	 1.462427e+00	 7.520009e-01	 2.054065e+00
1	 1.453305e+00	 7.694820e-01	 1.325667e+00
1	 1.443957e+00	 7.868838e-01	 5.122360e-01
1	 1.434384e+00	 8.042019e-01	-3.832624e-01
1	 1.486656e+00	 7.200466e-01	 3.018454e+00
1	 1.477950e+00	 7.377530e-01	 2.495289e+00
1	 1.469014e+00	 7.553883e-01	 1.887331e+00
1	 1.459851e+00	 7.729481e-01	 1.196037e+00
1	 1.450461e+00	 7.904283e-01	 4.234936e-01
1	 1.440845e+00	 8.078244e-01	-4.275767e-01
1	 1.493323e+00	 7.232755e-01	 2.799777e+00
1	 1.484577e+00	 7.410613e-01	 2.303461e+00
1	 1.475602e+00	 7.587757e-01	 1.727200e+00
1	 1.466398e+00	 7.764143e-01	 1.072107e+00
1	 1.456966e+00	 7.939728e-01	 3.399654e-01
1	 1.447306e+00	 8.114469e-01	-4.667615e-01
1	 1.499990e+00	 7.265044e-01	 2.591985e+00
1	 1.491205e+00	 7.443696e-01	 2.120713e+00
1	 1.482189e+00	 7.621631e-01	 1.574669e+00
1	 1.472944e+00	 7.798804e-01	 9.546288e-01
1	 1.463470e+00	 7.975173e-01	 2.620710e-01
1	 1.453767e+00	 8.150695e-01	-5.008135e-01
1	 1.421461e+00	 7.969568e-01	-2.792578e-01
1	 1.411752e+00	 8.140318e-01	-1.313498e+00
1	 1.401822e+00	 8.310154e-01	-2.365354e+00
1	 1.391673e+00	 8.479034e-01	-3.435166e+00
1	 1.381304e+00	 8.646917e-01	-4.523669e+00
1	 1.370718e+00	 8.813761e-01	-5.631996e+00
1	 1.427923e+00	 8.005793e-01	-3.338217e-01
1	 1.418170e+00	 8.177319e-01	-1.325533e+00
1	 1.408194e+00	 8.347927e-01	-2.338445e+00
1	 1.397998e+00	 8.517575e-01	-3.372396e+00
1	 1.387583e+00	 8.686222e-01	-4.427650e+00
1	 1.376949e+00	 8.853824e-01	-5.504904e+00
1	 1.434384e+00	 8.042019e-01	-3.832624e-01
1	 1.424587e+00	 8.214321e-01	-1.331506e+00
1	 1.414566e+00	 8.385701e-01	-2.304794e+00
1	 1.404324e+00	 8.556117e-01	-3.302484e+00
1	 1.393861e+00	 8.725526e-01	-4.324373e+00
1	 1.383179e+00	 8.893886e-01	-5.370704e+00
1	 1.440845e+00	 8.078244e-01	-4.275767e-01
1	 1.431004e+00	 8.251322e-01	-1.331822e+00
1	 1.420938e+00	 8.423474e-01	-2.265071e+00
1	 1.410650e+00	 8.594658e-01	-3.226221e+00
1	 1.400140e+00	 8.764830e-01	-4.214608e+00
1	 1.389410e+00	 8.933949e-01	-5.230009e+00
1	 1.447306e+00	 8.114469e-01	-4.667615e-01
1	 1.437421e+00	 8.288323e-01	-1.326876e+00
1	 1.427310e+00	 8.461248e-01	-2.219930e+00
1	 1.416976e+00	 8.633199e-01	-3.144385e+00
1	 1.406419e+00	 8.804134e-01	-4.099115e+00
1	 1.395641e+00	 8.974011e-01	-5.083419e+00
1	 1.453767e+00	 8.150695e-01	-5.008135e-01
1	 1.443838e+00	 8.325325e-01	-1.317056e+00
1	 1.433682e+00	 8.499021e-01	-2.170016e+00
1	 1.423301e+00	 8.671740e-01	-3.057737e+00
1	 1.412697e+00	 8.843438e-01	-3.978640e+00
1	 1.401871e+00	 9.014074e-01	-4.931524e+00
1	 1.370718e+00	 8.813761e-01	-5.631996e+00
1	 1.359917e+00	 8.979524e-01	-6.729960e+00
1	 1.348901e+00	 9.144165e-01	-7.787891e+00
1	 1.337674e+00	 9.307643e-01	-8.808259e+00
1	 1.326235e+00	 9.469918e-01	-9.793872e+00
1	 1.314588e+00	 9.630948e-01	-1.074788e+01
1	 1.376949e+00	 8.853824e-01	-5.504904e+00
1	 1.366098e+00	 9.020340e-01	-6.573279e+00
1	 1.355033e+00	 9.185729e-01	-7.602966e+00
1	 1.343754e+00	 9.349951e-01	-8.596840e+00
1	 1.332263e+00	 9.512963e-01	-9.558119e+00
1	 1.320563e+00	 9.674725e-01	-1.049036e+01
1	 1.383179e+00	 8.893886e-01	-5.370704e+00
1	 1.372280e+00	 9.061156e-01	-6.409766e+00
1	 1.361164e+00	 9.227294e-01	-7.411433e+00
1	 1.349834e+00	 9.392258e-01	-8.378924e+00
1	 1.338292e+00	 9.556008e-01	-9.315801e+00
1	 1.326539e+00	 9.718502e-01	-1.022597e+01
1	 1.389410e+00	 8.933949e-01	-5.230009e+00
1	 1.378461e+00	 9.101972e-01	-6.239818e+00
1	 1.367296e+00	 9.268858e-01	-7.213509e+00
1	 1.355915e+00	 9.434566e-01	-8.154579e+00
1	 1.344320e+00	 9.599053e-01	-9.066875e+00
1	 1.332514e+00	 9.762279e-01	-9.954590e+00
1	 1.395641e+00	 8.974011e-01	-5.083419e+00
1	 1.384643e+00	 9.142788e-01	-6.063823e+00
1	 1.373427e+00	 9.310423e-01	-7.009404e+00
1	 1.361995e+00	 9.476873e-01	-7.923872e+00
1	 1.350348e+00	 9.642098e-01	-8.811298e+00
1	 1.338489e+00	 9.806057e-01	-9.676112e+00
1	 1.401871e+00	 9.014074e-01	-4.931524e+00
1	 1.390824e+00	 9.183604e-01	-5.882166e+00
1	 1.379558e+00	 9.351987e-01	-6.799327e+00
1	 1.368075e+00	 9.519180e-01	-7.686869e+00
1	 1.356377e+00	 9.685143e-01	-8.549029e+00
1	 1.344465e+00	 9.849834e-01	-9.390418e+00
1	 1.314588e+00	 9.630948e-01	-1.074788e+01
1	 1.302734e+00	 9.790695e-01	-1.163838e+01
1	 1.290675e+00	 9.949120e-01	-1.243045e+01
1	 1.278414e+00	 1.010618e+00	-1.312285e+01
1	 1.265954e+00	 1.026184e+00	-1.371420e+01
1	 1.253295e+00	 1.041607e+00	-1.420300e+01
1	 1.320563e+00	 9.674725e-01	-1.049036e+01
1	 1.308655e+00	 9.835199e-01	-1.135994e+01
1	 1.296542e+00	 9.994343e-01	-1.212953e+01
1	 1.284225e+00	 1.015212e+00	-1.279718e+01
1	 1.271708e+00	 1.030849e+00	-1.336082e+01
1	 1.258992e+00	 1.046341e+00	-1.381820e+01
1	 1.326539e+00	 9.718502e-01	-1.022597e+01
1	 1.314577e+00	 9.879702e-01	-1.107403e+01
1	 1.302409e+00	 1.003957e+00	-1.182028e+01
1	 1.290036e+00	 1.019806e+00	-1.246228e+01
1	 1.277462e+00	 1.035513e+00	-1.299740e+01
1	 1.264689e+00	 1.051076e+00	-1.342288e+01
1	 1.332514e+00	 9.762279e-01	-9.954590e+00
1	 1.320498e+00	 9.924205e-01	-1.078049e+01
1	 1.308275e+00	 1.008479e+00	-1.150262e+01
1	 1.295847e+00	 1.024399e+00	-1.211817e+01
1	 1.283217e+00	 1.040178e+00	-1.262419e+01
1	 1.270385e+00	 1.055810e+00	-1.301753e+01
1	 1.338489e+00	 9.806057e-01	-9.676112e+00
1	 1.326420e+00	 9.968708e-01	-1.047921e+01
1	 1.314142e+00	 1.013001e+00	-1.117646e+01
1	 1.301658e+00	 1.028993e+00	-1.176490e+01
1	 1.288971e+00	 1.044842e+00	-1.224139e+01
1	 1.276082e+00	 1.060545e+00	-1.260261e+01
1	 1.344465e+00	 9.849834e-01	-9.390418e+00
1	 1.332341e+00	 1.001321e+00	-1.017004e+01
1	 1.320009e+00	 1.017524e+00	-1.084173e+01
1	 1.307469e+00	 1.033587e+00	-1.140250e+01
1	 1.294725e+00	 1.049507e+00	-1.184922e+01
1	 1.281779e+00	 1.065280e+00	-1.217860e+01
1	 1.253295e+00	 1.041607e+00	-1.420300e+01
1	 1.240441e+00	 1.056881e+00	-1.458434e+01
1	 1.227395e+00	 1.072005e+00	-1.486202e+01
1	 1.214159e+00	 1.086974e+00	-1.504811e+01
1	 1.200735e+00	 1.101784e+00	-1.515548e+01
1	 1.187128e+00	 1.116432e+00	-1.519780e+01
1	 1.258992e+00	 1.046341e+00	-1.381820e+01
1	 1.246080e+00	 1.061685e+00	-1.416763e+01
1	 1.232974e+00	 1.076878e+00	-1.441722e+01
1	 1.219678e+00	 1.091914e+00	-1.457998e+01
1	 1.206193e+00	 1.106792e+00	-1.466979e+01
1	 1.192524e+00	 1.121507e+00	-1.470136e+01
1	 1.264689e+00	 1.051076e+00	-1.342288e+01
1	 1.251718e+00	 1.066489e+00	-1.374062e+01
1	 1.238553e+00	 1.081750e+00	-1.396318e+01
1	 1.225196e+00	 1.096855e+00	-1.410426e+01
1	 1.211651e+00	 1.111800e+00	-1.417851e+01
1	 1.197920e+00	 1.126581e+00	-1.420146e+01
1	 1.270385e+00	 1.055810e+00	-1.301753e+01
1	 1.257356e+00	 1.071293e+00	-1.330403e+01
1	 1.244132e+00	 1.086623e+00	-1.350070e+01
1	 1.230715e+00	 1.101796e+00	-1.362176e+01
1	 1.217109e+00	 1.116808e+00	-1.368236e+01
1	 1.203316e+00	 1.131656e+00	-1.369858e+01
1	 1.276082e+00	 1.060545e+00	-1.260261e+01
1	 1.262995e+00	 1.076097e+00	-1.285855e+01
1	 1.249711e+00	 1.091496e+00	-1.303062e+01
1	 1.236234e+00	 1.106737e+00	-1.313330e+01
1	 1.222567e+00	 1.121816e+00	-1.318203e+01
1	 1.208712e+00	 1.136731e+00	-1.319319e+01
1	 1.281779e+00	 1.065280e+00	-1.217860e+01
1	 1.268633e+00	 1.080901e+00	-1.240487e+01
1	 1.255290e+00	 1.096369e+00	-1.255371e+01
1	 1.241753e+00	 1.111678e+00	-1.263966e+01
1	 1.228025e+00	 1.126824e+00	-1.267820e+01
1	 1.214108e+00	 1.141806e+00	-1.268578e+01
1	 1.187128e+00	 1.116432e+00	-1.519780e+01
1	 1.173339e+00	 1.130915e+00	-1.525372e+01
1	 1.159372e+00	 1.145229e+00	-1.538978e+01
1	 1.145229e+00	 1.159372e+00	-1.560178e+01
1	 1.130915e+00	 1.173339e+00	-1.588526e+01
1	 1.116432e+00	 1.187128e+00	-1.623554e+01
1	 1.192524e+00	 1.121507e+00	-1.470136e+01
1	 1.178672e+00	 1.136056e+00	-1.475077e+01
1	 1.164641e+00	 1.150435e+00	-1.488124e+01
1	 1.150435e+00	 1.164641e+00	-1.508859e+01
1	 1.136056e+00	 1.178672e+00	-1.536840e+01
1	 1.121507e+00	 1.192524e+00	-1.571598e+01
1	 1.197920e+00	 1.126581e+00	-1.420146e+01
1	 1.184005e+00	 1.141196e+00	-1.424612e+01
1	 1.169911e+00	 1.155640e+00	-1.437216e+01
1	 1.155640e+00	 1.169911e+00	-1.457549e+01
1	 1.141196e+00	 1.184005e+00	-1.485175e+01
1	 1.126581e+00	 1.197920e+00	-1.519632e+01
1	 1.203316e+00	 1.131656e+00	-1.369858e+01
1	 1.189339e+00	 1.146337e+00	-1.373999e+01
1	 1.175181e+00	 1.160846e+00	-1.386254e+01
1	 1.160846e+00	 1.175181e+00	-1.406228e+01
1	 1.146337e+00	 1.189339e+00	-1.433498e+01
1	 1.131656e+00	 1.203316e+00	-1.467612e+01
1	 1.208712e+00	 1.136731e+00	-1.319319e+01
1	 1.194672e+00	 1.151477e+00	-1.323262e+01
1	 1.180451e+00	 1.166052e+00	-1.335241e+01
1	 1.166052e+00	 1.180451e+00	-1.354880e+01
1	 1.151477e+00	 1.194672e+00	-1.381774e+01
1	 1.136731e+00	 1.208712e+00	-1.415491e+01
1	 1.214108e+00	 1.141806e+00	-1.268578e+01
1	 1.200006e+00	 1.156618e+00	-1.272423e+01
1	 1.185721e+00	 1.171257e+00	-1.284177e+01
1	 1.171257e+00	 1.185721e+00	-1.303487e+01
1	 1.156618e+00	 1.200006e+00	-1.329973e+01
1	 1.141806e+00	 1.214108e+00	-1.363225e+01
1	 1.116432e+00	 1.187128e+00	-1.623554e+01
1	 1.101784e+00	 1.200735e+00	-1.670453e+01
1	 1.086974e+00	 1.214159e+00	-1.733618e+01
1	 1.072005e+00	 1.227395e+00	-1.811308e+01
1	 1.056881e+00	 1.240441e+00	-1.901701e+01
1	 1.041607e+00	 1.253295e+00	-2.002900e+01
1	 1.121507e+00	 1.192524e+00	-1.571598e+01
1	 1.106792e+00	 1.206193e+00	-1.618097e+01
1	 1.091914e+00	 1.219678e+00	-1.680503e+01
1	 1.076878e+00	 1.232974e+00	-1.757065e+01
1	 1.061685e+00	 1.246080e+00	-1.845948e+01
1	 1.046341e+00	 1.258992e+00	-1.945243e+01
1	 1.126581e+00	 1.197920e+00	-1.519632e+01
1	 1.111800e+00	 1.211651e+00	-1.565667e+01
1	 1.096855e+00	 1.225196e+00	-1.627224e+01
1	 1.081750e+00	 1.238553e+00	-1.702551e+01
1	 1.066489e+00	 1.251718e+00	-1.789814e+01
1	 1.051076e+00	 1.264689e+00	-1.887100e+01
1	 1.131656e+00	 1.203316e+00	-1.467612e+01
1	 1.116808e+00	 1.217109e+00	-1.513109e+01
1	 1.101796e+00	 1.230715e+00	-1.573722e+01
1	 1.086623e+00	 1.244132e+00	-1.647709e+01
1	 1.071293e+00	 1.257356e+00	-1.733247e+01
1	 1.055810e+00	 1.270385e+00	-1.828430e+01
1	 1.136731e+00	 1.208712e+00	-1.415491e+01
1	 1.121816e+00	 1.222567e+00	-1.460368e+01
1	 1.106737e+00	 1.236234e+00	-1.519940e+01
1	 1.091496e+00	 1.249711e+00	-1.592484e+01
1	 1.076097e+00	 1.262995e+00	-1.676195e+01
1	 1.060545e+00	 1.276082e+00	-1.769192e+01
1	 1.141806e+00	 1.214108e+00	-1.363225e+01
1	 1.126824e+00	 1.228025e+00	-1.407392e+01
1	 1.111678e+00	 1.241753e+00	-1.465820e+01
1	 1.096369e+00	 1.255290e+00	-1.536818e+01
1	 1.080901e+00	 1.268633e+00	-1.618611e+01
1	 1.065280e+00	 1.281779e+00	-1.709347e+01
1	 1.041607e+00	 1.253295e+00	-2.002900e+01
1	 1.026184e+00	 1.265954e+00	-2.113166e+01
1	 1.010618e+00	 1.278414e+00	-2.231963e+01
1	 9.949120e-01	 1.290675e+00	-2.359150e+01
1	 9.790695e-01	 1.302734e+00	-2.494601e+01
1	 9.630948e-01	 1.314588e+00	-2.638203e+01
1	 1.046341e+00	 1.258992e+00	-1.945243e+01
1	 1.030849e+00	 1.271708e+00	-2.053501e+01
1	 1.015212e+00	 1.284225e+00	-2.170402e+01
1	 9.994343e-01	 1.296542e+00	-2.295677e+01
1	 9.835199e-01	 1.308655e+00	-2.429070e+01
1	 9.674725e-01	 1.320563e+00	-2.570331e+01
1	 1.051076e+00	 1.264689e+00	-1.887100e+01
1	 1.035513e+00	 1.277462e+00	-1.993247e+01
1	 1.019806e+00	 1.290036e+00	-2.108141e+01
1	 1.003957e+00	 1.302409e+00	-2.231395e+01
1	 9.879702e-01	 1.314577e+00	-2.362625e+01
1	 9.718502e-01	 1.326539e+00	-2.501453e+01
1	 1.055810e+00	 1.270385e+00	-1.828430e+01
1	 1.040178e+00	 1.283217e+00	-1.932374e+01
1	 1.024399e+00	 1.295847e+00	-2.045166e+01
1	 1.008479e+00	 1.308275e+00	-2.166300e+01
1	 9.924205e-01	 1.320498e+00	-2.295277e+01
1	 9.762279e-01	 1.332514e+00	-2.431592e+01
1	 1.060545e+00	 1.276082e+00	-1.769192e+01
1	 1.044842e+00	 1.288971e+00	-1.870857e+01
1	 1.028993e+00	 1.301658e+00	-1.981460e+01
1	 1.013001e+00	 1.314142e+00	-2.100391e+01
1	 9.968708e-01	 1.326420e+00	-2.227035e+01
1	 9.806057e-01	 1.338489e+00	-2.360773e+01
1	 1.065280e+00	 1.281779e+00	-1.709347e+01
1	 1.049507e+00	 1.294725e+00	-1.808666e+01
1	 1.033587e+00	 1.307469e+00	-1.917010e+01
1	 1.017524e+00	 1.320009e+00	-2.033665e+01
1	 1.001321e+00	 1.332341e+00	-2.157911e+01
1	 9.849834e-01	 1.344465e+00	-2.289017e+01
1	 9.630948e-01	 1.314588e+00	-2.638203e+01
1	 9.469918e-01	 1.326235e+00	-2.785238e+01
1	 9.307643e-01	 1.337674e+00	-2.930450e+01
1	 9.144165e-01	 1.348901e+00	-3.072910e+01
1	 8.979524e-01	 1.359917e+00	-3.211668e+01
1	 8.813761e-01	 1.370718e+00	-3.345755e+01
1	 9.674725e-01	 1.320563e+00	-2.570331e+01
1	 9.512963e-01	 1.332263e+00	-2.714501e+01
1	 9.349951e-01	 1.343754e+00	-2.856293e+01
1	 9.185729e-01	 1.355033e+00	-2.994956e+01
1	 9.020340e-01	 1.366098e+00	-3.129725e+01
1	 8.853824e-01	 1.376949e+00	-3.259824e+01
1	 9.718502e-01	 1.326539e+00	-2.501453e+01
1	 9.556008e-01	 1.338292e+00	-2.642719e+01
1	 9.392258e-01	 1.349834e+00	-2.781110e+01
1	 9.227294e-01	 1.361164e+00	-2.916009e+01
1	 9.061156e-01	 1.372280e+00	-3.046789e+01
1	 8.893886e-01	 1.383179e+00	-3.172815e+01
1	 9.762279e-01	 1.332514e+00	-2.431592e+01
1	 9.599053e-01	 1.344320e+00	-2.569923e+01
1	 9.434566e-01	 1.355915e+00	-2.704928e+01
1	 9.268858e-01	 1.367296e+00	-2.836079e+01
1	 9.101972e-01	 1.378461e+00	-2.962840e+01
1	 8.933949e-01	 1.389410e+00	-3.084673e+01
1	 9.806057e-01	 1.338489e+00	-2.360773e+01
1	 9.642098e-01	 1.350348e+00	-2.496142e+01
1	 9.476873e-01	 1.361995e+00	-2.627771e+01
1	 9.310423e-01	 1.373427e+00	-2.755173e+01
1	 9.142788e-01	 1.384643e+00	-2.877860e+01
1	 8.974011e-01	 1.395641e+00	-2.995342e+01
1	 9.849834e-01	 1.344465e+00	-2.289017e+01
1	 9.685143e-01	 1.356377e+00	-2.421405e+01
1	 9.519180e-01	 1.368075e+00	-2.549661e+01
1	 9.351987e-01	 1.379558e+00	-2.673300e+01
1	 9.183604e-01	 1.390824e+00	-2.791832e+01
1	 9.014074e-01	 1.401871e+00	-2.904769e+01
1	 8.813761e-01	 1.370718e+00	-3.345755e+01
1	 8.646917e-01	 1.381304e+00	-3.472534e+01
1	 8.479034e-01	 1.391673e+00	-3.589166e+01
1	 8.310154e-01	 1.401822e+00	-3.694349e+01
1	 8.140318e-01	 1.411752e+00	-3.786769e+01
1	 7.969568e-01	 1.421461e+00	-3.865097e+01
1	 8.853824e-01	 1.376949e+00	-3.259824e+01
1	 8.686222e-01	 1.387583e+00	-3.382653e+01
1	 8.517575e-01	 1.397998e+00	-3.495070e+01
1	 8.347927e-01	 1.408194e+00	-3.595452e+01
1	 8.177319e-01	 1.418170e+00	-3.682152e+01
1	 8.005793e-01	 1.427923e+00	-3.753502e+01
1	 8.893886e-01	 1.383179e+00	-3.172815e+01
1	 8.725526e-01	 1.393861e+00	-3.291442e+01
1	 8.556117e-01	 1.404324e+00	-3.399234e+01
1	 8.385701e-01	 1.414566e+00	-3.494347e+01
1	 8.214321e-01	 1.424587e+00	-3.574904e+01
1	 8.042019e-01	 1.434384e+00	-3.639004e+01
1	 8.933949e-01	 1.389410e+00	-3.084673e+01
1	 8.764830e-01	 1.400140e+00	-3.198814e+01
1	 8.594658e-01	 1.410650e+00	-3.301568e+01
1	 8.423474e-01	 1.420938e+00	-3.390965e+01
1	 8.251322e-01	 1.431004e+00	-3.464998e+01
1	 8.078244e-01	 1.440845e+00	-3.521635e+01
1	 8.974011e-01	 1.395641e+00	-2.995342e+01
1	 8.804134e-01	 1.406419e+00	-3.104688e+01
1	 8.633199e-01	 1.416976e+00	-3.201986e+01
1	 8.461248e-01	 1.427310e+00	-3.285237e+01
1	 8.288323e-01	 1.437421e+00	-3.352406e+01
1	 8.114469e-01	 1.447306e+00	-3.401429e+01
1	 9.014074e-01	 1.401871e+00	-2.904769e+01
1	 8.843438e-01	 1.412697e+00	-3.008982e+01
1	 8.671740e-01	 1.423301e+00	-3.100402e+01
1	 8.499021e-01	 1.433682e+00	-3.177097e+01
1	 8.325325e-01	 1.443838e+00	-3.237101e+01
1	 8.150695e-01	 1.453767e+00	-3.278417e+01
1	 7.969568e-01	 1.421461e+00	-3.865097e+01
1	 7.797947e-01	 1.430948e+00	-3.924043e+01
1	 7.625497e-01	 1.440212e+00	-3.960555e+01
1	 7.452261e-01	 1.449252e+00	-3.976692e+01
1	 7.278281e-01	 1.458067e+00	-3.974565e+01
1	 7.103599e-01	 1.466657e+00	-3.956326e+01
1	 8.005793e-01	 1.427923e+00	-3.753502e+01
1	 7.833392e-01	 1.437453e+00	-3.804370e+01
1	 7.660159e-01	 1.446758e+00	-3.832402e+01
1	 7.486135e-01	 1.455839e+00	-3.840136e+01
1	 7.311364e-01	 1.464694e+00	-3.830171e+01
1	 7.135888e-01	 1.473323e+00	-3.805163e+01
1	 8.042019e-01	 1.434384e+00	-3.639004e+01
1	 7.868838e-01	 1.443957e+00	-3.681836e+01
1	 7.694820e-01	 1.453305e+00	-3.701803e+01
1	 7.520009e-01	 1.462427e+00	-3.701860e+01
1	 7.344447e-01	 1.471322e+00	-3.685032e+01
1	 7.168177e-01	 1.479990e+00	-3.654408e+01
1	 8.078244e-01	 1.440845e+00	-3.521635e+01
1	 7.904283e-01	 1.450461e+00	-3.556537e+01
1	 7.729481e-01	 1.459851e+00	-3.568900e+01
1	 7.553883e-01	 1.469014e+00	-3.562035e+01
1	 7.377530e-01	 1.477950e+00	-3.539329e+01
1	 7.200466e-01	 1.486656e+00	-3.504241e+01
1	 8.114469e-01	 1.447306e+00	-3.401429e+01
1	 7.939728e-01	 1.456966e+00	-3.428567e+01
1	 7.764143e-01	 1.466398e+00	-3.433831e+01
1	 7.587757e-01	 1.475602e+00	-3.420826e+01
1	 7.410613e-01	 1.484577e+00	-3.393241e+01
1	 7.232755e-01	 1.493323e+00	-3.354839e+01
1	 8.150695e-01	 1.453767e+00	-3.278417e+01
1	 7.975173e-01	 1.463470e+00	-3.298019e+01
1	 7.798804e-01	 1.472944e+00	-3.296732e+01
1	 7.621631e-01	 1.482189e+00	-3.278398e+01
1	 7.443696e-01	 1.491205e+00	-3.246943e+01
1	 7.265044e-01	 1.499990e+00	-3.206377e+01
1	 7.103599e-01	 1.466657e+00	-3.956326e+01
1	 6.928258e-01	 1.475020e+00	-3.921830e+01
1	 6.752300e-01	 1.483158e+00	-3.871842e+01
1	 6.575768e-01	 1.491069e+00	-3.809956e+01
1	 6.398703e-01	 1.498752e+00	-3.739804e+01
1	 6.221149e-01	 1.506209e+00	-3.665055e+01
1	 7.135888e-01	 1.473323e+00	-3.805163e+01
1	 6.959750e-01	 1.481725e+00	-3.765454e+01
1	 6.782992e-01	 1.489899e+00	-3.711915e+01
1	 6.605658e-01	 1.497846e+00	-3.648054e+01
1	 6.427789e-01	 1.505565e+00	-3.577419e+01
1	 6.249427e-01	 1.513055e+00	-3.503587e+01
1	 7.168177e-01	 1.479990e+00	-3.654408e+01
1	 6.991242e-01	 1.488430e+00	-3.610688e+01
1	 6.813685e-01	 1.496641e+00	-3.554697e+01
1	 6.635548e-01	 1.504624e+00	-3.489781e+01
1	 6.456874e-01	 1.512377e+00	-3.419314e+01
1	 6.277705e-01	 1.519902e+00	-3.346702e+01
1	 7.200466e-01	 1.486656e+00	-3.504241e+01
1	 7.022734e-01	 1.495134e+00	-3.457695e+01
1	 6.844377e-01	 1.503383e+00	-3.400327e+01
1	 6.665437e-01	 1.511401e+00	-3.335235e+01
1	 6.485959e-01	 1.519190e+00	-3.265543e+01
1	 6.305983e-01	 1.526748e+00	-3.194396e+01
1	 7.232755e-01	 1.493323e+00	-3.354839e+01
1	 7.054226e-01	 1.501839e+00	-3.306637e+01
1	 6.875069e-01	 1.510124e+00	-3.248939e+01
1	 6.695327e-01	 1.518179e+00	-3.184516e+01
1	 6.515044e-01	 1.526002e+00	-3.116157e+01
1	 6.334261e-01	 1.533595e+00	-3.046669e+01
1	 7.265044e-01	 1.499990e+00	-3.206377e+01
1	 7.085718e-01	 1.508544e+00	-3.157673e+01
1	 6.905761e-01	 1.516866e+00	-3.100667e+01
1	 6.725217e-01	 1.524956e+00	-3.037719e+01
1	 6.544129e-01	 1.532815e+00	-2.971207e+01
1	 6.362539e-01	 1.540441e+00	-2.903518e+01
1	 6.221149e-01	 1.506209e+00	-3.665055e+01
1	 6.043146e-01	 1.513439e+00	-3.592072e+01
1	 5.864737e-01	 1.520441e+00	-3.525158e+01
1	 5.685963e-01	 1.527217e+00	-3.464897e+01
1	 5.506864e-01	 1.533766e+00	-3.411856e+01
1	 5.327483e-01	 1.540088e+00	-3.366588e+01
1	 6.249427e-01	 1.513055e+00	-3.503587e+01
1	 6.070615e-01	 1.520318e+00	-3.432552e+01
1	 5.891395e-01	 1.527352e+00	-3.368128e+01
1	 5.711808e-01	 1.534159e+00	-3.310628e+01
1	 5.531896e-01	 1.540737e+00	-3.260347e+01
1	 5.351699e-01	 1.547089e+00	-3.217564e+01
1	 6.277705e-01	 1.519902e+00	-3.346702e+01
1	 6.098084e-01	 1.527197e+00	-3.277522e+01
1	 5.918053e-01	 1.534263e+00	-3.215204e+01
1	 5.737653e-01	 1.541101e+00	-3.159928e+01
1	 5.556927e-01	 1.547709e+00	-3.111854e+01
1	 5.375915e-01	 1.554089e+00	-3.071124e+01
1	 6.305983e-01	 1.526748e+00	-3.194396e+01
1	 6.125553e-01	 1.534076e+00	-3.126933e+01
1	 5.944711e-01	 1.541174e+00	-3.066314e+01
1	 5.763498e-01	 1.548042e+00	-3.012720e+01
1	 5.581958e-01	 1.554681e+00	-2.966312e+01
1	 5.400131e-01	 1.561090e+00	-2.927235e+01
1	 6.334261e-01	 1.533595e+00	-3.046669e+01
1	 6.153022e-01	 1.540956e+00	-2.980737e+01
1	 5.971369e-01	 1.548086e+00	-2.921385e+01
1	 5.789344e-01	 1.554984e+00	-2.868927e+01
1	 5.606989e-01	 1.561652e+00	-2.823659e+01
1	 5.424346e-01	 1.568090e+00	-2.785864e+01
1	 6.362539e-01	 1.540441e+00	-2.903518e+01
1	 6.180491e-01	 1.547835e+00	-2.838887e+01
1	 5.998026e-01	 1.554997e+00	-2.780346e+01
1	 5.815189e-01	 1.561926e+00	-2.728473e+01
1	 5.632020e-01	 1.568624e+00	-2.683833e+01
1	 5.448562e-01	 1.575090e+00	-2.646979e+01
1	 5.327483e-01	 1.540088e+00	-3.366588e+01
1	 5.147860e-01	 1.546185e+00	-3.329498e+01
1	 4.968034e-01	 1.552056e+00	-3.302360e+01
1	 4.788046e-01	 1.557703e+00	-3.287751e+01
1	 4.607936e-01	 1.563126e+00	-3.288233e+01
1	 4.427743e-01	 1.568325e+00	-3.306347e+01
1	 5.351699e-01	 1.547089e+00	-3.217564e+01
1	 5.171259e-01	 1.553213e+00	-3.182642e+01
1	 4.990616e-01	 1.559111e+00	-3.157635e+01
1	 4.809810e-01	 1.564784e+00	-3.145332e+01
1	 4.628881e-01	 1.570231e+00	-3.148508e+01
1	 4.447869e-01	 1.575454e+00	-3.169916e+01
1	 5.375915e-01	 1.554089e+00	-3.071124e+01
1	 5.194658e-01	 1.560241e+00	-3.038179e+01
1	 5.013198e-01	 1.566166e+00	-3.015311e+01
1	 4.831574e-01	 1.571864e+00	-3.005418e+01
1	 4.649827e-01	 1.577336e+00	-3.011382e+01
1	 4.467995e-01	 1.582583e+00	-3.036067e+01
1	 5.400131e-01	 1.561090e+00	-2.927235e+01
1	 5.218058e-01	 1.567269e+00	-2.896106e+01
1	 5.035780e-01	 1.573221e+00	-2.875400e+01
1	 4.853338e-01	 1.578944e+00	-2.868020e+01
1	 4.670772e-01	 1.584441e+00	-2.876858e+01
1	 4.488121e-01	 1.589711e+00	-2.904782e+01
1	 5.424346e-01	 1.568090e+00	-2.785864e+01
1	 5.241457e-01	 1.574297e+00	-2.756421e+01
1	 5.058362e-01	 1.580276e+00	-2.737914e+01
1	 4.875102e-01	 1.586025e+00	-2.733154e+01
1	 4.691717e-01	 1.591546e+00	-2.744938e+01
1	 4.508247e-01	 1.596840e+00	-2.776040e+01
1	 5.448562e-01	 1.575090e+00	-2.646979e+01
1	 5.264856e-01	 1.581326e+00	-2.619121e+01
1	 5.080944e-01	 1.587330e+00	-2.602865e+01
1	 4.896866e-01	 1.593105e+00	-2.600831e+01
1	 4.712662e-01	 1.598651e+00	-2.615624e+01
1	 4.528373e-01	 1.603969e+00	-2.649822e+01
1	 4.427743e-01	 1.568325e+00	-3.306347e+01
1	 4.247505e-01	 1.573302e+00	-3.346251e+01
1	 4.067260e-01	 1.578058e+00	-3.408869e+01
1	 3.887047e-01	 1.582593e+00	-3.491859e+01
1	 3.706903e-01	 1.586909e+00	-3.592864e+01
1	 3.526865e-01	 1.591008e+00	-3.709521e+01
1	 4.447869e-01	 1.575454e+00	-3.169916e+01
1	 4.266811e-01	 1.580454e+00	-3.213682e+01
1	 4.085748e-01	 1.585231e+00	-3.280575e+01
1	 3.904716e-01	 1.589787e+00	-3.368280e+01
1	 3.723753e-01	 1.594123e+00	-3.474464e+01
1	 3.542896e-01	 1.598239e+00	-3.596787e+01
1	 4.467995e-01	 1.582583e+00	-3.036067e+01
1	 4.286118e-01	 1.587605e+00	-3.083484e+01
1	 4.104235e-01	 1.592404e+00	-3.154272e+01
1	 3.922384e-01	 1.596980e+00	-3.246203e+01
1	 3.740602e-01	 1.601336e+00	-3.357032e+01
1	 3.558927e-01	 1.605471e+00	-3.484503e+01
1	 4.488121e-01	 1.589711e+00	-2.904782e+01
1	 4.305425e-01	 1.594756e+00	-2.955615e+01
1	 4.122723e-01	 1.599577e+00	-3.029905e+01
1	 3.940052e-01	 1.604174e+00	-3.125570e+01
1	 3.757452e-01	 1.608549e+00	-3.240512e+01
1	 3.574959e-01	 1.612703e+00	-3.372622e+01
1	 4.508247e-01	 1.596840e+00	-2.776040e+01
1	 4.324732e-01	 1.601908e+00	-2.830034e+01
1	 4.141210e-01	 1.606750e+00	-2.907419e+01
1	 3.957721e-01	 1.611368e+00	-3.006322e+01
1	 3.774301e-01	 1.615762e+00	-3.124850e+01
1	 3.590990e-01	 1.619935e+00	-3.261101e+01
1	 4.528373e-01	 1.603969e+00	-2.649822e+01
1	 4.344039e-01	 1.609059e+00	-2.706699e+01
1	 4.159698e-01	 1.613923e+00	-2.786762e+01
1	 3.975389e-01	 1.618561e+00	-2.888401e+01
1	 3.791151e-01	 1.622976e+00	-3.009992e+01
1	 3.607021e-01	 1.627167e+00	-3.149894e+01
1	 3.526865e-01	 1.591008e+00	-3.709521e+01
1	 3.346969e-01	 1.594889e+00	-3.843797e+01
1	 3.167250e-01	 1.598555e+00	-3.996653e+01
1	 2.987745e-01	 1.602007e+00	-4.164217e+01
1	 2.808488e-01	 1.605247e+00	-4.342640e+01
1	 2.629512e-01	 1.608275e+00	-4.528097e+01
1	 3.542896e-01	 1.598239e+00	-3.596787e+01
1	 3.362182e-01	 1.602138e+00	-3.737203e+01
1	 3.181647e-01	 1.605821e+00	-3.896571e+01
1	 3.001326e-01	 1.609289e+00	-4.070921e+01
1	 2.821254e-01	 1.612543e+00	-4.256302e+01
1	 2.641465e-01	 1.615586e+00	-4.448788e+01
1	 3.558927e-01	 1.605471e+00	-3.484503e+01
1	 3.377396e-01	 1.609388e+00	-3.630600e+01
1	 3.196044e-01	 1.613087e+00	-3.796076e+01
1	 3.014907e-01	 1.616571e+00	-3.976838e+01
1	 2.834020e-01	 1.619840e+00	-4.168812e+01
1	 2.653417e-01	 1.622896e+00	-4.367953e+01
1	 3.574959e-01	 1.612703e+00	-3.372622e+01
1	 3.392609e-01	 1.616637e+00	-3.523954e+01
1	 3.210440e-01	 1.620353e+00	-3.695141e+01
1	 3.028487e-01	 1.623853e+00	-3.881944e+01
1	 2.846785e-01	 1.627136e+00	-4.080149e+01
1	 2.665369e-01	 1.630206e+00	-4.285570e+01
1	 3.590990e-01	 1.619935e+00	-3.261101e+01
1	 3.407823e-01	 1.623887e+00	-3.417233e+01
1	 3.224837e-01	 1.627620e+00	-3.593737e+01
1	 3.042068e-01	 1.631134e+00	-3.786216e+01
1	 2.859551e-01	 1.634433e+00	-3.990290e+01
1	 2.677322e-01	 1.637517e+00	-4.201612e+01
1	 3.607021e-01	 1.627167e+00	-3.149894e+01
1	 3.423036e-01	 1.631136e+00	-3.310401e+01
1	 3.239233e-01	 1.634886e+00	-3.491840e+01
1	 3.055649e-01	 1.638416e+00	-3.689630e+01
1	 2.872317e-01	 1.641729e+00	-3.899212e+01
1	 2.689274e-01	 1.644827e+00	-4.116055e+01
1	 2.629512e-01	 1.608275e+00	-4.528097e+01
1	 2.450852e-01	 1.611095e+00	-4.715993e+01
1	 2.272541e-01	 1.613706e+00	-4.902453e+01
1	 2.094610e-01	 1.616112e+00	-5.084779e+01
1	 1.917091e-01	 1.618314e+00	-5.260311e+01
1	 1.740015e-01	 1.620314e+00	-5.426428e+01
1	 2.641465e-01	 1.615586e+00	-4.448788e+01
1	 2.461993e-01	 1.618418e+00	-4.643710e+01
1	 2.282870e-01	 1.621041e+00	-4.837135e+01
1	 2.104131e-01	 1.623458e+00	-5.026291e+01
1	 1.925805e-01	 1.625670e+00	-5.208444e+01
1	 1.747925e-01	 1.627679e+00	-5.380897e+01
1	 2.653417e-01	 1.622896e+00	-4.367953e+01
1	 2.473133e-01	 1.625741e+00	-4.569502e+01
1	 2.293200e-01	 1.628376e+00	-4.769475e+01
1	 2.113652e-01	 1.630804e+00	-4.965042e+01
1	 1.934519e-01	 1.633026e+00	-5.153409e+01
1	 1.755834e-01	 1.635044e+00	-5.331823e+01
1	 2.665369e-01	 1.630206e+00	-4.285570e+01
1	 2.484273e-01	 1.633064e+00	-4.493343e+01
1	 2.303530e-01	 1.635711e+00	-4.699445e+01
1	 2.123172e-01	 1.638150e+00	-4.901004e+01
1	 1.943233e-01	 1.640382e+00	-5.095181e+01
1	 1.763743e-01	 1.642409e+00	-5.279184e+01
1	 2.677322e-01	 1.637517e+00	-4.201612e+01
1	 2.495413e-01	 1.640387e+00	-4.415204e+01
1	 2.313860e-01	 1.643047e+00	-4.627017e+01
1	 2.132693e-01	 1.645496e+00	-4.834149e+01
1	 1.951947e-01	 1.647738e+00	-5.033737e+01
1	 1.771652e-01	 1.649774e+00	-5.222960e+01
1	 2.689274e-01	 1.644827e+00	-4.116055e+01
1	 2.506554e-01	 1.647710e+00	-4.335059e+01
1	 2.324189e-01	 1.650382e+00	-4.552163e+01
1	 2.142214e-01	 1.652842e+00	-4.764453e+01
1	 1.960661e-01	 1.655094e+00	-4.969053e+01
1	 1.779561e-01	 1.657139e+00	-5.163131e+01
1	 1.740015e-01	 1.620314e+00	-5.426428e+01
1	 1.563414e-01	 1.622113e+00	-5.580197e+01
1	 1.387315e-01	 1.623714e+00	-5.718199e+01
1	 1.211750e-01	 1.625118e+00	-5.837160e+01
1	 1.036745e-01	 1.626328e+00	-5.933869e+01
1	 8.623285e-02	 1.627346e+00	-6.005178e+01
1	 1.747925e-01	 1.627679e+00	-5.380897e+01
1	 1.570520e-01	 1.629486e+00	-5.540629e+01
1	 1.393621e-01	 1.631094e+00	-5.684143e+01
1	 1.217258e-01	 1.632505e+00	-5.808114e+01
1	 1.041457e-01	 1.633721e+00	-5.909280e+01
1	 8.662482e-02	 1.634744e+00	-5.984446e+01
1	 1.755834e-01	 1.635044e+00	-5.331823e+01
1	 1.577627e-01	 1.636859e+00	-5.497186e+01
1	 1.399927e-01	 1.638475e+00	-5.645928e+01
1	 1.222765e-01	 1.639892e+00	-5.774670e+01
1	 1.046170e-01	 1.641113e+00	-5.880096e+01
1	 8.701678e-02	 1.642141e+00	-5.958959e+01
1	 1.763743e-01	 1.642409e+00	-5.279184e+01
1	 1.584733e-01	 1.644233e+00	-5.449851e+01
1	 1.406233e-01	 1.645855e+00	-5.603540e+01
1	 1.228273e-01	 1.647279e+00	-5.736815e+01
1	 1.050882e-01	 1.648506e+00	-5.846303e+01
1	 8.740875e-02	 1.649538e+00	-5.928703e+01
1	 1.771652e-01	 1.649774e+00	-5.222960e+01
1	 1.591839e-01	 1.651606e+00	-5.398608e+01
1	 1.412539e-01	 1.653236e+00	-5.556966e+01
1	 1.233781e-01	 1.654666e+00	-5.694537e+01
1	 1.055595e-01	 1.655898e+00	-5.807889e+01
1	 8.780072e-02	 1.656935e+00	-5.893666e+01
1	 1.779561e-01	 1.657139e+00	-5.163131e+01
1	 1.598946e-01	 1.658979e+00	-5.343441e+01
1	 1.418845e-01	 1.660616e+00	-5.506192e+01
1	 1.239289e-01	 1.662053e+00	-5.647823e+01
1	 1.060307e-01	 1.663290e+00	-5.764844e+01
1	 8.819269e-02	 1.664332e+00	-5.853834e+01
1	 8.623285e-02	 1.627346e+00	-6.005178e+01
1	 6.885280e-02	 1.628174e+00	-6.048173e+01
1	 5.153695e-02	 1.628814e+00	-6.060523e+01
1	 3.428788e-02	 1.629269e+00	-6.040055e+01
1	 1.710809e-02	 1.629540e+00	-5.984658e+01
1	 0.000000e+00	 1.629630e+00	-5.892289e+01
1	 8.662482e-02	 1.634744e+00	-5.984446e+01
1	 6.916576e-02	 1.635575e+00	-6.030646e+01
1	 5.177121e-02	 1.636218e+00	-6.045466e+01
1	 3.444373e-02	 1.636675e+00	-6.026642e+01
1	 1.718585e-02	 1.636947e+00	-5.971977e+01
1	 0.000000e+00	 1.637037e+00	-5.879338e+01
1	 8.701678e-02	 1.642141e+00	-5.958959e+01
1	 6.947873e-02	 1.642976e+00	-6.008240e+01
1	 5.200547e-02	 1.643622e+00	-6.025456e+01
1	 3.459959e-02	 1.644080e+00	-6.008264e+01
1	 1.726361e-02	 1.644354e+00	-5.954391e+01
1	 0.000000e+00	 1.644444e+00	-5.861635e+01
1	 8.740875e-02	 1.649538e+00	-5.928703e+01
1	 6.979170e-02	 1.650377e+00	-5.980943e+01
1	 5.223973e-02	 1.651026e+00	-6.000478e+01
1	 3.475544e-02	 1.651486e+00	-5.984903e+01
1	 1.734138e-02	 1.651761e+00	-5.931885e+01
1	 0.000000e+00	 1.651852e+00	-5.839162e+01
1	 8.780072e-02	 1.656935e+00	-5.893666e+01
1	 7.010467e-02	 1.657778e+00	-5.948740e+01
1	 5.247399e-02	 1.658429e+00	-5.970517e+01
1	 3.491130e-02	 1.658892e+00	-5.956544e+01
1	 1.741914e-02	 1.659168e+00	-5.904441e+01
1	 0.000000e+00	 1.659259e+00	-5.811901e+01
1	 8.819269e-02	 1.664332e+00	-5.853834e+01
1	 7.041763e-02	 1.665178e+00	-5.911616e+01
1	 5.270824e-02	 1.665833e+00	-5.935557e+01
1	 3.506715e-02	 1.666298e+00	-5.923171e+01
1	 1.749691e-02	 1.666575e+00	-5.872044e+01
1	 0.000000e+00	 1.666667e+00	-5.779836e+01
1	 1.666667e+00	 0.000000e+00	 1.425476e+01
1	 1.666575e+00	 1.749691e-02	 1.403833e+01
1	 1.666298e+00	 3.506715e-02	 1.376620e+01
1	 1.665833e+00	 5.270824e-02	 1.344327e+01
1	 1.665178e+00	 7.041763e-02	 1.307452e+01
1	 1.664332e+00	 8.819269e-02	 1.266502e+01
1	 1.674074e+00	 0.000000e+00	 1.403505e+01
1	 1.673982e+00	 1.757467e-02	 1.382729e+01
1	 1.673703e+00	 3.522300e-02	 1.356246e+01
1	 1.673237e+00	 5.294250e-02	 1.324551e+01
1	 1.672579e+00	 7.073060e-02	 1.288148e+01
1	 1.671729e+00	 8.858465e-02	 1.247552e+01
1	 1.681481e+00	 0.000000e+00	 1.380935e+01
1	 1.681389e+00	 1.765243e-02	 1.361034e+01
1	 1.681109e+00	 3.537886e-02	 1.335293e+01
1	 1.680640e+00	 5.317676e-02	 1.304218e+01
1	 1.679980e+00	 7.104357e-02	 1.268320e+01
1	 1.679126e+00	 8.897662e-02	 1.228123e+01
1	 1.688889e+00	 0.000000e+00	 1.357764e+01
1	 1.688796e+00	 1.773020e-02	 1.338743e+01
1	 1.688515e+00	 3.553471e-02	 1.313759e+01
1	 1.688044e+00	 5.341102e-02	 1.283324e+01
1	 1.687381e+00	 7.135653e-02	 1.247961e+01
1	 1.686523e+00	 8.936859e-02	 1.208203e+01
1	 1.696296e+00	 0.000000e+00	 1.333985e+01
1	 1.696203e+00	 1.780796e-02	 1.315854e+01
1	 1.695921e+00	 3.569057e-02	 1.291639e+01
1	 1.695448e+00	 5.364528e-02	 1.261865e+01
1	 1.694782e+00	 7.166950e-02	 1.227065e+01
1	 1.693920e+00	 8.976056e-02	 1.187783e+01
1	 1.703704e+00	 0.000000e+00	 1.309593e+01
1	 1.703610e+00	 1.788573e-02	 1.292363e+01
1	 1.703327e+00	 3.584642e-02	 1.268932e+01
1	 1.702852e+00	 5.387954e-02	 1.239837e+01
1	 1.702182e+00	 7.198247e-02	 1.205625e+01
1	 1.701317e+00	 9.015252e-02	 1.166853e+01
1	 1.664332e+00	 8.819269e-02	 1.266502e+01
1	 1.663290e+00	 1.060307e-01	 1.221748e+01
1	 1.662053e+00	 1.239289e-01	 1.173554e+01
1	 1.660616e+00	 1.418845e-01	 1.122569e+01
1	 1.658979e+00	 1.598946e-01	 1.069448e+01
1	 1.657139e+00	 1.779561e-01	 1.014848e+01
1	 1.671729e+00	 8.858465e-02	 1.247552e+01
1	 1.670683e+00	 1.065020e-01	 1.203027e+01
1	 1.669440e+00	 1.244797e-01	 1.154930e+01
1	 1.667997e+00	 1.425151e-01	 1.103922e+01
1	 1.666352e+00	 1.606052e-01	 1.050670e+01
1	 1.664504e+00	 1.787470e-01	 9.958420e+00
1	 1.679126e+00	 8.897662e-02	 1.228123e+01
1	 1.678075e+00	 1.069732e-01	 1.183883e+01
1	 1.676827e+00	 1.250305e-01	 1.135949e+01
1	 1.675377e+00	 1.431457e-01	 1.084993e+01
1	 1.673726e+00	 1.613159e-01	 1.031688e+01
1	 1.671869e+00	 1.795380e-01	 9.767118e+00
1	 1.686523e+00	 8.936859e-02	 1.208203e+01
1	 1.685468e+00	 1.074445e-01	 1.164301e+01
1	 1.684213e+00	 1.255813e-01	 1.116597e+01
1	 1.682758e+00	 1.437763e-01	 1.065764e+01
1	 1.681099e+00	 1.620265e-01	 1.012484e+01
1	 1.679234e+00	 1.803289e-01	 9.574411e+00
1	 1.693920e+00	 8.976056e-02	 1.187783e+01
1	 1.692860e+00	 1.079157e-01	 1.144269e+01
1	 1.691600e+00	 1.261321e-01	 1.096855e+01
1	 1.690138e+00	 1.444069e-01	 1.046218e+01
1	 1.688472e+00	 1.627371e-01	 9.930420e+00
1	 1.686599e+00	 1.811198e-01	 9.380132e+00
1	 1.701317e+00	 9.015252e-02	 1.166853e+01
1	 1.700253e+00	 1.083869e-01	 1.123772e+01
1	 1.698987e+00	 1.266829e-01	 1.076708e+01
1	 1.697519e+00	 1.450375e-01	 1.026337e+01
1	 1.695845e+00	 1.634478e-01	 9.733426e+00
1	 1.693964e+00	 1.819107e-01	 9.184117e+00
1	 1.657139e+00	 1.779561e-01	 1.014848e+01
1	 1.655094e+00	 1.960661e-01	 9.595613e+00
1	 1.652842e+00	 2.142214e-01	 9.042690e+00
1	 1.650382e+00	 2.324189e-01	 8.494672e+00
1	 1.647710e+00	 2.506554e-01	 7.956503e+00
1	 1.644827e+00	 2.689274e-01	 7.433103e+00
1	 1.664504e+00	 1.787470e-01	 9.958420e+00
1	 1.662450e+00	 1.969375e-01	 9.402506e+00
1	 1.660188e+00	 2.151735e-01	 8.845921e+00
1	 1.657717e+00	 2.334519e-01	 8.293658e+00
1	 1.655034e+00	 2.517694e-01	 7.750698e+00
1	 1.652137e+00	 2.701226e-01	 7.222004e+00
1	 1.671869e+00	 1.795380e-01	 9.767118e+00
1	 1.669806e+00	 1.978089e-01	 9.208956e+00
1	 1.667534e+00	 2.161256e-01	 8.649525e+00
1	 1.665052e+00	 2.344849e-01	 8.093870e+00
1	 1.662357e+00	 2.528834e-01	 7.547028e+00
1	 1.659448e+00	 2.713179e-01	 7.014018e+00
1	 1.679234e+00	 1.803289e-01	 9.574411e+00
1	 1.677162e+00	 1.986803e-01	 9.014808e+00
1	 1.674880e+00	 2.170777e-01	 8.453340e+00
1	 1.672387e+00	 2.355179e-01	 7.895126e+00
1	 1.669680e+00	 2.539974e-01	 7.345272e+00
1	 1.666758e+00	 2.725131e-01	 6.808867e+00
1	 1.686599e+00	 1.811198e-01	 9.380132e+00
1	 1.684518e+00	 1.995517e-01	 8.819906e+00
1	 1.682226e+00	 2.180298e-01	 8.257207e+00
1	 1.679722e+00	 2.365508e-01	 7.697245e+00
1	 1.677003e+00	 2.551114e-01	 7.145212e+00
1	 1.674068e+00	 2.737083e-01	 6.606282e+00
1	 1.693964e+00	 1.819107e-01	 9.184117e+00
1	 1.691874e+00	 2.004231e-01	 8.624098e+00
1	 1.689572e+00	 2.189819e-01	 8.060970e+00
1	 1.687057e+00	 2.375838e-01	 7.500050e+00
1	 1.684326e+00	 2.562255e-01	 6.946634e+00
1	 1.681379e+00	 2.749036e-01	 6.405995e+00
1	 1.644827e+00	 2.689274e-01	 7.433103e+00
1	 1.641729e+00	 2.872317e-01	 6.933627e+00
1	 1.638416e+00	 3.055649e-01	 6.468830e+00
1	 1.634886e+00	 3.239233e-01	 6.045950e+00
1	 1.631136e+00	 3.423036e-01	 5.672131e+00
1	 1.627167e+00	 3.607021e-01	 5.354403e+00
1	 1.652137e+00	 2.701226e-01	 7.222004e+00
1	 1.649026e+00	 2.885083e-01	 6.716541e+00
1	 1.645698e+00	 3.069229e-01	 6.245061e+00
1	 1.642152e+00	 3.253630e-01	 5.815124e+00
1	 1.638386e+00	 3.438250e-01	 5.434190e+00
1	 1.634399e+00	 3.623052e-01	 5.109601e+00
1	 1.659448e+00	 2.713179e-01	 7.014018e+00
1	 1.656323e+00	 2.897849e-01	 6.503591e+00
1	 1.652980e+00	 3.082810e-01	 6.026430e+00
1	 1.649418e+00	 3.268027e-01	 5.590357e+00
1	 1.645635e+00	 3.453463e-01	 5.203096e+00
1	 1.641630e+00	 3.639083e-01	 4.872252e+00
1	 1.666758e+00	 2.725131e-01	 6.808867e+00
1	 1.663619e+00	 2.910615e-01	 6.294455e+00
1	 1.660262e+00	 3.096391e-01	 5.812597e+00
1	 1.656684e+00	 3.282423e-01	 5.371327e+00
1	 1.652885e+00	 3.468677e-01	 4.978578e+00
1	 1.648862e+00	 3.655115e-01	 4.642172e+00
1	 1.674068e+00	 2.737083e-01	 6.606282e+00
1	 1.670916e+00	 2.923381e-01	 6.088814e+00
1	 1.667544e+00	 3.109971e-01	 5.603229e+00
1	 1.663950e+00	 3.296820e-01	 5.157716e+00
1	 1.660134e+00	 3.483890e-01	 4.760370e+00
1	 1.656094e+00	 3.671146e-01	 4.419179e+00
1	 1.681379e+00	 2.749036e-01	 6.405995e+00
1	 1.678212e+00	 2.936146e-01	 5.886355e+00
1	 1.674826e+00	 3.123552e-01	 5.397998e+00
1	 1.671217e+00	 3.311216e-01	 4.949215e+00
1	 1.667384e+00	 3.499104e-01	 4.548212e+00
1	 1.663326e+00	 3.687177e-01	 4.203096e+00
1	 1.627167e+00	 3.607021e-01	 5.354403e+00
1	 1.622976e+00	 3.791151e-01	 5.084564e+00
1	 1.618561e+00	 3.975389e-01	 4.850923e+00
1	 1.613923e+00	 4.159698e-01	 4.655099e+00
1	 1.609059e+00	 4.344039e-01	 4.498585e+00
1	 1.603969e+00	 4.528373e-01	 4.382744e+00
1	 1.634399e+00	 3.623052e-01	 5.109601e+00
1	 1.630189e+00	 3.808001e-01	 4.833713e+00
1	 1.625755e+00	 3.993058e-01	 4.594907e+00
1	 1.621096e+00	 4.178185e-01	 4.394390e+00
1	 1.616210e+00	 4.363346e-01	 4.233254e+00
1	 1.611098e+00	 4.548499e-01	 4.112472e+00
1	 1.641630e+00	 3.639083e-01	 4.872252e+00
1	 1.637402e+00	 3.824850e-01	 4.590795e+00
1	 1.632948e+00	 4.010726e-01	 4.347303e+00
1	 1.628269e+00	 4.196673e-01	 4.142628e+00
1	 1.623362e+00	 4.382652e-01	 3.977509e+00
1	 1.618226e+00	 4.568625e-01	 3.852575e+00
1	 1.648862e+00	 3.655115e-01	 4.642172e+00
1	 1.644615e+00	 3.841700e-01	 4.355704e+00
1	 1.640142e+00	 4.028394e-01	 4.108033e+00
1	 1.635442e+00	 4.215161e-01	 3.899709e+00
1	 1.630513e+00	 4.401959e-01	 3.731170e+00
1	 1.625355e+00	 4.588752e-01	 3.602742e+00
1	 1.656094e+00	 3.671146e-01	 4.419179e+00
1	 1.651828e+00	 3.858549e-01	 4.128335e+00
1	 1.647336e+00	 4.046063e-01	 3.877020e+00
1	 1.642615e+00	 4.233648e-01	 3.665532e+00
1	 1.637665e+00	 4.421266e-01	 3.494058e+00
1	 1.632484e+00	 4.608878e-01	 3.362665e+00
1	 1.663326e+00	 3.687177e-01	 4.203096e+00
1	 1.659042e+00	 3.875399e-01	 3.908587e+00
1	 1.654529e+00	 4.063731e-01	 3.654186e+00
1	 1.649788e+00	 4.252136e-01	 3.439997e+00
1	 1.644816e+00	 4.440573e-01	 3.265999e+00
1	 1.639613e+00	 4.629004e-01	 3.132042e+00
1	 1.603969e+00	 4.528373e-01	 4.382744e+00
1	 1.598651e+00	 4.712662e-01	 4.300519e+00
1	 1.593105e+00	 4.896866e-01	 4.240463e+00
1	 1.587330e+00	 5.080944e-01	 4.197242e+00
1	 1.581326e+00	 5.264856e-01	 4.165534e+00
1	 1.575090e+00	 5.448562e-01	 4.140033e+00
1	 1.611098e+00	 4.548499e-01	 4.112472e+00
1	 1.605756e+00	 4.733607e-01	 4.025468e+00
1	 1.600186e+00	 4.918629e-01	 3.961705e+00
1	 1.594385e+00	 5.103526e-01	 3.916098e+00
1	 1.588354e+00	 5.288256e-01	 3.883545e+00
1	 1.582091e+00	 5.472778e-01	 3.858937e+00
1	 1.618226e+00	 4.568625e-01	 3.852575e+00
1	 1.612862e+00	 4.754552e-01	 3.761599e+00
1	 1.607266e+00	 4.940393e-01	 3.694745e+00
1	 1.601440e+00	 5.126108e-01	 3.647114e+00
1	 1.595382e+00	 5.311655e-01	 3.613770e+00
1	 1.589091e+00	 5.496994e-01	 3.589759e+00
1	 1.625355e+00	 4.588752e-01	 3.602742e+00
1	 1.619967e+00	 4.775498e-01	 3.508479e+00
1	 1.614347e+00	 4.962157e-01	 3.439112e+00
1	 1.608495e+00	 5.148690e-01	 3.389860e+00
1	 1.602410e+00	 5.335054e-01	 3.355907e+00
1	 1.596092e+00	 5.521210e-01	 3.332402e+00
1	 1.632484e+00	 4.608878e-01	 3.362665e+00
1	 1.627072e+00	 4.796443e-01	 3.265686e+00
1	 1.621427e+00	 4.983921e-01	 3.194343e+00
1	 1.615550e+00	 5.171272e-01	 3.143917e+00
1	 1.609438e+00	 5.358454e-01	 3.109655e+00
1	 1.603092e+00	 5.545426e-01	 3.086772e+00
1	 1.639613e+00	 4.629004e-01	 3.132042e+00
1	 1.634177e+00	 4.817388e-01	 3.032801e+00
1	 1.628508e+00	 5.005685e-01	 2.959984e+00
1	 1.622604e+00	 5.193854e-01	 2.908871e+00
1	 1.616466e+00	 5.381853e-01	 2.874722e+00
1	 1.610092e+00	 5.569641e-01	 2.852774e+00
1	 1.575090e+00	 5.448562e-01	 4.140033e+00
1	 1.568624e+00	 5.632020e-01	 4.111769e+00
1	 1.561926e+00	 5.815189e-01	 4.074007e+00
1	 1.554997e+00	 5.998026e-01	 4.024790e+00
1	 1.547835e+00	 6.180491e-01	 3.962129e+00
1	 1.540441e+00	 6.362539e-01	 3.884005e+00
1	 1.582091e+00	 5.472778e-01	 3.858937e+00
1	 1.575596e+00	 5.657052e-01	 3.833082e+00
1	 1.568868e+00	 5.841034e-01	 3.798749e+00
1	 1.561908e+00	 6.024684e-01	 3.753771e+00
1	 1.554714e+00	 6.207959e-01	 3.695990e+00
1	 1.547288e+00	 6.390817e-01	 3.623262e+00
1	 1.589091e+00	 5.496994e-01	 3.589759e+00
1	 1.582567e+00	 5.682083e-01	 3.565885e+00
1	 1.575810e+00	 5.866880e-01	 3.534728e+00
1	 1.568819e+00	 6.051342e-01	 3.493998e+00
1	 1.561594e+00	 6.235428e-01	 3.441441e+00
1	 1.554134e+00	 6.419095e-01	 3.374838e+00
1	 1.596092e+00	 5.521210e-01	 3.332402e+00
1	 1.589539e+00	 5.707114e-01	 3.310267e+00
1	 1.582752e+00	 5.892725e-01	 3.282093e+00
1	 1.575730e+00	 6.078000e-01	 3.245553e+00
1	 1.568473e+00	 6.262897e-01	 3.198363e+00
1	 1.560980e+00	 6.447373e-01	 3.138287e+00
1	 1.603092e+00	 5.545426e-01	 3.086772e+00
1	 1.596511e+00	 5.732145e-01	 3.066315e+00
1	 1.589694e+00	 5.918570e-01	 3.040991e+00
1	 1.582641e+00	 6.104658e-01	 3.008514e+00
1	 1.575352e+00	 6.290366e-01	 2.966641e+00
1	 1.567827e+00	 6.475651e-01	 2.913173e+00
1	 1.610092e+00	 5.569641e-01	 2.852774e+00
1	 1.603482e+00	 5.757176e-01	 2.834116e+00
1	 1.596636e+00	 5.944415e-01	 2.811564e+00
1	 1.589552e+00	 6.131316e-01	 2.782958e+00
1	 1.582231e+00	 6.317835e-01	 2.746163e+00
1	 1.574673e+00	 6.503929e-01	 2.699064e+00
1	 1.540441e+00	 6.362539e-01	 3.884005e+00
1	 1.532815e+00	 6.544129e-01	 3.763903e+00
1	 1.524956e+00	 6.725217e-01	 3.575681e+00
1	 1.516866e+00	 6.905761e-01	 3.318126e+00
1	 1.508544e+00	 7.085718e-01	 2.990388e+00
1	 1.499990e+00	 7.265044e-01	 2.591985e+00
1	 1.547288e+00	 6.390817e-01	 3.623262e+00
1	 1.539627e+00	 6.573214e-01	 3.510157e+00
1	 1.531734e+00	 6.755107e-01	 3.331791e+00
1	 1.523608e+00	 6.936454e-01	 3.087058e+00
1	 1.515248e+00	 7.117210e-01	 2.775148e+00
1	 1.506656e+00	 7.297333e-01	 2.395548e+00
1	 1.554134e+00	 6.419095e-01	 3.374838e+00
1	 1.546440e+00	 6.602299e-01	 3.269501e+00
1	 1.538512e+00	 6.784997e-01	 3.101345e+00
1	 1.530349e+00	 6.967146e-01	 2.869271e+00
1	 1.521953e+00	 7.148702e-01	 2.572433e+00
1	 1.513323e+00	 7.329622e-01	 2.210240e+00
1	 1.560980e+00	 6.447373e-01	 3.138287e+00
1	 1.553252e+00	 6.631384e-01	 3.041197e+00
1	 1.545289e+00	 6.814887e-01	 2.883519e+00
1	 1.537091e+00	 6.997838e-01	 2.664064e+00
1	 1.528658e+00	 7.180194e-01	 2.381874e+00
1	 1.519990e+00	 7.361911e-01	 2.036235e+00
1	 1.567827e+00	 6.475651e-01	 2.913173e+00
1	 1.560065e+00	 6.660469e-01	 2.824522e+00
1	 1.552067e+00	 6.844777e-01	 2.677507e+00
1	 1.543832e+00	 7.028530e-01	 2.470750e+00
1	 1.535362e+00	 7.211686e-01	 2.203111e+00
1	 1.526656e+00	 7.394201e-01	 1.873704e+00
1	 1.574673e+00	 6.503929e-01	 2.699064e+00
1	 1.566877e+00	 6.689554e-01	 2.618764e+00
1	 1.558844e+00	 6.874666e-01	 2.482515e+00
1	 1.550574e+00	 7.059223e-01	 2.288652e+00
1	 1.542067e+00	 7.243179e-01	 2.035788e+00
1	 1.533323e+00	 7.426490e-01	 1.722814e+00
1	 1.499990e+00	 7.265044e-01	 2.591985e+00
1	 1.491205e+00	 7.443696e-01	 2.120713e+00
1	 1.482189e+00	 7.621631e-01	 1.574669e+00
1	 1.472944e+00	 7.798804e-01	 9.546288e-01
1	 1.463470e+00	 7.975173e-01	 2.620710e-01
1	 1.453767e+00	 8.150695e-01	-5.008135e-01
1	 1.506656e+00	 7.297333e-01	 2.395548e+00
1	 1.497832e+00	 7.476779e-01	 1.947304e+00
1	 1.488777e+00	 7.655504e-01	 1.429634e+00
1	 1.479491e+00	 7.833465e-01	 8.430448e-01
1	 1.469974e+00	 8.010618e-01	 1.887607e-01
1	 1.460229e+00	 8.186920e-01	-5.312699e-01
1	 1.513323e+00	 7.329622e-01	 2.210240e+00
1	 1.504460e+00	 7.509862e-01	 1.783214e+00
1	 1.495364e+00	 7.689378e-01	 1.292038e+00
1	 1.486037e+00	 7.868127e-01	 7.370813e-01
1	 1.476478e+00	 8.046064e-01	 1.194133e-01
1	 1.466690e+00	 8.223145e-01	-5.591851e-01
1	 1.519990e+00	 7.361911e-01	 2.036235e+00
1	 1.511087e+00	 7.542945e-01	 1.629158e+00
1	 1.501952e+00	 7.723252e-01	 1.162924e+00
1	 1.492583e+00	 7.902788e-01	 6.378902e-01
1	 1.482983e+00	 8.081509e-01	 5.507307e-02
1	 1.473151e+00	 8.259371e-01	-5.838424e-01
1	 1.526656e+00	 7.394201e-01	 1.873704e+00
1	 1.517715e+00	 7.576029e-01	 1.485838e+00
1	 1.508539e+00	 7.757126e-01	 1.043314e+00
1	 1.499130e+00	 7.937449e-01	 5.466030e-01
1	 1.489487e+00	 8.116954e-01	-3.234292e-03
1	 1.479612e+00	 8.295596e-01	-6.045373e-01
1	 1.533323e+00	 7.426490e-01	 1.722814e+00
1	 1.524343e+00	 7.609112e-01	 1.353945e+00
1	 1.515127e+00	 7.791000e-01	 9.342147e-01
1	 1.505676e+00	 7.972111e-01	 4.643317e-01
1	 1.495991e+00	 8.152399e-01	-5.450080e-02
1	 1.486073e+00	 8.331821e-01	-6.205778e-01
1	 1.453767e+00	 8.150695e-01	-5.008135e-01
1	 1.443838e+00	 8.325325e-01	-1.317056e+00
1	 1.433682e+00	 8.499021e-01	-2.170016e+00
1	 1.423301e+00	 8.671740e-01	-3.057737e+00
1	 1.412697e+00	 8.843438e-01	-3.978640e+00
1	 1.401871e+00	 9.014074e-01	-4.931524e+00
1	 1.460229e+00	 8.186920e-01	-5.312699e-01
1	 1.450255e+00	 8.362326e-01	-1.304242e+00
1	 1.440054e+00	 8.536794e-01	-2.117329e+00
1	 1.429627e+00	 8.710281e-01	-2.968235e+00
1	 1.418976e+00	 8.882742e-01	-3.854988e+00
1	 1.408102e+00	 9.054136e-01	-4.775942e+00
1	 1.466690e+00	 8.223145e-01	-5.591851e-01
1	 1.456672e+00	 8.399328e-01	-1.289842e+00
1	 1.446426e+00	 8.574568e-01	-2.063439e+00
1	 1.435953e+00	 8.748822e-01	-2.877477e+00
1	 1.425255e+00	 8.922047e-01	-3.729714e+00
1	 1.414332e+00	 9.094199e-01	-4.618168e+00
1	 1.473151e+00	 8.259371e-01	-5.838424e-01
1	 1.463089e+00	 8.436329e-01	-1.273534e+00
1	 1.452798e+00	 8.612341e-01	-2.008336e+00
1	 1.442279e+00	 8.787363e-01	-2.785678e+00
1	 1.431533e+00	 8.961351e-01	-3.603167e+00
1	 1.420563e+00	 9.134262e-01	-4.458599e+00
1	 1.479612e+00	 8.295596e-01	-6.045373e-01
1	 1.469506e+00	 8.473331e-01	-1.255001e+00
1	 1.459170e+00	 8.650115e-01	-1.952009e+00
1	 1.448605e+00	 8.825904e-01	-2.693046e+00
1	 1.437812e+00	 9.000655e-01	-3.475692e+00
1	 1.426793e+00	 9.174324e-01	-4.297624e+00
1	 1.486073e+00	 8.331821e-01	-6.205778e-01
1	 1.475923e+00	 8.510332e-01	-1.233935e+00
1	 1.465542e+00	 8.687888e-01	-1.894448e+00
1	 1.454930e+00	 8.864445e-01	-2.599789e+00
1	 1.444091e+00	 9.039959e-01	-3.347625e+00
1	 1.433024e+00	 9.214387e-01	-4.135625e+00
1	 1.401871e+00	 9.014074e-01	-4.931524e+00
1	 1.390824e+00	 9.183604e-01	-5.882166e+00
1	 1.379558e+00	 9.351987e-01	-6.799327e+00
1	 1.368075e+00	 9.519180e-01	-7.686869e+00
1	 1.356377e+00	 9.685143e-01	-8.549029e+00
1	 1.344465e+00	 9.849834e-01	-9.390418e+00
1	 1.408102e+00	 9.054136e-01	-4.775942e+00
1	 1.397006e+00	 9.224420e-01	-5.696352e+00
1	 1.385690e+00	 9.393551e-01	-6.584807e+00
1	 1.374156e+00	 9.561488e-01	-7.445208e+00
1	 1.362405e+00	 9.728188e-01	-8.281851e+00
1	 1.350440e+00	 9.893611e-01	-9.099418e+00
1	 1.414332e+00	 9.094199e-01	-4.618168e+00
1	 1.403187e+00	 9.265236e-01	-5.507897e+00
1	 1.391821e+00	 9.435116e-01	-6.367468e+00
1	 1.380236e+00	 9.603795e-01	-7.200672e+00
1	 1.368433e+00	 9.771233e-01	-8.011702e+00
1	 1.356416e+00	 9.937388e-01	-8.805152e+00
1	 1.420563e+00	 9.134262e-01	-4.458599e+00
1	 1.409369e+00	 9.306052e-01	-5.317184e+00
1	 1.397952e+00	 9.476680e-01	-6.147655e+00
1	 1.386316e+00	 9.646103e-01	-6.953537e+00
1	 1.374462e+00	 9.814278e-01	-7.738770e+00
1	 1.362391e+00	 9.981165e-01	-8.507697e+00
1	 1.426793e+00	 9.174324e-01	-4.297624e+00
1	 1.415550e+00	 9.346868e-01	-5.124590e+00
1	 1.404084e+00	 9.518245e-01	-5.925702e+00
1	 1.392397e+00	 9.688410e-01	-6.704075e+00
1	 1.380490e+00	 9.857323e-01	-7.463238e+00
1	 1.368366e+00	 1.002494e+00	-8.207127e+00
1	 1.433024e+00	 9.214387e-01	-4.135625e+00
1	 1.421731e+00	 9.387684e-01	-4.930484e+00
1	 1.410215e+00	 9.559809e-01	-5.701942e+00
1	 1.398477e+00	 9.730718e-01	-6.452555e+00
1	 1.386518e+00	 9.900368e-01	-7.185288e+00
1	 1.374342e+00	 1.006872e+00	-7.903519e+00
1	 1.344465e+00	 9.849834e-01	-9.390418e+00
1	 1.332341e+00	 1.001321e+00	-1.017004e+01
1	 1.320009e+00	 1.017524e+00	-1.084173e+01
1	 1.307469e+00	 1.033587e+00	-1.140250e+01
1	 1.294725e+00	 1.049507e+00	-1.184922e+01
1	 1.281779e+00	 1.065280e+00	-1.217860e+01
1	 1.350440e+00	 9.893611e-01	-9.099418e+00
1	 1.338263e+00	 1.005771e+00	-9.854984e+00
1	 1.325876e+00	 1.022046e+00	-1.050051e+01
1	 1.313280e+00	 1.038180e+00	-1.103321e+01
1	 1.300480e+00	 1.054171e+00	-1.145013e+01
1	 1.287476e+00	 1.070014e+00	-1.174824e+01
1	 1.356416e+00	 9.937388e-01	-8.805152e+00
1	 1.344184e+00	 1.010222e+00	-9.536139e+00
1	 1.331742e+00	 1.026568e+00	-1.015498e+01
1	 1.319091e+00	 1.042774e+00	-1.065928e+01
1	 1.306234e+00	 1.058836e+00	-1.104656e+01
1	 1.293173e+00	 1.074749e+00	-1.131427e+01
1	 1.362391e+00	 9.981165e-01	-8.507697e+00
1	 1.350106e+00	 1.014672e+00	-9.213503e+00
1	 1.337609e+00	 1.031091e+00	-9.805129e+00
1	 1.324902e+00	 1.047368e+00	-1.028082e+01
1	 1.311988e+00	 1.063500e+00	-1.063878e+01
1	 1.298869e+00	 1.079483e+00	-1.087719e+01
1	 1.368366e+00	 1.002494e+00	-8.207127e+00
1	 1.356028e+00	 1.019122e+00	-8.887073e+00
1	 1.343476e+00	 1.035613e+00	-9.450967e+00
1	 1.330713e+00	 1.051962e+00	-9.897911e+00
1	 1.317743e+00	 1.068165e+00	-1.022703e+01
1	 1.304566e+00	 1.084218e+00	-1.043748e+01
1	 1.374342e+00	 1.006872e+00	-7.903519e+00
1	 1.361949e+00	 1.023573e+00	-8.556848e+00
1	 1.349342e+00	 1.040135e+00	-9.092495e+00
1	 1.336524e+00	 1.056555e+00	-9.510640e+00
1	 1.323497e+00	 1.072829e+00	-9.811557e+00
1	 1.310263e+00	 1.088952e+00	-9.995619e+00
1	 1.281779e+00	 1.065280e+00	-1.217860e+01
1	 1.268633e+00	 1.080901e+00	-1.240487e+01
1	 1.255290e+00	 1.096369e+00	-1.255371e+01
1	 1.241753e+00	 1.111678e+00	-1.263966e+01
1	 1.228025e+00	 1.126824e+00	-1.267820e+01
1	 1.214108e+00	 1.141806e+00	-1.268578e+01
1	 1.287476e+00	 1.070014e+00	-1.174824e+01
1	 1.274271e+00	 1.085705e+00	-1.194607e+01
1	 1.260869e+00	 1.101241e+00	-1.207333e+01
1	 1.247272e+00	 1.116618e+00	-1.214437e+01
1	 1.233483e+00	 1.131832e+00	-1.217446e+01
1	 1.219504e+00	 1.146880e+00	-1.217984e+01
1	 1.293173e+00	 1.074749e+00	-1.131427e+01
1	 1.279910e+00	 1.090510e+00	-1.148523e+01
1	 1.266448e+00	 1.106114e+00	-1.159284e+01
1	 1.252791e+00	 1.121559e+00	-1.165095e+01
1	 1.238940e+00	 1.136841e+00	-1.167439e+01
1	 1.224900e+00	 1.151955e+00	-1.167886e+01
1	 1.298869e+00	 1.079483e+00	-1.087719e+01
1	 1.285548e+00	 1.095314e+00	-1.102307e+01
1	 1.272027e+00	 1.110987e+00	-1.111302e+01
1	 1.258310e+00	 1.126500e+00	-1.116020e+01
1	 1.244398e+00	 1.141849e+00	-1.117864e+01
1	 1.230296e+00	 1.157030e+00	-1.118325e+01
1	 1.304566e+00	 1.084218e+00	-1.043748e+01
1	 1.291186e+00	 1.100118e+00	-1.056027e+01
1	 1.277606e+00	 1.115860e+00	-1.063468e+01
1	 1.263829e+00	 1.131441e+00	-1.067287e+01
1	 1.249856e+00	 1.146857e+00	-1.068785e+01
1	 1.235692e+00	 1.162104e+00	-1.069341e+01
1	 1.310263e+00	 1.088952e+00	-9.995619e+00
1	 1.296825e+00	 1.104922e+00	-1.009753e+01
1	 1.283186e+00	 1.120732e+00	-1.015858e+01
1	 1.269348e+00	 1.136381e+00	-1.018973e+01
1	 1.255314e+00	 1.151865e+00	-1.020265e+01
1	 1.241088e+00	 1.167179e+00	-1.020975e+01
1	 1.214108e+00	 1.141806e+00	-1.268578e+01
1	 1.200006e+00	 1.156618e+00	-1.272423e+01
1	 1.185721e+00	 1.171257e+00	-1.284177e+01
1	 1.171257e+00	 1.185721e+00	-1.303487e+01
1	 1.156618e+00	 1.200006e+00	-1.329973e+01
1	 1.141806e+00	 1.214108e+00	-1.363225e+01
1	 1.219504e+00	 1.146880e+00	-1.217984e+01
1	 1.205339e+00	 1.161758e+00	-1.221815e+01
1	 1.190991e+00	 1.176463e+00	-1.233378e+01
1	 1.176463e+00	 1.190991e+00	-1.252352e+01
1	 1.161758e+00	 1.205339e+00	-1.278391e+01
1	 1.146880e+00	 1.219504e+00	-1.311117e+01
1	 1.224900e+00	 1.151955e+00	-1.167886e+01
1	 1.210672e+00	 1.166899e+00	-1.171769e+01
1	 1.196261e+00	 1.181668e+00	-1.183158e+01
1	 1.181668e+00	 1.196261e+00	-1.201780e+01
1	 1.166899e+00	 1.210672e+00	-1.227331e+01
1	 1.151955e+00	 1.224900e+00	-1.259482e+01
1	 1.230296e+00	 1.157030e+00	-1.118325e+01
1	 1.216006e+00	 1.172039e+00	-1.122298e+01
1	 1.201531e+00	 1.186874e+00	-1.133514e+01
1	 1.186874e+00	 1.201531e+00	-1.151752e+01
1	 1.172039e+00	 1.216006e+00	-1.176767e+01
1	 1.157030e+00	 1.230296e+00	-1.208292e+01
1	 1.235692e+00	 1.162104e+00	-1.069341e+01
1	 1.221339e+00	 1.177180e+00	-1.073421e+01
1	 1.206800e+00	 1.192080e+00	-1.084441e+01
1	 1.192080e+00	 1.206800e+00	-1.102250e+01
1	 1.177180e+00	 1.221339e+00	-1.126674e+01
1	 1.162104e+00	 1.235692e+00	-1.157518e+01
1	 1.241088e+00	 1.167179e+00	-1.020975e+01
1	 1.226672e+00	 1.182320e+00	-1.025150e+01
1	 1.212070e+00	 1.197285e+00	-1.035936e+01
1	 1.197285e+00	 1.212070e+00	-1.053258e+01
1	 1.182320e+00	 1.226672e+00	-1.077027e+01
1	 1.167179e+00	 1.241088e+00	-1.107134e+01
1	 1.141806e+00	 1.214108e+00	-1.363225e+01
1	 1.126824e+00	 1.228025e+00	-1.407392e+01
1	 1.111678e+00	 1.241753e+00	-1.465820e+01
1	 1.096369e+00	 1.255290e+00	-1.536818e+01
1	 1.080901e+00	 1.268633e+00	-1.618611e+01
1	 1.065280e+00	 1.281779e+00	-1.709347e+01
1	 1.146880e+00	 1.219504e+00	-1.311117e+01
1	 1.131832e+00	 1.233483e+00	-1.354503e+01
1	 1.116618e+00	 1.247272e+00	-1.411717e+01
1	 1.101241e+00	 1.260869e+00	-1.481100e+01
1	 1.085705e+00	 1.274271e+00	-1.560911e+01
1	 1.070014e+00	 1.287476e+00	-1.649334e+01
1	 1.151955e+00	 1.224900e+00	-1.259482e+01
1	 1.136841e+00	 1.238940e+00	-1.302042e+01
1	 1.121559e+00	 1.252791e+00	-1.358001e+01
1	 1.106114e+00	 1.266448e+00	-1.425731e+01
1	 1.090510e+00	 1.279910e+00	-1.503523e+01
1	 1.074749e+00	 1.293173e+00	-1.589592e+01
1	 1.157030e+00	 1.230296e+00	-1.208292e+01
1	 1.141849e+00	 1.244398e+00	-1.249979e+01
1	 1.126500e+00	 1.258310e+00	-1.304641e+01
1	 1.110987e+00	 1.272027e+00	-1.370677e+01
1	 1.095314e+00	 1.285548e+00	-1.446406e+01
1	 1.079483e+00	 1.298869e+00	-1.530075e+01
1	 1.162104e+00	 1.235692e+00	-1.157518e+01
1	 1.146857e+00	 1.249856e+00	-1.198285e+01
1	 1.131441e+00	 1.263829e+00	-1.251606e+01
1	 1.115860e+00	 1.277606e+00	-1.315903e+01
1	 1.100118e+00	 1.291186e+00	-1.389524e+01
1	 1.084218e+00	 1.304566e+00	-1.470739e+01
1	 1.167179e+00	 1.241088e+00	-1.107134e+01
1	 1.151865e+00	 1.255314e+00	-1.146934e+01
1	 1.136381e+00	 1.269348e+00	-1.198866e+01
1	 1.120732e+00	 1.283186e+00	-1.261378e+01
1	 1.104922e+00	 1.296825e+00	-1.332838e+01
1	 1.088952e+00	 1.310263e+00	-1.411542e+01
1	 1.065280e+00	 1.281779e+00	-1.709347e+01
1	 1.049507e+00	 1.294725e+00	-1.808666e+01
1	 1.033587e+00	 1.307469e+00	-1.917010e+01
1	 1.017524e+00	 1.320009e+00	-2.033665e+01
1	 1.001321e+00	 1.332341e+00	-2.157911e+01
1	 9.849834e-01	 1.344465e+00	-2.289017e+01
1	 1.070014e+00	 1.287476e+00	-1.649334e+01
1	 1.054171e+00	 1.300480e+00	-1.746249e+01
1	 1.038180e+00	 1.313280e+00	-1.852252e+01
1	 1.022046e+00	 1.325876e+00	-1.966540e+01
1	 1.005771e+00	 1.338263e+00	-2.088296e+01
1	 9.893611e-01	 1.350440e+00	-2.216690e+01
1	 1.074749e+00	 1.293173e+00	-1.589592e+01
1	 1.058836e+00	 1.306234e+00	-1.684037e+01
1	 1.042774e+00	 1.319091e+00	-1.787604e+01
1	 1.026568e+00	 1.331742e+00	-1.899412e+01
1	 1.010222e+00	 1.344184e+00	-2.018564e+01
1	 9.937388e-01	 1.356416e+00	-2.144146e+01
1	 1.079483e+00	 1.298869e+00	-1.530075e+01
1	 1.063500e+00	 1.311988e+00	-1.621984e+01
1	 1.047368e+00	 1.324902e+00	-1.723023e+01
1	 1.031091e+00	 1.337609e+00	-1.832247e+01
1	 1.014672e+00	 1.350106e+00	-1.948695e+01
1	 9.981165e-01	 1.362391e+00	-2.071387e+01
1	 1.084218e+00	 1.304566e+00	-1.470739e+01
1	 1.068165e+00	 1.317743e+00	-1.560042e+01
1	 1.051962e+00	 1.330713e+00	-1.658463e+01
1	 1.035613e+00	 1.343476e+00	-1.765010e+01
1	 1.019122e+00	 1.356028e+00	-1.878671e+01
1	 1.002494e+00	 1.368366e+00	-1.998416e+01
1	 1.088952e+00	 1.310263e+00	-1.411542e+01
1	 1.072829e+00	 1.323497e+00	-1.498166e+01
1	 1.056555e+00	 1.336524e+00	-1.593883e+01
1	 1.040135e+00	 1.349342e+00	-1.697669e+01
1	 1.023573e+00	 1.361949e+00	-1.808475e+01
1	 1.006872e+00	 1.374342e+00	-1.925234e+01
1	 9.849834e-01	 1.344465e+00	-2.289017e+01
1	 9.685143e-01	 1.356377e+00	-2.421405e+01
1	 9.519180e-01	 1.368075e+00	-2.549661e+01
1	 9.351987e-01	 1.379558e+00	-2.673300e+01
1	 9.183604e-01	 1.390824e+00	-2.791832e+01
1	 9.014074e-01	 1.401871e+00	-2.904769e+01
1	 9.893611e-01	 1.350440e+00	-2.216690e+01
1	 9.728188e-01	 1.362405e+00	-2.346050e+01
1	 9.561488e-01	 1.374156e+00	-2.470909e+01
1	 9.393551e-01	 1.385690e+00	-2.590743e+01
1	 9.224420e-01	 1.397006e+00	-2.705026e+01
1	 9.054136e-01	 1.408102e+00	-2.813230e+01
1	 9.937388e-01	 1.356416e+00	-2.144146e+01
1	 9.771233e-01	 1.368433e+00	-2.270410e+01
1	 9.603795e-01	 1.380236e+00	-2.391824e+01
1	 9.435116e-01	 1.391821e+00	-2.507796e+01
1	 9.265236e-01	 1.403187e+00	-2.617727e+01
1	 9.094199e-01	 1.414332e+00	-2.721019e+01
1	 9.981165e-01	 1.362391e+00	-2.071387e+01
1	 9.814278e-01	 1.374462e+00	-2.194506e+01
1	 9.646103e-01	 1.386316e+00	-2.312433e+01
1	 9.476680e-01	 1.397952e+00	-2.424477e+01
1	 9.306052e-01	 1.409369e+00	-2.529937e+01
1	 9.134262e-01	 1.420563e+00	-2.628109e+01
1	 1.002494e+00	 1.368366e+00	-1.998416e+01
1	 9.857323e-01	 1.380490e+00	-2.118357e+01
1	 9.688410e-01	 1.392397e+00	-2.232762e+01
1	 9.518245e-01	 1.404084e+00	-2.340806e+01
1	 9.346868e-01	 1.415550e+00	-2.441657e+01
1	 9.174324e-01	 1.426793e+00	-2.534473e+01
1	 1.006872e+00	 1.374342e+00	-1.925234e+01
1	 9.900368e-01	 1.386518e+00	-2.041985e+01
1	 9.730718e-01	 1.398477e+00	-2.152835e+01
1	 9.559809e-01	 1.410215e+00	-2.256803e+01
1	 9.387684e-01	 1.421731e+00	-2.352889e+01
1	 9.214387e-01	 1.433024e+00	-2.440084e+01
1	 9.014074e-01	 1.401871e+00	-2.904769e+01
1	 8.843438e-01	 1.412697e+00	-3.008982e+01
1	 8.671740e-01	 1.423301e+00	-3.100402e+01
1	 8.499021e-01	 1.433682e+00	-3.177097e+01
1	 8.325325e-01	 1.443838e+00	-3.237101e+01
1	 8.150695e-01	 1.453767e+00	-3.278417e+01
1	 9.054136e-01	 1.408102e+00	-2.813230e+01
1	 8.882742e-01	 1.418976e+00	-2.912019e+01
1	 8.710281e-01	 1.429627e+00	-2.997244e+01
1	 8.536794e-01	 1.440054e+00	-3.067140e+01
1	 8.362326e-01	 1.450255e+00	-3.119906e+01
1	 8.186920e-01	 1.460229e+00	-3.153718e+01
1	 9.094199e-01	 1.414332e+00	-2.721019e+01
1	 8.922047e-01	 1.425255e+00	-2.814141e+01
1	 8.748822e-01	 1.435953e+00	-2.892969e+01
1	 8.574568e-01	 1.446426e+00	-2.955997e+01
1	 8.399328e-01	 1.456672e+00	-3.001696e+01
1	 8.223145e-01	 1.466690e+00	-3.028511e+01
1	 9.134262e-01	 1.420563e+00	-2.628109e+01
1	 8.961351e-01	 1.431533e+00	-2.715301e+01
1	 8.787363e-01	 1.442279e+00	-2.787534e+01
1	 8.612341e-01	 1.452798e+00	-2.843660e+01
1	 8.436329e-01	 1.463089e+00	-2.882514e+01
1	 8.259371e-01	 1.473151e+00	-2.902921e+01
1	 9.174324e-01	 1.426793e+00	-2.534473e+01
1	 9.000655e-01	 1.437812e+00	-2.615453e+01
1	 8.825904e-01	 1.448605e+00	-2.680899e+01
1	 8.650115e-01	 1.459170e+00	-2.730117e+01
1	 8.473331e-01	 1.469506e+00	-2.762408e+01
1	 8.295596e-01	 1.479612e+00	-2.777070e+01
1	 9.214387e-01	 1.433024e+00	-2.440084e+01
1	 9.039959e-01	 1.444091e+00	-2.514550e+01
1	 8.864445e-01	 1.454930e+00	-2.573024e+01
1	 8.687888e-01	 1.465542e+00	-2.615360e+01
1	 8.510332e-01	 1.475923e+00	-2.641420e+01
1	 8.331821e-01	 1.486073e+00	-2.651079e+01
1	 8.150695e-01	 1.453767e+00	-3.278417e+01
1	 7.975173e-01	 1.463470e+00	-3.298019e+01
1	 7.798804e-01	 1.472944e+00	-3.296732e+01
1	 7.621631e-01	 1.482189e+00	-3.278398e+01
1	 7.443696e-01	 1.491205e+00	-3.246943e+01
1	 7.265044e-01	 1.499990e+00	-3.206377e+01
1	 8.186920e-01	 1.460229e+00	-3.153718e+01
1	 8.010618e-01	 1.469974e+00	-3.166338e+01
1	 7.833465e-01	 1.479491e+00	-3.159342e+01
1	 7.655504e-01	 1.488777e+00	-3.136686e+01
1	 7.476779e-01	 1.497832e+00	-3.102413e+01
1	 7.297333e-01	 1.506656e+00	-3.060648e+01
1	 8.223145e-01	 1.466690e+00	-3.028511e+01
1	 8.046064e-01	 1.476478e+00	-3.035038e+01
1	 7.868127e-01	 1.486037e+00	-3.023457e+01
1	 7.689378e-01	 1.495364e+00	-2.997656e+01
1	 7.509862e-01	 1.504460e+00	-2.961611e+01
1	 7.329622e-01	 1.513323e+00	-2.919376e+01
1	 8.259371e-01	 1.473151e+00	-2.902921e+01
1	 8.081509e-01	 1.482983e+00	-2.904313e+01
1	 7.902788e-01	 1.492583e+00	-2.889294e+01
1	 7.723252e-01	 1.501952e+00	-2.861510e+01
1	 7.542945e-01	 1.511087e+00	-2.824686e+01
1	 7.361911e-01	 1.519990e+00	-2.782620e+01
1	 8.295596e-01	 1.479612e+00	-2.777070e+01
1	 8.116954e-01	 1.489487e+00	-2.774349e+01
1	 7.937449e-01	 1.499130e+00	-2.757066e+01
1	 7.757126e-01	 1.508539e+00	-2.728446e+01
1	 7.576029e-01	 1.517715e+00	-2.691785e+01
1	 7.394201e-01	 1.526656e+00	-2.650442e+01
1	 8.331821e-01	 1.486073e+00	-2.651079e+01
1	 8.152399e-01	 1.495991e+00	-2.645333e+01
1	 7.972111e-01	 1.505676e+00	-2.626982e+01
1	 7.791000e-01	 1.515127e+00	-2.598658e+01
1	 7.609112e-01	 1.524343e+00	-2.563050e+01
1	 7.426490e-01	 1.533323e+00	-2.522899e+01
1	 7.265044e-01	 1.499990e+00	-3.206377e+01
1	 7.085718e-01	 1.508544e+00	-3.157673e+01
1	 6.905761e-01	 1.516866e+00	-3.100667e+01
1	 6.725217e-01	 1.524956e+00	-3.037719e+01
1	 6.544129e-01	 1.532815e+00	-2.971207e+01
1	 6.362539e-01	 1.540441e+00	-2.903518e+01
1	 7.297333e-01	 1.506656e+00	-3.060648e+01
1	 7.117210e-01	 1.515248e+00	-3.012170e+01
1	 6.936454e-01	 1.523608e+00	-2.956294e+01
1	 6.755107e-01	 1.531734e+00	-2.895016e+01
1	 6.573214e-01	 1.539627e+00	-2.830342e+01
1	 6.390817e-01	 1.547288e+00	-2.764284e+01
1	 7.329622e-01	 1.513323e+00	-2.919376e+01
1	 7.148702e-01	 1.521953e+00	-2.871370e+01
1	 6.967146e-01	 1.530349e+00	-2.816465e+01
1	 6.784997e-01	 1.538512e+00	-2.756449e+01
1	 6.602299e-01	 1.546440e+00	-2.693122e+01
1	 6.419095e-01	 1.554134e+00	-2.628284e+01
1	 7.361911e-01	 1.519990e+00	-2.782620e+01
1	 7.180194e-01	 1.528658e+00	-2.735251e+01
1	 6.997838e-01	 1.537091e+00	-2.681105e+01
1	 6.814887e-01	 1.545289e+00	-2.621927e+01
1	 6.631384e-01	 1.553252e+00	-2.559468e+01
1	 6.447373e-01	 1.560980e+00	-2.495482e+01
1	 7.394201e-01	 1.526656e+00	-2.650442e+01
1	 7.211686e-01	 1.535362e+00	-2.603785e+01
1	 7.028530e-01	 1.543832e+00	-2.550140e+01
1	 6.844777e-01	 1.552067e+00	-2.491358e+01
1	 6.660469e-01	 1.560065e+00	-2.429302e+01
1	 6.475651e-01	 1.567827e+00	-2.365843e+01
1	 7.426490e-01	 1.533323e+00	-2.522899e+01
1	 7.243179e-01	 1.542067e+00	-2.476950e+01
1	 7.059223e-01	 1.550574e+00	-2.423496e+01
1	 6.874666e-01	 1.558844e+00	-2.364651e+01
1	 6.689554e-01	 1.566877e+00	-2.302548e+01
1	 6.503929e-01	 1.574673e+00	-2.239331e+01
1	 6.362539e-01	 1.540441e+00	-2.903518e+01
1	 6.180491e-01	 1.547835e+00	-2.838887e+01
1	 5.998026e-01	 1.554997e+00	-2.780346e+01
1	 5.815189e-01	 1.561926e+00	-2.728473e+01
1	 5.632020e-01	 1.568624e+00	-2.683833e+01
1	 5.448562e-01	 1.575090e+00	-2.646979e+01
1	 6.390817e-01	 1.547288e+00	-2.764284e+01
1	 6.207959e-01	 1.554714e+00	-2.700725e+01
1	 6.024684e-01	 1.561908e+00	-2.642783e+01
1	 5.841034e-01	 1.568868e+00	-2.591313e+01
1	 5.657052e-01	 1.575596e+00	-2.547164e+01
1	 5.472778e-01	 1.582091e+00	-2.511173e+01
1	 6.419095e-01	 1.554134e+00	-2.628284e+01
1	 6.235428e-01	 1.561594e+00	-2.565631e+01
1	 6.051342e-01	 1.568819e+00	-2.508351e+01
1	 5.866880e-01	 1.575810e+00	-2.457479e+01
1	 5.682083e-01	 1.582567e+00	-2.414043e+01
1	 5.496994e-01	 1.589091e+00	-2.379061e+01
1	 6.447373e-01	 1.560980e+00	-2.495482e+01
1	 6.262897e-01	 1.568473e+00	-2.433615e+01
1	 6.078000e-01	 1.575730e+00	-2.377086e+01
1	 5.892725e-01	 1.582752e+00	-2.327010e+01
1	 5.707114e-01	 1.589539e+00	-2.284496e+01
1	 5.521210e-01	 1.596092e+00	-2.250641e+01
1	 6.475651e-01	 1.567827e+00	-2.365843e+01
1	 6.290366e-01	 1.575352e+00	-2.304686e+01
1	 6.104658e-01	 1.582641e+00	-2.249021e+01
1	 5.918570e-01	 1.589694e+00	-2.199947e+01
1	 5.732145e-01	 1.596511e+00	-2.158552e+01
1	 5.545426e-01	 1.603092e+00	-2.125913e+01
1	 6.503929e-01	 1.574673e+00	-2.239331e+01
1	 6.317835e-01	 1.582231e+00	-2.178852e+01
1	 6.131316e-01	 1.589552e+00	-2.124190e+01
1	 5.944415e-01	 1.596636e+00	-2.076328e+01
1	 5.757176e-01	 1.603482e+00	-2.036237e+01
1	 5.569641e-01	 1.610092e+00	-2.004876e+01
1	 5.448562e-01	 1.575090e+00	-2.646979e+01
1	 5.264856e-01	 1.581326e+00	-2.619121e+01
1	 5.080944e-01	 1.587330e+00	-2.602865e+01
1	 4.896866e-01	 1.593105e+00	-2.600831e+01
1	 4.712662e-01	 1.598651e+00	-2.615624e+01
1	 4.528373e-01	 1.603969e+00	-2.649822e+01
1	 5.472778e-01	 1.582091e+00	-2.511173e+01
1	 5.288256e-01	 1.588354e+00	-2.484853e+01
1	 5.103526e-01	 1.594385e+00	-2.470781e+01
1	 4.918629e-01	 1.600186e+00	-2.471369e+01
1	 4.733607e-01	 1.605756e+00	-2.489007e+01
1	 4.548499e-01	 1.611098e+00	-2.526064e+01
1	 5.496994e-01	 1.589091e+00	-2.379061e+01
1	 5.311655e-01	 1.595382e+00	-2.354245e+01
1	 5.126108e-01	 1.601440e+00	-2.342150e+01
1	 4.940393e-01	 1.607266e+00	-2.345036e+01
1	 4.754552e-01	 1.612862e+00	-2.365145e+01
1	 4.568625e-01	 1.618226e+00	-2.404693e+01
1	 5.521210e-01	 1.596092e+00	-2.250641e+01
1	 5.335054e-01	 1.602410e+00	-2.227267e+01
1	 5.148690e-01	 1.608495e+00	-2.216924e+01
1	 4.962157e-01	 1.614347e+00	-2.221782e+01
1	 4.775498e-01	 1.619967e+00	-2.243991e+01
1	 4.588752e-01	 1.625355e+00	-2.285677e+01
1	 5.545426e-01	 1.603092e+00	-2.125913e+01
1	 5.358454e-01	 1.609438e+00	-2.103888e+01
1	 5.171272e-01	 1.615550e+00	-2.095055e+01
1	 4.983921e-01	 1.621427e+00	-2.101552e+01
1	 4.796443e-01	 1.627072e+00	-2.125497e+01
1	 4.608878e-01	 1.632484e+00	-2.168984e+01
1	 5.569641e-01	 1.610092e+00	-2.004876e+01
1	 5.381853e-01	 1.616466e+00	-1.984079e+01
1	 5.193854e-01	 1.622604e+00	-1.976498e+01
1	 5.005685e-01	 1.628508e+00	-1.984296e+01
1	 4.817388e-01	 1.634177e+00	-2.009616e+01
1	 4.629004e-01	 1.639613e+00	-2.054582e+01
1	 4.528373e-01	 1.603969e+00	-2.649822e+01
1	 4.344039e-01	 1.609059e+00	-2.706699e+01
1	 4.159698e-01	 1.613923e+00	-2.786762e+01
1	 3.975389e-01	 1.618561e+00	-2.888401e+01
1	 3.791151e-01	 1.622976e+00	-3.009992e+01
1	 3.607021e-01	 1.627167e+00	-3.149894e+01
1	 4.548499e-01	 1.611098e+00	-2.526064e+01
1	 4.363346e-01	 1.616210e+00	-2.585527e+01
1	 4.178185e-01	 1.621096e+00	-2.667940e+01
1	 3.993058e-01	 1.625755e+00	-2.771969e+01
1	 3.808001e-01	 1.630189e+00	-2.896261e+01
1	 3.623052e-01	 1.634399e+00	-3.039451e+01
1	 4.568625e-01	 1.618226e+00	-2.404693e+01
1	 4.382652e-01	 1.623362e+00	-2.466448e+01
1	 4.196673e-01	 1.628269e+00	-2.550991e+01
1	 4.010726e-01	 1.632948e+00	-2.657219e+01
1	 3.824850e-01	 1.637402e+00	-2.784012e+01
1	 3.639083e-01	 1.641630e+00	-2.930233e+01
1	 4.588752e-01	 1.625355e+00	-2.285677e+01
1	 4.401959e-01	 1.630513e+00	-2.349446e+01
1	 4.215161e-01	 1.635442e+00	-2.435905e+01
1	 4.028394e-01	 1.640142e+00	-2.544144e+01
1	 3.841700e-01	 1.644615e+00	-2.673230e+01
1	 3.655115e-01	 1.648862e+00	-2.822217e+01
1	 4.608878e-01	 1.632484e+00	-2.168984e+01
1	 4.421266e-01	 1.637665e+00	-2.234506e+01
1	 4.233648e-01	 1.642615e+00	-2.322677e+01
1	 4.046063e-01	 1.647336e+00	-2.432737e+01
1	 3.858549e-01	 1.651828e+00	-2.563904e+01
1	 3.671146e-01	 1.656094e+00	-2.715377e+01
1	 4.629004e-01	 1.639613e+00	-2.054582e+01
1	 4.440573e-01	 1.644816e+00	-2.121612e+01
1	 4.252136e-01	 1.649788e+00	-2.211299e+01
1	 4.063731e-01	 1.654529e+00	-2.322993e+01
1	 3.875399e-01	 1.659042e+00	-2.456021e+01
1	 3.687177e-01	 1.663326e+00	-2.609689e+01
1	 3.607021e-01	 1.627167e+00	-3.149894e+01
1	 3.423036e-01	 1.631136e+00	-3.310401e+01
1	 3.239233e-01	 1.634886e+00	-3.491840e+01
1	 3.055649e-01	 1.638416e+00	-3.689630e+01
1	 2.872317e-01	 1.641729e+00	-3.899212e+01
1	 2.689274e-01	 1.644827e+00	-4.116055e+01
1	 3.623052e-01	 1.634399e+00	-3.039451e+01
1	 3.438250e-01	 1.638386e+00	-3.203951e+01
1	 3.253630e-01	 1.642152e+00	-3.389914e+01
1	 3.069229e-01	 1.645698e+00	-3.592582e+01
1	 2.885083e-01	 1.649026e+00	-3.807222e+01
1	 2.701226e-01	 1.652137e+00	-4.029131e+01
1	 3.639083e-01	 1.641630e+00	-2.930233e+01
1	 3.453463e-01	 1.645635e+00	-3.098373e+01
1	 3.268027e-01	 1.649418e+00	-3.288410e+01
1	 3.082810e-01	 1.652980e+00	-3.495448e+01
1	 2.897849e-01	 1.656323e+00	-3.714614e+01
1	 2.713179e-01	 1.659448e+00	-3.941065e+01
1	 3.655115e-01	 1.648862e+00	-2.822217e+01
1	 3.468677e-01	 1.652885e+00	-2.993629e+01
1	 3.282423e-01	 1.656684e+00	-3.187286e+01
1	 3.096391e-01	 1.660262e+00	-3.398185e+01
1	 2.910615e-01	 1.663619e+00	-3.621346e+01
1	 2.725131e-01	 1.666758e+00	-3.851822e+01
1	 3.671146e-01	 1.656094e+00	-2.715377e+01
1	 3.483890e-01	 1.660134e+00	-2.889682e+01
1	 3.296820e-01	 1.663950e+00	-3.086498e+01
1	 3.109971e-01	 1.667544e+00	-3.300747e+01
1	 2.923381e-01	 1.670916e+00	-3.527377e+01
1	 2.737083e-01	 1.674068e+00	-3.761370e+01
1	 3.687177e-01	 1.663326e+00	-2.609689e+01
1	 3.499104e-01	 1.667384e+00	-2.786498e+01
1	 3.311216e-01	 1.671217e+00	-2.986005e+01
1	 3.123552e-01	 1.674826e+00	-3.203091e+01
1	 2.936146e-01	 1.678212e+00	-3.432667e+01
1	 2.749036e-01	 1.681379e+00	-3.669675e+01
1	 2.689274e-01	 1.644827e+00	-4.116055e+01
1	 2.506554e-01	 1.647710e+00	-4.335059e+01
1	 2.324189e-01	 1.650382e+00	-4.552163e+01
1	 2.142214e-01	 1.652842e+00	-4.764453e+01
1	 1.960661e-01	 1.655094e+00	-4.969053e+01
1	 1.779561e-01	 1.657139e+00	-5.163131e+01
1	 2.701226e-01	 1.652137e+00	-4.029131e+01
1	 2.517694e-01	 1.655034e+00	-4.253098e+01
1	 2.334519e-01	 1.657717e+00	-4.475060e+01
1	 2.151735e-01	 1.660188e+00	-4.692094e+01
1	 1.969375e-01	 1.662450e+00	-4.901314e+01
1	 1.787470e-01	 1.664504e+00	-5.099881e+01
1	 2.713179e-01	 1.659448e+00	-3.941065e+01
1	 2.528834e-01	 1.662357e+00	-4.169511e+01
1	 2.344849e-01	 1.665052e+00	-4.395891e+01
1	 2.161256e-01	 1.667534e+00	-4.617260e+01
1	 1.978089e-01	 1.669806e+00	-4.830713e+01
1	 1.795380e-01	 1.671869e+00	-5.033391e+01
1	 2.725131e-01	 1.666758e+00	-3.851822e+01
1	 2.539974e-01	 1.669680e+00	-4.084273e+01
1	 2.355179e-01	 1.672387e+00	-4.314635e+01
1	 2.170777e-01	 1.674880e+00	-4.539933e+01
1	 1.986803e-01	 1.677162e+00	-4.757234e+01
1	 1.803289e-01	 1.679234e+00	-4.963646e+01
1	 2.737083e-01	 1.674068e+00	-3.761370e+01
1	 2.551114e-01	 1.677003e+00	-3.997358e+01
1	 2.365508e-01	 1.679722e+00	-4.231273e+01
1	 2.180298e-01	 1.682226e+00	-4.460099e+01
1	 1.995517e-01	 1.684518e+00	-4.680860e+01
1	 1.811198e-01	 1.686599e+00	-4.890627e+01
1	 2.749036e-01	 1.681379e+00	-3.669675e+01
1	 2.562255e-01	 1.684326e+00	-3.908743e+01
1	 2.375838e-01	 1.687057e+00	-4.145786e+01
1	 2.189819e-01	 1.689572e+00	-4.377740e+01
1	 2.004231e-01	 1.691874e+00	-4.601578e+01
1	 1.819107e-01	 1.693964e+00	-4.814319e+01
1	 1.779561e-01	 1.657139e+00	-5.163131e+01
1	 1.598946e-01	 1.658979e+00	-5.343441e+01
1	 1.418845e-01	 1.660616e+00	-5.506192e+01
1	 1.239289e-01	 1.662053e+00	-5.647823e+01
1	 1.060307e-01	 1.663290e+00	-5.764844e+01
1	 8.819269e-02	 1.664332e+00	-5.853834e+01
1	 1.787470e-01	 1.664504e+00	-5.099881e+01
1	 1.606052e-01	 1.666352e+00	-5.284507e+01
1	 1.425151e-01	 1.667997e+00	-5.451335e+01
1	 1.244797e-01	 1.669440e+00	-5.596747e+01
1	 1.065020e-01	 1.670683e+00	-5.717195e+01
1	 8.858465e-02	 1.671729e+00	-5.809207e+01
1	 1.795380e-01	 1.671869e+00	-5.033391e+01
1	 1.613159e-01	 1.673726e+00	-5.221963e+01
1	 1.431457e-01	 1.675377e+00	-5.392510e+01
1	 1.250305e-01	 1.676827e+00	-5.541374e+01
1	 1.069732e-01	 1.678075e+00	-5.664970e+01
1	 8.897662e-02	 1.679126e+00	-5.759784e+01
1	 1.803289e-01	 1.679234e+00	-4.963646e+01
1	 1.620265e-01	 1.681099e+00	-5.155789e+01
1	 1.437763e-01	 1.682758e+00	-5.329697e+01
1	 1.255813e-01	 1.684213e+00	-5.481688e+01
1	 1.074445e-01	 1.685468e+00	-5.608151e+01
1	 8.936859e-02	 1.686523e+00	-5.705553e+01
1	 1.811198e-01	 1.686599e+00	-4.890627e+01
1	 1.627371e-01	 1.688472e+00	-5.085966e+01
1	 1.444069e-01	 1.690138e+00	-5.262877e+01
1	 1.261321e-01	 1.691600e+00	-5.417670e+01
1	 1.079157e-01	 1.692860e+00	-5.546725e+01
1	 8.976056e-02	 1.693920e+00	-5.646499e+01
1	 1.819107e-01	 1.693964e+00	-4.814319e+01
1	 1.634478e-01	 1.695845e+00	-5.012476e+01
1	 1.450375e-01	 1.697519e+00	-5.192032e+01
1	 1.266829e-01	 1.698987e+00	-5.349303e+01
1	 1.083869e-01	 1.700253e+00	-5.480674e+01
1	 9.015252e-02	 1.701317e+00	-5.582611e+01
1	 8.819269e-02	 1.664332e+00	-5.853834e+01
1	 7.041763e-02	 1.665178e+00	-5.911616e+01
1	 5.270824e-02	 1.665833e+00	-5.935557e+01
1	 3.506715e-02	 1.666298e+00	-5.923171e+01
1	 1.749691e-02	 1.666575e+00	-5.872044e+01
1	 0.000000e+00	 1.666667e+00	-5.779836e+01
1	 8.858465e-02	 1.671729e+00	-5.809207e+01
1	 7.073060e-02	 1.672579e+00	-5.869560e+01
1	 5.294250e-02	 1.673237e+00	-5.895591e+01
1	 3.522300e-02	 1.673703e+00	-5.884780e+01
1	 1.757467e-02	 1.673982e+00	-5.834683e+01
1	 0.000000e+00	 1.674074e+00	-5.742933e+01
1	 8.897662e-02	 1.679126e+00	-5.759784e+01
1	 7.104357e-02	 1.679980e+00	-5.822563e+01
1	 5.317676e-02	 1.680640e+00	-5.850610e+01
1	 3.537886e-02	 1.681109e+00	-5.841365e+01
1	 1.765243e-02	 1.681389e+00	-5.792348e+01
1	 0.000000e+00	 1.681481e+00	-5.701156e+01
1	 8.936859e-02	 1.686523e+00	-5.705553e+01
1	 7.135653e-02	 1.687381e+00	-5.770615e+01
1	 5.341102e-02	 1.688044e+00	-5.800603e+01
1	 3.553471e-02	 1.688515e+00	-5.792914e+01
1	 1.773020e-02	 1.688796e+00	-5.745022e+01
1	 0.000000e+00	 1.688889e+00	-5.654482e+01
1	 8.976056e-02	 1.693920e+00	-5.646499e+01
1	 7.166950e-02	 1.694782e+00	-5.713704e+01
1	 5.364528e-02	 1.695448e+00	-5.745561e+01
1	 3.569057e-02	 1.695921e+00	-5.739415e+01
1	 1.780796e-02	 1.696203e+00	-5.692689e+01
1	 0.000000e+00	 1.696296e+00	-5.602888e+01
1	 9.015252e-02	 1.701317e+00	-5.582611e+01
1	 7.198247e-02	 1.702182e+00	-5.651820e+01
1	 5.387954e-02	 1.702852e+00	-5.685472e+01
1	 3.584642e-02	 1.703327e+00	-5.680854e+01
1	 1.788573e-02	 1.703610e+00	-5.635331e+01
1	 0.000000e+00	 1.703704e+00	-5.546352e+01
1	 1.703704e+00	 0.000000e+00	 1.309593e+01
1	 1.703610e+00	 1.788573e-02	 1.292363e+01
1	 1.703327e+00	 3.584642e-02	 1.268932e+01
1	 1.702852e+00	 5.387954e-02	 1.239837e+01
1	 1.702182e+00	 7.198247e-02	 1.205625e+01
1	 1.701317e+00	 9.015252e-02	 1.166853e+01
1	 1.711111e+00	 0.000000e+00	 1.284593e+01
1	 1.711017e+00	 1.796349e-02	 1.268268e+01
1	 1.710732e+00	 3.600227e-02	 1.245634e+01
1	 1.710255e+00	 5.411380e-02	 1.217240e+01
1	 1.709583e+00	 7.229544e-02	 1.183647e+01
1	 1.708714e+00	 9.054449e-02	 1.145420e+01
1	 1.718519e+00	 0.000000e+00	 1.258990e+01
1	 1.718424e+00	 1.804125e-02	 1.243566e+01
1	 1.718138e+00	 3.615813e-02	 1.221741e+01
1	 1.717659e+00	 5.434806e-02	 1.194073e+01
1	 1.716984e+00	 7.260840e-02	 1.161131e+01
1	 1.716111e+00	 9.093646e-02	 1.123492e+01
1	 1.725926e+00	 0.000000e+00	 1.232787e+01
1	 1.725831e+00	 1.811902e-02	 1.218254e+01
1	 1.725544e+00	 3.631398e-02	 1.197245e+01
1	 1.725063e+00	 5.458232e-02	 1.170325e+01
1	 1.724385e+00	 7.292137e-02	 1.138069e+01
1	 1.723508e+00	 9.132843e-02	 1.101060e+01
1	 1.733333e+00	 0.000000e+00	 1.205984e+01
1	 1.733238e+00	 1.819678e-02	 1.192328e+01
1	 1.732950e+00	 3.646984e-02	 1.172139e+01
1	 1.732466e+00	 5.481657e-02	 1.145987e+01
1	 1.731786e+00	 7.323434e-02	 1.114449e+01
1	 1.730905e+00	 9.172039e-02	 1.078112e+01
1	 1.740741e+00	 0.000000e+00	 1.178583e+01
1	 1.740645e+00	 1.827455e-02	 1.165785e+01
1	 1.740355e+00	 3.662569e-02	 1.146417e+01
1	 1.739870e+00	 5.505083e-02	 1.121050e+01
1	 1.739186e+00	 7.354730e-02	 1.090262e+01
1	 1.738302e+00	 9.211236e-02	 1.054640e+01
1	 1.701317e+00	 9.015252e-02	 1.166853e+01
1	 1.700253e+00	 1.083869e-01	 1.123772e+01
1	 1.698987e+00	 1.266829e-01	 1.076708e+01
1	 1.697519e+00	 1.450375e-01	 1.026337e+01
1	 1.695845e+00	 1.634478e-01	 9.733426e+00
1	 1.693964e+00	 1.819107e-01	 9.184117e+00
1	 1.708714e+00	 9.054449e-02	 1.145420e+01
1	 1.707645e+00	 1.088582e-01	 1.102819e+01
1	 1.706374e+00	 1.272337e-01	 1.056164e+01
1	 1.704899e+00	 1.456681e-01	 1.006131e+01
1	 1.703218e+00	 1.641584e-01	 9.533999e+00
1	 1.701329e+00	 1.827016e-01	 8.986558e+00
1	 1.716111e+00	 9.093646e-02	 1.123492e+01
1	 1.715037e+00	 1.093294e-01	 1.081421e+01
1	 1.713761e+00	 1.277845e-01	 1.035238e+01
1	 1.712280e+00	 1.462987e-01	 9.856149e+00
1	 1.710592e+00	 1.648691e-01	 9.332287e+00
1	 1.708694e+00	 1.834925e-01	 8.787626e+00
1	 1.723508e+00	 9.132843e-02	 1.101060e+01
1	 1.722430e+00	 1.098007e-01	 1.059569e+01
1	 1.721148e+00	 1.283353e-01	 1.013919e+01
1	 1.719660e+00	 1.469293e-01	 9.647761e+00
1	 1.717965e+00	 1.655797e-01	 9.128143e+00
1	 1.716059e+00	 1.842834e-01	 8.587133e+00
1	 1.730905e+00	 9.172039e-02	 1.078112e+01
1	 1.729822e+00	 1.102719e-01	 1.037254e+01
1	 1.728535e+00	 1.288861e-01	 9.921969e+00
1	 1.727041e+00	 1.475599e-01	 9.436030e+00
1	 1.725338e+00	 1.662904e-01	 8.921421e+00
1	 1.723424e+00	 1.850744e-01	 8.384893e+00
1	 1.738302e+00	 9.211236e-02	 1.054640e+01
1	 1.737215e+00	 1.107432e-01	 1.014466e+01
1	 1.735922e+00	 1.294369e-01	 9.700618e+00
1	 1.734421e+00	 1.481905e-01	 9.220843e+00
1	 1.732711e+00	 1.670010e-01	 8.711979e+00
1	 1.730790e+00	 1.858653e-01	 8.180725e+00
1	 1.693964e+00	 1.819107e-01	 9.184117e+00
1	 1.691874e+00	 2.004231e-01	 8.624098e+00
1	 1.689572e+00	 2.189819e-01	 8.060970e+00
1	 1.687057e+00	 2.375838e-01	 7.500050e+00
1	 1.684326e+00	 2.562255e-01	 6.946634e+00
1	 1.681379e+00	 2.749036e-01	 6.405995e+00
1	 1.701329e+00	 1.827016e-01	 8.986558e+00
1	 1.699230e+00	 2.012945e-01	 8.427653e+00
1	 1.696918e+00	 2.199340e-01	 7.864975e+00
1	 1.694392e+00	 2.386168e-01	 7.303945e+00
1	 1.691649e+00	 2.573395e-01	 6.749964e+00
1	 1.688689e+00	 2.760988e-01	 6.208401e+00
1	 1.708694e+00	 1.834925e-01	 8.787626e+00
1	 1.706586e+00	 2.021659e-01	 8.230790e+00
1	 1.704264e+00	 2.208861e-01	 7.669503e+00
1	 1.701727e+00	 2.396497e-01	 7.109276e+00
1	 1.698973e+00	 2.584535e-01	 6.555597e+00
1	 1.695999e+00	 2.772940e-01	 6.013921e+00
1	 1.716059e+00	 1.842834e-01	 8.587133e+00
1	 1.713942e+00	 2.030373e-01	 8.033279e+00
1	 1.711610e+00	 2.218382e-01	 7.474303e+00
1	 1.709062e+00	 2.406827e-01	 6.915787e+00
1	 1.706296e+00	 2.595675e-01	 6.363289e+00
1	 1.703310e+00	 2.784893e-01	 5.822335e+00
1	 1.723424e+00	 1.850744e-01	 8.384893e+00
1	 1.721298e+00	 2.039088e-01	 7.834899e+00
1	 1.718956e+00	 2.227903e-01	 7.279131e+00
1	 1.716397e+00	 2.417157e-01	 6.723225e+00
1	 1.713619e+00	 2.606816e-01	 6.172796e+00
1	 1.710620e+00	 2.796845e-01	 5.633425e+00
1	 1.730790e+00	 1.858653e-01	 8.180725e+00
1	 1.728654e+00	 2.047802e-01	 7.635431e+00
1	 1.726302e+00	 2.237424e-01	 7.083745e+00
1	 1.723732e+00	 2.427487e-01	 6.531343e+00
1	 1.720942e+00	 2.617956e-01	 5.983880e+00
1	 1.717930e+00	 2.808797e-01	 5.446980e+00
1	 1.681379e+00	 2.749036e-01	 6.405995e+00
1	 1.678212e+00	 2.936146e-01	 5.886355e+00
1	 1.674826e+00	 3.123552e-01	 5.397998e+00
1	 1.671217e+00	 3.311216e-01	 4.949215e+00
1	 1.667384e+00	 3.499104e-01	 4.548212e+00
1	 1.663326e+00	 3.687177e-01	 4.203096e+00
1	 1.688689e+00	 2.760988e-01	 6.208401e+00
1	 1.685509e+00	 2.948912e-01	 5.687402e+00
1	 1.682107e+00	 3.137133e-01	 5.197153e+00
1	 1.678483e+00	 3.325613e-01	 4.746018e+00
1	 1.674633e+00	 3.514317e-01	 4.342286e+00
1	 1.670558e+00	 3.703208e-01	 3.994153e+00
1	 1.695999e+00	 2.772940e-01	 6.013921e+00
1	 1.692806e+00	 2.961678e-01	 5.492354e+00
1	 1.689389e+00	 3.150713e-01	 5.001035e+00
1	 1.685749e+00	 3.340010e-01	 4.548392e+00
1	 1.681883e+00	 3.529531e-01	 4.142790e+00
1	 1.677790e+00	 3.719239e-01	 3.792506e+00
1	 1.703310e+00	 2.784893e-01	 5.822335e+00
1	 1.700102e+00	 2.974444e-01	 5.301017e+00
1	 1.696671e+00	 3.164294e-01	 4.809452e+00
1	 1.693015e+00	 3.354406e-01	 4.356133e+00
1	 1.689132e+00	 3.544744e-01	 3.949489e+00
1	 1.685022e+00	 3.735271e-01	 3.597868e+00
1	 1.710620e+00	 2.796845e-01	 5.633425e+00
1	 1.707399e+00	 2.987210e-01	 5.113198e+00
1	 1.703953e+00	 3.177874e-01	 4.622221e+00
1	 1.700281e+00	 3.368803e-01	 4.169043e+00
1	 1.696382e+00	 3.559958e-01	 3.762153e+00
1	 1.692253e+00	 3.751302e-01	 3.409961e+00
1	 1.717930e+00	 2.808797e-01	 5.446980e+00
1	 1.714695e+00	 2.999976e-01	 4.928709e+00
1	 1.711235e+00	 3.191455e-01	 4.439157e+00
1	 1.707547e+00	 3.383199e-01	 3.986927e+00
1	 1.703631e+00	 3.575171e-01	 3.580556e+00
1	 1.699485e+00	 3.767333e-01	 3.228506e+00
1	 1.663326e+00	 3.687177e-01	 4.203096e+00
1	 1.659042e+00	 3.875399e-01	 3.908587e+00
1	 1.654529e+00	 4.063731e-01	 3.654186e+00
1	 1.649788e+00	 4.252136e-01	 3.439997e+00
1	 1.644816e+00	 4.440573e-01	 3.265999e+00
1	 1.639613e+00	 4.629004e-01	 3.132042e+00
1	 1.670558e+00	 3.703208e-01	 3.994153e+00
1	 1.666255e+00	 3.892248e-01	 3.696776e+00
1	 1.661723e+00	 4.081400e-01	 3.439914e+00
1	 1.656961e+00	 4.270623e-01	 3.223496e+00
1	 1.651967e+00	 4.459880e-01	 3.047312e+00
1	 1.646741e+00	 4.649130e-01	 2.911015e+00
1	 1.677790e+00	 3.719239e-01	 3.792506e+00
1	 1.673468e+00	 3.909098e-01	 3.493062e+00
1	 1.668917e+00	 4.099068e-01	 3.234405e+00
1	 1.664134e+00	 4.289111e-01	 3.016272e+00
1	 1.659119e+00	 4.479187e-01	 2.838256e+00
1	 1.653870e+00	 4.669256e-01	 2.699808e+00
1	 1.685022e+00	 3.735271e-01	 3.597868e+00
1	 1.680681e+00	 3.925948e-01	 3.297116e+00
1	 1.676110e+00	 4.116736e-01	 3.037317e+00
1	 1.671307e+00	 4.307598e-01	 2.818007e+00
1	 1.666270e+00	 4.498494e-01	 2.638572e+00
1	 1.660999e+00	 4.689382e-01	 2.498254e+00
1	 1.692253e+00	 3.751302e-01	 3.409961e+00
1	 1.687895e+00	 3.942797e-01	 3.108614e+00
1	 1.683304e+00	 4.134405e-01	 2.848318e+00
1	 1.678480e+00	 4.326086e-01	 2.628390e+00
1	 1.673421e+00	 4.517800e-01	 2.448004e+00
1	 1.668128e+00	 4.709508e-01	 2.306185e+00
1	 1.699485e+00	 3.767333e-01	 3.228506e+00
1	 1.695108e+00	 3.959647e-01	 2.927237e+00
1	 1.690497e+00	 4.152073e-01	 2.667077e+00
1	 1.685653e+00	 4.344573e-01	 2.447115e+00
1	 1.680573e+00	 4.537107e-01	 2.266300e+00
1	 1.675256e+00	 4.729634e-01	 2.123438e+00
1	 1.639613e+00	 4.629004e-01	 3.132042e+00
1	 1.634177e+00	 4.817388e-01	 3.032801e+00
1	 1.628508e+00	 5.005685e-01	 2.959984e+00
1	 1.622604e+00	 5.193854e-01	 2.908871e+00
1	 1.616466e+00	 5.381853e-01	 2.874722e+00
1	 1.610092e+00	 5.569641e-01	 2.852774e+00
1	 1.646741e+00	 4.649130e-01	 2.911015e+00
1	 1.641282e+00	 4.838333e-01	 2.809721e+00
1	 1.635588e+00	 5.027449e-01	 2.735704e+00
1	 1.629659e+00	 5.216436e-01	 2.684238e+00
1	 1.623494e+00	 5.405253e-01	 2.650582e+00
1	 1.617093e+00	 5.593857e-01	 2.629993e+00
1	 1.653870e+00	 4.669256e-01	 2.699808e+00
1	 1.648387e+00	 4.859278e-01	 2.596555e+00
1	 1.642669e+00	 5.049213e-01	 2.521438e+00
1	 1.636714e+00	 5.239018e-01	 2.469760e+00
1	 1.630522e+00	 5.428652e-01	 2.436815e+00
1	 1.624093e+00	 5.618073e-01	 2.417903e+00
1	 1.660999e+00	 4.689382e-01	 2.498254e+00
1	 1.655492e+00	 4.880223e-01	 2.393219e+00
1	 1.649749e+00	 5.070976e-01	 2.317135e+00
1	 1.643769e+00	 5.261600e-01	 2.265369e+00
1	 1.637551e+00	 5.452051e-01	 2.233286e+00
1	 1.631094e+00	 5.642289e-01	 2.216254e+00
1	 1.668128e+00	 4.709508e-01	 2.306185e+00
1	 1.662597e+00	 4.901169e-01	 2.199628e+00
1	 1.656830e+00	 5.092740e-01	 2.122743e+00
1	 1.650824e+00	 5.284182e-01	 2.071001e+00
1	 1.644579e+00	 5.475451e-01	 2.039865e+00
1	 1.638094e+00	 5.666505e-01	 2.024798e+00
1	 1.675256e+00	 4.729634e-01	 2.123438e+00
1	 1.669702e+00	 4.922114e-01	 2.015701e+00
1	 1.663910e+00	 5.114504e-01	 1.938215e+00
1	 1.657878e+00	 5.306764e-01	 1.886591e+00
1	 1.651607e+00	 5.498850e-01	 1.856423e+00
1	 1.645094e+00	 5.690721e-01	 1.843294e+00
1	 1.610092e+00	 5.569641e-01	 2.852774e+00
1	 1.603482e+00	 5.757176e-01	 2.834116e+00
1	 1.596636e+00	 5.944415e-01	 2.811564e+00
1	 1.589552e+00	 6.131316e-01	 2.782958e+00
1	 1.582231e+00	 6.317835e-01	 2.746163e+00
1	 1.574673e+00	 6.503929e-01	 2.699064e+00
1	 1.617093e+00	 5.593857e-01	 2.629993e+00
1	 1.610454e+00	 5.782208e-01	 2.613448e+00
1	 1.603578e+00	 5.970261e-01	 2.593743e+00
1	 1.596463e+00	 6.157974e-01	 2.568867e+00
1	 1.589111e+00	 6.345304e-01	 2.536805e+00
1	 1.581520e+00	 6.532206e-01	 2.495542e+00
1	 1.624093e+00	 5.618073e-01	 2.417903e+00
1	 1.617426e+00	 5.807239e-01	 2.403787e+00
1	 1.610519e+00	 5.996106e-01	 2.387093e+00
1	 1.603374e+00	 6.184632e-01	 2.365912e+00
1	 1.595990e+00	 6.372772e-01	 2.338319e+00
1	 1.588366e+00	 6.560484e-01	 2.302376e+00
1	 1.631094e+00	 5.642289e-01	 2.216254e+00
1	 1.624397e+00	 5.832270e-01	 2.204773e+00
1	 1.617461e+00	 6.021951e-01	 2.191206e+00
1	 1.610285e+00	 6.211290e-01	 2.173708e+00
1	 1.602869e+00	 6.400241e-01	 2.150412e+00
1	 1.595212e+00	 6.588762e-01	 2.119431e+00
1	 1.638094e+00	 5.666505e-01	 2.024798e+00
1	 1.631369e+00	 5.857301e-01	 2.016049e+00
1	 1.624403e+00	 6.047797e-01	 2.005684e+00
1	 1.617197e+00	 6.237948e-01	 1.991880e+00
1	 1.609748e+00	 6.427710e-01	 1.972797e+00
1	 1.602059e+00	 6.617040e-01	 1.946575e+00
1	 1.645094e+00	 5.690721e-01	 1.843294e+00
1	 1.638341e+00	 5.882332e-01	 1.837267e+00
1	 1.631345e+00	 6.073642e-01	 1.830133e+00
1	 1.624108e+00	 6.264605e-01	 1.820056e+00
1	 1.616628e+00	 6.455179e-01	 1.805189e+00
1	 1.608905e+00	 6.645318e-01	 1.783676e+00
1	 1.574673e+00	 6.503929e-01	 2.699064e+00
1	 1.566877e+00	 6.689554e-01	 2.618764e+00
1	 1.558844e+00	 6.874666e-01	 2.482515e+00
1	 1.550574e+00	 7.059223e-01	 2.288652e+00
1	 1.542067e+00	 7.243179e-01	 2.035788e+00
1	 1.533323e+00	 7.426490e-01	 1.722814e+00
1	 1.581520e+00	 6.532206e-01	 2.495542e+00
1	 1.573690e+00	 6.718639e-01	 2.423124e+00
1	 1.565622e+00	 6.904556e-01	 2.297464e+00
1	 1.557316e+00	 7.089915e-01	 2.116586e+00
1	 1.548771e+00	 7.274671e-01	 1.878827e+00
1	 1.539989e+00	 7.458779e-01	 1.582844e+00
1	 1.588366e+00	 6.560484e-01	 2.302376e+00
1	 1.580502e+00	 6.747724e-01	 2.237274e+00
1	 1.572400e+00	 6.934446e-01	 2.121837e+00
1	 1.564057e+00	 7.120607e-01	 1.953811e+00
1	 1.555476e+00	 7.306163e-01	 1.731283e+00
1	 1.546656e+00	 7.491068e-01	 1.452691e+00
1	 1.595212e+00	 6.588762e-01	 2.119431e+00
1	 1.587315e+00	 6.776809e-01	 2.061225e+00
1	 1.579177e+00	 6.964336e-01	 1.955689e+00
1	 1.570799e+00	 7.151300e-01	 1.800329e+00
1	 1.562181e+00	 7.337655e-01	 1.593009e+00
1	 1.553323e+00	 7.523357e-01	 1.331957e+00
1	 1.602059e+00	 6.617040e-01	 1.946575e+00
1	 1.594128e+00	 6.805894e-01	 1.894984e+00
1	 1.585955e+00	 6.994226e-01	 1.799072e+00
1	 1.577541e+00	 7.181992e-01	 1.656142e+00
1	 1.568885e+00	 7.369147e-01	 1.463858e+00
1	 1.559989e+00	 7.555646e-01	 1.220249e+00
1	 1.608905e+00	 6.645318e-01	 1.783676e+00
1	 1.600940e+00	 6.834979e-01	 1.738559e+00
1	 1.592732e+00	 7.024116e-01	 1.652039e+00
1	 1.584282e+00	 7.212684e-01	 1.521254e+00
1	 1.575590e+00	 7.400639e-01	 1.343687e+00
1	 1.566656e+00	 7.587935e-01	 1.117182e+00
1	 1.533323e+00	 7.426490e-01	 1.722814e+00
1	 1.524343e+00	 7.609112e-01	 1.353945e+00
1	 1.515127e+00	 7.791000e-01	 9.342147e-01
1	 1.505676e+00	 7.972111e-01	 4.643317e-01
1	 1.495991e+00	 8.152399e-01	-5.450080e-02
1	 1.486073e+00	 8.331821e-01	-6.205778e-01
1	 1.539989e+00	 7.458779e-01	 1.582844e+00
1	 1.530970e+00	 7.642195e-01	 1.233206e+00
1	 1.521714e+00	 7.824874e-01	 8.356785e-01
1	 1.512223e+00	 8.006772e-01	 3.912602e-01
1	 1.502496e+00	 8.187845e-01	-9.865189e-02
1	 1.492534e+00	 8.368046e-01	-6.322594e-01
1	 1.546656e+00	 7.491068e-01	 1.452691e+00
1	 1.537598e+00	 7.675278e-01	 1.122478e+00
1	 1.528302e+00	 7.858748e-01	 7.466422e-01
1	 1.518769e+00	 8.041434e-01	 3.264585e-01
1	 1.509000e+00	 8.223290e-01	-1.364756e-01
1	 1.498996e+00	 8.404272e-01	-6.402390e-01
1	 1.553323e+00	 7.523357e-01	 1.331957e+00
1	 1.544225e+00	 7.708361e-01	 1.021144e+00
1	 1.534889e+00	 7.892622e-01	 6.664323e-01
1	 1.525315e+00	 8.076095e-01	 2.693603e-01
1	 1.515504e+00	 8.258735e-01	-1.682669e-01
1	 1.505457e+00	 8.440497e-01	-6.443769e-01
1	 1.559989e+00	 7.555646e-01	 1.220249e+00
1	 1.550853e+00	 7.741444e-01	 9.285962e-01
1	 1.541477e+00	 7.926496e-01	 5.943868e-01
1	 1.531862e+00	 8.110756e-01	 2.194091e-01
1	 1.522009e+00	 8.294180e-01	-1.943162e-01
1	 1.511918e+00	 8.476722e-01	-6.445362e-01
1	 1.566656e+00	 7.587935e-01	 1.117182e+00
1	 1.557481e+00	 7.774527e-01	 8.442378e-01
1	 1.548064e+00	 7.960370e-01	 5.298549e-01
1	 1.538408e+00	 8.145418e-01	 1.760580e-01
1	 1.528513e+00	 8.329625e-01	-2.149084e-01
1	 1.518379e+00	 8.512948e-01	-6.405819e-01
1	 1.486073e+00	 8.331821e-01	-6.205778e-01
1	 1.475923e+00	 8.510332e-01	-1.233935e+00
1	 1.465542e+00	 8.687888e-01	-1.894448e+00
1	 1.454930e+00	 8.864445e-01	-2.599789e+00
1	 1.444091e+00	 9.039959e-01	-3.347625e+00
1	 1.433024e+00	 9.214387e-01	-4.135625e+00
1	 1.492534e+00	 8.368046e-01	-6.322594e-01
1	 1.482340e+00	 8.547334e-01	-1.211153e+00
1	 1.471914e+00	 8.725662e-01	-1.836980e+00
1	 1.461256e+00	 8.902986e-01	-2.507648e+00
1	 1.450369e+00	 9.079263e-01	-3.220973e+00
1	 1.439254e+00	 9.254449e-01	-3.974681e+00
1	 1.498996e+00	 8.404272e-01	-6.402390e-01
1	 1.488757e+00	 8.584335e-01	-1.187302e+00
1	 1.478285e+00	 8.763435e-01	-1.780404e+00
1	 1.467582e+00	 8.941527e-01	-2.417668e+00
1	 1.456648e+00	 9.118567e-01	-3.097059e+00
1	 1.445485e+00	 9.294512e-01	-3.816384e+00
1	 1.505457e+00	 8.440497e-01	-6.443769e-01
1	 1.495174e+00	 8.621336e-01	-1.161818e+00
1	 1.484657e+00	 8.801208e-01	-1.723928e+00
1	 1.473908e+00	 8.980068e-01	-2.329017e+00
1	 1.462927e+00	 9.157872e-01	-2.975200e+00
1	 1.451715e+00	 9.334574e-01	-3.660394e+00
1	 1.511918e+00	 8.476722e-01	-6.445362e-01
1	 1.501591e+00	 8.658338e-01	-1.134152e+00
1	 1.491029e+00	 8.838982e-01	-1.666773e+00
1	 1.480234e+00	 9.018609e-01	-2.240875e+00
1	 1.469205e+00	 9.197176e-01	-2.854725e+00
1	 1.457946e+00	 9.374637e-01	-3.506376e+00
1	 1.518379e+00	 8.512948e-01	-6.405819e-01
1	 1.508008e+00	 8.695339e-01	-1.103761e+00
1	 1.497401e+00	 8.876755e-01	-1.608174e+00
1	 1.486559e+00	 9.057150e-01	-2.152439e+00
1	 1.475484e+00	 9.236480e-01	-2.734974e+00
1	 1.464176e+00	 9.414699e-01	-3.353998e+00
1	 1.433024e+00	 9.214387e-01	-4.135625e+00
1	 1.421731e+00	 9.387684e-01	-4.930484e+00
1	 1.410215e+00	 9.559809e-01	-5.701942e+00
1	 1.398477e+00	 9.730718e-01	-6.452555e+00
1	 1.386518e+00	 9.900368e-01	-7.185288e+00
1	 1.374342e+00	 1.006872e+00	-7.903519e+00
1	 1.439254e+00	 9.254449e-01	-3.974681e+00
1	 1.427913e+00	 9.428500e-01	-4.736817e+00
1	 1.416347e+00	 9.601373e-01	-5.478087e+00
1	 1.404557e+00	 9.773025e-01	-6.200433e+00
1	 1.392547e+00	 9.943413e-01	-6.906204e+00
1	 1.380317e+00	 1.011250e+00	-7.598147e+00
1	 1.445485e+00	 9.294512e-01	-3.816384e+00
1	 1.434094e+00	 9.469316e-01	-4.545326e+00
1	 1.422478e+00	 9.642938e-01	-5.255840e+00
1	 1.410638e+00	 9.815333e-01	-5.949312e+00
1	 1.398575e+00	 9.986459e-01	-6.627504e+00
1	 1.386293e+00	 1.015627e+00	-7.292552e+00
1	 1.451715e+00	 9.334574e-01	-3.660394e+00
1	 1.440276e+00	 9.510132e-01	-4.356050e+00
1	 1.428609e+00	 9.684502e-01	-5.035515e+00
1	 1.416718e+00	 9.857640e-01	-5.699665e+00
1	 1.404603e+00	 1.002950e+00	-6.349710e+00
1	 1.392268e+00	 1.020005e+00	-6.987195e+00
1	 1.457946e+00	 9.374637e-01	-3.506376e+00
1	 1.446457e+00	 9.550948e-01	-4.169028e+00
1	 1.434741e+00	 9.726066e-01	-4.817419e+00
1	 1.422798e+00	 9.899948e-01	-5.451958e+00
1	 1.410632e+00	 1.007255e+00	-6.073337e+00
1	 1.398243e+00	 1.024383e+00	-6.682531e+00
1	 1.464176e+00	 9.414699e-01	-3.353998e+00
1	 1.452639e+00	 9.591764e-01	-3.984302e+00
1	 1.440872e+00	 9.767631e-01	-4.601852e+00
1	 1.428879e+00	 9.942255e-01	-5.206647e+00
1	 1.416660e+00	 1.011559e+00	-5.798891e+00
1	 1.404219e+00	 1.028760e+00	-6.379004e+00
1	 1.374342e+00	 1.006872e+00	-7.903519e+00
1	 1.361949e+00	 1.023573e+00	-8.556848e+00
1	 1.349342e+00	 1.040135e+00	-9.092495e+00
1	 1.336524e+00	 1.056555e+00	-9.510640e+00
1	 1.323497e+00	 1.072829e+00	-9.811557e+00
1	 1.310263e+00	 1.088952e+00	-9.995619e+00
1	 1.380317e+00	 1.011250e+00	-7.598147e+00
1	 1.367871e+00	 1.028023e+00	-8.224366e+00
1	 1.355209e+00	 1.044658e+00	-8.731741e+00
1	 1.342335e+00	 1.061149e+00	-9.121609e+00
1	 1.329251e+00	 1.077494e+00	-9.395489e+00
1	 1.315960e+00	 1.093687e+00	-9.555076e+00
1	 1.386293e+00	 1.015627e+00	-7.292552e+00
1	 1.373792e+00	 1.032473e+00	-7.891409e+00
1	 1.361076e+00	 1.049180e+00	-8.370917e+00
1	 1.348146e+00	 1.065743e+00	-8.733527e+00
1	 1.335006e+00	 1.082158e+00	-8.981952e+00
1	 1.321656e+00	 1.098422e+00	-9.119168e+00
1	 1.392268e+00	 1.020005e+00	-6.987195e+00
1	 1.379714e+00	 1.036924e+00	-7.558335e+00
1	 1.366943e+00	 1.053702e+00	-8.010309e+00
1	 1.353957e+00	 1.070337e+00	-8.346631e+00
1	 1.340760e+00	 1.086823e+00	-8.571168e+00
1	 1.327353e+00	 1.103156e+00	-8.688135e+00
1	 1.398243e+00	 1.024383e+00	-6.682531e+00
1	 1.385635e+00	 1.041374e+00	-7.225496e+00
1	 1.372809e+00	 1.058225e+00	-7.650195e+00
1	 1.359768e+00	 1.074930e+00	-7.961156e+00
1	 1.346514e+00	 1.091487e+00	-8.163356e+00
1	 1.333050e+00	 1.107891e+00	-8.262212e+00
1	 1.404219e+00	 1.028760e+00	-6.379004e+00
1	 1.391557e+00	 1.045824e+00	-6.893238e+00
1	 1.378676e+00	 1.062747e+00	-7.290849e+00
1	 1.365579e+00	 1.079524e+00	-7.577333e+00
1	 1.352269e+00	 1.096151e+00	-7.758733e+00
1	 1.338747e+00	 1.112625e+00	-7.841628e+00
1	 1.310263e+00	 1.088952e+00	-9.995619e+00
1	 1.296825e+00	 1.104922e+00	-1.009753e+01
1	 1.283186e+00	 1.120732e+00	-1.015858e+01
1	 1.269348e+00	 1.136381e+00	-1.018973e+01
1	 1.255314e+00	 1.151865e+00	-1.020265e+01
1	 1.241088e+00	 1.167179e+00	-1.020975e+01
1	 1.315960e+00	 1.093687e+00	-9.555076e+00
1	 1.302463e+00	 1.109726e+00	-9.638265e+00
1	 1.288765e+00	 1.125605e+00	-9.687799e+00
1	 1.274867e+00	 1.141322e+00	-9.713279e+00
1	 1.260772e+00	 1.156873e+00	-9.724964e+00
1	 1.246484e+00	 1.172254e+00	-9.733750e+00
1	 1.321656e+00	 1.098422e+00	-9.119168e+00
1	 1.308102e+00	 1.114530e+00	-9.185669e+00
1	 1.294344e+00	 1.130478e+00	-9.225088e+00
1	 1.280385e+00	 1.146263e+00	-9.245741e+00
1	 1.266230e+00	 1.161881e+00	-9.256517e+00
1	 1.251880e+00	 1.177328e+00	-9.266859e+00
1	 1.327353e+00	 1.103156e+00	-8.688135e+00
1	 1.313740e+00	 1.119334e+00	-8.740006e+00
1	 1.299923e+00	 1.135351e+00	-8.770744e+00
1	 1.285904e+00	 1.151204e+00	-8.787434e+00
1	 1.271688e+00	 1.166889e+00	-8.797648e+00
1	 1.257276e+00	 1.182403e+00	-8.809426e+00
1	 1.333050e+00	 1.107891e+00	-8.262212e+00
1	 1.319378e+00	 1.124138e+00	-8.301538e+00
1	 1.305502e+00	 1.140223e+00	-8.325056e+00
1	 1.291423e+00	 1.156145e+00	-8.338671e+00
1	 1.277146e+00	 1.171897e+00	-8.348688e+00
1	 1.262672e+00	 1.187478e+00	-8.361796e+00
1	 1.338747e+00	 1.112625e+00	-7.841628e+00
1	 1.325017e+00	 1.128942e+00	-7.870525e+00
1	 1.311081e+00	 1.145096e+00	-7.888308e+00
1	 1.296942e+00	 1.161085e+00	-7.899757e+00
1	 1.282604e+00	 1.176905e+00	-7.909959e+00
1	 1.268068e+00	 1.192552e+00	-7.924304e+00
1	 1.241088e+00	 1.167179e+00	-1.020975e+01
1	 1.226672e+00	 1.182320e+00	-1.025150e+01
1	 1.212070e+00	 1.197285e+00	-1.035936e+01
1	 1.197285e+00	 1.212070e+00	-1.053258e+01
1	 1.182320e+00	 1.226672e+00	-1.077027e+01
1	 1.167179e+00	 1.241088e+00	-1.107134e+01
1	 1.246484e+00	 1.172254e+00	-9.733750e+00
1	 1.232006e+00	 1.187461e+00	-9.776244e+00
1	 1.217340e+00	 1.202491e+00	-9.881560e+00
1	 1.202491e+00	 1.217340e+00	-1.004973e+01
1	 1.187461e+00	 1.232006e+00	-1.028064e+01
1	 1.172254e+00	 1.246484e+00	-1.057406e+01
1	 1.251880e+00	 1.177328e+00	-9.266859e+00
1	 1.237339e+00	 1.192601e+00	-9.309934e+00
1	 1.222610e+00	 1.207696e+00	-9.412811e+00
1	 1.207696e+00	 1.222610e+00	-9.576119e+00
1	 1.192601e+00	 1.237339e+00	-9.800392e+00
1	 1.177328e+00	 1.251880e+00	-1.008606e+01
1	 1.257276e+00	 1.182403e+00	-8.809426e+00
1	 1.242672e+00	 1.197742e+00	-8.852904e+00
1	 1.227880e+00	 1.212902e+00	-8.953375e+00
1	 1.212902e+00	 1.227880e+00	-9.111914e+00
1	 1.197742e+00	 1.242672e+00	-9.329522e+00
1	 1.182403e+00	 1.257276e+00	-9.607133e+00
1	 1.262672e+00	 1.187478e+00	-8.361796e+00
1	 1.248006e+00	 1.202882e+00	-8.405483e+00
1	 1.233150e+00	 1.218108e+00	-8.503516e+00
1	 1.218108e+00	 1.233150e+00	-8.657257e+00
1	 1.202882e+00	 1.248006e+00	-8.868016e+00
1	 1.187478e+00	 1.262672e+00	-9.137052e+00
1	 1.268068e+00	 1.192552e+00	-7.924304e+00
1	 1.253339e+00	 1.208023e+00	-7.967991e+00
1	 1.238420e+00	 1.223313e+00	-8.063491e+00
1	 1.223313e+00	 1.238420e+00	-8.212296e+00
1	 1.208023e+00	 1.253339e+00	-8.415863e+00
1	 1.192552e+00	 1.268068e+00	-8.675609e+00
1	 1.167179e+00	 1.241088e+00	-1.107134e+01
1	 1.151865e+00	 1.255314e+00	-1.146934e+01
1	 1.136381e+00	 1.269348e+00	-1.198866e+01
1	 1.120732e+00	 1.283186e+00	-1.261378e+01
1	 1.104922e+00	 1.296825e+00	-1.332838e+01
1	 1.088952e+00	 1.310263e+00	-1.411542e+01
1	 1.172254e+00	 1.246484e+00	-1.057406e+01
1	 1.156873e+00	 1.260772e+00	-1.096197e+01
1	 1.141322e+00	 1.274867e+00	-1.146682e+01
1	 1.125605e+00	 1.288765e+00	-1.207344e+01
1	 1.109726e+00	 1.302463e+00	-1.276587e+01
1	 1.093687e+00	 1.315960e+00	-1.352745e+01
1	 1.177328e+00	 1.251880e+00	-1.008606e+01
1	 1.161881e+00	 1.266230e+00	-1.046338e+01
1	 1.146263e+00	 1.280385e+00	-1.095301e+01
1	 1.130478e+00	 1.294344e+00	-1.154037e+01
1	 1.114530e+00	 1.308102e+00	-1.221013e+01
1	 1.098422e+00	 1.321656e+00	-1.294630e+01
1	 1.182403e+00	 1.257276e+00	-9.607133e+00
1	 1.166889e+00	 1.271688e+00	-9.973189e+00
1	 1.151204e+00	 1.285904e+00	-1.044676e+01
1	 1.135351e+00	 1.299923e+00	-1.101412e+01
1	 1.119334e+00	 1.313740e+00	-1.166085e+01
1	 1.103156e+00	 1.327353e+00	-1.237188e+01
1	 1.187478e+00	 1.262672e+00	-9.137052e+00
1	 1.171897e+00	 1.277146e+00	-9.491000e+00
1	 1.156145e+00	 1.291423e+00	-9.947606e+00
1	 1.140223e+00	 1.305502e+00	-1.049426e+01
1	 1.124138e+00	 1.319378e+00	-1.111772e+01
1	 1.107891e+00	 1.333050e+00	-1.180410e+01
1	 1.192552e+00	 1.268068e+00	-8.675609e+00
1	 1.176905e+00	 1.282604e+00	-9.016434e+00
1	 1.161085e+00	 1.296942e+00	-9.455108e+00
1	 1.145096e+00	 1.311081e+00	-9.980381e+00
1	 1.128942e+00	 1.325017e+00	-1.058043e+01
1	 1.112625e+00	 1.338747e+00	-1.124288e+01
1	 1.088952e+00	 1.310263e+00	-1.411542e+01
1	 1.072829e+00	 1.323497e+00	-1.498166e+01
1	 1.056555e+00	 1.336524e+00	-1.593883e+01
1	 1.040135e+00	 1.349342e+00	-1.697669e+01
1	 1.023573e+00	 1.361949e+00	-1.808475e+01
1	 1.006872e+00	 1.374342e+00	-1.925234e+01
1	 1.093687e+00	 1.315960e+00	-1.352745e+01
1	 1.077494e+00	 1.329251e+00	-1.436677e+01
1	 1.061149e+00	 1.342335e+00	-1.529686e+01
1	 1.044658e+00	 1.355209e+00	-1.630700e+01
1	 1.028023e+00	 1.367871e+00	-1.738623e+01
1	 1.011250e+00	 1.380317e+00	-1.852340e+01
1	 1.098422e+00	 1.321656e+00	-1.294630e+01
1	 1.082158e+00	 1.335006e+00	-1.375933e+01
1	 1.065743e+00	 1.348146e+00	-1.466311e+01
1	 1.049180e+00	 1.361076e+00	-1.564608e+01
1	 1.032473e+00	 1.373792e+00	-1.669638e+01
1	 1.015627e+00	 1.386293e+00	-1.780195e+01
1	 1.103156e+00	 1.327353e+00	-1.237188e+01
1	 1.086823e+00	 1.340760e+00	-1.315944e+01
1	 1.070337e+00	 1.353957e+00	-1.403775e+01
1	 1.053702e+00	 1.366943e+00	-1.499399e+01
1	 1.036924e+00	 1.379714e+00	-1.601505e+01
1	 1.020005e+00	 1.392268e+00	-1.708749e+01
1	 1.107891e+00	 1.333050e+00	-1.180410e+01
1	 1.091487e+00	 1.346514e+00	-1.256721e+01
1	 1.074930e+00	 1.359768e+00	-1.342091e+01
1	 1.058225e+00	 1.372809e+00	-1.435081e+01
1	 1.041374e+00	 1.385635e+00	-1.534207e+01
1	 1.024383e+00	 1.398243e+00	-1.637954e+01
1	 1.112625e+00	 1.338747e+00	-1.124288e+01
1	 1.096151e+00	 1.352269e+00	-1.198272e+01
1	 1.079524e+00	 1.365579e+00	-1.281276e+01
1	 1.062747e+00	 1.378676e+00	-1.371658e+01
1	 1.045824e+00	 1.391557e+00	-1.467731e+01
1	 1.028760e+00	 1.404219e+00	-1.567761e+01
1	 1.006872e+00	 1.374342e+00	-1.925234e+01
1	 9.900368e-01	 1.386518e+00	-2.041985e+01
1	 9.730718e-01	 1.398477e+00	-2.152835e+01
1	 9.559809e-01	 1.410215e+00	-2.256803e+01
1	 9.387684e-01	 1.421731e+00	-2.352889e+01
1	 9.214387e-01	 1.433024e+00	-2.440084e+01
1	 1.011250e+00	 1.380317e+00	-1.852340e+01
1	 9.943413e-01	 1.392547e+00	-1.965780e+01
1	 9.773025e-01	 1.404557e+00	-2.072899e+01
1	 9.601373e-01	 1.416347e+00	-2.172587e+01
1	 9.428500e-01	 1.427913e+00	-2.263713e+01
1	 9.254449e-01	 1.439254e+00	-2.345131e+01
1	 1.015627e+00	 1.386293e+00	-1.780195e+01
1	 9.986459e-01	 1.398575e+00	-1.890073e+01
1	 9.815333e-01	 1.410638e+00	-1.993135e+01
1	 9.642938e-01	 1.422478e+00	-2.088235e+01
1	 9.469316e-01	 1.434094e+00	-2.174208e+01
1	 9.294512e-01	 1.445485e+00	-2.249869e+01
1	 1.020005e+00	 1.392268e+00	-1.708749e+01
1	 1.002950e+00	 1.404603e+00	-1.814787e+01
1	 9.857640e-01	 1.416718e+00	-1.913465e+01
1	 9.684502e-01	 1.428609e+00	-2.003698e+01
1	 9.510132e-01	 1.440276e+00	-2.084377e+01
1	 9.334574e-01	 1.451715e+00	-2.154378e+01
1	 1.024383e+00	 1.398243e+00	-1.637954e+01
1	 1.007255e+00	 1.410632e+00	-1.739846e+01
1	 9.899948e-01	 1.422798e+00	-1.833817e+01
1	 9.726066e-01	 1.434741e+00	-1.918928e+01
1	 9.550948e-01	 1.446457e+00	-1.994223e+01
1	 9.374637e-01	 1.457946e+00	-2.058733e+01
1	 1.028760e+00	 1.404219e+00	-1.567761e+01
1	 1.011559e+00	 1.416660e+00	-1.665178e+01
1	 9.942255e-01	 1.428879e+00	-1.754118e+01
1	 9.767631e-01	 1.440872e+00	-1.833879e+01
1	 9.591764e-01	 1.452639e+00	-1.903749e+01
1	 9.414699e-01	 1.464176e+00	-1.963011e+01
1	 9.214387e-01	 1.433024e+00	-2.440084e+01
1	 9.039959e-01	 1.444091e+00	-2.514550e+01
1	 8.864445e-01	 1.454930e+00	-2.573024e+01
1	 8.687888e-01	 1.465542e+00	-2.615360e+01
1	 8.510332e-01	 1.475923e+00	-2.641420e+01
1	 8.331821e-01	 1.486073e+00	-2.651079e+01
1	 9.254449e-01	 1.439254e+00	-2.345131e+01
1	 9.079263e-01	 1.450369e+00	-2.413085e+01
1	 8.902986e-01	 1.461256e+00	-2.464835e+01
1	 8.725662e-01	 1.471914e+00	-2.500756e+01
1	 8.547334e-01	 1.482340e+00	-2.521251e+01
1	 8.368046e-01	 1.492534e+00	-2.526744e+01
1	 9.294512e-01	 1.445485e+00	-2.249869e+01
1	 9.118567e-01	 1.456648e+00	-2.311682e+01
1	 8.941527e-01	 1.467582e+00	-2.357402e+01
1	 8.763435e-01	 1.478285e+00	-2.387795e+01
1	 8.584335e-01	 1.488757e+00	-2.403660e+01
1	 8.404272e-01	 1.498996e+00	-2.405828e+01
1	 9.334574e-01	 1.451715e+00	-2.154378e+01
1	 9.157872e-01	 1.462927e+00	-2.210485e+01
1	 8.980068e-01	 1.473908e+00	-2.250902e+01
1	 8.801208e-01	 1.484657e+00	-2.276646e+01
1	 8.621336e-01	 1.495174e+00	-2.288776e+01
1	 8.440497e-01	 1.505457e+00	-2.288389e+01
1	 9.374637e-01	 1.457946e+00	-2.058733e+01
1	 9.197176e-01	 1.469205e+00	-2.109638e+01
1	 9.018609e-01	 1.480234e+00	-2.145506e+01
1	 8.838982e-01	 1.491029e+00	-2.167476e+01
1	 8.658338e-01	 1.501591e+00	-2.176729e+01
1	 8.476722e-01	 1.511918e+00	-2.174486e+01
1	 9.414699e-01	 1.464176e+00	-1.963011e+01
1	 9.236480e-01	 1.475484e+00	-2.009280e+01
1	 9.057150e-01	 1.486559e+00	-2.041383e+01
1	 8.876755e-01	 1.497401e+00	-2.060448e+01
1	 8.695339e-01	 1.508008e+00	-2.067643e+01
1	 8.512948e-01	 1.518379e+00	-2.064176e+01
1	 8.331821e-01	 1.486073e+00	-2.651079e+01
1	 8.152399e-01	 1.495991e+00	-2.645333e+01
1	 7.972111e-01	 1.505676e+00	-2.626982e+01
1	 7.791000e-01	 1.515127e+00	-2.598658e+01
1	 7.609112e-01	 1.524343e+00	-2.563050e+01
1	 7.426490e-01	 1.533323e+00	-2.522899e+01
1	 8.368046e-01	 1.492534e+00	-2.526744e+01
1	 8.187845e-01	 1.502496e+00	-2.518826e+01
1	 8.006772e-01	 1.512223e+00	-2.500106e+01
1	 7.824874e-01	 1.521714e+00	-2.472592e+01
1	 7.642195e-01	 1.530970e+00	-2.438334e+01
1	 7.458779e-01	 1.539989e+00	-2.399423e+01
1	 8.404272e-01	 1.498996e+00	-2.405828e+01
1	 8.223290e-01	 1.509000e+00	-2.396261e+01
1	 8.041434e-01	 1.518769e+00	-2.377328e+01
1	 7.858748e-01	 1.528302e+00	-2.350518e+01
1	 7.675278e-01	 1.537598e+00	-2.317356e+01
1	 7.491068e-01	 1.546656e+00	-2.279393e+01
1	 8.440497e-01	 1.505457e+00	-2.288389e+01
1	 8.258735e-01	 1.515504e+00	-2.277627e+01
1	 8.076095e-01	 1.525315e+00	-2.258594e+01
1	 7.892622e-01	 1.534889e+00	-2.232371e+01
1	 7.708361e-01	 1.544225e+00	-2.200062e+01
1	 7.523357e-01	 1.553323e+00	-2.162794e+01
1	 8.476722e-01	 1.511918e+00	-2.174486e+01
1	 8.294180e-01	 1.522009e+00	-2.162913e+01
1	 8.110756e-01	 1.531862e+00	-2.143854e+01
1	 7.926496e-01	 1.541477e+00	-2.118085e+01
1	 7.741444e-01	 1.550853e+00	-2.086399e+01
1	 7.555646e-01	 1.559989e+00	-2.049609e+01
1	 8.512948e-01	 1.518379e+00	-2.064176e+01
1	 8.329625e-01	 1.528513e+00	-2.052109e+01
1	 8.145418e-01	 1.538408e+00	-2.033057e+01
1	 7.960370e-01	 1.548064e+00	-2.007596e+01
1	 7.774527e-01	 1.557481e+00	-1.976316e+01
1	 7.587935e-01	 1.566656e+00	-1.939823e+01
1	 7.426490e-01	 1.533323e+00	-2.522899e+01
1	 7.243179e-01	 1.542067e+00	-2.476950e+01
1	 7.059223e-01	 1.550574e+00	-2.423496e+01
1	 6.874666e-01	 1.558844e+00	-2.364651e+01
1	 6.689554e-01	 1.566877e+00	-2.302548e+01
1	 6.503929e-01	 1.574673e+00	-2.239331e+01
1	 7.458779e-01	 1.539989e+00	-2.399423e+01
1	 7.274671e-01	 1.548771e+00	-2.354060e+01
1	 7.089915e-01	 1.557316e+00	-2.300635e+01
1	 6.904556e-01	 1.565622e+00	-2.241568e+01
1	 6.718639e-01	 1.573690e+00	-2.179301e+01
1	 6.532206e-01	 1.581520e+00	-2.116296e+01
1	 7.491068e-01	 1.546656e+00	-2.279393e+01
1	 7.306163e-01	 1.555476e+00	-2.234461e+01
1	 7.120607e-01	 1.564057e+00	-2.181098e+01
1	 6.934446e-01	 1.572400e+00	-2.121959e+01
1	 6.747724e-01	 1.580502e+00	-2.059729e+01
1	 6.560484e-01	 1.588366e+00	-1.997117e+01
1	 7.523357e-01	 1.553323e+00	-2.162794e+01
1	 7.337655e-01	 1.562181e+00	-2.118178e+01
1	 7.151300e-01	 1.570799e+00	-2.064930e+01
1	 6.964336e-01	 1.579177e+00	-2.005875e+01
1	 6.776809e-01	 1.587315e+00	-1.943871e+01
1	 6.588762e-01	 1.595212e+00	-1.881802e+01
1	 7.555646e-01	 1.559989e+00	-2.049609e+01
1	 7.369147e-01	 1.568885e+00	-2.005233e+01
1	 7.181992e-01	 1.577541e+00	-1.952175e+01
1	 6.994226e-01	 1.585955e+00	-1.893363e+01
1	 6.805894e-01	 1.594128e+00	-1.831760e+01
1	 6.617040e-01	 1.602059e+00	-1.770358e+01
1	 7.587935e-01	 1.566656e+00	-1.939823e+01
1	 7.400639e-01	 1.575590e+00	-1.895649e+01
1	 7.212684e-01	 1.584282e+00	-1.842876e+01
1	 7.024116e-01	 1.592732e+00	-1.784471e+01
1	 6.834979e-01	 1.600940e+00	-1.723433e+01
1	 6.645318e-01	 1.608905e+00	-1.662794e+01
1	 6.503929e-01	 1.574673e+00	-2.239331e+01
1	 6.317835e-01	 1.582231e+00	-2.178852e+01
1	 6.131316e-01	 1.589552e+00	-2.124190e+01
1	 5.944415e-01	 1.596636e+00	-2.076328e+01
1	 5.757176e-01	 1.603482e+00	-2.036237e+01
1	 5.569641e-01	 1.610092e+00	-2.004876e+01
1	 6.532206e-01	 1.581520e+00	-2.116296e+01
1	 6.345304e-01	 1.589111e+00	-2.056537e+01
1	 6.157974e-01	 1.596463e+00	-2.002926e+01
1	 5.970261e-01	 1.603578e+00	-1.956309e+01
1	 5.782208e-01	 1.610454e+00	-1.917514e+01
1	 5.593857e-01	 1.617093e+00	-1.887355e+01
1	 6.560484e-01	 1.588366e+00	-1.997117e+01
1	 6.372772e-01	 1.595990e+00	-1.938142e+01
1	 6.184632e-01	 1.603374e+00	-1.885516e+01
1	 5.996106e-01	 1.610519e+00	-1.839991e+01
1	 5.807239e-01	 1.617426e+00	-1.802301e+01
1	 5.618073e-01	 1.624093e+00	-1.773165e+01
1	 6.588762e-01	 1.595212e+00	-1.881802e+01
1	 6.400241e-01	 1.602869e+00	-1.823645e+01
1	 6.211290e-01	 1.610285e+00	-1.771920e+01
1	 6.021951e-01	 1.617461e+00	-1.727332e+01
1	 5.832270e-01	 1.624397e+00	-1.690565e+01
1	 5.642289e-01	 1.631094e+00	-1.662287e+01
1	 6.617040e-01	 1.602059e+00	-1.770358e+01
1	 6.427710e-01	 1.609748e+00	-1.713026e+01
1	 6.237948e-01	 1.617197e+00	-1.662104e+01
1	 6.047797e-01	 1.624403e+00	-1.618291e+01
1	 5.857301e-01	 1.631369e+00	-1.582271e+01
1	 5.666505e-01	 1.638094e+00	-1.554706e+01
1	 6.645318e-01	 1.608905e+00	-1.662794e+01
1	 6.455179e-01	 1.616628e+00	-1.606266e+01
1	 6.264605e-01	 1.624108e+00	-1.556031e+01
1	 6.073642e-01	 1.631345e+00	-1.512829e+01
1	 5.882332e-01	 1.638341e+00	-1.477385e+01
1	 5.690721e-01	 1.645094e+00	-1.450406e+01
1	 5.569641e-01	 1.610092e+00	-2.004876e+01
1	 5.381853e-01	 1.616466e+00	-1.984079e+01
1	 5.193854e-01	 1.622604e+00	-1.976498e+01
1	 5.005685e-01	 1.628508e+00	-1.984296e+01
1	 4.817388e-01	 1.634177e+00	-2.009616e+01
1	 4.629004e-01	 1.639613e+00	-2.054582e+01
1	 5.593857e-01	 1.617093e+00	-1.887355e+01
1	 5.405253e-01	 1.623494e+00	-1.867651e+01
1	 5.216436e-01	 1.629659e+00	-1.861157e+01
1	 5.027449e-01	 1.635588e+00	-1.870070e+01
1	 4.838333e-01	 1.641282e+00	-1.896573e+01
1	 4.649130e-01	 1.646741e+00	-1.942829e+01
1	 5.618073e-01	 1.624093e+00	-1.773165e+01
1	 5.428652e-01	 1.630522e+00	-1.754435e+01
1	 5.239018e-01	 1.636714e+00	-1.748972e+01
1	 5.049213e-01	 1.642669e+00	-1.758973e+01
1	 4.859278e-01	 1.648387e+00	-1.786625e+01
1	 4.669256e-01	 1.653870e+00	-1.834093e+01
1	 5.642289e-01	 1.631094e+00	-1.662287e+01
1	 5.452051e-01	 1.637551e+00	-1.644434e+01
1	 5.261600e-01	 1.643769e+00	-1.639955e+01
1	 5.070976e-01	 1.649749e+00	-1.651018e+01
1	 4.880223e-01	 1.655492e+00	-1.679776e+01
1	 4.689382e-01	 1.660999e+00	-1.728364e+01
1	 5.666505e-01	 1.638094e+00	-1.554706e+01
1	 5.475451e-01	 1.644579e+00	-1.537648e+01
1	 5.284182e-01	 1.650824e+00	-1.534117e+01
1	 5.092740e-01	 1.656830e+00	-1.546215e+01
1	 4.901169e-01	 1.662597e+00	-1.576031e+01
1	 4.709508e-01	 1.668128e+00	-1.625634e+01
1	 5.690721e-01	 1.645094e+00	-1.450406e+01
1	 5.498850e-01	 1.651607e+00	-1.434078e+01
1	 5.306764e-01	 1.657878e+00	-1.431467e+01
1	 5.114504e-01	 1.663910e+00	-1.444576e+01
1	 4.922114e-01	 1.669702e+00	-1.475395e+01
1	 4.729634e-01	 1.675256e+00	-1.525894e+01
1	 4.629004e-01	 1.639613e+00	-2.054582e+01
1	 4.440573e-01	 1.644816e+00	-2.121612e+01
1	 4.252136e-01	 1.649788e+00	-2.211299e+01
1	 4.063731e-01	 1.654529e+00	-2.322993e+01
1	 3.875399e-01	 1.659042e+00	-2.456021e+01
1	 3.687177e-01	 1.663326e+00	-2.609689e+01
1	 4.649130e-01	 1.646741e+00	-1.942829e+01
1	 4.459880e-01	 1.651967e+00	-2.011176e+01
1	 4.270623e-01	 1.656961e+00	-2.102171e+01
1	 4.081400e-01	 1.661723e+00	-2.215259e+01
1	 3.892248e-01	 1.666255e+00	-2.349864e+01
1	 3.703208e-01	 1.670558e+00	-2.505383e+01
1	 4.669256e-01	 1.653870e+00	-1.834093e+01
1	 4.479187e-01	 1.659119e+00	-1.903605e+01
1	 4.289111e-01	 1.664134e+00	-1.995676e+01
1	 4.099068e-01	 1.668917e+00	-2.109863e+01
1	 3.909098e-01	 1.673468e+00	-2.245697e+01
1	 3.719239e-01	 1.677790e+00	-2.402684e+01
1	 4.689382e-01	 1.660999e+00	-1.728364e+01
1	 4.498494e-01	 1.666270e+00	-1.798873e+01
1	 4.307598e-01	 1.671307e+00	-1.891780e+01
1	 4.116736e-01	 1.676110e+00	-2.006766e+01
1	 3.925948e-01	 1.680681e+00	-2.143483e+01
1	 3.735271e-01	 1.685022e+00	-2.301558e+01
1	 4.709508e-01	 1.668128e+00	-1.625634e+01
1	 4.517800e-01	 1.673421e+00	-1.696956e+01
1	 4.326086e-01	 1.678480e+00	-1.790449e+01
1	 4.134405e-01	 1.683304e+00	-1.905928e+01
1	 3.942797e-01	 1.687895e+00	-2.043182e+01
1	 3.751302e-01	 1.692253e+00	-2.201972e+01
1	 4.729634e-01	 1.675256e+00	-1.525894e+01
1	 4.537107e-01	 1.680573e+00	-1.597830e+01
1	 4.344573e-01	 1.685653e+00	-1.691649e+01
1	 4.152073e-01	 1.690497e+00	-1.807313e+01
1	 3.959647e-01	 1.695108e+00	-1.944758e+01
1	 3.767333e-01	 1.699485e+00	-2.103894e+01
1	 3.687177e-01	 1.663326e+00	-2.609689e+01
1	 3.499104e-01	 1.667384e+00	-2.786498e+01
1	 3.311216e-01	 1.671217e+00	-2.986005e+01
1	 3.123552e-01	 1.674826e+00	-3.203091e+01
1	 2.936146e-01	 1.678212e+00	-3.432667e+01
1	 2.749036e-01	 1.681379e+00	-3.669675e+01
1	 3.703208e-01	 1.670558e+00	-2.505383e+01
1	 3.514317e-01	 1.674633e+00	-2.684293e+01
1	 3.325613e-01	 1.678483e+00	-2.886042e+01
1	 3.137133e-01	 1.682107e+00	-3.105493e+01
1	 2.948912e-01	 1.685509e+00	-3.337531e+01
1	 2.760988e-01	 1.688689e+00	-3.577079e+01
1	 3.719239e-01	 1.677790e+00	-2.402684e+01
1	 3.529531e-01	 1.681883e+00	-2.583287e+01
1	 3.340010e-01	 1.685749e+00	-2.786859e+01
1	 3.150713e-01	 1.689389e+00	-3.008240e+01
1	 2.961678e-01	 1.692806e+00	-3.242295e+01
1	 2.772940e-01	 1.695999e+00	-3.483926e+01
1	 3.735271e-01	 1.685022e+00	-2.301558e+01
1	 3.544744e-01	 1.689132e+00	-2.483454e+01
1	 3.354406e-01	 1.693015e+00	-2.688432e+01
1	 3.164294e-01	 1.696671e+00	-2.911311e+01
1	 2.974444e-01	 1.700102e+00	-3.146937e+01
1	 2.784893e-01	 1.703310e+00	-3.390192e+01
1	 3.751302e-01	 1.692253e+00	-2.201972e+01
1	 3.559958e-01	 1.696382e+00	-2.384769e+01
1	 3.368803e-01	 1.700281e+00	-2.590740e+01
1	 3.177874e-01	 1.703953e+00	-2.814687e+01
1	 2.987210e-01	 1.707399e+00	-3.051436e+01
1	 2.796845e-01	 1.710620e+00	-3.295852e+01
1	 3.767333e-01	 1.699485e+00	-2.103894e+01
1	 3.575171e-01	 1.703631e+00	-2.287205e+01
1	 3.383199e-01	 1.707547e+00	-2.493761e+01
1	 3.191455e-01	 1.711235e+00	-2.718347e+01
1	 2.999976e-01	 1.714695e+00	-2.955772e+01
1	 2.808797e-01	 1.717930e+00	-3.200883e+01
1	 2.749036e-01	 1.681379e+00	-3.669675e+01
1	 2.562255e-01	 1.684326e+00	-3.908743e+01
1	 2.375838e-01	 1.687057e+00	-4.145786e+01
1	 2.189819e-01	 1.689572e+00	-4.377740e+01
1	 2.004231e-01	 1.691874e+00	-4.601578e+01
1	 1.819107e-01	 1.693964e+00	-4.814319e+01
1	 2.760988e-01	 1.688689e+00	-3.577079e+01
1	 2.573395e-01	 1.691649e+00	-3.818765e+01
1	 2.386168e-01	 1.694392e+00	-4.058485e+01
1	 2.199340e-01	 1.696918e+00	-4.293123e+01
1	 2.012945e-01	 1.699230e+00	-4.519603e+01
1	 1.827016e-01	 1.701329e+00	-4.734894e+01
1	 2.772940e-01	 1.695999e+00	-3.483926e+01
1	 2.584535e-01	 1.698973e+00	-3.727758e+01
1	 2.396497e-01	 1.701727e+00	-3.969670e+01
1	 2.208861e-01	 1.704264e+00	-4.206506e+01
1	 2.021659e-01	 1.706586e+00	-4.435147e+01
1	 1.834925e-01	 1.708694e+00	-4.652522e+01
1	 2.784893e-01	 1.703310e+00	-3.390192e+01
1	 2.595675e-01	 1.706296e+00	-3.635696e+01
1	 2.406827e-01	 1.709062e+00	-3.879315e+01
1	 2.218382e-01	 1.711610e+00	-4.117861e+01
1	 2.030373e-01	 1.713942e+00	-4.348186e+01
1	 1.842834e-01	 1.716059e+00	-4.567184e+01
1	 2.796845e-01	 1.710620e+00	-3.295852e+01
1	 2.606816e-01	 1.713619e+00	-3.542550e+01
1	 2.417157e-01	 1.716397e+00	-3.787391e+01
1	 2.227903e-01	 1.718956e+00	-4.027162e+01
1	 2.039088e-01	 1.721298e+00	-4.258694e+01
1	 1.850744e-01	 1.723424e+00	-4.478861e+01
1	 2.808797e-01	 1.717930e+00	-3.200883e+01
1	 2.617956e-01	 1.720942e+00	-3.448295e+01
1	 2.427487e-01	 1.723732e+00	-3.693869e+01
1	 2.237424e-01	 1.726302e+00	-3.934382e+01
1	 2.047802e-01	 1.728654e+00	-4.166650e+01
1	 1.858653e-01	 1.730790e+00	-4.387534e+01
1	 1.819107e-01	 1.693964e+00	-4.814319e+01
1	 1.634478e-01	 1.695845e+00	-5.012476e+01
1	 1.450375e-01	 1.697519e+00	-5.192032e+01
1	 1.266829e-01	 1.698987e+00	-5.349303e+01
1	 1.083869e-01	 1.700253e+00	-5.480674e+01
1	 9.015252e-02	 1.701317e+00	-5.582611e+01
1	 1.827016e-01	 1.701329e+00	-4.734894e+01
1	 1.641584e-01	 1.703218e+00	-4.935460e+01
1	 1.456681e-01	 1.704899e+00	-5.117284e+01
1	 1.272337e-01	 1.706374e+00	-5.276693e+01
1	 1.088582e-01	 1.707645e+00	-5.410091e+01
1	 9.054449e-02	 1.708714e+00	-5.513961e+01
1	 1.834925e-01	 1.708694e+00	-4.652522e+01
1	 1.648691e-01	 1.710592e+00	-4.855062e+01
1	 1.462987e-01	 1.712280e+00	-5.038756e+01
1	 1.277845e-01	 1.713761e+00	-5.199953e+01
1	 1.093294e-01	 1.715037e+00	-5.335075e+01
1	 9.093646e-02	 1.716111e+00	-5.440624e+01
1	 1.842834e-01	 1.716059e+00	-4.567184e+01
1	 1.655797e-01	 1.717965e+00	-4.771268e+01
1	 1.469293e-01	 1.719660e+00	-4.956440e+01
1	 1.283353e-01	 1.721148e+00	-5.119073e+01
1	 1.098007e-01	 1.722430e+00	-5.255613e+01
1	 9.132843e-02	 1.723508e+00	-5.362586e+01
1	 1.850744e-01	 1.723424e+00	-4.478861e+01
1	 1.662904e-01	 1.725338e+00	-4.684062e+01
1	 1.475599e-01	 1.727041e+00	-4.870323e+01
1	 1.288861e-01	 1.728535e+00	-5.034043e+01
1	 1.102719e-01	 1.729822e+00	-5.171696e+01
1	 9.172039e-02	 1.730905e+00	-5.279836e+01
1	 1.858653e-01	 1.730790e+00	-4.387534e+01
1	 1.670010e-01	 1.732711e+00	-4.593432e+01
1	 1.481905e-01	 1.734421e+00	-4.780395e+01
1	 1.294369e-01	 1.735922e+00	-4.944854e+01
1	 1.107432e-01	 1.737215e+00	-5.083316e+01
1	 9.211236e-02	 1.738302e+00	-5.192362e+01
1	 9.015252e-02	 1.701317e+00	-5.582611e+01
1	 7.198247e-02	 1.702182e+00	-5.651820e+01
1	 5.387954e-02	 1.702852e+00	-5.685472e+01
1	 3.584642e-02	 1.703327e+00	-5.680854e+01
1	 1.788573e-02	 1.703610e+00	-5.635331e+01
1	 0.000000e+00	 1.703704e+00	-5.546352e+01
1	 9.054449e-02	 1.708714e+00	-5.513961e+01
1	 7.229544e-02	 1.709583e+00	-5.585006e+01
1	 5.411380e-02	 1.710255e+00	-5.620349e+01
1	 3.600227e-02	 1.710732e+00	-5.617219e+01
1	 1.796349e-02	 1.711017e+00	-5.572929e+01
1	 0.000000e+00	 1.711111e+00	-5.484875e+01
1	 9.093646e-02	 1.716111e+00	-5.440624e+01
1	 7.260840e-02	 1.716984e+00	-5.513305e+01
1	 5.434806e-02	 1.717659e+00	-5.550198e+01
1	 3.615813e-02	 1.718138e+00	-5.548493e+01
1	 1.804125e-02	 1.718424e+00	-5.505460e+01
1	 0.000000e+00	 1.718519e+00	-5.418456e+01
1	 9.132843e-02	 1.723508e+00	-5.362586e+01
1	 7.292137e-02	 1.724385e+00	-5.436701e+01
1	 5.458232e-02	 1.725063e+00	-5.475005e+01
1	 3.631398e-02	 1.725544e+00	-5.474660e+01
1	 1.811902e-02	 1.725831e+00	-5.432909e+01
1	 0.000000e+00	 1.725926e+00	-5.347082e+01
1	 9.172039e-02	 1.730905e+00	-5.279836e+01
1	 7.323434e-02	 1.731786e+00	-5.355179e+01
1	 5.481657e-02	 1.732466e+00	-5.394753e+01
1	 3.646984e-02	 1.732950e+00	-5.395703e+01
1	 1.819678e-02	 1.733238e+00	-5.355259e+01
1	 0.000000e+00	 1.733333e+00	-5.270735e+01
1	 9.211236e-02	 1.738302e+00	-5.192362e+01
1	 7.354730e-02	 1.739186e+00	-5.268725e+01
1	 5.505083e-02	 1.739870e+00	-5.309426e+01
1	 3.662569e-02	 1.740355e+00	-5.311606e+01
1	 1.827455e-02	 1.740645e+00	-5.272493e+01
1	 0.000000e+00	 1.740741e+00	-5.189401e+01
1	 1.740741e+00	 0.000000e+00	 1.178583e+01
1	 1.740645e+00	 1.827455e-02	 1.165785e+01
1	 1.740355e+00	 3.662569e-02	 1.146417e+01
1	 1.739870e+00	 5.505083e-02	 1.121050e+01
1	 1.739186e+00	 7.354730e-02	 1.090262e+01
1	 1.738302e+00	 9.211236e-02	 1.054640e+01
1	 1.748148e+00	 0.000000e+00	 1.150583e+01
1	 1.748052e+00	 1.835231e-02	 1.138623e+01
1	 1.747761e+00	 3.678154e-02	 1.120074e+01
1	 1.747274e+00	 5.528509e-02	 1.095506e+01
1	 1.746587e+00	 7.386027e-02	 1.065497e+01
1	 1.745699e+00	 9.250433e-02	 1.030634e+01
1	 1.755556e+00	 0.000000e+00	 1.121982e+01
1	 1.755459e+00	 1.843007e-02	 1.110842e+01
1	 1.755167e+00	 3.693740e-02	 1.093110e+01
1	 1.754677e+00	 5.551935e-02	 1.069353e+01
1	 1.753988e+00	 7.417324e-02	 1.040150e+01
1	 1.753096e+00	 9.289630e-02	 1.006087e+01
1	 1.762963e+00	 0.000000e+00	 1.092775e+01
1	 1.762866e+00	 1.850784e-02	 1.082440e+01
1	 1.762573e+00	 3.709325e-02	 1.065521e+01
1	 1.762081e+00	 5.575361e-02	 1.042586e+01
1	 1.761389e+00	 7.448621e-02	 1.014212e+01
1	 1.760493e+00	 9.328826e-02	 9.809863e+00
1	 1.770370e+00	 0.000000e+00	 1.062962e+01
1	 1.770273e+00	 1.858560e-02	 1.053416e+01
1	 1.769978e+00	 3.724911e-02	 1.037307e+01
1	 1.769485e+00	 5.598787e-02	 1.015202e+01
1	 1.768790e+00	 7.479917e-02	 9.876787e+00
1	 1.767890e+00	 9.368023e-02	 9.553234e+00
1	 1.777778e+00	 0.000000e+00	 1.032540e+01
1	 1.777680e+00	 1.866337e-02	 1.023768e+01
1	 1.777384e+00	 3.740496e-02	 1.008464e+01
1	 1.776889e+00	 5.622213e-02	 9.871961e+00
1	 1.776190e+00	 7.511214e-02	 9.605424e+00
1	 1.775287e+00	 9.407220e-02	 9.290877e+00
1	 1.738302e+00	 9.211236e-02	 1.054640e+01
1	 1.737215e+00	 1.107432e-01	 1.014466e+01
1	 1.735922e+00	 1.294369e-01	 9.700618e+00
1	 1.734421e+00	 1.481905e-01	 9.220843e+00
1	 1.732711e+00	 1.670010e-01	 8.711979e+00
1	 1.730790e+00	 1.858653e-01	 8.180725e+00
1	 1.745699e+00	 9.250433e-02	 1.030634e+01
1	 1.744607e+00	 1.112144e-01	 9.911999e+00
1	 1.743309e+00	 1.299877e-01	 9.475119e+00
1	 1.741802e+00	 1.488211e-01	 9.002215e+00
1	 1.740085e+00	 1.677116e-01	 8.499864e+00
1	 1.738155e+00	 1.866562e-01	 7.974693e+00
1	 1.753096e+00	 9.289630e-02	 1.006087e+01
1	 1.751999e+00	 1.116857e-01	 9.674458e+00
1	 1.750696e+00	 1.305385e-01	 9.245398e+00
1	 1.749183e+00	 1.494517e-01	 8.780107e+00
1	 1.747458e+00	 1.684223e-01	 8.285075e+00
1	 1.745520e+00	 1.874471e-01	 7.766840e+00
1	 1.760493e+00	 9.328826e-02	 9.809863e+00
1	 1.759392e+00	 1.121569e-01	 9.431899e+00
1	 1.758082e+00	 1.310893e-01	 9.011281e+00
1	 1.756563e+00	 1.500823e-01	 8.554324e+00
1	 1.754831e+00	 1.691329e-01	 8.067405e+00
1	 1.752885e+00	 1.882380e-01	 7.556955e+00
1	 1.767890e+00	 9.368023e-02	 9.553234e+00
1	 1.766784e+00	 1.126282e-01	 9.184181e+00
1	 1.765469e+00	 1.316401e-01	 8.772600e+00
1	 1.763944e+00	 1.507129e-01	 8.324674e+00
1	 1.762204e+00	 1.698436e-01	 7.846651e+00
1	 1.760250e+00	 1.890289e-01	 7.344830e+00
1	 1.775287e+00	 9.407220e-02	 9.290877e+00
1	 1.774177e+00	 1.130994e-01	 8.931166e+00
1	 1.772856e+00	 1.321909e-01	 8.529186e+00
1	 1.771324e+00	 1.513435e-01	 8.090969e+00
1	 1.769578e+00	 1.705542e-01	 7.622611e+00
1	 1.767615e+00	 1.898199e-01	 7.130260e+00
1	 1.730790e+00	 1.858653e-01	 8.180725e+00
1	 1.728654e+00	 2.047802e-01	 7.635431e+00
1	 1.726302e+00	 2.237424e-01	 7.083745e+00
1	 1.723732e+00	 2.427487e-01	 6.531343e+00
1	 1.720942e+00	 2.617956e-01	 5.983880e+00
1	 1.717930e+00	 2.808797e-01	 5.446980e+00
1	 1.738155e+00	 1.866562e-01	 7.974693e+00
1	 1.736010e+00	 2.056516e-01	 7.434951e+00
1	 1.733648e+00	 2.246945e-01	 6.888243e+00
1	 1.731067e+00	 2.437816e-01	 6.340270e+00
1	 1.728265e+00	 2.629096e-01	 5.796714e+00
1	 1.725241e+00	 2.820750e-01	 5.263233e+00
1	 1.745520e+00	 1.874471e-01	 7.766840e+00
1	 1.743366e+00	 2.065230e-01	 7.233538e+00
1	 1.740994e+00	 2.256466e-01	 6.692735e+00
1	 1.738402e+00	 2.448146e-01	 6.150145e+00
1	 1.735588e+00	 2.640236e-01	 5.611472e+00
1	 1.732551e+00	 2.832702e-01	 5.082394e+00
1	 1.752885e+00	 1.882380e-01	 7.556955e+00
1	 1.750722e+00	 2.073944e-01	 7.030982e+00
1	 1.748340e+00	 2.265987e-01	 6.497006e+00
1	 1.745737e+00	 2.458476e-01	 5.960749e+00
1	 1.742911e+00	 2.651377e-01	 5.427923e+00
1	 1.739861e+00	 2.844654e-01	 4.904220e+00
1	 1.760250e+00	 1.890289e-01	 7.344830e+00
1	 1.758078e+00	 2.082658e-01	 6.827075e+00
1	 1.755686e+00	 2.275508e-01	 6.300844e+00
1	 1.753072e+00	 2.468806e-01	 5.771862e+00
1	 1.750235e+00	 2.662517e-01	 5.245841e+00
1	 1.747172e+00	 2.856607e-01	 4.728472e+00
1	 1.767615e+00	 1.898199e-01	 7.130260e+00
1	 1.765434e+00	 2.091372e-01	 6.621611e+00
1	 1.763032e+00	 2.285029e-01	 6.104043e+00
1	 1.760407e+00	 2.479135e-01	 5.583272e+00
1	 1.757558e+00	 2.673657e-01	 5.065001e+00
1	 1.754482e+00	 2.868559e-01	 4.554916e+00
1	 1.717930e+00	 2.808797e-01	 5.446980e+00
1	 1.714695e+00	 2.999976e-01	 4.928709e+00
1	 1.711235e+00	 3.191455e-01	 4.439157e+00
1	 1.707547e+00	 3.383199e-01	 3.986927e+00
1	 1.703631e+00	 3.575171e-01	 3.580556e+00
1	 1.699485e+00	 3.767333e-01	 3.228506e+00
1	 1.725241e+00	 2.820750e-01	 5.263233e+00
1	 1.721992e+00	 3.012742e-01	 4.747845e+00
1	 1.718517e+00	 3.205036e-01	 4.260599e+00
1	 1.714814e+00	 3.397596e-01	 3.810131e+00
1	 1.710881e+00	 3.590385e-01	 3.405013e+00
1	 1.706717e+00	 3.783364e-01	 3.053741e+00
1	 1.732551e+00	 2.832702e-01	 5.082394e+00
1	 1.729288e+00	 3.025507e-01	 4.570858e+00
1	 1.725798e+00	 3.218616e-01	 4.086832e+00
1	 1.722080e+00	 3.411993e-01	 3.638961e+00
1	 1.718130e+00	 3.605598e-01	 3.235828e+00
1	 1.713949e+00	 3.799395e-01	 2.885935e+00
1	 1.739861e+00	 2.844654e-01	 4.904220e+00
1	 1.736585e+00	 3.038273e-01	 4.397493e+00
1	 1.733080e+00	 3.232197e-01	 3.917599e+00
1	 1.729346e+00	 3.426389e-01	 3.473167e+00
1	 1.725380e+00	 3.620812e-01	 3.072763e+00
1	 1.721181e+00	 3.815427e-01	 2.724874e+00
1	 1.747172e+00	 2.856607e-01	 4.728472e+00
1	 1.743882e+00	 3.051039e-01	 4.227503e+00
1	 1.740362e+00	 3.245778e-01	 3.752651e+00
1	 1.736612e+00	 3.440786e-01	 3.312504e+00
1	 1.732629e+00	 3.636025e-01	 2.915587e+00
1	 1.728413e+00	 3.831458e-01	 2.570347e+00
1	 1.754482e+00	 2.868559e-01	 4.554916e+00
1	 1.751178e+00	 3.063805e-01	 4.060643e+00
1	 1.747644e+00	 3.259358e-01	 3.591741e+00
1	 1.743878e+00	 3.455182e-01	 3.156730e+00
1	 1.739879e+00	 3.651239e-01	 2.764071e+00
1	 1.735645e+00	 3.847489e-01	 2.422146e+00
1	 1.699485e+00	 3.767333e-01	 3.228506e+00
1	 1.695108e+00	 3.959647e-01	 2.927237e+00
1	 1.690497e+00	 4.152073e-01	 2.667077e+00
1	 1.685653e+00	 4.344573e-01	 2.447115e+00
1	 1.680573e+00	 4.537107e-01	 2.266300e+00
1	 1.675256e+00	 4.729634e-01	 2.123438e+00
1	 1.706717e+00	 3.783364e-01	 3.053741e+00
1	 1.702321e+00	 3.976496e-01	 2.753110e+00
1	 1.697691e+00	 4.169742e-01	 2.493612e+00
1	 1.692826e+00	 4.363061e-01	 2.274115e+00
1	 1.687724e+00	 4.556414e-01	 2.093350e+00
1	 1.682385e+00	 4.749760e-01	 1.949912e+00
1	 1.713949e+00	 3.799395e-01	 2.885935e+00
1	 1.709534e+00	 3.993346e-01	 2.586435e+00
1	 1.704885e+00	 4.187410e-01	 2.328035e+00
1	 1.699999e+00	 4.381548e-01	 2.109404e+00
1	 1.694876e+00	 4.575721e-01	 1.929077e+00
1	 1.689514e+00	 4.769886e-01	 1.785462e+00
1	 1.721181e+00	 3.815427e-01	 2.724874e+00
1	 1.716747e+00	 4.010195e-01	 2.427018e+00
1	 1.712078e+00	 4.205078e-01	 2.170161e+00
1	 1.707172e+00	 4.400036e-01	 1.952796e+00
1	 1.702027e+00	 4.595028e-01	 1.773287e+00
1	 1.696643e+00	 4.790013e-01	 1.629872e+00
1	 1.728413e+00	 3.831458e-01	 2.570347e+00
1	 1.723961e+00	 4.027045e-01	 2.274670e+00
1	 1.719272e+00	 4.222747e-01	 2.019811e+00
1	 1.714345e+00	 4.418524e-01	 1.804111e+00
1	 1.709178e+00	 4.614335e-01	 1.625787e+00
1	 1.703771e+00	 4.810139e-01	 1.482929e+00
1	 1.735645e+00	 3.847489e-01	 2.422146e+00
1	 1.731174e+00	 4.043894e-01	 2.129201e+00
1	 1.726465e+00	 4.240415e-01	 1.876806e+00
1	 1.721518e+00	 4.437011e-01	 1.663172e+00
1	 1.716330e+00	 4.633641e-01	 1.486389e+00
1	 1.710900e+00	 4.830265e-01	 1.344422e+00
1	 1.675256e+00	 4.729634e-01	 2.123438e+00
1	 1.669702e+00	 4.922114e-01	 2.015701e+00
1	 1.663910e+00	 5.114504e-01	 1.938215e+00
1	 1.657878e+00	 5.306764e-01	 1.886591e+00
1	 1.651607e+00	 5.498850e-01	 1.856423e+00
1	 1.645094e+00	 5.690721e-01	 1.843294e+00
1	 1.682385e+00	 4.749760e-01	 1.949912e+00
1	 1.676808e+00	 4.943059e-01	 1.841370e+00
1	 1.670991e+00	 5.136268e-01	 1.763498e+00
1	 1.664933e+00	 5.329346e-01	 1.712066e+00
1	 1.658635e+00	 5.522249e-01	 1.682816e+00
1	 1.652095e+00	 5.714936e-01	 1.671465e+00
1	 1.689514e+00	 4.769886e-01	 1.785462e+00
1	 1.683913e+00	 4.964004e-01	 1.676458e+00
1	 1.678071e+00	 5.158032e-01	 1.598405e+00
1	 1.671988e+00	 5.351928e-01	 1.547235e+00
1	 1.665663e+00	 5.545649e-01	 1.518837e+00
1	 1.659095e+00	 5.739152e-01	 1.509073e+00
1	 1.696643e+00	 4.790013e-01	 1.629872e+00
1	 1.691018e+00	 4.984949e-01	 1.520729e+00
1	 1.685152e+00	 5.179796e-01	 1.442693e+00
1	 1.679043e+00	 5.374510e-01	 1.391858e+00
1	 1.672691e+00	 5.569048e-01	 1.364270e+00
1	 1.666096e+00	 5.763368e-01	 1.355935e+00
1	 1.703771e+00	 4.810139e-01	 1.482929e+00
1	 1.698123e+00	 5.005894e-01	 1.373947e+00
1	 1.692232e+00	 5.201559e-01	 1.296118e+00
1	 1.686098e+00	 5.397092e-01	 1.245701e+00
1	 1.679719e+00	 5.592447e-01	 1.218900e+00
1	 1.673096e+00	 5.787584e-01	 1.211871e+00
1	 1.710900e+00	 4.830265e-01	 1.344422e+00
1	 1.705228e+00	 5.026840e-01	 1.235882e+00
1	 1.699312e+00	 5.223323e-01	 1.158444e+00
1	 1.693152e+00	 5.419673e-01	 1.108534e+00
1	 1.686747e+00	 5.615847e-01	 1.082517e+00
1	 1.680096e+00	 5.811800e-01	 1.076705e+00
1	 1.645094e+00	 5.690721e-01	 1.843294e+00
1	 1.638341e+00	 5.882332e-01	 1.837267e+00
1	 1.631345e+00	 6.073642e-01	 1.830133e+00
1	 1.624108e+00	 6.264605e-01	 1.820056e+00
1	 1.616628e+00	 6.455179e-01	 1.805189e+00
1	 1.608905e+00	 6.645318e-01	 1.783676e+00
1	 1.652095e+00	 5.714936e-01	 1.671465e+00
1	 1.645312e+00	 5.907364e-01	 1.668000e+00
1	 1.638287e+00	 6.099487e-01	 1.664017e+00
1	 1.631019e+00	 6.291263e-01	 1.657639e+00
1	 1.623507e+00	 6.482648e-01	 1.646991e+00
1	 1.615752e+00	 6.673596e-01	 1.630203e+00
1	 1.659095e+00	 5.739152e-01	 1.509073e+00
1	 1.652284e+00	 5.932395e-01	 1.507953e+00
1	 1.645229e+00	 6.125332e-01	 1.506970e+00
1	 1.637930e+00	 6.317921e-01	 1.504194e+00
1	 1.630386e+00	 6.510117e-01	 1.497706e+00
1	 1.622598e+00	 6.701874e-01	 1.485605e+00
1	 1.666096e+00	 5.763368e-01	 1.355935e+00
1	 1.659256e+00	 5.957426e-01	 1.356977e+00
1	 1.652171e+00	 6.151178e-01	 1.358864e+00
1	 1.644841e+00	 6.344579e-01	 1.359597e+00
1	 1.637265e+00	 6.537586e-01	 1.357202e+00
1	 1.629444e+00	 6.730152e-01	 1.349727e+00
1	 1.673096e+00	 5.787584e-01	 1.211871e+00
1	 1.666227e+00	 5.982457e-01	 1.214928e+00
1	 1.659113e+00	 6.177023e-01	 1.219573e+00
1	 1.651752e+00	 6.371237e-01	 1.223730e+00
1	 1.644145e+00	 6.565054e-01	 1.225351e+00
1	 1.636291e+00	 6.758430e-01	 1.222418e+00
1	 1.680096e+00	 5.811800e-01	 1.076705e+00
1	 1.673199e+00	 6.007488e-01	 1.081663e+00
1	 1.666055e+00	 6.202868e-01	 1.088975e+00
1	 1.658663e+00	 6.397895e-01	 1.096475e+00
1	 1.651024e+00	 6.592523e-01	 1.102025e+00
1	 1.643137e+00	 6.786708e-01	 1.103530e+00
1	 1.608905e+00	 6.645318e-01	 1.783676e+00
1	 1.600940e+00	 6.834979e-01	 1.738559e+00
1	 1.592732e+00	 7.024116e-01	 1.652039e+00
1	 1.584282e+00	 7.212684e-01	 1.521254e+00
1	 1.575590e+00	 7.400639e-01	 1.343687e+00
1	 1.566656e+00	 7.587935e-01	 1.117182e+00
1	 1.615752e+00	 6.673596e-01	 1.630203e+00
1	 1.607753e+00	 6.864064e-01	 1.591479e+00
1	 1.599510e+00	 7.054006e-01	 1.514110e+00
1	 1.591024e+00	 7.243376e-01	 1.395101e+00
1	 1.582295e+00	 7.432131e-01	 1.231789e+00
1	 1.573323e+00	 7.620224e-01	 1.021853e+00
1	 1.622598e+00	 6.701874e-01	 1.485605e+00
1	 1.614565e+00	 6.893149e-01	 1.453144e+00
1	 1.606288e+00	 7.083895e-01	 1.384625e+00
1	 1.597765e+00	 7.274069e-01	 1.276959e+00
1	 1.588999e+00	 7.463623e-01	 1.127373e+00
1	 1.579989e+00	 7.652513e-01	 9.334215e-01
1	 1.629444e+00	 6.730152e-01	 1.349727e+00
1	 1.621378e+00	 6.922234e-01	 1.323370e+00
1	 1.613065e+00	 7.113785e-01	 1.263374e+00
1	 1.604507e+00	 7.304761e-01	 1.166592e+00
1	 1.595704e+00	 7.495115e-01	 1.030179e+00
1	 1.586656e+00	 7.684802e-01	 8.515998e-01
1	 1.636291e+00	 6.758430e-01	 1.222418e+00
1	 1.628190e+00	 6.951319e-01	 1.201978e+00
1	 1.619843e+00	 7.143675e-01	 1.150151e+00
1	 1.611249e+00	 7.335453e-01	 1.063768e+00
1	 1.602409e+00	 7.526607e-01	 9.399487e-01
1	 1.593322e+00	 7.717091e-01	 7.761064e-01
1	 1.643137e+00	 6.786708e-01	 1.103530e+00
1	 1.635003e+00	 6.980404e-01	 1.088790e+00
1	 1.626620e+00	 7.173565e-01	 1.044750e+00
1	 1.617990e+00	 7.366145e-01	 9.682574e-01
1	 1.609113e+00	 7.558099e-01	 8.564288e-01
1	 1.599989e+00	 7.749380e-01	 7.066638e-01
1	 1.566656e+00	 7.587935e-01	 1.117182e+00
1	 1.557481e+00	 7.774527e-01	 8.442378e-01
1	 1.548064e+00	 7.960370e-01	 5.298549e-01
1	 1.538408e+00	 8.145418e-01	 1.760580e-01
1	 1.528513e+00	 8.329625e-01	-2.149084e-01
1	 1.518379e+00	 8.512948e-01	-6.405819e-01
1	 1.573323e+00	 7.620224e-01	 1.021853e+00
1	 1.564108e+00	 7.807610e-01	 7.670405e-01
1	 1.554652e+00	 7.994244e-01	 4.718470e-01
1	 1.544955e+00	 8.180079e-01	 1.384991e-01
1	 1.535017e+00	 8.365071e-01	-2.305597e-01
1	 1.524840e+00	 8.549173e-01	-6.326707e-01
1	 1.579989e+00	 7.652513e-01	 9.334215e-01
1	 1.570736e+00	 7.840693e-01	 6.961615e-01
1	 1.561239e+00	 8.028118e-01	 4.195880e-01
1	 1.551501e+00	 8.214740e-01	 1.060712e-01
1	 1.541522e+00	 8.400516e-01	-2.418035e-01
1	 1.531302e+00	 8.585398e-01	-6.212366e-01
1	 1.586656e+00	 7.684802e-01	 8.515998e-01
1	 1.577363e+00	 7.873776e-01	 6.312939e-01
1	 1.567827e+00	 8.061991e-01	 3.727612e-01
1	 1.558048e+00	 8.249402e-01	 7.845799e-02
1	 1.548026e+00	 8.435961e-01	-2.489437e-01
1	 1.537763e+00	 8.621624e-01	-6.065588e-01
1	 1.593322e+00	 7.717091e-01	 7.761064e-01
1	 1.583991e+00	 7.906859e-01	 5.721363e-01
1	 1.574414e+00	 8.095865e-01	 3.310548e-01
1	 1.564594e+00	 8.284063e-01	 5.534874e-02
1	 1.554530e+00	 8.471406e-01	-2.522793e-01
1	 1.544224e+00	 8.657849e-01	-5.889124e-01
1	 1.599989e+00	 7.749380e-01	 7.066638e-01
1	 1.590618e+00	 7.939943e-01	 5.183918e-01
1	 1.581002e+00	 8.129739e-01	 2.941627e-01
1	 1.571140e+00	 8.318724e-01	 3.643776e-02
1	 1.561034e+00	 8.506851e-01	-2.521040e-01
1	 1.550685e+00	 8.694074e-01	-5.685674e-01
1	 1.518379e+00	 8.512948e-01	-6.405819e-01
1	 1.508008e+00	 8.695339e-01	-1.103761e+00
1	 1.497401e+00	 8.876755e-01	-1.608174e+00
1	 1.486559e+00	 9.057150e-01	-2.152439e+00
1	 1.475484e+00	 9.236480e-01	-2.734974e+00
1	 1.464176e+00	 9.414699e-01	-3.353998e+00
1	 1.524840e+00	 8.549173e-01	-6.326707e-01
1	 1.514425e+00	 8.732341e-01	-1.070554e+00
1	 1.503773e+00	 8.914529e-01	-1.548034e+00
1	 1.492885e+00	 9.095691e-01	-2.063816e+00
1	 1.481763e+00	 9.275784e-01	-2.616425e+00
1	 1.470407e+00	 9.454762e-01	-3.204211e+00
1	 1.531302e+00	 8.585398e-01	-6.212366e-01
1	 1.520842e+00	 8.769342e-01	-1.034956e+00
1	 1.510145e+00	 8.952302e-01	-1.486876e+00
1	 1.499211e+00	 9.134233e-01	-1.975701e+00
1	 1.488041e+00	 9.315088e-01	-2.499972e+00
1	 1.476638e+00	 9.494825e-01	-3.058071e+00
1	 1.537763e+00	 8.621624e-01	-6.065588e-01
1	 1.527259e+00	 8.806344e-01	-9.972032e-01
1	 1.516517e+00	 8.990076e-01	-1.424870e+00
1	 1.505537e+00	 9.172774e-01	-1.888175e+00
1	 1.494320e+00	 9.354392e-01	-2.385584e+00
1	 1.482868e+00	 9.534887e-01	-2.915420e+00
1	 1.544224e+00	 8.657849e-01	-5.889124e-01
1	 1.533677e+00	 8.843345e-01	-9.575289e-01
1	 1.522889e+00	 9.027849e-01	-1.362185e+00
1	 1.511862e+00	 9.211315e-01	-1.801318e+00
1	 1.500599e+00	 9.393697e-01	-2.273234e+00
1	 1.489099e+00	 9.574950e-01	-2.776101e+00
1	 1.550685e+00	 8.694074e-01	-5.685674e-01
1	 1.540094e+00	 8.880347e-01	-9.161616e-01
1	 1.529261e+00	 9.065622e-01	-1.298983e+00
1	 1.518188e+00	 9.249856e-01	-1.715210e+00
1	 1.506877e+00	 9.433001e-01	-2.162895e+00
1	 1.495329e+00	 9.615012e-01	-2.639962e+00
1	 1.464176e+00	 9.414699e-01	-3.353998e+00
1	 1.452639e+00	 9.591764e-01	-3.984302e+00
1	 1.440872e+00	 9.767631e-01	-4.601852e+00
1	 1.428879e+00	 9.942255e-01	-5.206647e+00
1	 1.416660e+00	 1.011559e+00	-5.798891e+00
1	 1.404219e+00	 1.028760e+00	-6.379004e+00
1	 1.470407e+00	 9.454762e-01	-3.204211e+00
1	 1.458820e+00	 9.632580e-01	-3.803222e+00
1	 1.447003e+00	 9.809195e-01	-4.390402e+00
1	 1.434959e+00	 9.984563e-01	-4.965415e+00
1	 1.422688e+00	 1.015864e+00	-5.528064e+00
1	 1.410194e+00	 1.033138e+00	-6.078290e+00
1	 1.476638e+00	 9.494825e-01	-3.058071e+00
1	 1.465001e+00	 9.673396e-01	-3.626942e+00
1	 1.453135e+00	 9.850760e-01	-4.184275e+00
1	 1.441039e+00	 1.002687e+00	-4.729516e+00
1	 1.428717e+00	 1.020168e+00	-5.262192e+00
1	 1.416170e+00	 1.037516e+00	-5.781909e+00
1	 1.482868e+00	 9.534887e-01	-2.915420e+00
1	 1.471183e+00	 9.714212e-01	-3.455207e+00
1	 1.459266e+00	 9.892324e-01	-3.983206e+00
1	 1.447120e+00	 1.006918e+00	-4.498760e+00
1	 1.434745e+00	 1.024473e+00	-5.001244e+00
1	 1.422145e+00	 1.041894e+00	-5.490070e+00
1	 1.489099e+00	 9.574950e-01	-2.776101e+00
1	 1.477364e+00	 9.755028e-01	-3.287767e+00
1	 1.465398e+00	 9.933888e-01	-3.786935e+00
1	 1.453200e+00	 1.011149e+00	-4.272958e+00
1	 1.440774e+00	 1.028777e+00	-4.745189e+00
1	 1.428120e+00	 1.046271e+00	-5.202979e+00
1	 1.495329e+00	 9.615012e-01	-2.639962e+00
1	 1.483546e+00	 9.795844e-01	-3.124374e+00
1	 1.471529e+00	 9.975453e-01	-3.595204e+00
1	 1.459280e+00	 1.015379e+00	-4.051927e+00
1	 1.446802e+00	 1.033082e+00	-4.493996e+00
1	 1.434096e+00	 1.050649e+00	-4.920837e+00
1	 1.404219e+00	 1.028760e+00	-6.379004e+00
1	 1.391557e+00	 1.045824e+00	-6.893238e+00
1	 1.378676e+00	 1.062747e+00	-7.290849e+00
1	 1.365579e+00	 1.079524e+00	-7.577333e+00
1	 1.352269e+00	 1.096151e+00	-7.758733e+00
1	 1.338747e+00	 1.112625e+00	-7.841628e+00
1	 1.410194e+00	 1.033138e+00	-6.078290e+00
1	 1.397478e+00	 1.050275e+00	-6.563285e+00
1	 1.384543e+00	 1.067269e+00	-6.934132e+00
1	 1.371390e+00	 1.084118e+00	-7.197200e+00
1	 1.358023e+00	 1.100816e+00	-7.359496e+00
1	 1.344444e+00	 1.117360e+00	-7.428657e+00
1	 1.416170e+00	 1.037516e+00	-5.781909e+00
1	 1.403400e+00	 1.054725e+00	-6.237427e+00
1	 1.390409e+00	 1.071792e+00	-6.582100e+00
1	 1.377201e+00	 1.088711e+00	-6.823028e+00
1	 1.363777e+00	 1.105480e+00	-6.968025e+00
1	 1.350140e+00	 1.122094e+00	-7.025613e+00
1	 1.422145e+00	 1.041894e+00	-5.490070e+00
1	 1.409321e+00	 1.059175e+00	-5.916101e+00
1	 1.396276e+00	 1.076314e+00	-6.235309e+00
1	 1.383012e+00	 1.093305e+00	-6.455384e+00
1	 1.369532e+00	 1.110145e+00	-6.584797e+00
1	 1.355837e+00	 1.126829e+00	-6.632782e+00
1	 1.428120e+00	 1.046271e+00	-5.202979e+00
1	 1.415243e+00	 1.063626e+00	-5.599734e+00
1	 1.402143e+00	 1.080836e+00	-5.894303e+00
1	 1.388823e+00	 1.097899e+00	-6.094830e+00
1	 1.375286e+00	 1.114809e+00	-6.210283e+00
1	 1.361534e+00	 1.131564e+00	-6.250445e+00
1	 1.434096e+00	 1.050649e+00	-4.920837e+00
1	 1.421164e+00	 1.068076e+00	-5.288747e+00
1	 1.408009e+00	 1.085359e+00	-5.559619e+00
1	 1.394634e+00	 1.102493e+00	-5.741912e+00
1	 1.381040e+00	 1.119474e+00	-5.844945e+00
1	 1.367231e+00	 1.136298e+00	-5.878879e+00
1	 1.338747e+00	 1.112625e+00	-7.841628e+00
1	 1.325017e+00	 1.128942e+00	-7.870525e+00
1	 1.311081e+00	 1.145096e+00	-7.888308e+00
1	 1.296942e+00	 1.161085e+00	-7.899757e+00
1	 1.282604e+00	 1.176905e+00	-7.909959e+00
1	 1.268068e+00	 1.192552e+00	-7.924304e+00
1	 1.344444e+00	 1.117360e+00	-7.428657e+00
1	 1.330655e+00	 1.133746e+00	-7.449174e+00
1	 1.316660e+00	 1.149969e+00	-7.462519e+00
1	 1.302461e+00	 1.166026e+00	-7.472434e+00
1	 1.288061e+00	 1.181914e+00	-7.482887e+00
1	 1.273464e+00	 1.197627e+00	-7.498065e+00
1	 1.350140e+00	 1.122094e+00	-7.025613e+00
1	 1.336293e+00	 1.138550e+00	-7.039577e+00
1	 1.322239e+00	 1.154842e+00	-7.049483e+00
1	 1.307980e+00	 1.170967e+00	-7.058167e+00
1	 1.293519e+00	 1.186922e+00	-7.068613e+00
1	 1.278860e+00	 1.202702e+00	-7.083955e+00
1	 1.355837e+00	 1.126829e+00	-6.632782e+00
1	 1.341932e+00	 1.143354e+00	-6.641813e+00
1	 1.327818e+00	 1.159714e+00	-6.649151e+00
1	 1.313499e+00	 1.175908e+00	-6.656846e+00
1	 1.298977e+00	 1.191930e+00	-6.667038e+00
1	 1.284256e+00	 1.207777e+00	-6.681952e+00
1	 1.361534e+00	 1.131564e+00	-6.250445e+00
1	 1.347570e+00	 1.148158e+00	-6.255963e+00
1	 1.333397e+00	 1.164587e+00	-6.261471e+00
1	 1.319018e+00	 1.180849e+00	-6.268362e+00
1	 1.304435e+00	 1.196938e+00	-6.278063e+00
1	 1.289652e+00	 1.212851e+00	-6.292035e+00
1	 1.367231e+00	 1.136298e+00	-5.878879e+00
1	 1.353209e+00	 1.152962e+00	-5.882105e+00
1	 1.338976e+00	 1.169460e+00	-5.886396e+00
1	 1.324537e+00	 1.185789e+00	-5.892609e+00
1	 1.309893e+00	 1.201946e+00	-5.901591e+00
1	 1.295048e+00	 1.217926e+00	-5.914182e+00
1	 1.268068e+00	 1.192552e+00	-7.924304e+00
1	 1.253339e+00	 1.208023e+00	-7.967991e+00
1	 1.238420e+00	 1.223313e+00	-8.063491e+00
1	 1.223313e+00	 1.238420e+00	-8.212296e+00
1	 1.208023e+00	 1.253339e+00	-8.415863e+00
1	 1.192552e+00	 1.268068e+00	-8.675609e+00
1	 1.273464e+00	 1.197627e+00	-7.498065e+00
1	 1.258673e+00	 1.213163e+00	-7.541266e+00
1	 1.243690e+00	 1.228519e+00	-7.633915e+00
1	 1.228519e+00	 1.243690e+00	-7.777528e+00
1	 1.213163e+00	 1.258673e+00	-7.973597e+00
1	 1.197627e+00	 1.273464e+00	-8.223583e+00
1	 1.278860e+00	 1.202702e+00	-7.083955e+00
1	 1.264006e+00	 1.218304e+00	-7.125984e+00
1	 1.248959e+00	 1.233724e+00	-7.215332e+00
1	 1.233724e+00	 1.248959e+00	-7.353485e+00
1	 1.218304e+00	 1.264006e+00	-7.541904e+00
1	 1.202702e+00	 1.278860e+00	-7.782029e+00
1	 1.284256e+00	 1.207777e+00	-6.681952e+00
1	 1.269339e+00	 1.223444e+00	-6.722220e+00
1	 1.254229e+00	 1.238930e+00	-6.807891e+00
1	 1.238930e+00	 1.254229e+00	-6.940358e+00
1	 1.223444e+00	 1.269339e+00	-7.120995e+00
1	 1.207777e+00	 1.284256e+00	-7.351156e+00
1	 1.289652e+00	 1.212851e+00	-6.292035e+00
1	 1.274673e+00	 1.228585e+00	-6.330050e+00
1	 1.259499e+00	 1.244135e+00	-6.411734e+00
1	 1.244135e+00	 1.259499e+00	-6.538336e+00
1	 1.228585e+00	 1.274673e+00	-6.711079e+00
1	 1.212851e+00	 1.289652e+00	-6.931166e+00
1	 1.295048e+00	 1.217926e+00	-5.914182e+00
1	 1.280006e+00	 1.233726e+00	-5.949547e+00
1	 1.264769e+00	 1.249341e+00	-6.027006e+00
1	 1.249341e+00	 1.264769e+00	-6.147605e+00
1	 1.233726e+00	 1.280006e+00	-6.312360e+00
1	 1.217926e+00	 1.295048e+00	-6.522259e+00
1	 1.192552e+00	 1.268068e+00	-8.675609e+00
1	 1.176905e+00	 1.282604e+00	-9.016434e+00
1	 1.161085e+00	 1.296942e+00	-9.455108e+00
1	 1.145096e+00	 1.311081e+00	-9.980381e+00
1	 1.128942e+00	 1.325017e+00	-1.058043e+01
1	 1.112625e+00	 1.338747e+00	-1.124288e+01
1	 1.197627e+00	 1.273464e+00	-8.223583e+00
1	 1.181914e+00	 1.288061e+00	-8.550792e+00
1	 1.166026e+00	 1.302461e+00	-8.971284e+00
1	 1.149969e+00	 1.316660e+00	-9.475232e+00
1	 1.133746e+00	 1.330655e+00	-1.005230e+01
1	 1.117360e+00	 1.344444e+00	-1.069169e+01
1	 1.202702e+00	 1.278860e+00	-7.782029e+00
1	 1.186922e+00	 1.293519e+00	-8.095743e+00
1	 1.170967e+00	 1.307980e+00	-8.498525e+00
1	 1.154842e+00	 1.322239e+00	-8.981851e+00
1	 1.138550e+00	 1.336293e+00	-9.536759e+00
1	 1.122094e+00	 1.350140e+00	-1.015387e+01
1	 1.207777e+00	 1.284256e+00	-7.351156e+00
1	 1.191930e+00	 1.298977e+00	-7.651458e+00
1	 1.175908e+00	 1.313499e+00	-8.036933e+00
1	 1.159714e+00	 1.327818e+00	-8.500240e+00
1	 1.143354e+00	 1.341932e+00	-9.033662e+00
1	 1.126829e+00	 1.355837e+00	-9.629125e+00
1	 1.212851e+00	 1.289652e+00	-6.931166e+00
1	 1.196938e+00	 1.304435e+00	-7.218108e+00
1	 1.180849e+00	 1.319018e+00	-7.586612e+00
1	 1.164587e+00	 1.333397e+00	-8.030403e+00
1	 1.148158e+00	 1.347570e+00	-8.542889e+00
1	 1.131564e+00	 1.361534e+00	-9.117176e+00
1	 1.217926e+00	 1.295048e+00	-6.522259e+00
1	 1.201946e+00	 1.309893e+00	-6.795858e+00
1	 1.185789e+00	 1.324537e+00	-7.147660e+00
1	 1.169460e+00	 1.338976e+00	-7.572340e+00
1	 1.152962e+00	 1.353209e+00	-8.064313e+00
1	 1.136298e+00	 1.367231e+00	-8.617739e+00
1	 1.112625e+00	 1.338747e+00	-1.124288e+01
1	 1.096151e+00	 1.352269e+00	-1.198272e+01
1	 1.079524e+00	 1.365579e+00	-1.281276e+01
1	 1.062747e+00	 1.378676e+00	-1.371658e+01
1	 1.045824e+00	 1.391557e+00	-1.467731e+01
1	 1.028760e+00	 1.404219e+00	-1.567761e+01
1	 1.117360e+00	 1.344444e+00	-1.069169e+01
1	 1.100816e+00	 1.358023e+00	-1.140905e+01
1	 1.084118e+00	 1.371390e+00	-1.221552e+01
1	 1.067269e+00	 1.384543e+00	-1.309268e+01
1	 1.050275e+00	 1.397478e+00	-1.402158e+01
1	 1.033138e+00	 1.410194e+00	-1.498273e+01
1	 1.122094e+00	 1.350140e+00	-1.015387e+01
1	 1.105480e+00	 1.363777e+00	-1.084891e+01
1	 1.088711e+00	 1.377201e+00	-1.163103e+01
1	 1.071792e+00	 1.390409e+00	-1.248018e+01
1	 1.054725e+00	 1.403400e+00	-1.337568e+01
1	 1.037516e+00	 1.416170e+00	-1.429625e+01
1	 1.126829e+00	 1.355837e+00	-9.629125e+00
1	 1.110145e+00	 1.369532e+00	-1.030187e+01
1	 1.093305e+00	 1.383012e+00	-1.105885e+01
1	 1.076314e+00	 1.396276e+00	-1.187871e+01
1	 1.059175e+00	 1.409321e+00	-1.273940e+01
1	 1.041894e+00	 1.422145e+00	-1.361822e+01
1	 1.131564e+00	 1.361534e+00	-9.117176e+00
1	 1.114809e+00	 1.375286e+00	-9.767548e+00
1	 1.097899e+00	 1.388823e+00	-1.049856e+01
1	 1.080836e+00	 1.402143e+00	-1.128791e+01
1	 1.063626e+00	 1.415243e+00	-1.211253e+01
1	 1.046271e+00	 1.428120e+00	-1.294868e+01
1	 1.136298e+00	 1.367231e+00	-8.617739e+00
1	 1.119474e+00	 1.381040e+00	-9.245525e+00
1	 1.102493e+00	 1.394634e+00	-9.949726e+00
1	 1.085359e+00	 1.408009e+00	-1.070742e+01
1	 1.068076e+00	 1.421164e+00	-1.149489e+01
1	 1.050649e+00	 1.434096e+00	-1.228767e+01
1	 1.028760e+00	 1.404219e+00	-1.567761e+01
1	 1.011559e+00	 1.416660e+00	-1.665178e+01
1	 9.942255e-01	 1.428879e+00	-1.754118e+01
1	 9.767631e-01	 1.440872e+00	-1.833879e+01
1	 9.591764e-01	 1.452639e+00	-1.903749e+01
1	 9.414699e-01	 1.464176e+00	-1.963011e+01
1	 1.033138e+00	 1.410194e+00	-1.498273e+01
1	 1.015864e+00	 1.422688e+00	-1.591015e+01
1	 9.984563e-01	 1.434959e+00	-1.674819e+01
1	 9.809195e-01	 1.447003e+00	-1.749250e+01
1	 9.632580e-01	 1.458820e+00	-1.813874e+01
1	 9.454762e-01	 1.470407e+00	-1.868258e+01
1	 1.037516e+00	 1.416170e+00	-1.429625e+01
1	 1.020168e+00	 1.428717e+00	-1.517658e+01
1	 1.002687e+00	 1.441039e+00	-1.596449e+01
1	 9.850760e-01	 1.453135e+00	-1.665809e+01
1	 9.673396e-01	 1.465001e+00	-1.725554e+01
1	 9.494825e-01	 1.476638e+00	-1.775511e+01
1	 1.041894e+00	 1.422145e+00	-1.361822e+01
1	 1.024473e+00	 1.434745e+00	-1.445136e+01
1	 1.006918e+00	 1.447120e+00	-1.519058e+01
1	 9.892324e-01	 1.459266e+00	-1.583615e+01
1	 9.714212e-01	 1.471183e+00	-1.638851e+01
1	 9.534887e-01	 1.482868e+00	-1.684825e+01
1	 1.046271e+00	 1.428120e+00	-1.294868e+01
1	 1.028777e+00	 1.440774e+00	-1.373480e+01
1	 1.011149e+00	 1.453200e+00	-1.442691e+01
1	 9.933888e-01	 1.465398e+00	-1.502724e+01
1	 9.755028e-01	 1.477364e+00	-1.553824e+01
1	 9.574950e-01	 1.489099e+00	-1.596258e+01
1	 1.050649e+00	 1.434096e+00	-1.228767e+01
1	 1.033082e+00	 1.446802e+00	-1.302717e+01
1	 1.015379e+00	 1.459280e+00	-1.367393e+01
1	 9.975453e-01	 1.471529e+00	-1.423191e+01
1	 9.795844e-01	 1.483546e+00	-1.470531e+01
1	 9.615012e-01	 1.495329e+00	-1.509863e+01
1	 9.414699e-01	 1.464176e+00	-1.963011e+01
1	 9.236480e-01	 1.475484e+00	-2.009280e+01
1	 9.057150e-01	 1.486559e+00	-2.041383e+01
1	 8.876755e-01	 1.497401e+00	-2.060448e+01
1	 8.695339e-01	 1.508008e+00	-2.067643e+01
1	 8.512948e-01	 1.518379e+00	-2.064176e+01
1	 9.454762e-01	 1.470407e+00	-1.868258e+01
1	 9.275784e-01	 1.481763e+00	-1.910429e+01
1	 9.095691e-01	 1.492885e+00	-1.939376e+01
1	 8.914529e-01	 1.503773e+00	-1.956143e+01
1	 8.732341e-01	 1.514425e+00	-1.961809e+01
1	 8.549173e-01	 1.524840e+00	-1.957490e+01
1	 9.494825e-01	 1.476638e+00	-1.775511e+01
1	 9.315088e-01	 1.488041e+00	-1.814045e+01
1	 9.134233e-01	 1.499211e+00	-1.840245e+01
1	 8.952302e-01	 1.510145e+00	-1.855052e+01
1	 8.769342e-01	 1.520842e+00	-1.859443e+01
1	 8.585398e-01	 1.531302e+00	-1.854421e+01
1	 9.534887e-01	 1.482868e+00	-1.684825e+01
1	 9.354392e-01	 1.494320e+00	-1.720176e+01
1	 9.172774e-01	 1.505537e+00	-1.744028e+01
1	 8.990076e-01	 1.516517e+00	-1.757205e+01
1	 8.806344e-01	 1.527259e+00	-1.760559e+01
1	 8.621624e-01	 1.537763e+00	-1.754970e+01
1	 9.574950e-01	 1.489099e+00	-1.596258e+01
1	 9.393697e-01	 1.500599e+00	-1.628870e+01
1	 9.211315e-01	 1.511862e+00	-1.650764e+01
1	 9.027849e-01	 1.522889e+00	-1.662627e+01
1	 8.843345e-01	 1.533677e+00	-1.665173e+01
1	 8.657849e-01	 1.544224e+00	-1.659138e+01
1	 9.615012e-01	 1.495329e+00	-1.509863e+01
1	 9.433001e-01	 1.506877e+00	-1.540175e+01
1	 9.249856e-01	 1.518188e+00	-1.560490e+01
1	 9.065622e-01	 1.529261e+00	-1.571346e+01
1	 8.880347e-01	 1.540094e+00	-1.573299e+01
1	 8.694074e-01	 1.550685e+00	-1.566926e+01
1	 8.512948e-01	 1.518379e+00	-2.064176e+01
1	 8.329625e-01	 1.528513e+00	-2.052109e+01
1	 8.145418e-01	 1.538408e+00	-2.033057e+01
1	 7.960370e-01	 1.548064e+00	-2.007596e+01
1	 7.774527e-01	 1.557481e+00	-1.976316e+01
1	 7.587935e-01	 1.566656e+00	-1.939823e+01
1	 8.549173e-01	 1.524840e+00	-1.957490e+01
1	 8.365071e-01	 1.535017e+00	-1.945087e+01
1	 8.180079e-01	 1.544955e+00	-1.926031e+01
1	 7.994244e-01	 1.554652e+00	-1.900762e+01
1	 7.807610e-01	 1.564108e+00	-1.869739e+01
1	 7.620224e-01	 1.573323e+00	-1.833430e+01
1	 8.585398e-01	 1.531302e+00	-1.854421e+01
1	 8.400516e-01	 1.541522e+00	-1.841725e+01
1	 8.214740e-01	 1.551501e+00	-1.822627e+01
1	 8.028118e-01	 1.561239e+00	-1.797472e+01
1	 7.840693e-01	 1.570736e+00	-1.766616e+01
1	 7.652513e-01	 1.579989e+00	-1.730428e+01
1	 8.621624e-01	 1.537763e+00	-1.754970e+01
1	 8.435961e-01	 1.548026e+00	-1.742010e+01
1	 8.249402e-01	 1.558048e+00	-1.722829e+01
1	 8.061991e-01	 1.567827e+00	-1.697706e+01
1	 7.873776e-01	 1.577363e+00	-1.666930e+01
1	 7.684802e-01	 1.586656e+00	-1.630805e+01
1	 8.657849e-01	 1.544224e+00	-1.659138e+01
1	 8.471406e-01	 1.554530e+00	-1.645932e+01
1	 8.284063e-01	 1.564594e+00	-1.626619e+01
1	 8.095865e-01	 1.574414e+00	-1.601445e+01
1	 7.906859e-01	 1.583991e+00	-1.570666e+01
1	 7.717091e-01	 1.593322e+00	-1.534552e+01
1	 8.694074e-01	 1.550685e+00	-1.566926e+01
1	 8.506851e-01	 1.561034e+00	-1.553481e+01
1	 8.318724e-01	 1.571140e+00	-1.533982e+01
1	 8.129739e-01	 1.581002e+00	-1.508671e+01
1	 7.939943e-01	 1.590618e+00	-1.477806e+01
1	 7.749380e-01	 1.599989e+00	-1.441658e+01
1	 7.587935e-01	 1.566656e+00	-1.939823e+01
1	 7.400639e-01	 1.575590e+00	-1.895649e+01
1	 7.212684e-01	 1.584282e+00	-1.842876e+01
1	 7.024116e-01	 1.592732e+00	-1.784471e+01
1	 6.834979e-01	 1.600940e+00	-1.723433e+01
1	 6.645318e-01	 1.608905e+00	-1.662794e+01
1	 7.620224e-01	 1.573323e+00	-1.833430e+01
1	 7.432131e-01	 1.582295e+00	-1.789444e+01
1	 7.243376e-01	 1.591024e+00	-1.737024e+01
1	 7.054006e-01	 1.599510e+00	-1.679133e+01
1	 6.864064e-01	 1.607753e+00	-1.618767e+01
1	 6.673596e-01	 1.615752e+00	-1.558949e+01
1	 7.652513e-01	 1.579989e+00	-1.730428e+01
1	 7.463623e-01	 1.588999e+00	-1.686618e+01
1	 7.274069e-01	 1.597765e+00	-1.634581e+01
1	 7.083895e-01	 1.606288e+00	-1.577257e+01
1	 6.893149e-01	 1.614565e+00	-1.517618e+01
1	 6.701874e-01	 1.622598e+00	-1.458662e+01
1	 7.684802e-01	 1.586656e+00	-1.630805e+01
1	 7.495115e-01	 1.595704e+00	-1.587165e+01
1	 7.304761e-01	 1.604507e+00	-1.535548e+01
1	 7.113785e-01	 1.613065e+00	-1.478848e+01
1	 6.922234e-01	 1.621378e+00	-1.419995e+01
1	 6.730152e-01	 1.629444e+00	-1.361942e+01
1	 7.717091e-01	 1.593322e+00	-1.534552e+01
1	 7.526607e-01	 1.602409e+00	-1.491084e+01
1	 7.335453e-01	 1.611249e+00	-1.439926e+01
1	 7.143675e-01	 1.619843e+00	-1.383911e+01
1	 6.951319e-01	 1.628190e+00	-1.325905e+01
1	 6.758430e-01	 1.636291e+00	-1.268799e+01
1	 7.749380e-01	 1.599989e+00	-1.441658e+01
1	 7.558099e-01	 1.609113e+00	-1.398370e+01
1	 7.366145e-01	 1.617990e+00	-1.347716e+01
1	 7.173565e-01	 1.626620e+00	-1.292451e+01
1	 6.980404e-01	 1.635003e+00	-1.235356e+01
1	 6.786708e-01	 1.643137e+00	-1.179240e+01
1	 6.645318e-01	 1.608905e+00	-1.662794e+01
1	 6.455179e-01	 1.616628e+00	-1.606266e+01
1	 6.264605e-01	 1.624108e+00	-1.556031e+01
1	 6.073642e-01	 1.631345e+00	-1.512829e+01
1	 5.882332e-01	 1.638341e+00	-1.477385e+01
1	 5.690721e-01	 1.645094e+00	-1.450406e+01
1	 6.673596e-01	 1.615752e+00	-1.558949e+01
1	 6.482648e-01	 1.623507e+00	-1.503215e+01
1	 6.291263e-01	 1.631019e+00	-1.453610e+01
1	 6.099487e-01	 1.638287e+00	-1.410939e+01
1	 5.907364e-01	 1.645312e+00	-1.375991e+01
1	 5.714936e-01	 1.652095e+00	-1.349539e+01
1	 6.701874e-01	 1.622598e+00	-1.458662e+01
1	 6.510117e-01	 1.630386e+00	-1.403742e+01
1	 6.317921e-01	 1.637930e+00	-1.354781e+01
1	 6.125332e-01	 1.645229e+00	-1.312647e+01
1	 5.932395e-01	 1.652284e+00	-1.278195e+01
1	 5.739152e-01	 1.659095e+00	-1.252266e+01
1	 6.730152e-01	 1.629444e+00	-1.361942e+01
1	 6.537586e-01	 1.637265e+00	-1.307857e+01
1	 6.344579e-01	 1.644841e+00	-1.259551e+01
1	 6.151178e-01	 1.652171e+00	-1.217957e+01
1	 5.957426e-01	 1.659256e+00	-1.183998e+01
1	 5.763368e-01	 1.666096e+00	-1.158581e+01
1	 6.758430e-01	 1.636291e+00	-1.268799e+01
1	 6.565054e-01	 1.644145e+00	-1.215570e+01
1	 6.371237e-01	 1.651752e+00	-1.167929e+01
1	 6.177023e-01	 1.659113e+00	-1.126876e+01
1	 5.982457e-01	 1.666227e+00	-1.093400e+01
1	 5.787584e-01	 1.673096e+00	-1.068481e+01
1	 6.786708e-01	 1.643137e+00	-1.179240e+01
1	 6.592523e-01	 1.651024e+00	-1.126890e+01
1	 6.397895e-01	 1.658663e+00	-1.079923e+01
1	 6.202868e-01	 1.666055e+00	-1.039409e+01
1	 6.007488e-01	 1.673199e+00	-1.006404e+01
1	 5.811800e-01	 1.680096e+00	-9.819591e+00
1	 5.690721e-01	 1.645094e+00	-1.450406e+01
1	 5.498850e-01	 1.651607e+00	-1.434078e+01
1	 5.306764e-01	 1.657878e+00	-1.431467e+01
1	 5.114504e-01	 1.663910e+00	-1.444576e+01
1	 4.922114e-01	 1.669702e+00	-1.475395e+01
1	 4.729634e-01	 1.675256e+00	-1.525894e+01
1	 5.714936e-01	 1.652095e+00	-1.349539e+01
1	 5.522249e-01	 1.658635e+00	-1.333906e+01
1	 5.329346e-01	 1.664933e+00	-1.332174e+01
1	 5.136268e-01	 1.670991e+00	-1.346235e+01
1	 4.943059e-01	 1.676808e+00	-1.377964e+01
1	 4.749760e-01	 1.682385e+00	-1.429218e+01
1	 5.739152e-01	 1.659095e+00	-1.252266e+01
1	 5.545649e-01	 1.665663e+00	-1.237302e+01
1	 5.351928e-01	 1.671988e+00	-1.236390e+01
1	 5.158032e-01	 1.678071e+00	-1.251309e+01
1	 4.964004e-01	 1.683913e+00	-1.283823e+01
1	 4.769886e-01	 1.689514e+00	-1.335680e+01
1	 5.763368e-01	 1.666096e+00	-1.158581e+01
1	 5.569048e-01	 1.672691e+00	-1.144257e+01
1	 5.374510e-01	 1.679043e+00	-1.144099e+01
1	 5.179796e-01	 1.685152e+00	-1.159780e+01
1	 4.984949e-01	 1.691018e+00	-1.192957e+01
1	 4.790013e-01	 1.696643e+00	-1.245267e+01
1	 5.787584e-01	 1.673096e+00	-1.068481e+01
1	 5.592447e-01	 1.679719e+00	-1.054759e+01
1	 5.397092e-01	 1.686098e+00	-1.055287e+01
1	 5.201559e-01	 1.692232e+00	-1.071634e+01
1	 5.005894e-01	 1.698123e+00	-1.105350e+01
1	 4.810139e-01	 1.703771e+00	-1.157969e+01
1	 5.811800e-01	 1.680096e+00	-9.819591e+00
1	 5.615847e-01	 1.686747e+00	-9.687986e+00
1	 5.419673e-01	 1.693152e+00	-9.699416e+00
1	 5.223323e-01	 1.699312e+00	-9.868551e+00
1	 5.026840e-01	 1.705228e+00	-1.020989e+01
1	 4.830265e-01	 1.710900e+00	-1.073774e+01
1	 4.729634e-01	 1.675256e+00	-1.525894e+01
1	 4.537107e-01	 1.680573e+00	-1.597830e+01
1	 4.344573e-01	 1.685653e+00	-1.691649e+01
1	 4.152073e-01	 1.690497e+00	-1.807313e+01
1	 3.959647e-01	 1.695108e+00	-1.944758e+01
1	 3.767333e-01	 1.699485e+00	-2.103894e+01
1	 4.749760e-01	 1.682385e+00	-1.429218e+01
1	 4.556414e-01	 1.687724e+00	-1.501584e+01
1	 4.363061e-01	 1.692826e+00	-1.595510e+01
1	 4.169742e-01	 1.697691e+00	-1.711109e+01
1	 3.976496e-01	 1.702321e+00	-1.848462e+01
1	 3.783364e-01	 1.706717e+00	-2.007626e+01
1	 4.769886e-01	 1.689514e+00	-1.335680e+01
1	 4.575721e-01	 1.694876e+00	-1.408313e+01
1	 4.381548e-01	 1.699999e+00	-1.502180e+01
1	 4.187410e-01	 1.704885e+00	-1.617525e+01
1	 3.993346e-01	 1.709534e+00	-1.754561e+01
1	 3.799395e-01	 1.713949e+00	-1.913478e+01
1	 4.790013e-01	 1.696643e+00	-1.245267e+01
1	 4.595028e-01	 1.702027e+00	-1.318008e+01
1	 4.400036e-01	 1.707172e+00	-1.411649e+01
1	 4.205078e-01	 1.712078e+00	-1.526549e+01
1	 4.010195e-01	 1.716747e+00	-1.663040e+01
1	 3.815427e-01	 1.721181e+00	-1.821428e+01
1	 4.810139e-01	 1.703771e+00	-1.157969e+01
1	 4.614335e-01	 1.709178e+00	-1.230661e+01
1	 4.418524e-01	 1.714345e+00	-1.323908e+01
1	 4.222747e-01	 1.719272e+00	-1.438171e+01
1	 4.027045e-01	 1.723961e+00	-1.573885e+01
1	 3.831458e-01	 1.728413e+00	-1.731457e+01
1	 4.830265e-01	 1.710900e+00	-1.073774e+01
1	 4.633641e-01	 1.716330e+00	-1.146263e+01
1	 4.437011e-01	 1.721518e+00	-1.238949e+01
1	 4.240415e-01	 1.726465e+00	-1.352381e+01
1	 4.043894e-01	 1.731174e+00	-1.487081e+01
1	 3.847489e-01	 1.735645e+00	-1.643545e+01
1	 3.767333e-01	 1.699485e+00	-2.103894e+01
1	 3.575171e-01	 1.703631e+00	-2.287205e+01
1	 3.383199e-01	 1.707547e+00	-2.493761e+01
1	 3.191455e-01	 1.711235e+00	-2.718347e+01
1	 2.999976e-01	 1.714695e+00	-2.955772e+01
1	 2.808797e-01	 1.717930e+00	-3.200883e+01
1	 3.783364e-01	 1.706717e+00	-2.007626e+01
1	 3.590385e-01	 1.710881e+00	-2.191089e+01
1	 3.397596e-01	 1.714814e+00	-2.397822e+01
1	 3.205036e-01	 1.718517e+00	-2.622600e+01
1	 3.012742e-01	 1.721992e+00	-2.860224e+01
1	 2.820750e-01	 1.725241e+00	-3.105531e+01
1	 3.799395e-01	 1.713949e+00	-1.913478e+01
1	 3.605598e-01	 1.718130e+00	-2.096748e+01
1	 3.411993e-01	 1.722080e+00	-2.303244e+01
1	 3.218616e-01	 1.725798e+00	-2.527748e+01
1	 3.025507e-01	 1.729288e+00	-2.765066e+01
1	 2.832702e-01	 1.732551e+00	-3.010040e+01
1	 3.815427e-01	 1.721181e+00	-1.821428e+01
1	 3.620812e-01	 1.725380e+00	-2.004155e+01
1	 3.426389e-01	 1.729346e+00	-2.209998e+01
1	 3.232197e-01	 1.733080e+00	-2.433760e+01
1	 3.038273e-01	 1.736585e+00	-2.670268e+01
1	 2.844654e-01	 1.739861e+00	-2.914383e+01
1	 3.831458e-01	 1.728413e+00	-1.731457e+01
1	 3.636025e-01	 1.732629e+00	-1.913285e+01
1	 3.440786e-01	 1.736612e+00	-2.118055e+01
1	 3.245778e-01	 1.740362e+00	-2.340606e+01
1	 3.051039e-01	 1.743882e+00	-2.575801e+01
1	 2.856607e-01	 1.747172e+00	-2.818533e+01
1	 3.847489e-01	 1.735645e+00	-1.643545e+01
1	 3.651239e-01	 1.739879e+00	-1.824112e+01
1	 3.455182e-01	 1.743878e+00	-2.027388e+01
1	 3.259358e-01	 1.747644e+00	-2.248258e+01
1	 3.063805e-01	 1.751178e+00	-2.481636e+01
1	 2.868559e-01	 1.754482e+00	-2.722463e+01
1	 2.808797e-01	 1.717930e+00	-3.200883e+01
1	 2.617956e-01	 1.720942e+00	-3.448295e+01
1	 2.427487e-01	 1.723732e+00	-3.693869e+01
1	 2.237424e-01	 1.726302e+00	-3.934382e+01
1	 2.047802e-01	 1.728654e+00	-4.166650e+01
1	 1.858653e-01	 1.730790e+00	-4.387534e+01
1	 2.820750e-01	 1.725241e+00	-3.105531e+01
1	 2.629096e-01	 1.728265e+00	-3.353146e+01
1	 2.437816e-01	 1.731067e+00	-3.598942e+01
1	 2.246945e-01	 1.733648e+00	-3.839690e+01
1	 2.056516e-01	 1.736010e+00	-4.072199e+01
1	 1.866562e-01	 1.738155e+00	-4.293326e+01
1	 2.832702e-01	 1.732551e+00	-3.010040e+01
1	 2.640236e-01	 1.735588e+00	-3.257321e+01
1	 2.448146e-01	 1.738402e+00	-3.502804e+01
1	 2.256466e-01	 1.740994e+00	-3.743256e+01
1	 2.065230e-01	 1.743366e+00	-3.975489e+01
1	 1.874471e-01	 1.745520e+00	-4.196356e+01
1	 2.844654e-01	 1.739861e+00	-2.914383e+01
1	 2.651377e-01	 1.742911e+00	-3.160796e+01
1	 2.458476e-01	 1.745737e+00	-3.405431e+01
1	 2.265987e-01	 1.748340e+00	-3.645061e+01
1	 2.073944e-01	 1.750722e+00	-3.876499e+01
1	 1.882380e-01	 1.752885e+00	-4.096605e+01
1	 2.856607e-01	 1.747172e+00	-2.818533e+01
1	 2.662517e-01	 1.750235e+00	-3.063547e+01
1	 2.468806e-01	 1.753072e+00	-3.306803e+01
1	 2.275508e-01	 1.755686e+00	-3.545084e+01
1	 2.082658e-01	 1.758078e+00	-3.775211e+01
1	 1.890289e-01	 1.760250e+00	-3.994052e+01
1	 2.868559e-01	 1.754482e+00	-2.722463e+01
1	 2.673657e-01	 1.757558e+00	-2.965549e+01
1	 2.479135e-01	 1.760407e+00	-3.206898e+01
1	 2.285029e-01	 1.763032e+00	-3.443304e+01
1	 2.091372e-01	 1.765434e+00	-3.671604e+01
1	 1.898199e-01	 1.767615e+00	-3.888679e+01
1	 1.858653e-01	 1.730790e+00	-4.387534e+01
1	 1.670010e-01	 1.732711e+00	-4.593432e+01
1	 1.481905e-01	 1.734421e+00	-4.780395e+01
1	 1.294369e-01	 1.735922e+00	-4.944854e+01
1	 1.107432e-01	 1.737215e+00	-5.083316e+01
1	 9.211236e-02	 1.738302e+00	-5.192362e+01
1	 1.866562e-01	 1.738155e+00	-4.293326e+01
1	 1.677116e-01	 1.740085e+00	-4.499471e+01
1	 1.488211e-01	 1.741802e+00	-4.686718e+01
1	 1.299877e-01	 1.743309e+00	-4.851538e+01
1	 1.112144e-01	 1.744607e+00	-4.990475e+01
1	 9.250433e-02	 1.745699e+00	-5.100151e+01
1	 1.874471e-01	 1.745520e+00	-4.196356e+01
1	 1.684223e-01	 1.747458e+00	-4.402266e+01
1	 1.494517e-01	 1.749183e+00	-4.589347e+01
1	 1.305385e-01	 1.750696e+00	-4.754118e+01
1	 1.116857e-01	 1.751999e+00	-4.893175e+01
1	 9.289630e-02	 1.753096e+00	-5.003189e+01
1	 1.882380e-01	 1.752885e+00	-4.096605e+01
1	 1.691329e-01	 1.754831e+00	-4.301799e+01
1	 1.500823e-01	 1.756563e+00	-4.488263e+01
1	 1.310893e-01	 1.758082e+00	-4.652579e+01
1	 1.121569e-01	 1.759392e+00	-4.791402e+01
1	 9.328826e-02	 1.760493e+00	-4.901465e+01
1	 1.890289e-01	 1.760250e+00	-3.994052e+01
1	 1.698436e-01	 1.762204e+00	-4.198050e+01
1	 1.507129e-01	 1.763944e+00	-4.383448e+01
1	 1.316401e-01	 1.765469e+00	-4.546902e+01
1	 1.126282e-01	 1.766784e+00	-4.685141e+01
1	 9.368023e-02	 1.767890e+00	-4.794967e+01
1	 1.898199e-01	 1.767615e+00	-3.888679e+01
1	 1.705542e-01	 1.769578e+00	-4.090999e+01
1	 1.513435e-01	 1.771324e+00	-4.274883e+01
1	 1.321909e-01	 1.772856e+00	-4.437073e+01
1	 1.130994e-01	 1.774177e+00	-4.574378e+01
1	 9.407220e-02	 1.775287e+00	-4.683683e+01
1	 9.211236e-02	 1.738302e+00	-5.192362e+01
1	 7.354730e-02	 1.739186e+00	-5.268725e+01
1	 5.505083e-02	 1.739870e+00	-5.309426e+01
1	 3.662569e-02	 1.740355e+00	-5.311606e+01
1	 1.827455e-02	 1.740645e+00	-5.272493e+01
1	 0.000000e+00	 1.740741e+00	-5.189401e+01
1	 9.250433e-02	 1.745699e+00	-5.100151e+01
1	 7.386027e-02	 1.746587e+00	-5.177321e+01
1	 5.528509e-02	 1.747274e+00	-5.219006e+01
1	 3.678154e-02	 1.747761e+00	-5.222355e+01
1	 1.835231e-02	 1.748052e+00	-5.184596e+01
1	 0.000000e+00	 1.748148e+00	-5.103048e+01
1	 9.289630e-02	 1.753096e+00	-5.003189e+01
1	 7.417324e-02	 1.753988e+00	-5.080949e+01
1	 5.551935e-02	 1.754677e+00	-5.123482e+01
1	 3.693740e-02	 1.755167e+00	-5.127938e+01
1	 1.843007e-02	 1.755459e+00	-5.091550e+01
1	 0.000000e+00	 1.755556e+00	-5.011640e+01
1	 9.328826e-02	 1.760493e+00	-4.901465e+01
1	 7.448621e-02	 1.761389e+00	-4.979600e+01
1	 5.575361e-02	 1.762081e+00	-5.022843e+01
1	 3.709325e-02	 1.762573e+00	-5.028344e+01
1	 1.850784e-02	 1.762866e+00	-4.993341e+01
1	 0.000000e+00	 1.762963e+00	-4.915157e+01
1	 9.368023e-02	 1.767890e+00	-4.794967e+01
1	 7.479917e-02	 1.768790e+00	-4.873265e+01
1	 5.598787e-02	 1.769485e+00	-4.917079e+01
1	 3.724911e-02	 1.769978e+00	-4.923562e+01
1	 1.858560e-02	 1.770273e+00	-4.889953e+01
1	 0.000000e+00	 1.770370e+00	-4.813578e+01
1	 9.407220e-02	 1.775287e+00	-4.683683e+01
1	 7.511214e-02	 1.776190e+00	-4.761935e+01
1	 5.622213e-02	 1.776889e+00	-4.806182e+01
1	 3.740496e-02	 1.777384e+00	-4.813582e+01
1	 1.866337e-02	 1.777680e+00	-4.781373e+01
1	 0.000000e+00	 1.777778e+00	-4.706883e+01
1	 1.777778e+00	 0.000000e+00	 1.032540e+01
1	 1.777680e+00	 1.866337e-02	 1.023768e+01
1	 1.777384e+00	 3.740496e-02	 1.008464e+01
1	 1.776889e+00	 5.622213e-02	 9.871961e+00
1	 1.776190e+00	 7.511214e-02	 9.605424e+00
1	 1.775287e+00	 9.407220e-02	 9.290877e+00
1	 1.785185e+00	 0.000000e+00	 1.001513e+01
1	 1.785087e+00	 1.874113e-02	 9.934952e+00
1	 1.784790e+00	 3.756081e-02	 9.789938e+00
1	 1.784292e+00	 5.645639e-02	 9.585754e+00
1	 1.783591e+00	 7.542511e-02	 9.328157e+00
1	 1.782684e+00	 9.446417e-02	 9.022979e+00
1	 1.792593e+00	 0.000000e+00	 9.698828e+00
1	 1.792494e+00	 1.881890e-02	 9.625961e+00
1	 1.792196e+00	 3.771667e-02	 9.488947e+00
1	 1.791696e+00	 5.669065e-02	 9.293416e+00
1	 1.790992e+00	 7.573808e-02	 9.045077e+00
1	 1.790081e+00	 9.485613e-02	 8.749719e+00
1	 1.800000e+00	 0.000000e+00	 9.376494e+00
1	 1.799901e+00	 1.889666e-02	 9.310654e+00
1	 1.799602e+00	 3.787252e-02	 9.181584e+00
1	 1.799100e+00	 5.692490e-02	 8.994843e+00
1	 1.798393e+00	 7.605104e-02	 8.756072e+00
1	 1.797478e+00	 9.524810e-02	 8.470982e+00
1	 1.807407e+00	 0.000000e+00	 9.048112e+00
1	 1.807308e+00	 1.897442e-02	 8.988980e+00
1	 1.807007e+00	 3.802838e-02	 8.867767e+00
1	 1.806503e+00	 5.715916e-02	 8.689937e+00
1	 1.805793e+00	 7.636401e-02	 8.461030e+00
1	 1.804875e+00	 9.564007e-02	 8.186659e+00
1	 1.814815e+00	 0.000000e+00	 8.713670e+00
1	 1.814715e+00	 1.905219e-02	 8.660888e+00
1	 1.814413e+00	 3.818423e-02	 8.547419e+00
1	 1.813907e+00	 5.739342e-02	 8.378599e+00
1	 1.813194e+00	 7.667698e-02	 8.159844e+00
1	 1.812272e+00	 9.603204e-02	 7.896638e+00
1	 1.775287e+00	 9.407220e-02	 9.290877e+00
1	 1.774177e+00	 1.130994e-01	 8.931166e+00
1	 1.772856e+00	 1.321909e-01	 8.529186e+00
1	 1.771324e+00	 1.513435e-01	 8.090969e+00
1	 1.769578e+00	 1.705542e-01	 7.622611e+00
1	 1.767615e+00	 1.898199e-01	 7.130260e+00
1	 1.782684e+00	 9.446417e-02	 9.022979e+00
1	 1.781569e+00	 1.135707e-01	 8.673101e+00
1	 1.780243e+00	 1.327417e-01	 8.281347e+00
1	 1.778705e+00	 1.519741e-01	 7.853574e+00
1	 1.776951e+00	 1.712649e-01	 7.395703e+00
1	 1.774980e+00	 1.906108e-01	 6.913708e+00
1	 1.790081e+00	 9.485613e-02	 8.749719e+00
1	 1.788961e+00	 1.140419e-01	 8.410250e+00
1	 1.787630e+00	 1.332925e-01	 8.029422e+00
1	 1.786085e+00	 1.526047e-01	 7.612893e+00
1	 1.784324e+00	 1.719755e-01	 7.166381e+00
1	 1.782345e+00	 1.914017e-01	 6.695659e+00
1	 1.797478e+00	 9.524810e-02	 8.470982e+00
1	 1.796354e+00	 1.145132e-01	 8.142500e+00
1	 1.795017e+00	 1.338432e-01	 7.773295e+00
1	 1.793466e+00	 1.532353e-01	 7.368798e+00
1	 1.791697e+00	 1.726861e-01	 6.934501e+00
1	 1.789710e+00	 1.921926e-01	 6.475949e+00
1	 1.804875e+00	 9.564007e-02	 8.186659e+00
1	 1.803746e+00	 1.149844e-01	 7.869743e+00
1	 1.802404e+00	 1.343940e-01	 7.512852e+00
1	 1.800846e+00	 1.538659e-01	 7.121165e+00
1	 1.799071e+00	 1.733968e-01	 6.699923e+00
1	 1.797075e+00	 1.929835e-01	 6.254415e+00
1	 1.812272e+00	 9.603204e-02	 7.896638e+00
1	 1.811139e+00	 1.154557e-01	 7.591870e+00
1	 1.809791e+00	 1.349448e-01	 7.247979e+00
1	 1.808227e+00	 1.544965e-01	 6.869872e+00
1	 1.806444e+00	 1.741074e-01	 6.462509e+00
1	 1.804440e+00	 1.937744e-01	 6.030898e+00
1	 1.767615e+00	 1.898199e-01	 7.130260e+00
1	 1.765434e+00	 2.091372e-01	 6.621611e+00
1	 1.763032e+00	 2.285029e-01	 6.104043e+00
1	 1.760407e+00	 2.479135e-01	 5.583272e+00
1	 1.757558e+00	 2.673657e-01	 5.065001e+00
1	 1.754482e+00	 2.868559e-01	 4.554916e+00
1	 1.774980e+00	 1.906108e-01	 6.913708e+00
1	 1.772789e+00	 2.100086e-01	 6.415080e+00
1	 1.770378e+00	 2.294550e-01	 5.907098e+00
1	 1.767742e+00	 2.489465e-01	 5.395462e+00
1	 1.764881e+00	 2.684797e-01	 4.885859e+00
1	 1.761792e+00	 2.880511e-01	 4.383961e+00
1	 1.782345e+00	 1.914017e-01	 6.695659e+00
1	 1.780145e+00	 2.108800e-01	 6.207979e+00
1	 1.777723e+00	 2.304071e-01	 5.710502e+00
1	 1.775077e+00	 2.499795e-01	 5.208903e+00
1	 1.772204e+00	 2.695938e-01	 4.708853e+00
1	 1.769103e+00	 2.892464e-01	 4.216003e+00
1	 1.789710e+00	 1.921926e-01	 6.475949e+00
1	 1.787501e+00	 2.117514e-01	 6.000122e+00
1	 1.785069e+00	 2.313592e-01	 5.514046e+00
1	 1.782412e+00	 2.510124e-01	 5.023372e+00
1	 1.779527e+00	 2.707078e-01	 4.533742e+00
1	 1.776413e+00	 2.904416e-01	 4.050785e+00
1	 1.797075e+00	 1.929835e-01	 6.254415e+00
1	 1.794857e+00	 2.126228e-01	 5.791323e+00
1	 1.792415e+00	 2.323112e-01	 5.317527e+00
1	 1.789747e+00	 2.520454e-01	 4.838645e+00
1	 1.786850e+00	 2.718218e-01	 4.360289e+00
1	 1.783723e+00	 2.916368e-01	 3.888058e+00
1	 1.804440e+00	 1.937744e-01	 6.030898e+00
1	 1.802213e+00	 2.134942e-01	 5.581403e+00
1	 1.799761e+00	 2.332633e-01	 5.120744e+00
1	 1.797082e+00	 2.530784e-01	 4.654503e+00
1	 1.794174e+00	 2.729358e-01	 4.188259e+00
1	 1.791034e+00	 2.928321e-01	 3.727576e+00
1	 1.754482e+00	 2.868559e-01	 4.554916e+00
1	 1.751178e+00	 3.063805e-01	 4.060643e+00
1	 1.747644e+00	 3.259358e-01	 3.591741e+00
1	 1.743878e+00	 3.455182e-01	 3.156730e+00
1	 1.739879e+00	 3.651239e-01	 2.764071e+00
1	 1.735645e+00	 3.847489e-01	 2.422146e+00
1	 1.761792e+00	 2.880511e-01	 4.383961e+00
1	 1.758475e+00	 3.076571e-01	 3.897273e+00
1	 1.754926e+00	 3.272939e-01	 3.435175e+00
1	 1.751144e+00	 3.469579e-01	 3.006100e+00
1	 1.747128e+00	 3.666452e-01	 2.618422e+00
1	 1.742876e+00	 3.863520e-01	 2.280439e+00
1	 1.769103e+00	 2.892464e-01	 4.216003e+00
1	 1.765771e+00	 3.089337e-01	 3.737733e+00
1	 1.762208e+00	 3.286520e-01	 3.283240e+00
1	 1.758410e+00	 3.483975e-01	 2.860850e+00
1	 1.754378e+00	 3.681666e-01	 2.478829e+00
1	 1.750108e+00	 3.879551e-01	 2.145372e+00
1	 1.776413e+00	 2.904416e-01	 4.050785e+00
1	 1.773068e+00	 3.102103e-01	 3.581760e+00
1	 1.769490e+00	 3.300100e-01	 3.135672e+00
1	 1.765677e+00	 3.498372e-01	 2.720717e+00
1	 1.761627e+00	 3.696879e-01	 2.345039e+00
1	 1.757340e+00	 3.895583e-01	 2.016711e+00
1	 1.783723e+00	 2.916368e-01	 3.888058e+00
1	 1.780364e+00	 3.114868e-01	 3.429096e+00
1	 1.776771e+00	 3.313681e-01	 2.992208e+00
1	 1.772943e+00	 3.512769e-01	 2.585444e+00
1	 1.768877e+00	 3.712093e-01	 2.216805e+00
1	 1.764572e+00	 3.911614e-01	 1.894224e+00
1	 1.791034e+00	 2.928321e-01	 3.727576e+00
1	 1.787661e+00	 3.127634e-01	 3.279486e+00
1	 1.784053e+00	 3.327262e-01	 2.852591e+00
1	 1.780209e+00	 3.527165e-01	 2.454776e+00
1	 1.776126e+00	 3.727306e-01	 2.093882e+00
1	 1.771804e+00	 3.927645e-01	 1.777685e+00
1	 1.735645e+00	 3.847489e-01	 2.422146e+00
1	 1.731174e+00	 4.043894e-01	 2.129201e+00
1	 1.726465e+00	 4.240415e-01	 1.876806e+00
1	 1.721518e+00	 4.437011e-01	 1.663172e+00
1	 1.716330e+00	 4.633641e-01	 1.486389e+00
1	 1.710900e+00	 4.830265e-01	 1.344422e+00
1	 1.742876e+00	 3.863520e-01	 2.280439e+00
1	 1.738387e+00	 4.060744e-01	 1.990741e+00
1	 1.733659e+00	 4.258084e-01	 1.741229e+00
1	 1.728691e+00	 4.455499e-01	 1.530006e+00
1	 1.723481e+00	 4.652948e-01	 1.355055e+00
1	 1.718029e+00	 4.850391e-01	 1.214236e+00
1	 1.750108e+00	 3.879551e-01	 2.145372e+00
1	 1.745600e+00	 4.077594e-01	 1.859398e+00
1	 1.740853e+00	 4.275752e-01	 1.613144e+00
1	 1.735864e+00	 4.473986e-01	 1.404628e+00
1	 1.730632e+00	 4.672255e-01	 1.231745e+00
1	 1.725158e+00	 4.870517e-01	 1.092273e+00
1	 1.757340e+00	 3.895583e-01	 2.016711e+00
1	 1.752814e+00	 4.094443e-01	 1.734956e+00
1	 1.748046e+00	 4.293420e-01	 1.492350e+00
1	 1.743037e+00	 4.492474e-01	 1.286846e+00
1	 1.737784e+00	 4.691562e-01	 1.116275e+00
1	 1.732286e+00	 4.890643e-01	 9.783494e-01
1	 1.764572e+00	 3.911614e-01	 1.894224e+00
1	 1.760027e+00	 4.111293e-01	 1.617201e+00
1	 1.755240e+00	 4.311089e-01	 1.378649e+00
1	 1.750210e+00	 4.510961e-01	 1.176474e+00
1	 1.744935e+00	 4.710869e-01	 1.008463e+00
1	 1.739415e+00	 4.910769e-01	 8.722845e-01
1	 1.771804e+00	 3.927645e-01	 1.777685e+00
1	 1.767240e+00	 4.128142e-01	 1.505926e+00
1	 1.762433e+00	 4.328757e-01	 1.271847e+00
1	 1.757383e+00	 4.529449e-01	 1.073328e+00
1	 1.752087e+00	 4.730176e-01	 9.081308e-01
1	 1.746544e+00	 4.930895e-01	 7.739011e-01
1	 1.710900e+00	 4.830265e-01	 1.344422e+00
1	 1.705228e+00	 5.026840e-01	 1.235882e+00
1	 1.699312e+00	 5.223323e-01	 1.158444e+00
1	 1.693152e+00	 5.419673e-01	 1.108534e+00
1	 1.686747e+00	 5.615847e-01	 1.082517e+00
1	 1.680096e+00	 5.811800e-01	 1.076705e+00
1	 1.718029e+00	 4.850391e-01	 1.214236e+00
1	 1.712333e+00	 5.047785e-01	 1.106345e+00
1	 1.706393e+00	 5.245087e-01	 1.029421e+00
1	 1.700207e+00	 5.442255e-01	 9.800585e-01
1	 1.693775e+00	 5.639246e-01	 9.547876e-01
1	 1.687097e+00	 5.836016e-01	 9.500809e-01
1	 1.725158e+00	 4.870517e-01	 1.092273e+00
1	 1.719438e+00	 5.068730e-01	 9.851764e-01
1	 1.713473e+00	 5.266851e-01	 9.088351e-01
1	 1.707262e+00	 5.464837e-01	 8.600135e-01
1	 1.700804e+00	 5.662646e-01	 8.354091e-01
1	 1.694097e+00	 5.860231e-01	 8.316583e-01
1	 1.732286e+00	 4.890643e-01	 9.783494e-01
1	 1.726543e+00	 5.089675e-01	 8.721939e-01
1	 1.720554e+00	 5.288615e-01	 7.965080e-01
1	 1.714317e+00	 5.487419e-01	 7.482282e-01
1	 1.707832e+00	 5.686045e-01	 7.242221e-01
1	 1.701098e+00	 5.884447e-01	 7.212926e-01
1	 1.739415e+00	 4.910769e-01	 8.722845e-01
1	 1.733649e+00	 5.110620e-01	 7.672177e-01
1	 1.727634e+00	 5.310379e-01	 6.922640e-01
1	 1.721372e+00	 5.510001e-01	 6.445346e-01
1	 1.714860e+00	 5.709444e-01	 6.210695e-01
1	 1.708098e+00	 5.908663e-01	 6.188413e-01
1	 1.746544e+00	 4.930895e-01	 7.739011e-01
1	 1.740754e+00	 5.131565e-01	 6.700711e-01
1	 1.734715e+00	 5.332143e-01	 5.959304e-01
1	 1.728426e+00	 5.532583e-01	 5.487674e-01
1	 1.721888e+00	 5.732844e-01	 5.257967e-01
1	 1.715098e+00	 5.932879e-01	 5.241641e-01
1	 1.680096e+00	 5.811800e-01	 1.076705e+00
1	 1.673199e+00	 6.007488e-01	 1.081663e+00
1	 1.666055e+00	 6.202868e-01	 1.088975e+00
1	 1.658663e+00	 6.397895e-01	 1.096475e+00
1	 1.651024e+00	 6.592523e-01	 1.102025e+00
1	 1.643137e+00	 6.786708e-01	 1.103530e+00
1	 1.687097e+00	 5.836016e-01	 9.500809e-01
1	 1.680171e+00	 6.032520e-01	 9.567985e-01
1	 1.672997e+00	 6.228714e-01	 9.666493e-01
1	 1.665574e+00	 6.424553e-01	 9.773650e-01
1	 1.657903e+00	 6.619992e-01	 9.867140e-01
1	 1.649984e+00	 6.814986e-01	 9.925053e-01
1	 1.694097e+00	 5.860231e-01	 8.316583e-01
1	 1.687142e+00	 6.057551e-01	 8.399552e-01
1	 1.679938e+00	 6.254559e-01	 8.521661e-01
1	 1.672485e+00	 6.451211e-01	 8.659185e-01
1	 1.664783e+00	 6.647461e-01	 8.788789e-01
1	 1.656830e+00	 6.843264e-01	 8.887563e-01
1	 1.701098e+00	 5.884447e-01	 7.212926e-01
1	 1.694114e+00	 6.082582e-01	 7.309996e-01
1	 1.686880e+00	 6.280404e-01	 7.453934e-01
1	 1.679396e+00	 6.477869e-01	 7.619940e-01
1	 1.671662e+00	 6.674930e-01	 7.783602e-01
1	 1.663676e+00	 6.871542e-01	 7.920948e-01
1	 1.708098e+00	 5.908663e-01	 6.188413e-01
1	 1.701086e+00	 6.107613e-01	 6.298002e-01
1	 1.693822e+00	 6.306249e-01	 6.462013e-01
1	 1.686307e+00	 6.504526e-01	 6.654527e-01
1	 1.678541e+00	 6.702399e-01	 6.850008e-01
1	 1.670523e+00	 6.899820e-01	 7.023350e-01
1	 1.715098e+00	 5.932879e-01	 5.241641e-01
1	 1.708057e+00	 6.132644e-01	 5.362278e-01
1	 1.700764e+00	 6.332095e-01	 5.544616e-01
1	 1.693219e+00	 6.531184e-01	 5.761582e-01
1	 1.685420e+00	 6.729867e-01	 5.986459e-01
1	 1.677369e+00	 6.928098e-01	 6.192944e-01
1	 1.643137e+00	 6.786708e-01	 1.103530e+00
1	 1.635003e+00	 6.980404e-01	 1.088790e+00
1	 1.626620e+00	 7.173565e-01	 1.044750e+00
1	 1.617990e+00	 7.366145e-01	 9.682574e-01
1	 1.609113e+00	 7.558099e-01	 8.564288e-01
1	 1.599989e+00	 7.749380e-01	 7.066638e-01
1	 1.649984e+00	 6.814986e-01	 9.925053e-01
1	 1.641815e+00	 7.009489e-01	 9.832178e-01
1	 1.633398e+00	 7.203455e-01	 9.465677e-01
1	 1.624732e+00	 7.396838e-01	 8.794410e-01
1	 1.615818e+00	 7.589591e-01	 7.789824e-01
1	 1.606656e+00	 7.781670e-01	 6.426043e-01
1	 1.656830e+00	 6.843264e-01	 8.887563e-01
1	 1.648628e+00	 7.038574e-01	 8.846435e-01
1	 1.640175e+00	 7.233345e-01	 8.549780e-01
1	 1.631474e+00	 7.427530e-01	 7.967017e-01
1	 1.622522e+00	 7.621083e-01	 7.070040e-01
1	 1.613322e+00	 7.813959e-01	 5.833316e-01
1	 1.663676e+00	 6.871542e-01	 7.920948e-01
1	 1.655440e+00	 7.067659e-01	 7.928527e-01
1	 1.646953e+00	 7.263234e-01	 7.697564e-01
1	 1.638215e+00	 7.458222e-01	 7.198193e-01
1	 1.629227e+00	 7.652576e-01	 6.402939e-01
1	 1.619989e+00	 7.846248e-01	 5.286811e-01
1	 1.670523e+00	 6.899820e-01	 7.023350e-01
1	 1.662253e+00	 7.096744e-01	 7.076342e-01
1	 1.653731e+00	 7.293124e-01	 6.906815e-01
1	 1.644957e+00	 7.488915e-01	 6.485775e-01
1	 1.635932e+00	 7.684068e-01	 5.786556e-01
1	 1.626656e+00	 7.878537e-01	 4.784912e-01
1	 1.677369e+00	 6.928098e-01	 6.192944e-01
1	 1.669065e+00	 7.125829e-01	 6.287802e-01
1	 1.660508e+00	 7.323014e-01	 6.175355e-01
1	 1.651699e+00	 7.519607e-01	 5.827634e-01
1	 1.642636e+00	 7.715560e-01	 5.218960e-01
1	 1.633322e+00	 7.910826e-01	 4.326028e-01
1	 1.599989e+00	 7.749380e-01	 7.066638e-01
1	 1.590618e+00	 7.939943e-01	 5.183918e-01
1	 1.581002e+00	 8.129739e-01	 2.941627e-01
1	 1.571140e+00	 8.318724e-01	 3.643776e-02
1	 1.561034e+00	 8.506851e-01	-2.521040e-01
1	 1.550685e+00	 8.694074e-01	-5.685674e-01
1	 1.606656e+00	 7.781670e-01	 6.426043e-01
1	 1.597246e+00	 7.973026e-01	 4.693479e-01
1	 1.587589e+00	 8.163613e-01	 2.613334e-01
1	 1.577687e+00	 8.353386e-01	 2.096425e-02
1	 1.567539e+00	 8.542297e-01	-2.491375e-01
1	 1.557146e+00	 8.730300e-01	-5.461336e-01
1	 1.613322e+00	 7.813959e-01	 5.833316e-01
1	 1.603874e+00	 8.006109e-01	 4.243962e-01
1	 1.594177e+00	 8.197487e-01	 2.319286e-01
1	 1.584233e+00	 8.388047e-01	 8.265331e-03
1	 1.574043e+00	 8.577742e-01	-2.440419e-01
1	 1.563608e+00	 8.766525e-01	-5.222280e-01
1	 1.619989e+00	 7.846248e-01	 5.286811e-01
1	 1.610501e+00	 8.039192e-01	 3.834020e-01
1	 1.600764e+00	 8.231361e-01	 2.058175e-01
1	 1.590780e+00	 8.422708e-01	-1.812011e-03
1	 1.580547e+00	 8.613187e-01	-2.370179e-01
1	 1.570069e+00	 8.802750e-01	-4.971253e-01
1	 1.626656e+00	 7.878537e-01	 4.784912e-01
1	 1.617129e+00	 8.072275e-01	 3.462328e-01
1	 1.607352e+00	 8.265235e-01	 1.828714e-01
1	 1.597326e+00	 8.457370e-01	-9.418295e-03
1	 1.587052e+00	 8.648632e-01	-2.282634e-01
1	 1.576530e+00	 8.838975e-01	-4.710955e-01
1	 1.633322e+00	 7.910826e-01	 4.326028e-01
1	 1.623756e+00	 8.105358e-01	 3.127585e-01
1	 1.613940e+00	 8.299109e-01	 1.629635e-01
1	 1.603872e+00	 8.492031e-01	-1.470158e-02
1	 1.593556e+00	 8.684078e-01	-2.179728e-01
1	 1.582991e+00	 8.875201e-01	-4.444043e-01
1	 1.550685e+00	 8.694074e-01	-5.685674e-01
1	 1.540094e+00	 8.880347e-01	-9.161616e-01
1	 1.529261e+00	 9.065622e-01	-1.298983e+00
1	 1.518188e+00	 9.249856e-01	-1.715210e+00
1	 1.506877e+00	 9.433001e-01	-2.162895e+00
1	 1.495329e+00	 9.615012e-01	-2.639962e+00
1	 1.557146e+00	 8.730300e-01	-5.461336e-01
1	 1.546511e+00	 8.917348e-01	-8.735176e-01
1	 1.535633e+00	 9.103396e-01	-1.235439e+00
1	 1.524514e+00	 9.288397e-01	-1.629788e+00
1	 1.513156e+00	 9.472305e-01	-2.054328e+00
1	 1.501560e+00	 9.655075e-01	-2.506702e+00
1	 1.563608e+00	 8.766525e-01	-5.222280e-01
1	 1.552928e+00	 8.954349e-01	-8.300913e-01
1	 1.542005e+00	 9.141169e-01	-1.171862e+00
1	 1.530840e+00	 9.326938e-01	-1.545166e+00
1	 1.519434e+00	 9.511609e-01	-1.947500e+00
1	 1.507790e+00	 9.695137e-01	-2.376236e+00
1	 1.570069e+00	 8.802750e-01	-4.971253e-01
1	 1.559345e+00	 8.991351e-01	-7.862225e-01
1	 1.548377e+00	 9.178943e-01	-1.108612e+00
1	 1.537166e+00	 9.365479e-01	-1.461682e+00
1	 1.525713e+00	 9.550913e-01	-1.842682e+00
1	 1.514021e+00	 9.735200e-01	-2.248726e+00
1	 1.576530e+00	 8.838975e-01	-4.710955e-01
1	 1.565762e+00	 9.028352e-01	-7.422449e-01
1	 1.554749e+00	 9.216716e-01	-1.046046e+00
1	 1.543491e+00	 9.404020e-01	-1.379672e+00
1	 1.531992e+00	 9.590217e-01	-1.740144e+00
1	 1.520251e+00	 9.775262e-01	-2.124332e+00
1	 1.582991e+00	 8.875201e-01	-4.444043e-01
1	 1.572179e+00	 9.065354e-01	-6.984871e-01
1	 1.561120e+00	 9.254490e-01	-9.845113e-01
1	 1.549817e+00	 9.442561e-01	-1.299462e+00
1	 1.538270e+00	 9.629522e-01	-1.640149e+00
1	 1.526482e+00	 9.815325e-01	-2.003212e+00
1	 1.495329e+00	 9.615012e-01	-2.639962e+00
1	 1.483546e+00	 9.795844e-01	-3.124374e+00
1	 1.471529e+00	 9.975453e-01	-3.595204e+00
1	 1.459280e+00	 1.015379e+00	-4.051927e+00
1	 1.446802e+00	 1.033082e+00	-4.493996e+00
1	 1.434096e+00	 1.050649e+00	-4.920837e+00
1	 1.501560e+00	 9.655075e-01	-2.506702e+00
1	 1.489727e+00	 9.836661e-01	-2.964865e+00
1	 1.477660e+00	 1.001702e+00	-3.408179e+00
1	 1.465361e+00	 1.019610e+00	-3.836280e+00
1	 1.452830e+00	 1.037386e+00	-4.248764e+00
1	 1.440071e+00	 1.055027e+00	-4.645192e+00
1	 1.507790e+00	 9.695137e-01	-2.376236e+00
1	 1.495909e+00	 9.877477e-01	-2.809278e+00
1	 1.483792e+00	 1.005858e+00	-3.226200e+00
1	 1.471441e+00	 1.023841e+00	-3.626756e+00
1	 1.458859e+00	 1.041691e+00	-4.010660e+00
1	 1.446047e+00	 1.059404e+00	-4.377579e+00
1	 1.514021e+00	 9.735200e-01	-2.248726e+00
1	 1.502090e+00	 9.918293e-01	-2.657670e+00
1	 1.489923e+00	 1.010015e+00	-3.049271e+00
1	 1.477521e+00	 1.028071e+00	-3.423365e+00
1	 1.464887e+00	 1.045995e+00	-3.779750e+00
1	 1.452022e+00	 1.063782e+00	-4.118180e+00
1	 1.520251e+00	 9.775262e-01	-2.124332e+00
1	 1.508272e+00	 9.959109e-01	-2.510098e+00
1	 1.496054e+00	 1.014171e+00	-2.877398e+00
1	 1.483602e+00	 1.032302e+00	-3.226116e+00
1	 1.470915e+00	 1.050300e+00	-3.556101e+00
1	 1.457997e+00	 1.068160e+00	-3.867173e+00
1	 1.526482e+00	 9.815325e-01	-2.003212e+00
1	 1.514453e+00	 9.999925e-01	-2.366617e+00
1	 1.502186e+00	 1.018327e+00	-2.710588e+00
1	 1.489682e+00	 1.036533e+00	-3.035016e+00
1	 1.476944e+00	 1.054604e+00	-3.339778e+00
1	 1.463973e+00	 1.072537e+00	-3.624735e+00
1	 1.434096e+00	 1.050649e+00	-4.920837e+00
1	 1.421164e+00	 1.068076e+00	-5.288747e+00
1	 1.408009e+00	 1.085359e+00	-5.559619e+00
1	 1.394634e+00	 1.102493e+00	-5.741912e+00
1	 1.381040e+00	 1.119474e+00	-5.844945e+00
1	 1.367231e+00	 1.136298e+00	-5.878879e+00
1	 1.440071e+00	 1.055027e+00	-4.645192e+00
1	 1.427086e+00	 1.072526e+00	-4.984951e+00
1	 1.413876e+00	 1.089881e+00	-5.233092e+00
1	 1.400445e+00	 1.107086e+00	-5.398312e+00
1	 1.386795e+00	 1.124138e+00	-5.490184e+00
1	 1.372928e+00	 1.141033e+00	-5.519150e+00
1	 1.446047e+00	 1.059404e+00	-4.377579e+00
1	 1.433007e+00	 1.076977e+00	-4.690074e+00
1	 1.419743e+00	 1.094403e+00	-4.916434e+00
1	 1.406256e+00	 1.111680e+00	-5.065567e+00
1	 1.392549e+00	 1.128803e+00	-5.147272e+00
1	 1.378624e+00	 1.145767e+00	-5.172225e+00
1	 1.452022e+00	 1.063782e+00	-4.118180e+00
1	 1.438929e+00	 1.081427e+00	-4.404410e+00
1	 1.425610e+00	 1.098925e+00	-4.609987e+00
1	 1.412067e+00	 1.116274e+00	-4.744008e+00
1	 1.398303e+00	 1.133467e+00	-4.816465e+00
1	 1.384321e+00	 1.150502e+00	-4.838227e+00
1	 1.457997e+00	 1.068160e+00	-3.867173e+00
1	 1.444850e+00	 1.085877e+00	-4.128245e+00
1	 1.431476e+00	 1.103448e+00	-4.314086e+00
1	 1.417878e+00	 1.120867e+00	-4.433959e+00
1	 1.404058e+00	 1.138132e+00	-4.498015e+00
1	 1.390018e+00	 1.155237e+00	-4.517278e+00
1	 1.463973e+00	 1.072537e+00	-3.624735e+00
1	 1.450772e+00	 1.090327e+00	-3.861863e+00
1	 1.437343e+00	 1.107970e+00	-4.029063e+00
1	 1.423689e+00	 1.125461e+00	-4.135739e+00
1	 1.409812e+00	 1.142796e+00	-4.192170e+00
1	 1.395715e+00	 1.159971e+00	-4.209496e+00
1	 1.367231e+00	 1.136298e+00	-5.878879e+00
1	 1.353209e+00	 1.152962e+00	-5.882105e+00
1	 1.338976e+00	 1.169460e+00	-5.886396e+00
1	 1.324537e+00	 1.185789e+00	-5.892609e+00
1	 1.309893e+00	 1.201946e+00	-5.901591e+00
1	 1.295048e+00	 1.217926e+00	-5.914182e+00
1	 1.372928e+00	 1.141033e+00	-5.519150e+00
1	 1.358847e+00	 1.157766e+00	-5.521038e+00
1	 1.344555e+00	 1.174333e+00	-5.524585e+00
1	 1.330056e+00	 1.190730e+00	-5.530195e+00
1	 1.315351e+00	 1.206954e+00	-5.538233e+00
1	 1.300444e+00	 1.223001e+00	-5.549015e+00
1	 1.378624e+00	 1.145767e+00	-5.172225e+00
1	 1.364485e+00	 1.162570e+00	-5.173497e+00
1	 1.350134e+00	 1.179205e+00	-5.176651e+00
1	 1.335574e+00	 1.195671e+00	-5.181690e+00
1	 1.320809e+00	 1.211962e+00	-5.188545e+00
1	 1.305840e+00	 1.228075e+00	-5.197077e+00
1	 1.384321e+00	 1.150502e+00	-4.838227e+00
1	 1.370124e+00	 1.167374e+00	-4.839465e+00
1	 1.355713e+00	 1.184078e+00	-4.842482e+00
1	 1.341093e+00	 1.200612e+00	-4.846928e+00
1	 1.326267e+00	 1.216970e+00	-4.852357e+00
1	 1.311236e+00	 1.233150e+00	-4.858230e+00
1	 1.390018e+00	 1.155237e+00	-4.517278e+00
1	 1.375762e+00	 1.172178e+00	-4.518924e+00
1	 1.361292e+00	 1.188951e+00	-4.521966e+00
1	 1.346612e+00	 1.205553e+00	-4.525747e+00
1	 1.331725e+00	 1.221978e+00	-4.529498e+00
1	 1.316633e+00	 1.238225e+00	-4.532341e+00
1	 1.395715e+00	 1.159971e+00	-4.209496e+00
1	 1.381400e+00	 1.176982e+00	-4.211857e+00
1	 1.366872e+00	 1.193824e+00	-4.214993e+00
1	 1.352131e+00	 1.210493e+00	-4.217988e+00
1	 1.337182e+00	 1.226987e+00	-4.219802e+00
1	 1.322029e+00	 1.243299e+00	-4.219277e+00
1	 1.295048e+00	 1.217926e+00	-5.914182e+00
1	 1.280006e+00	 1.233726e+00	-5.949547e+00
1	 1.264769e+00	 1.249341e+00	-6.027006e+00
1	 1.249341e+00	 1.264769e+00	-6.147605e+00
1	 1.233726e+00	 1.280006e+00	-6.312360e+00
1	 1.217926e+00	 1.295048e+00	-6.522259e+00
1	 1.300444e+00	 1.223001e+00	-5.549015e+00
1	 1.285339e+00	 1.238866e+00	-5.581286e+00
1	 1.270039e+00	 1.254547e+00	-5.654173e+00
1	 1.254547e+00	 1.270039e+00	-5.768516e+00
1	 1.238866e+00	 1.285339e+00	-5.925118e+00
1	 1.223001e+00	 1.300444e+00	-6.124749e+00
1	 1.305840e+00	 1.228075e+00	-5.197077e+00
1	 1.290673e+00	 1.244007e+00	-5.225744e+00
1	 1.275309e+00	 1.259752e+00	-5.293609e+00
1	 1.259752e+00	 1.275309e+00	-5.401354e+00
1	 1.244007e+00	 1.290673e+00	-5.549623e+00
1	 1.228075e+00	 1.305840e+00	-5.739016e+00
1	 1.311236e+00	 1.233150e+00	-4.858230e+00
1	 1.296006e+00	 1.249147e+00	-4.882847e+00
1	 1.280579e+00	 1.264958e+00	-4.945315e+00
1	 1.264958e+00	 1.280579e+00	-5.046209e+00
1	 1.249147e+00	 1.296006e+00	-5.186060e+00
1	 1.233150e+00	 1.311236e+00	-5.365355e+00
1	 1.316633e+00	 1.238225e+00	-4.532341e+00
1	 1.301339e+00	 1.254288e+00	-4.552523e+00
1	 1.285849e+00	 1.270163e+00	-4.609293e+00
1	 1.270163e+00	 1.285849e+00	-4.703166e+00
1	 1.254288e+00	 1.301339e+00	-4.834612e+00
1	 1.238225e+00	 1.316633e+00	-5.004052e+00
1	 1.322029e+00	 1.243299e+00	-4.219277e+00
1	 1.306673e+00	 1.259428e+00	-4.234701e+00
1	 1.291118e+00	 1.275369e+00	-4.285545e+00
1	 1.275369e+00	 1.291118e+00	-4.372312e+00
1	 1.259428e+00	 1.306673e+00	-4.495458e+00
1	 1.243299e+00	 1.322029e+00	-4.655393e+00
1	 1.217926e+00	 1.295048e+00	-6.522259e+00
1	 1.201946e+00	 1.309893e+00	-6.795858e+00
1	 1.185789e+00	 1.324537e+00	-7.147660e+00
1	 1.169460e+00	 1.338976e+00	-7.572340e+00
1	 1.152962e+00	 1.353209e+00	-8.064313e+00
1	 1.136298e+00	 1.367231e+00	-8.617739e+00
1	 1.223001e+00	 1.300444e+00	-6.124749e+00
1	 1.206954e+00	 1.315351e+00	-6.385192e+00
1	 1.190730e+00	 1.330056e+00	-6.720820e+00
1	 1.174333e+00	 1.344555e+00	-7.127092e+00
1	 1.157766e+00	 1.358847e+00	-7.599249e+00
1	 1.141033e+00	 1.372928e+00	-8.132327e+00
1	 1.228075e+00	 1.305840e+00	-5.739016e+00
1	 1.211962e+00	 1.320809e+00	-5.986728e+00
1	 1.195671e+00	 1.335574e+00	-6.307010e+00
1	 1.179205e+00	 1.350134e+00	-6.695879e+00
1	 1.162570e+00	 1.364485e+00	-7.149176e+00
1	 1.145767e+00	 1.378624e+00	-7.662567e+00
1	 1.233150e+00	 1.311236e+00	-5.365355e+00
1	 1.216970e+00	 1.326267e+00	-5.600833e+00
1	 1.200612e+00	 1.341093e+00	-5.906588e+00
1	 1.184078e+00	 1.355713e+00	-6.278980e+00
1	 1.167374e+00	 1.370124e+00	-6.714216e+00
1	 1.150502e+00	 1.384321e+00	-7.208355e+00
1	 1.238225e+00	 1.316633e+00	-5.004052e+00
1	 1.221978e+00	 1.331725e+00	-5.227868e+00
1	 1.205553e+00	 1.346612e+00	-5.519910e+00
1	 1.188951e+00	 1.361292e+00	-5.876667e+00
1	 1.172178e+00	 1.375762e+00	-6.294487e+00
1	 1.155237e+00	 1.390018e+00	-6.769586e+00
1	 1.243299e+00	 1.322029e+00	-4.655393e+00
1	 1.226987e+00	 1.337182e+00	-4.868185e+00
1	 1.210493e+00	 1.352131e+00	-5.147323e+00
1	 1.193824e+00	 1.366872e+00	-5.489208e+00
1	 1.176982e+00	 1.381400e+00	-5.890107e+00
1	 1.159971e+00	 1.395715e+00	-6.346160e+00
1	 1.136298e+00	 1.367231e+00	-8.617739e+00
1	 1.119474e+00	 1.381040e+00	-9.245525e+00
1	 1.102493e+00	 1.394634e+00	-9.949726e+00
1	 1.085359e+00	 1.408009e+00	-1.070742e+01
1	 1.068076e+00	 1.421164e+00	-1.149489e+01
1	 1.050649e+00	 1.434096e+00	-1.228767e+01
1	 1.141033e+00	 1.372928e+00	-8.132327e+00
1	 1.124138e+00	 1.386795e+00	-8.737464e+00
1	 1.107086e+00	 1.400445e+00	-9.414199e+00
1	 1.089881e+00	 1.413876e+00	-1.013938e+01
1	 1.072526e+00	 1.427086e+00	-1.088903e+01
1	 1.055027e+00	 1.440071e+00	-1.163840e+01
1	 1.145767e+00	 1.378624e+00	-7.662567e+00
1	 1.128803e+00	 1.392549e+00	-8.245086e+00
1	 1.111680e+00	 1.406256e+00	-8.893868e+00
1	 1.094403e+00	 1.419743e+00	-9.585962e+00
1	 1.076977e+00	 1.433007e+00	-1.029758e+01
1	 1.059404e+00	 1.446047e+00	-1.100417e+01
1	 1.150502e+00	 1.384321e+00	-7.208355e+00
1	 1.133467e+00	 1.398303e+00	-7.768094e+00
1	 1.116274e+00	 1.412067e+00	-8.388377e+00
1	 1.098925e+00	 1.425610e+00	-9.046879e+00
1	 1.081427e+00	 1.438929e+00	-9.720457e+00
1	 1.063782e+00	 1.452022e+00	-1.038519e+01
1	 1.155237e+00	 1.390018e+00	-6.769586e+00
1	 1.138132e+00	 1.404058e+00	-7.306197e+00
1	 1.120867e+00	 1.417878e+00	-7.897375e+00
1	 1.103448e+00	 1.431476e+00	-8.521850e+00
1	 1.085877e+00	 1.444850e+00	-9.157554e+00
1	 1.068160e+00	 1.457997e+00	-9.781676e+00
1	 1.159971e+00	 1.395715e+00	-6.346160e+00
1	 1.142796e+00	 1.409812e+00	-6.859108e+00
1	 1.125461e+00	 1.423689e+00	-7.420519e+00
1	 1.107970e+00	 1.437343e+00	-8.010595e+00
1	 1.090327e+00	 1.450772e+00	-8.608782e+00
1	 1.072537e+00	 1.463973e+00	-9.193819e+00
1	 1.050649e+00	 1.434096e+00	-1.228767e+01
1	 1.033082e+00	 1.446802e+00	-1.302717e+01
1	 1.015379e+00	 1.459280e+00	-1.367393e+01
1	 9.975453e-01	 1.471529e+00	-1.423191e+01
1	 9.795844e-01	 1.483546e+00	-1.470531e+01
1	 9.615012e-01	 1.495329e+00	-1.509863e+01
1	 1.055027e+00	 1.440071e+00	-1.163840e+01
1	 1.037386e+00	 1.452830e+00	-1.233244e+01
1	 1.019610e+00	 1.465361e+00	-1.293630e+01
1	 1.001702e+00	 1.477660e+00	-1.345525e+01
1	 9.836661e-01	 1.489727e+00	-1.389487e+01
1	 9.655075e-01	 1.501560e+00	-1.426103e+01
1	 1.059404e+00	 1.446047e+00	-1.100417e+01
1	 1.041691e+00	 1.458859e+00	-1.165472e+01
1	 1.023841e+00	 1.471441e+00	-1.221879e+01
1	 1.005858e+00	 1.483792e+00	-1.270244e+01
1	 9.877477e-01	 1.495909e+00	-1.311200e+01
1	 9.695137e-01	 1.507790e+00	-1.345417e+01
1	 1.063782e+00	 1.452022e+00	-1.038519e+01
1	 1.045995e+00	 1.464887e+00	-1.099449e+01
1	 1.028071e+00	 1.477521e+00	-1.152203e+01
1	 1.010015e+00	 1.489923e+00	-1.197407e+01
1	 9.918293e-01	 1.502090e+00	-1.235717e+01
1	 9.735200e-01	 1.514021e+00	-1.267823e+01
1	 1.068160e+00	 1.457997e+00	-9.781676e+00
1	 1.050300e+00	 1.470915e+00	-1.035225e+01
1	 1.032302e+00	 1.483602e+00	-1.084663e+01
1	 1.014171e+00	 1.496054e+00	-1.127076e+01
1	 9.959109e-01	 1.508272e+00	-1.163084e+01
1	 9.775262e-01	 1.520251e+00	-1.193340e+01
1	 1.072537e+00	 1.463973e+00	-9.193819e+00
1	 1.054604e+00	 1.476944e+00	-9.728467e+00
1	 1.036533e+00	 1.489682e+00	-1.019321e+01
1	 1.018327e+00	 1.502186e+00	-1.059310e+01
1	 9.999925e-01	 1.514453e+00	-1.093346e+01
1	 9.815325e-01	 1.526482e+00	-1.121988e+01
1	 9.615012e-01	 1.495329e+00	-1.509863e+01
1	 9.433001e-01	 1.506877e+00	-1.540175e+01
1	 9.249856e-01	 1.518188e+00	-1.560490e+01
1	 9.065622e-01	 1.529261e+00	-1.571346e+01
1	 8.880347e-01	 1.540094e+00	-1.573299e+01
1	 8.694074e-01	 1.550685e+00	-1.566926e+01
1	 9.655075e-01	 1.501560e+00	-1.426103e+01
1	 9.472305e-01	 1.513156e+00	-1.454435e+01
1	 9.288397e-01	 1.524514e+00	-1.473396e+01
1	 9.103396e-01	 1.535633e+00	-1.483383e+01
1	 8.917348e-01	 1.546511e+00	-1.484807e+01
1	 8.730300e-01	 1.557146e+00	-1.478099e+01
1	 9.695137e-01	 1.507790e+00	-1.345417e+01
1	 9.511609e-01	 1.519434e+00	-1.371960e+01
1	 9.326938e-01	 1.530840e+00	-1.389628e+01
1	 9.141169e-01	 1.542005e+00	-1.398716e+01
1	 8.954349e-01	 1.552928e+00	-1.399535e+01
1	 8.766525e-01	 1.563608e+00	-1.392407e+01
1	 9.735200e-01	 1.514021e+00	-1.267823e+01
1	 9.550913e-01	 1.525713e+00	-1.292739e+01
1	 9.365479e-01	 1.537166e+00	-1.309158e+01
1	 9.178943e-01	 1.548377e+00	-1.317312e+01
1	 8.991351e-01	 1.559345e+00	-1.317449e+01
1	 8.802750e-01	 1.570069e+00	-1.309827e+01
1	 9.775262e-01	 1.520251e+00	-1.193340e+01
1	 9.590217e-01	 1.531992e+00	-1.216764e+01
1	 9.404020e-01	 1.543491e+00	-1.231959e+01
1	 9.216716e-01	 1.554749e+00	-1.239136e+01
1	 9.028352e-01	 1.565762e+00	-1.238517e+01
1	 8.838975e-01	 1.576530e+00	-1.230338e+01
1	 9.815325e-01	 1.526482e+00	-1.121988e+01
1	 9.629522e-01	 1.538270e+00	-1.144026e+01
1	 9.442561e-01	 1.549817e+00	-1.158006e+01
1	 9.254490e-01	 1.561120e+00	-1.164154e+01
1	 9.065354e-01	 1.572179e+00	-1.162708e+01
1	 8.875201e-01	 1.582991e+00	-1.153919e+01
1	 8.694074e-01	 1.550685e+00	-1.566926e+01
1	 8.506851e-01	 1.561034e+00	-1.553481e+01
1	 8.318724e-01	 1.571140e+00	-1.533982e+01
1	 8.129739e-01	 1.581002e+00	-1.508671e+01
1	 7.939943e-01	 1.590618e+00	-1.477806e+01
1	 7.749380e-01	 1.599989e+00	-1.441658e+01
1	 8.730300e-01	 1.557146e+00	-1.478099e+01
1	 8.542297e-01	 1.567539e+00	-1.464387e+01
1	 8.353386e-01	 1.577687e+00	-1.444667e+01
1	 8.163613e-01	 1.587589e+00	-1.419193e+01
1	 7.973026e-01	 1.597246e+00	-1.388231e+01
1	 7.781670e-01	 1.606656e+00	-1.352062e+01
1	 8.766525e-01	 1.563608e+00	-1.392407e+01
1	 8.577742e-01	 1.574043e+00	-1.378380e+01
1	 8.388047e-01	 1.584233e+00	-1.358439e+01
1	 8.197487e-01	 1.594177e+00	-1.332836e+01
1	 8.006109e-01	 1.603874e+00	-1.301836e+01
1	 7.813959e-01	 1.613322e+00	-1.265717e+01
1	 8.802750e-01	 1.570069e+00	-1.309827e+01
1	 8.613187e-01	 1.580547e+00	-1.295450e+01
1	 8.422708e-01	 1.590780e+00	-1.275298e+01
1	 8.231361e-01	 1.600764e+00	-1.249608e+01
1	 8.039192e-01	 1.610501e+00	-1.218630e+01
1	 7.846248e-01	 1.619989e+00	-1.182627e+01
1	 8.838975e-01	 1.576530e+00	-1.230338e+01
1	 8.648632e-01	 1.587052e+00	-1.215591e+01
1	 8.457370e-01	 1.597326e+00	-1.195246e+01
1	 8.265235e-01	 1.607352e+00	-1.169514e+01
1	 8.072275e-01	 1.617129e+00	-1.138620e+01
1	 7.878537e-01	 1.626656e+00	-1.102800e+01
1	 8.875201e-01	 1.582991e+00	-1.153919e+01
1	 8.684078e-01	 1.593556e+00	-1.138795e+01
1	 8.492031e-01	 1.603872e+00	-1.118283e+01
1	 8.299109e-01	 1.613940e+00	-1.092561e+01
1	 8.105358e-01	 1.623756e+00	-1.061815e+01
1	 7.910826e-01	 1.633322e+00	-1.026243e+01
1	 7.749380e-01	 1.599989e+00	-1.441658e+01
1	 7.558099e-01	 1.609113e+00	-1.398370e+01
1	 7.366145e-01	 1.617990e+00	-1.347716e+01
1	 7.173565e-01	 1.626620e+00	-1.292451e+01
1	 6.980404e-01	 1.635003e+00	-1.235356e+01
1	 6.786708e-01	 1.643137e+00	-1.179240e+01
1	 7.781670e-01	 1.606656e+00	-1.352062e+01
1	 7.589591e-01	 1.615818e+00	-1.308993e+01
1	 7.396838e-01	 1.624732e+00	-1.258894e+01
1	 7.203455e-01	 1.633398e+00	-1.204430e+01
1	 7.009489e-01	 1.641815e+00	-1.148291e+01
1	 6.814986e-01	 1.649984e+00	-1.093195e+01
1	 7.813959e-01	 1.613322e+00	-1.265717e+01
1	 7.621083e-01	 1.622522e+00	-1.222930e+01
1	 7.427530e-01	 1.631474e+00	-1.173435e+01
1	 7.233345e-01	 1.640175e+00	-1.119806e+01
1	 7.038574e-01	 1.648628e+00	-1.064648e+01
1	 6.843264e-01	 1.656830e+00	-1.010588e+01
1	 7.846248e-01	 1.619989e+00	-1.182627e+01
1	 7.652576e-01	 1.629227e+00	-1.140183e+01
1	 7.458222e-01	 1.638215e+00	-1.091338e+01
1	 7.263234e-01	 1.646953e+00	-1.038582e+01
1	 7.067659e-01	 1.655440e+00	-9.844296e+00
1	 6.871542e-01	 1.663676e+00	-9.314201e+00
1	 7.878537e-01	 1.626656e+00	-1.102800e+01
1	 7.684068e-01	 1.635932e+00	-1.060756e+01
1	 7.488915e-01	 1.644957e+00	-1.012608e+01
1	 7.293124e-01	 1.653731e+00	-9.607576e+00
1	 7.096744e-01	 1.662253e+00	-9.076359e+00
1	 6.899820e-01	 1.670523e+00	-8.556950e+00
1	 7.910826e-01	 1.633322e+00	-1.026243e+01
1	 7.715560e-01	 1.642636e+00	-9.846520e+00
1	 7.519607e-01	 1.651699e+00	-9.372434e+00
1	 7.323014e-01	 1.660508e+00	-8.863338e+00
1	 7.125829e-01	 1.669065e+00	-8.342684e+00
1	 6.928098e-01	 1.677369e+00	-7.834151e+00
1	 6.786708e-01	 1.643137e+00	-1.179240e+01
1	 6.592523e-01	 1.651024e+00	-1.126890e+01
1	 6.397895e-01	 1.658663e+00	-1.079923e+01
1	 6.202868e-01	 1.666055e+00	-1.039409e+01
1	 6.007488e-01	 1.673199e+00	-1.006404e+01
1	 5.811800e-01	 1.680096e+00	-9.819591e+00
1	 6.814986e-01	 1.649984e+00	-1.093195e+01
1	 6.619992e-01	 1.657903e+00	-1.041741e+01
1	 6.424553e-01	 1.665574e+00	-9.954656e+00
1	 6.228714e-01	 1.672997e+00	-9.555023e+00
1	 6.032520e-01	 1.680171e+00	-9.229777e+00
1	 5.836016e-01	 1.687097e+00	-8.990083e+00
1	 6.843264e-01	 1.656830e+00	-1.010588e+01
1	 6.647461e-01	 1.664783e+00	-9.600467e+00
1	 6.451211e-01	 1.672485e+00	-9.144867e+00
1	 6.254559e-01	 1.679938e+00	-8.751046e+00
1	 6.057551e-01	 1.687142e+00	-8.430901e+00
1	 5.860231e-01	 1.694097e+00	-8.196239e+00
1	 6.871542e-01	 1.663676e+00	-9.314201e+00
1	 6.674930e-01	 1.671662e+00	-8.818096e+00
1	 6.477869e-01	 1.679396e+00	-8.369910e+00
1	 6.280404e-01	 1.686880e+00	-7.982199e+00
1	 6.082582e-01	 1.694114e+00	-7.667453e+00
1	 5.884447e-01	 1.701098e+00	-7.438078e+00
1	 6.899820e-01	 1.670523e+00	-8.556950e+00
1	 6.702399e-01	 1.678541e+00	-8.070342e+00
1	 6.504526e-01	 1.686307e+00	-7.629834e+00
1	 6.306249e-01	 1.693822e+00	-7.248528e+00
1	 6.107613e-01	 1.701086e+00	-6.939468e+00
1	 5.908663e-01	 1.708098e+00	-6.715620e+00
1	 6.928098e-01	 1.677369e+00	-7.834151e+00
1	 6.729867e-01	 1.685420e+00	-7.357246e+00
1	 6.531184e-01	 1.693219e+00	-6.924685e+00
1	 6.332095e-01	 1.700764e+00	-6.550077e+00
1	 6.132644e-01	 1.708057e+00	-6.246981e+00
1	 5.932879e-01	 1.715098e+00	-6.028881e+00
1	 5.811800e-01	 1.680096e+00	-9.819591e+00
1	 5.615847e-01	 1.686747e+00	-9.687986e+00
1	 5.419673e-01	 1.693152e+00	-9.699416e+00
1	 5.223323e-01	 1.699312e+00	-9.868551e+00
1	 5.026840e-01	 1.705228e+00	-1.020989e+01
1	 4.830265e-01	 1.710900e+00	-1.073774e+01
1	 5.836016e-01	 1.687097e+00	-8.990083e+00
1	 5.639246e-01	 1.693775e+00	-8.863920e+00
1	 5.442255e-01	 1.700207e+00	-8.881068e+00
1	 5.245087e-01	 1.706393e+00	-9.055196e+00
1	 5.047785e-01	 1.712333e+00	-9.399803e+00
1	 4.850391e-01	 1.718029e+00	-9.928192e+00
1	 5.860231e-01	 1.694097e+00	-8.196239e+00
1	 5.662646e-01	 1.700804e+00	-8.075631e+00
1	 5.464837e-01	 1.707262e+00	-8.098360e+00
1	 5.266851e-01	 1.713473e+00	-8.277104e+00
1	 5.068730e-01	 1.719438e+00	-8.624371e+00
1	 4.870517e-01	 1.725158e+00	-9.152477e+00
1	 5.884447e-01	 1.701098e+00	-7.438078e+00
1	 5.686045e-01	 1.707832e+00	-7.323120e+00
1	 5.487419e-01	 1.714317e+00	-7.351277e+00
1	 5.288615e-01	 1.720554e+00	-7.534246e+00
1	 5.089675e-01	 1.726543e+00	-7.883555e+00
1	 4.890643e-01	 1.732286e+00	-8.410544e+00
1	 5.908663e-01	 1.708098e+00	-6.715620e+00
1	 5.709444e-01	 1.714860e+00	-6.606386e+00
1	 5.510001e-01	 1.721372e+00	-6.639801e+00
1	 5.310379e-01	 1.727634e+00	-6.826591e+00
1	 5.110620e-01	 1.733649e+00	-7.177314e+00
1	 4.910769e-01	 1.739415e+00	-7.702347e+00
1	 5.932879e-01	 1.715098e+00	-6.028881e+00
1	 5.732844e-01	 1.721888e+00	-5.925429e+00
1	 5.532583e-01	 1.728426e+00	-5.963917e+00
1	 5.332143e-01	 1.734715e+00	-6.154110e+00
1	 5.131565e-01	 1.740754e+00	-6.505610e+00
1	 4.930895e-01	 1.746544e+00	-7.027836e+00
1	 4.830265e-01	 1.710900e+00	-1.073774e+01
1	 4.633641e-01	 1.716330e+00	-1.146263e+01
1	 4.437011e-01	 1.721518e+00	-1.238949e+01
1	 4.240415e-01	 1.726465e+00	-1.352381e+01
1	 4.043894e-01	 1.731174e+00	-1.487081e+01
1	 3.847489e-01	 1.735645e+00	-1.643545e+01
1	 4.850391e-01	 1.718029e+00	-9.928192e+00
1	 4.652948e-01	 1.723481e+00	-1.064981e+01
1	 4.455499e-01	 1.728691e+00	-1.156963e+01
1	 4.258084e-01	 1.733659e+00	-1.269389e+01
1	 4.060744e-01	 1.738387e+00	-1.402857e+01
1	 3.863520e-01	 1.742876e+00	-1.557937e+01
1	 4.870517e-01	 1.725158e+00	-9.152477e+00
1	 4.672255e-01	 1.730632e+00	-9.869824e+00
1	 4.473986e-01	 1.735864e+00	-1.078141e+01
1	 4.275752e-01	 1.740853e+00	-1.189408e+01
1	 4.077594e-01	 1.745600e+00	-1.321444e+01
1	 3.879551e-01	 1.750108e+00	-1.474879e+01
1	 4.890643e-01	 1.732286e+00	-8.410544e+00
1	 4.691562e-01	 1.737784e+00	-9.122619e+00
1	 4.492474e-01	 1.743037e+00	-1.002475e+01
1	 4.293420e-01	 1.748046e+00	-1.112427e+01
1	 4.094443e-01	 1.752814e+00	-1.242826e+01
1	 3.895583e-01	 1.757340e+00	-1.394352e+01
1	 4.910769e-01	 1.739415e+00	-7.702347e+00
1	 4.710869e-01	 1.744935e+00	-8.408135e+00
1	 4.510961e-01	 1.750210e+00	-9.299568e+00
1	 4.311089e-01	 1.755240e+00	-1.038434e+01
1	 4.111293e-01	 1.760027e+00	-1.166990e+01
1	 3.911614e-01	 1.764572e+00	-1.316340e+01
1	 4.930895e-01	 1.746544e+00	-7.027836e+00
1	 4.730176e-01	 1.752087e+00	-7.726311e+00
1	 4.529449e-01	 1.757383e+00	-8.605788e+00
1	 4.328757e-01	 1.762433e+00	-9.674200e+00
1	 4.128142e-01	 1.767240e+00	-1.093922e+01
1	 3.927645e-01	 1.771804e+00	-1.240825e+01
1	 3.847489e-01	 1.735645e+00	-1.643545e+01
1	 3.651239e-01	 1.739879e+00	-1.824112e+01
1	 3.455182e-01	 1.743878e+00	-2.027388e+01
1	 3.259358e-01	 1.747644e+00	-2.248258e+01
1	 3.063805e-01	 1.751178e+00	-2.481636e+01
1	 2.868559e-01	 1.754482e+00	-2.722463e+01
1	 3.863520e-01	 1.742876e+00	-1.557937e+01
1	 3.666452e-01	 1.747128e+00	-1.736899e+01
1	 3.469579e-01	 1.751144e+00	-1.938274e+01
1	 3.272939e-01	 1.754926e+00	-2.157012e+01
1	 3.076571e-01	 1.758475e+00	-2.388087e+01
1	 2.880511e-01	 1.761792e+00	-2.626505e+01
1	 3.879551e-01	 1.750108e+00	-1.474879e+01
1	 3.681666e-01	 1.754378e+00	-1.651908e+01
1	 3.483975e-01	 1.758410e+00	-1.850996e+01
1	 3.286520e-01	 1.762208e+00	-2.067167e+01
1	 3.089337e-01	 1.765771e+00	-2.295473e+01
1	 2.892464e-01	 1.769103e+00	-2.530992e+01
1	 3.895583e-01	 1.757340e+00	-1.394352e+01
1	 3.696879e-01	 1.761627e+00	-1.569117e+01
1	 3.498372e-01	 1.765677e+00	-1.765528e+01
1	 3.300100e-01	 1.769490e+00	-1.978699e+01
1	 3.102103e-01	 1.773068e+00	-2.203767e+01
1	 2.904416e-01	 1.776413e+00	-2.435900e+01
1	 3.911614e-01	 1.764572e+00	-1.316340e+01
1	 3.712093e-01	 1.768877e+00	-1.488507e+01
1	 3.512769e-01	 1.772943e+00	-1.681850e+01
1	 3.313681e-01	 1.776771e+00	-1.891583e+01
1	 3.114868e-01	 1.780364e+00	-2.112945e+01
1	 2.916368e-01	 1.783723e+00	-2.341203e+01
1	 3.927645e-01	 1.771804e+00	-1.240825e+01
1	 3.727306e-01	 1.776126e+00	-1.410056e+01
1	 3.527165e-01	 1.780209e+00	-1.599937e+01
1	 3.327262e-01	 1.784053e+00	-1.805796e+01
1	 3.127634e-01	 1.787661e+00	-2.022984e+01
1	 2.928321e-01	 1.791034e+00	-2.246880e+01
1	 2.868559e-01	 1.754482e+00	-2.722463e+01
1	 2.673657e-01	 1.757558e+00	-2.965549e+01
1	 2.479135e-01	 1.760407e+00	-3.206898e+01
1	 2.285029e-01	 1.763032e+00	-3.443304e+01
1	 2.091372e-01	 1.765434e+00	-3.671604e+01
1	 1.898199e-01	 1.767615e+00	-3.888679e+01
1	 2.880511e-01	 1.761792e+00	-2.626505e+01
1	 2.684797e-01	 1.764881e+00	-2.867150e+01
1	 2.489465e-01	 1.767742e+00	-3.106070e+01
1	 2.294550e-01	 1.770378e+00	-3.340079e+01
1	 2.100086e-01	 1.772789e+00	-3.566030e+01
1	 1.906108e-01	 1.774980e+00	-3.780821e+01
1	 2.892464e-01	 1.769103e+00	-2.530992e+01
1	 2.695938e-01	 1.772204e+00	-2.768694e+01
1	 2.499795e-01	 1.775077e+00	-3.004676e+01
1	 2.304071e-01	 1.777723e+00	-3.235769e+01
1	 2.108800e-01	 1.780145e+00	-3.458844e+01
1	 1.914017e-01	 1.782345e+00	-3.670817e+01
1	 2.904416e-01	 1.776413e+00	-2.435900e+01
1	 2.707078e-01	 1.779527e+00	-2.670159e+01
1	 2.510124e-01	 1.782412e+00	-2.902692e+01
1	 2.313592e-01	 1.785069e+00	-3.130351e+01
1	 2.117514e-01	 1.787501e+00	-3.350026e+01
1	 1.921926e-01	 1.789710e+00	-3.558653e+01
1	 2.916368e-01	 1.783723e+00	-2.341203e+01
1	 2.718218e-01	 1.786850e+00	-2.571522e+01
1	 2.520454e-01	 1.789747e+00	-2.800098e+01
1	 2.323112e-01	 1.792415e+00	-3.023806e+01
1	 2.126228e-01	 1.794857e+00	-3.239559e+01
1	 1.929835e-01	 1.797075e+00	-3.444313e+01
1	 2.928321e-01	 1.791034e+00	-2.246880e+01
1	 2.729358e-01	 1.794174e+00	-2.472758e+01
1	 2.530784e-01	 1.797082e+00	-2.696871e+01
1	 2.332633e-01	 1.799761e+00	-2.916115e+01
1	 2.134942e-01	 1.802213e+00	-3.127425e+01
1	 1.937744e-01	 1.804440e+00	-3.327782e+01
1	 1.898199e-01	 1.767615e+00	-3.888679e+01
1	 1.705542e-01	 1.769578e+00	-4.090999e+01
1	 1.513435e-01	 1.771324e+00	-4.274883e+01
1	 1.321909e-01	 1.772856e+00	-4.437073e+01
1	 1.130994e-01	 1.774177e+00	-4.574378e+01
1	 9.407220e-02	 1.775287e+00	-4.683683e+01
1	 1.906108e-01	 1.774980e+00	-3.780821e+01
1	 1.712649e-01	 1.776951e+00	-3.980956e+01
1	 1.519741e-01	 1.778705e+00	-4.162845e+01
1	 1.327417e-01	 1.780243e+00	-4.323325e+01
1	 1.135707e-01	 1.781569e+00	-4.459302e+01
1	 9.446417e-02	 1.782684e+00	-4.567755e+01
1	 1.914017e-01	 1.782345e+00	-3.670817e+01
1	 1.719755e-01	 1.784324e+00	-3.868236e+01
1	 1.526047e-01	 1.786085e+00	-4.047613e+01
1	 1.332925e-01	 1.787630e+00	-4.205897e+01
1	 1.140419e-01	 1.788961e+00	-4.340104e+01
1	 9.485613e-02	 1.790081e+00	-4.447320e+01
1	 1.921926e-01	 1.789710e+00	-3.558653e+01
1	 1.726861e-01	 1.791697e+00	-3.752826e+01
1	 1.532353e-01	 1.793466e+00	-3.929176e+01
1	 1.338432e-01	 1.795017e+00	-4.084779e+01
1	 1.145132e-01	 1.796354e+00	-4.216773e+01
1	 9.524810e-02	 1.797478e+00	-4.322369e+01
1	 1.929835e-01	 1.797075e+00	-3.444313e+01
1	 1.733968e-01	 1.799071e+00	-3.634714e+01
1	 1.538659e-01	 1.800846e+00	-3.807525e+01
1	 1.343940e-01	 1.802404e+00	-3.959961e+01
1	 1.149844e-01	 1.803746e+00	-4.089301e+01
1	 9.564007e-02	 1.804875e+00	-4.192887e+01
1	 1.937744e-01	 1.804440e+00	-3.327782e+01
1	 1.741074e-01	 1.806444e+00	-3.513886e+01
1	 1.544965e-01	 1.808227e+00	-3.682647e+01
1	 1.349448e-01	 1.809791e+00	-3.831434e+01
1	 1.154557e-01	 1.811139e+00	-3.957676e+01
1	 9.603204e-02	 1.812272e+00	-4.058865e+01
1	 9.407220e-02	 1.775287e+00	-4.683683e+01
1	 7.511214e-02	 1.776190e+00	-4.761935e+01
1	 5.622213e-02	 1.776889e+00	-4.806182e+01
1	 3.740496e-02	 1.777384e+00	-4.813582e+01
1	 1.866337e-02	 1.777680e+00	-4.781373e+01
1	 0.000000e+00	 1.777778e+00	-4.706883e+01
1	 9.446417e-02	 1.782684e+00	-4.567755e+01
1	 7.542511e-02	 1.783591e+00	-4.645699e+01
1	 5.645639e-02	 1.784292e+00	-4.690196e+01
1	 3.756081e-02	 1.784790e+00	-4.698410e+01
1	 1.874113e-02	 1.785087e+00	-4.667590e+01
1	 0.000000e+00	 1.785185e+00	-4.595069e+01
1	 9.485613e-02	 1.790081e+00	-4.447320e+01
1	 7.573808e-02	 1.790992e+00	-4.524643e+01
1	 5.669065e-02	 1.791696e+00	-4.569157e+01
1	 3.771667e-02	 1.792196e+00	-4.578051e+01
1	 1.881890e-02	 1.792494e+00	-4.548592e+01
1	 0.000000e+00	 1.792593e+00	-4.478135e+01
1	 9.524810e-02	 1.797478e+00	-4.322369e+01
1	 7.605104e-02	 1.798393e+00	-4.398753e+01
1	 5.692490e-02	 1.799100e+00	-4.443052e+01
1	 3.787252e-02	 1.799602e+00	-4.452487e+01
1	 1.889666e-02	 1.799901e+00	-4.424360e+01
1	 0.000000e+00	 1.800000e+00	-4.356060e+01
1	 9.564007e-02	 1.804875e+00	-4.192887e+01
1	 7.636401e-02	 1.805793e+00	-4.268017e+01
1	 5.715916e-02	 1.806503e+00	-4.311865e+01
1	 3.802838e-02	 1.807007e+00	-4.321702e+01
1	 1.897442e-02	 1.807308e+00	-4.294878e+01
1	 0.000000e+00	 1.807407e+00	-4.228827e+01
1	 9.603204e-02	 1.812272e+00	-4.058865e+01
1	 7.667698e-02	 1.813194e+00	-4.132419e+01
1	 5.739342e-02	 1.813907e+00	-4.175579e+01
1	 3.818423e-02	 1.814413e+00	-4.185679e+01
1	 1.905219e-02	 1.814715e+00	-4.160127e+01
1	 0.000000e+00	 1.814815e+00	-4.096417e+01
1	 1.814815e+00	 0.000000e+00	 8.713670e+00
1	 1.814715e+00	 1.905219e-02	 8.660888e+00
1	 1.814413e+00	 3.818423e-02	 8.547419e+00
1	 1.813907e+00	 5.739342e-02	 8.378599e+00
1	 1.813194e+00	 7.667698e-02	 8.159844e+00
1	 1.812272e+00	 9.603204e-02	 7.896638e+00
1	 1.822222e+00	 0.000000e+00	 8.373150e+00
1	 1.822122e+00	 1.912995e-02	 8.326332e+00
1	 1.821819e+00	 3.834008e-02	 8.220418e+00
1	 1.821311e+00	 5.762768e-02	 8.060610e+00
1	 1.820595e+00	 7.698994e-02	 7.852185e+00
1	 1.819669e+00	 9.642400e-02	 7.600491e+00
1	 1.829630e+00	 0.000000e+00	 8.026548e+00
1	 1.829529e+00	 1.920772e-02	 7.985295e+00
1	 1.829225e+00	 3.849594e-02	 7.886685e+00
1	 1.828714e+00	 5.786194e-02	 7.735789e+00
1	 1.827996e+00	 7.730291e-02	 7.537752e+00
1	 1.827066e+00	 9.681597e-02	 7.297788e+00
1	 1.837037e+00	 0.000000e+00	 7.673869e+00
1	 1.836936e+00	 1.928548e-02	 7.637775e+00
1	 1.836630e+00	 3.865179e-02	 7.546202e+00
1	 1.836118e+00	 5.809620e-02	 7.404096e+00
1	 1.835397e+00	 7.761588e-02	 7.216476e+00
1	 1.834463e+00	 9.720794e-02	 6.988424e+00
1	 1.844444e+00	 0.000000e+00	 7.315118e+00
1	 1.844343e+00	 1.936324e-02	 7.283768e+00
1	 1.844036e+00	 3.880765e-02	 7.198950e+00
1	 1.843522e+00	 5.833046e-02	 7.065492e+00
1	 1.842797e+00	 7.792885e-02	 6.888288e+00
1	 1.841860e+00	 9.759991e-02	 6.672296e+00
1	 1.851852e+00	 0.000000e+00	 6.950300e+00
1	 1.851750e+00	 1.944101e-02	 6.923271e+00
1	 1.851442e+00	 3.896350e-02	 6.844912e+00
1	 1.850926e+00	 5.856472e-02	 6.719937e+00
1	 1.850198e+00	 7.824181e-02	 6.553123e+00
1	 1.849257e+00	 9.799187e-02	 6.349304e+00
1	 1.812272e+00	 9.603204e-02	 7.896638e+00
1	 1.811139e+00	 1.154557e-01	 7.591870e+00
1	 1.809791e+00	 1.349448e-01	 7.247979e+00
1	 1.808227e+00	 1.544965e-01	 6.869872e+00
1	 1.806444e+00	 1.741074e-01	 6.462509e+00
1	 1.804440e+00	 1.937744e-01	 6.030898e+00
1	 1.819669e+00	 9.642400e-02	 7.600491e+00
1	 1.818531e+00	 1.159269e-01	 7.308362e+00
1	 1.817178e+00	 1.354956e-01	 6.978086e+00
1	 1.815607e+00	 1.551271e-01	 6.614280e+00
1	 1.813817e+00	 1.748181e-01	 6.221611e+00
1	 1.811805e+00	 1.945654e-01	 5.804789e+00
1	 1.827066e+00	 9.681597e-02	 7.297788e+00
1	 1.825923e+00	 1.163982e-01	 7.018672e+00
1	 1.824565e+00	 1.360464e-01	 6.702532e+00
1	 1.822988e+00	 1.557577e-01	 6.353689e+00
1	 1.821190e+00	 1.755287e-01	 5.976510e+00
1	 1.819170e+00	 1.953563e-01	 5.575403e+00
1	 1.834463e+00	 9.720794e-02	 6.988424e+00
1	 1.833316e+00	 1.168694e-01	 6.722660e+00
1	 1.831951e+00	 1.365972e-01	 6.421141e+00
1	 1.830368e+00	 1.563883e-01	 6.087889e+00
1	 1.828564e+00	 1.762394e-01	 5.726967e+00
1	 1.826535e+00	 1.961472e-01	 5.342474e+00
1	 1.841860e+00	 9.759991e-02	 6.672296e+00
1	 1.840708e+00	 1.173407e-01	 6.420183e+00
1	 1.839338e+00	 1.371480e-01	 6.133739e+00
1	 1.837749e+00	 1.570189e-01	 5.816676e+00
1	 1.835937e+00	 1.769500e-01	 5.472748e+00
1	 1.833900e+00	 1.969381e-01	 5.105740e+00
1	 1.849257e+00	 9.799187e-02	 6.349304e+00
1	 1.848101e+00	 1.178119e-01	 6.111106e+00
1	 1.846725e+00	 1.376988e-01	 5.840152e+00
1	 1.845129e+00	 1.576495e-01	 5.539844e+00
1	 1.843310e+00	 1.776606e-01	 5.213620e+00
1	 1.841265e+00	 1.977290e-01	 4.864945e+00
1	 1.804440e+00	 1.937744e-01	 6.030898e+00
1	 1.802213e+00	 2.134942e-01	 5.581403e+00
1	 1.799761e+00	 2.332633e-01	 5.120744e+00
1	 1.797082e+00	 2.530784e-01	 4.654503e+00
1	 1.794174e+00	 2.729358e-01	 4.188259e+00
1	 1.791034e+00	 2.928321e-01	 3.727576e+00
1	 1.811805e+00	 1.945654e-01	 5.804789e+00
1	 1.809569e+00	 2.143656e-01	 5.369844e+00
1	 1.807107e+00	 2.342154e-01	 4.923314e+00
1	 1.804417e+00	 2.541114e-01	 4.470716e+00
1	 1.801497e+00	 2.740499e-01	 4.017564e+00
1	 1.798344e+00	 2.940273e-01	 3.569362e+00
1	 1.819170e+00	 1.953563e-01	 5.575403e+00
1	 1.816925e+00	 2.152370e-01	 5.156056e+00
1	 1.814453e+00	 2.351675e-01	 4.724792e+00
1	 1.811752e+00	 2.551443e-01	 4.287005e+00
1	 1.808820e+00	 2.751639e-01	 3.848094e+00
1	 1.805655e+00	 2.952225e-01	 3.413450e+00
1	 1.826535e+00	 1.961472e-01	 5.342474e+00
1	 1.824281e+00	 2.161084e-01	 4.939755e+00
1	 1.821799e+00	 2.361196e-01	 4.524886e+00
1	 1.819087e+00	 2.561773e-01	 4.103086e+00
1	 1.816143e+00	 2.762779e-01	 3.679586e+00
1	 1.812965e+00	 2.964178e-01	 3.259613e+00
1	 1.833900e+00	 1.969381e-01	 5.105740e+00
1	 1.831637e+00	 2.169798e-01	 4.720663e+00
1	 1.829145e+00	 2.370717e-01	 4.323311e+00
1	 1.826422e+00	 2.572103e-01	 3.918681e+00
1	 1.823466e+00	 2.773919e-01	 3.511783e+00
1	 1.820275e+00	 2.976130e-01	 3.107630e+00
1	 1.841265e+00	 1.977290e-01	 4.864945e+00
1	 1.838993e+00	 2.178512e-01	 4.498503e+00
1	 1.836491e+00	 2.380238e-01	 4.119785e+00
1	 1.833757e+00	 2.582433e-01	 3.733516e+00
1	 1.830789e+00	 2.785059e-01	 3.344432e+00
1	 1.827586e+00	 2.988082e-01	 2.957282e+00
1	 1.791034e+00	 2.928321e-01	 3.727576e+00
1	 1.787661e+00	 3.127634e-01	 3.279486e+00
1	 1.784053e+00	 3.327262e-01	 2.852591e+00
1	 1.780209e+00	 3.527165e-01	 2.454776e+00
1	 1.776126e+00	 3.727306e-01	 2.093882e+00
1	 1.771804e+00	 3.927645e-01	 1.777685e+00
1	 1.798344e+00	 2.940273e-01	 3.569362e+00
1	 1.794958e+00	 3.140400e-01	 3.133015e+00
1	 1.791335e+00	 3.340842e-01	 2.716926e+00
1	 1.787475e+00	 3.541562e-01	 2.328810e+00
1	 1.783376e+00	 3.742520e-01	 1.976338e+00
1	 1.779036e+00	 3.943676e-01	 1.667124e+00
1	 1.805655e+00	 2.952225e-01	 3.413450e+00
1	 1.802254e+00	 3.153166e-01	 2.989811e+00
1	 1.798617e+00	 3.354423e-01	 2.585378e+00
1	 1.794741e+00	 3.555958e-01	 2.207701e+00
1	 1.790625e+00	 3.757733e-01	 1.864291e+00
1	 1.786268e+00	 3.959707e-01	 1.562600e+00
1	 1.812965e+00	 2.964178e-01	 3.259613e+00
1	 1.809551e+00	 3.165932e-01	 2.849683e+00
1	 1.805899e+00	 3.368004e-01	 2.457779e+00
1	 1.802007e+00	 3.570355e-01	 2.091293e+00
1	 1.797875e+00	 3.772947e-01	 1.757578e+00
1	 1.793499e+00	 3.975739e-01	 1.463932e+00
1	 1.820275e+00	 2.976130e-01	 3.107630e+00
1	 1.816847e+00	 3.178698e-01	 2.712448e+00
1	 1.813181e+00	 3.381584e-01	 2.333967e+00
1	 1.809274e+00	 3.584752e-01	 1.979430e+00
1	 1.805124e+00	 3.788160e-01	 1.656041e+00
1	 1.800731e+00	 3.991770e-01	 1.370943e+00
1	 1.827586e+00	 2.988082e-01	 2.957282e+00
1	 1.824144e+00	 3.191463e-01	 2.577920e+00
1	 1.820463e+00	 3.395165e-01	 2.213780e+00
1	 1.816540e+00	 3.599148e-01	 1.871963e+00
1	 1.812374e+00	 3.803374e-01	 1.559523e+00
1	 1.807963e+00	 4.007801e-01	 1.283457e+00
1	 1.771804e+00	 3.927645e-01	 1.777685e+00
1	 1.767240e+00	 4.128142e-01	 1.505926e+00
1	 1.762433e+00	 4.328757e-01	 1.271847e+00
1	 1.757383e+00	 4.529449e-01	 1.073328e+00
1	 1.752087e+00	 4.730176e-01	 9.081308e-01
1	 1.746544e+00	 4.930895e-01	 7.739011e-01
1	 1.779036e+00	 3.943676e-01	 1.667124e+00
1	 1.774453e+00	 4.144992e-01	 1.401124e+00
1	 1.769627e+00	 4.346426e-01	 1.171896e+00
1	 1.764556e+00	 4.547936e-01	 9.773161e-01
1	 1.759238e+00	 4.749482e-01	 8.151418e-01
1	 1.753673e+00	 4.951021e-01	 6.830150e-01
1	 1.786268e+00	 3.959707e-01	 1.562600e+00
1	 1.781666e+00	 4.161841e-01	 1.302789e+00
1	 1.776821e+00	 4.364094e-01	 1.078733e+00
1	 1.771729e+00	 4.566424e-01	 8.883228e-01
1	 1.766389e+00	 4.768789e-01	 7.293323e-01
1	 1.760801e+00	 4.971148e-01	 5.994228e-01
1	 1.793499e+00	 3.975739e-01	 1.463932e+00
1	 1.788880e+00	 4.178691e-01	 1.210720e+00
1	 1.784014e+00	 4.381762e-01	 9.921438e-01
1	 1.778902e+00	 4.584911e-01	 8.061292e-01
1	 1.773541e+00	 4.788096e-01	 6.504882e-01
1	 1.767930e+00	 4.991274e-01	 5.229235e-01
1	 1.800731e+00	 3.991770e-01	 1.370943e+00
1	 1.796093e+00	 4.195541e-01	 1.124716e+00
1	 1.791208e+00	 4.399431e-01	 9.119161e-01
1	 1.786075e+00	 4.603399e-01	 7.305200e-01
1	 1.780692e+00	 4.807403e-01	 5.783990e-01
1	 1.775059e+00	 5.011400e-01	 4.533193e-01
1	 1.807963e+00	 4.007801e-01	 1.283457e+00
1	 1.803306e+00	 4.212390e-01	 1.044583e+00
1	 1.798401e+00	 4.417099e-01	 8.378420e-01
1	 1.793248e+00	 4.621887e-01	 6.612835e-01
1	 1.787843e+00	 4.826710e-01	 5.128576e-01
1	 1.782188e+00	 5.031526e-01	 3.904159e-01
1	 1.746544e+00	 4.930895e-01	 7.739011e-01
1	 1.740754e+00	 5.131565e-01	 6.700711e-01
1	 1.734715e+00	 5.332143e-01	 5.959304e-01
1	 1.728426e+00	 5.532583e-01	 5.487674e-01
1	 1.721888e+00	 5.732844e-01	 5.257967e-01
1	 1.715098e+00	 5.932879e-01	 5.241641e-01
1	 1.753673e+00	 4.951021e-01	 6.830150e-01
1	 1.747859e+00	 5.152511e-01	 5.805249e-01
1	 1.741795e+00	 5.353906e-01	 5.072395e-01
1	 1.735481e+00	 5.555165e-01	 4.606248e-01
1	 1.728916e+00	 5.756243e-01	 4.380722e-01
1	 1.722099e+00	 5.957095e-01	 4.369015e-01
1	 1.760801e+00	 4.971148e-01	 5.994228e-01
1	 1.754964e+00	 5.173456e-01	 4.983424e-01
1	 1.748876e+00	 5.375670e-01	 4.259237e-01
1	 1.742536e+00	 5.577747e-01	 3.798112e-01
1	 1.735944e+00	 5.779642e-01	 3.575728e-01
1	 1.729099e+00	 5.981311e-01	 3.567033e-01
1	 1.767930e+00	 4.991274e-01	 5.229235e-01
1	 1.762069e+00	 5.194401e-01	 4.233393e-01
1	 1.755956e+00	 5.397434e-01	 3.518150e-01
1	 1.749591e+00	 5.600329e-01	 3.061739e-01
1	 1.742972e+00	 5.803042e-01	 2.841610e-01
1	 1.736100e+00	 6.005526e-01	 2.834458e-01
1	 1.775059e+00	 5.011400e-01	 4.533193e-01
1	 1.769174e+00	 5.215346e-01	 3.553345e-01
1	 1.763037e+00	 5.419198e-01	 2.847481e-01
1	 1.756646e+00	 5.622911e-01	 2.395628e-01
1	 1.750000e+00	 5.826441e-01	 2.177010e-01
1	 1.743100e+00	 6.029742e-01	 2.170073e-01
1	 1.782188e+00	 5.031526e-01	 3.904159e-01
1	 1.776279e+00	 5.236291e-01	 2.941495e-01
1	 1.770117e+00	 5.440962e-01	 2.245602e-01
1	 1.763700e+00	 5.645493e-01	 1.798302e-01
1	 1.757028e+00	 5.849840e-01	 1.580596e-01
1	 1.750100e+00	 6.053958e-01	 1.572683e-01
1	 1.715098e+00	 5.932879e-01	 5.241641e-01
1	 1.708057e+00	 6.132644e-01	 5.362278e-01
1	 1.700764e+00	 6.332095e-01	 5.544616e-01
1	 1.693219e+00	 6.531184e-01	 5.761582e-01
1	 1.685420e+00	 6.729867e-01	 5.986459e-01
1	 1.677369e+00	 6.928098e-01	 6.192944e-01
1	 1.722099e+00	 5.957095e-01	 4.369015e-01
1	 1.715029e+00	 6.157676e-01	 4.498912e-01
1	 1.707706e+00	 6.357940e-01	 4.697446e-01
1	 1.700130e+00	 6.557842e-01	 4.936387e-01
1	 1.692300e+00	 6.757336e-01	 5.187834e-01
1	 1.684216e+00	 6.956376e-01	 5.424268e-01
1	 1.729099e+00	 5.981311e-01	 3.567033e-01
1	 1.722001e+00	 6.182707e-01	 3.704091e-01
1	 1.714648e+00	 6.383785e-01	 3.916342e-01
1	 1.707041e+00	 6.584500e-01	 4.174444e-01
1	 1.699179e+00	 6.784805e-01	 4.449343e-01
1	 1.691062e+00	 6.984654e-01	 4.712334e-01
1	 1.736100e+00	 6.005526e-01	 2.834458e-01
1	 1.728972e+00	 6.207738e-01	 2.976695e-01
1	 1.721590e+00	 6.409631e-01	 3.200261e-01
1	 1.713952e+00	 6.611158e-01	 3.474739e-01
1	 1.706058e+00	 6.812274e-01	 3.769962e-01
1	 1.697908e+00	 7.012932e-01	 4.056065e-01
1	 1.743100e+00	 6.029742e-01	 2.170073e-01
1	 1.735944e+00	 6.232769e-01	 2.315624e-01
1	 1.728532e+00	 6.435476e-01	 2.548176e-01
1	 1.720863e+00	 6.637816e-01	 2.836280e-01
1	 1.712937e+00	 6.839743e-01	 3.148685e-01
1	 1.704755e+00	 7.041210e-01	 3.454400e-01
1	 1.750100e+00	 6.053958e-01	 1.572683e-01
1	 1.742916e+00	 6.257800e-01	 1.719794e-01
1	 1.735474e+00	 6.461321e-01	 1.959076e-01
1	 1.727774e+00	 6.664474e-01	 2.258085e-01
1	 1.719817e+00	 6.867212e-01	 2.584522e-01
1	 1.711601e+00	 7.069488e-01	 2.906295e-01
1	 1.677369e+00	 6.928098e-01	 6.192944e-01
1	 1.669065e+00	 7.125829e-01	 6.287802e-01
1	 1.660508e+00	 7.323014e-01	 6.175355e-01
1	 1.651699e+00	 7.519607e-01	 5.827634e-01
1	 1.642636e+00	 7.715560e-01	 5.218960e-01
1	 1.633322e+00	 7.910826e-01	 4.326028e-01
1	 1.684216e+00	 6.956376e-01	 5.424268e-01
1	 1.675878e+00	 7.154914e-01	 5.557304e-01
1	 1.667286e+00	 7.352904e-01	 5.497700e-01
1	 1.658440e+00	 7.550299e-01	 5.218600e-01
1	 1.649341e+00	 7.747052e-01	 4.695406e-01
1	 1.639989e+00	 7.943115e-01	 3.905857e-01
1	 1.691062e+00	 6.984654e-01	 4.712334e-01
1	 1.682690e+00	 7.183999e-01	 4.879822e-01
1	 1.674063e+00	 7.382794e-01	 4.868928e-01
1	 1.665182e+00	 7.580991e-01	 4.653930e-01
1	 1.656046e+00	 7.778544e-01	 4.211320e-01
1	 1.646655e+00	 7.975404e-01	 3.519893e-01
1	 1.697908e+00	 7.012932e-01	 4.056065e-01
1	 1.689503e+00	 7.213084e-01	 4.254183e-01
1	 1.680841e+00	 7.412684e-01	 4.287745e-01
1	 1.671923e+00	 7.611684e-01	 4.132173e-01
1	 1.662750e+00	 7.810036e-01	 3.765069e-01
1	 1.653322e+00	 8.007693e-01	 3.166288e-01
1	 1.704755e+00	 7.041210e-01	 3.454400e-01
1	 1.696315e+00	 7.242169e-01	 3.679237e-01
1	 1.687619e+00	 7.442574e-01	 3.752877e-01
1	 1.678665e+00	 7.642376e-01	 3.651907e-01
1	 1.669455e+00	 7.841528e-01	 3.355045e-01
1	 1.659989e+00	 8.039982e-01	 2.843219e-01
1	 1.711601e+00	 7.069488e-01	 2.906295e-01
1	 1.703128e+00	 7.271254e-01	 3.153851e-01
1	 1.694396e+00	 7.472463e-01	 3.263072e-01
1	 1.685407e+00	 7.673068e-01	 3.211727e-01
1	 1.676160e+00	 7.873020e-01	 2.979667e-01
1	 1.666655e+00	 8.072271e-01	 2.548894e-01
1	 1.633322e+00	 7.910826e-01	 4.326028e-01
1	 1.623756e+00	 8.105358e-01	 3.127585e-01
1	 1.613940e+00	 8.299109e-01	 1.629635e-01
1	 1.603872e+00	 8.492031e-01	-1.470158e-02
1	 1.593556e+00	 8.684078e-01	-2.179728e-01
1	 1.582991e+00	 8.875201e-01	-4.444043e-01
1	 1.639989e+00	 7.943115e-01	 3.905857e-01
1	 1.630384e+00	 8.138441e-01	 2.825721e-01
1	 1.620527e+00	 8.332983e-01	 1.456809e-01
1	 1.610419e+00	 8.526692e-01	-1.809923e-02
1	 1.600060e+00	 8.719523e-01	-2.066113e-01
1	 1.589452e+00	 8.911426e-01	-4.175314e-01
1	 1.646655e+00	 7.975404e-01	 3.519893e-01
1	 1.637011e+00	 8.171524e-01	 2.552168e-01
1	 1.627115e+00	 8.366857e-01	 1.305567e-01
1	 1.616965e+00	 8.561354e-01	-2.008031e-02
1	 1.606565e+00	 8.754968e-01	-1.946281e-01
1	 1.595914e+00	 8.947651e-01	-3.908665e-01
1	 1.653322e+00	 8.007693e-01	 3.166288e-01
1	 1.643639e+00	 8.204607e-01	 2.304913e-01
1	 1.633702e+00	 8.400731e-01	 1.173875e-01
1	 1.623512e+00	 8.596015e-01	-2.083628e-02
1	 1.613069e+00	 8.790413e-01	-1.821888e-01
1	 1.602375e+00	 8.983877e-01	-3.645361e-01
1	 1.659989e+00	 8.039982e-01	 2.843219e-01
1	 1.650267e+00	 8.237690e-01	 2.081975e-01
1	 1.640290e+00	 8.434605e-01	 1.059731e-01
1	 1.630058e+00	 8.630677e-01	-2.055553e-02
1	 1.619573e+00	 8.825858e-01	-1.694567e-01
1	 1.608836e+00	 9.020102e-01	-3.386646e-01
1	 1.666655e+00	 8.072271e-01	 2.548894e-01
1	 1.656894e+00	 8.270773e-01	 1.881407e-01
1	 1.646877e+00	 8.468478e-01	 9.611681e-02
1	 1.636605e+00	 8.665338e-01	-1.942341e-02
1	 1.626078e+00	 8.861304e-01	-1.565922e-01
1	 1.615297e+00	 9.056327e-01	-3.133744e-01
1	 1.582991e+00	 8.875201e-01	-4.444043e-01
1	 1.572179e+00	 9.065354e-01	-6.984871e-01
1	 1.561120e+00	 9.254490e-01	-9.845113e-01
1	 1.549817e+00	 9.442561e-01	-1.299462e+00
1	 1.538270e+00	 9.629522e-01	-1.640149e+00
1	 1.526482e+00	 9.815325e-01	-2.003212e+00
1	 1.589452e+00	 8.911426e-01	-4.175314e-01
1	 1.578596e+00	 9.102355e-01	-6.553910e-01
1	 1.567492e+00	 9.292263e-01	-9.243459e-01
1	 1.556143e+00	 9.481102e-01	-1.221234e+00
1	 1.544549e+00	 9.668826e-01	-1.542697e+00
1	 1.532712e+00	 9.855387e-01	-1.885182e+00
1	 1.595914e+00	 8.947651e-01	-3.908665e-01
1	 1.585013e+00	 9.139357e-01	-6.132460e-01
1	 1.573864e+00	 9.330036e-01	-8.657165e-01
1	 1.562469e+00	 9.519643e-01	-1.145029e+00
1	 1.550828e+00	 9.708130e-01	-1.447721e+00
1	 1.538943e+00	 9.895450e-01	-1.770115e+00
1	 1.602375e+00	 8.983877e-01	-3.645361e-01
1	 1.591430e+00	 9.176358e-01	-5.721464e-01
1	 1.580236e+00	 9.367810e-01	-8.087131e-01
1	 1.568795e+00	 9.558184e-01	-1.070960e+00
1	 1.557106e+00	 9.747434e-01	-1.355381e+00
1	 1.545173e+00	 9.935513e-01	-1.658244e+00
1	 1.608836e+00	 9.020102e-01	-3.386646e-01
1	 1.597847e+00	 9.213360e-01	-5.321850e-01
1	 1.586608e+00	 9.405583e-01	-7.534240e-01
1	 1.575120e+00	 9.596725e-01	-9.991357e-01
1	 1.563385e+00	 9.786738e-01	-1.265835e+00
1	 1.551404e+00	 9.975575e-01	-1.549802e+00
1	 1.615297e+00	 9.056327e-01	-3.133744e-01
1	 1.604264e+00	 9.250361e-01	-4.934532e-01
1	 1.592980e+00	 9.443357e-01	-6.999362e-01
1	 1.581446e+00	 9.635266e-01	-9.296660e-01
1	 1.569664e+00	 9.826043e-01	-1.179240e+00
1	 1.557635e+00	 1.001564e+00	-1.445016e+00
1	 1.526482e+00	 9.815325e-01	-2.003212e+00
1	 1.514453e+00	 9.999925e-01	-2.366617e+00
1	 1.502186e+00	 1.018327e+00	-2.710588e+00
1	 1.489682e+00	 1.036533e+00	-3.035016e+00
1	 1.476944e+00	 1.054604e+00	-3.339778e+00
1	 1.463973e+00	 1.072537e+00	-3.624735e+00
1	 1.532712e+00	 9.855387e-01	-1.885182e+00
1	 1.520634e+00	 1.004074e+00	-2.226924e+00
1	 1.508317e+00	 1.022484e+00	-2.548518e+00
1	 1.495762e+00	 1.040764e+00	-2.849822e+00
1	 1.482972e+00	 1.058909e+00	-3.130693e+00
1	 1.469948e+00	 1.076915e+00	-3.390995e+00
1	 1.538943e+00	 9.895450e-01	-1.770115e+00
1	 1.526816e+00	 1.008156e+00	-2.090887e+00
1	 1.514448e+00	 1.026640e+00	-2.391101e+00
1	 1.501843e+00	 1.044994e+00	-2.670527e+00
1	 1.489000e+00	 1.063213e+00	-2.928953e+00
1	 1.475924e+00	 1.081293e+00	-3.166187e+00
1	 1.545173e+00	 9.935513e-01	-1.658244e+00
1	 1.532997e+00	 1.012237e+00	-1.958813e+00
1	 1.520580e+00	 1.030797e+00	-2.238687e+00
1	 1.507923e+00	 1.049225e+00	-2.497499e+00
1	 1.495029e+00	 1.067518e+00	-2.734915e+00
1	 1.481899e+00	 1.085671e+00	-2.950627e+00
1	 1.551404e+00	 9.975575e-01	-1.549802e+00
1	 1.539179e+00	 1.016319e+00	-1.831004e+00
1	 1.526711e+00	 1.034953e+00	-2.091620e+00
1	 1.514003e+00	 1.053456e+00	-2.331100e+00
1	 1.501057e+00	 1.071822e+00	-2.548929e+00
1	 1.487874e+00	 1.090048e+00	-2.744630e+00
1	 1.557635e+00	 1.001564e+00	-1.445016e+00
1	 1.545360e+00	 1.020400e+00	-1.707758e+00
1	 1.532843e+00	 1.039110e+00	-1.950242e+00
1	 1.520084e+00	 1.057687e+00	-2.171684e+00
1	 1.507085e+00	 1.076127e+00	-2.371340e+00
1	 1.493850e+00	 1.094426e+00	-2.548503e+00
1	 1.463973e+00	 1.072537e+00	-3.624735e+00
1	 1.450772e+00	 1.090327e+00	-3.861863e+00
1	 1.437343e+00	 1.107970e+00	-4.029063e+00
1	 1.423689e+00	 1.125461e+00	-4.135739e+00
1	 1.409812e+00	 1.142796e+00	-4.192170e+00
1	 1.395715e+00	 1.159971e+00	-4.209496e+00
1	 1.469948e+00	 1.076915e+00	-3.390995e+00
1	 1.456693e+00	 1.094778e+00	-3.605610e+00
1	 1.443210e+00	 1.112492e+00	-3.755408e+00
1	 1.429500e+00	 1.130055e+00	-3.849899e+00
1	 1.415566e+00	 1.147461e+00	-3.899446e+00
1	 1.401412e+00	 1.164706e+00	-3.915255e+00
1	 1.475924e+00	 1.081293e+00	-3.166187e+00
1	 1.462615e+00	 1.099228e+00	-3.359825e+00
1	 1.449076e+00	 1.117015e+00	-3.493532e+00
1	 1.435311e+00	 1.134649e+00	-3.576867e+00
1	 1.421321e+00	 1.152125e+00	-3.620224e+00
1	 1.407108e+00	 1.169440e+00	-3.634818e+00
1	 1.481899e+00	 1.085671e+00	-2.950627e+00
1	 1.468536e+00	 1.103678e+00	-3.124771e+00
1	 1.454943e+00	 1.121537e+00	-3.243632e+00
1	 1.441122e+00	 1.139242e+00	-3.316767e+00
1	 1.427075e+00	 1.156790e+00	-3.354546e+00
1	 1.412805e+00	 1.174175e+00	-3.368137e+00
1	 1.487874e+00	 1.090048e+00	-2.744630e+00
1	 1.474458e+00	 1.108129e+00	-2.900707e+00
1	 1.460810e+00	 1.126059e+00	-3.005904e+00
1	 1.446933e+00	 1.143836e+00	-3.069722e+00
1	 1.432829e+00	 1.161454e+00	-3.102454e+00
1	 1.418502e+00	 1.178909e+00	-3.115167e+00
1	 1.493850e+00	 1.094426e+00	-2.548503e+00
1	 1.480379e+00	 1.112579e+00	-2.687889e+00
1	 1.466677e+00	 1.130582e+00	-2.780540e+00
1	 1.452744e+00	 1.148430e+00	-2.835852e+00
1	 1.438584e+00	 1.166119e+00	-2.863990e+00
1	 1.424199e+00	 1.183644e+00	-2.875862e+00
1	 1.395715e+00	 1.159971e+00	-4.209496e+00
1	 1.381400e+00	 1.176982e+00	-4.211857e+00
1	 1.366872e+00	 1.193824e+00	-4.214993e+00
1	 1.352131e+00	 1.210493e+00	-4.217988e+00
1	 1.337182e+00	 1.226987e+00	-4.219802e+00
1	 1.322029e+00	 1.243299e+00	-4.219277e+00
1	 1.401412e+00	 1.164706e+00	-3.915255e+00
1	 1.387039e+00	 1.181786e+00	-3.918436e+00
1	 1.372451e+00	 1.198696e+00	-3.921549e+00
1	 1.357650e+00	 1.215434e+00	-3.923492e+00
1	 1.342640e+00	 1.231995e+00	-3.923038e+00
1	 1.327425e+00	 1.248374e+00	-3.918838e+00
1	 1.407108e+00	 1.169440e+00	-3.634818e+00
1	 1.392677e+00	 1.186590e+00	-3.638765e+00
1	 1.378030e+00	 1.203569e+00	-3.641585e+00
1	 1.363169e+00	 1.220375e+00	-3.642097e+00
1	 1.348098e+00	 1.237003e+00	-3.638999e+00
1	 1.332821e+00	 1.253449e+00	-3.630867e+00
1	 1.412805e+00	 1.174175e+00	-3.368137e+00
1	 1.398316e+00	 1.191394e+00	-3.372722e+00
1	 1.383609e+00	 1.208442e+00	-3.374941e+00
1	 1.368688e+00	 1.225316e+00	-3.373641e+00
1	 1.353556e+00	 1.242011e+00	-3.367554e+00
1	 1.338217e+00	 1.258523e+00	-3.355298e+00
1	 1.418502e+00	 1.178909e+00	-3.115167e+00
1	 1.403954e+00	 1.196198e+00	-3.120188e+00
1	 1.389188e+00	 1.213315e+00	-3.121460e+00
1	 1.374207e+00	 1.230256e+00	-3.117964e+00
1	 1.359014e+00	 1.247019e+00	-3.108575e+00
1	 1.343613e+00	 1.263598e+00	-3.092067e+00
1	 1.424199e+00	 1.183644e+00	-2.875862e+00
1	 1.409592e+00	 1.201002e+00	-2.881043e+00
1	 1.394767e+00	 1.218187e+00	-2.880988e+00
1	 1.379726e+00	 1.235197e+00	-2.874910e+00
1	 1.364472e+00	 1.252027e+00	-2.861936e+00
1	 1.349009e+00	 1.268673e+00	-2.841110e+00
1	 1.322029e+00	 1.243299e+00	-4.219277e+00
1	 1.306673e+00	 1.259428e+00	-4.234701e+00
1	 1.291118e+00	 1.275369e+00	-4.285545e+00
1	 1.275369e+00	 1.291118e+00	-4.372312e+00
1	 1.259428e+00	 1.306673e+00	-4.495458e+00
1	 1.243299e+00	 1.322029e+00	-4.655393e+00
1	 1.327425e+00	 1.248374e+00	-3.918838e+00
1	 1.312006e+00	 1.264569e+00	-3.929312e+00
1	 1.296388e+00	 1.280575e+00	-3.974183e+00
1	 1.280575e+00	 1.296388e+00	-4.053936e+00
1	 1.264569e+00	 1.312006e+00	-4.169012e+00
1	 1.248374e+00	 1.327425e+00	-4.319800e+00
1	 1.332821e+00	 1.253449e+00	-3.630867e+00
1	 1.317339e+00	 1.269709e+00	-3.636340e+00
1	 1.301658e+00	 1.285780e+00	-3.675363e+00
1	 1.285780e+00	 1.301658e+00	-3.748350e+00
1	 1.269709e+00	 1.317339e+00	-3.855663e+00
1	 1.253449e+00	 1.332821e+00	-3.997616e+00
1	 1.338217e+00	 1.258523e+00	-3.355298e+00
1	 1.322673e+00	 1.274850e+00	-3.355793e+00
1	 1.306928e+00	 1.290986e+00	-3.389152e+00
1	 1.290986e+00	 1.306928e+00	-3.455661e+00
1	 1.274850e+00	 1.322673e+00	-3.555551e+00
1	 1.258523e+00	 1.338217e+00	-3.688998e+00
1	 1.343613e+00	 1.263598e+00	-3.092067e+00
1	 1.328006e+00	 1.279990e+00	-3.087678e+00
1	 1.312198e+00	 1.296191e+00	-3.115614e+00
1	 1.296191e+00	 1.312198e+00	-3.175978e+00
1	 1.279990e+00	 1.328006e+00	-3.268814e+00
1	 1.263598e+00	 1.343613e+00	-3.394103e+00
1	 1.349009e+00	 1.268673e+00	-2.841110e+00
1	 1.333340e+00	 1.285131e+00	-2.832003e+00
1	 1.317468e+00	 1.301397e+00	-2.854811e+00
1	 1.301397e+00	 1.317468e+00	-2.909406e+00
1	 1.285131e+00	 1.333340e+00	-2.995587e+00
1	 1.268673e+00	 1.349009e+00	-3.113082e+00
1	 1.243299e+00	 1.322029e+00	-4.655393e+00
1	 1.226987e+00	 1.337182e+00	-4.868185e+00
1	 1.210493e+00	 1.352131e+00	-5.147323e+00
1	 1.193824e+00	 1.366872e+00	-5.489208e+00
1	 1.176982e+00	 1.381400e+00	-5.890107e+00
1	 1.159971e+00	 1.395715e+00	-6.346160e+00
1	 1.248374e+00	 1.327425e+00	-4.319800e+00
1	 1.231995e+00	 1.342640e+00	-4.522043e+00
1	 1.215434e+00	 1.357650e+00	-4.788804e+00
1	 1.198696e+00	 1.372451e+00	-5.116310e+00
1	 1.181786e+00	 1.387039e+00	-5.500658e+00
1	 1.164706e+00	 1.401412e+00	-5.937816e+00
1	 1.253449e+00	 1.332821e+00	-3.997616e+00
1	 1.237003e+00	 1.348098e+00	-4.189583e+00
1	 1.220375e+00	 1.363169e+00	-4.444224e+00
1	 1.203569e+00	 1.378030e+00	-4.757637e+00
1	 1.186590e+00	 1.392677e+00	-5.125786e+00
1	 1.169440e+00	 1.407108e+00	-5.544509e+00
1	 1.258523e+00	 1.338217e+00	-3.688998e+00
1	 1.242011e+00	 1.353556e+00	-3.870974e+00
1	 1.225316e+00	 1.368688e+00	-4.113767e+00
1	 1.208442e+00	 1.383609e+00	-4.413385e+00
1	 1.191394e+00	 1.398316e+00	-4.765700e+00
1	 1.174175e+00	 1.412805e+00	-5.166460e+00
1	 1.263598e+00	 1.343613e+00	-3.394103e+00
1	 1.247019e+00	 1.359014e+00	-3.566383e+00
1	 1.230256e+00	 1.374207e+00	-3.797613e+00
1	 1.213315e+00	 1.389188e+00	-4.083746e+00
1	 1.196198e+00	 1.403954e+00	-4.420605e+00
1	 1.178909e+00	 1.418502e+00	-4.803886e+00
1	 1.268673e+00	 1.349009e+00	-3.113082e+00
1	 1.252027e+00	 1.364472e+00	-3.275976e+00
1	 1.235197e+00	 1.379726e+00	-3.495939e+00
1	 1.218187e+00	 1.394767e+00	-3.768912e+00
1	 1.201002e+00	 1.409592e+00	-4.090705e+00
1	 1.183644e+00	 1.424199e+00	-4.457002e+00
1	 1.159971e+00	 1.395715e+00	-6.346160e+00
1	 1.142796e+00	 1.409812e+00	-6.859108e+00
1	 1.125461e+00	 1.423689e+00	-7.420519e+00
1	 1.107970e+00	 1.437343e+00	-8.010595e+00
1	 1.090327e+00	 1.450772e+00	-8.608782e+00
1	 1.072537e+00	 1.463973e+00	-9.193819e+00
1	 1.164706e+00	 1.401412e+00	-5.937816e+00
1	 1.147461e+00	 1.415566e+00	-6.427163e+00
1	 1.130055e+00	 1.429500e+00	-6.959087e+00
1	 1.112492e+00	 1.443210e+00	-7.515426e+00
1	 1.094778e+00	 1.456693e+00	-8.077313e+00
1	 1.076915e+00	 1.469948e+00	-8.625221e+00
1	 1.169440e+00	 1.407108e+00	-5.544509e+00
1	 1.152125e+00	 1.421321e+00	-6.011040e+00
1	 1.134649e+00	 1.435311e+00	-6.514721e+00
1	 1.117015e+00	 1.449076e+00	-7.038950e+00
1	 1.099228e+00	 1.462615e+00	-7.566463e+00
1	 1.081293e+00	 1.475924e+00	-8.079379e+00
1	 1.174175e+00	 1.412805e+00	-5.166460e+00
1	 1.156790e+00	 1.427075e+00	-5.610960e+00
1	 1.139242e+00	 1.441122e+00	-6.087629e+00
1	 1.121537e+00	 1.454943e+00	-6.581340e+00
1	 1.103678e+00	 1.468536e+00	-7.076351e+00
1	 1.085671e+00	 1.481899e+00	-7.556346e+00
1	 1.178909e+00	 1.418502e+00	-4.803886e+00
1	 1.161454e+00	 1.432829e+00	-5.227144e+00
1	 1.143836e+00	 1.446933e+00	-5.678013e+00
1	 1.126059e+00	 1.460810e+00	-6.142763e+00
1	 1.108129e+00	 1.474458e+00	-6.607096e+00
1	 1.090048e+00	 1.487874e+00	-7.056173e+00
1	 1.183644e+00	 1.424199e+00	-4.457002e+00
1	 1.166119e+00	 1.438584e+00	-4.859807e+00
1	 1.148430e+00	 1.452744e+00	-5.286071e+00
1	 1.130582e+00	 1.466677e+00	-5.723386e+00
1	 1.112579e+00	 1.480379e+00	-6.158813e+00
1	 1.094426e+00	 1.493850e+00	-6.578912e+00
1	 1.072537e+00	 1.463973e+00	-9.193819e+00
1	 1.054604e+00	 1.476944e+00	-9.728467e+00
1	 1.036533e+00	 1.489682e+00	-1.019321e+01
1	 1.018327e+00	 1.502186e+00	-1.059310e+01
1	 9.999925e-01	 1.514453e+00	-1.093346e+01
1	 9.815325e-01	 1.526482e+00	-1.121988e+01
1	 1.076915e+00	 1.469948e+00	-8.625221e+00
1	 1.058909e+00	 1.482972e+00	-9.126443e+00
1	 1.040764e+00	 1.495762e+00	-9.564099e+00
1	 1.022484e+00	 1.508317e+00	-9.942118e+00
1	 1.004074e+00	 1.520634e+00	-1.026466e+01
1	 9.855387e-01	 1.532712e+00	-1.053612e+01
1	 1.081293e+00	 1.475924e+00	-8.079379e+00
1	 1.063213e+00	 1.489000e+00	-8.549140e+00
1	 1.044994e+00	 1.501843e+00	-8.961190e+00
1	 1.026640e+00	 1.514448e+00	-9.318365e+00
1	 1.008156e+00	 1.526816e+00	-9.623699e+00
1	 9.895450e-01	 1.538943e+00	-9.880410e+00
1	 1.085671e+00	 1.481899e+00	-7.556346e+00
1	 1.067518e+00	 1.495029e+00	-7.996547e+00
1	 1.049225e+00	 1.507923e+00	-8.384431e+00
1	 1.030797e+00	 1.520580e+00	-8.721769e+00
1	 1.012237e+00	 1.532997e+00	-9.010491e+00
1	 9.935513e-01	 1.545173e+00	-9.252685e+00
1	 1.090048e+00	 1.487874e+00	-7.056173e+00
1	 1.071822e+00	 1.501057e+00	-7.468653e+00
1	 1.053456e+00	 1.514003e+00	-7.833768e+00
1	 1.034953e+00	 1.526711e+00	-8.152250e+00
1	 1.016319e+00	 1.539179e+00	-8.424960e+00
1	 9.975575e-01	 1.551404e+00	-8.652883e+00
1	 1.094426e+00	 1.493850e+00	-6.578912e+00
1	 1.076127e+00	 1.507085e+00	-6.965447e+00
1	 1.057687e+00	 1.520084e+00	-7.309147e+00
1	 1.039110e+00	 1.532843e+00	-7.609734e+00
1	 1.020400e+00	 1.545360e+00	-7.867027e+00
1	 1.001564e+00	 1.557635e+00	-8.080938e+00
1	 9.815325e-01	 1.526482e+00	-1.121988e+01
1	 9.629522e-01	 1.538270e+00	-1.144026e+01
1	 9.442561e-01	 1.549817e+00	-1.158006e+01
1	 9.254490e-01	 1.561120e+00	-1.164154e+01
1	 9.065354e-01	 1.572179e+00	-1.162708e+01
1	 8.875201e-01	 1.582991e+00	-1.153919e+01
1	 9.855387e-01	 1.532712e+00	-1.053612e+01
1	 9.668826e-01	 1.544549e+00	-1.074309e+01
1	 9.481102e-01	 1.556143e+00	-1.087078e+01
1	 9.292263e-01	 1.567492e+00	-1.092178e+01
1	 9.102355e-01	 1.578596e+00	-1.089883e+01
1	 8.911426e-01	 1.589452e+00	-1.080479e+01
1	 9.895450e-01	 1.538943e+00	-9.880410e+00
1	 9.708130e-01	 1.550828e+00	-1.007402e+01
1	 9.519643e-01	 1.562469e+00	-1.018970e+01
1	 9.330036e-01	 1.573864e+00	-1.023039e+01
1	 9.139357e-01	 1.585013e+00	-1.019919e+01
1	 8.947651e-01	 1.595914e+00	-1.009936e+01
1	 9.935513e-01	 1.545173e+00	-9.252685e+00
1	 9.747434e-01	 1.557106e+00	-9.433011e+00
1	 9.558184e-01	 1.568795e+00	-9.536784e+00
1	 9.367810e-01	 1.580236e+00	-9.567319e+00
1	 9.176358e-01	 1.591430e+00	-9.528110e+00
1	 8.983877e-01	 1.602375e+00	-9.422818e+00
1	 9.975575e-01	 1.551404e+00	-8.652883e+00
1	 9.786738e-01	 1.563385e+00	-8.820009e+00
1	 9.596725e-01	 1.575120e+00	-8.911991e+00
1	 9.405583e-01	 1.586608e+00	-8.932536e+00
1	 9.213360e-01	 1.597847e+00	-8.885541e+00
1	 9.020102e-01	 1.608836e+00	-8.775079e+00
1	 1.001564e+00	 1.557635e+00	-8.080938e+00
1	 9.826043e-01	 1.569664e+00	-8.234972e+00
1	 9.635266e-01	 1.581446e+00	-8.315288e+00
1	 9.443357e-01	 1.592980e+00	-8.326003e+00
1	 9.250361e-01	 1.604264e+00	-8.271430e+00
1	 9.056327e-01	 1.615297e+00	-8.156068e+00
1	 8.875201e-01	 1.582991e+00	-1.153919e+01
1	 8.684078e-01	 1.593556e+00	-1.138795e+01
1	 8.492031e-01	 1.603872e+00	-1.118283e+01
1	 8.299109e-01	 1.613940e+00	-1.092561e+01
1	 8.105358e-01	 1.623756e+00	-1.061815e+01
1	 7.910826e-01	 1.633322e+00	-1.026243e+01
1	 8.911426e-01	 1.589452e+00	-1.080479e+01
1	 8.719523e-01	 1.600060e+00	-1.064996e+01
1	 8.526692e-01	 1.610419e+00	-1.044348e+01
1	 8.332983e-01	 1.620527e+00	-1.018674e+01
1	 8.138441e-01	 1.630384e+00	-9.881176e+00
1	 7.943115e-01	 1.639989e+00	-9.528354e+00
1	 8.947651e-01	 1.595914e+00	-1.009936e+01
1	 8.754968e-01	 1.606565e+00	-9.941285e+00
1	 8.561354e-01	 1.616965e+00	-9.733707e+00
1	 8.366857e-01	 1.627115e+00	-9.477649e+00
1	 8.171524e-01	 1.637011e+00	-9.174207e+00
1	 7.975404e-01	 1.646655e+00	-8.824548e+00
1	 8.983877e-01	 1.602375e+00	-9.422818e+00
1	 8.790413e-01	 1.613069e+00	-9.261816e+00
1	 8.596015e-01	 1.623512e+00	-9.053392e+00
1	 8.400731e-01	 1.633702e+00	-8.798255e+00
1	 8.204607e-01	 1.643639e+00	-8.497175e+00
1	 8.007693e-01	 1.653322e+00	-8.150985e+00
1	 9.020102e-01	 1.608836e+00	-8.775079e+00
1	 8.825858e-01	 1.619573e+00	-8.611454e+00
1	 8.630677e-01	 1.630058e+00	-8.402435e+00
1	 8.434605e-01	 1.640290e+00	-8.148458e+00
1	 8.237690e-01	 1.650267e+00	-7.850014e+00
1	 8.039982e-01	 1.659989e+00	-7.507643e+00
1	 9.056327e-01	 1.615297e+00	-8.156068e+00
1	 8.861304e-01	 1.626078e+00	-7.990099e+00
1	 8.665338e-01	 1.636605e+00	-7.780730e+00
1	 8.468478e-01	 1.646877e+00	-7.528166e+00
1	 8.270773e-01	 1.656894e+00	-7.232659e+00
1	 8.072271e-01	 1.666655e+00	-6.894502e+00
1	 7.910826e-01	 1.633322e+00	-1.026243e+01
1	 7.715560e-01	 1.642636e+00	-9.846520e+00
1	 7.519607e-01	 1.651699e+00	-9.372434e+00
1	 7.323014e-01	 1.660508e+00	-8.863338e+00
1	 7.125829e-01	 1.669065e+00	-8.342684e+00
1	 6.928098e-01	 1.677369e+00	-7.834151e+00
1	 7.943115e-01	 1.639989e+00	-9.528354e+00
1	 7.747052e-01	 1.649341e+00	-9.117411e+00
1	 7.550299e-01	 1.658440e+00	-8.651136e+00
1	 7.352904e-01	 1.667286e+00	-8.151850e+00
1	 7.154914e-01	 1.675878e+00	-7.642150e+00
1	 6.956376e-01	 1.684216e+00	-7.144860e+00
1	 7.975404e-01	 1.646655e+00	-8.824548e+00
1	 7.778544e-01	 1.656046e+00	-8.418917e+00
1	 7.580991e-01	 1.665182e+00	-7.960889e+00
1	 7.382794e-01	 1.674063e+00	-7.471909e+00
1	 7.183999e-01	 1.682690e+00	-6.973694e+00
1	 6.984654e-01	 1.691062e+00	-6.488186e+00
1	 8.007693e-01	 1.653322e+00	-8.150985e+00
1	 7.810036e-01	 1.662750e+00	-7.751064e+00
1	 7.611684e-01	 1.671923e+00	-7.301754e+00
1	 7.412684e-01	 1.680841e+00	-6.823599e+00
1	 7.213084e-01	 1.689503e+00	-6.337414e+00
1	 7.012932e-01	 1.697908e+00	-5.864231e+00
1	 8.039982e-01	 1.659989e+00	-7.507643e+00
1	 7.841528e-01	 1.669455e+00	-7.113876e+00
1	 7.642376e-01	 1.678665e+00	-6.673790e+00
1	 7.442574e-01	 1.687619e+00	-6.207006e+00
1	 7.242169e-01	 1.696315e+00	-5.733407e+00
1	 7.041210e-01	 1.704755e+00	-5.273093e+00
1	 8.072271e-01	 1.666655e+00	-6.894502e+00
1	 7.873020e-01	 1.676160e+00	-6.507378e+00
1	 7.673068e-01	 1.685407e+00	-6.077055e+00
1	 7.472463e-01	 1.694396e+00	-5.622210e+00
1	 7.271254e-01	 1.703128e+00	-5.161769e+00
1	 7.069488e-01	 1.711601e+00	-4.714870e+00
1	 6.928098e-01	 1.677369e+00	-7.834151e+00
1	 6.729867e-01	 1.685420e+00	-7.357246e+00
1	 6.531184e-01	 1.693219e+00	-6.924685e+00
1	 6.332095e-01	 1.700764e+00	-6.550077e+00
1	 6.132644e-01	 1.708057e+00	-6.246981e+00
1	 5.932879e-01	 1.715098e+00	-6.028881e+00
1	 6.956376e-01	 1.684216e+00	-7.144860e+00
1	 6.757336e-01	 1.692300e+00	-6.678060e+00
1	 6.557842e-01	 1.700130e+00	-6.253912e+00
1	 6.357940e-01	 1.707706e+00	-5.886490e+00
1	 6.157676e-01	 1.715029e+00	-5.589821e+00
1	 5.957095e-01	 1.722099e+00	-5.377867e+00
1	 6.984654e-01	 1.691062e+00	-6.488186e+00
1	 6.784805e-01	 1.699179e+00	-6.032075e+00
1	 6.584500e-01	 1.707041e+00	-5.616996e+00
1	 6.383785e-01	 1.714648e+00	-5.257435e+00
1	 6.182707e-01	 1.722001e+00	-4.967844e+00
1	 5.981311e-01	 1.729099e+00	-4.762609e+00
1	 7.012932e-01	 1.697908e+00	-5.864231e+00
1	 6.812274e-01	 1.706058e+00	-5.419390e+00
1	 6.611158e-01	 1.713952e+00	-5.014026e+00
1	 6.409631e-01	 1.721590e+00	-4.662994e+00
1	 6.207738e-01	 1.728972e+00	-4.381120e+00
1	 6.005526e-01	 1.736100e+00	-4.183167e+00
1	 7.041210e-01	 1.704755e+00	-5.273093e+00
1	 6.839743e-01	 1.712937e+00	-4.840099e+00
1	 6.637816e-01	 1.720863e+00	-4.445092e+00
1	 6.435476e-01	 1.728532e+00	-4.103248e+00
1	 6.232769e-01	 1.735944e+00	-3.829717e+00
1	 6.029742e-01	 1.743100e+00	-3.639598e+00
1	 7.069488e-01	 1.711601e+00	-4.714870e+00
1	 6.867212e-01	 1.719817e+00	-4.294296e+00
1	 6.664474e-01	 1.727774e+00	-3.910281e+00
1	 6.461321e-01	 1.735474e+00	-3.578274e+00
1	 6.257800e-01	 1.742916e+00	-3.313705e+00
1	 6.053958e-01	 1.750100e+00	-3.131960e+00
1	 5.932879e-01	 1.715098e+00	-6.028881e+00
1	 5.732844e-01	 1.721888e+00	-5.925429e+00
1	 5.532583e-01	 1.728426e+00	-5.963917e+00
1	 5.332143e-01	 1.734715e+00	-6.154110e+00
1	 5.131565e-01	 1.740754e+00	-6.505610e+00
1	 4.930895e-01	 1.746544e+00	-7.027836e+00
1	 5.957095e-01	 1.722099e+00	-5.377867e+00
1	 5.756243e-01	 1.728916e+00	-5.280416e+00
1	 5.555165e-01	 1.735481e+00	-5.323949e+00
1	 5.353906e-01	 1.741795e+00	-5.517278e+00
1	 5.152511e-01	 1.747859e+00	-5.869055e+00
1	 4.951021e-01	 1.753673e+00	-6.387754e+00
1	 5.981311e-01	 1.729099e+00	-4.762609e+00
1	 5.779642e-01	 1.735944e+00	-4.671548e+00
1	 5.577747e-01	 1.742536e+00	-4.720253e+00
1	 5.375670e-01	 1.748876e+00	-4.916594e+00
1	 5.173456e-01	 1.754964e+00	-5.268283e+00
1	 4.971148e-01	 1.760801e+00	-5.782857e+00
1	 6.005526e-01	 1.736100e+00	-4.183167e+00
1	 5.803042e-01	 1.742972e+00	-4.098871e+00
1	 5.600329e-01	 1.749591e+00	-4.152860e+00
1	 5.397434e-01	 1.755956e+00	-4.352073e+00
1	 5.194401e-01	 1.762069e+00	-4.703289e+00
1	 4.991274e-01	 1.767930e+00	-5.213117e+00
1	 6.029742e-01	 1.743100e+00	-3.639598e+00
1	 5.826441e-01	 1.750000e+00	-3.562428e+00
1	 5.622911e-01	 1.756646e+00	-3.621800e+00
1	 5.419198e-01	 1.763037e+00	-3.823728e+00
1	 5.215346e-01	 1.769174e+00	-4.174068e+00
1	 5.011400e-01	 1.775059e+00	-4.678507e+00
1	 6.053958e-01	 1.750100e+00	-3.131960e+00
1	 5.849840e-01	 1.757028e+00	-3.062266e+00
1	 5.645493e-01	 1.763700e+00	-3.127104e+00
1	 5.440962e-01	 1.770117e+00	-3.331572e+00
1	 5.236291e-01	 1.776279e+00	-3.680613e+00
1	 5.031526e-01	 1.782188e+00	-4.179001e+00
1	 4.930895e-01	 1.746544e+00	-7.027836e+00
1	 4.730176e-01	 1.752087e+00	-7.726311e+00
1	 4.529449e-01	 1.757383e+00	-8.605788e+00
1	 4.328757e-01	 1.762433e+00	-9.674200e+00
1	 4.128142e-01	 1.767240e+00	-1.093922e+01
1	 3.927645e-01	 1.771804e+00	-1.240825e+01
1	 4.951021e-01	 1.753673e+00	-6.387754e+00
1	 4.749482e-01	 1.759238e+00	-7.078007e+00
1	 4.547936e-01	 1.764556e+00	-7.944384e+00
1	 4.346426e-01	 1.769627e+00	-8.994946e+00
1	 4.144992e-01	 1.774453e+00	-1.023750e+01
1	 3.943676e-01	 1.779036e+00	-1.167958e+01
1	 4.971148e-01	 1.760801e+00	-5.782857e+00
1	 4.768789e-01	 1.766389e+00	-6.464088e+00
1	 4.566424e-01	 1.771729e+00	-7.316336e+00
1	 4.364094e-01	 1.776821e+00	-8.347702e+00
1	 4.161841e-01	 1.781666e+00	-9.566039e+00
1	 3.959707e-01	 1.786268e+00	-1.097895e+01
1	 4.991274e-01	 1.767930e+00	-5.213117e+00
1	 4.788096e-01	 1.773541e+00	-5.884506e+00
1	 4.584911e-01	 1.778902e+00	-6.721574e+00
1	 4.381762e-01	 1.784014e+00	-7.732380e+00
1	 4.178691e-01	 1.788880e+00	-8.924742e+00
1	 3.975739e-01	 1.793499e+00	-1.030623e+01
1	 5.011400e-01	 1.775059e+00	-4.678507e+00
1	 4.807403e-01	 1.780692e+00	-5.339210e+00
1	 4.603399e-01	 1.786075e+00	-6.160029e+00
1	 4.399431e-01	 1.791208e+00	-7.148896e+00
1	 4.195541e-01	 1.796093e+00	-8.313507e+00
1	 3.991770e-01	 1.800731e+00	-9.661321e+00
1	 5.031526e-01	 1.782188e+00	-4.179001e+00
1	 4.826710e-01	 1.787843e+00	-4.828153e+00
1	 4.621887e-01	 1.793248e+00	-5.631634e+00
1	 4.417099e-01	 1.798401e+00	-6.597163e+00
1	 4.212390e-01	 1.803306e+00	-7.732236e+00
1	 4.007801e-01	 1.807963e+00	-9.044123e+00
1	 3.927645e-01	 1.771804e+00	-1.240825e+01
1	 3.727306e-01	 1.776126e+00	-1.410056e+01
1	 3.527165e-01	 1.780209e+00	-1.599937e+01
1	 3.327262e-01	 1.784053e+00	-1.805796e+01
1	 3.127634e-01	 1.787661e+00	-2.022984e+01
1	 2.928321e-01	 1.791034e+00	-2.246880e+01
1	 3.943676e-01	 1.779036e+00	-1.167958e+01
1	 3.742520e-01	 1.783376e+00	-1.333945e+01
1	 3.541562e-01	 1.787475e+00	-1.519999e+01
1	 3.340842e-01	 1.791335e+00	-1.721565e+01
1	 3.140400e-01	 1.794958e+00	-1.934107e+01
1	 2.940273e-01	 1.798344e+00	-2.153118e+01
1	 3.959707e-01	 1.786268e+00	-1.097895e+01
1	 3.757733e-01	 1.790625e+00	-1.260359e+01
1	 3.555958e-01	 1.794741e+00	-1.442250e+01
1	 3.354423e-01	 1.798617e+00	-1.639119e+01
1	 3.153166e-01	 1.802254e+00	-1.846538e+01
1	 2.952225e-01	 1.805655e+00	-2.060109e+01
1	 3.975739e-01	 1.793499e+00	-1.030623e+01
1	 3.772947e-01	 1.797875e+00	-1.189287e+01
1	 3.570355e-01	 1.802007e+00	-1.366676e+01
1	 3.368004e-01	 1.805899e+00	-1.558442e+01
1	 3.165932e-01	 1.809551e+00	-1.760258e+01
1	 2.964178e-01	 1.812965e+00	-1.967826e+01
1	 3.991770e-01	 1.800731e+00	-9.661321e+00
1	 3.788160e-01	 1.805124e+00	-1.120717e+01
1	 3.584752e-01	 1.809274e+00	-1.293263e+01
1	 3.381584e-01	 1.813181e+00	-1.479517e+01
1	 3.178698e-01	 1.816847e+00	-1.675247e+01
1	 2.976130e-01	 1.820275e+00	-1.876246e+01
1	 4.007801e-01	 1.807963e+00	-9.044123e+00
1	 3.803374e-01	 1.812374e+00	-1.054637e+01
1	 3.599148e-01	 1.816540e+00	-1.221998e+01
1	 3.395165e-01	 1.820463e+00	-1.402329e+01
1	 3.191463e-01	 1.824144e+00	-1.591485e+01
1	 2.988082e-01	 1.827586e+00	-1.785346e+01
1	 2.928321e-01	 1.791034e+00	-2.246880e+01
1	 2.729358e-01	 1.794174e+00	-2.472758e+01
1	 2.530784e-01	 1.797082e+00	-2.696871e+01
1	 2.332633e-01	 1.799761e+00	-2.916115e+01
1	 2.134942e-01	 1.802213e+00	-3.127425e+01
1	 1.937744e-01	 1.804440e+00	-3.327782e+01
1	 2.940273e-01	 1.798344e+00	-2.153118e+01
1	 2.740499e-01	 1.801497e+00	-2.373991e+01
1	 2.541114e-01	 1.804417e+00	-2.593040e+01
1	 2.342154e-01	 1.807107e+00	-2.807204e+01
1	 2.143656e-01	 1.809569e+00	-3.013458e+01
1	 1.945654e-01	 1.811805e+00	-3.208822e+01
1	 2.952225e-01	 1.805655e+00	-2.060109e+01
1	 2.751639e-01	 1.808820e+00	-2.275335e+01
1	 2.551443e-01	 1.811752e+00	-2.488627e+01
1	 2.351675e-01	 1.814453e+00	-2.696994e+01
1	 2.152370e-01	 1.816925e+00	-2.897484e+01
1	 1.953563e-01	 1.819170e+00	-3.087187e+01
1	 2.964178e-01	 1.812965e+00	-1.967826e+01
1	 2.762779e-01	 1.816143e+00	-2.176765e+01
1	 2.561773e-01	 1.819087e+00	-2.383604e+01
1	 2.361196e-01	 1.821799e+00	-2.585457e+01
1	 2.161084e-01	 1.824281e+00	-2.779476e+01
1	 1.961472e-01	 1.826535e+00	-2.962853e+01
1	 2.976130e-01	 1.820275e+00	-1.876246e+01
1	 2.773919e-01	 1.823466e+00	-2.078253e+01
1	 2.572103e-01	 1.826422e+00	-2.277942e+01
1	 2.370717e-01	 1.829145e+00	-2.472565e+01
1	 2.169798e-01	 1.831637e+00	-2.659408e+01
1	 1.969381e-01	 1.833900e+00	-2.835797e+01
1	 2.988082e-01	 1.827586e+00	-1.785346e+01
1	 2.785059e-01	 1.830789e+00	-1.979772e+01
1	 2.582433e-01	 1.833757e+00	-2.171614e+01
1	 2.380238e-01	 1.836491e+00	-2.358291e+01
1	 2.178512e-01	 1.838993e+00	-2.537255e+01
1	 1.977290e-01	 1.841265e+00	-2.705996e+01
1	 1.937744e-01	 1.804440e+00	-3.327782e+01
1	 1.741074e-01	 1.806444e+00	-3.513886e+01
1	 1.544965e-01	 1.808227e+00	-3.682647e+01
1	 1.349448e-01	 1.809791e+00	-3.831434e+01
1	 1.154557e-01	 1.811139e+00	-3.957676e+01
1	 9.603204e-02	 1.812272e+00	-4.058865e+01
1	 1.945654e-01	 1.811805e+00	-3.208822e+01
1	 1.748181e-01	 1.813817e+00	-3.390068e+01
1	 1.551271e-01	 1.815607e+00	-3.554259e+01
1	 1.354956e-01	 1.817178e+00	-3.698928e+01
1	 1.159269e-01	 1.818531e+00	-3.821662e+01
1	 9.642400e-02	 1.819669e+00	-3.920108e+01
1	 1.953563e-01	 1.819170e+00	-3.087187e+01
1	 1.755287e-01	 1.821190e+00	-3.262974e+01
1	 1.557577e-01	 1.822988e+00	-3.422069e+01
1	 1.360464e-01	 1.824565e+00	-3.562168e+01
1	 1.163982e-01	 1.825923e+00	-3.681019e+01
1	 9.681597e-02	 1.827066e+00	-3.776426e+01
1	 1.961472e-01	 1.826535e+00	-2.962853e+01
1	 1.762394e-01	 1.828564e+00	-3.132584e+01
1	 1.563883e-01	 1.830368e+00	-3.286060e+01
1	 1.365972e-01	 1.831951e+00	-3.421141e+01
1	 1.168694e-01	 1.833316e+00	-3.535736e+01
1	 9.720794e-02	 1.834463e+00	-3.627808e+01
1	 1.969381e-01	 1.833900e+00	-2.835797e+01
1	 1.769500e-01	 1.835937e+00	-2.998877e+01
1	 1.570189e-01	 1.837749e+00	-3.146213e+01
1	 1.371480e-01	 1.839338e+00	-3.275829e+01
1	 1.173407e-01	 1.840708e+00	-3.385798e+01
1	 9.759991e-02	 1.841860e+00	-3.474244e+01
1	 1.977290e-01	 1.841265e+00	-2.705996e+01
1	 1.776606e-01	 1.843310e+00	-2.861833e+01
1	 1.576495e-01	 1.845129e+00	-3.002510e+01
1	 1.376988e-01	 1.846725e+00	-3.126218e+01
1	 1.178119e-01	 1.848101e+00	-3.231196e+01
1	 9.799187e-02	 1.849257e+00	-3.315725e+01
1	 9.603204e-02	 1.812272e+00	-4.058865e+01
1	 7.667698e-02	 1.813194e+00	-4.132419e+01
1	 5.739342e-02	 1.813907e+00	-4.175579e+01
1	 3.818423e-02	 1.814413e+00	-4.185679e+01
1	 1.905219e-02	 1.814715e+00	-4.160127e+01
1	 0.000000e+00	 1.814815e+00	-4.096417e+01
1	 9.642400e-02	 1.819669e+00	-3.920108e+01
1	 7.698994e-02	 1.820595e+00	-3.991817e+01
1	 5.762768e-02	 1.821311e+00	-4.034103e+01
1	 3.834008e-02	 1.821819e+00	-4.044365e+01
1	 1.912995e-02	 1.822122e+00	-4.020080e+01
1	 0.000000e+00	 1.822222e+00	-3.958803e+01
1	 9.681597e-02	 1.827066e+00	-3.776426e+01
1	 7.730291e-02	 1.827996e+00	-3.846072e+01
1	 5.786194e-02	 1.828714e+00	-3.887345e+01
1	 3.849594e-02	 1.829225e+00	-3.897712e+01
1	 1.920772e-02	 1.829529e+00	-3.874710e+01
1	 0.000000e+00	 1.829630e+00	-3.815957e+01
1	 9.720794e-02	 1.834463e+00	-3.627808e+01
1	 7.761588e-02	 1.835397e+00	-3.695175e+01
1	 5.809620e-02	 1.836118e+00	-3.735299e+01
1	 3.865179e-02	 1.836630e+00	-3.745709e+01
1	 1.928548e-02	 1.836936e+00	-3.724005e+01
1	 0.000000e+00	 1.837037e+00	-3.667861e+01
1	 9.759991e-02	 1.841860e+00	-3.474244e+01
1	 7.792885e-02	 1.842797e+00	-3.539118e+01
1	 5.833046e-02	 1.843522e+00	-3.577956e+01
1	 3.880765e-02	 1.844036e+00	-3.588347e+01
1	 1.936324e-02	 1.844343e+00	-3.567950e+01
1	 0.000000e+00	 1.844444e+00	-3.514496e+01
1	 9.799187e-02	 1.849257e+00	-3.315725e+01
1	 7.824181e-02	 1.850198e+00	-3.377894e+01
1	 5.856472e-02	 1.850926e+00	-3.415309e+01
1	 3.896350e-02	 1.851442e+00	-3.425617e+01
1	 1.944101e-02	 1.851750e+00	-3.406534e+01
1	 0.000000e+00	 1.851852e+00	-3.355846e+01
1	 1.851852e+00	 0.000000e+00	 6.950300e+00
1	 1.851750e+00	 1.944101e-02	 6.923271e+00
1	 1.851442e+00	 3.896350e-02	 6.844912e+00
1	 1.850926e+00	 5.856472e-02	 6.719937e+00
1	 1.850198e+00	 7.824181e-02	 6.553123e+00
1	 1.849257e+00	 9.799187e-02	 6.349304e+00
1	 1.859259e+00	 0.000000e+00	 6.587706e+00
1	 1.859157e+00	 1.951877e-02	 6.564643e+00
1	 1.858848e+00	 3.911935e-02	 6.492413e+00
1	 1.858329e+00	 5.879898e-02	 6.375616e+00
1	 1.857599e+00	 7.855478e-02	 6.218910e+00
1	 1.856654e+00	 9.838384e-02	 6.027009e+00
1	 1.866667e+00	 0.000000e+00	 6.235515e+00
1	 1.866564e+00	 1.959654e-02	 6.216156e+00
1	 1.866253e+00	 3.927521e-02	 6.149714e+00
1	 1.865733e+00	 5.903323e-02	 6.040673e+00
1	 1.865000e+00	 7.886775e-02	 5.893571e+00
1	 1.864051e+00	 9.877581e-02	 5.712992e+00
1	 1.874074e+00	 0.000000e+00	 5.893568e+00
1	 1.873971e+00	 1.967430e-02	 5.877673e+00
1	 1.873659e+00	 3.943106e-02	 5.816700e+00
1	 1.873137e+00	 5.926749e-02	 5.715012e+00
1	 1.872401e+00	 7.918072e-02	 5.577023e+00
1	 1.871448e+00	 9.916778e-02	 5.407185e+00
1	 1.881481e+00	 0.000000e+00	 5.561709e+00
1	 1.881378e+00	 1.975206e-02	 5.549062e+00
1	 1.881065e+00	 3.958692e-02	 5.493259e+00
1	 1.880540e+00	 5.950175e-02	 5.398539e+00
1	 1.879801e+00	 7.949368e-02	 5.269186e+00
1	 1.878846e+00	 9.955974e-02	 5.109519e+00
1	 1.888889e+00	 0.000000e+00	 5.239783e+00
1	 1.888785e+00	 1.982983e-02	 5.230192e+00
1	 1.888471e+00	 3.974277e-02	 5.179280e+00
1	 1.887944e+00	 5.973601e-02	 5.091159e+00
1	 1.887202e+00	 7.980665e-02	 4.969982e+00
1	 1.886243e+00	 9.995171e-02	 4.819927e+00
1	 1.849257e+00	 9.799187e-02	 6.349304e+00
1	 1.848101e+00	 1.178119e-01	 6.111106e+00
1	 1.846725e+00	 1.376988e-01	 5.840152e+00
1	 1.845129e+00	 1.576495e-01	 5.539844e+00
1	 1.843310e+00	 1.776606e-01	 5.213620e+00
1	 1.841265e+00	 1.977290e-01	 4.864945e+00
1	 1.856654e+00	 9.838384e-02	 6.027009e+00
1	 1.855493e+00	 1.182831e-01	 5.802507e+00
1	 1.854112e+00	 1.382496e-01	 5.546884e+00
1	 1.852510e+00	 1.582801e-01	 5.263240e+00
1	 1.850683e+00	 1.783713e-01	 4.954706e+00
1	 1.848631e+00	 1.985199e-01	 4.624440e+00
1	 1.864051e+00	 9.877581e-02	 5.712992e+00
1	 1.862885e+00	 1.187544e-01	 5.501519e+00
1	 1.861499e+00	 1.388004e-01	 5.260519e+00
1	 1.859890e+00	 1.589107e-01	 4.992814e+00
1	 1.858057e+00	 1.790819e-01	 4.701256e+00
1	 1.855996e+00	 1.993109e-01	 4.388720e+00
1	 1.871448e+00	 9.916778e-02	 5.407185e+00
1	 1.870278e+00	 1.192256e-01	 5.208082e+00
1	 1.868886e+00	 1.393512e-01	 4.981004e+00
1	 1.867271e+00	 1.595413e-01	 4.728522e+00
1	 1.865430e+00	 1.797926e-01	 4.453233e+00
1	 1.863361e+00	 2.001018e-01	 4.157753e+00
1	 1.878846e+00	 9.955974e-02	 5.109519e+00
1	 1.877670e+00	 1.196969e-01	 4.922137e+00
1	 1.876273e+00	 1.399020e-01	 4.708291e+00
1	 1.874651e+00	 1.601719e-01	 4.470324e+00
1	 1.872803e+00	 1.805032e-01	 4.210601e+00
1	 1.870726e+00	 2.008927e-01	 3.931509e+00
1	 1.886243e+00	 9.995171e-02	 4.819927e+00
1	 1.885063e+00	 1.201681e-01	 4.643628e+00
1	 1.883660e+00	 1.404528e-01	 4.442332e+00
1	 1.882032e+00	 1.608025e-01	 4.218177e+00
1	 1.880176e+00	 1.812139e-01	 3.973325e+00
1	 1.878091e+00	 2.016836e-01	 3.709953e+00
1	 1.841265e+00	 1.977290e-01	 4.864945e+00
1	 1.838993e+00	 2.178512e-01	 4.498503e+00
1	 1.836491e+00	 2.380238e-01	 4.119785e+00
1	 1.833757e+00	 2.582433e-01	 3.733516e+00
1	 1.830789e+00	 2.785059e-01	 3.344432e+00
1	 1.827586e+00	 2.988082e-01	 2.957282e+00
1	 1.848631e+00	 1.985199e-01	 4.624440e+00
1	 1.846349e+00	 2.187226e-01	 4.276826e+00
1	 1.843837e+00	 2.389759e-01	 3.917078e+00
1	 1.841092e+00	 2.592762e-01	 3.549633e+00
1	 1.838113e+00	 2.796200e-01	 3.178952e+00
1	 1.834896e+00	 3.000035e-01	 2.809509e+00
1	 1.855996e+00	 1.993109e-01	 4.388720e+00
1	 1.853705e+00	 2.195940e-01	 4.059339e+00
1	 1.851183e+00	 2.399280e-01	 3.718096e+00
1	 1.848427e+00	 2.603092e-01	 3.369181e+00
1	 1.845436e+00	 2.807340e-01	 3.016807e+00
1	 1.842206e+00	 3.011987e-01	 2.665209e+00
1	 1.863361e+00	 2.001018e-01	 4.157753e+00
1	 1.861061e+00	 2.204654e-01	 3.846001e+00
1	 1.858529e+00	 2.408801e-01	 3.522773e+00
1	 1.855762e+00	 2.613422e-01	 3.192044e+00
1	 1.852759e+00	 2.818480e-01	 2.857816e+00
1	 1.849517e+00	 3.023939e-01	 2.524111e+00
1	 1.870726e+00	 2.008927e-01	 3.931509e+00
1	 1.868417e+00	 2.213369e-01	 3.636775e+00
1	 1.865875e+00	 2.418322e-01	 3.331044e+00
1	 1.863097e+00	 2.623751e-01	 3.018112e+00
1	 1.860082e+00	 2.829620e-01	 2.701800e+00
1	 1.856827e+00	 3.035892e-01	 2.385948e+00
1	 1.878091e+00	 2.016836e-01	 3.709953e+00
1	 1.875773e+00	 2.222083e-01	 3.431621e+00
1	 1.873221e+00	 2.427843e-01	 3.142845e+00
1	 1.870432e+00	 2.634081e-01	 2.847274e+00
1	 1.867405e+00	 2.840761e-01	 2.548582e+00
1	 1.864137e+00	 3.047844e-01	 2.250457e+00
1	 1.827586e+00	 2.988082e-01	 2.957282e+00
1	 1.824144e+00	 3.191463e-01	 2.577920e+00
1	 1.820463e+00	 3.395165e-01	 2.213780e+00
1	 1.816540e+00	 3.599148e-01	 1.871963e+00
1	 1.812374e+00	 3.803374e-01	 1.559523e+00
1	 1.807963e+00	 4.007801e-01	 1.283457e+00
1	 1.834896e+00	 3.000035e-01	 2.809509e+00
1	 1.831440e+00	 3.204229e-01	 2.446719e+00
1	 1.827744e+00	 3.408746e-01	 2.097642e+00
1	 1.823806e+00	 3.613545e-01	 1.769198e+00
1	 1.819623e+00	 3.818587e-01	 1.468263e+00
1	 1.815195e+00	 4.023832e-01	 1.201652e+00
1	 1.842206e+00	 3.011987e-01	 2.665209e+00
1	 1.838737e+00	 3.216995e-01	 2.319347e+00
1	 1.835026e+00	 3.422326e-01	 1.985817e+00
1	 1.831072e+00	 3.627941e-01	 1.671283e+00
1	 1.826873e+00	 3.833801e-01	 1.382370e+00
1	 1.822427e+00	 4.039864e-01	 1.125644e+00
1	 1.849517e+00	 3.023939e-01	 2.524111e+00
1	 1.846034e+00	 3.229761e-01	 2.195452e+00
1	 1.842308e+00	 3.435907e-01	 1.877911e+00
1	 1.838338e+00	 3.642338e-01	 1.577826e+00
1	 1.834122e+00	 3.849014e-01	 1.301496e+00
1	 1.829659e+00	 4.055895e-01	 1.055171e+00
1	 1.856827e+00	 3.035892e-01	 2.385948e+00
1	 1.853330e+00	 3.242527e-01	 2.074686e+00
1	 1.849590e+00	 3.449488e-01	 1.773540e+00
1	 1.845604e+00	 3.656735e-01	 1.488441e+00
1	 1.841372e+00	 3.864228e-01	 1.225297e+00
1	 1.836891e+00	 4.071926e-01	 9.899772e-01
1	 1.864137e+00	 3.047844e-01	 2.250457e+00
1	 1.860627e+00	 3.255293e-01	 1.956710e+00
1	 1.856872e+00	 3.463068e-01	 1.672322e+00
1	 1.852871e+00	 3.671131e-01	 1.402749e+00
1	 1.848621e+00	 3.879441e-01	 1.153436e+00
1	 1.844122e+00	 4.087957e-01	 9.298079e-01
1	 1.807963e+00	 4.007801e-01	 1.283457e+00
1	 1.803306e+00	 4.212390e-01	 1.044583e+00
1	 1.798401e+00	 4.417099e-01	 8.378420e-01
1	 1.793248e+00	 4.621887e-01	 6.612835e-01
1	 1.787843e+00	 4.826710e-01	 5.128576e-01
1	 1.782188e+00	 5.031526e-01	 3.904159e-01
1	 1.815195e+00	 4.023832e-01	 1.201652e+00
1	 1.810519e+00	 4.229240e-01	 9.704212e-01
1	 1.805595e+00	 4.434768e-01	 7.699381e-01
1	 1.800421e+00	 4.640374e-01	 5.983530e-01
1	 1.794995e+00	 4.846017e-01	 4.537217e-01
1	 1.789316e+00	 5.051652e-01	 3.340072e-01
1	 1.822427e+00	 4.039864e-01	 1.125644e+00
1	 1.817733e+00	 4.246089e-01	 9.023475e-01
1	 1.812789e+00	 4.452436e-01	 7.082896e-01
1	 1.807594e+00	 4.658862e-01	 5.417575e-01
1	 1.802146e+00	 4.865323e-01	 4.009465e-01
1	 1.796445e+00	 5.071778e-01	 2.839610e-01
1	 1.829659e+00	 4.055895e-01	 1.055171e+00
1	 1.824946e+00	 4.262939e-01	 8.401951e-01
1	 1.819982e+00	 4.470104e-01	 6.527949e-01
1	 1.814767e+00	 4.677349e-01	 4.914319e-01
1	 1.809298e+00	 4.884630e-01	 3.544739e-01
1	 1.803574e+00	 5.091904e-01	 2.401960e-01
1	 1.836891e+00	 4.071926e-01	 9.899772e-01
1	 1.832159e+00	 4.279788e-01	 7.837992e-01
1	 1.827176e+00	 4.487773e-01	 6.033541e-01
1	 1.821940e+00	 4.695837e-01	 4.473125e-01
1	 1.816449e+00	 4.903937e-01	 3.142468e-01
1	 1.810703e+00	 5.112030e-01	 2.026323e-01
1	 1.844122e+00	 4.087957e-01	 9.298079e-01
1	 1.839372e+00	 4.296638e-01	 7.329979e-01
1	 1.834369e+00	 4.505441e-01	 5.598690e-01
1	 1.829113e+00	 4.714324e-01	 4.093363e-01
1	 1.823600e+00	 4.923244e-01	 2.802091e-01
1	 1.817831e+00	 5.132156e-01	 1.711911e-01
1	 1.782188e+00	 5.031526e-01	 3.904159e-01
1	 1.776279e+00	 5.236291e-01	 2.941495e-01
1	 1.770117e+00	 5.440962e-01	 2.245602e-01
1	 1.763700e+00	 5.645493e-01	 1.798302e-01
1	 1.757028e+00	 5.849840e-01	 1.580596e-01
1	 1.750100e+00	 6.053958e-01	 1.572683e-01
1	 1.789316e+00	 5.051652e-01	 3.340072e-01
1	 1.783384e+00	 5.257236e-01	 2.395279e-01
1	 1.777198e+00	 5.462726e-01	 1.709537e-01
1	 1.770755e+00	 5.668075e-01	 1.266438e-01
1	 1.764057e+00	 5.873240e-01	 1.048738e-01
1	 1.757101e+00	 6.078174e-01	 1.038374e-01
1	 1.796445e+00	 5.071778e-01	 2.839610e-01
1	 1.790489e+00	 5.278182e-01	 1.912529e-01
1	 1.784278e+00	 5.484490e-01	 1.236446e-01
1	 1.777810e+00	 5.690657e-01	 7.966591e-02
1	 1.771085e+00	 5.896639e-01	 5.776323e-02
1	 1.764101e+00	 6.102390e-01	 5.630056e-02
1	 1.803574e+00	 5.091904e-01	 2.401960e-01
1	 1.797595e+00	 5.299127e-01	 1.492100e-01
1	 1.791359e+00	 5.506253e-01	 8.249440e-02
1	 1.784865e+00	 5.713239e-01	 3.874411e-02
1	 1.778113e+00	 5.920039e-01	 1.657150e-02
1	 1.771102e+00	 6.126606e-01	 1.450751e-02
1	 1.810703e+00	 5.112030e-01	 2.026323e-01
1	 1.804700e+00	 5.320072e-01	 1.132861e-01
1	 1.798439e+00	 5.528017e-01	 4.736684e-02
1	 1.791920e+00	 5.735821e-01	 3.728404e-03
1	 1.785141e+00	 5.943438e-01	-1.885532e-02
1	 1.778102e+00	 6.150821e-01	-2.168977e-02
1	 1.817831e+00	 5.132156e-01	 1.711911e-01
1	 1.811805e+00	 5.341017e-01	 8.337013e-02
1	 1.805519e+00	 5.549781e-01	 1.812773e-02
1	 1.798974e+00	 5.758403e-01	-2.552883e-02
1	 1.792169e+00	 5.966837e-01	-4.866872e-02
1	 1.785102e+00	 6.175037e-01	-5.243697e-02
1	 1.750100e+00	 6.053958e-01	 1.572683e-01
1	 1.742916e+00	 6.257800e-01	 1.719794e-01
1	 1.735474e+00	 6.461321e-01	 1.959076e-01
1	 1.727774e+00	 6.664474e-01	 2.258085e-01
1	 1.719817e+00	 6.867212e-01	 2.584522e-01
1	 1.711601e+00	 7.069488e-01	 2.906295e-01
1	 1.757101e+00	 6.078174e-01	 1.038374e-01
1	 1.749887e+00	 6.282832e-01	 1.185002e-01
1	 1.742415e+00	 6.487166e-01	 1.428461e-01
1	 1.734685e+00	 6.691132e-01	 1.735383e-01
1	 1.726696e+00	 6.894681e-01	 2.072491e-01
1	 1.718448e+00	 7.097765e-01	 2.406662e-01
1	 1.764101e+00	 6.102390e-01	 5.630056e-02
1	 1.756859e+00	 6.307863e-01	 7.068222e-02
1	 1.749357e+00	 6.513012e-01	 9.516523e-02
1	 1.741596e+00	 6.717790e-01	 1.263308e-01
1	 1.733575e+00	 6.922149e-01	 1.607638e-01
1	 1.725294e+00	 7.126043e-01	 1.950597e-01
1	 1.771102e+00	 6.126606e-01	 1.450751e-02
1	 1.763831e+00	 6.332894e-01	 2.838695e-02
1	 1.756299e+00	 6.538857e-01	 5.274016e-02
1	 1.748507e+00	 6.744448e-01	 8.407629e-02
1	 1.740454e+00	 6.949618e-01	 1.189034e-01
1	 1.732140e+00	 7.154321e-01	 1.537353e-01
1	 1.778102e+00	 6.150821e-01	-2.168977e-02
1	 1.770802e+00	 6.357925e-01	-8.521830e-03
1	 1.763241e+00	 6.564702e-01	 1.544806e-02
1	 1.755418e+00	 6.771105e-01	 4.666704e-02
1	 1.747334e+00	 6.977087e-01	 8.157662e-02
1	 1.738987e+00	 7.182599e-01	 1.166195e-01
1	 1.785102e+00	 6.175037e-01	-5.243697e-02
1	 1.777774e+00	 6.382956e-01	-4.017826e-02
1	 1.770183e+00	 6.590548e-01	-1.683198e-02
1	 1.762330e+00	 6.797763e-01	 1.399687e-02
1	 1.754213e+00	 7.004556e-01	 4.869347e-02
1	 1.745833e+00	 7.210877e-01	 8.364001e-02
1	 1.711601e+00	 7.069488e-01	 2.906295e-01
1	 1.703128e+00	 7.271254e-01	 3.153851e-01
1	 1.694396e+00	 7.472463e-01	 3.263072e-01
1	 1.685407e+00	 7.673068e-01	 3.211727e-01
1	 1.676160e+00	 7.873020e-01	 2.979667e-01
1	 1.666655e+00	 8.072271e-01	 2.548894e-01
1	 1.718448e+00	 7.097765e-01	 2.406662e-01
1	 1.709940e+00	 7.300339e-01	 2.672960e-01
1	 1.701174e+00	 7.502353e-01	 2.813415e-01
1	 1.692148e+00	 7.703760e-01	 2.806969e-01
1	 1.682864e+00	 7.904512e-01	 2.634590e-01
1	 1.673322e+00	 8.104560e-01	 2.279334e-01
1	 1.725294e+00	 7.126043e-01	 1.950597e-01
1	 1.716753e+00	 7.329424e-01	 2.231841e-01
1	 1.707951e+00	 7.532243e-01	 2.399432e-01
1	 1.698890e+00	 7.734453e-01	 2.433465e-01
1	 1.689569e+00	 7.936004e-01	 2.315980e-01
1	 1.679988e+00	 8.136849e-01	 2.031032e-01
1	 1.732140e+00	 7.154321e-01	 1.537353e-01
1	 1.723565e+00	 7.358509e-01	 1.829883e-01
1	 1.714729e+00	 7.562133e-01	 2.020554e-01
1	 1.705632e+00	 7.765145e-01	 2.090584e-01
1	 1.696273e+00	 7.967496e-01	 2.023047e-01
1	 1.686655e+00	 8.169139e-01	 1.802941e-01
1	 1.738987e+00	 7.182599e-01	 1.166195e-01
1	 1.730378e+00	 7.387594e-01	 1.466489e-01
1	 1.721506e+00	 7.592023e-01	 1.676221e-01
1	 1.712373e+00	 7.795837e-01	 1.777706e-01
1	 1.702978e+00	 7.998988e-01	 1.755015e-01
1	 1.693322e+00	 8.201428e-01	 1.594030e-01
1	 1.745833e+00	 7.210877e-01	 8.364001e-02
1	 1.737190e+00	 7.416679e-01	 1.141069e-01
1	 1.728284e+00	 7.621913e-01	 1.365880e-01
1	 1.719115e+00	 7.826530e-01	 1.494222e-01
1	 1.709683e+00	 8.030481e-01	 1.511118e-01
1	 1.699988e+00	 8.233717e-01	 1.403284e-01
1	 1.666655e+00	 8.072271e-01	 2.548894e-01
1	 1.656894e+00	 8.270773e-01	 1.881407e-01
1	 1.646877e+00	 8.468478e-01	 9.611681e-02
1	 1.636605e+00	 8.665338e-01	-1.942341e-02
1	 1.626078e+00	 8.861304e-01	-1.565922e-01
1	 1.615297e+00	 9.056327e-01	-3.133744e-01
1	 1.673322e+00	 8.104560e-01	 2.279334e-01
1	 1.663522e+00	 8.303857e-01	 1.699680e-01
1	 1.653465e+00	 8.502352e-01	 8.752231e-02
1	 1.643151e+00	 8.699999e-01	-1.767553e-02
1	 1.632582e+00	 8.896749e-01	-1.437732e-01
1	 1.621758e+00	 9.092553e-01	-2.887962e-01
1	 1.679988e+00	 8.136849e-01	 2.031032e-01
1	 1.670149e+00	 8.336940e-01	 1.533681e-01
1	 1.660052e+00	 8.536226e-01	 7.992865e-02
1	 1.649697e+00	 8.734661e-01	-1.551840e-02
1	 1.639086e+00	 8.932194e-01	-1.311549e-01
1	 1.628219e+00	 9.128778e-01	-2.650437e-01
1	 1.686655e+00	 8.169139e-01	 1.802941e-01
1	 1.676777e+00	 8.370023e-01	 1.382122e-01
1	 1.666640e+00	 8.570100e-01	 7.319586e-02
1	 1.656244e+00	 8.769322e-01	-1.308990e-02
1	 1.645591e+00	 8.967639e-01	-1.188599e-01
1	 1.634681e+00	 9.165003e-01	-2.422110e-01
1	 1.693322e+00	 8.201428e-01	 1.594030e-01
1	 1.683404e+00	 8.403106e-01	 1.243733e-01
1	 1.673227e+00	 8.603974e-01	 6.718618e-02
1	 1.662790e+00	 8.803983e-01	-1.052573e-02
1	 1.652095e+00	 9.003084e-01	-1.070089e-01
1	 1.641142e+00	 9.201229e-01	-2.203909e-01
1	 1.699988e+00	 8.233717e-01	 1.403284e-01
1	 1.690032e+00	 8.436189e-01	 1.117265e-01
1	 1.679815e+00	 8.637848e-01	 6.176397e-02
1	 1.669337e+00	 8.838645e-01	-7.959456e-03
1	 1.658599e+00	 9.038530e-01	-9.572055e-02
1	 1.647603e+00	 9.237454e-01	-1.996746e-01
1	 1.615297e+00	 9.056327e-01	-3.133744e-01
1	 1.604264e+00	 9.250361e-01	-4.934532e-01
1	 1.592980e+00	 9.443357e-01	-6.999362e-01
1	 1.581446e+00	 9.635266e-01	-9.296660e-01
1	 1.569664e+00	 9.826043e-01	-1.179240e+00
1	 1.557635e+00	 1.001564e+00	-1.445016e+00
1	 1.621758e+00	 9.092553e-01	-2.887962e-01
1	 1.610681e+00	 9.287362e-01	-4.560660e-01
1	 1.599352e+00	 9.481130e-01	-6.483823e-01
1	 1.587772e+00	 9.673807e-01	-8.627100e-01
1	 1.575942e+00	 9.865347e-01	-1.095767e+00
1	 1.563865e+00	 1.005570e+00	-1.344027e+00
1	 1.628219e+00	 9.128778e-01	-2.650437e-01
1	 1.617098e+00	 9.324364e-01	-4.201246e-01
1	 1.605724e+00	 9.518904e-01	-5.988780e-01
1	 1.594098e+00	 9.712349e-01	-7.984023e-01
1	 1.582221e+00	 9.904651e-01	-1.015549e+00
1	 1.570096e+00	 1.009576e+00	-1.246927e+00
1	 1.634681e+00	 9.165003e-01	-2.422110e-01
1	 1.623515e+00	 9.361365e-01	-3.856970e-01
1	 1.612096e+00	 9.556677e-01	-5.514835e-01
1	 1.600423e+00	 9.750890e-01	-7.368129e-01
1	 1.588500e+00	 9.943955e-01	-9.386844e-01
1	 1.576326e+00	 1.013583e+00	-1.153856e+00
1	 1.641142e+00	 9.201229e-01	-2.203909e-01
1	 1.629932e+00	 9.398367e-01	-3.528504e-01
1	 1.618468e+00	 9.594450e-01	-5.062578e-01
1	 1.606749e+00	 9.789431e-01	-6.780105e-01
1	 1.594778e+00	 9.983259e-01	-8.652680e-01
1	 1.582557e+00	 1.017589e+00	-1.064954e+00
1	 1.647603e+00	 9.237454e-01	-1.996746e-01
1	 1.636349e+00	 9.435368e-01	-3.216508e-01
1	 1.624840e+00	 9.632224e-01	-4.632591e-01
1	 1.613075e+00	 9.827972e-01	-6.220626e-01
1	 1.601057e+00	 1.002256e+00	-7.953943e-01
1	 1.588787e+00	 1.021595e+00	-9.803602e-01
1	 1.557635e+00	 1.001564e+00	-1.445016e+00
1	 1.545360e+00	 1.020400e+00	-1.707758e+00
1	 1.532843e+00	 1.039110e+00	-1.950242e+00
1	 1.520084e+00	 1.057687e+00	-2.171684e+00
1	 1.507085e+00	 1.076127e+00	-2.371340e+00
1	 1.493850e+00	 1.094426e+00	-2.548503e+00
1	 1.563865e+00	 1.005570e+00	-1.344027e+00
1	 1.551542e+00	 1.024482e+00	-1.589111e+00
1	 1.538974e+00	 1.043266e+00	-1.814407e+00
1	 1.526164e+00	 1.061917e+00	-2.018894e+00
1	 1.513114e+00	 1.080432e+00	-2.201585e+00
1	 1.499825e+00	 1.098804e+00	-2.361532e+00
1	 1.570096e+00	 1.009576e+00	-1.246927e+00
1	 1.557723e+00	 1.028564e+00	-1.475032e+00
1	 1.545105e+00	 1.047423e+00	-1.683905e+00
1	 1.532244e+00	 1.066148e+00	-1.872315e+00
1	 1.519142e+00	 1.084736e+00	-2.039065e+00
1	 1.505801e+00	 1.103181e+00	-2.182994e+00
1	 1.576326e+00	 1.013583e+00	-1.153856e+00
1	 1.563905e+00	 1.032645e+00	-1.365713e+00
1	 1.551237e+00	 1.051579e+00	-1.558967e+00
1	 1.538325e+00	 1.070379e+00	-1.732209e+00
1	 1.525170e+00	 1.089041e+00	-1.884062e+00
1	 1.511776e+00	 1.107559e+00	-2.013180e+00
1	 1.582557e+00	 1.017589e+00	-1.064954e+00
1	 1.570086e+00	 1.036727e+00	-1.261342e+00
1	 1.557368e+00	 1.055735e+00	-1.439821e+00
1	 1.544405e+00	 1.074610e+00	-1.598834e+00
1	 1.531199e+00	 1.093345e+00	-1.736854e+00
1	 1.517751e+00	 1.111937e+00	-1.852379e+00
1	 1.588787e+00	 1.021595e+00	-9.803602e-01
1	 1.576267e+00	 1.040808e+00	-1.162105e+00
1	 1.563499e+00	 1.059892e+00	-1.326690e+00
1	 1.550485e+00	 1.078840e+00	-1.472443e+00
1	 1.537227e+00	 1.097650e+00	-1.597713e+00
1	 1.523727e+00	 1.116314e+00	-1.700873e+00
1	 1.493850e+00	 1.094426e+00	-2.548503e+00
1	 1.480379e+00	 1.112579e+00	-2.687889e+00
1	 1.466677e+00	 1.130582e+00	-2.780540e+00
1	 1.452744e+00	 1.148430e+00	-2.835852e+00
1	 1.438584e+00	 1.166119e+00	-2.863990e+00
1	 1.424199e+00	 1.183644e+00	-2.875862e+00
1	 1.499825e+00	 1.098804e+00	-2.361532e+00
1	 1.486301e+00	 1.117029e+00	-2.485535e+00
1	 1.472543e+00	 1.135104e+00	-2.566771e+00
1	 1.458555e+00	 1.153023e+00	-2.614452e+00
1	 1.444338e+00	 1.170783e+00	-2.638529e+00
1	 1.429896e+00	 1.188379e+00	-2.649667e+00
1	 1.505801e+00	 1.103181e+00	-2.182994e+00
1	 1.492222e+00	 1.121480e+00	-2.292888e+00
1	 1.478410e+00	 1.139626e+00	-2.363874e+00
1	 1.464366e+00	 1.157617e+00	-2.404871e+00
1	 1.450092e+00	 1.175448e+00	-2.425502e+00
1	 1.435592e+00	 1.193113e+00	-2.436076e+00
1	 1.511776e+00	 1.107559e+00	-2.013180e+00
1	 1.498144e+00	 1.125930e+00	-2.110232e+00
1	 1.484277e+00	 1.144149e+00	-2.172103e+00
1	 1.470177e+00	 1.162211e+00	-2.207310e+00
1	 1.455847e+00	 1.180112e+00	-2.225038e+00
1	 1.441289e+00	 1.197848e+00	-2.235125e+00
1	 1.517751e+00	 1.111937e+00	-1.852379e+00
1	 1.504065e+00	 1.130380e+00	-1.937849e+00
1	 1.490143e+00	 1.148671e+00	-1.991709e+00
1	 1.475988e+00	 1.166805e+00	-2.021967e+00
1	 1.461601e+00	 1.184776e+00	-2.037262e+00
1	 1.446986e+00	 1.202582e+00	-2.046847e+00
1	 1.523727e+00	 1.116314e+00	-1.700873e+00
1	 1.509987e+00	 1.134831e+00	-1.776014e+00
1	 1.496010e+00	 1.153193e+00	-1.822936e+00
1	 1.481799e+00	 1.171398e+00	-1.849037e+00
1	 1.467355e+00	 1.189441e+00	-1.862298e+00
1	 1.452683e+00	 1.207317e+00	-1.871274e+00
1	 1.424199e+00	 1.183644e+00	-2.875862e+00
1	 1.409592e+00	 1.201002e+00	-2.881043e+00
1	 1.394767e+00	 1.218187e+00	-2.880988e+00
1	 1.379726e+00	 1.235197e+00	-2.874910e+00
1	 1.364472e+00	 1.252027e+00	-2.861936e+00
1	 1.349009e+00	 1.268673e+00	-2.841110e+00
1	 1.429896e+00	 1.188379e+00	-2.649667e+00
1	 1.415231e+00	 1.205806e+00	-2.654786e+00
1	 1.400346e+00	 1.223060e+00	-2.653074e+00
1	 1.385245e+00	 1.240138e+00	-2.644078e+00
1	 1.369930e+00	 1.257035e+00	-2.627282e+00
1	 1.354405e+00	 1.273748e+00	-2.602110e+00
1	 1.435592e+00	 1.193113e+00	-2.436076e+00
1	 1.420869e+00	 1.210610e+00	-2.440956e+00
1	 1.405925e+00	 1.227933e+00	-2.437298e+00
1	 1.390763e+00	 1.245079e+00	-2.425084e+00
1	 1.375388e+00	 1.262043e+00	-2.404258e+00
1	 1.359801e+00	 1.278822e+00	-2.374731e+00
1	 1.441289e+00	 1.197848e+00	-2.235125e+00
1	 1.426507e+00	 1.215414e+00	-2.239499e+00
1	 1.411504e+00	 1.232806e+00	-2.233554e+00
1	 1.396282e+00	 1.250020e+00	-2.217798e+00
1	 1.380846e+00	 1.267051e+00	-2.192742e+00
1	 1.365197e+00	 1.283897e+00	-2.158891e+00
1	 1.446986e+00	 1.202582e+00	-2.046847e+00
1	 1.432146e+00	 1.220218e+00	-2.050366e+00
1	 1.417083e+00	 1.237678e+00	-2.041736e+00
1	 1.401801e+00	 1.254960e+00	-2.022096e+00
1	 1.386303e+00	 1.272059e+00	-1.992617e+00
1	 1.370593e+00	 1.288972e+00	-1.954508e+00
1	 1.452683e+00	 1.207317e+00	-1.871274e+00
1	 1.437784e+00	 1.225022e+00	-1.873503e+00
1	 1.422662e+00	 1.242551e+00	-1.861743e+00
1	 1.407320e+00	 1.259901e+00	-1.837851e+00
1	 1.391761e+00	 1.277068e+00	-1.803765e+00
1	 1.375989e+00	 1.294046e+00	-1.761499e+00
1	 1.349009e+00	 1.268673e+00	-2.841110e+00
1	 1.333340e+00	 1.285131e+00	-2.832003e+00
1	 1.317468e+00	 1.301397e+00	-2.854811e+00
1	 1.301397e+00	 1.317468e+00	-2.909406e+00
1	 1.285131e+00	 1.333340e+00	-2.995587e+00
1	 1.268673e+00	 1.349009e+00	-3.113082e+00
1	 1.354405e+00	 1.273748e+00	-2.602110e+00
1	 1.338673e+00	 1.290271e+00	-2.588458e+00
1	 1.322738e+00	 1.306603e+00	-2.606412e+00
1	 1.306603e+00	 1.322738e+00	-2.655572e+00
1	 1.290271e+00	 1.338673e+00	-2.735458e+00
1	 1.273748e+00	 1.354405e+00	-2.845509e+00
1	 1.359801e+00	 1.278822e+00	-2.374731e+00
1	 1.344006e+00	 1.295412e+00	-2.356706e+00
1	 1.328007e+00	 1.311808e+00	-2.370048e+00
1	 1.311808e+00	 1.328007e+00	-2.414070e+00
1	 1.295412e+00	 1.344006e+00	-2.487996e+00
1	 1.278822e+00	 1.359801e+00	-2.590957e+00
1	 1.365197e+00	 1.283897e+00	-2.158891e+00
1	 1.349340e+00	 1.300552e+00	-2.136715e+00
1	 1.333277e+00	 1.317014e+00	-2.145734e+00
1	 1.317014e+00	 1.333277e+00	-2.184963e+00
1	 1.300552e+00	 1.349340e+00	-2.253307e+00
1	 1.283897e+00	 1.365197e+00	-2.349575e+00
1	 1.370593e+00	 1.288972e+00	-1.954508e+00
1	 1.354673e+00	 1.305693e+00	-1.928449e+00
1	 1.338547e+00	 1.322219e+00	-1.933486e+00
1	 1.322219e+00	 1.338547e+00	-1.968309e+00
1	 1.305693e+00	 1.354673e+00	-2.031496e+00
1	 1.288972e+00	 1.370593e+00	-2.121512e+00
1	 1.375989e+00	 1.294046e+00	-1.761499e+00
1	 1.360006e+00	 1.310833e+00	-1.731878e+00
1	 1.343817e+00	 1.327425e+00	-1.733315e+00
1	 1.327425e+00	 1.343817e+00	-1.764167e+00
1	 1.310833e+00	 1.360006e+00	-1.822664e+00
1	 1.294046e+00	 1.375989e+00	-1.906914e+00
1	 1.268673e+00	 1.349009e+00	-3.113082e+00
1	 1.252027e+00	 1.364472e+00	-3.275976e+00
1	 1.235197e+00	 1.379726e+00	-3.495939e+00
1	 1.218187e+00	 1.394767e+00	-3.768912e+00
1	 1.201002e+00	 1.409592e+00	-4.090705e+00
1	 1.183644e+00	 1.424199e+00	-4.457002e+00
1	 1.273748e+00	 1.354405e+00	-2.845509e+00
1	 1.257035e+00	 1.369930e+00	-2.999355e+00
1	 1.240138e+00	 1.385245e+00	-3.208418e+00
1	 1.223060e+00	 1.400346e+00	-3.468658e+00
1	 1.205806e+00	 1.415231e+00	-3.775898e+00
1	 1.188379e+00	 1.429896e+00	-4.125837e+00
1	 1.278822e+00	 1.359801e+00	-2.590957e+00
1	 1.262043e+00	 1.375388e+00	-2.736138e+00
1	 1.245079e+00	 1.390763e+00	-2.934753e+00
1	 1.227933e+00	 1.405925e+00	-3.182793e+00
1	 1.210610e+00	 1.420869e+00	-3.476114e+00
1	 1.193113e+00	 1.435592e+00	-3.810440e+00
1	 1.283897e+00	 1.365197e+00	-2.349575e+00
1	 1.267051e+00	 1.380846e+00	-2.486516e+00
1	 1.250020e+00	 1.396282e+00	-2.675161e+00
1	 1.232806e+00	 1.411504e+00	-2.911553e+00
1	 1.215414e+00	 1.426507e+00	-3.191593e+00
1	 1.197848e+00	 1.441289e+00	-3.511047e+00
1	 1.288972e+00	 1.370593e+00	-2.121512e+00
1	 1.272059e+00	 1.386303e+00	-2.250673e+00
1	 1.254960e+00	 1.401801e+00	-2.429854e+00
1	 1.237678e+00	 1.417083e+00	-2.655166e+00
1	 1.220218e+00	 1.432146e+00	-2.922571e+00
1	 1.202582e+00	 1.446986e+00	-3.227890e+00
1	 1.294046e+00	 1.375989e+00	-1.906914e+00
1	 1.277068e+00	 1.391761e+00	-2.028792e+00
1	 1.259901e+00	 1.407320e+00	-2.199042e+00
1	 1.242551e+00	 1.422662e+00	-2.413859e+00
1	 1.225022e+00	 1.437784e+00	-2.669280e+00
1	 1.207317e+00	 1.452683e+00	-2.961195e+00
1	 1.183644e+00	 1.424199e+00	-4.457002e+00
1	 1.166119e+00	 1.438584e+00	-4.859807e+00
1	 1.148430e+00	 1.452744e+00	-5.286071e+00
1	 1.130582e+00	 1.466677e+00	-5.723386e+00
1	 1.112579e+00	 1.480379e+00	-6.158813e+00
1	 1.094426e+00	 1.493850e+00	-6.578912e+00
1	 1.188379e+00	 1.429896e+00	-4.125837e+00
1	 1.170783e+00	 1.444338e+00	-4.509094e+00
1	 1.153023e+00	 1.458555e+00	-4.912016e+00
1	 1.135104e+00	 1.472543e+00	-5.323412e+00
1	 1.117029e+00	 1.486301e+00	-5.731599e+00
1	 1.098804e+00	 1.499825e+00	-6.124429e+00
1	 1.193113e+00	 1.435592e+00	-3.810440e+00
1	 1.175448e+00	 1.450092e+00	-4.175152e+00
1	 1.157617e+00	 1.464366e+00	-4.556045e+00
1	 1.139626e+00	 1.478410e+00	-4.943018e+00
1	 1.121480e+00	 1.492222e+00	-5.325512e+00
1	 1.103181e+00	 1.505801e+00	-5.692537e+00
1	 1.197848e+00	 1.441289e+00	-3.511047e+00
1	 1.180112e+00	 1.455847e+00	-3.858198e+00
1	 1.162211e+00	 1.470177e+00	-4.218338e+00
1	 1.144149e+00	 1.484277e+00	-4.582329e+00
1	 1.125930e+00	 1.498144e+00	-4.940607e+00
1	 1.107559e+00	 1.511776e+00	-5.283210e+00
1	 1.202582e+00	 1.446986e+00	-3.227890e+00
1	 1.184776e+00	 1.461601e+00	-3.558443e+00
1	 1.166805e+00	 1.475988e+00	-3.899070e+00
1	 1.148671e+00	 1.490143e+00	-4.241466e+00
1	 1.130380e+00	 1.504065e+00	-4.576937e+00
1	 1.111937e+00	 1.517751e+00	-4.896419e+00
1	 1.207317e+00	 1.452683e+00	-2.961195e+00
1	 1.189441e+00	 1.467355e+00	-3.276097e+00
1	 1.171398e+00	 1.481799e+00	-3.598413e+00
1	 1.153193e+00	 1.496010e+00	-3.920550e+00
1	 1.134831e+00	 1.509987e+00	-4.234555e+00
1	 1.116314e+00	 1.523727e+00	-4.532138e+00
1	 1.094426e+00	 1.493850e+00	-6.578912e+00
1	 1.076127e+00	 1.507085e+00	-6.965447e+00
1	 1.057687e+00	 1.520084e+00	-7.309147e+00
1	 1.039110e+00	 1.532843e+00	-7.609734e+00
1	 1.020400e+00	 1.545360e+00	-7.867027e+00
1	 1.001564e+00	 1.557635e+00	-8.080938e+00
1	 1.098804e+00	 1.499825e+00	-6.124429e+00
1	 1.080432e+00	 1.513114e+00	-6.486447e+00
1	 1.061917e+00	 1.526164e+00	-6.809687e+00
1	 1.043266e+00	 1.538974e+00	-7.092949e+00
1	 1.024482e+00	 1.551542e+00	-7.335102e+00
1	 1.005570e+00	 1.563865e+00	-7.535081e+00
1	 1.103181e+00	 1.505801e+00	-5.692537e+00
1	 1.084736e+00	 1.519142e+00	-6.031111e+00
1	 1.066148e+00	 1.532244e+00	-6.334448e+00
1	 1.047423e+00	 1.545105e+00	-6.600574e+00
1	 1.028564e+00	 1.557723e+00	-6.827560e+00
1	 1.009576e+00	 1.570096e+00	-7.013524e+00
1	 1.107559e+00	 1.511776e+00	-5.283210e+00
1	 1.089041e+00	 1.525170e+00	-5.599340e+00
1	 1.070379e+00	 1.538325e+00	-5.883289e+00
1	 1.051579e+00	 1.551237e+00	-6.132457e+00
1	 1.032645e+00	 1.563905e+00	-6.344270e+00
1	 1.013583e+00	 1.576326e+00	-6.516180e+00
1	 1.111937e+00	 1.517751e+00	-4.896419e+00
1	 1.093345e+00	 1.531199e+00	-5.191035e+00
1	 1.074610e+00	 1.544405e+00	-5.456072e+00
1	 1.055735e+00	 1.557368e+00	-5.688451e+00
1	 1.036727e+00	 1.570086e+00	-5.885100e+00
1	 1.017589e+00	 1.582557e+00	-6.042961e+00
1	 1.116314e+00	 1.523727e+00	-4.532138e+00
1	 1.097650e+00	 1.537227e+00	-4.806099e+00
1	 1.078840e+00	 1.550485e+00	-5.052661e+00
1	 1.059892e+00	 1.563499e+00	-5.268409e+00
1	 1.040808e+00	 1.576267e+00	-5.449923e+00
1	 1.021595e+00	 1.588787e+00	-5.593783e+00
1	 1.001564e+00	 1.557635e+00	-8.080938e+00
1	 9.826043e-01	 1.569664e+00	-8.234972e+00
1	 9.635266e-01	 1.581446e+00	-8.315288e+00
1	 9.443357e-01	 1.592980e+00	-8.326003e+00
1	 9.250361e-01	 1.604264e+00	-8.271430e+00
1	 9.056327e-01	 1.615297e+00	-8.156068e+00
1	 1.005570e+00	 1.563865e+00	-7.535081e+00
1	 9.865347e-01	 1.575942e+00	-7.676112e+00
1	 9.673807e-01	 1.587772e+00	-7.744983e+00
1	 9.481130e-01	 1.599352e+00	-7.746184e+00
1	 9.287362e-01	 1.610681e+00	-7.684409e+00
1	 9.092553e-01	 1.621758e+00	-7.564542e+00
1	 1.009576e+00	 1.570096e+00	-7.013524e+00
1	 9.904651e-01	 1.582221e+00	-7.141642e+00
1	 9.712349e-01	 1.594098e+00	-7.199397e+00
1	 9.518904e-01	 1.605724e+00	-7.191565e+00
1	 9.324364e-01	 1.617098e+00	-7.123134e+00
1	 9.128778e-01	 1.628219e+00	-6.999281e+00
1	 1.013583e+00	 1.576326e+00	-6.516180e+00
1	 9.943955e-01	 1.588500e+00	-6.631520e+00
1	 9.750890e-01	 1.600423e+00	-6.678515e+00
1	 9.556677e-01	 1.612096e+00	-6.662144e+00
1	 9.361365e-01	 1.623515e+00	-6.587593e+00
1	 9.165003e-01	 1.634681e+00	-6.460248e+00
1	 1.017589e+00	 1.582557e+00	-6.042961e+00
1	 9.983259e-01	 1.594778e+00	-6.145707e+00
1	 9.789431e-01	 1.606749e+00	-6.182326e+00
1	 9.594450e-01	 1.618468e+00	-6.157914e+00
1	 9.398367e-01	 1.629932e+00	-6.077774e+00
1	 9.201229e-01	 1.641142e+00	-5.947405e+00
1	 1.021595e+00	 1.588787e+00	-5.593783e+00
1	 1.002256e+00	 1.601057e+00	-5.684162e+00
1	 9.827972e-01	 1.613075e+00	-5.710817e+00
1	 9.632224e-01	 1.624840e+00	-5.678873e+00
1	 9.435368e-01	 1.636349e+00	-5.593664e+00
1	 9.237454e-01	 1.647603e+00	-5.460717e+00
1	 9.056327e-01	 1.615297e+00	-8.156068e+00
1	 8.861304e-01	 1.626078e+00	-7.990099e+00
1	 8.665338e-01	 1.636605e+00	-7.780730e+00
1	 8.468478e-01	 1.646877e+00	-7.528166e+00
1	 8.270773e-01	 1.656894e+00	-7.232659e+00
1	 8.072271e-01	 1.666655e+00	-6.894502e+00
1	 9.092553e-01	 1.621758e+00	-7.564542e+00
1	 8.896749e-01	 1.632582e+00	-7.396560e+00
1	 8.699999e-01	 1.643151e+00	-7.187096e+00
1	 8.502352e-01	 1.653465e+00	-6.936186e+00
1	 8.303857e-01	 1.663522e+00	-6.643906e+00
1	 8.104560e-01	 1.673322e+00	-6.310372e+00
1	 9.128778e-01	 1.628219e+00	-6.999281e+00
1	 8.932194e-01	 1.639086e+00	-6.829671e+00
1	 8.734661e-01	 1.649697e+00	-6.620374e+00
1	 8.536226e-01	 1.660052e+00	-6.371344e+00
1	 8.336940e-01	 1.670149e+00	-6.082571e+00
1	 8.136849e-01	 1.679988e+00	-5.754076e+00
1	 9.165003e-01	 1.634681e+00	-6.460248e+00
1	 8.967639e-01	 1.645591e+00	-6.289370e+00
1	 8.769322e-01	 1.656244e+00	-6.080496e+00
1	 8.570100e-01	 1.666640e+00	-5.833582e+00
1	 8.370023e-01	 1.676777e+00	-5.548615e+00
1	 8.169139e-01	 1.686655e+00	-5.225613e+00
1	 9.201229e-01	 1.641142e+00	-5.947405e+00
1	 9.003084e-01	 1.652095e+00	-5.775598e+00
1	 8.803983e-01	 1.662790e+00	-5.567396e+00
1	 8.603974e-01	 1.673227e+00	-5.322840e+00
1	 8.403106e-01	 1.683404e+00	-5.042001e+00
1	 8.201428e-01	 1.693322e+00	-4.724980e+00
1	 9.237454e-01	 1.647603e+00	-5.460717e+00
1	 9.038530e-01	 1.658599e+00	-5.288295e+00
1	 8.838645e-01	 1.669337e+00	-5.081005e+00
1	 8.637848e-01	 1.679815e+00	-4.839059e+00
1	 8.436189e-01	 1.690032e+00	-4.562693e+00
1	 8.233717e-01	 1.699988e+00	-4.252176e+00
1	 8.072271e-01	 1.666655e+00	-6.894502e+00
1	 7.873020e-01	 1.676160e+00	-6.507378e+00
1	 7.673068e-01	 1.685407e+00	-6.077055e+00
1	 7.472463e-01	 1.694396e+00	-5.622210e+00
1	 7.271254e-01	 1.703128e+00	-5.161769e+00
1	 7.069488e-01	 1.711601e+00	-4.714870e+00
1	 8.104560e-01	 1.673322e+00	-6.310372e+00
1	 7.904512e-01	 1.682864e+00	-5.930421e+00
1	 7.703760e-01	 1.692148e+00	-5.510456e+00
1	 7.502353e-01	 1.701174e+00	-5.068174e+00
1	 7.300339e-01	 1.709940e+00	-4.621515e+00
1	 7.097765e-01	 1.718448e+00	-4.188620e+00
1	 8.136849e-01	 1.679988e+00	-5.754076e+00
1	 7.936004e-01	 1.689569e+00	-5.381867e+00
1	 7.734453e-01	 1.698890e+00	-4.972904e+00
1	 7.532243e-01	 1.707951e+00	-4.543867e+00
1	 7.329424e-01	 1.716753e+00	-4.111667e+00
1	 7.126043e-01	 1.725294e+00	-3.693408e+00
1	 8.169139e-01	 1.686655e+00	-5.225613e+00
1	 7.967496e-01	 1.696273e+00	-4.861751e+00
1	 7.765145e-01	 1.705632e+00	-4.464464e+00
1	 7.562133e-01	 1.714729e+00	-4.049374e+00
1	 7.358509e-01	 1.723565e+00	-3.632324e+00
1	 7.154321e-01	 1.732140e+00	-3.229340e+00
1	 8.201428e-01	 1.693322e+00	-4.724980e+00
1	 7.998988e-01	 1.702978e+00	-4.370108e+00
1	 7.795837e-01	 1.712373e+00	-3.985200e+00
1	 7.592023e-01	 1.721506e+00	-3.584781e+00
1	 7.387594e-01	 1.730378e+00	-3.183585e+00
1	 7.182599e-01	 1.738987e+00	-2.796521e+00
1	 8.233717e-01	 1.699988e+00	-4.252176e+00
1	 8.030481e-01	 1.709683e+00	-3.906973e+00
1	 7.826530e-01	 1.719115e+00	-3.535175e+00
1	 7.621913e-01	 1.728284e+00	-3.150171e+00
1	 7.416679e-01	 1.737190e+00	-2.765547e+00
1	 7.210877e-01	 1.745833e+00	-2.395055e+00
1	 7.069488e-01	 1.711601e+00	-4.714870e+00
1	 6.867212e-01	 1.719817e+00	-4.294296e+00
1	 6.664474e-01	 1.727774e+00	-3.910281e+00
1	 6.461321e-01	 1.735474e+00	-3.578274e+00
1	 6.257800e-01	 1.742916e+00	-3.313705e+00
1	 6.053958e-01	 1.750100e+00	-3.131960e+00
1	 7.097765e-01	 1.718448e+00	-4.188620e+00
1	 6.894681e-01	 1.726696e+00	-3.781066e+00
1	 6.691132e-01	 1.734685e+00	-3.408702e+00
1	 6.487166e-01	 1.742415e+00	-3.087211e+00
1	 6.282832e-01	 1.749887e+00	-2.832270e+00
1	 6.078174e-01	 1.757101e+00	-2.659511e+00
1	 7.126043e-01	 1.725294e+00	-3.693408e+00
1	 6.922149e-01	 1.733575e+00	-3.299504e+00
1	 6.717790e-01	 1.741596e+00	-2.939471e+00
1	 6.513012e-01	 1.749357e+00	-2.629204e+00
1	 6.307863e-01	 1.756859e+00	-2.384595e+00
1	 6.102390e-01	 1.764101e+00	-2.221498e+00
1	 7.154321e-01	 1.732140e+00	-3.229340e+00
1	 6.949618e-01	 1.740454e+00	-2.849716e+00
1	 6.744448e-01	 1.748507e+00	-2.502688e+00
1	 6.538857e-01	 1.756299e+00	-2.204338e+00
1	 6.332894e-01	 1.763831e+00	-1.970746e+00
1	 6.126606e-01	 1.771102e+00	-1.817961e+00
1	 7.182599e-01	 1.738987e+00	-2.796521e+00
1	 6.977087e-01	 1.747334e+00	-2.431806e+00
1	 6.771105e-01	 1.755418e+00	-2.098452e+00
1	 6.564702e-01	 1.763241e+00	-1.812697e+00
1	 6.357925e-01	 1.770802e+00	-1.590787e+00
1	 6.150821e-01	 1.778102e+00	-1.448937e+00
1	 7.210877e-01	 1.745833e+00	-2.395055e+00
1	 7.004556e-01	 1.754213e+00	-2.045877e+00
1	 6.797763e-01	 1.762330e+00	-1.726856e+00
1	 6.590548e-01	 1.770183e+00	-1.454363e+00
1	 6.382956e-01	 1.777774e+00	-1.244780e+00
1	 6.175037e-01	 1.785102e+00	-1.114464e+00
1	 6.053958e-01	 1.750100e+00	-3.131960e+00
1	 5.849840e-01	 1.757028e+00	-3.062266e+00
1	 5.645493e-01	 1.763700e+00	-3.127104e+00
1	 5.440962e-01	 1.770117e+00	-3.331572e+00
1	 5.236291e-01	 1.776279e+00	-3.680613e+00
1	 5.031526e-01	 1.782188e+00	-4.179001e+00
1	 6.078174e-01	 1.757101e+00	-2.659511e+00
1	 5.873240e-01	 1.764057e+00	-2.597753e+00
1	 5.668075e-01	 1.770755e+00	-2.668311e+00
1	 5.462726e-01	 1.777198e+00	-2.875397e+00
1	 5.257236e-01	 1.783384e+00	-3.223070e+00
1	 5.051652e-01	 1.789316e+00	-3.715225e+00
1	 6.102390e-01	 1.764101e+00	-2.221498e+00
1	 5.896639e-01	 1.771085e+00	-2.168244e+00
1	 5.690657e-01	 1.777810e+00	-2.244952e+00
1	 5.484490e-01	 1.784278e+00	-2.455002e+00
1	 5.278182e-01	 1.790489e+00	-2.801623e+00
1	 5.071778e-01	 1.796445e+00	-3.287884e+00
1	 6.126606e-01	 1.771102e+00	-1.817961e+00
1	 5.920039e-01	 1.778113e+00	-1.773756e+00
1	 5.713239e-01	 1.784865e+00	-1.857040e+00
1	 5.506253e-01	 1.791359e+00	-2.070411e+00
1	 5.299127e-01	 1.797595e+00	-2.416320e+00
1	 5.091904e-01	 1.803574e+00	-2.897065e+00
1	 6.150821e-01	 1.778102e+00	-1.448937e+00
1	 5.943438e-01	 1.785141e+00	-1.414307e+00
1	 5.735821e-01	 1.791920e+00	-1.504587e+00
1	 5.528017e-01	 1.798439e+00	-1.721646e+00
1	 5.320072e-01	 1.804700e+00	-2.067209e+00
1	 5.112030e-01	 1.810703e+00	-2.542857e+00
1	 6.175037e-01	 1.785102e+00	-1.114464e+00
1	 5.966837e-01	 1.792169e+00	-1.089914e+00
1	 5.758403e-01	 1.798974e+00	-1.187607e+00
1	 5.549781e-01	 1.805519e+00	-1.408731e+00
1	 5.341017e-01	 1.811805e+00	-1.754339e+00
1	 5.132156e-01	 1.817831e+00	-2.225346e+00
1	 5.031526e-01	 1.782188e+00	-4.179001e+00
1	 4.826710e-01	 1.787843e+00	-4.828153e+00
1	 4.621887e-01	 1.793248e+00	-5.631634e+00
1	 4.417099e-01	 1.798401e+00	-6.597163e+00
1	 4.212390e-01	 1.803306e+00	-7.732236e+00
1	 4.007801e-01	 1.807963e+00	-9.044123e+00
1	 5.051652e-01	 1.789316e+00	-3.715225e+00
1	 4.846017e-01	 1.794995e+00	-4.352569e+00
1	 4.640374e-01	 1.800421e+00	-5.138280e+00
1	 4.434768e-01	 1.805595e+00	-6.079682e+00
1	 4.229240e-01	 1.810519e+00	-7.183892e+00
1	 4.023832e-01	 1.815195e+00	-8.457807e+00
1	 5.071778e-01	 1.796445e+00	-3.287884e+00
1	 4.865323e-01	 1.802146e+00	-3.913806e+00
1	 4.658862e-01	 1.807594e+00	-4.681977e+00
1	 4.452436e-01	 1.812789e+00	-5.599053e+00
1	 4.246089e-01	 1.817733e+00	-6.671492e+00
1	 4.039864e-01	 1.822427e+00	-7.905545e+00
1	 5.091904e-01	 1.803574e+00	-2.897065e+00
1	 4.884630e-01	 1.809298e+00	-3.511977e+00
1	 4.677349e-01	 1.814767e+00	-4.262830e+00
1	 4.470104e-01	 1.819982e+00	-5.155338e+00
1	 4.262939e-01	 1.824946e+00	-6.195027e+00
1	 4.055895e-01	 1.829659e+00	-7.387225e+00
1	 5.112030e-01	 1.810703e+00	-2.542857e+00
1	 4.903937e-01	 1.816449e+00	-3.147197e+00
1	 4.695837e-01	 1.821940e+00	-3.880944e+00
1	 4.487773e-01	 1.827176e+00	-4.748599e+00
1	 4.279788e-01	 1.832159e+00	-5.754486e+00
1	 4.071926e-01	 1.836891e+00	-6.902740e+00
1	 5.132156e-01	 1.817831e+00	-2.225346e+00
1	 4.923244e-01	 1.823600e+00	-2.819578e+00
1	 4.714324e-01	 1.829113e+00	-3.536421e+00
1	 4.505441e-01	 1.834369e+00	-4.378897e+00
1	 4.296638e-01	 1.839372e+00	-5.349858e+00
1	 4.087957e-01	 1.844122e+00	-6.451982e+00
1	 4.007801e-01	 1.807963e+00	-9.044123e+00
1	 3.803374e-01	 1.812374e+00	-1.054637e+01
1	 3.599148e-01	 1.816540e+00	-1.221998e+01
1	 3.395165e-01	 1.820463e+00	-1.402329e+01
1	 3.191463e-01	 1.824144e+00	-1.591485e+01
1	 2.988082e-01	 1.827586e+00	-1.785346e+01
1	 4.023832e-01	 1.815195e+00	-8.457807e+00
1	 3.818587e-01	 1.819623e+00	-9.913584e+00
1	 3.613545e-01	 1.823806e+00	-1.153180e+01
1	 3.408746e-01	 1.827744e+00	-1.327191e+01
1	 3.204229e-01	 1.831440e+00	-1.509356e+01
1	 3.000035e-01	 1.834896e+00	-1.695664e+01
1	 4.039864e-01	 1.822427e+00	-7.905545e+00
1	 3.833801e-01	 1.826873e+00	-9.311861e+00
1	 3.627941e-01	 1.831072e+00	-1.087103e+01
1	 3.422326e-01	 1.835026e+00	-1.254414e+01
1	 3.216995e-01	 1.838737e+00	-1.429244e+01
1	 3.011987e-01	 1.842206e+00	-1.607745e+01
1	 4.055895e-01	 1.829659e+00	-7.387225e+00
1	 3.849014e-01	 1.834122e+00	-8.741010e+00
1	 3.642338e-01	 1.838338e+00	-1.023744e+01
1	 3.435907e-01	 1.842308e+00	-1.183975e+01
1	 3.229761e-01	 1.846034e+00	-1.351133e+01
1	 3.023939e-01	 1.849517e+00	-1.521583e+01
1	 4.071926e-01	 1.836891e+00	-6.902740e+00
1	 3.864228e-01	 1.841372e+00	-8.200839e+00
1	 3.656735e-01	 1.845604e+00	-9.630805e+00
1	 3.449488e-01	 1.849590e+00	-1.115853e+01
1	 3.242527e-01	 1.853330e+00	-1.275007e+01
1	 3.035892e-01	 1.856827e+00	-1.437169e+01
1	 4.087957e-01	 1.844122e+00	-6.451982e+00
1	 3.879441e-01	 1.848621e+00	-7.691158e+00
1	 3.671131e-01	 1.852871e+00	-9.050905e+00
1	 3.463068e-01	 1.856872e+00	-1.050028e+01
1	 3.255293e-01	 1.860627e+00	-1.200850e+01
1	 3.047844e-01	 1.864137e+00	-1.354496e+01
1	 2.988082e-01	 1.827586e+00	-1.785346e+01
1	 2.785059e-01	 1.830789e+00	-1.979772e+01
1	 2.582433e-01	 1.833757e+00	-2.171614e+01
1	 2.380238e-01	 1.836491e+00	-2.358291e+01
1	 2.178512e-01	 1.838993e+00	-2.537255e+01
1	 1.977290e-01	 1.841265e+00	-2.705996e+01
1	 3.000035e-01	 1.834896e+00	-1.695664e+01
1	 2.796200e-01	 1.838113e+00	-1.882120e+01
1	 2.592762e-01	 1.841092e+00	-2.065764e+01
1	 2.389759e-01	 1.843837e+00	-2.244184e+01
1	 2.187226e-01	 1.846349e+00	-2.415001e+01
1	 1.985199e-01	 1.848631e+00	-2.575873e+01
1	 3.011987e-01	 1.842206e+00	-1.607745e+01
1	 2.807340e-01	 1.845436e+00	-1.786110e+01
1	 2.603092e-01	 1.848427e+00	-1.961557e+01
1	 2.399280e-01	 1.851183e+00	-2.131819e+01
1	 2.195940e-01	 1.853705e+00	-2.294659e+01
1	 1.993109e-01	 1.855996e+00	-2.447878e+01
1	 3.023939e-01	 1.849517e+00	-1.521583e+01
1	 2.818480e-01	 1.852759e+00	-1.691744e+01
1	 2.613422e-01	 1.855762e+00	-1.859001e+01
1	 2.408801e-01	 1.858529e+00	-2.021205e+01
1	 2.204654e-01	 1.861061e+00	-2.176239e+01
1	 2.001018e-01	 1.863361e+00	-2.322020e+01
1	 3.035892e-01	 1.856827e+00	-1.437169e+01
1	 2.829620e-01	 1.860082e+00	-1.599022e+01
1	 2.623751e-01	 1.863097e+00	-1.758100e+01
1	 2.418322e-01	 1.865875e+00	-1.912351e+01
1	 2.213369e-01	 1.868417e+00	-2.059753e+01
1	 2.008927e-01	 1.870726e+00	-2.198313e+01
1	 3.047844e-01	 1.864137e+00	-1.354496e+01
1	 2.840761e-01	 1.867405e+00	-1.507944e+01
1	 2.634081e-01	 1.870432e+00	-1.658862e+01
1	 2.427843e-01	 1.873221e+00	-1.805269e+01
1	 2.222083e-01	 1.875773e+00	-1.945211e+01
1	 2.016836e-01	 1.878091e+00	-2.076766e+01
1	 1.977290e-01	 1.841265e+00	-2.705996e+01
1	 1.776606e-01	 1.843310e+00	-2.861833e+01
1	 1.576495e-01	 1.845129e+00	-3.002510e+01
1	 1.376988e-01	 1.846725e+00	-3.126218e+01
1	 1.178119e-01	 1.848101e+00	-3.231196e+01
1	 9.799187e-02	 1.849257e+00	-3.315725e+01
1	 1.985199e-01	 1.848631e+00	-2.575873e+01
1	 1.783713e-01	 1.850683e+00	-2.724293e+01
1	 1.582801e-01	 1.852510e+00	-2.858176e+01
1	 1.382496e-01	 1.854112e+00	-2.975877e+01
1	 1.182831e-01	 1.855493e+00	-3.075791e+01
1	 9.838384e-02	 1.856654e+00	-3.156355e+01
1	 1.993109e-01	 1.855996e+00	-2.447878e+01
1	 1.790819e-01	 1.858057e+00	-2.589118e+01
1	 1.589107e-01	 1.859890e+00	-2.716455e+01
1	 1.388004e-01	 1.861499e+00	-2.828390e+01
1	 1.187544e-01	 1.862885e+00	-2.923460e+01
1	 9.877581e-02	 1.864051e+00	-3.000248e+01
1	 2.001018e-01	 1.863361e+00	-2.322020e+01
1	 1.797926e-01	 1.865430e+00	-2.456321e+01
1	 1.595413e-01	 1.867271e+00	-2.577357e+01
1	 1.393512e-01	 1.868886e+00	-2.683762e+01
1	 1.192256e-01	 1.870278e+00	-2.774210e+01
1	 9.916778e-02	 1.871448e+00	-2.847409e+01
1	 2.008927e-01	 1.870726e+00	-2.198313e+01
1	 1.805032e-01	 1.872803e+00	-2.325910e+01
1	 1.601719e-01	 1.874651e+00	-2.440889e+01
1	 1.399020e-01	 1.876273e+00	-2.542004e+01
1	 1.196969e-01	 1.877670e+00	-2.628046e+01
1	 9.955974e-02	 1.878846e+00	-2.697841e+01
1	 2.016836e-01	 1.878091e+00	-2.076766e+01
1	 1.812139e-01	 1.880176e+00	-2.197897e+01
1	 1.608025e-01	 1.882032e+00	-2.307061e+01
1	 1.404528e-01	 1.883660e+00	-2.403121e+01
1	 1.201681e-01	 1.885063e+00	-2.484974e+01
1	 9.995171e-02	 1.886243e+00	-2.551549e+01
1	 9.799187e-02	 1.849257e+00	-3.315725e+01
1	 7.824181e-02	 1.850198e+00	-3.377894e+01
1	 5.856472e-02	 1.850926e+00	-3.415309e+01
1	 3.896350e-02	 1.851442e+00	-3.425617e+01
1	 1.944101e-02	 1.851750e+00	-3.406534e+01
1	 0.000000e+00	 1.851852e+00	-3.355846e+01
1	 9.838384e-02	 1.856654e+00	-3.156355e+01
1	 7.855478e-02	 1.857599e+00	-3.215786e+01
1	 5.879898e-02	 1.858329e+00	-3.251757e+01
1	 3.911935e-02	 1.858848e+00	-3.261976e+01
1	 1.951877e-02	 1.859157e+00	-3.244214e+01
1	 0.000000e+00	 1.859259e+00	-3.196311e+01
1	 9.877581e-02	 1.864051e+00	-3.000248e+01
1	 7.886775e-02	 1.865000e+00	-3.057085e+01
1	 5.903323e-02	 1.865733e+00	-3.091710e+01
1	 3.927521e-02	 1.866253e+00	-3.101891e+01
1	 1.959654e-02	 1.866564e+00	-3.085457e+01
1	 0.000000e+00	 1.866667e+00	-3.040303e+01
1	 9.916778e-02	 1.871448e+00	-2.847409e+01
1	 7.918072e-02	 1.872401e+00	-2.901795e+01
1	 5.926749e-02	 1.873137e+00	-2.935170e+01
1	 3.943106e-02	 1.873659e+00	-2.945363e+01
1	 1.967430e-02	 1.873971e+00	-2.930264e+01
1	 0.000000e+00	 1.874074e+00	-2.887824e+01
1	 9.955974e-02	 1.878846e+00	-2.697841e+01
1	 7.949368e-02	 1.879801e+00	-2.749918e+01
1	 5.950175e-02	 1.880540e+00	-2.782138e+01
1	 3.958692e-02	 1.881065e+00	-2.792394e+01
1	 1.975206e-02	 1.881378e+00	-2.778636e+01
1	 0.000000e+00	 1.881481e+00	-2.738876e+01
1	 9.995171e-02	 1.886243e+00	-2.551549e+01
1	 7.980665e-02	 1.887202e+00	-2.601457e+01
1	 5.973601e-02	 1.887944e+00	-2.632616e+01
1	 3.974277e-02	 1.888471e+00	-2.642984e+01
1	 1.982983e-02	 1.888785e+00	-2.630575e+01
1	 0.000000e+00	 1.888889e+00	-2.593459e+01
1	 1.888889e+00	 0.000000e+00	 5.239783e+00
1	 1.888785e+00	 1.982983e-02	 5.230192e+00
1	 1.888471e+00	 3.974277e-02	 5.179280e+00
1	 1.887944e+00	 5.973601e-02	 5.091159e+00
1	 1.887202e+00	 7.980665e-02	 4.969982e+00
1	 1.886243e+00	 9.995171e-02	 4.819927e+00
1	 1.896296e+00	 0.000000e+00	 4.927717e+00
1	 1.896192e+00	 1.990759e-02	 4.920998e+00
1	 1.895877e+00	 3.989862e-02	 4.874756e+00
1	 1.895348e+00	 5.997027e-02	 4.792972e+00
1	 1.894603e+00	 8.011962e-02	 4.679653e+00
1	 1.893640e+00	 1.003437e-01	 4.538832e+00
1	 1.903704e+00	 0.000000e+00	 4.625462e+00
1	 1.903599e+00	 1.998536e-02	 4.621445e+00
1	 1.903282e+00	 4.005448e-02	 4.579713e+00
1	 1.902751e+00	 6.020453e-02	 4.504099e+00
1	 1.902004e+00	 8.043258e-02	 4.398457e+00
1	 1.901037e+00	 1.007356e-01	 4.266657e+00
1	 1.911111e+00	 0.000000e+00	 4.332913e+00
1	 1.911006e+00	 2.006312e-02	 4.331454e+00
1	 1.910688e+00	 4.021033e-02	 4.294088e+00
1	 1.910155e+00	 6.043879e-02	 4.224489e+00
1	 1.909405e+00	 8.074555e-02	 4.126343e+00
1	 1.908434e+00	 1.011276e-01	 4.003340e+00
1	 1.918519e+00	 0.000000e+00	 4.049964e+00
1	 1.918413e+00	 2.014088e-02	 4.050946e+00
1	 1.918094e+00	 4.036619e-02	 4.017821e+00
1	 1.917559e+00	 6.067305e-02	 3.954089e+00
1	 1.916805e+00	 8.105852e-02	 3.863256e+00
1	 1.915831e+00	 1.015196e-01	 3.748819e+00
1	 1.925926e+00	 0.000000e+00	 3.776511e+00
1	 1.925820e+00	 2.021865e-02	 3.779846e+00
1	 1.925500e+00	 4.052204e-02	 3.750853e+00
1	 1.924963e+00	 6.090730e-02	 3.692849e+00
1	 1.924206e+00	 8.137149e-02	 3.609145e+00
1	 1.923228e+00	 1.019115e-01	 3.503032e+00
1	 1.886243e+00	 9.995171e-02	 4.819927e+00
1	 1.885063e+00	 1.201681e-01	 4.643628e+00
1	 1.883660e+00	 1.404528e-01	 4.442332e+00
1	 1.882032e+00	 1.608025e-01	 4.218177e+00
1	 1.880176e+00	 1.812139e-01	 3.973325e+00
1	 1.878091e+00	 2.016836e-01	 3.709953e+00
1	 1.893640e+00	 1.003437e-01	 4.538832e+00
1	 1.892455e+00	 1.206394e-01	 4.373187e+00
1	 1.891047e+00	 1.410036e-01	 4.183983e+00
1	 1.889412e+00	 1.614331e-01	 3.973166e+00
1	 1.887550e+00	 1.819245e-01	 3.742699e+00
1	 1.885456e+00	 2.024745e-01	 3.494562e+00
1	 1.901037e+00	 1.007356e-01	 4.266657e+00
1	 1.899847e+00	 1.211106e-01	 4.111432e+00
1	 1.898434e+00	 1.415544e-01	 3.934081e+00
1	 1.896793e+00	 1.620637e-01	 3.736347e+00
1	 1.894923e+00	 1.826351e-01	 3.519989e+00
1	 1.892821e+00	 2.032654e-01	 3.286782e+00
1	 1.908434e+00	 1.011276e-01	 4.003340e+00
1	 1.907240e+00	 1.215819e-01	 3.858288e+00
1	 1.905821e+00	 1.421052e-01	 3.692543e+00
1	 1.904173e+00	 1.626943e-01	 3.507636e+00
1	 1.902296e+00	 1.833458e-01	 3.305115e+00
1	 1.900186e+00	 2.040564e-01	 3.086541e+00
1	 1.915831e+00	 1.015196e-01	 3.748819e+00
1	 1.914632e+00	 1.220531e-01	 3.613682e+00
1	 1.913207e+00	 1.426560e-01	 3.459288e+00
1	 1.911554e+00	 1.633249e-01	 3.286950e+00
1	 1.909669e+00	 1.840564e-01	 3.097997e+00
1	 1.907551e+00	 2.048473e-01	 2.893771e+00
1	 1.923228e+00	 1.019115e-01	 3.503032e+00
1	 1.922025e+00	 1.225244e-01	 3.377540e+00
1	 1.920594e+00	 1.432068e-01	 3.234237e+00
1	 1.918934e+00	 1.639555e-01	 3.074208e+00
1	 1.917042e+00	 1.847671e-01	 2.898557e+00
1	 1.914916e+00	 2.056382e-01	 2.708402e+00
1	 1.878091e+00	 2.016836e-01	 3.709953e+00
1	 1.875773e+00	 2.222083e-01	 3.431621e+00
1	 1.873221e+00	 2.427843e-01	 3.142845e+00
1	 1.870432e+00	 2.634081e-01	 2.847274e+00
1	 1.867405e+00	 2.840761e-01	 2.548582e+00
1	 1.864137e+00	 3.047844e-01	 2.250457e+00
1	 1.885456e+00	 2.024745e-01	 3.494562e+00
1	 1.883129e+00	 2.230797e-01	 3.232137e+00
1	 1.880567e+00	 2.437364e-01	 2.959815e+00
1	 1.877767e+00	 2.644411e-01	 2.681112e+00
1	 1.874728e+00	 2.851901e-01	 2.399565e+00
1	 1.871448e+00	 3.059796e-01	 2.118727e+00
1	 1.892821e+00	 2.032654e-01	 3.286782e+00
1	 1.890485e+00	 2.239511e-01	 3.039911e+00
1	 1.887913e+00	 2.446885e-01	 2.783616e+00
1	 1.885102e+00	 2.654741e-01	 2.521278e+00
1	 1.882051e+00	 2.863041e-01	 2.256295e+00
1	 1.878758e+00	 3.071749e-01	 1.992075e+00
1	 1.900186e+00	 2.040564e-01	 3.086541e+00
1	 1.897841e+00	 2.248225e-01	 2.854885e+00
1	 1.895259e+00	 2.456406e-01	 2.614215e+00
1	 1.892437e+00	 2.665070e-01	 2.367772e+00
1	 1.889375e+00	 2.874181e-01	 2.118809e+00
1	 1.886068e+00	 3.083701e-01	 1.870590e+00
1	 1.907551e+00	 2.048473e-01	 2.893771e+00
1	 1.905197e+00	 2.256939e-01	 2.677006e+00
1	 1.902605e+00	 2.465927e-01	 2.451583e+00
1	 1.899773e+00	 2.675400e-01	 2.220594e+00
1	 1.896698e+00	 2.885322e-01	 1.987146e+00
1	 1.893379e+00	 3.095653e-01	 1.754356e+00
1	 1.914916e+00	 2.056382e-01	 2.708402e+00
1	 1.912553e+00	 2.265653e-01	 2.506219e+00
1	 1.909951e+00	 2.475448e-01	 2.295687e+00
1	 1.907108e+00	 2.685730e-01	 2.079743e+00
1	 1.904021e+00	 2.896462e-01	 1.861345e+00
1	 1.900689e+00	 3.107606e-01	 1.643457e+00
1	 1.864137e+00	 3.047844e-01	 2.250457e+00
1	 1.860627e+00	 3.255293e-01	 1.956710e+00
1	 1.856872e+00	 3.463068e-01	 1.672322e+00
1	 1.852871e+00	 3.671131e-01	 1.402749e+00
1	 1.848621e+00	 3.879441e-01	 1.153436e+00
1	 1.844122e+00	 4.087957e-01	 9.298079e-01
1	 1.871448e+00	 3.059796e-01	 2.118727e+00
1	 1.867923e+00	 3.268059e-01	 1.842178e+00
1	 1.864154e+00	 3.476649e-01	 1.574444e+00
1	 1.860137e+00	 3.685528e-01	 1.320499e+00
1	 1.855871e+00	 3.894655e-01	 1.085323e+00
1	 1.851354e+00	 4.103988e-01	 8.738902e-01
1	 1.878758e+00	 3.071749e-01	 1.992075e+00
1	 1.875220e+00	 3.280824e-01	 1.732048e+00
1	 1.871435e+00	 3.490230e-01	 1.480400e+00
1	 1.867403e+00	 3.699924e-01	 1.241692e+00
1	 1.863120e+00	 3.909868e-01	 1.020498e+00
1	 1.858586e+00	 4.120020e-01	 8.213946e-01
1	 1.886068e+00	 3.083701e-01	 1.870590e+00
1	 1.882516e+00	 3.293590e-01	 1.626432e+00
1	 1.878717e+00	 3.503810e-01	 1.390274e+00
1	 1.874669e+00	 3.714321e-01	 1.166328e+00
1	 1.870370e+00	 3.925082e-01	 9.588227e-01
1	 1.865818e+00	 4.136051e-01	 7.719905e-01
1	 1.893379e+00	 3.095653e-01	 1.754356e+00
1	 1.889813e+00	 3.306356e-01	 1.525440e+00
1	 1.885999e+00	 3.517391e-01	 1.304148e+00
1	 1.881935e+00	 3.728718e-01	 1.094409e+00
1	 1.877619e+00	 3.940295e-01	 9.001636e-01
1	 1.873050e+00	 4.152082e-01	 7.253523e-01
1	 1.900689e+00	 3.107606e-01	 1.643457e+00
1	 1.897110e+00	 3.319122e-01	 1.429179e+00
1	 1.893281e+00	 3.530972e-01	 1.222102e+00
1	 1.889201e+00	 3.743114e-01	 1.025936e+00
1	 1.884869e+00	 3.955509e-01	 8.443879e-01
1	 1.880282e+00	 4.168113e-01	 6.811595e-01
1	 1.844122e+00	 4.087957e-01	 9.298079e-01
1	 1.839372e+00	 4.296638e-01	 7.329979e-01
1	 1.834369e+00	 4.505441e-01	 5.598690e-01
1	 1.829113e+00	 4.714324e-01	 4.093363e-01
1	 1.823600e+00	 4.923244e-01	 2.802091e-01
1	 1.817831e+00	 5.132156e-01	 1.711911e-01
1	 1.851354e+00	 4.103988e-01	 8.738902e-01
1	 1.846585e+00	 4.313487e-01	 6.870098e-01
1	 1.841563e+00	 4.523110e-01	 5.216618e-01
1	 1.836286e+00	 4.732812e-01	 3.769817e-01
1	 1.830752e+00	 4.942551e-01	 2.519951e-01
1	 1.824960e+00	 5.152282e-01	 1.456168e-01
1	 1.858586e+00	 4.120020e-01	 8.213946e-01
1	 1.853799e+00	 4.330337e-01	 6.448140e-01
1	 1.848757e+00	 4.540778e-01	 4.877054e-01
1	 1.843459e+00	 4.751299e-01	 3.493422e-01
1	 1.837903e+00	 4.961858e-01	 2.288934e-01
1	 1.832089e+00	 5.172409e-01	 1.254228e-01
1	 1.865818e+00	 4.136051e-01	 7.719905e-01
1	 1.861012e+00	 4.347187e-01	 6.058978e-01
1	 1.855950e+00	 4.558446e-01	 4.573860e-01
1	 1.850632e+00	 4.769787e-01	 3.257850e-01
1	 1.845054e+00	 4.981164e-01	 2.103358e-01
1	 1.839218e+00	 5.192535e-01	 1.101901e-01
1	 1.873050e+00	 4.152082e-01	 7.253523e-01
1	 1.868225e+00	 4.364036e-01	 5.697562e-01
1	 1.863144e+00	 4.576115e-01	 4.300991e-01
1	 1.857805e+00	 4.788274e-01	 3.056872e-01
1	 1.852206e+00	 5.000471e-01	 1.957631e-01
1	 1.846346e+00	 5.212661e-01	 9.950635e-02
1	 1.880282e+00	 4.168113e-01	 6.811595e-01
1	 1.875438e+00	 4.380886e-01	 5.358921e-01
1	 1.870337e+00	 4.593783e-01	 4.052498e-01
1	 1.864977e+00	 4.806762e-01	 2.884357e-01
1	 1.859357e+00	 5.019778e-01	 1.846248e-01
1	 1.853475e+00	 5.232787e-01	 9.296532e-02
1	 1.817831e+00	 5.132156e-01	 1.711911e-01
1	 1.811805e+00	 5.341017e-01	 8.337013e-02
1	 1.805519e+00	 5.549781e-01	 1.812773e-02
1	 1.798974e+00	 5.758403e-01	-2.552883e-02
1	 1.792169e+00	 5.966837e-01	-4.866872e-02
1	 1.785102e+00	 6.175037e-01	-5.243697e-02
1	 1.824960e+00	 5.152282e-01	 1.456168e-01
1	 1.818910e+00	 5.361962e-01	 5.924612e-02
1	 1.812600e+00	 5.571545e-01	-5.449782e-03
1	 1.806029e+00	 5.780985e-01	-4.929457e-02
1	 1.799197e+00	 5.990237e-01	-7.318687e-02
1	 1.792103e+00	 6.199253e-01	-7.810016e-02
1	 1.832089e+00	 5.172409e-01	 1.254228e-01
1	 1.826015e+00	 5.382907e-01	 4.060319e-02
1	 1.819680e+00	 5.593309e-01	-2.358773e-02
1	 1.813084e+00	 5.803567e-01	-6.776752e-02
1	 1.806225e+00	 6.013636e-01	-9.263309e-02
1	 1.799103e+00	 6.223469e-01	-9.896102e-02
1	 1.839218e+00	 5.192535e-01	 1.101901e-01
1	 1.833120e+00	 5.403852e-01	 2.719200e-02
1	 1.826761e+00	 5.615073e-01	-3.640997e-02
1	 1.820139e+00	 5.826149e-01	-8.099075e-02
1	 1.813253e+00	 6.037035e-01	-1.070147e-01
1	 1.806104e+00	 6.247685e-01	-1.150367e-01
1	 1.846346e+00	 5.212661e-01	 9.950635e-02
1	 1.840225e+00	 5.424798e-01	 1.876709e-02
1	 1.833841e+00	 5.636836e-01	-4.403844e-02
1	 1.827194e+00	 5.848731e-01	-8.900662e-02
1	 1.820281e+00	 6.060435e-01	-1.163390e-01
1	 1.813104e+00	 6.271901e-01	-1.263440e-01
1	 1.853475e+00	 5.232787e-01	 9.296532e-02
1	 1.847330e+00	 5.445743e-01	 1.508676e-02
1	 1.840922e+00	 5.658600e-01	-4.659322e-02
1	 1.834248e+00	 5.871313e-01	-9.185689e-02
1	 1.827310e+00	 6.083834e-01	-1.206129e-01
1	 1.820104e+00	 6.296116e-01	-1.328995e-01
1	 1.785102e+00	 6.175037e-01	-5.243697e-02
1	 1.777774e+00	 6.382956e-01	-4.017826e-02
1	 1.770183e+00	 6.590548e-01	-1.683198e-02
1	 1.762330e+00	 6.797763e-01	 1.399687e-02
1	 1.754213e+00	 7.004556e-01	 4.869347e-02
1	 1.745833e+00	 7.210877e-01	 8.364001e-02
1	 1.792103e+00	 6.199253e-01	-7.810016e-02
1	 1.784746e+00	 6.407988e-01	-6.698246e-02
1	 1.777125e+00	 6.616393e-01	-4.451862e-02
1	 1.769241e+00	 6.824421e-01	-1.435719e-02
1	 1.761092e+00	 7.032025e-01	 1.984017e-02
1	 1.752680e+00	 7.239155e-01	 5.440562e-02
1	 1.799103e+00	 6.223469e-01	-9.896102e-02
1	 1.791717e+00	 6.433019e-01	-8.927616e-02
1	 1.784067e+00	 6.642238e-01	-6.799204e-02
1	 1.776152e+00	 6.851079e-01	-3.879347e-02
1	 1.767972e+00	 7.059494e-01	-5.380111e-03
1	 1.759526e+00	 7.267433e-01	 2.854061e-02
1	 1.806104e+00	 6.247685e-01	-1.150367e-01
1	 1.798689e+00	 6.458050e-01	-1.071038e-01
1	 1.791009e+00	 6.668083e-01	-8.731329e-02
1	 1.783063e+00	 6.877737e-01	-5.937909e-02
1	 1.774851e+00	 7.086962e-01	-2.703000e-02
1	 1.766372e+00	 7.295711e-01	 5.997302e-03
1	 1.813104e+00	 6.271901e-01	-1.263440e-01
1	 1.805661e+00	 6.483081e-01	-1.205090e-01
1	 1.797951e+00	 6.693929e-01	-1.025425e-01
1	 1.789974e+00	 6.904395e-01	-7.618010e-02
1	 1.781730e+00	 7.114431e-01	-4.517113e-02
1	 1.773219e+00	 7.323989e-01	-1.327128e-02
1	 1.820104e+00	 6.296116e-01	-1.328995e-01
1	 1.812632e+00	 6.508112e-01	-1.295350e-01
1	 1.804893e+00	 6.719774e-01	-1.137389e-01
1	 1.796885e+00	 6.931053e-01	-8.926155e-02
1	 1.788609e+00	 7.141900e-01	-5.986423e-02
1	 1.780065e+00	 7.352267e-01	-2.931137e-02
1	 1.745833e+00	 7.210877e-01	 8.364001e-02
1	 1.737190e+00	 7.416679e-01	 1.141069e-01
1	 1.728284e+00	 7.621913e-01	 1.365880e-01
1	 1.719115e+00	 7.826530e-01	 1.494222e-01
1	 1.709683e+00	 8.030481e-01	 1.511118e-01
1	 1.699988e+00	 8.233717e-01	 1.403284e-01
1	 1.752680e+00	 7.239155e-01	 5.440562e-02
1	 1.744003e+00	 7.445764e-01	 8.500149e-02
1	 1.735062e+00	 7.651803e-01	 1.086241e-01
1	 1.725856e+00	 7.857222e-01	 1.237160e-01
1	 1.716387e+00	 8.061973e-01	 1.288701e-01
1	 1.706655e+00	 8.266006e-01	 1.228355e-01
1	 1.759526e+00	 7.267433e-01	 2.854061e-02
1	 1.750815e+00	 7.474849e-01	 5.898997e-02
1	 1.741839e+00	 7.681692e-01	 8.342355e-02
1	 1.732598e+00	 7.887914e-01	 1.003833e-01
1	 1.723092e+00	 8.093465e-01	 1.085475e-01
1	 1.713322e+00	 8.298295e-01	 1.067361e-01
1	 1.766372e+00	 7.295711e-01	 5.997302e-03
1	 1.757628e+00	 7.503934e-01	 3.604138e-02
1	 1.748617e+00	 7.711582e-01	 6.096549e-02
1	 1.739340e+00	 7.918606e-01	 7.940673e-02
1	 1.729797e+00	 8.124957e-01	 9.012360e-02
1	 1.719988e+00	 8.330584e-01	 9.200033e-02
1	 1.773219e+00	 7.323989e-01	-1.327128e-02
1	 1.764440e+00	 7.533019e-01	 1.612527e-02
1	 1.755394e+00	 7.741472e-01	 4.122942e-02
1	 1.746081e+00	 7.949299e-01	 6.076930e-02
1	 1.736501e+00	 8.156449e-01	 7.357819e-02
1	 1.726655e+00	 8.362873e-01	 7.859854e-02
1	 1.780065e+00	 7.352267e-01	-2.931137e-02
1	 1.771253e+00	 7.562104e-01	-7.883596e-04
1	 1.762172e+00	 7.771362e-01	 2.419517e-02
1	 1.752823e+00	 7.979991e-01	 4.445416e-02
1	 1.743206e+00	 8.187941e-01	 5.889152e-02
1	 1.733321e+00	 8.395162e-01	 6.650165e-02
1	 1.699988e+00	 8.233717e-01	 1.403284e-01
1	 1.690032e+00	 8.436189e-01	 1.117265e-01
1	 1.679815e+00	 8.637848e-01	 6.176397e-02
1	 1.669337e+00	 8.838645e-01	-7.959456e-03
1	 1.658599e+00	 9.038530e-01	-9.572055e-02
1	 1.647603e+00	 9.237454e-01	-1.996746e-01
1	 1.706655e+00	 8.266006e-01	 1.228355e-01
1	 1.696660e+00	 8.469272e-01	 1.000755e-01
1	 1.686402e+00	 8.671722e-01	 5.678390e-02
1	 1.675883e+00	 8.873306e-01	-5.479572e-03
1	 1.665103e+00	 9.073975e-01	-8.502826e-02
1	 1.654064e+00	 9.273679e-01	-1.800504e-01
1	 1.713322e+00	 8.298295e-01	 1.067361e-01
1	 1.703287e+00	 8.502355e-01	 8.927743e-02
1	 1.692990e+00	 8.705596e-01	 5.215262e-02
1	 1.682429e+00	 8.907967e-01	-3.132203e-03
1	 1.671608e+00	 9.109420e-01	-7.494067e-02
1	 1.660525e+00	 9.309905e-01	-1.615077e-01
1	 1.719988e+00	 8.330584e-01	 9.200033e-02
1	 1.709915e+00	 8.535438e-01	 7.928946e-02
1	 1.699577e+00	 8.739470e-01	 4.781473e-02
1	 1.688976e+00	 8.942629e-01	-9.850162e-04
1	 1.678112e+00	 9.144865e-01	-6.553723e-02
1	 1.666987e+00	 9.346130e-01	-1.441371e-01
1	 1.726655e+00	 8.362873e-01	 7.859854e-02
1	 1.716542e+00	 8.568521e-01	 7.006948e-02
1	 1.706165e+00	 8.773344e-01	 4.371568e-02
1	 1.695522e+00	 8.977290e-01	 8.953662e-04
1	 1.684616e+00	 9.180311e-01	-5.689615e-02
1	 1.673448e+00	 9.382355e-01	-1.280278e-01
1	 1.733321e+00	 8.395162e-01	 6.650165e-02
1	 1.723170e+00	 8.601604e-01	 6.157600e-02
1	 1.712752e+00	 8.807218e-01	 3.980177e-02
1	 1.702069e+00	 9.011951e-01	 2.443347e-03
1	 1.691121e+00	 9.215756e-01	-4.909448e-02
1	 1.679909e+00	 9.418580e-01	-1.132676e-01
1	 1.647603e+00	 9.237454e-01	-1.996746e-01
1	 1.636349e+00	 9.435368e-01	-3.216508e-01
1	 1.624840e+00	 9.632224e-01	-4.632591e-01
1	 1.613075e+00	 9.827972e-01	-6.220626e-01
1	 1.601057e+00	 1.002256e+00	-7.953943e-01
1	 1.588787e+00	 1.021595e+00	-9.803602e-01
1	 1.654064e+00	 9.273679e-01	-1.800504e-01
1	 1.642766e+00	 9.472370e-01	-2.920692e-01
1	 1.631212e+00	 9.669997e-01	-4.224705e-01
1	 1.619401e+00	 9.866513e-01	-5.689777e-01
1	 1.607336e+00	 1.006187e+00	-7.290932e-01
1	 1.595018e+00	 1.025601e+00	-9.001013e-01
1	 1.660525e+00	 9.309905e-01	-1.615077e-01
1	 1.649184e+00	 9.509371e-01	-2.640992e-01
1	 1.637583e+00	 9.707771e-01	-3.839032e-01
1	 1.625727e+00	 9.905054e-01	-5.187827e-01
1	 1.613614e+00	 1.010117e+00	-6.663879e-01
1	 1.601248e+00	 1.029608e+00	-8.241582e-01
1	 1.666987e+00	 9.346130e-01	-1.441371e-01
1	 1.655601e+00	 9.546373e-01	-2.378388e-01
1	 1.643955e+00	 9.745544e-01	-3.476562e-01
1	 1.632052e+00	 9.943595e-01	-4.715712e-01
1	 1.619893e+00	 1.014048e+00	-6.073600e-01
1	 1.607479e+00	 1.033614e+00	-7.525953e-01
1	 1.673448e+00	 9.382355e-01	-1.280278e-01
1	 1.662018e+00	 9.583374e-01	-2.133845e-01
1	 1.650327e+00	 9.783318e-01	-3.138266e-01
1	 1.638378e+00	 9.982136e-01	-4.274349e-01
1	 1.626172e+00	 1.017978e+00	-5.520903e-01
1	 1.613709e+00	 1.037620e+00	-6.854760e-01
1	 1.679909e+00	 9.418580e-01	-1.132676e-01
1	 1.668435e+00	 9.620375e-01	-1.908314e-01
1	 1.656699e+00	 9.821091e-01	-2.825105e-01
1	 1.644704e+00	 1.002068e+00	-3.864644e-01
1	 1.632450e+00	 1.021908e+00	-5.006579e-01
1	 1.619940e+00	 1.041626e+00	-6.228626e-01
1	 1.588787e+00	 1.021595e+00	-9.803602e-01
1	 1.576267e+00	 1.040808e+00	-1.162105e+00
1	 1.563499e+00	 1.059892e+00	-1.326690e+00
1	 1.550485e+00	 1.078840e+00	-1.472443e+00
1	 1.537227e+00	 1.097650e+00	-1.597713e+00
1	 1.523727e+00	 1.116314e+00	-1.700873e+00
1	 1.595018e+00	 1.025601e+00	-9.001013e-01
1	 1.582449e+00	 1.044890e+00	-1.067978e+00
1	 1.569631e+00	 1.064048e+00	-1.219446e+00
1	 1.556566e+00	 1.083071e+00	-1.352757e+00
1	 1.543255e+00	 1.101954e+00	-1.466176e+00
1	 1.529702e+00	 1.120692e+00	-1.557989e+00
1	 1.601248e+00	 1.029608e+00	-8.241582e-01
1	 1.588630e+00	 1.048972e+00	-9.788519e-01
1	 1.575762e+00	 1.068205e+00	-1.117849e+00
1	 1.562646e+00	 1.087302e+00	-1.239373e+00
1	 1.549284e+00	 1.106259e+00	-1.341658e+00
1	 1.535678e+00	 1.125070e+00	-1.422955e+00
1	 1.607479e+00	 1.033614e+00	-7.525953e-01
1	 1.594812e+00	 1.053053e+00	-8.947772e-01
1	 1.581894e+00	 1.072361e+00	-1.021950e+00
1	 1.568726e+00	 1.091533e+00	-1.132356e+00
1	 1.555312e+00	 1.110563e+00	-1.224251e+00
1	 1.541653e+00	 1.129448e+00	-1.295900e+00
1	 1.613709e+00	 1.037620e+00	-6.854760e-01
1	 1.600993e+00	 1.057135e+00	-8.158043e-01
1	 1.588025e+00	 1.076518e+00	-9.317995e-01
1	 1.574807e+00	 1.095763e+00	-1.031772e+00
1	 1.561340e+00	 1.114868e+00	-1.114044e+00
1	 1.547628e+00	 1.133825e+00	-1.176952e+00
1	 1.619940e+00	 1.041626e+00	-6.228626e-01
1	 1.607175e+00	 1.061216e+00	-7.419830e-01
1	 1.594156e+00	 1.080674e+00	-8.474481e-01
1	 1.580887e+00	 1.099994e+00	-9.376828e-01
1	 1.567369e+00	 1.119172e+00	-1.011127e+00
1	 1.553604e+00	 1.138203e+00	-1.066237e+00
1	 1.523727e+00	 1.116314e+00	-1.700873e+00
1	 1.509987e+00	 1.134831e+00	-1.776014e+00
1	 1.496010e+00	 1.153193e+00	-1.822936e+00
1	 1.481799e+00	 1.171398e+00	-1.849037e+00
1	 1.467355e+00	 1.189441e+00	-1.862298e+00
1	 1.452683e+00	 1.207317e+00	-1.871274e+00
1	 1.529702e+00	 1.120692e+00	-1.557989e+00
1	 1.515909e+00	 1.139281e+00	-1.623832e+00
1	 1.501877e+00	 1.157716e+00	-1.664674e+00
1	 1.487610e+00	 1.175992e+00	-1.687224e+00
1	 1.473110e+00	 1.194105e+00	-1.698729e+00
1	 1.458380e+00	 1.212051e+00	-1.706965e+00
1	 1.535678e+00	 1.125070e+00	-1.422955e+00
1	 1.521830e+00	 1.143731e+00	-1.480337e+00
1	 1.507744e+00	 1.162238e+00	-1.515770e+00
1	 1.493421e+00	 1.180586e+00	-1.535228e+00
1	 1.478864e+00	 1.198770e+00	-1.545177e+00
1	 1.464076e+00	 1.216786e+00	-1.552557e+00
1	 1.541653e+00	 1.129448e+00	-1.295900e+00
1	 1.527752e+00	 1.148182e+00	-1.345694e+00
1	 1.513610e+00	 1.166760e+00	-1.376409e+00
1	 1.499232e+00	 1.185180e+00	-1.393238e+00
1	 1.484618e+00	 1.203434e+00	-1.401814e+00
1	 1.469773e+00	 1.221521e+00	-1.408195e+00
1	 1.547628e+00	 1.133825e+00	-1.176952e+00
1	 1.533673e+00	 1.152632e+00	-1.220066e+00
1	 1.519477e+00	 1.171283e+00	-1.246771e+00
1	 1.505043e+00	 1.189773e+00	-1.261437e+00
1	 1.490373e+00	 1.208099e+00	-1.268813e+00
1	 1.475470e+00	 1.226255e+00	-1.274024e+00
1	 1.553604e+00	 1.138203e+00	-1.066237e+00
1	 1.539595e+00	 1.157082e+00	-1.103613e+00
1	 1.525344e+00	 1.175805e+00	-1.127036e+00
1	 1.510853e+00	 1.194367e+00	-1.140005e+00
1	 1.496127e+00	 1.212763e+00	-1.146341e+00
1	 1.481167e+00	 1.230990e+00	-1.150185e+00
1	 1.452683e+00	 1.207317e+00	-1.871274e+00
1	 1.437784e+00	 1.225022e+00	-1.873503e+00
1	 1.422662e+00	 1.242551e+00	-1.861743e+00
1	 1.407320e+00	 1.259901e+00	-1.837851e+00
1	 1.391761e+00	 1.277068e+00	-1.803765e+00
1	 1.375989e+00	 1.294046e+00	-1.761499e+00
1	 1.458380e+00	 1.212051e+00	-1.706965e+00
1	 1.443422e+00	 1.229826e+00	-1.707579e+00
1	 1.428241e+00	 1.247424e+00	-1.692456e+00
1	 1.412839e+00	 1.264842e+00	-1.664212e+00
1	 1.397219e+00	 1.282076e+00	-1.625583e+00
1	 1.381385e+00	 1.299121e+00	-1.579430e+00
1	 1.464076e+00	 1.216786e+00	-1.552557e+00
1	 1.449061e+00	 1.234630e+00	-1.551365e+00
1	 1.433820e+00	 1.252297e+00	-1.532876e+00
1	 1.418358e+00	 1.269783e+00	-1.500433e+00
1	 1.402677e+00	 1.287084e+00	-1.457547e+00
1	 1.386781e+00	 1.304196e+00	-1.407896e+00
1	 1.469773e+00	 1.221521e+00	-1.408195e+00
1	 1.454699e+00	 1.239434e+00	-1.404973e+00
1	 1.439399e+00	 1.257169e+00	-1.383077e+00
1	 1.423877e+00	 1.274724e+00	-1.346551e+00
1	 1.408135e+00	 1.292092e+00	-1.299656e+00
1	 1.392177e+00	 1.309270e+00	-1.246862e+00
1	 1.475470e+00	 1.226255e+00	-1.274024e+00
1	 1.460338e+00	 1.244238e+00	-1.268512e+00
1	 1.444978e+00	 1.262042e+00	-1.243132e+00
1	 1.429396e+00	 1.279664e+00	-1.202604e+00
1	 1.413593e+00	 1.297100e+00	-1.151913e+00
1	 1.397573e+00	 1.314345e+00	-1.096294e+00
1	 1.481167e+00	 1.230990e+00	-1.150185e+00
1	 1.465976e+00	 1.249042e+00	-1.142088e+00
1	 1.450558e+00	 1.266915e+00	-1.113112e+00
1	 1.434915e+00	 1.284605e+00	-1.068628e+00
1	 1.419051e+00	 1.302108e+00	-1.014317e+00
1	 1.402969e+00	 1.319420e+00	-9.561565e-01
1	 1.375989e+00	 1.294046e+00	-1.761499e+00
1	 1.360006e+00	 1.310833e+00	-1.731878e+00
1	 1.343817e+00	 1.327425e+00	-1.733315e+00
1	 1.327425e+00	 1.343817e+00	-1.764167e+00
1	 1.310833e+00	 1.360006e+00	-1.822664e+00
1	 1.294046e+00	 1.375989e+00	-1.906914e+00
1	 1.381385e+00	 1.299121e+00	-1.579430e+00
1	 1.365340e+00	 1.315974e+00	-1.546595e+00
1	 1.349087e+00	 1.332630e+00	-1.544735e+00
1	 1.332630e+00	 1.349087e+00	-1.571911e+00
1	 1.315974e+00	 1.365340e+00	-1.626049e+00
1	 1.299121e+00	 1.381385e+00	-1.704943e+00
1	 1.386781e+00	 1.304196e+00	-1.407896e+00
1	 1.370673e+00	 1.321114e+00	-1.372179e+00
1	 1.354357e+00	 1.337836e+00	-1.367212e+00
1	 1.337836e+00	 1.354357e+00	-1.390857e+00
1	 1.321114e+00	 1.370673e+00	-1.440836e+00
1	 1.304196e+00	 1.386781e+00	-1.514735e+00
1	 1.392177e+00	 1.309270e+00	-1.246862e+00
1	 1.376006e+00	 1.326255e+00	-1.208573e+00
1	 1.359627e+00	 1.343042e+00	-1.200691e+00
1	 1.343042e+00	 1.359627e+00	-1.220978e+00
1	 1.326255e+00	 1.376006e+00	-1.267051e+00
1	 1.309270e+00	 1.392177e+00	-1.336390e+00
1	 1.397573e+00	 1.314345e+00	-1.096294e+00
1	 1.381340e+00	 1.331395e+00	-1.055718e+00
1	 1.364897e+00	 1.348247e+00	-1.045118e+00
1	 1.348247e+00	 1.364897e+00	-1.062248e+00
1	 1.331395e+00	 1.381340e+00	-1.104719e+00
1	 1.314345e+00	 1.397573e+00	-1.170007e+00
1	 1.402969e+00	 1.319420e+00	-9.561565e-01
1	 1.386673e+00	 1.336536e+00	-9.135594e-01
1	 1.370166e+00	 1.353453e+00	-9.004406e-01
1	 1.353453e+00	 1.370166e+00	-9.146410e-01
1	 1.336536e+00	 1.386673e+00	-9.538645e-01
1	 1.319420e+00	 1.402969e+00	-1.015684e+00
1	 1.294046e+00	 1.375989e+00	-1.906914e+00
1	 1.277068e+00	 1.391761e+00	-2.028792e+00
1	 1.259901e+00	 1.407320e+00	-2.199042e+00
1	 1.242551e+00	 1.422662e+00	-2.413859e+00
1	 1.225022e+00	 1.437784e+00	-2.669280e+00
1	 1.207317e+00	 1.452683e+00	-2.961195e+00
1	 1.299121e+00	 1.381385e+00	-1.704943e+00
1	 1.282076e+00	 1.397219e+00	-1.820064e+00
1	 1.264842e+00	 1.412839e+00	-1.982004e+00
1	 1.247424e+00	 1.428241e+00	-2.187004e+00
1	 1.229826e+00	 1.443422e+00	-2.431142e+00
1	 1.212051e+00	 1.458380e+00	-2.710334e+00
1	 1.304196e+00	 1.386781e+00	-1.514735e+00
1	 1.287084e+00	 1.402677e+00	-1.623674e+00
1	 1.269783e+00	 1.418358e+00	-1.778018e+00
1	 1.252297e+00	 1.433820e+00	-1.973973e+00
1	 1.234630e+00	 1.449061e+00	-2.207561e+00
1	 1.216786e+00	 1.464076e+00	-2.474632e+00
1	 1.309270e+00	 1.392177e+00	-1.336390e+00
1	 1.292092e+00	 1.408135e+00	-1.439793e+00
1	 1.274724e+00	 1.423877e+00	-1.587297e+00
1	 1.257169e+00	 1.439399e+00	-1.774986e+00
1	 1.239434e+00	 1.454699e+00	-1.998741e+00
1	 1.221521e+00	 1.469773e+00	-2.254248e+00
1	 1.314345e+00	 1.397573e+00	-1.170007e+00
1	 1.297100e+00	 1.413593e+00	-1.268586e+00
1	 1.279664e+00	 1.429396e+00	-1.410046e+00
1	 1.262042e+00	 1.444978e+00	-1.590261e+00
1	 1.244238e+00	 1.460338e+00	-1.804881e+00
1	 1.226255e+00	 1.475470e+00	-2.049338e+00
1	 1.319420e+00	 1.402969e+00	-1.015684e+00
1	 1.302108e+00	 1.419051e+00	-1.110221e+00
1	 1.284605e+00	 1.434915e+00	-1.246468e+00
1	 1.266915e+00	 1.450558e+00	-1.420011e+00
1	 1.249042e+00	 1.465976e+00	-1.626178e+00
1	 1.230990e+00	 1.481167e+00	-1.860056e+00
1	 1.207317e+00	 1.452683e+00	-2.961195e+00
1	 1.189441e+00	 1.467355e+00	-3.276097e+00
1	 1.171398e+00	 1.481799e+00	-3.598413e+00
1	 1.153193e+00	 1.496010e+00	-3.920550e+00
1	 1.134831e+00	 1.509987e+00	-4.234555e+00
1	 1.116314e+00	 1.523727e+00	-4.532138e+00
1	 1.212051e+00	 1.458380e+00	-2.710334e+00
1	 1.194105e+00	 1.473110e+00	-3.010340e+00
1	 1.175992e+00	 1.487610e+00	-3.315260e+00
1	 1.157716e+00	 1.501877e+00	-3.618147e+00
1	 1.139281e+00	 1.515909e+00	-3.911728e+00
1	 1.120692e+00	 1.529702e+00	-4.188416e+00
1	 1.216786e+00	 1.464076e+00	-2.474632e+00
1	 1.198770e+00	 1.478864e+00	-2.760287e+00
1	 1.180586e+00	 1.493421e+00	-3.048432e+00
1	 1.162238e+00	 1.507744e+00	-3.332764e+00
1	 1.143731e+00	 1.521830e+00	-3.606684e+00
1	 1.125070e+00	 1.535678e+00	-3.863310e+00
1	 1.221521e+00	 1.469773e+00	-2.254248e+00
1	 1.203434e+00	 1.484618e+00	-2.526043e+00
1	 1.185180e+00	 1.499232e+00	-2.797992e+00
1	 1.166760e+00	 1.513610e+00	-3.064428e+00
1	 1.148182e+00	 1.527752e+00	-3.319425e+00
1	 1.129448e+00	 1.541653e+00	-3.556803e+00
1	 1.226255e+00	 1.475470e+00	-2.049338e+00
1	 1.208099e+00	 1.490373e+00	-2.307712e+00
1	 1.189773e+00	 1.505043e+00	-2.563999e+00
1	 1.171283e+00	 1.519477e+00	-2.813165e+00
1	 1.152632e+00	 1.533673e+00	-3.049950e+00
1	 1.133825e+00	 1.547628e+00	-3.268878e+00
1	 1.230990e+00	 1.481167e+00	-1.860056e+00
1	 1.212763e+00	 1.496127e+00	-2.105397e+00
1	 1.194367e+00	 1.510853e+00	-2.346513e+00
1	 1.175805e+00	 1.525344e+00	-2.578999e+00
1	 1.157082e+00	 1.539595e+00	-2.798261e+00
1	 1.138203e+00	 1.553604e+00	-2.999521e+00
1	 1.116314e+00	 1.523727e+00	-4.532138e+00
1	 1.097650e+00	 1.537227e+00	-4.806099e+00
1	 1.078840e+00	 1.550485e+00	-5.052661e+00
1	 1.059892e+00	 1.563499e+00	-5.268409e+00
1	 1.040808e+00	 1.576267e+00	-5.449923e+00
1	 1.021595e+00	 1.588787e+00	-5.593783e+00
1	 1.120692e+00	 1.529702e+00	-4.188416e+00
1	 1.101954e+00	 1.543255e+00	-4.442517e+00
1	 1.083071e+00	 1.556566e+00	-4.671114e+00
1	 1.064048e+00	 1.569631e+00	-4.870550e+00
1	 1.044890e+00	 1.582449e+00	-5.037150e+00
1	 1.025601e+00	 1.595018e+00	-5.167230e+00
1	 1.125070e+00	 1.535678e+00	-3.863310e+00
1	 1.106259e+00	 1.549284e+00	-4.098320e+00
1	 1.087302e+00	 1.562646e+00	-4.309558e+00
1	 1.068205e+00	 1.575762e+00	-4.493165e+00
1	 1.048972e+00	 1.588630e+00	-4.645255e+00
1	 1.029608e+00	 1.601248e+00	-4.761923e+00
1	 1.129448e+00	 1.541653e+00	-3.556803e+00
1	 1.110563e+00	 1.555312e+00	-3.773481e+00
1	 1.091533e+00	 1.568726e+00	-3.967960e+00
1	 1.072361e+00	 1.581894e+00	-4.136220e+00
1	 1.053053e+00	 1.594812e+00	-4.274206e+00
1	 1.033614e+00	 1.607479e+00	-4.377836e+00
1	 1.133825e+00	 1.547628e+00	-3.268878e+00
1	 1.114868e+00	 1.561340e+00	-3.467975e+00
1	 1.095763e+00	 1.574807e+00	-3.646288e+00
1	 1.076518e+00	 1.588025e+00	-3.799682e+00
1	 1.057135e+00	 1.600993e+00	-3.923974e+00
1	 1.037620e+00	 1.613709e+00	-4.014944e+00
1	 1.138203e+00	 1.553604e+00	-2.999521e+00
1	 1.119172e+00	 1.567369e+00	-3.181775e+00
1	 1.099994e+00	 1.580887e+00	-3.344511e+00
1	 1.080674e+00	 1.594156e+00	-3.483518e+00
1	 1.061216e+00	 1.607175e+00	-3.594527e+00
1	 1.041626e+00	 1.619940e+00	-3.673222e+00
1	 1.021595e+00	 1.588787e+00	-5.593783e+00
1	 1.002256e+00	 1.601057e+00	-5.684162e+00
1	 9.827972e-01	 1.613075e+00	-5.710817e+00
1	 9.632224e-01	 1.624840e+00	-5.678873e+00
1	 9.435368e-01	 1.636349e+00	-5.593664e+00
1	 9.237454e-01	 1.647603e+00	-5.460717e+00
1	 1.025601e+00	 1.595018e+00	-5.167230e+00
1	 1.006187e+00	 1.607336e+00	-5.245562e+00
1	 9.866513e-01	 1.619401e+00	-5.262672e+00
1	 9.669997e-01	 1.631212e+00	-5.223666e+00
1	 9.472370e-01	 1.642766e+00	-5.133854e+00
1	 9.273679e-01	 1.654064e+00	-4.998737e+00
1	 1.029608e+00	 1.601248e+00	-4.761923e+00
1	 1.010117e+00	 1.613614e+00	-4.828593e+00
1	 9.905054e-01	 1.625727e+00	-4.836571e+00
1	 9.707771e-01	 1.637583e+00	-4.790925e+00
1	 9.509371e-01	 1.649184e+00	-4.696920e+00
1	 9.309905e-01	 1.660525e+00	-4.560011e+00
1	 1.033614e+00	 1.607479e+00	-4.377836e+00
1	 1.014048e+00	 1.619893e+00	-4.433234e+00
1	 9.943595e-01	 1.632052e+00	-4.432494e+00
1	 9.745544e-01	 1.643955e+00	-4.380625e+00
1	 9.546373e-01	 1.655601e+00	-4.282831e+00
1	 9.346130e-01	 1.666987e+00	-4.144497e+00
1	 1.037620e+00	 1.613709e+00	-4.014944e+00
1	 1.017978e+00	 1.626172e+00	-4.059464e+00
1	 9.982136e-01	 1.638378e+00	-4.050420e+00
1	 9.783318e-01	 1.650327e+00	-3.992743e+00
1	 9.583374e-01	 1.662018e+00	-3.891554e+00
1	 9.382355e-01	 1.673448e+00	-3.752153e+00
1	 1.041626e+00	 1.619940e+00	-3.673222e+00
1	 1.021908e+00	 1.632450e+00	-3.707262e+00
1	 1.002068e+00	 1.644704e+00	-3.690328e+00
1	 9.821091e-01	 1.656699e+00	-3.627254e+00
1	 9.620375e-01	 1.668435e+00	-3.523060e+00
1	 9.418580e-01	 1.679909e+00	-3.382938e+00
1	 9.237454e-01	 1.647603e+00	-5.460717e+00
1	 9.038530e-01	 1.658599e+00	-5.288295e+00
1	 8.838645e-01	 1.669337e+00	-5.081005e+00
1	 8.637848e-01	 1.679815e+00	-4.839059e+00
1	 8.436189e-01	 1.690032e+00	-4.562693e+00
1	 8.233717e-01	 1.699988e+00	-4.252176e+00
1	 9.273679e-01	 1.654064e+00	-4.998737e+00
1	 9.073975e-01	 1.665103e+00	-4.826031e+00
1	 8.873306e-01	 1.675883e+00	-4.619968e+00
1	 8.671722e-01	 1.686402e+00	-4.380977e+00
1	 8.469272e-01	 1.696660e+00	-4.109521e+00
1	 8.266006e-01	 1.706655e+00	-3.806091e+00
1	 9.309905e-01	 1.660525e+00	-4.560011e+00
1	 9.109420e-01	 1.671608e+00	-4.387384e+00
1	 8.907967e-01	 1.682429e+00	-4.182937e+00
1	 8.705596e-01	 1.692990e+00	-3.947349e+00
1	 8.502355e-01	 1.703287e+00	-3.681332e+00
1	 8.298295e-01	 1.713322e+00	-3.385630e+00
1	 9.346130e-01	 1.666987e+00	-4.144497e+00
1	 9.144865e-01	 1.678112e+00	-3.972303e+00
1	 8.942629e-01	 1.688976e+00	-3.769866e+00
1	 8.739470e-01	 1.699577e+00	-3.538139e+00
1	 8.535438e-01	 1.709915e+00	-3.278111e+00
1	 8.330584e-01	 1.719988e+00	-2.990809e+00
1	 9.382355e-01	 1.673448e+00	-3.752153e+00
1	 9.180311e-01	 1.684616e+00	-3.580739e+00
1	 8.977290e-01	 1.695522e+00	-3.380708e+00
1	 8.773344e-01	 1.706165e+00	-3.153312e+00
1	 8.568521e-01	 1.716542e+00	-2.899847e+00
1	 8.362873e-01	 1.726655e+00	-2.621648e+00
1	 9.418580e-01	 1.679909e+00	-3.382938e+00
1	 9.215756e-01	 1.691121e+00	-3.212644e+00
1	 9.011951e-01	 1.702069e+00	-3.015418e+00
1	 8.807218e-01	 1.712752e+00	-2.792837e+00
1	 8.601604e-01	 1.723170e+00	-2.546528e+00
1	 8.395162e-01	 1.733321e+00	-2.278163e+00
1	 8.233717e-01	 1.699988e+00	-4.252176e+00
1	 8.030481e-01	 1.709683e+00	-3.906973e+00
1	 7.826530e-01	 1.719115e+00	-3.535175e+00
1	 7.621913e-01	 1.728284e+00	-3.150171e+00
1	 7.416679e-01	 1.737190e+00	-2.765547e+00
1	 7.210877e-01	 1.745833e+00	-2.395055e+00
1	 8.266006e-01	 1.706655e+00	-3.806091e+00
1	 8.061973e-01	 1.716387e+00	-3.471237e+00
1	 7.857222e-01	 1.725856e+00	-3.113229e+00
1	 7.651803e-01	 1.735062e+00	-2.744317e+00
1	 7.445764e-01	 1.744003e+00	-2.376930e+00
1	 7.239155e-01	 1.752680e+00	-2.023652e+00
1	 8.298295e-01	 1.713322e+00	-3.385630e+00
1	 8.093465e-01	 1.723092e+00	-3.061799e+00
1	 7.887914e-01	 1.732598e+00	-2.718210e+00
1	 7.681692e-01	 1.741839e+00	-2.365994e+00
1	 7.474849e-01	 1.750815e+00	-2.016449e+00
1	 7.267433e-01	 1.759526e+00	-1.681009e+00
1	 8.330584e-01	 1.719988e+00	-2.990809e+00
1	 8.124957e-01	 1.729797e+00	-2.678708e+00
1	 7.918606e-01	 1.739340e+00	-2.350188e+00
1	 7.711582e-01	 1.748617e+00	-2.015286e+00
1	 7.503934e-01	 1.757628e+00	-1.684188e+00
1	 7.295711e-01	 1.766372e+00	-1.367205e+00
1	 8.362873e-01	 1.726655e+00	-2.621648e+00
1	 8.156449e-01	 1.736501e+00	-2.322012e+00
1	 7.949299e-01	 1.746081e+00	-2.009231e+00
1	 7.741472e-01	 1.755394e+00	-1.692273e+00
1	 7.533019e-01	 1.764440e+00	-1.380234e+00
1	 7.323989e-01	 1.773219e+00	-1.082317e+00
1	 8.395162e-01	 1.733321e+00	-2.278163e+00
1	 8.187941e-01	 1.743206e+00	-1.991758e+00
1	 7.979991e-01	 1.752823e+00	-1.695410e+00
1	 7.771362e-01	 1.762172e+00	-1.397038e+00
1	 7.562104e-01	 1.771253e+00	-1.104669e+00
1	 7.352267e-01	 1.780065e+00	-8.264232e-01
1	 7.210877e-01	 1.745833e+00	-2.395055e+00
1	 7.004556e-01	 1.754213e+00	-2.045877e+00
1	 6.797763e-01	 1.762330e+00	-1.726856e+00
1	 6.590548e-01	 1.770183e+00	-1.454363e+00
1	 6.382956e-01	 1.777774e+00	-1.244780e+00
1	 6.175037e-01	 1.785102e+00	-1.114464e+00
1	 7.239155e-01	 1.752680e+00	-2.023652e+00
1	 7.032025e-01	 1.761092e+00	-1.690704e+00
1	 6.824421e-01	 1.769241e+00	-1.386823e+00
1	 6.616393e-01	 1.777125e+00	-1.128498e+00
1	 6.407988e-01	 1.784746e+00	-9.322289e-01
1	 6.199253e-01	 1.792103e+00	-8.144995e-01
1	 7.267433e-01	 1.759526e+00	-1.681009e+00
1	 7.059494e-01	 1.767972e+00	-1.365042e+00
1	 6.851079e-01	 1.776152e+00	-1.077267e+00
1	 6.642238e-01	 1.784067e+00	-8.342779e-01
1	 6.433019e-01	 1.791717e+00	-6.526897e-01
1	 6.223469e-01	 1.799103e+00	-5.491052e-01
1	 7.295711e-01	 1.766372e+00	-1.367205e+00
1	 7.086962e-01	 1.774851e+00	-1.068965e+00
1	 6.877737e-01	 1.783063e+00	-7.982691e-01
1	 6.668083e-01	 1.791009e+00	-5.718081e-01
1	 6.458050e-01	 1.798689e+00	-4.063029e-01
1	 6.247685e-01	 1.806104e+00	-3.184709e-01
1	 7.323989e-01	 1.773219e+00	-1.082317e+00
1	 7.114431e-01	 1.781730e+00	-8.025458e-01
1	 6.904395e-01	 1.789974e+00	-5.499112e-01
1	 6.693929e-01	 1.797951e+00	-3.411914e-01
1	 6.483081e-01	 1.805661e+00	-1.932067e-01
1	 6.271901e-01	 1.813104e+00	-1.227836e-01
1	 7.352267e-01	 1.780065e+00	-8.264232e-01
1	 7.141900e-01	 1.788609e+00	-5.658566e-01
1	 6.931053e-01	 1.796885e+00	-3.322730e-01
1	 6.719774e-01	 1.804893e+00	-1.425292e-01
1	 6.508112e-01	 1.812632e+00	-1.353705e-02
1	 6.296116e-01	 1.820104e+00	 3.777266e-02
1	 6.175037e-01	 1.785102e+00	-1.114464e+00
1	 5.966837e-01	 1.792169e+00	-1.089914e+00
1	 5.758403e-01	 1.798974e+00	-1.187607e+00
1	 5.549781e-01	 1.805519e+00	-1.408731e+00
1	 5.341017e-01	 1.811805e+00	-1.754339e+00
1	 5.132156e-01	 1.817831e+00	-2.225346e+00
1	 6.199253e-01	 1.792103e+00	-8.144995e-01
1	 5.990237e-01	 1.799197e+00	-8.010823e-01
1	 5.780985e-01	 1.806029e+00	-9.070896e-01
1	 5.571545e-01	 1.812600e+00	-1.132882e+00
1	 5.361962e-01	 1.818910e+00	-1.478692e+00
1	 5.152282e-01	 1.824960e+00	-1.944623e+00
1	 6.223469e-01	 1.799103e+00	-5.491052e-01
1	 6.013636e-01	 1.806225e+00	-5.484541e-01
1	 5.803567e-01	 1.813084e+00	-6.641450e-01
1	 5.593309e-01	 1.819680e+00	-8.953734e-01
1	 5.382907e-01	 1.826015e+00	-1.241208e+00
1	 5.172409e-01	 1.832089e+00	-1.700597e+00
1	 6.247685e-01	 1.806104e+00	-3.184709e-01
1	 6.037035e-01	 1.813253e+00	-3.322461e-01
1	 5.826149e-01	 1.820139e+00	-4.589621e-01
1	 5.615073e-01	 1.826761e+00	-6.963134e-01
1	 5.403852e-01	 1.833120e+00	-1.041869e+00
1	 5.192535e-01	 1.839218e+00	-1.493078e+00
1	 6.271901e-01	 1.813104e+00	-1.227836e-01
1	 6.060435e-01	 1.820281e+00	-1.526723e-01
1	 5.848731e-01	 1.827194e+00	-2.917266e-01
1	 5.636836e-01	 1.833841e+00	-5.358098e-01
1	 5.424798e-01	 1.840225e+00	-8.806558e-01
1	 5.212661e-01	 1.846346e+00	-1.321880e+00
1	 6.296116e-01	 1.820104e+00	 3.777266e-02
1	 6.083834e-01	 1.827310e+00	-9.943016e-03
1	 5.871313e-01	 1.834248e+00	-1.626217e-01
1	 5.658600e-01	 1.840922e+00	-4.139681e-01
1	 5.445743e-01	 1.847330e+00	-7.575515e-01
1	 5.232787e-01	 1.853475e+00	-1.186821e+00
1	 5.132156e-01	 1.817831e+00	-2.225346e+00
1	 4.923244e-01	 1.823600e+00	-2.819578e+00
1	 4.714324e-01	 1.829113e+00	-3.536421e+00
1	 4.505441e-01	 1.834369e+00	-4.378897e+00
1	 4.296638e-01	 1.839372e+00	-5.349858e+00
1	 4.087957e-01	 1.844122e+00	-6.451982e+00
1	 5.152282e-01	 1.824960e+00	-1.944623e+00
1	 4.942551e-01	 1.830752e+00	-2.527568e+00
1	 4.732812e-01	 1.836286e+00	-3.225683e+00
1	 4.523110e-01	 1.841563e+00	-4.040747e+00
1	 4.313487e-01	 1.846585e+00	-4.974378e+00
1	 4.103988e-01	 1.851354e+00	-6.028025e+00
1	 5.172409e-01	 1.832089e+00	-1.700597e+00
1	 4.961858e-01	 1.837903e+00	-2.269318e+00
1	 4.751299e-01	 1.843459e+00	-2.944830e+00
1	 4.540778e-01	 1.848757e+00	-3.728397e+00
1	 4.330337e-01	 1.853799e+00	-4.621127e+00
1	 4.120020e-01	 1.858586e+00	-5.623977e+00
1	 5.192535e-01	 1.839218e+00	-1.493078e+00
1	 4.981164e-01	 1.845054e+00	-2.044496e+00
1	 4.769787e-01	 1.850632e+00	-2.693483e+00
1	 4.558446e-01	 1.855950e+00	-3.441501e+00
1	 4.347187e-01	 1.861012e+00	-4.289873e+00
1	 4.136051e-01	 1.865818e+00	-5.239780e+00
1	 5.212661e-01	 1.846346e+00	-1.321880e+00
1	 5.000471e-01	 1.852206e+00	-1.852778e+00
1	 4.788274e-01	 1.857805e+00	-2.471268e+00
1	 4.576115e-01	 1.863144e+00	-3.179721e+00
1	 4.364036e-01	 1.868225e+00	-3.980385e+00
1	 4.152082e-01	 1.873050e+00	-4.875380e+00
1	 5.232787e-01	 1.853475e+00	-1.186821e+00
1	 5.019778e-01	 1.859357e+00	-1.693845e+00
1	 4.806762e-01	 1.864977e+00	-2.277818e+00
1	 4.593783e-01	 1.870337e+00	-2.942723e+00
1	 4.380886e-01	 1.875438e+00	-3.692436e+00
1	 4.168113e-01	 1.880282e+00	-4.530719e+00
1	 4.087957e-01	 1.844122e+00	-6.451982e+00
1	 3.879441e-01	 1.848621e+00	-7.691158e+00
1	 3.671131e-01	 1.852871e+00	-9.050905e+00
1	 3.463068e-01	 1.856872e+00	-1.050028e+01
1	 3.255293e-01	 1.860627e+00	-1.200850e+01
1	 3.047844e-01	 1.864137e+00	-1.354496e+01
1	 4.103988e-01	 1.851354e+00	-6.028025e+00
1	 3.894655e-01	 1.855871e+00	-7.206361e+00
1	 3.685528e-01	 1.860137e+00	-8.494593e+00
1	 3.476649e-01	 1.864154e+00	-9.864926e+00
1	 3.268059e-01	 1.867923e+00	-1.128970e+01
1	 3.059796e-01	 1.871448e+00	-1.274144e+01
1	 4.120020e-01	 1.858586e+00	-5.623977e+00
1	 3.909868e-01	 1.863120e+00	-6.741041e+00
1	 3.699924e-01	 1.867403e+00	-7.959014e+00
1	 3.490230e-01	 1.871435e+00	-9.252705e+00
1	 3.280824e-01	 1.875220e+00	-1.059705e+01
1	 3.071749e-01	 1.878758e+00	-1.196714e+01
1	 4.136051e-01	 1.865818e+00	-5.239780e+00
1	 3.925082e-01	 1.870370e+00	-6.295314e+00
1	 3.714321e-01	 1.874669e+00	-7.444392e+00
1	 3.503810e-01	 1.878717e+00	-8.663893e+00
1	 3.293590e-01	 1.882516e+00	-9.930804e+00
1	 3.083701e-01	 1.886068e+00	-1.122227e+01
1	 4.152082e-01	 1.873050e+00	-4.875380e+00
1	 3.940295e-01	 1.877619e+00	-5.869293e+00
1	 3.728718e-01	 1.881935e+00	-6.950946e+00
1	 3.517391e-01	 1.885999e+00	-8.098755e+00
1	 3.306356e-01	 1.889813e+00	-9.291237e+00
1	 3.095653e-01	 1.893379e+00	-1.050705e+01
1	 4.168113e-01	 1.880282e+00	-4.530719e+00
1	 3.955509e-01	 1.884869e+00	-5.463091e+00
1	 3.743114e-01	 1.889201e+00	-6.478891e+00
1	 3.530972e-01	 1.893281e+00	-7.557554e+00
1	 3.319122e-01	 1.897110e+00	-8.678604e+00
1	 3.107606e-01	 1.900689e+00	-9.821685e+00
1	 3.047844e-01	 1.864137e+00	-1.354496e+01
1	 2.840761e-01	 1.867405e+00	-1.507944e+01
1	 2.634081e-01	 1.870432e+00	-1.658862e+01
1	 2.427843e-01	 1.873221e+00	-1.805269e+01
1	 2.222083e-01	 1.875773e+00	-1.945211e+01
1	 2.016836e-01	 1.878091e+00	-2.076766e+01
1	 3.059796e-01	 1.871448e+00	-1.274144e+01
1	 2.851901e-01	 1.874728e+00	-1.419275e+01
1	 2.644411e-01	 1.877767e+00	-1.562151e+01
1	 2.437364e-01	 1.880567e+00	-1.700852e+01
1	 2.230797e-01	 1.883129e+00	-1.833485e+01
1	 2.024745e-01	 1.885456e+00	-1.958185e+01
1	 3.071749e-01	 1.878758e+00	-1.196714e+01
1	 2.863041e-01	 1.882051e+00	-1.333793e+01
1	 2.654741e-01	 1.885102e+00	-1.468838e+01
1	 2.446885e-01	 1.887913e+00	-1.599997e+01
1	 2.239511e-01	 1.890485e+00	-1.725440e+01
1	 2.032654e-01	 1.892821e+00	-1.843368e+01
1	 3.083701e-01	 1.886068e+00	-1.122227e+01
1	 2.874181e-01	 1.889375e+00	-1.251511e+01
1	 2.665070e-01	 1.892437e+00	-1.378933e+01
1	 2.456406e-01	 1.895259e+00	-1.502708e+01
1	 2.248225e-01	 1.897841e+00	-1.621080e+01
1	 2.040564e-01	 1.900186e+00	-1.732317e+01
1	 3.095653e-01	 1.893379e+00	-1.050705e+01
1	 2.885322e-01	 1.896698e+00	-1.172447e+01
1	 2.675400e-01	 1.899773e+00	-1.292444e+01
1	 2.465927e-01	 1.902605e+00	-1.408992e+01
1	 2.256939e-01	 1.905197e+00	-1.520406e+01
1	 2.048473e-01	 1.907551e+00	-1.625031e+01
1	 3.107606e-01	 1.900689e+00	-9.821685e+00
1	 2.896462e-01	 1.904021e+00	-1.096613e+01
1	 2.685730e-01	 1.907108e+00	-1.209383e+01
1	 2.475448e-01	 1.909951e+00	-1.318854e+01
1	 2.265653e-01	 1.912553e+00	-1.423423e+01
1	 2.056382e-01	 1.914916e+00	-1.521512e+01
1	 2.016836e-01	 1.878091e+00	-2.076766e+01
1	 1.812139e-01	 1.880176e+00	-2.197897e+01
1	 1.608025e-01	 1.882032e+00	-2.307061e+01
1	 1.404528e-01	 1.883660e+00	-2.403121e+01
1	 1.201681e-01	 1.885063e+00	-2.484974e+01
1	 9.995171e-02	 1.886243e+00	-2.551549e+01
1	 2.024745e-01	 1.885456e+00	-1.958185e+01
1	 1.819245e-01	 1.887550e+00	-2.072994e+01
1	 1.614331e-01	 1.889412e+00	-2.176476e+01
1	 1.410036e-01	 1.891047e+00	-2.267600e+01
1	 1.206394e-01	 1.892455e+00	-2.345363e+01
1	 1.003437e-01	 1.893640e+00	-2.408795e+01
1	 2.032654e-01	 1.892821e+00	-1.843368e+01
1	 1.826351e-01	 1.894923e+00	-1.951906e+01
1	 1.620637e-01	 1.896793e+00	-2.049732e+01
1	 1.415544e-01	 1.898434e+00	-2.135922e+01
1	 1.211106e-01	 1.899847e+00	-2.209580e+01
1	 1.007356e-01	 1.901037e+00	-2.269837e+01
1	 2.040564e-01	 1.900186e+00	-1.732317e+01
1	 1.833458e-01	 1.902296e+00	-1.834633e+01
1	 1.626943e-01	 1.904173e+00	-1.926827e+01
1	 1.421052e-01	 1.905821e+00	-2.008087e+01
1	 1.215819e-01	 1.907240e+00	-2.077625e+01
1	 1.011276e-01	 1.908434e+00	-2.134680e+01
1	 2.048473e-01	 1.907551e+00	-1.625031e+01
1	 1.840564e-01	 1.909669e+00	-1.721175e+01
1	 1.633249e-01	 1.911554e+00	-1.807762e+01
1	 1.426560e-01	 1.913207e+00	-1.884095e+01
1	 1.220531e-01	 1.914632e+00	-1.949500e+01
1	 1.015196e-01	 1.915831e+00	-2.003326e+01
1	 2.056382e-01	 1.914916e+00	-1.521512e+01
1	 1.847671e-01	 1.917042e+00	-1.611533e+01
1	 1.639555e-01	 1.918934e+00	-1.692536e+01
1	 1.432068e-01	 1.920594e+00	-1.763946e+01
1	 1.225244e-01	 1.922025e+00	-1.825205e+01
1	 1.019115e-01	 1.923228e+00	-1.875779e+01
1	 9.995171e-02	 1.886243e+00	-2.551549e+01
1	 7.980665e-02	 1.887202e+00	-2.601457e+01
1	 5.973601e-02	 1.887944e+00	-2.632616e+01
1	 3.974277e-02	 1.888471e+00	-2.642984e+01
1	 1.982983e-02	 1.888785e+00	-2.630575e+01
1	 0.000000e+00	 1.888889e+00	-2.593459e+01
1	 1.003437e-01	 1.893640e+00	-2.408795e+01
1	 8.011962e-02	 1.894603e+00	-2.456581e+01
1	 5.997027e-02	 1.895348e+00	-2.486701e+01
1	 3.989862e-02	 1.895877e+00	-2.497181e+01
1	 1.990759e-02	 1.896192e+00	-2.486101e+01
1	 0.000000e+00	 1.896296e+00	-2.451595e+01
1	 1.007356e-01	 1.901037e+00	-2.269837e+01
1	 8.043258e-02	 1.902004e+00	-2.315460e+01
1	 6.020453e-02	 1.902751e+00	-2.344492e+01
1	 4.005448e-02	 1.903282e+00	-2.355034e+01
1	 1.998536e-02	 1.903599e+00	-2.345238e+01
1	 0.000000e+00	 1.903704e+00	-2.313310e+01
1	 1.011276e-01	 1.908434e+00	-2.134680e+01
1	 8.074555e-02	 1.909405e+00	-2.178100e+01
1	 6.043879e-02	 1.910155e+00	-2.205995e+01
1	 4.021033e-02	 1.910688e+00	-2.216549e+01
1	 2.006312e-02	 1.911006e+00	-2.207994e+01
1	 0.000000e+00	 1.911111e+00	-2.178611e+01
1	 1.015196e-01	 1.915831e+00	-2.003326e+01
1	 8.105852e-02	 1.916805e+00	-2.044505e+01
1	 6.067305e-02	 1.917559e+00	-2.071216e+01
1	 4.036619e-02	 1.918094e+00	-2.081735e+01
1	 2.014088e-02	 1.918413e+00	-2.074377e+01
1	 0.000000e+00	 1.918519e+00	-2.047505e+01
1	 1.019115e-01	 1.923228e+00	-1.875779e+01
1	 8.137149e-02	 1.924206e+00	-1.914680e+01
1	 6.090730e-02	 1.924963e+00	-1.940164e+01
1	 4.052204e-02	 1.925500e+00	-1.950598e+01
1	 2.021865e-02	 1.925820e+00	-1.944393e+01
1	 0.000000e+00	 1.925926e+00	-1.919999e+01
1	 1.925926e+00	 0.000000e+00	 3.776511e+00
1	 1.925820e+00	 2.021865e-02	 3.779846e+00
1	 1.925500e+00	 4.052204e-02	 3.750853e+00
1	 1.924963e+00	 6.090730e-02	 3.692849e+00
1	 1.924206e+00	 8.137149e-02	 3.609145e+00
1	 1.923228e+00	 1.019115e-01	 3.503032e+00
1	 1.933333e+00	 0.000000e+00	 3.512771e+00
1	 1.933227e+00	 2.029641e-02	 3.518117e+00
1	 1.932905e+00	 4.067789e-02	 3.493012e+00
1	 1.932366e+00	 6.114156e-02	 3.440538e+00
1	 1.931607e+00	 8.168445e-02	 3.363755e+00
1	 1.930625e+00	 1.023035e-01	 3.265688e+00
1	 1.940741e+00	 0.000000e+00	 3.259045e+00
1	 1.940634e+00	 2.037418e-02	 3.265751e+00
1	 1.940311e+00	 4.083375e-02	 3.244114e+00
1	 1.939770e+00	 6.137582e-02	 3.196885e+00
1	 1.939008e+00	 8.199742e-02	 3.126773e+00
1	 1.938022e+00	 1.026955e-01	 3.036445e+00
1	 1.948148e+00	 0.000000e+00	 3.015353e+00
1	 1.948041e+00	 2.045194e-02	 3.022713e+00
1	 1.947717e+00	 4.098960e-02	 3.004082e+00
1	 1.947174e+00	 6.161008e-02	 2.961778e+00
1	 1.946409e+00	 8.231039e-02	 2.898070e+00
1	 1.945419e+00	 1.030875e-01	 2.815166e+00
1	 1.955556e+00	 0.000000e+00	 2.781715e+00
1	 1.955448e+00	 2.052970e-02	 2.788973e+00
1	 1.955123e+00	 4.114546e-02	 2.772839e+00
1	 1.954577e+00	 6.184434e-02	 2.735111e+00
1	 1.953809e+00	 8.262336e-02	 2.677517e+00
1	 1.952816e+00	 1.034794e-01	 2.601714e+00
1	 1.962963e+00	 0.000000e+00	 2.558153e+00
1	 1.962855e+00	 2.060747e-02	 2.564497e+00
1	 1.962528e+00	 4.130131e-02	 2.550312e+00
1	 1.961981e+00	 6.207860e-02	 2.516777e+00
1	 1.961210e+00	 8.293632e-02	 2.464988e+00
1	 1.960213e+00	 1.038714e-01	 2.395957e+00
1	 1.923228e+00	 1.019115e-01	 3.503032e+00
1	 1.922025e+00	 1.225244e-01	 3.377540e+00
1	 1.920594e+00	 1.432068e-01	 3.234237e+00
1	 1.918934e+00	 1.639555e-01	 3.074208e+00
1	 1.917042e+00	 1.847671e-01	 2.898557e+00
1	 1.914916e+00	 2.056382e-01	 2.708402e+00
1	 1.930625e+00	 1.023035e-01	 3.265688e+00
1	 1.929417e+00	 1.229956e-01	 3.149503e+00
1	 1.927981e+00	 1.437576e-01	 3.016937e+00
1	 1.926315e+00	 1.645861e-01	 2.868855e+00
1	 1.924416e+00	 1.854777e-01	 2.706142e+00
1	 1.922281e+00	 2.064291e-01	 2.529701e+00
1	 1.938022e+00	 1.026955e-01	 3.036445e+00
1	 1.936809e+00	 1.234669e-01	 2.929173e+00
1	 1.935368e+00	 1.443084e-01	 2.806911e+00
1	 1.933695e+00	 1.652166e-01	 2.670330e+00
1	 1.931789e+00	 1.861884e-01	 2.520119e+00
1	 1.929646e+00	 2.072200e-01	 2.356987e+00
1	 1.945419e+00	 1.030875e-01	 2.815166e+00
1	 1.944202e+00	 1.239381e-01	 2.716416e+00
1	 1.942755e+00	 1.448592e-01	 2.604046e+00
1	 1.941076e+00	 1.658472e-01	 2.478549e+00
1	 1.939162e+00	 1.868990e-01	 2.340441e+00
1	 1.937011e+00	 2.080109e-01	 2.190264e+00
1	 1.952816e+00	 1.034794e-01	 2.601714e+00
1	 1.951594e+00	 1.244094e-01	 2.511104e+00
1	 1.950142e+00	 1.454100e-01	 2.408230e+00
1	 1.948456e+00	 1.664778e-01	 2.293428e+00
1	 1.946535e+00	 1.876096e-01	 2.167064e+00
1	 1.944376e+00	 2.088018e-01	 2.029540e+00
1	 1.960213e+00	 1.038714e-01	 2.395957e+00
1	 1.958987e+00	 1.248806e-01	 2.313108e+00
1	 1.957529e+00	 1.459607e-01	 2.219351e+00
1	 1.955837e+00	 1.671084e-01	 2.114883e+00
1	 1.953909e+00	 1.883203e-01	 1.999946e+00
1	 1.951741e+00	 2.095928e-01	 1.874819e+00
1	 1.914916e+00	 2.056382e-01	 2.708402e+00
1	 1.912553e+00	 2.265653e-01	 2.506219e+00
1	 1.909951e+00	 2.475448e-01	 2.295687e+00
1	 1.907108e+00	 2.685730e-01	 2.079743e+00
1	 1.904021e+00	 2.896462e-01	 1.861345e+00
1	 1.900689e+00	 3.107606e-01	 1.643457e+00
1	 1.922281e+00	 2.064291e-01	 2.529701e+00
1	 1.919909e+00	 2.274367e-01	 2.341749e+00
1	 1.917297e+00	 2.484969e-01	 2.145744e+00
1	 1.914443e+00	 2.696060e-01	 1.944472e+00
1	 1.911344e+00	 2.907602e-01	 1.740736e+00
1	 1.907999e+00	 3.119558e-01	 1.537347e+00
1	 1.929646e+00	 2.072200e-01	 2.356987e+00
1	 1.927265e+00	 2.283081e-01	 2.182888e+00
1	 1.924643e+00	 2.494490e-01	 2.001043e+00
1	 1.921778e+00	 2.706389e-01	 1.814088e+00
1	 1.918667e+00	 2.918742e-01	 1.624670e+00
1	 1.915310e+00	 3.131510e-01	 1.435441e+00
1	 1.937011e+00	 2.080109e-01	 2.190264e+00
1	 1.934621e+00	 2.291795e-01	 2.029689e+00
1	 1.931989e+00	 2.504011e-01	 1.861662e+00
1	 1.929113e+00	 2.716719e-01	 1.688672e+00
1	 1.925990e+00	 2.929883e-01	 1.513209e+00
1	 1.922620e+00	 3.143463e-01	 1.337766e+00
1	 1.944376e+00	 2.088018e-01	 2.029540e+00
1	 1.941977e+00	 2.300509e-01	 1.882202e+00
1	 1.939335e+00	 2.513532e-01	 1.727676e+00
1	 1.936448e+00	 2.727049e-01	 1.568303e+00
1	 1.933314e+00	 2.941023e-01	 1.406417e+00
1	 1.929930e+00	 3.155415e-01	 1.244346e+00
1	 1.951741e+00	 2.095928e-01	 1.874819e+00
1	 1.949333e+00	 2.309223e-01	 1.740478e+00
1	 1.946681e+00	 2.523052e-01	 1.599160e+00
1	 1.943783e+00	 2.737379e-01	 1.453060e+00
1	 1.940637e+00	 2.952163e-01	 1.304355e+00
1	 1.937241e+00	 3.167367e-01	 1.155207e+00
1	 1.900689e+00	 3.107606e-01	 1.643457e+00
1	 1.897110e+00	 3.319122e-01	 1.429179e+00
1	 1.893281e+00	 3.530972e-01	 1.222102e+00
1	 1.889201e+00	 3.743114e-01	 1.025936e+00
1	 1.884869e+00	 3.955509e-01	 8.443879e-01
1	 1.880282e+00	 4.168113e-01	 6.811595e-01
1	 1.907999e+00	 3.119558e-01	 1.537347e+00
1	 1.904406e+00	 3.331888e-01	 1.337241e+00
1	 1.900563e+00	 3.544552e-01	 1.143826e+00
1	 1.896467e+00	 3.757511e-01	 9.606150e-01
1	 1.892118e+00	 3.970722e-01	 7.911103e-01
1	 1.887513e+00	 4.184144e-01	 6.387955e-01
1	 1.915310e+00	 3.131510e-01	 1.435441e+00
1	 1.911703e+00	 3.344654e-01	 1.249141e+00
1	 1.907845e+00	 3.558133e-01	 1.068948e+00
1	 1.903734e+00	 3.771907e-01	 8.981696e-01
1	 1.899368e+00	 3.985936e-01	 7.400925e-01
1	 1.894745e+00	 4.200176e-01	 5.979802e-01
1	 1.922620e+00	 3.143463e-01	 1.337766e+00
1	 1.918999e+00	 3.357420e-01	 1.164872e+00
1	 1.915127e+00	 3.571714e-01	 9.974620e-01
1	 1.911000e+00	 3.786304e-01	 8.386235e-01
1	 1.906617e+00	 4.001149e-01	 6.914229e-01
1	 1.901977e+00	 4.216207e-01	 5.588993e-01
1	 1.929930e+00	 3.155415e-01	 1.244346e+00
1	 1.926296e+00	 3.370185e-01	 1.084427e+00
1	 1.922408e+00	 3.585294e-01	 9.293589e-01
1	 1.918266e+00	 3.800701e-01	 7.820004e-01
1	 1.913867e+00	 4.016363e-01	 6.451887e-01
1	 1.909209e+00	 4.232238e-01	 5.217357e-01
1	 1.937241e+00	 3.167367e-01	 1.155207e+00
1	 1.933593e+00	 3.382951e-01	 1.007798e+00
1	 1.929690e+00	 3.598875e-01	 8.646315e-01
1	 1.925532e+00	 3.815097e-01	 7.283236e-01
1	 1.921116e+00	 4.031576e-01	 6.014757e-01
1	 1.916441e+00	 4.248269e-01	 4.866695e-01
1	 1.880282e+00	 4.168113e-01	 6.811595e-01
1	 1.875438e+00	 4.380886e-01	 5.358921e-01
1	 1.870337e+00	 4.593783e-01	 4.052498e-01
1	 1.864977e+00	 4.806762e-01	 2.884357e-01
1	 1.859357e+00	 5.019778e-01	 1.846248e-01
1	 1.853475e+00	 5.232787e-01	 9.296532e-02
1	 1.887513e+00	 4.184144e-01	 6.387955e-01
1	 1.882652e+00	 4.397735e-01	 5.033572e-01
1	 1.877531e+00	 4.611452e-01	 3.815621e-01
1	 1.872150e+00	 4.825250e-01	 2.724998e-01
1	 1.866509e+00	 5.039085e-01	 1.752655e-01
1	 1.860604e+00	 5.252913e-01	 8.896266e-02
1	 1.894745e+00	 4.200176e-01	 5.979802e-01
1	 1.889865e+00	 4.414585e-01	 4.717014e-01
1	 1.884725e+00	 4.629120e-01	 3.583062e-01
1	 1.879323e+00	 4.843737e-01	 2.568263e-01
1	 1.873660e+00	 5.058392e-01	 1.663213e-01
1	 1.867733e+00	 5.273039e-01	 8.588157e-02
1	 1.901977e+00	 4.216207e-01	 5.588993e-01
1	 1.897078e+00	 4.431434e-01	 4.411780e-01
1	 1.891918e+00	 4.646788e-01	 3.357097e-01
1	 1.886496e+00	 4.862225e-01	 2.415236e-01
1	 1.880811e+00	 5.077699e-01	 1.576866e-01
1	 1.874861e+00	 5.293165e-01	 8.330668e-02
1	 1.909209e+00	 4.232238e-01	 5.217357e-01
1	 1.904291e+00	 4.448284e-01	 4.120364e-01
1	 1.899112e+00	 4.664457e-01	 3.139972e-01
1	 1.893669e+00	 4.880712e-01	 2.266987e-01
1	 1.887963e+00	 5.097006e-01	 1.492574e-01
1	 1.881990e+00	 5.313291e-01	 8.082894e-02
1	 1.916441e+00	 4.248269e-01	 4.866695e-01
1	 1.911504e+00	 4.465133e-01	 3.845224e-01
1	 1.906305e+00	 4.682125e-01	 2.933896e-01
1	 1.900842e+00	 4.899200e-01	 2.124566e-01
1	 1.895114e+00	 5.116312e-01	 1.409312e-01
1	 1.889119e+00	 5.333417e-01	 7.804546e-02
1	 1.853475e+00	 5.232787e-01	 9.296532e-02
1	 1.847330e+00	 5.445743e-01	 1.508676e-02
1	 1.840922e+00	 5.658600e-01	-4.659322e-02
1	 1.834248e+00	 5.871313e-01	-9.185689e-02
1	 1.827310e+00	 6.083834e-01	-1.206129e-01
1	 1.820104e+00	 6.296116e-01	-1.328995e-01
1	 1.860604e+00	 5.252913e-01	 8.896266e-02
1	 1.854435e+00	 5.466688e-01	 1.475821e-02
1	 1.848002e+00	 5.680364e-01	-4.518325e-02
1	 1.841303e+00	 5.893895e-01	-9.035808e-02
1	 1.834338e+00	 6.107233e-01	-1.204044e-01
1	 1.827105e+00	 6.320332e-01	-1.351060e-01
1	 1.867733e+00	 5.273039e-01	 8.588157e-02
1	 1.861541e+00	 5.487633e-01	 1.607017e-02
1	 1.855083e+00	 5.702128e-01	-4.142591e-02
1	 1.848358e+00	 5.916477e-01	-8.590794e-02
1	 1.841366e+00	 6.130633e-01	-1.168168e-01
1	 1.834105e+00	 6.344548e-01	-1.337369e-01
1	 1.874861e+00	 5.293165e-01	 8.330668e-02
1	 1.868646e+00	 5.508578e-01	 1.831424e-02
1	 1.862163e+00	 5.723892e-01	-3.619247e-02
1	 1.855413e+00	 5.939059e-01	-7.940908e-02
1	 1.848394e+00	 6.154032e-01	-1.106512e-01
1	 1.841106e+00	 6.368764e-01	-1.293584e-01
1	 1.881990e+00	 5.313291e-01	 8.082894e-02
1	 1.875751e+00	 5.529523e-01	 2.079273e-02
1	 1.869244e+00	 5.745656e-01	-3.034102e-02
1	 1.862468e+00	 5.961641e-01	-7.175043e-02
1	 1.855422e+00	 6.177432e-01	-1.026968e-01
1	 1.848106e+00	 6.392980e-01	-1.225279e-01
1	 1.889119e+00	 5.333417e-01	 7.804546e-02
1	 1.882856e+00	 5.550469e-01	 2.281847e-02
1	 1.876324e+00	 5.767420e-01	-2.471669e-02
1	 1.869522e+00	 5.984223e-01	-6.380752e-02
1	 1.862450e+00	 6.200831e-01	-9.373074e-02
1	 1.855106e+00	 6.417196e-01	-1.137944e-01
1	 1.820104e+00	 6.296116e-01	-1.328995e-01
1	 1.812632e+00	 6.508112e-01	-1.295350e-01
1	 1.804893e+00	 6.719774e-01	-1.137389e-01
1	 1.796885e+00	 6.931053e-01	-8.926155e-02
1	 1.788609e+00	 7.141900e-01	-5.986423e-02
1	 1.780065e+00	 7.352267e-01	-2.931137e-02
1	 1.827105e+00	 6.320332e-01	-1.351060e-01
1	 1.819604e+00	 6.533144e-01	-1.345158e-01
1	 1.811834e+00	 6.745619e-01	-1.212309e-01
1	 1.803796e+00	 6.957711e-01	-9.897599e-02
1	 1.795489e+00	 7.169369e-01	-7.148699e-02
1	 1.786912e+00	 7.380545e-01	-4.250415e-02
1	 1.834105e+00	 6.344548e-01	-1.337369e-01
1	 1.826575e+00	 6.558175e-01	-1.359571e-01
1	 1.818776e+00	 6.771465e-01	-1.253722e-01
1	 1.810707e+00	 6.984369e-01	-1.056067e-01
1	 1.802368e+00	 7.196838e-01	-8.030670e-02
1	 1.793758e+00	 7.408823e-01	-5.313278e-02
1	 1.841106e+00	 6.368764e-01	-1.293584e-01
1	 1.833547e+00	 6.583206e-01	-1.341560e-01
1	 1.825718e+00	 6.797310e-01	-1.262574e-01
1	 1.817618e+00	 7.011026e-01	-1.091144e-01
1	 1.809247e+00	 7.224307e-01	-8.621891e-02
1	 1.800604e+00	 7.437101e-01	-6.109707e-02
1	 1.848106e+00	 6.392980e-01	-1.225279e-01
1	 1.840519e+00	 6.608237e-01	-1.294048e-01
1	 1.832660e+00	 6.823155e-01	-1.239802e-01
1	 1.824529e+00	 7.037684e-01	-1.094606e-01
1	 1.816126e+00	 7.251776e-01	-8.912072e-02
1	 1.807451e+00	 7.465379e-01	-6.629839e-02
1	 1.855106e+00	 6.417196e-01	-1.137944e-01
1	 1.847490e+00	 6.633268e-01	-1.219916e-01
1	 1.839602e+00	 6.849000e-01	-1.186326e-01
1	 1.831440e+00	 7.064342e-01	-1.066072e-01
1	 1.823006e+00	 7.279244e-01	-8.891083e-02
1	 1.814297e+00	 7.493657e-01	-6.863958e-02
1	 1.780065e+00	 7.352267e-01	-2.931137e-02
1	 1.771253e+00	 7.562104e-01	-7.883596e-04
1	 1.762172e+00	 7.771362e-01	 2.419517e-02
1	 1.752823e+00	 7.979991e-01	 4.445416e-02
1	 1.743206e+00	 8.187941e-01	 5.889152e-02
1	 1.733321e+00	 8.395162e-01	 6.650165e-02
1	 1.786912e+00	 7.380545e-01	-4.250415e-02
1	 1.778065e+00	 7.591189e-01	-1.504960e-02
1	 1.768950e+00	 7.801252e-01	 9.570025e-03
1	 1.759565e+00	 8.010683e-01	 3.024026e-02
1	 1.749911e+00	 8.219433e-01	 4.591747e-02
1	 1.739988e+00	 8.427451e-01	 5.563194e-02
1	 1.793758e+00	 7.408823e-01	-5.313278e-02
1	 1.784878e+00	 7.620274e-01	-2.694449e-02
1	 1.775727e+00	 7.831142e-01	-2.897683e-03
1	 1.766306e+00	 8.041375e-01	 1.793565e-02
1	 1.756615e+00	 8.250925e-01	 3.453836e-02
1	 1.746655e+00	 8.459740e-01	 4.595096e-02
1	 1.800604e+00	 7.437101e-01	-6.109707e-02
1	 1.791690e+00	 7.649359e-01	-3.640734e-02
1	 1.782505e+00	 7.861032e-01	-1.316687e-02
1	 1.773048e+00	 8.072068e-01	 7.567001e-03
1	 1.763320e+00	 8.282417e-01	 2.477701e-02
1	 1.753321e+00	 8.492029e-01	 3.748851e-02
1	 1.807451e+00	 7.465379e-01	-6.629839e-02
1	 1.798503e+00	 7.678444e-01	-4.337346e-02
1	 1.789282e+00	 7.890921e-01	-2.119707e-02
1	 1.779789e+00	 8.102760e-01	-8.393903e-04
1	 1.770024e+00	 8.313909e-01	 1.665589e-02
1	 1.759988e+00	 8.524319e-01	 3.027390e-02
1	 1.814297e+00	 7.493657e-01	-6.863958e-02
1	 1.805315e+00	 7.707529e-01	-4.777913e-02
1	 1.796060e+00	 7.920811e-01	-2.694844e-02
1	 1.786531e+00	 8.133452e-01	-7.257639e-03
1	 1.776729e+00	 8.345401e-01	 1.019713e-02
1	 1.766655e+00	 8.556608e-01	 2.433604e-02
1	 1.733321e+00	 8.395162e-01	 6.650165e-02
1	 1.723170e+00	 8.601604e-01	 6.157600e-02
1	 1.712752e+00	 8.807218e-01	 3.980177e-02
1	 1.702069e+00	 9.011951e-01	 2.443347e-03
1	 1.691121e+00	 9.215756e-01	-4.909448e-02
1	 1.679909e+00	 9.418580e-01	-1.132676e-01
1	 1.739988e+00	 8.427451e-01	 5.563194e-02
1	 1.729798e+00	 8.634688e-01	 5.378688e-02
1	 1.719340e+00	 8.841091e-01	 3.609497e-02
1	 1.708615e+00	 9.046613e-01	 3.715325e-03
1	 1.697625e+00	 9.251201e-01	-4.205026e-02
1	 1.686370e+00	 9.454806e-01	-9.975814e-02
1	 1.746655e+00	 8.459740e-01	 4.595096e-02
1	 1.736425e+00	 8.667771e-01	 4.673144e-02
1	 1.725927e+00	 8.874965e-01	 3.267200e-02
1	 1.715162e+00	 9.081274e-01	 4.816772e-03
1	 1.704129e+00	 9.286646e-01	-3.564711e-02
1	 1.692831e+00	 9.491031e-01	-8.739023e-02
1	 1.753321e+00	 8.492029e-01	 3.748851e-02
1	 1.743053e+00	 8.700854e-01	 4.044542e-02
1	 1.732515e+00	 8.908839e-01	 2.956151e-02
1	 1.721708e+00	 9.115935e-01	 5.756361e-03
1	 1.710634e+00	 9.322091e-01	-2.990921e-02
1	 1.699293e+00	 9.527256e-01	-7.623362e-02
1	 1.759988e+00	 8.524319e-01	 3.027390e-02
1	 1.749680e+00	 8.733937e-01	 3.496402e-02
1	 1.739102e+00	 8.942713e-01	 2.679176e-02
1	 1.728254e+00	 9.150597e-01	 6.542631e-03
1	 1.717138e+00	 9.357537e-01	-2.486037e-02
1	 1.705754e+00	 9.563482e-01	-6.635701e-02
1	 1.766655e+00	 8.556608e-01	 2.433604e-02
1	 1.756308e+00	 8.767020e-01	 3.032189e-02
1	 1.745690e+00	 8.976587e-01	 2.439055e-02
1	 1.734801e+00	 9.185258e-01	 7.183995e-03
1	 1.723642e+00	 9.392982e-01	-2.052404e-02
1	 1.712215e+00	 9.599707e-01	-5.782807e-02
1	 1.679909e+00	 9.418580e-01	-1.132676e-01
1	 1.668435e+00	 9.620375e-01	-1.908314e-01
1	 1.656699e+00	 9.821091e-01	-2.825105e-01
1	 1.644704e+00	 1.002068e+00	-3.864644e-01
1	 1.632450e+00	 1.021908e+00	-5.006579e-01
1	 1.619940e+00	 1.041626e+00	-6.228626e-01
1	 1.686370e+00	 9.454806e-01	-9.975814e-02
1	 1.674852e+00	 9.657377e-01	-1.700693e-01
1	 1.663071e+00	 9.858864e-01	-2.535855e-01
1	 1.651030e+00	 1.005922e+00	-3.485240e-01
1	 1.638729e+00	 1.025839e+00	-4.529097e-01
1	 1.626170e+00	 1.045633e+00	-5.645774e-01
1	 1.692831e+00	 9.491031e-01	-8.739023e-02
1	 1.681269e+00	 9.694378e-01	-1.510001e-01
1	 1.669443e+00	 9.896638e-01	-2.269533e-01
1	 1.657355e+00	 1.009776e+00	-3.135027e-01
1	 1.645008e+00	 1.029769e+00	-4.087080e-01
1	 1.632401e+00	 1.049639e+00	-5.104376e-01
1	 1.699293e+00	 9.527256e-01	-7.623362e-02
1	 1.687686e+00	 9.731380e-01	-1.337342e-01
1	 1.675815e+00	 9.934411e-01	-2.027429e-01
1	 1.663681e+00	 1.013630e+00	-2.815261e-01
1	 1.651286e+00	 1.033700e+00	-3.681528e-01
1	 1.638632e+00	 1.053645e+00	-4.604965e-01
1	 1.705754e+00	 9.563482e-01	-6.635701e-02
1	 1.694103e+00	 9.768381e-01	-1.183805e-01
1	 1.682187e+00	 9.972185e-01	-1.810812e-01
1	 1.670007e+00	 1.017484e+00	-2.527177e-01
1	 1.657565e+00	 1.037630e+00	-3.313430e-01
1	 1.644862e+00	 1.057651e+00	-4.148070e-01
1	 1.712215e+00	 9.599707e-01	-5.782807e-02
1	 1.700520e+00	 9.805383e-01	-1.050461e-01
1	 1.688559e+00	 1.000996e+00	-1.620934e-01
1	 1.676333e+00	 1.021338e+00	-2.271991e-01
1	 1.663844e+00	 1.041561e+00	-2.983757e-01
1	 1.651093e+00	 1.061658e+00	-3.734208e-01
1	 1.619940e+00	 1.041626e+00	-6.228626e-01
1	 1.607175e+00	 1.061216e+00	-7.419830e-01
1	 1.594156e+00	 1.080674e+00	-8.474481e-01
1	 1.580887e+00	 1.099994e+00	-9.376828e-01
1	 1.567369e+00	 1.119172e+00	-1.011127e+00
1	 1.553604e+00	 1.138203e+00	-1.066237e+00
1	 1.626170e+00	 1.045633e+00	-5.645774e-01
1	 1.613356e+00	 1.065298e+00	-6.731081e-01
1	 1.600288e+00	 1.084830e+00	-7.686595e-01
1	 1.586967e+00	 1.104225e+00	-8.498035e-01
1	 1.573397e+00	 1.123477e+00	-9.151325e-01
1	 1.559579e+00	 1.142581e+00	-9.632621e-01
1	 1.632401e+00	 1.049639e+00	-5.104376e-01
1	 1.619537e+00	 1.069380e+00	-6.089453e-01
1	 1.606419e+00	 1.088987e+00	-6.951461e-01
1	 1.593048e+00	 1.108456e+00	-7.677780e-01
1	 1.579425e+00	 1.127781e+00	-8.256079e-01
1	 1.565555e+00	 1.146958e+00	-8.674338e-01
1	 1.638632e+00	 1.053645e+00	-4.604965e-01
1	 1.625719e+00	 1.073461e+00	-5.494992e-01
1	 1.612550e+00	 1.093143e+00	-6.268806e-01
1	 1.599128e+00	 1.112686e+00	-6.915637e-01
1	 1.585454e+00	 1.132086e+00	-7.425113e-01
1	 1.571530e+00	 1.151336e+00	-7.787282e-01
1	 1.644862e+00	 1.057651e+00	-4.148070e-01
1	 1.631900e+00	 1.077543e+00	-4.947744e-01
1	 1.618682e+00	 1.097300e+00	-5.638361e-01
1	 1.605208e+00	 1.116917e+00	-6.211187e-01
1	 1.591482e+00	 1.136390e+00	-6.658020e-01
1	 1.577505e+00	 1.155714e+00	-6.971215e-01
1	 1.651093e+00	 1.061658e+00	-3.734208e-01
1	 1.638082e+00	 1.081624e+00	-4.447754e-01
1	 1.624813e+00	 1.101456e+00	-5.059861e-01
1	 1.611289e+00	 1.121148e+00	-5.564014e-01
1	 1.597510e+00	 1.140695e+00	-5.954394e-01
1	 1.583481e+00	 1.160092e+00	-6.225897e-01
1	 1.553604e+00	 1.138203e+00	-1.066237e+00
1	 1.539595e+00	 1.157082e+00	-1.103613e+00
1	 1.525344e+00	 1.175805e+00	-1.127036e+00
1	 1.510853e+00	 1.194367e+00	-1.140005e+00
1	 1.496127e+00	 1.212763e+00	-1.146341e+00
1	 1.481167e+00	 1.230990e+00	-1.150185e+00
1	 1.559579e+00	 1.142581e+00	-9.632621e-01
1	 1.545516e+00	 1.161533e+00	-9.956525e-01
1	 1.531210e+00	 1.180327e+00	-1.016288e+00
1	 1.516664e+00	 1.198961e+00	-1.027790e+00
1	 1.501881e+00	 1.217428e+00	-1.033047e+00
1	 1.486864e+00	 1.235724e+00	-1.035207e+00
1	 1.565555e+00	 1.146958e+00	-8.674338e-01
1	 1.551438e+00	 1.165983e+00	-8.953994e-01
1	 1.537077e+00	 1.184850e+00	-9.135164e-01
1	 1.522475e+00	 1.203554e+00	-9.235667e-01
1	 1.507636e+00	 1.222092e+00	-9.275394e-01
1	 1.492560e+00	 1.240459e+00	-9.276271e-01
1	 1.571530e+00	 1.151336e+00	-7.787282e-01
1	 1.557359e+00	 1.170433e+00	-8.028563e-01
1	 1.542944e+00	 1.189372e+00	-8.187553e-01
1	 1.528286e+00	 1.208148e+00	-8.274021e-01
1	 1.513390e+00	 1.226757e+00	-8.299224e-01
1	 1.498257e+00	 1.245193e+00	-8.275890e-01
1	 1.577505e+00	 1.155714e+00	-6.971215e-01
1	 1.563281e+00	 1.174883e+00	-7.180260e-01
1	 1.548810e+00	 1.193894e+00	-7.320379e-01
1	 1.534097e+00	 1.212742e+00	-7.393633e-01
1	 1.519144e+00	 1.231421e+00	-7.402999e-01
1	 1.503954e+00	 1.249928e+00	-7.352355e-01
1	 1.583481e+00	 1.160092e+00	-6.225897e-01
1	 1.569202e+00	 1.179334e+00	-6.409112e-01
1	 1.554677e+00	 1.198417e+00	-6.533968e-01
1	 1.539908e+00	 1.217336e+00	-6.595164e-01
1	 1.524899e+00	 1.236086e+00	-6.587738e-01
1	 1.509651e+00	 1.254663e+00	-6.507072e-01
1	 1.481167e+00	 1.230990e+00	-1.150185e+00
1	 1.465976e+00	 1.249042e+00	-1.142088e+00
1	 1.450558e+00	 1.266915e+00	-1.113112e+00
1	 1.434915e+00	 1.284605e+00	-1.068628e+00
1	 1.419051e+00	 1.302108e+00	-1.014317e+00
1	 1.402969e+00	 1.319420e+00	-9.561565e-01
1	 1.486864e+00	 1.235724e+00	-1.035207e+00
1	 1.471614e+00	 1.253846e+00	-1.024230e+00
1	 1.456137e+00	 1.271788e+00	-9.916393e-01
1	 1.440434e+00	 1.289546e+00	-9.433925e-01
1	 1.424509e+00	 1.307116e+00	-8.857993e-01
1	 1.408365e+00	 1.324494e+00	-8.255100e-01
1	 1.492560e+00	 1.240459e+00	-9.276271e-01
1	 1.477253e+00	 1.258650e+00	-9.135127e-01
1	 1.461716e+00	 1.276660e+00	-8.774076e-01
1	 1.445953e+00	 1.294487e+00	-8.257494e-01
1	 1.429967e+00	 1.312124e+00	-7.653691e-01
1	 1.413761e+00	 1.329569e+00	-7.034778e-01
1	 1.498257e+00	 1.245193e+00	-8.275890e-01
1	 1.482891e+00	 1.263454e+00	-8.101098e-01
1	 1.467295e+00	 1.281533e+00	-7.705949e-01
1	 1.451471e+00	 1.299428e+00	-7.158589e-01
1	 1.435424e+00	 1.317132e+00	-6.531470e-01
1	 1.419157e+00	 1.334644e+00	-5.901205e-01
1	 1.503954e+00	 1.249928e+00	-7.352355e-01
1	 1.488529e+00	 1.268258e+00	-7.141921e-01
1	 1.472874e+00	 1.286406e+00	-6.713766e-01
1	 1.456990e+00	 1.304368e+00	-6.138786e-01
1	 1.440882e+00	 1.322141e+00	-5.492515e-01
1	 1.424553e+00	 1.339719e+00	-4.854976e-01
1	 1.509651e+00	 1.254663e+00	-6.507072e-01
1	 1.494168e+00	 1.273062e+00	-6.259276e-01
1	 1.478453e+00	 1.291279e+00	-5.799254e-01
1	 1.462509e+00	 1.309309e+00	-5.199637e-01
1	 1.446340e+00	 1.327149e+00	-4.537994e-01
1	 1.429949e+00	 1.344793e+00	-3.896680e-01
1	 1.402969e+00	 1.319420e+00	-9.561565e-01
1	 1.386673e+00	 1.336536e+00	-9.135594e-01
1	 1.370166e+00	 1.353453e+00	-9.004406e-01
1	 1.353453e+00	 1.370166e+00	-9.146410e-01
1	 1.336536e+00	 1.386673e+00	-9.538645e-01
1	 1.319420e+00	 1.402969e+00	-1.015684e+00
1	 1.408365e+00	 1.324494e+00	-8.255100e-01
1	 1.392006e+00	 1.341676e+00	-7.812345e-01
1	 1.375436e+00	 1.358658e+00	-7.658341e-01
1	 1.358658e+00	 1.375436e+00	-7.773357e-01
1	 1.341676e+00	 1.392006e+00	-8.136382e-01
1	 1.324494e+00	 1.408365e+00	-8.725181e-01
1	 1.413761e+00	 1.329569e+00	-7.034778e-01
1	 1.397340e+00	 1.346817e+00	-6.579210e-01
1	 1.380706e+00	 1.363864e+00	-6.404896e-01
1	 1.363864e+00	 1.380706e+00	-6.495013e-01
1	 1.346817e+00	 1.397340e+00	-6.831587e-01
1	 1.329569e+00	 1.413761e+00	-7.395546e-01
1	 1.419157e+00	 1.334644e+00	-5.901205e-01
1	 1.402673e+00	 1.351958e+00	-5.436227e-01
1	 1.385976e+00	 1.369070e+00	-5.243788e-01
1	 1.369070e+00	 1.385976e+00	-5.311009e-01
1	 1.351958e+00	 1.402673e+00	-5.624031e-01
1	 1.334644e+00	 1.419157e+00	-6.168052e-01
1	 1.424553e+00	 1.339719e+00	-4.854976e-01
1	 1.408007e+00	 1.357098e+00	-4.383433e-01
1	 1.391246e+00	 1.374275e+00	-4.174739e-01
1	 1.374275e+00	 1.391246e+00	-4.220986e-01
1	 1.357098e+00	 1.408007e+00	-4.513489e-01
1	 1.339719e+00	 1.424553e+00	-5.042817e-01
1	 1.429949e+00	 1.344793e+00	-3.896680e-01
1	 1.413340e+00	 1.362239e+00	-3.420865e-01
1	 1.396516e+00	 1.379481e+00	-3.197476e-01
1	 1.379481e+00	 1.396516e+00	-3.224586e-01
1	 1.362239e+00	 1.413340e+00	-3.499738e-01
1	 1.344793e+00	 1.429949e+00	-4.019957e-01
1	 1.319420e+00	 1.402969e+00	-1.015684e+00
1	 1.302108e+00	 1.419051e+00	-1.110221e+00
1	 1.284605e+00	 1.434915e+00	-1.246468e+00
1	 1.266915e+00	 1.450558e+00	-1.420011e+00
1	 1.249042e+00	 1.465976e+00	-1.626178e+00
1	 1.230990e+00	 1.481167e+00	-1.860056e+00
1	 1.324494e+00	 1.408365e+00	-8.725181e-01
1	 1.307116e+00	 1.424509e+00	-9.637039e-01
1	 1.289546e+00	 1.440434e+00	-1.095431e+00
1	 1.271788e+00	 1.456137e+00	-1.262928e+00
1	 1.253846e+00	 1.471614e+00	-1.461133e+00
1	 1.235724e+00	 1.486864e+00	-1.684713e+00
1	 1.329569e+00	 1.413761e+00	-7.395546e-01
1	 1.312124e+00	 1.429967e+00	-8.279703e-01
1	 1.294487e+00	 1.445953e+00	-9.557216e-01
1	 1.276660e+00	 1.461716e+00	-1.117627e+00
1	 1.258650e+00	 1.477253e+00	-1.308184e+00
1	 1.240459e+00	 1.492560e+00	-1.521583e+00
1	 1.334644e+00	 1.419157e+00	-6.168052e-01
1	 1.317132e+00	 1.435424e+00	-7.030709e-01
1	 1.299428e+00	 1.451471e+00	-8.274176e-01
1	 1.281533e+00	 1.467295e+00	-9.842038e-01
1	 1.263454e+00	 1.482891e+00	-1.167433e+00
1	 1.245193e+00	 1.498257e+00	-1.370767e+00
1	 1.339719e+00	 1.424553e+00	-5.042817e-01
1	 1.322141e+00	 1.440882e+00	-5.890561e-01
1	 1.304368e+00	 1.456990e+00	-7.105969e-01
1	 1.286406e+00	 1.472874e+00	-8.627531e-01
1	 1.268258e+00	 1.488529e+00	-1.038982e+00
1	 1.249928e+00	 1.503954e+00	-1.232363e+00
1	 1.344793e+00	 1.429949e+00	-4.019957e-01
1	 1.327149e+00	 1.446340e+00	-4.859753e-01
1	 1.309309e+00	 1.462509e+00	-6.053359e-01
1	 1.291279e+00	 1.478453e+00	-7.533676e-01
1	 1.273062e+00	 1.494168e+00	-9.229299e-01
1	 1.254663e+00	 1.509651e+00	-1.106469e+00
1	 1.230990e+00	 1.481167e+00	-1.860056e+00
1	 1.212763e+00	 1.496127e+00	-2.105397e+00
1	 1.194367e+00	 1.510853e+00	-2.346513e+00
1	 1.175805e+00	 1.525344e+00	-2.578999e+00
1	 1.157082e+00	 1.539595e+00	-2.798261e+00
1	 1.138203e+00	 1.553604e+00	-2.999521e+00
1	 1.235724e+00	 1.486864e+00	-1.684713e+00
1	 1.217428e+00	 1.501881e+00	-1.917252e+00
1	 1.198961e+00	 1.516664e+00	-2.143585e+00
1	 1.180327e+00	 1.531210e+00	-2.359932e+00
1	 1.161533e+00	 1.545516e+00	-2.562358e+00
1	 1.142581e+00	 1.559579e+00	-2.746783e+00
1	 1.240459e+00	 1.492560e+00	-1.521583e+00
1	 1.222092e+00	 1.507636e+00	-1.741425e+00
1	 1.203554e+00	 1.522475e+00	-1.953284e+00
1	 1.184850e+00	 1.537077e+00	-2.153999e+00
1	 1.165983e+00	 1.551438e+00	-2.340294e+00
1	 1.146958e+00	 1.565555e+00	-2.508780e+00
1	 1.245193e+00	 1.498257e+00	-1.370767e+00
1	 1.226757e+00	 1.513390e+00	-1.578009e+00
1	 1.208148e+00	 1.528286e+00	-1.775697e+00
1	 1.189372e+00	 1.542944e+00	-1.961283e+00
1	 1.170433e+00	 1.557359e+00	-2.132145e+00
1	 1.151336e+00	 1.571530e+00	-2.285582e+00
1	 1.249928e+00	 1.503954e+00	-1.232363e+00
1	 1.231421e+00	 1.519144e+00	-1.427097e+00
1	 1.212742e+00	 1.534097e+00	-1.610909e+00
1	 1.193894e+00	 1.548810e+00	-1.781864e+00
1	 1.174883e+00	 1.563281e+00	-1.937986e+00
1	 1.155714e+00	 1.577505e+00	-2.077263e+00
1	 1.254663e+00	 1.509651e+00	-1.106469e+00
1	 1.236086e+00	 1.524899e+00	-1.288778e+00
1	 1.217336e+00	 1.539908e+00	-1.459004e+00
1	 1.198417e+00	 1.554677e+00	-1.615819e+00
1	 1.179334e+00	 1.569202e+00	-1.757892e+00
1	 1.160092e+00	 1.583481e+00	-1.883893e+00
1	 1.138203e+00	 1.553604e+00	-2.999521e+00
1	 1.119172e+00	 1.567369e+00	-3.181775e+00
1	 1.099994e+00	 1.580887e+00	-3.344511e+00
1	 1.080674e+00	 1.594156e+00	-3.483518e+00
1	 1.061216e+00	 1.607175e+00	-3.594527e+00
1	 1.041626e+00	 1.619940e+00	-3.673222e+00
1	 1.142581e+00	 1.559579e+00	-2.746783e+00
1	 1.123477e+00	 1.573397e+00	-2.913031e+00
1	 1.104225e+00	 1.586967e+00	-3.060902e+00
1	 1.084830e+00	 1.600288e+00	-3.186127e+00
1	 1.065298e+00	 1.613356e+00	-3.284368e+00
1	 1.045633e+00	 1.626170e+00	-3.351235e+00
1	 1.146958e+00	 1.565555e+00	-2.508780e+00
1	 1.127781e+00	 1.579425e+00	-2.659957e+00
1	 1.108456e+00	 1.593048e+00	-2.793790e+00
1	 1.088987e+00	 1.606419e+00	-2.905949e+00
1	 1.069380e+00	 1.619537e+00	-2.992026e+00
1	 1.049639e+00	 1.632401e+00	-3.047551e+00
1	 1.151336e+00	 1.571530e+00	-2.285582e+00
1	 1.132086e+00	 1.585454e+00	-2.422619e+00
1	 1.112686e+00	 1.599128e+00	-2.543229e+00
1	 1.093143e+00	 1.612550e+00	-2.643019e+00
1	 1.073461e+00	 1.625719e+00	-2.717511e+00
1	 1.053645e+00	 1.638632e+00	-2.762147e+00
1	 1.155714e+00	 1.577505e+00	-2.077263e+00
1	 1.136390e+00	 1.591482e+00	-2.201082e+00
1	 1.116917e+00	 1.605208e+00	-2.309271e+00
1	 1.097300e+00	 1.618682e+00	-2.397372e+00
1	 1.077543e+00	 1.631900e+00	-2.460831e+00
1	 1.057651e+00	 1.644862e+00	-2.495003e+00
1	 1.160092e+00	 1.583481e+00	-1.883893e+00
1	 1.140695e+00	 1.597510e+00	-1.995411e+00
1	 1.121148e+00	 1.611289e+00	-2.091968e+00
1	 1.101456e+00	 1.624813e+00	-2.169041e+00
1	 1.081624e+00	 1.638082e+00	-2.221996e+00
1	 1.061658e+00	 1.651093e+00	-2.246095e+00
1	 1.041626e+00	 1.619940e+00	-3.673222e+00
1	 1.021908e+00	 1.632450e+00	-3.707262e+00
1	 1.002068e+00	 1.644704e+00	-3.690328e+00
1	 9.821091e-01	 1.656699e+00	-3.627254e+00
1	 9.620375e-01	 1.668435e+00	-3.523060e+00
1	 9.418580e-01	 1.679909e+00	-3.382938e+00
1	 1.045633e+00	 1.626170e+00	-3.351235e+00
1	 1.025839e+00	 1.638729e+00	-3.375199e+00
1	 1.005922e+00	 1.651030e+00	-3.350752e+00
1	 9.858864e-01	 1.663071e+00	-3.282641e+00
1	 9.657377e-01	 1.674852e+00	-3.175794e+00
1	 9.454806e-01	 1.686370e+00	-3.035306e+00
1	 1.049639e+00	 1.632401e+00	-3.047551e+00
1	 1.029769e+00	 1.645008e+00	-3.061825e+00
1	 1.009776e+00	 1.657355e+00	-3.030198e+00
1	 9.896638e-01	 1.669443e+00	-2.957364e+00
1	 9.694378e-01	 1.681269e+00	-2.848196e+00
1	 9.491031e-01	 1.692831e+00	-2.707731e+00
1	 1.053645e+00	 1.638632e+00	-2.762147e+00
1	 1.033700e+00	 1.651286e+00	-2.767092e+00
1	 1.013630e+00	 1.663681e+00	-2.728606e+00
1	 9.934411e-01	 1.675815e+00	-2.651365e+00
1	 9.731380e-01	 1.687686e+00	-2.540226e+00
1	 9.527256e-01	 1.699293e+00	-2.400206e+00
1	 1.057651e+00	 1.644862e+00	-2.495003e+00
1	 1.037630e+00	 1.657565e+00	-2.490952e+00
1	 1.017484e+00	 1.670007e+00	-2.445915e+00
1	 9.972185e-01	 1.682187e+00	-2.364588e+00
1	 9.768381e-01	 1.694103e+00	-2.251844e+00
1	 9.563482e-01	 1.705754e+00	-2.112722e+00
1	 1.061658e+00	 1.651093e+00	-2.246095e+00
1	 1.041561e+00	 1.663844e+00	-2.233356e+00
1	 1.021338e+00	 1.676333e+00	-2.182068e+00
1	 1.000996e+00	 1.688559e+00	-2.096976e+00
1	 9.805383e-01	 1.700520e+00	-1.983010e+00
1	 9.599707e-01	 1.712215e+00	-1.845268e+00
1	 9.418580e-01	 1.679909e+00	-3.382938e+00
1	 9.215756e-01	 1.691121e+00	-3.212644e+00
1	 9.011951e-01	 1.702069e+00	-3.015418e+00
1	 8.807218e-01	 1.712752e+00	-2.792837e+00
1	 8.601604e-01	 1.723170e+00	-2.546528e+00
1	 8.395162e-01	 1.733321e+00	-2.278163e+00
1	 9.454806e-01	 1.686370e+00	-3.035306e+00
1	 9.251201e-01	 1.697625e+00	-2.866546e+00
1	 9.046613e-01	 1.708615e+00	-2.672641e+00
1	 8.841091e-01	 1.719340e+00	-2.455479e+00
1	 8.634688e-01	 1.729798e+00	-2.217003e+00
1	 8.427451e-01	 1.739988e+00	-1.959210e+00
1	 9.491031e-01	 1.692831e+00	-2.707731e+00
1	 9.286646e-01	 1.704129e+00	-2.541020e+00
1	 9.081274e-01	 1.715162e+00	-2.351077e+00
1	 8.874965e-01	 1.725927e+00	-2.140049e+00
1	 8.667771e-01	 1.736425e+00	-1.910142e+00
1	 8.459740e-01	 1.746655e+00	-1.663618e+00
1	 9.527256e-01	 1.699293e+00	-2.400206e+00
1	 9.322091e-01	 1.710634e+00	-2.236087e+00
1	 9.115935e-01	 1.721708e+00	-2.050760e+00
1	 8.908839e-01	 1.732515e+00	-1.846578e+00
1	 8.700854e-01	 1.743053e+00	-1.625957e+00
1	 8.492029e-01	 1.753321e+00	-1.391367e+00
1	 9.563482e-01	 1.705754e+00	-2.112722e+00
1	 9.357537e-01	 1.717138e+00	-1.951766e+00
1	 9.150597e-01	 1.728254e+00	-1.771721e+00
1	 8.942713e-01	 1.739102e+00	-1.575097e+00
1	 8.733937e-01	 1.749680e+00	-1.364461e+00
1	 8.524319e-01	 1.759988e+00	-1.142440e+00
1	 9.599707e-01	 1.712215e+00	-1.845268e+00
1	 9.392982e-01	 1.723642e+00	-1.688077e+00
1	 9.185258e-01	 1.734801e+00	-1.513995e+00
1	 8.976587e-01	 1.745690e+00	-1.325634e+00
1	 8.767020e-01	 1.756308e+00	-1.125667e+00
1	 8.556608e-01	 1.766655e+00	-9.168165e-01
1	 8.395162e-01	 1.733321e+00	-2.278163e+00
1	 8.187941e-01	 1.743206e+00	-1.991758e+00
1	 7.979991e-01	 1.752823e+00	-1.695410e+00
1	 7.771362e-01	 1.762172e+00	-1.397038e+00
1	 7.562104e-01	 1.771253e+00	-1.104669e+00
1	 7.352267e-01	 1.780065e+00	-8.264232e-01
1	 8.427451e-01	 1.739988e+00	-1.959210e+00
1	 8.219433e-01	 1.749911e+00	-1.686701e+00
1	 8.010683e-01	 1.759565e+00	-1.407330e+00
1	 7.801252e-01	 1.768950e+00	-1.128081e+00
1	 7.591189e-01	 1.778065e+00	-8.560226e-01
1	 7.380545e-01	 1.786912e+00	-5.982996e-01
1	 8.459740e-01	 1.746655e+00	-1.663618e+00
1	 8.250925e-01	 1.756615e+00	-1.405535e+00
1	 8.041375e-01	 1.766306e+00	-1.143540e+00
1	 7.831142e-01	 1.775727e+00	-8.838740e-01
1	 7.620274e-01	 1.784878e+00	-6.328478e-01
1	 7.408823e-01	 1.793758e+00	-3.968319e-01
1	 8.492029e-01	 1.753321e+00	-1.391367e+00
1	 8.282417e-01	 1.763320e+00	-1.148221e+00
1	 8.072068e-01	 1.773048e+00	-9.040188e-01
1	 7.861032e-01	 1.782505e+00	-6.644497e-01
1	 7.649359e-01	 1.791690e+00	-4.352636e-01
1	 7.437101e-01	 1.800604e+00	-2.222562e-01
1	 8.524319e-01	 1.759988e+00	-1.142440e+00
1	 8.313909e-01	 1.770024e+00	-9.147216e-01
1	 8.102760e-01	 1.779789e+00	-6.887446e-01
1	 7.890921e-01	 1.789282e+00	-4.698397e-01
1	 7.678444e-01	 1.798503e+00	-2.633871e-01
1	 7.465379e-01	 1.807451e+00	-7.480487e-02
1	 8.556608e-01	 1.766655e+00	-9.168165e-01
1	 8.345401e-01	 1.776729e+00	-7.049977e-01
1	 8.133452e-01	 1.786531e+00	-4.976975e-01
1	 7.920811e-01	 1.796060e+00	-3.000751e-01
1	 7.707529e-01	 1.805315e+00	-1.173335e-01
1	 7.493657e-01	 1.814297e+00	 4.529304e-02
1	 7.352267e-01	 1.780065e+00	-8.264232e-01
1	 7.141900e-01	 1.788609e+00	-5.658566e-01
1	 6.931053e-01	 1.796885e+00	-3.322730e-01
1	 6.719774e-01	 1.804893e+00	-1.425292e-01
1	 6.508112e-01	 1.812632e+00	-1.353705e-02
1	 6.296116e-01	 1.820104e+00	 3.777266e-02
1	 7.380545e-01	 1.786912e+00	-5.982996e-01
1	 7.169369e-01	 1.795489e+00	-3.581668e-01
1	 6.957711e-01	 1.803796e+00	-1.451097e-01
1	 6.745619e-01	 1.811834e+00	 2.426765e-02
1	 6.533144e-01	 1.819604e+00	 1.332960e-01
1	 6.320332e-01	 1.827105e+00	 1.652770e-01
1	 7.408823e-01	 1.793758e+00	-3.968319e-01
1	 7.196838e-01	 1.802368e+00	-1.789092e-01
1	 6.984369e-01	 1.810707e+00	 1.168628e-02
1	 6.771465e-01	 1.818776e+00	 1.592519e-01
1	 6.558175e-01	 1.826575e+00	 2.480175e-01
1	 6.344548e-01	 1.834105e+00	 2.621794e-01
1	 7.437101e-01	 1.800604e+00	-2.222562e-01
1	 7.224307e-01	 1.809247e+00	-2.839608e-02
1	 7.011026e-01	 1.817618e+00	 1.378329e-01
1	 6.797310e-01	 1.825718e+00	 2.622705e-01
1	 6.583206e-01	 1.833547e+00	 3.306942e-01
1	 6.368764e-01	 1.841106e+00	 3.288502e-01
1	 7.465379e-01	 1.807451e+00	-7.480487e-02
1	 7.251776e-01	 1.816126e+00	 9.306517e-02
1	 7.037684e-01	 1.824529e+00	 2.330525e-01
1	 6.823155e-01	 1.832660e+00	 3.331727e-01
1	 6.608237e-01	 1.840519e+00	 3.813921e-01
1	 6.392980e-01	 1.848106e+00	 3.656539e-01
1	 7.493657e-01	 1.814297e+00	 4.529304e-02
1	 7.279244e-01	 1.823006e+00	 1.851717e-01
1	 7.064342e-01	 1.831440e+00	 2.970715e-01
1	 6.849000e-01	 1.839602e+00	 3.718101e-01
1	 6.633268e-01	 1.847490e+00	 4.001761e-01
1	 6.417196e-01	 1.855106e+00	 3.729497e-01
1	 6.296116e-01	 1.820104e+00	 3.777266e-02
1	 6.083834e-01	 1.827310e+00	-9.943016e-03
1	 5.871313e-01	 1.834248e+00	-1.626217e-01
1	 5.658600e-01	 1.840922e+00	-4.139681e-01
1	 5.445743e-01	 1.847330e+00	-7.575515e-01
1	 5.232787e-01	 1.853475e+00	-1.186821e+00
1	 6.320332e-01	 1.827105e+00	 1.652770e-01
1	 6.107233e-01	 1.834338e+00	 1.006720e-01
1	 5.893895e-01	 1.841303e+00	-6.360479e-02
1	 5.680364e-01	 1.848002e+00	-3.194580e-01
1	 5.466688e-01	 1.854435e+00	-6.586533e-01
1	 5.252913e-01	 1.860604e+00	-1.072837e+00
1	 6.344548e-01	 1.834105e+00	 2.621794e-01
1	 6.130633e-01	 1.841366e+00	 1.844660e-01
1	 5.916477e-01	 1.848358e+00	 1.397835e-02
1	 5.702128e-01	 1.855083e+00	-2.404203e-01
1	 5.487633e-01	 1.861541e+00	-5.697337e-01
1	 5.273039e-01	 1.867733e+00	-9.648538e-01
1	 6.368764e-01	 1.841106e+00	 3.288502e-01
1	 6.154032e-01	 1.848394e+00	 2.420679e-01
1	 5.939059e-01	 1.855413e+00	 7.085616e-02
1	 5.723892e-01	 1.862163e+00	-1.761741e-01
1	 5.508578e-01	 1.868646e+00	-4.902942e-01
1	 5.293165e-01	 1.874861e+00	-8.626779e-01
1	 6.392980e-01	 1.848106e+00	 3.656539e-01
1	 6.177432e-01	 1.855422e+00	 2.740971e-01
1	 5.961641e-01	 1.862468e+00	 1.077460e-01
1	 5.745656e-01	 1.869244e+00	-1.260489e-01
1	 5.529523e-01	 1.875751e+00	-4.198439e-01
1	 5.313291e-01	 1.881990e+00	-7.661186e-01
1	 6.417196e-01	 1.855106e+00	 3.729497e-01
1	 6.200831e-01	 1.862450e+00	 2.811636e-01
1	 5.984223e-01	 1.869522e+00	 1.253545e-01
1	 5.767420e-01	 1.876324e+00	-8.938435e-02
1	 5.550469e-01	 1.882856e+00	-3.578993e-01
1	 5.333417e-01	 1.889119e+00	-6.749881e-01
1	 5.232787e-01	 1.853475e+00	-1.186821e+00
1	 5.019778e-01	 1.859357e+00	-1.693845e+00
1	 4.806762e-01	 1.864977e+00	-2.277818e+00
1	 4.593783e-01	 1.870337e+00	-2.942723e+00
1	 4.380886e-01	 1.875438e+00	-3.692436e+00
1	 4.168113e-01	 1.880282e+00	-4.530719e+00
1	 5.252913e-01	 1.860604e+00	-1.072837e+00
1	 5.039085e-01	 1.866509e+00	-1.553387e+00
1	 4.825250e-01	 1.872150e+00	-2.101078e+00
1	 4.611452e-01	 1.877531e+00	-2.721517e+00
1	 4.397735e-01	 1.882652e+00	-3.420215e+00
1	 4.184144e-01	 1.887513e+00	-4.202583e+00
1	 5.273039e-01	 1.867733e+00	-9.648538e-01
1	 5.058392e-01	 1.873660e+00	-1.417380e+00
1	 4.843737e-01	 1.879323e+00	-1.929441e+00
1	 4.629120e-01	 1.884725e+00	-2.507593e+00
1	 4.414585e-01	 1.889865e+00	-3.158316e+00
1	 4.200176e-01	 1.894745e+00	-3.887990e+00
1	 5.293165e-01	 1.874861e+00	-8.626779e-01
1	 5.077699e-01	 1.880811e+00	-1.285936e+00
1	 4.862225e-01	 1.886496e+00	-1.763207e+00
1	 4.646788e-01	 1.891918e+00	-2.301344e+00
1	 4.431434e-01	 1.897078e+00	-2.907122e+00
1	 4.216207e-01	 1.901977e+00	-3.587226e+00
1	 5.313291e-01	 1.881990e+00	-7.661186e-01
1	 5.097006e-01	 1.887963e+00	-1.159162e+00
1	 4.880712e-01	 1.893669e+00	-1.602674e+00
1	 4.664457e-01	 1.899112e+00	-2.103152e+00
1	 4.448284e-01	 1.904291e+00	-2.667012e+00
1	 4.232238e-01	 1.909209e+00	-3.300578e+00
1	 5.333417e-01	 1.889119e+00	-6.749881e-01
1	 5.116312e-01	 1.895114e+00	-1.037165e+00
1	 4.899200e-01	 1.900842e+00	-1.448137e+00
1	 4.682125e-01	 1.906305e+00	-1.913399e+00
1	 4.465133e-01	 1.911504e+00	-2.438358e+00
1	 4.248269e-01	 1.916441e+00	-3.028325e+00
1	 4.168113e-01	 1.880282e+00	-4.530719e+00
1	 3.955509e-01	 1.884869e+00	-5.463091e+00
1	 3.743114e-01	 1.889201e+00	-6.478891e+00
1	 3.530972e-01	 1.893281e+00	-7.557554e+00
1	 3.319122e-01	 1.897110e+00	-8.678604e+00
1	 3.107606e-01	 1.900689e+00	-9.821685e+00
1	 4.184144e-01	 1.887513e+00	-4.202583e+00
1	 3.970722e-01	 1.892118e+00	-5.074940e+00
1	 3.757511e-01	 1.896467e+00	-6.026868e+00
1	 3.544552e-01	 1.900563e+00	-7.038623e+00
1	 3.331888e-01	 1.904406e+00	-8.090538e+00
1	 3.119558e-01	 1.907999e+00	-9.163052e+00
1	 4.200176e-01	 1.894745e+00	-3.887990e+00
1	 3.985936e-01	 1.899368e+00	-4.703117e+00
1	 3.771907e-01	 1.903734e+00	-5.593442e+00
1	 3.558133e-01	 1.907845e+00	-6.540165e+00
1	 3.344654e-01	 1.911703e+00	-7.524548e+00
1	 3.131510e-01	 1.915310e+00	-8.527952e+00
1	 4.216207e-01	 1.901977e+00	-3.587226e+00
1	 4.001149e-01	 1.906617e+00	-4.347795e+00
1	 3.786304e-01	 1.911000e+00	-5.178716e+00
1	 3.571714e-01	 1.915127e+00	-6.062247e+00
1	 3.357420e-01	 1.918999e+00	-6.980704e+00
1	 3.143463e-01	 1.922620e+00	-7.916498e+00
1	 4.232238e-01	 1.909209e+00	-3.300578e+00
1	 4.016363e-01	 1.913867e+00	-4.009147e+00
1	 3.800701e-01	 1.918266e+00	-4.782788e+00
1	 3.585294e-01	 1.922408e+00	-5.604935e+00
1	 3.370185e-01	 1.926296e+00	-6.459079e+00
1	 3.155415e-01	 1.929930e+00	-7.328801e+00
1	 4.248269e-01	 1.916441e+00	-3.028325e+00
1	 4.031576e-01	 1.921116e+00	-3.687341e+00
1	 3.815097e-01	 1.925532e+00	-4.405756e+00
1	 3.598875e-01	 1.929690e+00	-5.168294e+00
1	 3.382951e-01	 1.933593e+00	-5.959741e+00
1	 3.167367e-01	 1.937241e+00	-6.764971e+00
1	 3.107606e-01	 1.900689e+00	-9.821685e+00
1	 2.896462e-01	 1.904021e+00	-1.096613e+01
1	 2.685730e-01	 1.907108e+00	-1.209383e+01
1	 2.475448e-01	 1.909951e+00	-1.318854e+01
1	 2.265653e-01	 1.912553e+00	-1.423423e+01
1	 2.056382e-01	 1.914916e+00	-1.521512e+01
1	 3.119558e-01	 1.907999e+00	-9.163052e+00
1	 2.907602e-01	 1.911344e+00	-1.023643e+01
1	 2.696060e-01	 1.914443e+00	-1.129354e+01
1	 2.484969e-01	 1.917297e+00	-1.231896e+01
1	 2.274367e-01	 1.919909e+00	-1.329748e+01
1	 2.064291e-01	 1.922281e+00	-1.421413e+01
1	 3.131510e-01	 1.915310e+00	-8.527952e+00
1	 2.918742e-01	 1.918667e+00	-9.531708e+00
1	 2.706389e-01	 1.921778e+00	-1.051968e+01
1	 2.494490e-01	 1.924643e+00	-1.147727e+01
1	 2.283081e-01	 1.927265e+00	-1.239008e+01
1	 2.072200e-01	 1.929646e+00	-1.324393e+01
1	 3.143463e-01	 1.922620e+00	-7.916498e+00
1	 2.929883e-01	 1.925990e+00	-8.852114e+00
1	 2.716719e-01	 1.929113e+00	-9.772427e+00
1	 2.504011e-01	 1.931989e+00	-1.066365e+01
1	 2.291795e-01	 1.934621e+00	-1.151218e+01
1	 2.080109e-01	 1.937011e+00	-1.230463e+01
1	 3.155415e-01	 1.929930e+00	-7.328801e+00
1	 2.941023e-01	 1.933314e+00	-8.197808e+00
1	 2.727049e-01	 1.936448e+00	-9.051961e+00
1	 2.513532e-01	 1.939335e+00	-9.878277e+00
1	 2.300509e-01	 1.941977e+00	-1.066394e+01
1	 2.088018e-01	 1.944376e+00	-1.139633e+01
1	 3.167367e-01	 1.937241e+00	-6.764971e+00
1	 2.952163e-01	 1.940637e+00	-7.568945e+00
1	 2.737379e-01	 1.943783e+00	-8.358460e+00
1	 2.523052e-01	 1.946681e+00	-9.121328e+00
1	 2.309223e-01	 1.949333e+00	-9.845508e+00
1	 2.095928e-01	 1.951741e+00	-1.051913e+01
1	 2.056382e-01	 1.914916e+00	-1.521512e+01
1	 1.847671e-01	 1.917042e+00	-1.611533e+01
1	 1.639555e-01	 1.918934e+00	-1.692536e+01
1	 1.432068e-01	 1.920594e+00	-1.763946e+01
1	 1.225244e-01	 1.922025e+00	-1.825205e+01
1	 1.019115e-01	 1.923228e+00	-1.875779e+01
1	 2.064291e-01	 1.922281e+00	-1.421413e+01
1	 1.854777e-01	 1.924416e+00	-1.505406e+01
1	 1.645861e-01	 1.926315e+00	-1.580906e+01
1	 1.437576e-01	 1.927981e+00	-1.647452e+01
1	 1.229956e-01	 1.929417e+00	-1.704600e+01
1	 1.023035e-01	 1.930625e+00	-1.751928e+01
1	 2.072200e-01	 1.929646e+00	-1.324393e+01
1	 1.861884e-01	 1.931789e+00	-1.402500e+01
1	 1.652166e-01	 1.933695e+00	-1.472629e+01
1	 1.443084e-01	 1.935368e+00	-1.534421e+01
1	 1.234669e-01	 1.936809e+00	-1.587539e+01
1	 1.026955e-01	 1.938022e+00	-1.631658e+01
1	 2.080109e-01	 1.937011e+00	-1.230463e+01
1	 1.868990e-01	 1.939162e+00	-1.302819e+01
1	 1.658472e-01	 1.941076e+00	-1.367704e+01
1	 1.448592e-01	 1.942755e+00	-1.424852e+01
1	 1.239381e-01	 1.944202e+00	-1.474016e+01
1	 1.030875e-01	 1.945419e+00	-1.514964e+01
1	 2.088018e-01	 1.944376e+00	-1.139633e+01
1	 1.876096e-01	 1.946535e+00	-1.206370e+01
1	 1.664778e-01	 1.948456e+00	-1.266133e+01
1	 1.454100e-01	 1.950142e+00	-1.318740e+01
1	 1.244094e-01	 1.951594e+00	-1.364025e+01
1	 1.034794e-01	 1.952816e+00	-1.401838e+01
1	 2.095928e-01	 1.951741e+00	-1.051913e+01
1	 1.883203e-01	 1.953909e+00	-1.113155e+01
1	 1.671084e-01	 1.955837e+00	-1.167915e+01
1	 1.459607e-01	 1.957529e+00	-1.216083e+01
1	 1.248806e-01	 1.958987e+00	-1.257563e+01
1	 1.038714e-01	 1.960213e+00	-1.292275e+01
1	 1.019115e-01	 1.923228e+00	-1.875779e+01
1	 8.137149e-02	 1.924206e+00	-1.914680e+01
1	 6.090730e-02	 1.924963e+00	-1.940164e+01
1	 4.052204e-02	 1.925500e+00	-1.950598e+01
1	 2.021865e-02	 1.925820e+00	-1.944393e+01
1	 0.000000e+00	 1.925926e+00	-1.919999e+01
1	 1.023035e-01	 1.930625e+00	-1.751928e+01
1	 8.168445e-02	 1.931607e+00	-1.788530e+01
1	 6.114156e-02	 1.932366e+00	-1.812751e+01
1	 4.067789e-02	 1.932905e+00	-1.823081e+01
1	 2.029641e-02	 1.933227e+00	-1.818048e+01
1	 0.000000e+00	 1.933333e+00	-1.796215e+01
1	 1.026955e-01	 1.938022e+00	-1.631658e+01
1	 8.199742e-02	 1.939008e+00	-1.665953e+01
1	 6.137582e-02	 1.939770e+00	-1.688889e+01
1	 4.083375e-02	 1.940311e+00	-1.699125e+01
1	 2.037418e-02	 1.940634e+00	-1.695351e+01
1	 0.000000e+00	 1.940741e+00	-1.676288e+01
1	 1.030875e-01	 1.945419e+00	-1.514964e+01
1	 8.231039e-02	 1.946409e+00	-1.546942e+01
1	 6.161008e-02	 1.947174e+00	-1.568577e+01
1	 4.098960e-02	 1.947717e+00	-1.578736e+01
1	 2.045194e-02	 1.948041e+00	-1.576316e+01
1	 0.000000e+00	 1.948148e+00	-1.560241e+01
1	 1.034794e-01	 1.952816e+00	-1.401838e+01
1	 8.262336e-02	 1.953809e+00	-1.431495e+01
1	 6.184434e-02	 1.954577e+00	-1.451814e+01
1	 4.114546e-02	 1.955123e+00	-1.461919e+01
1	 2.052970e-02	 1.955448e+00	-1.460958e+01
1	 0.000000e+00	 1.955556e+00	-1.448099e+01
1	 1.038714e-01	 1.960213e+00	-1.292275e+01
1	 8.293632e-02	 1.961210e+00	-1.319606e+01
1	 6.207860e-02	 1.961981e+00	-1.338600e+01
1	 4.130131e-02	 1.962528e+00	-1.348681e+01
1	 2.060747e-02	 1.962855e+00	-1.349290e+01
1	 0.000000e+00	 1.962963e+00	-1.339883e+01
1	 1.962963e+00	 0.000000e+00	 2.558153e+00
1	 1.962855e+00	 2.060747e-02	 2.564497e+00
1	 1.962528e+00	 4.130131e-02	 2.550312e+00
1	 1.961981e+00	 6.207860e-02	 2.516777e+00
1	 1.961210e+00	 8.293632e-02	 2.464988e+00
1	 1.960213e+00	 1.038714e-01	 2.395957e+00
1	 1.970370e+00	 0.000000e+00	 2.344929e+00
1	 1.970262e+00	 2.068523e-02	 2.349248e+00
1	 1.969934e+00	 4.145716e-02	 2.336355e+00
1	 1.969385e+00	 6.231286e-02	 2.306639e+00
1	 1.968611e+00	 8.324929e-02	 2.260415e+00
1	 1.967610e+00	 1.042634e-01	 2.197923e+00
1	 1.977778e+00	 0.000000e+00	 2.143809e+00
1	 1.977669e+00	 2.076300e-02	 2.143728e+00
1	 1.977340e+00	 4.161302e-02	 2.130695e+00
1	 1.976789e+00	 6.254712e-02	 2.104055e+00
1	 1.976012e+00	 8.356226e-02	 2.063137e+00
1	 1.975007e+00	 1.046553e-01	 2.007260e+00
1	 1.985185e+00	 0.000000e+00	 1.957037e+00
1	 1.985076e+00	 2.084076e-02	 1.948703e+00
1	 1.984746e+00	 4.176887e-02	 1.933062e+00
1	 1.984192e+00	 6.278138e-02	 1.908163e+00
1	 1.983413e+00	 8.387522e-02	 1.872154e+00
1	 1.982404e+00	 1.050473e-01	 1.823279e+00
1	 1.992593e+00	 0.000000e+00	 1.786825e+00
1	 1.992483e+00	 2.091852e-02	 1.764930e+00
1	 1.992151e+00	 4.192473e-02	 1.743190e+00
1	 1.991596e+00	 6.301563e-02	 1.718119e+00
1	 1.990813e+00	 8.418819e-02	 1.686478e+00
1	 1.989801e+00	 1.054393e-01	 1.645298e+00
1	 2.000000e+00	 0.000000e+00	 1.635349e+00
1	 1.999890e+00	 2.099629e-02	 1.593153e+00
1	 1.999557e+00	 4.208058e-02	 1.560821e+00
1	 1.999000e+00	 6.324989e-02	 1.533085e+00
1	 1.998214e+00	 8.450116e-02	 1.505138e+00
1	 1.997198e+00	 1.058312e-01	 1.472647e+00
1	 1.960213e+00	 1.038714e-01	 2.395957e+00
1	 1.958987e+00	 1.248806e-01	 2.313108e+00
1	 1.957529e+00	 1.459607e-01	 2.219351e+00
1	 1.955837e+00	 1.671084e-01	 2.114883e+00
1	 1.953909e+00	 1.883203e-01	 1.999946e+00
1	 1.951741e+00	 2.095928e-01	 1.874819e+00
1	 1.967610e+00	 1.042634e-01	 2.197923e+00
1	 1.966379e+00	 1.253519e-01	 2.122530e+00
1	 1.964916e+00	 1.465115e-01	 2.037533e+00
1	 1.963218e+00	 1.677390e-01	 1.943043e+00
1	 1.961282e+00	 1.890309e-01	 1.839209e+00
1	 1.959106e+00	 2.103837e-01	 1.726222e+00
1	 1.975007e+00	 1.046553e-01	 2.007260e+00
1	 1.973771e+00	 1.258231e-01	 1.939399e+00
1	 1.972303e+00	 1.470623e-01	 1.863039e+00
1	 1.970598e+00	 1.683696e-01	 1.778268e+00
1	 1.968655e+00	 1.897416e-01	 1.685203e+00
1	 1.966472e+00	 2.111746e-01	 1.583982e+00
1	 1.982404e+00	 1.050473e-01	 1.823279e+00
1	 1.981164e+00	 1.262944e-01	 1.763492e+00
1	 1.979690e+00	 1.476131e-01	 1.695961e+00
1	 1.977979e+00	 1.690002e-01	 1.620827e+00
1	 1.976028e+00	 1.904522e-01	 1.538222e+00
1	 1.973837e+00	 2.119655e-01	 1.448266e+00
1	 1.989801e+00	 1.054393e-01	 1.645298e+00
1	 1.988556e+00	 1.267656e-01	 1.594586e+00
1	 1.987076e+00	 1.481639e-01	 1.536393e+00
1	 1.985359e+00	 1.696308e-01	 1.470982e+00
1	 1.983402e+00	 1.911629e-01	 1.398552e+00
1	 1.981202e+00	 2.127564e-01	 1.319240e+00
1	 1.997198e+00	 1.058312e-01	 1.472647e+00
1	 1.995949e+00	 1.272369e-01	 1.432462e+00
1	 1.994463e+00	 1.487147e-01	 1.384428e+00
1	 1.992740e+00	 1.702614e-01	 1.328994e+00
1	 1.990775e+00	 1.918735e-01	 1.266479e+00
1	 1.988567e+00	 2.135473e-01	 1.197068e+00
1	 1.951741e+00	 2.095928e-01	 1.874819e+00
1	 1.949333e+00	 2.309223e-01	 1.740478e+00
1	 1.946681e+00	 2.523052e-01	 1.599160e+00
1	 1.943783e+00	 2.737379e-01	 1.453060e+00
1	 1.940637e+00	 2.952163e-01	 1.304355e+00
1	 1.937241e+00	 3.167367e-01	 1.155207e+00
1	 1.959106e+00	 2.103837e-01	 1.726222e+00
1	 1.956689e+00	 2.317937e-01	 1.604637e+00
1	 1.954027e+00	 2.532573e-01	 1.476225e+00
1	 1.951118e+00	 2.747708e-01	 1.343027e+00
1	 1.947960e+00	 2.963303e-01	 1.207057e+00
1	 1.944551e+00	 3.179320e-01	 1.070304e+00
1	 1.966472e+00	 2.111746e-01	 1.583982e+00
1	 1.964045e+00	 2.326651e-01	 1.474767e+00
1	 1.961373e+00	 2.542094e-01	 1.358868e+00
1	 1.958453e+00	 2.758038e-01	 1.238149e+00
1	 1.955283e+00	 2.974444e-01	 1.114450e+00
1	 1.951861e+00	 3.191272e-01	 9.895828e-01
1	 1.973837e+00	 2.119655e-01	 1.448266e+00
1	 1.971401e+00	 2.335365e-01	 1.350871e+00
1	 1.968719e+00	 2.551615e-01	 1.246994e+00
1	 1.965788e+00	 2.768368e-01	 1.138299e+00
1	 1.962606e+00	 2.985584e-01	 1.026441e+00
1	 1.959172e+00	 3.203224e-01	 9.130550e-01
1	 1.981202e+00	 2.127564e-01	 1.319240e+00
1	 1.978757e+00	 2.344079e-01	 1.232953e+00
1	 1.976065e+00	 2.561136e-01	 1.140506e+00
1	 1.973123e+00	 2.778697e-01	 1.043350e+00
1	 1.969929e+00	 2.996724e-01	 9.429409e-01
1	 1.966482e+00	 3.215177e-01	 8.407314e-01
1	 1.988567e+00	 2.135473e-01	 1.197068e+00
1	 1.986113e+00	 2.352793e-01	 1.121014e+00
1	 1.983411e+00	 2.570657e-01	 1.039312e+00
1	 1.980458e+00	 2.789027e-01	 9.531789e-01
1	 1.977253e+00	 3.007864e-01	 8.638588e-01
1	 1.973792e+00	 3.227129e-01	 7.726229e-01
1	 1.937241e+00	 3.167367e-01	 1.155207e+00
1	 1.933593e+00	 3.382951e-01	 1.007798e+00
1	 1.929690e+00	 3.598875e-01	 8.646315e-01
1	 1.925532e+00	 3.815097e-01	 7.283236e-01
1	 1.921116e+00	 4.031576e-01	 6.014757e-01
1	 1.916441e+00	 4.248269e-01	 4.866695e-01
1	 1.944551e+00	 3.179320e-01	 1.070304e+00
1	 1.940889e+00	 3.395717e-01	 9.348598e-01
1	 1.936972e+00	 3.612456e-01	 8.030978e-01
1	 1.932798e+00	 3.829494e-01	 6.773990e-01
1	 1.928366e+00	 4.046790e-01	 5.601345e-01
1	 1.923673e+00	 4.264300e-01	 4.536601e-01
1	 1.951861e+00	 3.191272e-01	 9.895828e-01
1	 1.948186e+00	 3.408483e-01	 8.655731e-01
1	 1.944254e+00	 3.626036e-01	 7.447036e-01
1	 1.940064e+00	 3.843890e-01	 6.291456e-01
1	 1.935615e+00	 4.062003e-01	 5.210578e-01
1	 1.930905e+00	 4.280332e-01	 4.225811e-01
1	 1.959172e+00	 3.203224e-01	 9.130550e-01
1	 1.955482e+00	 3.421249e-01	 8.000606e-01
1	 1.951536e+00	 3.639617e-01	 6.896317e-01
1	 1.947331e+00	 3.858287e-01	 5.837543e-01
1	 1.942865e+00	 4.077217e-01	 4.843920e-01
1	 1.938136e+00	 4.296363e-01	 3.934815e-01
1	 1.966482e+00	 3.215177e-01	 8.407314e-01
1	 1.962779e+00	 3.434015e-01	 7.384433e-01
1	 1.958818e+00	 3.653198e-01	 6.380624e-01
1	 1.954597e+00	 3.872684e-01	 5.414131e-01
1	 1.950114e+00	 4.092430e-01	 4.502811e-01
1	 1.945368e+00	 4.312394e-01	 3.664094e-01
1	 1.973792e+00	 3.227129e-01	 7.726229e-01
1	 1.970075e+00	 3.446781e-01	 6.808404e-01
1	 1.966100e+00	 3.666778e-01	 5.901731e-01
1	 1.961863e+00	 3.887080e-01	 5.023070e-01
1	 1.957364e+00	 4.107643e-01	 4.188669e-01
1	 1.952600e+00	 4.328425e-01	 3.414123e-01
1	 1.916441e+00	 4.248269e-01	 4.866695e-01
1	 1.911504e+00	 4.465133e-01	 3.845224e-01
1	 1.906305e+00	 4.682125e-01	 2.933896e-01
1	 1.900842e+00	 4.899200e-01	 2.124566e-01
1	 1.895114e+00	 5.116312e-01	 1.409312e-01
1	 1.889119e+00	 5.333417e-01	 7.804546e-02
1	 1.923673e+00	 4.264300e-01	 4.536601e-01
1	 1.918718e+00	 4.481983e-01	 3.587211e-01
1	 1.913499e+00	 4.699794e-01	 2.740368e-01
1	 1.908015e+00	 4.917687e-01	 1.989133e-01
1	 1.902265e+00	 5.135619e-01	 1.326632e-01
1	 1.896248e+00	 5.353543e-01	 7.460757e-02
1	 1.930905e+00	 4.280332e-01	 4.225811e-01
1	 1.925931e+00	 4.498833e-01	 3.345253e-01
1	 1.920693e+00	 4.717462e-01	 2.558886e-01
1	 1.915188e+00	 4.936175e-01	 1.860768e-01
1	 1.909417e+00	 5.154926e-01	 1.244949e-01
1	 1.903376e+00	 5.373670e-01	 7.054798e-02
1	 1.938136e+00	 4.296363e-01	 3.934815e-01
1	 1.933144e+00	 4.515682e-01	 3.118895e-01
1	 1.927886e+00	 4.735130e-01	 2.388642e-01
1	 1.922361e+00	 4.954662e-01	 1.738908e-01
1	 1.916568e+00	 5.174233e-01	 1.164539e-01
1	 1.910505e+00	 5.393796e-01	 6.603851e-02
1	 1.945368e+00	 4.312394e-01	 3.664094e-01
1	 1.940357e+00	 4.532532e-01	 2.907687e-01
1	 1.935080e+00	 4.752799e-01	 2.228839e-01
1	 1.929534e+00	 4.973150e-01	 1.622994e-01
1	 1.923719e+00	 5.193540e-01	 1.085673e-01
1	 1.917634e+00	 5.413922e-01	 6.124839e-02
1	 1.952600e+00	 4.328425e-01	 3.414123e-01
1	 1.947571e+00	 4.549381e-01	 2.711189e-01
1	 1.942274e+00	 4.770467e-01	 2.078693e-01
1	 1.936707e+00	 4.991637e-01	 1.512477e-01
1	 1.930871e+00	 5.212847e-01	 1.008618e-01
1	 1.924763e+00	 5.434048e-01	 5.634439e-02
1	 1.889119e+00	 5.333417e-01	 7.804546e-02
1	 1.882856e+00	 5.550469e-01	 2.281847e-02
1	 1.876324e+00	 5.767420e-01	-2.471669e-02
1	 1.869522e+00	 5.984223e-01	-6.380752e-02
1	 1.862450e+00	 6.200831e-01	-9.373074e-02
1	 1.855106e+00	 6.417196e-01	-1.137944e-01
1	 1.896248e+00	 5.353543e-01	 7.460757e-02
1	 1.889961e+00	 5.571414e-01	 2.367449e-02
1	 1.883405e+00	 5.789183e-01	-2.033983e-02
1	 1.876577e+00	 6.006805e-01	-5.678655e-02
1	 1.869478e+00	 6.224230e-01	-8.499277e-02
1	 1.862107e+00	 6.441411e-01	-1.042624e-01
1	 1.903376e+00	 5.373670e-01	 7.054798e-02
1	 1.897066e+00	 5.592359e-01	 2.328694e-02
1	 1.890485e+00	 5.810947e-01	-1.749594e-02
1	 1.883632e+00	 6.029387e-01	-5.123835e-02
1	 1.876506e+00	 6.247630e-01	-7.731894e-02
1	 1.869107e+00	 6.465627e-01	-9.505723e-02
1	 1.910505e+00	 5.393796e-01	 6.603851e-02
1	 1.904171e+00	 5.613304e-01	 2.193793e-02
1	 1.897566e+00	 5.832711e-01	-1.592125e-02
1	 1.890687e+00	 6.051969e-01	-4.704673e-02
1	 1.883534e+00	 6.271029e-01	-7.087029e-02
1	 1.876108e+00	 6.489843e-01	-8.674724e-02
1	 1.917634e+00	 5.413922e-01	 6.124839e-02
1	 1.911276e+00	 5.634249e-01	 1.990539e-02
1	 1.904646e+00	 5.854475e-01	-1.535591e-02
1	 1.897742e+00	 6.074551e-01	-4.409722e-02
1	 1.890563e+00	 6.294428e-01	-6.580546e-02
1	 1.883108e+00	 6.514059e-01	-7.989215e-02
1	 1.924763e+00	 5.434048e-01	 5.634439e-02
1	 1.918382e+00	 5.655194e-01	 1.746313e-02
1	 1.911726e+00	 5.876239e-01	-1.554393e-02
1	 1.904797e+00	 6.097133e-01	-4.227707e-02
1	 1.897591e+00	 6.317828e-01	-6.228077e-02
1	 1.890108e+00	 6.538275e-01	-7.504347e-02
1	 1.855106e+00	 6.417196e-01	-1.137944e-01
1	 1.847490e+00	 6.633268e-01	-1.219916e-01
1	 1.839602e+00	 6.849000e-01	-1.186326e-01
1	 1.831440e+00	 7.064342e-01	-1.066072e-01
1	 1.823006e+00	 7.279244e-01	-8.891083e-02
1	 1.814297e+00	 7.493657e-01	-6.863958e-02
1	 1.862107e+00	 6.441411e-01	-1.042624e-01
1	 1.854462e+00	 6.658300e-01	-1.127789e-01
1	 1.846544e+00	 6.874846e-01	-1.108312e-01
1	 1.838352e+00	 7.091000e-01	-1.009642e-01
1	 1.829885e+00	 7.306713e-01	-8.585479e-02
1	 1.821144e+00	 7.521935e-01	-6.830816e-02
1	 1.869107e+00	 6.465627e-01	-9.505723e-02
1	 1.861434e+00	 6.683331e-01	-1.030731e-01
1	 1.853486e+00	 6.900691e-01	-1.018804e-01
1	 1.845263e+00	 7.117658e-01	-9.369333e-02
1	 1.836764e+00	 7.334182e-01	-8.085397e-02
1	 1.827990e+00	 7.550213e-01	-6.583030e-02
1	 1.876108e+00	 6.489843e-01	-8.674724e-02
1	 1.868405e+00	 6.708362e-01	-9.381403e-02
1	 1.860428e+00	 6.926536e-01	-9.289062e-02
1	 1.852174e+00	 7.144316e-01	-8.587297e-02
1	 1.843643e+00	 7.361651e-01	-7.475243e-02
1	 1.834837e+00	 7.578491e-01	-6.161320e-02
1	 1.883108e+00	 6.514059e-01	-7.989215e-02
1	 1.875377e+00	 6.733393e-01	-8.592773e-02
1	 1.867370e+00	 6.952382e-01	-8.495532e-02
1	 1.859085e+00	 7.170974e-01	-7.856539e-02
1	 1.850523e+00	 7.389120e-01	-6.838164e-02
1	 1.841683e+00	 7.606769e-01	-5.605806e-02
1	 1.890108e+00	 6.538275e-01	-7.504347e-02
1	 1.882349e+00	 6.758424e-01	-8.032642e-02
1	 1.874311e+00	 6.978227e-01	-7.915199e-02
1	 1.865996e+00	 7.197632e-01	-7.281711e-02
1	 1.857402e+00	 7.416589e-01	-6.256078e-02
1	 1.848529e+00	 7.635047e-01	-4.956009e-02
1	 1.814297e+00	 7.493657e-01	-6.863958e-02
1	 1.805315e+00	 7.707529e-01	-4.777913e-02
1	 1.796060e+00	 7.920811e-01	-2.694844e-02
1	 1.786531e+00	 8.133452e-01	-7.257639e-03
1	 1.776729e+00	 8.345401e-01	 1.019713e-02
1	 1.766655e+00	 8.556608e-01	 2.433604e-02
1	 1.821144e+00	 7.521935e-01	-6.830816e-02
1	 1.812128e+00	 7.736614e-01	-4.978121e-02
1	 1.802837e+00	 7.950701e-01	-3.056126e-02
1	 1.793273e+00	 8.164145e-01	-1.180209e-02
1	 1.783434e+00	 8.376893e-01	 5.332678e-03
1	 1.773321e+00	 8.588897e-01	 1.967164e-02
1	 1.827990e+00	 7.550213e-01	-6.583030e-02
1	 1.818940e+00	 7.765699e-01	-4.954325e-02
1	 1.809615e+00	 7.980591e-01	-3.196290e-02
1	 1.800014e+00	 8.194837e-01	-1.426731e-02
1	 1.790138e+00	 8.408386e-01	 2.307963e-03
1	 1.779988e+00	 8.621186e-01	 1.647134e-02
1	 1.834837e+00	 7.578491e-01	-6.161320e-02
1	 1.825753e+00	 7.794784e-01	-4.701285e-02
1	 1.816393e+00	 8.010481e-01	-3.079855e-02
1	 1.806756e+00	 8.225529e-01	-1.415369e-02
1	 1.796843e+00	 8.439878e-01	 1.609617e-03
1	 1.786654e+00	 8.653475e-01	 1.505094e-02
1	 1.841683e+00	 7.606769e-01	-5.605806e-02
1	 1.832565e+00	 7.823869e-01	-4.213839e-02
1	 1.823170e+00	 8.040371e-01	-2.671869e-02
1	 1.813498e+00	 8.256221e-01	-1.096903e-02
1	 1.803548e+00	 8.471370e-01	 3.717030e-03
1	 1.793321e+00	 8.685764e-01	 1.572158e-02
1	 1.848529e+00	 7.635047e-01	-4.956009e-02
1	 1.839378e+00	 7.852954e-01	-3.486904e-02
1	 1.829948e+00	 8.070261e-01	-1.937897e-02
1	 1.820239e+00	 8.286914e-01	-4.228453e-03
1	 1.810252e+00	 8.502862e-01	 9.102494e-03
1	 1.799988e+00	 8.718053e-01	 1.878977e-02
1	 1.766655e+00	 8.556608e-01	 2.433604e-02
1	 1.756308e+00	 8.767020e-01	 3.032189e-02
1	 1.745690e+00	 8.976587e-01	 2.439055e-02
1	 1.734801e+00	 9.185258e-01	 7.183995e-03
1	 1.723642e+00	 9.392982e-01	-2.052404e-02
1	 1.712215e+00	 9.599707e-01	-5.782807e-02
1	 1.773321e+00	 8.588897e-01	 1.967164e-02
1	 1.762935e+00	 8.800103e-01	 2.659313e-02
1	 1.752277e+00	 9.010461e-01	 2.250937e-02
1	 1.741347e+00	 9.219919e-01	 7.892085e-03
1	 1.730147e+00	 9.428427e-01	-1.665747e-02
1	 1.718676e+00	 9.635932e-01	-5.040822e-02
1	 1.779988e+00	 8.621186e-01	 1.647134e-02
1	 1.769563e+00	 8.833186e-01	 2.389345e-02
1	 1.758865e+00	 9.044335e-01	 2.123750e-02
1	 1.747894e+00	 9.254581e-01	 8.761185e-03
1	 1.736651e+00	 9.463872e-01	-1.314154e-02
1	 1.725137e+00	 9.672158e-01	-4.393971e-02
1	 1.786654e+00	 8.653475e-01	 1.505094e-02
1	 1.776191e+00	 8.866269e-01	 2.231854e-02
1	 1.765452e+00	 9.078209e-01	 2.050990e-02
1	 1.754440e+00	 9.289242e-01	 9.625470e-03
1	 1.743155e+00	 9.499317e-01	-1.018251e-02
1	 1.731598e+00	 9.708383e-01	-3.860849e-02
1	 1.793321e+00	 8.685764e-01	 1.572158e-02
1	 1.782818e+00	 8.899352e-01	 2.196265e-02
1	 1.772040e+00	 9.112083e-01	 2.026251e-02
1	 1.760987e+00	 9.323904e-01	 1.032158e-02
1	 1.749659e+00	 9.534763e-01	-7.983555e-03
1	 1.738060e+00	 9.744608e-01	-3.459778e-02
1	 1.799988e+00	 8.718053e-01	 1.878977e-02
1	 1.789446e+00	 8.932435e-01	 2.291863e-02
1	 1.778627e+00	 9.145957e-01	 2.043219e-02
1	 1.767533e+00	 9.358565e-01	 1.068857e-02
1	 1.756164e+00	 9.570208e-01	-6.744869e-03
1	 1.744521e+00	 9.780834e-01	-3.208807e-02
1	 1.712215e+00	 9.599707e-01	-5.782807e-02
1	 1.700520e+00	 9.805383e-01	-1.050461e-01
1	 1.688559e+00	 1.000996e+00	-1.620934e-01
1	 1.676333e+00	 1.021338e+00	-2.271991e-01
1	 1.663844e+00	 1.041561e+00	-2.983757e-01
1	 1.651093e+00	 1.061658e+00	-3.734208e-01
1	 1.718676e+00	 9.635932e-01	-5.040822e-02
1	 1.706937e+00	 9.842384e-01	-9.352156e-02
1	 1.694931e+00	 1.004773e+00	-1.456018e-01
1	 1.682659e+00	 1.025192e+00	-2.048121e-01
1	 1.670122e+00	 1.045491e+00	-2.690862e-01
1	 1.657323e+00	 1.065664e+00	-3.361302e-01
1	 1.725137e+00	 9.672158e-01	-4.393971e-02
1	 1.713354e+00	 9.879386e-01	-8.361893e-02
1	 1.701303e+00	 1.008550e+00	-1.314066e-01
1	 1.688984e+00	 1.029046e+00	-1.853490e-01
1	 1.676401e+00	 1.049421e+00	-2.432501e-01
1	 1.663554e+00	 1.069670e+00	-3.026737e-01
1	 1.731598e+00	 9.708383e-01	-3.860849e-02
1	 1.719771e+00	 9.916387e-01	-7.547457e-02
1	 1.707675e+00	 1.012328e+00	-1.195975e-01
1	 1.695310e+00	 1.032901e+00	-1.688559e-01
1	 1.682679e+00	 1.053352e+00	-2.208738e-01
1	 1.669784e+00	 1.073676e+00	-2.730224e-01
1	 1.738060e+00	 9.744608e-01	-3.459778e-02
1	 1.726188e+00	 9.953388e-01	-6.922288e-02
1	 1.714047e+00	 1.016105e+00	-1.102627e-01
1	 1.701636e+00	 1.036755e+00	-1.553783e-01
1	 1.688958e+00	 1.057282e+00	-2.019636e-01
1	 1.676015e+00	 1.077683e+00	-2.471479e-01
1	 1.744521e+00	 9.780834e-01	-3.208807e-02
1	 1.732605e+00	 9.990390e-01	-6.499626e-02
1	 1.720418e+00	 1.019883e+00	-1.034891e-01
1	 1.707962e+00	 1.040609e+00	-1.449608e-01
1	 1.695237e+00	 1.061213e+00	-1.865259e-01
1	 1.682245e+00	 1.081689e+00	-2.250221e-01
1	 1.651093e+00	 1.061658e+00	-3.734208e-01
1	 1.638082e+00	 1.081624e+00	-4.447754e-01
1	 1.624813e+00	 1.101456e+00	-5.059861e-01
1	 1.611289e+00	 1.121148e+00	-5.564014e-01
1	 1.597510e+00	 1.140695e+00	-5.954394e-01
1	 1.583481e+00	 1.160092e+00	-6.225897e-01
1	 1.657323e+00	 1.065664e+00	-3.361302e-01
1	 1.644263e+00	 1.085706e+00	-3.992230e-01
1	 1.630945e+00	 1.105613e+00	-4.529711e-01
1	 1.617369e+00	 1.125379e+00	-4.969684e-01
1	 1.603539e+00	 1.144999e+00	-5.308974e-01
1	 1.589456e+00	 1.164469e+00	-5.545302e-01
1	 1.663554e+00	 1.069670e+00	-3.026737e-01
1	 1.650445e+00	 1.089788e+00	-3.577975e-01
1	 1.637076e+00	 1.109769e+00	-4.044007e-01
1	 1.623449e+00	 1.129609e+00	-4.423518e-01
1	 1.609567e+00	 1.149304e+00	-4.716288e-01
1	 1.595432e+00	 1.168847e+00	-4.923193e-01
1	 1.669784e+00	 1.073676e+00	-2.730224e-01
1	 1.656626e+00	 1.093869e+00	-3.204429e-01
1	 1.643207e+00	 1.113926e+00	-3.602033e-01
1	 1.629530e+00	 1.133840e+00	-3.924755e-01
1	 1.615595e+00	 1.153608e+00	-4.175635e-01
1	 1.601407e+00	 1.173225e+00	-4.359033e-01
1	 1.676015e+00	 1.077683e+00	-2.471479e-01
1	 1.662808e+00	 1.097951e+00	-2.871041e-01
1	 1.649339e+00	 1.118082e+00	-3.203082e-01
1	 1.635610e+00	 1.138071e+00	-3.472641e-01
1	 1.621624e+00	 1.157913e+00	-3.686323e-01
1	 1.607382e+00	 1.177602e+00	-3.852290e-01
1	 1.682245e+00	 1.081689e+00	-2.250221e-01
1	 1.668989e+00	 1.102033e+00	-2.577267e-01
1	 1.655470e+00	 1.122238e+00	-2.846459e-01
1	 1.641690e+00	 1.142302e+00	-3.066436e-01
1	 1.627652e+00	 1.162217e+00	-3.247669e-01
1	 1.613358e+00	 1.181980e+00	-3.402445e-01
1	 1.583481e+00	 1.160092e+00	-6.225897e-01
1	 1.569202e+00	 1.179334e+00	-6.409112e-01
1	 1.554677e+00	 1.198417e+00	-6.533968e-01
1	 1.539908e+00	 1.217336e+00	-6.595164e-01
1	 1.524899e+00	 1.236086e+00	-6.587738e-01
1	 1.509651e+00	 1.254663e+00	-6.507072e-01
1	 1.589456e+00	 1.164469e+00	-5.545302e-01
1	 1.575124e+00	 1.183784e+00	-5.708371e-01
1	 1.560544e+00	 1.202939e+00	-5.820874e-01
1	 1.545719e+00	 1.221929e+00	-5.870509e-01
1	 1.530653e+00	 1.240750e+00	-5.844740e-01
1	 1.515348e+00	 1.259397e+00	-5.730822e-01
1	 1.595432e+00	 1.168847e+00	-4.923193e-01
1	 1.581045e+00	 1.188234e+00	-5.071067e-01
1	 1.566411e+00	 1.207461e+00	-5.173406e-01
1	 1.551530e+00	 1.226523e+00	-5.211290e-01
1	 1.536407e+00	 1.245415e+00	-5.164998e-01
1	 1.521044e+00	 1.264132e+00	-5.014044e-01
1	 1.601407e+00	 1.173225e+00	-4.359033e-01
1	 1.586967e+00	 1.192685e+00	-4.496891e-01
1	 1.572277e+00	 1.211984e+00	-4.591516e-01
1	 1.557341e+00	 1.231117e+00	-4.617747e-01
1	 1.542162e+00	 1.250079e+00	-4.549057e-01
1	 1.526741e+00	 1.268866e+00	-4.357603e-01
1	 1.607382e+00	 1.177602e+00	-3.852290e-01
1	 1.592888e+00	 1.197135e+00	-3.985542e-01
1	 1.578144e+00	 1.216506e+00	-4.075159e-01
1	 1.563152e+00	 1.235710e+00	-4.090113e-01
1	 1.547916e+00	 1.254744e+00	-3.997451e-01
1	 1.532438e+00	 1.273601e+00	-3.762351e-01
1	 1.613358e+00	 1.181980e+00	-3.402445e-01
1	 1.598810e+00	 1.201585e+00	-3.536722e-01
1	 1.584011e+00	 1.221028e+00	-3.624288e-01
1	 1.568963e+00	 1.240304e+00	-3.628619e-01
1	 1.553670e+00	 1.259408e+00	-3.510707e-01
1	 1.538135e+00	 1.278335e+00	-3.229129e-01
1	 1.509651e+00	 1.254663e+00	-6.507072e-01
1	 1.494168e+00	 1.273062e+00	-6.259276e-01
1	 1.478453e+00	 1.291279e+00	-5.799254e-01
1	 1.462509e+00	 1.309309e+00	-5.199637e-01
1	 1.446340e+00	 1.327149e+00	-4.537994e-01
1	 1.429949e+00	 1.344793e+00	-3.896680e-01
1	 1.515348e+00	 1.259397e+00	-5.730822e-01
1	 1.499806e+00	 1.277866e+00	-5.443412e-01
1	 1.484032e+00	 1.296151e+00	-4.952052e-01
1	 1.468028e+00	 1.314250e+00	-4.330171e-01
1	 1.451798e+00	 1.332157e+00	-3.656410e-01
1	 1.435345e+00	 1.349868e+00	-3.014463e-01
1	 1.521044e+00	 1.264132e+00	-5.014044e-01
1	 1.505445e+00	 1.282670e+00	-4.684222e-01
1	 1.489611e+00	 1.301024e+00	-4.161480e-01
1	 1.473547e+00	 1.319191e+00	-3.519187e-01
1	 1.457256e+00	 1.337165e+00	-2.836172e-01
1	 1.440741e+00	 1.354943e+00	-2.196564e-01
1	 1.526741e+00	 1.268866e+00	-4.357603e-01
1	 1.511083e+00	 1.287474e+00	-3.982820e-01
1	 1.495190e+00	 1.305897e+00	-3.428751e-01
1	 1.479066e+00	 1.324131e+00	-2.767857e-01
1	 1.462714e+00	 1.342173e+00	-2.078280e-01
1	 1.446137e+00	 1.360017e+00	-1.443690e-01
1	 1.532438e+00	 1.273601e+00	-3.762351e-01
1	 1.516721e+00	 1.292278e+00	-3.340305e-01
1	 1.500769e+00	 1.310770e+00	-2.755064e-01
1	 1.484585e+00	 1.329072e+00	-2.077339e-01
1	 1.468172e+00	 1.347181e+00	-1.383722e-01
1	 1.451533e+00	 1.365092e+00	-7.565395e-02
1	 1.538135e+00	 1.278335e+00	-3.229129e-01
1	 1.522360e+00	 1.297082e+00	-2.757759e-01
1	 1.506348e+00	 1.315642e+00	-2.141598e-01
1	 1.490104e+00	 1.334013e+00	-1.448771e-01
1	 1.473630e+00	 1.352189e+00	-7.534685e-02
1	 1.456929e+00	 1.370167e+00	-1.357981e-02
1	 1.429949e+00	 1.344793e+00	-3.896680e-01
1	 1.413340e+00	 1.362239e+00	-3.420865e-01
1	 1.396516e+00	 1.379481e+00	-3.197476e-01
1	 1.379481e+00	 1.396516e+00	-3.224586e-01
1	 1.362239e+00	 1.413340e+00	-3.499738e-01
1	 1.344793e+00	 1.429949e+00	-4.019957e-01
1	 1.435345e+00	 1.349868e+00	-3.014463e-01
1	 1.418673e+00	 1.367379e+00	-2.536711e-01
1	 1.401786e+00	 1.384686e+00	-2.300586e-01
1	 1.384686e+00	 1.401786e+00	-2.310854e-01
1	 1.367379e+00	 1.418673e+00	-2.572013e-01
1	 1.349868e+00	 1.435345e+00	-3.088296e-01
1	 1.440741e+00	 1.354943e+00	-2.196564e-01
1	 1.424007e+00	 1.372520e+00	-1.719396e-01
1	 1.407056e+00	 1.389892e+00	-1.472924e-01
1	 1.389892e+00	 1.407056e+00	-1.469010e-01
1	 1.372520e+00	 1.424007e+00	-1.719526e-01
1	 1.354943e+00	 1.440741e+00	-2.236335e-01
1	 1.446137e+00	 1.360017e+00	-1.443690e-01
1	 1.429340e+00	 1.377660e+00	-9.693064e-02
1	 1.412325e+00	 1.395098e+00	-7.146134e-02
1	 1.395098e+00	 1.412325e+00	-6.989689e-02
1	 1.377660e+00	 1.429340e+00	-9.420274e-02
1	 1.360017e+00	 1.446137e+00	-1.463705e-01
1	 1.451533e+00	 1.365092e+00	-7.565395e-02
1	 1.434673e+00	 1.382801e+00	-2.868245e-02
1	 1.417595e+00	 1.400303e+00	-2.577603e-03
1	 1.400303e+00	 1.417595e+00	-6.448950e-05
1	 1.382801e+00	 1.434673e+00	-2.392744e-02
1	 1.365092e+00	 1.451533e+00	-7.700473e-02
1	 1.456929e+00	 1.370167e+00	-1.357981e-02
1	 1.440007e+00	 1.387941e+00	 3.276745e-02
1	 1.422865e+00	 1.405509e+00	 5.934675e-02
1	 1.405509e+00	 1.422865e+00	 6.260452e-02
1	 1.387941e+00	 1.440007e+00	 3.889741e-02
1	 1.370167e+00	 1.456929e+00	-1.550045e-02
1	 1.344793e+00	 1.429949e+00	-4.019957e-01
1	 1.327149e+00	 1.446340e+00	-4.859753e-01
1	 1.309309e+00	 1.462509e+00	-6.053359e-01
1	 1.291279e+00	 1.478453e+00	-7.533676e-01
1	 1.273062e+00	 1.494168e+00	-9.229299e-01
1	 1.254663e+00	 1.509651e+00	-1.106469e+00
1	 1.349868e+00	 1.435345e+00	-3.088296e-01
1	 1.332157e+00	 1.451798e+00	-3.925787e-01
1	 1.314250e+00	 1.468028e+00	-5.101862e-01
1	 1.296151e+00	 1.484032e+00	-6.543872e-01
1	 1.277866e+00	 1.499806e+00	-8.174479e-01
1	 1.259397e+00	 1.515348e+00	-9.911844e-01
1	 1.354943e+00	 1.440741e+00	-2.236335e-01
1	 1.337165e+00	 1.457256e+00	-3.075585e-01
1	 1.319191e+00	 1.473547e+00	-4.236361e-01
1	 1.301024e+00	 1.489611e+00	-5.641022e-01
1	 1.282670e+00	 1.505445e+00	-7.206887e-01
1	 1.264132e+00	 1.521044e+00	-8.846428e-01
1	 1.360017e+00	 1.446137e+00	-1.463705e-01
1	 1.342173e+00	 1.462714e+00	-2.308776e-01
1	 1.324131e+00	 1.479066e+00	-3.456665e-01
1	 1.305897e+00	 1.495190e+00	-4.825297e-01
1	 1.287474e+00	 1.511083e+00	-6.327224e-01
1	 1.268866e+00	 1.526741e+00	-7.869838e-01
1	 1.365092e+00	 1.451533e+00	-7.700473e-02
1	 1.347181e+00	 1.468172e+00	-1.624994e-01
1	 1.329072e+00	 1.484585e+00	-2.762588e-01
1	 1.310770e+00	 1.500769e+00	-4.096864e-01
1	 1.292278e+00	 1.516721e+00	-5.536183e-01
1	 1.273601e+00	 1.532438e+00	-6.983453e-01
1	 1.370167e+00	 1.456929e+00	-1.550045e-02
1	 1.352189e+00	 1.473630e+00	-1.023881e-01
1	 1.334013e+00	 1.490104e+00	-2.153946e-01
1	 1.315642e+00	 1.506348e+00	-3.455888e-01
1	 1.297082e+00	 1.522360e+00	-4.834444e-01
1	 1.278335e+00	 1.538135e+00	-6.188633e-01
1	 1.254663e+00	 1.509651e+00	-1.106469e+00
1	 1.236086e+00	 1.524899e+00	-1.288778e+00
1	 1.217336e+00	 1.539908e+00	-1.459004e+00
1	 1.198417e+00	 1.554677e+00	-1.615819e+00
1	 1.179334e+00	 1.569202e+00	-1.757892e+00
1	 1.160092e+00	 1.583481e+00	-1.883893e+00
1	 1.259397e+00	 1.515348e+00	-9.911844e-01
1	 1.240750e+00	 1.530653e+00	-1.161222e+00
1	 1.221929e+00	 1.545719e+00	-1.318314e+00
1	 1.202939e+00	 1.560544e+00	-1.461670e+00
1	 1.183784e+00	 1.575124e+00	-1.590529e+00
1	 1.164469e+00	 1.589456e+00	-1.704168e+00
1	 1.264132e+00	 1.521044e+00	-8.846428e-01
1	 1.245415e+00	 1.536407e+00	-1.042672e+00
1	 1.226523e+00	 1.551530e+00	-1.187259e+00
1	 1.207461e+00	 1.566411e+00	-1.318012e+00
1	 1.188234e+00	 1.581045e+00	-1.434603e+00
1	 1.168847e+00	 1.595432e+00	-1.536769e+00
1	 1.268866e+00	 1.526741e+00	-7.869838e-01
1	 1.250079e+00	 1.542162e+00	-9.333252e-01
1	 1.231117e+00	 1.557341e+00	-1.066053e+00
1	 1.211984e+00	 1.572277e+00	-1.185040e+00
1	 1.192685e+00	 1.586967e+00	-1.290251e+00
1	 1.173225e+00	 1.601407e+00	-1.381735e+00
1	 1.273601e+00	 1.532438e+00	-6.983453e-01
1	 1.254744e+00	 1.547916e+00	-8.333763e-01
1	 1.235710e+00	 1.563152e+00	-9.549068e-01
1	 1.216506e+00	 1.578144e+00	-1.062944e+00
1	 1.197135e+00	 1.592888e+00	-1.157604e+00
1	 1.177602e+00	 1.607382e+00	-1.239108e+00
1	 1.278335e+00	 1.538135e+00	-6.188633e-01
1	 1.259408e+00	 1.553670e+00	-7.430168e-01
1	 1.240304e+00	 1.568963e+00	-8.540298e-01
1	 1.221028e+00	 1.584011e+00	-9.519122e-01
1	 1.201585e+00	 1.598810e+00	-1.036795e+00
1	 1.181980e+00	 1.613358e+00	-1.108929e+00
1	 1.160092e+00	 1.583481e+00	-1.883893e+00
1	 1.140695e+00	 1.597510e+00	-1.995411e+00
1	 1.121148e+00	 1.611289e+00	-2.091968e+00
1	 1.101456e+00	 1.624813e+00	-2.169041e+00
1	 1.081624e+00	 1.638082e+00	-2.221996e+00
1	 1.061658e+00	 1.651093e+00	-2.246095e+00
1	 1.164469e+00	 1.589456e+00	-1.704168e+00
1	 1.144999e+00	 1.603539e+00	-1.804177e+00
1	 1.125379e+00	 1.617369e+00	-1.889672e+00
1	 1.105613e+00	 1.630945e+00	-1.956157e+00
1	 1.085706e+00	 1.644263e+00	-1.999009e+00
1	 1.065664e+00	 1.657323e+00	-2.013494e+00
1	 1.168847e+00	 1.595432e+00	-1.536769e+00
1	 1.149304e+00	 1.609567e+00	-1.625879e+00
1	 1.129609e+00	 1.623449e+00	-1.700653e+00
1	 1.109769e+00	 1.637076e+00	-1.756793e+00
1	 1.089788e+00	 1.650445e+00	-1.789876e+00
1	 1.069670e+00	 1.663554e+00	-1.795364e+00
1	 1.173225e+00	 1.601407e+00	-1.381735e+00
1	 1.153608e+00	 1.615595e+00	-1.460476e+00
1	 1.133840e+00	 1.629530e+00	-1.524835e+00
1	 1.113926e+00	 1.643207e+00	-1.570891e+00
1	 1.093869e+00	 1.656626e+00	-1.594604e+00
1	 1.073676e+00	 1.669784e+00	-1.591820e+00
1	 1.177602e+00	 1.607382e+00	-1.239108e+00
1	 1.157913e+00	 1.621624e+00	-1.307926e+00
1	 1.138071e+00	 1.635610e+00	-1.362144e+00
1	 1.118082e+00	 1.649339e+00	-1.398395e+00
1	 1.097951e+00	 1.662808e+00	-1.413201e+00
1	 1.077683e+00	 1.676015e+00	-1.402981e+00
1	 1.181980e+00	 1.613358e+00	-1.108929e+00
1	 1.162217e+00	 1.627652e+00	-1.168188e+00
1	 1.142302e+00	 1.641690e+00	-1.212508e+00
1	 1.122238e+00	 1.655470e+00	-1.239248e+00
1	 1.102033e+00	 1.668989e+00	-1.245673e+00
1	 1.081689e+00	 1.682245e+00	-1.228960e+00
1	 1.061658e+00	 1.651093e+00	-2.246095e+00
1	 1.041561e+00	 1.663844e+00	-2.233356e+00
1	 1.021338e+00	 1.676333e+00	-2.182068e+00
1	 1.000996e+00	 1.688559e+00	-2.096976e+00
1	 9.805383e-01	 1.700520e+00	-1.983010e+00
1	 9.599707e-01	 1.712215e+00	-1.845268e+00
1	 1.065664e+00	 1.657323e+00	-2.013494e+00
1	 1.045491e+00	 1.670122e+00	-1.992690e+00
1	 1.025192e+00	 1.682659e+00	-1.935906e+00
1	 1.004773e+00	 1.694931e+00	-1.847821e+00
1	 9.842384e-01	 1.706937e+00	-1.733296e+00
1	 9.635932e-01	 1.718676e+00	-1.597360e+00
1	 1.069670e+00	 1.663554e+00	-1.795364e+00
1	 1.049421e+00	 1.676401e+00	-1.767511e+00
1	 1.029046e+00	 1.688984e+00	-1.706461e+00
1	 1.008550e+00	 1.701303e+00	-1.616556e+00
1	 9.879386e-01	 1.713354e+00	-1.502310e+00
1	 9.672158e-01	 1.725137e+00	-1.368392e+00
1	 1.073676e+00	 1.669784e+00	-1.591820e+00
1	 1.053352e+00	 1.682679e+00	-1.558029e+00
1	 1.032901e+00	 1.695310e+00	-1.493955e+00
1	 1.012328e+00	 1.707675e+00	-1.403340e+00
1	 9.916387e-01	 1.719771e+00	-1.290072e+00
1	 9.708383e-01	 1.731598e+00	-1.158177e+00
1	 1.077683e+00	 1.676015e+00	-1.402981e+00
1	 1.057282e+00	 1.688958e+00	-1.364449e+00
1	 1.036755e+00	 1.701636e+00	-1.298606e+00
1	 1.016105e+00	 1.714047e+00	-1.208328e+00
1	 9.953388e-01	 1.726188e+00	-1.096603e+00
1	 9.744608e-01	 1.738060e+00	-9.665300e-01
1	 1.081689e+00	 1.682245e+00	-1.228960e+00
1	 1.061213e+00	 1.695237e+00	-1.186975e+00
1	 1.040609e+00	 1.707962e+00	-1.120629e+00
1	 1.019883e+00	 1.720418e+00	-1.031671e+00
1	 9.990390e-01	 1.732605e+00	-9.219209e-01
1	 9.780834e-01	 1.744521e+00	-7.932702e-01
1	 9.599707e-01	 1.712215e+00	-1.845268e+00
1	 9.392982e-01	 1.723642e+00	-1.688077e+00
1	 9.185258e-01	 1.734801e+00	-1.513995e+00
1	 8.976587e-01	 1.745690e+00	-1.325634e+00
1	 8.767020e-01	 1.756308e+00	-1.125667e+00
1	 8.556608e-01	 1.766655e+00	-9.168165e-01
1	 9.635932e-01	 1.718676e+00	-1.597360e+00
1	 9.428427e-01	 1.730147e+00	-1.444050e+00
1	 9.219919e-01	 1.741347e+00	-1.275889e+00
1	 9.010461e-01	 1.752277e+00	-1.095806e+00
1	 8.800103e-01	 1.762935e+00	-9.067962e-01
1	 8.588897e-01	 1.773321e+00	-7.119122e-01
1	 9.672158e-01	 1.725137e+00	-1.368392e+00
1	 9.463872e-01	 1.736651e+00	-1.218462e+00
1	 9.254581e-01	 1.747894e+00	-1.055424e+00
1	 9.044335e-01	 1.758865e+00	-8.830025e-01
1	 8.833186e-01	 1.769563e+00	-7.050064e-01
1	 8.621186e-01	 1.779988e+00	-5.253234e-01
1	 9.708383e-01	 1.731598e+00	-1.158177e+00
1	 9.499317e-01	 1.743155e+00	-1.010953e+00
1	 9.289242e-01	 1.754440e+00	-8.522061e-01
1	 9.078209e-01	 1.765452e+00	-6.869223e-01
1	 8.866269e-01	 1.776191e+00	-5.202124e-01
1	 8.653475e-01	 1.786654e+00	-3.573001e-01
1	 9.744608e-01	 1.738060e+00	-9.665300e-01
1	 9.534763e-01	 1.749659e+00	-8.211702e-01
1	 9.323904e-01	 1.760987e+00	-6.658453e-01
1	 9.112083e-01	 1.772040e+00	-5.072680e-01
1	 8.899352e-01	 1.782818e+00	-3.523306e-01
1	 8.685764e-01	 1.793321e+00	-2.080886e-01
1	 9.780834e-01	 1.744521e+00	-7.932702e-01
1	 9.570208e-01	 1.756164e+00	-6.487657e-01
1	 9.358565e-01	 1.767533e+00	-4.959585e-01
1	 9.145957e-01	 1.778627e+00	-3.437463e-01
1	 8.932435e-01	 1.789446e+00	-2.012783e-01
1	 8.718053e-01	 1.799988e+00	-7.793151e-02
1	 8.556608e-01	 1.766655e+00	-9.168165e-01
1	 8.345401e-01	 1.776729e+00	-7.049977e-01
1	 8.133452e-01	 1.786531e+00	-4.976975e-01
1	 7.920811e-01	 1.796060e+00	-3.000751e-01
1	 7.707529e-01	 1.805315e+00	-1.173335e-01
1	 7.493657e-01	 1.814297e+00	 4.529304e-02
1	 8.588897e-01	 1.773321e+00	-7.119122e-01
1	 8.376893e-01	 1.783434e+00	-5.173918e-01
1	 8.164145e-01	 1.793273e+00	-3.304900e-01
1	 7.950701e-01	 1.802837e+00	-1.558516e-01
1	 7.736614e-01	 1.812128e+00	 1.851424e-03
1	 7.521935e-01	 1.821144e+00	 1.379295e-01
1	 8.621186e-01	 1.779988e+00	-5.253234e-01
1	 8.408386e-01	 1.790138e+00	-3.506315e-01
1	 8.194837e-01	 1.800014e+00	-1.871599e-01
1	 7.980591e-01	 1.809615e+00	-3.817230e-02
1	 7.765699e-01	 1.818940e+00	 9.307869e-02
1	 7.550213e-01	 1.827990e+00	 2.033579e-01
1	 8.653475e-01	 1.786654e+00	-3.573001e-01
1	 8.439878e-01	 1.796843e+00	-2.052512e-01
1	 8.225529e-01	 1.806756e+00	-6.831729e-02
1	 8.010481e-01	 1.816393e+00	 5.247530e-02
1	 7.794784e-01	 1.825753e+00	 1.561720e-01
1	 7.578491e-01	 1.834837e+00	 2.418909e-01
1	 8.685764e-01	 1.793321e+00	-2.080886e-01
1	 8.471370e-01	 1.803548e+00	-8.177739e-02
1	 8.256221e-01	 1.813498e+00	 2.543682e-02
1	 8.040371e-01	 1.823170e+00	 1.156112e-01
1	 7.823869e-01	 1.832565e+00	 1.909578e-01
1	 7.606769e-01	 1.841683e+00	 2.538363e-01
1	 8.718053e-01	 1.799988e+00	-7.793151e-02
1	 8.502862e-01	 1.810252e+00	 1.927122e-02
1	 8.286914e-01	 1.820239e+00	 9.351021e-02
1	 8.070261e-01	 1.829948e+00	 1.507624e-01
1	 7.852954e-01	 1.839378e+00	 1.972648e-01
1	 7.635047e-01	 1.848529e+00	 2.394974e-01
1	 7.493657e-01	 1.814297e+00	 4.529304e-02
1	 7.279244e-01	 1.823006e+00	 1.851717e-01
1	 7.064342e-01	 1.831440e+00	 2.970715e-01
1	 6.849000e-01	 1.839602e+00	 3.718101e-01
1	 6.633268e-01	 1.847490e+00	 4.001761e-01
1	 6.417196e-01	 1.855106e+00	 3.729497e-01
1	 7.521935e-01	 1.821144e+00	 1.379295e-01
1	 7.306713e-01	 1.829885e+00	 2.503928e-01
1	 7.091000e-01	 1.838352e+00	 3.359811e-01
1	 6.874846e-01	 1.846544e+00	 3.880719e-01
1	 6.658300e-01	 1.854462e+00	 4.000273e-01
1	 6.441411e-01	 1.862107e+00	 3.652083e-01
1	 7.550213e-01	 1.827990e+00	 2.033579e-01
1	 7.334182e-01	 1.836764e+00	 2.919131e-01
1	 7.117658e-01	 1.845263e+00	 3.567145e-01
1	 6.900691e-01	 1.853486e+00	 3.926036e-01
1	 6.683331e-01	 1.861434e+00	 3.943972e-01
1	 6.465627e-01	 1.869107e+00	 3.568999e-01
1	 7.578491e-01	 1.834837e+00	 2.418909e-01
1	 7.361651e-01	 1.843643e+00	 3.104972e-01
1	 7.144316e-01	 1.852174e+00	 3.602535e-01
1	 6.926536e-01	 1.860428e+00	 3.863814e-01
1	 6.708362e-01	 1.868405e+00	 3.840474e-01
1	 6.489843e-01	 1.876108e+00	 3.483750e-01
1	 7.606769e-01	 1.841683e+00	 2.538363e-01
1	 7.389120e-01	 1.850523e+00	 3.068985e-01
1	 7.170974e-01	 1.859085e+00	 3.475651e-01
1	 6.952382e-01	 1.867370e+00	 3.703670e-01
1	 6.733393e-01	 1.875377e+00	 3.697280e-01
1	 6.514059e-01	 1.883108e+00	 3.399788e-01
1	 7.635047e-01	 1.848529e+00	 2.394974e-01
1	 7.416589e-01	 1.857402e+00	 2.818593e-01
1	 7.197632e-01	 1.865996e+00	 3.196021e-01
1	 6.978227e-01	 1.874311e+00	 3.455080e-01
1	 6.758424e-01	 1.882349e+00	 3.521779e-01
1	 6.538275e-01	 1.890108e+00	 3.320515e-01
1	 6.417196e-01	 1.855106e+00	 3.729497e-01
1	 6.200831e-01	 1.862450e+00	 2.811636e-01
1	 5.984223e-01	 1.869522e+00	 1.253545e-01
1	 5.767420e-01	 1.876324e+00	-8.938435e-02
1	 5.550469e-01	 1.882856e+00	-3.578993e-01
1	 5.333417e-01	 1.889119e+00	-6.749881e-01
1	 6.441411e-01	 1.862107e+00	 3.652083e-01
1	 6.224230e-01	 1.869478e+00	 2.769383e-01
1	 6.006805e-01	 1.876577e+00	 1.347236e-01
1	 5.789183e-01	 1.883405e+00	-5.876693e-02
1	 5.571414e-01	 1.889961e+00	-3.008346e-01
1	 5.353543e-01	 1.896248e+00	-5.887569e-01
1	 6.465627e-01	 1.869107e+00	 3.568999e-01
1	 6.247630e-01	 1.876506e+00	 2.746415e-01
1	 6.029387e-01	 1.883632e+00	 1.462048e-01
1	 5.810947e-01	 1.890485e+00	-2.751747e-02
1	 5.592359e-01	 1.897066e+00	-2.456185e-01
1	 5.373670e-01	 1.903376e+00	-5.071792e-01
1	 6.489843e-01	 1.876108e+00	 3.483750e-01
1	 6.271029e-01	 1.883534e+00	 2.742015e-01
1	 6.051969e-01	 1.890687e+00	 1.594644e-01
1	 5.832711e-01	 1.897566e+00	 3.920731e-03
1	 5.613304e-01	 1.904171e+00	-1.926593e-01
1	 5.393796e-01	 1.910505e+00	-4.304922e-01
1	 6.514059e-01	 1.883108e+00	 3.399788e-01
1	 6.294428e-01	 1.890563e+00	 2.755478e-01
1	 6.074551e-01	 1.897742e+00	 1.741737e-01
1	 5.854475e-01	 1.904646e+00	 3.511098e-02
1	 5.634249e-01	 1.911276e+00	-1.423595e-01
1	 5.413922e-01	 1.917634e+00	-3.589294e-01
1	 6.538275e-01	 1.890108e+00	 3.320515e-01
1	 6.317828e-01	 1.897591e+00	 2.786108e-01
1	 6.097133e-01	 1.904797e+00	 1.900090e-01
1	 5.876239e-01	 1.911726e+00	 6.562305e-02
1	 5.655194e-01	 1.918382e+00	-9.511550e-02
1	 5.434048e-01	 1.924763e+00	-2.927210e-01
1	 5.333417e-01	 1.889119e+00	-6.749881e-01
1	 5.116312e-01	 1.895114e+00	-1.037165e+00
1	 4.899200e-01	 1.900842e+00	-1.448137e+00
1	 4.682125e-01	 1.906305e+00	-1.913399e+00
1	 4.465133e-01	 1.911504e+00	-2.438358e+00
1	 4.248269e-01	 1.916441e+00	-3.028325e+00
1	 5.353543e-01	 1.896248e+00	-5.887569e-01
1	 5.135619e-01	 1.902265e+00	-9.211015e-01
1	 4.917687e-01	 1.908015e+00	-1.301155e+00
1	 4.699794e-01	 1.913499e+00	-1.733194e+00
1	 4.481983e-01	 1.918718e+00	-2.221396e+00
1	 4.264300e-01	 1.923673e+00	-2.769841e+00
1	 5.373670e-01	 1.903376e+00	-5.071792e-01
1	 5.154926e-01	 1.909417e+00	-8.120885e-01
1	 4.936175e-01	 1.915188e+00	-1.163063e+00
1	 4.717462e-01	 1.920693e+00	-1.563354e+00
1	 4.498833e-01	 1.925931e+00	-2.016119e+00
1	 4.280332e-01	 1.930905e+00	-2.524421e+00
1	 5.393796e-01	 1.910505e+00	-4.304922e-01
1	 5.174233e-01	 1.916568e+00	-7.101719e-01
1	 4.954662e-01	 1.922361e+00	-1.033805e+00
1	 4.735130e-01	 1.927886e+00	-1.403811e+00
1	 4.515682e-01	 1.933144e+00	-1.822531e+00
1	 4.296363e-01	 1.938136e+00	-2.292225e+00
1	 5.413922e-01	 1.917634e+00	-3.589294e-01
1	 5.193540e-01	 1.923719e+00	-6.153972e-01
1	 4.973150e-01	 1.929534e+00	-9.133271e-01
1	 4.752799e-01	 1.935080e+00	-1.254499e+00
1	 4.532532e-01	 1.940357e+00	-1.640637e+00
1	 4.312394e-01	 1.945368e+00	-2.073409e+00
1	 5.434048e-01	 1.924763e+00	-2.927210e-01
1	 5.212847e-01	 1.930871e+00	-5.278091e-01
1	 4.991637e-01	 1.936707e+00	-8.015762e-01
1	 4.770467e-01	 1.942274e+00	-1.115351e+00
1	 4.549381e-01	 1.947571e+00	-1.470441e+00
1	 4.328425e-01	 1.952600e+00	-1.868128e+00
1	 4.248269e-01	 1.916441e+00	-3.028325e+00
1	 4.031576e-01	 1.921116e+00	-3.687341e+00
1	 3.815097e-01	 1.925532e+00	-4.405756e+00
1	 3.598875e-01	 1.929690e+00	-5.168294e+00
1	 3.382951e-01	 1.933593e+00	-5.959741e+00
1	 3.167367e-01	 1.937241e+00	-6.764971e+00
1	 4.264300e-01	 1.923673e+00	-2.769841e+00
1	 4.046790e-01	 1.928366e+00	-3.381285e+00
1	 3.829494e-01	 1.932798e+00	-4.046470e+00
1	 3.612456e-01	 1.936972e+00	-4.751397e+00
1	 3.395717e-01	 1.940889e+00	-5.482132e+00
1	 3.179320e-01	 1.944551e+00	-6.224828e+00
1	 4.280332e-01	 1.930905e+00	-2.524421e+00
1	 4.062003e-01	 1.935615e+00	-3.089990e+00
1	 3.843890e-01	 1.940064e+00	-3.703977e+00
1	 3.626036e-01	 1.944254e+00	-4.353530e+00
1	 3.408483e-01	 1.948186e+00	-5.025850e+00
1	 3.191272e-01	 1.951861e+00	-5.708214e+00
1	 4.296363e-01	 1.938136e+00	-2.292225e+00
1	 4.077217e-01	 1.942865e+00	-2.813767e+00
1	 3.858287e-01	 1.947331e+00	-3.378664e+00
1	 3.639617e-01	 1.951536e+00	-3.975074e+00
1	 3.421249e-01	 1.955482e+00	-4.591191e+00
1	 3.203224e-01	 1.959172e+00	-5.215268e+00
1	 4.312394e-01	 1.945368e+00	-2.073409e+00
1	 4.092430e-01	 1.950114e+00	-2.552925e+00
1	 3.872684e-01	 1.954597e+00	-3.070910e+00
1	 3.653198e-01	 1.958818e+00	-3.616402e+00
1	 3.434015e-01	 1.962779e+00	-4.178447e+00
1	 3.215177e-01	 1.966482e+00	-4.746124e+00
1	 4.328425e-01	 1.952600e+00	-1.868128e+00
1	 4.107643e-01	 1.957364e+00	-2.307769e+00
1	 3.887080e-01	 1.961863e+00	-2.781092e+00
1	 3.666778e-01	 1.966100e+00	-3.277884e+00
1	 3.446781e-01	 1.970075e+00	-3.787907e+00
1	 3.227129e-01	 1.973792e+00	-4.300918e+00
1	 3.167367e-01	 1.937241e+00	-6.764971e+00
1	 2.952163e-01	 1.940637e+00	-7.568945e+00
1	 2.737379e-01	 1.943783e+00	-8.358460e+00
1	 2.523052e-01	 1.946681e+00	-9.121328e+00
1	 2.309223e-01	 1.949333e+00	-9.845508e+00
1	 2.095928e-01	 1.951741e+00	-1.051913e+01
1	 3.179320e-01	 1.944551e+00	-6.224828e+00
1	 2.963303e-01	 1.947960e+00	-6.965612e+00
1	 2.747708e-01	 1.951118e+00	-7.692164e+00
1	 2.532573e-01	 1.954027e+00	-8.393133e+00
1	 2.317937e-01	 1.956689e+00	-9.057299e+00
1	 2.103837e-01	 1.959106e+00	-9.673587e+00
1	 3.191272e-01	 1.951861e+00	-5.708214e+00
1	 2.974444e-01	 1.955283e+00	-6.387782e+00
1	 2.758038e-01	 1.958453e+00	-7.053141e+00
1	 2.542094e-01	 1.961373e+00	-7.693868e+00
1	 2.326651e-01	 1.964045e+00	-8.299659e+00
1	 2.111746e-01	 1.966472e+00	-8.860349e+00
1	 3.203224e-01	 1.959172e+00	-5.215268e+00
1	 2.985584e-01	 1.962606e+00	-5.835441e+00
1	 2.768368e-01	 1.965788e+00	-6.441313e+00
1	 2.551615e-01	 1.968719e+00	-7.023473e+00
1	 2.335365e-01	 1.971401e+00	-7.572633e+00
1	 2.119655e-01	 1.973837e+00	-8.079644e+00
1	 3.215177e-01	 1.966482e+00	-4.746124e+00
1	 2.996724e-01	 1.969929e+00	-5.308576e+00
1	 2.778697e-01	 1.973123e+00	-5.856601e+00
1	 2.561136e-01	 1.976065e+00	-6.381890e+00
1	 2.344079e-01	 1.978757e+00	-6.876265e+00
1	 2.127564e-01	 1.981202e+00	-7.331698e+00
1	 3.227129e-01	 1.973792e+00	-4.300918e+00
1	 3.007864e-01	 1.977253e+00	-4.807173e+00
1	 2.789027e-01	 1.980458e+00	-5.298928e+00
1	 2.570657e-01	 1.983411e+00	-5.769060e+00
1	 2.352793e-01	 1.986113e+00	-6.210598e+00
1	 2.135473e-01	 1.988567e+00	-6.616736e+00
1	 2.095928e-01	 1.951741e+00	-1.051913e+01
1	 1.883203e-01	 1.953909e+00	-1.113155e+01
1	 1.671084e-01	 1.955837e+00	-1.167915e+01
1	 1.459607e-01	 1.957529e+00	-1.216083e+01
1	 1.248806e-01	 1.958987e+00	-1.257563e+01
1	 1.038714e-01	 1.960213e+00	-1.292275e+01
1	 2.103837e-01	 1.959106e+00	-9.673587e+00
1	 1.890309e-01	 1.961282e+00	-1.023255e+01
1	 1.677390e-01	 1.963218e+00	-1.073158e+01
1	 1.465115e-01	 1.964916e+00	-1.117010e+01
1	 1.253519e-01	 1.966379e+00	-1.154769e+01
1	 1.042634e-01	 1.967610e+00	-1.186404e+01
1	 2.111746e-01	 1.966472e+00	-8.860349e+00
1	 1.897416e-01	 1.968655e+00	-9.367694e+00
1	 1.683696e-01	 1.970598e+00	-9.819893e+00
1	 1.470623e-01	 1.972303e+00	-1.021665e+01
1	 1.258231e-01	 1.973771e+00	-1.055777e+01
1	 1.046553e-01	 1.975007e+00	-1.084319e+01
1	 2.119655e-01	 1.973837e+00	-8.079644e+00
1	 1.904522e-01	 1.976028e+00	-8.537367e+00
1	 1.690002e-01	 1.977979e+00	-8.944471e+00
1	 1.476131e-01	 1.979690e+00	-9.300673e+00
1	 1.262944e-01	 1.981164e+00	-9.605760e+00
1	 1.050473e-01	 1.982404e+00	-9.859585e+00
1	 2.127564e-01	 1.981202e+00	-7.331698e+00
1	 1.911629e-01	 1.983402e+00	-7.741939e+00
1	 1.696308e-01	 1.985359e+00	-8.105665e+00
1	 1.481639e-01	 1.987076e+00	-8.422361e+00
1	 1.267656e-01	 1.988556e+00	-8.691520e+00
1	 1.054393e-01	 1.989801e+00	-8.912647e+00
1	 2.135473e-01	 1.988567e+00	-6.616736e+00
1	 1.918735e-01	 1.990775e+00	-6.981774e+00
1	 1.702614e-01	 1.992740e+00	-7.303829e+00
1	 1.487147e-01	 1.994463e+00	-7.581902e+00
1	 1.272369e-01	 1.995949e+00	-7.814930e+00
1	 1.058312e-01	 1.997198e+00	-8.001789e+00
1	 1.038714e-01	 1.960213e+00	-1.292275e+01
1	 8.293632e-02	 1.961210e+00	-1.319606e+01
1	 6.207860e-02	 1.961981e+00	-1.338600e+01
1	 4.130131e-02	 1.962528e+00	-1.348681e+01
1	 2.060747e-02	 1.962855e+00	-1.349290e+01
1	 0.000000e+00	 1.962963e+00	-1.339883e+01
1	 1.042634e-01	 1.967610e+00	-1.186404e+01
1	 8.324929e-02	 1.968611e+00	-1.211371e+01
1	 6.231286e-02	 1.969385e+00	-1.228979e+01
1	 4.145716e-02	 1.969934e+00	-1.239002e+01
1	 2.068523e-02	 1.970262e+00	-1.241225e+01
1	 0.000000e+00	 1.970370e+00	-1.235446e+01
1	 1.046553e-01	 1.975007e+00	-1.084319e+01
1	 8.356226e-02	 1.976012e+00	-1.106825e+01
1	 6.254712e-02	 1.976789e+00	-1.122942e+01
1	 4.161302e-02	 1.977340e+00	-1.132847e+01
1	 2.076300e-02	 1.977669e+00	-1.136728e+01
1	 0.000000e+00	 1.977778e+00	-1.134788e+01
1	 1.050473e-01	 1.982404e+00	-9.859585e+00
1	 8.387522e-02	 1.983413e+00	-1.005878e+01
1	 6.278138e-02	 1.984192e+00	-1.020415e+01
1	 4.176887e-02	 1.984746e+00	-1.030203e+01
1	 2.084076e-02	 1.985076e+00	-1.035892e+01
1	 0.000000e+00	 1.985185e+00	-1.038151e+01
1	 1.054393e-01	 1.989801e+00	-8.912647e+00
1	 8.418819e-02	 1.990813e+00	-9.084403e+00
1	 6.301563e-02	 1.991596e+00	-9.213234e+00
1	 4.192473e-02	 1.992151e+00	-9.310560e+00
1	 2.091852e-02	 1.992483e+00	-9.388079e+00
1	 0.000000e+00	 1.992593e+00	-9.457748e+00
1	 1.058312e-01	 1.997198e+00	-8.001789e+00
1	 8.450116e-02	 1.998214e+00	-8.144241e+00
1	 6.324989e-02	 1.999000e+00	-8.255947e+00
1	 4.208058e-02	 1.999557e+00	-8.353934e+00
1	 2.099629e-02	 1.999890e+00	-8.455659e+00
1	 0.000000e+00	 2.000000e+00	-8.578958e+00
