label=Stress xy
num_items=16288

0:-5.6841323052153310e-04
1:-2.8038964913518557e-04
2:-2.4385295293543586e-03
3:-3.2454775228241599e-03
4:-1.1646728294194906e-03
5:-4.3621844148782188e-05
6:8.2471616811990100e-04
7:6.8574511683374567e-04
8:2.1104777827596448e-03
9:-2.4861639868614210e-04
10:7.1874133547536280e-05
11:1.2261938926988701e-03
12:3.8759202353315057e-03
13:-4.8256466378441323e-04
14:-1.9187327048099977e-03
15:-3.8443096439551533e-04
16:-2.5172114403544063e-03
17:1.2125480207573983e-03
18:6.5732551132939333e-03
19:7.2262829187147420e-03
20:2.4917977824711132e-04
21:-7.3987881568221699e-04
22:-1.7403944310681379e-03
23:-1.8102179250811250e-03
24:1.5694454925454710e-03
25:3.4924913687962828e-04
26:-2.3869910160170945e-03
27:-2.7929706654641830e-03
28:1.0231208326801284e-03
29:2.1371717970077998e-03
30:1.6319951542719091e-03
31:1.2112835747489943e-03
32:5.2123117194874911e-03
33:-1.3554746550657692e-03
34:-3.5428151848381816e-03
35:1.0390391369751121e-02
36:-1.5087282503707827e-03
37:-1.0088455191294417e-03
38:-1.5130426771708488e-04
39:1.1355863622437875e-03
40:-1.6869390501822773e-03
41:2.2522446170642664e-04
42:-1.0153022504797988e-02
43:-3.9211172733697043e-02
44:1.5795595072416863e-03
45:2.6453122680540064e-03
46:-1.5494879071732042e-02
47:-6.3308131307688378e-02
48:2.6563524496953147e-02
49:7.1711327154017943e-02
50:1.3880222346302332e-01
51:1.7756159933218438e-01
52:2.8581547404639331e-03
53:1.6545082941624788e-02
54:3.8642399272730131e-02
55:4.1820706010391118e-02
56:-6.3326541101253409e-02
57:-8.8507531929913480e-02
58:-7.8368400254215126e-02
59:-4.1756281604638686e-02
60:-1.0330227348660735e-01
61:-1.5004097620621942e-01
62:-1.2866823159512977e-01
63:-3.5437909320432448e-02
64:1.8833491782176540e-01
65:1.8789972688843851e-01
66:1.3196739601559304e-01
67:3.2265618229205380e-02
68:3.3610257830126257e-02
69:1.0527783685920675e-03
70:-5.4562282638157156e-02
71:-8.8862636596806238e-02
72:-1.6161570194272813e-02
73:-1.0876784989677772e-03
74:-1.2986904690275514e-02
75:-6.5716339013229368e-03
76:3.9552763601910117e-02
77:1.3123136006870501e-01
78:1.7609106759745144e-01
79:1.9281896500820037e-01
80:-4.6316893995455341e-02
81:-2.4525730970657569e-01
82:-5.2010267553216027e-01
83:-6.6137616660727427e-01
84:-1.0219615846255967e-01
85:-1.6781197373607892e-01
86:-2.9937630728451292e-01
87:-3.9314055751975752e-01
88:1.0954469200093176e-02
89:2.0700837250095860e-02
90:-2.0094949088166201e-02
91:-8.8742153460098477e-02
92:2.0602950313545762e-01
93:2.2024540889763033e-01
94:1.9467274179844030e-01
95:1.2443154208569668e-01
96:-6.8678427602499759e-01
97:-6.2311460191781898e-01
98:-4.0842302853997825e-01
99:-2.2512655544265034e-01
100:-4.2396368746228308e-01
101:-3.8213059046351372e-01
102:-2.0150906908719832e-01
103:-4.2796152136881968e-02
104:-1.3120293659990145e-01
105:-1.2290742557207344e-01
106:1.1239197850589704e-02
107:1.4290194582451637e-01
108:7.1017730009282298e-02
109:5.0592041416894780e-02
110:1.4550040872451722e-01
111:2.5626106995104803e-01
112:-1.4564538754921402e-01
113:-4.7265130706282535e-02
114:7.8757775885321679e-03
115:1.8796485155174476e-02
116:2.5345032829251397e-02
117:9.9176431743884338e-02
118:1.2165072534361641e-01
119:1.1402214366930735e-01
120:2.0199393244693251e-01
121:2.5686101866370392e-01
122:2.5310138392152881e-01
123:2.2927751106434743e-01
124:3.0994398601560419e-01
125:3.5580297189277860e-01
126:3.4090652427613538e-01
127:3.0979048416956501e-01
128:2.0862871606785356e-02
129:2.2162638157834813e-02
130:2.0399458266125058e-02
131:1.8052851987282161e-02
132:1.1025245148996457e-01
133:1.0337980448216356e-01
134:9.3917478869809015e-02
135:8.6816936267373537e-02
136:2.1956615926319034e-01
137:2.0371486452725099e-01
138:1.8507274440333243e-01
139:1.7201882850886932e-01
140:2.9682744171943842e-01
141:2.7551999293897916e-01
142:2.5067384391723896e-01
143:2.3337148363176524e-01
144:1.6951104604787905e-02
145:1.5526181249880385e-02
146:1.4486061068229351e-02
147:1.3896801196206867e-02
148:8.3258238666817114e-02
149:7.7273570215352499e-02
150:7.0554478936164539e-02
151:6.5952902288466814e-02
152:1.6541933202584527e-01
153:1.5391275694488238e-01
154:1.4045693534496745e-01
155:1.3112823994853121e-01
156:2.2463032853042753e-01
157:2.0930883397543623e-01
158:1.9126376865546801e-01
159:1.7870102684722594e-01
160:1.3531164176135761e-02
161:1.2697161496932109e-02
162:1.1482454460915134e-02
163:1.0601636397802773e-02
164:6.3611939562089950e-02
165:5.9422223260797109e-02
166:5.4396369541752997e-02
167:5.0911134963609321e-02
168:1.2644759100570627e-01
169:1.1822429363985104e-01
170:1.0851613245879380e-01
171:1.0177327173873153e-01
172:1.7239542525268026e-01
173:1.6133370709076367e-01
174:1.4828211609913061e-01
175:1.3919626863768900e-01
176:1.0193842715749057e-02
177:9.5554667834853047e-03
178:8.8911696222570679e-03
179:8.4393083704826007e-03
180:4.9191881871573147e-02
181:4.6203586722527987e-02
182:4.2690472438731399e-02
183:4.0222466891173508e-02
184:9.8402794840964716e-02
185:9.2475879626855120e-02
186:8.5439885993783632e-02
187:8.0503140789458041e-02
188:1.3463923202882916e-01
189:1.2660663766298547e-01
190:1.1705131879782446e-01
191:1.1034654892949847e-01
192:8.1977706588395698e-03
193:7.7410527834859272e-03
194:7.1623837051728537e-03
195:6.7522188451064943e-03
196:3.8967257283431547e-02
197:3.6738113828929740e-02
198:3.4077296338787963e-02
199:3.2222033234395688e-02
200:7.8012258692815126e-02
201:7.3608047675018509e-02
202:6.8359387171268229e-02
203:6.4683181645727034e-02
204:1.0696774480824633e-01
205:1.0099407077858231e-01
206:9.3866963399517625e-02
207:8.8861932593942219e-02
208:6.5512290896004438e-03
209:6.2043685090265666e-03
210:5.7987600776905580e-03
211:5.5134287945951058e-03
212:3.1296188217917152e-02
213:2.9658519604882926e-02
214:2.7693432353417886e-02
215:2.6299553149444283e-02
216:6.2836266468202687e-02
217:5.9562207758945350e-02
218:5.5632101422957964e-02
219:5.2851482528023047e-02
220:8.6341029572558070e-02
221:8.1869221390289737e-02
222:7.6500779359000598e-02
223:7.2705127632499214e-02
224:5.3675063447419791e-03
225:5.1064609969650064e-03
226:4.7909344043376972e-03
227:4.5676333295395317e-03
228:2.5591373292433963e-02
229:2.4332654257933389e-02
230:2.2821802454847110e-02
231:2.1756841422077833e-02
232:5.1443259259922616e-02
233:4.8938748122696392e-02
234:4.5925373637973721e-02
235:4.3793948292165985e-02
236:7.0784463052679256e-02
237:6.7366737548975666e-02
238:6.3248840365255993e-02
239:6.0330669706514295e-02
240:4.4548959541329492e-03
241:4.2529596000624942e-03
242:4.0073424935198809e-03
243:3.8322093352708511e-03
244:2.1219695647366834e-02
245:2.0260685445286947e-02
246:1.9097527908822045e-02
247:1.8267307159564705e-02
248:4.2716059722355988e-02
249:4.0792839472405161e-02
250:3.8463781255551714e-02
251:3.6803899926299982e-02
252:5.8852833132862992e-02
253:5.6215845545865527e-02
254:5.3023161295728712e-02
255:5.0748647299343315e-02
256:3.7434182818005665e-03
257:3.5858158288997674e-03
258:3.3959419772719582e-03
259:3.2605456425977642e-03
260:1.7844888367335086e-02
261:1.7090273834804055e-02
262:1.6175705588860938e-02
263:1.5523631261471360e-02
264:3.5959976200066093e-02
265:3.4450189863722766e-02
266:3.2616194060505220e-02
267:3.1306110940462616e-02
268:4.9592523212972549e-02
269:4.7523061585508015e-02
270:4.5006652901956164e-02
271:4.3207170576415876e-02
272:3.1913676369087125e-03
273:3.0661586865756959e-03
274:2.9118985114584195e-03
275:2.8008222277228780e-03
276:1.5191942155207881e-02
277:1.4595794956374156e-02
278:1.3866126042148567e-02
279:1.3341031015181401e-02
280:3.0639179697430786e-02
281:2.9441425050085141e-02
282:2.7976895430748862e-02
283:2.6923456975269038e-02
284:4.2290485413509424e-02
285:4.0644178692613914e-02
286:3.8631295259967821e-02
287:3.7183411316311588e-02
288:2.7442265143364803e-03
289:2.6428544833773733e-03
290:2.5189635433829948e-03
291:2.4293977856497213e-03
292:1.3072498663780621e-02
293:1.2588798494790039e-02
294:1.1994551216755278e-02
295:1.1564787752470711e-02
296:2.6384650381921622e-02
297:2.5413105747110393e-02
298:2.4217893786486609e-02
299:2.3352734928001669e-02
300:3.6442797755139235e-02
301:3.5106838625745262e-02
302:3.3462296178121929e-02
303:3.2271191586058720e-02
304:2.3832554100516106e-03
305:2.2991509621929679e-03
306:2.1942008623483207e-03
307:2.1174020148932542e-03
308:1.1344049580839267e-02
309:1.0943452226141497e-02
310:1.0445581784955844e-02
311:1.0081458057075082e-02
312:2.2908263331908794e-02
313:2.2101884734841998e-02
314:2.1099965883593572e-02
315:2.0367114499792904e-02
316:3.1659061792435376e-02
317:3.0548399592373900e-02
318:2.9168183783029895e-02
319:2.8158394190798897e-02
320:2.0777485212466482e-03
321:2.0054599628544618e-03
322:1.9147611882936553e-03
323:1.8475558402088865e-03
324:9.8930953896966961e-03
325:9.5487877828259755e-03
326:9.1157701100380156e-03
327:8.7948835536868306e-03
328:1.9987879126776187e-02
329:1.9294273916623382e-02
330:1.8421334096045676e-02
331:1.7774134553859872e-02
332:2.7635743827173247e-02
333:2.6679573934489713e-02
334:2.5475691987418201e-02
335:2.4582793413089211e-02
336:1.8124057571266697e-03
337:1.7472745583222234e-03
338:1.6637153853185261e-03
339:1.6006278517795417e-03
340:8.6272772557527359e-03
341:8.3172660409167286e-03
342:7.9201948681081324e-03
343:7.6204985854705001e-03
344:1.7436034346533194e-02
345:1.6810645838358600e-02
346:1.6009499609312920e-02
347:1.5404635230121163e-02
348:2.4116233569340510e-02
349:2.3253086231471678e-02
350:2.2147069357370312e-02
351:2.1311788248605038e-02
352:1.5672876660335210e-03
353:1.5048126532966998e-03
354:1.4231242369206203e-03
355:1.3601302631096629e-03
356:7.4620255340357173e-03
357:7.1648406796469381e-03
358:6.7760282603523932e-03
359:6.4762157951138025e-03
360:1.5084703847877625e-02
361:1.4484550005831456e-02
362:1.3699049395142569e-02
363:1.3093168725892409e-02
364:2.0869893133603511e-02
365:2.0040786317627013e-02
366:1.8955323111787308e-02
367:1.8117858526474413e-02
368:1.3263224876947466e-03
369:1.2618628385910860e-03
370:1.1754658129602708e-03
371:1.1073101945240004e-03
372:6.3153782737843545e-03
373:6.0088721327141176e-03
374:5.5982575420699876e-03
375:5.2744020102059369e-03
376:1.2768089362191204e-02
377:1.2148508625107397e-02
378:1.1318309477449603e-02
379:1.0663383697315058e-02
380:1.7668455600547927e-02
381:1.6811806402983479e-02
382:1.5663730383080745e-02
383:1.4757875685064733e-02
384:1.0702139450510999e-03
385:9.9842267487454416e-04
386:9.0010383638850443e-04
387:8.2096279995803748e-04
388:5.0981273313090835e-03
389:4.7569677636605861e-03
390:4.2897216112311540e-03
391:3.9136091906579957e-03
392:1.0306855975834943e-02
393:9.6167530091458911e-03
394:8.6714542726521477e-03
395:7.9104353742064145e-03
396:1.4264692922896499e-02
397:1.3309995602108939e-02
398:1.2002112931347925e-02
399:1.0949095551624497e-02
400:7.7733089266851226e-04
401:6.9172972909443823e-04
402:5.7224956688562529e-04
403:4.7442571043554893e-04
404:3.7062534811766719e-03
405:3.2994665072980877e-03
406:2.7317793126192410e-03
407:2.2671047795753850e-03
408:7.4908473917551311e-03
409:6.6676707212776458e-03
410:5.5188487753355274e-03
411:4.5784762213645670e-03
412:1.0368484491050352e-02
413:9.2293714182852746e-03
414:7.6395842812484764e-03
415:6.3382314672608808e-03
416:4.1993395050738476e-04
417:3.1200464715146653e-04
418:1.5955617156266920e-04
419:3.3559563476726164e-05
420:2.0083138789064375e-03
421:1.4957102199477459e-03
422:7.7108695940813707e-04
423:1.7131586669920368e-04
424:4.0547542762053622e-03
425:3.0173611106270363e-03
426:1.5507690367425110e-03
427:3.3671934151206594e-04
428:5.6134629959081368e-03
429:4.1778522700523599e-03
430:2.1483452743211325e-03
431:4.6837072714769098e-04
432:3.3882099822464102e-03
433:-5.2366960917289815e-04
434:-2.6342976947603528e-03
435:-1.3717045924859343e-03
436:-3.1847788504198361e-04
437:-1.4593739968268111e-04
438:-1.3515194845086567e-03
439:-1.2783744809161598e-03
440:-5.9314215469648841e-03
441:1.0255798078593866e-03
442:2.4065206771874213e-03
443:-2.6851486182105161e-04
444:-6.5260961662267731e-03
445:2.1967900989795781e-03
446:3.7021543104416963e-03
447:-1.9462024897406891e-03
448:3.3937881681684473e-04
449:2.8060767118242140e-03
450:4.0077501361427586e-03
451:3.4059012773602587e-03
452:-3.1876708360688988e-04
453:2.0580914940599901e-03
454:3.3033343676509546e-03
455:3.2481783201287258e-04
456:-2.0951753954605817e-03
457:-2.0055425375087401e-03
458:4.0252827449489814e-04
459:-1.0930027049658904e-03
460:-6.4423915305325697e-03
461:-6.4800818702664105e-03
462:5.3113040797778503e-03
463:1.6894837395409871e-02
464:2.9459023864902797e-03
465:4.1081920356210696e-03
466:-1.3760154366910041e-02
467:-6.4823316792192665e-02
468:-2.3857642220871350e-03
469:2.5041458836916409e-03
470:2.7925675899344916e-03
471:-2.8355702304084924e-02
472:-2.6400902416365540e-03
473:2.1269386348421737e-02
474:8.2594739422578570e-02
475:1.2575654817794199e-01
476:2.4535966443470818e-02
477:8.0349144280519813e-02
478:2.1834673262280979e-01
479:3.5096720667633141e-01
480:-1.0863307246426115e-01
481:-1.6092895833416665e-01
482:-1.2978615110502068e-01
483:-4.1346861800906224e-03
484:-6.1037774649606143e-02
485:-9.4749957157086104e-02
486:-2.4322984402182057e-02
487:1.6189041583146022e-01
488:1.4048173374348683e-01
489:1.8024807103252671e-01
490:3.2737680857017953e-01
491:5.7413319000918339e-01
492:4.2293054363927668e-01
493:5.4627757401133847e-01
494:7.5357956003671556e-01
495:1.0152769890821118e+00
496:9.8923190212114737e-02
497:2.3622868305859071e-01
498:3.1495262442849870e-01
499:3.3257355900194935e-01
500:3.1122262468919693e-01
501:5.1931802110517522e-01
502:6.3719068669431778e-01
503:6.3252147773940137e-01
504:7.5971061168534004e-01
505:1.0154880973332729e+00
506:1.1323242199119858e+00
507:1.0624076472782686e+00
508:1.2001991790344964e+00
509:1.4470278235889349e+00
510:1.5247775612079921e+00
511:1.3909155413326821e+00
512:3.3719557110610848e-01
513:3.4106374765437558e-01
514:3.0999895104672681e-01
515:2.3390071162057380e-01
516:6.0631581570749782e-01
517:5.6611199543139357e-01
518:5.0346253949094444e-01
519:4.1188494368765233e-01
520:9.7774856905136187e-01
521:8.4870291781023677e-01
522:7.1651616145386199e-01
523:5.9898484995296564e-01
524:1.2586465360638732e+00
525:1.0546328432402179e+00
526:8.6007468425805345e-01
527:7.2046493020638136e-01
528:1.7451132097578256e-01
529:1.3829573508656307e-01
530:2.1084870090258892e-01
531:3.0948343953261004e-01
532:3.4360124936243541e-01
533:2.8236612816238732e-01
534:3.1730232797144653e-01
535:3.9496177679712530e-01
536:5.2282095430132391e-01
537:4.3634022001011430e-01
538:4.2894526677575140e-01
539:4.8134758498603608e-01
540:6.3989466509108206e-01
541:5.3713911276542314e-01
542:4.9935862130014119e-01
543:5.3184313798340888e-01
544:3.6005771405704251e-01
545:4.0180831088014685e-01
546:3.8305601051825811e-01
547:3.4951357983559367e-01
548:4.4012839517094371e-01
549:4.7555232725166580e-01
550:4.5200901049897774e-01
551:4.1548558076336850e-01
552:5.1946084207883325e-01
553:5.4788763302912968e-01
554:5.2152825135152370e-01
555:4.8380651536639080e-01
556:5.6348127852148477e-01
557:5.8593376944051612e-01
558:5.5890023188384785e-01
559:5.2213726043837061e-01
560:3.3526607196178032e-01
561:3.1158485348493981e-01
562:2.8379387799132832e-01
563:2.6439773318217918e-01
564:3.9935594454213641e-01
565:3.7208210305652945e-01
566:3.3978592475609531e-01
567:3.1718504775123085e-01
568:4.6632132783077213e-01
569:4.3622330079167099e-01
570:4.0021776480753679e-01
571:3.7488476178851771e-01
572:5.0457864797838747e-01
573:4.7394006436278185e-01
574:4.3685088661399668e-01
575:4.1048756785052126e-01
576:2.5461156899692539e-01
577:2.3744691494487360e-01
578:2.1719005746870521e-01
579:2.0304891200156691e-01
580:3.0580731729827665e-01
581:2.8580890371261791e-01
582:2.6207541709250459e-01
583:2.4538116999984275e-01
584:3.6212522330569885e-01
585:3.3961565129056775e-01
586:3.1268090276924637e-01
587:2.9352647618539179e-01
588:3.9713899315141293e-01
589:3.7352756742558357e-01
590:3.4513114049786120e-01
591:3.2479720261541090e-01
592:1.9593654790651052e-01
593:1.8345564651536173e-01
594:1.6872512656661401e-01
595:1.5846532966905896e-01
596:2.3693676985422024e-01
597:2.2210338488888884e-01
598:2.0458715842799907e-01
599:1.9238442821320414e-01
600:2.8375812853383175e-01
601:2.6655407431904937e-01
602:2.4618612021792538e-01
603:2.3197038997642005e-01
604:3.1437114094123886e-01
605:2.9594316429819467e-01
606:2.7402045999132085e-01
607:2.5865179568834162e-01
608:1.5331689638866317e-01
609:1.4423372306177687e-01
610:1.3341477955024120e-01
611:1.2581526371453314e-01
612:1.8626025531979673e-01
613:1.7543357552304895e-01
614:1.6249154865943366e-01
615:1.5336603770637697e-01
616:2.2482966644692332e-01
617:2.1217054563141705e-01
618:1.9696069833563148e-01
619:1.8617370628647656e-01
620:2.5091273192983493e-01
621:2.3716747776661434e-01
622:2.2060086396942924e-01
623:2.0880829646932400e-01
624:1.2198368364172557e-01
625:1.1520882980468158e-01
626:1.0712321248842616e-01
627:1.0144128585771656e-01
628:1.4875409281951332e-01
629:1.4059662477615523e-01
630:1.3085755236259430e-01
631:1.2400980340627660e-01
632:1.8070067776301824e-01
633:1.7100974858849788e-01
634:1.5942617746918564e-01
635:1.5127155935955811e-01
636:2.0280935798518948e-01
637:1.9217106317290389e-01
638:1.7942747866583308e-01
639:1.7043612520092219e-01
640:9.8577608247425813e-02
641:9.3495465407979317e-02
642:8.7391123821523892e-02
643:8.3073685691074442e-02
644:1.2055653194377933e-01
645:1.1442075427275288e-01
646:1.0703714477545290e-01
647:1.0180551989222579e-01
648:1.4715551258811527e-01
649:1.3982887580362521e-01
650:1.3098589765617705e-01
651:1.2470079070860635e-01
652:1.6589100923156808e-01
653:1.5778953511821198e-01
654:1.4799048554822231e-01
655:1.4101033406941116e-01
656:8.0888750071344717e-02
657:7.7000049384366803e-02
658:7.2312743024118928e-02
659:6.8989112841108632e-02
660:9.9155157435764363e-02
661:9.4436421215564115e-02
662:8.8745407582552976e-02
663:8.4707024944561518e-02
664:1.2151049679181440e-01
665:1.1582659839553849e-01
666:1.0896503209077919e-01
667:1.0409049546983910e-01
668:1.3746214267300449e-01
669:1.3113567813947064e-01
670:1.2348926932810271e-01
671:1.1804972541954092e-01
672:6.7305157641934080e-02
673:6.4299803794447899e-02
674:6.0660376914386339e-02
675:5.8067196397484443e-02
676:8.2659660965979015e-02
677:7.9003399470875910e-02
678:7.4571563188118112e-02
679:7.1410902001305801e-02
680:1.0161704058008156e-01
681:9.7194912081336488e-02
682:9.1825490892657194e-02
683:8.7989567229439292e-02
684:1.1528680867767975e-01
685:1.1034245230085497e-01
686:1.0433035294639134e-01
687:1.0002921289364494e-01
688:5.6748992344518016e-02
689:5.4388946471146130e-02
690:5.1518178346604410e-02
691:4.9464456724658663e-02
692:6.9803343627264230e-02
693:6.6924188057131823e-02
694:6.3419869324273639e-02
695:6.0911164771034219e-02
696:8.6036475605444321e-02
697:8.2536466803381170e-02
698:7.8272702969472793e-02
699:7.5217172379093297e-02
700:9.7837327502024077e-02
701:9.3907285702894569e-02
702:8.9115546788451017e-02
703:8.5678234287382596e-02
704:4.8417961985807945e-02
705:4.6538318668928859e-02
706:4.4239816659693607e-02
707:4.2586240286743147e-02
708:5.9632182357044462e-02
709:5.7334050674805209e-02
710:5.4522160893397835e-02
711:5.2498046860266483e-02
712:7.3658218586468524e-02
713:7.0854942570372781e-02
714:6.7421142796307384e-02
715:6.4946579760303477e-02
716:8.3923204685250510e-02
717:8.0765219355753051e-02
718:7.6893042040180132e-02
719:7.4099777432806740e-02
720:4.1740322126101015e-02
721:4.0214161667095828e-02
722:3.8334990474035685e-02
723:3.6973574378742984e-02
724:5.1462171426917565e-02
725:4.9592650329421631e-02
726:4.7289427293878014e-02
727:4.5619801914643827e-02
728:6.3679271758654468e-02
729:6.1390825744678620e-02
730:5.8569080370543411e-02
731:5.6521648765732159e-02
732:7.2668346950382920e-02
733:7.0082301486395437e-02
734:6.6891181432792657e-02
735:6.4573781190030904e-02
736:3.6273792055539246e-02
737:3.5003956844414340e-02
738:3.3425687168625276e-02
739:3.2270797893746178e-02
740:4.4761245392385830e-02
741:4.3202781594881383e-02
742:4.1264810358486996e-02
743:3.9845978228539636e-02
744:5.5468117399359994e-02
745:5.3554581152237005e-02
746:5.1172907207633969e-02
747:4.9427617764721300e-02
748:6.3380618174654235e-02
749:6.1212278529772596e-02
750:5.8511235283526267e-02
751:5.6530260802472136e-02
752:3.1672972228753891e-02
753:3.0579123738071309e-02
754:2.9201608932295200e-02
755:2.8179715388307557e-02
756:3.9111266772477900e-02
757:3.7766504710660037e-02
758:3.6072130306356927e-02
759:3.4814508449820515e-02
760:4.8523305795101931e-02
761:4.6867199794459809e-02
762:4.4778750323816799e-02
763:4.3227254229725502e-02
764:5.5503268998298015e-02
765:5.3621578262775235e-02
766:5.1246868584211291e-02
767:4.9481328474801897e-02
768:2.7645679736789820e-02
769:2.6657590064202468e-02
770:2.5391262641779627e-02
771:2.4434749070856448e-02
772:3.4157048850621534e-02
773:3.2940209785364549e-02
774:3.1379981436197260e-02
775:3.0200916500201739e-02
776:4.2415676317354094e-02
777:4.0912756884341636e-02
778:3.8984126706481513e-02
779:3.7525474001475156e-02
780:4.8557294673167023e-02
781:4.6845275869140744e-02
782:4.4646704037952310e-02
783:4.2982688621141241e-02
784:2.3928659795561736e-02
785:2.2979007327594645e-02
786:2.1735534361964744e-02
787:2.0776019600184280e-02
788:2.9576883734499369e-02
789:2.8405576104068884e-02
790:2.6871221295813305e-02
791:2.5686772142990786e-02
792:3.6753059003168560e-02
793:3.5302521767012256e-02
794:3.3401024045536222e-02
795:3.1932146929274159e-02
796:4.2101114460948025e-02
797:4.0444870692762695e-02
798:3.8272352980196392e-02
799:3.6593107900001684e-02
800:2.0261074195939244e-02
801:1.9279411547928230e-02
802:1.7963649490539912e-02
803:1.6925382285481634e-02
804:2.5050948854703554e-02
805:2.3838581553552715e-02
806:2.2213094422242955e-02
807:2.0930061744511865e-02
808:3.1143297077557960e-02
809:2.9638564910959266e-02
810:2.7620013174421983e-02
811:2.6025955388807528e-02
812:3.5690938572302155e-02
813:3.3969472278428552e-02
814:3.1659106580056127e-02
815:2.9833833664237908e-02
816:1.6360074302927154e-02
817:1.5265707636483666e-02
818:1.3766396520801241e-02
819:1.2559192582790781e-02
820:2.0231366931064598e-02
821:1.8878595528228896e-02
822:1.7024933469681775e-02
823:1.5532189247818464e-02
824:2.5157634724039982e-02
825:2.3476046884817515e-02
826:2.1171105424158065e-02
827:1.9314458075645264e-02
828:2.8839313199181513e-02
829:2.6912937771166937e-02
830:2.4271768714508209e-02
831:2.2143804714646820e-02
832:1.1893547685467206e-02
833:1.0587589398886101e-02
834:8.7649235318140780e-03
835:7.2729280708437550e-03
836:1.4709029520380204e-02
837:1.3093960806515939e-02
838:1.0839766666978064e-02
839:8.9944606681228948e-03
840:1.8290476153685606e-02
841:1.6281216775529669e-02
842:1.3476575191954191e-02
843:1.1180510197085909e-02
844:2.0970036608057439e-02
845:1.8666706133559550e-02
846:1.5451336610347415e-02
847:1.2818877515132139e-02
848:6.4419811928925598e-03
849:4.7960798991132664e-03
850:2.4693634717209440e-03
851:5.4344018065262205e-04
852:7.9667272020193403e-03
853:5.9311043248508576e-03
854:3.0536433530208022e-03
855:6.7201644151378484e-04
856:9.9016952233254383e-03
857:7.3688695621990348e-03
858:3.7888884770641848e-03
859:8.2606717614046017e-04
860:1.1352674393123954e-02
861:8.4488169248734570e-03
862:4.3446853742307818e-03
863:9.4830889896199721e-04
864:-4.2688816739877081e-03
865:2.8112742683506719e-03
866:2.8368862633186228e-03
867:-4.6606815170441478e-03
868:1.8784683524559356e-03
869:2.6586285828263628e-03
870:1.0358808074770517e-03
871:-5.2327926052647376e-03
872:-3.8492164873419623e-03
873:-3.6425882297860157e-03
874:1.9899601932762280e-02
875:4.9107258955389713e-02
876:-3.4561071398483668e-02
877:-1.6252966879327386e-02
878:7.0319989222663262e-02
879:1.7496063879417306e-01
880:-1.0477747741941152e-02
881:-8.9314298237410921e-03
882:1.3300600005662005e-02
883:3.8721768521489335e-02
884:-9.7638665127093311e-03
885:3.7167564100792387e-03
886:6.0947071331047917e-02
887:1.2706174337183790e-01
888:6.8129395185912822e-02
889:1.3365491841193541e-01
890:2.7284505693507594e-01
891:4.1130640088820752e-01
892:2.4182839420735275e-01
893:3.9203973778161821e-01
894:6.2690675151364517e-01
895:8.2645849035463648e-01
896:5.5798341790950230e-02
897:1.3676817586431539e-01
898:3.2658724915892501e-01
899:5.1690583398313628e-01
900:1.7046557288447375e-01
901:3.1161140984671559e-01
902:6.1020341338522532e-01
903:9.1526176518369795e-01
904:4.9587974168138649e-01
905:7.1491904080579172e-01
906:1.1303478677529368e+00
907:1.5505747263180891e+00
908:9.3846998380510949e-01
909:1.1928373436069613e+00
910:1.6353462144176218e+00
911:2.0749819902937721e+00
912:6.2536190752488130e-01
913:7.9947064919045119e-01
914:1.0333965191710173e+00
915:1.2862561543149800e+00
916:1.0950003158109278e+00
917:1.3619901671603261e+00
918:1.6220580492740770e+00
919:1.8200951323911811e+00
920:1.8010818000844870e+00
921:2.1502223310420505e+00
922:2.3921489088849008e+00
923:2.4695717479473127e+00
924:2.3379543740433282e+00
925:2.6899748750913663e+00
926:2.8746372568062140e+00
927:2.8470817607702279e+00
928:1.4574973497844730e+00
929:1.6794995199659175e+00
930:1.7226795262345442e+00
931:1.5536260612699908e+00
932:1.9382324933909281e+00
933:2.0710179266438473e+00
934:2.0184194734731662e+00
935:1.7810600550546984e+00
936:2.4877650711374715e+00
937:2.4573721175340553e+00
938:2.2499256180782461e+00
939:1.9298320868202032e+00
940:2.7871091381904165e+00
941:2.6311191828258380e+00
942:2.3121982463397299e+00
943:1.9444262806540766e+00
944:1.3982901754060668e+00
945:1.1571572208524545e+00
946:9.3039411372131731e-01
947:7.7937050477381031e-01
948:1.5887256077856984e+00
949:1.2895394959930886e+00
950:1.0149803884444422e+00
951:8.5119065858274212e-01
952:1.7033234114194071e+00
953:1.3529836401895694e+00
954:1.0410926362185504e+00
955:8.7571718451834979e-01
956:1.7042757194187814e+00
957:1.3347849567078847e+00
958:1.0121242433048860e+00
959:8.5382130510657450e-01
960:6.9691204080001778e-01
961:5.8623832850758384e-01
962:5.3256426527203726e-01
963:5.5387761344014552e-01
964:7.6968503456368498e-01
965:6.5210744997206649e-01
966:5.7680327583239233e-01
967:5.8067874524703245e-01
968:8.0251692688227527e-01
969:6.8897277976157567e-01
970:5.9994853065246678e-01
971:5.8801648401986129e-01
972:7.8998091440825147e-01
973:6.8572124791961875e-01
974:5.9419407940102942e-01
975:5.7451645649401695e-01
976:5.8147954394735635e-01
977:6.0019478394403414e-01
978:5.7304946732540052e-01
979:5.3741309348886857e-01
980:6.0140350108048712e-01
981:6.1411497873877152e-01
982:5.8806975819198881e-01
983:5.5567394026485561e-01
984:6.0149803078747233e-01
985:6.0872672558475038e-01
986:5.8652698783314028e-01
987:5.6010321805415442e-01
988:5.8372080359457224e-01
989:5.8843513391152746e-01
990:5.7066758503497605e-01
991:5.4971580108402529e-01
992:5.2019382826290561e-01
993:4.8990338655226046e-01
994:4.5289481491097161e-01
995:4.2634949844294812e-01
996:5.3976103862698233e-01
997:5.1130457422922093e-01
998:4.7573781624212685e-01
999:4.4959826725873575e-01
1000:5.4689541221844784e-01
1001:5.2269275744332477e-01
1002:4.9124073226929310e-01
1003:4.6708649612634118e-01
1004:5.3906569291629014e-01
1005:5.1913038605596151e-01
1006:4.9225558937433656e-01
1007:4.7071607601958215e-01
1008:4.1283643662236746e-01
1009:3.8890483683317867e-01
1010:3.6007156385653188e-01
1011:3.3937074763187358e-01
1012:4.3608110235876180e-01
1013:4.1206737565752222e-01
1014:3.8304882225957065e-01
1015:3.6214535693168148e-01
1016:4.5422220472759117e-01
1017:4.3119891586930914e-01
1018:4.0319409283855961e-01
1019:3.8292066290270699e-01
1020:4.5890682859084009e-01
1021:4.3755261822124741e-01
1022:4.1129747962407054e-01
1023:3.9213979938280735e-01
1024:3.2873295726246166e-01
1025:3.0988175133902374e-01
1026:2.8736654564752806e-01
1027:2.7152123233329073e-01
1028:3.5137518319882688e-01
1029:3.3218481524345023e-01
1030:3.0905383349256321e-01
1031:2.9261698061672980e-01
1032:3.7244730916930441e-01
1033:3.5363625605453974e-01
1034:3.3063771865620284e-01
1035:3.1403453525601588e-01
1036:3.8220720108085571e-01
1037:3.6424733355757066e-01
1038:3.4202334978019339e-01
1039:3.2575834092348649e-01
1040:2.6352390286711824e-01
1041:2.4930845161009751e-01
1042:2.3215499738657325e-01
1043:2.1992743994588107e-01
1044:2.8427015765664793e-01
1045:2.6941050818506329e-01
1046:2.5144820333585799e-01
1047:2.3861905807344150e-01
1048:3.0551456695798096e-01
1049:2.9030680438259915e-01
1050:2.7187450088397880e-01
1051:2.5867509931209032e-01
1052:3.1733438820850018e-01
1053:3.0225353203732441e-01
1054:2.8391347799721284e-01
1055:2.7073768418442928e-01
1056:2.1370055893426612e-01
1057:2.0264570225135811e-01
1058:1.8937971685343061e-01
1059:1.8000237086282503e-01
1060:2.3207605103481060e-01
1061:2.2043000933094356e-01
1062:2.0639447560062035e-01
1063:1.9642760505139178e-01
1064:2.5193053588420633e-01
1065:2.3987589961201419e-01
1066:2.2524607016554968e-01
1067:2.1477973398470124e-01
1068:2.6399063424730640e-01
1069:2.5188652543008005e-01
1070:2.3710634065165115e-01
1071:2.2646456643734411e-01
1072:1.7525639981224039e-01
1073:1.6679113006244883e-01
1074:1.5654206130077711e-01
1075:1.4923399443339513e-01
1076:1.9136824499418126e-01
1077:1.8233313444473712e-01
1078:1.7137660381800107e-01
1079:1.6355083675843510e-01
1080:2.0944140398928768e-01
1081:1.9989271860481567e-01
1082:1.8828904348118089e-01
1083:1.7998164254499355e-01
1084:2.2101469651559968e-01
1085:2.1125256448340690e-01
1086:1.9936622496367265e-01
1087:1.9083714044930436e-01
1088:1.4551666171789773e-01
1089:1.3888506270351761e-01
1090:1.3086285432458419e-01
1091:1.2515033134931378e-01
1092:1.5956549249712840e-01
1093:1.5244635052751337e-01
1094:1.4381576975897956e-01
1095:1.3765567332432108e-01
1096:1.7574369200428344e-01
1097:1.6815603207090715e-01
1098:1.5892399296510029e-01
1099:1.5230981931585141e-01
1100:1.8647862243282995e-01
1101:1.7865838900634493e-01
1102:1.6911189091748344e-01
1103:1.6224984904449680e-01
1104:1.2224672888973556e-01
1105:1.1704789958424620e-01
1106:1.1072162304712888e-01
1107:1.0619236888492863e-01
1108:1.3451965749337075e-01
1109:1.2889937200611071e-01
1110:1.2205088151847696e-01
1111:1.1714081019174212e-01
1112:1.4893454174036028e-01
1113:1.4287793017187239e-01
1114:1.3548418277011770e-01
1115:1.3017237780489938e-01
1116:1.5874094659903451e-01
1117:1.5243815568979888e-01
1118:1.4473188698691547e-01
1119:1.3918554240857775e-01
1120:1.0388317166991025e-01
1121:9.9741408552631958e-02
1122:9.4688772332786705e-02
1123:9.1062026156121134e-02
1124:1.1463510349716355e-01
1125:1.1013723127637405e-01
1126:1.0464307869575228e-01
1127:1.0069386201827242e-01
1128:1.2745772160551513e-01
1129:1.2257797311832504e-01
1130:1.1660453282314746e-01
1131:1.1230126178992784e-01
1132:1.3634722586430328e-01
1133:1.3123851511852000e-01
1134:1.2497247725577992e-01
1135:1.2044953863823180e-01
1136:8.9209427241090544e-02
1137:8.5874588752414382e-02
1138:8.1783238269321643e-02
1139:7.8830203673181262e-02
1140:9.8674581482413551e-02
1141:9.5036980044856292e-02
1142:9.0569180059246746e-02
1143:8.7340699969249536e-02
1144:1.1009775302352845e-01
1145:1.0612415249713619e-01
1146:1.0123587988565974e-01
1147:9.7697480449117108e-02
1148:1.1813066813899743e-01
1149:1.1394543342016457e-01
1150:1.0878986316277567e-01
1151:1.0505239717092228e-01
1152:7.7316355590280869e-02
1153:7.4580645977600002e-02
1154:7.1203330336773105e-02
1155:6.8749493435130357e-02
1156:8.5684377182258922e-02
1157:8.2689280241200175e-02
1158:7.8988035889356864e-02
1159:7.6295949328653842e-02
1160:9.5879996170707596e-02
1161:9.2590038716835688e-02
1162:8.8517906083364517e-02
1163:8.5551129182383487e-02
1164:1.0313062818072682e-01
1165:9.9648594848593244e-02
1166:9.5332537804772299e-02
1167:9.2183453978904525e-02
1168:6.7485636392669607e-02
1169:6.5188093180066672e-02
1170:6.2324735923055645e-02
1171:6.0223704151737445e-02
1172:7.4908351620902591e-02
1173:7.2384209537001032e-02
1174:6.9235314388275362e-02
1175:6.6922397680915791e-02
1176:8.4020244268698002e-02
1177:8.1232769970469881e-02
1178:7.7750207944252303e-02
1179:7.5188239475673962e-02
1180:9.0556937701611218e-02
1181:8.7592908168880462e-02
1182:8.3885060187782814e-02
1183:8.1153700051229169e-02
1184:5.9134126702507742e-02
1185:5.7137204343611962e-02
1186:5.4615980095459239e-02
1187:5.2740663263095504e-02
1188:6.5722119536738136e-02
1189:6.3520959201572649e-02
1190:6.0739261004214409e-02
1191:5.8668196944291776e-02
1192:7.3857320037306468e-02
1193:7.1414240848726843e-02
1194:6.8322332965173635e-02
1195:6.6016905038910945e-02
1196:7.9733482714107420e-02
1197:7.7124291254363056e-02
1198:7.3817965922642018e-02
1199:7.1349505931973756e-02
1200:5.1758874838918445e-02
1201:4.9939330957598858e-02
1202:4.7601687279845505e-02
1203:4.5831677386660517e-02
1204:5.7583223857106687e-02
1205:5.5571226871092914e-02
1206:5.2983994993960871e-02
1207:5.1023253999750433e-02
1208:6.4807969985512803e-02
1209:6.2564040337312304e-02
1210:5.9674619709794888e-02
1211:5.7481896267094552e-02
1212:7.0053987112001129e-02
1213:6.7647460333008003e-02
1214:6.4545039193406165e-02
1215:6.2187937188713231e-02
1216:4.4893696795253742e-02
1217:4.3131047144349233e-02
1218:4.0818129895558650e-02
1219:3.9029750556866680e-02
1220:4.9983598220998168e-02
1221:4.8028842758488406e-02
1222:4.5461874000024952e-02
1223:4.3475598976421247e-02
1224:5.6318210348738754e-02
1225:5.4128478116783216e-02
1226:5.1249571244224350e-02
1227:4.9019441419797805e-02
1228:6.0936068353929222e-02
1229:5.8578759056992308e-02
1230:5.5476424996013088e-02
1231:5.3070932415969732e-02
1232:3.8068741009137229e-02
1233:3.6234649915706012e-02
1234:3.3772482299291882e-02
1235:3.1826814475645074e-02
1236:4.2407752713432181e-02
1237:4.0368926534302164e-02
1238:3.7630356900237236e-02
1239:3.5465152121800472e-02
1240:4.7819656344611959e-02
1241:4.5527496170144593e-02
1242:4.2445993857981715e-02
1243:4.0007750993833614e-02
1244:5.1776032783858804e-02
1245:4.9300851808310613e-02
1246:4.5970869727980979e-02
1247:4.3334269827137152e-02
1248:3.0766543103085808e-02
1249:2.8712576125412340e-02
1250:2.5896054172011344e-02
1251:2.3626520793154547e-02
1252:3.4284880696801051e-02
1253:3.1997885284525074e-02
1254:2.8860810823320735e-02
1255:2.6332280992031640e-02
1256:3.8678020491449666e-02
1257:3.6100455902965983e-02
1258:3.2563079549640071e-02
1259:2.9710709376310703e-02
1260:4.1895790199107705e-02
1261:3.9106543376019522e-02
1262:3.5277081780766391e-02
1263:3.2188100315876378e-02
1264:2.2374574845264457e-02
1265:1.9917740811476386e-02
1266:1.6487945504116992e-02
1267:1.3679851363932904e-02
1268:2.4937249237689321e-02
1269:2.2199391424743371e-02
1270:1.8376928167122372e-02
1271:1.5247136720484316e-02
1272:2.8136642335267692e-02
1273:2.5047013779741639e-02
1274:2.0732812089168707e-02
1275:1.7200032598841512e-02
1276:3.0483125306579022e-02
1277:2.7136185202646684e-02
1278:2.2462134576805789e-02
1279:1.8634363161870868e-02
1280:1.2115807789731776e-02
1281:9.0182411072313243e-03
1282:4.6404969159701522e-03
1283:1.0178276591523150e-03
1284:1.3503871533069513e-02
1285:1.0051495271911558e-02
1286:5.1726574754665956e-03
1287:1.1356275333200838e-03
1288:1.5232230320866359e-02
1289:1.1335398179974143e-02
1290:5.8290490853601384e-03
1291:1.2732968389596400e-03
1292:1.6502179186078256e-02
1293:1.2280040197836161e-02
1294:6.3145951370398188e-03
1295:1.3795045781648595e-03
1296:-6.5093916234744281e-02
1297:-2.7114954500151122e-02
1298:1.1479595826560608e-01
1299:2.8295113021876950e-01
1300:-1.5228175794610171e-01
1301:-5.7998586961728153e-02
1302:2.2003849096846570e-01
1303:5.3922759851484270e-01
1304:-3.1464780613638715e-01
1305:-8.8981129339309809e-02
1306:4.1262014467197727e-01
1307:9.4518984751086577e-01
1308:-4.6687861351861570e-01
1309:-7.6929435019640210e-02
1310:6.1743261445028719e-01
1311:1.2856941950016214e+00
1312:3.8956406496629808e-01
1313:6.0556006921847616e-01
1314:9.0456946984047160e-01
1315:1.1362789044979329e+00
1316:7.3965008633565188e-01
1317:1.1060140606051942e+00
1318:1.5411629050281934e+00
1319:1.8318488184818156e+00
1320:1.2711058777273503e+00
1321:1.8296973221085528e+00
1322:2.4212266920258805e+00
1323:2.7631970151278860e+00
1324:1.6794633261781080e+00
1325:2.3317169727808489e+00
1326:2.9794623730309744e+00
1327:3.3191071182675818e+00
1328:1.2589712999849818e+00
1329:1.5171662243870843e+00
1330:1.9400720712609800e+00
1331:2.3534269467645719e+00
1332:1.9694961435628549e+00
1333:2.2163601096474710e+00
1334:2.5550545954318271e+00
1335:2.8597482064303614e+00
1336:2.9045032806452391e+00
1337:3.1057545884632423e+00
1338:3.2806616139148770e+00
1339:3.3803684163836865e+00
1340:3.4446860779837771e+00
1341:3.5896742373259789e+00
1342:3.6296977167646003e+00
1343:3.5705301183290135e+00
1344:2.6008616927123298e+00
1345:2.9237240173118426e+00
1346:3.0605752805441058e+00
1347:2.9794161128447336e+00
1348:3.0383864239649467e+00
1349:3.2465416244198209e+00
1350:3.2526666532557362e+00
1351:3.0706311268674953e+00
1352:3.4263308777305808e+00
1353:3.4205651459110120e+00
1354:3.2183097464499388e+00
1355:2.9172552009208119e+00
1356:3.5134259701252515e+00
1357:3.3441444140660272e+00
1358:2.9949885420443230e+00
1359:2.6267441987247824e+00
1360:2.8835080046519330e+00
1361:2.6706338495515110e+00
1362:2.3037453954189893e+00
1363:1.9194374944969259e+00
1364:2.9178144626853784e+00
1365:2.6185526756566544e+00
1366:2.1864099068750944e+00
1367:1.7897342196117143e+00
1368:2.7117976313274883e+00
1369:2.3391411936686568e+00
1370:1.8663270578263795e+00
1371:1.4841400517864825e+00
1372:2.3993537947890919e+00
1373:2.0011566616697736e+00
1374:1.5279762051267261e+00
1375:1.1747673424908880e+00
1376:1.6770443960222956e+00
1377:1.3049711115934770e+00
1378:9.8276404207272294e-01
1379:8.3042896850051307e-01
1380:1.5531096209565078e+00
1381:1.1920784552540464e+00
1382:8.8548033387108627e-01
1383:7.5129345099672384e-01
1384:1.2704825213609574e+00
1385:9.4829508722848022e-01
1386:6.8473120186770808e-01
1387:5.8487517480479223e-01
1388:9.8661194247829243e-01
1389:7.0630893217197188e-01
1390:4.8650367735527417e-01
1391:4.1762570957447503e-01
1392:7.7204514002676072e-01
1393:6.7403678718831472e-01
1394:5.8338390126708839e-01
1395:5.6102666547155688e-01
1396:7.0557930694684545e-01
1397:6.2489617792221308e-01
1398:5.4420381981145072e-01
1399:5.2236698593495334e-01
1400:5.5945964978065488e-01
1401:5.1089643269659124e-01
1402:4.5820213986309083e-01
1403:4.4728013837334446e-01
1404:4.0931034347858641e-01
1405:3.9050988641668005e-01
1406:3.6858623427336745e-01
1407:3.7267126369259906e-01
1408:5.6846362844618703e-01
1409:5.7249828109799361e-01
1410:5.5756530154292128e-01
1411:5.3972087325671003e-01
1412:5.2868582170059808e-01
1413:5.3423078694753545e-01
1414:5.2631106866744670e-01
1415:5.1467562951062573e-01
1416:4.5620354643493971e-01
1417:4.6879656388648794e-01
1418:4.7305739582274575e-01
1419:4.7026992269548329e-01
1420:3.8622673654378814e-01
1421:4.0744150186918038e-01
1422:4.2291134244962386e-01
1423:4.2746111686710708e-01
1424:5.3051729608285048e-01
1425:5.1307372993055067e-01
1426:4.8903145135264370e-01
1427:4.6924753200494534e-01
1428:5.0823972058003075e-01
1429:4.9557608619859911e-01
1430:4.7709497366484571e-01
1431:4.6094253176737926e-01
1432:4.6764021376843873e-01
1433:4.6152127595288128e-01
1434:4.5075657699859573e-01
1435:4.3988836726814423e-01
1436:4.2799249727984151e-01
1437:4.2726615932301187e-01
1438:4.2283221722209485e-01
1439:4.1638979866408465e-01
1440:4.5820435598236664e-01
1441:4.3807266925865168e-01
1442:4.1309098873493433e-01
1443:3.9473352337838152e-01
1444:4.5158030275788741e-01
1445:4.3418447448314584e-01
1446:4.1209449508975110e-01
1447:3.9555282771943517e-01
1448:4.3311112713413513e-01
1449:4.2001758926195476e-01
1450:4.0256788308383989e-01
1451:3.8895654247625616e-01
1452:4.1184236850831940e-01
1453:4.0251998996205168e-01
1454:3.8920799740320461e-01
1455:3.7823247720119713e-01
1456:3.8518471843861468e-01
1457:3.6785335648432904e-01
1458:3.4626351789405246e-01
1459:3.3034155728213793e-01
1460:3.8686500382672234e-01
1461:3.7096892484227650e-01
1462:3.5089945642844000e-01
1463:3.3587522237106182e-01
1464:3.8164782813711601e-01
1465:3.6809032413971909e-01
1466:3.5060887273947794e-01
1467:3.3722445995604422e-01
1468:3.7216314423955832e-01
1469:3.6073234935840748e-01
1470:3.4567110293716785e-01
1471:3.3388468601766341e-01
1472:3.2205219426625925e-01
1473:3.0718152734223120e-01
1474:2.8905042403931042e-01
1475:2.7599217565836481e-01
1476:3.2797385539252666e-01
1477:3.1373169858931099e-01
1478:2.9625811808898794e-01
1479:2.8359669748466138e-01
1480:3.3008085683478533e-01
1481:3.1709357701592245e-01
1482:3.0097050869085384e-01
1483:2.8915366667688103e-01
1484:3.2750590112131811e-01
1485:3.1579788486904375e-01
1486:3.0106786273039349e-01
1487:2.9013458210482501e-01
1488:2.6929446644924276e-01
1489:2.5725281067797601e-01
1490:2.4249782660913741e-01
1491:2.3183621790944989e-01
1492:2.7707738256780157e-01
1493:2.6530770982824109e-01
1494:2.5079055376909276e-01
1495:2.4022814772145626e-01
1496:2.8302625942981713e-01
1497:2.7190092619818740e-01
1498:2.5805499956055117e-01
1499:2.4788354704093371e-01
1500:2.8442228314105700e-01
1501:2.7400101746305133e-01
1502:2.6093507777832203e-01
1503:2.5125833820784466e-01
1504:2.2636392402851255e-01
1505:2.1655294474673262e-01
1506:2.0459191715917338e-01
1507:1.9599653114914412e-01
1508:2.3478263142609404e-01
1509:2.2499913962006834e-01
1510:2.1303562472954313e-01
1511:2.0441005304131341e-01
1512:2.4260582729028959e-01
1513:2.3308745241984216e-01
1514:2.2138420794649935e-01
1515:2.1289891803246550e-01
1516:2.4620919479445325e-01
1517:2.3706617819672343e-01
1518:2.2575923824044442e-01
1519:2.1751482749144618e-01
1520:1.9159924298590020e-01
1521:1.8369944986806533e-01
1522:1.7403733237870594e-01
1523:1.6707911292026664e-01
1524:1.9998701521543336e-01
1525:1.9202199744299808e-01
1526:1.8224445978334922e-01
1527:1.7517702926367792e-01
1528:2.0853182736873632e-01
1529:2.0064277021907020e-01
1530:1.9091087390655859e-01
1531:1.8383976449071635e-01
1532:2.1325683849989122e-01
1533:2.0554557292790876e-01
1534:1.9599544865364452e-01
1535:1.8902624758472159e-01
1536:1.6351695581214526e-01
1537:1.5711475072753864e-01
1538:1.4927974189566995e-01
1539:1.4363464863804432e-01
1540:1.7155049148777243e-01
1541:1.6502388200907744e-01
1542:1.5702039353218750e-01
1543:1.5124081960503510e-01
1544:1.8019875729714108e-01
1545:1.7363117120750673e-01
1546:1.6555019381165131e-01
1547:1.5969395065944020e-01
1548:1.8542690959925684e-01
1549:1.7891993309574020e-01
1550:1.7088726710086163e-01
1551:1.6504683632275405e-01
1552:1.4074346946755559e-01
1553:1.3553557594193813e-01
1554:1.2914051438604854e-01
1555:1.2451919036720692e-01
1556:1.4827596937025161e-01
1557:1.4292740915653074e-01
1558:1.3634481192176998e-01
1559:1.3157710193797367e-01
1560:1.5668260341338919e-01
1561:1.5123912858469693e-01
1562:1.4451873703265627e-01
1563:1.3963521033305573e-01
1564:1.6203725915770587e-01
1565:1.5658795160708414e-01
1566:1.4984293363576723e-01
1567:1.4492782563905340e-01
1568:1.2214819424997277e-01
1569:1.1786677896221284e-01
1570:1.1258864033735205e-01
1571:1.0875900471744020e-01
1572:1.2912740746073648e-01
1573:1.2469922936384870e-01
1574:1.1923125196067361e-01
1575:1.1525682316005118e-01
1576:1.3712049675540877e-01
1577:1.3256724336160189e-01
1578:1.2693063817897116e-01
1579:1.2282275208237442e-01
1580:1.4239200598805996e-01
1581:1.3779356232686668e-01
1582:1.3208804425487253e-01
1583:1.2792019796395812e-01
1584:1.0678862539078349e-01
1585:1.0321653068757851e-01
1586:9.8785140748297709e-02
1587:9.5549176130469218e-02
1588:1.1320940870164352e-01
1589:1.0949356192328984e-01
1590:1.0487612153655522e-01
1591:1.0149851192592252e-01
1592:1.2070277662572468e-01
1593:1.1684920150559398e-01
1594:1.1204908460745983e-01
1595:1.0852904663919194e-01
1596:1.2576594456829204e-01
1597:1.2184488031003227e-01
1598:1.1695072041603558e-01
1599:1.1335401126424294e-01
1600:9.3876864411252620e-02
1601:9.0827954192450461e-02
1602:8.7011152052912447e-02
1603:8.4197368325572661e-02
1604:9.9751020817462441e-02
1605:9.6561953528056799e-02
1606:9.2563719883884801e-02
1607:8.9611557686942858e-02
1608:1.0670480276886443e-01
1609:1.0337081526212506e-01
1610:9.9181585297726194e-02
1611:9.6081269445989215e-02
1612:1.1148732084546803e-01
1613:1.0807141603772721e-01
1614:1.0377097183161882e-01
1615:1.0058205901240519e-01
1616:8.2733522384024191e-02
1617:8.0042872835905943e-02
1618:7.6630838413558430e-02
1619:7.4081589508125448e-02
1620:8.8074083674372125e-02
1621:8.5245325798571733e-02
1622:8.1652844753443671e-02
1623:7.8964771366648326e-02
1624:9.4464136188684752e-02
1625:9.1484572193620092e-02
1626:8.7692412058289163e-02
1627:8.4848744033279688e-02
1628:9.8916522691128272e-02
1629:9.5844057874885744e-02
1630:9.1926494141489193e-02
1631:8.8983342636199461e-02
1632:7.2743025722717139e-02
1633:7.0255428530988956e-02
1634:6.7046355885490030e-02
1635:6.4606611850028500e-02
1636:7.7551925081901882e-02
1637:7.4923882242449946e-02
1638:7.1529021280246408e-02
1639:6.8944559745904119e-02
1640:8.3351965199600989e-02
1641:8.0564072836749642e-02
1642:7.6955575178778463e-02
1643:7.4203112781447506e-02
1644:8.7432301749657354e-02
1645:8.4540054171051648e-02
1646:8.0790195064879750e-02
1647:7.7925201048017173e-02
1648:6.3310293623316319e-02
1649:6.0868317932314307e-02
1650:5.7652729255148971e-02
1651:5.5158077096013024e-02
1652:6.7570149796063753e-02
1653:6.4978984988092792e-02
1654:6.1563001714569972e-02
1655:5.8909985316220027e-02
1656:7.2737512586794298e-02
1657:6.9971209170752599e-02
1658:6.6318236835826355e-02
1659:6.3476677548608182e-02
1660:7.6398064229323631e-02
1661:7.3512789805280032e-02
1662:6.9697364898282307e-02
1663:6.6725506911762891e-02
1664:5.3814729056453119e-02
1665:5.1246174215074228e-02
1666:4.7789146854122132e-02
1667:4.5050932273703131e-02
1668:5.7480382157424736e-02
1669:5.4745248487290017e-02
1670:5.1060943554810639e-02
1671:4.8140499264963714e-02
1672:6.1943962992089006e-02
1673:5.9008992845324244e-02
1674:5.5050736924418545e-02
1675:5.1909722653811496e-02
1676:6.5121185122167261e-02
1677:6.2046855304854293e-02
1678:5.7896489679477373e-02
1679:5.4600049017077316e-02
1680:4.3556678478041753e-02
1681:4.0658769912342525e-02
1682:3.6679202149763730e-02
1683:3.3468505293601181e-02
1684:4.6546078703747426e-02
1685:4.3452796780294178e-02
1686:3.9202939510522256e-02
1687:3.5772802099031893e-02
1688:5.0193763779645059e-02
1689:4.6862965211668030e-02
1690:4.2283698424424122e-02
1691:3.8585564216537284e-02
1692:5.2798205386367196e-02
1693:4.9299195476062367e-02
1694:4.4485978403959577e-02
1695:4.0597059409771506e-02
1696:3.1696153681773614e-02
1697:2.8216742520302540e-02
1698:2.3357377408865537e-02
1699:1.9377659935098369e-02
1700:3.3878893512993127e-02
1701:3.0160392288508420e-02
1702:2.4966418465663671e-02
1703:2.0712258450988154e-02
1704:3.6543030398560071e-02
1705:3.2532012013069343e-02
1706:2.6928370922424189e-02
1707:2.2338037907073942e-02
1708:3.8448582896677908e-02
1709:3.4228908828449436e-02
1710:2.8332827950603611e-02
1711:2.3502390368325722e-02
1712:1.7160799392920291e-02
1713:1.2771122021606518e-02
1714:6.5693185293473995e-03
1715:1.4390010139932051e-03
1716:1.8342438453639382e-02
1717:1.3650178202907605e-02
1718:7.0216522713270873e-03
1719:1.5390054620875622e-03
1720:1.9780817604493912e-02
1721:1.4717959745277884e-02
1722:7.5670984617219527e-03
1723:1.6534467723255172e-03
1724:2.0811296551052377e-02
1725:1.5483789575115061e-02
1726:7.9601696386752720e-03
1727:1.7391526389403209e-03
1728:-5.5453773825420805e-01
1729:-4.7925034088216044e-02
1730:7.5392414103828664e-01
1731:1.4735445292253153e+00
1732:-7.0224005514910393e-01
1733:7.5905906004696697e-02
1734:1.0939564897250806e+00
1735:1.8781553090214116e+00
1736:-7.6334675242350869e-01
1737:3.6575215528621285e-01
1738:1.6211891276082269e+00
1739:2.4210575835024697e+00
1740:-6.2138057033238159e-01
1741:6.7470291653563652e-01
1742:2.0070786779162386e+00
1743:2.7573952077775687e+00
1744:1.8847223060774103e+00
1745:2.5534365649868405e+00
1746:3.1948216171040049e+00
1747:3.5116413708327876e+00
1748:2.2910747181448889e+00
1749:2.9351981152109863e+00
1750:3.5014190928112550e+00
1751:3.7322123880175826e+00
1752:2.7883380599647238e+00
1753:3.3201201353344212e+00
1754:3.7047452500447968e+00
1755:3.7714736142583170e+00
1756:3.0629315987526855e+00
1757:3.4705887887763049e+00
1758:3.6873705555831808e+00
1759:3.6193424835468613e+00
1760:3.6199722411766220e+00
1761:3.7269758342554198e+00
1762:3.6995124543015594e+00
1763:3.5677295192765928e+00
1764:3.7869048669481180e+00
1765:3.7933143661606876e+00
1766:3.6257463906200336e+00
1767:3.3686428276309095e+00
1768:3.7320324905281086e+00
1769:3.5751138843857286e+00
1770:3.2167281866161863e+00
1771:2.8218582989968208e+00
1772:3.5064898730861103e+00
1773:3.2267038231948675e+00
1774:2.7388404523748573e+00
1775:2.2663424756740533e+00
1776:3.4641186855580268e+00
1777:3.2220811204554356e+00
1778:2.8113775760338275e+00
1779:2.4201997802000927e+00
1780:3.1910322136894260e+00
1781:2.8381613197779259e+00
1782:2.3452444346909926e+00
1783:1.9373183244190668e+00
1784:2.5731558292692371e+00
1785:2.1230141894425540e+00
1786:1.5804006829763788e+00
1787:1.1930034096156048e+00
1788:1.9839077041086470e+00
1789:1.4948905851577261e+00
1790:9.5237182318228186e-01
1791:6.0469068256117298e-01
1792:2.1882998610993014e+00
1793:1.7878456722854061e+00
1794:1.3249357826929122e+00
1795:9.9226955472474776e-01
1796:1.7113393487513848e+00
1797:1.3310572061590331e+00
1798:9.1292846878311140e-01
1799:6.3298451331530525e-01
1800:9.9693843927364656e-01
1801:6.8001196343120418e-01
1802:3.5738582481486397e-01
1803:1.6473896306833599e-01
1804:4.4276577016826091e-01
1805:1.9196185086449033e-01
1806:-4.2574187188610509e-02
1807:-1.6403424533521838e-01
1808:8.1955270796529656e-01
1809:5.6426865118209646e-01
1810:3.6999472202622607e-01
1811:3.1835679194852717e-01
1812:4.9485383825768259e-01
1813:2.9533517466494413e-01
1814:1.5659062858640949e-01
1815:1.3929099444282858e-01
1816:7.7996892258236208e-02
1817:-3.9150924128921315e-02
1818:-9.8119789598040019e-02
1819:-7.0914928372092748e-02
1820:-2.1165912709089962e-01
1821:-2.6656861246054414e-01
1822:-2.6692666925189662e-01
1823:-2.1006658910764373e-01
1824:3.1929338450451672e-01
1825:3.1739878097525726e-01
1826:3.1419807386279813e-01
1827:3.2801215187714955e-01
1828:1.5715464392292908e-01
1829:1.8562501009597712e-01
1830:2.1544208109235466e-01
1831:2.4583625696335040e-01
1832:-3.3561238108848229e-02
1833:2.8976673022790521e-02
1834:9.4982287419940303e-02
1835:1.4275264958008252e-01
1836:-1.6133023020102308e-01
1837:-7.9101394538578423e-02
1838:7.9445238724427797e-03
1839:6.5767447736339246e-02
1840:3.4471011814056707e-01
1841:3.7129867589367910e-01
1842:3.9315012784331516e-01
1843:4.0175309344914290e-01
1844:2.6758140696937688e-01
1845:3.0282750009521686e-01
1846:3.3526893135406066e-01
1847:3.5091072651554583e-01
1848:1.6936279821166897e-01
1849:2.1315767924486212e-01
1850:2.5680645024933718e-01
1851:2.8054527512347072e-01
1852:9.5130105829689102e-02
1853:1.4395570828409329e-01
1854:1.9469661129416113e-01
1855:2.2399482244066626e-01
1856:4.0406602822661869e-01
1857:4.0636396811907960e-01
1858:4.0544952397272133e-01
1859:4.0147501518547313e-01
1860:3.5646065899586793e-01
1861:3.6430613534997841e-01
1862:3.6990253345689833e-01
1863:3.7054261319973408e-01
1864:2.9008227122396940e-01
1865:3.0484609973700560e-01
1866:3.1863232633127653e-01
1867:3.2512975187152771e-01
1868:2.3643995291835615e-01
1869:2.5628138734864558e-01
1870:2.7607020938344889e-01
1871:2.8684930424225469e-01
1872:3.9818326662800108e-01
1873:3.9100286829093583e-01
1874:3.8006581613559837e-01
1875:3.7061346570807524e-01
1876:3.6961747484310242e-01
1877:3.6650271477923807e-01
1878:3.6011496975319740e-01
1879:3.5359941095007891e-01
1880:3.2722830547976772e-01
1881:3.2937885771827441e-01
1882:3.2900704189101349e-01
1883:3.2645163527816290e-01
1884:2.9115710746411383e-01
1885:2.9722629107249499e-01
1886:3.0147166858969732e-01
1887:3.0205211944949856e-01
1888:3.6526140298501963e-01
1889:3.5506908019255579e-01
1890:3.4143699874314137e-01
1891:3.3061310334692617e-01
1892:3.4963319413477600e-01
1893:3.4184402091654947e-01
1894:3.3101573920368654e-01
1895:3.2211323193931313e-01
1896:3.2437431591924287e-01
1897:3.1986899136965846e-01
1898:3.1289847372482205e-01
1899:3.0667551870390636e-01
1900:3.0149924414741264e-01
1901:2.9964016820226208e-01
1902:2.9576804782538613e-01
1903:2.9169817520190550e-01
1904:3.2470246987812479e-01
1905:3.1378093693319464e-01
1906:2.9991138994357935e-01
1907:2.8952660821171727e-01
1908:3.1715138919007785e-01
1909:3.0783672095669778e-01
1910:2.9574169224700936e-01
1911:2.8649504854154006e-01
1912:3.0305450917059856e-01
1913:2.9603981054311346e-01
1914:2.8653071570580202e-01
1915:2.7896890614394487e-01
1916:2.8915877429374770e-01
1917:2.8402434190595338e-01
1918:2.7667544641539416e-01
1919:2.7055182030823688e-01
1920:2.8407305758824453e-01
1921:2.7409614517893527e-01
1922:2.6153430296357033e-01
1923:2.5218720236818964e-01
1924:2.8157914342847845e-01
1925:2.7253009934429623e-01
1926:2.6103437363590759e-01
1927:2.5239891572913908e-01
1928:2.7485495014326600e-01
1929:2.6719457944308755e-01
1930:2.5730911813815149e-01
1931:2.4976665950000426e-01
1932:2.6713115576775071e-01
1933:2.6067203909283904e-01
1934:2.5218173977799219e-01
1935:2.4559179491695055e-01
1936:2.4729408984195597e-01
1937:2.3841014612692721e-01
1938:2.2738184380187335e-01
1939:2.1931131473267834e-01
1940:2.4784908302425315e-01
1941:2.3954236044332300e-01
1942:2.2914625480039061e-01
1943:2.2147753517110025e-01
1944:2.4575275087176801e-01
1945:2.3836068334218635e-01
1946:2.2898903102207971e-01
1947:2.2198637121597461e-01
1948:2.4204833055483455e-01
1949:2.3546865103674347e-01
1950:2.2702429042742775e-01
1951:2.2063658722941262e-01
1952:2.1513397180103266e-01
1953:2.0755817445941621e-01
1954:1.9815521276048056e-01
1955:1.9127651353793426e-01
1956:2.1748866802857508e-01
1957:2.1023331487174376e-01
1958:2.0118767213117597e-01
1959:1.9453793472211417e-01
1960:2.1831432269885201e-01
1961:2.1160287724868054e-01
1962:2.0317605912545222e-01
1963:1.9693532150697537e-01
1964:2.1726076147503223e-01
1965:2.1106055989899758e-01
1966:2.0322120771224081e-01
1967:1.9737468968593977e-01
1968:1.8771774170809355e-01
1969:1.8127514037727732e-01
1970:1.7330578817311670e-01
1971:1.6749977336697941e-01
1972:1.9108592469093019e-01
1973:1.8481894990060432e-01
1974:1.7703440489150526e-01
1975:1.7133927031603513e-01
1976:1.9367955370837156e-01
1977:1.8774423247298094e-01
1978:1.8032543273495538e-01
1979:1.7486321021387896e-01
1980:1.9431071935012259e-01
1981:1.8870440566497837e-01
1982:1.8165769294416528e-01
1983:1.7643962005691410e-01
1984:1.6450415719021930e-01
1985:1.5907504770147951e-01
1986:1.5234518823506626e-01
1987:1.4743330062303783e-01
1988:1.6839302293982894e-01
1989:1.6304308095378228e-01
1990:1.5639163665441097e-01
1991:1.5152145362203140e-01
1992:1.7202577057771953e-01
1993:1.6685813586212353e-01
1994:1.6040457316805160e-01
1995:1.5565699899486957e-01
1996:1.7371882227236454e-01
1997:1.6875009178585032e-01
1998:1.6251969528961219e-01
1999:1.5791706609990866e-01
2000:1.4489633926179049e-01
2001:1.4029166426022932e-01
2002:1.3457070532457821e-01
2003:1.3038585129303923e-01
2004:1.4900050996028361e-01
2005:1.4441659190517322e-01
2006:1.3870587883428534e-01
2007:1.3451687339310511e-01
2008:1.5319170721269401e-01
2009:1.4869710399689179e-01
2010:1.4307521773030960e-01
2011:1.3893436778005847e-01
2012:1.5552039387043012e-01
2013:1.5114079494579111e-01
2014:1.4564355775172222e-01
2015:1.4157988302962096e-01
2016:1.2822086643845421e-01
2017:1.2427729151980509e-01
2018:1.1934928356599564e-01
2019:1.1572323709087937e-01
2020:1.3234576712671581e-01
2021:1.2838496600905339e-01
2022:1.2342373179252226e-01
2023:1.1976418456924140e-01
2024:1.3678236393381285e-01
2025:1.3284746746069831e-01
2026:1.2790154039429436e-01
2027:1.2424009844279557e-01
2028:1.3946292021348178e-01
2029:1.3558434722781218e-01
2030:1.3069443688764459e-01
2031:1.2706317022669639e-01
2032:1.1383974407470943e-01
2033:1.1039055207035965e-01
2034:1.0604336876554928e-01
2035:1.0281614424482487e-01
2036:1.1786009928642130e-01
2037:1.1436803836417175e-01
2038:1.0995698270366158e-01
2039:1.0667488094850898e-01
2040:1.2233040194547444e-01
2041:1.1882052699326794e-01
2042:1.1437256473164820e-01
2043:1.1105205315536631e-01
2044:1.2516527254454798e-01
2045:1.2167063328234691e-01
2046:1.1722960544923042e-01
2047:1.1390486112749725e-01
2048:1.0112933122815899e-01
2049:9.8015465599303978e-02
2050:9.4040964660199178e-02
2051:9.1051884488999479e-02
2052:1.0495679137313181e-01
2053:1.0178077441533166e-01
2054:9.7718430587104652e-02
2055:9.4656820092485716e-02
2056:1.0931004219804381e-01
2057:1.0608329958905668e-01
2058:1.0194354333226804e-01
2059:9.8814091332809509e-02
2060:1.1215735119579837e-01
2061:1.0891483825418656e-01
2062:1.0474411525451757e-01
2063:1.0158314272489398e-01
2064:8.9475539933227669e-02
2065:8.6534206297149710e-02
2066:8.2717072017536433e-02
2067:7.9797965075979665e-02
2068:9.3039972479003905e-02
2069:9.0019163131316998e-02
2070:8.6091433094512407e-02
2071:8.3082181925593065e-02
2072:9.7158112666179311e-02
2073:9.4058459178954501e-02
2074:9.0017247578109014e-02
2075:8.6912864750499585e-02
2076:9.9907671162994219e-02
2077:9.6766629229036324e-02
2078:9.2662085298006597e-02
2079:8.9502065972905928e-02
2080:7.8241053575284616e-02
2081:7.5297899503962193e-02
2082:7.1402855586626054e-02
2083:6.8366719843976562e-02
2084:8.1475281016680390e-02
2085:7.8434284291690637e-02
2086:7.4403415573618112e-02
2087:7.1256753588461383e-02
2088:8.5252355480377115e-02
2089:8.2104985651247214e-02
2090:7.7923795715198169e-02
2091:7.4652949912459868e-02
2092:8.7809403869000213e-02
2093:8.4596902382953656e-02
2094:8.0321263168786766e-02
2095:7.6970732231997005e-02
2096:6.6726936569353537e-02
2097:6.3583367004036884e-02
2098:5.9337140598135364e-02
2099:5.5962854408976269e-02
2100:6.9555709667522378e-02
2101:6.6292056586732040e-02
2102:6.1878719607787583e-02
2103:5.8368128308833790e-02
2104:7.2882473803485975e-02
2105:6.9481724290883937e-02
2106:6.4875791215965026e-02
2107:6.1206847928344014e-02
2108:7.5155175389490361e-02
2109:7.1664542540773632e-02
2110:6.6930767808055749e-02
2111:6.3155630241601868e-02
2112:5.4117902449290115e-02
2113:5.0534320236103665e-02
2114:4.5603227541990046e-02
2115:4.1618010348496624e-02
2116:5.6447502855828183e-02
2117:5.2715165172361814e-02
2118:4.7576215946885603e-02
2119:4.3420835041975463e-02
2120:5.9197907495036763e-02
2121:5.5291351185530080e-02
2122:4.9907880742653288e-02
2123:4.5551584528189033e-02
2124:6.1087121362551101e-02
2125:5.7062536427825938e-02
2126:5.1512495976966423e-02
2127:4.7018717972417370e-02
2128:3.9416007275303207e-02
2129:3.5090858642936033e-02
2130:2.9046870317134134e-02
2131:2.4094948093910353e-02
2132:4.1124139558013403e-02
2133:3.6612284692299976e-02
2134:3.0306305278562321e-02
2135:2.5139096171563124e-02
2136:4.3142860519670485e-02
2137:3.8409881632619103e-02
2138:3.1793258911197129e-02
2139:2.6370579050111625e-02
2140:4.4533148764404132e-02
2141:3.9648294742102172e-02
2142:3.2818015424561739e-02
2143:2.7219455529121958e-02
2144:2.1336109279969855e-02
2145:1.5874716378350369e-02
2146:8.1626120341475629e-03
2147:1.7862581495060740e-03
2148:2.2260183933268590e-02
2149:1.6561556509685150e-02
2150:8.5156557537774628e-03
2151:1.8643676689196612e-03
2152:2.3349139650401845e-02
2153:1.7369062857636616e-02
2154:8.9275399261175021e-03
2155:1.9507309017045334e-03
2156:2.4099858222301949e-02
2157:1.7926077876006228e-02
2158:9.2126076586182496e-03
2159:2.0123276380119939e-03
2160:-4.5276654708263808e-01
2161:8.6604503040149527e-01
2162:2.1802665915143331e+00
2163:2.8789624974252233e+00
2164:1.0212152286811408e-02
2165:1.2385208774898575e+00
2166:2.3977010732040300e+00
2167:2.9480359872922799e+00
2168:6.8473714630857840e-01
2169:1.6267962742543078e+00
2170:2.4399766728344083e+00
2171:2.7466429814015361e+00
2172:1.0597256031645721e+00
2173:1.7390140982677906e+00
2174:2.2643109322516977e+00
2175:2.3943642838755879e+00
2176:3.1447092082510157e+00
2177:3.4790743192334919e+00
2178:3.6061003286564985e+00
2179:3.4719748546577267e+00
2180:3.1256324354845644e+00
2181:3.3077505092292276e+00
2182:3.2655131092471272e+00
2183:3.0215826572783877e+00
2184:2.8029582014661112e+00
2185:2.7877532223118511e+00
2186:2.5489706528469900e+00
2187:2.1997948815928172e+00
2188:2.3725032467058673e+00
2189:2.2368004091626874e+00
2190:1.8920018104663057e+00
2191:1.5014312639305691e+00
2192:3.3247061971848573e+00
2193:2.9885566189910038e+00
2194:2.4451754951443601e+00
2195:1.9443522351639617e+00
2196:2.8224376633220327e+00
2197:2.4074042672629008e+00
2198:1.8000459539076643e+00
2199:1.2813368452191847e+00
2200:1.9600869141866768e+00
2201:1.4950114309089313e+00
2202:8.7532331490612658e-01
2203:3.9001107003081198e-01
2204:1.2534495444483282e+00
2205:7.8988400959176930e-01
2206:2.0601647010073057e-01
2207:-2.2374040379711224e-01
2208:1.6520420055683678e+00
2209:1.1554673931373942e+00
2210:6.2558685088199539e-01
2211:3.0554145928500293e-01
2212:9.9063082610625475e-01
2213:5.1315308846202012e-01
2214:3.9540931507056488e-02
2215:-2.1254937333811283e-01
2216:1.3204613224692754e-01
2217:-2.7190607017474533e-01
2218:-6.2950708970347868e-01
2219:-7.7751576139997625e-01
2220:-4.4239271233097477e-01
2221:-7.7018184307705495e-01
2222:-1.0282873659047016e+00
2223:-1.1010874080289719e+00
2224:1.6426236915848033e-01
2225:-4.8032685294487613e-02
2226:-2.3420238030471016e-01
2227:-3.1913269328057259e-01
2228:-3.0968438696697387e-01
2229:-4.4351554540993826e-01
2230:-5.3808544935971392e-01
2231:-5.5935566593069885e-01
2232:-8.1495893636862848e-01
2233:-8.4768279060643004e-01
2234:-8.3305144847236634e-01
2235:-7.8562427495833353e-01
2236:-1.0995979157189444e+00
2237:-1.0689444611351087e+00
2238:-9.9001523594672225e-01
2239:-9.0541932560805249e-01
2240:-3.4752826602657966e-01
2241:-3.7210255337372189e-01
2242:-3.4465776556688082e-01
2243:-2.7491527434701424e-01
2244:-5.5602077252476145e-01
2245:-5.3156178965203782e-01
2246:-4.6143910833607216e-01
2247:-3.7463735407725418e-01
2248:-7.5046683940304637e-01
2249:-6.7817288164885259e-01
2250:-5.6955271313839984e-01
2251:-4.7148524321935886e-01
2252:-8.5414236710137681e-01
2253:-7.5801703306595647e-01
2254:-6.3144176780079730e-01
2255:-5.3021917476347546e-01
2256:-2.2187667022783886e-01
2257:-1.3213076224614648e-01
2258:-3.6718552353698065e-02
2259:2.5276263834606471e-02
2260:-3.1734062770403265e-01
2261:-2.1975664445655269e-01
2262:-1.1453537598790887e-01
2263:-4.7165149212700680e-02
2264:-4.1394321573618376e-01
2265:-3.1492100284634073e-01
2266:-2.0536959098890631e-01
2267:-1.3458767473653194e-01
2268:-4.7447186987642137e-01
2269:-3.7772622441354337e-01
2270:-2.6838131163270568e-01
2271:-1.9655700989358507e-01
2272:5.5850476095184572e-02
2273:1.0697379903345099e-01
2274:1.6109484266170862e-01
2275:1.9317149768123315e-01
2276:-1.4874748238095439e-02
2277:3.9700576983563093e-02
2278:9.9220362783668858e-02
2279:1.3599685435057485e-01
2280:-1.0089024739401581e-01
2281:-4.3199568462926198e-02
2282:2.1631235845590742e-02
2283:6.3414267428178420e-02
2284:-1.6214300258680917e-01
2285:-1.0279609411365105e-01
2286:-3.5051656116547654e-02
2287:9.6356603234809407e-03
2288:2.0711941829821545e-01
2289:2.2958651216953788e-01
2290:2.5245839267460529e-01
2291:2.6541586613679480e-01
2292:1.5258052832282137e-01
2293:1.7968312185415430e-01
2294:2.0799112976116205e-01
2295:2.2474686657025028e-01
2296:8.2948643594524196e-02
2297:1.1535022318866205e-01
2298:1.4998414009934644e-01
2299:1.7117263764889243e-01
2300:3.0957694211441782e-02
2301:6.6707539894811194e-02
2302:1.0554920713271158e-01
2303:1.2979206081794967e-01
2304:2.7084155699364476e-01
2305:2.7892380198094296e-01
2306:2.8560417030587110e-01
2307:2.8788410274758525e-01
2308:2.3209911878625500e-01
2309:2.4367941362791318e-01
2310:2.5467698093417473e-01
2311:2.6005191049158549e-01
2312:1.8075740075776447e-01
2313:1.9641887894107757e-01
2314:2.1255399058821114e-01
2315:2.2172156211680488e-01
2316:1.4093326920561794e-01
2317:1.5943790805418956e-01
2318:1.7916795795954671e-01
2319:1.9102551235274939e-01
2320:2.8817169600009457e-01
2321:2.8776818601609244e-01
2322:2.8558923108373957e-01
2323:2.8268900500568089e-01
2324:2.6190238099221730e-01
2325:2.6421611427657032e-01
2326:2.6519847700499538e-01
2327:2.6447298888277926e-01
2328:2.2553380108470134e-01
2329:2.3129099835559463e-01
2330:2.3631326688508128e-01
2331:2.3837450722039952e-01
2332:1.9624907762233651e-01
2333:2.0451751577944038e-01
2334:2.1253865307105091e-01
2335:2.1669698344785318e-01
2336:2.8073594665574214e-01
2337:2.7663021643821623e-01
2338:2.7048242088526248e-01
2339:2.6517226426303492e-01
2340:2.6360496043820136e-01
2341:2.6141257717132499e-01
2342:2.5752544329285781e-01
2343:2.5377079004604108e-01
2344:2.3889457861725033e-01
2345:2.3916292032286923e-01
2346:2.3821960020774927e-01
2347:2.3652586706859191e-01
2348:2.1826762922346074e-01
2349:2.2040399868498387e-01
2350:2.2171030752061030e-01
2351:2.2160742870932407e-01
2352:2.6214801050176884e-01
2353:2.5637553349186748e-01
2354:2.4868149489167005e-01
2355:2.4263506578815977e-01
2356:2.5151398092157445e-01
2357:2.4707504797963104e-01
2358:2.4093100957829772e-01
2359:2.3594352822562481e-01
2360:2.3530012543363044e-01
2361:2.3266325089394715e-01
2362:2.2862708226137102e-01
2363:2.2508647763371420e-01
2364:2.2118451308179926e-01
2365:2.1995990357844192e-01
2366:2.1759039223771015e-01
2367:2.1520310235765547e-01
2368:2.3936041139214209e-01
2369:2.3324806067544107e-01
2370:2.2534331940503283e-01
2371:2.1931797239690309e-01
2372:2.3319258590868139e-01
2373:2.2799465837722210e-01
2374:2.2115497395765185e-01
2375:2.1585264661558248e-01
2376:2.2305262192099298e-01
2377:2.1911317998651894e-01
2378:2.1375390191577529e-01
2379:2.0946920016821252e-01
2380:2.1374346842787142e-01
2381:2.1081583874719714e-01
2382:2.0665533035391065e-01
2383:2.0320201122731607e-01
2384:2.1611812785263526e-01
2385:2.1022236629806618e-01
2386:2.0273417322709963e-01
2387:1.9712465928484824e-01
2388:2.1300686146395412e-01
2389:2.0772589002660286e-01
2390:2.0095039669185369e-01
2391:1.9582446159044903e-01
2392:2.0712652933003448e-01
2393:2.0272369883905580e-01
2394:1.9697362737407553e-01
2395:1.9254878450793969e-01
2396:2.0127317403419542e-01
2397:1.9759596856019490e-01
2398:1.9269901918468366e-01
2399:1.8886171888534548e-01
2400:1.9417660994419225e-01
2401:1.8877051553801030e-01
2402:1.8195289735065176e-01
2403:1.7688720208516479e-01
2404:1.9311382019586573e-01
2405:1.8811978216167202e-01
2406:1.8177776690407857e-01
2407:1.7703178333197703e-01
2408:1.9018413432516407e-01
2409:1.8579410276575262e-01
2410:1.8015634182240098e-01
2411:1.7588959362325668e-01
2412:1.8678846688049083e-01
2413:1.8290948626057427e-01
2414:1.7787226788501290e-01
2415:1.7401798114140016e-01
2416:1.7423992635170577e-01
2417:1.6939744310911395e-01
2418:1.6331045683324319e-01
2419:1.5880253007776171e-01
2420:1.7454001988023782e-01
2421:1.6996616178477220e-01
2422:1.6418733189415066e-01
2423:1.5988534441258559e-01
2424:1.7363309287794293e-01
2425:1.6946839037829792e-01
2426:1.6416414687804953e-01
2427:1.6018349748591848e-01
2428:1.7196535817216357e-01
2429:1.6815703335480947e-01
2430:1.6326955383766190e-01
2431:1.5957379179077349e-01
2432:1.5645132152599786e-01
2433:1.5214897956651027e-01
2434:1.4673762803792395e-01
2435:1.4272897573187604e-01
2436:1.5763392010696503e-01
2437:1.5350267006064977e-01
2438:1.4828460365887991e-01
2439:1.4440238811814313e-01
2440:1.5808931646496754e-01
2441:1.5423022153181845e-01
2442:1.4932471895472108e-01
2443:1.4565123244539652e-01
2444:1.5762000778432061e-01
2445:1.5400552836053238e-01
2446:1.4938418962450981e-01
2447:1.4590313077783712e-01
2448:1.4063774236162949e-01
2449:1.3680181695587931e-01
2450:1.3195713195666442e-01
2451:1.2835295166242530e-01
2452:1.4237130666870493e-01
2453:1.3863681727395685e-01
2454:1.3390331139224437e-01
2455:1.3036896056797909e-01
2456:1.4372110156101317e-01
2457:1.4015953189947922e-01
2458:1.3562103984253762e-01
2459:1.3221393186233024e-01
2460:1.4406707507708766e-01
2461:1.4066821793495024e-01
2462:1.3631637879022318e-01
2463:1.3303371868682828e-01
2464:1.2646695281976678e-01
2465:1.2299051047772493e-01
2466:1.1856548130585511e-01
2467:1.1524729970260356e-01
2468:1.2851502461990219e-01
2469:1.2509028564225982e-01
2470:1.2071685282443399e-01
2471:1.1742655774572168e-01
2472:1.3042036195893619e-01
2473:1.2709655911562462e-01
2474:1.2283169622152880e-01
2475:1.1960764937041252e-01
2476:1.3130023573598207e-01
2477:1.2807879524282201e-01
2478:1.2392803028518430e-01
2479:1.2077718518415351e-01
2480:1.1350135493908076e-01
2481:1.1025854276035675e-01
2482:1.0608128890926213e-01
2483:1.0291073473511629e-01
2484:1.1569152659873422e-01
2485:1.1246259855219794e-01
2486:1.0829097774340904e-01
2487:1.0511546694985992e-01
2488:1.1790218786881776e-01
2489:1.1471916746234546e-01
2490:1.1058936242221368e-01
2491:1.0743251594803738e-01
2492:1.1910592316487024e-01
2493:1.1597901787630330e-01
2494:1.1190724408361906e-01
2495:1.0878367036742374e-01
2496:1.0122858127326317e-01
2497:9.8072211621424835e-02
2498:9.3942285911230897e-02
2499:9.0758742373578005e-02
2500:1.0342748825321071e-01
2501:1.0025458572791379e-01
2502:9.6092318947139335e-02
2503:9.2875878595460815e-02
2504:1.0574990577465566e-01
2505:1.0257908900156910e-01
2506:9.8404262823880817e-02
2507:9.5166754419024766e-02
2508:1.0711497200942990e-01
2509:1.0396364736228642e-01
2510:9.9801659076262497e-02
2511:9.6564605690667424e-02
2512:8.9052117195854152e-02
2513:8.5810734952146236e-02
2514:8.1492159666379668e-02
2515:7.8104696159126227e-02
2516:9.1148894584993659e-02
2517:8.7864090151048346e-02
2518:8.3478679912159653e-02
2519:8.0032229801897781e-02
2520:9.3424579315505824e-02
2521:9.0104109236459673e-02
2522:8.5658298773721039e-02
2523:8.2155052052903577e-02
2524:9.4819440422246146e-02
2525:9.1487620623536742e-02
2526:8.7015958727618414e-02
2527:8.3484583549892327e-02
2528:7.6268024318291813e-02
2529:7.2734930986901022e-02
2530:6.7940118546501185e-02
2531:6.4113838971850454e-02
2532:7.8161375144917167e-02
2533:7.4558800356958096e-02
2534:6.9662787333165416e-02
2535:6.5750823823973292e-02
2536:8.0250240605248685e-02
2537:7.6576980145837747e-02
2538:7.1575088613198112e-02
2539:6.7571533851574495e-02
2540:8.1561883650888109e-02
2541:7.7849730539708076e-02
2542:7.2786742409593957e-02
2543:6.8728497503091304e-02
2544:6.2016504956989314e-02
2545:5.7934599797846507e-02
2546:5.2303303425939231e-02
2547:4.7742216354402553e-02
2548:6.3604919257374673e-02
2549:5.9426017402087930e-02
2550:5.3656500641054546e-02
2551:4.8980435502367199e-02
2552:6.5373111712963033e-02
2553:6.1088441736695920e-02
2554:5.5166656615328172e-02
2555:5.0362896547422507e-02
2556:6.6498163570440513e-02
2557:6.2148409113694451e-02
2558:5.6131516630521704e-02
2559:5.1247069701800298e-02
2560:4.5218951654833292e-02
2561:4.0259520235349060e-02
2562:3.3324210201929182e-02
2563:2.7639123490793584e-02
2564:4.6392634112404033e-02
2565:4.1305371628614196e-02
2566:3.4189804411574265e-02
2567:2.8356086798729998e-02
2568:4.7703111978013440e-02
2569:4.2472947677047519e-02
2570:3.5155388071931977e-02
2571:2.9154839599679343e-02
2572:4.8541525494136671e-02
2573:4.3220231952495032e-02
2574:3.5773429667902541e-02
2575:2.9665889002499817e-02
2576:2.4471222591556527e-02
2577:1.8202173226415888e-02
2578:9.3550862722701234e-03
2579:2.0451237351494607e-03
2580:2.5105186496080630e-02
2581:1.8672544457888008e-02
2582:9.5962889307275277e-03
2583:2.0984440510532043e-03
2584:2.5810720437006825e-02
2585:1.9194562192993196e-02
2586:9.8617944464889258e-03
2587:2.1541422957241777e-03
2588:2.6261936443886066e-02
2589:1.9528173006745551e-02
2590:1.0031507694562108e-02
2591:2.1902270115437563e-03
2592:1.1500846374916089e+00
2593:1.6987868274575848e+00
2594:2.0883386919772295e+00
2595:2.1423598465412077e+00
2596:1.0966691533673745e+00
2597:1.4232660186092490e+00
2598:1.5997696245399302e+00
2599:1.5510042129832917e+00
2600:7.5527318815054645e-01
2601:8.4024023031979500e-01
2602:8.1079514598832625e-01
2603:6.8769669526998167e-01
2604:4.3726278544906333e-01
2605:3.7941738833101529e-01
2606:2.4005521625744949e-01
2607:8.9182691579829457e-02
2608:2.0899980461214902e+00
2609:1.9101190789220310e+00
2610:1.5329257101306459e+00
2611:1.1376996036400573e+00
2612:1.4648865844667773e+00
2613:1.2451090970218217e+00
2614:8.5973768377176207e-01
2615:4.9306817543761811e-01
2616:5.9007919152479205e-01
2617:3.7639918308731141e-01
2618:4.8741251912429125e-02
2619:-2.3496298168086749e-01
2620:-4.7649966478840577e-03
2621:-1.9377477784377437e-01
2622:-4.5805120330683596e-01
2623:-6.6955202523759050e-01
2624:8.9424715990196524e-01
2625:4.4586083123921871e-01
2626:-1.0515448608315889e-01
2627:-4.9848856896934324e-01
2628:2.7667471285305295e-01
2629:-1.1349276781813651e-01
2630:-5.7548279482158426e-01
2631:-8.8908872437738917e-01
2632:-3.9442367303622100e-01
2633:-6.7490570660326710e-01
2634:-9.9250571023674794e-01
2635:-1.1944138917237976e+00
2636:-7.8302641525085870e-01
2637:-9.7739881455421473e-01
2638:-1.1874318378817394e+00
2639:-1.3119670789566911e+00
2640:-6.9385696517408035e-01
2641:-9.7923125004969180e-01
2642:-1.1872625953659171e+00
2643:-1.2266087257547515e+00
2644:-1.0383019372554696e+00
2645:-1.2452561537817697e+00
2646:-1.3713168938076952e+00
2647:-1.3644746311422138e+00
2648:-1.2846754807082377e+00
2649:-1.3990430161016647e+00
2650:-1.4430775287879893e+00
2651:-1.4029815496063491e+00
2652:-1.3637861097895021e+00
2653:-1.4214882118662824e+00
2654:-1.4227201687961590e+00
2655:-1.3724763421275306e+00
2656:-1.2093580254276790e+00
2657:-1.1539376022300123e+00
2658:-1.0511314531965659e+00
2659:-9.5361551848070858e-01
2660:-1.3286144002911036e+00
2661:-1.2457349867316039e+00
2662:-1.1190638944326619e+00
2663:-1.0106813340008829e+00
2664:-1.3592302536603089e+00
2665:-1.2682796437924428e+00
2666:-1.1401617174106469e+00
2667:-1.0360089794430141e+00
2668:-1.3304309833704535e+00
2669:-1.2456749520559849e+00
2670:-1.1286372122061912e+00
2671:-1.0345291214910943e+00
2672:-8.9699777040906370e-01
2673:-7.9295187505041498e-01
2674:-6.6055451001846011e-01
2675:-5.5880671780351687e-01
2676:-9.5028167173672873e-01
2677:-8.4092979379503441e-01
2678:-7.0572136024228649e-01
2679:-6.0585047906579415e-01
2680:-9.7911508026550753e-01
2681:-8.7580875110459555e-01
2682:-7.4801187133701763e-01
2683:-6.5448958017918868e-01
2684:-9.8321111089324542e-01
2685:-8.8892296646414448e-01
2686:-7.7045033239825556e-01
2687:-6.8290643278523688e-01
2688:-5.0413507526687795e-01
2689:-4.0885280641214106e-01
2690:-3.0002286383813326e-01
2691:-2.2785980523823751e-01
2692:-5.5363650962492372e-01
2693:-4.6179218698297075e-01
2694:-3.5478556854990811e-01
2695:-2.8243801803013641e-01
2696:-6.0606001551382782e-01
2697:-5.1976444437070546e-01
2698:-4.1673578371571901e-01
2699:-3.4522525623536121e-01
2700:-6.3742458763334509e-01
2701:-5.5573771578186937e-01
2702:-4.5676534743272917e-01
2703:-3.8684694865057234e-01
2704:-1.9311313945147704e-01
2705:-1.3304302670044812e-01
2706:-6.4096967951977071e-02
2707:-1.8207940633178789e-02
2708:-2.4719794453518962e-01
2709:-1.8603963252997061e-01
2710:-1.1533657688128188e-01
2711:-6.7730647130820637e-02
2712:-3.0978296777534620e-01
2713:-2.4796433640895107e-01
2714:-1.7598900531951825e-01
2715:-1.2705501482011475e-01
2716:-3.5174394454179414e-01
2717:-2.9021271715142183e-01
2718:-2.1810958314616724e-01
2719:-1.6874566316441911e-01
2720:3.8701484202709230e-03
2721:4.1108079593008905e-02
2722:8.1941818191563418e-02
2723:1.0770164592331490e-01
2724:-4.4579032840034526e-02
2725:-5.1322522282585348e-03
2726:3.8851500097455492e-02
2727:6.7148866639642299e-02
2728:-1.0305549478573177e-01
2729:-6.1697765128243591e-02
2730:-1.4666866023198145e-02
2731:1.6311516837327917e-02
2732:-1.4441108000504788e-01
2733:-1.0216912164084267e-01
2734:-5.3510478078868863e-02
2735:-2.0959994987232666e-02
2736:1.1963289886062198e-01
2737:1.3957354479411122e-01
2738:1.6110594943347603e-01
2739:1.7430957115748164e-01
2740:8.0446478172392533e-02
2741:1.0287801963084603e-01
2742:1.2753197410632736e-01
2743:1.4305987682004706e-01
2744:3.1125387661771347e-02
2745:5.6353210469406008e-02
2746:8.4543888945154161e-02
2747:1.0272055704677999e-01
2748:-5.2139457019648675e-03
2749:2.1772727466618236e-02
2750:5.2250593519450980e-02
2751:7.2180468570898215e-02
2752:1.8024139597008129e-01
2753:1.8978485697251329e-01
2754:1.9935549185128118e-01
2755:2.0461439596867315e-01
2756:1.5021256479225228e-01
2757:1.6197298606157121e-01
2758:1.7427930526688593e-01
2759:1.8151288693766543e-01
2760:1.1126846040828382e-01
2761:1.2559432363037626e-01
2762:1.4113270582913770e-01
2763:1.5074939106815721e-01
2764:8.1663670247330483e-02
2765:9.7730644181099682e-02
2766:1.1550220672740330e-01
2767:1.2679389671040503e-01
2768:2.0674092952191997e-01
2769:2.0986658668498301e-01
2770:2.1236580486914544e-01
2771:2.1310889510529890e-01
2772:1.8464723762328272e-01
2773:1.8957075414674018e-01
2774:1.9424342024198007e-01
2775:1.9653233770607564e-01
2776:1.5511660165754043e-01
2777:1.6224999255694725e-01
2778:1.6961106800513470e-01
2779:1.7382541554558337e-01
2780:1.3203679101578900e-01
2781:1.4074951934669591e-01
2782:1.5004996812781279e-01
2783:1.5566766649026931e-01
2784:2.1311419951161351e-01
2785:2.1264645876555885e-01
2786:2.1117671457771423e-01
2787:2.0941654341879382e-01
2788:1.9732196795184118e-01
2789:1.9824678486091765e-01
2790:1.9844466200295105e-01
2791:1.9785552903422846e-01
2792:1.7559699564337602e-01
2793:1.7827691569023144e-01
2794:1.8059828940375214e-01
2795:1.8151563547602534e-01
2796:1.5816016272311725e-01
2797:1.6213716056276772e-01
2798:1.6604284739644534e-01
2799:1.6809433456327730e-01
2800:2.0827049986694696e-01
2801:2.0589663639146960e-01
2802:2.0239451159605334e-01
2803:1.9939977602806558e-01
2804:1.9729784753872046e-01
2805:1.9596533178524159e-01
2806:1.9370567306675868e-01
2807:1.9158007072391145e-01
2808:1.8171966289515093e-01
2809:1.8173998877484848e-01
2810:1.8110343687385111e-01
2811:1.8012084216055385e-01
2812:1.6887491502248056e-01
2813:1.6992284501093471e-01
2814:1.7052637311202865e-01
2815:1.7042312770170756e-01
2816:1.9769996815000812e-01
2817:1.9442550346002369e-01
2818:1.9000417675382819e-01
2819:1.8649600715730019e-01
2820:1.9031576514510309e-01
2821:1.8780953519460070e-01
2822:1.8429983719492388e-01
2823:1.8142562585966557e-01
2824:1.7943218200629493e-01
2825:1.7794607810533647e-01
2826:1.7565526708610760e-01
2827:1.7363457177642161e-01
2828:1.7017963194088576e-01
2829:1.6948590314208239e-01
2830:1.6814798956456051e-01
2831:1.6679884502874481e-01
2832:1.8458652317290350e-01
2833:1.8099550563406244e-01
2834:1.7629813580537987e-01
2835:1.7267844517651978e-01
2836:1.7983259289090806e-01
2837:1.7679935616752088e-01
2838:1.7276291656160936e-01
2839:1.6960164203264905e-01
2840:1.7246947256668127e-01
2841:1.7019302928920341e-01
2842:1.6705828749917989e-01
2843:1.6452650234069421e-01
2844:1.6597181085219351e-01
2845:1.6429503675066595e-01
2846:1.6187834775497023e-01
2847:1.5985077883020102e-01
2848:1.7074221449876786e-01
2849:1.6713791089162702e-01
2850:1.6249008900427425e-01
2851:1.5895899045313799e-01
2852:1.6789365905302778e-01
2853:1.6469058393374761e-01
2854:1.6051615399291105e-01
2855:1.5731187340812505e-01
2856:1.6313346233569062e-01
2857:1.6048618544039797e-01
2858:1.5697148582746034e-01
2859:1.5422563082915391e-01
2860:1.5871109457347415e-01
2861:1.5651251006378750e-01
2862:1.5353330517088370e-01
2863:1.5116171466055045e-01
2864:1.5708666068677737e-01
2865:1.5361459644852540e-01
2866:1.4915968513255429e-01
2867:1.4579213421102680e-01
2868:1.5560175252061714e-01
2869:1.5241416553714981e-01
2870:1.4829341908446614e-01
2871:1.4515517575549430e-01
2872:1.5274406032749813e-01
2873:1.4995888221262144e-01
2874:1.4631394914388604e-01
2875:1.4350473699914762e-01
2876:1.4986747875438017e-01
2877:1.4741324223267482e-01
2878:1.4416177240010866e-01
2879:1.4162638146390624e-01
2880:1.4401187274251998e-01
2881:1.4070996931655841e-01
2882:1.3647024367603441e-01
2883:1.3326307597843759e-01
2884:1.4348814759299505e-01
2885:1.4038379134141471e-01
2886:1.3637401930542717e-01
2887:1.3332291771007435e-01
2888:1.4200111817417177e-01
2889:1.3918326566251116e-01
2890:1.3550974869522792e-01
2891:1.3268906696477029e-01
2892:1.4025939153671949e-01
2893:1.3768207248207343e-01
2894:1.3429276538415252e-01
2895:1.3166836405637525e-01
2896:1.3156632905983556e-01
2897:1.2840798493237340e-01
2898:1.2432861639263318e-01
2899:1.2122449994447679e-01
2900:1.3170257602790525e-01
2901:1.2867628396686903e-01
2902:1.2474801758535857e-01
2903:1.2174421671102295e-01
2904:1.3118235443096030e-01
2905:1.2835388130027817e-01
2906:1.2465487581430615e-01
2907:1.2180570811603843e-01
2908:1.3025900808236737e-01
2909:1.2760097389783087e-01
2910:1.2410140536152929e-01
2911:1.2138833308902515e-01
2912:1.1957544319204137e-01
2913:1.1648567182663801e-01
2914:1.1245381380138927e-01
2915:1.0935454690791364e-01
2916:1.2014338970094435e-01
2917:1.1713529875267399e-01
2918:1.1319341096650821e-01
2919:1.1015088408528159e-01
2920:1.2028017052227670e-01
2921:1.1740130017948978e-01
2922:1.1360532872110866e-01
2923:1.1065796827917880e-01
2924:1.1992966431253049e-01
2925:1.1716664806197359e-01
2926:1.1350374279712679e-01
2927:1.1064509166137576e-01
2928:1.0769666315205707e-01
2929:1.0456194744570177e-01
2930:1.0041463132057317e-01
2931:9.7183623631103444e-02
2932:1.0851908601970056e-01
2933:1.0542619916431897e-01
2934:1.0131995853294655e-01
2935:9.8110419982607777e-02
2936:1.0907122923872523e-01
2937:1.0605324218355797e-01
2938:1.0202646781178468e-01
2939:9.8864326990854956e-02
2940:1.0910112791461291e-01
2941:1.0615575523149005e-01
2942:1.0220927854817606e-01
2943:9.9098019780146512e-02
2944:9.5439894893810662e-02
2945:9.2107631712211327e-02
2946:8.7629374074379082e-02
2947:8.4088429929050981e-02
2948:9.6374702168271140e-02
2949:9.3051490375201037e-02
2950:8.8573614352786920e-02
2951:8.5024416689613455e-02
2952:9.7149254406900892e-02
2953:9.3856831903713023e-02
2954:8.9404005855787019e-02
2955:8.5862750367912619e-02
2956:9.7406432367841703e-02
2957:9.4151889395767047e-02
2958:8.9736766942003818e-02
2959:8.6215724343483832e-02
2960:8.2159064690424874e-02
2961:7.8431578048860140e-02
2962:7.3343119577563676e-02
2963:6.9261221838358714e-02
2964:8.3087700589260211e-02
2965:7.9341182408125904e-02
2966:7.4217815867477888e-02
2967:7.0101575256684437e-02
2968:8.3926401160312039e-02
2969:8.0173883060940906e-02
2970:7.5029917086140013e-02
2971:7.0888332781693569e-02
2972:8.4287182296142432e-02
2973:8.0544307625309133e-02
2974:7.5403438496275538e-02
2975:7.1257179315052016e-02
2976:6.7016838309365584e-02
2977:6.2638069183858905e-02
2978:5.6578162923637931e-02
2979:5.1656825078478436e-02
2980:6.7836251792947819e-02
2981:6.3413469894099447e-02
2982:5.7287020142436321e-02
2983:5.2307781502617098e-02
2984:6.8606211076434068e-02
2985:6.4146256335949919e-02
2986:5.7960515459657649e-02
2987:5.2927747302407187e-02
2988:6.8970161423533669e-02
2989:6.4497076592967648e-02
2990:5.8286782923870815e-02
2991:5.3229700526184767e-02
2992:4.8930242004872899e-02
2993:4.3566929004948282e-02
2994:3.6060351897204718e-02
2995:2.9903223684575202e-02
2996:4.9547936964074620e-02
2997:4.4117951589778000e-02
2998:3.6516171232007233e-02
2999:3.0279861631169708e-02
3000:5.0136597795383729e-02
3001:4.4643304836081352e-02
3002:3.6950301008339986e-02
3003:3.0637653489768824e-02
3004:5.0423739671194685e-02
3005:4.4899904515005244e-02
3006:3.7162023491699746e-02
3007:3.0811335331806734e-02
3008:2.6471519215827098e-02
3009:1.9683284865526372e-02
3010:1.0110908766189497e-02
3011:2.2080773383182277e-03
3012:2.6803802868271921e-02
3013:1.9928677858675518e-02
3014:1.0235958850027836e-02
3015:2.2356656312212987e-03
3016:2.7118741015741757e-02
3017:2.0160036350074254e-02
3018:1.0352520224440600e-02
3019:2.2600982844403331e-03
3020:2.7270971684290501e-02
3021:2.0270799708432572e-02
3022:1.0407295420899475e-02
3023:2.2708002174836464e-03
3024:2.9391171701060737e-01
3025:1.7755742675183955e-01
3026:-4.8759002373993787e-03
3027:-1.6495020660801069e-01
3028:1.0909805245566487e-01
3029:-7.1079157322746181e-02
3030:-2.9831721514629722e-01
3031:-4.6570238326920693e-01
3032:-5.4627887431169080e-03
3033:-2.0083055152727045e-01
3034:-4.3359098250686789e-01
3035:-5.9568425610664533e-01
3036:-3.3316356516393107e-02
3037:-2.1131791874810837e-01
3038:-4.2612629350206571e-01
3039:-5.7781163199787000e-01
3040:-2.5620501680460667e-01
3041:-4.3236773141073015e-01
3042:-6.6626717484534381e-01
3043:-8.4444113322341163e-01
3044:-5.5232030376095331e-01
3045:-7.1004063019477537e-01
3046:-9.0278963090435038e-01
3047:-1.0371137564274358e+00
3048:-6.7652491979220775e-01
3049:-8.1819275903764144e-01
3050:-9.8089430334572303e-01
3051:-1.0862619919417649e+00
3052:-6.5407991278423061e-01
3053:-7.8666595921015126e-01
3054:-9.3693619484324597e-01
3055:-1.0331532671638557e+00
3056:-9.3702876700951943e-01
3057:-1.0923202964857930e+00
3058:-1.2540618671760770e+00
3059:-1.3448417633625191e+00
3060:-1.1025907710614558e+00
3061:-1.2073930765353036e+00
3062:-1.3073936290434887e+00
3063:-1.3558019536911550e+00
3064:-1.1347261542744906e+00
3065:-1.2087502830662480e+00
3066:-1.2728929139526686e+00
3067:-1.2982906964352208e+00
3068:-1.0771530847862480e+00
3069:-1.1443189108044447e+00
3070:-1.2026362758133544e+00
3071:-1.2259864423703000e+00
3072:-1.3804197074527915e+00
3073:-1.4151880466049462e+00
3074:-1.4010755384973090e+00
3075:-1.3492555092873233e+00
3076:-1.3714051704086967e+00
3077:-1.3792786701016120e+00
3078:-1.3502264785147977e+00
3079:-1.3007780161056328e+00
3080:-1.3037861436738212e+00
3081:-1.3005401101802632e+00
3082:-1.2715443036878076e+00
3083:-1.2318243548241485e+00
3084:-1.2313152743928792e+00
3085:-1.2304451061507424e+00
3086:-1.2093387009163012e+00
3087:-1.1786940375392134e+00
3088:-1.3094262578050679e+00
3089:-1.2297080120685031e+00
3090:-1.1197678183266639e+00
3091:-1.0312739328733520e+00
3092:-1.2662614132861687e+00
3093:-1.1972132392465538e+00
3094:-1.1009630113518714e+00
3095:-1.0225446781364547e+00
3096:-1.2051971268471602e+00
3097:-1.1506295402946869e+00
3098:-1.0716176933703059e+00
3099:-1.0051722620575596e+00
3100:-1.1576696536766533e+00
3101:-1.1129358481288119e+00
3102:-1.0453118076965093e+00
3103:-9.8677280465667194e-01
3104:-9.8290074117929882e-01
3105:-8.9334883719752689e-01
3106:-7.7972858607444884e-01
3107:-6.9522378797198614e-01
3108:-9.7927583430604592e-01
3109:-8.9803866968150037e-01
3110:-7.9311315594207488e-01
3111:-7.1406829771648106e-01
3112:-9.6783473262626085e-01
3113:-8.9660235355332929e-01
3114:-8.0266839098682752e-01
3115:-7.3066142980687399e-01
3116:-9.5344164438549528e-01
3117:-8.8935350556550807e-01
3118:-8.0384014935287840e-01
3119:-7.3744735138427064e-01
3120:-6.5121551005046541e-01
3121:-5.7196797494879015e-01
3122:-4.7542578802804114e-01
3123:-4.0671014032130087e-01
3124:-6.7267520293938354e-01
3125:-5.9782871775746638e-01
3126:-5.0590654877318020e-01
3127:-4.3975944223397678e-01
3128:-6.9259373995501461e-01
3129:-6.2337349099664752e-01
3130:-5.3759238802818721e-01
3131:-4.7520912742912697e-01
3132:-7.0203539311751906e-01
3133:-6.3726529281249067e-01
3134:-5.5635159181672433e-01
3135:-4.9705574525450114e-01
3136:-3.7200147307848369e-01
3137:-3.1095815808892513e-01
3138:-2.3910194034355833e-01
3139:-1.8968309709970363e-01
3140:-4.0605198121921410e-01
3141:-3.4638542108315690e-01
3142:-2.7548331246386581e-01
3143:-2.2624374482705989e-01
3144:-4.4316499486340710e-01
3145:-3.8597059212850998e-01
3146:-3.1711868713037106e-01
3147:-2.6864256950043647e-01
3148:-4.6644688395788775e-01
3149:-4.1149036421809493e-01
3150:-3.4470069751066623e-01
3151:-2.9719675573533816e-01
3152:-1.6524847147530999e-01
3153:-1.2269063175653634e-01
3154:-7.3381365240192217e-02
3155:-4.0162944513151548e-02
3156:-2.0174019467538121e-01
3157:-1.5882571922254415e-01
3158:-1.0864036913707116e-01
3159:-7.4456789621279107e-02
3160:-2.4429625654238390e-01
3161:-2.0139217700015716e-01
3162:-1.5071834586535984e-01
3163:-1.1579681252120337e-01
3164:-2.7317481930740817e-01
3165:-2.3065921802291275e-01
3166:-1.8009976712112771e-01
3167:-1.4497648560237045e-01
3168:-2.4008908320706623e-02
3169:3.7681815424312265e-03
3170:3.5310589556745257e-02
3171:5.6080936189174764e-02
3172:-5.7695814983592171e-02
3173:-2.8704226683771351e-02
3174:4.5437192460542168e-03
3175:2.6706458188247184e-02
3176:-9.8523940927406697e-02
3177:-6.8426997419080982e-02
3178:-3.3489881517947698e-02
3179:-9.8638450460720173e-03
3180:-1.2749897620364442e-01
3181:-9.6879738225105275e-02
3182:-6.1024048083049731e-02
3183:-3.6536389476441535e-02
3184:6.6019685133657552e-02
3185:8.2941012370169348e-02
3186:1.0181850932304341e-01
3187:1.1394659995985912e-01
3188:3.7412994031942530e-02
3189:5.5781753028140195e-02
3190:7.6545756323411124e-02
3191:9.0111790981203505e-02
3192:1.6724281291496839e-03
3193:2.1621666935256141e-02
3194:4.4476340233092063e-02
3195:5.9663010357048928e-02
3196:-2.4495188568645906e-02
3197:-3.5684746967304319e-03
3198:2.0610727666667543e-02
3199:3.6851113117755990e-02
3200:1.1962896869186866e-01
3201:1.2913845284256900e-01
3202:1.3942554628714487e-01
3203:1.4576364409702050e-01
3204:9.6554218943678674e-02
3205:1.0745171605337163e-01
3206:1.1947570426492923e-01
3207:1.2709405939473936e-01
3208:6.6972783734233668e-02
3209:7.9474386855698256e-02
3210:9.3540258428373629e-02
3211:1.0268556075785087e-01
3212:4.4735064416051934e-02
3213:5.8314664561269644e-02
3214:7.3778874675976477e-02
3215:8.3985518673786438e-02
3216:1.4862846799894161e-01
3217:1.5327816598806515e-01
3218:1.5801021909705121e-01
3219:1.6065641061183852e-01
3220:1.3062409023510854e-01
3221:1.3647884870318006e-01
3222:1.4269757323777146e-01
3223:1.4641923148442040e-01
3224:1.0701502841908810e-01
3225:1.1432411927906794e-01
3226:1.2234985715271965e-01
3227:1.2739030704002990e-01
3228:8.8874752121393147e-02
3229:9.7207178568603017e-02
3230:1.0651526713137542e-01
3231:1.1250132188017800e-01
3232:1.6174027489948711e-01
3233:1.6333011292925595e-01
3234:1.6459032755538724e-01
3235:1.6495499290228896e-01
3236:1.4805374456951598e-01
3237:1.5063111574296589e-01
3238:1.5309444126539673e-01
3239:1.5432075563627193e-01
3240:1.2970466717147869e-01
3241:1.3350854376144738e-01
3242:1.3747858478838293e-01
3243:1.3979222948788084e-01
3244:1.1530695880383397e-01
3245:1.2000272280797047e-01
3246:1.2507774264381533e-01
3247:1.2819481368195354e-01
3248:1.6494920481203229e-01
3249:1.6467976513768248e-01
3250:1.6385416855110668e-01
3251:1.6286753948553595e-01
3252:1.5475405419383859e-01
3253:1.5527002994044586e-01
3254:1.5539610217034683e-01
3255:1.5508559560478521e-01
3256:1.4078206979968122e-01
3257:1.4229675893463928e-01
3258:1.4363939616168489e-01
3259:1.4419861071416787e-01
3260:1.2959762928372512e-01
3261:1.3185588744491691e-01
3262:1.3410935723540290e-01
3263:1.3532395342395734e-01
3264:1.6222346845396496e-01
3265:1.6087186727210892e-01
3266:1.5884577123618412e-01
3267:1.5709347097316503e-01
3268:1.5478377934705223e-01
3269:1.5404194977864960e-01
3270:1.5275100008208845e-01
3271:1.5151874469954293e-01
3272:1.4433907790528303e-01
3273:1.4438817301204740e-01
3274:1.4405599141400702e-01
3275:1.4350569002274996e-01
3276:1.3579928141464123e-01
3277:1.3644940259282098e-01
3278:1.3684966249292052e-01
3279:1.3682306322167348e-01
3280:1.5609246697682858e-01
3281:1.5414001908987235e-01
3282:1.5145555349553874e-01
3283:1.4929070112319950e-01
3284:1.5078038554917950e-01
3285:1.4929501413866308e-01
3286:1.4717162567986172e-01
3287:1.4540172606351801e-01
3288:1.4311295839749535e-01
3289:1.4224399996638865e-01
3290:1.4086449679082524e-01
3291:1.3962094228566541e-01
3292:1.3669663761730635e-01
3293:1.3630395290214636e-01
3294:1.3550179850617985e-01
3295:1.3466879945849888e-01
3296:1.4810020063181498e-01
3297:1.4582958533274903e-01
3298:1.4279713208418038e-01
3299:1.4041472510833894e-01
3300:1.4440990475346477e-01
3301:1.4249171229119473e-01
3302:1.3988100737196438e-01
3303:1.3779425775384355e-01
3304:1.3889487342823267e-01
3305:1.3744950394478828e-01
3306:1.3540728315533412e-01
3307:1.3372107224195590e-01
3308:1.3415075471467980e-01
3309:1.3307654422498291e-01
3310:1.3148251302669797e-01
3311:1.3011355287741119e-01
3312:1.3912427621361151e-01
3313:1.3668202793963016e-01
3314:1.3345294139798378e-01
3315:1.3093968765887806e-01
3316:1.3665210694289742e-01
3317:1.3447214475426819e-01
3318:1.3155531687761091e-01
3319:1.2925957921809431e-01
3320:1.3278053180999158e-01
3321:1.3095825422027044e-01
3322:1.2846940442425198e-01
3323:1.2647348284506690e-01
3324:1.2933321209602269e-01
3325:1.2779595876886710e-01
3326:1.2564971121066298e-01
3327:1.2389502690606044e-01
3328:1.2958564366909436e-01
3329:1.2702474065631206e-01
3330:1.2363942372558206e-01
3331:1.2100480408196354e-01
3332:1.2801410726466447e-01
3333:1.2564439598294513e-01
3334:1.2248501959698471e-01
3335:1.2000639139762893e-01
3336:1.2537827552974792e-01
3337:1.2327416473671256e-01
3338:1.2043060305189274e-01
3339:1.1817157483810960e-01
3340:1.2292116922008541e-01
3341:1.2103225556008508e-01
3342:1.1844595529381678e-01
3343:1.1636691503780380e-01
3344:1.1958486698681485e-01
3345:1.1688928532047961e-01
3346:1.1330450829735089e-01
3347:1.1049851107601931e-01
3348:1.1866378280361936e-01
3349:1.1610339884793702e-01
3350:1.1267639749679835e-01
3351:1.0997767385080001e-01
3352:1.1693840650812502e-01
3353:1.1457038814428977e-01
3354:1.1136993958142459e-01
3355:1.0882694538805140e-01
3356:1.1522385346846094e-01
3357:1.1301493177720907e-01
3358:1.1000328434099413e-01
3359:1.0759123489998054e-01
3360:1.0898016068530711e-01
3361:1.0607869490644257e-01
3362:1.0218167011250512e-01
3363:9.9102539426821387e-02
3364:1.0851186977476689e-01
3365:1.0570116431873919e-01
3366:1.0190778841371764e-01
3367:9.8897226971912236e-02
3368:1.0743807021832041e-01
3369:1.0476144543394197e-01
3370:1.0112368413450303e-01
3371:9.8218191755644321e-02
3372:1.0626748599670405e-01
3373:1.0370518014052989e-01
3374:1.0020175697394913e-01
3375:9.7388358570892508e-02
3376:9.7426110991572099e-02
3377:9.4196690071339323e-02
3378:8.9808071344979881e-02
3379:8.6302706557819353e-02
3380:9.7253650551398965e-02
3381:9.4079669707502811e-02
3382:8.9751697604813357e-02
3383:8.6284197611279922e-02
3384:9.6625799863672854e-02
3385:9.3539854592531474e-02
3386:8.9311710405583708e-02
3387:8.5909674125003388e-02
3388:9.5841373282889303e-02
3389:9.2834568998530237e-02
3390:8.8698342821589699e-02
3391:8.5358452185823899e-02
3392:8.4380943078586124e-02
3393:8.0648167797126066e-02
3394:7.5515537571445482e-02
3395:7.1371941180315826e-02
3396:8.4379691959607206e-02
3397:8.0674522145891769e-02
3398:7.5568952094258596e-02
3399:7.1439501858375470e-02
3400:8.4036328135319319e-02
3401:8.0383678260777885e-02
3402:7.5335571388093742e-02
3403:7.1242082072058899e-02
3404:8.3515437288496919e-02
3405:7.9915361888138192e-02
3406:7.4927854547268510e-02
3407:7.0875019039024670e-02
3408:6.9085104917387091e-02
3409:6.4610399896440504e-02
3410:5.8394341568077379e-02
3411:5.3330163035249713e-02
3412:6.9157985540455214e-02
3413:6.4689877343524882e-02
3414:5.8476199615095106e-02
3415:5.3409325890320256e-02
3416:6.8977041667953362e-02
3417:6.4536005738599425e-02
3418:5.8350740562736703e-02
3419:5.3300728393055198e-02
3420:6.8629741746554049e-02
3421:6.4223274575339787e-02
3422:5.8078727514693888e-02
3423:5.3056893816195237e-02
3424:5.0519530737102698e-02
3425:4.4985728289837691e-02
3426:3.7232718928500316e-02
3427:3.0868941410493400e-02
3428:5.0595781632271158e-02
3429:4.5054764789079084e-02
3430:3.7289410848897579e-02
3431:3.0914210040857898e-02
3432:5.0494620955798521e-02
3433:4.4966242976774241e-02
3434:3.7215573320317816e-02
3435:3.0850682073290586e-02
3436:5.0264898340604977e-02
3437:4.4762710688891233e-02
3438:3.7046327949257767e-02
3439:3.0708192240683625e-02
3440:2.7321144553787945e-02
3441:2.0306799599396547e-02
3442:1.0424678080813871e-02
3443:2.2739970202559070e-03
3444:2.7359784721487854e-02
3445:2.0333358591354527e-02
3446:1.0436850085112337e-02
3447:2.2765783430254410e-03
3448:2.7301654321679851e-02
3449:2.0287302271226864e-02
3450:1.0411402807066839e-02
3451:2.2712337180215768e-03
3452:2.7173801826200893e-02
3453:2.0189498791019254e-02
3454:1.0358784552173188e-02
3455:2.2583458737035133e-03
3456:-3.8211329836948034e-02
3457:-2.0395377334289358e-01
3458:-4.0706301282035784e-01
3459:-5.5251520165775714e-01
3460:-4.1025242619574104e-02
3461:-1.8853595791235028e-01
3462:-3.7319965177409248e-01
3463:-5.0779147734504482e-01
3464:-3.7167639571723324e-02
3465:-1.6866140239250160e-01
3466:-3.3490369755023508e-01
3467:-4.5687381869956767e-01
3468:-3.2259247532330046e-02
3469:-1.5485067917968948e-01
3470:-3.0942351217093622e-01
3471:-4.2261085324567921e-01
3472:-6.2620238604800815e-01
3473:-7.5421947491299512e-01
3474:-8.9932110178605329e-01
3475:-9.9261880112495782e-01
3476:-5.7655730487300350e-01
3477:-6.9601702858221692e-01
3478:-8.3177583357252816e-01
3479:-9.1992631848876305e-01
3480:-5.1934204933371253e-01
3481:-6.2810107379361280e-01
3482:-7.5256919734251282e-01
3483:-8.3448913206741204e-01
3484:-4.8055572118236745e-01
3485:-5.8185359710411877e-01
3486:-6.9870107588996744e-01
3487:-7.7636016954499976e-01
3488:-1.0355663282450409e+00
3489:-1.1018089140025598e+00
3490:-1.1607057131361196e+00
3491:-1.1856013589480787e+00
3492:-9.6103898240872743e-01
3493:-1.0257545816019868e+00
3494:-1.0859767651432397e+00
3495:-1.1139983765815891e+00
3496:-8.7326767124632543e-01
3497:-9.3572907801243688e-01
3498:-9.9688962052881425e-01
3499:-1.0282911047805268e+00
3500:-8.1342564511178372e-01
3501:-8.7387220105715302e-01
3502:-9.3474133535734949e-01
3503:-9.6766429305212731e-01
3504:-1.1920735443024342e+00
3505:-1.1940156877688075e+00
3506:-1.1777216029415336e+00
3507:-1.1514615973797648e+00
3508:-1.1227454974485063e+00
3509:-1.1297940817828143e+00
3510:-1.1215176562445837e+00
3511:-1.1022113910750151e+00
3512:-1.0396475603559263e+00
3513:-1.0522797774228976e+00
3514:-1.0523410039172243e+00
3515:-1.0401015279507508e+00
3516:-9.8040154736396357e-01
3517:-9.9607601605929030e-01
3518:-1.0008980563602954e+00
3519:-9.9294443326526660e-01
3520:-1.1329301511682719e+00
3521:-1.0925243916829599e+00
3522:-1.0299773908027090e+00
3523:-9.7512110493771798e-01
3524:-1.0875640909383646e+00
3525:-1.0540933341587280e+00
3526:-1.0000750294338066e+00
3527:-9.5164655142583365e-01
3528:-1.0294067701210259e+00
3529:-1.0034332354632589e+00
3530:-9.5935309862064799e-01
3531:-9.1870779588761819e-01
3532:-9.8476807091763663e-01
3533:-9.6391365114092364e-01
3534:-9.2704207228725966e-01
3535:-8.9210926737640628e-01
3536:-9.4374584092189384e-01
3537:-8.8330889969150361e-01
3538:-8.0232953854089650e-01
3539:-7.3906452909093978e-01
3540:-9.2373776854278578e-01
3541:-8.6976996927380612e-01
3542:-7.9687071915627727e-01
3543:-7.3928217595872980e-01
3544:-8.9500438762876766e-01
3545:-8.4875585200774473e-01
3546:-7.8542159414333379e-01
3547:-7.3467295019605972e-01
3548:-8.7143846685657889e-01
3549:-8.3060334227629340e-01
3550:-7.7383227946705679e-01
3551:-7.2781343102622298e-01
3552:-7.0514610616236106e-01
3553:-6.4285071722059195e-01
3554:-5.6460307703857870e-01
3555:-5.0698885451516951e-01
3556:-7.0813066781849865e-01
3557:-6.5045909154897397e-01
3558:-5.7723127802121643e-01
3559:-5.2279082056490189e-01
3560:-7.0695143650468328e-01
3561:-6.5512371202355224e-01
3562:-5.8838988108257484e-01
3563:-5.3812275251218855e-01
3564:-7.0252160542899245e-01
3565:-6.5493758318640971e-01
3566:-5.9308079173475547e-01
3567:-5.4603917947664249e-01
3568:-4.7716698849423300e-01
3569:-4.2346985635387840e-01
3570:-3.5791094812703433e-01
3571:-3.1105285778114333e-01
3572:-4.9445183245666791e-01
3573:-4.4316663682633139e-01
3574:-3.8005858744430571e-01
3575:-3.3457507978567236e-01
3576:-5.1174427575209636e-01
3577:-4.6371191317893945e-01
3578:-4.0405522664645316e-01
3579:-3.6063943224075667e-01
3580:-5.2119841795817234e-01
3581:-4.7575796313442720e-01
3582:-4.1893417795388432e-01
3583:-3.7728534621758197e-01
3584:-2.8727834222985227e-01
3585:-2.4510571168537851e-01
3586:-1.9477237825791113e-01
3587:-1.5965745187546468e-01
3588:-3.1136716029291572e-01
3589:-2.7002312824882813e-01
3590:-2.2033876561456825e-01
3591:-1.8540286280025886e-01
3592:-3.3833975964716856e-01
3593:-2.9838578175729413e-01
3594:-2.4993478656537449e-01
3595:-2.1552532543354330e-01
3596:-3.5578929988132507e-01
3597:-3.1710086622782546e-01
3598:-2.6985654255185992e-01
3599:-2.3605808060271813e-01
3600:-1.4212848742017473e-01
3601:-1.1133248682698967e-01
3602:-7.5109945788414220e-02
3603:-5.0252028374589142e-02
3604:-1.6786278250444700e-01
3605:-1.3689831778713385e-01
3606:-1.0020246912979815e-01
3607:-7.4811865996081112e-02
3608:-1.9812858257583008e-01
3609:-1.6724824573790528e-01
3610:-1.3033606122872152e-01
3611:-1.0455109542486077e-01
3612:-2.1888626359385688e-01
3613:-1.8829157111320191e-01
3614:-1.5150300715790849e-01
3615:-1.2563029479132129e-01
3616:-3.7987898799387812e-02
3617:-1.6622225050603592e-02
3618:8.1667112319641216e-03
3619:2.4904241850225897e-02
3620:-6.2213127137312023e-02
3621:-4.0168654643953541e-02
3622:-1.4402739332904172e-02
3623:3.1531856000313998e-03
3624:-9.1669882552977811e-02
3625:-6.9006654677878213e-02
3626:-4.2276386241622083e-02
3627:-2.3868675972301467e-02
3628:-1.1264165374121281e-01
3629:-8.9693962535226740e-02
3630:-6.2448079975708233e-02
3631:-4.3545858230659713e-02
3632:3.3063410949683583e-02
3633:4.7165501041259605e-02
3634:6.3316482337397159e-02
3635:7.4049615607613223e-02
3636:1.1771582064215918e-02
3637:2.6751638983427486e-02
3638:4.4067914715101804e-02
3639:5.5703252355541105e-02
3640:-1.4760683300893069e-02
3641:1.1675409059604275e-03
3642:1.9765688480786019e-02
3643:3.2412572636258255e-02
3644:-3.4143973551424428e-02
3645:-1.7635521052367115e-02
3646:1.7686321698141612e-03
3647:1.5068848106314398e-02
3648:7.9217872979028978e-02
3649:8.8062417952770020e-02
3650:9.8016600534707204e-02
3651:1.0448284526216343e-01
3652:6.1352879161306967e-02
3653:7.1086569768082780e-02
3654:8.2172622307770407e-02
3655:8.9487031977793466e-02
3656:3.8608980991522594e-02
3657:4.9364192837667242e-02
3658:6.1770530159157205e-02
3659:7.0087307347308322e-02
3660:2.1624665251025642e-02
3661:3.3060666145663900e-02
3662:4.6362404060073921e-02
3663:5.5368721754203327e-02
3664:1.0753938214753178e-01
3665:1.1269256889642168e-01
3666:1.1833747796632771e-01
3667:1.2187095233857549e-01
3668:9.2988854007381841e-02
3669:9.8956177966682393e-02
3670:1.0561980907298113e-01
3671:1.0990119720284705e-01
3672:7.4119165620443461e-02
3673:8.1060095034469148e-02
3674:8.8950912741749502e-02
3675:9.4140645000937384e-02
3676:5.9767952500667423e-02
3677:6.7387458477211767e-02
3678:7.6141167224862777e-02
3679:8.1975815661259402e-02
3680:1.2348840237227310e-01
3681:1.2613404011968521e-01
3682:1.2886391091102856e-01
3683:1.3042283819188821e-01
3684:1.1190547175384039e-01
3685:1.1525148911396273e-01
3686:1.1884676969387689e-01
3687:1.2103412763554759e-01
3688:9.6617477230277429e-02
3689:1.0082349135587734e-01
3690:1.0548924430141865e-01
3691:1.0845942279663456e-01
3692:8.4790447654203432e-02
3693:8.9614566216364794e-02
3694:9.5055530172710151e-02
3695:9.8596599106599403e-02
3696:1.3107466227464820e-01
3697:1.3204232403763336e-01
3698:1.3283087825656420e-01
3699:1.3308284711336557e-01
3700:1.2200902166820145e-01
3701:1.2355910546217756e-01
3702:1.2506205913253438e-01
3703:1.2582827135046529e-01
3704:1.0983849475120712e-01
3705:1.1211952550811936e-01
3706:1.1452347534091967e-01
3707:1.1594173403557737e-01
3708:1.0027167484690415e-01
3709:1.0308985844874669e-01
3710:1.0615949091871704e-01
3711:1.0806230491555896e-01
3712:1.3309837905515762e-01
3713:1.3296004956270654e-01
3714:1.3246714720166600e-01
3715:1.3185477974652068e-01
3716:1.2610647757069413e-01
3717:1.2643979455252308e-01
3718:1.2652219176456769e-01
3719:1.2632165133554976e-01
3720:1.1655425747095977e-01
3721:1.1748978798614423e-01
3722:1.1831029714891336e-01
3723:1.1864075087786749e-01
3724:1.0892426857386638e-01
3725:1.1031056666334631e-01
3726:1.1168618719289065e-01
3727:1.1241789836489813e-01
3728:1.3144878315176323e-01
3729:1.3057484750706450e-01
3730:1.2922331681701149e-01
3731:1.2802651054730710e-01
3732:1.2612527301656112e-01
3733:1.2562665938774661e-01
3734:1.2473080553828995e-01
3735:1.2385843313077471e-01
3736:1.1871552833993998e-01
3737:1.1870369002123220e-01
3738:1.1840123511473329e-01
3739:1.1795321282615231e-01
3740:1.1269822163102085e-01
3741:1.1305635216389368e-01
3742:1.1320676639432752e-01
3743:1.1308403527473332e-01
3744:1.2733327522207000e-01
3745:1.2595127477956516e-01
3746:1.2399217741321122e-01
3747:1.2236969067717110e-01
3748:1.2332968778912612e-01
3749:1.2224140334412106e-01
3750:1.2063739232290774e-01
3751:1.1926651960922115e-01
3752:1.1764027452716412e-01
3753:1.1693836663967723e-01
3754:1.1580341585526001e-01
3755:1.1476641866192969e-01
3756:1.1293703266645766e-01
3757:1.1253297455951894e-01
3758:1.1176104929359222e-01
3759:1.1098355089060274e-01
3760:1.2146248283391622e-01
3761:1.1969199944189884e-01
3762:1.1724773813458159e-01
3763:1.1526843822490238e-01
3764:1.1848644795824548e-01
3765:1.1694231530378454e-01
3766:1.1477038200405570e-01
3767:1.1298298442388383e-01
3768:1.1415557818078392e-01
3769:1.1291358770053558e-01
3770:1.1110680611192410e-01
3771:1.0957800538850009e-01
3772:1.1050462903202779e-01
3773:1.0949879102244274e-01
3774:1.0797862441169973e-01
3775:1.0665375164476926e-01
3776:1.1417544368236433e-01
3777:1.1205515615812099e-01
3778:1.0914915717415537e-01
3779:1.0681075819382216e-01
3780:1.1198656440014952e-01
3781:1.1003766843425358e-01
3782:1.0733680360029597e-01
3783:1.0514208513175786e-01
3784:1.0871218888925242e-01
3785:1.0699587297604170e-01
3786:1.0457495191187020e-01
3787:1.0257757106775160e-01
3788:1.0589127070989095e-01
3789:1.0435955197808540e-01
3790:1.0216195388671323e-01
3791:1.0032289957520843e-01
3792:1.0552378121654150e-01
3793:1.0302627921815102e-01
3794:9.9599530135463063e-02
3795:9.6839126926711649e-02
3796:1.0392709585456485e-01
3797:1.0155691598408180e-01
3798:9.8281731324416671e-02
3799:9.5626836706022650e-02
3800:1.0146191930163029e-01
3801:9.9268278001640342e-02
3802:9.6204938825222477e-02
3803:9.3698889684727671e-02
3804:9.9287279703994591e-02
3805:9.7236465162167329e-02
3806:9.4345711539423990e-02
3807:9.1961884839114216e-02
3808:9.5318436869332931e-02
3809:9.2357777959809331e-02
3810:8.8275794244487601e-02
3811:8.4973119677961312e-02
3812:9.4158782871290619e-02
3813:9.1291032599192537e-02
3814:8.7319357711150250e-02
3815:8.4093274379881316e-02
3816:9.2305608833208944e-02
3817:8.9570807081771620e-02
3818:8.5758940497670300e-02
3819:8.2645423589575079e-02
3820:9.0630361315897037e-02
3821:8.8006026913296911e-02
3822:8.4328277461114834e-02
3823:8.1310309000188555e-02
3824:8.3148480137484201e-02
3825:7.9580653589552089e-02
3826:7.4631137900107045e-02
3827:7.0604480538218203e-02
3828:8.2306799818361698e-02
3829:7.8806604875381242e-02
3830:7.3938089422725325e-02
3831:6.9968334154770453e-02
3832:8.0915649014017862e-02
3833:7.7517057445827847e-02
3834:7.2772495749817284e-02
3835:6.8891649739090829e-02
3836:7.9629065445517247e-02
3837:7.6318172468842982e-02
3838:7.1682061246151715e-02
3839:6.7880164395424297e-02
3840:6.8372197755140307e-02
3841:6.3988925213753073e-02
3842:5.7872624452592440e-02
3843:5.2871084429284822e-02
3844:6.7764708132533102e-02
3845:6.3433290459987593e-02
3846:5.7381510415861613e-02
3847:5.2427393795494368e-02
3848:6.6733478578083219e-02
3849:6.2485453549002090e-02
3850:5.6539630084548875e-02
3851:5.1665065714988634e-02
3852:6.5762776836627485e-02
3853:6.1590266573465169e-02
3854:5.5741702910801459e-02
3855:5.0941142182737154e-02
3856:5.0089520549283749e-02
3857:4.4607001414816466e-02
3858:3.6916861073668372e-02
3859:3.0599507948861192e-02
3860:4.9670577262440667e-02
3861:4.4235143654469476e-02
3862:3.6608498904279328e-02
3863:3.0341838347688277e-02
3864:4.8950329230062956e-02
3865:4.3595594052465998e-02
3866:3.6078765574207999e-02
3867:2.9900373111851040e-02
3868:4.8265875843559174e-02
3869:4.2987185238376087e-02
3870:3.5574382073739447e-02
3871:2.9479924181320130e-02
3872:2.7076551244074033e-02
3873:2.0115453077935764e-02
3874:1.0318974106191611e-02
3875:2.2481072110376102e-03
3876:2.6846856562513483e-02
3877:1.9942212351740818e-02
3878:1.0228207191059886e-02
3879:2.2279007280597593e-03
3880:2.6454225944691441e-02
3881:1.9647649800592269e-02
3882:1.0075693853924489e-02
3883:2.1958976183529249e-03
3884:2.6080278943339183e-02
3885:1.9366805814692325e-02
3886:9.9290045516372740e-03
3887:2.1624346564914380e-03
3888:-3.0091186359793149e-02
3889:-1.4833812716487696e-01
3890:-2.9700427745157754e-01
3891:-4.0574816786396628e-01
3892:-2.7406551660688502e-02
3893:-1.3737913887315512e-01
3894:-2.7530459596173446e-01
3895:-3.7625339441449684e-01
3896:-2.5599178389992643e-02
3897:-1.2490761604165308e-01
3898:-2.4977845262826054e-01
3899:-3.4160646389375399e-01
3900:-2.4601399199227568e-02
3901:-1.1625135668416786e-01
3902:-2.3209167273257020e-01
3903:-3.1768750196693835e-01
3904:-4.6145264122613050e-01
3905:-5.5913922356629819e-01
3906:-6.7236819053330954e-01
3907:-7.4796801017900305e-01
3908:-4.2809775546266676e-01
3909:-5.1951067155988973e-01
3910:-6.2634542014339001e-01
3911:-6.9824677692017989e-01
3912:-3.8898196413336417e-01
3913:-4.7296405460011093e-01
3914:-5.7196085405809016e-01
3915:-6.3922943606903027e-01
3916:-3.6197523665329340e-01
3917:-4.4067234626669421e-01
3918:-5.3389056808104907e-01
3919:-5.9768176398358575e-01
3920:-7.8415577082030319e-01
3921:-8.4341366107348126e-01
3922:-9.0368401714880653e-01
3923:-9.3691372281995455e-01
3924:-7.3284266652591623e-01
3925:-7.8986858475528776e-01
3926:-8.4877360237300070e-01
3927:-8.8218857661944150e-01
3928:-6.7183065768233829e-01
3929:-7.2601918918966601e-01
3930:-7.8299423846501881e-01
3931:-8.1627886815232575e-01
3932:-6.2879610075972736e-01
3933:-6.8089512861289769e-01
3934:-7.3645296126208359e-01
3935:-7.6959418892581744e-01
3936:-9.5008304364892693e-01
3937:-9.6684984027240972e-01
3938:-9.7366099150160801e-01
3939:-9.6771995701436286e-01
3940:-8.9589316883206760e-01
3941:-9.1425927678949903e-01
3942:-9.2434359661048593e-01
3943:-9.2188479423403091e-01
3944:-8.3038599804811053e-01
3945:-8.5032781030612514e-01
3946:-8.6404318021298643e-01
3947:-8.6555491197967838e-01
3948:-7.8394261474675475e-01
3949:-8.0493002367569089e-01
3950:-8.2107443337029618e-01
3951:-8.2516959096209319e-01
3952:-9.6080389653411924e-01
3953:-9.4260365175248639e-01
3954:-9.0954212239794763e-01
3955:-8.7760208368857118e-01
3956:-9.1717889229343375e-01
3957:-9.0357110722144351e-01
3958:-8.7703152335790147e-01
3959:-8.5021793268002066e-01
3960:-8.6336052308817413e-01
3961:-8.5482594854101768e-01
3962:-8.3537520397760889e-01
3963:-8.1420444316049712e-01
3964:-8.2456462247721862e-01
3965:-8.1913734010043127e-01
3966:-8.0398373887313501e-01
3967:-7.8634074879374316e-01
3968:-8.5848780199278940e-01
3969:-8.2037074695728096e-01
3970:-7.6682839693616489e-01
3971:-7.2313396668270158e-01
3972:-8.3378790703471195e-01
3973:-8.0041584577431912e-01
3974:-7.5259405773964638e-01
3975:-7.1304853027405957e-01
3976:-8.0080110208069166e-01
3977:-7.7294836950582335e-01
3978:-7.3201677360836304e-01
3979:-6.9754924939253360e-01
3980:-7.7490836723728684e-01
3981:-7.5080582412058305e-01
3982:-7.1476715141176517e-01
3983:-6.8397915000995357e-01
3984:-6.9905124789220430e-01
3985:-6.5361999618631172e-01
3986:-5.9430570863683163e-01
3987:-5.4898800502803291e-01
3988:-6.9112418191295610e-01
3989:-6.4954870292193512e-01
3990:-5.9482687355496533e-01
3991:-5.5266319190213953e-01
3992:-6.7826336964376877e-01
3993:-6.4140453726762137e-01
3994:-5.9233907168656008e-01
3995:-5.5411619343084895e-01
3996:-6.6660410615231547e-01
3997:-6.3315608945298196e-01
3998:-5.8819446687015575e-01
3999:-5.5286131927984306e-01
4000:-5.2498087902591439e-01
4001:-4.8095693373422355e-01
4002:-4.2570161477174057e-01
4003:-3.8504711378272244e-01
4004:-5.3019853623476243e-01
4005:-4.8881125157189870e-01
4006:-4.3650447610712112e-01
4007:-3.9774487975153300e-01
4008:-5.3360639108075902e-01
4009:-4.9558923450066772e-01
4010:-4.4710586238761701e-01
4011:-4.1085204808507231e-01
4012:-5.3380173842782441e-01
4013:-4.9830535634940804e-01
4014:-4.5272233782188687e-01
4015:-4.1840497478425059e-01
4016:-3.6400935627532072e-01
4017:-3.2605319215991202e-01
4018:-2.7953210798482370e-01
4019:-2.4612633727112943e-01
4020:-3.7759128640776612e-01
4021:-3.4107011100510937e-01
4022:-2.9601081009895008e-01
4023:-2.6343662677194113e-01
4024:-3.9188807262312753e-01
4025:-3.5733874334691734e-01
4026:-3.1436706522814312e-01
4027:-2.8304366129354414e-01
4028:-4.0037497988810250e-01
4029:-3.6740233305676806e-01
4030:-3.2615302414653286e-01
4031:-2.9590185232142424e-01
4032:-2.2911255779454456e-01
4033:-1.9874313915888789e-01
4034:-1.6211520479703620e-01
4035:-1.3626545302143772e-01
4036:-2.4677318787191546e-01
4037:-2.1692598267795909e-01
4038:-1.8072700176836806e-01
4039:-1.5501815568842711e-01
4040:-2.6693140514173297e-01
4041:-2.3793946374668523e-01
4042:-2.0252480070759046e-01
4043:-1.7717513567405027e-01
4044:-2.8027661192290754e-01
4045:-2.5206026968219009e-01
4046:-2.1740388077982689e-01
4047:-1.9245404480740982e-01
4048:-1.2325491441120007e-01
4049:-1.0021778138280397e-01
4050:-7.2771715858630279e-02
4051:-5.3659830757359452e-02
4052:-1.4201919393659415e-01
4053:-1.1891353673166530e-01
4054:-9.1220330089369028e-02
4055:-7.1810947134203842e-02
4056:-1.6428718229871483e-01
4057:-1.4127472706355723e-01
4058:-1.1349722479192120e-01
4059:-9.3877746496878398e-02
4060:-1.7971997148119095e-01
4061:-1.5691014273537846e-01
4062:-1.2923906169020491e-01
4063:-1.0958615995033567e-01
4064:-4.4129303488402986e-02
4065:-2.7361908330042803e-02
4066:-7.5885436655131347e-03
4067:6.0182554603887941e-03
4068:-6.2088585525831755e-02
4069:-4.4922775671265895e-02
4070:-2.4560608949563460e-02
4071:-1.0451556024257505e-02
4072:-8.3996864956510611e-02
4073:-6.6473422466341678e-02
4074:-4.5537055959748572e-02
4075:-3.0910517026969571e-02
4076:-9.9649428547233868e-02
4077:-8.1968407294610413e-02
4078:-6.0732701935126490e-02
4079:-4.5810754259898570e-02
4080:1.2745256985756279e-02
4081:2.4508951933649006e-02
4082:3.8247250250598663e-02
4083:4.7593180581588873e-02
4084:-3.4402450336894672e-03
4085:8.8721161019168181e-03
4086:2.3349272952384616e-02
4087:3.3275826024005785e-02
4088:-2.3598623471437607e-02
4089:-1.0697140007636949e-02
4090:4.5899467051803778e-03
4091:1.5165424280734377e-02
4092:-3.8320603347988244e-02
4093:-2.5061433572251195e-02
4094:-9.2673766196038655e-03
4095:1.7254996834286651e-03
4096:5.2174307613425994e-02
4097:6.0131288060154435e-02
4098:6.9317140452376372e-02
4099:7.5477180278998190e-02
4100:3.8169939663602673e-02
4101:4.6711021178440018e-02
4102:5.6651059266447784e-02
4103:6.3383380424602592e-02
4104:2.0413648508297300e-02
4105:2.9622461668388739e-02
4106:4.0436875378095524e-02
4107:4.7841035994413111e-02
4108:7.2052786395244437e-03
4109:1.6856298000870996e-02
4110:2.8259367867936612e-02
4111:3.6122218240172456e-02
4112:7.8463113221625552e-02
4113:8.3601843545054511e-02
4114:8.9439380975362553e-02
4115:9.3273852016481751e-02
4116:6.6671985046819218e-02
4117:7.2368258874164870e-02
4118:7.8911649531691289e-02
4119:8.3270695406853570e-02
4120:5.1487551410538616e-02
4121:5.7846421472863424e-02
4122:6.5234907137227044e-02
4123:7.0226870536393163e-02
4124:4.0015030112938700e-02
4125:4.6832621653510674e-02
4126:5.4811457097185913e-02
4127:6.0249633924005938e-02
4128:9.5101478112044724e-02
4129:9.8197178504293964e-02
4130:1.0161207102032917e-01
4131:1.0376724467095635e-01
4132:8.5371901386954635e-02
4133:8.8966716144487562e-02
4134:9.3005212534141651e-02
4135:9.5618139733145535e-02
4136:7.2659889709842732e-02
4137:7.6862839995210153e-02
4138:8.1666239652789185e-02
4139:8.4844304918139768e-02
4140:6.2918017846737229e-02
4141:6.7554474731117808e-02
4142:7.2906963002165717e-02
4143:7.6493428911997327e-02
4144:1.0475948459537740e-01
4145:1.0638170656560876e-01
4146:1.0804875949813462e-01
4147:1.0899178186380466e-01
4148:9.6847331846500448e-02
4149:9.8899497681058560e-02
4150:1.0109920622413275e-01
4151:1.0242963712341116e-01
4152:8.6367236373367712e-02
4153:8.8954037206162948e-02
4154:9.1819218549226714e-02
4155:9.3636056370037288e-02
4156:7.8229513966769262e-02
4157:8.1205592792493536e-02
4158:8.4557825103501683e-02
4159:8.6732579624007919e-02
4160:1.0938056869411736e-01
4161:1.0993427659351040e-01
4162:1.1032476270311918e-01
4163:1.1037498792786080e-01
4164:1.0301769641269685e-01
4165:1.0393141321185589e-01
4166:1.0476511008090493e-01
4167:1.0513561671308752e-01
4168:9.4475155397543684e-02
4169:9.5843738600158213e-02
4170:9.7239916389535844e-02
4171:9.8018750861004186e-02
4172:8.7757074758910966e-02
4173:8.9462593082336103e-02
4174:9.1277283456544858e-02
4175:9.2361310894320384e-02
4176:1.1031639304724039e-01
4177:1.1007128711556548e-01
4178:1.0949358891872651e-01
4179:1.0885530412268939e-01
4180:1.0524107061632641e-01
4181:1.0529140009190512e-01
4182:1.0507561769721580e-01
4183:1.0469744514078717e-01
4184:9.8333984859980184e-02
4185:9.8763055243875242e-02
4186:9.9013041345374184e-02
4187:9.8971007934524610e-02
4188:9.2833806858346413e-02
4189:9.3547530338832716e-02
4190:9.4148968777241646e-02
4191:9.4361641656858675e-02
4192:1.0844728484751150e-01
4193:1.0756858962723310e-01
4194:1.0620315541732545e-01
4195:1.0498870367765277e-01
4196:1.0442215383476634e-01
4197:1.0378188356431282e-01
4198:1.0270741455377742e-01
4199:1.0170122403127985e-01
4200:9.8867729931301898e-02
4201:9.8537255525425346e-02
4202:9.7842386132782552e-02
4203:9.7109081122653332e-02
4204:9.4389080906372450e-02
4205:9.4294626628676811e-02
4206:9.3890098567178268e-02
4207:9.3366387819257851e-02
4208:1.0428229360759828e-01
4209:1.0285093407400706e-01
4210:1.0077513112860997e-01
4211:9.9022727054685636e-02
4212:1.0110078848017917e-01
4213:9.9859477282877834e-02
4214:9.8015034921818955e-02
4215:9.6427796960646267e-02
4216:9.6647924682996184e-02
4217:9.5657093588354808e-02
4218:9.4118956427102884e-02
4219:9.2751467094189299e-02
4220:9.3012516343088242e-02
4221:9.2215150387012709e-02
4222:9.0914616768401790e-02
4223:8.9718386008494133e-02
4224:9.8031018538943679e-02
4225:9.6058767679866375e-02
4226:9.3263342206247365e-02
4227:9.0947341704776044e-02
4228:9.5519995332798438e-02
4229:9.3698237253102612e-02
4230:9.1086154447482512e-02
4231:8.8901188002203591e-02
4232:9.1955693159117335e-02
4233:9.0335563361092344e-02
4234:8.7970502577913903e-02
4235:8.5963175004744707e-02
4236:8.9010207482622630e-02
4237:8.7548238781086141e-02
4238:8.5377943446074134e-02
4239:8.3511460488795097e-02
4240:8.9650206822088518e-02
4241:8.7087597861403979e-02
4242:8.3485215763234297e-02
4243:8.0521283536477833e-02
4244:8.7670704088750440e-02
4245:8.5228124237540059e-02
4246:8.1773084793444334e-02
4247:7.8915417181687361e-02
4248:8.4823448028272991e-02
4249:8.2545039609383364e-02
4250:7.9292980021816811e-02
4251:7.6582848376618093e-02
4252:8.2443977401891827e-02
4253:8.0296768887687442e-02
4254:7.7207944824440433e-02
4255:7.4617262615182034e-02
4256:7.8867612677185353e-02
4257:7.5606772894009772e-02
4258:7.1033008101648795e-02
4259:6.7276850166298835e-02
4260:7.7316197870486617e-02
4261:7.4154618674112216e-02
4262:6.9705305503217505e-02
4263:6.6041079060851299e-02
4264:7.5059645604170444e-02
4265:7.2037386137362894e-02
4266:6.7764212319989178e-02
4267:6.4231226893304641e-02
4268:7.3155894539970096e-02
4269:7.0247475134448914e-02
4270:6.6119222877606104e-02
4271:6.2694980872749689e-02
4272:6.5183216372261668e-02
4273:6.1054892438899278e-02
4274:5.5263622074010428e-02
4275:5.0506937697259439e-02
4276:6.3995411961069226e-02
4277:5.9956681581066519e-02
4278:5.4282266210535488e-02
4279:4.9615571765332149e-02
4280:6.2254433965000404e-02
4281:5.8344993558880988e-02
4282:5.2840408058856293e-02
4283:4.8305370076194322e-02
4284:6.0775521682988110e-02
4285:5.6974132286707245e-02
4286:5.1612263820705780e-02
4287:4.7188430856249186e-02
4288:4.7855165386344177e-02
4289:4.2621836473924132e-02
4290:3.5271234654996958e-02
4291:2.9227052435698595e-02
4292:4.7012147818407124e-02
4293:4.1872349431053807e-02
4294:3.4650278711391591e-02
4295:2.8710148635297972e-02
4296:4.5772961349964038e-02
4297:4.0770848521010324e-02
4298:3.3738456429704640e-02
4299:2.7952154431857806e-02
4300:4.4716187477321777e-02
4301:3.9830913035875430e-02
4302:3.2959765796203896e-02
4303:2.7304398047933835e-02
4304:2.5855278503586248e-02
4305:1.9197526180920736e-02
4306:9.8398128044057918e-03
4307:2.1406690869392158e-03
4308:2.5396091964232478e-02
4309:1.8853607631992366e-02
4310:9.6612538694504368e-03
4311:2.1010546424380860e-03
4312:2.4723480989278700e-02
4313:1.8351296387733987e-02
4314:9.4026841737976253e-03
4315:2.0468080276989744e-03
4316:2.4148432478401524e-02
4317:1.7921108688378241e-02
4318:9.1794364024540154e-03
4319:1.9967046379218215e-03
4320:-2.3937454541568415e-02
4321:-1.1182109801694980e-01
4322:-2.2326259604457557e-01
4323:-3.0578816863401220e-01
4324:-2.2379018995409054e-02
4325:-1.0396878826286263e-01
4326:-2.0786846998670894e-01
4327:-2.8500725445012198e-01
4328:-2.0091521520866441e-02
4329:-9.4733562286227924e-02
4330:-1.8994576325019896e-01
4331:-2.6070643835649071e-01
4332:-1.8457655281528141e-02
4333:-8.8485331266930894e-02
4334:-1.7771286558038540e-01
4335:-2.4402033577689980e-01
4336:-3.4852130597368330e-01
4337:-4.2450446755851412e-01
4338:-5.1469183275747987e-01
4339:-5.7664257714962430e-01
4340:-3.2498214464830827e-01
4341:-3.9615951439481401e-01
4342:-4.8098050156699512e-01
4343:-5.3964307846205761e-01
4344:-2.9739399998889637e-01
4345:-3.6289048929820977e-01
4346:-4.4138887396249182e-01
4347:-4.9611098015739236e-01
4348:-2.7842489701705048e-01
4349:-3.4001864988736319e-01
4350:-4.1418679507878048e-01
4351:-4.6614982275881067e-01
4352:-6.0697499652087228e-01
4353:-6.5799655037070215e-01
4354:-7.1286162681672149e-01
4355:-7.4597019264327380e-01
4356:-5.6855662228254900e-01
4357:-6.1758108656796951e-01
4358:-6.7107578392353717e-01
4359:-7.0401226774034487e-01
4360:-5.2326964316901536e-01
4361:-5.6970879028546750e-01
4362:-6.2119031460199903e-01
4363:-6.5359050379112316e-01
4364:-4.9203218466772103e-01
4365:-5.3648816272372923e-01
4366:-5.8621564039372476e-01
4367:-6.1792413824219605e-01
4368:-7.6046361910440208e-01
4369:-7.8200600855524260e-01
4370:-7.9934834483177808e-01
4371:-8.0465049695300572e-01
4372:-7.1870287637488706e-01
4373:-7.4108584753945017e-01
4374:-7.6031849246449812e-01
4375:-7.6756649790060349e-01
4376:-6.6833637979045968e-01
4377:-6.9134907042367810e-01
4378:-7.1233427158361817e-01
4379:-7.2156448785077298e-01
4380:-6.3253270177541776e-01
4381:-6.5564887435778363e-01
4382:-6.7745863797227146e-01
4383:-6.8784626554602535e-01
4384:-8.0476251176275460e-01
4385:-8.0070588063331261e-01
4386:-7.8745019693709517e-01
4387:-7.7142165665665852e-01
4388:-7.6884995500597186e-01
4389:-7.6709179893327684e-01
4390:-7.5711088784228320e-01
4391:-7.4390367786243472e-01
4392:-7.2410231985698970e-01
4393:-7.2494882294054952e-01
4394:-7.1885694628886421e-01
4395:-7.0902577309831105e-01
4396:-6.9118329318926319e-01
4397:-6.9380433492208671e-01
4398:-6.9047851259700865e-01
4399:-6.8304240261618321e-01
4400:-7.6092556401535860e-01
4401:-7.3866367249567944e-01
4402:-7.0510375589640062e-01
4403:-6.7620717896165916e-01
4404:-7.3504478462706302e-01
4405:-7.1598846514626269e-01
4406:-6.8673867272240530e-01
4407:-6.6114403428479329e-01
4408:-7.0210340512561265e-01
4409:-6.8677972575629942e-01
4410:-6.6249780646871581e-01
4411:-6.4072697072292040e-01
4412:-6.7746697159652414e-01
4413:-6.6468704676660406e-01
4414:-6.4374481970772079e-01
4415:-6.2455897283413342e-01
4416:-6.5981499257407938e-01
4417:-6.2811885458148620e-01
4418:-5.8526704509269245e-01
4419:-5.5142736634114764e-01
4420:-6.4647786214854208e-01
4421:-6.1788083046454045e-01
4422:-5.7880155222681373e-01
4423:-5.4765956899633861e-01
4424:-6.2808260622451162e-01
4425:-6.0316482225438006e-01
4426:-5.6864636223976284e-01
4427:-5.4081668766307245e-01
4428:-6.1330075800426709e-01
4429:-5.9094277126284855e-01
4430:-5.5965660089841573e-01
4431:-5.3420844347484531e-01
4432:-5.3312194352237774e-01
4433:-4.9894327417492740e-01
4434:-4.5489004398963506e-01
4435:-4.2160580738829573e-01
4436:-5.3072467658415734e-01
4437:-4.9895068196002407e-01
4438:-4.5770730495668671e-01
4439:-4.2633446074217995e-01
4440:-5.2557867493428900e-01
4441:-4.9680190449602707e-01
4442:-4.5909765094642624e-01
4443:-4.3015978078599731e-01
4444:-5.2019925675130507e-01
4445:-4.9360935928579697e-01
4446:-4.5851865706317385e-01
4447:-4.3140223020874879e-01
4448:-4.0407881846937027e-01
4449:-3.7196424155708463e-01
4450:-3.3166859821063677e-01
4451:-3.0202313574014628e-01
4452:-4.0974300488595455e-01
4453:-3.7923323599688252e-01
4454:-3.4074056732965069e-01
4455:-3.1225796816282908e-01
4456:-4.1476961257699424e-01
4457:-3.8633507819424279e-01
4458:-3.5020620318453266e-01
4459:-3.2327864779286614e-01
4460:-4.1691855003181544e-01
4461:-3.9005981581457705e-01
4462:-3.5574715084051117e-01
4463:-3.3003442501367575e-01
4464:-2.8667720702985150e-01
4465:-2.5891155196209886e-01
4466:-2.2470925913343859e-01
4467:-2.0001288847250456e-01
4468:-2.9745572587946240e-01
4469:-2.7057932746633173e-01
4470:-2.3729657352461736e-01
4471:-2.1313371611572204e-01
4472:-3.0921649471272439e-01
4473:-2.8357257735683683e-01
4474:-2.5160639462870976e-01
4475:-2.2824184600995778e-01
4476:-3.1655896327439020e-01
4477:-2.9190725409039986e-01
4478:-2.6102964301521697e-01
4479:-2.3834769082977147e-01
4480:-1.8738334085721359e-01
4481:-1.6472443969030456e-01
4482:-1.3716603237354608e-01
4483:-1.1753709558317720e-01
4484:-2.0073264182331252e-01
4485:-1.7841763135472868e-01
4486:-1.5114981822796797e-01
4487:-1.3162697183114691e-01
4488:-2.1619620256773547e-01
4489:-1.9443768303161374e-01
4490:-1.6769070129089039e-01
4491:-1.4841703732667938e-01
4492:-2.2661440704351751e-01
4493:-2.0535796813618698e-01
4494:-1.7911049086492609e-01
4495:-1.6010708369185650e-01
4496:-1.0759212955805894e-01
4497:-8.9865654107682380e-02
4498:-6.8517590441369583e-02
4499:-5.3472596277903787e-02
4500:-1.2169938479767363e-01
4501:-1.0394909843962427e-01
4502:-8.2469404328765927e-02
4503:-6.7252863803614740e-02
4504:-1.3857224625978745e-01
4505:-1.2090416639890206e-01
4506:-9.9399431282681305e-02
4507:-8.4069167657405838e-02
4508:-1.5036906857158860e-01
4509:-1.3284566912532486e-01
4510:-1.1142746231155808e-01
4511:-9.6089267579943072e-02
4512:-4.5905293857637045e-02
4513:-3.2487606501220109e-02
4514:-1.6462215903237338e-02
4515:-5.2741542202895250e-03
4516:-5.9571687429392638e-02
4517:-4.5911866184578307e-02
4518:-2.9519470163466469e-02
4519:-1.8013014873389067e-02
4520:-7.6296700242969237e-02
4521:-6.2423771656338944e-02
4522:-4.5678009118353929e-02
4523:-3.3846498181121849e-02
4524:-8.8288014474287260e-02
4525:-7.4325969093604005e-02
4526:-5.7400690944399743e-02
4527:-4.5386446589620703e-02
4528:3.1544094119637366e-04
4529:1.0178267430362816e-02
4530:2.1866804538803023e-02
4531:2.9954387512090438e-02
4532:-1.2241718948153835e-02
4533:-2.0252951027220165e-03
4534:1.0145376268632331e-02
4535:1.8616497380238805e-02
4536:-2.7884471781525987e-02
4537:-1.7290298740952101e-02
4538:-4.5928122494583836e-03
4539:4.3058101202023960e-03
4540:-3.9312513216391572e-02
4541:-2.8490645382726276e-02
4542:-1.5464881373975760e-02
4543:-6.2923415597914744e-03
4544:3.3968560191057956e-02
4545:4.1013262311894963e-02
4546:4.9286450391781013e-02
4547:5.4948691286445528e-02
4548:2.2839110668019125e-02
4549:3.0276055505943748e-02
4550:3.9061607633687177e-02
4551:4.5116711449379142e-02
4552:8.7635457616933640e-03
4553:1.6647312295479180e-02
4554:2.6024375872438568e-02
4555:3.2538522792300413e-02
4556:-1.6815175023854572e-03
4557:6.4967540906028173e-03
4558:1.6269979747770388e-02
4559:2.3095872620670404e-02
4560:5.7735806213895742e-02
4561:6.2591703800879431e-02
4562:6.8223474423232955e-02
4563:7.2018601523200249e-02
4564:4.8112922293796170e-02
4565:5.3356457138100499e-02
4566:5.9483753389744612e-02
4567:6.3650746503144007e-02
4568:3.5780798996514221e-02
4569:4.1482875957141785e-02
4570:4.8200758563784037e-02
4571:5.2814301750004559e-02
4572:2.6506605683671927e-02
4573:3.2524566370836193e-02
4574:3.9652986401123559e-02
4575:4.4579713029495253e-02
4576:7.3863895159181542e-02
4577:7.7039908402992754e-02
4578:8.0643226957833894e-02
4579:8.3003207405147536e-02
4580:6.5691236236890563e-02
4581:6.9225552392431555e-02
4582:7.3280613178639833e-02
4583:7.5975149244371029e-02
4584:5.5090350634335490e-02
4585:5.9058913514489407e-02
4586:6.3664886534096188e-02
4587:6.6769917388705705e-02
4588:4.7021918995571274e-02
4589:5.1298230829487812e-02
4590:5.6297258142590623e-02
4591:5.9697050494087467e-02
4592:8.4123893045763440e-02
4593:8.6004579905587172e-02
4594:8.8037497144601476e-02
4595:8.9281138895781056e-02
4596:7.7270012400986451e-02
4597:7.9468495967526490e-02
4598:8.1898468451317666e-02
4599:8.3433391358776088e-02
4600:6.8279323835440414e-02
4601:7.0870456231370796e-02
4602:7.3793271984054068e-02
4603:7.5691475787449655e-02
4604:6.1361136659684283e-02
4605:6.4236311455831099e-02
4606:6.7517456280881863e-02
4607:6.9681158670881066e-02
4608:8.9836043589567718e-02
4609:9.0699193060118075e-02
4610:9.1485622967907645e-02
4611:9.1832745694262571e-02
4612:8.4138988800952261e-02
4613:8.5275879496773829e-02
4614:8.6402154302402806e-02
4615:8.6996990118232490e-02
4616:7.6585619604464250e-02
4617:7.8065987503092057e-02
4618:7.9620515384269244e-02
4619:8.0528880733305941e-02
4620:7.0713574441051794e-02
4621:7.2446577459994541e-02
4622:7.4317483167385651e-02
4623:7.5458506975302611e-02
4624:9.1929319240497492e-02
4625:9.1959900448466012e-02
4626:9.1709580434752233e-02
4627:9.1297492617319662e-02
4628:8.7221186379952798e-02
4629:8.7482969964192775e-02
4630:8.7518532631174345e-02
4631:8.7313949099275423e-02
4632:8.0915082757407275e-02
4633:8.1471107812349411e-02
4634:8.1871939976186137e-02
4635:8.1933591055590629e-02
4636:7.5965282051027691e-02
4637:7.6740871829075324e-02
4638:7.7415373111953192e-02
4639:7.7677339706782020e-02
4640:9.1000864018807137e-02
4641:9.0306904884127723e-02
4642:8.9133723801122167e-02
4643:8.8029560976100846e-02
4644:8.7123936248858919e-02
4645:8.6622923190041848e-02
4646:8.5688046534530896e-02
4647:8.4756688376038530e-02
4648:8.1880763146690919e-02
4649:8.1628689435215451e-02
4650:8.1002572083777272e-02
4651:8.0296110523910072e-02
4652:7.7728028628221840e-02
4653:7.7664300870656122e-02
4654:7.7272754608971622e-02
4655:7.6737893172608387e-02
4656:8.7368572302239114e-02
4657:8.5991980903007623e-02
4658:8.3927159585455727e-02
4659:8.2137214398591230e-02
4660:8.4184459454205302e-02
4661:8.2968783913110467e-02
4662:8.1103401143727924e-02
4663:7.9458683849682271e-02
4664:7.9839755090352668e-02
4665:7.8834777729793942e-02
4666:7.7231760791662524e-02
4667:7.5779050171741733e-02
4668:7.6370214166729275e-02
4669:7.5526943220490111e-02
4670:7.4126188678313595e-02
4671:7.2822198926591877e-02
4672:8.1109085684086396e-02
4673:7.9033519642173769e-02
4674:7.6034170217780833e-02
4675:7.3509226571235362e-02
4676:7.8505410906904258e-02
4677:7.6566446830742221e-02
4678:7.3738350127182037e-02
4679:7.1339732903533709e-02
4680:7.4925088510261612e-02
4681:7.3167975227704102e-02
4682:7.0569072439290587e-02
4683:6.8340461013846207e-02
4684:7.2045410123057249e-02
4685:7.0430055586303983e-02
4686:6.8010686136374426e-02
4687:6.5915912666105872e-02
4688:7.2081983842957859e-02
4689:6.9236556555787893e-02
4690:6.5188816283163767e-02
4691:6.1825231855929558e-02
4692:6.9978247101283086e-02
4693:6.7254519712994593e-02
4694:6.3362942484712886e-02
4695:6.0117475832777718e-02
4696:6.7067802270435864e-02
4697:6.4509059553429268e-02
4698:6.0830317660831988e-02
4699:5.7746685280639476e-02
4700:6.4713419602490094e-02
4701:6.2285411903225771e-02
4702:5.8776110553703111e-02
4703:5.5821907250926492e-02
4704:5.9937838399134510e-02
4705:5.6197013440966601e-02
4706:5.0915386185276745e-02
4707:4.6554253767267642e-02
4708:5.8292683887038226e-02
4709:5.4670356042573337e-02
4710:4.9546198440731347e-02
4711:4.5308450776811345e-02
4712:5.6007956420331143e-02
4713:5.2549000885927052e-02
4714:4.7642799742479688e-02
4715:4.3576437174427753e-02
4716:5.4152210190184374e-02
4717:5.0824611868427925e-02
4718:4.6094230903623634e-02
4719:4.2166528615584779e-02
4720:4.4115989542873130e-02
4721:3.9296757531453383e-02
4722:3.2516837813443861e-02
4723:2.6935597458352535e-02
4724:4.2937159447143568e-02
4725:3.8248214475498317e-02
4726:3.1648445429852248e-02
4727:2.6213690608113138e-02
4728:4.1298364944704742e-02
4729:3.6790969445807876e-02
4730:3.0442540576609948e-02
4731:2.5212333631686748e-02
4732:3.9964004338338091e-02
4733:3.5603871162676236e-02
4734:2.9459505005614020e-02
4735:2.4395477764205899e-02
4736:2.3820803887860037e-02
4737:1.7675457624965526e-02
4738:9.0507659972229853e-03
4739:1.9658047817432797e-03
4740:2.3180278976321956e-02
4741:1.7196891478577378e-02
4742:8.8031024800054730e-03
4743:1.9109437364315982e-03
4744:2.2292595172657269e-02
4745:1.6535273719729373e-02
4746:8.4633875593801179e-03
4747:1.8396761731633254e-03
4748:2.1568109259821874e-02
4749:1.5994367502064542e-02
4750:8.1835918445395030e-03
4751:1.7773844251832858e-03
4752:-1.7720512134246618e-02
4753:-8.5457145648853677e-02
4754:-1.7167185865691134e-01
4755:-2.3574302055423882e-01
4756:-1.6575391931254485e-02
4757:-8.0162971364934443e-02
4758:-1.6101788589272698e-01
4759:-2.2115495611212402e-01
4760:-1.5389779805924410e-02
4761:-7.3874963833020765e-02
4762:-1.4831888672122207e-01
4763:-2.0380890960187667e-01
4764:-1.4582919567701675e-02
4765:-6.9432948995849286e-02
4766:-1.3941345158782412e-01
4767:-1.9168327696069054e-01
4768:-2.6901361406825991e-01
4769:-3.2868335703089357e-01
4770:-4.0071795472580890e-01
4771:-4.5129770536666586e-01
4772:-2.5243674012716777e-01
4773:-3.0870636006092461e-01
4774:-3.7692568137504351e-01
4775:-4.2500886583040998e-01
4776:-2.3273694228193434e-01
4777:-2.8492110556377120e-01
4778:-3.4846831846835835e-01
4779:-3.9346640513878262e-01
4780:-2.1896512296092271e-01
4781:-2.6824448962434411e-01
4782:-3.2841175495579916e-01
4783:-3.7116846412922982e-01
4784:-4.7652280204887743e-01
4785:-5.1992025624269544e-01
4786:-5.6863764388588567e-01
4787:-5.9987641218567023e-01
4788:-4.4904375876929842e-01
4789:-4.9052202789167954e-01
4790:-5.3739351170604654e-01
4791:-5.6774932863893446e-01
4792:-4.1603429722172530e-01
4793:-4.5516210962800635e-01
4794:-4.9978012445435743e-01
4795:-5.2904063625867814e-01
4796:-3.9267871162488505e-01
4797:-4.3012893776554845e-01
4798:-4.7315429428934574e-01
4799:-5.0163671024443079e-01
4800:-6.1434673115686322e-01
4801:-6.3738817315811203e-01
4802:-6.5947266971109653e-01
4803:-6.7037138458938872e-01
4804:-5.8194326687248699e-01
4805:-6.0479432058514515e-01
4806:-6.2728584816742938e-01
4807:-6.3901795376732617e-01
4808:-5.4287547954581172e-01
4809:-5.6544115949810247e-01
4810:-5.8831284301315900e-01
4811:-6.0091082771307158e-01
4812:-5.1520882276467994e-01
4813:-5.3754685970559068e-01
4814:-5.6061484224549685e-01
4815:-5.7371888498461077e-01
4816:-6.7409035058107214e-01
4817:-6.7759681060969512e-01
4818:-6.7568154441631523e-01
4819:-6.6945863567269648e-01
4820:-6.4336852054589877e-01
4821:-6.4834181900051824e-01
4822:-6.4877749750676417e-01
4823:-6.4459699831488038e-01
4824:-6.0592169491784142e-01
4825:-6.1242119807670692e-01
4826:-6.1533101805518786e-01
4827:-6.1335762261606763e-01
4828:-5.7911580549668396e-01
4829:-5.8650172759191987e-01
4830:-5.9087901509544849e-01
4831:-5.9027229142871651e-01
4832:-6.6455482864449600e-01
4833:-6.5302584430284905e-01
4834:-6.3371152260228358e-01
4835:-6.1579189767011155e-01
4836:-6.4083444488643981e-01
4837:-6.3145850028710071e-01
4838:-6.1499099106092303e-01
4839:-5.9930974418911265e-01
4840:-6.1085955647174706e-01
4841:-6.0393653169537476e-01
4842:-5.9081218498517540e-01
4843:-5.7780342198167356e-01
4844:-5.8858676168367385e-01
4845:-5.8329516761319122e-01
4846:-5.7246989683859439e-01
4847:-5.6132744440717508e-01
4848:-6.0521975401541095e-01
4849:-5.8414073394472421e-01
4850:-5.5448759234046663e-01
4851:-5.3025235843974305e-01
4852:-5.8995513945092581e-01
4853:-5.7114563800505513e-01
4854:-5.4439106631633349e-01
4855:-5.2231173650188190e-01
4856:-5.6990758822347154e-01
4857:-5.5381458360031421e-01
4858:-5.3053090971691341e-01
4859:-5.1104174829748550e-01
4860:-5.5445200499307867e-01
4861:-5.4025934508237794e-01
4862:-5.1941130623152421e-01
4863:-5.0175191265682861e-01
4864:-5.1687140013688171e-01
4865:-4.9140566040499567e-01
4866:-4.5767050712639068e-01
4867:-4.3150777316649730e-01
4868:-5.1004954556833848e-01
4869:-4.8659558154997851e-01
4870:-4.5530678943859926e-01
4871:-4.3088136197236226e-01
4872:-5.0012930593862703e-01
4873:-4.7911917335964055e-01
4874:-4.5083576138187892e-01
4875:-4.2857089537857745e-01
4876:-4.9179915990636563e-01
4877:-4.7253732863386005e-01
4878:-4.4642400374980196e-01
4879:-4.2573439224428755e-01
4880:-4.1750173097387322e-01
4881:-3.9147641598795657e-01
4882:-3.5813078195886761e-01
4883:-3.3307086800813457e-01
4884:-4.1775113236049488e-01
4885:-3.9326006066681113e-01
4886:-3.6170534586719338e-01
4887:-3.3786265801151016e-01
4888:-4.1653916276945063e-01
4889:-3.9398460850316142e-01
4890:-3.6471237885088559e-01
4891:-3.4243753339648197e-01
4892:-4.1450894752034040e-01
4893:-3.9338541784455294e-01
4894:-3.6581799633420703e-01
4895:-3.4472774710866605e-01
4896:-3.1991319488365799e-01
4897:-2.9580369961886910e-01
4898:-2.6552994012116493e-01
4899:-2.4323354139728326e-01
4900:-3.2530051451224301e-01
4901:-3.0221268276135299e-01
4902:-2.7308842444911735e-01
4903:-2.5153620992036424e-01
4904:-3.3064824531570902e-01
4905:-3.0889590244078746e-01
4906:-2.8129449581857180e-01
4907:-2.6074609474421617e-01
4908:-3.3352707070648713e-01
4909:-3.1279859611030808e-01
4910:-2.8637859526564169e-01
4911:-2.6662107190779827e-01
4912:-2.3167920598920858e-01
4913:-2.1071424888195150e-01
4914:-1.8476524810513287e-01
4915:-1.6593174011191572e-01
4916:-2.4033143373568261e-01
4917:-2.1994261438125373e-01
4918:-1.9459723128124906e-01
4919:-1.7611938909346375e-01
4920:-2.5002014299804975e-01
4921:-2.3043265255120876e-01
4922:-2.0595087453177990e-01
4923:-1.8800239323259865e-01
4924:-2.5627725497468601e-01
4925:-2.3733757725831522e-01
4926:-2.1357016824159508e-01
4927:-1.9607294279065593e-01
4928:-1.5626487024016911e-01
4929:-1.3884544717122646e-01
4930:-1.1750815638928423e-01
4931:-1.0219184299378985e-01
4932:-1.6660661242916766e-01
4933:-1.4942122888507717e-01
4934:-1.2828689383911404e-01
4935:-1.1305109901441682e-01
4936:-1.7872734148562633e-01
4937:-1.6191698323362164e-01
4938:-1.4113974746775274e-01
4939:-1.2608102855337011e-01
4940:-1.8700578157217665e-01
4941:-1.7053196623858194e-01
4942:-1.5009412857649049e-01
4943:-1.3522289317682695e-01
4944:-9.4388839314728079e-02
4945:-8.0403947433584436e-02
4946:-6.3413648236097908e-02
4947:-5.1324547335290321e-02
4948:-1.0526592766868791e-01
4949:-9.1277594091595624e-02
4950:-7.4216039950958546e-02
4951:-6.2024633594134938e-02
4952:-1.1835797029517901e-01
4953:-1.0443796762319588e-01
4954:-8.7377538316307402e-02
4955:-7.5123528726802113e-02
4956:-1.2757552320119023e-01
4957:-1.1376057163594297e-01
4958:-9.6769066104985396e-02
4959:-8.4518315949195094e-02
4960:-4.5202679490867891e-02
4961:-3.4280578862650124e-02
4962:-2.1105628356991469e-02
4963:-1.1805442363227977e-02
4964:-5.5832790726272945e-02
4965:-4.4758715908500335e-02
4966:-3.1348240806961830e-02
4967:-2.1840628476165282e-02
4968:-6.8877498902936332e-02
4969:-5.7672418318373456e-02
4970:-4.4037877667294584e-02
4971:-3.4320205934279174e-02
4972:-7.8257577827179250e-02
4973:-6.7000877848797810e-02
4974:-5.3255338036361864e-02
4975:-4.3421186448883563e-02
4976:-7.1222890056648353e-03
4977:1.1964940099141327e-03
4978:1.1161089485744386e-02
4979:1.8139158389450041e-02
4980:-1.7038203642075200e-02
4981:-8.4854654357087514e-03
4982:1.8017420691978068e-03
4983:9.0391465181888005e-03
4984:-2.9393379128107855e-02
4985:-2.0591873196664511e-02
4986:-9.9532402340001946e-03
4987:-2.4274701109928240e-03
4988:-3.8422062520973112e-02
4989:-2.9471610465896254e-02
4990:-1.8614949166107963e-02
4991:-1.0905069858859848e-02
4992:2.1632613723356803e-02
4993:2.7806452683832947e-02
4994:3.5138888459675451e-02
4995:4.0222311001256089e-02
4996:1.2674486399644630e-02
4997:1.9117133249618938e-02
4998:2.6804038793488989e-02
4999:3.2161611415953452e-02
5000:1.3675357506840930e-03
5001:8.1155980700297024e-03
5002:1.6210519842383964e-02
5003:2.1887374727054338e-02
5004:-7.0064781036849591e-03
5005:-5.7848869125258951e-05
5006:8.3093200684650134e-03
5007:1.4202194247914903e-02
5008:4.2748008844198361e-02
5009:4.7179479459767165e-02
5010:5.2377607580742509e-02
5011:5.5927377343264813e-02
5012:3.4834001458945558e-02
5013:3.9538933989214292e-02
5014:4.5089548672826267e-02
5015:4.8906014545090769e-02
5016:2.4731803793641715e-02
5017:2.9759157729198762e-02
5018:3.5728544567247451e-02
5019:3.9864230307428278e-02
5020:1.7163968378809936e-02
5021:2.2412648801510192e-02
5022:2.8672123468471904e-02
5023:3.3030875445481403e-02
5024:5.7670385448443121e-02
5025:6.0690838212089551e-02
5026:6.4155922981863497e-02
5027:6.6456415295594304e-02
5028:5.0789768792030614e-02
5029:5.4069962800904217e-02
5030:5.7865146564126432e-02
5031:6.0412036902655952e-02
5032:4.1917261489897745e-02
5033:4.5511143783918566e-02
5034:4.9707392139333208e-02
5035:5.2555418847217136e-02
5036:3.5202852174431934e-02
5037:3.9018171472037254e-02
5038:4.3499409200401198e-02
5039:4.6562778778651372e-02
5040:6.7560244299385647e-02
5041:6.9423988743689838e-02
5042:7.1459111788266680e-02
5043:7.2721260216779590e-02
5044:6.1644811121805573e-02
5045:6.3745086797403858e-02
5046:6.6078176221965212e-02
5047:6.7560763808972552e-02
5048:5.3946378291217442e-02
5049:5.6337729993887434e-02
5050:5.9039218473752965e-02
5051:6.0795658978165343e-02
5052:4.8067311051765982e-02
5053:5.0668363836925662e-02
5054:5.3636616856562409e-02
5055:5.5592383873593047e-02
5056:7.3290930912906768e-02
5057:7.4181259591569099e-02
5058:7.4999167116671941e-02
5059:7.5366402272224645e-02
5060:6.8245132538273440e-02
5061:6.9345090787697419e-02
5062:7.0425746604649300e-02
5063:7.0986418576510002e-02
5064:6.1622974065595769e-02
5065:6.2984946371960074e-02
5066:6.4395446677993892e-02
5067:6.5200038204411073e-02
5068:5.6524099086696908e-02
5069:5.8078011311902024e-02
5070:5.9731235883960718e-02
5071:6.0716142842164998e-02
5072:7.5471596204231398e-02
5073:7.5507213682805344e-02
5074:7.5239730126827192e-02
5075:7.4795883112692765e-02
5076:7.1191965515120553e-02
5077:7.1410821682100348e-02
5078:7.1372799383222219e-02
5079:7.1097776098806839e-02
5080:6.5532505894825455e-02
5081:6.5983745336899949e-02
5082:6.6237949435088830e-02
5083:6.6178869606869889e-02
5084:6.1142719707111937e-02
5085:6.1766748208955349e-02
5086:6.2239166425276070e-02
5087:6.2342048300204234e-02
5088:7.4475327547911779e-02
5089:7.3718148461007382e-02
5090:7.2425388679995789e-02
5091:7.1201046179031904e-02
5092:7.0864803789810873e-02
5093:7.0267942936173680e-02
5094:6.9176889051608889e-02
5095:6.8101768895673168e-02
5096:6.6058259471531711e-02
5097:6.5667663781140306e-02
5098:6.4837269010992946e-02
5099:6.3955862419170215e-02
5100:6.2305962496869337e-02
5101:6.2070967405457915e-02
5102:6.1438052200806066e-02
5103:6.0704051015217697e-02
5104:7.0465672617645983e-02
5105:6.8926544517647625e-02
5106:6.6604006442045394e-02
5107:6.4581642633426237e-02
5108:6.7444152524397630e-02
5109:6.6048432063313497e-02
5110:6.3908634209341036e-02
5111:6.2023355697493253e-02
5112:6.3399497207688574e-02
5113:6.2191066599153549e-02
5114:6.0290997205600119e-02
5115:5.8586369827722494e-02
5116:6.0224959218454555e-02
5117:5.9159867440410838e-02
5118:5.7444046407970663e-02
5119:5.5878851081454045e-02
5120:6.3417189737951962e-02
5121:6.1060195973083771e-02
5122:5.7643193195009011e-02
5123:5.4759687474342178e-02
5124:6.0931072509534771e-02
5125:5.8709073338188318e-02
5126:5.5468035447194260e-02
5127:5.2719690886743498e-02
5128:5.7589477371322799e-02
5129:5.5546404417851053e-02
5130:5.2539539404340231e-02
5131:4.9971764829164163e-02
5132:5.4955789086834045e-02
5133:5.3051552993572212e-02
5134:5.0227059084812252e-02
5135:4.7800401559369640e-02
5136:5.3127763372009799e-02
5137:4.9872142927729596e-02
5138:4.5238288394073768e-02
5139:4.1386842305359613e-02
5140:5.1160109951335957e-02
5141:4.8042544294009067e-02
5142:4.3594196066758059e-02
5143:3.9889558408985018e-02
5144:4.8509067204925101e-02
5145:4.5576755376716280e-02
5146:4.1378003074471273e-02
5147:3.7871362141729550e-02
5148:4.6413584065136293e-02
5149:4.3626618208243158e-02
5150:3.9624150365582575e-02
5151:3.6273535969976851e-02
5152:3.9225906579026908e-02
5153:3.4946879170215425e-02
5154:2.8914958817707333e-02
5155:2.3942534229845033e-02
5156:3.7808769654328778e-02
5157:3.3686129521435022e-02
5158:2.7871152723481212e-02
5159:2.3075529516690754e-02
5160:3.5898811538364377e-02
5161:3.1987519992858780e-02
5162:2.6465947797903386e-02
5163:2.1909559096416890e-02
5164:3.4386379132332064e-02
5165:3.0641922871472594e-02
5166:2.5352092607815575e-02
5167:2.0984731794663491e-02
5168:2.1166087655901895e-02
5169:1.5693508101493756e-02
5170:8.0265170695897007e-03
5171:1.7399983035718924e-03
5172:2.0397379789572664e-02
5173:1.5120011018323965e-02
5174:7.7303074768145892e-03
5175:1.6744599965262024e-03
5176:1.9364437796291292e-02
5177:1.4351121654739587e-02
5178:7.3361611117881151e-03
5179:1.5917753808380735e-03
5180:1.8544731364992042e-02
5181:1.3739968010314451e-02
5182:7.0207317403882287e-03
5183:1.5219223728555331e-03
5184:-1.4150144982750842e-02
5185:-6.7174389108375435e-02
5186:-1.3493549815804917e-01
5187:-1.8559931454192768e-01
5188:-1.3336542380826242e-02
5189:-6.3187650566180878e-02
5190:-1.2704506048848896e-01
5191:-1.7485998826595991e-01
5192:-1.2315111279172572e-02
5193:-5.8478093260912321e-02
5194:-1.1769970879084954e-01
5195:-1.6209394215154135e-01
5196:-1.1597371154894443e-02
5197:-5.5231136106822808e-02
5198:-1.1120627916121925e-01
5199:-1.5318725326822294e-01
5200:-2.1205167693715310e-01
5201:-2.5985243124136675e-01
5202:-3.1828369198642159e-01
5203:-3.5988924162152020e-01
5204:-1.9983697638358899e-01
5205:-2.4501371658169926e-01
5206:-3.0036918297941723e-01
5207:-3.3993055085306095e-01
5208:-1.8529917105033764e-01
5209:-2.2734232284001432e-01
5210:-2.7903537142759682e-01
5211:-3.1614588080094141e-01
5212:-1.7514682261419015e-01
5213:-2.1499969806466643e-01
5214:-2.6413578104539753e-01
5215:-2.9951579111930055e-01
5216:-3.8086011613338744e-01
5217:-4.1746085211581602e-01
5218:-4.5968562536006885e-01
5219:-4.8777634507192602e-01
5220:-3.5993866062340085e-01
5221:-3.9500440402675480e-01
5222:-4.3574363712965397e-01
5223:-4.6307265640514322e-01
5224:-3.3498453763659974e-01
5225:-3.6814337260947511e-01
5226:-4.0695492943451028e-01
5227:-4.3322747769330150e-01
5228:-3.1751425458751847e-01
5229:-3.4927106580002620e-01
5230:-3.8660714310431610e-01
5231:-4.1202651662578416e-01
5232:-5.0121403413244714e-01
5233:-5.2342968966276893e-01
5234:-5.4657197197452589e-01
5235:-5.5989396055454888e-01
5236:-4.7623220272175693e-01
5237:-4.9815618851984506e-01
5238:-5.2133877841513221e-01
5239:-5.3498613883241497e-01
5240:-4.4597108033295824e-01
5241:-4.6739099785364663e-01
5242:-4.9043697691918853e-01
5243:-5.0435848834682440e-01
5244:-4.2441610222965648e-01
5245:-4.4536574754178082e-01
5246:-4.6817602836383448e-01
5247:-4.8220316113040773e-01
5248:-5.6545719677366146e-01
5249:-5.7322401168970460e-01
5250:-5.7824696143253773e-01
5251:-5.7826624487352063e-01
5252:-5.4081641455920648e-01
5253:-5.4921746039908681e-01
5254:-5.5534528209751999e-01
5255:-5.5644646204699499e-01
5256:-5.1046057257137067e-01
5257:-5.1956033500545862e-01
5258:-5.2696347146565203e-01
5259:-5.2932316378423327e-01
5260:-4.8846056984734232e-01
5261:-4.9800750319260872e-01
5262:-5.0627338522223220e-01
5263:-5.0948946411112706e-01
5264:-5.7696460789338677e-01
5265:-5.7246287999896728e-01
5266:-5.6277488927330011e-01
5267:-5.5256350053145020e-01
5268:-5.5580891853373293e-01
5269:-5.5267045060879982e-01
5270:-5.4494372995207230e-01
5271:-5.3634113868030298e-01
5272:-5.2945347503958584e-01
5273:-5.2787777272347636e-01
5274:-5.2239008120754349e-01
5275:-5.1563192434768590e-01
5276:-5.1013751157851628e-01
5277:-5.0960561138381111e-01
5278:-5.0560934930890622e-01
5279:-5.0008964161034852e-01
5280:-5.4619715004654956e-01
5281:-5.3295391149552607e-01
5282:-5.1332819191597423e-01
5283:-4.9659341789273193e-01
5284:-5.3085713101331478e-01
5285:-5.1927095797319844e-01
5286:-5.0180062949954940e-01
5287:-4.8671149919575224e-01
5288:-5.1116675134635392e-01
5289:-5.0151600493978710e-01
5290:-4.8660204714357957e-01
5291:-4.7348940591321692e-01
5292:-4.9631565559247959e-01
5293:-4.8799272045740649e-01
5294:-4.7485647507154638e-01
5295:-4.6313202841739259e-01
5296:-4.8712838866442582e-01
5297:-4.6875801994398031e-01
5298:-4.4375624162334831e-01
5299:-4.2387716431769618e-01
5300:-4.7811908173235290e-01
5301:-4.6134617280977852e-01
5302:-4.3834023141114481e-01
5303:-4.1991985646366170e-01
5304:-4.6595189643424056e-01
5305:-4.5111579000030733e-01
5306:-4.3054017803497380e-01
5307:-4.1390496556868461e-01
5308:-4.5633895579636002e-01
5309:-4.4287524497816355e-01
5310:-4.2403341068604489e-01
5311:-4.0868142140691804e-01
5312:-4.1306791161278883e-01
5313:-3.9268652625529427e-01
5314:-3.6601000280556523e-01
5315:-3.4554385929382736e-01
5316:-4.0986104385334193e-01
5317:-3.9082297917124886e-01
5318:-3.6576963906025300e-01
5319:-3.4644893202764837e-01
5320:-4.0476811652820105e-01
5321:-3.8738941452061215e-01
5322:-3.6435917287149661e-01
5323:-3.4648016235458612e-01
5324:-4.0021096638518333e-01
5325:-3.8403781791676594e-01
5326:-3.6248906804447067e-01
5327:-3.4567467575529098e-01
5328:-3.3465501883498450e-01
5329:-3.1447116631080374e-01
5330:-2.8868397524235218e-01
5331:-2.6935384976624721e-01
5332:-3.3613537571689606e-01
5333:-3.1695992676384327e-01
5334:-2.9235132036229150e-01
5335:-2.7382274823437763e-01
5336:-3.3689568257202318e-01
5337:-3.1900523757474047e-01
5338:-2.9591182840167207e-01
5339:-2.7842430357862352e-01
5340:-3.3663172116261697e-01
5341:-3.1970104211143269e-01
5342:-2.9774963760818940e-01
5343:-2.8105484148959675e-01
5344:-2.5921803674662741e-01
5345:-2.4063358322661585e-01
5346:-2.1726294818488576e-01
5347:-2.0002043697081687e-01
5348:-2.6407910323692535e-01
5349:-2.4616792905278026e-01
5350:-2.2355653119014618e-01
5351:-2.0680755711512677e-01
5352:-2.6919388362833924e-01
5353:-2.5217017169876588e-01
5354:-2.3057241170308371e-01
5355:-2.1449328432019280e-01
5356:-2.7221815780845443e-01
5357:-2.5587982743296123e-01
5358:-2.3507395655251428e-01
5359:-2.1952572308760551e-01
5360:-1.9107217630586046e-01
5361:-1.7479338060722499e-01
5362:-1.5455768173234161e-01
5363:-1.3980332659824241e-01
5364:-1.9809211690920939e-01
5365:-1.8219925859342936e-01
5366:-1.6237195162203236e-01
5367:-1.4786122436699864e-01
5368:-2.0609815860080133e-01
5369:-1.9074349920011219e-01
5370:-1.7150034263811642e-01
5371:-1.5735083996710628e-01
5372:-2.1138741380070061e-01
5373:-1.9646919110065730e-01
5374:-1.7770957763288667e-01
5375:-1.6386742008000116e-01
5376:-1.3220555960134076e-01
5377:-1.1846400060695034e-01
5378:-1.0153174965337804e-01
5379:-8.9299720295918483e-02
5380:-1.4037007402431920e-01
5381:-1.2679192333882514e-01
5382:-1.1000473702069720e-01
5383:-9.7834031029644580e-02
5384:-1.5002306442336202e-01
5385:-1.3670440599355116e-01
5386:-1.2016803742970870e-01
5387:-1.0812535693473510e-01
5388:-1.5668198839937220e-01
5389:-1.4359505635234010e-01
5390:-1.2729494261980512e-01
5391:-1.1538498749243968e-01
5392:-8.3040047420158428e-02
5393:-7.1772111647202819e-02
5394:-5.7987836962169012e-02
5395:-4.8106699668699113e-02
5396:-9.1590371880478319e-02
5397:-8.0327492619587895e-02
5398:-6.6504176039208704e-02
5399:-5.6560208895720346e-02
5400:-1.0192843341394991e-01
5401:-9.0720506352159211e-02
5402:-7.6908704635586286e-02
5403:-6.6929915213200783e-02
5404:-1.0924259085343485e-01
5405:-9.8111824380860052e-02
5406:-8.4354152492446766e-02
5407:-7.4382903841659381e-02
5408:-4.3076898382172164e-02
5409:-3.4061291016004192e-02
5410:-2.3105942345603855e-02
5411:-1.5310547918645508e-02
5412:-5.1486138724393171e-02
5413:-4.2372475657371109e-02
5414:-3.1262039388776412e-02
5415:-2.3328147398924925e-02
5416:-6.1822861006001560e-02
5417:-5.2626477658450917e-02
5418:-4.1370170596280613e-02
5419:-3.3297026165505610e-02
5420:-6.9268563803899244e-02
5421:-6.0041705544790165e-02
5422:-4.8714909777202366e-02
5423:-4.0565510247805012e-02
5424:-1.1363174643568227e-02
5425:-4.3191507997355216e-03
5426:4.1791506829866581e-03
5427:1.0177194681370271e-02
5428:-1.9300565677931019e-02
5429:-1.2098061548391412e-02
5430:-3.3790315321466763e-03
5431:2.7980419380523327e-03
5432:-2.9186251122430010e-02
5433:-2.1815919687701708e-02
5434:-1.2857082886440245e-02
5435:-6.4813254518585189e-03
5436:-3.6406800677626291e-02
5437:-2.8936589941303693e-02
5438:-1.9829549412366615e-02
5439:-1.3327313414947041e-02
5440:1.3196450957598100e-02
5441:1.8554090487318178e-02
5442:2.4957380154741318e-02
5443:2.9427455326770994e-02
5444:5.9157944224728217e-03
5445:1.1461138669587506e-02
5446:1.8114012719556850e-02
5447:2.2778597180155517e-02
5448:-3.2529288620031628e-03
5449:2.5053028786836198e-03
5450:9.4449253465974155e-03
5451:1.4335587209205008e-02
5452:-1.0027331382494684e-02
5453:-4.1296594985374161e-03
5454:3.0008242201859082e-03
5455:8.0440839433828654e-03
5456:3.1659038936429240e-02
5457:3.5585696992256360e-02
5458:4.0210903751106017e-02
5459:4.3383546626183461e-02
5460:2.5114758692288394e-02
5461:2.9237385845753791e-02
5462:3.4117164423583340e-02
5463:3.7483896302022826e-02
5464:1.6794144468708163e-02
5465:2.1147388740812584e-02
5466:2.6329091494122558e-02
5467:2.9927749223182129e-02
5468:1.0585935297671677e-02
5469:1.5097154857051605e-02
5470:2.0487596838775431e-02
5471:2.4248006683962920e-02
5472:4.4945872380586775e-02
5473:4.7653897664037582e-02
5474:5.0758729452948306e-02
5475:5.2816920945021620e-02
5476:3.9149169700979314e-02
5477:4.2048229251815873e-02
5478:4.5397878208972918e-02
5479:4.7640343241093244e-02
5480:3.1716629745331786e-02
5481:3.4846013518944847e-02
5482:3.8492615451063340e-02
5483:4.0959915101634312e-02
5484:2.6123568807596854e-02
5485:2.9415224851507889e-02
5486:3.3272440807134686e-02
5487:3.5900228963390603e-02
5488:5.3802410736647072e-02
5489:5.5455393758011375e-02
5490:5.7234289418448776e-02
5491:5.8312844559132423e-02
5492:4.8722811049147413e-02
5493:5.0554828552854640e-02
5494:5.2561530962860155e-02
5495:5.3810377025872776e-02
5496:4.2161154751248951e-02
5497:4.4213163157652259e-02
5498:4.6501162381182362e-02
5499:4.7961327015126370e-02
5500:3.7186594182816841e-02
5501:3.9396839108680658e-02
5502:4.1888247497649841e-02
5503:4.3502029070604770e-02
5504:5.8788397522035657e-02
5505:5.9502519432126713e-02
5506:6.0089044936837144e-02
5507:6.0276869289466926e-02
5508:5.4375175155777701e-02
5509:5.5253789324675534e-02
5510:5.6049271687055174e-02
5511:5.6393116540149418e-02
5512:4.8637235752356636e-02
5513:4.9721268253419451e-02
5514:5.0778894001053586e-02
5515:5.1319377691047295e-02
5516:4.4258989831285761e-02
5517:4.5493346284250946e-02
5518:4.6743716708868510e-02
5519:4.7429465488712401e-02
5520:6.0285200968652752e-02
5521:6.0132125934932654e-02
5522:5.9603471729888689e-02
5523:5.8947516669680157e-02
5524:5.6483198291259730e-02
5525:5.6481183572998271e-02
5526:5.6145341487736034e-02
5527:5.5634142433778067e-02
5528:5.1512808365773648e-02
5529:5.1702316353772308e-02
5530:5.1611997465429216e-02
5531:5.1285938405155156e-02
5532:4.7699481316247253e-02
5533:4.8031328817979835e-02
5534:4.8124281005220156e-02
5535:4.7937024202966229e-02
5536:5.8509416325951413e-02
5537:5.7520499475345183e-02
5538:5.5902859081930045e-02
5539:5.4412163178687092e-02
5540:5.5272220049829367e-02
5541:5.4425131788115783e-02
5542:5.2990804370155568e-02
5543:5.1639592054321434e-02
5544:5.1021730390932038e-02
5545:5.0357071572256343e-02
5546:4.9159501665627936e-02
5547:4.7989165546531806e-02
5548:4.7746284840731075e-02
5549:4.7219159273699712e-02
5550:4.6200787372032967e-02
5551:4.5167881486741585e-02
5552:5.3528618577673284e-02
5553:5.1698811867162235e-02
5554:4.8972307756800344e-02
5555:4.6621637085700655e-02
5556:5.0830168420502767e-02
5557:4.9140194614101879e-02
5558:4.6598219502446421e-02
5559:4.4390960221349550e-02
5560:4.7276109121164783e-02
5561:4.5768364631500393e-02
5562:4.3467672131393041e-02
5563:4.1448521244727386e-02
5564:4.4528226127145396e-02
5565:4.3159588550950548e-02
5566:4.1043657115231232e-02
5567:3.9168968800232094e-02
5568:4.5275733121416965e-02
5569:4.2567218392339262e-02
5570:3.8670844669675790e-02
5571:3.5404668463703493e-02
5572:4.3122379143095961e-02
5573:4.0562294106123289e-02
5574:3.6866945747277897e-02
5575:3.3760966405166605e-02
5576:4.0281558724942712e-02
5577:3.7916841857163090e-02
5578:3.4486628130521516e-02
5579:3.1592307065290356e-02
5580:3.8080185909738086e-02
5581:3.5865982247328371e-02
5582:3.2640401395067242e-02
5583:2.9909696226752887e-02
5584:3.3563756978627485e-02
5585:2.9909679241079776e-02
5586:2.4745427920344835e-02
5587:2.0480520073426003e-02
5588:3.2007855148411070e-02
5589:2.8525429307467504e-02
5590:2.3599772099438681e-02
5591:1.9529566191898017e-02
5592:2.9955315317219282e-02
5593:2.6700012600444273e-02
5594:2.2090201376993308e-02
5595:1.8277813218928119e-02
5596:2.8362545314549070e-02
5597:2.5283031837373949e-02
5598:2.0917766410007980e-02
5599:1.7305036870044796e-02
5600:1.8097497403318789e-02
5601:1.3405736212771123e-02
5602:6.8466456533700180e-03
5603:1.4807519727122892e-03
5604:1.7254830749254383e-02
5605:1.2777769053156208e-02
5606:6.5227932743629246e-03
5607:1.4091729761795252e-03
5608:1.6146476776437924e-02
5609:1.1953604038724667e-02
5610:6.1008674770934935e-03
5611:1.3206624889359445e-03
5612:1.5284753415147508e-02
5613:1.1311865119776734e-02
5614:5.7702558155788685e-03
5615:1.2477489757987150e-03
5616:-1.1247236735531636e-02
5617:-5.3621740525618682e-02
5618:-1.0796226842163144e-01
5619:-1.4872594820428470e-01
5620:-1.0637166775956724e-02
5621:-5.0762359882775152e-02
5622:-1.0220093352536549e-01
5623:-1.4080928737855991e-01
5624:-9.9159081672530770e-03
5625:-4.7311185011641457e-02
5626:-9.5269920419850315e-02
5627:-1.3130310912897666e-01
5628:-9.4080203250424439e-03
5629:-4.4858956756843635e-02
5630:-9.0369232480386141e-02
5631:-1.2459445200998183e-01
5632:-1.7005981059441028e-01
5633:-2.0881598621068292e-01
5634:-2.5667035895305723e-01
5635:-2.9117427481018693e-01
5636:-1.6103463089289632e-01
5637:-1.9783863321357742e-01
5638:-2.4339537925670307e-01
5639:-2.7631944429605210e-01
5640:-1.5019995970849195e-01
5641:-1.8464449172915459e-01
5642:-2.2739486653592178e-01
5643:-2.5837748036068064e-01
5644:-1.4255401699885692e-01
5645:-1.7531979511191678e-01
5646:-2.1605538884976461e-01
5647:-2.4563977005223495e-01
5648:-3.0874179976607868e-01
5649:-3.3976952763844481e-01
5650:-3.7632126262576626e-01
5651:-4.0127492494501332e-01
5652:-2.9310780115981216e-01
5653:-3.2281866629836442e-01
5654:-3.5795499504531586e-01
5655:-3.8206690468277454e-01
5656:-2.7420793027739537e-01
5657:-3.0230545488359956e-01
5658:-3.3571296426861574e-01
5659:-3.5879435076873051e-01
5660:-2.6078179210769298e-01
5661:-2.8772314707406682e-01
5662:-3.1989226153018446e-01
5663:-3.4222999196835735e-01
5664:-4.1346662471524886e-01
5665:-4.3414197651502756e-01
5666:-4.5678719120860906e-01
5667:-4.7083769682028670e-01
5668:-3.9389932284084667e-01
5669:-4.1406779754878620e-01
5670:-4.3638203219123245e-01
5671:-4.5043458186187679e-01
5672:-3.7018343111495222e-01
5673:-3.8971204253010322e-01
5674:-4.1156517165853124e-01
5675:-4.2554944045132886e-01
5676:-3.5329494783242205e-01
5677:-3.7234560731658345e-01
5678:-3.9382486840050829e-01
5679:-4.0770944393487374e-01
5680:-4.7716070934736116e-01
5681:-4.8691658260400417e-01
5682:-4.9560307496606598e-01
5683:-4.9923851425475113e-01
5684:-4.5684919474049496e-01
5685:-4.6692623038053099e-01
5686:-4.7629346104597947e-01
5687:-4.8062596122466816e-01
5688:-4.3202752339003281e-01
5689:-4.4239241123732498e-01
5690:-4.5244298159890212e-01
5691:-4.5751672664563903e-01
5692:-4.1419875514992860e-01
5693:-4.2469472862969848e-01
5694:-4.3512703551906440e-01
5695:-4.4065194265411606e-01
5696:-5.0013849319201087e-01
5697:-5.0011199714634669e-01
5698:-4.9683843205632222e-01
5699:-4.9192377657684427e-01
5700:-4.8195038640891874e-01
5701:-4.8278653084471296e-01
5702:-4.8076499452242882e-01
5703:-4.7690927864937910e-01
5704:-4.5930610611983097e-01
5705:-4.6111180572411253e-01
5706:-4.6053476920921799e-01
5707:-4.5791936224390217e-01
5708:-4.4273604105365877e-01
5709:-4.4517549846115467e-01
5710:-4.4556980573982724e-01
5711:-4.4380050906333474e-01
5712:-4.8849036017663788e-01
5713:-4.8082583835545900e-01
5714:-4.6857708123936254e-01
5715:-4.5754865992484545e-01
5716:-4.7407448899357169e-01
5717:-4.6756758828902806e-01
5718:-4.5687983974576135e-01
5719:-4.4707689702523001e-01
5720:-4.5578929246487693e-01
5721:-4.5064596963199444e-01
5722:-4.4180019622396016e-01
5723:-4.3344813996895354e-01
5724:-4.4215314849086146e-01
5725:-4.3794602764411428e-01
5726:-4.3037130133108842e-01
5727:-4.2302725312566358e-01
5728:-4.5112952746104390e-01
5729:-4.3835765968692114e-01
5730:-4.2039520698471083e-01
5731:-4.0569842664032602e-01
5732:-4.4131701081662456e-01
5733:-4.2976999502118646e-01
5734:-4.1337473786338130e-01
5735:-3.9985316068333265e-01
5736:-4.2847138596785794e-01
5737:-4.1838844932511587e-01
5738:-4.0388368897287918e-01
5739:-3.9179180249628731e-01
5740:-4.1859758485048532e-01
5741:-4.0954337179337391e-01
5742:-3.9637741222579193e-01
5743:-3.8530495244674573e-01
5744:-3.9756979765128364e-01
5745:-3.8201692423772576e-01
5746:-3.6123378375776422e-01
5747:-3.4497207114556755e-01
5748:-3.9234006968181201e-01
5749:-3.7790630910091377e-01
5750:-3.5850844223412892e-01
5751:-3.4324997482494551e-01
5752:-3.8503133839156478e-01
5753:-3.7197019735825193e-01
5754:-3.5427969082669508e-01
5755:-3.4026461988989570e-01
5756:-3.7908328507363548e-01
5757:-3.6700836898363287e-01
5758:-3.5055195061414568e-01
5759:-3.3744168203263603e-01
5760:-3.3621112924042496e-01
5761:-3.1978212867314099e-01
5762:-2.9843131756400293e-01
5763:-2.8215627236591634e-01
5764:-3.3500221641885491e-01
5765:-3.1948908776313900e-01
5766:-2.9924061149349623e-01
5767:-2.8374056395550890e-01
5768:-3.3265554625022237e-01
5769:-3.1828766082321963e-01
5770:-2.9942807612585265e-01
5771:-2.8491255993662495e-01
5772:-3.3029965360564917e-01
5773:-3.1677310591558694e-01
5774:-2.9894113006972101e-01
5775:-2.8515953571142383e-01
5776:-2.7352908896044525e-01
5777:-2.5755693032051308e-01
5778:-2.3717707012018743e-01
5779:-2.2191686427005905e-01
5780:-2.7550181863865736e-01
5781:-2.6021089820330368e-01
5782:-2.4062809794327161e-01
5783:-2.2591045617144634e-01
5784:-2.7717012910399913e-01
5785:-2.6275395736314477e-01
5786:-2.4420306085195734e-01
5787:-2.3019467403014182e-01
5788:-2.7778900759629999e-01
5789:-2.6403151418801812e-01
5790:-2.4626393239972011e-01
5791:-2.3279899118871761e-01
5792:-2.1391881425283094e-01
5793:-1.9924050302780119e-01
5794:-1.8074976714867710e-01
5795:-1.6708105772422999e-01
5796:-2.1817800120183356e-01
5797:-2.0395627816698025e-01
5798:-1.8598186500340591e-01
5799:-1.7265011182562301e-01
5800:-2.2281196861289759e-01
5801:-2.0919566735800091e-01
5802:-1.9191421505867548e-01
5803:-1.7904167409072402e-01
5804:-2.2568613895195389e-01
5805:-2.1253994027298656e-01
5806:-1.9580247443380772e-01
5807:-1.8329530457959961e-01
5808:-1.5997695061580114e-01
5809:-1.4702407952767849e-01
5810:-1.3086419973130264e-01
5811:-1.1903635435574657e-01
5812:-1.6570552417197135e-01
5813:-1.5301820295410798e-01
5814:-1.3714145497376592e-01
5815:-1.2548419082492276e-01
5816:-1.7231720840417064e-01
5817:-1.6000090794090174e-01
5818:-1.4452912248921390e-01
5819:-1.3312406119247050e-01
5820:-1.7674785309102747e-01
5821:-1.6473305052873227e-01
5822:-1.4959667285117639e-01
5823:-1.3840590753318632e-01
5824:-1.1292920241543511e-01
5825:-1.0185116833127636e-01
5826:-8.8137393066907266e-02
5827:-7.8181562789926690e-02
5828:-1.1945232429354745e-01
5829:-1.0849063208866355e-01
5830:-9.4882221771584480e-02
5831:-8.4973137014308225e-02
5832:-1.2720693301579766e-01
5833:-1.1642856603582613e-01
5834:-1.0299961399496484e-01
5835:-9.3184276998254115e-02
5836:-1.3258845510757963e-01
5837:-1.2197310204760375e-01
5838:-1.0871184878619498e-01
5839:-9.8992027136101099e-02
5840:-7.3069344178004370e-02
5841:-6.3837271912350779e-02
5842:-5.2486828769650939e-02
5843:-4.4307119001782615e-02
5844:-7.9874436678362637e-02
5845:-7.0650370027528109e-02
5846:-5.9278463813073945e-02
5847:-5.1059159184867434e-02
5848:-8.8120833769132406e-02
5849:-7.8940171775171278e-02
5850:-6.7582861420758963e-02
5851:-5.9344124027244614e-02
5852:-9.3968378182821805e-02
5853:-8.4844909653961909e-02
5854:-7.3529765049661480e-02
5855:-6.5299607989903280e-02
5856:-4.0128248471044903e-02
5857:-3.2614601645010406e-02
5858:-2.3440721541439172e-02
5859:-1.6879899363135057e-02
5860:-4.6851542979491637e-02
5861:-3.9273013065007224e-02
5862:-2.9994538932739099e-02
5863:-2.3339098266707384e-02
5864:-5.5115974907470770e-02
5865:-4.7483912277419812e-02
5866:-3.8108114364581051e-02
5867:-3.1358130143300779e-02
5868:-6.1068097641762374e-02
5869:-5.3417745807633157e-02
5870:-4.3996055509031746e-02
5871:-3.7194885036239113e-02
5872:-1.3546291146757357e-02
5873:-7.5824486360923761e-03
5874:-3.6021247153741214e-04
5875:4.7572141267119700e-03
5876:-1.9950325663667706e-02
5877:-1.3876733427567877e-02
5878:-6.5002068743731205e-03
5879:-1.2566020923545133e-03
5880:-2.7912402128323070e-02
5881:-2.1722956446157786e-02
5882:-1.4179109476133248e-02
5883:-8.7956297710956154e-03
5884:-3.3716585666986411e-02
5885:-2.7458537169586045e-02
5886:-1.9811582188131258e-02
5887:-1.4339227756188209e-02
5888:7.3398047962383662e-03
5889:1.1928685720292776e-02
5890:1.7422475230970898e-02
5891:2.1263499328136405e-02
5892:1.3957643490463980e-03
5893:6.1183823897688408e-03
5894:1.1791466623999271e-02
5895:1.5773295564627181e-02
5896:-6.0649501605602365e-03
5897:-1.1907593451214913e-03
5898:4.6882046336925295e-03
5899:8.8336140667184086e-03
5900:-1.1557959478230235e-02
5901:-6.5846134338620891e-03
5902:-5.6873935185728947e-04
5903:3.6870091109273604e-03
5904:2.3182438698381533e-02
5905:2.6555575339725239e-02
5906:3.0519055145479729e-02
5907:3.3228187246838112e-02
5908:1.7768312154650915e-02
5909:2.1284834405168887e-02
5910:2.5436209968050526e-02
5911:2.8289838355705681e-02
5912:1.0917633058256514e-02
5913:1.4602862269595139e-02
5914:1.8977108191005974e-02
5915:2.2003450668821832e-02
5916:5.8315647101573843e-03
5917:9.6323287000893709e-03
5918:1.4160661253797210e-02
5919:1.7307479342518008e-02
5920:3.4557822841197898e-02
5921:3.6848707563457178e-02
5922:3.9444167775594764e-02
5923:4.1136823123343637e-02
5924:2.9696563987555293e-02
5925:3.2131493428745765e-02
5926:3.4913534153260435e-02
5927:3.6748155495618176e-02
5928:2.3502769366938594e-02
5929:2.6111454996468966e-02
5930:2.9119963840217884e-02
5931:3.1127940973551968e-02
5932:1.8871744157772395e-02
5933:2.1602892785495108e-02
5934:2.4772117264216329e-02
5935:2.6903928099703756e-02
5936:4.1935500354743485e-02
5937:4.3247396295240603e-02
5938:4.4597509557968935e-02
5939:4.5358671919796943e-02
5940:3.7622101853073124e-02
5941:3.9074210158179218e-02
5942:4.0605274582575179e-02
5943:4.1503695600107846e-02
5944:3.2094154335087381e-02
5945:3.3718739008667009e-02
5946:3.5473540923121522e-02
5947:3.6542540532829099e-02
5948:2.7936325496186628e-02
5949:2.9685095625813590e-02
5950:3.1601880983012157e-02
5951:3.2795043101651856e-02
5952:4.5668529674890719e-02
5953:4.6074572280407913e-02
5954:4.6263335326081116e-02
5955:4.6148852745730301e-02
5956:4.1886223932840021e-02
5957:4.2427870245593823e-02
5958:4.2792269626218009e-02
5959:4.2811589715005371e-02
5960:3.7015680902775544e-02
5961:3.7726937283004518e-02
5962:3.8312029131843818e-02
5963:3.8500233973392244e-02
5964:3.3334368762772730e-02
5965:3.4169912210077466e-02
5966:3.4917485214053641e-02
5967:3.5230596342754272e-02
5968:4.5996706231541874e-02
5969:4.5541953627216074e-02
5970:4.4618121904708499e-02
5971:4.3657900842484859e-02
5972:4.2730537310559827e-02
5973:4.2409347109419342e-02
5974:4.1660445275573492e-02
5975:4.0835056374609345e-02
5976:3.8509177677735311e-02
5977:3.8357517026416287e-02
5978:3.7831522613000275e-02
5979:3.7178593008579737e-02
5980:3.5306295618272990e-02
5981:3.5280724052192326e-02
5982:3.4921162688014769e-02
5983:3.4397475448614087e-02
5984:4.3057127744030796e-02
5985:4.1762281732077994e-02
5986:3.9744553409223657e-02
5987:3.7946789687134622e-02
5988:4.0306527815755340e-02
5989:3.9148987459596440e-02
5990:3.7314359022468428e-02
5991:3.5660290227429205e-02
5992:3.6742690784720498e-02
5993:3.5761564451828154e-02
5994:3.4162880212925684e-02
5995:3.2694478418923839e-02
5996:3.4031149710116906e-02
5997:3.3182805253721151e-02
5998:3.1762207455586201e-02
5999:3.0434302197970685e-02
6000:3.6899682972526930e-02
6001:3.4765783369227150e-02
6002:3.1649502437944184e-02
6003:2.9006272459753863e-02
6004:3.4691123153276208e-02
6005:3.2707534412391576e-02
6006:2.9796072780858593e-02
6007:2.7316925342675328e-02
6008:3.1826180921142325e-02
6009:3.0037366740343609e-02
6010:2.7391740532674992e-02
6011:2.5125849090438530e-02
6012:2.9642451141138376e-02
6013:2.8001420139472568e-02
6014:2.5557790464733370e-02
6015:2.3454145067902655e-02
6016:2.7507179157293966e-02
6017:2.4521718122230581e-02
6018:2.0287315985812855e-02
6019:1.6781439931838463e-02
6020:2.5908025420072166e-02
6021:2.3099120868203822e-02
6022:1.9110429635050701e-02
6023:1.5805206578599931e-02
6024:2.3834260588017225e-02
6025:2.1255065341872721e-02
6026:1.7586139147380175e-02
6027:1.4542075575806501e-02
6028:2.2251867961689983e-02
6029:1.9847594384109577e-02
6030:1.6422207586305432e-02
6031:1.3577059157197802e-02
6032:1.4820589570765538e-02
6033:1.0965395157213568e-02
6034:5.5901569516633425e-03
6035:1.2053818539676732e-03
6036:1.3955961775204912e-02
6037:1.0321712556922878e-02
6038:5.2586481546820513e-03
6039:1.1321824163124695e-03
6040:1.2838087243388809e-02
6041:9.4912724507884016e-03
6042:4.8340233745291341e-03
6043:1.0431038364628051e-03
6044:1.1983700498532056e-02
6045:8.8556967732362508e-03
6046:4.5071408397130142e-03
6047:9.7127190973903465e-04
6048:-9.1499884925065091e-03
6049:-4.3615138194778844e-02
6050:-8.7892584449469777e-02
6051:-1.2120763198467147e-01
6052:-8.6930500848030820e-03
6053:-4.1409586963126979e-02
6054:-8.3490782955266962e-02
6055:-1.1518052853277941e-01
6056:-8.1467952404962758e-03
6057:-3.8771911299127076e-02
6058:-7.8202775062092167e-02
6059:-1.0792357002610711e-01
6060:-7.7618278897348455e-03
6061:-3.6919906207569020e-02
6062:-7.4473322666853831e-02
6063:-1.0279405987976263e-01
6064:-1.3869343783549584e-01
6065:-1.7060656352401640e-01
6066:-2.1031435317782665e-01
6067:-2.3918526870029164e-01
6068:-1.3182011723030759e-01
6069:-1.6221171948424729e-01
6070:-2.0008640327043600e-01
6071:-2.2768351840419879e-01
6072:-1.2353865694453552e-01
6073:-1.5209210168535395e-01
6074:-1.8775359787758758e-01
6075:-2.1380760370514762e-01
6076:-1.1768147012283904e-01
6077:-1.4493165309592698e-01
6078:-1.7902292361963690e-01
6079:-2.0397591349449359e-01
6080:-2.5397690458322908e-01
6081:-2.8033023872038265e-01
6082:-3.1186793296601301e-01
6083:-3.3382305364003956e-01
6084:-2.4184820619093061e-01
6085:-2.6714243629770429e-01
6086:-2.9752826895916396e-01
6087:-3.1877326824453661e-01
6088:-2.2720858451312226e-01
6089:-2.5119885756762239e-01
6090:-2.8013969414065609e-01
6091:-3.0047317429262482e-01
6092:-2.1682793174051715e-01
6093:-2.3987157064529835e-01
6094:-2.6774660413053691e-01
6095:-2.8739580863676711e-01
6096:-3.4471921670402506e-01
6097:-3.6351769739241618e-01
6098:-3.8479072201121634e-01
6099:-3.9860783535857658e-01
6100:-3.2935141474675661e-01
6101:-3.4766910492136133e-01
6102:-3.6853716757163518e-01
6103:-3.8220878795086399e-01
6104:-3.1063550367999815e-01
6105:-3.2831386560469406e-01
6106:-3.4862154092419118e-01
6107:-3.6206897347615530e-01
6108:-2.9724180401406791e-01
6109:-3.1442584656871431e-01
6110:-3.3428351811982943e-01
6111:-3.4753408104573308e-01
6112:-4.0509197927152674e-01
6113:-4.1563064751237855e-01
6114:-4.2622254675805354e-01
6115:-4.3195135451606331e-01
6116:-3.8867161335177858e-01
6117:-3.9926478644942165e-01
6118:-4.1011347093041667e-01
6119:-4.1618357568562869e-01
6120:-3.6848301387214610e-01
6121:-3.7910275281540190e-01
6122:-3.9021312263880148e-01
6123:-3.9665603695686957e-01
6124:-3.5389479835742960e-01
6125:-3.6450164206334340e-01
6126:-3.7575908312489992e-01
6127:-3.8243546135884732e-01
6128:-4.3417310107825891e-01
6129:-4.3691510586997601e-01
6130:-4.3778179690783431e-01
6131:-4.3642747235151752e-01
6132:-4.1863814862088011e-01
6133:-4.2189452642301961e-01
6134:-4.2356926058271904e-01
6135:-4.2292861671928389e-01
6136:-3.9936871852868522e-01
6137:-4.0319924943856328e-01
6138:-4.0578504975129198e-01
6139:-4.0595754694821667e-01
6140:-3.8531316045534475e-01
6141:-3.8951466325060957e-01
6142:-3.9269806412339858e-01
6143:-3.9341202294213701e-01
6144:-4.3501735296280908e-01
6145:-4.3127180003329540e-01
6146:-4.2432744119662608e-01
6147:-4.1748676636596405e-01
6148:-4.2192804894901798e-01
6149:-4.1898432982587919e-01
6150:-4.1314442517481775e-01
6151:-4.0719202398282078e-01
6152:-4.0542719178923087e-01
6153:-4.0341331618864268e-01
6154:-3.9887043379695941e-01
6155:-3.9397143586509148e-01
6156:-3.9319801696042544e-01
6157:-3.9181594463494485e-01
6158:-3.8816458238956120e-01
6159:-3.8399570167966535e-01
6160:-4.1333165249159487e-01
6161:-4.0479538823998679e-01
6162:-3.9230619387438259e-01
6163:-3.8175075059842695e-01
6164:-4.0352327081179917e-01
6165:-3.9590577501542373e-01
6166:-3.8461930668833738e-01
6167:-3.7498463114723779e-01
6168:-3.9088232658893035e-01
6169:-3.8436242483125926e-01
6170:-3.7451809846207718e-01
6171:-3.6599223357761362e-01
6172:-3.8130997485932672e-01
6173:-3.7555644410174310e-01
6174:-3.6672458157202442e-01
6175:-3.5898195201199051e-01
6176:-3.7580286143602748e-01
6177:-3.6423046513400076e-01
6178:-3.4840580065519200e-01
6179:-3.3576110355634142e-01
6180:-3.6952514612710308e-01
6181:-3.5885191923705523e-01
6182:-3.4416297101669235e-01
6183:-3.3235913237363607e-01
6184:-3.6112286335616950e-01
6185:-3.5154100832173002e-01
6186:-3.3823987193206362e-01
6187:-3.2747017148072449e-01
6188:-3.5453129346599943e-01
6189:-3.4572730327486806e-01
6190:-3.3342158414963791e-01
6191:-3.2339794407849426e-01
6192:-3.2886026799357176e-01
6193:-3.1576945834277031e-01
6194:-2.9847198095692878e-01
6195:-2.8507383118815111e-01
6196:-3.2589519817482199e-01
6197:-3.1359526009539856e-01
6198:-2.9727091904909880e-01
6199:-2.8457333867515605e-01
6200:-3.2154571555771616e-01
6201:-3.1022529059227899e-01
6202:-2.9511206709393972e-01
6203:-2.8329120069584546e-01
6204:-3.1786406568980574e-01
6205:-3.0725512500034369e-01
6206:-2.9302633878536233e-01
6207:-2.8184956954322421e-01
6208:-2.7789820297298612e-01
6209:-2.6448699502324596e-01
6210:-2.4713339271942705e-01
6211:-2.3395738273233965e-01
6212:-2.7775472730338013e-01
6213:-2.6497964450353750e-01
6214:-2.4839005101983341e-01
6215:-2.3575003023265265e-01
6216:-2.7692119557359079e-01
6217:-2.6494876761619884e-01
6218:-2.4932963814591111e-01
6219:-2.3737542776273640e-01
6220:-2.7581058645490081e-01
6221:-2.6443286499320801e-01
6222:-2.4953739105539546e-01
6223:-2.3809808961642642e-01
6224:-2.2698863084011192e-01
6225:-2.1409444776468647e-01
6226:-1.9765053617617079e-01
6227:-1.8534210845658991e-01
6228:-2.2904958691965194e-01
6229:-2.1662615685012940e-01
6230:-2.0073355978651797e-01
6231:-1.8880081004548566e-01
6232:-2.3102006808007344e-01
6233:-2.1920489859711181e-01
6234:-2.0403017692216524e-01
6235:-1.9259109087842435e-01
6236:-2.3200306140560681e-01
6237:-2.2064882941500158e-01
6238:-2.0602218156133176e-01
6239:-1.9496326820826920e-01
6240:-1.7889153966806648e-01
6241:-1.6704274511208664e-01
6242:-1.5209303096528623e-01
6243:-1.4102319112125816e-01
6244:-1.8253429403912144e-01
6245:-1.7100238958327138e-01
6246:-1.5641204181310980e-01
6247:-1.4557757404768948e-01
6248:-1.8656811628298248e-01
6249:-1.7545829088569148e-01
6250:-1.6135212935359258e-01
6251:-1.5083940594727283e-01
6252:-1.8912906319565451e-01
6253:-1.7834837189512340e-01
6254:-1.6462370195492346e-01
6255:-1.5436771806326180e-01
6256:-1.3526263984713466e-01
6257:-1.2474146054561611e-01
6258:-1.1157944692587397e-01
6259:-1.0191833428430808e-01
6260:-1.3992878477094273e-01
6261:-1.2959429048612081e-01
6262:-1.1663255901397293e-01
6263:-1.0709311458968175e-01
6264:-1.4534518881495351e-01
6265:-1.3527193229211062e-01
6266:-1.2259671089181100e-01
6267:-1.1323679936916631e-01
6268:-1.4899808389273281e-01
6269:-1.3913746901367940e-01
6270:-1.2669969337431530e-01
6271:-1.1749220110740713e-01
6272:-9.6920125584969818e-02
6273:-8.7835085611996822e-02
6274:-7.6552736982298572e-02
6275:-6.8335001182146943e-02
6276:-1.0214899318080198e-01
6277:-9.3148139882868922e-02
6278:-8.1943322643642028e-02
6279:-7.3761296820223407e-02
6280:-1.0837477557039811e-01
6281:-9.9505781625171513e-02
6282:-8.8431454000729853e-02
6283:-8.0318903096431860e-02
6284:-1.1270134417597949e-01
6285:-1.0394921306155751e-01
6286:-9.2996051517964792e-02
6287:-8.4953327588713282e-02
6288:-6.4105846529122393e-02
6289:-5.6453390471977907e-02
6290:-4.7016933234115980e-02
6291:-4.0195701311284131e-02
6292:-6.9543206464360852e-02
6293:-6.1899201165370538e-02
6294:-5.2451022177939920e-02
6295:-4.5604225707466792e-02
6296:-7.6127553403299408e-02
6297:-6.8517599802722040e-02
6298:-5.9083922744115627e-02
6299:-5.2226355498426053e-02
6300:-8.0791412380292346e-02
6301:-7.3224313010285480e-02
6302:-6.3823480716453537e-02
6303:-5.6974163449888961e-02
6304:-3.6703813970583997e-02
6305:-3.0416084816267400e-02
6306:-2.2722761814980515e-02
6307:-1.7209316756171354e-02
6308:-4.2093202460921499e-02
6309:-3.5761460626490792e-02
6310:-2.7995849923506046e-02
6311:-2.2416183349095106e-02
6312:-4.8702280628291926e-02
6313:-4.2335040894096773e-02
6314:-3.4502836113465142e-02
6315:-2.8857338861074368e-02
6316:-5.3448805636056820e-02
6317:-4.7070434617583569e-02
6318:-3.9207572854717584e-02
6319:-3.3526792192304054e-02
6320:-1.4404322267006343e-02
6321:-9.3839793195276255e-03
6322:-3.3023414535846909e-03
6323:1.0070071754556585e-03
6324:-1.9572324173305511e-02
6325:-1.4474099960294744e-02
6326:-8.2818943659358091e-03
6327:-3.8813365590676069e-03
6328:-2.5973489706690903e-02
6329:-2.0793214055371698e-02
6330:-1.4481170404429733e-02
6331:-9.9794811228248077e-03
6332:-3.0620214488161823e-02
6333:-2.5391526460768803e-02
6334:-1.9005736689904781e-02
6335:-1.4439807799980230e-02
6336:3.1811608464337566e-03
6337:7.0387128253414678e-03
6338:1.1643335979068845e-02
6339:1.4850203304441653e-02
6340:-1.6564687439897649e-03
6341:2.2989321820559598e-03
6342:7.0360126078679013e-03
6343:1.0347858775966837e-02
6344:-7.6976644883478525e-03
6345:-3.6312701711122544e-03
6346:1.2580945954939712e-03
6347:4.6920790770940708e-03
6348:-1.2121198893494381e-02
6349:-7.9821522621758897e-03
6350:-2.9914058567259327e-03
6351:5.2508271181070474e-04
6352:1.6446972671026759e-02
6353:1.9239628222084929e-02
6354:2.2489974431462372e-02
6355:2.4684584519477179e-02
6356:1.2001690922648326e-02
6357:1.4902706900589023e-02
6358:1.8296688925046208e-02
6359:2.0603022649614961e-02
6360:6.4127753069717066e-03
6361:9.4415288107861182e-03
6362:1.3006263712737789e-02
6363:1.5446464800933122e-02
6364:2.2913314179364235e-03
6365:5.4077316897453058e-03
6366:9.0907881505977728e-03
6367:1.1624594892836161e-02
6368:2.5750644600562710e-02
6369:2.7562747168074775e-02
6370:2.9562462244816297e-02
6371:3.0819429821831116e-02
6372:2.1729150964864562e-02
6373:2.3654573663233841e-02
6374:2.5803260637678401e-02
6375:2.7175281918571114e-02
6376:1.6644923078154236e-02
6377:1.8707404304453126e-02
6378:2.1037417709963976e-02
6379:2.2550329658701025e-02
6380:1.2873912445549784e-02
6381:1.5033245104133980e-02
6382:1.7492290620578846e-02
6383:1.9106120311030761e-02
6384:3.1392849064440766e-02
6385:3.2292556949078351e-02
6386:3.3124280735152278e-02
6387:3.3502281099596368e-02
6388:2.7810327863207640e-02
6389:2.8826275564989921e-02
6390:2.9810938186311354e-02
6391:3.0307237548957193e-02
6392:2.3261131015347561e-02
6393:2.4420467897324750e-02
6394:2.5594742411518205e-02
6395:2.6238415426584276e-02
6396:1.9871407482039489e-02
6397:2.1134259853776875e-02
6398:2.2446149718680263e-02
6399:2.3197322595876896e-02
6400:3.3612728077055246e-02
6401:3.3652906324078267e-02
6402:3.3380355412439590e-02
6403:3.2924399809594794e-02
6404:3.0481158756246834e-02
6405:3.0641662581794602e-02
6406:3.0528760666312396e-02
6407:3.0197386496111978e-02
6408:2.6491653389705543e-02
6409:2.6802933716941296e-02
6410:2.6890874526679154e-02
6411:2.6716807534268423e-02
6412:2.3508600801652478e-02
6413:2.3930526519071248e-02
6414:2.4166444151291211e-02
6415:2.4108709144547397e-02
6416:3.2594592265678783e-02
6417:3.1816031175270557e-02
6418:3.0489194794974576e-02
6419:2.9235380851341468e-02
6420:2.9934851436153327e-02
6421:2.9285012349825352e-02
6422:2.8131441792656149e-02
6423:2.7014769699765531e-02
6424:2.6539411601016298e-02
6425:2.6052799908331103e-02
6426:2.5119529362655716e-02
6427:2.4177648158248011e-02
6428:2.3994419582165714e-02
6429:2.3629027202265142e-02
6430:2.2859788552276588e-02
6431:2.2048358986676616e-02
6432:2.8483883378524685e-02
6433:2.6920917724651463e-02
6434:2.4584088222934501e-02
6435:2.2566291936135397e-02
6436:2.6338039441532582e-02
6437:2.4919817869800850e-02
6438:2.2781192962155295e-02
6439:2.0922842166723413e-02
6440:2.3596347259492969e-02
6441:2.2363060724954278e-02
6442:2.0478005915521638e-02
6443:1.8823860968022778e-02
6444:2.1538378277953265e-02
6445:2.0443437940921044e-02
6446:1.8748302281267868e-02
6447:1.7247255956595795e-02
6448:2.1411291593423105e-02
6449:1.9099622998905167e-02
6450:1.5803176560234583e-02
6451:1.3063342471477118e-02
6452:1.9855683965196207e-02
6453:1.7716099918203065e-02
6454:1.4659275350734595e-02
6455:1.2115155786782243e-02
6456:1.7869268952763348e-02
6457:1.5950234231847823e-02
6458:1.3200530553902514e-02
6459:1.0907241871779345e-02
6460:1.6377101529375587e-02
6461:1.4623516300984758e-02
6462:1.2104196748480919e-02
6463:9.9990431515838765e-03
6464:1.1528552513250058e-02
6465:8.5163519116694918e-03
6466:4.3310825601279137e-03
6467:9.3005705921092596e-04
6468:1.0689201965483775e-02
6469:7.8921242906205454e-03
6470:4.0100277640278785e-03
6471:8.5923695500061503e-04
6472:9.6207566535969416e-03
6473:7.0992077278658854e-03
6474:3.6050972255129289e-03
6475:7.7429069378503676e-04
6476:8.8171487852325946e-03
6477:6.5021111092920681e-03
6478:3.2985476375525062e-03
6479:7.0716458840199513e-04
6480:-7.5669434951066211e-03
6481:-3.5987789447068617e-02
6482:-7.2591791125620420e-02
6483:-1.0020295361282984e-01
6484:-7.2143557686396931e-03
6485:-3.4318971133710768e-02
6486:-6.9229912821193978e-02
6487:-9.5575410686436976e-02
6488:-6.7812695360198608e-03
6489:-3.2288321562858262e-02
6490:-6.5151779598086060e-02
6491:-8.9966914883647026e-02
6492:-6.4721465395752159e-03
6493:-3.0837959474455265e-02
6494:-6.2245403052372396e-02
6495:-8.5972799847500420e-02
6496:-1.1472187895423905e-01
6497:-1.4131251664114700e-01
6498:-1.7460790688764313e-01
6499:-1.9900002205523717e-01
6500:-1.0943633370553120e-01
6501:-1.3484628634874146e-01
6502:-1.6671158309804879e-01
6503:-1.9009233277782872e-01
6504:-1.0303054697612851e-01
6505:-1.2700403121180873e-01
6506:-1.5711998102021676e-01
6507:-1.7925852174918361e-01
6508:-9.8468494229306869e-02
6509:-1.2141481329260494e-01
6510:-1.5027409569722294e-01
6511:-1.7151775650436060e-01
6512:-2.1157080163471992e-01
6513:-2.3412684101117970e-01
6514:-2.6144856455693855e-01
6515:-2.8073971166189726e-01
6516:-2.0215498873326129e-01
6517:-2.2382999983972751e-01
6518:-2.5015157957755624e-01
6519:-2.6879460231402558e-01
6520:-1.9069605335697409e-01
6521:-2.1128726204222603e-01
6522:-2.3637722074130904e-01
6523:-2.5421927161682728e-01
6524:-1.8250464122549842e-01
6525:-2.0231393320640267e-01
6526:-2.2651246165053346e-01
6527:-2.4377085894546105e-01
6528:-2.9041923568882405e-01
6529:-3.0734040595453854e-01
6530:-3.2695283171966699e-01
6531:-3.4009025835583989e-01
6532:-2.7817210316479279e-01
6533:-2.9461231892961309e-01
6534:-3.1376610927815946e-01
6535:-3.2668130339743312e-01
6536:-2.6322166757931659e-01
6537:-2.7905749664238061e-01
6538:-2.9761776891728525e-01
6539:-3.1022707640685160e-01
6540:-2.5249786137079444e-01
6541:-2.6788519043922843e-01
6542:-2.8599386683243189e-01
6543:-2.9835884812148711e-01
6544:-3.4641700164188688e-01
6545:-3.5700538845445312e-01
6546:-3.6832286676275283e-01
6547:-3.7510605377423095e-01
6548:-3.3293517869883132e-01
6549:-3.4346712576725019e-01
6550:-3.5486116152267200e-01
6551:-3.6181223666163509e-01
6552:-3.1637049194887934e-01
6553:-3.2679033686148468e-01
6554:-3.3821869756502149e-01
6555:-3.4532936611420184e-01
6556:-3.0440791460133454e-01
6557:-3.1471647961604404e-01
6558:-3.2612630868758380e-01
6559:-3.3331789970649151e-01
6560:-3.7806076801414101e-01
6561:-3.8243729775987811e-01
6562:-3.8590670366683166e-01
6563:-3.8688322381296347e-01
6564:-3.6489277954154808e-01
6565:-3.6956166552825132e-01
6566:-3.7351871406897086e-01
6567:-3.7494858473447451e-01
6568:-3.4854003568519681e-01
6569:-3.5352468633957940e-01
6570:-3.5802817657025388e-01
6571:-3.5997661404770237e-01
6572:-3.3660442270700314e-01
6573:-3.4178452674754367e-01
6574:-3.4664213078037720e-01
6575:-3.4893466420195335e-01
6576:-3.8682389579353005e-01
6577:-3.8575256423581106e-01
6578:-3.8254245370684625e-01
6579:-3.7873646919834458e-01
6580:-3.7515783174528416e-01
6581:-3.7462738721240635e-01
6582:-3.7218772453775317e-01
6583:-3.6901723855591761e-01
6584:-3.6049569125810421e-01
6585:-3.6059201900955140e-01
6586:-3.5905062480294592e-01
6587:-3.5662554908285421e-01
6588:-3.4966128440789013e-01
6589:-3.5018024539006098e-01
6590:-3.4925014668223670e-01
6591:-3.4733680974499259e-01
6592:-3.7625164195212185e-01
6593:-3.7088090287575254e-01
6594:-3.6255720437888961e-01
6595:-3.5520973775758408e-01
6596:-3.6688495948211775e-01
6597:-3.6218840552598403e-01
6598:-3.5476437284704981e-01
6599:-3.4811977353419510e-01
6600:-3.5490853769880781e-01
6601:-3.5101058624057824e-01
6602:-3.4466041451049056e-01
6603:-3.3886023635337070e-01
6604:-3.4590653460272247e-01
6605:-3.4256313954456252e-01
6606:-3.3696409944913752e-01
6607:-3.3175807126089440e-01
6608:-3.5097109125564463e-01
6609:-3.4256206472986211e-01
6610:-3.3076365390100571e-01
6611:-3.2112150715666554e-01
6612:-3.4425924900474059e-01
6613:-3.3655574785493436e-01
6614:-3.2566567735146446e-01
6615:-3.1670834777489848e-01
6616:-3.3545564107121145e-01
6617:-3.2860495215608232e-01
6618:-3.1881713902320097e-01
6619:-3.1069444622672676e-01
6620:-3.2867532121614290e-01
6621:-3.2242839211474672e-01
6622:-3.1342462223529705e-01
6623:-3.0589870748085068e-01
6624:-3.1578775425207278e-01
6625:-3.0554421575410673e-01
6626:-2.9177140431904836e-01
6627:-2.8092811347007318e-01
6628:-3.1173451574259359e-01
6629:-3.0214971734690577e-01
6630:-2.8920197509883033e-01
6631:-2.7896437036131466e-01
6632:-3.0616068461972140e-01
6633:-2.9738425395709978e-01
6634:-2.8545452569924312e-01
6635:-2.7596828236305815e-01
6636:-3.0168078266644643e-01
6637:-2.9348665092762843e-01
6638:-2.8229415848266776e-01
6639:-2.7335484476092159e-01
6640:-2.7506103358896417e-01
6641:-2.6399295687820468e-01
6642:-2.4947577445397637e-01
6643:-2.3830677925993188e-01
6644:-2.7341028410150581e-01
6645:-2.6290709354860120e-01
6646:-2.4908216834768557e-01
6647:-2.3840953976581505e-01
6648:-2.7080381922321828e-01
6649:-2.6100587470261444e-01
6650:-2.4804928857095793e-01
6651:-2.3800257341871295e-01
6652:-2.6847492502245396e-01
6653:-2.5919360420897697e-01
6654:-2.4687627162362191e-01
6655:-2.3729287931869281e-01
6656:-2.3234881480601127e-01
6657:-2.2123796705760981e-01
6658:-2.0690209751826355e-01
6659:-1.9604598698618300e-01
6660:-2.3270390574716360e-01
6661:-2.2204227382587979e-01
6662:-2.0824535113709253e-01
6663:-1.9776690516325790e-01
6664:-2.3261635054730789e-01
6665:-2.2252550421807452e-01
6666:-2.0941754601318846e-01
6667:-1.9942514032993794e-01
6668:-2.3214403190015237e-01
6669:-2.2247895204229512e-01
6670:-2.0988793562954286e-01
6671:-2.0026254655763887e-01
6672:-1.9031288656725237e-01
6673:-1.7970913159314164e-01
6674:-1.6619083000315607e-01
6675:-1.5607477729859895e-01
6676:-1.9222272912732299e-01
6677:-1.8195061917650468e-01
6678:-1.6882114326067812e-01
6679:-1.5897038319243556e-01
6680:-1.9412527532608856e-01
6681:-1.8428393588568759e-01
6682:-1.7166324434926719e-01
6683:-1.6216266106598745e-01
6684:-1.9514799883196668e-01
6685:-1.8563480615085476e-01
6686:-1.7340443616890097e-01
6687:-1.6417470477596999e-01
6688:-1.5077344117498831e-01
6689:-1.4103006355275155e-01
6690:-1.2872453485217386e-01
6691:-1.1960305723623338e-01
6692:-1.5379915272735811e-01
6693:-1.4428014381874674e-01
6694:-1.3222979252117442e-01
6695:-1.2327603699318859e-01
6696:-1.5716430538540427e-01
6697:-1.4794531414705520e-01
6698:-1.3623996864397162e-01
6699:-1.2751614120062210e-01
6700:-1.5931088353040440e-01
6701:-1.5032672682154685e-01
6702:-1.3889412386986688e-01
6703:-1.3035428489328016e-01
6704:-1.1485280554154510e-01
6705:-1.0616811523346217e-01
6706:-9.5286487591809313e-02
6707:-8.7286468031328973e-02
6708:-1.1860565046054029e-01
6709:-1.1005478533329915e-01
6710:-9.9317550070247937e-02
6711:-9.1405914977081545e-02
6712:-1.2295647076253012e-01
6713:-1.1459322321949870e-01
6714:-1.0406273289052347e-01
6715:-9.6281432705253550e-02
6716:-1.2588406013789905e-01
6717:-1.1767382877863360e-01
6718:-1.0731488863785775e-01
6719:-9.9644254746857813e-02
6720:-8.3143211903934824e-02
6721:-7.5604536634933814e-02
6722:-6.6228478014863590e-02
6723:-5.9389098331809359e-02
6724:-8.7302210636710689e-02
6725:-7.9825505923799625e-02
6726:-7.0507372737322591e-02
6727:-6.3695515438099301e-02
6728:-9.2237628210552078e-02
6729:-8.4857617547819897e-02
6730:-7.5636158239527435e-02
6731:-6.8876661615736828e-02
6732:-9.5652328781480125e-02
6733:-8.8357859526629390e-02
6734:-7.9225785047982070e-02
6735:-7.2518389389354412e-02
6736:-5.5865991045831155e-02
6737:-4.9487110893279278e-02
6738:-4.1614814207731284e-02
6739:-3.5920388304928969e-02
6740:-6.0181386730993429e-02
6741:-5.3810433605188071e-02
6742:-4.5931903204059030e-02
6743:-4.0220554607916278e-02
6744:-6.5383090955196371e-02
6745:-5.9039039809957325e-02
6746:-5.1173834584800765e-02
6747:-4.5456700293445271e-02
6748:-6.9047024701982110e-02
6749:-6.2735689786953694e-02
6750:-5.4896412070323079e-02
6751:-4.9186803720490391e-02
6752:-3.3004397896265233e-02
6753:-2.7754851346310252e-02
6754:-2.1335955350742637e-02
6755:-1.6740345082153437e-02
6756:-3.7291480382893170e-02
6757:-3.2011227248599554e-02
6758:-2.5540884577664937e-02
6759:-2.0897506315775520e-02
6760:-4.2519165327074192e-02
6761:-3.7214738958547336e-02
6762:-3.0697450302885752e-02
6763:-2.6006780941752433e-02
6764:-4.6249113964682530e-02
6765:-4.0937862264025418e-02
6766:-3.4399491306729348e-02
6767:-2.9683707359092197e-02
6768:-1.4404485170564821e-02
6769:-1.0230997228732575e-02
6770:-5.1915208676974432e-03
6771:-1.6349151489544501e-03
6772:-1.8533407605260562e-02
6773:-1.4302842242612352e-02
6774:-9.1813712999862969e-03
6775:-5.5564147161273267e-03
6776:-2.3613690846430474e-02
6777:-1.9323029251159172e-02
6778:-1.4112606749144756e-02
6779:-1.0411729181141685e-02
6780:-2.7274222409586508e-02
6781:-2.2948178654642569e-02
6782:-1.7683001225108432e-02
6783:-1.3933826798511422e-02
6784:1.5363035986243982e-04
6785:3.3131686368405183e-03
6786:7.0548990369004956e-03
6787:9.6354389825064942e-03
6788:-3.7296100199860887e-03
6789:-4.9561687485852400e-04
6790:3.3481827525618881e-03
6791:6.0105925317992717e-03
6792:-8.5418705339395540e-03
6793:-5.2232044599601840e-03
6794:-1.2617040823646923e-03
6795:1.4962666196777056e-03
6796:-1.2036099260960702e-02
6797:-8.6618717296147035e-03
6798:-4.6217757861707100e-03
6799:-1.7990408631355231e-03
6800:1.0910253209628238e-02
6801:1.3118314660097221e-02
6802:1.5642608256391591e-02
6803:1.7307708485496825e-02
6804:7.3302626684442493e-03
6805:9.6243673482883044e-03
6806:1.2264465810207997e-02
6807:1.4020997002124676e-02
6808:2.8686725096105808e-03
6809:5.2645649822092595e-03
6810:8.0428376245035328e-03
6811:9.9093202777311672e-03
6812:-3.9058565534298863e-04
6813:2.0753985682468463e-03
6814:4.9497703445127647e-03
6815:6.8934105393098901e-03
6816:1.8100757242903463e-02
6817:1.9416491299097928e-02
6818:2.0798944793629176e-02
6819:2.1605431555119362e-02
6820:1.4863699790661237e-02
6821:1.6274270200436591e-02
6822:1.7783748150146356e-02
6823:1.8690158628279951e-02
6824:1.0812024257794085e-02
6825:1.2337688969444404e-02
6826:1.4002258329505810e-02
6827:1.5031353936963001e-02
6828:7.8384489743761002e-03
6829:9.4457088681686261e-03
6830:1.1220958138177575e-02
6831:1.2338136536678812e-02
6832:2.1946639271762654e-02
6833:2.2425731546133226e-02
6834:2.2738310054361069e-02
6835:2.2740992006721399e-02
6836:1.9085552144633915e-02
6837:1.9668342212678977e-02
6838:2.0120357282584277e-02
6839:2.0233204733674657e-02
6840:1.5493505805883732e-02
6841:1.6204441591533895e-02
6842:1.6829492274715772e-02
6843:1.7079577961558418e-02
6844:1.2848395047694430e-02
6845:1.3651970190549348e-02
6846:1.4402665041830328e-02
6847:1.4752801351558504e-02
6848:2.2659526618301187e-02
6849:2.2357265082592819e-02
6850:2.1673600208282306e-02
6851:2.0930329740300953e-02
6852:2.0211683199046458e-02
6853:2.0024858156532585e-02
6854:1.9497934948686381e-02
6855:1.8879698150382391e-02
6856:1.7132906396746739e-02
6857:1.7090499831442448e-02
6858:1.6760174885390864e-02
6859:1.6299121872632254e-02
6860:1.4860829589971583e-02
6861:1.4924168234951716e-02
6862:1.4738167581195586e-02
6863:1.4392766174895577e-02
6864:2.0457646102980433e-02
6865:1.9435097901125183e-02
6866:1.7839415168102554e-02
6867:1.6418589580765374e-02
6868:1.8475494429862790e-02
6869:1.7585941950219265e-02
6870:1.6173103202014531e-02
6871:1.4899850699430842e-02
6872:1.5981119951248707e-02
6873:1.5259124325499925e-02
6874:1.4076884038210427e-02
6875:1.2989902742142345e-02
6876:1.4138272054454077e-02
6877:1.3539821359492322e-02
6878:1.2527773332611247e-02
6879:1.1578374386111600e-02
6880:1.5592692710947471e-02
6881:1.3925828211303590e-02
6882:1.1527256243480303e-02
6883:9.5206947249367319e-03
6884:1.4155393804860477e-02
6885:1.2648107194730912e-02
6886:1.0471705726611415e-02
6887:8.6465224040139562e-03
6888:1.2348284181820855e-02
6889:1.1042493988471761e-02
6890:9.1465626885832377e-03
6891:7.5502867139996639e-03
6892:1.1012741372252801e-02
6893:9.8558154476366174e-03
6894:8.1670283787116122e-03
6895:6.7397506646161088e-03
6896:8.3936038224864847e-03
6897:6.1867312041874118e-03
6898:3.1352556373381319e-03
6899:6.6912662797245261e-04
6900:7.6202372913577662e-03
6901:5.6122429045231169e-03
6902:2.8402272670624523e-03
6903:6.0411089555979173e-04
6904:6.6511889687470961e-03
6905:4.8939547907274573e-03
6906:2.4739433502984072e-03
6907:5.2726501161926248e-04
6908:5.9345228213481078e-03
6909:4.3622255375309286e-03
6910:2.2015287969675756e-03
6911:4.6784693898179852e-04
6912:-6.3162217476988979e-03
6913:-3.0100824677603118e-02
6914:-6.0769063976869944e-02
6915:-8.3944476258780654e-02
6916:-6.0409703998267053e-03
6917:-2.8783749898134176e-02
6918:-5.8125454780703294e-02
6919:-8.0309844170296241e-02
6920:-5.7110611307771581e-03
6921:-2.7187044559560412e-02
6922:-5.4910952044672362e-02
6923:-7.5885205917685092e-02
6924:-5.4759917024129684e-03
6925:-2.6048840805033426e-02
6926:-5.2615003933273265e-02
6927:-7.2721670970465238e-02
6928:-9.6151577311449479e-02
6929:-1.1857484759587758e-01
6930:-1.4679274031740552e-01
6931:-1.6757918934594151e-01
6932:-9.1998848924381108e-02
6933:-1.1348310246694139e-01
6934:-1.4054900260560638e-01
6935:-1.6051341476781367e-01
6936:-8.6941671759756492e-02
6937:-1.0727959111344565e-01
6938:-1.3293791776277591e-01
6939:-1.5189564026438415e-01
6940:-8.3324611754518510e-02
6941:-1.0284044777053639e-01
6942:-1.2748778860881224e-01
6943:-1.4572013964681746e-01
6944:-1.7833583408343673e-01
6945:-1.9774512013758880e-01
6946:-2.2148589548666883e-01
6947:-2.3844261319793045e-01
6948:-1.7085557834621701e-01
6949:-1.8954232501667609e-01
6950:-2.1245109543352445e-01
6951:-2.2885526264881581e-01
6952:-1.6172887421495999e-01
6953:-1.7952393123113963e-01
6954:-2.0139693895005473e-01
6955:-2.1710625156975338e-01
6956:-1.5518544205669046e-01
6957:-1.7233291692221819e-01
6958:-1.9344817705749132e-01
6959:-2.0864503336808315e-01
6960:-2.4702634899751724e-01
6961:-2.6217892044207464e-01
6962:-2.8004802376333865e-01
6963:-2.9228015088667864e-01
6964:-2.3717502220242709e-01
6965:-2.5189329183615777e-01
6966:-2.6931566036887622e-01
6967:-2.8129669511866595e-01
6968:-2.2509153057597991e-01
6969:-2.3925609390447528e-01
6970:-2.5610185972456168e-01
6971:-2.6775219311353887e-01
6972:-2.1638216766163673e-01
6973:-2.3013317153957499e-01
6974:-2.4654231155640549e-01
6975:-2.5793667752973481e-01
6976:-2.9827626192334072e-01
6977:-3.0851807827161559e-01
6978:-3.1990422004519731e-01
6979:-3.2712584293087549e-01
6980:-2.8719107661186161e-01
6981:-2.9730002636449476e-01
6982:-3.0862538337585183e-01
6983:-3.1588590139291306e-01
6984:-2.7350944915121511e-01
6985:-2.8343124764798050e-01
6986:-2.9464799119227625e-01
6987:-3.0192781666896001e-01
6988:-2.6358524884221674e-01
6989:-2.7335303303287795e-01
6990:-2.8446500913678735e-01
6991:-2.9173697567358936e-01
6992:-3.3044513470964698e-01
6993:-3.3571424169191377e-01
6994:-3.4073906830857403e-01
6995:-3.4319697410784517e-01
6996:-3.1925565258644967e-01
6997:-3.2466850210876724e-01
6998:-3.2997225571858652e-01
6999:-3.3271068728625258e-01
7000:-3.0534343110612477e-01
7001:-3.1090147639292526e-01
7002:-3.1650555938838837e-01
7003:-3.1955577240051480e-01
7004:-2.9517345034834663e-01
7005:-3.0081258994020810e-01
7006:-3.0660176180524695e-01
7007:-3.0985269377462216e-01
7008:-3.4402403370279844e-01
7009:-3.4474876340621774e-01
7010:-3.4411876686794235e-01
7011:-3.4245857127871127e-01
7012:-3.3370944203586178e-01
7013:-3.3478852649226870e-01
7014:-3.3467994379520999e-01
7015:-3.3346257962240405e-01
7016:-3.2074808199912291e-01
7017:-3.2223156915433376e-01
7018:-3.2272647367194052e-01
7019:-3.2202695856849395e-01
7020:-3.1117192946334549e-01
7021:-3.1292430521849229e-01
7022:-3.1382658610598202e-01
7023:-3.1348039483712142e-01
7024:-3.4117080630269908e-01
7025:-3.3810400929583445e-01
7026:-3.3288123088036503e-01
7027:-3.2797384308732425e-01
7028:-3.3242500984639223e-01
7029:-3.2984483884845095e-01
7030:-3.2528593970540598e-01
7031:-3.2090696701716442e-01
7032:-3.2128350895757374e-01
7033:-3.1927740376303210e-01
7034:-3.1550562818195427e-01
7035:-3.1175634763035998e-01
7036:-3.1293870263974294e-01
7037:-3.1132811590610848e-01
7038:-3.0810214179478906e-01
7039:-3.0479229272276692e-01
7040:-3.2505316726884392e-01
7041:-3.1911095616487456e-01
7042:-3.1050433732048532e-01
7043:-3.0328190583011710e-01
7044:-3.1827362369862827e-01
7045:-3.1287301299981435e-01
7046:-3.0497491525302839e-01
7047:-2.9829578383624261e-01
7048:-3.0946660358987538e-01
7049:-3.0471625582823958e-01
7050:-2.9767362957989246e-01
7051:-2.9165381255482170e-01
7052:-3.0274335738593977e-01
7053:-2.9845064855307740e-01
7054:-2.9201349445134173e-01
7055:-2.8646263746677103e-01
7056:-2.9922503678018370e-01
7057:-2.9132854050851975e-01
7058:-2.8051413765391819e-01
7059:-2.7185620645515141e-01
7060:-2.9452785256326430e-01
7061:-2.8716617248791315e-01
7062:-2.7703280873129221e-01
7063:-2.6888304298376869e-01
7064:-2.8823757917078419e-01
7065:-2.8152848377261730e-01
7066:-2.7222933060301768e-01
7067:-2.6470462081671786e-01
7068:-2.8329729485095179e-01
7069:-2.7705499963621211e-01
7070:-2.6835513919140541e-01
7071:-2.6128155019396127e-01
7072:-2.6712297384923228e-01
7073:-2.5810854285024809e-01
7074:-2.4612257860764036e-01
7075:-2.3678025578004569e-01
7076:-2.6441521274434104e-01
7077:-2.5588465663661919e-01
7078:-2.4450138133393232e-01
7079:-2.3559896253645182e-01
7080:-2.6056421522089762e-01
7081:-2.5263246945253065e-01
7082:-2.4199857870991107e-01
7083:-2.3364577905778014e-01
7084:-2.5737822871296973e-01
7085:-2.4988144760341005e-01
7086:-2.3979446838506024e-01
7087:-2.3184468460101298e-01
7088:-2.3175524327847583e-01
7089:-2.2231280850095578e-01
7090:-2.0999312024564523e-01
7091:-2.0056113766503275e-01
7092:-2.3080042797710121e-01
7093:-2.2176595940256921e-01
7094:-2.0994495767984814e-01
7095:-2.0086965174471175e-01
7096:-2.2913111692713661e-01
7097:-2.2060946497274228e-01
7098:-2.0941819030792538e-01
7099:-2.0079557659055663e-01
7100:-2.2753882457483846e-01
7101:-2.1939548551441435e-01
7102:-2.0867096290807871e-01
7103:-2.0038562119676684e-01
7104:-1.9554452062966213e-01
7105:-1.8620520954423880e-01
7106:-1.7418259696043129e-01
7107:-1.6509777394868957e-01
7108:-1.9603408037110839e-01
7109:-1.8701700380355504e-01
7110:-1.7538092781100090e-01
7111:-1.6656691716318109e-01
7112:-1.9619062988293118e-01
7113:-1.8758548666933189e-01
7114:-1.7644638083526260e-01
7115:-1.6798278481296977e-01
7116:-1.9595313236048073e-01
7117:-1.8765710148567064e-01
7118:-1.7689299436262335e-01
7119:-1.6869542806424762e-01
7120:-1.6030620280831698e-01
7121:-1.5144860892457621e-01
7122:-1.4016388363466512e-01
7123:-1.3172452195385922e-01
7124:-1.6191081217189005e-01
7125:-1.5329123684364607e-01
7126:-1.4228603471608281e-01
7127:-1.3403775454473704e-01
7128:-1.6350277595607204e-01
7129:-1.5519394684125470e-01
7130:-1.4455632123919657e-01
7131:-1.3656145734557665e-01
7132:-1.6434969269379093e-01
7133:-1.5627879195406091e-01
7134:-1.4592454535307664e-01
7135:-1.3812660557356685e-01
7136:-1.2730341697504777e-01
7137:-1.1917767684977967e-01
7138:-1.0891439135295931e-01
7139:-1.0130624784244385e-01
7140:-1.2971049884057415e-01
7141:-1.2174692492816791e-01
7142:-1.1166871294563356e-01
7143:-1.0418272028481107e-01
7144:-1.3235946977496135e-01
7145:-1.2461370277541772e-01
7146:-1.1478677270470401e-01
7147:-1.0746888499804080e-01
7148:-1.3402253904553660e-01
7149:-1.2644799831503642e-01
7150:-1.1682053890396134e-01
7151:-1.0963768211411200e-01
7152:-9.7343926098896513e-02
7153:-9.0098808803955072e-02
7154:-8.1019436906217879e-02
7155:-7.4343796140471707e-02
7156:-1.0027875396973644e-01
7157:-9.3131761325234527e-02
7158:-8.4158926372621984e-02
7159:-7.7549036834385840e-02
7160:-1.0364610346748343e-01
7161:-9.6637130199249993e-02
7162:-8.7817249847507342e-02
7163:-8.1304475750018257e-02
7164:-1.0588072013295270e-01
7165:-9.8984684716981075e-02
7166:-9.0292082127040291e-02
7167:-8.3861936993779071e-02
7168:-7.0886422088794546e-02
7169:-6.4596577722096399e-02
7170:-5.6776404033712313e-02
7171:-5.1074844081392359e-02
7172:-7.4121294939177518e-02
7173:-6.7878202537801940e-02
7174:-6.0102388335033730e-02
7175:-5.4422532832117169e-02
7176:-7.7921628687398506e-02
7177:-7.1751426086906170e-02
7178:-6.4049313222333842e-02
7179:-5.8410103727652755e-02
7180:-8.0518020812867019e-02
7181:-7.4412332861982053e-02
7182:-6.6778259447608207e-02
7183:-6.1179232151070198e-02
7184:-4.8139213567766362e-02
7185:-4.2828293081822372e-02
7186:-3.6283757358985563e-02
7187:-3.1558390775896498e-02
7188:-5.1494303574508640e-02
7189:-4.6190617809584007e-02
7190:-3.9643069091744504e-02
7191:-3.4906208177280053e-02
7192:-5.5498153959051638e-02
7193:-5.0216318658982712e-02
7194:-4.3680946623211647e-02
7195:-3.8941340820658026e-02
7196:-5.8284620631309965e-02
7197:-5.3028657529325660e-02
7198:-4.6514490672710823e-02
7199:-4.1781833466830065e-02
7200:-2.9142162616774891e-02
7201:-2.4800924382311556e-02
7202:-1.9511181204275880e-02
7203:-1.5739678943919956e-02
7204:-3.2480752761007758e-02
7205:-2.8117332009220494e-02
7206:-2.2789541421547998e-02
7207:-1.8982146456202536e-02
7208:-3.6510329829669709e-02
7209:-3.2129967528813384e-02
7210:-2.6767842289403664e-02
7211:-2.2925070532375753e-02
7212:-3.9351362341154134e-02
7213:-3.4966910737591936e-02
7214:-2.9589845380541432e-02
7215:-2.5728493744457737e-02
7216:-1.3828871488256730e-02
7217:-1.0428265671534136e-02
7218:-6.3503183266942669e-03
7219:-3.4960235893581829e-03
7220:-1.7049934214271513e-02
7221:-1.3605589539640877e-02
7222:-9.4638660683053714e-03
7223:-6.5557045054253516e-03
7224:-2.0970930910018035e-02
7225:-1.7480546333596646e-02
7226:-1.3269533984878500e-02
7227:-1.0301399733584488e-02
7228:-2.3762026947828307e-02
7229:-2.0244599903163379e-02
7230:-1.5990914826222339e-02
7231:-1.2984560363137750e-02
7232:-2.0698833530850731e-03
7233:4.3068065998597474e-04
7234:3.3528219200858055e-03
7235:5.3350725736650995e-03
7236:-5.0991594330326096e-03
7237:-2.5387846308257407e-03
7238:4.6664355274484424e-04
7239:2.5166838986821439e-03
7240:-8.8105484931139677e-03
7241:-6.1819501368407127e-03
7242:-3.0801690113433345e-03
7243:-9.5075005310347592e-04
7244:-1.1471452685511059e-02
7245:-8.7979650549967169e-03
7246:-5.6316489216572925e-03
7247:-3.4482725679678607e-03
7248:6.3013803619957802e-03
7249:7.9497773966867181e-03
7250:9.7810931319608756e-03
7251:1.0943082891998263e-02
7252:3.5204901979851528e-03
7253:5.2416734050317222e-03
7254:7.1726761744072953e-03
7255:8.4146922940203858e-03
7256:9.7276973462989845e-05
7257:1.9048148592744015e-03
7258:3.9550560600384553e-03
7259:5.2934906627468761e-03
7260:-2.3699313071919633e-03
7261:-5.0277220583657886e-04
7262:1.6305762490731865e-03
7263:3.0367710797679416e-03
7264:1.1477878934395454e-02
7265:1.2328812282297805e-02
7266:1.3143934815669422e-02
7267:1.3545516673794221e-02
7268:8.9934254969201641e-03
7269:9.9293529602644780e-03
7270:1.0860464675464905e-02
7271:1.1354923077679692e-02
7272:5.9253916406414595e-03
7273:6.9645500773746873e-03
7274:8.0372432276668310e-03
7275:8.6455758112908374e-03
7276:3.7062202408743778e-03
7277:4.8185821084875497e-03
7278:5.9922257331346011e-03
7279:6.6821459514131362e-03
7280:1.3681717848374856e-02
7281:1.3799591527276665e-02
7282:1.3688150762258327e-02
7283:1.3402586728527876e-02
7284:1.1542070974838420e-02
7285:1.1758692697226453e-02
7286:1.1782492589738238e-02
7287:1.1605627925667069e-02
7288:8.8953537114956818e-03
7289:9.2336168844890827e-03
7290:9.4244570513754202e-03
7291:9.3821617746631270e-03
7292:6.9769242128073349e-03
7293:7.4027772749124801e-03
7294:7.7142355070819475e-03
7295:7.7693460595599940e-03
7296:1.3180979476249148e-02
7297:1.2646538102535304e-02
7298:1.1722720827078929e-02
7299:1.0844680672502263e-02
7300:1.1443813529317880e-02
7301:1.1025807560152850e-02
7302:1.0262577392347608e-02
7303:9.5144732419587714e-03
7304:9.2944678457989056e-03
7305:9.0209022380017614e-03
7306:8.4570471951656671e-03
7307:7.8703635335471041e-03
7308:7.7353756999115160e-03
7309:7.5665761950848764e-03
7310:7.1474448393987772e-03
7311:6.6780005192558084e-03
7312:1.0318467021348528e-02
7313:9.2387585035000486e-03
7314:7.6573900008532342e-03
7315:6.3177225836954952e-03
7316:9.0600515901624566e-03
7317:8.1209520292784502e-03
7318:6.7351229974616927e-03
7319:5.5548785633525921e-03
7320:7.5051526347934931e-03
7321:6.7407231939212190e-03
7322:5.5976537323405781e-03
7323:4.6152003145610672e-03
7324:6.3775970735414477e-03
7325:5.7400046643558029e-03
7326:4.7730808131639232e-03
7327:3.9340279930365780e-03
7328:5.5611455658250162e-03
7329:4.0846461873535805e-03
7330:2.0581665969232068e-03
7331:4.3464374916730980e-04
7332:4.8868047417584340e-03
7333:3.5844753409614077e-03
7334:1.8018025775948993e-03
7335:3.7821968831126942e-04
7336:4.0568733789852528e-03
7337:2.9703111045212087e-03
7338:1.4892338307901179e-03
7339:3.1264259007481981e-04
7340:3.4552200058650551e-03
7341:2.5248214855231876e-03
7342:1.2616636620260654e-03
7343:2.6325809175081110e-04
7344:-5.3555527814341157e-03
7345:-2.5469978395321013e-02
7346:-5.1446852077347123e-02
7347:-7.1111259165849192e-02
7348:-5.1362367029434810e-03
7349:-2.4427418576797033e-02
7350:-4.9345685594407378e-02
7351:-6.8214987766830507e-02
7352:-4.8643888406744865e-03
7353:-2.3148156637006149e-02
7354:-4.6771423195798183e-02
7355:-6.4667344004278551e-02
7356:-4.6683799135438893e-03
7357:-2.2226614656199069e-02
7358:-4.4918094791092919e-02
7359:-6.2113431716025000e-02
7360:-8.1482948033910166e-02
7361:-1.0057942837755121e-01
7362:-1.2471028125943272e-01
7363:-1.4257107565359770e-01
7364:-7.8170580938238574e-02
7365:-9.6511537751034659e-02
7366:-1.1970998252927258e-01
7367:-1.3689859824566777e-01
7368:-7.4112937152462061e-02
7369:-9.1526047473655531e-02
7370:-1.1357607822870903e-01
7371:-1.2993449836064994e-01
7372:-7.1191593423206190e-02
7373:-8.7935025148043064e-02
7374:-1.0915401487282118e-01
7375:-1.2491024500841276e-01
7376:-1.5184744161550173e-01
7377:-1.6866155326051313e-01
7378:-1.8938527972447991e-01
7379:-2.0431631083423074e-01
7380:-1.4583268656269827e-01
7381:-1.6204235495623195e-01
7382:-1.8205504165028519e-01
7383:-1.9650225692115209e-01
7384:-1.3844512168803763e-01
7385:-1.5390592415002369e-01
7386:-1.7303519557032668e-01
7387:-1.8687885697749010e-01
7388:-1.3311325670416535e-01
7389:-1.4802905362530050e-01
7390:-1.6651294773795763e-01
7391:-1.7991333140727239e-01
7392:-2.1192435434722706e-01
7393:-2.2545917726367212e-01
7394:-2.4163778505495032e-01
7395:-2.5289489408525850e-01
7396:-2.0387484322831798e-01
7397:-2.1701352076636124e-01
7398:-2.3276556789251851e-01
7399:-2.4376492977022987e-01
7400:-1.9395658102490171e-01
7401:-2.0659585923243354e-01
7402:-2.2180290361974342e-01
7403:-2.3246636795695536e-01
7404:-1.8677346749141893e-01
7405:-1.9904194126014330e-01
7406:-2.1383946690527736e-01
7407:-2.2424621336687373e-01
7408:-2.5848424687958282e-01
7409:-2.6816627100369173e-01
7410:-2.7921515795119506e-01
7411:-2.8647542560828826e-01
7412:-2.4924142191310517e-01
7413:-2.5875694221795881e-01
7414:-2.6967592756822534e-01
7415:-2.7690230615457684e-01
7416:-2.3779291833395874e-01
7417:-2.4708170818430225e-01
7418:-2.5781066291165639e-01
7419:-2.6497115157511125e-01
7420:-2.2945631158707094e-01
7421:-2.3856515710804199e-01
7422:-2.4913427445337347e-01
7423:-2.5622893229232974e-01
7424:-2.8991831480445451e-01
7425:-2.9559078035280606e-01
7426:-3.0146388640166105e-01
7427:-3.0480936474910253e-01
7428:-2.8034983098435051e-01
7429:-2.8606940235549733e-01
7430:-2.9207702418909087e-01
7431:-2.9558019959995890e-01
7432:-2.6841121031729248e-01
7433:-2.7416396585849662e-01
7434:-2.8030473086261987e-01
7435:-2.8397709556280021e-01
7436:-2.5965362382380391e-01
7437:-2.6541150744119785e-01
7438:-2.7162368228224137e-01
7439:-2.7539914020069844e-01
7440:-3.0618929234179426e-01
7441:-3.0807152020568013e-01
7442:-3.0917258561597222e-01
7443:-3.0900004067210907e-01
7444:-2.9706279978260919e-01
7445:-2.9916658612062125e-01
7446:-3.0060999564614138e-01
7447:-3.0073857880058419e-01
7448:-2.8557277977159690e-01
7449:-2.8792449277822213e-01
7450:-2.8975758970535515e-01
7451:-2.9023329364847100e-01
7452:-2.7706628540185629e-01
7453:-2.7957811725837034e-01
7454:-2.8166867463363365e-01
7455:-2.8237748121431439e-01
7456:-3.0855786286408743e-01
7457:-3.0714304935278330e-01
7458:-3.0418863451366251e-01
7459:-3.0109852064487874e-01
7460:-3.0046963653965703e-01
7461:-2.9939699257257663e-01
7462:-2.9691970496731340e-01
7463:-2.9421737603621356e-01
7464:-2.9016543239396830e-01
7465:-2.8949258080396401e-01
7466:-2.8757744461114038e-01
7467:-2.8533512059538096e-01
7468:-2.8244582994974404e-01
7469:-2.8204579548327935e-01
7470:-2.8051775783188349e-01
7471:-2.7859448366743061e-01
7472:-2.9917039295447495e-01
7473:-2.9510790163263995e-01
7474:-2.8897643748175411e-01
7475:-2.8366309183868194e-01
7476:-2.9250298527942814e-01
7477:-2.8884856872800779e-01
7478:-2.8326042844307703e-01
7479:-2.7837036481729610e-01
7480:-2.8387523168813572e-01
7481:-2.8070818197678643e-01
7482:-2.7577182224141328e-01
7483:-2.7139181264326612e-01
7484:-2.7731181298299251e-01
7485:-2.7448531641284002e-01
7486:-2.7000676122725747e-01
7487:-2.6598687542462851e-01
7488:-2.8062505242242614e-01
7489:-2.7462007955699641e-01
7490:-2.6622585308365115e-01
7491:-2.5938309414869459e-01
7492:-2.7555961269571339e-01
7493:-2.6997922743206110e-01
7494:-2.6213346935167769e-01
7495:-2.5570616416488995e-01
7496:-2.6885577645119096e-01
7497:-2.6379023419789754e-01
7498:-2.5661263489325387e-01
7499:-2.5069368122434116e-01
7500:-2.6364548009248712e-01
7501:-2.5894595012281513e-01
7502:-2.5224563699841057e-01
7503:-2.4669143603269150e-01
7504:-2.5560136233834918e-01
7505:-2.4832811695376691e-01
7506:-2.3852306020160707e-01
7507:-2.3078164971430989e-01
7508:-2.5214368442752333e-01
7509:-2.4527416179814818e-01
7510:-2.3597952341670728e-01
7511:-2.2861634772221326e-01
7512:-2.4740022272289361e-01
7513:-2.4102727883150932e-01
7514:-2.3236284523435549e-01
7515:-2.2546855972850288e-01
7516:-2.4359154275297099e-01
7517:-2.3757683821536629e-01
7518:-2.2936891490068131e-01
7519:-2.2281576062494191e-01
7520:-2.2658396198321618e-01
7521:-2.1863700235496994e-01
7522:-2.0815553845391385e-01
7523:-2.0004643589349105e-01
7524:-2.2461536793839773e-01
7525:-2.1702618858814049e-01
7526:-2.0698884958972391e-01
7527:-1.9920277379518025e-01
7528:-2.2171212582002134e-01
7529:-2.1456900415763247e-01
7530:-2.0508780764103346e-01
7531:-1.9770808244247579e-01
7532:-2.1923777628124544e-01
7533:-2.1242109854345792e-01
7534:-2.0334871224024548e-01
7535:-1.9626904314797475e-01
7536:-1.9570428306177989e-01
7537:-1.8757053388648340e-01
7538:-1.7700399706218400e-01
7539:-1.6894713098633213e-01
7540:-1.9502654848755202e-01
7541:-1.8719144594782638e-01
7542:-1.7698961002374286e-01
7543:-1.6919334659415058e-01
7544:-1.9374123396722273e-01
7545:-1.8628406200218509e-01
7546:-1.7654586255508248e-01
7547:-1.6908256895611612e-01
7548:-1.9245727498723006e-01
7549:-1.8528084571598616e-01
7550:-1.7588865832588119e-01
7551:-1.6867511903560209e-01
7552:-1.6467260570523412e-01
7553:-1.5672822099311670e-01
7554:-1.4652531439357039e-01
7555:-1.3883306545997212e-01
7556:-1.6505103727929910e-01
7557:-1.5734211403791329e-01
7558:-1.4742196579367009e-01
7559:-1.3992805658224280e-01
7560:-1.6510980084775628e-01
7561:-1.5770386426084235e-01
7562:-1.4814962102488063e-01
7563:-1.4091399904227567e-01
7564:-1.6482997692296839e-01
7565:-1.5765290184319755e-01
7566:-1.4837656295860252e-01
7567:-1.4133829772181458e-01
7568:-1.3478174643649241e-01
7569:-1.2729976210994354e-01
7570:-1.1778076259255849e-01
7571:-1.1067184531176377e-01
7572:-1.3597604309452641e-01
7573:-1.2866884295258088e-01
7574:-1.1935571268116670e-01
7575:-1.1238799652104391e-01
7576:-1.3709189914013833e-01
7577:-1.3001435343543927e-01
7578:-1.2097369238825792e-01
7579:-1.1419444948483537e-01
7580:-1.3761589537983537e-01
7581:-1.3071532413158726e-01
7582:-1.2188607655105228e-01
7583:-1.1525423110742876e-01
7584:-1.0695112040308039e-01
7585:-1.0011759742170144e-01
7586:-9.1496119432312589e-02
7587:-8.5112717335787388e-02
7588:-1.0873679538077338e-01
7589:-1.0202375736227615e-01
7590:-9.3540470448967475e-02
7591:-8.7248814582075368e-02
7592:-1.1063664421110278e-01
7593:-1.0408647762947158e-01
7594:-9.5792034557702022e-02
7595:-8.9627445537671935e-02
7596:-1.1176989675904661e-01
7597:-1.0534858521152701e-01
7598:-9.7205000155410878e-02
7599:-9.1143112719317312e-02
7600:-8.1791048767187818e-02
7601:-7.5722623092588232e-02
7602:-6.8128677360505735e-02
7603:-6.2554101644559129e-02
7604:-8.3971175650417812e-02
7605:-7.7977128523033484e-02
7606:-7.0464597670261434e-02
7607:-6.4940799975816602e-02
7608:-8.6411441762492533e-02
7609:-8.0522654127607979e-02
7610:-7.3127689098522228e-02
7611:-6.7679265586554196e-02
7612:-8.7977381483277217e-02
7613:-8.2175237925444997e-02
7614:-7.4878655828047813e-02
7615:-6.9494682990752843e-02
7616:-5.9670369995865183e-02
7617:-5.4431280571220868e-02
7618:-4.7932442963928047e-02
7619:-4.3206570580032924e-02
7620:-6.2080156488860963e-02
7621:-5.6877805711918500e-02
7622:-5.0414447636543118e-02
7623:-4.5706508651065632e-02
7624:-6.4853740460330017e-02
7625:-5.9708835262759712e-02
7626:-5.3304398961321296e-02
7627:-4.8629677846530113e-02
7628:-6.6699739455462703e-02
7629:-6.1605858058796280e-02
7630:-5.5255898494544285e-02
7631:-5.0613900152420094e-02
7632:-4.0778024035499148e-02
7633:-3.6394434446191275e-02
7634:-3.1013308846882422e-02
7635:-2.7144992215869065e-02
7636:-4.3284358881768646e-02
7637:-3.8907600099825509e-02
7638:-3.3525612892823735e-02
7639:-2.9649361349740434e-02
7640:-4.6221143758144102e-02
7641:-4.1863180157360798e-02
7642:-3.6492915609389220e-02
7643:-3.2616099955656730e-02
7644:-4.8219706131020217e-02
7645:-4.3883481971619627e-02
7646:-3.8531757657465630e-02
7647:-3.4661806943326733e-02
7648:-2.5173500408995665e-02
7649:-2.1644509925353664e-02
7650:-1.7371697941235147e-02
7651:-1.4347666149361423e-02
7652:-2.7671156603034451e-02
7653:-2.4125503977053524e-02
7654:-1.9823243333915511e-02
7655:-1.6770875363435640e-02
7656:-3.0634324220489142e-02
7657:-2.7076567054877355e-02
7658:-2.2748241779296966e-02
7659:-1.9668201937695945e-02
7660:-3.2681167178853068e-02
7661:-2.9121336893374459e-02
7662:-2.4782296533938177e-02
7663:-2.1688034086616254e-02
7664:-1.2824103067039501e-02
7665:-1.0129274618992106e-02
7666:-6.9318262698769310e-03
7667:-4.7221116789790702e-03
7668:-1.5230231436279551e-02
7669:-1.2500043560311435e-02
7670:-9.2501367258990778e-03
7671:-6.9954486740273604e-03
7672:-1.8110163261425168e-02
7673:-1.5342885254894165e-02
7674:-1.2036067152438825e-02
7675:-9.7313326920823433e-03
7676:-2.0120343903278222e-02
7677:-1.7331454502741647e-02
7678:-1.3989728687715114e-02
7679:-1.1653172361676539e-02
7680:-3.6288749675949619e-03
7681:-1.7322585223613904e-03
7682:4.4244727020192605e-04
7683:1.8825714110984287e-03
7684:-5.8765903319841868e-03
7685:-3.9289986353551066e-03
7686:-1.6821656361652726e-03
7687:-1.8247507115590162e-04
7688:-8.5835715292473629e-03
7689:-6.5778429303571606e-03
7690:-4.2475974119590403e-03
7691:-2.6782157395106487e-03
7692:-1.0486691894476641e-02
7693:-8.4427650980600146e-03
7694:-6.0567345462126006e-03
7695:-4.4400697885511884e-03
7696:2.5708900634395619e-03
7697:3.7201499353502181e-03
7698:4.9448795891957730e-03
7699:5.6762304275593239e-03
7700:5.3909869634759385e-04
7701:1.7535922756764389e-03
7702:3.0690163694476508e-03
7703:3.8741874517457726e-03
7704:-1.9174749818680426e-03
7705:-6.2573560443082536e-04
7706:7.9784245543064068e-04
7707:1.6915808440090239e-03
7708:-3.6525406295041425e-03
7709:-2.3076274548621098e-03
7710:-8.0897921867187871e-04
7711:1.4666862222724558e-04
7712:5.9939063604225488e-03
7713:6.4643956475223616e-03
7714:6.8374416323807499e-03
7715:6.9423708009200271e-03
7716:4.2327484232094134e-03
7717:4.7830633400794730e-03
7718:5.2664728438838277e-03
7719:5.4608293367981947e-03
7720:2.0993670312627554e-03
7721:2.7460389745316799e-03
7722:3.3631060678813219e-03
7723:3.6660670658231948e-03
7724:5.8900261828045768e-04
7725:1.3034978878244123e-03
7726:2.0149900220664476e-03
7727:2.3949144016357743e-03
7728:6.9359031329701542e-03
7729:6.8207609044622823e-03
7730:6.4757875683115031e-03
7731:6.0664385737305825e-03
7732:5.5037778180856475e-03
7733:5.4850885077533194e-03
7734:5.2734806624406775e-03
7735:4.9722401557755636e-03
7736:3.7691209232381603e-03
7737:3.8678271895012241e-03
7738:3.8186502531293636e-03
7739:3.6491352469408597e-03
7740:2.5406343339528709e-03
7741:2.7227313740993235e-03
7742:2.7890094992141091e-03
7743:2.7131597442732864e-03
7744:5.7992583430793009e-03
7745:5.2266658984782902e-03
7746:4.3499557742825478e-03
7747:3.5842994031823460e-03
7748:4.7648318440567800e-03
7749:4.3091332569523749e-03
7750:3.5945458487775471e-03
7751:2.9606941973043116e-03
7752:3.5145626644028450e-03
7753:3.2012015850466456e-03
7754:2.6837769745498247e-03
7755:2.2100120368925436e-03
7756:2.6303796195458521e-03
7757:2.4181401203391801e-03
7758:2.0405707375568431e-03
7759:1.6801840481151184e-03
7760:3.1461721370626781e-03
7761:2.2955978261884682e-03
7762:1.1436916721461624e-03
7763:2.3614586371046344e-04
7764:2.5955819993587238e-03
7765:1.8881454569549230e-03
7766:9.3545110550347804e-04
7767:1.9038441431881432e-04
7768:1.9334990296365068e-03
7769:1.3994703424648023e-03
7770:6.8752578626378588e-04
7771:1.3835808531958895e-04
7772:1.4663483445380675e-03
7773:1.0547542053082884e-03
7774:5.1229025255276721e-04
7775:1.0064053699572194e-04
7776:-4.5687111289400735e-03
7777:-2.1755390908254072e-02
7778:-4.3970108195476802e-02
7779:-6.0807005701681731e-02
7780:-4.3904060917084398e-03
7781:-2.0905479465606069e-02
7782:-4.2258202008549496e-02
7783:-5.8446946808647531e-02
7784:-4.1726216028483802e-03
7785:-1.9859475262451430e-02
7786:-4.0148246990175641e-02
7787:-5.5536547825513510e-02
7788:-4.0150596042767567e-03
7789:-1.9102196941278762e-02
7790:-3.8619544231653320e-02
7791:-5.3426926595818013e-02
7792:-6.9697090081604587e-02
7793:-8.6097380828923223e-02
7794:-1.0688992360668571e-01
7795:-1.2233674296020436e-01
7796:-6.6996916479236363e-02
7797:-8.2776392014562994e-02
7798:-1.0279670041100333e-01
7799:-1.1768259208443177e-01
7800:-6.3666398237176014e-02
7801:-7.8678469471737941e-02
7802:-9.7742783743088424e-02
7803:-1.1193293600263127e-01
7804:-6.1251736155059744e-02
7805:-7.5706120660987627e-02
7806:-9.4074484568801159e-02
7807:-1.0775701123491846e-01
7808:-1.3038157221222568e-01
7809:-1.4501667398542006e-01
7810:-1.6316712933177327e-01
7811:-1.7633751354896768e-01
7812:-1.2544037444953912e-01
7813:-1.3956512927579101e-01
7814:-1.5710726855153234e-01
7815:-1.6985634967610222e-01
7816:-1.1933409094729684e-01
7817:-1.3282300774431405e-01
7818:-1.4960358668688606e-01
7819:-1.6182229629203709e-01
7820:-1.1489747535481121e-01
7821:-1.2792038717626197e-01
7822:-1.4414038138935675e-01
7823:-1.5596675643274313e-01
7824:-1.8308434494987905e-01
7825:-1.9515901867180849e-01
7826:-2.0974104615035746e-01
7827:-2.2001141654830841e-01
7828:-1.7639499729053473e-01
7829:-1.8811263119475491e-01
7830:-2.0229564909631373e-01
7831:-2.1231170903148039e-01
7832:-1.6809777244975690e-01
7833:-1.7936220995455113e-01
7834:-1.9303482058778942e-01
7835:-2.0272201570750825e-01
7836:-1.6204683311186782e-01
7837:-1.7297331248634004e-01
7838:-1.8626212835065672e-01
7839:-1.9569919548436027e-01
7840:-2.2515910350866200e-01
7841:-2.3417026628556434e-01
7842:-2.4464974292628697e-01
7843:-2.5170435365475174e-01
7844:-2.1734222703406295e-01
7845:-2.2616811359602246e-01
7846:-2.3647318705112572e-01
7847:-2.4344521905198810e-01
7848:-2.0759948058278757e-01
7849:-2.1617987782917689e-01
7850:-2.2624593905782722e-01
7851:-2.3309656659204409e-01
7852:-2.0045904837845491e-01
7853:-2.0884829967528581e-01
7854:-2.1872266708079841e-01
7855:-2.2547032065018183e-01
7856:-2.5511769697518893e-01
7857:-2.6087161323763525e-01
7858:-2.6711165213651700e-01
7859:-2.7093315710243576e-01
7860:-2.4683239830235937e-01
7861:-2.5256834438109466e-01
7862:-2.5884437119137577e-01
7863:-2.6273791456665435e-01
7864:-2.3644067276300487e-01
7865:-2.4213382569559169e-01
7866:-2.4842680432972064e-01
7867:-2.5238787887642444e-01
7868:-2.2877496853713411e-01
7869:-2.3442137937210986e-01
7870:-2.4070574153258759e-01
7871:-2.4469953544887099e-01
7872:-2.7263328344683579e-01
7873:-2.7522043992521561e-01
7874:-2.7743446400818705e-01
7875:-2.7825654857121207e-01
7876:-2.6449165752064224e-01
7877:-2.6720392193587195e-01
7878:-2.6962718933539226e-01
7879:-2.7064373579631645e-01
7880:-2.5419634198736307e-01
7881:-2.5704185485265035e-01
7882:-2.5969650432280839e-01
7883:-2.6093303407582563e-01
7884:-2.4653897941042641e-01
7885:-2.4946498176222148e-01
7886:-2.5226679143392838e-01
7887:-2.5364736423525786e-01
7888:-2.7839154454971893e-01
7889:-2.7812570201758147e-01
7890:-2.7678927212471222e-01
7891:-2.7502470606312562e-01
7892:-2.7089385549167289e-01
7893:-2.7086085518356784e-01
7894:-2.6985877325423174e-01
7895:-2.6837247165497519e-01
7896:-2.6131477958936139e-01
7897:-2.6155008257106976e-01
7898:-2.6093705928813749e-01
7899:-2.5977724793315499e-01
7900:-2.5411643797932804e-01
7901:-2.5453149476450521e-01
7902:-2.5418229921891150e-01
7903:-2.5324612674965491e-01
7904:-2.7383043139384355e-01
7905:-2.7117424839266607e-01
7906:-2.6692553957206078e-01
7907:-2.6308715630229274e-01
7908:-2.6733362481445205e-01
7909:-2.6497776309347559e-01
7910:-2.6113594616233221e-01
7911:-2.5762000272142715e-01
7912:-2.5892166690090662e-01
7913:-2.5692158090928463e-01
7914:-2.5356483245331113e-01
7915:-2.5043539992698682e-01
7916:-2.5251682060270242e-01
7917:-2.5076316325791770e-01
7918:-2.4774472463084227e-01
7919:-2.4488646788682011e-01
7920:-2.6084410916092599e-01
7921:-2.5632993971155404e-01
7922:-2.4987210736405330e-01
7923:-2.4450375898997259e-01
7924:-2.5555204087742067e-01
7925:-2.5136845162379784e-01
7926:-2.4534420599610537e-01
7927:-2.4030905457813287e-01
7928:-2.4857799839790129e-01
7929:-2.4479310436975649e-01
7930:-2.3929399661734535e-01
7931:-2.3466410472067203e-01
7932:-2.4317731128422801e-01
7933:-2.3967401918720699e-01
7934:-2.3454758685518642e-01
7935:-2.3020665759816084e-01
7936:-2.4150267346126655e-01
7937:-2.3567117639329957e-01
7938:-2.2769739309512183e-01
7939:-2.2131973042492006e-01
7940:-2.3748542209545773e-01
7941:-2.3198356327465663e-01
7942:-2.2443222727376719e-01
7943:-2.1837206769301309e-01
7944:-2.3205691702599762e-01
7945:-2.2695829126200509e-01
7946:-2.1992592693967442e-01
7947:-2.1425744795423832e-01
7948:-2.2775428696210445e-01
7949:-2.2294496483672335e-01
7950:-2.1628659950688423e-01
7951:-2.1090160067804417e-01
7952:-2.1783373757930546e-01
7953:-2.1118566757758148e-01
7954:-2.0232504366156481e-01
7955:-1.9540126098354230e-01
7956:-2.1505280811193511e-01
7957:-2.0871083593638406e-01
7958:-2.0023562245887536e-01
7959:-1.9359630647632994e-01
7960:-2.1114443302000663e-01
7961:-2.0518205046731391e-01
7962:-1.9718664548633749e-01
7963:-1.9090292023660382e-01
7964:-2.0793826961798892e-01
7965:-2.0225211552351149e-01
7966:-1.9460731233486833e-01
7967:-1.8858453965485247e-01
7968:-1.9167022050671026e-01
7969:-1.8464021956341148e-01
7970:-1.7542906445170320e-01
7971:-1.6834663326320182e-01
7972:-1.9001285122500838e-01
7973:-1.8325104422347360e-01
7974:-1.7437242540031059e-01
7975:-1.6753156706255268e-01
7976:-1.8750447285265104e-01
7977:-1.8107981081736796e-01
7978:-1.7262104825429814e-01
7979:-1.6608659554751734e-01
7980:-1.8532226210524494e-01
7981:-1.7914645977166618e-01
7982:-1.7099897804657868e-01
7983:-1.6469273397383846e-01
7984:-1.6456864567945140e-01
7985:-1.5751226071481170e-01
7986:-1.4838299118952711e-01
7987:-1.4144957058111790e-01
7988:-1.6387757875740580e-01
7989:-1.5704449011408730e-01
7990:-1.4818819030918576e-01
7991:-1.4145004995278848e-01
7992:-1.6259038073884111e-01
7993:-1.5604225851759421e-01
7994:-1.4753597631817103e-01
7995:-1.4104953685845428e-01
7996:-1.6131439438737272e-01
7997:-1.5497981878838749e-01
7998:-1.4673708537538363e-01
7999:-1.4044114405898547e-01
8000:-1.3778027693513806e-01
8001:-1.3097422972394926e-01
8002:-1.2225839123668829e-01
8003:-1.1570600470568347e-01
8004:-1.3787992325634427e-01
8005:-1.3125080778777115e-01
8006:-1.2274809830315186e-01
8007:-1.1634571071839432e-01
8008:-1.3760770100386088e-01
8009:-1.3120830087755425e-01
8010:-1.2298390870630370e-01
8011:-1.1677866618568022e-01
8012:-1.3709675705565247e-01
8013:-1.3087245905776398e-01
8014:-1.2286140698984913e-01
8015:-1.1680821533390184e-01
8016:-1.1226142059349804e-01
8017:-1.0591006752732057e-01
8018:-9.7848869429591104e-02
8019:-9.1843461614667249e-02
8020:-1.1297641205356060e-01
8021:-1.0675797714389498e-01
8022:-9.8854140803506976e-02
8023:-9.2957282717065132e-02
8024:-1.1350877882688504e-01
8025:-1.0746664882041203e-01
8026:-9.9773103355287676e-02
8027:-9.4022564316022156e-02
8028:-1.1361533861133366e-01
8029:-1.0771036938750519e-01
8030:-1.0018157192043627e-01
8031:-9.4546578711389342e-02
8032:-8.8705525167276603e-02
8033:-8.2951540688185776e-02
8034:-7.5710157831943251e-02
8035:-7.0362779210177237e-02
8036:-8.9873018254918155e-02
8037:-8.4212465117377899e-02
8038:-7.7079049121563561e-02
8039:-7.1803978285828823e-02
8040:-9.1011116575778608e-02
8041:-8.5478132093339085e-02
8042:-7.8493755521538255e-02
8043:-7.3319842627992529e-02
8044:-9.1592971868916351e-02
8045:-8.6161902847565822e-02
8046:-7.9297756308332273e-02
8047:-7.4206396627469709e-02
8048:-6.7585369912797025e-02
8049:-6.2521047010259720e-02
8050:-5.6203284141641920e-02
8051:-5.1581200765803414e-02
8052:-6.9061500303261830e-02
8053:-6.4056568061447827e-02
8054:-5.7804545857501173e-02
8055:-5.3224051620582455e-02
8056:-7.0626750961953561e-02
8057:-6.5706699436563737e-02
8058:-5.9550515519087702e-02
8059:-5.5032284735983407e-02
8060:-7.1553969282092733e-02
8061:-6.6704440851970220e-02
8062:-6.0629174585807230e-02
8063:-5.6164611619234056e-02
8064:-4.9195983019994290e-02
8065:-4.4873855356990573e-02
8066:-3.9535292756670906e-02
8067:-3.5671513388698978e-02
8068:-5.0857968122318450e-02
8069:-4.6566632325231234e-02
8070:-4.1258493010416890e-02
8071:-3.7410718771549750e-02
8072:-5.2695517988990637e-02
8073:-4.8452618423496061e-02
8074:-4.3195100497198519e-02
8075:-3.9376674107704977e-02
8076:-5.3853553247049608e-02
8077:-4.9653934506426196e-02
8078:-4.4443376139654288e-02
8079:-4.0653778063077975e-02
8080:-3.3692815128496464e-02
8081:-3.0134370024814394e-02
8082:-2.5792829360116894e-02
8083:-2.2693415331060150e-02
8084:-3.5438029962670071e-02
8085:-3.1886617631018355e-02
8086:-2.7546144122608415e-02
8087:-2.4441449855000380e-02
8088:-3.7416360288448580e-02
8089:-3.3882631887347171e-02
8090:-2.9554625751789899e-02
8091:-2.6451495250262958e-02
8092:-3.8706346213181156e-02
8093:-3.5192553494992826e-02
8094:-3.0882424558207167e-02
8095:-2.7786854823042752e-02
8096:-2.1121863076336244e-02
8097:-1.8323833543629292e-02
8098:-1.4966550428793949e-02
8099:-1.2615326574100350e-02
8100:-2.2864975770580991e-02
8101:-2.0054125936954492e-02
8102:-1.6673232257302818e-02
8103:-1.4298708295271721e-02
8104:-2.4873086199855919e-02
8105:-2.2053876794202884e-02
8106:-1.8652983555406819e-02
8107:-1.6256249735153053e-02
8108:-2.6210343398958131e-02
8109:-2.3391038604040796e-02
8110:-1.9982981593071880e-02
8111:-1.7575424321848054e-02
8112:-1.1440075701013894e-02
8113:-9.3780296571040703e-03
8114:-6.9651432223350844e-03
8115:-5.3254487189343079e-03
8116:-1.3109230357212932e-02
8117:-1.1017337915825966e-02
8118:-8.5594173840058269e-03
8119:-6.8805716693477658e-03
8120:-1.5052540420759436e-02
8121:-1.2929781803895674e-02
8122:-1.0423541459143631e-02
8123:-8.7015391599459101e-03
8124:-1.6364089248801249e-02
8125:-1.4223798311547938e-02
8126:-1.1688451695727299e-02
8127:-9.9394011131199687e-03
8128:-4.5247881870572985e-03
8129:-3.1536779726027112e-03
8130:-1.6178070719732884e-03
8131:-6.3129680993886906e-04
8132:-6.0574214168149388e-03
8133:-4.6411845475467358e-03
8134:-3.0407268253100457e-03
8135:-2.0003418002382681e-03
8136:-7.8532453421866644e-03
8137:-6.3860084180466046e-03
8138:-4.7115761696871110e-03
8139:-3.6088106196445801e-03
8140:-9.0750339398211373e-03
8141:-7.5747126084573868e-03
8142:-5.8514388821874954e-03
8143:-4.7069078664758856e-03
8144:-1.7168796829683246e-04
8145:5.7679437399113878e-04
8146:1.3357329430065466e-03
8147:1.7544175767807643e-03
8148:-1.5104747555379704e-03
8149:-7.0231836243140266e-04
8150:1.4017705855637875e-04
8151:6.2729303046327818e-04
8152:-3.0836958695482650e-03
8153:-2.2057301977661788e-03
8154:-1.2649701479212504e-03
8155:-6.9702592935252559e-04
8156:-4.1580137644962401e-03
8157:-3.2327038973883754e-03
8158:-2.2248691947055433e-03
8159:-1.6014597605875332e-03
8160:1.9216514156489789e-03
8161:2.1458168982109922e-03
8162:2.2703630796103115e-03
8163:2.2417950246339177e-03
8164:8.3256142163418330e-04
8165:1.1311377142227568e-03
8166:1.3587952516685873e-03
8167:1.4139179872788511e-03
8168:-4.4672714793160095e-04
8169:-5.9977903056301028e-05
8170:2.8995257297874491e-04
8171:4.4435827882246908e-04
8172:-1.3201733564258090e-03
8173:-8.7268735066214312e-04
8174:-4.3845948036921900e-04
8175:-2.1557687938414795e-04
8176:2.1851590720643379e-03
8177:2.0239271497042239e-03
8178:1.7168168853607740e-03
8179:1.4134794293109443e-03
8180:1.4035578611872330e-03
8181:1.3325358072032441e-03
8182:1.1498605419681916e-03
8183:9.4712891418556426e-04
8184:4.8889286619350559e-04
8185:5.2472089128281210e-04
8186:4.8905532015797431e-04
8187:4.0486637514756870e-04
8188:-1.3318437628415323e-04
8189:-2.3809368127987368e-05
8190:4.1383632921734364e-05
8191:3.8248295095282449e-05
8192:1.2311530939015346e-03
8193:8.8101569371107640e-04
8194:4.2342652275273771e-04
8195:8.0491951020624080e-05
8196:8.2030988667191923e-04
8197:5.7824311416782882e-04
8198:2.6950607198361398e-04
8199:4.6776662265761654e-05
8200:3.4332407613804823e-04
8201:2.2794034095388450e-04
8202:9.2845556627186681e-05
8203:9.6900006464562420e-06
8204:2.1228513298687538e-05
8205:-8.1026683668600020e-06
8206:-2.5978654324685008e-05
8207:-1.5478763957559119e-05
8208:-3.9337655469123649e-03
8209:-1.8713094023946851e-02
8210:-3.7834072342836596e-02
8211:-5.2342713198831568e-02
8212:-3.7851766096017665e-03
8213:-1.8005983659037959e-02
8214:-3.6407338364358728e-02
8215:-5.0373239162471495e-02
8216:-3.5992481291606919e-03
8217:-1.7125846358091661e-02
8218:-3.4632241205051893e-02
8219:-4.7922628289832757e-02
8220:-3.4631129002416754e-03
8221:-1.6481838447606343e-02
8222:-3.3333293129933259e-02
8223:-4.6129058829589092e-02
8224:-6.0010579911385933e-02
8225:-7.4177839682270555e-02
8226:-9.2187424560318060e-02
8227:-1.0560782519721040e-01
8228:-5.7755828106150355e-02
8229:-7.1400762795669023e-02
8230:-8.8756816219131784e-02
8231:-1.0169905688835124e-01
8232:-5.4949901056835580e-02
8233:-6.7943513647193227e-02
8234:-8.4483070655753584e-02
8235:-9.6826683340815345e-02
8236:-5.2896016674859936e-02
8237:-6.5411918904227706e-02
8238:-8.1351512870254050e-02
8239:-9.3254379682747565e-02
8240:-1.1261349507396269e-01
8241:-1.2539507765903324e-01
8242:-1.4132402691230439e-01
8243:-1.5294613195474813e-01
8244:-1.0845858445931567e-01
8245:-1.2079898108508769e-01
8246:-1.3619480246226920e-01
8247:-1.4744184145336586e-01
8248:-1.0327759623690959e-01
8249:-1.1506383761819575e-01
8250:-1.2978790458068143e-01
8251:-1.4056054921902664e-01
8252:-9.9477742113875250e-02
8253:-1.1085458659330238e-01
8254:-1.2508065424413567e-01
8255:-1.3550014595993110e-01
8256:-1.5892425368750504e-01
8257:-1.6967385830544993e-01
8258:-1.8276064215646853e-01
8259:-1.9206500592652076e-01
8260:-1.5323239773832617e-01
8261:-1.6365564869076857e-01
8262:-1.7636762411762189e-01
8263:-1.8542405712998480e-01
8264:-1.4611313695613110e-01
8265:-1.5612055853990439e-01
8266:-1.6835124419456957e-01
8267:-1.7708616621283907e-01
8268:-1.4087499913273901e-01
8269:-1.5057056854621498e-01
8270:-1.6243767894149921e-01
8271:-1.7092752640434966e-01
8272:-1.9676203198826919e-01
8273:-2.0504834948621609e-01
8274:-2.1481767849792652e-01
8275:-2.2150714682006514e-01
8276:-1.9000300533190759e-01
8277:-1.9809457271277081e-01
8278:-2.0766231972262186e-01
8279:-2.1423735528483823e-01
8280:-1.8151074159196895e-01
8281:-1.8934529305286307e-01
8282:-1.9864171979379389e-01
8283:-2.0505766158009833e-01
8284:-1.7523355907915916e-01
8285:-1.8286899256911243e-01
8286:-1.9195137070552867e-01
8287:-1.9823818222554665e-01
8288:-2.2478862923295728e-01
8289:-2.3040550447493843e-01
8290:-2.3667810109423251e-01
8291:-2.4068301016230101e-01
8292:-2.1747193916465765e-01
8293:-2.2302589707224504e-01
8294:-2.2926465940048388e-01
8295:-2.3327997032719847e-01
8296:-2.0822464669174445e-01
8297:-2.1368250037491923e-01
8298:-2.1985512826777173e-01
8299:-2.2386445304367478e-01
8300:-2.0134864573821287e-01
8301:-2.0672255146524821e-01
8302:-2.1282837313775532e-01
8303:-2.1681879670218362e-01
8304:-2.4253532464235858e-01
8305:-2.4549700990545920e-01
8306:-2.4836713692840232e-01
8307:-2.4981621591221426e-01
8308:-2.3515038355488052e-01
8309:-2.3816697581678536e-01
8310:-2.4114833367046049e-01
8311:-2.4271208315066950e-01
8312:-2.2574715880029245e-01
8313:-2.2881285019652836e-01
8314:-2.3190762254211034e-01
8315:-2.3359506766539198e-01
8316:-2.1870264648012050e-01
8317:-2.2178950302869849e-01
8318:-2.2494806336138373e-01
8319:-2.2671142991848767e-01
8320:-2.5032726280664097e-01
8321:-2.5082939937074356e-01
8322:-2.5060924459287237e-01
8323:-2.4978331423646583e-01
8324:-2.4329422155266175e-01
8325:-2.4394514360253255e-01
8326:-2.4394770790415576e-01
8327:-2.4331352041176241e-01
8328:-2.3425564885243455e-01
8329:-2.3507339931642102e-01
8330:-2.3533021931743567e-01
8331:-2.3491785113019253e-01
8332:-2.2742171324976651e-01
8333:-2.2834743256449244e-01
8334:-2.2877259210380205e-01
8335:-2.2850949298908207e-01
8336:-2.4911653444535845e-01
8337:-2.4748535925011023e-01
8338:-2.4463589272884362e-01
8339:-2.4191364174539853e-01
8340:-2.4275594452168242e-01
8341:-2.4133941077156479e-01
8342:-2.3878739418485687e-01
8343:-2.3630552636855673e-01
8344:-2.3448749883347703e-01
8345:-2.3332245986948708e-01
8346:-2.3112163421602708e-01
8347:-2.2892551478876771e-01
8348:-2.2816547662565484e-01
8349:-2.2717228390618494e-01
8350:-2.2521361390748795e-01
8351:-2.2321610281617946e-01
8352:-2.4027901770012605e-01
8353:-2.3691763813154509e-01
8354:-2.3197966643170120e-01
8355:-2.2778536325394877e-01
8356:-2.3480296150832725e-01
8357:-2.3169364210368143e-01
8358:-2.2709156565960209e-01
8359:-2.2315943542960132e-01
8360:-2.2758058683471150e-01
8361:-2.2477334951266204e-01
8362:-2.2057606721443851e-01
8363:-2.1696149432556641e-01
8364:-2.2198127006326221e-01
8365:-2.1938594892900443e-01
8366:-2.1547437198083902e-01
8367:-2.1208516846928746e-01
8368:-2.2541172605323984e-01
8369:-2.2074983869023992e-01
8370:-2.1428264364849456e-01
8371:-2.0904296417174584e-01
8372:-2.2092685862532765e-01
8373:-2.1652960011316791e-01
8374:-2.1040646012794251e-01
8375:-2.0542901818850257e-01
8376:-2.1490031301557921e-01
8377:-2.1082552752451678e-01
8378:-2.0512345647509628e-01
8379:-2.0046832665554656e-01
8380:-2.1014603664807208e-01
8381:-2.0630161944136571e-01
8382:-2.0090177883373697e-01
8383:-1.9647907614504781e-01
8384:-2.0615650739546418e-01
8385:-2.0061248221368982e-01
8386:-1.9314859231608170e-01
8387:-1.8726087088088311e-01
8388:-2.0268153372371406e-01
8389:-1.9739491862510208e-01
8390:-1.9025958862981102e-01
8391:-1.8461781884171818e-01
8392:-1.9789213718929954e-01
8393:-1.9292371197619637e-01
8394:-1.8619626290660365e-01
8395:-1.8086112362850337e-01
8396:-1.9402679203838766e-01
8397:-1.8928922530784059e-01
8398:-1.8285903399944234e-01
8399:-1.7774834616386845e-01
8400:-1.8406920695846152e-01
8401:-1.7802270386668598e-01
8402:-1.7003742669596184e-01
8403:-1.6385045705661128e-01
8404:-1.8155499234097405e-01
8405:-1.7574481494040284e-01
8406:-1.6805680770398118e-01
8407:-1.6208904770973886e-01
8408:-1.7795937141148205e-01
8409:-1.7244545182841708e-01
8410:-1.6513165518895984e-01
8411:-1.5944103584897512e-01
8412:-1.7496483910702415e-01
8413:-1.6966902030640427e-01
8414:-1.6263190887333162e-01
8415:-1.5714711828830569e-01
8416:-1.6053385136912354e-01
8417:-1.5431134037602731e-01
8418:-1.4620735047645605e-01
8419:-1.4001203556650657e-01
8420:-1.5888612086588633e-01
8421:-1.5287037028853390e-01
8422:-1.4502314168896283e-01
8423:-1.3901464693627241e-01
8424:-1.5638225631716865e-01
8425:-1.5062945473604433e-01
8426:-1.4311025705697550e-01
8427:-1.3734158238257932e-01
8428:-1.5419572014544075e-01
8429:-1.4863938570781149e-01
8430:-1.4136640866210587e-01
8431:-1.3577860070390435e-01
8432:-1.3671924562816742e-01
8433:-1.3058787130978930e-01
8434:-1.2269044391011144e-01
8435:-1.1671855229565119e-01
8436:-1.3581786427987289e-01
8437:-1.2985976442308614e-01
8438:-1.2217493366660349e-01
8439:-1.1635572143980732e-01
8440:-1.3426845027645729e-01
8441:-1.2853422778642848e-01
8442:-1.2112546646888132e-01
8443:-1.1550559718587138e-01
8444:-1.3279902610288205e-01
8445:-1.2723473366131102e-01
8446:-1.2003656287393753e-01
8447:-1.1456956461357425e-01
8448:-1.1356696710459148e-01
8449:-1.0773573994512216e-01
8450:-1.0029590681314896e-01
8451:-9.4723617850043615e-02
8452:-1.1328188481551678e-01
8453:-1.0758986508420623e-01
8454:-1.0031867501961189e-01
8455:-9.4865802306709393e-02
8456:-1.1253366131093717e-01
8457:-1.0702477577997947e-01
8458:-9.9976777598295347e-02
8459:-9.4682995230275332e-02
8460:-1.1167606408223978e-01
8461:-1.0630864951549467e-01
8462:-9.9434055700291360e-02
8463:-9.4264646845800867e-02
8464:-9.1801513528826081e-02
8465:-8.6426147029459180e-02
8466:-7.9628099548601922e-02
8467:-7.4582438034165754e-02
8468:-9.2003894749676435e-02
8469:-8.6735316688993577e-02
8470:-8.0064679127479360e-02
8471:-7.5107659358337589e-02
8472:-9.1901665695872090e-02
8473:-8.6776693650215994e-02
8474:-8.0278697656075843e-02
8475:-7.5442832716187402e-02
8476:-9.1546590746267198e-02
8477:-8.6534869945646201e-02
8478:-8.0173976665872337e-02
8479:-7.5435083493073332e-02
8480:-7.1952638438573094e-02
8481:-6.7142557978276188e-02
8482:-6.1112968835219758e-02
8483:-5.6679047988346991e-02
8484:-7.2521959220328544e-02
8485:-6.7789122562154774e-02
8486:-6.1849705852101956e-02
8487:-5.7476883280873935e-02
8488:-7.2917795673658511e-02
8489:-6.8291892985956434e-02
8490:-6.2478666159416579e-02
8491:-5.8192463830722331e-02
8492:-7.2958879900193299e-02
8493:-6.8419544121676820e-02
8494:-6.2709439798349920e-02
8495:-5.8494810775060038e-02
8496:-5.4382804024062176e-02
8497:-5.0208371940399302e-02
8498:-4.5025658280362424e-02
8499:-4.1253616716768401e-02
8500:-5.5210413399621676e-02
8501:-5.1087025193165055e-02
8502:-4.5961623119779450e-02
8503:-4.2226489812802713e-02
8504:-5.5968634085879237e-02
8505:-5.1919115045246288e-02
8506:-4.6878236561331020e-02
8507:-4.3198903148108564e-02
8508:-5.6306512214552726e-02
8509:-5.2319076952779708e-02
8510:-4.7350318743926173e-02
8511:-4.3719513176656240e-02
8512:-3.9314227888773472e-02
8513:-3.5813275227903049e-02
8514:-3.1515568654294536e-02
8515:-2.8426246059130959e-02
8516:-4.0304330831506682e-02
8517:-3.6831507674894633e-02
8518:-3.2562411745525384e-02
8519:-2.9488892343193174e-02
8520:-4.1303350088254483e-02
8521:-3.7875024989647385e-02
8522:-3.3653512204668272e-02
8523:-3.0608515712855205e-02
8524:-4.1847462696555392e-02
8525:-3.8459125276765253e-02
8526:-3.4281826203508572e-02
8527:-3.1264665598196455e-02
8528:-2.6851925912875198e-02
8529:-2.4034776105770515e-02
8530:-2.0625760081284968e-02
8531:-1.8214609236009042e-02
8532:-2.7920862026205345e-02
8533:-2.5111839424203222e-02
8534:-2.1706337533344878e-02
8535:-1.9292500137997385e-02
8536:-2.9052913871219298e-02
8537:-2.6262415988453157e-02
8538:-2.2871815991007117e-02
8539:-2.0462356574333724e-02
8540:-2.9721782714963799e-02
8541:-2.6951476604795653e-02
8542:-2.3580109749221922e-02
8543:-2.1179978542451471e-02
8544:-1.7000362753446421e-02
8545:-1.4852881664324963e-02
8546:-1.2304815091340661e-02
8547:-1.0543475793384632e-02
8548:-1.8074945332183973e-02
8549:-1.5918005624740082e-02
8550:-1.3351313233263834e-02
8551:-1.1570916916031551e-02
8552:-1.9244674993137673e-02
8553:-1.7083239911569553e-02
8554:-1.4502449565237824e-02
8555:-1.2704982851247553e-02
8556:-1.9965375408113360e-02
8557:-1.7806443129076692e-02
8558:-1.5222586665284333e-02
8559:-1.3417950174166450e-02
8560:-9.6716715130321287e-03
8561:-8.1558399803938822e-03
8562:-6.4093163476044903e-03
8563:-5.2446686398833460e-03
8564:-1.0687285180441482e-02
8565:-9.1463524518237641e-03
8566:-7.3614508850139053e-03
8567:-6.1631020723602534e-03
8568:-1.1810064780806559e-02
8569:-1.0244179969443332e-02
8570:-8.4194315954559847e-03
8571:-7.1849948157747204e-03
8572:-1.2517527795341172e-02
8573:-1.0938436426312311e-02
8574:-9.0909065068839855e-03
8575:-7.8347902539524800e-03
8576:-4.6842488670914570e-03
8577:-3.7358928895435805e-03
8578:-2.6952368260055449e-03
8579:-2.0445719355349523e-03
8580:-5.5832228435693876e-03
8581:-4.5957500286962502e-03
8582:-3.4990272631338429e-03
8583:-2.8015627776489865e-03
8584:-6.5839486415200784e-03
8585:-5.5534762803679709e-03
8586:-4.3943450768546711e-03
8587:-3.6442682719613415e-03
8588:-7.2207234557226099e-03
8589:-6.1633882869950715e-03
8590:-4.9645655141047412e-03
8591:-4.1805629159634237e-03
8592:-1.7480242132699878e-03
8593:-1.2706022330572014e-03
8594:-7.9479885150257926e-04
8595:-5.3813273202916046e-04
8596:-2.4787385948400391e-03
8597:-1.9497217297972159e-03
8598:-1.4021988316050044e-03
8599:-1.0872264313775853e-03
8600:-3.2917500500588429e-03
8601:-2.7043143964800040e-03
8602:-2.0754459095467257e-03
8603:-1.6942779830350506e-03
8604:-3.8087607933975460e-03
8605:-3.1832857966607826e-03
8606:-2.5013233285245393e-03
8607:-2.0768924504983464e-03
8608:-4.3706459090291495e-04
8609:-2.9146549331752922e-04
8610:-1.7673005748986353e-04
8611:-1.4016195281632836e-04
8612:-9.5392784384787203e-04
8613:-7.4592506983382203e-04
8614:-5.4610276671607488e-04
8615:-4.4156115863919356e-04
8616:-1.5243898748568715e-03
8617:-1.2457781217720587e-03
8618:-9.5022888152585525e-04
8619:-7.6966823166257599e-04
8620:-1.8830918680662390e-03
8621:-1.5585382830006298e-03
8622:-1.2011816583703263e-03
8623:-9.7193720186910962e-04
8624:-1.3541725101486713e-04
8625:-1.2282420847055408e-04
8626:-8.3888248351202431e-05
8627:-2.8227469022370224e-05
8628:-3.9964199349260823e-04
8629:-3.1572977398296523e-04
8630:-1.8076788735311967e-04
8631:-4.9270809961331425e-05
8632:-6.8635971599379810e-04
8633:-5.2367403265505858e-04
8634:-2.8401357688435962e-04
8635:-7.0932341475227643e-05
8636:-8.6228668608061168e-04
8637:-6.5004225504993059e-04
8638:-3.4576621275977362e-04
8639:-8.3358482230796646e-05
8640:-3.3928841110829706e-03
8641:-1.6148768652603285e-02
8642:-3.2661252708899809e-02
8643:-4.5200967308363316e-02
8644:-3.2649150307298641e-03
8645:-1.5539749070966244e-02
8646:-3.1431743003140514e-02
8647:-4.3502659123067389e-02
8648:-3.1044798177416255e-03
8649:-1.4773848739460804e-02
8650:-2.9884550308014762e-02
8651:-4.1364916247730199e-02
8652:-2.9857321655492762e-03
8653:-1.4206820097731996e-02
8654:-2.8738723835235812e-02
8655:-3.9781326440616056e-02
8656:-5.1833130273422609e-02
8657:-6.4101495703277278e-02
8658:-7.9729844677487546e-02
8659:-9.1403779385910267e-02
8660:-4.9887982177197296e-02
8661:-6.1702780403449252e-02
8662:-7.6760243688606372e-02
8663:-8.8013802117286141e-02
8664:-4.7439178527632055e-02
8665:-5.8681875430527185e-02
8666:-7.3018124166818757e-02
8667:-8.3739695669836647e-02
8668:-4.5624893620193674e-02
8669:-5.6442886489165407e-02
8670:-7.0242859963383752e-02
8671:-8.0568152346317271e-02
8672:-9.7508838162906133e-02
8673:-1.0867254058907971e-01
8674:-1.2263869909284809e-01
8675:-1.3287333845216942e-01
8676:-9.3901441666383867e-02
8677:-1.0467290225791848e-01
8678:-1.1815964955441427e-01
8679:-1.2805242433965205e-01
8680:-8.9351832684582966e-02
8681:-9.9625284069081763e-02
8682:-1.1250131275616289e-01
8683:-1.2195694467162541e-01
8684:-8.5974791252097713e-02
8685:-9.5876068630519937e-02
8686:-1.0829423346135718e-01
8687:-1.1742095807452596e-01
8688:-1.3815494785417029e-01
8689:-1.4768649225431424e-01
8690:-1.5936151820854949e-01
8691:-1.6772117843247389e-01
8692:-1.3316124902530216e-01
8693:-1.4238818860186570e-01
8694:-1.5370512477658413e-01
8695:-1.6182090936570881e-01
8696:-1.2684420662142826e-01
8697:-1.3567928729274875e-01
8698:-1.4653290490394735e-01
8699:-1.5433087883540864e-01
8700:-1.2214106890808853e-01
8701:-1.3067956317616941e-01
8702:-1.4118048353004947e-01
8703:-1.4873480421227089e-01
8704:-1.7196395932842357e-01
8705:-1.7949255416907678e-01
8706:-1.8845878786077228e-01
8707:-1.9467433891674032e-01
8708:-1.6594472702868435e-01
8709:-1.7327135164239721e-01
8710:-1.8201582208709444e-01
8711:-1.8809333648406823e-01
8712:-1.5829875374489341e-01
8713:-1.6535869804499354e-01
8714:-1.7380627149698816e-01
8715:-1.7969536921422663e-01
8716:-1.5258243709674316e-01
8717:-1.5943535335394335e-01
8718:-1.6764951010410820e-01
8719:-1.7338792255669733e-01
8720:-1.9775308164109487e-01
8721:-2.0307876366555544e-01
8722:-2.0914353456007670e-01
8723:-2.1311905478933393e-01
8724:-1.9110978304015069e-01
8725:-1.9633901252028574e-01
8726:-2.0231754498193444e-01
8727:-2.0625698029826595e-01
8728:-1.8262524990317730e-01
8729:-1.8771732070090152e-01
8730:-1.9356593825733168e-01
8731:-1.9744299730993917e-01
8732:-1.7624750919976837e-01
8733:-1.8122604458723315e-01
8734:-1.8696221200078986e-01
8735:-1.9078017884283968e-01
8736:-2.1500072304145793e-01
8737:-2.1809330998608917e-01
8738:-2.2127807408329331e-01
8739:-2.2307554784430586e-01
8740:-2.0812986953609366e-01
8741:-2.1122389901091432e-01
8742:-2.1444474490918972e-01
8743:-2.1629550860374863e-01
8744:-1.9929561780266314e-01
8745:-2.0237402318444772e-01
8746:-2.0561734639493887e-01
8747:-2.0751751251175377e-01
8748:-1.9261077287095094e-01
8749:-1.9566431994756545e-01
8750:-1.9890678494128244e-01
8751:-2.0083003313938727e-01
8752:-2.2380881426587954e-01
8753:-2.2478537199365634e-01
8754:-2.2529128888070879e-01
8755:-2.2510072618314961e-01
8756:-2.1706597395052052e-01
8757:-2.1812655523866320e-01
8758:-2.1876876801695389e-01
8759:-2.1870237481477162e-01
8760:-2.0832537375944488e-01
8761:-2.0947421316061163e-01
8762:-2.1026562323323977e-01
8763:-2.1033882006175394e-01
8764:-2.0165838087422708e-01
8765:-2.0285918773920733e-01
8766:-2.0374396114407861e-01
8767:-2.0390772931796639e-01
8768:-2.2479893954350635e-01
8769:-2.2389025377132848e-01
8770:-2.2205149887926351e-01
8771:-2.2015293272008452e-01
8772:-2.1847339865423210e-01
8773:-2.1771127320585207e-01
8774:-2.1608202403497803e-01
8775:-2.1435738005062746e-01
8776:-2.1019277531698993e-01
8777:-2.0959933035893097e-01
8778:-2.0821431059603734e-01
8779:-2.0669451949019801e-01
8780:-2.0381641601868999e-01
8781:-2.0333575201007584e-01
8782:-2.0211658551948289e-01
8783:-2.0073762210023752e-01
8784:-2.1897314596184114e-01
8785:-2.1648411892062402e-01
8786:-2.1271647006187511e-01
8787:-2.0944124093235461e-01
8788:-2.1327468882145975e-01
8789:-2.1097372616753521e-01
8790:-2.0746179666764888e-01
8791:-2.0438984447771913e-01
8792:-2.0572685974552096e-01
8793:-2.0364984136294909e-01
8794:-2.0044455163312172e-01
8795:-1.9761790328742215e-01
8796:-1.9984958111954484e-01
8797:-1.9792848969988297e-01
8798:-1.9493843101181854e-01
8799:-1.9228520794344686e-01
8800:-2.0756397874505783e-01
8801:-2.0383661027886152e-01
8802:-1.9859085250077294e-01
8803:-1.9428703802443931e-01
8804:-2.0262319273950813e-01
8805:-1.9910557955475022e-01
8806:-1.9413688223134382e-01
8807:-1.9004753122661350e-01
8808:-1.9598525622524404e-01
8809:-1.9272273579449581e-01
8810:-1.8809281730846766e-01
8811:-1.8426703713989714e-01
8812:-1.9074771984136835e-01
8813:-1.8766710838115117e-01
8814:-1.8328020410601811e-01
8815:-1.7964452153262533e-01
8816:-1.9189826940877602e-01
8817:-1.8727929022905751e-01
8818:-1.8100226060875915e-01
8819:-1.7600756544990789e-01
8820:-1.8777357282408322e-01
8821:-1.8336937168524264e-01
8822:-1.7737054370551214e-01
8823:-1.7258714173999906e-01
8824:-1.8213462975961819e-01
8825:-1.7799605247951961e-01
8826:-1.7234286377704255e-01
8827:-1.6782315809286805e-01
8828:-1.7761455462312725e-01
8829:-1.7366885205010862e-01
8830:-1.6826787179274341e-01
8831:-1.6394150353614173e-01
8832:-1.7328528424104600e-01
8833:-1.6810261553251679e-01
8834:-1.6120947423512363e-01
8835:-1.5583210882000001e-01
8836:-1.6997660217371796e-01
8837:-1.6500084057158726e-01
8838:-1.5837173311612426e-01
8839:-1.5319195814011205e-01
8840:-1.6535248813573980e-01
8841:-1.6063649452680934e-01
8842:-1.5434036576150348e-01
8843:-1.4941089041555125e-01
8844:-1.6157370462316542e-01
8845:-1.5704936136586767e-01
8846:-1.5100003324431086e-01
8847:-1.4625692337467533e-01
8848:-1.5293686916078625e-01
8849:-1.4748348849263518e-01
8850:-1.4033993043144044e-01
8851:-1.3484748764225166e-01
8852:-1.5040021454931610e-01
8853:-1.4513693302394942e-01
8854:-1.3823304106735082e-01
8855:-1.3291773565672710e-01
8856:-1.4675063945529662e-01
8857:-1.4172958454989107e-01
8858:-1.3513243718113127e-01
8859:-1.3004488140960868e-01
8860:-1.4369487111865828e-01
8861:-1.3885525002736562e-01
8862:-1.3248890051614498e-01
8863:-1.2757349218724603e-01
8864:-1.3191734773336908e-01
8865:-1.2644303269232290e-01
8866:-1.1935673384332014e-01
8867:-1.1397122595150375e-01
8868:-1.3007960847360106e-01
8869:-1.2477311226933274e-01
8870:-1.1789613384207298e-01
8871:-1.1266361042969925e-01
8872:-1.2732542333222124e-01
8873:-1.2223602812790012e-01
8874:-1.1563112201230377e-01
8875:-1.1059842476371576e-01
8876:-1.2494400854727875e-01
8877:-1.2001972010159953e-01
8878:-1.1362269104352640e-01
8879:-1.0874340265311079e-01
8880:-1.1111963681704487e-01
8881:-1.0582799173987001e-01
8882:-9.9046610448289038e-02
8883:-9.3944321501524444e-02
8884:-1.0989088432977168e-01
8885:-1.0474213080074289e-01
8886:-9.8137156145016377e-02
8887:-9.3162374043289684e-02
8888:-1.0792905532600973e-01
8889:-1.0296818707242095e-01
8890:-9.6596356767487485e-02
8891:-9.1791012427407254e-02
8892:-1.0615363931683897e-01
8893:-1.0133794146821144e-01
8894:-9.5147140500565039e-02
8895:-9.0474042954561046e-02
8896:-9.1260506649771256e-02
8897:-8.6310238755127666e-02
8898:-8.0024064607586570e-02
8899:-7.5338275013350692e-02
8900:-9.0543780058568751e-02
8901:-8.5710868233022264e-02
8902:-7.9567978730467254e-02
8903:-7.4984489900975518e-02
8904:-8.9259417745588737e-02
8905:-8.4583629615621311e-02
8906:-7.8633710330993783e-02
8907:-7.4188881749085833e-02
8908:-8.8010595433018382e-02
8909:-8.3458311766830592e-02
8910:-7.7660905763763638e-02
8911:-7.3326313708719087e-02
8912:-7.2888906883431734e-02
8913:-6.8397304455725741e-02
8914:-6.2744383627276093e-02
8915:-5.8569702419127394e-02
8916:-7.2586988886935003e-02
8917:-6.8187941302013874e-02
8918:-6.2646485690027662e-02
8919:-5.8550143603439457e-02
8920:-7.1862003714054046e-02
8921:-6.7589540767502204e-02
8922:-6.2201638482301348e-02
8923:-5.8214097737633919e-02
8924:-7.1055815041618897e-02
8925:-6.6884813765246118e-02
8926:-6.1620789121499070e-02
8927:-5.7721656072291759e-02
8928:-5.6401332199443835e-02
8929:-5.2448889343724624e-02
8930:-4.7521127654923764e-02
8931:-4.3918197182967279e-02
8932:-5.6421028986790946e-02
8933:-5.2537825539809006e-02
8934:-4.7691808734556487e-02
8935:-4.4144977062697759e-02
8936:-5.6139830115620099e-02
8937:-5.2353942742574787e-02
8938:-4.7623975723325662e-02
8939:-4.4157735422555439e-02
8940:-5.5692187651849002e-02
8941:-5.1986197340223153e-02
8942:-4.7352324159138509e-02
8943:-4.3953480141367983e-02
8944:-4.2059759825839767e-02
8945:-3.8694791874313399e-02
8946:-3.4543768916681351e-02
8947:-3.1543538435962110e-02
8948:-4.2314135934693416e-02
8949:-3.8996907561977302e-02
8950:-3.4900322853572502e-02
8951:-3.1935830642388703e-02
8952:-4.2366902435765671e-02
8953:-3.9119545996582718e-02
8954:-3.5104002004841241e-02
8955:-3.2193884172323065e-02
8956:-4.2196355561541291e-02
8957:-3.9008320625270036e-02
8958:-3.5062504597508468e-02
8959:-3.2199950923513687e-02
8960:-3.0008554568724709e-02
8961:-2.7251113885717410e-02
8962:-2.3892742034512533e-02
8963:-2.1499682514185593e-02
8964:-3.0417793757954163e-02
8965:-2.7688487992746962e-02
8966:-2.4359715435152998e-02
8967:-2.1983920028108582e-02
8968:-3.0702104588718179e-02
8969:-2.8017299491082365e-02
8970:-2.4737320663108440e-02
8971:-2.2391843416102845e-02
8972:-3.0731448124149255e-02
8973:-2.8086673388369180e-02
8974:-2.4851824401012284e-02
8975:-2.2535505184243951e-02
8976:-2.0287837249494921e-02
8977:-1.8132332260669036e-02
8978:-1.5549566778055027e-02
8979:-1.3743192402143776e-02
8980:-2.0779375968762448e-02
8981:-1.8634287519846453e-02
8982:-1.6058757845897921e-02
8983:-1.4253087972768910e-02
8984:-2.1200973354294234e-02
8985:-1.9077247614912338e-02
8986:-1.6521270369696667e-02
8987:-1.4724242259865867e-02
8988:-2.1358266170907698e-02
8989:-1.9256813914676534e-02
8990:-1.6723491925270666e-02
8991:-1.4938939205923199e-02
8992:-1.2840945039119825e-02
8993:-1.1256900295228328e-02
8994:-9.3999622135598811e-03
8995:-8.1343981198234144e-03
8996:-1.3349525352170336e-02
8997:-1.1760149566011544e-02
8998:-9.8907454158848503e-03
8999:-8.6114437574563597e-03
9000:-1.3823068938083600e-02
9001:-1.2234446100488927e-02
9002:-1.0358853322864523e-02
9003:-9.0693690639082197e-03
9004:-1.4042706037317419e-02
9005:-1.2460492119953870e-02
9006:-1.0587767792259360e-02
9007:-9.2963182453478892e-03
9008:-7.5145198382208277e-03
9009:-6.4450132902936341e-03
9010:-5.2279006429304517e-03
9011:-4.4280665016825788e-03
9012:-7.9827947743637984e-03
9013:-6.8945004881245039e-03
9014:-5.6484571369576327e-03
9015:-4.8231317620284894e-03
9016:-8.4334127639308001e-03
9017:-7.3284448207725185e-03
9018:-6.0550588837543478e-03
9019:-5.2045944477090589e-03
9020:-8.6578778102272911e-03
9021:-7.5460272106661602e-03
9022:-6.2594906155662234e-03
9023:-5.3958357004145656e-03
9024:-4.0472079128296102e-03
9025:-3.4038250674361774e-03
9026:-2.6968130919630879e-03
9027:-2.2519456011453293e-03
9028:-4.4275608254318172e-03
9029:-3.7549804297008246e-03
9030:-3.0069826948963380e-03
9031:-2.5286010378273941e-03
9032:-4.7942157798368471e-03
9033:-4.0919976297646328e-03
9034:-3.3020479606165887e-03
9035:-2.7891738912700385e-03
9036:-4.9773863823157176e-03
9037:-4.2587595906370089e-03
9038:-3.4452267779732158e-03
9039:-2.9127681810468733e-03
9040:-2.0468490890948898e-03
9041:-1.7006760479224600e-03
9042:-1.3144300273833589e-03
9043:-1.0625959326360256e-03
9044:-2.3049719880828016e-03
9045:-1.9234898563519711e-03
9046:-1.4904555145784685e-03
9047:-1.2023788055649605e-03
9048:-2.5464465853354966e-03
9049:-2.1289232658849282e-03
9050:-1.6489895410958602e-03
9051:-1.3253410343475032e-03
9052:-2.6591687503843089e-03
9053:-2.2214502526744155e-03
9054:-1.7160492513556248e-03
9055:-1.3738148221448423e-03
9056:-9.4079176102195093e-04
9057:-7.0592976531297315e-04
9058:-3.7270913832376925e-04
9059:-8.8657972896629295e-05
9060:-1.0612220558586145e-03
9061:-7.9087416756638677e-04
9062:-4.1340157491424542e-04
9063:-9.7231208299624326e-05
9064:-1.1655174362967956e-03
9065:-8.6212795040460980e-04
9066:-4.4609468524989477e-04
9067:-1.0420258981834576e-04
9068:-1.2045610080643914e-03
9069:-8.8566821696347902e-04
9070:-4.5428567146450142e-04
9071:-1.0467011256978856e-04
9072:-2.9236799731104488e-03
9073:-1.3910992669605776e-02
9074:-2.8140912150974785e-02
9075:-3.8954997507624024e-02
9076:-2.8088193868993964e-03
9077:-1.3364556185418142e-02
9078:-2.7036716031961869e-02
9079:-3.7428536303621640e-02
9080:-2.6618288370745800e-03
9081:-1.2666592447365635e-02
9082:-2.5626243099774272e-02
9083:-3.5478308369344895e-02
9084:-2.5512607825395306e-03
9085:-1.2141732988714701e-02
9086:-2.4565351470540408e-02
9087:-3.4011139997431675e-02
9088:-4.4678092861966043e-02
9089:-5.5274153823817257e-02
9090:-6.8793583552411205e-02
9091:-7.8911318243645848e-02
9092:-4.2928942599165111e-02
9093:-5.3114519821931543e-02
9094:-6.6114535590328011e-02
9095:-7.5847569080673513e-02
9096:-4.0693936146267998e-02
9097:-5.0354117327163772e-02
9098:-6.2688334035768539e-02
9099:-7.1927463381521242e-02
9100:-3.9012329187719352e-02
9101:-4.8276550031303420e-02
9102:-6.0108274711295338e-02
9103:-6.8974067307464512e-02
9104:-8.4210227461224432e-02
9105:-9.3916162065960720e-02
9106:-1.0609352510578392e-01
9107:-1.1504688120772778e-01
9108:-8.0946645054924882e-02
9109:-9.0289831731690515e-02
9110:-1.0201921165855227e-01
9111:-1.1064937581150197e-01
9112:-7.6769679470684860e-02
9113:-8.5645838329640511e-02
9114:-9.6796876641299878e-02
9115:-1.0500853168112237e-01
9116:-7.3621902783701301e-02
9117:-8.2144059525322444e-02
9118:-9.2855529786253624e-02
9119:-1.0074813703457766e-01
9120:-1.1967873776963005e-01
9121:-1.2806030055297343e-01
9122:-1.3837389013294807e-01
9123:-1.4579819838939992e-01
9124:-1.1511645570543173e-01
9125:-1.2320442612547790e-01
9126:-1.3316633157516788e-01
9127:-1.4034556007094151e-01
9128:-1.0926175095468359e-01
9129:-1.1696756473076490e-01
9130:-1.2646942429001604e-01
9131:-1.3332620392965333e-01
9132:-1.0483795495290837e-01
9133:-1.1225097221337675e-01
9134:-1.2139871234746470e-01
9135:-1.2800595232668785e-01
9136:-1.4958143450590494e-01
9137:-1.5632300839483479e-01
9138:-1.6441066251688863e-01
9139:-1.7006657589044757e-01
9140:-1.4400701952720654e-01
9141:-1.5053728527508170e-01
9142:-1.5838326658755608e-01
9143:-1.6388018039816457e-01
9144:-1.3682673281377061e-01
9145:-1.4307633883075618e-01
9146:-1.5059835260666468e-01
9147:-1.5587953324412701e-01
9148:-1.3138142936744104e-01
9149:-1.3741191712979689e-01
9150:-1.4467883391598554e-01
9151:-1.4978827462269631e-01
9152:-1.7288733525996280e-01
9153:-1.7780246703762417e-01
9154:-1.8347429239263249e-01
9155:-1.8725691448902226e-01
9156:-1.6662553380738415e-01
9157:-1.7141636783661929e-01
9158:-1.7695949826026755e-01
9159:-1.8066895709175529e-01
9160:-1.5852151273527110e-01
9161:-1.6313982037258434e-01
9162:-1.6849969167034315e-01
9163:-1.7210059350196774e-01
9164:-1.5234720444990543e-01
9165:-1.5682541270890291e-01
9166:-1.6203326262403484e-01
9167:-1.6554116114854159e-01
9168:-1.8907355835429845e-01
9169:-1.9210947389657079e-01
9170:-1.9534533732789180e-01
9171:-1.9727587238770433e-01
9172:-1.8245553326827726e-01
9173:-1.8545071245488218e-01
9174:-1.8866357320650634e-01
9175:-1.9059919381259308e-01
9176:-1.7384051744429888e-01
9177:-1.7676798710982813e-01
9178:-1.7993070267939099e-01
9179:-1.8185671892247685e-01
9180:-1.6723979717319279e-01
9181:-1.7010454453370785e-01
9182:-1.7321389998985134e-01
9183:-1.7512054863527574e-01
9184:-1.9811236743728083e-01
9185:-1.9933556041466030e-01
9186:-2.0026298999054643e-01
9187:-2.0046947813355839e-01
9188:-1.9144625623034839e-01
9189:-1.9270245207720713e-01
9190:-1.9369794095573079e-01
9191:-1.9397524940763702e-01
9192:-1.8270865828630156e-01
9193:-1.8399094055239956e-01
9194:-1.8505267454704388e-01
9195:-1.8540482550161186e-01
9196:-1.7596964945880428e-01
9197:-1.7725941173224904e-01
9198:-1.7835531642871097e-01
9199:-1.7875192490696115e-01
9200:-2.0040434984996952e-01
9201:-1.9997821319479997e-01
9202:-1.9884022043865918e-01
9203:-1.9753083407644104e-01
9204:-1.9395423505906531e-01
9205:-1.9362103176382622e-01
9206:-1.9262323482582769e-01
9207:-1.9143523182140759e-01
9208:-1.8543193746869238e-01
9209:-1.8520237317286620e-01
9210:-1.8436476899909171e-01
9211:-1.8331796599992875e-01
9212:-1.7880899937153216e-01
9213:-1.7864594879860735e-01
9214:-1.7791447968120974e-01
9215:-1.7696334240945380e-01
9216:-1.9668233234867050e-01
9217:-1.9483902428429201e-01
9218:-1.9195698002154216e-01
9219:-1.8939125457839509e-01
9220:-1.9065608900583819e-01
9221:-1.8894988318236455e-01
9222:-1.8625942426724029e-01
9223:-1.8384972974126662e-01
9224:-1.8262027885298035e-01
9225:-1.8107641146808959e-01
9226:-1.7861520253171617e-01
9227:-1.7639387637844087e-01
9228:-1.7632148490484467e-01
9229:-1.7488996478475513e-01
9230:-1.7258935041250134e-01
9231:-1.7050131132637003e-01
9232:-1.8790193155426826e-01
9233:-1.8491367073871010e-01
9234:-1.8065065367349967e-01
9235:-1.7711225185671489e-01
9236:-1.8244657086870691e-01
9237:-1.7962400810259557e-01
9238:-1.7558418924055594e-01
9239:-1.7222171482850793e-01
9240:-1.7509527922236709e-01
9241:-1.7247476329835876e-01
9242:-1.6870892107981827e-01
9243:-1.6556371130062070e-01
9244:-1.6927712961838451e-01
9245:-1.6680117974442873e-01
9246:-1.6323281015062693e-01
9247:-1.6024523224159634e-01
9248:-1.7513483249676404e-01
9249:-1.7128829934765730e-01
9250:-1.6601744170806570e-01
9251:-1.6179115384673362e-01
9252:-1.7033955063534872e-01
9253:-1.6667321449103786e-01
9254:-1.6163960923544260e-01
9255:-1.5759639151216540e-01
9256:-1.6379962904798426e-01
9257:-1.6035751169335416e-01
9258:-1.5562070320803020e-01
9259:-1.5180765459923748e-01
9260:-1.5856717053435682e-01
9261:-1.5528904376153169e-01
9262:-1.5077053109830071e-01
9263:-1.4712765799806030e-01
9264:-1.5947672043654260e-01
9265:-1.5505200940374197e-01
9266:-1.4913138569844878e-01
9267:-1.4448576092694279e-01
9268:-1.5537977876968742e-01
9269:-1.5113807265652288e-01
9270:-1.4545457158641351e-01
9271:-1.4098908571532712e-01
9272:-1.4971442157780646e-01
9273:-1.4570426943006623e-01
9274:-1.4032219541511537e-01
9275:-1.3608673818853967e-01
9276:-1.4512594560694814e-01
9277:-1.4128811962925991e-01
9278:-1.3613144680298883e-01
9279:-1.3206879434671467e-01
9280:-1.4197517768674978e-01
9281:-1.3723084262127844e-01
9282:-1.3098607125758940e-01
9283:-1.2616162185562241e-01
9284:-1.3857379582134818e-01
9285:-1.3400622941146656e-01
9286:-1.2798767131674801e-01
9287:-1.2333296407280328e-01
9288:-1.3379349366338789e-01
9289:-1.2945299743863450e-01
9290:-1.2372631627383750e-01
9291:-1.1929158490725902e-01
9292:-1.2986750832929309e-01
9293:-1.2569861729141907e-01
9294:-1.2019349360538942e-01
9295:-1.1592646365107784e-01
9296:-1.2357977550495648e-01
9297:-1.1874307850585780e-01
9298:-1.1245666657186401e-01
9299:-1.0765926442750361e-01
9300:-1.2084018982659962e-01
9301:-1.1616758776399651e-01
9302:-1.1008901579833083e-01
9303:-1.0544593104966300e-01
9304:-1.1691457690555188e-01
9305:-1.1245585827437424e-01
9306:-1.0664935989823345e-01
9307:-1.0220916918091348e-01
9308:-1.1363796129454772e-01
9309:-1.0934322044570061e-01
9310:-1.0374619263003942e-01
9311:-9.9462871545811959e-02
9312:-1.0511208196563100e-01
9313:-1.0037419440400723e-01
9314:-9.4280731441604440e-02
9315:-8.9678977063091109e-02
9316:-1.0297915569869476e-01
9317:-9.8388492821732260e-02
9318:-9.2479766729518700e-02
9319:-8.8013843699869171e-02
9320:-9.9848422298361980e-02
9321:-9.5452457384065437e-02
9322:-8.9789116086533532e-02
9323:-8.5504436341041670e-02
9324:-9.7184332574046434e-02
9325:-9.2939741220548211e-02
9326:-8.7467980571830348e-02
9327:-8.3325407820078093e-02
9328:-8.7252376320872044e-02
9329:-8.2767017382381250e-02
9330:-7.7052539269247641e-02
9331:-7.2778106815710911e-02
9332:-8.5657548242020182e-02
9333:-8.1300152762190533e-02
9334:-7.5744756666433419e-02
9335:-7.1586131006942902e-02
9336:-8.3242240165634945e-02
9337:-7.9056627026770812e-02
9338:-7.3715777142109473e-02
9339:-6.9714096422991825e-02
9340:-8.1137203972665661e-02
9341:-7.7087043321141246e-02
9342:-7.1916092070809595e-02
9343:-6.8039252189437072e-02
9344:-7.0538454829852618e-02
9345:-6.6423103449168297e-02
9346:-6.1227292406041592e-02
9347:-5.7377052893998019e-02
9348:-6.9406002583718415e-02
9349:-6.5398288808286811e-02
9350:-6.0334909437081113e-02
9351:-5.6579980514036357e-02
9352:-6.7614908359058937e-02
9353:-6.3754037813836081e-02
9354:-5.8872257978325071e-02
9355:-5.5248753942868489e-02
9356:-6.6004645425618957e-02
9357:-6.2261285886000606e-02
9358:-5.7525504984848222e-02
9359:-5.4008185829157805e-02
9360:-5.5372437690767246e-02
9361:-5.1710907117844200e-02
9362:-4.7130775327673111e-02
9363:-4.3769839871366206e-02
9364:-5.4623953910897562e-02
9365:-5.1049590429614530e-02
9366:-4.6575313688334299e-02
9367:-4.3289441033818717e-02
9368:-5.3359990779413377e-02
9369:-4.9906759453672712e-02
9370:-4.5580500023704403e-02
9371:-4.2400319410000414e-02
9372:-5.2173957267711298e-02
9373:-4.8819265955786902e-02
9374:-4.4614069155488476e-02
9375:-4.1520851080451213e-02
9376:-4.2031756382562777e-02
9377:-3.8877375750315718e-02
9378:-3.4971412192137064e-02
9379:-3.2136288635982085e-02
9380:-4.1589207588155805e-02
9381:-3.8501987217706229e-02
9382:-3.4676083395503154e-02
9383:-3.1896503623901493e-02
9384:-4.0753651803432357e-02
9385:-3.7761959839957421e-02
9386:-3.4050905725236461e-02
9387:-3.1351806984083040e-02
9388:-3.9918447460865709e-02
9389:-3.7006032397431415e-02
9390:-3.3390966349790809e-02
9391:-3.0759683383983112e-02
9392:-3.0681304753242798e-02
9393:-2.8059956416576461e-02
9394:-2.4851889976017720e-02
9395:-2.2553200930610862e-02
9396:-3.0469063830633986e-02
9397:-2.7895758082915219e-02
9398:-2.4743267393797962e-02
9399:-2.2481724442648874e-02
9400:-2.9964583779257634e-02
9401:-2.7461983971986185e-02
9402:-2.4392443129246776e-02
9403:-2.2187330977936261e-02
9404:-2.9406556777856720e-02
9405:-2.6964280831188410e-02
9406:-2.3966283754386069e-02
9407:-2.1810494386825151e-02
9408:-2.1384338720363112e-02
9409:-1.9296838680692735e-02
9410:-1.6778294330240293e-02
9411:-1.5002451532612154e-02
9412:-2.1330739852167893e-02
9413:-1.9273454859463916e-02
9414:-1.6787867701615847e-02
9415:-1.5032345504788257e-02
9416:-2.1063899915714154e-02
9417:-1.9053930852136452e-02
9418:-1.6621557360834392e-02
9419:-1.4900306475765261e-02
9420:-2.0711401702475523e-02
9421:-1.8743703138891923e-02
9422:-1.6359872976004525e-02
9423:-1.4670772635946331e-02
9424:-1.4109945592098973e-02
9425:-1.2533198375751427e-02
9426:-1.0664675993386294e-02
9427:-9.3742266484951840e-03
9428:-1.4148942008645660e-02
9429:-1.2586396352478629e-02
9430:-1.0730879248771256e-02
9431:-9.4462116512656780e-03
9432:-1.4032888342243534e-02
9433:-1.2496543932254557e-02
9434:-1.0667928985443362e-02
9435:-9.3983583925976028e-03
9436:-1.3818718752155238e-02
9437:-1.2308255420180707e-02
9438:-1.0507744320826403e-02
9439:-9.2554173958578675e-03
9440:-8.7355539609734745e-03
9441:-7.6220972283832580e-03
9442:-6.3312743883560665e-03
9443:-5.4627037338425893e-03
9444:-8.8091780063328361e-03
9445:-7.6966101893395323e-03
9446:-6.4028648478541752e-03
9447:-5.5290219605100520e-03
9448:-8.7674684309246576e-03
9449:-7.6635743934375710e-03
9450:-6.3758353371570946e-03
9451:-5.5026626186383161e-03
9452:-8.6322372830478049e-03
9453:-7.5406050069623904e-03
9454:-6.2647729552800990e-03
9455:-5.3977040128760862e-03
9456:-5.0410918232963392e-03
9457:-4.3159060206109344e-03
9458:-3.4927663091665812e-03
9459:-2.9522313771611782e-03
9460:-5.1035953310482962e-03
9461:-4.3701502858649851e-03
9462:-3.5344224760402621e-03
9463:-2.9830297564698038e-03
9464:-5.0762970881335955e-03
9465:-4.3397583104810220e-03
9466:-3.4978662716020760e-03
9467:-2.9403674114363513e-03
9468:-4.9736000917038718e-03
9469:-4.2403356157032050e-03
9470:-3.4012071313847736e-03
9471:-2.8448730684209368e-03
9472:-2.6941331478496405e-03
9473:-2.2482052023542979e-03
9474:-1.7328301973754000e-03
9475:-1.3836685595041128e-03
9476:-2.7188326640327012e-03
9477:-2.2620899718431282e-03
9478:-1.7344097275194816e-03
9479:-1.3775085000905787e-03
9480:-2.6725916394030455e-03
9481:-2.2102830318142691e-03
9482:-1.6784184087761261e-03
9483:-1.3211134744457423e-03
9484:-2.5775163783995207e-03
9485:-2.1170842537414801e-03
9486:-1.5904955368218777e-03
9487:-1.2397747372042524e-03
9488:-1.2110619003133062e-03
9489:-8.8727467925345195e-04
9490:-4.5258392097376806e-04
9491:-1.0296768278359910e-04
9492:-1.2015490698210171e-03
9493:-8.7448975638339363e-04
9494:-4.4218148282955492e-04
9495:-9.9884174533928808e-05
9496:-1.1461858125520826e-03
9497:-8.2577598540529095e-04
9498:-4.1254671087628234e-04
9499:-9.3494855232396210e-05
9500:-1.0694745555807220e-03
9501:-7.6195349883246091e-04
9502:-3.7484313970219982e-04
9503:-8.3539928171054380e-05
9504:-2.4930148318506383e-03
9505:-1.1865036099687008e-02
9506:-2.4005933349071369e-02
9507:-3.3237378176549287e-02
9508:-2.3842983723545460e-03
9509:-1.1348081876935298e-02
9510:-2.2960523643984841e-02
9511:-3.1791233022850765e-02
9512:-2.2430676846686422e-03
9513:-1.0675986168359840e-02
9514:-2.1601005403874184e-02
9515:-2.9910243685600680e-02
9516:-2.1349233201576898e-03
9517:-1.0161339756116817e-02
9518:-2.0559784998691825e-02
9519:-2.8469411194373382e-02
9520:-3.8125408709609454e-02
9521:-4.7180568895361583e-02
9522:-5.8746742584511853e-02
9523:-6.7415043255221782e-02
9524:-3.6467662316050399e-02
9525:-4.5131684741711559e-02
9526:-5.6200607799429030e-02
9527:-6.4498775483259135e-02
9528:-3.4311235192550825e-02
9529:-4.2465731636236383e-02
9530:-5.2886097975923044e-02
9531:-6.0700895463067325e-02
9532:-3.2659260832356825e-02
9533:-4.0422884961082872e-02
9534:-5.0345137377426297e-02
9535:-5.7788240215816251e-02
9536:-7.1959977429828473e-02
9537:-8.0294533133539750e-02
9538:-9.0772644680538306e-02
9539:-9.8495543447727152e-02
9540:-6.8850733329494831e-02
9541:-7.6833134871521033e-02
9542:-8.6872507878683558e-02
9543:-9.4275789409227276e-02
9544:-6.4800609602362141e-02
9545:-7.2322076719287046e-02
9546:-8.1785900443284473e-02
9547:-8.8768882545137096e-02
9548:-6.1693819507442467e-02
9549:-6.8860083264892735e-02
9550:-7.7879449894698333e-02
9551:-8.4537128373707762e-02
9552:-1.0249831887398288e-01
9553:-1.0975509562480323e-01
9554:-1.1871332376932932e-01
9555:-1.2518657597900112e-01
9556:-9.8114429561598798e-02
9557:-1.0507613787282596e-01
9558:-1.1367554459550436e-01
9559:-1.1989435504381706e-01
9560:-9.2391302235390438e-02
9561:-9.8963469081470787e-02
9562:-1.0708744461095890e-01
9563:-1.1296771685861254e-01
9564:-8.7991921865678085e-02
9565:-9.4261480882799856e-02
9566:-1.0201486584125312e-01
9567:-1.0763022700964785e-01
9568:-1.2849473907285347e-01
9569:-1.3440693108298551e-01
9570:-1.4153540140247489e-01
9571:-1.4655101497318751e-01
9572:-1.2307440143196408e-01
9573:-1.2876084705736540e-01
9574:-1.3562388538915693e-01
9575:-1.4045858272467904e-01
9576:-1.1597676235575341e-01
9577:-1.2136078727509342e-01
9578:-1.2786596296107047e-01
9579:-1.3245485468194823e-01
9580:-1.1050507009945866e-01
9581:-1.1565095691093046e-01
9582:-1.2187271260089429e-01
9583:-1.2626559306668536e-01
9584:-1.4906432411770423e-01
9585:-1.5346509012265405e-01
9586:-1.5858788166418600e-01
9587:-1.6204281912280089e-01
9588:-1.4288352307009361e-01
9589:-1.4713350243808768e-01
9590:-1.5208902181573752e-01
9591:-1.5543832114511050e-01
9592:-1.3475899516290274e-01
9593:-1.3880142893858011e-01
9594:-1.4352370000100478e-01
9595:-1.4672301550293965e-01
9596:-1.2847288764769435e-01
9597:-1.3234792970063747e-01
9598:-1.3687997000667676e-01
9599:-1.3995511171164648e-01
9600:-1.6371754309161174e-01
9601:-1.6654513948730049e-01
9602:-1.6962094290485741e-01
9603:-1.7151317031085467e-01
9604:-1.5706471216407011e-01
9605:-1.5981592401908645e-01
9606:-1.6281975762457482e-01
9607:-1.6467780598777798e-01
9608:-1.4827965169184354e-01
9609:-1.5091835871158954e-01
9610:-1.5381104540777840e-01
9611:-1.5561094870516468e-01
9612:-1.4145322885248282e-01
9613:-1.4399604144596664e-01
9614:-1.4679063020274660e-01
9615:-1.4853587647246971e-01
9616:-1.7235851762567836e-01
9617:-1.7364800909790182e-01
9618:-1.7475648907974686e-01
9619:-1.7517241996986821e-01
9620:-1.6551225274337439e-01
9621:-1.6679396758991596e-01
9622:-1.6791653845584853e-01
9623:-1.6836144178888601e-01
9624:-1.5642385464645506e-01
9625:-1.5768166913716630e-01
9626:-1.5880470781859574e-01
9627:-1.5927373661471822e-01
9628:-1.4932683967554392e-01
9629:-1.5055615029862557e-01
9630:-1.5166632661850984e-01
9631:-1.5214379246950654e-01
9632:-1.7524312121768532e-01
9633:-1.7511115551750944e-01
9634:-1.7443064150091669e-01
9635:-1.7352626629880988e-01
9636:-1.6845384123606888e-01
9637:-1.6837305003742117e-01
9638:-1.6777905844103969e-01
9639:-1.6695565422204209e-01
9640:-1.5938719780676447e-01
9641:-1.5935981320301817e-01
9642:-1.5886178985620031e-01
9643:-1.5813146707842426e-01
9644:-1.5226808089658686e-01
9645:-1.5227185087951561e-01
9646:-1.5183503908276591e-01
9647:-1.5116692464250187e-01
9648:-1.7291194594417922e-01
9649:-1.7153624880855403e-01
9650:-1.6931615843540596e-01
9651:-1.6729544451030010e-01
9652:-1.6638946985500983e-01
9653:-1.6511210295598391e-01
9654:-1.6303518044331997e-01
9655:-1.6113506228609262e-01
9656:-1.5762154622069019e-01
9657:-1.5646063191253939e-01
9658:-1.5455593713636914e-01
9659:-1.5280268035407096e-01
9660:-1.5069538326099302e-01
9661:-1.4961515826276747e-01
9662:-1.4783197542226986e-01
9663:-1.4618376725774729e-01
9664:-1.6610900872456696e-01
9665:-1.6370667148178528e-01
9666:-1.6023938203566593e-01
9667:-1.5733286728523949e-01
9668:-1.6001652381884757e-01
9669:-1.5774712041565503e-01
9670:-1.5446332173139179e-01
9671:-1.5170463012985977e-01
9672:-1.5176739300464795e-01
9673:-1.4966200839500304e-01
9674:-1.4660648017024722e-01
9675:-1.4403299167200898e-01
9676:-1.4520847711572940e-01
9677:-1.4322209979854736e-01
9678:-1.4033365588800639e-01
9679:-1.3789673597832933e-01
9680:-1.5569916792503152e-01
9681:-1.5250584699080411e-01
9682:-1.4810065886071103e-01
9683:-1.4454644270129863e-01
9684:-1.5015204848220581e-01
9685:-1.4711420917312554e-01
9686:-1.4291755958645047e-01
9687:-1.3952704382168293e-01
9688:-1.4258246773186636e-01
9689:-1.3974104789296121e-01
9690:-1.3580934248975177e-01
9691:-1.3262787968569190e-01
9692:-1.3652179768036160e-01
9693:-1.3382646494561451e-01
9694:-1.3009295907982596e-01
9695:-1.2706870346357121e-01
9696:-1.4259251586827551e-01
9697:-1.3884486671815974e-01
9698:-1.3380652498803630e-01
9699:-1.2983487118529471e-01
9700:-1.3766153815622009e-01
9701:-1.3408111045842017e-01
9702:-1.2926287917135204e-01
9703:-1.2546098872916062e-01
9704:-1.3087565440803414e-01
9705:-1.2751015628498286e-01
9706:-1.2297613958253142e-01
9707:-1.1939439977463112e-01
9708:-1.2540193945735820e-01
9709:-1.2219911242001967e-01
9710:-1.1788118682665470e-01
9711:-1.1446753650059784e-01
9712:-1.2768210638611410e-01
9713:-1.2360394062297027e-01
9714:-1.1821629083511008e-01
9715:-1.1403842953897521e-01
9716:-1.2339891153815942e-01
9717:-1.1949063032540953e-01
9718:-1.1432355295750642e-01
9719:-1.1031356009094478e-01
9720:-1.1745024815678461e-01
9721:-1.1376348177368127e-01
9722:-1.0888516066326133e-01
9723:-1.0509577286311814e-01
9724:-1.1261366242942536e-01
9725:-1.0909692842534977e-01
9726:-1.0444110989770779e-01
9727:-1.0082233762458104e-01
9728:-1.1179707278358686e-01
9729:-1.0758983993933595e-01
9730:-1.0210490254739821e-01
9731:-9.7905752135108132e-02
9732:-1.0816111204395511e-01
9733:-1.0411918972769543e-01
9734:-9.8846544458789529e-02
9735:-9.4807211493219815e-02
9736:-1.0306045521487116e-01
9737:-9.9236859166245056e-02
9738:-9.4245620073252281e-02
9739:-9.0418898498643277e-02
9740:-9.8877823318907626e-02
9741:-9.5223881171253716e-02
9742:-9.0452071925666705e-02
9743:-8.6791696138904792e-02
9744:-9.5671402211741460e-02
9745:-9.1508321298194653e-02
9746:-8.6139994755310839e-02
9747:-8.2074350929060860e-02
9748:-9.2656904431607304e-02
9749:-8.8649100806799969e-02
9750:-8.3478300657756160e-02
9751:-7.9559931350735122e-02
9752:-8.8380660691948665e-02
9753:-8.4580395046619267e-02
9754:-7.9674517953463739e-02
9755:-7.5954361728208353e-02
9756:-8.4841333185898107e-02
9757:-8.1204151675031047e-02
9758:-7.6507122246339931e-02
9759:-7.2943725138142568e-02
9760:-7.9926274389310256e-02
9761:-7.5949699919278010e-02
9762:-7.0871294582138700e-02
9763:-6.7062645036892743e-02
9764:-7.7488803081344940e-02
9765:-7.3653565668780618e-02
9766:-6.8753352164233769e-02
9767:-6.5076333371057171e-02
9768:-7.3987036476265436e-02
9769:-7.0342891545331201e-02
9770:-6.5684424317017570e-02
9771:-6.2186610661085648e-02
9772:-7.1058668092240138e-02
9773:-6.7566283223514198e-02
9774:-6.3100400802493253e-02
9775:-5.9745800858822612e-02
9776:-6.5063380269816687e-02
9777:-6.1384444915756113e-02
9778:-5.6728932441361180e-02
9779:-5.3270167417112005e-02
9780:-6.3145408858356025e-02
9781:-5.9591256556952646e-02
9782:-5.5091618067150856e-02
9783:-5.1746871553445782e-02
9784:-6.0348946983915318e-02
9785:-5.6965468188595984e-02
9786:-5.2679780715668693e-02
9787:-4.9492116571689081e-02
9788:-5.7982826228809757e-02
9789:-5.4736312287970837e-02
9790:-5.0622859950744989e-02
9791:-4.7562066505982242e-02
9792:-5.1466073961214526e-02
9793:-4.8165944275746067e-02
9794:-4.4027995425718711e-02
9795:-4.0983253617158343e-02
9796:-5.0001570019498023e-02
9797:-4.6808082616897222e-02
9798:-4.2801956573343299e-02
9799:-3.9852544465871977e-02
9800:-4.7828020441792553e-02
9801:-4.4782194800047463e-02
9802:-4.0959311229039008e-02
9803:-3.8142977058137233e-02
9804:-4.5963705899125927e-02
9805:-4.3037670842305455e-02
9806:-3.9363949858929125e-02
9807:-3.6656341573651621e-02
9808:-3.9405586739552044e-02
9809:-3.6537585119683795e-02
9810:-3.2976514259852714e-02
9811:-3.0383556888252890e-02
9812:-3.8323634168080198e-02
9813:-3.5543368030476218e-02
9814:-3.2089351843951369e-02
9815:-2.9572697916347049e-02
9816:-3.6682335109348201e-02
9817:-3.4025275296812506e-02
9818:-3.0722313370303723e-02
9819:-2.8313902535730226e-02
9820:-3.5251619948465991e-02
9821:-3.2695733723325023e-02
9822:-2.9517314419570607e-02
9823:-2.7198550736767885e-02
9824:-2.9049766461343586e-02
9825:-2.6641819665610182e-02
9826:-2.3684780045986426e-02
9827:-2.1557429708445448e-02
9828:-2.8277522781169306e-02
9829:-2.5938343940102301e-02
9830:-2.3063779639008485e-02
9831:-2.0994053822015132e-02
9832:-2.7073722212658791e-02
9833:-2.4832863331611017e-02
9834:-2.2076993635671782e-02
9835:-2.0090841332180101e-02
9836:-2.6004066088553743e-02
9837:-2.3845164620152064e-02
9838:-2.1188766868655704e-02
9839:-1.9273089647133670e-02
9840:-2.0472448704901915e-02
9841:-1.8529403116141117e-02
9842:-1.6174184724178194e-02
9843:-1.4504293957167140e-02
9844:-1.9937804233434959e-02
9845:-1.8045202025303762e-02
9846:-1.5749043840643885e-02
9847:-1.4119246559476944e-02
9848:-1.9076507239570356e-02
9849:-1.7257935479472682e-02
9850:-1.5049357388798444e-02
9851:-1.3479779224676122e-02
9852:-1.8294267059869113e-02
9853:-1.6538705185541635e-02
9854:-1.4405260669181200e-02
9855:-1.2887838395078344e-02
9856:-1.3661524750395474e-02
9857:-1.2166893532650486e-02
9858:-1.0383983803490041e-02
9859:-9.1428291315844273e-03
9860:-1.3296030962036687e-02
9861:-1.1835057097228263e-02
9862:-1.0090230959546406e-02
9863:-8.8738427154747661e-03
9864:-1.2686232179948947e-02
9865:-1.1276857907859959e-02
9866:-9.5915293249629503e-03
9867:-8.4148087692440792e-03
9868:-1.2120178619126966e-02
9869:-1.0756161001547408e-02
9870:-9.1238213922778012e-03
9871:-7.9830228442239817e-03
9872:-8.5248044846628762e-03
9873:-7.4416593795947729e-03
9874:-6.1747020024062573e-03
9875:-5.3128128557337504e-03
9876:-8.2674936136234948e-03
9877:-7.2039922735320913e-03
9878:-5.9584644630564327e-03
9879:-5.1098976526850028e-03
9880:-7.8275556618306059e-03
9881:-6.7968300408661267e-03
9882:-5.5883812509071248e-03
9883:-4.7640252638937097e-03
9884:-7.4132966227134266e-03
9885:-6.4130142476958368e-03
9886:-5.2397231273511825e-03
9887:-4.4389274090987189e-03
9888:-4.8909384496859153e-03
9889:-4.1613492385800853e-03
9890:-3.3262354120722993e-03
9891:-2.7724924543947576e-03
9892:-4.6941065595124684e-03
9893:-3.9749591672758079e-03
9894:-3.1519787939856816e-03
9895:-2.6066124227970486e-03
9896:-4.3597534774370665e-03
9897:-3.6608708749060162e-03
9898:-2.8622500273905007e-03
9899:-2.3342617360814577e-03
9900:-4.0460937606812070e-03
9901:-3.3675422894246703e-03
9902:-2.5936789815697971e-03
9903:-2.0835545268759327e-03
9904:-2.5064202431284033e-03
9905:-2.0490395137124813e-03
9906:-1.5280768314978970e-03
9907:-1.1831389912869130e-03
9908:-2.3448251414858669e-03
9909:-1.8967552012443694e-03
9910:-1.3911911811528926e-03
9911:-1.0609601526826273e-03
9912:-2.0814803613025310e-03
9913:-1.6520234979708875e-03
9914:-1.1751532743856509e-03
9915:-8.7086853842955898e-04
9916:-1.8400605623046123e-03
9917:-1.4293239893951478e-03
9918:-9.8025539293396182e-04
9919:-7.0033536898288099e-04
9920:-1.0165674538583124e-03
9921:-7.1849205273049948e-04
9922:-3.4913017828036227e-04
9923:-7.5942163628578147e-05
9924:-9.0350695605442193e-04
9925:-6.2745988583517097e-04
9926:-2.9772639398618417e-04
9927:-6.3955082582258936e-05
9928:-7.2899901934005205e-04
9929:-4.8908407820662659e-04
9930:-2.2175307962066370e-04
9931:-4.8478396977634527e-05
9932:-5.7282271242864034e-04
9933:-3.6535372763707490e-04
9934:-1.5257714764416028e-04
9935:-3.1274234797441959e-05
9936:-2.0771783360397146e-03
9937:-9.8866591105318761e-03
9938:-2.0004017926545048e-02
9939:-2.7700270531230236e-02
9940:-1.9677744495803333e-03
9941:-9.3665260349237237e-03
9942:-1.8951548104905656e-02
9943:-2.6243603181881445e-02
9944:-1.8225888219099839e-03
9945:-8.6766237943875953e-03
9946:-1.7555381656163365e-02
9947:-2.4311003876758084e-02
9948:-1.7092137628762396e-03
9949:-8.1379649593395827e-03
9950:-1.6465131056810009e-02
9951:-2.2801682947736410e-02
9952:-3.1777355361657711e-02
9953:-3.9332129637215170e-02
9954:-4.8988034126954405e-02
9955:-5.6232235953786937e-02
9956:-3.0107039844963976e-02
9957:-3.7265966620733677e-02
9958:-4.6416729592837484e-02
9959:-5.3283467946291296e-02
9960:-2.7890834282477506e-02
9961:-3.4524015279839886e-02
9962:-4.3003297439871260e-02
9963:-4.9367838434130749e-02
9964:-2.6159913346909359e-02
9965:-3.2382096623830639e-02
9966:-4.0336043270873152e-02
9967:-4.6307374482726246e-02
9968:-6.0033873390675570e-02
9969:-6.7009806525220414e-02
9970:-7.5790708265988729e-02
9971:-8.2273607576782787e-02
9972:-5.6887761071349657e-02
9973:-6.3502081871457935e-02
9974:-7.1829413776420117e-02
9975:-7.7979483396086097e-02
9976:-5.2709410018383529e-02
9977:-5.8841860233626517e-02
9978:-6.6563849008383705e-02
9979:-7.2268995030201830e-02
9980:-4.9443122723028719e-02
9981:-5.5197732896280924e-02
9982:-6.2444399336645369e-02
9983:-6.7799670454130379e-02
9984:-8.5638247483540986e-02
9985:-9.1744850689791657e-02
9986:-9.9298248710419521e-02
9987:-1.0477031021764036e-01
9988:-8.1172299416853708e-02
9989:-8.6967989999040082e-02
9990:-9.4139143948138479e-02
9991:-9.9336771994024686e-02
9992:-7.5231851100552513e-02
9993:-8.0610820089295543e-02
9994:-8.7268409602626926e-02
9995:-9.2096344265340149e-02
9996:-7.0581502052978320e-02
9997:-7.5631994433952743e-02
9998:-8.1883899454880490e-02
9999:-8.6419110274270641e-02
10000:-1.0757242870609138e-01
10001:-1.1258900647946392e-01
10002:-1.1865633398106555e-01
10003:-1.2294197801309714e-01
10004:-1.0199941434356806e-01
10005:-1.0676758790757912e-01
10006:-1.1253742317791016e-01
10007:-1.1661579676174134e-01
10008:-9.4570732037579222e-02
10009:-9.9002888590371818e-02
10010:-1.0436878875074304e-01
10011:-1.0816447891184364e-01
10012:-8.8744181792006077e-02
10013:-9.2909300846548443e-02
10014:-9.7953119524007121e-02
10015:-1.0152253101475711e-01
10016:-1.2509612169299236e-01
10017:-1.2887897134517851e-01
10018:-1.3330556084436312e-01
10019:-1.3631127974846527e-01
10020:-1.1866694218727102e-01
10021:-1.2227062005754813e-01
10022:-1.2649119645398899e-01
10023:-1.2936036694387831e-01
10024:-1.1007466878525943e-01
10025:-1.1343221293835437e-01
10026:-1.1736785338223707e-01
10027:-1.2004652058209622e-01
10028:-1.0331955357199715e-01
10029:-1.0647883963531550e-01
10030:-1.1018363444731166e-01
10031:-1.1270683579921605e-01
10032:-1.3777643948468002e-01
10033:-1.4026477824227981e-01
10034:-1.4300261973994396e-01
10035:-1.4471526845181898e-01
10036:-1.3076033113323182e-01
10037:-1.3314020220903491e-01
10038:-1.3576350852844030e-01
10039:-1.3740890940451508e-01
10040:-1.2135487068156069e-01
10041:-1.2358106971940665e-01
10042:-1.2603940591885313e-01
10043:-1.2758542975055007e-01
10044:-1.1393997486831571e-01
10045:-1.1603916835208129e-01
10046:-1.1835934576983187e-01
10047:-1.1982048104953633e-01
10048:-1.4549267811509017e-01
10049:-1.4670332411364656e-01
10050:-1.4780215973055685e-01
10051:-1.4828072840325274e-01
10052:-1.3815768532752226e-01
10053:-1.3932743172855841e-01
10054:-1.4039759343715813e-01
10055:-1.4087277951184965e-01
10056:-1.2829075227443684e-01
10057:-1.2939600663689327e-01
10058:-1.3041486681169287e-01
10059:-1.3087548510605732e-01
10060:-1.2048795229440612e-01
10061:-1.2153550976236008e-01
10062:-1.2250480369957410e-01
10063:-1.2294682340976797e-01
10064:-1.4840899905197996e-01
10065:-1.4842609347359914e-01
10066:-1.4801778504145405e-01
10067:-1.4737979200577750e-01
10068:-1.4100569835177751e-01
10069:-1.4104270956769685e-01
10070:-1.4068168123753233e-01
10071:-1.4009578236875073e-01
10072:-1.3100923998096481e-01
10073:-1.3106287910959100e-01
10074:-1.3075223647298276e-01
10075:-1.3022633583584042e-01
10076:-1.2307741288639862e-01
10077:-1.2313702114812775e-01
10078:-1.2285688889154189e-01
10079:-1.2237131799048960e-01
10080:-1.4692713578867622e-01
10081:-1.4588709218043300e-01
10082:-1.4416523556219496e-01
10083:-1.4257057253089334e-01
10084:-1.3967632337731248e-01
10085:-1.3870775560295193e-01
10086:-1.3709640732427941e-01
10087:-1.3559912967877805e-01
10088:-1.2984619269287140e-01
10089:-1.2896394941597372e-01
10090:-1.2748885260206849e-01
10091:-1.2611338603564867e-01
10092:-1.2201849545743215e-01
10093:-1.2119758226368109e-01
10094:-1.1982147773067263e-01
10095:-1.1853585309290829e-01
10096:-1.4162602684250611e-01
10097:-1.3970092122483041e-01
10098:-1.3689902240394544e-01
10099:-1.3453319803615449e-01
10100:-1.3471077320960587e-01
10101:-1.3289813762924563e-01
10102:-1.3025597825378896e-01
10103:-1.2802197411424043e-01
10104:-1.2529583484058093e-01
10105:-1.2362586062765896e-01
10106:-1.2118799523440860e-01
10107:-1.1912371098124981e-01
10108:-1.1777092216436598e-01
10109:-1.1620767638593919e-01
10110:-1.1392390639102160e-01
10111:-1.1198848368839703e-01
10112:-1.3319772396429119e-01
10113:-1.3057888206801452e-01
10114:-1.2694955555808890e-01
10115:-1.2400821804554023e-01
10116:-1.2675986404765954e-01
10117:-1.2428358667912462e-01
10118:-1.2084910812670338e-01
10119:-1.1806332646667292e-01
10120:-1.1795642132461152e-01
10121:-1.1566509764444102e-01
10122:-1.1248467468616033e-01
10123:-1.0990260216308140e-01
10124:-1.1089345694658251e-01
10125:-1.0874359813736925e-01
10126:-1.0575842767606755e-01
10127:-1.0333356076760121e-01
10128:-1.2238662538606773e-01
10129:-1.1926996036311757e-01
10130:-1.1506682931296992e-01
10131:-1.1174271548193453e-01
10132:-1.1652663204875591e-01
10133:-1.1357220647271314e-01
10134:-1.0958578904125853e-01
10135:-1.0643110531329450e-01
10136:-1.0847737761635655e-01
10137:-1.0573653132335685e-01
10138:-1.0203645193460051e-01
10139:-9.9106376337235610e-02
10140:-1.0199457098764173e-01
10141:-9.9419362010495380e-02
10142:-9.5942107365985477e-02
10143:-9.3187358650317784e-02
10144:-1.0993701119487038e-01
10145:-1.0651115710030290e-01
10146:-1.0197455572816214e-01
10147:-9.8447412790278521e-02
10148:-1.0471668707129884e-01
10149:-1.0146331785441441e-01
10150:-9.7153470740436371e-02
10151:-9.3800960556897503e-02
10152:-9.7513222737810532e-02
10153:-9.4489464531340023e-02
10154:-9.0482373808812605e-02
10155:-8.7363677617021032e-02
10156:-9.1689043389289029e-02
10157:-8.8845205348914921e-02
10158:-8.5075998296194347e-02
10159:-8.2141480329303254e-02
10160:-9.6551737351023278e-02
10161:-9.2989179447919595e-02
10162:-8.8335822255317151e-02
10163:-8.4765430817527659e-02
10164:-9.1998484069975184e-02
10165:-8.8610537159839797e-02
10166:-8.4183931607787060e-02
10167:-8.0786104921207053e-02
10168:-8.5686203283014614e-02
10169:-8.2532863506587645e-02
10170:-7.8411698920758249e-02
10171:-7.5246890466778377e-02
10172:-8.0562628153416638e-02
10173:-7.7594679613758988e-02
10174:-7.3715436288018188e-02
10175:-7.0735592657276566e-02
10176:-8.2862668055950675e-02
10177:-7.9313944233567996e-02
10178:-7.4730419675219373e-02
10179:-7.1252385754386166e-02
10180:-7.8974731671875326e-02
10181:-7.5596035988362884e-02
10182:-7.1231053737342911e-02
10183:-6.7917652489991834e-02
10184:-7.3559117018837925e-02
10185:-7.0410733846273610e-02
10186:-6.6342458209423444e-02
10187:-6.3253074907954135e-02
10188:-6.9146068257680549e-02
10189:-6.6181013623027390e-02
10190:-6.2349397061524856e-02
10191:-5.9439049784226324e-02
10192:-6.9412185942017396e-02
10193:-6.6002652805200443e-02
10194:-6.1642108302822705e-02
10195:-5.8365991431395932e-02
10196:-6.6164059739086831e-02
10197:-6.2914659990227967e-02
10198:-5.8758034168623949e-02
10199:-5.5634094185521218e-02
10200:-6.1617502756921926e-02
10201:-5.8586629008403536e-02
10202:-5.4708875018240524e-02
10203:-5.1793494931336906e-02
10204:-5.7897922217603516e-02
10205:-5.5042140394243655e-02
10206:-5.1388249222515038e-02
10207:-4.8640605041484743e-02
10208:-5.6643999816629043e-02
10209:-5.3472732822909624e-02
10210:-4.9454082904406192e-02
10211:-4.6463259135540516e-02
10212:-5.3991653672443428e-02
10213:-5.0966597992799789e-02
10214:-4.7132450571473056e-02
10215:-4.4278025906695224e-02
10216:-5.0260236908683462e-02
10217:-4.7436129810315295e-02
10218:-4.3856091770567110e-02
10219:-4.1189935904723737e-02
10220:-4.7195268118744312e-02
10221:-4.4533172162624278e-02
10222:-4.1158379791384939e-02
10223:-3.8644576895815790e-02
10224:-4.4901200606098000e-02
10225:-4.2041404066673130e-02
10226:-3.8450328871386927e-02
10227:-3.5803091702206621e-02
10228:-4.2786815026911736e-02
10229:-4.0056430076143186e-02
10230:-3.6627096186882334e-02
10231:-3.4098224113392028e-02
10232:-3.9796660479279322e-02
10233:-3.7245419965362653e-02
10234:-3.4040483618432045e-02
10235:-3.1676222519778349e-02
10236:-3.7330655700422516e-02
10237:-3.4924747805893094e-02
10238:-3.1902204016164101e-02
10239:-2.9672013685813042e-02
10240:-3.4429467360126677e-02
10241:-3.1929925398141261e-02
10242:-2.8821026609993184e-02
10243:-2.6552433944208038e-02
10244:-3.2785648412196375e-02
10245:-3.0396854792245746e-02
10246:-2.7424874475640414e-02
10247:-2.5255310398458550e-02
10248:-3.0448690048031302e-02
10249:-2.8214419920118475e-02
10250:-2.5433968856412158e-02
10251:-2.3403326652344132e-02
10252:-2.8513845322622033e-02
10253:-2.6405780449116054e-02
10254:-2.3782098375350273e-02
10255:-2.1865437827101212e-02
10256:-2.5383570596750733e-02
10257:-2.3270705863922433e-02
10258:-2.0670351663836701e-02
10259:-1.8794518809250694e-02
10260:-2.4137099740914700e-02
10261:-2.2115389125718390e-02
10262:-1.9626286380315196e-02
10263:-1.7829780379059485e-02
10264:-2.2356319881156911e-02
10265:-2.0462998288102770e-02
10266:-1.8131096650483569e-02
10267:-1.6447094493290598e-02
10268:-2.0876952166745955e-02
10269:-1.9089321106735387e-02
10270:-1.6887169232063466e-02
10271:-1.5296302614428178e-02
10272:-1.7835825204546921e-02
10273:-1.6116068563924443e-02
10274:-1.4025499605208824e-02
10275:-1.2537990991704351e-02
10276:-1.6911249156042023e-02
10277:-1.5263081224230111e-02
10278:-1.3258539718991526e-02
10279:-1.1831304438907418e-02
10280:-1.5585677507868378e-02
10281:-1.4039576063843652e-02
10282:-1.2158219404671256e-02
10283:-1.0817736054747763e-02
10284:-1.4482270856035467e-02
10285:-1.3021023417693924e-02
10286:-1.1242430834507544e-02
10287:-9.9746121410053522e-03
10288:-1.1785236291801528e-02
10289:-1.0447432460264729e-02
10290:-8.8459202640768231e-03
10291:-7.7261918504631273e-03
10292:-1.1108679206848403e-02
10293:-9.8240261712222651e-03
10294:-8.2853440534937858e-03
10295:-7.2088289267783949e-03
10296:-1.0138645922519313e-02
10297:-8.9310623075963182e-03
10298:-7.4840210078891195e-03
10299:-6.4709761207691107e-03
10300:-9.3320984377916211e-03
10301:-8.1894308849919314e-03
10302:-6.8199030816262557e-03
10303:-5.8608079787167292e-03
10304:-7.1668123415308989e-03
10305:-6.1845977292333196e-03
10306:-5.0323598462323959e-03
10307:-4.2458271388714618e-03
10308:-6.6707714185925953e-03
10309:-5.7259294499423718e-03
10310:-4.6175180692963865e-03
10311:-3.8609135441440498e-03
10312:-5.9644002855866506e-03
10313:-5.0749594587511633e-03
10314:-4.0319573262902952e-03
10315:-3.3203945396129172e-03
10316:-5.3810889482447562e-03
10317:-4.5390371634379603e-03
10318:-3.5522363387718672e-03
10319:-2.8795877051135512e-03
10320:-3.8599744735437380e-03
10321:-3.1938743407598112e-03
10322:-2.4352294272207442e-03
10323:-1.9361152843198606e-03
10324:-3.4897967388201230e-03
10325:-2.8500269603480947e-03
10326:-2.1235847644325121e-03
10327:-1.6477392283323446e-03
10328:-2.9715907316022480e-03
10329:-2.3717087172007872e-03
10330:-1.6939474062332462e-03
10331:-1.2531107040367896e-03
10332:-2.5501351646924483e-03
10333:-1.9848005053706872e-03
10334:-1.3490120097523553e-03
10335:-9.3815217461294198e-04
10336:-1.6983445212744761e-03
10337:-1.2990068260520548e-03
10338:-8.6656380700803396e-04
10339:-6.0098883042897450e-04
10340:-1.4220268024291369e-03
10341:-1.0464106600139248e-03
10342:-6.4793453270346225e-04
10343:-4.1119958982262765e-04
10344:-1.0454322722639952e-03
10345:-7.0467693127343228e-04
10346:-3.5482289777774432e-04
10347:-1.5841904587398799e-04
10348:-7.4580619637658698e-04
10349:-4.3418638765660515e-04
10350:-1.2392345339774037e-04
10351:4.0410160263777592e-05
10352:-4.8184785532355909e-04
10353:-2.9305737401241685e-04
10354:-1.1126188296829344e-04
10355:-1.9212155449952229e-05
10356:-3.0872722712433747e-04
10357:-1.5675130878009891e-04
10358:-3.5430588240830942e-05
10359:-1.7924298040708670e-07
10360:-7.8937966003239470e-05
10361:2.2824004656802461e-05
10362:6.2464995105302091e-05
10363:2.1359777919574691e-05
10364:1.0185970179602798e-04
10365:1.6454626700228137e-04
10366:1.4098440471665830e-04
10367:4.0891766977956242e-05
10368:-1.6479350445564515e-03
10369:-7.8467989062636963e-03
10370:-1.5875747118670836e-02
10371:-2.1985693762764269e-02
10372:-1.5303388993896216e-03
10373:-7.2879770511121910e-03
10374:-1.4744482350001640e-02
10375:-2.0419409550846195e-02
10376:-1.3712893854877950e-03
10377:-6.5320924683410879e-03
10378:-1.3214147948987311e-02
10379:-1.8300473158195212e-02
10380:-1.2447854817917577e-03
10381:-5.9308671736941774e-03
10382:-1.1996844740559835e-02
10383:-1.6614885006502669e-02
10384:-2.5224084890826570e-02
10385:-3.1223939852431333e-02
10386:-3.8893573926277743e-02
10387:-4.4651997542874543e-02
10388:-2.3427727438999530e-02
10389:-2.9000643541764886e-02
10390:-3.6124110470813195e-02
10391:-4.1473398386563831e-02
10392:-2.0997464513542938e-02
10393:-2.5992482196114001e-02
10394:-3.2376315239892747e-02
10395:-3.7171301361129207e-02
10396:-1.9064169580006545e-02
10397:-2.3599260983342203e-02
10398:-2.9394213375562587e-02
10399:-3.3747714551535496e-02
10400:-4.7676262389698285e-02
10401:-5.3226110262658770e-02
10402:-6.0214970281504965e-02
10403:-6.5380308789399225e-02
10404:-4.4283381578328743e-02
10405:-4.9439504531016511e-02
10406:-5.5932341645413615e-02
10407:-6.0732021260689995e-02
10408:-3.9690889760449807e-02
10409:-4.4313171093722847e-02
10410:-5.0132937972344270e-02
10411:-5.4436052047447295e-02
10412:-3.6035955626335721e-02
10413:-4.0232766011362504e-02
10414:-4.5515743891430746e-02
10415:-4.9422572825900991e-02
10416:-6.8063808231471332e-02
10417:-7.2935733537985908e-02
10418:-7.8966819923680084e-02
10419:-8.3342477723081704e-02
10420:-6.3226129697896399e-02
10421:-6.7753934368106145e-02
10422:-7.3359086180596375e-02
10423:-7.7426679798713677e-02
10424:-5.6672826534189716e-02
10425:-6.0732722129137377e-02
10426:-6.5758045046413777e-02
10427:-6.9405742099003701e-02
10428:-5.1453886878678627e-02
10429:-5.5139968631509217e-02
10430:-5.9701611908619015e-02
10431:-6.3013172464199158e-02
10432:-8.5586080776771822e-02
10433:-8.9605334132604714e-02
10434:-9.4472878257512036e-02
10435:-9.7918168221689597e-02
10436:-7.9512871715663944e-02
10437:-8.3250053949631142e-02
10438:-8.7776253197808282e-02
10439:-9.0980812485528847e-02
10440:-7.1277186369865117e-02
10441:-7.4629151840040028e-02
10442:-7.8688379588017748e-02
10443:-8.1562967917694809e-02
10444:-6.4712576982615053e-02
10445:-6.7755668087917206e-02
10446:-7.1439934350427808e-02
10447:-7.4049142978226415e-02
10448:-9.9653007910781882e-02
10449:-1.0270315190136976e-01
10450:-1.0628044738110613e-01
10451:-1.0871743192396173e-01
10452:-9.2594908664417233e-02
10453:-9.5432860288819754e-02
10454:-9.8761726132445507e-02
10455:-1.0103025718179164e-01
10456:-8.3011320230238453e-02
10457:-8.5557545621080963e-02
10458:-8.8543937441511983e-02
10459:-9.0579464086257541e-02
10460:-7.5364037499523223e-02
10461:-7.7675065973248830e-02
10462:-8.0384736028893969e-02
10463:-8.2231480708015225e-02
10464:-1.0990872305443521e-01
10465:-1.1193698826975752e-01
10466:-1.1417945241556877e-01
10467:-1.1559233607177055e-01
10468:-1.0213960244667658e-01
10469:-1.0402863945881170e-01
10470:-1.0611784011398366e-01
10471:-1.0743491878488132e-01
10472:-9.1575155129362470e-02
10473:-9.3270525179869390e-02
10474:-9.5145340207231741e-02
10475:-9.6327336479467784e-02
10476:-8.3134887982321451e-02
10477:-8.4672640276602068e-02
10478:-8.6372205239152025e-02
10479:-8.7443093709659150e-02
10480:-1.1623807509492894e-01
10481:-1.1725206537436068e-01
10482:-1.1819148628583984e-01
10483:-1.1862111443024961e-01
10484:-1.0803723223268208e-01
10485:-1.0898360581908162e-01
10486:-1.0986159097894875e-01
10487:-1.1026434216058018e-01
10488:-9.6867967057424814e-02
10489:-9.7717411319037578e-02
10490:-9.8505288231644880e-02
10491:-9.8866411005930757e-02
10492:-8.7932701204941691e-02
10493:-8.8701410394641175e-02
10494:-8.9412963117250707e-02
10495:-8.9737482031853069e-02
10496:-1.1874875767674176e-01
10497:-1.1880932486615435e-01
10498:-1.1854283252777166e-01
10499:-1.1807695885584774e-01
10500:-1.1038470243801882e-01
10501:-1.1044414448678640e-01
10502:-1.1020014315630738e-01
10503:-1.0976938123233720e-01
10504:-9.8974149695212427e-02
10505:-9.9027038094968461e-02
10506:-9.8807228775792816e-02
10507:-9.8419431092250931e-02
10508:-8.9833349974060131e-02
10509:-8.9877706299014051e-02
10510:-8.9673044746422514e-02
10511:-8.9316456841216529e-02
10512:-1.1773781539872924e-01
10513:-1.1694809770221695e-01
10514:-1.1562312469186967e-01
10515:-1.1438437158873126e-01
10516:-1.0945510549838199e-01
10517:-1.0872279954107983e-01
10518:-1.0749302594869650e-01
10519:-1.0634218277202552e-01
10520:-9.8136467856067097e-02
10521:-9.7477711424944699e-02
10522:-9.6371846364570343e-02
10523:-9.5336550296328731e-02
10524:-8.9056883288060940e-02
10525:-8.8453959910151064e-02
10526:-8.7443517316430630e-02
10527:-8.6497978959351490e-02
10528:-1.1364702952476922e-01
10529:-1.1213998296237973e-01
10530:-1.0993778060447544e-01
10531:-1.0807085251466919e-01
10532:-1.0565677008852732e-01
10533:-1.0425584419229342e-01
10534:-1.0220825804632953e-01
10535:-1.0047155067734481e-01
10536:-9.4719714944293737e-02
10537:-9.3459523334575009e-02
10538:-9.1618015707314857e-02
10539:-9.0055537455097076e-02
10540:-8.5934634591936052e-02
10541:-8.4784619506676581e-02
10542:-8.3105141669890178e-02
10543:-8.1680099886714333e-02
10544:-1.0701432615276314e-01
10545:-1.0494000740565178e-01
10546:-1.0205940837201027e-01
10547:-9.9718949269273174e-02
10548:-9.9488340559821656e-02
10549:-9.7558109111019975e-02
10550:-9.4877399828737288e-02
10551:-9.2698576479316133e-02
10552:-8.9170627554132478e-02
10553:-8.7433994315062977e-02
10554:-8.5022600464555703e-02
10555:-8.3062051006966856e-02
10556:-8.0872870455217821e-02
10557:-7.9289501892190292e-02
10558:-7.7091812901681003e-02
10559:-7.5304800977397446e-02
10560:-9.8426330702376760e-02
10561:-9.5940325154935183e-02
10562:-9.2583322217532890e-02
10563:-8.9923368705564263e-02
10564:-9.1494849206534515e-02
10565:-8.9180031137913604e-02
10566:-8.6054145796905360e-02
10567:-8.3576622668478900e-02
10568:-8.1978523607034046e-02
10569:-7.9895513934562110e-02
10570:-7.7083186425925349e-02
10571:-7.4853576616768835e-02
10572:-7.4316945395101905e-02
10573:-7.2418659303075769e-02
10574:-6.9856597709131676e-02
10575:-6.7825131980880249e-02
10576:-8.8476389154966723e-02
10577:-8.5730054226123786e-02
10578:-8.2089972502346231e-02
10579:-7.9255578349337372e-02
10580:-8.2228515198343149e-02
10581:-7.9670125049750795e-02
10582:-7.6279228936462301e-02
10583:-7.3638255039485553e-02
10584:-7.3639964542681222e-02
10585:-7.1337501180428697e-02
10586:-6.8286416230348868e-02
10587:-6.5909552033935198e-02
10588:-6.6719103550832839e-02
10589:-6.4621534569623371e-02
10590:-6.1842828710312818e-02
10591:-5.9677893264620398e-02
10592:-7.7730390062016291e-02
10593:-7.4863415081245333e-02
10594:-7.1116114140642769e-02
10595:-6.8237279767532230e-02
10596:-7.2216802245788289e-02
10597:-6.9545145188564764e-02
10598:-6.6053309126785018e-02
10599:-6.3370220641575395e-02
10600:-6.4629861345985917e-02
10601:-6.2225342470907601e-02
10602:-5.9083321033938152e-02
10603:-5.6668566141339340e-02
10604:-5.8512032016796119e-02
10605:-5.6322161113775249e-02
10606:-5.3461490608638786e-02
10607:-5.1262745320840332e-02
10608:-6.6701453547273054e-02
10609:-6.3836678914906381e-02
10610:-6.0134667995549902e-02
10611:-5.7322482629962250e-02
10612:-6.1938514239001638e-02
10613:-5.9268288482134210e-02
10614:-5.5817922972745383e-02
10615:-5.3196479737376963e-02
10616:-5.5379688027519504e-02
10617:-5.2976520834777732e-02
10618:-4.9871934536318802e-02
10619:-4.7512835968842024e-02
10620:-5.0088908768630883e-02
10621:-4.7900964648360383e-02
10622:-4.5075267964390257e-02
10623:-4.2927928765209816e-02
10624:-5.5833176066512905e-02
10625:-5.3073535822396607e-02
10626:-4.9542699808173954e-02
10627:-4.6887358908136501e-02
10628:-5.1807919282877209e-02
10629:-4.9235281086479545e-02
10630:-4.5943970638388017e-02
10631:-4.3468427928656676e-02
10632:-4.6262926160509303e-02
10633:-4.3947801131863376e-02
10634:-4.0986625098836237e-02
10635:-3.8759114614522167e-02
10636:-4.1789990815139469e-02
10637:-3.9682928850049835e-02
10638:-3.6988681785817011e-02
10639:-3.4961858648969973e-02
10640:-4.5490439066439951e-02
10641:-4.2917622194519785e-02
10642:-3.9656052902566588e-02
10643:-3.7226386024801945e-02
10644:-4.2165865472009546e-02
10645:-3.9767118857184640e-02
10646:-3.6726458867608294e-02
10647:-3.4461069809350563e-02
10648:-3.7586794478112404e-02
10649:-3.5428451301179158e-02
10650:-3.2693142916075280e-02
10651:-3.0655029398611037e-02
10652:-3.3894969031959134e-02
10653:-3.1931317553609624e-02
10654:-2.9443468754457615e-02
10655:-2.7589673408351268e-02
10656:-3.5956319967654853e-02
10657:-3.3630786267678188e-02
10658:-3.0709222307002931e-02
10659:-2.8553345404623856e-02
10660:-3.3276675104875961e-02
10661:-3.1108227058774442e-02
10662:-2.8384168228360217e-02
10663:-2.6373757514682787e-02
10664:-2.9589232202260722e-02
10665:-2.7638367031155742e-02
10666:-2.5188124828806020e-02
10667:-2.3379583652766649e-02
10668:-2.6620104936585471e-02
10669:-2.4845864648881135e-02
10670:-2.2618056197258492e-02
10671:-2.0973631713361550e-02
10672:-2.7433655790049968e-02
10673:-2.5395655281748333e-02
10674:-2.2859112526718121e-02
10675:-2.1005894098908968e-02
10676:-2.5329431778200004e-02
10677:-2.3428731441773040e-02
10678:-2.1063098941952088e-02
10679:-1.9334436090136468e-02
10680:-2.2439916251904366e-02
10681:-2.0730009873478738e-02
10682:-1.8602131689463182e-02
10683:-1.7046951507200588e-02
10684:-2.0119097122335734e-02
10685:-1.8564470597601017e-02
10686:-1.6630259136959362e-02
10687:-1.5216532137024475e-02
10688:-2.0050012821799724e-02
10689:-1.8321318841470969e-02
10690:-1.6191626052147946e-02
10691:-1.4652857224125146e-02
10692:-1.8442613193934494e-02
10693:-1.6829789909961732e-02
10694:-1.4842707025507969e-02
10695:-1.3406603147936616e-02
10696:-1.6244429954028843e-02
10697:-1.4793267551138271e-02
10698:-1.3005417127990779e-02
10699:-1.1712962889737437e-02
10700:-1.4486877231249088e-02
10701:-1.3167708964227306e-02
10702:-1.1542702602030967e-02
10703:-1.0367806529310438e-02
10704:-1.3865363639471506e-02
10705:-1.2451692085320262e-02
10706:-1.0730825056985886e-02
10707:-9.5039136568929854e-03
10708:-1.2671454890050695e-02
10709:-1.1351702534574359e-02
10710:-9.7449473314294953e-03
10711:-8.5990301793205555e-03
10712:-1.1051140325005102e-02
10713:-9.8630788433283021e-03
10714:-8.4165831409412899e-03
10715:-7.3846246826926171e-03
10716:-9.7660457488702637e-03
10717:-8.6859317132275803e-03
10718:-7.3709552340979504e-03
10719:-6.4326449838832088e-03
10720:-8.8820244130660055e-03
10721:-7.7760074581511860e-03
10722:-6.4503317051900697e-03
10723:-5.5218301521480460e-03
10724:-8.0180235831447729e-03
10725:-6.9847144624008419e-03
10726:-5.7461454601235480e-03
10727:-4.8785092612677787e-03
10728:-6.8612165028649379e-03
10729:-5.9304311365067025e-03
10730:-4.8148607824331693e-03
10731:-4.0333149253470877e-03
10732:-5.9566154996696817e-03
10733:-5.1102112198203511e-03
10734:-4.0959666152666349e-03
10735:-3.3854211510920148e-03
10736:-5.0573673494982620e-03
10737:-4.2422679552249019e-03
10738:-3.2874948032635370e-03
10739:-2.6370749847649108e-03
10740:-4.4444335243161775e-03
10741:-3.6830445062242582e-03
10742:-2.7921237334798637e-03
10743:-2.1860258309838983e-03
10744:-3.6422719313570413e-03
10745:-2.9569456726368706e-03
10746:-2.1563909594254338e-03
10747:-1.6129319889328963e-03
10748:-3.0298945806326691e-03
10749:-2.4073042813863698e-03
10750:-1.6811499821397086e-03
10751:-1.1891257124015400e-03
10752:-2.3186931660439999e-03
10753:-1.7730884192218167e-03
10754:-1.1611721767796595e-03
10755:-7.6726849906297919e-04
10756:-1.8897085675478674e-03
10757:-1.3833089368724292e-03
10758:-8.1860643529252537e-04
10759:-4.5809242440120613e-04
10760:-1.3477455935875589e-03
10761:-8.9643526435576829e-04
10762:-3.9767483206651767e-04
10763:-8.3547812501966157e-05
10764:-9.4943818559445965e-04
10765:-5.4309155445708246e-04
10766:-9.7881728212566711e-05
10767:1.7873861061104278e-04
10768:-5.8355060875143821e-04
10769:-2.8813863804208738e-04
10770:4.9633496660904317e-07
10771:1.4761050392471587e-04
10772:-2.9130925181718311e-04
10773:-2.7381191097698159e-05
10774:2.2005448223601012e-04
10775:3.3508631506715364e-04
10776:5.9805418023384693e-05
10777:2.8088870908485667e-04
10778:4.7403710265213301e-04
10779:5.4837975346825588e-04
10780:3.0321700834111452e-04
10781:4.9040423291491300e-04
10782:6.4213574432287347e-04
10783:6.8681246183465339e-04
10784:1.9947660281006548e-04
10785:2.4148147281426584e-04
10786:1.8454217874045584e-04
10787:5.3293528959225779e-05
10788:3.6937019343989886e-04
10789:3.7384759812749638e-04
10790:2.5693928244291040e-04
10791:6.9986982447843582e-05
10792:5.6100522464108053e-04
10793:5.2077880212354104e-04
10794:3.3486486842213047e-04
10795:8.5064323648999837e-05
10796:6.8424087732658423e-04
10797:6.1451034324796973e-04
10798:3.8623167755952179e-04
10799:9.9580556991728245e-05
10800:-1.1755868805511957e-03
10801:-5.6020001169854710e-03
10802:-1.1330962878936857e-02
10803:-1.5692820996787028e-02
10804:-1.0410924167599614e-03
10805:-4.9628523449399076e-03
10806:-1.0036805604195188e-02
10807:-1.3900754692767395e-02
10808:-8.5588174394273691e-04
10809:-4.0828199530307382e-03
10810:-8.2548752980280554e-03
10811:-1.1433243105680264e-02
10812:-7.0611842033437000e-04
10813:-3.3713616617019131e-03
10814:-6.8142839991923183e-03
10815:-9.4384011518230532e-03
10816:-1.8006588414382171e-02
10817:-2.2290023738360403e-02
10818:-2.7762690806392539e-02
10819:-3.1874526927201725e-02
10820:-1.5951138316058461e-02
10821:-1.9745435548030404e-02
10822:-2.4591632949309203e-02
10823:-2.8233694274276737e-02
10824:-1.3120978579636611e-02
10825:-1.6241748513915778e-02
10826:-2.0225261606591379e-02
10827:-2.3220413210066314e-02
10828:-1.0832965583949391e-02
10829:-1.3409226641488532e-02
10830:-1.6695292288220098e-02
10831:-1.9167455619063987e-02
10832:-3.4036114188437494e-02
10833:-3.7999942794967170e-02
10834:-4.2988878763717472e-02
10835:-4.6678554249001587e-02
10836:-3.0149075870559615e-02
10837:-3.3659965470722863e-02
10838:-3.8077187721971273e-02
10839:-4.1344610420375731e-02
10840:-2.4796760945476178e-02
10841:-2.7683895184574682e-02
10842:-3.1313731714325131e-02
10843:-3.3999596341226609e-02
10844:-2.0469724973765945e-02
10845:-2.2852598826192221e-02
10846:-2.5845886975916704e-02
10847:-2.8061618969101882e-02
10848:-4.8597254177842886e-02
10849:-5.2078380008137963e-02
10850:-5.6385663326253027e-02
10851:-5.9512728013447744e-02
10852:-4.3044324139623835e-02
10853:-4.6126859409887790e-02
10854:-4.9939404109164358e-02
10855:-5.2707577068372757e-02
10856:-3.5397707576351009e-02
10857:-3.7931245401659194e-02
10858:-4.1062318873805528e-02
10859:-4.3336132058187669e-02
10860:-2.9215925716600710e-02
10861:-3.1305675751796644e-02
10862:-3.3885892008430278e-02
10863:-3.5760128235225133e-02
10864:-6.1117667440867433e-02
10865:-6.3991082135678334e-02
10866:-6.7469214599317692e-02
10867:-6.9932410532588404e-02
10868:-5.4128745981967451e-02
10869:-5.6672045945354931e-02
10870:-5.9749077486952719e-02
10871:-6.1928117365155300e-02
10872:-4.4504167738774990e-02
10873:-4.6592752015812505e-02
10874:-4.9117291616949853e-02
10875:-5.0904936408727321e-02
10876:-3.6723580168069023e-02
10877:-3.8444690102789884e-02
10878:-4.0522803792514488e-02
10879:-4.1994252468896411e-02
10880:-7.1173831340032856e-02
10881:-7.3355290349930463e-02
10882:-7.5912342192762564e-02
10883:-7.7654824978599893e-02
10884:-6.3026537066103283e-02
10885:-6.4955795417917100e-02
10886:-6.7215742958175381e-02
10887:-6.8755225487945187e-02
10888:-5.1806395159140248e-02
10889:-5.3388313307254777e-02
10890:-5.5239136366385458e-02
10891:-5.6499133013309638e-02
10892:-4.2736617545787135e-02
10893:-4.4038029934716415e-02
10894:-4.5558570885945747e-02
10895:-4.6593045378429579e-02
10896:-7.8507208970836143e-02
10897:-7.9957714147640344e-02
10898:-8.1560060293691450e-02
10899:-8.2569125323722681e-02
10900:-6.9508255125899060e-02
10901:-7.0788867445537029e-02
10902:-7.2201897181621039e-02
10903:-7.3090561435764492e-02
10904:-5.7115398277570388e-02
10905:-5.8162229306740108e-02
10906:-5.9314919220114039e-02
10907:-6.0038153357139828e-02
10908:-4.7098996271258631e-02
10909:-4.7957365553810430e-02
10910:-4.8900407747479814e-02
10911:-4.9490615919207018e-02
10912:-8.3030264055498390e-02
10913:-8.3753777371696536e-02
10914:-8.4422265677051522e-02
10915:-8.4725780194245939e-02
10916:-7.3496252958041172e-02
10917:-7.4131756282095854e-02
10918:-7.4716417470330754e-02
10919:-7.4979070341659335e-02
10920:-6.0367719325801525e-02
10921:-6.0882555861196827e-02
10922:-6.1352653729586960e-02
10923:-6.1559825685933663e-02
10924:-4.9759048692940400e-02
10925:-5.0177179166022302e-02
10926:-5.0555904533423845e-02
10927:-5.0719272754981684e-02
10928:-8.4814641746502994e-02
10929:-8.4853406584387919e-02
10930:-8.4655901265241126e-02
10931:-8.4315575475970128e-02
10932:-7.5054314468437841e-02
10933:-7.5082278875570202e-02
10934:-7.4898892278553147e-02
10935:-7.4590413631172608e-02
10936:-6.1616777432461321e-02
10937:-6.1630851652015838e-02
10938:-6.1468406080656110e-02
10939:-6.1205069796047278e-02
10940:-5.0762026783326593e-02
10941:-5.0766064078046284e-02
10942:-5.0622255180501112e-02
10943:-5.0396819462574891e-02
10944:-8.4068384853067293e-02
10945:-8.3495286462048582e-02
10946:-8.2536215323938802e-02
10947:-8.1639221820979824e-02
10948:-7.4367444105782554e-02
10949:-7.3852677598292990e-02
10950:-7.2994063517094837e-02
10951:-7.2191977761140530e-02
10952:-6.1016183816846002e-02
10953:-6.0583238218418850e-02
10954:-5.9865130290306580e-02
10955:-5.9195538493062486e-02
10956:-5.0236267740705505e-02
10957:-4.9871013388496914e-02
10958:-4.9268651368974153e-02
10959:-4.8707910595822870e-02
10960:-8.1104870374218249e-02
10961:-8.0014688580196031e-02
10962:-7.8423403760372282e-02
10963:-7.7073296217201465e-02
10964:-7.1714300693945646e-02
10965:-7.0741093046485057e-02
10966:-6.9322243116941212e-02
10967:-6.8118645636120245e-02
10968:-5.8796906204742039e-02
10969:-5.7986770722185541e-02
10970:-5.6808169713790178e-02
10971:-5.5808586014541438e-02
10972:-4.8374132694968118e-02
10973:-4.7697683810954829e-02
10974:-4.6715840121936296e-02
10975:-4.5883193713259038e-02
10976:-7.6308459568481271e-02
10977:-7.4808812102896735e-02
10978:-7.2728002553638454e-02
10979:-7.1035997047838542e-02
10980:-6.7436691871528801e-02
10981:-6.6100747678197930e-02
10982:-6.4248503647299948e-02
10983:-6.2742295441126139e-02
10984:-5.5242005851770346e-02
10985:-5.4133907758480794e-02
10986:-5.2599718158137375e-02
10987:-5.1351981622359218e-02
10988:-4.5410972049993122e-02
10989:-4.4489158678803792e-02
10990:-4.3214890229033437e-02
10991:-4.2178287419555399e-02
10992:-7.0100549253924963e-02
10993:-6.8303514772901600e-02
10994:-6.5878743486569274e-02
10995:-6.3956052082558251e-02
10996:-6.1909337146472398e-02
10997:-6.0310327141930457e-02
10998:-5.8154085150297054e-02
10999:-5.6444153135811144e-02
11000:-5.0661573919216399e-02
11001:-4.9337970996631828e-02
11002:-4.7555141012852652e-02
11003:-4.6141013667441638e-02
11004:-4.1604288761911898e-02
11005:-4.0505543575765218e-02
11006:-3.9027498854737136e-02
11007:-3.7854737318866322e-02
11008:-6.2909108249005502e-02
11009:-6.0924117069334142e-02
11010:-5.8295160858648630e-02
11011:-5.6246804894611806e-02
11012:-5.5512776484078423e-02
11013:-5.3747993600326602e-02
11014:-5.1411969497662670e-02
11015:-4.9591661366828237e-02
11016:-4.5370290522106810e-02
11017:-4.3911604188675908e-02
11018:-4.1982712820310499e-02
11019:-4.0479304322036169e-02
11020:-3.7215073828940862e-02
11021:-3.6006058500387593e-02
11022:-3.4409167167224086e-02
11023:-3.3164107529795699e-02
11024:-5.5143581032092402e-02
11025:-5.3071866415197809e-02
11026:-5.0366145704178189e-02
11027:-4.8286417815381059e-02
11028:-4.8610964424097680e-02
11029:-4.6770381528079087e-02
11030:-4.4367766783721736e-02
11031:-4.2520850191800401e-02
11032:-3.9668851023321412e-02
11033:-3.8149380672520085e-02
11034:-3.6167806459607557e-02
11035:-3.4644225991113081e-02
11036:-3.2492417155833411e-02
11037:-3.1234638194044893e-02
11038:-2.9596106339319354e-02
11039:-2.8335893961892268e-02
11040:-4.7175984755620896e-02
11041:-4.5106690903900612e-02
11042:-4.2434805446044159e-02
11043:-4.0404299360047906e-02
11044:-4.1534438098798289e-02
11045:-3.9697227601568900e-02
11046:-3.7326191792308339e-02
11047:-3.5524196837706759e-02
11048:-3.3830035325732123e-02
11049:-3.2315068374186885e-02
11050:-3.0361678130944165e-02
11051:-2.8876841875354907e-02
11052:-2.7661957595506284e-02
11053:-2.6409374711297694e-02
11054:-2.4795957643696468e-02
11055:-2.3569223639240331e-02
11056:-3.9328154413483959e-02
11057:-3.7335941605112971e-02
11058:-3.4789088631073266e-02
11059:-3.2873120261177995e-02
11060:-3.4568906644330578e-02
11061:-3.2801306496180939e-02
11062:-3.0542697007056880e-02
11063:-2.8843502379971096e-02
11064:-2.8089265737456137e-02
11065:-2.6633322430897562e-02
11066:-2.4774572525262994e-02
11067:-2.3376027207293395e-02
11068:-2.2918106010743500e-02
11069:-2.1715690370348571e-02
11070:-2.0182127436472696e-02
11071:-1.9028016679769236e-02
11072:-3.1864481114719186e-02
11073:-3.0008420349584116e-02
11074:-2.7657368927793035e-02
11075:-2.5905502011837965e-02
11076:-2.7948765729313190e-02
11077:-2.6303076972712249e-02
11078:-2.4219488026458364e-02
11079:-2.2666897804471810e-02
11080:-2.2639241860034805e-02
11081:-2.1285236013378204e-02
11082:-1.9572403043324079e-02
11083:-1.8295990174900755e-02
11084:-1.8419624757611774e-02
11085:-1.7302671053039276e-02
11086:-1.5891063925763057e-02
11087:-1.4838969662987219e-02
11088:-2.4989161223966296e-02
11089:-2.3312640442825775e-02
11090:-2.1207939444202524e-02
11091:-1.9654381966316633e-02
11092:-2.1854617141186874e-02
11093:-2.0369129373442131e-02
11094:-1.8505082552090706e-02
11095:-1.7129154041229541e-02
11096:-1.7627906142121525e-02
11097:-1.6407095785236012e-02
11098:-1.4876416778648170e-02
11099:-1.3746517642421073e-02
11100:-1.4287983519582407e-02
11101:-1.3282071014171594e-02
11102:-1.2021995682050882e-02
11103:-1.1091764479468358e-02
11104:-1.8846996275627179e-02
11105:-1.7378390708448200e-02
11106:-1.5551512848717391e-02
11107:-1.4216221747737788e-02
11108:-1.6413937816465784e-02
11109:-1.5113492159575791e-02
11110:-1.3496446564196567e-02
11111:-1.2314508297971767e-02
11112:-1.3158955059559498e-02
11113:-1.2091388941770925e-02
11114:-1.0764906791600842e-02
11115:-9.7953152623557194e-03
11116:-1.0607788516250341e-02
11117:-9.7291685678759839e-03
11118:-8.6383879651300930e-03
11119:-7.8410227879443187e-03
11120:-1.3526986595013534e-02
11121:-1.2281060533469522e-02
11122:-1.0746464238194656e-02
11123:-9.6368779818598576e-03
11124:-1.1704306196771359e-02
11125:-1.0601600067700090e-02
11126:-9.2438246945934863e-03
11127:-8.2620067322588045e-03
11128:-9.2945508402381416e-03
11129:-8.3901650168068907e-03
11130:-7.2772705009955434e-03
11131:-6.4724524386086633e-03
11132:-7.4290123473246591e-03
11133:-6.6854591131520905e-03
11134:-5.7711671967526556e-03
11135:-5.1099266471356106e-03
11136:-9.0685006320846417e-03
11137:-8.0484067510618266e-03
11138:-6.8065975571183733e-03
11139:-5.9204197209444028e-03
11140:-7.7589556509438150e-03
11141:-6.8563282637529579e-03
11142:-5.7577479820889654e-03
11143:-4.9736509549971001e-03
11144:-6.0599244178121386e-03
11145:-5.3200868483619631e-03
11146:-4.4200286661956866e-03
11147:-3.7774502234230408e-03
11148:-4.7708427223971317e-03
11149:-4.1630824107394696e-03
11150:-3.4240920648156065e-03
11151:-2.8963361593086086e-03
11152:-5.4707773098255866e-03
11153:-4.6713789686645933e-03
11154:-3.7135995404567359e-03
11155:-3.0426369865870417e-03
11156:-4.5756877198183613e-03
11157:-3.8683481334245086e-03
11158:-3.0211375287165607e-03
11159:-2.4276676240143438e-03
11160:-3.4511425457629794e-03
11161:-2.8714270346666174e-03
11162:-2.1774414437087638e-03
11163:-1.6912995289844819e-03
11164:-2.6281680337302371e-03
11165:-2.1519790477837839e-03
11166:-1.5822228509149391e-03
11167:-1.1830377735248506e-03
11168:-2.7069155939556562e-03
11169:-2.1192806286562077e-03
11170:-1.4345039774656830e-03
11171:-9.7101086947229192e-04
11172:-2.1307071597726317e-03
11173:-1.6113806917631250e-03
11174:-1.0071953853445807e-03
11175:-5.9901218646605126e-04
11176:-1.4479894508385854e-03
11177:-1.0229963541071303e-03
11178:-5.2955524145040017e-04
11179:-1.9683973277158736e-04
11180:-9.8316405514095790e-04
11181:-6.3437804532289605e-04
11182:-2.2997775321290863e-04
11183:4.2470813378338937e-05
11184:-7.4543598472572123e-04
11185:-3.6391546301753612e-04
11186:5.1832223801817581e-05
11187:3.0788812986154538e-04
11188:-4.0068268652537862e-04
11189:-6.6840341374648700e-05
11190:2.9290064606256599e-04
11191:5.1039042246595479e-04
11192:-3.5446427501387262e-05
11193:2.3438763767424947e-04
11194:5.2039454205554583e-04
11195:6.8844258847119456e-04
11196:1.7455586494612992e-04
11197:3.9417979111760451e-04
11198:6.2369385166137568e-04
11199:7.5509732405916062e-04
11200:4.2205002848405110e-04
11201:5.9096334105890672e-04
11202:7.2096763925286677e-04
11203:7.5061436278402161e-04
11204:6.0543546518972613e-04
11205:7.4116278750569538e-04
11206:8.3288768663712979e-04
11207:8.3678975322106169e-04
11208:7.5953773552195607e-04
11209:8.5486952668106960e-04
11210:9.0188448152907924e-04
11211:8.7674750467612022e-04
11212:8.0894827389776610e-04
11213:8.7595835221301486e-04
11214:8.9270885300857586e-04
11215:8.4837574948490432e-04
11216:7.4058331974614726e-04
11217:6.5727572478727894e-04
11218:4.1119503479273146e-04
11219:1.1008932470269108e-04
11220:8.1425948490005220e-04
11221:7.0994505912360274e-04
11222:4.4041053774263099e-04
11223:1.2351732100652335e-04
11224:8.4052361934417407e-04
11225:7.1720611217233605e-04
11226:4.3683742653922585e-04
11227:1.2243406411960626e-04
11228:8.0331213800174798e-04
11229:6.7150216645461087e-04
11230:3.9815900264451257e-04
11231:1.0400428789185568e-04
11232:-6.2335513747640268e-04
11233:-2.9782524352380047e-03
11234:-6.0183062786520912e-03
11235:-8.3361863200219471e-03
11236:-4.6092842085726629e-04
11237:-2.2067218887636790e-03
11238:-4.4560835259655164e-03
11239:-6.1729801779406811e-03
11240:-2.3440933682786666e-04
11241:-1.1300347780640451e-03
11242:-2.2758616879512646e-03
11243:-3.1541610622002297e-03
11244:-4.9306568788207206e-05
11245:-2.4911178641214362e-04
11246:-4.9189028484464682e-04
11247:-6.8412026152975594e-04
11248:-9.5687705710067981e-03
11249:-1.1844185164995795e-02
11250:-1.4744911818655320e-02
11251:-1.6928138378166126e-02
11252:-7.0877160947213913e-03
11253:-8.7728437799995170e-03
11254:-1.0917620620607717e-02
11255:-1.2534125271728305e-02
11256:-3.6254664439278207e-03
11257:-4.4872103650075686e-03
11258:-5.5777851370483059e-03
11259:-6.4042031722329846e-03
11260:-7.9272727322927125e-04
11261:-9.8109857749642299e-04
11262:-1.2097412813936485e-03
11263:-1.3903463434651853e-03
11264:-1.8078993646156845e-02
11265:-2.0183295731755337e-02
11266:-2.2824949637231976e-02
11267:-2.4780998869038555e-02
11268:-1.3388039314521745e-02
11269:-1.4946107161851054e-02
11270:-1.6898454311614134e-02
11271:-1.8345634305356483e-02
11272:-6.8442317378072425e-03
11273:-7.6411306773073832e-03
11274:-8.6333861307429250e-03
11275:-9.3722125668024465e-03
11276:-1.4921352081835241e-03
11277:-1.6671456271760763e-03
11278:-1.8753626697342416e-03
11279:-2.0360658866372828e-03
11280:-2.5800647634844423e-02
11281:-2.7645299073067970e-02
11282:-2.9921316105480277e-02
11283:-3.1574925857319448e-02
11284:-1.9101487768100448e-02
11285:-2.0466135566310380e-02
11286:-2.2146702184354911e-02
11287:-2.3368694551253431e-02
11288:-9.7610316297687769e-03
11289:-1.0458153497371432e-02
11290:-1.1311322119747691e-02
11291:-1.1934120773345597e-02
11292:-2.1254671218572303e-03
11293:-2.2783099034729484e-03
11294:-2.4573984477370345e-03
11295:-2.5924846325835922e-03
11296:-3.2425430120246491e-02
11297:-3.3943688815215811e-02
11298:-3.5775423899760871e-02
11299:-3.7072414115180204e-02
11300:-2.3998329745832030e-02
11301:-2.5120095720064552e-02
11302:-2.6470643386418937e-02
11303:-2.7427234769826964e-02
11304:-1.2257343810088838e-02
11305:-1.2829466508671740e-02
11306:-1.3513824449241232e-02
11307:-1.3999872722601380e-02
11308:-2.6664742163710698e-03
11309:-2.7918567629826745e-03
11310:-2.9354487226021585e-03
11311:-3.0401335225543427e-03
11312:-3.7727019556456569e-02
11313:-3.8873737800005539e-02
11314:-4.0212215841735142e-02
11315:-4.1122444620786215e-02
11316:-2.7910733930344385e-02
11317:-2.8756098102758462e-02
11318:-2.9740428024918872e-02
11319:-3.0409407972660223e-02
11320:-1.4247132670242682e-02
11321:-1.4677000312299017e-02
11322:-1.5174210911768824e-02
11323:-1.5512333128425395e-02
11324:-3.0961585703726930e-03
11325:-3.1901446003647794e-03
11326:-3.2945229202333052e-03
11327:-3.3666213657352726e-03
11328:-4.1567648782772477e-02
11329:-4.2322299939169250e-02
11330:-4.3150095134687788e-02
11331:-4.3667290420043046e-02
11332:-3.0736829736104226e-02
11333:-3.1290728147785031e-02
11334:-3.1896186240267667e-02
11335:-3.2273162836164590e-02
11336:-1.5678605418406672e-02
11337:-1.5958607003349116e-02
11338:-1.6262348864109568e-02
11339:-1.6450479913784656e-02
11340:-3.4036349653245009e-03
11341:-3.4645702190802901e-03
11342:-3.5283244536765163e-03
11343:-3.5674254023263913e-03
11344:-4.3902217478859869e-02
11345:-4.4267453943663555e-02
11346:-4.4596447671132862e-02
11347:-4.4736225374455388e-02
11348:-3.2444012257949052e-02
11349:-3.2708671049660923e-02
11350:-3.2944408060598548e-02
11351:-3.3041294271051999e-02
11352:-1.6535636292575037e-02
11353:-1.6667089031962169e-02
11354:-1.6782272037505191e-02
11355:-1.6826801383013332e-02
11356:-3.5854585456089796e-03
11357:-3.6136484644118385e-03
11358:-3.6378541552544471e-03
11359:-3.6455294273292612e-03
11360:-4.4771472114922141e-02
11361:-4.4770623344824075e-02
11362:-4.4638018944792475e-02
11363:-4.4434248813690756e-02
11364:-3.3063643410128997e-02
11365:-3.3056690074780438e-02
11366:-3.2950674142182161e-02
11367:-3.2792964290857908e-02
11368:-1.6835188172542825e-02
11369:-1.6827354366829181e-02
11370:-1.6768484908721491e-02
11371:-1.6682760439844457e-02
11372:-3.6457118144611000e-03
11373:-3.6432376555022342e-03
11374:-3.6309158480735729e-03
11375:-3.6101991381164702e-03
11376:-4.4289747443500789e-02
11377:-4.3962657088693298e-02
11378:-4.3425279004840091e-02
11379:-4.2925491835152249e-02
11380:-3.2681848001187334e-02
11381:-3.2433193211044840e-02
11382:-3.2027936704186841e-02
11383:-3.1651244543894327e-02
11384:-1.6622331318353396e-02
11385:-1.6490796137158620e-02
11386:-1.6279810501703598e-02
11387:-1.6082357306536000e-02
11388:-3.5944879020200346e-03
11389:-3.5648344624288233e-03
11390:-3.5205961772946694e-03
11391:-3.4756606285159496e-03
11392:-4.2627984948352987e-02
11393:-4.2026236242613299e-02
11394:-4.1154216876349486e-02
11395:-4.0414668210195549e-02
11396:-3.1426747951780326e-02
11397:-3.0974988249109520e-02
11398:-3.0322819151238425e-02
11399:-2.9769184875619328e-02
11400:-1.5963664811189746e-02
11401:-1.5728451306387774e-02
11402:-1.5392254831652557e-02
11403:-1.5104846257344852e-02
11404:-3.4466139571813909e-03
11405:-3.3942459435925658e-03
11406:-3.3237344328583824e-03
11407:-3.2594280657505395e-03
11408:-3.9995042054627367e-02
11409:-3.9177024360122034e-02
11410:-3.8047506240108782e-02
11411:-3.7128427844616646e-02
11412:-2.9454446153859060e-02
11413:-2.8843181256419513e-02
11414:-2.8001550551132716e-02
11415:-2.7315890539674436e-02
11416:-1.4939992945875433e-02
11417:-1.4623654960575168e-02
11418:-1.4191716572007180e-02
11419:-1.3837537773594154e-02
11420:-3.2199410089276416e-03
11421:-3.1498699010547144e-03
11422:-3.0592650825418269e-03
11423:-2.9807142909095536e-03
11424:-3.6619207247019947e-02
11425:-3.5645558776045035e-02
11426:-3.4337019865942973e-02
11427:-3.3298448851539965e-02
11428:-2.6935219713463812e-02
11429:-2.6209638458744650e-02
11430:-2.5236882854721174e-02
11431:-2.4463878259781878e-02
11432:-1.3639189648367172e-02
11433:-1.3265039238945233e-02
11434:-1.2767214914534150e-02
11435:-1.2369261232889579e-02
11436:-2.9337867431934147e-03
11437:-2.8511812040604031e-03
11438:-2.7467500569106074e-03
11439:-2.6590112233184494e-03
11440:-3.2731633908049965e-02
11441:-3.1661370450060088e-02
11442:-3.0248933253189447e-02
11443:-2.9147367931230003e-02
11444:-2.4041143026544420e-02
11445:-2.3245146682419025e-02
11446:-2.2197015568488472e-02
11447:-2.1378632786016861e-02
11448:-1.2149810718969560e-02
11449:-1.1740438488236030e-02
11450:-1.1205197420024619e-02
11451:-1.0785001083894562e-02
11452:-2.6075504544126548e-03
11453:-2.5174010556524452e-03
11454:-2.4051132477198736e-03
11455:-2.3128903743580161e-03
11456:-2.8552735899280018e-02
11457:-2.7440255406247435e-02
11458:-2.5992141371903529e-02
11459:-2.4878082534535221e-02
11460:-2.0935994621831822e-02
11461:-2.0109968258544941e-02
11462:-1.9036990379103249e-02
11463:-1.8210658977826030e-02
11464:-1.0555911703308322e-02
11465:-1.0132039991206043e-02
11466:-9.5851242069211941e-03
11467:-9.1618310487528790e-03
11468:-2.2595591170517407e-03
11469:-2.1664287865668409e-03
11470:-2.0516860201487707e-03
11471:-1.9591428768457133e-03
11472:-2.4281965147923114e-02
11473:-2.3174938969140496e-02
11474:-2.1750071906724053e-02
11475:-2.0666444144730876e-02
11476:-1.7767668932156581e-02
11477:-1.6946929236545769e-02
11478:-1.5892656948052721e-02
11479:-1.5090112800948191e-02
11480:-8.9331788341343466e-03
11481:-8.5128783937515832e-03
11482:-7.9764190543655886e-03
11483:-7.5662013373984727e-03
11484:-1.9062606485956814e-03
11485:-1.8141174163602996e-03
11486:-1.7015647879005881e-03
11487:-1.6121938518699110e-03
11488:-2.0090973113922196e-02
11489:-1.9029077434116602e-02
11490:-1.7675705072266963e-02
11491:-1.6657003298438892e-02
11492:-1.4663156349819862e-02
11493:-1.3877016395024757e-02
11494:-1.2877013287437478e-02
11495:-1.2123681865127561e-02
11496:-7.3463893779452828e-03
11497:-6.9445982149392111e-03
11498:-6.4366046895352642e-03
11499:-6.0523672487646455e-03
11500:-1.5616695051882882e-03
11501:-1.4737710396982844e-03
11502:-1.3671824775866163e-03
11503:-1.2837566272338847e-03
11504:-1.6119724705019524e-02
11505:-1.5134043226403760e-02
11506:-1.3889200118487393e-02
11507:-1.2961258752915733e-02
11508:-1.1725706117642880e-02
11509:-1.0997055762547449e-02
11510:-1.0078515395882151e-02
11511:-9.3933353351671519e-03
11512:-5.8480048848855047e-03
11513:-5.4763439902154945e-03
11514:-5.0105243567202078e-03
11515:-4.6617978031751484e-03
11516:-1.2370789198772262e-03
11517:-1.1559626307149271e-03
11518:-1.0582213823285536e-03
11519:-9.8275813385775824e-04
11520:-1.2475070695112608e-02
11521:-1.1588055643856265e-02
11522:-1.0477663157392984e-02
11523:-9.6578531220563799e-03
11524:-9.0337920612968865e-03
11525:-8.3790531449927583e-03
11526:-7.5608829209719728e-03
11527:-6.9564997388446561e-03
11528:-4.4776511836433471e-03
11529:-4.1443725340571625e-03
11530:-3.7301847921006118e-03
11531:-3.4232870467946768e-03
11532:-9.4096598126433215e-04
11533:-8.6840151448581374e-04
11534:-7.8149468289546737e-04
11535:-7.1532711933186143e-04
11536:-9.2311552207579584e-03
11537:-8.4569962170130287e-03
11538:-7.4964964250584477e-03
11539:-6.7943077316543633e-03
11540:-6.6414978791222989e-03
11541:-6.0709508666600479e-03
11542:-5.3642240483496991e-03
11543:-4.8473167982703898e-03
11544:-3.2624115795861224e-03
11545:-2.9726222044668097e-03
11546:-2.6154626503893156e-03
11547:-2.3535337853820902e-03
11548:-6.7907751400791993e-04
11549:-6.1615090443577268e-04
11550:-5.4117704114460953e-04
11551:-4.8488575287093048e-04
11552:-6.4313391663771008e-03
11553:-5.7766494409994011e-03
11554:-4.9720847593334502e-03
11555:-4.3901723584135717e-03
11556:-4.5797836727706331e-03
11557:-4.0979647143568635e-03
11558:-3.5067505726194661e-03
11559:-3.0790021624929644e-03
11560:-2.2172579608759784e-03
11561:-1.9730534086119743e-03
11562:-1.6748161701773277e-03
11563:-1.4585572736384666e-03
11564:-4.5440467231156725e-04
11565:-4.0159113544279448e-04
11566:-3.3908402040502031e-04
11567:-2.9279452427109027e-04
11568:-4.0916690982167013e-03
11569:-3.5568813623302804e-03
11570:-2.9068723511383862e-03
11571:-2.4425466841347426e-03
11572:-2.8593340597642385e-03
11573:-2.4662566928041335e-03
11574:-1.9889979463219697e-03
11575:-1.6478312913511804e-03
11576:-1.3469648488338838e-03
11577:-1.1480619253847707e-03
11578:-9.0743782498083157e-04
11579:-7.3502903075185701e-04
11580:-2.6799231138491172e-04
11581:-2.2495895154697509e-04
11582:-1.7426165955156326e-04
11583:-1.3736060581751277e-04
11584:-2.2064955681746715e-03
11585:-1.7874870382123421e-03
11586:-1.2863209033925126e-03
11587:-9.3512118435926854e-04
11588:-1.4741605439144037e-03
11589:-1.1662358059104066e-03
11590:-7.9831014212166198e-04
11591:-5.4027018404994556e-04
11592:-6.4688526058428661e-04
11593:-4.9130540533020716e-04
11594:-3.0607893247063938e-04
11595:-1.7565436700531386e-04
11596:-1.1793620271044713e-04
11597:-8.4784927946867221e-05
11598:-4.6333973018600722e-05
11599:-1.8321545389106777e-05
11600:-7.5920388722803254e-04
11601:-4.5238818588186987e-04
11602:-9.6880508782248002e-05
11603:1.4261213783362266e-04
11604:-4.1082471267745130e-04
11605:-1.8531451930615896e-04
11606:7.5649070078436008e-05
11607:2.5149946030168959e-04
11608:-1.0979007819435414e-04
11609:4.6379020047957842e-06
11610:1.3661504581109613e-04
11611:2.2565964737756130e-04
11612:-3.4199795922074371e-06
11613:2.2037009485410795e-05
11614:5.0720718928710315e-05
11615:7.0166502770206427e-05
11616:2.5873390119794600e-04
11617:4.5123935941709703e-04
11618:6.5080795552782786e-04
11619:7.6333868687547828e-04
11620:3.3682065114281853e-04
11621:4.7735587756989913e-04
11622:6.2094367648266274e-04
11623:7.0000799447409291e-04
11624:2.6895894718009144e-04
11625:3.3915301377393032e-04
11626:4.0952853366293891e-04
11627:4.4835198406144587e-04
11628:7.9725214328574636e-05
11629:9.3763825904613841e-05
11630:1.0737627717421608e-04
11631:1.1748848573856075e-04
11632:8.0854344371769800e-04
11633:8.6165925664403293e-04
11634:8.6402026080156910e-04
11635:8.1079565322267897e-04
11636:7.3080805129871788e-04
11637:7.6265701844778846e-04
11638:7.4721926825590905e-04
11639:6.8684199567948113e-04
11640:4.6379173838606536e-04
11641:4.7777816345887859e-04
11642:4.5938373407410532e-04
11643:4.1140422228551956e-04
11644:1.2351703275658734e-04
11645:1.3133982105043216e-04
11646:1.2714353128628596e-04
11647:1.0679837412060612e-04
11648:7.6176193258576752e-04
11649:6.2801521703406205e-04
11650:3.6456366261419744e-04
11651:8.8199814773906100e-05
11652:6.3646477627375903e-04
11653:5.1339761585370469e-04
11654:2.9029836951036971e-04
11655:6.3888311845230623e-05
11656:3.7318541672281289e-04
11657:2.9294955773962275e-04
11658:1.5947969373311340e-04
11659:2.0508790739092827e-05
11660:8.9452669775994835e-05
11661:6.3108160990461853e-05
11662:1.9240985179460311e-05
11663:-4.5964491642195273e-05
11664:-1.6419702500278610e-01
11665:-1.3918098889750588e-01
11666:-1.1584082777966209e-01
11667:-1.0517285029799933e-01
11668:-8.0689675006748629e-01
11669:-6.7401926717167104e-01
11670:-5.3198081072079695e-01
11671:-4.4590354491130579e-01
11672:-1.6442076504916994e+00
11673:-1.3703465247210063e+00
11674:-1.0728313062048720e+00
11675:-8.8765352340510717e-01
11676:-2.2801701904019414e+00
11677:-1.8989551612043731e+00
11678:-1.4828558746382652e+00
11679:-1.2218897739744878e+00
11680:-1.0203237376017323e-01
11681:-1.0001137469502604e-01
11682:-1.0382286794147820e-01
11683:-1.1086492440055430e-01
11684:-4.0759948031040077e-01
11685:-3.4606755498666009e-01
11686:-2.8340154034396164e-01
11687:-2.4721918880602983e-01
11688:-8.0300800093716107e-01
11689:-6.6305458815121987e-01
11690:-5.1296136567487183e-01
11691:-4.2017268481986386e-01
11692:-1.1017191740613761e+00
11693:-9.0162776604512795e-01
11694:-6.8455872860954414e-01
11695:-5.4853345667669340e-01
11696:-1.1583117116648750e-01
11697:-1.2669795607628143e-01
11698:-1.4306867910872711e-01
11699:-1.5667055472730421e-01
11700:-2.3158554360867514e-01
11701:-2.0672386523735714e-01
11702:-1.8145256458045061e-01
11703:-1.6655136313694696e-01
11704:-3.7768910140737910e-01
11705:-3.0665268843494292e-01
11706:-2.2849203441512347e-01
11707:-1.7823897823550441e-01
11708:-4.8561803756362626e-01
11709:-3.7971737678973394e-01
11710:-2.6228528587907440e-01
11711:-1.8640725577659259e-01
11712:-1.6410916531886238e-01
11713:-1.7791064822863609e-01
11714:-1.9466695185599317e-01
11715:-2.0580114463489144e-01
11716:-1.5987443141486696e-01
11717:-1.4854947811278327e-01
11718:-1.3457339471274896e-01
11719:-1.2328857658429675e-01
11720:-1.5441717627771001e-01
11721:-1.1353853978249340e-01
11722:-6.5413741408235651e-02
11723:-3.0789049637522201e-02
11724:-1.5042840531125237e-01
11725:-8.9263466543023098e-02
11726:-1.9131494057281297e-02
11727:2.9331323458171497e-02
11728:-2.1093679717065550e-01
11729:-2.1899569326487200e-01
11730:-2.2544546846343974e-01
11731:-2.2641287699500909e-01
11732:-1.1680483733048208e-01
11733:-1.0443088929181929e-01
11734:-8.7193764941302293e-02
11735:-7.2381359666218725e-02
11736:-1.2730598586754014e-02
11737:1.9658505172781882e-02
11738:5.9590950925806012e-02
11739:8.9145856604863280e-02
11740:5.3820009460079969e-02
11741:9.6980348155048704e-02
11742:1.4857238758420047e-01
11743:1.8528437011779020e-01
11744:-2.2527836217515088e-01
11745:-2.1974680888894435e-01
11746:-2.0528277964243827e-01
11747:-1.8816445843310231e-01
11748:-6.3708131112528057e-02
11749:-4.5816412342276319e-02
11750:-1.9252331811182414e-02
11751:3.6175706117641403e-03
11752:1.0473637497256448e-01
11753:1.3388015899290762e-01
11754:1.7109192296558590e-01
11755:1.9845721354501622e-01
11756:2.0409095392730306e-01
11757:2.3836281750752691e-01
11758:2.8002880998914581e-01
11759:3.0865305791787029e-01
11760:-1.7677756416937498e-01
11761:-1.5093109360010223e-01
11762:-1.0710352985474084e-01
11763:-6.4623870618688031e-02
11764:1.6673050092902153e-02
11765:4.2291135701025627e-02
11766:7.8177139790698472e-02
11767:1.0789832943626132e-01
11768:2.1245569900716241e-01
11769:2.3692093315597795e-01
11770:2.6453078923417189e-01
11771:2.8181373292662881e-01
11772:3.2246561373975485e-01
11773:3.4529608704029002e-01
11774:3.6770363434467379e-01
11775:3.7808807345065049e-01
11776:-3.8468441848178769e-02
11777:1.7721346528138351e-02
11778:1.0241839126200458e-01
11779:1.7372891429675100e-01
11780:1.2481607090210536e-01
11781:1.6178513811318901e-01
11782:2.1873977343209219e-01
11783:2.6714377165881542e-01
11784:2.8981237674574856e-01
11785:3.0787866793184987e-01
11786:3.3689287718633781e-01
11787:3.6181127229770393e-01
11788:3.8126371130003506e-01
11789:3.8883217633848699e-01
11790:4.0178936011276989e-01
11791:4.1286931721119735e-01
11792:2.1334051779952293e-01
11793:2.8962433304846907e-01
11794:3.8986892019897440e-01
11795:4.6458356341506885e-01
11796:2.9412214137765630e-01
11797:3.4683667887437458e-01
11798:4.1714479769918700e-01
11799:4.6986827811761239e-01
11800:3.7571276062391779e-01
11801:4.0390494492025275e-01
11802:4.4304076374638052e-01
11803:4.7302676469329197e-01
11804:4.1896180384184195e-01
11805:4.3238914450608762e-01
11806:4.5270955980669880e-01
11807:4.6909375520539326e-01
11808:5.0290309072504791e-01
11809:5.7080366155554663e-01
11810:6.4741280637866849e-01
11811:6.9337979279358108e-01
11812:4.9696953624282059e-01
11813:5.4624940589711657e-01
11814:6.0449090112868253e-01
11815:6.4169768527228332e-01
11816:4.8861599083314838e-01
11817:5.1860085100521436e-01
11818:5.5749005399604501e-01
11819:5.8528958084899796e-01
11820:4.7786660569768230e-01
11821:4.9625483464483605e-01
11822:5.2319297985142366e-01
11823:5.4496457712621860e-01
11824:7.1229782846234513e-01
11825:7.3596198525689538e-01
11826:7.4432316291433454e-01
11827:7.3423348159689061e-01
11828:6.5792126167234311e-01
11829:6.7805546738525646e-01
11830:6.8433241210276707e-01
11831:6.7458472452266971e-01
11832:5.9858550926012655e-01
11833:6.1533618527405298e-01
11834:6.2082926802508065e-01
11835:6.1317521866259128e-01
11836:5.5631646318524686e-01
11837:5.7120535345351886e-01
11838:5.7745839794349341e-01
11839:5.7268319455321159e-01
11840:7.2322171641067290e-01
11841:6.9274792907476357e-01
11842:6.3710433739944783e-01
11843:5.8519326511638836e-01
11844:6.6439419762800667e-01
11845:6.3577752470409676e-01
11846:5.8306750422226483e-01
11847:5.3386194506217943e-01
11848:6.0495381774329660e-01
11849:5.8024379825987615e-01
11850:5.3272365545243483e-01
11851:4.8753186432690909e-01
11852:5.6670100388783484e-01
11853:5.4626654991287327e-01
11854:5.0407926489927213e-01
11855:4.6266217973177176e-01
11856:5.5507914626063493e-01
11857:4.9527795897105792e-01
11858:4.1427895067545156e-01
11859:3.5292227958313704e-01
11860:5.0533897327847410e-01
11861:4.4824982427706644e-01
11862:3.7010264924131897e-01
11863:3.1037603042687595e-01
11864:4.6113467409339853e-01
11865:4.0770116546008256e-01
11866:3.3352156555683399e-01
11867:2.7614380347534478e-01
11868:4.3813438548934647e-01
11869:3.8797105815874600e-01
11870:3.1750428973754180e-01
11871:2.6245886433788751e-01
11872:3.2136736667522037e-01
11873:2.6559270899370196e-01
11874:2.0081864844983072e-01
11875:1.5830155917464370e-01
11876:2.7953454923943222e-01
11877:2.2563547500066783e-01
11878:1.6423647489207607e-01
11879:1.2474865274723594e-01
11880:2.4632037471414411e-01
11881:1.9442202653374602e-01
11882:1.3563989384656266e-01
11883:9.7906801347180064e-02
11884:2.3367567787159052e-01
11885:1.8338618646366614e-01
11886:1.2590080451638014e-01
11887:8.8419621675727519e-02
11888:1.3845385132978386e-01
11889:1.0638060786760131e-01
11890:7.3437612955135706e-02
11891:5.3944913614206974e-02
11892:1.0660136864577209e-01
11893:7.7902304744147693e-02
11894:4.9557058733386138e-02
11895:3.3575316524534819e-02
11896:8.0572332975583999e-02
11897:5.3796042277638560e-02
11898:2.8706563402647517e-02
11899:1.5636550541927138e-02
11900:7.0966081526886771e-02
11901:4.4271824673237224e-02
11902:1.9978495221789079e-02
11903:7.9776660872581673e-03
11904:4.5292991764369898e-02
11905:3.1978804612779084e-02
11906:1.9528696651819402e-02
11907:1.3047544527909481e-02
11908:2.6753603299593160e-02
11909:1.6925928177226612e-02
11910:9.0318251070135597e-03
11911:5.9315633524978095e-03
11912:1.0462303928314064e-02
11913:3.7280060180899777e-03
11914:-2.6866867928092102e-04
11915:-5.8956178358899995e-04
11916:3.5031891493760041e-03
11917:-1.9261291295538348e-03
11918:-4.3317486195012158e-03
11919:-3.5608180333632903e-03
11920:1.0464394884726901e-02
11921:6.7709228706646684e-03
11922:3.3619574682380144e-03
11923:1.1178462373869122e-03
11924:5.0583298574439807e-03
11925:4.0357702347090900e-03
11926:2.9639018562573273e-03
11927:1.6112709386641678e-03
11928:-9.5629344332850145e-05
11929:9.9423927307551127e-04
11930:1.6430478339655790e-03
11931:7.2334336715818026e-04
11932:-2.5415281696295261e-03
11933:-5.9243812295555127e-04
11934:7.9091611872203677e-04
11935:1.4709886005055592e-05
11936:-2.6155172698733371e+00
11937:-2.1776379896814868e+00
11938:-1.6988988740172188e+00
11939:-1.3978424571618464e+00
11940:-3.2357592320270809e+00
11941:-2.6933418412014691e+00
11942:-2.0990625337490738e+00
11943:-1.7240236352876264e+00
11944:-4.0214537764417075e+00
11945:-3.3473170174455311e+00
11946:-2.6075662493417742e+00
11947:-2.1393557685186155e+00
11948:-4.6002956539581579e+00
11949:-3.8297811790172158e+00
11950:-2.9837155062434308e+00
11951:-2.4474197363468000e+00
11952:-1.2588545354882144e+00
11953:-1.0268946465183699e+00
11954:-7.7434181018345749e-01
11955:-6.1544248779597732e-01
11956:-1.5502822884264289e+00
11957:-1.2594403597776849e+00
11958:-9.4135076959668496e-01
11959:-7.4028605053774155e-01
11960:-1.9218033057622621e+00
11961:-1.5566443079127235e+00
11962:-1.1558001027237266e+00
11963:-9.0158552488977062e-01
11964:-2.1978236412232039e+00
11965:-1.7782008848292983e+00
11966:-1.3165960217141039e+00
11967:-1.0233644551346870e+00
11968:-5.4174026688335830e-01
11969:-4.1752419054136736e-01
11970:-2.7968210646920583e-01
11971:-1.9069568504691634e-01
11972:-6.4675361879465121e-01
11973:-4.8904180989424456e-01
11974:-3.1420335068095623e-01
11975:-2.0169924182733834e-01
11976:-7.8313871221507769e-01
11977:-5.8365187376789640e-01
11978:-3.6323376982812627e-01
11979:-2.2214511992522867e-01
11980:-8.8666743597672615e-01
11981:-6.5678078747806201e-01
11982:-4.0355315829042826e-01
11983:-2.4212579531084705e-01
11984:-1.4858895839413100e-01
11985:-7.7408474228449570e-02
11986:3.1171007152539054e-03
11987:5.7684299311826233e-02
11988:-1.4868606385315097e-01
11989:-5.9881184252459280e-02
11990:3.8337449248381436e-02
11991:1.0261131287309294e-01
11992:-1.5600485854161344e-01
11993:-4.6252399740546464e-02
11994:7.2058665989932436e-02
11995:1.4614498476366627e-01
11996:-1.6671745826224746e-01
11997:-4.2297458717862779e-02
11998:8.9514541785656682e-02
11999:1.6934816861279806e-01
12000:8.4837588227923796e-02
12001:1.3229366814446317e-01
12002:1.8825369282635540e-01
12003:2.2742667331831126e-01
12004:1.3367637651186484e-01
12005:1.8703629855563381e-01
12006:2.4829005605363322e-01
12007:2.8987141230221986e-01
12008:1.8052057032689750e-01
12009:2.3788625660748303e-01
12010:3.0082484880765359e-01
12011:3.4141958466342726e-01
12012:2.0513505390272260e-01
12013:2.6312228857684933e-01
12014:3.2367773440290831e-01
12015:3.6048007533157250e-01
12016:2.4726015237836249e-01
12017:2.8310944613643985e-01
12018:3.2591966837813696e-01
12019:3.5448769561858290e-01
12020:3.1048981579501905e-01
12021:3.4737265924512944e-01
12022:3.9030362054440565e-01
12023:4.1761688918664608e-01
12024:3.6088194347584446e-01
12025:3.9538347739581586e-01
12026:4.3445311910402951e-01
12027:4.5776827191936093e-01
12028:3.7741423584636996e-01
12029:4.0723304806607302e-01
12030:4.4016916863347305e-01
12031:4.5846959412000254e-01
12032:3.6789734062922991e-01
12033:3.8957688859805173e-01
12034:4.0950105532248920e-01
12035:4.1698234560473907e-01
12036:4.2981870331739519e-01
12037:4.4897551096147620e-01
12038:4.6483389717221907e-01
12039:4.6821273471340125e-01
12040:4.6741883079083996e-01
12041:4.8218432632046543e-01
12042:4.9294736016198853e-01
12043:4.9254764166595039e-01
12044:4.6531066494473577e-01
12045:4.7546718932137005e-01
12046:4.8156054132290022e-01
12047:4.7847143616224569e-01
12048:4.1819274067682527e-01
12049:4.2137166181157182e-01
12050:4.2739686450829217e-01
12051:4.3236935632043094e-01
12052:4.6676237516617985e-01
12053:4.6377791121989487e-01
12054:4.5970524207101343e-01
12055:4.5561311727591641e-01
12056:4.8897825731797162e-01
12057:4.8094612109430745e-01
12058:4.6840180503469597e-01
12059:4.5671096930837718e-01
12060:4.7370119794874738e-01
12061:4.6310557472553943e-01
12062:4.4674756907916757e-01
12063:4.3203016931744898e-01
12064:4.3497575073599670e-01
12065:4.4176321991817513e-01
12066:4.5359964456380719e-01
12067:4.6389326133103709e-01
12068:4.5300983791812788e-01
12069:4.4982099848319401e-01
12070:4.4886371928783886e-01
12071:4.4998651799864642e-01
12072:4.4976700026097238e-01
12073:4.3815198790818238e-01
12074:4.2623805183936586e-01
12075:4.1947963773805480e-01
12076:4.2348752255768829e-01
12077:4.0863665853967629e-01
12078:3.9229340617858233e-01
12079:3.8226652405496253e-01
12080:4.6963890945167730e-01
12081:4.8279993181939296e-01
12082:5.0420227886320135e-01
12083:5.2307072857140036e-01
12084:4.5117777318285535e-01
12085:4.5624198662289223e-01
12086:4.6865457349520878e-01
12087:4.8250848463496648e-01
12088:4.1674459387917884e-01
12089:4.1440462997631550e-01
12090:4.1792551381360837e-01
12091:4.2642498367057957e-01
12092:3.7787598595522609e-01
12093:3.7209888151045306e-01
12094:3.7110552777795536e-01
12095:3.7677760315360537e-01
12096:5.3344642026818168e-01
12097:5.4753409231434780e-01
12098:5.5461986297979116e-01
12099:5.5181363796269822e-01
12100:4.9108383385123017e-01
12101:5.0381073349449834e-01
12102:5.1284426481287493e-01
12103:5.1412708461159640e-01
12104:4.3296976933901515e-01
12105:4.4453604533996344e-01
12106:4.5696681102429515e-01
12107:4.6418695914817648e-01
12108:3.8228172535964222e-01
12109:3.9380630382569248e-01
12110:4.0968063131158589e-01
12111:4.2182703633465846e-01
12112:5.4728296184016390e-01
12113:5.2959610359542786e-01
12114:4.9078387764267878e-01
12115:4.5169373447217109e-01
12116:5.1254777909846250e-01
12117:5.0042150590598922e-01
12118:4.6840921573529737e-01
12119:4.3398872922253434e-01
12120:4.6674182593315383e-01
12121:4.6246411721149211e-01
12122:4.4023739219748115e-01
12123:4.1270476479411888e-01
12124:4.2765669839057990e-01
12125:4.2974266076547502e-01
12126:4.1581340934902838e-01
12127:3.9441719870068997e-01
12128:4.2829278513469299e-01
12129:3.8012613155050584e-01
12130:3.1198999399113631e-01
12131:2.5846024109506749e-01
12132:4.1284951079260063e-01
12133:3.6878818777844519e-01
12134:3.0560053442984925e-01
12135:2.5536824826075361e-01
12136:3.9497725297345265e-01
12137:3.5728832008770606e-01
12138:3.0203635522008743e-01
12139:2.5721272035522402e-01
12140:3.7984153403336662e-01
12141:3.4812538938894960e-01
12142:3.0039971850970604e-01
12143:2.6073635958119457e-01
12144:2.3036772685842452e-01
12145:1.8106380246778767e-01
12146:1.2419216038258553e-01
12147:8.6623905022560593e-02
12148:2.2878764276713517e-01
12149:1.8151196884968288e-01
12150:1.2563916418030641e-01
12151:8.7577166491971462e-02
12152:2.3312691254223816e-01
12153:1.8907132188732426e-01
12154:1.3458819140766698e-01
12155:9.5609227550007156e-02
12156:2.3903188738734016e-01
12157:1.9806229003821102e-01
12158:1.4505434021341218e-01
12159:1.0551044826345254e-01
12160:6.8941449001602262e-02
12161:4.1947805406788691e-02
12162:1.7598434407238600e-02
12163:5.7929403160775226e-03
12164:6.9238764314605100e-02
12165:4.1210078754741572e-02
12166:1.6061785082302348e-02
12167:4.0439784986100328e-03
12168:7.6195569568198104e-02
12169:4.6265281792786710e-02
12170:1.9097556147476356e-02
12171:5.8764691148897458e-03
12172:8.5313207955885234e-02
12173:5.3846895108878960e-02
12174:2.4721838461569768e-02
12175:1.0047895714251614e-02
12176:1.4948994588804910e-03
12177:-3.5969144291660535e-03
12178:-5.5874423379420196e-03
12179:-4.5285285556643283e-03
12180:-2.4247792388173254e-04
12181:-5.2713272642411794e-03
12182:-7.1386835389447584e-03
12183:-5.9548145522361042e-03
12184:1.0611696461770475e-03
12185:-4.8681986417775849e-03
12186:-7.7130692999520358e-03
12187:-7.0895187572605056e-03
12188:4.4800345353546191e-03
12189:-2.7766969982369882e-03
12190:-7.1128952117805802e-03
12191:-7.3885948793384632e-03
12192:-3.3662592676045838e-03
12193:-1.1298603699571353e-03
12194:5.8503794766765545e-04
12195:-5.1185235127567981e-05
12196:-4.7056724541449362e-03
12197:-2.1197037763741218e-03
12198:3.2767022688391987e-04
12199:3.5537352615384795e-04
12200:-6.0482206944634451e-03
12201:-3.4509373429444153e-03
12202:-1.9569217539892110e-04
12203:1.0224305540050764e-03
12204:-6.7185500448024372e-03
12205:-4.5102024070519699e-03
12206:-1.0731949488657277e-03
12207:8.7275764134230483e-04
12208:-4.8988894036818742e+00
12209:-4.0789718288690739e+00
12210:-3.1784724589728506e+00
12211:-2.6073273130386436e+00
12212:-5.4384348001093015e+00
12213:-4.5304715661648318e+00
12214:-3.5332225646300115e+00
12215:-2.9001934640720006e+00
12216:-6.0960304434250849e+00
12217:-5.0833956160305238e+00
12218:-3.9716778247071143e+00
12219:-3.2655307674097740e+00
12220:-6.5595423569821945e+00
12221:-5.4753545592887889e+00
12222:-4.2858156370430978e+00
12223:-3.5300028421993122e+00
12224:-2.3413196371031217e+00
12225:-1.8937488499833506e+00
12226:-1.4008940337130451e+00
12227:-1.0875756031275927e+00
12228:-2.6050131115082862e+00
12229:-2.1076043208094606e+00
12230:-1.5587812014551961e+00
12231:-1.2093682327460784e+00
12232:-2.9358073761518595e+00
12233:-2.3790614211475924e+00
12234:-1.7631231342807547e+00
12235:-1.3702048028076821e+00
12236:-3.1767357421365814e+00
12237:-2.5792865437073575e+00
12238:-1.9169500724187045e+00
12239:-1.4938112957265757e+00
12240:-9.4148882630599018e-01
12241:-6.9601905410914933e-01
12242:-4.2607421624163916e-01
12243:-2.5434713270792908e-01
12244:-1.0463894299064227e+00
12245:-7.7293868786854347e-01
12246:-4.7309859053345499e-01
12247:-2.8305531886843649e-01
12248:-1.1868348144743894e+00
12249:-8.7969829008702161e-01
12250:-5.4408343525486036e-01
12251:-3.3230978768299724e-01
12252:-1.2962669624574330e+00
12253:-9.6578521129360906e-01
12254:-6.0553539177494597e-01
12255:-3.7893442312723685e-01
12256:-1.7426253096577651e-01
12257:-4.2463006966075557e-02
12258:9.5984811124348743e-02
12259:1.7837381551516379e-01
12260:-1.9469169472148412e-01
12261:-4.9849831894149502e-02
12262:1.0014514602514088e-01
12263:1.8665167390386830e-01
12264:-2.3418868414787578e-01
12265:-7.3932447705259377e-02
12266:8.9556451392080821e-02
12267:1.8044044936038434e-01
12268:-2.7419762816013765e-01
12269:-1.0337516938053215e-01
12270:6.9410949331072405e-02
12271:1.6313942529324610e-01
12272:2.1458849724409068e-01
12273:2.7216271182593293e-01
12274:3.3026701062502467e-01
12275:3.6403457015842344e-01
12276:2.2328057613727939e-01
12277:2.7917511094979108e-01
12278:3.3119106194089165e-01
12279:3.5793714904253432e-01
12280:2.1708151080421539e-01
12281:2.6941252702292268e-01
12282:3.1098740422469362e-01
12283:3.2621387689913678e-01
12284:1.9955487175492315e-01
12285:2.4837199899074899e-01
12286:2.8026821492744902e-01
12287:2.8496166006387363e-01
12288:3.7906209874864571e-01
12289:4.0540050682134871e-01
12290:4.3395404936850768e-01
12291:4.4888198170703403e-01
12292:3.6863712371830143e-01
12293:3.8714128908245993e-01
12294:4.0608046137622672e-01
12295:4.1391400852588339e-01
12296:3.2989739883307356e-01
12297:3.3574938962246137e-01
12298:3.3946716901090379e-01
12299:3.3650280509016600e-01
12300:2.8224659703190852e-01
12301:2.7654146776470490e-01
12302:2.6644748997709017e-01
12303:2.5388418739774393e-01
12304:4.5391047991679012e-01
12305:4.6108987158113346e-01
12306:4.6420705727910472e-01
12307:4.5951291858719479e-01
12308:4.1524784860443176e-01
12309:4.1639145030574870e-01
12310:4.1366578170110602e-01
12311:4.0615094543374253e-01
12312:3.3238984923134768e-01
12313:3.2454398943372470e-01
12314:3.1311946453152989e-01
12315:3.0168017815183157e-01
12316:2.4501398400442939e-01
12317:2.2911443074161519e-01
12318:2.0956462281277891e-01
12319:1.9428073302941323e-01
12320:4.5410138792567489e-01
12321:4.4237246489195192e-01
12322:4.2474257690680661e-01
12323:4.0933061230750351e-01
12324:3.9982663386556322e-01
12325:3.8707243015943799e-01
12326:3.6940927528868550e-01
12327:3.5501282831196163e-01
12328:2.9435320296438006e-01
12329:2.8173377442392106e-01
12330:2.6778627015101097e-01
12331:2.5860073106602921e-01
12332:1.8593334409063431e-01
12333:1.7379116699302477e-01
12334:1.6458008817366976e-01
12335:1.6159751098238018e-01
12336:4.0052852338251493e-01
12337:3.8504187744539081e-01
12338:3.6764041351465981e-01
12339:3.5675383389522114e-01
12340:3.4706686661667996e-01
12341:3.3268050762592105e-01
12342:3.1581205414307362e-01
12343:3.0492661619486944e-01
12344:2.5405001600560628e-01
12345:2.4508388558768515e-01
12346:2.3352485087610975e-01
12347:2.2582653247551956e-01
12348:1.6099169270531960e-01
12349:1.5866636666739031e-01
12350:1.5436646990063838e-01
12351:1.5157536345462153e-01
12352:3.5190500737716657e-01
12353:3.4503490081320870e-01
12354:3.4247672421380415e-01
12355:3.4717569720133656e-01
12356:2.9998533449223341e-01
12357:2.9240370845778163e-01
12358:2.8826050898496153e-01
12359:2.9167565212851221e-01
12360:2.2237362289292262e-01
12361:2.1678507037546757e-01
12362:2.1374313551247678e-01
12363:2.1700749647681322e-01
12364:1.5060171361279293e-01
12365:1.4905243516894198e-01
12366:1.4975942702168335e-01
12367:1.5452699110224752e-01
12368:3.5236481527640529e-01
12369:3.6421429054781335e-01
12370:3.8216921570197349e-01
12371:3.9696708976795836e-01
12372:2.9632652102746332e-01
12373:3.0834257989954045e-01
12374:3.2887806134796627e-01
12375:3.4736278163510198e-01
12376:2.2131013301342836e-01
12377:2.3305041285273106e-01
12378:2.5471938819894480e-01
12379:2.7573552627250203e-01
12380:1.5910099403647066e-01
12381:1.7077042872585857e-01
12382:1.9230501336008185e-01
12383:2.1408622317295470e-01
12384:4.0450840871925642e-01
12385:4.1002072754496466e-01
12386:4.0076941834273178e-01
12387:3.8298237031197102e-01
12388:3.5744047694615710e-01
12389:3.6856803087775353e-01
12390:3.6775813498576698e-01
12391:3.5682489122030658e-01
12392:2.8793607040196295e-01
12393:3.0501790844091470e-01
12394:3.1473464000041323e-01
12395:3.1290800886899967e-01
12396:2.2731324926363514e-01
12397:2.4837211331778844e-01
12398:2.6614402239321239e-01
12399:2.7151369523621527e-01
12400:3.7030905963785710e-01
12401:3.4220504478199659e-01
12402:2.9902940968989111e-01
12403:2.6248662526647842e-01
12404:3.4781458341368771e-01
12405:3.2660049497047067e-01
12406:2.9213873329187529e-01
12407:2.6176954801825825e-01
12408:3.0880766503941609e-01
12409:2.9661853510957842e-01
12410:2.7352148179613628e-01
12411:2.5152787495932905e-01
12412:2.7126414013681416e-01
12413:2.6595250104125151e-01
12414:2.5140964671523164e-01
12415:2.3591797427517680e-01
12416:2.4222513466837173e-01
12417:2.0316984556432169e-01
12418:1.5122132441317795e-01
12419:1.1155626697682532e-01
12420:2.4449869938789079e-01
12421:2.0981814768733240e-01
12422:1.6116555115187228e-01
12423:1.2230704136359394e-01
12424:2.3856352772437026e-01
12425:2.1102869237833680e-01
12426:1.6944361654551751e-01
12427:1.3401162211477491e-01
12428:2.2646753493211053e-01
12429:2.0540700446046409e-01
12430:1.7138574088687716e-01
12431:1.4053637785790710e-01
12432:9.1031389851199046e-02
12433:5.8837769944784173e-02
12434:2.8637030910389077e-02
12435:1.3061521723008953e-02
12436:1.0166322118874180e-01
12437:6.8707313985765003e-02
12438:3.6748579810098568e-02
12439:1.9419971955708094e-02
12440:1.1441140300843139e-01
12441:8.1980155347049916e-02
12442:4.8509484807537598e-02
12443:2.8880533275758992e-02
12444:1.2276183623547250e-01
12445:9.2071867250679937e-02
12446:5.8205204037034074e-02
12447:3.6883859678009764e-02
12448:6.9955733559002933e-03
12449:-1.1456736757727046e-03
12450:-6.4777965300238114e-03
12451:-7.3562466668693812e-03
12452:1.2342246100277869e-02
12453:2.4620651665975607e-03
12454:-4.7392278618069612e-03
12455:-6.7160793607864890e-03
12456:2.0364413523105595e-02
12457:8.1307028056751621e-03
12458:-1.4054533414475758e-03
12459:-4.6748413554246462e-03
12460:2.7203897109060602e-02
12461:1.3146236466570330e-02
12462:1.9415218985187400e-03
12463:-2.1924648891240078e-03
12464:-6.9404046583043874e-03
12465:-5.0833066987190706e-03
12466:-1.7903224533213618e-03
12467:3.4897630279093721e-04
12468:-6.7685531769811494e-03
12469:-5.7048116774474408e-03
12470:-3.1663804464227567e-03
12471:-1.2614873121520444e-03
12472:-5.2797472924351772e-03
12473:-5.3374223553641371e-03
12474:-4.3046130650558857e-03
12475:-3.4122688344207508e-03
12476:-3.1649844526979091e-03
12477:-4.0209472935232929e-03
12478:-4.1499548877457952e-03
12479:-4.1078896081031000e-03
12480:-6.7907657745810148e+00
12481:-5.6717919668069126e+00
12482:-4.4445646595819479e+00
12483:-3.6647065113782520e+00
12484:-7.1932640922616287e+00
12485:-6.0159764090936010e+00
12486:-4.7256623334960315e+00
12487:-3.9056872472820485e+00
12488:-7.6522200977436183e+00
12489:-6.4135083893189213e+00
12490:-5.0568554238435803e+00
12491:-4.1949563434814046e+00
12492:-7.9493780531245033e+00
12493:-6.6756050613179756e+00
12494:-5.2811688843224696e+00
12495:-4.3956095755804334e+00
12496:-3.3000095586415656e+00
12497:-2.6827171261050435e+00
12498:-1.9976544521387802e+00
12499:-1.5596778864973513e+00
12500:-3.5219885533792321e+00
12501:-2.8718311943587453e+00
12502:-2.1492898292622495e+00
12503:-1.6869037597413836e+00
12504:-3.7915527533855919e+00
12505:-3.1076329326263865e+00
12506:-2.3470047822224172e+00
12507:-1.8599612177487415e+00
12508:-3.9812167263850538e+00
12509:-3.2787532050603412e+00
12510:-2.4975706790405732e+00
12511:-1.9973344524865013e+00
12512:-1.3551755800040513e+00
12513:-1.0132585686886151e+00
12514:-6.4100206141206473e-01
12515:-4.0723344687995233e-01
12516:-1.4709573291898641e+00
12517:-1.1102382650947755e+00
12518:-7.1840862752181223e-01
12519:-4.7324438116076045e-01
12520:-1.6324524129880216e+00
12521:-1.2526796642752425e+00
12522:-8.4126555829957039e-01
12523:-5.8526787873752373e-01
12524:-1.7636238970338327e+00
12525:-1.3735236973398626e+00
12526:-9.5163492743655176e-01
12527:-6.9031651122194293e-01
12528:-2.9931844871632396e-01
12529:-1.2336154549109354e-01
12530:5.4006672541657405e-02
12531:1.4913666441032067e-01
12532:-3.6042676436476934e-01
12533:-1.7660711300206980e-01
12534:7.8321632766692253e-03
12535:1.0529793123906424e-01
12536:-4.6812291622581487e-01
12537:-2.7769717448514220e-01
12538:-8.7588407599963974e-02
12539:1.1759900700115004e-02
12540:-5.7136340016243881e-01
12541:-3.7867393541404559e-01
12542:-1.8724579692899296e-01
12543:-8.7789195145883778e-02
12544:1.8541087719862681e-01
12545:2.3221098290808981e-01
12546:2.5852675989524715e-01
12547:2.5711029545874536e-01
12548:1.4152279160021644e-01
12549:1.8533666883872568e-01
12550:2.0242035859841398e-01
12551:1.9019971978791211e-01
12552:4.8024452765024039e-02
12553:8.9322126515637798e-02
12554:9.7293552742689679e-02
12555:7.3100292166623337e-02
12556:-5.1701241557349363e-02
12557:-1.1584840830450614e-02
12558:-8.2753290985155773e-03
12559:-3.9622753766010085e-02
12560:2.5066556971440224e-01
12561:2.3819041787890360e-01
12562:2.1999857518620825e-01
12563:2.0185592596971180e-01
12564:1.7688417782960256e-01
12565:1.5154375509987508e-01
12566:1.1764008246403369e-01
12567:8.8804022131015029e-02
12568:5.1602551658452685e-02
12569:9.7806160919758581e-03
12570:-4.5560754105718339e-02
12571:-8.9195706939188907e-02
12572:-6.6493520981930648e-02
12573:-1.2039708569806618e-01
12574:-1.9299778439344603e-01
12575:-2.4907815432587657e-01
12576:1.9024617999282667e-01
12577:1.6962616739817921e-01
12578:1.4513969580052150e-01
12579:1.2736683879279090e-01
12580:7.2099081466386369e-02
12581:4.2842600878047261e-02
12582:9.2101651908249090e-03
12583:-1.3616781215219904e-02
12584:-1.1278337602893178e-01
12585:-1.5314906444970514e-01
12586:-1.9822476308204098e-01
12587:-2.2785130130000200e-01
12588:-2.7846184944007257e-01
12589:-3.2762974068249573e-01
12590:-3.8112912141082089e-01
12591:-4.1578498693092791e-01
12592:1.1827789595477690e-01
12593:1.0627407180197876e-01
12594:9.9881209019814898e-02
12595:1.0069011709999762e-01
12596:-2.4552889611301809e-02
12597:-3.7371182255829749e-02
12598:-3.9804586151773409e-02
12599:-3.2455437607417835e-02
12600:-2.4174453530678344e-01
12601:-2.5756027427861888e-01
12602:-2.5810050171522853e-01
12603:-2.4439298222077538e-01
12604:-4.3208761589996525e-01
12605:-4.5143521830319311e-01
12606:-4.5329789908295026e-01
12607:-4.3700961785170411e-01
12608:1.0251275964874373e-01
12609:1.0440921990056795e-01
12610:1.0499884827595857e-01
12611:1.0570485247951406e-01
12612:-2.6107778690259410e-02
12613:-1.5705556706823741e-02
12614:-4.2732944208710910e-03
12615:4.6390532968750729e-03
12616:-2.3288078491793815e-01
12617:-2.1115951560021515e-01
12618:-1.8282668952230177e-01
12619:-1.5994337346509682e-01
12620:-4.2255741567974031e-01
12621:-3.9264261534185424e-01
12622:-3.4965020118228413e-01
12623:-3.1354702816280294e-01
12624:1.0655565714744332e-01
12625:1.0810848200494341e-01
12626:1.1194213005650247e-01
12627:1.1819439176110842e-01
12628:9.8166647140000441e-03
12629:1.8732619623111318e-02
12630:3.0282369896213909e-02
12631:4.0761427419340045e-02
12632:-1.4721537418257580e-01
12633:-1.2548805361428716e-01
12634:-1.0011981995106790e-01
12635:-8.1214875695056990e-02
12636:-2.9346968834708137e-01
12637:-2.5928805875075034e-01
12638:-2.2027997394798146e-01
12639:-1.9259447055103696e-01
12640:1.2317979366363706e-01
12641:1.3504410471261113e-01
12642:1.5643615792413793e-01
12643:1.7843188520816139e-01
12644:4.7330430634327590e-02
12645:6.1012834845262355e-02
12646:8.3554437661059799e-02
12647:1.0640112967113619e-01
12648:-7.0912975406520529e-02
12649:-5.1613037676857834e-02
12650:-2.3874333839096724e-02
12651:1.8461634916862196e-03
12652:-1.7811166341786314e-01
12653:-1.5182199674521377e-01
12654:-1.1676439826874667e-01
12655:-8.6927228561920838e-02
12656:1.9210188026596237e-01
12657:2.1519798934319603e-01
12658:2.3729532282466806e-01
12659:2.4654246720493175e-01
12660:1.2084111468502859e-01
12661:1.4717783068325294e-01
12662:1.7621391286277382e-01
12663:1.9193514374640952e-01
12664:1.7651983412998163e-02
12665:4.7686593468997666e-02
12666:8.3783809780650031e-02
12667:1.0639051405402439e-01
12668:-6.9447735967694532e-02
12669:-3.6409589956405621e-02
12670:4.1401046503256687e-03
12671:3.1131227029788273e-02
12672:2.4834752426516996e-01
12673:2.4665493307217473e-01
12674:2.3659606963729418e-01
12675:2.2457674776741354e-01
12676:1.9732821621157512e-01
12677:2.0230993362826438e-01
12678:2.0092867594642022e-01
12679:1.9563885155458202e-01
12680:1.1591071573334265e-01
12681:1.2939447011108776e-01
12682:1.3995446894118241e-01
12683:1.4390226059030900e-01
12684:4.3508635435468651e-02
12685:6.3502848503877427e-02
12686:8.3750519757185629e-02
12687:9.5069466521412876e-02
12688:2.1705401103066768e-01
12689:1.9975371198167657e-01
12690:1.7048456687844046e-01
12691:1.4277509574554112e-01
12692:1.9177350184938921e-01
12693:1.8163357615059517e-01
12694:1.6178392112597234e-01
12695:1.4086876870906515e-01
12696:1.4485788027855673e-01
12697:1.4397193119087170e-01
12698:1.3663195177284537e-01
12699:1.2557004465517674e-01
12700:9.9685968839756028e-02
12701:1.0557711111168459e-01
12702:1.0745019046661843e-01
12703:1.0412179696208591e-01
12704:1.2635736074750803e-01
12705:9.7132061085580271e-02
12706:6.3426814170127077e-02
12707:4.1302097896609963e-02
12708:1.2771398613478066e-01
12709:1.0273900051820299e-01
12710:7.1231346645340171e-02
12711:4.8726787349631345e-02
12712:1.1764436342163019e-01
12713:1.0071711405593053e-01
12714:7.5911804649960349e-02
12715:5.5648806924928122e-02
12716:1.0060343974176347e-01
12717:9.1319488363274359e-02
12718:7.4455605126027752e-02
12719:5.8228838995295129e-02
12720:3.1011236316453861e-02
12721:1.6009564511637979e-02
12722:3.9711175674562666e-03
12723:-5.8286415355626980e-04
12724:3.7698636950582100e-02
12725:2.1355628766549426e-02
12726:7.8702584380571337e-03
12727:2.4622448042569980e-03
12728:4.4843781985917625e-02
12729:2.8100193084528279e-02
12730:1.3182959880671750e-02
12731:6.4266667963848176e-03
12732:4.8715285999395473e-02
12733:3.2996546332405931e-02
12734:1.7475971826659241e-02
12735:9.4405640508223483e-03
12736:-1.7329710924509681e-03
12737:-2.9568710101291504e-03
12738:-3.5830314806378086e-03
12739:-3.8691803190993830e-03
12740:9.4850394489651179e-04
12741:-8.6235940604318956e-04
12742:-2.0090686850183616e-03
12743:-2.4381987834854436e-03
12744:4.2456332595023358e-03
12745:1.5733432896016056e-03
12746:8.1695944849104402e-05
12747:-4.2206446544280782e-05
12748:6.5066771656100333e-03
12749:2.8518064111699645e-03
12750:8.9315928164971747e-04
12751:9.2881978572182148e-04
12752:-8.0872680720825318e+00
12753:-6.7992835766320647e+00
12754:-5.3895728207480822e+00
12755:-4.4945519486582430e+00
12756:-8.3054604439703503e+00
12757:-6.9994104687928003e+00
12758:-5.5703468479696614e+00
12759:-4.6635877872447287e+00
12760:-8.5088239387989368e+00
12761:-7.1962143576267721e+00
12762:-5.7601633022991114e+00
12763:-4.8497738269146931e+00
12764:-8.6014661293839545e+00
12765:-7.2968834586729230e+00
12766:-5.8693903966385967e+00
12767:-4.9650386434891161e+00
12768:-4.0758272805143756e+00
12769:-3.3661872694561250e+00
12770:-2.5772181187077261e+00
12771:-2.0720318664806721e+00
12772:-4.2396513474854913e+00
12773:-3.5217570111887206e+00
12774:-2.7243756331184579e+00
12775:-2.2140759671725592e+00
12776:-4.4246663399478754e+00
12777:-3.7061078219195318e+00
12778:-2.9098782815451125e+00
12779:-2.4011581885673774e+00
12780:-4.5432570512548560e+00
12781:-3.8318000359937350e+00
12782:-3.0456469074405197e+00
12783:-2.5444322529335088e+00
12784:-1.8359827045562163e+00
12785:-1.4419243924270273e+00
12786:-1.0160662718782940e+00
12787:-7.5294235466096038e-01
12788:-1.9756266734448038e+00
12789:-1.5773998085361753e+00
12790:-1.1474900849890286e+00
12791:-8.8298921009582465e-01
12792:-2.1635401659067899e+00
12793:-1.7664593935036945e+00
12794:-1.3382908678245145e+00
12795:-1.0762714006634992e+00
12796:-2.3104900222587377e+00
12797:-1.9194045229628578e+00
12798:-1.4981810496408141e+00
12799:-1.2416108955335639e+00
12800:-6.3353591801099962e-01
12801:-4.4061212752300816e-01
12802:-2.4959742370290333e-01
12803:-1.5065322204074749e-01
12804:-7.6362307323290002e-01
12805:-5.7180314133083343e-01
12806:-3.8329441727003116e-01
12807:-2.8635653125858279e-01
12808:-9.5888644053326388e-01
12809:-7.7176746086733328e-01
12810:-5.9006181596591334e-01
12811:-4.9783048910909705e-01
12812:-1.1273917357565031e+00
12813:-9.4662112421350220e-01
12814:-7.7300073185222928e-01
12815:-6.8598646146605002e-01
12816:-1.1480519415989010e-01
12817:-7.5146917575126121e-02
12818:-7.3494187665884211e-02
12819:-1.0781409257131504e-01
12820:-2.5137969896559820e-01
12821:-2.1275878683668223e-01
12822:-2.1309959393934391e-01
12823:-2.5104415857188750e-01
12824:-4.6484731756779091e-01
12825:-4.2830648898730267e-01
12826:-4.3008308486055252e-01
12827:-4.6997750507097485e-01
12828:-6.5516933688456469e-01
12829:-6.2098546493018325e-01
12830:-6.2374501817197503e-01
12831:-6.6396532192370750e-01
12832:-1.3712076647557492e-01
12833:-1.9708383707137248e-01
12834:-2.7904457291392715e-01
12835:-3.4217077094834081e-01
12836:-2.8350820066287447e-01
12837:-3.5220981307680649e-01
12838:-4.4902766388603865e-01
12839:-5.2433052994601137e-01
12840:-5.0436022458358343e-01
12841:-5.7961674607425673e-01
12842:-6.8955248094293564e-01
12843:-7.7714855375991043e-01
12844:-6.9873089049009618e-01
12845:-7.7592171713795166e-01
12846:-8.9086544313004912e-01
12847:-9.8418139152916240e-01
12848:-3.7488921447557588e-01
12849:-4.2895652445413701e-01
12850:-4.8687578664096809e-01
12851:-5.2408199215873641e-01
12852:-5.6322174044246731e-01
12853:-6.2673018946581815e-01
12854:-6.9336674953488497e-01
12855:-7.3524643536600309e-01
12856:-8.2292775363110227e-01
12857:-8.9782855276691675e-01
12858:-9.7565637647369352e-01
12859:-1.0230616831465345e+00
12860:-1.0336195767910608e+00
12861:-1.1153730073470605e+00
12862:-1.2005890896863598e+00
12863:-1.2513262688625733e+00
12864:-5.4164129789911963e-01
12865:-5.6319064118275697e-01
12866:-5.6671070858180783e-01
12867:-5.4997002629547154e-01
12868:-7.5483538688175311e-01
12869:-7.7993596359776707e-01
12870:-7.8648776642827767e-01
12871:-7.6978218478651550e-01
12872:-1.0445334659736678e+00
12873:-1.0725866263082375e+00
12874:-1.0817451597862764e+00
12875:-1.0657204480268079e+00
12876:-1.2735040926496637e+00
12877:-1.3021459779248474e+00
12878:-1.3115183667436754e+00
12879:-1.2957513644736964e+00
12880:-5.3442371891834006e-01
12881:-5.0052459049165199e-01
12882:-4.4933066775010100e-01
12883:-4.0537398262791913e-01
12884:-7.5306626582415959e-01
12885:-7.1335609604275341e-01
12886:-6.4827766251054308e-01
12887:-5.8977292108699808e-01
12888:-1.0486600515730535e+00
12889:-1.0044609868338463e+00
12890:-9.2559733312929171e-01
12891:-8.5055186753476186e-01
12892:-1.2789081804901015e+00
12893:-1.2334031164957988e+00
12894:-1.1481539678367432e+00
12895:-1.0638092400596371e+00
12896:-3.8083182554182043e-01
12897:-3.3905267113037513e-01
12898:-2.9162843753698109e-01
12899:-2.5839284399403317e-01
12900:-5.5649854617554351e-01
12901:-4.9922222570822050e-01
12902:-4.3376594603726198e-01
12903:-3.8831260822513153e-01
12904:-8.0653416431628455e-01
12905:-7.2854808771682000e-01
12906:-6.3653218263443612e-01
12907:-5.7189063396855866e-01
12908:-1.0131003811192674e+00
12909:-9.2046981680628492e-01
12910:-8.0703969587785607e-01
12911:-7.2557486633973078e-01
12912:-2.4119705478435749e-01
12913:-2.1019769079383360e-01
12914:-1.6998414594143818e-01
12915:-1.3717531450358958e-01
12916:-3.6514476603533341e-01
12917:-3.2385892225785401e-01
12918:-2.7236528541942351e-01
12919:-2.3286778118356857e-01
12920:-5.3915767383661994e-01
12921:-4.8161930064014880e-01
12922:-4.1245072826659357e-01
12923:-3.6223803880055694e-01
12924:-6.8416707087565065e-01
12925:-6.1203579491347759e-01
12926:-5.2717475621253862e-01
12927:-4.6737403706889857e-01
12928:-1.1850868014243299e-01
12929:-8.3656112269436270e-02
12930:-4.0875964804265058e-02
12931:-1.1742999588454867e-02
12932:-2.1140528371410575e-01
12933:-1.7233247946012537e-01
12934:-1.2493180237507646e-01
12935:-9.2009932747369724e-02
12936:-3.3609479504396250e-01
12937:-2.8980288559274775e-01
12938:-2.3494016647549998e-01
12939:-1.9687069478921346e-01
12940:-4.3693956395052330e-01
12941:-3.8380775481431567e-01
12942:-3.2179730386229449e-01
12943:-2.7912423602008812e-01
12944:2.0931825870797349e-03
12945:2.5568252678591485e-02
12946:5.1080048847984505e-02
12947:6.6315342317838269e-02
12948:-7.5783257796544587e-02
12949:-4.6814701985507148e-02
12950:-1.3195881213345285e-02
12951:8.0127479918552826e-03
12952:-1.7782765342023407e-01
12953:-1.4317845221383871e-01
12954:-1.0195076069260843e-01
12955:-7.5296273186750418e-02
12956:-2.5780832370509221e-01
12957:-2.1926933758901032e-01
12958:-1.7357723991662100e-01
12959:-1.4383140524361002e-01
12960:7.2803262297191085e-02
12961:8.2074504197903395e-02
12962:8.8557827055670418e-02
12963:8.9255407078275034e-02
12964:1.7366264709360403e-02
12965:3.2075138348527772e-02
12966:4.6413666099957271e-02
12967:5.4138143516446462e-02
12968:-6.3266277331745183e-02
12969:-4.2900426436943771e-02
12970:-1.9644685899424790e-02
12971:-3.8612968020500429e-03
12972:-1.3018454467610929e-01
12973:-1.0605013737870814e-01
12974:-7.6657628998454699e-02
12975:-5.5578374325092772e-02
12976:8.8127251815193472e-02
12977:8.3279717203186623e-02
12978:7.1527397116831204e-02
12979:5.8280693848878247e-02
12980:5.7195760757164482e-02
12981:6.0323569076604924e-02
12982:5.8398183931516807e-02
12983:5.1648586404396714e-02
12984:3.9160065529060279e-03
12985:1.6246181105676577e-02
12986:2.6603143277772856e-02
12987:2.9200066895073703e-02
12988:-4.4860890767692146e-02
12989:-2.6711593168105660e-02
12990:-7.9511936217772361e-03
12991:1.8789613758917090e-03
12992:4.9893730931821680e-02
12993:3.5282571681508758e-02
12994:1.9717107473863921e-02
12995:1.0955805587526988e-02
12996:4.6149364909443859e-02
12997:3.5205767149283140e-02
12998:2.1489283861710909e-02
12999:1.2452128112108274e-02
13000:2.8509516941738634e-02
13001:2.5002644558462683e-02
13002:1.7679561085914588e-02
13003:1.1053878526540909e-02
13004:5.3223089669925628e-03
13005:9.1150127643363811e-03
13006:9.6580020901682485e-03
13007:7.2909379725658646e-03
13008:7.5386004674675641e-03
13009:3.2086389036576264e-03
13010:8.0596008752755952e-04
13011:7.5884573243240213e-04
13012:8.4882227676793143e-03
13013:3.2060942817968359e-03
13014:-1.6135410697070397e-04
13015:-7.4826716736479959e-04
13016:7.5492226488788911e-03
13017:2.4105614020154100e-03
13018:-1.7002386128728677e-03
13019:-3.2892639786541223e-03
13020:5.2979314708580102e-03
13021:1.8126116165255194e-03
13022:-1.9011625995768262e-03
13023:-4.0881683429253839e-03
13024:-8.6282912971922681e+00
13025:-7.3325844690769832e+00
13026:-5.9145392100069571e+00
13027:-5.0164750392736099e+00
13028:-8.6360259577760345e+00
13029:-7.3654742537088129e+00
13030:-5.9743587245577690e+00
13031:-5.0936839148598851e+00
13032:-8.5627590560942153e+00
13033:-7.3414150805420677e+00
13034:-6.0034028734956300e+00
13035:-5.1564577914311691e+00
13036:-8.4434601169827950e+00
13037:-7.2720773914380139e+00
13038:-5.9883559539149243e+00
13039:-5.1757477298340460e+00
13040:-4.5979210441290421e+00
13041:-3.8928593212619762e+00
13042:-3.1152314994327370e+00
13043:-2.6201958468443873e+00
13044:-4.6836618353423791e+00
13045:-3.9946878610453096e+00
13046:-3.2377315071247503e+00
13047:-2.7576729890391580e+00
13048:-4.7624713440027167e+00
13049:-4.1023227510104157e+00
13050:-3.3808034706888157e+00
13051:-2.9261350100069894e+00
13052:-4.7978619407277678e+00
13053:-4.1657460018166024e+00
13054:-3.4774493106566218e+00
13055:-3.0461576987855512e+00
13056:-2.3892777065148545e+00
13057:-2.0032225348850239e+00
13058:-1.5877805345125322e+00
13059:-1.3354690677834904e+00
13060:-2.5342520816256990e+00
13061:-2.1612077216272572e+00
13062:-1.7611691914454073e+00
13063:-1.5199007518176417e+00
13064:-2.7156131586789867e+00
13065:-2.3659580086963214e+00
13066:-1.9946555237781611e+00
13067:-1.7738221778023533e+00
13068:-2.8475454271079710e+00
13069:-2.5201773192675434e+00
13070:-2.1770826214602566e+00
13071:-1.9763951012165726e+00
13072:-1.2235742106340519e+00
13073:-1.0472244171665017e+00
13074:-8.7896055023746511e-01
13075:-7.9529823374958386e-01
13076:-1.4137370603499246e+00
13077:-1.2477358360980424e+00
13078:-1.0915650295196981e+00
13079:-1.0155930705484344e+00
13080:-1.6779108070086144e+00
13081:-1.5296942204859760e+00
13082:-1.3938744483799681e+00
13083:-1.3313518407825518e+00
13084:-1.8904634033226224e+00
13085:-1.7593101010557615e+00
13086:-1.6430917469280841e+00
13087:-1.5940951189166770e+00
13088:-7.6586451167821568e-01
13089:-7.3330042060131717e-01
13090:-7.3683211266110304e-01
13091:-7.7714475165861974e-01
13092:-9.8954228066129657e-01
13093:-9.6170673534143303e-01
13094:-9.6887121606069315e-01
13095:-1.0106192527398028e+00
13096:-1.3116881147264132e+00
13097:-1.2938594458422910e+00
13098:-1.3100799371599607e+00
13099:-1.3556928658214067e+00
13100:-1.5812061119291585e+00
13101:-1.5743079373943263e+00
13102:-1.6004170123597654e+00
13103:-1.6496822100903938e+00
13104:-8.1193024438486849e-01
13105:-8.8929505145539278e-01
13106:-1.0051129876142633e+00
13107:-1.0999125894375217e+00
13108:-1.0458271469842866e+00
13109:-1.1231318261799061e+00
13110:-1.2381329419769502e+00
13111:-1.3326231228098295e+00
13112:-1.3918123951820851e+00
13113:-1.4680694822190006e+00
13114:-1.5779768730942323e+00
13115:-1.6673011716084356e+00
13116:-1.6861877468733992e+00
13117:-1.7603362441437953e+00
13118:-1.8636932778500768e+00
13119:-1.9465988041823867e+00
13120:-1.1505109685187311e+00
13121:-1.2348470265871405e+00
13122:-1.3231257697849999e+00
13123:-1.3750618303724518e+00
13124:-1.3834352973870552e+00
13125:-1.4690433167980050e+00
13126:-1.5589350190738969e+00
13127:-1.6105179216083259e+00
13128:-1.7154143826861044e+00
13129:-1.7969966489181783e+00
13130:-1.8820611406372718e+00
13131:-1.9287247888623482e+00
13132:-1.9912503417032488e+00
13133:-2.0669273414253881e+00
13134:-2.1446195847949414e+00
13135:-2.1850857193269446e+00
13136:-1.3972571439119079e+00
13137:-1.4254604748280719e+00
13138:-1.4341052745290703e+00
13139:-1.4181865667868738e+00
13140:-1.6316037645103731e+00
13141:-1.6572788778348126e+00
13142:-1.6629854965933473e+00
13143:-1.6459010941809198e+00
13144:-1.9464162456941911e+00
13145:-1.9657749529138941e+00
13146:-1.9643991147426683e+00
13147:-1.9433827249079836e+00
13148:-2.1991100936043630e+00
13149:-2.2117576515570256e+00
13150:-2.2023365075192483e+00
13151:-2.1758495226795382e+00
13152:-1.4015119795311208e+00
13153:-1.3559698796495319e+00
13154:-1.2689805805341945e+00
13155:-1.1812837271049941e+00
13156:-1.6291646210892494e+00
13157:-1.5834946380415404e+00
13158:-1.4948249254796016e+00
13159:-1.4035733816782123e+00
13160:-1.9252317357496247e+00
13161:-1.8777513475523278e+00
13162:-1.7873960997606855e+00
13163:-1.6945985117396420e+00
13164:-2.1550972116591312e+00
13165:-2.1037842053462894e+00
13166:-2.0105078243108117e+00
13167:-1.9170054032880015e+00
13168:-1.1278643922994247e+00
13169:-1.0284071980370844e+00
13170:-9.0373377047586145e-01
13171:-8.1280144812635813e-01
13172:-1.3470736299045662e+00
13173:-1.2384349365742124e+00
13174:-1.0962882169274364e+00
13175:-9.8898542055249539e-01
13176:-1.6368111241650378e+00
13177:-1.5220392895220181e+00
13178:-1.3643884718957586e+00
13179:-1.2397625460473811e+00
13180:-1.8592446949870658e+00
13181:-1.7428576604716017e+00
13182:-1.5784325227546885e+00
13183:-1.4442285781449351e+00
13184:-7.6635909964905180e-01
13185:-6.8576262225102358e-01
13186:-5.9180636952939691e-01
13187:-5.2640474098377810e-01
13188:-9.3322189220692631e-01
13189:-8.3620837098848055e-01
13190:-7.2341957608059171e-01
13191:-6.4563505315666991e-01
13192:-1.1730656170314402e+00
13193:-1.0550534620690613e+00
13194:-9.1534245612164056e-01
13195:-8.1807231380794343e-01
13196:-1.3707093030515609e+00
13197:-1.2379512037114253e+00
13198:-1.0767658716295823e+00
13199:-9.6247488392434732e-01
13200:-4.9342700286421376e-01
13201:-4.3612878500439684e-01
13202:-3.6963190728251172e-01
13203:-3.2406949131152823e-01
13204:-6.0678516529502058e-01
13205:-5.3944609847541736e-01
13206:-4.6145607458132520e-01
13207:-4.0811026858094840e-01
13208:-7.6945214981885446e-01
13209:-6.8478150312811059e-01
13210:-5.8605302152390593e-01
13211:-5.1822223119366495e-01
13212:-9.0491899633388639e-01
13213:-8.0411226292436022e-01
13214:-6.8578039440764338e-01
13215:-6.0419617519692126e-01
13216:-3.0136947742409331e-01
13217:-2.6064522293211173e-01
13218:-2.1266446927251823e-01
13219:-1.8134512242137618e-01
13220:-3.8159988416089102e-01
13221:-3.3479082066168397e-01
13222:-2.8050681806170424e-01
13223:-2.4511230794908742e-01
13224:-4.8453385738253241e-01
13225:-4.2599694017794776e-01
13226:-3.5928159270608978e-01
13227:-3.1592983984817075e-01
13228:-5.6370298653618711e-01
13229:-4.9380935270287785e-01
13230:-4.1462480084713943e-01
13231:-3.6306035662064395e-01
13232:-1.6683244965998231e-01
13233:-1.4068807466979935e-01
13234:-1.0818359745608971e-01
13235:-8.4637979455833512e-02
13236:-2.2853248950088162e-01
13237:-1.9832399980102780e-01
13238:-1.6055306561885319e-01
13239:-1.3341267462602655e-01
13240:-2.9549301267739825e-01
13241:-2.5880634018487392e-01
13242:-2.1433633431468124e-01
13243:-1.8361288901963208e-01
13244:-3.3862534144617429e-01
13245:-2.9560957632873008e-01
13246:-2.4520252957561847e-01
13247:-2.1162112184627613e-01
13248:-7.2647615119972919e-02
13249:-5.1948943857866609e-02
13250:-2.9252785519977682e-02
13251:-1.5727830058933686e-02
13252:-1.1973680500125922e-01
13253:-9.5516686044905805e-02
13254:-6.6999752864032563e-02
13255:-4.7762868406118840e-02
13256:-1.6856149236231704e-01
13257:-1.4141383946644223e-01
13258:-1.0790256690896555e-01
13259:-8.3748346847947699e-02
13260:-1.9557208161719727e-01
13261:-1.6663385342874656e-01
13262:-1.3076914822305363e-01
13263:-1.0480340412814641e-01
13264:-1.0037743327922052e-02
13265:-1.9774445803270643e-03
13266:3.6534080350707943e-03
13267:4.3859779260829769e-03
13268:-3.8530472333302611e-02
13269:-2.3572667369671323e-02
13270:-9.2843163342101950e-03
13271:-2.7945163680888792e-03
13272:-7.1477152217707299e-02
13273:-5.0458333703246858e-02
13274:-2.7995112109601761e-02
13275:-1.5344691174279000e-02
13276:-9.1558558452254038e-02
13277:-6.8538180450364944e-02
13278:-4.2924821484702516e-02
13279:-2.7298896344485551e-02
13280:3.6353068216818216e-03
13281:1.6635396204296912e-03
13282:-1.3382582233655144e-03
13283:-3.6439462784606173e-03
13284:-9.8150228456251134e-04
13285:5.9064919145636449e-04
13286:1.0687065465412268e-04
13287:-1.5007685225796171e-03
13288:-1.0403031548343700e-02
13289:-3.8010829021305178e-03
13290:5.8932426766262873e-04
13291:1.4806359259190330e-03
13292:-2.0546564101685254e-02
13293:-1.0457119796306910e-02
13294:-1.7474315618857951e-03
13295:1.9752182285611907e-03
13296:-8.3579341393955637e+00
13297:-7.2173746506714407e+00
13298:-5.9672898754954140e+00
13299:-5.1759585629620304e+00
13300:-8.1583135143319847e+00
13301:-7.0826589404498543e+00
13302:-5.9036541493273553e+00
13303:-5.1574083208223280e+00
13304:-7.8255466301488621e+00
13305:-6.8471978585126836e+00
13306:-5.7750207246313519e+00
13307:-5.0966306541798101e+00
13308:-7.5193435550207788e+00
13309:-6.6241728579292438e+00
13310:-5.6433221975666177e+00
13311:-5.0228695544636341e+00
13312:-4.8080050569733865e+00
13313:-4.1929012084130433e+00
13314:-3.5243134560936356e+00
13315:-3.1066613991624634e+00
13316:-4.8105095444063837e+00
13317:-4.2311440669068823e+00
13318:-3.6029916694583473e+00
13319:-3.2123297425684161e+00
13320:-4.7814209887139443e+00
13321:-4.2556968215687609e+00
13322:-3.6873664093489493e+00
13323:-3.3354328192606508e+00
13324:-4.7346878306929643e+00
13325:-4.2549618028128720e+00
13326:-3.7381255225845815e+00
13327:-3.4193544826031781e+00
13328:-2.9149674945037969e+00
13329:-2.6007452247245926e+00
13330:-2.2745600097011112e+00
13331:-2.0860274114534803e+00
13332:-3.0339237327442916e+00
13333:-2.7446715265721342e+00
13334:-2.4506160544612579e+00
13335:-2.2855666329401707e+00
13336:-3.1754898529408311e+00
13337:-2.9198734002216202e+00
13338:-2.6681824217483134e+00
13339:-2.5343090949595357e+00
13340:-3.2750105272134968e+00
13341:-3.0467557189277805e+00
13342:-2.8281619685608348e+00
13343:-2.7183054977536778e+00
13344:-2.0061118674815672e+00
13345:-1.8852653094126306e+00
13346:-1.7810670711763297e+00
13347:-1.7406260470526482e+00
13348:-2.2175350628783876e+00
13349:-2.1176798298834809e+00
13350:-2.0389719708972485e+00
13351:-2.0171945623372713e+00
13352:-2.4824013050699563e+00
13353:-2.4119761697408251e+00
13354:-2.3703147994720783e+00
13355:-2.3761092059208830e+00
13356:-2.6789058539467732e+00
13357:-2.6316789067086646e+00
13358:-2.6195244163645568e+00
13359:-2.6471283993777956e+00
13360:-1.7321365247440583e+00
13361:-1.7323152721439075e+00
13362:-1.7646066591606875e+00
13363:-1.8157972204091997e+00
13364:-2.0183810972323188e+00
13365:-2.0339685247662311e+00
13366:-2.0795426373678429e+00
13367:-2.1348564225398987e+00
13368:-2.3915976308603804e+00
13369:-2.4302623945242914e+00
13370:-2.4968219647276411e+00
13371:-2.5602483823144713e+00
13372:-2.6738261917624109e+00
13373:-2.7313525916649644e+00
13374:-2.8171131885291292e+00
13375:-2.8903512991005997e+00
13376:-1.8522219060767038e+00
13377:-1.9246502700163650e+00
13378:-2.0237965905812150e+00
13379:-2.1028381946029295e+00
13380:-2.1711888614537700e+00
13381:-2.2408686681063097e+00
13382:-2.3332610633902759e+00
13383:-2.4060187230491970e+00
13384:-2.5979394453446192e+00
13385:-2.6670434065345421e+00
13386:-2.7543228318113191e+00
13387:-2.8209020634884898e+00
13388:-2.9313680862613198e+00
13389:-3.0039241794216269e+00
13390:-3.0908829420064348e+00
13391:-3.1539196255558117e+00
13392:-2.1454510396007604e+00
13393:-2.2174934390226713e+00
13394:-2.2904999588746899e+00
13395:-2.3271379782502706e+00
13396:-2.4452354364465010e+00
13397:-2.5106222747040965e+00
13398:-2.5741878250072343e+00
13399:-2.6029105971884228e+00
13400:-2.8562695849652582e+00
13401:-2.9127273365016242e+00
13402:-2.9619486137160917e+00
13403:-2.9783484377951597e+00
13404:-3.1863094032287989e+00
13405:-3.2349013606249488e+00
13406:-3.2707065915880236e+00
13407:-3.2756286174690650e+00
13408:-2.3389790865999514e+00
13409:-2.3475460195776239e+00
13410:-2.3328809028571689e+00
13411:-2.3024168830372638e+00
13412:-2.6102832600081518e+00
13413:-2.6102607007044241e+00
13414:-2.5838583362450995e+00
13415:-2.5438246834027729e+00
13416:-2.9788922180617980e+00
13417:-2.9656355225968900e+00
13418:-2.9205761367396290e+00
13419:-2.8646855895549259e+00
13420:-3.2699700523926851e+00
13421:-3.2449173471973332e+00
13422:-3.1834251801725562e+00
13423:-3.1135300465664066e+00
13424:-2.2795845216635682e+00
13425:-2.2250032103889508e+00
13426:-2.1289859216823945e+00
13427:-2.0346942944984283e+00
13428:-2.5157243589236322e+00
13429:-2.4524435460151546e+00
13430:-2.3480466548826722e+00
13431:-2.2499024944215553e+00
13432:-2.8275753810540403e+00
13433:-2.7486660308723279e+00
13434:-2.6273165560460043e+00
13435:-2.5191986749298745e+00
13436:-3.0683789807992610e+00
13437:-2.9749298995742892e+00
13438:-2.8364022283326733e+00
13439:-2.7168079749942984e+00
13440:-1.9769611987734668e+00
13441:-1.8602947109524000e+00
13442:-1.6937529569917977e+00
13443:-1.5558185926334582e+00
13444:-2.1910280944826281e+00
13445:-2.0722555418738660e+00
13446:-1.9013744696936821e+00
13447:-1.7577266247054397e+00
13448:-2.4561306315445970e+00
13449:-2.3304592367609942e+00
13450:-2.1513446413526696e+00
13451:-2.0011800449584958e+00
13452:-2.6483080683573821e+00
13453:-2.5137017275458882e+00
13454:-2.3253375313494082e+00
13455:-2.1698917428995492e+00
13456:-1.4793587701739792e+00
13457:-1.3395315472704445e+00
13458:-1.1670173547767277e+00
13459:-1.0432001373454016e+00
13460:-1.6770247537081286e+00
13461:-1.5266372510115769e+00
13462:-1.3363215010322080e+00
13463:-1.1967677371971572e+00
13464:-1.9166313308346463e+00
13465:-1.7568701068874961e+00
13466:-1.5500721760650502e+00
13467:-1.3948456207275717e+00
13468:-2.0830847421748269e+00
13469:-1.9186441535810657e+00
13470:-1.7038163610160693e+00
13471:-1.5402838240876413e+00
13472:-9.8050142275466579e-01
13473:-8.7034383950936511e-01
13474:-7.4061622211203471e-01
13475:-6.5105840491823463e-01
13476:-1.1252626496695646e+00
13477:-9.9876218062511168e-01
13478:-8.4857755039867344e-01
13479:-7.4431713489739648e-01
13480:-1.3140329905265680e+00
13481:-1.1694947102725888e+00
13482:-9.9543143669178813e-01
13483:-8.7308708567397231e-01
13484:-1.4541289054298254e+00
13485:-1.2985083540625046e+00
13486:-1.1085505255987798e+00
13487:-9.7335196778740629e-01
13488:-6.0663373045796498e-01
13489:-5.3006185463540678e-01
13490:-4.4330501415554086e-01
13491:-3.8658920938907038e-01
13492:-6.9249062961878760e-01
13493:-6.0281126945084351e-01
13494:-5.0020144335464078e-01
13495:-4.3205164399970108e-01
13496:-8.1182123318721078e-01
13497:-7.0460362511511565e-01
13498:-5.7944097923062343e-01
13499:-4.9430062352748627e-01
13500:-9.0511227593206245e-01
13501:-7.8458796061113423e-01
13502:-6.4193532041920498e-01
13503:-5.4357870415735643e-01
13504:-3.5960320608489454e-01
13505:-3.1256537895247555e-01
13506:-2.5836839576922710e-01
13507:-2.2287807834634432e-01
13508:-3.9921947996523011e-01
13509:-3.4268251855949888e-01
13510:-2.7895604874759561e-01
13511:-2.3814075721719211e-01
13512:-4.5261084909365490e-01
13513:-3.8121052417496765e-01
13514:-3.0158578817954135e-01
13515:-2.5104732019072074e-01
13516:-4.9503221590050828e-01
13517:-4.1181242329919915e-01
13518:-3.1883912036830964e-01
13519:-2.5955510750519534e-01
13520:-2.0611340940556591e-01
13521:-1.7608868891940377e-01
13522:-1.3929886264962427e-01
13523:-1.1304544490267122e-01
13524:-2.1916958065379677e-01
13525:-1.8600619199749896e-01
13526:-1.4708991913460934e-01
13527:-1.2074483419725485e-01
13528:-2.2772897589022514e-01
13529:-1.8833734736158894e-01
13530:-1.4508668396720126e-01
13531:-1.1825639463532341e-01
13532:-2.3210699028103343e-01
13533:-1.8651895819804570e-01
13534:-1.3822453886386776e-01
13535:-1.0974588675988689e-01
13536:-9.9793831395245669e-02
13537:-7.6723866566421897e-02
13538:-5.0685811789118213e-02
13539:-3.4257417548364762e-02
13540:-1.0795005830856676e-01
13541:-8.5764640564861827e-02
13542:-6.0385948179152785e-02
13543:-4.3759819967950642e-02
13544:-1.0611554046371854e-01
13545:-8.5490525013481491e-02
13546:-6.2223996763670332e-02
13547:-4.7006694476680912e-02
13548:-9.7441316341527612e-02
13549:-7.7114752072430445e-02
13550:-5.5171941757881662e-02
13551:-4.1588562935635828e-02
13552:-2.6855765056787599e-02
13553:-1.5244310755118718e-02
13554:-4.2790036022824565e-03
13555:1.1117347237003935e-03
13556:-3.5913339764639687e-02
13557:-2.2902876088380854e-02
13558:-9.4534288107546473e-03
13559:-2.0355346338184750e-03
13560:-3.9751407880368891e-02
13561:-2.7397950726477251e-02
13562:-1.4104225765284093e-02
13563:-6.4557883585022319e-03
13564:-3.5379715847589130e-02
13565:-2.4992285191007046e-02
13566:-1.4094188927393390e-02
13567:-8.0514756758441886e-03
13568:-7.3395199646393312e+00
13569:-6.4913914475815213e+00
13570:-5.5620971187937434e+00
13571:-4.9742538339125737e+00
13572:-6.9742947168603315e+00
13573:-6.2192515887963715e+00
13574:-5.3910660187075576e+00
13575:-4.8664737676464265e+00
13576:-6.4484753531815757e+00
13577:-5.8236062232513834e+00
13578:-5.1355255653324798e+00
13579:-4.6976235215773139e+00
13580:-6.0124988037429574e+00
13581:-5.4932937250928937e+00
13582:-4.9185245967673987e+00
13583:-4.5504780358870871e+00
13584:-4.7012540300710066e+00
13585:-4.2475299051867994e+00
13586:-3.7600811519645134e+00
13587:-3.4603788288488855e+00
13588:-4.6226847694848558e+00
13589:-4.2190297490619209e+00
13590:-3.7885670428542046e+00
13591:-3.5263679858712416e+00
13592:-4.4935303530277784e+00
13593:-4.1575233972837005e+00
13594:-3.8038285763354969e+00
13595:-3.5924275215772625e+00
13596:-4.3782644070621224e+00
13597:-4.0959315162604568e+00
13598:-3.8021262660454394e+00
13599:-3.6298717553881552e+00
13600:-3.3250115985216637e+00
13601:-3.1121210095271823e+00
13602:-2.9114980409380786e+00
13603:-2.8144102951223591e+00
13604:-3.4088830388318136e+00
13605:-3.2263309130883404e+00
13606:-3.0602515007739215e+00
13607:-2.9867547294053467e+00
13608:-3.4993673978152464e+00
13609:-3.3579553084378326e+00
13610:-3.2373958432966328e+00
13611:-3.1934212062643619e+00
13612:-3.5555527913528202e+00
13613:-3.4455677199139250e+00
13614:-3.3590885609219456e+00
13615:-3.3362775973333632e+00
13616:-2.7816274803996994e+00
13617:-2.7466607478805107e+00
13618:-2.7499527234186569e+00
13619:-2.7887462415159074e+00
13620:-2.9658081332766657e+00
13621:-2.9521164790646792e+00
13622:-2.9810301682578451e+00
13623:-3.0375135804529982e+00
13624:-3.1865918939573579e+00
13625:-3.1972770956645009e+00
13626:-3.2538217422953912e+00
13627:-3.3281244510754813e+00
13628:-3.3391265653685034e+00
13629:-3.3661338496576660e+00
13630:-3.4406142023339124e+00
13631:-3.5261066157340060e+00
13632:-2.8211161516005827e+00
13633:-2.8886378382326172e+00
13634:-2.9856754046704927e+00
13635:-3.0657839055576290e+00
13636:-3.0786063848575602e+00
13637:-3.1622672580048112e+00
13638:-3.2795151311047190e+00
13639:-3.3739083887674215e+00
13640:-3.3776242405584087e+00
13641:-3.4775557043891943e+00
13642:-3.6174226982153943e+00
13643:-3.7301214732237704e+00
13644:-3.5807461327486259e+00
13645:-3.6902937933690962e+00
13646:-3.8435488379680915e+00
13647:-3.9676673292269267e+00
13648:-3.1097006748876446e+00
13649:-3.1859244950772538e+00
13650:-3.2742309486625092e+00
13651:-3.3357518356163007e+00
13652:-3.4247513315646105e+00
13653:-3.5107197389864711e+00
13654:-3.6049969117963041e+00
13655:-3.6659440116183548e+00
13656:-3.7908400221772403e+00
13657:-3.8919764171830535e+00
13658:-3.9983650815613316e+00
13659:-4.0624070521920137e+00
13660:-4.0349039622661103e+00
13661:-4.1468971925186668e+00
13662:-4.2636711242640670e+00
13663:-4.3322350649748120e+00
13664:-3.3664518176383722e+00
13665:-3.4103838931661214e+00
13666:-3.4381691888643613e+00
13667:-3.4362989348392303e+00
13668:-3.6945451728721497e+00
13669:-3.7319497851167247e+00
13670:-3.7476767620183202e+00
13671:-3.7350704164061455e+00
13672:-4.0904562681356076e+00
13673:-4.1241757131254664e+00
13674:-4.1310422080604825e+00
13675:-4.1092720224196819e+00
13676:-4.3613924727980518e+00
13677:-4.3958338783768349e+00
13678:-4.4011096026978054e+00
13679:-4.3760774989739417e+00
13680:-3.4270246666005564e+00
13681:-3.3952033662593029e+00
13682:-3.3244380200437749e+00
13683:-3.2467026654605160e+00
13684:-3.7198804441720945e+00
13685:-3.6765825966938119e+00
13686:-3.5895009196183909e+00
13687:-3.4977366178972726e+00
13688:-4.0885560574269268e+00
13689:-4.0336708616139800e+00
13690:-3.9289356359757330e+00
13691:-3.8215951684114273e+00
13692:-4.3528753508917921e+00
13693:-4.2920584961306982e+00
13694:-4.1774913486531409e+00
13695:-4.0613306778098632e+00
13696:-3.1970435783599802e+00
13697:-3.0952098779006572e+00
13698:-2.9462482937889019e+00
13699:-2.8192235754021766e+00
13700:-3.4399756968452952e+00
13701:-3.3226926567382229e+00
13702:-3.1536372857349537e+00
13703:-3.0115596908366773e+00
13704:-3.7548001057156419e+00
13705:-3.6196027225983265e+00
13706:-3.4257139847464684e+00
13707:-3.2637845805732031e+00
13708:-3.9894422442624400e+00
13709:-3.8435531697723460e+00
13710:-3.6335711037234044e+00
13711:-3.4578204160510717e+00
13712:-2.7470283998557368e+00
13713:-2.6062897915630709e+00
13714:-2.4117388315984116e+00
13715:-2.2531074246455143e+00
13716:-2.9315984582734913e+00
13717:-2.7777492412140155e+00
13718:-2.5695059826283742e+00
13719:-2.4033131698157728e+00
13720:-3.1731195362020514e+00
13721:-3.0005317875108983e+00
13722:-2.7712287187069484e+00
13723:-2.5918785939901139e+00
13724:-3.3593581406262341e+00
13725:-3.1723381439146388e+00
13726:-2.9251410613721425e+00
13727:-2.7331007685189812e+00
13728:-2.1651606104901693e+00
13729:-1.9987895946589660e+00
13730:-1.7809770708664918e+00
13731:-1.6141751981980506e+00
13732:-2.3123951834769616e+00
13733:-2.1410095622638856e+00
13734:-1.9163859174386966e+00
13735:-1.7432042832684489e+00
13736:-2.4950548550624787e+00
13737:-2.3134879888577595e+00
13738:-2.0763425267327422e+00
13739:-1.8934760242546003e+00
13740:-2.6299627174887052e+00
13741:-2.4373948792113866e+00
13742:-2.1874583003503201e+00
13743:-1.9959043429923840e+00
13744:-1.5257682447833729e+00
13745:-1.3651796201535373e+00
13746:-1.1676201373866169e+00
13747:-1.0259774040232332e+00
13748:-1.6507355895307518e+00
13749:-1.4815272737694074e+00
13750:-1.2711899320769910e+00
13751:-1.1188834879734124e+00
13752:-1.7956311195731114e+00
13753:-1.6159402403410783e+00
13754:-1.3912640508615097e+00
13755:-1.2275343016500386e+00
13756:-1.8937879296310705e+00
13757:-1.7064359312485258e+00
13758:-1.4721889797052130e+00
13759:-1.3012621219241221e+00
13760:-9.5415599860139788e-01
13761:-8.2678394321976223e-01
13762:-6.7521774110534627e-01
13763:-5.7026904116432875e-01
13764:-1.0411769911215685e+00
13765:-9.0285802239928237e-01
13766:-7.3761984828715565e-01
13767:-6.2296305467183244e-01
13768:-1.1436480983030297e+00
13769:-9.9432358693238321e-01
13770:-8.1618468965932700e-01
13771:-6.9288897053457998e-01
13772:-1.2135671822704468e+00
13773:-1.0576424991866018e+00
13774:-8.7198067385177314e-01
13775:-7.4366801987813602e-01
13776:-5.1836228491742775e-01
13777:-4.2922828463324730e-01
13778:-3.2928475435939664e-01
13779:-2.6519947825507639e-01
13780:-5.6622069414770604e-01
13781:-4.6830739927323256e-01
13782:-3.5735555661945834e-01
13783:-2.8513005648574885e-01
13784:-6.3197489256305872e-01
13785:-5.2619704406874912e-01
13786:-4.0465546810282382e-01
13787:-3.2399161602455223e-01
13788:-6.8030462544893278e-01
13789:-5.7001328411891805e-01
13790:-4.4257879063930461e-01
13791:-3.5730491005134524e-01
13792:-2.3539573397993280e-01
13793:-1.8610393220963189e-01
13794:-1.3437438826827389e-01
13795:-1.0426234406237675e-01
13796:-2.5111670094545324e-01
13797:-1.9477780403559117e-01
13798:-1.3555094324957312e-01
13799:-1.0090044707592122e-01
13800:-2.8537992646629978e-01
13801:-2.2078092783601669e-01
13802:-1.5157202972926398e-01
13803:-1.0983826088504069e-01
13804:-3.1618233650551764e-01
13805:-2.4684148524546956e-01
13806:-1.7142236037606018e-01
13807:-1.2492655866019384e-01
13808:-9.1414598084199425e-02
13809:-7.0549234475148798e-02
13810:-4.8801135937442369e-02
13811:-3.6036756631768280e-02
13812:-8.6050379833550114e-02
13813:-6.2451447050282161e-02
13814:-3.9183947414592940e-02
13815:-2.6810433106510843e-02
13816:-9.1445305713018205e-02
13817:-6.2395338024934834e-02
13818:-3.4561350111857826e-02
13819:-2.0673548478841543e-02
13820:-1.0402341743257022e-01
13821:-7.0761759691031517e-02
13822:-3.8596699342776618e-02
13823:-2.2366992498853010e-02
13824:-3.0483447112224272e-02
13825:-2.1471153143091032e-02
13826:-1.2452546375857649e-02
13827:-7.7839478475075314e-03
13828:-2.1982007995213017e-02
13829:-1.4698506386842961e-02
13830:-8.2964370844529935e-03
13831:-5.6930356194810220e-03
13832:-1.5713421081033279e-02
13833:-8.7287204797266461e-03
13834:-3.4346721959454636e-03
13835:-2.0468279190286208e-03
13836:-1.6514720740481569e-02
13837:-8.2549466265887262e-03
13838:-1.9512259344704149e-03
13839:-2.2720259884319110e-04
13840:-5.7699815106147518e+00
13841:-5.3088358572928840e+00
13842:-4.7963831799820174e+00
13843:-4.4668303390681245e+00
13844:-5.2977218170334437e+00
13845:-4.9472487747070204e+00
13846:-4.5544043037692727e+00
13847:-4.2994322519599351e+00
13848:-4.6567067267619597e+00
13849:-4.4525229963340109e+00
13850:-4.2186366178872561e+00
13851:-4.0635038197893127e+00
13852:-4.1545743986775978e+00
13853:-4.0628296814398199e+00
13854:-3.9509661072908862e+00
13855:-3.8723538630697991e+00
13856:-4.3122023306389270e+00
13857:-4.0591736944436425e+00
13858:-3.7974992013833644e+00
13859:-3.6458898475072545e+00
13860:-4.1791192151417382e+00
13861:-3.9830519774307609e+00
13862:-3.7832182428072194e+00
13863:-3.6708143193315008e+00
13864:-3.9893796561277846e+00
13865:-3.8698109673749563e+00
13866:-3.7524713483105425e+00
13867:-3.6918397105677885e+00
13868:-3.8335910134360165e+00
13869:-3.7726085058750449e+00
13870:-3.7184811000471760e+00
13871:-3.6975245894299662e+00
13872:-3.5813590786249172e+00
13873:-3.4877551073465658e+00
13874:-3.4188640481612449e+00
13875:-3.4066999996225458e+00
13876:-3.6246832376596698e+00
13877:-3.5618570884667693e+00
13878:-3.5259128106736948e+00
13879:-3.5334783305725654e+00
13880:-3.6698175313762298e+00
13881:-3.6475074848313316e+00
13882:-3.6551894662778142e+00
13883:-3.6888758946689539e+00
13884:-3.6939921276381362e+00
13885:-3.7030863932886238e+00
13886:-3.7451346627967967e+00
13887:-3.7997087397067135e+00
13888:-3.4142834021850454e+00
13889:-3.4492654370438709e+00
13890:-3.5325969341595136e+00
13891:-3.6237319111688446e+00
13892:-3.5497261912790052e+00
13893:-3.5994650874542948e+00
13894:-3.6998029606162786e+00
13895:-3.8025055462495376e+00
13896:-3.7165194563744994e+00
13897:-3.7854312194452611e+00
13898:-3.9078313043961277e+00
13899:-4.0259249546046076e+00
13900:-3.8365050654428408e+00
13901:-3.9201154686580773e+00
13902:-4.0581974987362424e+00
13903:-4.1865839923837669e+00
13904:-3.6809958358087131e+00
13905:-3.7950241770515953e+00
13906:-3.9538617564435636e+00
13907:-4.0825420384633109e+00
13908:-3.8654365081823636e+00
13909:-3.9885523690253017e+00
13910:-4.1570115414321211e+00
13911:-4.2921736475479619e+00
13912:-4.0966123299126904e+00
13913:-4.2317386247421425e+00
13914:-4.4113009572549595e+00
13915:-4.5521789317910502e+00
13916:-4.2623480878320219e+00
13917:-4.4053962185804636e+00
13918:-4.5921482765145063e+00
13919:-4.7363105214886270e+00
13920:-4.1524126027337189e+00
13921:-4.2691525523449956e+00
13922:-4.3911432650311752e+00
13923:-4.4625563892178075e+00
13924:-4.3654168064806633e+00
13925:-4.4884373267139406e+00
13926:-4.6176920565559927e+00
13927:-4.6932309613109160e+00
13928:-4.6277686217883369e+00
13929:-4.7555029701522313e+00
13930:-4.8908715127017794e+00
13931:-4.9702275412150811e+00
13932:-4.8130102686786946e+00
13933:-4.9432715965477394e+00
13934:-5.0825178796382975e+00
13935:-5.1647420471552765e+00
13936:-4.4927450227038737e+00
13937:-4.5286413505079253e+00
13938:-4.5346729181271419e+00
13939:-4.5090737623781374e+00
13940:-4.7249525629588467e+00
13941:-4.7630727345461716e+00
13942:-4.7702242505024568e+00
13943:-4.7435399936184481e+00
13944:-5.0034862838308332e+00
13945:-5.0440219283853578e+00
13946:-5.0526076104866116e+00
13947:-5.0248861140373471e+00
13948:-5.1993640310612319e+00
13949:-5.2423298922168318e+00
13950:-5.2531297967878432e+00
13951:-5.2256948871858757e+00
13952:-4.4850970643150161e+00
13953:-4.4221346545199305e+00
13954:-4.3037945898677732e+00
13955:-4.1842926112700933e+00
13956:-4.7181631164702518e+00
13957:-4.6515898854783870e+00
13958:-4.5274734738862135e+00
13959:-4.4033735232956612e+00
13960:-4.9979939569381955e+00
13961:-4.9273006178474033e+00
13962:-4.7966202872840427e+00
13963:-4.6676236956838260e+00
13964:-5.1982449318173938e+00
13965:-5.1249107191841201e+00
13966:-4.9887650813067319e+00
13967:-4.8550411629051657e+00
13968:-4.1105154219462694e+00
13969:-3.9603724493734709e+00
13970:-3.7433969321806884e+00
13971:-3.5612379520749813e+00
13972:-4.3271815372378963e+00
13973:-4.1711887800560152e+00
13974:-3.9437945821880040e+00
13975:-3.7516138622536883e+00
13976:-4.5890473632711819e+00
13977:-4.4271420018575567e+00
13978:-4.1888964337014265e+00
13979:-3.9860921673920111e+00
13980:-4.7739853460970787e+00
13981:-4.6067439544781701e+00
13982:-4.3600351518211289e+00
13983:-4.1496251344380273e+00
13984:-3.4590216047409563e+00
13985:-3.2646584963852683e+00
13986:-3.0075551910497098e+00
13987:-2.8078455239784206e+00
13988:-3.6433708232673010e+00
13989:-3.4366281792742268e+00
13990:-3.1616069303644583e+00
13991:-2.9470727895132232e+00
13992:-3.8713830498667101e+00
13993:-3.6507881010820959e+00
13994:-3.3544548332716597e+00
13995:-3.1212649336181610e+00
13996:-4.0304614429242012e+00
13997:-3.8005043481863674e+00
13998:-3.4898742735241104e+00
13999:-3.2440762007848774e+00
14000:-2.7006641299559191e+00
14001:-2.5010387549411255e+00
14002:-2.2431286581996659e+00
14003:-2.0465082840137572e+00
14004:-2.8317562095792201e+00
14005:-2.6179190578311702e+00
14006:-2.3441490392124682e+00
14007:-2.1377135598891446e+00
14008:-2.9953461810510706e+00
14009:-2.7626184622047729e+00
14010:-2.4672637447129335e+00
14011:-2.2472023574671973e+00
14012:-3.1108915207507528e+00
14013:-2.8645913518396831e+00
14014:-2.5525724082736656e+00
14015:-2.3211635983696484e+00
14016:-1.9420730349259510e+00
14017:-1.7507545641171240e+00
14018:-1.5118159472417330e+00
14019:-1.3374842794670065e+00
14020:-2.0289138840155605e+00
14021:-1.8302035430851633e+00
14022:-1.5825711673863017e+00
14023:-1.4019151769493921e+00
14024:-2.1322936522355982e+00
14025:-1.9234672227757850e+00
14026:-1.6644103048580610e+00
14027:-1.4757471054628652e+00
14028:-2.2008999968872387e+00
14029:-1.9834877336820358e+00
14030:-1.7154807293024277e+00
14031:-1.5211202451031303e+00
14032:-1.2480046514375838e+00
14033:-1.0889637810225705e+00
14034:-8.9962343238621867e-01
14035:-7.6868609818104627e-01
14036:-1.3090921229315899e+00
14037:-1.1440162030390955e+00
14038:-9.4706990822615456e-01
14039:-8.1027835147833793e-01
14040:-1.3787653681525014e+00
14041:-1.2061852370814303e+00
14042:-9.9965144800322625e-01
14043:-8.5528073465377641e-01
14044:-1.4213688066836070e+00
14045:-1.2441623547200369e+00
14046:-1.0323234102095211e+00
14047:-8.8406186001970022e-01
14048:-7.0397267545414888e-01
14049:-5.9136211846179654e-01
14050:-4.6127859164169616e-01
14051:-3.7419761951200359e-01
14052:-7.4241893770895606e-01
14053:-6.2465237484400293e-01
14054:-4.8938690710406885e-01
14055:-3.9943294477646940e-01
14056:-7.8326647749431444e-01
14057:-6.5877756807074284e-01
14058:-5.1714586602386248e-01
14059:-4.2416923589963368e-01
14060:-8.0995211683129475e-01
14061:-6.8190685042813526e-01
14062:-5.3662912237651972e-01
14063:-4.4176023414497212e-01
14064:-3.3216517231092124e-01
14065:-2.6107987270787320e-01
14066:-1.8330886999986243e-01
14067:-1.3497266152103635e-01
14068:-3.5620525249495633e-01
14069:-2.8298003103729641e-01
14070:-2.0255784243030769e-01
14071:-1.5233759207903722e-01
14072:-3.7994454260017263e-01
14073:-3.0515615431559795e-01
14074:-2.2319060213916331e-01
14075:-1.7222865061953657e-01
14076:-3.9686012321684849e-01
14077:-3.2098893419708729e-01
14078:-2.3794422034231300e-01
14079:-1.8647239178009897e-01
14080:-1.1308261203029955e-01
14081:-7.8002277513758073e-02
14082:-4.3612775277774893e-02
14083:-2.5859772391248394e-02
14084:-1.2948801084116543e-01
14085:-9.2373199953036972e-02
14086:-5.4908214565836388e-02
14087:-3.4570522936099884e-02
14088:-1.4911479332760871e-01
14089:-1.1100255290669908e-01
14090:-7.1123704730596857e-02
14091:-4.8108641818024968e-02
14092:-1.6319355860563348e-01
14093:-1.2455054983231627e-01
14094:-8.3373662545796617e-02
14095:-5.8825037761523973e-02
14096:-1.9280506513752627e-02
14097:-9.8437891071382500e-03
14098:-2.3684407714807303e-03
14099:-1.9526215151014523e-05
14100:-2.6577252708359787e-02
14101:-1.4744379922708408e-02
14102:-4.7594159390744080e-03
14103:-1.0039839658836846e-03
14104:-3.8432018515181993e-02
14105:-2.3526218089841032e-02
14106:-1.0005429928997819e-02
14107:-4.0746733080206160e-03
14108:-4.8128681698863737e-02
14109:-3.1141050864410345e-02
14110:-1.4866282894686224e-02
14111:-7.0191254876063886e-03
14112:-3.8855117194711108e+00
14113:-3.8534675952533570e+00
14114:-3.8061254909508513e+00
14115:-3.7677530845864906e+00
14116:-3.3793469727002980e+00
14117:-3.4583439662397764e+00
14118:-3.5308872275098810e+00
14119:-3.5671418913771005e+00
14120:-2.7228110517336859e+00
14121:-2.9426324433809459e+00
14122:-3.1675909243058404e+00
14123:-3.2989592060625315e+00
14124:-2.2284648930692037e+00
14125:-2.5512764810782254e+00
14126:-2.8884836442146034e+00
14127:-3.0905008030167069e+00
14128:-3.7475102655506478e+00
14129:-3.7172734870761865e+00
14130:-3.6964760782289421e+00
14131:-3.6965586308212246e+00
14132:-3.5812027799161901e+00
14133:-3.6082215985772077e+00
14134:-3.6500015243886414e+00
14135:-3.6898282543274541e+00
14136:-3.3568405235413321e+00
14137:-3.4575667565156549e+00
14138:-3.5807121476857211e+00
14139:-3.6724979226417300e+00
14140:-3.1811562499704689e+00
14141:-3.3373718028587414e+00
14142:-3.5221594374289840e+00
14143:-3.6533298143409119e+00
14144:-3.7028793838628902e+00
14145:-3.7288745864206327e+00
14146:-3.7897279188104709e+00
14147:-3.8559656734897376e+00
14148:-3.7148070568598479e+00
14149:-3.7730014782863788e+00
14150:-3.8705151644916689e+00
14151:-3.9605860730826667e+00
14152:-3.7218621076621305e+00
14153:-3.8221967606783882e+00
14154:-3.9687174424305289e+00
14155:-4.0923134685666698e+00
14156:-3.7210908049093208e+00
14157:-3.8530210316468381e+00
14158:-4.0365869850498921e+00
14159:-4.1863919193050405e+00
14160:-3.8979379013130711e+00
14161:-3.9895271632792690e+00
14162:-4.1353912281863572e+00
14163:-4.2683539875274370e+00
14164:-4.0136694871653464e+00
14165:-4.1226874766866191e+00
14166:-4.2853521232119238e+00
14167:-4.4273867280691306e+00
14168:-4.1619025799029199e+00
14169:-4.2980262973532959e+00
14170:-4.4880823749679317e+00
14171:-4.6449156376177339e+00
14172:-4.2694090593131602e+00
14173:-4.4289008895737956e+00
14174:-4.6445614091129137e+00
14175:-4.8163266443198554e+00
14176:-4.3462344184086543e+00
14177:-4.4927007841039401e+00
14178:-4.6827731042804954e+00
14179:-4.8285702884924975e+00
14180:-4.5090086207416862e+00
14181:-4.6614461929497919e+00
14182:-4.8573338076990220e+00
14183:-5.0059909993607983e+00
14184:-4.7323228939952102e+00
14185:-4.8937546944343175e+00
14186:-5.0981039619986825e+00
14187:-5.2506910625683512e+00
14188:-4.9098508378099375e+00
14189:-5.0806530476643497e+00
14190:-5.2934600238633891e+00
14191:-5.4496882947018443e+00
14192:-4.9058577694909493e+00
14193:-5.0374970360682241e+00
14194:-5.1789532341598710e+00
14195:-5.2629264751807279e+00
14196:-5.0842939073209799e+00
14197:-5.2181818482876103e+00
14198:-5.3629318270128090e+00
14199:-5.4491899977343872e+00
14200:-5.3302650172269024e+00
14201:-5.4665136995675887e+00
14202:-5.6137728405482665e+00
14203:-5.7007768793787434e+00
14204:-5.5302864436995982e+00
14205:-5.6679898106422755e+00
14206:-5.8157893249872812e+00
14207:-5.9015517209371104e+00
14208:-5.2984380611460242e+00
14209:-5.3430529720301472e+00
14210:-5.3555949229549400e+00
14211:-5.3288339475888451e+00
14212:-5.4857022738428389e+00
14213:-5.5318833631701159e+00
14214:-5.5458075891658067e+00
14215:-5.5195199535695458e+00
14216:-5.7370434632737162e+00
14217:-5.7813446716793964e+00
14218:-5.7913341584126830e+00
14219:-5.7620611137768964e+00
14220:-5.9363440592782810e+00
14221:-5.9757207522587485e+00
14222:-5.9770825591064467e+00
14223:-5.9414027253557915e+00
14224:-5.3013779310958880e+00
14225:-5.2268252178917756e+00
14226:-5.0873026200678506e+00
14227:-4.9502210621073406e+00
14228:-5.4919889509468502e+00
14229:-5.4151084233234208e+00
14230:-5.2687885270482475e+00
14231:-5.1243728810182461e+00
14232:-5.7331405321731586e+00
14233:-5.6518411199796272e+00
14234:-5.4958221702697516e+00
14235:-5.3410617708243935e+00
14236:-5.9096052113304998e+00
14237:-5.8229304077445514e+00
14238:-5.6589362165376880e+00
14239:-5.4966765865662506e+00
14240:-4.8672677891365357e+00
14241:-4.6962966932605701e+00
14242:-4.4443720270467635e+00
14243:-4.2296952461493449e+00
14244:-5.0370058798840818e+00
14245:-4.8575650918443802e+00
14246:-4.5943748758729255e+00
14247:-4.3709214635902320e+00
14248:-5.2472619820034279e+00
14249:-5.0555400555180459e+00
14250:-4.7763445494040830e+00
14251:-4.5407461544640428e+00
14252:-5.3982600405120991e+00
14253:-5.1975868847163458e+00
14254:-4.9065331078317476e+00
14255:-4.6618682157775710e+00
14256:-4.1081588458994656e+00
14257:-3.8734852032086908e+00
14258:-3.5560671527223127e+00
14259:-3.3044909562246132e+00
14260:-4.2446663851634057e+00
14261:-4.0011030379013732e+00
14262:-3.6719991608450187e+00
14263:-3.4113759456600810e+00
14264:-4.4080975921464693e+00
14265:-4.1528683898321930e+00
14266:-3.8096096274734825e+00
14267:-3.5392962607953651e+00
14268:-4.5244332889270718e+00
14269:-4.2603323161361697e+00
14270:-3.9063594946858040e+00
14271:-3.6290736494134315e+00
14272:-3.1679998084097876e+00
14273:-2.9151755504178456e+00
14274:-2.5944674974037092e+00
14275:-2.3566441922060881e+00
14276:-3.2699832692978279e+00
14277:-3.0071316730573967e+00
14278:-2.6718999392169533e+00
14279:-2.4221332776127342e+00
14280:-3.3931705682123234e+00
14281:-3.1208030405035045e+00
14282:-2.7709199956356887e+00
14283:-2.5075998527551766e+00
14284:-3.4798139951302289e+00
14285:-3.2020876635204352e+00
14286:-2.8446734514561398e+00
14287:-2.5738896541537484e+00
14288:-2.2331871949749433e+00
14289:-2.0107343014727110e+00
14290:-1.7377517758569292e+00
14291:-1.5404808053324375e+00
14292:-2.2922012179031146e+00
14293:-2.0590394475741114e+00
14294:-1.7748148838403421e+00
14295:-1.5706360741524807e+00
14296:-2.3695857087594416e+00
14297:-2.1219930763197494e+00
14298:-1.8209142216595144e+00
14299:-1.6053510856847828e+00
14300:-2.4310047867285696e+00
14301:-2.1736893406145081e+00
14302:-1.8595434566840208e+00
14303:-1.6341096890005524e+00
14304:-1.4394167859300997e+00
14305:-1.2602719634996746e+00
14306:-1.0467085581369959e+00
14307:-8.9751307635365563e-01
14308:-1.4664111174961389e+00
14309:-1.2826171277626632e+00
14310:-1.0653404243002331e+00
14311:-9.1488411676633108e-01
14312:-1.4956297959152940e+00
14313:-1.3030224522397795e+00
14314:-1.0775301637650254e+00
14315:-9.2352099185183401e-01
14316:-1.5192960262730153e+00
14317:-1.3175268063092229e+00
14318:-1.0815225572159959e+00
14319:-9.2116627310414068e-01
14320:-8.2296737059274694e-01
14321:-6.9401865240983152e-01
14322:-5.4749626498444237e-01
14323:-4.5174394757440300e-01
14324:-8.4010620580228323e-01
14325:-7.1046769201432947e-01
14326:-5.6249029370397452e-01
14327:-4.6533962148475166e-01
14328:-8.4779140210063941e-01
14329:-7.1645650942027150e-01
14330:-5.6602960052180140e-01
14331:-4.6676952848081121e-01
14332:-8.4279826711530847e-01
14333:-7.0734913502997998e-01
14334:-5.5277893854473481e-01
14335:-4.5103141710347044e-01
14336:-4.0642697940074801e-01
14337:-3.2980431347961414e-01
14338:-2.4585968260739641e-01
14339:-1.9379577548470051e-01
14340:-4.1922409668131411e-01
14341:-3.4114049023970094e-01
14342:-2.5537536544558470e-01
14343:-2.0197207839531436e-01
14344:-4.1946240855391459e-01
14345:-3.3948495705697440e-01
14346:-2.5180218520830316e-01
14347:-1.9715680617836875e-01
14348:-4.0259864216863112e-01
14349:-3.2126069127680129e-01
14350:-2.3302908869229441e-01
14351:-1.7859816013755112e-01
14352:-1.7024388793518269e-01
14353:-1.3111533095952516e-01
14354:-8.9266110527346204e-02
14355:-6.4100613701146336e-02
14356:-1.7773681517401510e-01
14357:-1.3760151841066978e-01
14358:-9.4939012560141284e-02
14359:-6.9455583168267318e-02
14360:-1.7231004309882580e-01
14361:-1.3155918845676576e-01
14362:-8.9289448475526875e-02
14363:-6.5072886835952637e-02
14364:-1.5400770090657565e-01
14365:-1.1405938415771494e-01
14366:-7.3675042959344905e-02
14367:-5.1712843579559215e-02
14368:-5.3014549766526212e-02
14369:-3.5121519125782805e-02
14370:-1.7470424619696980e-02
14371:-8.5606425579405204e-03
14372:-5.8261720429406763e-02
14373:-3.9860093105642494e-02
14374:-2.0984141606685366e-02
14375:-1.0817649780031672e-02
14376:-5.4872816593574431e-02
14377:-3.8222505918966115e-02
14378:-2.1031488808403886e-02
14379:-1.1488781687184653e-02
14380:-4.3035152953181603e-02
14381:-2.9532248386282052e-02
14382:-1.6462117029659096e-02
14383:-9.6482867790355885e-03
14384:-1.9700223705610009e+00
14385:-2.3454201592943766e+00
14386:-2.7403545676338710e+00
14387:-2.9790314487505700e+00
14388:-1.4993536691360536e+00
14389:-1.9681476801167888e+00
14390:-2.4659912878138859e+00
14391:-2.7703108421520546e+00
14392:-9.1885148351150159e-01
14393:-1.4984389997265597e+00
14394:-2.1187466106014616e+00
14395:-2.5014511892541287e+00
14396:-5.0385054816786146e-01
14397:-1.1594084718094297e+00
14398:-1.8637349368881322e+00
14399:-2.3002163572016245e+00
14400:-3.0868115236848173e+00
14401:-3.2721141978845103e+00
14402:-3.4892787525638518e+00
14403:-3.6411009189634647e+00
14404:-2.9088484915279205e+00
14405:-3.1463975582934753e+00
14406:-3.4218979316925875e+00
14407:-3.6112735331175143e+00
14408:-2.6767953268746214e+00
14409:-2.9768872665953734e+00
14410:-3.3227479344894268e+00
14411:-3.5583232013778772e+00
14412:-2.5008016458995757e+00
14413:-2.8438688542511685e+00
14414:-3.2386975657297308e+00
14415:-3.5073263919255737e+00
14416:-3.7184660370907694e+00
14417:-3.8667822487048031e+00
14418:-4.0695392962619863e+00
14419:-4.2330863373847647e+00
14420:-3.7062949002111054e+00
14421:-3.8849669330841530e+00
14422:-4.1230533417677879e+00
14423:-4.3111309823629709e+00
14424:-3.6755668116197193e+00
14425:-3.8932777708115807e+00
14426:-4.1769091342227318e+00
14427:-4.3953166279746121e+00
14428:-3.6409387685222110e+00
14429:-3.8882645893925871e+00
14430:-4.2069353310935318e+00
14431:-4.4480037210382353e+00
14432:-4.3232726446636836e+00
14433:-4.4957644230693115e+00
14434:-4.7265424344033331e+00
14435:-4.9077012009425207e+00
14436:-4.4137080499488990e+00
14437:-4.6084612283073492e+00
14438:-4.8653205330773215e+00
14439:-5.0632787087487507e+00
14440:-4.5123645673970909e+00
14441:-4.7319923720959762e+00
14442:-5.0171926773426172e+00
14443:-5.2338572892746358e+00
14444:-4.5752800552438622e+00
14445:-4.8112317916226548e+00
14446:-5.1136177825486504e+00
14447:-5.3414700860183988e+00
14448:-5.0052686332011191e+00
14449:-5.1822516422623721e+00
14450:-5.4005208857384996e+00
14451:-5.5589805071470444e+00
14452:-5.1684430049148080e+00
14453:-5.3573968235397436e+00
14454:-5.5864848110252661e+00
14455:-5.7492009849141414e+00
14456:-5.3479841305327529e+00
14457:-5.5519899814868836e+00
14458:-5.7956290122019558e+00
14459:-5.9641569898059297e+00
14460:-5.4612173517856322e+00
14461:-5.6756001488473364e+00
14462:-5.9303507227203607e+00
14463:-6.1036508593512675e+00
14464:-5.6401320857447157e+00
14465:-5.7784448072829946e+00
14466:-5.9260040272982630e+00
14467:-6.0104804151853779e+00
14468:-5.8311805807541157e+00
14469:-5.9698910915783365e+00
14470:-6.1161546784021823e+00
14471:-6.1983531167620027e+00
14472:-6.0470175068069754e+00
14473:-6.1847190020683618e+00
14474:-6.3266885602983276e+00
14475:-6.4049719693721281e+00
14476:-6.1872026505013045e+00
14477:-6.3229290821200905e+00
14478:-6.4588190553918121e+00
14479:-6.5322294196205934e+00
14480:-6.0440660835673183e+00
14481:-6.0796507286829105e+00
14482:-6.0744429842928014e+00
14483:-6.0337927967866962e+00
14484:-6.2301950850437962e+00
14485:-6.2601257853529466e+00
14486:-6.2447234625456085e+00
14487:-6.1960006525997402e+00
14488:-6.4348434772261429e+00
14489:-6.4596248824053095e+00
14490:-6.4355207973781541e+00
14491:-6.3797364513635033e+00
14492:-6.5600639854559537e+00
14493:-6.5815235670276966e+00
14494:-6.5536338068001996e+00
14495:-6.4951697545195035e+00
14496:-5.9997252406749570e+00
14497:-5.9094134172259976e+00
14498:-5.7411643203237315e+00
14499:-5.5754305744604151e+00
14500:-6.1580963653150134e+00
14501:-6.0620047570023825e+00
14502:-5.8878739172642049e+00
14503:-5.7178679151488314e+00
14504:-6.3383335679197721e+00
14505:-6.2376864464010762e+00
14506:-6.0605900940999229e+00
14507:-5.8894976939614203e+00
14508:-6.4524475911019028e+00
14509:-6.3508737311372681e+00
14510:-6.1751771339779253e+00
14511:-6.0065213158347444e+00
14512:-5.4749365334274094e+00
14513:-5.2701262964430287e+00
14514:-4.9734000520079968e+00
14515:-4.7242947577813181e+00
14516:-5.6148885707365235e+00
14517:-5.4048864867126563e+00
14518:-5.1006954054676985e+00
14519:-4.8456361074409076e+00
14520:-5.7860091733968879e+00
14521:-5.5743446013444666e+00
14522:-5.2670606553149382e+00
14523:-5.0094521510237602e+00
14524:-5.9045847949765120e+00
14525:-5.6953978720946763e+00
14526:-5.3908969239326696e+00
14527:-5.1355820209464751e+00
14528:-4.5844823406762609e+00
14529:-4.3158057599865449e+00
14530:-3.9560553400906957e+00
14531:-3.6748829874688838e+00
14532:-4.7026181131333900e+00
14533:-4.4273736388230063e+00
14534:-4.0581496775555292e+00
14535:-3.7692856185476495e+00
14536:-4.8651142335231503e+00
14537:-4.5865404891986428e+00
14538:-4.2102374560027735e+00
14539:-3.9130887568925181e+00
14540:-4.9926411444040566e+00
14541:-4.7163330815708049e+00
14542:-4.3404973850854436e+00
14543:-4.0403399986161297e+00
14544:-3.5238718505678497e+00
14545:-3.2436067408220466e+00
14546:-2.8833377057214480e+00
14547:-2.6097965720422005e+00
14548:-3.6141725699689999e+00
14549:-3.3273538974178920e+00
14550:-2.9598121084971734e+00
14551:-2.6806053048570027e+00
14552:-3.7524473981321642e+00
14553:-3.4551300196535011e+00
14554:-3.0742759167343388e+00
14555:-2.7853363433433378e+00
14556:-3.8765373365721882e+00
14557:-3.5712777009526477e+00
14558:-3.1779078559409175e+00
14559:-2.8791111524983939e+00
14560:-2.4649910858638231e+00
14561:-2.2033480809819053e+00
14562:-1.8826127250059375e+00
14563:-1.6517781998277850e+00
14564:-2.5324217688278248e+00
14565:-2.2633279441254204e+00
14566:-1.9314160509665808e+00
14567:-1.6915964223185171e+00
14568:-2.6321037908376188e+00
14569:-2.3526171592457925e+00
14570:-2.0060458519672779e+00
14571:-1.7550044180444626e+00
14572:-2.7208539705058143e+00
14573:-2.4314937157484704e+00
14574:-2.0716261610545148e+00
14575:-1.8107018410587576e+00
14576:-1.5340510119786748e+00
14577:-1.3266121296129394e+00
14578:-1.0832757560047563e+00
14579:-9.1780577460016233e-01
14580:-1.5690792936673372e+00
14581:-1.3519914283166761e+00
14582:-1.0952450516078538e+00
14583:-9.1944442922859870e-01
14584:-1.6266993338801266e+00
14585:-1.3982727631791083e+00
14586:-1.1256377091645751e+00
14587:-9.3686473371211643e-01
14588:-1.6774219695768988e+00
14589:-1.4402841060198981e+00
14590:-1.1568869527402761e+00
14591:-9.5977690513644498e-01
14592:-8.3703182408689503e-01
14593:-6.9787841527335936e-01
14594:-5.3985750526173726e-01
14595:-4.3631413703372790e-01
14596:-8.3338020353113329e-01
14597:-6.8594823973153496e-01
14598:-5.2012219103995760e-01
14599:-4.1246632873596284e-01
14600:-8.4375728131148975e-01
14601:-6.8521561196860759e-01
14602:-5.0886836429466675e-01
14603:-3.9561326923052387e-01
14604:-8.6213838045157842e-01
14605:-6.9651432285842219e-01
14606:-5.1356194802547928e-01
14607:-3.9681223726779863e-01
14608:-3.8717838068194715e-01
14609:-3.0514912933205440e-01
14610:-2.1705737560312927e-01
14611:-1.6332418222804806e-01
14612:-3.6169832893557319e-01
14613:-2.7785164715329852e-01
14614:-1.8961981551616969e-01
14615:-1.3724498769402793e-01
14616:-3.4257311346182656e-01
14617:-2.5577207178860212e-01
14618:-1.6631012451078298e-01
14619:-1.1503841425422780e-01
14620:-3.4231949217430258e-01
14621:-2.5324800348537091e-01
14622:-1.6201634665255249e-01
14623:-1.1061561959041680e-01
14624:-1.3924594458759287e-01
14625:-1.0034403808407714e-01
14626:-6.1600808669975020e-02
14627:-4.1232196859461112e-02
14628:-1.1430384956941840e-01
14629:-7.7628251538256365e-02
14630:-4.1894175600014301e-02
14631:-2.3960907010731142e-02
14632:-9.3367016160071592e-02
14633:-5.9330043126623745e-02
14634:-2.6926400264435317e-02
14635:-1.1095104891648441e-02
14636:-8.9378867574840939e-02
14637:-5.6640300904150301e-02
14638:-2.6087038123152988e-02
14639:-1.1174103302052181e-02
14640:-3.3561591328881320e-02
14641:-2.2254475935675009e-02
14642:-1.2302937321615139e-02
14643:-7.7615098877208740e-03
14644:-1.7669144676895395e-02
14645:-9.4256619624617372e-03
14646:-4.1543701307992960e-03
14647:-3.4363240598092970e-03
14648:-5.6846194251338258e-03
14649:8.9613768287822313e-04
14650:3.5185867863746574e-03
14651:1.5184277445766149e-03
14652:-5.8928465633545325e-03
14653:1.1530993701798495e-03
14654:4.8804951589834404e-03
14655:3.3165637881850522e-03
14656:-2.9450034593579882e-01
14657:-9.8724346599463420e-01
14658:-1.7326048613168521e+00
14659:-2.1952819733303803e+00
14660:7.3793525402437221e-02
14661:-6.8215127793983554e-01
14662:-1.4965767146992492e+00
14663:-2.0031390860497602e+00
14664:5.0268059448026092e-01
14665:-3.2223061004364928e-01
14666:-1.2105217312339884e+00
14667:-1.7636324535628642e+00
14668:7.8923525628229252e-01
14669:-7.7704235929558121e-02
14670:-1.0097481699960866e+00
14671:-1.5901722195260721e+00
14672:-2.4081415983387493e+00
14673:-2.7721737310659882e+00
14674:-3.1911771001100302e+00
14675:-3.4764722924062084e+00
14676:-2.2366017306565409e+00
14677:-2.6361341343630857e+00
14678:-3.0962571172786886e+00
14679:-3.4096175410019183e+00
14680:-2.0190867696000931e+00
14681:-2.4573685888178147e+00
14682:-2.9629900130279911e+00
14683:-3.3068252149803015e+00
14684:-1.8587052545856422e+00
14685:-2.3209284567834998e+00
14686:-2.8554109004035912e+00
14687:-3.2182053828293400e+00
14688:-3.6185050262220186e+00
14689:-3.8813696298523963e+00
14690:-4.2186447758318213e+00
14691:-4.4716036177994321e+00
14692:-3.5656051260689976e+00
14693:-3.8538954565946395e+00
14694:-4.2214014191549705e+00
14695:-4.4938369557398952e+00
14696:-3.4774243419103308e+00
14697:-3.7911523215771705e+00
14698:-4.1877267753915648e+00
14699:-4.4788717153475250e+00
14700:-3.3974418816437395e+00
14701:-3.7249105269861200e+00
14702:-4.1356335320951514e+00
14703:-4.4355505401414286e+00
14704:-4.6040867869363646e+00
14705:-4.8478664398804527e+00
14706:-5.1578143378281531e+00
14707:-5.3903737248023660e+00
14708:-4.6349985001873399e+00
14709:-4.8919401002000091e+00
14710:-5.2143894442750360e+00
14711:-5.4541593564153930e+00
14712:-4.6286318792528958e+00
14713:-4.8992249395992085e+00
14714:-5.2348864946866636e+00
14715:-5.4814664013606977e+00
14716:-4.5895042550907625e+00
14717:-4.8674848117016918e+00
14718:-5.2108532280594844e+00
14719:-5.4609503205824419e+00
14720:-5.5125392974058860e+00
14721:-5.7318049199910197e+00
14722:-5.9922741308328344e+00
14723:-6.1682303919998098e+00
14724:-5.5797480467226093e+00
14725:-5.8060434985760541e+00
14726:-6.0752552674680436e+00
14727:-6.2559510470235375e+00
14728:-5.6096768280080678e+00
14729:-5.8408839964707724e+00
14730:-6.1162510250138471e+00
14731:-6.3009282710016894e+00
14732:-5.5899876774634709e+00
14733:-5.8217133799661003e+00
14734:-6.0969119943829693e+00
14735:-6.2816502056254233e+00
14736:-6.2522157325479304e+00
14737:-6.3865656765452661e+00
14738:-6.5182608524092647e+00
14739:-6.5883124081432562e+00
14740:-6.3412156661187700e+00
14741:-6.4742538134808925e+00
14742:-6.6000057345819556e+00
14743:-6.6651438124388998e+00
14744:-6.3877462695009273e+00
14745:-6.5204266485810143e+00
14746:-6.6421851628228685e+00
14747:-6.7044943573340214e+00
14748:-6.3687020565072245e+00
14749:-6.5009696352457054e+00
14750:-6.6220221964477037e+00
14751:-6.6852399867049410e+00
14752:-6.6147727259736779e+00
14753:-6.6345246376457290e+00
14754:-6.6055313295781302e+00
14755:-6.5466072059413429e+00
14756:-6.6896925260566782e+00
14757:-6.7079131501787881e+00
14758:-6.6794515298913302e+00
14759:-6.6215075990119852e+00
14760:-6.7285326051405159e+00
14761:-6.7492970306419915e+00
14762:-6.7282275635976623e+00
14763:-6.6763967397999942e+00
14764:-6.7108153342296131e+00
14765:-6.7378526251636650e+00
14766:-6.7287512879492537e+00
14767:-6.6862525298824984e+00
14768:-6.5036899547619988e+00
14769:-6.4025322128987350e+00
14770:-6.2287934042514630e+00
14771:-6.0624733313513408e+00
14772:-6.5790150789714588e+00
14773:-6.4796784410488923e+00
14774:-6.3105983530150382e+00
14775:-6.1495729347236159e+00
14776:-6.6366499302762518e+00
14777:-6.5426271205083824e+00
14778:-6.3821532897320781e+00
14779:-6.2299141522824835e+00
14780:-6.6507962950964696e+00
14781:-6.5638883146232638e+00
14782:-6.4126456228537938e+00
14783:-6.2688716263060558e+00
14784:-5.9619776498892207e+00
14785:-5.7553478043864388e+00
14786:-5.4541066370796827e+00
14787:-5.2015061641097748e+00
14788:-6.0524469102241127e+00
14789:-5.8521792235948711e+00
14790:-5.5591608202811891e+00
14791:-5.3128462169554611e+00
14792:-6.1384358104698684e+00
14793:-5.9493440602739600e+00
14794:-5.6706773392847838e+00
14795:-5.4342280621969303e+00
14796:-6.1827522453512698e+00
14797:-6.0043874266542963e+00
14798:-5.7391066004167293e+00
14799:-5.5109500992102651e+00
14800:-5.0601595005102951e+00
14801:-4.7868210930853428e+00
14802:-4.4136001191842045e+00
14803:-4.1134563272523437e+00
14804:-5.1748533996139381e+00
14805:-4.9075206275743763e+00
14806:-4.5402400348252181e+00
14807:-4.2420610668750740e+00
14808:-5.3008157463931580e+00
14809:-5.0406357030121223e+00
14810:-4.6802474048949660e+00
14811:-4.3858279014949897e+00
14812:-5.3808253939779256e+00
14813:-5.1245986440895681e+00
14814:-4.7669413470282889e+00
14815:-4.4744381906928288e+00
14816:-3.9486644886116493e+00
14817:-3.6397342414590126e+00
14818:-3.2393282512387396e+00
14819:-2.9345481209177700e+00
14820:-4.0770300671599040e+00
14821:-3.7645814337368129e+00
14822:-3.3554172272269054e+00
14823:-3.0424759163477497e+00
14824:-4.2222522612648907e+00
14825:-3.9099653214151280e+00
14826:-3.4970687255447022e+00
14827:-3.1795272272842117e+00
14828:-4.3122116517421816e+00
14829:-4.0018962377758331e+00
14830:-3.5903903995610542e+00
14831:-3.2732127657335028e+00
14832:-2.7731782521586581e+00
14833:-2.4777597105256053e+00
14834:-2.1097922899210677e+00
14835:-1.8428254161152293e+00
14836:-2.8766793097472623e+00
14837:-2.5721542699385829e+00
14838:-2.1909611139890814e+00
14839:-1.9132135435501001e+00
14840:-3.0109788637347954e+00
14841:-2.7001157053925171e+00
14842:-2.3081972997290592e+00
14843:-2.0203700481047480e+00
14844:-3.1046688719288706e+00
14845:-2.7934368589247631e+00
14846:-2.3998521655112062e+00
14847:-2.1094502047996273e+00
14848:-1.7065042108977460e+00
14849:-1.4644821276351343e+00
14850:-1.1758656521010025e+00
14851:-9.7514387954871540e-01
14852:-1.7711341084401719e+00
14853:-1.5200033370556048e+00
14854:-1.2220705096509121e+00
14855:-1.0151838221748886e+00
14856:-1.8724440778542677e+00
14857:-1.6123195463183000e+00
14858:-1.3056486839083701e+00
14859:-1.0930316006823486e+00
14860:-1.9597018206388264e+00
14861:-1.6971546162391746e+00
14862:-1.3885396105541279e+00
14863:-1.1743408331557998e+00
14864:-8.7561669925753705e-01
14865:-7.0707948817021482e-01
14866:-5.2145365132610055e-01
14867:-4.0329612703660356e-01
14868:-9.1247454785749227e-01
14869:-7.3868082950098257e-01
14870:-5.4766050702324121e-01
14871:-4.2641283773589500e-01
14872:-9.8722227780357930e-01
14873:-8.0724964331084936e-01
14874:-6.0816958404858557e-01
14875:-4.8139238410762253e-01
14876:-1.0673155172212643e+00
14877:-8.8354972245063212e-01
14878:-6.7762462799224854e-01
14879:-5.4522840787848603e-01
14880:-3.4819997324398033e-01
14881:-2.5798734757121994e-01
14882:-1.6547603365446745e-01
14883:-1.1350513517493993e-01
14884:-3.6997831148440385e-01
14885:-2.7716053840198618e-01
14886:-1.8117366516712632e-01
14887:-1.2670027206194237e-01
14888:-4.2238341741031427e-01
14889:-3.2473679976544850e-01
14890:-2.2195610107937960e-01
14891:-1.6160034391379796e-01
14892:-4.8339358800941867e-01
14893:-3.8066229640664895e-01
14894:-2.7085809351162371e-01
14895:-2.0413829519110410e-01
14896:-9.2183007640637402e-02
14897:-5.9669026840758255e-02
14898:-2.9685544265798811e-02
14899:-1.5001453844853085e-02
14900:-1.0418701240846774e-01
14901:-7.0064655352614039e-02
14902:-3.8890663646398337e-02
14903:-2.3638949517638810e-02
14904:-1.3566568840783846e-01
14905:-9.5324886519810068e-02
14906:-5.7195179725880993e-02
14907:-3.8041447833188545e-02
14908:-1.7428561844230492e-01
14909:-1.2604019694061810e-01
14910:-7.7946726395673530e-02
14911:-5.2618377958517044e-02
14912:-9.6315637131251866e-03
14913:-1.7823000374554896e-03
14914:3.6381852201265064e-03
14915:3.2868112865849205e-03
14916:-1.7938893975278879e-02
14917:-8.6254928528125604e-03
14918:-2.2690651931520228e-04
14919:1.8515648183206328e-03
14920:-3.0861522637821277e-02
14921:-1.8860403584288137e-02
14922:-6.7815272241076238e-03
14923:-1.6466584272712037e-03
14924:-4.2985457386681497e-02
14925:-2.7573286744177399e-02
14926:-1.2333111310214482e-02
14927:-4.9249909150922968e-03
14928:9.2635784421530976e-01
14929:4.1025748036062654e-02
14930:-9.0967378709640279e-01
14931:-1.5016505544634127e+00
14932:1.1540972745523428e+00
14933:2.4237136045999966e-01
14934:-7.3453599812944781e-01
14935:-1.3422998263782342e+00
14936:1.3921763213615248e+00
14937:4.6236512161920573e-01
14938:-5.3163291553721359e-01
14939:-1.1489119052116690e+00
14940:1.5288611984620353e+00
14941:5.9789578083224726e-01
14942:-3.9630066891888022e-01
14943:-1.0128481581254236e+00
14944:-1.7757943193524501e+00
14945:-2.2486766050309859e+00
14946:-2.7963367825018648e+00
14947:-3.1676645159336263e+00
14948:-1.6239914272650819e+00
14949:-2.1114868255752897e+00
14950:-2.6774744529173025e+00
14951:-3.0605885657509901e+00
14952:-1.4349049618396883e+00
14953:-1.9310894338183420e+00
14954:-2.5080801058036690e+00
14955:-2.8977252735441192e+00
14956:-1.2982209452852684e+00
14957:-1.7935376767070017e+00
14958:-2.3691811930195676e+00
14959:-2.7568208482957912e+00
14960:-3.3506140502620854e+00
14961:-3.6834033970398758e+00
14962:-4.0987951586155331e+00
14963:-4.4013587529212730e+00
14964:-3.2485230202360853e+00
14965:-3.5876908943042318e+00
14966:-4.0073284580700035e+00
14967:-4.3115885658472024e+00
14968:-3.0879465262647701e+00
14969:-3.4280608700962434e+00
14970:-3.8444969449800190e+00
14971:-4.1448864982376454e+00
14972:-2.9453503695747805e+00
14973:-3.2802847909107631e+00
14974:-3.6875724830808392e+00
14975:-3.9805780712466001e+00
14976:-4.5566409588523875e+00
14977:-4.8373777138541687e+00
14978:-5.1839572524691047e+00
14979:-5.4353861047670948e+00
14980:-4.4677206943835097e+00
14981:-4.7510722707215240e+00
14982:-5.1013694998578023e+00
14983:-5.3542544064052073e+00
14984:-4.2991039115649690e+00
14985:-4.5809009852694427e+00
14986:-4.9310450255493050e+00
14987:-5.1831462377773070e+00
14988:-4.1312048224565050e+00
14989:-4.4081598685540246e+00
14990:-4.7540984330884006e+00
14991:-5.0030170774667777e+00
14992:-5.5645104676114014e+00
14993:-5.7954258644337511e+00
14994:-6.0687297598099645e+00
14995:-6.2522514413857468e+00
14996:-5.4831912793640827e+00
14997:-5.7117757827728779e+00
14998:-5.9805380837364037e+00
14999:-6.1614950204104417e+00
15000:-5.3107766650650241e+00
15001:-5.5343794652491098e+00
15002:-5.7954781825621700e+00
15003:-5.9730884030796147e+00
15004:-5.1284626706759502e+00
15005:-5.3462995114546548e+00
15006:-5.6001095182773737e+00
15007:-5.7754685187425441e+00
15008:-6.3389481409874886e+00
15009:-6.4707885276333093e+00
15010:-6.5922932123581806e+00
15011:-6.6571939919333367e+00
15012:-6.2476993940672498e+00
15013:-6.3802100675744278e+00
15014:-6.5056056157270810e+00
15015:-6.5757812529176887e+00
15016:-6.0593932358811111e+00
15017:-6.1964295175584434e+00
15018:-6.3337279746862807e+00
15019:-6.4153805825635528e+00
15020:-5.8626998314503211e+00
15021:-6.0064575525985209e+00
15022:-6.1585195485284778e+00
15023:-6.2526734942352693e+00
15024:-6.6843525142698406e+00
15025:-6.7163612800616495e+00
15026:-6.7159517354154881e+00
15027:-6.6801709145206303e+00
15028:-6.6066586565115921e+00
15029:-6.6486488461463029e+00
15030:-6.6650577231422989e+00
15031:-6.6429816893565263e+00
15032:-6.4526889620752552e+00
15033:-6.5086899325338008e+00
15034:-6.5469371582910103e+00
15035:-6.5437773791214768e+00
15036:-6.2961732110976465e+00
15037:-6.3636387325530892e+00
15038:-6.4182412778541522e+00
15039:-6.4299421676554251e+00
15040:-6.6478601698105297e+00
15041:-6.5660222708406097e+00
15042:-6.4209014372724900e+00
15043:-6.2824017391357110e+00
15044:-6.6176665364802023e+00
15045:-6.5480601129232330e+00
15046:-6.4183098497878541e+00
15047:-6.2921657110631672e+00
15048:-6.5291357379621298e+00
15049:-6.4800184578039950e+00
15050:-6.3773187281708861e+00
15051:-6.2717312983580866e+00
15052:-6.4243698510024014e+00
15053:-6.3938174807855361e+00
15054:-6.3163313843640863e+00
15055:-6.2291684693207303e+00
15056:-6.1995433408851506e+00
15057:-6.0276214913659194e+00
15058:-5.7701145239979903e+00
15059:-5.5464297683300288e+00
15060:-6.2163276810769625e+00
15061:-6.0573236978594638e+00
15062:-5.8146435430628394e+00
15063:-5.5996408512426550e+00
15064:-6.2065807901289300e+00
15065:-6.0655549585197619e+00
15066:-5.8421935066177939e+00
15067:-5.6390450261910106e+00
15068:-6.1729856310052984e+00
15069:-6.0460632365898483e+00
15070:-5.8372055291646978e+00
15071:-5.6436275588952594e+00
15072:-5.4178706603217304e+00
15073:-5.1630283136670334e+00
15074:-4.8056450348777373e+00
15075:-4.5135024570066236e+00
15076:-5.4744266593288273e+00
15077:-5.2234586066280748e+00
15078:-4.8686020324093002e+00
15079:-4.5783742472611371e+00
15080:-5.5191550672432648e+00
15081:-5.2764615280468323e+00
15082:-4.9302804870521841e+00
15083:-4.6461738771484722e+00
15084:-5.5286904396504131e+00
15085:-5.2951178237998029e+00
15086:-4.9602056611691214e+00
15087:-4.6840227115392441e+00
15088:-4.3518546051594234e+00
15089:-4.0428173120836348e+00
15090:-3.6330427485292098e+00
15091:-3.3171055484885010e+00
15092:-4.4182100500275414e+00
15093:-4.1118925162194166e+00
15094:-3.7051991376453914e+00
15095:-3.3912003704076770e+00
15096:-4.4893164427978256e+00
15097:-4.1881823792158634e+00
15098:-3.7864288494174327e+00
15099:-3.4752255452993301e+00
15100:-4.5310284074550440e+00
15101:-4.2358379748563300e+00
15102:-3.8399079263150848e+00
15103:-3.5323620498810486e+00
15104:-3.1491730829026738e+00
15105:-2.8392342126620740e+00
15106:-2.4472728164259689e+00
15107:-2.1577017657588180e+00
15108:-3.2242034633805541e+00
15109:-2.9168594271184287e+00
15110:-2.5290156506385921e+00
15111:-2.2421462410001580e+00
15112:-3.3096120130167330e+00
15113:-3.0066011999385549e+00
15114:-2.6260320991276922e+00
15115:-2.3440265937616758e+00
15116:-3.3686984321316094e+00
15117:-3.0707244627834993e+00
15118:-2.6975189210642454e+00
15119:-2.4198121402901100e+00
15120:-2.0081914560425473e+00
15121:-1.7463346023236943e+00
15122:-1.4386829295871122e+00
15123:-1.2247656557124202e+00
15124:-2.0936666912103146e+00
15125:-1.8334710308201188e+00
15126:-1.5273574790199582e+00
15127:-1.3139233999375881e+00
15128:-2.1973045746139297e+00
15129:-1.9383091881107992e+00
15130:-1.6310622969598341e+00
15131:-1.4159964594142038e+00
15132:-2.2742837584702991e+00
15133:-2.0144522627578234e+00
15134:-1.7024071280220698e+00
15135:-1.4830405391458270e+00
15136:-1.1175473455431157e+00
15137:-9.3218775288738276e-01
15138:-7.2248510058007143e-01
15139:-5.8663267605801850e-01
15140:-1.2065764471741947e+00
15141:-1.0190083136801162e+00
15142:-8.0329816938676535e-01
15143:-6.6133228806755906e-01
15144:-1.3077915959537207e+00
15145:-1.1172657802758077e+00
15146:-8.9470629684734282e-01
15147:-7.4518863807580737e-01
15148:-1.3729105330713263e+00
15149:-1.1788633059712184e+00
15150:-9.5066921834013851e-01
15151:-7.9512567950682067e-01
15152:-5.2297597382677907e-01
15153:-4.1701828464427776e-01
15154:-3.0284690078770060e-01
15155:-2.3217250732094924e-01
15156:-5.9416559275582681e-01
15157:-4.8173841468069123e-01
15158:-3.5896116555873026e-01
15159:-2.8112907116925090e-01
15160:-6.7322774108539685e-01
15161:-5.5134936772112808e-01
15162:-4.1612158424820089e-01
15163:-3.2917023781996424e-01
15164:-7.1912647527707974e-01
15165:-5.8890438125535027e-01
15166:-4.4283363273094534e-01
15167:-3.4882491595219017e-01
15168:-1.9985900792426223e-01
15169:-1.4645665766754976e-01
15170:-9.1567788725535212e-02
15171:-6.1837770788889267e-02
15172:-2.4467097130906229e-01
15173:-1.8290251356371798e-01
15174:-1.1707974570542681e-01
15175:-7.9965019056185027e-02
15176:-2.8814741426449947e-01
15177:-2.1839948900777423e-01
15178:-1.4321171016400833e-01
15179:-9.9639291323012649e-02
15180:-3.0484565289487325e-01
15181:-2.3122621811524566e-01
15182:-1.5300431043549709e-01
15183:-1.0751241212309312e-01
15184:-5.0391202009485124e-02
15185:-3.2582764419423552e-02
15186:-1.5413689035443700e-02
15187:-6.7679471348708305e-03
15188:-6.5242820963371889e-02
15189:-4.2802925710763794e-02
15190:-2.1504868427897172e-02
15191:-1.0184223353868118e-02
15192:-8.1743612982513356e-02
15193:-5.4354807918425514e-02
15194:-2.8072963921675957e-02
15195:-1.3509147798336483e-02
15196:-8.8441387891384227e-02
15197:-5.8922005267219697e-02
15198:-3.0265133803107993e-02
15199:-1.4315669073489837e-02
15200:1.5855603896247632e+00
15201:6.5850255952050318e-01
15202:-3.3129797958123536e-01
15203:-9.4473871558719413e-01
15204:1.6638447300720978e+00
15205:7.5251492617242000e-01
15206:-2.2064146103450227e-01
15207:-8.2324190888891691e-01
15208:1.7131589511338021e+00
15209:8.3792286630375756e-01
15210:-9.7827202453445936e-02
15211:-6.7679752057155584e-01
15212:1.7126369292812145e+00
15213:8.7609113333489363e-01
15214:-1.9737211403641642e-02
15215:-5.7362809609512910e-01
15216:-1.2284812703649577e+00
15217:-1.7207871506657435e+00
15218:-2.2922996413274670e+00
15219:-2.6763538273215830e+00
15220:-1.1015749687868401e+00
15221:-1.5836783166980362e+00
15222:-2.1414653491366997e+00
15223:-2.5145122920633369e+00
15224:-9.4357438433572416e-01
15225:-1.4036622622234916e+00
15226:-1.9321760941361317e+00
15227:-2.2827787362064029e+00
15228:-8.2817531294611602e-01
15229:-1.2648791677804281e+00
15230:-1.7625227127445691e+00
15231:-2.0899850300347209e+00
15232:-2.8627247704378371e+00
15233:-3.1927831959518254e+00
15234:-3.5928764704232008e+00
15235:-3.8804664413481329e+00
15236:-2.6947569205520079e+00
15237:-3.0123088537337783e+00
15238:-3.3951853431835617e+00
15239:-3.6699152192843871e+00
15240:-2.4511372950438886e+00
15241:-2.7461243086499594e+00
15242:-3.0996276207021891e+00
15243:-3.3524825306531629e+00
15244:-2.2463975491283059e+00
15245:-2.5195384268255996e+00
15246:-2.8454615506097958e+00
15247:-3.0777679660514514e+00
15248:-4.0284773292455061e+00
15249:-4.3015713842111731e+00
15250:-4.6437041969680077e+00
15251:-4.8898589902953908e+00
15252:-3.8115161545222325e+00
15253:-4.0741840195108265e+00
15254:-4.4050526184669829e+00
15255:-4.6435610850941869e+00
15256:-3.4828264550708008e+00
15257:-3.7255687753574263e+00
15258:-4.0333224523034854e+00
15259:-4.2567262067165421e+00
15260:-3.1973163108229761e+00
15261:-3.4200143798243348e+00
15262:-3.7036517750050972e+00
15263:-3.9115516621698108e+00
15264:-5.0136343706989708e+00
15265:-5.2276561427299626e+00
15266:-5.4771739274204005e+00
15267:-5.6515713647772312e+00
15268:-4.7633415411544329e+00
15269:-4.9696125155058324e+00
15270:-5.2113140375649891e+00
15271:-5.3839792738153429e+00
15272:-4.3694759718708882e+00
15273:-4.5645265930593961e+00
15274:-4.7969307704342725e+00
15275:-4.9678584984158682e+00
15276:-4.0175121050104661e+00
15277:-4.2031699255227055e+00
15278:-4.4293707015864197e+00
15279:-4.5996722335331643e+00
15280:-5.7396584513836171e+00
15281:-5.8881340027878570e+00
15282:-6.0498705346200046e+00
15283:-6.1518184405131437e+00
15284:-5.4734263392146056e+00
15285:-5.6297627168825155e+00
15286:-5.8081246739874270e+00
15287:-5.9240277140470567e+00
15288:-5.0587353104268669e+00
15289:-5.2232217710954920e+00
15290:-5.4195698010535098e+00
15291:-5.5517728205431212e+00
15292:-4.6915829063535170e+00
15293:-4.8610326764941600e+00
15294:-5.0686264839477673e+00
15295:-5.2119807806525378e+00
15296:-6.1989865234610528e+00
15297:-6.2727593810018627e+00
15298:-6.3359435329524985e+00
15299:-6.3556649353247971e+00
15300:-5.9780894439920873e+00
15301:-6.0643790801895232e+00
15302:-6.1451453365401942e+00
15303:-6.1809027654023669e+00
15304:-5.6146148517379046e+00
15305:-5.7184281692289227e+00
15306:-5.8250965882766783e+00
15307:-5.8836408767774682e+00
15308:-5.2814093103572048e+00
15309:-5.3994993144674162e+00
15310:-5.5280038212101346e+00
15311:-5.6050867883612190e+00
15312:-6.3551886096969490e+00
15313:-6.3353316226882219e+00
15314:-6.2724555870960099e+00
15315:-6.1957153716991344e+00
15316:-6.1902786650320394e+00
15317:-6.1903631490656030e+00
15318:-6.1541161575134966e+00
15319:-6.0964994689275276e+00
15320:-5.9062740009942054e+00
15321:-5.9315555519732541e+00
15322:-5.9275728561190260e+00
15323:-5.8934612984726007e+00
15324:-5.6379652969665424e+00
15325:-5.6815890865609795e+00
15326:-5.7001592119725935e+00
15327:-5.6828567039977917e+00
15328:-6.1444260168198612e+00
15329:-6.0249970796872816e+00
15330:-5.8238392207125091e+00
15331:-5.6357126114791196e+00
15332:-6.0544257284653913e+00
15333:-5.9500415695277225e+00
15334:-5.7658817731636782e+00
15335:-5.5903704007389274e+00
15336:-5.8632815888946679e+00
15337:-5.7803287261531517e+00
15338:-5.6233685794645787e+00
15339:-5.4689130443914253e+00
15340:-5.6616681706924910e+00
15341:-5.5963707559235285e+00
15342:-5.4636913857064844e+00
15343:-5.3284275588971104e+00
15344:-5.5238347276927913e+00
15345:-5.2962485283314731e+00
15346:-4.9690754649604330e+00
15347:-4.6983220441241293e+00
15348:-5.4854890640534393e+00
15349:-5.2711399987679837e+00
15350:-4.9607064780391434e+00
15351:-4.7018420059624164e+00
15352:-5.3754809007180304e+00
15353:-5.1819718137267188e+00
15354:-4.8972987462748820e+00
15355:-4.6571603112476518e+00
15356:-5.2452620253502662e+00
15357:-5.0700675022708870e+00
15358:-4.8079412323808794e+00
15359:-4.5846886597549394e+00
15360:-4.5479052205712991e+00
15361:-4.2567734606475929e+00
15362:-3.8650812912112449e+00
15363:-3.5604120827731225e+00
15364:-4.5572796545358987e+00
15365:-4.2762359929056357e+00
15366:-3.8961743285206607e+00
15367:-3.5994314824185696e+00
15368:-4.5222836262203874e+00
15369:-4.2594190558866716e+00
15370:-3.9019045266106613e+00
15371:-3.6203858715059871e+00
15372:-4.4589017449049360e+00
15373:-4.2138368785609623e+00
15374:-3.8789270366420978e+00
15375:-3.6123117317577167e+00
15376:-3.3983128910963796e+00
15377:-3.1038429705191710e+00
15378:-2.7351578942006896e+00
15379:-2.4597474637261834e+00
15380:-3.4412960362263796e+00
15381:-3.1542081410401916e+00
15382:-2.7938491973768094e+00
15383:-2.5226696763563980e+00
15384:-3.4692808312403605e+00
15385:-3.1928439861237021e+00
15386:-2.8420334986579370e+00
15387:-2.5754665751838850e+00
15388:-3.4676733609519688e+00
15389:-3.1995761477322464e+00
15390:-2.8543990053309662e+00
15391:-2.5902265607252382e+00
15392:-2.3146645659564187e+00
15393:-2.0535837832413608e+00
15394:-1.7374383010199543e+00
15395:-1.5145731325413430e+00
15396:-2.3786705433028881e+00
15397:-2.1162630098670898e+00
15398:-1.7940445860289833e+00
15399:-1.5654025129319367e+00
15400:-2.4330566371774816e+00
15401:-2.1708313975083064e+00
15402:-1.8444952732600106e+00
15403:-1.6106251958873261e+00
15404:-2.4489565407479441e+00
15405:-2.1880237561605127e+00
15406:-1.8612199086028334e+00
15407:-1.6250813371077761e+00
15408:-1.4028762466109834e+00
15409:-1.2062992216023531e+00
15410:-9.7469086029711394e-01
15411:-8.1569614816279967e-01
15412:-1.4508405391717563e+00
15413:-1.2491878764713582e+00
15414:-1.0104939769968946e+00
15415:-8.4486013801181814e-01
15416:-1.4928888911856488e+00
15417:-1.2845566335052878e+00
15418:-1.0358662220600605e+00
15419:-8.6175705776915712e-01
15420:-1.5053821375410386e+00
15421:-1.2920967372173429e+00
15422:-1.0357083349752838e+00
15423:-8.5585079750716586e-01
15424:-7.3736987870628434e-01
15425:-6.0230642221671915e-01
15426:-4.5008225798175400e-01
15427:-3.5236400298510323e-01
15428:-7.6237127670276217e-01
15429:-6.1925138373786270e-01
15430:-4.5741152072480745e-01
15431:-3.5405292941654432e-01
15432:-7.7459273346744650e-01
15433:-6.2387084163241413e-01
15434:-4.5465372746205102e-01
15435:-3.4754028735917630e-01
15436:-7.6605937197437612e-01
15437:-6.1240241858897493e-01
15438:-4.4224501329134863e-01
15439:-3.3551806483704300e-01
15440:-3.0702637091512142e-01
15441:-2.3213677676737279e-01
15442:-1.5372521987100074e-01
15443:-1.0827819359174359e-01
15444:-3.0663757916653572e-01
15445:-2.2976399131341452e-01
15446:-1.5098220047205910e-01
15447:-1.0556170345627214e-01
15448:-2.9879403561387019e-01
15449:-2.2065851589109187e-01
15450:-1.4165689955632330e-01
15451:-9.6258810066443920e-02
15452:-2.8705615753892755e-01
15453:-2.0944741367890449e-01
15454:-1.3113197017679987e-01
15455:-8.6258093097272864e-02
15456:-8.9048853132820724e-02
15457:-5.9096187577839944e-02
15458:-2.9943044357240847e-02
15459:-1.3898639471632914e-02
15460:-8.6099279988119587e-02
15461:-5.5791200854629429e-02
15462:-2.6828337941015357e-02
15463:-1.1725608440734973e-02
15464:-7.6675994526581651e-02
15465:-4.6781777934366935e-02
15466:-1.9866020582438859e-02
15467:-7.5166508849542641e-03
15468:-6.6988533000485906e-02
15469:-3.8312898412148196e-02
15470:-1.4084452178642582e-02
15471:-4.4022404027443006e-03
15472:1.6995019870443904e+00
15473:8.8716231478175300e-01
15474:1.6344805792267523e-02
15475:-5.2181936959919339e-01
15476:1.6513488296936372e+00
15477:8.9027405522758962e-01
15478:7.2879157484088353e-02
15479:-4.3186755089344159e-01
15480:1.5460425081703755e+00
15481:8.6212339021563900e-01
15482:1.2626064275180635e-01
15483:-3.2756274371496275e-01
15484:1.4363693344222437e+00
15485:8.1848787664820755e-01
15486:1.5337948565981580e-01
15487:-2.5608486088865628e-01
15488:-7.6869679157109372e-01
15489:-1.1907543878770421e+00
15490:-1.6691850037918294e+00
15491:-1.9824118867034275e+00
15492:-6.6268774120069729e-01
15493:-1.0546505482693467e+00
15494:-1.4944147485876065e+00
15495:-1.7794050923376079e+00
15496:-5.3428046677786978e-01
15497:-8.8223172840370756e-01
15498:-1.2671818058402633e+00
15499:-1.5130457200080436e+00
15500:-4.4196473088589333e-01
15501:-7.5267791394772177e-01
15502:-1.0925532933232918e+00
15503:-1.3069751516518926e+00
15504:-2.1315608721950077e+00
15505:-2.3916165001831442e+00
15506:-2.7012201931128286e+00
15507:-2.9213519564950388e+00
15508:-1.9142470711791439e+00
15509:-2.1486965927499102e+00
15510:-2.4266654702880652e+00
15511:-2.6233956317204430e+00
15512:-1.6282786093629231e+00
15513:-1.8278574237338965e+00
15514:-2.0631619531020133e+00
15515:-2.2286452307432958e+00
15516:-1.4066364524412189e+00
15517:-1.5786312469203068e+00
15518:-1.7803522782260788e+00
15519:-1.9213621949722164e+00
15520:-3.0344418501300026e+00
15521:-3.2449082235221574e+00
15522:-3.5136077690113208e+00
15523:-3.7119459092725373e+00
15524:-2.7241180422485165e+00
15525:-2.9109652087722453e+00
15526:-3.1501723111300142e+00
15527:-3.3288713075945400e+00
15528:-2.3129511359559842e+00
15529:-2.4683300346801733e+00
15530:-2.6674211325834483e+00
15531:-2.8182239764176154e+00
15532:-1.9928575251945784e+00
15533:-2.1237809991861143e+00
15534:-2.2914854223627117e+00
15535:-2.4199315701835955e+00
15536:-3.8138103594458399e+00
15537:-3.9941423199388080e+00
15538:-4.2172280340711703e+00
15539:-4.3873309257579542e+00
15540:-3.4219241271091025e+00
15541:-3.5900134873942497e+00
15542:-3.8041339058317782e+00
15543:-3.9713475409365131e+00
15544:-2.8981043878364607e+00
15545:-3.0463792390656743e+00
15546:-3.2427458211824089e+00
15547:-3.4009841458605270e+00
15548:-2.4889232370201673e+00
15549:-2.6198314996928160e+00
15550:-2.7985868318902183e+00
15551:-2.9461835423425002e+00
15552:-4.4797215755188917e+00
15553:-4.6513102819279943e+00
15554:-4.8639709974510188e+00
15555:-5.0127679030390322e+00
15556:-4.0632509356263933e+00
15557:-4.2360849579171695e+00
15558:-4.4545458976387939e+00
15559:-4.6108540730236891e+00
15560:-3.4893384443337738e+00
15561:-3.6580892551909612e+00
15562:-3.8765360717114259e+00
15563:-4.0370331256659631e+00
15564:-3.0296247831266840e+00
15565:-3.1909392878846163e+00
15566:-3.4036667149819420e+00
15567:-3.5631608098993688e+00
15568:-5.0856279726154270e+00
15569:-5.2114970269525589e+00
15570:-5.3520745425018434e+00
15571:-5.4391916969014913e+00
15572:-4.6888146210890778e+00
15573:-4.8269008862098115e+00
15574:-4.9875063936095643e+00
15575:-5.0920181254803767e+00
15576:-4.1187896781767819e+00
15577:-4.2674712725230419e+00
15578:-4.4478897095323324e+00
15579:-4.5713549052631395e+00
15580:-3.6456792368822444e+00
15581:-3.7983624041757897e+00
15582:-3.9888740098610378e+00
15583:-4.1236419672752911e+00
15584:-5.4774523700533084e+00
15585:-5.5304175799552322e+00
15586:-5.5602875645090437e+00
15587:-5.5516253143127017e+00
15588:-5.1398879281719267e+00
15589:-5.2101115817185315e+00
15590:-5.2617859010599375e+00
15591:-5.2702246441641067e+00
15592:-4.6303612989293006e+00
15593:-4.7221433304967517e+00
15594:-4.8034814409909483e+00
15595:-4.8362541523850755e+00
15596:-4.1898739977321124e+00
15597:-4.2971032197944146e+00
15598:-4.4018986855604361e+00
15599:-4.4548867993141812e+00
15600:-5.5352452440183884e+00
15601:-5.4798152064965917e+00
15602:-5.3611696793959611e+00
15603:-5.2370457654757328e+00
15604:-5.2634056945031871e+00
15605:-5.2275584268096598e+00
15606:-5.1368114252731836e+00
15607:-5.0349777811245398e+00
15608:-4.8431336023156089e+00
15609:-4.8350429062629869e+00
15610:-4.7836222722946617e+00
15611:-4.7133899660246374e+00
15612:-4.4732644477535537e+00
15613:-4.4882117002253876e+00
15614:-4.4691600594687095e+00
15615:-4.4249826217487138e+00
15616:-5.1597798483501549e+00
15617:-4.9950666271519815e+00
15618:-4.7459304249221566e+00
15619:-4.5326089280003163e+00
15620:-4.9696162243614195e+00
15621:-4.8264570582875015e+00
15622:-4.6043420355713733e+00
15623:-4.4114016496873543e+00
15624:-4.6651014032309783e+00
15625:-4.5537484055905804e+00
15626:-4.3722328275608886e+00
15627:-4.2094129858670417e+00
15628:-4.3908825040270090e+00
15629:-4.3065852651539069e+00
15630:-4.1601100953049297e+00
15631:-4.0229646500239671e+00
15632:-4.4122725296740901e+00
15633:-4.1779733976833500e+00
15634:-3.8567017439592362e+00
15635:-3.5988857641401593e+00
15636:-4.3019894929388878e+00
15637:-4.0885762316208520e+00
15638:-3.7932394335693931e+00
15639:-3.5523993411399557e+00
15640:-4.1156113073327072e+00
15641:-3.9303684037849260e+00
15642:-3.6684196306704417e+00
15643:-3.4495877598286100e+00
15644:-3.9421062324023946e+00
15645:-3.7789248252779899e+00
15646:-3.5416545263055070e+00
15647:-3.3389465848557935e+00
15648:-3.4579268950291095e+00
15649:-3.1941918216013883e+00
15650:-2.8514281607122802e+00
15651:-2.5882044560057742e+00
15652:-3.4188384423416953e+00
15653:-3.1646636873487330e+00
15654:-2.8286132569964777e+00
15655:-2.5687270882975506e+00
15656:-3.3261122083037811e+00
15657:-3.0865331547725994e+00
15658:-2.7633830311478227e+00
15659:-2.5109872310239467e+00
15660:-3.2231315624529691e+00
15661:-2.9956769446597282e+00
15662:-2.6848589087458872e+00
15663:-2.4401838802370883e+00
15664:-2.4475533794778577e+00
15665:-2.1877178643297914e+00
15666:-1.8615308847389052e+00
15667:-1.6247288856836293e+00
15668:-2.4299018983854461e+00
15669:-2.1729659641806869e+00
15670:-1.8486195879616600e+00
15671:-1.6111278442604340e+00
15672:-2.3758761058008608e+00
15673:-2.1243098368090640e+00
15674:-1.8036151282313857e+00
15675:-1.5664409694069938e+00
15676:-2.3087678400205593e+00
15677:-2.0623761183666600e+00
15678:-1.7455571536627064e+00
15679:-1.5098840573226817e+00
15680:-1.5041330493915566e+00
15681:-1.2883476230514281e+00
15682:-1.0281179377706546e+00
15683:-8.4574205876413810e-01
15684:-1.4892762478152393e+00
15685:-1.2701745172326524e+00
15686:-1.0052338601237227e+00
15687:-8.2015408237601528e-01
15688:-1.4439822354809264e+00
15689:-1.2238040564275534e+00
15690:-9.5847948511302128e-01
15691:-7.7441874152094703e-01
15692:-1.3879918210391224e+00
15693:-1.1698803609569202e+00
15694:-9.0907296144633210e-01
15695:-7.2949354281701595e-01
15696:-7.5504074011856814e-01
15697:-6.0102449146553372e-01
15698:-4.3210851907420045e-01
15699:-3.2672873838158539e-01
15700:-7.2872094272362431e-01
15701:-5.7535353410413670e-01
15702:-4.0976017387781588e-01
15703:-3.0738893695406461e-01
15704:-6.8416659863135021e-01
15705:-5.3442190538943390e-01
15706:-3.7507333519754216e-01
15707:-2.7750783461772149e-01
15708:-6.4187446597301911e-01
15709:-4.9723047302659740e-01
15710:-3.4444375649513925e-01
15711:-2.5151015370675844e-01
15712:-2.7886677938010190e-01
15713:-2.0210775967818953e-01
15714:-1.2462070553857588e-01
15715:-8.0380676445392429e-02
15716:-2.6089981199404100e-01
15717:-1.8638870624515610e-01
15718:-1.1161256168419621e-01
15719:-6.9590672268584369e-02
15720:-2.3329466544734814e-01
15721:-1.6297303517192760e-01
15722:-9.3795097383942927e-02
15723:-5.6302896698025913e-02
15724:-2.0955924401812609e-01
15725:-1.4351661072262925e-01
15726:-7.9991015129504975e-02
15727:-4.6796213652451360e-02
15728:-6.1518769499240927e-02
15729:-3.3893658540363060e-02
15730:-1.1398417491167224e-02
15731:-3.1217891186581218e-03
15732:-5.2045421644641938e-02
15733:-2.7047689376681294e-02
15734:-7.8701678241269550e-03
15735:-1.7016976905474298e-03
15736:-4.1265869942728357e-02
15737:-2.0558921527887655e-02
15738:-5.6157487886509642e-03
15739:-1.2653669217774159e-03
15740:-3.3986789524657814e-02
15741:-1.6826544493618496e-02
15742:-4.8949532282157740e-03
15743:-1.3684277550865844e-03
15744:1.3687619470719918e+00
15745:7.8819368865467754e-01
15746:1.6340861482837460e-01
15747:-2.2067780505331000e-01
15748:1.2259868365128559e+00
15749:7.1830621509007742e-01
15750:1.7258847753030529e-01
15751:-1.6168581486774433e-01
15752:1.0127624676469111e+00
15753:6.0492851056663155e-01
15754:1.6794677006032693e-01
15755:-9.7810205656619478e-02
15756:8.3261823811509827e-01
15757:5.0430570346970560e-01
15758:1.5415075398271616e-01
15759:-5.6947718067679294e-02
15760:-3.9466613057275512e-01
15761:-6.8438963396073182e-01
15762:-9.9929843416163489e-01
15763:-1.1965649780913243e+00
15764:-3.1238958916886128e-01
15765:-5.6141370878341090e-01
15766:-8.2856941139732332e-01
15767:-9.9339075742887939e-01
15768:-2.1660766374234672e-01
15769:-4.1056319561285398e-01
15770:-6.1424473675533531e-01
15771:-7.3656385610076935e-01
15772:-1.5040010940276760e-01
15773:-3.0108413780572207e-01
15774:-4.5564290350884479e-01
15775:-5.4547219675152880e-01
15776:-1.2877985495534805e+00
15777:-1.4448793509790361e+00
15778:-1.6284529953842157e+00
15779:-1.7562472572499979e+00
15780:-1.0687692526926886e+00
15781:-1.1977319403403526e+00
15782:-1.3469926088409996e+00
15783:-1.4497777829630785e+00
15784:-7.9130913957389293e-01
15785:-8.8356786386004571e-01
15786:-9.8787505568469558e-01
15787:-1.0578830045611516e+00
15788:-5.8452807806784768e-01
15789:-6.4881405481598631e-01
15790:-7.1878914373180613e-01
15791:-7.6379009577688528e-01
15792:-1.8208338438448963e+00
15793:-1.9386526316868053e+00
15794:-2.0895648937865547e+00
15795:-2.2059421789973448e+00
15796:-1.5013115432234729e+00
15797:-1.5945619730337552e+00
15798:-1.7140176383958772e+00
15799:-1.8074818749636015e+00
15800:-1.0923584718755486e+00
15801:-1.1538240172275784e+00
15802:-1.2325242482989101e+00
15803:-1.2956169287290755e+00
15804:-7.8529467946129872e-01
15805:-8.2276632088386781e-01
15806:-8.7051250153748527e-01
15807:-9.0991061335947221e-01
15808:-2.2689689539771183e+00
15809:-2.3900202233111467e+00
15810:-2.5580796581826557e+00
15811:-2.6986729855542211e+00
15812:-1.8589575396952573e+00
15813:-1.9601021202148452e+00
15814:-2.1049423784111858e+00
15815:-2.2291496055417923e+00
15816:-1.3313149885451252e+00
15817:-1.4037750511243470e+00
15818:-1.5123544072847199e+00
15819:-1.6090786722589012e+00
15820:-9.3292326490273580e-01
15821:-9.8132127850633677e-01
15822:-1.0577433520661483e+00
15823:-1.1290291956214962e+00
15824:-2.7786943401561599e+00
15825:-2.9344706829505096e+00
15826:-3.1420646997890018e+00
15827:-3.2994830170214482e+00
15828:-2.3007850161934065e+00
15829:-2.4422209477184502e+00
15830:-2.6347270596236525e+00
15831:-2.7839779782034437e+00
15832:-1.6660750882353996e+00
15833:-1.7812609362227010e+00
15834:-1.9434234578362275e+00
15835:-2.0735052050345697e+00
15836:-1.1721739382108922e+00
15837:-1.2617857220944382e+00
15838:-1.3928173812595470e+00
15839:-1.5018167672445084e+00
15840:-3.3816190352572746e+00
15841:-3.5348966725882986e+00
15842:-3.7288192840745586e+00
15843:-3.8682932589031451e+00
15844:-2.8631102728381466e+00
15845:-3.0129795075213575e+00
15846:-3.2071563391466702e+00
15847:-3.3507979546337179e+00
15848:-2.1441181088560626e+00
15849:-2.2805637081570889e+00
15850:-2.4631172420839587e+00
15851:-2.6032808161578851e+00
15852:-1.5624260474105176e+00
15853:-1.6819531984582328e+00
15854:-1.8470844360934784e+00
15855:-1.9784802207239707e+00
15856:-3.9378019196131611e+00
15857:-4.0526822155061213e+00
15858:-4.1700161604936463e+00
15859:-4.2342167193967137e+00
15860:-3.4240791438501863e+00
15861:-3.5495706568297449e+00
15862:-3.6870233267615178e+00
15863:-3.7707691562841967e+00
15864:-2.6769753110793126e+00
15865:-2.8089949651000112e+00
15866:-2.9655902924999538e+00
15867:-3.0713218741962907e+00
15868:-2.0494876247456104e+00
15869:-2.1815676793393375e+00
15870:-2.3478498741916112e+00
15871:-2.4677953323505424e+00
15872:-4.2590371657370181e+00
15873:-4.2868327683970753e+00
15874:-4.2857674286018952e+00
15875:-4.2560855711623065e+00
15876:-3.8072626830191831e+00
15877:-3.8588426719863076e+00
15878:-3.8918140292910826e+00
15879:-3.8899771331524140e+00
15880:-3.1218625143697354e+00
15881:-3.2032882356071806e+00
15882:-3.2807745274127291e+00
15883:-3.3163341980651668e+00
15884:-2.5281353207105015e+00
15885:-2.6314308515689753e+00
15886:-2.7430596421316307e+00
15887:-2.8081041788930685e+00
15888:-4.2299130257244402e+00
15889:-4.1609260730455047e+00
15890:-4.0344455675552142e+00
15891:-3.9118758172386898e+00
15892:-3.8791543675176934e+00
15893:-3.8402388724066157e+00
15894:-3.7539244734054842e+00
15895:-3.6613844070072283e+00
15896:-3.3263847736448571e+00
15897:-3.3289182524920844e+00
15898:-3.2991927558700773e+00
15899:-3.2500611954611074e+00
15900:-2.8348059396775929e+00
15901:-2.8705571153405449e+00
15902:-2.8865475573673907e+00
15903:-2.8728663206716432e+00
15904:-3.8382671297923179e+00
15905:-3.6870591354463684e+00
15906:-3.4627128150433437e+00
15907:-3.2683872681882682e+00
15908:-3.6030088900656527e+00
15909:-3.4773504562626094e+00
15910:-3.2811728445742148e+00
15911:-3.1054276197422856e+00
15912:-3.2141750510887368e+00
15913:-3.1272018878489405e+00
15914:-2.9752387823026751e+00
15915:-2.8295181353058889e+00
15916:-2.8555404367081691e+00
15917:-2.8012245729876173e+00
15918:-2.6878709761993878e+00
15919:-2.5691472360863594e+00
15920:-3.1566394165985630e+00
15921:-2.9359603968772254e+00
15922:-2.6325194858439547e+00
15923:-2.3926118214215024e+00
15924:-3.0027687099196831e+00
15925:-2.7976025667651974e+00
15926:-2.5117507714708629e+00
15927:-2.2836676073582405e+00
15928:-2.7417474338505659e+00
15929:-2.5625701741538447e+00
15930:-2.3072945763741788e+00
15931:-2.1005425471991908e+00
15932:-2.4949726661025617e+00
15933:-2.3399082180169413e+00
15934:-2.1136928881760784e+00
15935:-1.9276879616351830e+00
15936:-2.2634500419012520e+00
15937:-2.0202383248542768e+00
15938:-1.7060487672397620e+00
15939:-1.4718179007908110e+00
15940:-2.1602607840376193e+00
15941:-1.9259283659975930e+00
15942:-1.6203933503793506e+00
15943:-1.3914839793416749e+00
15944:-1.9878200383396356e+00
15945:-1.7713415980827221e+00
15946:-1.4854261082268905e+00
15947:-1.2694933353048701e+00
15948:-1.8255402140045269e+00
15949:-1.6275779585793808e+00
15950:-1.3633623257585554e+00
15951:-1.1623982728451177e+00
15952:-1.3507026390676695e+00
15953:-1.1348385854455385e+00
15954:-8.7816138612192529e-01
15955:-7.0222585639194390e-01
15956:-1.2730793741149433e+00
15957:-1.0633977418113907e+00
15958:-8.1644106573090103e-01
15959:-6.4856121964080005e-01
15960:-1.1575571305833396e+00
15961:-9.6043227041205570e-01
15962:-7.3044781438093842e-01
15963:-5.7561049857309177e-01
15964:-1.0579349736103028e+00
15965:-8.7433172321514463e-01
15966:-6.6111384759112202e-01
15967:-5.1847911656164869e-01
15968:-6.1658246686667295e-01
15969:-4.7544976464322680e-01
15970:-3.2682684259703271e-01
15971:-2.3676730619735853e-01
15972:-5.6721229314794419e-01
15973:-4.3360649650163302e-01
15974:-2.9373783459380820e-01
15975:-2.0962529085613821e-01
15976:-5.0106371073314326e-01
15977:-3.7915798468825901e-01
15978:-2.5245125699473558e-01
15979:-1.7693171525116028e-01
15980:-4.5017047539955574e-01
15981:-3.3876771764007713e-01
15982:-2.2340276987425706e-01
15983:-1.5489709864228191e-01
15984:-1.9624751552782538e-01
15985:-1.3287867930901257e-01
15986:-7.2741498659755169e-02
15987:-4.1963888584621786e-02
15988:-1.7203176035001844e-01
15989:-1.1388706564262209e-01
15990:-5.9925075319376395e-02
15991:-3.3249563879745939e-02
15992:-1.4342847507216697e-01
15993:-9.2182838645434473e-02
15994:-4.5667823634398384e-02
15995:-2.3458043478283279e-02
15996:-1.2458285697277495e-01
15997:-7.8486423896846666e-02
15998:-3.7148272259768404e-02
15999:-1.7780777094687575e-02
16000:-3.0340619387611061e-02
16001:-1.5015625599553772e-02
16002:-4.5513575151026010e-03
16003:-1.3260170561339188e-03
16004:-2.3543709951936668e-02
16005:-1.1177177425539057e-02
16006:-3.1930497922831626e-03
16007:-7.1746140571841369e-04
16008:-1.5682441168470364e-02
16009:-6.2068499640670132e-03
16010:-7.3077443563155048e-04
16011:6.5915493876143524e-04
16012:-1.1141008445234668e-02
16013:-3.2359791013428720e-03
16014:9.3305964211026836e-04
16015:1.5905983443964705e-03
16016:7.3184761497557971e-01
16017:4.4675737214763556e-01
16018:1.4383261173767695e-01
16019:-3.7581684390806142e-02
16020:5.3523723401508161e-01
16021:3.3207101303801373e-01
16022:1.1853930522297615e-01
16023:-6.9021294465346668e-03
16024:2.6834670986614412e-01
16025:1.7270951005526439e-01
16026:7.6190155766952330e-02
16027:2.3552625814665100e-02
16028:5.9716413073371472e-02
16029:4.6216043056290353e-02
16030:3.8784604285151257e-02
16031:4.1179964872406369e-02
16032:-1.1731542841308427e-01
16033:-2.4472842011377430e-01
16034:-3.7310394605272773e-01
16035:-4.4573736363090938e-01
16036:-6.0886296608771803e-02
16037:-1.4490412019382679e-01
16038:-2.2491053584851842e-01
16039:-2.6604135745284857e-01
16040:2.8140708417806796e-03
16041:-2.5700587503968628e-02
16042:-4.4667118307893418e-02
16043:-4.6506892784144042e-02
16044:4.5367406578715914e-02
16045:5.8092656401074465e-02
16046:8.3919453996009877e-02
16047:1.1061991068325436e-01
16048:-4.7651296951485617e-01
16049:-5.2602184517108996e-01
16050:-5.7784703702741602e-01
16051:-6.0963917061967687e-01
16052:-2.8171186534351650e-01
16053:-3.0425950121484940e-01
16054:-3.2286224931688223e-01
16055:-3.3032457286259370e-01
16056:-4.3445748528493741e-02
16057:-3.2546834975453381e-02
16058:-9.6940363084216524e-03
16059:1.3550811609041771e-02
16060:1.2722874349855423e-01
16061:1.6234024927553345e-01
16062:2.1541528695904122e-01
16063:2.6133940522976479e-01
16064:-6.2430466912388283e-01
16065:-6.4914811161589558e-01
16066:-6.8046058009481614e-01
16067:-7.0700684500324062e-01
16068:-3.3232050763908294e-01
16069:-3.3359256068947607e-01
16070:-3.3363334164188196e-01
16071:-3.3506767625079692e-01
16072:2.7714820366248206e-02
16073:5.6956367467341645e-02
16074:9.8743753397397577e-02
16075:1.3226490956965087e-01
16076:2.8758100731551012e-01
16077:3.4004756125589747e-01
16078:4.1484633631074697e-01
16079:4.7706208472768419e-01
16080:-7.2299673024410371e-01
16081:-7.5776998610683677e-01
16082:-8.1549438497014348e-01
16083:-8.7171585231744320e-01
16084:-3.3705790721984702e-01
16085:-3.4419167947570267e-01
16086:-3.6329631232763415e-01
16087:-3.8808253715935981e-01
16088:1.5030370091991799e-01
16089:1.8354018597514071e-01
16090:2.2197215392391637e-01
16091:2.4450352384398241e-01
16092:5.1194965260587355e-01
16093:5.7965749326880600e-01
16094:6.6786064613255602e-01
16095:7.3156543601848900e-01
16096:-9.0658459936385927e-01
16097:-9.8069734511194717e-01
16098:-1.0924010978418506e+00
16099:-1.1879156754590416e+00
16100:-4.0561245919433553e-01
16101:-4.4692724020351626e-01
16102:-5.1693355831597965e-01
16103:-5.8259802394140514e-01
16104:2.5316724869165447e-01
16105:2.6194296505257980e-01
16106:2.5696797253015069e-01
16107:2.3913737565592880e-01
16108:7.6306002012830632e-01
16109:8.1583023419730116e-01
16110:8.6881094526556946e-01
16111:8.9439368792622642e-01
16112:-1.2419641626025031e+00
16113:-1.3501748400252311e+00
16114:-1.5031714650575234e+00
16115:-1.6279387492178561e+00
16116:-6.2180044944794322e-01
16117:-7.0401125549988242e-01
16118:-8.2835400017363825e-01
16119:-9.3670321660209854e-01
16120:2.2425273126300824e-01
16121:1.8510325575983955e-01
16122:1.0906852866931493e-01
16123:2.9207183401783098e-02
16124:9.0188586459237430e-01
16125:9.0245796231056996e-01
16126:8.7106684468482753e-01
16127:8.1760267975955225e-01
16128:-1.6965821072447282e+00
16129:-1.8271404537341458e+00
16130:-1.9969574481046859e+00
16131:-2.1235582314985817e+00
16132:-9.9904247594756790e-01
16133:-1.1235490748176622e+00
16134:-1.2963540656585397e+00
16135:-1.4330202642846346e+00
16136:-2.1715844918521965e-02
16137:-1.3281764617458186e-01
16138:-3.0305318699933365e-01
16139:-4.4837892182596750e-01
16140:7.7734129883077319e-01
16141:6.7984503430553600e-01
16142:5.1563385837527598e-01
16143:3.6659663910417922e-01
16144:-2.1887559678170057e+00
16145:-2.3033043151451853e+00
16146:-2.4330889408184717e+00
16147:-2.5141197253125420e+00
16148:-1.5061748917865749e+00
16149:-1.6401059695134497e+00
16150:-1.8026611538762620e+00
16151:-1.9134825870870327e+00
16152:-5.2971350913206705e-01
16153:-6.8568588845019629e-01
16154:-8.8875109333448143e-01
16155:-1.0383733537054800e+00
16156:2.8046781636630375e-01
16157:1.0965143312176906e-01
16158:-1.2341794525205094e-01
16159:-3.0331802024322790e-01
16160:-2.5499220649690586e+00
16161:-2.6038200025353975e+00
16162:-2.6447782984586641e+00
16163:-2.6504839876506252e+00
16164:-1.9665259059274909e+00
16165:-2.0549507761419794e+00
16166:-2.1435601869039003e+00
16167:-2.1863287730399636e+00
16168:-1.1144459483450064e+00
16169:-1.2490616029453268e+00
16170:-1.4012581293234323e+00
16171:-1.4932748223575001e+00
16172:-3.9777632242911853e-01
16173:-5.6906915156215765e-01
16174:-7.7115883628478965e-01
16175:-9.0132987517314844e-01
16176:-2.6433388222819536e+00
16177:-2.6072068932761403e+00
16178:-2.5158519104507735e+00
16179:-2.4128282082758048e+00
16180:-2.1986884462931440e+00
16181:-2.1979974542542471e+00
16182:-2.1507135606677030e+00
16183:-2.0799777018552441e+00
16184:-1.5315267751955770e+00
16185:-1.5791229577246915e+00
16186:-1.5943706313404864e+00
16187:-1.5711683795573042e+00
16188:-9.5952113214474477e-01
16189:-1.0452933086737806e+00
16190:-1.1119607770682838e+00
16191:-1.1291749951372509e+00
16192:-2.3466511856426657e+00
16193:-2.2058977863973879e+00
16194:-1.9971460462695703e+00
16195:-1.8237483930696008e+00
16196:-2.0305129743188113e+00
16197:-1.9199867443603564e+00
16198:-1.7485284617059738e+00
16199:-1.6021861124647452e+00
16200:-1.5468381116575749e+00
16201:-1.4822120924618878e+00
16202:-1.3677728219669196e+00
16203:-1.2627509634499086e+00
16204:-1.1266048635054515e+00
16205:-1.1018544984301477e+00
16206:-1.0368626728558943e+00
16207:-9.6737837262698623e-01
16208:-1.7280779518940896e+00
16209:-1.5417057003336216e+00
16210:-1.2914739417673673e+00
16211:-1.1003546980956864e+00
16212:-1.5204296370263430e+00
16213:-1.3593103958726378e+00
16214:-1.1402747456580404e+00
16215:-9.7164563038499607e-01
16216:-1.2021792910455926e+00
16217:-1.0802507899642830e+00
16218:-9.1120418236054890e-01
16219:-7.7978204322840750e-01
16220:-9.2490262771309140e-01
16221:-8.3707072779519454e-01
16222:-7.1283734882815331e-01
16223:-6.1572600094033891e-01
16224:-1.0008278974749889e+00
16225:-8.2593231614655593e-01
16226:-6.2312825182943476e-01
16227:-4.8787337840003298e-01
16228:-8.8355137568871001e-01
16229:-7.2863625354855488e-01
16230:-5.4924120865140058e-01
16231:-4.3017506329741617e-01
16232:-7.1095309475695168e-01
16233:-5.8932875150954389e-01
16234:-4.4789387692780763e-01
16235:-3.5417769294871659e-01
16236:-5.6494086525717235e-01
16237:-4.7415884990082208e-01
16238:-3.6698730094883553e-01
16239:-2.9536556122471413e-01
16240:-4.2329309843033830e-01
16241:-3.1807148802013352e-01
16242:-2.0917736086119815e-01
16243:-1.4449950794041649e-01
16244:-3.7362713321796548e-01
16245:-2.8149535178464891e-01
16246:-1.8589820379774954e-01
16247:-1.2878386677823042e-01
16248:-3.0987999490114937e-01
16249:-2.3749648975881346e-01
16250:-1.6171822845272174e-01
16251:-1.1578533047607231e-01
16252:-2.6146431665358483e-01
16253:-2.0585897866471947e-01
16254:-1.4718195221179434e-01
16255:-1.1124155307673590e-01
16256:-1.1585839887859858e-01
16257:-7.2398675068313406e-02
16258:-3.3617139304014700e-02
16259:-1.5594054854523766e-02
16260:-1.0333929140937248e-01
16261:-6.4760865356928154e-02
16262:-3.0448350832834006e-02
16263:-1.4585028589769757e-02
16264:-9.5041685790369118e-02
16265:-6.3223228683789795e-02
16266:-3.4180052226898183e-02
16267:-2.0045860437664795e-02
16268:-9.4843396342978378e-02
16269:-6.8925080948624234e-02
16270:-4.3549849049188037e-02
16271:-2.9592053637822018e-02
16272:-9.4703728795558217e-03
16273:-2.2163512408024289e-03
16274:1.4733795032140984e-03
16275:1.8262442673506254e-03
16276:-9.2167476388374230e-03
16277:-2.7245566242905185e-03
16278:8.5406888123136732e-04
16279:1.4409827895769498e-03
16280:-1.4915011839143811e-02
16281:-8.0257219565452020e-03
16282:-2.6939549863950205e-03
16283:-1.2918384520631862e-04
16284:-2.3795751525599974e-02
16285:-1.5133115771717106e-02
16286:-6.7537032896756964e-03
16287:-1.4067673267267944e-03
