label=Stress xy
num_items=12448

0:-6.3540391398201768e-03
1:-1.1422565207761982e-02
2:7.1609614657180964e-03
3:2.3087246802124949e-02
4:-1.6799798840680241e-03
5:-1.6007888887373315e-03
6:-5.2792089753122420e-05
7:-2.5951931291338065e-03
8:-2.0538660323337322e-03
9:-1.1826815402548590e-03
10:-6.7757308696388624e-03
11:-1.1496366153286763e-02
12:-5.0984359569634973e-03
13:-8.3441127475436928e-04
14:-2.3826049317795528e-03
15:-2.4336164389955795e-03
16:2.7017785328015416e-02
17:2.5798973658825740e-02
18:1.5383667962786113e-02
19:7.5114249388777950e-03
20:-6.4669916553518440e-03
21:-1.3669836519967261e-02
22:-1.5219838033664623e-02
23:-4.2268968505560552e-03
24:-1.2850666010110603e-02
25:-1.3561063656102065e-02
26:-9.0334102830958423e-03
27:6.3903740458188846e-04
28:-2.4072764042097725e-04
29:5.9132381758804416e-03
30:1.3381991270700179e-02
31:1.5053890489548834e-02
32:5.1118824067260529e-03
33:-4.3056473383641112e-03
34:-5.0115305894260088e-02
35:-1.3158205634784945e-01
36:6.9995774932882305e-03
37:1.8343507705854474e-02
38:-2.5013465861243537e-02
39:-1.3562984071572134e-01
40:7.9743620911386977e-03
41:7.5884391282103197e-03
42:-6.2526204822680342e-02
43:-2.0551634385542902e-01
44:1.3072393452762307e-02
45:-9.0656599666831383e-03
46:-1.0676384499213169e-01
47:-2.6286857326901514e-01
48:-1.9726787999543363e-01
49:-3.5800851703936004e-01
50:-6.2686816925712008e-01
51:-8.6635909831419888e-01
52:-2.3014113674749817e-01
53:-4.4671571538526161e-01
54:-7.7753660502661182e-01
55:-1.0476806477431266e+00
56:-3.2098741872583864e-01
57:-5.5732630631161328e-01
58:-8.6087404443559201e-01
59:-1.0608791261071129e+00
60:-3.7972123529833463e-01
61:-5.9592281493491206e-01
62:-8.2149994125148340e-01
63:-9.1748108830589381e-01
64:-1.0018337456237296e+00
65:-1.2465672765944353e+00
66:-1.4727386713337036e+00
67:-1.5085249720982137e+00
68:-1.1913081428740606e+00
69:-1.4361063266096550e+00
70:-1.6130558245932796e+00
71:-1.5546057357420648e+00
72:-1.1494697950139483e+00
73:-1.2979923361163521e+00
74:-1.3712041126968195e+00
75:-1.2495255624361330e+00
76:-9.3563280750234490e-01
77:-9.6363376335244610e-01
78:-9.2991170970176595e-01
79:-7.8281258785536068e-01
80:-1.4600956453478313e+00
81:-1.2642455804936268e+00
82:-8.9327055474011186e-01
83:-5.9897702447579626e-01
84:-1.4324364530191485e+00
85:-1.0931473899320774e+00
86:-5.6067087165269724e-01
87:-1.8748181506611544e-01
88:-1.0989741498770076e+00
89:-7.1201072656038944e-01
90:-1.3392047216344152e-01
91:2.5535927988672880e-01
92:-6.4274607377930926e-01
93:-2.9622060598541528e-01
94:2.1090089947410970e-01
95:5.4762475306407721e-01
96:-4.6187677812981087e-01
97:-2.5275620261211240e-01
98:-6.8147834032457333e-02
99:1.0531473698189391e-02
100:-3.0888541568074801e-02
101:1.8423026858769534e-01
102:3.2408373442168126e-01
103:3.3183371630060787e-01
104:4.1217672168567582e-01
105:6.1346793846330694e-01
106:7.0535774378827099e-01
107:6.5101877719670564e-01
108:6.8164861169324131e-01
109:8.4877087817445640e-01
110:9.0425404748952976e-01
111:8.2093434781666619e-01
112:3.2186845086701749e-02
113:4.8831463789880118e-02
114:4.2476878529465058e-02
115:3.1490962130765326e-02
116:3.0539005783428735e-01
117:2.4230388462890623e-01
118:1.6288799068105600e-01
119:1.2371245459023697e-01
120:5.8312463106216106e-01
121:4.5055953821446421e-01
122:3.0566073707988156e-01
123:2.3919871122866734e-01
124:7.3549666621244969e-01
125:5.7340132218712325e-01
126:4.0000494203204873e-01
127:3.2085283540448845e-01
128:2.7796957111359911e-02
129:2.2991716810404624e-02
130:1.9146679345925809e-02
131:1.7415392314743525e-02
132:1.1511176680601101e-01
133:1.0374828236292301e-01
134:9.2714567412670035e-02
135:8.6256465685017103e-02
136:2.2445360703359948e-01
137:2.0383991578498845e-01
138:1.8267640608165642e-01
139:1.7032324032466362e-01
140:3.0267292420880820e-01
141:2.7602926966490526e-01
142:2.4744882977680105e-01
143:2.3060837159607794e-01
144:1.6732991776611493e-02
145:1.5750278013184585e-02
146:1.4811757256184787e-02
147:1.4132016430889781e-02
148:8.3230398933722138e-02
149:7.7768600706888374e-02
150:7.1009807824231747e-02
151:6.6129169859618961e-02
152:1.6485519293734344e-01
153:1.5481934752554014e-01
154:1.4180478163272758e-01
155:1.3189130694522688e-01
156:2.2337086614289448e-01
157:2.1027575917755889e-01
158:1.9327364986855189e-01
159:1.8003833209188960e-01
160:1.3713957186554129e-02
161:1.2765307224768810e-02
162:1.1396828048063629e-02
163:1.0430826798676440e-02
164:6.3645571414574789e-02
165:5.9303225670683371e-02
166:5.4241992209243459e-02
167:5.0789002801516915e-02
168:1.2667455120651505e-01
169:1.1776190148637662e-01
170:1.0782499201623440e-01
171:1.0133236367862974e-01
172:1.7291055262405464e-01
173:1.6069593085483752e-01
174:1.4714512516520331e-01
175:1.3842628434670501e-01
176:1.0002495996437990e-02
177:9.4091696330022255e-03
178:8.8943103978507982e-03
179:8.5514919020410612e-03
180:4.9089176495686518e-02
181:4.6143584701767014e-02
182:4.2691740585790325e-02
183:4.0265506016317183e-02
184:9.8201880729903337e-02
185:9.2596911935930434e-02
186:8.5695058095142176e-02
187:8.0670250043534064e-02
188:1.3428929502552422e-01
189:1.2684084280165817e-01
190:1.1754093709695761e-01
191:1.1066407610367027e-01
192:8.3420704194398943e-03
193:7.8664779597328455e-03
194:7.1750157079611245e-03
195:6.6770337785920283e-03
196:3.9026395181162708e-02
197:3.6792813171811017e-02
198:3.4081785678431155e-02
199:3.2180352146096915e-02
200:7.8080941959108696e-02
201:7.3537639657548254e-02
202:6.8220018371711308e-02
203:6.4572404724939428e-02
204:1.0708605348688804e-01
205:1.0083683805079882e-01
206:9.3590634694112954e-02
207:8.8665898892141631e-02
208:6.4494733652193017e-03
209:6.1106000950229581e-03
210:5.7801413689205459e-03
211:5.5548101208568240e-03
212:3.1236139938927751e-02
213:2.9595443826402106e-02
214:2.7666263535976347e-02
215:2.6307081240331268e-02
216:6.2764916296411705e-02
217:5.9550922135026482e-02
218:5.5657694567672854e-02
219:5.2871509716161960e-02
220:8.6237142148979234e-02
221:8.1892991276638377e-02
222:7.6581674170210168e-02
223:7.2752773104940910e-02
224:5.4271326312870863e-03
225:5.1629817336830662e-03
226:4.8016878806062119e-03
227:4.5414469624586173e-03
228:2.5612353971122857e-02
229:2.4357469191432005e-02
230:2.2825176477005493e-02
231:2.1739579552657359e-02
232:5.1449076071269077e-02
233:4.8921144428363567e-02
234:4.5891652409865445e-02
235:4.3761738730397438e-02
236:7.0792521577428116e-02
237:6.7320606865591520e-02
238:6.3180047589950231e-02
239:6.0277833659115321e-02
240:4.4175808788670026e-03
241:4.2170077046190073e-03
242:3.9979010833446505e-03
243:3.8442109968324953e-03
244:2.1195010604302792e-02
245:2.0234648702180429e-02
246:1.9084659819894070e-02
247:1.8266289704211448e-02
248:4.2689826005763945e-02
249:4.0777327792427140e-02
250:3.8457021298364480e-02
251:3.6797898704498934e-02
252:5.8817807494666370e-02
253:5.6205318893952042e-02
254:5.3023713948888621e-02
255:5.0743489184822708e-02
256:3.7618271479159518e-03
257:3.6037477089194193e-03
258:3.3994373629380064e-03
259:3.2523710231912011e-03
260:1.7847830088652018e-02
261:1.7093903978546026e-02
262:1.6172621675561518e-02
263:1.5514922185927349e-02
264:3.5951956025360908e-02
265:3.4438363488059981e-02
266:3.2601484845318850e-02
267:3.1291827010187220e-02
268:4.9580444223663110e-02
269:4.7501889097645751e-02
270:4.4982472480777434e-02
271:4.3186520861899995e-02
272:3.1797735197882839e-03
273:3.0548342804109616e-03
274:2.9082600055881582e-03
275:2.8033637296488740e-03
276:1.5181672476867828e-02
277:1.4585906332457118e-02
278:1.3860201161352829e-02
279:1.3338043319008766e-02
280:3.0626237537798754e-02
281:2.9430907171779822e-02
282:2.7968391802228799e-02
283:2.6915173635511651e-02
284:4.2273244525388221e-02
285:4.0631539753110013e-02
286:3.8620781620296474e-02
287:3.7172084521327871e-02
288:2.7485635374409753e-03
289:2.6471299488693536e-03
290:2.5194234225211953e-03
291:2.4268014728937039e-03
292:1.3070234829809296e-02
293:1.2586370780282753e-02
294:1.1990468691843515e-02
295:1.1559667755885678e-02
296:2.6375950309532364e-02
297:2.5403763893098362e-02
298:2.4208391984752019e-02
299:2.3343768897112250e-02
300:3.6430436455013746e-02
301:3.5093338239602506e-02
302:3.3448942409688764e-02
303:3.2258903135102608e-02
304:2.3797987873416930e-03
305:2.2957676739317010e-03
306:2.1927337580065482e-03
307:2.1174553445217873e-03
308:1.1338836610280085e-02
309:1.0938694767956947e-02
310:1.0441907839885758e-02
311:1.0078384466487096e-02
312:2.2899821393478421e-02
313:2.2094251951615618e-02
314:2.1092906265777655e-02
315:2.0360118441371269e-02
316:3.1647546609702981e-02
317:3.0537930730100735e-02
318:2.9158320281798412e-02
319:2.8148586385764264e-02
320:2.0782318102494368e-03
321:2.0059511453568422e-03
322:1.9144081436532632e-03
323:1.8465355150199382e-03
324:9.8900956109371548e-03
325:9.5456868033504429e-03
326:9.1124098541155857e-03
327:8.7914829213083887e-03
328:1.9980801793638040e-02
329:1.9287172936620918e-02
330:1.8414491524921774e-02
331:1.7767678715366785e-02
332:2.7625890345176415e-02
333:2.6669817169561443e-02
334:2.5466375840132314e-02
335:2.4573958955001130e-02
336:1.8112098674195254e-03
337:1.7461100092097306e-03
338:1.6629730715639491e-03
339:1.6002146888904976e-03
340:8.6239770708135214e-03
341:8.3142245932364758e-03
342:7.9174817325701197e-03
343:7.6179324740984931e-03
344:1.7429831136881398e-02
345:1.6804818564737079e-02
346:1.6003973396566954e-02
347:1.5399232252238781e-02
348:2.4107671162552025e-02
349:2.3244936117791107e-02
350:2.2139301431604759e-02
351:2.1304249536661535e-02
352:1.5669678751396186e-03
353:1.5045127693361947e-03
354:1.4226883980495604e-03
355:1.3595894372690736e-03
356:7.4594779139588721e-03
357:7.1623160924738699e-03
358:6.7735701950492741e-03
359:6.4738691134355736e-03
360:1.5079345194181045e-02
361:1.4479334334078872e-02
362:1.3694127390513428e-02
363:1.3088526337486523e-02
364:2.0862473231468150e-02
365:2.0033634826678005e-02
366:1.8948588915743584e-02
367:1.8111466918720655e-02
368:1.3257612780729073e-03
369:1.2613263630130666e-03
370:1.1750263000401555e-03
371:1.1069447709891878e-03
372:6.3131185954487211e-03
373:6.0067709502814757e-03
374:5.5963332255709623e-03
375:5.2725832493719337e-03
376:1.2763604466821581e-02
377:1.2144287106667881e-02
378:1.1314379942030477e-02
379:1.0659657406075733e-02
380:1.7662245329973875e-02
381:1.6805918794992606e-02
382:1.5658244561500861e-02
383:1.4752699413860201e-02
384:1.0698736289413056e-03
385:9.9810699093664666e-04
386:8.9979923836114425e-04
387:8.2066941650108817e-04
388:5.0963539849844470e-03
389:4.7552918852997571e-03
390:4.2882037161646553e-03
391:3.9122357712434754e-03
392:1.0303237808618639e-02
393:9.6133640890221170e-03
394:8.6684097925109199e-03
395:7.9076792078769265e-03
396:1.4259687436666972e-02
397:1.3305330097383916e-02
398:1.1997922932820372e-02
399:1.0945287487214466e-02
400:7.7704976748048816e-04
401:6.9148019363454521e-04
402:5.7204976628686234e-04
403:4.7426409137390742e-04
404:3.7049643625347035e-03
405:3.2983335751248493e-03
406:2.7308461294522565e-03
407:2.2663245645561034e-03
408:7.4882499134930440e-03
409:6.6653718030421230e-03
410:5.5169476717128289e-03
411:4.5768940001135548e-03
412:1.0364884287270532e-02
413:9.2261729577402685e-03
414:7.6369396486258029e-03
415:6.3360394230812236e-03
416:4.1979104146547529e-04
417:3.1189770898376259e-04
418:1.5950074235902695e-04
419:3.3548816355508520e-05
420:2.0076168079897613e-03
421:1.4951860777504666e-03
422:7.7082040539418011e-04
423:1.7126752207452644e-04
424:4.0533497792141372e-03
425:3.0163150620318006e-03
426:1.5502359936890205e-03
427:3.3660912247173634e-04
428:5.6115238738551456e-03
429:4.1764134356148579e-03
430:2.1476081287412668e-03
431:4.6820707434067175e-04
432:-6.9847293015706793e-03
433:2.2143033918592334e-03
434:5.1200969474289445e-03
435:6.1850049803101222e-03
436:-9.9458723633619045e-03
437:1.2530359045505465e-02
438:1.9739934688828092e-02
439:1.2349370379788541e-02
440:-1.4354822664729629e-02
441:2.0395344086614312e-02
442:2.5267250907956014e-02
443:-3.0228735985806884e-04
444:-1.9858296178200608e-02
445:8.8778838626476751e-03
446:7.4096433763751511e-03
447:-2.3647995603360443e-02
448:8.1563422363716866e-03
449:1.5528418416291738e-02
450:2.4525601910883633e-02
451:2.3588145122569418e-02
452:6.0453459004873216e-03
453:5.7975412327519842e-03
454:1.7483332747522388e-02
455:2.2569282622577683e-02
456:-2.1314866129190185e-02
457:-3.3550419701815382e-02
458:-6.2519472143928697e-03
459:3.0370652095908172e-02
460:-4.7635725335224852e-02
461:-5.3537765084674720e-02
462:6.8953566532969600e-03
463:8.6974456939696881e-02
464:1.7804857158020482e-02
465:-1.4455270454753571e-02
466:-1.2325930136989691e-01
467:-2.7919737936902983e-01
468:1.9482572954013181e-02
469:-1.0853054613550050e-02
470:-1.0988308149615310e-01
471:-2.3990250534910049e-01
472:4.8961221096808880e-02
473:5.7182710144003092e-02
474:1.7724583662102784e-02
475:-4.4837103667977760e-02
476:1.3396536686889743e-01
477:1.9181103194491034e-01
478:2.1739294872441747e-01
479:2.1457555784631141e-01
480:-3.9076317735414995e-01
481:-5.8533410572774514e-01
482:-7.5778625178830761e-01
483:-7.9222855167466910e-01
484:-3.2778639294071382e-01
485:-4.6563904071175227e-01
486:-5.4092250185982582e-01
487:-4.8225836601207928e-01
488:-8.5902644103041340e-02
489:-1.3561705725187423e-01
490:-1.0408667350124602e-01
491:2.6443040789783195e-02
492:2.1073371369058444e-01
493:2.2349589447303411e-01
494:3.1106893855056855e-01
495:4.5843563502417833e-01
496:-7.7052016440224380e-01
497:-7.2818799368705889e-01
498:-6.3136266097006399e-01
499:-4.7314291818388604e-01
500:-4.0483952853309985e-01
501:-2.6539064116579797e-01
502:-8.6791148841105739e-02
503:7.4682748073729016e-02
504:1.3779878983494262e-01
505:3.3261758427321020e-01
506:5.4358358948569785e-01
507:6.7690900337853555e-01
508:5.6853136181426855e-01
509:7.5623870784624070e-01
510:9.4199041140135786e-01
511:1.0344305434881578e+00
512:-3.4413995087160110e-01
513:-3.6348362559184923e-02
514:4.0420702230978961e-01
515:6.9245128493930042e-01
516:1.7812663565930728e-01
517:4.0887907650247218e-01
518:7.2344404718097488e-01
519:9.2007380850090736e-01
520:7.4104937767527645e-01
521:8.7329189434977472e-01
522:1.0395450659544403e+00
523:1.1295429876546748e+00
524:1.0668900736394522e+00
525:1.1309216585428663e+00
526:1.2035408023214194e+00
527:1.2277794970220850e+00
528:8.0592243948458464e-01
529:9.4533509939460691e-01
530:9.7961524764742147e-01
531:8.8593043426886198e-01
532:9.9382883406489042e-01
533:1.0796133760100686e+00
534:1.0757934234256499e+00
535:9.6897283191000272e-01
536:1.1557865067536324e+00
537:1.1763953855579117e+00
538:1.1289015395295914e+00
539:1.0145896648668480e+00
540:1.2241063252330793e+00
541:1.2025434204704994e+00
542:1.1274758971936742e+00
543:1.0126613742829405e+00
544:7.9545957058642269e-01
545:6.2503319928807677e-01
546:4.4359572362966054e-01
547:3.6079021620067231e-01
548:8.7453839761762320e-01
549:6.9790203556979091e-01
550:5.1048500113561834e-01
551:4.2498205541463896e-01
552:9.2303415963464930e-01
553:7.5225506485700411e-01
554:5.7071293974873083e-01
555:4.8803585345845302e-01
556:9.2735409153114134e-01
557:7.6824756438837849e-01
558:5.9851906286476819e-01
559:5.2152549945319249e-01
560:3.4153352089167976e-01
561:3.1253358674576942e-01
562:2.8045573413338470e-01
563:2.6123052482091086e-01
564:4.0490222462092895e-01
565:3.7341119874984446e-01
566:3.3673862447804437e-01
567:3.1386491357783025e-01
568:4.6875872843091837e-01
569:4.3728344472826780e-01
570:3.9826941587743825e-01
571:3.7234166000572610e-01
572:5.0394228542161046e-01
573:4.7449263108198991e-01
574:4.3610879447943185e-01
575:4.0906226897566633e-01
576:2.5299404844442169e-01
577:2.3828613582438740e-01
578:2.1938057415499140e-01
579:2.0461877739595380e-01
580:3.0390467411890459e-01
581:2.8640407480689450e-01
582:2.6432177474714136e-01
583:2.4713679157256713e-01
584:3.6051773146190386e-01
585:3.3994388712790269e-01
586:3.1455159080181017e-01
587:2.9509491042299080e-01
588:3.9612475491967120e-01
589:3.7367756367312382e-01
590:3.4643961696293513e-01
591:3.2595784699795188e-01
592:1.9660175421025863e-01
593:1.8279721681438302e-01
594:1.6742726737021907e-01
595:1.5755282128948908e-01
596:2.3774553629124812e-01
597:2.2144670955814313e-01
598:2.0313283197347312e-01
599:1.9131567939473895e-01
600:2.8450654981478429e-01
601:2.6595646505757103e-01
602:2.4477923833315668e-01
603:2.3089778061075591e-01
604:3.1492457506771027e-01
605:2.9543837186611099e-01
606:2.7282337296276893e-01
607:2.5771124136307461e-01
608:1.5289017488814621e-01
609:1.4449816485368663e-01
610:1.3399768447758878e-01
611:1.2619986279038900e-01
612:1.8574264884534072e-01
613:1.7572363085779644e-01
614:1.6317818204443010e-01
615:1.5382839815819277e-01
616:2.2429155133987616e-01
617:2.1244013407965878e-01
618:1.9765251433776626e-01
619:1.8664807634068095e-01
620:2.5042241418465211e-01
621:2.3737871682219810e-01
622:2.2120200948550453e-01
623:2.0922806715943243e-01
624:1.2212795523527809e-01
625:1.1501816220318842e-01
626:1.0678674562557341e-01
627:1.0120464539803907e-01
628:1.4892802007117623e-01
629:1.4036337897162146e-01
630:1.3044315441418813e-01
631:1.2371823308201206e-01
632:1.8087738938289538e-01
633:1.7075825209178977e-01
634:1.5897587705549551e-01
635:1.5094890374517647e-01
636:2.0296356820927064e-01
637:1.9193421318664955e-01
638:1.7899849325500197e-01
639:1.7011951640610667e-01
640:9.8455990728333734e-02
641:9.3532335604982475e-02
642:8.7496563891504994e-02
643:8.3134783484906910e-02
644:1.2040886395094505e-01
645:1.1447157278470940e-01
646:1.0717281269370087e-01
647:1.0188323328614381e-01
648:1.4698792612774342e-01
649:1.3987803882590474e-01
650:1.3113095759060447e-01
651:1.2478359765046849e-01
652:1.6571838967844427e-01
653:1.5782263474033567e-01
654:1.4812055078727954e-01
655:1.4108483017139400e-01
656:8.0898915726318618e-02
657:7.6941533515367949e-02
658:7.2227260447866690e-02
659:6.8925458511473067e-02
660:9.9167138362018722e-02
661:9.4360349212475866e-02
662:8.8635968689830757e-02
663:8.4626896523310471e-02
664:1.2152055024440976e-01
665:1.1573822099914452e-01
666:1.0883829551713044e-01
667:1.0399628892539441e-01
668:1.3746754190303234e-01
669:1.3104559264109028e-01
670:1.2335940521838278e-01
671:1.1795010544401062e-01
672:6.7264673234594174e-02
673:6.4290501098920774e-02
674:6.0664093039185359e-02
675:5.8062731493200542e-02
676:8.2609890231181163e-02
677:7.8994027070550699e-02
678:7.4578304894124536e-02
679:7.1406388120483527e-02
680:1.0155720517116035e-01
681:9.7181242354941980e-02
682:9.1830832772073337e-02
683:8.7982429819459113e-02
684:1.1522078137719863e-01
685:1.1032256320743178e-01
686:1.0433093999798033e-01
687:1.0001835228219988e-01
688:5.6735425022205979e-02
689:5.4363666420047363e-02
690:5.1489299507022551e-02
691:4.9440206921520270e-02
692:6.9786808311668877e-02
693:6.6892337834901242e-02
694:6.3383468212867972e-02
695:6.0880823884997957e-02
696:8.6015631920204172e-02
697:8.2498011832319557e-02
698:7.8228823356757710e-02
699:7.5180169347983425e-02
700:9.7812929398992207e-02
701:9.3865126374097677e-02
702:8.9067481869931853e-02
703:8.5636954561100473e-02
704:4.8398012525831959e-02
705:4.6524082319408008e-02
706:4.4228113454154797e-02
707:4.2573490971576339e-02
708:5.9607373191081649e-02
709:5.7316553336249916e-02
710:5.4507894389027672e-02
711:5.2482494003937535e-02
712:7.3627602547276461e-02
713:7.0832870029258296e-02
714:6.7403024004689310e-02
715:6.4927128318852362e-02
716:8.3888487874408627e-02
717:8.0739471872723206e-02
718:7.6871722248756838e-02
719:7.4077255045909604e-02
720:4.1726313804181223e-02
721:4.0198749694474026e-02
722:3.8319666762268015e-02
723:3.6959414771113558e-02
724:5.1445068660475095e-02
725:4.9573787940981322e-02
726:4.7270567828533193e-02
727:4.5602253180428515e-02
728:6.3658079504917142e-02
729:6.1367633474454827e-02
730:5.8545869527241237e-02
731:5.6499933117613525e-02
732:7.2644033943967817e-02
733:7.0055905491896525e-02
734:6.6864780737835028e-02
735:6.4549023232988639e-02
736:3.6260483828787632e-02
737:3.4991828930803867e-02
738:3.3414311530172477e-02
739:3.2259574757391392e-02
740:4.4744673301497777e-02
741:4.3187615286429358e-02
742:4.1250650621712869e-02
743:3.9832131309246580e-02
744:5.5447533701517102e-02
745:5.3535665533948888e-02
746:5.1155254267789420e-02
747:4.9410406158930470e-02
748:6.3357123852907649e-02
749:6.1190657915498770e-02
750:5.8491034667420547e-02
751:5.6510538357383608e-02
752:3.1661749610269137e-02
753:3.0568052781833204e-02
754:2.9191000517923518e-02
755:2.8169583575437480e-02
756:3.9097491047284515e-02
757:3.7752967520168990e-02
758:3.6059105015431858e-02
759:3.4801976239612564e-02
760:4.8506211144010068e-02
761:4.6850421328537117e-02
762:4.4762587305370638e-02
763:4.3211675928847823e-02
764:5.5483658440874224e-02
765:5.3602307791168965e-02
766:5.1228314502021741e-02
767:4.9463478437587603e-02
768:2.7635816279813000e-02
769:2.6648163920322814e-02
770:2.5382301703545485e-02
771:2.4426102033372411e-02
772:3.4144796590165567e-02
773:3.2928459419097021e-02
774:3.1368843172278268e-02
775:3.0190226361147997e-02
776:4.2400434083112531e-02
777:4.0898131628049485e-02
778:3.8970271386409877e-02
779:3.7512183988818282e-02
780:4.8539853318988371e-02
781:4.6828561849186157e-02
782:4.4630856988632596e-02
783:4.2967456805552140e-02
784:2.3920177525155916e-02
785:2.2970855744816710e-02
786:2.1727844123512308e-02
787:2.0768690709263130e-02
788:2.9566428168888877e-02
789:2.8395550870690310e-02
790:2.6861741999851953e-02
791:2.5677703807350620e-02
792:3.6740061777860183e-02
793:3.5290055839139182e-02
794:3.3389227934114203e-02
795:3.1920858286401406e-02
796:4.2086198120194492e-02
797:4.0430544658381050e-02
798:3.8258801969017979e-02
799:3.6580158653545823e-02
800:2.0253936233946879e-02
801:1.9272629998245805e-02
802:1.7957338437201546e-02
803:1.6919443816585507e-02
804:2.5042099271424759e-02
805:2.3830161135637486e-02
806:2.2205269826628248e-02
807:2.0922717051735380e-02
808:3.1132281471334958e-02
809:2.9628086941420877e-02
810:2.7610280869517046e-02
811:2.6016819889432375e-02
812:3.5678314429598110e-02
813:3.3957474911322567e-02
814:3.1647957990518859e-02
815:2.9823356222793140e-02
816:1.6354340882569658e-02
817:1.5260371106849767e-02
818:1.3761599477140948e-02
819:1.2554823958669730e-02
820:2.0224284456926912e-02
821:1.8872008946590167e-02
822:1.7019006046474491e-02
823:1.5526782167689712e-02
824:2.5148823295707626e-02
825:2.3467848404471602e-02
826:2.1163724489050760e-02
827:1.9307726200459306e-02
828:2.8829199809875420e-02
829:2.6903520743207301e-02
830:2.4263292794284620e-02
831:2.2136080940326184e-02
832:1.1889412668186687e-02
833:1.0583911845228845e-02
834:8.7618847807968917e-03
835:7.2704134448347479e-03
836:1.4703907611407835e-02
837:1.3089403442794779e-02
838:1.0836004578912149e-02
839:8.9913514255966099e-03
840:1.8284101506771511e-02
841:1.6275548323959801e-02
842:1.3471898062520428e-02
843:1.1176643603179234e-02
844:2.0962726937491467e-02
845:1.8660210036301556e-02
846:1.5445975099748679e-02
847:1.2814441019379799e-02
848:6.4397588521643533e-03
849:4.7944316962824701e-03
850:2.4685161720799831e-03
851:5.4324767166355438e-04
852:7.9639807206546009e-03
853:5.9290673905035016e-03
854:3.0525947868588832e-03
855:6.7177886463299459e-04
856:9.8982779521002359e-03
857:7.3663335340636354e-03
858:3.7875858572296831e-03
859:8.2578123598822965e-04
860:1.1348750804081554e-02
861:8.4459032915351114e-03
862:4.3431907339259853e-03
863:9.4798517070081160e-04
864:-2.3741628347492008e-02
865:-6.4460829013002251e-03
866:-1.1712448922650854e-02
867:-3.8118193709426151e-02
868:-1.7236499920836371e-02
869:-2.3089742983122965e-02
870:-2.1764176192904383e-02
871:-1.7026485344243145e-02
872:7.3610926684169131e-02
873:5.7329243349929906e-02
874:1.0295304277628589e-01
875:1.8263467244867621e-01
876:2.5550374018183469e-01
877:2.6502007265081573e-01
878:3.7749165164115911e-01
879:5.3076094280724828e-01
880:-5.7203354478358066e-02
881:-4.8915689271127258e-02
882:4.0305655349025721e-02
883:1.5065754127715131e-01
884:-1.1549825882089276e-02
885:4.6312271973160540e-02
886:2.0775132475766864e-01
887:3.8204218760792263e-01
888:2.3973287771689133e-01
889:3.8470588593567723e-01
890:6.4281471460635520e-01
891:8.8625077792052576e-01
892:6.3229454673112206e-01
893:8.4007414429914395e-01
894:1.1437525526909387e+00
895:1.4037969139276785e+00
896:2.1625971311505512e-01
897:3.0524834175303939e-01
898:3.6711089161607419e-01
899:3.9331769743679185e-01
900:4.8458397842167683e-01
901:6.3210782741653926e-01
902:7.5294085648558073e-01
903:8.1781498269795705e-01
904:1.0253152336667291e+00
905:1.2259608480488686e+00
906:1.3881253491938599e+00
907:1.4685838055780711e+00
908:1.5479359657334060e+00
909:1.7507253405275429e+00
910:1.9022109881787594e+00
911:1.9655490321074904e+00
912:4.0629744417622743e-01
913:4.4529065784250715e-01
914:5.4984017016337416e-01
915:6.9231357747959033e-01
916:8.5056026176638133e-01
917:9.1470116621071584e-01
918:1.0174415174670701e+00
919:1.1237199828467748e+00
920:1.5051589107891221e+00
921:1.5606351871933677e+00
922:1.6094472791736811e+00
923:1.6325057341834099e+00
924:1.9901040572897533e+00
925:2.0140395789534411e+00
926:1.9970815369467569e+00
927:1.9450053804080658e+00
928:7.9278477501880906e-01
929:9.6082819236093719e-01
930:1.1178059444637789e+00
931:1.1833819558331871e+00
932:1.1916968267232595e+00
933:1.3002038506774620e+00
934:1.3843907905256139e+00
935:1.3944215766617085e+00
936:1.6407465754459813e+00
937:1.6452285645813005e+00
938:1.6140509609609186e+00
939:1.5479636018660095e+00
940:1.9041770192947181e+00
941:1.8246124495229119e+00
942:1.7032902627051012e+00
943:1.5815074555215261e+00
944:1.1992629719723036e+00
945:1.2309700235689016e+00
946:1.2625591970790104e+00
947:1.2588702993650305e+00
948:1.3798581780161077e+00
949:1.3549987430143413e+00
950:1.3184619676923630e+00
951:1.2706686634622164e+00
952:1.4961395801059356e+00
953:1.4063187195995239e+00
954:1.2980829069326287e+00
955:1.2085973319952432e+00
956:1.5042084865100467e+00
957:1.3730592203734837e+00
958:1.2246791586496202e+00
959:1.1162131578802104e+00
960:1.2423966716518950e+00
961:1.2022880670728660e+00
962:1.1151317659525184e+00
963:1.0014288520718069e+00
964:1.2346931191274306e+00
965:1.1669086387822096e+00
966:1.0642429029949856e+00
967:9.5725227017211778e-01
968:1.1558993896249825e+00
969:1.0655544825409118e+00
970:9.5537515244052429e-01
971:8.6421785948197305e-01
972:1.0576504190722091e+00
973:9.6021073728069395e-01
974:8.5235160352333861e-01
975:7.7637824148325618e-01
976:9.2033083718752551e-01
977:7.6907051728381415e-01
978:6.0740467225219374e-01
979:5.3434555166578646e-01
980:8.8641985396471779e-01
981:7.5397839394587496e-01
982:6.1172575988494693e-01
983:5.4822297566722866e-01
984:8.0996639197491882e-01
985:7.0758561602954639e-01
986:5.9638775987758585e-01
987:5.4804684211417487e-01
988:7.3567571442926105e-01
989:6.5782126632039695e-01
990:5.7196617393970572e-01
991:5.3567986833754266e-01
992:5.1796094849551599e-01
993:4.9017829327019669e-01
994:4.5287882206862407e-01
995:4.2563734043090973e-01
996:5.3480439693990123e-01
997:5.1131940802984410e-01
998:4.7729489445837303e-01
999:4.5033502938504688e-01
1000:5.3923932982015943e-01
1001:5.2271673057655565e-01
1002:4.9482166788041998e-01
1003:4.6959926785195144e-01
1004:5.3030020831733182e-01
1005:5.1923225289997954e-01
1006:4.9693039196703731e-01
1007:4.7420120422765338e-01
1008:4.1222144738872168e-01
1009:3.8895892635926016e-01
1010:3.6100003932241559e-01
1011:3.4023889268346197e-01
1012:4.3624549605474178e-01
1013:4.1184722129888524e-01
1014:3.8310408835775744e-01
1015:3.6235327773944470e-01
1016:4.5530371501510214e-01
1017:4.3053450883044508e-01
1018:4.0202780331296717e-01
1019:3.8221615694968186e-01
1020:4.6048319754369843e-01
1021:4.3659200870347598e-01
1022:4.0935558693317320e-01
1023:3.9085187781680764e-01
1024:3.2914228653331962e-01
1025:3.0944578913501353e-01
1026:2.8633824439187144e-01
1027:2.7069429706951698e-01
1028:3.5146620303188014e-01
1029:3.3192781675059235e-01
1030:3.0844547885458989e-01
1031:2.9207919630376306e-01
1032:3.7210754463967421e-01
1033:3.5365909131048401e-01
1034:3.3066328739937156e-01
1035:3.1393877033276324e-01
1036:3.8159585342187635e-01
1037:3.6446918269031281e-01
1038:3.4249061024872307e-01
1039:3.2597170050338470e-01
1040:2.6307870158183100e-01
1041:2.4947323908383467e-01
1042:2.3267548077088673e-01
1043:2.2029636959317772e-01
1044:2.8394680175532028e-01
1045:2.6946607417591706e-01
1046:2.5176219256370552e-01
1047:2.3885078793723039e-01
1048:3.0538207779169146e-01
1049:2.9019801179187538e-01
1050:2.7186383656040836e-01
1051:2.5868493310392154e-01
1052:3.1733331284505212e-01
1053:3.0202086706965775e-01
1054:2.8366075885722308e-01
1055:2.7058190092795020e-01
1056:2.1383432815925640e-01
1057:2.0242640083753485e-01
1058:1.8897893417365211e-01
1059:1.7969950122723186e-01
1060:2.3215008153393851e-01
1061:2.2025334874696934e-01
1062:2.0607395954232940e-01
1063:1.9617198147980702e-01
1064:2.5190477149230805e-01
1065:2.3976662625952710e-01
1066:2.2506255843644488e-01
1067:2.1461157036274361e-01
1068:2.6389180725276618e-01
1069:2.5183268891189936e-01
1070:2.3703316278396708e-01
1071:2.2636744835124425e-01
1072:1.7508493493471514e-01
1073:1.6681088300701502e-01
1074:1.5665659014012634e-01
1075:1.4929975034396906e-01
1076:1.9121075318062811e-01
1077:1.8232496200271509e-01
1078:1.7145061906186079e-01
1079:1.6359111227631190e-01
1080:2.0931643262786709e-01
1081:1.9984424760813146e-01
1082:1.8829534189141589e-01
1083:1.7997684622469107e-01
1084:2.2091630243750204e-01
1085:2.1117076103474747e-01
1086:1.9931573733999400e-01
1087:1.9079459987522707e-01
1088:1.4551829842686545e-01
1089:1.3879649541594669e-01
1090:1.3073468748939668e-01
1091:1.2504969517944625e-01
1092:1.5955509979510812e-01
1093:1.5236188947140741e-01
1094:1.4369566017594282e-01
1095:1.3755718686769619e-01
1096:1.7571142933476039e-01
1097:1.6807950488285686e-01
1098:1.5882211009779565e-01
1099:1.5222039022735157e-01
1100:1.8642874405112583e-01
1101:1.7859064805150268e-01
1102:1.6902840635590216e-01
1103:1.6217042371952270e-01
1104:1.2217801709246964e-01
1105:1.1702384737059443e-01
1106:1.1071853696280867e-01
1107:1.0617897972752303e-01
1108:1.3444837589139308e-01
1109:1.2886758123423803e-01
1110:1.2203956156928156e-01
1111:1.1712154384752124e-01
1112:1.4886354302350591e-01
1113:1.4283570775721519e-01
1114:1.3545951443099852e-01
1115:1.3014345636482355e-01
1116:1.5867155503648131e-01
1117:1.5238691592289477e-01
1118:1.4469487674675610e-01
1119:1.3914795107417507e-01
1120:1.0385678398208777e-01
1121:9.9697672323188533e-02
1122:9.4638932946955093e-02
1123:9.1018716747833683e-02
1124:1.1460436066991912e-01
1125:1.1009066508401864e-01
1126:1.0459046493662469e-01
1127:1.0064724988869808e-01
1128:1.2742040528840209e-01
1129:1.2252841913092261e-01
1130:1.1654981477314892e-01
1131:1.1225153117535815e-01
1132:1.3630458797890607e-01
1133:1.3118775139794500e-01
1134:1.2491775881577798e-01
1135:1.2039850379080630e-01
1136:8.9172641335476560e-02
1137:8.5846862272794353e-02
1138:8.1760178716011073e-02
1139:7.8806051333108418e-02
1140:9.8634288190411104e-02
1141:9.5005736612921887e-02
1142:9.0542956494818597e-02
1143:8.7313577991444832e-02
1144:1.1005361719682014e-01
1145:1.0608842719379612e-01
1146:1.0120535803878032e-01
1147:9.7666451946939917e-02
1148:1.1808411405345015e-01
1149:1.1390604861981750e-01
1150:1.0875554302594635e-01
1151:1.0501814417298323e-01
1152:7.7290402922584475e-02
1153:7.4552577128045971e-02
1154:7.1175261445105012e-02
1155:6.8723151796096213e-02
1156:8.5655437755439531e-02
1157:8.2658145514136375e-02
1158:7.8956878663829527e-02
1159:7.6266677813595155e-02
1160:9.5847290571841659e-02
1161:9.2555222359886086e-02
1162:8.8483058603751080e-02
1163:8.5518276809447541e-02
1164:1.0309508598268186e-01
1165:9.9611363595292574e-02
1166:9.5295365509436097e-02
1167:9.2148196960986237e-02
1168:6.7460639353741025e-02
1169:6.5165091748782239e-02
1170:6.2303233164495604e-02
1171:6.0202678798737023e-02
1172:7.4880592785411856e-02
1173:7.2358712275211026e-02
1174:6.9211498103460403e-02
1175:6.6899053204730788e-02
1176:8.3989054732963794e-02
1177:8.1204124211691153e-02
1178:7.7723495331574660e-02
1179:7.5162034630523886e-02
1180:9.0523311951036828e-02
1181:8.7561861063371271e-02
1182:8.3856091877958200e-02
1183:8.1125342160955308e-02
1184:5.9113195064463622e-02
1185:5.7116609331210579e-02
1186:5.4596157760639002e-02
1187:5.2721622925306466e-02
1188:6.5698817044976154e-02
1189:6.3497949875352899e-02
1190:6.0717093202348901e-02
1191:5.8646950321793401e-02
1192:7.3831109620485710e-02
1193:7.1388267866366165e-02
1194:6.8297247276716350e-02
1195:6.5992882508924711e-02
1196:7.9705147178755209e-02
1197:7.7096221548615049e-02
1198:7.3790819095129273e-02
1199:7.1323482888921833e-02
1200:5.1740291480432632e-02
1201:4.9921541630177875e-02
1202:4.7584810508472068e-02
1203:4.5815430886031308e-02
1204:5.7562531298974463e-02
1205:5.5551469368436558e-02
1206:5.2965252156304723e-02
1207:5.1005171840967020e-02
1208:6.4784614034282206e-02
1209:6.2541798980218527e-02
1210:5.9653545212329739e-02
1211:5.7461537543452977e-02
1212:7.0028682876283124e-02
1213:6.7623370995397877e-02
1214:6.4522229735280379e-02
1215:6.2165903584541694e-02
1216:4.4877771354803905e-02
1217:4.3115737857484814e-02
1218:4.0803654151138909e-02
1219:3.9015931985288466e-02
1220:4.9965843291099696e-02
1221:4.8011741323842505e-02
1222:4.5445701619871770e-02
1223:4.3460181210741002e-02
1224:5.6298189916599448e-02
1225:5.4109152616740715e-02
1226:5.1231276085181576e-02
1227:4.9002010322214282e-02
1228:6.0914393263585748e-02
1229:5.8557819163683258e-02
1230:5.5456583333413051e-02
1231:5.3052023533720113e-02
1232:3.8055277773509109e-02
1233:3.6221861849764232e-02
1234:3.3760594063808609e-02
1235:3.1815632818559307e-02
1236:4.2392746207351110e-02
1237:4.0354687017589055e-02
1238:3.7617116022114677e-02
1239:3.5452685492442883e-02
1240:4.7802703383890956e-02
1241:4.5511426475500105e-02
1242:4.2431055847592825e-02
1243:3.9993679098542088e-02
1244:5.1757645305585083e-02
1245:4.9283428770308280e-02
1246:4.5954679774996267e-02
1247:4.3319018659468023e-02
1248:3.0755745002327622e-02
1249:2.8702517444076394e-02
1250:2.5887002964392759e-02
1251:2.3618277258079315e-02
1252:3.4272833759363928e-02
1253:3.1986655853601990e-02
1254:2.8850707838142090e-02
1255:2.6323085413751852e-02
1256:3.8664415562494302e-02
1257:3.6087765895974518e-02
1258:3.2551659911581640e-02
1259:2.9700317970025047e-02
1260:4.1881042836447967e-02
1261:3.9092783122284640e-02
1262:3.5264694469028877e-02
1263:3.2176827186454648e-02
1264:2.2366775623190838e-02
1265:1.9910811181744884e-02
1266:1.6482224290405148e-02
1267:1.3675114484312386e-02
1268:2.4928552645930826e-02
1269:2.2191667042990897e-02
1270:1.8370549152461793e-02
1271:1.5241852572213310e-02
1272:2.8126817174794493e-02
1273:2.5038289776000002e-02
1274:2.0725608720722769e-02
1275:1.7194065809255043e-02
1276:3.0472467007359769e-02
1277:2.7126723011291692e-02
1278:2.2454323814490099e-02
1279:1.8627894354736729e-02
1280:1.2111617151767630e-02
1281:9.0151282054640909e-03
1282:4.6389002075633966e-03
1283:1.0174813741922019e-03
1284:1.3499195594707403e-02
1285:1.0048021561689708e-02
1286:5.1708763003023486e-03
1287:1.1352401891769038e-03
1288:1.5226950568491658e-02
1289:1.1331476686430633e-02
1290:5.8270387584661246e-03
1291:1.2728583533769158e-03
1292:1.6496455422972876e-02
1293:1.2275788604774908e-02
1294:6.3124143696327651e-03
1295:1.3790272114764177e-03
1296:4.0648149936057243e-01
1297:4.4574653841838663e-01
1298:6.0551118791279335e-01
1299:7.9989323678825164e-01
1300:7.8358090618089182e-01
1301:8.8621195510921436e-01
1302:1.1269110737173136e+00
1303:1.3822070483024202e+00
1304:1.4064275409115621e+00
1305:1.6077868758209386e+00
1306:1.9249068663941395e+00
1307:2.2060124380459909e+00
1308:1.9373863589156610e+00
1309:2.2330555226757727e+00
1310:2.5793176648158345e+00
1311:2.8219016225076459e+00
1312:9.2360593761076459e-01
1313:1.1572160193345478e+00
1314:1.4667218124628298e+00
1315:1.7159039315806925e+00
1316:1.5365083161685895e+00
1317:1.7983503747891809e+00
1318:2.0911899190629555e+00
1319:2.2951116206313977e+00
1320:2.3641068074849603e+00
1321:2.6068972168821221e+00
1322:2.8266205157887305e+00
1323:2.9421811833598661e+00
1324:2.9427296781449503e+00
1325:3.1130769499869864e+00
1326:3.2373871822038320e+00
1327:3.2777673873474442e+00
1328:1.8508706495748437e+00
1329:2.0356446197049536e+00
1330:2.1626777069220577e+00
1331:2.2063085008918981e+00
1332:2.3979702185736840e+00
1333:2.5261359318743111e+00
1334:2.5870857188836895e+00
1335:2.5833377296036302e+00
1336:2.9895038828318432e+00
1337:3.0256486165076604e+00
1338:2.9875888206433792e+00
1339:2.9161091605915721e+00
1340:3.2847687790598932e+00
1341:3.2581456258344481e+00
1342:3.1562011841503157e+00
1343:3.0400146570313868e+00
1344:2.2198768614954845e+00
1345:2.2204231202049480e+00
1346:2.1643493341809479e+00
1347:2.0730703495876321e+00
1348:2.5718770726567124e+00
1349:2.5222768505468403e+00
1350:2.3908083381884424e+00
1351:2.2311693364510425e+00
1352:2.8689486848089047e+00
1353:2.7495994859866943e+00
1354:2.5216883712109226e+00
1355:2.2842891671334269e+00
1356:2.9677218873960292e+00
1357:2.7982077501563620e+00
1358:2.5028906094345191e+00
1359:2.2157658523293748e+00
1360:2.0079194460901344e+00
1361:1.8867769311198612e+00
1362:1.7209253783994398e+00
1363:1.5719572460430744e+00
1364:2.1257809856940271e+00
1365:1.9358339885542846e+00
1366:1.6956642532726554e+00
1367:1.5009385916818248e+00
1368:2.1367112502929686e+00
1369:1.8753482827963806e+00
1370:1.5587705202926359e+00
1371:1.3180382501913412e+00
1372:2.0435036462535008e+00
1373:1.7417616186071398e+00
1374:1.3847239244024321e+00
1375:1.1225345116107042e+00
1376:1.4824773949062751e+00
1377:1.3326782176717209e+00
1378:1.1684957313938951e+00
1379:1.0547205002630191e+00
1380:1.3909231342233219e+00
1381:1.2110861781961353e+00
1382:1.0255251047355203e+00
1383:9.0982216098996749e-01
1384:1.1879763729260748e+00
1385:9.8119371823217416e-01
1386:7.8387656029972230e-01
1387:6.7897199879422754e-01
1388:9.8445693082342789e-01
1389:7.6912250373432611e-01
1390:5.7557267958697444e-01
1391:4.8706109946271792e-01
1392:9.9559868685089803e-01
1393:8.9806011400778829e-01
1394:7.9404962339835361e-01
1395:7.2672755199433359e-01
1396:8.5452400318500710e-01
1397:7.6513834658073299e-01
1398:6.7643387736638327e-01
1399:6.2863678415781565e-01
1400:6.3622844617608909e-01
1401:5.7039834897734876e-01
1402:5.1368022934487045e-01
1403:4.9511376977504457e-01
1404:4.5785606551815650e-01
1405:4.1644632779499419e-01
1406:3.8913573671360624e-01
1407:3.9276742043215113e-01
1408:6.9314433500619976e-01
1409:6.2817227458003710e-01
1410:5.5557912818523658e-01
1411:5.2539343616879342e-01
1412:6.0900330734445707e-01
1413:5.6867315495978654e-01
1414:5.2074764380083460e-01
1415:5.0127682330870282e-01
1416:4.9344378557484675e-01
1417:4.8416563984568262e-01
1418:4.6673285921692265e-01
1419:4.5995283342957194e-01
1420:4.0314812206610839e-01
1421:4.1464982043628007e-01
1422:4.1793486473578451e-01
1423:4.1999166698656659e-01
1424:5.2159906966697056e-01
1425:5.1319107367912153e-01
1426:4.9400141039329104e-01
1427:4.7302465656219872e-01
1428:4.9991546535059567e-01
1429:4.9573844130387462e-01
1430:4.8211119778100325e-01
1431:4.6485555289043645e-01
1432:4.6114837740358294e-01
1433:4.6164981469510297e-01
1434:4.5506757048537116e-01
1435:4.4340468355254803e-01
1436:4.2308395257305603e-01
1437:4.2716014424038207e-01
1438:4.2620910395402850e-01
1439:4.1936862476491604e-01
1440:4.5993195630317546e-01
1441:4.3700239273073394e-01
1442:4.1085861589852873e-01
1443:3.9322125875513980e-01
1444:4.5339368632350358e-01
1445:4.3301665096838271e-01
1446:4.0956498407218023e-01
1447:3.9378635126035028e-01
1448:4.3480195167406943e-01
1449:4.1896134629984855e-01
1450:4.0007785416237968e-01
1451:3.8712069730218218e-01
1452:4.1339700039021027e-01
1453:4.0175844803543970e-01
1454:3.8702547024257034e-01
1455:3.7648878292167659e-01
1456:3.8446970518106288e-01
1457:3.6816014221137777e-01
1458:3.4691784562776490e-01
1459:3.3068611041789520e-01
1460:3.8602433163396366e-01
1461:3.7137430515166142e-01
1462:3.5179714904171233e-01
1463:3.3640138609538922e-01
1464:3.8072927716484711e-01
1465:3.6848429494036988e-01
1466:3.5161772163578486e-01
1467:3.3787599881782060e-01
1468:3.7120904628545071e-01
1469:3.6099261705696351e-01
1470:3.4661034260441881e-01
1471:3.3455812474059654e-01
1472:3.2210491560877613e-01
1473:3.0688988726295235e-01
1474:2.8868588226490688e-01
1475:2.7576051841690652e-01
1476:3.2810592069195993e-01
1477:3.1336089913354603e-01
1478:2.9572931014173853e-01
1479:2.8324756484636970e-01
1480:3.3029117626489968e-01
1481:3.1669805786768424e-01
1482:3.0032659748615764e-01
1483:2.8870078422917644e-01
1484:3.2776965874384167e-01
1485:3.1545666639515491e-01
1486:3.0042047469007865e-01
1487:2.8964198217217929e-01
1488:2.6916345506529543e-01
1489:2.5722782778750070e-01
1490:2.4247941978626927e-01
1491:2.3177385696823452e-01
1492:2.7689334515170277e-01
1493:2.6532431820848507e-01
1494:2.5085950580971800e-01
1495:2.4022443440298186e-01
1496:2.8278256779550376e-01
1497:2.7193605851242786e-01
1498:2.5819717166225231e-01
1499:2.4793922933492146e-01
1500:2.8413738440381686e-01
1501:2.7401443207775461e-01
1502:2.6109293486468371e-01
1503:2.5134192563278407e-01
1504:2.2627778831210843e-01
1505:2.1645295999618969e-01
1506:2.0451146961617514e-01
1507:1.9593440581990676e-01
1508:2.3471911671279094e-01
1509:2.2487066302280101e-01
1510:2.1290383705029495e-01
1511:2.0431255968220452e-01
1512:2.4257168687761824e-01
1513:2.3293942354632960e-01
1514:2.2120268616350089e-01
1515:2.1276188336812812e-01
1516:2.4619703240574980e-01
1517:2.3692166341207554e-01
1518:2.2555949904674097e-01
1519:2.1735638940937727e-01
1520:1.9154068414985823e-01
1521:1.8363740894865146e-01
1522:1.7396472668502830e-01
1523:1.6700563135725049e-01
1524:1.9991183059590845e-01
1525:1.9196929149952308e-01
1526:1.8219218258270128e-01
1527:1.7511575335493643e-01
1528:2.0843491553622381e-01
1529:2.0059598474037041e-01
1530:1.9088016858920914e-01
1531:1.8379379092708859e-01
1532:2.1314432157795821e-01
1533:2.0549580514252999e-01
1534:1.9597331265572615e-01
1535:1.8898893522940816e-01
1536:1.6344857323840384e-01
1537:1.5705819859846670e-01
1538:1.4923540253992348e-01
1539:1.4359204420404778e-01
1540:1.7148518616019165e-01
1541:1.6495804849594473e-01
1542:1.5696190734368323e-01
1543:1.5118811874744639e-01
1544:1.8013905432413027e-01
1545:1.7355642437808577e-01
1546:1.6547520337804433e-01
1547:1.5962836196008878e-01
1548:1.8537179061223058e-01
1549:1.7884219951786107e-01
1550:1.7080349620812404e-01
1551:1.6497313622985038e-01
1552:1.4069797996133432e-01
1553:1.3548467309775922e-01
1554:1.2908648887946494e-01
1555:1.2446790746136789e-01
1556:1.4822469145065006e-01
1557:1.4287646808441704e-01
1558:1.3629297854963973e-01
1559:1.3152623070056282e-01
1560:1.5662347644313715e-01
1561:1.5118768595652318e-01
1562:1.4447007559553254e-01
1563:1.3958569418132902e-01
1564:1.6197251483521879e-01
1565:1.5653510241678537e-01
1566:1.4979568238927352e-01
1567:1.4487912191605617e-01
1568:1.2210054558836640e-01
1569:1.1782529278208946e-01
1570:1.1255201350492629e-01
1571:1.0872288687976095e-01
1572:1.2907830422964806e-01
1573:1.2465387391968556e-01
1574:1.1918996130585757e-01
1575:1.1521692398402626e-01
1576:1.3707032646312500e-01
1577:1.3251740120212677e-01
1578:1.2688333223801049e-01
1579:1.2277784390516283e-01
1580:1.4234128130899917e-01
1581:1.3774102290397014e-01
1582:1.3203681521320090e-01
1583:1.2787183706277414e-01
1584:1.0675156738786161e-01
1585:1.0317819773641412e-01
1586:9.8746978873638258e-02
1587:9.5512807365195629e-02
1588:1.1316940971588355e-01
1589:1.0945337785787608e-01
1590:1.0483652158851646e-01
1591:1.0146041525083935e-01
1592:1.2065895529436994e-01
1593:1.1680685296305940e-01
1594:1.1200809276395506e-01
1595:1.0848917109826332e-01
1596:1.2571941316991325e-01
1597:1.2180093340841815e-01
1598:1.1690873394259318e-01
1599:1.1331292072129046e-01
1600:9.3842031663047262e-02
1601:9.0795615166370358e-02
1602:8.6980932233142322e-02
1603:8.4167850404098923e-02
1604:9.9714166117785219e-02
1605:9.6527249172015633e-02
1606:9.2531096036031574e-02
1607:8.9579835459042953e-02
1608:1.0666568609760568e-01
1609:1.0333321651947741e-01
1610:9.9145872192598419e-02
1611:9.6046727874418161e-02
1612:1.1144665231864025e-01
1613:1.0803179880490613e-01
1614:1.0373306237047580e-01
1615:1.0054550163044651e-01
1616:8.2704078483965965e-02
1617:8.0013756104533207e-02
1618:7.6602675324683372e-02
1619:7.4054561213146006e-02
1620:8.8042588672591626e-02
1621:8.5214358651440489e-02
1622:8.1622934587576343e-02
1623:7.8935995408684623e-02
1624:9.4430076718729480e-02
1625:9.1451392553766858e-02
1626:8.7660476578630783e-02
1627:8.4817917377745439e-02
1628:9.8880637110564537e-02
1629:9.5809320641926835e-02
1630:9.1893146422775809e-02
1631:8.8951077147984725e-02
1632:7.2716725396883133e-02
1633:7.0230373134881799e-02
1634:6.7022633104641724e-02
1635:6.4583704476335407e-02
1636:7.7523864020390965e-02
1637:7.4897076402772544e-02
1638:7.1503618905310332e-02
1639:6.8920051059540799e-02
1640:8.3321799165372495e-02
1641:8.0535116273568561e-02
1642:7.6928074690325352e-02
1643:7.4176610300530813e-02
1644:8.7400645800652765e-02
1645:8.4509555744159776e-02
1646:8.0761178965705865e-02
1647:7.7897261337313090e-02
1648:6.3287762361171326e-02
1649:6.0846550587350973e-02
1650:5.7632095702927509e-02
1651:5.5138407388248649e-02
1652:6.7546060667320176e-02
1653:6.4955728620602282e-02
1654:6.1540952115844427e-02
1655:5.8888952452916921e-02
1656:7.2711498798893590e-02
1657:6.9946135988195185e-02
1658:6.6294471885733286e-02
1659:6.3453988828112720e-02
1660:7.6370669038140312e-02
1661:7.3486421328973123e-02
1662:6.9672380436839779e-02
1663:6.6701636962312946e-02
1664:5.3795600057256449e-02
1665:5.1228048481638824e-02
1666:4.7772306668408517e-02
1667:4.5035070070655388e-02
1668:5.7459920164871309e-02
1669:5.4725852944715755e-02
1670:5.1042924196265348e-02
1671:4.8123529027525917e-02
1672:6.1921874670523840e-02
1673:5.8988037249014975e-02
1674:5.5031261868232755e-02
1675:5.1891384741158710e-02
1676:6.5097932299337066e-02
1677:6.2024776319160535e-02
1678:5.7875962700533752e-02
1679:5.4580723543475741e-02
1680:4.3541340028711212e-02
1681:4.0644456460936437e-02
1682:3.6666313966171878e-02
1683:3.3456774970018914e-02
1684:4.6529669463983750e-02
1685:4.3437482933386604e-02
1686:3.9189147040175766e-02
1687:3.5760246974656101e-02
1688:5.0176034847411725e-02
1689:4.6846421795394305e-02
1690:4.2268797177070730e-02
1691:3.8571998373045306e-02
1692:5.2779525150899606e-02
1693:4.9281768151516692e-02
1694:4.4470281398233030e-02
1695:4.0582767608956218e-02
1696:3.1685063093571560e-02
1697:2.8206897208420987e-02
1698:2.3349251598416460e-02
1699:1.9370930630178668e-02
1700:3.3867023241813780e-02
1701:3.0149856179026661e-02
1702:2.4957724591293844e-02
1703:2.0705059191367649e-02
1704:3.6530204475155620e-02
1705:3.2520628637186626e-02
1706:2.6918979657350794e-02
1707:2.2330261412831842e-02
1708:3.8435069677664364e-02
1709:3.4216914643849301e-02
1710:2.8322932811975298e-02
1711:2.3494196734977196e-02
1712:1.7154844922121576e-02
1713:1.2766698201234262e-02
1714:6.5670481125954206e-03
1715:1.4385029859409163e-03
1716:1.8336067565393490e-02
1717:1.3645443788043913e-02
1718:7.0192221025575591e-03
1719:1.5384745848625650e-03
1720:1.9773935250333798e-02
1721:1.4712844570627819e-02
1722:7.5644747546859750e-03
1723:1.6528800581516584e-03
1724:2.0804044876064093e-02
1725:1.5478399833472378e-02
1726:7.9574060041383114e-03
1727:1.7385583029842608e-03
1728:2.2250912286286626e+00
1729:2.5803603760158134e+00
1730:2.9311135235976407e+00
1731:3.1283806745367797e+00
1732:2.7329354859160340e+00
1733:3.2216748618904507e+00
1734:3.5830951999874103e+00
1735:3.6717462318394225e+00
1736:3.1928656683363674e+00
1737:3.8375149818715766e+00
1738:4.2098876771814870e+00
1739:4.1582722485543213e+00
1740:3.2640228094145853e+00
1741:3.9563489026628060e+00
1742:4.3231263392038253e+00
1743:4.2049990785486946e+00
1744:3.2117224864201455e+00
1745:3.3186429259703143e+00
1746:3.3775836684260137e+00
1747:3.3788697170471873e+00
1748:3.6630024880084169e+00
1749:3.6167062330059467e+00
1750:3.5263903640583547e+00
1751:3.4476772386177763e+00
1752:4.0282058322435841e+00
1753:3.7807494637007801e+00
1754:3.4978907222767006e+00
1755:3.3198753009555673e+00
1756:4.0175008677687174e+00
1757:3.6740579880701980e+00
1758:3.2965283209878598e+00
1759:3.0656535593929544e+00
1760:3.3684045969579892e+00
1761:3.3163901996419356e+00
1762:3.1897013468581488e+00
1763:3.0549081243774752e+00
1764:3.4051809085253373e+00
1765:3.3053446179718367e+00
1766:3.1294265061992292e+00
1767:2.9579652585378322e+00
1768:3.2391909813775568e+00
1769:3.0788433636029020e+00
1770:2.8360193398102038e+00
1771:2.6162257437417811e+00
1772:2.9623338260813039e+00
1773:2.7630260354183358e+00
1774:2.4743683439190316e+00
1775:2.2226707376725723e+00
1776:2.9710964178891306e+00
1777:2.7778001541039390e+00
1778:2.4505791586665437e+00
1779:2.1411070906943559e+00
1780:2.8525741179068071e+00
1781:2.6189487380601504e+00
1782:2.2445623846416392e+00
1783:1.9068174369499082e+00
1784:2.4847975992752582e+00
1785:2.2106348030836145e+00
1786:1.8030311951281783e+00
1787:1.4560870362849105e+00
1788:2.0757104791353318e+00
1789:1.7836977651458392e+00
1790:1.3747559191204322e+00
1791:1.0417245378911872e+00
1792:1.9585010811900798e+00
1793:1.6407126057621819e+00
1794:1.2695869543232867e+00
1795:1.0021154214282568e+00
1796:1.7129289909989380e+00
1797:1.3800619118519206e+00
1798:1.0021308567773448e+00
1799:7.4051957561293946e-01
1800:1.2630994235276891e+00
1801:9.3810546845337717e-01
1802:5.8479566112920667e-01
1803:3.5611701262379314e-01
1804:8.6052916649799371e-01
1805:5.5993100075117319e-01
1806:2.4544092872746046e-01
1807:5.5356194622573844e-02
1808:8.6317196754600667e-01
1809:6.4866604166836817e-01
1810:4.6211115407495218e-01
1811:3.8477974791330871e-01
1812:6.0867489650648876e-01
1813:4.1005190665888613e-01
1814:2.5037983905341393e-01
1815:2.0045015042969294e-01
1816:2.4709166616896522e-01
1817:9.0947926546807514e-02
1818:-1.4196676689009971e-02
1819:-2.1115099277276089e-02
1820:-2.9512069522149041e-02
1821:-1.4313315180918423e-01
1822:-1.9953256159717978e-01
1823:-1.7340734776308372e-01
1824:3.6368214109267194e-01
1825:3.3655191727382311e-01
1826:3.2535782086453613e-01
1827:3.3979180880231674e-01
1828:1.9650223938870476e-01
1829:1.9822941052489679e-01
1830:2.1684632211104177e-01
1831:2.4853869295354664e-01
1832:-1.5700999746622675e-03
1833:3.8054029853509891e-02
1834:9.2494738594096765e-02
1835:1.4129644692233831e-01
1836:-1.3766035861460640e-01
1837:-7.2474028623266157e-02
1838:5.0379069170171575e-03
1839:6.3365847487621363e-02
1840:3.5550644593363195e-01
1841:3.7632321993632195e-01
1842:3.8925661690898106e-01
1843:3.9570394776025736e-01
1844:2.7175389674995865e-01
1845:3.0599447548829767e-01
1846:3.3365172328820852e-01
1847:3.4733915949214872e-01
1848:1.7037180104593749e-01
1849:2.1587011680679882e-01
1850:2.5767801003317159e-01
1851:2.7956861724071042e-01
1852:9.4891484076237279e-02
1853:1.4588653210790142e-01
1854:1.9624212422729770e-01
1855:2.2422573904439877e-01
1856:3.9989131633087927e-01
1857:4.0602937946816453e-01
1858:4.0824636082817273e-01
1859:4.0413762175779977e-01
1860:3.5358957226583426e-01
1861:3.6356804278281696e-01
1862:3.7155081506411369e-01
1863:3.7248167430250562e-01
1864:2.8874273147173729e-01
1865:3.0389332872503305e-01
1866:3.1899789460937539e-01
1867:3.2604883064084866e-01
1868:2.3606875059527091e-01
1869:2.5560197963341141e-01
1870:2.7592286921138753e-01
1871:2.8712080254901667e-01
1872:3.9968049906691266e-01
1873:3.9047086187647073e-01
1874:3.7812879292556650e-01
1875:3.6895796438195477e-01
1876:3.7088370710412472e-01
1877:3.6635420114003070e-01
1878:3.5871729918688749e-01
1879:3.5222353614047863e-01
1880:3.2799158504938891e-01
1881:3.2949974023484091e-01
1882:3.2827760170837650e-01
1883:3.2555728125556060e-01
1884:2.9145370341277876e-01
1885:2.9728277902259248e-01
1886:3.0106038548825459e-01
1887:3.0150475088051032e-01
1888:3.6429032635372022e-01
1889:3.5521406987685722e-01
1890:3.4228645841017785e-01
1891:3.3127303193455321e-01
1892:3.4872082517223607e-01
1893:3.4179416268611296e-01
1894:3.3163744290383618e-01
1895:3.2267478431315522e-01
1896:3.2368531996145444e-01
1897:3.1967448381468622e-01
1898:3.1320453922130242e-01
1899:3.0702195096402635e-01
1900:3.0104611647920493e-01
1901:2.9946148399223282e-01
1902:2.9590285323321219e-01
1903:2.9187207243121194e-01
1904:3.2499293842523536e-01
1905:3.1349531857941082e-01
1906:2.9929391548748890e-01
1907:2.8902853145586793e-01
1908:3.1743839189085143e-01
1909:3.0764718441666927e-01
1910:2.9521759005688708e-01
1911:2.8602873578851429e-01
1912:3.0324954768732565e-01
1913:2.9592712171623958e-01
1914:2.8615326677796643e-01
1915:2.7859812442096060e-01
1916:2.8924333602168328e-01
1917:2.8391473121117011e-01
1918:2.7638859329735138e-01
1919:2.7026652115217292e-01
1920:2.8376857515338327e-01
1921:2.7408435449350094e-01
1922:2.6168394896950492e-01
1923:2.5227761988085651e-01
1924:2.8126754106076823e-01
1925:2.7247467546065846e-01
1926:2.6114869334917784e-01
1927:2.5248096249631868e-01
1928:2.7458254187977404e-01
1929:2.6710394440966673e-01
1930:2.5736072739584537e-01
1931:2.4980964624525370e-01
1932:2.6691182219806159e-01
1933:2.6057873705823692e-01
1934:2.5219120150327257e-01
1935:2.4559696280134588e-01
1936:2.4729256795870416e-01
1937:2.3827475146928803e-01
1938:2.2718116772187702e-01
1939:2.1914595402816295e-01
1940:2.4785343685040015e-01
1941:2.3942373949224699e-01
1942:2.2895493108032175e-01
1943:2.2131028325254365e-01
1944:2.4574194704786892e-01
1945:2.3825699150803972e-01
1946:2.2882166604678142e-01
1947:2.2183230151590178e-01
1948:2.4201530474559677e-01
1949:2.3536805216467760e-01
1950:2.2687613349285260e-01
1951:2.2049846582689706e-01
1952:2.1501415804364202e-01
1953:2.0750370246169184e-01
1954:1.9813371410602088e-01
1955:1.9124189118966198e-01
1956:2.1736243956686382e-01
1957:2.1017034571852236e-01
1958:2.0116236137834478e-01
1959:1.9450362733566309e-01
1960:2.1819164876048361e-01
1961:2.1153199866200864e-01
1962:2.0314019639123981e-01
1963:1.9689479006106531e-01
1964:2.1714672679580641e-01
1965:2.1098712764483682e-01
1966:2.0317636062136274e-01
1967:1.9732691691022819e-01
1968:1.8766476015907976e-01
1969:1.8119744056417006e-01
1970:1.7321935323179274e-01
1971:1.6742285882919083e-01
1972:1.9103415129196494e-01
1973:1.8474181842581247e-01
1974:1.7694578665094876e-01
1975:1.7125883786553048e-01
1976:1.9362494140584285e-01
1977:1.8766787610844859e-01
1978:1.8023777776933972e-01
1979:1.7478201482273384e-01
1980:1.9425196665867922e-01
1981:1.8862831849210016e-01
1982:1.8157236649049327e-01
1983:1.7635970842606968e-01
1984:1.6443679561483934e-01
1985:1.5902094517112977e-01
1986:1.5229797906516321e-01
1987:1.4738469178831451e-01
1988:1.6832230978692750e-01
1989:1.6298664266160884e-01
1990:1.5634353977744025e-01
1991:1.5147224882119298e-01
1992:1.7195325292443173e-01
1993:1.6679899822166683e-01
1994:1.6035406088010601e-01
1995:1.5560593099848860e-01
1996:1.7364628536224005e-01
1997:1.6868923592676510e-01
1998:1.6246684903691047e-01
1999:1.5786413897939958e-01
2000:1.4484528696436699e-01
2001:1.4023802305128527e-01
2002:1.3451780777487790e-01
2003:1.3033591970888903e-01
2004:1.4894850759148864e-01
2005:1.4436121284146128e-01
2006:1.3865054191559378e-01
2007:1.3446455182694536e-01
2008:1.5313801911000122e-01
2009:1.4864001892102871e-01
2010:1.4301783789562222e-01
2011:1.3887986274748998e-01
2012:1.5546530992201044e-01
2013:1.5108282333597539e-01
2014:1.4558532646955155e-01
2015:1.4152427918245492e-01
2016:1.2817303426306412e-01
2017:1.2423248120288743e-01
2018:1.1930670776838712e-01
2019:1.1568148899364579e-01
2020:1.3229584648013915e-01
2021:1.2833859536905501e-01
2022:1.2337996790848584e-01
2023:1.1972118310045993e-01
2024:1.3673032177564515e-01
2025:1.3279918903689433e-01
2026:1.2785612758118628e-01
2027:1.2419547725866213e-01
2028:1.3940962365950305e-01
2029:1.3553469332922816e-01
2030:1.3064772561311799e-01
2031:1.2701736160573784e-01
2032:1.1379828205788922e-01
2033:1.1034994558546705e-01
2034:1.0600438932007820e-01
2035:1.0277859389161133e-01
2036:1.1781721156106197e-01
2037:1.1432574569018703e-01
2038:1.0991619814951666e-01
2039:1.0663562880654009e-01
2040:1.2228581476006205e-01
2041:1.1877637819908254e-01
2042:1.1432981387695082e-01
2043:1.1101088467626322e-01
2044:1.2511953607082640e-01
2045:1.2162533562580531e-01
2046:1.1718564004411156e-01
2047:1.1386244719185953e-01
2048:1.0109253760388762e-01
2049:9.7979942333484102e-02
2050:9.4006898234503561e-02
2051:9.1018887470825718e-02
2052:1.0491841760100272e-01
2053:1.0174385339029865e-01
2054:9.7683077844178332e-02
2055:9.4622525005581409e-02
2056:1.0926983771513663e-01
2057:1.0604469788484829e-01
2058:1.0190663227440575e-01
2059:9.8778252086177076e-02
2060:1.1211591122285840e-01
2061:1.0887505035103984e-01
2062:1.0470609759452003e-01
2063:1.0154623394390200e-01
2064:8.9443127659708771e-02
2065:8.6502926290089183e-02
2066:8.2687287821028549e-02
2067:7.9769297167249023e-02
2068:9.3006226191033631e-02
2069:8.9986510815192572e-02
2070:8.6060296440171727e-02
2071:8.3052225653424183e-02
2072:9.7122798779896019e-02
2073:9.4024209583349477e-02
2074:8.9984527311898529e-02
2075:8.6881383409860832e-02
2076:9.9871289920588469e-02
2077:9.6731307659054661e-02
2078:9.2628294251605278e-02
2079:8.9469537057990170e-02
2080:7.8212958826774759e-02
2081:7.5270875471898147e-02
2082:7.1377253437158145e-02
2083:6.8342250196567422e-02
2084:8.1445945792691488e-02
2085:7.8406095894152011e-02
2086:7.4376717608255385e-02
2087:7.1231221040535378e-02
2088:8.5221543522765397e-02
2089:8.2075404107351105e-02
2090:7.7895788960148191e-02
2091:7.4626152124206105e-02
2092:8.7777568491444108e-02
2093:8.4566346706783507e-02
2094:8.0292342181452134e-02
2095:7.6943055466771632e-02
2096:6.6703091422325556e-02
2097:6.3560715001539717e-02
2098:5.9316076214429019e-02
2099:5.5943024805619766e-02
2100:6.9530814363164842e-02
2101:6.6268387128458561e-02
2102:6.1856698851587094e-02
2103:5.8347401070443172e-02
2104:7.2856329501909831e-02
2105:6.9456843702259671e-02
2106:6.4852628046233277e-02
2107:6.1185046222791070e-02
2108:7.5128165647811704e-02
2109:7.1638823708982266e-02
2110:6.6906811219537413e-02
2111:6.3133079558687979e-02
2112:5.4098737169586339e-02
2113:5.0516443050000630e-02
2114:4.5587125823795156e-02
2115:4.1603348854093919e-02
2116:5.6427474432818654e-02
2117:5.2696488605660979e-02
2118:4.7559396092258954e-02
2119:4.3405517391563203e-02
2120:5.9176845828217126e-02
2121:5.5271718573845732e-02
2122:4.9890203460954637e-02
2123:4.5535483609440666e-02
2124:6.1065338467593183e-02
2125:5.7042235841592452e-02
2126:5.1494220090867432e-02
2127:4.7002070614486649e-02
2128:3.9402143532281324e-02
2129:3.5078552141758743e-02
2130:2.9036717011814539e-02
2131:2.4086540802103457e-02
2132:4.1109653130244284e-02
2133:3.6599422597331524e-02
2134:3.0295692624276744e-02
2135:2.5130309641964749e-02
2136:4.3127630204893019e-02
2137:3.8396354884729630e-02
2138:3.1782096594078907e-02
2139:2.6361339891060067e-02
2140:4.4517399425299364e-02
2141:3.9634303961171929e-02
2142:3.2806469052147923e-02
2143:2.7209900251747361e-02
2144:2.1328668664610636e-02
2145:1.5869186316692895e-02
2146:8.1597762249447144e-03
2147:1.7856476993652135e-03
2148:2.2252408882720294e-02
2149:1.6555779354372743e-02
2150:8.5126934551524539e-03
2151:1.8637286039740603e-03
2152:2.3340966680255093e-02
2153:1.7362993396009094e-02
2154:8.9244287140416764e-03
2155:1.9500574587547070e-03
2156:2.4091407638082742e-02
2157:1.7919804770818878e-02
2158:9.2093923250379343e-03
2159:2.0116288424220931e-03
2160:3.1649547320783245e+00
2161:3.8404528748496483e+00
2162:4.1953925552340996e+00
2163:4.0676440447718063e+00
2164:2.7417850423907990e+00
2165:3.3141623204632134e+00
2166:3.6225500539327564e+00
2167:3.5143688657663188e+00
2168:1.9249222096068070e+00
2169:2.2781741451983510e+00
2170:2.4855305670609784e+00
2171:2.4341347006803122e+00
2172:1.2764832742787569e+00
2173:1.4457577254878464e+00
2174:1.5528567584975181e+00
2175:1.5324984663392309e+00
2176:3.8727346988854383e+00
2177:3.5160269906162820e+00
2178:3.1218609215549744e+00
2179:2.8768910229983269e+00
2180:3.3441221328472146e+00
2181:3.0269105592031660e+00
2182:2.6612204254977709e+00
2183:2.4172242489456806e+00
2184:2.3345373852527151e+00
2185:2.1350817556965449e+00
2186:1.8718476296955220e+00
2187:1.6636139367608793e+00
2188:1.4838686389720050e+00
2189:1.3724035409127866e+00
2190:1.1916532018363659e+00
2191:1.0196285965155265e+00
2192:2.7651261202077366e+00
2193:2.5498068845364195e+00
2194:2.2414220859054272e+00
2195:1.9765135355840204e+00
2196:2.2983614949600009e+00
2197:2.0680750950290712e+00
2198:1.7414856170186568e+00
2199:1.4653468971919723e+00
2200:1.5490517588898212e+00
2201:1.3246890839326591e+00
2202:1.0083942860240214e+00
2203:7.4338860235363746e-01
2204:9.1513035025083433e-01
2205:7.0996080891642011e-01
2206:4.2331019471580655e-01
2207:1.8480039337879028e-01
2208:1.8237761350526076e+00
2209:1.5281438767021811e+00
2210:1.1276284717498386e+00
2211:8.0926920782282674e-01
2212:1.3086113369583330e+00
2213:1.0180723152952083e+00
2214:6.4771370505904324e-01
2215:3.6769911260237259e-01
2216:5.9463759937138616e-01
2217:3.3210853243140498e-01
2218:2.3814629408380729e-02
2219:-1.9084056073495381e-01
2220:5.1773101760407864e-02
2221:-1.7475374188287265e-01
2222:-4.2254017746712480e-01
2223:-5.8036889075847742e-01
2224:6.3802321025848574e-01
2225:3.5618737417249147e-01
2226:6.7941402904127840e-02
2227:-9.8495622555081458e-02
2228:2.2098457471664087e-01
2229:-1.5335439824234980e-02
2230:-2.4327641665147229e-01
2231:-3.5947527379381833e-01
2232:-2.9760240961469836e-01
2233:-4.6084477466618667e-01
2234:-5.9679726793090870e-01
2235:-6.4255757744836339e-01
2236:-6.5361214842987569e-01
2237:-7.5653258117043198e-01
2238:-8.2005999276986175e-01
2239:-8.1459120442498545e-01
2240:-1.6918421871447548e-01
2241:-2.5856514422475474e-01
2242:-2.8890983182530211e-01
2243:-2.4683287663435269e-01
2244:-4.0158187829000930e-01
2245:-4.4394699182466218e-01
2246:-4.2764382605712215e-01
2247:-3.6060547486575001e-01
2248:-6.4708014306308981e-01
2249:-6.3029843190455548e-01
2250:-5.6089948953392355e-01
2251:-4.7093396676157995e-01
2252:-7.9352464108685372e-01
2253:-7.3799656205020858e-01
2254:-6.3689478361068042e-01
2255:-5.3650134627425417e-01
2256:-2.0391808851900503e-01
2257:-1.2751000420705277e-01
2258:-3.9964056529014247e-02
2259:2.2257958302980944e-02
2260:-3.0789123865907109e-01
2261:-2.1646087956956675e-01
2262:-1.1592677482981111e-01
2263:-4.9430894878435806e-02
2264:-4.1164343791777169e-01
2265:-3.1047674589062602e-01
2266:-2.0179435304709470e-01
2267:-1.3354967457325789e-01
2268:-4.7596355043138461e-01
2269:-3.7288037288168585e-01
2270:-2.6195500409167183e-01
2271:-1.9311630183440931e-01
2272:5.4614499050262562e-02
2273:1.0784987913387491e-01
2274:1.6233028522797652e-01
2275:1.9367072310831204e-01
2276:-1.6690828947612407e-02
2277:3.8773945544369977e-02
2278:9.9119265794800432e-02
2279:1.3620322927001327e-01
2280:-1.0148358374776610e-01
2281:-4.5486007843432950e-02
2282:1.9469498508039390e-02
2283:6.2475880394055272e-02
2284:-1.6130241752875293e-01
2285:-1.0510164938722324e-01
2286:-3.8069557548869634e-02
2287:7.9965078657828308e-03
2288:2.0714716912529771e-01
2289:2.2924370153967641e-01
2290:2.5228929447809784e-01
2291:2.6545633333917640e-01
2292:1.5282510559849891e-01
2293:1.7992856041917224e-01
2294:2.0812718358713142e-01
2295:2.2470626578306982e-01
2296:8.2816592465928485e-02
2297:1.1609570219703320e-01
2298:1.5077021758728101e-01
2299:1.7143119252416689e-01
2300:3.0451682038401894e-02
2301:6.7545457628756966e-02
2302:1.0666045368736608e-01
2303:1.3030054705436153e-01
2304:2.7089612606909341e-01
2305:2.7883543239193698e-01
2306:2.8524783068529824e-01
2307:2.8747667132984256e-01
2308:2.3193516083821655e-01
2309:2.4334189319599245e-01
2310:2.5427749444367831e-01
2311:2.5975674475514970e-01
2312:1.8064593829213874e-01
2313:1.9589180778731566e-01
2314:2.1198744571527350e-01
2315:2.2139352282748434e-01
2316:1.4096259107479758e-01
2317:1.5890672204425588e-01
2318:1.7853459411527783e-01
2319:1.9065223626360728e-01
2320:2.8784670156390613e-01
2321:2.8764919128698907e-01
2322:2.8568116386686226e-01
2323:2.8278755823845031e-01
2324:2.6171653176205811e-01
2325:2.6419778442457265e-01
2326:2.6527107249091580e-01
2327:2.6449460794773000e-01
2328:2.2538208478933333e-01
2329:2.3134884260141872e-01
2330:2.3641515147233008e-01
2331:2.3837932100362744e-01
2332:1.9607767053142805e-01
2333:2.0458308200976530e-01
2334:2.1265229638682567e-01
2335:2.1670841321332304e-01
2336:2.8075840601404534e-01
2337:2.7649992661552009e-01
2338:2.7022495745964353e-01
2339:2.6492746293298924e-01
2340:2.6355569201733575e-01
2341:2.6125186481803564e-01
2342:2.5730144408455924e-01
2343:2.5357767495233818e-01
2344:2.3882008657235257e-01
2345:2.3898936424884903e-01
2346:2.3801822878200260e-01
2347:2.3636660666751411e-01
2348:2.1819893959564315e-01
2349:2.2024044450412181e-01
2350:2.2152611474295347e-01
2351:2.2146339009522673e-01
2352:2.6195968699216327e-01
2353:2.5629037908426083e-01
2354:2.4867565643662634e-01
2355:2.4262161113500241e-01
2356:2.5136655845353406e-01
2357:2.4700119566165890e-01
2358:2.4090384925127226e-01
2359:2.3590410106885143e-01
2360:2.3517890848072534e-01
2361:2.3259400387290657e-01
2362:2.2858114923216294e-01
2363:2.2502717194697852e-01
2364:2.2107273588895526e-01
2365:2.1988881505642816e-01
2366:2.1753380268870806e-01
2367:2.1513527625880197e-01
2368:2.3931431780242043e-01
2369:2.3314580275942617e-01
2370:2.2520349063897921e-01
2371:2.1918851517467297e-01
2372:2.3312881633568205e-01
2373:2.2789193793416770e-01
2374:2.2102959669133138e-01
2375:2.1573738113290783e-01
2376:2.2297727127008121e-01
2377:2.1901490538345364e-01
2378:2.1364537518177565e-01
2379:2.0936859243646436e-01
2380:2.1366470125086751e-01
2381:2.1072284918376746e-01
2382:2.0655766446645674e-01
2383:2.0311007598459627e-01
2384:2.1600966174216604e-01
2385:2.1014892493323822e-01
2386:2.0268512690947313e-01
2387:1.9707294053368404e-01
2388:2.1290717144115781e-01
2389:2.0765164729097360e-01
2390:2.0089364117296757e-01
2391:1.9576592991512515e-01
2392:2.0703527072858111e-01
2393:2.0264742779888353e-01
2394:1.9690795474481740e-01
2395:1.9248305030274193e-01
2396:2.0118685951671575e-01
2397:1.9751860613123473e-01
2398:1.9262846938507600e-01
2399:1.8879221367918214e-01
2400:1.9411542456156511e-01
2401:1.8869442094250921e-01
2402:1.8186901811796022e-01
2403:1.7680832518859360e-01
2404:1.9304874219056153e-01
2405:1.8804441046526513e-01
2406:1.8169726631947633e-01
2407:1.7695530281794974e-01
2408:1.9011542859315259e-01
2409:1.8572063397049413e-01
2410:1.8008075789895109e-01
2411:1.7581660874864757e-01
2412:1.8671806218365630e-01
2413:1.8283753948849144e-01
2414:1.7779998546892550e-01
2415:1.7394746023726754e-01
2416:1.7416767551546702e-01
2417:1.6933580354845953e-01
2418:1.6325632423529651e-01
2419:1.5874857095200717e-01
2420:1.7446859461239125e-01
2421:1.6990307255413556e-01
2422:1.6413063844586806e-01
2423:1.5982937276187506e-01
2424:1.7356311784051393e-01
2425:1.6940373702580511e-01
2426:1.6410432751624426e-01
2427:1.6012508066728803e-01
2428:1.7189662526952443e-01
2429:1.6809175003373342e-01
2430:1.6320801228496765e-01
2431:1.5951396688530473e-01
2432:1.5639552309120194e-01
2433:1.5209068206108464e-01
2434:1.4667915304239390e-01
2435:1.4267295339026947e-01
2436:1.5757682231086850e-01
2437:1.5344400442384978e-01
2438:1.4822605455999027e-01
2439:1.4434592776632368e-01
2440:1.5803072974937635e-01
2441:1.5417139078908898e-01
2442:1.4926653916737379e-01
2443:1.4559469336533515e-01
2444:1.5756056882559136e-01
2445:1.5394666513047087e-01
2446:1.4932637569913140e-01
2447:1.4584671853525782e-01
2448:1.4058388752986556e-01
2449:1.3675146098315855e-01
2450:1.3190972805603129e-01
2451:1.2830653868926975e-01
2452:1.4231667396855249e-01
2453:1.3858527495310449e-01
2454:1.3385462956524100e-01
2455:1.3032143658281367e-01
2456:1.4366590480567407e-01
2457:1.4010677240072708e-01
2458:1.3557087039704577e-01
2459:1.3216509290616310e-01
2460:1.4401170159733792e-01
2461:1.4061483371797368e-01
2462:1.3626533350672954e-01
2463:1.3298406708619787e-01
2464:1.2642066336535757e-01
2465:1.2294469759484679e-01
2466:1.1852097052235301e-01
2467:1.1520430021339652e-01
2468:1.2846775645960454e-01
2469:1.2504363080893485e-01
2470:1.2067149368733225e-01
2471:1.1738262882608598e-01
2472:1.3037196891649830e-01
2473:1.2704901565231311e-01
2474:1.2278550997155180e-01
2475:1.1956279817014230e-01
2476:1.3125114295356105e-01
2477:1.2803070998359550e-01
2478:1.2388136731245085e-01
2479:1.2073180529004397e-01
2480:1.1345931566143988e-01
2481:1.1021815884036705e-01
2482:1.0604271204032498e-01
2483:1.0287329561702740e-01
2484:1.1564851047723795e-01
2485:1.1242120367007753e-01
2486:1.0825142376119226e-01
2487:1.0507709955940685e-01
2488:1.1785816858653821e-01
2489:1.1467667682508012e-01
2490:1.1054869984546221e-01
2491:1.0739308456094657e-01
2492:1.1906131795338054e-01
2493:1.1593586224642086e-01
2494:1.1186587935998019e-01
2495:1.0874355270338078e-01
2496:1.0119167827323935e-01
2497:9.8036373054262591e-02
2498:9.3907976061681192e-02
2499:9.0725699290194736e-02
2500:1.0338967941685037e-01
2501:1.0021786248135908e-01
2502:9.6057129691546631e-02
2503:9.2841961992872729e-02
2504:1.0571106555701074e-01
2505:1.0254137426384806e-01
2506:9.8368101713126405e-02
2507:9.5131871278527291e-02
2508:1.0707546605729747e-01
2509:1.0392529619935259e-01
2510:9.9764879786464006e-02
2511:9.6529107229259989e-02
2512:8.9019775549843499e-02
2513:8.5779693255438452e-02
2514:8.1462782277612722e-02
2515:7.8076582549735735e-02
2516:9.1115688690489235e-02
2517:8.7832211716099826e-02
2518:8.3448510958851821e-02
2519:8.0003357439710876e-02
2520:9.3390411169946078e-02
2521:9.0071287692582214e-02
2522:8.5627226531893072e-02
2523:8.2125310747318617e-02
2524:9.4784656350904065e-02
2525:9.1454188322303079e-02
2526:8.6984293970061854e-02
2527:8.3454269868876885e-02
2528:7.6240585640475339e-02
2529:7.2708797582640747e-02
2530:6.7915768801780227e-02
2531:6.4090915950488714e-02
2532:7.8133192210197919e-02
2533:7.4531949000129855e-02
2534:6.9637757626167363e-02
2535:6.5727256615972049e-02
2536:8.0221206222995514e-02
2537:7.6549309559889728e-02
2538:7.1549284703721530e-02
2539:6.7547232718315656e-02
2540:8.1532288891977334e-02
2541:7.7821522032892651e-02
2542:7.2760430941061729e-02
2543:6.8703714377734454e-02
2544:6.1994362909883902e-02
2545:5.7913965971460070e-02
2546:5.2284728855361090e-02
2547:4.7725296546492352e-02
2548:6.3582155352423120e-02
2549:5.9404805840856729e-02
2550:5.3637407783666040e-02
2551:4.8963042986967853e-02
2552:6.5349638262155799e-02
2553:6.1066569259014568e-02
2554:5.5146969701063218e-02
2555:5.0344962365166307e-02
2556:6.6474223001075639e-02
2557:6.2126099755194016e-02
2558:5.6111435910033813e-02
2559:5.1228776677418673e-02
2560:4.5202943630385871e-02
2561:4.0245298210585562e-02
2562:3.3312472303193924e-02
2563:2.7629410411236024e-02
2564:4.6376177436705475e-02
2565:4.1290748821672253e-02
2566:3.4177734822826100e-02
2567:2.8346100610289568e-02
2568:4.7686141679474277e-02
2569:4.2457866773232530e-02
2570:3.5142939858196484e-02
2571:2.9144541762799771e-02
2572:4.8524215471610579e-02
2573:4.3204848792526215e-02
2574:3.5760731917363509e-02
2575:2.9655385478143698e-02
2576:2.4462633346294217e-02
2577:1.8195798237700511e-02
2578:9.3518185055798519e-03
2579:2.0444115957718315e-03
2580:2.5096357385580664e-02
2581:1.8665993576523543e-02
2582:9.5929313600643020e-03
2583:2.0977100821448357e-03
2584:2.5801617605223488e-02
2585:1.9187810913482768e-02
2586:9.8583355858930417e-03
2587:2.1533853240676224e-03
2588:2.6252652624931764e-02
2589:1.9521288914865820e-02
2590:1.0027981806658530e-02
2591:2.1894552187880843e-03
2592:9.7734737598004739e-01
2593:1.0576259063507605e+00
2594:1.1060981385574973e+00
2595:1.0873351699005631e+00
2596:5.3944301810126305e-01
2597:4.8275838692820938e-01
2598:4.2495082691155928e-01
2599:3.8480453100539974e-01
2600:1.7517608804837773e-01
2601:2.5782981780263234e-03
2602:-1.6763310437987097e-01
2603:-2.5914487962317173e-01
2604:2.1931313348249735e-02
2605:-1.8828021999048516e-01
2606:-4.0892353077449489e-01
2607:-5.3699539309370259e-01
2608:1.0551116142199792e+00
2609:9.7405550778737604e-01
2610:8.2498022489367018e-01
2611:6.7010833569505335e-01
2612:3.6191275949429369e-01
2613:3.0353963094310032e-01
2614:1.8610998084155195e-01
2615:5.6179172422404069e-02
2616:-2.9634680649300305e-01
2617:-3.6957220427119331e-01
2618:-4.8470032810165559e-01
2619:-5.9536410821107089e-01
2620:-5.9182035777263764e-01
2621:-6.9027858145607734e-01
2622:-8.1981859076157060e-01
2623:-9.2509676595200119e-01
2624:5.7228052658535034e-01
2625:3.8104462445476800e-01
2626:1.1654391808564493e-01
2627:-1.0204094891077267e-01
2628:-2.8132325714407949e-02
2629:-1.8937308606109665e-01
2630:-4.0477929257757095e-01
2631:-5.7813456330411295e-01
2632:-6.6316558730025221e-01
2633:-7.8549488816916746e-01
2634:-9.3501099887996064e-01
2635:-1.0459122120613988e+00
2636:-9.8388631521778047e-01
2637:-1.0835010878342199e+00
2638:-1.1926519064880403e+00
2639:-1.2638036029910831e+00
2640:-2.2343356379346466e-01
2641:-4.2613688720166781e-01
2642:-6.3839090627288009e-01
2643:-7.6508229616749845e-01
2644:-6.7292669924639770e-01
2645:-8.2421219474132490e-01
2646:-9.6626282101686500e-01
2647:-1.0359766460020692e+00
2648:-1.1035595009149710e+00
2649:-1.1863153723870099e+00
2650:-1.2424470620811510e+00
2651:-1.2484560720200906e+00
2652:-1.2974038771833520e+00
2653:-1.3372926622604364e+00
2654:-1.3434900274832768e+00
2655:-1.3157909897193090e+00
2656:-8.2044652867398138e-01
2657:-8.9171445813768668e-01
2658:-9.1874378612616991e-01
2659:-8.8913710069163754e-01
2660:-1.0600309547664866e+00
2661:-1.0779816769146620e+00
2662:-1.0478242018429629e+00
2663:-9.8405474393472048e-01
2664:-1.2395712420255298e+00
2665:-1.2047169926496866e+00
2666:-1.1246281253956532e+00
2667:-1.0369434038081142e+00
2668:-1.2907348939862917e+00
2669:-1.2320700648406129e+00
2670:-1.1339047629261323e+00
2671:-1.0418630369142106e+00
2672:-8.5671690457994853e-01
2673:-7.8451926223662749e-01
2674:-6.7079681239260847e-01
2675:-5.6741507417809689e-01
2676:-9.3694207150406372e-01
2677:-8.4430686101056418e-01
2678:-7.1766505550724746e-01
2679:-6.1458641315108675e-01
2680:-9.8194049862847932e-01
2681:-8.8039554244723983e-01
2682:-7.5316945284238179e-01
2683:-6.5822699820023245e-01
2684:-9.8754643905594608e-01
2685:-8.8900454103020832e-01
2686:-7.6881813724585324e-01
2687:-6.8218132826538946e-01
2688:-5.0732184153283888e-01
2689:-4.0467903275059613e-01
2690:-2.9326680534444949e-01
2691:-2.2377774389843744e-01
2692:-5.5774258335525917e-01
2693:-4.5942237699024735e-01
2694:-3.4950853882843019e-01
2695:-2.7883257139206702e-01
2696:-6.0833140758118409e-01
2697:-5.1980290835565135e-01
2698:-4.1536562132901500e-01
2699:-3.4400783700769322e-01
2700:-6.3766577008659420e-01
2701:-5.5703804605730622e-01
2702:-4.5803086694875367e-01
2703:-3.8735315525083330e-01
2704:-1.9167184667221754e-01
2705:-1.3495482306550882e-01
2706:-6.7044270209999923e-02
2707:-1.9931357256905209e-02
2708:-2.4558604354187522e-01
2709:-1.8709597165868488e-01
2710:-1.1743775360629970e-01
2711:-6.9049493215199639e-02
2712:-3.0905398980274146e-01
2713:-2.4797643338181263e-01
2714:-1.7641355241315437e-01
2715:-1.2735850815007438e-01
2716:-3.5172583227795268e-01
2717:-2.8962766275347179e-01
2718:-2.1749836990247381e-01
2719:-1.6845215974114464e-01
2720:3.2651400376507776e-03
2721:4.1874605807000698e-02
2722:8.3058577982039028e-02
2723:1.0826168311731392e-01
2724:-4.5074761348608848e-02
2725:-4.5891190438797870e-03
2726:3.9696556530875900e-02
2727:6.7595324343216412e-02
2728:-1.0315736700029959e-01
2729:-6.1538117335545081e-02
2730:-1.4438298893485798e-02
2731:1.6416899056066105e-02
2732:-1.4433145065551239e-01
2733:-1.0232536023550909e-01
2734:-5.3701468217265576e-02
2735:-2.1057102072741973e-02
2736:1.1972153971670957e-01
2737:1.3909690818513581e-01
2738:1.6050056359754117e-01
2739:1.7394076175440462e-01
2740:8.0537483521427075e-02
2741:1.0253523402653800e-01
2742:1.2707636949862283e-01
2743:1.4277053257566361e-01
2744:3.1121041380275431e-02
2745:5.6213130321921455e-02
2746:8.4364803857433265e-02
2747:1.0258936627204696e-01
2748:-5.2489210091979360e-03
2749:2.1793833387870894e-02
2750:5.2252235781659120e-02
2751:7.2133395337309211e-02
2752:1.8006464969977845e-01
2753:1.8983569872668032e-01
2754:1.9945660004699606e-01
2755:2.0462271124516679e-01
2756:1.5006285378481821e-01
2757:1.6198795690790402e-01
2758:1.7432907514164284e-01
2759:1.8149535765755789e-01
2760:1.1117872739636410e-01
2761:1.2555164866330917e-01
2762:1.4109526009487997e-01
2763:1.5068747176554032e-01
2764:8.1590932008206468e-02
2765:9.7634872007035217e-02
2766:1.1541123000560462e-01
2767:1.2671640025726122e-01
2768:2.0667556332150627e-01
2769:2.0971452357752995e-01
2770:2.1219516596775512e-01
2771:2.1297368303212696e-01
2772:1.8457730284962068e-01
2773:1.8944071119515388e-01
2774:1.9410275674214170e-01
2775:1.9641701314784560e-01
2776:1.5503705440475340e-01
2777:1.6215091704819098e-01
2778:1.6951006679572431e-01
2779:1.7373440902823251e-01
2780:1.3196472237194451e-01
2781:1.4067929439378349e-01
2782:1.4997327481042760e-01
2783:1.5558657897475547e-01
2784:2.1300686708046565e-01
2785:2.1257341813694222e-01
2786:2.1111493040087645e-01
2787:2.0934536164445489e-01
2788:1.9722532966937056e-01
2789:1.9817196710677848e-01
2790:1.9837546477121176e-01
2791:1.9777980384210897e-01
2792:1.7551299994551273e-01
2793:1.7820102953346859e-01
2794:1.8052421593416512e-01
2795:1.8143862927390919e-01
2796:1.5807899787610810e-01
2797:1.6205847569389339e-01
2798:1.6596850683118844e-01
2799:1.6802097500849258e-01
2800:2.0819081338301546e-01
2801:2.0580646527665980e-01
2802:2.0230169992452215e-01
2803:1.9931165203170895e-01
2804:1.9721712697533247e-01
2805:1.9587921470528735e-01
2806:1.9361950624467333e-01
2807:1.9149740218739975e-01
2808:1.8164043298407390e-01
2809:1.8165845705997979e-01
2810:1.8102247801055929e-01
2811:1.8004246626717058e-01
2812:1.6880046434044671e-01
2813:1.6984607091654885e-01
2814:1.7044816626332346e-01
2815:1.7034640160705347e-01
2816:1.9761598120362328e-01
2817:1.9434809617764770e-01
2818:1.8993206015262071e-01
2819:1.8642526087060432e-01
2820:1.9023558122229409e-01
2821:1.8773325342398156e-01
2822:1.8422695207164141e-01
2823:1.8135415358511051e-01
2824:1.7935568924956843e-01
2825:1.7787260308118349e-01
2826:1.7558438236825827e-01
2827:1.7356458509696279e-01
2828:1.7010487067683661e-01
2829:1.6941463807890314e-01
2830:1.6807975128792510e-01
2831:1.6673117686410605e-01
2832:1.8451559607212059e-01
2833:1.8092419352956651e-01
2834:1.7622718494415587e-01
2835:1.7260900261664897e-01
2836:1.7976151063757423e-01
2837:1.7672889505478120e-01
2838:1.7269352378161362e-01
2839:1.6953360788644786e-01
2840:1.7239960523177197e-01
2841:1.7012350508618659e-01
2842:1.6698983716396648e-01
2843:1.6445956877989909e-01
2844:1.6590374885814696e-01
2845:1.6422653806880649e-01
2846:1.6181048860766351e-01
2847:1.5978458115569388e-01
2848:1.7067413398298906e-01
2849:1.6707258229201402e-01
2850:1.6242802073356288e-01
2851:1.5889868221571812e-01
2852:1.6782662491528058e-01
2853:1.6462562711566103e-01
2854:1.6045385924626751e-01
2855:1.5725124018101178e-01
2856:1.6306761667267494e-01
2857:1.6042237045136973e-01
2858:1.5690997729343253e-01
2859:1.5416543624840162e-01
2860:1.5864621168556259e-01
2861:1.5644987787571157e-01
2862:1.5347285364583535e-01
2863:1.5110225161168411e-01
2864:1.5702691367360652e-01
2865:1.5355570861213222e-01
2866:1.4910201323010042e-01
2867:1.4573579622047977e-01
2868:1.5554178263996454e-01
2869:1.5235526297750607e-01
2870:1.4823588799395260e-01
2871:1.4509892789046858e-01
2872:1.5268436784418413e-01
2873:1.4990010393098488e-01
2874:1.4625653406723724e-01
2875:1.4344863537043978e-01
2876:1.4980830245661783e-01
2877:1.4735473159164847e-01
2878:1.4410455718461354e-01
2879:1.4157053633460967e-01
2880:1.4395646551856611e-01
2881:1.4065637500189290e-01
2882:1.3641886253916616e-01
2883:1.3321308887867511e-01
2884:1.4343272747185376e-01
2885:1.4032999026130757e-01
2886:1.3632225289953853e-01
2887:1.3327250589348708e-01
2888:1.4194583930130861e-01
2889:1.3912952868209308e-01
2890:1.3545788084417296e-01
2891:1.3263844238437189e-01
2892:1.4020440655307428e-01
2893:1.3762861912468349e-01
2894:1.3424105770849001e-01
2895:1.3161778046542258e-01
2896:1.3151693590827590e-01
2897:1.2835965502470614e-01
2898:1.2428173818549364e-01
2899:1.2117888765477836e-01
2900:1.3165277922839774e-01
2901:1.2862759336101109e-01
2902:1.2470080398568265e-01
2903:1.2169824589830666e-01
2904:1.3113230980135185e-01
2905:1.2830491443612746e-01
2906:1.2460738007301277e-01
2907:1.2175943906271358e-01
2908:1.3020895133202687e-01
2909:1.2755194159825872e-01
2910:1.2405383094032929e-01
2911:1.2134198290860923e-01
2912:1.1953058235328756e-01
2913:1.1644222419336113e-01
2914:1.1241213295476267e-01
2915:1.0931411436999673e-01
2916:1.2009813958898023e-01
2917:1.1709140873204675e-01
2918:1.1315124443552506e-01
2919:1.1010996025483176e-01
2920:1.2023460001777718e-01
2921:1.1735703963769062e-01
2922:1.1356273254889129e-01
2923:1.1061659135721075e-01
2924:1.1988400359652467e-01
2925:1.1712226395813838e-01
2926:1.1346096832185547e-01
2927:1.1060350435680052e-01
2928:1.0765684971064204e-01
2929:1.0452330081046322e-01
2930:1.0037756530040061e-01
2931:9.7147839572257352e-02
2932:1.0847878915184482e-01
2933:1.0538708367414798e-01
2934:1.0128243471171823e-01
2935:9.8074177650296343e-02
2936:1.0903047862136872e-01
2937:1.0601367777574718e-01
2938:1.0198850084328737e-01
2939:9.8827637626307266e-02
2940:1.0906015840190622e-01
2941:1.0611596595207808e-01
2942:1.0217108665499872e-01
2943:9.9061102123630534e-02
2944:9.5404824106801553e-02
2945:9.2073913061049631e-02
2946:8.7597429098283677e-02
2947:8.4057844716959165e-02
2948:9.6339169432182528e-02
2949:9.3017306653502579e-02
2950:8.8541210500032247e-02
2951:8.4993385813301861e-02
2952:9.7113267946027135e-02
2953:9.3822184461437461e-02
2954:8.9371136172389246e-02
2955:8.5831263485089501e-02
2956:9.7370212264643138e-02
2957:9.4116997576638953e-02
2958:8.9703643488590640e-02
2959:8.6183984125289742e-02
2960:8.2129204219753255e-02
2961:7.8403114841760754e-02
2962:7.3316567928011681e-02
2963:6.9236210154413974e-02
2964:8.3057404377476288e-02
2965:7.9312302331552495e-02
2966:7.4190871434835451e-02
2967:7.0076188898641451e-02
2968:8.3895658715345531e-02
2969:8.0144576256390890e-02
2970:7.5002570770314442e-02
2971:7.0862561947635364e-02
2972:8.4256190394137412e-02
2973:8.0514760851389630e-02
2974:7.5375865826798435e-02
2975:7.1231191655847528e-02
2976:6.6992675702220492e-02
2977:6.2615551343219417e-02
2978:5.6557893776639806e-02
2979:5.1638360486253330e-02
2980:6.7811724194576123e-02
2981:6.3390607732747531e-02
2982:5.7266438729979718e-02
2983:5.2289032809320297e-02
2984:6.8581307588702886e-02
2985:6.4123037201186658e-02
2986:5.7939608407140547e-02
2987:5.2908702327877956e-02
2988:6.8945045475807126e-02
2989:6.4473654535113931e-02
2990:5.8265689381465424e-02
2991:5.3210485391663544e-02
2992:4.8912769817430521e-02
2993:4.3551401919337054e-02
2994:3.6047535427358057e-02
2995:2.9892622093379548e-02
2996:4.9530196797276958e-02
2997:4.4102187590509670e-02
2998:3.6503160023442283e-02
2999:3.0269099166190347e-02
3000:5.0118578812577738e-02
3001:4.4627295622809877e-02
3002:3.6937089457031773e-02
3003:3.0626725814974748e-02
3004:5.0405560646734938e-02
3005:4.4883755005507738e-02
3006:3.7148698097599915e-02
3007:3.0800314264568068e-02
3008:2.6462148886354016e-02
3009:1.9676337009218940e-02
3010:1.0107350539595014e-02
3011:2.2072983243670388e-03
3012:2.6794290383364203e-02
3013:1.9921624941409380e-02
3014:1.0232347504990380e-02
3015:2.2348755986661660e-03
3016:2.7109082380812107e-02
3017:2.0152875211638489e-02
3018:1.0348854487941518e-02
3019:2.2592982408464169e-03
3020:2.7261230570613505e-02
3021:2.0263577612623637e-02
3022:1.0403599193282298e-02
3023:2.2699949752483183e-03
3024:-2.5361448069798280e-02
3025:-2.3754210619302213e-01
3026:-4.6858621316050253e-01
3027:-6.0923759876664230e-01
3028:-7.0088146749979027e-02
3029:-2.7183572353388763e-01
3030:-5.0559940271926396e-01
3031:-6.5911481657771209e-01
3032:-7.1995871258238572e-02
3033:-2.4869040372420673e-01
3034:-4.6755580701499527e-01
3035:-6.2281908667921060e-01
3036:-5.5791334778752019e-02
3037:-2.1590297550018775e-01
3038:-4.1952089887389055e-01
3039:-5.6901524370133949e-01
3040:-6.7178558840652614e-01
3041:-7.8250088507603421e-01
3042:-9.2108825878115197e-01
3043:-1.0263109398833388e+00
3044:-7.3143014630914915e-01
3045:-8.5811245324674579e-01
3046:-1.0086971156973696e+00
3047:-1.1138271572657592e+00
3048:-7.0013152008412416e-01
3049:-8.3512167476274890e-01
3050:-9.9079612641274695e-01
3051:-1.0936467668611547e+00
3052:-6.4540882975518776e-01
3053:-7.7847493654400812e-01
3054:-9.3011228193815154e-01
3055:-1.0284958799281509e+00
3056:-1.0822747116014326e+00
3057:-1.1741201644368970e+00
3058:-1.2685065759902052e+00
3059:-1.3243844489402756e+00
3060:-1.1659667980365869e+00
3061:-1.2476964968956530e+00
3062:-1.3233101635114981e+00
3063:-1.3597977360300475e+00
3064:-1.1420894087619049e+00
3065:-1.2159460972255123e+00
3066:-1.2794255006534954e+00
3067:-1.3043616728295295e+00
3068:-1.0741257656194585e+00
3069:-1.1437898111392912e+00
3070:-1.2037637895805398e+00
3071:-1.2269856735684890e+00
3072:-1.3485389665940581e+00
3073:-1.3721010473773947e+00
3074:-1.3606495206992879e+00
3075:-1.3223156932338493e+00
3076:-1.3719829310284497e+00
3077:-1.3761865967445501e+00
3078:-1.3468159810664240e+00
3079:-1.3003231973047846e+00
3080:-1.3096832399375515e+00
3081:-1.3053883550284544e+00
3082:-1.2741137018845301e+00
3083:-1.2326114956914882e+00
3084:-1.2317269332597909e+00
3085:-1.2293214126504399e+00
3086:-1.2059589331625988e+00
3087:-1.1738418731449662e+00
3088:-1.2926887945015761e+00
3089:-1.2282349356994815e+00
3090:-1.1277809344650835e+00
3091:-1.0376877949836676e+00
3092:-1.2682996988527602e+00
3093:-1.2027524879325540e+00
3094:-1.1071452536796778e+00
3095:-1.0252417599450236e+00
3096:-1.2052361280027666e+00
3097:-1.1499062963811666e+00
3098:-1.0703679907021615e+00
3099:-1.0031067933210147e+00
3100:-1.1522790756799339e+00
3101:-1.1073761475034403e+00
3102:-1.0408458630068378e+00
3103:-9.8378001666817427e-01
3104:-9.8550129227537253e-01
3105:-8.9085623613310494e-01
3106:-7.7555664233007215e-01
3107:-6.9291849388734883e-01
3108:-9.7869754041006329e-01
3109:-8.9338123458798613e-01
3110:-7.8769462903273790e-01
3111:-7.1107884150503609e-01
3112:-9.6504187641233041e-01
3113:-8.9318693175084285e-01
3114:-7.9994756974032788e-01
3115:-7.2939229371308933e-01
3116:-9.5132413778692082e-01
3117:-8.8854935988569672e-01
3118:-8.0399120154122139e-01
3119:-7.3772458066752811e-01
3120:-6.5068076905423733e-01
3121:-5.7355625436900282e-01
3122:-4.7741537551350710e-01
3123:-4.0766777567985246e-01
3124:-6.7174313402244501e-01
3125:-5.9935379318636872e-01
3126:-5.0793565417841779e-01
3127:-4.4068542033105307e-01
3128:-6.9228573657106041e-01
3129:-6.2405855554550327e-01
3130:-5.3823794852423024e-01
3131:-4.7525861860874768e-01
3132:-7.0217412828840542e-01
3133:-6.3708001434630324e-01
3134:-5.5585701166685486e-01
3135:-4.9657328873237744e-01
3136:-3.7213806820865836e-01
3137:-3.1017424856775550e-01
3138:-2.3822836525552918e-01
3139:-1.8929263753749781e-01
3140:-4.0610409266355302e-01
3141:-3.4551326267137633e-01
3142:-2.7463588550314688e-01
3143:-2.2597483735782301e-01
3144:-4.4285952012648444e-01
3145:-3.8542810668026584e-01
3146:-3.1686316631437228e-01
3147:-2.6875350694538502e-01
3148:-4.6609630525225387e-01
3149:-4.1142793595549504e-01
3150:-3.4492562524973042e-01
3151:-2.9745954195868657e-01
3152:-1.6519859750361798e-01
3153:-1.2300072432541673e-01
3154:-7.3699774331803969e-02
3155:-4.0288114707690635e-02
3156:-2.0183888391244667e-01
3157:-1.5926010992911666e-01
3158:-1.0897331595290409e-01
3159:-7.4520081474744371e-02
3160:-2.4455483937132774e-01
3161:-2.0169479347366820e-01
3162:-1.5080678202742936e-01
3163:-1.1570336646464834e-01
3164:-2.7336708112241292e-01
3165:-2.3068728071459663e-01
3166:-1.7996427875591314e-01
3167:-1.4482974165099680e-01
3168:-2.4014023434991431e-02
3169:3.8686090790432241e-03
3170:3.5368611029201288e-02
3171:5.6043426883329965e-02
3172:-5.7621113709446774e-02
3173:-2.8535548238440317e-02
3174:4.6118362976136839e-03
3175:2.6642297994312145e-02
3176:-9.8384280012455388e-02
3177:-6.8313763730208019e-02
3178:-3.3519871920904269e-02
3179:-9.9843170257580254e-03
3180:-1.2740354260433293e-01
3181:-9.6894229721724082e-02
3182:-6.1142086756268511e-02
3183:-3.6661676899440582e-02
3184:6.5933593816248331e-02
3185:8.2815791869500055e-02
3186:1.0171301990074787e-01
3187:1.1387471339502180e-01
3188:3.7295089357441677e-02
3189:5.5636038400277893e-02
3190:7.6450992521033503e-02
3191:9.0066637151923312e-02
3192:1.5396668021961024e-03
3193:2.1515142087502655e-02
3194:4.4439590946287293e-02
3195:5.9656953789515653e-02
3196:-2.4590061008770918e-02
3197:-3.6037985361799521e-03
3198:2.0622336386645231e-02
3199:3.6855232359146860e-02
3200:1.1957044228849988e-01
3201:1.2908538297113500e-01
3202:1.3935732294699033e-01
3203:1.4568273335842044e-01
3204:9.6522525607665222e-02
3205:1.0741685139709059e-01
3206:1.1940942046233109e-01
3207:1.2700818018016269e-01
3208:6.6961607580385399e-02
3209:7.9435651657098663e-02
3210:9.3460895861525839e-02
3211:1.0259392470274872e-01
3212:4.4716125150365001e-02
3213:5.8255131605196707e-02
3214:7.3689450089238343e-02
3215:8.3899391389337732e-02
3216:1.4854503540414299e-01
3217:1.5319686988900619e-01
3218:1.5793708919668722e-01
3219:1.6058688317450520e-01
3220:1.3053643904654005e-01
3221:1.3639793326888311e-01
3222:1.4263153323343297e-01
3223:1.4635861768251412e-01
3224:1.0692912357688479e-01
3225:1.1425453939273272e-01
3226:1.2229813176710512e-01
3227:1.2734037356288649e-01
3228:8.8800894928652480e-02
3229:9.7153488170733604e-02
3230:1.0647379757308999e-01
3231:1.1245515625507924e-01
3232:1.6166994133171617e-01
3233:1.6325665786858257e-01
3234:1.6451348074995939e-01
3235:1.6487873109729825e-01
3236:1.4799116942966040e-01
3237:1.5056239710925715e-01
3238:1.5301898391557447e-01
3239:1.5424515058788033e-01
3240:1.2964940237547629e-01
3241:1.3344271165342239e-01
3242:1.3740416551625256e-01
3243:1.3971860069548628e-01
3244:1.1525305236889731e-01
3245:1.1993688304032926e-01
3246:1.2500519353238260e-01
3247:1.2812492401896772e-01
3248:1.6487498413658216e-01
3249:1.6460947276649660e-01
3250:1.6378741433317992e-01
3251:1.6280132216982796e-01
3252:1.5468105345100677e-01
3253:1.5520209099589607e-01
3254:1.5533251877453988e-01
3255:1.5502229195382936e-01
3256:1.4071209005693350e-01
3257:1.4223306104875991e-01
3258:1.4358017571121356e-01
3259:1.4413893706534009e-01
3260:1.2953184495487474e-01
3261:1.3179624655266015e-01
3262:1.3405305497812137e-01
3263:1.3526642766338631e-01
3264:1.6215660470512100e-01
3265:1.6080413600300045e-01
3266:1.5877837583307786e-01
3267:1.5702775636583735e-01
3268:1.5471931817186910e-01
3269:1.5397581264301691e-01
3270:1.5268466087644292e-01
3271:1.5145409761341705e-01
3272:1.4427768596460380e-01
3273:1.4432435307390784e-01
3274:1.4399154510857246e-01
3275:1.4344289872119181e-01
3276:1.3573989202751965e-01
3277:1.3638754802430947e-01
3278:1.3678725039774259e-01
3279:1.3676220866846656e-01
3280:1.5602816737436423e-01
3281:1.5407806813798949e-01
3282:1.5139571765503362e-01
3283:1.4923169232899600e-01
3284:1.5071729496899339e-01
3285:1.4923440162090934e-01
3286:1.4711301175783126e-01
3287:1.4534369104913775e-01
3288:1.4305175476117390e-01
3289:1.4218524025679594e-01
3290:1.4080754135370135e-01
3291:1.3956436311609888e-01
3292:1.3663720872869653e-01
3293:1.3624668306301838e-01
3294:1.3544609151729881e-01
3295:1.3461341732203380e-01
3296:1.4804137104540818e-01
3297:1.4577129874154068e-01
3298:1.4274010968440831e-01
3299:1.4035910081483347e-01
3300:1.4435188740533308e-01
3301:1.4243404090610348e-01
3302:1.3982451543194491e-01
3303:1.3773916827451685e-01
3304:1.3883820498232186e-01
3305:1.3739302164573616e-01
3306:1.3535182789167877e-01
3307:1.3366691783314114e-01
3308:1.3409530466860300e-01
3309:1.3302126793256197e-01
3310:1.3142813480055676e-01
3311:1.3006031036834478e-01
3312:1.3906952887075555e-01
3313:1.3662879919323401e-01
3314:1.3340138195354828e-01
3315:1.3088918218818360e-01
3316:1.3659789942651879e-01
3317:1.3441941120128839e-01
3318:1.3150412468557926e-01
3319:1.2920933274379534e-01
3320:1.3272720261387624e-01
3321:1.3090628995235726e-01
3322:1.2841884785752675e-01
3323:1.2642378738532634e-01
3324:1.2928069380409635e-01
3325:1.2774466995258316e-01
3326:1.2559974721332307e-01
3327:1.2384590641775557e-01
3328:1.2953563442013089e-01
3329:1.2697572599517262e-01
3330:1.2359186161185230e-01
3331:1.2095846701893402e-01
3332:1.2796430936022921e-01
3333:1.2559553833746759e-01
3334:1.2243758620297460e-01
3335:1.1996016782130924e-01
3336:1.2532899257794083e-01
3337:1.2322576084342934e-01
3338:1.2038354807490054e-01
3339:1.1812567017633030e-01
3340:1.2287245824228051e-01
3341:1.2098439063614538e-01
3342:1.1839935477082744e-01
3343:1.1632138646385687e-01
3344:1.1953921527680628e-01
3345:1.1684489146856174e-01
3346:1.1326169021496130e-01
3347:1.1045685823500603e-01
3348:1.1861823094282509e-01
3349:1.1605906686789730e-01
3350:1.1263358276800756e-01
3351:1.0993598644023031e-01
3352:1.1689314012429049e-01
3353:1.1452628312201674e-01
3354:1.1132728737960002e-01
3355:1.0878538201631960e-01
3356:1.1517892292997521e-01
3357:1.1297110735109150e-01
3358:1.0996087145135040e-01
3359:1.0754989169907353e-01
3360:1.0893911857568307e-01
3361:1.0603882678109357e-01
3362:1.0214339800151659e-01
3363:9.9065539921084508e-02
3364:1.0847077925615128e-01
3365:1.0566123128960618e-01
3366:1.0186943978635990e-01
3367:9.8860142495961742e-02
3368:1.0739708733055653e-01
3369:1.0472159201509479e-01
3370:1.0108538184625990e-01
3371:9.8181129645889528e-02
3372:1.0622671382560464e-01
3373:1.0366551353482459e-01
3374:1.0016360310043566e-01
3375:9.7351415545385317e-02
3376:9.7389806382272112e-02
3377:9.4161707384196131e-02
3378:8.9774849494570763e-02
3379:8.6270865419733167e-02
3380:9.7217254658080746e-02
3381:9.4044582752206243e-02
3382:8.9718356501555407e-02
3383:8.6252230454445633e-02
3384:9.6589413927866352e-02
3385:9.3504757010098472e-02
3386:8.9278337776652075e-02
3387:8.5877664184081548e-02
3388:9.5805092625660976e-02
3389:9.2799556650350487e-02
3390:8.8665037935836410e-02
3391:8.5326500295062502e-02
3392:8.4349850747301475e-02
3393:8.0618523267151798e-02
3394:7.5487872277835044e-02
3395:7.1345864834438846e-02
3396:8.4348472512295602e-02
3397:8.0644751204923759e-02
3398:7.5541164522754056e-02
3399:7.1413307289481837e-02
3400:8.4005061576405499e-02
3401:8.0353853922610033e-02
3402:7.5307725266935535e-02
3403:7.1215827082196731e-02
3404:8.3484224015456299e-02
3405:7.9885581583830065e-02
3406:7.4900040932514927e-02
3407:7.0848789316285840e-02
3408:6.9059902067717255e-02
3409:6.4586894626575242e-02
3410:5.8373171072089843e-02
3411:5.3310877350512827e-02
3412:6.9132666529981956e-02
3413:6.4666260436174267e-02
3414:5.8454925531148352e-02
3415:5.3389945023054969e-02
3416:6.8951661903594696e-02
3417:6.4512328731362298e-02
3418:5.8329409716691663e-02
3419:5.3281295186762889e-02
3420:6.8604384294325443e-02
3421:6.4199615859507272e-02
3422:5.8057411929809163e-02
3423:5.3037474596620317e-02
3424:5.0501285249403609e-02
3425:4.4969520503387893e-02
3426:3.7219346476188360e-02
3427:3.0857882012183487e-02
3428:5.0577446358751194e-02
3429:4.5038478185529328e-02
3430:3.7275974920535429e-02
3431:3.0903099322784032e-02
3432:5.0476236321442533e-02
3433:4.4949913222072410e-02
3434:3.7202103272716558e-02
3435:3.0839544703307936e-02
3436:5.0246527178145359e-02
3437:4.4746393416640162e-02
3438:3.7032869148675825e-02
3439:3.0697065347189623e-02
3440:2.7311369738747749e-02
3441:2.0299552746191555e-02
3442:1.0420969489782973e-02
3443:2.2731896095170394e-03
3444:2.7349965093474496e-02
3445:2.0326079217828207e-02
3446:1.0433125344520148e-02
3447:2.2757677237901760e-03
3448:2.7291812130756016e-02
3449:2.0280007560276887e-02
3450:1.0407671025309890e-02
3451:2.2704214305758127e-03
3452:2.7163969765554481e-02
3453:2.0182212961342601e-02
3454:1.0355058352131939e-02
3455:2.2575350380366573e-03
3456:-4.8428012233089027e-02
3457:-2.0354310069789286e-01
3458:-4.0045362508614052e-01
3459:-5.4562618419595310e-01
3460:-3.9521959292841698e-02
3461:-1.8596299553523291e-01
3462:-3.6985423262445311e-01
3463:-5.0509673588303794e-01
3464:-3.4138485902422480e-02
3465:-1.6860833711216097e-01
3466:-3.3502671257160388e-01
3467:-4.5607351985483241e-01
3468:-3.2141411055720263e-02
3469:-1.5675167308837701e-01
3470:-3.1077433639513635e-01
3471:-4.2227238950383694e-01
3472:-6.2022188960157121e-01
3473:-7.4980834496298465e-01
3474:-8.9671231968286735e-01
3475:-9.9157842578339339e-01
3476:-5.7478930430510566e-01
3477:-6.9567327545974311e-01
3478:-8.3251590547861765e-01
3479:-9.2106022055868697e-01
3480:-5.1818117955847642e-01
3481:-6.2639471753995579e-01
3482:-7.5027636892261829e-01
3483:-8.3181382783280366e-01
3484:-4.7923689575492651e-01
3485:-5.7909330726857688e-01
3486:-6.9480255217167053e-01
3487:-7.7206304939133286e-01
3488:-1.0354929887855377e+00
3489:-1.1029996287834942e+00
3490:-1.1621253663884183e+00
3491:-1.1859572059976284e+00
3492:-9.6226931339652133e-01
3493:-1.0268730261482355e+00
3494:-1.0862778188303805e+00
3495:-1.1130887541097509e+00
3496:-8.7041037106178853e-01
3497:-9.3268821445507522e-01
3498:-9.9395868207470506e-01
3499:-1.0257256268894290e+00
3500:-8.0905658218388210e-01
3501:-8.6964305810744214e-01
3502:-9.3130349963949577e-01
3503:-9.6535902168100607e-01
3504:-1.1914326178456485e+00
3505:-1.1916511922902897e+00
3506:-1.1736650076741635e+00
3507:-1.1465963939832071e+00
3508:-1.1210263024700287e+00
3509:-1.1272659445331978e+00
3510:-1.1190409299467394e+00
3511:-1.1001504694390616e+00
3512:-1.0374066709115517e+00
3513:-1.0512270171720430e+00
3514:-1.0533700435049191e+00
3515:-1.0424979703572725e+00
3516:-9.7889532900193643e-01
3517:-9.9621778728754473e-01
3518:-1.0030601129924721e+00
3519:-9.9620237633421649e-01
3520:-1.1278373135424764e+00
3521:-1.0875896381600128e+00
3522:-1.0263416697462064e+00
3523:-9.7322918665907987e-01
3524:-1.0857193110946537e+00
3525:-1.0526476527640889e+00
3526:-9.9945865441086945e-01
3527:-9.5218576761367590e-01
3528:-1.0322607082953719e+00
3529:-1.0065864575199142e+00
3530:-9.6223915753320011e-01
3531:-9.2128376021471325e-01
3532:-9.8834513488684061e-01
3533:-9.6758231589629806e-01
3534:-9.3006293234856185e-01
3535:-8.9424808922598664e-01
3536:-9.4296652451927421e-01
3537:-8.8397872716375880e-01
3538:-8.0353443876340769e-01
3539:-7.3973122845740158e-01
3540:-9.2509382482506441e-01
3541:-8.7192930717031525e-01
3542:-7.9865329866375423e-01
3543:-7.3991721839978430e-01
3544:-8.9746666123667052e-01
3545:-8.5069612681288298e-01
3546:-7.8624702862695484e-01
3547:-7.3456904971425019e-01
3548:-8.7303816395983591e-01
3549:-8.3125993710061830e-01
3550:-7.7358624992464686e-01
3551:-7.2727921769532689e-01
3552:-7.0526187667888662e-01
3553:-6.4224487190098545e-01
3554:-5.6377478020860938e-01
3555:-5.0648815392154345e-01
3556:-7.0797678101386430e-01
3557:-6.4949075245917054e-01
3558:-5.7635222299907374e-01
3559:-5.2253200096471941e-01
3560:-7.0642767390011973e-01
3561:-6.5436631283792202e-01
3562:-5.8806697070787894e-01
3563:-5.3830097059716930e-01
3564:-7.0201475352309006e-01
3565:-6.5466853440021566e-01
3566:-5.9321257870788879e-01
3567:-5.4632372404171436e-01
3568:-4.7697775545855087e-01
3569:-4.2369297859319632e-01
3570:-3.5828052791359660e-01
3571:-3.1126509437134636e-01
3572:-4.9459259989839199e-01
3573:-4.4367412405057627e-01
3574:-3.8043234850849794e-01
3575:-3.3459510074210685e-01
3576:-5.1212015645048892e-01
3577:-4.6412759984054924e-01
3578:-4.0412804474329111e-01
3579:-3.6041028323788438e-01
3580:-5.2144928727177364e-01
3581:-4.7583258973306708e-01
3582:-4.1874221794862726e-01
3583:-3.7700661420353371e-01
3584:-2.8733286209509240e-01
3585:-2.4495334870051927e-01
3586:-1.9455685155288885e-01
3587:-1.5953911186731165e-01
3588:-3.1118700507251745e-01
3589:-2.6968096365488481e-01
3590:-2.2010866538611903e-01
3591:-1.8537927461848749e-01
3592:-3.3801692149289786e-01
3593:-2.9807618783258721e-01
3594:-2.4985001283010327e-01
3595:-2.1561621032262998e-01
3596:-3.5554399257342983e-01
3597:-3.1698066912394157e-01
3598:-2.6990777190898130e-01
3599:-2.3616206344609122e-01
3600:-1.4210273015765834e-01
3601:-1.1143136755358089e-01
3602:-7.5256068382434441e-02
3603:-5.0351876622968236e-02
3604:-1.6794835452779883e-01
3605:-1.3707566003589458e-01
3606:-1.0033179966151398e-01
3607:-7.4843383713212225e-02
3608:-1.9826782164889198e-01
3609:-1.6738106451466139e-01
3610:-1.3036145905058366e-01
3611:-1.0450071891829794e-01
3612:-2.1896918289781550e-01
3613:-1.8830746444709193e-01
3614:-1.5144085116781325e-01
3615:-1.2555925106195764e-01
3616:-3.8039611502865806e-02
3617:-1.6611041317251395e-02
3618:8.1954742861622062e-03
3619:2.4900661676784040e-02
3620:-6.2193760844312072e-02
3621:-4.0110375590318506e-02
3622:-1.4377083342735556e-02
3623:3.1237748854175138e-03
3624:-9.1605408435291830e-02
3625:-6.8960845810143279e-02
3626:-4.2296158394460721e-02
3627:-2.3929851950871554e-02
3628:-1.1259422520503932e-01
3629:-8.9699160285596671e-02
3630:-6.2505553443681514e-02
3631:-4.3610500447209669e-02
3632:3.3029670085203883e-02
3633:4.7091057602312379e-02
3634:6.3225803206458209e-02
3635:7.3972449771864790e-02
3636:1.1713575300930763e-02
3637:2.6667772887453704e-02
3638:4.3991799215513834e-02
3639:5.5648797047713208e-02
3640:-1.4829337473813072e-02
3641:1.1049333732454166e-03
3642:1.9727442838046019e-02
3643:3.2387058788780496e-02
3644:-3.4196429606946202e-02
3645:-1.7663690933848973e-02
3646:1.7590415321984709e-03
3647:1.5054853404339640e-02
3648:7.9155203960215290e-02
3649:8.8018756655787081e-02
3650:9.7978687853658097e-02
3651:1.0443609893897272e-01
3652:6.1310121505160832e-02
3653:7.1053414784541372e-02
3654:8.2133424263370836e-02
3655:8.9436109325260499e-02
3656:3.8583052054587626e-02
3657:4.9329989226911924e-02
3658:6.1721176652904566e-02
3659:7.0030848188076117e-02
3660:2.1600151976880640e-02
3661:3.3017960626777233e-02
3662:4.6306174619190295e-02
3663:5.5313092509597997e-02
3664:1.0748427432620843e-01
3665:1.1262628856432776e-01
3666:1.1826692862096744e-01
3667:1.2180423573236572e-01
3668:9.2931582439776020e-02
3669:9.8892588566102224e-02
3670:1.0555667587211787e-01
3671:1.0984209464632967e-01
3672:7.4062577704182550e-02
3673:8.1006018726605539e-02
3674:8.8901112585143396e-02
3675:9.4091853356904662e-02
3676:5.9716913305655928e-02
3677:6.7343592387777110e-02
3678:7.6100776030912518e-02
3679:8.1932659913471761e-02
3680:1.2342568809136116e-01
3681:1.2607672384392621e-01
3682:1.2880877796966766e-01
3683:1.3036607384419738e-01
3684:1.1184880102729670e-01
3685:1.1519726166974710e-01
3686:1.1879234503188697e-01
3687:1.2097808284585390e-01
3688:9.6567668521938085e-02
3689:1.0077125091854533e-01
3690:1.0543448610391132e-01
3691:1.0840423392057401e-01
3692:8.4743906208699565e-02
3693:8.9563016369513443e-02
3694:9.5001241925350755e-02
3695:9.8543216096629430e-02
3696:1.3101613687553326e-01
3697:1.3198161143819306e-01
3698:1.3276983253260372e-01
3699:1.3302326158863670e-01
3700:1.2195198444352560e-01
3701:1.2350109724069029e-01
3702:1.2500432176165527e-01
3703:1.2577154636338886e-01
3704:1.0978382227853072e-01
3705:1.1206588383147066e-01
3706:1.1447072378486603e-01
3707:1.1588907381954720e-01
3708:1.0021972476979840e-01
3709:1.0303988255612978e-01
3710:1.0611029258908765e-01
3711:1.0801244097554634e-01
3712:1.3304004101704561e-01
3713:1.3290358956449078e-01
3714:1.3241206774873146e-01
3715:1.3180003868250009e-01
3716:1.2605044009852118e-01
3717:1.2638481244946703e-01
3718:1.2646812814088232e-01
3719:1.2626802674146545e-01
3720:1.1650140342606204e-01
3721:1.1743676678937601e-01
3722:1.1825758038347060e-01
3723:1.1858866029493052e-01
3724:1.0887370305438694e-01
3725:1.1025919516400362e-01
3726:1.1163485397241073e-01
3727:1.1236729166202110e-01
3728:1.3139403038912553e-01
3729:1.3052031451957125e-01
3730:1.2916961902316348e-01
3731:1.2797383014402061e-01
3732:1.2607182477108267e-01
3733:1.2557363832502558e-01
3734:1.2467857184161804e-01
3735:1.2380698180578584e-01
3736:1.1866388973448830e-01
3737:1.1865279895154468e-01
3738:1.1835111743835834e-01
3739:1.1790359137303016e-01
3740:1.1264817824344177e-01
3741:1.1300715976130479e-01
3742:1.1315827882624890e-01
3743:1.1303587494852829e-01
3744:1.2728124245579381e-01
3745:1.2590037597694842e-01
3746:1.2394256145402807e-01
3747:1.2232092480817192e-01
3748:1.2327871230523739e-01
3749:1.2219133322195247e-01
3750:1.2058848502120192e-01
3751:1.1921846818928065e-01
3752:1.1759090795247375e-01
3753:1.1688959059575027e-01
3754:1.1575559988812534e-01
3755:1.1471943196540783e-01
3756:1.1288901215097641e-01
3757:1.1248536697625214e-01
3758:1.1171425248411800e-01
3759:1.1093752391773598e-01
3760:1.2141413454726335e-01
3761:1.1964448691874825e-01
3762:1.1720143817221913e-01
3763:1.1522315750481071e-01
3764:1.1843883597053420e-01
3765:1.1689553604250764e-01
3766:1.1472473598944274e-01
3767:1.1293826338846186e-01
3768:1.1410904805381505e-01
3769:1.1286788601673071e-01
3770:1.1106215784193643e-01
3771:1.0953417870108452e-01
3772:1.1045904230593853e-01
3773:1.0945399851591063e-01
3774:1.0793482542982046e-01
3775:1.0661071491176015e-01
3776:1.1413073397256364e-01
3777:1.1201151830731208e-01
3778:1.0910691046611663e-01
3779:1.0676957447481104e-01
3780:1.1194236123984615e-01
3781:1.0999446439258791e-01
3782:1.0729493969534543e-01
3783:1.0510126494409018e-01
3784:1.0866881641133377e-01
3785:1.0695340128355520e-01
3786:1.0453373301910779e-01
3787:1.0253735322525470e-01
3788:1.0584865188917497e-01
3789:1.0431776814106511e-01
3790:1.0212134697070095e-01
3791:1.0028324610531414e-01
3792:1.0548316493916469e-01
3793:1.0298675570608032e-01
3794:9.9561495139643311e-02
3795:9.6802283379756854e-02
3796:1.0388683507763784e-01
3797:1.0151772406451687e-01
3798:9.8243984452528368e-02
3799:9.5590245314236461e-02
3800:1.0142224384722463e-01
3801:9.9229635765887073e-02
3802:9.6167688076952126e-02
3803:9.3662750649385951e-02
3804:9.9248147641054316e-02
3805:9.7198331249978648e-02
3806:9.4308928088421465e-02
3807:9.1926182657039834e-02
3808:9.5282246615048680e-02
3809:9.2322843407314489e-02
3810:8.8242556967603539e-02
3811:8.4941229908706936e-02
3812:9.4122826894418032e-02
3813:9.1256305617289993e-02
3814:8.7286303629467155e-02
3815:8.4061553777144749e-02
3816:9.2270081976624049e-02
3817:8.9536470421566400e-02
3818:8.5726235044265076e-02
3819:8.2614025239847566e-02
3820:9.0595254717805968e-02
3821:8.7972079489557001e-02
3822:8.4295922802498646e-02
3823:8.1279234975979692e-02
3824:8.3117326110033821e-02
3825:7.9550926353762708e-02
3826:7.4603368790668492e-02
3827:7.0578289409559833e-02
3828:8.2275808040780565e-02
3829:7.8777026082195820e-02
3830:7.3910450273075926e-02
3831:6.9942259781144683e-02
3832:8.0884966929055863e-02
3833:7.7487765485939081e-02
3834:7.2745114838100769e-02
3835:6.8865812831190587e-02
3836:7.9598695029869090e-02
3837:7.6289170495053335e-02
3838:7.1654944816338467e-02
3839:6.7854573547048130e-02
3840:6.8346876283691169e-02
3841:6.3965298598146314e-02
3842:5.7851337308530475e-02
3843:5.2851691390804395e-02
3844:6.7739497115189784e-02
3845:6.3409763984191805e-02
3846:5.7360312131827899e-02
3847:5.2408081929682764e-02
3848:6.6708494426072809e-02
3849:6.2462134974332985e-02
3850:5.6518616526905693e-02
3851:5.1645921777431006e-02
3852:6.5738029013674759e-02
3853:6.1567165924099020e-02
3854:5.5720883330013855e-02
3855:5.0922174261510481e-02
3856:5.0071174388160625e-02
3857:4.4590706720800212e-02
3858:3.6903421406224123e-02
3859:3.0588397478450838e-02
3860:4.9652308276993289e-02
3861:4.4218918216337541e-02
3862:3.6595117376482723e-02
3863:3.0330777023217723e-02
3864:4.8932219446323984e-02
3865:4.3579510966811869e-02
3866:3.6065503108169930e-02
3867:2.9889411804449855e-02
3868:4.8247932712816695e-02
3869:4.2971250975056281e-02
3870:3.5561244060965828e-02
3871:2.9469067382173350e-02
3872:2.7066734162290648e-02
3873:2.0108179147908287e-02
3874:1.0315254727680932e-02
3875:2.2472982521420659e-03
3876:2.6837083671487457e-02
3877:1.9934972385640164e-02
3878:1.0224506107457241e-02
3879:2.2270959221437395e-03
3880:2.6444542402809405e-02
3881:1.9640477421151745e-02
3882:1.0072028165849770e-02
3883:2.1951004120077033e-03
3884:2.6070688674640800e-02
3885:1.9359703849072547e-02
3886:9.9253758782623033e-03
3887:2.1616461505685270e-03
3888:-3.1064649348148458e-02
3889:-1.5017807523899851e-01
3890:-2.9831357951878557e-01
3891:-4.0579777677536233e-01
3892:-2.8965293261045959e-02
3893:-1.3829737120440366e-01
3894:-2.7616452888852105e-01
3895:-3.7703053727656799e-01
3896:-2.6330796943313767e-02
3897:-1.2441237230181415e-01
3898:-2.4990264330993872e-01
3899:-3.4284002047364287e-01
3900:-2.4538556073065019e-02
3901:-1.1539462644623034e-01
3902:-2.3186859257917705e-01
3903:-3.1855286824421808e-01
3904:-4.6068579756067057e-01
3905:-5.5719396900797924e-01
3906:-6.6957872865492540e-01
3907:-7.4495764451247359e-01
3908:-4.2866219176336057e-01
3909:-5.1982325827902709e-01
3910:-6.2663125708574829e-01
3911:-6.9863924197677074e-01
3912:-3.9072681442452600e-01
3913:-4.7553976184163843e-01
3914:-5.7534506542076280e-01
3915:-6.4295217518553793e-01
3916:-3.6342829431044288e-01
3917:-4.4303557581561592e-01
3918:-5.3703057547052513e-01
3919:-6.0108383557392830e-01
3920:-7.8114512877588127e-01
3921:-8.4057970273336047e-01
3922:-9.0150581035548627e-01
3923:-9.3564145504760510e-01
3924:-7.3330133847964163e-01
3925:-7.9038645079405412e-01
3926:-8.4932480817569100e-01
3927:-8.8282259722585588e-01
3928:-6.7561014888353510e-01
3929:-7.2961812242840252e-01
3930:-7.8585745779120153e-01
3931:-8.1826220309767983e-01
3932:-6.3221339903183349e-01
3933:-6.8409377409587380e-01
3934:-7.3889808146704117e-01
3935:-7.7112060412105621e-01
3936:-9.4943945984544575e-01
3937:-9.6729849343761520e-01
3938:-9.7520191755709329e-01
3939:-9.6976433788293359e-01
3940:-8.9659431603084594e-01
3941:-9.1477355373700941e-01
3942:-9.2423565869492874e-01
3943:-9.2130531260786230e-01
3944:-8.3179841752348838e-01
3945:-8.5040078745854597e-01
3946:-8.6227921751047765e-01
3947:-8.6274472452925899e-01
3948:-7.8486733680945697e-01
3949:-8.0463701479513339e-01
3950:-8.1932122365658022e-01
3951:-8.2265854571717534e-01
3952:-9.6297638819353926e-01
3953:-9.4476881201408081e-01
3954:-9.1123107705092166e-01
3955:-8.7858043181423007e-01
3956:-9.1643948279651999e-01
3957:-9.0273260671871702e-01
3958:-8.7619453109738354e-01
3959:-8.4923976143453639e-01
3960:-8.6024858126794312e-01
3961:-8.5162993148714439e-01
3962:-8.3266013835323860e-01
3963:-8.1199239350989860e-01
3964:-8.2185377977725971e-01
3965:-8.1640414195558486e-01
3966:-8.0170499861321998e-01
3967:-7.8460123112273561e-01
3968:-8.5898843953052872e-01
3969:-8.2015861952530700e-01
3970:-7.6618452160521122e-01
3971:-7.2259980680640024e-01
3972:-8.3263805746557362e-01
3973:-7.9917161488155952e-01
3974:-7.5169190958410270e-01
3975:-7.1269289610906872e-01
3976:-7.9882383015800151e-01
3977:-7.7151082042734620e-01
3978:-7.3138531407462315e-01
3979:-6.9748164953840974e-01
3980:-7.7347102775305565e-01
3981:-7.4992337018042665e-01
3982:-7.1448621022413994e-01
3983:-6.8397262628238287e-01
3984:-6.9873032706353910e-01
3985:-6.5364991117562776e-01
3986:-5.9455798549891670e-01
3987:-5.4916795830410725e-01
3988:-6.9111461411289510e-01
3989:-6.4987583235064716e-01
3990:-5.9506584590328881e-01
3991:-5.5258956852572760e-01
3992:-6.7842527483163029e-01
3993:-6.4166806379394203e-01
3994:-5.9231445710277597e-01
3995:-5.5379333063056069e-01
3996:-6.6665025646515519e-01
3997:-6.3314480762959646e-01
3998:-5.8797383391169322e-01
3999:-5.5253224858449412e-01
4000:-5.2502961505020929e-01
4001:-4.8079476784172559e-01
4002:-4.2541836615718093e-01
4003:-3.8482590757207807e-01
4004:-5.2993262443289835e-01
4005:-4.8838659194396200e-01
4006:-4.3619549190647744e-01
4007:-3.9766016052818021e-01
4008:-5.3317591194485303e-01
4009:-4.9516574857947621e-01
4010:-4.4693734698498344e-01
4011:-4.1090055107597945e-01
4012:-5.3347762541574373e-01
4013:-4.9808168768726679e-01
4014:-4.5268763125900507e-01
4015:-4.1845684455620585e-01
4016:-3.6387928328230945e-01
4017:-3.2606737903784733e-01
4018:-2.7963209569892716e-01
4019:-2.4619437700204333e-01
4020:-3.7763333417668454e-01
4021:-3.4122392203208957e-01
4022:-2.9611313107195897e-01
4023:-2.6341821641471630e-01
4024:-3.9200825437887166e-01
4025:-3.5746717798339217e-01
4026:-3.1436427853233195e-01
4027:-2.8293297725143335e-01
4028:-4.0042439832258253e-01
4029:-3.6739685417134404e-01
4030:-3.2605438823621391e-01
4031:-2.9577599784006953e-01
4032:-2.2912821932792563e-01
4033:-1.9868155447699071e-01
4034:-1.6202139599884657e-01
4035:-1.3620744661028786e-01
4036:-2.4668671248246979e-01
4037:-2.1678478759692399e-01
4038:-1.8062852868982968e-01
4039:-1.5499968510440612e-01
4040:-2.6679131393482458e-01
4041:-2.3781181977120608e-01
4042:-2.0248540398353765e-01
4043:-1.7720252259924008e-01
4044:-2.8016766358829398e-01
4045:-2.5200489195032716e-01
4046:-2.1741691425773221e-01
4047:-1.9248621289873602e-01
4048:-1.2323664285937745e-01
4049:-1.0025754080065798e-01
4050:-7.2840839129025142e-02
4051:-5.3713888550596146e-02
4052:-1.4204570588639223e-01
4053:-1.1898289860582940e-01
4054:-9.1279904191621589e-02
4055:-7.1834932661494710e-02
4056:-1.6433321687103242e-01
4057:-1.4132081448834624e-01
4058:-1.1350769058711307e-01
4059:-9.3862898983727905e-02
4060:-1.7974269357249784e-01
4061:-1.5690675202415177e-01
4062:-1.2920923509174470e-01
4063:-1.0955780632781537e-01
4064:-4.4163294391691449e-02
4065:-2.7368901812769183e-02
4066:-7.5878893094609443e-03
4067:6.0039012393996068e-03
4068:-6.2091629162169287e-02
4069:-4.4908429423454736e-02
4070:-2.4558328751014477e-02
4071:-1.0473316971241473e-02
4072:-8.3977790906485869e-02
4073:-6.6462854883269751e-02
4074:-4.5552882876412522e-02
4075:-3.0943675277534732e-02
4076:-9.9633128349495628e-02
4077:-8.1976441391907628e-02
4078:-6.0763424013568615e-02
4079:-4.5844619784336245e-02
4080:1.2716649720873165e-02
4081:2.4460684485844993e-02
4082:3.8190124348758764e-02
4083:4.7541210342148470e-02
4084:-3.4758216654558953e-03
4085:8.8223049601935232e-03
4086:2.3299640405303468e-02
4087:3.3234590982522537e-02
4088:-2.3635812316817603e-02
4089:-1.0734075940866972e-02
4090:4.5602455747366152e-03
4091:1.5139579438251158e-02
4092:-3.8349644553539931e-02
4093:-2.5081466764112718e-02
4094:-9.2819010107190597e-03
4095:1.7072820705488919e-03
4096:5.2128471227383510e-02
4097:6.0093122505176400e-02
4098:6.9280281001626864e-02
4099:7.5435495333763661e-02
4100:3.8133926846875735e-02
4101:4.6679290819298266e-02
4102:5.6616125512487452e-02
4103:6.3342270951780993e-02
4104:2.0387311606276735e-02
4105:2.9592139638411622e-02
4106:4.0399346620377349e-02
4107:4.7799601364331187e-02
4108:7.1817765989282125e-03
4109:1.6823852783012457e-02
4110:2.8220049202943378e-02
4111:3.6082501641428170e-02
4112:7.8417331772695040e-02
4113:8.3550694238783599e-02
4114:8.9386154920847935e-02
4115:9.3222191472556559e-02
4116:6.6627335029435561e-02
4117:7.2319785948450899e-02
4118:7.8862728388851638e-02
4119:8.3223453762714603e-02
4120:5.1445460257952970e-02
4121:5.7804483074605298e-02
4122:6.5194028725976599e-02
4123:7.0186092131336197e-02
4124:3.9976947825289579e-02
4125:4.6796997867728625e-02
4126:5.4776526043191831e-02
4127:6.0212900743776353e-02
4128:9.5051445028253051e-02
4129:9.8149129672917959e-02
4130:1.0156441409648782e-01
4131:1.0371858431112804e-01
4132:8.5325759743006380e-02
4133:8.8921499347315899e-02
4134:9.2959418576893937e-02
4135:9.5571199621251393e-02
4136:7.2618556136542070e-02
4137:7.6820127304872712e-02
4138:8.1621871447766545e-02
4139:8.4799325980846690e-02
4140:6.2879500864588017e-02
4141:6.7513226438177740e-02
4142:7.2863915606642710e-02
4143:7.6450442412012917e-02
4144:1.0471000441299429e-01
4145:1.0633131474616650e-01
4146:1.0799839573395033e-01
4147:1.0894215054964133e-01
4148:9.6799760836041776e-02
4149:9.8851330578170693e-02
4150:1.0105120060775483e-01
4151:1.0238217845647440e-01
4152:8.6322296762569056e-02
4153:8.8909347681820919e-02
4154:9.1774852467885082e-02
4155:9.3591728196708690e-02
4156:7.8187031544804164e-02
4157:8.1163802966047624e-02
4158:8.4516206413771916e-02
4159:8.6690533592030952e-02
4160:1.0933148506932842e-01
4161:1.0988599228217595e-01
4162:1.1027709795519905e-01
4163:1.1032758996525592e-01
4164:1.0297057801230941e-01
4165:1.0388476715627411e-01
4166:1.0471884256215908e-01
4167:1.0508957850362698e-01
4168:9.4430727754726593e-02
4169:9.5799172291865103e-02
4170:9.7195396541053719e-02
4171:9.7974505103981396e-02
4172:8.7714635144764838e-02
4173:8.9419655551906868e-02
4174:9.1234251939859068e-02
4175:9.2318604742537599e-02
4176:1.1026910909308334e-01
4177:1.1002436806405230e-01
4178:1.0944741661306585e-01
4179:1.0880985256201174e-01
4180:1.0519517288000302e-01
4181:1.0524587788165059e-01
4182:1.0503076494962274e-01
4183:1.0465319509040598e-01
4184:9.8289979403431760e-02
4185:9.8719517962353787e-02
4186:9.8970096184695849e-02
4187:9.8928486352803130e-02
4188:9.2791391010458316e-02
4189:9.3505602338077379e-02
4190:9.4107533410378197e-02
4191:9.4320495838058169e-02
4192:1.0840224813852430e-01
4193:1.0752430833750967e-01
4194:1.0615983037793587e-01
4195:1.0494611735030927e-01
4196:1.0437824138491958e-01
4197:1.0373861159535598e-01
4198:1.0266500682182782e-01
4199:1.0165951736307602e-01
4200:9.8825423112321162e-02
4201:9.8495408272846682e-02
4202:9.7801265514470798e-02
4203:9.7068614281595203e-02
4204:9.4348071634813346e-02
4205:9.4253962801152030e-02
4206:9.3850068422075328e-02
4207:9.3326968154491485e-02
4208:1.0424011264781406e-01
4209:1.0280956026701936e-01
4210:1.0073489331845641e-01
4211:9.8983412005169608e-02
4212:1.0105947396929026e-01
4213:9.9818933171482230e-02
4214:9.7975558783284483e-02
4215:9.6389183638302456e-02
4216:9.6607838057178125e-02
4217:9.5617738776054548e-02
4218:9.4080588389539213e-02
4219:9.2713884114861672e-02
4220:9.2973458464283190e-02
4221:9.2176782236443849e-02
4222:9.0877168231332559e-02
4223:8.9681666541563579e-02
4224:9.7992210139696834e-02
4225:9.6020934666476945e-02
4226:9.3226836796439408e-02
4227:9.0911902424092278e-02
4228:9.5481856730547404e-02
4229:9.3661023925046910e-02
4230:9.1050219308153144e-02
4231:8.8866288673898633e-02
4232:9.1918541187950564e-02
4233:9.0299265432198919e-02
4234:8.7935409562314742e-02
4235:8.5929072679169785e-02
4236:8.8973889264307521e-02
4237:8.7512723471274256e-02
4238:8.5343574721583285e-02
4239:8.3478042682774270e-02
4240:8.9615354998252864e-02
4241:8.7053888775508875e-02
4242:8.3453077169937828e-02
4243:8.0490409380229042e-02
4244:8.7636377135835095e-02
4245:8.5194909644907516e-02
4246:8.1741398749422836e-02
4247:7.8884963930417010e-02
4248:8.4789896453021929e-02
4249:8.2512558703126918e-02
4250:7.9261971657562658e-02
4251:7.6553030119254892e-02
4252:8.2411090401276837e-02
4253:8.0264916235926714e-02
4254:7.7177519293680566e-02
4255:7.4587993873176481e-02
4256:7.8837434261471204e-02
4257:7.5577949767169125e-02
4258:7.1006055543363727e-02
4259:6.7251412492443735e-02
4260:7.7286424397696313e-02
4261:7.4126173181242011e-02
4262:6.9678698828889593e-02
4263:6.6015964584574899e-02
4264:7.5030484956931737e-02
4265:7.2009514030337229e-02
4266:6.7738131089342110e-02
4267:6.4206602981635413e-02
4268:7.3127266149287010e-02
4269:7.0220103315604271e-02
4270:6.6093600998272051e-02
4271:6.2670785584663241e-02
4272:6.5158616019083404e-02
4273:6.1031928193146942e-02
4274:5.5242924079504423e-02
4275:5.0488080058472717e-02
4276:6.3971122866303839e-02
4277:5.9934005629094976e-02
4278:5.4261825791299310e-02
4279:4.9596948013158497e-02
4280:6.2230617216319443e-02
4281:5.8322755499114302e-02
4282:5.2820359949004581e-02
4283:4.8287103265735591e-02
4284:6.0752117421504617e-02
4285:5.6952276679356248e-02
4286:5.1592559037007567e-02
4287:4.7170477075110240e-02
4288:4.7837326618252268e-02
4289:4.2605995358264634e-02
4290:3.5258174547397790e-02
4291:2.9216261085823116e-02
4292:4.6994530361498255e-02
4293:4.1856705568933270e-02
4294:3.4637382950945358e-02
4295:2.8699494791535683e-02
4296:4.5755681804759168e-02
4297:4.0755505658307246e-02
4298:3.3725810641527763e-02
4299:2.7941708943268601e-02
4300:4.4699204553498295e-02
4301:3.9815834598087359e-02
4302:3.2947339472524047e-02
4303:2.7294135282011474e-02
4304:2.5845746662094715e-02
4305:1.9190468362843299e-02
4306:9.8362074893667325e-03
4307:2.1398864178048950e-03
4308:2.5386682575784653e-02
4309:1.8846641834369002e-02
4310:9.6576964472116552e-03
4311:2.1002826618463847e-03
4312:2.4714256744723096e-02
4313:1.8344469195591014e-02
4314:9.3991982994036313e-03
4315:2.0460510711429263e-03
4316:2.4139370526040031e-02
4317:1.7914403120470310e-02
4318:9.1760139255805447e-03
4319:1.9959620715368858e-03
4320:-2.3691079993410077e-02
4321:-1.1123758780306986e-01
4322:-2.2301404970005906e-01
4323:-3.0614266101030879e-01
4324:-2.2058091619891491e-02
4325:-1.0394638383193038e-01
4326:-2.0764144762242634e-01
4327:-2.8452097211366129e-01
4328:-1.9905880789028024e-02
4329:-9.5130850117850316e-02
4330:-1.8977815007719268e-01
4331:-2.5969643877297727e-01
4332:-1.8352182051742695e-02
4333:-8.8777288061666570e-02
4334:-1.7757441357827833e-01
4335:-2.4321934985236726e-01
4336:-3.4923662530370386e-01
4337:-4.2575861963802020e-01
4338:-5.1636166998650590e-01
4339:-5.7842677448417079e-01
4340:-3.2441523001445260e-01
4341:-3.9542529460097792e-01
4342:-4.8001908267236465e-01
4343:-5.3856057149981384e-01
4344:-2.9596563066489895e-01
4345:-3.6077132416616930e-01
4346:-4.3860799436226072e-01
4347:-4.9307587355485516e-01
4348:-2.7727107954732305e-01
4349:-3.3829447838595222e-01
4350:-4.1194233839271793e-01
4351:-4.6371807128100923e-01
4352:-6.0875273504430039e-01
4353:-6.5963893474015611e-01
4354:-7.1406686711507550e-01
4355:-7.4662295198459838e-01
4356:-5.6744740573765851e-01
4357:-6.1651158395913785e-01
4358:-6.7016934120890670e-01
4359:-7.0325346130459787e-01
4360:-5.2021045928159115e-01
4361:-5.6683095427989338e-01
4362:-6.1891924546385724e-01
4363:-6.5199752968297631e-01
4364:-4.8958800361407789e-01
4365:-5.3419357151942459e-01
4366:-5.8441513114731147e-01
4367:-6.1669325173511258e-01
4368:-7.6074758872025139e-01
4369:-7.8161669535924394e-01
4370:-7.9824709175589104e-01
4371:-8.0322215567546240e-01
4372:-7.1802192348921645e-01
4373:-7.4068141393219633e-01
4374:-7.6040368461795127e-01
4375:-7.6797743994596657e-01
4376:-6.6716384934902573e-01
4377:-6.9109356338063221e-01
4378:-7.1327040546434417e-01
4379:-7.2316214297108494e-01
4380:-6.3166127313442810e-01
4381:-6.5550851020167644e-01
4382:-6.7820329318759731e-01
4383:-6.8905457168957462e-01
4384:-8.0326158313523566e-01
4385:-7.9921578756670453e-01
4386:-7.8620065026735242e-01
4387:-7.7048367603850487e-01
4388:-7.6937013967436907e-01
4389:-7.6765076063188853e-01
4390:-7.5753580693550382e-01
4391:-7.4422071928268829e-01
4392:-7.2588848910574721e-01
4393:-7.2676326972999372e-01
4394:-7.2029387155698588e-01
4395:-7.1006062664912972e-01
4396:-6.9251500963205626e-01
4397:-6.9514420013639600e-01
4398:-6.9153425065614793e-01
4399:-6.8378171369002394e-01
4400:-7.6018086898712212e-01
4401:-7.3824274334200379e-01
4402:-7.0496412848557055e-01
4403:-6.7612948333894130e-01
4404:-7.3533577928537763e-01
4405:-7.1618824215895061e-01
4406:-6.8673391359728586e-01
4407:-6.6093998590131386e-01
4408:-7.0294020014419167e-01
4409:-6.8723832202958668e-01
4410:-6.6249567012363153e-01
4411:-6.4045541888030921e-01
4412:-6.7803921150636903e-01
4413:-6.6495681786368466e-01
4414:-6.4368507488070770e-01
4415:-6.2434128410799505e-01
4416:-6.5970720203708122e-01
4417:-6.2792818331838307e-01
4418:-5.8500026282763373e-01
4419:-5.5118618193385738e-01
4420:-6.4616749061999024e-01
4421:-6.1750349202890065e-01
4422:-5.7854374235620942e-01
4423:-5.4757684032995535e-01
4424:-6.2771972440780888e-01
4425:-6.0280208858566198e-01
4426:-5.6849047100920214e-01
4427:-5.4084315039205377e-01
4428:-6.1304681510213299e-01
4429:-5.9071871475107218e-01
4430:-5.5956677761798956e-01
4431:-5.3420329280249990e-01
4432:-5.3293726967929256e-01
4433:-4.9886690272462231e-01
4434:-4.5490264451387591e-01
4435:-4.2161054377201884e-01
4436:-5.3073665292774852e-01
4437:-4.9903760329789354e-01
4438:-4.5773231430969002e-01
4439:-4.2624666753699758e-01
4440:-5.2566788264329212e-01
4441:-4.9688994780790618e-01
4442:-4.5904728635864933e-01
4443:-4.2999450512236648e-01
4444:-5.2020599882548502e-01
4445:-4.9357956441038997e-01
4446:-4.5839705803048580e-01
4447:-4.3123938559019781e-01
4448:-4.0404573294627638e-01
4449:-3.7186646266879420e-01
4450:-3.3153485914697961e-01
4451:-3.0191809431375655e-01
4452:-4.0959299440180191e-01
4453:-3.7903747188598014e-01
4454:-3.4059679950376126e-01
4455:-3.1220133775738912e-01
4456:-4.1456976196137646e-01
4457:-3.8614601567313200e-01
4458:-3.5011609384310288e-01
4459:-3.2326834273770033e-01
4460:-4.1676150610560592e-01
4461:-3.8994623926180494e-01
4462:-3.5570662490623212e-01
4463:-3.3002386050618915e-01
4464:-2.8661002433589783e-01
4465:-2.5890466747525720e-01
4466:-2.2473919253865210e-01
4467:-2.0003046638002697e-01
4468:-2.9744813537749315e-01
4469:-2.7061773121843646e-01
4470:-2.3732111486243057e-01
4471:-2.1311487794010575e-01
4472:-3.0923147812608881e-01
4473:-2.8359100295793077e-01
4474:-2.5158103845609142e-01
4475:-2.2818165637568238e-01
4476:-3.1654496462514903e-01
4477:-2.9187118722909600e-01
4478:-2.6096289746049600e-01
4479:-2.3827752411771805e-01
4480:-1.8737956412160547e-01
4481:-1.6469014783840311e-01
4482:-1.3712190967282614e-01
4483:-1.1751141754924327e-01
4484:-2.0068795644134024e-01
4485:-1.7835227438899473e-01
4486:-1.5110263684924105e-01
4487:-1.3161395407153764e-01
4488:-2.1612776583478641e-01
4489:-1.9437775101175897e-01
4490:-1.6766707709296716e-01
4491:-1.4842050814609775e-01
4492:-2.2655490226053476e-01
4493:-2.0532468555502714e-01
4494:-1.7910705103344518e-01
4495:-1.6011176179818024e-01
4496:-1.0758500630569565e-01
4497:-8.9885607286947763e-02
4498:-6.8551988783102827e-02
4499:-5.3501504611260499e-02
4500:-1.2170638525876926e-01
4501:-1.0397694021112662e-01
4502:-8.2496978648241459e-02
4503:-6.7267568887171600e-02
4504:-1.3858392076921378e-01
4505:-1.2091811778306485e-01
4506:-9.9402724593074213e-02
4507:-8.4064732351039465e-02
4508:-1.5037018563816951e-01
4509:-1.3283762903561805e-01
4510:-1.1141178348920246e-01
4511:-9.6076822200535317e-02
4512:-4.5926068651448396e-02
4513:-3.2497956843156775e-02
4514:-1.6471206927472799e-02
4515:-5.2912137215187088e-03
4516:-5.9578162679478720e-02
4517:-4.5911940105513437e-02
4518:-2.9525994577648259e-02
4519:-1.8031135938957343e-02
4520:-7.6291503869756694e-02
4521:-6.2423517839510355e-02
4522:-4.5690228921708306e-02
4523:-3.3867215390565052e-02
4524:-8.8281756652022619e-02
4525:-7.4331612249447121e-02
4526:-5.7417572364880085e-02
4527:-4.5405878869365902e-02
4528:2.9140344639389367e-04
4529:1.0144442341386990e-02
4530:2.1827914434418942e-02
4531:2.9917058980530053e-02
4532:-1.2266643364127198e-02
4533:-2.0578261075991314e-03
4534:1.0111429655583785e-02
4535:1.8585422331303444e-02
4536:-2.7907695819592428e-02
4537:-1.7314844450445840e-02
4538:-4.6158387487130496e-03
4539:4.2835436174841115e-03
4540:-3.9330623491964492e-02
4541:-2.8506251973655833e-02
4542:-1.5479691988437643e-02
4543:-6.3097218463275435e-03
4544:3.3933599263189708e-02
4545:4.0981044505963814e-02
4546:4.9253947553120715e-02
4547:5.4913381900087460e-02
4548:2.2810028138019158e-02
4549:3.0248248355797220e-02
4550:3.9031469321836446e-02
4551:4.5083059530245738e-02
4552:8.7407175831425137e-03
4553:1.6622052236260010e-02
4554:2.5994941258347087e-02
4555:3.2506524416409666e-02
4556:-1.7016068609123683e-03
4557:6.4719870282070801e-03
4558:1.6241142705151472e-02
4559:2.3066020959115044e-02
4560:5.7698327353910464e-02
4561:6.2551261062531310e-02
4562:6.8181529090389506e-02
4563:7.1977051730402794e-02
4564:4.8077269704446056e-02
4565:5.3318446880419555e-02
4566:5.9444960823849952e-02
4567:6.3612426905261185e-02
4568:3.5748049886669679e-02
4569:4.1449491760292903e-02
4570:4.8167213990732025e-02
4571:5.2780475957549949e-02
4572:2.6477025807213100e-02
4573:3.2495354996423240e-02
4574:3.9623370450820837e-02
4575:4.4548881474276568e-02
4576:7.3822958415208098e-02
4577:7.6999662315122702e-02
4578:8.0602905403915029e-02
4579:8.2962234786915792e-02
4580:6.5653303006212263e-02
4581:6.9187796603207091e-02
4582:7.3242227995435297e-02
4583:7.5935951009384356e-02
4584:5.5056136384766280e-02
4585:5.9023769483634872e-02
4586:6.3628530743174927e-02
4587:6.6732931679768709e-02
4588:4.6990102348204915e-02
4589:5.1264821485471783e-02
4590:5.6262546102418917e-02
4591:5.9662010037853562e-02
4592:8.4082441107213982e-02
4593:8.5962554076471853e-02
4594:8.7995376526318475e-02
4595:8.9239355864935394e-02
4596:7.7230379807379984e-02
4597:7.9428395696971091e-02
4598:8.1858329783892556e-02
4599:8.3393503298183402e-02
4600:6.8242185819767098e-02
4601:7.0833202796458064e-02
4602:7.3756013477964941e-02
4603:7.5654192746105686e-02
4604:6.1326153784800164e-02
4605:6.4201391785856293e-02
4606:6.7482401950427803e-02
4607:6.9645809647313470e-02
4608:8.9794543538337226e-02
4609:9.0658138823325352e-02
4610:9.1444978241606648e-02
4611:9.1792328719595168e-02
4612:8.4099278231636210e-02
4613:8.5236423777882639e-02
4614:8.6362924164943289e-02
4615:8.6957919672781381e-02
4616:7.6548282792023095e-02
4617:7.8028566856921805e-02
4618:7.9583097968072031e-02
4619:8.0491603212499971e-02
4620:7.0678006511760261e-02
4621:7.2410718685880254e-02
4622:7.4281531196468117e-02
4623:7.5422704139208013e-02
4624:9.1889013264360830e-02
4625:9.1919902718593030e-02
4626:9.1670178724519477e-02
4627:9.1258672784798794e-02
4628:8.7182219814723655e-02
4629:8.7444293036564397e-02
4630:8.7480396834880944e-02
4631:8.7276323094888933e-02
4632:8.0877940069757182e-02
4633:8.1434271326449065e-02
4634:8.1835571599665466e-02
4635:8.1897614065118307e-02
4636:7.5929630268011514e-02
4637:7.6705514606502739e-02
4638:7.7380398700379452e-02
4639:7.7642659597493072e-02
4640:9.0962388670215485e-02
4641:9.0269086332296217e-02
4642:8.9096784163021206e-02
4643:8.7993322958599643e-02
4644:8.7086605430712602e-02
4645:8.6586165664122153e-02
4646:8.5652083651068300e-02
4647:8.4721382064261122e-02
4648:8.1845002124480926e-02
4649:8.1593377063356051e-02
4650:8.0967943487024061e-02
4651:8.0262087427715900e-02
4652:7.7693509463705263e-02
4653:7.7630147784180051e-02
4654:7.7239212694953818e-02
4655:7.6704918576428929e-02
4656:8.7332722662387605e-02
4657:8.5956910636465128e-02
4658:8.3893205519187664e-02
4659:8.2104187974034487e-02
4660:8.4149523805770954e-02
4661:8.2934591812707251e-02
4662:8.1070271024245091e-02
4663:7.9426434641380245e-02
4664:7.9806084406806810e-02
4665:7.8801808878582777e-02
4666:7.7199782909536566e-02
4667:7.5747888734325822e-02
4668:7.6337574439547626e-02
4669:7.5494966560584645e-02
4670:7.4095142810196163e-02
4671:7.2791919561079443e-02
4672:8.1076577682321446e-02
4673:7.9002024230936302e-02
4674:7.6004076337598814e-02
4675:7.3480271627343857e-02
4676:7.8473653910170846e-02
4677:7.6535657110005040e-02
4678:7.3708910701032651e-02
4679:7.1311398254605154e-02
4680:7.4894382712919982e-02
4681:7.3138173825683064e-02
4682:7.0540550866585172e-02
4683:6.8312997550400475e-02
4684:7.2015559681668923e-02
4685:7.0401063107150552e-02
4686:6.7982919311038947e-02
4687:6.5889165921675333e-02
4688:7.2053660185420532e-02
4689:6.9209472196097563e-02
4690:6.5163458861538570e-02
4691:6.1801283290814447e-02
4692:6.9950526882061756e-02
4693:6.7228006282517350e-02
4694:6.3338111665082519e-02
4695:6.0094018875553476e-02
4696:6.7040930254407508e-02
4697:6.4483349957435085e-02
4698:6.0806229900286758e-02
4699:5.7723923033979288e-02
4700:6.4687244763025772e-02
4701:6.2260362290044446e-02
4702:5.8752633147931811e-02
4703:5.5799716714781296e-02
4704:5.9914671459390341e-02
4705:5.6175377811895369e-02
4706:5.0895879036562092e-02
4707:4.6536480402237838e-02
4708:5.8269989726144077e-02
4709:5.4649158353994302e-02
4710:4.9527084353819729e-02
4711:4.5291036001282883e-02
4712:5.5985930770492610e-02
4713:5.2528422775198827e-02
4714:4.7624241534868141e-02
4715:4.3559529093749730e-02
4716:5.4130735509169234e-02
4717:5.0804545469017463e-02
4718:4.6076132283057840e-02
4719:4.2150039267467035e-02
4720:4.4099177700581041e-02
4721:3.9281831742164076e-02
4722:3.2504538235824304e-02
4723:2.6925440222498428e-02
4724:4.2920687573717850e-02
4725:3.8233591914105858e-02
4726:3.1636397400365814e-02
4727:2.6203742478342017e-02
4728:4.1282373198354948e-02
4729:3.6776774818865002e-02
4730:3.0430847337338553e-02
4731:2.5202680232747590e-02
4732:3.9948409125605225e-02
4733:3.5590029737196958e-02
4734:2.9448104723921398e-02
4735:2.4386068072283041e-02
4736:2.3811835676792476e-02
4737:1.7668822428321237e-02
4738:9.0473805732032928e-03
4739:1.9650712764548630e-03
4740:2.3171496233309819e-02
4741:1.7190394899954730e-02
4742:8.7997890461346973e-03
4743:1.9102264750883479e-03
4744:2.2284073657507751e-02
4745:1.6528971847307995e-02
4746:8.4601742706877075e-03
4747:1.8389802170028422e-03
4748:2.1559803998414121e-02
4749:1.5988227190738218e-02
4750:8.1804621743846208e-03
4751:1.7767071373185755e-03
4752:-1.7600504919145152e-02
4753:-8.5514335888744006e-02
4754:-1.7153585601091029e-01
4755:-2.3529083252339789e-01
4756:-1.6474730808505745e-02
4757:-7.9914069594884632e-02
4758:-1.6092817638388310e-01
4759:-2.2127971772785365e-01
4760:-1.5404430327357103e-02
4761:-7.3566307147441876e-02
4762:-1.4833202216745212e-01
4763:-2.0431215819325421e-01
4764:-1.4715366004653434e-02
4765:-6.9311205338462689e-02
4766:-1.3948619745522503e-01
4767:-1.9208892813814110e-01
4768:-2.6838229850591694e-01
4769:-3.2776584103617790e-01
4770:-3.9954645193193195e-01
4771:-4.5003618431291520e-01
4772:-2.5265843383856329e-01
4773:-3.0909005656017507e-01
4774:-3.7746649017325634e-01
4775:-4.2560434096457184e-01
4776:-2.3349182828336604e-01
4777:-2.8608675453617810e-01
4778:-3.5001181570813639e-01
4779:-3.9513793131519936e-01
4780:-2.1954816823650294e-01
4781:-2.6911746048522239e-01
4782:-3.2954974791559299e-01
4783:-3.7239475896589286e-01
4784:-4.7525453352858993e-01
4785:-5.1872116219456255e-01
4786:-5.6767997079758281e-01
4787:-5.9921045541020090e-01
4788:-4.4963763320966671e-01
4789:-4.9105313220367447e-01
4790:-5.3775835830879570e-01
4791:-5.6795256729146237e-01
4792:-4.1770421911900585e-01
4793:-4.5669081031229292e-01
4794:-5.0090219645715484e-01
4795:-5.2972639828676205e-01
4796:-3.9390248851935256e-01
4797:-4.3124662076119497e-01
4798:-4.7396553173010930e-01
4799:-5.0211389004881335e-01
4800:-6.1386923845848540e-01
4801:-6.3727373445635960e-01
4802:-6.5976998123647601e-01
4803:-6.7087074760128218e-01
4804:-5.8205437358034762e-01
4805:-6.0468844421690915e-01
4806:-6.2687576134024603e-01
4807:-6.3842795367927863e-01
4808:-5.4329660813777914e-01
4809:-5.6531319970390037e-01
4810:-5.8750336887810972e-01
4811:-5.9973637438990224e-01
4812:-5.1548155377722760e-01
4813:-5.3740894287443153e-01
4814:-5.5998570398745595e-01
4815:-5.7283634236270897e-01
4816:-6.7463865551673374e-01
4817:-6.7814549653913436e-01
4818:-6.7610686084651339e-01
4819:-6.6974056004253668e-01
4820:-6.4272353446720598e-01
4821:-6.4769280858136569e-01
4822:-6.4824805803183416e-01
4823:-6.4418751843236388e-01
4824:-6.0464791396380035e-01
4825:-6.1114790192747115e-01
4826:-6.1429840162326477e-01
4827:-6.1257767551632059e-01
4828:-5.7816800747225816e-01
4829:-5.8555665447753980e-01
4830:-5.9009694615650299e-01
4831:-5.8966080386870057e-01
4832:-6.6475673494498899e-01
4833:-6.5308398610909346e-01
4834:-6.3362121897829182e-01
4835:-6.1564225816085383e-01
4836:-6.4048020407918460e-01
4837:-6.3120194444853106e-01
4838:-6.1484932123446334e-01
4839:-5.9924091317802997e-01
4840:-6.1020551698782111e-01
4841:-6.0350440239781333e-01
4842:-5.9062301727129285e-01
4843:-5.7774223578242156e-01
4844:-5.8806074408439757e-01
4845:-5.8292264329096022e-01
4846:-5.7226854295676333e-01
4847:-5.6121648037179950e-01
4848:-6.0506447965910770e-01
4849:-5.8400897717041578e-01
4850:-5.5440619644470757e-01
4851:-5.3018391985878788e-01
4852:-5.8991595212889125e-01
4853:-5.7111271782445516e-01
4854:-5.4429642431610969e-01
4855:-5.2214768846990545e-01
4856:-5.6988529532725984e-01
4857:-5.5378524705802179e-01
4858:-5.3040130631380111e-01
4859:-5.1083170449332782e-01
4860:-5.5436816562682090e-01
4861:-5.4017437300418658e-01
4862:-5.1927104295420312e-01
4863:-5.0157529709260984e-01
4864:-5.1679023185620809e-01
4865:-4.9128999470992052e-01
4866:-4.5752363824033071e-01
4867:-4.3137348873613202e-01
4868:-5.0985234118215972e-01
4869:-4.8638436794301981e-01
4870:-4.5515090697008065e-01
4871:-4.3079780172363075e-01
4872:-4.9989613192720656e-01
4873:-4.7890412376640895e-01
4874:-4.5071385366443445e-01
4875:-4.2852321476384436e-01
4876:-4.9161946213107915e-01
4877:-4.7238511492607960e-01
4878:-4.4633470878172660e-01
4879:-4.2567938897073543e-01
4880:-4.1739274071173021e-01
4881:-3.9141459973838771e-01
4882:-3.5810642673835186e-01
4883:-3.3304246590780967e-01
4884:-4.1770665444893446e-01
4885:-3.9325055671834480e-01
4886:-3.6168004807460169e-01
4887:-3.3779783082020032e-01
4888:-4.1651630240080234e-01
4889:-3.9396572451546091e-01
4890:-3.6465037645632453e-01
4891:-3.4233960881125375e-01
4892:-4.1445750097212986e-01
4893:-3.9332116402738737e-01
4894:-3.6572573400309316e-01
4895:-3.4462777634758546e-01
4896:-3.1986857185022033e-01
4897:-2.9573327550293238e-01
4898:-2.6544926050657053e-01
4899:-2.4316982532984821e-01
4900:-3.2521244032092789e-01
4901:-3.0210772918785717e-01
4902:-2.7300525883092064e-01
4903:-2.5148994581506412e-01
4904:-3.3054070138974617e-01
4905:-3.0879655687276647e-01
4906:-2.8123496628944578e-01
4907:-2.6071803545469002e-01
4908:-3.3343387419675152e-01
4909:-3.1272784439752538e-01
4910:-2.8633890718210492e-01
4911:-2.6659320485666654e-01
4912:-2.3163401963992983e-01
4913:-2.1069805966044117e-01
4914:-1.8476738717075575e-01
4915:-1.6593013084889349e-01
4916:-2.4030682014571175e-01
4917:-2.1994051421268671e-01
4918:-1.9459437811246061e-01
4919:-1.7610168340694971e-01
4920:-2.5000264797853539e-01
4921:-2.3041892502013117e-01
4922:-2.0592430649204382e-01
4923:-1.8796533772524712e-01
4924:-2.5624803988820283e-01
4925:-2.3730096054606714e-01
4926:-2.1352498199318157e-01
4927:-1.9602968187321354e-01
4928:-1.5625502729647001e-01
4929:-1.3882452927642264e-01
4930:-1.1748581671030102e-01
4931:-1.0217934651703162e-01
4932:-1.6657932752503862e-01
4933:-1.4938702988595273e-01
4934:-1.2826204740617980e-01
4935:-1.1304195913325170e-01
4936:-1.7868840098476579e-01
4937:-1.6188351364803988e-01
4938:-1.4112291858909601e-01
4939:-1.2607665214295280e-01
4940:-1.8696840529092729e-01
4941:-1.7050753456237869e-01
4942:-1.5008402615918767e-01
4943:-1.3521758939148362e-01
4944:-9.4385166703945103e-02
4945:-8.0413365627601929e-02
4946:-6.3431068306614699e-02
4947:-5.1341015775270803e-02
4948:-1.0526606631083832e-01
4949:-9.1288217264344468e-02
4950:-7.4228781519689133e-02
4951:-6.2033507325769156e-02
4952:-1.1835784539034513e-01
4953:-1.0444053663670211e-01
4954:-8.7377982583165245e-02
4955:-7.5122332841570549e-02
4956:-1.2756962283409604e-01
4957:-1.1375260822731249e-01
4958:-9.6760159832632531e-02
4959:-8.4512284923696127e-02
4960:-4.5216437353977977e-02
4961:-3.4291228927005167e-02
4962:-2.1117242795987281e-02
4963:-1.1821520858261526e-02
4964:-5.5838928445188257e-02
4965:-4.4763441299460340e-02
4966:-3.1357242909324116e-02
4967:-2.1855648523840865e-02
4968:-6.8876703921763510e-02
4969:-5.7674975007362198e-02
4970:-4.4047268152923258e-02
4971:-3.4334364596405820e-02
4972:-7.8254836461893337e-02
4973:-6.7004385618666673e-02
4974:-5.3265169057261245e-02
4975:-4.3433312062590032e-02
4976:-7.1418346749007626e-03
4977:1.1718752616954650e-03
4978:1.1133184627839680e-02
4979:1.8111109709981647e-02
4980:-1.7056675101115405e-02
4981:-8.5081439473970438e-03
4982:1.7773344906377195e-03
4983:9.0151900066849366e-03
4984:-2.9409223384351840e-02
4985:-2.0609335253781537e-02
4986:-9.9712327709084326e-03
4987:-2.4459202179471871e-03
4988:-3.8434281309917044e-02
4989:-2.9483884586767123e-02
4990:-1.8628134038497432e-02
4991:-1.0920172013377211e-02
4992:2.1605168750700156e-02
4993:2.7779488620370951e-02
4994:3.5111027224673533e-02
4995:4.0192730039140860e-02
4996:1.2650993322543345e-02
4997:1.9093471857479966e-02
4998:2.6778494827044093e-02
4999:3.2133941000368142e-02
5000:1.3484595733745804e-03
5001:8.0947439986139031e-03
5002:1.6186921231923859e-02
5003:2.1861989032411572e-02
5004:-7.0231372336376800e-03
5005:-7.7259510180751310e-05
5006:8.2872021021557218e-03
5007:1.4178943598155538e-02
5008:4.2717242453452306e-02
5009:4.7146990364566030e-02
5010:5.2343950794558010e-02
5011:5.5893553115439400e-02
5012:3.4805169857049352e-02
5013:3.9508595238723049e-02
5014:4.5058351021927963e-02
5015:4.8874691780055851e-02
5016:2.4705759208883019e-02
5017:2.9732298847951609e-02
5018:3.5701052159452580e-02
5019:3.9836255444835204e-02
5020:1.7140487597628398e-02
5021:2.2388751029709962e-02
5022:2.8647424879544081e-02
5023:3.3005240844946007e-02
5024:5.7636670683648833e-02
5025:6.0657172136216644e-02
5026:6.4121968547865546e-02
5027:6.6422027272809339e-02
5028:5.0758455228417633e-02
5029:5.4038443175256169e-02
5030:5.7833022623476525e-02
5031:6.0379347957005905e-02
5032:4.1888940003974202e-02
5033:4.5482089743312235e-02
5034:4.9677414089737887e-02
5035:5.2524909019819113e-02
5036:3.5176588714845379e-02
5037:3.8990855127382783e-02
5038:4.3471102514363341e-02
5039:4.6534055885443168e-02
5040:6.7525580959428011e-02
5041:6.9388979785503985e-02
5042:7.1423999395537494e-02
5043:7.2686299072593455e-02
5044:6.1611839713143761e-02
5045:6.3711783355164392e-02
5046:6.6044771593362445e-02
5047:6.7527457420154924e-02
5048:5.3915688378675060e-02
5049:5.6306827722499050e-02
5050:5.9008187305764202e-02
5051:6.0764569414920457e-02
5052:4.8038490510344582e-02
5053:5.0639384078886143e-02
5054:5.3607408114717280e-02
5055:5.5562961497682813e-02
5056:7.3256114357973981e-02
5057:7.4146705791255318e-02
5058:7.4964933149955268e-02
5059:7.5332413588902136e-02
5060:6.8211913325880058e-02
5061:6.9312021279266556e-02
5062:7.0392869549844458e-02
5063:7.0953722060133076e-02
5064:6.1591848361004058e-02
5065:6.2953780170195831e-02
5066:6.4364324195965342e-02
5067:6.5169053654519846e-02
5068:5.6494548859587643e-02
5069:5.8048299389626801e-02
5070:5.9701494842136292e-02
5071:6.0686524431602551e-02
5072:7.5437746720152854e-02
5073:7.5473698552757429e-02
5074:7.5206795319537209e-02
5075:7.4763493662831748e-02
5076:7.1159388995944803e-02
5077:7.1378546203182708e-02
5078:7.1341052807931155e-02
5079:7.1066522606497193e-02
5080:6.5501639350904362e-02
5081:6.5953158424005232e-02
5082:6.6207820581006493e-02
5083:6.6149149684112910e-02
5084:6.1113216467532296e-02
5085:6.1737497756911702e-02
5086:6.2210303457568623e-02
5087:6.2313524347171842e-02
5088:7.4443260013624432e-02
5089:7.3686717664033244e-02
5090:7.2394853085334332e-02
5091:7.1171251117174705e-02
5092:7.0833838557911172e-02
5093:7.0237553483376472e-02
5094:6.9147324781691583e-02
5095:6.8072900876354744e-02
5096:6.6028774773943907e-02
5097:6.5638666613165531e-02
5098:6.4809007187388704e-02
5099:6.3928245329982536e-02
5100:6.2277635034925845e-02
5101:6.2043066063635660e-02
5102:6.1410825054813357e-02
5103:6.0677431040324657e-02
5104:7.0436293719638596e-02
5105:6.8898000910929014e-02
5106:6.6576660318550959e-02
5107:6.4555295288646897e-02
5108:6.7415680621362176e-02
5109:6.6020757630424920e-02
5110:6.3882105306204237e-02
5111:6.1997783090057677e-02
5112:6.3372253609210477e-02
5113:6.2164574278430168e-02
5114:6.0265581242334679e-02
5115:5.8561851239562833e-02
5116:6.0198694122208282e-02
5117:5.9134314894594760e-02
5118:5.7419513330438800e-02
5119:5.5855168977691716e-02
5120:6.3391402834463983e-02
5121:6.1035512828401632e-02
5122:5.7620054505042900e-02
5123:5.4737814658131170e-02
5124:6.0906036727476583e-02
5125:5.8685097974101270e-02
5126:5.5445550376260574e-02
5127:5.2698431880430899e-02
5128:5.7565462677949743e-02
5129:5.5523390604565716e-02
5130:5.2517942866284278e-02
5131:4.9951341225518364e-02
5132:5.4932585891363787e-02
5133:5.3029305518386284e-02
5134:5.0206172652646791e-02
5135:4.7780646016215761e-02
5136:5.3106595310137221e-02
5137:4.9852361896930028e-02
5138:4.5220446405029549e-02
5139:4.1370586728687181e-02
5140:5.1139534936143420e-02
5141:4.8023316118200626e-02
5142:4.3576851618577023e-02
5143:3.9873755736030483e-02
5144:4.8489299888872080e-02
5145:4.5558280830445684e-02
5146:4.1361337083563654e-02
5147:3.7856176854710204e-02
5148:4.6394462395586727e-02
5149:4.3608745638728894e-02
5150:3.9608026117792412e-02
5151:3.6258843940327933e-02
5152:3.9210532632325469e-02
5153:3.4933234721451489e-02
5154:2.8903721986602484e-02
5155:2.3933260716644533e-02
5156:3.7793824022910948e-02
5157:3.3672865758644588e-02
5158:2.7860231177124384e-02
5159:2.3066518341823092e-02
5160:3.5884449564139949e-02
5161:3.1974774564839666e-02
5162:2.6455454971682800e-02
5163:2.1900904179129013e-02
5164:3.4372483791646542e-02
5165:3.0629592329043744e-02
5166:2.5341943237866687e-02
5167:2.0976362274229346e-02
5168:2.1157903397415141e-02
5169:1.5687458472653928e-02
5170:8.0234347387634526e-03
5171:1.7393321934987085e-03
5172:2.0389428481933675e-02
5173:1.5114135552555670e-02
5174:7.7273150723119145e-03
5175:1.6738133736721023e-03
5176:1.9356802565200573e-02
5177:1.4345481979548361e-02
5178:7.3332895667828808e-03
5179:1.5911535267625219e-03
5180:1.8537349263189999e-02
5181:1.3734517258143441e-02
5182:7.0179577311470726e-03
5183:1.5213219689254834e-03
5184:-1.4337801053900803e-02
5185:-6.7211815514897702e-02
5186:-1.3501687506238441e-01
5187:-1.8580392461561132e-01
5188:-1.3515043989667004e-02
5189:-6.3383544099553393e-02
5190:-1.2708608593841378e-01
5191:-1.7472981150943276e-01
5192:-1.2338013496011872e-02
5193:-5.8632273476744025e-02
5194:-1.1764016708589720e-01
5195:-1.6174201870583668e-01
5196:-1.1481738030543892e-02
5197:-5.5236010122620388e-02
5198:-1.1109288633809862e-01
5199:-1.5288773066508932e-01
5200:-2.1232553740864973e-01
5201:-2.6024180400460434e-01
5202:-3.1878062391403861e-01
5203:-3.6042177443169193e-01
5204:-1.9962170051387351e-01
5205:-2.4466436754576296e-01
5206:-2.9990180885898177e-01
5207:-3.3942329893016543e-01
5208:-1.8479539254246261e-01
5209:-2.2659416698867157e-01
5210:-2.7806662118168735e-01
5211:-3.1510134970611270e-01
5212:-1.7474860743972104e-01
5213:-2.1443943137085991e-01
5214:-2.6342402131917964e-01
5215:-2.9874801069544799e-01
5216:-3.8139046936466869e-01
5217:-4.1793947636893747e-01
5218:-4.6001540275844410e-01
5219:-4.8794209573598651e-01
5220:-3.5942995285798074e-01
5221:-3.9452513070315642e-01
5222:-4.3535182875537826e-01
5223:-4.6277348403374025e-01
5224:-3.3393819274273229e-01
5225:-3.6716692000078616e-01
5226:-4.0618791724607661e-01
5227:-4.3268806550594169e-01
5228:-3.1674245176272448e-01
5229:-3.4854490041631697e-01
5230:-3.8602736971262636e-01
5231:-4.1160865580013878e-01
5232:-5.0127877088573392e-01
5233:-5.2329711241408727e-01
5234:-5.4621160696799376e-01
5235:-5.5942117545023684e-01
5236:-4.7598863062134122e-01
5237:-4.9803299719464794e-01
5238:-5.2137247598460135e-01
5239:-5.3510870784715558e-01
5240:-4.4557021183816381e-01
5241:-4.6727338093837617e-01
5242:-4.9066516529862636e-01
5243:-5.0476874137772609e-01
5244:-4.2409731188112987e-01
5245:-4.4524751196400952e-01
5246:-4.6829886308591301e-01
5247:-4.8244950185994279e-01
5248:-5.6495764923432379e-01
5249:-5.7272555995614072e-01
5250:-5.7781254701665674e-01
5251:-5.7789668856417709e-01
5252:-5.4096518321326925e-01
5253:-5.4936333050504926e-01
5254:-5.5541656940972495e-01
5255:-5.5643703929223454e-01
5256:-5.1091885458356112e-01
5257:-5.2001228581030967e-01
5258:-5.2728305284770804e-01
5259:-5.2950589429374118e-01
5260:-4.8873761102396407e-01
5261:-4.9827914050473004e-01
5262:-5.0646061450471636e-01
5263:-5.0959397266396267e-01
5264:-5.7662657611414603e-01
5265:-5.7218724567892232e-01
5266:-5.6257860355866318e-01
5267:-5.5241542892692386e-01
5268:-5.5575770033191108e-01
5269:-5.5255613370249868e-01
5270:-5.4477889138431301e-01
5271:-5.3616230747223981e-01
5272:-5.2956815879296426e-01
5273:-5.2787997945212151e-01
5274:-5.2228181554944464e-01
5275:-5.1547414604358355e-01
5276:-5.1020305989932280e-01
5277:-5.0960274493176438e-01
5278:-5.0553072206099792e-01
5279:-4.9997000414175558e-01
5280:-5.4606642305437370e-01
5281:-5.3283221332012032e-01
5282:-5.1319543284815639e-01
5283:-4.9645775774822981e-01
5284:-5.3067981180914769e-01
5285:-5.1911259710483870e-01
5286:-5.0168575882394995e-01
5287:-4.8663233186632321e-01
5288:-5.1099786663821867e-01
5289:-5.0136117304799244e-01
5290:-4.8650321411948255e-01
5291:-4.7343236693669277e-01
5292:-4.9618293483344800e-01
5293:-4.8786138404658502e-01
5294:-4.7475568536707480e-01
5295:-4.6305419716784574e-01
5296:-4.8699961860006230e-01
5297:-4.6865150369325909e-01
5298:-4.4367801340223445e-01
5299:-4.2380427556392591e-01
5300:-4.7805541501941262e-01
5301:-4.6129105940338455e-01
5302:-4.3826564744612312e-01
5303:-4.1981820856556207e-01
5304:-4.6590723758193164e-01
5305:-4.5106547982079009e-01
5306:-4.3045093903857867e-01
5307:-4.1378619773866798e-01
5308:-4.5626633377494624e-01
5309:-4.4279578949263465e-01
5310:-4.2393131622050295e-01
5311:-4.0856901559033998e-01
5312:-4.1298834520953337e-01
5313:-3.9259282897918119e-01
5314:-3.6590846046202391e-01
5315:-3.4545357437403362e-01
5316:-4.0974511189802970e-01
5317:-3.9069956276762480e-01
5318:-3.6566762786076273e-01
5319:-3.4637761148199869e-01
5320:-4.0464141159332934e-01
5321:-3.8727017208076697e-01
5322:-3.6427493311874432e-01
5323:-3.4642405510245383e-01
5324:-4.0010056786676895e-01
5325:-3.8394192496387836e-01
5326:-3.6241873363423666e-01
5327:-3.4561675162965855e-01
5328:-3.3457859826842012e-01
5329:-3.1441867725023687e-01
5330:-2.8864971066536854e-01
5331:-2.6931883261567163e-01
5332:-3.3608165148723484e-01
5333:-3.1692416914823346e-01
5334:-2.9231395601365084e-01
5335:-2.7377218071206139e-01
5336:-3.3684939049908114e-01
5337:-3.1896227132484012e-01
5338:-2.9585619037934613e-01
5339:-2.7835812015495298e-01
5340:-3.3657453220165251e-01
5341:-3.1963929195466351e-01
5342:-2.9768017874446168e-01
5343:-2.8098597997727637e-01
5344:-2.5917677257469246e-01
5345:-2.4058329682813256e-01
5346:-2.1721159792788022e-01
5347:-1.9997872920107448e-01
5348:-2.6402013461453838e-01
5349:-2.4610381563516509e-01
5350:-2.2350345587371009e-01
5351:-2.0677136265831358e-01
5352:-2.6912556762786366e-01
5353:-2.5210757596288391e-01
5354:-2.3052800751709662e-01
5355:-2.1446304565434191e-01
5356:-2.7215395434812556e-01
5357:-2.5582747670124534e-01
5358:-2.3503662832426245e-01
5359:-2.1949468905680189e-01
5360:-1.9103941853476078e-01
5361:-1.7477469288652778e-01
5362:-1.5454887959085808e-01
5363:-1.3979467160425302e-01
5364:-1.9806585966882198e-01
5365:-1.8218429906407865e-01
5366:-1.6235938357687879e-01
5367:-1.4784454246527431e-01
5368:-2.0607308695144341e-01
5369:-1.9072185737578634e-01
5370:-1.7147619753761603e-01
5371:-1.5732446915663423e-01
5372:-2.1135666937269848e-01
5373:-1.9643722880776918e-01
5374:-1.7767670012715536e-01
5375:-1.6383727980561708e-01
5376:-1.3219444411410405e-01
5377:-1.1845006119280173e-01
5378:-1.0151938257154183e-01
5379:-8.9292913555940698e-02
5380:-1.4035045684254374e-01
5381:-1.2677122821827955e-01
5382:-1.0998998493491542e-01
5383:-9.7827209282837654e-02
5384:-1.4999693313332385e-01
5385:-1.3668226786845311e-01
5386:-1.2015479296162414e-01
5387:-1.0811870299547408e-01
5388:-1.5665522171221641e-01
5389:-1.4357528573617101e-01
5390:-1.2728309686447445e-01
5391:-1.1537661454581338e-01
5392:-8.3037611180449528e-02
5393:-7.1776401622995492e-02
5394:-5.7997092216305869e-02
5395:-4.8116789371818833e-02
5396:-9.1588108912742092e-02
5397:-8.0330877353045227e-02
5398:-6.6510078547358450e-02
5399:-5.6565723048823534e-02
5400:-1.0192429290703413e-01
5401:-9.0718841751862081e-02
5402:-7.6907828230792091e-02
5403:-6.6929562312337237e-02
5404:-1.0923476414566100e-01
5405:-9.8104563859165855e-02
5406:-8.4348209724906947e-02
5407:-7.4379355473012193e-02
5408:-4.3086504421941639e-02
5409:-3.4070726348405515e-02
5410:-2.3117082796236699e-02
5411:-1.5324443170438891e-02
5412:-5.1491151548777876e-02
5413:-4.2378047128059523e-02
5414:-3.1270775638454956e-02
5415:-2.3340356362751249e-02
5416:-6.1823291829734055e-02
5417:-5.2629439635257874e-02
5418:-4.1377397262453069e-02
5419:-3.3307254227104656e-02
5420:-6.9266986214333290e-02
5421:-6.0043840505310163e-02
5422:-4.8721082781921041e-02
5423:-4.0573662698173404e-02
5424:-1.1378962285578309e-02
5425:-4.3378649778139707e-03
5426:4.1580736173021946e-03
5427:1.0155363909459836e-02
5428:-1.9314691462483411e-02
5429:-1.2114774800274600e-02
5430:-3.3974449427097925e-03
5431:2.7791349284719768e-03
5432:-2.9197688781944505e-02
5433:-2.1828902245783936e-02
5434:-1.2871292651613802e-02
5435:-6.4964274589004957e-03
5436:-3.6415511650471438e-02
5437:-2.8946226401074797e-02
5438:-1.9840620385522770e-02
5439:-1.3339921357838295e-02
5440:1.3174530890638751e-02
5441:1.8531783324952401e-02
5442:2.4934018780344343e-02
5443:2.9402907765020418e-02
5444:5.8967369501835131e-03
5445:1.1441390315255791e-02
5446:1.8092725301017815e-02
5447:2.2755897439076297e-02
5448:-3.2686506418342265e-03
5449:2.4881805735502810e-03
5450:9.4258466569126908e-03
5451:1.4315199016227303e-02
5452:-1.0040963830350188e-02
5453:-4.1451203401906859e-03
5454:2.9834062112776586e-03
5455:8.0256202023618640e-03
5456:3.1633761857630241e-02
5457:3.5559295540564202e-02
5458:4.0183563786909404e-02
5459:4.3355856879506362e-02
5460:2.5091316725542809e-02
5461:2.9212884653637926e-02
5462:3.4091839911430478e-02
5463:3.7458227884317921e-02
5464:1.6773207995683104e-02
5465:2.1125656845431984e-02
5466:2.6306596108604367e-02
5467:2.9904726551835844e-02
5468:1.0567096232034450e-02
5469:1.5077666167549970e-02
5470:2.0467235301932691e-02
5471:2.4226892676565557e-02
5472:4.4918103694252066e-02
5473:4.7625949201810722e-02
5474:5.0730458146112434e-02
5475:5.2788353789042668e-02
5476:3.9123369109341943e-02
5477:4.2022110908690014e-02
5478:4.5371254273145860e-02
5479:4.7613331761053611e-02
5480:3.1693303639325328e-02
5481:3.4822106418224766e-02
5482:3.8468017138828525e-02
5483:4.0934910649934937e-02
5484:2.6102014251262292e-02
5485:2.9392926029063682e-02
5486:3.3249395339543998e-02
5487:3.5876809323000414e-02
5488:5.3773680886989139e-02
5489:5.5426463716678857e-02
5490:5.7205312560846593e-02
5491:5.8283982338932137e-02
5492:4.8695617786209670e-02
5493:5.0527416684521820e-02
5494:5.2534047594227494e-02
5495:5.3782965560515129e-02
5496:4.2135997437514915e-02
5497:4.4187811317242504e-02
5498:4.6475690056541813e-02
5499:4.7935827624560570e-02
5500:3.7163047912179968e-02
5501:3.9373100737864049e-02
5502:4.1864313798114762e-02
5503:4.3477974761381800e-02
5504:5.8759642310584982e-02
5505:5.9473990703688605e-02
5506:6.0060857105316980e-02
5507:6.0248984056694280e-02
5508:5.4347833863427668e-02
5509:5.5226600449253371e-02
5510:5.6022333583249741e-02
5511:5.6366427122780526e-02
5512:4.8611735073795730e-02
5513:4.9695803987599665e-02
5514:5.0753574514629460e-02
5515:5.1294259377697923e-02
5516:4.4234880281733759e-02
5517:4.5469196180902824e-02
5518:4.6719651693814652e-02
5519:4.7405575340687442e-02
5520:6.0257495172000498e-02
5521:6.0104819694808395e-02
5522:5.9576811484343468e-02
5523:5.8921443104383187e-02
5524:5.6456667275246633e-02
5525:5.6455015366694575e-02
5526:5.6119769187817803e-02
5527:5.5609112407784829e-02
5528:5.1487833267161817e-02
5529:5.1677667633112635e-02
5530:5.1587876857072702e-02
5531:5.1262293355054986e-02
5532:4.7675722930821014e-02
5533:4.8007864541908959e-02
5534:4.8101284774546643e-02
5535:4.7914449282215152e-02
5536:5.8483685983086738e-02
5537:5.7495458117257002e-02
5538:5.5878804798252690e-02
5539:5.4388935262300354e-02
5540:5.5247506501736543e-02
5541:5.4401057118682629e-02
5542:5.2967654612755488e-02
5543:5.1617225046422341e-02
5544:5.0998361990662260e-02
5545:5.0334272199632338e-02
5546:4.9137547488634845e-02
5547:4.7967941021448295e-02
5548:4.7723956779453472e-02
5549:4.7197349789699118e-02
5550:4.6179766301914178e-02
5551:4.5147550761711210e-02
5552:5.3505856953039013e-02
5553:5.1676982922158353e-02
5554:4.8951810221447137e-02
5555:4.6602247403283850e-02
5556:5.0808246147879384e-02
5557:4.9119164211869799e-02
5558:4.6578465016140755e-02
5559:4.4372268622405488e-02
5560:4.7255303266777147e-02
5561:4.5748399049586115e-02
5562:4.3448908735247059e-02
5563:4.1430759548670877e-02
5564:4.4508293615679990e-02
5565:4.3140455101558679e-02
5566:4.1025667024684694e-02
5567:3.9151932514288244e-02
5568:4.5256964724480375e-02
5569:4.2549674738211640e-02
5570:3.8655016237159841e-02
5571:3.5390245985679164e-02
5572:4.3104283861647365e-02
5573:4.0545375911322831e-02
5574:3.6851679294539003e-02
5575:3.3747056275115803e-02
5576:4.0264359288501937e-02
5577:3.7900755271397024e-02
5578:3.4472108873906566e-02
5579:3.1579078549072458e-02
5580:3.8063685737621825e-02
5581:3.5850545727020490e-02
5582:3.2626467206280318e-02
5583:2.9897001676092518e-02
5584:3.3550116883853801e-02
5585:2.9897576008916675e-02
5586:2.4735466991049788e-02
5587:2.0472307184763783e-02
5588:3.1994700524564205e-02
5589:2.8513758713283627e-02
5590:2.3590169609824765e-02
5591:1.9521650618822023e-02
5592:2.9942806785406315e-02
5593:2.6688917888609782e-02
5594:2.2081075591388773e-02
5595:1.8270292424361560e-02
5596:2.8350542788001053e-02
5597:2.5272387875931362e-02
5598:2.0909013611305309e-02
5599:1.7297825171564623e-02
5600:1.8090254200213995e-02
5601:1.3400389225325189e-02
5602:6.8439257153005695e-03
5603:1.4801644710426675e-03
5604:1.7247850702552782e-02
5605:1.2772617826776642e-02
5606:6.5201743468723764e-03
5607:1.4086083572179061e-03
5608:1.6139845719441423e-02
5609:1.1948711700785930e-02
5610:6.0983811781338366e-03
5611:1.3201266096794148e-03
5612:1.5278395880473260e-02
5613:1.1307176205147191e-02
5614:5.7678743890225920e-03
5615:1.2472365953684018e-03
5616:-1.1081185257411389e-02
5617:-5.3534229146024903e-02
5618:-1.0784576919845830e-01
5619:-1.4853975200880357e-01
5620:-1.0476948921965192e-02
5621:-5.0602234226174554e-02
5622:-1.0211948229866839e-01
5623:-1.4081200123188070e-01
5624:-9.8826487852773804e-03
5625:-4.7209198425980745e-02
5626:-9.5263972128862034e-02
5627:-1.3143301830876566e-01
5628:-9.4828631502993071e-03
5629:-4.4855104433407809e-02
5630:-9.0400206241933748e-02
5631:-1.2469998515854583e-01
5632:-1.6983527781525568e-01
5633:-2.0852459363376524e-01
5634:-2.5630964862671846e-01
5635:-2.9078244040367701e-01
5636:-1.6107948951763199e-01
5637:-1.9794460802811462e-01
5638:-2.4354410952074057e-01
5639:-2.7647197813341712e-01
5640:-1.5040025835821669e-01
5641:-1.8495321256684613e-01
5642:-2.2779154004883351e-01
5643:-2.5879444775579169e-01
5644:-1.4269913062989065e-01
5645:-1.7552740836381669e-01
5646:-2.1631562862645318e-01
5647:-2.4591255789101690e-01
5648:-3.0834397980382527e-01
5649:-3.3938611707234684e-01
5650:-3.7599881413454278e-01
5651:-4.0102304739888378e-01
5652:-2.9325215276712269e-01
5653:-3.2293351003288662e-01
5654:-3.5800862276425049e-01
5655:-3.8205997083467852e-01
5656:-2.7461719012316038e-01
5657:-3.0266648542216118e-01
5658:-3.3595618845642122e-01
5659:-3.5891550376211984e-01
5660:-2.6104958075076468e-01
5661:-2.8795739489455252e-01
5662:-3.2004364583960898e-01
5663:-3.4229593221369004e-01
5664:-4.1325837095013485e-01
5665:-4.3402236606395017e-01
5666:-4.5677343074634935e-01
5667:-4.7087624817523110e-01
5668:-3.9385637167712700e-01
5669:-4.1395322452059302e-01
5670:-4.3618083297749599e-01
5671:-4.5018570858473195e-01
5672:-3.7023122795581392e-01
5673:-3.8961309996327664e-01
5674:-4.1129024070779613e-01
5675:-4.2518208162949939e-01
5676:-3.5330984354228678e-01
5677:-3.7225817008098416e-01
5678:-3.9361483485719967e-01
5679:-4.0743585595739090e-01
5680:-4.7721088103323539e-01
5681:-4.8696350489977247e-01
5682:-4.9561864084302587e-01
5683:-4.9922813924445297e-01
5684:-4.5658593060470110e-01
5685:-4.6666275074134561e-01
5686:-4.7606890497322157e-01
5687:-4.8044804019130882e-01
5688:-4.3163521743015143e-01
5689:-4.4200100397247249e-01
5690:-4.5211489707396324e-01
5691:-4.5725595405170921e-01
5692:-4.1390856871832787e-01
5693:-4.2440419203835317e-01
5694:-4.3487329072218239e-01
5695:-4.4043428259150785e-01
5696:-5.0011837322531294e-01
5697:-5.0007018413058224e-01
5698:-4.9676326183641695e-01
5699:-4.9182363612863611e-01
5700:-4.8179866361764867e-01
5701:-4.8267241378552178e-01
5702:-4.8067590316965114e-01
5703:-4.7682184849863807e-01
5704:-4.5907925059360216e-01
5705:-4.6093902937806358e-01
5706:-4.6041209339726835e-01
5707:-4.5781777295288745e-01
5708:-4.4253469631326370e-01
5709:-4.4500303876133690e-01
5710:-4.4543123319429018e-01
5711:-4.4368303746551013e-01
5712:-4.8837912387227977e-01
5713:-4.8070817047268916e-01
5714:-4.6846860771960791e-01
5715:-4.5744884603049357e-01
5716:-4.7398237507703445e-01
5717:-4.6746381420248867e-01
5718:-4.5676073098229947e-01
5719:-4.4694970738367079e-01
5720:-4.5569216769083515e-01
5721:-4.5054413341400995e-01
5722:-4.4167954825327621e-01
5723:-4.3331566570321989e-01
5724:-4.4204417277833036e-01
5725:-4.3784170668704342e-01
5726:-4.3026005020127533e-01
5727:-4.2291047202307486e-01
5728:-4.5103137797967829e-01
5729:-4.3825695240630241e-01
5730:-4.2028960484772721e-01
5731:-4.0559647627770723e-01
5732:-4.4118813700451948e-01
5733:-4.2964619328965031e-01
5734:-4.1326955613452693e-01
5735:-3.9976704103867994e-01
5736:-4.2833740936269971e-01
5737:-4.1826447275634837e-01
5738:-4.0378643124590030e-01
5739:-3.9171442350699132e-01
5740:-4.1848081913700785e-01
5741:-4.0943466463058487e-01
5742:-3.9628627359243296e-01
5743:-3.8522438868598186e-01
5744:-3.9747454510340907e-01
5745:-3.8193587236840432e-01
5746:-3.6116687680492215e-01
5747:-3.4490725394830979e-01
5748:-3.9226398875963331e-01
5749:-3.7783995982613822e-01
5750:-3.5843995371267673e-01
5751:-3.4317288479881092e-01
5752:-3.8496082595891368e-01
5753:-3.7190161908076758e-01
5754:-3.5420138090071168e-01
5755:-3.4017849101772207e-01
5756:-3.7900492784223977e-01
5757:-3.6692872231230872e-01
5758:-3.5046722615952314e-01
5759:-3.3735678171206851e-01
5760:-3.3614321528249458e-01
5761:-3.1970902908327348e-01
5762:-2.9835787962953220e-01
5763:-2.8209053077189761e-01
5764:-3.3491989796876598e-01
5765:-3.1940485869070212e-01
5766:-2.9916710864957841e-01
5767:-2.8368166614756352e-01
5768:-3.3256797125399762e-01
5769:-3.1820554053579791e-01
5770:-2.9936225366910751e-01
5771:-2.8485957545987162e-01
5772:-3.3021771452885590e-01
5773:-3.1670011263583403e-01
5774:-2.9888101589172295e-01
5775:-2.8510579459678348e-01
5776:-2.7347073428802859e-01
5777:-2.5751103002100162e-01
5778:-2.3714126244336009e-01
5779:-2.2188246513422721e-01
5780:-2.7545143051332460e-01
5781:-2.6017028040727264e-01
5782:-2.4058976930531012e-01
5783:-2.2586879241054653e-01
5784:-2.7712200927464459e-01
5785:-2.6270911893219928e-01
5786:-2.4415589365293597e-01
5787:-2.3014538872648466e-01
5788:-2.7773625207547442e-01
5789:-2.6397851662048233e-01
5790:-2.4621035283005127e-01
5791:-2.3274773014657302e-01
5792:-2.1388277136306180e-01
5793:-1.9920259019781511e-01
5794:-1.8071388511001904e-01
5795:-1.6705095243370971e-01
5796:-2.1813392862530942e-01
5797:-2.0391195874284776e-01
5798:-1.8594436281611221e-01
5799:-1.7262118808942706e-01
5800:-2.2276290616836550e-01
5801:-2.0915082598152634e-01
5802:-1.9187902385966585e-01
5803:-1.7901386843158962e-01
5804:-2.2563784967255818e-01
5805:-2.1249834580177154e-01
5806:-1.9576921579612389e-01
5807:-1.8326621880038244e-01
5808:-1.5995142710615520e-01
5809:-1.4700596196591853e-01
5810:-1.3085217383773501e-01
5811:-1.1902591025071560e-01
5812:-1.6568152667298894e-01
5813:-1.5300041267449688e-01
5814:-1.3712666621700781e-01
5815:-1.2546924315678290e-01
5816:-1.7229235359395709e-01
5817:-1.5997901663916736e-01
5818:-1.4450820875983675e-01
5819:-1.3310373342041246e-01
5820:-1.7671973320951051e-01
5821:-1.6470600450923506e-01
5822:-1.4957124453501736e-01
5823:-1.3838306398413003e-01
5824:-1.1291855240603867e-01
5825:-1.0184079891920633e-01
5826:-8.8129405531418750e-02
5827:-7.8177086017464134e-02
5828:-1.1943697894585083e-01
5829:-1.0847629958557954e-01
5830:-9.4872097192165966e-02
5831:-8.4967518851452595e-02
5832:-1.2718748385870207e-01
5833:-1.1641217716562681e-01
5834:-1.0298863551019691e-01
5835:-9.3177271325982330e-02
5836:-1.3256774660711609e-01
5837:-1.2195663923383761e-01
5838:-1.0870036472336904e-01
5839:-9.8983235123130273e-02
5840:-7.3067283361477026e-02
5841:-6.3839109152640711e-02
5842:-5.2492122261184326e-02
5843:-4.4313779684535044e-02
5844:-7.9871319380839481e-02
5845:-7.0650702394162185e-02
5846:-5.9281220862134200e-02
5847:-5.1062766338041292e-02
5848:-8.8115503637232653e-02
5849:-7.8937004368526895e-02
5850:-6.7581411919845583e-02
5851:-5.9343899121945293e-02
5852:-9.3960462921711327e-02
5853:-8.4838392826709241e-02
5854:-7.3525207592297831e-02
5855:-6.5297055826445058e-02
5856:-4.0135230514608128e-02
5857:-3.2622431735092473e-02
5858:-2.3450349928469810e-02
5859:-1.6891437747052360e-02
5860:-4.6855464571952742e-02
5861:-3.9278104918562678e-02
5862:-3.0002081806315820e-02
5863:-2.3348885984828635e-02
5864:-5.5116594655649276e-02
5865:-4.7486527929995651e-02
5866:-3.8113665113374454e-02
5867:-3.1365756504236925e-02
5868:-6.1066880894733118e-02
5869:-5.3419012348897781e-02
5870:-4.4000164250460466e-02
5871:-3.7200651842429384e-02
5872:-1.3559003238926953e-02
5873:-7.5970702982938515e-03
5874:-3.7664809316379156e-04
5875:4.7398905451023141e-03
5876:-1.9961312335961937e-02
5877:-1.3889503841911049e-02
5878:-6.5145219119806712e-03
5879:-1.2717032915944809e-03
5880:-2.7920947024042221e-02
5881:-2.1732871982247486e-02
5882:-1.4190395685850826e-02
5883:-8.8078886845670574e-03
5884:-3.3723006869716451e-02
5885:-2.7466087781422410e-02
5886:-1.9820616182412543e-02
5887:-1.4349524667655680e-02
5888:7.3221620243798862e-03
5889:1.1910393359526369e-02
5890:1.7403179064678947e-02
5891:2.1243325728274934e-02
5892:1.3803109281789547e-03
5893:6.1021289526576239e-03
5894:1.1773966094534615e-02
5895:1.5754792281755463e-02
5896:-6.0777704599801891e-03
5897:-1.2047041295901949e-03
5898:4.6728001000233919e-03
5899:8.8172231761444852e-03
5900:-1.1568997674957488e-02
5901:-6.5969723079188584e-03
5902:-5.8257684375653482e-04
5903:3.6722827963496752e-03
5904:2.3161772957102006e-02
5905:2.6534122598316497e-02
5906:3.0496866857144457e-02
5907:3.3205645530214184e-02
5908:1.7749297554152988e-02
5909:2.1265039843592768e-02
5910:2.5415707425035634e-02
5911:2.8268968256010090e-02
5912:1.0900799769981654e-02
5913:1.4585337248659666e-02
5914:1.8958869548747356e-02
5915:2.1984740448554901e-02
5916:5.8164613777598531e-03
5917:9.6165782562563674e-03
5918:1.4144124640244010e-02
5919:1.7290353708509839e-02
5920:3.4535157776420133e-02
5921:3.6825830116227878e-02
5922:3.9421036543673224e-02
5923:4.1113521442326197e-02
5924:2.9675537618819779e-02
5925:3.2110173467964208e-02
5926:3.4891850031643287e-02
5927:3.6726237250520197e-02
5928:2.3483814810265319e-02
5929:2.6092065775154518e-02
5930:2.9100094407185296e-02
5931:3.1107803077642170e-02
5932:1.8854304089077546e-02
5933:2.1584928147780052e-02
5934:2.4753624912534224e-02
5935:2.6885163866951122e-02
5936:4.1912121100467943e-02
5937:4.3223947798405174e-02
5938:4.4574124857278373e-02
5939:4.5335448654916878e-02
5940:3.7600085734847646e-02
5941:3.9052096014705100e-02
5942:4.0583188197167198e-02
5943:4.1481732539703262e-02
5944:3.2073917774073382e-02
5945:3.3698389963996073e-02
5946:3.5453165077492362e-02
5947:3.6522218191661349e-02
5948:2.7917464820029842e-02
5949:2.9666105204552495e-02
5950:3.1582805389048993e-02
5951:3.2775959456901690e-02
5952:4.5645429135089205e-02
5953:4.6051743133206098e-02
5954:4.6240937904271431e-02
5955:4.6126848079928590e-02
5956:4.1864356669236116e-02
5957:4.2406220558321599e-02
5958:4.2770982988175603e-02
5959:4.2790649658983333e-02
5960:3.6995408390952354e-02
5961:3.7706803741528572e-02
5962:3.8292175954108013e-02
5963:3.8480679107021319e-02
5964:3.3315300144439598e-02
5965:3.4150928311179829e-02
5966:3.4898729377813929e-02
5967:3.5212107416594300e-02
5968:4.5974934285311901e-02
5969:4.5520676454988238e-02
5970:4.4597605217347000e-02
5971:4.3638053428740442e-02
5972:4.2709808910305166e-02
5973:4.2389075319487657e-02
5974:4.1640882932038284e-02
5975:4.0816120777487551e-02
5976:3.8489813344195156e-02
5977:3.8338565558226539e-02
5978:3.7813212946121964e-02
5979:3.7160850245694321e-02
5980:3.5287981535235657e-02
5981:3.5262787731349991e-02
5982:3.4903812697711208e-02
5983:3.4380645050504831e-02
5984:4.3037666805171168e-02
5985:4.1743596419033989e-02
5986:3.9726978980849571e-02
5987:3.7930143542500842e-02
5988:4.0287954240277021e-02
5989:3.9131142662937810e-02
5990:3.7297563655509812e-02
5991:3.5644376684369837e-02
5992:3.6725275684337692e-02
5993:3.5744814932163527e-02
5994:3.4147101039489688e-02
5995:3.2679522712963482e-02
5996:3.4014621017216348e-02
5997:3.3166895367369546e-02
5998:3.1747209775421240e-02
5999:3.0420084237124962e-02
6000:3.6883559347719579e-02
6001:3.4750697686989844e-02
6002:3.1635884595322593e-02
6003:2.8993866641894475e-02
6004:3.4675707753351326e-02
6005:3.2693109967582429e-02
6006:2.9783051405792241e-02
6007:2.7305063147243531e-02
6008:3.1811692751640183e-02
6009:3.0023809195381924e-02
6010:2.7379500851719495e-02
6011:2.5114698276299127e-02
6012:2.9628677158160026e-02
6013:2.7988529889165486e-02
6014:2.5546151761345264e-02
6015:2.3443540964249113e-02
6016:2.7495450081011501e-02
6017:2.4511317518456383e-02
6018:2.0278764525922709e-02
6019:1.6774395322394508e-02
6020:2.5896810520799063e-02
6021:2.3089176928394618e-02
6022:1.9102255415292424e-02
6023:1.5798474964991170e-02
6024:2.3823717866249441e-02
6025:2.1245717591029983e-02
6026:1.7578457051646536e-02
6027:1.4535752231616111e-02
6028:2.2241841975122457e-02
6029:1.9838705384546514e-02
6030:1.6414904700261541e-02
6031:1.3571050592294496e-02
6032:1.4814380140772368e-02
6033:1.0960816813542622e-02
6034:5.5878330223050679e-03
6035:1.2048829180830610e-03
6036:1.3950029826436467e-02
6037:1.0317341134463547e-02
6038:5.2564307468349909e-03
6039:1.1317063364078739e-03
6040:1.2832517206933564e-02
6041:9.4871705230265748e-03
6042:4.8319435812926217e-03
6043:1.0426554484407314e-03
6044:1.1978409460728026e-02
6045:8.8518026235662513e-03
6046:4.5051676877236567e-03
6047:9.7084639565538566e-04
6048:-9.2607084298683990e-03
6049:-4.3660619620063332e-02
6050:-8.7923652804028182e-02
6051:-1.2125370547860508e-01
6052:-8.8002604787808698e-03
6053:-4.1485846156891083e-02
6054:-8.3498531206393264e-02
6055:-1.1512869776825731e-01
6056:-8.1680210660284511e-03
6057:-3.8803894743612163e-02
6058:-7.8166698217663075e-02
6059:-1.0780868734958289e-01
6060:-7.7116643208249005e-03
6061:-3.6896349764118042e-02
6062:-7.4419893630135500e-02
6063:-1.0269528733639820e-01
6064:-1.3874851961531937e-01
6065:-1.7067731449959059e-01
6066:-2.1039958974954601e-01
6067:-2.3927315634044274e-01
6068:-1.3173863509323580e-01
6069:-1.6208611339987383e-01
6070:-1.9992563319552109e-01
6071:-2.2751191084966640e-01
6072:-1.2338336096903370e-01
6073:-1.5187473787665989e-01
6074:-1.8748408475207246e-01
6075:-2.1352132712454125e-01
6076:-1.1755869694582607e-01
6077:-1.4477054024347122e-01
6078:-1.7882676720193888e-01
6079:-2.0376598244202010e-01
6080:-2.5406185262512038e-01
6081:-2.8039819239636909e-01
6082:-3.1189553271537851e-01
6083:-3.3381037067334829e-01
6084:-2.4167604841553558e-01
6085:-2.6697567915794002e-01
6086:-2.9737988652169484e-01
6087:-3.1864704583555903e-01
6088:-2.2692190110984756e-01
6089:-2.5092632204710813e-01
6090:-2.7991068970165695e-01
6091:-3.0029306090447072e-01
6092:-2.1661585316837240e-01
6093:-2.3966620657118509e-01
6094:-2.6756779477874526e-01
6095:-2.8724776065009905e-01
6096:-3.4468297509699736e-01
6097:-3.6343391670643987e-01
6098:-3.8464970249507230e-01
6099:-3.9843738095901565e-01
6100:-3.2923957491308714e-01
6101:-3.4758585422664834e-01
6102:-3.6848781873508113e-01
6103:-3.8217724613530807e-01
6104:-3.1048584463497936e-01
6105:-3.2822593703073721e-01
6106:-3.4860787978480784e-01
6107:-3.6209357159610450e-01
6108:-2.9711295281404376e-01
6109:-3.1433690253396329e-01
6110:-3.3424330785656547e-01
6111:-3.4751845551938298e-01
6112:-4.0491401072921213e-01
6113:-4.1545106113027852e-01
6114:-4.2605362734423319e-01
6115:-4.3179034178766107e-01
6116:-3.8864482359547270e-01
6117:-3.9923491504198266e-01
6118:-4.1006124847233549e-01
6119:-4.1610546949959082e-01
6120:-3.6851718901730735e-01
6121:-3.7913357832273326e-01
6122:-3.9021200182873078e-01
6123:-3.9662238779355863e-01
6124:-3.5388474485344246e-01
6125:-3.6448875192060526e-01
6126:-3.7572728401924360e-01
6127:-3.8238719719879916e-01
6128:-4.3401378289711817e-01
6129:-4.3676228625235985e-01
6130:-4.3764435658209055e-01
6131:-4.3630549549300451e-01
6132:-4.1854523208523381e-01
6133:-4.2178174771475807e-01
6134:-4.2344692946621093e-01
6135:-4.2281056743705847e-01
6136:-3.9931887060531673e-01
6137:-4.0312504703865687e-01
6138:-4.0569094678099976e-01
6139:-4.0585708879232024e-01
6140:-3.8525806832861847e-01
6141:-3.8944797671921189e-01
6142:-3.9261797577756874e-01
6143:-3.9332323004577058e-01
6144:-4.3490395033491774e-01
6145:-4.3116726501149433e-01
6146:-4.2422463794878573e-01
6147:-4.1738330320099543e-01
6148:-4.2181574411333739e-01
6149:-4.1888235826346754e-01
6150:-4.1305288101626553e-01
6151:-4.0710538700238214e-01
6152:-4.0532643073907304e-01
6153:-4.0331663833490555e-01
6154:-3.9878327603894337e-01
6155:-3.9389034195107087e-01
6156:-3.9310544851817625e-01
6157:-3.9172133899608214e-01
6158:-3.8807386785194181e-01
6159:-3.8390916374538736e-01
6160:-4.1322886932387859e-01
6161:-4.0469737946896628e-01
6162:-3.9221673781803951e-01
6163:-3.8166526595866856e-01
6164:-4.0343792819540364e-01
6165:-3.9582044272364525e-01
6166:-3.8453079248859906e-01
6167:-3.7489265016496237e-01
6168:-3.9080262334250182e-01
6169:-3.8428060489150656e-01
6170:-3.7442900862706807e-01
6171:-3.6589868143495086e-01
6172:-3.8122485119081628e-01
6173:-3.7547080589356546e-01
6174:-3.6663569274101671e-01
6175:-3.5889219345662687e-01
6176:-3.7571744422053971e-01
6177:-3.6414412466440310e-01
6178:-3.4832007481703209e-01
6179:-3.3568018299613939e-01
6180:-3.6943158984972546e-01
6181:-3.5875957802215780e-01
6182:-3.4407905643089892e-01
6183:-3.3228499793216781e-01
6184:-3.6102878895727858e-01
6185:-3.5145119735194819e-01
6186:-3.3816150911628384e-01
6187:-3.2740078139455103e-01
6188:-3.5444270388811550e-01
6189:-3.4564372097713297e-01
6190:-3.3334654844508987e-01
6191:-3.2332788651769329e-01
6192:-3.2878407916050784e-01
6193:-3.1570207933002675e-01
6194:-2.9841304468756957e-01
6195:-2.8501720085791943e-01
6196:-3.2582662141209412e-01
6197:-3.1353317648608042e-01
6198:-2.9721068150680224e-01
6199:-2.8451128706779255e-01
6200:-3.2147979869563859e-01
6201:-3.1016170433622892e-01
6202:-2.9504685186012203e-01
6203:-2.8322466571559274e-01
6204:-3.1779522957033063e-01
6205:-3.0718678457953563e-01
6206:-2.9295795456132701e-01
6207:-2.8178299758162562e-01
6208:-2.7784100482361412e-01
6209:-2.6442923595886542e-01
6210:-2.4707789804278560e-01
6211:-2.3390698485097658e-01
6212:-2.7769133955987718e-01
6213:-2.6491706087586231e-01
6214:-2.4833407333027396e-01
6215:-2.3570178290356292e-01
6216:-2.7685504140917289e-01
6217:-2.6488658813139482e-01
6218:-2.4927628320331743e-01
6219:-2.3732892638839712e-01
6220:-2.7574627215626113e-01
6221:-2.6437403579283525e-01
6222:-2.4948598058696558e-01
6223:-2.3805082679080905e-01
6224:-2.2694227545964438e-01
6225:-2.1405498830602690e-01
6226:-1.9761739178550905e-01
6227:-1.8531115641266602e-01
6228:-2.2900575619932184e-01
6229:-2.1658802940419178e-01
6230:-2.0069852240222785e-01
6231:-1.8876603222963978e-01
6232:-2.3097640388590346e-01
6233:-2.1916417010338146e-01
6234:-2.0399057695240339e-01
6235:-1.9255221517029950e-01
6236:-2.3195700788751117e-01
6237:-2.2060421124791016e-01
6238:-2.0597935212427834e-01
6239:-1.9492293632082996e-01
6240:-1.7886077324654276e-01
6241:-1.6701279692490500e-01
6242:-1.5206590205919890e-01
6243:-1.4099987424843441e-01
6244:-1.8249939349271610e-01
6245:-1.7096897037549003e-01
6246:-1.5638338277459501e-01
6247:-1.4555385081727651e-01
6248:-1.8653017456798340e-01
6249:-1.7542361913459090e-01
6250:-1.6132333192889536e-01
6251:-1.5081503440100563e-01
6252:-1.8909076308892342e-01
6253:-1.7831430449466987e-01
6254:-1.6459492055130820e-01
6255:-1.5434202834316274e-01
6256:-1.3524193939304613e-01
6257:-1.2472514860801540e-01
6258:-1.1156733802999785e-01
6259:-1.0190813527554395e-01
6260:-1.3990780457145829e-01
6261:-1.2957717860901352e-01
6262:-1.1661835014046348e-01
6263:-1.0708008646185158e-01
6264:-1.4532274628745420e-01
6265:-1.3525201744280727e-01
6266:-1.2257884759596459e-01
6267:-1.1322040166619138e-01
6268:-1.4897350898217709e-01
6269:-1.3911464694485892e-01
6270:-1.2667917903523768e-01
6271:-1.1747395868630287e-01
6272:-9.6910496702566379e-02
6273:-8.7826747881143002e-02
6274:-7.6546812442115461e-02
6275:-6.8331550003609326e-02
6276:-1.0213645385431336e-01
6277:-9.3137197893565324e-02
6278:-8.1935561461094208e-02
6279:-7.3756430532606956e-02
6280:-1.0835937872153342e-01
6281:-9.9492809404503127e-02
6282:-8.8422153766826772e-02
6283:-8.0312283325762568e-02
6284:-1.1268460714108773e-01
6285:-1.0393536831576883e-01
6286:-9.2985684934150284e-02
6287:-8.4945110940520083e-02
6288:-6.4103915710502904e-02
6289:-5.6454017575832557e-02
6290:-4.7020157116768442e-02
6291:-4.0200329162175967e-02
6292:-6.9539899030438654e-02
6293:-6.1898266838993826e-02
6294:-5.2452254403315850e-02
6295:-4.5606648515255387e-02
6296:-7.6122156786020703e-02
6297:-6.8514051224716432e-02
6298:-5.9082253822809093e-02
6299:-5.2226037054627153e-02
6300:-8.0784091639056477e-02
6301:-7.3218530933760462e-02
6302:-6.3819686775108256e-02
6303:-5.6972048719087544e-02
6304:-3.6709000005876603e-02
6305:-3.0422376836374054e-02
6306:-2.2730704647942728e-02
6307:-1.7218690252213002e-02
6308:-4.2096184017836331e-02
6309:-3.5765694979717058e-02
6310:-2.8002030452092531e-02
6311:-2.2423952583335301e-02
6312:-4.8702744416705593e-02
6313:-4.2337110755669899e-02
6314:-3.4507072056778387e-02
6315:-2.8863108638576808e-02
6316:-5.3447678790857704e-02
6317:-4.7071120034689683e-02
6318:-3.9210392117376994e-02
6319:-3.3530978286273203e-02
6320:-1.4414504835214165e-02
6321:-9.3955238982239841e-03
6322:-3.3153114223743525e-03
6323:9.9320918801132363e-04
6324:-1.9580921587930827e-02
6325:-1.4484019392477718e-02
6326:-8.2931399040001141e-03
6327:-3.8933788707905454e-03
6328:-2.5979978858203075e-02
6329:-2.0800867454417733e-02
6330:-1.4490096998872477e-02
6331:-9.9892998948423479e-03
6332:-3.0625014409061593e-02
6333:-2.5397400471855899e-02
6334:-1.9012947469010291e-02
6335:-1.4448046136456224e-02
6336:3.1670057733510864e-03
6337:7.0239014186918953e-03
6338:1.1627668309474372e-02
6339:1.4833881920461419e-02
6340:-1.6688894420366957e-03
6341:2.2857749544692258e-03
6342:7.0218713097081062e-03
6343:1.0332991328774315e-02
6344:-7.7079596759453070e-03
6345:-3.6424585280816612e-03
6346:1.2458054629610363e-03
6347:4.6790503872869140e-03
6348:-1.2129996631688384e-02
6349:-7.9919389153088917e-03
6350:-3.0023177081346104e-03
6351:5.1345988997202139e-04
6352:1.6430309002001011e-02
6353:1.9222412007117821e-02
6354:2.2472224017390172e-02
6355:2.4666562681033840e-02
6356:1.1986463278743765e-02
6357:1.4886912841239658e-02
6358:1.8280351736739062e-02
6359:2.0586391789906882e-02
6360:6.3994051205362211e-03
6361:9.4276098694463760e-03
6362:1.2991772487076149e-02
6363:1.5431613757238963e-02
6364:2.2793878588451837e-03
6365:5.3952441253356546e-03
6366:9.0776770786005802e-03
6367:1.1611057345544034e-02
6368:2.5732523007343487e-02
6369:2.7544477289511038e-02
6370:2.9544067924898922e-02
6371:3.0800994775249276e-02
6372:2.1712397112135184e-02
6373:2.3637618333788156e-02
6374:2.5786108049234875e-02
6375:2.7158041489996829e-02
6376:1.6629899241007086e-02
6377:1.8692095396519365e-02
6378:2.1021831228285898e-02
6379:2.2534617313478483e-02
6380:1.2860163131299307e-02
6381:1.5019155648569980e-02
6382:1.7477881964075667e-02
6383:1.9091568028486473e-02
6384:3.1374413499225887e-02
6385:3.2274183059838979e-02
6386:3.3106112246520845e-02
6387:3.3484363323600740e-02
6388:2.7793067823152749e-02
6389:2.8809045715742262e-02
6390:2.9793873312400222e-02
6391:3.0290387293798845e-02
6392:2.3245386432957767e-02
6393:2.4404723790660717e-02
6394:2.5579107840107772e-02
6395:2.6222939647949049e-02
6396:1.9856815124283705e-02
6397:2.1119643222035141e-02
6398:2.2431593358062177e-02
6399:2.3182879018108549e-02
6400:3.3594975536446192e-02
6401:3.3635510412254113e-02
6402:3.3363514361465174e-02
6403:3.2908053379877338e-02
6404:3.0464451258598962e-02
6405:3.0625267234997682e-02
6406:3.0512861412583431e-02
6407:3.0181938851083293e-02
6408:2.6476286331330003e-02
6409:2.6787817590801611e-02
6410:2.6876182091727562e-02
6411:2.6702516976999005e-02
6412:2.3494240273411564e-02
6413:2.3916373279501146e-02
6414:2.4152665025517130e-02
6415:2.4095297002154400e-02
6416:3.2578534577848622e-02
6417:3.1800568946465498e-02
6418:3.0474615063090568e-02
6419:2.9221557566224389e-02
6420:2.9919670951293265e-02
6421:2.9270386821422266e-02
6422:2.8117643870157270e-02
6423:2.7001683257122832e-02
6424:2.6525363411814815e-02
6425:2.6039257239639235e-02
6426:2.5106742722786797e-02
6427:2.4165512622607056e-02
6428:2.3981231356630044e-02
6429:2.3616306373894697e-02
6430:2.2847767736611076e-02
6431:2.2036942719050132e-02
6432:2.8470491152191999e-02
6433:2.6908383592140091e-02
6434:2.4572769846552409e-02
6435:2.2555979350955980e-02
6436:2.6325358727017578e-02
6437:2.4907945969535598e-02
6438:2.2770469796372046e-02
6439:2.0913071782291768e-02
6440:2.3584583438786440e-02
6441:2.2352040945434710e-02
6442:2.0468048813553463e-02
6443:1.8814789307395715e-02
6444:2.1527308059920904e-02
6445:2.0433063400379554e-02
6446:1.8738926364059539e-02
6447:1.7238714906638544e-02
6448:2.1401541393277733e-02
6449:1.9090979278130634e-02
6450:1.5796076794400333e-02
6451:1.3057502583844201e-02
6452:1.9846447192923326e-02
6453:1.7707913301917982e-02
6454:1.4652553876925248e-02
6455:1.2109629272819011e-02
6456:1.7860694337257770e-02
6457:1.5942637443726686e-02
6458:1.3194296616197912e-02
6459:1.0902118276674404e-02
6460:1.6369029747200760e-02
6461:1.4616367182235225e-02
6462:1.2098332492613573e-02
6463:9.9942250669664522e-03
6464:1.1523410925651562e-02
6465:8.5125690971155146e-03
6466:4.3291670326416117e-03
6467:9.2964502765810052e-04
6468:1.0684337425911929e-02
6469:7.8885469904424708e-03
6470:4.0082178110780334e-03
6471:8.5884884012312661e-04
6472:9.6162477179083002e-03
6473:7.0958934106228914e-03
6474:3.6034216385462006e-03
6475:7.7393210157614275e-04
6476:8.8129096683145277e-03
6477:6.4989967957959074e-03
6478:3.2969748728613429e-03
6479:7.0682918663930261e-04
6480:-7.4944174416970632e-03
6481:-3.5940931599305372e-02
6482:-7.2541939687912116e-02
6483:-1.0013693688508378e-01
6484:-7.1442695984734947e-03
6485:-3.4262563668801656e-02
6486:-6.9197981510931844e-02
6487:-9.5562376808621674e-02
6488:-6.7642701915201827e-03
6489:-3.2262008632075886e-02
6490:-6.5146383082313519e-02
6491:-8.9987702440857242e-02
6492:-6.4983589836560968e-03
6493:-3.0841607392186731e-02
6494:-6.2248568488954346e-02
6495:-8.5985922493445402e-02
6496:-1.1464649605668494e-01
6497:-1.4122046697067442e-01
6498:-1.7449733536885700e-01
6499:-1.9887921274687484e-01
6500:-1.0943181505965933e-01
6501:-1.3485180951149589e-01
6502:-1.6671935565290927e-01
6503:-1.9009464711406032e-01
6504:-1.0306422959935851e-01
6505:-1.2705489431484851e-01
6506:-1.5717968181586334e-01
6507:-1.7931512300445571e-01
6508:-9.8486980939978583e-02
6509:-1.2144008240327726e-01
6510:-1.5030155013513807e-01
6511:-1.7154174155037694e-01
6512:-2.1144649122351797e-01
6513:-2.3400139821789304e-01
6514:-2.6133039174624478e-01
6515:-2.8063171876124127e-01
6516:-2.0215229335555188e-01
6517:-2.2381600319189143e-01
6518:-2.5011914896314380e-01
6519:-2.6874490124048461e-01
6520:-1.9074769802378716e-01
6521:-2.1132433306051260e-01
6522:-2.3638607753498786e-01
6523:-2.5420037348997460e-01
6524:-1.8252491878576665e-01
6525:-2.0232354388023893e-01
6526:-2.2650192617267295e-01
6527:-2.4374114063299637e-01
6528:-2.9031778082302212e-01
6529:-3.0725369572143513e-01
6530:-3.2688491096706196e-01
6531:-3.4003122202637670e-01
6532:-2.7811209072921372e-01
6533:-2.9453305308115380e-01
6534:-3.1366467965771005e-01
6535:-3.2656733096613810e-01
6536:-2.6318610586629021e-01
6537:-2.7898904536867769e-01
6538:-2.9750994165356298e-01
6539:-3.1009779080382560e-01
6540:-2.5245686493239761e-01
6541:-2.6782154109244766e-01
6542:-2.8590259691487235e-01
6543:-2.9825242663084650e-01
6544:-3.4635927968160413e-01
6545:-3.5694516671442306e-01
6546:-3.6825541345119689e-01
6547:-3.7503497210991604e-01
6548:-3.3281683485290042e-01
6549:-3.4334648526124045e-01
6550:-3.5474726897716063e-01
6551:-3.6170902906328389e-01
6552:-3.1623468578105612e-01
6553:-3.2665202803174276e-01
6554:-3.3809012683044426e-01
6555:-3.4521262002769104e-01
6556:-3.0429688226106155e-01
6557:-3.1460286041685998e-01
6558:-3.2601638716007902e-01
6559:-3.3321194556681466e-01
6560:-3.7798957194228611e-01
6561:-3.8236431151606992e-01
6562:-3.8582751083598965e-01
6563:-3.8679674600051850e-01
6564:-3.6479631782116539e-01
6565:-3.6947390713330908e-01
6566:-3.7343408529377226e-01
6567:-3.7486068448732668e-01
6568:-3.4842938913758026e-01
6569:-3.5342280161714873e-01
6570:-3.5793279891126217e-01
6571:-3.5988298991695228e-01
6572:-3.3649982566797537e-01
6573:-3.4168242082245132e-01
6574:-3.4654384747262623e-01
6575:-3.4883995084295860e-01
6576:-3.8673306517942424e-01
6577:-3.8565751295266365e-01
6578:-3.8244806719749180e-01
6579:-3.7864491397508770e-01
6580:-3.7506662039176625e-01
6581:-3.7453160680412140e-01
6582:-3.7208990348447291e-01
6583:-3.6892064732389651e-01
6584:-3.6040205393479030e-01
6585:-3.6049760659182373e-01
6586:-3.5895522501840210e-01
6587:-3.5653064572212845e-01
6588:-3.4956863872468324e-01
6589:-3.5008992085820423e-01
6590:-3.4916072590633190e-01
6591:-3.4724770733054300e-01
6592:-3.7616161412885463e-01
6593:-3.7079221029934539e-01
6594:-3.6246918231348518e-01
6595:-3.5512343927367135e-01
6596:-3.6678990332240219e-01
6597:-3.6209692449156811e-01
6598:-3.5467839533372603e-01
6599:-3.4803834040746839e-01
6600:-3.5481472967835831e-01
6601:-3.5092059949011611e-01
6602:-3.4457708263821152e-01
6603:-3.3878159929911505e-01
6604:-3.4581789692881221e-01
6605:-3.4247682241518357e-01
6606:-3.3688226260197540e-01
6607:-3.3167934683181138e-01
6608:-3.5088668709691673e-01
6609:-3.4248206188603286e-01
6610:-3.3068913267713856e-01
6611:-3.2104944735911534e-01
6612:-3.4418017412587504e-01
6613:-3.3647956680825691e-01
6614:-3.2559078275425962e-01
6615:-3.1663328005876867e-01
6616:-3.3537880950976034e-01
6617:-3.2852939441762607e-01
6618:-3.1874103909013629e-01
6619:-3.1061816514299373e-01
6620:-3.2859770593631310e-01
6621:-3.2235172087477881e-01
6622:-3.1334851267958486e-01
6623:-3.0582395123189510e-01
6624:-3.1571603391989544e-01
6625:-3.0547308307665333e-01
6626:-2.9170246637737973e-01
6627:-2.8086298337589966e-01
6628:-3.1165928638856494e-01
6629:-3.0207611859453326e-01
6630:-2.8913375531115143e-01
6631:-2.7890188154749052e-01
6632:-3.0608501072342681e-01
6633:-2.9731186741950749e-01
6634:-2.8538884454018937e-01
6635:-2.7590781233921841e-01
6636:-3.0160748282560890e-01
6637:-2.9341711500103368e-01
6638:-2.8223010973585455e-01
6639:-2.7329420425111861e-01
6640:-2.7499888147097717e-01
6641:-2.6393622538175449e-01
6642:-2.4942462670057211e-01
6643:-2.3825809642690837e-01
6644:-2.7335103904513419e-01
6645:-2.6285221348998800e-01
6646:-2.4903008682941224e-01
6647:-2.3835820648238951e-01
6648:-2.7074558148341121e-01
6649:-2.6095007377405016e-01
6650:-2.4799471550696556e-01
6651:-2.3794891817694566e-01
6652:-2.6841547647140407e-01
6653:-2.5913568664538900e-01
6654:-2.4682014430079643e-01
6655:-2.3723893556588116e-01
6656:-2.3230069560245684e-01
6657:-2.2119113626033346e-01
6658:-2.0685819790551169e-01
6659:-1.9600569857694985e-01
6660:-2.3265281459574394e-01
6661:-2.2199301270712923e-01
6662:-2.0820076120059672e-01
6663:-1.9772696185180033e-01
6664:-2.3256363993677201e-01
6665:-2.2247590309704807e-01
6666:-2.0937346728617187e-01
6667:-1.9938529072635539e-01
6668:-2.3209179708332300e-01
6669:-2.2243041577692421e-01
6670:-2.0984428049078896e-01
6671:-2.0022195980817309e-01
6672:-1.9027505226421429e-01
6673:-1.7967558267950409e-01
6674:-1.6616170860499363e-01
6675:-1.5604792337653423e-01
6676:-1.9218536515613491e-01
6677:-1.8191700193960347e-01
6678:-1.6879057921307930e-01
6679:-1.5894126790061516e-01
6680:-1.9408732560540984e-01
6681:-1.8424854560491058e-01
6682:-1.7163004716783214e-01
6683:-1.6213106741336633e-01
6684:-1.9510862195206691e-01
6685:-1.8559734112078261e-01
6686:-1.7336940300411008e-01
6687:-1.6414197767517780e-01
6688:-1.5074738029139245e-01
6689:-1.4100564955467684e-01
6690:-1.2870291915357990e-01
6691:-1.1958421112575573e-01
6692:-1.5377069570177529e-01
6693:-1.4425359443577568e-01
6694:-1.3220682542316242e-01
6695:-1.2325628877784132e-01
6696:-1.5713378596956584e-01
6697:-1.4791740715499532e-01
6698:-1.3621607033164082e-01
6699:-1.2749523369172489e-01
6700:-1.5927966555941603e-01
6701:-1.5029848750580849e-01
6702:-1.3886961932294922e-01
6703:-1.3033220556304256e-01
6704:-1.1483565699506944e-01
6705:-1.0615390668846277e-01
6706:-9.5275426707296829e-02
6707:-8.7277231070702954e-02
6708:-1.1858764354644677e-01
6709:-1.1003948834569752e-01
6710:-9.9304848027820442e-02
6711:-9.1394728641644427e-02
6712:-1.2293696182487496e-01
6713:-1.1457585829495555e-01
6714:-1.0404759537452359e-01
6715:-9.6267917397368410e-02
6716:-1.2586303868937454e-01
6717:-1.1765462347180648e-01
6718:-1.0729800544598653e-01
6719:-9.9629317241491114e-02
6720:-8.3134744611932557e-02
6721:-7.5597566399205327e-02
6722:-6.6223688507894327e-02
6723:-5.9386184899706207e-02
6724:-8.7291758918927653e-02
6725:-7.9816678424414450e-02
6726:-7.0501047733893249e-02
6727:-6.3691244620273618e-02
6728:-9.2225053839082513e-02
6729:-8.4847002779198460e-02
6730:-7.5628245963903676e-02
6731:-6.8870715287800865e-02
6732:-9.5638535150956730e-02
6733:-8.8346210043544995e-02
6734:-7.9216750531962796e-02
6735:-7.2511098974131452e-02
6736:-5.5864143128997013e-02
6737:-4.9487107145013969e-02
6738:-4.1616843636680188e-02
6739:-3.5923681193278600e-02
6740:-6.0178198834921384e-02
6741:-5.3809015034956394e-02
6742:-4.5932342000231420e-02
6743:-4.0222172477170845e-02
6744:-6.5378089478118295e-02
6745:-5.9035592271730414e-02
6746:-5.1172129952578589e-02
6747:-4.5456246758053064e-02
6748:-6.9040543600906126e-02
6749:-6.2730635717816563e-02
6750:-5.4893149434162243e-02
6751:-4.9184932398830677e-02
6752:-3.3008266585682768e-02
6753:-2.7759789813948582e-02
6754:-2.1342309461328618e-02
6755:-1.6747804128356331e-02
6756:-3.7293677799694835e-02
6757:-3.2014564500133569e-02
6758:-2.5545774963140349e-02
6759:-2.0903579143261280e-02
6760:-4.2519388174362786e-02
6761:-3.7216257456494546e-02
6762:-3.0700626972658067e-02
6763:-2.6011128162264974e-02
6764:-4.6248006728154663e-02
6765:-4.0938140851552396e-02
6766:-3.4401421215827885e-02
6767:-2.9686744148027518e-02
6768:-1.4412535685613050e-02
6769:-1.0240060125647344e-02
6770:-5.2016939705185348e-03
6771:-1.6457795470333468e-03
6772:-1.8540085800087987e-02
6773:-1.4310526407143309e-02
6774:-9.1901372892651927e-03
6775:-5.5658699271627296e-03
6776:-2.3618603930815191e-02
6777:-1.9328893941189664e-02
6778:-1.4119547721768023e-02
6779:-1.0419413701914553e-02
6780:-2.7277784600884196e-02
6781:-2.2952662681370938e-02
6782:-1.7688600333048404e-02
6783:-1.3940236644474557e-02
6784:1.4245016665459130e-04
6785:3.3014331236124700e-03
6786:7.0424994689708090e-03
6787:9.6225767812655825e-03
6788:-3.7393964730940386e-03
6789:-5.0600586995324011e-04
6790:3.3370566514402409e-03
6791:5.9989580878588352e-03
6792:-8.5499357338711095e-03
6793:-5.2319542402960101e-03
6794:-1.2712620344524576e-03
6795:1.4861775909193985e-03
6796:-1.2042930453332689e-02
6797:-8.6694386553725425e-03
6798:-4.6301755623136126e-03
6799:-1.8079710583129478e-03
6800:1.0897162786619832e-02
6801:1.3104863856139444e-02
6802:1.5628824886259603e-02
6803:1.7293773407151346e-02
6804:7.3183844412243008e-03
6805:9.6121081437160298e-03
6806:1.2251850941669201e-02
6807:1.4008205558326305e-02
6808:2.8583384663324126e-03
6809:5.2538398205030411e-03
6810:8.0317202037372068e-03
6811:9.8979784451085073e-03
6812:-3.9975838346031982e-04
6813:2.0658241245908337e-03
6814:4.9397640638854413e-03
6815:6.8831369483938580e-03
6816:1.8086776097548090e-02
6817:1.9402468801347456e-02
6818:2.0784952938139166e-02
6819:2.1591528215207798e-02
6820:1.4850843808679265e-02
6821:1.6261333279933274e-02
6822:1.7770787473859934e-02
6823:1.8677247834554319e-02
6824:1.0800585730968360e-02
6825:1.2326112723608803e-02
6826:1.3990595454418726e-02
6827:1.5019702129185216e-02
6828:7.8280540855958751e-03
6829:9.4351375381397321e-03
6830:1.1210261964431858e-02
6831:1.2327427606135807e-02
6832:2.1932806761017411e-02
6833:2.2412085944863335e-02
6834:2.2725014823048187e-02
6835:2.2728045629471387e-02
6836:1.9072694023963815e-02
6837:1.9655638454176939e-02
6838:2.0107960742265538e-02
6839:2.0221120782255686e-02
6840:1.5481889028816325e-02
6841:1.6192942692124793e-02
6842:1.6818244060948839e-02
6843:1.7068591791003705e-02
6844:1.2837708890917116e-02
6845:1.3641373807345905e-02
6846:1.4392273831648754e-02
6847:1.4742632618198158e-02
6848:2.2646793860815161e-02
6849:2.2344978471672022e-02
6850:2.1661983102842470e-02
6851:2.0919292671580242e-02
6852:2.0199791711347378e-02
6853:2.0013371146068448e-02
6854:1.9487060922877841e-02
6855:1.8869360411078770e-02
6856:1.7122083346931046e-02
6857:1.7080026284532535e-02
6858:1.6750243755171607e-02
6859:1.6289673848647671e-02
6860:1.4850802011893873e-02
6861:1.4914450197929814e-02
6862:1.4728941533137455e-02
6863:1.4383984702222814e-02
6864:2.0446941920384192e-02
6865:1.9425064575482126e-02
6866:1.7830347211451596e-02
6867:1.6410329762677315e-02
6868:1.8465466393462370e-02
6869:1.7576540162492937e-02
6870:1.6164605307183361e-02
6871:1.4892110582815449e-02
6872:1.5971953443955494e-02
6873:1.5250528354253648e-02
6874:1.4069112944495331e-02
6875:1.2982823876142521e-02
6876:1.4129751148484134e-02
6877:1.3531828934044121e-02
6878:1.2520545727083649e-02
6879:1.1571789518174568e-02
6880:1.5584887287550109e-02
6881:1.3918915971519277e-02
6882:1.1521587485825031e-02
6883:9.5160383924409071e-03
6884:1.4148079890209598e-02
6885:1.2641631138720315e-02
6886:1.0466396493936693e-02
6887:8.6421636171322893e-03
6888:1.2341594830840198e-02
6889:1.1036571295647692e-02
6890:9.1417093254216250e-03
6891:7.5463053875643596e-03
6892:1.1006518600430637e-02
6893:9.8503064017580119e-03
6894:8.1625162925078164e-03
6895:6.7360521578538344e-03
6896:8.3895077996305155e-03
6897:6.1837233834077182e-03
6898:3.1337380743505058e-03
6899:6.6880408193749764e-04
6900:7.6164046391448718e-03
6901:5.6094309773352981e-03
6902:2.8388102730679894e-03
6903:6.0380983578544808e-04
6904:6.6476905295946862e-03
6905:4.8913911824324339e-03
6906:2.4726527180139956e-03
6907:5.2698908505218638e-04
6908:5.9312747900453688e-03
6909:4.3598479512462398e-03
6910:2.2003331380567913e-03
6911:4.6759097238336533e-04
6912:-6.3554445496727466e-03
6913:-3.0114917895073805e-02
6914:-6.0769021335270609e-02
6915:-8.3941281382185734e-02
6916:-6.0787994434076537e-03
6917:-2.8799913964956146e-02
6918:-5.8114900967377058e-02
6919:-8.0281228984885281e-02
6920:-5.7185593515502826e-03
6921:-2.7186086373632918e-02
6922:-5.4887849874204968e-02
6923:-7.5842353366993742e-02
6924:-5.4591792979109795e-03
6925:-2.6033664156025354e-02
6926:-5.2590051883490710e-02
6927:-7.2684904419834689e-02
6928:-9.6147433061711196e-02
6929:-1.1856859816444351e-01
6930:-1.4678266139000321e-01
6931:-1.6756498113181423e-01
6932:-9.1961871207838927e-02
6933:-1.1343357992259388e-01
6934:-1.4048860258129611e-01
6935:-1.6044813794941160e-01
6936:-8.6889091630228066e-02
6937:-1.0721245761735855e-01
6938:-1.3285847946045987e-01
6939:-1.5181115546918442e-01
6940:-8.3281512573251476e-02
6941:-1.0278734648931573e-01
6942:-1.2742516131910037e-01
6943:-1.4565257241147456e-01
6944:-1.7831884942105308e-01
6945:-1.9772116379646409e-01
6946:-2.2145013472037287e-01
6947:-2.3839655305067614e-01
6948:-1.7078865608421176e-01
6949:-1.8947316119721930e-01
6950:-2.1238096853210023e-01
6951:-2.2878633919252150e-01
6952:-1.6164301321098026e-01
6953:-1.7943744924636054e-01
6954:-2.0131347572521727e-01
6955:-2.1702808673813864e-01
6956:-1.5511598551327591e-01
6957:-1.7226134709769789e-01
6958:-1.9337651276435286e-01
6959:-2.0857517810776427e-01
6960:-2.4697454427295393e-01
6961:-2.6211547939024810e-01
6962:-2.7997012303201230e-01
6963:-2.9219409842795918e-01
6964:-2.3710749945326892e-01
6965:-2.5182867758146549e-01
6966:-2.6925429531120459e-01
6967:-2.8123660903610109e-01
6968:-2.2501724463703465e-01
6969:-2.3919023996737920e-01
6970:-2.5604645728719788e-01
6971:-2.6770188640813308e-01
6972:-2.1631391500192118e-01
6973:-2.3006903100752860e-01
6974:-2.4648364910873435e-01
6975:-2.5788037119924001e-01
6976:-2.9818757325568002e-01
6977:-3.0842690307193882e-01
6978:-3.1981192928288105e-01
6979:-3.2703202305583778e-01
6980:-2.8713096242428865e-01
6981:-2.9723772755790184e-01
6982:-3.0855658101682265e-01
6983:-3.1580993731054752e-01
6984:-2.7346006692356917e-01
6985:-2.8337997969381445e-01
6986:-2.9458958039359145e-01
6987:-3.0186257638315428e-01
6988:-2.6352898202400482e-01
6989:-2.7329478518237138e-01
6990:-2.8440215480028280e-01
6991:-2.9167081624355168e-01
6992:-3.3034975271270395e-01
6993:-3.3561727386209911e-01
6994:-3.4064327707295650e-01
6995:-3.4310451476392567e-01
6996:-3.1917546405052322e-01
6997:-3.2458283128795712e-01
6998:-3.2988444829089630e-01
6999:-3.3262469472804945e-01
7000:-3.0527478695366583e-01
7001:-3.1082809711869647e-01
7002:-3.1642889738952434e-01
7003:-3.1947834259244129e-01
7004:-2.9510608162640367e-01
7005:-3.0074324866512647e-01
7006:-3.0652992745701807e-01
7007:-3.0977875364317525e-01
7008:-3.4393402897218472e-01
7009:-3.4466187540632764e-01
7010:-3.4403342802841974e-01
7011:-3.4237340867639288e-01
7012:-3.3362537072237392e-01
7013:-3.3470712666796393e-01
7014:-3.3460002203849259e-01
7015:-3.3338260091657634e-01
7016:-3.2067068744819854e-01
7017:-3.2215433750078099e-01
7018:-3.2264937690964945e-01
7019:-3.2194977745696912e-01
7020:-3.1109677867561569e-01
7021:-3.1284762706219360e-01
7022:-3.1374926747336068e-01
7023:-3.1340333175651475e-01
7024:-3.4108571217956296e-01
7025:-3.3802003627141952e-01
7026:-3.3279989615407451e-01
7027:-3.2789453753227243e-01
7028:-3.3234472627295686e-01
7029:-3.2976429209926750e-01
7030:-3.2520574798098190e-01
7031:-3.2082752367817380e-01
7032:-3.2120617591939071e-01
7033:-3.1919962297525906e-01
7034:-3.1542746816839040e-01
7035:-3.1167853641309845e-01
7036:-3.1286192187192557e-01
7037:-3.1125161457011330e-01
7038:-3.0802592355812969e-01
7039:-3.0471670627518965e-01
7040:-3.2497468848313671e-01
7041:-3.1903370793451002e-01
7042:-3.1042892575614528e-01
7043:-3.0320882481583744e-01
7044:-3.1819475441127792e-01
7045:-3.1279591032367071e-01
7046:-3.0490126243789994e-01
7047:-2.9822538401030951e-01
7048:-3.0938936811808976e-01
7049:-3.0464109787657295e-01
7050:-2.9760230968744439e-01
7051:-2.9158548381677341e-01
7052:-3.0266840511880810e-01
7053:-2.9837754621657619e-01
7054:-2.9194342588691574e-01
7055:-2.8639473217203054e-01
7056:-2.9915370388097223e-01
7057:-2.9126068601767591e-01
7058:-2.8045041715079011e-01
7059:-2.7179477262587881e-01
7060:-2.9445926881703649e-01
7061:-2.8710023381731875e-01
7062:-2.7696905572529662e-01
7063:-2.6882038129948704e-01
7064:-2.8817059330506711e-01
7065:-2.8146311225064607e-01
7066:-2.7216513590212688e-01
7067:-2.6464146700587698e-01
7068:-2.8323029724615989e-01
7069:-2.7698929335358691e-01
7070:-2.6829098938179008e-01
7071:-2.6121910160963485e-01
7072:-2.6706232498025151e-01
7073:-2.5804941054742125e-01
7074:-2.4606613103376040e-01
7075:-2.3672680264668433e-01
7076:-2.6435309517014755e-01
7077:-2.5582444517175590e-01
7078:-2.4444513178513269e-01
7079:-2.3554646288710612e-01
7080:-2.6050193875786204e-01
7081:-2.5257279013072814e-01
7082:-2.4194335866931752e-01
7083:-2.3359401467258881e-01
7084:-2.5731703568502873e-01
7085:-2.4982305302180269e-01
7086:-2.3973996106828518e-01
7087:-2.3179280712704542e-01
7088:-2.3170378697734637e-01
7089:-2.2226499822318638e-01
7090:-2.0994939366100002e-01
7091:-2.0051975870837502e-01
7092:-2.3075000507751461e-01
7093:-2.2171868561139443e-01
7094:-2.0990054215088799e-01
7095:-2.0082683057676998e-01
7096:-2.2908095790114083e-01
7097:-2.2056157068882254e-01
7098:-2.0937241991621786e-01
7099:-2.0075142499401419e-01
7100:-2.2748807918887859e-01
7101:-2.1934657086109768e-01
7102:-2.0862435842902449e-01
7103:-2.0034113421091149e-01
7104:-1.9550407515190460e-01
7105:-1.8616660071737814e-01
7106:-1.7414687521084479e-01
7107:-1.6506480359795281e-01
7108:-1.9599204343654819e-01
7109:-1.8697700066098324e-01
7110:-1.7534449769700569e-01
7111:-1.6653363852352737e-01
7112:-1.9614753413934316e-01
7113:-1.8754491766283676e-01
7114:-1.7640968746929045e-01
7115:-1.6794903195674704e-01
7116:-1.9591000380419166e-01
7117:-1.8761671284029385e-01
7118:-1.7685617176362592e-01
7119:-1.6866103367952348e-01
7120:-1.6027490672148254e-01
7121:-1.5142029685681874e-01
7122:-1.4013893455963758e-01
7123:-1.3170164881497223e-01
7124:-1.6187924306579304e-01
7125:-1.5326240037596589e-01
7126:-1.4225996229716298e-01
7127:-1.3401340200321030e-01
7128:-1.6347043159552391e-01
7129:-1.5516380990514814e-01
7130:-1.4452855452584118e-01
7131:-1.3653544960016251e-01
7132:-1.6431640639915218e-01
7133:-1.5624742045817447e-01
7134:-1.4589561488782243e-01
7135:-1.3809970478746436e-01
7136:-1.2728146581003907e-01
7137:-1.1915749307792450e-01
7138:-1.0889672594138337e-01
7139:-1.0129072833404464e-01
7140:-1.2968700540884587e-01
7141:-1.2172529448682563e-01
7142:-1.1164991020411758e-01
7143:-1.0416623821527696e-01
7144:-1.3233448118831947e-01
7145:-1.2459084797399964e-01
7146:-1.1476689835085088e-01
7147:-1.0745122144667146e-01
7148:-1.3399682680403854e-01
7149:-1.2642455300072497e-01
7150:-1.1679994018144163e-01
7151:-1.0961904744438845e-01
7152:-9.7329626729982299e-02
7153:-9.0086667955620994e-02
7154:-8.1009769280668636e-02
7155:-7.4335735743399606e-02
7156:-1.0026350429566322e-01
7157:-9.3118565276161677e-02
7158:-8.4147965397369129e-02
7159:-7.7539551220204325e-02
7160:-1.0362952316546239e-01
7161:-9.6622357172141043e-02
7162:-8.7804547177827222e-02
7163:-8.1293285528041839e-02
7164:-1.0586302207390541e-01
7165:-9.8968648810125362e-02
7166:-9.0278145393582296e-02
7167:-8.3849639974464374e-02
7168:-7.0879118446113346e-02
7169:-6.4590684272935683e-02
7170:-5.6772383488489293e-02
7171:-5.1072298129030164e-02
7172:-7.4112550404282079e-02
7173:-6.7870920177014835e-02
7174:-6.0097113266697831e-02
7175:-5.4418807803003670e-02
7176:-7.7911262194769876e-02
7177:-7.1742656908721045e-02
7178:-6.4042631630730151e-02
7179:-5.8404935046590320e-02
7180:-8.0506628430787541e-02
7181:-7.4402609245005413e-02
7182:-6.6770582516578345e-02
7183:-6.1172974129235176e-02
7184:-4.8137464782255765e-02
7185:-4.2827944883138666e-02
7186:-3.6285020944743514e-02
7187:-3.1560720698598381e-02
7188:-5.1491383885018685e-02
7189:-4.6189069601067008e-02
7190:-3.9643063295685253e-02
7191:-3.4907237900207694e-02
7192:-5.5493733483235323e-02
7193:-5.0213181482515988e-02
7194:-4.3679308076794564e-02
7195:-3.8940772519794872e-02
7196:-5.8279054079909562e-02
7197:-5.3024321721643800e-02
7198:-4.6511675651634145e-02
7199:-4.1780149731979292e-02
7200:-2.9145003789266474e-02
7201:-2.4804689575169101e-02
7202:-1.9516100716528637e-02
7203:-1.5745446821919192e-02
7204:-3.2482298236883513e-02
7205:-2.8119837410146172e-02
7206:-2.2793268884564299e-02
7207:-1.8986763295902587e-02
7208:-3.6510320822294835e-02
7209:-3.2130990327654312e-02
7210:-2.6770141458595638e-02
7211:-2.2928262989326775e-02
7212:-3.9350276213434662e-02
7213:-3.4966897749000581e-02
7214:-2.9591111701828647e-02
7215:-2.5730632023120849e-02
7216:-1.3835076987026924e-02
7217:-1.0435221945868748e-02
7218:-6.3581080062930489e-03
7219:-3.5043410016524015e-03
7220:-1.7054999176006617e-02
7221:-1.3611411435895880e-02
7222:-9.4705215764210159e-03
7223:-6.5628969937112222e-03
7224:-2.0974559949094484e-02
7225:-1.7484919547050004e-02
7226:-1.3274753018805709e-02
7227:-1.0307190976531556e-02
7228:-2.3764588029398199e-02
7229:-2.0247899397449427e-02
7230:-1.5995086568705220e-02
7231:-1.2989341252251419e-02
7232:-2.0784443982573542e-03
7233:4.2170662173087679e-04
7234:3.3433896101985111e-03
7235:5.3253501087252445e-03
7236:-5.1066078440887798e-03
7237:-2.5466776034946191e-03
7238:4.5824500631478894e-04
7239:2.5079625902056243e-03
7240:-8.8166235345496086e-03
7241:-6.1885182551361002e-03
7242:-3.0872920691626458e-03
7243:-9.5822112105338627e-04
7244:-1.1476539402090695e-02
7245:-8.8035759599313784e-03
7246:-5.6378384097565508e-03
7247:-3.4548206050857497e-03
7248:6.2915255237794001e-03
7249:7.9397297742423417e-03
7250:9.7709045857449928e-03
7251:1.0932869807029452e-02
7252:3.5116226961065893e-03
7253:5.2325905405081691e-03
7254:7.1634237127783679e-03
7255:8.4053894323430304e-03
7256:8.9650598107276485e-05
7257:1.8969520220926113e-03
7258:3.9469847025237533e-03
7259:5.2853294268464949e-03
7260:-2.3766396386173155e-03
7261:-5.0973350512699173e-04
7262:1.6233726567958389e-03
7263:3.0294454332869163e-03
7264:1.1467681444370964e-02
7265:1.2318688133519782e-02
7266:1.3133990411095911e-02
7267:1.3535774023108476e-02
7268:8.9841218640527559e-03
7269:9.9200890715838465e-03
7270:1.0851334094696555e-02
7271:1.1345958989470868e-02
7272:5.9172052948246682e-03
7273:6.9563584817407785e-03
7274:8.0291294169187524e-03
7275:8.6375887490154207e-03
7276:3.6988512758265222e-03
7277:4.8111763544648667e-03
7278:5.9848607371194964e-03
7279:6.6748807328294571e-03
7280:1.3672105437344088e-02
7281:1.3790268921797679e-02
7282:1.3679294838098826e-02
7283:1.3394155328932927e-02
7284:1.1533219055613478e-02
7285:1.1750096603843654e-02
7286:1.1774316966819924e-02
7287:1.1597838700038793e-02
7288:8.8874585121979741e-03
7289:9.2259368971247535e-03
7290:9.4171384981754664e-03
7291:9.3751794993430174e-03
7292:6.9697363154541964e-03
7293:7.3957742510636559e-03
7294:7.7075488220539395e-03
7295:7.7629577718437408e-03
7296:1.3172797410328898e-02
7297:1.2638861959721052e-02
7298:1.1715777609312293e-02
7299:1.0838354317976327e-02
7300:1.1436252013895424e-02
7301:1.1018709423179346e-02
7302:1.0256153551418169e-02
7303:9.5086194908370787e-03
7304:9.2876848839983216e-03
7305:9.0145281063661632e-03
7306:8.4512740984114976e-03
7307:7.8651027553211603e-03
7308:7.7291656984955128e-03
7309:7.5607351958521278e-03
7310:7.1421517780686262e-03
7311:6.6731776309374878e-03
7312:1.0312488599641735e-02
7313:9.2334664467928224e-03
7314:7.6530572739147472e-03
7315:6.3141727762587247e-03
7316:9.0545203099064303e-03
7317:8.1160574474420134e-03
7318:6.7311185622340348e-03
7319:5.5516002157570679e-03
7320:7.5001828623417355e-03
7321:6.7363280099279593e-03
7322:5.5940611248454526e-03
7323:4.6122615265357780e-03
7324:6.3730419840274657e-03
7325:5.7359780771674921e-03
7326:4.7697917278699854e-03
7327:3.9313392904288232e-03
7328:5.5580291327505882e-03
7329:4.0823663530399242e-03
7330:2.0570212225143312e-03
7331:4.3439932985479878e-04
7332:4.8839280025155191e-03
7333:3.5823728191076705e-03
7334:1.8007478979373606e-03
7335:3.7799574947261196e-04
7336:4.0542958531427694e-03
7337:2.9684291961206252e-03
7338:1.4882915178418804e-03
7339:3.1244354925879240e-04
7340:3.4528629104653881e-03
7341:2.5231023850933718e-03
7342:1.2608047261535007e-03
7343:2.6307790003698371e-04
7344:-5.3316935106929890e-03
7345:-2.5451042420744602e-02
7346:-5.1425287444257631e-02
7347:-7.1083676731497653e-02
7348:-5.1133100489259183e-03
7349:-2.4409773827641281e-02
7350:-4.9331688747438374e-02
7351:-6.8201365729864863e-02
7352:-4.8580867274715823e-03
7353:-2.3140557552909221e-02
7354:-4.6764772492706171e-02
7355:-6.4661685678319050e-02
7356:-4.6752065900729448e-03
7357:-2.2225904833646379e-02
7358:-4.4912150470858572e-02
7359:-6.2105316871950908e-02
7360:-8.1451661765925928e-02
7361:-1.0054164749821165e-01
7362:-1.2466506754551873e-01
7363:-1.4252095158778327e-01
7364:-7.8156331995800257e-02
7365:-9.6494880338406377e-02
7366:-1.1968828028381373e-01
7367:-1.3687199771552777e-01
7368:-7.4107349729822497e-02
7369:-9.1519025355920436e-02
7370:-1.1356463717753075e-01
7371:-1.2991828322937773e-01
7372:-7.1182430967034888e-02
7373:-8.7923109880506028e-02
7374:-1.0913719230950604e-01
7375:-1.2488899259048596e-01
7376:-1.5179499440260710e-01
7377:-1.6860556943515642e-01
7378:-1.8932609930086872e-01
7379:-2.0425552809672742e-01
7380:-1.4580326174286570e-01
7381:-1.6200768208503968e-01
7382:-1.8201336847599797e-01
7383:-1.9645478977496425e-01
7384:-1.3842605479204986e-01
7385:-1.5388126066070987e-01
7386:-1.7300252612595884e-01
7387:-1.8683925978713992e-01
7388:-1.3308951206454639e-01
7389:-1.4800050590023464e-01
7390:-1.6647780136520149e-01
7391:-1.7987278426485911e-01
7392:-2.1186297834581347e-01
7393:-2.2539747112545683e-01
7394:-2.4157614688703366e-01
7395:-2.5283264301579939e-01
7396:-2.0382407708197728e-01
7397:-2.1695675866926295e-01
7398:-2.3270177420529814e-01
7399:-2.4369661231879933e-01
7400:-1.9391294816624421e-01
7401:-2.0654437995924443e-01
7402:-2.2174177808851536e-01
7403:-2.3239928454654221e-01
7404:-1.8672988700901702e-01
7405:-1.9899239962597359e-01
7406:-2.1378245934809939e-01
7407:-2.2418450763452516e-01
7408:-2.5842114234143221e-01
7409:-2.6810096597859945e-01
7410:-2.7914699391850289e-01
7411:-2.8640608182391292e-01
7412:-2.4917110065114517e-01
7413:-2.5868404974761094e-01
7414:-2.6960192630432428e-01
7415:-2.7682902256844694e-01
7416:-2.3772346957391727e-01
7417:-2.4700949444834575e-01
7418:-2.5773724534715664e-01
7419:-2.6489783322878940e-01
7420:-2.2939269367954865e-01
7421:-2.3849896563009956e-01
7422:-2.4906593556696244e-01
7423:-2.5615918924723929e-01
7424:-2.8984890929808343e-01
7425:-2.9552088695343037e-01
7426:-3.0139222340897709e-01
7427:-3.0473541727977016e-01
7428:-2.8027734645111679e-01
7429:-2.8599755257138448e-01
7430:-2.9200419325570209e-01
7431:-2.9550543767696491e-01
7432:-2.6833803324184691e-01
7433:-2.7409060802416885e-01
7434:-2.8023049327151900e-01
7435:-2.8390199365306362e-01
7436:-2.5958303916911335e-01
7437:-2.6533953277869371e-01
7438:-2.7155056376733028e-01
7439:-2.7532584101565238e-01
7440:-3.0611386451258449e-01
7441:-3.0799424079490750e-01
7442:-3.0909467673151314e-01
7443:-3.0892271016492562e-01
7444:-2.9698673477650034e-01
7445:-2.9908900043961156e-01
7446:-3.0053221926607770e-01
7447:-3.0066173964401993e-01
7448:-2.8549726234749884e-01
7449:-2.8784869047175804e-01
7450:-2.8968226348926046e-01
7451:-2.9015879850266285e-01
7452:-2.7699316420887971e-01
7453:-2.7950539156110404e-01
7454:-2.8159644606592776e-01
7455:-2.8230558325092664e-01
7456:-3.0848108580745992e-01
7457:-3.0706709148626610e-01
7458:-3.0411354958508591e-01
7459:-3.0102429591972896e-01
7460:-3.0039356141322804e-01
7461:-2.9932223487222692e-01
7462:-2.9684644537062155e-01
7463:-2.9414520986642978e-01
7464:-2.9009148590242861e-01
7465:-2.8941972910049563e-01
7466:-2.8750605720076639e-01
7467:-2.8526481446093765e-01
7468:-2.8237409506474304e-01
7469:-2.8197458575543582e-01
7470:-2.8044758571722367e-01
7471:-2.7852525479834767e-01
7472:-2.9909679873064121e-01
7473:-2.9503584891807505e-01
7474:-2.8890671350120523e-01
7475:-2.8359503897685723e-01
7476:-2.9243141174592863e-01
7477:-2.8877807554604557e-01
7478:-2.8319133152044745e-01
7479:-2.7830238861871864e-01
7480:-2.8380545787791955e-01
7481:-2.8063921589883717e-01
7482:-2.7570383317598385e-01
7483:-2.7132481356533683e-01
7484:-2.7724309413635689e-01
7485:-2.7441744321811468e-01
7486:-2.6994001595014661e-01
7487:-2.6592126253403642e-01
7488:-2.8055775586981718e-01
7489:-2.7455416765130691e-01
7490:-2.6616204763265472e-01
7491:-2.5932142333991332e-01
7492:-2.7549228845274448e-01
7493:-2.6991353860245887e-01
7494:-2.6207060641554542e-01
7495:-2.5564583012789127e-01
7496:-2.6878949029008725e-01
7497:-2.6372579192208678e-01
7498:-2.5655118903025187e-01
7499:-2.5063458624586848e-01
7500:-2.6358064022913086e-01
7501:-2.5888287038415581e-01
7502:-2.5218513646358609e-01
7503:-2.4663283441332129e-01
7504:-2.5554107737437198e-01
7505:-2.4827050037209661e-01
7506:-2.3846871779091564e-01
7507:-2.3072942581922282e-01
7508:-2.5208475056233648e-01
7509:-2.4521749510683050e-01
7510:-2.3592522485246811e-01
7511:-2.2856360494698544e-01
7512:-2.4734226929497022e-01
7513:-2.4097105709537295e-01
7514:-2.3230846739342423e-01
7515:-2.2541566772525212e-01
7516:-2.4353383992548180e-01
7517:-2.3752065188483801e-01
7518:-2.2931468070708372e-01
7519:-2.2276327220889272e-01
7520:-2.2653268112505423e-01
7521:-2.1858752130386327e-01
7522:-2.0810872151728546e-01
7523:-2.0000206195875378e-01
7524:-2.2456344325565888e-01
7525:-2.1697619195874426e-01
7526:-2.0694201491658445e-01
7527:-1.9915866784646749e-01
7528:-2.2166017549380615e-01
7529:-2.1451923819183449e-01
7530:-2.0504135773862128e-01
7531:-1.9766418786640672e-01
7532:-2.1918638063126045e-01
7533:-2.1237194517943189e-01
7534:-2.0330258266124959e-01
7535:-1.9622507708296377e-01
7536:-1.9566137922725330e-01
7537:-1.8753033036808184e-01
7538:-1.7696700345413172e-01
7539:-1.6891224911457994e-01
7540:-1.9498392675770651e-01
7541:-1.8715128051346849e-01
7542:-1.7695209872636750e-01
7543:-1.6915760400994767e-01
7544:-1.9369859689475835e-01
7545:-1.8624346077517540e-01
7546:-1.7650755309163993e-01
7547:-1.6904600344297341e-01
7548:-1.9241434452362344e-01
7549:-1.8523973156984269e-01
7550:-1.7584987496654400e-01
7551:-1.6863826310307362e-01
7552:-1.6463870958486876e-01
7553:-1.5669619564085072e-01
7554:-1.4649590382906008e-01
7555:-1.3880585811437701e-01
7556:-1.6501620533288286e-01
7557:-1.5730921167742307e-01
7558:-1.4739193431400238e-01
7559:-1.3990037262722624e-01
7560:-1.6507424305614329e-01
7561:-1.5767041141718130e-01
7562:-1.4811912609546771e-01
7563:-1.4088573459376111e-01
7564:-1.6479424247424695e-01
7565:-1.5761933747802770e-01
7566:-1.4834579654840960e-01
7567:-1.4130952578378322e-01
7568:-1.3475579009700295e-01
7569:-1.2727606460615945e-01
7570:-1.1775974631400238e-01
7571:-1.1065264146663521e-01
7572:-1.3594961312870948e-01
7573:-1.2864454768524083e-01
7574:-1.1933382861467198e-01
7575:-1.1236776391200266e-01
7576:-1.3706474829284482e-01
7577:-1.2998909301549871e-01
7578:-1.2095065069880927e-01
7579:-1.1417305686235542e-01
7580:-1.3758810063291507e-01
7581:-1.3068927833161381e-01
7582:-1.2186225614779926e-01
7583:-1.1523215681852778e-01
7584:-1.0693279381648414e-01
7585:-1.0010090758889169e-01
7586:-9.1481604057222832e-02
7587:-8.5099920511803040e-02
7588:-1.0871740794254151e-01
7589:-1.0200603580456563e-01
7590:-9.3525039157761586e-02
7591:-8.7235165698821684e-02
7592:-1.1061615437082679e-01
7593:-1.0406775055296319e-01
7594:-9.5775642839768999e-02
7595:-8.9612778166136414e-02
7596:-1.1174878798582738e-01
7597:-1.0532928118524690e-01
7598:-9.7187960500963247e-02
7599:-9.1127684705779935e-02
7600:-8.1779186146009306e-02
7601:-7.5712431851150300e-02
7602:-6.8120470810780334e-02
7603:-6.2547255745421096e-02
7604:-8.3958461808804716e-02
7605:-7.7966035645231371e-02
7606:-7.0455383950535855e-02
7607:-6.4932888861318372e-02
7608:-8.6397641488645052e-02
7609:-8.0510362653450532e-02
7610:-7.3117198307341660e-02
7611:-6.7670087201816928e-02
7612:-8.7962754786435365e-02
7613:-8.2162051582909831e-02
7614:-7.4867273313167670e-02
7615:-6.9484660323930539e-02
7616:-5.9664193337119822e-02
7617:-5.4426327485439713e-02
7618:-4.7929045194862872e-02
7619:-4.3204339751147749e-02
7620:-6.2072906992930145e-02
7621:-5.6871800239613003e-02
7622:-5.0410053344164110e-02
7623:-4.5703313586725830e-02
7624:-6.4845255760315607e-02
7625:-5.9701647494926062e-02
7626:-5.3298853302330772e-02
7627:-4.8625315355661239e-02
7628:-6.6690441641517634e-02
7629:-6.1597882981214581e-02
7630:-5.5249544861062615e-02
7631:-5.0608688909231328e-02
7632:-4.0776405252070179e-02
7633:-3.6393896362807265e-02
7634:-3.1014035936568839e-02
7635:-2.7146576689379857e-02
7636:-4.3281780009764292e-02
7637:-3.8906091668600311e-02
7638:-3.3525344320883083e-02
7639:-2.9649941170169596e-02
7640:-4.6217373783717992e-02
7641:-4.1860444983713038e-02
7642:-3.6491405290979599e-02
7643:-3.2615456462063215e-02
7644:-4.8215063313976535e-02
7645:-4.3879851984088378e-02
7646:-3.8529363119099151e-02
7647:-3.4660306766369608e-02
7648:-2.5175503260601879e-02
7649:-2.1647255388628286e-02
7650:-1.7375337148133642e-02
7651:-1.4351934604155786e-02
7652:-2.7672159181455186e-02
7653:-2.4127269660946415e-02
7654:-1.9825939563331643e-02
7655:-1.6774225284778264e-02
7656:-3.0634124282649632e-02
7657:-2.7077165972824627e-02
7658:-2.2749802853778874e-02
7659:-1.9670426172080601e-02
7660:-3.2680127990953239e-02
7661:-2.9121117025221275e-02
7662:-2.4783045253906736e-02
7663:-2.1689441873555267e-02
7664:-1.2828686598088673e-02
7665:-1.0134393331767761e-02
7666:-6.9375302924532308e-03
7667:-4.7281785124116717e-03
7668:-1.5233904929106579e-02
7669:-1.2504262872635997e-02
7670:-9.2549528626376977e-03
7671:-7.0006411339524283e-03
7672:-1.8112710744255005e-02
7673:-1.5345982394061368e-02
7674:-1.2039779729883751e-02
7675:-9.7354479475983552e-03
7676:-2.0122072061961208e-02
7677:-1.7333736014028711e-02
7678:-1.3992645974223674e-02
7679:-1.1656515847434906e-02
7680:-3.6351056141943686e-03
7681:-1.7387530415085195e-03
7682:4.3569054531832752e-04
7683:1.8756757922959594e-03
7684:-5.8819572567209424e-03
7685:-3.9346537128635709e-03
7686:-1.6881184431009910e-03
7687:-1.8859331598689347e-04
7688:-8.5878795702364584e-03
7689:-6.5824726828633204e-03
7690:-4.2525642653712219e-03
7691:-2.6833739668819948e-03
7692:-1.0490241998251206e-02
7693:-8.4466590804190972e-03
7694:-6.0609884556078273e-03
7695:-4.4445302102685564e-03
7696:2.5639424680556186e-03
7697:3.7131509240836596e-03
7698:4.9379038884271352e-03
7699:5.6693408439864599e-03
7700:5.3291555850982619e-04
7701:1.7473343535116832e-03
7702:3.0627504003150792e-03
7703:3.8679808988481864e-03
7704:-1.9227104639903513e-03
7705:-6.3107158981113632e-04
7706:7.9245832768039303e-04
7707:1.6862199463747657e-03
7708:-3.6570864226816986e-03
7709:-2.3122926995060526e-03
7710:-8.1372386694628194e-04
7711:1.4191955473356026e-04
7712:5.9870862285381693e-03
7713:6.4577438907884649e-03
7714:6.8310820863462379e-03
7715:6.9362899727492908e-03
7716:4.2265956018765725e-03
7717:4.7770473489551551e-03
7718:5.2607052244000646e-03
7719:5.4553058090534576e-03
7720:2.0940386812172860e-03
7721:2.7408070398910224e-03
7722:3.3580692640624676e-03
7723:3.6612333182204021e-03
7724:5.8427055617674812e-04
7725:1.2988335298861381e-03
7726:2.0104837470049145e-03
7727:2.3905823225663964e-03
7728:6.9299899311721733e-03
7729:6.8151965537486953e-03
7730:6.4707440694869141e-03
7731:6.0618434010225571e-03
7732:5.4984033628702692e-03
7733:5.4800271629353477e-03
7734:5.2688908701148908e-03
7735:4.9680582377154194e-03
7736:3.7644142363327010e-03
7737:3.8633900603522583e-03
7738:3.8146228701569822e-03
7739:3.6454643987449535e-03
7740:2.5364134688248574e-03
7741:2.7187481529284512e-03
7742:2.7853902952284450e-03
7743:2.7098592836012365e-03
7744:5.7949187847907094e-03
7745:5.2228306633011678e-03
7746:4.3468241093938004e-03
7747:3.5817405097852751e-03
7748:4.7608828625299339e-03
7749:4.3056440512667018e-03
7750:3.5916985127441075e-03
7751:2.9583698633466318e-03
7752:3.5110959893431305e-03
7753:3.1981388780229795e-03
7754:2.6812798669849118e-03
7755:2.2079767944512257e-03
7756:2.6272623655901779e-03
7757:2.4153864473048670e-03
7758:2.0383276817762786e-03
7759:1.6783586519553704e-03
7760:3.1439296288118686e-03
7761:2.2939636737524965e-03
7762:1.1428765608792930e-03
7763:2.3597580588762790e-04
7764:2.5935466894656395e-03
7765:1.8866648660156816e-03
7766:9.3471450471211835e-04
7767:1.9023107104026844e-04
7768:1.9317191994402800e-03
7769:1.3981788967226978e-03
7770:6.8688497887888715e-04
7771:1.3822364605006114e-04
7772:1.4647539356349151e-03
7773:1.0535999322096167e-03
7774:5.1171898689973433e-04
7775:1.0052041232877161e-04
7776:-4.5792466353475770e-03
7777:-2.1755988539082591e-02
7778:-4.3962172502165039e-02
7779:-6.0794750458992228e-02
7780:-4.4004942890532618e-03
7781:-2.0904812016795522e-02
7782:-4.2246541601123754e-02
7783:-5.8428844912948134e-02
7784:-4.1741684767638652e-03
7785:-1.9854007463940809e-02
7786:-4.0133998504475646e-02
7787:-5.5516152168126852e-02
7788:-4.0099416405312855e-03
7789:-1.9094114939584659e-02
7790:-3.8606185612785907e-02
7791:-5.3408898243893006e-02
7792:-6.9682929412431885e-02
7793:-8.6079481454956613e-02
7794:-1.0686681582217017e-01
7795:-1.2230950869112719e-01
7796:-6.6975959940431470e-02
7797:-8.2750666366718725e-02
7798:-1.0276561736192401e-01
7799:-1.1764787667397668e-01
7800:-6.3643033751234424e-02
7801:-7.8650306313946441e-02
7802:-9.7709563029220209e-02
7803:-1.1189644082398124e-01
7804:-6.1231163285478486e-02
7805:-7.5681246318234238e-02
7806:-9.4044799738380841e-02
7807:-1.0772404009977196e-01
7808:-1.3035212582594050e-01
7809:-1.4498306669420588e-01
7810:-1.6312810598967192e-01
7811:-1.7629438123528929e-01
7812:-1.2540382907071099e-01
7813:-1.3952524896857255e-01
7814:-1.5706341903793178e-01
7815:-1.6980993967306088e-01
7816:-1.1929596278857262e-01
7817:-1.3278190940425813e-01
7818:-1.4955902746993374e-01
7819:-1.6177562863538539e-01
7820:-1.1486282824971873e-01
7821:-1.2788267039678325e-01
7822:-1.4409893789736389e-01
7823:-1.5592279750584603e-01
7824:-1.8303903426062182e-01
7825:-1.9510950484960354e-01
7826:-2.0968626397354032e-01
7827:-2.1995320714468278e-01
7828:-1.7634743535642089e-01
7829:-1.8806307021456847e-01
7830:-2.0224367495251006e-01
7831:-2.1225797165241489e-01
7832:-1.6805023732735808e-01
7833:-1.7931341903533321e-01
7834:-1.9298471100574593e-01
7835:-2.0267078377514944e-01
7836:-1.6200169727552188e-01
7837:-1.7292632071045722e-01
7838:-1.8621309478839970e-01
7839:-1.9564858978208252e-01
7840:-2.2509940697463690e-01
7841:-2.3410823441321885e-01
7842:-2.4458506394113702e-01
7843:-2.5163753998504390e-01
7844:-2.1728755089293555e-01
7845:-2.2611147234054474e-01
7846:-2.3641354804688214e-01
7847:-2.4338295467122764e-01
7848:-2.0754750125040436e-01
7849:-2.1612614398097613e-01
7850:-2.2618950270159585e-01
7851:-2.3303800330260380e-01
7852:-2.0040751684245611e-01
7853:-2.0879492085243043e-01
7854:-2.1866693794981248e-01
7855:-2.2541307336208150e-01
7856:-2.5504962811072490e-01
7857:-2.6080166679797462e-01
7858:-2.6704041793865047e-01
7859:-2.7086188564788460e-01
7860:-2.4676866575132739e-01
7861:-2.5250251907140903e-01
7862:-2.5877715884750419e-01
7863:-2.6267055648129489e-01
7864:-2.3638104983281352e-01
7865:-2.4207264283772878e-01
7866:-2.4836428230368376e-01
7867:-2.5232468172334999e-01
7868:-2.2871707264244276e-01
7869:-2.3436239612244869e-01
7870:-2.4064542359750041e-01
7871:-2.4463814098180706e-01
7872:-2.7256230478240995e-01
7873:-2.7514987870736091e-01
7874:-2.7736410173143772e-01
7875:-2.7818613430676487e-01
7876:-2.6442447102305888e-01
7877:-2.6713678523073592e-01
7878:-2.6955962540773581e-01
7879:-2.7057564626369235e-01
7880:-2.5413284184452478e-01
7881:-2.5697766001524108e-01
7882:-2.5963131837189107e-01
7883:-2.6086721512564970e-01
7884:-2.4647696824496459e-01
7885:-2.4940192866597627e-01
7886:-2.5220274824035416e-01
7887:-2.5358293743252280e-01
7888:-2.7832106905089937e-01
7889:-2.7805540726057937e-01
7890:-2.7671973523091720e-01
7891:-2.7495602803033725e-01
7892:-2.7082548795729960e-01
7893:-2.7079231927251640e-01
7894:-2.6979066276008301e-01
7895:-2.6830507562184153e-01
7896:-2.6124872867303039e-01
7897:-2.6148387721224170e-01
7898:-2.6087114721713661e-01
7899:-2.5971187852951388e-01
7900:-2.5405195856528145e-01
7901:-2.5446706235082939e-01
7902:-2.5411817179182067e-01
7903:-2.5318241088383081e-01
7904:-2.7376226565971523e-01
7905:-2.7110702055703045e-01
7906:-2.6685962597327290e-01
7907:-2.6302246787079808e-01
7908:-2.6726671171531824e-01
7909:-2.6491185803522932e-01
7910:-2.6107153659940863e-01
7911:-2.5755687237031238e-01
7912:-2.5885668274970725e-01
7913:-2.5685749709210154e-01
7914:-2.5350216627754041e-01
7915:-2.5037390530796966e-01
7916:-2.5245338892792057e-01
7917:-2.5070044546771669e-01
7918:-2.4768320479427650e-01
7919:-2.4482597577270870e-01
7920:-2.6078019146390913e-01
7921:-2.5626762009470305e-01
7922:-2.4981198866968224e-01
7923:-2.4444526377294054e-01
7924:-2.5548963082439219e-01
7925:-2.5130735164577428e-01
7926:-2.4528476969255808e-01
7927:-2.4025091438508528e-01
7928:-2.4851712230845938e-01
7929:-2.4473329119533144e-01
7930:-2.3923554058788632e-01
7931:-2.3460683204699745e-01
7932:-2.4311737443805248e-01
7933:-2.3961509375535273e-01
7934:-2.3449004968788401e-01
7935:-2.3015036337916694e-01
7936:-2.4144498275445112e-01
7937:-2.3561500693022311e-01
7938:-2.2764339177486873e-01
7939:-2.2126765244270477e-01
7940:-2.3742800630634675e-01
7941:-2.3192773199934200e-01
7942:-2.2437883830471270e-01
7943:-2.1832074568539753e-01
7944:-2.3200037956397263e-01
7945:-2.2690339797631537e-01
7946:-2.1987349794654654e-01
7947:-2.1420695698875569e-01
7948:-2.2769875502498171e-01
7949:-2.2289102438281128e-01
7950:-2.1623489253847406e-01
7951:-2.1085158614934463e-01
7952:-2.1778280229299676e-01
7953:-2.1113690242163324e-01
7954:-2.0227901214104557e-01
7955:-1.9535715241074234e-01
7956:-2.1500261695172693e-01
7957:-2.0866260463059771e-01
7958:-2.0018968435931472e-01
7959:-1.9355201360807434e-01
7960:-2.1109492886549905e-01
7961:-2.0513421874842427e-01
7962:-1.9714081855718352e-01
7963:-1.9085866894962106e-01
7964:-2.0788910975508273e-01
7965:-2.0220449262138712e-01
7966:-1.9456169943174287e-01
7967:-1.8854058917054684e-01
7968:-1.9162705609329458e-01
7969:-1.8459883971437935e-01
7970:-1.7539014453620727e-01
7971:-1.6830976410598125e-01
7972:-1.8996943193138813e-01
7973:-1.8320943335146811e-01
7974:-1.7433344825057537e-01
7975:-1.6749473385301258e-01
7976:-1.8746112994655309e-01
7977:-1.8103835113681327e-01
7978:-1.7258224070417041e-01
7979:-1.6604982089852341e-01
7980:-1.8527927249823450e-01
7981:-1.7910535317481441e-01
7982:-1.7096036282810009e-01
7983:-1.6465595601706620e-01
7984:-1.6453293771397687e-01
7985:-1.5747869309866011e-01
7986:-1.4835205605050678e-01
7987:-1.4142048593142245e-01
7988:-1.6384189782109804e-01
7989:-1.5701082064220478e-01
7990:-1.4815688902502300e-01
7991:-1.4142043423161785e-01
7992:-1.6255464205624140e-01
7993:-1.5600831821049702e-01
7994:-1.4750421069336592e-01
7995:-1.4101941898672640e-01
7996:-1.6127854284542173e-01
7997:-1.5494564558770060e-01
7998:-1.4670507190771878e-01
7999:-1.4041083423747702e-01
8000:-1.3775211261257334e-01
8001:-1.3094778561668899e-01
8002:-1.2223423246349036e-01
8003:-1.1568365554493883e-01
8004:-1.3785118611342562e-01
8005:-1.3122379655440300e-01
8006:-1.2272345574107449e-01
8007:-1.1632292086831846e-01
8008:-1.3757848910465437e-01
8009:-1.3118086384466324e-01
8010:-1.2295884569484149e-01
8011:-1.1675538412753482e-01
8012:-1.3706739039743496e-01
8013:-1.3084487530182209e-01
8014:-1.2283610605422800e-01
8015:-1.1678457894279348e-01
8016:-1.1224005853219099e-01
8017:-1.0589049926892465e-01
8018:-9.7831488206205477e-02
8019:-9.1827623394417995e-02
8020:-1.1295460182516587e-01
8021:-1.0673789407935118e-01
8022:-9.8836115593722323e-02
8023:-9.2940722594966538e-02
8024:-1.1348640603759745e-01
8025:-1.0744588096286790e-01
8026:-9.9754289947924346e-02
8027:-9.4005199632253664e-02
8028:-1.1359254544317277e-01
8029:-1.0768910614200279e-01
8030:-1.0016224723245637e-01
8031:-9.4528730452273890e-02
8032:-8.8690460933301685e-02
8033:-8.2937901702654498e-02
8034:-7.5698348837606844e-02
8035:-7.0352359494689584e-02
8036:-8.9857213571426051e-02
8037:-8.4198088759755554e-02
8038:-7.7066540460250216e-02
8039:-7.1792878464322266e-02
8040:-9.0994523903104640e-02
8041:-8.5462995065905489e-02
8042:-7.8480489685025578e-02
8043:-7.3307951107198413e-02
8044:-9.1575915475131400e-02
8045:-8.6146308552899287e-02
8046:-7.9283990706443333e-02
8047:-7.4193949646164145e-02
8048:-6.7575685762960649e-02
8049:-6.2512684111980799e-02
8050:-5.6196514374368706e-02
8051:-5.1575547891161352e-02
8052:-6.9051133034543605e-02
8053:-6.4047495565203436e-02
8054:-5.7797017044427253e-02
8055:-5.3217612598147564e-02
8056:-7.0615558695448249e-02
8057:-6.5696746928270655e-02
8058:-5.9542065311983666e-02
8059:-5.5024923348128356e-02
8060:-7.1542189915261137e-02
8061:-6.6693865577452660e-02
8062:-6.0620095109416794e-02
8063:-5.6156635860123878e-02
8064:-4.9190888899364418e-02
8065:-4.4869770737723386e-02
8066:-3.9532458287552502e-02
8067:-3.5669588884886659e-02
8068:-5.0852083574666161e-02
8069:-4.6561764475778901e-02
8070:-4.1254898190973992e-02
8071:-3.7408047981268171e-02
8072:-5.2688722295416414e-02
8073:-4.8446858333097691e-02
8074:-4.3190623858249046e-02
8075:-3.9373114111202333e-02
8076:-5.3846153954543279e-02
8077:-4.9647578043366641e-02
8078:-4.4438291159473821e-02
8079:-4.0649591132471609e-02
8080:-3.3691358183447630e-02
8081:-3.0133736824633994e-02
8082:-2.5793161056956018e-02
8083:-2.2694402196466609e-02
8084:-3.5435829075322535e-02
8085:-3.1885237890400812e-02
8086:-2.7545722054260716e-02
8087:-2.4441682734836993e-02
8088:-3.7413260368979510e-02
8089:-3.3880339153862037e-02
8090:-2.9553287260474449e-02
8091:-2.6450822869231002e-02
8092:-3.8702608820901978e-02
8093:-3.5189613889170433e-02
8094:-3.0880444618522664e-02
8095:-2.7785554221073393e-02
8096:-2.1123169826885998e-02
8097:-1.8325698356033905e-02
8098:-1.4969064566417622e-02
8099:-1.2618279289420213e-02
8100:-2.2865532619018004e-02
8101:-2.0055254327863495e-02
8102:-1.6675033009610873e-02
8103:-1.4300964563183848e-02
8104:-2.4872748784268820e-02
8105:-2.2054130978829415e-02
8106:-1.8653931474018833e-02
8107:-1.6257664472912711e-02
8108:-2.6209386291872094e-02
8109:-2.3390684534287696e-02
8110:-1.9983328804346535e-02
8111:-1.7576241230474382e-02
8112:-1.1443241166378135e-02
8113:-9.3815480898172855e-03
8114:-6.9690307895633663e-03
8115:-5.3295499507702978e-03
8116:-1.3111706781547506e-02
8117:-1.1020179501829670e-02
8118:-8.5626441277790837e-03
8119:-6.8840272479875992e-03
8120:-1.5054179471644530e-02
8121:-1.2931796450791403e-02
8122:-1.0425962149665761e-02
8123:-8.7042110007873718e-03
8124:-1.6365132030746628e-02
8125:-1.4225224070458136e-02
8126:-1.1690300877546619e-02
8127:-9.9415190274049336e-03
8128:-4.5289793101195340e-03
8129:-3.1579992256162534e-03
8130:-1.6222247840355327e-03
8131:-6.3573320365191606e-04
8132:-6.0609767698433653e-03
8133:-4.6448910629913309e-03
8134:-3.0445601478426556e-03
8135:-2.0042177181423546e-03
8136:-7.8560310907224915e-03
8137:-6.3889723107495968e-03
8138:-4.7147017711554502e-03
8139:-3.6120049567982386e-03
8140:-9.0772759992896589e-03
8141:-7.5771510003729238e-03
8142:-5.8540612859632416e-03
8143:-4.7096159998264676e-03
8144:-1.7611500083656044e-04
8145:5.7242104947403374e-04
8146:1.3314994331205569e-03
8147:1.7503435691656971e-03
8148:-1.5143538607044762e-03
8149:-7.0616758692946342e-04
8150:1.3643486058113725e-04
8151:6.2368300534648680e-04
8152:-3.0869071258529755e-03
8153:-2.2089392722738493e-03
8154:-1.2681128412045889e-03
8155:-7.0007126975675472e-04
8156:-4.1607482188598770e-03
8157:-3.2354560435639908e-03
8158:-2.2275849474686932e-03
8159:-1.6041036867364235e-03
8160:1.9176803270770668e-03
8161:2.1420667037116365e-03
8162:2.2669530721291134e-03
8163:2.2386843419455096e-03
8164:8.2903872499592390e-04
8165:1.1278050157160710e-03
8166:1.3557597972252400e-03
8167:1.4111473869331443e-03
8168:-4.4970500744963304e-04
8169:-6.2804175423262603e-05
8170:2.8737148509433988e-04
8171:4.4200072637767037e-04
8172:-1.3227640896739765e-03
8173:-8.7515372486212458e-04
8174:-4.4071722816694332e-04
8175:-2.1764025290925973e-04
8176:2.1822209482133333e-03
8177:2.0213321113601882e-03
8178:1.7147044429650297e-03
8179:1.4117619377421009e-03
8180:1.4009410112199967e-03
8181:1.3302255137730965e-03
8182:1.1479823103167687e-03
8183:9.4560437138114487e-04
8184:4.8666650869667562e-04
8185:5.2275676435707165e-04
8186:4.8746119898440666e-04
8187:4.0357505823566757e-04
8188:-1.3513263748757745e-04
8189:-2.5527220289465690e-05
8190:3.9991141013663207e-05
8191:3.7122189030802826e-05
8192:1.2296539668315988e-03
8193:8.7993185772786164e-04
8194:4.2289118290760356e-04
8195:8.0379885902421419e-05
8196:8.1898073350302532e-04
8197:5.7728442579450172e-04
8198:2.6903432208739861e-04
8199:4.6678886047092734e-05
8200:3.4219986556325438e-04
8201:2.2713196375344710e-04
8202:9.2449918615868725e-05
8203:9.6092293569952481e-06
8204:2.0249407657306111e-05
8205:-8.8045844344239743e-06
8206:-2.6320218313632822e-05
8207:-1.5547353358481309e-05
8208:-3.9268340913101102e-03
8209:-1.8704958796707274e-02
8210:-3.7822387590933523e-02
8211:-5.2327219145076112e-02
8212:-3.7785481396775292e-03
8213:-1.7999251689631443e-02
8214:-3.6398398901045660e-02
8215:-5.0361353924579098e-02
8216:-3.5969448674121655e-03
8217:-1.7121867468672763e-02
8218:-3.4625163335512299e-02
8219:-4.7912637430503231e-02
8220:-3.4641405111515791e-03
8221:-1.6479102151121187e-02
8222:-3.3325994321670868e-02
8223:-4.6118520396697255e-02
8224:-5.9992830440975267e-02
8225:-7.4156082888712366e-02
8226:-9.2160897066876815e-02
8227:-1.0557789882868325e-01
8228:-5.7742052675916679e-02
8229:-7.1383352554987012e-02
8230:-8.8734667013589508e-02
8231:-1.0167335790979795e-01
8232:-5.4938215503803518e-02
8233:-6.7928446833390527e-02
8234:-8.4463379010314296e-02
8235:-9.6803448718454033e-02
8236:-5.2883824275791677e-02
8237:-6.5396499975226702e-02
8238:-8.1331720497496804e-02
8239:-9.3231232881426679e-02
8240:-1.1258181983821619e-01
8241:-1.2536020819343252e-01
8242:-1.4128519775501883e-01
8243:-1.5290446338363572e-01
8244:-1.0843104873085900e-01
8245:-1.2076813312833573e-01
8246:-1.3615980511634587e-01
8247:-1.4740370642851336e-01
8248:-1.0325252794124955e-01
8249:-1.1503551389172113e-01
8250:-1.2975556088939522e-01
8251:-1.4052516050992586e-01
8252:-9.9452848535829572e-02
8253:-1.1082658542146687e-01
8254:-1.2504885349474135e-01
8255:-1.3546554065060348e-01
8256:-1.5888115958706658e-01
8257:-1.6962835755879171e-01
8258:-1.8271235903376148e-01
8259:-1.9201468611959821e-01
8260:-1.5319258709172504e-01
8261:-1.6361281393588800e-01
8262:-1.7632111441007597e-01
8263:-1.8537494277890582e-01
8264:-1.4607610024636317e-01
8265:-1.5608043658400547e-01
8266:-1.6830725200293462e-01
8267:-1.7703944344033049e-01
8268:-1.4083891021948977e-01
8269:-1.5053170416841499e-01
8270:-1.6239532374509782e-01
8271:-1.7088270175046114e-01
8272:-1.9671061334841244e-01
8273:-2.0499494425615322e-01
8274:-2.1476202192813260e-01
8275:-2.2145018092950891e-01
8276:-1.8995258566853257e-01
8277:-1.9804197592599851e-01
8278:-2.0760746761971724e-01
8279:-2.1418124875968711e-01
8280:-1.8146268464293994e-01
8281:-1.8929501418863343e-01
8282:-1.9858903395717928e-01
8283:-2.0500344498840914e-01
8284:-1.7518752236748850e-01
8285:-1.8282086845908083e-01
8286:-1.9190081028828768e-01
8287:-1.9818590521503443e-01
8288:-2.2473114021041257e-01
8289:-2.3034703875642681e-01
8290:-2.3661824711817298e-01
8291:-2.4062195727548807e-01
8292:-2.1741531873489370e-01
8293:-2.2296824142298224e-01
8294:-2.2920549305063267e-01
8295:-2.3321957503866655e-01
8296:-2.0816969918823630e-01
8297:-2.1362621162796266e-01
8298:-2.1979722624295961e-01
8299:-2.2380551475122989e-01
8300:-2.0129549108196093e-01
8301:-2.0666789855885512e-01
8302:-2.1277214367801375e-01
8303:-2.1676171241012904e-01
8304:-2.4247358964231217e-01
8305:-2.4543424129833796e-01
8306:-2.4830357968256003e-01
8307:-2.4975248997158653e-01
8308:-2.3508934358801034e-01
8309:-2.3810508984518955e-01
8310:-2.4108601229542478e-01
8311:-2.4264983268336987e-01
8312:-2.2568777455996497e-01
8313:-2.2875293855296594e-01
8314:-2.3184749616332706e-01
8315:-2.3353499580749668e-01
8316:-2.1864524620076128e-01
8317:-2.2173168188139211e-01
8318:-2.2488991970275121e-01
8319:-2.2665312804815124e-01
8320:-2.5026359126882480e-01
8321:-2.5076589078648337e-01
8322:-2.5054604948937714e-01
8323:-2.4972046040259954e-01
8324:-2.4323210859300975e-01
8325:-2.4388326195554619e-01
8326:-2.4388610296017502e-01
8327:-2.4325217138794020e-01
8328:-2.3419563764809670e-01
8329:-2.3501349054446430e-01
8330:-2.3527048257672792e-01
8331:-2.3485834089911134e-01
8332:-2.2736333690766866e-01
8333:-2.2828898856349306e-01
8334:-2.2871424685164224e-01
8335:-2.2845139592856914e-01
8336:-2.4905391024333529e-01
8337:-2.4742333363109523e-01
8338:-2.4457492225109134e-01
8339:-2.4185362412542993e-01
8340:-2.4269476955373046e-01
8341:-2.4127870028084741e-01
8342:-2.3872755061796763e-01
8343:-2.3624652772625890e-01
8344:-2.3442816140501307e-01
8345:-2.3326354378043804e-01
8346:-2.3106347134294802e-01
8347:-2.2886810032361921e-01
8348:-2.2810757801590495e-01
8349:-2.2711482685863316e-01
8350:-2.2515687909204576e-01
8351:-2.2316005532349414e-01
8352:-2.4021953765201978e-01
8353:-2.3685919518787907e-01
8354:-2.3192269997604789e-01
8355:-2.2772968964955087e-01
8356:-2.3474447146778896e-01
8357:-2.3163621092831355e-01
8358:-2.2703569784936564e-01
8359:-2.2310488358008065e-01
8360:-2.2752363761455963e-01
8361:-2.2471740819060002e-01
8362:-2.2052163205786354e-01
8363:-2.1690828933274289e-01
8364:-2.2192564399190151e-01
8365:-2.1933123111725969e-01
8366:-2.1542101050929660e-01
8367:-2.1203292019766018e-01
8368:-2.2535681519963638e-01
8369:-2.2069643811695261e-01
8370:-2.1423128068512245e-01
8371:-2.0899314574597416e-01
8372:-2.2087303878875800e-01
8373:-2.1647713363554394e-01
8374:-2.1035574077412525e-01
8375:-2.0537965788382415e-01
8376:-2.1484776630806598e-01
8377:-2.1077417164980997e-01
8378:-2.0507365096223165e-01
8379:-2.0041979280037936e-01
8380:-2.1009438941179043e-01
8381:-2.0625109725470497e-01
8382:-2.0085278392316280e-01
8383:-1.9643135965984021e-01
8384:-2.0610748903680373e-01
8385:-2.0056498250032456e-01
8386:-1.9310317692282555e-01
8387:-1.8721718239183072e-01
8388:-2.0263291933318039e-01
8389:-1.9734781942573057e-01
8390:-1.9021465800609810e-01
8391:-1.8457465111073765e-01
8392:-1.9784433776148230e-01
8393:-1.9287742216052092e-01
8394:-1.8615210519045255e-01
8395:-1.8081863312542401e-01
8396:-1.9397981243648246e-01
8397:-1.8924370949449482e-01
8398:-1.8281551133372487e-01
8399:-1.7770635064802895e-01
8400:-1.8402649420527209e-01
8401:-1.7798182960636819e-01
8402:-1.6999890028879733e-01
8403:-1.6381365006483384e-01
8404:-1.8151278022756343e-01
8405:-1.7570432238974307e-01
8406:-1.6801843743860728e-01
8407:-1.6205225143102361e-01
8408:-1.7791775138808663e-01
8409:-1.7240538680394882e-01
8410:-1.6509354096961809e-01
8411:-1.5940443363930340e-01
8412:-1.7492363862685162e-01
8413:-1.6962928513070161e-01
8414:-1.6259409183172502e-01
8415:-1.5711082713167682e-01
8416:-1.6049792401550864e-01
8417:-1.5427706382874357e-01
8418:-1.4617527163990099e-01
8419:-1.3998170079191707e-01
8420:-1.5885016080135189e-01
8421:-1.5283604673876908e-01
8422:-1.4499105894633885e-01
8423:-1.3898432512780601e-01
8424:-1.5634648950211066e-01
8425:-1.5059532674966136e-01
8426:-1.4307833864550129e-01
8427:-1.3731134774368722e-01
8428:-1.5416027516284778e-01
8429:-1.4860555715942769e-01
8430:-1.4133469130594736e-01
8431:-1.3574846084102046e-01
8432:-1.3668986482529522e-01
8433:-1.3056025030743398e-01
8434:-1.2266502324342766e-01
8435:-1.1669472645382485e-01
8436:-1.3578848090058837e-01
8437:-1.2983206565713959e-01
8438:-1.2214929908119142e-01
8439:-1.1633159487764806e-01
8440:-1.3423908886037800e-01
8441:-1.2850643263448661e-01
8442:-1.2109962034094421e-01
8443:-1.1548121985969496e-01
8444:-1.3276970077214401e-01
8445:-1.2720690190340492e-01
8446:-1.2001064759914552e-01
8447:-1.1454512327904104e-01
8448:-1.1354395592638163e-01
8449:-1.0771423814816344e-01
8450:-1.0027635836078218e-01
8451:-9.4705565157520544e-02
8452:-1.1325854661439665e-01
8453:-1.0756802269697195e-01
8454:-1.0029880121702717e-01
8455:-9.4847428230838415e-02
8456:-1.1251007221906778e-01
8457:-1.0700268184805020e-01
8458:-9.9956628060524869e-02
8459:-9.4664296175390517e-02
8460:-1.1165241733694835e-01
8461:-1.0628648442731967e-01
8462:-9.9413775724332326e-02
8463:-9.4245753298462950e-02
8464:-9.1784258116407641e-02
8465:-8.6410342877309601e-02
8466:-7.9614084548435576e-02
8467:-7.4569708128198742e-02
8468:-9.1986307712402751e-02
8469:-8.6719140658548452e-02
8470:-8.0050223914167204e-02
8471:-7.5094447010648907e-02
8472:-9.1883714436194461e-02
8473:-8.6760085048825528e-02
8474:-8.0263746467568703e-02
8475:-7.5429103775709647e-02
8476:-9.1528409536681163e-02
8477:-8.6517986158193699e-02
8478:-8.0158727157772156e-02
8479:-7.5421056349373780e-02
8480:-7.1940562375224310e-02
8481:-6.7131675639369628e-02
8482:-6.1103588625890354e-02
8483:-5.6670780800708975e-02
8484:-7.2509388252290349e-02
8485:-6.7777738411294558e-02
8486:-6.1839830151769686e-02
8487:-5.7468122519870962e-02
8488:-7.2904708256893033e-02
8489:-6.8279991911246701e-02
8490:-6.2468261101777861e-02
8491:-5.8183149904710581e-02
8492:-7.2945496861204231e-02
8493:-6.8407340040147882e-02
8494:-6.2698702095749653e-02
8495:-5.8485132828149884e-02
8496:-5.4375116374166893e-02
8497:-5.0201724219850634e-02
8498:-4.5020267949676479e-02
8499:-4.1249112603883129e-02
8500:-5.5202227933831165e-02
8501:-5.1079863673074995e-02
8502:-4.5955693259495285e-02
8503:-4.2221432008615119e-02
8504:-5.5959876999912950e-02
8505:-5.1911351288579398e-02
8506:-4.6871678973672483e-02
8507:-4.3193212266871513e-02
8508:-5.6297373931219183e-02
8509:-5.2310910351183536e-02
8510:-4.7343348104063258e-02
8511:-4.3713410713161628e-02
8512:-3.9310168845215564e-02
8513:-3.5810012142235281e-02
8514:-3.1513271484867850e-02
8515:-2.8424635318559432e-02
8516:-4.0299715169741665e-02
8517:-3.6827689499988485e-02
8518:-3.2559568354727848e-02
8519:-2.9486741630250439e-02
8520:-4.1298103873497055e-02
8521:-3.7870580916198847e-02
8522:-3.3650044601771352e-02
8523:-3.0605736836377049e-02
8524:-4.1841807208352698e-02
8525:-3.8454271438654833e-02
8526:-3.4277940445525172e-02
8527:-3.1261459126746910e-02
8528:-2.6850661879291578e-02
8529:-2.4034118118390298e-02
8530:-2.0625803933553337e-02
8531:-1.8215123250015685e-02
8532:-2.7919059504435271e-02
8533:-2.5110643373436350e-02
8534:-2.1705843427906667e-02
8535:-1.9292479427712544e-02
8536:-2.9050479032495580e-02
8537:-2.6260582489021151e-02
8538:-2.2870685497342218e-02
8539:-2.0461707281204739e-02
8540:-2.9718915320557357e-02
8541:-2.6949206212576494e-02
8542:-2.3578545328144292e-02
8543:-2.1178902315130189e-02
8544:-1.7001103734905019e-02
8545:-1.4854010382792909e-02
8546:-1.2306377209522924e-02
8547:-1.0545315608438395e-02
8548:-1.8075155411221917e-02
8549:-1.5918613683232871e-02
8550:-1.3352371538191231e-02
8551:-1.1572266412482744e-02
8552:-1.9244263197850116e-02
8553:-1.7083239220961523e-02
8554:-1.4502915737199184e-02
8555:-1.2705751956185868e-02
8556:-1.9964541347123395e-02
8557:-1.7806027590786137e-02
8558:-1.5222645704394423e-02
8559:-1.3418317715400703e-02
8560:-9.6736402184744510e-03
8561:-8.1580132011042795e-03
8562:-6.4116837419631381e-03
8563:-5.2471300735455343e-03
8564:-1.0688770381965862e-02
8565:-9.1480548081081421e-03
8566:-7.3633651001253431e-03
8567:-6.1651260051138156e-03
8568:-1.1810975463516896e-02
8569:-1.0245320699082199e-02
8570:-8.4208055790782107e-03
8571:-7.1864987431806667e-03
8572:-1.2518040206757969e-02
8573:-1.0939187529324525e-02
8574:-9.0919065569002103e-03
8575:-7.8359349438723511e-03
8576:-4.6867415256061536e-03
8577:-3.7384137144589481e-03
8578:-2.6977369055190292e-03
8579:-2.0470131779020927e-03
8580:-5.5852874432436982e-03
8581:-4.5978621725747647e-03
8582:-3.5011463419669254e-03
8583:-2.8036453856946069e-03
8584:-6.5855053746896918e-03
8585:-5.5551042621388861e-03
8586:-4.3960122037807305e-03
8587:-3.6459244247395608e-03
8588:-7.2219294529280598e-03
8589:-6.1646815778173877e-03
8590:-4.9659193004501796e-03
8591:-4.1819228314979653e-03
8592:-1.7504193732010467e-03
8593:-1.2728865370595218e-03
8594:-7.9689276944623058e-04
8595:-5.4004704031550483e-04
8596:-2.4807872605059466e-03
8597:-1.9516830056813376e-03
8598:-1.4040021905698276e-03
8599:-1.0888768850361070e-03
8600:-3.2933861383638513e-03
8601:-2.7058906596420522e-03
8602:-2.0769035096675288e-03
8603:-1.6956153736100643e-03
8604:-3.8101101815274461e-03
8605:-3.1845946993047498e-03
8606:-2.5025414695026621e-03
8607:-2.0780135487785240e-03
8608:-4.3887203114251693e-04
8609:-2.9305883650333997e-04
8610:-1.7802079409387505e-04
8611:-1.4120468683658145e-04
8612:-9.5548641225836912e-04
8613:-7.4729888470450321e-04
8614:-5.4721435881169127e-04
8615:-4.4245706719688911e-04
8616:-1.5256537163325641e-03
8617:-1.2468926383132702e-03
8618:-9.5112919124327316e-04
8619:-7.7039097174584669e-04
8620:-1.8841522890236898e-03
8621:-1.5594740184272575e-03
8622:-1.2019363520021063e-03
8623:-9.7254067320908021e-04
8624:-1.3632305784499967e-04
8625:-1.2347219882576500e-04
8626:-8.4202288008443312e-05
8627:-2.8289823928249002e-05
8628:-4.0041862334946155e-04
8629:-3.1628273923403166e-04
8630:-1.8103380474913250e-04
8631:-4.9323029468558089e-05
8632:-6.8698396757711755e-04
8633:-5.2411509802860663e-04
8634:-2.8422343337171509e-04
8635:-7.0973646523901838e-05
8636:-8.6280609943175182e-04
8637:-6.5040657660707770e-04
8638:-3.4593781740062005e-04
8639:-8.3392248958857087e-05
8640:-3.3948066260699301e-03
8641:-1.6145971869541587e-02
8642:-3.2653240534061247e-02
8643:-4.5189569831842753e-02
8644:-3.2667378878097485e-03
8645:-1.5536292471042951e-02
8646:-3.1422763958542398e-02
8647:-4.3490267643821939e-02
8648:-3.1043087442241928e-03
8649:-1.4769399111026347e-02
8650:-2.9875396184977653e-02
8651:-4.1352609029942602e-02
8652:-2.9840418918327064e-03
8653:-1.4202173128294145e-02
8654:-2.8730301722800743e-02
8655:-3.9769980411332374e-02
8656:-5.1820093356000574e-02
8657:-6.4085336216013922e-02
8658:-7.9709523298750376e-02
8659:-9.1380268122420935e-02
8660:-4.9873979411546747e-02
8661:-6.1685812398139049e-02
8662:-7.6739446736869193e-02
8663:-8.7990085713163302e-02
8664:-4.7425285335567960e-02
8665:-5.8665120138289006e-02
8666:-7.2997788798977462e-02
8667:-8.3716672191824548e-02
8668:-4.5611961371228506e-02
8669:-5.6427087300641554e-02
8670:-7.0223517946763972e-02
8671:-8.0546194699508425e-02
8672:-9.7483651565241927e-02
8673:-1.0864434253678790e-01
8674:-1.2260681039413625e-01
8675:-1.3283876987935395e-01
8676:-9.3876172970380284e-02
8677:-1.0464478094629268e-01
8678:-1.1812798103016695e-01
8679:-1.2801821315660383e-01
8680:-8.9327377608185474e-02
8681:-9.9598143661596389e-02
8682:-1.1247075523616247e-01
8683:-1.2192391171677282e-01
8684:-8.5951457866253425e-02
8685:-9.5850157926922919e-02
8686:-1.0826502263767390e-01
8687:-1.1738932072640018e-01
8688:-1.3811899153387477e-01
8689:-1.4764797586004549e-01
8690:-1.5931981698303846e-01
8691:-1.6767722521743356e-01
8692:-1.3312575547683050e-01
8693:-1.4235039336299246e-01
8694:-1.5366453695886131e-01
8695:-1.6177835528640611e-01
8696:-1.2680992832161142e-01
8697:-1.3564281751821330e-01
8698:-1.4649383087895138e-01
8699:-1.5428997751100271e-01
8700:-1.2210819299231292e-01
8701:-1.3064450022030785e-01
8702:-1.4114280900183543e-01
8703:-1.4869528333213985e-01
8704:-1.7191889199086927e-01
8705:-1.7944552613127457e-01
8706:-1.8840939082707045e-01
8707:-1.9462321804397639e-01
8708:-1.6590118841612059e-01
8709:-1.7322604202346562e-01
8710:-1.8196831661096272e-01
8711:-1.8804421152171891e-01
8712:-1.5825692987234063e-01
8713:-1.6531522365638471e-01
8714:-1.7376080106561503e-01
8715:-1.7964849076368153e-01
8716:-1.5254197927723973e-01
8717:-1.5939323910589362e-01
8718:-1.6760545093812079e-01
8719:-1.7334255034821758e-01
8720:-1.9770106720360597e-01
8721:-2.0302526410687197e-01
8722:-2.0908853345782696e-01
8723:-2.1306326357489164e-01
8724:-1.9105981982399706e-01
8725:-1.9628768325684562e-01
8726:-2.0226484564398786e-01
8727:-2.0620352050108823e-01
8728:-1.8257766862113603e-01
8729:-1.8766857006723403e-01
8730:-1.9351591384001487e-01
8731:-1.9739213884674356e-01
8732:-1.7620150252736363e-01
8733:-1.8117894246001465e-01
8734:-1.8691382338367568e-01
8735:-1.9073087805929217e-01
8736:-2.1494463812901554e-01
8737:-2.1803676244819944e-01
8738:-2.2122103583994290e-01
8739:-2.2301819309753748e-01
8740:-2.0807608999192684e-01
8741:-2.1116952012147369e-01
8742:-2.1438960930779757e-01
8743:-2.1623986510314089e-01
8744:-1.9924434657617152e-01
8745:-2.0232198152941391e-01
8746:-2.0556438739706548e-01
8747:-2.0746400181360758e-01
8748:-1.9256100322142117e-01
8749:-1.9561373674158500e-01
8750:-1.9885533435754910e-01
8751:-2.0077811898009906e-01
8752:-2.2375130955461844e-01
8753:-2.2472771564045826e-01
8754:-2.2523370854881414e-01
8755:-2.2504341271266953e-01
8756:-2.1701010672119356e-01
8757:-2.1807045852908230e-01
8758:-2.1871271993782312e-01
8759:-2.1864658903673087e-01
8760:-2.0827164927868208e-01
8761:-2.0942026932459767e-01
8762:-2.1021169576629542e-01
8763:-2.1028508331363338e-01
8764:-2.0160630462376161e-01
8765:-2.0280693402175570e-01
8766:-2.0369168180952704e-01
8767:-2.0385555646404771e-01
8768:-2.2474183755603239e-01
8769:-2.2383360611299893e-01
8770:-2.2199556180682711e-01
8771:-2.2009764942793283e-01
8772:-2.1841781641852914e-01
8773:-2.1765612372364174e-01
8774:-2.1602753917700721e-01
8775:-2.1430349326420137e-01
8776:-2.1013918664809220e-01
8777:-2.0954608484573170e-01
8778:-2.0816164155150566e-01
8779:-2.0664239365554365e-01
8780:-2.0376433652387929e-01
8781:-2.0328393387579058e-01
8782:-2.0206527736346178e-01
8783:-2.0068682956037934e-01
8784:-2.1891825636477202e-01
8785:-2.1643006677660956e-01
8786:-2.1266366923682520e-01
8787:-2.0938948592322026e-01
8788:-2.1322115591493457e-01
8789:-2.1092092813512966e-01
8790:-2.0741009642533781e-01
8791:-2.0433909176958343e-01
8792:-2.0567505901932512e-01
8793:-2.0359870259288729e-01
8794:-2.0039439680535687e-01
8795:-1.9756861527362812e-01
8796:-1.9979910442118282e-01
8797:-1.9787865480718492e-01
8798:-1.9488954337997488e-01
8799:-1.9223714856885663e-01
8800:-2.0751280111510126e-01
8801:-2.0378654827287285e-01
8802:-1.9854234146327471e-01
8803:-1.9423981896272685e-01
8804:-2.0257298295209697e-01
8805:-1.9905646457642848e-01
8806:-1.9408932799490722e-01
8807:-1.9000125782003874e-01
8808:-1.9593647661127886e-01
8809:-1.9267500010509186e-01
8810:-1.8804657600627783e-01
8811:-1.8422200138017372e-01
8812:-1.9070014346078795e-01
8813:-1.8762051319168185e-01
8814:-1.8323500080000399e-01
8815:-1.7960043882719703e-01
8816:-1.9185178223785962e-01
8817:-1.8723421803753759e-01
8818:-1.8095907400889502e-01
8819:-1.7596582347800510e-01
8820:-1.8772800428626635e-01
8821:-1.8332512057640549e-01
8822:-1.7732801057184311e-01
8823:-1.7254594203662457e-01
8824:-1.8209024382670064e-01
8825:-1.7795287140419375e-01
8826:-1.7230126539493848e-01
8827:-1.6778282184480428e-01
8828:-1.7757107815299833e-01
8829:-1.7362652093171094e-01
8830:-1.6822708013112186e-01
8831:-1.6390195507832311e-01
8832:-1.7324430429065921e-01
8833:-1.6806307717977864e-01
8834:-1.6117186832988417e-01
8835:-1.5579604424927829e-01
8836:-1.6993612601569233e-01
8837:-1.6496177808059775e-01
8838:-1.5833460708358377e-01
8839:-1.5315636464897092e-01
8840:-1.6531285447692506e-01
8841:-1.6059824160589770e-01
8842:-1.5430399178379522e-01
8843:-1.4937597409718881e-01
8844:-1.6153484872090532e-01
8845:-1.5701184367175561e-01
8846:-1.5096430162973495e-01
8847:-1.4622256235522638e-01
8848:-1.5290165072981313e-01
8849:-1.4744985528354054e-01
8850:-1.4030833107012694e-01
8851:-1.3481740335927261e-01
8852:-1.5036544543115116e-01
8853:-1.4510367389186435e-01
8854:-1.3820168870899546e-01
8855:-1.3288781393386770e-01
8856:-1.4671649242105800e-01
8857:-1.4169684354939566e-01
8858:-1.3510148912071912e-01
8859:-1.3001530885449331e-01
8860:-1.4366123253720200e-01
8861:-1.3882295332615269e-01
8862:-1.3245835200957881e-01
8863:-1.2754430326260063e-01
8864:-1.3188805173106435e-01
8865:-1.2641520705406412e-01
8866:-1.1933082668771848e-01
8867:-1.1394679973639470e-01
8868:-1.3005044508464347e-01
8869:-1.2474539213790961e-01
8870:-1.1787032404156431e-01
8871:-1.1263926926255247e-01
8872:-1.2729659425782261e-01
8873:-1.2220861631805589e-01
8874:-1.1560557248829970e-01
8875:-1.1057428496667587e-01
8876:-1.2491555649872563e-01
8877:-1.1999265481211224e-01
8878:-1.1359741898010392e-01
8879:-1.0871947463149634e-01
8880:-1.1109600460020469e-01
8881:-1.0580582215845170e-01
8882:-9.9026279832413244e-02
8883:-9.3925339763485466e-02
8884:-1.0986732050143588e-01
8885:-1.0471997974289356e-01
8886:-9.8116764546867977e-02
8887:-9.3143278967847243e-02
8888:-1.0790565152545942e-01
8889:-1.0294612128620817e-01
8890:-9.6575971715210984e-02
8891:-9.1771885862135055e-02
8892:-1.0613041163843431e-01
8893:-1.0131600154210912e-01
8894:-9.5126843632084734e-02
8895:-9.0454989516412718e-02
8896:-9.1242221053234748e-02
8897:-8.6293234415839207e-02
8898:-8.0008691609079211e-02
8899:-7.5324126026036956e-02
8900:-9.0525362030055220e-02
8901:-8.5693711246687301e-02
8902:-7.9552441692097034e-02
8903:-7.4970165823966900e-02
8904:-8.9240957244942701e-02
8905:-8.4566410052731730e-02
8906:-7.8618076023614480e-02
8907:-7.4174422023107298e-02
8908:-8.7992201922141966e-02
8909:-8.3441137488272338e-02
8910:-7.7645271931930465e-02
8911:-7.3311813146313076e-02
8912:-7.2875401023280634e-02
8913:-6.8384967293702179e-02
8914:-6.2733489549319219e-02
8915:-5.8559849451706780e-02
8916:-7.2573297203509302e-02
8917:-6.8175390069566064e-02
8918:-6.2635335454370347e-02
8919:-5.8540007528763108e-02
8920:-7.1848150889778944e-02
8921:-6.7576783693390124e-02
8922:-6.2190236683591006e-02
8923:-5.8203688137068062e-02
8924:-7.1041899136731881e-02
8925:-6.6871961477108707e-02
8926:-6.1609266544525837e-02
8927:-5.7711114567160389e-02
8928:-5.6392010870455291e-02
8929:-5.2440531458728956e-02
8930:-4.7513963958512977e-02
8931:-4.3911902668582359e-02
8932:-5.6411414763477760e-02
8933:-5.2529163921528850e-02
8934:-4.7684334795923856e-02
8935:-4.4138367019518322e-02
8936:-5.6129935795457282e-02
8937:-5.2344989180699325e-02
8938:-4.7616190995739938e-02
8939:-4.4150795375748654e-02
8940:-5.5682156894425607e-02
8941:-5.1977094316447613e-02
8942:-4.7344365796395317e-02
8943:-4.3946345245339816e-02
8944:-4.2053912208199429e-02
8945:-3.8689742457820579e-02
8946:-3.4539679413360065e-02
8947:-3.1540122036511901e-02
8948:-4.2307968095082749e-02
8949:-3.8991526377932573e-02
8950:-3.4895885710045316e-02
8951:-3.1932057723764153e-02
8952:-4.2360392370455122e-02
8953:-3.9113802156871304e-02
8954:-3.5099183225165295e-02
8955:-3.2189722258477112e-02
8956:-4.2189639490610734e-02
8957:-3.9002354914108354e-02
8958:-3.5057452039831599e-02
8959:-3.2195550941471897e-02
8960:-3.0005474903399207e-02
8961:-2.7248629910042600e-02
8962:-2.3890966581129356e-02
8963:-2.1498398656118498e-02
8964:-3.0414355119273088e-02
8965:-2.7685644001816116e-02
8966:-2.4357582683489323e-02
8967:-2.1982281624944873e-02
8968:-3.0698275725365445e-02
8969:-2.8014063727957530e-02
8970:-2.4734793826713761e-02
8971:-2.2389808136457589e-02
8972:-3.0727379876291466e-02
8973:-2.8083194350047171e-02
8974:-2.4849047148593612e-02
8975:-2.2533213669004234e-02
8976:-2.0286797299526677e-02
8977:-1.8131713137220940e-02
8978:-1.5549424427376900e-02
8979:-1.3743360724321153e-02
8980:-2.0777982480786095e-02
8981:-1.8633316334705247e-02
8982:-1.6058266317275891e-02
8983:-1.4252911543458521e-02
8984:-2.1199181059522842e-02
8985:-1.9075875889379250e-02
8986:-1.6520380810167053e-02
8987:-1.4723673824918574e-02
8988:-2.1356214894602016e-02
8989:-1.9255180742567306e-02
8990:-1.6722342491466917e-02
8991:-1.4938114971598342e-02
8992:-1.2841259914372526e-02
8993:-1.1257458473905038e-02
8994:-9.4007775462114120e-03
8995:-8.1353653899915394e-03
8996:-1.3349499035574959e-02
8997:-1.1760375100060399e-02
8998:-9.8912418273451631e-03
8999:-8.6121037003890621e-03
9000:-1.3822655309102505e-02
9001:-1.2234294079947187e-02
9002:-1.0358986095967769e-02
9003:-9.0696766753784221e-03
9004:-1.4042039486298792e-02
9005:-1.2460092554167811e-02
9006:-1.0587660261831066e-02
9007:-9.2963917626659454e-03
9008:-7.5155524472009759e-03
9009:-6.4461407236100542e-03
9010:-5.2290987098395575e-03
9011:-4.4292790981478956e-03
9012:-7.9835263634882823e-03
9013:-6.8953391779909808e-03
9014:-5.6493839641396839e-03
9015:-4.8240881857742265e-03
9016:-8.4337982545912675e-03
9017:-7.3289505450806246e-03
9018:-6.0556730590140134e-03
9019:-5.2052563507557232e-03
9020:-8.6580329341318686e-03
9021:-7.5463110868364686e-03
9022:-6.2598968397651967e-03
9023:-5.3963021167260771e-03
9024:-4.0484148045476474e-03
9025:-3.4050013081336123e-03
9026:-2.6979126983897230e-03
9027:-2.2529597461402543e-03
9028:-4.4285202968025045e-03
9029:-3.7559267924811147e-03
9030:-3.0078770916983134e-03
9031:-2.5294299209863438e-03
9032:-4.7948912917819666e-03
9033:-4.0926807111975588e-03
9034:-3.3027074507859665e-03
9035:-2.7897905765991789e-03
9036:-4.9778735643824243e-03
9037:-4.2592681271357031e-03
9038:-3.4457304596781525e-03
9039:-2.9132441512150511e-03
9040:-2.0478089168573135e-03
9041:-1.7015233354948057e-03
9042:-1.3151126584893817e-03
9043:-1.0631404499846329e-03
9044:-2.3057574592663657e-03
9045:-1.9241837863139761e-03
9046:-1.4910134288492998e-03
9047:-1.2028216758194377e-03
9048:-2.5470322860204524e-03
9049:-2.1294416445249596e-03
9050:-1.6494053264542044e-03
9051:-1.3256687846655182e-03
9052:-2.6596220943376921e-03
9053:-2.2218526942372595e-03
9054:-1.7163718046166237e-03
9055:-1.3740675521605916e-03
9056:-9.4125944198769737e-04
9057:-7.0625634221351929e-04
9058:-3.7286191643946614e-04
9059:-8.8687754185124074e-05
9060:-1.0616008121096794e-03
9061:-7.9113616959202934e-04
9062:-4.1352215289647878e-04
9063:-9.7253826147702561e-05
9064:-1.1657959173252946e-03
9065:-8.6231763012094092e-04
9066:-4.4617932511544921e-04
9067:-1.0421697467085297e-04
9068:-1.2047743794022345e-03
9069:-8.8581121600125000e-04
9070:-4.5434730616605368e-04
9071:-1.0467941945581988e-04
9072:-2.9216054274971539e-03
9073:-1.3906604766752107e-02
9074:-2.8133151739774969e-02
9075:-3.8944390417033938e-02
9076:-2.8068381710990671e-03
9077:-1.3360805331764038e-02
9078:-2.7029914518108121e-02
9079:-3.7418973094808815e-02
9080:-2.6608105944506081e-03
9081:-1.2663559915611284e-02
9082:-2.5620029126770652e-02
9083:-3.5469412379186327e-02
9084:-2.5509666461153379e-03
9085:-1.2138909380694608e-02
9086:-2.4559132288381740e-02
9087:-3.4002344810924338e-02
9088:-4.4665892504200229e-02
9089:-5.5259059656672091e-02
9090:-6.8774917501160396e-02
9091:-7.8890039116983335e-02
9092:-4.2917813065995791e-02
9093:-5.3100520020984011e-02
9094:-6.6096970528855298e-02
9095:-7.5827408973015126e-02
9096:-4.0683581334890882e-02
9097:-5.0341061076988637e-02
9098:-6.2671857151211138e-02
9099:-7.1908465487753301e-02
9100:-3.9002196133330225e-02
9101:-4.8263920670140098e-02
9102:-6.0092424663046907e-02
9103:-6.8955798648913907e-02
9104:-8.4187588638676550e-02
9105:-9.3890999045868118e-02
9106:-1.0606514583999885e-01
9107:-1.1501612369373304e-01
9108:-8.0925149732370458e-02
9109:-9.0265899980246853e-02
9110:-1.0199221988017262e-01
9111:-1.1062011794120262e-01
9112:-7.6749381328550303e-02
9113:-8.5623200643852274e-02
9114:-9.6771351857524557e-02
9115:-1.0498088813246818e-01
9116:-7.3602372100868577e-02
9117:-8.2122256590582227e-02
9118:-9.2830932211413378e-02
9119:-1.0072150268241459e-01
9120:-1.1964675414370957e-01
9121:-1.2802613367354629e-01
9122:-1.3833708766491706e-01
9123:-1.4575951575805490e-01
9124:-1.1508601694615002e-01
9125:-1.2317185553545852e-01
9126:-1.3313114031380752e-01
9127:-1.4030847234026372e-01
9128:-1.0923300287952477e-01
9129:-1.1693680175996402e-01
9130:-1.2643615007712447e-01
9131:-1.3329109564609978e-01
9132:-1.0481026506617278e-01
9133:-1.1222135595257737e-01
9134:-1.2136669640276627e-01
9135:-1.2797219031312179e-01
9136:-1.4954179401523501e-01
9137:-1.5628167813818189e-01
9138:-1.6436736030645935e-01
9139:-1.7002195517648491e-01
9140:-1.4396895929025144e-01
9141:-1.5049750319579794e-01
9142:-1.5834146408745062e-01
9143:-1.6383701865267644e-01
9144:-1.3679068047204010e-01
9145:-1.4303859868369856e-01
9146:-1.5055859115403059e-01
9147:-1.5583837270475401e-01
9148:-1.3134677205768375e-01
9149:-1.3737565444780700e-01
9150:-1.4464062807657155e-01
9151:-1.4974869876124181e-01
9152:-1.7284208163719952e-01
9153:-1.7775610278044063e-01
9154:-1.8342660047671117e-01
9155:-1.8720828110428642e-01
9156:-1.6658171594456195e-01
9157:-1.7137138706173891e-01
9158:-1.7691313152973115e-01
9159:-1.8062163855554511e-01
9160:-1.5847966180008888e-01
9161:-1.6309675817128846e-01
9162:-1.6845523410869426e-01
9163:-1.7205523112438856e-01
9164:-1.5230694238469919e-01
9165:-1.5678396060411420e-01
9166:-1.6199046941740095e-01
9167:-1.6549751833100043e-01
9168:-1.8902444856026321e-01
9169:-1.9205957861964515e-01
9170:-1.9529466307568161e-01
9171:-1.9722480813907015e-01
9172:-1.8240775356309574e-01
9173:-1.8540222056421357e-01
9174:-1.8861443544165576e-01
9175:-1.9054974932177432e-01
9176:-1.7379473975894150e-01
9177:-1.7672157981433270e-01
9178:-1.7988371938304001e-01
9179:-1.8180943294936711e-01
9180:-1.6719576910245693e-01
9181:-1.7005990763418488e-01
9182:-1.7316865403767778e-01
9183:-1.7507494462250039e-01
9184:-1.9806117118323510e-01
9185:-1.9928420458849588e-01
9186:-2.0021157574011242e-01
9187:-2.0041812337800713e-01
9188:-1.9139670320155802e-01
9189:-1.9265273943991632e-01
9190:-1.9364811529357998e-01
9191:-1.9392542871192325e-01
9192:-1.8266124433930014e-01
9193:-1.8394332526369736e-01
9194:-1.8500490154503424e-01
9195:-1.8535704195455088e-01
9196:-1.7592388388549854e-01
9197:-1.7721340661632262e-01
9198:-1.7830914588582814e-01
9199:-1.7870575832078150e-01
9200:-2.0035306254824808e-01
9201:-1.9992715008285608e-01
9202:-1.9878963886998360e-01
9203:-1.9748075778194893e-01
9204:-1.9390445672476908e-01
9205:-1.9357143855007380e-01
9206:-1.9257408221535946e-01
9207:-1.9138655650517042e-01
9208:-1.8538419636373346e-01
9209:-1.8515480587837560e-01
9210:-1.8431760008224965e-01
9211:-1.8327122199985371e-01
9212:-1.7876288538798285e-01
9213:-1.7860000873237108e-01
9214:-1.7786890283354748e-01
9215:-1.7691814236308595e-01
9216:-1.9663256921147249e-01
9217:-1.9478989987560694e-01
9218:-1.9190879462870211e-01
9219:-1.8934388074442354e-01
9220:-1.9060771228235521e-01
9221:-1.8890212285432931e-01
9222:-1.8621257283997036e-01
9223:-1.8380365483568309e-01
9224:-1.8257379979702318e-01
9225:-1.8103049217464595e-01
9226:-1.7857012645650866e-01
9227:-1.7634952514120511e-01
9228:-1.7627651908502759e-01
9229:-1.7484550454091130e-01
9230:-1.7254567136761539e-01
9231:-1.7045831574447801e-01
9232:-1.8785502577571514e-01
9233:-1.8486770418397042e-01
9234:-1.8060601129480089e-01
9235:-1.7706868205946225e-01
9236:-1.8240093741640401e-01
9237:-1.7957924498606539e-01
9238:-1.7554064446315823e-01
9239:-1.7217916969807223e-01
9240:-1.7505133887996180e-01
9241:-1.7243162651708954e-01
9242:-1.6866690858097275e-01
9243:-1.6552263239372239e-01
9244:-1.6923452488470767e-01
9245:-1.6675934337673584e-01
9246:-1.6319205344961160e-01
9247:-1.6020537291950138e-01
9248:-1.7509184926011087e-01
9249:-1.7124644252459223e-01
9250:-1.6597711898915432e-01
9251:-1.6175206925378560e-01
9252:-1.7029756248898342e-01
9253:-1.6663231914518767e-01
9254:-1.6160022291774970e-01
9255:-1.5755821564572678e-01
9256:-1.6375907720997002e-01
9257:-1.6031800195487755e-01
9258:-1.5558263351005036e-01
9259:-1.5177072889124693e-01
9260:-1.5852781702145297e-01
9261:-1.5525068314304322e-01
9262:-1.5073353269529269e-01
9263:-1.4709173884908217e-01
9264:-1.5943832017431883e-01
9265:-1.5501491362500550e-01
9266:-1.4909601143808829e-01
9267:-1.4445170739106628e-01
9268:-1.5534226251129543e-01
9269:-1.5110179314238212e-01
9270:-1.4541990705421448e-01
9271:-1.4095566831971204e-01
9272:-1.4967811245324950e-01
9273:-1.4566911299130086e-01
9274:-1.4028855162583748e-01
9275:-1.3605427921781926e-01
9276:-1.4509060893777115e-01
9277:-1.4125388287310547e-01
9278:-1.3609867153757726e-01
9279:-1.3203717234717507e-01
9280:-1.4194182490146778e-01
9281:-1.3719880821462607e-01
9282:-1.3095577504007749e-01
9283:-1.2613268010244727e-01
9284:-1.3854104947135945e-01
9285:-1.3397476547576934e-01
9286:-1.2795791701324211e-01
9287:-1.2330453765045112e-01
9288:-1.3376168064793434e-01
9289:-1.2942242237109844e-01
9290:-1.2369738601615828e-01
9291:-1.1926391924540374e-01
9292:-1.2983651577712263e-01
9293:-1.2566882087492659e-01
9294:-1.2016527035715666e-01
9295:-1.1589944290992371e-01
9296:-1.2355156447653033e-01
9297:-1.1871622945744639e-01
9298:-1.1243156302085414e-01
9299:-1.0763546729762258e-01
9300:-1.2081247268419250e-01
9301:-1.1614117804328677e-01
9302:-1.1006426899431568e-01
9303:-1.0542243375999580e-01
9304:-1.1688758021454310e-01
9305:-1.1243009396723123e-01
9306:-1.0662517176374355e-01
9307:-1.0218617918495627e-01
9308:-1.1361157628278072e-01
9309:-1.0931801637118001e-01
9310:-1.0372251573523809e-01
9311:-9.9440364062209963e-02
9312:-1.0508896826400445e-01
9313:-1.0035234811762839e-01
9314:-9.4260516046511630e-02
9315:-8.9659998590893145e-02
9316:-1.0295631826811669e-01
9317:-9.8366891427783598e-02
9318:-9.2459767791702285e-02
9319:-8.7995058066102749e-02
9320:-9.9826071446573419e-02
9321:-9.5431304925780461e-02
9322:-8.9769511824034851e-02
9323:-8.5485995179293506e-02
9324:-9.7162450011443566e-02
9325:-9.2919022900812651e-02
9326:-8.7448754013720639e-02
9327:-8.3307296254959640e-02
9328:-8.7234052647214705e-02
9329:-8.2749896058955705e-02
9330:-7.7036927975656588e-02
9331:-7.2763605042128865e-02
9332:-8.5639400809838034e-02
9333:-8.1283169289526752e-02
9334:-7.5729228266891810e-02
9335:-7.1571674583002717e-02
9336:-8.3224406540678933e-02
9337:-7.9039901844626434e-02
9338:-7.3700444214980176e-02
9339:-6.9699798006982241e-02
9340:-8.1119674279747825e-02
9341:-7.7070581578653347e-02
9342:-7.1900982781253758e-02
9343:-6.8025153660650928e-02
9344:-7.0524526842521820e-02
9345:-6.6410224990814934e-02
9346:-6.1215733554366866e-02
9347:-5.7366469502359997e-02
9348:-6.9392103992473045e-02
9349:-6.5385416960196729e-02
9350:-6.0323334910247939e-02
9351:-5.6569364282256958e-02
9352:-6.7601152168646511e-02
9353:-6.3741280003790063e-02
9354:-5.8860758341036712e-02
9355:-5.5238178766363936e-02
9356:-6.5991077574993964e-02
9357:-6.2248690984988711e-02
9358:-5.7514129212125176e-02
9359:-5.3997702534757649e-02
9360:-5.5362361451400471e-02
9361:-5.1701748657978636e-02
9362:-4.7122745037548187e-02
9363:-4.3762620587303298e-02
9364:-5.4613833967883711e-02
9365:-5.1040365106153902e-02
9366:-4.6567185369983985e-02
9367:-4.3282103031508118e-02
9368:-5.3349892157916239e-02
9369:-4.9897520571382997e-02
9370:-4.5572319575825027e-02
9371:-4.2392906472025919e-02
9372:-5.2163933714958227e-02
9373:-4.8810075270120670e-02
9374:-4.4605909972852242e-02
9375:-4.1513443279511272e-02
9376:-4.2024950268417655e-02
9377:-3.8871312580050894e-02
9378:-3.4966256914580121e-02
9379:-3.2131783388648409e-02
9380:-4.1582273994710484e-02
9381:-3.8495783907548223e-02
9382:-3.4670775874747269e-02
9383:-3.1891837660655446e-02
9384:-4.0746633722525252e-02
9385:-3.7755655125820832e-02
9386:-3.4045474889632540e-02
9387:-3.1347000134537353e-02
9388:-3.9911426844996122e-02
9389:-3.6999709471262222e-02
9390:-3.3385495058327698e-02
9391:-3.0754818857487834e-02
9392:-3.0677129799822921e-02
9393:-2.8056366906022510e-02
9394:-2.4848996434256317e-02
9395:-2.2550789193518061e-02
9396:-3.0464723187729539e-02
9397:-2.7891993013013351e-02
9398:-2.4740186284384534e-02
9399:-2.2479118247552658e-02
9400:-2.9960092491102788e-02
9401:-2.7458051812404301e-02
9402:-2.4389178298603029e-02
9403:-2.2184532560767453e-02
9404:-2.9401999041155147e-02
9405:-2.6960268529282280e-02
9406:-2.3962925850006127e-02
9407:-2.1807595961798411e-02
9408:-2.1382165702365737e-02
9409:-1.9295082531518282e-02
9410:-1.6777022719324321e-02
9411:-1.5001506810950133e-02
9412:-2.1328369992204971e-02
9413:-1.9271499491391085e-02
9414:-1.6786396643772100e-02
9415:-1.5031202322733712e-02
9416:-2.1061334867624133e-02
9417:-1.9051775828448646e-02
9418:-1.6619882209556368e-02
9419:-1.4898956524307156e-02
9420:-2.0708733691049551e-02
9421:-1.8741439607378577e-02
9422:-1.6358082383536164e-02
9423:-1.4669302678196681e-02
9424:-1.4109159587636871e-02
9425:-1.2532681177315029e-02
9426:-1.0664453423586779e-02
9427:-9.3741877480591641e-03
9428:-1.4147958183146125e-02
9429:-1.2585682900598508e-02
9430:-1.0730463927088900e-02
9431:-9.4459844199973417e-03
9432:-1.4031696540019513e-02
9433:-1.2495621748256580e-02
9434:-1.0667307336416656e-02
9435:-9.3979294515557452e-03
9436:-1.3817404975208182e-02
9437:-1.2307209252678154e-02
9438:-1.0506999145960132e-02
9439:-9.2548672878090751e-03
9440:-8.7355984361219170e-03
9441:-7.6222746403517829e-03
9442:-6.3315810057959837e-03
9443:-5.4630765745238242e-03
9444:-8.8090372928892411e-03
9445:-7.6966095543662457e-03
9446:-6.4030046793641946e-03
9447:-5.5292377340951234e-03
9448:-8.7671294550059915e-03
9449:-7.6633829405470923e-03
9450:-6.3757956398447996e-03
9451:-5.5027085824969997e-03
9452:-8.6317789690984869e-03
9453:-7.5402980693328693e-03
9454:-6.2646237033988795e-03
9455:-5.3976458440236031e-03
9456:-5.0414888210137832e-03
9457:-4.3163308802214202e-03
9458:-3.4931952252459488e-03
9459:-2.9526398901713979e-03
9460:-5.1038407072514520e-03
9461:-4.3704342162032049e-03
9462:-3.5347255593128108e-03
9463:-2.9833250794040291e-03
9464:-5.0763781879458640e-03
9465:-4.3398893089248653e-03
9466:-3.4980331885712153e-03
9467:-2.9405409339062607e-03
9468:-4.9735803247523379e-03
9469:-4.2403727724063915e-03
9470:-3.4012909738092949e-03
9471:-2.8449728186817212e-03
9472:-2.6945231434759432e-03
9473:-2.2485523723007016e-03
9474:-1.7331085697975812e-03
9475:-1.3838858895088607e-03
9476:-2.7191166274609744e-03
9477:-2.2623450143983946e-03
9478:-1.7346147452472790e-03
9479:-1.3776671360054050e-03
9480:-2.6727619616457843e-03
9481:-2.2104400074715227e-03
9482:-1.6785459177994367e-03
9483:-1.3212104110513565e-03
9484:-2.5776181771866207e-03
9485:-2.1171825774806028e-03
9486:-1.5905772293829221e-03
9487:-1.2398356732863771e-03
9488:-1.2112445965998535e-03
9489:-8.8739574801385422e-04
9490:-4.5263484352000774e-04
9491:-1.0297480778244863e-04
9492:-1.2016809080451995e-03
9493:-8.7457450615909113e-04
9494:-4.4221477040280992e-04
9495:-9.9887834666633363e-05
9496:-1.1462643508393601e-03
9497:-8.2582300544433948e-04
9498:-4.1256207818273405e-04
9499:-9.3495290329402255e-05
9500:-1.0695223107584728e-03
9501:-7.6197928731163648e-04
9502:-3.7484898888805147e-04
9503:-8.3539026629836954e-05
9504:-2.4929096496919159e-03
9505:-1.1862146127777808e-02
9506:-2.3999588623915453e-02
9507:-3.3228546235109721e-02
9508:-2.3841930946017385e-03
9509:-1.1345050839139849e-02
9510:-2.2954118863751434e-02
9511:-3.1782503168917786e-02
9512:-2.2426018543143288e-03
9513:-1.0672905340108986e-02
9514:-2.1594886854601474e-02
9515:-2.9901967757075161e-02
9516:-2.1341917105391333e-03
9517:-1.0158408887509639e-02
9518:-2.0554107462802812e-02
9519:-2.8461653555566908e-02
9520:-3.8115309076613132e-02
9521:-4.7168095178737768e-02
9522:-5.8731177003315212e-02
9523:-6.7397129993259294e-02
9524:-3.6457756266938951e-02
9525:-4.5119570765896538e-02
9526:-5.6185600741242625e-02
9527:-6.4481551260792622e-02
9528:-3.4301834811476056e-02
9529:-4.2454232896070580e-02
9530:-5.2871883352512909e-02
9531:-6.0684617273721549e-02
9532:-3.2650386376858263e-02
9533:-4.0411945567641883e-02
9534:-5.0331572831079197e-02
9535:-5.7772712830500075e-02
9536:-7.1940829056199404e-02
9537:-8.0273148745531750e-02
9538:-9.0748498433882815e-02
9539:-9.8469385794279080e-02
9540:-6.8832332920968547e-02
9541:-7.6812582409117786e-02
9542:-8.6849267880162270e-02
9543:-9.4250584986327143e-02
9544:-6.4783239270451223e-02
9545:-7.2302688288950548e-02
9546:-8.1763957905229404e-02
9547:-8.8745056199735689e-02
9548:-6.1677262163735411e-02
9549:-6.8841619980123822e-02
9550:-7.7858564215191453e-02
9551:-8.4514447008784174e-02
9552:-1.0247112244777616e-01
9553:-1.0972600874402441e-01
9554:-1.1868189386184720e-01
9555:-1.2515345268876193e-01
9556:-9.8088213001065627e-02
9557:-1.0504808843475340e-01
9558:-1.1364524368391993e-01
9559:-1.1986244476157140e-01
9560:-9.2366502625470442e-02
9561:-9.8936913815263580e-02
9562:-1.0705874654969200e-01
9563:-1.1293749644515980e-01
9564:-8.7968309594812097e-02
9565:-9.4236190127353875e-02
9566:-1.0198752467497922e-01
9567:-1.0760142308039797e-01
9568:-1.2846075212283370e-01
9569:-1.3437139951491231e-01
9570:-1.4149800135103149e-01
9571:-1.4651229280444031e-01
9572:-1.2304167738298671e-01
9573:-1.2872667753411099e-01
9574:-1.3558797886207066e-01
9575:-1.4042144910873788e-01
9576:-1.1594577534844892e-01
9577:-1.2132844732145225e-01
9578:-1.2783201369154562e-01
9579:-1.3241978009472050e-01
9580:-1.1047552614028898e-01
9581:-1.1562010442484826e-01
9582:-1.2184030468610210e-01
9583:-1.2623210319339589e-01
9584:-1.4902493695636901e-01
9585:-1.5342455453703432e-01
9586:-1.5854605584074766e-01
9587:-1.6200017126978858e-01
9588:-1.4284577122656980e-01
9589:-1.4709468495894604e-01
9590:-1.5204899970901292e-01
9591:-1.5539751273516533e-01
9592:-1.3472335682225833e-01
9593:-1.3876481320652045e-01
9594:-1.4348595759909957e-01
9595:-1.4668451158872936e-01
9596:-1.2843885863924634e-01
9597:-1.3231296033574180e-01
9598:-1.3684390458973336e-01
9599:-1.3991829748618242e-01
9600:-1.6367451728578067e-01
9601:-1.6650149366355071e-01
9602:-1.6957664211367918e-01
9603:-1.7146847058833878e-01
9604:-1.5702353013547704e-01
9605:-1.5977409990414371e-01
9606:-1.6277721807687331e-01
9607:-1.6463482292347506e-01
9608:-1.4824077390391527e-01
9609:-1.5087882962569504e-01
9610:-1.5377078822536464e-01
9611:-1.5557024989016088e-01
9612:-1.4141604541026018e-01
9613:-1.4395822586908047e-01
9614:-1.4675212688025388e-01
9615:-1.4849696669891951e-01
9616:-1.7231363859270304e-01
9617:-1.7360287593723525e-01
9618:-1.7471119636223909e-01
9619:-1.7512714219594766e-01
9620:-1.6546907513168030e-01
9621:-1.6675052692015263e-01
9622:-1.6787294616593051e-01
9623:-1.6831786796187237e-01
9624:-1.5638296907989302e-01
9625:-1.5764053221620256e-01
9626:-1.5876341725125195e-01
9627:-1.5923244233283812e-01
9628:-1.4928776033422364e-01
9629:-1.5051683394201953e-01
9630:-1.5162684408665883e-01
9631:-1.5210427896171663e-01
9632:-1.7519790009033503e-01
9633:-1.7506610476560452e-01
9634:-1.7438593137252326e-01
9635:-1.7348190651400033e-01
9636:-1.6841031987531893e-01
9637:-1.6832967947756647e-01
9638:-1.6773598707803863e-01
9639:-1.6691289535342521e-01
9640:-1.5934593561930255e-01
9641:-1.5931866351001650e-01
9642:-1.5882089460863355e-01
9643:-1.5809085570071624e-01
9644:-1.5222858132672901e-01
9645:-1.5223243687176563e-01
9646:-1.5179585726115924e-01
9647:-1.5112801598033068e-01
9648:-1.7286780458482862e-01
9649:-1.7149258413846608e-01
9650:-1.6927324092650692e-01
9651:-1.6725318862719640e-01
9652:-1.6634690874408836e-01
9653:-1.6506997787145991e-01
9654:-1.6299374813674278e-01
9655:-1.6109425156584625e-01
9656:-1.5758111921076970e-01
9657:-1.5642060867960986e-01
9658:-1.5451655119326099e-01
9659:-1.5276386585884172e-01
9660:-1.5065665400261835e-01
9661:-1.4957681634442463e-01
9662:-1.4779423528722022e-01
9663:-1.4614656201051973e-01
9664:-1.6606713404031559e-01
9665:-1.6366555080969378e-01
9666:-1.6019932403421111e-01
9667:-1.5729368969939814e-01
9668:-1.5997607453296356e-01
9669:-1.5770739336346079e-01
9670:-1.5442461832674478e-01
9671:-1.5166677121514646e-01
9672:-1.5172891165207683e-01
9673:-1.4962419864433257e-01
9674:-1.4656962900671328e-01
9675:-1.4399693134515526e-01
9676:-1.4517158282222029e-01
9677:-1.4318583406888047e-01
9678:-1.4029829149959411e-01
9679:-1.3786211861734279e-01
9680:-1.5566048399664259e-01
9681:-1.5246812521971298e-01
9682:-1.4806425108325547e-01
9683:-1.4451107822219803e-01
9684:-1.5011465945908581e-01
9685:-1.4707772733438598e-01
9686:-1.4288231085361716e-01
9687:-1.3949277994843431e-01
9688:-1.4254684602037460e-01
9689:-1.3970627026364968e-01
9690:-1.3577571329071331e-01
9691:-1.3259517430238399e-01
9692:-1.3648759597115087e-01
9693:-1.3379306630590407e-01
9694:-1.3006065765132346e-01
9695:-1.2703728643452675e-01
9696:-1.4255771743387147e-01
9697:-1.3881114611224377e-01
9698:-1.3377424678502442e-01
9699:-1.2980373162247535e-01
9700:-1.3762781371891292e-01
9701:-1.3404842428069572e-01
9702:-1.2923159271974433e-01
9703:-1.2543080439206974e-01
9704:-1.3084345878675752e-01
9705:-1.2747894511262620e-01
9706:-1.2294625524166103e-01
9707:-1.1936555452338224e-01
9708:-1.2537101033815984e-01
9709:-1.2216912148498618e-01
9710:-1.1785245440199682e-01
9711:-1.1443978756551119e-01
9712:-1.2765158604508584e-01
9713:-1.2357458895251347e-01
9714:-1.1818846718101376e-01
9715:-1.1401177359788997e-01
9716:-1.2336932236893804e-01
9717:-1.1946215519574085e-01
9718:-1.1429652671838303e-01
9719:-1.1028764481763362e-01
9720:-1.1742196076203916e-01
9721:-1.1373623732870140e-01
9722:-1.0885927662731504e-01
9723:-1.0507093991427334e-01
9724:-1.1258644173497467e-01
9725:-1.0907070055991396e-01
9726:-1.0441618581567903e-01
9727:-1.0079842518594552e-01
9728:-1.1177103623440611e-01
9729:-1.0756496142203606e-01
9730:-1.0208153083215010e-01
9731:-9.7883535696477258e-02
9732:-1.0813579029070200e-01
9733:-1.0409498637345509e-01
9734:-9.8823804770685433e-02
9735:-9.4785592436916380e-02
9736:-1.0303618773560101e-01
9737:-9.9213658680273722e-02
9738:-9.4223813438596607e-02
9739:-9.0398153371900172e-02
9740:-9.8854455607165312e-02
9741:-9.5201536734963801e-02
9742:-9.0431056855601433e-02
9743:-8.6771690218999706e-02
9744:-9.5649801798484882e-02
9745:-9.1487862929452130e-02
9746:-8.6120992965711476e-02
9747:-8.2056437063124127e-02
9748:-9.2635879947247479e-02
9749:-8.8629172366174985e-02
9750:-8.3459764765118905e-02
9751:-7.9542437772639252e-02
9752:-8.8360475930437943e-02
9753:-8.4561243028361155e-02
9754:-7.9656682004558513e-02
9755:-7.5937516982242256e-02
9756:-8.4821859798301744e-02
9757:-8.1185664013642453e-02
9758:-7.6489898113708737e-02
9759:-7.2927456468449017e-02
9760:-7.9908929448450766e-02
9761:-7.5933403778398981e-02
9762:-7.0856332598113525e-02
9763:-6.7048681433353158e-02
9764:-7.7471857291376275e-02
9765:-7.3637634975802405e-02
9766:-6.8738717955232120e-02
9767:-6.5062668668612739e-02
9768:-7.3970715497024025e-02
9769:-7.0327541667195542e-02
9770:-6.5670312475116954e-02
9771:-6.2173420819976802e-02
9772:-7.1042904856988068e-02
9773:-6.7551453900071251e-02
9774:-6.3086756783534828e-02
9775:-5.9733037102117574e-02
9776:-6.5049940198907683e-02
9777:-6.1371961611013701e-02
9778:-5.6717644202130886e-02
9779:-5.3259753508824177e-02
9780:-6.3132250881234114e-02
9781:-5.9579021319815559e-02
9782:-5.5080532614934376e-02
9783:-5.1736628587376578e-02
9784:-6.0336237255649933e-02
9785:-5.6953632913260645e-02
9786:-5.2669037883038991e-02
9787:-4.9482178024124648e-02
9788:-5.7970520624741603e-02
9789:-5.4724843801482882e-02
9790:-5.0612441942832577e-02
9791:-4.7552424416044445e-02
9792:-5.1456111053982567e-02
9793:-4.8156800826726714e-02
9794:-4.4019870124332311e-02
9795:-4.0975870860056947e-02
9796:-4.9991763132508991e-02
9797:-4.6799070815846326e-02
9798:-4.2793935469454356e-02
9799:-3.9845245770448297e-02
9800:-4.7818499895971929e-02
9801:-4.4773436598571033e-02
9802:-4.0951501681516012e-02
9803:-3.8135857325152393e-02
9804:-4.5954467492224288e-02
9805:-4.3029166929794430e-02
9806:-3.9356357019289794e-02
9807:-3.6649409859372421e-02
9808:-3.9398586380546177e-02
9809:-3.6531272451572415e-02
9810:-3.2971039370063154e-02
9811:-3.0378678735612622e-02
9812:-3.8316706753451418e-02
9813:-3.5537106919347007e-02
9814:-3.2083901480350528e-02
9815:-2.9567825902855897e-02
9816:-3.6675569021486415e-02
9817:-3.4019144193143142e-02
9818:-3.0716956781762842e-02
9819:-2.8309100683465080e-02
9820:-3.5245027048127597e-02
9821:-3.2689750634587643e-02
9822:-2.9512077769144694e-02
9823:-2.7193850226341961e-02
9824:-2.9045190354489502e-02
9825:-2.6637781776796328e-02
9826:-2.3681389659364192e-02
9827:-2.1554494646680661e-02
9828:-2.8272944319467971e-02
9829:-2.5934289991395909e-02
9830:-2.3060358424893023e-02
9831:-2.0991077912114957e-02
9832:-2.7069202887884041e-02
9833:-2.4828849107788143e-02
9834:-2.2073588555489004e-02
9835:-2.0087864430306558e-02
9836:-2.5999638943899242e-02
9837:-2.3841225509189545e-02
9838:-2.1185415188517319e-02
9839:-1.9270150441867834e-02
9840:-2.0469741984892365e-02
9841:-1.8527096861925597e-02
9842:-1.6172346420254009e-02
9843:-1.4502773167433747e-02
9844:-1.9935051470604738e-02
9845:-1.8042840369206455e-02
9846:-1.5747139487870532e-02
9847:-1.4117653449067704e-02
9848:-1.9073744646390677e-02
9849:-1.7255549020838347e-02
9850:-1.5047412332185964e-02
9851:-1.3478136226238027e-02
9852:-1.8291534325172720e-02
9853:-1.6536335694533187e-02
9854:-1.4403319098254642e-02
9855:-1.2886190752112361e-02
9856:-1.3660158890511686e-02
9857:-1.2165793911823158e-02
9858:-1.0383184969600275e-02
9859:-9.1422260850260468e-03
9860:-1.3294590302228220e-02
9861:-1.1833879464159701e-02
9862:-1.0089352197529900e-02
9863:-8.8731595605514284e-03
9864:-1.2684737820234607e-02
9865:-1.1275620617040495e-02
9866:-9.5905851201739407e-03
9867:-8.4140570971500163e-03
9868:-1.2118675923232326e-02
9869:-1.0754909017302087e-02
9870:-9.1228554186250158e-03
9871:-7.9822451182419447e-03
9872:-8.5242938177836416e-03
9873:-7.4413013661089990e-03
9874:-6.1745038615686624e-03
9875:-5.3127080600510581e-03
9876:-8.2669030641539572e-03
9877:-7.2035553892352876e-03
9878:-5.9581901957883919e-03
9879:-5.1097201656882607e-03
9880:-7.8268954110812007e-03
9881:-6.7963224451246399e-03
9882:-5.5880374539543087e-03
9883:-4.7637811079046313e-03
9884:-7.4126085132379714e-03
9885:-6.4124765663683683e-03
9886:-5.2393484690948407e-03
9887:-4.4386532493107733e-03
9888:-4.8908735245520195e-03
9889:-4.1613444852760043e-03
9890:-3.3262823799739306e-03
9891:-2.7725596499154127e-03
9892:-4.6939713035589635e-03
9893:-3.9748892622598446e-03
9894:-3.1519685469199219e-03
9895:-2.6066291731147769e-03
9896:-4.3595537502833523e-03
9897:-3.6607413107994312e-03
9898:-2.8621875026612537e-03
9899:-2.3342325922837562e-03
9900:-4.0458649248147766e-03
9901:-3.3673856849378049e-03
9902:-2.5935928323831464e-03
9903:-2.0835049611132007e-03
9904:-2.5064918963067216e-03
9905:-2.0491121952605994e-03
9906:-1.5281387270606301e-03
9907:-1.1831846266669322e-03
9908:-2.3448501229894163e-03
9909:-1.8967883408723737e-03
9910:-1.3912229126653774e-03
9911:-1.0609828927951234e-03
9912:-2.0814630634131931e-03
9913:-1.6520213392342857e-03
9914:-1.1751590691809843e-03
9915:-8.7087261801180207e-04
9916:-1.8400247578198401e-03
9917:-1.4293071268051279e-03
9918:-9.8025163927842177e-04
9919:-7.0033383388727491e-04
9920:-1.0166023116889465e-03
9921:-7.1850925629005828e-04
9922:-3.4913246387677162e-04
9923:-7.5940920300818904e-05
9924:-9.0352279782161034e-04
9925:-6.2746477549217286e-04
9926:-2.9772357751599527e-04
9927:-6.3952827418773444e-05
9928:-7.2900003528625075e-04
9929:-4.8908028493101013e-04
9930:-2.2174708742981014e-04
9931:-4.8475033387296433e-05
9932:-5.7282011509763415e-04
9933:-3.6534914951084018e-04
9934:-1.5257199673276105e-04
9935:-3.1271283996107792e-05
9936:-2.0763917147307589e-03
9937:-9.8838898643284576e-03
9938:-1.9998625931624710e-02
9939:-2.7692819547884256e-02
9940:-1.9670295466934847e-03
9941:-9.3640401511391313e-03
9942:-1.8946592480923358e-02
9943:-2.6236647304645356e-02
9944:-1.8220423637465770e-03
9945:-8.6744080161492518e-03
9946:-1.7550809547498405e-02
9947:-2.4304559042299310e-02
9948:-1.7088124283754279e-03
9949:-8.1358599582928327e-03
9950:-1.6460754700181688e-02
9951:-2.2795571484368664e-02
9952:-3.1768788147886959e-02
9953:-3.9321509716480491e-02
9954:-4.8974829047336854e-02
9955:-5.6217115080881869e-02
9956:-3.0098997874210730e-02
9957:-3.7255937574312691e-02
9958:-4.6404216349114527e-02
9959:-5.3269126206290082e-02
9960:-2.7883390483872027e-02
9961:-3.4514739429087317e-02
9962:-4.2991714507261442e-02
9963:-4.9354545134620877e-02
9964:-2.6152891577124467e-02
9965:-3.2373392205623450e-02
9966:-4.0325189792557919e-02
9967:-4.6294907834400267e-02
9968:-6.0017752574103106e-02
9969:-6.6991839523310073e-02
9970:-7.5770398424287011e-02
9971:-8.2251560439692284e-02
9972:-5.6872469066424458e-02
9973:-6.3485044580462682e-02
9974:-7.1810174274493072e-02
9975:-7.7958615111773558e-02
9976:-5.2695224602556004e-02
9977:-5.8826045871128149e-02
9978:-6.6545996625382672e-02
9979:-7.2249644442648753e-02
9980:-4.9429809263436104e-02
9981:-5.5182876088381905e-02
9982:-6.2427618557492279e-02
9983:-6.7781479543515752e-02
9984:-8.5615298604002896e-02
9985:-9.1720274674248495e-02
9986:-9.9271679219642694e-02
9987:-1.0474231043326247e-01
9988:-8.1150585560679916e-02
9989:-8.6944747806006695e-02
9990:-9.4114019141215213e-02
9991:-9.9310283656091472e-02
9992:-7.5211724418712295e-02
9993:-8.0589287674615151e-02
9994:-8.7245137100479667e-02
9995:-9.2071803312432463e-02
9996:-7.0562581617472850e-02
9997:-7.5611750860552385e-02
9998:-8.1862016704276702e-02
9999:-8.6396034323172416e-02
10000:-1.0754370130033815e-01
10001:-1.1255898667046335e-01
10002:-1.1862477121580019e-01
10003:-1.2290934092768734e-01
10004:-1.0197222628944422e-01
10005:-1.0673914741891231e-01
10006:-1.1250747474368898e-01
10007:-1.1658479391706819e-01
10008:-9.4545536764295418e-02
10009:-9.8976516113095325e-02
10010:-1.0434098904040789e-01
10011:-1.0813567523306715e-01
10012:-8.8720491760308731e-02
10013:-9.2884508186036246e-02
10014:-9.7926991300625849e-02
10015:-1.0149546154522532e-01
10016:-1.2506294997396131e-01
10017:-1.2884486536489473e-01
10018:-1.3327036542747026e-01
10019:-1.3627534347075582e-01
10020:-1.1863541453854237e-01
10021:-1.2223817432970734e-01
10022:-1.2645768357737694e-01
10023:-1.2932613690324174e-01
10024:-1.1004536389230522e-01
10025:-1.1340203219691790e-01
10026:-1.1733666058141816e-01
10027:-1.2001465586899553e-01
10028:-1.0329201290771295e-01
10029:-1.0645047628357895e-01
10030:-1.1015432185999810e-01
10031:-1.1267689338104460e-01
10032:-1.3774014071704774e-01
10033:-1.4022786894031389e-01
10034:-1.4296505949265506e-01
10035:-1.4467732739063854e-01
10036:-1.3072575545707060e-01
10037:-1.3310505704522368e-01
10038:-1.3572777060054636e-01
10039:-1.3737282566168921e-01
10040:-1.2132268617251607e-01
10041:-1.2354836215794691e-01
10042:-1.2600615424956407e-01
10043:-1.2755185410697312e-01
10044:-1.1390973231730117e-01
10045:-1.1600842973112559e-01
10046:-1.1832808153712254e-01
10047:-1.1978889768144076e-01
10048:-1.4545457722855934e-01
10049:-1.4666499198856506e-01
10050:-1.4776365119466733e-01
10051:-1.4824217443551091e-01
10052:-1.3812145302054266e-01
10053:-1.3929097378046254e-01
10054:-1.4036094664824836e-01
10055:-1.4083607257070557e-01
10056:-1.2825703277100434e-01
10057:-1.2936206462245894e-01
10058:-1.3038073546121709e-01
10059:-1.3084129426122149e-01
10060:-1.2045622576206688e-01
10061:-1.2150356551823573e-01
10062:-1.2247268140032365e-01
10063:-1.2291465114873568e-01
10064:-1.4837045129317428e-01
10065:-1.4838762140717005e-01
10066:-1.4797953851420223e-01
10067:-1.4734181499254198e-01
10068:-1.4096899089556736e-01
10069:-1.4100606823095421e-01
10070:-1.4064525395993241e-01
10071:-1.4005961211634391e-01
10072:-1.3097505022110550e-01
10073:-1.3102875292227883e-01
10074:-1.3071830681666793e-01
10075:-1.3019263747295448e-01
10076:-1.2304524583049821e-01
10077:-1.2310491654230959e-01
10078:-1.2282496309487620e-01
10079:-1.2233959974677752e-01
10080:-1.4688933564371828e-01
10081:-1.4584967094327819e-01
10082:-1.4412839808702280e-01
10083:-1.4253425129160824e-01
10084:-1.3964032077668700e-01
10085:-1.3867211046553873e-01
10086:-1.3706131072075714e-01
10087:-1.3556451728582400e-01
10088:-1.2981264390126451e-01
10089:-1.2893072297655964e-01
10090:-1.2745612778947787e-01
10091:-1.2608110837190525e-01
10092:-1.2198691152751932e-01
10093:-1.2116629288993012e-01
10094:-1.1979065543732287e-01
10095:-1.1850545184476891e-01
10096:-1.4159000509540692e-01
10097:-1.3966550475015660e-01
10098:-1.3686447555235676e-01
10099:-1.3449937474581536e-01
10100:-1.3467644155104350e-01
10101:-1.3286437236492815e-01
10102:-1.3022302764642596e-01
10103:-1.2798970462110157e-01
10104:-1.2526381747435908e-01
10105:-1.2359436660685048e-01
10106:-1.2115725198313704e-01
10107:-1.1909359602840890e-01
10108:-1.1774076701654376e-01
10109:-1.1617801482030390e-01
10110:-1.1389495039733216e-01
10111:-1.1196011671136108e-01
10112:-1.3316430472786508e-01
10113:-1.3054624650924818e-01
10114:-1.2691799348289068e-01
10115:-1.2397752042729478e-01
10116:-1.2672797683740233e-01
10117:-1.2425244509685263e-01
10118:-1.2081899142089456e-01
10119:-1.1803403342671857e-01
10120:-1.1792665984246772e-01
10121:-1.1563602784722816e-01
10122:-1.1245655745070587e-01
10123:-1.0987524944788556e-01
10124:-1.1086542096017037e-01
10125:-1.0871620946901471e-01
10126:-1.0573193049256127e-01
10127:-1.0330777974766434e-01
10128:-1.2235640346267943e-01
10129:-1.1924064946982917e-01
10130:-1.1503873690096547e-01
10131:-1.1171557597350742e-01
10132:-1.1649779037153110e-01
10133:-1.1354422470866760e-01
10134:-1.0955895400436215e-01
10135:-1.0640516957531895e-01
10136:-1.0845044282604599e-01
10137:-1.0571039145509532e-01
10138:-1.0201137289502243e-01
10139:-9.9082132676494683e-02
10140:-1.0196918192901785e-01
10141:-9.9394720254930694e-02
10142:-9.5918465637293837e-02
10143:-9.3164505680614448e-02
10144:-1.0991038484601291e-01
10145:-1.0648549941350292e-01
10146:-1.0195017499822741e-01
10147:-9.8424023323160637e-02
10148:-1.0469123803697286e-01
10149:-1.0143879259262556e-01
10150:-9.7130167997649106e-02
10151:-9.3778605670733331e-02
10152:-9.7489433099814504e-02
10153:-9.4466537858281283e-02
10154:-9.0460588514619397e-02
10155:-8.7342774462298739e-02
10156:-9.1666619162209043e-02
10157:-8.8823593811147683e-02
10158:-8.5055458254618299e-02
10159:-8.2121767139486018e-02
10160:-9.6528880697087996e-02
10161:-9.2967320052700447e-02
10162:-8.8315254244587124e-02
10163:-8.4745842909218452e-02
10164:-9.1976636809099829e-02
10165:-8.8589635804502229e-02
10166:-8.4164251535192039e-02
10167:-8.0767353338342993e-02
10168:-8.5665771012513076e-02
10169:-8.2513308041342937e-02
10170:-7.8393277232504374e-02
10171:-7.5229334337141199e-02
10172:-8.0543356388845938e-02
10173:-7.7576232107402027e-02
10174:-7.3698058515578854e-02
10175:-7.0719033554358601e-02
10176:-8.2843598251592779e-02
10177:-7.9295836678996354e-02
10178:-7.4713549603807966e-02
10179:-7.1236452172684067e-02
10180:-7.8956472787763882e-02
10181:-7.5578695905073115e-02
10182:-7.1214898881857253e-02
10183:-6.7902393961130680e-02
10184:-7.3542021984931941e-02
10185:-7.0394499170118058e-02
10186:-6.6327332052148427e-02
10187:-6.3238784534304093e-02
10188:-6.9129945527429654e-02
10189:-6.6165702959596728e-02
10190:-6.2335129193188149e-02
10191:-5.9425566607768640e-02
10192:-6.9396747213782042e-02
10193:-6.5988125993335131e-02
10194:-6.1628735914203044e-02
10195:-5.8353476008024478e-02
10196:-6.6149273579350604e-02
10197:-6.2900741558822026e-02
10198:-5.8745211786547673e-02
10199:-5.5622086343246037e-02
10200:-6.1603651605063536e-02
10201:-5.8573584467583206e-02
10202:-5.4696850849365500e-02
10203:-5.1782231652887901e-02
10204:-5.7884851314462443e-02
10205:-5.5029828360368398e-02
10206:-5.1376900207297425e-02
10207:-4.8629975773227842e-02
10208:-5.6631930925588166e-02
10209:-5.3461481758320738e-02
10210:-4.9443860633067660e-02
10211:-4.6453797348600868e-02
10212:-5.3980071422698957e-02
10213:-5.0955797403775829e-02
10214:-4.7122635445092556e-02
10215:-4.4268938973864219e-02
10216:-5.0249372420175929e-02
10217:-4.7425997892579584e-02
10218:-4.3846882347171302e-02
10219:-4.1181406498298018e-02
10220:-4.7185016324326125e-02
10221:-4.4523612317209187e-02
10222:-4.1149688846902802e-02
10223:-3.8636525333771411e-02
10224:-4.4892134217670389e-02
10225:-4.2033055782737742e-02
10226:-3.8442869701421530e-02
10227:-3.5796277489707817e-02
10228:-4.2778106013508982e-02
10229:-4.0048405970428844e-02
10230:-3.6619918829938522e-02
10231:-3.4091661495249906e-02
10232:-3.9788483228636769e-02
10233:-3.7237880901099266e-02
10234:-3.4033734574288321e-02
10235:-3.1670048582473055e-02
10236:-3.7322935142860177e-02
10237:-3.4917628142242023e-02
10238:-3.1895830049093354e-02
10239:-2.9666183577471382e-02
10240:-3.4422983935946526e-02
10241:-3.1924038359613480e-02
10242:-2.8815870962127479e-02
10243:-2.6547804043066711e-02
10244:-3.2779401722205032e-02
10245:-3.0391178837118598e-02
10246:-2.7419899656049670e-02
10247:-2.5250839574444166e-02
10248:-3.0442812386708082e-02
10249:-2.8209077548649049e-02
10250:-2.5429283511125295e-02
10251:-2.3399112779550160e-02
10252:-2.8508295567034925e-02
10253:-2.6400736423611872e-02
10254:-2.3777673757612399e-02
10255:-2.1861457059294334e-02
10256:-2.5379208683492402e-02
10257:-2.3266821824452211e-02
10258:-2.0667042168481496e-02
10259:-1.8791612711252764e-02
10260:-2.4132885524936087e-02
10261:-2.2111631909316570e-02
10262:-1.9623078219360532e-02
10263:-1.7826958120077223e-02
10264:-2.2352345689188837e-02
10265:-2.0459451049698273e-02
10266:-1.8128063104903287e-02
10267:-1.6444422930413670e-02
10268:-2.0873196973426524e-02
10269:-1.9085968302323685e-02
10270:-1.6884301593505357e-02
10271:-1.5293777463357893e-02
10272:-1.7833121188107978e-02
10273:-1.6113720619600976e-02
10274:-1.4023571967702195e-02
10275:-1.2536352435894313e-02
10276:-1.6908620579278010e-02
10277:-1.5260794575217951e-02
10278:-1.3256657537448636e-02
10279:-1.1829700728808377e-02
10280:-1.5583188039733109e-02
10281:-1.4037408222844768e-02
10282:-1.2156432031062198e-02
10283:-1.0816210490724735e-02
10284:-1.4479918121010852e-02
10285:-1.3018974916451332e-02
10286:-1.1240741734792498e-02
10287:-9.9731701619657723e-03
10288:-1.1783740337904143e-02
10289:-1.0446183072044722e-02
10290:-8.8449521729314640e-03
10291:-7.7254091357704243e-03
10292:-1.1107212847078270e-02
10293:-9.8227972810676946e-03
10294:-8.2843863886009166e-03
10295:-7.2080505665025893e-03
10296:-1.0137249415430554e-02
10297:-8.9298891991152901e-03
10298:-7.4831038395174630e-03
10299:-6.4702289534554073e-03
10300:-9.3307782834770470e-03
10301:-8.1883219750953067e-03
10302:-6.8190368901862152e-03
10303:-5.8601034897556095e-03
10304:-7.1661180401625313e-03
10305:-6.1840522529601951e-03
10306:-5.0319764161698447e-03
10307:-4.2455441531628040e-03
10308:-6.6700788914984266e-03
10309:-5.7253819741141859e-03
10310:-4.6171295241257768e-03
10311:-3.8606242135186750e-03
10312:-5.9637348395364222e-03
10313:-5.0744324674994413e-03
10314:-4.0315826331358768e-03
10315:-3.3201153740566374e-03
10316:-5.3804623348619801e-03
10317:-4.5385425164838795e-03
10318:-3.5518869398302733e-03
10319:-2.8793295645455053e-03
10320:-3.8597369731703662e-03
10321:-3.1937095655460170e-03
10322:-2.4351361583011435e-03
10323:-1.9360597724158947e-03
10324:-3.4895525738966519e-03
10325:-2.8498553977359072e-03
10326:-2.1234855215964115e-03
10327:-1.6476791688914713e-03
10328:-2.9713552274935823e-03
10329:-2.3715438289970471e-03
10330:-1.6938538358106910e-03
10331:-1.2530567200428669e-03
10332:-2.5499188271201358e-03
10333:-1.9846520579537932e-03
10334:-1.3489326746563956e-03
10335:-9.3811164174386849e-04
10336:-1.6983035357294350e-03
10337:-1.2989863307709224e-03
10338:-8.6655850443405509e-04
10339:-6.0098727487996404e-04
10340:-1.4219823104519218e-03
10341:-1.0463887449318934e-03
10342:-6.4793051038421656e-04
10343:-4.1120117823874975e-04
10344:-1.0453944389487218e-03
10345:-7.0466283753383959e-04
10346:-3.5482804507461712e-04
10347:-1.5843054178191107e-04
10348:-7.4578165556239467e-04
10349:-4.3418532017410090e-04
10350:-1.2394118264819279e-04
10351:4.0386563555392825e-05
10352:-4.8184597444395907e-04
10353:-2.9305439511434066e-04
10354:-1.1125840811080516e-04
10355:-1.9210091131485690e-05
10356:-3.0872932540434940e-04
10357:-1.5675300964310704e-04
10358:-3.5430795871347190e-05
10359:-1.7853581844892511e-07
10360:-7.8950177678017029e-05
10361:2.2812826694118198e-05
10362:6.2458535153816990e-05
10363:2.1358782823898580e-05
10364:1.0183574280862439e-04
10365:1.6452474813843696e-04
10366:1.4097130208442482e-04
10367:4.0888668291385263e-05
10368:-1.6475750962310907e-03
10369:-7.8447183346538295e-03
10370:-1.5871458606363933e-02
10371:-2.1979755757472408e-02
10372:-1.5300033748836604e-03
10373:-7.2859706648887666e-03
10374:-1.4740422130419369e-02
10375:-2.0413846787520264e-02
10376:-1.3709367870856982e-03
10377:-6.5302582692520639e-03
10378:-1.3210498944792471e-02
10379:-1.8295483154714336e-02
10380:-1.2444271183342339e-03
10381:-5.9292224338992850e-03
10382:-1.1993570714126330e-02
10383:-1.6610374743471625e-02
10384:-2.5217286072667541e-02
10385:-3.1215540682297937e-02
10386:-3.8883113275108530e-02
10387:-4.4639978883076387e-02
10388:-2.3421380540048341e-02
10389:-2.8992829189849034e-02
10390:-3.6114390530668922e-02
10391:-4.1462230250937655e-02
10392:-2.0991765529926782e-02
10393:-2.5985458133925558e-02
10394:-3.2367578765242482e-02
10395:-3.7161270046851436e-02
10396:-1.9058998744001424e-02
10397:-2.3592865256294844e-02
10398:-2.9386253829005549e-02
10399:-3.3738583415645930e-02
10400:-4.7663423203416523e-02
10401:-5.3211774941443468e-02
10402:-6.0198769295399017e-02
10403:-6.5362740039231038e-02
10404:-4.4271449017331529e-02
10405:-4.9426175496868376e-02
10406:-5.5917266323374251e-02
10407:-6.0715662203255118e-02
10408:-3.9680176914665077e-02
10409:-4.4301209150206390e-02
10410:-5.0119405220747079e-02
10411:-5.4421358457337025e-02
10412:-3.6026210228611716e-02
10413:-4.0221892406053512e-02
10414:-4.5503446537543332e-02
10415:-4.9409220434468805e-02
10416:-6.8045531711071097e-02
10417:-7.2916172698346923e-02
10418:-7.8945669492229392e-02
10419:-8.3320174089760238e-02
10420:-6.3209105246857189e-02
10421:-6.7735702138254625e-02
10422:-7.3339362473314421e-02
10423:-7.7405880347023920e-02
10424:-5.6657529508314236e-02
10425:-6.0716330806033537e-02
10426:-6.5740306264694098e-02
10427:-6.9387035495392921e-02
10428:-5.1439985491528485e-02
10429:-5.5125073484602730e-02
10430:-5.9685494889121497e-02
10431:-6.2996176975277596e-02
10432:-8.5563185887047408e-02
10433:-8.9581381510200869e-02
10434:-9.4447649088914246e-02
10435:-9.7892040227408869e-02
10436:-7.9491524099581323e-02
10437:-8.3227731585715115e-02
10438:-8.7752761730926887e-02
10439:-9.0956499588355666e-02
10440:-7.1257988379015591e-02
10441:-7.4609083081361730e-02
10442:-7.8667270367878336e-02
10443:-8.1541128851195105e-02
10444:-6.4695134479607855e-02
10445:-6.7737431607927667e-02
10446:-7.1420746857796341e-02
10447:-7.4029287784448214e-02
10448:-9.9626429480647177e-02
10449:-1.0267578692016188e-01
10450:-1.0625217334098583e-01
10451:-1.0868855188342355e-01
10452:-9.2570183616047491e-02
10453:-9.5407415145625007e-02
10454:-9.8735445730836743e-02
10455:-1.0100341502811104e-01
10456:-8.2989114845656589e-02
10457:-8.5534699946980777e-02
10458:-8.8520346909731651e-02
10459:-9.0555369152973908e-02
10460:-7.5343847334696915e-02
10461:-7.7654290693322206e-02
10462:-8.0363280838799386e-02
10463:-8.2209565748431204e-02
10464:-1.0987955251854575e-01
10465:-1.1190733264686249e-01
10466:-1.1414927604291868e-01
10467:-1.1556184144822330e-01
10468:-1.0211248820996299e-01
10469:-1.0400106444383053e-01
10470:-1.0608976270309019e-01
10471:-1.0740653331206329e-01
10472:-9.1550814079234627e-02
10473:-9.3245764875449277e-02
10474:-9.5120121241340838e-02
10475:-9.6301838112538229e-02
10476:-8.3112749027302618e-02
10477:-8.4650121727681341e-02
10478:-8.6349274762813039e-02
10479:-8.7419914267400090e-02
10480:-1.1620743822109979e-01
10481:-1.1722121580312130e-01
10482:-1.1816046822233316e-01
10483:-1.1859005248880262e-01
10484:-1.0800871051354097e-01
10485:-1.0895488481166565e-01
10486:-1.0983271780819456e-01
10487:-1.1023543171450738e-01
10488:-9.6842346766315091e-02
10489:-9.7691613992196516e-02
10490:-9.8479355680983247e-02
10491:-9.8840442718340207e-02
10492:-8.7909413528189317e-02
10493:-8.8677963814903088e-02
10494:-8.9389391419760059e-02
10495:-8.9713873640148323e-02
10496:-1.1871770256266714e-01
10497:-1.1877832992658943e-01
10498:-1.1851200506572449e-01
10499:-1.1804632610845449e-01
10500:-1.1035579875155486e-01
10501:-1.1041529393311646e-01
10502:-1.1017144082356103e-01
10503:-1.0974085426907361e-01
10504:-9.8948184539120049e-02
10505:-9.9001115368357609e-02
10506:-9.8781435050307412e-02
10507:-9.8393795274401147e-02
10508:-8.9809741832192022e-02
10509:-8.9854134573347733e-02
10510:-8.9649592497365330e-02
10511:-8.9293152769344838e-02
10512:-1.1770730941138270e-01
10513:-1.1691787259200624e-01
10514:-1.1559334931219985e-01
10515:-1.1435500362487282e-01
10516:-1.0942669427971315e-01
10517:-1.0869464736495726e-01
10518:-1.0746529176484831e-01
10519:-1.0631482837097192e-01
10520:-9.8110937686000516e-02
10521:-9.7452416396907132e-02
10522:-9.6346927811193639e-02
10523:-9.5311971931442127e-02
10524:-8.9033678315009968e-02
10525:-8.8430972360722351e-02
10526:-8.7420873034087840e-02
10527:-8.6475642722057877e-02
10528:-1.1361790003978241e-01
10529:-1.1211133138583369e-01
10530:-1.0990981102524666e-01
10531:-1.0804345118638353e-01
10532:-1.0562963807098864e-01
10533:-1.0422915787067959e-01
10534:-1.0218220736726899e-01
10535:-1.0044602889884638e-01
10536:-9.4695335310739800e-02
10537:-9.3435543016396311e-02
10538:-9.1594606786201377e-02
10539:-9.0032604971197486e-02
10540:-8.5912478006226811e-02
10541:-8.4762824936557152e-02
10542:-8.3083867243931714e-02
10543:-8.1659260583008944e-02
10544:-1.0698724370188108e-01
10545:-1.0491354777493644e-01
10546:-1.0203380622236949e-01
10547:-9.9694036953348733e-02
10548:-9.9463115155299542e-02
10549:-9.7533461248353118e-02
10550:-9.4853546476351400e-02
10551:-9.2675363697847360e-02
10552:-8.9147962181142487e-02
10553:-8.7411848353568092e-02
10554:-8.5001168098074287e-02
10555:-8.3041194615197114e-02
10556:-8.0852275483605476e-02
10557:-7.9269381676995682e-02
10558:-7.7072344193602926e-02
10559:-7.5285857743452103e-02
10560:-9.8401796644786113e-02
10561:-9.5916513881117341e-02
10562:-9.2560479768780041e-02
10563:-8.9901290178578633e-02
10564:-9.1471988707954643e-02
10565:-8.9157845813440037e-02
10566:-8.6032867157749396e-02
10567:-8.3556058147831028e-02
10568:-8.1957984559002078e-02
10569:-7.9875583741700118e-02
10570:-7.7064073935334890e-02
10571:-7.4835107255232167e-02
10572:-7.4298291556203169e-02
10573:-7.2400559925334437e-02
10574:-6.9839242055614426e-02
10575:-6.7808361219173274e-02
10576:-8.8454725311034044e-02
10577:-8.5709174503296418e-02
10578:-8.2070124575106165e-02
10579:-7.9236526804311869e-02
10580:-8.2208337390666394e-02
10581:-7.9650676085708333e-02
10582:-7.6260737032022338e-02
10583:-7.3620502868393750e-02
10584:-7.3621842861447503e-02
10585:-7.1320033975207753e-02
10586:-6.8269808577700930e-02
10587:-6.5893610385415774e-02
10588:-6.6702649176187623e-02
10589:-6.4605676517816096e-02
10590:-6.1827755071141993e-02
10591:-5.9663428066985616e-02
10592:-7.7711764283038609e-02
10593:-7.4845586176029835e-02
10594:-7.1099321624227357e-02
10595:-6.8221280632666845e-02
10596:-7.2199446679811000e-02
10597:-6.9528534062924544e-02
10598:-6.6037668152772538e-02
10599:-6.3355321801506007e-02
10600:-6.4614277710962745e-02
10601:-6.2210431093539874e-02
10602:-5.9069284989049134e-02
10603:-5.6655198291604703e-02
10604:-5.8497893947458794e-02
10605:-5.6308635976508190e-02
10606:-5.3448761552455183e-02
10607:-5.1250623261826764e-02
10608:-6.6685876898220559e-02
10609:-6.3821886776902967e-02
10610:-6.0120881242174691e-02
10611:-5.7309452252738279e-02
10612:-6.1924009763979916e-02
10613:-5.9254514256732990e-02
10614:-5.5805082720196193e-02
10615:-5.3184342746605641e-02
10616:-5.5366674548294900e-02
10617:-5.2964163054306172e-02
10618:-4.9860415833884467e-02
10619:-4.7501950587120215e-02
10620:-5.0077108665428409e-02
10621:-4.7889761153643871e-02
10622:-4.5064829459950710e-02
10623:-4.2918068501895015e-02
10624:-5.5820543477902086e-02
10625:-5.3061636790909708e-02
10626:-4.9531733355649435e-02
10627:-4.6877089751619860e-02
10628:-5.1796152975309644e-02
10629:-4.9224199845747045e-02
10630:-4.5933761718388748e-02
10631:-4.3458870931717339e-02
10632:-4.6252375394897106e-02
10633:-4.3937868777658859e-02
10634:-4.0977479306737452e-02
10635:-3.8750555465809203e-02
10636:-4.1780436180488052e-02
10637:-3.9673937891086038e-02
10638:-3.6980405928705155e-02
10639:-3.4954115393708934e-02
10640:-4.5480535374216195e-02
10641:-4.2908387310906827e-02
10642:-3.9647656462771921e-02
10643:-3.7218606345728829e-02
10644:-4.2156649607718678e-02
10645:-3.9758525946337053e-02
10646:-3.6718645635737179e-02
10647:-3.4453830403784816e-02
10648:-3.7578541762799005e-02
10649:-3.5420757889271355e-02
10650:-3.2686149871791317e-02
10651:-3.0648552798674702e-02
10652:-3.3887503953457861e-02
10653:-3.1924360826627501e-02
10654:-2.9437149681622227e-02
10655:-2.7583825141790967e-02
10656:-3.5948859792246143e-02
10657:-3.3623906888046680e-02
10658:-3.0703064683000377e-02
10659:-2.8547714397138425e-02
10660:-3.3269733450223438e-02
10661:-3.1101827489226803e-02
10662:-2.8378443074618398e-02
10663:-2.6368524260019111e-02
10664:-2.9583024088751089e-02
10665:-2.7632647628076667e-02
10666:-2.5183012737861481e-02
10667:-2.3374913716761050e-02
10668:-2.6614501518234863e-02
10669:-2.4840706129526016e-02
10670:-2.2613449263085231e-02
10671:-2.0969425790807482e-02
10672:-2.7428296132155115e-02
10673:-2.5390784504707022e-02
10674:-2.2854839742827471e-02
10675:-2.1002049674125525e-02
10676:-2.5324451675663322e-02
10677:-2.3424206715547319e-02
10678:-2.1059130511242370e-02
10679:-1.9330866268742718e-02
10680:-2.2435473525288685e-02
10681:-2.0725975700047763e-02
10682:-1.8598596793239153e-02
10683:-1.7043774878338285e-02
10684:-2.0115097213011430e-02
10685:-1.8560841461439631e-02
10686:-1.6627083690805036e-02
10687:-1.5213682558941729e-02
10688:-2.0046386199129268e-02
10689:-1.8318081144535127e-02
10690:-1.6188857826449920e-02
10691:-1.4650420557727119e-02
10692:-1.8439246296585086e-02
10693:-1.6826785789772584e-02
10694:-1.4840141213850452e-02
10695:-1.3404346824595422e-02
10696:-1.6241435978971454e-02
10697:-1.4790600037227748e-02
10698:-1.3003143628733541e-02
10699:-1.1710967148646606e-02
10700:-1.4484193827957133e-02
10701:-1.3165322125880417e-02
10702:-1.1540672942469916e-02
10703:-1.0366028281750778e-02
10704:-1.3863093847889791e-02
10705:-1.2449716492021114e-02
10706:-1.0729196690535212e-02
10707:-9.5025239991050562e-03
10708:-1.2669354190636840e-02
10709:-1.1349875896525132e-02
10710:-9.7434438792084466e-03
10711:-8.5977489996679098e-03
10712:-1.1049284062927786e-02
10713:-9.8614681585358441e-03
10714:-8.4152621751853885e-03
10715:-7.3835032276862757e-03
10716:-9.7643936915633566e-03
10717:-8.6845019940745959e-03
10718:-7.3697880861895862e-03
10719:-6.4316587764704589e-03
10720:-8.8807524906386916e-03
10721:-7.7749399123812754e-03
10722:-6.4494993251004735e-03
10723:-5.5211545966003060e-03
10724:-8.0168521627537719e-03
10725:-6.9837338192984101e-03
10726:-5.7453846374738949e-03
10727:-4.8778951019363814e-03
10728:-6.8601936972477445e-03
10729:-5.9295797986980798e-03
10730:-4.8142068862643515e-03
10731:-4.0327925818054323e-03
10732:-5.9557187657315802e-03
10733:-5.1094698026025532e-03
10734:-4.0954036749169765e-03
10735:-3.3849769038030129e-03
10736:-5.0567673367383440e-03
10737:-4.2417959060515589e-03
10738:-3.2871635677169959e-03
10739:-2.6368322809123975e-03
10740:-4.4438899861155142e-03
10741:-3.6826205408882692e-03
10742:-2.7918313593976343e-03
10743:-2.1858163128509419e-03
10744:-3.6418128505958094e-03
10745:-2.9565937200899529e-03
10746:-2.1561570025513798e-03
10747:-1.6127724441429290e-03
10748:-3.0295073587618070e-03
10749:-2.4070136833941663e-03
10750:-1.6809658831122445e-03
10751:-1.1890087627757485e-03
10752:-2.3184910681677429e-03
10753:-1.7729523954140289e-03
10754:-1.1611036232182770e-03
10755:-7.6723794942691419e-04
10756:-1.8895371355769112e-03
10757:-1.3831996037502873e-03
10758:-8.1856065561279167e-04
10759:-4.5808246426662819e-04
10760:-1.3476203035027111e-03
10761:-8.9636578009965034e-04
10762:-3.9766223679090531e-04
10763:-8.3566980520323442e-05
10764:-9.4935211355762748e-04
10765:-5.4305560869585118e-04
10766:-9.7896450424879604e-05
10767:1.7869603061271112e-04
10768:-5.8353574975664028e-04
10769:-2.8814671710647823e-04
10770:4.7015302570569150e-07
10771:1.4757899939629273e-04
10772:-2.9131404803637906e-04
10773:-2.7407319996023552e-05
10774:2.2001215564712744e-04
10775:3.3504002719493667e-04
10776:5.9773332947458244e-05
10777:2.8083837491383408e-04
10778:4.7397402210478111e-04
10779:5.4831501919381945e-04
10780:3.0316330709023292e-04
10781:4.9033524984243510e-04
10782:6.4205723649608543e-04
10783:6.8673437949653916e-04
10784:1.9944505301785421e-04
10785:2.4145335367267441e-04
10786:1.8452479982476649e-04
10787:5.3288900688943684e-05
10788:3.6932460073506795e-04
10789:3.7380757217401025e-04
10790:2.5691471133141837e-04
10791:6.9980551972537465e-05
10792:5.6094237231847687e-04
10793:5.2072458174613702e-04
10794:3.3483226711446230e-04
10795:8.5056563678578199e-05
10796:6.8416570642439026e-04
10797:6.1444613862391415e-04
10798:3.8619323340852467e-04
10799:9.9571154732771422e-05
10800:-1.1752405665842341e-03
10801:-5.6004739066486406e-03
10802:-1.1327899701323686e-02
10803:-1.5688573305375098e-02
10804:-1.0407872575143157e-03
10805:-4.9615342930225377e-03
10806:-1.0034120058640482e-02
10807:-1.3896999464909783e-02
10808:-8.5564603941359961e-04
10809:-4.0817426972145771e-03
10810:-8.2526599314598648e-03
10811:-1.1430143781658844e-02
10812:-7.0593230847942651e-04
10813:-3.3704518960822622e-03
10814:-6.8124302935961608e-03
10815:-9.4358295333537064e-03
10816:-1.8001706309310826e-02
10817:-2.2283972164859823e-02
10818:-2.7755157573887117e-02
10819:-3.1865889128594255e-02
10820:-1.5946811097644276e-02
10821:-1.9740061411901062e-02
10822:-2.4584942727990840e-02
10823:-2.8226026375208539e-02
10824:-1.3117410606607599e-02
10825:-1.6237322918749748e-02
10826:-2.0219754440049396e-02
10827:-2.3214098073958817e-02
10828:-1.0830015217920652e-02
10829:-1.3405577407947162e-02
10830:-1.6690750942476795e-02
10831:-1.9162241600540513e-02
10832:-3.4026898122948970e-02
10833:-3.7989664020640995e-02
10834:-4.2977258070406379e-02
10835:-4.6665939176148558e-02
10836:-3.0140896065638224e-02
10837:-3.3650845275234001e-02
10838:-3.8066881601917416e-02
10839:-4.1333427210508103e-02
10840:-2.4790020970957043e-02
10841:-2.7676377384768275e-02
10842:-3.1305238308045595e-02
10843:-3.3990384409749191e-02
10844:-2.0464156004719899e-02
10845:-2.2846383100604065e-02
10846:-2.5838864619520500e-02
10847:-2.8054003615683616e-02
10848:-4.8584121943148387e-02
10849:-5.2064312904148577e-02
10850:-5.6370447048631138e-02
10851:-5.9496683489928308e-02
10852:-4.3032685564086293e-02
10853:-4.6114399199376065e-02
10854:-4.9925933600799936e-02
10855:-5.2693374933046343e-02
10856:-3.5388123321512442e-02
10857:-3.7920989592988535e-02
10858:-4.1051236003167180e-02
10859:-4.3324447664823622e-02
10860:-2.9208002709766378e-02
10861:-3.1297196716131043e-02
10862:-3.3876727047029633e-02
10863:-3.5750464535084923e-02
10864:-6.1101200029438106e-02
10865:-6.3973861089512668e-02
10866:-6.7451087617759836e-02
10867:-6.9913646503736382e-02
10868:-5.4114168090745055e-02
10869:-5.6656795118551602e-02
10870:-5.9733013619710250e-02
10871:-6.1911480582666746e-02
10872:-4.4492173100165254e-02
10873:-4.6580201008052831e-02
10874:-4.9104067760939785e-02
10875:-5.0891238341799358e-02
10876:-3.6713659691091978e-02
10877:-3.8434311463884895e-02
10878:-4.0511874275509500e-02
10879:-4.1982935636744032e-02
10880:-7.1154747837888541e-02
10881:-7.3335649308374343e-02
10882:-7.5892054780522203e-02
10883:-7.7634102184917883e-02
10884:-6.3009613163356834e-02
10885:-6.4938371117692059e-02
10886:-6.7197740595558997e-02
10887:-6.8736836152310618e-02
10888:-5.1792459534862494e-02
10889:-5.3373963911614267e-02
10890:-5.5224309808111056e-02
10891:-5.6483988040161470e-02
10892:-4.2725106555017607e-02
10893:-4.4026180474577452e-02
10894:-4.5546330362662223e-02
10895:-4.6580543069100859e-02
10896:-7.8486274912451179e-02
10897:-7.9936424220142299e-02
10898:-8.1538386954298492e-02
10899:-8.2547220963281556e-02
10900:-6.9489679214087954e-02
10901:-7.0769980166752844e-02
10902:-7.2182677940251835e-02
10903:-7.3071142658331700e-02
10904:-5.7100100314661159e-02
10905:-5.8146677456215566e-02
10906:-5.9299098206347121e-02
10907:-6.0022170372360115e-02
10908:-4.7086367804202597e-02
10909:-4.7944527251448148e-02
10910:-4.8887346469074430e-02
10911:-4.9477420426053915e-02
10912:-8.3008258975177357e-02
10913:-8.3731622713029613e-02
10914:-8.4399990631610272e-02
10915:-8.4703468307814805e-02
10916:-7.3476746549434396e-02
10917:-7.4112117703271529e-02
10918:-7.4696670121351616e-02
10919:-7.4959289249783095e-02
10920:-6.0351664697775698e-02
10921:-6.0866392914342912e-02
10922:-6.1336402620051036e-02
10923:-6.1543549711775301e-02
10924:-4.9745794007821642e-02
10925:-5.0163836345404313e-02
10926:-5.0542492842239030e-02
10927:-5.0705844637915075e-02
10928:-8.4792329332507521e-02
10929:-8.4831129054363644e-02
10930:-8.4633739909686700e-02
10931:-8.4293557510928652e-02
10932:-7.5034533249753579e-02
10933:-7.5062531165225932e-02
10934:-7.4879252994690906e-02
10935:-7.4570905623842901e-02
10936:-6.1600503831336778e-02
10937:-6.1614610085988543e-02
10938:-6.1452258220185726e-02
10939:-6.1189031884134971e-02
10940:-5.0748602914244031e-02
10941:-5.0752669343189082e-02
10942:-5.0608938831171839e-02
10943:-5.0383593730335609e-02
10944:-8.4046462219902973e-02
10945:-8.3473571094816651e-02
10946:-8.2514824678988852e-02
10947:-8.1618121782534872e-02
10948:-7.4348022328812907e-02
10949:-7.3833441399840105e-02
10950:-7.2975116034444551e-02
10951:-7.2173288498477470e-02
10952:-6.1000217273285681e-02
10953:-6.0567425244452050e-02
10954:-5.9849557127145882e-02
10955:-5.9180180995772637e-02
10956:-5.0223100851026325e-02
10957:-4.9857974179724374e-02
10958:-4.9255813299992512e-02
10959:-4.8695254300502762e-02
10960:-8.1083939827606422e-02
10961:-7.9994100038529095e-02
10962:-7.8403307560376750e-02
10963:-7.7053612585584186e-02
10964:-7.1695762287377243e-02
10965:-7.0722859118336451e-02
10966:-6.9304447763207294e-02
10967:-6.8101218196449209e-02
10968:-5.8781675127241688e-02
10969:-5.7971793708041487e-02
10970:-5.6793556885988659e-02
10971:-5.5794278065526871e-02
10972:-4.8361583050398137e-02
10973:-4.7685347070626077e-02
10974:-4.6703806428818599e-02
10975:-4.5871412986731842e-02
10976:-7.6289007824835511e-02
10977:-7.4789810916258151e-02
10978:-7.2709619309537440e-02
10979:-7.1018111728935435e-02
10980:-6.7419471402317827e-02
10981:-6.6083929381237291e-02
10982:-6.4232236641825077e-02
10983:-6.2726472180995821e-02
10984:-5.5227869381426813e-02
10985:-5.4120104493676935e-02
10986:-5.2586371735512075e-02
10987:-5.1339003086344689e-02
10988:-4.5399333576395293e-02
10989:-4.4477796472585082e-02
10990:-4.3203906955107688e-02
10991:-4.2167609869825581e-02
10992:-7.0082937908118773e-02
10993:-6.8286427578582998e-02
10994:-6.5862358713334623e-02
10995:-6.3940220060494019e-02
10996:-6.1893757763284242e-02
10997:-6.0295213189708957e-02
10998:-5.8139593999496954e-02
10999:-5.6430152702976986e-02
11000:-5.0648797589332620e-02
11001:-4.9325579682772208e-02
11002:-4.7543264110667414e-02
11003:-4.6129542557997137e-02
11004:-4.1593779527892193e-02
11005:-4.0495354499481696e-02
11006:-3.9017737055127906e-02
11007:-3.7845312548234547e-02
11008:-6.2893575593744880e-02
11009:-6.0909149391619108e-02
11010:-5.8280937088382653e-02
11011:-5.6233158050745156e-02
11012:-5.5499042405587527e-02
11013:-5.3734762975566862e-02
11014:-5.1399402300067121e-02
11015:-4.9579608255752021e-02
11016:-4.5359040089048883e-02
11017:-4.3900770714349009e-02
11018:-4.1972428212460937e-02
11019:-4.0469444549279046e-02
11020:-3.7205832362806425e-02
11021:-3.5997162482058538e-02
11022:-3.4400724832121754e-02
11023:-3.3156016420761748e-02
11024:-5.5130244107435410e-02
11025:-5.3059109089863971e-02
11026:-5.0354139954420861e-02
11027:-4.8274985160345722e-02
11028:-4.8599187039188918e-02
11029:-4.6759118388305349e-02
11030:-4.4357169167067743e-02
11031:-4.2510760514850372e-02
11032:-3.9659218901761356e-02
11033:-3.8140172473275107e-02
11034:-3.6159146604234763e-02
11035:-3.4635985437352114e-02
11036:-3.2484514506897336e-02
11037:-3.1227086663435894e-02
11038:-2.9589009308949896e-02
11039:-2.8329144800123423e-02
11040:-4.7164856381122354e-02
11041:-4.5096127152938904e-02
11042:-4.2424966551331794e-02
11043:-4.0395008440591303e-02
11044:-4.1524618686567628e-02
11045:-3.9687910462953273e-02
11046:-3.7317520057075185e-02
11047:-3.5516012709300014e-02
11048:-3.3822018379554550e-02
11049:-3.2307466721238985e-02
11050:-3.0354609290257083e-02
11051:-2.8870174944051235e-02
11052:-2.7655394008442587e-02
11053:-2.6403154745234258e-02
11054:-2.4790177160733718e-02
11055:-2.3563774465491440e-02
11056:-3.9319152935202460e-02
11057:-3.7327473043676312e-02
11058:-3.4781295057758475e-02
11059:-3.2865829308489074e-02
11060:-3.4560979704033802e-02
11061:-3.2793851954331307e-02
11062:-3.0535839669997029e-02
11063:-2.8837089982238676e-02
11064:-2.8082810558734839e-02
11065:-2.6627255744151788e-02
11066:-2.4768996846295674e-02
11067:-2.3370817991527751e-02
11068:-2.2912831567036069e-02
11069:-2.1710736752744375e-02
11070:-2.0177579756673773e-02
11071:-1.9023772314595008e-02
11072:-3.1857452872314937e-02
11073:-3.0001872720143690e-02
11074:-2.7651424777956485e-02
11075:-2.5900003513185402e-02
11076:-2.7942586295691442e-02
11077:-2.6297324225741402e-02
11078:-2.4214271399105220e-02
11079:-2.2662076861373035e-02
11080:-2.2634224908210147e-02
11081:-2.1280570915619197e-02
11082:-1.9568179270971590e-02
11083:-1.8292091563897075e-02
11084:-1.8415539585151786e-02
11085:-1.7298876380955449e-02
11086:-1.5887632449887772e-02
11087:-1.4835805505373613e-02
11088:-2.4983894373872481e-02
11089:-2.3307793914417122e-02
11090:-2.1203613269860522e-02
11091:-1.9650433957669980e-02
11092:-2.1850001624019906e-02
11093:-2.0364885852684981e-02
11094:-1.8501298754209094e-02
11095:-1.7125704395714033e-02
11096:-1.7624176152227330e-02
11097:-1.6403670846502214e-02
11098:-1.4873368704841194e-02
11099:-1.3743743834881989e-02
11100:-1.4284958074047296e-02
11101:-1.3279296685354608e-02
11102:-1.2019531873122786e-02
11103:-1.1089526846427406e-02
11104:-1.8843242635508479e-02
11105:-1.7374987165398058e-02
11106:-1.5548538019885505e-02
11107:-1.4213554873475051e-02
11108:-1.6410660131146171e-02
11109:-1.5110524447625180e-02
11110:-1.3493858548891992e-02
11111:-1.2312192834520357e-02
11112:-1.3156322609967963e-02
11113:-1.2089011066268685e-02
11114:-1.0762840153547820e-02
11115:-9.7934715828237612e-03
11116:-1.0605667477901745e-02
11117:-9.7272569609729177e-03
11118:-8.6367315765618052e-03
11119:-7.8395489373067947e-03
11120:-1.3524476687943454e-02
11121:-1.2278830425270277e-02
11122:-1.0744570658695883e-02
11123:-9.6352211460019096e-03
11124:-1.1702129490330405e-02
11125:-1.0599670272823089e-02
11126:-9.2421913572936620e-03
11127:-8.2605818760027368e-03
11128:-9.2928205136389615e-03
11129:-8.3886362093444737e-03
11130:-7.2759834936770513e-03
11131:-6.4713355414300604e-03
11132:-7.4276313056248133e-03
11133:-6.6842431493449013e-03
11134:-5.7701494044819163e-03
11135:-5.1090482851356605e-03
11136:-9.0669626494940189e-03
11137:-8.0470783078416350e-03
11138:-6.8055167064062358e-03
11139:-5.9195094735261583e-03
11140:-7.7576355323820565e-03
11141:-6.8551928919922574e-03
11142:-5.7568309008493674e-03
11143:-4.9728841148213030e-03
11144:-6.0588930476392616e-03
11145:-5.3192061839367581e-03
11146:-4.4193256600984091e-03
11147:-3.7768691285230776e-03
11148:-4.7700344324997515e-03
11149:-4.1623972866650840e-03
11150:-3.4235516113904217e-03
11151:-2.8958946964797259e-03
11152:-5.4699513759072652e-03
11153:-4.6706992316417409e-03
11154:-3.7130875552341806e-03
11155:-3.0422364502018660e-03
11156:-4.5749950141727690e-03
11157:-3.8677837583152770e-03
11158:-3.0207200971100853e-03
11159:-2.4273476826505097e-03
11160:-3.4506214673131435e-03
11161:-2.8710097386799075e-03
11162:-2.1771428203701177e-03
11163:-1.6910795294346438e-03
11164:-2.6277752463099626e-03
11165:-2.1516704591999390e-03
11166:-1.5820105187698144e-03
11167:-1.1828890952285298e-03
11168:-2.7065685907794608e-03
11169:-2.1190243712112177e-03
11170:-1.4343477517399284e-03
11171:-9.7091764879146713e-04
11172:-2.1304340336544799e-03
11173:-1.6111869289865753e-03
11174:-1.0070890007331918e-03
11175:-5.9896062846436133e-04
11176:-1.4478071696192539e-03
11177:-1.0228778992430858e-03
11178:-5.2950672906962922e-04
11179:-1.9683474226210251e-04
11180:-9.8304583601108620e-04
11181:-6.3431119607312207e-04
11182:-2.2996683878993441e-04
11183:4.2447233210156043e-05
11184:-7.4537168343326342e-04
11185:-3.6389796888716902e-04
11186:5.1802713291335309e-05
11187:3.0783306861236615e-04
11188:-4.0065617360917759e-04
11189:-6.6854129885569606e-05
11190:2.9284692046274805e-04
11191:5.1031552733178556e-04
11192:-3.5461150063872351e-05
11193:2.3434142990392680e-04
11194:5.2031774031480800e-04
11195:6.8835027022344627e-04
11196:1.7451678256515511e-04
11197:3.9411608107955498e-04
11198:6.2360664560361264e-04
11199:7.5499879683413003e-04
11200:4.2198490415214441e-04
11201:5.9088466974131066e-04
11202:7.2088130051368613e-04
11203:7.5052962971636369e-04
11204:6.0535249698561724e-04
11205:7.4106951366792700e-04
11206:8.3279017974222254e-04
11207:8.3669600986990302e-04
11208:7.5943987526749075e-04
11209:8.5476543751057980e-04
11210:9.0178039814391197e-04
11211:8.7664979351568997e-04
11212:8.0884605734069621e-04
11213:8.7585284908165599e-04
11214:8.9260633940983585e-04
11215:8.4828139249381435e-04
11216:7.4050207035135244e-04
11217:6.5720660478187304e-04
11218:4.1115348939021589e-04
11219:1.1007851821668961e-04
11220:8.1417025264270918e-04
11221:7.0986980053998371e-04
11222:4.4036523345860452e-04
11223:1.2350466656247213e-04
11224:8.4043162237260017e-04
11225:7.1712975393229458e-04
11226:4.3679203627004857e-04
11227:1.2242127039260604e-04
11228:8.0322428349439057e-04
11229:6.7143061274809400e-04
11230:3.9811754579515362e-04
11231:1.0399341165371725e-04
11232:-6.2319016002688251e-04
11233:-2.9774298502523717e-03
11234:-6.0166527708538581e-03
11235:-8.3339096194587226e-03
11236:-4.6080323346782762e-04
11237:-2.2060942984584529e-03
11238:-4.4548463361844069e-03
11239:-6.1712914292261032e-03
11240:-2.3434331779718752e-04
11241:-1.1297198148299361e-03
11242:-2.2752361805570779e-03
11243:-3.1532985667324064e-03
11244:-4.9295459484545350e-05
11245:-2.4907124486834979e-04
11246:-4.9177106393916245e-04
11247:-6.8392712170068769e-04
11248:-9.5661645976424098e-03
11249:-1.1840966845765098e-02
11250:-1.4740904721252657e-02
11251:-1.6923533522648828e-02
11252:-7.0857866640447690e-03
11253:-8.7704631256504458e-03
11254:-1.0914654214373813e-02
11255:-1.2530713329381186e-02
11256:-3.6244757526395317e-03
11257:-4.4859849874758998e-03
11258:-5.5762629522867072e-03
11259:-6.4024564413147278e-03
11260:-7.9249587151979410e-04
11261:-9.8081213405868837e-04
11262:-1.2094026534162341e-03
11263:-1.3899681104800213e-03
11264:-1.8074073182140570e-02
11265:-2.0177802060598944e-02
11266:-2.2818743026964454e-02
11267:-2.4774267664832823e-02
11268:-1.3384392206473869e-02
11269:-1.4942034674247651e-02
11270:-1.6893853764839862e-02
11271:-1.8340643423313416e-02
11272:-6.8423655982217885e-03
11273:-7.6390478942172492e-03
11274:-8.6310327521095607e-03
11275:-9.3696571408958280e-03
11276:-1.4917320997793210e-03
11277:-1.6666944333312392e-03
11278:-1.8748488808562598e-03
11279:-2.0355052672239569e-03
11280:-2.5793643511530205e-02
11281:-2.7637800685068013e-02
11282:-2.9913207560431556e-02
11283:-3.1566374701742124e-02
11284:-1.9096292522431710e-02
11285:-2.0460569795952128e-02
11286:-2.2140679692626637e-02
11287:-2.3362342238374953e-02
11288:-9.7583697470689772e-03
11289:-1.0455301342051799e-02
11290:-1.1308238811632326e-02
11291:-1.1930870400243324e-02
11292:-2.1248827138833724e-03
11293:-2.2776895197310532e-03
11294:-2.4567403375627037e-03
11295:-2.5917960962807580e-03
11296:-3.2416651926281598e-02
11297:-3.3934507853572625e-02
11298:-3.5765761731496287e-02
11299:-3.7062414426280707e-02
11300:-2.3991809155901274e-02
11301:-2.5113279380464173e-02
11302:-2.6463477202674484e-02
11303:-2.7419823817325689e-02
11304:-1.2254007430205540e-02
11305:-1.2825979255847039e-02
11306:-1.3510158945659920e-02
11307:-1.3996081859318143e-02
11308:-2.6657667230957044e-03
11309:-2.7911132563626230e-03
11310:-2.9346592582575296e-03
11311:-3.0393101430540239e-03
11312:-3.7716850488396278e-02
11313:-3.8863273151699677e-02
11314:-4.0201408829462833e-02
11315:-4.1111407410428270e-02
11316:-2.7903199765844020e-02
11317:-2.8748348941455559e-02
11318:-2.9732429434413742e-02
11319:-3.0401240661693807e-02
11320:-1.4243278342210236e-02
11321:-1.4673036486731062e-02
11322:-1.5170121754632339e-02
11323:-1.5508159360742332e-02
11324:-3.0953179582541984e-03
11325:-3.1892767536284071e-03
11326:-3.2936275655796082e-03
11327:-3.3657085395973371e-03
11328:-4.1556500153572574e-02
11329:-4.2310965241937178e-02
11330:-4.3138562045507083e-02
11331:-4.3655638157861235e-02
11332:-3.0728580174599653e-02
11333:-3.1282340398963916e-02
11334:-3.1887650588948158e-02
11335:-3.2264538912911013e-02
11336:-1.5674390127689512e-02
11337:-1.5954321972205525e-02
11338:-1.6257989566625254e-02
11339:-1.6446076789472023e-02
11340:-3.4027134704780883e-03
11341:-3.4636350743047369e-03
11342:-3.5273758832014223e-03
11343:-3.5664688137005390e-03
11344:-4.3890513047831127e-02
11345:-4.4255673027717018e-02
11346:-4.4584608998516351e-02
11347:-4.4724374614117560e-02
11348:-3.2435350279100834e-02
11349:-3.2699954607817237e-02
11350:-3.2935652615977681e-02
11351:-3.3032532371262559e-02
11352:-1.6531214513813095e-02
11353:-1.6662640631064280e-02
11354:-1.6777804761360638e-02
11355:-1.6822331339414805e-02
11356:-3.5844981325482894e-03
11357:-3.6126812846568909e-03
11358:-3.6368806793090694e-03
11359:-3.6445547389814033e-03
11360:-4.4759626103919162e-02
11361:-4.4758803747303379e-02
11362:-4.4626268140108699e-02
11363:-4.4422577727413648e-02
11364:-3.3054885871102210e-02
11365:-3.3047952517677892e-02
11366:-3.2941987281624695e-02
11367:-3.2784337066227985e-02
11368:-1.6830720578923205e-02
11369:-1.6822897446835475e-02
11370:-1.6764055266115362e-02
11371:-1.6678363522020598e-02
11372:-3.6447381861426718e-03
11373:-3.6422682006364980e-03
11374:-3.6299557011810076e-03
11375:-3.6092489542828062e-03
11376:-4.4278128477395678e-02
11377:-4.3951151912487628e-02
11378:-4.3413953860122034e-02
11379:-4.2914329503222763e-02
11380:-3.2673260331427909e-02
11381:-3.2424691953468664e-02
11382:-3.2019571890983180e-02
11383:-3.1643002824320879e-02
11384:-1.6617956276079749e-02
11385:-1.6486467061223399e-02
11386:-1.6275551830516981e-02
11387:-1.6078162064294462e-02
11388:-3.5935437736629118e-03
11389:-3.5638999268227502e-03
11390:-3.5196737132120195e-03
11391:-3.4747505495394222e-03
11392:-4.2616918025023431e-02
11393:-4.2015358912343759e-02
11394:-4.1143608258206926e-02
11395:-4.0404283634586605e-02
11396:-3.1418578190966120e-02
11397:-3.0966960518365925e-02
11398:-3.0314991742044297e-02
11399:-2.9761524695696710e-02
11400:-1.5959506929019547e-02
11401:-1.5724366722352022e-02
11402:-1.5388273633464756e-02
11403:-1.5100952388679702e-02
11404:-3.4457123937368592e-03
11405:-3.3933608375578549e-03
11406:-3.3228726665477468e-03
11407:-3.2585872477308088e-03
11408:-3.9984783518343447e-02
11409:-3.9167010413969548e-02
11410:-3.8037827781393328e-02
11411:-3.7119020481810053e-02
11412:-2.9446880303782799e-02
11413:-2.8835797789982534e-02
11414:-2.7994416674124244e-02
11415:-2.7308958850549410e-02
11416:-1.4936148808181469e-02
11417:-1.4619905479101842e-02
11418:-1.4188095001734779e-02
11419:-1.3834020308379777e-02
11420:-3.2191126255381054e-03
11421:-3.1490628907367836e-03
11422:-3.0584845497321862e-03
11423:-2.9799561888479314e-03
11424:-3.6609949368874635e-02
11425:-3.5636585148466481e-02
11426:-3.4328425318413791e-02
11427:-3.3290153129327427e-02
11428:-2.6928399884258956e-02
11429:-2.6203030997608220e-02
11430:-2.5230558074211956e-02
11431:-2.4457776262063694e-02
11432:-1.3635730298297951e-02
11433:-1.3261689264988550e-02
11434:-1.2764009653043858e-02
11435:-1.2366170733626027e-02
11436:-2.9330419985901181e-03
11437:-2.8504598637343276e-03
11438:-2.7460583525724018e-03
11439:-2.6583447408035643e-03
11440:-3.2723500613041231e-02
11441:-3.1653542524343381e-02
11442:-3.0241505697880727e-02
11443:-2.9140250641550135e-02
11444:-2.4035162127690114e-02
11445:-2.3239392354570905e-02
11446:-2.2191557346974148e-02
11447:-2.1373404679182764e-02
11448:-1.2146783108385625e-02
11449:-1.1737527461785847e-02
11450:-1.1202437757378832e-02
11451:-1.0782359806744579e-02
11452:-2.6068989488698367e-03
11453:-2.5167761697421727e-03
11454:-2.4045215880474733e-03
11455:-2.3123253394206648e-03
11456:-2.8545785420751271e-02
11457:-2.7433615973398332e-02
11458:-2.5985904759753285e-02
11459:-2.4872154179055753e-02
11460:-2.0930890792129342e-02
11461:-2.0105096119192090e-02
11462:-1.9032418027178671e-02
11463:-1.8206315933931693e-02
11464:-1.0553334919079827e-02
11465:-1.0129582265398038e-02
11466:-9.5828192032889319e-03
11467:-9.1596432766241891e-03
11468:-2.2590090589659738e-03
11469:-2.1659039607336028e-03
11470:-2.0511913601887954e-03
11471:-1.9586728880005197e-03
11472:-2.4276201114369220e-02
11473:-2.3169478393571405e-02
11474:-2.1744998588073314e-02
11475:-2.0661662913045612e-02
11476:-1.7763448051176883e-02
11477:-1.6942932893144091e-02
11478:-1.5888946168728785e-02
11479:-1.5086617912411194e-02
11480:-8.9310539754685735e-03
11481:-8.5108684737171345e-03
11482:-7.9745547433928768e-03
11483:-7.5644478155321550e-03
11484:-1.9058051839576727e-03
11485:-1.8136880754802064e-03
11486:-1.7011679800354991e-03
11487:-1.6118222945422835e-03
11488:-2.0086346204877325e-02
11489:-1.9024734167892961e-02
11490:-1.7671720966357326e-02
11491:-1.6653287558316743e-02
11492:-1.4659776020151278e-02
11493:-1.3873846636608997e-02
11494:-1.2874109988848206e-02
11495:-1.2120977570289694e-02
11496:-7.3446951047659538e-03
11497:-6.9430117931458769e-03
11498:-6.4351534609333617e-03
11499:-6.0510171857273195e-03
11500:-1.5613117123193657e-03
11501:-1.4734360972091969e-03
11502:-1.3668740143206049e-03
11503:-1.2834690286399953e-03
11504:-1.6116149722935926e-02
11505:-1.5130724470835001e-02
11506:-1.3886200980763550e-02
11507:-1.2958494881637658e-02
11508:-1.1723106130092982e-02
11509:-1.0994644854135873e-02
11510:-1.0076339555131009e-02
11511:-9.3913327997102013e-03
11512:-5.8467081977745094e-03
11513:-5.4751436494876867e-03
11514:-5.0094434668352707e-03
11515:-4.6608054515169814e-03
11516:-1.2368033799962099e-03
11517:-1.1557087947747003e-03
11518:-1.0579942761362656e-03
11519:-9.8255116261839089e-04
11520:-1.2472429079829940e-02
11521:-1.1585635548119196e-02
11522:-1.0475517160584490e-02
11523:-9.6559067634592478e-03
11524:-9.0318799104459179e-03
11525:-8.3773047659909672e-03
11526:-7.5593370309670485e-03
11527:-6.9551012159611491e-03
11528:-4.4767053085636799e-03
11529:-4.1435101339109678e-03
11530:-3.7294246396057996e-03
11531:-3.4226013301693831e-03
11532:-9.4076970863679079e-04
11533:-8.6822292480631170e-04
11534:-7.8133615861605387e-04
11535:-7.1518375558459748e-04
11536:-9.2293117094489306e-03
11537:-8.4553370371824189e-03
11538:-7.4950613648279030e-03
11539:-6.7930329011271478e-03
11540:-6.6401752095189021e-03
11541:-6.0697636562887878e-03
11542:-5.3632009848596212e-03
11543:-4.8464111421988795e-03
11544:-3.2617643787369041e-03
11545:-2.9720436031094219e-03
11546:-2.6149669991553035e-03
11547:-2.3530976521679596e-03
11548:-6.7894266415085994e-04
11549:-6.1603134709720467e-04
11550:-5.4107600467324663e-04
11551:-4.8479810690428457e-04
11552:-6.4301458780432873e-03
11553:-5.7756012936193441e-03
11554:-4.9712109168704183e-03
11555:-4.3894210950322903e-03
11556:-4.5789379166485209e-03
11557:-4.0972255772917252e-03
11558:-3.5061393389922350e-03
11559:-3.0784807073371062e-03
11560:-2.2168523198254244e-03
11561:-1.9727016554211300e-03
11562:-1.6745284838724451e-03
11563:-1.4583144235176119e-03
11564:-4.5432389141916490e-04
11565:-4.0152169384496370e-04
11566:-3.3902716614688623e-04
11567:-2.9274661389237674e-04
11568:-4.0909793751764010e-03
11569:-3.5562995854085382e-03
11570:-2.9064170457905386e-03
11571:-2.4421777958682483e-03
11572:-2.8588575909638692e-03
11573:-2.4658588863408250e-03
11574:-1.9886919607474260e-03
11575:-1.6475879359715579e-03
11576:-1.3467445091517997e-03
11577:-1.1478809484804816e-03
11578:-9.0730274981393427e-04
11579:-7.3492521130022991e-04
11580:-2.6794918456930967e-04
11581:-2.2492447492638014e-04
11582:-1.7423747307908450e-04
11583:-1.3734331689237248e-04
11584:-2.2061691727921261e-03
11585:-1.7872341943924301e-03
11586:-1.2861521400510537e-03
11587:-9.3500791799185643e-04
11588:-1.4739479945034060e-03
11589:-1.1660765933272030e-03
11590:-7.9821179364777148e-04
11591:-5.4021179218786714e-04
11592:-6.4679678628220909e-04
11593:-4.9124338286496698e-04
11594:-3.0604683699964410e-04
11595:-1.7564169325500975e-04
11596:-1.1792217438148863e-04
11597:-8.4776283779189129e-05
11598:-4.6331112970036680e-05
11599:-1.8322338202096416e-05
11600:-7.5911710591589489e-04
11601:-4.5234595376316273e-04
11602:-9.6886569275520882e-05
11603:1.4257646280350732e-04
11604:-4.1078527319245606e-04
11605:-1.8530685159022511e-04
11606:7.5622519881296299e-05
11607:2.5145215389595549e-04
11608:-1.0978654128016362e-04
11609:4.6260167491619865e-06
11610:1.3658651629261468e-04
11611:2.2562122603984248e-04
11612:-3.4225215358049699e-06
11613:2.2031138446451602e-05
11614:5.0710928064266503e-05
11615:7.0154593690927359e-05
11616:2.5868497625148673e-04
11617:4.5116943922275687e-04
11618:6.5071823900960627e-04
11619:7.6323979453228608e-04
11620:3.3676415570772517e-04
11621:4.7728490916933646e-04
11622:6.2085941035461636e-04
11623:6.9991810187278094e-04
11624:2.6891629196593950e-04
11625:3.3910377596103918e-04
11626:4.0947349096954745e-04
11627:4.4829485324650786e-04
11628:7.9712620574838721e-05
11629:9.3750224900317487e-05
11630:1.0736179936852738e-04
11631:1.1747370124086662e-04
11632:8.0844179560440237e-04
11633:8.6155577577782931e-04
11634:8.6392118749421029e-04
11635:8.1070554207066721e-04
11636:7.3071682478808794e-04
11637:7.6256589491050832e-04
11638:7.4713386402548666e-04
11639:6.8676581467315141e-04
11640:4.6373436632329856e-04
11641:4.7772160577249441e-04
11642:4.5933154343099107e-04
11643:4.1135876617516255e-04
11644:1.2350219444121473e-04
11645:1.3132481644177846e-04
11646:1.2712931171625288e-04
11647:1.0678664605680113e-04
11648:7.6167865687040508e-04
11649:6.2794830260021260e-04
11650:3.6452571317015996e-04
11651:8.8190630635983478e-05
11652:6.3639531271979612e-04
11653:5.1334300982185436e-04
11654:2.9026825350493785e-04
11655:6.3881771164622754e-05
11656:3.7314486384087291e-04
11657:2.9291864179766138e-04
11658:1.5946339389869503e-04
11659:2.0506811428713781e-05
11660:8.9443101814210251e-05
11661:6.3101856151981983e-05
11662:1.9239392424199849e-05
11663:-4.5959725731334110e-05
11664:-3.1279449788433406e-01
11665:-1.0041942089217706e-01
11666:1.5685032963976470e-01
11667:3.4919271130741891e-01
11668:-1.7689564240728255e+00
11669:-1.0275421213335989e+00
11670:-2.7699209592120988e-01
11671:1.7343991986423751e-01
11672:-3.5905482887154001e+00
11673:-2.1891519941524789e+00
11674:-8.3703412057569293e-01
11675:-8.8303809489006471e-02
11676:-4.8648710505938437e+00
11677:-3.0088583369619704e+00
11678:-1.2521924006802161e+00
11679:-3.1509024401650687e-01
11680:4.5276607088112042e-01
11681:6.5490164503427928e-01
11682:9.2543874725271058e-01
11683:1.1307398127009372e+00
11684:3.8059357096320057e-01
11685:7.4165450142197542e-01
11686:1.1580151311195084e+00
11687:1.4303118351364579e+00
11688:2.3007855065568278e-01
11689:7.4310380128366171e-01
11690:1.2580953920889582e+00
11691:1.5342735720274792e+00
11692:6.7025931288523619e-02
11693:6.5503199588597738e-01
11694:1.1888945169792178e+00
11695:1.4223233359635137e+00
11696:1.2373361720731031e+00
11697:1.4159249324070473e+00
11698:1.5594923201854982e+00
11699:1.5653790252782485e+00
11700:1.5577103081886794e+00
11701:1.7525383183238212e+00
11702:1.8646557027953796e+00
11703:1.7989302071652660e+00
11704:1.6414359324195911e+00
11705:1.7925947997149447e+00
11706:1.8454448961466099e+00
11707:1.7337989420736968e+00
11708:1.4889877142500629e+00
11709:1.5658790530719406e+00
11710:1.5470898555525670e+00
11711:1.4117617800153299e+00
11712:1.5231649481247900e+00
11713:1.3746667337850242e+00
11714:1.0974554893576500e+00
11715:8.6051143338828839e-01
11716:1.7010308969056054e+00
11717:1.4377396929653463e+00
11718:1.0111318375358169e+00
11719:6.7287539570270571e-01
11720:1.6116192166087837e+00
11721:1.3047684373602368e+00
11722:8.2842023292031353e-01
11723:4.5983593125366867e-01
11724:1.2907680061857727e+00
11725:1.0061170568513995e+00
11726:5.8325602052641812e-01
11727:2.6373219163440037e-01
11728:7.3605607572942366e-01
11729:5.1893986649453239e-01
11730:2.8178389774565349e-01
11731:1.4590159088568988e-01
11732:5.0281715146808437e-01
11733:2.2376052977282496e-01
11734:-4.9161989034768004e-02
11735:-1.8001831708425386e-01
11736:2.7715487032466740e-01
11737:-1.5954631405484015e-02
11738:-2.8911286735682673e-01
11739:-4.0739510095993026e-01
11740:1.0704282830890555e-01
11741:-1.4328025092956412e-01
11742:-3.7322167977382797e-01
11743:-4.6809283353880587e-01
11744:9.2369603694863855e-02
11745:2.3265520710317376e-02
11746:-1.9626376001356610e-02
11747:-2.7310670070079774e-02
11748:-2.2035733309214028e-01
11749:-2.5329209326015012e-01
11750:-2.2958106436427853e-01
11751:-1.7247121457564366e-01
11752:-4.3705369185110277e-01
11753:-4.4657997665176685e-01
11754:-3.8435223790737105e-01
11755:-2.8976076974058768e-01
11756:-4.8879196984335049e-01
11757:-4.8816816542302532e-01
11758:-4.2095594163547234e-01
11759:-3.2478145293997440e-01
11760:-2.5825784312708641e-02
11761:-2.1426771886057152e-02
11762:-1.4236651273555287e-02
11763:-7.8602220342586324e-03
11764:-1.3283161268258956e-01
11765:-6.8735805484078344e-02
11766:-1.8747220137667546e-02
11767:-1.3261991135582572e-02
11768:-2.2722901119682146e-01
11769:-1.2287057077584057e-01
11770:-3.3803577883453929e-02
11771:-1.4180670478728513e-02
11772:-2.6098746762339081e-01
11773:-1.5100115878710205e-01
11774:-4.9048815487397923e-02
11775:-1.6342019590673714e-02
11776:-5.4815860520024815e+00
11777:-3.4108856568976038e+00
11778:-1.4669998296965798e+00
11779:-4.4749752434010853e-01
11780:-6.4927934375059211e+00
11781:-4.0946481181966030e+00
11782:-1.8720537659735235e+00
11783:-7.3661917621697748e-01
11784:-7.4656267772750811e+00
11785:-4.8138245536587805e+00
11786:-2.3894079970053039e+00
11787:-1.1839314738965561e+00
11788:-7.9012017733574833e+00
11789:-5.2057155895213505e+00
11790:-2.7627872782104368e+00
11791:-1.5681979721703923e+00
11792:-4.0107758728607536e-02
11793:5.7367580942178698e-01
11794:1.1027473191228665e+00
11795:1.3042910637142593e+00
11796:-2.9699881345919638e-01
11797:3.4748069311049362e-01
11798:8.6509075030699834e-01
11799:1.0199978782548380e+00
11800:-7.3216323860977661e-01
11801:-8.3577639831216230e-02
11802:4.1017656272295977e-01
11803:5.2594652608934489e-01
11804:-1.1294420371742240e+00
11805:-5.0636028534412580e-01
11806:-4.3826685655092741e-02
11807:5.0948769830205853e-02
11808:1.3450309380031831e+00
11809:1.3731700659766302e+00
11810:1.3068600873046563e+00
11811:1.1578066177215702e+00
11812:1.0238290956405585e+00
11813:9.8200916055032317e-01
11814:8.4803142376990170e-01
11815:6.8169854248613415e-01
11816:5.0254335446384535e-01
11817:4.1271675614747833e-01
11818:2.4105474824518028e-01
11819:7.7674642035193128e-02
11820:1.7975666056021980e-02
11821:-8.1535827346427281e-02
11822:-2.4546132157118117e-01
11823:-3.8479998829047940e-01
11824:1.0401077667467118e+00
11825:7.7928804983066269e-01
11826:4.0927773926957678e-01
11827:1.3702197073755945e-01
11828:5.7128885090622106e-01
11829:3.5436341063987942e-01
11830:8.1009954244328178e-02
11831:-1.0276033344173521e-01
11832:-1.6592879133312016e-02
11833:-1.7621358848795610e-01
11834:-3.3729329560106769e-01
11835:-4.1860214519162620e-01
11836:-4.5938532628519058e-01
11837:-5.7282416091349941e-01
11838:-6.5978993664858787e-01
11839:-6.7650823858639775e-01
11840:5.0983859508691842e-03
11841:-2.0543316734307598e-01
11842:-3.9730412787866376e-01
11843:-4.7349887877714975e-01
11844:-1.8710822463513782e-01
11845:-3.2042856934323644e-01
11846:-4.3718889696025304e-01
11847:-4.7533801841464041e-01
11848:-4.4648315236779662e-01
11849:-4.8569981640429233e-01
11850:-5.0612447092204371e-01
11851:-4.9107687004158679e-01
11852:-6.6832846687054481e-01
11853:-6.4432893101528477e-01
11854:-5.9363759691566975e-01
11855:-5.3377685587002677e-01
11856:-4.8795423163810447e-01
11857:-4.8207533680955744e-01
11858:-4.1704646227514736e-01
11859:-3.2647274479580773e-01
11860:-4.7642940151200169e-01
11861:-4.5769169069517984e-01
11862:-3.9438737407225005e-01
11863:-3.1480382322338940e-01
11864:-4.7127224149928432e-01
11865:-4.2729720046913483e-01
11866:-3.5487741422428776e-01
11867:-2.8351615153527804e-01
11868:-4.9387280937462946e-01
11869:-4.2094046993519690e-01
11870:-3.2809583039818185e-01
11871:-2.5426880357987641e-01
11872:-2.6610643489426822e-01
11873:-1.6014715079946160e-01
11874:-5.7446562539216768e-02
11875:-1.8942800209064112e-02
11876:-2.6217663100524613e-01
11877:-1.6716458553072708e-01
11878:-6.8665907264463449e-02
11879:-2.4141270748200102e-02
11880:-2.3939159305200636e-01
11881:-1.5885344251894751e-01
11882:-7.1720617255959865e-02
11883:-2.7723575465273615e-02
11884:-2.1317827166326719e-01
11885:-1.4060781734840352e-01
11886:-6.4374872069710112e-02
11887:-2.6761852916487538e-02
11888:-8.0142284377917647e+00
11889:-5.3530518950078676e+00
11890:-2.9507437859572883e+00
11891:-1.7845739436432626e+00
11892:-8.0091177887727500e+00
11893:-5.5202142825563456e+00
11894:-3.2852705414841248e+00
11895:-2.2112003829414126e+00
11896:-7.5883263056297219e+00
11897:-5.5137594626246313e+00
11898:-3.6630564533902734e+00
11899:-2.7854663815686642e+00
11900:-6.9739997794623863e+00
11901:-5.3353653649975161e+00
11902:-3.8890863598962802e+00
11903:-3.2186540457432331e+00
11904:-1.3600291454483178e+00
11905:-7.6022921023619605e-01
11906:-3.1992087393655427e-01
11907:-2.3503043428592388e-01
11908:-1.8250935955378422e+00
11909:-1.2845147672506241e+00
11910:-8.9652078441322847e-01
11911:-8.3193236477909771e-01
11912:-2.4755174837769198e+00
11913:-2.0470835437033634e+00
11914:-1.7514247116685360e+00
11915:-1.7180226678406969e+00
11916:-2.9890508375188252e+00
11917:-2.6764566081748282e+00
11918:-2.4719197579744154e+00
11919:-2.4660559179886823e+00
11920:-2.7042447157803656e-01
11921:-3.6768871447168933e-01
11922:-5.1646755958394031e-01
11923:-6.3594100473774784e-01
11924:-8.7087473546479310e-01
11925:-9.6016315083544401e-01
11926:-1.0728713751418668e+00
11927:-1.1476217459356026e+00
11928:-1.7602143917291011e+00
11929:-1.8355639845156526e+00
11930:-1.8956966030219307e+00
11931:-1.9069513946320855e+00
11932:-2.5094178794755817e+00
11933:-2.5730129910959647e+00
11934:-2.5950008856511952e+00
11935:-2.5614065061072164e+00
11936:-6.9749801621002683e-01
11937:-7.8553339361858765e-01
11938:-8.3739830848106545e-01
11939:-8.2506163303153834e-01
11940:-1.1804713895311671e+00
11941:-1.2148159145171604e+00
11942:-1.1972195748091881e+00
11943:-1.1307823901192862e+00
11944:-1.8992281242862978e+00
11945:-1.8573612211914059e+00
11946:-1.7420226757289452e+00
11947:-1.6014378042834838e+00
11948:-2.5250233727491351e+00
11949:-2.4263508773556115e+00
11950:-2.2333298036478997e+00
11951:-2.0314681346625560e+00
11952:-8.0056825183131741e-01
11953:-7.4633202988376468e-01
11954:-6.5832867802072270e-01
11955:-5.7232952171622264e-01
11956:-1.0768479346241799e+00
11957:-9.6703725734581214e-01
11958:-8.0781895654712610e-01
11959:-6.6967273088044155e-01
11960:-1.5080660455275423e+00
11961:-1.3236369114309841e+00
11962:-1.0673328851364736e+00
11963:-8.5633411660093672e-01
11964:-1.9051289291183537e+00
11965:-1.6593109766571026e+00
11966:-1.3245644812178872e+00
11967:-1.0551604478190193e+00
11968:-5.1967419783460700e-01
11969:-4.2691475085429681e-01
11970:-3.1735317358951304e-01
11971:-2.3836201129997808e-01
11972:-5.9072070663123000e-01
11973:-4.5633126244018329e-01
11974:-3.0975044821281772e-01
11975:-2.1665948907152427e-01
11976:-7.3984679842401158e-01
11977:-5.4461982812177168e-01
11978:-3.3988233949697128e-01
11979:-2.1929483784358048e-01
11980:-9.0851236914934808e-01
11981:-6.6287901521845183e-01
11982:-4.0583845765494536e-01
11983:-2.5584881504397522e-01
11984:-1.9727067195500508e-01
11985:-1.2729666819282326e-01
11986:-5.7316390788794254e-02
11987:-2.5251247760499099e-02
11988:-1.7319222758366137e-01
11989:-1.0452605422517487e-01
11990:-4.3952741163820593e-02
11991:-2.2619822870499351e-02
11992:-1.6728837608391930e-01
11993:-9.0835250516452221e-02
11994:-3.2897586470986097e-02
11995:-2.1105546084393599e-02
11996:-1.9202688611878449e-01
11997:-9.9840461426419613e-02
11998:-3.2540660351261880e-02
11999:-2.1026049187339284e-02
12000:-6.5555926934435504e+00
12001:-5.1804254123940501e+00
12002:-3.9808838393695054e+00
12003:-3.4390368837690461e+00
12004:-5.6250044585912162e+00
12005:-4.7729101873750750e+00
12006:-4.0664454205157226e+00
12007:-3.7860518879471088e+00
12008:-4.2288386743046926e+00
12009:-4.0839817677051791e+00
12010:-4.0402099305181860e+00
12011:-4.1117096793267942e+00
12012:-3.1175556237165307e+00
12013:-3.5069616534693910e+00
12014:-3.9525625632670645e+00
12015:-4.2778446908831862e+00
12016:-3.2601995829198862e+00
12017:-3.0203332516550909e+00
12018:-2.8718557798449242e+00
12019:-2.8819618708495591e+00
12020:-3.7127129345011451e+00
12021:-3.6255271690667286e+00
12022:-3.5963657077668119e+00
12023:-3.6413846544815622e+00
12024:-4.1817728956015907e+00
12025:-4.3061787626881660e+00
12026:-4.4485173290587277e+00
12027:-4.5481671538936483e+00
12028:-4.4501561839059818e+00
12029:-4.7294019937091534e+00
12030:-5.0040569965152626e+00
12031:-5.1508440138406151e+00
12032:-2.9254391347859925e+00
12033:-2.9829089343770576e+00
12034:-2.9872208572518910e+00
12035:-2.9333810503236601e+00
12036:-3.6857954100032524e+00
12037:-3.7346058581049664e+00
12038:-3.7136754042171267e+00
12039:-3.6313547295831232e+00
12040:-4.5970487562742521e+00
12041:-4.6408532169487540e+00
12042:-4.5977112137612925e+00
12043:-4.4895038175016992e+00
12044:-5.2065748783522627e+00
12045:-5.2508630414372295e+00
12046:-5.1933759435966778e+00
12047:-5.0665042792490063e+00
12048:-2.8840362114118614e+00
12049:-2.7576799272476720e+00
12050:-2.5234363498035139e+00
12051:-2.2871935260252574e+00
12052:-3.5637714342945142e+00
12053:-3.3944455025220899e+00
12054:-3.0892734603757313e+00
12055:-2.7897110906784812e+00
12056:-4.4053059588371051e+00
12057:-4.1922641655208199e+00
12058:-3.8075997260013508e+00
12059:-3.4329789676945581e+00
12060:-4.9703518383017586e+00
12061:-4.7275733928464980e+00
12062:-4.2910668707601669e+00
12063:-3.8684755293091286e+00
12064:-2.1419367257805506e+00
12065:-1.8614604747265338e+00
12066:-1.4835193007767387e+00
12067:-1.1825696457865198e+00
12068:-2.6084868115432354e+00
12069:-2.2624051040877067e+00
12070:-1.8037962154591869e+00
12071:-1.4448473093793501e+00
12072:-3.2080156711940551e+00
12073:-2.7818013624946616e+00
12074:-2.2247056445505016e+00
12075:-1.7953452007866999e+00
12076:-3.6157117819107523e+00
12077:-3.1376268890668686e+00
12078:-2.5152282938353849e+00
12079:-2.0384104570387431e+00
12080:-1.0197442378741861e+00
12081:-7.4637232279827792e-01
12082:-4.5874585944258028e-01
12083:-2.8975796819222699e-01
12084:-1.2525418690298302e+00
12085:-9.2762015646418805e-01
12086:-5.8057781016200716e-01
12087:-3.7225221904463390e-01
12088:-1.5674342307682045e+00
12089:-1.1794627336969785e+00
12090:-7.5747680317719568e-01
12091:-4.9724913197749288e-01
12092:-1.7863719860258940e+00
12093:-1.3560171560522103e+00
12094:-8.8402212641197897e-01
12095:-5.8909266426532048e-01
12096:-2.1744963560166444e-01
12097:-1.1275350820497057e-01
12098:-3.5460444174235765e-02
12099:-2.0763088516190690e-02
12100:-2.8133776184757087e-01
12101:-1.4797411076578826e-01
12102:-4.5266566435415032e-02
12103:-1.9734379425426666e-02
12104:-3.8080409554281308e-01
12105:-2.0671389776458021e-01
12106:-6.5186831215929594e-02
12107:-2.0505334838600082e-02
12108:-4.5543385968890088e-01
12109:-2.5330213241842847e-01
12110:-8.4001827346665073e-02
12111:-2.4837289679296749e-02
12112:-2.5399922582658667e+00
12113:-3.2025454862330793e+00
12114:-3.8925431338537400e+00
12115:-4.3407576907672505e+00
12116:-1.5139149736389950e+00
12117:-2.6428913129093128e+00
12118:-3.7482335672546085e+00
12119:-4.4008775803312128e+00
12120:-3.5387901034953118e-01
12121:-1.9586735143940663e+00
12122:-3.4931119569799693e+00
12123:-4.3557305736133181e+00
12124:3.5151593653021346e-01
12125:-1.4875995325934470e+00
12126:-3.2452459847188084e+00
12127:-4.2221725822092022e+00
12128:-4.5615566844896671e+00
12129:-4.9159731824941941e+00
12130:-5.2579643267993061e+00
12131:-5.4309213637285856e+00
12132:-4.6999408835120358e+00
12133:-5.1772364443744383e+00
12134:-5.6331427562384677e+00
12135:-5.8537269063207598e+00
12136:-4.7333208312594968e+00
12137:-5.3368015823402146e+00
12138:-5.9159882619861062e+00
12139:-6.1934829162265723e+00
12140:-4.6434086381690687e+00
12141:-5.3196859199193280e+00
12142:-5.9745090354101666e+00
12143:-6.2904030869504961e+00
12144:-5.4916009346019425e+00
12145:-5.5373264164112967e+00
12146:-5.4714922332042768e+00
12147:-5.3330012209403517e+00
12148:-5.9253156947219550e+00
12149:-5.9759535820318321e+00
12150:-5.8948289408715135e+00
12151:-5.7330495516020568e+00
12152:-6.2809940436175751e+00
12153:-6.3417999073818851e+00
12154:-6.2449391804640610e+00
12155:-6.0552732566596790e+00
12156:-6.3903559243065517e+00
12157:-6.4614789408176785e+00
12158:-6.3586616529891806e+00
12159:-6.1540291202675421e+00
12160:-5.2294434629982556e+00
12161:-4.9705802538208541e+00
12162:-4.5094246062456289e+00
12163:-4.0657091402031273e+00
12164:-5.6144392415793511e+00
12165:-5.3263301285923577e+00
12166:-4.8261513612996545e+00
12167:-4.3522322583362847e+00
12168:-5.9182964330334782e+00
12169:-5.5984971812264774e+00
12170:-5.0634511097612975e+00
12171:-4.5672150638501394e+00
12172:-6.0069151498523210e+00
12173:-5.6713964424195069e+00
12174:-5.1226066288758458e+00
12175:-4.6201317996117943e+00
12176:-3.8010701988764204e+00
12177:-3.3002115651501036e+00
12178:-2.6479949460870285e+00
12179:-2.1488610621563886e+00
12180:-4.0713441341705501e+00
12181:-3.5375733020729165e+00
12182:-2.8390383053356789e+00
12183:-2.3033427881570758e+00
12184:-4.2754331712085945e+00
12185:-3.7162127382233789e+00
12186:-2.9762900384949411e+00
12187:-2.4051470763670597e+00
12188:-4.3259611076974274e+00
12189:-3.7581114849315038e+00
12190:-3.0002580913655597e+00
12191:-2.4124768499085487e+00
12192:-1.8853394439974691e+00
12193:-1.4352033001365652e+00
12194:-9.4064900738278245e-01
12195:-6.3058030149460609e-01
12196:-2.0205193926334988e+00
12197:-1.5375430683123601e+00
12198:-1.0075039556046286e+00
12199:-6.7601711899088257e-01
12200:-2.1029590462775025e+00
12201:-1.5867867919995333e+00
12202:-1.0228190575850047e+00
12203:-6.7462259124972579e-01
12204:-2.1010014816300320e+00
12205:-1.5681271867435536e+00
12206:-9.8783144230604403e-01
12207:-6.3453847890366621e-01
12208:-4.8955387494730290e-01
12209:-2.7538941265929584e-01
12210:-9.4127693531718029e-02
12211:-2.8754960377166960e-02
12212:-5.2567265280834607e-01
12213:-2.9795203725157693e-01
12214:-1.0566074346268597e-01
12215:-3.6040954786265664e-02
12216:-5.1922480798707005e-01
12217:-2.8859776570103973e-01
12218:-1.0106509653531241e-01
12219:-3.8095896710161906e-02
12220:-4.7990095304782532e-01
12221:-2.5630802984900886e-01
12222:-8.3383901623930584e-02
12223:-3.1259390945505672e-02
12224:6.5156817257582400e-01
12225:-1.2601316255168467e+00
12226:-3.0947733569847538e+00
12227:-4.1151180475530635e+00
12228:1.0500305910562651e+00
12229:-8.9865008412546832e-01
12230:-2.7862040779548796e+00
12231:-3.8436472541778808e+00
12232:1.2621584450628449e+00
12233:-5.5826758158674750e-01
12234:-2.3474620301846376e+00
12235:-3.3694882302212905e+00
12236:1.2162628259705870e+00
12237:-3.8956880330760635e-01
12238:-1.9915511444962164e+00
12239:-2.9294929901902238e+00
12240:-4.5539920892622705e+00
12241:-5.2609970514801105e+00
12242:-5.9497698582513410e+00
12243:-6.2844938285862053e+00
12244:-4.2999446496443232e+00
12245:-5.0427943369012764e+00
12246:-5.7824689077288580e+00
12247:-6.1564114035840918e+00
12248:-3.8180256293464185e+00
12249:-4.5648220772752426e+00
12250:-5.3456860046171437e+00
12251:-5.7786954654781235e+00
12252:-3.3510881387853542e+00
12253:-4.0721100155847187e+00
12254:-4.8700525992635608e+00
12255:-5.3577815625377223e+00
12256:-6.3913363087082784e+00
12257:-6.4698614909257746e+00
12258:-6.3681730649586816e+00
12259:-6.1596016534884850e+00
12260:-6.2835449431174109e+00
12261:-6.3978113912563170e+00
12262:-6.3307940028573322e+00
12263:-6.1338166641455727e+00
12264:-5.9472594085201100e+00
12265:-6.1546177887644076e+00
12266:-6.2044822986533763e+00
12267:-6.0662457453332390e+00
12268:-5.5711869171829251e+00
12269:-5.8869528992988132e+00
12270:-6.0799032838019764e+00
12271:-6.0165798717071715e+00
12272:-6.0092874508804028e+00
12273:-5.6688038618767544e+00
12274:-5.1159747903046906e+00
12275:-4.6121204404395399e+00
12276:-5.9829822351063680e+00
12277:-5.6315600533764334e+00
12278:-5.0545973055743314e+00
12279:-4.5320507571656732e+00
12280:-5.9283352782238286e+00
12281:-5.5604968153304384e+00
12282:-4.9141321134120028e+00
12283:-4.3280759316578230e+00
12284:-5.8963753011256337e+00
12285:-5.5099768291121460e+00
12286:-4.7773005078292297e+00
12287:-4.1107164880773936e+00
12288:-4.3176268315958346e+00
12289:-3.7474424337636290e+00
12290:-2.9840880448060338e+00
12291:-2.3914212987492069e+00
12292:-4.2292990169606579e+00
12293:-3.6459809635651954e+00
12294:-2.8721064276590407e+00
12295:-2.2784633011081454e+00
12296:-3.9948902064419545e+00
12297:-3.3690270217105365e+00
12298:-2.5715317668232882e+00
12299:-1.9863621173482022e+00
12300:-3.7385347217357259e+00
12301:-3.0592472113915172e+00
12302:-2.2337928473615438e+00
12303:-1.6605217796542029e+00
12304:-2.0773759335555027e+00
12305:-1.5395872521993077e+00
12306:-9.5512621397517994e-01
12307:-6.0248597910900048e-01
12308:-1.9667472046380010e+00
12309:-1.4358102204560077e+00
12310:-8.6584764811509041e-01
12311:-5.2973102844575393e-01
12312:-1.6887738594107475e+00
12313:-1.1948451764892700e+00
12314:-6.8634711823863903e-01
12315:-4.0253439289904219e-01
12316:-1.3810621998738195e+00
12317:-9.3458131082462270e-01
12318:-5.0231988301950148e-01
12319:-2.7928888415175313e-01
12320:-4.5009772474094711e-01
12321:-2.3337663099936559e-01
12322:-7.0931900205862583e-02
12323:-2.5065074390591392e-02
12324:-3.8824573975568150e-01
12325:-1.9255541684513861e-01
12326:-5.2022109868019854e-02
12327:-1.3640073212536907e-02
12328:-2.8916324073300192e-01
12329:-1.3934798641590870e-01
12330:-3.7114791576988750e-02
12331:-5.8015159865443863e-03
12332:-1.9661082942311398e-01
12333:-9.4888310988424887e-02
12334:-3.1055864166600344e-02
12335:-6.4676759088910449e-03
12336:1.1290757192089167e+00
12337:-3.2800422856705991e-01
12338:-1.7969496164855319e+00
12339:-2.6728995124427475e+00
12340:8.7385744005870947e-01
12341:-2.6073077940292272e-01
12342:-1.4405161513959457e+00
12343:-2.1780635958212553e+00
12344:4.1056047689663727e-01
12345:-2.4629987690304433e-01
12346:-9.9856114211164759e-01
12347:-1.5262545590176182e+00
12348:-1.7410542592388020e-03
12349:-2.7177340956851509e-01
12350:-6.7851198725392026e-01
12351:-1.0327848801257795e+00
12352:-3.0736902439757494e+00
12353:-3.7722617493717046e+00
12354:-4.5751635622234730e+00
12355:-5.0951405640897756e+00
12356:-2.5296642556991547e+00
12357:-3.1656272892867476e+00
12358:-3.9432877736206371e+00
12359:-4.4880039538488408e+00
12360:-1.7989191037153500e+00
12361:-2.3190265455351833e+00
12362:-2.9962547464872120e+00
12363:-3.4970879700545372e+00
12364:-1.2370671273304481e+00
12365:-1.6458695091315583e+00
12366:-2.1946954159506489e+00
12367:-2.6009361137558002e+00
12368:-5.3364341940146449e+00
12369:-5.7199927611083403e+00
12370:-6.0019867882658078e+00
12371:-5.9842836677296471e+00
12372:-4.7582605066354109e+00
12373:-5.2175322864266223e+00
12374:-5.6047539928137642e+00
12375:-5.6455166897322391e+00
12376:-3.7537224494762569e+00
12377:-4.1954313074022913e+00
12378:-4.5744464569737913e+00
12379:-4.6209671346024654e+00
12380:-2.8057276100036028e+00
12381:-3.1437207892893526e+00
12382:-3.4082396759570561e+00
12383:-3.4102401979815746e+00
12384:-5.8740929984754278e+00
12385:-5.4742895598520240e+00
12386:-4.6861995505929563e+00
12387:-3.9691181441466385e+00
12388:-5.5512378006340963e+00
12389:-5.1463660387122063e+00
12390:-4.3131206520837946e+00
12391:-3.5568796384747849e+00
12392:-4.5345942295627282e+00
12393:-4.1602861718332438e+00
12394:-3.3987700221844048e+00
12395:-2.7216328637487530e+00
12396:-3.3233635846340710e+00
12397:-3.0065364172814300e+00
12398:-2.4064051427666473e+00
12399:-1.8941767883589880e+00
12400:-3.5728807989455271e+00
12401:-2.8614381059695773e+00
12402:-2.0210720016522541e+00
12403:-1.4577049811809557e+00
12404:-3.1448914028723940e+00
12405:-2.4218705302887189e+00
12406:-1.6034346528587458e+00
12407:-1.0860222954160010e+00
12408:-2.3597301706815590e+00
12409:-1.7359971512046635e+00
12410:-1.0565691618570601e+00
12411:-6.5381631218042402e-01
12412:-1.6270071414961240e+00
12413:-1.1677343491964547e+00
12414:-6.7362357155425068e-01
12415:-3.9163568273690069e-01
12416:-1.1909908178397770e+00
12417:-7.7648693971682514e-01
12418:-3.9343585887473448e-01
12419:-2.0786002067927739e-01
12420:-8.5377609044610936e-01
12421:-5.1066121222241023e-01
12422:-2.2079997559676340e-01
12423:-9.7681519078107820e-02
12424:-4.8512401957815243e-01
12425:-2.5265393691569038e-01
12426:-7.9625502054872552e-02
12427:-1.8273188841263034e-02
12428:-2.7985106168381396e-01
12429:-1.3613632641497647e-01
12430:-4.0706442900467078e-02
12431:-7.8920416113392351e-03
12432:-1.4337137874014941e-01
12433:-6.9766856702687022e-02
12434:-2.8341626571113176e-02
12435:-8.1440068821888693e-03
12436:-6.0873209865921991e-02
12437:-2.7454988495912692e-02
12438:-1.7710973230173451e-02
12439:-7.8110366600855291e-03
12440:-2.8599276360105875e-03
12441:7.5804579934939361e-03
12442:3.4638011503569581e-03
12443:1.0241004704810348e-03
12444:3.5272935457112825e-03
12445:1.9486876606743454e-02
12446:2.3697065952846021e-02
12447:9.0404710201708021e-03
