x	y	stress_xx
 1.0000000000e+00	 0.0000000000e+00	 1.5608315105e-02
 9.9996528199e-01	 8.3330488405e-03	 1.8275853675e-02
 9.9986065485e-01	 1.6693912862e-02	 2.4900906211e-02
 9.9968541457e-01	 2.5081865916e-02	 3.5575347715e-02
 9.9943886492e-01	 3.3496165499e-02	 5.0383773260e-02
 9.9912031795e-01	 4.1936052786e-02	 6.9403188377e-02
 9.9872909431e-01	 5.0400752668e-02	 9.2702714876e-02
 9.9826452377e-01	 5.8889473803e-02	 1.2034331288e-01
 9.9772594558e-01	 6.7401408683e-02	 1.5237751973e-01
 9.9711270890e-01	 7.5935733705e-02	 1.8884920653e-01
 9.9642417327e-01	 8.4491609256e-02	 2.2979335266e-01
 1.0088234573e+00	 0.0000000000e+00	 2.6442761232e-01
 1.0087884330e+00	 8.4065751451e-03	 2.6690981260e-01
 1.0086828827e+00	 1.6841210896e-02	 2.7302283382e-01
 1.0085060962e+00	 2.5303174698e-02	 2.8285953057e-01
 1.0082573711e+00	 3.3791717495e-02	 2.9650510355e-01
 1.0079360134e+00	 4.2306073768e-02	 3.1403678714e-01
 1.0075413379e+00	 5.0845461567e-02	 3.3552355333e-01
 1.0070726682e+00	 5.9409082570e-02	 3.6102583305e-01
 1.0065293379e+00	 6.7996122144e-02	 3.9059525541e-01
 1.0059106903e+00	 7.6605749417e-02	 4.2427440564e-01
 1.0052160794e+00	 8.5237117371e-02	 4.6209660212e-01
 1.0176467822e+00	 0.0000000000e+00	 5.0437079358e-01
 1.0176114515e+00	 8.4801003449e-03	 5.0669663890e-01
 1.0175049780e+00	 1.6988506717e-02	 5.1233065502e-01
 1.0173266453e+00	 2.5524480155e-02	 5.2136665591e-01
 1.0170757449e+00	 3.4087265052e-02	 5.3389043625e-01
 1.0167515765e+00	 4.2676089192e-02	 5.4997945683e-01
 1.0163534491e+00	 5.1290163788e-02	 5.6970254763e-01
 1.0158806804e+00	 5.9928683534e-02	 5.9311962920e-01
 1.0153325980e+00	 6.8590826674e-02	 6.2028145316e-01
 1.0147085397e+00	 7.7275755068e-02	 6.5122936247e-01
 1.0140078536e+00	 8.5982614290e-02	 6.8599507195e-01
 1.0264699920e+00	 0.0000000000e+00	 7.3467755656e-01
 1.0264343550e+00	 8.5536245858e-03	 7.3686900110e-01
 1.0263269584e+00	 1.7135800618e-02	 7.4205096077e-01
 1.0261470795e+00	 2.5745782726e-02	 7.5031818372e-01
 1.0258940037e+00	 3.4382808755e-02	 7.6175704105e-01
 1.0255670248e+00	 4.3046099791e-02	 7.7644521106e-01
 1.0251654454e+00	 5.1734860210e-02	 7.9445138214e-01
 1.0246885777e+00	 6.0448277725e-02	 8.1583497523e-01
 1.0241357434e+00	 6.9185523451e-02	 8.4064588648e-01
 1.0235062743e+00	 7.7945751986e-02	 8.6892425073e-01
 1.0227995132e+00	 8.6728101492e-02	 9.0070022655e-01
 1.0352931043e+00	 0.0000000000e+00	 9.5461402286e-01
 1.0352571610e+00	 8.6271480136e-03	 9.5668622026e-01
 1.0351488413e+00	 1.7283092889e-02	 9.6143720021e-01
 1.0349674162e+00	 2.5967082851e-02	 9.6896261443e-01
 1.0347121651e+00	 3.4678349190e-02	 9.7934938685e-01
 1.0343823756e+00	 4.3416106301e-02	 9.9267539739e-01
 1.0339773444e+00	 5.2179551718e-02	 1.0090091857e+00
 1.0334963778e+00	 6.0967866172e-02	 1.0284096756e+00
 1.0329387915e+00	 6.9780213656e-02	 1.0509259207e+00
 1.0323039118e+00	 7.8615741499e-02	 1.0765968721e+00
 1.0315910756e+00	 8.7473580456e-02	 1.1054511693e+00
 1.0441161367e+00	 0.0000000000e+00	 1.1634716268e+00
 1.0440798870e+00	 8.7006707743e-03	 1.1654331505e+00
 1.0439706441e+00	 1.7430383825e-02	 1.1697685539e+00
 1.0437876729e+00	 2.6188380968e-02	 1.1765743559e+00
 1.0435302465e+00	 3.4973886945e-02	 1.1859380033e+00
 1.0431976464e+00	 4.3786109454e-02	 1.1979375544e+00
 1.0427891635e+00	 5.2624239192e-02	 1.2126413853e+00
 1.0423040979e+00	 6.1487449908e-02	 1.2301079161e+00
 1.0417417598e+00	 7.0374898468e-02	 1.2503853619e+00
 1.0411014694e+00	 7.9285724937e-02	 1.2735115046e+00
 1.0403825583e+00	 8.8219052661e-02	 1.2995134906e+00
 1.0529391065e+00	 0.0000000000e+00	 1.3605660600e+00
 1.0529025505e+00	 8.7741930137e-03	 1.3624191161e+00
 1.0527923845e+00	 1.7577673716e-02	 1.3663488640e+00
 1.0526078672e+00	 2.6409677516e-02	 1.3724526478e+00
 1.0523482654e+00	 3.5269422605e-02	 1.3808183998e+00
 1.0520128549e+00	 4.4156109986e-02	 1.3915243266e+00
 1.0516009202e+00	 5.3068923516e-02	 1.4046386170e+00
 1.0511117557e+00	 6.2007029962e-02	 1.4202191728e+00
 1.0505446657e+00	 7.0969579067e-02	 1.4383133642e+00
 1.0498989648e+00	 7.9955703628e-02	 1.4589578085e+00
 1.0491739787e+00	 8.8964519584e-02	 1.4821781745e+00
 1.0617620313e+00	 0.0000000000e+00	 1.5452362698e+00
 1.0617251691e+00	 8.8477148777e-03	 1.5469769018e+00
 1.0616140799e+00	 1.7724962855e-02	 1.5505056183e+00
 1.0614280165e+00	 2.6630972935e-02	 1.5559205392e+00
 1.0611662394e+00	 3.5564956757e-02	 1.5633100389e+00
 1.0608280183e+00	 4.4526108629e-02	 1.5727524334e+00
 1.0604126319e+00	 5.3513605570e-02	 1.5843156925e+00
 1.0599193686e+00	 6.2526607365e-02	 1.5980571753e+00
 1.0593475267e+00	 7.1564256632e-02	 1.6140233915e+00
 1.0586964153e+00	 8.0625678901e-02	 1.6322497874e+00
 1.0579653543e+00	 8.9709982704e-02	 1.6527605591e+00
 1.0705849287e+00	 0.0000000000e+00	 1.7168435061e+00
 1.0705477601e+00	 8.9212365123e-03	 1.7184617938e+00
 1.0704357479e+00	 1.7872251535e-02	 1.7215889843e+00
 1.0702481382e+00	 2.6852267663e-02	 1.7263239183e+00
 1.0699841859e+00	 3.5860489987e-02	 1.7327553603e+00
 1.0696431543e+00	 4.4896106119e-02	 1.7409616893e+00
 1.0692243162e+00	 5.3958286238e-02	 1.7510106156e+00
 1.0687269540e+00	 6.3046183148e-02	 1.7629589216e+00
 1.0681503603e+00	 7.2158932343e-02	 1.7768522305e+00
 1.0674938383e+00	 8.1295652086e-02	 1.7927248009e+00
 1.0667567025e+00	 9.0455443500e-02	 1.8105993489e+00
 1.0794078160e+00	 0.0000000000e+00	 1.8747704163e+00
 1.0793703411e+00	 8.9947580632e-03	 1.8762506669e+00
 1.0792574058e+00	 1.8019540047e-02	 1.8789708913e+00
 1.0790682500e+00	 2.7073562140e-02	 1.8830305883e+00
 1.0788021224e+00	 3.6156022882e-02	 1.8885188532e+00
 1.0784582803e+00	 4.5266103188e-02	 1.8955140730e+00
 1.0780359905e+00	 5.4402966401e-02	 1.9040836482e+00
 1.0775345294e+00	 6.3565758341e-02	 1.9142837412e+00
 1.0769531839e+00	 7.2753607379e-02	 1.9261590524e+00
 1.0762912514e+00	 8.1965624510e-02	 1.9397426246e+00
 1.0755480407e+00	 9.1200903452e-02	 1.9550556757e+00
 1.0882307108e+00	 0.0000000000e+00	 2.0184201842e+00
 1.0881929296e+00	 9.0682796764e-03	 2.0197411176e+00
 1.0880790712e+00	 1.8166828684e-02	 2.0220441573e+00
 1.0878883693e+00	 2.7294856805e-02	 2.0254293899e+00
 1.0876200664e+00	 3.6451556027e-02	 2.0299861741e+00
 1.0872734138e+00	 4.5636100571e-02	 2.0357928408e+00
 1.0868476722e+00	 5.4847646941e-02	 2.0429164215e+00
 1.0863421123e+00	 6.4085333976e-02	 2.0514124047e+00
 1.0857560150e+00	 7.3348282920e-02	 2.0613245209e+00
 1.0850886720e+00	 8.2635597504e-02	 2.0726845577e+00
 1.0843393864e+00	 9.1946364036e-02	 2.0855122047e+00
 9.9642417327e-01	 8.4491609256e-02	 2.2979335266e-01
 9.9565957252e-01	 9.3069636226e-02	 2.7504765495e-01
 9.9481839835e-01	 1.0166747288e-01	 3.2442686293e-01
 9.9390004351e-01	 1.1028421068e-01	 3.7793937451e-01
 9.9290391285e-01	 1.1891892497e-01	 4.3558360611e-01
 9.9182942379e-01	 1.2757067517e-01	 4.9734785656e-01
 9.9067600676e-01	 1.3623850489e-01	 5.6321019184e-01
 9.8944310564e-01	 1.4492144212e-01	 6.3313835085e-01
 9.8813017818e-01	 1.5361849940e-01	 7.0708967249e-01
 9.8673669648e-01	 1.6232867404e-01	 7.8501104388e-01
 9.8526214738e-01	 1.7105094831e-01	 8.6683886990e-01
 1.0052160794e+00	 8.5237117371e-02	 4.6209660212e-01
 1.0044447323e+00	 9.3890832195e-02	 5.0389246183e-01
 1.0035961360e+00	 1.0256453149e-01	 5.4946979984e-01
 1.0026696781e+00	 1.1125729871e-01	 5.9883348540e-01
 1.0016647582e+00	 1.1996820103e-01	 6.5197824319e-01
 1.0005807884e+00	 1.2869628959e-01	 7.0888853034e-01
 9.9941719423e-01	 1.3744059953e-01	 7.6953843520e-01
 9.9817341465e-01	 1.4620015028e-01	 8.3389159802e-01
 9.9684890263e-01	 1.5497394568e-01	 9.0190115363e-01
 9.9544312560e-01	 1.6376097417e-01	 9.7350969603e-01
 9.9395556588e-01	 1.7256020906e-01	 1.0486492650e+00
 1.0140078536e+00	 8.5982614290e-02	 6.8599507195e-01
 1.0132297601e+00	 9.4712015832e-02	 7.2440506301e-01
 1.0123737419e+00	 1.0346157664e-01	 7.6626415117e-01
 1.0114391811e+00	 1.1223037213e-01	 8.1157526252e-01
 1.0104254719e+00	 1.2101746134e-01	 8.6033100994e-01
 1.0093320216e+00	 1.2982188710e-01	 9.1251358200e-01
 1.0081582504e+00	 1.3864267612e-01	 9.6809465421e-01
 1.0069035926e+00	 1.4747883925e-01	 1.0270353233e+00
 1.0055674962e+00	 1.5632937160e-01	 1.0892860637e+00
 1.0041494240e+00	 1.6519325279e-01	 1.1547867075e+00
 1.0026488538e+00	 1.7406944714e-01	 1.2234664461e+00
 1.0227995132e+00	 8.6728101492e-02	 9.0070022655e-01
 1.0220146734e+00	 9.5533188766e-02	 9.3579852289e-01
 1.0211512334e+00	 1.0435861009e-01	 9.7402428044e-01
 1.0202085697e+00	 1.1320343286e-01	 1.0153800140e+00
 1.0191860715e+00	 1.2206670797e-01	 1.0598577507e+00
 1.0180831407e+00	 1.3094746993e-01	 1.1074389297e+00
 1.0168991927e+00	 1.3984473704e-01	 1.1580943243e+00
 1.0156336567e+00	 1.4875751154e-01	 1.2117839884e+00
 1.0142859761e+00	 1.5768477986e-01	 1.2684572259e+00
 1.0128556089e+00	 1.6662551275e-01	 1.3280525836e+00
 1.0113420285e+00	 1.7557866555e-01	 1.3904978675e+00
 1.0315910756e+00	 8.7473580456e-02	 1.1054511693e+00
 1.0307994897e+00	 9.6354352626e-02	 1.1373135498e+00
 1.0299286279e+00	 1.0525563362e-01	 1.1719922142e+00
 1.0289778614e+00	 1.1417648284e-01	 1.2094907454e+00
 1.0279465742e+00	 1.2311594301e-01	 1.2498020585e+00
 1.0268341631e+00	 1.3207304034e-01	 1.2929083095e+00
 1.0256400384e+00	 1.4104678467e-01	 1.3387808271e+00
 1.0243636244e+00	 1.5003616971e-01	 1.3873800705e+00
 1.0230043596e+00	 1.5904017314e-01	 1.4386556094e+00
 1.0215616976e+00	 1.6805775688e-01	 1.4925461296e+00
 1.0200351071e+00	 1.7708786729e-01	 1.5489794614e+00
 1.0403825583e+00	 8.8219052661e-02	 1.2995134906e+00
 1.0395842263e+00	 9.7175509039e-02	 1.3282173442e+00
 1.0387059428e+00	 1.0615264903e-01	 1.3594364895e+00
 1.0377470737e+00	 1.1514952401e-01	 1.3931770059e+00
 1.0367069976e+00	 1.2416516854e-01	 1.4294341188e+00
 1.0355851062e+00	 1.3319860053e-01	 1.4681921153e+00
 1.0343808048e+00	 1.4224882141e-01	 1.5094242860e+00
 1.0330935129e+00	 1.5131481628e-01	 1.5530928912e+00
 1.0317226641e+00	 1.6039555413e-01	 1.5991491516e+00
 1.0302677074e+00	 1.6948998802e-01	 1.6475332643e+00
 1.0287281069e+00	 1.7859705534e-01	 1.6981744426e+00
 1.0491739787e+00	 8.8964519584e-02	 1.4821781745e+00
 1.0483689007e+00	 9.7996659635e-02	 1.5078025050e+00
 1.0474831955e+00	 1.0704965808e-01	 1.5356510595e+00
 1.0465162238e+00	 1.1612255827e-01	 1.5657337922e+00
 1.0454673588e+00	 1.2521438663e-01	 1.5980496103e+00
 1.0443359873e+00	 1.3432415275e-01	 1.6325862966e+00
 1.0431215094e+00	 1.4345084964e-01	 1.6693204591e+00
 1.0418233396e+00	 1.5259345380e-01	 1.7082175046e+00
 1.0404409069e+00	 1.6175092552e-01	 1.7492316393e+00
 1.0389736555e+00	 1.7092220902e-01	 1.7923058936e+00
 1.0374210451e+00	 1.8010623270e-01	 1.8373721720e+00
 1.0579653543e+00	 8.9709982704e-02	 1.6527605591e+00
 1.0571535302e+00	 9.8817806043e-02	 1.6753859904e+00
 1.0562604034e+00	 1.0794666255e-01	 1.6999542535e+00
 1.0552853291e+00	 1.1709558758e-01	 1.7264805067e+00
 1.0542276754e+00	 1.2626359937e-01	 1.7549686614e+00
 1.0530868237e+00	 1.3544969924e-01	 1.7854113114e+00
 1.0518621693e+00	 1.4465287173e-01	 1.8177896876e+00
 1.0505531217e+00	 1.5387208479e-01	 1.8520736398e+00
 1.0491591052e+00	 1.6310629000e-01	 1.8882216447e+00
 1.0476795592e+00	 1.7235442272e-01	 1.9261808385e+00
 1.0461139390e+00	 1.8161540236e-01	 1.9658870762e+00
 1.0667567025e+00	 9.0455443500e-02	 1.8105993489e+00
 1.0659381324e+00	 9.9638949891e-02	 1.8303081299e+00
 1.0650375840e+00	 1.0884366423e-01	 1.8516877882e+00
 1.0640544072e+00	 1.1806861385e-01	 1.8747599674e+00
 1.0629879647e+00	 1.2731280884e-01	 1.8995348577e+00
 1.0618376329e+00	 1.3657524221e-01	 1.9260111299e+00
 1.0606028020e+00	 1.4585489007e-01	 1.9541758959e+00
 1.0592828766e+00	 1.5515071180e-01	 1.9840046961e+00
 1.0578772763e+00	 1.6446165025e-01	 2.0154615140e+00
 1.0563854358e+00	 1.7378663194e-01	 2.0484988165e+00
 1.0548068057e+00	 1.8312456732e-01	 2.0830576200e+00
 1.0755480407e+00	 9.1200903452e-02	 1.9550556757e+00
 1.0747227247e+00	 1.0046009281e-01	 1.9719316849e+00
 1.0738147547e+00	 1.0974066489e-01	 1.9902158275e+00
 1.0728234753e+00	 1.1904163902e-01	 2.0099374663e+00
 1.0717482441e+00	 1.2836201712e-01	 2.0311142974e+00
 1.0705884322e+00	 1.3770078391e-01	 2.0537522877e+00
 1.0693434248e+00	 1.4705690705e-01	 2.0778456401e+00
 1.0680126217e+00	 1.5642933736e-01	 2.1033767860e+00
 1.0665954375e+00	 1.6581700897e-01	 2.1303164050e+00
 1.0650913025e+00	 1.7521883955e-01	 2.1586234718e+00
 1.0634996626e+00	 1.8463373057e-01	 2.1882453284e+00
 1.0843393864e+00	 9.1946364036e-02	 2.0855122047e+00
 1.0835073244e+00	 1.0128123642e-01	 2.0996409552e+00
 1.0825919328e+00	 1.1063766632e-01	 2.1149240882e+00
 1.0815925508e+00	 1.2001466501e-01	 2.1313998734e+00
 1.0805085309e+00	 1.2941122629e-01	 2.1490946933e+00
 1.0793392389e+00	 1.3882632656e-01	 2.1680229839e+00
 1.0780840550e+00	 1.4825892506e-01	 2.1881872025e+00
 1.0767423742e+00	 1.5770796401e-01	 2.2095778251e+00
 1.0753136062e+00	 1.6717236883e-01	 2.2321733706e+00
 1.0737971766e+00	 1.7665104837e-01	 2.2559404521e+00
 1.0721925270e+00	 1.8614289510e-01	 2.2808338553e+00
 9.8526214738e-01	 1.7105094831e-01	 8.6683886990e-01
 9.8370630427e-01	 1.7978280468e-01	 9.5249336865e-01
 9.8206844073e-01	 1.8852468015e-01	 1.0418882562e+00
 9.8034808995e-01	 1.9727551623e-01	 1.1348915844e+00
 9.7854480164e-01	 2.0603424041e-01	 1.2313607887e+00
 9.7665814235e-01	 2.1479976648e-01	 1.3311428027e+00
 9.7468769596e-01	 2.2357099480e-01	 1.4340741918e+00
 9.7263306406e-01	 2.3234681259e-01	 1.5399813088e+00
 9.7049386637e-01	 2.4112609427e-01	 1.6486804692e+00
 9.6826974115e-01	 2.4990770180e-01	 1.7599781461e+00
 9.6596034556e-01	 2.5869048500e-01	 1.8736711838e+00
 9.9395556588e-01	 1.7256020906e-01	 1.0486492650e+00
 9.9238599486e-01	 1.8136911059e-01	 1.1272377648e+00
 9.9073367969e-01	 1.9018811962e-01	 1.2091872187e+00
 9.8899814948e-01	 1.9901616833e-01	 1.2943656106e+00
 9.8717894993e-01	 2.0785217474e-01	 1.3826301865e+00
 9.8527564378e-01	 2.1669504306e-01	 1.4738275795e+00
 9.8328781124e-01	 2.2554366393e-01	 1.5677939567e+00
 9.8121505038e-01	 2.3439691478e-01	 1.6643551863e+00
 9.7905697758e-01	 2.4325366008e-01	 1.7633270252e+00
 9.7681322788e-01	 2.5211275175e-01	 1.8645153263e+00
 9.7448345545e-01	 2.6097302946e-01	 1.9677162648e+00
 1.0026488538e+00	 1.7406944714e-01	 1.2234664461e+00
 1.0010655551e+00	 1.8295539268e-01	 1.2952403907e+00
 9.9939878854e-01	 1.9185153412e-01	 1.3700191932e+00
 9.9764807911e-01	 2.0075679429e-01	 1.4476733559e+00
 9.9581296856e-01	 2.0967008177e-01	 1.5280625231e+00
 9.9389301581e-01	 2.1859029117e-01	 1.6110356151e+00
 9.9188779738e-01	 2.2751630344e-01	 1.6964309837e+00
 9.8979690784e-01	 2.3644698618e-01	 1.7840765884e+00
 9.8761996020e-01	 2.4538119393e-01	 1.8737901936e+00
 9.8535658633e-01	 2.5431776858e-01	 1.9653795847e+00
 9.8300643735e-01	 2.6325553964e-01	 2.0586428039e+00
 1.0113420285e+00	 1.7557866555e-01	 1.3904978675e+00
 1.0097450022e+00	 1.8454165409e-01	 1.4557050437e+00
 1.0080637845e+00	 1.9351492693e-01	 1.5235838229e+00
 1.0062978960e+00	 2.0249739757e-01	 1.5940097307e+00
 1.0044468747e+00	 2.1148796511e-01	 1.6668473166e+00
 1.0025102755e+00	 2.2048551459e-01	 1.7419502939e+00
 1.0004876714e+00	 2.2948891725e-01	 1.8191617007e+00
 9.9837865345e-01	 2.3849703086e-01	 1.8983140834e+00
 9.9618283122e-01	 2.4750870006e-01	 1.9792296987e+00
 9.9389983343e-01	 2.5652275667e-01	 2.0617207368e+00
 9.9152930816e-01	 2.6553802007e-01	 2.1455895625e+00
 1.0200351071e+00	 1.7708786729e-01	 1.5489794614e+00
 1.0184243535e+00	 1.8612789797e-01	 1.6078641975e+00
 1.0167286846e+00	 1.9517830137e-01	 1.6691096405e+00
 1.0149476173e+00	 2.0423798161e-01	 1.7325987661e+00
 1.0130806854e+00	 2.1330582836e-01	 1.7982034568e+00
 1.0111274400e+00	 2.2238071706e-01	 1.8657846455e+00
 1.0090874505e+00	 2.3146150925e-01	 1.9351924800e+00
 1.0069603042e+00	 2.4054705289e-01	 2.0062665094e+00
 1.0047456076e+00	 2.4963618268e-01	 2.0788358900e+00
 1.0024429861e+00	 2.5872772040e-01	 2.1527196108e+00
 1.0000520848e+00	 2.6782047528e-01	 2.2277267375e+00
 1.0287281069e+00	 1.7859705534e-01	 1.6981744426e+00
 1.0271036260e+00	 1.8771412747e-01	 1.7509777947e+00
 1.0253935062e+00	 1.9684166072e-01	 1.8058528498e+00
 1.0235972602e+00	 2.0597854987e-01	 1.8626923826e+00
 1.0217144178e+00	 2.1512367513e-01	 1.9213779598e+00
 1.0197445264e+00	 2.2427590234e-01	 1.9817800841e+00
 1.0176871515e+00	 2.3343408337e-01	 2.0437583595e+00
 1.0155418772e+00	 2.4259705633e-01	 2.1071616782e+00
 1.0133083064e+00	 2.5176364600e-01	 2.1718284263e+00
 1.0109860614e+00	 2.6093266413e-01	 2.2375867101e+00
 1.0085747842e+00	 2.7010290979e-01	 2.3042545993e+00
 1.0374210451e+00	 1.8010623270e-01	 1.8373721720e+00
 1.0357828370e+00	 1.8930034574e-01	 1.8843321014e+00
 1.0340582665e+00	 1.9850500829e-01	 1.9330961675e+00
 1.0322468419e+00	 2.0771910580e-01	 1.9835692192e+00
 1.0303480891e+00	 2.1694150902e-01	 2.0356447839e+00
 1.0283615517e+00	 2.2617107421e-01	 2.0892052097e+00
 1.0262867917e+00	 2.3540664351e-01	 2.1441218288e+00
 1.0241233894e+00	 2.4464704525e-01	 2.2002551423e+00
 1.0218709445e+00	 2.5389109426e-01	 2.2574550235e+00
 1.0195290761e+00	 2.6313759225e-01	 2.3155609404e+00
 1.0170974231e+00	 2.7238532814e-01	 2.3744021970e+00
 1.0461139390e+00	 1.8161540236e-01	 1.9658870762e+00
 1.0444620038e+00	 1.9088655592e-01	 2.0072386155e+00
 1.0427229825e+00	 2.0016834737e-01	 2.0501477220e+00
 1.0408963794e+00	 2.0945965286e-01	 2.0945335207e+00
 1.0389817163e+00	 2.1875933364e-01	 2.1403037036e+00
 1.0369785331e+00	 2.2806623640e-01	 2.1873546674e+00
 1.0348863879e+00	 2.3737919359e-01	 2.2355716725e+00
 1.0327048578e+00	 2.4669702371e-01	 2.2848290227e+00
 1.0304335389e+00	 2.5601853167e-01	 2.3349902633e+00
 1.0280720472e+00	 2.6534250911e-01	 2.3859083984e+00
 1.0256200187e+00	 2.7466773484e-01	 2.4374261249e+00
 1.0548068057e+00	 1.8312456732e-01	 2.0830576200e+00
 1.0531411436e+00	 1.9247276115e-01	 2.1190330306e+00
 1.0513876715e+00	 2.0183168127e-01	 2.1563400057e+00
 1.0495458899e+00	 2.1120019449e-01	 2.1949140782e+00
 1.0476153166e+00	 2.2057715259e-01	 2.2346792377e+00
 1.0455954876e+00	 2.2996139269e-01	 2.2755480623e+00
 1.0434859574e+00	 2.3935173753e-01	 2.3174218701e+00
 1.0412862995e+00	 2.4874699579e-01	 2.3601908915e+00
 1.0389961067e+00	 2.5814596244e-01	 2.4037344595e+00
 1.0366149917e+00	 2.6754741911e-01	 2.4479212184e+00
 1.0341425876e+00	 2.7695013443e-01	 2.4926093487e+00
 1.0634996626e+00	 1.8463373057e-01	 2.1882453284e+00
 1.0618202734e+00	 1.9405896458e-01	 2.2190742480e+00
 1.0600523507e+00	 2.0349501329e-01	 2.2510288776e+00
 1.0581953907e+00	 2.1294073414e-01	 2.2840632205e+00
 1.0562489071e+00	 2.2239496948e-01	 2.3181196288e+00
 1.0542124324e+00	 2.3185654683e-01	 2.3531289257e+00
 1.0520855171e+00	 2.4132427923e-01	 2.3890105481e+00
 1.0498677314e+00	 2.5079696554e-01	 2.4256727090e+00
 1.0475586647e+00	 2.6027339081e-01	 2.4630125769e+00
 1.0451579266e+00	 2.6975232661e-01	 2.5009164736e+00
 1.0426651469e+00	 2.7923253144e-01	 2.5392600869e+00
 1.0721925270e+00	 1.8614289510e-01	 2.2808338553e+00
 1.0704994107e+00	 1.9564516936e-01	 2.3067434367e+00
 1.0687170373e+00	 2.0515834672e-01	 2.3335926133e+00
 1.0668448987e+00	 2.1468127528e-01	 2.3613558543e+00
 1.0648825050e+00	 2.2421278792e-01	 2.3899958714e+00
 1.0628293844e+00	 2.3375170258e-01	 2.4194637304e+00
 1.0606850842e+00	 2.4329682261e-01	 2.4496989817e+00
 1.0584491706e+00	 2.5284693703e-01	 2.4806298102e+00
 1.0561212300e+00	 2.6240082098e-01	 2.5121732022e+00
 1.0537008686e+00	 2.7195723598e-01	 2.5442351285e+00
 1.0511877135e+00	 2.8151493038e-01	 2.5767107438e+00
 9.6596034556e-01	 2.5869048500e-01	 1.8736711838e+00
 9.6356535632e-01	 2.6747328204e-01	 1.9897934941e+00
 9.6108447067e-01	 2.7625492019e-01	 2.1083158971e+00
 9.5851740614e-01	 2.8503421588e-01	 2.2289274749e+00
 9.5586390071e-01	 2.9380997494e-01	 2.3513095768e+00
 9.5312371316e-01	 3.0258099304e-01	 2.4751362349e+00
 9.5029662344e-01	 3.1134605611e-01	 2.6000745970e+00
 9.4738243296e-01	 3.2010394073e-01	 2.7257853733e+00
 9.4438096497e-01	 3.2885341468e-01	 2.8519232980e+00
 9.4129206486e-01	 3.3759323727e-01	 2.9781376043e+00
 9.3811560045e-01	 3.4632215993e-01	 3.1040725113e+00
 9.7448345545e-01	 2.6097302946e-01	 1.9677162648e+00
 9.7206733412e-01	 2.6983332113e-01	 2.0729863774e+00
 9.6956455848e-01	 2.7869244369e-01	 2.1803485668e+00
 9.6697484357e-01	 2.8754920312e-01	 2.2895351041e+00
 9.6429792505e-01	 2.9640239472e-01	 2.4002700859e+00
 9.6153355958e-01	 3.0525080353e-01	 2.5122697967e+00
 9.5868152515e-01	 3.1409320475e-01	 2.6252430857e+00
 9.5574162144e-01	 3.2292836420e-01	 2.7388917589e+00
 9.5271367013e-01	 3.3175503876e-01	 2.8529109836e+00
 9.4959751524e-01	 3.4057197680e-01	 2.9669897059e+00
 9.4639302343e-01	 3.4937791874e-01	 3.0808110799e+00
 9.8300643735e-01	 2.6325553964e-01	 2.0586428039e+00
 9.8056918426e-01	 2.7219332478e-01	 2.1536510492e+00
 9.7804451896e-01	 2.8112993059e-01	 2.2504650592e+00
 9.7543215400e-01	 2.9006415260e-01	 2.3488534164e+00
 9.7273182274e-01	 2.9899477557e-01	 2.4485761301e+00
 9.6994327971e-01	 3.0792057392e-01	 2.5493849541e+00
 9.6706630095e-01	 3.1684031214e-01	 2.6510237181e+00
 9.6410068439e-01	 3.2575274526e-01	 2.7532286732e+00
 9.6104625015e-01	 3.3465661926e-01	 2.8557288499e+00
 9.5790284089e-01	 3.4355067160e-01	 2.9582464274e+00
 9.5467032212e-01	 3.5243363166e-01	 3.0604971147e+00
 9.9152930816e-01	 2.6553802007e-01	 2.1455895625e+00
 9.8907092358e-01	 2.7455329767e-01	 2.2309158976e+00
 9.8652436891e-01	 2.8356738572e-01	 2.3177860622e+00
 9.8388935420e-01	 2.9257906930e-01	 2.4059982441e+00
 9.8116561051e-01	 3.0158712263e-01	 2.4953417017e+00
 9.7835289023e-01	 3.1059030952e-01	 2.5855970458e+00
 9.7545096747e-01	 3.1958738373e-01	 2.6765365356e+00
 9.7245963839e-01	 3.2857708950e-01	 2.7679243870e+00
 9.6937872157e-01	 3.3755816195e-01	 2.8595170927e+00
 9.6620805830e-01	 3.4652932758e-01	 2.9510637537e+00
 9.6294751292e-01	 3.5548930476e-01	 3.0423064208e+00
 1.0000520848e+00	 2.6782047528e-01	 2.2277267375e+00
 9.9757256896e-01	 2.7691324449e-01	 2.3039411405e+00
 9.9500412515e-01	 2.8600481391e-01	 2.3814643923e+00
 9.9234646095e-01	 2.9509395820e-01	 2.4601177454e+00
 9.8959930508e-01	 3.0417944105e-01	 2.5397132081e+00
 9.8676240782e-01	 3.1326001561e-01	 2.6200538017e+00
 9.8383554133e-01	 3.2233442496e-01	 2.7009338282e+00
 9.8081850002e-01	 3.3140140253e-01	 2.7821391518e+00
 9.7771110092e-01	 3.4045967257e-01	 2.8634474905e+00
 9.7451318394e-01	 3.4950795064e-01	 2.9446287180e+00
 9.7122461225e-01	 3.5854494408e-01	 3.0254451762e+00
 1.0085747842e+00	 2.7010290979e-01	 2.3042545993e+00
 1.0060741373e+00	 2.7927316990e-01	 2.3719174414e+00
 1.0034838045e+00	 2.8844222001e-01	 2.4406835914e+00
 1.0008034910e+00	 2.9760882431e-01	 2.5103909851e+00
 9.9803292319e-01	 3.0677173596e-01	 2.5808680422e+00
 9.9517184916e-01	 3.1592969750e-01	 2.6519339064e+00
 9.9222003916e-01	 3.2508144128e-01	 2.7233986956e+00
 9.8917728587e-01	 3.3422568995e-01	 2.7950637645e+00
 9.8604340471e-01	 3.4336115689e-01	 2.8667219770e+00
 9.8281823426e-01	 3.5248654669e-01	 2.9381579887e+00
 9.7950163653e-01	 3.6160055570e-01	 3.0091485376e+00
 1.0170974231e+00	 2.7238532814e-01	 2.3744021970e+00
 1.0145756453e+00	 2.8163307860e-01	 2.4340645919e+00
 1.0119634238e+00	 2.9087960883e-01	 2.4946565906e+00
 1.0092604612e+00	 3.0012367260e-01	 2.5560265849e+00
 1.0064664815e+00	 3.0936401251e-01	 2.6180132214e+00
 1.0035812309e+00	 3.1859936047e-01	 2.6804456325e+00
 1.0006044776e+00	 3.2782843815e-01	 2.7431436786e+00
 9.9753601250e-01	 3.3704995737e-01	 2.8059182007e+00
 9.9437564948e-01	 3.4626262065e-01	 2.8685712828e+00
 9.9112322576e-01	 3.5546512164e-01	 2.9308965230e+00
 9.8777860218e-01	 3.6465614567e-01	 2.9926793131e+00
 1.0256200187e+00	 2.7466773484e-01	 2.4374261249e+00
 1.0230771100e+00	 2.8399297526e-01	 2.4896302583e+00
 1.0204429998e+00	 2.9331698523e-01	 2.5426244391e+00
 1.0177173882e+00	 3.0263850806e-01	 2.5962614376e+00
 1.0148999969e+00	 3.1195627583e-01	 2.6503840914e+00
 1.0119905698e+00	 3.2126900983e-01	 2.7048255376e+00
 1.0089888733e+00	 3.3057542100e-01	 2.7594094542e+00
 1.0058946965e+00	 3.3987421038e-01	 2.8139503129e+00
 1.0027078517e+00	 3.4916406961e-01	 2.8682536398e+00
 9.9942817490e-01	 3.5844368140e-01	 2.9221162841e+00
 9.9605552561e-01	 3.6771172006e-01	 2.9753266954e+00
 1.0341425876e+00	 2.7695013443e-01	 2.4926093487e+00
 1.0315785482e+00	 2.8635286457e-01	 2.5378887867e+00
 1.0289225495e+00	 2.9575435403e-01	 2.5838550928e+00
 1.0261742889e+00	 3.0515333568e-01	 2.6303594820e+00
 1.0233334860e+00	 3.1454853108e-01	 2.6772430919e+00
 1.0203998825e+00	 3.2393865087e-01	 2.7243372234e+00
 1.0173732428e+00	 3.3332239529e-01	 2.7714635922e+00
 1.0142533544e+00	 3.4269845458e-01	 2.8184345886e+00
 1.0110400280e+00	 3.5206550952e-01	 2.8650535461e+00
 1.0077330981e+00	 3.6142223187e-01	 2.9111150168e+00
 1.0043324232e+00	 3.7076728492e-01	 2.9564050544e+00
 1.0426651469e+00	 2.7923253144e-01	 2.5392600869e+00
 1.0400799768e+00	 2.8871275120e-01	 2.5781400656e+00
 1.0374020895e+00	 2.9819172007e-01	 2.6176422601e+00
 1.0346311799e+00	 3.0766816045e-01	 2.6576105358e+00
 1.0317669655e+00	 3.1714078338e-01	 2.6978785784e+00
 1.0288091856e+00	 3.2660828888e-01	 2.7382701523e+00
 1.0257576029e+00	 3.3606936646e-01	 2.7785993695e+00
 1.0226120029e+00	 3.4552269558e-01	 2.8186709664e+00
 1.0193721949e+00	 3.5496694615e-01	 2.8582805882e+00
 1.0160380120e+00	 3.6440077897e-01	 2.8972150800e+00
 1.0126093115e+00	 3.7382284632e-01	 2.9352527838e+00
 1.0511877135e+00	 2.8151493038e-01	 2.5767107438e+00
 1.0485814126e+00	 2.9107263984e-01	 2.6097084404e+00
 1.0458816367e+00	 3.0062908817e-01	 2.6433043007e+00
 1.0430880782e+00	 3.1018298736e-01	 2.6773291817e+00
 1.0402004521e+00	 3.1973303789e-01	 2.7116037001e+00
 1.0372184959e+00	 3.2927792916e-01	 2.7459385183e+00
 1.0341419700e+00	 3.3881633997e-01	 2.7801346386e+00
 1.0309706585e+00	 3.4834693899e-01	 2.8139837059e+00
 1.0277043688e+00	 3.5786838524e-01	 2.8472683159e+00
 1.0243429329e+00	 3.6737932860e-01	 2.8797623312e+00
 1.0208862068e+00	 3.7687841031e-01	 2.9112312000e+00
 9.3811560045e-01	 3.4632215993e-01	 3.1040725113e+00
 9.3485089983e-01	 3.5504040738e-01	 3.2299588036e+00
 9.3149840861e-01	 3.6374523066e-01	 3.3559655200e+00
 9.2805806304e-01	 3.7243535926e-01	 3.4816999589e+00
 9.2452982293e-01	 3.8110951670e-01	 3.6067632347e+00
 9.2091367195e-01	 3.8976642107e-01	 3.7307507867e+00
 9.1720961780e-01	 3.9840478557e-01	 3.8532529001e+00
 9.1341769248e-01	 4.0702331907e-01	 3.9738552377e+00
 9.0953795245e-01	 4.1562072663e-01	 4.0921393821e+00
 9.0557047888e-01	 4.2419571008e-01	 4.2076833886e+00
 9.0151537777e-01	 4.3274696861e-01	 4.3200623470e+00
 9.4639302343e-01	 3.4937791874e-01	 3.0808110799e+00
 9.4309951687e-01	 3.5817309127e-01	 3.1946121192e+00
 9.3971744509e-01	 3.6695472120e-01	 3.3085569599e+00
 9.3624674377e-01	 3.7572152678e-01	 3.4222683845e+00
 9.3268737239e-01	 3.8447222027e-01	 3.5353630202e+00
 9.2903931446e-01	 3.9320550847e-01	 3.6474518306e+00
 9.2530257775e-01	 4.0192009321e-01	 3.7581406185e+00
 9.2147719453e-01	 4.1061467198e-01	 3.8670305386e+00
 9.1756322178e-01	 4.1928793839e-01	 3.9737186197e+00
 9.1356074138e-01	 4.2793858285e-01	 4.0777982967e+00
 9.0946986025e-01	 4.3656529304e-01	 4.1788599506e+00
 9.5467032212e-01	 3.5243363166e-01	 3.0604971147e+00
 9.5134801004e-01	 3.6130572813e-01	 3.1627321086e+00
 9.4793635814e-01	 3.7016416353e-01	 3.2651227093e+00
 9.4443530154e-01	 3.7900764494e-01	 3.3673072926e+00
 9.4084479935e-01	 3.8783487335e-01	 3.4689180690e+00
 9.3716483494e-01	 3.9664454422e-01	 3.5695815581e+00
 9.3339541616e-01	 4.0543534806e-01	 3.6689190712e+00
 9.2953657555e-01	 4.1420597095e-01	 3.7665472039e+00
 9.2558837060e-01	 4.2295509508e-01	 3.8620783375e+00
 9.2155088388e-01	 4.3168139940e-01	 3.9551211481e+00
 9.1742422329e-01	 4.4038356013e-01	 4.0452811241e+00
 9.6294751292e-01	 3.5548930476e-01	 3.0423064208e+00
 9.5959639570e-01	 3.6443832415e-01	 3.1335159047e+00
 9.5615516407e-01	 3.7337356404e-01	 3.2248800895e+00
 9.5262375257e-01	 3.8229372027e-01	 3.3160530469e+00
 9.4900211999e-01	 3.9119748259e-01	 3.4066826372e+00
 9.4529024952e-01	 4.0008353515e-01	 3.4964109634e+00
 9.4148814909e-01	 4.0895055710e-01	 3.5848748341e+00
 9.3759585153e-01	 4.1779722311e-01	 3.6717062340e+00
 9.3361341482e-01	 4.2662220398e-01	 3.7565328030e+00
 9.2954092225e-01	 4.3542416717e-01	 3.8389783214e+00
 9.2537848265e-01	 4.4420177745e-01	 3.9186632042e+00
 9.7122461225e-01	 3.5854494408e-01	 3.0254451762e+00
 9.6784469021e-01	 3.6757088555e-01	 3.1061902823e+00
 9.6437387917e-01	 3.7658292907e-01	 3.1870753681e+00
 9.6081211312e-01	 3.8557975929e-01	 3.2677702982e+00
 9.5715935048e-01	 3.9456005467e-01	 3.3479386442e+00
 9.5341557431e-01	 4.0352248808e-01	 3.4272381175e+00
 9.4958079259e-01	 4.1246572728e-01	 3.5053210108e+00
 9.4565503845e-01	 4.2138843558e-01	 3.5818346454e+00
 9.4163837035e-01	 4.3028927234e-01	 3.6564218263e+00
 9.3753087232e-01	 4.3916689358e-01	 3.7287213035e+00
 9.3333265411e-01	 4.4801995257e-01	 3.7983682398e+00
 9.7950163653e-01	 3.6160055570e-01	 3.0091485376e+00
 9.7609290993e-01	 3.7070341855e-01	 3.0800102861e+00
 9.7259251976e-01	 3.7979226501e-01	 3.1509824069e+00
 9.6900039943e-01	 3.8886576851e-01	 3.2217506498e+00
 9.6531650701e-01	 3.9792259627e-01	 3.2919943552e+00
 9.6154082542e-01	 4.0696140982e-01	 3.3613868655e+00
 9.5767336271e-01	 4.1598086559e-01	 3.4295959425e+00
 9.5371415229e-01	 4.2497961549e-01	 3.4962841914e+00
 9.4966325312e-01	 4.3395630746e-01	 3.5611094906e+00
 9.4552074994e-01	 4.4290958605e-01	 3.6237254266e+00
 9.4128675344e-01	 4.5183809307e-01	 3.6837817353e+00
 9.8777860218e-01	 3.6465614567e-01	 2.9926793131e+00
 9.8434107123e-01	 3.7383592935e-01	 3.0542579227e+00
 9.8081110212e-01	 3.8300157821e-01	 3.1159013726e+00
 9.7718862773e-01	 3.9215175446e-01	 3.1773113851e+00
 9.7347360575e-01	 4.0128511404e-01	 3.2381831240e+00
 9.6966601897e-01	 4.1040030719e-01	 3.2982055822e+00
 9.6576587551e-01	 4.1949597900e-01	 3.3570619754e+00
 9.6177320904e-01	 4.2857076996e-01	 3.4144301405e+00
 9.5768807905e-01	 4.3762331660e-01	 3.4699829382e+00
 9.5351057097e-01	 4.4665225201e-01	 3.5233886620e+00
 9.4924079643e-01	 4.5565620653e-01	 3.5743114499e+00
 9.9605552561e-01	 3.6771172006e-01	 2.9753266954e+00
 9.9258919045e-01	 3.7696842418e-01	 3.0282409135e+00
 9.8902964256e-01	 3.8621087504e-01	 3.0811575070e+00
 9.8537681426e-01	 3.9543772364e-01	 3.1337942539e+00
 9.8163066289e-01	 4.0464761466e-01	 3.1858621925e+00
 9.7779117108e-01	 4.1383918703e-01	 3.2370659850e+00
 9.7385834702e-01	 4.2301107448e-01	 3.2871042851e+00
 9.6983222469e-01	 4.3216190611e-01	 3.3356701092e+00
 9.6571286404e-01	 4.4129030703e-01	 3.3824512126e+00
 9.6150035124e-01	 4.5039489888e-01	 3.4271304680e+00
 9.5719479885e-01	 4.5947430050e-01	 3.4693862494e+00
 1.0043324232e+00	 3.7076728492e-01	 2.9564050544e+00
 1.0008372840e+00	 3.8010090925e-01	 3.0012915046e+00
 9.9724815739e-01	 3.8942016187e-01	 3.0460999529e+00
 9.9356497527e-01	 3.9872368258e-01	 3.0905643124e+00
 9.8978769460e-01	 4.0801010480e-01	 3.1344115453e+00
 9.8591629786e-01	 4.1727805615e-01	 3.1773620000e+00
 9.8195079332e-01	 4.2652615900e-01	 3.2191297519e+00
 9.7789121521e-01	 4.3575303107e-01	 3.2594229473e+00
 9.7373762401e-01	 4.4495728603e-01	 3.2979441492e+00
 9.6949010660e-01	 4.5413753408e-01	 3.3343906870e+00
 9.6514877647e-01	 4.6329238258e-01	 3.3684550083e+00
 1.0126093115e+00	 3.7382284632e-01	 2.9352527838e+00
 1.0090853681e+00	 3.8323339076e-01	 2.9727653300e+00
 1.0054666629e+00	 3.9262944505e-01	 3.0101006328e+00
 1.0017531270e+00	 4.0200963779e-01	 3.0470088165e+00
 9.9794471706e-01	 4.1137259112e-01	 3.0832328141e+00
 9.9404141543e-01	 4.2071692137e-01	 3.1185086767e+00
 9.9004323043e-01	 4.3004123953e-01	 3.1525658864e+00
 9.8595019660e-01	 4.3934415195e-01	 3.1851276701e+00
 9.8176237489e-01	 4.4862426087e-01	 3.2159113158e+00
 9.7747985291e-01	 4.5788016503e-01	 3.2446284900e+00
 9.7310274507e-01	 4.6711046032e-01	 3.2709855579e+00
 1.0208862068e+00	 3.7687841031e-01	 2.9112312000e+00
 1.0173334593e+00	 3.8636587493e-01	 2.9420403265e+00
 1.0136851754e+00	 3.9583873097e-01	 2.9725531774e+00
 1.0099412857e+00	 4.0529559579e-01	 3.0025361624e+00
 1.0061017465e+00	 4.1473508031e-01	 3.0317482305e+00
 1.0021665399e+00	 4.2415578950e-01	 3.0599411518e+00
 9.9813567443e-01	 4.3355632305e-01	 3.0868598004e+00
 9.9400918483e-01	 4.4293527589e-01	 3.1122424377e+00
 9.8978713259e-01	 4.5229123883e-01	 3.1358209968e+00
 9.8546960600e-01	 4.6162279917e-01	 3.1573213668e+00
 9.8105672044e-01	 4.7092854131e-01	 3.1764636792e+00
 9.0151537777e-01	 4.3274696861e-01	 4.3200623470e+00
 8.9737349163e-01	 4.4127175214e-01	 4.4294955587e+00
 8.9314429419e-01	 4.4977021217e-01	 4.5363159280e+00
 8.8882796619e-01	 4.5824104362e-01	 4.6402122948e+00
 8.8442471375e-01	 4.6668294105e-01	 4.7408760703e+00
 8.7993476851e-01	 4.7509459936e-01	 4.8380016929e+00
 8.7535838762e-01	 4.8347471433e-01	 4.9312870862e+00
 8.7069585389e-01	 4.9182198323e-01	 5.0204341179e+00
 8.6594747579e-01	 5.0013510550e-01	 5.1051490599e+00
 8.6111358749e-01	 5.0841278331e-01	 5.1851430505e+00
 8.5619454885e-01	 5.1665372221e-01	 5.2601325574e+00
 9.0946986025e-01	 4.3656529304e-01	 4.1788599506e+00
 9.0529142836e-01	 4.4516529463e-01	 4.2771743274e+00
 9.0102491477e-01	 4.5373874046e-01	 4.3731061488e+00
 8.9667050184e-01	 4.6228431392e-01	 4.4663354534e+00
 8.9222839749e-01	 4.7080069808e-01	 4.5565444487e+00
 8.8769883541e-01	 4.7928657630e-01	 4.6434179719e+00
 8.8308207502e-01	 4.8774063285e-01	 4.7266439516e+00
 8.7837840162e-01	 4.9616155352e-01	 4.8059138712e+00
 8.7358812641e-01	 5.0454802626e-01	 4.8809232344e+00
 8.6871158650e-01	 5.1289874181e-01	 4.9513720317e+00
 8.6374914493e-01	 5.2121239428e-01	 5.0169652101e+00
 9.1742422329e-01	 4.4038356013e-01	 4.0452811241e+00
 9.1320924619e-01	 4.4905877865e-01	 4.1328790998e+00
 9.0890541702e-01	 4.5770720916e-01	 4.2183122629e+00
 9.0451291972e-01	 4.6632752351e-01	 4.3012544073e+00
 9.0003196405e-01	 4.7491839327e-01	 4.3813810596e+00
 8.9546278571e-01	 4.8347849028e-01	 4.4583699391e+00
 8.9080564643e-01	 4.9200648731e-01	 4.5319014186e+00
 8.8606083398e-01	 5.0050105864e-01	 4.6016589884e+00
 8.8122866229e-01	 5.0896088076e-01	 4.6673297213e+00
 8.7630947141e-01	 5.1738463294e-01	 4.7286047400e+00
 8.7130362757e-01	 5.2577099790e-01	 4.7851796874e+00
 9.2537848265e-01	 4.4420177745e-01	 3.9186632042e+00
 9.2112696081e-01	 4.5295221193e-01	 3.9959570810e+00
 9.1678581655e-01	 4.6167562613e-01	 4.0712902740e+00
 9.1235523538e-01	 4.7037068041e-01	 4.1443328212e+00
 9.0783542889e-01	 4.7903603480e-01	 4.2147560233e+00
 9.0322663483e-01	 4.8767034963e-01	 4.2822328983e+00
 8.9852911717e-01	 4.9627228617e-01	 4.3464386372e+00
 8.9374316621e-01	 5.0484050721e-01	 4.4070510630e+00
 8.8886909858e-01	 5.1337367775e-01	 4.4637510908e+00
 8.8390725729e-01	 5.2187046562e-01	 4.5162231917e+00
 8.7885801174e-01	 5.3032954210e-01	 4.5641558585e+00
 9.3333265411e-01	 4.4801995257e-01	 3.7983682398e+00
 9.2904458795e-01	 4.5684560217e-01	 3.8657798302e+00
 9.2466612900e-01	 4.6564399924e-01	 3.9314202188e+00
 9.2019746438e-01	 4.7441379262e-01	 3.9949581113e+00
 9.1563880750e-01	 4.8315363082e-01	 4.0560629734e+00
 9.1099039814e-01	 4.9186216266e-01	 4.1144054747e+00
 9.0625250257e-01	 5.0053803789e-01	 4.1696579353e+00
 9.0142541355e-01	 5.0917990782e-01	 4.2214947744e+00
 8.9650945044e-01	 5.1778642597e-01	 4.2695929614e+00
 8.9150495921e-01	 5.2635624872e-01	 4.3136324708e+00
 8.8641231243e-01	 5.3488803594e-01	 4.3532967398e+00
 9.4128675344e-01	 4.5183809307e-01	 3.6837817353e+00
 9.3696214329e-01	 4.6073895712e-01	 3.7417420079e+00
 9.3254636999e-01	 4.6961233637e-01	 3.7981049165e+00
 9.2803962227e-01	 4.7845686817e-01	 3.8525401964e+00
 9.2344211535e-01	 4.8727118950e-01	 3.9047178071e+00
 9.1875409106e-01	 4.9605393768e-01	 3.9543083622e+00
 9.1397581793e-01	 5.0480375093e-01	 4.0009835612e+00
 9.0910759122e-01	 5.1351926909e-01	 4.0444166236e+00
 9.0414973303e-01	 5.2219913419e-01	 4.0842827264e+00
 8.9910259224e-01	 5.3084199115e-01	 4.1202594448e+00
 8.9396654463e-01	 5.3944648844e-01	 4.1520271972e+00
 9.4924079643e-01	 4.5565620653e-01	 3.5743114499e+00
 9.4487964254e-01	 4.6463228448e-01	 3.6232601786e+00
 9.4042655516e-01	 4.7358064539e-01	 3.6707687744e+00
 9.3588172461e-01	 4.8249991508e-01	 3.7165103036e+00
 9.3124536793e-01	 4.9138871902e-01	 3.7601574900e+00
 9.2651772899e-01	 5.0024568300e-01	 3.8013831252e+00
 9.2169907858e-01	 5.0906943376e-01	 3.8398604808e+00
 9.1678971448e-01	 5.1785859961e-01	 3.8752637240e+00
 9.1178996149e-01	 5.2661181114e-01	 3.9072683365e+00
 9.0670017145e-01	 5.3532770181e-01	 3.9355515359e+00
 9.0152072331e-01	 5.4400490865e-01	 3.9597927038e+00
 9.5719479885e-01	 4.5947430050e-01	 3.4693862494e+00
 9.5279710140e-01	 4.6852559198e-01	 3.5097716667e+00
 9.4830670014e-01	 4.7754893417e-01	 3.5488566447e+00
 9.4372378695e-01	 4.8654294136e-01	 3.5863198261e+00
 9.3904858070e-01	 4.9550622753e-01	 3.6218389126e+00
 9.3428132731e-01	 5.0443740694e-01	 3.6550910520e+00
 9.2942229984e-01	 5.1333509482e-01	 3.6857532261e+00
 9.2447179856e-01	 5.2219790801e-01	 3.7135026432e+00
 9.1943015098e-01	 5.3102446559e-01	 3.7380171323e+00
 9.1429771191e-01	 5.3981338958e-01	 3.7589755431e+00
 9.0907486346e-01	 5.4856330561e-01	 3.7760581501e+00
 9.6514877647e-01	 4.6329238258e-01	 3.3684550083e+00
 9.6071453559e-01	 4.7241888735e-01	 3.4007334604e+00
 9.5618682055e-01	 4.8151721057e-01	 3.4318327310e+00
 9.5156582484e-01	 4.9058595505e-01	 3.4614392290e+00
 9.4685176915e-01	 4.9962372321e-01	 3.4892377943e+00
 9.4204490143e-01	 5.0862911782e-01	 3.5149120560e+00
 9.3714549703e-01	 5.1760074259e-01	 3.5381447919e+00
 9.3215385868e-01	 5.2653720287e-01	 3.5586182923e+00
 9.2707031665e-01	 5.3543710628e-01	 3.5760147262e+00
 9.2189522869e-01	 5.4429906338e-01	 3.5900165136e+00
 9.1662898006e-01	 5.5312168836e-01	 3.6003067024e+00
 9.7310274507e-01	 4.6711046032e-01	 3.2709855579e+00
 9.6863196080e-01	 4.7631217830e-01	 3.2956211634e+00
 9.6406693203e-01	 4.8548548248e-01	 3.3191795398e+00
 9.5940785384e-01	 4.9462896414e-01	 3.3413570010e+00
 9.5465494875e-01	 5.0374121422e-01	 3.3618476337e+00
 9.4980846675e-01	 5.1282082394e-01	 3.3803436227e+00
 9.4486868545e-01	 5.2186638553e-01	 3.3965355775e+00
 9.3983591010e-01	 5.3087649282e-01	 3.4101128621e+00
 9.3471047367e-01	 5.3984974197e-01	 3.4207639294e+00
 9.2949273685e-01	 5.4878473208e-01	 3.4281766601e+00
 9.2418308810e-01	 5.5768006594e-01	 3.4320387082e+00
 9.8105672044e-01	 4.7092854131e-01	 3.1764636792e+00
 9.7654939274e-01	 4.8020547255e-01	 3.1939279886e+00
 9.7194705020e-01	 4.8945375776e-01	 3.2103968763e+00
 9.6724988951e-01	 4.9867197668e-01	 3.2255786495e+00
 9.6245813498e-01	 5.0785870872e-01	 3.2391787015e+00
 9.5757203867e-01	 5.1701253362e-01	 3.2508997992e+00
 9.5259188044e-01	 5.2613203208e-01	 3.2604423712e+00
 9.4751796805e-01	 5.3521578645e-01	 3.2675048008e+00
 9.4235063717e-01	 5.4426238140e-01	 3.2717837217e+00
 9.3709025147e-01	 5.5327040460e-01	 3.2729743204e+00
 9.3173720256e-01	 5.6223844740e-01	 3.2707706445e+00
 8.5619454885e-01	 5.1665372221e-01	 5.2601325574e+00
 8.5119074566e-01	 5.2485663194e-01	 5.3306558515e+00
 8.4610259018e-01	 5.3302022751e-01	 5.3970276468e+00
 8.4093052051e-01	 5.4114322943e-01	 5.4586373062e+00
 8.3567500029e-01	 5.4922436409e-01	 5.5148802126e+00
 8.3033651862e-01	 5.5726236447e-01	 5.5651587096e+00
 8.2491558997e-01	 5.6525597072e-01	 5.6088830494e+00
 8.1941275406e-01	 5.7320393083e-01	 5.6454723465e+00
 8.1382857572e-01	 5.8110500120e-01	 5.6743555377e+00
 8.0816364470e-01	 5.8895794732e-01	 5.6949837549e+00
 8.0241857555e-01	 5.9676154436e-01	 5.7082947719e+00
 8.6374914493e-01	 5.2121239428e-01	 5.0169652101e+00
 8.5870119090e-01	 5.2948768203e-01	 5.0782348612e+00
 8.5356814030e-01	 5.3772330874e-01	 5.1355140116e+00
 8.4835043509e-01	 5.4591798361e-01	 5.1882165367e+00
 8.4304854300e-01	 5.5407042182e-01	 5.2357617285e+00
 8.3766295747e-01	 5.6217934515e-01	 5.2775751964e+00
 8.3219419749e-01	 5.7024348265e-01	 5.3130897759e+00
 8.2664280754e-01	 5.7826157124e-01	 5.3417464447e+00
 8.2100935744e-01	 5.8623235637e-01	 5.3629952451e+00
 8.1529444214e-01	 5.9415459263e-01	 5.3769691380e+00
 8.0949868162e-01	 6.0202704437e-01	 5.3848787210e+00
 8.7130362757e-01	 5.2577099790e-01	 4.7851796874e+00
 8.6621152335e-01	 5.3411866258e-01	 4.8375789144e+00
 8.6103357830e-01	 5.4242631935e-01	 4.8861487494e+00
 8.5577023824e-01	 5.5069266610e-01	 4.9303246373e+00
 8.5042197499e-01	 5.5891640678e-01	 4.9695469250e+00
 8.4498928630e-01	 5.6709625200e-01	 5.0032617255e+00
 8.3947269570e-01	 5.7523091968e-01	 5.0309217904e+00
 8.3387275245e-01	 5.8331913571e-01	 5.0519873910e+00
 8.2819003132e-01	 5.9135963455e-01	 5.0660989120e+00
 8.2242513250e-01	 5.9935115990e-01	 5.0744431792e+00
 8.1657868137e-01	 6.0729246531e-01	 5.0771168069e+00
 8.7885801174e-01	 5.3032954210e-01	 4.5641558585e+00
 8.7372175792e-01	 5.3874958278e-01	 4.6080661934e+00
 8.6849891900e-01	 5.4712926866e-01	 4.6483109603e+00
 8.6318994468e-01	 5.5546728636e-01	 4.6843443048e+00
 8.5779531088e-01	 5.6376232859e-01	 4.7156248465e+00
 8.5231551964e-01	 5.7201309477e-01	 4.7416165091e+00
 8.4675109905e-01	 5.8021829172e-01	 4.7617893606e+00
 8.4110260312e-01	 5.8837663426e-01	 4.7756209202e+00
 8.3537061162e-01	 5.9648684590e-01	 4.7837011807e+00
 8.2955572993e-01	 6.0454765944e-01	 4.7866886753e+00
 8.2365858884e-01	 6.1255781763e-01	 4.7843101281e+00
 8.8641231243e-01	 5.3488803594e-01	 4.3532967398e+00
 8.8123190949e-01	 5.4338045181e-01	 4.3890980975e+00
 8.7596417721e-01	 5.5183216601e-01	 4.4214029497e+00
 8.7060956914e-01	 5.6024185387e-01	 4.4496813457e+00
 8.6516856529e-01	 5.6860819685e-01	 4.4734074652e+00
 8.5964167202e-01	 5.7692988321e-01	 4.4920604184e+00
 8.5402942198e-01	 5.8520560864e-01	 4.5051250557e+00
 8.4833237391e-01	 5.9343407693e-01	 4.5124856605e+00
 8.4255111257e-01	 6.0161400060e-01	 4.5151603236e+00
 8.3668624855e-01	 6.0974410157e-01	 4.5130071299e+00
 8.3073841808e-01	 6.1782311177e-01	 4.5057778173e+00
 8.9396654463e-01	 5.3944648844e-01	 4.1520271972e+00
 8.8874199297e-01	 5.4801127884e-01	 4.1800979327e+00
 8.8342936772e-01	 5.5653502071e-01	 4.2048489084e+00
 8.7802912632e-01	 5.6501637808e-01	 4.2257633506e+00
 8.7254175284e-01	 5.7345402118e-01	 4.2423283551e+00
 8.6696775798e-01	 5.8184662707e-01	 4.2540356602e+00
 8.6130767891e-01	 5.9019288035e-01	 4.2604322792e+00
 8.5556207914e-01	 5.9849147375e-01	 4.2622722358e+00
 8.4973154842e-01	 6.0674110882e-01	 4.2597815751e+00
 8.4381670253e-01	 6.1494049658e-01	 4.2527179106e+00
 8.3781818312e-01	 6.2308835817e-01	 4.2408562291e+00
 9.0152072331e-01	 5.4400490865e-01	 3.9597927038e+00
 8.9625202324e-01	 5.5264207308e-01	 3.9805096568e+00
 8.9089450536e-01	 5.6123784211e-01	 3.9980936493e+00
 8.8544863094e-01	 5.6979086847e-01	 4.0120384259e+00
 8.7991488817e-01	 5.7829981118e-01	 4.0218414216e+00
 8.7429379204e-01	 5.8676333611e-01	 4.0270045090e+00
 8.6858588428e-01	 5.9518011673e-01	 4.0275928869e+00
 8.6279173315e-01	 6.0354883474e-01	 4.0242925598e+00
 8.5691193340e-01	 6.1186818072e-01	 4.0168877587e+00
 8.5094710599e-01	 6.2013685478e-01	 4.0051574574e+00
 8.4489789802e-01	 6.2835356728e-01	 3.9888981765e+00
 9.0907486346e-01	 5.4856330561e-01	 3.7760581501e+00
 9.0376201521e-01	 5.5727284370e-01	 3.7897966775e+00
 8.9835960492e-01	 5.6594063951e-01	 3.8006013959e+00
 8.9286809771e-01	 5.7456533452e-01	 3.8079739771e+00
 8.8728798588e-01	 5.8314557646e-01	 3.8114196829e+00
 8.8161978874e-01	 5.9168002007e-01	 3.8105655299e+00
 8.7586405253e-01	 6.0016732768e-01	 3.8060517414e+00
 8.7002135030e-01	 6.0860616994e-01	 3.7978757707e+00
 8.6409228175e-01	 6.1699522646e-01	 3.7858185212e+00
 8.5807747309e-01	 6.2533318649e-01	 3.7696785406e+00
 8.5197757680e-01	 6.3361874953e-01	 3.7492722162e+00
 9.1662898006e-01	 5.5312168836e-01	 3.6003067024e+00
 9.1127198378e-01	 5.6190359988e-01	 3.6074406991e+00
 9.0582468120e-01	 5.7064342226e-01	 3.6118546213e+00
 9.0028754136e-01	 5.7933978568e-01	 3.6130555422e+00
 8.9466106062e-01	 5.8799132664e-01	 3.6105541019e+00
 8.8894576260e-01	 5.9659668870e-01	 3.6044692926e+00
 8.8314219809e-01	 6.0515452308e-01	 3.5951468206e+00
 8.7725094490e-01	 6.1366348937e-01	 3.5823674934e+00
 8.7127260773e-01	 6.2212225623e-01	 3.5659296139e+00
 8.6520781796e-01	 6.3052950199e-01	 3.5456495640e+00
 8.5905723351e-01	 6.3888391537e-01	 3.5213619766e+00
 9.2418308810e-01	 5.5768006594e-01	 3.4320387082e+00
 9.1878194382e-01	 5.6653435081e-01	 3.4329406161e+00
 9.1328974903e-01	 5.7534619968e-01	 3.4313529328e+00
 9.0770697660e-01	 5.8411423142e-01	 3.4267856712e+00
 9.0203412699e-01	 5.9283707133e-01	 3.4188993904e+00
 8.9627172815e-01	 6.0151335176e-01	 3.4080874145e+00
 8.9042033540e-01	 6.1014171282e-01	 3.3942321778e+00
 8.8448053131e-01	 6.1872080308e-01	 3.3771291471e+00
 8.7845292556e-01	 6.2724928019e-01	 3.3565922171e+00
 8.7233815474e-01	 6.3572581161e-01	 3.3324539107e+00
 8.6613688220e-01	 6.4414907524e-01	 3.3045655293e+00
 9.3173720256e-01	 5.6223844740e-01	 3.2707706445e+00
 9.2629191025e-01	 5.7116510568e-01	 3.2658114507e+00
 9.2075482320e-01	 5.8004898109e-01	 3.2586120015e+00
 9.1512641814e-01	 5.8888868122e-01	 3.2486852538e+00
 9.0940719963e-01	 5.9768282013e-01	 3.2360504400e+00
 9.0359769993e-01	 6.0643001899e-01	 3.2207845319e+00
 8.9769847889e-01	 6.1512890680e-01	 3.2026772775e+00
 8.9171012387e-01	 6.2377812107e-01	 3.1815372948e+00
 8.8563324950e-01	 6.3237630850e-01	 3.1571923077e+00
 8.7946849759e-01	 6.4092212563e-01	 3.1294893303e+00
 8.7321653691e-01	 6.4941423958e-01	 3.0982947991e+00
 8.0241857555e-01	 5.9676154436e-01	 5.7082947719e+00
 7.9659301098e-01	 6.0451589078e-01	 5.7149731706e+00
 7.9068858747e-01	 6.1221844773e-01	 5.7148277489e+00
 7.8470599631e-01	 6.1986801809e-01	 5.7076896378e+00
 7.7864595270e-01	 6.2746341682e-01	 5.6934074328e+00
 7.7250919548e-01	 6.3500347160e-01	 5.6718473434e+00
 7.6629648686e-01	 6.4248702340e-01	 5.6428933067e+00
 7.6000861212e-01	 6.4991292707e-01	 5.6064470645e+00
 7.5364637927e-01	 6.5728005194e-01	 5.5624282052e+00
 7.4721061873e-01	 6.6458728233e-01	 5.5107741712e+00
 7.4070218296e-01	 6.7183351817e-01	 5.4514402309e+00
 8.0949868162e-01	 6.0202704437e-01	 5.3848787210e+00
 8.0362171543e-01	 6.0984981093e-01	 5.3865018885e+00
 7.9766519449e-01	 6.1762033107e-01	 5.3816535271e+00
 7.9162981619e-01	 6.2533739709e-01	 5.3701963275e+00
 7.8551630204e-01	 6.3299981350e-01	 5.3520100731e+00
 7.7932539740e-01	 6.4060639762e-01	 5.3269917371e+00
 7.7305787122e-01	 6.4815598022e-01	 5.2950555434e+00
 7.6671451568e-01	 6.5564740604e-01	 5.2561329914e+00
 7.6029614594e-01	 6.6307953443e-01	 5.2101728441e+00
 7.5380359974e-01	 6.7045123986e-01	 5.1571410815e+00
 7.4723773707e-01	 6.7776141254e-01	 5.0970208199e+00
 8.1657868137e-01	 6.0729246531e-01	 5.0771168069e+00
 8.1065031433e-01	 6.1518365099e-01	 5.0738301908e+00
 8.0464169675e-01	 6.2302213329e-01	 5.0644058457e+00
 7.9855353210e-01	 6.3080669396e-01	 5.0487375912e+00
 7.9238654822e-01	 6.3853612703e-01	 5.0267359641e+00
 7.8614149698e-01	 6.4620923952e-01	 4.9983282643e+00
 7.7981915404e-01	 6.5382485192e-01	 4.9634585630e+00
 7.7342031854e-01	 6.6138179891e-01	 4.9220876741e+00
 7.6694581276e-01	 6.6887892983e-01	 4.8741930891e+00
 7.6039648175e-01	 6.7631510933e-01	 4.8197688773e+00
 7.5377319304e-01	 6.8368921791e-01	 4.7588255502e+00
 8.2365858884e-01	 6.1255781763e-01	 4.7843101281e+00
 8.1767882162e-01	 6.2051742153e-01	 4.7762789764e+00
 8.1161810807e-01	 6.2842386512e-01	 4.7624253108e+00
 8.0547715777e-01	 6.3627591954e-01	 4.7426736661e+00
 7.9925670485e-01	 6.4407236842e-01	 4.7169649172e+00
 7.9295750771e-01	 6.5181200839e-01	 4.6852562725e+00
 7.8658034874e-01	 6.5949364974e-01	 4.6475212302e+00
 7.8012603401e-01	 6.6711611703e-01	 4.6037494959e+00
 7.7359539291e-01	 6.7467824964e-01	 4.5539468648e+00
 7.6698927784e-01	 6.8217890237e-01	 4.4981350669e+00
 7.6030856382e-01	 6.8961694601e-01	 4.4363515788e+00
 8.3073841808e-01	 6.1782311177e-01	 4.5057778173e+00
 8.2470725125e-01	 6.2585113314e-01	 4.4931864542e+00
 8.1859444231e-01	 6.3382553725e-01	 4.4750691153e+00
 8.1240070693e-01	 6.4174508470e-01	 4.4513806546e+00
 8.0612678556e-01	 6.4960854863e-01	 4.4220918871e+00
 7.9977344313e-01	 6.5741471535e-01	 4.3871895305e+00
 7.9334146873e-01	 6.6516238492e-01	 4.3466761084e+00
 7.8683167537e-01	 6.7285037179e-01	 4.3005698152e+00
 7.8024489958e-01	 6.8047750537e-01	 4.2489043441e+00
 7.7358200107e-01	 6.8804263062e-01	 4.1917286788e+00
 7.6684386240e-01	 6.9554460861e-01	 4.1291068509e+00
 8.3781818312e-01	 6.2308835817e-01	 4.2408562291e+00
 8.3173561715e-01	 6.3118479639e-01	 4.2239073618e+00
 8.2557071329e-01	 6.3922716041e-01	 4.2017102891e+00
 8.1932419332e-01	 6.4721420026e-01	 4.1742498049e+00
 8.1299680399e-01	 6.5514467864e-01	 4.1415262839e+00
 8.0658931674e-01	 6.6301737151e-01	 4.1035555711e+00
 8.0010252742e-01	 6.7083106870e-01	 4.0603688328e+00
 7.9353725594e-01	 6.7858457456e-01	 4.0120123677e+00
 7.8689434596e-01	 6.8627670852e-01	 3.9585473814e+00
 7.8017466452e-01	 6.9390630570e-01	 3.9000497239e+00
 7.7337910171e-01	 7.0147221747e-01	 3.8366095920e+00
 8.4489789802e-01	 6.2835356728e-01	 3.9888981765e+00
 8.3876393326e-01	 6.3651842186e-01	 3.9678122328e+00
 8.3254693485e-01	 6.4462874530e-01	 3.9417369966e+00
 8.2624763066e-01	 6.5268327709e-01	 3.9106868386e+00
 8.1986677375e-01	 6.6068076944e-01	 3.8746913291e+00
 8.1340514208e-01	 6.6861998798e-01	 3.8337950763e+00
 8.0686353822e-01	 6.7649971233e-01	 3.7880575239e+00
 8.0024278900e-01	 6.8431873672e-01	 3.7375527092e+00
 7.9354374523e-01	 6.9207587060e-01	 3.6823689833e+00
 7.8676728128e-01	 6.9976993924e-01	 3.6226086943e+00
 7.7991429473e-01	 7.0739978433e-01	 3.5583878350e+00
 8.5197757680e-01	 6.3361874953e-01	 3.7492722162e+00
 8.4579221352e-01	 6.4185202013e-01	 3.7242867101e+00
 8.3952312083e-01	 6.5003030265e-01	 3.6945518782e+00
 8.3317103268e-01	 6.5815232602e-01	 3.6601113198e+00
 8.2673670846e-01	 6.6621683200e-01	 3.6210234533e+00
 8.2022093265e-01	 6.7422257588e-01	 3.5773613024e+00
 8.1362451452e-01	 6.8216832704e-01	 3.5292122404e+00
 8.0694828787e-01	 6.9005286962e-01	 3.4766776952e+00
 8.0019311059e-01	 6.9787500309e-01	 3.4198728149e+00
 7.9335986441e-01	 7.0563354288e-01	 3.3589260968e+00
 7.8644945442e-01	 7.1332732096e-01	 3.2939789796e+00
 8.5905723351e-01	 6.3888391537e-01	 3.5213619766e+00
 8.5282047188e-01	 6.4718560177e-01	 3.4927309022e+00
 8.4649928506e-01	 6.5543184316e-01	 3.4595714335e+00
 8.4009441313e-01	 6.6362135790e-01	 3.4219560655e+00
 8.3360662177e-01	 6.7175287731e-01	 3.3799717328e+00
 8.2703670197e-01	 6.7982514632e-01	 3.3337195427e+00
 8.2038546976e-01	 6.8783692409e-01	 3.2833144675e+00
 8.1365376583e-01	 6.9578698465e-01	 3.2288849950e+00
 8.0684245523e-01	 7.0367411751e-01	 3.1705727401e+00
 7.9995242698e-01	 7.1149712824e-01	 3.1085320183e+00
 7.9298459374e-01	 7.1925483912e-01	 3.0429293833e+00
 8.6613688220e-01	 6.4414907524e-01	 3.3045655293e+00
 8.5984872227e-01	 6.5251917737e-01	 3.2725587802e+00
 8.5347544139e-01	 6.6083337755e-01	 3.2362254441e+00
 8.4701778573e-01	 6.6909038359e-01	 3.1956665938e+00
 8.4047652728e-01	 6.7728891634e-01	 3.1509973626e+00
 8.3385246357e-01	 6.8542771040e-01	 3.1023466260e+00
 8.2714641733e-01	 6.9350551471e-01	 3.0498566404e+00
 8.2035923619e-01	 7.0152109318e-01	 2.9936826398e+00
 8.1349179232e-01	 7.0947322535e-01	 2.9339923930e+00
 8.0654498209e-01	 7.1736070696e-01	 2.8709657215e+00
 7.9951972565e-01	 7.2518235056e-01	 2.8047939814e+00
 8.7321653691e-01	 6.4941423958e-01	 3.0982947991e+00
 8.6687697863e-01	 6.5785275749e-01	 3.0631976124e+00
 8.6045160364e-01	 6.6623491653e-01	 3.0239564334e+00
 8.5394116421e-01	 6.7455941392e-01	 2.9807006077e+00
 8.4734643864e-01	 6.8282496008e-01	 2.9335731650e+00
 8.4066823096e-01	 6.9103027925e-01	 2.8827304482e+00
 8.3390737064e-01	 6.9917411015e-01	 2.8283416990e+00
 8.2706471224e-01	 7.0725520659e-01	 2.7705886008e+00
 8.2014113507e-01	 7.1527233812e-01	 2.7096647801e+00
 8.1313754280e-01	 7.2322429065e-01	 2.6457752698e+00
 8.0605486311e-01	 7.3110986703e-01	 2.5791359340e+00
 7.4070218296e-01	 6.7183351817e-01	 5.4514402309e+00
 7.3412306872e-01	 6.7901646159e-01	 5.3839321886e+00
 7.2747306107e-01	 6.8613629255e-01	 5.3078531074e+00
 7.2075306414e-01	 6.9319197316e-01	 5.2233575430e+00
 7.1396400252e-01	 7.0018248325e-01	 5.1306102259e+00
 7.0710682082e-01	 7.0710682082e-01	 5.0297856953e+00
 7.0018248325e-01	 7.1396400252e-01	 4.9210679153e+00
 6.9319197316e-01	 7.2075306414e-01	 4.8046498779e+00
 6.8613629255e-01	 7.2747306107e-01	 4.6807331912e+00
 6.7901646159e-01	 7.3412306872e-01	 4.5495276581e+00
 6.7183351817e-01	 7.4070218296e-01	 4.4112508450e+00
 7.4723773707e-01	 6.7776141254e-01	 5.0970208199e+00
 7.4060057230e-01	 6.8500773437e-01	 5.0292621261e+00
 7.3389188859e-01	 6.9219038685e-01	 4.9533956198e+00
 7.2711259805e-01	 6.9930832296e-01	 4.8695785757e+00
 7.2026363343e-01	 7.0636051352e-01	 4.7779787400e+00
 7.1334594768e-01	 7.1334594768e-01	 4.6787739426e+00
 7.0636051352e-01	 7.2026363343e-01	 4.5721516931e+00
 6.9930832296e-01	 7.2711259805e-01	 4.4583087593e+00
 6.9219038685e-01	 7.3389188859e-01	 4.3374507336e+00
 6.8500773437e-01	 7.4060057230e-01	 4.2097915868e+00
 6.7776141254e-01	 7.4723773707e-01	 4.0755532130e+00
 7.5377319304e-01	 6.8368921791e-01	 4.7588255502e+00
 7.4707797860e-01	 6.9099891717e-01	 4.6907696308e+00
 7.4031061972e-01	 6.9824439023e-01	 4.6150709165e+00
 7.3347203646e-01	 7.0542458091e-01	 4.5318880333e+00
 7.2656316974e-01	 7.1253845101e-01	 4.4413902714e+00
 7.1958498085e-01	 7.1958498085e-01	 4.3437571787e+00
 7.1253845101e-01	 7.2656316974e-01	 4.2391781350e+00
 7.0542458091e-01	 7.3347203646e-01	 4.1278519109e+00
 6.9824439023e-01	 7.4031061972e-01	 4.0099862112e+00
 6.9099891717e-01	 7.4707797860e-01	 3.8857972078e+00
 6.8368921791e-01	 7.5377319304e-01	 3.7555090612e+00
 7.6030856382e-01	 6.8961694601e-01	 4.4363515788e+00
 7.5355530049e-01	 6.9699002189e-01	 4.3679703328e+00
 7.4672926719e-01	 7.0429831472e-01	 4.2924107057e+00
 7.3983139199e-01	 7.1154075915e-01	 4.2098313516e+00
 7.3286262395e-01	 7.1871630798e-01	 4.1204016802e+00
 7.2582393271e-01	 7.2582393271e-01	 4.0243014321e+00
 7.1871630798e-01	 7.3286262395e-01	 3.9217202340e+00
 7.1154075915e-01	 7.3983139199e-01	 3.8128571378e+00
 7.0429831472e-01	 7.4672926719e-01	 3.6979201445e+00
 6.9699002189e-01	 7.5355530049e-01	 3.5771257163e+00
 6.8961694601e-01	 7.6030856382e-01	 3.4506982776e+00
 7.6684386240e-01	 6.9554460861e-01	 4.1291068509e+00
 7.6003255079e-01	 7.0298106041e-01	 4.0603899582e+00
 7.5314784373e-01	 7.1035217231e-01	 3.9849561808e+00
 7.4619067724e-01	 7.1765686980e-01	 3.9029629209e+00
 7.3916200855e-01	 7.2489409669e-01	 3.8145783286e+00
 7.3206281563e-01	 7.3206281563e-01	 3.7199808593e+00
 7.2489409669e-01	 7.3916200855e-01	 3.6193588123e+00
 7.1765686980e-01	 7.4619067724e-01	 3.5129098512e+00
 7.1035217231e-01	 7.5314784373e-01	 3.4008405099e+00
 7.0298106041e-01	 7.6003255079e-01	 3.2833656852e+00
 6.9554460861e-01	 7.6684386240e-01	 3.1607081197e+00
 7.7337910171e-01	 7.0147221747e-01	 3.8366095920e+00
 7.6650974237e-01	 7.0897204461e-01	 3.7675638486e+00
 7.5956636207e-01	 7.1640597500e-01	 3.6922575637e+00
 7.5254990483e-01	 7.2377292499e-01	 3.6108456498e+00
 7.4546133604e-01	 7.3107182938e-01	 3.5234936615e+00
 7.3830164197e-01	 7.3830164197e-01	 3.4303773380e+00
 7.3107182938e-01	 7.4546133604e-01	 3.3316821250e+00
 7.2377292499e-01	 7.5254990483e-01	 3.2276026781e+00
 7.1640597500e-01	 7.5956636207e-01	 3.1183423522e+00
 7.0897204461e-01	 7.6650974237e-01	 3.0041126772e+00
 7.0147221747e-01	 7.7337910171e-01	 2.8851328232e+00
 7.7991429473e-01	 7.0739978433e-01	 3.5583878350e+00
 7.7298688807e-01	 7.1496298637e-01	 3.4890365145e+00
 7.6598483495e-01	 7.2245973482e-01	 3.4138736810e+00
 7.5890908738e-01	 7.2988893686e-01	 3.3330505594e+00
 7.5176061890e-01	 7.3724951831e-01	 3.2467288171e+00
 7.4454042413e-01	 7.4454042413e-01	 3.1550800905e+00
 7.3724951831e-01	 7.5176061890e-01	 3.0582854919e+00
 7.2988893686e-01	 7.5890908738e-01	 2.9565350986e+00
 7.2245973482e-01	 7.6598483495e-01	 2.8500274253e+00
 7.1496298637e-01	 7.7298688807e-01	 2.7389688852e+00
 7.0739978433e-01	 7.7991429473e-01	 2.6235732394e+00
 7.8644945442e-01	 7.1332732096e-01	 3.2939789796e+00
 7.7946400072e-01	 7.2095389757e-01	 3.2243612199e+00
 7.7240327509e-01	 7.2851346375e-01	 3.1493715693e+00
 7.6526823749e-01	 7.3600491754e-01	 3.0691564083e+00
 7.5805986963e-01	 7.4342717574e-01	 2.9838722662e+00
 7.5077917446e-01	 7.5077917446e-01	 2.8936853340e+00
 7.4342717574e-01	 7.5805986963e-01	 2.7987709574e+00
 7.3600491754e-01	 7.6526823749e-01	 2.6993131115e+00
 7.2851346375e-01	 7.7240327509e-01	 2.5955038596e+00
 7.2095389757e-01	 7.7946400072e-01	 2.4875427994e+00
 7.1332732096e-01	 7.8644945442e-01	 2.3756364992e+00
 7.9298459374e-01	 7.1925483912e-01	 3.0429293833e+00
 7.8594109319e-01	 7.2694479010e-01	 2.9730995963e+00
 7.7882169522e-01	 7.3456717382e-01	 2.8983261105e+00
 7.7162736778e-01	 7.4212087915e-01	 2.8187493439e+00
 7.6435910073e-01	 7.4960481390e-01	 2.7345194779e+00
 7.5701790534e-01	 7.5701790534e-01	 2.6457959583e+00
 7.4960481390e-01	 7.6435910073e-01	 2.5527469752e+00
 7.4212087915e-01	 7.7162736778e-01	 2.4555489247e+00
 7.3456717382e-01	 7.7882169522e-01	 2.3543858550e+00
 7.2694479010e-01	 7.8594109319e-01	 2.2494488996e+00
 7.1925483912e-01	 7.9298459374e-01	 2.1409357016e+00
 7.9951972565e-01	 7.2518235056e-01	 2.8047939814e+00
 7.9241817832e-01	 7.3293567584e-01	 2.7348212851e+00
 7.8524010808e-01	 7.4062087702e-01	 2.6603196932e+00
 7.7798649087e-01	 7.4823683383e-01	 2.5814225805e+00
 7.7065832468e-01	 7.5578244507e-01	 2.4982726109e+00
 7.6325662916e-01	 7.6325662916e-01	 2.4110212269e+00
 7.5578244507e-01	 7.7065832468e-01	 2.3198281177e+00
 7.4823683383e-01	 7.7798649087e-01	 2.2248606687e+00
 7.4062087702e-01	 7.8524010808e-01	 2.1262933967e+00
 7.3293567584e-01	 7.9241817832e-01	 2.0243073710e+00
 7.2518235056e-01	 7.9951972565e-01	 1.9190896267e+00
 8.0605486311e-01	 7.3110986703e-01	 2.5791359340e+00
 7.9889526895e-01	 7.3892656667e-01	 2.5091036062e+00
 7.9165852639e-01	 7.4667458537e-01	 2.4349418994e+00
 7.8434561935e-01	 7.5435279371e-01	 2.3567761018e+00
 7.7695755399e-01	 7.6196008148e-01	 2.2747402288e+00
 7.6949535827e-01	 7.6949535827e-01	 2.1889765026e+00
 7.6196008148e-01	 7.7695755399e-01	 2.0996348083e+00
 7.5435279371e-01	 7.8434561935e-01	 2.0068721341e+00
 7.4667458537e-01	 7.9165852639e-01	 1.9108519944e+00
 7.3892656667e-01	 7.9889526895e-01	 1.8117438419e+00
 7.3110986703e-01	 8.0605486311e-01	 1.7097224709e+00
 6.7183351817e-01	 7.4070218296e-01	 4.4112508450e+00
 6.6458728233e-01	 7.4721061873e-01	 4.2657659396e+00
 6.5728005194e-01	 7.5364637927e-01	 4.1129138203e+00
 6.4991292707e-01	 7.6000861212e-01	 3.9528185879e+00
 6.4248702340e-01	 7.6629648686e-01	 3.7856131153e+00
 6.3500347160e-01	 7.7250919548e-01	 3.6114387991e+00
 6.2746341682e-01	 7.7864595270e-01	 3.4304453091e+00
 6.1986801809e-01	 7.8470599631e-01	 3.2427903395e+00
 6.1221844773e-01	 7.9068858747e-01	 3.0486393622e+00
 6.0451589078e-01	 7.9659301098e-01	 2.8481653834e+00
 5.9676154436e-01	 8.0241857555e-01	 2.6415487072e+00
 6.7776141254e-01	 7.4723773707e-01	 4.0755532130e+00
 6.7045123986e-01	 7.5380359974e-01	 3.9346169493e+00
 6.6307953443e-01	 7.6029614594e-01	 3.7868571236e+00
 6.5564740604e-01	 7.6671451568e-01	 3.6324255371e+00
 6.4815598022e-01	 7.7305787122e-01	 3.4714802336e+00
 6.4060639762e-01	 7.7932539740e-01	 3.3041852039e+00
 6.3299981350e-01	 7.8551630204e-01	 3.1307100921e+00
 6.2533739709e-01	 7.9162981619e-01	 2.9512299074e+00
 6.1762033107e-01	 7.9766519449e-01	 2.7659247424e+00
 6.0984981093e-01	 8.0362171543e-01	 2.5749794997e+00
 6.0202704437e-01	 8.0949868162e-01	 2.3785836288e+00
 6.8368921791e-01	 7.5377319304e-01	 3.7555090612e+00
 6.7631510933e-01	 7.6039648175e-01	 3.6189926969e+00
 6.6887892983e-01	 7.6694581276e-01	 3.4761274917e+00
 6.6138179891e-01	 7.7342031854e-01	 3.3270912725e+00
 6.5382485192e-01	 7.7981915404e-01	 3.1720659293e+00
 6.4620923952e-01	 7.8614149698e-01	 3.0112370712e+00
 6.3853612703e-01	 7.9238654822e-01	 2.8447936897e+00
 6.3080669396e-01	 7.9855353210e-01	 2.6729278292e+00
 6.2302213329e-01	 8.0464169675e-01	 2.4958342699e+00
 6.1518365099e-01	 8.1065031433e-01	 2.3137102209e+00
 6.0729246531e-01	 8.1657868137e-01	 2.1267550291e+00
 6.8961694601e-01	 7.6030856382e-01	 3.4506982776e+00
 6.8217890237e-01	 7.6698927784e-01	 3.3184750315e+00
 6.7467824964e-01	 7.7359539291e-01	 3.1803172510e+00
 6.6711611703e-01	 7.8012603401e-01	 3.0364271634e+00
 6.5949364974e-01	 7.8658034874e-01	 2.8870092222e+00
 6.5181200839e-01	 7.9295750771e-01	 2.7322697155e+00
 6.4407236842e-01	 7.9925670485e-01	 2.5724163846e+00
 6.3627591954e-01	 8.0547715777e-01	 2.4076580532e+00
 6.2842386512e-01	 8.1161810807e-01	 2.2382042720e+00
 6.2051742153e-01	 8.1767882162e-01	 2.0642649775e+00
 6.1255781763e-01	 8.2365858884e-01	 1.8860501691e+00
 6.9554460861e-01	 7.6684386240e-01	 3.1607081197e+00
 6.8804263062e-01	 7.7358200107e-01	 3.0326530555e+00
 6.8047750537e-01	 7.8024489958e-01	 2.8990255786e+00
 6.7285037179e-01	 7.8683167537e-01	 2.7600507388e+00
 6.6516238492e-01	 7.9334146873e-01	 2.6159543123e+00
 6.5741471535e-01	 7.9977344313e-01	 2.4669623621e+00
 6.4960854863e-01	 8.0612678556e-01	 2.3133008112e+00
 6.4174508470e-01	 8.1240070693e-01	 2.1551950294e+00
 6.3382553725e-01	 8.1859444231e-01	 1.9928694375e+00
 6.2585113314e-01	 8.2470725125e-01	 1.8265471301e+00
 6.1782311177e-01	 8.3073841808e-01	 1.6564495188e+00
 7.0147221747e-01	 7.7337910171e-01	 2.8851328232e+00
 6.9390630570e-01	 7.8017466452e-01	 2.7611227343e+00
 6.8627670852e-01	 7.8689434596e-01	 2.6318581246e+00
 6.7858457456e-01	 7.9353725594e-01	 2.4975853350e+00
 6.7083106870e-01	 8.0010252742e-01	 2.3585502644e+00
 6.6301737151e-01	 8.0658931674e-01	 2.2149978813e+00
 6.5514467864e-01	 8.1299680399e-01	 2.0671717510e+00
 6.4721420026e-01	 8.1932419332e-01	 1.9153135786e+00
 6.3922716041e-01	 8.2557071329e-01	 1.7596627716e+00
 6.3118479639e-01	 8.3173561715e-01	 1.6004560235e+00
 6.2308835817e-01	 8.3781818312e-01	 1.4379269216e+00
 7.0739978433e-01	 7.7991429473e-01	 2.6235732394e+00
 6.9976993924e-01	 7.8676728128e-01	 2.5034865347e+00
 6.9207587060e-01	 7.9354374523e-01	 2.3784266626e+00
 6.8431873672e-01	 8.0024278900e-01	 2.2486597699e+00
 6.7649971233e-01	 8.0686353822e-01	 2.1144507176e+00
 6.6861998798e-01	 8.1340514208e-01	 1.9760625445e+00
 6.6068076944e-01	 8.1986677375e-01	 1.8337559471e+00
 6.5268327709e-01	 8.2624763066e-01	 1.6877887773e+00
 6.4462874530e-01	 8.3254693485e-01	 1.5384155619e+00
 6.3651842186e-01	 8.3876393326e-01	 1.3858870454e+00
 6.2835356728e-01	 8.4489789802e-01	 1.2304497584e+00
 7.1332732096e-01	 7.8644945442e-01	 2.3756364992e+00
 7.0563354288e-01	 7.9335986441e-01	 2.2593530890e+00
 6.9787500309e-01	 8.0019311059e-01	 2.1383487661e+00
 6.9005286962e-01	 8.0694828787e-01	 2.0129080414e+00
 6.8216832704e-01	 8.1362451452e-01	 1.8833136170e+00
 6.7422257588e-01	 8.2022093265e-01	 1.7498458002e+00
 6.6621683200e-01	 8.2673670846e-01	 1.6127819351e+00
 6.5815232602e-01	 8.3317103268e-01	 1.4723958544e+00
 6.5003030265e-01	 8.3952312083e-01	 1.3289573532e+00
 6.4185202013e-01	 8.4579221352e-01	 1.1827316892e+00
 6.3361874953e-01	 8.5197757680e-01	 1.0339791094e+00
 7.1925483912e-01	 7.9298459374e-01	 2.1409357016e+00
 7.1149712824e-01	 7.9995242698e-01	 2.0283368853e+00
 7.0367411751e-01	 8.0684245523e-01	 1.9112475084e+00
 6.9578698465e-01	 8.1365376583e-01	 1.7899690489e+00
 6.8783692409e-01	 8.2038546976e-01	 1.6648009668e+00
 6.7982514632e-01	 8.2703670197e-01	 1.5360400688e+00
 6.7175287731e-01	 8.3360662177e-01	 1.4039798908e+00
 6.6362135790e-01	 8.4009441313e-01	 1.2689101018e+00
 6.5543184316e-01	 8.4649928506e-01	 1.1311159310e+00
 6.4718560177e-01	 8.5282047188e-01	 9.9087762192e-01
 6.3888391537e-01	 8.5905723351e-01	 8.4846991631e-01
 7.2518235056e-01	 7.9951972565e-01	 1.9190896267e+00
 7.1736070696e-01	 8.0654498209e-01	 1.8100579796e+00
 7.0947322535e-01	 8.1349179232e-01	 1.6967511863e+00
 7.0152109318e-01	 8.2035923619e-01	 1.5794863366e+00
 6.9350551471e-01	 8.2714641733e-01	 1.4585786033e+00
 6.8542771040e-01	 8.3385246357e-01	 1.3343405557e+00
 6.7728891634e-01	 8.4047652728e-01	 1.2070814925e+00
 6.6909038359e-01	 8.4701778573e-01	 1.0771067965e+00
 6.6083337755e-01	 8.5347544139e-01	 9.4471731261e-01
 6.5251917737e-01	 8.5984872227e-01	 8.1020875473e-01
 6.4414907524e-01	 8.6613688220e-01	 6.7387114246e-01
 7.3110986703e-01	 8.0605486311e-01	 1.7097224709e+00
 7.2322429065e-01	 8.1313754280e-01	 1.6041417323e+00
 7.1527233812e-01	 8.2014113507e-01	 1.4944930648e+00
 7.0725520659e-01	 8.2706471224e-01	 1.3811078576e+00
 6.9917411015e-01	 8.3390737064e-01	 1.2643159872e+00
 6.9103027925e-01	 8.4066823096e-01	 1.1444450808e+00
 6.8282496008e-01	 8.4734643864e-01	 1.0218197979e+00
 6.7455941392e-01	 8.5394116421e-01	 8.9676113371e-01
 6.6623491653e-01	 8.6045160364e-01	 7.6958574739e-01
 6.5785275749e-01	 8.6687697863e-01	 6.4060531820e-01
 6.4941423958e-01	 8.7321653691e-01	 5.1012593316e-01
 5.9676154436e-01	 8.0241857555e-01	 2.6415487072e+00
 5.8895794732e-01	 8.0816364470e-01	 2.4280405442e+00
 5.8110500120e-01	 8.1382857572e-01	 2.2081569552e+00
 5.7320393083e-01	 8.1941275406e-01	 1.9839496025e+00
 5.6525597072e-01	 8.2491558997e-01	 1.7554849655e+00
 5.5726236447e-01	 8.3033651862e-01	 1.5228108072e+00
 5.4922436409e-01	 8.3567500029e-01	 1.2859719543e+00
 5.4114322943e-01	 8.4093052051e-01	 1.0450104934e+00
 5.3302022751e-01	 8.4610259018e-01	 7.9996599377e-01
 5.2485663194e-01	 8.5119074566e-01	 5.5087575720e-01
 5.1665372221e-01	 8.5619454885e-01	 2.9777509147e-01
 6.0202704437e-01	 8.0949868162e-01	 2.3785836288e+00
 5.9415459263e-01	 8.1529444214e-01	 2.1759158970e+00
 5.8623235637e-01	 8.2100935744e-01	 1.9661356845e+00
 5.7826157124e-01	 8.2664280754e-01	 1.7516646745e+00
 5.7024348265e-01	 8.3219419749e-01	 1.5334921489e+00
 5.6217934515e-01	 8.3766295747e-01	 1.3116366980e+00
 5.5407042182e-01	 8.4304854300e-01	 1.0861155491e+00
 5.4591798361e-01	 8.4835043509e-01	 8.5694478805e-01
 5.3772330874e-01	 8.5356814030e-01	 6.2413960722e-01
 5.2948768203e-01	 8.5870119090e-01	 3.8771457795e-01
 5.2121239428e-01	 8.6374914493e-01	 1.4768394635e-01
 6.0729246531e-01	 8.1657868137e-01	 2.1267550291e+00
 5.9935115990e-01	 8.2242513250e-01	 1.9341219624e+00
 5.9135963455e-01	 8.2819003132e-01	 1.7348192704e+00
 5.8331913571e-01	 8.3387275245e-01	 1.5295594237e+00
 5.7523091968e-01	 8.3947269570e-01	 1.3209170327e+00
 5.6709625200e-01	 8.4498928630e-01	 1.1091508126e+00
 5.5891640678e-01	 8.5042197499e-01	 8.9425212187e-01
 5.5069266610e-01	 8.5577023824e-01	 6.7621232845e-01
 5.4242631935e-01	 8.6103357830e-01	 4.5502308407e-01
 5.3411866258e-01	 8.6621152335e-01	 2.3067662301e-01
 5.2577099790e-01	 8.7130362757e-01	 3.1660832544e-03
 6.1255781763e-01	 8.2365858884e-01	 1.8860501691e+00
 6.0454765944e-01	 8.2955572993e-01	 1.7027253519e+00
 5.9648684590e-01	 8.3537061162e-01	 1.5132917090e+00
 5.8837663426e-01	 8.4110260312e-01	 1.3178066553e+00
 5.8021829172e-01	 8.4675109905e-01	 1.1179829782e+00
 5.7201309477e-01	 8.5231551964e-01	 9.1561649465e-01
 5.6376232859e-01	 8.5779531088e-01	 7.1067516359e-01
 5.5546728636e-01	 8.6318994468e-01	 5.0312688596e-01
 5.4712926866e-01	 8.6849891900e-01	 2.9294058488e-01
 5.3874958278e-01	 8.7372175792e-01	 8.0086533165e-02
 5.3032954210e-01	 8.7885801174e-01	-1.3546329667e-01
 6.1782311177e-01	 8.3073841808e-01	 1.6564495188e+00
 6.0974410157e-01	 8.3668624855e-01	 1.4817831893e+00
 6.0161400060e-01	 8.4255111257e-01	 1.3015724714e+00
 5.9343407693e-01	 8.4833237391e-01	 1.1158539242e+00
 5.8520560864e-01	 8.5402942198e-01	 9.2489898018e-01
 5.7692988321e-01	 8.5964167202e-01	 7.3128150190e-01
 5.6860819685e-01	 8.6516856529e-01	 5.3566170958e-01
 5.6024185387e-01	 8.7060956914e-01	 3.3798525728e-01
 5.5183216601e-01	 8.7596417721e-01	 1.3819912706e-01
 5.4338045181e-01	 8.8123190949e-01	-6.3748011914e-02
 5.3488803594e-01	 8.8641231243e-01	-2.6790542108e-01
 6.2308835817e-01	 8.3781818312e-01	 1.4379269216e+00
 6.1494049658e-01	 8.4381670253e-01	 1.2713433847e+00
 6.0674110882e-01	 8.4973154842e-01	 1.0997745028e+00
 5.9849147375e-01	 8.5556207914e-01	 9.2323900085e-01
 5.9019288035e-01	 8.6130767891e-01	 7.4175854738e-01
 5.8184662707e-01	 8.6696775798e-01	 5.5637828109e-01
 5.7345402118e-01	 8.7254175284e-01	 3.6947265792e-01
 5.6501637808e-01	 8.7802912632e-01	 1.8106761139e-01
 5.5653502071e-01	 8.8342936772e-01	-8.9110540041e-03
 5.4801127884e-01	 8.8874199297e-01	-2.0053593269e-01
 5.3944648844e-01	 8.9396654463e-01	-3.9387760007e-01
 6.2835356728e-01	 8.4489789802e-01	 1.2304497584e+00
 6.2013685478e-01	 8.5094710599e-01	 1.0714449016e+00
 6.1186818072e-01	 8.5691193340e-01	 9.0799962889e-01
 6.0354883474e-01	 8.6279173315e-01	 7.4011780882e-01
 5.9518011673e-01	 8.6858588428e-01	 5.6780572782e-01
 5.8676333611e-01	 8.7429379204e-01	 3.9112422131e-01
 5.7829981118e-01	 8.7991488817e-01	 2.1235306352e-01
 5.6979086847e-01	 8.8544863094e-01	 3.2637810964e-02
 5.6123784211e-01	 8.9089450536e-01	-1.4811616988e-01
 5.5264207308e-01	 8.9625202324e-01	-3.3000241487e-01
 5.4400490865e-01	 9.0152072331e-01	-5.1311290513e-01
 6.3361874953e-01	 8.5197757680e-01	 1.0339791094e+00
 6.2533318649e-01	 8.5807747309e-01	 8.8211801799e-01
 6.1699522646e-01	 8.6409228175e-01	 7.2633890321e-01
 6.0860616994e-01	 8.7002135030e-01	 5.6663371199e-01
 6.0016732768e-01	 8.7586405253e-01	 4.0299587348e-01
 5.9168002007e-01	 8.8161978874e-01	 2.3542026763e-01
 5.8314557646e-01	 8.8728798588e-01	 6.4532409375e-02
 5.7456533452e-01	 8.9286809771e-01	-1.0705629041e-01
 5.6594063951e-01	 8.9835960492e-01	-2.7915856888e-01
 5.5727284370e-01	 9.0376201521e-01	-4.5188859905e-01
 5.4856330561e-01	 9.0907486346e-01	-6.2535987165e-01
 6.3888391537e-01	 8.5905723351e-01	 8.4846991631e-01
 6.3052950199e-01	 8.6520781796e-01	 7.0338458173e-01
 6.2212225623e-01	 8.7127260773e-01	 5.5487294273e-01
 6.1366348937e-01	 8.7725094490e-01	 4.0291791937e-01
 6.0515452308e-01	 8.8314219809e-01	 2.4750257366e-01
 5.9659668870e-01	 8.8894576260e-01	 8.8610082932e-02
 5.8799132664e-01	 8.9466106062e-01	-7.3775143839e-02
 5.7933978568e-01	 9.0028754136e-01	-2.3778257372e-01
 5.7064342226e-01	 9.0582468120e-01	-4.0179644896e-01
 5.6190359988e-01	 9.1127198378e-01	-5.6595129349e-01
 5.5312168836e-01	 9.1662898006e-01	-7.3038222395e-01
 6.4414907524e-01	 8.6613688220e-01	 6.7387114246e-01
 6.3572581161e-01	 8.7233815474e-01	 5.3525825946e-01
 6.2724928019e-01	 8.7845292556e-01	 3.9367225447e-01
 6.1872080308e-01	 8.8448053131e-01	 2.4908987683e-01
 6.1014171282e-01	 8.9042033540e-01	 1.0148627870e-01
 6.0151335176e-01	 8.9627172815e-01	-4.9165007839e-02
 5.9283707133e-01	 9.0203412699e-01	-2.0289206045e-01
 5.8411423142e-01	 9.0770697660e-01	-3.5932440152e-01
 5.7534619968e-01	 9.1328974903e-01	-5.1580359271e-01
 5.6653435081e-01	 9.1878194382e-01	-6.7196270879e-01
 5.5768006594e-01	 9.2418308810e-01	-8.2795862131e-01
 6.4941423958e-01	 8.7321653691e-01	 5.1012593316e-01
 6.4092212563e-01	 8.7946849759e-01	 3.7774478085e-01
 6.3237630850e-01	 8.8563324950e-01	 2.4279755260e-01
 6.2377812107e-01	 8.9171012387e-01	 1.0525764614e-01
 6.1512890680e-01	 8.9769847889e-01	-3.4905270215e-02
 6.0643001899e-01	 9.0359769993e-01	-1.7772527806e-01
 5.9768282013e-01	 9.0940719963e-01	-3.2324019192e-01
 5.8888868122e-01	 9.1512641814e-01	-4.7149150376e-01
 5.8004898109e-01	 9.2075482320e-01	-6.2096912302e-01
 5.7116510568e-01	 9.2629191025e-01	-7.6971021310e-01
 5.6223844740e-01	 9.3173720256e-01	-9.1788242396e-01
 5.1665372221e-01	 8.5619454885e-01	 2.9777509147e-01
 5.0841278331e-01	 8.6111358749e-01	 4.1185794868e-02
 5.0013510550e-01	 8.6594747579e-01	-2.1813935659e-01
 4.9182198323e-01	 8.7069585389e-01	-4.7982690257e-01
 4.8347471433e-01	 8.7535838762e-01	-7.4351277583e-01
 4.7509459936e-01	 8.7993476851e-01	-1.0088423599e+00
 4.6668294105e-01	 8.8442471375e-01	-1.2754705167e+00
 4.5824104362e-01	 8.8882796619e-01	-1.5430615852e+00
 4.4977021217e-01	 8.9314429419e-01	-1.8112893542e+00
 4.4127175214e-01	 8.9737349163e-01	-2.0798370089e+00
 4.3274696861e-01	 9.0151537777e-01	-2.3483970553e+00
 5.2121239428e-01	 8.6374914493e-01	 1.4768394635e-01
 5.1289874181e-01	 8.6871158650e-01	-9.5535509553e-02
 5.0454802626e-01	 8.7358812641e-01	-3.4130338918e-01
 4.9616155352e-01	 8.7837840162e-01	-5.8927745885e-01
 4.8774063285e-01	 8.8308207502e-01	-8.3912536518e-01
 4.7928657630e-01	 8.8769883541e-01	-1.0905246403e+00
 4.7080069808e-01	 8.9222839749e-01	-1.3431626759e+00
 4.6228431392e-01	 8.9667050184e-01	-1.5967366680e+00
 4.5373874046e-01	 9.0102491477e-01	-1.8509535343e+00
 4.4516529463e-01	 9.0529142836e-01	-2.1055298059e+00
 4.3656529304e-01	 9.0946986025e-01	-2.3601914955e+00
 5.2577099790e-01	 8.7130362757e-01	 3.1660832544e-03
 5.1738463294e-01	 8.7630947141e-01	-2.2722128420e-01
 5.0896088076e-01	 8.8122866229e-01	-4.5998062176e-01
 5.0050105864e-01	 8.8606083398e-01	-6.9479919275e-01
 4.9200648731e-01	 8.9080564643e-01	-9.3137450382e-01
 4.8347849028e-01	 8.9546278571e-01	-1.1694142610e+00
 4.7491839327e-01	 9.0003196405e-01	-1.4086362933e+00
 4.6632752351e-01	 9.0451291972e-01	-1.6487684468e+00
 4.5770720916e-01	 9.0890541702e-01	-1.8895484501e+00
 4.4905877865e-01	 9.1320924619e-01	-2.1307237546e+00
 4.4038356013e-01	 9.1742422329e-01	-2.3720513504e+00
 5.3032954210e-01	 8.7885801174e-01	-1.3546329667e-01
 5.2187046562e-01	 8.8390725729e-01	-3.5356883724e-01
 5.1337367775e-01	 8.8886909858e-01	-5.7387713765e-01
 5.0484050721e-01	 8.9374316621e-01	-7.9610330570e-01
 4.9627228617e-01	 8.9852911717e-01	-1.0199729344e+00
 4.8767034963e-01	 9.0322663483e-01	-1.2452220116e+00
 4.7903603480e-01	 9.0783542889e-01	-1.4715967966e+00
 4.7037068041e-01	 9.1235523538e-01	-1.6988536662e+00
 4.6167562613e-01	 9.1678581655e-01	-1.9267589320e+00
 4.5295221193e-01	 9.2112696081e-01	-2.1550886323e+00
 4.4420177745e-01	 9.2537848265e-01	-2.3836282991e+00
 5.3488803594e-01	 8.8641231243e-01	-2.6790542108e-01
 5.2635624872e-01	 8.9150495921e-01	-4.7429125734e-01
 5.1778642597e-01	 8.9650945044e-01	-6.8271426895e-01
 5.0917990782e-01	 9.0142541355e-01	-8.9291583118e-01
 5.0053803789e-01	 9.0625250257e-01	-1.1046479278e+00
 4.9186216266e-01	 9.1099039814e-01	-1.3176730172e+00
 4.8315363082e-01	 9.1563880750e-01	-1.5317638650e+00
 4.7441379262e-01	 9.2019746438e-01	-1.7467033450e+00
 4.6564399924e-01	 9.2466612900e-01	-1.9622842120e+00
 4.5684560217e-01	 9.2904458795e-01	-2.1783088478e+00
 4.4801995257e-01	 9.3333265411e-01	-2.3945889830e+00
 5.3944648844e-01	 8.9396654463e-01	-3.9387760007e-01
 5.3084199115e-01	 8.9910259224e-01	-5.8911708647e-01
 5.2219913419e-01	 9.0414973303e-01	-7.8622828339e-01
 5.1351926909e-01	 9.0910759122e-01	-9.8497733018e-01
 5.0480375093e-01	 9.1397581793e-01	-1.1851409821e+00
 4.9605393768e-01	 9.1875409106e-01	-1.3865064358e+00
 4.8727118950e-01	 9.2344211535e-01	-1.5888711204e+00
 4.7845686817e-01	 9.2803962227e-01	-1.7920424571e+00
 4.6961233637e-01	 9.3254636999e-01	-1.9958375896e+00
 4.6073895712e-01	 9.3696214329e-01	-2.2000830875e+00
 4.5183809307e-01	 9.4128675344e-01	-2.4046146270e+00
 5.4400490865e-01	 9.0152072331e-01	-5.1311290513e-01
 5.3532770181e-01	 9.0670017145e-01	-6.9779001690e-01
 5.2661181114e-01	 9.1178996149e-01	-8.8417009429e-01
 5.1785859961e-01	 9.1678971448e-01	-1.0720426094e+00
 5.0906943376e-01	 9.2169907858e-01	-1.2612075443e+00
 5.0024568300e-01	 9.2651772899e-01	-1.4514751786e+00
 4.9138871902e-01	 9.3124536793e-01	-1.6426658421e+00
 4.8249991508e-01	 9.3588172461e-01	-1.8346096351e+00
 4.7358064539e-01	 9.4042655516e-01	-2.0271461196e+00
 4.6463228448e-01	 9.4487964254e-01	-2.2201239843e+00
 4.5565620653e-01	 9.4924079643e-01	-2.4134006851e+00
 5.4856330561e-01	 9.0907486346e-01	-6.2535987165e-01
 5.3981338958e-01	 9.1429771191e-01	-8.0006861081e-01
 5.3102446559e-01	 9.1943015098e-01	-9.7630499246e-01
 5.2219790801e-01	 9.2447179856e-01	-1.1538804605e+00
 5.1333509482e-01	 9.2942229984e-01	-1.3326167524e+00
 5.0443740694e-01	 9.3428132731e-01	-1.5123456510e+00
 4.9550622753e-01	 9.3904858070e-01	-1.6929087012e+00
 4.8654294136e-01	 9.4372378695e-01	-1.8741568945e+00
 4.7754893417e-01	 9.4830670014e-01	-2.0559503234e+00
 4.6852559198e-01	 9.5279710140e-01	-2.2381578099e+00
 4.5947430050e-01	 9.5719479885e-01	-2.4206565103e+00
 5.5312168836e-01	 9.1662898006e-01	-7.3038222395e-01
 5.4429906338e-01	 9.2189522869e-01	-8.9572604126e-01
 5.3543710628e-01	 9.2707031665e-01	-1.0624123987e+00
 5.2653720287e-01	 9.3215385868e-01	-1.2302734201e+00
 5.1760074259e-01	 9.3714549703e-01	-1.3991511982e+00
 5.0862911782e-01	 9.4204490143e-01	-1.5688975131e+00
 4.9962372321e-01	 9.4685176915e-01	-1.7393735160e+00
 4.9058595505e-01	 9.5156582484e-01	-1.9104493798e+00
 4.8151721057e-01	 9.5618682055e-01	-2.0820039196e+00
 4.7241888735e-01	 9.6071453559e-01	-2.2539241882e+00
 4.6329238258e-01	 9.6514877647e-01	-2.4261050465e+00
 5.5768006594e-01	 9.2418308810e-01	-8.2795862131e-01
 5.4878473208e-01	 9.2949273685e-01	-9.8454985345e-01
 5.3984974197e-01	 9.3471047367e-01	-1.1422856359e+00
 5.3087649282e-01	 9.3983591010e-01	-1.3010175480e+00
 5.2186638553e-01	 9.4486868545e-01	-1.4606067076e+00
 5.1282082394e-01	 9.4980846675e-01	-1.6209234591e+00
 5.0374121422e-01	 9.5465494875e-01	-1.7818470254e+00
 4.9462896414e-01	 9.5940785384e-01	-1.9432651278e+00
 4.8548548248e-01	 9.6406693203e-01	-2.1050735753e+00
 4.7631217830e-01	 9.6863196080e-01	-2.2671758290e+00
 4.6711046032e-01	 9.7310274507e-01	-2.4294825420e+00
 5.6223844740e-01	 9.3173720256e-01	-9.1788242396e-01
 5.5327040460e-01	 9.3709025147e-01	-1.0663417449e+00
 5.4426238140e-01	 9.4235063717e-01	-1.2157317190e+00
 5.3521578645e-01	 9.4751796805e-01	-1.3659222233e+00
 5.2613203208e-01	 9.5259188044e-01	-1.5167921397e+00
 5.1701253362e-01	 9.5757203867e-01	-1.6682290141e+00
 5.0785870872e-01	 9.6245813498e-01	-1.8201286802e+00
 4.9867197668e-01	 9.6724988951e-01	-1.9723948500e+00
 4.8945375776e-01	 9.7194705020e-01	-2.1249386750e+00
 4.8020547255e-01	 9.7654939274e-01	-2.2776782814e+00
 4.7092854131e-01	 9.8105672044e-01	-2.4305382825e+00
 4.3274696861e-01	 9.0151537777e-01	-2.3483970553e+00
 4.2419571008e-01	 9.0557047888e-01	-2.6166563160e+00
 4.1562072663e-01	 9.0953795245e-01	-2.8842633082e+00
 4.0702331907e-01	 9.1341769248e-01	-3.1509983489e+00
 3.9840478557e-01	 9.1720961780e-01	-3.4166435375e+00
 3.8976642107e-01	 9.2091367195e-01	-3.6809826331e+00
 3.8110951670e-01	 9.2452982293e-01	-3.9438009279e+00
 3.7243535926e-01	 9.2805806304e-01	-4.2048851213e+00
 3.6374523066e-01	 9.3149840861e-01	-4.4640231928e+00
 3.5504040738e-01	 9.3485089983e-01	-4.7210042783e+00
 3.4632215993e-01	 9.3811560045e-01	-4.9756185492e+00
 4.3656529304e-01	 9.0946986025e-01	-2.3601914955e+00
 4.2793858285e-01	 9.1356074138e-01	-2.6145761793e+00
 4.1928793839e-01	 9.1756322178e-01	-2.8682618593e+00
 4.1061467198e-01	 9.2147719453e-01	-3.1210247678e+00
 4.0192009321e-01	 9.2530257775e-01	-3.3726446169e+00
 3.9320550847e-01	 9.2903931446e-01	-3.6229044502e+00
 3.8447222027e-01	 9.3268737239e-01	-3.8715904882e+00
 3.7572152678e-01	 9.3624674377e-01	-4.1184919714e+00
 3.6695472120e-01	 9.3971744509e-01	-4.3634010019e+00
 3.5817309127e-01	 9.4309951687e-01	-4.6061123858e+00
 3.4937791874e-01	 9.4639302343e-01	-4.8464234772e+00
 4.4038356013e-01	 9.1742422329e-01	-2.3720513504e+00
 4.3168139940e-01	 9.2155088388e-01	-2.6131342364e+00
 4.2295509508e-01	 9.2558837060e-01	-2.8534982796e+00
 4.1420597095e-01	 9.2953657555e-01	-3.0929186124e+00
 4.0543534806e-01	 9.3339541616e-01	-3.3311751984e+00
 3.9664454422e-01	 9.3716483494e-01	-3.5680526565e+00
 3.8783487335e-01	 9.4084479935e-01	-3.8033400791e+00
 3.7900764494e-01	 9.4443530154e-01	-4.0368308454e+00
 3.7016416353e-01	 9.4793635814e-01	-4.2683224330e+00
 3.6130572813e-01	 9.5134801004e-01	-4.4976162275e+00
 3.5243363166e-01	 9.5467032212e-01	-4.7245173343e+00
 4.4420177745e-01	 9.2537848265e-01	-2.3836282991e+00
 4.3542416717e-01	 9.2954092225e-01	-2.6119584374e+00
 4.2662220398e-01	 9.3361341482e-01	-2.8395684817e+00
 4.1779722311e-01	 9.3759585153e-01	-3.0662354054e+00
 4.0895055710e-01	 9.4148814909e-01	-3.2917420226e+00
 4.0008353515e-01	 9.4529024952e-01	-3.5158767858e+00
 3.9119748259e-01	 9.4900211999e-01	-3.7384335767e+00
 3.8229372027e-01	 9.5262375257e-01	-3.9592114908e+00
 3.7337356404e-01	 9.5615516407e-01	-4.1780146191e+00
 3.6443832415e-01	 9.5959639570e-01	-4.3946518280e+00
 3.5548930476e-01	 9.6294751292e-01	-4.6089365399e+00
 4.4801995257e-01	 9.3333265411e-01	-2.3945889830e+00
 4.3916689358e-01	 9.3753087232e-01	-2.6106922145e+00
 4.3028927234e-01	 9.4163837035e-01	-2.8260846623e+00
 4.2138843558e-01	 9.4565503845e-01	-3.0405480387e+00
 4.1246572728e-01	 9.4958079259e-01	-3.2538705710e+00
 4.0352248808e-01	 9.5341557431e-01	-3.4658467734e+00
 3.9456005467e-01	 9.5715935048e-01	-3.6762772096e+00
 3.8557975929e-01	 9.6081211312e-01	-3.8849682498e+00
 3.7658292907e-01	 9.6437387917e-01	-4.0917318240e+00
 3.6757088555e-01	 9.6784469021e-01	-4.2963851731e+00
 3.5854494408e-01	 9.7122461225e-01	-4.4987506006e+00
 4.5183809307e-01	 9.4128675344e-01	-2.4046146270e+00
 4.4290958605e-01	 9.4552074994e-01	-2.6089940704e+00
 4.3395630746e-01	 9.4966325312e-01	-2.8126748455e+00
 4.2497961549e-01	 9.5371415229e-01	-3.0154462605e+00
 4.1598086559e-01	 9.5767336271e-01	-3.2171044850e+00
 4.0696140982e-01	 9.6154082542e-01	-3.4174522937e+00
 3.9792259627e-01	 9.6531650701e-01	-3.6162988025e+00
 3.8886576851e-01	 9.6900039943e-01	-3.8134591979e+00
 3.7979226501e-01	 9.7259251976e-01	-4.0087544626e+00
 3.7070341855e-01	 9.7609290993e-01	-4.2020110998e+00
 3.6160055570e-01	 9.7950163653e-01	-4.3930608576e+00
 4.5565620653e-01	 9.4924079643e-01	-2.4134006851e+00
 4.4665225201e-01	 9.5351057097e-01	-2.6065371933e+00
 4.3762331660e-01	 9.5768807905e-01	-2.7989824548e+00
 4.2857076996e-01	 9.6177320904e-01	-2.9905361936e+00
 4.1949597900e-01	 9.6576587551e-01	-3.1810050177e+00
 4.1040030719e-01	 9.6966601897e-01	-3.3702021351e+00
 4.0128511404e-01	 9.7347360575e-01	-3.5579470629e+00
 3.9215175446e-01	 9.7718862773e-01	-3.7440653296e+00
 3.8300157821e-01	 9.8081110212e-01	-3.9283881746e+00
 3.7383592935e-01	 9.8434107123e-01	-4.1107522460e+00
 3.6465614567e-01	 9.8777860218e-01	-4.2909993004e+00
 4.5947430050e-01	 9.5719479885e-01	-2.4206565103e+00
 4.5039489888e-01	 9.6150035124e-01	-2.6030090967e+00
 4.4129030703e-01	 9.6571286404e-01	-2.7846659131e+00
 4.3216190611e-01	 9.6983222469e-01	-2.9654398834e+00
 4.2301107448e-01	 9.7385834702e-01	-3.1451505200e+00
 4.1383918703e-01	 9.7779117108e-01	-3.3236236124e+00
 4.0464761466e-01	 9.8163066289e-01	-3.5006909084e+00
 3.9543772364e-01	 9.8537681426e-01	-3.6761897906e+00
 3.8621087504e-01	 9.8902964256e-01	-3.8499629496e+00
 3.7696842418e-01	 9.9258919045e-01	-4.0218580577e+00
 3.6771172006e-01	 9.9605552561e-01	-4.1917274449e+00
 4.6329238258e-01	 9.6514877647e-01	-2.4261050465e+00
 4.5413753408e-01	 9.6949010660e-01	-2.5981112829e+00
 4.4495728603e-01	 9.7373762401e-01	-2.7693982672e+00
 4.3575303107e-01	 9.7789121521e-01	-2.9397948735e+00
 4.2652615900e-01	 9.8195079332e-01	-3.1091359568e+00
 4.1727805615e-01	 9.8591629786e-01	-3.2772620129e+00
 4.0801010480e-01	 9.8978769460e-01	-3.4440188328e+00
 3.9872368258e-01	 9.9356497527e-01	-3.6092571521e+00
 3.8942016187e-01	 9.9724815739e-01	-3.7728323000e+00
 3.8010090925e-01	 1.0008372840e+00	-3.9346038494e+00
 3.7076728492e-01	 1.0043324232e+00	-4.0944352708e+00
 4.6711046032e-01	 9.7310274507e-01	-2.4294825420e+00
 4.5788016503e-01	 9.7747985291e-01	-2.5915589295e+00
 4.4862426087e-01	 9.8176237489e-01	-2.7528668369e+00
 4.3934415195e-01	 9.8595019660e-01	-2.9132538080e+00
 4.3004123953e-01	 9.9004323043e-01	-3.0725724519e+00
 4.2071692137e-01	 9.9404141543e-01	-3.2306800752e+00
 4.1137259112e-01	 9.9794471706e-01	-3.3874383075e+00
 4.0200963779e-01	 1.0017531270e+00	-3.5427127258e+00
 3.9262944505e-01	 1.0054666629e+00	-3.6963724790e+00
 3.8323339076e-01	 1.0090853681e+00	-3.8482899153e+00
 3.7382284632e-01	 1.0126093115e+00	-3.9983402161e+00
 4.7092854131e-01	 9.8105672044e-01	-2.4305382825e+00
 4.6162279917e-01	 9.8546960600e-01	-2.5830805959e+00
 4.5229123883e-01	 9.8978713259e-01	-2.7347728869e+00
 4.4293527589e-01	 9.9400918483e-01	-2.8854840583e+00
 4.3355632305e-01	 9.9813567443e-01	-3.0350868614e+00
 4.2415578950e-01	 1.0021665399e+00	-3.1834574979e+00
 4.1473508031e-01	 1.0061017465e+00	-3.3304752177e+00
 4.0529559579e-01	 1.0099412857e+00	-3.4760219176e+00
 3.9583873097e-01	 1.0136851754e+00	-3.6199817418e+00
 3.8636587493e-01	 1.0173334593e+00	-3.7622406885e+00
 3.7687841031e-01	 1.0208862068e+00	-3.9026862243e+00
 3.4632215993e-01	 9.3811560045e-01	-4.9756185492e+00
 3.3759323727e-01	 9.4129206486e-01	-5.2273266540e+00
 3.2885341468e-01	 9.4438096497e-01	-5.4756256020e+00
 3.2010394073e-01	 9.4738243296e-01	-5.7202421836e+00
 3.1134605611e-01	 9.5029662344e-01	-5.9609171293e+00
 3.0258099304e-01	 9.5312371316e-01	-6.1974049126e+00
 2.9380997494e-01	 9.5586390071e-01	-6.4294735471e+00
 2.8503421588e-01	 9.5851740614e-01	-6.6569043806e+00
 2.7625492019e-01	 9.6108447067e-01	-6.8794918859e+00
 2.6747328204e-01	 9.6356535632e-01	-7.0970434515e+00
 2.5869048500e-01	 9.6596034556e-01	-7.3093791706e+00
 3.4937791874e-01	 9.4639302343e-01	-4.8464234772e+00
 3.4057197680e-01	 9.4959751524e-01	-5.0839392937e+00
 3.3175503876e-01	 9.5271367013e-01	-5.3182995365e+00
 3.2292836420e-01	 9.5574162144e-01	-5.5492419280e+00
 3.1409320475e-01	 9.5868152515e-01	-5.7765152885e+00
 3.0525080353e-01	 9.6153355958e-01	-5.9998793687e+00
 2.9640239472e-01	 9.6429792505e-01	-6.2191046808e+00
 2.8754920312e-01	 9.6697484357e-01	-6.4339723293e+00
 2.7869244369e-01	 9.6956455848e-01	-6.6442738431e+00
 2.6983332113e-01	 9.7206733412e-01	-6.8498110096e+00
 2.6097302946e-01	 9.7448345545e-01	-7.0503957119e+00
 3.5243363166e-01	 9.5467032212e-01	-4.7245173343e+00
 3.4355067160e-01	 9.5790284089e-01	-4.9487258253e+00
 3.3465661926e-01	 9.6104625015e-01	-5.1699757879e+00
 3.2575274526e-01	 9.6410068439e-01	-5.3880175183e+00
 3.1684031214e-01	 9.6706630095e-01	-5.6026099316e+00
 3.0792057392e-01	 9.6994327971e-01	-5.8135204150e+00
 2.9899477557e-01	 9.7273182274e-01	-6.0205246826e+00
 2.9006415260e-01	 9.7543215400e-01	-6.2234066338e+00
 2.8112993059e-01	 9.7804451896e-01	-6.4219582150e+00
 2.7219332478e-01	 9.8056918426e-01	-6.6159792879e+00
 2.6325553964e-01	 9.8300643735e-01	-6.8052775027e+00
 3.5548930476e-01	 9.6294751292e-01	-4.6089365399e+00
 3.4652932758e-01	 9.6620805830e-01	-4.8206240159e+00
 3.3755816195e-01	 9.6937872157e-01	-5.0295037995e+00
 3.2857708950e-01	 9.7245963839e-01	-5.2353403371e+00
 3.1958738373e-01	 9.7545096747e-01	-5.4379045727e+00
 3.1059030952e-01	 9.7835289023e-01	-5.6369738115e+00
 3.0158712263e-01	 9.8116561051e-01	-5.8323315886e+00
 2.9257906930e-01	 9.8388935420e-01	-6.0237675443e+00
 2.8356738572e-01	 9.8652436891e-01	-6.2110773069e+00
 2.7455329767e-01	 9.8907092358e-01	-6.3940623829e+00
 2.6553802007e-01	 9.9152930816e-01	-6.5725300575e+00
 3.5854494408e-01	 9.7122461225e-01	-4.4987506006e+00
 3.4950795064e-01	 9.7451318394e-01	-4.6986078210e+00
 3.4045967257e-01	 9.7771110092e-01	-4.8957719582e+00
 3.3140140253e-01	 9.8081850002e-01	-5.0900231251e+00
 3.2233442496e-01	 9.8383554133e-01	-5.2811461607e+00
 3.1326001561e-01	 9.8676240782e-01	-5.4689304948e+00
 3.0417944105e-01	 9.8959930508e-01	-5.6531700213e+00
 2.9509395820e-01	 9.9234646095e-01	-5.8336629808e+00
 2.8600481391e-01	 9.9500412515e-01	-6.0102118533e+00
 2.7691324449e-01	 9.9757256896e-01	-6.1826232617e+00
 2.6782047528e-01	 1.0000520848e+00	-6.3507078873e+00
 3.6160055570e-01	 9.7950163653e-01	-4.3930608576e+00
 3.5248654669e-01	 9.8281823426e-01	-4.5816859889e+00
 3.4336115689e-01	 9.8604340471e-01	-4.7677060732e+00
 3.3422568995e-01	 9.8917728587e-01	-4.9509183477e+00
 3.2508144128e-01	 9.9222003916e-01	-5.1311233474e+00
 3.1592969750e-01	 9.9517184916e-01	-5.3081247623e+00
 3.0677173596e-01	 9.9803292319e-01	-5.4817293057e+00
 2.9760882431e-01	 1.0008034910e+00	-5.6517465936e+00
 2.8844222001e-01	 1.0034838045e+00	-5.8179890383e+00
 2.7927316990e-01	 1.0060741373e+00	-5.9802717538e+00
 2.7010290979e-01	 1.0085747842e+00	-6.1384124779e+00
 3.6465614567e-01	 9.8777860218e-01	-4.2909993004e+00
 3.5546512164e-01	 9.9112322576e-01	-4.4689007406e+00
 3.4626262065e-01	 9.9437564948e-01	-4.6442679347e+00
 3.3704995737e-01	 9.9753601250e-01	-4.8169166465e+00
 3.2782843815e-01	 1.0006044776e+00	-4.9866648465e+00
 3.1859936047e-01	 1.0035812309e+00	-5.1533325525e+00
 3.0936401251e-01	 1.0064664815e+00	-5.3167416831e+00
 3.0012367260e-01	 1.0092604612e+00	-5.4767159252e+00
 2.9087960883e-01	 1.0119634238e+00	-5.6330806171e+00
 2.8163307860e-01	 1.0145756453e+00	-5.7856626477e+00
 2.7238532814e-01	 1.0170974231e+00	-5.9342903728e+00
 3.6771172006e-01	 9.9605552561e-01	-4.1917274449e+00
 3.5844368140e-01	 9.9942817490e-01	-4.3593265196e+00
 3.4916406961e-01	 1.0027078517e+00	-4.5244539492e+00
 3.3987421038e-01	 1.0058946965e+00	-4.6869453733e+00
 3.3057542100e-01	 1.0089888733e+00	-4.8466378788e+00
 3.2126900983e-01	 1.0119905698e+00	-5.0033698139e+00
 3.1195627583e-01	 1.0148999969e+00	-5.1569806177e+00
 3.0263850806e-01	 1.0177173882e+00	-5.3073106662e+00
 2.9331698523e-01	 1.0204429998e+00	-5.4542011356e+00
 2.8399297526e-01	 1.0230771100e+00	-5.5974938845e+00
 2.7466773484e-01	 1.0256200187e+00	-5.7370313551e+00
 3.7076728492e-01	 1.0043324232e+00	-4.0944352708e+00
 3.6142223187e-01	 1.0077330981e+00	-4.2520688074e+00
 3.5206550952e-01	 1.0110400280e+00	-4.4072938452e+00
 3.4269845458e-01	 1.0142533544e+00	-4.5599671994e+00
 3.3332239529e-01	 1.0173732428e+00	-4.7099466974e+00
 3.2393865087e-01	 1.0203998825e+00	-4.8570909586e+00
 3.1454853108e-01	 1.0233334860e+00	-5.0012591901e+00
 3.0515333568e-01	 1.0261742889e+00	-5.1423110019e+00
 2.9575435403e-01	 1.0289225495e+00	-5.2801062406e+00
 2.8635286457e-01	 1.0315785482e+00	-5.4145048448e+00
 2.7695013443e-01	 1.0341425876e+00	-5.5453667213e+00
 3.7382284632e-01	 1.0126093115e+00	-3.9983402161e+00
 3.6440077897e-01	 1.0160380120e+00	-4.1462630020e+00
 3.5496694615e-01	 1.0193721949e+00	-4.2918494484e+00
 3.4552269558e-01	 1.0226120029e+00	-4.4349787975e+00
 3.3606936646e-01	 1.0257576029e+00	-4.5755311892e+00
 3.2660828888e-01	 1.0288091856e+00	-4.7133873952e+00
 3.1714078338e-01	 1.0317669655e+00	-4.8484285736e+00
 3.0766816045e-01	 1.0346311799e+00	-4.9805360426e+00
 2.9819172007e-01	 1.0374020895e+00	-5.1095910762e+00
 2.8871275120e-01	 1.0400799768e+00	-5.2354747220e+00
 2.7923253144e-01	 1.0426651469e+00	-5.3580676430e+00
 3.7687841031e-01	 1.0208862068e+00	-3.9026862243e+00
 3.6737932860e-01	 1.0243429329e+00	-4.0410733545e+00
 3.5786838524e-01	 1.0277043688e+00	-4.1772135181e+00
 3.4834693899e-01	 1.0309706585e+00	-4.3110095920e+00
 3.3881633997e-01	 1.0341419700e+00	-4.4423655482e+00
 3.2927792916e-01	 1.0372184959e+00	-4.5711861366e+00
 3.1973303789e-01	 1.0402004521e+00	-4.6973765871e+00
 3.1018298736e-01	 1.0430880782e+00	-4.8208423335e+00
 3.0062908817e-01	 1.0458816367e+00	-4.9414887609e+00
 2.9107263984e-01	 1.0485814126e+00	-5.0592209774e+00
 2.8151493038e-01	 1.0511877135e+00	-5.1739436112e+00
 2.5869048500e-01	 9.6596034556e-01	-7.3093791706e+00
 2.4990770180e-01	 9.6826974115e-01	-7.5163947788e+00
 2.4112609427e-01	 9.7049386637e-01	-7.7179553358e+00
 2.3234681259e-01	 9.7263306406e-01	-7.9138514709e+00
 2.2357099480e-01	 9.7468769596e-01	-8.1038832890e+00
 2.1479976648e-01	 9.7665814235e-01	-8.2878603060e+00
 2.0603424041e-01	 9.7854480164e-01	-8.4656013895e+00
 1.9727551623e-01	 9.8034808995e-01	-8.6369347035e+00
 1.8852468015e-01	 9.8206844073e-01	-8.8016976580e+00
 1.7978280468e-01	 9.8370630427e-01	-8.9597368632e+00
 1.7105094831e-01	 9.8526214738e-01	-9.1109080887e+00
 2.6097302946e-01	 9.7448345545e-01	-7.0503957119e+00
 2.5211275175e-01	 9.7681322788e-01	-7.2458864259e+00
 2.4325366008e-01	 9.7905697758e-01	-7.4361360052e+00
 2.3439691478e-01	 9.8121505038e-01	-7.6209614224e+00
 2.2554366393e-01	 9.8328781124e-01	-7.8001876486e+00
 2.1669504306e-01	 9.8527564378e-01	-7.9736475804e+00
 2.0785217474e-01	 9.8717894993e-01	-8.1411819731e+00
 1.9901616833e-01	 9.8899814948e-01	-8.3026393818e+00
 1.9018811962e-01	 9.9073367969e-01	-8.4578761101e+00
 1.8136911059e-01	 9.9238599486e-01	-8.6067561662e+00
 1.7256020906e-01	 9.9395556588e-01	-8.7491512262e+00
 2.6325553964e-01	 9.8300643735e-01	-6.8052775027e+00
 2.5431776858e-01	 9.8535658633e-01	-6.9896941863e+00
 2.4538119393e-01	 9.8761996020e-01	-7.1690847251e+00
 2.3644698618e-01	 9.8979690784e-01	-7.3432886299e+00
 2.2751630344e-01	 9.9188779738e-01	-7.5121520077e+00
 2.1859029117e-01	 9.9389301581e-01	-7.6755274820e+00
 2.0967008177e-01	 9.9581296856e-01	-7.8332741222e+00
 2.0075679429e-01	 9.9764807911e-01	-7.9852573840e+00
 1.9185153412e-01	 9.9939878854e-01	-8.1313490590e+00
 1.8295539268e-01	 1.0010655551e+00	-8.2714272355e+00
 1.7406944714e-01	 1.0026488538e+00	-8.4053762684e+00
 2.6553802007e-01	 9.9152930816e-01	-6.5725300575e+00
 2.5652275667e-01	 9.9389983343e-01	-6.7463205994e+00
 2.4750870006e-01	 9.9618283122e-01	-6.9153027978e+00
 2.3849703086e-01	 9.9837865345e-01	-7.0793350045e+00
 2.2948891725e-01	 1.0004876714e+00	-7.2382808370e+00
 2.2048551459e-01	 1.0025102755e+00	-7.3920090949e+00
 2.1148796511e-01	 1.0044468747e+00	-7.5403936884e+00
 2.0249739757e-01	 1.0062978960e+00	-7.6833135797e+00
 1.9351492693e-01	 1.0080637845e+00	-7.8206527373e+00
 1.8454165409e-01	 1.0097450022e+00	-7.9523001031e+00
 1.7557866555e-01	 1.0113420285e+00	-8.0781495716e+00
 2.6782047528e-01	 1.0000520848e+00	-6.3507078873e+00
 2.5872772040e-01	 1.0024429861e+00	-6.5143171502e+00
 2.4963618268e-01	 1.0047456076e+00	-6.6733403752e+00
 2.4054705289e-01	 1.0069603042e+00	-6.8276511629e+00
 2.3146150925e-01	 1.0090874505e+00	-6.9771271185e+00
 2.2238071706e-01	 1.0111274400e+00	-7.1216497664e+00
 2.1330582836e-01	 1.0130806854e+00	-7.2611044807e+00
 2.0423798161e-01	 1.0149476173e+00	-7.3953804308e+00
 1.9517830137e-01	 1.0167286846e+00	-7.5243705420e+00
 1.8612789797e-01	 1.0184243535e+00	-7.6479714720e+00
 1.7708786729e-01	 1.0200351071e+00	-7.7660836012e+00
 2.7010290979e-01	 1.0085747842e+00	-6.1384124779e+00
 2.6093266413e-01	 1.0109860614e+00	-6.2922822413e+00
 2.5176364600e-01	 1.0133083064e+00	-6.4417944273e+00
 2.4259705633e-01	 1.0155418772e+00	-6.5868343954e+00
 2.3343408337e-01	 1.0176871515e+00	-6.7272903144e+00
 2.2427590234e-01	 1.0197445264e+00	-6.8630530792e+00
 2.1512367513e-01	 1.0217144178e+00	-6.9940162452e+00
 2.0597854987e-01	 1.0235972602e+00	-7.1200759807e+00
 1.9684166072e-01	 1.0253935062e+00	-7.2411310366e+00
 1.8771412747e-01	 1.0271036260e+00	-7.3570827342e+00
 1.7859705534e-01	 1.0287281069e+00	-7.4678349692e+00
 2.7238532814e-01	 1.0170974231e+00	-5.9342903728e+00
 2.6313759225e-01	 1.0195290761e+00	-6.0788592703e+00
 2.5389109426e-01	 1.0218709445e+00	-6.2193068162e+00
 2.4464704525e-01	 1.0241233894e+00	-6.3555267377e+00
 2.3540664351e-01	 1.0262867917e+00	-6.4874144403e+00
 2.2617107421e-01	 1.0283615517e+00	-6.6148669286e+00
 2.1694150902e-01	 1.0303480891e+00	-6.7377827481e+00
 2.0771910580e-01	 1.0322468419e+00	-6.8560619466e+00
 1.9850500829e-01	 1.0340582665e+00	-6.9696060551e+00
 1.8930034574e-01	 1.0357828370e+00	-7.0783180898e+00
 1.8010623270e-01	 1.0374210451e+00	-7.1821025714e+00
 2.7466773484e-01	 1.0256200187e+00	-5.7370313551e+00
 2.6534250911e-01	 1.0280720472e+00	-5.8727348059e+00
 2.5601853167e-01	 1.0304335389e+00	-6.0045624682e+00
 2.4669702371e-01	 1.0327048578e+00	-6.1324131422e+00
 2.3737919359e-01	 1.0348863879e+00	-6.2561862368e+00
 2.2806623640e-01	 1.0369785331e+00	-6.3757816972e+00
 2.1875933364e-01	 1.0389817163e+00	-6.4910999565e+00
 2.0945965286e-01	 1.0408963794e+00	-6.6020419083e+00
 2.0016834737e-01	 1.0427229825e+00	-6.7085089024e+00
 1.9088655592e-01	 1.0444620038e+00	-6.8104027613e+00
 1.8161540236e-01	 1.0461139390e+00	-6.9076258190e+00
 2.7695013443e-01	 1.0341425876e+00	-5.5453667213e+00
 2.6754741911e-01	 1.0366149917e+00	-5.6726368561e+00
 2.5814596244e-01	 1.0389961067e+00	-5.7962876387e+00
 2.4874699579e-01	 1.0412862995e+00	-5.9162197413e+00
 2.3935173753e-01	 1.0434859574e+00	-6.0323334339e+00
 2.2996139269e-01	 1.0455954876e+00	-6.1445285223e+00
 2.2057715259e-01	 1.0476153166e+00	-6.2527043108e+00
 2.1120019449e-01	 1.0495458899e+00	-6.3567595894e+00
 2.0183168127e-01	 1.0513876715e+00	-6.4565926454e+00
 1.9247276115e-01	 1.0531411436e+00	-6.5521012986e+00
 1.8312456732e-01	 1.0548068057e+00	-6.6431829597e+00
 2.7923253144e-01	 1.0426651469e+00	-5.3580676430e+00
 2.6975232661e-01	 1.0451579266e+00	-5.4773332251e+00
 2.6027339081e-01	 1.0475586647e+00	-5.5932482653e+00
 2.5079696554e-01	 1.0498677314e+00	-5.7057121984e+00
 2.4132427923e-01	 1.0520855171e+00	-5.8146231026e+00
 2.3185654683e-01	 1.0542124324e+00	-5.9198776501e+00
 2.2239496948e-01	 1.0562489071e+00	-6.0213710842e+00
 2.1294073414e-01	 1.0581953907e+00	-6.1189972230e+00
 2.0349501329e-01	 1.0600523507e+00	-6.2126484897e+00
 1.9405896458e-01	 1.0618202734e+00	-6.3022159676e+00
 1.8463373057e-01	 1.0634996626e+00	-6.3875894815e+00
 2.8151493038e-01	 1.0511877135e+00	-5.1739436112e+00
 2.7195723598e-01	 1.0537008686e+00	-5.2856299515e+00
 2.6240082098e-01	 1.0561212300e+00	-5.3942484030e+00
 2.5284693703e-01	 1.0584491706e+00	-5.4996941420e+00
 2.4329682261e-01	 1.0606850842e+00	-5.6018600886e+00
 2.3375170258e-01	 1.0628293844e+00	-5.7006368718e+00
 2.2421278792e-01	 1.0648825050e+00	-5.7959128233e+00
 2.1468127528e-01	 1.0668448987e+00	-5.8875740005e+00
 2.0515834672e-01	 1.0687170373e+00	-5.9755042366e+00
 1.9564516936e-01	 1.0704994107e+00	-6.0595852195e+00
 1.8614289510e-01	 1.0721925270e+00	-6.1396965967e+00
 1.7105094831e-01	 9.8526214738e-01	-9.1109080887e+00
 1.6232867404e-01	 9.8673669648e-01	-9.2551443888e+00
 1.5361849940e-01	 9.8813017818e-01	-9.3923522228e+00
 1.4492144212e-01	 9.8944310564e-01	-9.5224352723e+00
 1.3623850489e-01	 9.9067600676e-01	-9.6453047049e+00
 1.2757067517e-01	 9.9182942379e-01	-9.7608791521e+00
 1.1891892497e-01	 9.9290391285e-01	-9.8690846918e+00
 1.1028421068e-01	 9.9390004351e-01	-9.9698548366e+00
 1.0166747288e-01	 9.9481839835e-01	-1.0063130525e+01
 9.3069636226e-02	 9.9565957252e-01	-1.0148860119e+01
 8.4491609256e-02	 9.9642417327e-01	-1.0226999400e+01
 1.7256020906e-01	 9.9395556588e-01	-8.7491512262e+00
 1.6376097417e-01	 9.9544312560e-01	-8.8849970397e+00
 1.5497394568e-01	 9.9684890263e-01	-9.0141977462e+00
 1.4620015028e-01	 9.9817341465e-01	-9.1366597836e+00
 1.3744059953e-01	 9.9941719423e-01	-9.2522968915e+00
 1.2869628959e-01	 1.0005807884e+00	-9.3610300882e+00
 1.1996820103e-01	 1.0016647582e+00	-9.4627876554e+00
 1.1125729871e-01	 1.0026696781e+00	-9.5575051266e+00
 1.0256453149e-01	 1.0035961360e+00	-9.6451252826e+00
 9.3890832195e-02	 1.0044447323e+00	-9.7255981501e+00
 8.5237117371e-02	 1.0052160794e+00	-9.7988810047e+00
 1.7406944714e-01	 1.0026488538e+00	-8.4053762684e+00
 1.6519325279e-01	 1.0041494240e+00	-8.5331469897e+00
 1.5632937160e-01	 1.0055674962e+00	-8.6546556298e+00
 1.4747883925e-01	 1.0069035926e+00	-8.7698113113e+00
 1.3864267612e-01	 1.0081582504e+00	-8.8785301321e+00
 1.2982188710e-01	 1.0093320216e+00	-8.9807351460e+00
 1.2101746134e-01	 1.0104254719e+00	-9.0763563504e+00
 1.1223037213e-01	 1.0114391811e+00	-9.1653306816e+00
 1.0346157664e-01	 1.0123737419e+00	-9.2476020153e+00
 9.4712015832e-02	 1.0132297601e+00	-9.3231211730e+00
 8.5982614290e-02	 1.0140078536e+00	-9.3918459334e+00
 1.7557866555e-01	 1.0113420285e+00	-8.0781495716e+00
 1.6662551275e-01	 1.0128556089e+00	-8.1981765698e+00
 1.5768477986e-01	 1.0142859761e+00	-8.3123209022e+00
 1.4875751154e-01	 1.0156336567e+00	-8.4204943220e+00
 1.3984473704e-01	 1.0168991927e+00	-8.5226150908e+00
 1.3094746993e-01	 1.0180831407e+00	-8.6186079653e+00
 1.2206670797e-01	 1.0191860715e+00	-8.7084041933e+00
 1.1320343286e-01	 1.0202085697e+00	-8.7919415169e+00
 1.0435861009e-01	 1.0211512334e+00	-8.8691641839e+00
 9.5533188766e-02	 1.0220146734e+00	-8.9400229648e+00
 8.6728101492e-02	 1.0227995132e+00	-9.0044751761e+00
 1.7708786729e-01	 1.0200351071e+00	-7.7660836012e+00
 1.6805775688e-01	 1.0215616976e+00	-7.8787136881e+00
 1.5904017314e-01	 1.0230043596e+00	-7.9858337672e+00
 1.5003616971e-01	 1.0243636244e+00	-8.0873581850e+00
 1.4104678467e-01	 1.0256400384e+00	-8.1832071897e+00
 1.3207304034e-01	 1.0268341631e+00	-8.2733069285e+00
 1.2311594301e-01	 1.0279465742e+00	-8.3575894535e+00
 1.1417648284e-01	 1.0289778614e+00	-8.4359927384e+00
 1.0525563362e-01	 1.0299286279e+00	-8.5084607024e+00
 9.6354352626e-02	 1.0307994897e+00	-8.5749432428e+00
 8.7473580456e-02	 1.0315910756e+00	-8.6353962740e+00
 1.7859705534e-01	 1.0287281069e+00	-7.4678349692e+00
 1.6948998802e-01	 1.0302677074e+00	-7.5734298858e+00
 1.6039555413e-01	 1.0317226641e+00	-7.6738776729e+00
 1.5131481628e-01	 1.0330935129e+00	-7.7690952491e+00
 1.4224882141e-01	 1.0343808048e+00	-7.8590046902e+00
 1.3319860053e-01	 1.0355851062e+00	-7.9435332392e+00
 1.2416516854e-01	 1.0367069976e+00	-8.0226133270e+00
 1.1514952401e-01	 1.0377470737e+00	-8.0961826045e+00
 1.0615264903e-01	 1.0387059428e+00	-8.1641839841e+00
 9.7175509039e-02	 1.0395842263e+00	-8.2265656906e+00
 8.8219052661e-02	 1.0403825583e+00	-8.2832813196e+00
 1.8010623270e-01	 1.0374210451e+00	-7.1821025714e+00
 1.7092220902e-01	 1.0389736555e+00	-7.2810384918e+00
 1.6175092552e-01	 1.0404409069e+00	-7.3751774793e+00
 1.5259345380e-01	 1.0418233396e+00	-7.4644390189e+00
 1.4345084964e-01	 1.0431215094e+00	-7.5487468717e+00
 1.3432415275e-01	 1.0443359873e+00	-7.6280291002e+00
 1.2521438663e-01	 1.0454673588e+00	-7.7022181072e+00
 1.1612255827e-01	 1.0465162238e+00	-7.7712506868e+00
 1.0704965808e-01	 1.0474831955e+00	-7.8350680870e+00
 9.7996659635e-02	 1.0483689007e+00	-7.8936160826e+00
 8.8964519584e-02	 1.0491739787e+00	-7.9468450572e+00
 1.8161540236e-01	 1.0461139390e+00	-6.9076258190e+00
 1.7235442272e-01	 1.0476795592e+00	-7.0002928713e+00
 1.6310629000e-01	 1.0491591052e+00	-7.0884977185e+00
 1.5387208479e-01	 1.0505531217e+00	-7.1721624221e+00
 1.4465287173e-01	 1.0518621693e+00	-7.2512123022e+00
 1.3544969924e-01	 1.0530868237e+00	-7.3255759822e+00
 1.2626359937e-01	 1.0542276754e+00	-7.3951854482e+00
 1.1709558758e-01	 1.0552853291e+00	-7.4599761227e+00
 1.0794666255e-01	 1.0562604034e+00	-7.5198869519e+00
 9.8817806043e-02	 1.0571535302e+00	-7.5748605041e+00
 8.9709982704e-02	 1.0579653543e+00	-7.6248430793e+00
 1.8312456732e-01	 1.0548068057e+00	-6.6431829597e+00
 1.7378663194e-01	 1.0563854358e+00	-6.7299847616e+00
 1.6446165025e-01	 1.0578772763e+00	-6.8126409418e+00
 1.5515071180e-01	 1.0592828766e+00	-6.8910761634e+00
 1.4585489007e-01	 1.0606028020e+00	-6.9652171955e+00
 1.3657524221e-01	 1.0618376329e+00	-7.0349929798e+00
 1.2731280884e-01	 1.0629879647e+00	-7.1003347149e+00
 1.1806861385e-01	 1.0640544072e+00	-7.1611759557e+00
 1.0884366423e-01	 1.0650375840e+00	-7.2174527285e+00
 9.9638949891e-02	 1.0659381324e+00	-7.2691036590e+00
 9.0455443500e-02	 1.0667567025e+00	-7.3160701128e+00
 1.8463373057e-01	 1.0634996626e+00	-6.3875894815e+00
 1.7521883955e-01	 1.0650913025e+00	-6.4689426914e+00
 1.6581700897e-01	 1.0665954375e+00	-6.5464461501e+00
 1.5642933736e-01	 1.0680126217e+00	-6.6200271617e+00
 1.4705690705e-01	 1.0693434248e+00	-6.6896138496e+00
 1.3770078391e-01	 1.0705884322e+00	-6.7551352482e+00
 1.2836201712e-01	 1.0717482441e+00	-6.8165214147e+00
 1.1904163902e-01	 1.0728234753e+00	-6.8737035581e+00
 1.0974066489e-01	 1.0738147547e+00	-6.9266141851e+00
 1.0046009281e-01	 1.0747227247e+00	-6.9751872621e+00
 9.1200903452e-02	 1.0755480407e+00	-7.0193583897e+00
 1.8614289510e-01	 1.0721925270e+00	-6.1396965967e+00
 1.7665104837e-01	 1.0737971766e+00	-6.2160304779e+00
 1.6717236883e-01	 1.0753136062e+00	-6.2887873002e+00
 1.5770796401e-01	 1.0767423742e+00	-6.3578970625e+00
 1.4825892506e-01	 1.0780840550e+00	-6.4232891627e+00
 1.3882632656e-01	 1.0793392389e+00	-6.4848925178e+00
 1.2941122629e-01	 1.0805085309e+00	-6.5426357064e+00
 1.2001466501e-01	 1.0815925508e+00	-6.5964471301e+00
 1.1063766632e-01	 1.0825919328e+00	-6.6462551950e+00
 1.0128123642e-01	 1.0835073244e+00	-6.6919885094e+00
 9.1946364036e-02	 1.0843393864e+00	-6.7335760976e+00
 8.4491609256e-02	 9.9642417327e-01	-1.0226999400e+01
 7.5935733705e-02	 9.9711270890e-01	-1.0297581290e+01
 6.7401408683e-02	 9.9772594558e-01	-1.0360671271e+01
 5.8889473803e-02	 9.9826452377e-01	-1.0416249594e+01
 5.0400752668e-02	 9.9872909431e-01	-1.0464307062e+01
 4.1936052786e-02	 9.9912031795e-01	-1.0504844948e+01
 3.3496165499e-02	 9.9943886492e-01	-1.0537874909e+01
 2.5081865916e-02	 9.9968541457e-01	-1.0563418886e+01
 1.6693912862e-02	 9.9986065485e-01	-1.0581509020e+01
 8.3330488405e-03	 9.9996528199e-01	-1.0592187543e+01
 0.0000000000e+00	 1.0000000000e+00	-1.0595506683e+01
 8.5237117371e-02	 1.0052160794e+00	-9.7988810047e+00
 7.6605749417e-02	 1.0059106903e+00	-9.8650495326e+00
 6.7996122144e-02	 1.0065293379e+00	-9.9242126593e+00
 5.9409082570e-02	 1.0070726682e+00	-9.9763544167e+00
 5.0845461567e-02	 1.0075413379e+00	-1.0021468110e+01
 4.2306073768e-02	 1.0079360134e+00	-1.0059556265e+01
 3.3791717495e-02	 1.0082573711e+00	-1.0090630569e+01
 2.5303174698e-02	 1.0085060962e+00	-1.0114711814e+01
 1.6841210896e-02	 1.0086828827e+00	-1.0131829837e+01
 8.4065751451e-03	 1.0087884330e+00	-1.0142023457e+01
 0.0000000000e+00	 1.0088234573e+00	-1.0145340404e+01
 8.5982614290e-02	 1.0140078536e+00	-9.3918459334e+00
 7.7275755068e-02	 1.0147085397e+00	-9.4538786434e+00
 6.8590826674e-02	 1.0153325980e+00	-9.5093556615e+00
 5.9928683534e-02	 1.0158806804e+00	-9.5582637802e+00
 5.1290163788e-02	 1.0163534491e+00	-9.6005978753e+00
 4.2676089192e-02	 1.0167515765e+00	-9.6363608809e+00
 3.4087265052e-02	 1.0170757449e+00	-9.6655637652e+00
 2.5524480155e-02	 1.0173266453e+00	-9.6882255045e+00
 1.6988506717e-02	 1.0175049780e+00	-9.7043730561e+00
 8.4801003449e-03	 1.0176114515e+00	-9.7140413291e+00
 0.0000000000e+00	 1.0176467822e+00	-9.7172731517e+00
 8.6728101492e-02	 1.0227995132e+00	-9.0044751761e+00
 7.7945751986e-02	 1.0235062743e+00	-9.0626368302e+00
 6.9185523451e-02	 1.0241357434e+00	-9.1146587996e+00
 6.0448277725e-02	 1.0246885777e+00	-9.1605296230e+00
 5.1734860210e-02	 1.0251654454e+00	-9.2002448193e+00
 4.3046099791e-02	 1.0255670248e+00	-9.2338068927e+00
 3.4382808755e-02	 1.0258940037e+00	-9.2612253387e+00
 2.5745782726e-02	 1.0261470795e+00	-9.2825166498e+00
 1.7135800618e-02	 1.0263269584e+00	-9.2977043214e+00
 8.5536245858e-03	 1.0264343550e+00	-9.3068188550e+00
 0.0000000000e+00	 1.0264699920e+00	-9.3098977606e+00
 8.7473580456e-02	 1.0315910756e+00	-8.6353962740e+00
 7.8615741499e-02	 1.0323039118e+00	-8.6899394802e+00
 6.9780213656e-02	 1.0329387915e+00	-8.7387283141e+00
 6.0967866172e-02	 1.0334963778e+00	-8.7817520525e+00
 5.2179551718e-02	 1.0339773444e+00	-8.8190059347e+00
 4.3416106301e-02	 1.0343823756e+00	-8.8504911973e+00
 3.4678349190e-02	 1.0347121651e+00	-8.8762151096e+00
 2.5967082851e-02	 1.0349674162e+00	-8.8961910107e+00
 1.7283092889e-02	 1.0351488413e+00	-8.9104383463e+00
 8.6271480136e-03	 1.0352571610e+00	-8.9189827053e+00
 0.0000000000e+00	 1.0352931043e+00	-8.9218558544e+00
 8.8219052661e-02	 1.0403825583e+00	-8.2832813196e+00
 7.9285724937e-02	 1.0411014694e+00	-8.3344471336e+00
 7.0374898468e-02	 1.0417417598e+00	-8.3802161163e+00
 6.1487449908e-02	 1.0423040979e+00	-8.4205772796e+00
 5.2624239192e-02	 1.0427891635e+00	-8.4555246649e+00
 4.3786109454e-02	 1.0431976464e+00	-8.4850574044e+00
 3.4973886945e-02	 1.0435302465e+00	-8.5091797873e+00
 2.6188380968e-02	 1.0437876729e+00	-8.5279013259e+00
 1.7430383825e-02	 1.0439706441e+00	-8.5412368243e+00
 8.7006707743e-03	 1.0440798870e+00	-8.5492064459e+00
 0.0000000000e+00	 1.0441161367e+00	-8.5518357809e+00
 8.8964519584e-02	 1.0491739787e+00	-7.9468450572e+00
 7.9955703628e-02	 1.0498989648e+00	-7.9948635600e+00
 7.0969579067e-02	 1.0505446657e+00	-8.0378178435e+00
 6.2007029962e-02	 1.0511117557e+00	-8.0756956582e+00
 5.3068923516e-02	 1.0516009202e+00	-8.1084889311e+00
 4.4156109986e-02	 1.0520128549e+00	-8.1361938550e+00
 3.5269422605e-02	 1.0523482654e+00	-8.1588109832e+00
 2.6409677516e-02	 1.0526078672e+00	-8.1763453254e+00
 1.7577673716e-02	 1.0527923845e+00	-8.1888064460e+00
 8.7741930137e-03	 1.0529025505e+00	-8.1962085634e+00
 0.0000000000e+00	 1.0529391065e+00	-8.1985706480e+00
 8.9709982704e-02	 1.0579653543e+00	-7.6248430793e+00
 8.0625678901e-02	 1.0586964153e+00	-7.6699339312e+00
 7.1564256632e-02	 1.0593475267e+00	-7.7102710133e+00
 6.2526607365e-02	 1.0599193686e+00	-7.7458398224e+00
 5.3513605570e-02	 1.0604126319e+00	-7.7766292579e+00
 4.4526108629e-02	 1.0608280183e+00	-7.8026317387e+00
 3.5564956757e-02	 1.0611662394e+00	-7.8238433249e+00
 2.6630972935e-02	 1.0614280165e+00	-7.8402638435e+00
 1.7724962855e-02	 1.0616140799e+00	-7.8518970162e+00
 8.8477148777e-03	 1.0617251691e+00	-7.8587505887e+00
 0.0000000000e+00	 1.0617620313e+00	-7.8608364593e+00
 9.0455443500e-02	 1.0667567025e+00	-7.3160701128e+00
 8.1295652086e-02	 1.0674938383e+00	-7.3584430851e+00
 7.2158932343e-02	 1.0681503603e+00	-7.3963532678e+00
 6.3046183148e-02	 1.0687269540e+00	-7.4297829166e+00
 5.3958286238e-02	 1.0692243162e+00	-7.4587169924e+00
 4.4896106119e-02	 1.0696431543e+00	-7.4831433050e+00
 3.5860489987e-02	 1.0699841859e+00	-7.5030526626e+00
 2.6852267663e-02	 1.0702481382e+00	-7.5184390257e+00
 1.7872251535e-02	 1.0704357479e+00	-7.5292996640e+00
 8.9212365123e-03	 1.0705477601e+00	-7.5356353148e+00
 0.0000000000e+00	 1.0705849287e+00	-7.5374503424e+00
 9.1200903452e-02	 1.0755480407e+00	-7.0193583897e+00
 8.1965624510e-02	 1.0762912514e+00	-7.0592138750e+00
 7.2753607379e-02	 1.0769531839e+00	-7.0948807060e+00
 6.3565758341e-02	 1.0775345294e+00	-7.1263369134e+00
 5.4402966401e-02	 1.0780359905e+00	-7.1535626105e+00
 4.5266103188e-02	 1.0784582803e+00	-7.1765401629e+00
 3.6156022882e-02	 1.0788021224e+00	-7.1952543656e+00
 2.7073562140e-02	 1.0790682500e+00	-7.2096926243e+00
 1.8019540047e-02	 1.0792574058e+00	-7.2198451410e+00
 8.9947580632e-03	 1.0793703411e+00	-7.2257051016e+00
 0.0000000000e+00	 1.0794078160e+00	-7.2272688641e+00
 9.1946364036e-02	 1.0843393864e+00	-6.7335760976e+00
 8.2635597504e-02	 1.0850886720e+00	-6.7711056006e+00
 7.3348282920e-02	 1.0857560150e+00	-6.8047062972e+00
 6.4085333976e-02	 1.0863421123e+00	-6.8343510133e+00
 5.4847646941e-02	 1.0868476722e+00	-6.8600141066e+00
 4.5636100571e-02	 1.0872734138e+00	-6.8816716631e+00
 3.6451556027e-02	 1.0876200664e+00	-6.8993017002e+00
 2.7294856805e-02	 1.0878883693e+00	-6.9128843763e+00
 1.8166828684e-02	 1.0880790712e+00	-6.9224022035e+00
 9.0682796764e-03	 1.0881929296e+00	-6.9278402644e+00
 0.0000000000e+00	 1.0882307108e+00	-6.9291864282e+00
 1.0882307108e+00	 0.0000000000e+00	 2.0184201842e+00
 1.0881929296e+00	 9.0682796764e-03	 2.0197411176e+00
 1.0880790712e+00	 1.8166828684e-02	 2.0220441573e+00
 1.0878883693e+00	 2.7294856805e-02	 2.0254293899e+00
 1.0876200664e+00	 3.6451556027e-02	 2.0299861741e+00
 1.0872734138e+00	 4.5636100571e-02	 2.0357928408e+00
 1.0868476722e+00	 5.4847646941e-02	 2.0429164215e+00
 1.0863421123e+00	 6.4085333976e-02	 2.0514124047e+00
 1.0857560150e+00	 7.3348282920e-02	 2.0613245209e+00
 1.0850886720e+00	 8.2635597504e-02	 2.0726845577e+00
 1.0843393864e+00	 9.1946364036e-02	 2.0855122047e+00
 1.0970551273e+00	 0.0000000000e+00	 2.1523644274e+00
 1.0970170397e+00	 9.1418139695e-03	 2.1535290831e+00
 1.0969022580e+00	 1.8314142723e-02	 2.1554337655e+00
 1.0967100097e+00	 2.7516189635e-02	 2.1581790301e+00
 1.0964395312e+00	 3.6747140141e-02	 2.1618543716e+00
 1.0960900676e+00	 4.6006161766e-02	 2.1665379297e+00
 1.0956608737e+00	 5.5292404174e-02	 2.1722962247e+00
 1.0951512142e+00	 6.4604999219e-02	 2.1791839230e+00
 1.0945603642e+00	 7.3943061023e-02	 2.1872436323e+00
 1.0938876098e+00	 8.3305686045e-02	 2.1965057279e+00
 1.0931322483e+00	 9.2691953187e-02	 2.2069882108e+00
 1.1058795663e+00	 0.0000000000e+00	 2.2812055017e+00
 1.1058411723e+00	 9.2153484500e-03	 2.2822416444e+00
 1.1057254673e+00	 1.8461457137e-02	 2.2837959627e+00
 1.1055316727e+00	 2.7737523030e-02	 2.2859693134e+00
 1.1052590185e+00	 3.7042725009e-02	 2.2888511400e+00
 1.1049067439e+00	 4.6376223905e-02	 2.2925191852e+00
 1.1044740977e+00	 5.5737162540e-02	 2.2970392344e+00
 1.1039603386e+00	 6.5124665788e-02	 2.3024648909e+00
 1.1033647360e+00	 7.4537840642e-02	 2.3088373819e+00
 1.1026865701e+00	 8.3975776295e-02	 2.3161853978e+00
 1.1019251326e+00	 9.3437544239e-02	 2.3245249632e+00
 1.1147040253e+00	 0.0000000000e+00	 2.4044885449e+00
 1.1146653250e+00	 9.2888830972e-03	 2.4054191328e+00
 1.1145486967e+00	 1.8608771886e-02	 2.4066665117e+00
 1.1143533556e+00	 2.7958856926e-02	 2.4083316646e+00
 1.1140785257e+00	 3.7338310547e-02	 2.4105037885e+00
 1.1137234401e+00	 4.6746286882e-02	 2.4132600149e+00
 1.1132873416e+00	 5.6181921914e-02	 2.4166651617e+00
 1.1127694829e+00	 6.5644333534e-02	 2.4207715190e+00
 1.1121691277e+00	 7.5132621609e-02	 2.4256186669e+00
 1.1114855503e+00	 8.4645868064e-02	 2.4312333281e+00
 1.1107180368e+00	 9.4183136981e-02	 2.4376292540e+00
 1.1235285018e+00	 0.0000000000e+00	 2.5217734365e+00
 1.1234894951e+00	 9.3624178902e-03	 2.5226167825e+00
 1.1233719435e+00	 1.8756086927e-02	 2.5235962403e+00
 1.1231750561e+00	 2.8180191261e-02	 2.5248127354e+00
 1.1228980505e+00	 3.7633896670e-02	 2.5263550148e+00
 1.1225401539e+00	 4.7116350593e-02	 2.5282993753e+00
 1.1221006030e+00	 5.6626682171e-02	 2.5307094259e+00
 1.1215786448e+00	 6.6164002311e-02	 2.5336358840e+00
 1.1209735368e+00	 7.5727403755e-02	 2.5371164060e+00
 1.1202845479e+00	 8.5315961161e-02	 2.5411754548e+00
 1.1195109585e+00	 9.4928731201e-02	 2.5458242009e+00
 1.1323529932e+00	 0.0000000000e+00	 2.6326342229e+00
 1.1323136802e+00	 9.4359528082e-03	 2.6334041517e+00
 1.1321952054e+00	 1.8903402218e-02	 2.6341504574e+00
 1.1319967715e+00	 2.8401525972e-02	 2.6349738156e+00
 1.1317175903e+00	 3.7929483297e-02	 2.6359623107e+00
 1.1313568826e+00	 4.7486414933e-02	 2.6371911729e+00
 1.1309138794e+00	 5.7071443183e-02	 2.6387225506e+00
 1.1303878216e+00	 6.6683671971e-02	 2.6406053189e+00
 1.1297779609e+00	 7.6322186913e-02	 2.6428749246e+00
 1.1290835605e+00	 8.5986055398e-02	 2.6455532676e+00
 1.1283038952e+00	 9.5674326689e-02	 2.6486486201e+00
 1.1411774972e+00	 0.0000000000e+00	 2.7366585692e+00
 1.1411378778e+00	 9.5094878304e-03	 2.7373645699e+00
 1.1410184797e+00	 1.9050717718e-02	 2.7379083954e+00
 1.1408184994e+00	 2.8622860997e-02	 2.7383902709e+00
 1.1405371425e+00	 3.8225070342e-02	 2.7388973960e+00
 1.1401736239e+00	 4.7856479797e-02	 2.7395036922e+00
 1.1397271683e+00	 5.7516204826e-02	 2.7402695862e+00
 1.1391970108e+00	 6.7203342368e-02	 2.7412418313e+00
 1.1385823975e+00	 7.6916970913e-02	 2.7424533672e+00
 1.1378825856e+00	 8.6656150583e-02	 2.7439232180e+00
 1.1370968443e+00	 9.6419923233e-02	 2.7456564288e+00
 1.1500020112e+00	 0.0000000000e+00	 2.8334472371e+00
 1.1499620855e+00	 9.5830229361e-03	 2.8340946106e+00
 1.1498417640e+00	 1.9198033385e-02	 2.8344626794e+00
 1.1496402374e+00	 2.8844196273e-02	 2.8346510071e+00
 1.1493567048e+00	 3.8520657722e-02	 2.8347456775e+00
 1.1489903751e+00	 4.8226545081e-02	 2.8348190509e+00
 1.1485404671e+00	 5.7960966972e-02	 2.8349295607e+00
 1.1480062101e+00	 6.7723013353e-02	 2.8351215481e+00
 1.1473868441e+00	 7.7511755587e-02	 2.8354251379e+00
 1.1466816207e+00	 8.7326246528e-02	 2.8358561537e+00
 1.1458898033e+00	 9.7165520622e-02	 2.8364160740e+00
 1.1588265327e+00	 0.0000000000e+00	 2.9226135853e+00
 1.1587863006e+00	 9.6565581045e-03	 2.9232035890e+00
 1.1586650559e+00	 1.9345349177e-02	 2.9234188193e+00
 1.1584619828e+00	 2.9065531737e-02	 2.9233579589e+00
 1.1581762745e+00	 3.8816245354e-02	 2.9231057331e+00
 1.1578071338e+00	 4.8596610680e-02	 2.9227326791e+00
 1.1573537735e+00	 5.8405729497e-02	 2.9222949540e+00
 1.1568154168e+00	 6.8242684780e-02	 2.9218341858e+00
 1.1561912981e+00	 7.8106540766e-02	 2.9213773650e+00
 1.1554806632e+00	 8.7996343042e-02	 2.9209367791e+00
 1.1546827698e+00	 9.7911118644e-02	 2.9205099884e+00
 1.1676510592e+00	 0.0000000000e+00	 3.0037830937e+00
 1.1676105207e+00	 9.7300933146e-03	 3.0043130809e+00
 1.1674883527e+00	 1.9492665053e-02	 3.0043947264e+00
 1.1672837332e+00	 2.9286867327e-02	 3.0041256008e+00
 1.1669958493e+00	 3.9111833154e-02	 3.0035888195e+00
 1.1666238976e+00	 4.8966676488e-02	 3.0028528222e+00
 1.1661670849e+00	 5.8850492274e-02	 3.0019711966e+00
 1.1656246286e+00	 6.8762356501e-02	 3.0009825443e+00
 1.1649957572e+00	 7.8701326282e-02	 2.9999103909e+00
 1.1642797107e+00	 8.8666439936e-02	 2.9987631397e+00
 1.1634757414e+00	 9.8656717088e-02	 2.9975340694e+00
 1.1764755882e+00	 0.0000000000e+00	 3.0765929084e+00
 1.1764347433e+00	 9.8036285459e-03	 3.0770564650e+00
 1.1763116521e+00	 1.9639980971e-02	 3.0770202499e+00
 1.1761054862e+00	 2.9508202981e-02	 3.0765804815e+00
 1.1758154265e+00	 3.9407421038e-02	 3.0758184012e+00
 1.1754406638e+00	 4.9336742402e-02	 3.0748000667e+00
 1.1749803987e+00	 5.9295255177e-02	 3.0735761909e+00
 1.1744338428e+00	 6.9282028370e-02	 3.0721820241e+00
 1.1738002187e+00	 7.9296111967e-02	 3.0706372840e+00
 1.1730787607e+00	 8.9336537019e-02	 3.0689461297e+00
 1.1722687154e+00	 9.9402315743e-02	 3.0670971826e+00
 1.0843393864e+00	 9.1946364036e-02	 2.0855122047e+00
 1.0835073244e+00	 1.0128123642e-01	 2.0996409552e+00
 1.0825919328e+00	 1.1063766632e-01	 2.1149240882e+00
 1.0815925508e+00	 1.2001466501e-01	 2.1313998734e+00
 1.0805085309e+00	 1.2941122629e-01	 2.1490946933e+00
 1.0793392389e+00	 1.3882632656e-01	 2.1680229839e+00
 1.0780840550e+00	 1.4825892506e-01	 2.1881872025e+00
 1.0767423742e+00	 1.5770796401e-01	 2.2095778251e+00
 1.0753136062e+00	 1.6717236883e-01	 2.2321733706e+00
 1.0737971766e+00	 1.7665104837e-01	 2.2559404521e+00
 1.0721925270e+00	 1.8614289510e-01	 2.2808338553e+00
 1.0931322483e+00	 9.2691953187e-02	 2.2069882108e+00
 1.0922934391e+00	 1.0210252166e-01	 2.2185227339e+00
 1.0913706247e+00	 1.1153482244e-01	 2.2309687284e+00
 1.0903631388e+00	 1.2098785882e-01	 2.2443731371e+00
 1.0892703285e+00	 1.3046061641e-01	 2.2587707922e+00
 1.0880915548e+00	 1.3995206333e-01	 2.2741843595e+00
 1.0868261927e+00	 1.4946115037e-01	 2.2906243114e+00
 1.0854736322e+00	 1.5898681117e-01	 2.3080889289e+00
 1.0840332784e+00	 1.6852796246e-01	 2.3265643318e+00
 1.0825045521e+00	 1.7808350420e-01	 2.3460245358e+00
 1.0808868905e+00	 1.8765231991e-01	 2.3664315379e+00
 1.1019251326e+00	 9.3437544239e-02	 2.3245249632e+00
 1.1010795762e+00	 1.0292380898e-01	 2.3336839191e+00
 1.1001493389e+00	 1.1243198086e-01	 2.3435249297e+00
 1.0991337491e+00	 1.2196105511e-01	 2.3541019982e+00
 1.0980321485e+00	 1.3151000921e-01	 2.3654567949e+00
 1.0968438930e+00	 1.4107780297e-01	 2.3776186087e+00
 1.0955683527e+00	 1.5066337875e-01	 2.3906043273e+00
 1.0942049125e+00	 1.6026566160e-01	 2.4044184473e+00
 1.0927529729e+00	 1.6988355953e-01	 2.4190531130e+00
 1.0912119499e+00	 1.7951596368e-01	 2.4344881835e+00
 1.0895812762e+00	 1.8916174857e-01	 2.4506913265e+00
 1.1107180368e+00	 9.4183136981e-02	 2.4376292540e+00
 1.1098657333e+00	 1.0374509817e-01	 2.4446288336e+00
 1.1089280731e+00	 1.1332914130e-01	 2.4520953992e+00
 1.1079043792e+00	 1.2293425361e-01	 2.4600884241e+00
 1.1067939884e+00	 1.3255940439e-01	 2.4686548284e+00
 1.1055962511e+00	 1.4220354517e-01	 2.4778289394e+00
 1.1043105325e+00	 1.5186560985e-01	 2.4876324829e+00
 1.1029362126e+00	 1.6154451493e-01	 2.4980746039e+00
 1.1014726871e+00	 1.7123915968e-01	 2.5091519179e+00
 1.0999193674e+00	 1.8094842641e-01	 2.5208485893e+00
 1.0982756816e+00	 1.9067118065e-01	 2.5331364389e+00
 1.1195109585e+00	 9.4928731201e-02	 2.5458242009e+00
 1.1186519078e+00	 1.0456638899e-01	 2.5508782622e+00
 1.1177068246e+00	 1.1422630353e-01	 2.5561994165e+00
 1.1166750268e+00	 1.2390745403e-01	 2.5618510386e+00
 1.1155558456e+00	 1.3360880165e-01	 2.5678837308e+00
 1.1143486265e+00	 1.4332928959e-01	 2.5743352958e+00
 1.1130527296e+00	 1.5306784333e-01	 2.5812307409e+00
 1.1116675300e+00	 1.6282337079e-01	 2.5885823141e+00
 1.1101924186e+00	 1.7259476252e-01	 2.5963895686e+00
 1.1086268022e+00	 1.8238089199e-01	 2.6046394582e+00
 1.1069701042e+00	 1.9218061573e-01	 2.6133064599e+00
 1.1283038952e+00	 9.5674326689e-02	 2.6486486201e+00
 1.1274380972e+00	 1.0538768121e-01	 2.6519688193e+00
 1.1264855911e+00	 1.1512346728e-01	 2.6553721969e+00
 1.1254456893e+00	 1.2488065612e-01	 2.6589244807e+00
 1.1243177177e+00	 1.3465820069e-01	 2.6626784076e+00
 1.1231010168e+00	 1.4445503593e-01	 2.6666737121e+00
 1.1217949416e+00	 1.5427007886e-01	 2.6709371470e+00
 1.1203988623e+00	 1.6410222882e-01	 2.6754825365e+00
 1.1189121650e+00	 1.7395036767e-01	 2.6803108590e+00
 1.1173342518e+00	 1.8381335999e-01	 2.6854103610e+00
 1.1156645417e+00	 1.9369005337e-01	 2.6907566983e+00
 1.1370968443e+00	 9.6419923233e-02	 2.7456564288e+00
 1.1362242991e+00	 1.0620897458e-01	 2.7474523460e+00
 1.1352643700e+00	 1.1602063230e-01	 2.7491642838e+00
 1.1342163642e+00	 1.2585385957e-01	 2.7508587933e+00
 1.1330796023e+00	 1.3570760123e-01	 2.7525892170e+00
 1.1318534195e+00	 1.4558078387e-01	 2.7543956962e+00
 1.1305371660e+00	 1.5547231610e-01	 2.7563052113e+00
 1.1291302069e+00	 1.6538108867e-01	 2.7583316551e+00
 1.1276319237e+00	 1.7530597473e-01	 2.7604759367e+00
 1.1260417137e+00	 1.8524583003e-01	 2.7627261170e+00
 1.1243589914e+00	 1.9519949315e-01	 2.7650575725e+00
 1.1458898033e+00	 9.7165520622e-02	 2.8364160740e+00
 1.1450105109e+00	 1.0703026889e-01	 2.8368953340e+00
 1.1440431589e+00	 1.1691779834e-01	 2.8371409687e+00
 1.1429870490e+00	 1.2682706414e-01	 2.8372188396e+00
 1.1418414967e+00	 1.3675700294e-01	 2.8371813833e+00
 1.1406058321e+00	 1.4670653308e-01	 2.8370676404e+00
 1.1392794002e+00	 1.5667455469e-01	 2.8369033184e+00
 1.1378615615e+00	 1.6665994997e-01	 2.8367008881e+00
 1.1363516922e+00	 1.7666158333e-01	 2.8364597122e+00
 1.1347491855e+00	 1.8667830168e-01	 2.8361662055e+00
 1.1330534510e+00	 1.9670893464e-01	 2.8357940241e+00
 1.1546827698e+00	 9.7911118644e-02	 2.9205099884e+00
 1.1537967302e+00	 1.0785156390e-01	 2.9198783765e+00
 1.1528219553e+00	 1.1781496514e-01	 2.9188817369e+00
 1.1517577413e+00	 1.2780026952e-01	 2.9175837452e+00
 1.1506033987e+00	 1.3780640555e-01	 2.9160344367e+00
 1.1493582522e+00	 1.4783228325e-01	 2.9142702595e+00
 1.1480216420e+00	 1.5787679431e-01	 2.9123141637e+00
 1.1465929234e+00	 1.6793881235e-01	 2.9101757239e+00
 1.1450714682e+00	 1.7801719308e-01	 2.9078512954e+00
 1.1434566647e+00	 1.8811077456e-01	 2.9053242025e+00
 1.1417479180e+00	 1.9821837741e-01	 2.9025649562e+00
 1.1634757414e+00	 9.8656717088e-02	 2.9975340694e+00
 1.1625829545e+00	 1.0867285937e-01	 2.9959956429e+00
 1.1616007566e+00	 1.1871213245e-01	 2.9939797391e+00
 1.1605284386e+00	 1.2877347546e-01	 2.9915463663e+00
 1.1593653055e+00	 1.3885580876e-01	 2.9887416778e+00
 1.1581106772e+00	 1.4895803405e-01	 2.9855980528e+00
 1.1567638886e+00	 1.5907903460e-01	 2.9821342143e+00
 1.1553242903e+00	 1.6921767546e-01	 2.9783553812e+00
 1.1537912492e+00	 1.7937280360e-01	 2.9742534558e+00
 1.1521641488e+00	 1.8954324825e-01	 2.9698072422e+00
 1.1504423900e+00	 1.9972782104e-01	 2.9649826975e+00
 1.1722687154e+00	 9.9402315743e-02	 3.0670971826e+00
 1.1713691813e+00	 1.0949415507e-01	 3.0648543771e+00
 1.1703795604e+00	 1.1960930001e-01	 3.0620412852e+00
 1.1692991383e+00	 1.2974668168e-01	 3.0587127801e+00
 1.1681272149e+00	 1.3990521226e-01	 3.0549096661e+00
 1.1668631048e+00	 1.5008378517e-01	 3.0506587907e+00
 1.1655061378e+00	 1.6028127524e-01	 3.0459731938e+00
 1.1640556597e+00	 1.7049653892e-01	 3.0408522934e+00
 1.1625110326e+00	 1.8072841450e-01	 3.0352821065e+00
 1.1608716354e+00	 1.9097572234e-01	 3.0292355023e+00
 1.1591368644e+00	 2.0123726509e-01	 3.0226724885e+00
 1.0721925270e+00	 1.8614289510e-01	 2.2808338553e+00
 1.0704994107e+00	 1.9564516936e-01	 2.3067434367e+00
 1.0687170373e+00	 2.0515834672e-01	 2.3335926133e+00
 1.0668448987e+00	 2.1468127528e-01	 2.3613558543e+00
 1.0648825050e+00	 2.2421278792e-01	 2.3899958714e+00
 1.0628293844e+00	 2.3375170258e-01	 2.4194637304e+00
 1.0606850842e+00	 2.4329682261e-01	 2.4496989817e+00
 1.0584491706e+00	 2.5284693703e-01	 2.4806298102e+00
 1.0561212300e+00	 2.6240082098e-01	 2.5121732022e+00
 1.0537008686e+00	 2.7195723598e-01	 2.5442351285e+00
 1.0511877135e+00	 2.8151493038e-01	 2.5767107438e+00
 1.0808868905e+00	 1.8765231991e-01	 2.3664315379e+00
 1.0791800448e+00	 1.9723164771e-01	 2.3876717141e+00
 1.0773832182e+00	 2.0682196701e-01	 2.4096718182e+00
 1.0754958986e+00	 2.1642211660e-01	 2.4324258802e+00
 1.0735175919e+00	 2.2603091987e-01	 2.4559160746e+00
 1.0714478226e+00	 2.3564718519e-01	 2.4801128217e+00
 1.0692861343e+00	 2.4526970618e-01	 2.5049749085e+00
 1.0670320899e+00	 2.5489726208e-01	 2.5304496277e+00
 1.0646852721e+00	 2.6452861806e-01	 2.5564729330e+00
 1.0622452841e+00	 2.7416252562e-01	 2.5829696107e+00
 1.0597117498e+00	 2.8379772296e-01	 2.6098534647e+00
 1.0895812762e+00	 1.8916174857e-01	 2.4506913265e+00
 1.0878607011e+00	 1.9881813010e-01	 2.4675428663e+00
 1.0860494213e+00	 2.0848559156e-01	 2.4849689516e+00
 1.0841469205e+00	 2.1816296236e-01	 2.5029794569e+00
 1.0821527008e+00	 2.2784905645e-01	 2.5215723162e+00
 1.0800662828e+00	 2.3754267262e-01	 2.5407336206e+00
 1.0778872064e+00	 2.4724259478e-01	 2.5604377342e+00
 1.0756150310e+00	 2.5694759235e-01	 2.5806474287e+00
 1.0732493360e+00	 2.6665642057e-01	 2.6013140324e+00
 1.0707897214e+00	 2.7636782089e-01	 2.6223775953e+00
 1.0682358080e+00	 2.8608052136e-01	 2.6437670669e+00
 1.0982756816e+00	 1.9067118065e-01	 2.5331364389e+00
 1.0965413770e+00	 2.0040461609e-01	 2.5458872181e+00
 1.0947156439e+00	 2.1014921987e-01	 2.5590226161e+00
 1.0927979620e+00	 2.1990381206e-01	 2.5725647114e+00
 1.0907878292e+00	 2.2966719716e-01	 2.5865235707e+00
 1.0886847625e+00	 2.3943816435e-01	 2.6008973483e+00
 1.0864882980e+00	 2.4921548786e-01	 2.6156724037e+00
 1.0841979916e+00	 2.5899792727e-01	 2.6308234357e+00
 1.0818134193e+00	 2.6878422790e-01	 2.6463136318e+00
 1.0793341780e+00	 2.7857312116e-01	 2.6620948327e+00
 1.0767598854e+00	 2.8836332494e-01	 2.6781077078e+00
 1.1069701042e+00	 1.9218061573e-01	 2.6133064599e+00
 1.1052220702e+00	 2.0199110523e-01	 2.6222512785e+00
 1.1033818838e+00	 2.1181285148e-01	 2.6313873742e+00
 1.1014490207e+00	 2.2164466522e-01	 2.6407454616e+00
 1.0994229748e+00	 2.3148534148e-01	 2.6503441867e+00
 1.0973032594e+00	 2.4133365985e-01	 2.6601902339e+00
 1.0950894067e+00	 2.5118838485e-01	 2.6702784496e+00
 1.0927809692e+00	 2.6104826626e-01	 2.6805919830e+00
 1.0903775196e+00	 2.7091203946e-01	 2.6911024409e+00
 1.0878786515e+00	 2.8077842580e-01	 2.7017700562e+00
 1.0852839798e+00	 2.9064613305e-01	 2.7125438684e+00
 1.1156645417e+00	 1.9369005337e-01	 2.6907566983e+00
 1.1139027781e+00	 2.0357759706e-01	 2.6961971017e+00
 1.1120481384e+00	 2.1347648592e-01	 2.7016331141e+00
 1.1101000940e+00	 2.2338552134e-01	 2.7071005883e+00
 1.1080581351e+00	 2.3330348888e-01	 2.7126232674e+00
 1.1059217708e+00	 2.4322915856e-01	 2.7182129031e+00
 1.1036905300e+00	 2.5316128520e-01	 2.7238693927e+00
 1.1013639614e+00	 2.6309860874e-01	 2.7295809307e+00
 1.0989416345e+00	 2.7303985463e-01	 2.7353241751e+00
 1.0964231396e+00	 2.8298373420e-01	 2.7410644262e+00
 1.0938080886e+00	 2.9292894504e-01	 2.7467558164e+00
 1.1243589914e+00	 1.9519949315e-01	 2.7650575725e+00
 1.1225834983e+00	 2.0516409114e-01	 2.7673016761e+00
 1.1207144053e+00	 2.1514012271e-01	 2.7693444434e+00
 1.1187511797e+00	 2.2512637992e-01	 2.7712234354e+00
 1.1166933076e+00	 2.3512163886e-01	 2.7729640772e+00
 1.1145402945e+00	 2.4512465996e-01	 2.7745797947e+00
 1.1122916654e+00	 2.5513418834e-01	 2.7760721682e+00
 1.1099469657e+00	 2.6514895412e-01	 2.7774311023e+00
 1.1075057615e+00	 2.7516767281e-01	 2.7786350082e+00
 1.1049676398e+00	 2.8518904571e-01	 2.7796509986e+00
 1.1023322096e+00	 2.9521176026e-01	 2.7804350924e+00
 1.1330534510e+00	 1.9670893464e-01	 2.8357940241e+00
 1.1312642283e+00	 2.0675058702e-01	 2.8351563412e+00
 1.1293806820e+00	 2.1680376139e-01	 2.8341201102e+00
 1.1274022751e+00	 2.2686724048e-01	 2.8327212357e+00
 1.1253284899e+00	 2.3693979090e-01	 2.8309834756e+00
 1.1231588279e+00	 2.4702016351e-01	 2.8289186018e+00
 1.1208928106e+00	 2.5710709371e-01	 2.8265265773e+00
 1.1185299798e+00	 2.6719930182e-01	 2.8237957479e+00
 1.1160698982e+00	 2.7729549341e-01	 2.8207030478e+00
 1.1135121497e+00	 2.8739435973e-01	 2.8172142148e+00
 1.1108563401e+00	 2.9749457807e-01	 2.8132840163e+00
 1.1417479180e+00	 1.9821837741e-01	 2.9025649562e+00
 1.1399449658e+00	 2.0833708425e-01	 2.8993662287e+00
 1.1380469660e+00	 2.1846740149e-01	 2.8955724490e+00
 1.1360533779e+00	 2.2860810251e-01	 2.8912145624e+00
 1.1339636796e+00	 2.3875794449e-01	 2.8863113738e+00
 1.1317773687e+00	 2.4891566867e-01	 2.8808697372e+00
 1.1294939632e+00	 2.5908000077e-01	 2.8748847611e+00
 1.1271130012e+00	 2.6924965126e-01	 2.8683400292e+00
 1.1246340422e+00	 2.7942331581e-01	 2.8612078327e+00
 1.1220566669e+00	 2.8959967562e-01	 2.8534494133e+00
 1.1193804780e+00	 2.9977739782e-01	 2.8450152149e+00
 1.1504423900e+00	 1.9972782104e-01	 2.9649826975e+00
 1.1486257081e+00	 2.0992358237e-01	 2.9595497294e+00
 1.1467132550e+00	 2.2013104253e-01	 2.9533268502e+00
 1.1447044856e+00	 2.3034896554e-01	 2.9463368036e+00
 1.1425988741e+00	 2.4057609910e-01	 2.9385902162e+00
 1.1403959144e+00	 2.5081117490e-01	 2.9300858211e+00
 1.1380951206e+00	 2.6105290894e-01	 2.9208106977e+00
 1.1356960275e+00	 2.7130000187e-01	 2.9107405257e+00
 1.1331981910e+00	 2.8155113943e-01	 2.8998398510e+00
 1.1306011888e+00	 2.9180499276e-01	 2.8880623611e+00
 1.1279046207e+00	 3.0206021886e-01	 2.8753511682e+00
 1.1591368644e+00	 2.0123726509e-01	 3.0226724885e+00
 1.1573064529e+00	 2.1151008095e-01	 3.0153379818e+00
 1.1553795464e+00	 2.2179468403e-01	 3.0070212529e+00
 1.1533555958e+00	 2.3208982905e-01	 2.9977336593e+00
 1.1512340711e+00	 2.4239425423e-01	 2.9874744825e+00
 1.1490144625e+00	 2.5270668167e-01	 2.9762311908e+00
 1.1466962804e+00	 2.6302581766e-01	 2.9639797192e+00
 1.1442790561e+00	 2.7335035306e-01	 2.9506847621e+00
 1.1417623423e+00	 2.8367896364e-01	 2.9363000783e+00
 1.1391457133e+00	 2.9401031052e-01	 2.9207688042e+00
 1.1364287657e+00	 3.0434304055e-01	 2.9040237736e+00
 1.0511877135e+00	 2.8151493038e-01	 2.5767107438e+00
 1.0485814126e+00	 2.9107263984e-01	 2.6097084404e+00
 1.0458816367e+00	 3.0062908817e-01	 2.6433043007e+00
 1.0430880782e+00	 3.1018298736e-01	 2.6773291817e+00
 1.0402004521e+00	 3.1973303789e-01	 2.7116037001e+00
 1.0372184959e+00	 3.2927792916e-01	 2.7459385183e+00
 1.0341419700e+00	 3.3881633997e-01	 2.7801346386e+00
 1.0309706585e+00	 3.4834693899e-01	 2.8139837059e+00
 1.0277043688e+00	 3.5786838524e-01	 2.8472683159e+00
 1.0243429329e+00	 3.6737932860e-01	 2.8797623312e+00
 1.0208862068e+00	 3.7687841031e-01	 2.9112312000e+00
 1.0597117498e+00	 2.8379772296e-01	 2.6098534647e+00
 1.0570843146e+00	 2.9343293548e-01	 2.6372493331e+00
 1.0543626463e+00	 3.0306687665e-01	 2.6652294055e+00
 1.0515464350e+00	 3.1269824800e-01	 2.6936124962e+00
 1.0486353933e+00	 3.2232573948e-01	 2.7222071316e+00
 1.0456292565e+00	 3.3194802986e-01	 2.7508118609e+00
 1.0425277832e+00	 3.4156378724e-01	 2.7792155762e+00
 1.0393307556e+00	 3.5117166948e-01	 2.8071978391e+00
 1.0360379798e+00	 3.6077032473e-01	 2.8345292130e+00
 1.0326492861e+00	 3.7035839192e-01	 2.8609716008e+00
 1.0291645295e+00	 3.7993450129e-01	 2.8862785866e+00
 1.0682358080e+00	 2.8608052136e-01	 2.6437670669e+00
 1.0655872383e+00	 2.9579323714e-01	 2.6656258399e+00
 1.0628436776e+00	 3.0550467133e-01	 2.6880315567e+00
 1.0600048134e+00	 3.1521351505e-01	 2.7107983712e+00
 1.0570703559e+00	 3.2491844768e-01	 2.7337300828e+00
 1.0540400385e+00	 3.3461813737e-01	 2.7566204634e+00
 1.0509136178e+00	 3.4431124151e-01	 2.7792535917e+00
 1.0476908741e+00	 3.5399640717e-01	 2.8014041942e+00
 1.0443716120e+00	 3.6367227163e-01	 2.8228379907e+00
 1.0409556605e+00	 3.7333746285e-01	 2.8433120434e+00
 1.0374428734e+00	 3.8299060006e-01	 2.8625751094e+00
 1.0767598854e+00	 2.8836332494e-01	 2.6781077078e+00
 1.0740901813e+00	 2.9815354415e-01	 2.6945143770e+00
 1.0713247281e+00	 3.0794247155e-01	 2.7114051678e+00
 1.0684632109e+00	 3.1772878780e-01	 2.7285967695e+00
 1.0655053377e+00	 3.2751116175e-01	 2.7458954328e+00
 1.0624508397e+00	 3.3728825094e-01	 2.7630973034e+00
 1.0592994714e+00	 3.4705870202e-01	 2.7799887607e+00
 1.0560510115e+00	 3.5682115127e-01	 2.7963467626e+00
 1.0527052631e+00	 3.6657422510e-01	 2.8119391939e+00
 1.0492620537e+00	 3.7631654053e-01	 2.8265252162e+00
 1.0457212360e+00	 3.8604670575e-01	 2.8398556210e+00
 1.0852839798e+00	 2.9064613305e-01	 2.7125438684e+00
 1.0825931411e+00	 3.0051385584e-01	 2.7236030216e+00
 1.0798057954e+00	 3.1038027660e-01	 2.7350557141e+00
 1.0769216252e+00	 3.2024406554e-01	 2.7467281855e+00
 1.0739403363e+00	 3.3010388097e-01	 2.7584361369e+00
 1.0708616575e+00	 3.3995836980e-01	 2.7699850601e+00
 1.0676853416e+00	 3.4980616797e-01	 2.7811705720e+00
 1.0644111655e+00	 3.5964590097e-01	 2.7917787529e+00
 1.0610389307e+00	 3.6947618433e-01	 2.8015864868e+00
 1.0575684634e+00	 3.7929562411e-01	 2.8103618029e+00
 1.0539996151e+00	 3.8910281751e-01	 2.8178642169e+00
 1.0938080886e+00	 2.9292894504e-01	 2.7467558164e+00
 1.0910961154e+00	 3.0287417155e-01	 2.7525909942e+00
 1.0882868771e+00	 3.1281808580e-01	 2.7586992305e+00
 1.0853800539e+00	 3.2275934755e-01	 2.7649231556e+00
 1.0823753491e+00	 3.3269660460e-01	 2.7710947457e+00
 1.0792724896e+00	 3.4262849320e-01	 2.7770356387e+00
 1.0760712260e+00	 3.5255363860e-01	 2.7825574543e+00
 1.0727713337e+00	 3.6247065548e-01	 2.7874621156e+00
 1.0693726125e+00	 3.7237814849e-01	 2.7915421721e+00
 1.0658748872e+00	 3.8227471277e-01	 2.7945811209e+00
 1.0622780082e+00	 3.9215893447e-01	 2.7963537277e+00
 1.1023322096e+00	 2.9521176026e-01	 2.7804350924e+00
 1.0995991017e+00	 3.0523449060e-01	 2.7811881611e+00
 1.0967679709e+00	 3.1525589845e-01	 2.7820618288e+00
 1.0938384946e+00	 3.2527463313e-01	 2.7829217871e+00
 1.0908103739e+00	 3.3528933190e-01	 2.7836229434e+00
 1.0876833336e+00	 3.4529862039e-01	 2.7840097143e+00
 1.0844571224e+00	 3.5530111312e-01	 2.7839163213e+00
 1.0811315138e+00	 3.6529541398e-01	 2.7831670865e+00
 1.0777063061e+00	 3.7528011676e-01	 2.7815767273e+00
 1.0741813228e+00	 3.8525380564e-01	 2.7789506486e+00
 1.0705564131e+00	 3.9521505575e-01	 2.7750852316e+00
 1.1108563401e+00	 2.9749457807e-01	 2.8132840163e+00
 1.1081020977e+00	 3.0759481232e-01	 2.8091145582e+00
 1.1052490742e+00	 3.1769371386e-01	 2.8048792353e+00
 1.1022969449e+00	 3.2778992156e-01	 2.8004733068e+00
 1.0992454083e+00	 3.3788206214e-01	 2.7957811040e+00
 1.0960941871e+00	 3.4796875060e-01	 2.7906762926e+00
 1.0928430283e+00	 3.5804859075e-01	 2.7850221341e+00
 1.0894917034e+00	 3.6812017569e-01	 2.7786717461e+00
 1.0860400091e+00	 3.7818208832e-01	 2.7714683591e+00
 1.0824877678e+00	 3.8823290189e-01	 2.7632455689e+00
 1.0788348274e+00	 3.9827118050e-01	 2.7538275836e+00
 1.1193804780e+00	 2.9977739782e-01	 2.8450152149e+00
 1.1166051009e+00	 3.0995513605e-01	 2.8360999340e+00
 1.1137301848e+00	 3.2013153135e-01	 2.8268963468e+00
 1.1107554023e+00	 3.3030521213e-01	 2.8173356271e+00
 1.1076804498e+00	 3.4047479458e-01	 2.8073378649e+00
 1.1045050478e+00	 3.5063888308e-01	 2.7968122879e+00
 1.1012289412e+00	 3.6079607072e-01	 2.7856574802e+00
 1.0978519000e+00	 3.7094493980e-01	 2.7737615971e+00
 1.0943737193e+00	 3.8108406235e-01	 2.7610025742e+00
 1.0907942199e+00	 3.9121200067e-01	 2.7472483305e+00
 1.0871132486e+00	 4.0132730785e-01	 2.7323569632e+00
 1.1279046207e+00	 3.0206021886e-01	 2.8753511682e+00
 1.1251081089e+00	 3.1231546112e-01	 2.8618833098e+00
 1.1222113002e+00	 3.2256935021e-01	 2.8478668033e+00
 1.1192138646e+00	 3.3282050413e-01	 2.8332749289e+00
 1.1161154962e+00	 3.4306752849e-01	 2.8180697165e+00
 1.1129159133e+00	 3.5330901707e-01	 2.8022021169e+00
 1.1096148590e+00	 3.6354355225e-01	 2.7856121682e+00
 1.1062121014e+00	 3.7376970551e-01	 2.7682291558e+00
 1.1027074341e+00	 3.8398603803e-01	 2.7499717650e+00
 1.0991006766e+00	 3.9419110114e-01	 2.7307482240e+00
 1.0953916746e+00	 4.0438343693e-01	 2.7104564370e+00
 1.1364287657e+00	 3.0434304055e-01	 2.9040237736e+00
 1.1336111194e+00	 3.1467578686e-01	 2.8862125587e+00
 1.1306924180e+00	 3.2500716977e-01	 2.8675525778e+00
 1.1276723292e+00	 3.3533579683e-01	 2.8480652601e+00
 1.1245505449e+00	 3.4566026314e-01	 2.8277606076e+00
 1.1213267811e+00	 3.5597915182e-01	 2.8066373074e+00
 1.1180007791e+00	 3.6629103455e-01	 2.7846828367e+00
 1.1145723051e+00	 3.7659447202e-01	 2.7618735594e+00
 1.1110411513e+00	 3.8688801453e-01	 2.7381748113e+00
 1.1074071358e+00	 3.9717020246e-01	 2.7135409743e+00
 1.1036701029e+00	 4.0743956688e-01	 2.6879155377e+00
 1.0208862068e+00	 3.7687841031e-01	 2.9112312000e+00
 1.0173334593e+00	 3.8636587493e-01	 2.9420403265e+00
 1.0136851754e+00	 3.9583873097e-01	 2.9725531774e+00
 1.0099412857e+00	 4.0529559579e-01	 3.0025361624e+00
 1.0061017465e+00	 4.1473508031e-01	 3.0317482305e+00
 1.0021665399e+00	 4.2415578950e-01	 3.0599411518e+00
 9.9813567443e-01	 4.3355632305e-01	 3.0868598004e+00
 9.9400918483e-01	 4.4293527589e-01	 3.1122424377e+00
 9.8978713259e-01	 4.5229123883e-01	 3.1358209968e+00
 9.8546960600e-01	 4.6162279917e-01	 3.1573213668e+00
 9.8105672044e-01	 4.7092854131e-01	 3.1764636792e+00
 1.0291645295e+00	 3.7993450129e-01	 2.8862785866e+00
 1.0255829730e+00	 3.8949889935e-01	 2.9108028278e+00
 1.0219051053e+00	 3.9904857037e-01	 2.9349154698e+00
 1.0181308566e+00	 4.0858212051e-01	 2.9583983973e+00
 1.0142601827e+00	 4.1809814941e-01	 2.9810257337e+00
 1.0102930657e+00	 4.2759525073e-01	 3.0025640944e+00
 1.0062295141e+00	 4.3707201281e-01	 3.0227728402e+00
 1.0020695630e+00	 4.4652701917e-01	 3.0414043290e+00
 9.9781327428e-01	 4.5595884921e-01	 3.0582041682e+00
 9.9346073706e-01	 4.6536607878e-01	 3.0729114664e+00
 9.8901206759e-01	 4.7474728079e-01	 3.0852590849e+00
 1.0374428734e+00	 3.8299060006e-01	 2.8625751094e+00
 1.0338325077e+00	 3.9263193177e-01	 2.8809663603e+00
 1.0301250562e+00	 4.0225841797e-01	 2.8988580899e+00
 1.0263204483e+00	 4.1186865362e-01	 2.9160459853e+00
 1.0224186397e+00	 4.2146122708e-01	 2.9323176364e+00
 1.0184196122e+00	 4.3103472073e-01	 2.9474527617e+00
 1.0143233744e+00	 4.4058771152e-01	 2.9612234326e+00
 1.0101299617e+00	 4.5011877161e-01	 2.9733942953e+00
 1.0058394364e+00	 4.5962646895e-01	 2.9837227916e+00
 1.0014518885e+00	 4.6910936794e-01	 2.9919593782e+00
 9.9696743504e-01	 4.7856603001e-01	 2.9978477452e+00
 1.0457212360e+00	 3.8604670575e-01	 2.8398556210e+00
 1.0420820611e+00	 3.9576497128e-01	 2.8522568069e+00
 1.0383450257e+00	 4.0546827284e-01	 2.8640972821e+00
 1.0345100586e+00	 4.1515519417e-01	 2.8751848995e+00
 1.0305771152e+00	 4.2482431238e-01	 2.8853190454e+00
 1.0265461771e+00	 4.3447419853e-01	 2.8942908384e+00
 1.0224172531e+00	 4.4410341821e-01	 2.9018833248e+00
 1.0181903786e+00	 4.5371053220e-01	 2.9078716721e+00
 1.0138656168e+00	 4.6329409701e-01	 2.9120233589e+00
 1.0094430580e+00	 4.7285266558e-01	 2.9140983622e+00
 1.0049228205e+00	 4.8238478788e-01	 2.9138493441e+00
 1.0539996151e+00	 3.8910281751e-01	 2.8178642169e+00
 1.0503316309e+00	 3.9889801701e-01	 2.8244094748e+00
 1.0465650115e+00	 4.0867813407e-01	 2.8303589106e+00
 1.0426996852e+00	 4.1844174124e-01	 2.8355309431e+00
 1.0387356069e+00	 4.2818740435e-01	 2.8397351219e+00
 1.0346727582e+00	 4.3791368315e-01	 2.8427723005e+00
 1.0305111478e+00	 4.4761913188e-01	 2.8444348045e+00
 1.0262508116e+00	 4.5730229990e-01	 2.8445065963e+00
 1.0218918131e+00	 4.6696173234e-01	 2.8427634348e+00
 1.0174342434e+00	 4.7659597065e-01	 2.8389730331e+00
 1.0128782218e+00	 4.8620355333e-01	 2.8328952115e+00
 1.0622780082e+00	 3.9215893447e-01	 2.7963537277e+00
 1.0585812147e+00	 4.0203106806e-01	 2.7971685694e+00
 1.0547850113e+00	 4.1188800077e-01	 2.7973779157e+00
 1.0508893257e+00	 4.2172829390e-01	 2.7968091861e+00
 1.0468941124e+00	 4.3155050204e-01	 2.7952804971e+00
 1.0427993530e+00	 4.4135317361e-01	 2.7926008102e+00
 1.0386050562e+00	 4.5113485152e-01	 2.7885700729e+00
 1.0343112582e+00	 4.6089407372e-01	 2.7829793560e+00
 1.0299180230e+00	 4.7062937390e-01	 2.7756109845e+00
 1.0254254424e+00	 4.8033928208e-01	 2.7662386639e+00
 1.0208336366e+00	 4.9002232527e-01	 2.7546276031e+00
 1.0705564131e+00	 3.9521505575e-01	 2.7750852316e+00
 1.0668308102e+00	 4.0516412356e-01	 2.7702866894e+00
 1.0630050227e+00	 4.1509787201e-01	 2.7648977897e+00
 1.0590789777e+00	 4.2501485122e-01	 2.7587534224e+00
 1.0550526295e+00	 4.3491360449e-01	 2.7516787104e+00
 1.0509259594e+00	 4.4479266895e-01	 2.7434891327e+00
 1.0466989762e+00	 4.5465057614e-01	 2.7339906405e+00
 1.0423717163e+00	 4.6448585262e-01	 2.7229797660e+00
 1.0379442443e+00	 4.7429702066e-01	 2.7102437255e+00
 1.0334166527e+00	 4.8408259882e-01	 2.6955605159e+00
 1.0287890626e+00	 4.9384110262e-01	 2.6786990071e+00
 1.0788348274e+00	 3.9827118050e-01	 2.7538275836e+00
 1.0750804151e+00	 4.0829718260e-01	 2.7435243395e+00
 1.0712250434e+00	 4.1830774689e-01	 2.7326700727e+00
 1.0672686391e+00	 4.2830141226e-01	 2.7211056471e+00
 1.0632111559e+00	 4.3827671075e-01	 2.7086616668e+00
 1.0590525750e+00	 4.4823216819e-01	 2.6951585752e+00
 1.0547929053e+00	 4.5816630474e-01	 2.6804067456e+00
 1.0504321835e+00	 4.6807763560e-01	 2.6642065640e+00
 1.0459704747e+00	 4.7796467158e-01	 2.6463485035e+00
 1.0414078721e+00	 4.8782591980e-01	 2.6266131924e+00
 1.0367444977e+00	 4.9765988430e-01	 2.6047714753e+00
 1.0871132486e+00	 4.0132730785e-01	 2.7323569632e+00
 1.0833300269e+00	 4.1143024431e-01	 2.7166494614e+00
 1.0794450712e+00	 4.2151762450e-01	 2.7004538661e+00
 1.0754583074e+00	 4.3158797609e-01	 2.6836155524e+00
 1.0713696892e+00	 4.4163981988e-01	 2.6659691151e+00
 1.0671791975e+00	 4.5167167035e-01	 2.6473384445e+00
 1.0628868413e+00	 4.6168203634e-01	 2.6275367928e+00
 1.0584926576e+00	 4.7166942163e-01	 2.6063668298e+00
 1.0539967119e+00	 4.8163232562e-01	 2.5836206908e+00
 1.0493990983e+00	 4.9156924396e-01	 2.5590800153e+00
 1.0446999395e+00	 5.0147866923e-01	 2.5325159791e+00
 1.0953916746e+00	 4.0438343693e-01	 2.7104564370e+00
 1.0915796435e+00	 4.1456330780e-01	 2.6894369811e+00
 1.0876651036e+00	 4.2472750393e-01	 2.6680153636e+00
 1.0836479804e+00	 4.3487454179e-01	 2.6460400412e+00
 1.0795282271e+00	 4.4500293091e-01	 2.6233481433e+00
 1.0753058246e+00	 4.5511117446e-01	 2.5997655256e+00
 1.0709807819e+00	 4.6519776993e-01	 2.5751068117e+00
 1.0665531362e+00	 4.7526120969e-01	 2.5491754241e+00
 1.0620229537e+00	 4.8529998173e-01	 2.5217636045e+00
 1.0573903290e+00	 4.9531257024e-01	 2.4926524240e+00
 1.0526553859e+00	 5.0529745632e-01	 2.4616117863e+00
 1.1036701029e+00	 4.0743956688e-01	 2.6879155377e+00
 1.0998292624e+00	 4.1769637217e-01	 2.6616683723e+00
 1.0958851383e+00	 4.2793738427e-01	 2.6351273989e+00
 1.0918376557e+00	 4.3816110842e-01	 2.6081427583e+00
 1.0876867674e+00	 4.4836604289e-01	 2.5805526925e+00
 1.0834324540e+00	 4.5855067955e-01	 2.5521835761e+00
 1.0790747247e+00	 4.6871350451e-01	 2.5228499339e+00
 1.0746136171e+00	 4.7885299878e-01	 2.4923544470e+00
 1.0700491977e+00	 4.8896763889e-01	 2.4604879460e+00
 1.0653815619e+00	 4.9905589759e-01	 2.4270293944e+00
 1.0606108344e+00	 5.0911624449e-01	 2.3917458610e+00
 9.8105672044e-01	 4.7092854131e-01	 3.1764636792e+00
 9.7654939274e-01	 4.8020547255e-01	 3.1939279886e+00
 9.7194705020e-01	 4.8945375776e-01	 3.2103968763e+00
 9.6724988951e-01	 4.9867197668e-01	 3.2255786495e+00
 9.6245813498e-01	 5.0785870872e-01	 3.2391787015e+00
 9.5757203867e-01	 5.1701253362e-01	 3.2508997992e+00
 9.5259188044e-01	 5.2613203208e-01	 3.2604423712e+00
 9.4751796805e-01	 5.3521578645e-01	 3.2675048008e+00
 9.4235063717e-01	 5.4426238140e-01	 3.2717837217e+00
 9.3709025147e-01	 5.5327040460e-01	 3.2729743204e+00
 9.3173720256e-01	 5.6223844740e-01	 3.2707706445e+00
 9.8901206759e-01	 4.7474728079e-01	 3.0852590849e+00
 9.8446819017e-01	 4.8409943827e-01	 3.0959667146e+00
 9.7982852743e-01	 4.9342271743e-01	 3.1057533825e+00
 9.7509327766e-01	 5.0271568649e-01	 3.1143379756e+00
 9.7026266700e-01	 5.1197691336e-01	 3.1214358519e+00
 9.6533694954e-01	 5.2120496623e-01	 3.1267590912e+00
 9.6031640743e-01	 5.3039841432e-01	 3.1300167467e+00
 9.5520135089e-01	 5.3955582847e-01	 3.1309151007e+00
 9.4999211835e-01	 5.4867578187e-01	 3.1291579239e+00
 9.4468907640e-01	 5.5775685075e-01	 3.1244467408e+00
 9.3929261984e-01	 5.6679761502e-01	 3.1164811022e+00
 9.9696743504e-01	 4.7856603001e-01	 2.9978477452e+00
 9.9238700779e-01	 4.8799341392e-01	 3.0021460880e+00
 9.8771002475e-01	 4.9739168722e-01	 3.0056068598e+00
 9.8293668581e-01	 5.0675940662e-01	 3.0079547224e+00
 9.7806721892e-01	 5.1609512849e-01	 3.0089103643e+00
 9.7310188022e-01	 5.2539740954e-01	 3.0081907220e+00
 9.6804095411e-01	 5.3466480743e-01	 3.0055092013e+00
 9.6288475333e-01	 5.4389588155e-01	 3.0005759025e+00
 9.5763361901e-01	 5.5308919359e-01	 2.9930978488e+00
 9.5228792071e-01	 5.6224330833e-01	 2.9827792220e+00
 9.4684805640e-01	 5.7135679427e-01	 2.9693216039e+00
 1.0049228205e+00	 4.8238478788e-01	 2.9138493441e+00
 1.0003058434e+00	 4.9188739840e-01	 2.9120741863e+00
 9.9559153995e-01	 5.0136066601e-01	 2.9095581113e+00
 9.9078011175e-01	 5.1080313591e-01	 2.9060268741e+00
 9.8587178854e-01	 5.2021335296e-01	 2.9012019809e+00
 9.8086682850e-01	 5.2958986234e-01	 2.8948008870e+00
 9.7576551830e-01	 5.3893121022e-01	 2.8865371947e+00
 9.7056817318e-01	 5.4823594446e-01	 2.8761208541e+00
 9.6527513700e-01	 5.5750261532e-01	 2.8632583673e+00
 9.5988678225e-01	 5.6672977608e-01	 2.8476529988e+00
 9.5440351008e-01	 5.7591598385e-01	 2.8290049929e+00
 1.0128782218e+00	 4.8620355333e-01	 2.8328952115e+00
 1.0082246946e+00	 4.9578139060e-01	 2.8253709620e+00
 1.0034730708e+00	 5.0532965267e-01	 2.8172199082e+00
 9.9862355324e-01	 5.1484687322e-01	 2.8081643374e+00
 9.9367637363e-01	 5.2433158560e-01	 2.7979221786e+00
 9.8863179217e-01	 5.3378232346e-01	 2.7862071840e+00
 9.8349009781e-01	 5.4319762147e-01	 2.7727291093e+00
 9.7825160827e-01	 5.5257601599e-01	 2.7571938968e+00
 9.7291667014e-01	 5.6191604579e-01	 2.7393038608e+00
 9.6748565886e-01	 5.7121625274e-01	 2.7187578787e+00
 9.6195897875e-01	 5.8047518247e-01	 2.6952515900e+00
 1.0208336366e+00	 4.9002232527e-01	 2.7546276031e+00
 1.0161435594e+00	 4.9967538942e-01	 2.7416675006e+00
 1.0113546150e+00	 5.0929864608e-01	 2.7282162317e+00
 1.0064670081e+00	 5.1889061741e-01	 2.7139881723e+00
 1.0014809720e+00	 5.2844982524e-01	 2.6986933950e+00
 9.9639676905e-01	 5.3797479171e-01	 2.6820378395e+00
 9.9121469045e-01	 5.4746403997e-01	 2.6637234827e+00
 9.8593505643e-01	 5.5691609490e-01	 2.6434485090e+00
 9.8055821627e-01	 5.6632948378e-01	 2.6209074833e+00
 9.7508454838e-01	 5.7570273701e-01	 2.5957915288e+00
 9.6951446026e-01	 5.8503438884e-01	 2.5677885110e+00
 1.0287890626e+00	 4.9384110262e-01	 2.6786990071e+00
 1.0240624354e+00	 5.0356939376e-01	 2.6606053066e+00
 1.0192361704e+00	 5.1326764511e-01	 2.6421815429e+00
 1.0143104740e+00	 5.2293436733e-01	 2.6231298517e+00
 1.0092855814e+00	 5.3256807072e-01	 2.6031482818e+00
 1.0041617569e+00	 5.4216726590e-01	 2.5819309623e+00
 9.9893929404e-01	 5.5173046451e-01	 2.5591682665e+00
 9.9361851547e-01	 5.6125617995e-01	 2.5345469768e+00
 9.8819977323e-01	 5.7074292801e-01	 2.5077504498e+00
 9.8268344868e-01	 5.8018922765e-01	 2.4784587864e+00
 9.7706995248e-01	 5.8959360168e-01	 2.4463428940e+00
 1.0367444977e+00	 4.9765988430e-01	 2.6047714753e+00
 1.0319813203e+00	 5.0746340251e-01	 2.5818356148e+00
 1.0271177347e+00	 5.1723664864e-01	 2.5587600787e+00
 1.0221539488e+00	 5.2697812183e-01	 2.5352305460e+00
 1.0170901997e+00	 5.3668632086e-01	 2.5109289851e+00
 1.0119267536e+00	 5.4635974484e-01	 2.4855338233e+00
 1.0066639064e+00	 5.5599689390e-01	 2.4587201118e+00
 1.0013019832e+00	 5.6559626992e-01	 2.4301596896e+00
 9.9584133886e-01	 5.7515637725e-01	 2.3995213470e+00
 9.9028235758e-01	 5.8467572337e-01	 2.3664709922e+00
 9.8462545326e-01	 5.9415281968e-01	 2.3305208390e+00
 1.0446999395e+00	 5.0147866923e-01	 2.5325159791e+00
 1.0399002120e+00	 5.1135741457e-01	 2.5050187259e+00
 1.0349993057e+00	 5.2120565554e-01	 2.4776051729e+00
 1.0299974303e+00	 5.3102187977e-01	 2.4499404347e+00
 1.0248948246e+00	 5.4080457451e-01	 2.4216864504e+00
 1.0196917569e+00	 5.5055222734e-01	 2.3925021603e+00
 1.0143885253e+00	 5.6026332690e-01	 2.3620436781e+00
 1.0089854575e+00	 5.6993636358e-01	 2.3299644593e+00
 1.0034829110e+00	 5.7956983023e-01	 2.2959154678e+00
 9.9788127295e-01	 5.8916222290e-01	 2.2595400232e+00
 9.9218096046e-01	 5.9871204156e-01	 2.2199092050e+00
 1.0526553859e+00	 5.0529745632e-01	 2.4616117863e+00
 1.0478191081e+00	 5.1525142884e-01	 2.4298233655e+00
 1.0428808812e+00	 5.2517466470e-01	 2.3983786000e+00
 1.0378409163e+00	 5.3506564000e-01	 2.3669180400e+00
 1.0326994539e+00	 5.4492283048e-01	 2.3350797514e+00
 1.0274567646e+00	 5.5474471222e-01	 2.3024995059e+00
 1.0221131486e+00	 5.6452976233e-01	 2.2688109657e+00
 1.0166689361e+00	 5.7427645971e-01	 2.2336458611e+00
 1.0111244874e+00	 5.8398328573e-01	 2.1966341668e+00
 1.0054801926e+00	 5.9364872498e-01	 2.1572004520e+00
 9.9973647194e-01	 6.0327126602e-01	 2.1141224540e+00
 1.0606108344e+00	 5.0911624449e-01	 2.3917458610e+00
 1.0557380065e+00	 5.1914544421e-01	 2.3559260648e+00
 1.0507624590e+00	 5.2914367498e-01	 2.3207499421e+00
 1.0456844044e+00	 5.3910940138e-01	 2.2858295838e+00
 1.0405040854e+00	 5.4904108763e-01	 2.2507754416e+00
 1.0352217745e+00	 5.5893719829e-01	 2.2151965384e+00
 1.0298377741e+00	 5.6879619897e-01	 2.1787006697e+00
 1.0243524169e+00	 5.7861655706e-01	 2.1408945966e+00
 1.0187660660e+00	 5.8839674247e-01	 2.1013839280e+00
 1.0130791144e+00	 5.9813522833e-01	 2.0589920784e+00
 1.0072919856e+00	 6.0783049177e-01	 2.0127817176e+00
 9.3173720256e-01	 5.6223844740e-01	 3.2707706445e+00
 9.2629191025e-01	 5.7116510568e-01	 3.2658114507e+00
 9.2075482320e-01	 5.8004898109e-01	 3.2586120015e+00
 9.1512641814e-01	 5.8888868122e-01	 3.2486852538e+00
 9.0940719963e-01	 5.9768282013e-01	 3.2360504400e+00
 9.0359769993e-01	 6.0643001899e-01	 3.2207845319e+00
 8.9769847889e-01	 6.1512890680e-01	 3.2026772775e+00
 8.9171012387e-01	 6.2377812107e-01	 3.1815372948e+00
 8.8563324950e-01	 6.3237630850e-01	 3.1571923077e+00
 8.7946849759e-01	 6.4092212563e-01	 3.1294893303e+00
 8.7321653691e-01	 6.4941423958e-01	 3.0982947991e+00
 9.3929261984e-01	 5.6679761502e-01	 3.1164811022e+00
 9.3380317190e-01	 5.7579665919e-01	 3.1059600606e+00
 9.2822118484e-01	 5.8475257357e-01	 3.0934569678e+00
 9.2254713929e-01	 5.9366395446e-01	 3.0786030557e+00
 9.1678154388e-01	 6.0252940466e-01	 3.0614920277e+00
 9.1092493519e-01	 6.1134753419e-01	 3.0419490826e+00
 9.0497787762e-01	 6.2011696091e-01	 3.0197774815e+00
 8.9894096328e-01	 6.2883631129e-01	 2.9948000026e+00
 8.9281481179e-01	 6.3750422105e-01	 2.9668591620e+00
 8.8660007018e-01	 6.4611933585e-01	 2.9358173801e+00
 8.8029741261e-01	 6.5468031199e-01	 2.9015570937e+00
 9.4684805640e-01	 5.7135679427e-01	 2.9693216039e+00
 9.4131445269e-01	 5.8042822451e-01	 2.9534911822e+00
 9.3568756552e-01	 5.8945617804e-01	 2.9359351169e+00
 9.2996787936e-01	 5.9843923987e-01	 2.9164597395e+00
 9.2415590693e-01	 6.0737600155e-01	 2.8949555638e+00
 9.1825218913e-01	 6.1626506192e-01	 2.8712236289e+00
 9.1225729491e-01	 6.2510502773e-01	 2.8450846922e+00
 9.0617182113e-01	 6.3389451440e-01	 2.8163794828e+00
 8.9999639240e-01	 6.4263214667e-01	 2.7849689010e+00
 8.9373166095e-01	 6.5131655932e-01	 2.7507341599e+00
 8.8737830637e-01	 6.5994639782e-01	 2.7135768712e+00
 9.5440351008e-01	 5.7591598385e-01	 2.8290049929e+00
 9.4882575052e-01	 5.8505980033e-01	 2.8081498724e+00
 9.4315396313e-01	 5.9415979318e-01	 2.7858506122e+00
 9.3738863625e-01	 6.0321453610e-01	 2.7618970074e+00
 9.3153028670e-01	 6.1222260943e-01	 2.7360980743e+00
 9.2557945969e-01	 6.2118260080e-01	 2.7082759390e+00
 9.1953672871e-01	 6.3009310586e-01	 2.6782727384e+00
 9.1340269537e-01	 6.3895272898e-01	 2.6459508477e+00
 9.0717798930e-01	 6.4776008392e-01	 2.6111930507e+00
 9.0086326789e-01	 6.5651379457e-01	 2.5739026515e+00
 8.9445921619e-01	 6.6521249560e-01	 2.5340035272e+00
 9.6195897875e-01	 5.8047518247e-01	 2.6952515900e+00
 9.5633706324e-01	 5.8969138534e-01	 2.6696865497e+00
 9.5062037554e-01	 5.9886341764e-01	 2.6428731182e+00
 9.4480940786e-01	 6.0798984180e-01	 2.6145625170e+00
 9.3890468109e-01	 6.1706922691e-01	 2.5845820515e+00
 9.3290674478e-01	 6.2610014943e-01	 2.5527788994e+00
 9.2681617694e-01	 6.3508119388e-01	 2.5190203636e+00
 9.2063358396e-01	 6.4401095359e-01	 2.4831940665e+00
 9.1435960043e-01	 6.5288803134e-01	 2.4452080860e+00
 9.0799488897e-01	 6.6171104013e-01	 2.4049910296e+00
 9.0154014004e-01	 6.7047860381e-01	 2.3624920486e+00
 9.6951446026e-01	 5.8503438884e-01	 2.5677885110e+00
 9.6384838874e-01	 5.9432297822e-01	 2.5378023918e+00
 9.5808680065e-01	 6.0356705010e-01	 2.5066374607e+00
 9.5223019208e-01	 6.1276515563e-01	 2.4741096696e+00
 9.4627908802e-01	 6.2191585264e-01	 2.4400752651e+00
 9.4023404232e-01	 6.3101770642e-01	 2.4044103431e+00
 9.3409563755e-01	 6.4006929039e-01	 2.3670110647e+00
 9.2786448484e-01	 6.4906918680e-01	 2.3277938105e+00
 9.2154122378e-01	 6.5801598748e-01	 2.2866952752e+00
 9.1512652218e-01	 6.6690829452e-01	 2.2436724993e+00
 9.0862107594e-01	 6.7574472098e-01	 2.1987028376e+00
 9.7706995248e-01	 5.8959360168e-01	 2.4463428940e+00
 9.7135972488e-01	 5.9895457766e-01	 2.4121229779e+00
 9.6555323634e-01	 6.0827068923e-01	 2.3767845875e+00
 9.5965098682e-01	 6.1754047621e-01	 2.3401974169e+00
 9.5365350540e-01	 6.2676248523e-01	 2.3022505906e+00
 9.4756135025e-01	 6.3593527038e-01	 2.2628528947e+00
 9.4137510847e-01	 6.4505739396e-01	 2.2219329483e+00
 9.3509539596e-01	 6.5412742717e-01	 2.1794393131e+00
 9.2872285730e-01	 6.6314395088e-01	 2.1353405392e+00
 9.2225816550e-01	 6.7210555628e-01	 2.0896251484e+00
 9.1570202187e-01	 6.8101084561e-01	 2.0423015516e+00
 9.8462545326e-01	 5.9415281968e-01	 2.3305208390e+00
 9.7887106952e-01	 6.0358618236e-01	 2.2922738544e+00
 9.7301968049e-01	 6.1297433368e-01	 2.2529613649e+00
 9.6707178997e-01	 6.2231580221e-01	 2.2124900836e+00
 9.6102793114e-01	 6.3160912332e-01	 2.1707858534e+00
 9.5488866648e-01	 6.4085283991e-01	 2.1277938295e+00
 9.4865458764e-01	 6.5004550318e-01	 2.0834786005e+00
 9.4232631528e-01	 6.5918567328e-01	 2.0378242454e+00
 9.3590449895e-01	 6.6827192009e-01	 1.9908343263e+00
 9.2938981689e-01	 6.7730282392e-01	 1.9425318160e+00
 9.2278297582e-01	 6.8627697621e-01	 1.8929589587e+00
 9.9218096046e-01	 5.9871204156e-01	 2.2199092050e+00
 9.8638242056e-01	 6.0821779099e-01	 2.1778869354e+00
 9.8048613099e-01	 6.1767798214e-01	 2.1348203923e+00
 9.7449259942e-01	 6.2709113227e-01	 2.0906572069e+00
 9.6840236314e-01	 6.3645576553e-01	 2.0453636880e+00
 9.6221598894e-01	 6.4577041363e-01	 1.9989249488e+00
 9.5593407300e-01	 6.5503361664e-01	 1.9513449713e+00
 9.4955724074e-01	 6.6424392369e-01	 1.9026466051e+00
 9.4308614672e-01	 6.7339989367e-01	 1.8528715005e+00
 9.3652147435e-01	 6.8250009599e-01	 1.8020799743e+00
 9.2986393579e-01	 6.9154311128e-01	 1.7503508091e+00
 9.9973647194e-01	 6.0327126602e-01	 2.1141224540e+00
 9.9389377585e-01	 6.1284940224e-01	 2.0686003044e+00
 9.8795258571e-01	 6.2238163326e-01	 2.0220198314e+00
 9.8191341308e-01	 6.3186646504e-01	 1.9743733901e+00
 9.7577679933e-01	 6.4130241048e-01	 1.9256714112e+00
 9.6954331555e-01	 6.5068799013e-01	 1.8759424668e+00
 9.6321356248e-01	 6.6002173293e-01	 1.8252332720e+00
 9.5678817031e-01	 6.6930217696e-01	 1.7736086185e+00
 9.5026779855e-01	 6.7852787015e-01	 1.7211512430e+00
 9.4365313585e-01	 6.8769737100e-01	 1.6679616254e+00
 9.3694489977e-01	 6.9680924934e-01	 1.6141577201e+00
 1.0072919856e+00	 6.0783049177e-01	 2.0127817176e+00
 1.0014051333e+00	 6.1748101481e-01	 1.9640580318e+00
 9.9541904256e-01	 6.2708528571e-01	 1.9142232522e+00
 9.8933422885e-01	 6.3664179916e-01	 1.8633181712e+00
 9.8315123760e-01	 6.4614905681e-01	 1.8114009092e+00
 9.7687064424e-01	 6.5560556802e-01	 1.7585469124e+00
 9.7049305402e-01	 6.6500985064e-01	 1.7048488855e+00
 9.6401910192e-01	 6.7436043167e-01	 1.6504166554e+00
 9.5744945241e-01	 6.8365584808e-01	 1.5953769668e+00
 9.5078479937e-01	 6.9289464749e-01	 1.5398732095e+00
 9.4402586576e-01	 7.0207538890e-01	 1.4840650743e+00
 8.7321653691e-01	 6.4941423958e-01	 3.0982947991e+00
 8.6687697863e-01	 6.5785275749e-01	 3.0631976124e+00
 8.6045160364e-01	 6.6623491653e-01	 3.0239564334e+00
 8.5394116421e-01	 6.7455941392e-01	 2.9807006077e+00
 8.4734643864e-01	 6.8282496008e-01	 2.9335731650e+00
 8.4066823096e-01	 6.9103027925e-01	 2.8827304482e+00
 8.3390737064e-01	 6.9917411015e-01	 2.8283416990e+00
 8.2706471224e-01	 7.0725520659e-01	 2.7705886008e+00
 8.2014113507e-01	 7.1527233812e-01	 2.7096647801e+00
 8.1313754280e-01	 7.2322429065e-01	 2.6457752698e+00
 8.0605486311e-01	 7.3110986703e-01	 2.5791359340e+00
 8.8029741261e-01	 6.5468031199e-01	 2.9015570937e+00
 8.7390644713e-01	 6.6318725748e-01	 2.8636148728e+00
 8.6742896905e-01	 6.7163738709e-01	 2.8217039536e+00
 8.6086573674e-01	 6.8002938747e-01	 2.7759787571e+00
 8.5421753482e-01	 6.8836195859e-01	 2.7266070601e+00
 8.4748517384e-01	 6.9663381435e-01	 2.6737695770e+00
 8.4066948999e-01	 7.0484368322e-01	 2.6176594953e+00
 8.3377134477e-01	 7.1299030893e-01	 2.5584819681e+00
 8.2679162460e-01	 7.2107245104e-01	 2.4964535644e+00
 8.1973124050e-01	 7.2908888562e-01	 2.4318016799e+00
 8.1259112766e-01	 7.3703840580e-01	 2.3647639099e+00
 8.8737830637e-01	 6.5994639782e-01	 2.7135768712e+00
 8.8093593355e-01	 6.6852177107e-01	 2.6729758817e+00
 8.7440635224e-01	 6.7703987142e-01	 2.6285874823e+00
 8.6779032693e-01	 6.8549937497e-01	 2.5805851555e+00
 8.6108864852e-01	 6.9389897123e-01	 2.5291555063e+00
 8.5430213410e-01	 7.0223736374e-01	 2.4744978034e+00
 8.4743162659e-01	 7.1051327076e-01	 2.4168234735e+00
 8.4047799440e-01	 7.1872542590e-01	 2.3563555508e+00
 8.3344213109e-01	 7.2687257876e-01	 2.2933280836e+00
 8.2632495501e-01	 7.3495349554e-01	 2.2279855000e+00
 8.1912740888e-01	 7.4296695969e-01	 2.1605819350e+00
 8.9445921619e-01	 6.6521249560e-01	 2.5340035272e+00
 8.8796543591e-01	 6.7385629676e-01	 2.4909148613e+00
 8.8138375126e-01	 6.8244236800e-01	 2.4442280900e+00
 8.7471493281e-01	 6.9096937488e-01	 2.3941298825e+00
 8.6795977780e-01	 6.9943599641e-01	 2.3408198912e+00
 8.6111910982e-01	 7.0784092583e-01	 2.2845102602e+00
 8.5419377851e-01	 7.1618287114e-01	 2.2254250855e+00
 8.4718465923e-01	 7.2446055587e-01	 2.1637998296e+00
 8.4009265266e-01	 7.3267271962e-01	 2.0998806916e+00
 8.3291868447e-01	 7.4081811876e-01	 2.0339239344e+00
 8.2566370492e-01	 7.4889552701e-01	 1.9661951737e+00
 9.0154014004e-01	 6.7047860381e-01	 2.3624920486e+00
 8.9499495221e-01	 6.7919083302e-01	 2.3170720700e+00
 8.8836116411e-01	 6.8784487530e-01	 2.2682532594e+00
 8.8163955243e-01	 6.9643938563e-01	 2.2162297336e+00
 8.7483092070e-01	 7.0497303258e-01	 2.1612085459e+00
 8.6793609906e-01	 7.1344449903e-01	 2.1034091701e+00
 8.6095594385e-01	 7.2185248277e-01	 2.0430629345e+00
 8.5389133736e-01	 7.3019569721e-01	 1.9804124088e+00
 8.4674318742e-01	 7.3847287198e-01	 1.9157107442e+00
 8.3951242701e-01	 7.4668275360e-01	 1.8492209706e+00
 8.3220001392e-01	 7.5482410610e-01	 1.7812152528e+00
 9.0862107594e-01	 6.7574472098e-01	 2.1987028376e+00
 9.0202448046e-01	 6.8452537835e-01	 2.1510936095e+00
 8.9533858883e-01	 6.9324739178e-01	 2.1002966799e+00
 8.8856418382e-01	 7.0190940568e-01	 2.0465080044e+00
 8.8170207529e-01	 7.1051007816e-01	 1.9899365208e+00
 8.7475309988e-01	 7.1904808176e-01	 1.9308036163e+00
 8.6771812068e-01	 7.2752210404e-01	 1.8693425432e+00
 8.6059802689e-01	 7.3593084830e-01	 1.8057977844e+00
 8.5339373348e-01	 7.4427303421e-01	 1.7404243716e+00
 8.4610618077e-01	 7.5254739842e-01	 1.6734871589e+00
 8.3873633404e-01	 7.6075269526e-01	 1.6052600528e+00
 9.1570202187e-01	 6.8101084561e-01	 2.0423015516e+00
 9.0905401867e-01	 6.8985993124e-01	 1.9926312504e+00
 9.0231602343e-01	 6.9864991592e-01	 1.9399980601e+00
 8.9548882502e-01	 7.0737943348e-01	 1.8845942926e+00
 8.8857323962e-01	 7.1604713159e-01	 1.8266253799e+00
 8.8157011037e-01	 7.2465167243e-01	 1.7663093319e+00
 8.7448030709e-01	 7.3319173335e-01	 1.7038761405e+00
 8.6730472593e-01	 7.4166600752e-01	 1.6395671320e+00
 8.6004428897e-01	 7.5007320465e-01	 1.5736342700e+00
 8.5269994386e-01	 7.5841205155e-01	 1.5063394112e+00
 8.4527266341e-01	 7.6668129283e-01	 1.4379535173e+00
 9.2278297582e-01	 6.8627697621e-01	 1.8929589587e+00
 9.1608356484e-01	 6.9519449018e-01	 1.8413422739e+00
 9.0929346594e-01	 7.0405244618e-01	 1.7870029575e+00
 9.0241347407e-01	 7.1284946748e-01	 1.7301243181e+00
 8.9544441173e-01	 7.2158419129e-01	 1.6709030136e+00
 8.8838712858e-01	 7.3025526945e-01	 1.6095485073e+00
 8.8124250117e-01	 7.3886136908e-01	 1.5462824674e+00
 8.7401143257e-01	 7.4740117324e-01	 1.4813381138e+00
 8.6669485199e-01	 7.5587338167e-01	 1.4149595118e+00
 8.5929371442e-01	 7.6427671132e-01	 1.3474008182e+00
 8.5180900020e-01	 7.7260989711e-01	 1.2789254795e+00
 9.2986393579e-01	 6.9154311128e-01	 1.7503508091e+00
 9.2311311700e-01	 7.0052905365e-01	 1.6968893293e+00
 9.1627091438e-01	 7.0945498103e-01	 1.6409626249e+00
 9.0933812901e-01	 7.1831950613e-01	 1.5827397601e+00
 9.0231558968e-01	 7.2712125570e-01	 1.5224034687e+00
 8.9520415258e-01	 7.3585887124e-01	 1.4601496157e+00
 8.8800470099e-01	 7.4453100962e-01	 1.3961866001e+00
 8.8071814491e-01	 7.5313634384e-01	 1.3307347014e+00
 8.7334542067e-01	 7.6167356361e-01	 1.2640253730e+00
 8.6588749059e-01	 7.7014137608e-01	 1.1963004828e+00
 8.5834534253e-01	 7.7853850643e-01	 1.1278115063e+00
 9.3694489977e-01	 6.9680924934e-01	 1.6141577201e+00
 9.3014267313e-01	 7.0586362015e-01	 1.5589403066e+00
 9.2324836677e-01	 7.1485751894e-01	 1.5015338717e+00
 9.1626278787e-01	 7.2378954788e-01	 1.4420881092e+00
 9.0918677152e-01	 7.3265832325e-01	 1.3807667939e+00
 9.0202118045e-01	 7.4146247620e-01	 1.3177472551e+00
 8.9476690465e-01	 7.5020065339e-01	 1.2532197898e+00
 8.8742486104e-01	 7.5887151769e-01	 1.1873870172e+00
 8.7999599312e-01	 7.6747374885e-01	 1.1204631766e+00
 8.7248127050e-01	 7.7600604416e-01	 1.0526733702e+00
 8.6488168858e-01	 7.8446711912e-01	 9.8425275655e-01
 9.4402586576e-01	 7.0207538890e-01	 1.4840650743e+00
 9.3717223126e-01	 7.1119818816e-01	 1.4271682224e+00
 9.3022582114e-01	 7.2026005839e-01	 1.3683789398e+00
 9.2318744869e-01	 7.2925959118e-01	 1.3078225358e+00
 9.1605795531e-01	 7.3819539237e-01	 1.2456389017e+00
 9.0883821025e-01	 7.4706608275e-01	 1.1819820046e+00
 9.0152911022e-01	 7.5587029875e-01	 1.1170193179e+00
 8.9413157908e-01	 7.6460669316e-01	 1.0509311897e+00
 8.8664656745e-01	 7.7327393573e-01	 9.8391015191e-01
 8.7907505228e-01	 7.8187071391e-01	 9.1616017275e-01
 8.7141803647e-01	 7.9039573348e-01	 8.4789585528e-01
 8.0605486311e-01	 7.3110986703e-01	 2.5791359340e+00
 7.9889526895e-01	 7.3892656667e-01	 2.5091036062e+00
 7.9165852639e-01	 7.4667458537e-01	 2.4349418994e+00
 7.8434561935e-01	 7.5435279371e-01	 2.3567761018e+00
 7.7695755399e-01	 7.6196008148e-01	 2.2747402288e+00
 7.6949535827e-01	 7.6949535827e-01	 2.1889765026e+00
 7.6196008148e-01	 7.7695755399e-01	 2.0996348083e+00
 7.5435279371e-01	 7.8434561935e-01	 2.0068721341e+00
 7.4667458537e-01	 7.9165852639e-01	 1.9108519944e+00
 7.3892656667e-01	 7.9889526895e-01	 1.8117438419e+00
 7.3110986703e-01	 8.0605486311e-01	 1.7097224709e+00
 8.1259112766e-01	 7.3703840580e-01	 2.3647639099e+00
 8.0537347665e-01	 7.4491849072e-01	 2.2947106226e+00
 7.9807805166e-01	 7.5272933778e-01	 2.2209005617e+00
 7.9070584457e-01	 7.6046980838e-01	 2.1434523244e+00
 7.8325786970e-01	 7.6813878332e-01	 2.0624926718e+00
 7.7573516335e-01	 7.7573516335e-01	 1.9781559931e+00
 7.6813878332e-01	 7.8325786970e-01	 1.8905837502e+00
 7.6046980838e-01	 7.9070584457e-01	 1.7999239027e+00
 7.5272933778e-01	 7.9807805166e-01	 1.7063303192e+00
 7.4491849072e-01	 8.0537347665e-01	 1.6099621758e+00
 7.3703840580e-01	 8.1259112766e-01	 1.5109833470e+00
 8.1912740888e-01	 7.4296695969e-01	 2.1605819350e+00
 8.1185170088e-01	 7.5091043005e-01	 2.0904997406e+00
 8.0449759330e-01	 7.5878410563e-01	 2.0169970968e+00
 7.9706608601e-01	 7.6658683865e-01	 1.9401896727e+00
 7.8955820148e-01	 7.7431750092e-01	 1.8602008166e+00
 7.8197498435e-01	 7.8197498435e-01	 1.7771610020e+00
 7.7431750092e-01	 7.8955820148e-01	 1.6912072517e+00
 7.6658683865e-01	 7.9706608601e-01	 1.6024825436e+00
 7.5878410563e-01	 8.0449759330e-01	 1.5111352020e+00
 7.5091043005e-01	 8.1185170088e-01	 1.4173182770e+00
 7.4296695969e-01	 8.1912740888e-01	 1.3211889159e+00
 8.2566370492e-01	 7.4889552701e-01	 1.9661951737e+00
 8.1832993980e-01	 7.5690238297e-01	 1.8960865492e+00
 8.1091714950e-01	 7.6483888720e-01	 1.8228592050e+00
 8.0342634186e-01	 7.7270388279e-01	 1.7466295671e+00
 7.9585854754e-01	 7.8049623253e-01	 1.6675213368e+00
 7.8821481949e-01	 7.8821481949e-01	 1.5856649102e+00
 7.8049623253e-01	 7.9585854754e-01	 1.5011967774e+00
 7.7270388279e-01	 8.0342634186e-01	 1.4142589020e+00
 7.6483888720e-01	 8.1091714950e-01	 1.3249980859e+00
 7.5690238297e-01	 8.1832993980e-01	 1.2335653234e+00
 7.4889552701e-01	 8.2566370492e-01	 1.1401151467e+00
 8.3220001392e-01	 7.5482410610e-01	 1.7812152528e+00
 8.2480819156e-01	 7.6289434777e-01	 1.7110926988e+00
 8.1733671842e-01	 7.7089368078e-01	 1.6381201900e+00
 8.0978661033e-01	 7.7882093906e-01	 1.5624185214e+00
 8.0215890609e-01	 7.8667497639e-01	 1.4841154375e+00
 7.9445466701e-01	 7.9445466701e-01	 1.4033450214e+00
 7.8667497639e-01	 8.0215890609e-01	 1.3202470609e+00
 7.7882093906e-01	 8.0978661033e-01	 1.2349663961e+00
 7.7089368078e-01	 8.1733671842e-01	 1.1476522524e+00
 7.6289434777e-01	 8.2480819156e-01	 1.0584575612e+00
 7.5482410610e-01	 8.3220001392e-01	 9.6753827335e-01
 8.3873633404e-01	 7.6075269526e-01	 1.6052600528e+00
 8.3128645434e-01	 7.6888632276e-01	 1.5351457060e+00
 8.2375629826e-01	 7.7694848466e-01	 1.4624187803e+00
 8.1614688962e-01	 7.8493800573e-01	 1.3872079804e+00
 8.0845927536e-01	 7.9285373076e-01	 1.3096487133e+00
 8.0069452513e-01	 8.0069452513e-01	 1.2298824403e+00
 7.9285373076e-01	 8.0845927536e-01	 1.1480560048e+00
 7.8493800573e-01	 8.1614688962e-01	 1.0643209415e+00
 7.7694848466e-01	 8.2375629826e-01	 9.7883277045e-01
 7.6888632276e-01	 8.3128645434e-01	 8.9175027906e-01
 7.6075269526e-01	 8.3873633404e-01	 8.0323479642e-01
 8.4527266341e-01	 7.6668129283e-01	 1.4379535173e+00
 8.3776472629e-01	 7.7487830623e-01	 1.3678787765e+00
 8.3017588720e-01	 7.8300329711e-01	 1.2953989669e+00
 8.2250717791e-01	 7.9105508106e-01	 1.2206541749e+00
 8.1475965355e-01	 7.9903249388e-01	 1.1437910205e+00
 8.0693439210e-01	 8.0693439210e-01	 1.0649619648e+00
 7.9903249388e-01	 8.1475965355e-01	 9.8432459440e-01
 7.9105508106e-01	 8.2250717791e-01	 9.0204088615e-01
 7.8300329711e-01	 8.3017588720e-01	 8.1827645534e-01
 7.7487830623e-01	 8.3776472629e-01	 7.3319979250e-01
 7.6668129283e-01	 8.4527266341e-01	 6.4698149249e-01
 8.5180900020e-01	 7.7260989711e-01	 1.2789254795e+00
 8.4424300559e-01	 7.8087029650e-01	 1.2089306440e+00
 8.3659548341e-01	 7.8905811643e-01	 1.1367098564e+00
 8.2886747342e-01	 7.9717216333e-01	 1.0624179912e+00
 8.2106003889e-01	 8.0521126400e-01	 9.8621636432e-01
 8.1317426614e-01	 8.1317426614e-01	 9.0827199170e-01
 8.0521126400e-01	 8.2106003889e-01	 8.2875682371e-01
 7.9717216333e-01	 8.2886747342e-01	 7.4784695841e-01
 7.8905811643e-01	 8.3659548341e-01	 6.6572183861e-01
 7.8087029650e-01	 8.4424300559e-01	 5.8256343668e-01
 7.7260989711e-01	 8.5180900020e-01	 4.9855543160e-01
 8.5834534253e-01	 7.7853850643e-01	 1.1278115063e+00
 8.5072129039e-01	 7.8686229187e-01	 1.0579454265e+00
 8.4301508508e-01	 7.9511294089e-01	 9.8600554107e-01
 8.3522777433e-01	 8.0328925080e-01	 9.1216485492e-01
 8.2736042958e-01	 8.1139003938e-01	 8.3660279931e-01
 8.1941414548e-01	 8.1941414548e-01	 7.5950443548e-01
 8.1139003938e-01	 8.2736042958e-01	 6.8105963263e-01
 8.0328925080e-01	 8.3522777433e-01	 6.0146222419e-01
 7.9511294089e-01	 8.4301508508e-01	 5.2090914703e-01
 7.8686229187e-01	 8.5072129039e-01	 4.3959956787e-01
 7.7853850643e-01	 8.5834534253e-01	 3.5773400182e-01
 8.6488168858e-01	 7.8446711912e-01	 9.8425275655e-01
 8.5719957887e-01	 7.9285429062e-01	 9.1457249584e-01
 8.4943469038e-01	 8.0116776879e-01	 8.4294498114e-01
 8.4158807884e-01	 8.0940634174e-01	 7.6956462886e-01
 8.3366082384e-01	 8.1756881826e-01	 6.9463234309e-01
 8.2565402836e-01	 8.2565402836e-01	 6.1835465846e-01
 8.1756881826e-01	 8.3366082384e-01	 5.4094285580e-01
 8.0940634174e-01	 8.4158807884e-01	 4.6261205516e-01
 8.0116776879e-01	 8.4943469038e-01	 3.8358029077e-01
 7.9285429062e-01	 8.5719957887e-01	 3.0406757278e-01
 7.8446711912e-01	 8.6488168858e-01	 2.2429494066e-01
 8.7141803647e-01	 7.9039573348e-01	 8.4789585528e-01
 8.6367786918e-01	 7.9884629108e-01	 7.7846636289e-01
 8.5585429751e-01	 8.0722259840e-01	 7.0719190254e-01
 8.4794838516e-01	 8.1552343441e-01	 6.3429152390e-01
 8.3996121988e-01	 8.2374759889e-01	 5.5999090189e-01
 8.3189391300e-01	 8.3189391300e-01	 4.8452141281e-01
 8.2374759889e-01	 8.3996121988e-01	 4.0811918176e-01
 8.1552343441e-01	 8.4794838516e-01	 3.3102410614e-01
 8.0722259840e-01	 8.5585429751e-01	 2.5347886021e-01
 7.9884629108e-01	 8.6367786918e-01	 1.7572788556e-01
 7.9039573348e-01	 8.7141803647e-01	 9.8016372938e-02
 7.3110986703e-01	 8.0605486311e-01	 1.7097224709e+00
 7.2322429065e-01	 8.1313754280e-01	 1.6041417323e+00
 7.1527233812e-01	 8.2014113507e-01	 1.4944930648e+00
 7.0725520659e-01	 8.2706471224e-01	 1.3811078576e+00
 6.9917411015e-01	 8.3390737064e-01	 1.2643159872e+00
 6.9103027925e-01	 8.4066823096e-01	 1.1444450808e+00
 6.8282496008e-01	 8.4734643864e-01	 1.0218197979e+00
 6.7455941392e-01	 8.5394116421e-01	 8.9676113371e-01
 6.6623491653e-01	 8.6045160364e-01	 7.6958574739e-01
 6.5785275749e-01	 8.6687697863e-01	 6.4060531820e-01
 6.4941423958e-01	 8.7321653691e-01	 5.1012593316e-01
 7.3703840580e-01	 8.1259112766e-01	 1.5109833470e+00
 7.2908888562e-01	 8.1973124050e-01	 1.4086977327e+00
 7.2107245104e-01	 8.2679162460e-01	 1.3025607962e+00
 7.1299030893e-01	 8.3377134477e-01	 1.1929154791e+00
 7.0484368322e-01	 8.4066948999e-01	 1.0801036657e+00
 6.9663381435e-01	 8.4748517384e-01	 9.6446539838e-01
 6.8836195859e-01	 8.5421753482e-01	 8.4633811004e-01
 6.8002938747e-01	 8.6086573674e-01	 7.2605587897e-01
 6.7163738709e-01	 8.6742896905e-01	 6.0394870859e-01
 6.6318725748e-01	 8.7390644713e-01	 4.8034183579e-01
 6.5468031199e-01	 8.8029741261e-01	 3.5555507115e-01
 7.4296695969e-01	 8.1912740888e-01	 1.3211889159e+00
 7.3495349554e-01	 8.2632495501e-01	 1.2220157402e+00
 7.2687257876e-01	 8.3344213109e-01	 1.1192275087e+00
 7.1872542590e-01	 8.4047799440e-01	 1.0131745817e+00
 7.1051327076e-01	 8.4743162659e-01	 9.0420652045e-01
 7.0223736374e-01	 8.5430213410e-01	 7.9267125870e-01
 6.9389897123e-01	 8.6108864852e-01	 6.7891429274e-01
 6.8549937497e-01	 8.6779032693e-01	 5.6327789317e-01
 6.7703987142e-01	 8.7440635224e-01	 4.4610034241e-01
 6.6852177107e-01	 8.8093593355e-01	 3.2771520146e-01
 6.5994639782e-01	 8.8737830637e-01	 2.0845060935e-01
 7.4889552701e-01	 8.2566370492e-01	 1.1401151467e+00
 7.4081811876e-01	 8.3291868447e-01	 1.0438928889e+00
 7.3267271962e-01	 8.4009265266e-01	 9.4430731416e-01
 7.2446055587e-01	 8.4718465923e-01	 8.4171218465e-01
 7.1618287114e-01	 8.5419377851e-01	 7.3646052660e-01
 7.0784092583e-01	 8.6111910982e-01	 6.2890376430e-01
 6.9943599641e-01	 8.6795977780e-01	 5.1939087248e-01
 6.9096937488e-01	 8.7471493281e-01	 4.0826755108e-01
 6.8244236800e-01	 8.8138375126e-01	 2.9587542651e-01
 6.7385629676e-01	 8.8796543591e-01	 1.8255128300e-01
 6.6521249560e-01	 8.9445921619e-01	 6.8626327806e-02
 7.5482410610e-01	 8.3220001392e-01	 9.6753827335e-01
 7.4668275360e-01	 8.3951242701e-01	 8.7412582620e-01
 7.3847287198e-01	 8.4674318742e-01	 7.7761321987e-01
 7.3019569721e-01	 8.5389133736e-01	 6.7835371439e-01
 7.2185248277e-01	 8.6095594385e-01	 5.7669970564e-01
 7.1344449903e-01	 8.6793609906e-01	 4.7300182653e-01
 7.0497303258e-01	 8.7483092070e-01	 3.6760806717e-01
 6.9643938563e-01	 8.8163955243e-01	 2.6086291834e-01
 6.8784487530e-01	 8.8836116411e-01	 1.5310654225e-01
 6.7919083302e-01	 8.9499495221e-01	 4.4673974588e-02
 6.7047860381e-01	 9.0154014004e-01	-6.4105638333e-02
 7.6075269526e-01	 8.3873633404e-01	 8.0323479642e-01
 7.5254739842e-01	 8.4610618077e-01	 7.1251073988e-01
 7.4427303421e-01	 8.5339373348e-01	 6.1895717450e-01
 7.3593084830e-01	 8.6059802689e-01	 5.2292306481e-01
 7.2752210404e-01	 8.6771812068e-01	 4.2475619415e-01
 7.1904808176e-01	 8.7475309988e-01	 3.2480223815e-01
 7.1051007816e-01	 8.8170207529e-01	 2.2340385796e-01
 7.0190940568e-01	 8.8856418382e-01	 1.2089981783e-01
 6.9324739178e-01	 8.9533858883e-01	 1.7624131061e-02
 6.8452537835e-01	 9.0202448046e-01	-8.6094761348e-02
 6.7574472098e-01	 9.0862107594e-01	-1.8993477543e-01
 7.6668129283e-01	 8.4527266341e-01	 6.4698149249e-01
 7.5841205155e-01	 8.5269994386e-01	 5.5884339071e-01
 7.5007320465e-01	 8.6004428897e-01	 4.6815011949e-01
 7.4166600752e-01	 8.6730472593e-01	 3.7524266191e-01
 7.3319173335e-01	 8.7448030709e-01	 2.8046031699e-01
 7.2465167243e-01	 8.8157011037e-01	 1.8413975027e-01
 7.1604713159e-01	 8.8857323962e-01	 8.6614065258e-02
 7.0737943348e-01	 8.9548882502e-01	-1.1788099709e-02
 6.9864991592e-01	 9.0231602343e-01	-1.1074344465e-01
 6.8985993124e-01	 9.0905401867e-01	-2.0993484697e-01
 6.8101084561e-01	 9.1570202187e-01	-3.0905216212e-01
 7.7260989711e-01	 8.5180900020e-01	 4.9855543160e-01
 7.6427671132e-01	 8.5929371442e-01	 4.1291915233e-01
 7.5587338167e-01	 8.6669485199e-01	 3.2500204608e-01
 7.4740117324e-01	 8.7401143257e-01	 2.3513353342e-01
 7.3886136908e-01	 8.8124250117e-01	 1.4364066487e-01
 7.3025526945e-01	 8.8838712858e-01	 5.0847153346e-02
 7.2158419129e-01	 8.9544441173e-01	-4.2927571340e-02
 7.1284946748e-01	 9.0241347407e-01	-1.3736928101e-01
 7.0405244618e-01	 9.0929346594e-01	-2.3216983618e-01
 6.9519449018e-01	 9.1608356484e-01	-3.2702803712e-01
 6.8627697621e-01	 9.2278297582e-01	-4.2165043457e-01
 7.7853850643e-01	 8.5834534253e-01	 3.5773400182e-01
 7.7014137608e-01	 8.6588749059e-01	 2.7453305696e-01
 7.6167356361e-01	 8.7334542067e-01	 1.8932205759e-01
 7.5313634384e-01	 8.8071814491e-01	 1.0241538298e-01
 7.4453100962e-01	 8.8800470099e-01	 1.4124175992e-02
 7.3585887124e-01	 8.9520415258e-01	-7.5244638150e-02
 7.2712125570e-01	 9.0231558968e-01	-1.6538930937e-01
 7.1831950613e-01	 9.0933812901e-01	-2.5601419173e-01
 7.0945498103e-01	 9.1627091438e-01	-3.4683063909e-01
 7.0052905365e-01	 9.2311311700e-01	-4.3755786271e-01
 6.9154311128e-01	 9.2986393579e-01	-5.2792374640e-01
 7.8446711912e-01	 8.6488168858e-01	 2.2429494066e-01
 7.7600604416e-01	 8.7248127050e-01	 1.4347984693e-01
 7.6747374885e-01	 8.7999599312e-01	 6.0918436568e-02
 7.5887151769e-01	 8.8742486104e-01	-2.3093331388e-02
 7.5020065339e-01	 8.9476690465e-01	-1.0826377851e-01
 7.4146247620e-01	 9.0202118045e-01	-1.9430649733e-01
 7.3265832325e-01	 9.0918677152e-01	-2.8094131629e-01
 7.2378954788e-01	 9.1626278787e-01	-3.6789523431e-01
 7.1485751894e-01	 9.2324836677e-01	-4.5490331984e-01
 7.0586362015e-01	 9.3014267313e-01	-5.4170956984e-01
 6.9680924934e-01	 9.3694489977e-01	-6.2806772372e-01
 7.9039573348e-01	 8.7141803647e-01	 9.8016372938e-02
 7.8187071391e-01	 8.7907505228e-01	 1.9554031743e-02
 7.7327393573e-01	 8.8664656745e-01	-6.0401283275e-02
 7.6460669316e-01	 8.9413157908e-01	-1.4157531476e-01
 7.5587029875e-01	 9.0152911022e-01	-2.2369930542e-01
 7.4706608275e-01	 9.0883821025e-01	-3.0651099316e-01
 7.3819539237e-01	 9.1605795531e-01	-3.8975557899e-01
 7.2925959118e-01	 9.2318744869e-01	-4.7318666235e-01
 7.2026005839e-01	 9.3022582114e-01	-5.5656713874e-01
 7.1119818816e-01	 9.3717223126e-01	-6.3967005471e-01
 7.0207538890e-01	 9.4402586576e-01	-7.2227941537e-01
 6.4941423958e-01	 8.7321653691e-01	 5.1012593316e-01
 6.4092212563e-01	 8.7946849759e-01	 3.7774478085e-01
 6.3237630850e-01	 8.8563324950e-01	 2.4279755260e-01
 6.2377812107e-01	 8.9171012387e-01	 1.0525764614e-01
 6.1512890680e-01	 8.9769847889e-01	-3.4905270215e-02
 6.0643001899e-01	 9.0359769993e-01	-1.7772527806e-01
 5.9768282013e-01	 9.0940719963e-01	-3.2324019192e-01
 5.8888868122e-01	 9.1512641814e-01	-4.7149150376e-01
 5.8004898109e-01	 9.2075482320e-01	-6.2096912302e-01
 5.7116510568e-01	 9.2629191025e-01	-7.6971021310e-01
 5.6223844740e-01	 9.3173720256e-01	-9.1788242396e-01
 6.5468031199e-01	 8.8029741261e-01	 3.5555507115e-01
 6.4611933585e-01	 8.8660007018e-01	 2.2920285564e-01
 6.3750422105e-01	 8.9281481179e-01	 1.0063255230e-01
 6.2883631129e-01	 8.9894096328e-01	-3.0181602889e-02
 6.2011696091e-01	 9.0497787762e-01	-1.6327127488e-01
 6.1134753419e-01	 9.1092493519e-01	-2.9867405385e-01
 6.0252940466e-01	 9.1678154388e-01	-4.3643343766e-01
 5.9366395446e-01	 9.2254713929e-01	-5.7659877129e-01
 5.8475257357e-01	 9.2822118484e-01	-7.1894828951e-01
 5.7579665919e-01	 9.3380317190e-01	-8.6085613678e-01
 5.6679761502e-01	 9.3929261984e-01	-1.0018153872e+00
 6.5994639782e-01	 8.8737830637e-01	 2.0845060935e-01
 6.5131655932e-01	 8.9373166095e-01	 8.7913106389e-02
 6.4263214667e-01	 8.9999639240e-01	-3.4556307382e-02
 6.3389451440e-01	 9.0617182113e-01	-1.5897706228e-01
 6.2510502773e-01	 9.1225729491e-01	-2.8537635309e-01
 6.1626506192e-01	 9.1825218913e-01	-4.1378917834e-01
 6.0737600155e-01	 9.2415590693e-01	-5.4425833356e-01
 5.9843923987e-01	 9.2996787936e-01	-6.7683435736e-01
 5.8945617804e-01	 9.3568756552e-01	-8.1157542928e-01
 5.8042822451e-01	 9.4131445269e-01	-9.4717514354e-01
 5.7135679427e-01	 9.4684805640e-01	-1.0814915483e+00
 6.6521249560e-01	 8.9445921619e-01	 6.8626327806e-02
 6.5651379457e-01	 9.0086326789e-01	-4.6320347347e-02
 6.4776008392e-01	 9.0717798930e-01	-1.6296671465e-01
 6.3895272898e-01	 9.1340269537e-01	-2.8132050593e-01
 6.3009310586e-01	 9.1953672871e-01	-4.0139877872e-01
 6.2118260080e-01	 9.2557945969e-01	-5.2322798153e-01
 6.1222260943e-01	 9.3153028670e-01	-6.4684396925e-01
 6.0321453610e-01	 9.3738863625e-01	-7.7229196744e-01
 5.9415979318e-01	 9.4315396313e-01	-8.9962648433e-01
 5.8505980033e-01	 9.4882575052e-01	-1.0286883464e+00
 5.7591598385e-01	 9.5440351008e-01	-1.1568749503e+00
 6.7047860381e-01	 9.0154014004e-01	-6.4105638333e-02
 6.6171104013e-01	 9.0799488897e-01	-1.7369477148e-01
 6.5288803134e-01	 9.1435960043e-01	-2.8479772303e-01
 6.4401095359e-01	 9.2063358396e-01	-3.9740528751e-01
 6.3508119388e-01	 9.2681617694e-01	-5.1151884960e-01
 6.2610014943e-01	 9.3290674478e-01	-6.2715048630e-01
 6.1706922691e-01	 9.3890468109e-01	-7.4432301577e-01
 6.0798984180e-01	 9.4480940786e-01	-8.6306999130e-01
 5.9886341764e-01	 9.5062037554e-01	-9.8343563916e-01
 5.8969138534e-01	 9.5633706324e-01	-1.1054747395e+00
 5.8047518247e-01	 9.6195897875e-01	-1.2279396143e+00
 6.7574472098e-01	 9.0862107594e-01	-1.8993477543e-01
 6.6690829452e-01	 9.1512652218e-01	-2.9440880998e-01
 6.5801598748e-01	 9.2154122378e-01	-4.0024975056e-01
 6.4906918680e-01	 9.2786448484e-01	-5.0742633710e-01
 6.4006929039e-01	 9.3409563755e-01	-6.1591887261e-01
 6.3101770642e-01	 9.4023404232e-01	-7.2571937322e-01
 6.2191585264e-01	 9.4627908802e-01	-8.3683166155e-01
 6.1276515563e-01	 9.5223019208e-01	-9.4927140171e-01
 6.0356705010e-01	 9.5808680065e-01	-1.0630660747e+00
 5.9432297822e-01	 9.6384838874e-01	-1.1782548929e+00
 5.8503438884e-01	 9.6951446026e-01	-1.2946695412e+00
 6.8101084561e-01	 9.1570202187e-01	-3.0905216212e-01
 6.7210555628e-01	 9.2225816550e-01	-4.0866247092e-01
 6.6314395088e-01	 9.2872285730e-01	-5.0952457234e-01
 6.5412742717e-01	 9.3509539596e-01	-6.1158015150e-01
 6.4505739396e-01	 9.4137510847e-01	-7.1478314327e-01
 6.3593527038e-01	 9.4756135025e-01	-8.1909994098e-01
 6.2676248523e-01	 9.5365350540e-01	-9.2450954534e-01
 6.1754047621e-01	 9.5965098682e-01	-1.0310036519e+00
 6.0827068923e-01	 9.6555323634e-01	-1.1385866753e+00
 5.9895457766e-01	 9.7135972488e-01	-1.2472757094e+00
 5.8959360168e-01	 9.7706995248e-01	-1.3571004225e+00
 6.8627697621e-01	 9.2278297582e-01	-4.2165043457e-01
 6.7730282392e-01	 9.2938981689e-01	-5.1665710651e-01
 6.6827192009e-01	 9.3590449895e-01	-6.1282530681e-01
 6.5918567328e-01	 9.4232631528e-01	-7.1006477850e-01
 6.5004550318e-01	 9.4865458764e-01	-8.0829791983e-01
 6.4085283991e-01	 9.5488866648e-01	-9.0746006230e-01
 6.3160912332e-01	 9.6102793114e-01	-1.0074996863e+00
 6.2231580221e-01	 9.6707178997e-01	-1.1083785719e+00
 6.1297433368e-01	 9.7301968049e-01	-1.2100718840e+00
 6.0358618236e-01	 9.7887106952e-01	-1.3125681892e+00
 5.9415281968e-01	 9.8462545326e-01	-1.4158694042e+00
 6.9154311128e-01	 9.2986393579e-01	-5.2792374640e-01
 6.8250009599e-01	 9.3652147435e-01	-6.1859538725e-01
 6.7339989367e-01	 9.4308614672e-01	-7.1035639615e-01
 6.6424392369e-01	 9.4955724074e-01	-8.0307979557e-01
 6.5503361664e-01	 9.5593407300e-01	-8.9665139238e-01
 6.4577041363e-01	 9.6221598894e-01	-9.9097013592e-01
 6.3645576553e-01	 9.6840236314e-01	-1.0859484111e+00
 6.2709113227e-01	 9.7449259942e-01	-1.1815122641e+00
 6.1767798214e-01	 9.8048613099e-01	-1.2776015591e+00
 6.0821779099e-01	 9.8638242056e-01	-1.3741700637e+00
 5.9871204156e-01	 9.9218096046e-01	-1.4711854629e+00
 6.9680924934e-01	 9.3694489977e-01	-6.2806772372e-01
 6.8769737100e-01	 9.4365313585e-01	-7.1468127073e-01
 6.7852787015e-01	 9.5026779855e-01	-8.0232358102e-01
 6.6930217696e-01	 9.5678817031e-01	-8.9082628302e-01
 6.6002173293e-01	 9.6321356248e-01	-9.8003364715e-01
 6.5068799013e-01	 9.6954331555e-01	-1.0698030347e+00
 6.4130241048e-01	 9.7577679933e-01	-1.1600052790e+00
 6.3186646504e-01	 9.8191341308e-01	-1.2505249975e+00
 6.2238163326e-01	 9.8795258571e-01	-1.3412608308e+00
 6.1284940224e-01	 9.9389377585e-01	-1.4321256090e+00
 6.0327126602e-01	 9.9973647194e-01	-1.5230464416e+00
 7.0207538890e-01	 9.4402586576e-01	-7.2227941537e-01
 6.9289464749e-01	 9.5078479937e-01	-8.0511996507e-01
 6.8365584808e-01	 9.5744945241e-01	-8.8893387004e-01
 6.7436043167e-01	 9.6401910192e-01	-9.7350679220e-01
 6.6500985064e-01	 9.7049305402e-01	-1.0586366263e+00
 6.5560556802e-01	 9.7687064424e-01	-1.1441340498e+00
 6.4614905681e-01	 9.8315123760e-01	-1.2298230037e+00
 6.3664179916e-01	 9.8933422885e-01	-1.3155411009e+00
 6.2708528571e-01	 9.9541904256e-01	-1.4011399599e+00
 6.1748101481e-01	 1.0014051333e+00	-1.4864854621e+00
 6.0783049177e-01	 1.0072919856e+00	-1.5714579308e+00
 5.6223844740e-01	 9.3173720256e-01	-9.1788242396e-01
 5.5327040460e-01	 9.3709025147e-01	-1.0663417449e+00
 5.4426238140e-01	 9.4235063717e-01	-1.2157317190e+00
 5.3521578645e-01	 9.4751796805e-01	-1.3659222233e+00
 5.2613203208e-01	 9.5259188044e-01	-1.5167921397e+00
 5.1701253362e-01	 9.5757203867e-01	-1.6682290141e+00
 5.0785870872e-01	 9.6245813498e-01	-1.8201286802e+00
 4.9867197668e-01	 9.6724988951e-01	-1.9723948500e+00
 4.8945375776e-01	 9.7194705020e-01	-2.1249386750e+00
 4.8020547255e-01	 9.7654939274e-01	-2.2776782814e+00
 4.7092854131e-01	 9.8105672044e-01	-2.4305382825e+00
 5.6679761502e-01	 9.3929261984e-01	-1.0018153872e+00
 5.5775685075e-01	 9.4468907640e-01	-1.1427491124e+00
 5.4867578187e-01	 9.4999211835e-01	-1.2843689969e+00
 5.3955582847e-01	 9.5520135089e-01	-1.4265660549e+00
 5.3039841432e-01	 9.6031640743e-01	-1.5692398120e+00
 5.2120496623e-01	 9.6533694954e-01	-1.7122979304e+00
 5.1197691336e-01	 9.7026266700e-01	-1.8556557985e+00
 5.0271568649e-01	 9.7509327766e-01	-1.9992360870e+00
 4.9342271743e-01	 9.7982852743e-01	-2.1429682764e+00
 4.8409943827e-01	 9.8446819017e-01	-2.2867881579e+00
 4.7474728079e-01	 9.8901206759e-01	-2.4306373124e+00
 5.7135679427e-01	 9.4684805640e-01	-1.0814915483e+00
 5.6224330833e-01	 9.5228792071e-01	-1.2154494106e+00
 5.5308919359e-01	 9.5763361901e-01	-1.3498085686e+00
 5.4389588155e-01	 9.6288475333e-01	-1.4844878567e+00
 5.3466480743e-01	 9.6804095411e-01	-1.6194143083e+00
 5.2539740954e-01	 9.7310188022e-01	-1.7545227340e+00
 5.1609512849e-01	 9.7806721892e-01	-1.8897552642e+00
 5.0675940662e-01	 9.8293668581e-01	-2.0250608584e+00
 4.9739168722e-01	 9.8771002475e-01	-2.1603947849e+00
 4.8799341392e-01	 9.9238700779e-01	-2.2957180747e+00
 4.7856603001e-01	 9.9696743504e-01	-2.4309969544e+00
 5.7591598385e-01	 9.5440351008e-01	-1.1568749503e+00
 5.6672977608e-01	 9.5988678225e-01	-1.2843484937e+00
 5.5750261532e-01	 9.6527513700e-01	-1.4119022933e+00
 5.4823594446e-01	 9.7056817318e-01	-1.5394895347e+00
 5.3893121022e-01	 9.7576551830e-01	-1.6670714685e+00
 5.2958986234e-01	 9.8086682850e-01	-1.7946169299e+00
 5.2021335296e-01	 9.8587178854e-01	-1.9221018217e+00
 5.1080313591e-01	 9.9078011175e-01	-2.0495085626e+00
 5.0136066601e-01	 9.9559153995e-01	-2.1768255075e+00
 4.9188739840e-01	 1.0003058434e+00	-2.3040463406e+00
 4.8238478788e-01	 1.0049228205e+00	-2.4311694489e+00
 5.8047518247e-01	 9.6195897875e-01	-1.2279396143e+00
 5.7121625274e-01	 9.6748565886e-01	-1.3493637386e+00
 5.6191604579e-01	 9.7291667014e-01	-1.4705149531e+00
 5.5257601599e-01	 9.7825160827e-01	-1.5913871781e+00
 5.4319762147e-01	 9.8349009781e-01	-1.7119824428e+00
 5.3378232346e-01	 9.8863179217e-01	-1.8323103336e+00
 5.2433158560e-01	 9.9367637363e-01	-1.9523874036e+00
 5.1484687322e-01	 9.9862355324e-01	-2.0722365491e+00
 5.0532965267e-01	 1.0034730708e+00	-2.1918863557e+00
 4.9578139060e-01	 1.0082246946e+00	-2.3113704189e+00
 4.8620355333e-01	 1.0128782218e+00	-2.4307266446e+00
 5.8503438884e-01	 9.6951446026e-01	-1.2946695412e+00
 5.7570273701e-01	 9.7508454838e-01	-1.4104239778e+00
 5.6632948378e-01	 9.8055821627e-01	-1.5255241216e+00
 5.5691609490e-01	 9.8593505643e-01	-1.6400108700e+00
 5.4746403997e-01	 9.9121469045e-01	-1.7539334494e+00
 5.3797479171e-01	 9.9639676905e-01	-1.8673487788e+00
 5.2844982524e-01	 1.0014809720e+00	-1.9803207950e+00
 5.1889061741e-01	 1.0064670081e+00	-2.0929197424e+00
 5.0929864608e-01	 1.0113546150e+00	-2.2052214334e+00
 4.9967538942e-01	 1.0161435594e+00	-2.3173064835e+00
 4.9002232527e-01	 1.0208336366e+00	-2.4292595250e+00
 5.8959360168e-01	 9.7706995248e-01	-1.3571004225e+00
 5.8018922765e-01	 9.8268344868e-01	-1.4674694420e+00
 5.7074292801e-01	 9.8819977323e-01	-1.5768200465e+00
 5.6125617995e-01	 9.9361851547e-01	-1.6852045139e+00
 5.5173046451e-01	 9.9893929404e-01	-1.7927255488e+00
 5.4216726590e-01	 1.0041617569e+00	-1.8994938463e+00
 5.3256807072e-01	 1.0092855814e+00	-2.0056273190e+00
 5.2293436733e-01	 1.0143104740e+00	-2.1112502892e+00
 5.1326764511e-01	 1.0192361704e+00	-2.2164926498e+00
 5.0356939376e-01	 1.0240624354e+00	-2.3214890004e+00
 4.9384110262e-01	 1.0287890626e+00	-2.4263777631e+00
 5.9415281968e-01	 9.8462545326e-01	-1.4158694042e+00
 5.8467572337e-01	 9.9028235758e-01	-1.5204517123e+00
 5.7515637725e-01	 9.9584133886e-01	-1.6243055432e+00
 5.6559626992e-01	 1.0013019832e+00	-1.7268256740e+00
 5.5599689390e-01	 1.0066639064e+00	-1.8281744361e+00
 5.4635974484e-01	 1.0119267536e+00	-1.9285226103e+00
 5.3668632086e-01	 1.0170901997e+00	-2.0280485433e+00
 5.2697812183e-01	 1.0221539488e+00	-2.1269372282e+00
 5.1723664864e-01	 1.0271177347e+00	-2.2253793549e+00
 5.0746340251e-01	 1.0319813203e+00	-2.3235703341e+00
 4.9765988430e-01	 1.0367444977e+00	-2.4217093013e+00
 5.9871204156e-01	 9.9218096046e-01	-1.4711854629e+00
 5.8916222290e-01	 9.9788127295e-01	-1.5693527850e+00
 5.7956983023e-01	 1.0034829110e+00	-1.6678959003e+00
 5.6993636358e-01	 1.0089854575e+00	-1.7647454293e+00
 5.6026332690e-01	 1.0143885253e+00	-1.8601102479e+00
 5.5055222734e-01	 1.0196917569e+00	-1.9542274035e+00
 5.4080457451e-01	 1.0248948246e+00	-2.0473420051e+00
 5.3102187977e-01	 1.0299974303e+00	-2.1397061797e+00
 5.2120565554e-01	 1.0349993057e+00	-2.2315779989e+00
 5.1135741457e-01	 1.0399002120e+00	-2.3232203780e+00
 5.0147866923e-01	 1.0446999395e+00	-2.4148999564e+00
 6.0327126602e-01	 9.9973647194e-01	-1.5230464416e+00
 5.9364872498e-01	 1.0054801926e+00	-1.6147009601e+00
 5.8398328573e-01	 1.0111244874e+00	-1.7075187956e+00
 5.7427645971e-01	 1.0166689361e+00	-1.7988482411e+00
 5.6452976233e-01	 1.0221131486e+00	-1.8883773844e+00
 5.5474471222e-01	 1.0274567646e+00	-1.9764155976e+00
 5.4492283048e-01	 1.0326994539e+00	-2.0632809554e+00
 5.3506564000e-01	 1.0378409163e+00	-2.1492990563e+00
 5.2517466470e-01	 1.0428808812e+00	-2.2348018113e+00
 5.1525142884e-01	 1.0478191081e+00	-2.3201262066e+00
 5.0529745632e-01	 1.0526553859e+00	-2.4056130472e+00
 6.0783049177e-01	 1.0072919856e+00	-1.5714579308e+00
 5.9813522833e-01	 1.0130791144e+00	-1.6567177960e+00
 5.8839674247e-01	 1.0187660660e+00	-1.7431149597e+00
 5.7861655706e-01	 1.0243524169e+00	-1.8290318320e+00
 5.6879619897e-01	 1.0298377741e+00	-1.9128343463e+00
 5.5893719829e-01	 1.0352217745e+00	-1.9949094008e+00
 5.4904108763e-01	 1.0405040854e+00	-2.0756541204e+00
 5.3910940138e-01	 1.0456844044e+00	-2.1554737913e+00
 5.2914367498e-01	 1.0507624590e+00	-2.2347805003e+00
 5.1914544421e-01	 1.0557380065e+00	-2.3139917486e+00
 5.0911624449e-01	 1.0606108344e+00	-2.3935290447e+00
 4.7092854131e-01	 9.8105672044e-01	-2.4305382825e+00
 4.6162279917e-01	 9.8546960600e-01	-2.5830805959e+00
 4.5229123883e-01	 9.8978713259e-01	-2.7347728869e+00
 4.4293527589e-01	 9.9400918483e-01	-2.8854840583e+00
 4.3355632305e-01	 9.9813567443e-01	-3.0350868614e+00
 4.2415578950e-01	 1.0021665399e+00	-3.1834574979e+00
 4.1473508031e-01	 1.0061017465e+00	-3.3304752177e+00
 4.0529559579e-01	 1.0099412857e+00	-3.4760219176e+00
 3.9583873097e-01	 1.0136851754e+00	-3.6199817418e+00
 3.8636587493e-01	 1.0173334593e+00	-3.7622406885e+00
 3.7687841031e-01	 1.0208862068e+00	-3.9026862243e+00
 4.7474728079e-01	 9.8901206759e-01	-2.4306373124e+00
 4.6536607878e-01	 9.9346073706e-01	-2.5740725953e+00
 4.5595884921e-01	 9.9781327428e-01	-2.7165630171e+00
 4.4652701917e-01	 1.0020695630e+00	-2.8579979943e+00
 4.3707201281e-01	 1.0062295141e+00	-2.9982695589e+00
 4.2759525073e-01	 1.0102930657e+00	-3.1372719309e+00
 4.1809814941e-01	 1.0142601827e+00	-3.2749010886e+00
 4.0858212051e-01	 1.0181308566e+00	-3.4110543409e+00
 3.9904857037e-01	 1.0219051053e+00	-3.5456299051e+00
 3.8949889935e-01	 1.0255829730e+00	-3.6785264917e+00
 3.7993450129e-01	 1.0291645295e+00	-3.8096429006e+00
 4.7856603001e-01	 9.9696743504e-01	-2.4309969544e+00
 4.6910936794e-01	 1.0014518885e+00	-2.5657854639e+00
 4.5962646895e-01	 1.0058394364e+00	-2.6995478971e+00
 4.5011877161e-01	 1.0101299617e+00	-2.8321898968e+00
 4.4058771152e-01	 1.0143233744e+00	-2.9636187537e+00
 4.3103472073e-01	 1.0184196122e+00	-3.0937429498e+00
 4.2146122708e-01	 1.0224186397e+00	-3.2224717018e+00
 4.1186865362e-01	 1.0263204483e+00	-3.3497145077e+00
 4.0225841797e-01	 1.0301250562e+00	-3.4753807011e+00
 3.9263193177e-01	 1.0338325077e+00	-3.5993790141e+00
 3.8299060006e-01	 1.0374428734e+00	-3.7216171542e+00
 4.8238478788e-01	 1.0049228205e+00	-2.4311694489e+00
 4.7285266558e-01	 1.0094430580e+00	-2.5577493688e+00
 4.6329409701e-01	 1.0138656168e+00	-2.6832408818e+00
 4.5371053220e-01	 1.0181903786e+00	-2.8075616918e+00
 4.4410341821e-01	 1.0224172531e+00	-2.9306304436e+00
 4.3447419853e-01	 1.0265461771e+00	-3.0523662378e+00
 4.2482431238e-01	 1.0305771152e+00	-3.1726881481e+00
 4.1515519417e-01	 1.0345100586e+00	-3.2915147419e+00
 4.0546827284e-01	 1.0383450257e+00	-3.4087636109e+00
 3.9576497128e-01	 1.0420820611e+00	-3.5243509122e+00
 3.8604670575e-01	 1.0457212360e+00	-3.6381909237e+00
 4.8620355333e-01	 1.0128782218e+00	-2.4307266446e+00
 4.7659597065e-01	 1.0174342434e+00	-2.5495144095e+00
 4.6696173234e-01	 1.0218918131e+00	-2.6671754146e+00
 4.5730229990e-01	 1.0262508116e+00	-2.7836353793e+00
 4.4761913188e-01	 1.0305111478e+00	-2.8988205126e+00
 4.3791368315e-01	 1.0346727582e+00	-3.0126570013e+00
 4.2818740435e-01	 1.0387356069e+00	-3.1250705003e+00
 4.1844174124e-01	 1.0426996852e+00	-3.2359856282e+00
 4.0867813407e-01	 1.0465650115e+00	-3.3453254738e+00
 3.9889801701e-01	 1.0503316309e+00	-3.4530111134e+00
 3.8910281751e-01	 1.0539996151e+00	-3.5589611460e+00
 4.9002232527e-01	 1.0208336366e+00	-2.4292595250e+00
 4.8033928208e-01	 1.0254254424e+00	-2.5406501207e+00
 4.7062937390e-01	 1.0299180230e+00	-2.6509045130e+00
 4.6089407372e-01	 1.0343112582e+00	-2.7599525080e+00
 4.5113485152e-01	 1.0386050562e+00	-2.8677242020e+00
 4.4135317361e-01	 1.0427993530e+00	-2.9741494433e+00
 4.3155050204e-01	 1.0468941124e+00	-3.0791572963e+00
 4.2172829390e-01	 1.0508893257e+00	-3.1826755124e+00
 4.1188800077e-01	 1.0547850113e+00	-3.2846300102e+00
 4.0203106806e-01	 1.0585812147e+00	-3.3849443708e+00
 3.9215893447e-01	 1.0622780082e+00	-3.4835393494e+00
 4.9384110262e-01	 1.0287890626e+00	-2.4263777631e+00
 4.8408259882e-01	 1.0334166527e+00	-2.5307450038e+00
 4.7429702066e-01	 1.0379442443e+00	-2.6340002835e+00
 4.6448585262e-01	 1.0423717163e+00	-2.7360736800e+00
 4.5465057614e-01	 1.0466989762e+00	-2.8368956103e+00
 4.4479266895e-01	 1.0509259594e+00	-2.9363962660e+00
 4.3491360449e-01	 1.0550526295e+00	-3.0345050512e+00
 4.2501485122e-01	 1.0590789777e+00	-3.1311500281e+00
 4.1509787201e-01	 1.0630050227e+00	-3.2262573720e+00
 4.0516412356e-01	 1.0668308102e+00	-3.3197508423e+00
 3.9521505575e-01	 1.0705564131e+00	-3.4115512695e+00
 4.9765988430e-01	 1.0367444977e+00	-2.4217093013e+00
 4.8782591980e-01	 1.0414078721e+00	-2.5194060855e+00
 4.7796467158e-01	 1.0459704747e+00	-2.6160534635e+00
 4.6807763560e-01	 1.0504321835e+00	-2.7115780826e+00
 4.5816630474e-01	 1.0547929053e+00	-2.8059072218e+00
 4.4823216819e-01	 1.0590525750e+00	-2.8989682014e+00
 4.3827671075e-01	 1.0632111559e+00	-2.9906877954e+00
 4.2830141226e-01	 1.0672686391e+00	-3.0809916508e+00
 4.1830774689e-01	 1.0712250434e+00	-3.1698037176e+00
 4.0829718260e-01	 1.0750804151e+00	-3.2570456933e+00
 3.9827118050e-01	 1.0788348274e+00	-3.3426364861e+00
 5.0147866923e-01	 1.0446999395e+00	-2.4148999564e+00
 4.9156924396e-01	 1.0493990983e+00	-2.5062585010e+00
 4.8163232562e-01	 1.0539967119e+00	-2.5966729897e+00
 4.7166942163e-01	 1.0584926576e+00	-2.6860630466e+00
 4.6168203634e-01	 1.0628868413e+00	-2.7743494601e+00
 4.5167167035e-01	 1.0671791975e+00	-2.8614535669e+00
 4.4163981988e-01	 1.0713696892e+00	-2.9472966387e+00
 4.3158797609e-01	 1.0754583074e+00	-3.0317992757e+00
 4.2151762450e-01	 1.0794450712e+00	-3.1148808094e+00
 4.1143024431e-01	 1.0833300269e+00	-3.1964587217e+00
 4.0132730785e-01	 1.0871132486e+00	-3.2764480811e+00
 5.0529745632e-01	 1.0526553859e+00	-2.4056130472e+00
 4.9531257024e-01	 1.0573903290e+00	-2.4909451018e+00
 4.8529998173e-01	 1.0620229537e+00	-2.5754855906e+00
 4.7526120969e-01	 1.0665531362e+00	-2.6591436298e+00
 4.6519776993e-01	 1.0709807819e+00	-2.7418302681e+00
 4.5511117446e-01	 1.0753058246e+00	-2.8234578466e+00
 4.4500293091e-01	 1.0795282271e+00	-2.9039393591e+00
 4.3487454179e-01	 1.0836479804e+00	-2.9831878190e+00
 4.2472750393e-01	 1.0876651036e+00	-3.0611156352e+00
 4.1456330780e-01	 1.0915796435e+00	-3.1376340034e+00
 4.0438343693e-01	 1.0953916746e+00	-3.2126523153e+00
 5.0911624449e-01	 1.0606108344e+00	-2.3935290447e+00
 4.9905589759e-01	 1.0653815619e+00	-2.4731260863e+00
 4.8896763889e-01	 1.0700491977e+00	-2.5521354028e+00
 4.7885299878e-01	 1.0746136171e+00	-2.6304522232e+00
 4.6871350451e-01	 1.0790747247e+00	-2.7079747101e+00
 4.5855067955e-01	 1.0834324540e+00	-2.7846032952e+00
 4.4836604289e-01	 1.0876867674e+00	-2.8602400133e+00
 4.3816110842e-01	 1.0918376557e+00	-2.9347878417e+00
 4.2793738427e-01	 1.0958851383e+00	-3.0081500491e+00
 4.1769637217e-01	 1.0998292624e+00	-3.0802295577e+00
 4.0743956688e-01	 1.1036701029e+00	-3.1509283233e+00
 3.7687841031e-01	 1.0208862068e+00	-3.9026862243e+00
 3.6737932860e-01	 1.0243429329e+00	-4.0410733545e+00
 3.5786838524e-01	 1.0277043688e+00	-4.1772135181e+00
 3.4834693899e-01	 1.0309706585e+00	-4.3110095920e+00
 3.3881633997e-01	 1.0341419700e+00	-4.4423655482e+00
 3.2927792916e-01	 1.0372184959e+00	-4.5711861366e+00
 3.1973303789e-01	 1.0402004521e+00	-4.6973765871e+00
 3.1018298736e-01	 1.0430880782e+00	-4.8208423335e+00
 3.0062908817e-01	 1.0458816367e+00	-4.9414887609e+00
 2.9107263984e-01	 1.0485814126e+00	-5.0592209774e+00
 2.8151493038e-01	 1.0511877135e+00	-5.1739436112e+00
 3.7993450129e-01	 1.0291645295e+00	-3.8096429006e+00
 3.7035839192e-01	 1.0326492861e+00	-3.9387709692e+00
 3.6077032473e-01	 1.0360379798e+00	-4.0657638033e+00
 3.5117166948e-01	 1.0393307556e+00	-4.1905467513e+00
 3.4156378724e-01	 1.0425277832e+00	-4.3130464599e+00
 3.3194802986e-01	 1.0456292565e+00	-4.4331905022e+00
 3.2232573948e-01	 1.0486353933e+00	-4.5509070298e+00
 3.1269824800e-01	 1.0515464350e+00	-4.6661244461e+00
 3.0306687665e-01	 1.0543626463e+00	-4.7787711059e+00
 2.9343293548e-01	 1.0570843146e+00	-4.8887750406e+00
 2.8379772296e-01	 1.0597117498e+00	-4.9960637112e+00
 3.8299060006e-01	 1.0374428734e+00	-3.7216171542e+00
 3.7333746285e-01	 1.0409556605e+00	-3.8419391991e+00
 3.6367227163e-01	 1.0443716120e+00	-3.9602548389e+00
 3.5399640717e-01	 1.0476908741e+00	-4.0765084749e+00
 3.4431124151e-01	 1.0509136178e+00	-4.1906457091e+00
 3.3461813737e-01	 1.0540400385e+00	-4.3026129293e+00
 3.2491844768e-01	 1.0570703559e+00	-4.4123569173e+00
 3.1521351505e-01	 1.0600048134e+00	-4.5198244831e+00
 3.0550467133e-01	 1.0628436776e+00	-4.6249621256e+00
 2.9579323714e-01	 1.0655872383e+00	-4.7277157210e+00
 2.8608052136e-01	 1.0682358080e+00	-4.8280302421e+00
 3.8604670575e-01	 1.0457212360e+00	-3.6381909237e+00
 3.7631654053e-01	 1.0492620537e+00	-3.7501886144e+00
 3.6657422510e-01	 1.0527052631e+00	-3.8603184622e+00
 3.5682115127e-01	 1.0560510115e+00	-3.9685406376e+00
 3.4705870202e-01	 1.0592994714e+00	-4.0748161182e+00
 3.3728825094e-01	 1.0624508397e+00	-4.1791062395e+00
 3.2751116175e-01	 1.0655053377e+00	-4.2813722688e+00
 3.1772878780e-01	 1.0684632109e+00	-4.3815750089e+00
 3.0794247155e-01	 1.0713247281e+00	-4.4796744289e+00
 2.9815354415e-01	 1.0740901813e+00	-4.5756293266e+00
 2.8836332494e-01	 1.0767598854e+00	-4.6693970230e+00
 3.8910281751e-01	 1.0539996151e+00	-3.5589611460e+00
 3.7929562411e-01	 1.0575684634e+00	-3.6631435392e+00
 3.6947618433e-01	 1.0610389307e+00	-3.7655992595e+00
 3.5964590097e-01	 1.0644111655e+00	-3.8663010946e+00
 3.4980616797e-01	 1.0676853416e+00	-3.9652219544e+00
 3.3995836980e-01	 1.0708616575e+00	-4.0623343937e+00
 3.3010388097e-01	 1.0739403363e+00	-4.1576101632e+00
 3.2024406554e-01	 1.0769216252e+00	-4.2510197894e+00
 3.1038027660e-01	 1.0798057954e+00	-4.3425321865e+00
 3.0051385584e-01	 1.0825931411e+00	-4.4321143014e+00
 2.9064613305e-01	 1.0852839798e+00	-4.5197307930e+00
 3.9215893447e-01	 1.0622780082e+00	-3.4835393494e+00
 3.8227471277e-01	 1.0658748872e+00	-3.5804416814e+00
 3.7237814849e-01	 1.0693726125e+00	-3.6757542241e+00
 3.6247065548e-01	 1.0727713337e+00	-3.7694593594e+00
 3.5255363860e-01	 1.0760712260e+00	-3.8615386176e+00
 3.4262849320e-01	 1.0792724896e+00	-3.9519721815e+00
 3.3269660460e-01	 1.0823753491e+00	-4.0407384206e+00
 3.2275934755e-01	 1.0853800539e+00	-4.1278134586e+00
 3.1281808580e-01	 1.0882868771e+00	-4.2131707739e+00
 3.0287417155e-01	 1.0910961154e+00	-4.2967808367e+00
 2.9292894504e-01	 1.0938080886e+00	-4.3786107834e+00
 3.9521505575e-01	 1.0705564131e+00	-3.4115512695e+00
 3.8525380564e-01	 1.0741813228e+00	-3.5017337847e+00
 3.7528011676e-01	 1.0777063061e+00	-3.5904524348e+00
 3.6529541398e-01	 1.0811315138e+00	-3.6776962994e+00
 3.5530111312e-01	 1.0844571224e+00	-3.7634523468e+00
 3.4529862039e-01	 1.0876833336e+00	-3.8477049279e+00
 3.3528933190e-01	 1.0908103739e+00	-3.9304353032e+00
 3.2527463313e-01	 1.0938384946e+00	-4.0116212044e+00
 3.1525589845e-01	 1.0967679709e+00	-4.0912364342e+00
 3.0523449060e-01	 1.0995991017e+00	-4.1692505037e+00
 2.9521176026e-01	 1.1023322096e+00	-4.2456283116e+00
 3.9827118050e-01	 1.0788348274e+00	-3.3426364861e+00
 3.8823290189e-01	 1.0824877678e+00	-3.4266832986e+00
 3.7818208832e-01	 1.0860400091e+00	-3.5093747519e+00
 3.6812017569e-01	 1.0894917034e+00	-3.5907038493e+00
 3.5804859075e-01	 1.0928430283e+00	-3.6706599414e+00
 3.4796875060e-01	 1.0960941871e+00	-3.7492282172e+00
 3.3788206214e-01	 1.0992454083e+00	-3.8263892314e+00
 3.2778992156e-01	 1.1022969449e+00	-3.9021184704e+00
 3.1769371386e-01	 1.1052490742e+00	-3.9763859580e+00
 3.0759481232e-01	 1.1081020977e+00	-4.0491559042e+00
 2.9749457807e-01	 1.1108563401e+00	-4.1203863962e+00
 4.0132730785e-01	 1.0871132486e+00	-3.2764480811e+00
 3.9121200067e-01	 1.0907942199e+00	-3.3549660689e+00
 3.8108406235e-01	 1.0943737193e+00	-3.4322135309e+00
 3.7094493980e-01	 1.0978519000e+00	-3.5081847413e+00
 3.6079607072e-01	 1.1012289412e+00	-3.5828685003e+00
 3.5063888308e-01	 1.1045050478e+00	-3.6562476314e+00
 3.4047479458e-01	 1.1076804498e+00	-3.7282985165e+00
 3.3030521213e-01	 1.1107554023e+00	-3.7989906744e+00
 3.2013153135e-01	 1.1137301848e+00	-3.8682863817e+00
 3.0995513605e-01	 1.1166051009e+00	-3.9361403405e+00
 2.9977739782e-01	 1.1193804780e+00	-4.0024993917e+00
 4.0438343693e-01	 1.0953916746e+00	-3.2126523153e+00
 3.9419110114e-01	 1.0991006766e+00	-3.2862700441e+00
 3.8398603803e-01	 1.1027074341e+00	-3.3586723524e+00
 3.7376970551e-01	 1.1062121014e+00	-3.4298522496e+00
 3.6354355225e-01	 1.1096148590e+00	-3.4997951744e+00
 3.5330901707e-01	 1.1129159133e+00	-3.5684785044e+00
 3.4306752849e-01	 1.1161154962e+00	-3.6358711081e+00
 3.3282050413e-01	 1.1192138646e+00	-3.7019329428e+00
 3.2256935021e-01	 1.1222113002e+00	-3.7666147006e+00
 3.1231546112e-01	 1.1251081089e+00	-3.8298575023e+00
 3.0206021886e-01	 1.1279046207e+00	-3.8915926423e+00
 4.0743956688e-01	 1.1036701029e+00	-3.1509283233e+00
 3.9717020246e-01	 1.1074071358e+00	-3.2202949999e+00
 3.8688801453e-01	 1.1110411513e+00	-3.2884657675e+00
 3.7659447202e-01	 1.1145723051e+00	-3.3554299510e+00
 3.6629103455e-01	 1.1180007791e+00	-3.4211669343e+00
 3.5597915182e-01	 1.1213267811e+00	-3.4856456899e+00
 3.4566026314e-01	 1.1245505449e+00	-3.5488243552e+00
 3.3533579683e-01	 1.1276723292e+00	-3.6106498590e+00
 3.2500716977e-01	 1.1306924180e+00	-3.6710575986e+00
 3.1467578686e-01	 1.1336111194e+00	-3.7299711700e+00
 3.0434304055e-01	 1.1364287657e+00	-3.7873021531e+00
 2.8151493038e-01	 1.0511877135e+00	-5.1739436112e+00
 2.7195723598e-01	 1.0537008686e+00	-5.2856299515e+00
 2.6240082098e-01	 1.0561212300e+00	-5.3942484030e+00
 2.5284693703e-01	 1.0584491706e+00	-5.4996941420e+00
 2.4329682261e-01	 1.0606850842e+00	-5.6018600886e+00
 2.3375170258e-01	 1.0628293844e+00	-5.7006368718e+00
 2.2421278792e-01	 1.0648825050e+00	-5.7959128233e+00
 2.1468127528e-01	 1.0668448987e+00	-5.8875740005e+00
 2.0515834672e-01	 1.0687170373e+00	-5.9755042366e+00
 1.9564516936e-01	 1.0704994107e+00	-6.0595852195e+00
 1.8614289510e-01	 1.0721925270e+00	-6.1396965967e+00
 2.8379772296e-01	 1.0597117498e+00	-4.9960637112e+00
 2.7416252562e-01	 1.0622452841e+00	-5.1006066880e+00
 2.6452861806e-01	 1.0646852721e+00	-5.2023513785e+00
 2.5489726208e-01	 1.0670320899e+00	-5.3011891051e+00
 2.4526970618e-01	 1.0692861343e+00	-5.3970080424e+00
 2.3564718519e-01	 1.0714478226e+00	-5.4896931963e+00
 2.2603091987e-01	 1.0735175919e+00	-5.5791264134e+00
 2.1642211660e-01	 1.0754958986e+00	-5.6651864215e+00
 2.0682196701e-01	 1.0773832182e+00	-5.7477489000e+00
 1.9723164771e-01	 1.0791800448e+00	-5.8266865804e+00
 1.8765231991e-01	 1.0808868905e+00	-5.9018693747e+00
 2.8608052136e-01	 1.0682358080e+00	-4.8280302421e+00
 2.7636782089e-01	 1.0707897214e+00	-4.9258573363e+00
 2.6665642057e-01	 1.0732493360e+00	-5.0211153693e+00
 2.5694759235e-01	 1.0756150310e+00	-5.1136955280e+00
 2.4724259478e-01	 1.0778872064e+00	-5.2034849248e+00
 2.3754267262e-01	 1.0800662828e+00	-5.2903665846e+00
 2.2784905645e-01	 1.0821527008e+00	-5.3742194662e+00
 2.1816296236e-01	 1.0841469205e+00	-5.4549185158e+00
 2.0848559156e-01	 1.0860494213e+00	-5.5323347537e+00
 1.9881813010e-01	 1.0878607011e+00	-5.6063353918e+00
 1.8916174857e-01	 1.0895812762e+00	-5.6767839823e+00
 2.8836332494e-01	 1.0767598854e+00	-4.6693970230e+00
 2.7857312116e-01	 1.0793341780e+00	-4.7609006782e+00
 2.6878422790e-01	 1.0818134193e+00	-4.8500250524e+00
 2.5899792727e-01	 1.0841979916e+00	-4.9366648363e+00
 2.4921548786e-01	 1.0864882980e+00	-5.0207096825e+00
 2.3943816435e-01	 1.0886847625e+00	-5.1020441972e+00
 2.2966719716e-01	 1.0907878292e+00	-5.1805479680e+00
 2.1990381206e-01	 1.0927979620e+00	-5.2560956269e+00
 2.1014921987e-01	 1.0947156439e+00	-5.3285569477e+00
 2.0040461609e-01	 1.0965413770e+00	-5.3977969786e+00
 1.9067118065e-01	 1.0982756816e+00	-5.4636762068e+00
 2.9064613305e-01	 1.0852839798e+00	-4.5197307930e+00
 2.8077842580e-01	 1.0878786515e+00	-4.6052692961e+00
 2.7091203946e-01	 1.0903775196e+00	-4.6885797734e+00
 2.6104826626e-01	 1.0927809692e+00	-4.7695639821e+00
 2.5118838485e-01	 1.0950894067e+00	-4.8481176410e+00
 2.4133365985e-01	 1.0973032594e+00	-4.9241304226e+00
 2.3148534148e-01	 1.0994229748e+00	-4.9974859823e+00
 2.2164466522e-01	 1.1014490207e+00	-5.0680620263e+00
 2.1181285148e-01	 1.1033818838e+00	-5.1357304177e+00
 2.0199110523e-01	 1.1052220702e+00	-5.2003573178e+00
 1.9218061573e-01	 1.1069701042e+00	-5.2618033642e+00
 2.9292894504e-01	 1.0938080886e+00	-4.3786107834e+00
 2.8298373420e-01	 1.0964231396e+00	-4.4585091018e+00
 2.7303985463e-01	 1.0989416345e+00	-4.5362930331e+00
 2.6309860874e-01	 1.1013639614e+00	-4.6118748899e+00
 2.5316128520e-01	 1.1036905300e+00	-4.6851599098e+00
 2.4322915856e-01	 1.1059217708e+00	-4.7560462418e+00
 2.3330348888e-01	 1.1080581351e+00	-4.8244249732e+00
 2.2338552134e-01	 1.1101000940e+00	-4.8901801991e+00
 2.1347648592e-01	 1.1120481384e+00	-4.9531891306e+00
 2.0357759706e-01	 1.1139027781e+00	-5.0133222438e+00
 1.9369005337e-01	 1.1156645417e+00	-5.0704434664e+00
 2.9521176026e-01	 1.1023322096e+00	-4.2456283116e+00
 2.8518904571e-01	 1.1049676398e+00	-4.3201788894e+00
 2.7516767281e-01	 1.1075057615e+00	-4.3926919995e+00
 2.6514895412e-01	 1.1099469657e+00	-4.4630939290e+00
 2.5513418834e-01	 1.1122916654e+00	-4.5313028153e+00
 2.4512465996e-01	 1.1145402945e+00	-4.5972286228e+00
 2.3512163886e-01	 1.1166933076e+00	-4.6607731635e+00
 2.2512637992e-01	 1.1187511797e+00	-4.7218301622e+00
 2.1514012271e-01	 1.1207144053e+00	-4.7802853655e+00
 2.0516409114e-01	 1.1225834983e+00	-4.8360166923e+00
 1.9519949315e-01	 1.1243589914e+00	-4.8888944269e+00
 2.9749457807e-01	 1.1108563401e+00	-4.1203863962e+00
 2.8739435973e-01	 1.1135121497e+00	-4.1898499109e+00
 2.7729549341e-01	 1.1160698982e+00	-4.2573170456e+00
 2.6719930182e-01	 1.1185299798e+00	-4.3227314126e+00
 2.5710709371e-01	 1.1208928106e+00	-4.3860273626e+00
 2.4702016351e-01	 1.1231588279e+00	-4.4471299457e+00
 2.3693979090e-01	 1.1253284899e+00	-4.5059549214e+00
 2.2686724048e-01	 1.1274022751e+00	-4.5624088166e+00
 2.1680376139e-01	 1.1293806820e+00	-4.6163890296e+00
 2.0675058702e-01	 1.1312642283e+00	-4.6677839803e+00
 1.9670893464e-01	 1.1330534510e+00	-4.7164733049e+00
 2.9977739782e-01	 1.1193804780e+00	-4.0024993917e+00
 2.8959967562e-01	 1.1220566669e+00	-4.0671054734e+00
 2.7942331581e-01	 1.1246340422e+00	-4.1297213086e+00
 2.6924965126e-01	 1.1271130012e+00	-4.1903111217e+00
 2.5908000077e-01	 1.1294939632e+00	-4.2488287238e+00
 2.4891566867e-01	 1.1317773687e+00	-4.3052174550e+00
 2.3875794449e-01	 1.1339636796e+00	-4.3594101791e+00
 2.2860810251e-01	 1.1360533779e+00	-4.4113293297e+00
 2.1846740149e-01	 1.1380469660e+00	-4.4608870062e+00
 2.0833708425e-01	 1.1399449658e+00	-4.5079851192e+00
 1.9821837741e-01	 1.1417479180e+00	-4.5525155842e+00
 3.0206021886e-01	 1.1279046207e+00	-3.8915926423e+00
 2.9180499276e-01	 1.1306011888e+00	-3.9515405561e+00
 2.8155113943e-01	 1.1331981910e+00	-4.0094702723e+00
 2.7130000187e-01	 1.1356960275e+00	-4.0653698516e+00
 2.6105290894e-01	 1.1380951206e+00	-4.1192157500e+00
 2.5081117490e-01	 1.1403959144e+00	-4.1709727384e+00
 2.4057609910e-01	 1.1425988741e+00	-4.2205938775e+00
 2.3034896554e-01	 1.1447044856e+00	-4.2680205477e+00
 2.2013104253e-01	 1.1467132550e+00	-4.3131825337e+00
 2.0992358237e-01	 1.1486257081e+00	-4.3559981613e+00
 1.9972782104e-01	 1.1504423900e+00	-4.3963744865e+00
 3.0434304055e-01	 1.1364287657e+00	-3.7873021531e+00
 2.9401031052e-01	 1.1391457133e+00	-3.8427614473e+00
 2.8367896364e-01	 1.1417623423e+00	-3.8961413698e+00
 2.7335035306e-01	 1.1442790561e+00	-3.9474569816e+00
 2.6302581766e-01	 1.1466962804e+00	-3.9967105080e+00
 2.5270668167e-01	 1.1490144625e+00	-4.0438912306e+00
 2.4239425423e-01	 1.1512340711e+00	-4.0889754377e+00
 2.3208982905e-01	 1.1533555958e+00	-4.1319264350e+00
 2.2179468403e-01	 1.1553795464e+00	-4.1726946137e+00
 2.1151008095e-01	 1.1573064529e+00	-4.2112175760e+00
 2.0123726509e-01	 1.1591368644e+00	-4.2474203161e+00
 1.8614289510e-01	 1.0721925270e+00	-6.1396965967e+00
 1.7665104837e-01	 1.0737971766e+00	-6.2160304779e+00
 1.6717236883e-01	 1.0753136062e+00	-6.2887873002e+00
 1.5770796401e-01	 1.0767423742e+00	-6.3578970625e+00
 1.4825892506e-01	 1.0780840550e+00	-6.4232891627e+00
 1.3882632656e-01	 1.0793392389e+00	-6.4848925178e+00
 1.2941122629e-01	 1.0805085309e+00	-6.5426357064e+00
 1.2001466501e-01	 1.0815925508e+00	-6.5964471301e+00
 1.1063766632e-01	 1.0825919328e+00	-6.6462551950e+00
 1.0128123642e-01	 1.0835073244e+00	-6.6919885094e+00
 9.1946364036e-02	 1.0843393864e+00	-6.7335760976e+00
 1.8765231991e-01	 1.0808868905e+00	-5.9018693747e+00
 1.7808350420e-01	 1.0825045521e+00	-5.9735006091e+00
 1.6852796246e-01	 1.0840332784e+00	-6.0418031879e+00
 1.5898681117e-01	 1.0854736322e+00	-6.1067101150e+00
 1.4946115037e-01	 1.0868261927e+00	-6.1681523409e+00
 1.3995206333e-01	 1.0880915548e+00	-6.2260589113e+00
 1.3046061641e-01	 1.0892703285e+00	-6.2803571410e+00
 1.2098785882e-01	 1.0903631388e+00	-6.3309728084e+00
 1.1153482244e-01	 1.0913706247e+00	-6.3778303721e+00
 1.0210252166e-01	 1.0922934391e+00	-6.4208532061e+00
 9.2691953187e-02	 1.0931322483e+00	-6.4599638526e+00
 1.8916174857e-01	 1.0895812762e+00	-5.6767839823e+00
 1.7951596368e-01	 1.0912119499e+00	-5.7438910766e+00
 1.6988355953e-01	 1.0927529729e+00	-5.8078960956e+00
 1.6026566160e-01	 1.0942049125e+00	-5.8687355872e+00
 1.5066337875e-01	 1.0955683527e+00	-5.9263426614e+00
 1.4107780297e-01	 1.0968438930e+00	-5.9806471654e+00
 1.3151000921e-01	 1.0980321485e+00	-6.0315758849e+00
 1.2196105511e-01	 1.0991337491e+00	-6.0790527709e+00
 1.1243198086e-01	 1.1001493389e+00	-6.1229991882e+00
 1.0292380898e-01	 1.1010795762e+00	-6.1633341861e+00
 9.3437544239e-02	 1.1019251326e+00	-6.1999747875e+00
 1.9067118065e-01	 1.0982756816e+00	-5.4636762068e+00
 1.8094842641e-01	 1.0999193674e+00	-5.5264097731e+00
 1.7123915968e-01	 1.1014726871e+00	-5.5862490706e+00
 1.6154451493e-01	 1.1029362126e+00	-5.6431347055e+00
 1.5186560985e-01	 1.1043105325e+00	-5.6970025270e+00
 1.4220354517e-01	 1.1055962511e+00	-5.7477838264e+00
 1.3255940439e-01	 1.1067939884e+00	-5.7954055642e+00
 1.2293425361e-01	 1.1079043792e+00	-5.8397906254e+00
 1.1332914130e-01	 1.1089280731e+00	-5.8808580988e+00
 1.0374509817e-01	 1.1098657333e+00	-5.9185235802e+00
 9.4183136981e-02	 1.1107180368e+00	-5.9526994962e+00
 1.9218061573e-01	 1.1069701042e+00	-5.2618033642e+00
 1.8238089199e-01	 1.1086268022e+00	-5.3202869666e+00
 1.7259476252e-01	 1.1101924186e+00	-5.3760683070e+00
 1.6282337079e-01	 1.1116675300e+00	-5.4290925405e+00
 1.5306784333e-01	 1.1130527296e+00	-5.4792988090e+00
 1.4332928959e-01	 1.1143486265e+00	-5.5266204618e+00
 1.3360880165e-01	 1.1155558456e+00	-5.5709853071e+00
 1.2390745403e-01	 1.1166750268e+00	-5.6123158926e+00
 1.1422630353e-01	 1.1177068246e+00	-5.6505298139e+00
 1.0456638899e-01	 1.1186519078e+00	-5.6855400475e+00
 9.4928731201e-02	 1.1195109585e+00	-5.7172553076e+00
 1.9369005337e-01	 1.1156645417e+00	-5.0704434664e+00
 1.8381335999e-01	 1.1173342518e+00	-5.1247744296e+00
 1.7395036767e-01	 1.1189121650e+00	-5.1765822408e+00
 1.6410222882e-01	 1.1203988623e+00	-5.2258170712e+00
 1.5427007886e-01	 1.1217949416e+00	-5.2724218835e+00
 1.4445503593e-01	 1.1231010168e+00	-5.3163326718e+00
 1.3465820069e-01	 1.1243177177e+00	-5.3574787345e+00
 1.2488065612e-01	 1.1254456893e+00	-5.3957829791e+00
 1.1512346728e-01	 1.1264855911e+00	-5.4311622564e+00
 1.0538768121e-01	 1.1274380972e+00	-5.4635277220e+00
 9.5674326689e-02	 1.1283038952e+00	-5.4927852238e+00
 1.9519949315e-01	 1.1243589914e+00	-4.8888944269e+00
 1.8524583003e-01	 1.1260417137e+00	-4.9391446089e+00
 1.7530597473e-01	 1.1276319237e+00	-4.9870406867e+00
 1.6538108867e-01	 1.1291302069e+00	-5.0325382923e+00
 1.5547231610e-01	 1.1305371660e+00	-5.0755847129e+00
 1.4558078387e-01	 1.1318534195e+00	-5.1161191473e+00
 1.3570760123e-01	 1.1330796023e+00	-5.1540729980e+00
 1.2585385957e-01	 1.1342163642e+00	-5.1893701979e+00
 1.1602063230e-01	 1.1352643700e+00	-5.2219275687e+00
 1.0620897458e-01	 1.1362242991e+00	-5.2516552085e+00
 9.6419923233e-02	 1.1370968443e+00	-5.2784569071e+00
 1.9670893464e-01	 1.1330534510e+00	-4.7164733049e+00
 1.8667830168e-01	 1.1347491855e+00	-4.7626898353e+00
 1.7666158333e-01	 1.1363516922e+00	-4.8067140162e+00
 1.6665994997e-01	 1.1378615615e+00	-4.8485073640e+00
 1.5667455469e-01	 1.1392794002e+00	-4.8880219702e+00
 1.4670653308e-01	 1.1406058321e+00	-4.9252007722e+00
 1.3675700294e-01	 1.1418414967e+00	-4.9599778625e+00
 1.2682706414e-01	 1.1429870490e+00	-4.9922788351e+00
 1.1691779834e-01	 1.1440431589e+00	-5.0220211658e+00
 1.0703026889e-01	 1.1450105109e+00	-5.0491146242e+00
 9.7165520622e-02	 1.1458898033e+00	-5.0734617150e+00
 1.9821837741e-01	 1.1417479180e+00	-4.5525155842e+00
 1.8811077456e-01	 1.1434566647e+00	-4.5947215697e+00
 1.7801719308e-01	 1.1450714682e+00	-4.6348923741e+00
 1.6793881235e-01	 1.1465929234e+00	-4.6729958011e+00
 1.5787679431e-01	 1.1480216420e+00	-4.7089892038e+00
 1.4783228325e-01	 1.1493582522e+00	-4.7428197668e+00
 1.3780640555e-01	 1.1506033987e+00	-4.7744248314e+00
 1.2780026952e-01	 1.1517577413e+00	-4.8037322590e+00
 1.1781496514e-01	 1.1528219553e+00	-4.8306608314e+00
 1.0785156390e-01	 1.1537967302e+00	-4.8551206856e+00
 9.7911118644e-02	 1.1546827698e+00	-4.8770137786e+00
 1.9972782104e-01	 1.1504423900e+00	-4.3963744865e+00
 1.8954324825e-01	 1.1521641488e+00	-4.4345696844e+00
 1.7937280360e-01	 1.1537912492e+00	-4.4708849307e+00
 1.6921767546e-01	 1.1553242903e+00	-4.5052946999e+00
 1.5907903460e-01	 1.1567638886e+00	-4.5377620411e+00
 1.4895803405e-01	 1.1581106772e+00	-4.5682388710e+00
 1.3885580876e-01	 1.1593653055e+00	-4.5966663118e+00
 1.2877347546e-01	 1.1605284386e+00	-4.6229750702e+00
 1.1871213245e-01	 1.1616007566e+00	-4.6470858559e+00
 1.0867285937e-01	 1.1625829545e+00	-4.6689098359e+00
 9.8656717088e-02	 1.1634757414e+00	-4.6883491234e+00
 2.0123726509e-01	 1.1591368644e+00	-4.2474203161e+00
 1.9097572234e-01	 1.1608716354e+00	-4.2815817778e+00
 1.8072841450e-01	 1.1625110326e+00	-4.3140191694e+00
 1.7049653892e-01	 1.1640556597e+00	-4.3447140000e+00
 1.6028127524e-01	 1.1655061378e+00	-4.3736354282e+00
 1.5008378517e-01	 1.1668631048e+00	-4.4007405643e+00
 1.3990521226e-01	 1.1681272149e+00	-4.4259748178e+00
 1.2974668168e-01	 1.1692991383e+00	-4.4492722909e+00
 1.1960930001e-01	 1.1703795604e+00	-4.4705562129e+00
 1.0949415507e-01	 1.1713691813e+00	-4.4897394130e+00
 9.9402315743e-02	 1.1722687154e+00	-4.5067248295e+00
 9.1946364036e-02	 1.0843393864e+00	-6.7335760976e+00
 8.2635597504e-02	 1.0850886720e+00	-6.7711056006e+00
 7.3348282920e-02	 1.0857560150e+00	-6.8047062972e+00
 6.4085333976e-02	 1.0863421123e+00	-6.8343510133e+00
 5.4847646941e-02	 1.0868476722e+00	-6.8600141066e+00
 4.5636100571e-02	 1.0872734138e+00	-6.8816716631e+00
 3.6451556027e-02	 1.0876200664e+00	-6.8993017002e+00
 2.7294856805e-02	 1.0878883693e+00	-6.9128843763e+00
 1.8166828684e-02	 1.0880790712e+00	-6.9224022035e+00
 9.0682796764e-03	 1.0881929296e+00	-6.9278402644e+00
 0.0000000000e+00	 1.0882307108e+00	-6.9291864282e+00
 9.2691953187e-02	 1.0931322483e+00	-6.4599638526e+00
 8.3305686045e-02	 1.0938876098e+00	-6.4952599674e+00
 7.3943061023e-02	 1.0945603642e+00	-6.5268815708e+00
 6.4604999219e-02	 1.0951512142e+00	-6.5547959681e+00
 5.5292404174e-02	 1.0956608737e+00	-6.5789714561e+00
 4.6006161766e-02	 1.0960900676e+00	-6.5993775445e+00
 3.6747140141e-02	 1.0964395312e+00	-6.6159851876e+00
 2.7516189635e-02	 1.0967100097e+00	-6.6287670203e+00
 1.8314142723e-02	 1.0969022580e+00	-6.6376976005e+00
 9.1418139695e-03	 1.0970170397e+00	-6.6427536535e+00
 0.0000000000e+00	 1.0970551273e+00	-6.6439143188e+00
 9.3437544239e-02	 1.1019251326e+00	-6.1999747875e+00
 8.3975776295e-02	 1.1026865701e+00	-6.2330373264e+00
 7.4537840642e-02	 1.1033647360e+00	-6.2626808106e+00
 6.5124665788e-02	 1.1039603386e+00	-6.2888673619e+00
 5.5737162540e-02	 1.1044740977e+00	-6.3115594995e+00
 4.6376223905e-02	 1.1049067439e+00	-6.3307203902e+00
 3.7042725009e-02	 1.1052590185e+00	-6.3463141071e+00
 2.7737523030e-02	 1.1055316727e+00	-6.3583058961e+00
 1.8461457137e-02	 1.1057254673e+00	-6.3666624466e+00
 9.2153484500e-03	 1.1058411723e+00	-6.3713521674e+00
 0.0000000000e+00	 1.1058795663e+00	-6.3723454627e+00
 9.4183136981e-02	 1.1107180368e+00	-5.9526994962e+00
 8.4645868064e-02	 1.1114855503e+00	-5.9835279391e+00
 7.5132621609e-02	 1.1121691277e+00	-6.0111935818e+00
 6.5644333534e-02	 1.1127694829e+00	-6.0356536787e+00
 5.6181921914e-02	 1.1132873416e+00	-6.0568652360e+00
 4.6746286882e-02	 1.1137234401e+00	-6.0747852898e+00
 3.7338310547e-02	 1.1140785257e+00	-6.0893711952e+00
 2.7958856926e-02	 1.1143533556e+00	-6.1005809221e+00
 1.8608771886e-02	 1.1145486967e+00	-6.1083733579e+00
 9.2888830972e-03	 1.1146653250e+00	-6.1127086142e+00
 0.0000000000e+00	 1.1147040253e+00	-6.1135483356e+00
 9.4928731201e-02	 1.1195109585e+00	-5.7172553076e+00
 8.5315961161e-02	 1.1202845479e+00	-5.7458489911e+00
 7.5727403755e-02	 1.1209735368e+00	-5.7715365935e+00
 6.6164002311e-02	 1.1215786448e+00	-5.7942707990e+00
 5.6626682171e-02	 1.1221006030e+00	-5.8140033451e+00
 4.7116350593e-02	 1.1225401539e+00	-5.8306853304e+00
 3.7633896670e-02	 1.1228980505e+00	-5.8442675341e+00
 2.8180191261e-02	 1.1231750561e+00	-5.8547007439e+00
 1.8756086927e-02	 1.1233719435e+00	-5.8619360910e+00
 9.3624178902e-03	 1.1234894951e+00	-5.8659253898e+00
 0.0000000000e+00	 1.1235285018e+00	-5.8666214798e+00
 9.5674326689e-02	 1.1283038952e+00	-5.4927852238e+00
 8.5986055398e-02	 1.1290835605e+00	-5.5191435227e+00
 7.6322186913e-02	 1.1297779609e+00	-5.5428526220e+00
 6.6683671971e-02	 1.1303878216e+00	-5.5638609138e+00
 5.7071443183e-02	 1.1309138794e+00	-5.5821150915e+00
 4.7486414933e-02	 1.1313568826e+00	-5.5975604894e+00
 3.7929483297e-02	 1.1317175903e+00	-5.6101414338e+00
 2.8401525972e-02	 1.1319967715e+00	-5.6198016040e+00
 1.8903402218e-02	 1.1321952054e+00	-5.6264844008e+00
 9.4359528082e-03	 1.1323136802e+00	-5.6301333209e+00
 0.0000000000e+00	 1.1323529932e+00	-5.6306923339e+00
 9.6419923233e-02	 1.1370968443e+00	-5.2784569071e+00
 8.6656150583e-02	 1.1378825856e+00	-5.3025794093e+00
 7.6916970913e-02	 1.1385823975e+00	-5.3243094835e+00
 6.7203342368e-02	 1.1391970108e+00	-5.3435914884e+00
 5.7516204826e-02	 1.1397271683e+00	-5.3603672793e+00
 4.7856479797e-02	 1.1401736239e+00	-5.3745765801e+00
 3.8225070342e-02	 1.1405371425e+00	-5.3861573672e+00
 2.8622860997e-02	 1.1408184994e+00	-5.3950462652e+00
 1.9050717718e-02	 1.1410184797e+00	-5.4011789509e+00
 9.5094878304e-03	 1.1411378778e+00	-5.4044905627e+00
 0.0000000000e+00	 1.1411774972e+00	-5.4049161153e+00
 9.7165520622e-02	 1.1458898033e+00	-5.0734617150e+00
 8.7326246528e-02	 1.1466816207e+00	-5.0953483892e+00
 7.7511755587e-02	 1.1473868441e+00	-5.1150990541e+00
 6.7723013353e-02	 1.1480062101e+00	-5.1326542751e+00
 5.7960966972e-02	 1.1485404671e+00	-5.1479512562e+00
 4.8226545081e-02	 1.1489903751e+00	-5.1609242453e+00
 3.8520657722e-02	 1.1493567048e+00	-5.1715049528e+00
 2.8844196273e-02	 1.1496402374e+00	-5.1796229829e+00
 1.9198033385e-02	 1.1498417640e+00	-5.1852062742e+00
 9.5830229361e-03	 1.1499620855e+00	-5.1881815471e+00
 0.0000000000e+00	 1.1500020112e+00	-5.1884747560e+00
 9.7911118644e-02	 1.1546827698e+00	-4.8770137786e+00
 8.7996343042e-02	 1.1554806632e+00	-4.8966651358e+00
 7.8106540766e-02	 1.1561912981e+00	-4.9144363350e+00
 6.8242684780e-02	 1.1568154168e+00	-4.9302643701e+00
 5.8405729497e-02	 1.1573537735e+00	-4.9440819617e+00
 4.8596610680e-02	 1.1578071338e+00	-4.9558179971e+00
 3.8816245354e-02	 1.1581762745e+00	-4.9653979850e+00
 2.9065531737e-02	 1.1584619828e+00	-4.9727445240e+00
 1.9345349177e-02	 1.1586650559e+00	-4.9777777812e+00
 9.6565581045e-03	 1.1587863006e+00	-4.9804159786e+00
 0.0000000000e+00	 1.1588265327e+00	-4.9805758852e+00
 9.8656717088e-02	 1.1634757414e+00	-4.6883491234e+00
 8.8666439936e-02	 1.1642797107e+00	-4.7057663720e+00
 7.8701326282e-02	 1.1649957572e+00	-4.7215585602e+00
 6.8762356501e-02	 1.1656246286e+00	-4.7356593137e+00
 5.8850492274e-02	 1.1661670849e+00	-4.7479970192e+00
 4.8966676488e-02	 1.1666238976e+00	-4.7584952999e+00
 3.9111833154e-02	 1.1669958493e+00	-4.7670735079e+00
 2.9286867327e-02	 1.1672837332e+00	-4.7736472315e+00
 1.9492665053e-02	 1.1674883527e+00	-4.7781288129e+00
 9.7300933146e-03	 1.1676105207e+00	-4.7804278761e+00
 0.0000000000e+00	 1.1676510592e+00	-4.7804518594e+00
 9.9402315743e-02	 1.1722687154e+00	-4.5067248295e+00
 8.9336537019e-02	 1.1730787607e+00	-4.5219100245e+00
 7.9296111967e-02	 1.1738002187e+00	-4.5357243441e+00
 6.9282028370e-02	 1.1744338428e+00	-4.5480982312e+00
 5.9295255177e-02	 1.1749803987e+00	-4.5589558692e+00
 4.9336742402e-02	 1.1754406638e+00	-4.5682156952e+00
 3.9407421038e-02	 1.1758154265e+00	-4.5757909308e+00
 2.9508202981e-02	 1.1761054862e+00	-4.5815901296e+00
 1.9639980971e-02	 1.1763116521e+00	-4.5855177366e+00
 9.8036285459e-03	 1.1764347433e+00	-4.5874746575e+00
 0.0000000000e+00	 1.1764755882e+00	-4.5873588352e+00
 1.1764755882e+00	 0.0000000000e+00	 3.0765929084e+00
 1.1764347433e+00	 9.8036285459e-03	 3.0770564650e+00
 1.1763116521e+00	 1.9639980971e-02	 3.0770202499e+00
 1.1761054862e+00	 2.9508202981e-02	 3.0765804815e+00
 1.1758154265e+00	 3.9407421038e-02	 3.0758184012e+00
 1.1754406638e+00	 4.9336742402e-02	 3.0748000667e+00
 1.1749803987e+00	 5.9295255177e-02	 3.0735761909e+00
 1.1744338428e+00	 6.9282028370e-02	 3.0721820241e+00
 1.1738002187e+00	 7.9296111967e-02	 3.0706372840e+00
 1.1730787607e+00	 8.9336537019e-02	 3.0689461297e+00
 1.1722687154e+00	 9.9402315743e-02	 3.0670971826e+00
 1.1852986176e+00	 0.0000000000e+00	 3.1436831693e+00
 1.1852574664e+00	 9.8771512812e-03	 3.1440094774e+00
 1.1851334520e+00	 1.9787271856e-02	 3.1436855719e+00
 1.1849257400e+00	 2.9729501022e-02	 3.1428006944e+00
 1.1846335050e+00	 3.9702958691e-02	 3.1414334325e+00
 1.1842559317e+00	 4.9706745429e-02	 3.1396520775e+00
 1.1837922149e+00	 5.9739942500e-02	 3.1375149877e+00
 1.1832415601e+00	 6.9801611929e-02	 3.1350709571e+00
 1.1826031841e+00	 7.9890796577e-02	 3.1323595867e+00
 1.1818763155e+00	 9.0006520230e-02	 3.1294116582e+00
 1.1810601952e+00	 1.0014778769e-01	 3.1262495087e+00
 1.1941216471e+00	 0.0000000000e+00	 3.2078621762e+00
 1.1940801895e+00	 9.9506740167e-03	 3.2080367506e+00
 1.1939552520e+00	 1.9934562741e-02	 3.2074218912e+00
 1.1937459938e+00	 2.9950799063e-02	 3.2060957779e+00
 1.1934515835e+00	 3.9998496345e-02	 3.2041261347e+00
 1.1930711997e+00	 5.0076748456e-02	 3.2015706166e+00
 1.1926040311e+00	 6.0184629823e-02	 3.1984772008e+00
 1.1920492773e+00	 7.0321195488e-02	 3.1948845835e+00
 1.1914061494e+00	 8.0485481187e-02	 3.1908225785e+00
 1.1906738703e+00	 9.0676503440e-02	 3.1863125184e+00
 1.1898516750e+00	 1.0089325965e-01	 3.1813676544e+00
 1.2029446765e+00	 0.0000000000e+00	 3.2688857726e+00
 1.2029029126e+00	 1.0024196752e-02	 3.2689020764e+00
 1.2027770520e+00	 2.0081853626e-02	 3.2680025947e+00
 1.2025662476e+00	 3.0172097105e-02	 3.2662555772e+00
 1.2022696620e+00	 4.0294033999e-02	 3.2637190351e+00
 1.2018864676e+00	 5.0446751484e-02	 3.2604411554e+00
 1.2014158472e+00	 6.0629317146e-02	 3.2564607198e+00
 1.2008569946e+00	 7.0840779046e-02	 3.2518075277e+00
 1.2002091148e+00	 8.1080165797e-02	 3.2465028218e+00
 1.1994714250e+00	 9.1346486650e-02	 3.2405597140e+00
 1.1986431547e+00	 1.0163873160e-01	 3.2339836111e+00
 1.2117677059e+00	 0.0000000000e+00	 3.3265159360e+00
 1.2117256357e+00	 1.0097719488e-02	 3.3263749660e+00
 1.2115988519e+00	 2.0229144511e-02	 3.3252041091e+00
 1.2113865014e+00	 3.0393395146e-02	 3.3230627830e+00
 1.2110877405e+00	 4.0589571654e-02	 3.3200004037e+00
 1.2107017356e+00	 5.0816754512e-02	 3.3160568258e+00
 1.2102276634e+00	 6.1074004469e-02	 3.3112627882e+00
 1.2096647118e+00	 7.1360362605e-02	 3.3056403625e+00
 1.2090120802e+00	 8.1674850407e-02	 3.2992034036e+00
 1.2082689798e+00	 9.2016469860e-02	 3.2919580002e+00
 1.2074346345e+00	 1.0238420355e-01	 3.2839029240e+00
 1.2205907353e+00	 0.0000000000e+00	 3.3805206142e+00
 1.2205483588e+00	 1.0171242224e-02	 3.3802307984e+00
 1.2204206519e+00	 2.0376435397e-02	 3.3788086330e+00
 1.2202067552e+00	 3.0614693188e-02	 3.3763057699e+00
 1.2199058190e+00	 4.0885109308e-02	 3.3727641151e+00
 1.2195170035e+00	 5.1186757540e-02	 3.3682162947e+00
 1.2190394796e+00	 6.1518691792e-02	 3.3626861259e+00
 1.2184724291e+00	 7.1879946164e-02	 3.3561890899e+00
 1.2178150455e+00	 8.2269535017e-02	 3.3487328065e+00
 1.2170665345e+00	 9.2686453070e-02	 3.3403175075e+00
 1.2162261143e+00	 1.0312967550e-01	 3.3309365084e+00
 1.2294137647e+00	 0.0000000000e+00	 3.4306735109e+00
 1.2293710819e+00	 1.0244764960e-02	 3.4302506084e+00
 1.2292424519e+00	 2.0523726282e-02	 3.4286039272e+00
 1.2290270091e+00	 3.0835991230e-02	 3.4257783882e+00
 1.2287238975e+00	 4.1180646962e-02	 3.4218094417e+00
 1.2283322715e+00	 5.1556760567e-02	 3.4167235583e+00
 1.2278512958e+00	 6.1963379116e-02	 3.4105387238e+00
 1.2272801463e+00	 7.2399529723e-02	 3.4032649363e+00
 1.2266180109e+00	 8.2864219627e-02	 3.3949047026e+00
 1.2258640893e+00	 9.3356436280e-02	 3.3854535347e+00
 1.2250175941e+00	 1.0387514745e-01	 3.3749004416e+00
 1.2382367941e+00	 0.0000000000e+00	 3.4767538809e+00
 1.2381938050e+00	 1.0318287695e-02	 3.4762208835e+00
 1.2380642518e+00	 2.0671017167e-02	 3.4743831132e+00
 1.2378472629e+00	 3.1057289272e-02	 3.4712797643e+00
 1.2375419760e+00	 4.1476184617e-02	 3.4669408552e+00
 1.2371475394e+00	 5.1926763595e-02	 3.4613877441e+00
 1.2366631119e+00	 6.2408066439e-02	 3.4546336465e+00
 1.2360878636e+00	 7.2919113282e-02	 3.4466841546e+00
 1.2354209763e+00	 8.3458904237e-02	 3.4375377564e+00
 1.2346616440e+00	 9.4026419490e-02	 3.4271863513e+00
 1.2338090739e+00	 1.0462061940e-01	 3.4156157630e+00
 1.2470598236e+00	 0.0000000000e+00	 3.5185463336e+00
 1.2470165281e+00	 1.0391810431e-02	 3.5179333699e+00
 1.2468860518e+00	 2.0818308052e-02	 3.5159444810e+00
 1.2466675167e+00	 3.1278587314e-02	 3.5126141093e+00
 1.2463600545e+00	 4.1771722271e-02	 3.5079678365e+00
 1.2459628074e+00	 5.2296766623e-02	 3.5020229222e+00
 1.2454749281e+00	 6.2852753762e-02	 3.4947888436e+00
 1.2448955809e+00	 7.3438696840e-02	 3.4862678368e+00
 1.2442239416e+00	 8.4053588847e-02	 3.4764554354e+00
 1.2434591988e+00	 9.4696402700e-02	 3.4653410071e+00
 1.2426005537e+00	 1.0536609135e-01	 3.4529082836e+00
 1.2558828530e+00	 0.0000000000e+00	 3.5558406448e+00
 1.2558392512e+00	 1.0465333166e-02	 3.5551848859e+00
 1.2557078518e+00	 2.0965598937e-02	 3.5530913043e+00
 1.2554877705e+00	 3.1499885355e-02	 3.5495905365e+00
 1.2551781330e+00	 4.2067259925e-02	 3.5447046941e+00
 1.2547780753e+00	 5.2666769650e-02	 3.5384479239e+00
 1.2542867443e+00	 6.3297441085e-02	 3.5308269696e+00
 1.2537032981e+00	 7.3958280399e-02	 3.5218417324e+00
 1.2530269070e+00	 8.4648273457e-02	 3.5114858303e+00
 1.2522567536e+00	 9.5366385910e-02	 3.4997471516e+00
 1.2513920335e+00	 1.0611156330e-01	 3.4866084034e+00
 1.2647058824e+00	 0.0000000000e+00	 3.5884315765e+00
 1.2646619743e+00	 1.0538855902e-02	 3.5877771440e+00
 1.2645296518e+00	 2.1112889822e-02	 3.5856316638e+00
 1.2643080243e+00	 3.1721183396e-02	 3.5820228855e+00
 1.2639962115e+00	 4.2362797579e-02	 3.5769703894e+00
 1.2635933433e+00	 5.3036772677e-02	 3.5704861687e+00
 1.2630985605e+00	 6.3742128408e-02	 3.5625752105e+00
 1.2625110154e+00	 7.4477863958e-02	 3.5532360767e+00
 1.2618298723e+00	 8.5242958067e-02	 3.5424614809e+00
 1.2610543083e+00	 9.6036369121e-02	 3.5302388598e+00
 1.2601835133e+00	 1.0685703526e-01	 3.5165509369e+00
 1.1722687154e+00	 9.9402315743e-02	 3.0670971826e+00
 1.1713691813e+00	 1.0949415507e-01	 3.0648543771e+00
 1.1703795604e+00	 1.1960930001e-01	 3.0620412852e+00
 1.1692991383e+00	 1.2974668168e-01	 3.0587127801e+00
 1.1681272149e+00	 1.3990521226e-01	 3.0549096661e+00
 1.1668631048e+00	 1.5008378517e-01	 3.0506587907e+00
 1.1655061378e+00	 1.6028127524e-01	 3.0459731938e+00
 1.1640556597e+00	 1.7049653892e-01	 3.0408522934e+00
 1.1625110326e+00	 1.8072841450e-01	 3.0352821065e+00
 1.1608716354e+00	 1.9097572234e-01	 3.0292355023e+00
 1.1591368644e+00	 2.0123726509e-01	 3.0226724885e+00
 1.1810601952e+00	 1.0014778769e-01	 3.1262495087e+00
 1.1801539149e+00	 1.1031531121e-01	 3.1226756464e+00
 1.1791568724e+00	 1.2050631511e-01	 3.1185603801e+00
 1.1780683476e+00	 1.3071972251e-01	 3.1140153794e+00
 1.1768876353e+00	 1.4095443743e-01	 3.1091463773e+00
 1.1756140449e+00	 1.5120934499e-01	 3.1039708207e+00
 1.1742469013e+00	 1.6148331157e-01	 3.0982931168e+00
 1.1727855453e+00	 1.7177518507e-01	 3.0920915651e+00
 1.1712293342e+00	 1.8208379504e-01	 3.0853461182e+00
 1.1695776423e+00	 1.9240795300e-01	 3.0780235210e+00
 1.1678298613e+00	 2.0274645264e-01	 3.0700776332e+00
 1.1898516750e+00	 1.0089325965e-01	 3.1813676544e+00
 1.1889386486e+00	 1.1113646734e-01	 3.1757801750e+00
 1.1879341844e+00	 1.2140333021e-01	 3.1694111946e+00
 1.1868375570e+00	 1.3169276334e-01	 3.1623647010e+00
 1.1856480558e+00	 1.4200366260e-01	 3.1547392894e+00
 1.1843649851e+00	 1.5233490480e-01	 3.1466284110e+00
 1.1829876649e+00	 1.6268534791e-01	 3.1381206070e+00
 1.1815154309e+00	 1.7305383121e-01	 3.1292997288e+00
 1.1799476358e+00	 1.8343917558e-01	 3.1202451414e+00
 1.1782836492e+00	 1.9384018366e-01	 3.1110319098e+00
 1.1765228582e+00	 2.0425564018e-01	 3.1017309666e+00
 1.1986431547e+00	 1.0163873160e-01	 3.2339836111e+00
 1.1977233823e+00	 1.1195762348e-01	 3.2265585827e+00
 1.1967114963e+00	 1.2230034531e-01	 3.2181387389e+00
 1.1956067663e+00	 1.3266580417e-01	 3.2088216993e+00
 1.1944084762e+00	 1.4305288777e-01	 3.1987002310e+00
 1.1931159253e+00	 1.5346046462e-01	 3.1878625179e+00
 1.1917284284e+00	 1.6388738424e-01	 3.1763924140e+00
 1.1902453166e+00	 1.7433247735e-01	 3.1643696821e+00
 1.1886659375e+00	 1.8479455611e-01	 3.1518702142e+00
 1.1869896561e+00	 1.9527241433e-01	 3.1389662334e+00
 1.1852158551e+00	 2.0576482773e-01	 3.1257264752e+00
 1.2074346345e+00	 1.0238420355e-01	 3.2839029240e+00
 1.2065081160e+00	 1.1277877961e-01	 3.2748161617e+00
 1.2054888083e+00	 1.2319736041e-01	 3.2645468425e+00
 1.2043759756e+00	 1.3363884500e-01	 3.2531874995e+00
 1.2031688966e+00	 1.4410211294e-01	 3.2408263495e+00
 1.2018668655e+00	 1.5458602443e-01	 3.2275475810e+00
 1.2004691920e+00	 1.6508942057e-01	 3.2134316256e+00
 1.1989752022e+00	 1.7561112350e-01	 3.1985554123e+00
 1.1973842391e+00	 1.8614993665e-01	 3.1829926028e+00
 1.1956956630e+00	 1.9670464499e-01	 3.1668138069e+00
 1.1939088520e+00	 2.0727401527e-01	 3.1500867762e+00
 1.2162261143e+00	 1.0312967550e-01	 3.3309365084e+00
 1.2152928497e+00	 1.1359993575e-01	 3.3203635887e+00
 1.2142661203e+00	 1.2409437551e-01	 3.3084447592e+00
 1.2131451849e+00	 1.3461188583e-01	 3.2952687164e+00
 1.2119293170e+00	 1.4515133811e-01	 3.2809203739e+00
 1.2106178056e+00	 1.5571158425e-01	 3.2654811672e+00
 1.2092099555e+00	 1.6629145690e-01	 3.2490293401e+00
 1.2077050878e+00	 1.7688976964e-01	 3.2316402135e+00
 1.2061025407e+00	 1.8750531718e-01	 3.2133864334e+00
 1.2044016699e+00	 1.9813687565e-01	 3.1943381975e+00
 1.2026018489e+00	 2.0878320282e-01	 3.1745634585e+00
 1.2250175941e+00	 1.0387514745e-01	 3.3749004416e+00
 1.2240775834e+00	 1.1442109188e-01	 3.3630167150e+00
 1.2230434323e+00	 1.2499139061e-01	 3.3496469535e+00
 1.2219143942e+00	 1.3558492667e-01	 3.3348772369e+00
 1.2206897375e+00	 1.4620056328e-01	 3.3187903932e+00
 1.2193687458e+00	 1.5683714407e-01	 3.3014663175e+00
 1.2179507190e+00	 1.6749349324e-01	 3.2829822724e+00
 1.2164349734e+00	 1.7816841578e-01	 3.2634131684e+00
 1.2148208423e+00	 1.8886069772e-01	 3.2428318230e+00
 1.2131076767e+00	 1.9956910631e-01	 3.2213091957e+00
 1.2112948458e+00	 2.1029239036e-01	 3.1989145996e+00
 1.2338090739e+00	 1.0462061940e-01	 3.4156157630e+00
 1.2328623171e+00	 1.1524224802e-01	 3.4025963647e+00
 1.2318207443e+00	 1.2588840571e-01	 3.3879728963e+00
 1.2306836035e+00	 1.3655796750e-01	 3.3718300121e+00
 1.2294501579e+00	 1.4724978844e-01	 3.3542496432e+00
 1.2281196860e+00	 1.5796270388e-01	 3.3353113291e+00
 1.2266914826e+00	 1.6869552957e-01	 3.3150925300e+00
 1.2251648591e+00	 1.7944706192e-01	 3.2936689168e+00
 1.2235391440e+00	 1.9021607825e-01	 3.2711146387e+00
 1.2218136836e+00	 2.0100133697e-01	 3.2475025659e+00
 1.2199878427e+00	 2.1180157791e-01	 3.2229045055e+00
 1.2426005537e+00	 1.0536609135e-01	 3.4529082836e+00
 1.2416470508e+00	 1.1606340415e-01	 3.4389281419e+00
 1.2405980563e+00	 1.2678542081e-01	 3.4232468697e+00
 1.2394528128e+00	 1.3753100833e-01	 3.4059488586e+00
 1.2382105783e+00	 1.4829901361e-01	 3.3871163039e+00
 1.2368706262e+00	 1.5908826370e-01	 3.3668295472e+00
 1.2354322461e+00	 1.6989756590e-01	 3.3451673984e+00
 1.2338947447e+00	 1.8072570807e-01	 3.3222074334e+00
 1.2322574456e+00	 1.9157145879e-01	 3.2980262686e+00
 1.2305196905e+00	 2.0243356764e-01	 3.2726998079e+00
 1.2286808396e+00	 2.1331076545e-01	 3.2463034621e+00
 1.2513920335e+00	 1.0611156330e-01	 3.4866084034e+00
 1.2504317845e+00	 1.1688456029e-01	 3.4718422469e+00
 1.2493753683e+00	 1.2768243591e-01	 3.4552977804e+00
 1.2482220222e+00	 1.3850404916e-01	 3.4370602685e+00
 1.2469709987e+00	 1.4934823878e-01	 3.4172133052e+00
 1.2456215664e+00	 1.6021382351e-01	 3.3958391659e+00
 1.2441730097e+00	 1.7109960223e-01	 3.3730191363e+00
 1.2426246303e+00	 1.8200435421e-01	 3.3488338173e+00
 1.2409757472e+00	 1.9292683932e-01	 3.3233634026e+00
 1.2392256974e+00	 2.0386579830e-01	 3.2966879294e+00
 1.2373738365e+00	 2.1481995300e-01	 3.2688874984e+00
 1.2601835133e+00	 1.0685703526e-01	 3.5165509369e+00
 1.2592165182e+00	 1.1770571642e-01	 3.5011732994e+00
 1.2581526803e+00	 1.2857945101e-01	 3.4839589806e+00
 1.2569912315e+00	 1.3947708999e-01	 3.4649952275e+00
 1.2557314192e+00	 1.5039746395e-01	 3.4443681415e+00
 1.2543725065e+00	 1.6133938333e-01	 3.4221630378e+00
 1.2529137732e+00	 1.7230163857e-01	 3.3984647800e+00
 1.2513545159e+00	 1.8328300036e-01	 3.3733580890e+00
 1.2496940488e+00	 1.9428221986e-01	 3.3469278230e+00
 1.2479317043e+00	 2.0529802896e-01	 3.3192592284e+00
 1.2460668334e+00	 2.1632914054e-01	 3.2904381594e+00
 1.1591368644e+00	 2.0123726509e-01	 3.0226724885e+00
 1.1573064529e+00	 2.1151008095e-01	 3.0153379818e+00
 1.1553795464e+00	 2.2179468403e-01	 3.0070212529e+00
 1.1533555958e+00	 2.3208982905e-01	 2.9977336593e+00
 1.1512340711e+00	 2.4239425423e-01	 2.9874744825e+00
 1.1490144625e+00	 2.5270668167e-01	 2.9762311908e+00
 1.1466962804e+00	 2.6302581766e-01	 2.9639797192e+00
 1.1442790561e+00	 2.7335035306e-01	 2.9506847621e+00
 1.1417623423e+00	 2.8367896364e-01	 2.9363000783e+00
 1.1391457133e+00	 2.9401031052e-01	 2.9207688042e+00
 1.1364287657e+00	 3.0434304055e-01	 2.9040237736e+00
 1.1678298613e+00	 2.0274645264e-01	 3.0700776332e+00
 1.1659857226e+00	 2.1309630992e-01	 3.0612274594e+00
 1.1640443652e+00	 2.2345804283e-01	 3.0512314185e+00
 1.1620052358e+00	 2.3383039673e-01	 3.0400880485e+00
 1.1598678006e+00	 2.4421210040e-01	 3.0277838441e+00
 1.1576315460e+00	 2.5460186633e-01	 3.0142935622e+00
 1.1552959786e+00	 2.6499839113e-01	 2.9995805441e+00
 1.1528606263e+00	 2.7540035582e-01	 2.9835970500e+00
 1.1503250382e+00	 2.8580642626e-01	 2.9662846053e+00
 1.1476887857e+00	 2.9621525352e-01	 2.9475743542e+00
 1.1449514623e+00	 3.0662547430e-01	 2.9273874197e+00
 1.1765228582e+00	 2.0425564018e-01	 3.1017309666e+00
 1.1746649922e+00	 2.1468253889e-01	 3.0917914687e+00
 1.1727091839e+00	 2.2512140163e-01	 3.0805959726e+00
 1.1706548758e+00	 2.3557096441e-01	 3.0681304129e+00
 1.1685015302e+00	 2.4602994656e-01	 3.0543687204e+00
 1.1662486295e+00	 2.5649705099e-01	 3.0392731304e+00
 1.1638956768e+00	 2.6697096459e-01	 3.0227945468e+00
 1.1614421964e+00	 2.7745035858e-01	 3.0048729190e+00
 1.1588877341e+00	 2.8793388888e-01	 2.9854376288e+00
 1.1562318581e+00	 2.9842019653e-01	 2.9644078849e+00
 1.1534741588e+00	 3.0890790806e-01	 2.9416931220e+00
 1.1852158551e+00	 2.0576482773e-01	 3.1257264752e+00
 1.1833442619e+00	 2.1626876786e-01	 3.1119536760e+00
 1.1813740027e+00	 2.2678476042e-01	 3.0974869983e+00
 1.1793045158e+00	 2.3731153209e-01	 3.0824512474e+00
 1.1771352598e+00	 2.4784779272e-01	 3.0669673572e+00
 1.1748657130e+00	 2.5839223564e-01	 3.0508468985e+00
 1.1724953750e+00	 2.6894353805e-01	 3.0332815148e+00
 1.1700237665e+00	 2.7950036134e-01	 3.0141538298e+00
 1.1674504301e+00	 2.9006135150e-01	 2.9933811485e+00
 1.1647749305e+00	 3.0062513953e-01	 2.9708707786e+00
 1.1619968554e+00	 3.1119034182e-01	 2.9465204683e+00
 1.1939088520e+00	 2.0727401527e-01	 3.1500867762e+00
 1.1920235315e+00	 2.1785499683e-01	 3.1325937752e+00
 1.1900388214e+00	 2.2844811922e-01	 3.1141472727e+00
 1.1879541559e+00	 2.3905209977e-01	 3.0948645057e+00
 1.1857689893e+00	 2.4966563888e-01	 3.0748594349e+00
 1.1834827965e+00	 2.6028742030e-01	 3.0542426915e+00
 1.1810950732e+00	 2.7091611151e-01	 3.0331214949e+00
 1.1786053367e+00	 2.8155036410e-01	 3.0115995390e+00
 1.1760131260e+00	 2.9218881412e-01	 2.9897491011e+00
 1.1733180029e+00	 3.0283008253e-01	 2.9665768775e+00
 1.1705195519e+00	 3.1347277557e-01	 2.9414620528e+00
 1.2026018489e+00	 2.0878320282e-01	 3.1745634585e+00
 1.2007028012e+00	 2.1944122580e-01	 3.1538251636e+00
 1.1987036401e+00	 2.3011147801e-01	 3.1319100131e+00
 1.1966037959e+00	 2.4079266745e-01	 3.1089282597e+00
 1.1944027189e+00	 2.5148348504e-01	 3.0849874580e+00
 1.1920998801e+00	 2.6218260495e-01	 3.0601924228e+00
 1.1896947714e+00	 2.7288868497e-01	 3.0346451564e+00
 1.1871869068e+00	 2.8360036685e-01	 3.0084447432e+00
 1.1845758219e+00	 2.9431627674e-01	 2.9816872124e+00
 1.1818610753e+00	 3.0503502553e-01	 2.9544653662e+00
 1.1790422484e+00	 3.1575520933e-01	 2.9268685754e+00
 1.2112948458e+00	 2.1029239036e-01	 3.1989145996e+00
 1.2093820709e+00	 2.2102745477e-01	 3.1753929456e+00
 1.2073684589e+00	 2.3177483681e-01	 3.1505062225e+00
 1.2052534359e+00	 2.4253323513e-01	 3.1243582708e+00
 1.2030364485e+00	 2.5330133120e-01	 3.0970507951e+00
 1.2007169636e+00	 2.6407778961e-01	 3.0686833328e+00
 1.1982944697e+00	 2.7486125843e-01	 3.0393531887e+00
 1.1957684769e+00	 2.8565036961e-01	 3.0091553371e+00
 1.1931385178e+00	 2.9644373936e-01	 2.9781822889e+00
 1.1904041477e+00	 3.0723996853e-01	 2.9465239243e+00
 1.1875649450e+00	 3.1803764309e-01	 2.9142672894e+00
 1.2199878427e+00	 2.1180157791e-01	 3.2229045055e+00
 1.2180613405e+00	 2.2261368374e-01	 3.1970487365e+00
 1.2160332776e+00	 2.3343819560e-01	 3.1696737210e+00
 1.2139030760e+00	 2.4427380281e-01	 3.1408774483e+00
 1.2116701780e+00	 2.5511917736e-01	 3.1107563192e+00
 1.2093340471e+00	 2.6597297426e-01	 3.0794051219e+00
 1.2068941679e+00	 2.7683383189e-01	 3.0469169747e+00
 1.2043500471e+00	 2.8770037237e-01	 3.0133832320e+00
 1.2017012138e+00	 2.9857120198e-01	 2.9788933561e+00
 1.1989472201e+00	 3.0944491153e-01	 2.9435347511e+00
 1.1960876415e+00	 3.2032007684e-01	 2.9073925608e+00
 1.2286808396e+00	 2.1331076545e-01	 3.2463034621e+00
 1.2267406102e+00	 2.2419991271e-01	 3.2185504027e+00
 1.2246980963e+00	 2.3510155439e-01	 3.1891568744e+00
 1.2225527160e+00	 2.4601437049e-01	 3.1582155662e+00
 1.2203039076e+00	 2.5693702352e-01	 3.1258181103e+00
 1.2179511306e+00	 2.6786815891e-01	 3.0920550657e+00
 1.2154938661e+00	 2.7880640535e-01	 3.0570158652e+00
 1.2129316172e+00	 2.8975037513e-01	 3.0207887261e+00
 1.2102639097e+00	 3.0069866460e-01	 2.9834605234e+00
 1.2074902925e+00	 3.1164985453e-01	 2.9451166248e+00
 1.2046103380e+00	 3.2260251060e-01	 2.9058406873e+00
 1.2373738365e+00	 2.1481995300e-01	 3.2688874984e+00
 1.2354198798e+00	 2.2578614168e-01	 3.2396618146e+00
 1.2333629151e+00	 2.3676491319e-01	 3.2087063362e+00
 1.2312023560e+00	 2.4775493816e-01	 3.1761089922e+00
 1.2289376372e+00	 2.5875486968e-01	 3.1419571727e+00
 1.2265682141e+00	 2.6976334357e-01	 3.1063377175e+00
 1.2240935643e+00	 2.8077897881e-01	 3.0693368677e+00
 1.2215131873e+00	 2.9180037789e-01	 3.0310401777e+00
 1.2188266056e+00	 3.0282612722e-01	 2.9915323899e+00
 1.2160333649e+00	 3.1385479753e-01	 2.9508972681e+00
 1.2131330346e+00	 3.2488494435e-01	 2.9092173918e+00
 1.2460668334e+00	 2.1632914054e-01	 3.2904381594e+00
 1.2440991495e+00	 2.2737237065e-01	 3.2601526098e+00
 1.2420277338e+00	 2.3842827199e-01	 3.2280787998e+00
 1.2398519961e+00	 2.4949550584e-01	 3.1943004294e+00
 1.2375713667e+00	 2.6057271584e-01	 3.1589011639e+00
 1.2351852976e+00	 2.7165852822e-01	 3.1219646259e+00
 1.2326932625e+00	 2.8275155227e-01	 3.0835743499e+00
 1.2300947574e+00	 2.9385038065e-01	 3.0438136948e+00
 1.2273893016e+00	 3.0495358983e-01	 3.0027657178e+00
 1.2245764373e+00	 3.1605974053e-01	 2.9605130053e+00
 1.2216557311e+00	 3.2716737810e-01	 2.9171374634e+00
 1.1364287657e+00	 3.0434304055e-01	 2.9040237736e+00
 1.1336111194e+00	 3.1467578686e-01	 2.8862125587e+00
 1.1306924180e+00	 3.2500716977e-01	 2.8675525778e+00
 1.1276723292e+00	 3.3533579683e-01	 2.8480652601e+00
 1.1245505449e+00	 3.4566026314e-01	 2.8277606076e+00
 1.1213267811e+00	 3.5597915182e-01	 2.8066373074e+00
 1.1180007791e+00	 3.6629103455e-01	 2.7846828367e+00
 1.1145723051e+00	 3.7659447202e-01	 2.7618735594e+00
 1.1110411513e+00	 3.8688801453e-01	 2.7381748113e+00
 1.1074071358e+00	 3.9717020246e-01	 2.7135409743e+00
 1.1036701029e+00	 4.0743956688e-01	 2.6879155377e+00
 1.1449514623e+00	 3.0662547430e-01	 2.9273874197e+00
 1.1421126848e+00	 3.1703571149e-01	 2.9058289248e+00
 1.1391720945e+00	 3.2744457506e-01	 2.8831114709e+00
 1.1361293565e+00	 3.3785066210e-01	 2.8593013910e+00
 1.1329841602e+00	 3.4825255719e-01	 2.8344534587e+00
 1.1297362197e+00	 3.5864883283e-01	 2.8086109467e+00
 1.1263852741e+00	 3.6903804996e-01	 2.7818056744e+00
 1.1229310882e+00	 3.7941875851e-01	 2.7540580451e+00
 1.1193734524e+00	 3.8978949788e-01	 2.7253770683e+00
 1.1157121833e+00	 4.0014879752e-01	 2.6957603693e+00
 1.1119471245e+00	 4.1049517748e-01	 2.6651941817e+00
 1.1534741588e+00	 3.0890790806e-01	 2.9416931220e+00
 1.1506142503e+00	 3.1939563612e-01	 2.9173445656e+00
 1.1476517711e+00	 3.2988198034e-01	 2.8915503523e+00
 1.1445863837e+00	 3.4036552737e-01	 2.8644094809e+00
 1.1414177755e+00	 3.5084485124e-01	 2.8360093583e+00
 1.1381456582e+00	 3.6131851383e-01	 2.8064258214e+00
 1.1347697692e+00	 3.7178506537e-01	 2.7757231448e+00
 1.1312898713e+00	 3.8224304499e-01	 2.7439540359e+00
 1.1277057534e+00	 3.9269098123e-01	 2.7111596126e+00
 1.1240172309e+00	 4.0312739258e-01	 2.6773693642e+00
 1.1202241460e+00	 4.1355078809e-01	 2.6426010944e+00
 1.1619968554e+00	 3.1119034182e-01	 2.9465204683e+00
 1.1591158158e+00	 3.2175556076e-01	 2.9203186050e+00
 1.1561314476e+00	 3.3231938563e-01	 2.8924119093e+00
 1.1530434110e+00	 3.4288039264e-01	 2.8629200721e+00
 1.1498513908e+00	 3.5343714529e-01	 2.8319512600e+00
 1.1465550968e+00	 3.6398819483e-01	 2.7996021164e+00
 1.1431542643e+00	 3.7453208078e-01	 2.7659577486e+00
 1.1396486543e+00	 3.8506733148e-01	 2.7310916962e+00
 1.1360380544e+00	 3.9559246458e-01	 2.6950658821e+00
 1.1323222785e+00	 4.0610598765e-01	 2.6579305431e+00
 1.1285011675e+00	 4.1660639869e-01	 2.6197241385e+00
 1.1705195519e+00	 3.1347277557e-01	 2.9414620528e+00
 1.1676173813e+00	 3.2411548539e-01	 2.9143236698e+00
 1.1646111242e+00	 3.3475679091e-01	 2.8852526999e+00
 1.1615004383e+00	 3.4539525791e-01	 2.8543778094e+00
 1.1582850061e+00	 3.5602943934e-01	 2.8218163070e+00
 1.1549645353e+00	 3.6665787583e-01	 2.7876741430e+00
 1.1515387593e+00	 3.7727909619e-01	 2.7520458900e+00
 1.1480074374e+00	 3.8789161796e-01	 2.7150147046e+00
 1.1443703554e+00	 3.9849394793e-01	 2.6766522671e+00
 1.1406273260e+00	 4.0908458271e-01	 2.6370186987e+00
 1.1367781891e+00	 4.1966200929e-01	 2.5961624542e+00
 1.1790422484e+00	 3.1575520933e-01	 2.9268685754e+00
 1.1761189468e+00	 3.2647541002e-01	 2.8989453177e+00
 1.1730908007e+00	 3.3719419620e-01	 2.8696425588e+00
 1.1699574655e+00	 3.4791012318e-01	 2.8383408280e+00
 1.1667186214e+00	 3.5862173339e-01	 2.8051552086e+00
 1.1633739739e+00	 3.6932755683e-01	 2.7701897064e+00
 1.1599232544e+00	 3.8002611160e-01	 2.7335372425e+00
 1.1563662205e+00	 3.9071590445e-01	 2.6952796235e+00
 1.1527026565e+00	 4.0139543128e-01	 2.6554874878e+00
 1.1489323736e+00	 4.1206317777e-01	 2.6142202258e+00
 1.1450552106e+00	 4.2271761990e-01	 2.5715258735e+00
 1.1875649450e+00	 3.1803764309e-01	 2.9142672894e+00
 1.1846205122e+00	 3.2883533466e-01	 2.8814126208e+00
 1.1815704773e+00	 3.3963160148e-01	 2.8481411542e+00
 1.1784144928e+00	 3.5042498845e-01	 2.8148038121e+00
 1.1751522367e+00	 3.6121402744e-01	 2.7815316393e+00
 1.1717834124e+00	 3.7199723783e-01	 2.7467094985e+00
 1.1683077494e+00	 3.8277312701e-01	 2.7099941385e+00
 1.1647250035e+00	 3.9354019093e-01	 2.6714552912e+00
 1.1610349575e+00	 4.0429691463e-01	 2.6311519950e+00
 1.1572374212e+00	 4.1504177283e-01	 2.5891325356e+00
 1.1533322321e+00	 4.2577323050e-01	 2.5454343560e+00
 1.1960876415e+00	 3.2032007684e-01	 2.9073925608e+00
 1.1931220777e+00	 3.3119525929e-01	 2.8704024806e+00
 1.1900501538e+00	 3.4206900677e-01	 2.8326727693e+00
 1.1868715201e+00	 3.5293985372e-01	 2.7945408062e+00
 1.1835858520e+00	 3.6380632149e-01	 2.7563369660e+00
 1.1801928510e+00	 3.7466691883e-01	 2.7183837854e+00
 1.1766922445e+00	 3.8552014242e-01	 2.6809950883e+00
 1.1730837866e+00	 3.9636447741e-01	 2.6431222363e+00
 1.1693672585e+00	 4.0719839798e-01	 2.6032373934e+00
 1.1655424687e+00	 4.1802036789e-01	 2.5613634931e+00
 1.1616092537e+00	 4.2882884110e-01	 2.5175174447e+00
 1.2046103380e+00	 3.2260251060e-01	 2.9058406873e+00
 1.2016236432e+00	 3.3355518392e-01	 2.8655069264e+00
 1.1985298304e+00	 3.4450641205e-01	 2.8241465412e+00
 1.1953285473e+00	 3.5545471899e-01	 2.7820731117e+00
 1.1920194673e+00	 3.6639861554e-01	 2.7395940973e+00
 1.1886022895e+00	 3.7733659983e-01	 2.6970100275e+00
 1.1850767395e+00	 3.8826715783e-01	 2.6546136514e+00
 1.1814425697e+00	 3.9918876390e-01	 2.6126890453e+00
 1.1776995595e+00	 4.1009988133e-01	 2.5715106817e+00
 1.1738475163e+00	 4.2099896296e-01	 2.5305308726e+00
 1.1698862752e+00	 4.3188445171e-01	 2.4874137411e+00
 1.2131330346e+00	 3.2488494435e-01	 2.9092173918e+00
 1.2101252087e+00	 3.3591510855e-01	 2.8663106759e+00
 1.2070095069e+00	 3.4694381733e-01	 2.8221294522e+00
 1.2037855746e+00	 3.5796958425e-01	 2.7769534773e+00
 1.2004530826e+00	 3.6899090959e-01	 2.7310573665e+00
 1.1970117281e+00	 3.8000628083e-01	 2.6847098249e+00
 1.1934612346e+00	 3.9101417324e-01	 2.6381728345e+00
 1.1898013527e+00	 4.0201305038e-01	 2.5917007997e+00
 1.1860318606e+00	 4.1300136468e-01	 2.5455396509e+00
 1.1821525639e+00	 4.2397755802e-01	 2.4999259082e+00
 1.1781632967e+00	 4.3494006231e-01	 2.4550857068e+00
 1.2216557311e+00	 3.2716737810e-01	 2.9171374634e+00
 1.2186267741e+00	 3.3827503318e-01	 2.8724079432e+00
 1.2154891835e+00	 3.4938122261e-01	 2.8261983151e+00
 1.2122426019e+00	 3.6048444952e-01	 2.7787447125e+00
 1.2088866979e+00	 3.7158320363e-01	 2.7302792030e+00
 1.2054211666e+00	 3.8267596183e-01	 2.6810290730e+00
 1.2018457296e+00	 3.9376118865e-01	 2.6312160693e+00
 1.1981601358e+00	 4.0483733686e-01	 2.5810555953e+00
 1.1943641616e+00	 4.1590284802e-01	 2.5307558655e+00
 1.1904576115e+00	 4.2695615308e-01	 2.4805170180e+00
 1.1864403182e+00	 4.3799567291e-01	 2.4305301872e+00
 1.1036701029e+00	 4.0743956688e-01	 2.6879155377e+00
 1.0998292624e+00	 4.1769637217e-01	 2.6616683723e+00
 1.0958851383e+00	 4.2793738427e-01	 2.6351273989e+00
 1.0918376557e+00	 4.3816110842e-01	 2.6081427583e+00
 1.0876867674e+00	 4.4836604289e-01	 2.5805526925e+00
 1.0834324540e+00	 4.5855067955e-01	 2.5521835761e+00
 1.0790747247e+00	 4.6871350451e-01	 2.5228499339e+00
 1.0746136171e+00	 4.7885299878e-01	 2.4923544470e+00
 1.0700491977e+00	 4.8896763889e-01	 2.4604879460e+00
 1.0653815619e+00	 4.9905589759e-01	 2.4270293944e+00
 1.0606108344e+00	 5.0911624449e-01	 2.3917458610e+00
 1.1119471245e+00	 4.1049517748e-01	 2.6651941817e+00
 1.1080774793e+00	 4.2082890413e-01	 2.6340811062e+00
 1.1041037761e+00	 4.3114671914e-01	 2.6027564333e+00
 1.1000259393e+00	 4.4144711655e-01	 2.5710716984e+00
 1.0958439212e+00	 4.5172858337e-01	 2.5388659989e+00
 1.0915577024e+00	 4.6198960015e-01	 2.5059660031e+00
 1.0871672922e+00	 4.7222864165e-01	 2.4721859448e+00
 1.0826727283e+00	 4.8244417749e-01	 2.4373276027e+00
 1.0780740778e+00	 4.9263467278e-01	 2.4011802674e+00
 1.0733714369e+00	 5.0279858882e-01	 2.3635206952e+00
 1.0685649311e+00	 5.1293438373e-01	 2.3241130516e+00
 1.1202241460e+00	 4.1355078809e-01	 2.6426010944e+00
 1.1163256963e+00	 4.2396143609e-01	 2.6072849339e+00
 1.1123224140e+00	 4.3435605401e-01	 2.5717659300e+00
 1.1082142229e+00	 4.4473312468e-01	 2.5358978056e+00
 1.1040010750e+00	 4.5509112384e-01	 2.4995213953e+00
 1.0996829508e+00	 4.6542852075e-01	 2.4624646320e+00
 1.0952598596e+00	 4.7574377880e-01	 2.4245425153e+00
 1.0907318395e+00	 4.8603535621e-01	 2.3855570659e+00
 1.0860989579e+00	 4.9630170668e-01	 2.3452972623e+00
 1.0813613118e+00	 5.0654128004e-01	 2.3035389655e+00
 1.0765190278e+00	 5.1675252296e-01	 2.2600448301e+00
 1.1285011675e+00	 4.1660639869e-01	 2.6197241385e+00
 1.1245739133e+00	 4.2709396805e-01	 2.5808967601e+00
 1.1205410518e+00	 4.3756538888e-01	 2.5418030433e+00
 1.1164025065e+00	 4.4801913281e-01	 2.5022996866e+00
 1.1121582288e+00	 4.5845366432e-01	 2.4622301397e+00
 1.1078081992e+00	 4.6886744135e-01	 2.4214245655e+00
 1.1033524270e+00	 4.7925891594e-01	 2.3796997833e+00
 1.0987909506e+00	 4.8962653493e-01	 2.3368591945e+00
 1.0941238380e+00	 4.9996874058e-01	 2.2926926901e+00
 1.0893511868e+00	 5.1028397127e-01	 2.2469765425e+00
 1.0844731245e+00	 5.2057066219e-01	 2.1994732836e+00
 1.1367781891e+00	 4.1966200929e-01	 2.5961624542e+00
 1.1328221303e+00	 4.3022650000e-01	 2.5545437167e+00
 1.1287596897e+00	 4.4077472375e-01	 2.5125240607e+00
 1.1245907900e+00	 4.5130514094e-01	 2.4699639450e+00
 1.1203153826e+00	 4.6181620480e-01	 2.4267103080e+00
 1.1159334476e+00	 4.7230636194e-01	 2.3825965049e+00
 1.1114449944e+00	 4.8277405308e-01	 2.3374422247e+00
 1.1068500618e+00	 4.9321771364e-01	 2.2910533855e+00
 1.1021487181e+00	 5.0363577447e-01	 2.2432220111e+00
 1.0973410618e+00	 5.1402666250e-01	 2.1937260892e+00
 1.0924272212e+00	 5.2438880143e-01	 2.1423294134e+00
 1.1450552106e+00	 4.2271761990e-01	 2.5715258735e+00
 1.1410703473e+00	 4.3335903196e-01	 2.5278626029e+00
 1.1369783275e+00	 4.4398405862e-01	 2.4835938705e+00
 1.1327790736e+00	 4.5459114907e-01	 2.4385846766e+00
 1.1284725364e+00	 4.6517874528e-01	 2.3926863191e+00
 1.1240586961e+00	 4.7574528254e-01	 2.3457363056e+00
 1.1195375619e+00	 4.8628919022e-01	 2.2975582415e+00
 1.1149091730e+00	 4.9680889236e-01	 2.2479616953e+00
 1.1101735982e+00	 5.0730280837e-01	 2.1967420419e+00
 1.1053309367e+00	 5.1776935373e-01	 2.1436802854e+00
 1.1003813179e+00	 5.2820694066e-01	 2.0885428634e+00
 1.1533322321e+00	 4.2577323050e-01	 2.5454343560e+00
 1.1493185642e+00	 4.3649156392e-01	 2.5004993455e+00
 1.1451969654e+00	 4.4719339349e-01	 2.4546854472e+00
 1.1409673572e+00	 4.5787715720e-01	 2.4078629819e+00
 1.1366296903e+00	 4.6854128575e-01	 2.3598884760e+00
 1.1321839445e+00	 4.7918420314e-01	 2.3106045468e+00
 1.1276301293e+00	 4.8980432737e-01	 2.2598397617e+00
 1.1229682841e+00	 5.0040007108e-01	 2.2074084717e+00
 1.1181984783e+00	 5.1096984227e-01	 2.1531106197e+00
 1.1133208117e+00	 5.2151204496e-01	 2.0967315260e+00
 1.1083354146e+00	 5.3202507990e-01	 2.0380416530e+00
 1.1616092537e+00	 4.2882884110e-01	 2.5175174447e+00
 1.1575667812e+00	 4.3962409588e-01	 2.4721084776e+00
 1.1534156033e+00	 4.5040272836e-01	 2.4254793548e+00
 1.1491556408e+00	 4.6116316533e-01	 2.3775064950e+00
 1.1447868441e+00	 4.7190382623e-01	 2.3280525200e+00
 1.1403091929e+00	 4.8262312374e-01	 2.2769661139e+00
 1.1357226967e+00	 4.9331946451e-01	 2.2240818508e+00
 1.1310273953e+00	 5.0399124980e-01	 2.1692199955e+00
 1.1262233584e+00	 5.1463687617e-01	 2.1121862751e+00
 1.1213106867e+00	 5.2525473618e-01	 2.0527716258e+00
 1.1162895113e+00	 5.3584321913e-01	 1.9907519152e+00
 1.1698862752e+00	 4.3188445171e-01	 2.4874137411e+00
 1.1658149982e+00	 4.4275662783e-01	 2.4423526358e+00
 1.1616342411e+00	 4.5361206322e-01	 2.3956632669e+00
 1.1573439244e+00	 4.6444917346e-01	 2.3472289269e+00
 1.1529439979e+00	 4.7526636670e-01	 2.2969192006e+00
 1.1484344413e+00	 4.8606204434e-01	 2.2445897946e+00
 1.1438152642e+00	 4.9683460165e-01	 2.1900823349e+00
 1.1390865064e+00	 5.0758242851e-01	 2.1332241316e+00
 1.1342482385e+00	 5.1830391006e-01	 2.0738279130e+00
 1.1293005616e+00	 5.2899742741e-01	 2.0116915312e+00
 1.1242436080e+00	 5.3966135836e-01	 1.9465976404e+00
 1.1781632967e+00	 4.3494006231e-01	 2.4550857068e+00
 1.1740632152e+00	 4.4588915979e-01	 2.4109020735e+00
 1.1698528790e+00	 4.5682139809e-01	 2.3649315015e+00
 1.1655322079e+00	 4.6773518159e-01	 2.3167496246e+00
 1.1611011517e+00	 4.7862890718e-01	 2.2662338572e+00
 1.1565596897e+00	 4.8950096493e-01	 2.2132478860e+00
 1.1519078316e+00	 5.0034973879e-01	 2.1576414340e+00
 1.1471456176e+00	 5.1117360723e-01	 2.0992499897e+00
 1.1422731186e+00	 5.2197094396e-01	 2.0378945010e+00
 1.1372904366e+00	 5.3274011864e-01	 1.9733810375e+00
 1.1321977046e+00	 5.4347949760e-01	 1.9055004234e+00
 1.1864403182e+00	 4.3799567291e-01	 2.4305301872e+00
 1.1823114322e+00	 4.4902169174e-01	 2.3812772081e+00
 1.1780715168e+00	 4.6003073296e-01	 2.3332635235e+00
 1.1737204915e+00	 4.7102118972e-01	 2.2857931429e+00
 1.1692583055e+00	 4.8199144765e-01	 2.2357460148e+00
 1.1646849381e+00	 4.9293988553e-01	 2.1827158129e+00
 1.1600003990e+00	 5.0386487593e-01	 2.1265614051e+00
 1.1552047288e+00	 5.1476478594e-01	 2.0671275930e+00
 1.1502979987e+00	 5.2563797785e-01	 2.0042447649e+00
 1.1452803116e+00	 5.3648280987e-01	 1.9377285125e+00
 1.1401518013e+00	 5.4729763683e-01	 1.8673792156e+00
 1.0606108344e+00	 5.0911624449e-01	 2.3917458610e+00
 1.0557380065e+00	 5.1914544421e-01	 2.3559260648e+00
 1.0507624590e+00	 5.2914367498e-01	 2.3207499421e+00
 1.0456844044e+00	 5.3910940138e-01	 2.2858295838e+00
 1.0405040854e+00	 5.4904108763e-01	 2.2507754416e+00
 1.0352217745e+00	 5.5893719829e-01	 2.2151965384e+00
 1.0298377741e+00	 5.6879619897e-01	 2.1787006697e+00
 1.0243524169e+00	 5.7861655706e-01	 2.1408945966e+00
 1.0187660660e+00	 5.8839674247e-01	 2.1013839280e+00
 1.0130791144e+00	 5.9813522833e-01	 2.0589920784e+00
 1.0072919856e+00	 6.0783049177e-01	 2.0127817176e+00
 1.0685649311e+00	 5.1293438373e-01	 2.3241130516e+00
 1.0636555592e+00	 5.2303879786e-01	 2.2843723050e+00
 1.0586426973e+00	 5.3311201079e-01	 2.2455899187e+00
 1.0535265597e+00	 5.4315247558e-01	 2.2073551247e+00
 1.0483073907e+00	 5.5315864495e-01	 2.1692563044e+00
 1.0429854648e+00	 5.6312897191e-01	 2.1308812091e+00
 1.0375610869e+00	 5.7306191059e-01	 2.0918171686e+00
 1.0320345921e+00	 5.8295591688e-01	 2.0516512907e+00
 1.0264063461e+00	 5.9280944921e-01	 2.0097715174e+00
 1.0206767449e+00	 6.0262096927e-01	 1.9644951970e+00
 1.0148462152e+00	 6.1238894276e-01	 1.9154100270e+00
 1.0765190278e+00	 5.1675252296e-01	 2.2600448301e+00
 1.0715731119e+00	 5.2693215151e-01	 2.2163750286e+00
 1.0665229357e+00	 5.3708034660e-01	 2.1739605318e+00
 1.0613687150e+00	 5.4719554979e-01	 2.1323825168e+00
 1.0561106960e+00	 5.5727620226e-01	 2.0912218353e+00
 1.0507491551e+00	 5.6732074554e-01	 2.0500592192e+00
 1.0452843996e+00	 5.7732762222e-01	 2.0084754723e+00
 1.0397167672e+00	 5.8729527671e-01	 1.9660516511e+00
 1.0340466261e+00	 5.9722215596e-01	 1.9215221676e+00
 1.0282743755e+00	 6.0710671021e-01	 1.8734309314e+00
 1.0224004449e+00	 6.1694739375e-01	 1.8216287873e+00
 1.0844731245e+00	 5.2057066219e-01	 2.1994732836e+00
 1.0794906646e+00	 5.3082550516e-01	 2.1519031930e+00
 1.0744031741e+00	 5.4104868241e-01	 2.1058604851e+00
 1.0692108703e+00	 5.5123862400e-01	 2.0609327756e+00
 1.0639140012e+00	 5.6139375958e-01	 2.0167076201e+00
 1.0585128455e+00	 5.7151251916e-01	 1.9727726814e+00
 1.0530077124e+00	 5.8159333384e-01	 1.9287158791e+00
 1.0473989423e+00	 5.9163463653e-01	 1.8839867463e+00
 1.0416869062e+00	 6.0163486271e-01	 1.8365292876e+00
 1.0358720060e+00	 6.1159245116e-01	 1.7856630902e+00
 1.0299546746e+00	 6.2150584473e-01	 1.7312625981e+00
 1.0924272212e+00	 5.2438880143e-01	 2.1423294134e+00
 1.0874082173e+00	 5.3471885881e-01	 2.0909233414e+00
 1.0822834125e+00	 5.4501701823e-01	 2.0412849470e+00
 1.0770530256e+00	 5.5528169821e-01	 1.9930224772e+00
 1.0717173065e+00	 5.6551131690e-01	 1.9457441290e+00
 1.0662765358e+00	 5.7570429279e-01	 1.8990581537e+00
 1.0607310252e+00	 5.8585904547e-01	 1.8525729414e+00
 1.0550811174e+00	 5.9597399636e-01	 1.8051255429e+00
 1.0493271862e+00	 6.0604756945e-01	 1.7546847793e+00
 1.0434696365e+00	 6.1607819210e-01	 1.7010548884e+00
 1.0375089043e+00	 6.2606429572e-01	 1.6441366568e+00
 1.1003813179e+00	 5.2820694066e-01	 2.0885428634e+00
 1.0953257700e+00	 5.3861221246e-01	 2.0333993641e+00
 1.0901636508e+00	 5.4898535404e-01	 1.9802253381e+00
 1.0848951808e+00	 5.5932477241e-01	 1.9286635648e+00
 1.0795206117e+00	 5.6962887421e-01	 1.8783565333e+00
 1.0740402261e+00	 5.7989606642e-01	 1.8289464584e+00
 1.0684543380e+00	 5.9012475710e-01	 1.7800233717e+00
 1.0627632926e+00	 6.0031335618e-01	 1.7293686502e+00
 1.0569674662e+00	 6.1046027620e-01	 1.6758791574e+00
 1.0510672670e+00	 6.2056393304e-01	 1.6194690410e+00
 1.0450631340e+00	 6.3062274671e-01	 1.5600768142e+00
 1.1083354146e+00	 5.3202507990e-01	 2.0380416530e+00
 1.1032433227e+00	 5.4250556611e-01	 1.9792922647e+00
 1.0980438892e+00	 5.5295368985e-01	 1.9226691220e+00
 1.0927373361e+00	 5.6336784662e-01	 1.8678631570e+00
 1.0873239170e+00	 5.7374643153e-01	 1.8145645230e+00
 1.0818039165e+00	 5.8408784004e-01	 1.7624625004e+00
 1.0761776508e+00	 5.9439046872e-01	 1.7106707068e+00
 1.0704454677e+00	 6.0465271601e-01	 1.6566237313e+00
 1.0646077463e+00	 6.1487298295e-01	 1.6000016728e+00
 1.0586648975e+00	 6.2504967398e-01	 1.5407678597e+00
 1.0526173637e+00	 6.3518119770e-01	 1.4789096362e+00
 1.1162895113e+00	 5.3584321913e-01	 1.9907519152e+00
 1.1111608755e+00	 5.4639891976e-01	 1.9285599285e+00
 1.1059241276e+00	 5.5692202566e-01	 1.8685995979e+00
 1.1005794914e+00	 5.6741092083e-01	 1.8106233556e+00
 1.0951272222e+00	 5.7786398885e-01	 1.7543821240e+00
 1.0895676068e+00	 5.8827961367e-01	 1.6996249953e+00
 1.0839009636e+00	 5.9865618035e-01	 1.6443584824e+00
 1.0781276428e+00	 6.0899207584e-01	 1.5867967137e+00
 1.0722480263e+00	 6.1928568970e-01	 1.5269404361e+00
 1.0662625280e+00	 6.2953541493e-01	 1.4648133520e+00
 1.0601715933e+00	 6.3973964869e-01	 1.4004624681e+00
 1.1242436080e+00	 5.3966135836e-01	 1.9465976404e+00
 1.1190784282e+00	 5.5029227341e-01	 1.8811568944e+00
 1.1138043659e+00	 5.6089036148e-01	 1.8179956943e+00
 1.1084216467e+00	 5.7145399504e-01	 1.7569410566e+00
 1.1029305275e+00	 5.8198154616e-01	 1.6978175169e+00
 1.0973312972e+00	 5.9247138729e-01	 1.6401351877e+00
 1.0916242764e+00	 6.0292189198e-01	 1.5810004829e+00
 1.0858098179e+00	 6.1333143566e-01	 1.5197919292e+00
 1.0798883064e+00	 6.2369839645e-01	 1.4565825431e+00
 1.0738601585e+00	 6.3402115587e-01	 1.3914673231e+00
 1.0677258230e+00	 6.4429809968e-01	 1.3245635046e+00
 1.1321977046e+00	 5.4347949760e-01	 1.9055004234e+00
 1.1269959809e+00	 5.5418562706e-01	 1.8370341305e+00
 1.1216846043e+00	 5.6485869729e-01	 1.7708317663e+00
 1.1162638020e+00	 5.7549706924e-01	 1.7068077605e+00
 1.1107338328e+00	 5.8609910348e-01	 1.6448728553e+00
 1.1050949875e+00	 5.9666316092e-01	 1.5836472237e+00
 1.0993475892e+00	 6.0718760360e-01	 1.5205086874e+00
 1.0934919930e+00	 6.1767079548e-01	 1.4555122546e+00
 1.0875285864e+00	 6.2811110319e-01	 1.3888142016e+00
 1.0814577890e+00	 6.3850689681e-01	 1.3205914806e+00
 1.0752800527e+00	 6.4885655067e-01	 1.2510418629e+00
 1.1401518013e+00	 5.4729763683e-01	 1.8673792156e+00
 1.1349135336e+00	 5.5807898070e-01	 1.7961388119e+00
 1.1295648427e+00	 5.6882703310e-01	 1.7270773930e+00
 1.1241059573e+00	 5.7954014345e-01	 1.6602093842e+00
 1.1185371380e+00	 5.9021666079e-01	 1.5954669505e+00
 1.1128586778e+00	 6.0085493454e-01	 1.5300730866e+00
 1.1070709020e+00	 6.1145331523e-01	 1.4627934174e+00
 1.1011741682e+00	 6.2201015531e-01	 1.3938592537e+00
 1.0951688665e+00	 6.3252380994e-01	 1.3235208593e+00
 1.0890554195e+00	 6.4299263775e-01	 1.2520475407e+00
 1.0828342824e+00	 6.5341500165e-01	 1.1797276599e+00
 1.0072919856e+00	 6.0783049177e-01	 2.0127817176e+00
 1.0014051333e+00	 6.1748101481e-01	 1.9640580318e+00
 9.9541904256e-01	 6.2708528571e-01	 1.9142232522e+00
 9.8933422885e-01	 6.3664179916e-01	 1.8633181712e+00
 9.8315123760e-01	 6.4614905681e-01	 1.8114009092e+00
 9.7687064424e-01	 6.5560556802e-01	 1.7585469124e+00
 9.7049305402e-01	 6.6500985064e-01	 1.7048488855e+00
 9.6401910192e-01	 6.7436043167e-01	 1.6504166554e+00
 9.5744945241e-01	 6.8365584808e-01	 1.5953769668e+00
 9.5078479937e-01	 6.9289464749e-01	 1.5398732095e+00
 9.4402586576e-01	 7.0207538890e-01	 1.4840650743e+00
 1.0148462152e+00	 6.1238894276e-01	 1.9154100270e+00
 1.0089152142e+00	 6.2211184031e-01	 1.8637724043e+00
 1.0028842306e+00	 6.3178813886e-01	 1.8109701668e+00
 9.9675378356e-01	 6.4141632179e-01	 1.7570868189e+00
 9.9052442270e-01	 6.5099487952e-01	 1.7022224862e+00
 9.8419672776e-01	 6.6052231025e-01	 1.6464938536e+00
 9.7777130853e-01	 6.6999712069e-01	 1.5900340366e+00
 9.7124880474e-01	 6.7941782681e-01	 1.5329923827e+00
 9.6462988587e-01	 6.8878295460e-01	 1.4755342039e+00
 9.5791525097e-01	 6.9809104078e-01	 1.4178404378e+00
 9.5110562845e-01	 7.0734063356e-01	 1.3601072379e+00
 1.0224004449e+00	 6.1694739375e-01	 1.8216287873e+00
 1.0164252952e+00	 6.2674266581e-01	 1.7673097311e+00
 1.0103494186e+00	 6.3649099200e-01	 1.7118155982e+00
 1.0041733383e+00	 6.4619084442e-01	 1.6552577288e+00
 9.9789760780e-01	 6.5584070224e-01	 1.5977636014e+00
 9.9152281128e-01	 6.6543905249e-01	 1.5394767333e+00
 9.8504956304e-01	 6.7498439075e-01	 1.4805565118e+00
 9.7847850757e-01	 6.8447522195e-01	 1.4211779557e+00
 9.7181031933e-01	 6.9391006112e-01	 1.3615314042e+00
 9.6504570257e-01	 7.0328743407e-01	 1.3018221344e+00
 9.5818539114e-01	 7.1260587821e-01	 1.2422699051e+00
 1.0299546746e+00	 6.2150584473e-01	 1.7312625981e+00
 1.0239353762e+00	 6.3137349132e-01	 1.6744530507e+00
 1.0178146067e+00	 6.4119384515e-01	 1.6165063335e+00
 1.0115928930e+00	 6.5096536705e-01	 1.5575470560e+00
 1.0052707929e+00	 6.6068652496e-01	 1.4977157040e+00
 9.9884889480e-01	 6.7035579472e-01	 1.4371685243e+00
 9.9232781755e-01	 6.7997166080e-01	 1.3760773387e+00
 9.8570821039e-01	 6.8953261710e-01	 1.3146292851e+00
 9.7899075278e-01	 6.9903716763e-01	 1.2530264848e+00
 9.7217615418e-01	 7.0848382736e-01	 1.1914856362e+00
 9.6526515383e-01	 7.1787112287e-01	 1.1302375332e+00
 1.0375089043e+00	 6.2606429572e-01	 1.6441366568e+00
 1.0314454572e+00	 6.3600431682e-01	 1.5849872554e+00
 1.0252797947e+00	 6.4589669830e-01	 1.5247921120e+00
 1.0190124477e+00	 6.5573988968e-01	 1.4636748379e+00
 1.0126439780e+00	 6.6553234768e-01	 1.4017748778e+00
 1.0061749783e+00	 6.7527253695e-01	 1.3392474005e+00
 9.9960607206e-01	 6.8495893086e-01	 1.2762631159e+00
 9.9293791322e-01	 6.9459001224e-01	 1.2130080176e+00
 9.8617118624e-01	 7.0416427415e-01	 1.1496830495e+00
 9.7930660578e-01	 7.1368022065e-01	 1.0865036950e+00
 9.7234491652e-01	 7.2313636753e-01	 1.0236994907e+00
 1.0450631340e+00	 6.3062274671e-01	 1.5600768142e+00
 1.0389555382e+00	 6.4063514232e-01	 1.4986991080e+00
 1.0327449827e+00	 6.5059955144e-01	 1.4364256068e+00
 1.0264320024e+00	 6.6051441231e-01	 1.3733649470e+00
 1.0200171631e+00	 6.7037817040e-01	 1.3096417720e+00
 1.0135010618e+00	 6.8018927919e-01	 1.2453966502e+00
 1.0068843266e+00	 6.8994620092e-01	 1.1807859166e+00
 1.0001676160e+00	 6.9964740738e-01	 1.1159814372e+00
 9.9335161969e-01	 7.0929138067e-01	 1.0511702950e+00
 9.8643705738e-01	 7.1887661395e-01	 9.8655439628e-01
 9.7942467921e-01	 7.2840161219e-01	 9.2234999725e-01
 1.0526173637e+00	 6.3518119770e-01	 1.4789096362e+00
 1.0464656191e+00	 6.4526596782e-01	 1.4153772639e+00
 1.0402101708e+00	 6.5530240459e-01	 1.3511624142e+00
 1.0338515571e+00	 6.6528893494e-01	 1.2863450529e+00
 1.0273903482e+00	 6.7522399312e-01	 1.2210215412e+00
 1.0208271454e+00	 6.8510602142e-01	 1.1553046017e+00
 1.0141625811e+00	 6.9493347097e-01	 1.0893232055e+00
 1.0073973189e+00	 7.0470480252e-01	 1.0232223790e+00
 1.0005320531e+00	 7.1441848719e-01	 9.5716293016e-01
 9.9356750898e-01	 7.2407300724e-01	 8.9132109037e-01
 9.8650444190e-01	 7.3366685685e-01	 8.2588807476e-01
 1.0601715933e+00	 6.3973964869e-01	 1.4004624681e+00
 1.0539757001e+00	 6.4989679333e-01	 1.3348123003e+00
 1.0476753588e+00	 6.6000525774e-01	 1.2687610513e+00
 1.0412711118e+00	 6.7006345757e-01	 1.2023465935e+00
 1.0347635333e+00	 6.8006981584e-01	 1.1356237960e+00
 1.0281532289e+00	 6.9002276365e-01	 1.0686645585e+00
 1.0214408356e+00	 6.9992074103e-01	 1.0015577652e+00
 1.0146270217e+00	 7.0976219767e-01	 9.3440915479e-01
 1.0077124866e+00	 7.1954559371e-01	 8.6734110540e-01
 1.0006979606e+00	 7.2926940053e-01	 8.0049233380e-01
 9.9358420459e-01	 7.3893210151e-01	 7.3401750726e-01
 1.0677258230e+00	 6.4429809968e-01	 1.3245635046e+00
 1.0614857811e+00	 6.5452761883e-01	 1.2567967505e+00
 1.0551405468e+00	 6.6470811088e-01	 1.1889829600e+00
 1.0486906665e+00	 6.7483798021e-01	 1.1211047545e+00
 1.0421367184e+00	 6.8491563856e-01	 1.0531625628e+00
 1.0354793124e+00	 6.9493950589e-01	 9.8517474545e-01
 1.0287190901e+00	 7.0490801109e-01	 9.1717763474e-01
 1.0218567245e+00	 7.1481959281e-01	 8.4922548821e-01
 1.0148929201e+00	 7.2467270023e-01	 7.8139035312e-01
 1.0078284122e+00	 7.3446579383e-01	 7.1376184099e-01
 1.0006639673e+00	 7.4419734617e-01	 6.4644681118e-01
 1.0752800527e+00	 6.4885655067e-01	 1.2510418629e+00
 1.0689958621e+00	 6.5915844433e-01	 1.1811251440e+00
 1.0626057349e+00	 6.6941096403e-01	 1.1115925191e+00
 1.0561102212e+00	 6.7961250284e-01	 1.0423584569e+00
 1.0495099035e+00	 6.8976146128e-01	 9.7335625295e-01
 1.0428053959e+00	 6.9985624812e-01	 9.0453826427e-01
 1.0359973446e+00	 7.0989528114e-01	 8.3587605676e-01
 1.0290864273e+00	 7.1987698795e-01	 7.6736046143e-01
 1.0220733535e+00	 7.2979980674e-01	 6.9900153828e-01
 1.0149588638e+00	 7.3966218712e-01	 6.3082844567e-01
 1.0077437300e+00	 7.4946259082e-01	 5.6288921420e-01
 1.0828342824e+00	 6.5341500165e-01	 1.1797276599e+00
 1.0765059431e+00	 6.6378926983e-01	 1.1075940520e+00
 1.0700709229e+00	 6.7411381717e-01	 1.0363570618e+00
 1.0635297760e+00	 6.8438702546e-01	 9.6585035250e-01
 1.0568830886e+00	 6.9460728400e-01	 8.9592763981e-01
 1.0501314794e+00	 7.0477299035e-01	 8.2646305835e-01
 1.0432755991e+00	 7.1488255120e-01	 7.5735143547e-01
 1.0363161302e+00	 7.2493438309e-01	 6.8850847077e-01
 1.0292537870e+00	 7.3492691326e-01	 6.1987081862e-01
 1.0220893154e+00	 7.4485858041e-01	 5.5139607147e-01
 1.0148234927e+00	 7.5472783548e-01	 4.8306264278e-01
 9.4402586576e-01	 7.0207538890e-01	 1.4840650743e+00
 9.3717223126e-01	 7.1119818816e-01	 1.4271682224e+00
 9.3022582114e-01	 7.2026005839e-01	 1.3683789398e+00
 9.2318744869e-01	 7.2925959118e-01	 1.3078225358e+00
 9.1605795531e-01	 7.3819539237e-01	 1.2456389017e+00
 9.0883821025e-01	 7.4706608275e-01	 1.1819820046e+00
 9.0152911022e-01	 7.5587029875e-01	 1.1170193179e+00
 8.9413157908e-01	 7.6460669316e-01	 1.0509311897e+00
 8.8664656745e-01	 7.7327393573e-01	 9.8391015191e-01
 8.7907505228e-01	 7.8187071391e-01	 9.1616017275e-01
 8.7141803647e-01	 7.9039573348e-01	 8.4789585528e-01
 9.5110562845e-01	 7.0734063356e-01	 1.3601072379e+00
 9.4420059482e-01	 7.1653184964e-01	 1.3015808552e+00
 9.3720208980e-01	 7.2566167976e-01	 1.2414497589e+00
 9.3011093277e-01	 7.3472870493e-01	 1.1798167284e+00
 9.2292797145e-01	 7.4373152055e-01	 1.1167996472e+00
 9.1565408160e-01	 7.5266873705e-01	 1.0525310143e+00
 9.0829016666e-01	 7.6153898066e-01	 9.8715738912e-01
 9.0083715742e-01	 7.7034089403e-01	 9.2083877111e-01
 8.9329601162e-01	 7.7907313695e-01	 8.5374791786e-01
 8.8566771354e-01	 7.8773438705e-01	 7.8606960297e-01
 8.7795327362e-01	 7.9632334037e-01	 7.1799981750e-01
 9.5818539114e-01	 7.1260587821e-01	 1.2422699051e+00
 9.5122895838e-01	 7.2186551113e-01	 1.1821586683e+00
 9.4417835846e-01	 7.3106330113e-01	 1.1206902495e+00
 9.3703441686e-01	 7.4019781868e-01	 1.0579534161e+00
 9.2979798759e-01	 7.4926764873e-01	 9.9405251513e-01
 9.2246995295e-01	 7.5827139136e-01	 9.2910698975e-01
 9.1505122310e-01	 7.6720766256e-01	 8.6325082632e-01
 9.0754273576e-01	 7.7607509490e-01	 7.9663193369e-01
 8.9994545579e-01	 7.8487233818e-01	 7.2941145726e-01
 8.9226037481e-01	 7.9359806018e-01	 6.6176303054e-01
 8.8448851077e-01	 8.0225094726e-01	 5.9387196715e-01
 9.6526515383e-01	 7.1787112287e-01	 1.1302375332e+00
 9.5825732195e-01	 7.2719917261e-01	 1.0686064234e+00
 9.5115462712e-01	 7.3646492250e-01	 1.0058238274e+00
 9.4395790094e-01	 7.4566693244e-01	 9.4197283669e-01
 9.3666800373e-01	 7.5480377691e-01	 8.7715255263e-01
 9.2928582430e-01	 7.6387404566e-01	 8.1147759671e-01
 9.2181227954e-01	 7.7287634446e-01	 7.4507754760e-01
 9.1424831410e-01	 7.8180929577e-01	 6.7809630774e-01
 9.0659489996e-01	 7.9067153941e-01	 6.1069140166e-01
 8.9885303607e-01	 7.9946173332e-01	 5.4303320884e-01
 8.9102374791e-01	 8.0817855415e-01	 4.7530413432e-01
 9.7234491652e-01	 7.2313636753e-01	 1.0236994907e+00
 9.6528568551e-01	 7.3253283410e-01	 9.6063319010e-01
 9.5813089578e-01	 7.4186654387e-01	 8.9657765383e-01
 9.5088138502e-01	 7.5113604620e-01	 8.3161845616e-01
 9.4353801987e-01	 7.6033990509e-01	 7.6585756904e-01
 9.3610169565e-01	 7.6947669997e-01	 6.9941285345e-01
 9.2857333598e-01	 7.7854502637e-01	 6.3241747494e-01
 9.2095389243e-01	 7.8754349664e-01	 5.6501924547e-01
 9.1324434413e-01	 7.9647074064e-01	 4.9737989406e-01
 9.0544569734e-01	 8.0532540646e-01	 4.2967426897e-01
 8.9755898506e-01	 8.1410616104e-01	 3.6208947492e-01
 9.7942467921e-01	 7.2840161219e-01	 9.2234999725e-01
 9.7231404907e-01	 7.3786649558e-01	 8.5795230998e-01
 9.6510716444e-01	 7.4726816524e-01	 7.9268262101e-01
 9.5780486910e-01	 7.5660515995e-01	 7.2663697474e-01
 9.5040803601e-01	 7.6587603327e-01	 6.5992815969e-01
 9.4291756700e-01	 7.7507935428e-01	 5.9268516966e-01
 9.3533439242e-01	 7.8421370827e-01	 5.2505258594e-01
 9.2765947077e-01	 7.9327769751e-01	 4.5718988259e-01
 9.1989378830e-01	 8.0226994187e-01	 3.8927065750e-01
 9.1203835861e-01	 8.1118907960e-01	 3.2148179210e-01
 9.0409422220e-01	 8.2003376793e-01	 2.5402254336e-01
 9.8650444190e-01	 7.3366685685e-01	 8.2588807476e-01
 9.7934241263e-01	 7.4320015707e-01	 7.6028136989e-01
 9.7208343310e-01	 7.5266978661e-01	 6.9387334698e-01
 9.6472835319e-01	 7.6207427371e-01	 6.2677834054e-01
 9.5727805215e-01	 7.7141216145e-01	 5.5912773655e-01
 9.4973343835e-01	 7.8068200858e-01	 4.9106939188e-01
 9.4209544886e-01	 7.8988239018e-01	 4.2276697146e-01
 9.3436504911e-01	 7.9901189838e-01	 3.5439920540e-01
 9.2654323247e-01	 8.0806914310e-01	 2.8615906871e-01
 9.1863101987e-01	 8.1705275274e-01	 2.1825288678e-01
 9.1062945935e-01	 8.2596137482e-01	 1.5089937030e-01
 9.9358420459e-01	 7.3893210151e-01	 7.3401750726e-01
 9.8637077619e-01	 7.4853381855e-01	 6.6734218444e-01
 9.7905970176e-01	 7.5807140798e-01	 5.9988817816e-01
 9.7165183727e-01	 7.6754338746e-01	 5.3179577063e-01
 9.6414806829e-01	 7.7694828963e-01	 4.6322256565e-01
 9.5654930970e-01	 7.8628466289e-01	 3.9434285491e-01
 9.4885650530e-01	 7.9555107208e-01	 3.2534689867e-01
 9.4107062744e-01	 8.0474609925e-01	 2.5644012302e-01
 9.3319267664e-01	 8.1386834433e-01	 1.8784223675e-01
 9.2522368114e-01	 8.2291642587e-01	 1.1978627090e-01
 9.1716469649e-01	 8.3188898171e-01	 5.2517545005e-02
 1.0006639673e+00	 7.4419734617e-01	 6.4644681118e-01
 9.9339913975e-01	 7.5386748004e-01	 5.7886078708e-01
 9.8603597042e-01	 7.6347302936e-01	 5.1046919989e-01
 9.7857532135e-01	 7.7301250122e-01	 4.4144577916e-01
 9.7101808443e-01	 7.8248441782e-01	 3.7198181082e-01
 9.6336518105e-01	 7.9188731720e-01	 3.0228543915e-01
 9.5561756174e-01	 8.0121975398e-01	 2.3258087955e-01
 9.4777620578e-01	 8.1048030012e-01	 1.6310754455e-01
 9.3984212081e-01	 8.1966754556e-01	 9.4119086197e-02
 9.3181634240e-01	 8.2878009901e-01	 2.5882358248e-02
 9.2369993364e-01	 8.3781658860e-01	-4.1323697860e-02
 1.0077437300e+00	 7.4946259082e-01	 5.6288921420e-01
 1.0004275033e+00	 7.5920114152e-01	 4.9456742920e-01
 9.9301223908e-01	 7.6887465073e-01	 4.2536225424e-01
 9.8549880543e-01	 7.7848161497e-01	 3.5548821209e-01
 9.7788810057e-01	 7.8802054600e-01	 2.8517758344e-01
 9.7018105241e-01	 7.9748997150e-01	 2.1467963324e-01
 9.6237861818e-01	 8.0688843589e-01	 1.4425974432e-01
 9.5448178412e-01	 8.1621450099e-01	 7.4198460833e-02
 9.4649156497e-01	 8.2546674679e-01	 4.7904447591e-03
 9.3840900366e-01	 8.3464377215e-01	-6.3656650756e-02
 9.3023517078e-01	 8.4374419549e-01	-1.3082338712e-01
 1.0148234927e+00	 7.5472783548e-01	 4.8306264278e-01
 1.0074558669e+00	 7.6453480300e-01	 4.1419658718e-01
 9.9998850774e-01	 7.7427627210e-01	 3.4431696489e-01
 9.9242228952e-01	 7.8395072873e-01	 2.7368628835e-01
 9.8475811671e-01	 7.9355667418e-01	 2.0258499802e-01
 9.7699692376e-01	 8.0309262581e-01	 1.3131060208e-01
 9.6913967462e-01	 8.1255711779e-01	 6.0176719721e-02
 9.6118736245e-01	 8.2194870185e-01	-1.0487969211e-02
 9.5314100914e-01	 8.3126594802e-01	-8.0340864849e-02
 9.4500166493e-01	 8.4050744529e-01	-1.4902667422e-01
 9.3677040792e-01	 8.4967180238e-01	-2.1617872001e-01
 8.7141803647e-01	 7.9039573348e-01	 8.4789585528e-01
 8.6367786918e-01	 7.9884629108e-01	 7.7846636289e-01
 8.5585429751e-01	 8.0722259840e-01	 7.0719190254e-01
 8.4794838516e-01	 8.1552343441e-01	 6.3429152390e-01
 8.3996121988e-01	 8.2374759889e-01	 5.5999090189e-01
 8.3189391300e-01	 8.3189391300e-01	 4.8452141281e-01
 8.2374759889e-01	 8.3996121988e-01	 4.0811918176e-01
 8.1552343441e-01	 8.4794838516e-01	 3.3102410614e-01
 8.0722259840e-01	 8.5585429751e-01	 2.5347886021e-01
 7.9884629108e-01	 8.6367786918e-01	 1.7572788556e-01
 7.9039573348e-01	 8.7141803647e-01	 9.8016372938e-02
 8.7795327362e-01	 7.9632334037e-01	 7.1799981750e-01
 8.7015505860e-01	 8.0483727329e-01	 6.4886349354e-01
 8.6227281372e-01	 8.1327639909e-01	 5.7798405768e-01
 8.5430761064e-01	 8.2163948758e-01	 5.0560358338e-01
 8.4626054528e-01	 8.2992532953e-01	 4.3197091735e-01
 8.3813273728e-01	 8.3813273728e-01	 3.5734068974e-01
 8.2992532953e-01	 8.4626054528e-01	 2.8197229411e-01
 8.2163948758e-01	 8.5430761064e-01	 2.0612884224e-01
 8.1327639909e-01	 8.6227281372e-01	 1.3007609884e-01
 8.0483727329e-01	 8.7015505860e-01	 5.4081401442e-02
 7.9632334037e-01	 8.7795327362e-01	-2.1587428947e-02
 8.8448851077e-01	 8.0225094726e-01	 5.9387196715e-01
 8.7663224803e-01	 8.1082825550e-01	 5.2504151978e-01
 8.6869132994e-01	 8.1933019978e-01	 4.5459149673e-01
 8.6066683613e-01	 8.2775554074e-01	 3.8278070281e-01
 8.5255987067e-01	 8.3610306017e-01	 3.0987480986e-01
 8.4437156156e-01	 8.4437156156e-01	 2.3614530854e-01
 8.3610306017e-01	 8.5255987067e-01	 1.6186842845e-01
 8.2775554074e-01	 8.6066683613e-01	 8.7324031566e-02
 8.1933019978e-01	 8.6869132994e-01	 1.2794484682e-02
 8.1082825550e-01	 8.7663224803e-01	-6.1436483844e-02
 8.0225094726e-01	 8.8448851077e-01	-1.3508493713e-01
 8.9102374791e-01	 8.0817855415e-01	 4.7530413432e-01
 8.8310943746e-01	 8.1681923771e-01	 4.0678906573e-01
 8.7510984615e-01	 8.2538400047e-01	 3.3679832366e-01
 8.6702606161e-01	 8.3387159391e-01	 2.6560130005e-01
 8.5885919606e-01	 8.4228079082e-01	 1.9347429505e-01
 8.5061038584e-01	 8.5061038584e-01	 1.2069941779e-01
 8.4228079082e-01	 8.5885919606e-01	 4.7563453932e-02
 8.3387159391e-01	 8.6702606161e-01	-2.5643294835e-02
 8.2538400047e-01	 8.7510984615e-01	-9.8628193386e-02
 8.1681923771e-01	 8.8310943746e-01	-1.7109747225e-01
 8.0817855415e-01	 8.9102374791e-01	-2.4275743711e-01
 8.9755898506e-01	 8.1410616104e-01	 3.6208947492e-01
 8.8958662689e-01	 8.2281021992e-01	 2.9389608922e-01
 8.8152836237e-01	 8.3143780115e-01	 2.2439001609e-01
 8.7338528709e-01	 8.3998764708e-01	 1.5384523463e-01
 8.6515852146e-01	 8.4845852146e-01	 8.2542622355e-02
 8.5684921011e-01	 8.5684921011e-01	 1.0768812157e-02
 8.4845852146e-01	 8.6515852146e-01	-6.1184985611e-02
 8.3998764708e-01	 8.7338528709e-01	-1.3302419032e-01
 8.3143780115e-01	 8.8152836237e-01	-2.0445208159e-01
 8.2281021992e-01	 8.8958662689e-01	-2.7517104708e-01
 8.1410616104e-01	 8.9755898506e-01	-3.4488384133e-01
 9.0409422220e-01	 8.2003376793e-01	 2.5402254336e-01
 8.9606381631e-01	 8.2880120213e-01	 1.8615395243e-01
 8.8794687858e-01	 8.3749160184e-01	 1.1715349226e-01
 8.7974451258e-01	 8.4610370024e-01	 4.7293869659e-02
 8.7145784685e-01	 8.5463625210e-01	-2.3145369334e-02
 8.6308803439e-01	 8.6308803439e-01	-9.3879019272e-02
 8.5463625210e-01	 8.7145784685e-01	-1.6461743162e-01
 8.4610370024e-01	 8.7974451258e-01	-2.3506776165e-01
 8.3749160184e-01	 8.8794687858e-01	-3.0493523989e-01
 8.2880120213e-01	 8.9606381631e-01	-3.7392446166e-01
 8.2003376793e-01	 9.0409422220e-01	-4.4174068834e-01
 9.1062945935e-01	 8.2596137482e-01	 1.5089937030e-01
 9.0254100574e-01	 8.3479218434e-01	 8.3355497555e-02
 8.9436539479e-01	 8.4354540253e-01	 1.4877183157e-02
 8.8610373806e-01	 8.5221975341e-01	-5.4269860917e-02
 8.7775717224e-01	 8.6081398275e-01	-1.2381319048e-01
 8.6932685867e-01	 8.6932685867e-01	-1.9347483884e-01
 8.6081398275e-01	 8.7775717224e-01	-2.6297256462e-01
 8.5221975341e-01	 8.8610373806e-01	-3.3202113153e-01
 8.4354540253e-01	 8.9436539479e-01	-4.0033361388e-01
 8.3479218434e-01	 9.0254100574e-01	-4.6762272105e-01
 8.2596137482e-01	 9.1062945935e-01	-5.3360213451e-01
 9.1716469649e-01	 8.3188898171e-01	 5.2517545005e-02
 9.0901819517e-01	 8.4078316656e-01	-1.4704872884e-02
 9.0078391101e-01	 8.4959920322e-01	-8.2648890536e-02
 8.9246296354e-01	 8.5833580657e-01	-1.5106138001e-01
 8.8405649763e-01	 8.6699171339e-01	-2.1968263440e-01
 8.7556568294e-01	 8.7556568294e-01	-2.8824760069e-01
 8.6699171339e-01	 8.8405649763e-01	-3.5648715230e-01
 8.5833580657e-01	 8.9246296354e-01	-4.2412939509e-01
 8.4959920322e-01	 9.0078391101e-01	-4.9090100017e-01
 8.4078316656e-01	 9.0901819517e-01	-5.5652855682e-01
 8.3188898171e-01	 9.1716469649e-01	-6.2073993853e-01
 9.2369993364e-01	 8.3781658860e-01	-4.1323697860e-02
 9.1549538459e-01	 8.4677414877e-01	-1.0823111108e-01
 9.0720242722e-01	 8.5565300391e-01	-1.7563303680e-01
 8.9882218902e-01	 8.6445185974e-01	-2.4329439031e-01
 8.9035582303e-01	 8.7316944403e-01	-3.1097370583e-01
 8.8180450722e-01	 8.8180450722e-01	-3.7842438588e-01
 8.7316944403e-01	 8.9035582303e-01	-4.4539599203e-01
 8.6445185974e-01	 8.9882218902e-01	-5.1163557047e-01
 8.5565300391e-01	 9.0720242722e-01	-5.7688900574e-01
 8.4677414877e-01	 9.1549538459e-01	-6.4090239550e-01
 8.3781658860e-01	 9.2369993364e-01	-7.0342343919e-01
 9.3023517078e-01	 8.4374419549e-01	-1.3082338712e-01
 9.2197257402e-01	 8.5276513098e-01	-1.9742543474e-01
 9.1362094343e-01	 8.6170680460e-01	-2.6428180626e-01
 9.0518141451e-01	 8.7056791291e-01	-3.3118079262e-01
 8.9665514842e-01	 8.7934717467e-01	-3.9790454466e-01
 8.8804333150e-01	 8.8804333150e-01	-4.6423033253e-01
 8.7934717467e-01	 8.9665514842e-01	-5.2993184814e-01
 8.7056791291e-01	 9.0518141451e-01	-5.9478054401e-01
 8.6170680460e-01	 9.1362094343e-01	-6.5854700143e-01
 8.5276513098e-01	 9.2197257402e-01	-7.2100232083e-01
 8.4374419549e-01	 9.3023517078e-01	-7.8191952677e-01
 9.3677040792e-01	 8.4967180238e-01	-2.1617872001e-01
 9.2844976344e-01	 8.5875611319e-01	-2.8248823385e-01
 9.2003945964e-01	 8.6776060528e-01	-3.4879990201e-01
 9.1154063999e-01	 8.7668396607e-01	-4.1493059989e-01
 9.0295447381e-01	 8.8552490531e-01	-4.8069134523e-01
 8.9428215577e-01	 8.9428215577e-01	-5.4588856118e-01
 8.8552490531e-01	 9.0295447381e-01	-6.1032538427e-01
 8.7668396607e-01	 9.1154063999e-01	-6.7380301010e-01
 8.6776060528e-01	 9.2003945964e-01	-7.3612206991e-01
 8.5875611319e-01	 9.2844976344e-01	-7.9708403023e-01
 8.4967180238e-01	 9.3677040792e-01	-8.5649260824e-01
 7.9039573348e-01	 8.7141803647e-01	 9.8016372938e-02
 7.8187071391e-01	 8.7907505228e-01	 1.9554031743e-02
 7.7327393573e-01	 8.8664656745e-01	-6.0401283275e-02
 7.6460669316e-01	 8.9413157908e-01	-1.4157531476e-01
 7.5587029875e-01	 9.0152911022e-01	-2.2369930542e-01
 7.4706608275e-01	 9.0883821025e-01	-3.0651099316e-01
 7.3819539237e-01	 9.1605795531e-01	-3.8975557899e-01
 7.2925959118e-01	 9.2318744869e-01	-4.7318666235e-01
 7.2026005839e-01	 9.3022582114e-01	-5.5656713874e-01
 7.1119818816e-01	 9.3717223126e-01	-6.3967005471e-01
 7.0207538890e-01	 9.4402586576e-01	-7.2227941537e-01
 7.9632334037e-01	 8.7795327362e-01	-2.1587428947e-02
 7.8773438705e-01	 8.8566771354e-01	-9.7737820081e-02
 7.7907313695e-01	 8.9329601162e-01	-1.7515771351e-01
 7.7034089403e-01	 9.0083715742e-01	-2.5359320777e-01
 7.6153898066e-01	 9.0829016666e-01	-3.3279707449e-01
 7.5266873705e-01	 9.1565408160e-01	-4.1252976165e-01
 7.4373152055e-01	 9.2292797145e-01	-4.9256036762e-01
 7.3472870493e-01	 9.3011093277e-01	-5.7266758059e-01
 7.2566167976e-01	 9.3720208980e-01	-6.5264057811e-01
 7.1653184964e-01	 9.4420059482e-01	-7.3227988152e-01
 7.0734063356e-01	 9.5110562845e-01	-8.1139816034e-01
 8.0225094726e-01	 8.8448851077e-01	-1.3508493713e-01
 7.9359806018e-01	 8.9226037481e-01	-2.0898622967e-01
 7.8487233818e-01	 8.9994545579e-01	-2.8397678392e-01
 7.7607509490e-01	 9.0754273576e-01	-3.5981723030e-01
 7.6720766256e-01	 9.1505122310e-01	-4.3627578216e-01
 7.5827139136e-01	 9.2246995295e-01	-5.1312925759e-01
 7.4926764873e-01	 9.2979798759e-01	-5.9016407067e-01
 7.4019781868e-01	 9.3703441686e-01	-6.6717718620e-01
 7.3106330113e-01	 9.4417835846e-01	-7.4397703265e-01
 7.2186551113e-01	 9.5122895838e-01	-8.2038436783e-01
 7.1260587821e-01	 9.5818539114e-01	-8.9623309210e-01
 8.0817855415e-01	 8.9102374791e-01	-2.4275743711e-01
 7.9946173332e-01	 8.9885303607e-01	-3.1447920678e-01
 7.9067153941e-01	 9.0659489996e-01	-3.8714759174e-01
 7.8180929577e-01	 9.1424831410e-01	-4.6053204323e-01
 7.7287634446e-01	 9.2181227954e-01	-5.3441024570e-01
 7.6387404566e-01	 9.2928582430e-01	-6.0856916785e-01
 7.5480377691e-01	 9.3666800373e-01	-6.8280608179e-01
 7.4566693244e-01	 9.4395790094e-01	-7.5692954443e-01
 7.3646492250e-01	 9.5115462712e-01	-8.3076033521e-01
 7.2719917261e-01	 9.5825732195e-01	-9.0413234470e-01
 7.1787112287e-01	 9.6526515383e-01	-9.7689340867e-01
 8.1410616104e-01	 8.9755898506e-01	-3.4488384133e-01
 8.0532540646e-01	 9.0544569734e-01	-4.1450231853e-01
 7.9647074064e-01	 9.1324434413e-01	-4.8495688687e-01
 7.8754349664e-01	 9.2095389243e-01	-5.5602021632e-01
 7.7854502637e-01	 9.2857333598e-01	-6.2747360440e-01
 7.6947669997e-01	 9.3610169565e-01	-6.9910806696e-01
 7.6033990509e-01	 9.4353801987e-01	-7.7072539624e-01
 7.5113604620e-01	 9.5088138502e-01	-8.4213917981e-01
 7.4186654387e-01	 9.5813089578e-01	-9.1317577471e-01
 7.3253283410e-01	 9.6528568551e-01	-9.8367523061e-01
 7.2313636753e-01	 9.7234491652e-01	-1.0534921565e+00
 8.2003376793e-01	 9.0409422220e-01	-4.4174068834e-01
 8.1118907960e-01	 9.1203835861e-01	-5.0933869615e-01
 8.0226994187e-01	 9.1989378830e-01	-5.7768908059e-01
 7.9327769751e-01	 9.2765947077e-01	-6.4656223331e-01
 7.8421370827e-01	 9.3533439242e-01	-7.1573731544e-01
 7.7507935428e-01	 9.4291756700e-01	-7.8500339863e-01
 7.6587603327e-01	 9.5040803601e-01	-8.5416057263e-01
 7.5660515995e-01	 9.5780486910e-01	-9.2302101319e-01
 7.4726816524e-01	 9.6510716444e-01	-9.9141000371e-01
 7.3786649558e-01	 9.7231404907e-01	-1.0591669047e+00
 7.2840161219e-01	 9.7942467921e-01	-1.1261460650e+00
 8.2596137482e-01	 9.1062945935e-01	-5.3360213451e-01
 8.1705275274e-01	 9.1863101987e-01	-5.9926903403e-01
 8.0806914310e-01	 9.2654323247e-01	-6.6562624647e-01
 7.9901189838e-01	 9.3436504911e-01	-7.3243648941e-01
 7.8988239018e-01	 9.4209544886e-01	-7.9947114286e-01
 7.8068200858e-01	 9.4973343835e-01	-8.6651145084e-01
 7.7141216145e-01	 9.5727805215e-01	-9.3334968952e-01
 7.6207427371e-01	 9.6472835319e-01	-9.9979029485e-01
 7.5266978661e-01	 9.7208343310e-01	-1.0656509433e+00
 7.4320015707e-01	 9.7934241263e-01	-1.1307635789e+00
 7.3366685685e-01	 9.8650444190e-01	-1.1949753812e+00
 8.3188898171e-01	 9.1716469649e-01	-6.2073993853e-01
 8.2291642587e-01	 9.2522368114e-01	-6.8457158147e-01
 8.1386834433e-01	 9.3319267664e-01	-7.4904811406e-01
 8.0474609925e-01	 9.4107062744e-01	-8.1391928183e-01
 7.9555107208e-01	 9.4885650530e-01	-8.7894313980e-01
 7.8628466289e-01	 9.5654930970e-01	-9.4388732523e-01
 7.7694828963e-01	 9.6414806829e-01	-1.0085302969e+00
 7.6754338746e-01	 9.7165183727e-01	-1.0726625336e+00
 7.5807140798e-01	 9.7905970176e-01	-1.1360876852e+00
 7.4853381855e-01	 9.8637077619e-01	-1.1986236692e+00
 7.3893210151e-01	 9.9358420459e-01	-1.2601037060e+00
 8.3781658860e-01	 9.2369993364e-01	-7.0342343919e-01
 8.2878009901e-01	 9.3181634240e-01	-7.6552212733e-01
 8.1966754556e-01	 9.3984212081e-01	-8.2823205555e-01
 8.1048030012e-01	 9.4777620578e-01	-8.9128479344e-01
 8.0121975398e-01	 9.5561756174e-01	-9.5441962455e-01
 7.9188731720e-01	 9.6336518105e-01	-1.0173849007e+00
 7.8248441782e-01	 9.7101808443e-01	-1.0799393630e+00
 7.7301250122e-01	 9.7857532135e-01	-1.1418534224e+00
 7.6347302936e-01	 9.8603597042e-01	-1.2029103922e+00
 7.5386748004e-01	 9.9339913975e-01	-1.2629076654e+00
 7.4419734617e-01	 1.0006639673e+00	-1.3216578301e+00
 8.4374419549e-01	 9.3023517078e-01	-7.8191952677e-01
 8.3464377215e-01	 9.3840900366e-01	-8.4239397817e-01
 8.2546674679e-01	 9.4649156497e-01	-9.0345306578e-01
 8.1621450099e-01	 9.5448178412e-01	-9.6480507013e-01
 8.0688843589e-01	 9.6237861818e-01	-1.0261651506e+00
 7.9748997150e-01	 9.7018105241e-01	-1.0872567917e+00
 7.8802054600e-01	 9.7788810057e-01	-1.1478132164e+00
 7.7848161497e-01	 9.8549880543e-01	-1.2075787600e+00
 7.6887465073e-01	 9.9301223908e-01	-1.2663101949e+00
 7.5920114152e-01	 1.0004275033e+00	-1.3237780009e+00
 7.4946259082e-01	 1.0077437300e+00	-1.3797675714e+00
 8.4967180238e-01	 9.3677040792e-01	-8.5649260824e-01
 8.4050744529e-01	 9.4500166493e-01	-9.1545792999e-01
 8.3126594802e-01	 9.5314100914e-01	-9.7498373598e-01
 8.2194870185e-01	 9.6118736245e-01	-1.0347499920e+00
 8.1255711779e-01	 9.6913967462e-01	-1.0944424710e+00
 8.0309262581e-01	 9.7699692376e-01	-1.1537543014e+00
 7.9355667418e-01	 9.8475811671e-01	-1.2123874842e+00
 7.8395072873e-01	 9.9242228952e-01	-1.2700543698e+00
 7.7427627210e-01	 9.9998850774e-01	-1.3264790879e+00
 7.6453480300e-01	 1.0074558669e+00	-1.3813989205e+00
 7.5472783548e-01	 1.0148234927e+00	-1.4345656121e+00
 7.0207538890e-01	 9.4402586576e-01	-7.2227941537e-01
 6.9289464749e-01	 9.5078479937e-01	-8.0511996507e-01
 6.8365584808e-01	 9.5744945241e-01	-8.8893387004e-01
 6.7436043167e-01	 9.6401910192e-01	-9.7350679220e-01
 6.6500985064e-01	 9.7049305402e-01	-1.0586366263e+00
 6.5560556802e-01	 9.7687064424e-01	-1.1441340498e+00
 6.4614905681e-01	 9.8315123760e-01	-1.2298230037e+00
 6.3664179916e-01	 9.8933422885e-01	-1.3155411009e+00
 6.2708528571e-01	 9.9541904256e-01	-1.4011399599e+00
 6.1748101481e-01	 1.0014051333e+00	-1.4864854621e+00
 6.0783049177e-01	 1.0072919856e+00	-1.5714579308e+00
 7.0734063356e-01	 9.5110562845e-01	-8.1139816034e-01
 6.9809104078e-01	 9.5791525097e-01	-8.9071990382e-01
 6.8878295460e-01	 9.6462988587e-01	-9.7093783352e-01
 6.7941782681e-01	 9.7124880474e-01	-1.0517948468e+00
 6.6999712069e-01	 9.7777130853e-01	-1.1330457331e+00
 6.6052231025e-01	 9.8419672776e-01	-1.2144578218e+00
 6.5099487952e-01	 9.9052442270e-01	-1.2958115590e+00
 6.4141632179e-01	 9.9675378356e-01	-1.3769010099e+00
 6.3178813886e-01	 1.0028842306e+00	-1.4575342831e+00
 6.2211184031e-01	 1.0089152142e+00	-1.5375338758e+00
 6.1238894276e-01	 1.0148462152e+00	-1.6167369378e+00
 7.1260587821e-01	 9.5818539114e-01	-8.9623309210e-01
 7.0328743407e-01	 9.6504570257e-01	-9.7222694733e-01
 6.9391006112e-01	 9.7181031933e-01	-1.0490007773e+00
 6.8447522195e-01	 9.7847850757e-01	-1.1262654294e+00
 6.7498439075e-01	 9.8504956304e-01	-1.2037436988e+00
 6.6543905249e-01	 9.9152281128e-01	-1.2811710585e+00
 6.5584070224e-01	 9.9789760780e-01	-1.3582963156e+00
 6.4619084442e-01	 1.0041733383e+00	-1.4348821895e+00
 6.3649099200e-01	 1.0103494186e+00	-1.5107058100e+00
 6.2674266581e-01	 1.0164252952e+00	-1.5855591326e+00
 6.1694739375e-01	 1.0224004449e+00	-1.6592492679e+00
 7.1787112287e-01	 9.6526515383e-01	-9.7689340867e-01
 7.0848382736e-01	 9.7217615418e-01	-1.0497125527e+00
 6.9903716763e-01	 9.7899075278e-01	-1.1231645514e+00
 6.8953261710e-01	 9.8570821039e-01	-1.1969386516e+00
 6.7997166080e-01	 9.9232781755e-01	-1.2707364957e+00
 6.7035579472e-01	 9.9884889480e-01	-1.3442729181e+00
 6.6068652496e-01	 1.0052707929e+00	-1.4172766635e+00
 6.5096536705e-01	 1.0115928930e+00	-1.4894910255e+00
 6.4119384515e-01	 1.0178146067e+00	-1.5606743998e+00
 6.3137349132e-01	 1.0239353762e+00	-1.6306007524e+00
 6.2150584473e-01	 1.0299546746e+00	-1.6990599970e+00
 7.2313636753e-01	 9.7234491652e-01	-1.0534921565e+00
 7.1368022065e-01	 9.7930660578e-01	-1.1232532257e+00
 7.0416427415e-01	 9.8617118624e-01	-1.1934770109e+00
 6.9459001224e-01	 9.9293791322e-01	-1.2638413501e+00
 6.8495893086e-01	 9.9960607206e-01	-1.3340373123e+00
 6.7527253695e-01	 1.0061749783e+00	-1.4037700433e+00
 6.6553234768e-01	 1.0126439780e+00	-1.4727595316e+00
 6.5573988968e-01	 1.0190124477e+00	-1.5407412894e+00
 6.4589669830e-01	 1.0252797947e+00	-1.6074669451e+00
 6.3600431682e-01	 1.0314454572e+00	-1.6727047454e+00
 6.2606429572e-01	 1.0375089043e+00	-1.7362399642e+00
 7.2840161219e-01	 9.7942467921e-01	-1.1261460650e+00
 7.1887661395e-01	 9.8643705738e-01	-1.1929303182e+00
 7.0929138067e-01	 9.9335161969e-01	-1.2599917858e+00
 6.9964740738e-01	 1.0001676160e+00	-1.3270068377e+00
 6.8994620092e-01	 1.0068843266e+00	-1.3936662924e+00
 6.8018927919e-01	 1.0135010618e+00	-1.4596762981e+00
 6.7037817040e-01	 1.0200171631e+00	-1.5247591289e+00
 6.6051441231e-01	 1.0264320024e+00	-1.5886538925e+00
 6.5059955144e-01	 1.0327449827e+00	-1.6511171452e+00
 6.4063514232e-01	 1.0389555382e+00	-1.7119234111e+00
 6.3062274671e-01	 1.0450631340e+00	-1.7708656041e+00
 7.3366685685e-01	 9.8650444190e-01	-1.1949753812e+00
 7.2407300724e-01	 9.9356750898e-01	-1.2588298284e+00
 7.1441848719e-01	 1.0005320531e+00	-1.3227680549e+00
 7.0470480252e-01	 1.0073973189e+00	-1.3864746583e+00
 6.9493347097e-01	 1.0141625811e+00	-1.4496502808e+00
 6.8510602142e-01	 1.0208271454e+00	-1.5120125104e+00
 6.7522399312e-01	 1.0273903482e+00	-1.5732966917e+00
 6.6528893494e-01	 1.0338515571e+00	-1.6332566445e+00
 6.5530240459e-01	 1.0402101708e+00	-1.6916652840e+00
 6.4526596782e-01	 1.0464656191e+00	-1.7483151414e+00
 6.3518119770e-01	 1.0526173637e+00	-1.8030187809e+00
 7.3893210151e-01	 9.9358420459e-01	-1.2601037060e+00
 7.2926940053e-01	 1.0006979606e+00	-1.3210422036e+00
 7.1954559371e-01	 1.0077124866e+00	-1.3818703229e+00
 7.0976219767e-01	 1.0146270217e+00	-1.4422903469e+00
 6.9992074103e-01	 1.0214408356e+00	-1.5020225732e+00
 6.9002276365e-01	 1.0281532289e+00	-1.5608062199e+00
 6.8006981584e-01	 1.0347635333e+00	-1.6184002368e+00
 6.7006345757e-01	 1.0412711118e+00	-1.6745840182e+00
 6.6000525774e-01	 1.0476753588e+00	-1.7291580126e+00
 6.4989679333e-01	 1.0539757001e+00	-1.7819442276e+00
 6.3973964869e-01	 1.0601715933e+00	-1.8327866255e+00
 7.4419734617e-01	 1.0006639673e+00	-1.3216578301e+00
 7.3446579383e-01	 1.0078284122e+00	-1.3796621441e+00
 7.2467270023e-01	 1.0148929201e+00	-1.4373682011e+00
 7.1481959281e-01	 1.0218567245e+00	-1.4945051942e+00
 7.0490801109e-01	 1.0287190901e+00	-1.5508226712e+00
 6.9493950589e-01	 1.0354793124e+00	-1.6060914309e+00
 6.8491563856e-01	 1.0421367184e+00	-1.6601043184e+00
 6.7483798021e-01	 1.0486906665e+00	-1.7126769177e+00
 6.6470811088e-01	 1.0551405468e+00	-1.7636481345e+00
 6.5452761883e-01	 1.0614857811e+00	-1.8128806692e+00
 6.4429809968e-01	 1.0677258230e+00	-1.8602613742e+00
 7.4946259082e-01	 1.0077437300e+00	-1.3797675714e+00
 7.3966218712e-01	 1.0149588638e+00	-1.4347884109e+00
 7.2979980674e-01	 1.0220733535e+00	-1.4893361914e+00
 7.1987698795e-01	 1.0290864273e+00	-1.5431760144e+00
 7.0989528114e-01	 1.0359973446e+00	-1.5960960424e+00
 6.9985624812e-01	 1.0428053959e+00	-1.6479083702e+00
 6.8976146128e-01	 1.0495099035e+00	-1.6984497910e+00
 6.7961250284e-01	 1.0561102212e+00	-1.7475824522e+00
 6.6941096403e-01	 1.0626057349e+00	-1.7951943968e+00
 6.5915844433e-01	 1.0689958621e+00	-1.8411999874e+00
 6.4885655067e-01	 1.0752800527e+00	-1.8855402092e+00
 7.5472783548e-01	 1.0148234927e+00	-1.4345656121e+00
 7.4485858041e-01	 1.0220893154e+00	-1.4865236334e+00
 7.3492691326e-01	 1.0292537870e+00	-1.5378534730e+00
 7.2493438309e-01	 1.0363161302e+00	-1.5883649178e+00
 7.1488255120e-01	 1.0432755991e+00	-1.6378938839e+00
 7.0477299035e-01	 1.0501314794e+00	-1.6863032494e+00
 6.9460728400e-01	 1.0568830886e+00	-1.7334835758e+00
 6.8438702546e-01	 1.0635297760e+00	-1.7793537131e+00
 6.7411381717e-01	 1.0700709229e+00	-1.8238612832e+00
 6.6378926983e-01	 1.0765059431e+00	-1.8669830398e+00
 6.5341500165e-01	 1.0828342824e+00	-1.9087251013e+00
 6.0783049177e-01	 1.0072919856e+00	-1.5714579308e+00
 5.9813522833e-01	 1.0130791144e+00	-1.6567177960e+00
 5.8839674247e-01	 1.0187660660e+00	-1.7431149597e+00
 5.7861655706e-01	 1.0243524169e+00	-1.8290318320e+00
 5.6879619897e-01	 1.0298377741e+00	-1.9128343463e+00
 5.5893719829e-01	 1.0352217745e+00	-1.9949094008e+00
 5.4904108763e-01	 1.0405040854e+00	-2.0756541204e+00
 5.3910940138e-01	 1.0456844044e+00	-2.1554737913e+00
 5.2914367498e-01	 1.0507624590e+00	-2.2347805003e+00
 5.1914544421e-01	 1.0557380065e+00	-2.3139917486e+00
 5.0911624449e-01	 1.0606108344e+00	-2.3935290447e+00
 6.1238894276e-01	 1.0148462152e+00	-1.6167369378e+00
 6.0262096927e-01	 1.0206767449e+00	-1.6958057163e+00
 5.9280944921e-01	 1.0264063461e+00	-1.7756617643e+00
 5.8295591688e-01	 1.0320345921e+00	-1.8560200518e+00
 5.7306191059e-01	 1.0375610869e+00	-1.9343911566e+00
 5.6312897191e-01	 1.0429854648e+00	-2.0108150096e+00
 5.5315864495e-01	 1.0483073907e+00	-2.0857613058e+00
 5.4315247558e-01	 1.0535265597e+00	-2.1597085606e+00
 5.3311201079e-01	 1.0586426973e+00	-2.2331426072e+00
 5.2303879786e-01	 1.0636555592e+00	-2.3065550655e+00
 5.1293438373e-01	 1.0685649311e+00	-2.3804417924e+00
 6.1694739375e-01	 1.0224004449e+00	-1.6592492679e+00
 6.0710671021e-01	 1.0282743755e+00	-1.7324608874e+00
 5.9722215596e-01	 1.0340466261e+00	-1.8061865716e+00
 5.8729527671e-01	 1.0397167672e+00	-1.8807037097e+00
 5.7732762222e-01	 1.0452843996e+00	-1.9541515025e+00
 5.6732074554e-01	 1.0507491551e+00	-2.0254536014e+00
 5.5727620226e-01	 1.0561106960e+00	-2.0951336425e+00
 5.4719554979e-01	 1.0613687150e+00	-2.1637246554e+00
 5.3708034660e-01	 1.0665229357e+00	-2.2317674413e+00
 5.2693215151e-01	 1.0715731119e+00	-2.2998089243e+00
 5.1675252296e-01	 1.0765190278e+00	-2.3684004820e+00
 6.2150584473e-01	 1.0299546746e+00	-1.6990599970e+00
 6.1159245116e-01	 1.0358720060e+00	-1.7667734707e+00
 6.0163486271e-01	 1.0416869062e+00	-1.8347982694e+00
 5.9163463653e-01	 1.0473989423e+00	-1.9034535481e+00
 5.8159333384e-01	 1.0530077124e+00	-1.9722679353e+00
 5.7151251916e-01	 1.0585128455e+00	-2.0389766747e+00
 5.6139375958e-01	 1.0639140012e+00	-2.1039170276e+00
 5.5123862400e-01	 1.0692108703e+00	-2.1676582786e+00
 5.4104868241e-01	 1.0744031741e+00	-2.2307778783e+00
 5.3082550516e-01	 1.0794906646e+00	-2.2938596993e+00
 5.2057066219e-01	 1.0844731245e+00	-2.3574922724e+00
 6.2606429572e-01	 1.0375089043e+00	-1.7362399642e+00
 6.1607819210e-01	 1.0434696365e+00	-1.7988386652e+00
 6.0604756945e-01	 1.0493271862e+00	-1.8616102304e+00
 5.9597399636e-01	 1.0550811174e+00	-1.9248819479e+00
 5.8585904547e-01	 1.0607310252e+00	-1.9888992038e+00
 5.7570429279e-01	 1.0662765358e+00	-2.0515415515e+00
 5.6551131690e-01	 1.0717173065e+00	-2.1122629278e+00
 5.5528169821e-01	 1.0770530256e+00	-2.1716510592e+00
 5.4501701823e-01	 1.0822834125e+00	-2.2303021728e+00
 5.3471885881e-01	 1.0874082173e+00	-2.2888191822e+00
 5.2438880143e-01	 1.0924272212e+00	-2.3478098507e+00
 6.3062274671e-01	 1.0450631340e+00	-1.7708656041e+00
 6.2056393304e-01	 1.0510672670e+00	-1.8287565724e+00
 6.1046027620e-01	 1.0569674662e+00	-1.8867402033e+00
 6.0031335618e-01	 1.0627632926e+00	-1.9451345158e+00
 5.9012475710e-01	 1.0684543380e+00	-2.0042764926e+00
 5.7989606642e-01	 1.0740402261e+00	-2.0633115430e+00
 5.6962887421e-01	 1.0795206117e+00	-2.1203285446e+00
 5.5932477241e-01	 1.0848951808e+00	-2.1758502110e+00
 5.4898535404e-01	 1.0901636508e+00	-2.2304741082e+00
 5.3861221246e-01	 1.0953257700e+00	-2.2848047179e+00
 5.2820694066e-01	 1.1003813179e+00	-2.3394515528e+00
 6.3518119770e-01	 1.0526173637e+00	-1.8030187809e+00
 6.2504967398e-01	 1.0586648975e+00	-1.8566320625e+00
 6.1487298295e-01	 1.0646077463e+00	-1.9103102038e+00
 6.0465271601e-01	 1.0704454677e+00	-1.9643449401e+00
 5.9439046872e-01	 1.0761776508e+00	-2.0190474911e+00
 5.8408784004e-01	 1.0818039165e+00	-2.0744561150e+00
 5.7374643153e-01	 1.0873239170e+00	-2.1282769776e+00
 5.6336784662e-01	 1.0927373361e+00	-2.1804086906e+00
 5.5295368985e-01	 1.0980438892e+00	-2.2314331443e+00
 5.4250556611e-01	 1.1032433227e+00	-2.2819393410e+00
 5.3202507990e-01	 1.1083354146e+00	-2.3325214840e+00
 6.3973964869e-01	 1.0601715933e+00	-1.8327866255e+00
 6.2953541493e-01	 1.0662625280e+00	-1.8825746403e+00
 6.1928568970e-01	 1.0722480263e+00	-1.9324464055e+00
 6.0899207584e-01	 1.0781276428e+00	-1.9826507331e+00
 5.9865618035e-01	 1.0839009636e+00	-2.0334563017e+00
 5.8827961367e-01	 1.0895676068e+00	-2.0851511463e+00
 5.7786398885e-01	 1.0951272222e+00	-2.1362773862e+00
 5.6741092083e-01	 1.1005794914e+00	-2.1854853529e+00
 5.5692202566e-01	 1.1059241276e+00	-2.2333245649e+00
 5.4639891976e-01	 1.1111608755e+00	-2.2803519104e+00
 5.3584321913e-01	 1.1162895113e+00	-2.3271296393e+00
 6.4429809968e-01	 1.0677258230e+00	-1.8602613742e+00
 6.3402115587e-01	 1.0738601585e+00	-1.9066983140e+00
 6.2369839645e-01	 1.0798883064e+00	-1.9532790310e+00
 6.1333143566e-01	 1.0858098179e+00	-2.0001931395e+00
 6.0292189198e-01	 1.0916242764e+00	-2.0476503665e+00
 5.9247138729e-01	 1.0973312972e+00	-2.0958801408e+00
 5.8198154616e-01	 1.1029305275e+00	-2.1445051507e+00
 5.7145399504e-01	 1.1084216467e+00	-2.1912451071e+00
 5.6089036148e-01	 1.1138043659e+00	-2.2362996237e+00
 5.5029227341e-01	 1.1190784282e+00	-2.2801772442e+00
 5.3966135836e-01	 1.1242436080e+00	-2.3233920242e+00
 6.4885655067e-01	 1.0752800527e+00	-1.8855402092e+00
 6.3850689681e-01	 1.0814577890e+00	-1.9291214629e+00
 6.2811110319e-01	 1.0875285864e+00	-1.9729422432e+00
 6.1767079548e-01	 1.0934919930e+00	-2.0171170458e+00
 6.0718760360e-01	 1.0993475892e+00	-2.0617805922e+00
 5.9666316092e-01	 1.1050949875e+00	-2.1070875447e+00
 5.8609910348e-01	 1.1107338328e+00	-2.1531420311e+00
 5.7549706924e-01	 1.1162638020e+00	-2.1978590698e+00
 5.6485869729e-01	 1.1216846043e+00	-2.2405156901e+00
 5.5418562706e-01	 1.1269959809e+00	-2.2815562535e+00
 5.4347949760e-01	 1.1321977046e+00	-2.3214307745e+00
 6.5341500165e-01	 1.0828342824e+00	-1.9087251013e+00
 6.4299263775e-01	 1.0890554195e+00	-1.9499667075e+00
 6.3252380994e-01	 1.0951688665e+00	-1.9915740363e+00
 6.2201015531e-01	 1.1011741682e+00	-2.0335708878e+00
 6.1145331523e-01	 1.1070709020e+00	-2.0760012706e+00
 6.0085493454e-01	 1.1128586778e+00	-2.1189292692e+00
 5.9021666079e-01	 1.1185371380e+00	-2.1624387873e+00
 5.7954014345e-01	 1.1241059573e+00	-2.2055047187e+00
 5.6882703310e-01	 1.1295648427e+00	-2.2461363935e+00
 5.5807898070e-01	 1.1349135336e+00	-2.2846360759e+00
 5.4729763683e-01	 1.1401518013e+00	-2.3213742768e+00
 5.0911624449e-01	 1.0606108344e+00	-2.3935290447e+00
 4.9905589759e-01	 1.0653815619e+00	-2.4731260863e+00
 4.8896763889e-01	 1.0700491977e+00	-2.5521354028e+00
 4.7885299878e-01	 1.0746136171e+00	-2.6304522232e+00
 4.6871350451e-01	 1.0790747247e+00	-2.7079747101e+00
 4.5855067955e-01	 1.0834324540e+00	-2.7846032952e+00
 4.4836604289e-01	 1.0876867674e+00	-2.8602400133e+00
 4.3816110842e-01	 1.0918376557e+00	-2.9347878417e+00
 4.2793738427e-01	 1.0958851383e+00	-3.0081500491e+00
 4.1769637217e-01	 1.0998292624e+00	-3.0802295577e+00
 4.0743956688e-01	 1.1036701029e+00	-3.1509283233e+00
 5.1293438373e-01	 1.0685649311e+00	-2.3804417924e+00
 5.0279858882e-01	 1.0733714369e+00	-2.4545880291e+00
 4.9263467278e-01	 1.0780740778e+00	-2.5283416132e+00
 4.8244417749e-01	 1.0826727283e+00	-2.6015857722e+00
 4.7222864165e-01	 1.0871672922e+00	-2.6742076423e+00
 4.6198960015e-01	 1.0915577024e+00	-2.7460975757e+00
 4.5172858337e-01	 1.0958439212e+00	-2.8171484455e+00
 4.4144711655e-01	 1.1000259393e+00	-2.8872549546e+00
 4.3114671914e-01	 1.1041037761e+00	-2.9563129538e+00
 4.2082890413e-01	 1.1080774793e+00	-3.0242187717e+00
 4.1049517748e-01	 1.1119471245e+00	-3.0908685641e+00
 5.1675252296e-01	 1.0765190278e+00	-2.3684004820e+00
 5.0654128004e-01	 1.0813613118e+00	-2.4373689652e+00
 4.9630170668e-01	 1.0860989579e+00	-2.5060648339e+00
 4.8603535621e-01	 1.0907318395e+00	-2.5743663170e+00
 4.7574377880e-01	 1.0952598596e+00	-2.6421562486e+00
 4.6542852075e-01	 1.0996829508e+00	-2.7093213398e+00
 4.5509112384e-01	 1.1040010750e+00	-2.7757514484e+00
 4.4473312468e-01	 1.1082142229e+00	-2.8413388514e+00
 4.3435605401e-01	 1.1123224140e+00	-2.9059775264e+00
 4.2396143609e-01	 1.1163256963e+00	-2.9695624461e+00
 4.1355078809e-01	 1.1202241460e+00	-3.0319888902e+00
 5.2057066219e-01	 1.0844731245e+00	-2.3574922724e+00
 5.1028397127e-01	 1.0893511868e+00	-2.4215331109e+00
 4.9996874058e-01	 1.0941238380e+00	-2.4853412250e+00
 4.8962653493e-01	 1.0987909506e+00	-2.5487967426e+00
 4.7925891594e-01	 1.1033524270e+00	-2.6117848190e+00
 4.6886744135e-01	 1.1078081992e+00	-2.6741948668e+00
 4.5845366432e-01	 1.1121582288e+00	-2.7359197831e+00
 4.4801913281e-01	 1.1164025065e+00	-2.7968551806e+00
 4.3756538888e-01	 1.1205410518e+00	-2.8568986269e+00
 4.2709396805e-01	 1.1245739133e+00	-2.9159488972e+00
 4.1660639869e-01	 1.1285011675e+00	-2.9739052467e+00
 5.2438880143e-01	 1.0924272212e+00	-2.3478098507e+00
 5.1402666250e-01	 1.0973410618e+00	-2.4071504248e+00
 5.0363577447e-01	 1.1021487181e+00	-2.4662130487e+00
 4.9321771364e-01	 1.1068500618e+00	-2.5248865455e+00
 4.8277405308e-01	 1.1114449944e+00	-2.5830649186e+00
 4.7230636194e-01	 1.1159334476e+00	-2.6406465323e+00
 4.6181620480e-01	 1.1203153826e+00	-2.6975332906e+00
 4.5130514094e-01	 1.1245907900e+00	-2.7536298203e+00
 4.4077472375e-01	 1.1287596897e+00	-2.8088426628e+00
 4.3022650000e-01	 1.1328221303e+00	-2.8630794813e+00
 4.1966200929e-01	 1.1367781891e+00	-2.9162482871e+00
 5.2820694066e-01	 1.1003813179e+00	-2.3394515528e+00
 5.1776935373e-01	 1.1053309367e+00	-2.3942967095e+00
 5.0730280837e-01	 1.1101735982e+00	-2.4487287457e+00
 4.9680889236e-01	 1.1149091730e+00	-2.5026518797e+00
 4.8628919022e-01	 1.1195375619e+00	-2.5559753971e+00
 4.7574528254e-01	 1.1240586961e+00	-2.6086127762e+00
 4.6517874528e-01	 1.1284725364e+00	-2.6604808118e+00
 4.5459114907e-01	 1.1327790736e+00	-2.7114987437e+00
 4.4398405862e-01	 1.1369783275e+00	-2.7615873965e+00
 4.3335903196e-01	 1.1410703473e+00	-2.8106683347e+00
 4.2271761990e-01	 1.1450552106e+00	-2.8586630411e+00
 5.3202507990e-01	 1.1083354146e+00	-2.3325214840e+00
 5.2151204496e-01	 1.1133208117e+00	-2.3830537125e+00
 5.1096984227e-01	 1.1181984783e+00	-2.4329430128e+00
 5.0040007108e-01	 1.1229682841e+00	-2.4821156048e+00
 4.8980432737e-01	 1.1276301293e+00	-2.5305024025e+00
 4.7918420314e-01	 1.1321839445e+00	-2.5780380762e+00
 4.6854128575e-01	 1.1366296903e+00	-2.6246601150e+00
 4.5787715720e-01	 1.1409673572e+00	-2.6703078956e+00
 4.4719339349e-01	 1.1451969654e+00	-2.7149217628e+00
 4.3649156392e-01	 1.1493185642e+00	-2.7584421296e+00
 4.2577323050e-01	 1.1533322321e+00	-2.8008086004e+00
 5.3584321913e-01	 1.1162895113e+00	-2.3271296393e+00
 5.2525473618e-01	 1.1213106867e+00	-2.3735092294e+00
 5.1463687617e-01	 1.1262233584e+00	-2.4189168821e+00
 5.0399124980e-01	 1.1310273953e+00	-2.4633073372e+00
 4.9331946451e-01	 1.1357226967e+00	-2.5066393984e+00
 4.8262312374e-01	 1.1403091929e+00	-2.5488749260e+00
 4.7190382623e-01	 1.1447868441e+00	-2.5899778309e+00
 4.6116316533e-01	 1.1491556408e+00	-2.6299130774e+00
 4.5040272836e-01	 1.1534156033e+00	-2.6686457003e+00
 4.3962409588e-01	 1.1575667812e+00	-2.7061398428e+00
 4.2882884110e-01	 1.1616092537e+00	-2.7423578220e+00
 5.3966135836e-01	 1.1242436080e+00	-2.3233920242e+00
 5.2899742741e-01	 1.1293005616e+00	-2.3657572056e+00
 5.1830391006e-01	 1.1342482385e+00	-2.4067178009e+00
 5.0758242851e-01	 1.1390865064e+00	-2.4462635029e+00
 4.9683460165e-01	 1.1438152642e+00	-2.4843871856e+00
 4.8606204434e-01	 1.1484344413e+00	-2.5210838200e+00
 4.7526636670e-01	 1.1529439979e+00	-2.5563493939e+00
 4.6444917346e-01	 1.1573439244e+00	-2.5901798415e+00
 4.5361206322e-01	 1.1616342411e+00	-2.6225699916e+00
 4.4275662783e-01	 1.1658149982e+00	-2.6535125392e+00
 4.3188445171e-01	 1.1698862752e+00	-2.6829970470e+00
 5.4347949760e-01	 1.1321977046e+00	-2.3214307745e+00
 5.3274011864e-01	 1.1372904366e+00	-2.3598978405e+00
 5.2197094396e-01	 1.1422731186e+00	-2.3964197143e+00
 5.1117360723e-01	 1.1471456176e+00	-2.4310273935e+00
 5.0034973879e-01	 1.1519078316e+00	-2.4637539262e+00
 4.8950096493e-01	 1.1565596897e+00	-2.4946332420e+00
 4.7862890718e-01	 1.1611011517e+00	-2.5236989906e+00
 4.6773518159e-01	 1.1655322079e+00	-2.5509833933e+00
 4.5682139809e-01	 1.1698528790e+00	-2.5765161157e+00
 4.4588915979e-01	 1.1740632152e+00	-2.6003231672e+00
 4.3494006231e-01	 1.1781632967e+00	-2.6227557558e+00
 5.4729763683e-01	 1.1401518013e+00	-2.3213742768e+00
 5.3648280987e-01	 1.1452803116e+00	-2.3560376908e+00
 5.2563797785e-01	 1.1502979987e+00	-2.3881031472e+00
 5.1476478594e-01	 1.1552047288e+00	-2.4176492237e+00
 5.0386487593e-01	 1.1600003990e+00	-2.4447551719e+00
 4.9293988553e-01	 1.1646849381e+00	-2.4694996585e+00
 4.8199144765e-01	 1.1692583055e+00	-2.4919595144e+00
 4.7102118972e-01	 1.1737204915e+00	-2.5122085027e+00
 4.6003073296e-01	 1.1780715168e+00	-2.5306103197e+00
 4.4902169174e-01	 1.1823114322e+00	-2.5503898502e+00
 4.3799567291e-01	 1.1864403182e+00	-2.5722030663e+00
 4.0743956688e-01	 1.1036701029e+00	-3.1509283233e+00
 3.9717020246e-01	 1.1074071358e+00	-3.2202949999e+00
 3.8688801453e-01	 1.1110411513e+00	-3.2884657675e+00
 3.7659447202e-01	 1.1145723051e+00	-3.3554299510e+00
 3.6629103455e-01	 1.1180007791e+00	-3.4211669343e+00
 3.5597915182e-01	 1.1213267811e+00	-3.4856456899e+00
 3.4566026314e-01	 1.1245505449e+00	-3.5488243552e+00
 3.3533579683e-01	 1.1276723292e+00	-3.6106498590e+00
 3.2500716977e-01	 1.1306924180e+00	-3.6710575986e+00
 3.1467578686e-01	 1.1336111194e+00	-3.7299711700e+00
 3.0434304055e-01	 1.1364287657e+00	-3.7873021531e+00
 4.1049517748e-01	 1.1119471245e+00	-3.0908685641e+00
 4.0014879752e-01	 1.1157121833e+00	-3.1562275223e+00
 3.8978949788e-01	 1.1193734524e+00	-3.2203512892e+00
 3.7941875851e-01	 1.1229310882e+00	-3.2832286286e+00
 3.6903804996e-01	 1.1263852741e+00	-3.3448360270e+00
 3.5864883283e-01	 1.1297362197e+00	-3.4051372381e+00
 3.4825255719e-01	 1.1329841602e+00	-3.4640828775e+00
 3.3785066210e-01	 1.1361293565e+00	-3.5216100716e+00
 3.2744457506e-01	 1.1391720945e+00	-3.5776421620e+00
 3.1703571149e-01	 1.1421126848e+00	-3.6320884663e+00
 3.0662547430e-01	 1.1449514623e+00	-3.6848440979e+00
 4.1355078809e-01	 1.1202241460e+00	-3.0319888902e+00
 4.0312739258e-01	 1.1240172309e+00	-3.0931152177e+00
 3.9269098123e-01	 1.1277057534e+00	-3.1528954448e+00
 3.8224304499e-01	 1.1312898713e+00	-3.2113262389e+00
 3.7178506537e-01	 1.1347697692e+00	-3.2683899895e+00
 3.6131851383e-01	 1.1381456582e+00	-3.3240543484e+00
 3.5084485124e-01	 1.1414177755e+00	-3.3782718245e+00
 3.4036552737e-01	 1.1445863837e+00	-3.4309794371e+00
 3.2988198034e-01	 1.1476517711e+00	-3.4820984281e+00
 3.1939563612e-01	 1.1506142503e+00	-3.5315340354e+00
 3.0890790806e-01	 1.1534741588e+00	-3.5791753288e+00
 4.1660639869e-01	 1.1285011675e+00	-2.9739052467e+00
 4.0610598765e-01	 1.1323222785e+00	-3.0305036021e+00
 3.9559246458e-01	 1.1360380544e+00	-3.0855829351e+00
 3.8506733148e-01	 1.1396486543e+00	-3.1391561005e+00
 3.7453208078e-01	 1.1431542643e+00	-3.1912200041e+00
 3.6398819483e-01	 1.1465550968e+00	-3.2417551203e+00
 3.5343714529e-01	 1.1498513908e+00	-3.2907250695e+00
 3.4288039264e-01	 1.1530434110e+00	-3.3380762560e+00
 3.3231938563e-01	 1.1561314476e+00	-3.3837375707e+00
 3.2175556076e-01	 1.1591158158e+00	-3.4276201585e+00
 3.1119034182e-01	 1.1619968554e+00	-3.4696172516e+00
 4.1966200929e-01	 1.1367781891e+00	-2.9162482871e+00
 4.0908458271e-01	 1.1406273260e+00	-2.9679545191e+00
 3.9849394793e-01	 1.1443703554e+00	-3.0179161375e+00
 3.8789161796e-01	 1.1480074374e+00	-3.0661702930e+00
 3.7727909619e-01	 1.1515387593e+00	-3.1127368406e+00
 3.6665787583e-01	 1.1549645353e+00	-3.1576178169e+00
 3.5602943934e-01	 1.1582850061e+00	-3.2007969802e+00
 3.4539525791e-01	 1.1615004383e+00	-3.2422394170e+00
 3.3475679091e-01	 1.1646111242e+00	-3.2818912153e+00
 3.2411548539e-01	 1.1676173813e+00	-3.3196792081e+00
 3.1347277557e-01	 1.1705195519e+00	-3.3555107872e+00
 4.2271761990e-01	 1.1450552106e+00	-2.8586630411e+00
 4.1206317777e-01	 1.1489323736e+00	-2.9050457382e+00
 4.0139543128e-01	 1.1527026565e+00	-2.9494146435e+00
 3.9071590445e-01	 1.1563662205e+00	-2.9918391437e+00
 3.8002611160e-01	 1.1599232544e+00	-3.0323703022e+00
 3.6932755683e-01	 1.1633739739e+00	-3.0710402774e+00
 3.5862173339e-01	 1.1667186214e+00	-3.1078618089e+00
 3.4791012318e-01	 1.1699574655e+00	-3.1428277728e+00
 3.3719419620e-01	 1.1730908007e+00	-3.1759108089e+00
 3.2647541002e-01	 1.1761189468e+00	-3.2070630218e+00
 3.1575520933e-01	 1.1790422484e+00	-3.2369621922e+00
 4.2577323050e-01	 1.1533322321e+00	-2.8008086004e+00
 4.1504177283e-01	 1.1572374212e+00	-2.8413705726e+00
 4.0429691463e-01	 1.1610349575e+00	-2.8796148189e+00
 3.9354019093e-01	 1.1647250035e+00	-2.9156507393e+00
 3.8277312701e-01	 1.1683077494e+00	-2.9495686967e+00
 3.7199723783e-01	 1.1717834124e+00	-2.9814393589e+00
 3.6121402744e-01	 1.1751522367e+00	-3.0113131117e+00
 3.5042498845e-01	 1.1784144928e+00	-3.0396493053e+00
 3.3963160148e-01	 1.1815704773e+00	-3.0681771973e+00
 3.2883533466e-01	 1.1846205122e+00	-3.0968325948e+00
 3.1803764309e-01	 1.1875649450e+00	-3.1253196259e+00
 4.2882884110e-01	 1.1616092537e+00	-2.7423578220e+00
 4.1802036789e-01	 1.1655424687e+00	-2.7765375178e+00
 4.0719839798e-01	 1.1693672585e+00	-2.8080693862e+00
 3.9636447741e-01	 1.1730837866e+00	-2.8371104612e+00
 3.8552014242e-01	 1.1766922445e+00	-2.8638025553e+00
 3.7466691883e-01	 1.1801928510e+00	-2.8898662048e+00
 3.6380632149e-01	 1.1835858520e+00	-2.9165015418e+00
 3.5293985372e-01	 1.1868715201e+00	-2.9434957755e+00
 3.4206900677e-01	 1.1900501538e+00	-2.9706184508e+00
 3.3119525929e-01	 1.1931220777e+00	-2.9976222174e+00
 3.2032007684e-01	 1.1960876415e+00	-3.0242436202e+00
 4.3188445171e-01	 1.1698862752e+00	-2.6829970470e+00
 4.2099896296e-01	 1.1738475163e+00	-2.7101699082e+00
 4.1009988133e-01	 1.1776995595e+00	-2.7345179638e+00
 3.9918876390e-01	 1.1814425697e+00	-2.7586537689e+00
 3.8826715783e-01	 1.1850767395e+00	-2.7833069130e+00
 3.7733659983e-01	 1.1886022895e+00	-2.8083430509e+00
 3.6639861554e-01	 1.1920194673e+00	-2.8336087955e+00
 3.5545471899e-01	 1.1953285473e+00	-2.8589324018e+00
 3.4450641205e-01	 1.1985298304e+00	-2.8841244823e+00
 3.3355518392e-01	 1.2016236432e+00	-2.9089787467e+00
 3.2260251060e-01	 1.2046103380e+00	-2.9332727643e+00
 4.3494006231e-01	 1.1781632967e+00	-2.6227557558e+00
 4.2397755802e-01	 1.1821525639e+00	-2.6457290587e+00
 4.1300136468e-01	 1.1860318606e+00	-2.6689058378e+00
 4.0201305038e-01	 1.1898013527e+00	-2.6922388672e+00
 3.9101417324e-01	 1.1934612346e+00	-2.7156610773e+00
 3.8000628083e-01	 1.1970117281e+00	-2.7390861225e+00
 3.6899090959e-01	 1.2004530826e+00	-2.7624089874e+00
 3.5796958425e-01	 1.2037855746e+00	-2.7855066279e+00
 3.4694381733e-01	 1.2070095069e+00	-2.8082386418e+00
 3.3591510855e-01	 1.2101252087e+00	-2.8304479663e+00
 3.2488494435e-01	 1.2131330346e+00	-2.8519615961e+00
 4.3799567291e-01	 1.1864403182e+00	-2.5722030663e+00
 4.2695615308e-01	 1.1904576115e+00	-2.5947645287e+00
 4.1590284802e-01	 1.1943641616e+00	-2.6169968615e+00
 4.0483733686e-01	 1.1981601358e+00	-2.6389062397e+00
 3.9376118865e-01	 1.2018457296e+00	-2.6604797724e+00
 3.8267596183e-01	 1.2054211666e+00	-2.6816860121e+00
 3.7158320363e-01	 1.2088866979e+00	-2.7024755028e+00
 3.6048444952e-01	 1.2122426019e+00	-2.7227813629e+00
 3.4938122261e-01	 1.2154891835e+00	-2.7425198984e+00
 3.3827503318e-01	 1.2186267741e+00	-2.7615912421e+00
 3.2716737810e-01	 1.2216557311e+00	-2.7798800153e+00
 3.0434304055e-01	 1.1364287657e+00	-3.7873021531e+00
 2.9401031052e-01	 1.1391457133e+00	-3.8427614473e+00
 2.8367896364e-01	 1.1417623423e+00	-3.8961413698e+00
 2.7335035306e-01	 1.1442790561e+00	-3.9474569816e+00
 2.6302581766e-01	 1.1466962804e+00	-3.9967105080e+00
 2.5270668167e-01	 1.1490144625e+00	-4.0438912306e+00
 2.4239425423e-01	 1.1512340711e+00	-4.0889754377e+00
 2.3208982905e-01	 1.1533555958e+00	-4.1319264350e+00
 2.2179468403e-01	 1.1553795464e+00	-4.1726946137e+00
 2.1151008095e-01	 1.1573064529e+00	-4.2112175760e+00
 2.0123726509e-01	 1.1591368644e+00	-4.2474203161e+00
 3.0662547430e-01	 1.1449514623e+00	-3.6848440979e+00
 2.9621525352e-01	 1.1476887857e+00	-3.7356300246e+00
 2.8580642626e-01	 1.1503250382e+00	-3.7842800296e+00
 2.7540035582e-01	 1.1528606263e+00	-3.8308372581e+00
 2.6499839113e-01	 1.1552959786e+00	-3.8753307571e+00
 2.5460186633e-01	 1.1576315460e+00	-3.9177753369e+00
 2.4421210040e-01	 1.1598678006e+00	-3.9581714964e+00
 2.3383039673e-01	 1.1620052358e+00	-3.9965054125e+00
 2.2345804283e-01	 1.1640443652e+00	-4.0327489905e+00
 2.1309630992e-01	 1.1659857226e+00	-4.0668599772e+00
 2.0274645264e-01	 1.1678298613e+00	-4.0987821321e+00
 3.0890790806e-01	 1.1534741588e+00	-3.5791753288e+00
 2.9842019653e-01	 1.1562318581e+00	-3.6247760300e+00
 2.8793388888e-01	 1.1588877341e+00	-3.6682264215e+00
 2.7745035858e-01	 1.1614421964e+00	-3.7095968158e+00
 2.6697096459e-01	 1.1638956768e+00	-3.7489421398e+00
 2.5649705099e-01	 1.1662486295e+00	-3.7863017671e+00
 2.4602994656e-01	 1.1685015302e+00	-3.8216994187e+00
 2.3557096441e-01	 1.1706548758e+00	-3.8551431314e+00
 2.2512140163e-01	 1.1727091839e+00	-3.8866252930e+00
 2.1468253889e-01	 1.1746649922e+00	-3.9161227424e+00
 2.0425564018e-01	 1.1765228582e+00	-3.9435969716e+00
 3.1119034182e-01	 1.1619968554e+00	-3.4696172516e+00
 3.0062513953e-01	 1.1647749305e+00	-3.5095341310e+00
 2.9006135150e-01	 1.1674504301e+00	-3.5473289097e+00
 2.7950036134e-01	 1.1700237665e+00	-3.5830981976e+00
 2.6894353805e-01	 1.1724953750e+00	-3.6169219047e+00
 2.5839223564e-01	 1.1748657130e+00	-3.6488630457e+00
 2.4784779272e-01	 1.1771352598e+00	-3.6790116339e+00
 2.3731153209e-01	 1.1793045158e+00	-3.7081228211e+00
 2.2678476042e-01	 1.1813740027e+00	-3.7363359284e+00
 2.1626876786e-01	 1.1833442619e+00	-3.7634843704e+00
 2.0576482773e-01	 1.1852158551e+00	-3.7893950226e+00
 3.1347277557e-01	 1.1705195519e+00	-3.3555107872e+00
 3.0283008253e-01	 1.1733180029e+00	-3.3892578315e+00
 2.9218881412e-01	 1.1760131260e+00	-3.4209540233e+00
 2.8155036410e-01	 1.1786053367e+00	-3.4512222193e+00
 2.7091611151e-01	 1.1810950732e+00	-3.4810368431e+00
 2.6028742030e-01	 1.1834827965e+00	-3.5103066743e+00
 2.4966563888e-01	 1.1857689893e+00	-3.5389040142e+00
 2.3905209977e-01	 1.1879541559e+00	-3.5666926408e+00
 2.2844811922e-01	 1.1900388214e+00	-3.5935282638e+00
 2.1785499683e-01	 1.1920235315e+00	-3.6192589811e+00
 2.0727401527e-01	 1.1939088520e+00	-3.6437257352e+00
 3.1575520933e-01	 1.1790422484e+00	-3.2369621922e+00
 3.0503502553e-01	 1.1818610753e+00	-3.2666247895e+00
 2.9431627674e-01	 1.1845758219e+00	-3.2959444815e+00
 2.8360036685e-01	 1.1871869068e+00	-3.3248391054e+00
 2.7288868497e-01	 1.1896947714e+00	-3.3532160082e+00
 2.6218260495e-01	 1.1920998801e+00	-3.3809724914e+00
 2.5148348504e-01	 1.1944027189e+00	-3.4079962632e+00
 2.4079266745e-01	 1.1966037959e+00	-3.4341658971e+00
 2.3011147801e-01	 1.1987036401e+00	-3.4593512927e+00
 2.1944122580e-01	 1.2007028012e+00	-3.4834141390e+00
 2.0878320282e-01	 1.2026018489e+00	-3.5062083763e+00
 3.1803764309e-01	 1.1875649450e+00	-3.1253196259e+00
 3.0723996853e-01	 1.1904041477e+00	-3.1534202531e+00
 2.9644373936e-01	 1.1931385178e+00	-3.1810829687e+00
 2.8565036961e-01	 1.1957684769e+00	-3.2082417147e+00
 2.7486125843e-01	 1.1982944697e+00	-3.2348193249e+00
 2.6407778961e-01	 1.2007169636e+00	-3.2607279778e+00
 2.5330133120e-01	 1.2030364485e+00	-3.2858696579e+00
 2.4253323513e-01	 1.2052534359e+00	-3.3101366219e+00
 2.3177483681e-01	 1.2073684589e+00	-3.3334118683e+00
 2.2102745477e-01	 1.2093820709e+00	-3.3555696079e+00
 2.1029239036e-01	 1.2112948458e+00	-3.3764757347e+00
 3.2032007684e-01	 1.1960876415e+00	-3.0242436202e+00
 3.0944491153e-01	 1.1989472201e+00	-3.0503449648e+00
 2.9857120198e-01	 1.2017012138e+00	-3.0759438901e+00
 2.8770037237e-01	 1.2043500471e+00	-3.1009892878e+00
 2.7683383189e-01	 1.2068941679e+00	-3.1254183368e+00
 2.6597297426e-01	 1.2093340471e+00	-3.1491569664e+00
 2.5511917736e-01	 1.2116701780e+00	-3.1721203284e+00
 2.4427380281e-01	 1.2139030760e+00	-3.1942132731e+00
 2.3343819560e-01	 1.2160332776e+00	-3.2153308289e+00
 2.2261368374e-01	 1.2180613405e+00	-3.2353586828e+00
 2.1180157791e-01	 1.2199878427e+00	-3.2541736602e+00
 3.2260251060e-01	 1.2046103380e+00	-2.9332727643e+00
 3.1164985453e-01	 1.2074902925e+00	-2.9569496391e+00
 3.0069866460e-01	 1.2102639097e+00	-2.9800899993e+00
 2.8975037513e-01	 1.2129316172e+00	-3.0026565519e+00
 2.7880640535e-01	 1.2154938661e+00	-3.0245996998e+00
 2.6786815891e-01	 1.2179511306e+00	-3.0458580180e+00
 2.5693702352e-01	 1.2203039076e+00	-3.0663587373e+00
 2.4601437049e-01	 1.2225527160e+00	-3.0860182332e+00
 2.3510155439e-01	 1.2246980963e+00	-3.1047425170e+00
 2.2419991271e-01	 1.2267406102e+00	-3.1224277273e+00
 2.1331076545e-01	 1.2286808396e+00	-3.1389606210e+00
 3.2488494435e-01	 1.2131330346e+00	-2.8519615961e+00
 3.1385479753e-01	 1.2160333649e+00	-2.8728006069e+00
 3.0282612722e-01	 1.2188266056e+00	-2.8930993275e+00
 2.9180037789e-01	 1.2215131873e+00	-2.9128331651e+00
 2.8077897881e-01	 1.2240935643e+00	-2.9319646453e+00
 2.6976334357e-01	 1.2265682141e+00	-2.9504439027e+00
 2.5875486968e-01	 1.2289376372e+00	-2.9682091796e+00
 2.4775493816e-01	 1.2312023560e+00	-2.9851873284e+00
 2.3676491319e-01	 1.2333629151e+00	-3.0012943164e+00
 2.2578614168e-01	 1.2354198798e+00	-3.0164357305e+00
 2.1481995300e-01	 1.2373738365e+00	-3.0305072799e+00
 3.2716737810e-01	 1.2216557311e+00	-2.7798800153e+00
 3.1605974053e-01	 1.2245764373e+00	-2.7974792463e+00
 3.0495358983e-01	 1.2273893016e+00	-2.8145646319e+00
 2.9385038065e-01	 1.2300947574e+00	-2.8311231825e+00
 2.8275155227e-01	 1.2326932625e+00	-2.8471284632e+00
 2.7165852822e-01	 1.2351852976e+00	-2.8625411015e+00
 2.6057271584e-01	 1.2375713667e+00	-2.8773093022e+00
 2.4949550584e-01	 1.2398519961e+00	-2.8913693657e+00
 2.3842827199e-01	 1.2420277338e+00	-2.9046462080e+00
 2.2737237065e-01	 1.2440991495e+00	-2.9170538804e+00
 2.1632914054e-01	 1.2460668334e+00	-2.9284960857e+00
 2.0123726509e-01	 1.1591368644e+00	-4.2474203161e+00
 1.9097572234e-01	 1.1608716354e+00	-4.2815817778e+00
 1.8072841450e-01	 1.1625110326e+00	-4.3140191694e+00
 1.7049653892e-01	 1.1640556597e+00	-4.3447140000e+00
 1.6028127524e-01	 1.1655061378e+00	-4.3736354282e+00
 1.5008378517e-01	 1.1668631048e+00	-4.4007405643e+00
 1.3990521226e-01	 1.1681272149e+00	-4.4259748178e+00
 1.2974668168e-01	 1.1692991383e+00	-4.4492722909e+00
 1.1960930001e-01	 1.1703795604e+00	-4.4705562129e+00
 1.0949415507e-01	 1.1713691813e+00	-4.4897394130e+00
 9.9402315743e-02	 1.1722687154e+00	-4.5067248295e+00
 2.0274645264e-01	 1.1678298613e+00	-4.0987821321e+00
 1.9240795300e-01	 1.1695776423e+00	-4.1288199525e+00
 1.8208379504e-01	 1.1712293342e+00	-4.1573108778e+00
 1.7177518507e-01	 1.1727855453e+00	-4.1842432916e+00
 1.6148331157e-01	 1.1742469013e+00	-4.2095922674e+00
 1.5120934499e-01	 1.1756140449e+00	-4.2333198794e+00
 1.4095443743e-01	 1.1768876353e+00	-4.2553899387e+00
 1.3071972251e-01	 1.1780683476e+00	-4.2759318470e+00
 1.2050631511e-01	 1.1791568724e+00	-4.2948741065e+00
 1.1031531121e-01	 1.1801539149e+00	-4.3120641548e+00
 1.0014778769e-01	 1.1810601952e+00	-4.3273471040e+00
 2.0425564018e-01	 1.1765228582e+00	-3.9435969716e+00
 1.9384018366e-01	 1.1782836492e+00	-3.9697116061e+00
 1.8343917558e-01	 1.1799476358e+00	-3.9950587332e+00
 1.7305383121e-01	 1.1815154309e+00	-4.0195126936e+00
 1.6268534791e-01	 1.1829876649e+00	-4.0429434443e+00
 1.5233490480e-01	 1.1843649851e+00	-4.0652168578e+00
 1.4200366260e-01	 1.1856480558e+00	-4.0861950181e+00
 1.3169276334e-01	 1.1868375570e+00	-4.1057365120e+00
 1.2140333021e-01	 1.1879341844e+00	-4.1236967153e+00
 1.1113646734e-01	 1.1889386486e+00	-4.1399280739e+00
 1.0089325965e-01	 1.1898516750e+00	-4.1542803789e+00
 2.0576482773e-01	 1.1852158551e+00	-3.7893950226e+00
 1.9527241433e-01	 1.1869896561e+00	-3.8142891229e+00
 1.8479455611e-01	 1.1886659375e+00	-3.8384208855e+00
 1.7433247735e-01	 1.1902453166e+00	-3.8616711010e+00
 1.6388738424e-01	 1.1917284284e+00	-3.8839157584e+00
 1.5346046462e-01	 1.1931159253e+00	-3.9050263514e+00
 1.4305288777e-01	 1.1944084762e+00	-3.9248701789e+00
 1.3266580417e-01	 1.1956067663e+00	-3.9433106417e+00
 1.2230034531e-01	 1.1967114963e+00	-3.9602075333e+00
 1.1195762348e-01	 1.1977233823e+00	-3.9754173253e+00
 1.0163873160e-01	 1.1986431547e+00	-3.9887934462e+00
 2.0727401527e-01	 1.1939088520e+00	-3.6437257352e+00
 1.9670464499e-01	 1.1956956630e+00	-3.6671785069e+00
 1.8614993665e-01	 1.1973842391e+00	-3.6898958536e+00
 1.7561112350e-01	 1.1989752022e+00	-3.7117644588e+00
 1.6508942057e-01	 1.2004691920e+00	-3.7326657150e+00
 1.5458602443e-01	 1.2018668655e+00	-3.7524760377e+00
 1.4410211294e-01	 1.2031688966e+00	-3.7710671746e+00
 1.3363884500e-01	 1.2043759756e+00	-3.7883065094e+00
 1.2319736041e-01	 1.2054888083e+00	-3.8040573602e+00
 1.1277877961e-01	 1.2065081160e+00	-3.8181792715e+00
 1.0238420355e-01	 1.2074346345e+00	-3.8305282996e+00
 2.0878320282e-01	 1.2026018489e+00	-3.5062083763e+00
 1.9813687565e-01	 1.2044016699e+00	-3.5280115627e+00
 1.8750531718e-01	 1.2061025407e+00	-3.5491258859e+00
 1.7688976964e-01	 1.2077050878e+00	-3.5694433864e+00
 1.6629145690e-01	 1.2092099555e+00	-3.5888502530e+00
 1.5571158425e-01	 1.2106178056e+00	-3.6072271479e+00
 1.4515133811e-01	 1.2119293170e+00	-3.6244495260e+00
 1.3461188583e-01	 1.2131451849e+00	-3.6403879494e+00
 1.2409437551e-01	 1.2142661203e+00	-3.6549083955e+00
 1.1359993575e-01	 1.2152928497e+00	-3.6678725583e+00
 1.0312967550e-01	 1.2162261143e+00	-3.6791381428e+00
 2.1029239036e-01	 1.2112948458e+00	-3.3764757347e+00
 1.9956910631e-01	 1.2131076767e+00	-3.3964331421e+00
 1.8886069772e-01	 1.2148208423e+00	-3.4157658514e+00
 1.7816841578e-01	 1.2164349734e+00	-3.4343707441e+00
 1.6749349324e-01	 1.2179507190e+00	-3.4521382196e+00
 1.5683714407e-01	 1.2193687458e+00	-3.4689525335e+00
 1.4620056328e-01	 1.2206897375e+00	-3.4846921312e+00
 1.3558492667e-01	 1.2219143942e+00	-3.4992299745e+00
 1.2499139061e-01	 1.2230434323e+00	-3.5124338619e+00
 1.1442109188e-01	 1.2240775834e+00	-3.5241667419e+00
 1.0387514745e-01	 1.2250175941e+00	-3.5342870189e+00
 2.1180157791e-01	 1.2199878427e+00	-3.2541736602e+00
 2.0100133697e-01	 1.2218136836e+00	-3.2721007028e+00
 1.9021607825e-01	 1.2235391440e+00	-3.2894828162e+00
 1.7944706192e-01	 1.2251648591e+00	-3.3062212253e+00
 1.6869552957e-01	 1.2266914826e+00	-3.3222099746e+00
 1.5796270388e-01	 1.2281196860e+00	-3.3373362830e+00
 1.4724978844e-01	 1.2294501579e+00	-3.3514808924e+00
 1.3655796750e-01	 1.2306836035e+00	-3.3645184102e+00
 1.2588840571e-01	 1.2318207443e+00	-3.3763176446e+00
 1.1524224802e-01	 1.2328623171e+00	-3.3867419315e+00
 1.0462061940e-01	 1.2338090739e+00	-3.3956494547e+00
 2.1331076545e-01	 1.2286808396e+00	-3.1389606210e+00
 2.0243356764e-01	 1.2305196905e+00	-3.1546838852e+00
 1.9157145879e-01	 1.2322574456e+00	-3.1699556366e+00
 1.8072570807e-01	 1.2338947447e+00	-3.1846809646e+00
 1.6989756590e-01	 1.2354322461e+00	-3.1987570131e+00
 1.5908826370e-01	 1.2368706262e+00	-3.2120733545e+00
 1.4829901361e-01	 1.2382105783e+00	-3.2245123568e+00
 1.3753100833e-01	 1.2394528128e+00	-3.2359495434e+00
 1.2678542081e-01	 1.2405980563e+00	-3.2462539459e+00
 1.1606340415e-01	 1.2416470508e+00	-3.2552884477e+00
 1.0536609135e-01	 1.2426005537e+00	-3.2629101202e+00
 2.1481995300e-01	 1.2373738365e+00	-3.0305072799e+00
 2.0386579830e-01	 1.2392256974e+00	-3.0438641063e+00
 1.9292683932e-01	 1.2409757472e+00	-3.0568745700e+00
 1.8200435421e-01	 1.2426246303e+00	-3.0694471626e+00
 1.7109960223e-01	 1.2441730097e+00	-3.0814816014e+00
 1.6021382351e-01	 1.2456215664e+00	-3.0928692233e+00
 1.4934823878e-01	 1.2469709987e+00	-3.1034933735e+00
 1.3850404916e-01	 1.2482220222e+00	-3.1132297855e+00
 1.2768243591e-01	 1.2493753683e+00	-3.1219469531e+00
 1.1688456029e-01	 1.2504317845e+00	-3.1295064935e+00
 1.0611156330e-01	 1.2513920335e+00	-3.1357635017e+00
 2.1632914054e-01	 1.2460668334e+00	-2.9284960857e+00
 2.0529802896e-01	 1.2479317043e+00	-2.9393341693e+00
 1.9428221986e-01	 1.2496940488e+00	-2.9499408993e+00
 1.8328300036e-01	 1.2513545159e+00	-2.9602277252e+00
 1.7230163857e-01	 1.2529137732e+00	-2.9700964290e+00
 1.6133938333e-01	 1.2543725065e+00	-2.9794395434e+00
 1.5039746395e-01	 1.2557314192e+00	-2.9881407636e+00
 1.3947708999e-01	 1.2569912315e+00	-2.9960753497e+00
 1.2857945101e-01	 1.2581526803e+00	-3.0031105209e+00
 1.1770571642e-01	 1.2592165182e+00	-3.0091058402e+00
 1.0685703526e-01	 1.2601835133e+00	-3.0139135893e+00
 9.9402315743e-02	 1.1722687154e+00	-4.5067248295e+00
 8.9336537019e-02	 1.1730787607e+00	-4.5219100245e+00
 7.9296111967e-02	 1.1738002187e+00	-4.5357243441e+00
 6.9282028370e-02	 1.1744338428e+00	-4.5480982312e+00
 5.9295255177e-02	 1.1749803987e+00	-4.5589558692e+00
 4.9336742402e-02	 1.1754406638e+00	-4.5682156952e+00
 3.9407421038e-02	 1.1758154265e+00	-4.5757909308e+00
 2.9508202981e-02	 1.1761054862e+00	-4.5815901296e+00
 1.9639980971e-02	 1.1763116521e+00	-4.5855177366e+00
 9.8036285459e-03	 1.1764347433e+00	-4.5874746575e+00
 0.0000000000e+00	 1.1764755882e+00	-4.5873588352e+00
 1.0014778769e-01	 1.1810601952e+00	-4.3273471040e+00
 9.0006520230e-02	 1.1818763155e+00	-4.3411004748e+00
 7.9890796577e-02	 1.1826031841e+00	-4.3537386711e+00
 6.9801611929e-02	 1.1832415601e+00	-4.3651529855e+00
 5.9739942500e-02	 1.1837922149e+00	-4.3752344368e+00
 4.9706745429e-02	 1.1842559317e+00	-4.3838738936e+00
 3.9702958691e-02	 1.1846335050e+00	-4.3909621939e+00
 2.9729501022e-02	 1.1849257400e+00	-4.3963902602e+00
 1.9787271856e-02	 1.1851334520e+00	-4.4000492104e+00
 9.8771512812e-03	 1.1852574664e+00	-4.4018304655e+00
 0.0000000000e+00	 1.1852986176e+00	-4.4016258533e+00
 1.0089325965e-01	 1.1898516750e+00	-4.1542803789e+00
 9.0676503440e-02	 1.1906738703e+00	-4.1671624008e+00
 8.0485481187e-02	 1.1914061494e+00	-4.1790173100e+00
 7.0321195488e-02	 1.1920492773e+00	-4.1897371864e+00
 6.0184629823e-02	 1.1926040311e+00	-4.1992133263e+00
 5.0076748456e-02	 1.1930711997e+00	-4.2073363736e+00
 3.9998496345e-02	 1.1934515835e+00	-4.2139964460e+00
 2.9950799063e-02	 1.1937459938e+00	-4.2190832567e+00
 1.9934562741e-02	 1.1939552520e+00	-4.2224862326e+00
 9.9506740167e-03	 1.1940801895e+00	-4.2240946281e+00
 0.0000000000e+00	 1.1941216471e+00	-4.2237976364e+00
 1.0163873160e-01	 1.1986431547e+00	-3.9887934462e+00
 9.1346486650e-02	 1.1994714250e+00	-4.0007724518e+00
 8.1080165797e-02	 1.2002091148e+00	-4.0118222740e+00
 7.0840779046e-02	 1.2008569946e+00	-4.0218339400e+00
 6.0629317146e-02	 1.2014158472e+00	-4.0306972313e+00
 5.0446751484e-02	 1.2018864676e+00	-4.0383008233e+00
 4.0294033999e-02	 1.2022696620e+00	-4.0445324183e+00
 3.0172097105e-02	 1.2025662476e+00	-4.0492788755e+00
 2.0081853626e-02	 1.2027770520e+00	-4.0524263360e+00
 1.0024196752e-02	 1.2029029126e+00	-4.0538603442e+00
 0.0000000000e+00	 1.2029446765e+00	-4.0534659657e+00
 1.0238420355e-01	 1.2074346345e+00	-3.8305282996e+00
 9.2016469860e-02	 1.2082689798e+00	-3.8415664615e+00
 8.1674850407e-02	 1.2090120802e+00	-3.8517835920e+00
 7.1360362605e-02	 1.2096647118e+00	-3.8610678694e+00
 6.1074004469e-02	 1.2102276634e+00	-3.8693058115e+00
 5.0816754512e-02	 1.2107017356e+00	-3.8763824240e+00
 4.0589571654e-02	 1.2110877405e+00	-3.8821813419e+00
 3.0393395146e-02	 1.2113865014e+00	-3.8865849678e+00
 2.0229144511e-02	 1.2115988519e+00	-3.8894746045e+00
 1.0097719488e-02	 1.2117256357e+00	-3.8907305842e+00
 0.0000000000e+00	 1.2117677059e+00	-3.8902323934e+00
 1.0312967550e-01	 1.2162261143e+00	-3.6791381428e+00
 9.2686453070e-02	 1.2170665345e+00	-3.6891914116e+00
 8.2269535017e-02	 1.2178150455e+00	-3.6985423570e+00
 7.1879946164e-02	 1.2184724291e+00	-3.7070745545e+00
 6.1518691792e-02	 1.2190394796e+00	-3.7146695515e+00
 5.1186757540e-02	 1.2195170035e+00	-3.7212070252e+00
 4.0885109308e-02	 1.2199058190e+00	-3.7265649331e+00
 3.0614693188e-02	 1.2202067552e+00	-3.7306196600e+00
 2.0376435397e-02	 1.2204206519e+00	-3.7332461590e+00
 1.0171242224e-02	 1.2205483588e+00	-3.7343180886e+00
 0.0000000000e+00	 1.2205907353e+00	-3.7337079453e+00
 1.0387514745e-01	 1.2250175941e+00	-3.5342870189e+00
 9.3356436280e-02	 1.2258640893e+00	-3.5433050621e+00
 8.2864219627e-02	 1.2266180109e+00	-3.5517503572e+00
 7.2399529723e-02	 1.2272801463e+00	-3.5595001645e+00
 6.1963379116e-02	 1.2278512958e+00	-3.5664293960e+00
 5.1556760567e-02	 1.2283322715e+00	-3.5724107823e+00
 4.1180646962e-02	 1.2287238975e+00	-3.5773150343e+00
 3.0835991230e-02	 1.2290270091e+00	-3.5810109984e+00
 2.0523726282e-02	 1.2292424519e+00	-3.5833658068e+00
 1.0244764960e-02	 1.2293710819e+00	-3.5842450227e+00
 0.0000000000e+00	 1.2294137647e+00	-3.5835127814e+00
 1.0462061940e-01	 1.2338090739e+00	-3.3956494547e+00
 9.4026419490e-02	 1.2346616440e+00	-3.4035755965e+00
 8.3458904237e-02	 1.2354209763e+00	-3.4110697225e+00
 7.2919113282e-02	 1.2360878636e+00	-3.4180011067e+00
 6.2408066439e-02	 1.2366631119e+00	-3.4242364002e+00
 5.1926763595e-02	 1.2371475394e+00	-3.4296398098e+00
 4.1476184617e-02	 1.2375419760e+00	-3.4340732703e+00
 3.1057289272e-02	 1.2378472629e+00	-3.4373966089e+00
 2.0671017167e-02	 1.2380642518e+00	-3.4394677054e+00
 1.0318287695e-02	 1.2381938050e+00	-3.4401426455e+00
 0.0000000000e+00	 1.2382367941e+00	-3.4392758702e+00
 1.0536609135e-01	 1.2426005537e+00	-3.2629101202e+00
 9.4696402700e-02	 1.2434591988e+00	-3.2696812818e+00
 8.4053588847e-02	 1.2442239416e+00	-3.2761725865e+00
 7.3438696840e-02	 1.2448955809e+00	-3.2822436893e+00
 6.2852753762e-02	 1.2454749281e+00	-3.2877513951e+00
 5.2296766623e-02	 1.2459628074e+00	-3.2925498490e+00
 4.1771722271e-02	 1.2463600545e+00	-3.2964907189e+00
 3.1278587314e-02	 1.2466675167e+00	-3.2994233716e+00
 2.0818308052e-02	 1.2468860518e+00	-3.3011950412e+00
 1.0391810431e-02	 1.2470165281e+00	-3.3016509924e+00
 0.0000000000e+00	 1.2470598236e+00	-3.3006346771e+00
 1.0611156330e-01	 1.2513920335e+00	-3.1357635017e+00
 9.5366385910e-02	 1.2522567536e+00	-3.1413101437e+00
 8.4648273457e-02	 1.2530269070e+00	-3.1467407617e+00
 7.3958280399e-02	 1.2537032981e+00	-3.1519037990e+00
 6.3297441085e-02	 1.2542867443e+00	-3.1566446670e+00
 5.2666769650e-02	 1.2547780753e+00	-3.1608059494e+00
 4.2067259925e-02	 1.2551781330e+00	-3.1642275958e+00
 3.1499885355e-02	 1.2554877705e+00	-3.1667471087e+00
 2.0965598937e-02	 1.2557078518e+00	-3.1681997216e+00
 1.0465333166e-02	 1.2558392512e+00	-3.1684185721e+00
 0.0000000000e+00	 1.2558828530e+00	-3.1672348663e+00
 1.0685703526e-01	 1.2601835133e+00	-3.0139135893e+00
 9.6036369121e-02	 1.2610543083e+00	-3.0181596534e+00
 8.5242958067e-02	 1.2618298723e+00	-3.0224654290e+00
 7.4477863958e-02	 1.2625110154e+00	-3.0266665913e+00
 6.3742128408e-02	 1.2630985605e+00	-3.0305956498e+00
 5.3036772677e-02	 1.2635933433e+00	-3.0340821643e+00
 4.2362797579e-02	 1.2639962115e+00	-3.0369529522e+00
 3.1721183396e-02	 1.2643080243e+00	-3.0390322853e+00
 2.1112889822e-02	 1.2645296518e+00	-3.0401420794e+00
 1.0538855902e-02	 1.2646619743e+00	-3.0401020756e+00
 0.0000000000e+00	 1.2647058824e+00	-3.0387300143e+00
 1.2647058824e+00	 0.0000000000e+00	 3.5884315765e+00
 1.2646619743e+00	 1.0538855902e-02	 3.5877771440e+00
 1.2645296518e+00	 2.1112889822e-02	 3.5856316638e+00
 1.2643080243e+00	 3.1721183396e-02	 3.5820228855e+00
 1.2639962115e+00	 4.2362797579e-02	 3.5769703894e+00
 1.2635933433e+00	 5.3036772677e-02	 3.5704861687e+00
 1.2630985605e+00	 6.3742128408e-02	 3.5625752105e+00
 1.2625110154e+00	 7.4477863958e-02	 3.5532360767e+00
 1.2618298723e+00	 8.5242958067e-02	 3.5424614809e+00
 1.2610543083e+00	 9.6036369121e-02	 3.5302388598e+00
 1.2601835133e+00	 1.0685703526e-01	 3.5165509369e+00
 1.2735289118e+00	 0.0000000000e+00	 3.6178266893e+00
 1.2734846974e+00	 1.0612378637e-02	 3.6171772760e+00
 1.2733514517e+00	 2.1260180706e-02	 3.6149900430e+00
 1.2731282781e+00	 3.1942481437e-02	 3.6112900272e+00
 1.2728142900e+00	 4.2658335232e-02	 3.6060944719e+00
 1.2724086113e+00	 5.3406775704e-02	 3.5994134288e+00
 1.2719103766e+00	 6.4186815730e-02	 3.5912503608e+00
 1.2713187326e+00	 7.4997447517e-02	 3.5816027413e+00
 1.2706328377e+00	 8.5837642678e-02	 3.5704626492e+00
 1.2698518631e+00	 9.6706352331e-02	 3.5578173578e+00
 1.2689749930e+00	 1.0760250721e-01	 3.5436499137e+00
 1.2823519412e+00	 0.0000000000e+00	 3.6455604187e+00
 1.2823074205e+00	 1.0685901372e-02	 3.6448794940e+00
 1.2821732517e+00	 2.1407471590e-02	 3.6426184500e+00
 1.2819485320e+00	 3.2163779477e-02	 3.6387990633e+00
 1.2816323685e+00	 4.2953872885e-02	 3.6334357094e+00
 1.2812238792e+00	 5.3776778731e-02	 3.6265359876e+00
 1.2807221928e+00	 6.4631503053e-02	 3.6181013443e+00
 1.2801264499e+00	 7.5517031075e-02	 3.6081276927e+00
 1.2794358031e+00	 8.6432327288e-02	 3.5966060268e+00
 1.2786494178e+00	 9.7376335543e-02	 3.5835230272e+00
 1.2777664728e+00	 1.0834797916e-01	 3.5688616575e+00
 1.2911749706e+00	 0.0000000000e+00	 3.6714741353e+00
 1.2911301436e+00	 1.0759424106e-02	 3.6707322837e+00
 1.2909950516e+00	 2.1554762474e-02	 3.6683722641e+00
 1.2907687858e+00	 3.2385077517e-02	 3.6644120492e+00
 1.2904504470e+00	 4.3249410537e-02	 3.6588626221e+00
 1.2900391472e+00	 5.4146781757e-02	 3.6517286240e+00
 1.2895340090e+00	 6.5076190375e-02	 3.6430089993e+00
 1.2889341671e+00	 7.6036614634e-02	 3.6326976357e+00
 1.2882387684e+00	 8.7027011899e-02	 3.6207839985e+00
 1.2874469726e+00	 9.8046318754e-02	 3.6072537545e+00
 1.2865579526e+00	 1.0909345111e-01	 3.5920893852e+00
 1.2999980000e+00	 0.0000000000e+00	 3.6954126596e+00
 1.2999528667e+00	 1.0832946841e-02	 3.6945874839e+00
 1.2998168516e+00	 2.1702053357e-02	 3.6921101151e+00
 1.2995890396e+00	 3.2606375557e-02	 3.6879941843e+00
 1.2992685255e+00	 4.3544948190e-02	 3.6822467627e+00
 1.2988544151e+00	 5.4516784784e-02	 3.6748690334e+00
 1.2983458252e+00	 6.5520877698e-02	 3.6658569592e+00
 1.2977418844e+00	 7.6556198193e-02	 3.6552019441e+00
 1.2970417338e+00	 8.7621696510e-02	 3.6428914878e+00
 1.2962445273e+00	 9.8716301966e-02	 3.6289098288e+00
 1.2953494324e+00	 1.0983892307e-01	 3.6132385756e+00
 1.3088210294e+00	 0.0000000000e+00	 3.7172241463e+00
 1.3087755898e+00	 1.0906469576e-02	 3.7163001720e+00
 1.3086386516e+00	 2.1849344241e-02	 3.7136937718e+00
 1.3084092934e+00	 3.2827673597e-02	 3.7094137021e+00
 1.3080866040e+00	 4.3840485843e-02	 3.7034626086e+00
 1.3076696830e+00	 5.4886787810e-02	 3.6958377221e+00
 1.3071576413e+00	 6.5965565021e-02	 3.6865315502e+00
 1.3065496016e+00	 7.7075781752e-02	 3.6755325613e+00
 1.3058446991e+00	 8.8216381121e-02	 3.6628258596e+00
 1.3050420821e+00	 9.9386285178e-02	 3.6483938485e+00
 1.3041409122e+00	 1.1058439502e-01	 3.6322168796e+00
 1.3176440588e+00	 0.0000000000e+00	 3.7367599722e+00
 1.3175983129e+00	 1.0979992310e-02	 3.7357285537e+00
 1.3174604515e+00	 2.1996635124e-02	 3.7329880334e+00
 1.3172295472e+00	 3.3048971637e-02	 3.7285417646e+00
 1.3169046825e+00	 4.4136023495e-02	 3.7223874588e+00
 1.3164849510e+00	 5.5256790837e-02	 3.7145179065e+00
 1.3159694575e+00	 6.6410252343e-02	 3.7049216928e+00
 1.3153573189e+00	 7.7595365311e-02	 3.6935839049e+00
 1.3146476645e+00	 8.8811065732e-02	 3.6804868286e+00
 1.3138396368e+00	 1.0005626839e-01	 3.6656106321e+00
 1.3129323920e+00	 1.1132986698e-01	 3.6489340344e+00
 1.3264670883e+00	 0.0000000000e+00	 3.7538746295e+00
 1.3264210360e+00	 1.1053515045e-02	 3.7527338585e+00
 1.3262822515e+00	 2.2143926008e-02	 3.7498606262e+00
 1.3260498010e+00	 3.3270269677e-02	 3.7452523602e+00
 1.3257227610e+00	 4.4431561148e-02	 3.7389013344e+00
 1.3253002189e+00	 5.5626793863e-02	 3.7307954162e+00
 1.3247812737e+00	 6.6854939666e-02	 3.7209188073e+00
 1.3241650361e+00	 7.8114948871e-02	 3.7092527747e+00
 1.3234506299e+00	 8.9405750344e-02	 3.6957763696e+00
 1.3226371916e+00	 1.0072625160e-01	 3.6804671325e+00
 1.3217238717e+00	 1.1207533893e-01	 3.6633017812e+00
 1.3352901177e+00	 0.0000000000e+00	 3.7684256225e+00
 1.3352437590e+00	 1.1127037780e-02	 3.7671802377e+00
 1.3351040515e+00	 2.2291216892e-02	 3.7641821047e+00
 1.3348700548e+00	 3.3491567718e-02	 3.7594222071e+00
 1.3345408395e+00	 4.4727098801e-02	 3.7528868832e+00
 1.3341154869e+00	 5.5996796890e-02	 3.7445586010e+00
 1.3335930898e+00	 6.7299626990e-02	 3.7344167235e+00
 1.3329727534e+00	 7.8634532431e-02	 3.7224382651e+00
 1.3322535952e+00	 9.0000434956e-02	 3.7085986331e+00
 1.3314347463e+00	 1.0139623482e-01	 3.6928723549e+00
 1.3305153515e+00	 1.1282081089e-01	 3.6752337860e+00
 1.3441131471e+00	 0.0000000000e+00	 3.7802733690e+00
 1.3440664821e+00	 1.1200560515e-02	 3.7789346676e+00
 1.3439258514e+00	 2.2438507776e-02	 3.7758257555e+00
 1.3436903087e+00	 3.3712865758e-02	 3.7709306590e+00
 1.3433589180e+00	 4.5022636455e-02	 3.7642292887e+00
 1.3429307548e+00	 5.6366799918e-02	 3.7556982416e+00
 1.3424049060e+00	 6.7744314314e-02	 3.7453115937e+00
 1.3417804706e+00	 7.9154115991e-02	 3.7330416804e+00
 1.3410565606e+00	 9.0595119568e-02	 3.7188598632e+00
 1.3402323011e+00	 1.0206621803e-01	 3.7027372779e+00
 1.3393068313e+00	 1.1356628284e-01	 3.6846455642e+00
 1.3529361765e+00	 0.0000000000e+00	 3.7892811049e+00
 1.3528892052e+00	 1.1274083250e-02	 3.7878668558e+00
 1.3527476514e+00	 2.2585798660e-02	 3.7846675057e+00
 1.3525105625e+00	 3.3934163799e-02	 3.7796596157e+00
 1.3521769965e+00	 4.5318174109e-02	 3.7728161813e+00
 1.3517460228e+00	 5.6736802946e-02	 3.7641074637e+00
 1.3512167222e+00	 6.8189001638e-02	 3.7535018089e+00
 1.3505881879e+00	 7.9673699552e-02	 3.7409664543e+00
 1.3498595259e+00	 9.1189804181e-02	 3.7264683195e+00
 1.3490298559e+00	 1.0273620124e-01	 3.7099747780e+00
 1.3480983111e+00	 1.1431175480e-01	 3.6914544080e+00
 1.2601835133e+00	 1.0685703526e-01	 3.5165509369e+00
 1.2592165182e+00	 1.1770571642e-01	 3.5011732994e+00
 1.2581526803e+00	 1.2857945101e-01	 3.4839589806e+00
 1.2569912315e+00	 1.3947708999e-01	 3.4649952275e+00
 1.2557314192e+00	 1.5039746395e-01	 3.4443681415e+00
 1.2543725065e+00	 1.6133938333e-01	 3.4221630378e+00
 1.2529137732e+00	 1.7230163857e-01	 3.3984647800e+00
 1.2513545159e+00	 1.8328300036e-01	 3.3733580890e+00
 1.2496940488e+00	 1.9428221986e-01	 3.3469278230e+00
 1.2479317043e+00	 2.0529802896e-01	 3.3192592284e+00
 1.2460668334e+00	 2.1632914054e-01	 3.2904381594e+00
 1.2689749930e+00	 1.0760250721e-01	 3.5436499137e+00
 1.2680012519e+00	 1.1852687256e-01	 3.5277391167e+00
 1.2669299922e+00	 1.2947646612e-01	 3.5099422150e+00
 1.2657604408e+00	 1.4045013082e-01	 3.4903487925e+00
 1.2644918396e+00	 1.5144668913e-01	 3.4690478221e+00
 1.2631234467e+00	 1.6246494315e-01	 3.4461280314e+00
 1.2616545368e+00	 1.7350367490e-01	 3.4216782423e+00
 1.2600844015e+00	 1.8456164650e-01	 3.3957876829e+00
 1.2584123505e+00	 1.9563760040e-01	 3.3685462696e+00
 1.2566377112e+00	 2.0673025963e-01	 3.3400448572e+00
 1.2547598303e+00	 2.1783832809e-01	 3.3103754563e+00
 1.2777664728e+00	 1.0834797916e-01	 3.5688616575e+00
 1.2767859856e+00	 1.1934802870e-01	 3.5524034165e+00
 1.2757073042e+00	 1.3037348122e-01	 3.5340092571e+00
 1.2745296501e+00	 1.4142317166e-01	 3.5137707231e+00
 1.2732522600e+00	 1.5249591430e-01	 3.4917793012e+00
 1.2718743869e+00	 1.6359050297e-01	 3.4681267929e+00
 1.2703953003e+00	 1.7470571124e-01	 3.4429056603e+00
 1.2688142872e+00	 1.8584029265e-01	 3.4162093411e+00
 1.2671306521e+00	 1.9699298093e-01	 3.3881325322e+00
 1.2653437181e+00	 2.0816249029e-01	 3.3587714407e+00
 1.2634528272e+00	 2.1934751563e-01	 3.3282239990e+00
 1.2865579526e+00	 1.0909345111e-01	 3.5920893852e+00
 1.2855707192e+00	 1.2016918483e-01	 3.5750745234e+00
 1.2844846162e+00	 1.3127049632e-01	 3.5560732634e+00
 1.2832988594e+00	 1.4239621249e-01	 3.5351787412e+00
 1.2820126804e+00	 1.5354513947e-01	 3.5124846083e+00
 1.2806253271e+00	 1.6471606279e-01	 3.4880854120e+00
 1.2791360639e+00	 1.7590774757e-01	 3.4620769461e+00
 1.2775441728e+00	 1.8711893879e-01	 3.4345565699e+00
 1.2758489537e+00	 1.9834836147e-01	 3.4056234948e+00
 1.2740497250e+00	 2.0959472096e-01	 3.3753790346e+00
 1.2721458241e+00	 2.2085670318e-01	 3.3439268194e+00
 1.2953494324e+00	 1.0983892307e-01	 3.6132385756e+00
 1.2943554529e+00	 1.2099034097e-01	 3.5956628796e+00
 1.2932619282e+00	 1.3216751143e-01	 3.5760493623e+00
 1.2920680687e+00	 1.4336925333e-01	 3.5544923928e+00
 1.2907731009e+00	 1.5459436464e-01	 3.5310874482e+00
 1.2893762672e+00	 1.6584162261e-01	 3.5059315022e+00
 1.2878768274e+00	 1.7710978391e-01	 3.4791233820e+00
 1.2862740584e+00	 1.8839758494e-01	 3.4507640915e+00
 1.2845672553e+00	 1.9970374201e-01	 3.4209570999e+00
 1.2827557319e+00	 2.1102695162e-01	 3.3898085931e+00
 1.2808388210e+00	 2.2236589073e-01	 3.3574276867e+00
 1.3041409122e+00	 1.1058439502e-01	 3.6322168796e+00
 1.3031401866e+00	 1.2181149711e-01	 3.6140809592e+00
 1.3020392402e+00	 1.3306452653e-01	 3.5938545723e+00
 1.3008372780e+00	 1.4434229416e-01	 3.5716329704e+00
 1.2995335213e+00	 1.5564358982e-01	 3.5475131263e+00
 1.2981272074e+00	 1.6696718243e-01	 3.5215941308e+00
 1.2966175909e+00	 1.7831182025e-01	 3.4939775557e+00
 1.2950039440e+00	 1.8967623109e-01	 3.4647677819e+00
 1.2932855569e+00	 2.0105912255e-01	 3.4340722911e+00
 1.2914617388e+00	 2.1245918229e-01	 3.4020019176e+00
 1.2895318179e+00	 2.2387507828e-01	 3.3686710600e+00
 1.3129323920e+00	 1.1132986698e-01	 3.6489340344e+00
 1.3119249203e+00	 1.2263265325e-01	 3.6302431858e+00
 1.3108165522e+00	 1.3396154164e-01	 3.6094077228e+00
 1.3096064874e+00	 1.4531533500e-01	 3.5865234377e+00
 1.3082939417e+00	 1.5669281499e-01	 3.5616884782e+00
 1.3068781476e+00	 1.6809274225e-01	 3.5350037519e+00
 1.3053583545e+00	 1.7951385658e-01	 3.5065732966e+00
 1.3037338296e+00	 1.9095487723e-01	 3.4765046131e+00
 1.3020038586e+00	 2.0241450309e-01	 3.4449089601e+00
 1.3001677457e+00	 2.1389141296e-01	 3.4119016068e+00
 1.2982248148e+00	 2.2538426583e-01	 3.3776020442e+00
 1.3217238717e+00	 1.1207533893e-01	 3.6633017812e+00
 1.3207096540e+00	 1.2345380939e-01	 3.6440658535e+00
 1.3195938641e+00	 1.3485855674e-01	 3.6226293790e+00
 1.3183756967e+00	 1.4628837584e-01	 3.5990883581e+00
 1.3170543621e+00	 1.5774204017e-01	 3.5735418013e+00
 1.3156290877e+00	 1.6921830207e-01	 3.5460921426e+00
 1.3140991180e+00	 1.8071589292e-01	 3.5168456167e+00
 1.3124637152e+00	 1.9223352338e-01	 3.4859125973e+00
 1.3107221602e+00	 2.0376988363e-01	 3.4534078946e+00
 1.3088737526e+00	 2.1532364362e-01	 3.4194510104e+00
 1.3069178117e+00	 2.2689345338e-01	 3.3841663478e+00
 1.3305153515e+00	 1.1282081089e-01	 3.6752337860e+00
 1.3294943877e+00	 1.2427496553e-01	 3.6554670515e+00
 1.3283711761e+00	 1.3575557185e-01	 3.6334417699e+00
 1.3271449060e+00	 1.4726141667e-01	 3.6092538260e+00
 1.3258147825e+00	 1.5879126534e-01	 3.5830027903e+00
 1.3243800279e+00	 1.7034386189e-01	 3.5547923420e+00
 1.3228398816e+00	 1.8191792926e-01	 3.5247306534e+00
 1.3211936009e+00	 1.9351216953e-01	 3.4929307336e+00
 1.3194404618e+00	 2.0512526417e-01	 3.4595107302e+00
 1.3175797595e+00	 2.1675587429e-01	 3.4245941849e+00
 1.3156108086e+00	 2.2840264093e-01	 3.3883102436e+00
 1.3393068313e+00	 1.1356628284e-01	 3.6846455642e+00
 1.3382791214e+00	 1.2509612167e-01	 3.6643665914e+00
 1.3371484881e+00	 1.3665258695e-01	 3.6417687191e+00
 1.3359141153e+00	 1.4823445751e-01	 3.6169474013e+00
 1.3345752030e+00	 1.5984049051e-01	 3.5900024750e+00
 1.3331309681e+00	 1.7146942171e-01	 3.5610385927e+00
 1.3315806451e+00	 1.8311996559e-01	 3.5301656147e+00
 1.3299234865e+00	 1.9479081568e-01	 3.4974989585e+00
 1.3281587634e+00	 2.0648064471e-01	 3.4631599040e+00
 1.3262857663e+00	 2.1818810496e-01	 3.4272758515e+00
 1.3243038055e+00	 2.2991182847e-01	 3.3899805308e+00
 1.3480983111e+00	 1.1431175480e-01	 3.6914544080e+00
 1.3470638551e+00	 1.2591727781e-01	 3.6706859378e+00
 1.3459258001e+00	 1.3754960206e-01	 3.6475355785e+00
 1.3446833246e+00	 1.4920749834e-01	 3.6220980467e+00
 1.3433356234e+00	 1.6088971569e-01	 3.5944731613e+00
 1.3418819083e+00	 1.7259498153e-01	 3.5647662856e+00
 1.3403214086e+00	 1.8432200193e-01	 3.5330887279e+00
 1.3386533721e+00	 1.9606946182e-01	 3.4995580970e+00
 1.3368770650e+00	 2.0783602525e-01	 3.4642986107e+00
 1.3349917732e+00	 2.1962033562e-01	 3.4274413563e+00
 1.3329968024e+00	 2.3142101602e-01	 3.3891244997e+00
 1.2460668334e+00	 2.1632914054e-01	 3.2904381594e+00
 1.2440991495e+00	 2.2737237065e-01	 3.2601526098e+00
 1.2420277338e+00	 2.3842827199e-01	 3.2280787998e+00
 1.2398519961e+00	 2.4949550584e-01	 3.1943004294e+00
 1.2375713667e+00	 2.6057271584e-01	 3.1589011639e+00
 1.2351852976e+00	 2.7165852822e-01	 3.1219646259e+00
 1.2326932625e+00	 2.8275155227e-01	 3.0835743499e+00
 1.2300947574e+00	 2.9385038065e-01	 3.0438136948e+00
 1.2273893016e+00	 3.0495358983e-01	 3.0027657178e+00
 1.2245764373e+00	 3.1605974053e-01	 2.9605130053e+00
 1.2216557311e+00	 3.2716737810e-01	 2.9171374634e+00
 1.2547598303e+00	 2.1783832809e-01	 3.3103754563e+00
 1.2527784191e+00	 2.2895859963e-01	 3.2792157514e+00
 1.2506925525e+00	 2.4009163078e-01	 3.2462243727e+00
 1.2485016361e+00	 2.5123607352e-01	 3.2114814859e+00
 1.2462050963e+00	 2.6239056200e-01	 3.1750677389e+00
 1.2438023811e+00	 2.7355371288e-01	 3.1370642580e+00
 1.2412929607e+00	 2.8472412573e-01	 3.0975526019e+00
 1.2386763276e+00	 2.9590038340e-01	 3.0566146756e+00
 1.2359519975e+00	 3.0708105245e-01	 3.0143326009e+00
 1.2331195097e+00	 3.1826468353e-01	 2.9707885447e+00
 1.2301784277e+00	 3.2944981186e-01	 2.9260645034e+00
 1.2634528272e+00	 2.1934751563e-01	 3.3282239990e+00
 1.2614576888e+00	 2.3054482860e-01	 3.2961586211e+00
 1.2593573713e+00	 2.4175498958e-01	 3.2622180738e+00
 1.2571512761e+00	 2.5297664121e-01	 3.2264798465e+00
 1.2548388259e+00	 2.6420840816e-01	 3.1890224690e+00
 1.2524194647e+00	 2.7544889753e-01	 3.1499255081e+00
 1.2498926589e+00	 2.8669669919e-01	 3.1092695238e+00
 1.2472578977e+00	 2.9795038616e-01	 3.0671359807e+00
 1.2445146934e+00	 3.0920851507e-01	 3.0236071163e+00
 1.2416625821e+00	 3.2046962653e-01	 2.9787657642e+00
 1.2387011242e+00	 3.3173224561e-01	 2.9326951325e+00
 1.2721458241e+00	 2.2085670318e-01	 3.3439268194e+00
 1.2701369584e+00	 2.3213105757e-01	 3.3109271277e+00
 1.2680221900e+00	 2.4341834838e-01	 3.2760086720e+00
 1.2658009162e+00	 2.5471720889e-01	 3.2392471160e+00
 1.2634725554e+00	 2.6602625432e-01	 3.2007197604e+00
 1.2610365482e+00	 2.7734408219e-01	 3.1605055425e+00
 1.2584923571e+00	 2.8866927265e-01	 3.1186849905e+00
 1.2558394678e+00	 3.0000038892e-01	 3.0753401339e+00
 1.2530773893e+00	 3.1133597769e-01	 3.0305543678e+00
 1.2502056545e+00	 3.2267456953e-01	 2.9844122699e+00
 1.2472238207e+00	 3.3401467937e-01	 2.9369993716e+00
 1.2808388210e+00	 2.2236589073e-01	 3.3574276867e+00
 1.2788162281e+00	 2.3371728655e-01	 3.3234677508e+00
 1.2766870088e+00	 2.4508170717e-01	 3.2875453345e+00
 1.2744505562e+00	 2.5645777657e-01	 3.2497351175e+00
 1.2721062850e+00	 2.6784410049e-01	 3.2101140535e+00
 1.2696536317e+00	 2.7923926685e-01	 3.1687613707e+00
 1.2670920553e+00	 2.9064184611e-01	 3.1257585252e+00
 1.2644210380e+00	 3.0205039168e-01	 3.0811891079e+00
 1.2616400853e+00	 3.1346344031e-01	 3.0351387044e+00
 1.2587487269e+00	 3.2487951253e-01	 2.9876947055e+00
 1.2557465173e+00	 3.3629711312e-01	 2.9389460694e+00
 1.2895318179e+00	 2.2387507828e-01	 3.3686710600e+00
 1.2874954977e+00	 2.3530351552e-01	 3.3337274988e+00
 1.2853518275e+00	 2.4674506597e-01	 3.2967775898e+00
 1.2831001962e+00	 2.5819834425e-01	 3.2578958625e+00
 1.2807400145e+00	 2.6966194665e-01	 3.2171597980e+00
 1.2782707152e+00	 2.8113445150e-01	 3.1746498283e+00
 1.2756917535e+00	 2.9261441957e-01	 3.1304492884e+00
 1.2730026081e+00	 3.0410039444e-01	 3.0846443196e+00
 1.2702027812e+00	 3.1559090293e-01	 3.0373237232e+00
 1.2672917993e+00	 3.2708445554e-01	 2.9885787635e+00
 1.2642692138e+00	 3.3857954688e-01	 2.9385029202e+00
 1.2982248148e+00	 2.2538426583e-01	 3.3776020442e+00
 1.2961747674e+00	 2.3688974449e-01	 3.3416538700e+00
 1.2940166462e+00	 2.4840842477e-01	 3.3036552939e+00
 1.2917498362e+00	 2.5993891193e-01	 3.2636815226e+00
 1.2893737441e+00	 2.7147979281e-01	 3.2218114307e+00
 1.2868877987e+00	 2.8302963616e-01	 3.1781275599e+00
 1.2842914517e+00	 2.9458699304e-01	 3.1327160681e+00
 1.2815841782e+00	 3.0615039720e-01	 3.0856666280e+00
 1.2787654771e+00	 3.1771836555e-01	 3.0370722737e+00
 1.2758348717e+00	 3.2928939854e-01	 2.9870291958e+00
 1.2727919104e+00	 3.4086198063e-01	 2.9356364829e+00
 1.3069178117e+00	 2.2689345338e-01	 3.3841663478e+00
 1.3048540370e+00	 2.3847597347e-01	 3.3471948153e+00
 1.3026814650e+00	 2.5007178357e-01	 3.3081285991e+00
 1.3003994763e+00	 2.6167947961e-01	 3.2670444030e+00
 1.2980074737e+00	 2.7329763897e-01	 3.2240233553e+00
 1.2955048822e+00	 2.8492482082e-01	 3.1791510059e+00
 1.2928911499e+00	 2.9655956650e-01	 3.1325172722e+00
 1.2901657484e+00	 3.0820039996e-01	 3.0842163321e+00
 1.2873281730e+00	 3.1984582817e-01	 3.0343464629e+00
 1.2843779441e+00	 3.3149434154e-01	 2.9830098268e+00
 1.2813146069e+00	 3.4314441439e-01	 2.9303122006e+00
 1.3156108086e+00	 2.2840264093e-01	 3.3883102436e+00
 1.3135333067e+00	 2.4006220244e-01	 3.3502987033e+00
 1.3113462837e+00	 2.5173514237e-01	 3.3101479234e+00
 1.3090491163e+00	 2.6342004730e-01	 3.2679369184e+00
 1.3066412032e+00	 2.7511548514e-01	 3.2237499233e+00
 1.3041219657e+00	 2.8682000547e-01	 3.1776763886e+00
 1.3014908481e+00	 2.9853213996e-01	 3.1298109212e+00
 1.2987473185e+00	 3.1025040272e-01	 3.0802531711e+00
 1.2958908690e+00	 3.2197329079e-01	 3.0291076621e+00
 1.2929210165e+00	 3.3369928454e-01	 2.9764835662e+00
 1.2898373034e+00	 3.4542684815e-01	 2.9224944206e+00
 1.3243038055e+00	 2.2991182847e-01	 3.3899805308e+00
 1.3222125763e+00	 2.4164843142e-01	 3.3509142878e+00
 1.3200111024e+00	 2.5339850116e-01	 3.3096639232e+00
 1.3176987563e+00	 2.6516061498e-01	 3.2663115701e+00
 1.3152749328e+00	 2.7693333130e-01	 3.2209454175e+00
 1.3127390492e+00	 2.8871519013e-01	 3.1736597020e+00
 1.3100905464e+00	 3.0050471342e-01	 3.1245546437e+00
 1.3073288886e+00	 3.1230040548e-01	 3.0737363255e+00
 1.3044535649e+00	 3.2410075341e-01	 3.0213165142e+00
 1.3014640889e+00	 3.3590422754e-01	 2.9674124233e+00
 1.2983600000e+00	 3.4770928190e-01	 2.9121464160e+00
 1.3329968024e+00	 2.3142101602e-01	 3.3891244997e+00
 1.3308918460e+00	 2.4323466039e-01	 3.3489906766e+00
 1.3286759212e+00	 2.5506185996e-01	 3.3066274673e+00
 1.3263483964e+00	 2.6690118266e-01	 3.2621209257e+00
 1.3239086624e+00	 2.7875117746e-01	 3.2155640362e+00
 1.3213561328e+00	 2.9061037479e-01	 3.1670567012e+00
 1.3186902446e+00	 3.0247728689e-01	 3.1167056720e+00
 1.3159104587e+00	 3.1435040825e-01	 3.0646244189e+00
 1.3130162608e+00	 3.2622821604e-01	 3.0109329422e+00
 1.3100071613e+00	 3.3810917055e-01	 2.9557575220e+00
 1.3068826965e+00	 3.4999171566e-01	 2.8992304067e+00
 1.2216557311e+00	 3.2716737810e-01	 2.9171374634e+00
 1.2186267741e+00	 3.3827503318e-01	 2.8724079432e+00
 1.2154891835e+00	 3.4938122261e-01	 2.8261983151e+00
 1.2122426019e+00	 3.6048444952e-01	 2.7787447125e+00
 1.2088866979e+00	 3.7158320363e-01	 2.7302792030e+00
 1.2054211666e+00	 3.8267596183e-01	 2.6810290730e+00
 1.2018457296e+00	 3.9376118865e-01	 2.6312160693e+00
 1.1981601358e+00	 4.0483733686e-01	 2.5810555953e+00
 1.1943641616e+00	 4.1590284802e-01	 2.5307558655e+00
 1.1904576115e+00	 4.2695615308e-01	 2.4805170180e+00
 1.1864403182e+00	 4.3799567291e-01	 2.4305301872e+00
 1.2301784277e+00	 3.2944981186e-01	 2.9260645034e+00
 1.2271283396e+00	 3.4063495781e-01	 2.8798905907e+00
 1.2239688600e+00	 3.5181862790e-01	 2.8320716289e+00
 1.2206996291e+00	 3.6299931479e-01	 2.7827995012e+00
 1.2173203133e+00	 3.7417549768e-01	 2.7322630658e+00
 1.2138306052e+00	 3.8534564283e-01	 2.6806474959e+00
 1.2102302247e+00	 3.9650820405e-01	 2.6281335743e+00
 1.2065189189e+00	 4.0766162334e-01	 2.5748969425e+00
 1.2026964626e+00	 4.1880433137e-01	 2.5211073067e+00
 1.1987626590e+00	 4.2993474813e-01	 2.4669275990e+00
 1.1947173398e+00	 4.4105128351e-01	 2.4125130984e+00
 1.2387011242e+00	 3.3173224561e-01	 2.9326951325e+00
 1.2356299051e+00	 3.4299488244e-01	 2.8850969406e+00
 1.2324485366e+00	 3.5425603318e-01	 2.8357221395e+00
 1.2291566564e+00	 3.6551418005e-01	 2.7847266455e+00
 1.2257539286e+00	 3.7676779173e-01	 2.7322642292e+00
 1.2222400438e+00	 3.8801532382e-01	 2.6784858963e+00
 1.2186147198e+00	 3.9925521946e-01	 2.6235392231e+00
 1.2148777020e+00	 4.1048590982e-01	 2.5675676443e+00
 1.2110287637e+00	 4.2170581472e-01	 2.5107096957e+00
 1.2070677066e+00	 4.3291334319e-01	 2.4530982125e+00
 1.2029943613e+00	 4.4410689411e-01	 2.3948594839e+00
 1.2472238207e+00	 3.3401467937e-01	 2.9369993716e+00
 1.2441314706e+00	 3.4535480707e-01	 2.8879968028e+00
 1.2409282131e+00	 3.5669343846e-01	 2.8371141735e+00
 1.2376136837e+00	 3.6802904532e-01	 2.7844795489e+00
 1.2341875439e+00	 3.7936008577e-01	 2.7302195676e+00
 1.2306494823e+00	 3.9068500482e-01	 2.6744588512e+00
 1.2269992148e+00	 4.0200223487e-01	 2.6173193656e+00
 1.2232364850e+00	 4.1331019630e-01	 2.5589197351e+00
 1.2193610647e+00	 4.2460729806e-01	 2.4993745088e+00
 1.2153727542e+00	 4.3589193825e-01	 2.4387933813e+00
 1.2112713829e+00	 4.4716250471e-01	 2.3772803688e+00
 1.2557465173e+00	 3.3629711312e-01	 2.9389460694e+00
 1.2526330361e+00	 3.4771473171e-01	 2.8885586703e+00
 1.2494078897e+00	 3.5913084374e-01	 2.8362107347e+00
 1.2460707109e+00	 3.7054391059e-01	 2.7820104286e+00
 1.2426211592e+00	 3.8195237982e-01	 2.7260650535e+00
 1.2390589209e+00	 3.9335468582e-01	 2.6684804709e+00
 1.2353837099e+00	 4.0474925027e-01	 2.6093604770e+00
 1.2315952681e+00	 4.1613448278e-01	 2.5488061284e+00
 1.2276933657e+00	 4.2750878141e-01	 2.4869150197e+00
 1.2236778018e+00	 4.3887053331e-01	 2.4237805138e+00
 1.2195484044e+00	 4.5021811531e-01	 2.3594909256e+00
 1.2642692138e+00	 3.3857954688e-01	 2.9385029202e+00
 1.2611346015e+00	 3.5007465634e-01	 2.8867497434e+00
 1.2578875662e+00	 3.6156824903e-01	 2.8329735284e+00
 1.2545277382e+00	 3.7305877585e-01	 2.7772703358e+00
 1.2510547745e+00	 3.8454467387e-01	 2.7197357684e+00
 1.2474683594e+00	 3.9602436682e-01	 2.6604643974e+00
 1.2437682049e+00	 4.0749626568e-01	 2.5995491374e+00
 1.2399540512e+00	 4.1895876926e-01	 2.5370805711e+00
 1.2360256667e+00	 4.3041026476e-01	 2.4731462245e+00
 1.2319828493e+00	 4.4184912837e-01	 2.4078297934e+00
 1.2278254259e+00	 4.5327372591e-01	 2.3412103225e+00
 1.2727919104e+00	 3.4086198063e-01	 2.9356364829e+00
 1.2696361670e+00	 3.5243458097e-01	 2.8825359533e+00
 1.2663672428e+00	 3.6400565431e-01	 2.8273629868e+00
 1.2629847655e+00	 3.7557364112e-01	 2.7702091778e+00
 1.2594883898e+00	 3.8713696792e-01	 2.7111659168e+00
 1.2558777980e+00	 3.9869404781e-01	 2.6503238044e+00
 1.2521527000e+00	 4.1024328109e-01	 2.5877720143e+00
 1.2483128342e+00	 4.2178305574e-01	 2.5235976036e+00
 1.2443579678e+00	 4.3331174810e-01	 2.4578847728e+00
 1.2402878969e+00	 4.4482772342e-01	 2.3907140757e+00
 1.2361024475e+00	 4.5632933651e-01	 2.3221615807e+00
 1.2813146069e+00	 3.4314441439e-01	 2.9303122006e+00
 1.2781377325e+00	 3.5479450560e-01	 2.8758819872e+00
 1.2748469193e+00	 3.6644305959e-01	 2.8193382945e+00
 1.2714417927e+00	 3.7808850639e-01	 2.7607757404e+00
 1.2679220051e+00	 3.8972926196e-01	 2.7002888406e+00
 1.2642872365e+00	 4.0136372881e-01	 2.6379713997e+00
 1.2605371951e+00	 4.1299029649e-01	 2.5739158472e+00
 1.2566716173e+00	 4.2460734222e-01	 2.5082125220e+00
 1.2526902688e+00	 4.3621323145e-01	 2.4409489033e+00
 1.2485929445e+00	 4.4780631848e-01	 2.3722087920e+00
 1.2443794690e+00	 4.5938494711e-01	 2.3020714407e+00
 1.2898373034e+00	 3.4542684815e-01	 2.9224944206e+00
 1.2866392980e+00	 3.5715443023e-01	 2.8667513137e+00
 1.2833265959e+00	 3.6888046488e-01	 2.8088574157e+00
 1.2798988200e+00	 3.8060337166e-01	 2.7489177112e+00
 1.2763556204e+00	 3.9232155601e-01	 2.6870370360e+00
 1.2726966751e+00	 4.0403340981e-01	 2.6233194301e+00
 1.2689216901e+00	 4.1573731190e-01	 2.5578674366e+00
 1.2650304004e+00	 4.2743162870e-01	 2.4907813456e+00
 1.2610225698e+00	 4.3911471479e-01	 2.4221583850e+00
 1.2568979920e+00	 4.5078491354e-01	 2.3520918589e+00
 1.2526564905e+00	 4.6244055771e-01	 2.2806702358e+00
 1.2983600000e+00	 3.4770928190e-01	 2.9121464160e+00
 1.2951408634e+00	 3.5951435487e-01	 2.8551062089e+00
 1.2918062724e+00	 3.7131787016e-01	 2.7958771208e+00
 1.2883558473e+00	 3.8311823692e-01	 2.7345817046e+00
 1.2847892357e+00	 3.9491385006e-01	 2.6713421700e+00
 1.2811061136e+00	 4.0670309081e-01	 2.6062796872e+00
 1.2773061852e+00	 4.1848432731e-01	 2.5395136339e+00
 1.2733891834e+00	 4.3025591518e-01	 2.4711607875e+00
 1.2693548709e+00	 4.4201619814e-01	 2.4013344627e+00
 1.2652030396e+00	 4.5376350860e-01	 2.3301435951e+00
 1.2609335121e+00	 4.6549616831e-01	 2.2576917735e+00
 1.3068826965e+00	 3.4999171566e-01	 2.8992304067e+00
 1.3036424289e+00	 3.6187427950e-01	 2.8409077830e+00
 1.3002859490e+00	 3.7375527545e-01	 2.7803530147e+00
 1.2968128745e+00	 3.8563310219e-01	 2.7177132866e+00
 1.2932228510e+00	 3.9750614411e-01	 2.6531351004e+00
 1.2895155522e+00	 4.0937277181e-01	 2.5867635160e+00
 1.2856906802e+00	 4.2123134272e-01	 2.5187413349e+00
 1.2817479665e+00	 4.3308020167e-01	 2.4492082282e+00
 1.2776871719e+00	 4.4491768149e-01	 2.3782998075e+00
 1.2735080872e+00	 4.5674210366e-01	 2.3061466425e+00
 1.2692105336e+00	 4.6855177891e-01	 2.2328732250e+00
 1.1864403182e+00	 4.3799567291e-01	 2.4305301872e+00
 1.1823114322e+00	 4.4902169174e-01	 2.3812772081e+00
 1.1780715168e+00	 4.6003073296e-01	 2.3332635235e+00
 1.1737204915e+00	 4.7102118972e-01	 2.2857931429e+00
 1.1692583055e+00	 4.8199144765e-01	 2.2357460148e+00
 1.1646849381e+00	 4.9293988553e-01	 2.1827158129e+00
 1.1600003990e+00	 5.0386487593e-01	 2.1265614051e+00
 1.1552047288e+00	 5.1476478594e-01	 2.0671275930e+00
 1.1502979987e+00	 5.2563797785e-01	 2.0042447649e+00
 1.1452803116e+00	 5.3648280987e-01	 1.9377285125e+00
 1.1401518013e+00	 5.4729763683e-01	 1.8673792156e+00
 1.1947173398e+00	 4.4105128351e-01	 2.4125130984e+00
 1.1905596492e+00	 4.5215422370e-01	 2.3582477248e+00
 1.1862901547e+00	 4.6324006783e-01	 2.3045770546e+00
 1.1819087751e+00	 4.7430719784e-01	 2.2517010896e+00
 1.1774154593e+00	 4.8535398812e-01	 2.1998005686e+00
 1.1728101865e+00	 4.9637880612e-01	 2.1475110225e+00
 1.1680929665e+00	 5.0738001307e-01	 2.0916819791e+00
 1.1632638399e+00	 5.1835596466e-01	 2.0320721585e+00
 1.1583228788e+00	 5.2930501175e-01	 1.9685194875e+00
 1.1532701865e+00	 5.4022550109e-01	 1.9008473541e+00
 1.1481058980e+00	 5.5111577606e-01	 1.8288641458e+00
 1.2029943613e+00	 4.4410689411e-01	 2.3948594839e+00
 1.1988078661e+00	 4.5528675565e-01	 2.3362728250e+00
 1.1945087925e+00	 4.6644940269e-01	 2.2777086683e+00
 1.1900970587e+00	 4.7759320597e-01	 2.2193814696e+00
 1.1855726132e+00	 4.8871652860e-01	 2.1614870010e+00
 1.1809354349e+00	 4.9981772672e-01	 2.1042010214e+00
 1.1761855339e+00	 5.1089515021e-01	 2.0476666767e+00
 1.1713229511e+00	 5.2194714337e-01	 1.9890895548e+00
 1.1663477589e+00	 5.3297204564e-01	 1.9261199960e+00
 1.1612600615e+00	 5.4396819232e-01	 1.8585845083e+00
 1.1560599947e+00	 5.5493391529e-01	 1.7862950841e+00
 1.2112713829e+00	 4.4716250471e-01	 2.3772803688e+00
 1.2070560831e+00	 4.5841928761e-01	 2.3150089572e+00
 1.2027274304e+00	 4.6965873756e-01	 2.2522648270e+00
 1.1982853423e+00	 4.8087921410e-01	 2.1892712929e+00
 1.1937297670e+00	 4.9207906907e-01	 2.1262337687e+00
 1.1890606833e+00	 5.0325664731e-01	 2.0633384075e+00
 1.1842781013e+00	 5.1441028735e-01	 2.0007507131e+00
 1.1793820623e+00	 5.2553832208e-01	 1.9386141276e+00
 1.1743726390e+00	 5.3663907953e-01	 1.8765519324e+00
 1.1692499365e+00	 5.4771088354e-01	 1.8104338561e+00
 1.1640140914e+00	 5.5875205452e-01	 1.7391597357e+00
 1.2195484044e+00	 4.5021811531e-01	 2.3594909256e+00
 1.2153043001e+00	 4.6155181956e-01	 2.2941180042e+00
 1.2109460682e+00	 4.7286807242e-01	 2.2278585867e+00
 1.2064736259e+00	 4.8416522222e-01	 2.1609393779e+00
 1.2018869208e+00	 4.9544160954e-01	 2.0935701658e+00
 1.1971859318e+00	 5.0669556791e-01	 2.0259424407e+00
 1.1923706688e+00	 5.1792542449e-01	 1.9582279839e+00
 1.1874411734e+00	 5.2912950080e-01	 1.8905774294e+00
 1.1823975192e+00	 5.4030611342e-01	 1.8231188019e+00
 1.1772398114e+00	 5.5145357476e-01	 1.7559560347e+00
 1.1719681881e+00	 5.6257019375e-01	 1.6869536624e+00
 1.2278254259e+00	 4.5327372591e-01	 2.3412103225e+00
 1.2235525171e+00	 4.6468435151e-01	 2.2732670897e+00
 1.2191647061e+00	 4.7607740729e-01	 2.2041093653e+00
 1.2146619095e+00	 4.8745123035e-01	 2.1339618989e+00
 1.2100440746e+00	 4.9880415001e-01	 2.0630337060e+00
 1.2053111802e+00	 5.1013448850e-01	 1.9915166755e+00
 1.2004632362e+00	 5.2144056162e-01	 1.9195841444e+00
 1.1955002846e+00	 5.3272067951e-01	 1.8473894435e+00
 1.1904223993e+00	 5.4397314732e-01	 1.7750644170e+00
 1.1852296864e+00	 5.5519626599e-01	 1.7027179185e+00
 1.1799222848e+00	 5.6638833298e-01	 1.6304342885e+00
 1.2361024475e+00	 4.5632933651e-01	 2.3221615807e+00
 1.2318007341e+00	 4.6781688346e-01	 2.2521283956e+00
 1.2273833439e+00	 4.7928674215e-01	 2.1806427242e+00
 1.2228501930e+00	 4.9073723847e-01	 2.1079221360e+00
 1.2182012284e+00	 5.0216669048e-01	 2.0341698449e+00
 1.2134364286e+00	 5.1357340909e-01	 1.9595733147e+00
 1.2085558036e+00	 5.2495569876e-01	 1.8843028294e+00
 1.2035593958e+00	 5.3631185822e-01	 1.8085100312e+00
 1.1984472794e+00	 5.4764018121e-01	 1.7323264304e+00
 1.1932195614e+00	 5.5893895721e-01	 1.6558618896e+00
 1.1878763815e+00	 5.7020647220e-01	 1.5792030850e+00
 1.2443794690e+00	 4.5938494711e-01	 2.3020714407e+00
 1.2400489511e+00	 4.7094941542e-01	 2.2303789893e+00
 1.2356019818e+00	 4.8249607701e-01	 2.1570901612e+00
 1.2310384766e+00	 4.9402324660e-01	 2.0824102374e+00
 1.2263583823e+00	 5.0552923095e-01	 2.0065317161e+00
 1.2215616770e+00	 5.1701232969e-01	 1.9296329246e+00
 1.2166483711e+00	 5.2847083590e-01	 1.8518765942e+00
 1.2116185069e+00	 5.3990303693e-01	 1.7734084004e+00
 1.2064721595e+00	 5.5130721510e-01	 1.6943554708e+00
 1.2012094364e+00	 5.6268164843e-01	 1.6148248658e+00
 1.1958304782e+00	 5.7402461143e-01	 1.5349020336e+00
 1.2526564905e+00	 4.6244055771e-01	 2.2806702358e+00
 1.2482971680e+00	 4.7408194737e-01	 2.2077006610e+00
 1.2438206197e+00	 4.8570541188e-01	 2.1330889142e+00
 1.2392267602e+00	 4.9730925472e-01	 2.0570229945e+00
 1.2345155361e+00	 5.0889177143e-01	 1.9796798815e+00
 1.2296869254e+00	 5.2045125028e-01	 1.9012241638e+00
 1.2247409385e+00	 5.3198597304e-01	 1.8218066277e+00
 1.2196776181e+00	 5.4349421564e-01	 1.7415628069e+00
 1.2144970396e+00	 5.5497424899e-01	 1.6606114995e+00
 1.2091993113e+00	 5.6642433966e-01	 1.5790532514e+00
 1.2037845749e+00	 5.7784275066e-01	 1.4969688142e+00
 1.2609335121e+00	 4.6549616831e-01	 2.2576917735e+00
 1.2565453850e+00	 4.7721447932e-01	 2.1837797694e+00
 1.2520392575e+00	 4.8891474675e-01	 2.1082817766e+00
 1.2474150438e+00	 5.0059526285e-01	 2.0313636292e+00
 1.2426726899e+00	 5.1225431190e-01	 1.9531820946e+00
 1.2378121738e+00	 5.2389017087e-01	 1.8738835272e+00
 1.2328335059e+00	 5.3550111017e-01	 1.7936024792e+00
 1.2277367293e+00	 5.4708539436e-01	 1.7124602703e+00
 1.2225219197e+00	 5.5864128289e-01	 1.6305635194e+00
 1.2171891863e+00	 5.7016703088e-01	 1.5480026427e+00
 1.2117386716e+00	 5.8166088989e-01	 1.4648503194e+00
 1.2692105336e+00	 4.6855177891e-01	 2.2328732250e+00
 1.2647936020e+00	 4.8034701128e-01	 2.1583070976e+00
 1.2602578954e+00	 4.9212408161e-01	 2.0823169218e+00
 1.2556033274e+00	 5.0388127097e-01	 2.0050415922e+00
 1.2508298437e+00	 5.1561685237e-01	 1.9266130762e+00
 1.2459374222e+00	 5.2732909147e-01	 1.8471551023e+00
 1.2409260734e+00	 5.3901624731e-01	 1.7667818012e+00
 1.2357958404e+00	 5.5067657307e-01	 1.6855963042e+00
 1.2305467998e+00	 5.6230831678e-01	 1.6036892990e+00
 1.2251790613e+00	 5.7390972211e-01	 1.5211375489e+00
 1.2196927683e+00	 5.8547902912e-01	 1.4380023767e+00
 1.1401518013e+00	 5.4729763683e-01	 1.8673792156e+00
 1.1349135336e+00	 5.5807898070e-01	 1.7961388119e+00
 1.1295648427e+00	 5.6882703310e-01	 1.7270773930e+00
 1.1241059573e+00	 5.7954014345e-01	 1.6602093842e+00
 1.1185371380e+00	 5.9021666079e-01	 1.5954669505e+00
 1.1128586778e+00	 6.0085493454e-01	 1.5300730866e+00
 1.1070709020e+00	 6.1145331523e-01	 1.4627934174e+00
 1.1011741682e+00	 6.2201015531e-01	 1.3938592537e+00
 1.0951688665e+00	 6.3252380994e-01	 1.3235208593e+00
 1.0890554195e+00	 6.4299263775e-01	 1.2520475407e+00
 1.0828342824e+00	 6.5341500165e-01	 1.1797276599e+00
 1.1481058980e+00	 5.5111577606e-01	 1.8288641458e+00
 1.1428310863e+00	 5.6197233435e-01	 1.7556539269e+00
 1.1374450811e+00	 5.7279536891e-01	 1.6844875296e+00
 1.1319481126e+00	 5.8358321765e-01	 1.6154754151e+00
 1.1263404433e+00	 5.9433421811e-01	 1.5479752965e+00
 1.1206223682e+00	 6.0504670816e-01	 1.4787516478e+00
 1.1147942148e+00	 6.1571902685e-01	 1.4076807573e+00
 1.1088563433e+00	 6.2634951513e-01	 1.3350848699e+00
 1.1028091465e+00	 6.3693651668e-01	 1.2613036778e+00
 1.0966530500e+00	 6.4747837869e-01	 1.1866942882e+00
 1.0903885121e+00	 6.5797345264e-01	 1.1116311120e+00
 1.1560599947e+00	 5.5493391529e-01	 1.7862950841e+00
 1.1507486390e+00	 5.6586568800e-01	 1.7124535784e+00
 1.1453253194e+00	 5.7676370472e-01	 1.6404970410e+00
 1.1397902678e+00	 5.8762629186e-01	 1.5706119307e+00
 1.1341437485e+00	 5.9845177542e-01	 1.5008096912e+00
 1.1283860585e+00	 6.0923848178e-01	 1.4287227105e+00
 1.1225175276e+00	 6.1998473847e-01	 1.3547211940e+00
 1.1165385184e+00	 6.3068887495e-01	 1.2791986125e+00
 1.1104494265e+00	 6.4134922343e-01	 1.2025646820e+00
 1.1042506805e+00	 6.5196411963e-01	 1.1252452382e+00
 1.0979427418e+00	 6.6253190362e-01	 1.0476820325e+00
 1.1640140914e+00	 5.5875205452e-01	 1.7391597357e+00
 1.1586661917e+00	 5.6975904164e-01	 1.6660246411e+00
 1.1532055578e+00	 5.8073204052e-01	 1.5945972950e+00
 1.1476324231e+00	 5.9166936606e-01	 1.5248616544e+00
 1.1419470538e+00	 6.0256933273e-01	 1.4534143909e+00
 1.1361497489e+00	 6.1343025541e-01	 1.3794565412e+00
 1.1302408404e+00	 6.2425045010e-01	 1.3034180399e+00
 1.1242206935e+00	 6.3502823477e-01	 1.2257442744e+00
 1.1180897066e+00	 6.4576193017e-01	 1.1468959739e+00
 1.1118483110e+00	 6.5644986057e-01	 1.0673490223e+00
 1.1054969714e+00	 6.6709035461e-01	 9.8759419213e-01
 1.1719681881e+00	 5.6257019375e-01	 1.6869536624e+00
 1.1665837444e+00	 5.7365239529e-01	 1.6158614877e+00
 1.1610857962e+00	 5.8470037633e-01	 1.5462866537e+00
 1.1554745784e+00	 5.9571244026e-01	 1.4772534733e+00
 1.1497503591e+00	 6.0668689005e-01	 1.4052448891e+00
 1.1439134392e+00	 6.1762202903e-01	 1.3304340559e+00
 1.1379641532e+00	 6.2851616172e-01	 1.2532844776e+00
 1.1319028687e+00	 6.3936759459e-01	 1.1742745345e+00
 1.1257299866e+00	 6.5017463691e-01	 1.0938973421e+00
 1.1194459415e+00	 6.6093560150e-01	 1.0126605331e+00
 1.1130512011e+00	 6.7164880559e-01	 9.3108595743e-01
 1.1799222848e+00	 5.6638833298e-01	 1.6304342885e+00
 1.1745012971e+00	 5.7754574893e-01	 1.5614653702e+00
 1.1689660346e+00	 5.8866871214e-01	 1.4950648855e+00
 1.1633167337e+00	 5.9975551447e-01	 1.4272282840e+00
 1.1575536643e+00	 6.1080444736e-01	 1.3557676341e+00
 1.1516771296e+00	 6.2181380265e-01	 1.2811465656e+00
 1.1456874660e+00	 6.3278187334e-01	 1.2038433388e+00
 1.1395850438e+00	 6.4370695442e-01	 1.1243507776e+00
 1.1333702667e+00	 6.5458734366e-01	 1.0431761294e+00
 1.1270435720e+00	 6.6542134244e-01	 9.6084084480e-01
 1.1206054308e+00	 6.7620725658e-01	 8.7788027444e-01
 1.1878763815e+00	 5.7020647220e-01	 1.5792030850e+00
 1.1824188498e+00	 5.8143910258e-01	 1.5060638917e+00
 1.1768462729e+00	 5.9263704795e-01	 1.4400036120e+00
 1.1711588890e+00	 6.0379858867e-01	 1.3742450084e+00
 1.1653569696e+00	 6.1492200467e-01	 1.3044597651e+00
 1.1594408199e+00	 6.2600557627e-01	 1.2310955386e+00
 1.1534107788e+00	 6.3704758496e-01	 1.1546268982e+00
 1.1472672189e+00	 6.4804631424e-01	 1.0755429269e+00
 1.1410105467e+00	 6.5900005040e-01	 9.9434711022e-01
 1.1346412025e+00	 6.6990708338e-01	 9.1155714461e-01
 1.1281596605e+00	 6.8076570756e-01	 8.2770465978e-01
 1.1958304782e+00	 5.7402461143e-01	 1.5349020336e+00
 1.1903364025e+00	 5.8533245622e-01	 1.4583103118e+00
 1.1847265113e+00	 5.9660538376e-01	 1.3873644805e+00
 1.1790010443e+00	 6.0784166287e-01	 1.3184243176e+00
 1.1731602748e+00	 6.1903956198e-01	 1.2508088639e+00
 1.1672045102e+00	 6.3019734989e-01	 1.1797923770e+00
 1.1611340916e+00	 6.4131329658e-01	 1.1051766823e+00
 1.1549493941e+00	 6.5238567406e-01	 1.0274292898e+00
 1.1486508268e+00	 6.6341275714e-01	 9.4703238056e-01
 1.1422388330e+00	 6.7439282432e-01	 8.6448267272e-01
 1.1357138902e+00	 6.8532415854e-01	 7.8029119842e-01
 1.2037845749e+00	 5.7784275066e-01	 1.4969688142e+00
 1.1982539552e+00	 5.8922580987e-01	 1.4180395445e+00
 1.1926067497e+00	 6.0057371956e-01	 1.3425369708e+00
 1.1868431996e+00	 6.1188473708e-01	 1.2684284273e+00
 1.1809635801e+00	 6.2315711930e-01	 1.1963664751e+00
 1.1749682006e+00	 6.3438912351e-01	 1.1267582091e+00
 1.1688574044e+00	 6.4557900820e-01	 1.0550432910e+00
 1.1626315692e+00	 6.5672503388e-01	 9.7959641573e-01
 1.1562911068e+00	 6.6782546389e-01	 9.0086125801e-01
 1.1498364636e+00	 6.7887856526e-01	 8.1929667108e-01
 1.1432681199e+00	 6.8988260953e-01	 7.3537654816e-01
 1.2117386716e+00	 5.8166088989e-01	 1.4648503194e+00
 1.2061715080e+00	 5.9311916351e-01	 1.3841562802e+00
 1.2004869881e+00	 6.0454205537e-01	 1.3049172370e+00
 1.1946853549e+00	 6.1592781128e-01	 1.2266527001e+00
 1.1887668854e+00	 6.2727467661e-01	 1.1499729401e+00
 1.1827318909e+00	 6.3858089713e-01	 1.0754839588e+00
 1.1765807172e+00	 6.4984471983e-01	 1.0037868292e+00
 1.1703137443e+00	 6.6106439370e-01	 9.3163896609e-01
 1.1639313869e+00	 6.7223817063e-01	 8.5547019194e-01
 1.1574340941e+00	 6.8336430619e-01	 7.7568434063e-01
 1.1508223496e+00	 6.9444106051e-01	 6.9270195029e-01
 1.2196927683e+00	 5.8547902912e-01	 1.4380023767e+00
 1.2140890607e+00	 5.9701251716e-01	 1.3558644704e+00
 1.2083672264e+00	 6.0851039118e-01	 1.2739156120e+00
 1.2025275101e+00	 6.1997088548e-01	 1.1925171074e+00
 1.1965701906e+00	 6.3139223392e-01	 1.1122200874e+00
 1.1904955813e+00	 6.4277267076e-01	 1.0335714254e+00
 1.1843040300e+00	 6.5411043145e-01	 9.5711317001e-01
 1.1779959194e+00	 6.6540375352e-01	 8.8338202401e-01
 1.1715716669e+00	 6.7665087737e-01	 8.1050268354e-01
 1.1650317246e+00	 6.8785004713e-01	 7.3333680639e-01
 1.1583765792e+00	 6.9899951150e-01	 6.5201324622e-01
 1.0828342824e+00	 6.5341500165e-01	 1.1797276599e+00
 1.0765059431e+00	 6.6378926983e-01	 1.1075940520e+00
 1.0700709229e+00	 6.7411381717e-01	 1.0363570618e+00
 1.0635297760e+00	 6.8438702546e-01	 9.6585035250e-01
 1.0568830886e+00	 6.9460728400e-01	 8.9592763981e-01
 1.0501314794e+00	 7.0477299035e-01	 8.2646305835e-01
 1.0432755991e+00	 7.1488255120e-01	 7.5735143547e-01
 1.0363161302e+00	 7.2493438309e-01	 6.8850847077e-01
 1.0292537870e+00	 7.3492691326e-01	 6.1987081862e-01
 1.0220893154e+00	 7.4485858041e-01	 5.5139607147e-01
 1.0148234927e+00	 7.5472783548e-01	 4.8306264278e-01
 1.0903885121e+00	 6.5797345264e-01	 1.1116311120e+00
 1.0840160240e+00	 6.6842009533e-01	 1.0372538644e+00
 1.0775361109e+00	 6.7881667031e-01	 9.6427374070e-01
 1.0709493307e+00	 6.8916154809e-01	 8.9245080841e-01
 1.0642562737e+00	 6.9945310671e-01	 8.2156633927e-01
 1.0574575630e+00	 7.0968973258e-01	 7.5142329710e-01
 1.0505538536e+00	 7.1986982125e-01	 6.8184673001e-01
 1.0435458330e+00	 7.2999177823e-01	 6.1268406400e-01
 1.0364342204e+00	 7.4005401978e-01	 5.4380529504e-01
 1.0292197670e+00	 7.5005497370e-01	 4.7510307742e-01
 1.0219032553e+00	 7.5999308014e-01	 4.0649270658e-01
 1.0979427418e+00	 6.6253190362e-01	 1.0476820325e+00
 1.0915261050e+00	 6.7305092083e-01	 9.7114086276e-01
 1.0850012990e+00	 6.8351952346e-01	 8.9638310641e-01
 1.0783688854e+00	 6.9393607072e-01	 8.2312177113e-01
 1.0716294588e+00	 7.0429892943e-01	 7.5109186938e-01
 1.0647836465e+00	 7.1460647481e-01	 6.8005099044e-01
 1.0578321081e+00	 7.2485709130e-01	 6.0977977319e-01
 1.0507755358e+00	 7.3504917337e-01	 5.4008227653e-01
 1.0436146539e+00	 7.4518112629e-01	 4.7078624408e-01
 1.0363502186e+00	 7.5525136699e-01	 4.0174326071e-01
 1.0289830180e+00	 7.6525832479e-01	 3.3282879909e-01
 1.1054969714e+00	 6.6709035461e-01	 9.8759419213e-01
 1.0990361860e+00	 6.7768174633e-01	 9.0903418096e-01
 1.0924664870e+00	 6.8822237660e-01	 8.3252086679e-01
 1.0857884401e+00	 6.9871059335e-01	 7.5774618090e-01
 1.0790026439e+00	 7.0914475215e-01	 6.8442451489e-01
 1.0721097300e+00	 7.1952321704e-01	 6.1229333976e-01
 1.0651103626e+00	 7.2984436136e-01	 5.4111372244e-01
 1.0580052387e+00	 7.4010656851e-01	 4.7067073604e-01
 1.0507950873e+00	 7.5030823281e-01	 4.0077376062e-01
 1.0434806702e+00	 7.6044776028e-01	 3.3125667175e-01
 1.0360627807e+00	 7.7052356945e-01	 2.6197791473e-01
 1.1130512011e+00	 6.7164880559e-01	 9.3108595743e-01
 1.1065462670e+00	 6.8231257183e-01	 8.5071587213e-01
 1.0999316750e+00	 6.9292522974e-01	 7.7252420493e-01
 1.0932079948e+00	 7.0348511597e-01	 6.9620725583e-01
 1.0863758290e+00	 7.1399057486e-01	 6.2148390177e-01
 1.0794358135e+00	 7.2443995927e-01	 5.4809622603e-01
 1.0723886171e+00	 7.3483163141e-01	 4.7581004195e-01
 1.0652349415e+00	 7.4516396364e-01	 4.0441530669e-01
 1.0579755208e+00	 7.5543533932e-01	 3.3372642200e-01
 1.0506111218e+00	 7.6564415357e-01	 2.6358241891e-01
 1.0431425434e+00	 7.7578881410e-01	 1.9384702430e-01
 1.1206054308e+00	 6.7620725658e-01	 8.7788027444e-01
 1.1140563480e+00	 6.8694339732e-01	 7.9597095510e-01
 1.1073968631e+00	 6.9762808288e-01	 7.1623187990e-01
 1.1006275495e+00	 7.0825963860e-01	 6.3838863840e-01
 1.0937490141e+00	 7.1883639758e-01	 5.6218918047e-01
 1.0867618971e+00	 7.2935670150e-01	 4.8740442007e-01
 1.0796668717e+00	 7.3981890146e-01	 4.1382872986e-01
 1.0724646443e+00	 7.5022135878e-01	 3.4128032276e-01
 1.0651559543e+00	 7.6056244583e-01	 2.6960151693e-01
 1.0577415734e+00	 7.7084054685e-01	 1.9865888133e-01
 1.0502223061e+00	 7.8105405876e-01	 1.2834325966e-01
 1.1281596605e+00	 6.8076570756e-01	 8.2770465978e-01
 1.1215664290e+00	 6.9157422282e-01	 7.4458746549e-01
 1.1148620511e+00	 7.0233093602e-01	 6.6348433027e-01
 1.1080471042e+00	 7.1303416123e-01	 5.8417454295e-01
 1.1011221992e+00	 7.2368222029e-01	 5.0645920872e-01
 1.0940879806e+00	 7.3427344373e-01	 4.3016179140e-01
 1.0869451262e+00	 7.4480617151e-01	 3.5512854351e-01
 1.0796943471e+00	 7.5527875392e-01	 2.8122882001e-01
 1.0723363877e+00	 7.6568955235e-01	 2.0835527245e-01
 1.0648720250e+00	 7.7603694014e-01	 1.3642392040e-01
 1.0573020688e+00	 7.8631930341e-01	 6.5374098196e-02
 1.1357138902e+00	 6.8532415854e-01	 7.8029119842e-01
 1.1290765099e+00	 6.9620504832e-01	 6.9635651145e-01
 1.1223272392e+00	 7.0703378917e-01	 6.1412378014e-01
 1.1154666590e+00	 7.1780868385e-01	 5.3344990418e-01
 1.1084953844e+00	 7.2852804301e-01	 4.5421273390e-01
 1.1014140641e+00	 7.3919018596e-01	 3.7631151576e-01
 1.0942233807e+00	 7.4979344156e-01	 2.9966722266e-01
 1.0869240500e+00	 7.6033614906e-01	 2.2422276499e-01
 1.0795168212e+00	 7.7081665886e-01	 1.4994307910e-01
 1.0720024766e+00	 7.8123333343e-01	 7.6815090134e-02
 1.0643818315e+00	 7.9158454807e-01	 4.8475474014e-03
 1.1432681199e+00	 6.8988260953e-01	 7.3537654816e-01
 1.1365865909e+00	 7.0083587382e-01	 6.5107233370e-01
 1.1297924272e+00	 7.1173664231e-01	 5.6799434768e-01
 1.1228862137e+00	 7.2258320648e-01	 4.8610052649e-01
 1.1158685695e+00	 7.3337386572e-01	 4.0536857517e-01
 1.1087401476e+00	 7.4410692819e-01	 3.2579628134e-01
 1.1015016352e+00	 7.5478071162e-01	 2.4740171100e-01
 1.0941537528e+00	 7.6539354420e-01	 1.7022328238e-01
 1.0866972546e+00	 7.7594376538e-01	 9.4319714270e-02
 1.0791329282e+00	 7.8642972672e-01	 1.9769846344e-02
 1.0714615942e+00	 7.9684979272e-01	-5.3327670697e-02
 1.1508223496e+00	 6.9444106051e-01	 6.9270195029e-01
 1.1440966719e+00	 7.0546669932e-01	 6.0853236986e-01
 1.1372576152e+00	 7.1643949545e-01	 5.2494215607e-01
 1.1303057684e+00	 7.2735772911e-01	 4.4201323414e-01
 1.1232417546e+00	 7.3821968844e-01	 3.5984580510e-01
 1.1160662312e+00	 7.4902367042e-01	 2.7855849378e-01
 1.1087798897e+00	 7.5976798167e-01	 1.9828837588e-01
 1.1013834556e+00	 7.7045093933e-01	 1.1919088036e-01
 1.0938776881e+00	 7.8107087189e-01	 4.1439563890e-02
 1.0862633799e+00	 7.9162612001e-01	-3.4774245174e-02
 1.0785413569e+00	 8.0211503738e-01	-1.0924193511e-01
 1.1583765792e+00	 6.9899951150e-01	 6.5201324622e-01
 1.1516067529e+00	 7.1009752482e-01	 5.6853732260e-01
 1.1447228033e+00	 7.2114234859e-01	 4.8481544663e-01
 1.1377253231e+00	 7.3213225174e-01	 4.0107602229e-01
 1.1306149397e+00	 7.4306551116e-01	 3.1756393108e-01
 1.1233923147e+00	 7.5394041265e-01	 2.3454048006e-01
 1.1160581442e+00	 7.6475525172e-01	 1.5228322632e-01
 1.1086131585e+00	 7.7550833447e-01	 7.1085674232e-02
 1.1010581216e+00	 7.8619797841e-01	-8.7431575086e-03
 1.0933938315e+00	 7.9682251330e-01	-8.6879301522e-02
 1.0856211196e+00	 8.0738028204e-01	-1.6298454148e-01
 1.0148234927e+00	 7.5472783548e-01	 4.8306264278e-01
 1.0074558669e+00	 7.6453480300e-01	 4.1419658718e-01
 9.9998850774e-01	 7.7427627210e-01	 3.4431696489e-01
 9.9242228952e-01	 7.8395072873e-01	 2.7368628835e-01
 9.8475811671e-01	 7.9355667418e-01	 2.0258499802e-01
 9.7699692376e-01	 8.0309262581e-01	 1.3131060208e-01
 9.6913967462e-01	 8.1255711779e-01	 6.0176719721e-02
 9.6118736245e-01	 8.2194870185e-01	-1.0487969211e-02
 9.5314100914e-01	 8.3126594802e-01	-8.0340864849e-02
 9.4500166493e-01	 8.4050744529e-01	-1.4902667422e-01
 9.3677040792e-01	 8.4967180238e-01	-2.1617872001e-01
 1.0219032553e+00	 7.5999308014e-01	 4.0649270658e-01
 1.0144842304e+00	 7.6986846449e-01	 3.3722744973e-01
 1.0069647764e+00	 7.7967789347e-01	 2.6682344456e-01
 9.9934577360e-01	 7.8941984248e-01	 1.9558637648e-01
 9.9162813285e-01	 7.9909280236e-01	 1.2384011117e-01
 9.8381279511e-01	 8.0869528011e-01	 5.1925753490e-02
 9.7590073106e-01	 8.1822579969e-01	-1.9799393726e-02
 9.6789294079e-01	 8.2768290272e-01	-9.0962968435e-02
 9.5979045331e-01	 8.3706514924e-01	-1.6117878187e-01
 9.5159432619e-01	 8.4637111842e-01	-2.3004814067e-01
 9.4330564507e-01	 8.5559940926e-01	-2.9716125401e-01
 1.0289830180e+00	 7.6525832479e-01	 3.3282879909e-01
 1.0215125940e+00	 7.7520212597e-01	 2.6322622436e-01
 1.0139410451e+00	 7.8507951483e-01	 1.9242530595e-01
 1.0062692577e+00	 7.9488895623e-01	 1.2075839256e-01
 9.9849814899e-01	 8.0462893054e-01	 4.8576458708e-02
 9.9062866646e-01	 8.1429793442e-01	-2.3751894153e-02
 9.8266178750e-01	 8.2389448159e-01	-9.5841541244e-02
 9.7459851912e-01	 8.3341710359e-01	-1.6729203951e-01
 9.6643989748e-01	 8.4286435047e-01	-2.3768893048e-01
 9.5818698745e-01	 8.5223479156e-01	-3.0660513649e-01
 9.4984088221e-01	 8.6152701615e-01	-3.7360244554e-01
 1.0360627807e+00	 7.7052356945e-01	 2.6197791473e-01
 1.0285409576e+00	 7.8053578745e-01	 1.9206176833e-01
 1.0209173137e+00	 7.9048113620e-01	 1.2095667866e-01
 1.0131927418e+00	 8.0035806999e-01	 4.9005474445e-02
 1.0053681651e+00	 8.1016505872e-01	-2.3429751849e-02
 9.9744453781e-01	 8.1990058872e-01	-9.5968678516e-02
 9.8942284394e-01	 8.2956316350e-01	-1.6821389836e-01
 9.8130409746e-01	 8.3915130446e-01	-2.3975216843e-01
 9.7308934164e-01	 8.4866355170e-01	-3.1015576194e-01
 9.6477964872e-01	 8.5809846470e-01	-3.7898391779e-01
 9.5637611935e-01	 8.6745462304e-01	-4.4578438275e-01
 1.0431425434e+00	 7.7578881410e-01	 1.9384702430e-01
 1.0355693211e+00	 7.8586944893e-01	 1.2360396105e-01
 1.0278935824e+00	 7.9588275757e-01	 5.2253656664e-02
 1.0201162258e+00	 8.0582718374e-01	-1.9866445741e-02
 1.0122381813e+00	 8.1570118689e-01	-9.2398810290e-02
 1.0042604092e+00	 8.2550324302e-01	-1.6496685627e-01
 9.9618390038e-01	 8.3523184540e-01	-2.3717612021e-01
 9.8800967579e-01	 8.4488550533e-01	-3.0861552891e-01
 9.7973878581e-01	 8.5446275293e-01	-3.7885877932e-01
 9.7137230998e-01	 8.6396213783e-01	-4.4746582090e-01
 9.6291135649e-01	 8.7338222993e-01	-5.1398443494e-01
 1.0502223061e+00	 7.8105405876e-01	 1.2834325966e-01
 1.0425976847e+00	 7.9120311041e-01	 5.7723855783e-02
 1.0348698510e+00	 8.0128437894e-01	-1.3845579700e-02
 1.0270397099e+00	 8.1129629749e-01	-8.6048546116e-02
 1.0191081974e+00	 8.2123731507e-01	-1.5854743092e-01
 1.0110762805e+00	 8.3110589733e-01	-2.3098454912e-01
 1.0029449568e+00	 8.4090052730e-01	-3.0298330218e-01
 9.9471525413e-01	 8.5061970620e-01	-3.7414945305e-01
 9.8638822998e-01	 8.6026195415e-01	-4.4407251341e-01
 9.7796497124e-01	 8.6982581097e-01	-5.1232723836e-01
 9.6944659363e-01	 8.7930983682e-01	-5.7847522335e-01
 1.0573020688e+00	 7.8631930341e-01	 6.5374098196e-02
 1.0496260483e+00	 7.9653677189e-01	-5.7061672541e-03
 1.0418461197e+00	 8.0668600031e-01	-7.7500639208e-02
 1.0339631940e+00	 8.1676541124e-01	-1.4972901584e-01
 1.0259782136e+00	 8.2677344325e-01	-2.2208867521e-01
 1.0178921519e+00	 8.3670855163e-01	-2.9425568455e-01
 1.0097060133e+00	 8.4656920920e-01	-3.6588593456e-01
 1.0014208325e+00	 8.5635390706e-01	-4.3661639567e-01
 9.9303767415e-01	 8.6606115538e-01	-5.0606649198e-01
 9.8455763250e-01	 8.7568948410e-01	-5.7383958841e-01
 9.7598183078e-01	 8.8523744370e-01	-6.3952458548e-01
 1.0643818315e+00	 7.9158454807e-01	 4.8475474014e-03
 1.0566544118e+00	 8.0187043338e-01	-6.6812246590e-02
 1.0488223884e+00	 8.1208762167e-01	-1.3886879281e-01
 1.0408866781e+00	 8.2223452499e-01	-2.1109295245e-01
 1.0328482297e+00	 8.3230957143e-01	-2.8323187009e-01
 1.0247080232e+00	 8.4231120594e-01	-3.5500993133e-01
 1.0164670697e+00	 8.5223789110e-01	-4.2612985153e-01
 1.0081264108e+00	 8.6208810793e-01	-4.9627389249e-01
 9.9968711831e-01	 8.7186035661e-01	-5.6510520289e-01
 9.9115029376e-01	 8.8155315724e-01	-6.3226927809e-01
 9.8251706792e-01	 8.9116505059e-01	-6.9739553348e-01
 1.0714615942e+00	 7.9684979272e-01	-5.3327670697e-02
 1.0636827754e+00	 8.0720409486e-01	-1.2571888396e-01
 1.0557986570e+00	 8.1748924304e-01	-1.9810484434e-01
 1.0478101622e+00	 8.2770363875e-01	-2.7032225588e-01
 1.0397182458e+00	 8.3784569961e-01	-3.4218252199e-01
 1.0315238946e+00	 8.4791386024e-01	-4.1347263026e-01
 1.0232281261e+00	 8.5790657300e-01	-4.8395617474e-01
 1.0148319891e+00	 8.6782230880e-01	-5.5337451258e-01
 1.0063365625e+00	 8.7765955784e-01	-6.2144805109e-01
 9.9774295503e-01	 8.8741683038e-01	-6.8787766044e-01
 9.8905230506e-01	 8.9709265748e-01	-7.5234620666e-01
 1.0785413569e+00	 8.0211503738e-01	-1.0924193511e-01
 1.0707111390e+00	 8.1253775634e-01	-1.8254878764e-01
 1.0627749257e+00	 8.2289086441e-01	-2.5536099905e-01
 1.0547336463e+00	 8.3317275250e-01	-3.2759551934e-01
 1.0465882620e+00	 8.4338182779e-01	-3.9914222704e-01
 1.0383397659e+00	 8.5351651454e-01	-4.6986472021e-01
 1.0299891826e+00	 8.6357525491e-01	-5.3960125164e-01
 1.0215375675e+00	 8.7355650967e-01	-6.0816580528e-01
 1.0129860066e+00	 8.8345875907e-01	-6.7534930996e-01
 1.0043356163e+00	 8.9328050351e-01	-7.4092098594e-01
 9.9558754220e-01	 9.0302026437e-01	-8.0462981855e-01
 1.0856211196e+00	 8.0738028204e-01	-1.6298454148e-01
 1.0777395025e+00	 8.1787141782e-01	-2.3742271469e-01
 1.0697511944e+00	 8.2829248578e-01	-3.1078672997e-01
 1.0616571303e+00	 8.3864186625e-01	-3.8308791709e-01
 1.0534582781e+00	 8.4891795597e-01	-4.5430857728e-01
 1.0451556373e+00	 8.5911916885e-01	-5.2440265968e-01
 1.0367502390e+00	 8.6924393681e-01	-5.9329658900e-01
 1.0282431458e+00	 8.7929071054e-01	-6.6089024176e-01
 1.0196354508e+00	 8.8925796029e-01	-7.2705806725e-01
 1.0109282776e+00	 8.9914417665e-01	-7.9165034860e-01
 1.0021227793e+00	 9.0894787126e-01	-8.5449459868e-01
 9.3677040792e-01	 8.4967180238e-01	-2.1617872001e-01
 9.2844976344e-01	 8.5875611319e-01	-2.8248823385e-01
 9.2003945964e-01	 8.6776060528e-01	-3.4879990201e-01
 9.1154063999e-01	 8.7668396607e-01	-4.1493059989e-01
 9.0295447381e-01	 8.8552490531e-01	-4.8069134523e-01
 8.9428215577e-01	 8.9428215577e-01	-5.4588856118e-01
 8.8552490531e-01	 9.0295447381e-01	-6.1032538427e-01
 8.7668396607e-01	 9.1154063999e-01	-6.7380301010e-01
 8.6776060528e-01	 9.2003945964e-01	-7.3612206991e-01
 8.5875611319e-01	 9.2844976344e-01	-7.9708403023e-01
 8.4967180238e-01	 9.3677040792e-01	-8.5649260824e-01
 9.4330564507e-01	 8.5559940926e-01	-2.9716125401e-01
 9.3492695287e-01	 8.6474709540e-01	-3.6318413775e-01
 9.2645797586e-01	 8.7381440597e-01	-4.2898177381e-01
 9.1789986547e-01	 8.8280001924e-01	-4.9439671701e-01
 9.0925379920e-01	 8.9170263595e-01	-5.5926589201e-01
 9.0052098005e-01	 9.0052098005e-01	-6.2342186521e-01
 8.9170263595e-01	 9.0925379920e-01	-6.8669416341e-01
 8.8280001924e-01	 9.1789986547e-01	-7.4891063189e-01
 8.7381440597e-01	 9.2645797586e-01	-8.0989882476e-01
 8.6474709540e-01	 9.3492695287e-01	-8.6948741972e-01
 8.5559940926e-01	 9.4330564507e-01	-9.2750764941e-01
 9.4984088221e-01	 8.6152701615e-01	-3.7360244554e-01
 9.4140414229e-01	 8.7073807760e-01	-4.3932970879e-01
 9.3287649207e-01	 8.7986820666e-01	-5.0466349640e-01
 9.2425909095e-01	 8.8891607240e-01	-5.6946124191e-01
 9.1555312459e-01	 8.9788036659e-01	-6.3357482656e-01
 9.0675980432e-01	 9.0675980432e-01	-6.9685187640e-01
 8.9788036659e-01	 9.1555312459e-01	-7.5913710819e-01
 8.8891607240e-01	 9.2425909095e-01	-8.2027371684e-01
 8.7986820666e-01	 9.3287649207e-01	-8.8010479668e-01
 8.7073807760e-01	 9.4140414229e-01	-9.3847478859e-01
 8.6152701615e-01	 9.4984088221e-01	-9.9523094482e-01
 9.5637611935e-01	 8.6745462304e-01	-4.4578438275e-01
 9.4788133172e-01	 8.7672905981e-01	-5.1119853502e-01
 9.3929500828e-01	 8.8592200735e-01	-5.7610780439e-01
 9.3061831643e-01	 8.9503212556e-01	-6.4037390389e-01
 9.2185244998e-01	 9.0405809723e-01	-7.0385292326e-01
 9.1299862859e-01	 9.1299862859e-01	-7.6639666742e-01
 9.0405809723e-01	 9.2185244998e-01	-8.2785404625e-01
 8.9503212556e-01	 9.3061831643e-01	-8.8807250807e-01
 8.8592200735e-01	 9.3929500828e-01	-9.4689950891e-01
 8.7672905981e-01	 9.4788133172e-01	-1.0041840091e+00
 8.6745462304e-01	 9.5637611935e-01	-1.0597779893e+00
 9.6291135649e-01	 8.7338222993e-01	-5.1398443494e-01
 9.5435852114e-01	 8.8272004202e-01	-5.7905981425e-01
 9.4571352449e-01	 8.9197580803e-01	-6.4357344433e-01
 9.3697754191e-01	 9.0114817873e-01	-7.0738091403e-01
 9.2815177537e-01	 9.1023582787e-01	-7.7033196974e-01
 9.1923745287e-01	 9.1923745287e-01	-8.3227191136e-01
 9.1023582787e-01	 9.2815177537e-01	-8.9304304233e-01
 9.0114817873e-01	 9.3697754191e-01	-9.5248616586e-01
 8.9197580803e-01	 9.4571352449e-01	-1.0104421190e+00
 8.8272004202e-01	 9.5435852114e-01	-1.0667533362e+00
 8.7338222993e-01	 9.6291135649e-01	-1.1212654329e+00
 9.6944659363e-01	 8.7930983682e-01	-5.7847522335e-01
 9.6083571056e-01	 8.8871102423e-01	-6.4317831566e-01
 9.5213204070e-01	 8.9802960872e-01	-7.0731512507e-01
 9.4333676739e-01	 9.0726423189e-01	-7.7072490245e-01
 9.3445110076e-01	 9.1641355851e-01	-8.3324068945e-01
 9.2547627714e-01	 9.2547627714e-01	-8.9469078803e-01
 9.1641355851e-01	 9.3445110076e-01	-9.5490028703e-01
 9.0726423189e-01	 9.4333676739e-01	-1.0136926377e+00
 8.9802960872e-01	 9.5213204070e-01	-1.0708912696e+00
 8.8871102423e-01	 9.6083571056e-01	-1.1263212375e+00
 8.7930983682e-01	 9.6944659363e-01	-1.1798108905e+00
 9.7598183078e-01	 8.8523744370e-01	-6.3952458548e-01
 9.6731289999e-01	 8.9470200644e-01	-7.0381433540e-01
 9.5855055691e-01	 9.0408340941e-01	-7.6758346268e-01
 9.4969599287e-01	 9.1338028506e-01	-8.3064485068e-01
 9.4075042615e-01	 9.2259128915e-01	-8.9280465986e-01
 9.3171510142e-01	 9.3171510142e-01	-9.5386388661e-01
 9.2259128915e-01	 9.4075042615e-01	-1.0136199827e+00
 9.1338028506e-01	 9.4969599287e-01	-1.0718685266e+00
 9.0408340941e-01	 9.5855055691e-01	-1.1284049376e+00
 8.9470200644e-01	 9.6731289999e-01	-1.1830262234e+00
 8.8523744370e-01	 9.7598183078e-01	-1.2355327519e+00
 9.8251706792e-01	 8.9116505059e-01	-6.9739553348e-01
 9.7379008941e-01	 9.0069298865e-01	-7.6122364655e-01
 9.6496907312e-01	 9.1013721009e-01	-8.2462492007e-01
 9.5605521835e-01	 9.1949633822e-01	-8.8737601937e-01
 9.4704975154e-01	 9.2876901979e-01	-9.4924622662e-01
 9.3795392569e-01	 9.3795392569e-01	-1.0099991049e+00
 9.2876901979e-01	 9.4704975154e-01	-1.0693942267e+00
 9.1949633822e-01	 9.5605521835e-01	-1.1271889568e+00
 9.1013721009e-01	 9.6496907312e-01	-1.1831402823e+00
 9.0069298865e-01	 9.7379008941e-01	-1.2370066771e+00
 8.9116505059e-01	 9.8251706792e-01	-1.2885499930e+00
 9.8905230506e-01	 8.9709265748e-01	-7.5234620666e-01
 9.8026727883e-01	 9.0668397086e-01	-8.1565744363e-01
 9.7138758933e-01	 9.1619101078e-01	-8.7868174171e-01
 9.6241444383e-01	 9.2561239139e-01	-9.4114987142e-01
 9.5334907693e-01	 9.3494675044e-01	-1.0027844138e+00
 9.4419274996e-01	 9.4419274996e-01	-1.0633015455e+00
 9.3494675044e-01	 9.5334907693e-01	-1.1224128918e+00
 9.2561239139e-01	 9.6241444383e-01	-1.1798274386e+00
 9.1619101078e-01	 9.7138758933e-01	-1.2352534933e+00
 9.0668397086e-01	 9.8026727883e-01	-1.2884006839e+00
 8.9709265748e-01	 9.8905230506e-01	-1.3389819863e+00
 9.9558754220e-01	 9.0302026437e-01	-8.0462981855e-01
 9.8674446826e-01	 9.1267495307e-01	-8.6736228191e-01
 9.7780610554e-01	 9.2224481147e-01	-9.2999188347e-01
 9.6877366931e-01	 9.3172844455e-01	-9.9219399093e-01
 9.5964840232e-01	 9.4112448108e-01	-1.0536348305e+00
 9.5043157424e-01	 9.5043157424e-01	-1.1139734083e+00
 9.4112448108e-01	 9.5964840232e-01	-1.1728635047e+00
 9.3172844455e-01	 9.6877366931e-01	-1.2299557304e+00
 9.2224481147e-01	 9.7780610554e-01	-1.2848996356e+00
 9.1267495307e-01	 9.8674446826e-01	-1.3373458602e+00
 9.0302026437e-01	 9.9558754220e-01	-1.3869483137e+00
 1.0021227793e+00	 9.0894787126e-01	-8.5449459868e-01
 9.9322165768e-01	 9.1866593528e-01	-9.1658001188e-01
 9.8422462175e-01	 9.2829861215e-01	-9.7878893809e-01
 9.7513289479e-01	 9.3784449771e-01	-1.0407319981e+00
 9.6594772771e-01	 9.4730221172e-01	-1.1020095736e+00
 9.5667039851e-01	 9.5667039851e-01	-1.1622138809e+00
 9.4730221172e-01	 9.6594772771e-01	-1.2209311216e+00
 9.3784449771e-01	 9.7513289479e-01	-1.2777436999e+00
 9.2829861215e-01	 9.8422462175e-01	-1.3322324959e+00
 9.1866593528e-01	 9.9322165768e-01	-1.3839791830e+00
 9.0894787126e-01	 1.0021227793e+00	-1.4325685784e+00
 8.4967180238e-01	 9.3677040792e-01	-8.5649260824e-01
 8.4050744529e-01	 9.4500166493e-01	-9.1545792999e-01
 8.3126594802e-01	 9.5314100914e-01	-9.7498373598e-01
 8.2194870185e-01	 9.6118736245e-01	-1.0347499920e+00
 8.1255711779e-01	 9.6913967462e-01	-1.0944424710e+00
 8.0309262581e-01	 9.7699692376e-01	-1.1537543014e+00
 7.9355667418e-01	 9.8475811671e-01	-1.2123874842e+00
 7.8395072873e-01	 9.9242228952e-01	-1.2700543698e+00
 7.7427627210e-01	 9.9998850774e-01	-1.3264790879e+00
 7.6453480300e-01	 1.0074558669e+00	-1.3813989205e+00
 7.5472783548e-01	 1.0148234927e+00	-1.4345656121e+00
 8.5559940926e-01	 9.4330564507e-01	-9.2750764941e-01
 8.4637111842e-01	 9.5159432619e-01	-9.8506687067e-01
 8.3706514924e-01	 9.5979045331e-01	-1.0431317955e+00
 8.2768290272e-01	 9.6789294079e-01	-1.1013572629e+00
 8.1822579969e-01	 9.7590073106e-01	-1.1594029523e+00
 8.0869528011e-01	 9.8381279511e-01	-1.2169350311e+00
 7.9909280236e-01	 9.9162813285e-01	-1.2736277729e+00
 7.8941984248e-01	 9.9934577360e-01	-1.3291651350e+00
 7.7967789347e-01	 1.0069647764e+00	-1.3832422894e+00
 7.6986846449e-01	 1.0144842304e+00	-1.4355670967e+00
 7.5999308014e-01	 1.0219032553e+00	-1.4858615162e+00
 8.6152701615e-01	 9.4984088221e-01	-9.9523094482e-01
 8.5223479156e-01	 9.5818698745e-01	-1.0514581797e+00
 8.4286435047e-01	 9.6643989748e-01	-1.1080813682e+00
 8.3341710359e-01	 9.7459851912e-01	-1.1647413916e+00
 8.2389448159e-01	 9.8266178750e-01	-1.2210834451e+00
 8.1429793442e-01	 9.9062866646e-01	-1.2767587695e+00
 8.0462893054e-01	 9.9849814899e-01	-1.3314263541e+00
 7.9488895623e-01	 1.0062692577e+00	-1.3847545992e+00
 7.8507951483e-01	 1.0139410451e+00	-1.4364229310e+00
 7.7520212597e-01	 1.0215125940e+00	-1.4861233589e+00
 7.6525832479e-01	 1.0289830180e+00	-1.5335619682e+00
 8.6745462304e-01	 9.5637611935e-01	-1.0597779893e+00
 8.5809846470e-01	 9.6477964872e-01	-1.1147289801e+00
 8.4866355170e-01	 9.7308934164e-01	-1.1699196456e+00
 8.3915130446e-01	 9.8130409746e-01	-1.2249878191e+00
 8.2956316350e-01	 9.8942284394e-01	-1.2795755556e+00
 8.1990058872e-01	 9.9744453781e-01	-1.3333309324e+00
 8.1016505872e-01	 1.0053681651e+00	-1.3859098212e+00
 8.0035806999e-01	 1.0131927418e+00	-1.4369776191e+00
 7.9048113620e-01	 1.0209173137e+00	-1.4862109313e+00
 7.8053578745e-01	 1.0285409576e+00	-1.5332991951e+00
 7.7052356945e-01	 1.0360627807e+00	-1.5779462364e+00
 8.7338222993e-01	 9.6291135649e-01	-1.1212654329e+00
 8.6396213783e-01	 9.7137230998e-01	-1.1749782185e+00
 8.5446275293e-01	 9.7973878581e-01	-1.2287360849e+00
 8.4488550533e-01	 9.8800967579e-01	-1.2821844748e+00
 8.3523184540e-01	 9.9618390038e-01	-1.3349733876e+00
 8.2550324302e-01	 1.0042604092e+00	-1.3867592359e+00
 8.1570118689e-01	 1.0122381813e+00	-1.4372066701e+00
 8.0582718374e-01	 1.0201162258e+00	-1.4859903630e+00
 7.9588275757e-01	 1.0278935824e+00	-1.5327967434e+00
 7.8586944893e-01	 1.0355693211e+00	-1.5773256703e+00
 7.7578881410e-01	 1.0431425434e+00	-1.6192920367e+00
 8.7930983682e-01	 9.6944659363e-01	-1.1798108905e+00
 8.6982581097e-01	 9.7796497124e-01	-1.2323064574e+00
 8.6026195415e-01	 9.8638822998e-01	-1.2846221928e+00
 8.5061970620e-01	 9.9471525413e-01	-1.3364215584e+00
 8.4090052730e-01	 1.0029449568e+00	-1.3873733312e+00
 8.3110589733e-01	 1.0110762805e+00	-1.4371534983e+00
 8.2123731507e-01	 1.0191081974e+00	-1.4854471218e+00
 8.1129629749e-01	 1.0270397099e+00	-1.5319501601e+00
 8.0128437894e-01	 1.0348698510e+00	-1.5763712369e+00
 7.9120311041e-01	 1.0425976847e+00	-1.6184333489e+00
 7.8105405876e-01	 1.0502223061e+00	-1.6578755003e+00
 8.8523744370e-01	 9.7598183078e-01	-1.2355327519e+00
 8.7568948410e-01	 9.8455763250e-01	-1.2868156694e+00
 8.6606115538e-01	 9.9303767415e-01	-1.3376713104e+00
 8.5635390706e-01	 1.0014208325e+00	-1.3877913249e+00
 8.4656920920e-01	 1.0097060133e+00	-1.4368738523e+00
 8.3670855163e-01	 1.0178921519e+00	-1.4846254425e+00
 8.2677344325e-01	 1.0259782136e+00	-1.5307629441e+00
 8.1676541124e-01	 1.0339631940e+00	-1.5750153484e+00
 8.0668600031e-01	 1.0418461197e+00	-1.6171255785e+00
 7.9653677189e-01	 1.0496260483e+00	-1.6568522130e+00
 7.8631930341e-01	 1.0573020688e+00	-1.6939711363e+00
 8.9116505059e-01	 9.8251706792e-01	-1.2885499930e+00
 8.8155315724e-01	 9.9115029376e-01	-1.3386090324e+00
 8.7186035661e-01	 9.9968711831e-01	-1.3879784009e+00
 8.6208810793e-01	 1.0081264108e+00	-1.4363878700e+00
 8.5223789110e-01	 1.0164670697e+00	-1.4835752856e+00
 8.4231120594e-01	 1.0247080232e+00	-1.5292885011e+00
 8.3230957143e-01	 1.0328482297e+00	-1.5732872754e+00
 8.2223452499e-01	 1.0408866781e+00	-1.6153451237e+00
 8.1208762167e-01	 1.0488223884e+00	-1.6552511112e+00
 8.0187043338e-01	 1.0566544118e+00	-1.6928115787e+00
 7.9158454807e-01	 1.0643818315e+00	-1.7278517899e+00
 8.9709265748e-01	 9.8905230506e-01	-1.3389819863e+00
 8.8741683038e-01	 9.9774295503e-01	-1.3877907263e+00
 8.7765955784e-01	 1.0063365625e+00	-1.4356398383e+00
 8.6782230880e-01	 1.0148319891e+00	-1.4823069183e+00
 8.5790657300e-01	 1.0232281261e+00	-1.5275796270e+00
 8.4791386024e-01	 1.0315238946e+00	-1.5712576215e+00
 8.3784569961e-01	 1.0397182458e+00	-1.6131544483e+00
 8.2770363875e-01	 1.0478101622e+00	-1.6530993868e+00
 8.1748924304e-01	 1.0557986570e+00	-1.6909392328e+00
 8.0720409486e-01	 1.0636827754e+00	-1.7265400092e+00
 7.9684979272e-01	 1.0714615942e+00	-1.7597885960e+00
 9.0302026437e-01	 9.9558754220e-01	-1.3869483137e+00
 8.9328050351e-01	 1.0043356163e+00	-1.4344657310e+00
 8.8345875907e-01	 1.0129860066e+00	-1.4807531980e+00
 8.7355650967e-01	 1.0215375675e+00	-1.5256456131e+00
 8.6357525491e-01	 1.0299891826e+00	-1.5689903299e+00
 8.5351651454e-01	 1.0383397659e+00	-1.6106490731e+00
 8.4338182779e-01	 1.0465882620e+00	-1.6504998141e+00
 8.3317275250e-01	 1.0547336463e+00	-1.6884385921e+00
 8.2289086441e-01	 1.0627749257e+00	-1.7243812719e+00
 8.1253775634e-01	 1.0707111390e+00	-1.7582652258e+00
 8.0211503738e-01	 1.0785413569e+00	-1.7900509297e+00
 9.0894787126e-01	 1.0021227793e+00	-1.4325685784e+00
 8.9914417665e-01	 1.0109282776e+00	-1.4787396248e+00
 8.8925796029e-01	 1.0196354508e+00	-1.5234170485e+00
 8.7929071054e-01	 1.0282431458e+00	-1.5665023076e+00
 8.6924393681e-01	 1.0367502390e+00	-1.6079121009e+00
 8.5911916885e-01	 1.0451556373e+00	-1.6475802553e+00
 8.4891795597e-01	 1.0534582781e+00	-1.6854595683e+00
 8.3864186625e-01	 1.0616571303e+00	-1.7215235947e+00
 8.2829248578e-01	 1.0697511944e+00	-1.7557683634e+00
 8.1787141782e-01	 1.0777395025e+00	-1.7882140157e+00
 8.0738028204e-01	 1.0856211196e+00	-1.8189063519e+00
 7.5472783548e-01	 1.0148234927e+00	-1.4345656121e+00
 7.4485858041e-01	 1.0220893154e+00	-1.4865236334e+00
 7.3492691326e-01	 1.0292537870e+00	-1.5378534730e+00
 7.2493438309e-01	 1.0363161302e+00	-1.5883649178e+00
 7.1488255120e-01	 1.0432755991e+00	-1.6378938839e+00
 7.0477299035e-01	 1.0501314794e+00	-1.6863032494e+00
 6.9460728400e-01	 1.0568830886e+00	-1.7334835758e+00
 6.8438702546e-01	 1.0635297760e+00	-1.7793537131e+00
 6.7411381717e-01	 1.0700709229e+00	-1.8238612832e+00
 6.6378926983e-01	 1.0765059431e+00	-1.8669830398e+00
 6.5341500165e-01	 1.0828342824e+00	-1.9087251013e+00
 7.5999308014e-01	 1.0219032553e+00	-1.4858615162e+00
 7.5005497370e-01	 1.0292197670e+00	-1.5347405700e+00
 7.4005401978e-01	 1.0364342204e+00	-1.5828985756e+00
 7.2999177823e-01	 1.0435458330e+00	-1.6301839725e+00
 7.1986982125e-01	 1.0505538536e+00	-1.6764742380e+00
 7.0968973258e-01	 1.0574575630e+00	-1.7216766932e+00
 6.9945310671e-01	 1.0642562737e+00	-1.7657291908e+00
 6.8916154809e-01	 1.0709493307e+00	-1.8086006793e+00
 6.7881667031e-01	 1.0775361109e+00	-1.8502916410e+00
 6.6842009533e-01	 1.0840160240e+00	-1.8908343983e+00
 6.5797345264e-01	 1.0903885121e+00	-1.9302932869e+00
 7.6525832479e-01	 1.0289830180e+00	-1.5335619682e+00
 7.5525136699e-01	 1.0363502186e+00	-1.5794580140e+00
 7.4518112629e-01	 1.0436146539e+00	-1.6246306429e+00
 7.3504917337e-01	 1.0507755358e+00	-1.6689465342e+00
 7.2485709130e-01	 1.0578321081e+00	-1.7123036431e+00
 7.1460647481e-01	 1.0647836465e+00	-1.7546320143e+00
 7.0429892943e-01	 1.0716294588e+00	-1.7958944727e+00
 6.9393607072e-01	 1.0783688854e+00	-1.8360871847e+00
 6.8351952346e-01	 1.0850012990e+00	-1.8752400859e+00
 6.7305092083e-01	 1.0915261050e+00	-1.9134171729e+00
 6.6253190362e-01	 1.0979427418e+00	-1.9507166541e+00
 7.7052356945e-01	 1.0360627807e+00	-1.5779462364e+00
 7.6044776028e-01	 1.0434806702e+00	-1.6209985042e+00
 7.5030823281e-01	 1.0507950873e+00	-1.6634007451e+00
 7.4010656851e-01	 1.0580052387e+00	-1.7050178847e+00
 7.2984436136e-01	 1.0651103626e+00	-1.7457477008e+00
 7.1952321704e-01	 1.0721097300e+00	-1.7855216809e+00
 7.0914475215e-01	 1.0790026439e+00	-1.8243057511e+00
 6.9871059335e-01	 1.0857884401e+00	-1.8621008706e+00
 6.8822237660e-01	 1.0924664870e+00	-1.8989434869e+00
 6.7768174633e-01	 1.0990361860e+00	-1.9349058489e+00
 6.6709035461e-01	 1.1054969714e+00	-1.9700961738e+00
 7.7578881410e-01	 1.0431425434e+00	-1.6192920367e+00
 7.6564415357e-01	 1.0506111218e+00	-1.6596820157e+00
 7.5543533932e-01	 1.0579755208e+00	-1.6995567718e+00
 7.4516396364e-01	 1.0652349415e+00	-1.7387598900e+00
 7.3483163141e-01	 1.0723886171e+00	-1.7771687320e+00
 7.2443995927e-01	 1.0794358135e+00	-1.8146953728e+00
 7.1399057486e-01	 1.0863758290e+00	-1.8512874032e+00
 7.0348511597e-01	 1.0932079948e+00	-1.8869285935e+00
 6.9292522974e-01	 1.0999316750e+00	-1.9216394127e+00
 6.8231257183e-01	 1.1065462670e+00	-1.9554774003e+00
 6.7164880559e-01	 1.1130512011e+00	-1.9885373851e+00
 7.8105405876e-01	 1.0502223061e+00	-1.6578755003e+00
 7.7084054685e-01	 1.0577415734e+00	-1.6958259687e+00
 7.6056244583e-01	 1.0651559543e+00	-1.7334434689e+00
 7.5022135878e-01	 1.0724646443e+00	-1.7705310534e+00
 7.3981890146e-01	 1.0796668717e+00	-1.8069258333e+00
 7.2935670150e-01	 1.0867618971e+00	-1.8425000289e+00
 7.1883639758e-01	 1.0937490141e+00	-1.8771618811e+00
 7.0825963860e-01	 1.1006275495e+00	-1.9108564201e+00
 6.9762808288e-01	 1.1073968631e+00	-1.9435660850e+00
 6.8694339732e-01	 1.1140563480e+00	-1.9753111896e+00
 6.7620725658e-01	 1.1206054308e+00	-2.0061502321e+00
 7.8631930341e-01	 1.0573020688e+00	-1.6939711363e+00
 7.7603694014e-01	 1.0648720250e+00	-1.7297452313e+00
 7.6568955235e-01	 1.0723363877e+00	-1.7654024693e+00
 7.5527875392e-01	 1.0796943471e+00	-1.8006865610e+00
 7.4480617151e-01	 1.0869451262e+00	-1.8353749255e+00
 7.3427344373e-01	 1.0940879806e+00	-1.8692798870e+00
 7.2368222029e-01	 1.1011221992e+00	-1.9022497322e+00
 7.1303416123e-01	 1.1080471042e+00	-1.9341696181e+00
 7.0233093602e-01	 1.1148620511e+00	-1.9649623277e+00
 6.9157422282e-01	 1.1215664290e+00	-1.9945888677e+00
 6.8076570756e-01	 1.1281596605e+00	-2.0230489033e+00
 7.9158454807e-01	 1.0643818315e+00	-1.7278517899e+00
 7.8123333343e-01	 1.0720024766e+00	-1.7617521165e+00
 7.7081665886e-01	 1.0795168212e+00	-1.7957723156e+00
 7.6033614906e-01	 1.0869240500e+00	-1.8295783197e+00
 7.4979344156e-01	 1.0942233807e+00	-1.8628687943e+00
 7.3919018596e-01	 1.1014140641e+00	-1.8953765173e+00
 7.2852804301e-01	 1.1084953844e+00	-1.9268696140e+00
 7.1780868385e-01	 1.1154666590e+00	-1.9571526411e+00
 7.0703378917e-01	 1.1223272392e+00	-1.9860675143e+00
 6.9620504832e-01	 1.1290765099e+00	-2.0134942720e+00
 6.8532415854e-01	 1.1357138902e+00	-2.0393516732e+00
 7.9684979272e-01	 1.0714615942e+00	-1.7597885960e+00
 7.8642972672e-01	 1.0791329282e+00	-1.7921563733e+00
 7.7594376538e-01	 1.0866972546e+00	-1.8248884773e+00
 7.6539354420e-01	 1.0941537528e+00	-1.8575549875e+00
 7.5478071162e-01	 1.1015016352e+00	-1.8897571252e+00
 7.4410692819e-01	 1.1087401476e+00	-1.9211288489e+00
 7.3337386572e-01	 1.1158685695e+00	-1.9513383027e+00
 7.2258320648e-01	 1.1228862137e+00	-1.9800891110e+00
 7.1173664231e-01	 1.1297924272e+00	-2.0071215119e+00
 7.0083587382e-01	 1.1365865909e+00	-2.0322133247e+00
 6.8988260953e-01	 1.1432681199e+00	-2.0551807448e+00
 8.0211503738e-01	 1.0785413569e+00	-1.7900509297e+00
 7.9162612001e-01	 1.0862633799e+00	-1.8212651723e+00
 7.8107087189e-01	 1.0938776881e+00	-1.8530833611e+00
 7.7045093933e-01	 1.1013834556e+00	-1.8849619983e+00
 7.5976798167e-01	 1.1087798897e+00	-1.9163865299e+00
 7.4902367042e-01	 1.1160662312e+00	-1.9468731900e+00
 7.3821968844e-01	 1.1232417546e+00	-1.9759706972e+00
 7.2735772911e-01	 1.1303057684e+00	-2.0032617941e+00
 7.1643949545e-01	 1.1372576152e+00	-2.0283646227e+00
 7.0546669932e-01	 1.1440966719e+00	-2.0509339295e+00
 6.9444106051e-01	 1.1508223496e+00	-2.0706620943e+00
 8.0738028204e-01	 1.0856211196e+00	-1.8189063519e+00
 7.9682251330e-01	 1.0933938315e+00	-1.8493830864e+00
 7.8619797841e-01	 1.1010581216e+00	-1.8806863151e+00
 7.7550833447e-01	 1.1086131585e+00	-1.9121415795e+00
 7.6475525172e-01	 1.1160581442e+00	-1.9431005680e+00
 7.5394041265e-01	 1.1233923147e+00	-1.9729432425e+00
 7.4306551116e-01	 1.1306149397e+00	-2.0010798167e+00
 7.3213225174e-01	 1.1377253231e+00	-2.0269525747e+00
 7.2114234859e-01	 1.1447228033e+00	-2.0500375231e+00
 7.1009752482e-01	 1.1516067529e+00	-2.0698458689e+00
 6.9899951150e-01	 1.1583765792e+00	-2.0859253174e+00
 6.5341500165e-01	 1.0828342824e+00	-1.9087251013e+00
 6.4299263775e-01	 1.0890554195e+00	-1.9499667075e+00
 6.3252380994e-01	 1.0951688665e+00	-1.9915740363e+00
 6.2201015531e-01	 1.1011741682e+00	-2.0335708878e+00
 6.1145331523e-01	 1.1070709020e+00	-2.0760012706e+00
 6.0085493454e-01	 1.1128586778e+00	-2.1189292692e+00
 5.9021666079e-01	 1.1185371380e+00	-2.1624387873e+00
 5.7954014345e-01	 1.1241059573e+00	-2.2055047187e+00
 5.6882703310e-01	 1.1295648427e+00	-2.2461363935e+00
 5.5807898070e-01	 1.1349135336e+00	-2.2846360759e+00
 5.4729763683e-01	 1.1401518013e+00	-2.3213742768e+00
 6.5797345264e-01	 1.0903885121e+00	-1.9302932869e+00
 6.4747837869e-01	 1.0966530500e+00	-1.9694796838e+00
 6.3693651668e-01	 1.1028091465e+00	-2.0090911675e+00
 6.2634951513e-01	 1.1088563433e+00	-2.0490605837e+00
 6.1571902685e-01	 1.1147942148e+00	-2.0893410930e+00
 6.0504670816e-01	 1.1206223682e+00	-2.1299061909e+00
 5.9433421811e-01	 1.1263404433e+00	-2.1707495986e+00
 5.8358321765e-01	 1.1319481126e+00	-2.2115724570e+00
 5.7279536891e-01	 1.1374450811e+00	-2.2499641052e+00
 5.6197233435e-01	 1.1428310863e+00	-2.2856456442e+00
 5.5111577606e-01	 1.1481058980e+00	-2.3189092245e+00
 6.6253190362e-01	 1.0979427418e+00	-1.9507166541e+00
 6.5196411963e-01	 1.1042506805e+00	-1.9878360182e+00
 6.4134922343e-01	 1.1104494265e+00	-2.0252842049e+00
 6.3068887495e-01	 1.1165385184e+00	-2.0629177157e+00
 6.1998473847e-01	 1.1225175276e+00	-2.1006138468e+00
 6.0923848178e-01	 1.1283860585e+00	-2.1382708385e+00
 5.9845177542e-01	 1.1341437485e+00	-2.1758078901e+00
 5.8762629186e-01	 1.1397902678e+00	-2.2131602835e+00
 5.7676370472e-01	 1.1453253194e+00	-2.2484936343e+00
 5.6586568800e-01	 1.1507486390e+00	-2.2804964441e+00
 5.5493391529e-01	 1.1560599947e+00	-2.3093997853e+00
 6.6709035461e-01	 1.1054969714e+00	-1.9700961738e+00
 6.5644986057e-01	 1.1118483110e+00	-2.0050615663e+00
 6.4576193017e-01	 1.1180897066e+00	-2.0401112713e+00
 6.3502823477e-01	 1.1242206935e+00	-2.0750397260e+00
 6.2425045010e-01	 1.1302408404e+00	-2.1096630112e+00
 6.1343025541e-01	 1.1361497489e+00	-2.1438191088e+00
 6.0256933273e-01	 1.1419470538e+00	-2.1773680186e+00
 5.9166936606e-01	 1.1476324231e+00	-2.2101917339e+00
 5.8073204052e-01	 1.1532055578e+00	-2.2414467444e+00
 5.6975904164e-01	 1.1586661917e+00	-2.2688791411e+00
 5.5875205452e-01	 1.1640140914e+00	-2.2925104101e+00
 6.7164880559e-01	 1.1130512011e+00	-1.9885373851e+00
 6.6093560150e-01	 1.1194459415e+00	-2.0211888612e+00
 6.5017463691e-01	 1.1257299866e+00	-2.0535390639e+00
 6.3936759460e-01	 1.1319028687e+00	-2.0853343223e+00
 6.2851616172e-01	 1.1379641532e+00	-2.1163438252e+00
 6.1762202903e-01	 1.1439134392e+00	-2.1463599654e+00
 6.0668689005e-01	 1.1497503591e+00	-2.1751985353e+00
 5.9571244026e-01	 1.1554745784e+00	-2.2026987750e+00
 5.8470037633e-01	 1.1610857962e+00	-2.2285645580e+00
 5.7365239529e-01	 1.1665837444e+00	-2.2505040773e+00
 5.6257019375e-01	 1.1719681881e+00	-2.2679254038e+00
 6.7620725658e-01	 1.1206054308e+00	-2.0061502321e+00
 6.6542134244e-01	 1.1270435720e+00	-2.0362568874e+00
 6.5458734366e-01	 1.1333702667e+00	-2.0655425711e+00
 6.4370695442e-01	 1.1395850438e+00	-2.0937191448e+00
 6.3278187334e-01	 1.1456874660e+00	-2.1205229116e+00
 6.2181380265e-01	 1.1516771296e+00	-2.1457150248e+00
 6.1080444736e-01	 1.1575536643e+00	-2.1690817405e+00
 5.9975551447e-01	 1.1633167337e+00	-2.1904345160e+00
 5.8866871214e-01	 1.1689660346e+00	-2.2096099541e+00
 5.7754574893e-01	 1.1745012971e+00	-2.2251009671e+00
 5.6638833298e-01	 1.1799222848e+00	-2.2366996072e+00
 6.8076570756e-01	 1.1281596605e+00	-2.0230489033e+00
 6.6990708338e-01	 1.1346412025e+00	-2.0503108593e+00
 6.5900005040e-01	 1.1410105467e+00	-2.0761047961e+00
 6.4804631424e-01	 1.1472672189e+00	-2.1001214420e+00
 6.3704758496e-01	 1.1534107788e+00	-2.1220779113e+00
 6.2600557627e-01	 1.1594408199e+00	-2.1417181554e+00
 6.1492200467e-01	 1.1653569696e+00	-2.1588132525e+00
 6.0379858867e-01	 1.1711588890e+00	-2.1731615327e+00
 5.9263704795e-01	 1.1768462729e+00	-2.1846018566e+00
 5.8143910258e-01	 1.1824188498e+00	-2.1964265122e+00
 5.7020647220e-01	 1.1878763815e+00	-2.2094356652e+00
 6.8532415854e-01	 1.1357138902e+00	-2.0393516732e+00
 6.7439282432e-01	 1.1422388330e+00	-2.0634020036e+00
 6.6341275714e-01	 1.1486508268e+00	-2.0852164881e+00
 6.5238567406e-01	 1.1549493941e+00	-2.1044777563e+00
 6.4131329658e-01	 1.1611340916e+00	-2.1208971282e+00
 6.3019734989e-01	 1.1672045102e+00	-2.1342150885e+00
 6.1903956198e-01	 1.1731602748e+00	-2.1442015895e+00
 6.0784166287e-01	 1.1790010443e+00	-2.1513563954e+00
 5.9660538376e-01	 1.1847265113e+00	-2.1610716192e+00
 5.8533245622e-01	 1.1903364025e+00	-2.1741037875e+00
 5.7402461143e-01	 1.1958304782e+00	-2.1881925560e+00
 6.8988260953e-01	 1.1432681199e+00	-2.0551807448e+00
 6.7887856526e-01	 1.1498364636e+00	-2.0755873461e+00
 6.6782546389e-01	 1.1562911068e+00	-2.0928758791e+00
 6.5672503388e-01	 1.1626315692e+00	-2.1067336165e+00
 6.4557900820e-01	 1.1688574044e+00	-2.1168791849e+00
 6.3438912351e-01	 1.1749682006e+00	-2.1230630405e+00
 6.2315711930e-01	 1.1809635801e+00	-2.1272723869e+00
 6.1188473708e-01	 1.1868431996e+00	-2.1346806557e+00
 6.0057371956e-01	 1.1926067497e+00	-2.1451556741e+00
 5.8922580987e-01	 1.1982539552e+00	-2.1583054599e+00
 5.7784275066e-01	 1.2037845749e+00	-2.1726563463e+00
 6.9444106051e-01	 1.1508223496e+00	-2.0706620943e+00
 6.8336430619e-01	 1.1574340941e+00	-2.0869295030e+00
 6.7223817063e-01	 1.1639313869e+00	-2.0990884270e+00
 6.6106439370e-01	 1.1703137443e+00	-2.1068432397e+00
 6.4984471983e-01	 1.1765807172e+00	-2.1099333242e+00
 6.3858089713e-01	 1.1827318909e+00	-2.1123685830e+00
 6.2727467661e-01	 1.1887668854e+00	-2.1178622303e+00
 6.1592781128e-01	 1.1946853549e+00	-2.1260397173e+00
 6.0454205537e-01	 1.2004869881e+00	-2.1365262093e+00
 5.9311916351e-01	 1.2061715080e+00	-2.1489469804e+00
 5.8166088989e-01	 1.2117386716e+00	-2.1625212459e+00
 6.9899951150e-01	 1.1583765792e+00	-2.0859253174e+00
 6.8785004713e-01	 1.1650317246e+00	-2.0974964750e+00
 6.7665087737e-01	 1.1715716669e+00	-2.1038665653e+00
 6.6540375352e-01	 1.1779959194e+00	-2.1050056331e+00
 6.5411043145e-01	 1.1843040300e+00	-2.1065196596e+00
 6.4277267076e-01	 1.1904955813e+00	-2.1106093998e+00
 6.3139223392e-01	 1.1965701906e+00	-2.1169269049e+00
 6.1997088548e-01	 1.2025275101e+00	-2.1251251586e+00
 6.0851039118e-01	 1.2083672264e+00	-2.1348584071e+00
 5.9701251716e-01	 1.2140890607e+00	-2.1457825038e+00
 5.8547902912e-01	 1.2196927683e+00	-2.1574891253e+00
 5.4729763683e-01	 1.1401518013e+00	-2.3213742768e+00
 5.3648280987e-01	 1.1452803116e+00	-2.3560376908e+00
 5.2563797785e-01	 1.1502979987e+00	-2.3881031472e+00
 5.1476478594e-01	 1.1552047288e+00	-2.4176492237e+00
 5.0386487593e-01	 1.1600003990e+00	-2.4447551719e+00
 4.9293988553e-01	 1.1646849381e+00	-2.4694996585e+00
 4.8199144765e-01	 1.1692583055e+00	-2.4919595144e+00
 4.7102118972e-01	 1.1737204915e+00	-2.5122085027e+00
 4.6003073296e-01	 1.1780715168e+00	-2.5306103197e+00
 4.4902169174e-01	 1.1823114322e+00	-2.5503898502e+00
 4.3799567291e-01	 1.1864403182e+00	-2.5722030663e+00
 5.5111577606e-01	 1.1481058980e+00	-2.3189092245e+00
 5.4022550109e-01	 1.1532701865e+00	-2.3493656540e+00
 5.2930501175e-01	 1.1583228788e+00	-2.3765063337e+00
 5.1835596466e-01	 1.1632638399e+00	-2.4004644916e+00
 5.0738001307e-01	 1.1680929665e+00	-2.4213727028e+00
 4.9637880612e-01	 1.1728101865e+00	-2.4393615270e+00
 4.8535398812e-01	 1.1774154593e+00	-2.4546572729e+00
 4.7430719784e-01	 1.1819087751e+00	-2.4705788646e+00
 4.6324006783e-01	 1.1862901547e+00	-2.4885366053e+00
 4.5215422370e-01	 1.1905596492e+00	-2.5083021157e+00
 4.4105128351e-01	 1.1947173398e+00	-2.5296313425e+00
 5.5493391529e-01	 1.1560599947e+00	-2.3093997853e+00
 5.4396819232e-01	 1.1612600615e+00	-2.3347492301e+00
 5.3297204564e-01	 1.1663477589e+00	-2.3560551411e+00
 5.2194714337e-01	 1.1713229511e+00	-2.3735132304e+00
 5.1089515021e-01	 1.1761855339e+00	-2.3873175681e+00
 4.9981772672e-01	 1.1809354349e+00	-2.3999950872e+00
 4.8871652860e-01	 1.1855726132e+00	-2.4145398239e+00
 4.7759320597e-01	 1.1900970587e+00	-2.4308084339e+00
 4.6644940269e-01	 1.1945087925e+00	-2.4486269361e+00
 4.5528675565e-01	 1.1988078661e+00	-2.4678032971e+00
 4.4410689411e-01	 1.2029943613e+00	-2.4881280626e+00
 5.5875205452e-01	 1.1640140914e+00	-2.2925104101e+00
 5.4771088354e-01	 1.1692499365e+00	-2.3118328137e+00
 5.3663907953e-01	 1.1743726390e+00	-2.3263814829e+00
 5.2553832208e-01	 1.1793820623e+00	-2.3373992430e+00
 5.1441028735e-01	 1.1842781013e+00	-2.3493801633e+00
 5.0325664731e-01	 1.1890606833e+00	-2.3627911471e+00
 4.9207906907e-01	 1.1937297670e+00	-2.3775451751e+00
 4.8087921410e-01	 1.1982853423e+00	-2.3935346096e+00
 4.6965873756e-01	 1.2027274304e+00	-2.4106316898e+00
 4.5841928761e-01	 1.2070560831e+00	-2.4286890947e+00
 4.4716250471e-01	 1.2112713829e+00	-2.4475405671e+00
 5.6257019375e-01	 1.1719681881e+00	-2.2679254038e+00
 5.5145357476e-01	 1.1772398114e+00	-2.2803437651e+00
 5.4030611342e-01	 1.1823975192e+00	-2.2912094143e+00
 5.2912950080e-01	 1.1874411734e+00	-2.3029410324e+00
 5.1792542449e-01	 1.1923706688e+00	-2.3155529853e+00
 5.0669556791e-01	 1.1971859318e+00	-2.3290371008e+00
 4.9544160954e-01	 1.2018869208e+00	-2.3433629796e+00
 4.8416522222e-01	 1.2064736259e+00	-2.3584783874e+00
 4.7286807242e-01	 1.2109460682e+00	-2.3743097238e+00
 4.6155181956e-01	 1.2153043001e+00	-2.3907625611e+00
 4.5021811531e-01	 1.2195484044e+00	-2.4077222489e+00
 5.6638833298e-01	 1.1799222848e+00	-2.2366996072e+00
 5.5519626599e-01	 1.1852296864e+00	-2.2486408801e+00
 5.4397314732e-01	 1.1904223993e+00	-2.2606905642e+00
 5.3272067951e-01	 1.1955002846e+00	-2.2729522432e+00
 5.2144056162e-01	 1.2004632362e+00	-2.2855059261e+00
 5.1013448850e-01	 1.2053111802e+00	-2.2984082200e+00
 4.9880415001e-01	 1.2100440746e+00	-2.3116925947e+00
 4.8745123035e-01	 1.2146619095e+00	-2.3253697317e+00
 4.7607740729e-01	 1.2191647061e+00	-2.3394279535e+00
 4.6468435151e-01	 1.2235525171e+00	-2.3538337263e+00
 4.5327372591e-01	 1.2278254259e+00	-2.3685322317e+00
 5.7020647220e-01	 1.1878763815e+00	-2.2094356652e+00
 5.5893895721e-01	 1.1932195614e+00	-2.2225190835e+00
 5.4764018121e-01	 1.1984472794e+00	-2.2350119406e+00
 5.3631185822e-01	 1.2035593958e+00	-2.2470905102e+00
 5.2495569876e-01	 1.2085558036e+00	-2.2589069736e+00
 5.1357340909e-01	 1.2134364286e+00	-2.2705895299e+00
 5.0216669048e-01	 1.2182012284e+00	-2.2822426015e+00
 4.9073723847e-01	 1.2228501930e+00	-2.2939471283e+00
 4.7928674215e-01	 1.2273833439e+00	-2.3057609449e+00
 4.6781688346e-01	 1.2318007341e+00	-2.3177192348e+00
 4.5632933651e-01	 1.2361024475e+00	-2.3298350562e+00
 5.7402461143e-01	 1.1958304782e+00	-2.1881925560e+00
 5.6268164843e-01	 1.2012094364e+00	-2.2016455343e+00
 5.5130721510e-01	 1.2064721595e+00	-2.2138374069e+00
 5.3990303693e-01	 1.2116185069e+00	-2.2250232231e+00
 5.2847083590e-01	 1.2166483711e+00	-2.2354337118e+00
 5.1701232969e-01	 1.2215616770e+00	-2.2452753186e+00
 5.0552923095e-01	 1.2263583823e+00	-2.2547303403e+00
 4.9402324660e-01	 1.2310384766e+00	-2.2639571517e+00
 4.8249607701e-01	 1.2356019818e+00	-2.2730905190e+00
 4.7094941542e-01	 1.2400489511e+00	-2.2822419929e+00
 4.5938494711e-01	 1.2443794690e+00	-2.2915003762e+00
 5.7784275066e-01	 1.2037845749e+00	-2.1726563463e+00
 5.6642433966e-01	 1.2091993113e+00	-2.1856964110e+00
 5.5497424899e-01	 1.2144970396e+00	-2.1968400468e+00
 5.4349421564e-01	 1.2196776181e+00	-2.2064270174e+00
 5.3198597304e-01	 1.2247409385e+00	-2.2147728250e+00
 5.2045125028e-01	 1.2296869254e+00	-2.2221686612e+00
 5.0889177143e-01	 1.2345155361e+00	-2.2288814601e+00
 4.9730925472e-01	 1.2392267602e+00	-2.2351540455e+00
 4.8570541188e-01	 1.2438206197e+00	-2.2412053681e+00
 4.7408194737e-01	 1.2482971680e+00	-2.2472308265e+00
 4.6244055771e-01	 1.2526564905e+00	-2.2534026635e+00
 5.8166088989e-01	 1.2117386716e+00	-2.1625212459e+00
 5.7016703088e-01	 1.2171891863e+00	-2.1743564096e+00
 5.5864128289e-01	 1.2225219197e+00	-2.1837016636e+00
 5.4708539436e-01	 1.2277367293e+00	-2.1909872822e+00
 5.3550111017e-01	 1.2328335059e+00	-2.1966196185e+00
 5.2389017087e-01	 1.2378121738e+00	-2.2009809590e+00
 5.1225431190e-01	 1.2426726899e+00	-2.2044294820e+00
 5.0059526285e-01	 1.2474150438e+00	-2.2072993150e+00
 4.8891474675e-01	 1.2520392575e+00	-2.2099006841e+00
 4.7721447932e-01	 1.2565453850e+00	-2.2125201493e+00
 4.6549616831e-01	 1.2609335121e+00	-2.2154209199e+00
 5.8547902912e-01	 1.2196927683e+00	-2.1574891253e+00
 5.7390972211e-01	 1.2251790613e+00	-2.1673182563e+00
 5.6230831678e-01	 1.2305467998e+00	-2.1741122944e+00
 5.5067657307e-01	 1.2357958404e+00	-2.1783976806e+00
 5.3901624731e-01	 1.2409260734e+00	-2.1806775528e+00
 5.2732909147e-01	 1.2459374222e+00	-2.1814314918e+00
 5.1561685237e-01	 1.2508298437e+00	-2.1811153752e+00
 5.0388127097e-01	 1.2556033274e+00	-2.1801613328e+00
 4.9212408161e-01	 1.2602578954e+00	-2.1789777965e+00
 4.8034701128e-01	 1.2647936020e+00	-2.1779496398e+00
 4.6855177891e-01	 1.2692105336e+00	-2.1774383983e+00
 4.3799567291e-01	 1.1864403182e+00	-2.5722030663e+00
 4.2695615308e-01	 1.1904576115e+00	-2.5947645287e+00
 4.1590284802e-01	 1.1943641616e+00	-2.6169968615e+00
 4.0483733686e-01	 1.1981601358e+00	-2.6389062397e+00
 3.9376118865e-01	 1.2018457296e+00	-2.6604797724e+00
 3.8267596183e-01	 1.2054211666e+00	-2.6816860121e+00
 3.7158320363e-01	 1.2088866979e+00	-2.7024755028e+00
 3.6048444952e-01	 1.2122426019e+00	-2.7227813629e+00
 3.4938122261e-01	 1.2154891835e+00	-2.7425198984e+00
 3.3827503318e-01	 1.2186267741e+00	-2.7615912421e+00
 3.2716737810e-01	 1.2216557311e+00	-2.7798800153e+00
 4.4105128351e-01	 1.1947173398e+00	-2.5296313425e+00
 4.2993474813e-01	 1.1987626590e+00	-2.5512261624e+00
 4.1880433137e-01	 1.2026964626e+00	-2.5720144243e+00
 4.0766162334e-01	 1.2065189189e+00	-2.5920544789e+00
 3.9650820405e-01	 1.2102302247e+00	-2.6113863881e+00
 3.8534564283e-01	 1.2138306052e+00	-2.6300323779e+00
 3.7417549768e-01	 1.2173203133e+00	-2.6479973299e+00
 3.6299931479e-01	 1.2206996291e+00	-2.6652693088e+00
 3.5181862790e-01	 1.2239688600e+00	-2.6818201194e+00
 3.4063495781e-01	 1.2271283396e+00	-2.6976058905e+00
 3.2944981186e-01	 1.2301784277e+00	-2.7125676806e+00
 4.4410689411e-01	 1.2029943613e+00	-2.4881280626e+00
 4.3291334319e-01	 1.2070677066e+00	-2.5083238091e+00
 4.2170581472e-01	 1.2110287637e+00	-2.5273453598e+00
 4.1048590982e-01	 1.2148777020e+00	-2.5452947551e+00
 3.9925521946e-01	 1.2186147198e+00	-2.5622562103e+00
 3.8801532382e-01	 1.2222400438e+00	-2.5782965294e+00
 3.7676779173e-01	 1.2257539286e+00	-2.5934655594e+00
 3.6551418005e-01	 1.2291566564e+00	-2.6077966786e+00
 3.5425603318e-01	 1.2324485366e+00	-2.6213073165e+00
 3.4299488244e-01	 1.2356299051e+00	-2.6339994998e+00
 3.3173224561e-01	 1.2387011242e+00	-2.6458604196e+00
 4.4716250471e-01	 1.2112713829e+00	-2.4475405671e+00
 4.3589193825e-01	 1.2153727542e+00	-2.4659555719e+00
 4.2460729806e-01	 1.2193610647e+00	-2.4829307326e+00
 4.1331019630e-01	 1.2232364850e+00	-2.4986034780e+00
 4.0200223487e-01	 1.2269992148e+00	-2.5130935661e+00
 3.9068500482e-01	 1.2306494823e+00	-2.5265034767e+00
 3.7936008577e-01	 1.2341875439e+00	-2.5389188452e+00
 3.6802904532e-01	 1.2376136837e+00	-2.5504089310e+00
 3.5669343846e-01	 1.2409282131e+00	-2.5610271170e+00
 3.4535480707e-01	 1.2441314706e+00	-2.5708114349e+00
 3.3401467937e-01	 1.2472238207e+00	-2.5797851135e+00
 4.5021811531e-01	 1.2195484044e+00	-2.4077222489e+00
 4.3887053331e-01	 1.2236778018e+00	-2.4240243295e+00
 4.2750878141e-01	 1.2276933657e+00	-2.4387153150e+00
 4.1613448278e-01	 1.2315952681e+00	-2.4519599007e+00
 4.0474925027e-01	 1.2353837099e+00	-2.4639049593e+00
 3.9335468582e-01	 1.2390589209e+00	-2.4746799306e+00
 3.8195237982e-01	 1.2426211592e+00	-2.4843972521e+00
 3.7054391059e-01	 1.2460707109e+00	-2.4931528247e+00
 3.5913084374e-01	 1.2494078897e+00	-2.5010265093e+00
 3.4771473171e-01	 1.2526330361e+00	-2.5080826507e+00
 3.3629711312e-01	 1.2557465173e+00	-2.5143706216e+00
 4.5327372591e-01	 1.2278254259e+00	-2.3685322317e+00
 4.4184912837e-01	 1.2319828493e+00	-2.3824374653e+00
 4.3041026476e-01	 1.2360256667e+00	-2.3946473603e+00
 4.1895876926e-01	 1.2399540512e+00	-2.4053459299e+00
 4.0749626568e-01	 1.2437682049e+00	-2.4146989110e+00
 3.9602436682e-01	 1.2474683594e+00	-2.4228541681e+00
 3.8454467387e-01	 1.2510547745e+00	-2.4299421382e+00
 3.7305877585e-01	 1.2545277382e+00	-2.4360763114e+00
 3.6156824903e-01	 1.2578875662e+00	-2.4413537426e+00
 3.5007465634e-01	 1.2611346015e+00	-2.4458555898e+00
 3.3857954688e-01	 1.2642692138e+00	-2.4496476734e+00
 4.5632933651e-01	 1.2361024475e+00	-2.3298350562e+00
 4.4482772342e-01	 1.2402878969e+00	-2.3411066035e+00
 4.3331174810e-01	 1.2443579678e+00	-2.3506783817e+00
 4.2178305574e-01	 1.2483128342e+00	-2.3587459412e+00
 4.1024328109e-01	 1.2521527000e+00	-2.3654858042e+00
 3.9869404781e-01	 1.2558777980e+00	-2.3710558995e+00
 3.8713696792e-01	 1.2594883898e+00	-2.3755960392e+00
 3.7557364112e-01	 1.2629847655e+00	-2.3792284322e+00
 3.6400565431e-01	 1.2663672428e+00	-2.3820582272e+00
 3.5243458097e-01	 1.2696361670e+00	-2.3841740838e+00
 3.4086198063e-01	 1.2727919104e+00	-2.3856487633e+00
 4.5938494711e-01	 1.2443794690e+00	-2.2915003762e+00
 4.4780631848e-01	 1.2485929445e+00	-2.2999473525e+00
 4.3621323145e-01	 1.2526902688e+00	-2.3067629366e+00
 4.2460734222e-01	 1.2566716173e+00	-2.3121465981e+00
 4.1299029649e-01	 1.2605371951e+00	-2.3162777313e+00
 4.0136372881e-01	 1.2642872365e+00	-2.3193161382e+00
 3.8972926196e-01	 1.2679220051e+00	-2.3214025551e+00
 3.7808850639e-01	 1.2714417927e+00	-2.3226592141e+00
 3.6644305959e-01	 1.2748469193e+00	-2.3231904370e+00
 3.5479450560e-01	 1.2781377325e+00	-2.3230832547e+00
 3.4314441439e-01	 1.2813146069e+00	-2.3224080475e+00
 4.6244055771e-01	 1.2526564905e+00	-2.2534026635e+00
 4.5078491354e-01	 1.2568979920e+00	-2.2588790559e+00
 4.3911471479e-01	 1.2610225698e+00	-2.2628584172e+00
 4.2743162870e-01	 1.2650304004e+00	-2.2655366755e+00
 4.1573731190e-01	 1.2689216901e+00	-2.2670883448e+00
 4.0403340981e-01	 1.2726966751e+00	-2.2676670738e+00
 3.9232155601e-01	 1.2763556204e+00	-2.2674062381e+00
 3.8060337166e-01	 1.2798988200e+00	-2.2664195689e+00
 3.6888046488e-01	 1.2833265959e+00	-2.2648018130e+00
 3.5715443023e-01	 1.2866392980e+00	-2.2626294189e+00
 3.4542684815e-01	 1.2898373034e+00	-2.2599612425e+00
 4.6549616831e-01	 1.2609335121e+00	-2.2154209199e+00
 4.5376350860e-01	 1.2652030396e+00	-2.2178245487e+00
 4.4201619814e-01	 1.2693548709e+00	-2.2189248448e+00
 4.3025591518e-01	 1.2733891834e+00	-2.2189068867e+00
 4.1848432731e-01	 1.2773061852e+00	-2.2179327113e+00
 4.0670309081e-01	 1.2811061136e+00	-2.2161419458e+00
 3.9491385006e-01	 1.2847892357e+00	-2.2136524830e+00
 3.8311823692e-01	 1.2883558473e+00	-2.2105611935e+00
 3.7131787016e-01	 1.2918062724e+00	-2.2069446692e+00
 3.5951435487e-01	 1.2951408634e+00	-2.2028599925e+00
 3.4770928190e-01	 1.2983600000e+00	-2.1983455255e+00
 4.6855177891e-01	 1.2692105336e+00	-2.1774383983e+00
 4.5674210366e-01	 1.2735080872e+00	-2.1767099206e+00
 4.4491768149e-01	 1.2776871719e+00	-2.1749246704e+00
 4.3308020167e-01	 1.2817479665e+00	-2.1722497148e+00
 4.2123134272e-01	 1.2856906802e+00	-2.1688271679e+00
 4.0937277181e-01	 1.2895155522e+00	-2.1647749212e+00
 3.9750614411e-01	 1.2932228510e+00	-2.1601874191e+00
 3.8563310219e-01	 1.2968128745e+00	-2.1551364716e+00
 3.7375527545e-01	 1.3002859490e+00	-2.1496720984e+00
 3.6187427950e-01	 1.3036424289e+00	-2.1438233982e+00
 3.4999171566e-01	 1.3068826965e+00	-2.1375994372e+00
 3.2716737810e-01	 1.2216557311e+00	-2.7798800153e+00
 3.1605974053e-01	 1.2245764373e+00	-2.7974792463e+00
 3.0495358983e-01	 1.2273893016e+00	-2.8145646319e+00
 2.9385038065e-01	 1.2300947574e+00	-2.8311231825e+00
 2.8275155227e-01	 1.2326932625e+00	-2.8471284632e+00
 2.7165852822e-01	 1.2351852976e+00	-2.8625411015e+00
 2.6057271584e-01	 1.2375713667e+00	-2.8773093022e+00
 2.4949550584e-01	 1.2398519961e+00	-2.8913693657e+00
 2.3842827199e-01	 1.2420277338e+00	-2.9046462080e+00
 2.2737237065e-01	 1.2440991495e+00	-2.9170538804e+00
 2.1632914054e-01	 1.2460668334e+00	-2.9284960857e+00
 3.2944981186e-01	 1.2301784277e+00	-2.7125676806e+00
 3.1826468353e-01	 1.2331195097e+00	-2.7268546336e+00
 3.0708105245e-01	 1.2359519975e+00	-2.7406685306e+00
 2.9590038340e-01	 1.2386763276e+00	-2.7540076378e+00
 2.8472412573e-01	 1.2412929607e+00	-2.7668562136e+00
 2.7355371288e-01	 1.2438023811e+00	-2.7791850342e+00
 2.6239056200e-01	 1.2462050963e+00	-2.7909519266e+00
 2.5123607352e-01	 1.2485016361e+00	-2.8021023034e+00
 2.4009163078e-01	 1.2506925525e+00	-2.8125697000e+00
 2.2895859963e-01	 1.2527784191e+00	-2.8222763087e+00
 2.1783832809e-01	 1.2547598303e+00	-2.8311335109e+00
 3.3173224561e-01	 1.2387011242e+00	-2.6458604196e+00
 3.2046962653e-01	 1.2416625821e+00	-2.6570737965e+00
 3.0920851507e-01	 1.2445146934e+00	-2.6678531784e+00
 2.9795038616e-01	 1.2472578977e+00	-2.6782084619e+00
 2.8669669919e-01	 1.2498926589e+00	-2.6881349621e+00
 2.7544889753e-01	 1.2524194647e+00	-2.6976139569e+00
 2.6420840816e-01	 1.2548388259e+00	-2.7066132376e+00
 2.5297664121e-01	 1.2571512761e+00	-2.7150876621e+00
 2.4175498958e-01	 1.2593573713e+00	-2.7229797075e+00
 2.3054482860e-01	 1.2614576888e+00	-2.7302200213e+00
 2.1934751563e-01	 1.2634528272e+00	-2.7367279674e+00
 3.3401467937e-01	 1.2472238207e+00	-2.5797851135e+00
 3.2267456953e-01	 1.2502056545e+00	-2.5881478996e+00
 3.1133597769e-01	 1.2530773893e+00	-2.5961136224e+00
 3.0000038892e-01	 1.2558394678e+00	-2.6037041606e+00
 2.8866927265e-01	 1.2584923571e+00	-2.6109262272e+00
 2.7734408219e-01	 1.2610365482e+00	-2.6177719333e+00
 2.6602625432e-01	 1.2634725554e+00	-2.6242193567e+00
 2.5471720889e-01	 1.2658009162e+00	-2.6302331137e+00
 2.4341834838e-01	 1.2680221900e+00	-2.6357649279e+00
 2.3213105757e-01	 1.2701369584e+00	-2.6407541981e+00
 2.2085670318e-01	 1.2721458241e+00	-2.6451285593e+00
 3.3629711312e-01	 1.2557465173e+00	-2.5143706216e+00
 3.2487951253e-01	 1.2587487269e+00	-2.5200905519e+00
 3.1346344031e-01	 1.2616400853e+00	-2.5254478216e+00
 3.0205039168e-01	 1.2644210380e+00	-2.5304766198e+00
 2.9064184611e-01	 1.2670920553e+00	-2.5351953763e+00
 2.7923926685e-01	 1.2696536317e+00	-2.5396073456e+00
 2.6784410049e-01	 1.2721062850e+00	-2.5437011943e+00
 2.5645777657e-01	 1.2744505562e+00	-2.5474515905e+00
 2.4508170717e-01	 1.2766870088e+00	-2.5508197911e+00
 2.3371728655e-01	 1.2788162281e+00	-2.5537542251e+00
 2.2236589073e-01	 1.2808388210e+00	-2.5561910710e+00
 3.3857954688e-01	 1.2642692138e+00	-2.4496476734e+00
 3.2708445554e-01	 1.2672917993e+00	-2.4529176906e+00
 3.1559090293e-01	 1.2702027812e+00	-2.4558565209e+00
 3.0410039444e-01	 1.2730026081e+00	-2.4585109694e+00
 2.9261441957e-01	 1.2756917535e+00	-2.4609114797e+00
 2.8113445150e-01	 1.2782707152e+00	-2.4630727385e+00
 2.6966194665e-01	 1.2807400145e+00	-2.4649942828e+00
 2.5819834425e-01	 1.2831001962e+00	-2.4666611074e+00
 2.4674506597e-01	 1.2853518275e+00	-2.4680442705e+00
 2.3530351552e-01	 1.2874954977e+00	-2.4691014936e+00
 2.2387507828e-01	 1.2895318179e+00	-2.4697777544e+00
 3.4086198063e-01	 1.2727919104e+00	-2.3856487633e+00
 3.2928939854e-01	 1.2758348717e+00	-2.3866474664e+00
 3.1771836555e-01	 1.2787654771e+00	-2.3873431283e+00
 3.0615039720e-01	 1.2815841782e+00	-2.3877954520e+00
 2.9458699304e-01	 1.2842914517e+00	-2.3880471697e+00
 2.8302963616e-01	 1.2868877987e+00	-2.3881246682e+00
 2.7147979281e-01	 1.2893737441e+00	-2.3880386160e+00
 2.5993891193e-01	 1.2917498362e+00	-2.3877845904e+00
 2.4840842477e-01	 1.2940166462e+00	-2.3873437007e+00
 2.3688974449e-01	 1.2961747674e+00	-2.3866832060e+00
 2.2538426583e-01	 1.2982248148e+00	-2.3857571236e+00
 3.4314441439e-01	 1.2813146069e+00	-2.3224080475e+00
 3.3149434154e-01	 1.2843779441e+00	-2.3213001330e+00
 3.1984582817e-01	 1.2873281730e+00	-2.3199135952e+00
 3.0820039996e-01	 1.2901657484e+00	-2.3183212941e+00
 2.9655956650e-01	 1.2928911499e+00	-2.3165785030e+00
 2.8492482082e-01	 1.2955048822e+00	-2.3147235554e+00
 2.7329763897e-01	 1.2980074737e+00	-2.3127784923e+00
 2.6167947961e-01	 1.3003994763e+00	-2.3107497098e+00
 2.5007178357e-01	 1.3026814650e+00	-2.3086286005e+00
 2.3847597347e-01	 1.3048540370e+00	-2.3063921888e+00
 2.2689345338e-01	 1.3069178117e+00	-2.3040037561e+00
 3.4542684815e-01	 1.2898373034e+00	-2.2599612425e+00
 3.3369928454e-01	 1.2929210165e+00	-2.2568979373e+00
 3.2197329079e-01	 1.2958908690e+00	-2.2535762993e+00
 3.1025040272e-01	 1.2987473185e+00	-2.2500825812e+00
 2.9853213996e-01	 1.3014908481e+00	-2.2464848276e+00
 2.8682000547e-01	 1.3041219657e+00	-2.2428335435e+00
 2.7511548514e-01	 1.3066412032e+00	-2.2391623638e+00
 2.6342004730e-01	 1.3090491163e+00	-2.2354887203e+00
 2.5173514237e-01	 1.3113462837e+00	-2.2318145027e+00
 2.4006220244e-01	 1.3135333067e+00	-2.2281267118e+00
 2.2840264093e-01	 1.3156108086e+00	-2.2243981016e+00
 3.4770928190e-01	 1.2983600000e+00	-2.1983455255e+00
 3.3590422754e-01	 1.3014640889e+00	-2.1934650135e+00
 3.2410075341e-01	 1.3044535649e+00	-2.1883419310e+00
 3.1230040548e-01	 1.3073288886e+00	-2.1830761361e+00
 3.0050471342e-01	 1.3100905464e+00	-2.1777486523e+00
 2.8871519013e-01	 1.3127390492e+00	-2.1724223602e+00
 2.7693333130e-01	 1.3152749328e+00	-2.1671426891e+00
 2.6516061498e-01	 1.3176987563e+00	-2.1619383044e+00
 2.5339850116e-01	 1.3200111024e+00	-2.1568217888e+00
 2.4164843142e-01	 1.3222125763e+00	-2.1517903134e+00
 2.2991182847e-01	 1.3243038055e+00	-2.1468262973e+00
 3.4999171566e-01	 1.3068826965e+00	-2.1375994372e+00
 3.3810917055e-01	 1.3100071613e+00	-2.1310272783e+00
 3.2622821604e-01	 1.3130162608e+00	-2.1242233819e+00
 3.1435040825e-01	 1.3159104587e+00	-2.1173014002e+00
 3.0247728689e-01	 1.3186902446e+00	-2.1103555212e+00
 2.9061037479e-01	 1.3213561328e+00	-2.1034611836e+00
 2.7875117746e-01	 1.3239086624e+00	-2.0966757913e+00
 2.6690118266e-01	 1.3263483964e+00	-2.0900394221e+00
 2.5506185996e-01	 1.3286759212e+00	-2.0835755292e+00
 2.4323466039e-01	 1.3308918460e+00	-2.0772916314e+00
 2.3142101602e-01	 1.3329968024e+00	-2.0711799894e+00
 2.1632914054e-01	 1.2460668334e+00	-2.9284960857e+00
 2.0529802896e-01	 1.2479317043e+00	-2.9393341693e+00
 1.9428221986e-01	 1.2496940488e+00	-2.9499408993e+00
 1.8328300036e-01	 1.2513545159e+00	-2.9602277252e+00
 1.7230163857e-01	 1.2529137732e+00	-2.9700964290e+00
 1.6133938333e-01	 1.2543725065e+00	-2.9794395434e+00
 1.5039746395e-01	 1.2557314192e+00	-2.9881407636e+00
 1.3947708999e-01	 1.2569912315e+00	-2.9960753497e+00
 1.2857945101e-01	 1.2581526803e+00	-3.0031105209e+00
 1.1770571642e-01	 1.2592165182e+00	-3.0091058402e+00
 1.0685703526e-01	 1.2601835133e+00	-3.0139135893e+00
 2.1783832809e-01	 1.2547598303e+00	-2.8311335109e+00
 2.0673025963e-01	 1.2566377112e+00	-2.8395024717e+00
 1.9563760040e-01	 1.2584123505e+00	-2.8477535341e+00
 1.8456164650e-01	 1.2600844015e+00	-2.8558001698e+00
 1.7350367490e-01	 1.2616545368e+00	-2.8635453195e+00
 1.6246494315e-01	 1.2631234467e+00	-2.8708818360e+00
 1.5144668913e-01	 1.2644918396e+00	-2.8776929202e+00
 1.4045013082e-01	 1.2657604408e+00	-2.8838525466e+00
 1.2947646612e-01	 1.2669299922e+00	-2.8892258802e+00
 1.1852687256e-01	 1.2680012519e+00	-2.8936696832e+00
 1.0760250721e-01	 1.2689749930e+00	-2.8970327107e+00
 2.1934751563e-01	 1.2634528272e+00	-2.7367279674e+00
 2.0816249029e-01	 1.2653437181e+00	-2.7428594620e+00
 1.9699298093e-01	 1.2671306521e+00	-2.7489760639e+00
 1.8584029265e-01	 1.2688142872e+00	-2.7549918413e+00
 1.7470571124e-01	 1.2703953003e+00	-2.7608095885e+00
 1.6359050297e-01	 1.2718743869e+00	-2.7663212943e+00
 1.5249591430e-01	 1.2732522600e+00	-2.7714085999e+00
 1.4142317166e-01	 1.2745296501e+00	-2.7759432478e+00
 1.3037348122e-01	 1.2757073042e+00	-2.7797875197e+00
 1.1934802870e-01	 1.2767859856e+00	-2.7827946637e+00
 1.0834797916e-01	 1.2777664728e+00	-2.7848093098e+00
 2.2085670318e-01	 1.2721458241e+00	-2.6451285593e+00
 2.0959472096e-01	 1.2740497250e+00	-2.6492348146e+00
 1.9834836147e-01	 1.2758489537e+00	-2.6534206144e+00
 1.8711893879e-01	 1.2775441728e+00	-2.6575992141e+00
 1.7590774757e-01	 1.2791360639e+00	-2.6616719736e+00
 1.6471606279e-01	 1.2806253271e+00	-2.6655288479e+00
 1.5354513947e-01	 1.2820126804e+00	-2.6690488689e+00
 1.4239621249e-01	 1.2832988594e+00	-2.6721006144e+00
 1.3127049632e-01	 1.2844846162e+00	-2.6745426672e+00
 1.2016918483e-01	 1.2855707192e+00	-2.6762240607e+00
 1.0909345111e-01	 1.2865579526e+00	-2.6769847130e+00
 2.2236589073e-01	 1.2808388210e+00	-2.5561910710e+00
 2.1102695162e-01	 1.2827557319e+00	-2.5584653274e+00
 1.9970374201e-01	 1.2845672553e+00	-2.5609068116e+00
 1.8839758494e-01	 1.2862740584e+00	-2.5634265741e+00
 1.7710978391e-01	 1.2878768274e+00	-2.5659232669e+00
 1.6584162261e-01	 1.2893762672e+00	-2.5682836578e+00
 1.5459436464e-01	 1.2907731009e+00	-2.5703831329e+00
 1.4336925333e-01	 1.2920680687e+00	-2.5720861870e+00
 1.3216751143e-01	 1.2932619282e+00	-2.5732469009e+00
 1.2099034097e-01	 1.2943554529e+00	-2.5737094056e+00
 1.0983892307e-01	 1.2953494324e+00	-2.5733083323e+00
 2.2387507828e-01	 1.2895318179e+00	-2.4697777544e+00
 2.1245918229e-01	 1.2914617388e+00	-2.4703946965e+00
 2.0105912255e-01	 1.2932855569e+00	-2.4712615472e+00
 1.8967623109e-01	 1.2950039440e+00	-2.4722857752e+00
 1.7831182025e-01	 1.2966175909e+00	-2.4733620669e+00
 1.6696718243e-01	 1.2981272074e+00	-2.4743728630e+00
 1.5564358982e-01	 1.2995335213e+00	-2.4751888820e+00
 1.4434229416e-01	 1.3008372780e+00	-2.4756696299e+00
 1.3306452653e-01	 1.3020392402e+00	-2.4756638958e+00
 1.2181149711e-01	 1.3031401866e+00	-2.4750102320e+00
 1.1058439502e-01	 1.3041409122e+00	-2.4735374198e+00
 2.2538426583e-01	 1.2982248148e+00	-2.3857571236e+00
 2.1389141296e-01	 1.3001677457e+00	-2.3848733002e+00
 2.0241450309e-01	 1.3020038586e+00	-2.3843187530e+00
 1.9095487723e-01	 1.3037338296e+00	-2.3839960070e+00
 1.7951385658e-01	 1.3053583545e+00	-2.3837945396e+00
 1.6809274225e-01	 1.3068781476e+00	-2.3835913383e+00
 1.5669281499e-01	 1.3082939417e+00	-2.3832514455e+00
 1.4531533500e-01	 1.3096064874e+00	-2.3826284858e+00
 1.3396154164e-01	 1.3108165522e+00	-2.3815651788e+00
 1.2263265325e-01	 1.3119249203e+00	-2.3798938344e+00
 1.1132986698e-01	 1.3129323920e+00	-2.3774368317e+00
 2.2689345338e-01	 1.3069178117e+00	-2.3040037561e+00
 2.1532364362e-01	 1.3088737526e+00	-2.3017579900e+00
 2.0376988363e-01	 1.3107221602e+00	-2.2999191833e+00
 1.9223352338e-01	 1.3124637152e+00	-2.2983835698e+00
 1.8071589292e-01	 1.3140991180e+00	-2.2970341877e+00
 1.6921830207e-01	 1.3156290877e+00	-2.2957414597e+00
 1.5774204017e-01	 1.3170543621e+00	-2.2943637559e+00
 1.4628837584e-01	 1.3183756967e+00	-2.2927479395e+00
 1.3485855674e-01	 1.3195938641e+00	-2.2907298949e+00
 1.2345380939e-01	 1.3207096540e+00	-2.2881350369e+00
 1.1207533893e-01	 1.3217238717e+00	-2.2847788019e+00
 2.2840264093e-01	 1.3156108086e+00	-2.2243981016e+00
 2.1675587429e-01	 1.3175797595e+00	-2.2209118894e+00
 2.0512526417e-01	 1.3194404618e+00	-2.2179102051e+00
 1.9351216953e-01	 1.3211936009e+00	-2.2152816576e+00
 1.8191792926e-01	 1.3228398816e+00	-2.2129016298e+00
 1.7034386189e-01	 1.3243800279e+00	-2.2106328797e+00
 1.5879126534e-01	 1.3258147825e+00	-2.2083261221e+00
 1.4726141667e-01	 1.3271449060e+00	-2.2058205906e+00
 1.3575557185e-01	 1.3283711761e+00	-2.2029445806e+00
 1.2427496553e-01	 1.3294943877e+00	-2.1995159704e+00
 1.1282081089e-01	 1.3305153515e+00	-2.1953427239e+00
 2.2991182847e-01	 1.3243038055e+00	-2.1468262973e+00
 2.1818810496e-01	 1.3262857663e+00	-2.1422041993e+00
 2.0648064471e-01	 1.3281587634e+00	-2.1381455959e+00
 1.9479081568e-01	 1.3299234865e+00	-2.1345301502e+00
 1.8311996559e-01	 1.3315806451e+00	-2.1312243863e+00
 1.7146942171e-01	 1.3331309681e+00	-2.1280823104e+00
 1.5984049051e-01	 1.3345752030e+00	-2.1249460108e+00
 1.4823445751e-01	 1.3359141153e+00	-2.1216462352e+00
 1.3665258695e-01	 1.3371484881e+00	-2.1180029470e+00
 1.2509612167e-01	 1.3382791214e+00	-2.1138258585e+00
 1.1356628284e-01	 1.3393068313e+00	-2.1089149413e+00
 2.3142101602e-01	 1.3329968024e+00	-2.0711799894e+00
 2.1962033562e-01	 1.3349917732e+00	-2.0655100110e+00
 2.0783602525e-01	 1.3368770650e+00	-2.0604853487e+00
 1.9606946182e-01	 1.3386533721e+00	-2.0559754117e+00
 1.8432200193e-01	 1.3403214086e+00	-2.0518366738e+00
 1.7259498153e-01	 1.3418819083e+00	-2.0479133146e+00
 1.6088971569e-01	 1.3433356234e+00	-2.0440378359e+00
 1.4920749834e-01	 1.3446833246e+00	-2.0400316547e+00
 1.3754960206e-01	 1.3459258001e+00	-2.0357056711e+00
 1.2591727781e-01	 1.3470638551e+00	-2.0308608114e+00
 1.1431175480e-01	 1.3480983111e+00	-2.0252885465e+00
 1.0685703526e-01	 1.2601835133e+00	-3.0139135893e+00
 9.6036369121e-02	 1.2610543083e+00	-3.0181596534e+00
 8.5242958067e-02	 1.2618298723e+00	-3.0224654290e+00
 7.4477863958e-02	 1.2625110154e+00	-3.0266665913e+00
 6.3742128408e-02	 1.2630985605e+00	-3.0305956498e+00
 5.3036772677e-02	 1.2635933433e+00	-3.0340821643e+00
 4.2362797579e-02	 1.2639962115e+00	-3.0369529522e+00
 3.1721183396e-02	 1.2643080243e+00	-3.0390322853e+00
 2.1112889822e-02	 1.2645296518e+00	-3.0401420794e+00
 1.0538855902e-02	 1.2646619743e+00	-3.0401020756e+00
 0.0000000000e+00	 1.2647058824e+00	-3.0387300143e+00
 1.0760250721e-01	 1.2689749930e+00	-2.8970327107e+00
 9.6706352331e-02	 1.2698518631e+00	-2.8999793829e+00
 8.5837642678e-02	 1.2706328377e+00	-2.9031635096e+00
 7.4997447517e-02	 1.2713187326e+00	-2.9064081268e+00
 6.4186815730e-02	 1.2719103766e+00	-2.9095329718e+00
 5.3406775704e-02	 1.2724086113e+00	-2.9123547120e+00
 4.2658335232e-02	 1.2728142900e+00	-2.9146871639e+00
 3.1942481437e-02	 1.2731282781e+00	-2.9163415013e+00
 2.1260180706e-02	 1.2733514517e+00	-2.9171264544e+00
 1.0612378637e-02	 1.2734846974e+00	-2.9168485003e+00
 0.0000000000e+00	 1.2735289118e+00	-2.9153120452e+00
 1.0834797916e-01	 1.2777664728e+00	-2.7848093098e+00
 9.7376335543e-02	 1.2786494178e+00	-2.7865385567e+00
 8.6432327288e-02	 1.2794358031e+00	-2.7886743452e+00
 7.5517031075e-02	 1.2801264499e+00	-2.7910288441e+00
 6.4631503053e-02	 1.2807221928e+00	-2.7934107465e+00
 5.3776778731e-02	 1.2812238792e+00	-2.7956255118e+00
 4.2953872885e-02	 1.2816323685e+00	-2.7974755948e+00
 3.2163779477e-02	 1.2819485320e+00	-2.7987606643e+00
 2.1407471590e-02	 1.2821732517e+00	-2.7992778105e+00
 1.0685901372e-02	 1.2823074205e+00	-2.7988217445e+00
 0.0000000000e+00	 1.2823519412e+00	-2.7971849870e+00
 1.0909345111e-01	 1.2865579526e+00	-2.6769847130e+00
 9.8046318754e-02	 1.2874469726e+00	-2.6775770937e+00
 8.7027011899e-02	 1.2882387684e+00	-2.6787355157e+00
 7.6036614634e-02	 1.2889341671e+00	-2.6802630271e+00
 6.5076190375e-02	 1.2895340090e+00	-2.6819589823e+00
 5.4146781757e-02	 1.2900391472e+00	-2.6836192952e+00
 4.3249410537e-02	 1.2904504470e+00	-2.6850366777e+00
 3.2385077517e-02	 1.2907687858e+00	-2.6860008675e+00
 2.1554762474e-02	 1.2909950516e+00	-2.6862988433e+00
 1.0759424106e-02	 1.2911301436e+00	-2.6857150315e+00
 0.0000000000e+00	 1.2911749706e+00	-2.6840315011e+00
 1.0983892307e-01	 1.2953494324e+00	-2.5733083323e+00
 9.8716301966e-02	 1.2962445273e+00	-2.5728428015e+00
 8.7621696510e-02	 1.2970417338e+00	-2.5730923030e+00
 7.6556198193e-02	 1.2977418844e+00	-2.5738524868e+00
 6.5520877698e-02	 1.2983458252e+00	-2.5749150521e+00
 5.4516784784e-02	 1.2988544151e+00	-2.5760680084e+00
 4.3544948190e-02	 1.2992685255e+00	-2.5770959244e+00
 3.2606375557e-02	 1.2995890396e+00	-2.5777801624e+00
 2.1702053357e-02	 1.2998168516e+00	-2.5778991014e+00
 1.0832946841e-02	 1.2999528667e+00	-2.5772283490e+00
 0.0000000000e+00	 1.2999980000e+00	-2.5755409424e+00
 1.1058439502e-01	 1.3041409122e+00	-2.4735374198e+00
 9.9386285178e-02	 1.3050420821e+00	-2.4720911369e+00
 8.8216381121e-02	 1.3058446991e+00	-2.4714974566e+00
 7.7075781752e-02	 1.3065496016e+00	-2.4715463314e+00
 6.5965565021e-02	 1.3071576413e+00	-2.4720234660e+00
 5.4886787810e-02	 1.3076696830e+00	-2.4727105880e+00
 4.3840485843e-02	 1.3080866040e+00	-2.4733857029e+00
 3.2827673597e-02	 1.3084092934e+00	-2.4738233368e+00
 2.1849344241e-02	 1.3086386516e+00	-2.4737947642e+00
 1.0906469576e-02	 1.3087755898e+00	-2.4730682257e+00
 0.0000000000e+00	 1.3088210294e+00	-2.4714091332e+00
 1.1132986698e-01	 1.3129323920e+00	-2.3774368317e+00
 1.0005626839e-01	 1.3138396368e+00	-2.3750849752e+00
 8.8811065732e-02	 1.3146476645e+00	-2.3737109683e+00
 7.7595365311e-02	 1.3153573189e+00	-2.3731007442e+00
 6.6410252343e-02	 1.3159694575e+00	-2.3730356540e+00
 5.5256790837e-02	 1.3164849510e+00	-2.3732927453e+00
 4.4136023495e-02	 1.3169046825e+00	-2.3736450238e+00
 3.3048971637e-02	 1.3172295472e+00	-2.3738617013e+00
 2.1996635124e-02	 1.3174604515e+00	-2.3737084286e+00
 1.0979992310e-02	 1.3175983129e+00	-2.3729475170e+00
 0.0000000000e+00	 1.3176440588e+00	-2.3713381473e+00
 1.1207533893e-01	 1.3217238717e+00	-2.2847788019e+00
 1.0072625160e-01	 1.3226371916e+00	-2.2815943893e+00
 8.9405750344e-02	 1.3234506299e+00	-2.2794998559e+00
 7.8114948871e-02	 1.3241650361e+00	-2.2782787719e+00
 6.6854939666e-02	 1.3247812737e+00	-2.2777097559e+00
 5.5626793863e-02	 1.3253002189e+00	-2.2775667596e+00
 4.4431561148e-02	 1.3257227610e+00	-2.2776193346e+00
 3.3270269677e-02	 1.3260498010e+00	-2.2776328849e+00
 2.2143926008e-02	 1.3262822515e+00	-2.2773689041e+00
 1.1053515045e-02	 1.3264210360e+00	-2.2765851990e+00
 0.0000000000e+00	 1.3264670883e+00	-2.2750361017e+00
 1.1282081089e-01	 1.3305153515e+00	-2.1953427239e+00
 1.0139623482e-01	 1.3314347463e+00	-2.1913964372e+00
 9.0000434956e-02	 1.3322535952e+00	-2.1886379548e+00
 7.8634532431e-02	 1.3329727534e+00	-2.1868501200e+00
 6.7299626990e-02	 1.3335930898e+00	-2.1858104208e+00
 5.5996796890e-02	 1.3341154869e+00	-2.1852912791e+00
 4.4727098801e-02	 1.3345408395e+00	-2.1850603222e+00
 3.3491567718e-02	 1.3348700548e+00	-2.1848806382e+00
 2.2291216892e-02	 1.3351040515e+00	-2.1845110159e+00
 1.1127037780e-02	 1.3352437590e+00	-2.1837061706e+00
 0.0000000000e+00	 1.3352901177e+00	-2.1822169570e+00
 1.1356628284e-01	 1.3393068313e+00	-2.1089149413e+00
 1.0206621803e-01	 1.3402323011e+00	-2.1042749574e+00
 9.0595119568e-02	 1.3410565606e+00	-2.1009057182e+00
 7.9154115991e-02	 1.3417804706e+00	-2.0985909566e+00
 6.7744314314e-02	 1.3424049060e+00	-2.0971086134e+00
 5.6366799918e-02	 1.3429307548e+00	-2.0962311301e+00
 4.5022636455e-02	 1.3433589180e+00	-2.0957257238e+00
 3.3712865758e-02	 1.3436903087e+00	-2.0953546445e+00
 2.2438507776e-02	 1.3439258514e+00	-2.0948754161e+00
 1.1200560515e-02	 1.3440664821e+00	-2.0940410636e+00
 0.0000000000e+00	 1.3441131471e+00	-2.0926003257e+00
 1.1431175480e-01	 1.3480983111e+00	-2.0252885465e+00
 1.0273620124e-01	 1.3490298559e+00	-2.0200203722e+00
 9.1189804181e-02	 1.3498595259e+00	-2.0160900247e+00
 7.9673699552e-02	 1.3505881879e+00	-2.0132837236e+00
 6.8189001638e-02	 1.3512167222e+00	-2.0113814282e+00
 5.6736802946e-02	 1.3517460228e+00	-2.0101571332e+00
 4.5318174109e-02	 1.3521769965e+00	-2.0093791445e+00
 3.3934163799e-02	 1.3525105625e+00	-2.0088103383e+00
 2.2585798660e-02	 1.3527476514e+00	-2.0082084018e+00
 1.1274083250e-02	 1.3528892052e+00	-2.0073260600e+00
 0.0000000000e+00	 1.3529361765e+00	-2.0059112878e+00
 1.3529361765e+00	 0.0000000000e+00	 3.7892811049e+00
 1.3528892052e+00	 1.1274083250e-02	 3.7878668558e+00
 1.3527476514e+00	 2.2585798660e-02	 3.7846675057e+00
 1.3525105625e+00	 3.3934163799e-02	 3.7796596157e+00
 1.3521769965e+00	 4.5318174109e-02	 3.7728161813e+00
 1.3517460228e+00	 5.6736802946e-02	 3.7641074637e+00
 1.3512167222e+00	 6.8189001638e-02	 3.7535018089e+00
 1.3505881879e+00	 7.9673699552e-02	 3.7409664543e+00
 1.3498595259e+00	 9.1189804181e-02	 3.7264683195e+00
 1.3490298559e+00	 1.0273620124e-01	 3.7099747780e+00
 1.3480983111e+00	 1.1431175480e-01	 3.6914544080e+00
 1.3617607059e+00	 0.0000000000e+00	 3.7964158541e+00
 1.3617134283e+00	 1.1347618485e-02	 3.7949319987e+00
 1.3615709511e+00	 2.2733114586e-02	 3.7916465625e+00
 1.3613323158e+00	 3.4155499464e-02	 3.7865293311e+00
 1.3609965742e+00	 4.5613762008e-02	 3.7795471111e+00
 1.3605627894e+00	 5.7106868879e-02	 3.7706645880e+00
 1.3600300364e+00	 6.8633764564e-02	 3.7598451731e+00
 1.3593974025e+00	 8.0193371447e-02	 3.7470518347e+00
 1.3586639879e+00	 9.1784589896e-02	 3.7322479129e+00
 1.3578289063e+00	 1.0340629836e-01	 3.7153979137e+00
 1.3568912855e+00	 1.1505735349e-01	 3.6964682797e+00
 1.3705852353e+00	 0.0000000000e+00	 3.8026694369e+00
 1.3705376513e+00	 1.1421153720e-02	 3.8011109897e+00
 1.3703942509e+00	 2.2880430512e-02	 3.7977286753e+00
 1.3701540692e+00	 3.4376835129e-02	 3.7924873645e+00
 1.3698161518e+00	 4.5909349907e-02	 3.7853495839e+00
 1.3693795561e+00	 5.7476934812e-02	 3.7762764007e+00
 1.3688433507e+00	 6.9078527490e-02	 3.7652282940e+00
 1.3682066172e+00	 8.0713043343e-02	 3.7521660102e+00
 1.3674684499e+00	 9.2379375611e-02	 3.7370513990e+00
 1.3666279567e+00	 1.0407639548e-01	 3.7198482279e+00
 1.3656842599e+00	 1.1580295218e-01	 3.7005229715e+00
 1.3794097647e+00	 0.0000000000e+00	 3.8079493823e+00
 1.3793618744e+00	 1.1494688955e-02	 3.8063189928e+00
 1.3792175507e+00	 2.3027746439e-02	 3.8028362990e+00
 1.3789758225e+00	 3.4598170794e-02	 3.7974630761e+00
 1.3786357295e+00	 4.6204937807e-02	 3.7901594394e+00
 1.3781963227e+00	 5.7847000746e-02	 3.7808847539e+00
 1.3776566650e+00	 6.9523290417e-02	 3.7695985288e+00
 1.3770158318e+00	 8.1232715239e-02	 3.7562612947e+00
 1.3762729118e+00	 9.2974161327e-02	 3.7408354594e+00
 1.3754270071e+00	 1.0474649260e-01	 3.7232861402e+00
 1.3744772344e+00	 1.1654855087e-01	 3.7035819699e+00
 1.3882342941e+00	 0.0000000000e+00	 3.8121647683e+00
 1.3881860974e+00	 1.1568224191e-02	 3.8104726039e+00
 1.3880408504e+00	 2.3175062365e-02	 3.8068932014e+00
 1.3877975758e+00	 3.4819506460e-02	 3.8013870204e+00
 1.3874553072e+00	 4.6500525707e-02	 3.7939135940e+00
 1.3870130893e+00	 5.8217066680e-02	 3.7844324616e+00
 1.3864699792e+00	 6.9968053344e-02	 3.7729040852e+00
 1.3858250465e+00	 8.1752387136e-02	 3.7592907461e+00
 1.3850773738e+00	 9.3568947043e-02	 3.7435574190e+00
 1.3842260576e+00	 1.0541658971e-01	 3.7256726201e+00
 1.3832702088e+00	 1.1729414957e-01	 3.7056092274e+00
 1.3970588236e+00	 0.0000000000e+00	 3.8152261726e+00
 1.3970103204e+00	 1.1641759426e-02	 3.8134898037e+00
 1.3968641502e+00	 2.3322378292e-02	 3.8098244193e+00
 1.3966193292e+00	 3.5040842126e-02	 3.8041909050e+00
 1.3962748848e+00	 4.6796113607e-02	 3.7965500023e+00
 1.3958298560e+00	 5.8587132614e-02	 3.7868632634e+00
 1.3952832935e+00	 7.0412816271e-02	 3.7750939872e+00
 1.3946342611e+00	 8.2272059032e-02	 3.7612081341e+00
 1.3938818357e+00	 9.4163732759e-02	 3.7451752162e+00
 1.3930251080e+00	 1.0608668683e-01	 3.7269691595e+00
 1.3920631832e+00	 1.1803974826e-01	 3.7065691356e+00
 1.4058833530e+00	 0.0000000000e+00	 3.8170456259e+00
 1.4058345435e+00	 1.1715294662e-02	 3.8152899136e+00
 1.4056874499e+00	 2.3469694219e-02	 3.8115562165e+00
 1.4054410825e+00	 3.5262177791e-02	 3.8058075505e+00
 1.4050944625e+00	 4.7091701508e-02	 3.7980076193e+00
 1.4046466226e+00	 5.8957198548e-02	 3.7881217887e+00
 1.4040966078e+00	 7.0857579198e-02	 3.7761180419e+00
 1.4034434758e+00	 8.2791730928e-02	 3.7619679095e+00
 1.4026862977e+00	 9.4758518475e-02	 3.7456473745e+00
 1.4018241584e+00	 1.0675678395e-01	 3.7271377461e+00
 1.4008561577e+00	 1.1878534695e-01	 3.7064265013e+00
 1.4147078824e+00	 0.0000000000e+00	 3.8175365667e+00
 1.4146587665e+00	 1.1788829897e-02	 3.8157935522e+00
 1.4145107497e+00	 2.3617010145e-02	 3.8120160425e+00
 1.4142628359e+00	 3.5483513457e-02	 3.8061708522e+00
 1.4139140402e+00	 4.7387289408e-02	 3.7982263643e+00
 1.4134633892e+00	 5.9327264481e-02	 3.7881535238e+00
 1.4129099221e+00	 7.1302342125e-02	 3.7759268087e+00
 1.4122526905e+00	 8.3311402825e-02	 3.7615251753e+00
 1.4114907596e+00	 9.5353304191e-02	 3.7449329749e+00
 1.4106232089e+00	 1.0742688107e-01	 3.7261408378e+00
 1.4096491321e+00	 1.1953094565e-01	 3.7051465221e+00
 1.4235324118e+00	 0.0000000000e+00	 3.8166137972e+00
 1.4234829896e+00	 1.1862365133e-02	 3.8149225941e+00
 1.4233340495e+00	 2.3764326072e-02	 3.8111324938e+00
 1.4230845892e+00	 3.5704849122e-02	 3.8052157429e+00
 1.4227336178e+00	 4.7682877308e-02	 3.7971470866e+00
 1.4222801559e+00	 5.9697330415e-02	 3.7869047787e+00
 1.4217232363e+00	 7.1747105052e-02	 3.7744715685e+00
 1.4210619051e+00	 8.3831074721e-02	 3.7598356582e+00
 1.4202952216e+00	 9.5948089907e-02	 3.7429916302e+00
 1.4194222593e+00	 1.0809697818e-01	 3.7239413387e+00
 1.4184421065e+00	 1.2027654434e-01	 3.7026947641e+00
 1.4323569412e+00	 0.0000000000e+00	 3.8141934415e+00
 1.4323072126e+00	 1.1935900368e-02	 3.8126001298e+00
 1.4321573492e+00	 2.3911641998e-02	 3.8088352758e+00
 1.4319063426e+00	 3.5926184787e-02	 3.8028781578e+00
 1.4315531955e+00	 4.7978465207e-02	 3.7947115314e+00
 1.4310969225e+00	 6.0067396348e-02	 3.7843226561e+00
 1.4305365506e+00	 7.2191867979e-02	 3.7717042945e+00
 1.4298711198e+00	 8.4350746617e-02	 3.7568556815e+00
 1.4290996835e+00	 9.6542875622e-02	 3.7397834593e+00
 1.4282213097e+00	 1.0876707530e-01	 3.7205025754e+00
 1.4272350809e+00	 1.2102214303e-01	 3.6990371402e+00
 1.4411814706e+00	 0.0000000000e+00	 3.8101929055e+00
 1.4411314357e+00	 1.2009435603e-02	 3.8087504272e+00
 1.4409806490e+00	 2.4058957924e-02	 3.8050551664e+00
 1.4407280959e+00	 3.6147520452e-02	 3.7990949995e+00
 1.4403727731e+00	 4.8274053106e-02	 3.7908623084e+00
 1.4399136891e+00	 6.0437462281e-02	 3.7803550215e+00
 1.4393498649e+00	 7.2636630905e-02	 3.7675776246e+00
 1.4386803344e+00	 8.4870418512e-02	 3.7525421390e+00
 1.4379041455e+00	 9.7137661338e-02	 3.7352690633e+00
 1.4370203602e+00	 1.0943717242e-01	 3.7157882750e+00
 1.4360280554e+00	 1.2176774173e-01	 3.6941398891e+00
 1.3480983111e+00	 1.1431175480e-01	 3.6914544080e+00
 1.3470638551e+00	 1.2591727781e-01	 3.6706859378e+00
 1.3459258001e+00	 1.3754960206e-01	 3.6475355785e+00
 1.3446833246e+00	 1.4920749834e-01	 3.6220980467e+00
 1.3433356234e+00	 1.6088971569e-01	 3.5944731613e+00
 1.3418819083e+00	 1.7259498153e-01	 3.5647662856e+00
 1.3403214086e+00	 1.8432200193e-01	 3.5330887279e+00
 1.3386533721e+00	 1.9606946182e-01	 3.4995580970e+00
 1.3368770650e+00	 2.0783602525e-01	 3.4642986107e+00
 1.3349917732e+00	 2.1962033562e-01	 3.4274413563e+00
 1.3329968024e+00	 2.3142101602e-01	 3.3891244997e+00
 1.3568912855e+00	 1.1505735349e-01	 3.6964682797e+00
 1.3558500822e+00	 1.2673857355e-01	 3.6752346513e+00
 1.3547046043e+00	 1.3844676966e-01	 3.6515599043e+00
 1.3534540248e+00	 1.5018070460e-01	 3.6255371261e+00
 1.3520975332e+00	 1.6193911924e-01	 3.5972652328e+00
 1.3506343362e+00	 1.7372073270e-01	 3.5668494226e+00
 1.3490636582e+00	 1.8552424262e-01	 3.5344015843e+00
 1.3473847419e+00	 1.9734832535e-01	 3.5000406602e+00
 1.3455968489e+00	 2.0919163622e-01	 3.4638929589e+00
 1.3436992602e+00	 2.2105280978e-01	 3.4260924186e+00
 1.3416912772e+00	 2.3293046015e-01	 3.3867808167e+00
 1.3656842599e+00	 1.1580295218e-01	 3.7005229715e+00
 1.3646363094e+00	 1.2755986929e-01	 3.6788492096e+00
 1.3634834085e+00	 1.3934393727e-01	 3.6546850711e+00
 1.3622247249e+00	 1.5115391087e-01	 3.6281205520e+00
 1.3608594430e+00	 1.6298852279e-01	 3.5992521970e+00
 1.3593867641e+00	 1.7484648388e-01	 3.5681835642e+00
 1.3578059078e+00	 1.8672648332e-01	 3.5350256440e+00
 1.3561161117e+00	 1.9862718888e-01	 3.4998972291e+00
 1.3543166327e+00	 2.1054724718e-01	 3.4629252343e+00
 1.3524067472e+00	 2.2248528394e-01	 3.4242449631e+00
 1.3503857520e+00	 2.3443990427e-01	 3.3840003191e+00
 1.3744772344e+00	 1.1654855087e-01	 3.7035819699e+00
 1.3734225366e+00	 1.2838116504e-01	 3.6814955116e+00
 1.3722622128e+00	 1.4024110487e-01	 3.6568787968e+00
 1.3709954251e+00	 1.5212711713e-01	 3.6298172995e+00
 1.3696213527e+00	 1.6403792634e-01	 3.6004037556e+00
 1.3681391920e+00	 1.7597223506e-01	 3.5687386409e+00
 1.3665481573e+00	 1.8792872401e-01	 3.5349306010e+00
 1.3648474815e+00	 1.9990605241e-01	 3.4990968303e+00
 1.3630364165e+00	 2.1190285815e-01	 3.4613633991e+00
 1.3611142342e+00	 2.2391775810e-01	 3.4218655251e+00
 1.3590802268e+00	 2.3594934840e-01	 3.3807477882e+00
 1.3832702088e+00	 1.1729414957e-01	 3.7056092274e+00
 1.3822087638e+00	 1.2920246078e-01	 3.6831398456e+00
 1.3810410170e+00	 1.4113827248e-01	 3.6581091199e+00
 1.3797661253e+00	 1.5310032339e-01	 3.6305966015e+00
 1.3783832625e+00	 1.6508732990e-01	 3.6006898118e+00
 1.3768916200e+00	 1.7709798623e-01	 3.5684847338e+00
 1.3752904069e+00	 1.8913096471e-01	 3.5340862543e+00
 1.3735788513e+00	 2.0118491594e-01	 3.4976085536e+00
 1.3717562003e+00	 2.1325846911e-01	 3.4591754401e+00
 1.3698217213e+00	 2.2535023226e-01	 3.4189206291e+00
 1.3677747016e+00	 2.3745879252e-01	 3.3769879617e+00
 1.3920631832e+00	 1.1803974826e-01	 3.7065691356e+00
 1.3909949910e+00	 1.3002375653e-01	 3.6837488651e+00
 1.3898198212e+00	 1.4203544009e-01	 3.6583443763e+00
 1.3885368255e+00	 1.5407352965e-01	 3.6304279277e+00
 1.3871451723e+00	 1.6613673345e-01	 3.6000804505e+00
 1.3856440479e+00	 1.7822373741e-01	 3.5673920558e+00
 1.3840326565e+00	 1.9033320540e-01	 3.5324624897e+00
 1.3823102211e+00	 2.0246377947e-01	 3.4954015345e+00
 1.3804759842e+00	 2.1461408008e-01	 3.4563293531e+00
 1.3785292083e+00	 2.2678270641e-01	 3.4153767748e+00
 1.3764691764e+00	 2.3896823664e-01	 3.3726855202e+00
 1.4008561577e+00	 1.1878534695e-01	 3.7064265013e+00
 1.3997812182e+00	 1.3084505227e-01	 3.6832895654e+00
 1.3985986254e+00	 1.4293260769e-01	 3.6575531780e+00
 1.3973075256e+00	 1.5504673591e-01	 3.6292809639e+00
 1.3959070821e+00	 1.6718613700e-01	 3.5985459189e+00
 1.3943964758e+00	 1.7934948858e-01	 3.5654309337e+00
 1.3927749060e+00	 1.9153544609e-01	 3.5300292630e+00
 1.3910415909e+00	 2.0374264300e-01	 3.4924449394e+00
 1.3891957680e+00	 2.1596969105e-01	 3.4527931286e+00
 1.3872366953e+00	 2.2821518057e-01	 3.4112004234e+00
 1.3851636512e+00	 2.4047768077e-01	 3.3678050759e+00
 1.4096491321e+00	 1.1953094565e-01	 3.7051465221e+00
 1.4085674454e+00	 1.3166634801e-01	 3.6817292614e+00
 1.4073774296e+00	 1.4382977530e-01	 3.6557043920e+00
 1.4060782258e+00	 1.5601994218e-01	 3.6271255927e+00
 1.4046689919e+00	 1.6823554055e-01	 3.5960566086e+00
 1.4031489038e+00	 1.8047523976e-01	 3.5625717913e+00
 1.4015171556e+00	 1.9273768679e-01	 3.5267565845e+00
 1.3997729606e+00	 2.0502150652e-01	 3.4887079507e+00
 1.3979155518e+00	 2.1732530201e-01	 3.4485347382e+00
 1.3959441823e+00	 2.2964765473e-01	 3.4063579856e+00
 1.3938581260e+00	 2.4198712489e-01	 3.3623111607e+00
 1.4184421065e+00	 1.2027654434e-01	 3.7026947641e+00
 1.4173536725e+00	 1.3248764376e-01	 3.6790355669e+00
 1.4161562339e+00	 1.4472694290e-01	 3.6527671208e+00
 1.4148489260e+00	 1.5699314844e-01	 3.6239318753e+00
 1.4134309017e+00	 1.6928494410e-01	 3.5925830380e+00
 1.4119013317e+00	 1.8160099093e-01	 3.5587851332e+00
 1.4102594052e+00	 1.9393992748e-01	 3.5226145039e+00
 1.4085043304e+00	 2.0630037005e-01	 3.4841597527e+00
 1.4066353356e+00	 2.1868091298e-01	 3.4435221223e+00
 1.4046516693e+00	 2.3108012889e-01	 3.4008158101e+00
 1.4025526008e+00	 2.4349656902e-01	 3.3561682169e+00
 1.4272350809e+00	 1.2102214303e-01	 3.6990371402e+00
 1.4261398997e+00	 1.3330893950e-01	 3.6751763740e+00
 1.4249350381e+00	 1.4562411051e-01	 3.6487106836e+00
 1.4236196261e+00	 1.5796635470e-01	 3.6196700336e+00
 1.4221928115e+00	 1.7033434766e-01	 3.5880958366e+00
 1.4206537596e+00	 1.8272674211e-01	 3.5540415303e+00
 1.4190016547e+00	 1.9514216818e-01	 3.5175730967e+00
 1.4172357002e+00	 2.0757923358e-01	 3.4787695198e+00
 1.4153551195e+00	 2.2003652394e-01	 3.4377231785e+00
 1.4133591563e+00	 2.3251260305e-01	 3.3945401739e+00
 1.4112470756e+00	 2.4500601314e-01	 3.3493405881e+00
 1.4360280554e+00	 1.2176774173e-01	 3.6941398891e+00
 1.4349261269e+00	 1.3413023525e-01	 3.6701198339e+00
 1.4337138423e+00	 1.4652127812e-01	 3.6435045981e+00
 1.4323903263e+00	 1.5893956096e-01	 3.6143104340e+00
 1.4309547213e+00	 1.7138375121e-01	 3.5825657294e+00
 1.4294061875e+00	 1.8385249329e-01	 3.5483116048e+00
 1.4277439043e+00	 1.9634440887e-01	 3.5116024513e+00
 1.4259670700e+00	 2.0885809711e-01	 3.4725064040e+00
 1.4240749033e+00	 2.2139213491e-01	 3.4311057508e+00
 1.4220666433e+00	 2.3394507721e-01	 3.3874972721e+00
 1.4199415504e+00	 2.4651545727e-01	 3.3417925106e+00
 1.3329968024e+00	 2.3142101602e-01	 3.3891244997e+00
 1.3308918460e+00	 2.4323466039e-01	 3.3489906766e+00
 1.3286759212e+00	 2.5506185996e-01	 3.3066274673e+00
 1.3263483964e+00	 2.6690118266e-01	 3.2621209257e+00
 1.3239086624e+00	 2.7875117746e-01	 3.2155640362e+00
 1.3213561328e+00	 2.9061037479e-01	 3.1670567012e+00
 1.3186902446e+00	 3.0247728689e-01	 3.1167056720e+00
 1.3159104587e+00	 3.1435040825e-01	 3.0646244189e+00
 1.3130162608e+00	 3.2622821604e-01	 3.0109329422e+00
 1.3100071613e+00	 3.3810917055e-01	 2.9557575220e+00
 1.3068826965e+00	 3.4999171566e-01	 2.8992304067e+00
 1.3416912772e+00	 2.3293046015e-01	 3.3867808167e+00
 1.3395725912e+00	 2.4482115904e-01	 3.3456043579e+00
 1.3373422130e+00	 2.5672550155e-01	 3.3021541533e+00
 1.3349995069e+00	 2.6864204626e-01	 3.2565215779e+00
 1.3325438597e+00	 2.8056933268e-01	 3.2088058368e+00
 1.3299746813e+00	 2.9250588165e-01	 3.1591139475e+00
 1.3272914048e+00	 3.0445019571e-01	 3.1075606616e+00
 1.3244934878e+00	 3.1640075953e-01	 3.0542683260e+00
 1.3215804125e+00	 3.2835604035e-01	 2.9993666805e+00
 1.3185516861e+00	 3.4031448841e-01	 2.9429925927e+00
 1.3154068420e+00	 3.5227453746e-01	 2.8852897300e+00
 1.3503857520e+00	 2.3443990427e-01	 3.3840003191e+00
 1.3482533364e+00	 2.4640765769e-01	 3.3418416742e+00
 1.3460085048e+00	 2.5838914313e-01	 3.2973665917e+00
 1.3436506175e+00	 2.7038290985e-01	 3.2506737473e+00
 1.3411790571e+00	 2.8238748789e-01	 3.2018705571e+00
 1.3385932298e+00	 2.9440138850e-01	 3.1510731511e+00
 1.3358925650e+00	 3.0642310453e-01	 3.0984062843e+00
 1.3330765169e+00	 3.1845111081e-01	 3.0440031835e+00
 1.3301445641e+00	 3.3048386466e-01	 2.9880053300e+00
 1.3270962110e+00	 3.4251980628e-01	 2.9305621763e+00
 1.3239309875e+00	 3.5455735925e-01	 2.8718307970e+00
 1.3590802268e+00	 2.3594934840e-01	 3.3807477882e+00
 1.3569340817e+00	 2.4799415633e-01	 3.3376650830e+00
 1.3546747967e+00	 2.6005278472e-01	 3.2922240584e+00
 1.3523017280e+00	 2.7212377345e-01	 3.2445326392e+00
 1.3498142545e+00	 2.8420564311e-01	 3.1947084118e+00
 1.3472117783e+00	 2.9629689536e-01	 3.1428785858e+00
 1.3444937253e+00	 3.0839601335e-01	 3.0891798911e+00
 1.3416595460e+00	 3.2050146209e-01	 3.0337584081e+00
 1.3387087158e+00	 3.3261168897e-01	 2.9767693314e+00
 1.3356407358e+00	 3.4472512415e-01	 2.9183766654e+00
 1.3324551329e+00	 3.5684018105e-01	 2.8587528511e+00
 1.3677747016e+00	 2.3745879252e-01	 3.3769879617e+00
 1.3656148269e+00	 2.4958065498e-01	 3.3330369739e+00
 1.3633410885e+00	 2.6171642630e-01	 3.2866857533e+00
 1.3609528386e+00	 2.7386463704e-01	 3.2380533923e+00
 1.3584494519e+00	 2.8602379832e-01	 3.1872695766e+00
 1.3558303268e+00	 2.9819240222e-01	 3.1344745327e+00
 1.3530948855e+00	 3.1036892217e-01	 3.0798189076e+00
 1.3502425751e+00	 3.2255181338e-01	 3.0234635792e+00
 1.3472728675e+00	 3.3473951329e-01	 2.9655793982e+00
 1.3441852606e+00	 3.4693044202e-01	 2.9063468589e+00
 1.3409792784e+00	 3.5912300284e-01	 2.8459556992e+00
 1.3764691764e+00	 2.3896823664e-01	 3.3726855202e+00
 1.3742955721e+00	 2.5116715363e-01	 3.3279196564e+00
 1.3720073804e+00	 2.6338006789e-01	 3.2807107891e+00
 1.3696039491e+00	 2.7560550064e-01	 3.2311910674e+00
 1.3670846493e+00	 2.8784195354e-01	 3.1795041766e+00
 1.3644488753e+00	 3.0008790908e-01	 3.1258052687e+00
 1.3616960458e+00	 3.1234183099e-01	 3.0702608207e+00
 1.3588256041e+00	 3.2460216466e-01	 3.0130484240e+00
 1.3558370191e+00	 3.3686733760e-01	 2.9543564996e+00
 1.3527297854e+00	 3.4913575988e-01	 2.8943839418e+00
 1.3495034239e+00	 3.6140582464e-01	 2.8333396878e+00
 1.3851636512e+00	 2.4047768077e-01	 3.3678050759e+00
 1.3829763173e+00	 2.5275365228e-01	 3.3222753489e+00
 1.3806736722e+00	 2.6504370947e-01	 3.2742581807e+00
 1.3782550597e+00	 2.7734636423e-01	 3.2239006375e+00
 1.3757198467e+00	 2.8966010875e-01	 3.1713622766e+00
 1.3730674238e+00	 3.0198341594e-01	 3.1168150553e+00
 1.3702972060e+00	 3.1431473981e-01	 3.0604431671e+00
 1.3674086332e+00	 3.2665251595e-01	 3.0024428043e+00
 1.3644011708e+00	 3.3899516191e-01	 2.9430218453e+00
 1.3612743102e+00	 3.5134107775e-01	 2.8823994673e+00
 1.3580275694e+00	 3.6368864644e-01	 2.8208056825e+00
 1.3938581260e+00	 2.4198712489e-01	 3.3623111607e+00
 1.3916570625e+00	 2.5434015092e-01	 3.3160661693e+00
 1.3893399641e+00	 2.6670735106e-01	 3.2672868364e+00
 1.3869061703e+00	 2.7908722783e-01	 3.2161369792e+00
 1.3843550441e+00	 2.9147826397e-01	 3.1627938717e+00
 1.3816859723e+00	 3.0387892280e-01	 3.1074481302e+00
 1.3788983662e+00	 3.1628764863e-01	 3.0503035233e+00
 1.3759916623e+00	 3.2870286723e-01	 2.9915767051e+00
 1.3729653225e+00	 3.4112298623e-01	 2.9314968722e+00
 1.3698188350e+00	 3.5354639562e-01	 2.8703053412e+00
 1.3665517149e+00	 3.6597146823e-01	 2.8082550486e+00
 1.4025526008e+00	 2.4349656902e-01	 3.3561682169e+00
 1.4003378077e+00	 2.5592664957e-01	 3.3092541256e+00
 1.3980062559e+00	 2.6837099264e-01	 3.2597555499e+00
 1.3955572808e+00	 2.8082809143e-01	 3.2078548651e+00
 1.3929902414e+00	 2.9329641918e-01	 3.1537488808e+00
 1.3903045208e+00	 3.0577442965e-01	 3.0976486991e+00
 1.3874995265e+00	 3.1826055745e-01	 3.0397794965e+00
 1.3845746914e+00	 3.3075321851e-01	 2.9803802247e+00
 1.3815294741e+00	 3.4325081054e-01	 2.9197032327e+00
 1.3783633598e+00	 3.5575171349e-01	 2.8580138076e+00
 1.3750758603e+00	 3.6825429003e-01	 2.7955896344e+00
 1.4112470756e+00	 2.4500601314e-01	 3.3493405881e+00
 1.4090185530e+00	 2.5751314822e-01	 3.3018011083e+00
 1.4066725477e+00	 2.7003463423e-01	 3.2516229930e+00
 1.4042083914e+00	 2.8256895502e-01	 3.1990089574e+00
 1.4016254388e+00	 2.9511457440e-01	 3.1441771392e+00
 1.3989230693e+00	 3.0766993651e-01	 3.0873609289e+00
 1.3961006867e+00	 3.2023346627e-01	 3.0288087181e+00
 1.3931577205e+00	 3.3280356980e-01	 2.9687835662e+00
 1.3900936258e+00	 3.4537863485e-01	 2.9075627847e+00
 1.3869078846e+00	 3.5795703135e-01	 2.8454374373e+00
 1.3836000058e+00	 3.7053711183e-01	 2.7827117568e+00
 1.4199415504e+00	 2.4651545727e-01	 3.3417925106e+00
 1.4176992982e+00	 2.5909964687e-01	 3.2936688835e+00
 1.4153388396e+00	 2.7169827581e-01	 3.2428477101e+00
 1.4128595019e+00	 2.8430981862e-01	 3.1895538020e+00
 1.4102606362e+00	 2.9693272962e-01	 3.1340283942e+00
 1.4075416178e+00	 3.0956544337e-01	 3.0765289425e+00
 1.4047018470e+00	 3.2220637509e-01	 3.0173288369e+00
 1.4017407496e+00	 3.3485392108e-01	 2.9567170307e+00
 1.3986577775e+00	 3.4750645917e-01	 2.8949975831e+00
 1.3954524094e+00	 3.6016234922e-01	 2.8324891167e+00
 1.3921241513e+00	 3.7281993362e-01	 2.7695241880e+00
 1.3068826965e+00	 3.4999171566e-01	 2.8992304067e+00
 1.3036424289e+00	 3.6187427950e-01	 2.8409077830e+00
 1.3002859490e+00	 3.7375527545e-01	 2.7803530147e+00
 1.2968128745e+00	 3.8563310219e-01	 2.7177132866e+00
 1.2932228510e+00	 3.9750614411e-01	 2.6531351004e+00
 1.2895155522e+00	 4.0937277181e-01	 2.5867635160e+00
 1.2856906802e+00	 4.2123134272e-01	 2.5187413349e+00
 1.2817479665e+00	 4.3308020167e-01	 2.4492082282e+00
 1.2776871719e+00	 4.4491768149e-01	 2.3782998075e+00
 1.2735080872e+00	 4.5674210366e-01	 2.3061466425e+00
 1.2692105336e+00	 4.6855177891e-01	 2.2328732250e+00
 1.3154068420e+00	 3.5227453746e-01	 2.8852897300e+00
 1.3121454398e+00	 3.6423460535e-01	 2.8257724272e+00
 1.3087670672e+00	 3.7619309512e-01	 2.7639707222e+00
 1.3052713396e+00	 3.8814839502e-01	 2.7000563969e+00
 1.3016579001e+00	 4.0009887888e-01	 2.6342002034e+00
 1.2979264204e+00	 4.1204290668e-01	 2.5665710424e+00
 1.2940766007e+00	 4.2397882515e-01	 2.4973350834e+00
 1.2901081707e+00	 4.3590496831e-01	 2.4266548261e+00
 1.2860208895e+00	 4.4781965812e-01	 2.3546881057e+00
 1.2818145467e+00	 4.5972120511e-01	 2.2815870426e+00
 1.2774889623e+00	 4.7160790899e-01	 2.2074969378e+00
 1.3239309875e+00	 3.5455735925e-01	 2.8718307970e+00
 1.3206484506e+00	 3.6659493119e-01	 2.8112740174e+00
 1.3172481853e+00	 3.7863091479e-01	 2.7483728773e+00
 1.3137298046e+00	 3.9066368784e-01	 2.6833168061e+00
 1.3100929492e+00	 4.0269161364e-01	 2.6162939878e+00
 1.3063372887e+00	 4.1471304156e-01	 2.5474904881e+00
 1.3024625212e+00	 4.2672630758e-01	 2.4770893208e+00
 1.2984683748e+00	 4.3872973495e-01	 2.4052694553e+00
 1.2943546071e+00	 4.5072163475e-01	 2.3322047662e+00
 1.2901210062e+00	 4.6270030656e-01	 2.2580629261e+00
 1.2857673910e+00	 4.7466403908e-01	 2.1830042444e+00
 1.3324551329e+00	 3.5684018105e-01	 2.8587528511e+00
 1.3291514614e+00	 3.6895525704e-01	 2.7973016688e+00
 1.3257293035e+00	 3.8106873446e-01	 2.7334417326e+00
 1.3221882696e+00	 3.9317898066e-01	 2.6673733230e+00
 1.3185279984e+00	 4.0528434841e-01	 2.5992953897e+00
 1.3147481569e+00	 4.1738317643e-01	 2.5294046371e+00
 1.3108484417e+00	 4.2947379001e-01	 2.4578945493e+00
 1.3068285789e+00	 4.4155450159e-01	 2.3849543533e+00
 1.3026883247e+00	 4.5362361139e-01	 2.3107679242e+00
 1.2984274657e+00	 4.6567940802e-01	 2.2355126326e+00
 1.2940458197e+00	 4.7772016917e-01	 2.1593581358e+00
 1.3409792784e+00	 3.5912300284e-01	 2.8459556992e+00
 1.3376544722e+00	 3.7131558289e-01	 2.7837451874e+00
 1.3342104217e+00	 3.8350655413e-01	 2.7190602721e+00
 1.3306467347e+00	 3.9569427349e-01	 2.6521054380e+00
 1.3269630475e+00	 4.0787708318e-01	 2.5830838818e+00
 1.3231590251e+00	 4.2005331131e-01	 2.5121965681e+00
 1.3192343622e+00	 4.3222127244e-01	 2.4396412216e+00
 1.3151887831e+00	 4.4437926823e-01	 2.3656112586e+00
 1.3110220423e+00	 4.5652558802e-01	 2.2902946577e+00
 1.3067339252e+00	 4.6865850947e-01	 2.2138727724e+00
 1.3023242484e+00	 4.8077629926e-01	 2.1365190867e+00
 1.3495034239e+00	 3.6140582464e-01	 2.8333396878e+00
 1.3461574831e+00	 3.7367590874e-01	 2.7704950438e+00
 1.3426915399e+00	 3.8594437380e-01	 2.7051121855e+00
 1.3391051997e+00	 3.9820956631e-01	 2.6373933004e+00
 1.3353980966e+00	 4.1046981795e-01	 2.5675394586e+00
 1.3315698934e+00	 4.2272344618e-01	 2.4957496482e+00
 1.3276202827e+00	 4.3496875488e-01	 2.4222197476e+00
 1.3235489872e+00	 4.4720403488e-01	 2.3471414337e+00
 1.3193557599e+00	 4.5942756465e-01	 2.2707010300e+00
 1.3150403847e+00	 4.7163761093e-01	 2.1930782945e+00
 1.3106026771e+00	 4.8383242935e-01	 2.1144451497e+00
 1.3580275694e+00	 3.6368864644e-01	 2.8208056825e+00
 1.3546604939e+00	 3.7603623458e-01	 2.7574423503e+00
 1.3511726581e+00	 3.8838219348e-01	 2.6914818456e+00
 1.3475636648e+00	 4.0072485914e-01	 2.6231176995e+00
 1.3438331457e+00	 4.1306255272e-01	 2.5525426224e+00
 1.3399807616e+00	 4.2539358106e-01	 2.4799475299e+00
 1.3360062032e+00	 4.3771623731e-01	 2.4055205042e+00
 1.3319091914e+00	 4.5002880152e-01	 2.3294456911e+00
 1.3276894775e+00	 4.6232954129e-01	 2.2519021349e+00
 1.3233468443e+00	 4.7461671238e-01	 2.1730625527e+00
 1.3188811058e+00	 4.8688855944e-01	 2.0930920495e+00
 1.3665517149e+00	 3.6597146823e-01	 2.8082550486e+00
 1.3631635047e+00	 3.7839656043e-01	 2.7444788397e+00
 1.3596537762e+00	 3.9082001315e-01	 2.6780542878e+00
 1.3560221298e+00	 4.0324015197e-01	 2.6091600473e+00
 1.3522681948e+00	 4.1565528749e-01	 2.5379743734e+00
 1.3483916299e+00	 4.2806371594e-01	 2.4646741490e+00
 1.3443921237e+00	 4.4046371974e-01	 2.3894338454e+00
 1.3402693955e+00	 4.5285356817e-01	 2.3124244184e+00
 1.3360231951e+00	 4.6523151792e-01	 2.2338121410e+00
 1.3316533038e+00	 4.7759581384e-01	 2.1537573735e+00
 1.3271595345e+00	 4.8994468953e-01	 2.0724132747e+00
 1.3750758603e+00	 3.6825429003e-01	 2.7955896344e+00
 1.3716665155e+00	 3.8075688628e-01	 2.7314968466e+00
 1.3681348944e+00	 3.9325783282e-01	 2.6647151921e+00
 1.3644805948e+00	 4.0575544479e-01	 2.5954023639e+00
 1.3607032439e+00	 4.1824802226e-01	 2.5237162008e+00
 1.3568024981e+00	 4.3073385081e-01	 2.4498137253e+00
 1.3527780442e+00	 4.4321120218e-01	 2.3738501148e+00
 1.3486295997e+00	 4.5567833481e-01	 2.2959776065e+00
 1.3443569127e+00	 4.6813349455e-01	 2.2163443375e+00
 1.3399597633e+00	 4.8057491529e-01	 2.1350931225e+00
 1.3354379633e+00	 4.9300081962e-01	 2.0523601702e+00
 1.3836000058e+00	 3.7053711183e-01	 2.7827117568e+00
 1.3801695264e+00	 3.8311721213e-01	 2.7183892909e+00
 1.3766160126e+00	 3.9569565249e-01	 2.6513508676e+00
 1.3729390599e+00	 4.0827073762e-01	 2.5817272654e+00
 1.3691382930e+00	 4.2084075703e-01	 2.5096500763e+00
 1.3652133663e+00	 4.3340398569e-01	 2.4352507650e+00
 1.3611639648e+00	 4.4595868461e-01	 2.3586596600e+00
 1.3569898038e+00	 4.5850310145e-01	 2.2800048776e+00
 1.3526906303e+00	 4.7103547119e-01	 2.1994111804e+00
 1.3482662228e+00	 4.8355401675e-01	 2.1169987718e+00
 1.3437163920e+00	 4.9605694971e-01	 2.0328820275e+00
 1.3921241513e+00	 3.7281993362e-01	 2.7695241880e+00
 1.3886725372e+00	 3.8547753797e-01	 2.7050496638e+00
 1.3850971308e+00	 3.9813347216e-01	 2.6378482388e+00
 1.3813975249e+00	 4.1078603044e-01	 2.5680179533e+00
 1.3775733421e+00	 4.2343349180e-01	 2.4956584502e+00
 1.3736242346e+00	 4.3607412057e-01	 2.4208700650e+00
 1.3695498853e+00	 4.4870616704e-01	 2.3437528476e+00
 1.3653500079e+00	 4.6132786810e-01	 2.2644055153e+00
 1.3610243479e+00	 4.7393744782e-01	 2.1829243393e+00
 1.3565726823e+00	 4.8653311820e-01	 2.0994019661e+00
 1.3519948207e+00	 4.9911307980e-01	 2.0139261751e+00
 1.2692105336e+00	 4.6855177891e-01	 2.2328732250e+00
 1.2647936020e+00	 4.8034701128e-01	 2.1583070976e+00
 1.2602578954e+00	 4.9212408161e-01	 2.0823169218e+00
 1.2556033274e+00	 5.0388127097e-01	 2.0050415922e+00
 1.2508298437e+00	 5.1561685237e-01	 1.9266130762e+00
 1.2459374222e+00	 5.2732909147e-01	 1.8471551023e+00
 1.2409260734e+00	 5.3901624731e-01	 1.7667818012e+00
 1.2357958404e+00	 5.5067657307e-01	 1.6855963042e+00
 1.2305467998e+00	 5.6230831678e-01	 1.6036892990e+00
 1.2251790613e+00	 5.7390972211e-01	 1.5211375489e+00
 1.2196927683e+00	 5.8547902912e-01	 1.4380023767e+00
 1.2774889623e+00	 4.7160790899e-01	 2.2074969378e+00
 1.2730432213e+00	 4.8348007580e-01	 2.1323048032e+00
 1.2684779305e+00	 4.9533396210e-01	 2.0559091678e+00
 1.2637930031e+00	 5.0716783776e-01	 1.9784259237e+00
 1.2589883843e+00	 5.1897996451e-01	 1.8999661507e+00
 1.2540640520e+00	 5.3076859672e-01	 1.8206348331e+00
 1.2490200166e+00	 5.4253198206e-01	 1.7405295270e+00
 1.2438563217e+00	 5.5426836232e-01	 1.6597389804e+00
 1.2385730442e+00	 5.6597597411e-01	 1.5783417087e+00
 1.2331702946e+00	 5.7765304963e-01	 1.4964045288e+00
 1.2276482172e+00	 5.8929781748e-01	 1.4139493956e+00
 1.2857673910e+00	 4.7466403908e-01	 2.1830042444e+00
 1.2812928405e+00	 4.8661314031e-01	 2.1070008934e+00
 1.2766979656e+00	 4.9854384259e-01	 2.0300191852e+00
 1.2719826787e+00	 5.1045440454e-01	 1.9521644423e+00
 1.2671469249e+00	 5.2234307665e-01	 1.8735390563e+00
 1.2621906818e+00	 5.3420810196e-01	 1.7942412142e+00
 1.2571139599e+00	 5.4604771681e-01	 1.7143635716e+00
 1.2519168030e+00	 5.5786015158e-01	 1.6339918754e+00
 1.2465992886e+00	 5.6964363144e-01	 1.5532035390e+00
 1.2411615279e+00	 5.8139637715e-01	 1.4720661728e+00
 1.2356036662e+00	 5.9311660583e-01	 1.3899864732e+00
 1.2940458197e+00	 4.7772016917e-01	 2.1593581358e+00
 1.2895424598e+00	 4.8974620483e-01	 2.0823821828e+00
 1.2849180007e+00	 5.0175372308e-01	 2.0046512538e+00
 1.2801723544e+00	 5.1374097132e-01	 1.9262723072e+00
 1.2753054656e+00	 5.2570618879e-01	 1.8473510220e+00
 1.2703173116e+00	 5.3764760721e-01	 1.7679905138e+00
 1.2652079031e+00	 5.4956345156e-01	 1.6882899944e+00
 1.2599772843e+00	 5.6145194083e-01	 1.6083433783e+00
 1.2546255330e+00	 5.7331128877e-01	 1.5282378380e+00
 1.2491527612e+00	 5.8513970467e-01	 1.4480523118e+00
 1.2435591152e+00	 5.9693539419e-01	 1.3657732044e+00
 1.3023242484e+00	 4.8077629926e-01	 2.1365190867e+00
 1.2977920791e+00	 4.9287926935e-01	 2.0584322003e+00
 1.2931380358e+00	 5.0496360357e-01	 1.9798057570e+00
 1.2883620301e+00	 5.1702753811e-01	 1.9007603350e+00
 1.2834640062e+00	 5.2906930094e-01	 1.8214166578e+00
 1.2784439414e+00	 5.4108711246e-01	 1.7418942804e+00
 1.2733018464e+00	 5.5307918632e-01	 1.6623102161e+00
 1.2680377656e+00	 5.6504373008e-01	 1.5827775073e+00
 1.2626517774e+00	 5.7697894610e-01	 1.5034037424e+00
 1.2571439946e+00	 5.8888303220e-01	 1.4242767954e+00
 1.2515145641e+00	 6.0075418255e-01	 1.3411651405e+00
 1.3106026771e+00	 4.8383242935e-01	 2.1144451497e+00
 1.3060416983e+00	 4.9601233388e-01	 2.0351313104e+00
 1.3013580709e+00	 5.0817348406e-01	 1.9554793245e+00
 1.2965517058e+00	 5.2031410489e-01	 1.8756351589e+00
 1.2916225468e+00	 5.3243241308e-01	 1.7957461258e+00
 1.2865705712e+00	 5.4452661771e-01	 1.7159595204e+00
 1.2813957896e+00	 5.5659492107e-01	 1.6364211961e+00
 1.2760982469e+00	 5.6863551934e-01	 1.5572740810e+00
 1.2706780219e+00	 5.8064660343e-01	 1.4786566372e+00
 1.2651352279e+00	 5.9262635972e-01	 1.4001539952e+00
 1.2594700131e+00	 6.0457297090e-01	 1.3160202982e+00
 1.3188811058e+00	 4.8688855944e-01	 2.0930920495e+00
 1.3142913176e+00	 4.9914539840e-01	 2.0124568325e+00
 1.3095781060e+00	 5.1138336455e-01	 1.9316649738e+00
 1.3047413814e+00	 5.2360067168e-01	 1.8508993866e+00
 1.2997810874e+00	 5.3579552522e-01	 1.7703453085e+00
 1.2946972009e+00	 5.4796612296e-01	 1.6901888714e+00
 1.2894897329e+00	 5.6011065582e-01	 1.6106156065e+00
 1.2841587282e+00	 5.7222730859e-01	 1.5318088874e+00
 1.2787042663e+00	 5.8431426076e-01	 1.4539483133e+00
 1.2731264612e+00	 5.9636968725e-01	 1.3753215923e+00
 1.2674254621e+00	 6.0839175926e-01	 1.2901991377e+00
 1.3271595345e+00	 4.8994468953e-01	 2.0724132747e+00
 1.3225409368e+00	 5.0227846292e-01	 1.9903831588e+00
 1.3177981411e+00	 5.1459324504e-01	 1.9083522475e+00
 1.3129310571e+00	 5.2688723847e-01	 1.8265517532e+00
 1.3079396280e+00	 5.3915863737e-01	 1.7452159731e+00
 1.3028238307e+00	 5.5140562821e-01	 1.6645807731e+00
 1.2975836761e+00	 5.6362639057e-01	 1.5848820031e+00
 1.2922192095e+00	 5.7581909785e-01	 1.5063538493e+00
 1.2867305107e+00	 5.8798191809e-01	 1.4292271224e+00
 1.2811176945e+00	 6.0011301477e-01	 1.3496753613e+00
 1.2753809110e+00	 6.1221054762e-01	 1.2635645410e+00
 1.3354379633e+00	 4.9300081962e-01	 2.0523601702e+00
 1.3307905561e+00	 5.0541152744e-01	 1.9688818704e+00
 1.3260181762e+00	 5.1780312553e-01	 1.8855273498e+00
 1.3211207328e+00	 5.3017380525e-01	 1.8025872731e+00
 1.3160981686e+00	 5.4252174951e-01	 1.7203559339e+00
 1.3109504605e+00	 5.5484513347e-01	 1.6391296342e+00
 1.3056776194e+00	 5.6714212532e-01	 1.5592049931e+00
 1.3002796908e+00	 5.7941088710e-01	 1.4808771877e+00
 1.2947567551e+00	 5.9164957542e-01	 1.4040971357e+00
 1.2891089279e+00	 6.0385634229e-01	 1.3231126781e+00
 1.2833363600e+00	 6.1602933597e-01	 1.2359817890e+00
 1.3437163920e+00	 4.9605694971e-01	 2.0328820275e+00
 1.3390401754e+00	 5.0854459196e-01	 1.9479218513e+00
 1.3342382113e+00	 5.2101300602e-01	 1.8631732801e+00
 1.3293104084e+00	 5.3346037204e-01	 1.7789973882e+00
 1.3242567092e+00	 5.4588486165e-01	 1.6957592102e+00
 1.3190770903e+00	 5.5828463872e-01	 1.6138259971e+00
 1.3137715626e+00	 5.7065786008e-01	 1.5335653998e+00
 1.3083401721e+00	 5.8300267636e-01	 1.4553435820e+00
 1.3027829995e+00	 5.9531723275e-01	 1.3780587500e+00
 1.2971001612e+00	 6.0759966982e-01	 1.2955325216e+00
 1.2912918090e+00	 6.1984812433e-01	 1.2073185389e+00
 1.3519948207e+00	 4.9911307980e-01	 2.0139261751e+00
 1.3472897946e+00	 5.1167765648e-01	 1.9274694016e+00
 1.3424582464e+00	 5.2422288651e-01	 1.8412699642e+00
 1.3375000841e+00	 5.3674693882e-01	 1.7557701141e+00
 1.3324152499e+00	 5.4924797379e-01	 1.6714161830e+00
 1.3272037201e+00	 5.6172414397e-01	 1.5886566989e+00
 1.3218655059e+00	 5.7417359483e-01	 1.5079404252e+00
 1.3164006534e+00	 5.8659446561e-01	 1.4297143282e+00
 1.3108092439e+00	 5.9898489008e-01	 1.3510349884e+00
 1.3050913945e+00	 6.1134299734e-01	 1.2668354734e+00
 1.2992472579e+00	 6.2366691268e-01	 1.1774448006e+00
 1.2196927683e+00	 5.8547902912e-01	 1.4380023767e+00
 1.2140890607e+00	 5.9701251716e-01	 1.3558644704e+00
 1.2083672264e+00	 6.0851039118e-01	 1.2739156120e+00
 1.2025275101e+00	 6.1997088548e-01	 1.1925171074e+00
 1.1965701906e+00	 6.3139223392e-01	 1.1122200874e+00
 1.1904955813e+00	 6.4277267076e-01	 1.0335714254e+00
 1.1843040300e+00	 6.5411043145e-01	 9.5711317001e-01
 1.1779959194e+00	 6.6540375352e-01	 8.8338202401e-01
 1.1715716669e+00	 6.7665087737e-01	 8.1050268354e-01
 1.1650317246e+00	 6.8785004713e-01	 7.3333680639e-01
 1.1583765792e+00	 6.9899951150e-01	 6.5201324622e-01
 1.2276482172e+00	 5.8929781748e-01	 1.4139493956e+00
 1.2220079594e+00	 6.0090653272e-01	 1.3303119423e+00
 1.2162488045e+00	 6.1247940165e-01	 1.2463501451e+00
 1.2103709987e+00	 6.2401464705e-01	 1.1625521646e+00
 1.2043748225e+00	 6.3551049127e-01	 1.0794025033e+00
 1.1982605915e+00	 6.4696515702e-01	 9.9738149393e-01
 1.1920286558e+00	 6.5837686829e-01	 9.1696483704e-01
 1.1856794006e+00	 6.6974385108e-01	 8.3862318715e-01
 1.1792132459e+00	 6.8106433433e-01	 7.6282178967e-01
 1.1726306468e+00	 6.9233655070e-01	 6.8855559654e-01
 1.1659320932e+00	 7.0355873747e-01	 6.0987985900e-01
 1.2356036662e+00	 5.9311660583e-01	 1.3899864732e+00
 1.2299268582e+00	 6.0480054828e-01	 1.3049179317e+00
 1.2241303826e+00	 6.1644841212e-01	 1.2192802703e+00
 1.2182144872e+00	 6.2805840862e-01	 1.1334966895e+00
 1.2121794544e+00	 6.3962874861e-01	 1.0479867020e+00
 1.2060256018e+00	 6.5115764329e-01	 9.6316572083e-01
 1.1997532817e+00	 6.6264330513e-01	 8.7944469836e-01
 1.1933628818e+00	 6.7408394864e-01	 7.9722981913e-01
 1.1868548249e+00	 6.8547779128e-01	 7.1692224560e-01
 1.1802295689e+00	 6.9682305426e-01	 6.3891791726e-01
 1.1734876072e+00	 7.0811796344e-01	 5.6273120437e-01
 1.2435591152e+00	 5.9693539419e-01	 1.3657732044e+00
 1.2378457570e+00	 6.0869456383e-01	 1.2794950399e+00
 1.2320119607e+00	 6.2041742259e-01	 1.1924780058e+00
 1.2260579757e+00	 6.3210217019e-01	 1.1050819600e+00
 1.2199840863e+00	 6.4374700595e-01	 1.0176630260e+00
 1.2137906120e+00	 6.5535012956e-01	 9.3057327772e-01
 1.2074779075e+00	 6.6690974197e-01	 8.4416047965e-01
 1.2010463630e+00	 6.7842404620e-01	 7.5876788382e-01
 1.1944964038e+00	 6.8989124823e-01	 6.7473408293e-01
 1.1878284911e+00	 7.0130955782e-01	 5.9239292014e-01
 1.1810431212e+00	 7.1267718941e-01	 5.1207345486e-01
 1.2515145641e+00	 6.0075418255e-01	 1.3411651405e+00
 1.2457646558e+00	 6.1258857939e-01	 1.2538593645e+00
 1.2398935388e+00	 6.2438643306e-01	 1.1657198803e+00
 1.2339014643e+00	 6.3614593177e-01	 1.0770447842e+00
 1.2277887182e+00	 6.4786526330e-01	 9.8812837292e-01
 1.2215556223e+00	 6.5954261583e-01	 8.9926092399e-01
 1.2152025334e+00	 6.7117617881e-01	 8.1072853527e-01
 1.2087298441e+00	 6.8276414376e-01	 7.2281302393e-01
 1.2021379828e+00	 6.9430470518e-01	 6.3579188576e-01
 1.1954274133e+00	 7.0579606139e-01	 5.4993831411e-01
 1.1885986352e+00	 7.1723641538e-01	 4.6552127778e-01
 1.2594700131e+00	 6.0457297090e-01	 1.3160202982e+00
 1.2536835545e+00	 6.1648259495e-01	 1.2278304469e+00
 1.2477751169e+00	 6.2835544353e-01	 1.1387868491e+00
 1.2417449528e+00	 6.4018969334e-01	 1.0491273841e+00
 1.2355933501e+00	 6.5198352064e-01	 9.5908604799e-01
 1.2293206325e+00	 6.6373510210e-01	 8.6889282754e-01
 1.2229271592e+00	 6.7544261565e-01	 7.7877363687e-01
 1.2164133253e+00	 6.8710424132e-01	 6.8895031744e-01
 1.2097795618e+00	 6.9871816214e-01	 5.9964070166e-01
 1.2030263355e+00	 7.1028256495e-01	 5.1105873952e-01
 1.1961541492e+00	 7.2179564136e-01	 4.2341468745e-01
 1.2674254621e+00	 6.0839175926e-01	 1.2901991377e+00
 1.2616024533e+00	 6.2037661051e-01	 1.2012312207e+00
 1.2556566950e+00	 6.3232445400e-01	 1.1114642117e+00
 1.2495884413e+00	 6.4423345491e-01	 1.0210772831e+00
 1.2433979820e+00	 6.5610177798e-01	 9.3024562106e-01
 1.2370856428e+00	 6.6792758837e-01	 8.3914039076e-01
 1.2306517850e+00	 6.7970905249e-01	 7.4792876868e-01
 1.2240968065e+00	 6.9144433889e-01	 6.5677404193e-01
 1.2174211408e+00	 7.0313161909e-01	 5.6583577471e-01
 1.2106252577e+00	 7.1476906852e-01	 4.7527004122e-01
 1.2037096631e+00	 7.2635486733e-01	 3.8522972401e-01
 1.2753809110e+00	 6.1221054762e-01	 1.2635645410e+00
 1.2695213521e+00	 6.2427062607e-01	 1.1738879601e+00
 1.2635382731e+00	 6.3629346447e-01	 1.0835415311e+00
 1.2574319299e+00	 6.4827721648e-01	 9.9264719604e-01
 1.2512026139e+00	 6.6022003533e-01	 9.0132278710e-01
 1.2448506530e+00	 6.7212007464e-01	 8.0968208179e-01
 1.2383764109e+00	 6.8397548933e-01	 7.1783492905e-01
 1.2317802877e+00	 6.9578443645e-01	 6.2588744635e-01
 1.2250627197e+00	 7.0754507604e-01	 5.3394228742e-01
 1.2182241799e+00	 7.1925557208e-01	 4.4209898010e-01
 1.2112651771e+00	 7.3091409330e-01	 3.5045433298e-01
 1.2833363600e+00	 6.1602933597e-01	 1.2359817890e+00
 1.2774402508e+00	 6.2816464163e-01	 1.1456302294e+00
 1.2714198512e+00	 6.4026247494e-01	 1.0548125553e+00
 1.2652754184e+00	 6.5232097805e-01	 9.6359492221e-01
 1.2590072458e+00	 6.6433829267e-01	 8.7203923086e-01
 1.2526156633e+00	 6.7631256091e-01	 7.8020327070e-01
 1.2461010367e+00	 6.8824192617e-01	 6.8814093821e-01
 1.2394637688e+00	 7.0012453401e-01	 5.9590253004e-01
 1.2327042987e+00	 7.1195853299e-01	 5.0353511074e-01
 1.2258231020e+00	 7.2374207564e-01	 4.1108295414e-01
 1.2188206911e+00	 7.3547331927e-01	 3.1858805698e-01
 1.2912918090e+00	 6.1984812433e-01	 1.2073185389e+00
 1.2853591496e+00	 6.3205865719e-01	 1.1162908328e+00
 1.2793014293e+00	 6.4423148541e-01	 1.0250751397e+00
 1.2731189069e+00	 6.5636473962e-01	 9.3368324078e-01
 1.2668118777e+00	 6.6845655001e-01	 8.4212249516e-01
 1.2603806735e+00	 6.8050504718e-01	 7.5039607051e-01
 1.2538256626e+00	 6.9250836301e-01	 6.5850325169e-01
 1.2471472500e+00	 7.0446463157e-01	 5.6643982858e-01
 1.2403458777e+00	 7.1637198995e-01	 4.7419856223e-01
 1.2334220242e+00	 7.2822857921e-01	 3.8176972851e-01
 1.2263762051e+00	 7.4003254524e-01	 2.8914173754e-01
 1.2992472579e+00	 6.2366691268e-01	 1.1774448006e+00
 1.2932780484e+00	 6.3595267275e-01	 1.0857057646e+00
 1.2871830074e+00	 6.4820049588e-01	 9.9413117160e-01
 1.2809623955e+00	 6.6040850119e-01	 9.0267980896e-01
 1.2746165096e+00	 6.7257480735e-01	 8.1130585276e-01
 1.2681456837e+00	 6.8469753345e-01	 7.1995918260e-01
 1.2615502884e+00	 6.9677479985e-01	 6.2858577940e-01
 1.2548307312e+00	 7.0880472913e-01	 5.3712820626e-01
 1.2479874567e+00	 7.2078544690e-01	 4.4552617172e-01
 1.2410209464e+00	 7.3271508277e-01	 3.5371717431e-01
 1.2339317191e+00	 7.4459177121e-01	 2.6163722668e-01
 1.1583765792e+00	 6.9899951150e-01	 6.5201324622e-01
 1.1516067529e+00	 7.1009752482e-01	 5.6853732260e-01
 1.1447228033e+00	 7.2114234859e-01	 4.8481544663e-01
 1.1377253231e+00	 7.3213225174e-01	 4.0107602229e-01
 1.1306149397e+00	 7.4306551116e-01	 3.1756393108e-01
 1.1233923147e+00	 7.5394041265e-01	 2.3454048006e-01
 1.1160581442e+00	 7.6475525172e-01	 1.5228322632e-01
 1.1086131585e+00	 7.7550833447e-01	 7.1085674232e-02
 1.1010581216e+00	 7.8619797841e-01	-8.7431575086e-03
 1.0933938315e+00	 7.9682251330e-01	-8.6879301522e-02
 1.0856211196e+00	 8.0738028204e-01	-1.6298454148e-01
 1.1659320932e+00	 7.0355873747e-01	 6.0987985900e-01
 1.1591181107e+00	 7.1472913760e-01	 5.2802742473e-01
 1.1521892605e+00	 7.2584600127e-01	 4.4500324831e-01
 1.1451461392e+00	 7.3690758608e-01	 3.6117941570e-01
 1.1379893783e+00	 7.4791215771e-01	 2.7694278950e-01
 1.1307196437e+00	 7.5885799078e-01	 1.9269476080e-01
 1.1233376361e+00	 7.6974336967e-01	 1.0885087457e-01
 1.1158440904e+00	 7.8056658942e-01	 2.5840325057e-02
 1.1082397758e+00	 7.9132595658e-01	-5.5894681648e-02
 1.1005254953e+00	 8.0201979003e-01	-1.3589970001e-01
 1.0927020859e+00	 8.1264642184e-01	-2.1370895378e-01
 1.1734876072e+00	 7.0811796344e-01	 5.6273120437e-01
 1.1666294684e+00	 7.1936075039e-01	 4.8374206707e-01
 1.1596557177e+00	 7.3054965395e-01	 4.0264457156e-01
 1.1525669553e+00	 7.4168292043e-01	 3.1992699412e-01
 1.1453638169e+00	 7.5275880427e-01	 2.3609118101e-01
 1.1380469728e+00	 7.6377556890e-01	 1.5165214513e-01
 1.1306171280e+00	 7.7473148761e-01	 6.7137532729e-02
 1.1230750224e+00	 7.8562484437e-01	-1.6913043197e-02
 1.1154214300e+00	 7.9645393476e-01	-9.9948805738e-02
 1.1076571592e+00	 8.0721706676e-01	-1.8140875493e-01
 1.0997830522e+00	 8.1791256164e-01	-2.6072274798e-01
 1.1810431212e+00	 7.1267718941e-01	 5.1207345486e-01
 1.1741408262e+00	 7.2399236318e-01	 4.3517228853e-01
 1.1671221749e+00	 7.3525330663e-01	 3.5720405684e-01
 1.1599877715e+00	 7.4645825478e-01	 2.7676714240e-01
 1.1527382555e+00	 7.5760545083e-01	 1.9445187691e-01
 1.1453743018e+00	 7.6869314703e-01	 1.1086092693e-01
 1.1378966199e+00	 7.7971960555e-01	 2.6608642048e-02
 1.1303059543e+00	 7.9068309932e-01	-5.7679734429e-02
 1.1226030842e+00	 8.0158191294e-01	-1.4136899488e-01
 1.1147888230e+00	 8.1241434350e-01	-2.2381503878e-01
 1.1068640185e+00	 8.2317870144e-01	-3.0436608731e-01
 1.1885986352e+00	 7.1723641538e-01	 4.6552127778e-01
 1.1816521840e+00	 7.2862397597e-01	 3.8433073890e-01
 1.1745886321e+00	 7.3995695931e-01	 3.0815886894e-01
 1.1674085876e+00	 7.5123358913e-01	 2.3116131791e-01
 1.1601126942e+00	 7.6245209739e-01	 1.5148098809e-01
 1.1527016308e+00	 7.7361072516e-01	 6.9782712427e-02
 1.1451761118e+00	 7.8470772349e-01	-1.3257378638e-02
 1.1375368863e+00	 7.9574135427e-01	-9.6952730017e-02
 1.1297847384e+00	 8.0670989112e-01	-1.8060737965e-01
 1.1219204869e+00	 8.1761162023e-01	-2.6351712291e-01
 1.1139449849e+00	 8.2844484125e-01	-3.4497082483e-01
 1.1961541492e+00	 7.2179564136e-01	 4.2341468745e-01
 1.1891635418e+00	 7.3325558876e-01	 3.3833782066e-01
 1.1820550893e+00	 7.4466061199e-01	 2.5787383456e-01
 1.1748294037e+00	 7.5600892348e-01	 1.8258384872e-01
 1.1674871328e+00	 7.6729874395e-01	 1.0664776042e-01
 1.1600289599e+00	 7.7852830329e-01	 2.7892221594e-02
 1.1524556037e+00	 7.8969584144e-01	-5.2969316062e-02
 1.1447678182e+00	 8.0079960923e-01	-1.3521284683e-01
 1.1369663926e+00	 8.1183786930e-01	-2.1810487894e-01
 1.1290521507e+00	 8.2280889696e-01	-3.0090365468e-01
 1.1210259512e+00	 8.3371098105e-01	-3.8286052395e-01
 1.2037096631e+00	 7.2635486733e-01	 3.8522972401e-01
 1.1966748995e+00	 7.3788720155e-01	 2.9716414673e-01
 1.1895215464e+00	 7.4936426467e-01	 2.1299220240e-01
 1.1822502198e+00	 7.6078425782e-01	 1.3355581381e-01
 1.1748615714e+00	 7.7214539051e-01	 5.9434384250e-02
 1.1673562889e+00	 7.8344588142e-01	-1.5322896316e-02
 1.1597350956e+00	 7.9468395938e-01	-9.3023332076e-02
 1.1519987502e+00	 8.0585786418e-01	-1.7292888256e-01
 1.1441480468e+00	 8.1696584748e-01	-2.5429131128e-01
 1.1361838146e+00	 8.2800617369e-01	-3.3635342476e-01
 1.1281069175e+00	 8.3897712086e-01	-4.1835047134e-01
 1.2112651771e+00	 7.3091409330e-01	 3.5045433298e-01
 1.2041862573e+00	 7.4251881434e-01	 2.6026287648e-01
 1.1969880036e+00	 7.5406791735e-01	 1.7328438908e-01
 1.1896710359e+00	 7.6555959217e-01	 9.0358554949e-02
 1.1822360100e+00	 7.7699203707e-01	 1.2307095041e-02
 1.1746836179e+00	 7.8836345955e-01	-6.0362233769e-02
 1.1670145874e+00	 7.9967207732e-01	-1.3390312024e-01
 1.1592296821e+00	 8.1091611913e-01	-2.1055774884e-01
 1.1513297010e+00	 8.2209382566e-01	-2.8958549525e-01
 1.1433154784e+00	 8.3320345043e-01	-3.7023542512e-01
 1.1351878838e+00	 8.4424326066e-01	-4.5174768242e-01
 1.2188206911e+00	 7.3547331927e-01	 3.1858805698e-01
 1.2116976151e+00	 7.4715042713e-01	 2.2709962801e-01
 1.2044544608e+00	 7.5877157003e-01	 1.3819066375e-01
 1.1970918520e+00	 7.7033492652e-01	 5.2674429340e-02
 1.1896104486e+00	 7.8183868363e-01	-2.8653470360e-02
 1.1820109470e+00	 7.9328103768e-01	-1.0501535791e-01
 1.1742940793e+00	 8.0466019527e-01	-1.7608004996e-01
 1.1664606141e+00	 8.1597437408e-01	-2.4854459285e-01
 1.1585113552e+00	 8.2722180383e-01	-3.2439533949e-01
 1.1504471423e+00	 8.3840072716e-01	-4.0290889809e-01
 1.1422688501e+00	 8.4950940046e-01	-4.8335089988e-01
 1.2263762051e+00	 7.4003254524e-01	 2.8914173754e-01
 1.2192089729e+00	 7.5178203992e-01	 1.9715215483e-01
 1.2119209180e+00	 7.6347522270e-01	 1.0716405765e-01
 1.2045126681e+00	 7.7511026087e-01	 1.9940555361e-02
 1.1969848873e+00	 7.8668533018e-01	-6.3772189409e-02
 1.1893382760e+00	 7.9819861581e-01	-1.4324511909e-01
 1.1815735712e+00	 8.0964831321e-01	-2.1776636757e-01
 1.1736915460e+00	 8.2103262903e-01	-2.8732290774e-01
 1.1656930094e+00	 8.3234978201e-01	-3.5911792263e-01
 1.1575788061e+00	 8.4359800389e-01	-4.3472337687e-01
 1.1493498165e+00	 8.5477554027e-01	-5.1345058542e-01
 1.2339317191e+00	 7.4459177121e-01	 2.6163722668e-01
 1.2267203306e+00	 7.5641365271e-01	 1.6991003329e-01
 1.2193873752e+00	 7.6817887538e-01	 7.9670033934e-02
 1.2119334843e+00	 7.7988559522e-01	-8.3931219492e-03
 1.2043593259e+00	 7.9153197674e-01	-9.3605612924e-02
 1.1966656050e+00	 8.0311619394e-01	-1.7530945783e-01
 1.1888530631e+00	 8.1463643115e-01	-2.5286245416e-01
 1.1809224780e+00	 8.2609088398e-01	-3.2563804652e-01
 1.1728746636e+00	 8.3747776019e-01	-3.9413956369e-01
 1.1647104700e+00	 8.4879528062e-01	-4.6601871785e-01
 1.1564307828e+00	 8.6004168007e-01	-5.4232890506e-01
 1.0856211196e+00	 8.0738028204e-01	-1.6298454148e-01
 1.0777395025e+00	 8.1787141782e-01	-2.3742271469e-01
 1.0697511944e+00	 8.2829248578e-01	-3.1078672997e-01
 1.0616571303e+00	 8.3864186625e-01	-3.8308791709e-01
 1.0534582781e+00	 8.4891795597e-01	-4.5430857728e-01
 1.0451556373e+00	 8.5911916885e-01	-5.2440265968e-01
 1.0367502390e+00	 8.6924393681e-01	-5.9329658900e-01
 1.0282431458e+00	 8.7929071054e-01	-6.6089024176e-01
 1.0196354508e+00	 8.8925796029e-01	-7.2705806725e-01
 1.0109282776e+00	 8.9914417665e-01	-7.9165034860e-01
 1.0021227793e+00	 9.0894787126e-01	-8.5449459868e-01
 1.0927020859e+00	 8.1264642184e-01	-2.1370895378e-01
 1.0847690610e+00	 8.2320598608e-01	-2.8941428387e-01
 1.0767286491e+00	 8.3369502548e-01	-3.6347831597e-01
 1.0685817915e+00	 8.4411190981e-01	-4.3599916991e-01
 1.0603294622e+00	 8.5445502535e-01	-5.0704406124e-01
 1.0519726674e+00	 8.6472277566e-01	-5.7664987303e-01
 1.0435124449e+00	 8.7491358244e-01	-6.4482388635e-01
 1.0349498642e+00	 8.8502588628e-01	-7.1154466646e-01
 1.0262860255e+00	 8.9505814745e-01	-7.7676310121e-01
 1.0175220596e+00	 9.0500884667e-01	-8.4040358712e-01
 1.0086591275e+00	 9.1487648590e-01	-9.0236535773e-01
 1.0997830522e+00	 8.1791256164e-01	-2.6072274798e-01
 1.0917986194e+00	 8.2854055434e-01	-3.3768155729e-01
 1.0837061038e+00	 8.3909756518e-01	-4.1255403911e-01
 1.0755064526e+00	 8.4958195337e-01	-4.8549629666e-01
 1.0672006463e+00	 8.5999209473e-01	-5.5663199763e-01
 1.0587896975e+00	 8.7032638248e-01	-6.2605288205e-01
 1.0502746508e+00	 8.8058322808e-01	-6.9381943577e-01
 1.0416565825e+00	 8.9076106202e-01	-7.5996172677e-01
 1.0329366001e+00	 9.0085833460e-01	-8.2448040071e-01
 1.0241158417e+00	 9.1087351669e-01	-8.8734783127e-01
 1.0151954757e+00	 9.2080510054e-01	-9.4850941985e-01
 1.1068640185e+00	 8.2317870144e-01	-3.0436608731e-01
 1.0988281779e+00	 8.3387512261e-01	-3.8249303585e-01
 1.0906835584e+00	 8.4450010489e-01	-4.5821844021e-01
 1.0824311138e+00	 8.5505199693e-01	-5.3172811739e-01
 1.0740718304e+00	 8.6552916411e-01	-6.0317425554e-01
 1.0656067276e+00	 8.7592998929e-01	-6.7267589802e-01
 1.0570368567e+00	 8.8625287372e-01	-7.4031959978e-01
 1.0483633009e+00	 8.9649623777e-01	-8.0616025337e-01
 1.0395871747e+00	 9.0665852175e-01	-8.7022208108e-01
 1.0307096238e+00	 9.1673818671e-01	-9.3249978841e-01
 1.0217318239e+00	 9.2673371519e-01	-9.9295987356e-01
 1.1139449849e+00	 8.2844484125e-01	-3.4497082483e-01
 1.1058577363e+00	 8.3920969087e-01	-4.2411069812e-01
 1.0976610131e+00	 8.4990264459e-01	-5.0067114417e-01
 1.0893557749e+00	 8.6052204049e-01	-5.7483994786e-01
 1.0809430146e+00	 8.7106623349e-01	-6.4677040322e-01
 1.0724237577e+00	 8.8153359611e-01	-7.1658181339e-01
 1.0637990626e+00	 8.9192251936e-01	-7.8436016942e-01
 1.0550700192e+00	 9.0223141351e-01	-8.5015900527e-01
 1.0462377494e+00	 9.1245870890e-01	-9.1400042538e-01
 1.0373034059e+00	 9.2260285674e-01	-9.7587629986e-01
 1.0282681722e+00	 9.3266232983e-01	-1.0357496218e+00
 1.1210259512e+00	 8.3371098105e-01	-3.8286052395e-01
 1.1128872948e+00	 8.4454425913e-01	-4.6278996169e-01
 1.1046384678e+00	 8.5530518429e-01	-5.4010676849e-01
 1.0962804361e+00	 8.6599208405e-01	-6.1497346172e-01
 1.0878141987e+00	 8.7660330287e-01	-6.8751753090e-01
 1.0792407878e+00	 8.8713720292e-01	-7.5783199270e-01
 1.0705612685e+00	 8.9759216499e-01	-8.2597613130e-01
 1.0617767376e+00	 9.0796658925e-01	-8.9197642122e-01
 1.0528883240e+00	 9.1825889606e-01	-9.5582762882e-01
 1.0438971880e+00	 9.2846752676e-01	-1.0174940875e+00
 1.0348045204e+00	 9.3859094447e-01	-1.0769111405e+00
 1.1281069175e+00	 8.3897712086e-01	-4.1835047134e-01
 1.1199168533e+00	 8.4987882739e-01	-4.9877963917e-01
 1.1116159225e+00	 8.6070772399e-01	-5.7671482810e-01
 1.1032050972e+00	 8.7146212762e-01	-6.5226655071e-01
 1.0946853828e+00	 8.8214037225e-01	-7.2551007320e-01
 1.0860578180e+00	 8.9274080974e-01	-7.9648606441e-01
 1.0773234743e+00	 9.0326181063e-01	-8.6520143635e-01
 1.0684834559e+00	 9.1370176499e-01	-9.3163037336e-01
 1.0595388987e+00	 9.2405908321e-01	-9.9571554576e-01
 1.0504909701e+00	 9.3433219678e-01	-1.0573695027e+00
 1.0413408686e+00	 9.4451955912e-01	-1.1164762381e+00
 1.1351878838e+00	 8.4424326066e-01	-4.5174768242e-01
 1.1269464117e+00	 8.5521339565e-01	-5.3232188876e-01
 1.1185933772e+00	 8.6611026369e-01	-6.1067963694e-01
 1.1101297584e+00	 8.7693217118e-01	-6.8685318322e-01
 1.1015565669e+00	 8.8767744163e-01	-7.6083963126e-01
 1.0928748481e+00	 8.9834441655e-01	-8.3260171347e-01
 1.0840856802e+00	 9.0893145627e-01	-9.0206877017e-01
 1.0751901743e+00	 9.1943694074e-01	-9.6913792311e-01
 1.0661894733e+00	 9.2985927036e-01	-1.0336754391e+00
 1.0570847521e+00	 9.4019686680e-01	-1.0955182780e+00
 1.0478772168e+00	 9.5044817376e-01	-1.1544758187e+00
 1.1422688501e+00	 8.4950940046e-01	-4.8335089988e-01
 1.1339759702e+00	 8.6054796392e-01	-5.6365215987e-01
 1.1255708319e+00	 8.7151280340e-01	-6.4218020618e-01
 1.1170544195e+00	 8.8240221474e-01	-7.1886326117e-01
 1.1084277510e+00	 8.9321451101e-01	-7.9359479443e-01
 1.0996918782e+00	 9.0394802337e-01	-8.6623447457e-01
 1.0908478861e+00	 9.1460110191e-01	-9.3660932490e-01
 1.0818968926e+00	 9.2517211648e-01	-1.0045150791e+00
 1.0728400480e+00	 9.3565945751e-01	-1.0697177320e+00
 1.0636785342e+00	 9.4606153682e-01	-1.1319552804e+00
 1.0544135650e+00	 9.5637678840e-01	-1.1909396454e+00
 1.1493498165e+00	 8.5477554027e-01	-5.1345058542e-01
 1.1410055286e+00	 8.6588253218e-01	-5.9299913395e-01
 1.1325482866e+00	 8.7691534310e-01	-6.7139013941e-01
 1.1239790807e+00	 8.8787225830e-01	-7.4842247522e-01
 1.1152989351e+00	 8.9875158039e-01	-8.2386096171e-01
 1.1065089083e+00	 9.0955163018e-01	-8.9743752621e-01
 1.0976100920e+00	 9.2027074754e-01	-9.6885257269e-01
 1.0886036110e+00	 9.3090729222e-01	-1.0377765569e+00
 1.0794906226e+00	 9.4145964467e-01	-1.1038517620e+00
 1.0702723163e+00	 9.5192620685e-01	-1.1666942677e+00
 1.0609499132e+00	 9.6230540305e-01	-1.2258961067e+00
 1.1564307828e+00	 8.6004168007e-01	-5.4232890506e-01
 1.1480350871e+00	 8.7121710044e-01	-6.2058466065e-01
 1.1395257413e+00	 8.8231788280e-01	-6.9847752486e-01
 1.1309037418e+00	 8.9334230186e-01	-7.7565215847e-01
 1.1221701192e+00	 9.0428864976e-01	-8.5172016281e-01
 1.1133259384e+00	 9.1515523699e-01	-9.2626148531e-01
 1.1043722979e+00	 9.2594039318e-01	-9.9882604043e-01
 1.0953103293e+00	 9.3664246796e-01	-1.0689355413e+00
 1.0861411972e+00	 9.4725983182e-01	-1.1360855367e+00
 1.0768660984e+00	 9.5779087687e-01	-1.1997476458e+00
 1.0674862614e+00	 9.6823401769e-01	-1.2593719836e+00
 1.0021227793e+00	 9.0894787126e-01	-8.5449459868e-01
 9.9322165768e-01	 9.1866593528e-01	-9.1658001188e-01
 9.8422462175e-01	 9.2829861215e-01	-9.7878893809e-01
 9.7513289479e-01	 9.3784449771e-01	-1.0407319981e+00
 9.6594772771e-01	 9.4730221172e-01	-1.1020095736e+00
 9.5667039851e-01	 9.5667039851e-01	-1.1622138809e+00
 9.4730221172e-01	 9.6594772771e-01	-1.2209311216e+00
 9.3784449771e-01	 9.7513289479e-01	-1.2777436999e+00
 9.2829861215e-01	 9.8422462175e-01	-1.3322324959e+00
 9.1866593528e-01	 9.9322165768e-01	-1.3839791830e+00
 9.0894787126e-01	 1.0021227793e+00	-1.4325685784e+00
 1.0086591275e+00	 9.1487648590e-01	-9.0236535773e-01
 9.9969994830e-01	 9.2465793602e-01	-9.6374751500e-01
 9.9064422918e-01	 9.3435344205e-01	-1.0254566121e+00
 9.8149320140e-01	 9.4396159067e-01	-1.0870440825e+00
 9.7224812405e-01	 9.5348099264e-01	-1.1480499800e+00
 9.6291028345e-01	 9.6291028345e-01	-1.2080051993e+00
 9.5348099264e-01	 9.7224812405e-01	-1.2664337783e+00
 9.4396159067e-01	 9.8149320140e-01	-1.3228552713e+00
 9.3435344205e-01	 9.9064422918e-01	-1.3767871819e+00
 9.2465793602e-01	 9.9969994830e-01	-1.4277474437e+00
 9.1487648590e-01	 1.0086591275e+00	-1.4752569359e+00
 1.0151954757e+00	 9.2080510054e-01	-9.4850941985e-01
 1.0061782389e+00	 9.3064993675e-01	-1.0091644247e+00
 9.9706383660e-01	 9.4040827195e-01	-1.0702639563e+00
 9.8785350802e-01	 9.5007868363e-01	-1.1313203725e+00
 9.7854852039e-01	 9.5965977355e-01	-1.1918335693e+00
 9.6915016839e-01	 9.6915016839e-01	-1.2512933223e+00
 9.5965977355e-01	 9.7854852039e-01	-1.3091817148e+00
 9.5007868363e-01	 9.8785350802e-01	-1.3649756410e+00
 9.4040827195e-01	 9.9706383660e-01	-1.4181493739e+00
 9.3064993675e-01	 1.0061782389e+00	-1.4681771825e+00
 9.2080510054e-01	 1.0151954757e+00	-1.5145359887e+00
 1.0217318239e+00	 9.2673371519e-01	-9.9295987356e-01
 1.0126565295e+00	 9.3664193749e-01	-1.0528872898e+00
 1.0034834440e+00	 9.4646310184e-01	-1.1132927782e+00
 9.9421381464e-01	 9.5619577659e-01	-1.1736693379e+00
 9.8484891673e-01	 9.6583855447e-01	-1.2334964802e+00
 9.7539005333e-01	 9.7539005333e-01	-1.2922426650e+00
 9.6583855447e-01	 9.8484891673e-01	-1.3493678296e+00
 9.5619577659e-01	 9.9421381464e-01	-1.4043259972e+00
 9.4646310184e-01	 1.0034834440e+00	-1.4565679529e+00
 9.3664193749e-01	 1.0126565295e+00	-1.5055439746e+00
 9.2673371519e-01	 1.0217318239e+00	-1.5507066049e+00
 1.0282681722e+00	 9.3266232983e-01	-1.0357496218e+00
 1.0191348201e+00	 9.4263393823e-01	-1.0949719879e+00
 1.0099030515e+00	 9.5251793174e-01	-1.1546236958e+00
 1.0005741213e+00	 9.6231286954e-01	-1.2141977179e+00
 9.9114931307e-01	 9.7201733539e-01	-1.2731725661e+00
 9.8162993827e-01	 9.8162993827e-01	-1.3310147990e+00
 9.7201733539e-01	 9.9114931307e-01	-1.3871816257e+00
 9.6231286954e-01	 1.0005741213e+00	-1.4411235949e+00
 9.5251793174e-01	 1.0099030515e+00	-1.4922873546e+00
 9.4263393823e-01	 1.0191348201e+00	-1.5401184714e+00
 9.3266232983e-01	 1.0282681722e+00	-1.5840642938e+00
 1.0348045204e+00	 9.3859094447e-01	-1.0769111405e+00
 1.0256131108e+00	 9.4862593897e-01	-1.1354735007e+00
 1.0163226589e+00	 9.5857276163e-01	-1.1943359321e+00
 1.0069344279e+00	 9.6842996250e-01	-1.2530103356e+00
 9.9744970941e-01	 9.7819611631e-01	-1.3109932310e+00
 9.8786982321e-01	 9.8786982321e-01	-1.3677683096e+00
 9.7819611631e-01	 9.9744970941e-01	-1.4228090888e+00
 9.6842996250e-01	 1.0069344279e+00	-1.4755816562e+00
 9.5857276163e-01	 1.0163226589e+00	-1.5255474900e+00
 9.4862593897e-01	 1.0256131108e+00	-1.5721663416e+00
 9.3859094447e-01	 1.0348045204e+00	-1.6148991664e+00
 1.0413408686e+00	 9.4451955912e-01	-1.1164762381e+00
 1.0320914014e+00	 9.5461793971e-01	-1.1744456916e+00
 1.0227422663e+00	 9.6462759153e-01	-1.2325071103e+00
 1.0132947345e+00	 9.7454705546e-01	-1.2902099125e+00
 1.0037501058e+00	 9.8437489723e-01	-1.3470872637e+00
 9.9410970815e-01	 9.9410970815e-01	-1.4026586508e+00
 9.8437489723e-01	 1.0037501058e+00	-1.4564325629e+00
 9.7454705546e-01	 1.0132947345e+00	-1.5079092668e+00
 9.6462759153e-01	 1.0227422663e+00	-1.5565836629e+00
 9.5461793971e-01	 1.0320914014e+00	-1.6019482083e+00
 9.4451955912e-01	 1.0413408686e+00	-1.6434958911e+00
 1.0478772168e+00	 9.5044817376e-01	-1.1544758187e+00
 1.0385696920e+00	 9.6060994045e-01	-1.2119410833e+00
 1.0291618737e+00	 9.7068242143e-01	-1.2692130493e+00
 1.0196550411e+00	 9.8066414842e-01	-1.3258968825e+00
 1.0100505021e+00	 9.9055367815e-01	-1.3815806714e+00
 1.0003495931e+00	 1.0003495931e+00	-1.4358379988e+00
 9.9055367815e-01	 1.0100505021e+00	-1.4882306248e+00
 9.8066414842e-01	 1.0196550411e+00	-1.5383112699e+00
 9.7068242143e-01	 1.0291618737e+00	-1.5856264832e+00
 9.6060994045e-01	 1.0385696920e+00	-1.6297195816e+00
 9.5044817376e-01	 1.0478772168e+00	-1.6701336449e+00
 1.0544135650e+00	 9.5637678840e-01	-1.1909396454e+00
 1.0450479826e+00	 9.6660194119e-01	-1.2480106377e+00
 1.0355814812e+00	 9.7673725132e-01	-1.3045275605e+00
 1.0260153477e+00	 9.8678124138e-01	-1.3601692068e+00
 1.0163508984e+00	 9.9673245907e-01	-1.4145965132e+00
 1.0065894780e+00	 1.0065894780e+00	-1.4674551044e+00
 9.9673245907e-01	 1.0163508984e+00	-1.5183779554e+00
 9.8678124138e-01	 1.0260153477e+00	-1.5669881578e+00
 9.7673725132e-01	 1.0355814812e+00	-1.6129017775e+00
 9.6660194119e-01	 1.0450479826e+00	-1.6557307873e+00
 9.5637678840e-01	 1.0544135650e+00	-1.6950860591e+00
 1.0609499132e+00	 9.6230540305e-01	-1.2258961067e+00
 1.0515262732e+00	 9.7259394193e-01	-1.2827035371e+00
 1.0420010886e+00	 9.8279208122e-01	-1.3385222447e+00
 1.0323756543e+00	 9.9289833433e-01	-1.3931221879e+00
 1.0226512948e+00	 1.0029112400e+00	-1.4462547322e+00
 1.0128293630e+00	 1.0128293630e+00	-1.4976551443e+00
 1.0029112400e+00	 1.0226512948e+00	-1.5470452095e+00
 9.9289833433e-01	 1.0323756543e+00	-1.5941359596e+00
 9.8279208122e-01	 1.0420010886e+00	-1.6386304957e+00
 9.7259394193e-01	 1.0515262732e+00	-1.6802268916e+00
 9.6230540305e-01	 1.0609499132e+00	-1.7186211616e+00
 1.0674862614e+00	 9.6823401769e-01	-1.2593719836e+00
 1.0580045638e+00	 9.7858594266e-01	-1.3160669655e+00
 1.0484206960e+00	 9.8884691112e-01	-1.3712662899e+00
 1.0387359610e+00	 9.9901542729e-01	-1.4248482844e+00
 1.0289516911e+00	 1.0090900209e+00	-1.4766719878e+00
 1.0190692479e+00	 1.0190692479e+00	-1.5265795704e+00
 1.0090900209e+00	 1.0289516911e+00	-1.5743988840e+00
 9.9901542729e-01	 1.0387359610e+00	-1.6199461279e+00
 9.8884691112e-01	 1.0484206960e+00	-1.6630286148e+00
 9.7858594266e-01	 1.0580045638e+00	-1.7034476222e+00
 9.6823401769e-01	 1.0674862614e+00	-1.7410013135e+00
 9.0894787126e-01	 1.0021227793e+00	-1.4325685784e+00
 8.9914417665e-01	 1.0109282776e+00	-1.4787396248e+00
 8.8925796029e-01	 1.0196354508e+00	-1.5234170485e+00
 8.7929071054e-01	 1.0282431458e+00	-1.5665023076e+00
 8.6924393681e-01	 1.0367502390e+00	-1.6079121009e+00
 8.5911916885e-01	 1.0451556373e+00	-1.6475802553e+00
 8.4891795597e-01	 1.0534582781e+00	-1.6854595683e+00
 8.3864186625e-01	 1.0616571303e+00	-1.7215235947e+00
 8.2829248578e-01	 1.0697511944e+00	-1.7557683634e+00
 8.1787141782e-01	 1.0777395025e+00	-1.7882140157e+00
 8.0738028204e-01	 1.0856211196e+00	-1.8189063519e+00
 9.1487648590e-01	 1.0086591275e+00	-1.4752569359e+00
 9.0500884667e-01	 1.0175220596e+00	-1.5200617023e+00
 8.9505814745e-01	 1.0262860255e+00	-1.5631742157e+00
 8.8502588628e-01	 1.0349498642e+00	-1.6045542969e+00
 8.7491358244e-01	 1.0435124449e+00	-1.6441796843e+00
 8.6472277566e-01	 1.0519726674e+00	-1.6820479076e+00
 8.5445502535e-01	 1.0603294622e+00	-1.7181781116e+00
 8.4411190981e-01	 1.0685817915e+00	-1.7526128208e+00
 8.3369502548e-01	 1.0767286491e+00	-1.7854196305e+00
 8.2320598608e-01	 1.0847690610e+00	-1.8166928144e+00
 8.1264642184e-01	 1.0927020859e+00	-1.8465548360e+00
 9.2080510054e-01	 1.0151954757e+00	-1.5145359887e+00
 9.1087351669e-01	 1.0241158417e+00	-1.5580118006e+00
 9.0085833460e-01	 1.0329366001e+00	-1.5997079503e+00
 8.9076106202e-01	 1.0416565825e+00	-1.6396173990e+00
 8.8058322808e-01	 1.0502746508e+00	-1.6777531009e+00
 8.7032638248e-01	 1.0587896975e+00	-1.7141499018e+00
 8.5999209473e-01	 1.0672006463e+00	-1.7488663856e+00
 8.4958195337e-01	 1.0755064526e+00	-1.7819866581e+00
 8.3909756518e-01	 1.0837061038e+00	-1.8136220542e+00
 8.2854055434e-01	 1.0917986194e+00	-1.8439127572e+00
 8.1791256164e-01	 1.0997830522e+00	-1.8730293181e+00
 9.2673371519e-01	 1.0217318239e+00	-1.5507066049e+00
 9.1673818671e-01	 1.0307096238e+00	-1.5929094270e+00
 9.0665852175e-01	 1.0395871747e+00	-1.6333450526e+00
 8.9649623777e-01	 1.0483633009e+00	-1.6720148189e+00
 8.8625287372e-01	 1.0570368567e+00	-1.7089415361e+00
 8.7592998929e-01	 1.0656067276e+00	-1.7441714507e+00
 8.6552916411e-01	 1.0740718304e+00	-1.7777761552e+00
 8.5505199693e-01	 1.0824311138e+00	-1.8098544321e+00
 8.4450010489e-01	 1.0906835584e+00	-1.8405340189e+00
 8.3387512261e-01	 1.0988281779e+00	-1.8699732810e+00
 8.2317870144e-01	 1.1068640185e+00	-1.8983627818e+00
 9.3266232983e-01	 1.0282681722e+00	-1.5840642938e+00
 9.2260285674e-01	 1.0373034059e+00	-1.6250684708e+00
 9.1245870890e-01	 1.0462377494e+00	-1.6644067406e+00
 9.0223141351e-01	 1.0550700192e+00	-1.7020644967e+00
 8.9192251936e-01	 1.0637990626e+00	-1.7380494972e+00
 8.8153359611e-01	 1.0724237577e+00	-1.7723939319e+00
 8.7106623349e-01	 1.0809430146e+00	-1.8051564358e+00
 8.6052204049e-01	 1.0893557749e+00	-1.8364240343e+00
 8.4990264459e-01	 1.0976610131e+00	-1.8663140063e+00
 8.3920969087e-01	 1.1058577363e+00	-1.8949756539e+00
 8.2844484125e-01	 1.1139449849e+00	-1.9225919642e+00
 9.3859094447e-01	 1.0348045204e+00	-1.6148991664e+00
 9.2846752676e-01	 1.0438971880e+00	-1.6547971784e+00
 9.1825889606e-01	 1.0528883240e+00	-1.6932086303e+00
 9.0796658925e-01	 1.0617767376e+00	-1.7300790850e+00
 8.9759216499e-01	 1.0705612685e+00	-1.7653767788e+00
 8.8713720292e-01	 1.0792407878e+00	-1.7990948336e+00
 8.7660330287e-01	 1.0878141987e+00	-1.8312534126e+00
 8.6599208405e-01	 1.0962804361e+00	-1.8619018070e+00
 8.5530518429e-01	 1.1046384678e+00	-1.8911204401e+00
 8.4454425913e-01	 1.1128872948e+00	-1.9190227732e+00
 8.3371098105e-01	 1.1210259512e+00	-1.9457571016e+00
 9.4451955912e-01	 1.0413408686e+00	-1.6434958911e+00
 9.3433219678e-01	 1.0504909701e+00	-1.6823981226e+00
 9.2405908321e-01	 1.0595388987e+00	-1.7200607105e+00
 9.1370176499e-01	 1.0684834559e+00	-1.7563659197e+00
 9.0326181063e-01	 1.0773234743e+00	-1.7912184234e+00
 8.9274080974e-01	 1.0860578180e+00	-1.8245476967e+00
 8.8214037225e-01	 1.0946853828e+00	-1.8563103560e+00
 8.7146212762e-01	 1.1032050972e+00	-1.8864924273e+00
 8.6070772399e-01	 1.1116159225e+00	-1.9151115307e+00
 8.4987882739e-01	 1.1199168533e+00	-1.9422189648e+00
 8.3897712086e-01	 1.1281069175e+00	-1.9679016785e+00
 9.5044817376e-01	 1.0478772168e+00	-1.6701336449e+00
 9.4019686680e-01	 1.0570847521e+00	-1.7081681674e+00
 9.2985927036e-01	 1.0661894733e+00	-1.7452673115e+00
 9.1943694074e-01	 1.0751901743e+00	-1.7812269868e+00
 9.0893145627e-01	 1.0840856802e+00	-1.8158646763e+00
 8.9834441655e-01	 1.0928748481e+00	-1.8490220520e+00
 8.8767744163e-01	 1.1015565669e+00	-1.8805675355e+00
 8.7693217118e-01	 1.1101297584e+00	-1.9103987887e+00
 8.6611026369e-01	 1.1185933772e+00	-1.9384451194e+00
 8.5521339565e-01	 1.1269464117e+00	-1.9646697849e+00
 8.4424326066e-01	 1.1351878838e+00	-1.9890721807e+00
 9.5637678840e-01	 1.0544135650e+00	-1.6950860591e+00
 9.4606153682e-01	 1.0636785342e+00	-1.7323984263e+00
 9.3565945751e-01	 1.0728400480e+00	-1.7691270695e+00
 9.2517211648e-01	 1.0818968926e+00	-1.8049588832e+00
 9.1460110191e-01	 1.0908478861e+00	-1.8396009378e+00
 9.0394802337e-01	 1.0996918782e+00	-1.8727833550e+00
 8.9321451101e-01	 1.1084277510e+00	-1.9042621295e+00
 8.8240221474e-01	 1.1170544195e+00	-1.9338218815e+00
 8.7151280340e-01	 1.1255708319e+00	-1.9612785234e+00
 8.6054796392e-01	 1.1339759702e+00	-1.9864818233e+00
 8.4950940046e-01	 1.1422688501e+00	-2.0093178520e+00
 9.6230540305e-01	 1.0609499132e+00	-1.7186211616e+00
 9.5192620685e-01	 1.0702723163e+00	-1.7553742172e+00
 9.4145964467e-01	 1.0794906226e+00	-1.7919328854e+00
 9.3090729222e-01	 1.0886036110e+00	-1.8278527732e+00
 9.2027074754e-01	 1.0976100920e+00	-1.8627077090e+00
 9.0955163018e-01	 1.1065089083e+00	-1.8960929157e+00
 8.9875158039e-01	 1.1152989351e+00	-1.9276281334e+00
 8.8787225830e-01	 1.1239790807e+00	-1.9569606722e+00
 8.7691534310e-01	 1.1325482866e+00	-1.9837683803e+00
 8.6588253218e-01	 1.1410055286e+00	-2.0077625084e+00
 8.5477554027e-01	 1.1493498165e+00	-2.0286904544e+00
 9.6823401769e-01	 1.0674862614e+00	-1.7410013135e+00
 9.5779087687e-01	 1.0768660984e+00	-1.7773750112e+00
 9.4725983182e-01	 1.0861411972e+00	-1.8139718792e+00
 9.3664246796e-01	 1.0953103293e+00	-1.8501943407e+00
 9.2594039318e-01	 1.1043722979e+00	-1.8854605349e+00
 9.1515523699e-01	 1.1133259384e+00	-1.9192078262e+00
 9.0428864976e-01	 1.1221701192e+00	-1.9508962648e+00
 8.9334230186e-01	 1.1309037418e+00	-1.9800119809e+00
 8.8231788280e-01	 1.1395257413e+00	-2.0060704931e+00
 8.7121710044e-01	 1.1480350871e+00	-2.0286199134e+00
 8.6004168007e-01	 1.1564307828e+00	-2.0472440316e+00
 8.0738028204e-01	 1.0856211196e+00	-1.8189063519e+00
 7.9682251330e-01	 1.0933938315e+00	-1.8493830864e+00
 7.8619797841e-01	 1.1010581216e+00	-1.8806863151e+00
 7.7550833447e-01	 1.1086131585e+00	-1.9121415795e+00
 7.6475525172e-01	 1.1160581442e+00	-1.9431005680e+00
 7.5394041265e-01	 1.1233923147e+00	-1.9729432425e+00
 7.4306551116e-01	 1.1306149397e+00	-2.0010798167e+00
 7.3213225174e-01	 1.1377253231e+00	-2.0269525747e+00
 7.2114234859e-01	 1.1447228033e+00	-2.0500375231e+00
 7.1009752482e-01	 1.1516067529e+00	-2.0698458689e+00
 6.9899951150e-01	 1.1583765792e+00	-2.0859253174e+00
 8.1264642184e-01	 1.0927020859e+00	-1.8465548360e+00
 8.0201979003e-01	 1.1005254953e+00	-1.8764905074e+00
 7.9132595658e-01	 1.1082397758e+00	-1.9073521922e+00
 7.8056658942e-01	 1.1158440904e+00	-1.9383368305e+00
 7.6974336967e-01	 1.1233376361e+00	-1.9686647786e+00
 7.5885799078e-01	 1.1307196437e+00	-1.9975822196e+00
 7.4791215771e-01	 1.1379893783e+00	-2.0243634227e+00
 7.3690758608e-01	 1.1451461392e+00	-2.0483128417e+00
 7.2584600127e-01	 1.1521892605e+00	-2.0687670438e+00
 7.1472913760e-01	 1.1591181107e+00	-2.0850964600e+00
 7.0355873747e-01	 1.1659320932e+00	-2.0967069514e+00
 8.1791256164e-01	 1.0997830522e+00	-1.8730293181e+00
 8.0721706676e-01	 1.1076571592e+00	-1.9023336253e+00
 7.9645393476e-01	 1.1154214300e+00	-1.9324515386e+00
 7.8562484437e-01	 1.1230750224e+00	-1.9624730052e+00
 7.7473148761e-01	 1.1306171280e+00	-1.9915093811e+00
 7.6377556890e-01	 1.1380469728e+00	-2.0186960929e+00
 7.5275880427e-01	 1.1453638169e+00	-2.0431951454e+00
 7.4168292043e-01	 1.1525669553e+00	-2.0641974668e+00
 7.3054965395e-01	 1.1596557177e+00	-2.0809250784e+00
 7.1936075039e-01	 1.1666294684e+00	-2.0926330841e+00
 7.0811796344e-01	 1.1734876072e+00	-2.0986114688e+00
 8.2317870144e-01	 1.1068640185e+00	-1.8983627818e+00
 8.1241434350e-01	 1.1147888230e+00	-1.9268822656e+00
 8.0158191294e-01	 1.1226030842e+00	-1.9559044498e+00
 7.9068309932e-01	 1.1303059543e+00	-1.9844334296e+00
 7.7971960555e-01	 1.1378966199e+00	-2.0114934164e+00
 7.6869314703e-01	 1.1453743018e+00	-2.0361316189e+00
 7.5760545083e-01	 1.1527382555e+00	-2.0574209678e+00
 7.4645825478e-01	 1.1599877715e+00	-2.0744626730e+00
 7.3525330663e-01	 1.1671221749e+00	-2.0863886018e+00
 7.2399236318e-01	 1.1741408262e+00	-2.0923634717e+00
 7.1267718941e-01	 1.1810431212e+00	-2.0936492163e+00
 8.2844484125e-01	 1.1139449849e+00	-1.9225919642e+00
 8.1761162023e-01	 1.1219204869e+00	-1.9501118426e+00
 8.0670989112e-01	 1.1297847384e+00	-1.9776381002e+00
 7.9574135427e-01	 1.1375368863e+00	-2.0041096633e+00
 7.8470772349e-01	 1.1451761118e+00	-2.0284849894e+00
 7.7361072516e-01	 1.1527016308e+00	-2.0497451365e+00
 7.6245209739e-01	 1.1601126942e+00	-2.0668966722e+00
 7.5123358913e-01	 1.1674085876e+00	-2.0789744107e+00
 7.3995695931e-01	 1.1745886321e+00	-2.0850439664e+00
 7.2862397597e-01	 1.1816521840e+00	-2.0867973152e+00
 7.1723641538e-01	 1.1885986352e+00	-2.0901398992e+00
 8.3371098105e-01	 1.1210259512e+00	-1.9457571016e+00
 8.2280889696e-01	 1.1290521507e+00	-1.9720030557e+00
 8.1183786930e-01	 1.1369663926e+00	-1.9975863998e+00
 8.0079960923e-01	 1.1447678182e+00	-2.0214011281e+00
 7.8969584144e-01	 1.1524556037e+00	-2.0423608806e+00
 7.7852830329e-01	 1.1600289599e+00	-2.0594021704e+00
 7.6729874395e-01	 1.1674871328e+00	-2.0714874455e+00
 7.5600892348e-01	 1.1748294037e+00	-2.0776079735e+00
 7.4466061199e-01	 1.1820550893e+00	-2.0797289446e+00
 7.3325558876e-01	 1.1891635418e+00	-2.0836534693e+00
 7.2179564136e-01	 1.1961541492e+00	-2.0887454837e+00
 8.3897712086e-01	 1.1281069175e+00	-1.9679016785e+00
 8.2800617369e-01	 1.1361838146e+00	-1.9925415903e+00
 8.1696584748e-01	 1.1441480468e+00	-2.0156896586e+00
 8.0585786418e-01	 1.1519987502e+00	-2.0362147456e+00
 7.9468395938e-01	 1.1597350956e+00	-2.0530061665e+00
 7.8344588142e-01	 1.1673562889e+00	-2.0649770444e+00
 7.7214539051e-01	 1.1748615714e+00	-2.0710674944e+00
 7.6078425782e-01	 1.1822502198e+00	-2.0733196660e+00
 7.4936426467e-01	 1.1895215464e+00	-2.0775808285e+00
 7.3788720155e-01	 1.1966748995e+00	-2.0831845879e+00
 7.2635486733e-01	 1.2037096631e+00	-2.0892107983e+00
 8.4424326066e-01	 1.1351878838e+00	-1.9890721807e+00
 8.3320345043e-01	 1.1433154784e+00	-2.0117178252e+00
 8.2209382566e-01	 1.1513297010e+00	-2.0318942585e+00
 8.1091611913e-01	 1.1592296821e+00	-2.0484645834e+00
 7.9967207732e-01	 1.1670145874e+00	-2.0603138494e+00
 7.8836345955e-01	 1.1746836179e+00	-2.0663525043e+00
 7.7699203707e-01	 1.1822360100e+00	-2.0684932113e+00
 7.6555959217e-01	 1.1896710359e+00	-2.0727859836e+00
 7.5406791735e-01	 1.1969880036e+00	-2.0786227684e+00
 7.4251881434e-01	 1.2041862573e+00	-2.0850932683e+00
 7.3091409330e-01	 1.2112651771e+00	-2.0912797118e+00
 8.4950940046e-01	 1.1422688501e+00	-2.0093178520e+00
 8.3840072716e-01	 1.1504471423e+00	-2.0295265457e+00
 8.2722180383e-01	 1.1585113552e+00	-2.0461523315e+00
 8.1597437408e-01	 1.1664606141e+00	-2.0580715090e+00
 8.0466019527e-01	 1.1742940793e+00	-2.0641844961e+00
 7.9328103768e-01	 1.1820109470e+00	-2.0660846247e+00
 7.8183868363e-01	 1.1896104486e+00	-2.0701455088e+00
 7.7033492652e-01	 1.1970918520e+00	-2.0759183722e+00
 7.5877157003e-01	 1.2044544608e+00	-2.0825256535e+00
 7.4715042713e-01	 1.2116976151e+00	-2.0890820048e+00
 7.3547331927e-01	 1.2188206911e+00	-2.0946950989e+00
 8.5477554027e-01	 1.1493498165e+00	-2.0286904544e+00
 8.4359800389e-01	 1.1575788061e+00	-2.0459666611e+00
 8.3234978201e-01	 1.1656930094e+00	-2.0584214455e+00
 8.2103262903e-01	 1.1736915460e+00	-2.0649628514e+00
 8.0964831321e-01	 1.1815735712e+00	-2.0667154913e+00
 7.9819861581e-01	 1.1893382760e+00	-2.0704159189e+00
 7.8668533018e-01	 1.1969848873e+00	-2.0759074782e+00
 7.7511026087e-01	 1.2045126681e+00	-2.0823662611e+00
 7.6347522270e-01	 1.2119209180e+00	-2.0889608732e+00
 7.5178203992e-01	 1.2192089729e+00	-2.0948531366e+00
 7.4003254524e-01	 1.2263762051e+00	-2.0991988122e+00
 8.6004168007e-01	 1.1564307828e+00	-2.0472440316e+00
 8.4879528062e-01	 1.1647104700e+00	-2.0610409280e+00
 8.3747776019e-01	 1.1728746636e+00	-2.0686642954e+00
 8.2609088398e-01	 1.1809224780e+00	-2.0706815829e+00
 8.1463643115e-01	 1.1888530631e+00	-2.0741131528e+00
 8.0311619394e-01	 1.1966656050e+00	-2.0792754728e+00
 7.9153197674e-01	 1.2043593259e+00	-2.0854170558e+00
 7.7988559522e-01	 1.2119334843e+00	-2.0917799401e+00
 7.6817887538e-01	 1.2193873752e+00	-2.0976002552e+00
 7.5641365271e-01	 1.2267203306e+00	-2.1021088033e+00
 7.4459177121e-01	 1.2339317191e+00	-2.1045316602e+00
 6.9899951150e-01	 1.1583765792e+00	-2.0859253174e+00
 6.8785004713e-01	 1.1650317246e+00	-2.0974964750e+00
 6.7665087737e-01	 1.1715716669e+00	-2.1038665653e+00
 6.6540375352e-01	 1.1779959194e+00	-2.1050056331e+00
 6.5411043145e-01	 1.1843040300e+00	-2.1065196596e+00
 6.4277267076e-01	 1.1904955813e+00	-2.1106093998e+00
 6.3139223392e-01	 1.1965701906e+00	-2.1169269049e+00
 6.1997088548e-01	 1.2025275101e+00	-2.1251251586e+00
 6.0851039118e-01	 1.2083672264e+00	-2.1348584071e+00
 5.9701251716e-01	 1.2140890607e+00	-2.1457825038e+00
 5.8547902912e-01	 1.2196927683e+00	-2.1574891253e+00
 7.0355873747e-01	 1.1659320932e+00	-2.0967069514e+00
 6.9233655070e-01	 1.1726306468e+00	-2.1027070976e+00
 6.8106433433e-01	 1.1792132459e+00	-2.1031748297e+00
 6.6974385108e-01	 1.1856794006e+00	-2.1044834156e+00
 6.5837686829e-01	 1.1920286558e+00	-2.1078554691e+00
 6.4696515702e-01	 1.1982605915e+00	-2.1129733490e+00
 6.3551049127e-01	 1.2043748225e+00	-2.1195217121e+00
 6.2401464705e-01	 1.2103709987e+00	-2.1271877672e+00
 6.1247940165e-01	 1.2162488045e+00	-2.1356615447e+00
 6.0090653272e-01	 1.2220079594e+00	-2.1446361811e+00
 5.8929781748e-01	 1.2276482172e+00	-2.1538082193e+00
 7.0811796344e-01	 1.1734876072e+00	-2.0986114688e+00
 6.9682305426e-01	 1.1802295689e+00	-2.0993384687e+00
 6.8547779128e-01	 1.1868548249e+00	-2.1010360712e+00
 6.7408394864e-01	 1.1933628818e+00	-2.1043276951e+00
 6.6264330513e-01	 1.1997532817e+00	-2.1089239940e+00
 6.5115764329e-01	 1.2060256018e+00	-2.1145392391e+00
 6.3962874861e-01	 1.2121794544e+00	-2.1208914972e+00
 6.2805840862e-01	 1.2182144872e+00	-2.1277028244e+00
 6.1644841212e-01	 1.2241303826e+00	-2.1346994745e+00
 6.0480054828e-01	 1.2299268582e+00	-2.1416121245e+00
 5.9311660583e-01	 1.2356036662e+00	-2.1481761149e+00
 7.1267718941e-01	 1.1810431212e+00	-2.0936492163e+00
 7.0130955782e-01	 1.1878284911e+00	-2.0961623895e+00
 6.8989124823e-01	 1.1944964038e+00	-2.0998411454e+00
 6.7842404620e-01	 1.2010463630e+00	-2.1044227537e+00
 6.6690974197e-01	 1.2074779075e+00	-2.1096493775e+00
 6.5535012956e-01	 1.2137906120e+00	-2.1152681759e+00
 6.4374700595e-01	 1.2199840863e+00	-2.1210314204e+00
 6.3210217019e-01	 1.2260579757e+00	-2.1266966271e+00
 6.2041742259e-01	 1.2320119607e+00	-2.1320267056e+00
 6.0869456383e-01	 1.2378457570e+00	-2.1367901242e+00
 5.9693539419e-01	 1.2435591152e+00	-2.1407610931e+00
 7.1723641538e-01	 1.1885986352e+00	-2.0901398992e+00
 7.0579606139e-01	 1.1954274133e+00	-2.0945151913e+00
 6.9430470518e-01	 1.2021379828e+00	-2.0994286881e+00
 6.8276414376e-01	 1.2087298441e+00	-2.1046490501e+00
 6.7117617881e-01	 1.2152025334e+00	-2.1099510937e+00
 6.5954261583e-01	 1.2215556223e+00	-2.1151158298e+00
 6.4786526330e-01	 1.2277887182e+00	-2.1199305190e+00
 6.3614593177e-01	 1.2339014643e+00	-2.1241887423e+00
 6.2438643306e-01	 1.2398935388e+00	-2.1276904895e+00
 6.1258857939e-01	 1.2457646558e+00	-2.1302422662e+00
 6.0075418255e-01	 1.2515145641e+00	-2.1316572189e+00
 7.2179564136e-01	 1.1961541492e+00	-2.0887454837e+00
 7.1028256495e-01	 1.2030263355e+00	-2.0941889717e+00
 6.9871816214e-01	 1.2097795618e+00	-2.0996344411e+00
 6.8710424132e-01	 1.2164133253e+00	-2.1048832516e+00
 6.7544261565e-01	 1.2229271592e+00	-2.1097440032e+00
 6.6373510210e-01	 1.2293206325e+00	-2.1140325124e+00
 6.5198352064e-01	 1.2355933501e+00	-2.1175718036e+00
 6.4018969334e-01	 1.2417449528e+00	-2.1201921189e+00
 6.2835544353e-01	 1.2477751169e+00	-2.1217309467e+00
 6.1648259495e-01	 1.2536835545e+00	-2.1220330697e+00
 6.0457297090e-01	 1.2594700131e+00	-2.1209506340e+00
 7.2635486733e-01	 1.2037096631e+00	-2.0892107983e+00
 7.1476906852e-01	 1.2106252577e+00	-2.0949738904e+00
 7.0313161909e-01	 1.2174211408e+00	-2.1002912627e+00
 6.9144433889e-01	 1.2240968065e+00	-2.1049982685e+00
 6.7970905249e-01	 1.2306517850e+00	-2.1089384110e+00
 6.6792758837e-01	 1.2370856428e+00	-2.1119632547e+00
 6.5610177798e-01	 1.2433979820e+00	-2.1139323537e+00
 6.4423345491e-01	 1.2495884413e+00	-2.1147131999e+00
 6.3232445400e-01	 1.2556566950e+00	-2.1141811918e+00
 6.2037661051e-01	 1.2616024533e+00	-2.1122196242e+00
 6.0839175926e-01	 1.2674254621e+00	-2.1087197015e+00
 7.3091409330e-01	 1.2112651771e+00	-2.0912797118e+00
 7.1925557208e-01	 1.2182241799e+00	-2.0966581571e+00
 7.0754507604e-01	 1.2250627197e+00	-2.1012291411e+00
 6.9578443645e-01	 1.2317802877e+00	-2.1048632928e+00
 6.8397548933e-01	 1.2383764109e+00	-2.1074401262e+00
 6.7212007464e-01	 1.2448506530e+00	-2.1088478865e+00
 6.6022003533e-01	 1.2512026139e+00	-2.1089834149e+00
 6.4827721648e-01	 1.2574319299e+00	-2.1077520343e+00
 6.3629346447e-01	 1.2635382731e+00	-2.1050674585e+00
 6.2427062607e-01	 1.2695213521e+00	-2.1008517244e+00
 6.1221054762e-01	 1.2753809110e+00	-2.0950351499e+00
 7.3547331927e-01	 1.2188206911e+00	-2.0946950989e+00
 7.2374207564e-01	 1.2258231020e+00	-2.0990280245e+00
 7.1195853299e-01	 1.2327042987e+00	-2.1022752131e+00
 7.0012453401e-01	 1.2394637688e+00	-2.1043438389e+00
 6.8824192617e-01	 1.2461010367e+00	-2.1051505239e+00
 6.7631256091e-01	 1.2526156633e+00	-2.1046211172e+00
 6.6433829267e-01	 1.2590072458e+00	-2.1026904959e+00
 6.5232097805e-01	 1.2652754184e+00	-2.0993023882e+00
 6.4026247494e-01	 1.2714198512e+00	-2.0944092228e+00
 6.2816464163e-01	 1.2774402508e+00	-2.0879720041e+00
 6.1602933597e-01	 1.2833363600e+00	-2.0799602147e+00
 7.4003254524e-01	 1.2263762051e+00	-2.0991988122e+00
 7.2822857921e-01	 1.2334220242e+00	-2.1018677869e+00
 7.1637198995e-01	 1.2403458777e+00	-2.1032537863e+00
 7.0446463157e-01	 1.2471472500e+00	-2.1033017883e+00
 6.9250836301e-01	 1.2538256626e+00	-2.1019666095e+00
 6.8050504718e-01	 1.2603806735e+00	-2.0992126175e+00
 6.6845655001e-01	 1.2668118777e+00	-2.0950134660e+00
 6.5636473962e-01	 1.2731189069e+00	-2.0893518564e+00
 6.4423148541e-01	 1.2793014293e+00	-2.0822193264e+00
 6.3205865719e-01	 1.2853591496e+00	-2.0736160683e+00
 6.1984812433e-01	 1.2912918090e+00	-2.0635507779e+00
 7.4459177121e-01	 1.2339317191e+00	-2.1045316602e+00
 7.3271508277e-01	 1.2410209464e+00	-2.1049597824e+00
 7.2078544690e-01	 1.2479874567e+00	-2.1039863648e+00
 7.0880472913e-01	 1.2548307312e+00	-2.1015954361e+00
 6.9677479985e-01	 1.2615502884e+00	-2.0977810846e+00
 6.8469753345e-01	 1.2681456837e+00	-2.0925471021e+00
 6.7257480735e-01	 1.2746165096e+00	-2.0859066530e+00
 6.6040850119e-01	 1.2809623955e+00	-2.0778819731e+00
 6.4820049588e-01	 1.2871830074e+00	-2.0685040979e+00
 6.3595267275e-01	 1.2932780484e+00	-2.0578126247e+00
 6.2366691268e-01	 1.2992472579e+00	-2.0458555067e+00
 5.8547902912e-01	 1.2196927683e+00	-2.1574891253e+00
 5.7390972211e-01	 1.2251790613e+00	-2.1673182563e+00
 5.6230831678e-01	 1.2305467998e+00	-2.1741122944e+00
 5.5067657307e-01	 1.2357958404e+00	-2.1783976806e+00
 5.3901624731e-01	 1.2409260734e+00	-2.1806775528e+00
 5.2732909147e-01	 1.2459374222e+00	-2.1814314918e+00
 5.1561685237e-01	 1.2508298437e+00	-2.1811153752e+00
 5.0388127097e-01	 1.2556033274e+00	-2.1801613328e+00
 4.9212408161e-01	 1.2602578954e+00	-2.1789777965e+00
 4.8034701128e-01	 1.2647936020e+00	-2.1779496398e+00
 4.6855177891e-01	 1.2692105336e+00	-2.1774383983e+00
 5.8929781748e-01	 1.2276482172e+00	-2.1538082193e+00
 5.7765304963e-01	 1.2331702946e+00	-2.1612211760e+00
 5.6597597411e-01	 1.2385730442e+00	-2.1651463260e+00
 5.5426836232e-01	 1.2438563217e+00	-2.1661918825e+00
 5.4253198206e-01	 1.2490200166e+00	-2.1649532692e+00
 5.3076859672e-01	 1.2540640520e+00	-2.1620028572e+00
 5.1897996451e-01	 1.2589883843e+00	-2.1578897206e+00
 5.0716783776e-01	 1.2637930031e+00	-2.1531394965e+00
 4.9533396210e-01	 1.2684779305e+00	-2.1482543429e+00
 4.8348007580e-01	 1.2730432213e+00	-2.1437129873e+00
 4.7160790899e-01	 1.2774889623e+00	-2.1399708606e+00
 5.9311660583e-01	 1.2356036662e+00	-2.1481761149e+00
 5.8139637715e-01	 1.2411615279e+00	-2.1530224932e+00
 5.6964363144e-01	 1.2465992886e+00	-2.1542015741e+00
 5.5786015158e-01	 1.2519168030e+00	-2.1522238392e+00
 5.4604771681e-01	 1.2571139599e+00	-2.1477623111e+00
 5.3420810196e-01	 1.2621906818e+00	-2.1414671914e+00
 5.2234307665e-01	 1.2671469249e+00	-2.1339655422e+00
 5.1045440454e-01	 1.2719826787e+00	-2.1258610755e+00
 4.9854384259e-01	 1.2766979656e+00	-2.1177340430e+00
 4.8661314031e-01	 1.2812928405e+00	-2.1101412192e+00
 4.7466403908e-01	 1.2857673910e+00	-2.1036159722e+00
 5.9693539419e-01	 1.2435591152e+00	-2.1407610931e+00
 5.8513970467e-01	 1.2491527612e+00	-2.1428912957e+00
 5.7331128877e-01	 1.2546255330e+00	-2.1414511296e+00
 5.6145194083e-01	 1.2599772843e+00	-2.1366640464e+00
 5.4956345156e-01	 1.2652079031e+00	-2.1292662497e+00
 5.3764760721e-01	 1.2703173116e+00	-2.1199710824e+00
 5.2570618879e-01	 1.2753054656e+00	-2.1094686590e+00
 5.1374097132e-01	 1.2801723544e+00	-2.0984256091e+00
 5.0175372308e-01	 1.2849180007e+00	-2.0874849229e+00
 4.8974620483e-01	 1.2895424598e+00	-2.0772658934e+00
 4.7772016917e-01	 1.2940458197e+00	-2.0683641485e+00
 6.0075418255e-01	 1.2515145641e+00	-2.1316572189e+00
 5.8888303220e-01	 1.2571439946e+00	-2.1309940604e+00
 5.7697894610e-01	 1.2626517774e+00	-2.1270627878e+00
 5.6504373008e-01	 1.2680377656e+00	-2.1196779357e+00
 5.5307918632e-01	 1.2733018464e+00	-2.1096219892e+00
 5.4108711246e-01	 1.2784439414e+00	-2.0976570067e+00
 5.2906930094e-01	 1.2834640062e+00	-2.0845214849e+00
 5.1702753811e-01	 1.2883620301e+00	-2.0709300804e+00
 5.0496360357e-01	 1.2931380358e+00	-2.0575734357e+00
 4.9287926935e-01	 1.2977920791e+00	-2.0451181045e+00
 4.8077629926e-01	 1.3023242484e+00	-2.0342065685e+00
 6.0457297090e-01	 1.2594700131e+00	-2.1209506340e+00
 5.9262635972e-01	 1.2651352279e+00	-2.1175841440e+00
 5.8064660343e-01	 1.2706780219e+00	-2.1111989981e+00
 5.6863551934e-01	 1.2760982469e+00	-2.1014258253e+00
 5.5659492107e-01	 1.2813957896e+00	-2.0889817148e+00
 5.4452661771e-01	 1.2865705712e+00	-2.0746632693e+00
 5.3243241308e-01	 1.2916225468e+00	-2.0592429553e+00
 5.2031410489e-01	 1.2965517058e+00	-2.0434688251e+00
 5.0817348406e-01	 1.3013580709e+00	-2.0280643484e+00
 4.9601233388e-01	 1.3060416983e+00	-2.0137283441e+00
 4.8383242935e-01	 1.3106026771e+00	-2.0011350061e+00
 6.0839175926e-01	 1.2674254621e+00	-2.1087197015e+00
 5.9636968725e-01	 1.2731264612e+00	-2.1028187701e+00
 5.8431426076e-01	 1.2787042663e+00	-2.0940168122e+00
 5.7222730859e-01	 1.2841587282e+00	-2.0820628700e+00
 5.6011065582e-01	 1.2894897329e+00	-2.0674928380e+00
 5.4796612296e-01	 1.2946972009e+00	-2.0511239412e+00
 5.3579552522e-01	 1.2997810874e+00	-2.0337484522e+00
 5.2360067168e-01	 1.3047413814e+00	-2.0161334399e+00
 5.1138336455e-01	 1.3095781060e+00	-1.9990206292e+00
 4.9914539840e-01	 1.3142913176e+00	-1.9831263639e+00
 4.8688855944e-01	 1.3188811058e+00	-1.9691416649e+00
 6.1221054762e-01	 1.2753809110e+00	-2.0950351499e+00
 6.0011301477e-01	 1.2811176945e+00	-2.0867850888e+00
 5.8798191809e-01	 1.2867305107e+00	-2.0756678285e+00
 5.7581909785e-01	 1.2922192095e+00	-2.0617390071e+00
 5.6362639057e-01	 1.2975836761e+00	-2.0452979411e+00
 5.5140562821e-01	 1.3028238307e+00	-2.0271687954e+00
 5.3915863737e-01	 1.3079396280e+00	-2.0081497284e+00
 5.2688723847e-01	 1.3129310571e+00	-1.9890126905e+00
 5.1459324504e-01	 1.3177981411e+00	-1.9705033359e+00
 5.0227846292e-01	 1.3225409368e+00	-1.9533410403e+00
 4.8994468953e-01	 1.3271595345e+00	-1.9382190153e+00
 6.1602933597e-01	 1.2833363600e+00	-2.0799602147e+00
 6.0385634229e-01	 1.2891089279e+00	-2.0695625430e+00
 5.9164957542e-01	 1.2947567551e+00	-2.0563310665e+00
 5.7941088710e-01	 1.3002796908e+00	-2.0405989017e+00
 5.6714212532e-01	 1.3056776194e+00	-2.0225347183e+00
 5.5484513347e-01	 1.3109504605e+00	-2.0029232417e+00
 5.4252174951e-01	 1.3160981686e+00	-1.9825548308e+00
 5.3017380525e-01	 1.3211207328e+00	-1.9621924196e+00
 5.1780312553e-01	 1.3260181762e+00	-1.9425715045e+00
 5.0541152744e-01	 1.3307905561e+00	-1.9244002404e+00
 4.9300081962e-01	 1.3354379633e+00	-1.9083596347e+00
 6.1984812433e-01	 1.2912918090e+00	-2.0635507779e+00
 6.0759966982e-01	 1.2971001612e+00	-2.0512230128e+00
 5.9531723275e-01	 1.3027829995e+00	-2.0361515847e+00
 5.8300267636e-01	 1.3083401721e+00	-2.0187818889e+00
 5.7065786008e-01	 1.3137715626e+00	-1.9993359160e+00
 5.5828463872e-01	 1.3190770903e+00	-1.9785082595e+00
 5.4588486165e-01	 1.3242567092e+00	-1.9570680226e+00
 5.3346037204e-01	 1.3293104084e+00	-1.9357554546e+00
 5.2101300602e-01	 1.3342382113e+00	-1.9152820390e+00
 5.0854459196e-01	 1.3390401754e+00	-1.8963306900e+00
 4.9605694971e-01	 1.3437163920e+00	-1.8795560507e+00
 6.2366691268e-01	 1.2992472579e+00	-2.0458555067e+00
 6.1134299734e-01	 1.3050913945e+00	-2.0318309569e+00
 5.9898489008e-01	 1.3108092439e+00	-2.0152040391e+00
 5.8659446561e-01	 1.3164006534e+00	-1.9964219142e+00
 5.7417359483e-01	 1.3218655059e+00	-1.9758292705e+00
 5.6172414397e-01	 1.3272037201e+00	-1.9540403298e+00
 5.4924797379e-01	 1.3324152499e+00	-1.9317897043e+00
 5.3674693882e-01	 1.3375000841e+00	-1.9097815148e+00
 5.2422288651e-01	 1.3424582464e+00	-1.8886896007e+00
 5.1167765648e-01	 1.3472897946e+00	-1.8691578427e+00
 4.9911307980e-01	 1.3519948207e+00	-1.8518005864e+00
 4.6855177891e-01	 1.2692105336e+00	-2.1774383983e+00
 4.5674210366e-01	 1.2735080872e+00	-2.1767099206e+00
 4.4491768149e-01	 1.2776871719e+00	-2.1749246704e+00
 4.3308020167e-01	 1.2817479665e+00	-2.1722497148e+00
 4.2123134272e-01	 1.2856906802e+00	-2.1688271679e+00
 4.0937277181e-01	 1.2895155522e+00	-2.1647749212e+00
 3.9750614411e-01	 1.2932228510e+00	-2.1601874191e+00
 3.8563310219e-01	 1.2968128745e+00	-2.1551364716e+00
 3.7375527545e-01	 1.3002859490e+00	-2.1496720984e+00
 3.6187427950e-01	 1.3036424289e+00	-2.1438233982e+00
 3.4999171566e-01	 1.3068826965e+00	-2.1375994372e+00
 4.7160790899e-01	 1.2774889623e+00	-2.1399708606e+00
 4.5972120511e-01	 1.2818145467e+00	-2.1363063062e+00
 4.4781965812e-01	 1.2860208895e+00	-2.1318176051e+00
 4.3590496831e-01	 1.2901081707e+00	-2.1266537359e+00
 4.2397882515e-01	 1.2940766007e+00	-2.1209367951e+00
 4.1204290668e-01	 1.2979264204e+00	-2.1147628305e+00
 4.0009887888e-01	 1.3016579001e+00	-2.1082027185e+00
 3.8814839502e-01	 1.3052713396e+00	-2.1013030807e+00
 3.7619309512e-01	 1.3087670672e+00	-2.0940872298e+00
 3.6423460535e-01	 1.3121454398e+00	-2.0865561423e+00
 3.5227453746e-01	 1.3154068420e+00	-2.0786894482e+00
 4.7466403908e-01	 1.2857673910e+00	-2.1036159722e+00
 4.6270030656e-01	 1.2901210062e+00	-2.0974122461e+00
 4.5072163475e-01	 1.2943546071e+00	-2.0905445012e+00
 4.3872973495e-01	 1.2984683748e+00	-2.0831504257e+00
 4.2672630758e-01	 1.3024625212e+00	-2.0753391462e+00
 4.1471304156e-01	 1.3063372887e+00	-2.0671921519e+00
 4.0269161364e-01	 1.3100929492e+00	-2.0587642624e+00
 3.9066368784e-01	 1.3137298046e+00	-2.0500846353e+00
 3.7863091479e-01	 1.3172481853e+00	-2.0411578039e+00
 3.6659493119e-01	 1.3206484506e+00	-2.0319647395e+00
 3.5455735925e-01	 1.3239309875e+00	-2.0224639311e+00
 4.7772016917e-01	 1.2940458197e+00	-2.0683641485e+00
 4.6567940802e-01	 1.2984274657e+00	-2.0599778414e+00
 4.5362361139e-01	 1.3026883247e+00	-2.0510211584e+00
 4.4155450159e-01	 1.3068285789e+00	-2.0416271214e+00
 4.2947379001e-01	 1.3108484417e+00	-2.0318987579e+00
 4.1738317643e-01	 1.3147481569e+00	-2.0219101035e+00
 4.0528434841e-01	 1.3185279984e+00	-2.0117072502e+00
 3.9317898066e-01	 1.3221882696e+00	-2.0013094330e+00
 3.8106873446e-01	 1.3257293035e+00	-1.9907101470e+00
 3.6895525704e-01	 1.3291514614e+00	-1.9798782883e+00
 3.5684018105e-01	 1.3324551329e+00	-1.9687593123e+00
 4.8077629926e-01	 1.3023242484e+00	-2.0342065685e+00
 4.6865850947e-01	 1.3067339252e+00	-2.0239551604e+00
 4.5652558802e-01	 1.3110220423e+00	-2.0131663922e+00
 4.4437926823e-01	 1.3151887831e+00	-2.0019750724e+00
 4.3222127244e-01	 1.3192343622e+00	-1.9904848258e+00
 4.2005331131e-01	 1.3231590251e+00	-1.9787691641e+00
 4.0787708318e-01	 1.3269630475e+00	-1.9668726025e+00
 3.9569427349e-01	 1.3306467347e+00	-1.9548118143e+00
 3.8350655413e-01	 1.3342104217e+00	-1.9425768161e+00
 3.7131558289e-01	 1.3376544722e+00	-1.9301321758e+00
 3.5912300284e-01	 1.3409792784e+00	-1.9174182373e+00
 4.8383242935e-01	 1.3106026771e+00	-2.0011350061e+00
 4.7163761093e-01	 1.3150403847e+00	-1.9892980423e+00
 4.5942756465e-01	 1.3193557599e+00	-1.9769018134e+00
 4.4720403488e-01	 1.3235489872e+00	-1.9640891996e+00
 4.3496875488e-01	 1.3276202827e+00	-1.9509709496e+00
 4.2272344618e-01	 1.3315698934e+00	-1.9376268080e+00
 4.1046981795e-01	 1.3353980966e+00	-1.9241066892e+00
 3.9820956631e-01	 1.3391051997e+00	-1.9104318894e+00
 3.8594437380e-01	 1.3426915399e+00	-1.8965963281e+00
 3.7367590874e-01	 1.3461574831e+00	-1.8825678126e+00
 3.6140582464e-01	 1.3495034239e+00	-1.8682893165e+00
 4.8688855944e-01	 1.3188811058e+00	-1.9691416649e+00
 4.7461671238e-01	 1.3233468443e+00	-1.9559619031e+00
 4.6232954129e-01	 1.3276894775e+00	-1.9421516110e+00
 4.5002880152e-01	 1.3319091914e+00	-1.9278678609e+00
 4.3771623731e-01	 1.3360062032e+00	-1.9132348845e+00
 4.2539358106e-01	 1.3399807616e+00	-1.8983452465e+00
 4.1306255272e-01	 1.3438331457e+00	-1.8832610657e+00
 4.0072485914e-01	 1.3475636648e+00	-1.8680152726e+00
 3.8838219348e-01	 1.3511726581e+00	-1.8526128968e+00
 3.7603623458e-01	 1.3546604939e+00	-1.8370323756e+00
 3.6368864644e-01	 1.3580275694e+00	-1.8212268774e+00
 4.8994468953e-01	 1.3271595345e+00	-1.9382190153e+00
 4.7759581384e-01	 1.3316533038e+00	-1.9239035474e+00
 4.6523151792e-01	 1.3360231951e+00	-1.9088423421e+00
 4.5285356817e-01	 1.3402693955e+00	-1.8932126227e+00
 4.4046371974e-01	 1.3443921237e+00	-1.8771582987e+00
 4.2806371594e-01	 1.3483916299e+00	-1.8607911768e+00
 4.1565528749e-01	 1.3522681948e+00	-1.8441922168e+00
 4.0324015197e-01	 1.3560221298e+00	-1.8274128252e+00
 3.9082001315e-01	 1.3596537762e+00	-1.8104761771e+00
 3.7839656043e-01	 1.3631635047e+00	-1.7933785592e+00
 3.6597146823e-01	 1.3665517149e+00	-1.7760907250e+00
 4.9300081962e-01	 1.3354379633e+00	-1.9083596347e+00
 4.8057491529e-01	 1.3399597633e+00	-1.8930809825e+00
 4.6813349455e-01	 1.3443569127e+00	-1.8769027252e+00
 4.5567833481e-01	 1.3486295997e+00	-1.8600280365e+00
 4.4321120218e-01	 1.3527780442e+00	-1.8426265384e+00
 4.3073385081e-01	 1.3568024981e+00	-1.8248355377e+00
 4.1824802226e-01	 1.3607032439e+00	-1.8067613070e+00
 4.0575544479e-01	 1.3644805948e+00	-1.7884804040e+00
 3.9325783282e-01	 1.3681348944e+00	-1.7700410173e+00
 3.8075688628e-01	 1.3716665155e+00	-1.7514643325e+00
 3.6825429003e-01	 1.3750758603e+00	-1.7327459086e+00
 4.9605694971e-01	 1.3437163920e+00	-1.8795560507e+00
 4.8355401675e-01	 1.3482662228e+00	-1.8634532378e+00
 4.7103547119e-01	 1.3526906303e+00	-1.8462634387e+00
 4.5850310145e-01	 1.3569898038e+00	-1.8282214219e+00
 4.4595868461e-01	 1.3611639648e+00	-1.8095283978e+00
 4.3340398569e-01	 1.3652133663e+00	-1.7903532712e+00
 4.2084075703e-01	 1.3691382930e+00	-1.7708339380e+00
 4.0827073762e-01	 1.3729390599e+00	-1.7510786186e+00
 3.9569565249e-01	 1.3766160126e+00	-1.7311672181e+00
 3.8311721213e-01	 1.3801695264e+00	-1.7111527042e+00
 3.7053711183e-01	 1.3836000058e+00	-1.6910624957e+00
 4.9911307980e-01	 1.3519948207e+00	-1.8518005864e+00
 4.8653311820e-01	 1.3565726823e+00	-1.8349801863e+00
 4.7393744782e-01	 1.3610243479e+00	-1.8168569241e+00
 4.6132786810e-01	 1.3653500079e+00	-1.7977026538e+00
 4.4870616704e-01	 1.3695498853e+00	-1.7777558950e+00
 4.3607412057e-01	 1.3736242346e+00	-1.7572230913e+00
 4.2343349180e-01	 1.3775733421e+00	-1.7362799128e+00
 4.1078603044e-01	 1.3813975249e+00	-1.7150725940e+00
 3.9813347216e-01	 1.3850971308e+00	-1.6937192973e+00
 3.8547753797e-01	 1.3886725372e+00	-1.6723114937e+00
 3.7281993362e-01	 1.3921241513e+00	-1.6509153514e+00
 3.4999171566e-01	 1.3068826965e+00	-2.1375994372e+00
 3.3810917055e-01	 1.3100071613e+00	-2.1310272783e+00
 3.2622821604e-01	 1.3130162608e+00	-2.1242233819e+00
 3.1435040825e-01	 1.3159104587e+00	-2.1173014002e+00
 3.0247728689e-01	 1.3186902446e+00	-2.1103555212e+00
 2.9061037479e-01	 1.3213561328e+00	-2.1034611836e+00
 2.7875117746e-01	 1.3239086624e+00	-2.0966757913e+00
 2.6690118266e-01	 1.3263483964e+00	-2.0900394221e+00
 2.5506185996e-01	 1.3286759212e+00	-2.0835755292e+00
 2.4323466039e-01	 1.3308918460e+00	-2.0772916314e+00
 2.3142101602e-01	 1.3329968024e+00	-2.0711799894e+00
 3.5227453746e-01	 1.3154068420e+00	-2.0786894482e+00
 3.4031448841e-01	 1.3185516861e+00	-2.0704863409e+00
 3.2835604035e-01	 1.3215804125e+00	-2.0620643308e+00
 3.1640075953e-01	 1.3244934878e+00	-2.0535496100e+00
 3.0445019571e-01	 1.3272914048e+00	-2.0450482902e+00
 2.9250588165e-01	 1.3299746813e+00	-2.0366471440e+00
 2.8056933268e-01	 1.3325438597e+00	-2.0284143439e+00
 2.6864204626e-01	 1.3349995069e+00	-2.0204001956e+00
 2.5672550155e-01	 1.3373422130e+00	-2.0126378610e+00
 2.4482115904e-01	 1.3395725912e+00	-2.0051440693e+00
 2.3293046015e-01	 1.3416912772e+00	-1.9979198132e+00
 3.5455735925e-01	 1.3239309875e+00	-2.0224639311e+00
 3.4251980628e-01	 1.3270962110e+00	-2.0126407899e+00
 3.3048386466e-01	 1.3301445641e+00	-2.0026205602e+00
 3.1845111081e-01	 1.3330765169e+00	-1.9925393123e+00
 3.0642310453e-01	 1.3358925650e+00	-1.9825124510e+00
 2.9440138850e-01	 1.3385932298e+00	-1.9726354878e+00
 2.8238748789e-01	 1.3411790571e+00	-1.9629848083e+00
 2.7038290985e-01	 1.3436506175e+00	-1.9536184331e+00
 2.5838914313e-01	 1.3460085048e+00	-1.9445767667e+00
 2.4640765769e-01	 1.3482533364e+00	-1.9358833334e+00
 2.3443990427e-01	 1.3503857520e+00	-1.9275454946e+00
 3.5684018105e-01	 1.3324551329e+00	-1.9687593123e+00
 3.4472512415e-01	 1.3356407358e+00	-1.9573364155e+00
 3.3261168897e-01	 1.3387087158e+00	-1.9457468929e+00
 3.2050146209e-01	 1.3416595460e+00	-1.9341340681e+00
 3.0839601335e-01	 1.3444937253e+00	-1.9226200463e+00
 2.9629689536e-01	 1.3472117783e+00	-1.9113065202e+00
 2.8420564311e-01	 1.3498142545e+00	-1.9002755713e+00
 2.7212377345e-01	 1.3523017280e+00	-1.8895904612e+00
 2.6005278472e-01	 1.3546747967e+00	-1.8792964106e+00
 2.4799415633e-01	 1.3569340817e+00	-1.8694213618e+00
 2.3594934840e-01	 1.3590802268e+00	-1.8599767230e+00
 3.5912300284e-01	 1.3409792784e+00	-1.9174182373e+00
 3.4693044202e-01	 1.3441852606e+00	-1.9044250955e+00
 3.3473951329e-01	 1.3472728675e+00	-1.8913041034e+00
 3.2255181338e-01	 1.3502425751e+00	-1.8782032491e+00
 3.1036892217e-01	 1.3530948855e+00	-1.8652487808e+00
 2.9819240222e-01	 1.3558303268e+00	-1.8525460517e+00
 2.8602379832e-01	 1.3584494519e+00	-1.8401803581e+00
 2.7386463704e-01	 1.3609528386e+00	-1.8282177661e+00
 2.6171642630e-01	 1.3633410885e+00	-1.8167059232e+00
 2.4958065498e-01	 1.3656148269e+00	-1.8056748522e+00
 2.3745879252e-01	 1.3677747016e+00	-1.7951377233e+00
 3.6140582464e-01	 1.3495034239e+00	-1.8682893165e+00
 3.4913575988e-01	 1.3527297854e+00	-1.8537645518e+00
 3.3686733760e-01	 1.3558370191e+00	-1.8391586865e+00
 3.2460216466e-01	 1.3588256041e+00	-1.8246218175e+00
 3.1234183099e-01	 1.3616960458e+00	-1.8102818129e+00
 3.0008790908e-01	 1.3644488753e+00	-1.7962452003e+00
 2.8784195354e-01	 1.3670846493e+00	-1.7825980452e+00
 2.7560550064e-01	 1.3696039491e+00	-1.7694068173e+00
 2.6338006789e-01	 1.3720073804e+00	-1.7567192379e+00
 2.5116715363e-01	 1.3742955721e+00	-1.7445651086e+00
 2.3896823664e-01	 1.3764691764e+00	-1.7329571153e+00
 3.6368864644e-01	 1.3580275694e+00	-1.8212268774e+00
 3.5134107775e-01	 1.3612743102e+00	-1.8052181147e+00
 3.3899516191e-01	 1.3644011708e+00	-1.7891826320e+00
 3.2665251595e-01	 1.3674086332e+00	-1.7732701116e+00
 3.1431473981e-01	 1.3702972060e+00	-1.7576075514e+00
 3.0198341594e-01	 1.3730674238e+00	-1.7423001998e+00
 2.8966010875e-01	 1.3757198467e+00	-1.7274324801e+00
 2.7734636423e-01	 1.3782550597e+00	-1.7130688983e+00
 2.6504370947e-01	 1.3806736722e+00	-1.6992549316e+00
 2.5275365228e-01	 1.3829763173e+00	-1.6860178942e+00
 2.4047768077e-01	 1.3851636512e+00	-1.6733677764e+00
 3.6597146823e-01	 1.3665517149e+00	-1.7760907250e+00
 3.5354639562e-01	 1.3698188350e+00	-1.7586544939e+00
 3.4112298623e-01	 1.3729653225e+00	-1.7412532071e+00
 3.2870286723e-01	 1.3759916623e+00	-1.7240336395e+00
 3.1628764863e-01	 1.3788983662e+00	-1.7071194592e+00
 3.0387892280e-01	 1.3816859723e+00	-1.6906122142e+00
 2.9147826397e-01	 1.3843550441e+00	-1.6745923056e+00
 2.7908722783e-01	 1.3869061703e+00	-1.6591199416e+00
 2.6670735106e-01	 1.3893399641e+00	-1.6442360707e+00
 2.5434015092e-01	 1.3916570625e+00	-1.6299632872e+00
 2.4198712489e-01	 1.3938581260e+00	-1.6163067093e+00
 3.6825429003e-01	 1.3750758603e+00	-1.7327459086e+00
 3.5575171349e-01	 1.3783633598e+00	-1.7139475562e+00
 3.4325081054e-01	 1.3815294741e+00	-1.6952527446e+00
 3.3075321851e-01	 1.3845746914e+00	-1.6768028772e+00
 3.1826055745e-01	 1.3874995265e+00	-1.6587158626e+00
 3.0577442965e-01	 1.3903045208e+00	-1.6410871569e+00
 2.9329641918e-01	 1.3929902414e+00	-1.6239907897e+00
 2.8082809143e-01	 1.3955572808e+00	-1.6074803693e+00
 2.6837099264e-01	 1.3980062559e+00	-1.5915900619e+00
 2.5592664957e-01	 1.4003378077e+00	-1.5763355425e+00
 2.4349656902e-01	 1.4025526008e+00	-1.5617149136e+00
 3.7053711183e-01	 1.3836000058e+00	-1.6910624957e+00
 3.5795703135e-01	 1.3869078846e+00	-1.6709761100e+00
 3.4537863485e-01	 1.3900936258e+00	-1.6510684375e+00
 3.3280356980e-01	 1.3931577205e+00	-1.6314730738e+00
 3.2023346627e-01	 1.3961006867e+00	-1.6122997661e+00
 3.0766993651e-01	 1.3989230693e+00	-1.5936355155e+00
 2.9511457440e-01	 1.4016254388e+00	-1.5755456610e+00
 2.8256895502e-01	 1.4042083914e+00	-1.5580749375e+00
 2.7003463423e-01	 1.4066725477e+00	-1.5412485069e+00
 2.5751314822e-01	 1.4090185530e+00	-1.5250729563e+00
 2.4500601314e-01	 1.4112470756e+00	-1.5095372610e+00
 3.7281993362e-01	 1.3921241513e+00	-1.6509153514e+00
 3.6016234922e-01	 1.3954524094e+00	-1.6296236949e+00
 3.4750645917e-01	 1.3986577775e+00	-1.6085921392e+00
 3.3485392108e-01	 1.4017407496e+00	-1.5879440614e+00
 3.2220637509e-01	 1.4047018470e+00	-1.5677786720e+00
 3.0956544337e-01	 1.4075416178e+00	-1.5481721822e+00
 2.9693272962e-01	 1.4102606362e+00	-1.5291789477e+00
 2.8430981862e-01	 1.4128595019e+00	-1.5108325862e+00
 2.7169827581e-01	 1.4153388396e+00	-1.4931470621e+00
 2.5909964687e-01	 1.4176992982e+00	-1.4761177358e+00
 2.4651545727e-01	 1.4199415504e+00	-1.4597223744e+00
 2.3142101602e-01	 1.3329968024e+00	-2.0711799894e+00
 2.1962033562e-01	 1.3349917732e+00	-2.0655100110e+00
 2.0783602525e-01	 1.3368770650e+00	-2.0604853487e+00
 1.9606946182e-01	 1.3386533721e+00	-2.0559754117e+00
 1.8432200193e-01	 1.3403214086e+00	-2.0518366738e+00
 1.7259498153e-01	 1.3418819083e+00	-2.0479133146e+00
 1.6088971569e-01	 1.3433356234e+00	-2.0440378359e+00
 1.4920749834e-01	 1.3446833246e+00	-2.0400316547e+00
 1.3754960206e-01	 1.3459258001e+00	-2.0357056711e+00
 1.2591727781e-01	 1.3470638551e+00	-2.0308608114e+00
 1.1431175480e-01	 1.3480983111e+00	-2.0252885465e+00
 2.3293046015e-01	 1.3416912772e+00	-1.9979198132e+00
 2.2105280978e-01	 1.3436992602e+00	-1.9912331204e+00
 2.0919163622e-01	 1.3455968489e+00	-1.9852744411e+00
 1.9734832535e-01	 1.3473847419e+00	-1.9799034539e+00
 1.8552424262e-01	 1.3490636582e+00	-1.9749671339e+00
 1.7372073270e-01	 1.3506343362e+00	-1.9703004115e+00
 1.6193911924e-01	 1.3520975332e+00	-1.9657268068e+00
 1.5018070460e-01	 1.3534540248e+00	-1.9610590357e+00
 1.3844676966e-01	 1.3547046043e+00	-1.9560995890e+00
 1.2673857355e-01	 1.3558500822e+00	-1.9506412848e+00
 1.1505735349e-01	 1.3568912855e+00	-1.9444677931e+00
 2.3443990427e-01	 1.3503857520e+00	-1.9275454946e+00
 2.2248528394e-01	 1.3524067472e+00	-1.9198324347e+00
 2.1054724718e-01	 1.3543166327e+00	-1.9129270656e+00
 1.9862718888e-01	 1.3561161117e+00	-1.9066816572e+00
 1.8672648332e-01	 1.3578059078e+00	-1.9009359470e+00
 1.7484648388e-01	 1.3593867641e+00	-1.8955178181e+00
 1.6298852279e-01	 1.3608594430e+00	-1.8902439481e+00
 1.5115391087e-01	 1.3622247249e+00	-1.8849204289e+00
 1.3934393727e-01	 1.3634834085e+00	-1.8793433562e+00
 1.2755986929e-01	 1.3646363094e+00	-1.8732993898e+00
 1.1580295218e-01	 1.3656842599e+00	-1.8665662839e+00
 2.3594934840e-01	 1.3590802268e+00	-1.8599767230e+00
 2.2391775810e-01	 1.3611142342e+00	-1.8512347110e+00
 2.1190285815e-01	 1.3630364165e+00	-1.8433756438e+00
 1.9990605241e-01	 1.3648474815e+00	-1.8362466616e+00
 1.8792872401e-01	 1.3665481573e+00	-1.8296824858e+00
 1.7597223506e-01	 1.3681391920e+00	-1.8235061144e+00
 1.6403792634e-01	 1.3696213527e+00	-1.8175294860e+00
 1.5212711713e-01	 1.3709954251e+00	-1.8115541112e+00
 1.4024110487e-01	 1.3722622128e+00	-1.8053716725e+00
 1.2838116504e-01	 1.3734225366e+00	-1.7987645914e+00
 1.1654855087e-01	 1.3744772344e+00	-1.7915065639e+00
 2.3745879252e-01	 1.3677747016e+00	-1.7951377233e+00
 2.2535023226e-01	 1.3698217213e+00	-1.7853710184e+00
 2.1325846911e-01	 1.3717562003e+00	-1.7765567040e+00
 2.0118491594e-01	 1.3735788513e+00	-1.7685390278e+00
 1.8913096471e-01	 1.3752904069e+00	-1.7611498764e+00
 1.7709798623e-01	 1.3768916200e+00	-1.7542094877e+00
 1.6508732990e-01	 1.3783832625e+00	-1.7475271288e+00
 1.5310032339e-01	 1.3797661253e+00	-1.7409017386e+00
 1.4113827248e-01	 1.3810410170e+00	-1.7341225368e+00
 1.2920246078e-01	 1.3822087638e+00	-1.7269695975e+00
 1.1729414957e-01	 1.3832702088e+00	-1.7192143890e+00
 2.3896823664e-01	 1.3764691764e+00	-1.7329571153e+00
 2.2678270641e-01	 1.3785292083e+00	-1.7221766083e+00
 2.1461408008e-01	 1.3804759842e+00	-1.7124107615e+00
 2.0246377947e-01	 1.3823102211e+00	-1.7035031257e+00
 1.9033320540e-01	 1.3840326565e+00	-1.6952848954e+00
 1.7822373741e-01	 1.3856440479e+00	-1.6875756363e+00
 1.6613673345e-01	 1.3871451723e+00	-1.6801839767e+00
 1.5407352965e-01	 1.3885368255e+00	-1.6729082607e+00
 1.4203544009e-01	 1.3898198212e+00	-1.6655371654e+00
 1.3002375653e-01	 1.3909949910e+00	-1.6578502796e+00
 1.1803974826e-01	 1.3920631832e+00	-1.6496186476e+00
 2.4047768077e-01	 1.3851636512e+00	-1.6733677764e+00
 2.2821518057e-01	 1.3872366953e+00	-1.6615907882e+00
 2.1596969105e-01	 1.3891957680e+00	-1.6508822020e+00
 2.0374264300e-01	 1.3910415909e+00	-1.6410870274e+00
 1.9153544609e-01	 1.3927749060e+00	-1.6320378706e+00
 1.7934948858e-01	 1.3943964758e+00	-1.6235556772e+00
 1.6718613700e-01	 1.3959070821e+00	-1.6154504352e+00
 1.5504673591e-01	 1.3973075256e+00	-1.6075218391e+00
 1.4293260769e-01	 1.3985986254e+00	-1.5995599130e+00
 1.3084505227e-01	 1.3997812182e+00	-1.5913455956e+00
 1.1878534695e-01	 1.4008561577e+00	-1.5826512853e+00
 2.4198712489e-01	 1.3938581260e+00	-1.6163067093e+00
 2.2964765473e-01	 1.3959441823e+00	-1.6035567998e+00
 2.1732530201e-01	 1.3979155518e+00	-1.5919191697e+00
 2.0502150652e-01	 1.3997729606e+00	-1.5812424032e+00
 1.9273768679e-01	 1.4015171556e+00	-1.5713625847e+00
 1.8047523976e-01	 1.4031489038e+00	-1.5621040560e+00
 1.6823554055e-01	 1.4046689919e+00	-1.5532801306e+00
 1.5601994218e-01	 1.4060782258e+00	-1.5446937665e+00
 1.4382977530e-01	 1.4073774296e+00	-1.5361381965e+00
 1.3166634801e-01	 1.4085674454e+00	-1.5273975161e+00
 1.1953094565e-01	 1.4096491321e+00	-1.5182472315e+00
 2.4349656902e-01	 1.4025526008e+00	-1.5617149136e+00
 2.3108012889e-01	 1.4046516693e+00	-1.5480217005e+00
 2.1868091298e-01	 1.4066353356e+00	-1.5354734575e+00
 2.0630037005e-01	 1.4085043304e+00	-1.5239244204e+00
 1.9393992748e-01	 1.4102594052e+00	-1.5132161816e+00
 1.8160099093e-01	 1.4119013317e+00	-1.5031784603e+00
 1.6928494410e-01	 1.4134309017e+00	-1.4936298283e+00
 1.5699314844e-01	 1.4148489260e+00	-1.4843783905e+00
 1.4472694290e-01	 1.4161562339e+00	-1.4752224206e+00
 1.3248764376e-01	 1.4173536725e+00	-1.4659509527e+00
 1.2027654434e-01	 1.4184421065e+00	-1.4563443294e+00
 2.4500601314e-01	 1.4112470756e+00	-1.5095372610e+00
 2.3251260305e-01	 1.4133591563e+00	-1.4949362486e+00
 2.2003652394e-01	 1.4153551195e+00	-1.4815004018e+00
 2.0757923358e-01	 1.4172357002e+00	-1.4690916465e+00
 1.9514216818e-01	 1.4190016547e+00	-1.4575590760e+00
 1.8272674211e-01	 1.4206537596e+00	-1.4467397351e+00
 1.7033434766e-01	 1.4221928115e+00	-1.4364593542e+00
 1.5796635470e-01	 1.4236196261e+00	-1.4265330383e+00
 1.4562411051e-01	 1.4249350381e+00	-1.4167659070e+00
 1.3330893950e-01	 1.4261398997e+00	-1.4069536885e+00
 1.2102214303e-01	 1.4272350809e+00	-1.3968832675e+00
 2.4651545727e-01	 1.4199415504e+00	-1.4597223744e+00
 2.3394507721e-01	 1.4220666433e+00	-1.4442547921e+00
 2.2139213491e-01	 1.4240749033e+00	-1.4299587797e+00
 2.0885809711e-01	 1.4259670700e+00	-1.4167059534e+00
 1.9634440887e-01	 1.4277439043e+00	-1.4043548661e+00
 1.8385249329e-01	 1.4294061875e+00	-1.3927518011e+00
 1.7138375121e-01	 1.4309547213e+00	-1.3817315177e+00
 1.5893956096e-01	 1.4323903263e+00	-1.3711179445e+00
 1.4652127812e-01	 1.4337138423e+00	-1.3607248249e+00
 1.3413023525e-01	 1.4349261269e+00	-1.3503563117e+00
 1.2176774173e-01	 1.4360280554e+00	-1.3398075141e+00
 1.1431175480e-01	 1.3480983111e+00	-2.0252885465e+00
 1.0273620124e-01	 1.3490298559e+00	-2.0200203722e+00
 9.1189804181e-02	 1.3498595259e+00	-2.0160900247e+00
 7.9673699552e-02	 1.3505881879e+00	-2.0132837236e+00
 6.8189001638e-02	 1.3512167222e+00	-2.0113814282e+00
 5.6736802946e-02	 1.3517460228e+00	-2.0101571332e+00
 4.5318174109e-02	 1.3521769965e+00	-2.0093791445e+00
 3.3934163799e-02	 1.3525105625e+00	-2.0088103383e+00
 2.2585798660e-02	 1.3527476514e+00	-2.0082084018e+00
 1.1274083250e-02	 1.3528892052e+00	-2.0073260600e+00
 0.0000000000e+00	 1.3529361765e+00	-2.0059112878e+00
 1.1505735349e-01	 1.3568912855e+00	-1.9444677931e+00
 1.0340629836e-01	 1.3578289063e+00	-1.9386307142e+00
 9.1784589896e-02	 1.3586639879e+00	-1.9341904692e+00
 8.0193371447e-02	 1.3593974025e+00	-1.9309355437e+00
 6.8633764564e-02	 1.3600300364e+00	-1.9286477096e+00
 5.7106868879e-02	 1.3605627894e+00	-1.9271023237e+00
 4.5613762008e-02	 1.3609965742e+00	-1.9260686051e+00
 3.4155499464e-02	 1.3613323158e+00	-1.9253098938e+00
 2.2733114586e-02	 1.3615709511e+00	-1.9245838927e+00
 1.1347618485e-02	 1.3617134283e+00	-1.9236428923e+00
 0.0000000000e+00	 1.3617607059e+00	-1.9222339819e+00
 1.1580295218e-01	 1.3656842599e+00	-1.8665662839e+00
 1.0407639548e-01	 1.3666279567e+00	-1.8602102778e+00
 9.2379375611e-02	 1.3674684499e+00	-1.8553104425e+00
 8.0713043343e-02	 1.3682066172e+00	-1.8516555316e+00
 6.9078527490e-02	 1.3688433507e+00	-1.8490271936e+00
 5.7476934812e-02	 1.3693795561e+00	-1.8472002729e+00
 4.5909349907e-02	 1.3698161518e+00	-1.8459430895e+00
 3.4376835129e-02	 1.3701540692e+00	-1.8450176991e+00
 2.2880430512e-02	 1.3703942509e+00	-1.8441801341e+00
 1.1421153720e-02	 1.3705376513e+00	-1.8431806285e+00
 0.0000000000e+00	 1.3705852353e+00	-1.8417638274e+00
 1.1654855087e-01	 1.3744772344e+00	-1.7915065639e+00
 1.0474649260e-01	 1.3754270071e+00	-1.7846738609e+00
 9.2974161327e-02	 1.3762729118e+00	-1.7793570711e+00
 8.1232715239e-02	 1.3770158318e+00	-1.7753432642e+00
 6.9523290417e-02	 1.3776566650e+00	-1.7724120740e+00
 5.7847000746e-02	 1.3781963227e+00	-1.7703360038e+00
 4.6204937807e-02	 1.3786357295e+00	-1.7688807084e+00
 3.4598170794e-02	 1.3789758225e+00	-1.7678052556e+00
 2.3027746439e-02	 1.3792175507e+00	-1.7668623678e+00
 1.1494688955e-02	 1.3793618744e+00	-1.7657986460e+00
 0.0000000000e+00	 1.3794097647e+00	-1.7643547780e+00
 1.1729414957e-01	 1.3832702088e+00	-1.7192143890e+00
 1.0541658971e-01	 1.3842260576e+00	-1.7119394427e+00
 9.3568947043e-02	 1.3850773738e+00	-1.7062406140e+00
 8.1752387136e-02	 1.3858250465e+00	-1.7019013804e+00
 6.9968053344e-02	 1.3864699792e+00	-1.6986975148e+00
 5.8217066680e-02	 1.3870130893e+00	-1.6963973951e+00
 4.6500525707e-02	 1.3874553072e+00	-1.6947622894e+00
 3.4819506460e-02	 1.3877975758e+00	-1.6935466195e+00
 2.3175062365e-02	 1.3880408504e+00	-1.6924982025e+00
 1.1568224191e-02	 1.3881860974e+00	-1.6913584752e+00
 0.0000000000e+00	 1.3882342941e+00	-1.6898626997e+00
 1.1803974826e-01	 1.3920631832e+00	-1.6496186476e+00
 1.0608668683e-01	 1.3930251080e+00	-1.6419281068e+00
 9.4163732759e-02	 1.3938818357e+00	-1.6358743860e+00
 8.2272059032e-02	 1.3946342611e+00	-1.6312355060e+00
 7.0412816271e-02	 1.3952832935e+00	-1.6277815759e+00
 5.8587132614e-02	 1.3958298560e+00	-1.6252751078e+00
 4.6796113607e-02	 1.3962748848e+00	-1.6234713060e+00
 3.5040842126e-02	 1.3966193292e+00	-1.6221183317e+00
 2.3322378292e-02	 1.3968641502e+00	-1.6209575466e+00
 1.1641759426e-02	 1.3970103204e+00	-1.6197237355e+00
 0.0000000000e+00	 1.3970588236e+00	-1.6181453112e+00
 1.1878534695e-01	 1.4008561577e+00	-1.5826512853e+00
 1.0675678395e-01	 1.4018241584e+00	-1.5745639656e+00
 9.4758518475e-02	 1.4026862977e+00	-1.5681746832e+00
 8.2791730928e-02	 1.4034434758e+00	-1.5632541797e+00
 7.0857579198e-02	 1.4040966078e+00	-1.5595651406e+00
 5.8957198548e-02	 1.4046466226e+00	-1.5568625148e+00
 4.7091701508e-02	 1.4050944625e+00	-1.5548938085e+00
 3.5262177791e-02	 1.4054410825e+00	-1.5533993521e+00
 2.3469694219e-02	 1.4056874499e+00	-1.5521125441e+00
 1.1715294662e-02	 1.4058345435e+00	-1.5507600740e+00
 0.0000000000e+00	 1.4058833530e+00	-1.5490621250e+00
 1.1953094565e-01	 1.4096491321e+00	-1.5182472315e+00
 1.0742688107e-01	 1.4106232089e+00	-1.5097740887e+00
 9.5353304191e-02	 1.4114907596e+00	-1.5030607118e+00
 8.3311402825e-02	 1.4122526905e+00	-1.4978687833e+00
 7.1302342125e-02	 1.4129099221e+00	-1.4939518466e+00
 5.9327264481e-02	 1.4134633892e+00	-1.4910556330e+00
 4.7387289408e-02	 1.4139140402e+00	-1.4889183585e+00
 3.5483513457e-02	 1.4142628359e+00	-1.4872709947e+00
 2.3617010145e-02	 1.4145107497e+00	-1.4858375130e+00
 1.1788829897e-02	 1.4146587665e+00	-1.4843351066e+00
 0.0000000000e+00	 1.4147078824e+00	-1.4824743918e+00
 1.2027654434e-01	 1.4184421065e+00	-1.4563443294e+00
 1.0809697818e-01	 1.4194222593e+00	-1.4474884320e+00
 9.5948089907e-02	 1.4202952216e+00	-1.4404545187e+00
 8.3831074721e-02	 1.4210619051e+00	-1.4349934729e+00
 7.1747105052e-02	 1.4217232363e+00	-1.4308480192e+00
 5.9697330415e-02	 1.4222801559e+00	-1.4277530575e+00
 4.7682877308e-02	 1.4227336178e+00	-1.4254359644e+00
 3.5704849122e-02	 1.4230845892e+00	-1.4236168664e+00
 2.3764326072e-02	 1.4233340495e+00	-1.4220088855e+00
 1.1862365133e-02	 1.4234829896e+00	-1.4203183608e+00
 0.0000000000e+00	 1.4235324118e+00	-1.4182450468e+00
 1.2102214303e-01	 1.4272350809e+00	-1.3968832675e+00
 1.0876707530e-01	 1.4282213097e+00	-1.3876397714e+00
 9.6542875622e-02	 1.4290996835e+00	-1.3802809252e+00
 8.4350746617e-02	 1.4298711198e+00	-1.3745451136e+00
 7.2191867979e-02	 1.4305365506e+00	-1.3701626065e+00
 6.0067396348e-02	 1.4310969225e+00	-1.3668558992e+00
 4.7978465207e-02	 1.4315531955e+00	-1.3643400202e+00
 3.5926184787e-02	 1.4319063426e+00	-1.3623228067e+00
 2.3911641998e-02	 1.4321573492e+00	-1.3605051511e+00
 1.1935900368e-02	 1.4323072126e+00	-1.3585812214e+00
 0.0000000000e+00	 1.4323569412e+00	-1.3562386576e+00
 1.2176774173e-01	 1.4360280554e+00	-1.3398075141e+00
 1.0943717242e-01	 1.4370203602e+00	-1.3301636368e+00
 9.7137661338e-02	 1.4379041455e+00	-1.3224674624e+00
 8.4870418512e-02	 1.4386803344e+00	-1.3164432165e+00
 7.2636630905e-02	 1.4393498649e+00	-1.3118071171e+00
 6.0437462281e-02	 1.4399136891e+00	-1.3082677231e+00
 4.8274053106e-02	 1.4403727731e+00	-1.3055262466e+00
 3.6147520452e-02	 1.4407280959e+00	-1.3032768314e+00
 2.4058957924e-02	 1.4409806490e+00	-1.3012068009e+00
 1.2009435603e-02	 1.4411314357e+00	-1.2989968771e+00
 0.0000000000e+00	 1.4411814706e+00	-1.2963213739e+00
 1.4411814706e+00	 0.0000000000e+00	 3.8101929055e+00
 1.4411314357e+00	 1.2009435603e-02	 3.8087504272e+00
 1.4409806490e+00	 2.4058957924e-02	 3.8050551664e+00
 1.4407280959e+00	 3.6147520452e-02	 3.7990949995e+00
 1.4403727731e+00	 4.8274053106e-02	 3.7908623084e+00
 1.4399136891e+00	 6.0437462281e-02	 3.7803550215e+00
 1.4393498649e+00	 7.2636630905e-02	 3.7675776246e+00
 1.4386803344e+00	 8.4870418512e-02	 3.7525421390e+00
 1.4379041455e+00	 9.7137661338e-02	 3.7352690633e+00
 1.4370203602e+00	 1.0943717242e-01	 3.7157882750e+00
 1.4360280554e+00	 1.2176774173e-01	 3.6941398891e+00
 1.4500045000e+00	 0.0000000000e+00	 3.8051174836e+00
 1.4499541587e+00	 1.2082958338e-02	 3.8038220543e+00
 1.4498024489e+00	 2.4206248808e-02	 3.8001965832e+00
 1.4495483497e+00	 3.6368818493e-02	 3.7942372005e+00
 1.4491908516e+00	 4.8569590760e-02	 3.7859455846e+00
 1.4487289571e+00	 6.0807465309e-02	 3.7753300176e+00
 1.4481616810e+00	 7.3081318229e-02	 3.7624064080e+00
 1.4474880517e+00	 8.5390002073e-02	 3.7471992775e+00
 1.4467071109e+00	 9.7732345950e-02	 3.7297427095e+00
 1.4458179149e+00	 1.1010715563e-01	 3.7100812544e+00
 1.4448195352e+00	 1.2251321368e-01	 3.6882707890e+00
 1.4588275294e+00	 0.0000000000e+00	 3.7994861870e+00
 1.4587768818e+00	 1.2156481073e-02	 3.7982776383e+00
 1.4586242489e+00	 2.4353539692e-02	 3.7946780502e+00
 1.4583686035e+00	 3.6590116533e-02	 3.7886896015e+00
 1.4580089301e+00	 4.8865128414e-02	 3.7803210434e+00
 1.4575442250e+00	 6.1177468337e-02	 3.7695887706e+00
 1.4569734972e+00	 7.3526005553e-02	 3.7565178566e+00
 1.4562957689e+00	 8.5909585633e-02	 3.7411430524e+00
 1.4555100762e+00	 9.8327030562e-02	 3.7235097424e+00
 1.4546154697e+00	 1.1077713885e-01	 3.7036748551e+00
 1.4536110149e+00	 1.2325868564e-01	 3.6817077252e+00
 1.4676505588e+00	 0.0000000000e+00	 3.7932408787e+00
 1.4675996049e+00	 1.2230003808e-02	 3.7920661671e+00
 1.4674460489e+00	 2.4500830576e-02	 3.7884549331e+00
 1.4671888574e+00	 3.6811414574e-02	 3.7824132383e+00
 1.4668270086e+00	 4.9160666067e-02	 3.7739547221e+00
 1.4663594930e+00	 6.1547471364e-02	 3.7631016907e+00
 1.4657853134e+00	 7.3970692876e-02	 3.7498861673e+00
 1.4651034862e+00	 8.6429169193e-02	 3.7343509028e+00
 1.4643130416e+00	 9.8921715174e-02	 3.7165503418e+00
 1.4634130244e+00	 1.1144712206e-01	 3.6965515402e+00
 1.4624024947e+00	 1.2400415759e-01	 3.6744350319e+00
 1.4764735882e+00	 0.0000000000e+00	 3.7863240576e+00
 1.4764223280e+00	 1.2303526542e-02	 3.7851371540e+00
 1.4762678488e+00	 2.4648121460e-02	 3.7814830222e+00
 1.4760091112e+00	 3.7032712614e-02	 3.7753694776e+00
 1.4756450871e+00	 4.9456203720e-02	 3.7668129026e+00
 1.4751747609e+00	 6.1917474391e-02	 3.7558393536e+00
 1.4745971296e+00	 7.4415380199e-02	 3.7424856284e+00
 1.4739112034e+00	 8.6948752753e-02	 3.7268002903e+00
 1.4731160069e+00	 9.9516399786e-02	 3.7088446457e+00
 1.4722105792e+00	 1.1211710527e-01	 3.6886936706e+00
 1.4711939745e+00	 1.2474962954e-01	 3.6664368830e+00
 1.4852966177e+00	 0.0000000000e+00	 3.7786788395e+00
 1.4852450511e+00	 1.2377049277e-02	 3.7774406216e+00
 1.4850896488e+00	 2.4795412343e-02	 3.7737185169e+00
 1.4848293650e+00	 3.7254010654e-02	 3.7675200036e+00
 1.4844631656e+00	 4.9751741372e-02	 3.7588620996e+00
 1.4839900289e+00	 6.2287477417e-02	 3.7477724896e+00
 1.4834089457e+00	 7.4860067522e-02	 3.7342906105e+00
 1.4827189207e+00	 8.7468336312e-02	 3.7184686915e+00
 1.4819189723e+00	 1.0011108440e-01	 3.7003727441e+00
 1.4810081339e+00	 1.1278708848e-01	 3.6800834993e+00
 1.4799854543e+00	 1.2549510150e-01	 3.6576972878e+00
 1.4941196471e+00	 0.0000000000e+00	 3.7702489390e+00
 1.4940677742e+00	 1.2450572012e-02	 3.7689270849e+00
 1.4939114487e+00	 2.4942703227e-02	 3.7651180117e+00
 1.4936496188e+00	 3.7475308694e-02	 3.7588268055e+00
 1.4932812441e+00	 5.0047279025e-02	 3.7500690497e+00
 1.4928052968e+00	 6.2657480444e-02	 3.7388719736e+00
 1.4922207619e+00	 7.5304754845e-02	 3.7252755576e+00
 1.4915266379e+00	 8.7987919871e-02	 3.7093335901e+00
 1.4907219377e+00	 1.0070576901e-01	 3.6911146720e+00
 1.4898056887e+00	 1.1345707170e-01	 3.6707031663e+00
 1.4887769341e+00	 1.2624057345e-01	 3.6482000870e+00
 1.5029426765e+00	 0.0000000000e+00	 3.7609786516e+00
 1.5028904973e+00	 1.2524094746e-02	 3.7595475360e+00
 1.5027332487e+00	 2.5089994111e-02	 3.7556384820e+00
 1.5024698726e+00	 3.7696606734e-02	 3.7492521648e+00
 1.5020993226e+00	 5.0342816678e-02	 3.7404007001e+00
 1.5016205648e+00	 6.3027483470e-02	 3.7291088160e+00
 1.5010325781e+00	 7.5749442167e-02	 3.7154149792e+00
 1.5003343552e+00	 8.8507503430e-02	 3.6993724701e+00
 1.4995249030e+00	 1.0130045362e-01	 3.6810504040e+00
 1.4986032435e+00	 1.1412705491e-01	 3.6605346935e+00
 1.4975684139e+00	 1.2698604541e-01	 3.6379289485e+00
 1.5117657059e+00	 0.0000000000e+00	 3.7508128371e+00
 1.5117132204e+00	 1.2597617481e-02	 3.7492534292e+00
 1.5115550487e+00	 2.5237284994e-02	 3.7452372710e+00
 1.5112901264e+00	 3.7917904774e-02	 3.7387586437e+00
 1.5109174011e+00	 5.0638354330e-02	 3.7298241982e+00
 1.5104358327e+00	 6.3397486497e-02	 3.7184541529e+00
 1.5098443942e+00	 7.6194129490e-02	 3.7046834415e+00
 1.5091420724e+00	 8.9027086989e-02	 3.6885628086e+00
 1.5083278684e+00	 1.0189513823e-01	 3.6701598479e+00
 1.5074007982e+00	 1.1479703812e-01	 3.6495599799e+00
 1.5063598937e+00	 1.2773151736e-01	 3.6268673645e+00
 1.5205887353e+00	 0.0000000000e+00	 3.7396969030e+00
 1.5205359435e+00	 1.2671140216e-02	 3.7379966658e+00
 1.5203768486e+00	 2.5384575878e-02	 3.7338720766e+00
 1.5201103802e+00	 3.8139202814e-02	 3.7273090733e+00
 1.5197354796e+00	 5.0933891983e-02	 3.7183068816e+00
 1.5192511007e+00	 6.3767489523e-02	 3.7068792376e+00
 1.5186562104e+00	 7.6638816813e-02	 3.6930555606e+00
 1.5179497897e+00	 8.9546670548e-02	 3.6768820693e+00
 1.5171308337e+00	 1.0248982284e-01	 3.6584228393e+00
 1.5161983530e+00	 1.1546702133e-01	 3.6377607973e+00
 1.5151513734e+00	 1.2847698931e-01	 3.6149986474e+00
 1.5294117647e+00	 0.0000000000e+00	 3.7275767888e+00
 1.5293586666e+00	 1.2744662951e-02	 3.7257295810e+00
 1.5291986486e+00	 2.5531866762e-02	 3.7215009389e+00
 1.5289306340e+00	 3.8360500855e-02	 3.7148665433e+00
 1.5285535581e+00	 5.1229429637e-02	 3.7058162682e+00
 1.5280663686e+00	 6.4137492550e-02	 3.6943554319e+00
 1.5274680266e+00	 7.7083504135e-02	 3.6805059944e+00
 1.5267575069e+00	 9.0066254107e-02	 3.6643076962e+00
 1.5259337991e+00	 1.0308450745e-01	 3.6458191369e+00
 1.5249959077e+00	 1.1613700454e-01	 3.6251187864e+00
 1.5239428532e+00	 1.2922246127e-01	 3.6023059271e+00
 1.4360280554e+00	 1.2176774173e-01	 3.6941398891e+00
 1.4349261269e+00	 1.3413023525e-01	 3.6701198339e+00
 1.4337138423e+00	 1.4652127812e-01	 3.6435045981e+00
 1.4323903263e+00	 1.5893956096e-01	 3.6143104340e+00
 1.4309547213e+00	 1.7138375121e-01	 3.5825657294e+00
 1.4294061875e+00	 1.8385249329e-01	 3.5483116048e+00
 1.4277439043e+00	 1.9634440887e-01	 3.5116024513e+00
 1.4259670700e+00	 2.0885809711e-01	 3.4725064040e+00
 1.4240749033e+00	 2.2139213491e-01	 3.4311057508e+00
 1.4220666433e+00	 2.3394507721e-01	 3.3874972721e+00
 1.4199415504e+00	 2.4651545727e-01	 3.3417925106e+00
 1.4448195352e+00	 1.2251321368e-01	 3.6882707890e+00
 1.4437108606e+00	 1.3495139139e-01	 3.6641136104e+00
 1.4424911543e+00	 1.4741829322e-01	 3.6373722877e+00
 1.4411595356e+00	 1.5991260180e-01	 3.6080496646e+00
 1.4397151417e+00	 1.7243297638e-01	 3.5761614321e+00
 1.4381571277e+00	 1.8497805311e-01	 3.5417367461e+00
 1.4364846678e+00	 1.9754644521e-01	 3.5048187824e+00
 1.4346969556e+00	 2.1013674326e-01	 3.4654652271e+00
 1.4327932049e+00	 2.2274751545e-01	 3.4237486986e+00
 1.4307726502e+00	 2.3537730787e-01	 3.3797571003e+00
 1.4286345473e+00	 2.4802464481e-01	 3.3335939006e+00
 1.4536110149e+00	 1.2325868564e-01	 3.6817077252e+00
 1.4524955943e+00	 1.3577254752e-01	 3.6574152782e+00
 1.4512684663e+00	 1.4831530833e-01	 3.6305471306e+00
 1.4499287449e+00	 1.6088564264e-01	 3.6010945111e+00
 1.4484755621e+00	 1.7348220156e-01	 3.5690622584e+00
 1.4469080679e+00	 1.8610361293e-01	 3.5344694573e+00
 1.4452254314e+00	 1.9874848154e-01	 3.4973500095e+00
 1.4434268413e+00	 2.1141538940e-01	 3.4577531376e+00
 1.4415115065e+00	 2.2410289599e-01	 3.4157438196e+00
 1.4394786571e+00	 2.3680953854e-01	 3.3714031516e+00
 1.4373275442e+00	 2.4953383236e-01	 3.3248286359e+00
 1.4624024947e+00	 1.2400415759e-01	 3.6744350319e+00
 1.4612803280e+00	 1.3659370366e-01	 3.6500107659e+00
 1.4600457783e+00	 1.4921232343e-01	 3.6230164613e+00
 1.4586979543e+00	 1.6185868347e-01	 3.5934334986e+00
 1.4572359825e+00	 1.7453142673e-01	 3.5612576826e+00
 1.4556590081e+00	 1.8722917275e-01	 3.5264998936e+00
 1.4539661949e+00	 1.9995051788e-01	 3.4891866731e+00
 1.4521567269e+00	 2.1269403555e-01	 3.4493607391e+00
 1.4502298082e+00	 2.2545827653e-01	 3.4070814310e+00
 1.4481846640e+00	 2.3824176920e-01	 3.3624250796e+00
 1.4460205411e+00	 2.5104301991e-01	 3.3154853013e+00
 1.4711939745e+00	 1.2474962954e-01	 3.6664368830e+00
 1.4700650617e+00	 1.3741485980e-01	 3.6418857839e+00
 1.4688230902e+00	 1.5010933854e-01	 3.6147673357e+00
 1.4674671636e+00	 1.6283172431e-01	 3.5850548127e+00
 1.4659964030e+00	 1.7558065191e-01	 3.5527367779e+00
 1.4644099482e+00	 1.8835473257e-01	 3.5178177484e+00
 1.4627069585e+00	 2.0115255422e-01	 3.4803187932e+00
 1.4608866125e+00	 2.1397268170e-01	 3.4402780585e+00
 1.4589481098e+00	 2.2681365707e-01	 3.3977512202e+00
 1.4568906709e+00	 2.3967399987e-01	 3.3528118598e+00
 1.4547135380e+00	 2.5255220746e-01	 3.3055517610e+00
 1.4799854543e+00	 1.2549510150e-01	 3.6576972878e+00
 1.4788497954e+00	 1.3823601594e-01	 3.6330258210e+00
 1.4776004022e+00	 1.5100635364e-01	 3.6057865298e+00
 1.4762363729e+00	 1.6380476514e-01	 3.5759462994e+00
 1.4747568234e+00	 1.7662987708e-01	 3.5434882184e+00
 1.4731608884e+00	 1.8948029239e-01	 3.5084122572e+00
 1.4714477220e+00	 2.0235459056e-01	 3.4707358749e+00
 1.4696164981e+00	 2.1525132785e-01	 3.4304945535e+00
 1.4676664114e+00	 2.2816903761e-01	 3.3877422551e+00
 1.4655966777e+00	 2.4110623054e-01	 3.3425518015e+00
 1.4634065349e+00	 2.5406139501e-01	 3.2950151719e+00
 1.4887769341e+00	 1.2624057345e-01	 3.6482000870e+00
 1.4876345291e+00	 1.3905717208e-01	 3.6234161420e+00
 1.4863777142e+00	 1.5190336875e-01	 3.5960605382e+00
 1.4850055822e+00	 1.6477780598e-01	 3.5660954650e+00
 1.4835172438e+00	 1.7767910225e-01	 3.5335002809e+00
 1.4819118286e+00	 1.9060585221e-01	 3.4982722012e+00
 1.4801884855e+00	 2.0355662689e-01	 3.4604269141e+00
 1.4783463837e+00	 2.1652997400e-01	 3.4199991201e+00
 1.4763847130e+00	 2.2952441815e-01	 3.3770429929e+00
 1.4743026846e+00	 2.4253846121e-01	 3.3316325595e+00
 1.4720995319e+00	 2.5557058256e-01	 3.2838619973e+00
 1.4975684139e+00	 1.2698604541e-01	 3.6379289485e+00
 1.4964192628e+00	 1.3987832822e-01	 3.6130417845e+00
 1.4951550262e+00	 1.5280038385e-01	 3.5855755725e+00
 1.4937747915e+00	 1.6575084681e-01	 3.5554894771e+00
 1.4922776642e+00	 1.7872832743e-01	 3.5227608468e+00
 1.4906627688e+00	 1.9173141203e-01	 3.4873859113e+00
 1.4889292491e+00	 2.0475866323e-01	 3.4493804031e+00
 1.4870762694e+00	 2.1780862014e-01	 3.4087801005e+00
 1.4851030147e+00	 2.3087979869e-01	 3.3656412902e+00
 1.4830086915e+00	 2.4397069187e-01	 3.3200411456e+00
 1.4807925288e+00	 2.5707977011e-01	 3.2720780206e+00
 1.5063598937e+00	 1.2773151736e-01	 3.6268673645e+00
 1.5052039965e+00	 1.4069948436e-01	 3.6018875573e+00
 1.5039323382e+00	 1.5369739896e-01	 3.5743175612e+00
 1.5025440008e+00	 1.6672388765e-01	 3.5441151644e+00
 1.5010380847e+00	 1.7977755260e-01	 3.5112574046e+00
 1.4994137089e+00	 1.9285697185e-01	 3.4757412722e+00
 1.4976700126e+00	 2.0596069957e-01	 3.4375843366e+00
 1.4958061550e+00	 2.1908726629e-01	 3.3968252908e+00
 1.4938213163e+00	 2.3223517923e-01	 3.3535244127e+00
 1.4917146984e+00	 2.4540292254e-01	 3.3077639405e+00
 1.4894855257e+00	 2.5858895766e-01	 3.2596483595e+00
 1.5151513734e+00	 1.2847698931e-01	 3.6149986474e+00
 1.5139887301e+00	 1.4152064050e-01	 3.5899380375e+00
 1.5127096502e+00	 1.5459441406e-01	 3.5622721480e+00
 1.5113132102e+00	 1.6769692849e-01	 3.5319590184e+00
 1.5097985051e+00	 1.8082677778e-01	 3.4989770523e+00
 1.5081646491e+00	 1.9398253167e-01	 3.4633257263e+00
 1.5064107762e+00	 2.0716273591e-01	 3.4250262176e+00
 1.5045360406e+00	 2.2036591244e-01	 3.3841219487e+00
 1.5025396179e+00	 2.3359055977e-01	 3.3406790454e+00
 1.5004207053e+00	 2.4683515321e-01	 3.2947867059e+00
 1.4981785226e+00	 2.6009814521e-01	 3.2465574794e+00
 1.5239428532e+00	 1.2922246127e-01	 3.6023059271e+00
 1.5227734638e+00	 1.4234179663e-01	 3.5771775694e+00
 1.5214869622e+00	 1.5549142916e-01	 3.5494246923e+00
 1.5200824195e+00	 1.6866996932e-01	 3.5190071936e+00
 1.5185589255e+00	 1.8187600295e-01	 3.4859065000e+00
 1.5169155893e+00	 1.9510809149e-01	 3.4501262783e+00
 1.5151515397e+00	 2.0836477224e-01	 3.4116930639e+00
 1.5132659262e+00	 2.2164455859e-01	 3.3706568024e+00
 1.5112579195e+00	 2.3494594031e-01	 3.3270913023e+00
 1.5091267122e+00	 2.4826738388e-01	 3.2810945960e+00
 1.5068715195e+00	 2.6160733276e-01	 3.2327892076e+00
 1.4199415504e+00	 2.4651545727e-01	 3.3417925106e+00
 1.4176992982e+00	 2.5909964687e-01	 3.2936688835e+00
 1.4153388396e+00	 2.7169827581e-01	 3.2428477101e+00
 1.4128595019e+00	 2.8430981862e-01	 3.1895538020e+00
 1.4102606362e+00	 2.9693272962e-01	 3.1340283942e+00
 1.4075416178e+00	 3.0956544337e-01	 3.0765289425e+00
 1.4047018470e+00	 3.2220637509e-01	 3.0173288369e+00
 1.4017407496e+00	 3.3485392108e-01	 2.9567170307e+00
 1.3986577775e+00	 3.4750645917e-01	 2.8949975831e+00
 1.3954524094e+00	 3.6016234922e-01	 2.8324891167e+00
 1.3921241513e+00	 3.7281993362e-01	 2.7695241880e+00
 1.4286345473e+00	 2.4802464481e-01	 3.3335939006e+00
 1.4263785678e+00	 2.6068587584e-01	 3.2849367935e+00
 1.4240036583e+00	 2.7336163461e-01	 3.2335255012e+00
 1.4215091420e+00	 2.8605038630e-01	 3.1796055732e+00
 1.4188943658e+00	 2.9875057578e-01	 3.1234399749e+00
 1.4161587013e+00	 3.1146062803e-01	 3.0653088540e+00
 1.4133015452e+00	 3.2417894856e-01	 3.0055092189e+00
 1.4103223197e+00	 3.3690392384e-01	 2.9443545310e+00
 1.4072204734e+00	 3.4963392179e-01	 2.8821742078e+00
 1.4039954818e+00	 3.6236729222e-01	 2.8193130372e+00
 1.4006468478e+00	 3.7510236738e-01	 2.7561305038e+00
 1.4373275442e+00	 2.4953383236e-01	 3.3248286359e+00
 1.4350578375e+00	 2.6227210481e-01	 3.2756986614e+00
 1.4326684771e+00	 2.7502499341e-01	 3.2237674555e+00
 1.4301587820e+00	 2.8779095398e-01	 3.1692969171e+00
 1.4275280953e+00	 3.0056842194e-01	 3.1125673268e+00
 1.4247757848e+00	 3.1335581269e-01	 3.0538770857e+00
 1.4219012434e+00	 3.2615152202e-01	 2.9935423650e+00
 1.4189038898e+00	 3.3895392660e-01	 2.9318966652e+00
 1.4157831693e+00	 3.5176138441e-01	 2.8692902851e+00
 1.4125385542e+00	 3.6457223523e-01	 2.8060896983e+00
 1.4091695444e+00	 3.7738480114e-01	 2.7426768394e+00
 1.4460205411e+00	 2.5104301991e-01	 3.3154853013e+00
 1.4437371071e+00	 2.6385833379e-01	 3.2659416252e+00
 1.4413332958e+00	 2.7668835221e-01	 3.2135589912e+00
 1.4388084220e+00	 2.8953152166e-01	 3.1586113498e+00
 1.4361618249e+00	 3.0238626810e-01	 3.1013919720e+00
 1.4333928683e+00	 3.1525099734e-01	 3.0422131664e+00
 1.4305009416e+00	 3.2812409548e-01	 2.9814059036e+00
 1.4274854599e+00	 3.4100392936e-01	 2.9193193477e+00
 1.4243458653e+00	 3.5388884703e-01	 2.8563202949e+00
 1.4210816266e+00	 3.6677717823e-01	 2.7927925186e+00
 1.4176922409e+00	 3.7966723490e-01	 2.7291360198e+00
 1.4547135380e+00	 2.5255220746e-01	 3.3055517610e+00
 1.4524163768e+00	 2.6544456276e-01	 3.2556520644e+00
 1.4499981145e+00	 2.7835171101e-01	 3.2028847328e+00
 1.4474580620e+00	 2.9127208935e-01	 3.1475315583e+00
 1.4447955545e+00	 3.0420411427e-01	 3.0898945677e+00
 1.4420099519e+00	 3.1714618200e-01	 3.0302957211e+00
 1.4391006398e+00	 3.3009666894e-01	 2.9690765152e+00
 1.4360670301e+00	 3.4305393212e-01	 2.9065974929e+00
 1.4329085612e+00	 3.5601630965e-01	 2.8432376560e+00
 1.4296246990e+00	 3.6898212123e-01	 2.7793937831e+00
 1.4262149375e+00	 3.8194966865e-01	 2.7154796501e+00
 1.4634065349e+00	 2.5406139501e-01	 3.2950151719e+00
 1.4610956464e+00	 2.6703079174e-01	 3.2448156153e+00
 1.4586629333e+00	 2.8001506981e-01	 3.1917285279e+00
 1.4561077021e+00	 2.9301265703e-01	 3.1360394209e+00
 1.4534292840e+00	 3.0602196043e-01	 3.0780549293e+00
 1.4506270354e+00	 3.1904136666e-01	 3.0181024961e+00
 1.4477003380e+00	 3.3206924241e-01	 2.9565299602e+00
 1.4446486002e+00	 3.4510393488e-01	 2.8937050470e+00
 1.4414712571e+00	 3.5814377228e-01	 2.8300147615e+00
 1.4381677714e+00	 3.7118706424e-01	 2.7658646825e+00
 1.4347376340e+00	 3.8423210241e-01	 2.7016781595e+00
 1.4720995319e+00	 2.5557058256e-01	 3.2838619973e+00
 1.4697749161e+00	 2.6861702071e-01	 3.2334171867e+00
 1.4673277520e+00	 2.8167842861e-01	 3.1800734659e+00
 1.4647573421e+00	 2.9475322471e-01	 3.1241160274e+00
 1.4620630136e+00	 3.0783980660e-01	 3.0658520521e+00
 1.4592441189e+00	 3.2093655132e-01	 3.0056103842e+00
 1.4563000362e+00	 3.3404181587e-01	 2.9437411068e+00
 1.4532301703e+00	 3.4715393765e-01	 2.8806150193e+00
 1.4500339530e+00	 3.6027123490e-01	 2.8166230141e+00
 1.4467108438e+00	 3.7339200724e-01	 2.7521753535e+00
 1.4432603305e+00	 3.8651453617e-01	 2.6877008465e+00
 1.4807925288e+00	 2.5707977011e-01	 3.2720780206e+00
 1.4784541858e+00	 2.7020324969e-01	 3.2214409756e+00
 1.4759925707e+00	 2.8334178740e-01	 3.1679018950e+00
 1.4734069821e+00	 2.9649379240e-01	 3.1117416984e+00
 1.4706967432e+00	 3.0965765276e-01	 3.0532641343e+00
 1.4678612024e+00	 3.2283173597e-01	 2.9927954500e+00
 1.4648997344e+00	 3.3601438933e-01	 2.9306839600e+00
 1.4618117405e+00	 3.4920394041e-01	 2.8672995137e+00
 1.4585966490e+00	 3.6239869752e-01	 2.8030328612e+00
 1.4552539162e+00	 3.7559695024e-01	 2.7382949171e+00
 1.4517830271e+00	 3.8879696993e-01	 2.6735159223e+00
 1.4894855257e+00	 2.5858895766e-01	 3.2596483595e+00
 1.4871334554e+00	 2.7178947866e-01	 3.2088704830e+00
 1.4846573895e+00	 2.8500514620e-01	 3.1551954410e+00
 1.4820566222e+00	 2.9823436008e-01	 3.0988960065e+00
 1.4793304727e+00	 3.1147549892e-01	 3.0402685995e+00
 1.4764782859e+00	 3.2472692063e-01	 2.9796329550e+00
 1.4734994326e+00	 3.3798696279e-01	 2.9173316889e+00
 1.4703933106e+00	 3.5125394317e-01	 2.8537297601e+00
 1.4671593449e+00	 3.6452616014e-01	 2.7892138303e+00
 1.4637969887e+00	 3.7780189324e-01	 2.7241915188e+00
 1.4603057236e+00	 3.9107940368e-01	 2.6590905550e+00
 1.4981785226e+00	 2.6009814521e-01	 3.2465574794e+00
 1.4958127251e+00	 2.7337570764e-01	 3.1956885300e+00
 1.4933222082e+00	 2.8666850500e-01	 3.1419350246e+00
 1.4907062622e+00	 2.9997492776e-01	 3.0855577959e+00
 1.4879642023e+00	 3.1329334509e-01	 3.0268421192e+00
 1.4850953694e+00	 3.2662210529e-01	 2.9660973830e+00
 1.4820991308e+00	 3.3995953626e-01	 2.9036566553e+00
 1.4789748807e+00	 3.5330394593e-01	 2.8398761460e+00
 1.4757220408e+00	 3.6665362276e-01	 2.7751345638e+00
 1.4723400611e+00	 3.8000683624e-01	 2.7098323675e+00
 1.4688284202e+00	 3.9336183744e-01	 2.6443909134e+00
 1.5068715195e+00	 2.6160733276e-01	 3.2327892076e+00
 1.5044919947e+00	 2.7496193661e-01	 3.1818772739e+00
 1.5019870269e+00	 2.8833186380e-01	 3.1281008798e+00
 1.4993559022e+00	 3.0171549544e-01	 3.0717052026e+00
 1.4965979319e+00	 3.1511119125e-01	 3.0129606356e+00
 1.4937124529e+00	 3.2851728995e-01	 2.9521624650e+00
 1.4906988290e+00	 3.4193210972e-01	 2.8896304419e+00
 1.4875564508e+00	 3.5535394869e-01	 2.8257082478e+00
 1.4842847367e+00	 3.6878108538e-01	 2.7607628540e+00
 1.4808831335e+00	 3.8221177925e-01	 2.6951837743e+00
 1.4773511167e+00	 3.9564427119e-01	 2.6293822102e+00
 1.3921241513e+00	 3.7281993362e-01	 2.7695241880e+00
 1.3886725372e+00	 3.8547753797e-01	 2.7050496638e+00
 1.3850971308e+00	 3.9813347216e-01	 2.6378482388e+00
 1.3813975249e+00	 4.1078603044e-01	 2.5680179533e+00
 1.3775733421e+00	 4.2343349180e-01	 2.4956584502e+00
 1.3736242346e+00	 4.3607412057e-01	 2.4208700650e+00
 1.3695498853e+00	 4.4870616704e-01	 2.3437528476e+00
 1.3653500079e+00	 4.6132786810e-01	 2.2644055153e+00
 1.3610243479e+00	 4.7393744782e-01	 2.1829243393e+00
 1.3565726823e+00	 4.8653311820e-01	 2.0994019661e+00
 1.3519948207e+00	 4.9911307980e-01	 2.0139261751e+00
 1.4006468478e+00	 3.7510236738e-01	 2.7561305038e+00
 1.3971741027e+00	 3.8783746261e-01	 2.6915226118e+00
 1.3935768073e+00	 4.0057087745e-01	 2.6241816983e+00
 1.3898545522e+00	 4.1330089571e-01	 2.5541746582e+00
 1.3860069574e+00	 4.2602578585e-01	 2.4815708501e+00
 1.3820336731e+00	 4.3874380157e-01	 2.4064412161e+00
 1.3779343803e+00	 4.5145318246e-01	 2.3288573332e+00
 1.3737087910e+00	 4.6415215458e-01	 2.2488903948e+00
 1.3693566489e+00	 4.7683893117e-01	 2.1666101238e+00
 1.3648777299e+00	 4.8951171327e-01	 2.0820836204e+00
 1.3602718422e+00	 5.0216869040e-01	 1.9953741441e+00
 1.4091695444e+00	 3.7738480114e-01	 2.7426768394e+00
 1.4056756681e+00	 3.9019738724e-01	 2.6779008245e+00
 1.4020564839e+00	 4.0300828274e-01	 2.6103764477e+00
 1.3983115795e+00	 4.1581576098e-01	 2.5401482711e+00
 1.3944405727e+00	 4.2861807990e-01	 2.4672642036e+00
 1.3904431117e+00	 4.4141348257e-01	 2.3917746409e+00
 1.3863188754e+00	 4.5420019787e-01	 2.3137315340e+00
 1.3820675741e+00	 4.6697644107e-01	 2.2331873871e+00
 1.3776889500e+00	 4.7974041452e-01	 2.1501941864e+00
 1.3731827774e+00	 4.9249030833e-01	 2.0648022614e+00
 1.3685488637e+00	 5.0522430101e-01	 1.9770590792e+00
 1.4176922409e+00	 3.7966723490e-01	 2.7291360198e+00
 1.4141772336e+00	 3.9255731188e-01	 2.6641561535e+00
 1.4105361604e+00	 4.0544568802e-01	 2.5964019765e+00
 1.4067686067e+00	 4.1833062625e-01	 2.5259043815e+00
 1.4028741880e+00	 4.3121037395e-01	 2.4526985141e+00
 1.3988525502e+00	 4.4408316357e-01	 2.3768229210e+00
 1.3947033704e+00	 4.5694721328e-01	 2.2983186243e+00
 1.3904263571e+00	 4.6980072755e-01	 2.2172281245e+00
 1.3860212510e+00	 4.8264189788e-01	 2.1335943330e+00
 1.3814878250e+00	 4.9546890339e-01	 2.0474594348e+00
 1.3768258853e+00	 5.0827991161e-01	 1.9588636836e+00
 1.4262149375e+00	 3.8194966865e-01	 2.7154796501e+00
 1.4226787991e+00	 3.9491723651e-01	 2.6502591506e+00
 1.4190158370e+00	 4.0788309331e-01	 2.5822264256e+00
 1.4152256340e+00	 4.2084549152e-01	 2.5114072166e+00
 1.4113078033e+00	 4.3380266800e-01	 2.4378324469e+00
 1.4072619888e+00	 4.4675284457e-01	 2.3615373654e+00
 1.4030878655e+00	 4.5969422869e-01	 2.2825606168e+00
 1.3987851402e+00	 4.7262501404e-01	 2.2009432378e+00
 1.3943535520e+00	 4.8554338123e-01	 2.1167275804e+00
 1.3897928726e+00	 4.9844749846e-01	 2.0299561660e+00
 1.3851029068e+00	 5.1133552222e-01	 1.9406704682e+00
 1.4347376340e+00	 3.8423210241e-01	 2.7016781595e+00
 1.4311803646e+00	 3.9727716114e-01	 2.6361791175e+00
 1.4274955135e+00	 4.1032049859e-01	 2.5678166409e+00
 1.4236826613e+00	 4.2336035679e-01	 2.4966196976e+00
 1.4197414186e+00	 4.3639496205e-01	 2.4226233869e+00
 1.4156714273e+00	 4.4942252558e-01	 2.3458680698e+00
 1.4114723605e+00	 4.6244124410e-01	 2.2663984224e+00
 1.4071439233e+00	 4.7544930052e-01	 2.1842624142e+00
 1.4026858530e+00	 4.8844486458e-01	 2.0995102118e+00
 1.3980979202e+00	 5.0142609352e-01	 2.0121930108e+00
 1.3933799283e+00	 5.1439113282e-01	 1.9223617960e+00
 1.4432603305e+00	 3.8651453617e-01	 2.6877008465e+00
 1.4396819301e+00	 3.9963708578e-01	 2.6218841545e+00
 1.4359751901e+00	 4.1275790388e-01	 2.5531382268e+00
 1.4321396885e+00	 4.2587522206e-01	 2.4815034960e+00
 1.4281750339e+00	 4.3898725610e-01	 2.4070274981e+00
 1.4240808659e+00	 4.5209220658e-01	 2.3297639767e+00
 1.4198568556e+00	 4.6518825951e-01	 2.2497719091e+00
 1.4155027064e+00	 4.7827358701e-01	 2.1671144555e+00
 1.4110181541e+00	 4.9134634793e-01	 2.0818578314e+00
 1.4064029677e+00	 5.0440468858e-01	 1.9940701059e+00
 1.4016569499e+00	 5.1744674343e-01	 1.9038199273e+00
 1.4517830271e+00	 3.8879696993e-01	 2.6735159223e+00
 1.4481834955e+00	 4.0199701041e-01	 2.6073412096e+00
 1.4444548666e+00	 4.1519530916e-01	 2.5381555981e+00
 1.4405967158e+00	 4.2839008733e-01	 2.4660190894e+00
 1.4366086492e+00	 4.4157955015e-01	 2.3909997810e+00
 1.4324903045e+00	 4.5476188758e-01	 2.3131729341e+00
 1.4282413507e+00	 4.6793527492e-01	 2.2326199617e+00
 1.4238614894e+00	 4.8109787349e-01	 2.1494273362e+00
 1.4193504551e+00	 4.9424783128e-01	 2.0636854205e+00
 1.4147080153e+00	 5.0738328364e-01	 1.9754872207e+00
 1.4099339714e+00	 5.2050235403e-01	 1.8849270654e+00
 1.4603057236e+00	 3.9107940368e-01	 2.6590905550e+00
 1.4566850610e+00	 4.0435693504e-01	 2.5925161270e+00
 1.4529345432e+00	 4.1763271445e-01	 2.5228320332e+00
 1.4490537431e+00	 4.3090495260e-01	 2.4501258171e+00
 1.4450422646e+00	 4.4417184420e-01	 2.3744941306e+00
 1.4408997430e+00	 4.5743156858e-01	 2.2960417552e+00
 1.4366258457e+00	 4.7068229033e-01	 2.2148805407e+00
 1.4322202725e+00	 4.8392215997e-01	 2.1311282615e+00
 1.4276827561e+00	 4.9714931463e-01	 2.0449073930e+00
 1.4230130629e+00	 5.1036187871e-01	 1.9563438094e+00
 1.4182109929e+00	 5.2355796463e-01	 1.8655654036e+00
 1.4688284202e+00	 3.9336183744e-01	 2.6443909134e+00
 1.4651866265e+00	 4.0671685968e-01	 2.5773736950e+00
 1.4614142197e+00	 4.2007011973e-01	 2.5071297261e+00
 1.4575107703e+00	 4.3341981787e-01	 2.4337819355e+00
 1.4534758799e+00	 4.4676413825e-01	 2.3574633939e+00
 1.4493091816e+00	 4.6010124958e-01	 2.2783162764e+00
 1.4450103408e+00	 4.7342930574e-01	 2.1964907417e+00
 1.4405790556e+00	 4.8674644646e-01	 2.1121437254e+00
 1.4360150572e+00	 5.0005079798e-01	 2.0254376515e+00
 1.4313181105e+00	 5.1334047377e-01	 1.9365390630e+00
 1.4264880145e+00	 5.2661357524e-01	 1.8456171724e+00
 1.4773511167e+00	 3.9564427119e-01	 2.6293822102e+00
 1.4736881920e+00	 4.0907678431e-01	 2.5618776945e+00
 1.4698938963e+00	 4.2250752502e-01	 2.4910098377e+00
 1.4659677976e+00	 4.3593468314e-01	 2.4169446729e+00
 1.4619094952e+00	 4.4935643230e-01	 2.3398594271e+00
 1.4577186201e+00	 4.6277093058e-01	 2.2599414165e+00
 1.4533948358e+00	 4.7617632115e-01	 2.1773868539e+00
 1.4489378386e+00	 4.8957073294e-01	 2.0923995689e+00
 1.4443473582e+00	 5.0295228133e-01	 2.0051896431e+00
 1.4396231580e+00	 5.1631906883e-01	 1.9159719626e+00
 1.4347650360e+00	 5.2966918584e-01	 1.8249646877e+00
 1.3519948207e+00	 4.9911307980e-01	 2.0139261751e+00
 1.3472897946e+00	 5.1167765648e-01	 1.9274694016e+00
 1.3424582464e+00	 5.2422288651e-01	 1.8412699642e+00
 1.3375000841e+00	 5.3674693882e-01	 1.7557701141e+00
 1.3324152499e+00	 5.4924797379e-01	 1.6714161830e+00
 1.3272037201e+00	 5.6172414397e-01	 1.5886566989e+00
 1.3218655059e+00	 5.7417359483e-01	 1.5079404252e+00
 1.3164006534e+00	 5.8659446561e-01	 1.4297143282e+00
 1.3108092439e+00	 5.9898489008e-01	 1.3510349884e+00
 1.3050913945e+00	 6.1134299734e-01	 1.2668354734e+00
 1.2992472579e+00	 6.2366691268e-01	 1.1774448006e+00
 1.3602718422e+00	 5.0216869040e-01	 1.9953741441e+00
 1.3555380116e+00	 5.1481018844e-01	 1.9075530550e+00
 1.3506768843e+00	 5.2743222138e-01	 1.8200271299e+00
 1.3456883677e+00	 5.4003294695e-01	 1.7333186125e+00
 1.3405724037e+00	 5.5261051427e-01	 1.6479538787e+00
 1.3353289685e+00	 5.6516306456e-01	 1.5644614103e+00
 1.3299580733e+00	 5.7768873197e-01	 1.4833696919e+00
 1.3244597645e+00	 5.9018564433e-01	 1.4050905511e+00
 1.3188341240e+00	 6.0265192397e-01	 1.3243723163e+00
 1.3130812695e+00	 6.1508568857e-01	 1.2384687159e+00
 1.3072013546e+00	 6.2748505191e-01	 1.1478521410e+00
 1.3685488637e+00	 5.0522430101e-01	 1.9770590792e+00
 1.3637862286e+00	 5.1794272040e-01	 1.8881272727e+00
 1.3588955221e+00	 5.3064155625e-01	 1.7995599848e+00
 1.3538766513e+00	 5.4331895508e-01	 1.7119466395e+00
 1.3487295575e+00	 5.5597305475e-01	 1.6258809140e+00
 1.3434542169e+00	 5.6860198516e-01	 1.5419585901e+00
 1.3380506407e+00	 5.8120386911e-01	 1.4607753251e+00
 1.3325188757e+00	 5.9377682304e-01	 1.3820144359e+00
 1.3268590041e+00	 6.0631895787e-01	 1.2993308897e+00
 1.3210711445e+00	 6.1882837979e-01	 1.2118172950e+00
 1.3151554513e+00	 6.3130319115e-01	 1.1200018484e+00
 1.3768258853e+00	 5.0827991161e-01	 1.9588636836e+00
 1.3720344456e+00	 5.2107525236e-01	 1.8690557619e+00
 1.3671141600e+00	 5.3385089112e-01	 1.7797157890e+00
 1.3620649349e+00	 5.4660496321e-01	 1.6914878051e+00
 1.3568867113e+00	 5.5933559522e-01	 1.6050202944e+00
 1.3515794653e+00	 5.7204090576e-01	 1.5209639312e+00
 1.3461432082e+00	 5.8471900625e-01	 1.4399692443e+00
 1.3405779869e+00	 5.9736800176e-01	 1.3602143366e+00
 1.3348838842e+00	 6.0998599176e-01	 1.2757234169e+00
 1.3290610194e+00	 6.2257107102e-01	 1.1867073763e+00
 1.3231095480e+00	 6.3512133038e-01	 1.0937381366e+00
 1.3851029068e+00	 5.1133552222e-01	 1.9406704682e+00
 1.3802826626e+00	 5.2420778431e-01	 1.8502023674e+00
 1.3753327978e+00	 5.3706022599e-01	 1.7603422066e+00
 1.3702532185e+00	 5.4989097134e-01	 1.6717763207e+00
 1.3650438651e+00	 5.6269813570e-01	 1.5851957483e+00
 1.3597047137e+00	 5.7547982635e-01	 1.5012938906e+00
 1.3542357756e+00	 5.8823414339e-01	 1.4207640606e+00
 1.3486370980e+00	 6.0095918047e-01	 1.3394979143e+00
 1.3429087643e+00	 6.1365302566e-01	 1.2533664299e+00
 1.3370508944e+00	 6.2631376224e-01	 1.1629686099e+00
 1.3310636447e+00	 6.3893946961e-01	 1.0689082563e+00
 1.3933799283e+00	 5.1439113282e-01	 1.9223617960e+00
 1.3885308796e+00	 5.2734031627e-01	 1.8314311095e+00
 1.3835514357e+00	 5.4026956085e-01	 1.7412873395e+00
 1.3784415020e+00	 5.5317697947e-01	 1.6526470304e+00
 1.3732010190e+00	 5.6606067617e-01	 1.5662317591e+00
 1.3678299621e+00	 5.7891874695e-01	 1.4827657233e+00
 1.3623283430e+00	 5.9174928053e-01	 1.4026040095e+00
 1.3566962092e+00	 6.0455035919e-01	 1.3196768120e+00
 1.3509336445e+00	 6.1732005955e-01	 1.2320802127e+00
 1.3450407694e+00	 6.3005645347e-01	 1.1404340684e+00
 1.3390177414e+00	 6.4275760884e-01	 1.0453624464e+00
 1.4016569499e+00	 5.1744674343e-01	 1.9038199273e+00
 1.3967790965e+00	 5.3047284823e-01	 1.8126062234e+00
 1.3917700735e+00	 5.4347889572e-01	 1.7223997623e+00
 1.3866297856e+00	 5.5646298760e-01	 1.6339354444e+00
 1.3813581728e+00	 5.6942321665e-01	 1.5479535988e+00
 1.3759552106e+00	 5.8235766755e-01	 1.4651975187e+00
 1.3704209105e+00	 5.9526441767e-01	 1.3849445485e+00
 1.3647553204e+00	 6.0814153790e-01	 1.3005665767e+00
 1.3589585246e+00	 6.2098709344e-01	 1.2116887305e+00
 1.3530306443e+00	 6.3379914469e-01	 1.1189401860e+00
 1.3469718381e+00	 6.4657574807e-01	 1.0229538862e+00
 1.4099339714e+00	 5.2050235403e-01	 1.8849270654e+00
 1.4050273135e+00	 5.3360538019e-01	 1.7935921992e+00
 1.3999887114e+00	 5.4668823059e-01	 1.7035285594e+00
 1.3948180692e+00	 5.5974899573e-01	 1.6154777737e+00
 1.3895153266e+00	 5.7278575712e-01	 1.5301873625e+00
 1.3840804590e+00	 5.8579658814e-01	 1.4484082381e+00
 1.3785134779e+00	 5.9877955481e-01	 1.3676005867e+00
 1.3728144315e+00	 6.1173271662e-01	 1.2819865835e+00
 1.3669834047e+00	 6.2465412734e-01	 1.1920195600e+00
 1.3610205193e+00	 6.3754183592e-01	 1.0983266983e+00
 1.3549259348e+00	 6.5039388730e-01	 1.0015386475e+00
 1.4182109929e+00	 5.2355796463e-01	 1.8655654036e+00
 1.4132755305e+00	 5.3673791214e-01	 1.7742538239e+00
 1.4082073493e+00	 5.4989756546e-01	 1.6845233625e+00
 1.4030063528e+00	 5.6303500386e-01	 1.5971109665e+00
 1.3976724804e+00	 5.7614829760e-01	 1.5127600061e+00
 1.3922057074e+00	 5.8923550874e-01	 1.4321867081e+00
 1.3866060454e+00	 6.0229469195e-01	 1.3503909113e+00
 1.3808735427e+00	 6.1532389533e-01	 1.2637599614e+00
 1.3750082848e+00	 6.2832116123e-01	 1.1729038211e+00
 1.3690103943e+00	 6.4128452714e-01	 1.0784365829e+00
 1.3628800315e+00	 6.5421202653e-01	 9.8097564743e-01
 1.4264880145e+00	 5.2661357524e-01	 1.8456171724e+00
 1.4215237475e+00	 5.3987044410e-01	 1.7544562233e+00
 1.4164259871e+00	 5.5310690033e-01	 1.6652343902e+00
 1.4111946364e+00	 5.6632101199e-01	 1.5786727464e+00
 1.4058296342e+00	 5.7951083807e-01	 1.4954993842e+00
 1.4003309558e+00	 5.9267442934e-01	 1.4158638487e+00
 1.3946986128e+00	 6.0580982910e-01	 1.3331381115e+00
 1.3889326539e+00	 6.1891507405e-01	 1.2457135201e+00
 1.3830331649e+00	 6.3198819513e-01	 1.1541761102e+00
 1.3770002693e+00	 6.4502721837e-01	 1.0591160016e+00
 1.3708341282e+00	 6.5803016576e-01	 9.6112660195e-01
 1.4347650360e+00	 5.2966918584e-01	 1.8249646877e+00
 1.4297719645e+00	 5.4300297606e-01	 1.7340649060e+00
 1.4246446250e+00	 5.5631623520e-01	 1.6455124886e+00
 1.4193829200e+00	 5.6960702012e-01	 1.5600016510e+00
 1.4139867881e+00	 5.8287337855e-01	 1.4782342900e+00
 1.4084562042e+00	 5.9611334994e-01	 1.3990955958e+00
 1.4027911802e+00	 6.0932496624e-01	 1.3156685032e+00
 1.3969917650e+00	 6.2250625276e-01	 1.2276776783e+00
 1.3910580450e+00	 6.3565522902e-01	 1.1356744338e+00
 1.3849901442e+00	 6.4876990960e-01	 1.0402142420e+00
 1.3787882249e+00	 6.6184830499e-01	 9.4185597924e-01
 1.2992472579e+00	 6.2366691268e-01	 1.1774448006e+00
 1.2932780484e+00	 6.3595267275e-01	 1.0857057646e+00
 1.2871830074e+00	 6.4820049588e-01	 9.9413117160e-01
 1.2809623955e+00	 6.6040850119e-01	 9.0267980896e-01
 1.2746165096e+00	 6.7257480735e-01	 8.1130585276e-01
 1.2681456837e+00	 6.8469753345e-01	 7.1995918260e-01
 1.2615502884e+00	 6.9677479985e-01	 6.2858577940e-01
 1.2548307312e+00	 7.0880472913e-01	 5.3712820626e-01
 1.2479874567e+00	 7.2078544690e-01	 4.4552617172e-01
 1.2410209464e+00	 7.3271508277e-01	 3.5371717431e-01
 1.2339317191e+00	 7.4459177121e-01	 2.6163722668e-01
 1.3072013546e+00	 6.2748505191e-01	 1.1478521410e+00
 1.3011956011e+00	 6.3984602640e-01	 1.0553490181e+00
 1.2950632458e+00	 6.5216883169e-01	 9.6337999685e-01
 1.2888045507e+00	 6.6445157540e-01	 8.7185758263e-01
 1.2824198149e+00	 6.7669236467e-01	 7.8068938343e-01
 1.2759093741e+00	 6.8888930707e-01	 6.8977850005e-01
 1.2692736012e+00	 7.0104051148e-01	 5.9902400335e-01
 1.2625129063e+00	 7.1314408895e-01	 5.0832149883e-01
 1.2556277367e+00	 7.2519815364e-01	 4.1756377775e-01
 1.2486185769e+00	 7.3720082371e-01	 3.2664155365e-01
 1.2414859488e+00	 7.4915022220e-01	 2.3544428237e-01
 1.3151554513e+00	 6.3130319115e-01	 1.1200018484e+00
 1.3091131538e+00	 6.4373938004e-01	 1.0266990374e+00
 1.3029434842e+00	 6.5613716750e-01	 9.3425792248e-01
 1.2966467060e+00	 6.6849464960e-01	 8.4255662821e-01
 1.2902231202e+00	 6.8080992198e-01	 7.5146792756e-01
 1.2836730644e+00	 6.9308108069e-01	 6.6085968956e-01
 1.2769969140e+00	 7.0530622310e-01	 5.7059541893e-01
 1.2701950814e+00	 7.1748344877e-01	 4.8053488723e-01
 1.2632680168e+00	 7.2961086039e-01	 3.9053485513e-01
 1.2562162074e+00	 7.4168656465e-01	 3.0044988435e-01
 1.2490401784e+00	 7.5370867318e-01	 2.1013323719e-01
 1.3231095480e+00	 6.3512133038e-01	 1.0937381366e+00
 1.3170307065e+00	 6.4763273369e-01	 9.9961875105e-01
 1.3108237225e+00	 6.6010550331e-01	 9.0664304050e-01
 1.3044888613e+00	 6.7253772380e-01	 8.1466644029e-01
 1.2980264254e+00	 6.8492747930e-01	 7.2353841233e-01
 1.2914367548e+00	 6.9727285432e-01	 6.3310293334e-01
 1.2847202268e+00	 7.0957193472e-01	 5.4319907952e-01
 1.2778772566e+00	 7.2182280859e-01	 4.5366170758e-01
 1.2709082968e+00	 7.3402356713e-01	 3.6432223146e-01
 1.2638138379e+00	 7.4617230559e-01	 2.7500949323e-01
 1.2565944081e+00	 7.5826712417e-01	 1.8555072625e-01
 1.3310636447e+00	 6.3893946961e-01	 1.0689082563e+00
 1.3249482592e+00	 6.5152608734e-01	 9.7397366246e-01
 1.3187039609e+00	 6.6407383912e-01	 8.8041564285e-01
 1.3123310166e+00	 6.7658079801e-01	 7.8807843021e-01
 1.3058297307e+00	 6.8904503661e-01	 6.9679949567e-01
 1.2992004451e+00	 7.0146462794e-01	 6.0641006043e-01
 1.2924435396e+00	 7.1383764634e-01	 5.1673570860e-01
 1.2855594317e+00	 7.2616216841e-01	 4.2759710140e-01
 1.2785485769e+00	 7.3843627387e-01	 3.3881079184e-01
 1.2714114684e+00	 7.5065804652e-01	 2.5019013847e-01
 1.2641486378e+00	 7.6282557515e-01	 1.6154631617e-01
 1.3390177414e+00	 6.4275760884e-01	 1.0453624464e+00
 1.3328658119e+00	 6.5541944098e-01	 9.4963181547e-01
 1.3265841993e+00	 6.6804217492e-01	 8.5545819829e-01
 1.3201731719e+00	 6.8062387221e-01	 7.6268591192e-01
 1.3136330360e+00	 6.9316259392e-01	 6.7115155820e-01
 1.3069641355e+00	 7.0565640156e-01	 5.8068454188e-01
 1.3001668524e+00	 7.1810335797e-01	 4.9110769504e-01
 1.2932416068e+00	 7.3050152823e-01	 4.0223800782e-01
 1.2861888569e+00	 7.4284898062e-01	 3.1388746483e-01
 1.2790090990e+00	 7.5514378746e-01	 2.2586398570e-01
 1.2717028675e+00	 7.6738402614e-01	 1.3797246773e-01
 1.3469718381e+00	 6.4657574807e-01	 1.0229538862e+00
 1.3407833646e+00	 6.5931279463e-01	 9.2646375972e-01
 1.3344644377e+00	 6.7201051073e-01	 8.3165532888e-01
 1.3280153272e+00	 6.8466694641e-01	 7.3838408703e-01
 1.3214363412e+00	 6.9728015123e-01	 6.4649669417e-01
 1.3147278258e+00	 7.0984817518e-01	 5.5583148483e-01
 1.3078901652e+00	 7.2236906959e-01	 4.6621908738e-01
 1.3009237820e+00	 7.3484088805e-01	 3.7748315500e-01
 1.2938291369e+00	 7.4726168736e-01	 2.8944120768e-01
 1.2866067295e+00	 7.5962952840e-01	 2.0190558367e-01
 1.2792570972e+00	 7.7194247712e-01	 1.1468449856e-01
 1.3549259348e+00	 6.5039388730e-01	 1.0015386475e+00
 1.3487009174e+00	 6.6320614827e-01	 9.0434251596e-01
 1.3423446760e+00	 6.7597884654e-01	 8.0889378602e-01
 1.3358574825e+00	 6.8871002062e-01	 7.1507002909e-01
 1.3292396465e+00	 7.0139770855e-01	 6.2273870154e-01
 1.3224915161e+00	 7.1403994880e-01	 5.3175762556e-01
 1.3156134780e+00	 7.2663478121e-01	 4.4197558704e-01
 1.3086059571e+00	 7.3918024787e-01	 3.5323305052e-01
 1.3014694170e+00	 7.5167439410e-01	 2.6536299079e-01
 1.2942043600e+00	 7.6411526934e-01	 1.7819183966e-01
 1.2868113269e+00	 7.7650092810e-01	 9.1540545944e-02
 1.3628800315e+00	 6.5421202653e-01	 9.8097564743e-01
 1.3566184701e+00	 6.6709950192e-01	 8.8314354142e-01
 1.3502249144e+00	 6.7994718235e-01	 7.8706242610e-01
 1.3436996378e+00	 6.9275309482e-01	 6.9264266730e-01
 1.3370429517e+00	 7.0551526586e-01	 5.9978307114e-01
 1.3302552065e+00	 7.1823172242e-01	 5.0837132159e-01
 1.3233367908e+00	 7.3090049283e-01	 4.1828454058e-01
 1.3162881322e+00	 7.4351960770e-01	 3.2938997091e-01
 1.3091096970e+00	 7.5608710085e-01	 2.4154578160e-01
 1.3018019905e+00	 7.6860101028e-01	 1.5460199448e-01
 1.2943655566e+00	 7.8105937909e-01	 6.8401529845e-02
 1.3708341282e+00	 6.5803016576e-01	 9.6112660195e-01
 1.3645360228e+00	 6.7099285557e-01	 8.6274469516e-01
 1.3581051528e+00	 6.8391551816e-01	 7.6605218587e-01
 1.3515417930e+00	 6.9679616903e-01	 6.7100276946e-01
 1.3448462570e+00	 7.0963282317e-01	 5.7753697493e-01
 1.3380188968e+00	 7.2242349604e-01	 4.8558254273e-01
 1.3310601036e+00	 7.3516620445e-01	 3.9505493096e-01
 1.3239703073e+00	 7.4785896752e-01	 3.0585795035e-01
 1.3167499771e+00	 7.6049980759e-01	 2.1788452776e-01
 1.3093996210e+00	 7.7308675121e-01	 1.3101759715e-01
 1.3019197862e+00	 7.8561783007e-01	 4.5131115897e-02
 1.3787882249e+00	 6.6184830499e-01	 9.4185597924e-01
 1.3724535755e+00	 6.7488620921e-01	 8.4302620336e-01
 1.3659853912e+00	 6.8788385397e-01	 7.4575605724e-01
 1.3593839483e+00	 7.0083924323e-01	 6.5005292433e-01
 1.3526495623e+00	 7.1375038049e-01	 5.5590925356e-01
 1.3457825872e+00	 7.2661526967e-01	 4.6330286135e-01
 1.3387834164e+00	 7.3943191608e-01	 3.7219736792e-01
 1.3316524825e+00	 7.5219832734e-01	 2.8254276854e-01
 1.3243902571e+00	 7.6491251433e-01	 1.9427613972e-01
 1.3169972515e+00	 7.7757249215e-01	 1.0732247930e-01
 1.3094740159e+00	 7.9017628106e-01	 2.1595678601e-02
 1.2339317191e+00	 7.4459177121e-01	 2.6163722668e-01
 1.2267203306e+00	 7.5641365271e-01	 1.6991003329e-01
 1.2193873752e+00	 7.6817887538e-01	 7.9670033934e-02
 1.2119334843e+00	 7.7988559522e-01	-8.3931219491e-03
 1.2043593259e+00	 7.9153197674e-01	-9.3605612924e-02
 1.1966656050e+00	 8.0311619394e-01	-1.7530945783e-01
 1.1888530631e+00	 8.1463643115e-01	-2.5286245416e-01
 1.1809224780e+00	 8.2609088398e-01	-3.2563804652e-01
 1.1728746636e+00	 8.3747776019e-01	-3.9413956369e-01
 1.1647104700e+00	 8.4879528062e-01	-4.6601871785e-01
 1.1564307828e+00	 8.6004168007e-01	-5.4232890506e-01
 1.2414859488e+00	 7.4915022220e-01	 2.3544428237e-01
 1.2342304116e+00	 7.6104447821e-01	 1.4438931264e-01
 1.2268525633e+00	 7.7288172853e-01	 5.4378844332e-02
 1.2193530390e+00	 7.8466011784e-01	-3.3981732634e-02
 1.2117325110e+00	 7.9637779946e-01	-1.2010153551e-01
 1.2039916885e+00	 8.0803293617e-01	-2.0340403658e-01
 1.1961313176e+00	 8.1962370120e-01	-2.8332683519e-01
 1.1881521808e+00	 8.3114827912e-01	-3.5932135818e-01
 1.1800550971e+00	 8.4260486670e-01	-4.3085249396e-01
 1.1718409216e+00	 8.5399167391e-01	-4.9920313656e-01
 1.1635105455e+00	 8.6530692473e-01	-5.7224600021e-01
 1.2490401784e+00	 7.5370867318e-01	 2.1013323719e-01
 1.2417404926e+00	 7.6567530371e-01	 1.1981213781e-01
 1.2343177513e+00	 7.7758458167e-01	 3.0166921355e-02
 1.2267725937e+00	 7.8943464047e-01	-5.8279912493e-02
 1.2191056961e+00	 8.0122362217e-01	-1.4501904810e-01
 1.2113177721e+00	 8.1294967840e-01	-2.2955403738e-01
 1.2034095721e+00	 8.2461097126e-01	-3.1140090528e-01
 1.1953818836e+00	 8.3620567426e-01	-3.9008768220e-01
 1.1872355305e+00	 8.4773197322e-01	-4.6515386872e-01
 1.1789713732e+00	 8.5918806720e-01	-5.3614983864e-01
 1.1705903082e+00	 8.7057216938e-01	-6.0548236686e-01
 1.2565944081e+00	 7.5826712417e-01	 1.8555072625e-01
 1.2492505736e+00	 7.7030612921e-01	 9.6001854668e-02
 1.2417829393e+00	 7.8228743481e-01	 6.8344258794e-03
 1.2341921484e+00	 7.9420916310e-01	-8.1510616749e-02
 1.2264788812e+00	 8.0606944489e-01	-1.6860418930e-01
 1.2186438556e+00	 8.1786642063e-01	-2.5402858641e-01
 1.2106878266e+00	 8.2959824131e-01	-3.3737692014e-01
 1.2026115865e+00	 8.4126306939e-01	-4.1825248418e-01
 1.1944159640e+00	 8.5285907973e-01	-4.9626804891e-01
 1.1861018248e+00	 8.6438446049e-01	-5.7104509406e-01
 1.1776700709e+00	 8.7583741404e-01	-6.4221298607e-01
 1.2641486378e+00	 7.6282557515e-01	 1.6154631617e-01
 1.2567606546e+00	 7.7493695470e-01	 7.2785305064e-02
 1.2492481274e+00	 7.8699028795e-01	-1.5814421279e-02
 1.2416117031e+00	 7.9898368572e-01	-1.0389217650e-01
 1.2338520663e+00	 8.1091526761e-01	-1.9109780849e-01
 1.2259699391e+00	 8.2278316286e-01	-2.7709105399e-01
 1.2179660812e+00	 8.3458551136e-01	-3.6154081080e-01
 1.2098412893e+00	 8.4632046453e-01	-4.4412433332e-01
 1.2015963974e+00	 8.5798618625e-01	-5.2452635779e-01
 1.1932322764e+00	 8.6958085378e-01	-6.0243816410e-01
 1.1847498336e+00	 8.8110265869e-01	-6.7755658190e-01
 1.2717028675e+00	 7.6738402614e-01	 1.3797246773e-01
 1.2642707355e+00	 7.7956778020e-01	 4.9992774139e-02
 1.2567133154e+00	 7.9169314109e-01	-3.7971407178e-02
 1.2490312578e+00	 8.0375820835e-01	-1.2563838154e-01
 1.2412252514e+00	 8.1576109032e-01	-2.1273566358e-01
 1.2332960227e+00	 8.2769990509e-01	-2.9899916726e-01
 1.2252443357e+00	 8.3957278141e-01	-3.8417231107e-01
 1.2170709921e+00	 8.5137785967e-01	-4.6800504475e-01
 1.2087768309e+00	 8.6311329276e-01	-5.5025280423e-01
 1.2003627280e+00	 8.7477724707e-01	-6.3067540213e-01
 1.1918295963e+00	 8.8636790335e-01	-7.0903586208e-01
 1.2792570972e+00	 7.7194247712e-01	 1.1468449856e-01
 1.2717808165e+00	 7.8419860570e-01	 2.7457938330e-02
 1.2641785035e+00	 7.9639599424e-01	-5.9824393324e-02
 1.2564508126e+00	 8.0853273098e-01	-1.4695856142e-01
 1.2485984365e+00	 8.2060691304e-01	-2.3374851653e-01
 1.2406221062e+00	 8.3261664732e-01	-3.2000511991e-01
 1.2325225902e+00	 8.4456005147e-01	-4.0554508161e-01
 1.2243006949e+00	 8.5643525481e-01	-4.9018981787e-01
 1.2159572644e+00	 8.6824039928e-01	-5.7376423530e-01
 1.2074931796e+00	 8.7997364036e-01	-6.5609544963e-01
 1.1989093590e+00	 8.9163314800e-01	-7.3701144756e-01
 1.2868113269e+00	 7.7650092810e-01	 9.1540545944e-02
 1.2792908975e+00	 7.8882943120e-01	 5.0178140330e-03
 1.2716436915e+00	 8.0109884738e-01	-8.1557381061e-02
 1.2638703673e+00	 8.1330725360e-01	-1.6805766479e-01
 1.2559716216e+00	 8.2545273575e-01	-2.5436222643e-01
 1.2479481897e+00	 8.3753338955e-01	-3.4035567917e-01
 1.2398008447e+00	 8.4954732152e-01	-4.2592683066e-01
 1.2315303978e+00	 8.6149264994e-01	-5.1096737078e-01
 1.2231376978e+00	 8.7336750579e-01	-5.9537048451e-01
 1.2146236312e+00	 8.8517003365e-01	-6.7902939826e-01
 1.2059891216e+00	 8.9689839266e-01	-7.6183586865e-01
 1.2943655566e+00	 7.8105937909e-01	 6.8401529845e-02
 1.2868009785e+00	 7.9346025670e-01	-1.7487293117e-02
 1.2791088795e+00	 8.0580170052e-01	-1.0335057583e-01
 1.2712899220e+00	 8.1808177623e-01	-1.8913633707e-01
 1.2633448067e+00	 8.3029855847e-01	-2.7479784063e-01
 1.2552742732e+00	 8.4245013178e-01	-3.6029229015e-01
 1.2470790992e+00	 8.5453459157e-01	-4.4557943162e-01
 1.2387601006e+00	 8.6655004508e-01	-5.3062007114e-01
 1.2303181313e+00	 8.7849461231e-01	-6.1537451584e-01
 1.2217540829e+00	 8.9036642693e-01	-6.9980094710e-01
 1.2130688843e+00	 9.0216363731e-01	-7.8385373558e-01
 1.3019197862e+00	 7.8561783007e-01	 4.5131115897e-02
 1.2943110595e+00	 7.9809108220e-01	-4.0213838361e-02
 1.2865740676e+00	 8.1050455366e-01	-1.2538045032e-01
 1.2787094767e+00	 8.2285629886e-01	-2.1039099654e-01
 1.2707179918e+00	 8.3514438118e-01	-2.9527168366e-01
 1.2626003568e+00	 8.4736687401e-01	-3.8005117757e-01
 1.2543573537e+00	 8.5952186162e-01	-4.6475903757e-01
 1.2459898034e+00	 8.7160744022e-01	-5.4942406342e-01
 1.2374985648e+00	 8.8362171882e-01	-6.3407256376e-01
 1.2288845345e+00	 8.9556282022e-01	-7.1872655549e-01
 1.2201486470e+00	 9.0742888197e-01	-8.0340190414e-01
 1.3094740159e+00	 7.9017628106e-01	 2.1595678601e-02
 1.3018211405e+00	 8.0272190770e-01	-6.3315087355e-02
 1.2940392556e+00	 8.1520740681e-01	-1.4781980661e-01
 1.2861290314e+00	 8.2763082149e-01	-2.3201390900e-01
 1.2780911770e+00	 8.3999020390e-01	-3.1599544424e-01
 1.2699264403e+00	 8.5228361624e-01	-3.9986344514e-01
 1.2616356082e+00	 8.6450913168e-01	-4.8371619288e-01
 1.2532195063e+00	 8.7666483536e-01	-5.6764939274e-01
 1.2446789982e+00	 8.8874882534e-01	-6.5175426936e-01
 1.2360149861e+00	 9.0075921351e-01	-7.3611559142e-01
 1.2272284097e+00	 9.1269412663e-01	-8.2080963646e-01
 1.1564307828e+00	 8.6004168007e-01	-5.4232890506e-01
 1.1480350871e+00	 8.7121710044e-01	-6.2058466065e-01
 1.1395257413e+00	 8.8231788280e-01	-6.9847752486e-01
 1.1309037418e+00	 8.9334230186e-01	-7.7565215847e-01
 1.1221701192e+00	 9.0428864976e-01	-8.5172016281e-01
 1.1133259384e+00	 9.1515523699e-01	-9.2626148531e-01
 1.1043722979e+00	 9.2594039318e-01	-9.9882604043e-01
 1.0953103293e+00	 9.3664246796e-01	-1.0689355413e+00
 1.0861411972e+00	 9.4725983182e-01	-1.1360855367e+00
 1.0768660984e+00	 9.5779087687e-01	-1.1997476458e+00
 1.0674862614e+00	 9.6823401769e-01	-1.2593719836e+00
 1.1635105455e+00	 8.6530692473e-01	-5.7224600021e-01
 1.1550634506e+00	 8.7655076192e-01	-6.4842181458e-01
 1.1465020100e+00	 8.8771950417e-01	-7.2513388024e-01
 1.1378272259e+00	 8.9881141561e-01	-8.0187072752e-01
 1.1290401354e+00	 9.0982477794e-01	-8.7808882039e-01
 1.1201418098e+00	 9.2075789130e-01	-9.5321421231e-01
 1.1111333543e+00	 9.3160907508e-01	-1.0266444231e+00
 1.1020159077e+00	 9.4237666883e-01	-1.0977505322e+00
 1.0927906414e+00	 9.5305903305e-01	-1.1658794821e+00
 1.0834587597e+00	 9.6365455001e-01	-1.2303565843e+00
 1.0740214985e+00	 9.7416162458e-01	-1.2904882187e+00
 1.1705903082e+00	 8.7057216938e-01	-6.0548236686e-01
 1.1620918142e+00	 8.8188442340e-01	-6.7859695281e-01
 1.1534782787e+00	 8.9312112554e-01	-7.5317017631e-01
 1.1447507100e+00	 9.0428052936e-01	-8.2855486823e-01
 1.1359101515e+00	 9.1536090612e-01	-9.0407249669e-01
 1.1269576812e+00	 9.2636054560e-01	-9.7901504532e-01
 1.1178944108e+00	 9.3727775698e-01	-1.0526471193e+00
 1.1087214860e+00	 9.4811086970e-01	-1.1242082738e+00
 1.0994400856e+00	 9.5885823428e-01	-1.1929155576e+00
 1.0900514209e+00	 9.6951822314e-01	-1.2579662655e+00
 1.0805567357e+00	 9.8008923147e-01	-1.3185408874e+00
 1.1776700709e+00	 8.7583741404e-01	-6.4221298607e-01
 1.1691201778e+00	 8.8721808488e-01	-7.1141580798e-01
 1.1604545473e+00	 8.9852274690e-01	-7.8290862399e-01
 1.1516741941e+00	 9.0974964312e-01	-8.5603885703e-01
 1.1427801677e+00	 9.2089703430e-01	-9.3001276130e-01
 1.1337735525e+00	 9.3196319991e-01	-1.0040077169e+00
 1.1246554672e+00	 9.4294643889e-01	-1.0771745379e+00
 1.1154270644e+00	 9.5384507057e-01	-1.1486400098e+00
 1.1060895298e+00	 9.6465743550e-01	-1.2175096485e+00
 1.0966440822e+00	 9.7538189628e-01	-1.2828706730e+00
 1.0870919728e+00	 9.8601683836e-01	-1.3437951815e+00
 1.1847498336e+00	 8.8110265869e-01	-6.7755658190e-01
 1.1761485413e+00	 8.9255174637e-01	-7.4717448068e-01
 1.1674308160e+00	 9.0392436827e-01	-8.1466136707e-01
 1.1585976782e+00	 9.1521875687e-01	-8.8464659189e-01
 1.1496501838e+00	 9.2643316248e-01	-9.5624062694e-01
 1.1405894239e+00	 9.3756585421e-01	-1.0285253654e+00
 1.1314165237e+00	 9.4861512079e-01	-1.1005566061e+00
 1.1221326427e+00	 9.5957927144e-01	-1.1713667735e+00
 1.1127389739e+00	 9.7045663673e-01	-1.2399678669e+00
 1.1032367435e+00	 9.8124556942e-01	-1.3053546295e+00
 1.0936272100e+00	 9.9194444525e-01	-1.3665079261e+00
 1.1918295963e+00	 8.8636790335e-01	-7.0903586208e-01
 1.1831769049e+00	 8.9788540785e-01	-7.8263994316e-01
 1.1744070847e+00	 9.0932598964e-01	-8.4873048303e-01
 1.1655211622e+00	 9.2068787062e-01	-9.1469160067e-01
 1.1565202000e+00	 9.3196929066e-01	-9.8307656145e-01
 1.1474052952e+00	 9.4316850852e-01	-1.0528905475e+00
 1.1381775801e+00	 9.5428380269e-01	-1.1231127782e+00
 1.1288382210e+00	 9.6531347231e-01	-1.1926993879e+00
 1.1193884181e+00	 9.7625583796e-01	-1.2605865399e+00
 1.1098294047e+00	 9.8710924255e-01	-1.3256937670e+00
 1.1001624471e+00	 9.9787205214e-01	-1.3869275290e+00
 1.1989093590e+00	 8.9163314800e-01	-7.3701144756e-01
 1.1902052685e+00	 9.0321906933e-01	-8.1387583501e-01
 1.1813833533e+00	 9.1472761101e-01	-8.8356659340e-01
 1.1724446463e+00	 9.2615698437e-01	-9.4647704233e-01
 1.1633902161e+00	 9.3750541884e-01	-1.0108304929e+00
 1.1542211666e+00	 9.4877116282e-01	-1.0774152430e+00
 1.1449386366e+00	 9.5995248459e-01	-1.1451520371e+00
 1.1355437994e+00	 9.7104767318e-01	-1.2129384601e+00
 1.1260378623e+00	 9.8205503919e-01	-1.2796521913e+00
 1.1164220660e+00	 9.9297291569e-01	-1.3441544932e+00
 1.1066976842e+00	 1.0037996590e+00	-1.4052939242e+00
 1.2059891216e+00	 8.9689839266e-01	-7.6183586865e-01
 1.1972336320e+00	 9.0855273081e-01	-8.4124435727e-01
 1.1883596220e+00	 9.2012923238e-01	-9.1415629836e-01
 1.1793681304e+00	 9.3162609812e-01	-9.7967534041e-01
 1.1702602322e+00	 9.4304154702e-01	-1.0398018078e+00
 1.1610370379e+00	 9.5437381712e-01	-1.1024008535e+00
 1.1516996930e+00	 9.6562116649e-01	-1.1669728891e+00
 1.1422493777e+00	 9.7678187404e-01	-1.2323743681e+00
 1.1326873064e+00	 9.8785424042e-01	-1.2974415174e+00
 1.1230147273e+00	 9.9883658883e-01	-1.3609939505e+00
 1.1132329214e+00	 1.0097272659e+00	-1.4218385120e+00
 1.2130688843e+00	 9.0216363731e-01	-7.8385373558e-01
 1.2042619956e+00	 9.1388639229e-01	-8.6510933063e-01
 1.1953358906e+00	 9.2553085375e-01	-9.4053716880e-01
 1.1862916145e+00	 9.3709521188e-01	-1.0092219357e+00
 1.1771302484e+00	 9.4857767520e-01	-1.0702503610e+00
 1.1678529093e+00	 9.5997647143e-01	-1.1281381940e+00
 1.1584607494e+00	 9.7128984840e-01	-1.1888633520e+00
 1.1489549560e+00	 9.8251607491e-01	-1.2512872422e+00
 1.1393367506e+00	 9.9365344164e-01	-1.3142213575e+00
 1.1296073885e+00	 1.0047002620e+00	-1.3764599717e+00
 1.1197681585e+00	 1.0156548728e+00	-1.4367840939e+00
 1.2201486470e+00	 9.0742888197e-01	-8.0340190414e-01
 1.2112903592e+00	 9.1922005377e-01	-8.8582634617e-01
 1.2023121593e+00	 9.3093247511e-01	-9.6307979930e-01
 1.1932150986e+00	 9.4256432563e-01	-1.0342461527e+00
 1.1840002645e+00	 9.5411380338e-01	-1.0984117499e+00
 1.1746687806e+00	 9.6557912573e-01	-1.1549074790e+00
 1.1652218059e+00	 9.7695853030e-01	-1.2111009380e+00
 1.1556605344e+00	 9.8825027578e-01	-1.2699469409e+00
 1.1459861948e+00	 9.9945264287e-01	-1.3302486582e+00
 1.1362000498e+00	 1.0105639351e+00	-1.3907910291e+00
 1.1263033957e+00	 1.0215824797e+00	-1.4503448032e+00
 1.2272284097e+00	 9.1269412663e-01	-8.2080963646e-01
 1.2183187227e+00	 9.2455371526e-01	-9.0374293724e-01
 1.2092884280e+00	 9.3633409648e-01	-9.8214634922e-01
 1.2001385827e+00	 9.4803343938e-01	-1.0551208318e+00
 1.1908702807e+00	 9.5964993156e-01	-1.1217699972e+00
 1.1814846520e+00	 9.7118178004e-01	-1.1811992146e+00
 1.1719828623e+00	 9.8262721220e-01	-1.2339526299e+00
 1.1623661127e+00	 9.9398447665e-01	-1.2886130200e+00
 1.1526356390e+00	 1.0052518441e+00	-1.3457704327e+00
 1.1427927111e+00	 1.0164276082e+00	-1.4042161800e+00
 1.1328386328e+00	 1.0275100866e+00	-1.4627260319e+00
 1.0674862614e+00	 9.6823401769e-01	-1.2593719836e+00
 1.0580045638e+00	 9.7858594266e-01	-1.3160669655e+00
 1.0484206960e+00	 9.8884691112e-01	-1.3712662899e+00
 1.0387359610e+00	 9.9901542729e-01	-1.4248482844e+00
 1.0289516911e+00	 1.0090900209e+00	-1.4766719878e+00
 1.0190692479e+00	 1.0190692479e+00	-1.5265795704e+00
 1.0090900209e+00	 1.0289516911e+00	-1.5743988840e+00
 9.9901542729e-01	 1.0387359610e+00	-1.6199461279e+00
 9.8884691112e-01	 1.0484206960e+00	-1.6630286148e+00
 9.7858594266e-01	 1.0580045638e+00	-1.7034476222e+00
 9.6823401769e-01	 1.0674862614e+00	-1.7410013135e+00
 1.0740214985e+00	 9.7416162458e-01	-1.2904882187e+00
 1.0644817533e+00	 9.8457692488e-01	-1.3472105820e+00
 1.0548392122e+00	 9.9490071181e-01	-1.4019487373e+00
 1.0450951864e+00	 1.0051314805e+00	-1.4546841133e+00
 1.0352510165e+00	 1.0152677516e+00	-1.5053781541e+00
 1.0253080722e+00	 1.0253080722e+00	-1.5539746739e+00
 1.0152677516e+00	 1.0352510165e+00	-1.6004023483e+00
 1.0051314805e+00	 1.0450951864e+00	-1.6445773266e+00
 9.9490071181e-01	 1.0548392122e+00	-1.6864059495e+00
 9.8457692488e-01	 1.0644817533e+00	-1.7257875578e+00
 9.7416162458e-01	 1.0740214985e+00	-1.7626173747e+00
 1.0805567357e+00	 9.8008923147e-01	-1.3185408874e+00
 1.0709589427e+00	 9.9056790709e-01	-1.3753836930e+00
 1.0612577285e+00	 1.0009545125e+00	-1.4298616684e+00
 1.0514544119e+00	 1.0112475336e+00	-1.4820321705e+00
 1.0415503419e+00	 1.0214454822e+00	-1.5319318353e+00
 1.0315468965e+00	 1.0315468965e+00	-1.5795789070e+00
 1.0214454822e+00	 1.0415503419e+00	-1.6249757099e+00
 1.0112475336e+00	 1.0514544119e+00	-1.6681112459e+00
 1.0009545125e+00	 1.0612577285e+00	-1.7089639040e+00
 9.9056790709e-01	 1.0709589427e+00	-1.7475042652e+00
 9.8008923147e-01	 1.0805567357e+00	-1.7836979862e+00
 1.0870919728e+00	 9.8601683836e-01	-1.3437951815e+00
 1.0774361321e+00	 9.9655888930e-01	-1.4008190854e+00
 1.0676762447e+00	 1.0070083132e+00	-1.4552056519e+00
 1.0578136374e+00	 1.0173635868e+00	-1.5070614471e+00
 1.0478496673e+00	 1.0276232128e+00	-1.5564715381e+00
 1.0377857207e+00	 1.0377857207e+00	-1.6035018359e+00
 1.0276232128e+00	 1.0478496673e+00	-1.6482015859e+00
 1.0173635868e+00	 1.0578136374e+00	-1.6906059905e+00
 1.0070083132e+00	 1.0676762447e+00	-1.7307389496e+00
 9.9655888930e-01	 1.0774361321e+00	-1.7686159009e+00
 9.8601683836e-01	 1.0870919728e+00	-1.8042467432e+00
 1.0936272100e+00	 9.9194444525e-01	-1.3665079261e+00
 1.0839133215e+00	 1.0025498715e+00	-1.4237420781e+00
 1.0740947609e+00	 1.0130621139e+00	-1.4781746995e+00
 1.0641728629e+00	 1.0234796400e+00	-1.5299352894e+00
 1.0541489927e+00	 1.0338009435e+00	-1.5791310267e+00
 1.0440245450e+00	 1.0440245450e+00	-1.6258491644e+00
 1.0338009435e+00	 1.0541489927e+00	-1.6701595779e+00
 1.0234796400e+00	 1.0641728629e+00	-1.7121174524e+00
 1.0130621139e+00	 1.0740947609e+00	-1.7517660921e+00
 1.0025498715e+00	 1.0839133215e+00	-1.7891398349e+00
 9.9194444525e-01	 1.0936272100e+00	-1.8242670550e+00
 1.1001624471e+00	 9.9787205214e-01	-1.3869275290e+00
 1.0903905110e+00	 1.0085408537e+00	-1.4443704461e+00
 1.0805132771e+00	 1.0191159146e+00	-1.4989561655e+00
 1.0705320884e+00	 1.0295956931e+00	-1.5508112749e+00
 1.0604483181e+00	 1.0399786741e+00	-1.6000391749e+00
 1.0502633693e+00	 1.0502633693e+00	-1.6467225639e+00
 1.0399786741e+00	 1.0604483181e+00	-1.6909260822e+00
 1.0295956931e+00	 1.0705320884e+00	-1.7326991020e+00
 1.0191159146e+00	 1.0805132771e+00	-1.7720786448e+00
 1.0085408537e+00	 1.0903905110e+00	-1.8090924096e+00
 9.9787205214e-01	 1.1001624471e+00	-1.8437618924e+00
 1.1066976842e+00	 1.0037996590e+00	-1.4052939242e+00
 1.0968677004e+00	 1.0145318359e+00	-1.4629143413e+00
 1.0869317933e+00	 1.0251697153e+00	-1.5177306442e+00
 1.0768913139e+00	 1.0357117463e+00	-1.5698410856e+00
 1.0667476435e+00	 1.0461564048e+00	-1.6193198177e+00
 1.0565021936e+00	 1.0565021936e+00	-1.6662195041e+00
 1.0461564048e+00	 1.0667476435e+00	-1.7105740994e+00
 1.0357117463e+00	 1.0768913139e+00	-1.7524017791e+00
 1.0251697153e+00	 1.0869317933e+00	-1.7917080045e+00
 1.0145318359e+00	 1.0968677004e+00	-1.8284887017e+00
 1.0037996590e+00	 1.1066976842e+00	-1.8627335374e+00
 1.1132329214e+00	 1.0097272659e+00	-1.4218385120e+00
 1.1033448898e+00	 1.0205228181e+00	-1.4795762090e+00
 1.0933503095e+00	 1.0312235159e+00	-1.5346718632e+00
 1.0832505393e+00	 1.0418277995e+00	-1.5871703798e+00
 1.0730469689e+00	 1.0523341354e+00	-1.6370916007e+00
 1.0627410179e+00	 1.0627410179e+00	-1.6844330816e+00
 1.0523341354e+00	 1.0730469689e+00	-1.7291730444e+00
 1.0418277995e+00	 1.0832505393e+00	-1.7712734860e+00
 1.0312235159e+00	 1.0933503095e+00	-1.8106834281e+00
 1.0205228181e+00	 1.1033448898e+00	-1.8473422856e+00
 1.0097272659e+00	 1.1132329214e+00	-1.8811833364e+00
 1.1197681585e+00	 1.0156548728e+00	-1.4367840939e+00
 1.1098220793e+00	 1.0265138003e+00	-1.4945507006e+00
 1.0997688257e+00	 1.0372773166e+00	-1.5499465747e+00
 1.0896097648e+00	 1.0479438526e+00	-1.6029386617e+00
 1.0793462943e+00	 1.0585118661e+00	-1.6534678296e+00
 1.0689798421e+00	 1.0689798421e+00	-1.7014518494e+00
 1.0585118661e+00	 1.0793462943e+00	-1.7467885573e+00
 1.0479438526e+00	 1.0896097648e+00	-1.7893591810e+00
 1.0372773166e+00	 1.0997688257e+00	-1.8290318113e+00
 1.0265138003e+00	 1.1098220793e+00	-1.8656649989e+00
 1.0156548728e+00	 1.1197681585e+00	-1.8991114551e+00
 1.1263033957e+00	 1.0215824797e+00	-1.4503448032e+00
 1.1162992687e+00	 1.0325047826e+00	-1.5080245836e+00
 1.1061873419e+00	 1.0433311173e+00	-1.5637144443e+00
 1.0959689903e+00	 1.0540599058e+00	-1.6172791491e+00
 1.0856456197e+00	 1.0646895967e+00	-1.6685563174e+00
 1.0752186664e+00	 1.0752186664e+00	-1.7173596450e+00
 1.0646895967e+00	 1.0856456197e+00	-1.7634823138e+00
 1.0540599058e+00	 1.0959689903e+00	-1.8067005725e+00
 1.0433311173e+00	 1.1061873419e+00	-1.8467774685e+00
 1.0325047826e+00	 1.1162992687e+00	-1.8834667100e+00
 1.0215824797e+00	 1.1263033957e+00	-1.9165166365e+00
 1.1328386328e+00	 1.0275100866e+00	-1.4627260319e+00
 1.1227764581e+00	 1.0384957648e+00	-1.5201766477e+00
 1.1126058582e+00	 1.0493849180e+00	-1.5761279362e+00
 1.1023282158e+00	 1.0601759590e+00	-1.6303186387e+00
 1.0919449451e+00	 1.0708673273e+00	-1.6824592308e+00
 1.0814574907e+00	 1.0814574907e+00	-1.7322354190e+00
 1.0708673273e+00	 1.0919449451e+00	-1.7793118364e+00
 1.0601759590e+00	 1.1023282158e+00	-1.8233359147e+00
 1.0493849180e+00	 1.1126058582e+00	-1.8639419142e+00
 1.0384957648e+00	 1.1227764581e+00	-1.9007550882e+00
 1.0275100866e+00	 1.1328386328e+00	-1.9333959608e+00
 9.6823401769e-01	 1.0674862614e+00	-1.7410013135e+00
 9.5779087687e-01	 1.0768660984e+00	-1.7773750112e+00
 9.4725983182e-01	 1.0861411972e+00	-1.8139718792e+00
 9.3664246796e-01	 1.0953103293e+00	-1.8501943407e+00
 9.2594039318e-01	 1.1043722979e+00	-1.8854605349e+00
 9.1515523699e-01	 1.1133259384e+00	-1.9192078262e+00
 9.0428864976e-01	 1.1221701192e+00	-1.9508962648e+00
 8.9334230186e-01	 1.1309037418e+00	-1.9800119809e+00
 8.8231788280e-01	 1.1395257413e+00	-2.0060704931e+00
 8.7121710044e-01	 1.1480350871e+00	-2.0286199134e+00
 8.6004168007e-01	 1.1564307828e+00	-2.0472440316e+00
 9.7416162458e-01	 1.0740214985e+00	-1.7626173747e+00
 9.6365455001e-01	 1.0834587597e+00	-1.7986810825e+00
 9.5305903305e-01	 1.0927906414e+00	-1.8353162627e+00
 9.4237666883e-01	 1.1020159077e+00	-1.8717702499e+00
 9.3160907508e-01	 1.1111333543e+00	-1.9073034486e+00
 9.2075789130e-01	 1.1201418098e+00	-1.9411931866e+00
 9.0982477794e-01	 1.1290401354e+00	-1.9727375232e+00
 8.9881141561e-01	 1.1378272259e+00	-2.0012589917e+00
 8.8771950417e-01	 1.1465020100e+00	-2.0261082583e+00
 8.7655076192e-01	 1.1550634506e+00	-2.0466676762e+00
 8.6530692473e-01	 1.1635105455e+00	-2.0623547183e+00
 9.8008923147e-01	 1.0805567357e+00	-1.7836979862e+00
 9.6951822314e-01	 1.0900514209e+00	-1.8193922638e+00
 9.5885823428e-01	 1.0994400856e+00	-1.8558494354e+00
 9.4811086970e-01	 1.1087214860e+00	-1.8921792881e+00
 9.3727775698e-01	 1.1178944108e+00	-1.9275022963e+00
 9.2636054560e-01	 1.1269576812e+00	-1.9609537975e+00
 9.1536090612e-01	 1.1359101515e+00	-1.9916881271e+00
 9.0428052936e-01	 1.1447507100e+00	-2.0188826882e+00
 8.9312112554e-01	 1.1534782787e+00	-2.0417419389e+00
 8.8188442340e-01	 1.1620918142e+00	-2.0595012741e+00
 8.7057216938e-01	 1.1705903082e+00	-2.0714307848e+00
 9.8601683836e-01	 1.0870919728e+00	-1.8042467432e+00
 9.7538189628e-01	 1.0966440822e+00	-1.8395023211e+00
 9.6465743550e-01	 1.1060895298e+00	-1.8755605225e+00
 9.5384507057e-01	 1.1154270644e+00	-1.9114107698e+00
 9.4294643889e-01	 1.1246554672e+00	-1.9460510486e+00
 9.3196319991e-01	 1.1337735525e+00	-1.9784923873e+00
 9.2089703430e-01	 1.1427801677e+00	-2.0077632957e+00
 9.0974964312e-01	 1.1516741941e+00	-2.0329141422e+00
 8.9852274690e-01	 1.1604545473e+00	-2.0530214479e+00
 8.8721808488e-01	 1.1691201778e+00	-2.0671920755e+00
 8.7583741404e-01	 1.1776700709e+00	-2.0746677319e+00
 9.9194444525e-01	 1.0936272100e+00	-1.8242670550e+00
 9.8124556942e-01	 1.1032367435e+00	-1.8590053320e+00
 9.7045663673e-01	 1.1127389739e+00	-1.8944393432e+00
 9.5957927144e-01	 1.1221326427e+00	-1.9294549774e+00
 9.4861512079e-01	 1.1314165237e+00	-1.9629448190e+00
 9.3756585421e-01	 1.1405894239e+00	-1.9938129091e+00
 9.2643316248e-01	 1.1496501838e+00	-2.0209794698e+00
 9.1521875687e-01	 1.1585976782e+00	-2.0433855670e+00
 9.0392436827e-01	 1.1674308160e+00	-2.0599976904e+00
 8.9255174637e-01	 1.1761485413e+00	-2.0698122289e+00
 8.8110265869e-01	 1.1847498336e+00	-2.0768148387e+00
 9.9787205214e-01	 1.1001624471e+00	-1.8437618924e+00
 9.8710924255e-01	 1.1098294047e+00	-1.8778954241e+00
 9.7625583796e-01	 1.1193884181e+00	-1.9124761443e+00
 9.6531347231e-01	 1.1288382210e+00	-1.9463028952e+00
 9.5428380269e-01	 1.1381775801e+00	-1.9781795990e+00
 9.4316850852e-01	 1.1474052952e+00	-2.0069202816e+00
 9.3196929066e-01	 1.1565202000e+00	-2.0313540611e+00
 9.2068787062e-01	 1.1655211622e+00	-2.0503300768e+00
 9.0932598964e-01	 1.1744070847e+00	-2.0627223354e+00
 8.9788540785e-01	 1.1831769049e+00	-2.0705474271e+00
 8.8636790335e-01	 1.1918295963e+00	-2.0802878006e+00
 1.0037996590e+00	 1.1066976842e+00	-1.8627335374e+00
 9.9297291569e-01	 1.1164220660e+00	-1.8961665179e+00
 9.8205503919e-01	 1.1260378623e+00	-1.9296613388e+00
 9.7104767318e-01	 1.1355437994e+00	-1.9619459458e+00
 9.5995248459e-01	 1.1449386366e+00	-1.9917519977e+00
 9.4877116282e-01	 1.1542211666e+00	-2.0178201329e+00
 9.3750541884e-01	 1.1633902161e+00	-2.0389052035e+00
 9.2615698437e-01	 1.1724446463e+00	-2.0537814493e+00
 9.1472761101e-01	 1.1813833533e+00	-2.0628409399e+00
 9.0321906933e-01	 1.1902052685e+00	-2.0730653993e+00
 8.9163314800e-01	 1.1989093590e+00	-2.0848818526e+00
 1.0097272659e+00	 1.1132329214e+00	-1.8811833364e+00
 9.9883658883e-01	 1.1230147273e+00	-1.9138120713e+00
 9.8785424042e-01	 1.1326873064e+00	-1.9459852462e+00
 9.7678187404e-01	 1.1422493777e+00	-1.9763757302e+00
 9.6562116649e-01	 1.1516996930e+00	-2.0036589834e+00
 9.5437381712e-01	 1.1610370379e+00	-2.0265185483e+00
 9.4304154702e-01	 1.1702602322e+00	-2.0436515085e+00
 9.3162609812e-01	 1.1793681304e+00	-2.0542982796e+00
 9.2012923238e-01	 1.1883596220e+00	-2.0648871094e+00
 9.0855273081e-01	 1.1972336320e+00	-2.0771457698e+00
 8.9689839266e-01	 1.2059891216e+00	-2.0903889594e+00
 1.0156548728e+00	 1.1197681585e+00	-1.8991114551e+00
 1.0047002620e+00	 1.1296073885e+00	-1.9308248276e+00
 9.9365344164e-01	 1.1393367506e+00	-1.9614378369e+00
 9.8251607491e-01	 1.1489549560e+00	-1.9895837711e+00
 9.7128984840e-01	 1.1584607494e+00	-2.0138976298e+00
 9.5997647143e-01	 1.1678529093e+00	-2.0330218204e+00
 9.4857767520e-01	 1.1771302484e+00	-2.0456357188e+00
 9.3709521188e-01	 1.1862916145e+00	-2.0563646407e+00
 9.2553085375e-01	 1.1953358906e+00	-2.0689088723e+00
 9.1388639229e-01	 1.2042619956e+00	-2.0825564864e+00
 9.0216363731e-01	 1.2130688843e+00	-2.0965979390e+00
 1.0215824797e+00	 1.1263033957e+00	-1.9165166365e+00
 1.0105639351e+00	 1.1362000498e+00	-1.9471965666e+00
 9.9945264287e-01	 1.1459861948e+00	-1.9760084791e+00
 9.8825027578e-01	 1.1556605344e+00	-2.0015612597e+00
 9.7695853030e-01	 1.1652218059e+00	-2.0224648645e+00
 9.6557912573e-01	 1.1746687806e+00	-2.0373362029e+00
 9.5411380338e-01	 1.1840002645e+00	-2.0481681519e+00
 9.4256432563e-01	 1.1932150986e+00	-2.0607822102e+00
 9.3093247511e-01	 1.2023121593e+00	-2.0746532516e+00
 9.1922005377e-01	 1.2112903592e+00	-2.0890628936e+00
 9.0742888197e-01	 1.2201486470e+00	-2.1032945892e+00
 1.0275100866e+00	 1.1328386328e+00	-1.9333959608e+00
 1.0164276082e+00	 1.1427927111e+00	-1.9629178577e+00
 1.0052518441e+00	 1.1526356390e+00	-1.9896856887e+00
 9.9398447665e-01	 1.1623661127e+00	-2.0122988044e+00
 9.8262721220e-01	 1.1719828623e+00	-2.0293572202e+00
 9.7118178004e-01	 1.1814846520e+00	-2.0408775427e+00
 9.5964993156e-01	 1.1908702807e+00	-2.0533812982e+00
 9.4803343938e-01	 1.2001385827e+00	-2.0672802931e+00
 9.3633409648e-01	 1.2092884280e+00	-2.0818651442e+00
 9.2455371526e-01	 1.2183187227e+00	-2.0964278516e+00
 9.1269412663e-01	 1.2272284097e+00	-2.1102618143e+00
 8.6004168007e-01	 1.1564307828e+00	-2.0472440316e+00
 8.4879528062e-01	 1.1647104700e+00	-2.0610409280e+00
 8.3747776019e-01	 1.1728746636e+00	-2.0686642954e+00
 8.2609088398e-01	 1.1809224780e+00	-2.0706815829e+00
 8.1463643115e-01	 1.1888530631e+00	-2.0741131528e+00
 8.0311619394e-01	 1.1966656050e+00	-2.0792754728e+00
 7.9153197674e-01	 1.2043593259e+00	-2.0854170558e+00
 7.7988559522e-01	 1.2119334843e+00	-2.0917799401e+00
 7.6817887538e-01	 1.2193873752e+00	-2.0976002552e+00
 7.5641365271e-01	 1.2267203306e+00	-2.1021088033e+00
 7.4459177121e-01	 1.2339317191e+00	-2.1045316602e+00
 8.6530692473e-01	 1.1635105455e+00	-2.0623547183e+00
 8.5399167391e-01	 1.1718409216e+00	-2.0719842171e+00
 8.4260486670e-01	 1.1800550971e+00	-2.0750776262e+00
 8.3114827912e-01	 1.1881521808e+00	-2.0787025462e+00
 8.1962370120e-01	 1.1961313176e+00	-2.0838815410e+00
 8.0803293617e-01	 1.2039916885e+00	-2.0899420090e+00
 7.9637779946e-01	 1.2117325110e+00	-2.0962063654e+00
 7.8466011784e-01	 1.2193530390e+00	-2.1019924574e+00
 7.7288172853e-01	 1.2268525633e+00	-2.1066139909e+00
 7.6104447821e-01	 1.2342304116e+00	-2.1093809736e+00
 7.4915022220e-01	 1.2414859488e+00	-2.1096001760e+00
 8.7057216938e-01	 1.1705903082e+00	-2.0714307848e+00
 8.5918806720e-01	 1.1789713732e+00	-2.0765789734e+00
 8.4773197322e-01	 1.1872355305e+00	-2.0810240796e+00
 8.3620567426e-01	 1.1953818836e+00	-2.0867886776e+00
 8.2461097126e-01	 1.2034095721e+00	-2.0932746952e+00
 8.1294967840e-01	 1.2113177721e+00	-2.0998807490e+00
 8.0122362217e-01	 1.2191056961e+00	-2.1060024152e+00
 7.8943464047e-01	 1.2267725937e+00	-2.1110325063e+00
 7.7758458167e-01	 1.2343177513e+00	-2.1143613588e+00
 7.6567530371e-01	 1.2417404926e+00	-2.1153771364e+00
 7.5370867318e-01	 1.2490401784e+00	-2.1134661521e+00
 8.7583741404e-01	 1.1776700709e+00	-2.0746677319e+00
 8.6438446049e-01	 1.1861018248e+00	-2.0805250387e+00
 8.5285907973e-01	 1.1944159640e+00	-2.0874153761e+00
 8.4126306939e-01	 1.2026115865e+00	-2.0948107489e+00
 8.2959824131e-01	 1.2106878266e+00	-2.1021816999e+00
 8.1786642063e-01	 1.2186438556e+00	-2.1089974418e+00
 8.0606944489e-01	 1.2264788812e+00	-2.1147259892e+00
 7.9420916310e-01	 1.2341921484e+00	-2.1188342960e+00
 7.8228743481e-01	 1.2417829393e+00	-2.1207884038e+00
 7.7030612921e-01	 1.2492505736e+00	-2.1200536046e+00
 7.5826712417e-01	 1.2565944081e+00	-2.1160946233e+00
 8.8110265869e-01	 1.1847498336e+00	-2.0768148387e+00
 8.6958085378e-01	 1.1932322764e+00	-2.0853372149e+00
 8.5798618625e-01	 1.2015963974e+00	-2.0940977727e+00
 8.4632046453e-01	 1.2098412893e+00	-2.1026346052e+00
 8.3458551136e-01	 1.2179660812e+00	-2.1104863639e+00
 8.2278316286e-01	 1.2259699391e+00	-2.1171922526e+00
 8.1091526761e-01	 1.2338520663e+00	-2.1222920202e+00
 7.9898368572e-01	 1.2416117031e+00	-2.1253259583e+00
 7.8699028795e-01	 1.2492481274e+00	-2.1258349083e+00
 7.7493695470e-01	 1.2567606546e+00	-2.1233602837e+00
 7.6282557515e-01	 1.2641486378e+00	-2.1174441136e+00
 8.8636790335e-01	 1.1918295963e+00	-2.0802878006e+00
 8.7477724707e-01	 1.2003627280e+00	-2.0908365545e+00
 8.6311329276e-01	 1.2087768309e+00	-2.1009131292e+00
 8.5137785967e-01	 1.2170709921e+00	-2.1101213121e+00
 8.3957278141e-01	 1.2252443357e+00	-2.1180673735e+00
 8.2769990509e-01	 1.2332960227e+00	-2.1243599209e+00
 8.1576109032e-01	 1.2412252514e+00	-2.1286097526e+00
 8.0375820835e-01	 1.2490312578e+00	-2.1304297126e+00
 7.9169314109e-01	 1.2567133154e+00	-2.1294345579e+00
 7.7956778020e-01	 1.2642707355e+00	-2.1252408385e+00
 7.6738402614e-01	 1.2717028675e+00	-2.1174668008e+00
 8.9163314800e-01	 1.1989093590e+00	-2.0848818526e+00
 8.7997364036e-01	 1.2074931796e+00	-2.0968402653e+00
 8.6824039928e-01	 1.2159572644e+00	-2.1076990478e+00
 8.5643525481e-01	 1.2243006949e+00	-2.1171273029e+00
 8.4456005147e-01	 1.2325225902e+00	-2.1247984460e+00
 8.3261664732e-01	 1.2406221062e+00	-2.1303899194e+00
 8.2060691304e-01	 1.2485984365e+00	-2.1335829033e+00
 8.0853273098e-01	 1.2564508126e+00	-2.1340620300e+00
 7.9639599424e-01	 1.2641785035e+00	-2.1315151072e+00
 7.8419860570e-01	 1.2717808165e+00	-2.1256328578e+00
 7.7194247712e-01	 1.2792570972e+00	-2.1161086812e+00
 8.9689839266e-01	 1.2059891216e+00	-2.0903889594e+00
 8.8517003365e-01	 1.2146236312e+00	-2.1031618431e+00
 8.7336750579e-01	 1.2231376978e+00	-2.1142890136e+00
 8.6149264994e-01	 1.2315303978e+00	-2.1235045258e+00
 8.4954732152e-01	 1.2398008447e+00	-2.1305484833e+00
 8.3753338955e-01	 1.2479481897e+00	-2.1351666112e+00
 8.2545273575e-01	 1.2559716216e+00	-2.1371098240e+00
 8.1330725360e-01	 1.2638703673e+00	-2.1361337964e+00
 8.0109884738e-01	 1.2716436915e+00	-2.1319985438e+00
 7.8882943120e-01	 1.2792908975e+00	-2.1244680188e+00
 7.7650092810e-01	 1.2868113269e+00	-2.1133097315e+00
 9.0216363731e-01	 1.2130688843e+00	-2.0965979390e+00
 8.9036642693e-01	 1.2217540829e+00	-2.1096112049e+00
 8.7849461231e-01	 1.2303181313e+00	-2.1205125362e+00
 8.6655004508e-01	 1.2387601006e+00	-2.1291005923e+00
 8.5453459157e-01	 1.2470790992e+00	-2.1351817250e+00
 8.4245013178e-01	 1.2552742732e+00	-2.1385694081e+00
 8.3029855847e-01	 1.2633448067e+00	-2.1390836612e+00
 8.1808177623e-01	 1.2712899220e+00	-2.1365504759e+00
 8.0580170052e-01	 1.2791088795e+00	-2.1308012519e+00
 7.9346025670e-01	 1.2868009785e+00	-2.1216722504e+00
 7.8105937909e-01	 1.2943655566e+00	-2.1090040713e+00
 9.0742888197e-01	 1.2201486470e+00	-2.1032945892e+00
 8.9556282022e-01	 1.2288845345e+00	-2.1159948233e+00
 8.8362171882e-01	 1.2374985648e+00	-2.1261952914e+00
 8.7160744022e-01	 1.2459898034e+00	-2.1337589253e+00
 8.5952186162e-01	 1.2543573537e+00	-2.1385579019e+00
 8.4736687401e-01	 1.2626003568e+00	-2.1404729276e+00
 8.3514438118e-01	 1.2707179918e+00	-2.1393925167e+00
 8.2285629886e-01	 1.2787094767e+00	-2.1352122719e+00
 8.1050455366e-01	 1.2865740676e+00	-2.1278341749e+00
 7.9809108220e-01	 1.2943110595e+00	-2.1171658950e+00
 7.8561783007e-01	 1.3019197862e+00	-2.1031201234e+00
 9.1269412663e-01	 1.2272284097e+00	-2.1102618143e+00
 9.0075921351e-01	 1.2360149861e+00	-2.1221158621e+00
 8.8874882534e-01	 1.2446789982e+00	-2.1311592639e+00
 8.7666483536e-01	 1.2532195063e+00	-2.1373189079e+00
 8.6450913168e-01	 1.2616356082e+00	-2.1405323896e+00
 8.5228361624e-01	 1.2699264403e+00	-2.1407471501e+00
 8.3999020390e-01	 1.2780911770e+00	-2.1379196074e+00
 8.2763082149e-01	 1.2861290314e+00	-2.1320142892e+00
 8.1520740681e-01	 1.2940392556e+00	-2.1230029773e+00
 8.0272190770e-01	 1.3018211405e+00	-2.1108638702e+00
 7.9017628106e-01	 1.3094740159e+00	-2.0955807734e+00
 7.4459177121e-01	 1.2339317191e+00	-2.1045316602e+00
 7.3271508277e-01	 1.2410209464e+00	-2.1049597824e+00
 7.2078544690e-01	 1.2479874567e+00	-2.1039863648e+00
 7.0880472913e-01	 1.2548307312e+00	-2.1015954361e+00
 6.9677479985e-01	 1.2615502884e+00	-2.0977810846e+00
 6.8469753345e-01	 1.2681456837e+00	-2.0925471021e+00
 6.7257480735e-01	 1.2746165096e+00	-2.0859066530e+00
 6.6040850119e-01	 1.2809623955e+00	-2.0778819731e+00
 6.4820049588e-01	 1.2871830074e+00	-2.0685040979e+00
 6.3595267275e-01	 1.2932780484e+00	-2.0578126247e+00
 6.2366691268e-01	 1.2992472579e+00	-2.0458555067e+00
 7.4915022220e-01	 1.2414859488e+00	-2.1096001760e+00
 7.3720082371e-01	 1.2486185769e+00	-2.1075824592e+00
 7.2519815364e-01	 1.2556277367e+00	-2.1041094690e+00
 7.1314408895e-01	 1.2625129063e+00	-2.0991998466e+00
 7.0104051148e-01	 1.2692736012e+00	-2.0928823259e+00
 6.8888930707e-01	 1.2759093741e+00	-2.0851953157e+00
 6.7669236467e-01	 1.2824198149e+00	-2.0761865107e+00
 6.6445157540e-01	 1.2888045507e+00	-2.0659125335e+00
 6.5216883169e-01	 1.2950632458e+00	-2.0544386109e+00
 6.3984602640e-01	 1.3011956011e+00	-2.0418382864e+00
 6.2748505191e-01	 1.3072013546e+00	-2.0281931688e+00
 7.5370867318e-01	 1.2490401784e+00	-2.1134661521e+00
 7.4168656465e-01	 1.2562162074e+00	-2.1091453882e+00
 7.2961086039e-01	 1.2632680168e+00	-2.1033654317e+00
 7.1748344877e-01	 1.2701950814e+00	-2.0961695536e+00
 7.0530622310e-01	 1.2769969140e+00	-2.0876109470e+00
 6.9308108069e-01	 1.2836730644e+00	-2.0777522613e+00
 6.8080992198e-01	 1.2902231202e+00	-2.0666651687e+00
 6.6849464960e-01	 1.2966467060e+00	-2.0544299654e+00
 6.5613716750e-01	 1.3029434842e+00	-2.0411352097e+00
 6.4373938004e-01	 1.3091131538e+00	-2.0268774001e+00
 6.3130319115e-01	 1.3151554513e+00	-2.0117606937e+00
 7.5826712417e-01	 1.2565944081e+00	-2.1160946233e+00
 7.4617230559e-01	 1.2638138379e+00	-2.1096195207e+00
 7.3402356713e-01	 1.2709082968e+00	-2.1017271587e+00
 7.2182280859e-01	 1.2778772566e+00	-2.0924756361e+00
 7.0957193472e-01	 1.2847202268e+00	-2.0819325997e+00
 6.9727285432e-01	 1.2914367548e+00	-2.0701747455e+00
 6.8492747930e-01	 1.2980264254e+00	-2.0572873549e+00
 6.7253772380e-01	 1.3044888613e+00	-2.0433638687e+00
 6.6010550331e-01	 1.3108237225e+00	-2.0285055026e+00
 6.4763273369e-01	 1.3170307065e+00	-2.0128209052e+00
 6.3512133038e-01	 1.3231095480e+00	-1.9964258607e+00
 7.6282557515e-01	 1.2641486378e+00	-2.1174441136e+00
 7.5065804652e-01	 1.2714114684e+00	-2.1089692645e+00
 7.3843627387e-01	 1.2785485769e+00	-2.0991610795e+00
 7.2616216841e-01	 1.2855594317e+00	-2.0880828587e+00
 7.1383764634e-01	 1.2924435396e+00	-2.0758068749e+00
 7.0146462794e-01	 1.2992004451e+00	-2.0624138553e+00
 6.8904503661e-01	 1.3058297307e+00	-2.0479925017e+00
 6.7658079801e-01	 1.3123310166e+00	-2.0326390515e+00
 6.6407383912e-01	 1.3187039609e+00	-2.0164568850e+00
 6.5152608734e-01	 1.3249482592e+00	-1.9995561774e+00
 6.3893946961e-01	 1.3310636447e+00	-1.9820536011e+00
 7.6738402614e-01	 1.2717028675e+00	-2.1174668008e+00
 7.5514378746e-01	 1.2790090990e+00	-2.1071526457e+00
 7.4284898062e-01	 1.2861888569e+00	-2.0956273025e+00
 7.3050152823e-01	 1.2932416068e+00	-2.0829498183e+00
 7.1810335797e-01	 1.3001668524e+00	-2.0691874378e+00
 7.0565640156e-01	 1.3069641355e+00	-2.0544150790e+00
 6.9316259392e-01	 1.3136330360e+00	-2.0387148507e+00
 6.8062387221e-01	 1.3201731719e+00	-2.0221756159e+00
 6.6804217492e-01	 1.3265841993e+00	-2.0048926034e+00
 6.5541944098e-01	 1.3328658119e+00	-1.9869670699e+00
 6.4275760884e-01	 1.3390177414e+00	-1.9685060147e+00
 7.7194247712e-01	 1.2792570972e+00	-2.1161086812e+00
 7.5962952840e-01	 1.2866067295e+00	-2.1041214694e+00
 7.4726168736e-01	 1.2938291369e+00	-2.0910797696e+00
 7.3484088805e-01	 1.3009237820e+00	-2.0770290899e+00
 7.2236906959e-01	 1.3078901652e+00	-2.0620221625e+00
 7.0984817518e-01	 1.3147278258e+00	-2.0461184264e+00
 6.9728015123e-01	 1.3214363412e+00	-2.0293835569e+00
 6.8466694641e-01	 1.3280153272e+00	-2.0118890435e+00
 6.7201051073e-01	 1.3344644377e+00	-1.9937118215e+00
 6.5931279463e-01	 1.3407833646e+00	-1.9749339571e+00
 6.4657574807e-01	 1.3469718381e+00	-1.9556423898e+00
 7.7650092810e-01	 1.2868113269e+00	-2.1133097315e+00
 7.6411526934e-01	 1.2942043600e+00	-2.0998214794e+00
 7.5167439410e-01	 1.3014694170e+00	-2.0854664098e+00
 7.3918024787e-01	 1.3086059571e+00	-2.0702673712e+00
 7.2663478121e-01	 1.3156134780e+00	-2.0542532651e+00
 7.1403994880e-01	 1.3224915161e+00	-2.0374585495e+00
 7.0139770855e-01	 1.3292396465e+00	-2.0199227931e+00
 6.8871002062e-01	 1.3358574825e+00	-2.0016902827e+00
 6.7597884654e-01	 1.3423446760e+00	-1.9828096871e+00
 6.6320614827e-01	 1.3487009174e+00	-1.9633337802e+00
 6.5039388730e-01	 1.3549259348e+00	-1.9433192249e+00
 7.8105937909e-01	 1.2943655566e+00	-2.1090040713e+00
 7.6860101028e-01	 1.3018019905e+00	-2.0941925162e+00
 7.5608710085e-01	 1.3091096970e+00	-2.0787292914e+00
 7.4351960770e-01	 1.3162881322e+00	-2.0626056266e+00
 7.3090049283e-01	 1.3233367908e+00	-2.0458174372e+00
 7.1823172242e-01	 1.3302552065e+00	-2.0283648618e+00
 7.0551526586e-01	 1.3370429517e+00	-2.0102518548e+00
 6.9275309482e-01	 1.3436996378e+00	-1.9914858357e+00
 6.7994718235e-01	 1.3502249144e+00	-1.9720774003e+00
 6.6709950192e-01	 1.3566184701e+00	-1.9520400945e+00
 6.5421202653e-01	 1.3628800315e+00	-1.9313902539e+00
 7.8561783007e-01	 1.3019197862e+00	-2.1031201234e+00
 7.7308675121e-01	 1.3093996210e+00	-2.0871686746e+00
 7.6049980759e-01	 1.3167499771e+00	-2.0708047737e+00
 7.4785896752e-01	 1.3239703073e+00	-2.0539792305e+00
 7.3516620445e-01	 1.3310601036e+00	-2.0366459782e+00
 7.2242349604e-01	 1.3380188968e+00	-2.0187616586e+00
 7.0963282317e-01	 1.3448462570e+00	-2.0002852648e+00
 6.9679616903e-01	 1.3515417930e+00	-1.9811778469e+00
 6.8391551816e-01	 1.3581051528e+00	-1.9614022829e+00
 6.7099285557e-01	 1.3645360228e+00	-1.9409231180e+00
 6.5803016576e-01	 1.3708341282e+00	-1.9197064730e+00
 7.9017628106e-01	 1.3094740159e+00	-2.0955807734e+00
 7.7757249215e-01	 1.3169972515e+00	-2.0786784598e+00
 7.6491251433e-01	 1.3243902571e+00	-2.0616236572e+00
 7.5219832734e-01	 1.3316524825e+00	-2.0443181092e+00
 7.3943191608e-01	 1.3387834164e+00	-2.0266649276e+00
 7.2661526967e-01	 1.3457825872e+00	-2.0085682362e+00
 7.1375038049e-01	 1.3526495623e+00	-1.9899328784e+00
 7.0083924323e-01	 1.3593839483e+00	-1.9706641909e+00
 6.8788385397e-01	 1.3659853912e+00	-1.9506678489e+00
 6.7488620921e-01	 1.3724535755e+00	-1.9298497826e+00
 6.6184830499e-01	 1.3787882249e+00	-1.9081161698e+00
 6.2366691268e-01	 1.2992472579e+00	-2.0458555067e+00
 6.1134299734e-01	 1.3050913945e+00	-2.0318309569e+00
 5.9898489008e-01	 1.3108092439e+00	-2.0152040391e+00
 5.8659446561e-01	 1.3164006534e+00	-1.9964219142e+00
 5.7417359483e-01	 1.3218655059e+00	-1.9758292705e+00
 5.6172414397e-01	 1.3272037201e+00	-1.9540403298e+00
 5.4924797379e-01	 1.3324152499e+00	-1.9317897043e+00
 5.3674693882e-01	 1.3375000841e+00	-1.9097815148e+00
 5.2422288651e-01	 1.3424582464e+00	-1.8886896007e+00
 5.1167765648e-01	 1.3472897946e+00	-1.8691578427e+00
 4.9911307980e-01	 1.3519948207e+00	-1.8518005864e+00
 6.2748505191e-01	 1.3072013546e+00	-2.0281931688e+00
 6.1508568857e-01	 1.3130812695e+00	-2.0126840948e+00
 6.0265192397e-01	 1.3188341240e+00	-1.9947080506e+00
 5.9018564433e-01	 1.3244597645e+00	-1.9746704847e+00
 5.7768873197e-01	 1.3299580733e+00	-1.9529971649e+00
 5.6516306456e-01	 1.3353289685e+00	-1.9303059283e+00
 5.5261051427e-01	 1.3405724037e+00	-1.9072933670e+00
 5.4003294695e-01	 1.3456883677e+00	-1.8846246677e+00
 5.2743222138e-01	 1.3506768843e+00	-1.8629332629e+00
 5.1481018844e-01	 1.3555380116e+00	-1.8428212837e+00
 5.0216869040e-01	 1.3602718422e+00	-1.8248601162e+00
 6.3130319115e-01	 1.3151554513e+00	-2.0117606937e+00
 6.1882837979e-01	 1.3210711445e+00	-1.9949330695e+00
 6.0631895787e-01	 1.3268590041e+00	-1.9757193698e+00
 5.9377682304e-01	 1.3325188757e+00	-1.9544872096e+00
 5.8120386911e-01	 1.3380506407e+00	-1.9316506150e+00
 5.6860198516e-01	 1.3434542169e+00	-1.9079273861e+00
 5.5597305475e-01	 1.3487295575e+00	-1.8840029989e+00
 5.4331895508e-01	 1.3538766513e+00	-1.8605112615e+00
 5.3064155625e-01	 1.3588955221e+00	-1.8380530201e+00
 5.1794272040e-01	 1.3637862286e+00	-1.8171967315e+00
 5.0522430101e-01	 1.3685488637e+00	-1.7984791407e+00
 6.3512133038e-01	 1.3231095480e+00	-1.9964258607e+00
 6.2257107102e-01	 1.3290610194e+00	-1.9784247620e+00
 6.0998599176e-01	 1.3348838842e+00	-1.9580707853e+00
 5.9736800176e-01	 1.3405779869e+00	-1.9356998580e+00
 5.8471900625e-01	 1.3461432082e+00	-1.9116689224e+00
 5.7204090576e-01	 1.3515794653e+00	-1.8867845696e+00
 5.5933559522e-01	 1.3568867113e+00	-1.8618052394e+00
 5.4660496321e-01	 1.3620649349e+00	-1.8373407398e+00
 5.3385089112e-01	 1.3671141600e+00	-1.8139669720e+00
 5.2107525236e-01	 1.3720344456e+00	-1.7922266112e+00
 5.0827991161e-01	 1.3768258853e+00	-1.7726298932e+00
 6.3893946961e-01	 1.3310636447e+00	-1.9820536011e+00
 6.2631376224e-01	 1.3370508944e+00	-1.9630038738e+00
 6.1365302566e-01	 1.3429087643e+00	-1.9415934192e+00
 6.0095918047e-01	 1.3486370980e+00	-1.9181324842e+00
 5.8823414339e-01	 1.3542357756e+00	-1.8929316840e+00
 5.7547982635e-01	 1.3597047137e+00	-1.8667578852e+00
 5.6269813570e-01	 1.3650438651e+00	-1.8405873652e+00
 5.4989097134e-01	 1.3702532185e+00	-1.8150131399e+00
 5.3706022599e-01	 1.3753327978e+00	-1.7905936301e+00
 5.2420778431e-01	 1.3802826626e+00	-1.7678534421e+00
 5.1133552222e-01	 1.3851029068e+00	-1.7472842525e+00
 6.4275760884e-01	 1.3390177414e+00	-1.9685060147e+00
 6.3005645347e-01	 1.3450407694e+00	-1.9485129208e+00
 6.1732005955e-01	 1.3509336445e+00	-1.9261167028e+00
 6.0455035919e-01	 1.3566962092e+00	-1.9016077993e+00
 5.9174928053e-01	 1.3623283430e+00	-1.8752774446e+00
 5.7891874695e-01	 1.3678299621e+00	-1.8477280461e+00
 5.6606067617e-01	 1.3732010190e+00	-1.8202370649e+00
 5.5317697947e-01	 1.3784415020e+00	-1.7934288786e+00
 5.4026956085e-01	 1.3835514357e+00	-1.7678517188e+00
 5.2734031627e-01	 1.3885308796e+00	-1.7440196586e+00
 5.1439113282e-01	 1.3933799283e+00	-1.7224135856e+00
 6.4657574807e-01	 1.3469718381e+00	-1.9556423898e+00
 6.3379914469e-01	 1.3530306443e+00	-1.9347922302e+00
 6.2098709344e-01	 1.3589585246e+00	-1.9114683562e+00
 6.0814153790e-01	 1.3647553204e+00	-1.8859471370e+00
 5.9526441767e-01	 1.3704209105e+00	-1.8585064738e+00
 5.8235766755e-01	 1.3759552106e+00	-1.8295758447e+00
 5.6942321665e-01	 1.3813581728e+00	-1.8006422174e+00
 5.5646298760e-01	 1.3866297856e+00	-1.7724885416e+00
 5.4347889572e-01	 1.3917700735e+00	-1.7456599794e+00
 5.3047284823e-01	 1.3967790965e+00	-1.7206674330e+00
 5.1744674343e-01	 1.4016569499e+00	-1.6979885946e+00
 6.5039388730e-01	 1.3549259348e+00	-1.9433192249e+00
 6.3754183592e-01	 1.3610205193e+00	-1.9216799411e+00
 6.2465412734e-01	 1.3669834047e+00	-1.8974743705e+00
 6.1173271662e-01	 1.3728144315e+00	-1.8709704240e+00
 5.9877955481e-01	 1.3785134779e+00	-1.8424385828e+00
 5.8579658814e-01	 1.3840804590e+00	-1.8121819283e+00
 5.7278575712e-01	 1.3895153266e+00	-1.7816906752e+00
 5.5974899573e-01	 1.3948180692e+00	-1.7520926770e+00
 5.4668823059e-01	 1.3999887114e+00	-1.7239369784e+00
 5.3360538019e-01	 1.4050273135e+00	-1.6977385019e+00
 5.2050235403e-01	 1.4099339714e+00	-1.6739791641e+00
 6.5421202653e-01	 1.3628800315e+00	-1.9313902539e+00
 6.4128452714e-01	 1.3690103943e+00	-1.9090120079e+00
 6.2832116123e-01	 1.3750082848e+00	-1.8839589953e+00
 6.1532389533e-01	 1.3808735427e+00	-1.8564961534e+00
 6.0229469195e-01	 1.3866060454e+00	-1.8268923272e+00
 5.8923550874e-01	 1.3922057074e+00	-1.7954202211e+00
 5.7614829760e-01	 1.3976724804e+00	-1.7632700509e+00
 5.6303500386e-01	 1.4030063528e+00	-1.7321415927e+00
 5.4989756546e-01	 1.4082073493e+00	-1.7026009193e+00
 5.3673791214e-01	 1.4132755305e+00	-1.6751739959e+00
 5.2355796463e-01	 1.4182109929e+00	-1.6503542124e+00
 6.5803016576e-01	 1.3708341282e+00	-1.9197064730e+00
 6.4502721837e-01	 1.3770002693e+00	-1.8966222066e+00
 6.3198819513e-01	 1.3830331649e+00	-1.8707447282e+00
 6.1891507405e-01	 1.3889326539e+00	-1.8423413629e+00
 6.0580982910e-01	 1.3946986128e+00	-1.8116849760e+00
 5.9267442934e-01	 1.4003309558e+00	-1.7790539028e+00
 5.7951083807e-01	 1.4058296342e+00	-1.7452675077e+00
 5.6632101199e-01	 1.4111946364e+00	-1.7125351575e+00
 5.5310690033e-01	 1.4164259871e+00	-1.6815694569e+00
 5.3987044410e-01	 1.4215237475e+00	-1.6529142710e+00
 5.2661357524e-01	 1.4264880145e+00	-1.6270815438e+00
 6.6184830499e-01	 1.3787882249e+00	-1.9081161698e+00
 6.4876990960e-01	 1.3849901442e+00	-1.8843421446e+00
 6.3565522902e-01	 1.3910580450e+00	-1.8576523083e+00
 6.2250625276e-01	 1.3969917650e+00	-1.8283216160e+00
 6.0932496624e-01	 1.4027911802e+00	-1.7966324852e+00
 5.9611334994e-01	 1.4084562042e+00	-1.7628746926e+00
 5.8287337855e-01	 1.4139867881e+00	-1.7275695544e+00
 5.6960702012e-01	 1.4193829200e+00	-1.6931726050e+00
 5.5631623520e-01	 1.4246446250e+00	-1.6607595152e+00
 5.4300297606e-01	 1.4297719645e+00	-1.6308987439e+00
 5.2966918584e-01	 1.4347650360e+00	-1.6041277036e+00
 4.9911307980e-01	 1.3519948207e+00	-1.8518005864e+00
 4.8653311820e-01	 1.3565726823e+00	-1.8349801863e+00
 4.7393744782e-01	 1.3610243479e+00	-1.8168569241e+00
 4.6132786810e-01	 1.3653500079e+00	-1.7977026538e+00
 4.4870616704e-01	 1.3695498853e+00	-1.7777558950e+00
 4.3607412057e-01	 1.3736242346e+00	-1.7572230913e+00
 4.2343349180e-01	 1.3775733421e+00	-1.7362799128e+00
 4.1078603044e-01	 1.3813975249e+00	-1.7150725940e+00
 3.9813347216e-01	 1.3850971308e+00	-1.6937192973e+00
 3.8547753797e-01	 1.3886725372e+00	-1.6723114937e+00
 3.7281993362e-01	 1.3921241513e+00	-1.6509153514e+00
 5.0216869040e-01	 1.3602718422e+00	-1.8248601162e+00
 4.8951171327e-01	 1.3648777299e+00	-1.8072943140e+00
 4.7683893117e-01	 1.3693566489e+00	-1.7882204179e+00
 4.6415215458e-01	 1.3737087910e+00	-1.7679480654e+00
 4.5145318246e-01	 1.3779343803e+00	-1.7467537789e+00
 4.3874380157e-01	 1.3820336731e+00	-1.7248822302e+00
 4.2602578585e-01	 1.3860069574e+00	-1.7025475501e+00
 4.1330089571e-01	 1.3898545522e+00	-1.6799346716e+00
 4.0057087745e-01	 1.3935768073e+00	-1.6572006973e+00
 3.8783746261e-01	 1.3971741027e+00	-1.6344762832e+00
 3.7510236738e-01	 1.4006468478e+00	-1.6118670290e+00
 5.0522430101e-01	 1.3685488637e+00	-1.7984791407e+00
 4.9249030833e-01	 1.3731827774e+00	-1.7800468940e+00
 4.7974041452e-01	 1.3776889500e+00	-1.7599444685e+00
 4.6697644107e-01	 1.3820675741e+00	-1.7385153437e+00
 4.5420019787e-01	 1.3863188754e+00	-1.7160698663e+00
 4.4141348257e-01	 1.3904431117e+00	-1.6928865341e+00
 4.2861807990e-01	 1.3944405727e+00	-1.6692133228e+00
 4.1581576098e-01	 1.3983115795e+00	-1.6452690461e+00
 4.0300828274e-01	 1.4020564839e+00	-1.6212447399e+00
 3.9019738724e-01	 1.4056756681e+00	-1.5973050601e+00
 3.7738480114e-01	 1.4091695444e+00	-1.5735896855e+00
 5.0827991161e-01	 1.3768258853e+00	-1.7726298932e+00
 4.9546890339e-01	 1.3814878250e+00	-1.7532402104e+00
 4.8264189788e-01	 1.3860212510e+00	-1.7320565839e+00
 4.6980072755e-01	 1.3904263571e+00	-1.7094524480e+00
 4.5694721328e-01	 1.3947033704e+00	-1.6857678540e+00
 4.4408316357e-01	 1.3988525502e+00	-1.6613107835e+00
 4.3121037395e-01	 1.4028741880e+00	-1.6363585051e+00
 4.1833062625e-01	 1.4067686067e+00	-1.6111589631e+00
 4.0544568802e-01	 1.4105361604e+00	-1.5859321889e+00
 3.9255731188e-01	 1.4141772336e+00	-1.5608717251e+00
 3.7966723490e-01	 1.4176922409e+00	-1.5361460533e+00
 5.1133552222e-01	 1.3851029068e+00	-1.7472842525e+00
 4.9844749846e-01	 1.3897928726e+00	-1.7268757352e+00
 4.8554338123e-01	 1.3943535520e+00	-1.7045831143e+00
 4.7262501404e-01	 1.3987851402e+00	-1.6808059442e+00
 4.5969422869e-01	 1.4030878655e+00	-1.6559099159e+00
 4.4675284457e-01	 1.4072619888e+00	-1.6302282113e+00
 4.3380266800e-01	 1.4113078033e+00	-1.6040629010e+00
 4.2084549152e-01	 1.4152256340e+00	-1.5776863734e+00
 4.0788309331e-01	 1.4190158370e+00	-1.5513427847e+00
 3.9491723651e-01	 1.4226787991e+00	-1.5252495213e+00
 3.8194966865e-01	 1.4262149375e+00	-1.4995986633e+00
 5.1439113282e-01	 1.3933799283e+00	-1.7224135856e+00
 5.0142609352e-01	 1.3980979202e+00	-1.7009539952e+00
 4.8844486458e-01	 1.4026858530e+00	-1.6775491394e+00
 4.7544930052e-01	 1.4071439233e+00	-1.6526209083e+00
 4.6244124410e-01	 1.4114723605e+00	-1.6265566205e+00
 4.4942252558e-01	 1.4156714273e+00	-1.5997104305e+00
 4.3639496205e-01	 1.4197414186e+00	-1.5724047785e+00
 4.2336035679e-01	 1.4236826613e+00	-1.5449318715e+00
 4.1032049859e-01	 1.4274955135e+00	-1.5175551847e+00
 3.9727716114e-01	 1.4311803646e+00	-1.4905109719e+00
 3.8423210241e-01	 1.4347376340e+00	-1.4640097773e+00
 5.1744674343e-01	 1.4016569499e+00	-1.6979885946e+00
 5.0440468858e-01	 1.4064029677e+00	-1.6754744406e+00
 4.9134634793e-01	 1.4110181541e+00	-1.6509783564e+00
 4.7827358701e-01	 1.4155027064e+00	-1.6249408311e+00
 4.6518825951e-01	 1.4198568556e+00	-1.5977668489e+00
 4.5209220658e-01	 1.4240808659e+00	-1.5698273620e+00
 4.3898725610e-01	 1.4281750339e+00	-1.5414608039e+00
 4.2587522206e-01	 1.4321396885e+00	-1.5129746344e+00
 4.1275790388e-01	 1.4359751901e+00	-1.4846469022e+00
 3.9963708578e-01	 1.4396819301e+00	-1.4567278173e+00
 3.8651453617e-01	 1.4432603305e+00	-1.4294413208e+00
 5.2050235403e-01	 1.4099339714e+00	-1.6739791641e+00
 5.0738328364e-01	 1.4147080153e+00	-1.6504353154e+00
 4.9424783128e-01	 1.4193504551e+00	-1.6248929700e+00
 4.8109787349e-01	 1.4238614894e+00	-1.5978075234e+00
 4.6793527492e-01	 1.4282413507e+00	-1.5695977123e+00
 4.5476188758e-01	 1.4324903045e+00	-1.5406471621e+00
 4.4157955015e-01	 1.4366086492e+00	-1.5113059772e+00
 4.2839008733e-01	 1.4405967158e+00	-1.4818923596e+00
 4.1519530916e-01	 1.4444548666e+00	-1.4526942462e+00
 4.0199701041e-01	 1.4481834955e+00	-1.4239709533e+00
 3.8879696993e-01	 1.4517830271e+00	-1.3959548162e+00
 5.2355796463e-01	 1.4182109929e+00	-1.6503542124e+00
 5.1036187871e-01	 1.4230130629e+00	-1.6258335297e+00
 4.9714931463e-01	 1.4276827561e+00	-1.5993135819e+00
 4.8392215997e-01	 1.4322202725e+00	-1.5712610219e+00
 4.7068229033e-01	 1.4366258457e+00	-1.5421044705e+00
 4.5743156858e-01	 1.4408997430e+00	-1.5122361508e+00
 4.4417184420e-01	 1.4450422646e+00	-1.4820135659e+00
 4.3090495260e-01	 1.4490537431e+00	-1.4517612039e+00
 4.1763271445e-01	 1.4529345432e+00	-1.4217722611e+00
 4.0435693504e-01	 1.4566850610e+00	-1.3923103688e+00
 3.9107940368e-01	 1.4603057236e+00	-1.3636113165e+00
 5.2661357524e-01	 1.4264880145e+00	-1.6270815438e+00
 5.1334047377e-01	 1.4313181105e+00	-1.6016645330e+00
 5.0005079798e-01	 1.4360150572e+00	-1.5742590830e+00
 4.8674644646e-01	 1.4405790556e+00	-1.5453394957e+00
 4.7342930574e-01	 1.4450103408e+00	-1.5153404507e+00
 4.6010124958e-01	 1.4493091816e+00	-1.4846587392e+00
 4.4676413825e-01	 1.4534758799e+00	-1.4536550397e+00
 4.3341981787e-01	 1.4575107703e+00	-1.4226557219e+00
 4.2007011973e-01	 1.4614142197e+00	-1.3919546656e+00
 4.0671685968e-01	 1.4651866265e+00	-1.3618150841e+00
 3.9336183744e-01	 1.4688284202e+00	-1.3324713395e+00
 5.2966918584e-01	 1.4347650360e+00	-1.6041277036e+00
 5.1631906883e-01	 1.4396231580e+00	-1.5779221894e+00
 5.0295228133e-01	 1.4443473582e+00	-1.5497465456e+00
 4.8957073294e-01	 1.4489378386e+00	-1.5200791531e+00
 4.7617632115e-01	 1.4533948358e+00	-1.4893569661e+00
 4.6277093058e-01	 1.4577186201e+00	-1.4579773578e+00
 4.4935643230e-01	 1.4619094952e+00	-1.4263000054e+00
 4.3593468314e-01	 1.4659677976e+00	-1.3946488038e+00
 4.2250752502e-01	 1.4698938963e+00	-1.3633137932e+00
 4.0907678431e-01	 1.4736881920e+00	-1.3325530892e+00
 3.9564427119e-01	 1.4773511167e+00	-1.3025948027e+00
 3.7281993362e-01	 1.3921241513e+00	-1.6509153514e+00
 3.6016234922e-01	 1.3954524094e+00	-1.6296236949e+00
 3.4750645917e-01	 1.3986577775e+00	-1.6085921392e+00
 3.3485392108e-01	 1.4017407496e+00	-1.5879440614e+00
 3.2220637509e-01	 1.4047018470e+00	-1.5677786720e+00
 3.0956544337e-01	 1.4075416178e+00	-1.5481721822e+00
 2.9693272962e-01	 1.4102606362e+00	-1.5291789477e+00
 2.8430981862e-01	 1.4128595019e+00	-1.5108325862e+00
 2.7169827581e-01	 1.4153388396e+00	-1.4931470621e+00
 2.5909964687e-01	 1.4176992982e+00	-1.4761177358e+00
 2.4651545727e-01	 1.4199415504e+00	-1.4597223744e+00
 3.7510236738e-01	 1.4006468478e+00	-1.6118670290e+00
 3.6236729222e-01	 1.4039954818e+00	-1.5894686160e+00
 3.4963392179e-01	 1.4072204734e+00	-1.5674065069e+00
 3.3690392384e-01	 1.4103223197e+00	-1.5457939337e+00
 3.2417894856e-01	 1.4133015452e+00	-1.5247196855e+00
 3.1146062803e-01	 1.4161587013e+00	-1.5042493409e+00
 2.9875057578e-01	 1.4188943658e+00	-1.4844264741e+00
 2.8605038630e-01	 1.4215091420e+00	-1.4652738299e+00
 2.7336163461e-01	 1.4240036583e+00	-1.4467944642e+00
 2.6068587584e-01	 1.4263785678e+00	-1.4289728442e+00
 2.4802464481e-01	 1.4286345473e+00	-1.4117759064e+00
 3.7738480114e-01	 1.4091695444e+00	-1.5735896855e+00
 3.6457223523e-01	 1.4125385542e+00	-1.5501838002e+00
 3.5176138441e-01	 1.4157831693e+00	-1.5271746404e+00
 3.3895392660e-01	 1.4189038898e+00	-1.5046677794e+00
 3.2615152202e-01	 1.4219012434e+00	-1.4827441199e+00
 3.1335581269e-01	 1.4247757848e+00	-1.4614611883e+00
 3.0056842194e-01	 1.4275280953e+00	-1.4408544001e+00
 2.8779095398e-01	 1.4301587820e+00	-1.4209382915e+00
 2.7502499341e-01	 1.4326684771e+00	-1.4017077104e+00
 2.6227210481e-01	 1.4350578375e+00	-1.3831389662e+00
 2.4953383236e-01	 1.4373275442e+00	-1.3651909317e+00
 3.7966723490e-01	 1.4176922409e+00	-1.5361460533e+00
 3.6677717823e-01	 1.4210816266e+00	-1.5118190960e+00
 3.5388884703e-01	 1.4243458653e+00	-1.4879342760e+00
 3.4100392936e-01	 1.4274854599e+00	-1.4645919200e+00
 3.2812409548e-01	 1.4305009416e+00	-1.4418675044e+00
 3.1525099734e-01	 1.4333928683e+00	-1.4198130108e+00
 3.0238626810e-01	 1.4361618249e+00	-1.3984582475e+00
 2.8953152166e-01	 1.4388084220e+00	-1.3778121340e+00
 2.7668835221e-01	 1.4413332958e+00	-1.3578639420e+00
 2.6385833379e-01	 1.4437371071e+00	-1.3385844896e+00
 2.5104301991e-01	 1.4460205411e+00	-1.3199272852e+00
 3.8194966865e-01	 1.4262149375e+00	-1.4995986633e+00
 3.6898212123e-01	 1.4296246990e+00	-1.4744246341e+00
 3.5601630965e-01	 1.4329085612e+00	-1.4497238838e+00
 3.4305393212e-01	 1.4360670301e+00	-1.4255938296e+00
 3.3009666894e-01	 1.4391006398e+00	-1.4021069097e+00
 3.1714618200e-01	 1.4420099519e+00	-1.3793119955e+00
 3.0420411427e-01	 1.4447955545e+00	-1.3572357684e+00
 2.9127208935e-01	 1.4474580620e+00	-1.3358840538e+00
 2.7835171101e-01	 1.4499981145e+00	-1.3152431091e+00
 2.6544456276e-01	 1.4524163768e+00	-1.2952808605e+00
 2.5255220746e-01	 1.4547135380e+00	-1.2759480860e+00
 3.8423210241e-01	 1.4347376340e+00	-1.4640097773e+00
 3.7118706424e-01	 1.4381677714e+00	-1.4380507539e+00
 3.5814377228e-01	 1.4414712571e+00	-1.4125825878e+00
 3.4510393488e-01	 1.4446486002e+00	-1.3877020514e+00
 3.3206924241e-01	 1.4477003380e+00	-1.3634808597e+00
 3.1904136666e-01	 1.4506270354e+00	-1.3399671381e+00
 3.0602196043e-01	 1.4534292840e+00	-1.3171868504e+00
 2.9301265703e-01	 1.4561077021e+00	-1.2951451817e+00
 2.8001506981e-01	 1.4586629333e+00	-1.2738278697e+00
 2.6703079174e-01	 1.4610956464e+00	-1.2532024816e+00
 2.5406139501e-01	 1.4634065349e+00	-1.2332196326e+00
 3.8651453617e-01	 1.4432603305e+00	-1.4294413208e+00
 3.7339200724e-01	 1.4467108438e+00	-1.4027479301e+00
 3.6027123490e-01	 1.4500339530e+00	-1.3765500881e+00
 3.4715393765e-01	 1.4532301703e+00	-1.3509461145e+00
 3.3404181587e-01	 1.4563000362e+00	-1.3260092450e+00
 3.2093655132e-01	 1.4592441189e+00	-1.3017891520e+00
 3.0783980660e-01	 1.4620630136e+00	-1.2783134230e+00
 2.9475322471e-01	 1.4647573421e+00	-1.2555889878e+00
 2.8167842861e-01	 1.4673277520e+00	-1.2336034920e+00
 2.6861702071e-01	 1.4697749161e+00	-1.2123266113e+00
 2.5557058256e-01	 1.4720995319e+00	-1.1917113024e+00
 3.8879696993e-01	 1.4517830271e+00	-1.3959548162e+00
 3.7559695024e-01	 1.4552539162e+00	-1.3685667005e+00
 3.6239869752e-01	 1.4585966490e+00	-1.3416665834e+00
 3.4920394041e-01	 1.4618117405e+00	-1.3153564524e+00
 3.3601438933e-01	 1.4648997344e+00	-1.2897132369e+00
 3.2283173597e-01	 1.4678612024e+00	-1.2647903806e+00
 3.0965765276e-01	 1.4706967432e+00	-1.2406193665e+00
 2.9649379240e-01	 1.4734069821e+00	-1.2172111874e+00
 2.8334178740e-01	 1.4759925707e+00	-1.1945577588e+00
 2.7020324969e-01	 1.4784541858e+00	-1.1726332673e+00
 2.5707977011e-01	 1.4807925288e+00	-1.1513954525e+00
 3.9107940368e-01	 1.4603057236e+00	-1.3636113165e+00
 3.7780189324e-01	 1.4637969887e+00	-1.3355575949e+00
 3.6452616014e-01	 1.4671593449e+00	-1.3079726953e+00
 3.5125394317e-01	 1.4703933106e+00	-1.2809643230e+00
 3.3798696279e-01	 1.4734994326e+00	-1.2546152046e+00
 3.2472692063e-01	 1.4764782859e+00	-1.2289847101e+00
 3.1147549892e-01	 1.4793304727e+00	-1.2041104225e+00
 2.9823436008e-01	 1.4820566222e+00	-1.1800096497e+00
 2.8500514620e-01	 1.4846573895e+00	-1.1566808738e+00
 2.7178947866e-01	 1.4871334554e+00	-1.1341051315e+00
 2.5858895766e-01	 1.4894855257e+00	-1.1122473237e+00
 3.9336183744e-01	 1.4688284202e+00	-1.3324713395e+00
 3.8000683624e-01	 1.4723400611e+00	-1.3037710637e+00
 3.6665362276e-01	 1.4757220408e+00	-1.2755093930e+00
 3.5330394593e-01	 1.4789748807e+00	-1.2478017299e+00
 3.3995953626e-01	 1.4820991308e+00	-1.2207386327e+00
 3.2662210529e-01	 1.4850953694e+00	-1.1943874848e+00
 3.1329334509e-01	 1.4879642023e+00	-1.1687941069e+00
 2.9997492776e-01	 1.4907062622e+00	-1.1439843088e+00
 2.8666850500e-01	 1.4933222082e+00	-1.1199653712e+00
 2.7337570764e-01	 1.4958127251e+00	-1.0967274574e+00
 2.6009814521e-01	 1.4981785226e+00	-1.0742449472e+00
 3.9564427119e-01	 1.4773511167e+00	-1.3025948027e+00
 3.8221177925e-01	 1.4808831335e+00	-1.2732574086e+00
 3.6878108538e-01	 1.4842847367e+00	-1.2443179193e+00
 3.5535394869e-01	 1.4875564508e+00	-1.2159013447e+00
 3.4193210972e-01	 1.4906988290e+00	-1.1881080406e+00
 3.2851728995e-01	 1.4937124529e+00	-1.1610154236e+00
 3.1511119125e-01	 1.4965979319e+00	-1.1346796244e+00
 3.0171549544e-01	 1.4993559022e+00	-1.1091370756e+00
 2.8833186380e-01	 1.5019870269e+00	-1.0844060262e+00
 2.7496193661e-01	 1.5044919947e+00	-1.0604879802e+00
 2.6160733276e-01	 1.5068715195e+00	-1.0373690534e+00
 2.4651545727e-01	 1.4199415504e+00	-1.4597223744e+00
 2.3394507721e-01	 1.4220666433e+00	-1.4442547921e+00
 2.2139213491e-01	 1.4240749033e+00	-1.4299587797e+00
 2.0885809711e-01	 1.4259670700e+00	-1.4167059534e+00
 1.9634440887e-01	 1.4277439043e+00	-1.4043548661e+00
 1.8385249329e-01	 1.4294061875e+00	-1.3927518011e+00
 1.7138375121e-01	 1.4309547213e+00	-1.3817315177e+00
 1.5893956096e-01	 1.4323903263e+00	-1.3711179445e+00
 1.4652127812e-01	 1.4337138423e+00	-1.3607248249e+00
 1.3413023525e-01	 1.4349261269e+00	-1.3503563117e+00
 1.2176774173e-01	 1.4360280554e+00	-1.3398075141e+00
 2.4802464481e-01	 1.4286345473e+00	-1.4117759064e+00
 2.3537730787e-01	 1.4307726502e+00	-1.3954954166e+00
 2.2274751545e-01	 1.4327932049e+00	-1.3803871756e+00
 2.1013674326e-01	 1.4346969556e+00	-1.3663325603e+00
 1.9754644521e-01	 1.4364846678e+00	-1.3531996856e+00
 1.8497805311e-01	 1.4381571277e+00	-1.3408442117e+00
 1.7243297638e-01	 1.4397151417e+00	-1.3291100963e+00
 1.5991260180e-01	 1.4411595356e+00	-1.3178302959e+00
 1.4741829322e-01	 1.4424911543e+00	-1.3068274131e+00
 1.3495139139e-01	 1.4437108606e+00	-1.2959142927e+00
 1.2251321368e-01	 1.4448195352e+00	-1.2848945671e+00
 2.4953383236e-01	 1.4373275442e+00	-1.3651909317e+00
 2.3680953854e-01	 1.4394786571e+00	-1.3481540939e+00
 2.2410289599e-01	 1.4415115065e+00	-1.3322938885e+00
 2.1141538940e-01	 1.4434268413e+00	-1.3174996337e+00
 1.9874848154e-01	 1.4452254314e+00	-1.3036472976e+00
 1.8610361293e-01	 1.4469080679e+00	-1.2906003164e+00
 1.7348220156e-01	 1.4484755621e+00	-1.2782103569e+00
 1.6088564264e-01	 1.4499287449e+00	-1.2663180231e+00
 1.4831530833e-01	 1.4512684663e+00	-1.2547535063e+00
 1.3577254752e-01	 1.4524955943e+00	-1.2433371820e+00
 1.2325868564e-01	 1.4536110149e+00	-1.2318801524e+00
 2.5104301991e-01	 1.4460205411e+00	-1.3199272852e+00
 2.3824176920e-01	 1.4481846640e+00	-1.3021825415e+00
 2.2545827653e-01	 1.4502298082e+00	-1.2856232485e+00
 2.1269403555e-01	 1.4521567269e+00	-1.2701448671e+00
 1.9995051788e-01	 1.4539661949e+00	-1.2556295288e+00
 1.8722917275e-01	 1.4556590081e+00	-1.2419468671e+00
 1.7453142673e-01	 1.4572359825e+00	-1.2289547886e+00
 1.6185868347e-01	 1.4586979543e+00	-1.2165001857e+00
 1.4921232343e-01	 1.4600457783e+00	-1.2044195896e+00
 1.3659370366e-01	 1.4612803280e+00	-1.1925397667e+00
 1.2400415759e-01	 1.4624024947e+00	-1.1806782575e+00
 2.5255220746e-01	 1.4547135380e+00	-1.2759480860e+00
 2.3967399987e-01	 1.4568906709e+00	-1.2575359555e+00
 2.2681365707e-01	 1.4589481098e+00	-1.2403232213e+00
 2.1397268170e-01	 1.4608866125e+00	-1.2242097069e+00
 2.0115255422e-01	 1.4627069585e+00	-1.2090820378e+00
 1.8835473257e-01	 1.4644099482e+00	-1.1948144852e+00
 1.7558065191e-01	 1.4659964030e+00	-1.1812697467e+00
 1.6283172431e-01	 1.4674671636e+00	-1.1682996648e+00
 1.5010933854e-01	 1.4688230902e+00	-1.1557458824e+00
 1.3741485980e-01	 1.4700650617e+00	-1.1434404381e+00
 1.2474962954e-01	 1.4711939745e+00	-1.1312063011e+00
 2.5406139501e-01	 1.4634065349e+00	-1.2332196326e+00
 2.4110623054e-01	 1.4655966777e+00	-1.2141729057e+00
 2.2816903761e-01	 1.4676664114e+00	-1.1963453023e+00
 2.1525132785e-01	 1.4696164981e+00	-1.1796392476e+00
 2.0235459056e-01	 1.4714477220e+00	-1.1639442101e+00
 1.8948029239e-01	 1.4731608884e+00	-1.1491375585e+00
 1.7662987708e-01	 1.4747568234e+00	-1.1350853524e+00
 1.6380476514e-01	 1.4762363729e+00	-1.1216430658e+00
 1.5100635364e-01	 1.4776004022e+00	-1.1086562454e+00
 1.3823601594e-01	 1.4788497954e+00	-1.0959611039e+00
 1.2549510150e-01	 1.4799854543e+00	-1.0833850507e+00
 2.5557058256e-01	 1.4720995319e+00	-1.1917113024e+00
 2.4253846121e-01	 1.4743026846e+00	-1.1720552330e+00
 2.2952441815e-01	 1.4763847130e+00	-1.1536444140e+00
 2.1652997400e-01	 1.4783463837e+00	-1.1363821291e+00
 2.0355662689e-01	 1.4801884855e+00	-1.1201590568e+00
 1.9060585221e-01	 1.4819118286e+00	-1.1048541419e+00
 1.7767910225e-01	 1.4835172438e+00	-1.0903353954e+00
 1.6477780598e-01	 1.4850055822e+00	-1.0764606242e+00
 1.5190336875e-01	 1.4863777142e+00	-1.0630780904e+00
 1.3905717208e-01	 1.4876345291e+00	-1.0500271031e+00
 1.2624057345e-01	 1.4887769341e+00	-1.0371385431e+00
 2.5707977011e-01	 1.4807925288e+00	-1.1513954525e+00
 2.4397069187e-01	 1.4830086915e+00	-1.1311479496e+00
 2.3087979869e-01	 1.4851030147e+00	-1.1121788061e+00
 2.1780862014e-01	 1.4870762694e+00	-1.0943904371e+00
 2.0475866323e-01	 1.4889292491e+00	-1.0776731162e+00
 1.9173141203e-01	 1.4906627688e+00	-1.0619058604e+00
 1.7872832743e-01	 1.4922776642e+00	-1.0469572403e+00
 1.6575084681e-01	 1.4937747915e+00	-1.0326861150e+00
 1.5280038385e-01	 1.4951550262e+00	-1.0189422935e+00
 1.3987832822e-01	 1.4964192628e+00	-1.0055671229e+00
 1.2698604541e-01	 1.4975684139e+00	-9.9239400745e-01
 2.5858895766e-01	 1.4894855257e+00	-1.1122473237e+00
 2.4540292254e-01	 1.4917146984e+00	-1.0914191425e+00
 2.3223517923e-01	 1.4938213163e+00	-1.0719099581e+00
 2.1908726629e-01	 1.4958061550e+00	-1.0536196069e+00
 2.0596069957e-01	 1.4976700126e+00	-1.0364363586e+00
 1.9285697185e-01	 1.4994137089e+00	-1.0202378158e+00
 1.7977755260e-01	 1.5010380847e+00	-1.0048917346e+00
 1.6672388765e-01	 1.5025440008e+00	-9.9025676440e-01
 1.5369739896e-01	 1.5039323382e+00	-9.7618311056e-01
 1.4069948436e-01	 1.5052039965e+00	-9.6251311966e-01
 1.2773151736e-01	 1.5063598937e+00	-9.4908179043e-01
 2.6009814521e-01	 1.4981785226e+00	-1.0742449472e+00
 2.4683515321e-01	 1.5004207053e+00	-1.0528398791e+00
 2.3359055977e-01	 1.5025396179e+00	-1.0328024855e+00
 2.2036591244e-01	 1.5045360406e+00	-1.0140283292e+00
 2.0716273591e-01	 1.5064107762e+00	-9.9640209302e-01
 1.9398253167e-01	 1.5081646491e+00	-9.7979849547e-01
 1.8082677778e-01	 1.5097985051e+00	-9.6408312065e-01
 1.6769692849e-01	 1.5113132102e+00	-9.4911316414e-01
 1.5459441406e-01	 1.5127096502e+00	-9.3473809573e-01
 1.4152064050e-01	 1.5139887301e+00	-9.2080024106e-01
 1.2847698931e-01	 1.5151513734e+00	-9.0713528424e-01
 2.6160733276e-01	 1.5068715195e+00	-1.0373690534e+00
 2.4826738388e-01	 1.5091267122e+00	-1.0153841157e+00
 2.3494594031e-01	 1.5112579195e+00	-9.9482404805e-01
 2.2164455859e-01	 1.5132659262e+00	-9.7557845914e-01
 2.0836477224e-01	 1.5151515397e+00	-9.5752687781e-01
 1.9510809149e-01	 1.5169155893e+00	-9.4053968409e-01
 1.8187600295e-01	 1.5185589255e+00	-9.2447894969e-01
 1.6866996932e-01	 1.5200824195e+00	-9.0919918897e-01
 1.5549142916e-01	 1.5214869622e+00	-8.9454802200e-01
 1.4234179663e-01	 1.5227734638e+00	-8.8036675156e-01
 1.2922246127e-01	 1.5239428532e+00	-8.6649085665e-01
 1.2176774173e-01	 1.4360280554e+00	-1.3398075141e+00
 1.0943717242e-01	 1.4370203602e+00	-1.3301636368e+00
 9.7137661338e-02	 1.4379041455e+00	-1.3224674624e+00
 8.4870418512e-02	 1.4386803344e+00	-1.3164432165e+00
 7.2636630905e-02	 1.4393498649e+00	-1.3118071171e+00
 6.0437462281e-02	 1.4399136891e+00	-1.3082677231e+00
 4.8274053106e-02	 1.4403727731e+00	-1.3055262466e+00
 3.6147520452e-02	 1.4407280959e+00	-1.3032768314e+00
 2.4058957924e-02	 1.4409806490e+00	-1.3012068009e+00
 1.2009435603e-02	 1.4411314357e+00	-1.2989968771e+00
 0.0000000000e+00	 1.4411814706e+00	-1.2963213739e+00
 1.2251321368e-01	 1.4448195352e+00	-1.2848945671e+00
 1.1010715563e-01	 1.4458179149e+00	-1.2748541032e+00
 9.7732345950e-02	 1.4467071109e+00	-1.2668212415e+00
 8.5390002073e-02	 1.4474880517e+00	-1.2605062753e+00
 7.3081318229e-02	 1.4481616810e+00	-1.2556116439e+00
 6.0807465309e-02	 1.4487289571e+00	-1.2518322879e+00
 4.8569590760e-02	 1.4491908516e+00	-1.2488559652e+00
 3.6368818493e-02	 1.4495483497e+00	-1.2463635305e+00
 2.4206248808e-02	 1.4498024489e+00	-1.2440291827e+00
 1.2082958338e-02	 1.4499541587e+00	-1.2415206809e+00
 0.0000000000e+00	 1.4500045000e+00	-1.2384995327e+00
 1.2325868564e-01	 1.4536110149e+00	-1.2318801524e+00
 1.1077713885e-01	 1.4546154697e+00	-1.2214685882e+00
 9.8327030562e-02	 1.4555100762e+00	-1.2131180473e+00
 8.5909585633e-02	 1.4562957689e+00	-1.2065269550e+00
 7.3526005553e-02	 1.4569734972e+00	-1.2013860664e+00
 6.1177468337e-02	 1.4575442250e+00	-1.1973788252e+00
 4.8865128414e-02	 1.4580089301e+00	-1.1941816796e+00
 3.6590116533e-02	 1.4583686035e+00	-1.1914643605e+00
 2.4353539692e-02	 1.4586242489e+00	-1.1888901241e+00
 1.2156481073e-02	 1.4587768818e+00	-1.1861159620e+00
 0.0000000000e+00	 1.4588275294e+00	-1.1827927819e+00
 1.2400415759e-01	 1.4624024947e+00	-1.1806782575e+00
 1.1144712206e-01	 1.4634130244e+00	-1.1699208436e+00
 9.8921715174e-02	 1.4643130416e+00	-1.1612715927e+00
 8.6429169193e-02	 1.4651034862e+00	-1.1544190998e+00
 7.3970692876e-02	 1.4657853134e+00	-1.1490445051e+00
 6.1547471364e-02	 1.4663594930e+00	-1.1448218522e+00
 4.9160666067e-02	 1.4668270086e+00	-1.1414184012e+00
 3.6811414574e-02	 1.4671888574e+00	-1.1384949020e+00
 2.4500830576e-02	 1.4674460489e+00	-1.1357058291e+00
 1.2230003808e-02	 1.4675996049e+00	-1.1326995819e+00
 0.0000000000e+00	 1.4676505588e+00	-1.1291186546e+00
 1.2474962954e-01	 1.4711939745e+00	-1.1312063011e+00
 1.1211710527e-01	 1.4722105792e+00	-1.1201278444e+00
 9.9516399786e-02	 1.4731160069e+00	-1.1111985794e+00
 8.6948752753e-02	 1.4739112034e+00	-1.1040992832e+00
 7.4415380199e-02	 1.4745971296e+00	-1.0985035257e+00
 6.1917474391e-02	 1.4751747609e+00	-1.0940780237e+00
 4.9456203720e-02	 1.4756450871e+00	-1.0904829489e+00
 3.7032712614e-02	 1.4760091112e+00	-1.0873721914e+00
 2.4648121460e-02	 1.4762678488e+00	-1.0843935846e+00
 1.2303526542e-02	 1.4764223280e+00	-1.0811890923e+00
 0.0000000000e+00	 1.4764735882e+00	-1.0773949633e+00
 1.2549510150e-01	 1.4799854543e+00	-1.0833850507e+00
 1.1278708848e-01	 1.4810081339e+00	-1.0720097124e+00
 1.0011108440e-01	 1.4819189723e+00	-1.0628186284e+00
 8.7468336312e-02	 1.4827189207e+00	-1.0554867453e+00
 7.4860067522e-02	 1.4834089457e+00	-1.0496820834e+00
 6.2287477417e-02	 1.4839900289e+00	-1.0450660843e+00
 4.9751741372e-02	 1.4844631656e+00	-1.0412939083e+00
 3.7254010654e-02	 1.4848293650e+00	-1.0380146876e+00
 2.4795412343e-02	 1.4850896488e+00	-1.0348717357e+00
 1.2377049277e-02	 1.4852450511e+00	-1.0315027187e+00
 0.0000000000e+00	 1.4852966177e+00	-1.0275397915e+00
 1.2624057345e-01	 1.4887769341e+00	-1.0371385431e+00
 1.1345707170e-01	 1.4898056887e+00	-1.0254896432e+00
 1.0070576901e-01	 1.4907219377e+00	-1.0160542129e+00
 8.7987919871e-02	 1.4915266379e+00	-1.0085033323e+00
 7.5304754845e-02	 1.4922207619e+00	-1.0025014700e+00
 6.2657480444e-02	 1.4928052968e+00	-9.9770682135e-01
 5.0047279025e-02	 1.4932812441e+00	-9.9377159318e-01
 3.7475308694e-02	 1.4936496188e+00	-9.9034224116e-01
 2.4942703227e-02	 1.4939114487e+00	-9.8705966190e-01
 1.2450572012e-02	 1.4940677742e+00	-9.8355934458e-01
 0.0000000000e+00	 1.4941196471e+00	-9.7947148538e-01
 1.2698604541e-01	 1.4975684139e+00	-9.9239400745e-01
 1.1412705491e-01	 1.4986032435e+00	-9.8049383449e-01
 1.0130045362e-01	 1.4995249030e+00	-9.7083059362e-01
 8.8507503430e-02	 1.5003343552e+00	-9.6307343816e-01
 7.5749442167e-02	 1.5010325781e+00	-9.5688526144e-01
 6.3027483470e-02	 1.5016205648e+00	-9.5192302088e-01
 5.0342816678e-02	 1.5020993226e+00	-9.4783800732e-01
 3.7696606734e-02	 1.5024698726e+00	-9.4427606322e-01
 2.5089994111e-02	 1.5027332487e+00	-9.4087775391e-01
 1.2524094746e-02	 1.5028904973e+00	-9.3727849590e-01
 0.0000000000e+00	 1.5029426765e+00	-9.3310864630e-01
 1.2773151736e-01	 1.5063598937e+00	-9.4908179043e-01
 1.1479703812e-01	 1.5074007982e+00	-9.3695141782e-01
 1.0189513823e-01	 1.5083278684e+00	-9.2707575552e-01
 8.9027086989e-02	 1.5091420724e+00	-9.1912394810e-01
 7.6194129490e-02	 1.5098443942e+00	-9.1275926813e-01
 6.3397486497e-02	 1.5104358327e+00	-9.0763942371e-01
 5.0638354330e-02	 1.5109174011e+00	-9.0341680826e-01
 3.7917904774e-02	 1.5112901264e+00	-8.9973869659e-01
 2.5237284994e-02	 1.5115550487e+00	-8.9624739167e-01
 1.2597617481e-02	 1.5117132204e+00	-8.9258032620e-01
 0.0000000000e+00	 1.5117657059e+00	-8.8837012345e-01
 1.2847698931e-01	 1.5151513734e+00	-9.0713528424e-01
 1.1546702133e-01	 1.5161983530e+00	-8.9479439159e-01
 1.0248982284e-01	 1.5171308337e+00	-8.8472034749e-01
 8.9546670548e-02	 1.5179497897e+00	-8.7658418380e-01
 7.6638816813e-02	 1.5186562104e+00	-8.7005148662e-01
 6.3767489523e-02	 1.5192511007e+00	-8.6478268385e-01
 5.0933891983e-02	 1.5197354796e+00	-8.6043327209e-01
 3.8139202814e-02	 1.5201103802e+00	-8.5665398718e-01
 2.5384575878e-02	 1.5203768486e+00	-8.5309092287e-01
 1.2671140216e-02	 1.5205359435e+00	-8.4938560227e-01
 0.0000000000e+00	 1.5205887353e+00	-8.4517500652e-01
 1.2922246127e-01	 1.5239428532e+00	-8.6649085665e-01
 1.1613700454e-01	 1.5249959077e+00	-8.5395755677e-01
 1.0308450745e-01	 1.5259337991e+00	-8.4369762338e-01
 9.0066254107e-02	 1.5267575069e+00	-8.3538585066e-01
 7.7083504135e-02	 1.5274680266e+00	-8.2869205274e-01
 6.4137492550e-02	 1.5280663686e+00	-8.2328132796e-01
 5.1229429637e-02	 1.5285535581e+00	-8.1881425945e-01
 3.8360500855e-02	 1.5289306340e+00	-8.1494705660e-01
 2.5531866762e-02	 1.5291986486e+00	-8.1133164224e-01
 1.2744662951e-02	 1.5293586666e+00	-8.0761569030e-01
 0.0000000000e+00	 1.5294117647e+00	-8.0344261881e-01
 1.5294117647e+00	 0.0000000000e+00	 3.7275767888e+00
 1.5293586666e+00	 1.2744662951e-02	 3.7257295810e+00
 1.5291986486e+00	 2.5531866762e-02	 3.7215009389e+00
 1.5289306340e+00	 3.8360500855e-02	 3.7148665433e+00
 1.5285535581e+00	 5.1229429637e-02	 3.7058162682e+00
 1.5280663686e+00	 6.4137492550e-02	 3.6943554319e+00
 1.5274680266e+00	 7.7083504135e-02	 3.6805059944e+00
 1.5267575069e+00	 9.0066254107e-02	 3.6643076962e+00
 1.5259337991e+00	 1.0308450745e-01	 3.6458191369e+00
 1.5249959077e+00	 1.1613700454e-01	 3.6251187864e+00
 1.5239428532e+00	 1.2922246127e-01	 3.6023059271e+00
 1.5382347941e+00	 0.0000000000e+00	 3.7149249422e+00
 1.5381813897e+00	 1.2818185686e-02	 3.7129291570e+00
 1.5380204486e+00	 2.5679157647e-02	 3.7085978144e+00
 1.5377508879e+00	 3.8581798896e-02	 3.7018957112e+00
 1.5373716366e+00	 5.1524967290e-02	 3.6928027476e+00
 1.5368816366e+00	 6.4507495578e-02	 3.6813152055e+00
 1.5362798428e+00	 7.7528191458e-02	 3.6674469709e+00
 1.5355652242e+00	 9.0585837666e-02	 3.6512306960e+00
 1.5347367645e+00	 1.0367919206e-01	 3.6327188978e+00
 1.5337934625e+00	 1.1680698775e-01	 3.6119849876e+00
 1.5327343330e+00	 1.2996793322e-01	 3.5891242280e+00
 1.5470578235e+00	 0.0000000000e+00	 3.7022170444e+00
 1.5470041127e+00	 1.2891708422e-02	 3.7000780106e+00
 1.5468422485e+00	 2.5826448532e-02	 3.6956446398e+00
 1.5465711417e+00	 3.8803096937e-02	 3.6888714772e+00
 1.5461897151e+00	 5.1820504944e-02	 3.6797291000e+00
 1.5456969045e+00	 6.4877498605e-02	 3.6682054227e+00
 1.5450916589e+00	 7.7972878782e-02	 3.6543069432e+00
 1.5443729414e+00	 9.1105421225e-02	 3.6380599264e+00
 1.5435397298e+00	 1.0427387667e-01	 3.6195115218e+00
 1.5425910172e+00	 1.1747697097e-01	 3.5987308093e+00
 1.5415258128e+00	 1.3071340517e-01	 3.5758097705e+00
 1.5558808529e+00	 0.0000000000e+00	 3.6894045687e+00
 1.5558268358e+00	 1.2965231157e-02	 3.6871374054e+00
 1.5556640485e+00	 2.5973739417e-02	 3.6826117089e+00
 1.5553913955e+00	 3.9024394979e-02	 3.6757723949e+00
 1.5550077936e+00	 5.2116042599e-02	 3.6665813600e+00
 1.5545121725e+00	 6.5247501633e-02	 3.6550188114e+00
 1.5539034751e+00	 7.8417566105e-02	 3.6410845360e+00
 1.5531806587e+00	 9.1625004784e-02	 3.6247991047e+00
 1.5523426952e+00	 1.0486856128e-01	 3.6062050070e+00
 1.5513885720e+00	 1.1814695418e-01	 3.5853677121e+00
 1.5503172926e+00	 1.3145887712e-01	 3.5623766522e+00
 1.5647038823e+00	 0.0000000000e+00	 3.6764393717e+00
 1.5646495589e+00	 1.3038753893e-02	 3.6740688130e+00
 1.5644858484e+00	 2.6121030302e-02	 3.6694693569e+00
 1.5642116493e+00	 3.9245693021e-02	 3.6625769031e+00
 1.5638258721e+00	 5.2411580253e-02	 3.6533453006e+00
 1.5633274404e+00	 6.5617504661e-02	 3.6417477013e+00
 1.5627152913e+00	 7.8862253428e-02	 3.6277778508e+00
 1.5619883759e+00	 9.2144588344e-02	 3.6114513114e+00
 1.5611456605e+00	 1.0546324589e-01	 3.5928066132e+00
 1.5601861267e+00	 1.1881693739e-01	 3.5719063287e+00
 1.5591087724e+00	 1.3220434908e-01	 3.5488380666e+00
 1.5735269117e+00	 0.0000000000e+00	 3.6632736824e+00
 1.5734722820e+00	 1.3112276629e-02	 3.6608339057e+00
 1.5733076484e+00	 2.6268321188e-02	 3.6561879574e+00
 1.5730319031e+00	 3.9466991063e-02	 3.6492633255e+00
 1.5726439506e+00	 5.2707117907e-02	 3.6400064363e+00
 1.5721427084e+00	 6.5987507689e-02	 3.6283840304e+00
 1.5715271074e+00	 7.9306940752e-02	 3.6143844745e+00
 1.5707960932e+00	 9.2664171903e-02	 3.5980190013e+00
 1.5699486259e+00	 1.0605793051e-01	 3.5793228755e+00
 1.5689836815e+00	 1.1948692060e-01	 3.5583564805e+00
 1.5679002521e+00	 1.3294982103e-01	 3.5352063217e+00
 1.5823499412e+00	 0.0000000000e+00	 3.6498600918e+00
 1.5822950051e+00	 1.3185799365e-02	 3.6473945507e+00
 1.5821294484e+00	 2.6415612073e-02	 3.6427379194e+00
 1.5818521569e+00	 3.9688289105e-02	 3.6358098709e+00
 1.5814620291e+00	 5.3002655562e-02	 3.6265500259e+00
 1.5809579763e+00	 6.6357510716e-02	 3.6149193511e+00
 1.5803389236e+00	 7.9751628075e-02	 3.6009014891e+00
 1.5796038104e+00	 9.3183755462e-02	 3.5845040155e+00
 1.5787515913e+00	 1.0665261512e-01	 3.5657596178e+00
 1.5777812362e+00	 1.2015690381e-01	 3.5447271928e+00
 1.5766917319e+00	 1.3369529298e-01	 3.5214928570e+00
 1.5911729706e+00	 0.0000000000e+00	 3.6361515429e+00
 1.5911177282e+00	 1.3259322100e-02	 3.6337128023e+00
 1.5909512483e+00	 2.6562902958e-02	 3.6290896837e+00
 1.5906724107e+00	 3.9909587147e-02	 3.6221946333e+00
 1.5902801076e+00	 5.3298193216e-02	 3.6129610765e+00
 1.5897732442e+00	 6.6727513744e-02	 3.6013448358e+00
 1.5891507398e+00	 8.0196315399e-02	 3.5873254794e+00
 1.5884115277e+00	 9.3703339021e-02	 3.5709075919e+00
 1.5875545566e+00	 1.0724729973e-01	 3.5521219665e+00
 1.5865787910e+00	 1.2082688702e-01	 3.5310267102e+00
 1.5854832117e+00	 1.3444076493e-01	 3.5077082610e+00
 1.5999960000e+00	 0.0000000000e+00	 3.6221013211e+00
 1.5999404513e+00	 1.3332844836e-02	 3.6197508971e+00
 1.5997730483e+00	 2.6710193843e-02	 3.6152137202e+00
 1.5994926645e+00	 4.0130885188e-02	 3.6083955921e+00
 1.5990981861e+00	 5.3593730871e-02	 3.5992243455e+00
 1.5985885122e+00	 6.7097516772e-02	 3.5876512833e+00
 1.5979625559e+00	 8.0641002722e-02	 3.5736525418e+00
 1.5972192449e+00	 9.4222922580e-02	 3.5572303764e+00
 1.5963575220e+00	 1.0784198434e-01	 3.5384143630e+00
 1.5953763457e+00	 1.2149687023e-01	 3.5172625115e+00
 1.5942746915e+00	 1.3518623688e-01	 3.4938622871e+00
 1.6088190294e+00	 0.0000000000e+00	 3.6076630446e+00
 1.6087631744e+00	 1.3406367572e-02	 3.6054712466e+00
 1.6085948482e+00	 2.6857484728e-02	 3.6010805252e+00
 1.6083129183e+00	 4.0352183230e-02	 3.5943906119e+00
 1.6079162646e+00	 5.3889268525e-02	 3.5853243444e+00
 1.6074037801e+00	 6.7467519799e-02	 3.5738291237e+00
 1.6067743721e+00	 8.1085690045e-02	 3.5598782924e+00
 1.6060269622e+00	 9.4742506139e-02	 3.5434724326e+00
 1.6051604873e+00	 1.0843666895e-01	 3.5246405761e+00
 1.6041739005e+00	 1.2216685344e-01	 3.5034413241e+00
 1.6030661713e+00	 1.3593170884e-01	 3.4799638706e+00
 1.6176420588e+00	 0.0000000000e+00	 3.5927906554e+00
 1.6175858975e+00	 1.3479890307e-02	 3.5908364323e+00
 1.6174166482e+00	 2.7004775613e-02	 3.5866606182e+00
 1.6171331722e+00	 4.0573481271e-02	 3.5801574432e+00
 1.6167343431e+00	 5.4184806178e-02	 3.5712453413e+00
 1.6162190481e+00	 6.7837522827e-02	 3.5598684244e+00
 1.6155861883e+00	 8.1530377368e-02	 3.5459978747e+00
 1.6148346794e+00	 9.5262089698e-02	 3.5296332526e+00
 1.6139634527e+00	 1.0903135356e-01	 3.5108037147e+00
 1.6129714553e+00	 1.2283683665e-01	 3.4895691379e+00
 1.6118576511e+00	 1.3667718079e-01	 3.4660211438e+00
 1.5239428532e+00	 1.2922246127e-01	 3.6023059271e+00
 1.5227734638e+00	 1.4234179663e-01	 3.5771775694e+00
 1.5214869622e+00	 1.5549142916e-01	 3.5494246923e+00
 1.5200824195e+00	 1.6866996932e-01	 3.5190071936e+00
 1.5185589255e+00	 1.8187600295e-01	 3.4859065000e+00
 1.5169155893e+00	 1.9510809149e-01	 3.4501262783e+00
 1.5151515397e+00	 2.0836477224e-01	 3.4116930639e+00
 1.5132659262e+00	 2.2164455859e-01	 3.3706568024e+00
 1.5112579195e+00	 2.3494594031e-01	 3.3270913023e+00
 1.5091267122e+00	 2.4826738388e-01	 3.2810945960e+00
 1.5068715195e+00	 2.6160733276e-01	 3.2327892076e+00
 1.5327343330e+00	 1.2996793322e-01	 3.5891242280e+00
 1.5315581975e+00	 1.4316295277e-01	 3.5639293062e+00
 1.5302642742e+00	 1.5638844427e-01	 3.5360899979e+00
 1.5288516288e+00	 1.6964301015e-01	 3.5055685095e+00
 1.5273193459e+00	 1.8292522812e-01	 3.4723497668e+00
 1.5256665295e+00	 1.9623365131e-01	 3.4364421277e+00
 1.5238923033e+00	 2.0956680858e-01	 3.3978780106e+00
 1.5219958118e+00	 2.2292320474e-01	 3.3567144318e+00
 1.5199762211e+00	 2.3630132085e-01	 3.3130334520e+00
 1.5178327191e+00	 2.4969961454e-01	 3.2669425276e+00
 1.5155645164e+00	 2.6311652031e-01	 3.2185747666e+00
 1.5415258128e+00	 1.3071340517e-01	 3.5758097705e+00
 1.5403429312e+00	 1.4398410891e-01	 3.5505381299e+00
 1.5390415861e+00	 1.5728545937e-01	 3.5226048721e+00
 1.5376208381e+00	 1.7061605099e-01	 3.4919738320e+00
 1.5360797664e+00	 1.8397445329e-01	 3.4586327564e+00
 1.5344174696e+00	 1.9735921113e-01	 3.4225940194e+00
 1.5326330668e+00	 2.1076884491e-01	 3.3838952494e+00
 1.5307256975e+00	 2.2420185088e-01	 3.3425998632e+00
 1.5286945228e+00	 2.3765670139e-01	 3.2987975054e+00
 1.5265387260e+00	 2.5113184521e-01	 3.2526043909e+00
 1.5242575133e+00	 2.6462570786e-01	 3.2041635485e+00
 1.5503172926e+00	 1.3145887712e-01	 3.5623766522e+00
 1.5491276649e+00	 1.4480526504e-01	 3.5370200637e+00
 1.5478188981e+00	 1.5818247447e-01	 3.5089866830e+00
 1.5463900474e+00	 1.7158909182e-01	 3.4782413132e+00
 1.5448401868e+00	 1.8502367847e-01	 3.4447738646e+00
 1.5431684098e+00	 1.9848477095e-01	 3.4086000730e+00
 1.5413738303e+00	 2.1197088125e-01	 3.3697621250e+00
 1.5394555831e+00	 2.2548049703e-01	 3.3283291887e+00
 1.5374128244e+00	 2.3901208193e-01	 3.2843978463e+00
 1.5352447329e+00	 2.5256407588e-01	 3.2380924277e+00
 1.5329505102e+00	 2.6613489541e-01	 3.1895652407e+00
 1.5591087724e+00	 1.3220434908e-01	 3.5488380666e+00
 1.5579123986e+00	 1.4562642118e-01	 3.5233901614e+00
 1.5565962101e+00	 1.5907948957e-01	 3.4952517724e+00
 1.5551592567e+00	 1.7256213266e-01	 3.4643880300e+00
 1.5536006072e+00	 1.8607290364e-01	 3.4307903710e+00
 1.5519193500e+00	 1.9961033077e-01	 3.3944772586e+00
 1.5501145939e+00	 2.1317291759e-01	 3.3554948068e+00
 1.5481854687e+00	 2.2675914318e-01	 3.3139173069e+00
 1.5461311260e+00	 2.4036746247e-01	 3.2698476541e+00
 1.5439507398e+00	 2.5399630654e-01	 3.2234176708e+00
 1.5416435071e+00	 2.6764408295e-01	 3.1747883251e+00
 1.5679002521e+00	 1.3294982103e-01	 3.5352063217e+00
 1.5666971323e+00	 1.4644757732e-01	 3.5096625277e+00
 1.5653735221e+00	 1.5997650467e-01	 3.4814154774e+00
 1.5639284660e+00	 1.7353517349e-01	 3.4504300072e+00
 1.5623610276e+00	 1.8712212881e-01	 3.4166984632e+00
 1.5606702902e+00	 2.0073589059e-01	 3.3802414224e+00
 1.5588553574e+00	 2.1437495392e-01	 3.3411083157e+00
 1.5569153543e+00	 2.2803778932e-01	 3.2993779512e+00
 1.5548494276e+00	 2.4172284301e-01	 3.2551589329e+00
 1.5526567467e+00	 2.5542853721e-01	 3.2085899754e+00
 1.5503365040e+00	 2.6915327050e-01	 3.1598401093e+00
 1.5766917319e+00	 1.3369529298e-01	 3.5214928570e+00
 1.5754818660e+00	 1.4726873345e-01	 3.4958503371e+00
 1.5741508341e+00	 1.6087351978e-01	 3.4674921508e+00
 1.5726976753e+00	 1.7450821432e-01	 3.4363822393e+00
 1.5711214480e+00	 1.8817135398e-01	 3.4025132606e+00
 1.5694212303e+00	 2.0186145041e-01	 3.3659073117e+00
 1.5675961210e+00	 2.1557699026e-01	 3.3266165511e+00
 1.5656452400e+00	 2.2931643547e-01	 3.2847237172e+00
 1.5635677293e+00	 2.4307822355e-01	 3.2403425407e+00
 1.5613627536e+00	 2.5686076787e-01	 3.1936180487e+00
 1.5590295009e+00	 2.7066245805e-01	 3.1447267586e+00
 1.5854832117e+00	 1.3444076493e-01	 3.5077082610e+00
 1.5842665997e+00	 1.4808988959e-01	 3.4819658525e+00
 1.5829281461e+00	 1.6177053488e-01	 3.4534951817e+00
 1.5814668847e+00	 1.7548125515e-01	 3.4222587126e+00
 1.5798818685e+00	 1.8922057915e-01	 3.3882488371e+00
 1.5781721705e+00	 2.0298701022e-01	 3.3514885993e+00
 1.5763368845e+00	 2.1677902659e-01	 3.3120323158e+00
 1.5743751256e+00	 2.3059508161e-01	 3.2699660900e+00
 1.5722860309e+00	 2.4443360408e-01	 3.2254082175e+00
 1.5700687605e+00	 2.5829299854e-01	 3.1785094799e+00
 1.5677224978e+00	 2.7217164560e-01	 3.1294533261e+00
 1.5942746915e+00	 1.3518623688e-01	 3.4938622871e+00
 1.5930513333e+00	 1.4891104572e-01	 3.4680204435e+00
 1.5917054580e+00	 1.6266754998e-01	 3.4394370152e+00
 1.5902360940e+00	 1.7645429599e-01	 3.4080724260e+00
 1.5886422889e+00	 1.9026980432e-01	 3.3739182443e+00
 1.5869231107e+00	 2.0411257004e-01	 3.3369979076e+00
 1.5850776481e+00	 2.1798106293e-01	 3.2973673419e+00
 1.5831050112e+00	 2.3187372776e-01	 3.2551154707e+00
 1.5810043325e+00	 2.4578898462e-01	 3.2103646135e+00
 1.5787747674e+00	 2.5972522920e-01	 3.1632707690e+00
 1.5764154947e+00	 2.7368083315e-01	 3.1140237838e+00
 1.6030661713e+00	 1.3593170884e-01	 3.4799638706e+00
 1.6018360670e+00	 1.4973220186e-01	 3.4540246040e+00
 1.6004827700e+00	 1.6356456508e-01	 3.4253291710e+00
 1.5990053033e+00	 1.7742733682e-01	 3.3938354120e+00
 1.5974027093e+00	 1.9131902949e-01	 3.3595335331e+00
 1.5956740509e+00	 2.0523812986e-01	 3.3224468322e+00
 1.5938184116e+00	 2.1918309926e-01	 3.2826323155e+00
 1.5918348968e+00	 2.3315237390e-01	 3.2401812026e+00
 1.5897226341e+00	 2.4714436516e-01	 3.1952193161e+00
 1.5874807743e+00	 2.6115745987e-01	 3.1479073556e+00
 1.5851084916e+00	 2.7519002070e-01	 3.0984410521e+00
 1.6118576511e+00	 1.3667718079e-01	 3.4660211438e+00
 1.6106208007e+00	 1.5055335800e-01	 3.4399879698e+00
 1.6092600820e+00	 1.6446158018e-01	 3.4111822631e+00
 1.6077745126e+00	 1.7840037765e-01	 3.3795587566e+00
 1.6061631297e+00	 1.9236825466e-01	 3.3451057756e+00
 1.6044249910e+00	 2.0636368968e-01	 3.3078459643e+00
 1.6025591752e+00	 2.2038513559e-01	 3.2678369010e+00
 1.6005647824e+00	 2.3443102005e-01	 3.2251715965e+00
 1.5984409358e+00	 2.4849974570e-01	 3.1799788771e+00
 1.5961867811e+00	 2.6258969053e-01	 3.1324236469e+00
 1.5938014885e+00	 2.7669920824e-01	 3.0827070293e+00
 1.5068715195e+00	 2.6160733276e-01	 3.2327892076e+00
 1.5044919947e+00	 2.7496193661e-01	 3.1818772739e+00
 1.5019870269e+00	 2.8833186380e-01	 3.1281008798e+00
 1.4993559022e+00	 3.0171549544e-01	 3.0717052026e+00
 1.4965979319e+00	 3.1511119125e-01	 3.0129606356e+00
 1.4937124529e+00	 3.2851728995e-01	 2.9521624650e+00
 1.4906988290e+00	 3.4193210972e-01	 2.8896304419e+00
 1.4875564508e+00	 3.5535394869e-01	 2.8257082478e+00
 1.4842847367e+00	 3.6878108538e-01	 2.7607628540e+00
 1.4808831335e+00	 3.8221177925e-01	 2.6951837743e+00
 1.4773511167e+00	 3.9564427119e-01	 2.6293822102e+00
 1.5155645164e+00	 2.6311652031e-01	 3.2185747666e+00
 1.5131712644e+00	 2.7654816559e-01	 3.1676373468e+00
 1.5106518457e+00	 2.8999522260e-01	 3.1138586785e+00
 1.5080055422e+00	 3.0345606313e-01	 3.0574679025e+00
 1.5052316614e+00	 3.1692903741e-01	 2.9987201416e+00
 1.5023295364e+00	 3.3041247460e-01	 2.9378961836e+00
 1.4992985273e+00	 3.4390468318e-01	 2.8753020586e+00
 1.4961380210e+00	 3.5740395145e-01	 2.8112685084e+00
 1.4928474327e+00	 3.7090854800e-01	 2.7461503476e+00
 1.4894262059e+00	 3.8441672225e-01	 2.6803257174e+00
 1.4858738132e+00	 3.9792670495e-01	 2.6141952305e+00
 1.5242575133e+00	 2.6462570786e-01	 3.2041635485e+00
 1.5218505340e+00	 2.7813439456e-01	 3.1531865448e+00
 1.5193166644e+00	 2.9165858140e-01	 3.0993898129e+00
 1.5166551823e+00	 3.0519663081e-01	 3.0429893325e+00
 1.5138653910e+00	 3.1874688358e-01	 2.9842278377e+00
 1.5109466200e+00	 3.3230765926e-01	 2.9233745026e+00
 1.5078982255e+00	 3.4587725664e-01	 2.8607245192e+00
 1.5047195911e+00	 3.5945395421e-01	 2.7965985662e+00
 1.5014101286e+00	 3.7303601062e-01	 2.7313421678e+00
 1.4979692783e+00	 3.8662166525e-01	 2.6653249443e+00
 1.4943965098e+00	 4.0020913871e-01	 2.5989397520e+00
 1.5329505102e+00	 2.6613489541e-01	 3.1895652407e+00
 1.5305298037e+00	 2.7972062354e-01	 3.1385313696e+00
 1.5279814831e+00	 2.9332194020e-01	 3.0846967048e+00
 1.5253048223e+00	 3.0693719849e-01	 3.0282669016e+00
 1.5224991205e+00	 3.2056472974e-01	 2.9694751485e+00
 1.5195637035e+00	 3.3420284392e-01	 2.9085818511e+00
 1.5164979237e+00	 3.4784983011e-01	 2.8458742070e+00
 1.5133011612e+00	 3.6150395697e-01	 2.7816656690e+00
 1.5099728245e+00	 3.7516347324e-01	 2.7162952983e+00
 1.5065123507e+00	 3.8882660825e-01	 2.6501270065e+00
 1.5029192063e+00	 4.0249157246e-01	 2.5835486864e+00
 1.5416435071e+00	 2.6764408295e-01	 3.1747883251e+00
 1.5392090733e+00	 2.8130685251e-01	 3.1236771316e+00
 1.5366463019e+00	 2.9498529900e-01	 3.0697806178e+00
 1.5339544623e+00	 3.0867776617e-01	 3.0132969129e+00
 1.5311328501e+00	 3.2238257590e-01	 2.9544524648e+00
 1.5281807870e+00	 3.3609802858e-01	 2.8935017182e+00
 1.5250976219e+00	 3.4982240357e-01	 2.8307266815e+00
 1.5218827314e+00	 3.6355395973e-01	 2.7664363810e+00
 1.5185355205e+00	 3.7729093586e-01	 2.7009662035e+00
 1.5150554231e+00	 3.9103155125e-01	 2.6346771257e+00
 1.5114419029e+00	 4.0477400622e-01	 2.5679548318e+00
 1.5503365040e+00	 2.6915327050e-01	 3.1598401093e+00
 1.5478883430e+00	 2.8289308149e-01	 3.1086279830e+00
 1.5453111206e+00	 2.9664865780e-01	 3.0546416907e+00
 1.5426041024e+00	 3.1041833386e-01	 2.9980745972e+00
 1.5397665797e+00	 3.2420042207e-01	 2.9391491780e+00
 1.5367978705e+00	 3.3799321323e-01	 2.8781166869e+00
 1.5336973201e+00	 3.5179497703e-01	 2.8152567115e+00
 1.5304643015e+00	 3.6560396249e-01	 2.7508766138e+00
 1.5270982164e+00	 3.7941839848e-01	 2.6853108573e+00
 1.5235984955e+00	 3.9323649426e-01	 2.6189202204e+00
 1.5199645994e+00	 4.0705643998e-01	 2.5520908962e+00
 1.5590295009e+00	 2.7066245805e-01	 3.1447267586e+00
 1.5565676126e+00	 2.8447931046e-01	 3.0933869504e+00
 1.5539759394e+00	 2.9831201659e-01	 3.0392789710e+00
 1.5512537424e+00	 3.1215890154e-01	 2.9825941469e+00
 1.5484003092e+00	 3.2601826823e-01	 2.9235537131e+00
 1.5454149540e+00	 3.3988839789e-01	 2.8624084671e+00
 1.5422970183e+00	 3.5376755049e-01	 2.7994383075e+00
 1.5390458716e+00	 3.6765396525e-01	 2.7349516576e+00
 1.5356609123e+00	 3.8154586110e-01	 2.6692847729e+00
 1.5321415679e+00	 3.9544143726e-01	 2.6028009338e+00
 1.5284872959e+00	 4.0933887373e-01	 2.5358895225e+00
 1.5677224978e+00	 2.7217164560e-01	 3.1294533261e+00
 1.5652468823e+00	 2.8606553943e-01	 3.0779559665e+00
 1.5626407581e+00	 2.9997537539e-01	 3.0236904477e+00
 1.5599033824e+00	 3.1389946922e-01	 2.9668487491e+00
 1.5570340388e+00	 3.2783611439e-01	 2.9076535627e+00
 1.5540320375e+00	 3.4178358255e-01	 2.8463579285e+00
 1.5508967165e+00	 3.5574012396e-01	 2.7832447535e+00
 1.5476274418e+00	 3.6970396801e-01	 2.7186262124e+00
 1.5442236082e+00	 3.8367332372e-01	 2.6528430325e+00
 1.5406846403e+00	 3.9764638026e-01	 2.5862636603e+00
 1.5370099925e+00	 4.1162130749e-01	 2.5192833130e+00
 1.5764154947e+00	 2.7368083315e-01	 3.1140237838e+00
 1.5739261520e+00	 2.8765176841e-01	 3.0623359016e+00
 1.5713055768e+00	 3.0163873419e-01	 3.0078730832e+00
 1.5685530225e+00	 3.1564003690e-01	 2.9508306184e+00
 1.5656677684e+00	 3.2965396056e-01	 2.8914353193e+00
 1.5626491211e+00	 3.4367876720e-01	 2.8299451340e+00
 1.5594964147e+00	 3.5771269742e-01	 2.7666486399e+00
 1.5562090119e+00	 3.7175397077e-01	 2.7018644195e+00
 1.5527863042e+00	 3.8580078635e-01	 2.6359403167e+00
 1.5492277127e+00	 3.9985132326e-01	 2.5692525744e+00
 1.5455326890e+00	 4.1390374125e-01	 2.5022048547e+00
 1.5851084916e+00	 2.7519002070e-01	 3.0984410521e+00
 1.5826054216e+00	 2.8923799738e-01	 3.0465265948e+00
 1.5799703956e+00	 3.0330209299e-01	 2.9918228456e+00
 1.5772026625e+00	 3.1738060459e-01	 2.9345310293e+00
 1.5743014979e+00	 3.3147180672e-01	 2.8748847088e+00
 1.5712662046e+00	 3.4557395186e-01	 2.8131493716e+00
 1.5680961129e+00	 3.5968527088e-01	 2.7496218952e+00
 1.5647905820e+00	 3.7380397353e-01	 2.6846298923e+00
 1.5613490001e+00	 3.8792824897e-01	 2.6185309347e+00
 1.5577707851e+00	 4.0205626627e-01	 2.5517116577e+00
 1.5540553856e+00	 4.1618617500e-01	 2.4845867450e+00
 1.5938014885e+00	 2.7669920824e-01	 3.0827070293e+00
 1.5912846913e+00	 2.9082422635e-01	 3.0305268845e+00
 1.5886352143e+00	 3.0496545179e-01	 2.9755347402e+00
 1.5858523025e+00	 3.1912117227e-01	 2.9179403487e+00
 1.5829352275e+00	 3.3328965288e-01	 2.8579866222e+00
 1.5798832881e+00	 3.4746913652e-01	 2.7959491872e+00
 1.5766958111e+00	 3.6165784435e-01	 2.7321358182e+00
 1.5733721522e+00	 3.7585397630e-01	 2.6668857476e+00
 1.5699116960e+00	 3.9005571159e-01	 2.6005688540e+00
 1.5663138575e+00	 4.0426120927e-01	 2.5335847280e+00
 1.5625780821e+00	 4.1846860876e-01	 2.4663616183e+00
 1.4773511167e+00	 3.9564427119e-01	 2.6293822102e+00
 1.4736881920e+00	 4.0907678431e-01	 2.5618776945e+00
 1.4698938963e+00	 4.2250752502e-01	 2.4910098377e+00
 1.4659677976e+00	 4.3593468314e-01	 2.4169446729e+00
 1.4619094952e+00	 4.4935643230e-01	 2.3398594271e+00
 1.4577186201e+00	 4.6277093058e-01	 2.2599414165e+00
 1.4533948358e+00	 4.7617632115e-01	 2.1773868539e+00
 1.4489378386e+00	 4.8957073294e-01	 2.0923995689e+00
 1.4443473582e+00	 5.0295228133e-01	 2.0051896431e+00
 1.4396231580e+00	 5.1631906883e-01	 1.9159719626e+00
 1.4347650360e+00	 5.2966918584e-01	 1.8249646877e+00
 1.4858738132e+00	 3.9792670495e-01	 2.6141952305e+00
 1.4821897575e+00	 4.1143670894e-01	 2.5462334073e+00
 1.4783735728e+00	 4.2494493030e-01	 2.4747700703e+00
 1.4744248249e+00	 4.3844954841e-01	 2.4000149512e+00
 1.4703431105e+00	 4.5194872635e-01	 2.3221900745e+00
 1.4661280587e+00	 4.6544061158e-01	 2.2415285837e+00
 1.4617793309e+00	 4.7892333656e-01	 2.1582734774e+00
 1.4572966217e+00	 4.9239501943e-01	 2.0726762551e+00
 1.4526796592e+00	 5.0585376468e-01	 1.9849954761e+00
 1.4479282056e+00	 5.1929766389e-01	 1.8954952324e+00
 1.4430420576e+00	 5.3272479644e-01	 1.8044435374e+00
 1.4943965098e+00	 4.0020913871e-01	 2.5989397520e+00
 1.4906913229e+00	 4.1379663358e-01	 2.5306177212e+00
 1.4868532494e+00	 4.2738233559e-01	 2.4586743569e+00
 1.4828818521e+00	 4.4096441368e-01	 2.3833567265e+00
 1.4787767258e+00	 4.5454102040e-01	 2.3049253619e+00
 1.4745374972e+00	 4.6811029258e-01	 2.2236530258e+00
 1.4701638260e+00	 4.8167035197e-01	 2.1398233860e+00
 1.4656554048e+00	 4.9521930591e-01	 2.0537295964e+00
 1.4610119603e+00	 5.0875524803e-01	 1.9656727887e+00
 1.4562332532e+00	 5.2227625896e-01	 1.8759604760e+00
 1.4513190791e+00	 5.3578040705e-01	 1.7849048695e+00
 1.5029192063e+00	 4.0249157246e-01	 2.5835486864e+00
 1.4991928884e+00	 4.1615655821e-01	 2.5149511582e+00
 1.4953329259e+00	 4.2981974087e-01	 2.4426326476e+00
 1.4913388794e+00	 4.4347927894e-01	 2.3668713188e+00
 1.4872103411e+00	 4.5713331445e-01	 2.2879600444e+00
 1.4829469358e+00	 4.7077997358e-01	 2.2062051212e+00
 1.4785483210e+00	 4.8441736738e-01	 2.1219248913e+00
 1.4740141879e+00	 4.9804359239e-01	 2.0354482682e+00
 1.4693442613e+00	 5.1165673138e-01	 1.9471131704e+00
 1.4645383008e+00	 5.2525485402e-01	 1.8572648653e+00
 1.4595961006e+00	 5.3883601765e-01	 1.7662542238e+00
 1.5114419029e+00	 4.0477400622e-01	 2.5679548318e+00
 1.5076944539e+00	 4.1851648284e-01	 2.4991543368e+00
 1.5038126025e+00	 4.3225714616e-01	 2.4265551567e+00
 1.4997959067e+00	 4.4599414421e-01	 2.3504604357e+00
 1.4956439564e+00	 4.5972560850e-01	 2.2711893412e+00
 1.4913563743e+00	 4.7344965458e-01	 2.1890757388e+00
 1.4869328161e+00	 4.8716438279e-01	 2.1044667690e+00
 1.4823729709e+00	 5.0086787888e-01	 2.0177213277e+00
 1.4776765623e+00	 5.1455821473e-01	 1.9292084516e+00
 1.4728433483e+00	 5.2823344908e-01	 1.8393056114e+00
 1.4678731222e+00	 5.4189162826e-01	 1.7483969135e+00
 1.5199645994e+00	 4.0705643998e-01	 2.5520908962e+00
 1.5161960194e+00	 4.2087640747e-01	 2.4831479924e+00
 1.5122922790e+00	 4.3469455144e-01	 2.4103523827e+00
 1.5082529339e+00	 4.4850900948e-01	 2.3340261927e+00
 1.5040775717e+00	 4.6231790255e-01	 2.2545089573e+00
 1.4997658129e+00	 4.7611933558e-01	 2.1721562625e+00
 1.4953173111e+00	 4.8991139820e-01	 2.0873382877e+00
 1.4907317540e+00	 5.0369216536e-01	 2.0004382495e+00
 1.4860088634e+00	 5.1745969808e-01	 1.9118507481e+00
 1.4811483959e+00	 5.3121204414e-01	 1.8219800188e+00
 1.4761501437e+00	 5.4494723886e-01	 1.7312380915e+00
 1.5284872959e+00	 4.0933887373e-01	 2.5358895225e+00
 1.5246975849e+00	 4.2323633211e-01	 2.4668530000e+00
 1.5207719556e+00	 4.3713195673e-01	 2.3939351287e+00
 1.5167099612e+00	 4.5102387475e-01	 2.3174711341e+00
 1.5125111870e+00	 4.6491019660e-01	 2.2378151059e+00
 1.5081752515e+00	 4.7878901658e-01	 2.1553386170e+00
 1.5037018062e+00	 4.9265841361e-01	 2.0704292399e+00
 1.4990905371e+00	 5.0651645185e-01	 1.9834889624e+00
 1.4943411644e+00	 5.2036118143e-01	 1.8949325047e+00
 1.4894534435e+00	 5.3419063921e-01	 1.8051855392e+00
 1.4844271652e+00	 5.4800284947e-01	 1.7146828153e+00
 1.5370099925e+00	 4.1162130749e-01	 2.5192833130e+00
 1.5331991503e+00	 4.2559625674e-01	 2.4501903961e+00
 1.5292516321e+00	 4.3956936201e-01	 2.3772145243e+00
 1.5251669885e+00	 4.5353874002e-01	 2.3006982544e+00
 1.5209448024e+00	 4.6750249064e-01	 2.2210045316e+00
 1.5165846900e+00	 4.8145869758e-01	 2.1385152941e+00
 1.5120863013e+00	 4.9540542902e-01	 2.0536299723e+00
 1.5074493201e+00	 5.0934073833e-01	 1.9667638861e+00
 1.5026734654e+00	 5.2326266478e-01	 1.8783465413e+00
 1.4977584911e+00	 5.3716923427e-01	 1.7888198265e+00
 1.4927041868e+00	 5.5105846007e-01	 1.6986361138e+00
 1.5455326890e+00	 4.1390374125e-01	 2.5022048547e+00
 1.5417007158e+00	 4.2795618137e-01	 2.4330814023e+00
 1.5377313087e+00	 4.4200676730e-01	 2.3601020475e+00
 1.5336240157e+00	 4.5605360529e-01	 2.2836110211e+00
 1.5293784177e+00	 4.7009478469e-01	 2.2039745350e+00
 1.5249941286e+00	 4.8412837858e-01	 2.1215793801e+00
 1.5204707963e+00	 4.9815244443e-01	 2.0368314182e+00
 1.5158081032e+00	 5.1216502481e-01	 1.9501539698e+00
 1.5110057664e+00	 5.2616414813e-01	 1.8619860977e+00
 1.5060635386e+00	 5.4014782933e-01	 1.7727807915e+00
 1.5009812083e+00	 5.5411407067e-01	 1.6830030525e+00
 1.5540553856e+00	 4.1618617500e-01	 2.4845867450e+00
 1.5502022813e+00	 4.3031610601e-01	 2.4154474489e+00
 1.5462109852e+00	 4.4444417258e-01	 2.3425095479e+00
 1.5420810430e+00	 4.5856847056e-01	 2.2661133984e+00
 1.5378120330e+00	 4.7268707874e-01	 2.1866229974e+00
 1.5334035671e+00	 4.8679805958e-01	 2.1044245838e+00
 1.5288552914e+00	 5.0089945984e-01	 2.0199251302e+00
 1.5241668863e+00	 5.1498931130e-01	 1.9335507304e+00
 1.5193380675e+00	 5.2906563148e-01	 1.8457448802e+00
 1.5143685862e+00	 5.4312642439e-01	 1.7569666574e+00
 1.5092582298e+00	 5.5716968127e-01	 1.6676888002e+00
 1.5625780821e+00	 4.1846860876e-01	 2.4663616183e+00
 1.5587038468e+00	 4.3267603064e-01	 2.3972101992e+00
 1.5546906618e+00	 4.4688157787e-01	 2.3243492701e+00
 1.5505380703e+00	 4.6108333583e-01	 2.2481098705e+00
 1.5462456483e+00	 4.7527937279e-01	 2.1688484072e+00
 1.5418130057e+00	 4.8946774058e-01	 2.0869452657e+00
 1.5372397864e+00	 5.0364647525e-01	 2.0028033132e+00
 1.5325256694e+00	 5.1781359778e-01	 1.9168462920e+00
 1.5276703685e+00	 5.3196711483e-01	 1.8295171082e+00
 1.5226736338e+00	 5.4610501945e-01	 1.7412760151e+00
 1.5175352514e+00	 5.6022529188e-01	 1.6525986948e+00
 1.4347650360e+00	 5.2966918584e-01	 1.8249646877e+00
 1.4297719645e+00	 5.4300297606e-01	 1.7340649060e+00
 1.4246446250e+00	 5.5631623520e-01	 1.6455124886e+00
 1.4193829200e+00	 5.6960702012e-01	 1.5600016510e+00
 1.4139867881e+00	 5.8287337855e-01	 1.4782342900e+00
 1.4084562042e+00	 5.9611334994e-01	 1.3990955958e+00
 1.4027911802e+00	 6.0932496624e-01	 1.3156685032e+00
 1.3969917650e+00	 6.2250625276e-01	 1.2276776783e+00
 1.3910580450e+00	 6.3565522902e-01	 1.1356744338e+00
 1.3849901442e+00	 6.4876990960e-01	 1.0402142420e+00
 1.3787882249e+00	 6.6184830499e-01	 9.4185597924e-01
 1.4430420576e+00	 5.3272479644e-01	 1.8044435374e+00
 1.4380201815e+00	 5.4613550802e-01	 1.7138579127e+00
 1.4328632628e+00	 5.5952557007e-01	 1.6260461923e+00
 1.4275712036e+00	 5.7289302825e-01	 1.5416746812e+00
 1.4221439419e+00	 5.8623591903e-01	 1.4614179946e+00
 1.4165814526e+00	 5.9955227053e-01	 1.3822153352e+00
 1.4108837477e+00	 6.1284010338e-01	 1.2982011654e+00
 1.4050508762e+00	 6.2609743148e-01	 1.2097738551e+00
 1.3990829251e+00	 6.3932226292e-01	 1.1174484905e+00
 1.3929800192e+00	 6.5251260082e-01	 1.0217443384e+00
 1.3867423216e+00	 6.6566644422e-01	 9.2318413389e-01
 1.4513190791e+00	 5.3578040705e-01	 1.7849048695e+00
 1.4462683985e+00	 5.4926803997e-01	 1.6946454851e+00
 1.4410819007e+00	 5.6273490494e-01	 1.6075691989e+00
 1.4357594872e+00	 5.7617903638e-01	 1.5243230529e+00
 1.4303010957e+00	 5.8959845950e-01	 1.4455070973e+00
 1.4247067010e+00	 6.0299119113e-01	 1.3656186615e+00
 1.4189763151e+00	 6.1635524052e-01	 1.2810133025e+00
 1.4131099874e+00	 6.2968861020e-01	 1.1921726952e+00
 1.4071078052e+00	 6.4298929682e-01	 1.0995832648e+00
 1.4009698942e+00	 6.5625529205e-01	 1.0037354122e+00
 1.3946964183e+00	 6.6948458346e-01	 9.0512283212e-01
 1.4595961006e+00	 5.3883601765e-01	 1.7662542238e+00
 1.4545166154e+00	 5.5240057193e-01	 1.6763413329e+00
 1.4493005385e+00	 5.6594423981e-01	 1.5900000330e+00
 1.4439477707e+00	 5.7946504451e-01	 1.5078666122e+00
 1.4384582495e+00	 5.9296099998e-01	 1.4299393409e+00
 1.4328319495e+00	 6.0643011173e-01	 1.3492283150e+00
 1.4270688825e+00	 6.1987037766e-01	 1.2640224004e+00
 1.4211690985e+00	 6.3327978891e-01	 1.1747824931e+00
 1.4151326853e+00	 6.4665633071e-01	 1.0819737987e+00
 1.4089597691e+00	 6.5999798328e-01	 9.8606506935e-01
 1.4026505149e+00	 6.7330272269e-01	 8.8752793819e-01
 1.4678731222e+00	 5.4189162826e-01	 1.7483969135e+00
 1.4627648324e+00	 5.5553310389e-01	 1.6588586766e+00
 1.4575191764e+00	 5.6915357468e-01	 1.5732565415e+00
 1.4521360543e+00	 5.8275105264e-01	 1.4922244162e+00
 1.4466154033e+00	 5.9632354046e-01	 1.4145286964e+00
 1.4409571979e+00	 6.0986903233e-01	 1.3329685675e+00
 1.4351614500e+00	 6.2338551481e-01	 1.2471475716e+00
 1.4292282097e+00	 6.3687096763e-01	 1.1575133562e+00
 1.4231575654e+00	 6.5032336461e-01	 1.0645172273e+00
 1.4169496441e+00	 6.6374067451e-01	 9.6861338476e-01
 1.4106046116e+00	 6.7712086192e-01	 8.7025826129e-01
 1.4761501437e+00	 5.4494723886e-01	 1.7312380915e+00
 1.4710130494e+00	 5.5866563585e-01	 1.6421103254e+00
 1.4657378143e+00	 5.7236290955e-01	 1.5572559814e+00
 1.4603243379e+00	 5.8603706077e-01	 1.4773148285e+00
 1.4547725572e+00	 5.9968608093e-01	 1.3992023793e+00
 1.4490824463e+00	 6.1330795293e-01	 1.3167652069e+00
 1.4432540174e+00	 6.2690065195e-01	 1.2303095380e+00
 1.4372873208e+00	 6.4046214635e-01	 1.1402771820e+00
 1.4311824455e+00	 6.5399039851e-01	 1.0471127469e+00
 1.4249395191e+00	 6.6748336574e-01	 9.5126286057e-01
 1.4185587083e+00	 6.8093900116e-01	 8.5317550044e-01
 1.4844271652e+00	 5.4800284947e-01	 1.7146828153e+00
 1.4792612664e+00	 5.6179816781e-01	 1.6260087543e+00
 1.4739564521e+00	 5.7557224442e-01	 1.5419151065e+00
 1.4685126215e+00	 5.8932306890e-01	 1.4630207208e+00
 1.4629297110e+00	 6.0304862141e-01	 1.3838890999e+00
 1.4572076947e+00	 6.1674687353e-01	 1.3005455233e+00
 1.4513465848e+00	 6.3041578909e-01	 1.2134306130e+00
 1.4453464320e+00	 6.4405332506e-01	 1.1229876345e+00
 1.4392073256e+00	 6.5765743241e-01	 1.0296615844e+00
 1.4329293940e+00	 6.7122605697e-01	 9.3389838472e-01
 1.4265128050e+00	 6.8475714039e-01	 8.3614419027e-01
 1.4927041868e+00	 5.5105846007e-01	 1.6986361138e+00
 1.4875094834e+00	 5.6493069976e-01	 1.6104661814e+00
 1.4821750900e+00	 5.7878157929e-01	 1.5271502543e+00
 1.4767009051e+00	 5.9260907703e-01	 1.4488264622e+00
 1.4710868648e+00	 6.0641116189e-01	 1.3685190479e+00
 1.4653329431e+00	 6.2018579413e-01	 1.2842382925e+00
 1.4594391523e+00	 6.3393092623e-01	 1.1964346826e+00
 1.4534055432e+00	 6.4764450378e-01	 1.1055601203e+00
 1.4472322057e+00	 6.6132446630e-01	 1.0120669657e+00
 1.4409192690e+00	 6.7496874819e-01	 9.1640718970e-01
 1.4344669017e+00	 6.8857527963e-01	 8.1903164725e-01
 1.5009812083e+00	 5.5411407067e-01	 1.6830030525e+00
 1.4957577004e+00	 5.6806323172e-01	 1.5953946449e+00
 1.4903937278e+00	 5.8199091416e-01	 1.5128774323e+00
 1.4848891887e+00	 5.9589508516e-01	 1.4345299239e+00
 1.4792440186e+00	 6.0977370236e-01	 1.3530238774e+00
 1.4734581915e+00	 6.2362471472e-01	 1.2677737605e+00
 1.4675317197e+00	 6.3744606338e-01	 1.1792471865e+00
 1.4614646543e+00	 6.5123568250e-01	 1.0879117652e+00
 1.4552570858e+00	 6.6499150020e-01	 9.9423408460e-01
 1.4489091440e+00	 6.7871143942e-01	 8.9867881154e-01
 1.4424209984e+00	 6.9239341886e-01	 8.0170791670e-01
 1.5092582298e+00	 5.5716968127e-01	 1.6676888002e+00
 1.5040059173e+00	 5.7119576368e-01	 1.5807060800e+00
 1.4986123657e+00	 5.8520024903e-01	 1.4990124036e+00
 1.4930774723e+00	 5.9918109329e-01	 1.4200623989e+00
 1.4874011724e+00	 6.1313624284e-01	 1.3373366910e+00
 1.4815834399e+00	 6.2706363532e-01	 1.2510836261e+00
 1.4756242871e+00	 6.4096120052e-01	 1.1617950988e+00
 1.4695237655e+00	 6.5482686121e-01	 1.0699613889e+00
 1.4632819659e+00	 6.6865853409e-01	 9.7607007110e-01
 1.4568990189e+00	 6.8245413065e-01	 8.8060504899e-01
 1.4503750951e+00	 6.9621155809e-01	 7.8404572030e-01
 1.5175352514e+00	 5.6022529188e-01	 1.6525986948e+00
 1.5122541343e+00	 5.7432829563e-01	 1.5663123957e+00
 1.5068310035e+00	 5.8840958390e-01	 1.4854696485e+00
 1.5012657558e+00	 6.0246710142e-01	 1.4053566790e+00
 1.4955583263e+00	 6.1649878331e-01	 1.3213920226e+00
 1.4897086883e+00	 6.3050255592e-01	 1.2341010241e+00
 1.4837168546e+00	 6.4447633766e-01	 1.1440069078e+00
 1.4775828767e+00	 6.5841803993e-01	 1.0516294811e+00
 1.4713068460e+00	 6.7232556799e-01	 9.5748395992e-01
 1.4648888939e+00	 6.8619682187e-01	 8.6207992297e-01
 1.4583291918e+00	 7.0002969732e-01	 7.6592040420e-01
 1.3787882249e+00	 6.6184830499e-01	 9.4185597924e-01
 1.3724535755e+00	 6.7488620921e-01	 8.4302620336e-01
 1.3659853912e+00	 6.8788385397e-01	 7.4575605724e-01
 1.3593839483e+00	 7.0083924323e-01	 6.5005292433e-01
 1.3526495623e+00	 7.1375038049e-01	 5.5590925356e-01
 1.3457825872e+00	 7.2661526967e-01	 4.6330286135e-01
 1.3387834164e+00	 7.3943191608e-01	 3.7219736792e-01
 1.3316524825e+00	 7.5219832734e-01	 2.8254276854e-01
 1.3243902571e+00	 7.6491251433e-01	 1.9427613972e-01
 1.3169972515e+00	 7.7757249215e-01	 1.0732247930e-01
 1.3094740159e+00	 7.9017628106e-01	 2.1595678601e-02
 1.3867423216e+00	 6.6566644422e-01	 9.2318413389e-01
 1.3803711282e+00	 6.7877956286e-01	 8.2406302516e-01
 1.3738656295e+00	 6.9185218978e-01	 7.2634085401e-01
 1.3672261036e+00	 7.0488231744e-01	 6.3007792864e-01
 1.3604528675e+00	 7.1786793780e-01	 5.3531786358e-01
 1.3535462775e+00	 7.3080704329e-01	 4.4208780668e-01
 1.3465067292e+00	 7.4369762770e-01	 3.5039880645e-01
 1.3393346576e+00	 7.5653768716e-01	 2.6024632068e-01
 1.3320305372e+00	 7.6932522108e-01	 1.7161086649e-01
 1.3245948820e+00	 7.8205823309e-01	 8.4458810962e-02
 1.3170282456e+00	 7.9473473205e-01	-1.2566994407e-03
 1.3946964183e+00	 6.6948458346e-01	 9.0512283212e-01
 1.3882886809e+00	 6.8267291651e-01	 8.0589639142e-01
 1.3817458679e+00	 6.9582052559e-01	 7.0791937527e-01
 1.3750682589e+00	 7.0892539164e-01	 6.1129338658e-01
 1.3682561728e+00	 7.2198549512e-01	 5.1610175234e-01
 1.3613099679e+00	 7.3499881692e-01	 4.2240969306e-01
 1.3542300420e+00	 7.4796333933e-01	 3.3026463886e-01
 1.3470168327e+00	 7.6087704699e-01	 2.3969669313e-01
 1.3396708172e+00	 7.7373792783e-01	 1.5071924420e-01
 1.3321925125e+00	 7.8654397404e-01	 6.3329724151e-02
 1.3245824753e+00	 7.9929318304e-01	-2.2489486776e-02
 1.4026505149e+00	 6.7330272269e-01	 8.8752793819e-01
 1.3962062336e+00	 6.8656627016e-01	 7.8836030178e-01
 1.3896261063e+00	 6.9978886140e-01	 6.9030802618e-01
 1.3829104142e+00	 7.1296846585e-01	 5.9350258464e-01
 1.3760594780e+00	 7.2610305243e-01	 4.9805576599e-01
 1.3690736582e+00	 7.3919059054e-01	 4.0405980402e-01
 1.3619533548e+00	 7.5222905095e-01	 3.1158765968e-01
 1.3546990078e+00	 7.6521640681e-01	 2.2069345737e-01
 1.3473110973e+00	 7.7815063457e-01	 1.3141307568e-01
 1.3397901430e+00	 7.9102971498e-01	 4.3764892071e-02
 1.3321367050e+00	 8.0385163402e-01	-4.2249320304e-02
 1.4106046116e+00	 6.7712086192e-01	 8.7025826129e-01
 1.4041237863e+00	 6.9045962381e-01	 7.7129218226e-01
 1.3975063447e+00	 7.0375719722e-01	 6.7332702650e-01
 1.3907525695e+00	 7.1701154006e-01	 5.7651291432e-01
 1.3838627833e+00	 7.3022060975e-01	 4.8097904399e-01
 1.3768373485e+00	 7.4338236417e-01	 3.8683379810e-01
 1.3696766676e+00	 7.5649476258e-01	 2.9416500921e-01
 1.3623811830e+00	 7.6955576664e-01	 2.0304038612e-01
 1.3549513773e+00	 7.8256334132e-01	 1.1350810109e-01
 1.3473877735e+00	 7.9551545592e-01	 2.5597537643e-02
 1.3396909347e+00	 8.0841008501e-01	-6.0679802657e-02
 1.4185587083e+00	 6.8093900116e-01	 8.5317550044e-01
 1.4120413390e+00	 6.9435297746e-01	 7.5453281699e-01
 1.4053865830e+00	 7.0772553303e-01	 6.5680033167e-01
 1.3985947248e+00	 7.2105461427e-01	 5.6013578557e-01
 1.3916660885e+00	 7.3433816707e-01	 4.6467492777e-01
 1.3846010389e+00	 7.4757413779e-01	 3.7053161588e-01
 1.3773999804e+00	 7.6076047421e-01	 2.7779808225e-01
 1.3700633581e+00	 7.7389512646e-01	 1.8654536725e-01
 1.3625916574e+00	 7.8697604807e-01	 9.6823920282e-02
 1.3549854040e+00	 8.0000119686e-01	 8.6643680288e-03
 1.3472451643e+00	 8.1296853600e-01	-7.7921551807e-02
 1.4265128050e+00	 6.8475714039e-01	 8.3614419027e-01
 1.4199588917e+00	 6.9824633111e-01	 7.3792628089e-01
 1.4132668214e+00	 7.1169386884e-01	 6.4055555537e-01
 1.4064368800e+00	 7.2509768847e-01	 5.4418654183e-01
 1.3994693938e+00	 7.3845572439e-01	 4.4895087126e-01
 1.3923647292e+00	 7.5176591142e-01	 3.5495738910e-01
 1.3851232932e+00	 7.6502618583e-01	 2.6229243878e-01
 1.3777455332e+00	 7.7823448629e-01	 1.7102031923e-01
 1.3702319374e+00	 7.9138875482e-01	 8.1183916649e-02
 1.3625830345e+00	 8.0448693781e-01	-7.1944898132e-03
 1.3547993940e+00	 8.1752698699e-01	-9.4112250144e-02
 1.4344669017e+00	 6.8857527963e-01	 8.1903164725e-01
 1.4278764444e+00	 7.0213968476e-01	 7.2131987362e-01
 1.4211470598e+00	 7.1566220466e-01	 6.2442389348e-01
 1.4142790353e+00	 7.2914076268e-01	 5.2848437682e-01
 1.4072726991e+00	 7.4257328170e-01	 4.3361835330e-01
 1.4001284195e+00	 7.5595768504e-01	 3.3991935144e-01
 1.3928466060e+00	 7.6929189746e-01	 2.4745771638e-01
 1.3854277083e+00	 7.8257384612e-01	 1.5628110839e-01
 1.3778722174e+00	 7.9580146157e-01	 6.6415182266e-02
 1.3701806650e+00	 8.0897267875e-01	-2.2135552565e-02
 1.3623536237e+00	 8.2208543798e-01	-1.0938669306e-01
 1.4424209984e+00	 6.9239341886e-01	 8.0170791670e-01
 1.4357939971e+00	 7.0603303841e-01	 7.0456405440e-01
 1.4290272981e+00	 7.1963054047e-01	 6.0824004935e-01
 1.4221211906e+00	 7.3318383689e-01	 5.1285225285e-01
 1.4150760043e+00	 7.4669083902e-01	 4.1849279167e-01
 1.4078921099e+00	 7.6014945867e-01	 3.2522975126e-01
 1.4005699188e+00	 7.7355760909e-01	 2.3310754450e-01
 1.3931098834e+00	 7.8691320594e-01	 1.4214746767e-01
 1.3855124975e+00	 8.0021416831e-01	 5.2348444423e-02
 1.3777782955e+00	 8.1345841969e-01	-3.6312043023e-02
 1.3699078534e+00	 8.2664388897e-01	-1.2387683704e-01
 1.4503750951e+00	 6.9621155809e-01	 7.8404572030e-01
 1.4437115498e+00	 7.0992639206e-01	 6.8751237790e-01
 1.4369075365e+00	 7.2359887628e-01	 5.9184216045e-01
 1.4299633459e+00	 7.3722691109e-01	 4.9711682072e-01
 1.4228793096e+00	 7.5080839633e-01	 4.0339345884e-01
 1.4156558002e+00	 7.6434123229e-01	 3.1070476597e-01
 1.4082932316e+00	 7.7782332071e-01	 2.1905946022e-01
 1.4007920586e+00	 7.9125256577e-01	 1.2844291690e-01
 1.3931527775e+00	 8.0462687506e-01	 3.8817993418e-02
 1.3853759260e+00	 8.1794416063e-01	-4.9873951651e-02
 1.3774620831e+00	 8.3120233995e-01	-1.3771184729e-01
 1.4583291918e+00	 7.0002969732e-01	 7.6592040420e-01
 1.4516291026e+00	 7.1381974571e-01	 6.7002143106e-01
 1.4447877749e+00	 7.2756721209e-01	 5.7507172619e-01
 1.4378055012e+00	 7.4126998530e-01	 4.8110834098e-01
 1.4306826148e+00	 7.5492595365e-01	 3.8814339938e-01
 1.4234194906e+00	 7.6853300592e-01	 2.9616441802e-01
 1.4160165444e+00	 7.8208903234e-01	 2.0513482580e-01
 1.4084742337e+00	 7.9559192559e-01	 1.1499468457e-01
 1.4007930576e+00	 8.0903958181e-01	 2.5661611573e-02
 1.3929735565e+00	 8.2242990157e-01	-6.2968097237e-02
 1.3850163128e+00	 8.3576079094e-01	-1.5101814492e-01
 1.3094740159e+00	 7.9017628106e-01	 2.1595678601e-02
 1.3018211405e+00	 8.0272190770e-01	-6.3315087355e-02
 1.2940392556e+00	 8.1520740681e-01	-1.4781980661e-01
 1.2861290314e+00	 8.2763082149e-01	-2.3201390900e-01
 1.2780911770e+00	 8.3999020390e-01	-3.1599544424e-01
 1.2699264403e+00	 8.5228361624e-01	-3.9986344514e-01
 1.2616356082e+00	 8.6450913168e-01	-4.8371619288e-01
 1.2532195063e+00	 8.7666483536e-01	-5.6764939274e-01
 1.2446789982e+00	 8.8874882534e-01	-6.5175426936e-01
 1.2360149861e+00	 9.0075921351e-01	-7.3611559142e-01
 1.2272284097e+00	 9.1269412663e-01	-8.2080963646e-01
 1.3170282456e+00	 7.9473473205e-01	-1.2566994407e-03
 1.3093312214e+00	 8.0735273320e-01	-8.5888567156e-02
 1.3015044437e+00	 8.1991025995e-01	-1.6985748398e-01
 1.2935485861e+00	 8.3240534412e-01	-2.5332339389e-01
 1.2854643621e+00	 8.4483602662e-01	-3.3644770175e-01
 1.2772525238e+00	 8.5720035847e-01	-4.1939148140e-01
 1.2689138627e+00	 8.6949640173e-01	-5.0231358276e-01
 1.2604492091e+00	 8.8172223050e-01	-5.8536864667e-01
 1.2518594317e+00	 8.9387593185e-01	-6.6870503701e-01
 1.2431454377e+00	 9.0595560681e-01	-7.5246270063e-01
 1.2343081724e+00	 9.1795937128e-01	-8.3677096607e-01
 1.3245824753e+00	 7.9929318304e-01	-2.2489486776e-02
 1.3168413024e+00	 8.1198355870e-01	-1.0701410975e-01
 1.3089696317e+00	 8.2461311310e-01	-1.9063893937e-01
 1.3009681408e+00	 8.3717986675e-01	-2.7357242709e-01
 1.2928375472e+00	 8.4968184934e-01	-3.5602362146e-01
 1.2845786073e+00	 8.6211710070e-01	-4.3820024328e-01
 1.2761921173e+00	 8.7448367179e-01	-5.2030665620e-01
 1.2676789119e+00	 8.8677962564e-01	-6.0254174186e-01
 1.2590398651e+00	 8.9900303837e-01	-6.8509668984e-01
 1.2502758893e+00	 9.1115200010e-01	-7.6815271296e-01
 1.2413879351e+00	 9.2322461594e-01	-8.5187869984e-01
 1.3321367050e+00	 8.0385163402e-01	-4.2249320304e-02
 1.3243513834e+00	 8.1661438420e-01	-1.2681417211e-01
 1.3164348197e+00	 8.2931596624e-01	-2.1026759292e-01
 1.3083876956e+00	 8.4195438938e-01	-2.9285081141e-01
 1.3002107323e+00	 8.5452767206e-01	-3.7480508251e-01
 1.2919046909e+00	 8.6703384293e-01	-4.5636965136e-01
 1.2834703718e+00	 8.7947094184e-01	-5.3777960879e-01
 1.2749086148e+00	 8.9183702078e-01	-6.1926364797e-01
 1.2662202986e+00	 9.0413014489e-01	-7.0104173249e-01
 1.2574063409e+00	 9.1634839339e-01	-7.8332268722e-01
 1.2484676978e+00	 9.2848986060e-01	-8.6630172418e-01
 1.3396909347e+00	 8.0841008501e-01	-6.0679802657e-02
 1.3318614644e+00	 8.2124520970e-01	-1.4540870014e-01
 1.3239000078e+00	 8.3401881939e-01	-2.2884475773e-01
 1.3158072503e+00	 8.4672891201e-01	-3.1124652149e-01
 1.3075839174e+00	 8.5937349478e-01	-3.9287228352e-01
 1.2992307744e+00	 8.7195058517e-01	-4.7397795623e-01
 1.2907486263e+00	 8.8445821190e-01	-5.5481483399e-01
 1.2821383176e+00	 8.9689441593e-01	-6.3562725183e-01
 1.2734007321e+00	 9.0925725141e-01	-7.1665015205e-01
 1.2645367925e+00	 9.2154478668e-01	-7.9810657047e-01
 1.2555474605e+00	 9.3375510526e-01	-8.8020505477e-01
 1.3472451643e+00	 8.1296853600e-01	-7.7921551807e-02
 1.3393715454e+00	 8.2587603520e-01	-1.6291516206e-01
 1.3313651958e+00	 8.3872167253e-01	-2.4646966017e-01
 1.3232268050e+00	 8.5150343464e-01	-3.2884571438e-01
 1.3149571025e+00	 8.6421931750e-01	-4.1030374706e-01
 1.3065568579e+00	 8.7686732740e-01	-4.9110174075e-01
 1.2980268808e+00	 8.8944548196e-01	-5.7149292679e-01
 1.2893680204e+00	 9.0195181107e-01	-6.5172336666e-01
 1.2805811655e+00	 9.1438435792e-01	-7.3202943712e-01
 1.2716672441e+00	 9.2674117998e-01	-8.1263523128e-01
 1.2626272232e+00	 9.3902034992e-01	-8.9374988846e-01
 1.3547993940e+00	 8.1752698699e-01	-9.4112250144e-02
 1.3468816263e+00	 8.3050686071e-01	-1.7944858174e-01
 1.3388303838e+00	 8.4342452568e-01	-2.6323946073e-01
 1.3306463597e+00	 8.5627795727e-01	-3.4573274107e-01
 1.3223302876e+00	 8.6906514022e-01	-4.2717632526e-01
 1.3138829414e+00	 8.8178406963e-01	-5.0781592317e-01
 1.3053051353e+00	 8.9443275201e-01	-5.8789268833e-01
 1.2965977232e+00	 9.0700920621e-01	-6.6764074211e-01
 1.2877615990e+00	 9.1951146444e-01	-7.4728459717e-01
 1.2787976957e+00	 9.3193757327e-01	-8.2703649263e-01
 1.2697069859e+00	 9.4428559458e-01	-9.0709365424e-01
 1.3623536237e+00	 8.2208543798e-01	-1.0938669306e-01
 1.3543917073e+00	 8.3513768621e-01	-1.9512157212e-01
 1.3462955719e+00	 8.4812737883e-01	-2.7924927509e-01
 1.3380659144e+00	 8.6105247990e-01	-3.6199015853e-01
 1.3297034727e+00	 8.7391096294e-01	-4.4356520615e-01
 1.3212090249e+00	 8.8670081187e-01	-5.2419376130e-01
 1.3125833898e+00	 8.9942002207e-01	-6.0409113138e-01
 1.3038274261e+00	 9.1206660135e-01	-6.8346607477e-01
 1.2949420324e+00	 9.2463857096e-01	-7.6251818216e-01
 1.2859281473e+00	 9.3713396656e-01	-8.4143516481e-01
 1.2767867486e+00	 9.4955083923e-01	-9.2039006346e-01
 1.3699078534e+00	 8.2664388897e-01	-1.2387683704e-01
 1.3619017883e+00	 8.3976851171e-01	-2.1004436858e-01
 1.3537607599e+00	 8.5283023197e-01	-2.9459219580e-01
 1.3454854691e+00	 8.6582700253e-01	-3.7769874255e-01
 1.3370766578e+00	 8.7875678566e-01	-4.5954392085e-01
 1.3285351085e+00	 8.9161755410e-01	-5.4030685746e-01
 1.3198616443e+00	 9.0440729213e-01	-6.2016348659e-01
 1.3110571289e+00	 9.1712399650e-01	-6.9928401945e-01
 1.3021224659e+00	 9.2976567748e-01	-7.7783030258e-01
 1.2930585989e+00	 9.4233035985e-01	-8.5595307801e-01
 1.2838665113e+00	 9.5481608389e-01	-9.3378915923e-01
 1.3774620831e+00	 8.3120233995e-01	-1.3771184729e-01
 1.3694118693e+00	 8.4439933721e-01	-2.2432486236e-01
 1.3612259479e+00	 8.5753308512e-01	-3.0935931411e-01
 1.3529050238e+00	 8.7060152516e-01	-3.9293750117e-01
 1.3444498429e+00	 8.8360260837e-01	-4.7518435164e-01
 1.3358611920e+00	 8.9653429633e-01	-5.5622516433e-01
 1.3271398988e+00	 9.0939456218e-01	-6.3618320960e-01
 1.3182868317e+00	 9.2218139164e-01	-7.1517720097e-01
 1.3093028993e+00	 9.3489278400e-01	-7.9331864960e-01
 1.3001890505e+00	 9.4752675315e-01	-8.7070911483e-01
 1.2909462740e+00	 9.6008132855e-01	-9.4743736512e-01
 1.3850163128e+00	 8.3576079094e-01	-1.5101814492e-01
 1.3769219503e+00	 8.4903016271e-01	-2.3806863388e-01
 1.3686911360e+00	 8.6223593826e-01	-3.2363974236e-01
 1.3603245785e+00	 8.7537604779e-01	-4.0778368870e-01
 1.3518230280e+00	 8.8844843109e-01	-4.9055674075e-01
 1.3431872755e+00	 9.0145103856e-01	-5.7201699168e-01
 1.3344181533e+00	 9.1438183224e-01	-6.5222198881e-01
 1.3255165345e+00	 9.2723878678e-01	-7.3122622654e-01
 1.3164833328e+00	 9.4001989051e-01	-8.0907851565e-01
 1.3073195021e+00	 9.5272314644e-01	-8.8581924257e-01
 1.2980260367e+00	 9.6534657321e-01	-9.6147753304e-01
 1.2272284097e+00	 9.1269412663e-01	-8.2080963646e-01
 1.2183187227e+00	 9.2455371526e-01	-9.0374293724e-01
 1.2092884280e+00	 9.3633409648e-01	-9.8214634922e-01
 1.2001385827e+00	 9.4803343938e-01	-1.0551208318e+00
 1.1908702807e+00	 9.5964993156e-01	-1.1217699972e+00
 1.1814846520e+00	 9.7118178004e-01	-1.1811992146e+00
 1.1719828623e+00	 9.8262721220e-01	-1.2339526299e+00
 1.1623661127e+00	 9.9398447665e-01	-1.2886130200e+00
 1.1526356390e+00	 1.0052518441e+00	-1.3457704327e+00
 1.1427927111e+00	 1.0164276082e+00	-1.4042161800e+00
 1.1328386328e+00	 1.0275100866e+00	-1.4627260319e+00
 1.2343081724e+00	 9.1795937128e-01	-8.3677096607e-01
 1.2253470863e+00	 9.2988737674e-01	-9.1973470701e-01
 1.2162646966e+00	 9.4173571785e-01	-9.9877042103e-01
 1.2070620668e+00	 9.5350255314e-01	-1.0730112768e+00
 1.1977402968e+00	 9.6518605974e-01	-1.1415930434e+00
 1.1883005233e+00	 9.7678443434e-01	-1.2036530692e+00
 1.1787439188e+00	 9.8829589410e-01	-1.2583292549e+00
 1.1690716911e+00	 9.9971867752e-01	-1.3085463609e+00
 1.1592850831e+00	 1.0110510453e+00	-1.3620065949e+00
 1.1493853723e+00	 1.0222912814e+00	-1.4178712985e+00
 1.1393738700e+00	 1.0334376935e+00	-1.4749336018e+00
 1.2413879351e+00	 9.2322461594e-01	-8.5187869984e-01
 1.2323754499e+00	 9.3522103822e-01	-9.3458669198e-01
 1.2232409653e+00	 9.4713733922e-01	-1.0139049706e+00
 1.2139855508e+00	 9.5897166689e-01	-1.0890113904e+00
 1.2046103130e+00	 9.7072218792e-01	-1.1590860649e+00
 1.1951163947e+00	 9.8238708865e-01	-1.2233101996e+00
 1.1855049752e+00	 9.9396457601e-01	-1.2808649179e+00
 1.1757772694e+00	 1.0054528784e+00	-1.3309660659e+00
 1.1659345273e+00	 1.0168502466e+00	-1.3801422342e+00
 1.1559780336e+00	 1.0281549545e+00	-1.4328641319e+00
 1.1459091071e+00	 1.0393653004e+00	-1.4879517187e+00
 1.2484676978e+00	 9.2848986060e-01	-8.6630172418e-01
 1.2394038134e+00	 9.4055469971e-01	-9.4850109154e-01
 1.2302172340e+00	 9.5253896060e-01	-1.0277808982e+00
 1.2209090349e+00	 9.6444078065e-01	-1.1033759699e+00
 1.2114803291e+00	 9.7625831610e-01	-1.1745227636e+00
 1.2019322660e+00	 9.8798974295e-01	-1.2404580346e+00
 1.1922660317e+00	 9.9963325791e-01	-1.3004174950e+00
 1.1824828477e+00	 1.0111870793e+00	-1.3536344761e+00
 1.1725839715e+00	 1.0226494478e+00	-1.4003577107e+00
 1.1625706949e+00	 1.0340186276e+00	-1.4493677101e+00
 1.1524443443e+00	 1.0452929072e+00	-1.5019403221e+00
 1.2555474605e+00	 9.3375510526e-01	-8.8020505477e-01
 1.2464321770e+00	 9.4588836119e-01	-9.6167544155e-01
 1.2371935026e+00	 9.5794058197e-01	-1.0406237521e+00
 1.2278325190e+00	 9.6990989440e-01	-1.1163538805e+00
 1.2183503452e+00	 9.8179444428e-01	-1.1881704430e+00
 1.2087481374e+00	 9.9359239726e-01	-1.2553772573e+00
 1.1990270881e+00	 1.0053019398e+00	-1.3172758132e+00
 1.1891884261e+00	 1.0169212801e+00	-1.3731637469e+00
 1.1792334156e+00	 1.0284486490e+00	-1.4223333367e+00
 1.1691633561e+00	 1.0398823008e+00	-1.4675460024e+00
 1.1589795814e+00	 1.0512205141e+00	-1.5170507023e+00
 1.2626272232e+00	 9.3902034992e-01	-8.9374988846e-01
 1.2534605406e+00	 9.5122202268e-01	-9.7430268571e-01
 1.2441697713e+00	 9.6334220334e-01	-1.0526538162e+00
 1.2347560031e+00	 9.7537900816e-01	-1.1281881571e+00
 1.2252203614e+00	 9.8733057246e-01	-1.2002901203e+00
 1.2155640087e+00	 9.9919505157e-01	-1.2683419233e+00
 1.2057881445e+00	 1.0109706217e+00	-1.3317218506e+00
 1.1958940044e+00	 1.0226554810e+00	-1.3898025210e+00
 1.1858828598e+00	 1.0342478502e+00	-1.4419491754e+00
 1.1757560174e+00	 1.0457459739e+00	-1.4875538242e+00
 1.1655148185e+00	 1.0571481210e+00	-1.5334253973e+00
 1.2697069859e+00	 9.4428559458e-01	-9.0709365424e-01
 1.2604889041e+00	 9.5655568416e-01	-9.8657124544e-01
 1.2511460399e+00	 9.6874382471e-01	-1.0640861958e+00
 1.2416794872e+00	 9.8084812191e-01	-1.1391161026e+00
 1.2320903775e+00	 9.9286670064e-01	-1.2111366348e+00
 1.2223798801e+00	 1.0047977059e+00	-1.2796195758e+00
 1.2125492010e+00	 1.0166393036e+00	-1.3440308551e+00
 1.2025995827e+00	 1.0283896819e+00	-1.4038285872e+00
 1.1925323040e+00	 1.0400470515e+00	-1.4584611329e+00
 1.1823486786e+00	 1.0516096471e+00	-1.5073652010e+00
 1.1720500557e+00	 1.0630757279e+00	-1.5511980860e+00
 1.2767867486e+00	 9.4955083923e-01	-9.2039006346e-01
 1.2675172677e+00	 9.6188934565e-01	-9.9866508827e-01
 1.2581223086e+00	 9.7414544608e-01	-1.0751309017e+00
 1.2486029713e+00	 9.8631723567e-01	-1.1493693842e+00
 1.2389603937e+00	 9.9840282883e-01	-1.2209587536e+00
 1.2291957514e+00	 1.0104003602e+00	-1.2894713581e+00
 1.2193102574e+00	 1.0223079855e+00	-1.3544714589e+00
 1.2093051611e+00	 1.0341238827e+00	-1.4155130200e+00
 1.1991817481e+00	 1.0458462527e+00	-1.4721375240e+00
 1.1889413399e+00	 1.0574733202e+00	-1.5238718293e+00
 1.1785852928e+00	 1.0690033348e+00	-1.5702260877e+00
 1.2838665113e+00	 9.5481608389e-01	-9.3378915923e-01
 1.2745456313e+00	 9.6722300713e-01	-1.0107637948e+00
 1.2650985773e+00	 9.7954706745e-01	-1.0859929318e+00
 1.2555264553e+00	 9.9178634942e-01	-1.1591741275e+00
 1.2458304098e+00	 1.0039389570e+00	-1.2299992744e+00
 1.2360116228e+00	 1.0160030145e+00	-1.2981521221e+00
 1.2260713138e+00	 1.0279766674e+00	-1.3633057906e+00
 1.2160107394e+00	 1.0398580836e+00	-1.4251202923e+00
 1.2058311923e+00	 1.0516454539e+00	-1.4832400806e+00
 1.1955340012e+00	 1.0633369933e+00	-1.5372916449e+00
 1.1851205300e+00	 1.0749309417e+00	-1.5868811699e+00
 1.2909462740e+00	 9.6008132855e-01	-9.4743736512e-01
 1.2815739948e+00	 9.7255666862e-01	-1.0230426243e+00
 1.2720748459e+00	 9.8494868882e-01	-1.0968723509e+00
 1.2624499394e+00	 9.9725546318e-01	-1.1687510079e+00
 1.2527004259e+00	 1.0094750852e+00	-1.2384951258e+00
 1.2428274941e+00	 1.0216056688e+00	-1.3059105341e+00
 1.2328323703e+00	 1.0336453493e+00	-1.3707895842e+00
 1.2227163177e+00	 1.0455922845e+00	-1.4329083830e+00
 1.2124806365e+00	 1.0574446552e+00	-1.4920240564e+00
 1.2021266624e+00	 1.0692006665e+00	-1.5478720617e+00
 1.1916557671e+00	 1.0808585486e+00	-1.6001635699e+00
 1.2980260367e+00	 9.6534657321e-01	-9.6147753304e-01
 1.2886023584e+00	 9.7789033010e-01	-1.0356725790e+00
 1.2790511146e+00	 9.9035031019e-01	-1.1079643690e+00
 1.2693734235e+00	 1.0027245769e+00	-1.1783153396e+00
 1.2595704421e+00	 1.0150112134e+00	-1.2466774653e+00
 1.2496433655e+00	 1.0272083231e+00	-1.3129891791e+00
 1.2395934267e+00	 1.0393140312e+00	-1.3771722848e+00
 1.2294218961e+00	 1.0513264853e+00	-1.4391288831e+00
 1.2191300806e+00	 1.0632438564e+00	-1.4987383291e+00
 1.2087193237e+00	 1.0750643396e+00	-1.5558542445e+00
 1.1981910043e+00	 1.0867861555e+00	-1.6103016026e+00
 1.1328386328e+00	 1.0275100866e+00	-1.4627260319e+00
 1.1227764581e+00	 1.0384957648e+00	-1.5201766477e+00
 1.1126058582e+00	 1.0493849180e+00	-1.5761279362e+00
 1.1023282158e+00	 1.0601759590e+00	-1.6303186387e+00
 1.0919449451e+00	 1.0708673273e+00	-1.6824592308e+00
 1.0814574907e+00	 1.0814574907e+00	-1.7322354190e+00
 1.0708673273e+00	 1.0919449451e+00	-1.7793118364e+00
 1.0601759590e+00	 1.1023282158e+00	-1.8233359147e+00
 1.0493849180e+00	 1.1126058582e+00	-1.8639419142e+00
 1.0384957648e+00	 1.1227764581e+00	-1.9007550882e+00
 1.0275100866e+00	 1.1328386328e+00	-1.9333959608e+00
 1.1393738700e+00	 1.0334376935e+00	-1.4749336018e+00
 1.1292536475e+00	 1.0444867470e+00	-1.5318388322e+00
 1.1190243744e+00	 1.0554387187e+00	-1.5878117949e+00
 1.1086874413e+00	 1.0662920121e+00	-1.6424510227e+00
 1.0982442704e+00	 1.0770450580e+00	-1.6953256265e+00
 1.0876963150e+00	 1.0876963150e+00	-1.7459790936e+00
 1.0770450580e+00	 1.0982442704e+00	-1.7939332910e+00
 1.0662920121e+00	 1.1086874413e+00	-1.8386926539e+00
 1.0554387187e+00	 1.1190243744e+00	-1.8797485371e+00
 1.0444867470e+00	 1.1292536475e+00	-1.9165837072e+00
 1.0334376935e+00	 1.1393738700e+00	-1.9486769506e+00
 1.1459091071e+00	 1.0393653004e+00	-1.4879517187e+00
 1.1357308370e+00	 1.0504777292e+00	-1.5438282364e+00
 1.1254428906e+00	 1.0614925194e+00	-1.5993832293e+00
 1.1150466667e+00	 1.0724080653e+00	-1.6540702724e+00
 1.1045435958e+00	 1.0832227886e+00	-1.7073123499e+00
 1.0939351392e+00	 1.0939351392e+00	-1.7585059640e+00
 1.0832227886e+00	 1.1045435958e+00	-1.8070254582e+00
 1.0724080653e+00	 1.1150466667e+00	-1.8522275322e+00
 1.0614925194e+00	 1.1254428906e+00	-1.8934559261e+00
 1.0504777292e+00	 1.1357308370e+00	-1.9300462508e+00
 1.0393653004e+00	 1.1459091071e+00	-1.9613309381e+00
 1.1524443443e+00	 1.0452929072e+00	-1.5019403221e+00
 1.1422080264e+00	 1.0564687114e+00	-1.5562892939e+00
 1.1318614068e+00	 1.0675463201e+00	-1.6109722447e+00
 1.1214058922e+00	 1.0785241184e+00	-1.6652930886e+00
 1.1108429212e+00	 1.0894005193e+00	-1.7185239645e+00
 1.1001739635e+00	 1.1001739635e+00	-1.7699096659e+00
 1.0894005193e+00	 1.1108429212e+00	-1.8186722942e+00
 1.0785241184e+00	 1.1214058922e+00	-1.8640161112e+00
 1.0675463201e+00	 1.1318614068e+00	-1.9051325673e+00
 1.0564687114e+00	 1.1422080264e+00	-1.9412054812e+00
 1.0452929072e+00	 1.1524443443e+00	-1.9714163433e+00
 1.1589795814e+00	 1.0512205141e+00	-1.5170507023e+00
 1.1486852158e+00	 1.0624596936e+00	-1.5693582766e+00
 1.1382799230e+00	 1.0736001208e+00	-1.6227011681e+00
 1.1277651177e+00	 1.0846401716e+00	-1.6762289725e+00
 1.1171422466e+00	 1.0955782499e+00	-1.7290583067e+00
 1.1064127878e+00	 1.1064127878e+00	-1.7802775716e+00
 1.0955782499e+00	 1.1171422466e+00	-1.8289519453e+00
 1.0846401716e+00	 1.1277651177e+00	-1.8741285845e+00
 1.0736001208e+00	 1.1382799230e+00	-1.9148420077e+00
 1.0624596936e+00	 1.1486852158e+00	-1.9501196350e+00
 1.0512205141e+00	 1.1589795814e+00	-1.9789874568e+00
 1.1655148185e+00	 1.0571481210e+00	-1.5334253973e+00
 1.1551624052e+00	 1.0684506758e+00	-1.5831631792e+00
 1.1446984392e+00	 1.0796539214e+00	-1.6346845227e+00
 1.1341243432e+00	 1.0907562248e+00	-1.6869800897e+00
 1.1234415720e+00	 1.1017559805e+00	-1.7390063399e+00
 1.1126516121e+00	 1.1126516121e+00	-1.7896906354e+00
 1.1017559805e+00	 1.1234415720e+00	-1.8379365858e+00
 1.0907562248e+00	 1.1341243432e+00	-1.8826296087e+00
 1.0796539214e+00	 1.1446984392e+00	-1.9226426791e+00
 1.0684506758e+00	 1.1551624052e+00	-1.9568422413e+00
 1.0571481210e+00	 1.1655148185e+00	-1.9840942534e+00
 1.1720500557e+00	 1.0630757279e+00	-1.5511980860e+00
 1.1616395947e+00	 1.0744416580e+00	-1.5978236023e+00
 1.1511169554e+00	 1.0857077221e+00	-1.6470288996e+00
 1.1404835687e+00	 1.0968722779e+00	-1.6976411328e+00
 1.1297408974e+00	 1.1079337112e+00	-1.7484520077e+00
 1.1188904363e+00	 1.1188904363e+00	-1.7982232383e+00
 1.1079337112e+00	 1.1297408974e+00	-1.8456922545e+00
 1.0968722779e+00	 1.1404835687e+00	-1.8895781323e+00
 1.0857077221e+00	 1.1511169554e+00	-1.9285877215e+00
 1.0744416580e+00	 1.1616395947e+00	-1.9614219397e+00
 1.0630757279e+00	 1.1720500557e+00	-1.9867822056e+00
 1.1785852928e+00	 1.0690033348e+00	-1.5702260877e+00
 1.1681167841e+00	 1.0804326402e+00	-1.6134506329e+00
 1.1575354716e+00	 1.0917615228e+00	-1.6598328285e+00
 1.1468427941e+00	 1.1029883311e+00	-1.7082991820e+00
 1.1360402228e+00	 1.1141114418e+00	-1.7574720859e+00
 1.1251292606e+00	 1.1251292606e+00	-1.8059430318e+00
 1.1141114418e+00	 1.1360402228e+00	-1.8522786910e+00
 1.1029883311e+00	 1.1468427941e+00	-1.8950272259e+00
 1.0917615228e+00	 1.1575354716e+00	-1.9327248064e+00
 1.0804326402e+00	 1.1681167841e+00	-1.9639022987e+00
 1.0690033348e+00	 1.1785852928e+00	-1.9872654154e+00
 1.1851205300e+00	 1.0749309417e+00	-1.5868811699e+00
 1.1745939735e+00	 1.0864236224e+00	-1.6301467224e+00
 1.1639539878e+00	 1.0978153235e+00	-1.6731866464e+00
 1.1532020196e+00	 1.1091043843e+00	-1.7190335644e+00
 1.1423395482e+00	 1.1202891725e+00	-1.7661360330e+00
 1.1313680849e+00	 1.1313680849e+00	-1.8129107805e+00
 1.1202891725e+00	 1.1423395482e+00	-1.8577491713e+00
 1.1091043843e+00	 1.1532020196e+00	-1.8990239108e+00
 1.0978153235e+00	 1.1639539878e+00	-1.9350959605e+00
 1.0864236224e+00	 1.1745939735e+00	-1.9643216339e+00
 1.0749309417e+00	 1.1851205300e+00	-1.9879509235e+00
 1.1916557671e+00	 1.0808585486e+00	-1.6001635699e+00
 1.1810711629e+00	 1.0924146047e+00	-1.6467670541e+00
 1.1703725041e+00	 1.1038691242e+00	-1.6871723634e+00
 1.1595612451e+00	 1.1152204374e+00	-1.7299157119e+00
 1.1486388736e+00	 1.1264669031e+00	-1.7745058401e+00
 1.1376069092e+00	 1.1376069092e+00	-1.8191802040e+00
 1.1264669031e+00	 1.1486388736e+00	-1.8621503430e+00
 1.1152204374e+00	 1.1595612451e+00	-1.9016089881e+00
 1.1038691242e+00	 1.1703725041e+00	-1.9357373891e+00
 1.0924146047e+00	 1.1810711629e+00	-1.9634676721e+00
 1.0808585486e+00	 1.1916557671e+00	-1.9894120159e+00
 1.1981910043e+00	 1.0867861555e+00	-1.6103016026e+00
 1.1875483523e+00	 1.0984055869e+00	-1.6599324915e+00
 1.1767910203e+00	 1.1099229249e+00	-1.7018587873e+00
 1.1659204706e+00	 1.1213364906e+00	-1.7410090173e+00
 1.1549381990e+00	 1.1326446337e+00	-1.7826358788e+00
 1.1438457334e+00	 1.1438457334e+00	-1.8247978183e+00
 1.1326446337e+00	 1.1549381990e+00	-1.8655220593e+00
 1.1213364906e+00	 1.1659204706e+00	-1.9028168672e+00
 1.1099229249e+00	 1.1767910203e+00	-1.9346820614e+00
 1.0984055869e+00	 1.1875483523e+00	-1.9633893897e+00
 1.0867861555e+00	 1.1981910043e+00	-1.9914051587e+00
 1.0275100866e+00	 1.1328386328e+00	-1.9333959608e+00
 1.0164276082e+00	 1.1427927111e+00	-1.9629178577e+00
 1.0052518441e+00	 1.1526356390e+00	-1.9896856887e+00
 9.9398447665e-01	 1.1623661127e+00	-2.0122988044e+00
 9.8262721220e-01	 1.1719828623e+00	-2.0293572202e+00
 9.7118178004e-01	 1.1814846520e+00	-2.0408775427e+00
 9.5964993156e-01	 1.1908702807e+00	-2.0533812982e+00
 9.4803343938e-01	 1.2001385827e+00	-2.0672802931e+00
 9.3633409648e-01	 1.2092884280e+00	-2.0818651442e+00
 9.2455371526e-01	 1.2183187227e+00	-2.0964278516e+00
 9.1269412663e-01	 1.2272284097e+00	-2.1102618143e+00
 1.0334376935e+00	 1.1393738700e+00	-1.9486769506e+00
 1.0222912814e+00	 1.1493853723e+00	-1.9768417471e+00
 1.0110510453e+00	 1.1592850831e+00	-2.0012983997e+00
 9.9971867752e-01	 1.1690716911e+00	-2.0206474430e+00
 9.8829589410e-01	 1.1787439188e+00	-2.0337599713e+00
 9.7678443434e-01	 1.1883005233e+00	-2.0461919973e+00
 9.6518605974e-01	 1.1977402968e+00	-2.0601245214e+00
 9.5350255314e-01	 1.2070620668e+00	-2.0748702460e+00
 9.4173571785e-01	 1.2162646966e+00	-2.0897430070e+00
 9.2988737674e-01	 1.2253470863e+00	-2.1040577664e+00
 9.1795937128e-01	 1.2343081724e+00	-2.1171305566e+00
 1.0393653004e+00	 1.1459091071e+00	-1.9613309381e+00
 1.0281549545e+00	 1.1559780336e+00	-1.9878676232e+00
 1.0168502466e+00	 1.1659345273e+00	-2.0097235013e+00
 1.0054528784e+00	 1.1757772694e+00	-2.0255069558e+00
 9.9396457601e-01	 1.1855049752e+00	-2.0381001979e+00
 9.8238708865e-01	 1.1951163947e+00	-2.0522390797e+00
 9.7072218792e-01	 1.2046103130e+00	-2.0672936077e+00
 9.5897166689e-01	 1.2139855508e+00	-2.0826080529e+00
 9.4713733922e-01	 1.2232409653e+00	-2.0975277679e+00
 9.3522103822e-01	 1.2323754499e+00	-2.1113990936e+00
 9.2322461594e-01	 1.2413879351e+00	-2.1235692163e+00
 1.0452929072e+00	 1.1524443443e+00	-1.9714163433e+00
 1.0340186276e+00	 1.1625706949e+00	-1.9960518007e+00
 1.0226494478e+00	 1.1725839715e+00	-2.0150181700e+00
 1.0111870793e+00	 1.1824828477e+00	-2.0287171883e+00
 9.9963325791e-01	 1.1922660317e+00	-2.0432699058e+00
 9.8798974295e-01	 1.2019322660e+00	-2.0587937459e+00
 9.7625831610e-01	 1.2114803291e+00	-2.0746712793e+00
 9.6444078065e-01	 1.2209090349e+00	-2.0902863730e+00
 9.5253896060e-01	 1.2302172340e+00	-2.1050240566e+00
 9.4055469971e-01	 1.2394038134e+00	-2.1182703281e+00
 9.2848986060e-01	 1.2484676978e+00	-2.1294119105e+00
 1.0512205141e+00	 1.1589795814e+00	-1.9789874568e+00
 1.0398823008e+00	 1.1691633561e+00	-2.0014468241e+00
 1.0284486490e+00	 1.1792334156e+00	-2.0175849480e+00
 1.0169212801e+00	 1.1891884261e+00	-2.0328308758e+00
 1.0053019398e+00	 1.1990270881e+00	-2.0490360213e+00
 9.9359239726e-01	 1.2087481374e+00	-2.0656283219e+00
 9.8179444428e-01	 1.2183503452e+00	-2.0820375126e+00
 9.6990989440e-01	 1.2278325190e+00	-2.0976949507e+00
 9.5794058197e-01	 1.2371935026e+00	-2.1120333688e+00
 9.4588836119e-01	 1.2464321770e+00	-2.1244865667e+00
 9.3375510526e-01	 1.2555474605e+00	-2.1344890515e+00
 1.0571481210e+00	 1.1655148185e+00	-1.9840942534e+00
 1.0457459739e+00	 1.1757560174e+00	-2.0041012777e+00
 1.0342478502e+00	 1.1858828598e+00	-2.0204504729e+00
 1.0226554810e+00	 1.1958940044e+00	-2.0376363725e+00
 1.0109706217e+00	 1.2057881445e+00	-2.0551630611e+00
 9.9919505157e-01	 1.2155640087e+00	-2.0725126634e+00
 9.8733057246e-01	 1.2252203614e+00	-2.0891696976e+00
 9.7537900816e-01	 1.2347560031e+00	-2.1046207756e+00
 9.6334220334e-01	 1.2441697713e+00	-2.1183542294e+00
 9.5122202268e-01	 1.2534605406e+00	-2.1298596744e+00
 9.3902034992e-01	 1.2626272232e+00	-2.1386275175e+00
 1.0630757279e+00	 1.1720500557e+00	-1.9867822056e+00
 1.0516096471e+00	 1.1823486786e+00	-2.0055231334e+00
 1.0400470515e+00	 1.1925323040e+00	-2.0241095988e+00
 1.0283896819e+00	 1.2025995827e+00	-2.0428929366e+00
 1.0166393036e+00	 1.2125492010e+00	-2.0614132938e+00
 1.0047977059e+00	 1.2223798801e+00	-2.0792143160e+00
 9.9286670064e-01	 1.2320903775e+00	-2.0958427978e+00
 9.8084812191e-01	 1.2416794872e+00	-2.1108482440e+00
 9.6874382471e-01	 1.2511460399e+00	-2.1237823563e+00
 9.5655568416e-01	 1.2604889041e+00	-2.1341984511e+00
 9.4428559458e-01	 1.2697069859e+00	-2.1416508233e+00
 1.0690033348e+00	 1.1785852928e+00	-1.9872654154e+00
 1.0574733202e+00	 1.1889413399e+00	-2.0078223437e+00
 1.0458462527e+00	 1.1991817481e+00	-2.0283188346e+00
 1.0341238827e+00	 1.2093051611e+00	-2.0483577479e+00
 1.0223079855e+00	 1.2193102574e+00	-2.0675469018e+00
 1.0104003602e+00	 1.2291957514e+00	-2.0854986755e+00
 9.9840282883e-01	 1.2389603937e+00	-2.1018295104e+00
 9.8631723567e-01	 1.2486029713e+00	-2.1161593206e+00
 9.7414544608e-01	 1.2581223086e+00	-2.1281108231e+00
 9.6188934565e-01	 1.2675172677e+00	-2.1373087979e+00
 9.4955083923e-01	 1.2767867486e+00	-2.1433792914e+00
 1.0749309417e+00	 1.1851205300e+00	-1.9879509235e+00
 1.0633369933e+00	 1.1955340012e+00	-2.0107796999e+00
 1.0516454539e+00	 1.2058311923e+00	-2.0328327286e+00
 1.0398580836e+00	 1.2160107394e+00	-2.0537860729e+00
 1.0279766674e+00	 1.2260713138e+00	-2.0733221444e+00
 1.0160030145e+00	 1.2360116228e+00	-2.0911291493e+00
 1.0039389570e+00	 1.2458304098e+00	-2.1069004281e+00
 9.9178634942e-01	 1.2555264553e+00	-2.1203337002e+00
 9.7954706745e-01	 1.2650985773e+00	-2.1311302238e+00
 9.6722300713e-01	 1.2745456313e+00	-2.1389938844e+00
 9.5481608389e-01	 1.2838665113e+00	-2.1436302216e+00
 1.0808585486e+00	 1.1916557671e+00	-1.9894120159e+00
 1.0692006665e+00	 1.2021266624e+00	-2.0141495292e+00
 1.0574446552e+00	 1.2124806365e+00	-2.0374040380e+00
 1.0455922845e+00	 1.2227163177e+00	-2.0589314311e+00
 1.0336453493e+00	 1.2328323703e+00	-2.0784955207e+00
 1.0216056688e+00	 1.2428274941e+00	-2.0958673186e+00
 1.0094750852e+00	 1.2527004259e+00	-2.1108242004e+00
 9.9725546318e-01	 1.2624499394e+00	-2.1231489701e+00
 9.8494868882e-01	 1.2720748459e+00	-2.1326288368e+00
 9.7255666862e-01	 1.2815739948e+00	-2.1390543150e+00
 9.6008132855e-01	 1.2909462740e+00	-2.1422180623e+00
 1.0867861555e+00	 1.1981910043e+00	-1.9914051587e+00
 1.0750643396e+00	 1.2087193237e+00	-2.0176844405e+00
 1.0632438564e+00	 1.2191300806e+00	-2.0417838995e+00
 1.0513264853e+00	 1.2294218961e+00	-2.0635457616e+00
 1.0393140312e+00	 1.2395934267e+00	-2.0828219345e+00
 1.0272083231e+00	 1.2496433655e+00	-2.0994731014e+00
 1.0150112134e+00	 1.2595704421e+00	-2.1133676960e+00
 1.0027245769e+00	 1.2693734235e+00	-2.1243807738e+00
 9.9035031019e-01	 1.2790511146e+00	-2.1323927894e+00
 9.7789033010e-01	 1.2886023584e+00	-2.1372882965e+00
 9.6534657321e-01	 1.2980260367e+00	-2.1389545801e+00
 9.1269412663e-01	 1.2272284097e+00	-2.1102618143e+00
 9.0075921351e-01	 1.2360149861e+00	-2.1221158621e+00
 8.8874882534e-01	 1.2446789982e+00	-2.1311592639e+00
 8.7666483536e-01	 1.2532195063e+00	-2.1373189079e+00
 8.6450913168e-01	 1.2616356082e+00	-2.1405323896e+00
 8.5228361624e-01	 1.2699264403e+00	-2.1407471501e+00
 8.3999020390e-01	 1.2780911770e+00	-2.1379196074e+00
 8.2763082149e-01	 1.2861290314e+00	-2.1320142892e+00
 8.1520740681e-01	 1.2940392556e+00	-2.1230029773e+00
 8.0272190770e-01	 1.3018211405e+00	-2.1108638702e+00
 7.9017628106e-01	 1.3094740159e+00	-2.0955807734e+00
 9.1795937128e-01	 1.2343081724e+00	-2.1171305566e+00
 9.0595560681e-01	 1.2431454377e+00	-2.1278399167e+00
 8.9387593185e-01	 1.2518594317e+00	-2.1355069383e+00
 8.8172223050e-01	 1.2604492091e+00	-2.1401156121e+00
 8.6949640173e-01	 1.2689138627e+00	-2.1416619594e+00
 8.5720035847e-01	 1.2772525238e+00	-2.1401530312e+00
 8.4483602662e-01	 1.2854643621e+00	-2.1356059005e+00
 8.3240534412e-01	 1.2935485861e+00	-2.1280466561e+00
 8.1991025995e-01	 1.3015044437e+00	-2.1175094077e+00
 8.0735273320e-01	 1.3093312214e+00	-2.1040353121e+00
 7.9473473205e-01	 1.3170282456e+00	-2.0876716267e+00
 9.2322461594e-01	 1.2413879351e+00	-2.1235692163e+00
 9.1115200010e-01	 1.2502758893e+00	-2.1330665615e+00
 8.9900303837e-01	 1.2590398651e+00	-2.1393697269e+00
 8.8677962564e-01	 1.2676789119e+00	-2.1425065627e+00
 8.7448367179e-01	 1.2761921173e+00	-2.1425180848e+00
 8.6211710070e-01	 1.2845786073e+00	-2.1394573522e+00
 8.4968184934e-01	 1.2928375472e+00	-2.1333883371e+00
 8.3717986675e-01	 1.3009681408e+00	-2.1243847969e+00
 8.2461311310e-01	 1.3089696317e+00	-2.1125291582e+00
 8.1198355870e-01	 1.3168413024e+00	-2.0979114225e+00
 7.9929318304e-01	 1.3245824753e+00	-2.0806281024e+00
 9.2848986060e-01	 1.2484676978e+00	-2.1294119105e+00
 9.1634839339e-01	 1.2574063409e+00	-2.1376444323e+00
 9.0413014489e-01	 1.2662202986e+00	-2.1426070749e+00
 8.9183702078e-01	 1.2749086148e+00	-2.1443585397e+00
 8.7947094184e-01	 1.2834703718e+00	-2.1429716428e+00
 8.6703384293e-01	 1.2919046909e+00	-2.1385320876e+00
 8.5452767206e-01	 1.3002107323e+00	-2.1311372302e+00
 8.4195438938e-01	 1.3083876956e+00	-2.1208948458e+00
 8.2931596624e-01	 1.3164348197e+00	-2.1079219089e+00
 8.1661438420e-01	 1.3243513834e+00	-2.0923433962e+00
 8.0385163402e-01	 1.3321367050e+00	-2.0742911219e+00
 9.3375510526e-01	 1.2555474605e+00	-2.1344890515e+00
 9.2154478668e-01	 1.2645367925e+00	-2.1414181765e+00
 9.0925725141e-01	 1.2734007321e+00	-2.1450742378e+00
 8.9689441593e-01	 1.2821383176e+00	-2.1455340093e+00
 8.8445821190e-01	 1.2907486263e+00	-2.1428891451e+00
 8.7195058517e-01	 1.2992307744e+00	-2.1372448639e+00
 8.5937349478e-01	 1.3075839174e+00	-2.1287186249e+00
 8.4672891201e-01	 1.3158072503e+00	-2.1174388074e+00
 8.3401881939e-01	 1.3239000078e+00	-2.1035434026e+00
 8.2124520970e-01	 1.3318614644e+00	-2.0871787313e+00
 8.0841008501e-01	 1.3396909347e+00	-2.0684981943e+00
 9.3902034992e-01	 1.2626272232e+00	-2.1386275175e+00
 9.2674117998e-01	 1.2716672441e+00	-2.1442286272e+00
 9.1438435792e-01	 1.2805811655e+00	-2.1466224561e+00
 9.0195181107e-01	 1.2893680204e+00	-2.1458912977e+00
 8.8944548196e-01	 1.2980268808e+00	-2.1421329093e+00
 8.7686732740e-01	 1.3065568579e+00	-2.1354591243e+00
 8.6421931750e-01	 1.3149571025e+00	-2.1259944562e+00
 8.5150343464e-01	 1.3232268050e+00	-2.1138747059e+00
 8.3872167253e-01	 1.3313651958e+00	-2.0992455834e+00
 8.2587603520e-01	 1.3393715454e+00	-2.0822613556e+00
 8.1296853600e-01	 1.3472451643e+00	-2.0630835298e+00
 9.4428559458e-01	 1.2697069859e+00	-2.1416508233e+00
 9.3193757327e-01	 1.2787976957e+00	-2.1459129775e+00
 9.1951146444e-01	 1.2877615990e+00	-2.1470991310e+00
 9.0700920621e-01	 1.2965977232e+00	-2.1452847652e+00
 8.9443275201e-01	 1.3053051353e+00	-2.1405612289e+00
 8.8178406963e-01	 1.3138829414e+00	-2.1330342947e+00
 8.6906514022e-01	 1.3223302876e+00	-2.1228227071e+00
 8.5627795727e-01	 1.3306463597e+00	-2.1100567340e+00
 8.4342452568e-01	 1.3388303838e+00	-2.0948767346e+00
 8.3050686071e-01	 1.3468816263e+00	-2.0774317535e+00
 8.1752698699e-01	 1.3547993940e+00	-2.0578781536e+00
 9.4955083923e-01	 1.2767867486e+00	-2.1433792914e+00
 9.3713396656e-01	 1.2859281473e+00	-2.1463049539e+00
 9.2463857096e-01	 1.2949420324e+00	-2.1463479987e+00
 9.1206660135e-01	 1.3038274261e+00	-2.1435649794e+00
 8.9942002207e-01	 1.3125833898e+00	-2.1380285433e+00
 8.8670081187e-01	 1.3212090249e+00	-2.1298259473e+00
 8.7391096294e-01	 1.3297034727e+00	-2.1190575655e+00
 8.6105247990e-01	 1.3380659144e+00	-2.1058354017e+00
 8.4812737883e-01	 1.3462955719e+00	-2.0902816181e+00
 8.3513768621e-01	 1.3543917073e+00	-2.0725270934e+00
 8.2208543798e-01	 1.3623536237e+00	-2.0527100202e+00
 9.5481608389e-01	 1.2838665113e+00	-2.1436302216e+00
 9.4233035985e-01	 1.2930585989e+00	-2.1452349903e+00
 9.2976567748e-01	 1.3021224659e+00	-2.1442093046e+00
 9.1712399650e-01	 1.3110571289e+00	-2.1405788877e+00
 9.0440729213e-01	 1.3198616443e+00	-2.1343856071e+00
 8.9161755410e-01	 1.3285351085e+00	-2.1256859651e+00
 8.7875678566e-01	 1.3370766578e+00	-2.1145495820e+00
 8.6582700253e-01	 1.3454854691e+00	-2.1010576846e+00
 8.5283023197e-01	 1.3537607599e+00	-2.0853016124e+00
 8.3976851171e-01	 1.3619017883e+00	-2.0673813545e+00
 8.2664388897e-01	 1.3699078534e+00	-2.0474041285e+00
 9.6008132855e-01	 1.2909462740e+00	-2.1422180623e+00
 9.4752675315e-01	 1.3001890505e+00	-2.1425304007e+00
 9.3489278400e-01	 1.3093028993e+00	-2.1405199767e+00
 9.2218139164e-01	 1.3182868317e+00	-2.1361699895e+00
 9.0939456218e-01	 1.3271398988e+00	-2.1294796586e+00
 8.9653429633e-01	 1.3358611920e+00	-2.1204627053e+00
 8.8360260837e-01	 1.3444498429e+00	-2.1091458259e+00
 8.7060152516e-01	 1.3529050238e+00	-2.0955671725e+00
 8.5753308512e-01	 1.3612259479e+00	-2.0797748516e+00
 8.4439933721e-01	 1.3694118693e+00	-2.0618254553e+00
 8.3120233995e-01	 1.3774620831e+00	-2.0417826377e+00
 9.6534657321e-01	 1.2980260367e+00	-2.1389545801e+00
 9.5272314644e-01	 1.3073195021e+00	-2.1380155520e+00
 9.4001989051e-01	 1.3164833328e+00	-2.1351137993e+00
 9.2723878678e-01	 1.3255165345e+00	-2.1301785080e+00
 9.1438183224e-01	 1.3344181533e+00	-2.1231545884e+00
 9.0145103856e-01	 1.3431872755e+00	-2.1140011623e+00
 8.8844843109e-01	 1.3518230280e+00	-2.1026900421e+00
 8.7537604779e-01	 1.3603245785e+00	-2.0892042177e+00
 8.6223593826e-01	 1.3686911360e+00	-2.0735363637e+00
 8.4903016271e-01	 1.3769219503e+00	-2.0556873807e+00
 8.3576079094e-01	 1.3850163128e+00	-2.0356649832e+00
 7.9017628106e-01	 1.3094740159e+00	-2.0955807734e+00
 7.7757249215e-01	 1.3169972515e+00	-2.0786784598e+00
 7.6491251433e-01	 1.3243902571e+00	-2.0616236572e+00
 7.5219832734e-01	 1.3316524825e+00	-2.0443181092e+00
 7.3943191608e-01	 1.3387834164e+00	-2.0266649276e+00
 7.2661526967e-01	 1.3457825872e+00	-2.0085682362e+00
 7.1375038049e-01	 1.3526495623e+00	-1.9899328784e+00
 7.0083924323e-01	 1.3593839483e+00	-1.9706641909e+00
 6.8788385397e-01	 1.3659853912e+00	-1.9506678489e+00
 6.7488620921e-01	 1.3724535755e+00	-1.9298497826e+00
 6.6184830499e-01	 1.3787882249e+00	-1.9081161698e+00
 7.9473473205e-01	 1.3170282456e+00	-2.0876716267e+00
 7.8205823309e-01	 1.3245948820e+00	-2.0699686486e+00
 7.6932522108e-01	 1.3320305372e+00	-2.0523447714e+00
 7.5653768716e-01	 1.3393346576e+00	-2.0346533611e+00
 7.4369762770e-01	 1.3465067292e+00	-2.0167474166e+00
 7.3080704329e-01	 1.3535462775e+00	-1.9984792704e+00
 7.1786793780e-01	 1.3604528675e+00	-1.9797003574e+00
 7.0488231744e-01	 1.3672261036e+00	-1.9602610556e+00
 6.9185218978e-01	 1.3738656295e+00	-1.9400106023e+00
 6.7877956286e-01	 1.3803711282e+00	-1.9187970873e+00
 6.6566644422e-01	 1.3867423216e+00	-1.8964675256e+00
 7.9929318304e-01	 1.3245824753e+00	-2.0806281024e+00
 7.8654397404e-01	 1.3321925125e+00	-2.0622263059e+00
 7.7373792783e-01	 1.3396708172e+00	-2.0440632934e+00
 7.6087704699e-01	 1.3470168327e+00	-2.0259538575e+00
 7.4796333933e-01	 1.3542300420e+00	-2.0077109193e+00
 7.3499881692e-01	 1.3613099679e+00	-1.9891452690e+00
 7.2198549512e-01	 1.3682561728e+00	-1.9700653783e+00
 7.0892539164e-01	 1.3750682589e+00	-1.9502772904e+00
 6.9582052559e-01	 1.3817458679e+00	-1.9295845896e+00
 6.8267291651e-01	 1.3882886809e+00	-1.9077884535e+00
 6.6948458346e-01	 1.3946964183e+00	-1.8846877895e+00
 8.0385163402e-01	 1.3321367050e+00	-2.0742911219e+00
 7.9102971498e-01	 1.3397901430e+00	-2.0552838384e+00
 7.7815063457e-01	 1.3473110973e+00	-2.0366081445e+00
 7.6521640681e-01	 1.3546990078e+00	-2.0180498915e+00
 7.5222905095e-01	 1.3619533548e+00	-1.9993917837e+00
 7.3919059054e-01	 1.3690736582e+00	-1.9804131399e+00
 7.2610305243e-01	 1.3760594780e+00	-1.9608897329e+00
 7.1296846585e-01	 1.3829104142e+00	-1.9405937105e+00
 6.9978886140e-01	 1.3896261063e+00	-1.9192936021e+00
 6.8656627016e-01	 1.3962062336e+00	-1.8967544121e+00
 6.7330272269e-01	 1.4026505149e+00	-1.8727378033e+00
 8.0841008501e-01	 1.3396909347e+00	-2.0684981943e+00
 7.9551545592e-01	 1.3473877735e+00	-2.0489704892e+00
 7.8256334132e-01	 1.3549513773e+00	-2.0298052220e+00
 7.6955576664e-01	 1.3623811830e+00	-2.0107687682e+00
 7.5649476258e-01	 1.3696766676e+00	-1.9916233053e+00
 7.4338236417e-01	 1.3768373485e+00	-1.9721265783e+00
 7.3022060975e-01	 1.3838627833e+00	-1.9520317485e+00
 7.1701154006e-01	 1.3907525695e+00	-1.9310873290e+00
 7.0375719722e-01	 1.3975063447e+00	-1.9090372096e+00
 6.9045962381e-01	 1.4041237863e+00	-1.8856207759e+00
 6.7712086192e-01	 1.4106046116e+00	-1.8605731214e+00
 8.1296853600e-01	 1.3472451643e+00	-2.0630835298e+00
 8.0000119686e-01	 1.3549854040e+00	-2.0431124389e+00
 7.8697604807e-01	 1.3625916574e+00	-2.0234774915e+00
 7.7389512646e-01	 1.3700633581e+00	-2.0039348900e+00
 7.6076047421e-01	 1.3773999804e+00	-1.9842358088e+00
 7.4757413779e-01	 1.3846010389e+00	-1.9641261477e+00
 7.3433816707e-01	 1.3916660885e+00	-1.9433463720e+00
 7.2105461427e-01	 1.3985947248e+00	-1.9216314452e+00
 7.0772553303e-01	 1.4053865830e+00	-1.8987108560e+00
 6.9435297746e-01	 1.4120413390e+00	-1.8743087442e+00
 6.8093900116e-01	 1.4185587083e+00	-1.8481441264e+00
 8.1752698699e-01	 1.3547993940e+00	-2.0578781536e+00
 8.0448693781e-01	 1.3625830345e+00	-2.0375329077e+00
 7.9138875482e-01	 1.3702319374e+00	-2.0174450801e+00
 7.7823448629e-01	 1.3777455332e+00	-1.9973698436e+00
 7.6502618583e-01	 1.3851232932e+00	-1.9770567319e+00
 7.5176591142e-01	 1.3923647292e+00	-1.9562493630e+00
 7.3845572439e-01	 1.3994693938e+00	-1.9346852541e+00
 7.2509768847e-01	 1.4064368800e+00	-1.9120957337e+00
 7.1169386884e-01	 1.4132668214e+00	-1.8882059538e+00
 6.9824633111e-01	 1.4199588917e+00	-1.8627350063e+00
 6.8475714039e-01	 1.4265128050e+00	-1.8353961446e+00
 8.2208543798e-01	 1.3623536237e+00	-2.0527100202e+00
 8.0897267875e-01	 1.3701806650e+00	-2.0320522579e+00
 7.9580146157e-01	 1.3778722174e+00	-2.0115253697e+00
 7.8257384612e-01	 1.3854277083e+00	-1.9908924875e+00
 7.6929189746e-01	 1.3928466060e+00	-1.9699107092e+00
 7.5595768504e-01	 1.4001284195e+00	-1.9483307738e+00
 7.4257328170e-01	 1.4072726991e+00	-1.9258968344e+00
 7.2914076268e-01	 1.4142790353e+00	-1.9023463329e+00
 7.1566220466e-01	 1.4211470598e+00	-1.8774099801e+00
 7.0213968476e-01	 1.4278764444e+00	-1.8508118459e+00
 6.8857527963e-01	 1.4344669017e+00	-1.8222695597e+00
 8.2664388897e-01	 1.3699078534e+00	-2.0474041285e+00
 8.1345841969e-01	 1.3777782955e+00	-2.0264880978e+00
 8.0021416831e-01	 1.3855124975e+00	-2.0055330922e+00
 7.8691320594e-01	 1.3931098834e+00	-1.9843190416e+00
 7.7355760909e-01	 1.4005699188e+00	-1.9626196584e+00
 7.6014945867e-01	 1.4078921099e+00	-1.9402020492e+00
 7.4669083902e-01	 1.4150760043e+00	-1.9168264278e+00
 7.3318383689e-01	 1.4221211906e+00	-1.8922459353e+00
 7.1963054047e-01	 1.4290272981e+00	-1.8662065721e+00
 7.0603303841e-01	 1.4357939971e+00	-1.8384472441e+00
 6.9239341886e-01	 1.4424209984e+00	-1.8086999266e+00
 8.3120233995e-01	 1.3774620831e+00	-2.0417826377e+00
 8.1794416063e-01	 1.3853759260e+00	-2.0206553861e+00
 8.0462687506e-01	 1.3931527775e+00	-1.9992804258e+00
 7.9125256577e-01	 1.4007920586e+00	-1.9774631763e+00
 7.7782332071e-01	 1.4082932316e+00	-1.9550028661e+00
 7.6434123229e-01	 1.4156558002e+00	-1.9316920631e+00
 7.5080839633e-01	 1.4228793096e+00	-1.9073163107e+00
 7.3722691109e-01	 1.4299633459e+00	-1.8816538775e+00
 7.2359887628e-01	 1.4369075365e+00	-1.8544756228e+00
 7.0992639206e-01	 1.4437115498e+00	-1.8255449836e+00
 6.9621155809e-01	 1.4503750951e+00	-1.7946180842e+00
 8.3576079094e-01	 1.3850163128e+00	-2.0356649832e+00
 8.2242990157e-01	 1.3929735565e+00	-2.0143665367e+00
 8.0903958181e-01	 1.4007930576e+00	-1.9925770911e+00
 7.9559192559e-01	 1.4084742337e+00	-1.9701361042e+00
 7.8208903234e-01	 1.4160165444e+00	-1.9468770760e+00
 7.6853300592e-01	 1.4234194906e+00	-1.9226269805e+00
 7.5492595365e-01	 1.4306826148e+00	-1.8972058089e+00
 7.4126998530e-01	 1.4378055012e+00	-1.8704262307e+00
 7.2756721209e-01	 1.4447877749e+00	-1.8420933769e+00
 7.1381974571e-01	 1.4516291026e+00	-1.8120047509e+00
 7.0002969732e-01	 1.4583291918e+00	-1.7799502675e+00
 6.6184830499e-01	 1.3787882249e+00	-1.9081161698e+00
 6.4876990960e-01	 1.3849901442e+00	-1.8843421446e+00
 6.3565522902e-01	 1.3910580450e+00	-1.8576523083e+00
 6.2250625276e-01	 1.3969917650e+00	-1.8283216160e+00
 6.0932496624e-01	 1.4027911802e+00	-1.7966324852e+00
 5.9611334994e-01	 1.4084562042e+00	-1.7628746926e+00
 5.8287337855e-01	 1.4139867881e+00	-1.7275695544e+00
 5.6960702012e-01	 1.4193829200e+00	-1.6931726050e+00
 5.5631623520e-01	 1.4246446250e+00	-1.6607595152e+00
 5.4300297606e-01	 1.4297719645e+00	-1.6308987439e+00
 5.2966918584e-01	 1.4347650360e+00	-1.6041277036e+00
 6.6566644422e-01	 1.3867423216e+00	-1.8964675256e+00
 6.5251260082e-01	 1.3929800192e+00	-1.8719321686e+00
 6.3932226292e-01	 1.3990829251e+00	-1.8443950401e+00
 6.2609743148e-01	 1.4050508762e+00	-1.8141384974e+00
 6.1284010338e-01	 1.4108837477e+00	-1.7814542149e+00
 5.9955227053e-01	 1.4165814526e+00	-1.7466430475e+00
 5.8623591903e-01	 1.4221439419e+00	-1.7100486605e+00
 5.7289302825e-01	 1.4275712036e+00	-1.6739909375e+00
 5.5952557007e-01	 1.4328632628e+00	-1.6401754172e+00
 5.4613550802e-01	 1.4380201815e+00	-1.6091944018e+00
 5.3272479644e-01	 1.4430420576e+00	-1.5816099654e+00
 6.6948458346e-01	 1.3946964183e+00	-1.8846877895e+00
 6.5625529205e-01	 1.4009698942e+00	-1.8592618435e+00
 6.4298929682e-01	 1.4071078052e+00	-1.8308170829e+00
 6.2968861020e-01	 1.4131099874e+00	-1.7996377150e+00
 6.1635524052e-01	 1.4189763151e+00	-1.7660186979e+00
 6.0299119113e-01	 1.4247067010e+00	-1.7302655840e+00
 5.8959845950e-01	 1.4303010957e+00	-1.6926944355e+00
 5.7617903638e-01	 1.4357594872e+00	-1.6550443179e+00
 5.6273490494e-01	 1.4410819007e+00	-1.6199126429e+00
 5.4926803997e-01	 1.4462683985e+00	-1.5879259842e+00
 5.3578040705e-01	 1.4513190791e+00	-1.5596627259e+00
 6.7330272269e-01	 1.4026505149e+00	-1.8727378033e+00
 6.5999798328e-01	 1.4089597691e+00	-1.8463205526e+00
 6.4665633071e-01	 1.4151326853e+00	-1.8169294340e+00
 6.3327978891e-01	 1.4211690985e+00	-1.7848450517e+00
 6.1987037766e-01	 1.4270688825e+00	-1.7503597769e+00
 6.0643011173e-01	 1.4328319495e+00	-1.7137775838e+00
 5.9296099998e-01	 1.4384582495e+00	-1.6754139602e+00
 5.7946504451e-01	 1.4439477707e+00	-1.6364031839e+00
 5.6594423981e-01	 1.4493005385e+00	-1.6000208721e+00
 5.5240057193e-01	 1.4545166154e+00	-1.5671161391e+00
 5.3883601765e-01	 1.4595961006e+00	-1.5382754254e+00
 6.7712086192e-01	 1.4106046116e+00	-1.8605731214e+00
 6.6374067451e-01	 1.4169496441e+00	-1.8330918705e+00
 6.5032336461e-01	 1.4231575654e+00	-1.8027369258e+00
 6.3687096763e-01	 1.4292282097e+00	-1.7697799319e+00
 6.2338551481e-01	 1.4351614500e+00	-1.7345049026e+00
 6.0986903233e-01	 1.4409571979e+00	-1.6972080615e+00
 5.9632354046e-01	 1.4466154033e+00	-1.6581977608e+00
 5.8275105264e-01	 1.4521360543e+00	-1.6181326580e+00
 5.6915357468e-01	 1.4575191764e+00	-1.5805452860e+00
 5.5553310389e-01	 1.4627648324e+00	-1.5467839749e+00
 5.4189162826e-01	 1.4678731222e+00	-1.5174350622e+00
 6.8093900116e-01	 1.4185587083e+00	-1.8481441264e+00
 6.6748336574e-01	 1.4249395191e+00	-1.8195536893e+00
 6.5399039851e-01	 1.4311824455e+00	-1.7882383575e+00
 6.4046214635e-01	 1.4372873208e+00	-1.7544555544e+00
 6.2690065195e-01	 1.4432540174e+00	-1.7184752641e+00
 6.1330795293e-01	 1.4490824463e+00	-1.6805798878e+00
 5.9968608093e-01	 1.4547725572e+00	-1.6410641847e+00
 5.8603706077e-01	 1.4603243379e+00	-1.6002924768e+00
 5.7236290955e-01	 1.4657378143e+00	-1.5615264855e+00
 5.5866563585e-01	 1.4710130494e+00	-1.5269449623e+00
 5.4494723886e-01	 1.4761501437e+00	-1.4971260741e+00
 6.8475714039e-01	 1.4265128050e+00	-1.8353961446e+00
 6.7122605697e-01	 1.4329293940e+00	-1.8056783435e+00
 6.5765743241e-01	 1.4392073256e+00	-1.7734266255e+00
 6.4405332506e-01	 1.4453464320e+00	-1.7388790242e+00
 6.3041578909e-01	 1.4513465848e+00	-1.7022859171e+00
 6.1674687353e-01	 1.4572076947e+00	-1.6639099109e+00
 6.0304862141e-01	 1.4629297110e+00	-1.6240258152e+00
 5.8932306890e-01	 1.4685126215e+00	-1.5829207036e+00
 5.7557224442e-01	 1.4739564521e+00	-1.5430004081e+00
 5.6179816781e-01	 1.4792612664e+00	-1.5076108362e+00
 5.4800284947e-01	 1.4844271652e+00	-1.4773302204e+00
 6.8857527963e-01	 1.4344669017e+00	-1.8222695597e+00
 6.7496874819e-01	 1.4409192690e+00	-1.7914327333e+00
 6.6132446630e-01	 1.4472322057e+00	-1.7582888516e+00
 6.4764450378e-01	 1.4534055432e+00	-1.7230514816e+00
 6.3393092623e-01	 1.4594391523e+00	-1.6859459113e+00
 6.2018579413e-01	 1.4653329431e+00	-1.6472090765e+00
 6.0641116189e-01	 1.4710868648e+00	-1.6070895807e+00
 5.9260907703e-01	 1.4767009051e+00	-1.5658478077e+00
 5.7878157929e-01	 1.4821750900e+00	-1.5249982449e+00
 5.6493069976e-01	 1.4875094834e+00	-1.4887894969e+00
 5.5105846007e-01	 1.4927041868e+00	-1.4580264656e+00
 6.9239341886e-01	 1.4424209984e+00	-1.8086999266e+00
 6.7871143942e-01	 1.4489091440e+00	-1.7767784470e+00
 6.6499150020e-01	 1.4552570858e+00	-1.7428065112e+00
 6.5123568250e-01	 1.4614646543e+00	-1.7069682311e+00
 6.3744606338e-01	 1.4675317197e+00	-1.6694584150e+00
 6.2362471472e-01	 1.4734581915e+00	-1.6304825463e+00
 6.0977370236e-01	 1.4792440186e+00	-1.5902568628e+00
 5.9589508516e-01	 1.4848891887e+00	-1.5490085333e+00
 5.8199091416e-01	 1.4903937278e+00	-1.5075463570e+00
 5.6806323172e-01	 1.4957577004e+00	-1.4704849130e+00
 5.5411407067e-01	 1.5009812083e+00	-1.4391908635e+00
 6.9621155809e-01	 1.4503750951e+00	-1.7946180842e+00
 6.8245413065e-01	 1.4568990189e+00	-1.7616718825e+00
 6.6865853409e-01	 1.4632819659e+00	-1.7269555581e+00
 6.5482686121e-01	 1.4695237655e+00	-1.6906188677e+00
 6.4096120052e-01	 1.4756242871e+00	-1.6528208392e+00
 6.2706363532e-01	 1.4815834399e+00	-1.6137298149e+00
 6.1313624284e-01	 1.4874011724e+00	-1.5735236026e+00
 5.9918109329e-01	 1.4930774723e+00	-1.5323897284e+00
 5.8520024903e-01	 1.4986123657e+00	-1.4906661917e+00
 5.7119576368e-01	 1.5040059173e+00	-1.4526970232e+00
 5.5716968127e-01	 1.5092582298e+00	-1.4207964423e+00
 7.0002969732e-01	 1.4583291918e+00	-1.7799502675e+00
 6.8619682187e-01	 1.4648888939e+00	-1.7460643674e+00
 6.7232556799e-01	 1.4713068460e+00	-1.7107065499e+00
 6.5841803993e-01	 1.4775828767e+00	-1.6739874021e+00
 6.4447633766e-01	 1.4837168546e+00	-1.6360249595e+00
 6.3050255592e-01	 1.4897086883e+00	-1.5969448258e+00
 6.1649878331e-01	 1.4955583263e+00	-1.5568804069e+00
 6.0246710142e-01	 1.5012657558e+00	-1.5159732540e+00
 5.8840958390e-01	 1.5068310035e+00	-1.4743735129e+00
 5.7432829563e-01	 1.5122541343e+00	-1.4354216392e+00
 5.6022529188e-01	 1.5175352514e+00	-1.4028130908e+00
 5.2966918584e-01	 1.4347650360e+00	-1.6041277036e+00
 5.1631906883e-01	 1.4396231580e+00	-1.5779221894e+00
 5.0295228133e-01	 1.4443473582e+00	-1.5497465456e+00
 4.8957073294e-01	 1.4489378386e+00	-1.5200791531e+00
 4.7617632115e-01	 1.4533948358e+00	-1.4893569661e+00
 4.6277093058e-01	 1.4577186201e+00	-1.4579773578e+00
 4.4935643230e-01	 1.4619094952e+00	-1.4263000054e+00
 4.3593468314e-01	 1.4659677976e+00	-1.3946488038e+00
 4.2250752502e-01	 1.4698938963e+00	-1.3633137932e+00
 4.0907678431e-01	 1.4736881920e+00	-1.3325530892e+00
 3.9564427119e-01	 1.4773511167e+00	-1.3025948027e+00
 5.3272479644e-01	 1.4430420576e+00	-1.5816099654e+00
 5.1929766389e-01	 1.4479282056e+00	-1.5547530296e+00
 5.0585376468e-01	 1.4526796592e+00	-1.5259293604e+00
 4.9239501943e-01	 1.4572966217e+00	-1.4956210336e+00
 4.7892333656e-01	 1.4617793309e+00	-1.4642669477e+00
 4.6544061158e-01	 1.4661280587e+00	-1.4322647820e+00
 4.5194872635e-01	 1.4703431105e+00	-1.3999729943e+00
 4.3844954841e-01	 1.4744248249e+00	-1.3677128465e+00
 4.2494493030e-01	 1.4783735728e+00	-1.3357704424e+00
 4.1143670894e-01	 1.4821897575e+00	-1.3043987663e+00
 3.9792670495e-01	 1.4858738132e+00	-1.2738197094e+00
 5.3578040705e-01	 1.4513190791e+00	-1.5596627259e+00
 5.2227625896e-01	 1.4562332532e+00	-1.5322798520e+00
 5.0875524803e-01	 1.4610119603e+00	-1.5029029022e+00
 4.9521930591e-01	 1.4656554048e+00	-1.4720203510e+00
 4.8167035197e-01	 1.4701638260e+00	-1.4400760603e+00
 4.6811029258e-01	 1.4745374972e+00	-1.4074713436e+00
 4.5454102040e-01	 1.4787767258e+00	-1.3745670701e+00
 4.4096441368e-01	 1.4828818521e+00	-1.3416857941e+00
 4.2738233559e-01	 1.4868532494e+00	-1.3091138960e+00
 4.1379663358e-01	 1.4906913229e+00	-1.2771037214e+00
 4.0020913871e-01	 1.4943965098e+00	-1.2458757057e+00
 5.3883601765e-01	 1.4595961006e+00	-1.5382754254e+00
 5.2525485402e-01	 1.4645383008e+00	-1.5104587352e+00
 5.1165673138e-01	 1.4693442613e+00	-1.4805956030e+00
 4.9804359239e-01	 1.4740141879e+00	-1.4491834937e+00
 4.8441736738e-01	 1.4785483210e+00	-1.4166741372e+00
 4.7077997358e-01	 1.4829469358e+00	-1.3834756925e+00
 4.5713331445e-01	 1.4872103411e+00	-1.3499549508e+00
 4.4347927894e-01	 1.4913388794e+00	-1.3164395622e+00
 4.2981974087e-01	 1.4953329259e+00	-1.2832202723e+00
 4.1615655821e-01	 1.4991928884e+00	-1.2505531547e+00
 4.0249157246e-01	 1.5029192063e+00	-1.2186618252e+00
 5.4189162826e-01	 1.4678731222e+00	-1.5174350622e+00
 5.2823344908e-01	 1.4728433483e+00	-1.4892444143e+00
 5.1455821473e-01	 1.4776765623e+00	-1.4589355163e+00
 5.0086787888e-01	 1.4823729709e+00	-1.4270173054e+00
 4.8716438279e-01	 1.4869328161e+00	-1.3939521707e+00
 4.7344965458e-01	 1.4913563743e+00	-1.3601582119e+00
 4.5972560850e-01	 1.4956439564e+00	-1.3260115343e+00
 4.4599414421e-01	 1.4997959067e+00	-1.2918485668e+00
 4.3225714616e-01	 1.5038126025e+00	-1.2579683864e+00
 4.1851648284e-01	 1.5076944539e+00	-1.2246350364e+00
 4.0477400622e-01	 1.5114419029e+00	-1.1920798232e+00
 5.4494723886e-01	 1.4761501437e+00	-1.4971260741e+00
 5.3121204414e-01	 1.4811483959e+00	-1.4685901414e+00
 5.1745969808e-01	 1.4860088634e+00	-1.4378501621e+00
 5.0369216536e-01	 1.4907317540e+00	-1.4054289171e+00
 4.8991139820e-01	 1.4953173111e+00	-1.3718021345e+00
 4.7611933558e-01	 1.4997658129e+00	-1.3374008347e+00
 4.6231790255e-01	 1.5040775717e+00	-1.3026137127e+00
 4.4850900948e-01	 1.5082529339e+00	-1.2677895395e+00
 4.3469455144e-01	 1.5122922790e+00	-1.2332395688e+00
 4.2087640747e-01	 1.5161960194e+00	-1.1992399325e+00
 4.0705643998e-01	 1.5199645994e+00	-1.1660340131e+00
 5.4800284947e-01	 1.4844271652e+00	-1.4773302204e+00
 5.3419063921e-01	 1.4894534435e+00	-1.4484475493e+00
 5.2036118143e-01	 1.4943411644e+00	-1.4172663735e+00
 5.0651645185e-01	 1.4990905371e+00	-1.3843255819e+00
 4.9265841361e-01	 1.5037018062e+00	-1.3501168092e+00
 4.7878901658e-01	 1.5081752515e+00	-1.3150868637e+00
 4.6491019660e-01	 1.5125111870e+00	-1.2796401896e+00
 4.5102387475e-01	 1.5167099612e+00	-1.2441413461e+00
 4.3713195673e-01	 1.5207719556e+00	-1.2089174882e+00
 4.2323633211e-01	 1.5246975849e+00	-1.1742608345e+00
 4.0933887373e-01	 1.5284872959e+00	-1.1404311062e+00
 5.5105846007e-01	 1.4927041868e+00	-1.4580264656e+00
 5.3716923427e-01	 1.4977584911e+00	-1.4287665156e+00
 5.2326266478e-01	 1.5026734654e+00	-1.3971101466e+00
 5.0934073833e-01	 1.5074493201e+00	-1.3636145119e+00
 4.9540542902e-01	 1.5120863013e+00	-1.3287896111e+00
 4.8145869758e-01	 1.5165846900e+00	-1.2931007951e+00
 4.6750249065e-01	 1.5209448024e+00	-1.2569713020e+00
 4.5353874002e-01	 1.5251669885e+00	-1.2207848082e+00
 4.3956936201e-01	 1.5292516321e+00	-1.1848879777e+00
 4.2559625674e-01	 1.5331991503e+00	-1.1495929931e+00
 4.1162130749e-01	 1.5370099925e+00	-1.1151800558e+00
 5.5411407067e-01	 1.5009812083e+00	-1.4391908635e+00
 5.4014782933e-01	 1.5060635386e+00	-1.4094950292e+00
 5.2616414813e-01	 1.5110057664e+00	-1.3773064920e+00
 5.1216502481e-01	 1.5158081032e+00	-1.3432027192e+00
 4.9815244443e-01	 1.5204707963e+00	-1.3077144249e+00
 4.8412837858e-01	 1.5249941286e+00	-1.2713281454e+00
 4.7009478469e-01	 1.5293784177e+00	-1.2344888448e+00
 4.5605360529e-01	 1.5336240157e+00	-1.1976025307e+00
 4.4200676730e-01	 1.5377313087e+00	-1.1610388655e+00
 4.2795618137e-01	 1.5417007158e+00	-1.1251337554e+00
 4.1390374125e-01	 1.5455326890e+00	-1.0901919035e+00
 5.5716968127e-01	 1.5092582298e+00	-1.4207964423e+00
 5.4312642439e-01	 1.5143685862e+00	-1.3905790584e+00
 5.2906563148e-01	 1.5193380675e+00	-1.3577792885e+00
 5.1498931130e-01	 1.5241668863e+00	-1.3229968586e+00
 5.0089945984e-01	 1.5288552914e+00	-1.2867854382e+00
 4.8679805958e-01	 1.5334035671e+00	-1.2496552824e+00
 4.7268707874e-01	 1.5378120330e+00	-1.2120759003e+00
 4.5856847056e-01	 1.5420810430e+00	-1.1744787307e+00
 4.4444417258e-01	 1.5462109852e+00	-1.1372598087e+00
 4.3031610601e-01	 1.5502022813e+00	-1.1007824058e+00
 4.1618617500e-01	 1.5540553856e+00	-1.0653796299e+00
 5.6022529188e-01	 1.5175352514e+00	-1.4028130908e+00
 5.4610501945e-01	 1.5226736338e+00	-1.3719624202e+00
 5.3196711483e-01	 1.5276703685e+00	-1.3384511398e+00
 5.1781359778e-01	 1.5325256694e+00	-1.3029030735e+00
 5.0364647525e-01	 1.5372397864e+00	-1.2658969806e+00
 4.8946774058e-01	 1.5418130057e+00	-1.2279692587e+00
 4.7527937279e-01	 1.5462456483e+00	-1.1896166701e+00
 4.6108333583e-01	 1.5505380703e+00	-1.1512990716e+00
 4.4688157787e-01	 1.5546906618e+00	-1.1134421304e+00
 4.3267603064e-01	 1.5587038468e+00	-1.0764400099e+00
 4.1846860876e-01	 1.5625780821e+00	-1.0406580082e+00
 3.9564427119e-01	 1.4773511167e+00	-1.3025948027e+00
 3.8221177925e-01	 1.4808831335e+00	-1.2732574086e+00
 3.6878108538e-01	 1.4842847367e+00	-1.2443179193e+00
 3.5535394869e-01	 1.4875564508e+00	-1.2159013447e+00
 3.4193210972e-01	 1.4906988290e+00	-1.1881080406e+00
 3.2851728995e-01	 1.4937124529e+00	-1.1610154236e+00
 3.1511119125e-01	 1.4965979319e+00	-1.1346796244e+00
 3.0171549544e-01	 1.4993559022e+00	-1.1091370756e+00
 2.8833186380e-01	 1.5019870269e+00	-1.0844060262e+00
 2.7496193661e-01	 1.5044919947e+00	-1.0604879802e+00
 2.6160733276e-01	 1.5068715195e+00	-1.0373690534e+00
 3.9792670495e-01	 1.4858738132e+00	-1.2738197094e+00
 3.8441672225e-01	 1.4894262059e+00	-1.2438333272e+00
 3.7090854800e-01	 1.4928474327e+00	-1.2142087052e+00
 3.5740395145e-01	 1.4961380210e+00	-1.1850797622e+00
 3.4390468318e-01	 1.4992985273e+00	-1.1565559961e+00
 3.3041247460e-01	 1.5023295364e+00	-1.1287242448e+00
 3.1692903741e-01	 1.5052316614e+00	-1.1016503842e+00
 3.0345606313e-01	 1.5080055422e+00	-1.0753809524e+00
 2.8999522260e-01	 1.5106518457e+00	-1.0499446992e+00
 2.7654816559e-01	 1.5131712644e+00	-1.0253540518e+00
 2.6311652031e-01	 1.5155645164e+00	-1.0016064961e+00
 4.0020913871e-01	 1.4943965098e+00	-1.2458757057e+00
 3.8662166525e-01	 1.4979692783e+00	-1.2152238681e+00
 3.7303601062e-01	 1.5014101286e+00	-1.1849162685e+00
 3.5945395421e-01	 1.5047195911e+00	-1.1550924928e+00
 3.4587725664e-01	 1.5078982255e+00	-1.1258679679e+00
 3.3230765926e-01	 1.5109466200e+00	-1.0973357768e+00
 3.1874688358e-01	 1.5138653910e+00	-1.0695684032e+00
 3.0519663081e-01	 1.5166551823e+00	-1.0426194009e+00
 2.9165858140e-01	 1.5193166644e+00	-1.0165249805e+00
 2.7813439456e-01	 1.5218505340e+00	-9.9130550857e-01
 2.6462570786e-01	 1.5242575133e+00	-9.6696691699e-01
 4.0249157246e-01	 1.5029192063e+00	-1.2186618252e+00
 3.8882660825e-01	 1.5065123507e+00	-1.1873437619e+00
 3.7516347324e-01	 1.5099728245e+00	-1.1563701163e+00
 3.6150395697e-01	 1.5133011612e+00	-1.1258829278e+00
 3.4784983011e-01	 1.5164979237e+00	-1.0960003689e+00
 3.3420284392e-01	 1.5195637035e+00	-1.0668186201e+00
 3.2056472974e-01	 1.5224991205e+00	-1.0384136683e+00
 3.0693719849e-01	 1.5253048223e+00	-1.0108430249e+00
 2.9332194020e-01	 1.5279814831e+00	-9.8414735523e-01
 2.7972062354e-01	 1.5305298037e+00	-9.5835201662e-01
 2.6613489541e-01	 1.5329505102e+00	-9.3346849881e-01
 4.0477400622e-01	 1.5114419029e+00	-1.1920798232e+00
 3.9103155125e-01	 1.5150554231e+00	-1.1601103553e+00
 3.7729093586e-01	 1.5185355205e+00	-1.1285022715e+00
 3.6355395973e-01	 1.5218827314e+00	-1.0973968765e+00
 3.4982240357e-01	 1.5250976219e+00	-1.0669119327e+00
 3.3609802858e-01	 1.5281807870e+00	-1.0371435995e+00
 3.2238257590e-01	 1.5311328501e+00	-1.0081682918e+00
 3.0867776617e-01	 1.5339544623e+00	-9.8004445133e-01
 2.9498529900e-01	 1.5366463019e+00	-9.5281422523e-01
 2.8130685251e-01	 1.5392090733e+00	-9.2650504558e-01
 2.6764408295e-01	 1.5416435071e+00	-9.0113110708e-01
 4.0705643998e-01	 1.5199645994e+00	-1.1660340131e+00
 3.9323649426e-01	 1.5235984955e+00	-1.1334434597e+00
 3.7941839848e-01	 1.5270982164e+00	-1.1012471318e+00
 3.6560396249e-01	 1.5304643015e+00	-1.0695824363e+00
 3.5179497703e-01	 1.5336973201e+00	-1.0385635951e+00
 3.3799321323e-01	 1.5367978705e+00	-1.0082836553e+00
 3.2420042207e-01	 1.5397665797e+00	-9.7881641249e-01
 3.1041833386e-01	 1.5426041024e+00	-9.5021824184e-01
 2.9664865780e-01	 1.5453111206e+00	-9.2252982916e-01
 2.8289308149e-01	 1.5478883430e+00	-8.9577779811e-01
 2.6915327050e-01	 1.5503365040e+00	-8.6997622851e-01
 4.0933887373e-01	 1.5284872959e+00	-1.1404311062e+00
 3.9544143726e-01	 1.5321415679e+00	-1.1072652024e+00
 3.8154586110e-01	 1.5356609123e+00	-1.0745413325e+00
 3.6765396525e-01	 1.5390458716e+00	-1.0423898657e+00
 3.5376755049e-01	 1.5422970183e+00	-1.0109183775e+00
 3.3988839789e-01	 1.5454149540e+00	-9.8021373669e-01
 3.2601826823e-01	 1.5484003092e+00	-9.5034409951e-01
 3.1215890154e-01	 1.5512537424e+00	-9.2136080503e-01
 2.9831201659e-01	 1.5539759394e+00	-8.9330016462e-01
 2.8447931046e-01	 1.5565676126e+00	-8.6618514077e-01
 2.7066245805e-01	 1.5590295009e+00	-8.4002691070e-01
 4.1162130749e-01	 1.5370099925e+00	-1.1151800558e+00
 3.9764638026e-01	 1.5406846403e+00	-1.0814998812e+00
 3.8367332372e-01	 1.5442236082e+00	-1.0483236121e+00
 3.6970396801e-01	 1.5476274418e+00	-1.0157714608e+00
 3.5574012396e-01	 1.5508967165e+00	-9.8394127331e-01
 3.4178358255e-01	 1.5540320375e+00	-9.5291069815e-01
 3.2783611439e-01	 1.5570340388e+00	-9.2273925733e-01
 3.1389946922e-01	 1.5599033824e+00	-8.9347031129e-01
 2.9997537539e-01	 1.5626407581e+00	-8.6513291164e-01
 2.8606553943e-01	 1.5652468823e+00	-8.3774353633e-01
 2.7217164560e-01	 1.5677224978e+00	-8.1130770292e-01
 4.1390374125e-01	 1.5455326890e+00	-1.0901919035e+00
 3.9985132326e-01	 1.5492277127e+00	-1.0560738231e+00
 3.8580078635e-01	 1.5527863042e+00	-1.0225346809e+00
 3.7175397077e-01	 1.5562090119e+00	-9.8968143388e-01
 3.5771269742e-01	 1.5594964147e+00	-9.5759913629e-01
 3.4367876720e-01	 1.5626491211e+00	-9.2635319720e-01
 3.2965396056e-01	 1.5656677684e+00	-8.9599153333e-01
 3.1564003690e-01	 1.5685530225e+00	-8.6654660915e-01
 3.0163873419e-01	 1.5713055768e+00	-8.3803735783e-01
 2.8765176841e-01	 1.5739261520e+00	-8.1047097743e-01
 2.7368083315e-01	 1.5764154947e+00	-7.8384459816e-01
 4.1618617500e-01	 1.5540553856e+00	-1.0653796299e+00
 4.0205626627e-01	 1.5577707851e+00	-1.0309152445e+00
 3.8792824897e-01	 1.5613490001e+00	-9.9711709227e-01
 3.7380397353e-01	 1.5647905820e+00	-9.6407579456e-01
 3.5968527088e-01	 1.5680961129e+00	-9.3186057164e-01
 3.4557395186e-01	 1.5712662046e+00	-9.0052159486e-01
 3.3147180672e-01	 1.5743014979e+00	-8.7009222710e-01
 3.1738060459e-01	 1.5772026625e+00	-8.4059114341e-01
 3.0330209299e-01	 1.5799703956e+00	-8.1202432507e-01
 2.8923799738e-01	 1.5826054216e+00	-7.8438692158e-01
 2.7519002070e-01	 1.5851084916e+00	-7.5766497623e-01
 4.1846860876e-01	 1.5625780821e+00	-1.0406580082e+00
 4.0426120927e-01	 1.5663138575e+00	-1.0059541157e+00
 3.9005571159e-01	 1.5699116960e+00	-9.7201511669e-01
 3.7585397630e-01	 1.5733721522e+00	-9.3891223377e-01
 3.6165784435e-01	 1.5766958111e+00	-9.0669582916e-01
 3.4746913652e-01	 1.5798832881e+00	-8.7539785790e-01
 3.3328965288e-01	 1.5829352275e+00	-8.4503420159e-01
 3.1912117227e-01	 1.5858523025e+00	-8.1560687483e-01
 3.0496545179e-01	 1.5886352143e+00	-7.8710609754e-01
 2.9082422635e-01	 1.5912846913e+00	-7.5951222738e-01
 2.7669920824e-01	 1.5938014885e+00	-7.3279754792e-01
 2.6160733276e-01	 1.5068715195e+00	-1.0373690534e+00
 2.4826738388e-01	 1.5091267122e+00	-1.0153841157e+00
 2.3494594031e-01	 1.5112579195e+00	-9.9482404805e-01
 2.2164455859e-01	 1.5132659262e+00	-9.7557845914e-01
 2.0836477224e-01	 1.5151515397e+00	-9.5752687781e-01
 1.9510809149e-01	 1.5169155893e+00	-9.4053968409e-01
 1.8187600295e-01	 1.5185589255e+00	-9.2447894969e-01
 1.6866996932e-01	 1.5200824195e+00	-9.0919918897e-01
 1.5549142916e-01	 1.5214869622e+00	-8.9454802200e-01
 1.4234179663e-01	 1.5227734638e+00	-8.8036675156e-01
 1.2922246127e-01	 1.5239428532e+00	-8.6649085665e-01
 2.6311652031e-01	 1.5155645164e+00	-1.0016064961e+00
 2.4969961454e-01	 1.5178327191e+00	-9.7905046506e-01
 2.3630132085e-01	 1.5199762211e+00	-9.5797842139e-01
 2.2292320474e-01	 1.5219958118e+00	-9.3827402926e-01
 2.0956680858e-01	 1.5238923033e+00	-9.1981171433e-01
 1.9623365131e-01	 1.5256665295e+00	-9.0245761025e-01
 1.8292522812e-01	 1.5273193459e+00	-8.8607040932e-01
 1.6964301015e-01	 1.5288516288e+00	-8.7050211840e-01
 1.5638844427e-01	 1.5302642742e+00	-8.5559872170e-01
 1.4316295277e-01	 1.5315581975e+00	-8.4120075260e-01
 1.2996793322e-01	 1.5327343330e+00	-8.2714377712e-01
 2.6462570786e-01	 1.5242575133e+00	-9.6696691699e-01
 2.5113184521e-01	 1.5265387260e+00	-9.4386978288e-01
 2.3765670139e-01	 1.5286945228e+00	-9.2230976464e-01
 2.2420185088e-01	 1.5307256975e+00	-9.0216625016e-01
 2.1076884491e-01	 1.5326330668e+00	-8.8331020046e-01
 1.9735921113e-01	 1.5344174696e+00	-8.6560511148e-01
 1.8397445329e-01	 1.5360797664e+00	-8.4890787452e-01
 1.7061605099e-01	 1.5376208381e+00	-8.3306953655e-01
 1.5728545937e-01	 1.5390415861e+00	-8.1793596209e-01
 1.4398410891e-01	 1.5403429312e+00	-8.0334839919e-01
 1.3071340517e-01	 1.5415258128e+00	-7.8914395215e-01
 2.6613489541e-01	 1.5329505102e+00	-9.3346849881e-01
 2.5256407588e-01	 1.5352447329e+00	-9.0986770643e-01
 2.3901208193e-01	 1.5374128244e+00	-8.8784965906e-01
 2.2548049703e-01	 1.5394555831e+00	-8.6729110311e-01
 2.1197088125e-01	 1.5413738303e+00	-8.4806114268e-01
 1.9848477095e-01	 1.5431684098e+00	-8.3002221630e-01
 1.8502367847e-01	 1.5448401868e+00	-8.1303096674e-01
 1.7158909182e-01	 1.5463900474e+00	-7.9693900508e-01
 1.5818247447e-01	 1.5478188981e+00	-7.8159357128e-01
 1.4480526504e-01	 1.5491276649e+00	-7.6683809340e-01
 1.3145887712e-01	 1.5503172926e+00	-7.5251264892e-01
 2.6764408295e-01	 1.5416435071e+00	-9.0113110708e-01
 2.5399630654e-01	 1.5439507398e+00	-8.7707143583e-01
 2.4036746247e-01	 1.5461311260e+00	-8.5463113914e-01
 2.2675914318e-01	 1.5481854687e+00	-8.3368592380e-01
 2.1317291759e-01	 1.5501145939e+00	-8.1410461419e-01
 1.9961033077e-01	 1.5519193500e+00	-7.9575014372e-01
 1.8607290364e-01	 1.5536006072e+00	-7.7848043344e-01
 1.7256213266e-01	 1.5551592567e+00	-7.6214915953e-01
 1.5907948957e-01	 1.5565962101e+00	-7.4660641167e-01
 1.4562642118e-01	 1.5579123986e+00	-7.3169924504e-01
 1.3220434908e-01	 1.5591087724e+00	-7.1727212924e-01
 2.6915327050e-01	 1.5503365040e+00	-8.6997622851e-01
 2.5542853721e-01	 1.5526567467e+00	-8.4550968095e-01
 2.4172284301e-01	 1.5548494276e+00	-8.2268864734e-01
 2.2803778932e-01	 1.5569153543e+00	-8.0138936406e-01
 2.1437495392e-01	 1.5588553574e+00	-7.8148192287e-01
 2.0073589059e-01	 1.5606702902e+00	-7.6283127661e-01
 1.8712212881e-01	 1.5623610276e+00	-7.4529812626e-01
 1.7353517349e-01	 1.5639284660e+00	-7.2873969123e-01
 1.5997650467e-01	 1.5653735221e+00	-7.1301036495e-01
 1.4644757732e-01	 1.5666971323e+00	-6.9796225884e-01
 1.3294982103e-01	 1.5679002521e+00	-6.8344563807e-01
 2.7066245805e-01	 1.5590295009e+00	-8.4002691070e-01
 2.5686076787e-01	 1.5613627536e+00	-8.1521260936e-01
 2.4307822355e-01	 1.5635677293e+00	-7.9205798957e-01
 2.2931643547e-01	 1.5656452400e+00	-7.7044135425e-01
 2.1557699026e-01	 1.5675961210e+00	-7.5023557979e-01
 2.0186145041e-01	 1.5694212303e+00	-7.3130913564e-01
 1.8817135398e-01	 1.5711214480e+00	-7.1352697947e-01
 1.7450821432e-01	 1.5726976753e+00	-6.9675132965e-01
 1.6087351978e-01	 1.5741508341e+00	-6.8084231739e-01
 1.4726873345e-01	 1.5754818660e+00	-6.6565852192e-01
 1.3369529298e-01	 1.5766917319e+00	-6.5105739226e-01
 2.7217164560e-01	 1.5677224978e+00	-8.1130770292e-01
 2.5829299854e-01	 1.5700687605e+00	-7.8621179523e-01
 2.4443360408e-01	 1.5722860309e+00	-7.6277629160e-01
 2.3059508161e-01	 1.5743751256e+00	-7.4088306639e-01
 2.1677902659e-01	 1.5763368845e+00	-7.2040926829e-01
 2.0298701022e-01	 1.5781721705e+00	-7.0122835358e-01
 1.8922057915e-01	 1.5798818685e+00	-6.8321098880e-01
 1.7548125515e-01	 1.5814668847e+00	-6.6622582488e-01
 1.6177053488e-01	 1.5829281461e+00	-6.5014014524e-01
 1.4808988959e-01	 1.5842665997e+00	-6.3482039133e-01
 1.3444076493e-01	 1.5854832117e+00	-6.2013256950e-01
 2.7368083315e-01	 1.5764154947e+00	-7.8384459816e-01
 2.5972522920e-01	 1.5787747674e+00	-7.5854016932e-01
 2.4578898462e-01	 1.5810043325e+00	-7.3488195621e-01
 2.3187372776e-01	 1.5831050112e+00	-7.1275687781e-01
 2.1798106293e-01	 1.5850776481e+00	-6.9204781357e-01
 2.0411257004e-01	 1.5869231107e+00	-6.7263465001e-01
 1.9026980432e-01	 1.5886422889e+00	-6.5439519048e-01
 1.7645429599e-01	 1.5902360940e+00	-6.3720593037e-01
 1.6266754998e-01	 1.5917054580e+00	-6.2094270041e-01
 1.4891104572e-01	 1.5930513333e+00	-6.0548118180e-01
 1.3518623688e-01	 1.5942746915e+00	-5.9069729732e-01
 2.7519002070e-01	 1.5851084916e+00	-7.5766497623e-01
 2.6115745987e-01	 1.5874807743e+00	-7.3223196979e-01
 2.4714436516e-01	 1.5897226341e+00	-7.0841462115e-01
 2.3315237390e-01	 1.5918348968e+00	-6.8610633556e-01
 2.1918309926e-01	 1.5938184116e+00	-6.6519715273e-01
 2.0523812986e-01	 1.5956740509e+00	-6.4557480639e-01
 1.9131902949e-01	 1.5974027093e+00	-6.2712564070e-01
 1.7742733682e-01	 1.5990053033e+00	-6.0973538592e-01
 1.6356456508e-01	 1.6004827700e+00	-5.9328979624e-01
 1.4973220186e-01	 1.6018360670e+00	-5.7767515367e-01
 1.3593170884e-01	 1.6030661713e+00	-5.6277864240e-01
 2.7669920824e-01	 1.5938014885e+00	-7.3279754792e-01
 2.6258969053e-01	 1.5961867811e+00	-7.0732269395e-01
 2.4849974570e-01	 1.5984409358e+00	-6.8341511774e-01
 2.3443102005e-01	 1.6005647824e+00	-6.6097612128e-01
 2.2038513559e-01	 1.6025591752e+00	-6.3990430531e-01
 2.0636368968e-01	 1.6044249910e+00	-6.2009664154e-01
 1.9236825466e-01	 1.6061631297e+00	-6.0144939526e-01
 1.7840037765e-01	 1.6077745126e+00	-5.8385890088e-01
 1.6446158018e-01	 1.6092600820e+00	-5.6722219355e-01
 1.5055335800e-01	 1.6106208007e+00	-5.5143750093e-01
 1.3667718079e-01	 1.6118576511e+00	-5.3640459989e-01
 1.2922246127e-01	 1.5239428532e+00	-8.6649085665e-01
 1.1613700454e-01	 1.5249959077e+00	-8.5395755677e-01
 1.0308450745e-01	 1.5259337991e+00	-8.4369762338e-01
 9.0066254107e-02	 1.5267575069e+00	-8.3538585066e-01
 7.7083504135e-02	 1.5274680266e+00	-8.2869205274e-01
 6.4137492550e-02	 1.5280663686e+00	-8.2328132796e-01
 5.1229429637e-02	 1.5285535581e+00	-8.1881425945e-01
 3.8360500855e-02	 1.5289306340e+00	-8.1494705660e-01
 2.5531866762e-02	 1.5291986486e+00	-8.1133164224e-01
 1.2744662951e-02	 1.5293586666e+00	-8.0761569030e-01
 0.0000000000e+00	 1.5294117647e+00	-8.0344261881e-01
 1.2996793322e-01	 1.5327343330e+00	-8.2714377712e-01
 1.1680698775e-01	 1.5337934625e+00	-8.1444875318e-01
 1.0367919206e-01	 1.5347367645e+00	-8.0403209840e-01
 9.0585837666e-02	 1.5355652242e+00	-7.9557266716e-01
 7.7528191458e-02	 1.5362798428e+00	-7.8874484196e-01
 6.4507495578e-02	 1.5368816366e+00	-7.8321877279e-01
 5.1524967290e-02	 1.5373716366e+00	-7.7866054966e-01
 3.8581798896e-02	 1.5377508879e+00	-7.7473231329e-01
 2.5679157647e-02	 1.5380204486e+00	-7.7109230885e-01
 1.2818185686e-02	 1.5381813897e+00	-7.6739488794e-01
 0.0000000000e+00	 1.5382347941e+00	-7.6329046374e-01
 1.3071340517e-01	 1.5415258128e+00	-7.8914395215e-01
 1.1747697097e-01	 1.5425910172e+00	-7.7632598766e-01
 1.0427387667e-01	 1.5435397298e+00	-7.6579345026e-01
 9.1105421225e-02	 1.5443729414e+00	-7.5722801098e-01
 7.7972878782e-02	 1.5450916589e+00	-7.5030742244e-01
 6.4877498605e-02	 1.5456969045e+00	-7.4470573354e-01
 5.1820504944e-02	 1.5461897151e+00	-7.4009343400e-01
 3.8803096937e-02	 1.5465711417e+00	-7.3613753410e-01
 2.5826448532e-02	 1.5468422485e+00	-7.3250158477e-01
 1.2891708422e-02	 1.5470041127e+00	-7.2884564336e-01
 0.0000000000e+00	 1.5470578235e+00	-7.2482619058e-01
 1.3145887712e-01	 1.5503172926e+00	-7.5251264892e-01
 1.1814695418e-01	 1.5513885720e+00	-7.3960212147e-01
 1.0486856128e-01	 1.5523426952e+00	-7.2898532916e-01
 9.1625004784e-02	 1.5531806587e+00	-7.2034554873e-01
 7.8417566105e-02	 1.5539034751e+00	-7.1336273854e-01
 6.5247501633e-02	 1.5545121725e+00	-7.0771372860e-01
 5.2116042599e-02	 1.5550077936e+00	-7.0307233726e-01
 3.9024394979e-02	 1.5553913955e+00	-6.9910941969e-01
 2.5973739417e-02	 1.5556640485e+00	-6.9549285400e-01
 1.2965231157e-02	 1.5558268358e+00	-6.9188747042e-01
 0.0000000000e+00	 1.5558808529e+00	-6.8795492927e-01
 1.3220434908e-01	 1.5591087724e+00	-7.1727212924e-01
 1.1881693739e-01	 1.5601861267e+00	-7.0429100105e-01
 1.0546324589e-01	 1.5611456605e+00	-6.9361235436e-01
 9.2144588344e-02	 1.5619883759e+00	-6.8491989280e-01
 7.8862253428e-02	 1.5627152913e+00	-6.7789464935e-01
 6.5617504661e-02	 1.5633274404e+00	-6.7221515194e-01
 5.2411580253e-02	 1.5638258721e+00	-6.6755751202e-01
 3.9245693021e-02	 1.5642116493e+00	-6.6359544173e-01
 2.6121030302e-02	 1.5644858484e+00	-6.6000020548e-01
 1.3038753893e-02	 1.5646495589e+00	-6.5644051206e-01
 0.0000000000e+00	 1.5647038823e+00	-6.5258235298e-01
 1.3294982103e-01	 1.5679002521e+00	-6.8344563807e-01
 1.1948692060e-01	 1.5689836815e+00	-6.7040744733e-01
 1.0605793051e-01	 1.5699486259e+00	-6.5968010395e-01
 9.2664171903e-02	 1.5707960932e+00	-6.5094659121e-01
 7.9306940752e-02	 1.5715271074e+00	-6.4388791853e-01
 6.5987507689e-02	 1.5721427084e+00	-6.3818326257e-01
 5.2707117907e-02	 1.5726439506e+00	-6.3351002764e-01
 3.9466991063e-02	 1.5730319031e+00	-6.2954383114e-01
 2.6268321188e-02	 1.5733076484e+00	-6.2595842028e-01
 1.3112276629e-02	 1.5734722820e+00	-6.2242552635e-01
 0.0000000000e+00	 1.5735269117e+00	-6.1861466281e-01
 1.3369529298e-01	 1.5766917319e+00	-6.5105739226e-01
 1.2015690381e-01	 1.5777812362e+00	-6.3796724520e-01
 1.0665261512e-01	 1.5787515913e+00	-6.2719510479e-01
 9.3183755462e-02	 1.5796038104e+00	-6.1842211787e-01
 7.9751628075e-02	 1.5803389236e+00	-6.1132820444e-01
 6.6357510716e-02	 1.5809579763e+00	-6.0559217441e-01
 5.3002655562e-02	 1.5814620291e+00	-6.0089175951e-01
 3.9688289105e-02	 1.5818521569e+00	-5.9690356665e-01
 2.6415612073e-02	 1.5821294484e+00	-5.9330295927e-01
 1.3185799365e-02	 1.5822950051e+00	-5.8976387312e-01
 0.0000000000e+00	 1.5823499412e+00	-5.8595857314e-01
 1.3444076493e-01	 1.5854832117e+00	-6.2013256950e-01
 1.2082688702e-01	 1.5865787910e+00	-6.0698713323e-01
 1.0724729973e-01	 1.5875545566e+00	-5.9616482272e-01
 9.3703339021e-02	 1.5884115277e+00	-5.8734386287e-01
 8.0196315399e-02	 1.5891507398e+00	-5.8020205047e-01
 6.6727513744e-02	 1.5897732442e+00	-5.7441684636e-01
 5.3298193216e-02	 1.5902801076e+00	-5.6966537868e-01
 3.9909587147e-02	 1.5906724107e+00	-5.6562436370e-01
 2.6562902958e-02	 1.5909512483e+00	-5.6196995115e-01
 1.3259322100e-02	 1.5911177282e+00	-5.5837750082e-01
 0.0000000000e+00	 1.5911729706e+00	-5.5452129735e-01
 1.3518623688e-01	 1.5942746915e+00	-5.9069729732e-01
 1.2149687023e-01	 1.5953763457e+00	-5.7748479347e-01
 1.0784198434e-01	 1.5963575220e+00	-5.6659765287e-01
 9.4222922580e-02	 1.5972192449e+00	-5.5771012319e-01
 8.0641002722e-02	 1.5979625559e+00	-5.5049687569e-01
 6.7097516772e-02	 1.5985885122e+00	-5.4463307269e-01
 5.3593730871e-02	 1.5990981861e+00	-5.3979434179e-01
 4.0130885188e-02	 1.5994926645e+00	-5.3565666371e-01
 2.6710193843e-02	 1.5997730483e+00	-5.3189618087e-01
 1.3332844836e-02	 1.5999404513e+00	-5.2818893404e-01
 0.0000000000e+00	 1.5999960000e+00	-5.2421053408e-01
 1.3593170884e-01	 1.6030661713e+00	-5.6277864240e-01
 1.2216685344e-01	 1.6041739005e+00	-5.4947884155e-01
 1.0843666895e-01	 1.6051604873e+00	-5.3850291027e-01
 9.4742506139e-02	 1.6060269622e+00	-5.2952009347e-01
 8.1085690045e-02	 1.6067743721e+00	-5.2220096567e-01
 6.7467519799e-02	 1.6074037801e+00	-5.1621747367e-01
 5.3889268525e-02	 1.6079162646e+00	-5.1124288131e-01
 4.0352183230e-02	 1.6083129183e+00	-5.0695162370e-01
 2.6857484728e-02	 1.6085948482e+00	-5.0301907844e-01
 1.3406367572e-02	 1.6087631744e+00	-4.9912126129e-01
 0.0000000000e+00	 1.6088190294e+00	-4.9493445393e-01
 1.3667718079e-01	 1.6118576511e+00	-5.3640459989e-01
 1.2283683665e-01	 1.6129714553e+00	-5.2298881682e-01
 1.0903135356e-01	 1.6139634527e+00	-5.1189082058e-01
 9.5262089698e-02	 1.6148346794e+00	-5.0277385704e-01
 8.1530377368e-02	 1.6155861883e+00	-4.9530346357e-01
 6.7837522827e-02	 1.6162190481e+00	-4.8914748650e-01
 5.4184806178e-02	 1.6167343431e+00	-4.8397599602e-01
 4.0573481271e-02	 1.6171331722e+00	-4.7946110623e-01
 2.7004775613e-02	 1.6174166482e+00	-4.7527670808e-01
 1.3479890307e-02	 1.6175858975e+00	-4.7109812321e-01
 0.0000000000e+00	 1.6176420588e+00	-4.6660168657e-01
 1.6176420588e+00	 0.0000000000e+00	 3.5927906554e+00
 1.6175858975e+00	 1.3479890307e-02	 3.5908364323e+00
 1.6174166482e+00	 2.7004775613e-02	 3.5866606182e+00
 1.6171331722e+00	 4.0573481271e-02	 3.5801574432e+00
 1.6167343431e+00	 5.4184806178e-02	 3.5712453413e+00
 1.6162190481e+00	 6.7837522827e-02	 3.5598684244e+00
 1.6155861883e+00	 8.1530377368e-02	 3.5459978747e+00
 1.6148346794e+00	 9.5262089698e-02	 3.5296332526e+00
 1.6139634527e+00	 1.0903135356e-01	 3.5108037147e+00
 1.6129714553e+00	 1.2283683665e-01	 3.4895691379e+00
 1.6118576511e+00	 1.3667718079e-01	 3.4660211438e+00
 1.6264665874e+00	 0.0000000000e+00	 3.5774657390e+00
 1.6264101197e+00	 1.3553425535e-02	 3.5757441737e+00
 1.6262399471e+00	 2.7152091524e-02	 3.5717800427e+00
 1.6259549247e+00	 4.0794816914e-02	 3.5654620142e+00
 1.6255539199e+00	 5.4480394048e-02	 3.5567040726e+00
 1.6250358139e+00	 6.8207588723e-02	 3.5454470079e+00
 1.6243995017e+00	 8.1975140250e-02	 3.5316598217e+00
 1.6236438933e+00	 9.5781761542e-02	 3.5153410449e+00
 1.6227679138e+00	 1.0962613921e-01	 3.4965199622e+00
 1.6217705049e+00	 1.2350693370e-01	 3.4752577395e+00
 1.6206506247e+00	 1.3742277941e-01	 3.4516484486e+00
 1.6352911109e+00	 0.0000000000e+00	 3.5616982084e+00
 1.6352343369e+00	 1.3626960720e-02	 3.5601181641e+00
 1.6350632411e+00	 2.7299407352e-02	 3.5562884822e+00
 1.6347766722e+00	 4.1016152430e-02	 3.5500915967e+00
 1.6343734917e+00	 5.4775981750e-02	 3.5414363753e+00
 1.6338525747e+00	 6.8577654409e-02	 3.5302596242e+00
 1.6332128102e+00	 8.2419902880e-02	 3.5165275077e+00
 1.6324531021e+00	 9.6301433091e-02	 3.5002368751e+00
 1.6315723700e+00	 1.1022092453e-01	 3.4814164921e+00
 1.6305695495e+00	 1.2417703037e-01	 3.4601281709e+00
 1.6294435933e+00	 1.3816837761e-01	 3.4364677951e+00
 1.6441156245e+00	 0.0000000000e+00	 3.5454766746e+00
 1.6440585441e+00	 1.3700495823e-02	 3.5439520913e+00
 1.6438865250e+00	 2.7446723012e-02	 3.5401840281e+00
 1.6435984097e+00	 4.1237487696e-02	 3.5340480294e+00
 1.6431930536e+00	 5.5071569116e-02	 3.5254471959e+00
 1.6426693255e+00	 6.8947719676e-02	 3.5143137067e+00
 1.6420261086e+00	 8.2864665005e-02	 3.5006102503e+00
 1.6412623009e+00	 9.6821104052e-02	 3.4843313618e+00
 1.6403768161e+00	 1.1081570918e-01	 3.4655046604e+00
 1.6393685841e+00	 1.2484712629e-01	 3.4441919819e+00
 1.6382365519e+00	 1.3891397496e-01	 3.4204904040e+00
 1.6529401231e+00	 0.0000000000e+00	 3.5287892825e+00
 1.6528827363e+00	 1.3774030800e-02	 3.5272390984e+00
 1.6527097939e+00	 2.7594038422e-02	 3.5234641558e+00
 1.6524201322e+00	 4.1458822586e-02	 3.5173324704e+00
 1.6520126004e+00	 5.5367155980e-02	 3.5087407441e+00
 1.6514860613e+00	 6.9317784313e-02	 3.4976159026e+00
 1.6508393921e+00	 8.3309426375e-02	 3.4839165394e+00
 1.6500714848e+00	 9.7340774129e-02	 3.4676342618e+00
 1.6491812473e+00	 1.1141049281e-01	 3.4487949343e+00
 1.6481676038e+00	 1.2551722106e-01	 3.4274598142e+00
 1.6470294956e+00	 1.3965957104e-01	 3.4037265757e+00
 1.6617646017e+00	 0.0000000000e+00	 3.5116237226e+00
 1.6617069085e+00	 1.3847565611e-02	 3.5099717960e+00
 1.6615330428e+00	 2.7741353497e-02	 3.5061257372e+00
 1.6612418347e+00	 4.1680156973e-02	 3.4999454114e+00
 1.6608321273e+00	 5.5662742174e-02	 3.4913205068e+00
 1.6603027772e+00	 6.9687848112e-02	 3.4801720882e+00
 1.6596526556e+00	 8.3754186736e-02	 3.4664540529e+00
 1.6588806487e+00	 9.7860443028e-02	 3.4501544858e+00
 1.6579856585e+00	 1.1200527510e-01	 3.4312969088e+00
 1.6569666035e+00	 1.2618731431e-01	 3.4099414183e+00
 1.6558224194e+00	 1.4040516544e-01	 3.3861857079e+00
 1.6705890552e+00	 0.0000000000e+00	 3.4939672425e+00
 1.6705310557e+00	 1.3921100213e-02	 3.4921422747e+00
 1.6703562668e+00	 2.7888668156e-02	 3.4881650545e+00
 1.6700635123e+00	 4.1901490734e-02	 3.4818866915e+00
 1.6696516291e+00	 5.5958327531e-02	 3.4731892634e+00
 1.6691194680e+00	 7.0057910862e-02	 3.4619873839e+00
 1.6684658941e+00	 8.4198945838e-02	 3.4482296720e+00
 1.6676897876e+00	 9.8380110455e-02	 3.4319001150e+00
 1.6667900448e+00	 1.1260005570e-01	 3.4130193235e+00
 1.6657655783e+00	 1.2685740567e-01	 3.3916456703e+00
 1.6646153182e+00	 1.4115075772e-01	 3.3678763125e+00
 1.6794134788e+00	 0.0000000000e+00	 3.4758066577e+00
 1.6793551729e+00	 1.3994634565e-02	 3.4737421165e+00
 1.6791794607e+00	 2.8035982313e-02	 3.4695778123e+00
 1.6788851598e+00	 4.2122823742e-02	 3.4631555107e+00
 1.6784711010e+00	 5.6253911883e-02	 3.4543490990e+00
 1.6779361289e+00	 7.0427972354e-02	 3.4430661687e+00
 1.6772791027e+00	 8.4643703427e-02	 3.4292494964e+00
 1.6764988966e+00	 9.8899776116e-02	 3.4128784161e+00
 1.6755944012e+00	 1.1319483428e-01	 3.3939700775e+00
 1.6745645232e+00	 1.2752749475e-01	 3.3725805881e+00
 1.6734081872e+00	 1.4189634747e-01	 3.3488060319e+00
 1.6882378674e+00	 0.0000000000e+00	 3.4571283623e+00
 1.6881792551e+00	 1.4068168626e-02	 3.4547624070e+00
 1.6880026196e+00	 2.8183295887e-02	 3.4503591501e+00
 1.6877067723e+00	 4.2344155872e-02	 3.4437504425e+00
 1.6872905379e+00	 5.6549495062e-02	 3.4348014185e+00
 1.6867527548e+00	 7.0798032378e-02	 3.4234120942e+00
 1.6860922763e+00	 8.5088459253e-02	 3.4095188591e+00
 1.6853079707e+00	 9.9419439715e-02	 3.3930958562e+00
 1.6843987226e+00	 1.1378961050e-01	 3.3741562455e+00
 1.6833634332e+00	 1.2819758117e-01	 3.3527533466e+00
 1.6822010213e+00	 1.4264193426e-01	 3.3289816549e+00
 1.6970622159e+00	 0.0000000000e+00	 3.4379183392e+00
 1.6970032973e+00	 1.4141702353e-02	 3.4351937460e+00
 1.6968257385e+00	 2.8330608793e-02	 3.4305036544e+00
 1.6965283449e+00	 4.2565487000e-02	 3.4236694466e+00
 1.6961099348e+00	 5.6845076902e-02	 3.4145469597e+00
 1.6955693408e+00	 7.1168090725e-02	 3.4030280988e+00
 1.6949054099e+00	 8.5533213062e-02	 3.3890423401e+00
 1.6941170048e+00	 9.9939100959e-02	 3.3725581178e+00
 1.6932030041e+00	 1.1438438402e-01	 3.3535840926e+00
 1.6921623033e+00	 1.2886766455e-01	 3.3321702936e+00
 1.6909938155e+00	 1.4338751767e-01	 3.3084091326e+00
 1.7058865195e+00	 0.0000000000e+00	 3.4181621702e+00
 1.7058272945e+00	 1.4215235706e-02	 3.4150262582e+00
 1.7056488125e+00	 2.8477920947e-02	 3.4100053700e+00
 1.7053498724e+00	 4.2786816999e-02	 3.4029098815e+00
 1.7049292867e+00	 5.7140657235e-02	 3.3935858059e+00
 1.7043858817e+00	 7.1538147186e-02	 3.3819164206e+00
 1.7037184986e+00	 8.5977964604e-02	 3.3678237805e+00
 1.7029259940e+00	 1.0045875955e-01	 3.3512701130e+00
 1.7020072407e+00	 1.1497915452e-01	 3.3322590887e+00
 1.7009611285e+00	 1.2953774452e-01	 3.3108369646e+00
 1.6997865649e+00	 1.4413309728e-01	 3.2870935936e+00
 1.6118576511e+00	 1.3667718079e-01	 3.4660211438e+00
 1.6106208007e+00	 1.5055335800e-01	 3.4399879698e+00
 1.6092600820e+00	 1.6446158018e-01	 3.4111822631e+00
 1.6077745126e+00	 1.7840037765e-01	 3.3795587566e+00
 1.6061631297e+00	 1.9236825466e-01	 3.3451057756e+00
 1.6044249910e+00	 2.0636368968e-01	 3.3078459643e+00
 1.6025591752e+00	 2.2038513559e-01	 3.2678369010e+00
 1.6005647824e+00	 2.3443102005e-01	 3.2251715965e+00
 1.5984409358e+00	 2.4849974570e-01	 3.1799788771e+00
 1.5961867811e+00	 2.6258969053e-01	 3.1324236469e+00
 1.5938014885e+00	 2.7669920824e-01	 3.0827070293e+00
 1.6206506247e+00	 1.3742277941e-01	 3.4516484486e+00
 1.6194070271e+00	 1.5137465366e-01	 3.4255339519e+00
 1.6180388854e+00	 1.6535874770e-01	 3.3966355174e+00
 1.6165452119e+00	 1.7937358382e-01	 3.3649045738e+00
 1.6149250387e+00	 1.9341765812e-01	 3.3303273741e+00
 1.6131774181e+00	 2.0748944074e-01	 3.2929257221e+00
 1.6113014239e+00	 2.2158737617e-01	 3.2527575836e+00
 1.6092961514e+00	 2.3570988346e-01	 3.2099175801e+00
 1.6071607188e+00	 2.4985535653e-01	 3.1645373618e+00
 1.6048942673e+00	 2.6402216456e-01	 3.1167858594e+00
 1.6024959625e+00	 2.7820865222e-01	 3.0668694106e+00
 1.6294435933e+00	 1.3816837761e-01	 3.4364677951e+00
 1.6281932485e+00	 1.5219594886e-01	 3.4102920854e+00
 1.6268176838e+00	 1.6625591471e-01	 3.3813326639e+00
 1.6253159063e+00	 1.8034678944e-01	 3.3495377812e+00
 1.6236869427e+00	 1.9446706097e-01	 3.3148917478e+00
 1.6219298403e+00	 2.0861519117e-01	 3.2774156595e+00
 1.6200436677e+00	 2.2278961607e-01	 3.2371680041e+00
 1.6180275154e+00	 2.3698874614e-01	 3.1942451477e+00
 1.6158804968e+00	 2.5121096660e-01	 3.1487816982e+00
 1.6136017486e+00	 2.6545463777e-01	 3.1009507439e+00
 1.6111904315e+00	 2.7971809535e-01	 3.0509639645e+00
 1.6382365519e+00	 1.3891397496e-01	 3.4204904040e+00
 1.6369794599e+00	 1.5301724313e-01	 3.3942726876e+00
 1.6355964723e+00	 1.6715308071e-01	 3.3652824834e+00
 1.6340865907e+00	 1.8131999395e-01	 3.3334649991e+00
 1.6324488368e+00	 1.9551646264e-01	 3.2988027422e+00
 1.6306822525e+00	 2.0974094033e-01	 3.2613162426e+00
 1.6287859015e+00	 2.2399185461e-01	 3.2210646537e+00
 1.6267588695e+00	 2.3826760737e-01	 3.1781462308e+00
 1.6246002650e+00	 2.5256657514e-01	 3.1326986828e+00
 1.6223092199e+00	 2.6688710935e-01	 3.0848993967e+00
 1.6198848907e+00	 2.8122753676e-01	 3.0349655326e+00
 1.6470294956e+00	 1.3965957104e-01	 3.4037265757e+00
 1.6457656564e+00	 1.5383853600e-01	 3.3774851523e+00
 1.6443752458e+00	 1.6805024518e-01	 3.3484928408e+00
 1.6428572603e+00	 1.8229319681e-01	 3.3166919503e+00
 1.6412107159e+00	 1.9656586252e-01	 3.2820633342e+00
 1.6394346498e+00	 2.1086668757e-01	 3.2446271082e+00
 1.6375281206e+00	 2.2519409110e-01	 3.2044432455e+00
 1.6354902088e+00	 2.3954646643e-01	 3.1616120447e+00
 1.6333200183e+00	 2.5392218136e-01	 3.1162744692e+00
 1.6310166765e+00	 2.6831957851e-01	 3.0686123564e+00
 1.6285793351e+00	 2.8273697561e-01	 3.0188484946e+00
 1.6558224194e+00	 1.4040516544e-01	 3.3861857079e+00
 1.6545518329e+00	 1.5465982701e-01	 3.3599379679e+00
 1.6531539995e+00	 1.6894740761e-01	 3.3309707028e+00
 1.6516279099e+00	 1.8326639746e-01	 3.2992234773e+00
 1.6499725752e+00	 1.9761526003e-01	 3.2646756489e+00
 1.6481870273e+00	 2.1199243226e-01	 3.2273470813e+00
 1.6462703197e+00	 2.2639632486e-01	 3.1872987312e+00
 1.6442215283e+00	 2.4082532259e-01	 3.1446331048e+00
 1.6420397519e+00	 2.5527778452e-01	 3.0994945840e+00
 1.6397241134e+00	 2.6975204441e-01	 3.0520696184e+00
 1.6372737599e+00	 2.8424641104e-01	 3.0025867827e+00
 1.6646153182e+00	 1.4115075772e-01	 3.3678763125e+00
 1.6633379846e+00	 1.5548111569e-01	 3.3416387341e+00
 1.6619327282e+00	 1.6984456751e-01	 3.3127221551e+00
 1.6603985347e+00	 1.8423959536e-01	 3.2810635592e+00
 1.6587344097e+00	 1.9866465456e-01	 3.2466409768e+00
 1.6569393800e+00	 2.1311817376e-01	 3.2094741914e+00
 1.6550124942e+00	 2.2759855522e-01	 3.1696253171e+00
 1.6529528230e+00	 2.4210417513e-01	 3.1271992426e+00
 1.6507594608e+00	 2.5663338383e-01	 3.0823439422e+00
 1.6484315255e+00	 2.7118450626e-01	 3.0352506498e+00
 1.6459681599e+00	 2.8575584219e-01	 2.9861538955e+00
 1.6734081872e+00	 1.4189634747e-01	 3.3488060319e+00
 1.6721241064e+00	 1.5630240158e-01	 3.3225941788e+00
 1.6707114272e+00	 1.7074172435e-01	 3.2937524189e+00
 1.6691691297e+00	 1.8521278995e-01	 3.2622153290e+00
 1.6674962144e+00	 1.9971404552e-01	 3.2279597907e+00
 1.6656917030e+00	 2.1424391143e-01	 3.1910056894e+00
 1.6637546389e+00	 2.2880078150e-01	 3.1514164808e+00
 1.6616840881e+00	 2.4338302331e-01	 3.1092996214e+00
 1.6594791400e+00	 2.5798897854e-01	 3.0648068625e+00
 1.6571389081e+00	 2.7261696323e-01	 3.0181344046e+00
 1.6546625304e+00	 2.8726526821e-01	 2.9695229124e+00
 1.6822010213e+00	 1.4264193426e-01	 3.3289816549e+00
 1.6809101933e+00	 1.5712368422e-01	 3.3028101737e+00
 1.6794900913e+00	 1.7163887763e-01	 3.2740658676e+00
 1.6779396898e+00	 1.8618598067e-01	 3.2426810898e+00
 1.6762579843e+00	 2.0076343232e-01	 3.2086317618e+00
 1.6744439912e+00	 2.1536964464e-01	 3.1719380636e+00
 1.6724967489e+00	 2.3000300300e-01	 3.1326649872e+00
 1.6704153185e+00	 2.4466186643e-01	 3.0909227525e+00
 1.6681987847e+00	 2.5934456787e-01	 3.0468670827e+00
 1.6658462561e+00	 2.7404941453e-01	 3.0006993383e+00
 1.6633568665e+00	 2.8877468824e-01	 2.9526665080e+00
 1.6909938155e+00	 1.4338751767e-01	 3.3084091326e+00
 1.6896962404e+00	 1.5794496313e-01	 3.2822917512e+00
 1.6882687155e+00	 1.7253602685e-01	 3.2536660426e+00
 1.6867102102e+00	 1.8715916699e-01	 3.2224623307e+00
 1.6850197145e+00	 2.0181281437e-01	 3.1886557760e+00
 1.6831962397e+00	 2.1649537274e-01	 3.1522670559e+00
 1.6812388193e+00	 2.3120521906e-01	 3.1133629041e+00
 1.6791465094e+00	 2.4594070375e-01	 3.0720565103e+00
 1.6769183898e+00	 2.6070015105e-01	 3.0285077752e+00
 1.6745535646e+00	 2.7548185933e-01	 2.9829234230e+00
 1.6720511631e+00	 2.9028410143e-01	 2.9355569664e+00
 1.6997865649e+00	 1.4413309728e-01	 3.2870935936e+00
 1.6984822427e+00	 1.5876623785e-01	 3.2610431191e+00
 1.6970472951e+00	 1.7343317150e-01	 3.2325556695e+00
 1.6954806859e+00	 1.8813234834e-01	 3.2015597432e+00
 1.6937814001e+00	 2.0286219106e-01	 3.1680299498e+00
 1.6919484436e+00	 2.1762109510e-01	 3.1319876776e+00
 1.6899808451e+00	 2.3240742898e-01	 3.0935016184e+00
 1.6878776557e+00	 2.4721953454e-01	 3.0526881483e+00
 1.6856379504e+00	 2.6205572732e-01	 3.0097115623e+00
 1.6832608288e+00	 2.7691429682e-01	 2.9647841622e+00
 1.6807454153e+00	 2.9179350692e-01	 2.9181661957e+00
 1.5938014885e+00	 2.7669920824e-01	 3.0827070293e+00
 1.5912846913e+00	 2.9082422635e-01	 3.0305268845e+00
 1.5886352143e+00	 3.0496545179e-01	 2.9755347402e+00
 1.5858523025e+00	 3.1912117227e-01	 2.9179403487e+00
 1.5829352275e+00	 3.3328965288e-01	 2.8579866222e+00
 1.5798832881e+00	 3.4746913652e-01	 2.7959491872e+00
 1.5766958111e+00	 3.6165784435e-01	 2.7321358182e+00
 1.5733721522e+00	 3.7585397630e-01	 2.6668857476e+00
 1.5699116960e+00	 3.9005571159e-01	 2.6005688540e+00
 1.5663138575e+00	 4.0426120927e-01	 2.5335847280e+00
 1.5625780821e+00	 4.1846860876e-01	 2.4663616183e+00
 1.6024959625e+00	 2.7820865222e-01	 3.0668694106e+00
 1.5999654357e+00	 2.9241072485e-01	 3.0144747749e+00
 1.5973015053e+00	 3.0662909321e-01	 2.9592424677e+00
 1.5945034123e+00	 3.2086203570e-01	 2.9013892147e+00
 1.5915704241e+00	 3.3510780793e-01	 2.8411657360e+00
 1.5885018358e+00	 3.4936464320e-01	 2.7788562719e+00
 1.5852969706e+00	 3.6363075298e-01	 2.7147779853e+00
 1.5819551804e+00	 3.7790432738e-01	 2.6492802382e+00
 1.5784758469e+00	 3.9218353570e-01	 2.5827437456e+00
 1.5748583815e+00	 4.0646652693e-01	 2.5155796057e+00
 1.5711022268e+00	 4.2075143034e-01	 2.4482282077e+00
 1.6111904315e+00	 2.7971809535e-01	 3.0509639645e+00
 1.6086461751e+00	 2.9399722245e-01	 2.9984943587e+00
 1.6059677914e+00	 3.0829273370e-01	 2.9431649828e+00
 1.6031545171e+00	 3.2260289814e-01	 2.8851939226e+00
 1.6002056158e+00	 3.3692596194e-01	 2.8248341157e+00
 1.5971203786e+00	 3.5126014880e-01	 2.7623728545e+00
 1.5938981251e+00	 3.6560366050e-01	 2.6981311647e+00
 1.5905382038e+00	 3.7995467731e-01	 2.6324630559e+00
 1.5870399929e+00	 3.9431135861e-01	 2.5657546489e+00
 1.5834029007e+00	 4.0867184334e-01	 2.4984231769e+00
 1.5796263666e+00	 4.2303425063e-01	 2.4309158637e+00
 1.6198848907e+00	 2.8122753676e-01	 3.0349655326e+00
 1.6173269048e+00	 2.9558371825e-01	 2.9825543812e+00
 1.6146340677e+00	 3.0995637230e-01	 2.9272658678e+00
 1.6118056121e+00	 3.2434375861e-01	 2.8693139324e+00
 1.6088407976e+00	 3.3874411389e-01	 2.8089482453e+00
 1.6057389116e+00	 3.5315565226e-01	 2.7464536954e+00
 1.6024992699e+00	 3.6757656578e-01	 2.6821497509e+00
 1.5991212175e+00	 3.8200502492e-01	 2.6163896924e+00
 1.5956041292e+00	 3.9643917910e-01	 2.5495597199e+00
 1.5919474102e+00	 4.1087715725e-01	 2.4820779331e+00
 1.5881504968e+00	 4.2531706833e-01	 2.4143931879e+00
 1.6285793351e+00	 2.8273697561e-01	 3.0188484946e+00
 1.6260076197e+00	 2.9717021135e-01	 2.9666232183e+00
 1.6233003293e+00	 3.1162000807e-01	 2.9115084092e+00
 1.6204566925e+00	 3.2608461613e-01	 2.8537084590e+00
 1.6174759649e+00	 3.4056226275e-01	 2.7934643906e+00
 1.6143574300e+00	 3.5505115249e-01	 2.7310533371e+00
 1.6111004001e+00	 3.6954946770e-01	 2.6667878929e+00
 1.6077042166e+00	 3.8405536903e-01	 2.6010153356e+00
 1.6041682509e+00	 3.9856699598e-01	 2.5341167203e+00
 1.6004919051e+00	 4.1308246741e-01	 2.4665058464e+00
 1.5966746125e+00	 4.2759988214e-01	 2.3986281001e+00
 1.6372737599e+00	 2.8424641104e-01	 3.0025867827e+00
 1.6346883149e+00	 2.9875670086e-01	 2.9506688907e+00
 1.6319665712e+00	 3.1328364007e-01	 2.8958556107e+00
 1.6291077532e+00	 3.2782546969e-01	 2.8383364865e+00
 1.6261111125e+00	 3.4238040749e-01	 2.7783386151e+00
 1.6229759289e+00	 3.5694664843e-01	 2.7161261237e+00
 1.6197015108e+00	 3.7152236516e-01	 2.6519995176e+00
 1.6162871963e+00	 3.8610570850e-01	 2.5862948982e+00
 1.6127323533e+00	 4.0069480803e-01	 2.5193830516e+00
 1.6090363807e+00	 4.1528777257e-01	 2.4516684102e+00
 1.6051987089e+00	 4.2988269079e-01	 2.3835878872e+00
 1.6459681599e+00	 2.8575584219e-01	 2.9861538955e+00
 1.6433689855e+00	 3.0034318587e-01	 2.9346590772e+00
 1.6406327886e+00	 3.1494726736e-01	 2.8802702077e+00
 1.6377587894e+00	 3.2956631833e-01	 2.8231567838e+00
 1.6347462357e+00	 3.4419854708e-01	 2.7635267979e+00
 1.6315944033e+00	 3.5884213900e-01	 2.7016262208e+00
 1.6283025971e+00	 3.7349525702e-01	 2.6377383529e+00
 1.6248701516e+00	 3.8815604216e-01	 2.5721830450e+00
 1.6212964313e+00	 4.0282261406e-01	 2.5053157887e+00
 1.6175808321e+00	 4.1749307148e-01	 2.4375266795e+00
 1.6137227811e+00	 4.3216549296e-01	 2.3692392514e+00
 1.6546625304e+00	 2.8726526821e-01	 2.9695229124e+00
 1.6520496266e+00	 3.0192966549e-01	 2.9185611288e+00
 1.6492989764e+00	 3.1661088899e-01	 2.8647146818e+00
 1.6464097962e+00	 3.3130716104e-01	 2.8081279196e+00
 1.6433813295e+00	 3.4601668049e-01	 2.7489846502e+00
 1.6402128484e+00	 3.6073762312e-01	 2.6875076352e+00
 1.6369036542e+00	 3.7546814218e-01	 2.6239579515e+00
 1.6334530777e+00	 3.9020636885e-01	 2.5586342218e+00
 1.6298604803e+00	 4.0495041285e-01	 2.4918717137e+00
 1.6261252544e+00	 4.1969836290e-01	 2.4240413116e+00
 1.6222468243e+00	 4.3444828738e-01	 2.3555483588e+00
 1.6633568665e+00	 2.8877468824e-01	 2.9526665080e+00
 1.6607302332e+00	 3.0351613881e-01	 2.9023420829e+00
 1.6579651300e+00	 3.1827450402e-01	 2.8491512746e+00
 1.6550607686e+00	 3.3304799685e-01	 2.7932082782e+00
 1.6520163890e+00	 3.4783480668e-01	 2.7346677331e+00
 1.6488312594e+00	 3.6263309972e-01	 2.6737242352e+00
 1.6455046771e+00	 3.7744101951e-01	 2.6106117147e+00
 1.6420359698e+00	 3.9225668741e-01	 2.5456026833e+00
 1.6384244952e+00	 4.0707820320e-01	 2.4790073496e+00
 1.6346696428e+00	 4.2190364556e-01	 2.4111726059e+00
 1.6307708338e+00	 4.3673107273e-01	 2.3424808864e+00
 1.6720511631e+00	 2.9028410143e-01	 2.9355569664e+00
 1.6694108005e+00	 3.0510260495e-01	 2.8859686774e+00
 1.6666312442e+00	 3.1993811150e-01	 2.8335420029e+00
 1.6637117019e+00	 3.3478882476e-01	 2.7783560750e+00
 1.6606514094e+00	 3.4965292463e-01	 2.7205314755e+00
 1.6574496312e+00	 3.6452856773e-01	 2.6602297711e+00
 1.6541056611e+00	 3.7941388789e-01	 2.5976529161e+00
 1.6506188229e+00	 3.9430699667e-01	 2.5330425214e+00
 1.6469884714e+00	 4.0920598390e-01	 2.4666789938e+00
 1.6432139925e+00	 4.2410891823e-01	 2.3988805446e+00
 1.6392948045e+00	 4.3901384774e-01	 2.3300020703e+00
 1.6807454153e+00	 2.9179350692e-01	 2.9181661957e+00
 1.6780913235e+00	 3.0668906299e-01	 2.8694073648e+00
 1.6752973142e+00	 3.2160171051e-01	 2.8178486731e+00
 1.6723625910e+00	 3.3652964380e-01	 2.7635293729e+00
 1.6692863858e+00	 3.5147103331e-01	 2.7065311912e+00
 1.6660679591e+00	 3.6642402607e-01	 2.6469778955e+00
 1.6627066012e+00	 3.8138674621e-01	 2.5850347257e+00
 1.6592016323e+00	 3.9635729548e-01	 2.5209076939e+00
 1.6555524039e+00	 4.1133375375e-01	 2.4548427523e+00
 1.6517582986e+00	 4.2631417965e-01	 2.3871248320e+00
 1.6478187318e+00	 4.4129661111e-01	 2.3180767528e+00
 1.5625780821e+00	 4.1846860876e-01	 2.4663616183e+00
 1.5587038468e+00	 4.3267603064e-01	 2.3972101992e+00
 1.5546906618e+00	 4.4688157787e-01	 2.3243492701e+00
 1.5505380703e+00	 4.6108333583e-01	 2.2481098705e+00
 1.5462456483e+00	 4.7527937279e-01	 2.1688484072e+00
 1.5418130057e+00	 4.8946774058e-01	 2.0869452657e+00
 1.5372397864e+00	 5.0364647525e-01	 2.0028033132e+00
 1.5325256694e+00	 5.1781359778e-01	 1.9168462920e+00
 1.5276703685e+00	 5.3196711483e-01	 1.8295171082e+00
 1.5226736338e+00	 5.4610501945e-01	 1.7412760151e+00
 1.5175352514e+00	 5.6022529188e-01	 1.6525986948e+00
 1.5711022268e+00	 4.2075143034e-01	 2.4482282077e+00
 1.5672068568e+00	 4.3503635627e-01	 2.3790306541e+00
 1.5631717792e+00	 4.4931939731e-01	 2.3062218407e+00
 1.5589965345e+00	 4.6359862841e-01	 2.2301251892e+00
 1.5546806966e+00	 4.7787210732e-01	 2.1510912146e+00
 1.5502238731e+00	 4.9213787521e-01	 2.0694961461e+00
 1.5456257061e+00	 5.0639395742e-01	 1.9857404368e+00
 1.5408858727e+00	 5.2063836415e-01	 1.9002471641e+00
 1.5360040853e+00	 5.3486909118e-01	 1.8134603212e+00
 1.5309800925e+00	 5.4908412062e-01	 1.7258430042e+00
 1.5258136793e+00	 5.6328142167e-01	 1.6378754941e+00
 1.5796263666e+00	 4.2303425063e-01	 2.4309158637e+00
 1.5757098620e+00	 4.3739668055e-01	 2.3616115914e+00
 1.5716528918e+00	 4.5175721537e-01	 2.2887780220e+00
 1.5674549940e+00	 4.6611391957e-01	 2.2127396442e+00
 1.5631157401e+00	 4.8046484037e-01	 2.1338496995e+00
 1.5586347358e+00	 4.9480800831e-01	 2.0524887993e+00
 1.5540116211e+00	 5.0914143803e-01	 1.9690634298e+00
 1.5492460713e+00	 5.2346312893e-01	 1.8840043449e+00
 1.5443377974e+00	 5.3777106590e-01	 1.7977648496e+00
 1.5392865465e+00	 5.5206322010e-01	 1.7108189771e+00
 1.5340921025e+00	 5.6633754974e-01	 1.6236595584e+00
 1.5881504968e+00	 4.2531706833e-01	 2.4143931879e+00
 1.5842128576e+00	 4.3975700216e-01	 2.3449273993e+00
 1.5801339947e+00	 4.5419503066e-01	 2.2719954115e+00
 1.5759134438e+00	 4.6862920788e-01	 2.1959313326e+00
 1.5715507741e+00	 4.8305757048e-01	 2.1170996165e+00
 1.5670455889e+00	 4.9747813840e-01	 2.0358936641e+00
 1.5623975266e+00	 5.1188891553e-01	 1.9527343099e+00
 1.5576062605e+00	 5.2628789050e-01	 1.8680681957e+00
 1.5526715001e+00	 5.4067303732e-01	 1.7823660333e+00
 1.5475929911e+00	 5.5504231621e-01	 1.6961207576e+00
 1.5423705164e+00	 5.6939367434e-01	 1.6098455732e+00
 1.5966746125e+00	 4.2759988214e-01	 2.3986281001e+00
 1.5927158387e+00	 4.4211731976e-01	 2.3289516301e+00
 1.5886150833e+00	 4.5663284181e-01	 2.2558506724e+00
 1.5843718793e+00	 4.7114449192e-01	 2.1796773774e+00
 1.5799857937e+00	 4.8565029619e-01	 2.1008157682e+00
 1.5754564278e+00	 5.0014826394e-01	 2.0196803133e+00
 1.5707834178e+00	 5.1463638836e-01	 1.9367143825e+00
 1.5659664354e+00	 5.2911264727e-01	 1.8523885890e+00
 1.5610051885e+00	 5.4357500381e-01	 1.7671990183e+00
 1.5558994216e+00	 5.5802140725e-01	 1.6816653464e+00
 1.5506489162e+00	 5.7244979375e-01	 1.5963288490e+00
 1.6051987089e+00	 4.2988269079e-01	 2.3835878872e+00
 1.6012188005e+00	 4.4447763201e-01	 2.3136570566e+00
 1.5970961526e+00	 4.5907064744e-01	 2.2403195967e+00
 1.5928302956e+00	 4.7365977025e-01	 2.1639539964e+00
 1.5884207942e+00	 4.8824301602e-01	 2.0849720781e+00
 1.5838672476e+00	 5.0281838343e-01	 2.0038175295e+00
 1.5791692900e+00	 5.1738385496e-01	 1.9209643169e+00
 1.5743265914e+00	 5.3193739763e-01	 1.8369149829e+00
 1.5693388581e+00	 5.4647696372e-01	 1.7521988295e+00
 1.5642058333e+00	 5.6100049153e-01	 1.6673699885e+00
 1.5589272972e+00	 5.7550590622e-01	 1.5830053819e+00
 1.6137227811e+00	 4.3216549296e-01	 2.3692392514e+00
 1.6097217383e+00	 4.4683793757e-01	 2.2990157287e+00
 1.6055771979e+00	 4.6150844616e-01	 2.2253771685e+00
 1.6012886880e+00	 4.7617504145e-01	 2.1487365705e+00
 1.5968557708e+00	 4.9083572850e-01	 2.0695416624e+00
 1.5922780435e+00	 5.0548849535e-01	 1.9882733789e+00
 1.5875551384e+00	 5.2013131378e-01	 1.9054442209e+00
 1.5826867237e+00	 5.3476213999e-01	 1.8215964955e+00
 1.5776725041e+00	 5.4937891540e-01	 1.7373004417e+00
 1.5725122214e+00	 5.6397956738e-01	 1.6531522404e+00
 1.5672056547e+00	 5.7856201004e-01	 1.5697719140e+00
 1.6222468243e+00	 4.3444828738e-01	 2.3555483588e+00
 1.6182246471e+00	 4.4919823510e-01	 2.2849990289e+00
 1.6140582143e+00	 4.6394623659e-01	 2.2109976262e+00
 1.6097470516e+00	 4.7869030411e-01	 2.1339997111e+00
 1.6052907188e+00	 4.9342843217e-01	 2.0544969012e+00
 1.6006888109e+00	 5.0815859820e-01	 1.9730152854e+00
 1.5959409583e+00	 5.2287876325e-01	 1.8901137157e+00
 1.5910468275e+00	 5.3758687275e-01	 1.8063819788e+00
 1.5860061218e+00	 5.5228085722e-01	 1.7224388511e+00
 1.5808185813e+00	 5.6695863310e-01	 1.6389300372e+00
 1.5754839841e+00	 5.8161810347e-01	 1.5565259954e+00
 1.6307708338e+00	 4.3673107273e-01	 2.3424808864e+00
 1.6267275222e+00	 4.5155852327e-01	 2.2715777281e+00
 1.6225391971e+00	 4.6638401734e-01	 2.1971545242e+00
 1.6182053816e+00	 4.8120555678e-01	 2.1197173268e+00
 1.6137256332e+00	 4.9602112555e-01	 2.0398095096e+00
 1.6090995449e+00	 5.1082869045e-01	 1.9580101034e+00
 1.6043267450e+00	 5.2562620183e-01	 1.8749320098e+00
 1.5994068982e+00	 5.4041159430e-01	 1.7912200919e+00
 1.5943397063e+00	 5.5518278753e-01	 1.7075491467e+00
 1.5891249082e+00	 5.6993768700e-01	 1.6246217596e+00
 1.5837622807e+00	 5.8467418477e-01	 1.5431660451e+00
 1.6392948045e+00	 4.3901384774e-01	 2.3300020703e+00
 1.6352303588e+00	 4.5391880074e-01	 2.2587220401e+00
 1.6310201415e+00	 4.6882178705e-01	 2.1838207937e+00
 1.6266636733e+00	 4.8372079805e-01	 2.1058626900e+00
 1.6221605095e+00	 4.9861380718e-01	 2.0254506072e+00
 1.6175102407e+00	 5.1349877060e-01	 1.9432241901e+00
 1.6127124936e+00	 5.2837362795e-01	 1.8598579722e+00
 1.6077669310e+00	 5.4323630305e-01	 1.7760593738e+00
 1.6026732531e+00	 5.5808470469e-01	 1.6925665805e+00
 1.5974311975e+00	 5.7291672739e-01	 1.6101463014e+00
 1.5920405398e+00	 5.8773025222e-01	 1.5295914127e+00
 1.6478187318e+00	 4.4129661111e-01	 2.3180767528e+00
 1.6437331520e+00	 4.5627906618e-01	 2.2464016764e+00
 1.6395010426e+00	 4.7125954432e-01	 2.1709688042e+00
 1.6351219218e+00	 4.8623602649e-01	 2.0924085021e+00
 1.6305953427e+00	 5.0120647558e-01	 2.0113907878e+00
 1.6259208937e+00	 5.1616883713e-01	 1.9286234776e+00
 1.6210981995e+00	 5.3112104005e-01	 1.8448502052e+00
 1.6161269212e+00	 5.4606099739e-01	 1.7608483160e+00
 1.6110067574e+00	 5.6098660704e-01	 1.6774266385e+00
 1.6057374444e+00	 5.7589575259e-01	 1.5954231361e+00
 1.6003187566e+00	 5.9078630409e-01	 1.5155474248e+00
 1.5175352514e+00	 5.6022529188e-01	 1.6525986948e+00
 1.5122541343e+00	 5.7432829563e-01	 1.5663123957e+00
 1.5068310035e+00	 5.8840958390e-01	 1.4854696485e+00
 1.5012657558e+00	 6.0246710142e-01	 1.4053566790e+00
 1.4955583263e+00	 6.1649878331e-01	 1.3213920226e+00
 1.4897086883e+00	 6.3050255592e-01	 1.2341010241e+00
 1.4837168546e+00	 6.4447633766e-01	 1.1440069078e+00
 1.4775828767e+00	 6.5841803993e-01	 1.0516294811e+00
 1.4713068460e+00	 6.7232556799e-01	 9.5748395992e-01
 1.4648888939e+00	 6.8619682187e-01	 8.6207992297e-01
 1.4583291918e+00	 7.0002969732e-01	 7.6592040420e-01
 1.5258136793e+00	 5.6328142167e-01	 1.6378754941e+00
 1.5205037528e+00	 5.7746135985e-01	 1.5523992056e+00
 1.5150510379e+00	 5.9161946408e-01	 1.4721979570e+00
 1.5094554307e+00	 6.0575366789e-01	 1.3907725302e+00
 1.5037168661e+00	 6.1986189513e-01	 1.3056500117e+00
 1.4978353174e+00	 6.3394206084e-01	 1.2173877072e+00
 1.4918107970e+00	 6.4799207207e-01	 1.1265390522e+00
 1.4856433572e+00	 6.6200982884e-01	 1.0336522249e+00
 1.4793330897e+00	 6.7599322497e-01	 9.3926888551e-01
 1.4728801265e+00	 6.8994014904e-01	 8.4392305157e-01
 1.4662846400e+00	 7.0384848532e-01	 7.4814011858e-01
 1.5340921025e+00	 5.6633754974e-01	 1.6236595584e+00
 1.5287533666e+00	 5.8059442230e-01	 1.5391297557e+00
 1.5232710675e+00	 5.9482934244e-01	 1.4591851011e+00
 1.5176451010e+00	 6.0904023250e-01	 1.3766205394e+00
 1.5118754013e+00	 6.2322500505e-01	 1.2905135440e+00
 1.5059619418e+00	 6.3738156381e-01	 1.2014441703e+00
 1.4999047349e+00	 6.5150780450e-01	 1.1099869515e+00
 1.4937038332e+00	 6.6560161572e-01	 1.0167094327e+00
 1.4873593288e+00	 6.7966087987e-01	 9.2217083848e-01
 1.4808713545e+00	 6.9368347409e-01	 8.2692088139e-01
 1.4742400837e+00	 7.0766727115e-01	 7.3149872396e-01
 1.5423705164e+00	 5.6939367434e-01	 1.6098455732e+00
 1.5370029711e+00	 5.8372748119e-01	 1.5263759315e+00
 1.5314910879e+00	 5.9803921717e-01	 1.4462998283e+00
 1.5258347620e+00	 6.1232679338e-01	 1.3627556581e+00
 1.5200339273e+00	 6.2658811115e-01	 1.2758266723e+00
 1.5140885570e+00	 6.4082106288e-01	 1.1861066338e+00
 1.5079986637e+00	 6.5502353294e-01	 1.0941822271e+00
 1.5017643000e+00	 6.6919339852e-01	 1.0006315270e+00
 1.4953855588e+00	 6.8332853062e-01	 9.0602260494e-01
 1.4888625735e+00	 6.9742679489e-01	 8.1091228553e-01
 1.4821955184e+00	 7.1148605264e-01	 7.1584506201e-01
 1.5506489162e+00	 5.7244979375e-01	 1.5963288490e+00
 1.5452525615e+00	 5.8686053476e-01	 1.5140107051e+00
 1.5397110943e+00	 6.0124908643e-01	 1.4334137509e+00
 1.5340244090e+00	 6.1561334867e-01	 1.3490359681e+00
 1.5281924394e+00	 6.2995121153e-01	 1.2614367837e+00
 1.5222151584e+00	 6.4426055611e-01	 1.1712147928e+00
 1.5160925786e+00	 6.5853925540e-01	 1.0789600499e+00
 1.5098247531e+00	 6.7278517522e-01	 9.8525248307e-01
 1.5034117752e+00	 6.8699617512e-01	 8.9066045433e-01
 1.4968537789e+00	 7.0117010933e-01	 7.9573947479e-01
 1.4901509396e+00	 7.1530482765e-01	 7.0103108715e-01
 1.5589272972e+00	 5.7550590622e-01	 1.5830053819e+00
 1.5535021333e+00	 5.8999358122e-01	 1.5018276884e+00
 1.5479310820e+00	 6.0445894843e-01	 1.4204012881e+00
 1.5422140375e+00	 6.1889989652e-01	 1.3353226149e+00
 1.5363509330e+00	 6.3331430430e-01	 1.2471945278e+00
 1.5303417413e+00	 6.4770004154e-01	 1.1566117416e+00
 1.5241864753e+00	 6.6205496989e-01	 1.0641590603e+00
 1.5178851880e+00	 6.7637694377e-01	 9.7040974947e-01
 1.5114379733e+00	 6.9066381132e-01	 8.7592406166e-01
 1.5048449662e+00	 7.0491341528e-01	 7.8124792366e-01
 1.4981063427e+00	 7.1912359400e-01	 6.8691179845e-01
 1.5672056547e+00	 5.7856201004e-01	 1.5697719140e+00
 1.5617516816e+00	 5.9312661881e-01	 1.4893416705e+00
 1.5561510465e+00	 6.0766880132e-01	 1.4071396090e+00
 1.5504036428e+00	 6.2218643505e-01	 1.3214797436e+00
 1.5445094035e+00	 6.3667738753e-01	 1.2329537457e+00
 1.5384683013e+00	 6.5113951722e-01	 1.1421438980e+00
 1.5322803489e+00	 6.6557067442e-01	 1.0496212917e+00
 1.5259456000e+00	 6.7996870215e-01	 9.5594417034e-01
 1.5194641488e+00	 6.9433143712e-01	 8.6165643115e-01
 1.5128361308e+00	 7.0865671063e-01	 7.6728629750e-01
 1.5060617233e+00	 7.2294234953e-01	 6.7334517267e-01
 1.5754839841e+00	 5.8161810347e-01	 1.5565259954e+00
 1.5700012019e+00	 5.9625964575e-01	 1.4764018115e+00
 1.5643709830e+00	 6.1087864331e-01	 1.3935085756e+00
 1.5585932203e+00	 6.2547296241e-01	 1.3073744346e+00
 1.5526678463e+00	 6.4004045933e-01	 1.2185714006e+00
 1.5465948336e+00	 6.5457898121e-01	 1.1276609296e+00
 1.5403741951e+00	 6.6908636699e-01	 1.0351920941e+00
 1.5340059846e+00	 6.8356044832e-01	 9.4169990873e-01
 1.5274902969e+00	 6.9799905045e-01	 8.4770382114e-01
 1.5208272683e+00	 7.1239999324e-01	 7.5370638103e-01
 1.5140170769e+00	 7.2676109208e-01	 6.6019209825e-01
 1.5837622807e+00	 5.8467418477e-01	 1.5431660451e+00
 1.5782506895e+00	 5.9939266026e-01	 1.4629056125e+00
 1.5725908869e+00	 6.1408847256e-01	 1.3793906882e+00
 1.5667827652e+00	 6.2875947673e-01	 1.2928766410e+00
 1.5608262567e+00	 6.4340351778e-01	 1.2039075092e+00
 1.5547213337e+00	 6.5801843155e-01	 1.1130156820e+00
 1.5484680092e+00	 6.7260204562e-01	 1.0207200595e+00
 1.5420663372e+00	 6.8715218024e-01	 9.2752437150e-01
 1.5355164132e+00	 7.0166664924e-01	 8.3391567034e-01
 1.5288183741e+00	 7.1614326101e-01	 7.4036300784e-01
 1.5219723988e+00	 7.3057981947e-01	 6.4731631024e-01
 1.5920405398e+00	 5.8773025222e-01	 1.5295914127e+00
 1.5865001397e+00	 6.0252566056e-01	 1.4487528798e+00
 1.5808107535e+00	 6.1729828726e-01	 1.3646710295e+00
 1.5749722730e+00	 6.3204597615e-01	 1.2778591268e+00
 1.5689846301e+00	 6.4676656100e-01	 1.1888250745e+00
 1.5628477969e+00	 6.6145786631e-01	 1.0980641070e+00
 1.5565617865e+00	 6.7611770832e-01	 1.0060569481e+00
 1.5501266533e+00	 6.9074389587e-01	 9.1326813532e-01
 1.5435424931e+00	 7.0533423139e-01	 8.2014452523e-01
 1.5368094436e+00	 7.1988651181e-01	 7.2711399107e-01
 1.5299276848e+00	 7.3439852956e-01	 6.3458432625e-01
 1.6003187566e+00	 5.9078630409e-01	 1.5155474248e+00
 1.5947495478e+00	 6.0565864489e-01	 1.4338456786e+00
 1.5890305782e+00	 6.2050808558e-01	 1.3492372113e+00
 1.5831617391e+00	 6.3533245882e-01	 1.2621974058e+00
 1.5771429619e+00	 6.5012958706e-01	 1.1731900195e+00
 1.5709742187e+00	 6.6489728352e-01	 1.0826651928e+00
 1.5646555226e+00	 6.7963335308e-01	 9.9105761669e-01
 1.5581869283e+00	 6.9433559319e-01	 8.9878487409e-01
 1.5515685321e+00	 7.0900179485e-01	 8.0624596868e-01
 1.5448004724e+00	 7.2362974352e-01	 7.1382005521e-01
 1.5378829301e+00	 7.3821722017e-01	 6.2186538322e-01
 1.4583291918e+00	 7.0002969732e-01	 7.6592040420e-01
 1.4516291026e+00	 7.1381974571e-01	 6.7002143106e-01
 1.4447877749e+00	 7.2756721209e-01	 5.7507172619e-01
 1.4378055012e+00	 7.4126998530e-01	 4.8110834098e-01
 1.4306826148e+00	 7.5492595365e-01	 3.8814339938e-01
 1.4234194906e+00	 7.6853300592e-01	 2.9616441802e-01
 1.4160165444e+00	 7.8208903234e-01	 2.0513482580e-01
 1.4084742337e+00	 7.9559192559e-01	 1.1499468457e-01
 1.4007930576e+00	 8.0903958181e-01	 2.5661611573e-02
 1.3929735565e+00	 8.2242990157e-01	-6.2968097237e-02
 1.3850163128e+00	 8.3576079094e-01	-1.5101814492e-01
 1.4662846400e+00	 7.0384848532e-01	 7.4814011858e-01
 1.4595480006e+00	 7.1771376089e-01	 6.5284801422e-01
 1.4526693522e+00	 7.3153622218e-01	 5.5860393941e-01
 1.4456489890e+00	 7.4531374649e-01	 4.6540007012e-01
 1.4384872460e+00	 7.5904421060e-01	 3.7320340667e-01
 1.4311845001e+00	 7.7272549179e-01	 2.8195617167e-01
 1.4237411695e+00	 7.8635546877e-01	 1.9157641458e-01
 1.4161577141e+00	 7.9993202274e-01	 1.0195882451e-01
 1.4084346358e+00	 8.1345303834e-01	 1.2975751764e-02
 1.4005724780e+00	 8.2691640471e-01	-7.5521562623e-02
 1.3925718260e+00	 8.4032001648e-01	-1.6370155166e-01
 1.4742400837e+00	 7.0766727115e-01	 7.3149872396e-01
 1.4674668941e+00	 7.2160777388e-01	 6.3675429297e-01
 1.4605509251e+00	 7.3550523002e-01	 5.4313541554e-01
 1.4534924723e+00	 7.4935750538e-01	 4.5059894905e-01
 1.4462918727e+00	 7.6316246522e-01	 3.5907622882e-01
 1.4389495052e+00	 7.7691797528e-01	 2.6847353039e-01
 1.4314657902e+00	 7.9062190279e-01	 1.7867274573e-01
 1.4238411902e+00	 8.0427211742e-01	 8.9532275037e-02
 1.4160762097e+00	 8.1786649237e-01	 8.8813457370e-04
 1.4081713952e+00	 8.3140290530e-01	-8.7444720341e-02
 1.4001273350e+00	 8.4487923943e-01	-1.7567085946e-01
 1.4821955184e+00	 7.1148605264e-01	 7.1584506201e-01
 1.4753857787e+00	 7.2550178244e-01	 6.2160026885e-01
 1.4684324891e+00	 7.3947423337e-01	 5.2853562030e-01
 1.4613359468e+00	 7.5340125969e-01	 4.3658206668e-01
 1.4540964906e+00	 7.6728071517e-01	 3.4564459125e-01
 1.4467145015e+00	 7.8111045402e-01	 2.5560272354e-01
 1.4391904022e+00	 7.9488833197e-01	 1.6631127397e-01
 1.4315246576e+00	 8.0861220719e-01	 7.7601291637e-02
 1.4237177750e+00	 8.2227994140e-01	-1.0718754305e-02
 1.4157703037e+00	 8.3588940081e-01	-9.8861570716e-02
 1.4076828354e+00	 8.4943845722e-01	-1.8705941621e-01
 1.4901509396e+00	 7.1530482765e-01	 7.0103108715e-01
 1.4833046498e+00	 7.2939578439e-01	 6.0724880953e-01
 1.4763140396e+00	 7.4344322996e-01	 5.1467667924e-01
 1.4691794079e+00	 7.5744500713e-01	 4.2322900903e-01
 1.4619010953e+00	 7.7139895812e-01	 3.3279360075e-01
 1.4544794846e+00	 7.8530292564e-01	 2.4323229631e-01
 1.4469150010e+00	 7.9915475390e-01	 1.5438175773e-01
 1.4392081119e+00	 8.1295228958e-01	 6.6054477988e-02
 1.4313593273e+00	 8.2669338292e-01	-2.1959976742e-02
 1.4233691993e+00	 8.4037588869e-01	-1.0989349455e-01
 1.4152383230e+00	 8.5399766725e-01	-1.9799771729e-01
 1.4981063427e+00	 7.1912359400e-01	 6.8691179845e-01
 1.4912235029e+00	 7.3328977751e-01	 5.9356558744e-01
 1.4841955723e+00	 7.4741221756e-01	 5.0143332210e-01
 1.4770228512e+00	 7.6148874540e-01	 4.1042180841e-01
 1.4697056822e+00	 7.7551719173e-01	 3.2041069828e-01
 1.4622444501e+00	 7.8949538775e-01	 2.3125306498e-01
 1.4546395824e+00	 8.0342116615e-01	 1.4277621560e-01
 1.4468915489e+00	 8.1729236213e-01	 5.4782742245e-02
 1.4390008622e+00	 8.3110681444e-01	-3.2948187467e-02
 1.4309680777e+00	 8.4486236640e-01	-1.2065930150e-01
 1.4227937935e+00	 8.5855686695e-01	-2.0861345869e-01
 1.5060617233e+00	 7.2294234953e-01	 6.7334517267e-01
 1.4991423336e+00	 7.3718375960e-01	 5.8041901923e-01
 1.4920770827e+00	 7.5138119391e-01	 4.8868282784e-01
 1.4848662724e+00	 7.6553247221e-01	 3.9804489299e-01
 1.4775102470e+00	 7.7963541367e-01	 3.0838561207e-01
 1.4700093936e+00	 7.9368783798e-01	 2.1955807238e-01
 1.4623641418e+00	 8.0768756632e-01	 1.3138888299e-01
 1.4545749640e+00	 8.2163242239e-01	 4.3679253591e-02
 1.4466423755e+00	 8.3552023346e-01	-4.3793679040e-02
 1.4385669346e+00	 8.4934883140e-01	-1.3127527806e-01
 1.4303492425e+00	 8.6311605373e-01	-2.1903158940e-01
 1.5140170769e+00	 7.2676109208e-01	 6.6019209825e-01
 1.5070611374e+00	 7.4107772844e-01	 5.6768020601e-01
 1.4999585662e+00	 7.5535015677e-01	 4.7630497031e-01
 1.4927096668e+00	 7.6957618527e-01	 3.8598503688e-01
 1.4853147853e+00	 7.8375362161e-01	 2.9661031116e-01
 1.4777743108e+00	 7.9788027396e-01	 2.0804254376e-01
 1.4700886750e+00	 8.1195395198e-01	 1.2011616904e-01
 1.4622583530e+00	 8.2597246788e-01	 3.2639399043e-02
 1.4542838628e+00	 8.3993363747e-01	-5.4604426504e-02
 1.4461657657e+00	 8.5383528115e-01	-1.4185523503e-01
 1.4379046659e+00	 8.6767522501e-01	-2.2937436336e-01
 1.5219723988e+00	 7.3057981947e-01	 6.4731631024e-01
 1.5149799098e+00	 7.4497168184e-01	 5.5522287438e-01
 1.5078400185e+00	 7.5931910388e-01	 4.6418196443e-01
 1.5005530302e+00	 7.7361988229e-01	 3.7413131067e-01
 1.4931192927e+00	 7.8787181322e-01	 2.8497895917e-01
 1.4855391971e+00	 8.0207269330e-01	 1.9660384283e-01
 1.4778131775e+00	 8.1622032071e-01	 1.0885661388e-01
 1.4699417115e+00	 8.3031249616e-01	 2.1560740519e-02
 1.4619253198e+00	 8.4434702397e-01	-6.5486131729e-02
 1.4537645665e+00	 8.5832171309e-01	-1.5251055469e-01
 1.4454600592e+00	 8.7223437821e-01	-2.3976139077e-01
 1.5299276848e+00	 7.3439852956e-01	 6.3458432625e-01
 1.5228986463e+00	 7.4886561759e-01	 5.4292331820e-01
 1.5157214351e+00	 7.6328803300e-01	 4.5219841303e-01
 1.5083963579e+00	 7.7766356098e-01	 3.6237503240e-01
 1.5009237646e+00	 7.9198998615e-01	 2.7338786856e-01
 1.4933040482e+00	 8.0626509364e-01	 1.8514142811e-01
 1.4855376451e+00	 8.2048667011e-01	 9.7510845951e-02
 1.4776250352e+00	 8.3465250477e-01	 1.0342972137e-02
 1.4695667422e+00	 8.4876039046e-01	-7.6542267469e-02
 1.4613633330e+00	 8.6280812470e-01	-1.6335023753e-01
 1.4530154184e+00	 8.7679351073e-01	-2.5030968894e-01
 1.5378829301e+00	 7.3821722017e-01	 6.2186538322e-01
 1.5308173424e+00	 7.5275953348e-01	 5.3066034103e-01
 1.5236028115e+00	 7.6725694188e-01	 4.4024125419e-01
 1.5162396457e+00	 7.8170721905e-01	 3.5060971892e-01
 1.5087281967e+00	 7.9610813808e-01	 2.6173545502e-01
 1.5010688597e+00	 8.1045747260e-01	 1.7355680954e-01
 1.4932620732e+00	 8.2475299774e-01	 8.5981539705e-02
 1.4853083198e+00	 8.3899249124e-01	-1.1121222368e-03
 1.4772081256e+00	 8.5317373444e-01	-8.7874121127e-02
 1.4689620607e+00	 8.6729451342e-01	-1.7448094856e-01
 1.4605707390e+00	 8.8135262000e-01	-2.6113373251e-01
 1.3850163128e+00	 8.3576079094e-01	-1.5101814492e-01
 1.3769219503e+00	 8.4903016271e-01	-2.3806863388e-01
 1.3686911360e+00	 8.6223593826e-01	-3.2363974236e-01
 1.3603245785e+00	 8.7537604779e-01	-4.0778368870e-01
 1.3518230280e+00	 8.8844843109e-01	-4.9055674075e-01
 1.3431872755e+00	 9.0145103856e-01	-5.7201699168e-01
 1.3344181533e+00	 9.1438183224e-01	-6.5222198881e-01
 1.3255165345e+00	 9.2723878678e-01	-7.3122622654e-01
 1.3164833328e+00	 9.4001989051e-01	-8.0907851565e-01
 1.3073195021e+00	 9.5272314644e-01	-8.8581924257e-01
 1.2980260367e+00	 9.6534657321e-01	-9.6147753304e-01
 1.3925718260e+00	 8.4032001648e-01	-1.6370155166e-01
 1.3844333073e+00	 8.5366177506e-01	-2.5111386004e-01
 1.3761575925e+00	 8.6693959049e-01	-3.3717039072e-01
 1.3677453940e+00	 8.8015138169e-01	-4.2185216511e-01
 1.3591974659e+00	 8.9329507719e-01	-5.0514577310e-01
 1.3505146039e+00	 9.0636861623e-01	-5.8704118472e-01
 1.3416976445e+00	 9.1936994971e-01	-6.6752940757e-01
 1.3327474658e+00	 9.3229704125e-01	-7.4660000151e-01
 1.3236649863e+00	 9.4514786821e-01	-8.2423846306e-01
 1.3144511653e+00	 9.5792042268e-01	-9.0042349317e-01
 1.3051070023e+00	 9.7061271251e-01	-9.7512416326e-01
 1.4001273350e+00	 8.4487923943e-01	-1.7567085946e-01
 1.3919446601e+00	 8.5829338479e-01	-2.6332186393e-01
 1.3836240447e+00	 8.7164324006e-01	-3.4972707129e-01
 1.3751662052e+00	 8.8492671287e-01	-4.3480777722e-01
 1.3665718997e+00	 8.9814172054e-01	-5.1849228650e-01
 1.3578419280e+00	 9.1128619110e-01	-6.0071374247e-01
 1.3489771316e+00	 9.2435806435e-01	-6.8140779517e-01
 1.3399783930e+00	 9.3735529285e-01	-7.6051011966e-01
 1.3308466358e+00	 9.5027584299e-01	-8.3795379723e-01
 1.3215828244e+00	 9.6311769597e-01	-9.1366657346e-01
 1.3121879639e+00	 9.7587884883e-01	-9.8756800821e-01
 1.4076828354e+00	 8.4943845722e-01	-1.8705941621e-01
 1.3994560044e+00	 8.6292498926e-01	-2.7483576330e-01
 1.3910904885e+00	 8.7634688430e-01	-3.6146043846e-01
 1.3825870080e+00	 8.8970203865e-01	-4.4680630512e-01
 1.3739463250e+00	 9.0298835840e-01	-5.3075459995e-01
 1.3651692439e+00	 9.1620376040e-01	-6.1319276251e-01
 1.3562566104e+00	 9.2934617334e-01	-6.9401209617e-01
 1.3472093120e+00	 9.4241353872e-01	-7.7310527207e-01
 1.3380282771e+00	 9.5540381196e-01	-8.5036368898e-01
 1.3287144755e+00	 9.6831496337e-01	-9.2567470341e-01
 1.3192689176e+00	 9.8114497918e-01	-9.9891874537e-01
 1.4152383230e+00	 8.5399766725e-01	-1.9799771729e-01
 1.4069673359e+00	 8.6755658586e-01	-2.8579557674e-01
 1.3985569196e+00	 8.8105052053e-01	-3.7251784408e-01
 1.3900077981e+00	 8.9447735630e-01	-4.5800007015e-01
 1.3813207379e+00	 9.0783498802e-01	-5.4208746883e-01
 1.3724965473e+00	 9.2112132134e-01	-6.2463272923e-01
 1.3635360769e+00	 9.3433427384e-01	-7.0549365175e-01
 1.3544402186e+00	 9.4747177599e-01	-7.8453061960e-01
 1.3452099062e+00	 9.6053177222e-01	-8.6160391937e-01
 1.3358461144e+00	 9.7351222194e-01	-9.3657092500e-01
 1.3263498591e+00	 9.8641110058e-01	-1.0092831612e+00
 1.4227937935e+00	 8.5855686695e-01	-2.0861345869e-01
 1.4144786504e+00	 8.7218817196e-01	-2.9633828164e-01
 1.4060233338e+00	 8.8575414611e-01	-3.8304339893e-01
 1.3974285715e+00	 8.9925266314e-01	-4.6853799861e-01
 1.3886951340e+00	 9.1268160665e-01	-5.5264214926e-01
 1.3798238342e+00	 9.2603887114e-01	-6.3518457734e-01
 1.3708155268e+00	 9.3932236304e-01	-7.1600026057e-01
 1.3616711089e+00	 9.5253000179e-01	-7.9492784932e-01
 1.3523915190e+00	 9.6565972085e-01	-8.7180692979e-01
 1.3429777372e+00	 9.7870946872e-01	-9.4647514396e-01
 1.3334307847e+00	 9.9167721004e-01	-1.0187651824e+00
 1.4303492425e+00	 8.6311605373e-01	-2.1903158940e-01
 1.4219899437e+00	 8.7681974494e-01	-3.0659787138e-01
 1.4134897268e+00	 8.9045775835e-01	-3.9317803342e-01
 1.4048493238e+00	 9.0402795644e-01	-4.7856568452e-01
 1.3960695093e+00	 9.1752821154e-01	-5.6256646155e-01
 1.3871511002e+00	 9.3095640699e-01	-6.4499575432e-01
 1.3780949562e+00	 9.4431043811e-01	-7.2567623867e-01
 1.3689019787e+00	 9.5758821326e-01	-8.0443523003e-01
 1.3595731115e+00	 9.7078765495e-01	-8.8110187137e-01
 1.3501093398e+00	 9.8390670078e-01	-9.5550417109e-01
 1.3405116901e+00	 9.9694330458e-01	-1.0274659073e+00
 1.4379046659e+00	 8.6767522501e-01	-2.2937436336e-01
 1.4295012113e+00	 8.8145130217e-01	-3.1670541179e-01
 1.4209560945e+00	 8.9516135461e-01	-4.0305955730e-01
 1.4122700509e+00	 9.0880323350e-01	-4.8822545138e-01
 1.4034438594e+00	 9.2237479996e-01	-5.7200485255e-01
 1.3944783414e+00	 9.3587392613e-01	-6.5421028189e-01
 1.3853743607e+00	 9.4929849621e-01	-7.3466247842e-01
 1.3761328239e+00	 9.6264640754e-01	-8.1318766708e-01
 1.3667546796e+00	 9.7591557161e-01	-8.8961465375e-01
 1.3572409181e+00	 9.8910391517e-01	-9.6377176313e-01
 1.3475925715e+00	 1.0022093812e+00	-1.0354836366e+00
 1.4454600592e+00	 8.7223437821e-01	-2.3976139077e-01
 1.4370124492e+00	 8.8608284102e-01	-3.2678909687e-01
 1.4284224325e+00	 8.9986493220e-01	-4.1282271870e-01
 1.4196907486e+00	 9.1357849162e-01	-4.9765641312e-01
 1.4108181803e+00	 9.2722136915e-01	-5.8109845711e-01
 1.4018055534e+00	 9.4079142576e-01	-6.6296881659e-01
 1.3926537364e+00	 9.5428653453e-01	-7.4309650662e-01
 1.3833636405e+00	 9.6770458174e-01	-8.2131675633e-01
 1.3739362191e+00	 9.8104346793e-01	-8.9746799322e-01
 1.3643724681e+00	 9.9430110894e-01	-9.7138866329e-01
 1.3546734248e+00	 1.0074754370e+00	-1.0429139046e+00
 1.4530154184e+00	 8.7679351073e-01	-2.5030968894e-01
 1.4445236530e+00	 8.9071435888e-01	-3.3697430387e-01
 1.4358887366e+00	 9.0456848847e-01	-4.2259926223e-01
 1.4271114126e+00	 9.1835372809e-01	-5.0699453406e-01
 1.4181924678e+00	 9.3206791637e-01	-5.8998515865e-01
 1.4091327323e+00	 9.4570890310e-01	-6.7140870940e-01
 1.3999330791e+00	 9.5927455024e-01	-7.5111254175e-01
 1.3905944242e+00	 9.7276273302e-01	-8.2895083738e-01
 1.3811177262e+00	 9.8617134101e-01	-9.0478146027e-01
 1.3715039858e+00	 9.9949827915e-01	-9.7846264129e-01
 1.3617542460e+00	 1.0127414688e+00	-1.0498495096e+00
 1.4605707390e+00	 8.8135262000e-01	-2.6113373251e-01
 1.4520348186e+00	 8.9534585312e-01	-3.4738364766e-01
 1.4433550027e+00	 9.0927202075e-01	-4.3251798635e-01
 1.4345320388e+00	 9.2312894020e-01	-5.1637268810e-01
 1.4255667177e+00	 9.3691443887e-01	-5.9879964873e-01
 1.4164598738e+00	 9.5062635536e-01	-6.7966406452e-01
 1.4072123847e+00	 9.6426254050e-01	-7.5884155037e-01
 1.3978251711e+00	 9.7782085850e-01	-8.3621504610e-01
 1.3882991966e+00	 9.9129918793e-01	-9.1167152658e-01
 1.3786354671e+00	 1.0046954228e+00	-9.8509853312e-01
 1.3688350311e+00	 1.0180074738e+00	-1.0563805451e+00
 1.2980260367e+00	 9.6534657321e-01	-9.6147753304e-01
 1.2886023584e+00	 9.7789033010e-01	-1.0356725790e+00
 1.2790511146e+00	 9.9035031019e-01	-1.1079643690e+00
 1.2693734235e+00	 1.0027245769e+00	-1.1783153396e+00
 1.2595704421e+00	 1.0150112134e+00	-1.2466774653e+00
 1.2496433655e+00	 1.0272083231e+00	-1.3129891791e+00
 1.2395934267e+00	 1.0393140312e+00	-1.3771722848e+00
 1.2294218961e+00	 1.0513264853e+00	-1.4391288831e+00
 1.2191300806e+00	 1.0632438564e+00	-1.4987383291e+00
 1.2087193237e+00	 1.0750643396e+00	-1.5558542445e+00
 1.1981910043e+00	 1.0867861555e+00	-1.6103016026e+00
 1.3051070023e+00	 9.7061271251e-01	-9.7512416326e-01
 1.2956319162e+00	 9.8322489786e-01	-1.0480085169e+00
 1.2860285686e+00	 9.9575284938e-01	-1.1188152078e+00
 1.2762980840e+00	 1.0081946200e+00	-1.1876402116e+00
 1.2664416255e+00	 1.0205482822e+00	-1.2545664644e+00
 1.2564603950e+00	 1.0328119294e+00	-1.3196604735e+00
 1.2463556320e+00	 1.0449836763e+00	-1.3829689216e+00
 1.2361286138e+00	 1.0570616605e+00	-1.4445152861e+00
 1.2257806546e+00	 1.0690440430e+00	-1.5042964943e+00
 1.2153131052e+00	 1.0809290091e+00	-1.5622796347e+00
 1.2047273518e+00	 1.0927147695e+00	-1.6183987493e+00
 1.3121879639e+00	 9.7587884883e-01	-9.8756800821e-01
 1.3026614700e+00	 9.8855946259e-01	-1.0593520860e+00
 1.2930060187e+00	 1.0011553855e+00	-1.1288930430e+00
 1.2832227406e+00	 1.0136646599e+00	-1.1964007379e+00
 1.2733128051e+00	 1.0260853479e+00	-1.2620695746e+00
 1.2632774206e+00	 1.0384155325e+00	-1.3260748283e+00
 1.2531178334e+00	 1.0506533182e+00	-1.3885689648e+00
 1.2428353277e+00	 1.0627968325e+00	-1.4496779766e+00
 1.2324312249e+00	 1.0748442263e+00	-1.5094977575e+00
 1.2219068829e+00	 1.0867936752e+00	-1.5680905380e+00
 1.2112636957e+00	 1.0986433803e+00	-1.6254814053e+00
 1.3192689176e+00	 9.8114497918e-01	-9.9891874537e-01
 1.3096910158e+00	 9.9389402128e-01	-1.0697959202e+00
 1.2999834609e+00	 1.0065579155e+00	-1.1382763880e+00
 1.2901473893e+00	 1.0191346937e+00	-1.2046645635e+00
 1.2801839769e+00	 1.0316224074e+00	-1.2692471540e+00
 1.2700944385e+00	 1.0440191292e+00	-1.3322892231e+00
 1.2598800271e+00	 1.0563229537e+00	-1.3940302483e+00
 1.2495420340e+00	 1.0685319979e+00	-1.4546801975e+00
 1.2390817876e+00	 1.0806444031e+00	-1.5144156458e+00
 1.2285006531e+00	 1.0926583347e+00	-1.5733759566e+00
 1.2178000322e+00	 1.1045719843e+00	-1.6316595519e+00
 1.3263498591e+00	 9.8641110058e-01	-1.0092831612e+00
 1.3167205497e+00	 9.9922857089e-01	-1.0794300592e+00
 1.3069608912e+00	 1.0119604363e+00	-1.1470413954e+00
 1.2970720262e+00	 1.0246047181e+00	-1.2124971373e+00
 1.2870551370e+00	 1.0371594574e+00	-1.2761574529e+00
 1.2769114448e+00	 1.0496227165e+00	-1.3383585350e+00
 1.2666422094e+00	 1.0619925795e+00	-1.3994084202e+00
 1.2562487290e+00	 1.0742671536e+00	-1.4595828281e+00
 1.2457323390e+00	 1.0864445699e+00	-1.5191210426e+00
 1.2350944122e+00	 1.0985229842e+00	-1.5782218614e+00
 1.2243363575e+00	 1.1105005782e+00	-1.6370396378e+00
 1.3334307847e+00	 9.9167721004e-01	-1.0187651824e+00
 1.3237500677e+00	 1.0045631084e+00	-1.0883419691e+00
 1.3139383057e+00	 1.0173629449e+00	-1.1552618685e+00
 1.3039966475e+00	 1.0300747301e+00	-1.2199617155e+00
 1.2939262815e+00	 1.0426964949e+00	-1.2828566118e+00
 1.2837284356e+00	 1.0552262910e+00	-1.3443355341e+00
 1.2734043763e+00	 1.0676621925e+00	-1.4047569377e+00
 1.2629554087e+00	 1.0800022963e+00	-1.4644443796e+00
 1.2523828753e+00	 1.0922447237e+00	-1.5236821877e+00
 1.2416881563e+00	 1.1043876205e+00	-1.5827111992e+00
 1.2308726681e+00	 1.1164291587e+00	-1.6417245964e+00
 1.3405116901e+00	 9.9694330458e-01	-1.0274659073e+00
 1.3307795657e+00	 1.0098976308e+00	-1.0966165624e+00
 1.3209157004e+00	 1.0227654382e+00	-1.1630092733e+00
 1.3109212491e+00	 1.0355447267e+00	-1.2271193668e+00
 1.3007974066e+00	 1.0482335167e+00	-1.2893986609e+00
 1.2905454071e+00	 1.0608298497e+00	-1.3502708794e+00
 1.2801665241e+00	 1.0733317894e+00	-1.4101270612e+00
 1.2696620694e+00	 1.0857374228e+00	-1.4693209913e+00
 1.2590333928e+00	 1.0980448610e+00	-1.5281646771e+00
 1.2482818817e+00	 1.1102522401e+00	-1.5869238994e+00
 1.2374089601e+00	 1.1223577224e+00	-1.6458138617e+00
 1.3475925715e+00	 1.0022093812e+00	-1.0354836366e+00
 1.3378090399e+00	 1.0152321351e+00	-1.1043362200e+00
 1.3278930714e+00	 1.0281679131e+00	-1.1703527506e+00
 1.3178458272e+00	 1.0410147046e+00	-1.2340289770e+00
 1.3076685083e+00	 1.0537705196e+00	-1.2958355200e+00
 1.2973623555e+00	 1.0664333893e+00	-1.3562131152e+00
 1.2869286489e+00	 1.0790013670e+00	-1.4155678511e+00
 1.2763687073e+00	 1.0914725297e+00	-1.4742664278e+00
 1.2656838877e+00	 1.1038449785e+00	-1.5326314644e+00
 1.2548755847e+00	 1.1161168398e+00	-1.5909368815e+00
 1.2439452299e+00	 1.1282862659e+00	-1.6494033857e+00
 1.3546734248e+00	 1.0074754370e+00	-1.0429139046e+00
 1.3448384861e+00	 1.0205666182e+00	-1.1115808111e+00
 1.3348704148e+00	 1.0335703665e+00	-1.1773591282e+00
 1.3247703778e+00	 1.0464846609e+00	-1.2407472552e+00
 1.3145395827e+00	 1.0593075006e+00	-1.3022169992e+00
 1.3041792768e+00	 1.0720369066e+00	-1.3622086693e+00
 1.2936907468e+00	 1.0846709222e+00	-1.4211261631e+00
 1.2830753186e+00	 1.0972076139e+00	-1.4793320765e+00
 1.2723343562e+00	 1.1096450731e+00	-1.5371428617e+00
 1.2614692615e+00	 1.1219814162e+00	-1.5948240624e+00
 1.2504814738e+00	 1.1342147859e+00	-1.6525856544e+00
 1.3617542460e+00	 1.0127414688e+00	-1.0498495096e+00
 1.3518679005e+00	 1.0259010771e+00	-1.1184277152e+00
 1.3418477265e+00	 1.0389727955e+00	-1.1840929346e+00
 1.3316948970e+00	 1.0519545923e+00	-1.2473287396e+00
 1.3214106260e+00	 1.0648444565e+00	-1.3085908002e+00
 1.3109961672e+00	 1.0776403986e+00	-1.3683018504e+00
 1.3004528141e+00	 1.0903404516e+00	-1.4268466463e+00
 1.2897818995e+00	 1.1029426721e+00	-1.4845669464e+00
 1.2789847945e+00	 1.1154451414e+00	-1.5417565418e+00
 1.2680629085e+00	 1.1278459660e+00	-1.5986563644e+00
 1.2570176880e+00	 1.1401432791e+00	-1.6554497043e+00
 1.3688350311e+00	 1.0180074738e+00	-1.0563805451e+00
 1.3588972790e+00	 1.0312355088e+00	-1.1249518431e+00
 1.3488250026e+00	 1.0443751969e+00	-1.1906164116e+00
 1.3386193810e+00	 1.0574244959e+00	-1.2538258047e+00
 1.3282816342e+00	 1.0703813842e+00	-1.3150025182e+00
 1.3178130228e+00	 1.0832438620e+00	-1.3745348479e+00
 1.3072148469e+00	 1.0960099521e+00	-1.4327717408e+00
 1.2964884462e+00	 1.1086777011e+00	-1.4900176665e+00
 1.2856351989e+00	 1.1212451801e+00	-1.5465275400e+00
 1.2746565218e+00	 1.1337104859e+00	-1.6025017236e+00
 1.2635538689e+00	 1.1460717420e+00	-1.6580811392e+00
 1.1981910043e+00	 1.0867861555e+00	-1.6103016026e+00
 1.1875483523e+00	 1.0984055869e+00	-1.6599324915e+00
 1.1767910203e+00	 1.1099229249e+00	-1.7018587873e+00
 1.1659204706e+00	 1.1213364906e+00	-1.7410090173e+00
 1.1549381990e+00	 1.1326446337e+00	-1.7826358788e+00
 1.1438457334e+00	 1.1438457334e+00	-1.8247978183e+00
 1.1326446337e+00	 1.1549381990e+00	-1.8655220593e+00
 1.1213364906e+00	 1.1659204706e+00	-1.9028168672e+00
 1.1099229249e+00	 1.1767910203e+00	-1.9346820614e+00
 1.0984055869e+00	 1.1875483523e+00	-1.9633893897e+00
 1.0867861555e+00	 1.1981910043e+00	-1.9914051587e+00
 1.2047273518e+00	 1.0927147695e+00	-1.6183987493e+00
 1.1940266423e+00	 1.1043975870e+00	-1.6705176391e+00
 1.1832106271e+00	 1.1159777542e+00	-1.7155913834e+00
 1.1722807766e+00	 1.1274535830e+00	-1.7530951530e+00
 1.1612385947e+00	 1.1388234141e+00	-1.7911653050e+00
 1.1500856178e+00	 1.1500856178e+00	-1.8302458815e+00
 1.1388234141e+00	 1.1612385947e+00	-1.8681901451e+00
 1.1274535830e+00	 1.1722807766e+00	-1.9028320861e+00
 1.1159777542e+00	 1.1832106271e+00	-1.9334558190e+00
 1.1043975870e+00	 1.1940266423e+00	-1.9639677874e+00
 1.0927147695e+00	 1.2047273518e+00	-1.9936625398e+00
 1.2112636957e+00	 1.0986433803e+00	-1.6254814053e+00
 1.2005049287e+00	 1.1103895838e+00	-1.6795630644e+00
 1.1896302303e+00	 1.1220325801e+00	-1.7271805538e+00
 1.1786410790e+00	 1.1335706719e+00	-1.7666935769e+00
 1.1675389869e+00	 1.1450021909e+00	-1.8007433858e+00
 1.1563254986e+00	 1.1563254986e+00	-1.8360343406e+00
 1.1450021909e+00	 1.1675389869e+00	-1.8705225478e+00
 1.1335706719e+00	 1.1786410790e+00	-1.9020290427e+00
 1.1220325801e+00	 1.1896302303e+00	-1.9332383799e+00
 1.1103895838e+00	 1.2005049287e+00	-1.9650146073e+00
 1.0986433803e+00	 1.2112636957e+00	-1.9959804467e+00
 1.2178000322e+00	 1.1045719843e+00	-1.6316595519e+00
 1.2069832077e+00	 1.1163815738e+00	-1.6872017634e+00
 1.1960498262e+00	 1.1280873991e+00	-1.7367804055e+00
 1.1850013742e+00	 1.1396877539e+00	-1.7786591508e+00
 1.1738393719e+00	 1.1511809607e+00	-1.8114313460e+00
 1.1625653723e+00	 1.1625653723e+00	-1.8422417518e+00
 1.1511809607e+00	 1.1738393719e+00	-1.8726118438e+00
 1.1396877539e+00	 1.1850013742e+00	-1.9021896235e+00
 1.1280873991e+00	 1.1960498262e+00	-1.9338902416e+00
 1.1163815738e+00	 1.2069832077e+00	-1.9663877175e+00
 1.1045719843e+00	 1.2178000322e+00	-1.9982087049e+00
 1.2243363575e+00	 1.1105005782e+00	-1.6370396378e+00
 1.2134614756e+00	 1.1223735536e+00	-1.6935626594e+00
 1.2024694112e+00	 1.1341422079e+00	-1.7445404775e+00
 1.1913616586e+00	 1.1458048255e+00	-1.7881666167e+00
 1.1801397462e+00	 1.1573597201e+00	-1.8225843237e+00
 1.1688052355e+00	 1.1688052355e+00	-1.8489376332e+00
 1.1573597201e+00	 1.1801397462e+00	-1.8748919416e+00
 1.1458048255e+00	 1.1913616586e+00	-1.9037199818e+00
 1.1341422079e+00	 1.2024694112e+00	-1.9352682503e+00
 1.1223735536e+00	 1.2134614756e+00	-1.9679414698e+00
 1.1105005782e+00	 1.2243363575e+00	-2.0001938658e+00
 1.2308726681e+00	 1.1164291587e+00	-1.6417245964e+00
 1.2199397289e+00	 1.1283655198e+00	-1.6987706307e+00
 1.2088889816e+00	 1.1401970029e+00	-1.7506057792e+00
 1.1977219286e+00	 1.1519218832e+00	-1.7953789107e+00
 1.1864401063e+00	 1.1635384654e+00	-1.8311869395e+00
 1.1750450845e+00	 1.1750450845e+00	-1.8561823333e+00
 1.1635384654e+00	 1.1864401063e+00	-1.8789086585e+00
 1.1519218832e+00	 1.1977219286e+00	-1.9064711106e+00
 1.1401970029e+00	 1.2088889816e+00	-1.9372258547e+00
 1.1283655198e+00	 1.2199397289e+00	-1.9695269488e+00
 1.1164291587e+00	 1.2308726681e+00	-2.0017794467e+00
 1.2374089601e+00	 1.1223577224e+00	-1.6458138617e+00
 1.2264179639e+00	 1.1343574691e+00	-1.7029465378e+00
 1.2153085339e+00	 1.1462517807e+00	-1.7551168265e+00
 1.2040821805e+00	 1.1580389236e+00	-1.8004540520e+00
 1.1927404485e+00	 1.1697171932e+00	-1.8370337247e+00
 1.1812849158e+00	 1.1812849158e+00	-1.8634087008e+00
 1.1697171932e+00	 1.1927404485e+00	-1.8846980369e+00
 1.1580389236e+00	 1.2040821805e+00	-1.9102908242e+00
 1.1462517807e+00	 1.2153085339e+00	-1.9396133589e+00
 1.1343574691e+00	 1.2264179639e+00	-1.9709922199e+00
 1.1223577224e+00	 1.2374089601e+00	-2.0028061708e+00
 1.2439452299e+00	 1.1282862659e+00	-1.6494033857e+00
 1.2328961768e+00	 1.1403493979e+00	-1.7062072502e+00
 1.2217280643e+00	 1.1523065380e+00	-1.7582096781e+00
 1.2104424109e+00	 1.1641559431e+00	-1.8035451877e+00
 1.1990407692e+00	 1.1758959000e+00	-1.8402924418e+00
 1.1875247259e+00	 1.1875247259e+00	-1.8691904323e+00
 1.1758959000e+00	 1.1990407692e+00	-1.8920981764e+00
 1.1641559431e+00	 1.2104424109e+00	-1.9150240113e+00
 1.1523065380e+00	 1.2217280643e+00	-1.9422781725e+00
 1.1403493979e+00	 1.2328961768e+00	-1.9721825741e+00
 1.1282862659e+00	 1.2439452299e+00	-2.0031122045e+00
 1.2504814738e+00	 1.1342147859e+00	-1.6525856544e+00
 1.2393743640e+00	 1.1463413030e+00	-1.7086656731e+00
 1.2281475693e+00	 1.1583612713e+00	-1.7600159709e+00
 1.2168026160e+00	 1.1702729385e+00	-1.8048006346e+00
 1.2053410650e+00	 1.1820745823e+00	-1.8417544123e+00
 1.1937645112e+00	 1.1937645112e+00	-1.8734372370e+00
 1.1820745823e+00	 1.2053410650e+00	-1.8994580489e+00
 1.1702729385e+00	 1.2168026160e+00	-1.9205128856e+00
 1.1583612713e+00	 1.2281475693e+00	-1.9450650599e+00
 1.1463413030e+00	 1.2393743640e+00	-1.9729407730e+00
 1.1342147859e+00	 1.2504814738e+00	-2.0025333944e+00
 1.2570176880e+00	 1.1401432791e+00	-1.6554497043e+00
 1.2458525218e+00	 1.1523331810e+00	-1.7104307734e+00
 1.2345670451e+00	 1.1644159771e+00	-1.7606629542e+00
 1.2231627922e+00	 1.1763899060e+00	-1.8043639218e+00
 1.2116413322e+00	 1.1882532366e+00	-1.8423695927e+00
 1.2000042683e+00	 1.2000042683e+00	-1.8761169665e+00
 1.1882532366e+00	 1.2116413322e+00	-1.9045425212e+00
 1.1763899060e+00	 1.2231627922e+00	-1.9265972357e+00
 1.1644159771e+00	 1.2345670451e+00	-1.9478163877e+00
 1.1523331810e+00	 1.2458525218e+00	-1.9731072910e+00
 1.1401432791e+00	 1.2570176880e+00	-2.0009035016e+00
 1.2635538689e+00	 1.1460717420e+00	-1.6580811392e+00
 1.2523306466e+00	 1.1583250283e+00	-1.7116076049e+00
 1.2409864882e+00	 1.1704706520e+00	-1.7602735240e+00
 1.2295229360e+00	 1.1825068424e+00	-1.8030027741e+00
 1.2179415673e+00	 1.1944318594e+00	-1.8421066185e+00
 1.2062439935e+00	 1.2062439935e+00	-1.8771987784e+00
 1.1944318594e+00	 1.2179415673e+00	-1.9073078813e+00
 1.1825068424e+00	 1.2295229360e+00	-1.9314757124e+00
 1.1704706520e+00	 1.2409864882e+00	-1.9503723704e+00
 1.1583250283e+00	 1.2523306466e+00	-1.9725205568e+00
 1.1460717420e+00	 1.2635538689e+00	-1.9980544368e+00
 1.0867861555e+00	 1.1981910043e+00	-1.9914051587e+00
 1.0750643396e+00	 1.2087193237e+00	-2.0176844405e+00
 1.0632438564e+00	 1.2191300806e+00	-2.0417838995e+00
 1.0513264853e+00	 1.2294218961e+00	-2.0635457616e+00
 1.0393140312e+00	 1.2395934267e+00	-2.0828219345e+00
 1.0272083231e+00	 1.2496433655e+00	-2.0994731014e+00
 1.0150112134e+00	 1.2595704421e+00	-2.1133676960e+00
 1.0027245769e+00	 1.2693734235e+00	-2.1243807738e+00
 9.9035031019e-01	 1.2790511146e+00	-2.1323927894e+00
 9.7789033010e-01	 1.2886023584e+00	-2.1372882965e+00
 9.6534657321e-01	 1.2980260367e+00	-2.1389545801e+00
 1.0927147695e+00	 1.2047273518e+00	-1.9936625398e+00
 1.0809290091e+00	 1.2153131052e+00	-2.0211717472e+00
 1.0690440430e+00	 1.2257806546e+00	-2.0458746648e+00
 1.0570616605e+00	 1.2361286138e+00	-2.0676924786e+00
 1.0449836763e+00	 1.2463556320e+00	-2.0865579580e+00
 1.0328119294e+00	 1.2564603950e+00	-2.1024143725e+00
 1.0205482822e+00	 1.2664416255e+00	-2.1152142841e+00
 1.0081946200e+00	 1.2762980840e+00	-2.1249182297e+00
 9.9575284938e-01	 1.2860285686e+00	-2.1314933059e+00
 9.8322489786e-01	 1.2956319162e+00	-2.1349116714e+00
 9.7061271251e-01	 1.3051070023e+00	-2.1351489803e+00
 1.0986433803e+00	 1.2112636957e+00	-1.9959804467e+00
 1.0867936752e+00	 1.2219068829e+00	-2.0244574918e+00
 1.0748442263e+00	 1.2324312249e+00	-2.0496308763e+00
 1.0627968325e+00	 1.2428353277e+00	-2.0714797486e+00
 1.0506533182e+00	 1.2531178334e+00	-2.0899968436e+00
 1.0384155325e+00	 1.2632774206e+00	-2.1051872471e+00
 1.0260853479e+00	 1.2733128051e+00	-2.1170670319e+00
 1.0136646599e+00	 1.2832227406e+00	-2.1256617754e+00
 1.0011553855e+00	 1.2930060187e+00	-2.1310049769e+00
 9.8855946259e-01	 1.3026614700e+00	-2.1331363864e+00
 9.7587884883e-01	 1.3121879639e+00	-2.1321002611e+00
 1.1045719843e+00	 1.2178000322e+00	-1.9982087049e+00
 1.0926583347e+00	 1.2285006531e+00	-2.0273806203e+00
 1.0806444031e+00	 1.2390817876e+00	-2.0528808276e+00
 1.0685319979e+00	 1.2495420340e+00	-2.0747257715e+00
 1.0563229537e+00	 1.2598800271e+00	-2.0929475872e+00
 1.0440191292e+00	 1.2700944385e+00	-2.1075927388e+00
 1.0316224074e+00	 1.2801839769e+00	-2.1187205228e+00
 1.0191346937e+00	 1.2901473893e+00	-2.1264014468e+00
 1.0065579155e+00	 1.2999834609e+00	-2.1307155023e+00
 9.9389402128e-01	 1.3096910158e+00	-2.1317503434e+00
 9.8114497918e-01	 1.3192689176e+00	-2.1295993911e+00
 1.1105005782e+00	 1.2243363575e+00	-2.0001938658e+00
 1.0985229842e+00	 1.2350944122e+00	-2.0297770979e+00
 1.0864445699e+00	 1.2457323390e+00	-2.0554501111e+00
 1.0742671536e+00	 1.2562487290e+00	-2.0772463052e+00
 1.0619925795e+00	 1.2666422094e+00	-2.0952169754e+00
 1.0496227165e+00	 1.2769114448e+00	-2.1094298507e+00
 1.0371594574e+00	 1.2870551370e+00	-2.1199674887e+00
 1.0246047181e+00	 1.2970720262e+00	-2.1269255403e+00
 1.0119604363e+00	 1.3069608912e+00	-2.1304109006e+00
 9.9922857089e-01	 1.3167205497e+00	-2.1305397629e+00
 9.8641110058e-01	 1.3263498591e+00	-2.1274355906e+00
 1.1164291587e+00	 1.2308726681e+00	-2.0017794467e+00
 1.1043876205e+00	 1.2416881563e+00	-2.0314801390e+00
 1.0922447237e+00	 1.2523828753e+00	-2.0571618385e+00
 1.0800022963e+00	 1.2629554087e+00	-2.0788548765e+00
 1.0676621925e+00	 1.2734043763e+00	-2.0966097868e+00
 1.0552262910e+00	 1.2837284356e+00	-2.1104957679e+00
 1.0426964949e+00	 1.2939262815e+00	-2.1205989941e+00
 1.0300747301e+00	 1.3039966475e+00	-2.1270207893e+00
 1.0173629449e+00	 1.3139383057e+00	-2.1298756810e+00
 1.0045631084e+00	 1.3237500677e+00	-2.1292893500e+00
 9.9167721004e-01	 1.3334307847e+00	-2.1253964946e+00
 1.1223577224e+00	 1.2374089601e+00	-2.0028061708e+00
 1.1102522401e+00	 1.2482818817e+00	-2.0323204373e+00
 1.0980448610e+00	 1.2590333928e+00	-2.0578368602e+00
 1.0857374228e+00	 1.2696620694e+00	-2.0793629913e+00
 1.0733317894e+00	 1.2801665241e+00	-2.0969289928e+00
 1.0608298497e+00	 1.2905454071e+00	-2.1105860497e+00
 1.0482335167e+00	 1.3007974066e+00	-2.1204046202e+00
 1.0355447267e+00	 1.3109212491e+00	-2.1264725424e+00
 1.0227654382e+00	 1.3209157004e+00	-2.1288930140e+00
 1.0098976308e+00	 1.3307795657e+00	-2.1277824611e+00
 9.9694330458e-01	 1.3405116901e+00	-2.1232683165e+00
 1.1282862659e+00	 1.2439452299e+00	-2.0031122045e+00
 1.1161168398e+00	 1.2548755847e+00	-2.0321263935e+00
 1.1038449785e+00	 1.2656838877e+00	-2.0572939846e+00
 1.0914725297e+00	 1.2763687073e+00	-2.0785803436e+00
 1.0790013670e+00	 1.2869286489e+00	-2.0959759580e+00
 1.0664333893e+00	 1.2973623555e+00	-2.1094948216e+00
 1.0537705196e+00	 1.3076685083e+00	-2.1191726493e+00
 1.0410147046e+00	 1.3178458272e+00	-2.1250649398e+00
 1.0281679131e+00	 1.3278930714e+00	-2.1272449030e+00
 1.0152321351e+00	 1.3378090399e+00	-2.1258012711e+00
 1.0022093812e+00	 1.3475925715e+00	-2.1208360117e+00
 1.1342147859e+00	 1.2504814738e+00	-2.0025333944e+00
 1.1219814162e+00	 1.2614692615e+00	-2.0307243431e+00
 1.1096450731e+00	 1.2723343562e+00	-2.0553501955e+00
 1.0972076139e+00	 1.2830753186e+00	-2.0763150248e+00
 1.0846709222e+00	 1.2936907468e+00	-2.0935506401e+00
 1.0720369066e+00	 1.3041792768e+00	-2.1070149667e+00
 1.0593075006e+00	 1.3145395827e+00	-2.1166902488e+00
 1.0464846609e+00	 1.3247703778e+00	-2.1225810909e+00
 1.0335703665e+00	 1.3348704148e+00	-2.1247123560e+00
 1.0205666182e+00	 1.3448384861e+00	-2.1231269399e+00
 1.0074754370e+00	 1.3546734248e+00	-2.1178834416e+00
 1.1401432791e+00	 1.2570176880e+00	-2.0009035016e+00
 1.1278459660e+00	 1.2680629085e+00	-2.0279387819e+00
 1.1154451414e+00	 1.2789847945e+00	-2.0518208692e+00
 1.1029426721e+00	 1.2897818995e+00	-2.0723737315e+00
 1.0903404516e+00	 1.3004528141e+00	-2.0894517894e+00
 1.0776403986e+00	 1.3109961672e+00	-2.1029383172e+00
 1.0648444565e+00	 1.3214106260e+00	-2.1127436549e+00
 1.0519545923e+00	 1.3316948970e+00	-2.1188032518e+00
 1.0389727955e+00	 1.3418477265e+00	-2.1210755571e+00
 1.0259010771e+00	 1.3518679005e+00	-2.1195397800e+00
 1.0127414688e+00	 1.3617542460e+00	-2.1141935369e+00
 1.1460717420e+00	 1.2635538689e+00	-1.9980544368e+00
 1.1337104859e+00	 1.2746565218e+00	-2.0235925916e+00
 1.1212451801e+00	 1.2856351989e+00	-2.0465199908e+00
 1.1086777011e+00	 1.2964884462e+00	-2.0665619726e+00
 1.0960099521e+00	 1.3072148469e+00	-2.0834771480e+00
 1.0832438620e+00	 1.3178130228e+00	-2.0970558455e+00
 1.0703813842e+00	 1.3282816342e+00	-2.1071183565e+00
 1.0574244959e+00	 1.3386193810e+00	-2.1135130020e+00
 1.0443751969e+00	 1.3488250026e+00	-2.1161140383e+00
 1.0312355088e+00	 1.3588972790e+00	-2.1148194233e+00
 1.0180074738e+00	 1.3688350311e+00	-2.1095484627e+00
 9.6534657321e-01	 1.2980260367e+00	-2.1389545801e+00
 9.5272314644e-01	 1.3073195021e+00	-2.1380155520e+00
 9.4001989051e-01	 1.3164833328e+00	-2.1351137993e+00
 9.2723878678e-01	 1.3255165345e+00	-2.1301785080e+00
 9.1438183224e-01	 1.3344181533e+00	-2.1231545884e+00
 9.0145103856e-01	 1.3431872755e+00	-2.1140011623e+00
 8.8844843109e-01	 1.3518230280e+00	-2.1026900421e+00
 8.7537604779e-01	 1.3603245785e+00	-2.0892042177e+00
 8.6223593826e-01	 1.3686911360e+00	-2.0735363637e+00
 8.4903016271e-01	 1.3769219503e+00	-2.0556873807e+00
 8.3576079094e-01	 1.3850163128e+00	-2.0356649832e+00
 9.7061271251e-01	 1.3051070023e+00	-2.1351489803e+00
 9.5792042268e-01	 1.3144511653e+00	-2.1330300580e+00
 9.4514786821e-01	 1.3236649863e+00	-2.1293025671e+00
 9.3229704125e-01	 1.3327474658e+00	-2.1238411785e+00
 9.1936994971e-01	 1.3416976445e+00	-2.1165359192e+00
 9.0636861623e-01	 1.3505146039e+00	-2.1072906633e+00
 8.9329507719e-01	 1.3591974659e+00	-2.0960216160e+00
 8.8015138169e-01	 1.3677453940e+00	-2.0826558058e+00
 8.6693959049e-01	 1.3761575925e+00	-2.0671295993e+00
 8.5366177506e-01	 1.3844333073e+00	-2.0493872517e+00
 8.4032001648e-01	 1.3925718260e+00	-2.0293795064e+00
 9.7587884883e-01	 1.3121879639e+00	-2.1321002611e+00
 9.6311769597e-01	 1.3215828244e+00	-2.1288989602e+00
 9.5027584299e-01	 1.3308466358e+00	-2.1243817558e+00
 9.3735529285e-01	 1.3399783930e+00	-2.1183790722e+00
 9.2435806435e-01	 1.3489771316e+00	-2.1107363474e+00
 9.1128619110e-01	 1.3578419280e+00	-2.1013125103e+00
 8.9814172054e-01	 1.3665718997e+00	-2.0899784523e+00
 8.8492671287e-01	 1.3751662052e+00	-2.0766155087e+00
 8.7164324006e-01	 1.3836240447e+00	-2.0611139641e+00
 8.5829338479e-01	 1.3919446601e+00	-2.0433715951e+00
 8.4487923943e-01	 1.4001273350e+00	-2.0232922657e+00
 9.8114497918e-01	 1.3192689176e+00	-2.1295993911e+00
 9.6831496337e-01	 1.3287144755e+00	-2.1254183707e+00
 9.5540381196e-01	 1.3380282771e+00	-2.1201535948e+00
 9.4241353872e-01	 1.3472093120e+00	-2.1136013581e+00
 9.2934617334e-01	 1.3562566104e+00	-2.1055726516e+00
 9.1620376040e-01	 1.3651692439e+00	-2.0958916098e+00
 9.0298835840e-01	 1.3739463250e+00	-2.0843939529e+00
 8.8970203865e-01	 1.3825870080e+00	-2.0709254403e+00
 8.7634688430e-01	 1.3910904885e+00	-2.0553403491e+00
 8.6292498926e-01	 1.3994560044e+00	-2.0374999942e+00
 8.4943845722e-01	 1.4076828354e+00	-2.0172713017e+00
 9.8641110058e-01	 1.3263498591e+00	-2.1274355906e+00
 9.7351222194e-01	 1.3358461144e+00	-2.1223825381e+00
 9.6053177222e-01	 1.3452099062e+00	-2.1164183110e+00
 9.4747177599e-01	 1.3544402186e+00	-2.1093150429e+00
 9.3433427384e-01	 1.3635360769e+00	-2.1008592722e+00
 9.2112132134e-01	 1.3724965473e+00	-2.0908503428e+00
 9.0783498802e-01	 1.3813207379e+00	-2.0790987988e+00
 8.9447735630e-01	 1.3900077981e+00	-2.0654247934e+00
 8.8105052053e-01	 1.3985569196e+00	-2.0496565251e+00
 8.6755658586e-01	 1.4069673359e+00	-2.0316287164e+00
 8.5399766725e-01	 1.4152383230e+00	-2.0111811518e+00
 9.9167721004e-01	 1.3334307847e+00	-2.1253964946e+00
 9.7870946872e-01	 1.3429777372e+00	-2.1195840085e+00
 9.6565972085e-01	 1.3523915190e+00	-2.1129742876e+00
 9.5253000179e-01	 1.3616711089e+00	-2.1053251287e+00
 9.3932236304e-01	 1.3708155268e+00	-2.0964084690e+00
 9.2603887114e-01	 1.3798238342e+00	-2.0860087211e+00
 9.1268160665e-01	 1.3886951340e+00	-2.0739211051e+00
 8.9925266314e-01	 1.3974285715e+00	-2.0599499951e+00
 8.8575414611e-01	 1.4060233338e+00	-2.0439072960e+00
 8.7218817196e-01	 1.4144786504e+00	-2.0256108663e+00
 8.5855686695e-01	 1.4227937935e+00	-2.0048830017e+00
 9.9694330458e-01	 1.3405116901e+00	-2.1232683165e+00
 9.8390670078e-01	 1.3501093398e+00	-2.1168137870e+00
 9.7078765495e-01	 1.3595731115e+00	-2.1096182238e+00
 9.5758821326e-01	 1.3689019787e+00	-2.1014347719e+00
 9.4431043811e-01	 1.3780949562e+00	-2.0920304779e+00
 9.3095640699e-01	 1.3871511002e+00	-2.0811845433e+00
 9.1752821154e-01	 1.3960695093e+00	-2.0686865765e+00
 9.0402795644e-01	 1.4048493238e+00	-2.0543348604e+00
 8.9045775835e-01	 1.4134897268e+00	-2.0379346531e+00
 8.7681974494e-01	 1.4219899437e+00	-2.0192965374e+00
 8.6311605373e-01	 1.4303492425e+00	-1.9982348357e+00
 1.0022093812e+00	 1.3475925715e+00	-2.1208360117e+00
 9.8910391517e-01	 1.3572409181e+00	-2.1138614990e+00
 9.7591557161e-01	 1.3667546796e+00	-2.1061452951e+00
 9.6264640754e-01	 1.3761328239e+00	-2.0974454413e+00
 9.4929849621e-01	 1.3853743607e+00	-2.0875336683e+00
 9.3587392613e-01	 1.3944783414e+00	-2.0761935508e+00
 9.2237479996e-01	 1.4034438594e+00	-2.0632186623e+00
 9.0880323350e-01	 1.4122700509e+00	-2.0484107469e+00
 8.9516135461e-01	 1.4209560945e+00	-2.0315779271e+00
 8.8145130217e-01	 1.4295012113e+00	-2.0125329643e+00
 8.6767522501e-01	 1.4379046659e+00	-1.9910915878e+00
 1.0074754370e+00	 1.3546734248e+00	-2.1178834416e+00
 9.9430110894e-01	 1.3643724681e+00	-2.1105155517e+00
 9.8104346793e-01	 1.3739362191e+00	-2.1023493122e+00
 9.6770458174e-01	 1.3833636405e+00	-2.0931570758e+00
 9.5428653453e-01	 1.3926537364e+00	-2.0827246996e+00
 9.4079142576e-01	 1.4018055534e+00	-2.0708495837e+00
 9.2722136915e-01	 1.4108181803e+00	-2.0573387112e+00
 9.1357849162e-01	 1.4196907486e+00	-2.0420067082e+00
 8.9986493220e-01	 1.4284224325e+00	-2.0246739415e+00
 8.8608284102e-01	 1.4370124492e+00	-2.0051646739e+00
 8.7223437821e-01	 1.4454600592e+00	-1.9833052913e+00
 1.0127414688e+00	 1.3617542460e+00	-2.1141935369e+00
 9.9949827915e-01	 1.3715039858e+00	-2.1065632964e+00
 9.8617134101e-01	 1.3811177262e+00	-2.0980228815e+00
 9.7276273302e-01	 1.3905944242e+00	-2.0883682433e+00
 9.5927455024e-01	 1.3999330791e+00	-2.0774086786e+00
 9.4570890310e-01	 1.4091327323e+00	-2.0649647363e+00
 9.3206791637e-01	 1.4181924678e+00	-2.0508661257e+00
 9.1835372809e-01	 1.4271114126e+00	-2.0349496472e+00
 9.0456848847e-01	 1.4358887366e+00	-2.0170571644e+00
 8.9071435888e-01	 1.4445236530e+00	-1.9970336365e+00
 8.7679351073e-01	 1.4530154184e+00	-1.9747252278e+00
 1.0180074738e+00	 1.3688350311e+00	-2.1095484627e+00
 1.0046954228e+00	 1.3786354671e+00	-2.1017911895e+00
 9.9129918793e-01	 1.3882991966e+00	-2.0929575649e+00
 9.7782085850e-01	 1.3978251711e+00	-2.0828762988e+00
 9.6426254050e-01	 1.4072123847e+00	-2.0713893162e+00
 9.5062635536e-01	 1.4164598738e+00	-2.0583495131e+00
 9.3691443887e-01	 1.4255667177e+00	-2.0436185167e+00
 9.2312894020e-01	 1.4345320388e+00	-2.0270644700e+00
 9.0927202075e-01	 1.4433550027e+00	-2.0085598608e+00
 8.9534585312e-01	 1.4520348186e+00	-1.9879794158e+00
 8.8135262000e-01	 1.4605707390e+00	-1.9651980764e+00
 8.3576079094e-01	 1.3850163128e+00	-2.0356649832e+00
 8.2242990157e-01	 1.3929735565e+00	-2.0143665367e+00
 8.0903958181e-01	 1.4007930576e+00	-1.9925770911e+00
 7.9559192559e-01	 1.4084742337e+00	-1.9701361042e+00
 7.8208903234e-01	 1.4160165444e+00	-1.9468770760e+00
 7.6853300592e-01	 1.4234194906e+00	-1.9226269805e+00
 7.5492595365e-01	 1.4306826148e+00	-1.8972058089e+00
 7.4126998530e-01	 1.4378055012e+00	-1.8704262307e+00
 7.2756721209e-01	 1.4447877749e+00	-1.8420933769e+00
 7.1381974571e-01	 1.4516291026e+00	-1.8120047509e+00
 7.0002969732e-01	 1.4583291918e+00	-1.7799502675e+00
 8.4032001648e-01	 1.3925718260e+00	-2.0293795064e+00
 8.2691640471e-01	 1.4005724780e+00	-2.0079000962e+00
 8.1345303834e-01	 1.4084346358e+00	-1.9856921321e+00
 7.9993202274e-01	 1.4161577141e+00	-1.9626306439e+00
 7.8635546877e-01	 1.4237411695e+00	-1.9385849343e+00
 7.7272549179e-01	 1.4311845001e+00	-1.9134179078e+00
 7.5904421060e-01	 1.4384872460e+00	-1.8869855146e+00
 7.4531374649e-01	 1.4456489890e+00	-1.8591363198e+00
 7.3153622218e-01	 1.4526693522e+00	-1.8297111994e+00
 7.1771376089e-01	 1.4595480006e+00	-1.7985431703e+00
 7.0384848532e-01	 1.4662846400e+00	-1.7654573555e+00
 8.4487923943e-01	 1.4001273350e+00	-2.0232922657e+00
 8.3140290530e-01	 1.4081713952e+00	-2.0015815410e+00
 8.1786649237e-01	 1.4160762097e+00	-1.9789459240e+00
 8.0427211742e-01	 1.4238411902e+00	-1.9552906800e+00
 7.9062190279e-01	 1.4314657902e+00	-1.9305153698e+00
 7.7691797528e-01	 1.4389495052e+00	-1.9045130812e+00
 7.6316246522e-01	 1.4462918727e+00	-1.8771697825e+00
 7.4935750538e-01	 1.4534924723e+00	-1.8483638050e+00
 7.3550523002e-01	 1.4605509251e+00	-1.8179654604e+00
 7.2160777388e-01	 1.4674668941e+00	-1.7858367977e+00
 7.0766727115e-01	 1.4742400837e+00	-1.7518315026e+00
 8.4943845722e-01	 1.4076828354e+00	-2.0172713017e+00
 8.3588940081e-01	 1.4157703037e+00	-1.9952856517e+00
 8.2227994140e-01	 1.4237177750e+00	-1.9722169506e+00
 8.0861220719e-01	 1.4315246576e+00	-1.9479954592e+00
 7.9488833197e-01	 1.4391904022e+00	-1.9225455492e+00
 7.8111045402e-01	 1.4467145015e+00	-1.8957848440e+00
 7.6728071517e-01	 1.4540964906e+00	-1.8676234875e+00
 7.5340125969e-01	 1.4613359468e+00	-1.8379635483e+00
 7.3947423337e-01	 1.4684324891e+00	-1.8066985650e+00
 7.2550178244e-01	 1.4753857787e+00	-1.7737132386e+00
 7.1148605264e-01	 1.4821955184e+00	-1.7388832733e+00
 8.5399766725e-01	 1.4152383230e+00	-2.0111811518e+00
 8.4037588869e-01	 1.4233691993e+00	-1.9888835586e+00
 8.2669338292e-01	 1.4313593273e+00	-1.9653799674e+00
 8.1295228958e-01	 1.4392081119e+00	-1.9406204901e+00
 7.9915475390e-01	 1.4469150010e+00	-1.9145489581e+00
 7.8530292564e-01	 1.4544794846e+00	-1.8871019795e+00
 7.7139895812e-01	 1.4619010953e+00	-1.8582081296e+00
 7.5744500713e-01	 1.4691794079e+00	-1.8277872837e+00
 7.4344322996e-01	 1.4763140396e+00	-1.7957500979e+00
 7.2939578439e-01	 1.4833046498e+00	-1.7619976439e+00
 7.1530482765e-01	 1.4901509396e+00	-1.7264211998e+00
 8.5855686695e-01	 1.4227937935e+00	-2.0048830017e+00
 8.4486236640e-01	 1.4309680777e+00	-1.9822428904e+00
 8.3110681444e-01	 1.4390008622e+00	-1.9583061467e+00
 8.1729236213e-01	 1.4468915489e+00	-1.9330376820e+00
 8.0342116615e-01	 1.4546395824e+00	-1.9063955316e+00
 7.8949538775e-01	 1.4622444501e+00	-1.8783298329e+00
 7.7551719173e-01	 1.4697056822e+00	-1.8487819449e+00
 7.6148874540e-01	 1.4770228512e+00	-1.8176837159e+00
 7.4741221756e-01	 1.4841955723e+00	-1.7849569075e+00
 7.3328977751e-01	 1.4912235029e+00	-1.7505127784e+00
 7.1912359400e-01	 1.4981063427e+00	-1.7142518343e+00
 8.6311605373e-01	 1.4303492425e+00	-1.9982348357e+00
 8.4934883140e-01	 1.4385669346e+00	-1.9752279231e+00
 8.3552023346e-01	 1.4466423755e+00	-1.9508632214e+00
 8.2163242239e-01	 1.4545749640e+00	-1.9251154834e+00
 8.0768756632e-01	 1.4623641418e+00	-1.8979517854e+00
 7.9368783798e-01	 1.4700093936e+00	-1.8693304332e+00
 7.7963541367e-01	 1.4775102470e+00	-1.8392000165e+00
 7.6553247221e-01	 1.4848662724e+00	-1.8074986190e+00
 7.5138119391e-01	 1.4920770827e+00	-1.7741531910e+00
 7.3718375960e-01	 1.4991423336e+00	-1.7390790912e+00
 7.2294234953e-01	 1.5060617233e+00	-1.7021798021e+00
 8.6767522501e-01	 1.4379046659e+00	-1.9910915878e+00
 8.5383528115e-01	 1.4461657657e+00	-1.9676997276e+00
 8.3993363747e-01	 1.4542838628e+00	-1.9429156294e+00
 8.2597246788e-01	 1.4622583530e+00	-1.9167190201e+00
 8.1195395198e-01	 1.4700886750e+00	-1.8890809462e+00
 7.9788027396e-01	 1.4777743108e+00	-1.8599626143e+00
 7.8375362161e-01	 1.4853147853e+00	-1.8293143857e+00
 7.6957618527e-01	 1.4927096668e+00	-1.7970749350e+00
 7.5535015677e-01	 1.4999585662e+00	-1.7631705797e+00
 7.4107772844e-01	 1.5070611374e+00	-1.7275147860e+00
 7.2676109208e-01	 1.5140170769e+00	-1.6900078571e+00
 8.7223437821e-01	 1.4454600592e+00	-1.9833052913e+00
 8.5832171309e-01	 1.4537645665e+00	-1.9595163174e+00
 8.4434702397e-01	 1.4619253198e+00	-1.9343246566e+00
 8.3031249616e-01	 1.4699417115e+00	-1.9077102322e+00
 8.1622032071e-01	 1.4778131775e+00	-1.8796430819e+00
 8.0207269330e-01	 1.4855391971e+00	-1.8500821365e+00
 7.8787181322e-01	 1.4931192927e+00	-1.8189741621e+00
 7.7361988229e-01	 1.5005530302e+00	-1.7862528734e+00
 7.5931910388e-01	 1.5078400185e+00	-1.7518382257e+00
 7.4497168184e-01	 1.5149799098e+00	-1.7156358932e+00
 7.3057981947e-01	 1.5219723988e+00	-1.6775369373e+00
 8.7679351073e-01	 1.4530154184e+00	-1.9747252278e+00
 8.6280812470e-01	 1.4613633330e+00	-1.9505327952e+00
 8.4876039046e-01	 1.4695667422e+00	-1.9249485791e+00
 8.3465250477e-01	 1.4776250352e+00	-1.8979480114e+00
 8.2048667011e-01	 1.4855376451e+00	-1.8694952309e+00
 8.0626509364e-01	 1.4933040482e+00	-1.8395418071e+00
 7.9198998615e-01	 1.5009237646e+00	-1.8080256353e+00
 7.7766356098e-01	 1.5083963579e+00	-1.7748700100e+00
 7.6328803300e-01	 1.5157214351e+00	-1.7399828875e+00
 7.4886561759e-01	 1.5228986463e+00	-1.7032563422e+00
 7.3439852956e-01	 1.5299276848e+00	-1.6645662224e+00
 8.8135262000e-01	 1.4605707390e+00	-1.9651980764e+00
 8.6729451342e-01	 1.4689620607e+00	-1.9406014990e+00
 8.5317373444e-01	 1.4772081256e+00	-1.9146428058e+00
 8.3899249124e-01	 1.4853083198e+00	-1.8872883371e+00
 8.2475299774e-01	 1.4932620732e+00	-1.8584915317e+00
 8.1045747260e-01	 1.5010688597e+00	-1.8281916017e+00
 7.9610813808e-01	 1.5087281967e+00	-1.7963123852e+00
 7.8170721905e-01	 1.5162396457e+00	-1.7627613872e+00
 7.6725694188e-01	 1.5236028115e+00	-1.7274290180e+00
 7.5275953348e-01	 1.5308173424e+00	-1.6901880348e+00
 7.3821722017e-01	 1.5378829301e+00	-1.6508931921e+00
 7.0002969732e-01	 1.4583291918e+00	-1.7799502675e+00
 6.8619682187e-01	 1.4648888939e+00	-1.7460643674e+00
 6.7232556799e-01	 1.4713068460e+00	-1.7107065499e+00
 6.5841803993e-01	 1.4775828767e+00	-1.6739874021e+00
 6.4447633766e-01	 1.4837168546e+00	-1.6360249595e+00
 6.3050255592e-01	 1.4897086883e+00	-1.5969448258e+00
 6.1649878331e-01	 1.4955583263e+00	-1.5568804069e+00
 6.0246710142e-01	 1.5012657558e+00	-1.5159732540e+00
 5.8840958390e-01	 1.5068310035e+00	-1.4743735129e+00
 5.7432829563e-01	 1.5122541343e+00	-1.4354216392e+00
 5.6022529188e-01	 1.5175352514e+00	-1.4028130908e+00
 7.0384848532e-01	 1.4662846400e+00	-1.7654573555e+00
 6.8994014904e-01	 1.4728801265e+00	-1.7307308947e+00
 6.7599322497e-01	 1.4793330897e+00	-1.6948178671e+00
 6.6200982884e-01	 1.4856433572e+00	-1.6577896646e+00
 6.4799207207e-01	 1.4918107970e+00	-1.6197232575e+00
 6.3394206084e-01	 1.4978353174e+00	-1.5807013895e+00
 6.1986189513e-01	 1.5037168661e+00	-1.5408128957e+00
 6.0575366789e-01	 1.5094554307e+00	-1.5001531357e+00
 5.9161946408e-01	 1.5150510379e+00	-1.4588245407e+00
 5.7746135985e-01	 1.5205037528e+00	-1.4189320684e+00
 5.6328142167e-01	 1.5258136793e+00	-1.3854504933e+00
 7.0766727115e-01	 1.4742400837e+00	-1.7518315026e+00
 6.9368347409e-01	 1.4808713545e+00	-1.7163512491e+00
 6.7966087987e-01	 1.4873593288e+00	-1.6799339544e+00
 6.6560161572e-01	 1.4937038332e+00	-1.6426164722e+00
 6.5150780450e-01	 1.4999047349e+00	-1.6044396605e+00
 6.3738156381e-01	 1.5059619418e+00	-1.5654486425e+00
 6.2322500505e-01	 1.5118754013e+00	-1.5256931956e+00
 6.0904023250e-01	 1.5176451010e+00	-1.4852282638e+00
 5.9482934244e-01	 1.5232710675e+00	-1.4441145902e+00
 5.8059442230e-01	 1.5287533666e+00	-1.4034641465e+00
 5.6633754974e-01	 1.5340921025e+00	-1.3689205772e+00
 7.1148605264e-01	 1.4821955184e+00	-1.7388832733e+00
 6.9742679489e-01	 1.4888625735e+00	-1.7027208656e+00
 6.8332853062e-01	 1.4953855588e+00	-1.6658410595e+00
 6.6919339852e-01	 1.5017643000e+00	-1.6282507298e+00
 6.5502353294e-01	 1.5079986637e+00	-1.5899594749e+00
 6.4082106288e-01	 1.5140885570e+00	-1.5509799302e+00
 6.2658811115e-01	 1.5200339273e+00	-1.5113282179e+00
 6.1232679338e-01	 1.5258347620e+00	-1.4710245273e+00
 5.9803921717e-01	 1.5314910879e+00	-1.4300938207e+00
 5.8372748119e-01	 1.5370029711e+00	-1.3889432014e+00
 5.6939367434e-01	 1.5423705164e+00	-1.3531824354e+00
 7.1530482765e-01	 1.4901509396e+00	-1.7264211998e+00
 7.0117010933e-01	 1.4968537789e+00	-1.6896335382e+00
 6.8699617512e-01	 1.5034117752e+00	-1.6523240625e+00
 6.7278517522e-01	 1.5098247531e+00	-1.6144741344e+00
 6.5853925540e-01	 1.5160925786e+00	-1.5760668453e+00
 6.4426055611e-01	 1.5222151584e+00	-1.5370873725e+00
 6.2995121153e-01	 1.5281924394e+00	-1.4975234778e+00
 6.1561334867e-01	 1.5340244090e+00	-1.4573661435e+00
 6.0124908643e-01	 1.5397110943e+00	-1.4166103418e+00
 5.8686053476e-01	 1.5452525615e+00	-1.3752912035e+00
 5.7244979375e-01	 1.5506489162e+00	-1.3381915177e+00
 7.1912359400e-01	 1.4981063427e+00	-1.7142518343e+00
 7.0491341528e-01	 1.5048449662e+00	-1.6768814558e+00
 6.9066381132e-01	 1.5114379733e+00	-1.6391665002e+00
 6.7637694377e-01	 1.5178851880e+00	-1.6010671889e+00
 6.6205496989e-01	 1.5241864753e+00	-1.5625447630e+00
 6.4770004154e-01	 1.5303417413e+00	-1.5235618701e+00
 6.3331430430e-01	 1.5363509330e+00	-1.4840831001e+00
 6.1889989652e-01	 1.5422140375e+00	-1.4440756668e+00
 6.0445894843e-01	 1.5479310820e+00	-1.4035102284e+00
 5.8999358122e-01	 1.5535021333e+00	-1.3623618417e+00
 5.7550590622e-01	 1.5589272972e+00	-1.3238995209e+00
 7.2294234953e-01	 1.5060617233e+00	-1.7021798021e+00
 7.0865671063e-01	 1.5128361308e+00	-1.6642552409e+00
 6.9433143712e-01	 1.5194641488e+00	-1.6261505915e+00
 6.7996870215e-01	 1.5259456000e+00	-1.5878092191e+00
 6.6557067442e-01	 1.5322803489e+00	-1.5491750768e+00
 6.5113951722e-01	 1.5384683013e+00	-1.5101931115e+00
 6.3667738753e-01	 1.5445094035e+00	-1.4708098272e+00
 6.2218643505e-01	 1.5504036428e+00	-1.4309739994e+00
 6.0766880132e-01	 1.5561510465e+00	-1.3906375368e+00
 5.9312661881e-01	 1.5617516816e+00	-1.3497564823e+00
 5.7856201004e-01	 1.5672056547e+00	-1.3102542793e+00
 7.2676109208e-01	 1.5140170769e+00	-1.6900078571e+00
 7.1239999324e-01	 1.5208272683e+00	-1.6515439888e+00
 6.9799905045e-01	 1.5274902969e+00	-1.6130572657e+00
 6.8356044832e-01	 1.5340059846e+00	-1.5744783929e+00
 6.6908636699e-01	 1.5403741951e+00	-1.5357385056e+00
 6.5457898121e-01	 1.5465948336e+00	-1.4967695834e+00
 6.4004045933e-01	 1.5526678463e+00	-1.4575050286e+00
 6.2547296241e-01	 1.5585932203e+00	-1.4178804041e+00
 6.1087864331e-01	 1.5643709830e+00	-1.3778343237e+00
 5.9625964575e-01	 1.5700012019e+00	-1.3373094901e+00
 5.8161810347e-01	 1.5754839841e+00	-1.2971996556e+00
 7.3057981947e-01	 1.5219723988e+00	-1.6775369373e+00
 7.1614326101e-01	 1.5288183741e+00	-1.6385353092e+00
 7.0166664924e-01	 1.5355164132e+00	-1.5996661917e+00
 6.8715218024e-01	 1.5420663372e+00	-1.5608517408e+00
 6.7260204562e-01	 1.5484680092e+00	-1.5220146541e+00
 6.5801843155e-01	 1.5547213337e+00	-1.4830785826e+00
 6.4340351778e-01	 1.5608262567e+00	-1.4439687131e+00
 6.2875947673e-01	 1.5667827652e+00	-1.4046125181e+00
 6.1408847256e-01	 1.5725908869e+00	-1.3649406649e+00
 5.9939266026e-01	 1.5782506895e+00	-1.3248880779e+00
 5.8467418477e-01	 1.5837622807e+00	-1.2846754331e+00
 7.3439852956e-01	 1.5299276848e+00	-1.6645662224e+00
 7.1988651181e-01	 1.5368094436e+00	-1.6250153692e+00
 7.0533423139e-01	 1.5435424931e+00	-1.5857558097e+00
 6.9074389587e-01	 1.5501266533e+00	-1.5467051788e+00
 6.7611770832e-01	 1.5565617865e+00	-1.5077820293e+00
 6.6145786631e-01	 1.5628477969e+00	-1.4689062299e+00
 6.4676656100e-01	 1.5689846301e+00	-1.4299995421e+00
 6.3204597615e-01	 1.5749722730e+00	-1.3909863698e+00
 6.1729828726e-01	 1.5808107535e+00	-1.3517946766e+00
 6.0252566056e-01	 1.5865001397e+00	-1.3123570630e+00
 5.8773025222e-01	 1.5920405398e+00	-1.2726172084e+00
 7.3821722017e-01	 1.5378829301e+00	-1.6508931921e+00
 7.2362974352e-01	 1.5448004724e+00	-1.6107689377e+00
 7.0900179485e-01	 1.5515685321e+00	-1.5711033647e+00
 6.9433559319e-01	 1.5581869283e+00	-1.5318135336e+00
 6.7963335308e-01	 1.5646555226e+00	-1.4928180597e+00
 6.6489728352e-01	 1.5709742187e+00	-1.4540374866e+00
 6.5012958706e-01	 1.5771429619e+00	-1.4153948457e+00
 6.3533245882e-01	 1.5831617391e+00	-1.3768163960e+00
 6.2050808558e-01	 1.5890305782e+00	-1.3382325383e+00
 6.0565864489e-01	 1.5947495478e+00	-1.2995788961e+00
 5.9078630409e-01	 1.6003187566e+00	-1.2607975547e+00
 5.6022529188e-01	 1.5175352514e+00	-1.4028130908e+00
 5.4610501945e-01	 1.5226736338e+00	-1.3719624202e+00
 5.3196711483e-01	 1.5276703685e+00	-1.3384511398e+00
 5.1781359778e-01	 1.5325256694e+00	-1.3029030735e+00
 5.0364647525e-01	 1.5372397864e+00	-1.2658969806e+00
 4.8946774058e-01	 1.5418130057e+00	-1.2279692587e+00
 4.7527937279e-01	 1.5462456483e+00	-1.1896166701e+00
 4.6108333583e-01	 1.5505380703e+00	-1.1512990716e+00
 4.4688157787e-01	 1.5546906618e+00	-1.1134421304e+00
 4.3267603064e-01	 1.5587038468e+00	-1.0764400099e+00
 4.1846860876e-01	 1.5625780821e+00	-1.0406580082e+00
 5.6328142167e-01	 1.5258136793e+00	-1.3854504933e+00
 5.4908412062e-01	 1.5309800925e+00	-1.3538163158e+00
 5.3486909118e-01	 1.5360040853e+00	-1.3194806933e+00
 5.2063836415e-01	 1.5408858727e+00	-1.2830887007e+00
 5.0639395742e-01	 1.5456257061e+00	-1.2452413644e+00
 4.9213787521e-01	 1.5502238731e+00	-1.2064984332e+00
 4.7787210732e-01	 1.5546806966e+00	-1.1673811683e+00
 4.6359862841e-01	 1.5589965345e+00	-1.1283751334e+00
 4.4931939731e-01	 1.5631717792e+00	-1.0899329657e+00
 4.3503635627e-01	 1.5672068568e+00	-1.0524771123e+00
 4.2075143034e-01	 1.5711022268e+00	-1.0164025138e+00
 5.6633754974e-01	 1.5340921025e+00	-1.3689205772e+00
 5.5206322010e-01	 1.5392865465e+00	-1.3363538519e+00
 5.3777106590e-01	 1.5443377974e+00	-1.3011015799e+00
 5.2346312893e-01	 1.5492460713e+00	-1.2638226694e+00
 5.0914143803e-01	 1.5540116211e+00	-1.2251327541e+00
 4.9480800831e-01	 1.5586347358e+00	-1.1856070490e+00
 4.8046484037e-01	 1.5631157401e+00	-1.1457832226e+00
 4.6611391957e-01	 1.5674549940e+00	-1.1061642636e+00
 4.5175721537e-01	 1.5716528918e+00	-1.0672213259e+00
 4.3739668055e-01	 1.5757098620e+00	-1.0293965309e+00
 4.2303425063e-01	 1.5796263666e+00	-9.9310571414e-01
 5.6939367434e-01	 1.5423705164e+00	-1.3531824354e+00
 5.5504231621e-01	 1.5475929911e+00	-1.3195676944e+00
 5.4067303732e-01	 1.5526715001e+00	-1.2833349813e+00
 5.2628789050e-01	 1.5576062605e+00	-1.2451496992e+00
 5.1188891553e-01	 1.5623975266e+00	-1.2056345118e+00
 4.9747813840e-01	 1.5670455889e+00	-1.1653723014e+00
 4.8305757048e-01	 1.5715507741e+00	-1.1249091408e+00
 4.6862920788e-01	 1.5759134438e+00	-1.0847572547e+00
 4.5419503066e-01	 1.5801339947e+00	-1.0453979540e+00
 4.3975700216e-01	 1.5842128576e+00	-1.0072845235e+00
 4.2531706833e-01	 1.5881504968e+00	-9.7084504678e-01
 5.7244979375e-01	 1.5506489162e+00	-1.3381915177e+00
 5.5802140725e-01	 1.5558994216e+00	-1.3034465829e+00
 5.4357500381e-01	 1.5610051885e+00	-1.2661979725e+00
 5.2911264727e-01	 1.5659664354e+00	-1.2271103233e+00
 5.1463638836e-01	 1.5707834178e+00	-1.1868058308e+00
 5.0014826394e-01	 1.5754564278e+00	-1.1458673287e+00
 4.8565029619e-01	 1.5799857937e+00	-1.1048413764e+00
 4.7114449192e-01	 1.5843718793e+00	-1.0642413334e+00
 4.5663284181e-01	 1.5886150833e+00	-1.0245504003e+00
 4.4211731976e-01	 1.5927158387e+00	-9.8622460814e-01
 4.2759988214e-01	 1.5966746125e+00	-9.4969573915e-01
 5.7550590622e-01	 1.5589272972e+00	-1.3238995209e+00
 5.6100049153e-01	 1.5642058333e+00	-1.2879752385e+00
 5.4647696372e-01	 1.5693388581e+00	-1.2497034461e+00
 5.3193739763e-01	 1.5743265914e+00	-1.2097408259e+00
 5.1738385496e-01	 1.5791692900e+00	-1.1687016839e+00
 5.0281838343e-01	 1.5838672476e+00	-1.1271611678e+00
 4.8824301602e-01	 1.5884207942e+00	-1.0856584886e+00
 4.7365977025e-01	 1.5928302956e+00	-1.0447001242e+00
 4.5907064744e-01	 1.5970961526e+00	-1.0047629856e+00
 4.4447763201e-01	 1.6012188005e+00	-9.6629752436e-01
 4.2988269079e-01	 1.6051987089e+00	-9.2973076569e-01
 5.7856201004e-01	 1.5672056547e+00	-1.3102542793e+00
 5.6397956738e-01	 1.5725122214e+00	-1.2731342726e+00
 5.4937891540e-01	 1.5776725041e+00	-1.2338600362e+00
 5.3476213999e-01	 1.5826867237e+00	-1.1930731794e+00
 5.2013131378e-01	 1.5875551384e+00	-1.1513727703e+00
 5.0548849535e-01	 1.5922780435e+00	-1.1093187091e+00
 4.9083572850e-01	 1.5968557708e+00	-1.0674351021e+00
 4.7617504145e-01	 1.6012886880e+00	-1.0262136119e+00
 4.6150844616e-01	 1.6055771979e+00	-9.8611676465e-01
 4.4683793757e-01	 1.6097217383e+00	-9.4758119442e-01
 4.3216549296e-01	 1.6137227811e+00	-9.1102080455e-01
 5.8161810347e-01	 1.5754839841e+00	-1.2971996556e+00
 5.6695863310e-01	 1.5808185813e+00	-1.2589000960e+00
 5.5228085722e-01	 1.5860061218e+00	-1.2186720428e+00
 5.3758687275e-01	 1.5910468275e+00	-1.1771349807e+00
 5.2287876325e-01	 1.5959409583e+00	-1.1348654615e+00
 5.0815859820e-01	 1.6006888109e+00	-1.0924006500e+00
 4.9342843217e-01	 1.6052907188e+00	-1.0502418666e+00
 4.7869030411e-01	 1.6097470516e+00	-1.0088581030e+00
 4.6394623659e-01	 1.6140582143e+00	-9.6868948784e-01
 4.4919823510e-01	 1.6182246471e+00	-9.3015068350e-01
 4.3444828738e-01	 1.6222468243e+00	-8.9363419401e-01
 5.8467418477e-01	 1.5837622807e+00	-1.2846754331e+00
 5.6993768700e-01	 1.5891249082e+00	-1.2452448283e+00
 5.5518278753e-01	 1.5943397063e+00	-1.2041393551e+00
 5.4041159430e-01	 1.5994068982e+00	-1.1619493873e+00
 5.2562620183e-01	 1.6043267450e+00	-1.1192217481e+00
 5.1082869045e-01	 1.6090995449e+00	-1.0764634482e+00
 4.9602112555e-01	 1.6137256332e+00	-1.0341454145e+00
 4.8120555678e-01	 1.6182053816e+00	-9.9270618728e-01
 4.6638401734e-01	 1.6225391971e+00	-9.5255556287e-01
 4.5155852327e-01	 1.6267275222e+00	-9.1407815958e-01
 4.3673107273e-01	 1.6307708338e+00	-8.7763688864e-01
 5.8773025222e-01	 1.5920405398e+00	-1.2726172084e+00
 5.7291672739e-01	 1.5974311975e+00	-1.2321362068e+00
 5.5808470469e-01	 1.6026732531e+00	-1.1902573762e+00
 5.4323630305e-01	 1.6077669310e+00	-1.1475350530e+00
 5.2837362795e-01	 1.6127124936e+00	-1.1044791845e+00
 5.1349877060e-01	 1.6175102407e+00	-1.0615592747e+00
 4.9861380718e-01	 1.6221605095e+00	-1.0192083185e+00
 4.8372079805e-01	 1.6266636733e+00	-9.7782669746e-01
 4.6882178705e-01	 1.6310201415e+00	-9.3778601561e-01
 4.5391880074e-01	 1.6352303588e+00	-8.9943285287e-01
 4.3901384774e-01	 1.6392948045e+00	-8.6309241517e-01
 5.9078630409e-01	 1.6003187566e+00	-1.2607975547e+00
 5.7589575259e-01	 1.6057374444e+00	-1.2195374968e+00
 5.6098660704e-01	 1.6110067574e+00	-1.1770169462e+00
 5.4606099739e-01	 1.6161269212e+00	-1.1339060638e+00
 5.3112104005e-01	 1.6210981995e+00	-1.0906708337e+00
 5.1616883713e-01	 1.6259208937e+00	-1.0477359652e+00
 5.0120647558e-01	 1.6305953427e+00	-1.0054890490e+00
 4.8623602649e-01	 1.6351219218e+00	-9.6428466914e-01
 4.7125954432e-01	 1.6395010426e+00	-9.2444845039e-01
 4.5627906618e-01	 1.6437331520e+00	-8.8628101470e-01
 4.4129661111e-01	 1.6478187318e+00	-8.5006182813e-01
 4.1846860876e-01	 1.5625780821e+00	-1.0406580082e+00
 4.0426120927e-01	 1.5663138575e+00	-1.0059541157e+00
 3.9005571159e-01	 1.5699116960e+00	-9.7201511669e-01
 3.7585397630e-01	 1.5733721522e+00	-9.3891223377e-01
 3.6165784435e-01	 1.5766958111e+00	-9.0669582916e-01
 3.4746913652e-01	 1.5798832881e+00	-8.7539785790e-01
 3.3328965288e-01	 1.5829352275e+00	-8.4503420159e-01
 3.1912117227e-01	 1.5858523025e+00	-8.1560687483e-01
 3.0496545179e-01	 1.5886352143e+00	-7.8710609754e-01
 2.9082422635e-01	 1.5912846913e+00	-7.5951222738e-01
 2.7669920824e-01	 1.5938014885e+00	-7.3279754792e-01
 4.2075143034e-01	 1.5711022268e+00	-1.0164025138e+00
 4.0646652693e-01	 1.5748583815e+00	-9.8154614119e-01
 3.9218353570e-01	 1.5784758469e+00	-9.4754101352e-01
 3.7790432738e-01	 1.5819551804e+00	-9.1444028829e-01
 3.6363075298e-01	 1.5852969706e+00	-8.8227684052e-01
 3.4936464320e-01	 1.5885018358e+00	-8.5106581668e-01
 3.3510780793e-01	 1.5915704241e+00	-8.2080706181e-01
 3.2086203570e-01	 1.5945034123e+00	-7.9148741176e-01
 3.0662909321e-01	 1.5973015053e+00	-7.6308284329e-01
 2.9241072485e-01	 1.5999654357e+00	-7.3556047650e-01
 2.7820865222e-01	 1.6024959625e+00	-7.0888042490e-01
 4.2303425063e-01	 1.5796263666e+00	-9.9310571414e-01
 4.0867184334e-01	 1.5834029007e+00	-9.5814666799e-01
 3.9431135861e-01	 1.5870399929e+00	-9.2409011903e-01
 3.7995467731e-01	 1.5905382038e+00	-8.9097679586e-01
 3.6560366050e-01	 1.5938981251e+00	-8.5882775653e-01
 3.5126014880e-01	 1.5971203786e+00	-8.2764703786e-01
 3.3692596194e-01	 1.6002056158e+00	-7.9742417055e-01
 3.2260289814e-01	 1.6031545171e+00	-7.6813655139e-01
 3.0829273370e-01	 1.6059677914e+00	-7.3975166578e-01
 2.9399722245e-01	 1.6086461751e+00	-7.1222915428e-01
 2.7971809535e-01	 1.6111904315e+00	-6.8552271886e-01
 4.2531706833e-01	 1.5881504968e+00	-9.7084504678e-01
 4.1087715725e-01	 1.5919474102e+00	-9.3582245781e-01
 3.9643917910e-01	 1.5956041292e+00	-9.0171898265e-01
 3.8200502492e-01	 1.5991212175e+00	-8.6856842047e-01
 3.6757656578e-01	 1.6024992699e+00	-8.3638554790e-01
 3.5315565226e-01	 1.6057389116e+00	-8.0516885851e-01
 3.3874411389e-01	 1.6088407976e+00	-7.7490316033e-01
 3.2434375861e-01	 1.6118056121e+00	-7.4556202285e-01
 3.0995637230e-01	 1.6146340677e+00	-7.1711006613e-01
 2.9558371825e-01	 1.6173269048e+00	-6.8950508609e-01
 2.8122753676e-01	 1.6198848907e+00	-6.6270001115e-01
 4.2759988214e-01	 1.5966746125e+00	-9.4969573915e-01
 4.1308246741e-01	 1.6004919051e+00	-9.1463861459e-01
 3.9856699598e-01	 1.6041682509e+00	-8.8048302006e-01
 3.8405536903e-01	 1.6077042166e+00	-8.4726118999e-01
 3.6954946770e-01	 1.6111004001e+00	-8.1498702233e-01
 3.5505115249e-01	 1.6143574300e+00	-7.8365890296e-01
 3.4056226275e-01	 1.6174759649e+00	-7.5326238048e-01
 3.2608461613e-01	 1.6204566925e+00	-7.2377268249e-01
 3.1162000807e-01	 1.6233003293e+00	-6.9515706604e-01
 2.9717021135e-01	 1.6260076197e+00	-6.6737699596e-01
 2.8273697561e-01	 1.6285793351e+00	-6.4039014662e-01
 4.2988269079e-01	 1.6051987089e+00	-9.2973076569e-01
 4.1528777257e-01	 1.6090363807e+00	-8.9465853621e-01
 4.0069480803e-01	 1.6127323533e+00	-8.6043646008e-01
 3.8610570850e-01	 1.6162871963e+00	-8.2710043863e-01
 3.7152236516e-01	 1.6197015108e+00	-7.9466876276e-01
 3.5694664843e-01	 1.6229759289e+00	-7.6314501728e-01
 3.4238040749e-01	 1.6261111125e+00	-7.3252082776e-01
 3.2782546969e-01	 1.6291077532e+00	-7.0277844099e-01
 3.1328364007e-01	 1.6319665712e+00	-6.7389313127e-01
 2.9875670086e-01	 1.6346883149e+00	-6.4583542663e-01
 2.8424641104e-01	 1.6372737599e+00	-6.1857314993e-01
 4.3216549296e-01	 1.6137227811e+00	-9.1102080455e-01
 4.1749307148e-01	 1.6175808321e+00	-8.7594386617e-01
 4.0282261406e-01	 1.6212964313e+00	-8.4163229175e-01
 3.8815604216e-01	 1.6248701516e+00	-8.0813074975e-01
 3.7349525702e-01	 1.6283025971e+00	-7.7546706630e-01
 3.5884213900e-01	 1.6315944033e+00	-7.4365520443e-01
 3.4419854708e-01	 1.6347462357e+00	-7.1269807813e-01
 3.2956631833e-01	 1.6377587894e+00	-6.8259019166e-01
 3.1494726736e-01	 1.6406327886e+00	-6.5332009674e-01
 3.0034318587e-01	 1.6433689855e+00	-6.2487266112e-01
 2.8575584219e-01	 1.6459681599e+00	-5.9723114387e-01
 4.3444828738e-01	 1.6222468243e+00	-8.9363419401e-01
 4.1969836290e-01	 1.6261252544e+00	-8.5855444523e-01
 4.0495041285e-01	 1.6298604803e+00	-8.2412221158e-01
 3.9020636885e-01	 1.6334530777e+00	-7.9039589917e-01
 3.7546814218e-01	 1.6369036542e+00	-7.5741788380e-01
 3.6073762312e-01	 1.6402128484e+00	-7.2521756045e-01
 3.4601668049e-01	 1.6433813295e+00	-6.9381421949e-01
 3.3130716104e-01	 1.6464097962e+00	-6.6321974007e-01
 3.1661088899e-01	 1.6492989764e+00	-6.3344109289e-01
 3.0192966549e-01	 1.6520496266e+00	-6.0448264609e-01
 2.8726526821e-01	 1.6546625304e+00	-5.7634826934e-01
 4.3673107273e-01	 1.6307708338e+00	-8.7763688864e-01
 4.2190364556e-01	 1.6346696428e+00	-8.4254826306e-01
 4.0707820320e-01	 1.6384244952e+00	-8.0795657114e-01
 3.9225668741e-01	 1.6420359698e+00	-7.7393879891e-01
 3.7744101951e-01	 1.6455046771e+00	-7.4055676010e-01
 3.6263309972e-01	 1.6488312594e+00	-7.0786021132e-01
 3.4783480668e-01	 1.6520163890e+00	-6.7588978557e-01
 3.3304799685e-01	 1.6550607686e+00	-6.4467973484e-01
 3.1827450402e-01	 1.6579651300e+00	-6.1426047356e-01
 3.0351613881e-01	 1.6607302332e+00	-5.8466091662e-01
 2.8877468824e-01	 1.6633568665e+00	-5.5591060718e-01
 4.3901384774e-01	 1.6392948045e+00	-8.6309241517e-01
 4.2410891823e-01	 1.6432139925e+00	-8.2798140979e-01
 4.0920598390e-01	 1.6469884714e+00	-7.9318432466e-01
 3.9430699667e-01	 1.6506188229e+00	-7.5880144125e-01
 3.7941388789e-01	 1.6541056611e+00	-7.2491877485e-01
 3.6452856773e-01	 1.6574496312e+00	-6.9161125074e-01
 3.4965292463e-01	 1.6606514094e+00	-6.5894569065e-01
 3.3478882476e-01	 1.6637117019e+00	-6.2698359956e-01
 3.1993811150e-01	 1.6666312442e+00	-5.9578374507e-01
 3.0510260495e-01	 1.6694108005e+00	-5.6540452256e-01
 2.9028410143e-01	 1.6720511631e+00	-5.3590610153e-01
 4.4129661111e-01	 1.6478187318e+00	-8.5006182813e-01
 4.2631417965e-01	 1.6517582986e+00	-8.1490802766e-01
 4.1133375375e-01	 1.6555524039e+00	-7.7985297701e-01
 3.9635729548e-01	 1.6592016323e+00	-7.4502484335e-01
 3.8138674621e-01	 1.6627066012e+00	-7.1053848385e-01
 3.6642402607e-01	 1.6660679591e+00	-6.7649867861e-01
 3.5147103331e-01	 1.6692863858e+00	-6.4300316532e-01
 3.3652964380e-01	 1.6723625910e+00	-6.1014546587e-01
 3.2160171051e-01	 1.6752973142e+00	-5.7801749670e-01
 3.0668906299e-01	 1.6780913235e+00	-5.4671195627e-01
 2.9179350692e-01	 1.6807454153e+00	-5.1632448490e-01
 2.7669920824e-01	 1.5938014885e+00	-7.3279754792e-01
 2.6258969053e-01	 1.5961867811e+00	-7.0732269395e-01
 2.4849974570e-01	 1.5984409358e+00	-6.8341511774e-01
 2.3443102005e-01	 1.6005647824e+00	-6.6097612128e-01
 2.2038513559e-01	 1.6025591752e+00	-6.3990430531e-01
 2.0636368968e-01	 1.6044249910e+00	-6.2009664154e-01
 1.9236825466e-01	 1.6061631297e+00	-6.0144939526e-01
 1.7840037765e-01	 1.6077745126e+00	-5.8385890088e-01
 1.6446158018e-01	 1.6092600820e+00	-5.6722219355e-01
 1.5055335800e-01	 1.6106208007e+00	-5.5143750093e-01
 1.3667718079e-01	 1.6118576511e+00	-5.3640459989e-01
 2.7820865222e-01	 1.6024959625e+00	-7.0888042490e-01
 2.6402216456e-01	 1.6048942673e+00	-6.8338920885e-01
 2.4985535653e-01	 1.6071607188e+00	-6.5941234380e-01
 2.3570988346e-01	 1.6092961514e+00	-6.3685863796e-01
 2.2158737617e-01	 1.6113014239e+00	-6.1563497214e-01
 2.0748944074e-01	 1.6131774181e+00	-5.9564738381e-01
 1.9341765812e-01	 1.6149250387e+00	-5.7680199471e-01
 1.7937358382e-01	 1.6165452119e+00	-5.5900578484e-01
 1.6535874770e-01	 1.6180388854e+00	-5.4216721624e-01
 1.5137465366e-01	 1.6194070271e+00	-5.2619671070e-01
 1.3742277941e-01	 1.6206506247e+00	-5.1100698656e-01
 2.7971809535e-01	 1.6111904315e+00	-6.8552271886e-01
 2.6545463777e-01	 1.6136017486e+00	-6.5996762775e-01
 2.5121096660e-01	 1.6158804968e+00	-6.3588494470e-01
 2.3698874614e-01	 1.6180275154e+00	-6.1318881721e-01
 2.2278961607e-01	 1.6200436677e+00	-5.9179246612e-01
 2.0861519117e-01	 1.6219298403e+00	-5.7160928005e-01
 1.9446706097e-01	 1.6236869427e+00	-5.5255374626e-01
 1.8034678944e-01	 1.6253159063e+00	-5.3454222092e-01
 1.6625591471e-01	 1.6268176838e+00	-5.1749354228e-01
 1.5219594886e-01	 1.6281932485e+00	-5.0132949148e-01
 1.3816837761e-01	 1.6294435933e+00	-4.8597510609e-01
 2.8122753676e-01	 1.6198848907e+00	-6.6270001115e-01
 2.6688710935e-01	 1.6223092199e+00	-6.3702288660e-01
 2.5256657514e-01	 1.6246002650e+00	-6.1278906576e-01
 2.3826760737e-01	 1.6267588695e+00	-5.8991587806e-01
 2.2399185461e-01	 1.6287859015e+00	-5.6832095394e-01
 2.0974094033e-01	 1.6306822525e+00	-5.4792332824e-01
 1.9551646264e-01	 1.6324488368e+00	-5.2864437261e-01
 1.8131999395e-01	 1.6340865907e+00	-5.1040855970e-01
 1.6715308071e-01	 1.6355964723e+00	-4.9314406333e-01
 1.5301724313e-01	 1.6369794599e+00	-4.7678319920e-01
 1.3891397496e-01	 1.6382365519e+00	-4.6126271193e-01
 2.8273697561e-01	 1.6285793351e+00	-6.4039014662e-01
 2.6831957851e-01	 1.6310166765e+00	-6.1452251081e-01
 2.5392218136e-01	 1.6333200183e+00	-5.9008370152e-01
 2.3954646643e-01	 1.6354902088e+00	-5.6699208167e-01
 2.2519409110e-01	 1.6375281206e+00	-5.4516776978e-01
 2.1086668757e-01	 1.6394346498e+00	-5.2453375122e-01
 1.9656586252e-01	 1.6412107159e+00	-5.0501681010e-01
 1.8229319681e-01	 1.6428572603e+00	-4.8654828540e-01
 1.6805024518e-01	 1.6443752458e+00	-4.6906465536e-01
 1.5383853600e-01	 1.6457656564e+00	-4.5250795528e-01
 1.3965957104e-01	 1.6470294956e+00	-4.3682603454e-01
 2.8424641104e-01	 1.6372737599e+00	-6.1857314993e-01
 2.6975204441e-01	 1.6397241134e+00	-5.9243652859e-01
 2.5527778452e-01	 1.6420397519e+00	-5.6773060743e-01
 2.4082532259e-01	 1.6442215283e+00	-5.4437264255e-01
 2.2639632486e-01	 1.6462703197e+00	-5.2228332759e-01
 2.1199243226e-01	 1.6481870273e+00	-5.0138791121e-01
 1.9761526003e-01	 1.6499725752e+00	-4.8161712696e-01
 1.8326639746e-01	 1.6516279099e+00	-4.6290793900e-01
 1.6894740761e-01	 1.6531539995e+00	-4.4520410818e-01
 1.5465982701e-01	 1.6545518329e+00	-4.2845658386e-01
 1.4040516544e-01	 1.6558224194e+00	-4.1262372765e-01
 2.8575584219e-01	 1.6459681599e+00	-5.9723114387e-01
 2.7118450626e-01	 1.6484315255e+00	-5.7073738639e-01
 2.5663338383e-01	 1.6507594608e+00	-5.4569421365e-01
 2.4210417513e-01	 1.6529528230e+00	-5.2201564222e-01
 2.2759855522e-01	 1.6550124942e+00	-4.9962103558e-01
 2.1311817376e-01	 1.6569393800e+00	-4.7843622665e-01
 1.9866465456e-01	 1.6587344097e+00	-4.5839444371e-01
 1.8423959536e-01	 1.6603985347e+00	-4.3943704361e-01
 1.6984456751e-01	 1.6619327282e+00	-4.2151405693e-01
 1.5548111569e-01	 1.6633379846e+00	-4.0458455082e-01
 1.4115075772e-01	 1.6646153182e+00	-3.8861681612e-01
 2.8726526821e-01	 1.6546625304e+00	-5.7634826934e-01
 2.7261696323e-01	 1.6571389081e+00	-5.4939986626e-01
 2.5798897854e-01	 1.6594791400e+00	-5.2394154099e-01
 2.4338302331e-01	 1.6616840881e+00	-4.9988194479e-01
 2.2880078150e-01	 1.6637546389e+00	-4.7713721297e-01
 2.1424391143e-01	 1.6656917030e+00	-4.5563209116e-01
 1.9971404552e-01	 1.6674962144e+00	-4.3530085563e-01
 1.8521278995e-01	 1.6691691297e+00	-4.1608803170e-01
 1.7074172435e-01	 1.6707114272e+00	-3.9794891541e-01
 1.5630240158e-01	 1.6721241064e+00	-3.8084990445e-01
 1.4189634747e-01	 1.6734081872e+00	-3.6476864522e-01
 2.8877468824e-01	 1.6633568665e+00	-5.5591060718e-01
 2.7404941453e-01	 1.6658462561e+00	-5.2840100503e-01
 2.5934456787e-01	 1.6681987847e+00	-5.0244211877e-01
 2.4466186643e-01	 1.6704153185e+00	-4.7793511476e-01
 2.3000300300e-01	 1.6724967489e+00	-4.5479100876e-01
 2.1536964464e-01	 1.6744439912e+00	-4.3293179465e-01
 2.0076343232e-01	 1.6762579843e+00	-4.1229135735e-01
 1.8618598067e-01	 1.6779396898e+00	-3.9281617434e-01
 1.7163887763e-01	 1.6794900913e+00	-3.7446581123e-01
 1.5712368422e-01	 1.6809101933e+00	-3.5721321772e-01
 1.4264193426e-01	 1.6822010213e+00	-3.4104483121e-01
 2.9028410143e-01	 1.6720511631e+00	-5.3590610153e-01
 2.7548185933e-01	 1.6745535646e+00	-5.0772001544e-01
 2.6070015105e-01	 1.6769183898e+00	-4.8116790471e-01
 2.4594070375e-01	 1.6791465094e+00	-4.5614133679e-01
 2.3120521906e-01	 1.6812388193e+00	-4.3254432259e-01
 2.1649537274e-01	 1.6831962397e+00	-4.1029444632e-01
 2.0181281437e-01	 1.6850197145e+00	-3.8932376928e-01
 1.8715916699e-01	 1.6867102102e+00	-3.6957951232e-01
 1.7253602685e-01	 1.6882687155e+00	-3.5102452270e-01
 1.5794496313e-01	 1.6896962404e+00	-3.3363753209e-01
 1.4338751767e-01	 1.6909938155e+00	-3.1741321339e-01
 2.9179350692e-01	 1.6807454153e+00	-5.1632448490e-01
 2.7691429682e-01	 1.6832608288e+00	-4.8733820891e-01
 2.6205572732e-01	 1.6856379504e+00	-4.6009320652e-01
 2.4721953454e-01	 1.6878776557e+00	-4.3446933730e-01
 2.3240742898e-01	 1.6899808451e+00	-4.1036172751e-01
 2.1762109510e-01	 1.6919484436e+00	-3.8768189977e-01
 2.0286219106e-01	 1.6937814001e+00	-3.6635866608e-01
 1.8813234834e-01	 1.6954806859e+00	-3.4633878904e-01
 1.7343317150e-01	 1.6970472951e+00	-3.2758741734e-01
 1.5876623785e-01	 1.6984822427e+00	-3.1008830286e-01
 1.4413309728e-01	 1.6997865649e+00	-2.9384380727e-01
 1.3667718079e-01	 1.6118576511e+00	-5.3640459989e-01
 1.2283683665e-01	 1.6129714553e+00	-5.2298881682e-01
 1.0903135356e-01	 1.6139634527e+00	-5.1189082058e-01
 9.5262089698e-02	 1.6148346794e+00	-5.0277385704e-01
 8.1530377368e-02	 1.6155861883e+00	-4.9530346357e-01
 6.7837522827e-02	 1.6162190481e+00	-4.8914748650e-01
 5.4184806178e-02	 1.6167343431e+00	-4.8397599602e-01
 4.0573481271e-02	 1.6171331722e+00	-4.7946110623e-01
 2.7004775613e-02	 1.6174166482e+00	-4.7527670808e-01
 1.3479890307e-02	 1.6175858975e+00	-4.7109812321e-01
 0.0000000000e+00	 1.6176420588e+00	-4.6660168657e-01
 1.3742277941e-01	 1.6206506247e+00	-5.1100698656e-01
 1.2350693370e-01	 1.6217705049e+00	-4.9745164343e-01
 1.0962613921e-01	 1.6227679138e+00	-4.8620627155e-01
 9.5781761542e-02	 1.6236438933e+00	-4.7692842755e-01
 8.1975140250e-02	 1.6243995017e+00	-4.6927898265e-01
 6.8207588723e-02	 1.6250358139e+00	-4.6292211291e-01
 5.4480394048e-02	 1.6255539199e+00	-4.5752518230e-01
 4.0794816914e-02	 1.6259549247e+00	-4.5275852628e-01
 2.7152091524e-02	 1.6262399471e+00	-4.4829514412e-01
 1.3553425535e-02	 1.6264101197e+00	-4.4381030851e-01
 0.0000000000e+00	 1.6264665874e+00	-4.3898110033e-01
 1.3816837761e-01	 1.6294435933e+00	-4.8597510609e-01
 1.2417703037e-01	 1.6305695495e+00	-4.7227247976e-01
 1.1022092453e-01	 1.6315723700e+00	-4.6087367887e-01
 9.6301433091e-02	 1.6324531021e+00	-4.5143216240e-01
 8.2419902880e-02	 1.6332128102e+00	-4.4360579311e-01
 6.8577654409e-02	 1.6338525747e+00	-4.3705679723e-01
 5.4775981750e-02	 1.6343734917e+00	-4.3145161189e-01
 4.1016152430e-02	 1.6347766722e+00	-4.2646062854e-01
 2.7299407352e-02	 1.6350632411e+00	-4.2175784082e-01
 1.3626960720e-02	 1.6352343369e+00	-4.1702040582e-01
 0.0000000000e+00	 1.6352911109e+00	-4.1192812724e-01
 1.3891397496e-01	 1.6382365519e+00	-4.6126271193e-01
 1.2484712629e-01	 1.6393685841e+00	-4.4741241478e-01
 1.1081570918e-01	 1.6403768161e+00	-4.3586139773e-01
 9.6821104052e-02	 1.6412623009e+00	-4.2626060320e-01
 8.2864665005e-02	 1.6420261086e+00	-4.1826653423e-01
 6.8947719676e-02	 1.6426693255e+00	-4.1154118002e-01
 5.5071569116e-02	 1.6431930536e+00	-4.0575182407e-01
 4.1237487696e-02	 1.6435984097e+00	-4.0057074352e-01
 2.7446723012e-02	 1.6438865250e+00	-3.9567480877e-01
 1.3700495823e-02	 1.6440585441e+00	-3.9074499241e-01
 0.0000000000e+00	 1.6441156245e+00	-3.8546579656e-01
 1.3965957104e-01	 1.6470294956e+00	-4.3682603454e-01
 1.2551722106e-01	 1.6481676038e+00	-4.2283467762e-01
 1.1141049281e-01	 1.6491812473e+00	-4.1113955992e-01
 9.7340774129e-02	 1.6500714848e+00	-4.0139067843e-01
 8.3309426375e-02	 1.6508393921e+00	-3.9324481666e-01
 6.9317784313e-02	 1.6514860613e+00	-3.8636543249e-01
 5.5367155980e-02	 1.6520126004e+00	-3.8042242325e-01
 4.1458822586e-02	 1.6524201322e+00	-3.7509177723e-01
 2.7594038422e-02	 1.6527097939e+00	-3.7005512094e-01
 1.3774030800e-02	 1.6528827363e+00	-3.6499917178e-01
 0.0000000000e+00	 1.6529401231e+00	-3.5961510537e-01
 1.4040516544e-01	 1.6558224194e+00	-4.1262372765e-01
 1.2618731431e-01	 1.6569666035e+00	-3.9850459372e-01
 1.1200527510e-01	 1.6579856585e+00	-3.8668004016e-01
 9.7860443028e-02	 1.6588806487e+00	-3.7680068004e-01
 8.3754186736e-02	 1.6596526556e+00	-3.6852520950e-01
 6.9687848112e-02	 1.6603027772e+00	-3.6152025421e-01
 5.5662742174e-02	 1.6608321273e+00	-3.5546008767e-01
 4.1680156973e-02	 1.6612418347e+00	-3.5002623091e-01
 2.7741353498e-02	 1.6615330428e+00	-3.4490694354e-01
 1.3847565611e-02	 1.6617069085e+00	-3.3979661588e-01
 0.0000000000e+00	 1.6617646017e+00	-3.3439507230e-01
 1.4115075772e-01	 1.6646153182e+00	-3.8861681612e-01
 1.2685740567e-01	 1.6657655783e+00	-3.7438954230e-01
 1.1260005570e-01	 1.6667900448e+00	-3.6245642331e-01
 9.8380110455e-02	 1.6676897876e+00	-3.5247024068e-01
 8.4198945838e-02	 1.6684658941e+00	-3.4409322774e-01
 7.0057910862e-02	 1.6691194680e+00	-3.3699687097e-01
 5.5958327531e-02	 1.6696516291e+00	-3.3086157767e-01
 4.1901490734e-02	 1.6700635123e+00	-3.2537622007e-01
 2.7888668156e-02	 1.6703562668e+00	-3.2023756591e-01
 1.3921100213e-02	 1.6705310557e+00	-3.1514960609e-01
 0.0000000000e+00	 1.6705890552e+00	-3.0982278961e-01
 1.4189634747e-01	 1.6734081872e+00	-3.6476864522e-01
 1.2752749475e-01	 1.6745645232e+00	-3.5045891490e-01
 1.1319483428e-01	 1.6755944012e+00	-3.3844397246e-01
 9.8899776116e-02	 1.6764988966e+00	-3.2838031154e-01
 8.4643703427e-02	 1.6772791027e+00	-3.1993532002e-01
 7.0427972354e-02	 1.6779361289e+00	-3.1278703255e-01
 5.6253911883e-02	 1.6784711010e+00	-3.0662374381e-01
 4.2122823742e-02	 1.6788851598e+00	-3.0114349291e-01
 2.8035982313e-02	 1.6791794607e+00	-2.9605342952e-01
 1.3994634565e-02	 1.6793551729e+00	-2.9106907277e-01
 0.0000000000e+00	 1.6794134788e+00	-2.8591347357e-01
 1.4264193426e-01	 1.6822010213e+00	-3.4104483121e-01
 1.2819758117e-01	 1.6833634332e+00	-3.2668407516e-01
 1.1378961050e-01	 1.6843987226e+00	-3.1461959796e-01
 9.9419439715e-02	 1.6853079707e+00	-3.0451314076e-01
 8.5088459253e-02	 1.6860922763e+00	-2.9603885661e-01
 7.0798032378e-02	 1.6867527548e+00	-2.8888301057e-01
 5.6549495062e-02	 1.6872905379e+00	-2.8274353459e-01
 4.2344155872e-02	 1.6877067723e+00	-2.7732944818e-01
 2.8183295887e-02	 1.6880026196e+00	-2.7236015601e-01
 1.4068168626e-02	 1.6881792551e+00	-2.6756463371e-01
 0.0000000000e+00	 1.6882378674e+00	-2.6268051331e-01
 1.4338751767e-01	 1.6909938155e+00	-3.1741321339e-01
 1.2886766455e-01	 1.6921623033e+00	-3.0303831955e-01
 1.1438438402e-01	 1.6932030041e+00	-2.9096182724e-01
 9.9939100959e-02	 1.6941170048e+00	-2.8085225248e-01
 8.5533213062e-02	 1.6949054099e+00	-2.7239211786e-01
 7.1168090725e-02	 1.6955693408e+00	-2.6527759638e-01
 5.6845076902e-02	 1.6961099348e+00	-2.5921800398e-01
 4.2565487000e-02	 1.6965283449e+00	-2.5393515248e-01
 2.8330608793e-02	 1.6968257385e+00	-2.4916257439e-01
 1.4141702353e-02	 1.6970032973e+00	-2.4464463134e-01
 0.0000000000e+00	 1.6970622159e+00	-2.4013551824e-01
 1.4413309728e-01	 1.6997865649e+00	-2.9384380727e-01
 1.2953774452e-01	 1.7009611285e+00	-2.7949683927e-01
 1.1497915452e-01	 1.7020072407e+00	-2.6745077538e-01
 1.0045875955e-01	 1.7029259940e+00	-2.5738242632e-01
 8.5977964604e-02	 1.7037184986e+00	-2.4898428275e-01
 7.1538147186e-02	 1.7043858817e+00	-2.4196409883e-01
 5.7140657235e-02	 1.7049292867e+00	-2.3604431859e-01
 4.2786816999e-02	 1.7053498724e+00	-2.3096135694e-01
 2.8477920947e-02	 1.7056488125e+00	-2.2646474736e-01
 1.4215235706e-02	 1.7058272945e+00	-2.2231616878e-01
 0.0000000000e+00	 1.7058865195e+00	-2.1828836385e-01
 1.7058865195e+00	 0.0000000000e+00	 3.4181621702e+00
 1.7058272945e+00	 1.4215235706e-02	 3.4150262582e+00
 1.7056488125e+00	 2.8477920947e-02	 3.4100053700e+00
 1.7053498724e+00	 4.2786816999e-02	 3.4029098815e+00
 1.7049292867e+00	 5.7140657235e-02	 3.3935858059e+00
 1.7043858817e+00	 7.1538147186e-02	 3.3819164206e+00
 1.7037184986e+00	 8.5977964604e-02	 3.3678237805e+00
 1.7029259940e+00	 1.0045875955e-01	 3.3512701130e+00
 1.7020072407e+00	 1.1497915452e-01	 3.3322590887e+00
 1.7009611285e+00	 1.2953774452e-01	 3.3108369646e+00
 1.6997865649e+00	 1.4413309728e-01	 3.2870935936e+00
 1.7147092756e+00	 0.0000000000e+00	 3.3987032369e+00
 1.7146497443e+00	 1.4288756164e-02	 3.3952219070e+00
 1.7144703392e+00	 2.8625207270e-02	 3.3899298167e+00
 1.7141698530e+00	 4.3008108185e-02	 3.3826254497e+00
 1.7137470921e+00	 5.7436185734e-02	 3.3731441255e+00
 1.7132008766e+00	 7.1908138752e-02	 3.3613596408e+00
 1.7125300418e+00	 8.6422638153e-02	 3.3471857938e+00
 1.7117334384e+00	 1.0097832702e-01	 3.3305777862e+00
 1.7108099334e+00	 1.1557382071e-01	 3.3115334975e+00
 1.7097584107e+00	 1.3020770698e-01	 3.2900946277e+00
 1.7085777723e+00	 1.4487854614e-01	 3.2663477041e+00
 1.7235319917e+00	 0.0000000000e+00	 3.3803599362e+00
 1.7234721541e+00	 1.4362276288e-02	 3.3767199551e+00
 1.7232918259e+00	 2.8772492924e-02	 3.3713223553e+00
 1.7229897936e+00	 4.3229398368e-02	 3.3639524952e+00
 1.7225648574e+00	 5.7731712894e-02	 3.3544337918e+00
 1.7220158315e+00	 7.2278128642e-02	 3.3426293769e+00
 1.7213415451e+00	 8.6867309687e-02	 3.3284436325e+00
 1.7205408429e+00	 1.0149789213e-01	 3.3118236009e+00
 1.7196125861e+00	 1.1616848420e-01	 3.2927602628e+00
 1.7185556531e+00	 1.3087766640e-01	 3.2712896808e+00
 1.7173689399e+00	 1.4562399163e-01	 3.2474940024e+00
 1.7323546778e+00	 0.0000000000e+00	 3.3630904978e+00
 1.7322945339e+00	 1.4435796163e-02	 3.3594866667e+00
 1.7321132826e+00	 2.8919778079e-02	 3.3541570064e+00
 1.7318097042e+00	 4.3450687800e-02	 3.3468725455e+00
 1.7313825928e+00	 5.8027239050e-02	 3.3374436179e+00
 1.7308307565e+00	 7.2648117275e-02	 3.3257215348e+00
 1.7301530184e+00	 8.7311979709e-02	 3.3116001325e+00
 1.7293482174e+00	 1.0201745547e-01	 3.2950171895e+00
 1.7284152090e+00	 1.1676314568e-01	 3.2759557105e+00
 1.7273528655e+00	 1.3154762354e-01	 3.2544450699e+00
 1.7261600776e+00	 1.4636943457e-01	 3.2305620124e+00
 1.7411773439e+00	 0.0000000000e+00	 3.3468534198e+00
 1.7411168937e+00	 1.4509315872e-02	 3.3434884375e+00
 1.7409347193e+00	 2.9067062899e-02	 3.3384077854e+00
 1.7406295949e+00	 4.3671976730e-02	 3.3313669852e+00
 1.7402003082e+00	 5.8322764537e-02	 3.3221621357e+00
 1.7396456614e+00	 7.3018105069e-02	 3.3106316010e+00
 1.7389644717e+00	 8.7756648724e-02	 3.2966575702e+00
 1.7381555720e+00	 1.0253701764e-01	 3.2801674843e+00
 1.7372178118e+00	 1.1735780580e-01	 3.2611353241e+00
 1.7361500580e+00	 1.3221757917e-01	 3.2395827553e+00
 1.7349511954e+00	 1.4711487583e-01	 3.2155801275e+00
 1.7500000000e+00	 0.0000000000e+00	 3.3316074624e+00
 1.7499392435e+00	 1.4582835497e-02	 3.3286917916e+00
 1.7497561460e+00	 2.9214347553e-02	 3.3240487018e+00
 1.7494494755e+00	 4.3893265410e-02	 3.3174170587e+00
 1.7490180136e+00	 5.8618289688e-02	 3.3085776020e+00
 1.7484605564e+00	 7.3388092444e-02	 3.2973546504e+00
 1.7477759150e+00	 8.8201317235e-02	 3.2836176746e+00
 1.7469629166e+00	 1.0305657922e-01	 3.2672827326e+00
 1.7460204047e+00	 1.1795246526e-01	 3.2483137635e+00
 1.7449472406e+00	 1.3288753404e-01	 3.2267237345e+00
 1.7437423032e+00	 1.4786031625e-01	 3.2025756370e+00
 1.7588226561e+00	 0.0000000000e+00	 3.3173116428e+00
 1.7587615933e+00	 1.4656355122e-02	 3.3150633785e+00
 1.7585775727e+00	 2.9361632207e-02	 3.3110537591e+00
 1.7582693561e+00	 4.4114554089e-02	 3.3050038724e+00
 1.7578357190e+00	 5.8913814840e-02	 3.2966780031e+00
 1.7572754514e+00	 7.3758079819e-02	 3.2858853552e+00
 1.7565873584e+00	 8.8645985747e-02	 3.2724816380e+00
 1.7557702612e+00	 1.0357614080e-01	 3.2563705110e+00
 1.7548229977e+00	 1.1854712471e-01	 3.2375048836e+00
 1.7537444231e+00	 1.3355748891e-01	 3.2158880636e+00
 1.7525334110e+00	 1.4860575666e-01	 3.1915747520e+00
 1.7676453222e+00	 0.0000000000e+00	 3.3037406523e+00
 1.7675839531e+00	 1.4729874830e-02	 3.3023568631e+00
 1.7673990094e+00	 2.9508917028e-02	 3.2991797133e+00
 1.7670892468e+00	 4.4335843020e-02	 3.2939150522e+00
 1.7666534344e+00	 5.9209340326e-02	 3.2863069951e+00
 1.7660903563e+00	 7.4128067613e-02	 3.2761378939e+00
 1.7653988117e+00	 8.9090654762e-02	 3.2632283019e+00
 1.7645776158e+00	 1.0409570297e-01	 3.2474377401e+00
 1.7636256005e+00	 1.1914178483e-01	 3.2287217511e+00
 1.7625416156e+00	 1.3422744453e-01	 3.2070948785e+00
 1.7613245288e+00	 1.4935119792e-01	 3.1826026301e+00
 1.7764680083e+00	 0.0000000000e+00	 3.2884664171e+00
 1.7764063329e+00	 1.4803394705e-02	 3.2876681062e+00
 1.7762204661e+00	 2.9656202182e-02	 3.2850904190e+00
 1.7759091574e+00	 4.4557132451e-02	 3.2804464866e+00
 1.7754711698e+00	 5.9504866482e-02	 3.2734874995e+00
 1.7749052813e+00	 7.4498056245e-02	 3.2640026481e+00
 1.7742102850e+00	 8.9535324784e-02	 3.2518190572e+00
 1.7733849903e+00	 1.0461526631e-01	 3.2368017190e+00
 1.7724282234e+00	 1.1973644631e-01	 3.2188534256e+00
 1.7713388280e+00	 1.3489740168e-01	 3.1979147043e+00
 1.7701156665e+00	 1.5009664087e-01	 3.1739637587e+00
 1.7852907244e+00	 0.0000000000e+00	 3.2707533544e+00
 1.7852287427e+00	 1.4876914830e-02	 3.2700920436e+00
 1.7850419528e+00	 2.9803487837e-02	 3.2676653015e+00
 1.7847290980e+00	 4.4778422635e-02	 3.2631928897e+00
 1.7842889352e+00	 5.9800393642e-02	 3.2564323990e+00
 1.7837202362e+00	 7.4868046135e-02	 3.2471791596e+00
 1.7830217883e+00	 8.9979996318e-02	 3.2352661472e+00
 1.7821923948e+00	 1.0513483142e-01	 3.2205638876e+00
 1.7812308761e+00	 1.2033110980e-01	 3.2029803629e+00
 1.7801360704e+00	 1.3556736110e-01	 3.1824609217e+00
 1.7789068341e+00	 1.5084208636e-01	 3.1589881965e+00
 1.7941134805e+00	 0.0000000000e+00	 3.2506090330e+00
 1.7940511925e+00	 1.4950435288e-02	 3.2496358500e+00
 1.7938634795e+00	 2.9950774159e-02	 3.2469113954e+00
 1.7935490786e+00	 4.4999713821e-02	 3.2421614296e+00
 1.7931067405e+00	 6.0095922142e-02	 3.2351492882e+00
 1.7925352311e+00	 7.5238037701e-02	 3.2256757623e+00
 1.7918333315e+00	 9.0424669867e-02	 3.2135789765e+00
 1.7909998392e+00	 1.0565439889e-01	 3.1987342659e+00
 1.7900335688e+00	 1.2092577599e-01	 3.1810540563e+00
 1.7889333526e+00	 1.3623732356e-01	 3.1604877502e+00
 1.7876980416e+00	 1.5158753522e-01	 3.1370216206e+00
 1.6997865649e+00	 1.4413309728e-01	 3.2870935936e+00
 1.6984822427e+00	 1.5876623785e-01	 3.2610431191e+00
 1.6970472951e+00	 1.7343317150e-01	 3.2325556695e+00
 1.6954806859e+00	 1.8813234834e-01	 3.2015597432e+00
 1.6937814001e+00	 2.0286219106e-01	 3.1680299498e+00
 1.6919484436e+00	 2.1762109510e-01	 3.1319876776e+00
 1.6899808451e+00	 2.3240742898e-01	 3.0935016184e+00
 1.6878776557e+00	 2.4721953454e-01	 3.0526881483e+00
 1.6856379504e+00	 2.6205572732e-01	 3.0097115623e+00
 1.6832608288e+00	 2.7691429682e-01	 2.9647841622e+00
 1.6807454153e+00	 2.9179350692e-01	 2.9181661957e+00
 1.7085777723e+00	 1.4487854614e-01	 3.2663477041e+00
 1.7072667043e+00	 1.5958736855e-01	 3.2403305051e+00
 1.7058243352e+00	 1.7433015881e-01	 3.2119372033e+00
 1.7042496236e+00	 1.8910535904e-01	 3.1810954742e+00
 1.7025415491e+00	 2.0391138373e-01	 3.1477803891e+00
 1.7006991127e+00	 2.1874662005e-01	 3.1120150671e+00
 1.6987213379e+00	 2.3360942808e-01	 3.0738711829e+00
 1.6966072709e+00	 2.4849814108e-01	 3.0334693265e+00
 1.6943559820e+00	 2.6341106587e-01	 2.9909792145e+00
 1.6919665660e+00	 2.7834648312e-01	 2.9466197510e+00
 1.6894381429e+00	 2.9330264772e-01	 2.9006589379e+00
 1.7173689399e+00	 1.4562399163e-01	 3.2474940024e+00
 1.7160511260e+00	 1.6040849553e-01	 3.2214348510e+00
 1.7146013355e+00	 1.7522714206e-01	 3.1930325424e+00
 1.7130185215e+00	 1.9007836532e-01	 3.1622157136e+00
 1.7113016584e+00	 2.0496057165e-01	 3.1289616959e+00
 1.7094497422e+00	 2.1987213991e-01	 3.0932971496e+00
 1.7074617910e+00	 2.3481142173e-01	 3.0552985501e+00
 1.7053368465e+00	 2.4977674182e-01	 3.0150925238e+00
 1.7030739740e+00	 2.6476639828e-01	 2.9728560317e+00
 1.7006722637e+00	 2.7977866292e-01	 2.9288164004e+00
 1.6981308311e+00	 2.9481178167e-01	 2.8832511996e+00
 1.7261600776e+00	 1.4636943457e-01	 3.2305620124e+00
 1.7248355179e+00	 1.6122961972e-01	 3.2043918775e+00
 1.7233783059e+00	 1.7612412227e-01	 3.1758828533e+00
 1.7217873896e+00	 1.9105136829e-01	 3.1449663088e+00
 1.7200617380e+00	 2.0600975600e-01	 3.1116236208e+00
 1.7182003418e+00	 2.2099765593e-01	 3.0758867871e+00
 1.7162022144e+00	 2.3601341129e-01	 3.0378388886e+00
 1.7140663924e+00	 2.5105533822e-01	 2.9976143966e+00
 1.7117919364e+00	 2.6612172608e-01	 2.9553993260e+00
 1.7093779318e+00	 2.8121083786e-01	 2.9114312323e+00
 1.7068234898e+00	 2.9632091050e-01	 2.8659990529e+00
 1.7349511954e+00	 1.4711487583e-01	 3.2155801275e+00
 1.7336198899e+00	 1.6205074205e-01	 3.1892360356e+00
 1.7321552565e+00	 1.7702110044e-01	 3.1605279075e+00
 1.7305562378e+00	 1.9202436906e-01	 3.1293916017e+00
 1.7288217977e+00	 2.0705893797e-01	 3.0958143126e+00
 1.7269509217e+00	 2.2212316940e-01	 3.0598351598e+00
 1.7249426181e+00	 2.3721539814e-01	 3.0215456208e+00
 1.7227959186e+00	 2.5233393171e-01	 2.9810898080e+00
 1.7205098790e+00	 2.6747705081e-01	 2.9386645865e+00
 1.7180835802e+00	 2.8264300955e-01	 2.8945195343e+00
 1.7155161287e+00	 2.9783003590e-01	 2.8489567429e+00
 1.7437423032e+00	 1.4786031625e-01	 3.2025756370e+00
 1.7424042519e+00	 1.6287186345e-01	 3.1760005375e+00
 1.7409321971e+00	 1.7791807759e-01	 3.1470061160e+00
 1.7393250761e+00	 1.9299736873e-01	 3.1155344658e+00
 1.7375818474e+00	 2.0810811875e-01	 3.0815803594e+00
 1.7357014916e+00	 2.2324868160e-01	 3.0451918096e+00
 1.7336830118e+00	 2.3841738361e-01	 3.0064704702e+00
 1.7315254348e+00	 2.5361252376e-01	 2.9655718779e+00
 1.7292278118e+00	 2.6883237400e-01	 2.9227055324e+00
 1.7267892188e+00	 2.8407517962e-01	 2.8781348147e+00
 1.7242087578e+00	 2.9933915960e-01	 2.8321767445e+00
 1.7525334110e+00	 1.4860575666e-01	 3.1915747520e+00
 1.7511886139e+00	 1.6369298484e-01	 3.1647173858e+00
 1.7497091377e+00	 1.7881505474e-01	 3.1353545621e+00
 1.7480939144e+00	 1.9397036840e-01	 3.1034363432e+00
 1.7463418972e+00	 2.0915729953e-01	 3.0689668287e+00
 1.7444520615e+00	 2.2437419380e-01	 3.0320046842e+00
 1.7424234055e+00	 2.3961936909e-01	 2.9926635078e+00
 1.7402549511e+00	 2.5489111581e-01	 2.9511120323e+00
 1.7379457445e+00	 2.7018769720e-01	 2.9075741640e+00
 1.7354948573e+00	 2.8550734969e-01	 2.8623288563e+00
 1.7329013869e+00	 3.0084828329e-01	 2.8157098186e+00
 1.7613245288e+00	 1.4935119792e-01	 3.1826026301e+00
 1.7599729859e+00	 1.6451410717e-01	 3.1554174018e+00
 1.7584860883e+00	 1.7971203291e-01	 3.1256090339e+00
 1.7568627626e+00	 1.9494336917e-01	 3.0931372806e+00
 1.7551019569e+00	 2.1020648150e-01	 3.0580173062e+00
 1.7532026413e+00	 2.2549970728e-01	 3.0203201786e+00
 1.7511638091e+00	 2.4082135594e-01	 2.9801731967e+00
 1.7489844772e+00	 2.5616970931e-01	 2.9377600502e+00
 1.7466636871e+00	 2.7154302193e-01	 2.8933208132e+00
 1.7442005057e+00	 2.8693952138e-01	 2.8471517685e+00
 1.7415940259e+00	 3.0235740870e-01	 2.7996050657e+00
 1.7701156665e+00	 1.5009664087e-01	 3.1739637587e+00
 1.7687573777e+00	 1.6533523136e-01	 3.1471166861e+00
 1.7672630587e+00	 1.8060901311e-01	 3.1173816240e+00
 1.7656316307e+00	 1.9591637214e-01	 3.0846182716e+00
 1.7638620365e+00	 2.1125566585e-01	 3.0487739343e+00
 1.7619532410e+00	 2.2662522330e-01	 3.0101831766e+00
 1.7599042326e+00	 2.4202334550e-01	 2.9690464366e+00
 1.7577140231e+00	 2.5744830570e-01	 2.9255641112e+00
 1.7553816495e+00	 2.7289834973e-01	 2.8799941924e+00
 1.7529061738e+00	 2.8837169632e-01	 2.8326520391e+00
 1.7502866845e+00	 3.0386653752e-01	 2.7839099801e+00
 1.7789068341e+00	 1.5084208636e-01	 3.1589881965e+00
 1.7775417995e+00	 1.6615635834e-01	 3.1327081810e+00
 1.7760400590e+00	 1.8150599636e-01	 3.1036714344e+00
 1.7744005286e+00	 1.9688937842e-01	 3.0717604867e+00
 1.7726221458e+00	 2.1230485376e-01	 3.0368952174e+00
 1.7707038704e+00	 2.2775074315e-01	 2.9990331390e+00
 1.7686446857e+00	 2.4322533915e-01	 2.9581697090e+00
 1.7664435988e+00	 2.5872690644e-01	 2.9143386713e+00
 1.7640996415e+00	 2.7425368214e-01	 2.8676414424e+00
 1.7616118716e+00	 2.8980387613e-01	 2.8188765841e+00
 1.7589793727e+00	 3.0537567148e-01	 2.7686705018e+00
 1.7876980416e+00	 1.5158753522e-01	 3.1370216206e+00
 1.7863262610e+00	 1.6697748904e-01	 3.1108291571e+00
 1.7848170991e+00	 1.8240298368e-01	 3.0820027030e+00
 1.7831694663e+00	 1.9786238912e-01	 3.0504491972e+00
 1.7813822948e+00	 2.1335404644e-01	 3.0161124149e+00
 1.7794545395e+00	 2.2887626810e-01	 2.9789732115e+00
 1.7773851785e+00	 2.4442733825e-01	 2.9390497952e+00
 1.7751732139e+00	 2.6000551298e-01	 2.8963980317e+00
 1.7728176731e+00	 2.7560902069e-01	 2.8511117821e+00
 1.7703176088e+00	 2.9123606242e-01	 2.8033232759e+00
 1.7676721003e+00	 3.0688481227e-01	 2.7532035200e+00
 1.6807454153e+00	 2.9179350692e-01	 2.9181661957e+00
 1.6780913235e+00	 3.0668906299e-01	 2.8694073648e+00
 1.6752973142e+00	 3.2160171051e-01	 2.8178486731e+00
 1.6723625910e+00	 3.3652964380e-01	 2.7635293729e+00
 1.6692863858e+00	 3.5147103331e-01	 2.7065311912e+00
 1.6660679591e+00	 3.6642402607e-01	 2.6469778955e+00
 1.6627066012e+00	 3.8138674621e-01	 2.5850347257e+00
 1.6592016323e+00	 3.9635729548e-01	 2.5209076939e+00
 1.6555524039e+00	 4.1133375375e-01	 2.4548427523e+00
 1.6517582986e+00	 4.2631417965e-01	 2.3871248320e+00
 1.6478187318e+00	 4.4129661111e-01	 2.3180767528e+00
 1.6894381429e+00	 2.9330264772e-01	 2.9006589379e+00
 1.6867703243e+00	 3.0827524282e-01	 2.8526408182e+00
 1.6839618645e+00	 3.2326501778e-01	 2.8018696135e+00
 1.6810119631e+00	 3.3827015757e-01	 2.7483468808e+00
 1.6779198479e+00	 3.5328882316e-01	 2.6921176736e+00
 1.6746847757e+00	 3.6831915202e-01	 2.6332701342e+00
 1.6713060330e+00	 3.8335925857e-01	 2.5719349527e+00
 1.6677829366e+00	 3.9840723473e-01	 2.5082846927e+00
 1.6641148345e+00	 4.1346115047e-01	 2.4425329859e+00
 1.6603011064e+00	 4.2851905435e-01	 2.3749335967e+00
 1.6563411643e+00	 4.4357897416e-01	 2.3057793587e+00
 1.6981308311e+00	 2.9481178167e-01	 2.8832511996e+00
 1.6954492858e+00	 3.0986141547e-01	 2.8357051764e+00
 1.6926263755e+00	 3.2492831751e-01	 2.7854568620e+00
 1.6896612960e+00	 3.4001066344e-01	 2.7324791423e+00
 1.6865532709e+00	 3.5510660477e-01	 2.6767893943e+00
 1.6833015532e+00	 3.7021426938e-01	 2.6184490934e+00
 1.6799054258e+00	 3.8533176199e-01	 2.5575632849e+00
 1.6763642020e+00	 4.0045716469e-01	 2.4942799240e+00
 1.6726772264e+00	 4.1558853754e-01	 2.4287890824e+00
 1.6688438754e+00	 4.3072391905e-01	 2.3613220267e+00
 1.6648635582e+00	 4.4586132687e-01	 2.2921501671e+00
 1.7068234898e+00	 2.9632091050e-01	 2.8659990529e+00
 1.7041282177e+00	 3.1144758272e-01	 2.8186540071e+00
 1.7012908571e+00	 3.2659161159e-01	 2.7686593564e+00
 1.6983105994e+00	 3.4175116339e-01	 2.7159682113e+00
 1.6951866645e+00	 3.5692438020e-01	 2.6605791417e+00
 1.6919183014e+00	 3.7210938029e-01	 2.6025357850e+00
 1.6885047894e+00	 3.8730425869e-01	 2.5419263189e+00
 1.6849454382e+00	 4.0250708769e-01	 2.4788828005e+00
 1.6812395891e+00	 4.1771591738e-01	 2.4135803738e+00
 1.6773866154e+00	 4.3292877626e-01	 2.3462363468e+00
 1.6733859231e+00	 4.4814367181e-01	 2.2771091405e+00
 1.7155161287e+00	 2.9783003590e-01	 2.8489567429e+00
 1.7128071300e+00	 3.1303374638e-01	 2.8015390893e+00
 1.7099553191e+00	 3.2825490189e-01	 2.7515243285e+00
 1.7069598833e+00	 3.4349165940e-01	 2.6988545665e+00
 1.7038200385e+00	 3.5874215151e-01	 2.6435183096e+00
 1.7005350301e+00	 3.7400448691e-01	 2.5855500607e+00
 1.6971041335e+00	 3.8927675093e-01	 2.5250297802e+00
 1.6935266550e+00	 4.0455700604e-01	 2.4620822120e+00
 1.6898019324e+00	 4.1984329240e-01	 2.3968760776e+00
 1.6859293360e+00	 4.3513362847e-01	 2.3296231400e+00
 1.6819082687e+00	 4.5042601159e-01	 2.2605771383e+00
 1.7242087578e+00	 2.9933915960e-01	 2.8321767445e+00
 1.7214860324e+00	 3.1461990824e-01	 2.7844104716e+00
 1.7186197712e+00	 3.2991819031e-01	 2.7340973634e+00
 1.7156091573e+00	 3.4523215344e-01	 2.6811771699e+00
 1.7124534028e+00	 3.6055992076e-01	 2.6256369545e+00
 1.7091517490e+00	 3.7589959138e-01	 2.5675106659e+00
 1.7057034678e+00	 3.9124924093e-01	 2.5068785741e+00
 1.7021078620e+00	 4.0660692206e-01	 2.4438665705e+00
 1.6983642661e+00	 4.2197066501e-01	 2.3786453363e+00
 1.6944720469e+00	 4.3733847818e-01	 2.3114293786e+00
 1.6904306047e+00	 4.5270834877e-01	 2.2424759390e+00
 1.7329013869e+00	 3.0084828329e-01	 2.8157098186e+00
 1.7301649348e+00	 3.1620607010e-01	 2.7673165294e+00
 1.7272842233e+00	 3.3158147874e-01	 2.7164224572e+00
 1.7242584314e+00	 3.4697264748e-01	 2.6629735244e+00
 1.7210867670e+00	 3.6237769001e-01	 2.6069638516e+00
 1.7177684679e+00	 3.7779469586e-01	 2.5484352933e+00
 1.7143028022e+00	 3.9322173094e-01	 2.4874768349e+00
 1.7106890691e+00	 4.0865683809e-01	 2.4242238555e+00
 1.7069265997e+00	 4.2409803761e-01	 2.3588572559e+00
 1.7030147579e+00	 4.3954332789e-01	 2.2916024557e+00
 1.6989529406e+00	 4.5499068596e-01	 2.2227282617e+00
 1.7415940259e+00	 3.0235740870e-01	 2.7996050657e+00
 1.7388438471e+00	 3.1779223376e-01	 2.7503040206e+00
 1.7359486853e+00	 3.3324476904e-01	 2.6985420732e+00
 1.7329077153e+00	 3.4871314349e-01	 2.6442797294e+00
 1.7297201411e+00	 3.6419546132e-01	 2.5875265497e+00
 1.7263851966e+00	 3.7968980247e-01	 2.5283406354e+00
 1.7229021463e+00	 3.9519422317e-01	 2.4668279757e+00
 1.7192702858e+00	 4.1070675643e-01	 2.4031416580e+00
 1.7154889430e+00	 4.2622541263e-01	 2.3374809445e+00
 1.7115574785e+00	 4.4174818010e-01	 2.2700902165e+00
 1.7074752862e+00	 4.5727302573e-01	 2.2012577896e+00
 1.7502866845e+00	 3.0386653752e-01	 2.7839099801e+00
 1.7475227790e+00	 3.1937840101e-01	 2.7334181411e+00
 1.7446131668e+00	 3.3490806312e-01	 2.6804971980e+00
 1.7415570187e+00	 3.5045364345e-01	 2.6251305366e+00
 1.7383535347e+00	 3.6601323675e-01	 2.5673514249e+00
 1.7350019448e+00	 3.8158491339e-01	 2.5072424368e+00
 1.7315015099e+00	 3.9716671988e-01	 2.4449347366e+00
 1.7278515220e+00	 4.1275667943e-01	 2.3806072250e+00
 1.7240513058e+00	 4.2835279247e-01	 2.3144855508e+00
 1.7201002185e+00	 4.4395303731e-01	 2.2468409895e+00
 1.7159976511e+00	 4.5955537068e-01	 2.1779891926e+00
 1.7589793727e+00	 3.0537567148e-01	 2.7686705018e+00
 1.7562017405e+00	 3.2096457366e-01	 2.7167025778e+00
 1.7532776779e+00	 3.3657136285e-01	 2.6623273954e+00
 1.7502063516e+00	 3.5219414932e-01	 2.6055594044e+00
 1.7469869577e+00	 3.6783101836e-01	 2.5464637344e+00
 1.7436187224e+00	 3.8348003074e-01	 2.4851555447e+00
 1.7401009027e+00	 3.9913922329e-01	 2.4217992326e+00
 1.7364327874e+00	 4.1480660939e-01	 2.3566075032e+00
 1.7326136976e+00	 4.3048017954e-01	 2.2898403025e+00
 1.7286429875e+00	 4.4615790201e-01	 2.2218036184e+00
 1.7245200450e+00	 4.6183772338e-01	 2.1528481511e+00
 1.7676721003e+00	 3.0688481227e-01	 2.7532035200e+00
 1.7648807413e+00	 3.2255075349e-01	 2.7001969822e+00
 1.7619422282e+00	 3.3823467012e-01	 2.6440708599e+00
 1.7588557237e+00	 3.5393466308e-01	 2.5855985504e+00
 1.7556204198e+00	 3.6964880820e-01	 2.5248876682e+00
 1.7522355389e+00	 3.8537515669e-01	 2.4620939594e+00
 1.7487003345e+00	 4.0111173565e-01	 2.3974230011e+00
 1.7450140917e+00	 4.1685654864e-01	 2.3311291817e+00
 1.7411761283e+00	 4.3260757626e-01	 2.2635145437e+00
 1.7371857953e+00	 4.4836277670e-01	 2.1949274936e+00
 1.7330424775e+00	 4.6412008643e-01	 2.1257613803e+00
 1.6478187318e+00	 4.4129661111e-01	 2.3180767528e+00
 1.6437331520e+00	 4.5627906618e-01	 2.2464016764e+00
 1.6395010426e+00	 4.7125954432e-01	 2.1709688042e+00
 1.6351219218e+00	 4.8623602649e-01	 2.0924085021e+00
 1.6305953427e+00	 5.0120647558e-01	 2.0113907878e+00
 1.6259208937e+00	 5.1616883713e-01	 1.9286234776e+00
 1.6210981995e+00	 5.3112104005e-01	 1.8448502052e+00
 1.6161269212e+00	 5.4606099739e-01	 1.7608483160e+00
 1.6110067574e+00	 5.6098660704e-01	 1.6774266385e+00
 1.6057374444e+00	 5.7589575259e-01	 1.5954231361e+00
 1.6003187566e+00	 5.9078630409e-01	 1.5155474248e+00
 1.6563411643e+00	 4.4357897416e-01	 2.3057793587e+00
 1.6522344541e+00	 4.5863891770e-01	 2.2337923840e+00
 1.6479804565e+00	 4.7369687410e-01	 2.1579209521e+00
 1.6435786871e+00	 4.8875081386e-01	 2.0788574455e+00
 1.6390286967e+00	 5.0379868933e-01	 1.9973350370e+00
 1.6343300717e+00	 5.1883843543e-01	 1.9141257403e+00
 1.6294824348e+00	 5.3386797037e-01	 1.8300383314e+00
 1.6244854453e+00	 5.4888519638e-01	 1.7459161437e+00
 1.6193388003e+00	 5.6388800051e-01	 1.6626347388e+00
 1.6140422347e+00	 5.7887425538e-01	 1.5810994561e+00
 1.6085955217e+00	 5.9384182003e-01	 1.5015147690e+00
 1.6648635582e+00	 4.4586132687e-01	 2.2921501671e+00
 1.6607357177e+00	 4.6099875853e-01	 2.2200145588e+00
 1.6564598319e+00	 4.7613419283e-01	 2.1439265967e+00
 1.6520354140e+00	 4.9126558982e-01	 2.0646252668e+00
 1.6474620126e+00	 5.0639089132e-01	 1.9828915601e+00
 1.6427392117e+00	 5.2150802163e-01	 1.8995464487e+00
 1.6378666321e+00	 5.3661488823e-01	 1.8154487321e+00
 1.6328439316e+00	 5.5170938257e-01	 1.7314927551e+00
 1.6276708055e+00	 5.6678938082e-01	 1.6486060003e+00
 1.6223469873e+00	 5.8185274467e-01	 1.5677465593e+00
 1.6168722493e+00	 5.9689732213e-01	 1.4881959798e+00
 1.6733859231e+00	 4.4814367181e-01	 2.2771091405e+00
 1.6692369523e+00	 4.6335859134e-01	 2.2049617655e+00
 1.6649391785e+00	 4.7857150328e-01	 2.1288560413e+00
 1.6604921122e+00	 4.9378035724e-01	 2.0495623932e+00
 1.6558952997e+00	 5.0898308450e-01	 1.9678945413e+00
 1.6511483230e+00	 5.2417759875e-01	 1.8847074244e+00
 1.6462508009e+00	 5.3936179675e-01	 1.8008949918e+00
 1.6412023894e+00	 5.5453355916e-01	 1.7173878662e+00
 1.6360027823e+00	 5.6969075127e-01	 1.6351508816e+00
 1.6306517117e+00	 5.8483122383e-01	 1.5551804971e+00
 1.6251489488e+00	 5.9995281383e-01	 1.4754384184e+00
 1.6819082687e+00	 4.5042601159e-01	 2.2605771383e+00
 1.6777381677e+00	 4.6571841880e-01	 2.1885290095e+00
 1.6734185059e+00	 4.8100880820e-01	 2.1125815120e+00
 1.6689487913e+00	 4.9629511895e-01	 2.0335215902e+00
 1.6643285677e+00	 5.1157527181e-01	 1.9521808478e+00
 1.6595574153e+00	 5.2684716982e-01	 1.8694334397e+00
 1.6546349507e+00	 5.4210869904e-01	 1.7861938313e+00
 1.6495608283e+00	 5.5735772935e-01	 1.7034144292e+00
 1.6443347402e+00	 5.7259211515e-01	 1.6220830848e+00
 1.6389564173e+00	 5.8780969624e-01	 1.5432204753e+00
 1.6334256295e+00	 6.0300829862e-01	 1.4630929642e+00
 1.6904306047e+00	 4.5270834877e-01	 2.2424759390e+00
 1.6862393735e+00	 4.6807824359e-01	 2.1706127493e+00
 1.6818978236e+00	 4.8344611036e-01	 2.0949771625e+00
 1.6774054607e+00	 4.9880987782e-01	 2.0163579613e+00
 1.6727618262e+00	 5.1416745618e-01	 1.9355900252e+00
 1.6679664980e+00	 5.2951673787e-01	 1.8535522112e+00
 1.6630190910e+00	 5.4485559823e-01	 1.7711651029e+00
 1.6579192577e+00	 5.6018189633e-01	 1.6893886294e+00
 1.6526666887e+00	 5.7549347574e-01	 1.6092195584e+00
 1.6472611135e+00	 5.9078816528e-01	 1.5315474068e+00
 1.6417023008e+00	 6.0606377994e-01	 1.4510139388e+00
 1.6989529406e+00	 4.5499068596e-01	 2.2227282617e+00
 1.6947405793e+00	 4.7043806837e-01	 2.1511109097e+00
 1.6903771414e+00	 4.8588341251e-01	 2.0759190804e+00
 1.6858621302e+00	 5.0132463668e-01	 1.9979289484e+00
 1.6811950847e+00	 5.1675964055e-01	 1.9179642942e+00
 1.6763755808e+00	 5.3218630591e-01	 1.8368943954e+00
 1.6714032313e+00	 5.4760249741e-01	 1.7556317856e+00
 1.6662776871e+00	 5.6300606332e-01	 1.6751298847e+00
 1.6609986372e+00	 5.7839483632e-01	 1.5963805014e+00
 1.6555658097e+00	 5.9376663432e-01	 1.5197671024e+00
 1.6499789722e+00	 6.0911926126e-01	 1.4390590305e+00
 1.7074752862e+00	 4.5727302573e-01	 2.2012577896e+00
 1.7032417947e+00	 4.7279789583e-01	 2.1299228963e+00
 1.6988564688e+00	 4.8832071743e-01	 2.0552852945e+00
 1.6943188092e+00	 5.0383939840e-01	 1.9780943338e+00
 1.6896283527e+00	 5.1935182786e-01	 1.8991485499e+00
 1.6847846730e+00	 5.3485587698e-01	 1.8192935860e+00
 1.6797873811e+00	 5.5034939971e-01	 1.7394199843e+00
 1.6746361260e+00	 5.6583023351e-01	 1.6604608464e+00
 1.6693305951e+00	 5.8129620020e-01	 1.5833893699e+00
 1.6638705153e+00	 5.9674510673e-01	 1.5077250685e+00
 1.6582556529e+00	 6.1217474604e-01	 1.4270892206e+00
 1.7159976511e+00	 4.5955537068e-01	 2.1779891926e+00
 1.7117430294e+00	 4.7515772864e-01	 2.1069496098e+00
 1.7073358154e+00	 4.9075802788e-01	 2.0329557825e+00
 1.7027755074e+00	 5.0635416581e-01	 1.9567162435e+00
 1.6980616399e+00	 5.2194402104e-01	 1.8789903613e+00
 1.6931937844e+00	 5.3752545410e-01	 1.8005863133e+00
 1.6881715499e+00	 5.5309630823e-01	 1.7223589284e+00
 1.6829945838e+00	 5.6865441010e-01	 1.6452074020e+00
 1.6776625720e+00	 5.8419757065e-01	 1.5700728851e+00
 1.6721752397e+00	 5.9972358590e-01	 1.4952736885e+00
 1.6665323523e+00	 6.1523023775e-01	 1.4149687110e+00
 1.7245200450e+00	 4.6183772338e-01	 2.1528481511e+00
 1.7202442929e+00	 4.7751756946e-01	 2.0820934625e+00
 1.7158151908e+00	 4.9319534661e-01	 2.0088124811e+00
 1.7112322343e+00	 5.0886894177e-01	 1.9336591520e+00
 1.7064949557e+00	 5.2453622303e-01	 1.8573399739e+00
 1.7016029243e+00	 5.4019504030e-01	 1.7806120441e+00
 1.6965557473e+00	 5.5584322609e-01	 1.7042809743e+00
 1.6913530700e+00	 5.7147859629e-01	 1.6291986794e+00
 1.6859945771e+00	 5.8709895097e-01	 1.5562610423e+00
 1.6804799924e+00	 6.0270207519e-01	 1.4822687797e+00
 1.6748090800e+00	 6.1828573985e-01	 1.4025648531e+00
 1.7330424775e+00	 4.6412008643e-01	 2.1257613803e+00
 1.7287455951e+00	 4.7987742099e-01	 2.0552583942e+00
 1.7242946047e+00	 4.9563267639e-01	 1.9827392959e+00
 1.7196889996e+00	 5.1138372914e-01	 1.9087898880e+00
 1.7149283098e+00	 5.2712843678e-01	 1.8340503118e+00
 1.7100121024e+00	 5.4286463860e-01	 1.7592131844e+00
 1.7049399826e+00	 5.5859015640e-01	 1.6850216078e+00
 1.6997115942e+00	 5.7430279528e-01	 1.6122670533e+00
 1.6943266200e+00	 5.9000034444e-01	 1.5417256797e+00
 1.6887847827e+00	 6.0568057798e-01	 1.4685695189e+00
 1.6830858451e+00	 6.2134125579e-01	 1.3897480777e+00
 1.6003187566e+00	 5.9078630409e-01	 1.5155474248e+00
 1.5947495478e+00	 6.0565864489e-01	 1.4338456786e+00
 1.5890305782e+00	 6.2050808558e-01	 1.3492372113e+00
 1.5831617391e+00	 6.3533245882e-01	 1.2621974058e+00
 1.5771429619e+00	 6.5012958706e-01	 1.1731900195e+00
 1.5709742187e+00	 6.6489728352e-01	 1.0826651928e+00
 1.5646555226e+00	 6.7963335308e-01	 9.9105761669e-01
 1.5581869283e+00	 6.9433559319e-01	 8.9878487409e-01
 1.5515685321e+00	 7.0900179485e-01	 8.0624596868e-01
 1.5448004724e+00	 7.2362974352e-01	 7.1382005521e-01
 1.5378829301e+00	 7.3821722017e-01	 6.2186538322e-01
 1.6085955217e+00	 5.9384182003e-01	 1.5015147690e+00
 1.6029975093e+00	 6.0879107980e-01	 1.4189957757e+00
 1.5972489615e+00	 6.2371732103e-01	 1.3339058039e+00
 1.5913497690e+00	 6.3861836515e-01	 1.2466778519e+00
 1.5852998630e+00	 6.5349202336e-01	 1.1577323234e+00
 1.5790992154e+00	 6.6833609758e-01	 1.0674750365e+00
 1.5727478394e+00	 6.8314838133e-01	 9.7629539873e-01
 1.5662457898e+00	 6.9792666066e-01	 8.8456476251e-01
 1.5595931636e+00	 7.1266871514e-01	 7.9263497706e-01
 1.5527900999e+00	 7.2737231881e-01	 7.0083714897e-01
 1.5458367804e+00	 7.4203524112e-01	 6.0948062518e-01
 1.6168722493e+00	 5.9689732213e-01	 1.4881959798e+00
 1.6112454334e+00	 6.1192350052e-01	 1.4049805457e+00
 1.6054673075e+00	 6.2692654193e-01	 1.3194771495e+00
 1.5995377618e+00	 6.4190425659e-01	 1.2320858991e+00
 1.5934567272e+00	 6.5685444443e-01	 1.1431932421e+00
 1.5872241753e+00	 6.7177489606e-01	 1.0531699597e+00
 1.5808401194e+00	 6.8666339364e-01	 9.6236933444e-01
 1.5743046148e+00	 7.0151771185e-01	 8.7112550551e-01
 1.5676177588e+00	 7.1633561882e-01	 7.7975202774e-01
 1.5607796911e+00	 7.3111487713e-01	 6.8854064852e-01
 1.5537905946e+00	 7.4585324477e-01	 5.9776031533e-01
 1.6251489488e+00	 5.9995281383e-01	 1.4754384184e+00
 1.6194933294e+00	 6.1505591059e-01	 1.3916623623e+00
 1.6136856256e+00	 6.3013575192e-01	 1.3058266372e+00
 1.6077257268e+00	 6.4519013686e-01	 1.2183078339e+00
 1.6016135636e+00	 6.6021685407e-01	 1.1294677205e+00
 1.5953491075e+00	 6.7521368285e-01	 1.0396512069e+00
 1.5889323720e+00	 6.9017839401e-01	 9.4918448878e-01
 1.5823634124e+00	 7.0510875083e-01	 8.5837338849e-01
 1.5756423266e+00	 7.2000251003e-01	 7.6750190654e-01
 1.5687692552e+00	 7.3485742272e-01	 6.7683099998e-01
 1.5617443818e+00	 7.4967123543e-01	 5.8659760026e-01
 1.6334256295e+00	 6.0300829862e-01	 1.4630929642e+00
 1.6277412067e+00	 6.1818831355e-01	 1.3789067689e+00
 1.6219039250e+00	 6.3334495464e-01	 1.2928325180e+00
 1.6159136732e+00	 6.4847600968e-01	 1.2052325415e+00
 1.6097703815e+00	 6.6357925609e-01	 1.1164530877e+00
 1.6034740214e+00	 6.7865246184e-01	 1.0268222422e+00
 1.5970246062e+00	 6.9369338641e-01	 9.3664803509e-01
 1.5904221917e+00	 7.0869978167e-01	 8.4621675064e-01
 1.5836668763e+00	 7.2366939293e-01	 7.5579145770e-01
 1.5767588012e+00	 7.3859995984e-01	 6.6561077462e-01
 1.5696981510e+00	 7.5348921745e-01	 5.7588788322e-01
 1.6417023008e+00	 6.0606377994e-01	 1.4510139388e+00
 1.6359890748e+00	 6.2132071297e-01	 1.3665824088e+00
 1.6301222151e+00	 6.3655415373e-01	 1.2803758420e+00
 1.6241016104e+00	 6.5176187878e-01	 1.1927514493e+00
 1.6179271902e+00	 6.6694165429e-01	 1.1040490037e+00
 1.6115989260e+00	 6.8209123694e-01	 1.0145886998e+00
 1.6051168312e+00	 6.9720837482e-01	 9.2466920786e-01
 1.5984809619e+00	 7.1229080845e-01	 8.3456593852e-01
 1.5916914169e+00	 7.2733627167e-01	 7.4452953691e-01
 1.5847483381e+00	 7.4234249271e-01	 6.5478461984e-01
 1.5776519112e+00	 7.5730719513e-01	 5.6552877158e-01
 1.6499789722e+00	 6.0911926126e-01	 1.4390590305e+00
 1.6442369428e+00	 6.2445311239e-01	 1.3545609578e+00
 1.6383405052e+00	 6.3976335281e-01	 1.2683403972e+00
 1.6322895475e+00	 6.5504774788e-01	 1.1807584703e+00
 1.6260839989e+00	 6.7030405250e-01	 1.0921574081e+00
 1.6197238306e+00	 6.8553001204e-01	 1.0028583352e+00
 1.6132090563e+00	 7.0072336324e-01	 9.1315925599e-01
 1.6065397321e+00	 7.1588183522e-01	 8.2333326002e-01
 1.5997159574e+00	 7.3100315041e-01	 7.3362696469e-01
 1.5927378750e+00	 7.4608502559e-01	 6.4425921062e-01
 1.5856056713e+00	 7.6112517282e-01	 5.5542002486e-01
 1.6582556529e+00	 6.1217474604e-01	 1.4270892206e+00
 1.6524848201e+00	 6.2758551536e-01	 1.3427170575e+00
 1.6465588047e+00	 6.4297255553e-01	 1.2566126487e+00
 1.6404774939e+00	 6.5833362070e-01	 1.1691499481e+00
 1.6342408168e+00	 6.7366645452e-01	 1.0806824687e+00
 1.6278487445e+00	 6.8896879103e-01	 9.9154097700e-01
 1.6213012905e+00	 7.0423835564e-01	 9.0203139646e-01
 1.6145985114e+00	 7.1947286606e-01	 8.1243293868e-01
 1.6077405071e+00	 7.3467003331e-01	 7.2299648015e-01
 1.6007274210e+00	 7.4982756270e-01	 6.3394320130e-01
 1.5935594405e+00	 7.6494315484e-01	 5.4546350327e-01
 1.6665323523e+00	 6.1523023775e-01	 1.4149687110e+00
 1.6607327161e+00	 6.3071792543e-01	 1.3309282492e+00
 1.6547771228e+00	 6.4618176552e-01	 1.2450816791e+00
 1.6486654589e+00	 6.6161950097e-01	 1.1578246019e+00
 1.6423976532e+00	 6.7702886416e-01	 1.0695305306e+00
 1.6359736767e+00	 6.9240757782e-01	 9.8054847912e-01
 1.6293935430e+00	 7.0775335601e-01	 8.9120076838e-01
 1.6226573090e+00	 7.2306390505e-01	 8.0178106848e-01
 1.6157650750e+00	 7.3833692452e-01	 7.1255269511e-01
 1.6087169851e+00	 7.5357010830e-01	 6.2374717794e-01
 1.6015132277e+00	 7.6876114550e-01	 5.3556311673e-01
 1.6748090800e+00	 6.1828573985e-01	 1.4025648531e+00
 1.6689806402e+00	 6.3385034615e-01	 1.3190749099e+00
 1.6629954688e+00	 6.4939098642e-01	 1.2336391295e+00
 1.6568534517e+00	 6.6490539241e-01	 1.1466834726e+00
 1.6505545174e+00	 6.8039128522e-01	 1.0586100662e+00
 1.6440986366e+00	 6.9584637630e-01	 9.6979467354e-01
 1.6374858231e+00	 7.1126836832e-01	 8.8058438741e-01
 1.6307161340e+00	 7.2665495624e-01	 7.9129556882e-01
 1.6237896701e+00	 7.4200382820e-01	 7.0221204862e-01
 1.6167065763e+00	 7.5731266662e-01	 6.1358361090e-01
 1.6094670419e+00	 7.7257914915e-01	 5.2562477446e-01
 1.6830858451e+00	 6.2134125579e-01	 1.3897480777e+00
 1.6772286017e+00	 6.3698278107e-01	 1.3070401881e+00
 1.6712138520e+00	 6.5260022188e-01	 1.2221791415e+00
 1.6650414817e+00	 6.6819129874e-01	 1.1356298691e+00
 1.6587114185e+00	 6.8375372154e-01	 1.0478316255e+00
 1.6522236333e+00	 6.9928519036e-01	 9.5919532335e-01
 1.6455781398e+00	 7.1478339657e-01	 8.7010110059e-01
 1.6387749955e+00	 7.3024602370e-01	 7.8089613997e-01
 1.6318143016e+00	 7.4567074850e-01	 6.9189276179e-01
 1.6246962038e+00	 7.6105524190e-01	 6.0336680795e-01
 1.6174208922e+00	 7.7639717010e-01	 5.1555633492e-01
 1.5378829301e+00	 7.3821722017e-01	 6.2186538322e-01
 1.5308173424e+00	 7.5275953348e-01	 5.3066034103e-01
 1.5236028115e+00	 7.6725694188e-01	 4.4024125419e-01
 1.5162396457e+00	 7.8170721905e-01	 3.5060971892e-01
 1.5087281967e+00	 7.9610813808e-01	 2.6173545502e-01
 1.5010688597e+00	 8.1045747260e-01	 1.7355680954e-01
 1.4932620732e+00	 8.2475299774e-01	 8.5981539705e-02
 1.4853083198e+00	 8.3899249124e-01	-1.1121222368e-03
 1.4772081256e+00	 8.5317373444e-01	-8.7874121127e-02
 1.4689620607e+00	 8.6729451342e-01	-1.7448094856e-01
 1.4605707390e+00	 8.8135262000e-01	-2.6113373251e-01
 1.5458367804e+00	 7.4203524112e-01	 6.0948062518e-01
 1.5387346498e+00	 7.5665276651e-01	 5.1874847494e-01
 1.5314828057e+00	 7.7122515476e-01	 4.2864125141e-01
 1.5240815581e+00	 7.8575016800e-01	 3.3919920192e-01
 1.5165312603e+00	 8.0022556784e-01	 2.5042950398e-01
 1.5088323095e+00	 8.1464911637e-01	 1.6230672500e-01
 1.5009851467e+00	 8.2901857722e-01	 7.4773570462e-02
 1.4929902569e+00	 8.4333171663e-01	-1.2258076803e-02
 1.4848481689e+00	 8.5758630449e-01	-9.8905824634e-02
 1.4765594558e+00	 8.7178011540e-01	-1.8531514754e-01
 1.4681247347e+00	 8.8591092977e-01	-2.7165747287e-01
 1.5537905946e+00	 7.4585324477e-01	 5.9776031533e-01
 1.5466519214e+00	 7.6054598190e-01	 5.0749965316e-01
 1.5393627643e+00	 7.7519334965e-01	 4.1771647938e-01
 1.5319234349e+00	 7.8979309863e-01	 3.2848629860e-01
 1.5243342884e+00	 8.0434297893e-01	 2.3985036019e-01
 1.5165957242e+00	 8.1884074113e-01	 1.5181607889e-01
 1.5087081853e+00	 8.3328413736e-01	 6.4357752966e-02
 1.5006721592e+00	 8.4767092236e-01	-2.2582416659e-02
 1.4924881777e+00	 8.6199885453e-01	-1.0909300502e-01
 1.4841568165e+00	 8.7626569704e-01	-1.9529173969e-01
 1.4756786961e+00	 8.9046921888e-01	-2.8132357769e-01
 1.5617443818e+00	 7.4967123543e-01	 5.8659760026e-01
 1.5545691660e+00	 7.6443918406e-01	 4.9679873764e-01
 1.5472426960e+00	 7.7916153105e-01	 4.0734462359e-01
 1.5397652850e+00	 7.9383601552e-01	 3.1834268767e-01
 1.5321372901e+00	 8.0846037603e-01	 2.2986492515e-01
 1.5243591124e+00	 8.2303235165e-01	 1.4194828298e-01
 1.5164311976e+00	 8.3754968300e-01	 5.4595353012e-02
 1.5083540355e+00	 8.5201011333e-01	-3.2224624037e-02
 1.5001281604e+00	 8.6641138957e-01	-1.1857444227e-01
 1.4917541514e+00	 8.8075126344e-01	-2.0454730222e-01
 1.4832326318e+00	 8.9502749249e-01	-2.9026487250e-01
 1.5696981510e+00	 7.5348921745e-01	 5.7588788322e-01
 1.5624863927e+00	 7.6833237739e-01	 4.8653300355e-01
 1.5551226099e+00	 7.8312970346e-01	 3.9740592222e-01
 1.5476071174e+00	 7.9787892324e-01	 3.0864272199e-01
 1.5399402740e+00	 8.1257776380e-01	 2.2034287682e-01
 1.5321224831e+00	 8.2722395267e-01	 1.3256960779e-01
 1.5241541924e+00	 8.4181521898e-01	 4.5350556248e-02
 1.5160358943e+00	 8.5634929447e-01	-4.1321222318e-02
 1.5077681259e+00	 8.7082391461e-01	-1.2748594172e-01
 1.4993514691e+00	 8.8523681966e-01	-2.1321544606e-01
 1.4907865505e+00	 8.9958575577e-01	-2.9861125033e-01
 1.5776519112e+00	 7.5730719513e-01	 5.6552877158e-01
 1.5704036104e+00	 7.7222556631e-01	 4.7659208278e-01
 1.5630025149e+00	 7.8709787137e-01	 3.8778310627e-01
 1.5554489409e+00	 8.0192182639e-01	 2.9926336584e-01
 1.5477432491e+00	 8.1669514690e-01	 2.1115660476e-01
 1.5398858449e+00	 8.3141554894e-01	 1.2354911622e-01
 1.5318771784e+00	 8.4608075012e-01	 3.6490401109e-02
 1.5237177443e+00	 8.6068847069e-01	-5.0005843136e-02
 1.5154080827e+00	 8.7523643465e-01	-1.3596040042e-01
 1.5069487781e+00	 8.8972237081e-01	-2.2142688080e-01
 1.4983404605e+00	 9.0414401388e-01	-3.0648973428e-01
 1.5856056713e+00	 7.6112517282e-01	 5.5542002486e-01
 1.5783208281e+00	 7.7611875523e-01	 4.6686790804e-01
 1.5708824199e+00	 7.9106603928e-01	 3.7836134035e-01
 1.5632907644e+00	 8.0596472953e-01	 2.9008413304e-01
 1.5555462242e+00	 8.2081253000e-01	 2.0218114623e-01
 1.5476492068e+00	 8.3560714521e-01	 1.1475859824e-01
 1.5396001644e+00	 8.5034628126e-01	 2.7884712723e-02
 1.5313995944e+00	 8.6502764692e-01	-5.8409292497e-02
 1.5230480395e+00	 8.7964895470e-01	-1.4412787254e-01
 1.5145460872e+00	 8.9420792196e-01	-2.2930947861e-01
 1.5058943706e+00	 9.0870227200e-01	-3.1402453916e-01
 1.5935594405e+00	 7.6494315484e-01	 5.4546350327e-01
 1.5862380548e+00	 7.8001194856e-01	 4.5725465771e-01
 1.5787623338e+00	 7.9503421169e-01	 3.6902816429e-01
 1.5711325967e+00	 8.1000763725e-01	 2.8098702595e-01
 1.5633492082e+00	 8.2492991776e-01	 1.9329412312e-01
 1.5554125775e+00	 8.3979874622e-01	 1.0607250644e-01
 1.5473231592e+00	 8.5461181723e-01	 1.9406037769e-02
 1.5390814532e+00	 8.6936682806e-01	-6.6659615942e-02
 1.5306880049e+00	 8.8406147974e-01	-1.5211563388e-01
 1.5221434049e+00	 8.9869347818e-01	-2.3698833730e-01
 1.5134482892e+00	 9.1326053528e-01	-3.2133713237e-01
 1.6015132277e+00	 7.6876114550e-01	 5.3556311673e-01
 1.5941552995e+00	 7.8390515072e-01	 4.4764870117e-01
 1.5866422655e+00	 7.9900239309e-01	 3.5967343542e-01
 1.5789744469e+00	 8.1405055414e-01	 2.7185647516e-01
 1.5711522098e+00	 8.2904731486e-01	 1.8437567974e-01
 1.5631759657e+00	 8.4399035674e-01	 9.7367892459e-02
 1.5550461715e+00	 8.5887736287e-01	 1.0929580242e-02
 1.5467633295e+00	 8.7370601903e-01	-7.4882162796e-02
 1.5383279877e+00	 8.8847401478e-01	-1.6004824538e-01
 1.5297407397e+00	 9.0317904458e-01	-2.4458584244e-01
 1.5210022250e+00	 9.1781880889e-01	-3.2854629389e-01
 1.6094670419e+00	 7.7257914915e-01	 5.2562477446e-01
 1.6020725710e+00	 7.8779836611e-01	 4.3794854480e-01
 1.5945222240e+00	 8.0297058798e-01	 3.5018927148e-01
 1.5868163237e+00	 8.1809348477e-01	 2.6257927999e-01
 1.5789552380e+00	 8.3316472596e-01	 1.7530842137e-01
 1.5709393804e+00	 8.4818198151e-01	 8.8524344344e-02
 1.5627692100e+00	 8.6314292302e-01	 2.3331380995e-03
 1.5544452318e+00	 8.7804522476e-01	-8.3199649529e-02
 1.5459679964e+00	 8.9288656483e-01	-1.6804761585e-01
 1.5373381004e+00	 9.0766462623e-01	-2.5222172871e-01
 1.5285561864e+00	 9.2237709800e-01	-3.3576817551e-01
 1.6174208922e+00	 7.7639717010e-01	 5.1555633492e-01
 1.6099898785e+00	 7.9169159915e-01	 4.2805477856e-01
 1.6024022183e+00	 8.0693880086e-01	 3.4046999431e-01
 1.5946582360e+00	 8.2213643373e-01	 2.5304454973e-01
 1.5867583015e+00	 8.3728215572e-01	 1.6597735371e-01
 1.5787028302e+00	 8.5237362528e-01	 7.9423924631e-02
 1.5704922835e+00	 8.6740850250e-01	-6.5029592477e-03
 1.5621271689e+00	 8.8238445016e-01	-9.1732222261e-02
 1.5536080398e+00	 8.9729913487e-01	-1.7623306380e-01
 1.5449354956e+00	 9.1215022821e-01	-2.6001314039e-01
 1.5361101821e+00	 9.2693540778e-01	-3.4311635930e-01
 1.4605707390e+00	 8.8135262000e-01	-2.6113373251e-01
 1.4520348186e+00	 8.9534585312e-01	-3.4738364766e-01
 1.4433550027e+00	 9.0927202075e-01	-4.3251798635e-01
 1.4345320388e+00	 9.2312894020e-01	-5.1637268810e-01
 1.4255667177e+00	 9.3691443887e-01	-5.9879964873e-01
 1.4164598738e+00	 9.5062635536e-01	-6.7966406452e-01
 1.4072123847e+00	 9.6426254050e-01	-7.5884155037e-01
 1.3978251711e+00	 9.7782085850e-01	-8.3621504610e-01
 1.3882991966e+00	 9.9129918793e-01	-9.1167152658e-01
 1.3786354671e+00	 1.0046954228e+00	-9.8509853312e-01
 1.3688350311e+00	 1.0180074738e+00	-1.0563805451e+00
 1.4681247347e+00	 8.8591092977e-01	-2.7165747287e-01
 1.4595446669e+00	 8.9997653516e-01	-3.5747746570e-01
 1.4508199595e+00	 9.1397472821e-01	-4.4209455497e-01
 1.4419513637e+00	 9.2790331492e-01	-5.2537464835e-01
 1.4329396744e+00	 9.4176011147e-01	-6.0720047135e-01
 1.4237857304e+00	 9.5554294527e-01	-6.8746878233e-01
 1.4144904137e+00	 9.6924965605e-01	-7.6608735257e-01
 1.4050546500e+00	 9.8287809696e-01	-8.4297172586e-01
 1.3954794076e+00	 9.9642613561e-01	-9.1804177391e-01
 1.3857656978e+00	 1.0098916552e+00	-9.9121806560e-01
 1.3759145745e+00	 1.0232725554e+00	-1.0624180695e+00
 1.4756786961e+00	 8.9046921888e-01	-2.8132357769e-01
 1.4670544812e+00	 9.0460719621e-01	-3.6672616648e-01
 1.4582848825e+00	 9.1867741434e-01	-4.5084707849e-01
 1.4493706549e+00	 9.3267766800e-01	-5.3358016597e-01
 1.4403125977e+00	 9.4660576211e-01	-6.1483697112e-01
 1.4311115537e+00	 9.6045951290e-01	-6.9454381233e-01
 1.4217684098e+00	 9.7423674900e-01	-7.7263862620e-01
 1.4122840961e+00	 9.8793531250e-01	-8.4906758040e-01
 1.4026595860e+00	 1.0015530601e+00	-9.2378147405e-01
 1.3928958962e+00	 1.0150878639e+00	-9.9673194422e-01
 1.3829940857e+00	 1.0285376131e+00	-1.0678674988e+00
 1.4832326318e+00	 8.9502749249e-01	-2.9026487250e-01
 1.4745642700e+00	 9.0923784152e-01	-3.7525784615e-01
 1.4657497800e+00	 9.2338008449e-01	-4.5889857246e-01
 1.4567899209e+00	 9.3745200484e-01	-5.4110686230e-01
 1.4476854959e+00	 9.5145139626e-01	-6.2182110059e-01
 1.4384373522e+00	 9.6537606381e-01	-7.0099520402e-01
 1.4290463811e+00	 9.7922382499e-01	-7.7859532518e-01
 1.4195135176e+00	 9.9299251085e-01	-8.5459631835e-01
 1.4098397401e+00	 1.0066799671e+00	-9.2897798456e-01
 1.4000260704e+00	 1.0202840550e+00	-1.0017211148e+00
 1.3900735730e+00	 1.0338026528e+00	-1.0728033524e+00
 1.4907865505e+00	 8.9958575577e-01	-2.9861125033e-01
 1.4820740417e+00	 9.1386847633e-01	-3.8319771592e-01
 1.4732146607e+00	 9.2808274398e-01	-4.6636921640e-01
 1.4642091701e+00	 9.4222633087e-01	-5.4806957238e-01
 1.4550583774e+00	 9.5629701944e-01	-6.2826207606e-01
 1.4457631341e+00	 9.7029260358e-01	-7.0692632064e-01
 1.4363243359e+00	 9.8421088968e-01	-7.8405476645e-01
 1.4267429227e+00	 9.9804969774e-01	-8.5964905958e-01
 1.4170198779e+00	 1.0118068625e+00	-9.3371612102e-01
 1.4071562284e+00	 1.0254802343e+00	-1.0062640260e+00
 1.3971530441e+00	 1.0390676807e+00	-1.0772976948e+00
 1.4983404605e+00	 9.0414401388e-01	-3.0648973428e-01
 1.4895838049e+00	 9.1849910590e-01	-3.9066816179e-01
 1.4806795329e+00	 9.3278539815e-01	-4.7337641051e-01
 1.4716284109e+00	 9.4700065148e-01	-5.5458039848e-01
 1.4624312505e+00	 9.6114263713e-01	-6.3426642777e-01
 1.4530889076e+00	 9.7520913778e-01	-7.1243788570e-01
 1.4436022825e+00	 9.8919794872e-01	-7.8911167288e-01
 1.4339723197e+00	 1.0031068789e+00	-8.6431437433e-01
 1.4242000076e+00	 1.0169337520e+00	-9.3807819222e-01
 1.4142863783e+00	 1.0306764078e+00	-1.0104366604e+00
 1.4042325073e+00	 1.0443327026e+00	-1.0814201631e+00
 1.5058943706e+00	 9.0870227200e-01	-3.1402453916e-01
 1.4970935682e+00	 9.2312973546e-01	-3.9778880348e-01
 1.4881444050e+00	 9.3748805231e-01	-4.8003483162e-01
 1.4790476517e+00	 9.5177497210e-01	-5.6074876289e-01
 1.4698041237e+00	 9.6598825482e-01	-6.3993804938e-01
 1.4604146812e+00	 9.8012567198e-01	-7.1762802911e-01
 1.4508802291e+00	 9.9418500776e-01	-7.9385821581e-01
 1.4412017166e+00	 1.0081640601e+00	-8.6867832214e-01
 1.4313801372e+00	 1.0220606416e+00	-9.4214403533e-01
 1.4214165282e+00	 1.0358725812e+00	-1.0143125662e+00
 1.4113119704e+00	 1.0495977244e+00	-1.0852379946e+00
 1.5134482892e+00	 9.1326053528e-01	-3.2133713237e-01
 1.5046033399e+00	 9.2776037028e-01	-4.0467655257e-01
 1.4956092857e+00	 9.4219071180e-01	-4.8645648849e-01
 1.4864669009e+00	 9.5654929812e-01	-5.6668146016e-01
 1.4771770052e+00	 9.7083387800e-01	-6.4537824698e-01
 1.4677404630e+00	 9.8504221176e-01	-7.2259233280e-01
 1.4581581839e+00	 9.9917207245e-01	-7.9838405720e-01
 1.4484311217e+00	 1.0132212469e+00	-8.7282449032e-01
 1.4385602750e+00	 1.0271875370e+00	-9.4599105075e-01
 1.4285466862e+00	 1.0410687605e+00	-1.0179628881e+00
 1.4183914416e+00	 1.0548627523e+00	-1.0888160536e+00
 1.5210022250e+00	 9.1781880889e-01	-3.2854629389e-01
 1.5121131287e+00	 9.3239101559e-01	-4.1144566988e-01
 1.5030741833e+00	 9.4689338195e-01	-4.9275077634e-01
 1.4938861669e+00	 9.6132363497e-01	-5.7248270867e-01
 1.4845499034e+00	 9.7567951216e-01	-6.5068578754e-01
 1.4750662615e+00	 9.8995876267e-01	-7.2742387589e-01
 1.4654361552e+00	 1.0041591484e+00	-8.0277639137e-01
 1.4556605433e+00	 1.0182784453e+00	-8.7683403222e-01
 1.4457404291e+00	 1.0323144440e+00	-9.4969423668e-01
 1.4356768604e+00	 1.0462649516e+00	-1.0214563979e+00
 1.4254709288e+00	 1.0601277921e+00	-1.0922168591e+00
 1.5285561864e+00	 9.2237709800e-01	-3.3576817551e-01
 1.5196229430e+00	 9.3702167664e-01	-4.1820782216e-01
 1.5105391062e+00	 9.5159606809e-01	-4.9902453081e-01
 1.5013054582e+00	 9.6609798805e-01	-5.7825420163e-01
 1.4919228267e+00	 9.8052516279e-01	-6.5595694685e-01
 1.4823920849e+00	 9.9487533030e-01	-7.3221327941e-01
 1.4727141512e+00	 1.0091462414e+00	-8.0711998639e-01
 1.4628899893e+00	 1.0233356608e+00	-8.8078570522e-01
 1.4529206076e+00	 1.0374413685e+00	-9.5332622366e-01
 1.4428070588e+00	 1.0514611604e+00	-1.0248595261e+00
 1.4325504401e+00	 1.0653928498e+00	-1.0955006117e+00
 1.5361101821e+00	 9.2693540778e-01	-3.4311635930e-01
 1.5271327913e+00	 9.4165235869e-01	-4.2507213802e-01
 1.5180040630e+00	 9.5629877555e-01	-5.0538208120e-01
 1.5087247831e+00	 9.7087236277e-01	-5.8409515755e-01
 1.4992957834e+00	 9.8537083540e-01	-6.6128555690e-01
 1.4897179414e+00	 9.9979192022e-01	-7.3704875059e-01
 1.4799921803e+00	 1.0141333570e+00	-8.1149722516e-01
 1.4701194682e+00	 1.0283928993e+00	-8.8475590836e-01
 1.4601008186e+00	 1.0425683162e+00	-9.5695730869e-01
 1.4499372895e+00	 1.0566573927e+00	-1.0282363920e+00
 1.4396299835e+00	 1.0706579313e+00	-1.0987252206e+00
 1.3688350311e+00	 1.0180074738e+00	-1.0563805451e+00
 1.3588972790e+00	 1.0312355088e+00	-1.1249518431e+00
 1.3488250026e+00	 1.0443751969e+00	-1.1906164116e+00
 1.3386193810e+00	 1.0574244959e+00	-1.2538258047e+00
 1.3282816342e+00	 1.0703813842e+00	-1.3150025182e+00
 1.3178130228e+00	 1.0832438620e+00	-1.3745348479e+00
 1.3072148469e+00	 1.0960099521e+00	-1.4327717408e+00
 1.2964884462e+00	 1.1086777011e+00	-1.4900176665e+00
 1.2856351989e+00	 1.1212451801e+00	-1.5465275400e+00
 1.2746565218e+00	 1.1337104859e+00	-1.6025017236e+00
 1.2635538689e+00	 1.1460717420e+00	-1.6580811392e+00
 1.3759145745e+00	 1.0232725554e+00	-1.0624180695e+00
 1.3659254249e+00	 1.0365690051e+00	-1.1310240043e+00
 1.3558010551e+00	 1.0497766510e+00	-1.1967399117e+00
 1.3455426506e+00	 1.0628934402e+00	-1.2599776695e+00
 1.3351514376e+00	 1.0759173409e+00	-1.3211190624e+00
 1.3246286830e+00	 1.0888463427e+00	-1.3805105420e+00
 1.3139756939e+00	 1.1016784584e+00	-1.4384579770e+00
 1.3031938168e+00	 1.1144117243e+00	-1.4952214239e+00
 1.2922844371e+00	 1.1270442017e+00	-1.5510099490e+00
 1.2812489788e+00	 1.1395739774e+00	-1.6059765308e+00
 1.2700889036e+00	 1.1519991652e+00	-1.6602130749e+00
 1.3829940857e+00	 1.0285376131e+00	-1.0678674988e+00
 1.3729535388e+00	 1.0419024772e+00	-1.1365154857e+00
 1.3627770760e+00	 1.0551780805e+00	-1.2022795488e+00
 1.3524658888e+00	 1.0683623597e+00	-1.2655335560e+00
 1.3420212097e+00	 1.0814532724e+00	-1.3266203393e+00
 1.3314443123e+00	 1.0944487981e+00	-1.3858463494e+00
 1.3207365103e+00	 1.1073469390e+00	-1.4434762999e+00
 1.3098991570e+00	 1.1201457216e+00	-1.4997278315e+00
 1.2989336452e+00	 1.1328431970e+00	-1.5547662267e+00
 1.2878414060e+00	 1.1454374423e+00	-1.6086992063e+00
 1.2766239087e+00	 1.1579265616e+00	-1.6615718399e+00
 1.3900735730e+00	 1.0338026528e+00	-1.0728033524e+00
 1.3799816289e+00	 1.0472359311e+00	-1.1414949837e+00
 1.3697530733e+00	 1.0605794917e+00	-1.2072993864e+00
 1.3593891035e+00	 1.0738312607e+00	-1.2705540802e+00
 1.3488909586e+00	 1.0869891852e+00	-1.3315646965e+00
 1.3382599185e+00	 1.1000512344e+00	-1.3905995225e+00
 1.3274973037e+00	 1.1130154003e+00	-1.4478840340e+00
 1.3166044744e+00	 1.1258796993e+00	-1.5035954457e+00
 1.3055828306e+00	 1.1386421726e+00	-1.5578573133e+00
 1.2944338107e+00	 1.1513008873e+00	-1.6107342172e+00
 1.2831588916e+00	 1.1638539379e+00	-1.6622265621e+00
 1.3971530441e+00	 1.0390676807e+00	-1.0772976948e+00
 1.3870097031e+00	 1.0525693730e+00	-1.1460287681e+00
 1.3767290547e+00	 1.0659808906e+00	-1.2118610643e+00
 1.3663123025e+00	 1.0793001492e+00	-1.2750974117e+00
 1.3557606918e+00	 1.0925250854e+00	-1.3360079886e+00
 1.3450755092e+00	 1.1056536580e+00	-1.3948247513e+00
 1.3342580817e+00	 1.1186838488e+00	-1.4517358488e+00
 1.3233097767e+00	 1.1316136641e+00	-1.5068800536e+00
 1.3122320010e+00	 1.1444411350e+00	-1.5603412445e+00
 1.3010262005e+00	 1.1571643190e+00	-1.6121429710e+00
 1.2896938596e+00	 1.1697813007e+00	-1.6622431353e+00
 1.4042325073e+00	 1.0443327026e+00	-1.0814201631e+00
 1.3940377693e+00	 1.0579028088e+00	-1.1501807061e+00
 1.3837050282e+00	 1.0713822835e+00	-1.2160238186e+00
 1.3732354936e+00	 1.0847690316e+00	-1.2792192914e+00
 1.3626304173e+00	 1.0980609794e+00	-1.3400035931e+00
 1.3518910922e+00	 1.1112560752e+00	-1.3985741771e+00
 1.3410188521e+00	 1.1243522909e+00	-1.4550837715e+00
 1.3300150713e+00	 1.1373476223e+00	-1.5096346854e+00
 1.3188811638e+00	 1.1502400909e+00	-1.5622731639e+00
 1.3076185829e+00	 1.1630277441e+00	-1.6129838284e+00
 1.2962288203e+00	 1.1757086568e+00	-1.6616842331e+00
 1.4113119704e+00	 1.0495977244e+00	-1.0852379946e+00
 1.4010658355e+00	 1.0632362446e+00	-1.1540122852e+00
 1.3906810017e+00	 1.0767836763e+00	-1.2198445025e+00
 1.3801586848e+00	 1.0902379140e+00	-1.2829730498e+00
 1.3695001428e+00	 1.1035968733e+00	-1.3436024263e+00
 1.3587066751e+00	 1.1168584925e+00	-1.4018974068e+00
 1.3477796225e+00	 1.1300207330e+00	-1.4579772009e+00
 1.3367203659e+00	 1.1430815806e+00	-1.5119096270e+00
 1.3255303266e+00	 1.1560390467e+00	-1.5637053358e+00
 1.3142109652e+00	 1.1688911691e+00	-1.6133121163e+00
 1.3027637809e+00	 1.1816360129e+00	-1.6608793677e+00
 1.4183914416e+00	 1.0548627523e+00	-1.0888160536e+00
 1.4080939096e+00	 1.0685696865e+00	-1.1575826377e+00
 1.3976569831e+00	 1.0821850752e+00	-1.2233776068e+00
 1.3870818838e+00	 1.0957068025e+00	-1.2864096248e+00
 1.3763698760e+00	 1.1091327735e+00	-1.3468529594e+00
 1.3655222658e+00	 1.1224609161e+00	-1.4048415280e+00
 1.3545404005e+00	 1.1356891814e+00	-1.4604629200e+00
 1.3434256681e+00	 1.1488155453e+00	-1.5137524334e+00
 1.3321794970e+00	 1.1618380092e+00	-1.5646871577e+00
 1.3208033550e+00	 1.1747546008e+00	-1.6131801413e+00
 1.3092987489e+00	 1.1875633757e+00	-1.6602481911e+00
 1.4254709288e+00	 1.0601277921e+00	-1.0922168591e+00
 1.4151219997e+00	 1.0739031404e+00	-1.1609485639e+00
 1.4046329803e+00	 1.0875864864e+00	-1.2266752807e+00
 1.3940050985e+00	 1.1011757035e+00	-1.2895775802e+00
 1.3832396249e+00	 1.1146686863e+00	-1.3498012346e+00
 1.3723378720e+00	 1.1280633524e+00	-1.4074511227e+00
 1.3613011939e+00	 1.1413576428e+00	-1.4625851103e+00
 1.3501309856e+00	 1.1545495231e+00	-1.5152079410e+00
 1.3388286824e+00	 1.1676369847e+00	-1.5652651732e+00
 1.3273957597e+00	 1.1806180458e+00	-1.6127767097e+00
 1.3158337318e+00	 1.1934907519e+00	-1.6597159531e+00
 1.4325504401e+00	 1.0653928498e+00	-1.0955006117e+00
 1.4221501137e+00	 1.0792366125e+00	-1.1641645562e+00
 1.4116090012e+00	 1.0929879160e+00	-1.2297873525e+00
 1.4009283367e+00	 1.1066446230e+00	-1.2925231239e+00
 1.3901093970e+00	 1.1202046179e+00	-1.3524908814e+00
 1.3791535013e+00	 1.1336658078e+00	-1.4097682830e+00
 1.3680620102e+00	 1.1470261234e+00	-1.4643853650e+00
 1.3568363258e+00	 1.1602835203e+00	-1.5163182807e+00
 1.3454778905e+00	 1.1734359800e+00	-1.5654830849e+00
 1.3339881869e+00	 1.1864815107e+00	-1.6124893620e+00
 1.3223687369e+00	 1.1994181483e+00	-1.6592037177e+00
 1.4396299835e+00	 1.0706579313e+00	-1.0987252206e+00
 1.4291782595e+00	 1.0845701087e+00	-1.1672828226e+00
 1.4185850537e+00	 1.0983893700e+00	-1.2327613508e+00
 1.4078516063e+00	 1.1121135673e+00	-1.2952901263e+00
 1.3969792004e+00	 1.1257405746e+00	-1.3549631331e+00
 1.3859691615e+00	 1.1392682885e+00	-1.4118326254e+00
 1.3748228572e+00	 1.1526946297e+00	-1.4659027030e+00
 1.3635416964e+00	 1.1660175436e+00	-1.5171228915e+00
 1.3521271287e+00	 1.1792350016e+00	-1.5654296270e+00
 1.3405806439e+00	 1.1923450022e+00	-1.6122660803e+00
 1.3289037716e+00	 1.2053455716e+00	-1.6586352384e+00
 1.2635538689e+00	 1.1460717420e+00	-1.6580811392e+00
 1.2523306466e+00	 1.1583250283e+00	-1.7116076049e+00
 1.2409864882e+00	 1.1704706520e+00	-1.7602735240e+00
 1.2295229360e+00	 1.1825068424e+00	-1.8030027741e+00
 1.2179415673e+00	 1.1944318594e+00	-1.8421066185e+00
 1.2062439935e+00	 1.2062439935e+00	-1.8771987784e+00
 1.1944318594e+00	 1.2179415673e+00	-1.9073078813e+00
 1.1825068424e+00	 1.2295229360e+00	-1.9314757124e+00
 1.1704706520e+00	 1.2409864882e+00	-1.9503723704e+00
 1.1583250283e+00	 1.2523306466e+00	-1.9725205568e+00
 1.1460717420e+00	 1.2635538689e+00	-1.9980544368e+00
 1.2700889036e+00	 1.1519991652e+00	-1.6602130749e+00
 1.2588076354e+00	 1.1643158249e+00	-1.7121028879e+00
 1.2474048056e+00	 1.1765242651e+00	-1.7589724547e+00
 1.2358819645e+00	 1.1886227061e+00	-1.8016491169e+00
 1.2242406976e+00	 1.2006093986e+00	-1.8414201977e+00
 1.2124826245e+00	 1.2124826245e+00	-1.8774054075e+00
 1.2006093986e+00	 1.2242406976e+00	-1.9087356888e+00
 1.1886227061e+00	 1.2358819645e+00	-1.9345540365e+00
 1.1765242651e+00	 1.2474048056e+00	-1.9540163017e+00
 1.1643158249e+00	 1.2588076354e+00	-1.9726230794e+00
 1.1519991652e+00	 1.2700889036e+00	-1.9955269824e+00
 1.2766239087e+00	 1.1579265616e+00	-1.6615718399e+00
 1.2652845948e+00	 1.1703065944e+00	-1.7118067749e+00
 1.2538230939e+00	 1.1825778509e+00	-1.7574070063e+00
 1.2422409642e+00	 1.1947385421e+00	-1.8004676669e+00
 1.2305397993e+00	 1.2067869099e+00	-1.8407335444e+00
 1.2187212272e+00	 1.2187212272e+00	-1.8774246576e+00
 1.2067869099e+00	 1.2305397993e+00	-1.9097712664e+00
 1.1947385421e+00	 1.2422409642e+00	-1.9370145628e+00
 1.1825778509e+00	 1.2538230939e+00	-1.9584073476e+00
 1.1703065944e+00	 1.2652845948e+00	-1.9748269565e+00
 1.1579265616e+00	 1.2766239087e+00	-1.9948395921e+00
 1.2831588916e+00	 1.1638539379e+00	-1.6622265621e+00
 1.2717615322e+00	 1.1762973435e+00	-1.7107935131e+00
 1.2602413604e+00	 1.1886314160e+00	-1.7560857750e+00
 1.2485999422e+00	 1.2008543573e+00	-1.7993727240e+00
 1.2368388796e+00	 1.2129644002e+00	-1.8399636650e+00
 1.2249598088e+00	 1.2249598088e+00	-1.8771759966e+00
 1.2129644002e+00	 1.2368388796e+00	-1.9103363494e+00
 1.2008543573e+00	 1.2485999422e+00	-1.9387811513e+00
 1.1886314160e+00	 1.2602413604e+00	-1.9618571814e+00
 1.1762973435e+00	 1.2717615322e+00	-1.9789238733e+00
 1.1638539379e+00	 1.2831588916e+00	-1.9957909027e+00
 1.2896938596e+00	 1.1697813007e+00	-1.6622431353e+00
 1.2782384550e+00	 1.1822880790e+00	-1.7095506254e+00
 1.2666596123e+00	 1.1946849674e+00	-1.7549227645e+00
 1.2549589059e+00	 1.2069701586e+00	-1.7982812081e+00
 1.2431379456e+00	 1.2191418765e+00	-1.8390301045e+00
 1.2311983762e+00	 1.2311983762e+00	-1.8765813537e+00
 1.2191418765e+00	 1.2431379456e+00	-1.9103550596e+00
 1.2069701586e+00	 1.2549589059e+00	-1.9397799753e+00
 1.1946849674e+00	 1.2666596123e+00	-1.9642939368e+00
 1.1822880790e+00	 1.2782384550e+00	-1.9833442853e+00
 1.1697813007e+00	 1.2896938596e+00	-1.9981792857e+00
 1.2962288203e+00	 1.1757086568e+00	-1.6616842331e+00
 1.2847153703e+00	 1.1882788078e+00	-1.7085242448e+00
 1.2730778569e+00	 1.2007385120e+00	-1.7538346548e+00
 1.2613178623e+00	 1.2130859530e+00	-1.7971126318e+00
 1.2494370044e+00	 1.2253193457e+00	-1.8378549219e+00
 1.2374369365e+00	 1.2374369365e+00	-1.8755650960e+00
 1.2253193457e+00	 1.2494370044e+00	-1.9097538842e+00
 1.2130859530e+00	 1.2613178623e+00	-1.9399395024e+00
 1.2007385120e+00	 1.2730778569e+00	-1.9656479717e+00
 1.1882788078e+00	 1.2847153703e+00	-1.9864134260e+00
 1.1757086568e+00	 1.2962288203e+00	-2.0018030566e+00
 1.3027637809e+00	 1.1816360129e+00	-1.6608793677e+00
 1.2911922857e+00	 1.1942695365e+00	-1.7076311799e+00
 1.2794961016e+00	 1.2067920565e+00	-1.7527407726e+00
 1.2676768187e+00	 1.2192017474e+00	-1.7957890729e+00
 1.2557360633e+00	 1.2314968150e+00	-1.8363626638e+00
 1.2436754968e+00	 1.2436754968e+00	-1.8740540056e+00
 1.2314968150e+00	 1.2557360633e+00	-1.9084616543e+00
 1.2192017474e+00	 1.2676768187e+00	-1.9391904753e+00
 1.2067920565e+00	 1.2794961016e+00	-1.9658518505e+00
 1.1942695365e+00	 1.2911922857e+00	-1.9880638764e+00
 1.1816360129e+00	 1.3027637809e+00	-2.0054515521e+00
 1.3092987489e+00	 1.1875633757e+00	-1.6602481911e+00
 1.2976692084e+00	 1.2002602720e+00	-1.7067903786e+00
 1.2859143535e+00	 1.2128456079e+00	-1.7515630613e+00
 1.2740357824e+00	 1.2253175488e+00	-1.7942351462e+00
 1.2620351293e+00	 1.2376742913e+00	-1.8344803395e+00
 1.2499140642e+00	 1.2499140642e+00	-1.8719772556e+00
 1.2376742913e+00	 1.2620351293e+00	-1.9064095238e+00
 1.2253175488e+00	 1.2740357824e+00	-1.9374658922e+00
 1.2128456079e+00	 1.2859143535e+00	-1.9648403268e+00
 1.2002602720e+00	 1.2976692084e+00	-1.9882321039e+00
 1.1875633757e+00	 1.3092987489e+00	-2.0073458935e+00
 1.3158337318e+00	 1.1934907519e+00	-1.6597159531e+00
 1.3041461458e+00	 1.2062510211e+00	-1.7059234581e+00
 1.2923326200e+00	 1.2188991731e+00	-1.7502260514e+00
 1.2803947604e+00	 1.2314333640e+00	-1.7923779762e+00
 1.2683342096e+00	 1.2438517815e+00	-1.8321373947e+00
 1.2561526457e+00	 1.2561526457e+00	-1.8692663863e+00
 1.2438517815e+00	 1.2683342096e+00	-1.9035309469e+00
 1.2314333640e+00	 1.2803947604e+00	-1.9347009867e+00
 1.2188991731e+00	 1.2923326200e+00	-1.9625503255e+00
 1.2062510211e+00	 1.3041461458e+00	-1.9868566821e+00
 1.1934907519e+00	 1.3158337318e+00	-2.0074016589e+00
 1.3223687369e+00	 1.1994181483e+00	-1.6592037177e+00
 1.3106231052e+00	 1.2122417906e+00	-1.7049546731e+00
 1.2987509083e+00	 1.2249527588e+00	-1.7486568295e+00
 1.2867537601e+00	 1.2375492000e+00	-1.7901471689e+00
 1.2746333113e+00	 1.2500292928e+00	-1.8292656861e+00
 1.2623912484e+00	 1.2623912484e+00	-1.8658552816e+00
 1.2500292928e+00	 1.2746333113e+00	-1.8997616564e+00
 1.2375492000e+00	 1.2867537601e+00	-1.9308332079e+00
 1.2249527588e+00	 1.2987509083e+00	-1.9589209240e+00
 1.2122417906e+00	 1.3106231052e+00	-1.9838782749e+00
 1.1994181483e+00	 1.3223687369e+00	-2.0055611012e+00
 1.3289037716e+00	 1.2053455716e+00	-1.6586352384e+00
 1.3171000940e+00	 1.2182325872e+00	-1.7038108831e+00
 1.3051692256e+00	 1.2310063719e+00	-1.7467850094e+00
 1.2931127885e+00	 1.2436650637e+00	-1.7874747837e+00
 1.2809324416e+00	 1.2562068321e+00	-1.8257994547e+00
 1.2686298794e+00	 1.2686298794e+00	-1.8616801443e+00
 1.2562068321e+00	 1.2809324416e+00	-1.8950396415e+00
 1.2436650637e+00	 1.2931127885e+00	-1.9258021996e+00
 1.2310063719e+00	 1.3051692256e+00	-1.9538933340e+00
 1.2182325872e+00	 1.3171000940e+00	-1.9792396193e+00
 1.2053455716e+00	 1.3289037716e+00	-2.0017684847e+00
 1.1460717420e+00	 1.2635538689e+00	-1.9980544368e+00
 1.1337104859e+00	 1.2746565218e+00	-2.0235925916e+00
 1.1212451801e+00	 1.2856351989e+00	-2.0465199908e+00
 1.1086777011e+00	 1.2964884462e+00	-2.0665619726e+00
 1.0960099521e+00	 1.3072148469e+00	-2.0834771480e+00
 1.0832438620e+00	 1.3178130228e+00	-2.0970558455e+00
 1.0703813842e+00	 1.3282816342e+00	-2.1071183565e+00
 1.0574244959e+00	 1.3386193810e+00	-2.1135130020e+00
 1.0443751969e+00	 1.3488250026e+00	-2.1161140383e+00
 1.0312355088e+00	 1.3588972790e+00	-2.1148194233e+00
 1.0180074738e+00	 1.3688350311e+00	-2.1095484627e+00
 1.1519991652e+00	 1.2700889036e+00	-1.9955269824e+00
 1.1395739774e+00	 1.2812489788e+00	-2.0192573778e+00
 1.1270442017e+00	 1.2922844371e+00	-2.0409919701e+00
 1.1144117243e+00	 1.3031938168e+00	-2.0603503567e+00
 1.1016784584e+00	 1.3139756939e+00	-2.0769882842e+00
 1.0888463427e+00	 1.3246286830e+00	-2.0905961428e+00
 1.0759173409e+00	 1.3351514376e+00	-2.1008972522e+00
 1.0628934402e+00	 1.3455426506e+00	-2.1076459591e+00
 1.0497766510e+00	 1.3558010551e+00	-2.1106255642e+00
 1.0365690051e+00	 1.3659254249e+00	-2.1096461006e+00
 1.0232725554e+00	 1.3759145745e+00	-2.1045419855e+00
 1.1579265616e+00	 1.2766239087e+00	-1.9948395921e+00
 1.1454374423e+00	 1.2878414060e+00	-2.0164922354e+00
 1.1328431970e+00	 1.2989336452e+00	-2.0367782497e+00
 1.1201457216e+00	 1.3098991570e+00	-2.0552155322e+00
 1.1073469390e+00	 1.3207365103e+00	-2.0713610131e+00
 1.0944487981e+00	 1.3314443123e+00	-2.0848091936e+00
 1.0814532724e+00	 1.3420212097e+00	-2.0951904634e+00
 1.0683623597e+00	 1.3524658888e+00	-2.1021692202e+00
 1.0551780805e+00	 1.3627770760e+00	-2.1054418096e+00
 1.0419024772e+00	 1.3729535388e+00	-2.1047343082e+00
 1.0285376131e+00	 1.3829940857e+00	-2.0998001707e+00
 1.1638539379e+00	 1.2831588916e+00	-1.9957909027e+00
 1.1513008873e+00	 1.2944338107e+00	-2.0151024496e+00
 1.1386421726e+00	 1.3055828306e+00	-2.0336901661e+00
 1.1258796993e+00	 1.3166044744e+00	-2.0509742326e+00
 1.1130154003e+00	 1.3274973037e+00	-2.0664167578e+00
 1.1000512344e+00	 1.3382599185e+00	-2.0795203503e+00
 1.0869891852e+00	 1.3488909586e+00	-2.0898264609e+00
 1.0738312607e+00	 1.3593891035e+00	-2.0969135150e+00
 1.0605794917e+00	 1.3697530733e+00	-2.1003948573e+00
 1.0472359311e+00	 1.3799816289e+00	-2.0999165301e+00
 1.0338026528e+00	 1.3900735730e+00	-2.0951549080e+00
 1.1697813007e+00	 1.2896938596e+00	-1.9981792857e+00
 1.1571643190e+00	 1.3010262005e+00	-2.0148929431e+00
 1.1444411350e+00	 1.3122320010e+00	-2.0315385951e+00
 1.1316136641e+00	 1.3233097767e+00	-2.0474426350e+00
 1.1186838488e+00	 1.3342580817e+00	-2.0619762916e+00
 1.1056536580e+00	 1.3450755092e+00	-2.0745542274e+00
 1.0925250854e+00	 1.3557606918e+00	-2.0846328963e+00
 1.0793001492e+00	 1.3663123025e+00	-2.0917086811e+00
 1.0659808906e+00	 1.3767290547e+00	-2.0953158344e+00
 1.0525693730e+00	 1.3870097031e+00	-2.0950242431e+00
 1.0390676807e+00	 1.3971530441e+00	-2.0904370424e+00
 1.1757086568e+00	 1.2962288203e+00	-2.0018030566e+00
 1.1630277441e+00	 1.3076185829e+00	-2.0156684844e+00
 1.1502400909e+00	 1.3188811638e+00	-2.0301341603e+00
 1.1373476223e+00	 1.3300150713e+00	-2.0444365668e+00
 1.1243522909e+00	 1.3410188521e+00	-2.0578599441e+00
 1.1112560752e+00	 1.3518910922e+00	-2.0697349057e+00
 1.0980609794e+00	 1.3626304173e+00	-2.0794368035e+00
 1.0847690316e+00	 1.3732354936e+00	-2.0863838626e+00
 1.0713822835e+00	 1.3837050282e+00	-2.0900351080e+00
 1.0579028088e+00	 1.3940377693e+00	-2.0898881086e+00
 1.0443327026e+00	 1.4042325073e+00	-2.0854765600e+00
 1.1816360129e+00	 1.3027637809e+00	-2.0054515521e+00
 1.1688911691e+00	 1.3142109652e+00	-2.0172338956e+00
 1.1560390467e+00	 1.3255303266e+00	-2.0292874398e+00
 1.1430815806e+00	 1.3367203659e+00	-2.0417717123e+00
 1.1300207330e+00	 1.3477796225e+00	-2.0538878058e+00
 1.1168584925e+00	 1.3587066751e+00	-2.0648861351e+00
 1.1035968733e+00	 1.3695001428e+00	-2.0740647998e+00
 1.0902379140e+00	 1.3801586848e+00	-2.0807677075e+00
 1.0767836763e+00	 1.3906810017e+00	-2.0843824794e+00
 1.0632362446e+00	 1.4010658355e+00	-2.0843381625e+00
 1.0495977244e+00	 1.4113119704e+00	-2.0801027745e+00
 1.1875633757e+00	 1.3092987489e+00	-2.0073458935e+00
 1.1747546008e+00	 1.3208033550e+00	-2.0193942594e+00
 1.1618380092e+00	 1.3321794970e+00	-2.0288091732e+00
 1.1488155453e+00	 1.3434256681e+00	-2.0392638176e+00
 1.1356891814e+00	 1.3545404005e+00	-2.0498799324e+00
 1.1224609161e+00	 1.3655222658e+00	-2.0598315373e+00
 1.1091327735e+00	 1.3763698760e+00	-2.0683432853e+00
 1.0957068025e+00	 1.3870818838e+00	-2.0746885655e+00
 1.0821850752e+00	 1.3976569831e+00	-2.0781873777e+00
 1.0685696865e+00	 1.4080939096e+00	-2.0782040054e+00
 1.0548627523e+00	 1.4183914416e+00	-2.0741445126e+00
 1.1934907519e+00	 1.3158337318e+00	-2.0074016589e+00
 1.1806180458e+00	 1.3273957597e+00	-2.0213461637e+00
 1.1676369847e+00	 1.3388286824e+00	-2.0285104673e+00
 1.1545495231e+00	 1.3501309856e+00	-2.0367288965e+00
 1.1413576428e+00	 1.3613011939e+00	-2.0456565481e+00
 1.1280633524e+00	 1.3723378720e+00	-2.0543948068e+00
 1.1146686863e+00	 1.3832396249e+00	-2.0620986425e+00
 1.1011757035e+00	 1.3940050985e+00	-2.0679746837e+00
 1.0875864864e+00	 1.4046329803e+00	-2.0712790530e+00
 1.0739031404e+00	 1.4151219997e+00	-2.0713149915e+00
 1.0601277921e+00	 1.4254709288e+00	-2.0674302983e+00
 1.1994181483e+00	 1.3223687369e+00	-2.0055611012e+00
 1.1864815107e+00	 1.3339881869e+00	-2.0212075994e+00
 1.1734359800e+00	 1.3454778905e+00	-2.0282030016e+00
 1.1602835203e+00	 1.3568363258e+00	-2.0339834340e+00
 1.1470261234e+00	 1.3680620102e+00	-2.0410382487e+00
 1.1336658078e+00	 1.3791535013e+00	-2.0483999125e+00
 1.1202046179e+00	 1.3901093970e+00	-2.0551574348e+00
 1.1066446230e+00	 1.4009283367e+00	-2.0604544028e+00
 1.0929879160e+00	 1.4116090012e+00	-2.0634867689e+00
 1.0792366125e+00	 1.4221501137e+00	-2.0635004172e+00
 1.0653928498e+00	 1.4325504401e+00	-2.0597885372e+00
 1.2053455716e+00	 1.3289037716e+00	-2.0017684847e+00
 1.1923450022e+00	 1.3405806439e+00	-2.0188120324e+00
 1.1792350016e+00	 1.3521271287e+00	-2.0274480252e+00
 1.1660175436e+00	 1.3635416964e+00	-2.0308445906e+00
 1.1526946297e+00	 1.3748228572e+00	-2.0358462037e+00
 1.1392682885e+00	 1.3859691615e+00	-2.0416712974e+00
 1.1257405746e+00	 1.3969792004e+00	-2.0473466041e+00
 1.1121135673e+00	 1.4078516063e+00	-2.0519563518e+00
 1.0983893700e+00	 1.4185850537e+00	-2.0546399938e+00
 1.0845701087e+00	 1.4291782595e+00	-2.0545897089e+00
 1.0706579313e+00	 1.4396299835e+00	-2.0510476997e+00
 1.0180074738e+00	 1.3688350311e+00	-2.1095484627e+00
 1.0046954228e+00	 1.3786354671e+00	-2.1017911895e+00
 9.9129918793e-01	 1.3882991966e+00	-2.0929575649e+00
 9.7782085850e-01	 1.3978251711e+00	-2.0828762988e+00
 9.6426254050e-01	 1.4072123847e+00	-2.0713893162e+00
 9.5062635536e-01	 1.4164598738e+00	-2.0583495131e+00
 9.3691443887e-01	 1.4255667177e+00	-2.0436185167e+00
 9.2312894020e-01	 1.4345320388e+00	-2.0270644700e+00
 9.0927202075e-01	 1.4433550027e+00	-2.0085598608e+00
 8.9534585312e-01	 1.4520348186e+00	-1.9879794158e+00
 8.8135262000e-01	 1.4605707390e+00	-1.9651980764e+00
 1.0232725554e+00	 1.3759145745e+00	-2.1045419855e+00
 1.0098916552e+00	 1.3857656978e+00	-2.0967447480e+00
 9.9642613561e-01	 1.3954794076e+00	-2.0876850413e+00
 9.8287809696e-01	 1.4050546500e+00	-2.0772276990e+00
 9.6924965605e-01	 1.4144904137e+00	-2.0652506099e+00
 9.5554294527e-01	 1.4237857304e+00	-2.0516423146e+00
 9.4176011147e-01	 1.4329396744e+00	-2.0362996090e+00
 9.2790331492e-01	 1.4419513637e+00	-2.0191251738e+00
 9.1397472821e-01	 1.4508199595e+00	-2.0000252530e+00
 8.9997653516e-01	 1.4595446669e+00	-1.9789074006e+00
 8.8591092977e-01	 1.4681247347e+00	-1.9556783145e+00
 1.0285376131e+00	 1.3829940857e+00	-2.0998001707e+00
 1.0150878639e+00	 1.3928958962e+00	-2.0919977763e+00
 1.0015530601e+00	 1.4026595860e+00	-2.0827597484e+00
 9.8793531250e-01	 1.4122840961e+00	-2.0719847432e+00
 9.7423674900e-01	 1.4217684098e+00	-2.0595842264e+00
 9.6045951290e-01	 1.4311115537e+00	-2.0454799110e+00
 9.4660576211e-01	 1.4403125977e+00	-2.0296012023e+00
 9.3267766800e-01	 1.4493706549e+00	-2.0118826731e+00
 9.1867741434e-01	 1.4582848825e+00	-1.9922615902e+00
 9.0460719621e-01	 1.4670544812e+00	-1.9706755143e+00
 8.9046921888e-01	 1.4756786961e+00	-1.9470599926e+00
 1.0338026528e+00	 1.3900735730e+00	-2.0951549080e+00
 1.0202840550e+00	 1.4000260704e+00	-2.0873803595e+00
 1.0066799671e+00	 1.4098397401e+00	-2.0780086039e+00
 9.9299251085e-01	 1.4195135176e+00	-2.0669698711e+00
 9.7922382499e-01	 1.4290463811e+00	-2.0542068714e+00
 9.6537606381e-01	 1.4384373522e+00	-2.0396720728e+00
 9.5145139626e-01	 1.4476854959e+00	-2.0233249869e+00
 9.3745200484e-01	 1.4567899209e+00	-2.0051294891e+00
 9.2338008449e-01	 1.4657497800e+00	-1.9850511932e+00
 9.0923784152e-01	 1.4745642700e+00	-1.9630549038e+00
 8.9502749249e-01	 1.4832326318e+00	-1.9391021674e+00
 1.0390676807e+00	 1.3971530441e+00	-2.0904370424e+00
 1.0254802343e+00	 1.4071562284e+00	-2.0827215185e+00
 1.0118068625e+00	 1.4170198779e+00	-2.0732574637e+00
 9.9804969774e-01	 1.4267429227e+00	-2.0620044862e+00
 9.8421088968e-01	 1.4363243359e+00	-2.0489342623e+00
 9.7029260358e-01	 1.4457631341e+00	-2.0340276517e+00
 9.5629701944e-01	 1.4550583774e+00	-2.0172718255e+00
 9.4222633087e-01	 1.4642091701e+00	-1.9986574289e+00
 9.2808274398e-01	 1.4732146607e+00	-1.9781758035e+00
 9.1386847633e-01	 1.4820740417e+00	-1.9558162927e+00
 8.9958575577e-01	 1.4907865505e+00	-1.9315636497e+00
 1.0443327026e+00	 1.4042325073e+00	-2.0854765600e+00
 1.0306764078e+00	 1.4142863783e+00	-2.0778493903e+00
 1.0169337520e+00	 1.4242000076e+00	-2.0683312975e+00
 1.0031068789e+00	 1.4339723197e+00	-2.0569091245e+00
 9.8919794872e-01	 1.4436022825e+00	-2.0435812883e+00
 9.7520913778e-01	 1.4530889076e+00	-2.0283547332e+00
 9.6114263713e-01	 1.4624312505e+00	-2.0112418975e+00
 9.4700065148e-01	 1.4716284109e+00	-1.9922577198e+00
 9.3278539815e-01	 1.4806795329e+00	-1.9714167075e+00
 9.1849910590e-01	 1.4895838049e+00	-1.9487300940e+00
 9.0414401388e-01	 1.4983404605e+00	-1.9242031052e+00
 1.0495977244e+00	 1.4113119704e+00	-2.0801027745e+00
 1.0358725812e+00	 1.4214165282e+00	-2.0725914099e+00
 1.0220606416e+00	 1.4313801372e+00	-2.0630543634e+00
 1.0081640601e+00	 1.4412017166e+00	-2.0515036218e+00
 9.9418500776e-01	 1.4508802291e+00	-2.0379621718e+00
 9.8012567198e-01	 1.4604146812e+00	-2.0224607887e+00
 9.6598825482e-01	 1.4698041237e+00	-2.0050348421e+00
 9.5177497210e-01	 1.4790476517e+00	-1.9857211431e+00
 9.3748805231e-01	 1.4881444050e+00	-1.9645548597e+00
 9.2312973546e-01	 1.4970935682e+00	-1.9415665242e+00
 9.0870227200e-01	 1.5058943706e+00	-1.9167791573e+00
 1.0548627523e+00	 1.4183914416e+00	-2.0741445126e+00
 1.0410687605e+00	 1.4285466862e+00	-2.0667744895e+00
 1.0271875370e+00	 1.4385602750e+00	-2.0572503817e+00
 1.0132212469e+00	 1.4484311217e+00	-2.0456072819e+00
 9.9917207245e-01	 1.4581581839e+00	-2.0318906281e+00
 9.8504221176e-01	 1.4677404630e+00	-2.0161528283e+00
 9.7083387800e-01	 1.4771770052e+00	-1.9984499020e+00
 9.5654929812e-01	 1.4864669009e+00	-1.9788381688e+00
 9.4219071180e-01	 1.4956092857e+00	-1.9573710080e+00
 9.2776037028e-01	 1.5046033399e+00	-1.9340957168e+00
 9.1326053528e-01	 1.5134482892e+00	-1.9090504900e+00
 1.0601277921e+00	 1.4254709288e+00	-2.0674302983e+00
 1.0462649516e+00	 1.4356768604e+00	-2.0602251983e+00
 1.0323144440e+00	 1.4457404291e+00	-2.0507427094e+00
 1.0182784453e+00	 1.4556605433e+00	-2.0390390434e+00
 1.0041591484e+00	 1.4654361552e+00	-2.0251800257e+00
 9.8995876267e-01	 1.4750662615e+00	-2.0092375522e+00
 9.7567951216e-01	 1.4845499034e+00	-1.9912860671e+00
 9.6132363497e-01	 1.4938861669e+00	-1.9713990897e+00
 9.4689338195e-01	 1.5030741833e+00	-1.9496458183e+00
 9.3239101559e-01	 1.5121131287e+00	-1.9260878371e+00
 9.1781880889e-01	 1.5210022250e+00	-1.9007759516e+00
 1.0653928498e+00	 1.4325504401e+00	-2.0597885372e+00
 1.0514611604e+00	 1.4428070588e+00	-2.0527699421e+00
 1.0374413685e+00	 1.4529206076e+00	-2.0433545130e+00
 1.0233356608e+00	 1.4628899893e+00	-2.0316176471e+00
 1.0091462414e+00	 1.4727141512e+00	-2.0176435459e+00
 9.9487533030e-01	 1.4823920849e+00	-2.0015215036e+00
 9.8052516279e-01	 1.4919228267e+00	-1.9833422183e+00
 9.6609798805e-01	 1.5013054582e+00	-1.9631941566e+00
 9.5159606809e-01	 1.5105391062e+00	-1.9411599996e+00
 9.3702167664e-01	 1.5196229430e+00	-1.9173131974e+00
 9.2237709800e-01	 1.5285561864e+00	-1.8917146597e+00
 1.0706579313e+00	 1.4396299835e+00	-2.0510476997e+00
 1.0566573927e+00	 1.4499372895e+00	-2.0442351410e+00
 1.0425683162e+00	 1.4601008186e+00	-2.0349089413e+00
 1.0283928993e+00	 1.4701194682e+00	-2.0231618016e+00
 1.0141333570e+00	 1.4799921803e+00	-2.0090943421e+00
 9.9979192022e-01	 1.4897179414e+00	-1.9928112195e+00
 9.8537083540e-01	 1.4992957834e+00	-1.9744172708e+00
 9.7087236277e-01	 1.5087247831e+00	-1.9540137128e+00
 9.5629877555e-01	 1.5180040630e+00	-1.9316944295e+00
 9.4165235869e-01	 1.5271327913e+00	-1.9075423727e+00
 9.2693540778e-01	 1.5361101821e+00	-1.8816261063e+00
 8.8135262000e-01	 1.4605707390e+00	-1.9651980764e+00
 8.6729451342e-01	 1.4689620607e+00	-1.9406014990e+00
 8.5317373444e-01	 1.4772081256e+00	-1.9146428058e+00
 8.3899249124e-01	 1.4853083198e+00	-1.8872883371e+00
 8.2475299774e-01	 1.4932620732e+00	-1.8584915317e+00
 8.1045747260e-01	 1.5010688597e+00	-1.8281916017e+00
 7.9610813808e-01	 1.5087281967e+00	-1.7963123852e+00
 7.8170721905e-01	 1.5162396457e+00	-1.7627613872e+00
 7.6725694188e-01	 1.5236028115e+00	-1.7274290180e+00
 7.5275953348e-01	 1.5308173424e+00	-1.6901880348e+00
 7.3821722017e-01	 1.5378829301e+00	-1.6508931921e+00
 8.8591092977e-01	 1.4681247347e+00	-1.9556783145e+00
 8.7178011540e-01	 1.4765594558e+00	-1.9307076929e+00
 8.5758630449e-01	 1.4848481689e+00	-1.9044048972e+00
 8.4333171663e-01	 1.4929902569e+00	-1.8767243170e+00
 8.2901857722e-01	 1.5009851467e+00	-1.8476059036e+00
 8.1464911637e-01	 1.5088323095e+00	-1.8169737945e+00
 8.0022556784e-01	 1.5165312603e+00	-1.7847351241e+00
 7.8575016800e-01	 1.5240815581e+00	-1.7507790324e+00
 7.7122515476e-01	 1.5314828057e+00	-1.7149758789e+00
 7.5665276651e-01	 1.5387346498e+00	-1.6771766699e+00
 7.4203524112e-01	 1.5458367804e+00	-1.6372127036e+00
 8.9046921888e-01	 1.4756786961e+00	-1.9470599926e+00
 8.7626569704e-01	 1.4841568165e+00	-1.9217657074e+00
 8.6199885453e-01	 1.4924881777e+00	-1.8951562376e+00
 8.4767092236e-01	 1.5006721592e+00	-1.8671728587e+00
 8.3328413736e-01	 1.5087081853e+00	-1.8377412090e+00
 8.1884074113e-01	 1.5165957242e+00	-1.8067698585e+00
 8.0434297893e-01	 1.5243342884e+00	-1.7741490727e+00
 7.8979309863e-01	 1.5319234349e+00	-1.7397497817e+00
 7.7519334965e-01	 1.5393627643e+00	-1.7034227648e+00
 7.6054598190e-01	 1.5466519214e+00	-1.6649980561e+00
 7.4585324477e-01	 1.5537905946e+00	-1.6242845795e+00
 8.9502749249e-01	 1.4832326318e+00	-1.9391021674e+00
 8.8075126344e-01	 1.4917541514e+00	-1.9135246891e+00
 8.6641138957e-01	 1.5001281604e+00	-1.8866413176e+00
 8.5201011333e-01	 1.5083540355e+00	-1.8583790744e+00
 8.3754968300e-01	 1.5164311976e+00	-1.8286484784e+00
 8.2303235165e-01	 1.5243591124e+00	-1.7973420537e+00
 8.0846037603e-01	 1.5321372901e+00	-1.7643330407e+00
 7.9383601552e-01	 1.5397652850e+00	-1.7294743198e+00
 7.7916153105e-01	 1.5472426960e+00	-1.6925975601e+00
 7.6443918406e-01	 1.5545691660e+00	-1.6535125982e+00
 7.4967123543e-01	 1.5617443818e+00	-1.6120070546e+00
 8.9958575577e-01	 1.4907865505e+00	-1.9315636497e+00
 8.8523681966e-01	 1.4993514691e+00	-1.9057336743e+00
 8.7082391461e-01	 1.5077681259e+00	-1.8786045514e+00
 8.5634929447e-01	 1.5160358943e+00	-1.8500879320e+00
 8.4181521898e-01	 1.5241541924e+00	-1.8200784287e+00
 8.2722395267e-01	 1.5321224831e+00	-1.7884520561e+00
 8.1257776380e-01	 1.5399402740e+00	-1.7550648831e+00
 7.9787892324e-01	 1.5476071174e+00	-1.7197519062e+00
 7.8312970346e-01	 1.5551226099e+00	-1.6823261551e+00
 7.6833237739e-01	 1.5624863927e+00	-1.6425780385e+00
 7.5348921745e-01	 1.5696981510e+00	-1.6002749359e+00
 9.0414401388e-01	 1.4983404605e+00	-1.9242031052e+00
 8.8972237081e-01	 1.5069487781e+00	-1.8981416805e+00
 8.7523643465e-01	 1.5154080827e+00	-1.8707903602e+00
 8.6068847069e-01	 1.5237177443e+00	-1.8420443333e+00
 8.4608075012e-01	 1.5318771784e+00	-1.8117815386e+00
 8.3141554894e-01	 1.5398858449e+00	-1.7798610330e+00
 8.1669514690e-01	 1.5477432491e+00	-1.7461215783e+00
 8.0192182639e-01	 1.5554489409e+00	-1.7103804585e+00
 7.8709787137e-01	 1.5630025149e+00	-1.6724325360e+00
 7.7222556631e-01	 1.5704036104e+00	-1.6320495580e+00
 7.5730719513e-01	 1.5776519112e+00	-1.5889797169e+00
 9.0870227200e-01	 1.5058943706e+00	-1.9167791573e+00
 8.9420792196e-01	 1.5145460872e+00	-1.8904977981e+00
 8.7964895470e-01	 1.5230480395e+00	-1.8629432566e+00
 8.6502764692e-01	 1.5313995944e+00	-1.8339931930e+00
 8.5034628126e-01	 1.5396001644e+00	-1.8035081251e+00
 8.3560714521e-01	 1.5476492068e+00	-1.7713297194e+00
 8.2081253000e-01	 1.5555462242e+00	-1.7372793066e+00
 8.0596472953e-01	 1.5632907644e+00	-1.7011566360e+00
 7.9106603928e-01	 1.5708824199e+00	-1.6627388767e+00
 7.7611875523e-01	 1.5783208281e+00	-1.6217798778e+00
 7.6112517282e-01	 1.5856056713e+00	-1.5780096912e+00
 9.1326053528e-01	 1.5134482892e+00	-1.9090504900e+00
 8.9869347818e-01	 1.5221434049e+00	-1.8825512836e+00
 8.8406147974e-01	 1.5306880049e+00	-1.8548079303e+00
 8.6936682806e-01	 1.5390814532e+00	-1.8256795191e+00
 8.5461181723e-01	 1.5473231592e+00	-1.7950084211e+00
 8.3979874622e-01	 1.5554125775e+00	-1.7626184955e+00
 8.2492991776e-01	 1.5633492082e+00	-1.7283135299e+00
 8.1000763725e-01	 1.5711325967e+00	-1.6918759238e+00
 7.9503421169e-01	 1.5787623338e+00	-1.6530656298e+00
 7.8001194856e-01	 1.5862380548e+00	-1.6116193598e+00
 7.6494315484e-01	 1.5935594405e+00	-1.5672500650e+00
 9.1781880889e-01	 1.5210022250e+00	-1.9007759516e+00
 9.0317904458e-01	 1.5297407397e+00	-1.8740516537e+00
 8.8847401478e-01	 1.5383279877e+00	-1.8461293341e+00
 8.7370601903e-01	 1.5467633295e+00	-1.8168484945e+00
 8.5887736287e-01	 1.5550461715e+00	-1.7860326537e+00
 8.4399035674e-01	 1.5631759657e+00	-1.7534874649e+00
 8.2904731486e-01	 1.5711522098e+00	-1.7189990719e+00
 8.1405055414e-01	 1.5789744469e+00	-1.6823327177e+00
 7.9900239309e-01	 1.5866422655e+00	-1.6432316179e+00
 7.8390515072e-01	 1.5941552995e+00	-1.6014161075e+00
 7.6876114550e-01	 1.6015132277e+00	-1.5565830701e+00
 9.2237709800e-01	 1.5285561864e+00	-1.8917146597e+00
 9.0766462623e-01	 1.5373381004e+00	-1.8647487803e+00
 8.9288656483e-01	 1.5459679964e+00	-1.8366527721e+00
 8.7804522476e-01	 1.5544452318e+00	-1.8072455590e+00
 8.6314292302e-01	 1.5627692100e+00	-1.7763311247e+00
 8.4818198151e-01	 1.5709393804e+00	-1.7436965337e+00
 8.3316472596e-01	 1.5789552380e+00	-1.7091101991e+00
 8.1809348477e-01	 1.5868163237e+00	-1.6723204090e+00
 8.0297058798e-01	 1.5945222240e+00	-1.6330541255e+00
 7.8779836611e-01	 1.6020725710e+00	-1.5910160660e+00
 7.7257914915e-01	 1.6094670419e+00	-1.5458880747e+00
 9.2693540778e-01	 1.5361101821e+00	-1.8816261063e+00
 9.1215022821e-01	 1.5449354956e+00	-1.8543929860e+00
 8.9729913487e-01	 1.5536080398e+00	-1.8261239877e+00
 8.8238445016e-01	 1.5621271689e+00	-1.7966164934e+00
 8.6740850250e-01	 1.5704922835e+00	-1.7656542903e+00
 8.5237362528e-01	 1.5787028302e+00	-1.7330054906e+00
 8.3728215572e-01	 1.5867583015e+00	-1.6984207027e+00
 8.2213643373e-01	 1.5946582360e+00	-1.6616314704e+00
 8.0693880086e-01	 1.6024022183e+00	-1.6223489908e+00
 7.9169159915e-01	 1.6099898785e+00	-1.5802631228e+00
 7.7639717010e-01	 1.6174208922e+00	-1.5350416946e+00
 7.3821722017e-01	 1.5378829301e+00	-1.6508931921e+00
 7.2362974352e-01	 1.5448004724e+00	-1.6107689377e+00
 7.0900179485e-01	 1.5515685321e+00	-1.5711033647e+00
 6.9433559319e-01	 1.5581869283e+00	-1.5318135336e+00
 6.7963335308e-01	 1.5646555226e+00	-1.4928180597e+00
 6.6489728352e-01	 1.5709742187e+00	-1.4540374866e+00
 6.5012958706e-01	 1.5771429619e+00	-1.4153948457e+00
 6.3533245882e-01	 1.5831617391e+00	-1.3768163960e+00
 6.2050808558e-01	 1.5890305782e+00	-1.3382325383e+00
 6.0565864489e-01	 1.5947495478e+00	-1.2995788961e+00
 5.9078630409e-01	 1.6003187566e+00	-1.2607975547e+00
 7.4203524112e-01	 1.5458367804e+00	-1.6372127036e+00
 7.2737231881e-01	 1.5527900999e+00	-1.5964471991e+00
 7.1266871514e-01	 1.5595931636e+00	-1.5563241398e+00
 6.9792666066e-01	 1.5662457898e+00	-1.5167615060e+00
 6.8314838133e-01	 1.5727478394e+00	-1.4776792702e+00
 6.6833609758e-01	 1.5790992154e+00	-1.4389997464e+00
 6.5349202336e-01	 1.5852998630e+00	-1.4006481312e+00
 6.3861836515e-01	 1.5913497690e+00	-1.3625532338e+00
 6.2371732103e-01	 1.5972489615e+00	-1.3246483879e+00
 6.0879107980e-01	 1.6029975093e+00	-1.2868725379e+00
 5.9384182003e-01	 1.6085955217e+00	-1.2491714905e+00
 7.4585324477e-01	 1.5537905946e+00	-1.6242845795e+00
 7.3111487713e-01	 1.5607796911e+00	-1.5827989467e+00
 7.1633561882e-01	 1.5676177588e+00	-1.5421545538e+00
 7.0151771185e-01	 1.5743046148e+00	-1.5022694176e+00
 6.8666339364e-01	 1.5808401194e+00	-1.4630633330e+00
 6.7177489606e-01	 1.5872241753e+00	-1.4244582057e+00
 6.5685444443e-01	 1.5934567272e+00	-1.3863785865e+00
 6.4190425659e-01	 1.5995377618e+00	-1.3487524016e+00
 6.2692654193e-01	 1.6054673075e+00	-1.3115118748e+00
 6.1192350052e-01	 1.6112454334e+00	-1.2745946313e+00
 5.9689732213e-01	 1.6168722493e+00	-1.2379449751e+00
 7.4967123543e-01	 1.5617443818e+00	-1.6120070546e+00
 7.3485742272e-01	 1.5687692552e+00	-1.5697586386e+00
 7.2000251003e-01	 1.5756423266e+00	-1.5285567795e+00
 7.0510875083e-01	 1.5823634124e+00	-1.4883186800e+00
 6.9017839401e-01	 1.5889323720e+00	-1.4489624598e+00
 6.7521368285e-01	 1.5953491075e+00	-1.4104074804e+00
 6.6021685407e-01	 1.6016135636e+00	-1.3725748815e+00
 6.4519013686e-01	 1.6077257268e+00	-1.3353883240e+00
 6.3013575192e-01	 1.6136856256e+00	-1.2987749333e+00
 6.1505591059e-01	 1.6194933294e+00	-1.2626664336e+00
 5.9995281383e-01	 1.6251489488e+00	-1.2270004652e+00
 7.5348921745e-01	 1.5696981510e+00	-1.6002749359e+00
 7.3859995984e-01	 1.5767588012e+00	-1.5572565830e+00
 7.2366939293e-01	 1.5836668763e+00	-1.5154883005e+00
 7.0869978167e-01	 1.5904221917e+00	-1.4748856599e+00
 6.9369338641e-01	 1.5970246062e+00	-1.4353636449e+00
 6.7865246184e-01	 1.6034740214e+00	-1.3968369780e+00
 6.6357925609e-01	 1.6097703815e+00	-1.3592206687e+00
 6.4847600968e-01	 1.6159136732e+00	-1.3224307798e+00
 6.3334495464e-01	 1.6219039250e+00	-1.2863854030e+00
 6.1818831355e-01	 1.6277412067e+00	-1.2510058377e+00
 6.0300829862e-01	 1.6334256295e+00	-1.2162179606e+00
 7.5730719513e-01	 1.5776519112e+00	-1.5889797169e+00
 7.4234249271e-01	 1.5847483381e+00	-1.5452190642e+00
 7.2733627167e-01	 1.5916914169e+00	-1.5029020456e+00
 7.1229080845e-01	 1.5984809619e+00	-1.4619418166e+00
 6.9720837482e-01	 1.6051168312e+00	-1.4222488012e+00
 6.8209123694e-01	 1.6115989260e+00	-1.3837310287e+00
 6.6694165429e-01	 1.6179271902e+00	-1.3462947044e+00
 6.5176187878e-01	 1.6241016104e+00	-1.3098450085e+00
 6.3655415373e-01	 1.6301222151e+00	-1.2742871176e+00
 6.2132071297e-01	 1.6359890748e+00	-1.2395274380e+00
 6.0606377994e-01	 1.6417023008e+00	-1.2054750429e+00
 7.6112517282e-01	 1.5856056713e+00	-1.5780096912e+00
 7.4608502559e-01	 1.5927378750e+00	-1.5335684677e+00
 7.3100315041e-01	 1.5997159574e+00	-1.4907465210e+00
 7.1588183522e-01	 1.6065397321e+00	-1.4494538375e+00
 7.0072336324e-01	 1.6132090563e+00	-1.4095948942e+00
 6.8553001204e-01	 1.6197238306e+00	-1.3710690138e+00
 6.7030405250e-01	 1.6260839989e+00	-1.3337709672e+00
 6.5504774788e-01	 1.6322895475e+00	-1.2975918164e+00
 6.3976335281e-01	 1.6383405052e+00	-1.2624199921e+00
 6.2445311239e-01	 1.6442369428e+00	-1.2281425953e+00
 6.0911926126e-01	 1.6499789722e+00	-1.1946469144e+00
 7.6494315484e-01	 1.5935594405e+00	-1.5672500650e+00
 7.4982756270e-01	 1.6007274210e+00	-1.5222234050e+00
 7.3467003331e-01	 1.6077405071e+00	-1.4789659418e+00
 7.1947286606e-01	 1.6145985114e+00	-1.4373837724e+00
 7.0423835564e-01	 1.6213012905e+00	-1.3973740752e+00
 6.8896879103e-01	 1.6278487445e+00	-1.3588254932e+00
 6.7366645452e-01	 1.6342408168e+00	-1.3216187764e+00
 6.5833362070e-01	 1.6404774939e+00	-1.2856276801e+00
 6.4297255553e-01	 1.6465588047e+00	-1.2507201093e+00
 6.2758551536e-01	 1.6524848201e+00	-1.2167595020e+00
 6.1217474604e-01	 1.6582556529e+00	-1.1836064381e+00
 7.6876114550e-01	 1.6015132277e+00	-1.5565830701e+00
 7.5357010830e-01	 1.6087169851e+00	-1.5110988356e+00
 7.3833692452e-01	 1.6157650750e+00	-1.4675003609e+00
 7.2306390505e-01	 1.6226573090e+00	-1.4256891649e+00
 7.0775335601e-01	 1.6293935430e+00	-1.3855538120e+00
 6.9240757782e-01	 1.6359736767e+00	-1.3469703310e+00
 6.7702886416e-01	 1.6423976532e+00	-1.3098029081e+00
 6.6161950097e-01	 1.6486654589e+00	-1.2739048497e+00
 6.4618176552e-01	 1.6547771228e+00	-1.2391198062e+00
 6.3071792543e-01	 1.6607327161e+00	-1.2052832472e+00
 6.1523023775e-01	 1.6665323523e+00	-1.1722241775e+00
 7.7257914915e-01	 1.6094670419e+00	-1.5458880747e+00
 7.5731266662e-01	 1.6167065763e+00	-1.5001061894e+00
 7.4200382820e-01	 1.6237896701e+00	-1.4562857980e+00
 7.2665495624e-01	 1.6307161340e+00	-1.4143231839e+00
 7.1126836832e-01	 1.6374858231e+00	-1.3740970177e+00
 6.9584637630e-01	 1.6440986366e+00	-1.3354688190e+00
 6.8039128522e-01	 1.6505545174e+00	-1.2982837096e+00
 6.6490539241e-01	 1.6568534517e+00	-1.2623714510e+00
 6.4939098642e-01	 1.6629954688e+00	-1.2275477584e+00
 6.3385034615e-01	 1.6689806402e+00	-1.1936158812e+00
 6.1828573985e-01	 1.6748090800e+00	-1.1603684373e+00
 7.7639717010e-01	 1.6174208922e+00	-1.5350416946e+00
 7.6105524190e-01	 1.6246962038e+00	-1.4891534874e+00
 7.4567074850e-01	 1.6318143016e+00	-1.4452543656e+00
 7.3024602370e-01	 1.6387749955e+00	-1.4032347522e+00
 7.1478339657e-01	 1.6455781398e+00	-1.3629621788e+00
 6.9928519036e-01	 1.6522236333e+00	-1.3242817995e+00
 6.8375372154e-01	 1.6587114185e+00	-1.2870172131e+00
 6.6819129874e-01	 1.6650414817e+00	-1.2509715855e+00
 6.5260022188e-01	 1.6712138520e+00	-1.2159290651e+00
 6.3698278107e-01	 1.6772286017e+00	-1.1816564799e+00
 6.2134125579e-01	 1.6830858451e+00	-1.1479053042e+00
 5.9078630409e-01	 1.6003187566e+00	-1.2607975547e+00
 5.7589575259e-01	 1.6057374444e+00	-1.2195374968e+00
 5.6098660704e-01	 1.6110067574e+00	-1.1770169462e+00
 5.4606099739e-01	 1.6161269212e+00	-1.1339060638e+00
 5.3112104005e-01	 1.6210981995e+00	-1.0906708337e+00
 5.1616883713e-01	 1.6259208937e+00	-1.0477359652e+00
 5.0120647558e-01	 1.6305953427e+00	-1.0054890490e+00
 4.8623602649e-01	 1.6351219218e+00	-9.6428466914e-01
 4.7125954432e-01	 1.6395010426e+00	-9.2444845039e-01
 4.5627906618e-01	 1.6437331520e+00	-8.8628101470e-01
 4.4129661111e-01	 1.6478187318e+00	-8.5006182813e-01
 5.9384182003e-01	 1.6085955217e+00	-1.2491714905e+00
 5.7887425538e-01	 1.6140422347e+00	-1.2075776970e+00
 5.6388800051e-01	 1.6193388003e+00	-1.1643931950e+00
 5.4888519638e-01	 1.6244854453e+00	-1.1208648340e+00
 5.3386797037e-01	 1.6294824348e+00	-1.0774157881e+00
 5.1883843543e-01	 1.6343300717e+00	-1.0344272438e+00
 5.0379868933e-01	 1.6390286967e+00	-9.9224277749e-01
 4.8875081386e-01	 1.6435786871e+00	-9.5117268628e-01
 4.7369687410e-01	 1.6479804565e+00	-9.1149824490e-01
 4.5863891770e-01	 1.6522344541e+00	-8.7347586672e-01
 4.4357897416e-01	 1.6563411643e+00	-8.3734114656e-01
 5.9689732213e-01	 1.6168722493e+00	-1.2379449751e+00
 5.8185274467e-01	 1.6223469873e+00	-1.1963292203e+00
 5.6678938082e-01	 1.6276708055e+00	-1.1522664397e+00
 5.5170938257e-01	 1.6328439316e+00	-1.1080888095e+00
 5.3661488823e-01	 1.6378666321e+00	-1.0641858742e+00
 5.2150802163e-01	 1.6427392117e+00	-1.0209049108e+00
 5.0639089132e-01	 1.6474620126e+00	-9.7855551379e-01
 4.9126558982e-01	 1.6520354140e+00	-9.3741412614e-01
 4.7613419283e-01	 1.6564598319e+00	-8.9772849086e-01
 4.6099875853e-01	 1.6607357177e+00	-8.5972199903e-01
 4.4586132687e-01	 1.6648635582e+00	-8.2359791141e-01
 5.9995281383e-01	 1.6251489488e+00	-1.2270004652e+00
 5.8483122383e-01	 1.6306517117e+00	-1.1856710330e+00
 5.6969075127e-01	 1.6360027823e+00	-1.1404869477e+00
 5.5453355916e-01	 1.6412023894e+00	-1.0954071443e+00
 5.3936179675e-01	 1.6462508009e+00	-1.0507964836e+00
 5.2417759875e-01	 1.6511483230e+00	-1.0069777096e+00
 5.0898308450e-01	 1.6558952997e+00	-9.6423622597e-01
 4.9378035724e-01	 1.6604921122e+00	-9.2282481175e-01
 4.7857150328e-01	 1.6649391785e+00	-8.8296825162e-01
 4.6335859134e-01	 1.6692369523e+00	-8.4486785397e-01
 4.4814367181e-01	 1.6733859231e+00	-8.0870583465e-01
 6.0300829862e-01	 1.6334256295e+00	-1.2162179606e+00
 5.8780969624e-01	 1.6389564173e+00	-1.1754789157e+00
 5.7259211515e-01	 1.6443347402e+00	-1.1289029025e+00
 5.5735772935e-01	 1.6495608283e+00	-1.0826478509e+00
 5.4210869904e-01	 1.6546349507e+00	-1.0370626520e+00
 5.2684716982e-01	 1.6595574153e+00	-9.9245465843e-01
 5.1157527181e-01	 1.6643285677e+00	-9.4909463662e-01
 4.9629511895e-01	 1.6689487913e+00	-9.0722165284e-01
 4.8100880820e-01	 1.6734185059e+00	-8.6704786500e-01
 4.6571841880e-01	 1.6777381677e+00	-8.2876319519e-01
 4.5042601159e-01	 1.6819082687e+00	-7.9253985880e-01
 6.0606377994e-01	 1.6417023008e+00	-1.2054750429e+00
 5.9078816528e-01	 1.6472611135e+00	-1.1654456656e+00
 5.7549347574e-01	 1.6526666887e+00	-1.1173602615e+00
 5.6018189633e-01	 1.6579192577e+00	-1.0696376459e+00
 5.4485559823e-01	 1.6630190910e+00	-1.0227988959e+00
 5.2951673787e-01	 1.6679664980e+00	-9.7714488249e-01
 5.1416745618e-01	 1.6727618262e+00	-9.3294105477e-01
 4.9880987782e-01	 1.6774054607e+00	-8.9042248041e-01
 4.8344611036e-01	 1.6818978236e+00	-8.4979878395e-01
 4.6807824359e-01	 1.6862393735e+00	-8.1125895758e-01
 4.5270834877e-01	 1.6904306047e+00	-7.7497601950e-01
 6.0911926126e-01	 1.6499789722e+00	-1.1946469144e+00
 5.9376663432e-01	 1.6555658097e+00	-1.1551295658e+00
 5.7839483632e-01	 1.6609986372e+00	-1.1057026155e+00
 5.6300606332e-01	 1.6662776871e+00	-1.0562017979e+00
 5.4760249741e-01	 1.6714032313e+00	-1.0078190526e+00
 5.3218630591e-01	 1.6763755808e+00	-9.6085745015e-01
 5.1675964055e-01	 1.6811950847e+00	-9.1558621077e-01
 5.0132463668e-01	 1.6858621302e+00	-8.7224588436e-01
 4.8588341251e-01	 1.6903771414e+00	-8.3105342019e-01
 4.7043806837e-01	 1.6947405793e+00	-7.9220710022e-01
 4.5499068596e-01	 1.6989529406e+00	-7.5589131070e-01
 6.1217474604e-01	 1.6582556529e+00	-1.1836064381e+00
 5.9674510673e-01	 1.6638705153e+00	-1.1443641916e+00
 5.8129620020e-01	 1.6693305951e+00	-1.0937710492e+00
 5.6583023351e-01	 1.6746361260e+00	-1.0421639767e+00
 5.5034939971e-01	 1.6797873811e+00	-9.9193612245e-01
 5.3485587698e-01	 1.6847846730e+00	-9.4340121110e-01
 5.1935182786e-01	 1.6896283527e+00	-8.9684109410e-01
 5.0383939840e-01	 1.6943188092e+00	-8.5251105400e-01
 4.8832071743e-01	 1.6988564688e+00	-8.1064499067e-01
 4.7279789583e-01	 1.7032417947e+00	-7.7146046182e-01
 4.5727302573e-01	 1.7074752862e+00	-7.3516355213e-01
 6.1523023775e-01	 1.6665323523e+00	-1.1722241775e+00
 5.9972358590e-01	 1.6721752397e+00	-1.1329857460e+00
 5.8419757065e-01	 1.6776625720e+00	-1.0814040039e+00
 5.6865441010e-01	 1.6829945838e+00	-1.0273461060e+00
 5.5309630823e-01	 1.6881715499e+00	-9.7496211363e-01
 5.3752545410e-01	 1.6931937844e+00	-9.2458463737e-01
 5.2194402104e-01	 1.6980616399e+00	-8.7651679401e-01
 5.0635416581e-01	 1.7027755074e+00	-8.3103762151e-01
 4.9075802788e-01	 1.7073358154e+00	-7.8840736688e-01
 4.7515772864e-01	 1.7117430294e+00	-7.4887261888e-01
 4.5955537068e-01	 1.7159976511e+00	-7.1267125929e-01
 6.1828573985e-01	 1.6748090800e+00	-1.1603684373e+00
 6.0270207519e-01	 1.6804799924e+00	-1.1208289634e+00
 5.8709895097e-01	 1.6859945771e+00	-1.0684371418e+00
 5.7147859629e-01	 1.6913530700e+00	-1.0115682167e+00
 5.5584322609e-01	 1.6965557473e+00	-9.5670788944e-01
 5.4019504030e-01	 1.7016029243e+00	-9.0421566698e-01
 5.2453622303e-01	 1.7064949557e+00	-8.5442434276e-01
 5.0886894177e-01	 1.7112322343e+00	-8.0764550796e-01
 4.9319534661e-01	 1.7158151908e+00	-7.6417492673e-01
 4.7751756946e-01	 1.7202442929e+00	-7.2429774634e-01
 4.6183772338e-01	 1.7245200450e+00	-6.8829351554e-01
 6.2134125579e-01	 1.6830858451e+00	-1.1479053042e+00
 6.0568057798e-01	 1.6887847827e+00	-1.1077271271e+00
 5.9000034444e-01	 1.6943266200e+00	-1.0546082632e+00
 5.7430279528e-01	 1.6997115942e+00	-9.9464830320e-01
 5.5859015640e-01	 1.7049399826e+00	-9.3698301748e-01
 5.4286463860e-01	 1.7100121024e+00	-8.8210155002e-01
 5.2712843678e-01	 1.7149283098e+00	-8.3037456159e-01
 5.1138372914e-01	 1.7196889996e+00	-7.8215477208e-01
 4.9563267639e-01	 1.7242946047e+00	-7.3778240900e-01
 4.7987742099e-01	 1.7287455951e+00	-6.9759048060e-01
 4.6412008643e-01	 1.7330424775e+00	-6.6190984646e-01
 4.4129661111e-01	 1.6478187318e+00	-8.5006182813e-01
 4.2631417965e-01	 1.6517582986e+00	-8.1490802766e-01
 4.1133375375e-01	 1.6555524039e+00	-7.7985297701e-01
 3.9635729548e-01	 1.6592016323e+00	-7.4502484335e-01
 3.8138674621e-01	 1.6627066012e+00	-7.1053848385e-01
 3.6642402607e-01	 1.6660679591e+00	-6.7649867861e-01
 3.5147103331e-01	 1.6692863858e+00	-6.4300316532e-01
 3.3652964380e-01	 1.6723625910e+00	-6.1014546587e-01
 3.2160171051e-01	 1.6752973142e+00	-5.7801749670e-01
 3.0668906299e-01	 1.6780913235e+00	-5.4671195627e-01
 2.9179350692e-01	 1.6807454153e+00	-5.1632448490e-01
 4.4357897416e-01	 1.6563411643e+00	-8.3734114656e-01
 4.2851905435e-01	 1.6603011064e+00	-8.0212011568e-01
 4.1346115047e-01	 1.6641148345e+00	-7.6680020168e-01
 3.9840723473e-01	 1.6677829366e+00	-7.3153454545e-01
 3.8335925857e-01	 1.6713060330e+00	-6.9646399879e-01
 3.6831915202e-01	 1.6746847757e+00	-6.6172041923e-01
 3.5328882316e-01	 1.6779198479e+00	-6.2742975789e-01
 3.3827015757e-01	 1.6810119631e+00	-5.9371493039e-01
 3.2326501778e-01	 1.6839618645e+00	-5.6069846226e-01
 3.0827524282e-01	 1.6867703243e+00	-5.2850490253e-01
 2.9330264772e-01	 1.6894381429e+00	-4.9726300035e-01
 4.4586132687e-01	 1.6648635582e+00	-8.2359791141e-01
 4.3072391905e-01	 1.6688438754e+00	-7.8830374835e-01
 4.1558853754e-01	 1.6726772264e+00	-7.5277887268e-01
 4.0045716469e-01	 1.6763642020e+00	-7.1719115398e-01
 3.8533176199e-01	 1.6799054258e+00	-6.8169727258e-01
 3.7021426938e-01	 1.6833015532e+00	-6.4644609113e-01
 3.5510660477e-01	 1.6865532709e+00	-6.1158180993e-01
 3.4001066344e-01	 1.6896612960e+00	-5.7724689549e-01
 3.2492831751e-01	 1.6926263755e+00	-5.4358477420e-01
 3.0986141547e-01	 1.6954492858e+00	-5.1074228418e-01
 2.9481178167e-01	 1.6981308311e+00	-4.7887188042e-01
 4.4814367181e-01	 1.6733859231e+00	-8.0870583465e-01
 4.3292877626e-01	 1.6773866154e+00	-7.7335985394e-01
 4.1771591738e-01	 1.6812395891e+00	-7.3771537705e-01
 4.0250708769e-01	 1.6849454382e+00	-7.0194486862e-01
 3.8730425869e-01	 1.6885047894e+00	-6.6621078399e-01
 3.7210938029e-01	 1.6919183014e+00	-6.3066903244e-01
 3.5692438020e-01	 1.6951866645e+00	-5.9547221396e-01
 3.4175116339e-01	 1.6983105994e+00	-5.6077261931e-01
 3.2659161159e-01	 1.7012908571e+00	-5.2672498457e-01
 3.1144758272e-01	 1.7041282177e+00	-4.9348899363e-01
 2.9632091050e-01	 1.7068234898e+00	-4.6123152349e-01
 4.5042601159e-01	 1.6819082687e+00	-7.9253985880e-01
 4.3513362847e-01	 1.6859293360e+00	-7.5719044152e-01
 4.1984329240e-01	 1.6898019324e+00	-7.2153704767e-01
 4.0455700604e-01	 1.6935266550e+00	-6.8574671116e-01
 3.8927675093e-01	 1.6971041335e+00	-6.4997771803e-01
 3.7400448691e-01	 1.7005350301e+00	-6.1438317599e-01
 3.5874215151e-01	 1.7038200385e+00	-5.7911434691e-01
 3.4349165940e-01	 1.7069598833e+00	-5.4432373178e-01
 3.2825490189e-01	 1.7099553191e+00	-5.1016789911e-01
 3.1303374638e-01	 1.7128071300e+00	-4.7681005023e-01
 2.9783003590e-01	 1.7155161287e+00	-4.4442231629e-01
 4.5270834877e-01	 1.6904306047e+00	-7.7497601950e-01
 4.3733847818e-01	 1.6944720469e+00	-7.3969847731e-01
 4.2197066501e-01	 1.6983642661e+00	-7.0417205262e-01
 4.0660692206e-01	 1.7021078620e+00	-6.6854842731e-01
 3.9124924093e-01	 1.7057034678e+00	-6.3297187956e-01
 3.7589959138e-01	 1.7091517490e+00	-5.9758297438e-01
 3.6055992076e-01	 1.7124534028e+00	-5.6252200597e-01
 3.4523215344e-01	 1.7156091573e+00	-5.2793218105e-01
 3.2991819031e-01	 1.7186197712e+00	-4.9396253398e-01
 3.1461990824e-01	 1.7214860324e+00	-4.6077056708e-01
 2.9933915960e-01	 1.7242087578e+00	-4.2852461069e-01
 4.5499068596e-01	 1.6989529406e+00	-7.5589131070e-01
 4.3954332789e-01	 1.7030147579e+00	-7.2078776326e-01
 4.2409803761e-01	 1.7069265997e+00	-6.8554928647e-01
 4.0865683809e-01	 1.7106890691e+00	-6.5030239009e-01
 3.9322173094e-01	 1.7143028022e+00	-6.1516760830e-01
 3.7779469586e-01	 1.7177684679e+00	-5.8026332605e-01
 3.6237769001e-01	 1.7210867670e+00	-5.4570934541e-01
 3.4697264748e-01	 1.7242584314e+00	-5.1163018067e-01
 3.3158147874e-01	 1.7272842233e+00	-4.7815807306e-01
 3.1620607010e-01	 1.7301649348e+00	-4.4543571809e-01
 3.0084828329e-01	 1.7329013869e+00	-4.1361870041e-01
 4.5727302573e-01	 1.7074752862e+00	-7.3516355213e-01
 4.4174818010e-01	 1.7115574785e+00	-7.0036281769e-01
 4.2622541263e-01	 1.7154889430e+00	-6.6559826347e-01
 4.1070675643e-01	 1.7192702858e+00	-6.3096150488e-01
 3.9519422317e-01	 1.7229021463e+00	-5.9653969520e-01
 3.7968980247e-01	 1.7263851966e+00	-5.6241950256e-01
 3.6419546132e-01	 1.7297201411e+00	-5.2869081431e-01
 3.4871314349e-01	 1.7329077153e+00	-4.9545015741e-01
 3.3324476904e-01	 1.7359486853e+00	-4.6280382545e-01
 3.1779223376e-01	 1.7388438471e+00	-4.3087070525e-01
 3.0235740870e-01	 1.7415940259e+00	-3.9978479776e-01
 4.5955537068e-01	 1.7159976511e+00	-7.1267125929e-01
 4.4395303731e-01	 1.7201002185e+00	-6.7832875806e-01
 4.2835279247e-01	 1.7240513058e+00	-6.4424901248e-01
 4.1275667943e-01	 1.7278515220e+00	-6.1047911597e-01
 3.9716671988e-01	 1.7315015099e+00	-5.7706330009e-01
 3.8158491339e-01	 1.7350019448e+00	-5.4404707680e-01
 3.6601323675e-01	 1.7383535347e+00	-5.1148109502e-01
 3.5045364345e-01	 1.7415570187e+00	-4.7942469963e-01
 3.3490806312e-01	 1.7446131668e+00	-4.4794918365e-01
 3.1937840101e-01	 1.7475227790e+00	-4.1714072608e-01
 3.0386653752e-01	 1.7502866845e+00	-3.8710301033e-01
 4.6183772338e-01	 1.7245200450e+00	-6.8829351554e-01
 4.4615790201e-01	 1.7286429875e+00	-6.5459118569e-01
 4.3048017954e-01	 1.7326136976e+00	-6.2143197362e-01
 4.1480660939e-01	 1.7364327874e+00	-5.8880891460e-01
 3.9913922329e-01	 1.7401009027e+00	-5.5671387055e-01
 3.8348003074e-01	 1.7436187224e+00	-5.2514185235e-01
 3.6783101836e-01	 1.7469869577e+00	-4.9409504250e-01
 3.5219414932e-01	 1.7502063516e+00	-4.6358650631e-01
 3.3657136285e-01	 1.7532776779e+00	-4.3364358188e-01
 3.2096457366e-01	 1.7562017405e+00	-4.0431094126e-01
 3.0537567148e-01	 1.7589793727e+00	-3.7565331773e-01
 4.6412008643e-01	 1.7330424775e+00	-6.6190984646e-01
 4.4836277670e-01	 1.7371857953e+00	-6.2905607241e-01
 4.3260757626e-01	 1.7411761283e+00	-5.9707789660e-01
 4.1685654864e-01	 1.7450140917e+00	-5.6590484838e-01
 4.0111173565e-01	 1.7487003345e+00	-5.3546706203e-01
 3.8537515669e-01	 1.7522355389e+00	-5.0569979371e-01
 3.6964880820e-01	 1.7556204198e+00	-4.7654762440e-01
 3.5393466308e-01	 1.7588557237e+00	-4.4796833663e-01
 3.3823467012e-01	 1.7619422282e+00	-4.1993645494e-01
 3.2255075349e-01	 1.7648807413e+00	-3.9244379609e-01
 3.0688481227e-01	 1.7676721003e+00	-3.6477146215e-01
 2.9179350692e-01	 1.6807454153e+00	-5.1632448490e-01
 2.7691429682e-01	 1.6832608288e+00	-4.8733820891e-01
 2.6205572732e-01	 1.6856379504e+00	-4.6009320652e-01
 2.4721953454e-01	 1.6878776557e+00	-4.3446933730e-01
 2.3240742898e-01	 1.6899808451e+00	-4.1036172751e-01
 2.1762109510e-01	 1.6919484436e+00	-3.8768189977e-01
 2.0286219106e-01	 1.6937814001e+00	-3.6635866608e-01
 1.8813234834e-01	 1.6954806859e+00	-3.4633878904e-01
 1.7343317150e-01	 1.6970472951e+00	-3.2758741734e-01
 1.5876623785e-01	 1.6984822427e+00	-3.1008830286e-01
 1.4413309728e-01	 1.6997865649e+00	-2.9384380727e-01
 2.9330264772e-01	 1.6894381429e+00	-4.9726300035e-01
 2.7834648312e-01	 1.6919665660e+00	-4.6751385909e-01
 2.6341106587e-01	 1.6943559820e+00	-4.3962280364e-01
 2.4849814108e-01	 1.6966072709e+00	-4.1345641096e-01
 2.3360942808e-01	 1.6987213379e+00	-3.8889943510e-01
 2.1874662005e-01	 1.7006991127e+00	-3.6585593825e-01
 2.0391138373e-01	 1.7025415491e+00	-3.4425017406e-01
 1.8910535904e-01	 1.7042496236e+00	-3.2402722834e-01
 1.7433015881e-01	 1.7058243352e+00	-3.0515342379e-01
 1.5958736855e-01	 1.7072667043e+00	-2.8761649622e-01
 1.4487854614e-01	 1.7085777723e+00	-2.7142555079e-01
 2.9481178167e-01	 1.6981308311e+00	-4.7887188042e-01
 2.7977866292e-01	 1.7006722637e+00	-4.4857247361e-01
 2.6476639828e-01	 1.7030739740e+00	-4.2023990974e-01
 2.4977674182e-01	 1.7053368465e+00	-3.9372644077e-01
 2.3481142173e-01	 1.7074617910e+00	-3.6890535425e-01
 2.1987213991e-01	 1.7094497422e+00	-3.4567210997e-01
 2.0496057165e-01	 1.7113016584e+00	-3.2394521748e-01
 1.9007836532e-01	 1.7130185215e+00	-3.0366686009e-01
 1.7522714206e-01	 1.7146013355e+00	-2.8480327221e-01
 1.6040849553e-01	 1.7160511260e+00	-2.6734487795e-01
 1.4562399163e-01	 1.7173689399e+00	-2.5130620000e-01
 2.9632091050e-01	 1.7068234898e+00	-4.6123152349e-01
 2.8121083786e-01	 1.7093779318e+00	-4.3060796750e-01
 2.6612172608e-01	 1.7117919364e+00	-4.0204873051e-01
 2.5105533822e-01	 1.7140663924e+00	-3.7539070450e-01
 2.3601341129e-01	 1.7162022144e+00	-3.5049462720e-01
 2.2099765593e-01	 1.7182003418e+00	-3.2724622848e-01
 2.0600975600e-01	 1.7200617380e+00	-3.0555710605e-01
 1.9105136829e-01	 1.7217873896e+00	-2.8536533633e-01
 1.7612412227e-01	 1.7233783059e+00	-2.6663582782e-01
 1.6122961972e-01	 1.7248355179e+00	-2.4936042527e-01
 1.4636943457e-01	 1.7261600776e+00	-2.3355777409e-01
 2.9783003590e-01	 1.7155161287e+00	-4.4442231629e-01
 2.8264300955e-01	 1.7180835802e+00	-4.1371411660e-01
 2.6747705081e-01	 1.7205098790e+00	-3.8515324026e-01
 2.5233393171e-01	 1.7227959186e+00	-3.5856019104e-01
 2.3721539814e-01	 1.7249426181e+00	-3.3378208384e-01
 2.2212316940e-01	 1.7269509217e+00	-3.1069380495e-01
 2.0705893797e-01	 1.7288217977e+00	-2.8919888974e-01
 1.9202436906e-01	 1.7305562378e+00	-2.6923012403e-01
 1.7702110044e-01	 1.7321552565e+00	-2.5074987687e-01
 1.6205074205e-01	 1.7336198899e+00	-2.3375017331e-01
 1.4711487583e-01	 1.7349511954e+00	-2.1825251721e-01
 2.9933915960e-01	 1.7242087578e+00	-4.2852461069e-01
 2.8407517962e-01	 1.7267892188e+00	-3.9798454346e-01
 2.6883237400e-01	 1.7292278118e+00	-3.6965717562e-01
 2.5361252376e-01	 1.7315254348e+00	-3.4334560058e-01
 2.3841738361e-01	 1.7336830118e+00	-3.1888224703e-01
 2.2324868160e-01	 1.7357014916e+00	-2.9613005716e-01
 2.0810811875e-01	 1.7375818474e+00	-2.7498337016e-01
 1.9299736873e-01	 1.7393250761e+00	-2.5536851762e-01
 1.7791807759e-01	 1.7409321971e+00	-2.3724413896e-01
 1.6287186345e-01	 1.7424042519e+00	-2.2060122592e-01
 1.4786031625e-01	 1.7437423032e+00	-2.0546290656e-01
 3.0084828329e-01	 1.7329013869e+00	-4.1361870041e-01
 2.8550734969e-01	 1.7354948573e+00	-3.8351270304e-01
 2.7018769720e-01	 1.7379457445e+00	-3.5566402888e-01
 2.5489111581e-01	 1.7402549511e+00	-3.2985734423e-01
 2.3961936909e-01	 1.7424234055e+00	-3.0590933721e-01
 2.2437419380e-01	 1.7444520615e+00	-2.8366991790e-01
 2.0915729953e-01	 1.7463418972e+00	-2.6302311139e-01
 1.9397036840e-01	 1.7480939144e+00	-2.4388765086e-01
 1.7881505474e-01	 1.7497091377e+00	-2.2621727877e-01
 1.6369298484e-01	 1.7511886139e+00	-2.1000076609e-01
 1.4860575666e-01	 1.7525334110e+00	-1.9526166011e-01
 3.0235740870e-01	 1.7415940259e+00	-3.9978479776e-01
 2.8693952138e-01	 1.7442005057e+00	-3.7039186821e-01
 2.7154302193e-01	 1.7466636871e+00	-3.4327704097e-01
 2.5616970931e-01	 1.7489844772e+00	-3.1820554325e-01
 2.4082135594e-01	 1.7511638091e+00	-2.9497727653e-01
 2.2549970728e-01	 1.7532026413e+00	-2.7342804261e-01
 2.1020648150e-01	 1.7551019569e+00	-2.5343045004e-01
 1.9494336917e-01	 1.7568627626e+00	-2.3489450812e-01
 1.7971203291e-01	 1.7584860883e+00	-2.1776791727e-01
 1.6451410717e-01	 1.7599729859e+00	-2.0203606571e-01
 1.4935119792e-01	 1.7613245288e+00	-1.8772174386e-01
 3.0386653752e-01	 1.7502866845e+00	-3.8710301033e-01
 2.8837169632e-01	 1.7529061738e+00	-3.5871511502e-01
 2.7289834973e-01	 1.7553816495e+00	-3.3259919405e-01
 2.5744830570e-01	 1.7577140231e+00	-3.0850002768e-01
 2.4202334550e-01	 1.7599042326e+00	-2.8619969232e-01
 2.2662522330e-01	 1.7619532410e+00	-2.6551881659e-01
 2.1125566585e-01	 1.7638620365e+00	-2.4631750473e-01
 1.9591637214e-01	 1.7656316307e+00	-2.2843880595e-01
 1.8060901311e-01	 1.7672630587e+00	-2.1157819454e-01
 1.6533523136e-01	 1.7687573777e+00	-1.9579995060e-01
 1.5009664087e-01	 1.7701156665e+00	-1.8123730118e-01
 3.0537567148e-01	 1.7589793727e+00	-3.7565331773e-01
 2.8980387613e-01	 1.7616118716e+00	-3.4857530784e-01
 2.7425368214e-01	 1.7640996415e+00	-3.2373320384e-01
 2.5872690644e-01	 1.7664435988e+00	-3.0061606813e-01
 2.4322533915e-01	 1.7686446857e+00	-2.7852502389e-01
 2.2775074315e-01	 1.7707038704e+00	-2.5744941871e-01
 2.1230485376e-01	 1.7726221458e+00	-2.3742736278e-01
 1.9688937842e-01	 1.7744005286e+00	-2.1851661659e-01
 1.8150599636e-01	 1.7760400590e+00	-2.0079478173e-01
 1.6615635834e-01	 1.7775417995e+00	-1.8435941765e-01
 1.5084208636e-01	 1.7789068341e+00	-1.6932808921e-01
 3.0688481227e-01	 1.7676721003e+00	-3.6477146215e-01
 2.9123606242e-01	 1.7703176088e+00	-3.3746842370e-01
 2.7560902069e-01	 1.7728176731e+00	-3.1150362207e-01
 2.6000551298e-01	 1.7751732139e+00	-2.8683806401e-01
 2.4442733825e-01	 1.7773851785e+00	-2.6345173976e-01
 2.2887626810e-01	 1.7794545395e+00	-2.4134407505e-01
 2.1335404644e-01	 1.7813822948e+00	-2.2053429267e-01
 1.9786238912e-01	 1.7831694663e+00	-2.0106168954e-01
 1.8240298368e-01	 1.7848170991e+00	-1.8298583494e-01
 1.6697748904e-01	 1.7863262610e+00	-1.6638669531e-01
 1.5158753522e-01	 1.7876980416e+00	-1.5136469054e-01
 1.4413309728e-01	 1.6997865649e+00	-2.9384380727e-01
 1.2953774452e-01	 1.7009611285e+00	-2.7949683927e-01
 1.1497915452e-01	 1.7020072407e+00	-2.6745077538e-01
 1.0045875955e-01	 1.7029259940e+00	-2.5738242632e-01
 8.5977964604e-02	 1.7037184986e+00	-2.4898428275e-01
 7.1538147186e-02	 1.7043858817e+00	-2.4196409883e-01
 5.7140657235e-02	 1.7049292867e+00	-2.3604431859e-01
 4.2786816999e-02	 1.7053498724e+00	-2.3096135694e-01
 2.8477920947e-02	 1.7056488125e+00	-2.2646474736e-01
 1.4215235706e-02	 1.7058272945e+00	-2.2231616878e-01
 0.0000000000e+00	 1.7058865195e+00	-2.1828836385e-01
 1.4487854614e-01	 1.7085777723e+00	-2.7142555079e-01
 1.3020770698e-01	 1.7097584107e+00	-2.5717160669e-01
 1.1557382071e-01	 1.7108099334e+00	-2.4520606407e-01
 1.0097832702e-01	 1.7117334384e+00	-2.3521567740e-01
 8.6422638153e-02	 1.7125300418e+00	-2.2690463126e-01
 7.1908138752e-02	 1.7132008766e+00	-2.1999405982e-01
 5.7436185734e-02	 1.7137470921e+00	-2.1422140267e-01
 4.3008108185e-02	 1.7141698530e+00	-2.0933960969e-01
 2.8625207270e-02	 1.7144703392e+00	-2.0511620724e-01
 1.4288756164e-02	 1.7146497443e+00	-2.0133223887e-01
 0.0000000000e+00	 1.7147092756e+00	-1.9778109313e-01
 1.4562399163e-01	 1.7173689399e+00	-2.5130620000e-01
 1.3087766640e-01	 1.7185556531e+00	-2.3721889568e-01
 1.1616848420e-01	 1.7196125861e+00	-2.2537698923e-01
 1.0149789213e-01	 1.7205408429e+00	-2.1547895485e-01
 8.6867309687e-02	 1.7213415451e+00	-2.0724252298e-01
 7.2278128642e-02	 1.7220158315e+00	-2.0040413136e-01
 5.7731712894e-02	 1.7225648574e+00	-1.9471820610e-01
 4.3229398368e-02	 1.7229897936e+00	-1.8995628574e-01
 2.8772492924e-02	 1.7232918259e+00	-1.8590600143e-01
 1.4362276288e-02	 1.7234721541e+00	-1.8236992667e-01
 0.0000000000e+00	 1.7235319917e+00	-1.7916431000e-01
 1.4636943457e-01	 1.7261600776e+00	-2.3355777409e-01
 1.3154762354e-01	 1.7273528655e+00	-2.1969402422e-01
 1.1676314568e-01	 1.7284152090e+00	-2.0800171250e-01
 1.0201745547e-01	 1.7293482174e+00	-1.9819279407e-01
 8.7311979709e-02	 1.7301530184e+00	-1.9000038434e-01
 7.2648117275e-02	 1.7308307565e+00	-1.8317813740e-01
 5.8027239050e-02	 1.7313825928e+00	-1.7749944777e-01
 4.3450687800e-02	 1.7318097042e+00	-1.7275648922e-01
 2.8919778079e-02	 1.7321132826e+00	-1.6875910419e-01
 1.4435796163e-02	 1.7322945339e+00	-1.6533355780e-01
 0.0000000000e+00	 1.7323546778e+00	-1.6232117054e-01
 1.4711487583e-01	 1.7349511954e+00	-2.1825251721e-01
 1.3221757917e-01	 1.7361500580e+00	-2.0465270571e-01
 1.1735780580e-01	 1.7372178118e+00	-1.9311893881e-01
 1.0253701764e-01	 1.7381555720e+00	-1.8337839957e-01
 8.7756648724e-02	 1.7389644717e+00	-1.7518141526e-01
 7.3018105069e-02	 1.7396456614e+00	-1.6830075873e-01
 5.8322764537e-02	 1.7402003082e+00	-1.6253076648e-01
 4.3671976730e-02	 1.7406295949e+00	-1.5768628751e-01
 2.9067062899e-02	 1.7409347193e+00	-1.5360147728e-01
 1.4509315872e-02	 1.7411168937e+00	-1.5012845121e-01
 0.0000000000e+00	 1.7411773439e+00	-1.4713581239e-01
 1.4786031625e-01	 1.7437423032e+00	-2.0546290656e-01
 1.3288753404e-01	 1.7449472406e+00	-1.9215105371e-01
 1.1795246526e-01	 1.7460204047e+00	-1.8076791784e-01
 1.0305657922e-01	 1.7469629166e+00	-1.7105764316e-01
 8.8201317235e-02	 1.7477759150e+00	-1.6278958398e-01
 7.3388092444e-02	 1.7484605564e+00	-1.5575752464e-01
 5.8618289688e-02	 1.7490180136e+00	-1.4977870933e-01
 4.3893265410e-02	 1.7494494755e+00	-1.4469269637e-01
 2.9214347553e-02	 1.7497561460e+00	-1.4036005188e-01
 1.4582835497e-02	 1.7499392435e+00	-1.3666089790e-01
 0.0000000000e+00	 1.7500000000e+00	-1.3349333010e-01
 1.4860575666e-01	 1.7525334110e+00	-1.9526166011e-01
 1.3355748891e-01	 1.7537444231e+00	-1.8224558638e-01
 1.1854712471e-01	 1.7548229977e+00	-1.7098844522e-01
 1.0357614080e-01	 1.7557702612e+00	-1.6125306202e-01
 8.8645985747e-02	 1.7565873584e+00	-1.5282962208e-01
 7.3758079819e-02	 1.7572754514e+00	-1.4553480477e-01
 5.8913814840e-02	 1.7578357190e+00	-1.3921072047e-01
 4.4114554089e-02	 1.7582693561e+00	-1.3372366559e-01
 2.9361632207e-02	 1.7585775727e+00	-1.2896271108e-01
 1.4656355122e-02	 1.7587615933e+00	-1.2483814019e-01
 0.0000000000e+00	 1.7588226561e+00	-1.2127975125e-01
 1.4935119792e-01	 1.7613245288e+00	-1.8772174386e-01
 1.3422744453e-01	 1.7625416156e+00	-1.7499323069e-01
 1.1914178483e-01	 1.7636256005e+00	-1.6382086375e-01
 1.0409570297e-01	 1.7645776158e+00	-1.5398785684e-01
 8.9090654762e-02	 1.7653988117e+00	-1.4528618648e-01
 7.4128067613e-02	 1.7660903563e+00	-1.3754381407e-01
 5.9209340326e-02	 1.7666534344e+00	-1.3065937012e-01
 4.4335843020e-02	 1.7670892468e+00	-1.2454720729e-01
 2.9508917028e-02	 1.7673990094e+00	-1.1913675677e-01
 1.4729874830e-02	 1.7675839531e+00	-1.1437260869e-01
 0.0000000000e+00	 1.7676453222e+00	-1.1021454443e-01
 1.5009664087e-01	 1.7701156665e+00	-1.8123730118e-01
 1.3489740168e-01	 1.7713388280e+00	-1.6807374124e-01
 1.1973644631e-01	 1.7724282234e+00	-1.5628898522e-01
 1.0461526631e-01	 1.7733849903e+00	-1.4574320410e-01
 8.9535324784e-02	 1.7742102850e+00	-1.3631142335e-01
 7.4498056245e-02	 1.7749052813e+00	-1.2788380128e-01
 5.9504866482e-02	 1.7754711698e+00	-1.2036585251e-01
 4.4557132451e-02	 1.7759091574e+00	-1.1367861875e-01
 2.9656202182e-02	 1.7762204661e+00	-1.0775878886e-01
 1.4803394705e-02	 1.7764063329e+00	-1.0255877000e-01
 0.0000000000e+00	 1.7764680083e+00	-9.8046711378e-02
 1.5084208636e-01	 1.7789068341e+00	-1.6932808921e-01
 1.3556736110e-01	 1.7801360704e+00	-1.5579375589e-01
 1.2033110980e-01	 1.7812308761e+00	-1.4365885499e-01
 1.0513483142e-01	 1.7821923948e+00	-1.3278886501e-01
 8.9979996318e-02	 1.7830217883e+00	-1.2306472970e-01
 7.4868046135e-02	 1.7837202362e+00	-1.1438312238e-01
 5.9800393642e-02	 1.7842889352e+00	-1.0665665653e-01
 4.4778422635e-02	 1.7847290980e+00	-9.9814044492e-02
 2.9803487837e-02	 1.7850419528e+00	-9.3800206555e-02
 1.4876914830e-02	 1.7852287427e+00	-8.8576331837e-02
 0.0000000000e+00	 1.7852907244e+00	-8.4119892631e-02
 1.5158753522e-01	 1.7876980416e+00	-1.5136469054e-01
 1.3623732356e-01	 1.7889333526e+00	-1.3792408969e-01
 1.2092577599e-01	 1.7900335688e+00	-1.2589375350e-01
 1.0565439889e-01	 1.7909998392e+00	-1.1514544698e-01
 9.0424669867e-02	 1.7918333315e+00	-1.0556700744e-01
 7.5238037701e-02	 1.7925352311e+00	-9.7062593551e-02
 6.0095922142e-02	 1.7931067405e+00	-8.9552881628e-02
 4.4999713821e-02	 1.7935490786e+00	-8.2975211270e-02
 2.9950774159e-02	 1.7938634795e+00	-7.7283682256e-02
 1.4950435288e-02	 1.7940511925e+00	-7.2449204373e-02
 0.0000000000e+00	 1.7941134805e+00	-6.8459501518e-02
 1.7941134805e+00	 0.0000000000e+00	 3.2506090330e+00
 1.7940511925e+00	 1.4950435288e-02	 3.2496358500e+00
 1.7938634795e+00	 2.9950774159e-02	 3.2469113954e+00
 1.7935490786e+00	 4.4999713821e-02	 3.2421614296e+00
 1.7931067405e+00	 6.0095922142e-02	 3.2351492882e+00
 1.7925352311e+00	 7.5238037701e-02	 3.2256757623e+00
 1.7918333315e+00	 9.0424669867e-02	 3.2135789765e+00
 1.7909998392e+00	 1.0565439889e-01	 3.1987342659e+00
 1.7900335688e+00	 1.2092577599e-01	 3.1810540563e+00
 1.7889333526e+00	 1.3623732356e-01	 3.1604877502e+00
 1.7876980416e+00	 1.5158753522e-01	 3.1370216206e+00
 1.8029377841e+00	 0.0000000000e+00	 3.2294902963e+00
 1.8028751897e+00	 1.5023968640e-02	 3.2280347030e+00
 1.8026865534e+00	 3.0098086314e-02	 3.2248415972e+00
 1.8023706061e+00	 4.5221043820e-02	 3.2196418050e+00
 1.8019260924e+00	 6.0391502475e-02	 3.2122034517e+00
 1.8013517720e+00	 7.5608094162e-02	 3.2023318130e+00
 1.8006464202e+00	 9.0869421409e-02	 3.1898691651e+00
 1.7998088284e+00	 1.0617405748e-01	 3.1746946352e+00
 1.7988378054e+00	 1.2152054649e-01	 3.1567240573e+00
 1.7977321778e+00	 1.3690740352e-01	 3.1359098333e+00
 1.7964907909e+00	 1.5233311483e-01	 3.1122408067e+00
 1.8117621326e+00	 0.0000000000e+00	 3.2088482288e+00
 1.8116992318e+00	 1.5097502368e-02	 3.2070121217e+00
 1.8115096724e+00	 3.0245399219e-02	 3.2034513901e+00
 1.8111921787e+00	 4.5442374947e-02	 3.1979006941e+00
 1.8107454893e+00	 6.0687084314e-02	 3.1901316959e+00
 1.8101683580e+00	 7.5978152509e-02	 3.1799528838e+00
 1.8094595538e+00	 9.1314175218e-02	 3.1672093951e+00
 1.8086178625e+00	 1.0669371872e-01	 3.1517828421e+00
 1.8076420869e+00	 1.2211532001e-01	 3.1335911431e+00
 1.8065310479e+00	 1.3757748691e-01	 3.1125883623e+00
 1.8052835851e+00	 1.5307869824e-01	 3.0887645622e+00
 1.8205865212e+00	 0.0000000000e+00	 3.1886714279e+00
 1.8205233140e+00	 1.5171036428e-02	 3.1865472083e+00
 1.8203328313e+00	 3.0392712793e-02	 3.1827108592e+00
 1.8200137912e+00	 4.5663707077e-02	 3.1768996671e+00
 1.8195649262e+00	 6.0982667494e-02	 3.1688876037e+00
 1.8189849839e+00	 7.6348212533e-02	 3.1584851221e+00
 1.8182727274e+00	 9.1758931044e-02	 3.1455389549e+00
 1.8174269365e+00	 1.0721338232e-01	 3.1299319156e+00
 1.8164464083e+00	 1.2271009623e-01	 3.1115827072e+00
 1.8153299579e+00	 1.3824757333e-01	 3.0904457417e+00
 1.8140764192e+00	 1.5382428503e-01	 3.0665109727e+00
 1.8294109448e+00	 0.0000000000e+00	 3.1689490077e+00
 1.8293474312e+00	 1.5244570780e-02	 3.1666196838e+00
 1.8291560252e+00	 3.0540026950e-02	 3.1625908068e+00
 1.8288354387e+00	 4.5885040085e-02	 3.1566011074e+00
 1.8283843981e+00	 6.1278251845e-02	 3.1484256627e+00
 1.8278016448e+00	 7.6718274025e-02	 3.1378756674e+00
 1.8270859360e+00	 9.2203688633e-02	 3.1247982068e+00
 1.8262360455e+00	 1.0773304798e-01	 3.1090760357e+00
 1.8252507647e+00	 1.2330487481e-01	 3.0906273651e+00
 1.8241289028e+00	 1.3891766241e-01	 3.0694056629e+00
 1.8228692882e+00	 1.5456987478e-01	 3.0453994687e+00
 1.8382353983e+00	 0.0000000000e+00	 3.1496705861e+00
 1.8381715784e+00	 1.5318105382e-02	 3.1472098729e+00
 1.8379792491e+00	 3.0687341608e-02	 3.1430627362e+00
 1.8376571162e+00	 4.6106373845e-02	 3.1369681923e+00
 1.8372039000e+00	 6.1573837201e-02	 3.1287012442e+00
 1.8366183356e+00	 7.7088336774e-02	 3.1180726283e+00
 1.8358991745e+00	 9.2648447734e-02	 3.1049285634e+00
 1.8350451845e+00	 1.0825271541e-01	 3.0891505083e+00
 1.8340551510e+00	 1.2389965541e-01	 3.0706549283e+00
 1.8329278776e+00	 1.3958775376e-01	 3.0493930776e+00
 1.8316621870e+00	 1.5531546706e-01	 3.0253507981e+00
 1.8470598769e+00	 0.0000000000e+00	 3.1308262726e+00
 1.8469957507e+00	 1.5391640192e-02	 3.1282986895e+00
 1.8468024981e+00	 3.0834656683e-02	 3.1240988347e+00
 1.8464788188e+00	 4.6327708232e-02	 3.1179648752e+00
 1.8460234268e+00	 6.1869423394e-02	 3.1096705838e+00
 1.8454350515e+00	 7.7458400572e-02	 3.0990250614e+00
 1.8447124380e+00	 9.3093208094e-02	 3.0858724644e+00
 1.8438543484e+00	 1.0877238431e-01	 3.0700917408e+00
 1.8428595622e+00	 1.2449443770e-01	 3.0515963785e+00
 1.8417268773e+00	 1.4025784702e-01	 3.0303341704e+00
 1.8404551108e+00	 1.5606106146e-01	 3.0062869986e+00
 1.8558843755e+00	 0.0000000000e+00	 3.1124066564e+00
 1.8558199429e+00	 1.5465175169e-02	 3.1098676230e+00
 1.8556257670e+00	 3.0981972092e-02	 3.1056719581e+00
 1.8553005413e+00	 4.6549043120e-02	 3.0995558678e+00
 1.8548429736e+00	 6.2165010257e-02	 3.0912907613e+00
 1.8542517873e+00	 7.7828465208e-02	 3.0806829501e+00
 1.8535257214e+00	 9.3537969462e-02	 3.0675733542e+00
 1.8526635322e+00	 1.0929205438e-01	 3.0518372183e+00
 1.8516639934e+00	 1.2508922133e-01	 3.0333838430e+00
 1.8505258970e+00	 1.4092794179e-01	 3.0121563336e+00
 1.8492480545e+00	 1.5680665754e-01	 2.9881313714e+00
 1.8647088891e+00	 0.0000000000e+00	 3.0944027946e+00
 1.8646441501e+00	 1.5538710271e-02	 3.0918987242e+00
 1.8644490509e+00	 3.1129287751e-02	 3.0877556147e+00
 1.8641222788e+00	 4.6770378385e-02	 3.0817066224e+00
 1.8636625355e+00	 6.2460597622e-02	 3.0735196820e+00
 1.8630685381e+00	 7.8198530473e-02	 3.0629971841e+00
 1.8623390199e+00	 9.3982731586e-02	 3.0499756601e+00
 1.8614727311e+00	 1.0981172534e-01	 3.0343254808e+00
 1.8604684395e+00	 1.2568400597e-01	 3.0159505705e+00
 1.8593249316e+00	 1.4159803770e-01	 2.9947881420e+00
 1.8580410131e+00	 1.5755225489e-01	 2.9708084554e+00
 1.8735334126e+00	 0.0000000000e+00	 3.0768062007e+00
 1.8734683673e+00	 1.5612245456e-02	 3.0743745925e+00
 1.8732723448e+00	 3.1276603577e-02	 3.0703239507e+00
 1.8729440263e+00	 4.6991713900e-02	 3.0643833154e+00
 1.8724821073e+00	 6.2756185322e-02	 3.0563160586e+00
 1.8718852989e+00	 7.8568596157e-02	 3.0459195395e+00
 1.8711523283e+00	 9.4427494214e-02	 3.0330247711e+00
 1.8702819399e+00	 1.1033139689e-01	 3.0174961003e+00
 1.8692728957e+00	 1.2627879129e-01	 2.9992309077e+00
 1.8681239762e+00	 1.4226813437e-01	 2.9781593287e+00
 1.8668339817e+00	 1.5829785309e-01	 2.9542440019e+00
 1.8823579412e+00	 0.0000000000e+00	 3.0596088342e+00
 1.8822925895e+00	 1.5685780682e-02	 3.0572783627e+00
 1.8820956438e+00	 3.1423919486e-02	 3.0533517351e+00
 1.8817657788e+00	 4.7213049540e-02	 3.0475528311e+00
 1.8813016841e+00	 6.3051773189e-02	 3.0396393928e+00
 1.8807020647e+00	 7.8938662051e-02	 3.0294026598e+00
 1.8799656418e+00	 9.4872257094e-02	 3.0166670172e+00
 1.8790911537e+00	 1.1085106873e-01	 3.0012896596e+00
 1.8780773568e+00	 1.2687357695e-01	 2.9831602763e+00
 1.8769230258e+00	 1.4293823142e-01	 2.9622007609e+00
 1.8756269553e+00	 1.5904345171e-01	 2.9383649503e+00
 1.7876980416e+00	 1.5158753522e-01	 3.1370216206e+00
 1.7863262610e+00	 1.6697748904e-01	 3.1108291571e+00
 1.7848170991e+00	 1.8240298368e-01	 3.0820027030e+00
 1.7831694663e+00	 1.9786238912e-01	 3.0504491972e+00
 1.7813822948e+00	 2.1335404644e-01	 3.0161124149e+00
 1.7794545395e+00	 2.2887626810e-01	 2.9789732115e+00
 1.7773851785e+00	 2.4442733825e-01	 2.9390497952e+00
 1.7751732139e+00	 2.6000551298e-01	 2.8963980317e+00
 1.7728176731e+00	 2.7560902069e-01	 2.8511117821e+00
 1.7703176088e+00	 2.9123606242e-01	 2.8033232759e+00
 1.7676721003e+00	 3.0688481227e-01	 2.7532035200e+00
 1.7964907909e+00	 1.5233311483e-01	 3.1122408067e+00
 1.7951122633e+00	 1.6779876376e-01	 3.0859147859e+00
 1.7935956786e+00	 1.8330012833e-01	 3.0570631061e+00
 1.7919399420e+00	 1.9883557047e-01	 3.0256164894e+00
 1.7901439804e+00	 2.1440342313e-01	 2.9915419697e+00
 1.7882067434e+00	 2.3000199047e-01	 2.9548430961e+00
 1.7861272043e+00	 2.4562954817e-01	 2.9155601679e+00
 1.7839043603e+00	 2.6128434378e-01	 2.8737705031e+00
 1.7815372337e+00	 2.7696459696e-01	 2.8295887418e+00
 1.7790248729e+00	 2.9266849992e-01	 2.7831671873e+00
 1.7763663526e+00	 3.0839421776e-01	 2.7346961850e+00
 1.8052835851e+00	 1.5307869824e-01	 3.0887645622e+00
 1.8038983104e+00	 1.6862004267e-01	 3.0623382795e+00
 1.8023743029e+00	 1.8419727754e-01	 3.0334752776e+00
 1.8007104624e+00	 1.9980875679e-01	 3.0021272688e+00
 1.7989057106e+00	 2.1545280517e-01	 2.9682817587e+00
 1.7969589920e+00	 2.3112771857e-01	 2.9319622139e+00
 1.7948692747e+00	 2.4683176423e-01	 2.8932282628e+00
 1.7926355511e+00	 2.6256318109e-01	 2.8521759321e+00
 1.7902568388e+00	 2.7832018014e-01	 2.8089379199e+00
 1.7877321814e+00	 2.9410094472e-01	 2.7636839089e+00
 1.7850606492e+00	 3.0990363095e-01	 2.7166209200e+00
 1.8140764192e+00	 1.5382428503e-01	 3.0665109727e+00
 1.8126843974e+00	 1.6944132531e-01	 3.0400143267e+00
 1.8111529670e+00	 1.8509443083e-01	 3.0111517009e+00
 1.8094810226e+00	 2.0078194751e-01	 2.9798930479e+00
 1.8076674805e+00	 2.1650219197e-01	 2.9462436016e+00
 1.8057112802e+00	 2.3225345178e-01	 2.9102440123e+00
 1.8036113847e+00	 2.4803398573e-01	 2.8719705179e+00
 1.8013667815e+00	 2.6384202421e-01	 2.8315351513e+00
 1.7989764835e+00	 2.7967576947e-01	 2.7890859887e+00
 1.7964395295e+00	 2.9553339601e-01	 2.7448074381e+00
 1.7937549852e+00	 3.1141305098e-01	 2.6989205720e+00
 1.8228692882e+00	 1.5456987478e-01	 3.0453994687e+00
 1.8214705192e+00	 1.7026261120e-01	 3.0188590080e+00
 1.8199316659e+00	 1.8599158767e-01	 2.9900062805e+00
 1.8182516175e+00	 2.0175514210e-01	 2.9588267725e+00
 1.8164292852e+00	 2.1755158294e-01	 2.9253407446e+00
 1.8144636031e+00	 2.3337918945e-01	 2.8896033391e+00
 1.8123535294e+00	 2.4923621200e-01	 2.8517047243e+00
 1.8100980466e+00	 2.6512087240e-01	 2.8117702785e+00
 1.8076961627e+00	 2.8103136417e-01	 2.7699608151e+00
 1.8051469120e+00	 2.9696585299e-01	 2.7264728530e+00
 1.8024493558e+00	 3.1292247700e-01	 2.6815389309e+00
 1.8316621870e+00	 1.5531546706e-01	 3.0253507981e+00
 1.8302566708e+00	 1.7108389988e-01	 2.9987897672e+00
 1.8287103947e+00	 1.8688874757e-01	 2.9699543141e+00
 1.8270222423e+00	 2.0272834000e-01	 2.9388427935e+00
 1.8251911197e+00	 2.1860097747e-01	 2.9054878330e+00
 1.8232159558e+00	 2.3450493095e-01	 2.8699564159e+00
 1.8210957038e+00	 2.5043844236e-01	 2.8323500026e+00
 1.8188293413e+00	 2.6639972493e-01	 2.7928046946e+00
 1.8164158716e+00	 2.8238696349e-01	 2.7514914418e+00
 1.8138543242e+00	 2.9839831483e-01	 2.7086162971e+00
 1.8111437558e+00	 3.1443190815e-01	 2.6644207186e+00
 1.8404551108e+00	 1.5606106146e-01	 3.0062869986e+00
 1.8390428474e+00	 1.7190519089e-01	 2.9797253837e+00
 1.8374891483e+00	 1.8778591000e-01	 2.9509124643e+00
 1.8357928920e+00	 2.0370154065e-01	 2.9198568395e+00
 1.8339529790e+00	 2.1965037497e-01	 2.8866008848e+00
 1.8319683333e+00	 2.3563067564e-01	 2.8512208132e+00
 1.8298379030e+00	 2.5164067613e-01	 2.8138267786e+00
 1.8275606608e+00	 2.6767858109e-01	 2.7745630225e+00
 1.8251356052e+00	 2.8374256664e-01	 2.7336080685e+00
 1.8225617610e+00	 2.9983078073e-01	 2.6911749648e+00
 1.8198381805e+00	 3.1594134357e-01	 2.6475115783e+00
 1.8492480545e+00	 1.5680665754e-01	 2.9881313714e+00
 1.8478290439e+00	 1.7272648376e-01	 2.9615859454e+00
 1.8462679219e+00	 1.8868307447e-01	 2.9327987316e+00
 1.8445635615e+00	 2.0467474351e-01	 2.9017859901e+00
 1.8427148581e+00	 2.2069977486e-01	 2.8685972645e+00
 1.8407207307e+00	 2.3675642288e-01	 2.8333154259e+00
 1.8385801220e+00	 2.5284291262e-01	 2.7960567609e+00
 1.8362920001e+00	 2.6895744015e-01	 2.7569711067e+00
 1.8338553585e+00	 2.8509817287e-01	 2.7162420346e+00
 1.8312692176e+00	 3.0126324989e-01	 2.6740870864e+00
 1.8285326250e+00	 3.1745078242e-01	 2.6307580632e+00
 1.8580410131e+00	 1.5755225489e-01	 2.9708084554e+00
 1.8566152553e+00	 1.7354777803e-01	 2.9442928222e+00
 1.8550467103e+00	 1.8958024046e-01	 2.9155324281e+00
 1.8533342459e+00	 2.0564794802e-01	 2.8845486497e+00
 1.8514767522e+00	 2.2174917652e-01	 2.8513956581e+00
 1.8494731429e+00	 2.3788217203e-01	 2.8161604487e+00
 1.8473223559e+00	 2.5404515116e-01	 2.7789629186e+00
 1.8450233542e+00	 2.7023630138e-01	 2.7399559928e+00
 1.8425751267e+00	 2.8645378140e-01	 2.6993258017e+00
 1.8399766890e+00	 3.0269572147e-01	 2.6572919141e+00
 1.8372270842e+00	 3.1896022383e-01	 2.6141076265e+00
 1.8668339817e+00	 1.5829785309e-01	 2.9542440019e+00
 1.8654014767e+00	 1.7436907323e-01	 2.9277686409e+00
 1.8638255088e+00	 1.9047740747e-01	 2.8990341521e+00
 1.8621049403e+00	 2.0662115364e-01	 2.8680645227e+00
 1.8602386562e+00	 2.2279857938e-01	 2.8349160484e+00
 1.8582255650e+00	 2.3900792246e-01	 2.7996773533e+00
 1.8560645997e+00	 2.5524739105e-01	 2.7624694596e+00
 1.8537547182e+00	 2.7151516407e-01	 2.7234459084e+00
 1.8512949048e+00	 2.8780939147e-01	 2.6827929361e+00
 1.8486841702e+00	 3.0412819468e-01	 2.6407297080e+00
 1.8459215532e+00	 3.2046966696e-01	 2.5975086111e+00
 1.8756269553e+00	 1.5904345171e-01	 2.9383649503e+00
 1.8741877030e+00	 1.7519036889e-01	 2.9119372601e+00
 1.8726043121e+00	 1.9137457499e-01	 2.8832257628e+00
 1.8708756396e+00	 2.0759435981e-01	 2.8522545882e+00
 1.8690005651e+00	 2.2384798283e-01	 2.8190796913e+00
 1.8669779921e+00	 2.4013367353e-01	 2.7837888657e+00
 1.8648068484e+00	 2.5644963163e-01	 2.7465018091e+00
 1.8624860872e+00	 2.7279402747e-01	 2.7073702434e+00
 1.8600146878e+00	 2.8916500231e-01	 2.6665780929e+00
 1.8573916564e+00	 3.0556066871e-01	 2.6243417226e+00
 1.8546160272e+00	 3.2197911094e-01	 2.5809102393e+00
 1.7676721003e+00	 3.0688481227e-01	 2.7532035200e+00
 1.7648807413e+00	 3.2255075349e-01	 2.7001969822e+00
 1.7619422282e+00	 3.3823467012e-01	 2.6440708599e+00
 1.7588557237e+00	 3.5393466308e-01	 2.5855985504e+00
 1.7556204198e+00	 3.6964880820e-01	 2.5248876682e+00
 1.7522355389e+00	 3.8537515669e-01	 2.4620939594e+00
 1.7487003345e+00	 4.0111173565e-01	 2.3974230011e+00
 1.7450140917e+00	 4.1685654864e-01	 2.3311291817e+00
 1.7411761283e+00	 4.3260757626e-01	 2.2635145437e+00
 1.7371857953e+00	 4.4836277670e-01	 2.1949274936e+00
 1.7330424775e+00	 4.6412008643e-01	 2.1257613803e+00
 1.7763663526e+00	 3.0839421776e-01	 2.7346961850e+00
 1.7735612643e+00	 3.2413721153e-01	 2.6836438180e+00
 1.7706082982e+00	 3.3989826912e-01	 2.6291547698e+00
 1.7675066128e+00	 3.5567548212e-01	 2.5710146054e+00
 1.7642553962e+00	 3.7146691688e-01	 2.5090629096e+00
 1.7608538668e+00	 3.8727061503e-01	 2.4444365868e+00
 1.7573012746e+00	 4.0308459397e-01	 2.3780697630e+00
 1.7535969011e+00	 4.1890684744e-01	 2.3102609179e+00
 1.7497400608e+00	 4.3473534610e-01	 2.2413566192e+00
 1.7457301014e+00	 4.5056803812e-01	 2.1717501362e+00
 1.7415664048e+00	 4.6640284979e-01	 2.1018799249e+00
 1.7850606492e+00	 3.0990363095e-01	 2.7166209200e+00
 1.7822418316e+00	 3.2572367766e-01	 2.6672367123e+00
 1.7792744124e+00	 3.4156187660e-01	 2.6147045938e+00
 1.7761575461e+00	 3.5741631003e-01	 2.5588383212e+00
 1.7728904166e+00	 3.7328503483e-01	 2.4994868888e+00
 1.7694722387e+00	 3.8916608304e-01	 2.4365357036e+00
 1.7659022585e+00	 4.0505746235e-01	 2.3699078228e+00
 1.7621797543e+00	 4.2095715670e-01	 2.3001505389e+00
 1.7583040369e+00	 4.3686312680e-01	 2.2293016962e+00
 1.7542744511e+00	 4.5277331079e-01	 2.1579266853e+00
 1.7500903756e+00	 4.6868562480e-01	 2.0865064827e+00
 1.7937549852e+00	 3.1141305098e-01	 2.6989205720e+00
 1.7909224383e+00	 3.2731015098e-01	 2.6509291634e+00
 1.7879405660e+00	 3.4322549163e-01	 2.6000305239e+00
 1.7848085185e+00	 3.5915714584e-01	 2.5460627404e+00
 1.7815254761e+00	 3.7510316102e-01	 2.4888984046e+00
 1.7780906496e+00	 3.9106155964e-01	 2.4284457681e+00
 1.7745032815e+00	 4.0703033968e-01	 2.3646499619e+00
 1.7707626464e+00	 4.2300747525e-01	 2.2974942819e+00
 1.7668680519e+00	 4.3899091715e-01	 2.2270015372e+00
 1.7628188395e+00	 4.5497859345e-01	 2.1535671958e+00
 1.7586143850e+00	 4.7096841015e-01	 2.0797793293e+00
 1.8024493558e+00	 3.1292247700e-01	 2.6815389309e+00
 1.7996030793e+00	 3.2889663060e-01	 2.6346754455e+00
 1.7966067538e+00	 3.4488911326e-01	 2.5850993795e+00
 1.7934595253e+00	 3.6089798855e-01	 2.5326693456e+00
 1.7901605699e+00	 3.7692129443e-01	 2.4772777952e+00
 1.7867090948e+00	 3.9295704375e-01	 2.4188521594e+00
 1.7831043386e+00	 4.0900322483e-01	 2.3573560578e+00
 1.7793455725e+00	 4.2505780194e-01	 2.2927905761e+00
 1.7754321008e+00	 4.4111871593e-01	 2.2251956087e+00
 1.7713632618e+00	 4.5718388486e-01	 2.1546512669e+00
 1.7671384283e+00	 4.7325120456e-01	 2.0812793494e+00
 1.8111437558e+00	 3.1443190815e-01	 2.6644207186e+00
 1.8082837500e+00	 3.3048311561e-01	 2.6184306026e+00
 1.8052729712e+00	 3.4655274055e-01	 2.5698785526e+00
 1.8021105615e+00	 3.6263883718e-01	 2.5186399596e+00
 1.7987956931e+00	 3.7873943401e-01	 2.4646234517e+00
 1.7953275692e+00	 3.9485253432e-01	 2.4077720287e+00
 1.7917054249e+00	 4.1097611669e-01	 2.3480642669e+00
 1.7879285278e+00	 4.2710813559e-01	 2.2855155951e+00
 1.7839961789e+00	 4.4324652196e-01	 2.2201796392e+00
 1.7799077132e+00	 4.5938918377e-01	 2.1521496347e+00
 1.7756625005e+00	 4.7553400674e-01	 2.0815599048e+00
 1.8198381805e+00	 3.1594134357e-01	 2.6475115783e+00
 1.8169644452e+00	 3.3206960512e-01	 2.6021504420e+00
 1.8139392131e+00	 3.4821637254e-01	 2.5543360077e+00
 1.8107616222e+00	 3.6437969074e-01	 2.5039567513e+00
 1.8074308407e+00	 3.8055757875e-01	 2.4509338491e+00
 1.8039460681e+00	 3.9674803025e-01	 2.3952223118e+00
 1.8003065356e+00	 4.1294901414e-01	 2.3368121922e+00
 1.7965115075e+00	 4.2915847506e-01	 2.2757298667e+00
 1.7925602812e+00	 4.4537433401e-01	 2.2120393885e+00
 1.7884521888e+00	 4.6159448893e-01	 2.1458439116e+00
 1.7841865969e+00	 4.7781681538e-01	 2.0772871832e+00
 1.8285326250e+00	 3.1745078242e-01	 2.6307580632e+00
 1.8256451600e+00	 3.3365609822e-01	 2.5857915282e+00
 1.8226054747e+00	 3.4988000831e-01	 2.5384402803e+00
 1.8194127026e+00	 3.6612054825e-01	 2.4886022410e+00
 1.8160660079e+00	 3.8237572761e-01	 2.4362075588e+00
 1.8125645864e+00	 3.9864353048e-01	 2.3812197493e+00
 1.8089076658e+00	 4.1492191607e-01	 2.3236369127e+00
 1.8050945065e+00	 4.3120881918e-01	 2.2634930270e+00
 1.8011244030e+00	 4.4750215088e-01	 2.2008593175e+00
 1.7969966837e+00	 4.6379979908e-01	 2.1358456982e+00
 1.7927107126e+00	 4.8009962919e-01	 2.0686022866e+00
 1.8372270842e+00	 3.1896022383e-01	 2.6141076265e+00
 1.8343258897e+00	 3.3524259402e-01	 2.5693111770e+00
 1.8312717510e+00	 3.5154364691e-01	 2.5221604764e+00
 1.8280637976e+00	 3.6786140872e-01	 2.4725593055e+00
 1.8247011898e+00	 3.8419387956e-01	 2.4204432604e+00
 1.8211831195e+00	 4.0053903394e-01	 2.3657809066e+00
 1.8175088106e+00	 4.1689482134e-01	 2.3085750118e+00
 1.8136775202e+00	 4.3325916678e-01	 2.2488638588e+00
 1.8096885393e+00	 4.4962997137e-01	 2.1867226368e+00
 1.8055411932e+00	 4.6600511299e-01	 2.1222649084e+00
 1.8012348428e+00	 4.8238244689e-01	 2.0556441526e+00
 1.8459215532e+00	 3.2046966696e-01	 2.5975086111e+00
 1.8430066292e+00	 3.3682909162e-01	 2.5526674490e+00
 1.8399380371e+00	 3.5320728740e-01	 2.5054662715e+00
 1.8367149024e+00	 3.6960227117e-01	 2.4558111828e+00
 1.8333363815e+00	 3.8601203357e-01	 2.4036397533e+00
 1.8298016623e+00	 4.0243453954e-01	 2.3489221924e+00
 1.8261099651e+00	 4.1886772886e-01	 2.2916626044e+00
 1.8222605436e+00	 4.3530951671e-01	 2.2319003275e+00
 1.8182526853e+00	 4.5175779428e-01	 2.1697113533e+00
 1.8140857124e+00	 4.6821042940e-01	 2.1052098267e+00
 1.8097589826e+00	 4.8466526717e-01	 2.0385496236e+00
 1.8546160272e+00	 3.2197911094e-01	 2.5809102393e+00
 1.8516873736e+00	 3.3841559011e-01	 2.5358191445e+00
 1.8486043281e+00	 3.5487092882e-01	 2.4883279095e+00
 1.8453660122e+00	 3.7134313460e-01	 2.4383414772e+00
 1.8419715781e+00	 3.8783018861e-01	 2.3857959678e+00
 1.8384202100e+00	 4.0433004622e-01	 2.3306598774e+00
 1.8347111246e+00	 4.2084063749e-01	 2.2729353636e+00
 1.8308435719e+00	 4.3735986779e-01	 2.2126596168e+00
 1.8268168362e+00	 4.5388561839e-01	 2.1499063152e+00
 1.8226302364e+00	 4.7041574706e-01	 2.0847871642e+00
 1.8182831273e+00	 4.8694808875e-01	 2.0174535152e+00
 1.7330424775e+00	 4.6412008643e-01	 2.1257613803e+00
 1.7287455951e+00	 4.7987742099e-01	 2.0552583942e+00
 1.7242946047e+00	 4.9563267639e-01	 1.9827392959e+00
 1.7196889996e+00	 5.1138372914e-01	 1.9087898880e+00
 1.7149283098e+00	 5.2712843678e-01	 1.8340503118e+00
 1.7100121024e+00	 5.4286463860e-01	 1.7592131844e+00
 1.7049399826e+00	 5.5859015640e-01	 1.6850216078e+00
 1.6997115942e+00	 5.7430279528e-01	 1.6122670533e+00
 1.6943266200e+00	 5.9000034444e-01	 1.5417256797e+00
 1.6887847827e+00	 6.0568057798e-01	 1.4685695189e+00
 1.6830858451e+00	 6.2134125579e-01	 1.3897480777e+00
 1.7415664048e+00	 4.6640284979e-01	 2.1018799249e+00
 1.7372483882e+00	 4.8223768642e-01	 2.0311337790e+00
 1.7327755058e+00	 4.9807043366e-01	 1.9589054986e+00
 1.7281472482e+00	 5.1389895758e-01	 1.8857184730e+00
 1.7233631430e+00	 5.2972110518e-01	 1.8121520971e+00
 1.7184227553e+00	 5.4553470513e-01	 1.7388399916e+00
 1.7133256884e+00	 5.6133756851e-01	 1.6664680974e+00
 1.7080715843e+00	 5.7712748962e-01	 1.5957726468e+00
 1.7026601243e+00	 5.9290224679e-01	 1.5271259337e+00
 1.6970910296e+00	 6.0865960318e-01	 1.4546816284e+00
 1.6913640619e+00	 6.2439730766e-01	 1.3767128092e+00
 1.7500903756e+00	 4.6868562480e-01	 2.0865064827e+00
 1.7457512248e+00	 4.8459796389e-01	 2.0145929417e+00
 1.7412564501e+00	 5.0050820336e-01	 1.9416895860e+00
 1.7366055398e+00	 5.1641419885e-01	 1.8682820440e+00
 1.7317980192e+00	 5.3231378681e-01	 1.7949133139e+00
 1.7268334512e+00	 5.4820478528e-01	 1.7221820296e+00
 1.7217114371e+00	 5.6408499463e-01	 1.6507406041e+00
 1.7164316171e+00	 5.7995219837e-01	 1.5812932493e+00
 1.7109936711e+00	 5.9580416395e-01	 1.5135375195e+00
 1.7053973189e+00	 6.1163864358e-01	 1.4412707851e+00
 1.6996423210e+00	 6.2745337511e-01	 1.3637700663e+00
 1.7586143850e+00	 4.7096841015e-01	 2.0797793293e+00
 1.7542540999e+00	 4.8695825206e-01	 2.0057999693e+00
 1.7497374329e+00	 5.0294598412e-01	 1.9312740195e+00
 1.7450638699e+00	 5.1892945152e-01	 1.8566736389e+00
 1.7402329337e+00	 5.3490648019e-01	 1.7825294182e+00
 1.7352441852e+00	 5.5087487753e-01	 1.7094286570e+00
 1.7300972237e+00	 5.6683243321e-01	 1.6380135173e+00
 1.7247916878e+00	 5.8277691993e-01	 1.5689790564e+00
 1.7193272557e+00	 5.9870609426e-01	 1.5010962022e+00
 1.7137036458e+00	 6.1461769748e-01	 1.4284302950e+00
 1.7079206175e+00	 6.3050945642e-01	 1.3509604260e+00
 1.7671384283e+00	 4.7325120456e-01	 2.0812793494e+00
 1.7627570088e+00	 4.8931854959e-01	 2.0049154257e+00
 1.7582184494e+00	 5.0538377454e-01	 1.9278374438e+00
 1.7535222335e+00	 5.2144471417e-01	 1.8510823391e+00
 1.7486678816e+00	 5.3749918386e-01	 1.7751919324e+00
 1.7436549525e+00	 5.5354498038e-01	 1.7007654894e+00
 1.7384830437e+00	 5.6957988268e-01	 1.6284578494e+00
 1.7331517917e+00	 5.8560165268e-01	 1.5589774344e+00
 1.7276608733e+00	 6.0160803608e-01	 1.4899355595e+00
 1.7220100057e+00	 6.1759676320e-01	 1.4162520435e+00
 1.7161989469e+00	 6.3356554985e-01	 1.3383240091e+00
 1.7756625005e+00	 4.7553400674e-01	 2.0815599048e+00
 1.7712599465e+00	 4.9167885515e-01	 2.0080560601e+00
 1.7666994947e+00	 5.0782157326e-01	 1.9311798021e+00
 1.7619806258e+00	 5.2395998537e-01	 1.8516934312e+00
 1.7571028582e+00	 5.4009189634e-01	 1.7730886114e+00
 1.7520657485e+00	 5.5621509230e-01	 1.6963745672e+00
 1.7468688921e+00	 5.7232734150e-01	 1.6222414007e+00
 1.7415119240e+00	 5.8842639505e-01	 1.5514322456e+00
 1.7359945193e+00	 6.0450998777e-01	 1.4801870386e+00
 1.7303163938e+00	 6.2057583905e-01	 1.4048265310e+00
 1.7244773045e+00	 6.3662165367e-01	 1.3259004923e+00
 1.7841865969e+00	 4.7781681538e-01	 2.0772871832e+00
 1.7797629084e+00	 4.9403916739e-01	 2.0061815036e+00
 1.7751805640e+00	 5.1025937888e-01	 1.9322498814e+00
 1.7704390421e+00	 5.2647526371e-01	 1.8555827642e+00
 1.7655378587e+00	 5.4268461617e-01	 1.7763381556e+00
 1.7604765683e+00	 5.5888521179e-01	 1.6964345197e+00
 1.7552547643e+00	 5.7507480810e-01	 1.6195289212e+00
 1.7498720800e+00	 5.9125114541e-01	 1.5463344198e+00
 1.7443281889e+00	 6.0741194768e-01	 1.4719800098e+00
 1.7386228055e+00	 6.2355492334e-01	 1.3942429082e+00
 1.7327556855e+00	 6.3967776615e-01	 1.3137291189e+00
 1.7927107126e+00	 4.8009962919e-01	 2.0686022866e+00
 1.7882658895e+00	 4.9639948499e-01	 1.9991029152e+00
 1.7836616526e+00	 5.1269719003e-01	 1.9272636040e+00
 1.7788974776e+00	 5.2899054774e-01	 1.8532272699e+00
 1.7739728784e+00	 5.4527734187e-01	 1.7772032300e+00
 1.7688874071e+00	 5.6155533733e-01	 1.6994695291e+00
 1.7636406555e+00	 5.7782228093e-01	 1.6204822691e+00
 1.7582322549e+00	 5.9407590218e-01	 1.5437242658e+00
 1.7526618774e+00	 6.1031391417e-01	 1.4654418184e+00
 1.7469292360e+00	 6.2653401438e-01	 1.3845890088e+00
 1.7410340853e+00	 6.4273388556e-01	 1.3018487083e+00
 1.8012348428e+00	 4.8238244689e-01	 2.0556441526e+00
 1.7967688850e+00	 4.9875980660e-01	 1.9869862572e+00
 1.7921427555e+00	 5.1513500533e-01	 1.9164073849e+00
 1.7873559275e+00	 5.3150583605e-01	 1.8441246974e+00
 1.7824079123e+00	 5.4787007199e-01	 1.7704202968e+00
 1.7772982603e+00	 5.6422546742e-01	 1.6956434787e+00
 1.7720265610e+00	 5.8056975843e-01	 1.6202130210e+00
 1.7665924441e+00	 5.9690066376e-01	 1.5434227242e+00
 1.7609955800e+00	 6.1321588560e-01	 1.4606978336e+00
 1.7552356806e+00	 6.2951311049e-01	 1.3759513803e+00
 1.7493124992e+00	 6.4579001016e-01	 1.2902976646e+00
 1.8097589826e+00	 4.8466526717e-01	 2.0385496236e+00
 1.8052718903e+00	 5.0112013088e-01	 1.9699949732e+00
 1.8006238681e+00	 5.1757282338e-01	 1.8998648235e+00
 1.7958143869e+00	 5.3402112720e-01	 1.8284720270e+00
 1.7908429559e+00	 5.5046280504e-01	 1.7561926143e+00
 1.7857091230e+00	 5.6689560052e-01	 1.6834679399e+00
 1.7804124759e+00	 5.8331723904e-01	 1.6108068657e+00
 1.7749526427e+00	 5.9972542853e-01	 1.5367358468e+00
 1.7693292921e+00	 6.1611786031e-01	 1.4558747703e+00
 1.7635421346e+00	 6.3249220997e-01	 1.3684153133e+00
 1.7575909224e+00	 6.4884613823e-01	 1.2791139838e+00
 1.8182831273e+00	 4.8694808875e-01	 2.0174535152e+00
 1.8137749003e+00	 5.0348045650e-01	 1.9482900659e+00
 1.8091049855e+00	 5.2001064282e-01	 1.8778167891e+00
 1.8042728512e+00	 5.3653641979e-01	 1.8064633502e+00
 1.7992780042e+00	 5.5305553956e-01	 1.7347205298e+00
 1.7941199904e+00	 5.6956573515e-01	 1.6631422295e+00
 1.7887983956e+00	 5.8606472121e-01	 1.5923475159e+00
 1.7833128461e+00	 6.0255019490e-01	 1.5199152638e+00
 1.7776630090e+00	 6.1901983667e-01	 1.4414201135e+00
 1.7718485933e+00	 6.3547131114e-01	 1.3573307439e+00
 1.7658693503e+00	 6.5190226803e-01	 1.2682104734e+00
 1.6830858451e+00	 6.2134125579e-01	 1.3897480777e+00
 1.6772286017e+00	 6.3698278107e-01	 1.3070401881e+00
 1.6712138520e+00	 6.5260022188e-01	 1.2221791415e+00
 1.6650414817e+00	 6.6819129874e-01	 1.1356298691e+00
 1.6587114185e+00	 6.8375372154e-01	 1.0478316255e+00
 1.6522236333e+00	 6.9928519036e-01	 9.5919532335e-01
 1.6455781398e+00	 7.1478339657e-01	 8.7010110059e-01
 1.6387749955e+00	 7.3024602370e-01	 7.8089613997e-01
 1.6318143016e+00	 7.4567074850e-01	 6.9189276179e-01
 1.6246962038e+00	 7.6105524190e-01	 6.0336680795e-01
 1.6174208922e+00	 7.7639717010e-01	 5.1555633492e-01
 1.6913640619e+00	 6.2439730766e-01	 1.3767128092e+00
 1.6854780098e+00	 6.4011576540e-01	 1.2948068246e+00
 1.6794336767e+00	 6.5581002021e-01	 1.2105620078e+00
 1.6732309477e+00	 6.7147778141e-01	 1.1244765230e+00
 1.6668697503e+00	 6.8711674760e-01	 1.0370210998e+00
 1.6603500551e+00	 7.0272460758e-01	 9.4863624025e-01
 1.6536718759e+00	 7.1829904134e-01	 8.5972966581e-01
 1.6468352705e+00	 7.3383772102e-01	 7.7067402568e-01
 1.6398403406e+00	 7.4933831195e-01	 6.8180488774e-01
 1.6326872326e+00	 7.6479847361e-01	 5.9341903088e-01
 1.6253761376e+00	 7.8021586071e-01	 5.0577305692e-01
 1.6996423210e+00	 6.2745337511e-01	 1.3637700663e+00
 1.6937274600e+00	 6.4324876571e-01	 1.2824283872e+00
 1.6876535434e+00	 6.5901983491e-01	 1.1986785680e+00
 1.6814204555e+00	 6.7476428084e-01	 1.1130321865e+00
 1.6750281237e+00	 6.9047979081e-01	 1.0259718945e+00
 1.6684765183e+00	 7.0616404233e-01	 9.3794852537e-01
 1.6617656533e+00	 7.2181470403e-01	 8.4937844906e-01
 1.6548955866e+00	 7.3742943666e-01	 7.6064119866e-01
 1.6478664205e+00	 7.5300589411e-01	 6.7207738808e-01
 1.6406783021e+00	 7.6854172442e-01	 5.8398694166e-01
 1.6333314235e+00	 7.8403457080e-01	 4.9662765426e-01
 1.7079206175e+00	 6.3050945642e-01	 1.3509604260e+00
 1.7019769476e+00	 6.4638178022e-01	 1.2698905252e+00
 1.6958734473e+00	 6.6222966416e-01	 1.1864658615e+00
 1.6896100005e+00	 6.7805079516e-01	 1.1011919264e+00
 1.6831865341e+00	 6.9384284927e-01	 1.0145440563e+00
 1.6766030184e+00	 7.0960349268e-01	 9.2696446870e-01
 1.6698594673e+00	 7.2533038267e-01	 8.3885955462e-01
 1.6629559392e+00	 7.4102116858e-01	 7.5059745050e-01
 1.6558925368e+00	 7.5667349290e-01	 6.6250591186e-01
 1.6486694079e+00	 7.7228499219e-01	 5.7487050884e-01
 1.6412867455e+00	 7.8785329820e-01	 4.8793316313e-01
 1.7161989469e+00	 6.3356554985e-01	 1.3383240091e+00
 1.7102264679e+00	 6.4951480716e-01	 1.2571794408e+00
 1.7040933838e+00	 6.6543950615e-01	 1.1738623699e+00
 1.6977995779e+00	 6.8133732252e-01	 1.0888530152e+00
 1.6913449769e+00	 6.9720592107e-01	 1.0026004701e+00
 1.6847295507e+00	 7.1304295667e-01	 9.1551969561e-01
 1.6779533135e+00	 7.2884607524e-01	 8.2798877715e-01
 1.6710163238e+00	 7.4461291475e-01	 7.4034647110e-01
 1.6639186849e+00	 7.6034110623e-01	 6.5289006206e-01
 1.6566605454e+00	 7.7602827481e-01	 5.6587355286e-01
 1.6492420990e+00	 7.9167204075e-01	 4.7950620677e-01
 1.7244773045e+00	 6.3662165367e-01	 1.3259004923e+00
 1.7184760163e+00	 6.5264784475e-01	 1.2442818751e+00
 1.7123133482e+00	 6.6864935905e-01	 1.1608079804e+00
 1.7059891832e+00	 6.8462386106e-01	 1.0759148755e+00
 1.6995034474e+00	 7.0056900431e-01	 9.9000678815e-01
 1.6928561106e+00	 7.1648243236e-01	 9.0345308226e-01
 1.6860471872e+00	 7.3236177978e-01	 8.1658550785e-01
 1.6790767358e+00	 7.4820467313e-01	 7.2969574923e-01
 1.6719448604e+00	 7.6400873204e-01	 6.4303329430e-01
 1.6646517100e+00	 7.7977157016e-01	 5.5680364693e-01
 1.6571974796e+00	 7.9549079628e-01	 4.7116690260e-01
 1.7327556855e+00	 6.3967776615e-01	 1.3137291189e+00
 1.7267255880e+00	 6.5578089122e-01	 1.2311850947e+00
 1.7205333360e+00	 6.7185922104e-01	 1.1472439497e+00
 1.7141788117e+00	 6.8791040891e-01	 1.0622790250e+00
 1.7076619410e+00	 7.0393209707e-01	 9.7663135862e-01
 1.7009826936e+00	 7.1992191779e-01	 8.9060667252e-01
 1.6941410838e+00	 7.3587749427e-01	 8.0447264235e-01
 1.6871371707e+00	 7.5179644169e-01	 7.1845647503e-01
 1.6799710586e+00	 7.6767636823e-01	 6.3274281761e-01
 1.6726428973e+00	 7.8351487611e-01	 5.4747201983e-01
 1.6651528827e+00	 7.9930956263e-01	 4.6273877105e-01
 1.7410340853e+00	 6.4273388556e-01	 1.3018487083e+00
 1.7349751784e+00	 6.5891394479e-01	 1.2178768762e+00
 1.7287533424e+00	 6.7506909032e-01	 1.1331128685e+00
 1.7223684588e+00	 6.9119696421e-01	 1.0478490223e+00
 1.7158204531e+00	 7.0729519746e-01	 9.6234515641e-01
 1.7091092950e+00	 7.2336141102e-01	 8.7682559625e-01
 1.7022349988e+00	 7.3939321673e-01	 7.9147649026e-01
 1.6951976238e+00	 7.5538821839e-01	 7.0644344421e-01
 1.6879972749e+00	 7.7134401274e-01	 6.2182949693e-01
 1.6806341027e+00	 7.8725819055e-01	 5.3769346048e-01
 1.6731083039e+00	 8.0312833764e-01	 4.5404864592e-01
 1.7493124992e+00	 6.4579001016e-01	 1.2902976646e+00
 1.7432247829e+00	 6.6204700368e-01	 1.2043454922e+00
 1.7369733627e+00	 6.7827896504e-01	 1.1183586256e+00
 1.7305581198e+00	 6.9448352509e-01	 1.0325304132e+00
 1.7239789791e+00	 7.1065830357e-01	 9.4702171451e-01
 1.7172359102e+00	 7.2680091010e-01	 8.6195798898e-01
 1.7103289275e+00	 7.4290894517e-01	 7.7742668630e-01
 1.7032580906e+00	 7.5898000120e-01	 6.9347496407e-01
 1.6960235049e+00	 7.7501166349e-01	 6.1010775745e-01
 1.6886253217e+00	 7.9100151136e-01	 5.2728622416e-01
 1.6810637386e+00	 8.0694711914e-01	 4.4492658634e-01
 1.7575909224e+00	 6.4884613823e-01	 1.2791139838e+00
 1.7514743967e+00	 6.6518006613e-01	 1.1905796949e+00
 1.7451933924e+00	 6.8148884341e-01	 1.1029263719e+00
 1.7387477900e+00	 6.9777008970e-01	 1.0162306777e+00
 1.7321375143e+00	 7.1402141348e-01	 9.3053705641e-01
 1.7253625346e+00	 7.3024041307e-01	 8.4585491293e-01
 1.7184228654e+00	 7.4642467760e-01	 7.6215610306e-01
 1.7113185666e+00	 7.6257178807e-01	 6.7937276119e-01
 1.7040497440e+00	 7.7867931839e-01	 5.9739549068e-01
 1.6966165497e+00	 7.9474483640e-01	 5.1607194049e-01
 1.6890191823e+00	 8.1076590497e-01	 4.3520579019e-01
 1.7658693503e+00	 6.5190226803e-01	 1.2682104734e+00
 1.7597240152e+00	 6.6831313035e-01	 1.1765687007e+00
 1.7534134267e+00	 6.8469872359e-01	 1.0867624854e+00
 1.7469374649e+00	 7.0105665617e-01	 9.9885917747e-01
 1.7402960542e+00	 7.1738452531e-01	 9.1276962961e-01
 1.7334891636e+00	 7.3367991799e-01	 8.2837027932e-01
 1.7265168079e+00	 7.4994041202e-01	 7.4550076515e-01
 1.7193790471e+00	 7.6616357699e-01	 6.6396189070e-01
 1.7120759877e+00	 7.8234697537e-01	 5.8351396212e-01
 1.7046077823e+00	 7.9848816357e-01	 5.0387552296e-01
 1.6969746305e+00	 8.1458469296e-01	 4.2472250899e-01
 1.6174208922e+00	 7.7639717010e-01	 5.1555633492e-01
 1.6099898785e+00	 7.9169159915e-01	 4.2805477856e-01
 1.6024022183e+00	 8.0693880086e-01	 3.4046999431e-01
 1.5946582360e+00	 8.2213643373e-01	 2.5304454973e-01
 1.5867583015e+00	 8.3728215572e-01	 1.6597735371e-01
 1.5787028302e+00	 8.5237362528e-01	 7.9423924631e-02
 1.5704922835e+00	 8.6740850250e-01	-6.5029592477e-03
 1.5621271689e+00	 8.8238445016e-01	-9.1732222261e-02
 1.5536080398e+00	 8.9729913487e-01	-1.7623306380e-01
 1.5449354956e+00	 9.1215022821e-01	-2.6001314039e-01
 1.5361101821e+00	 9.2693540778e-01	-3.4311635930e-01
 1.6253761376e+00	 7.8021586071e-01	 5.0577305692e-01
 1.6179085745e+00	 7.9558551504e-01	 4.1844743204e-01
 1.6102835947e+00	 8.1090770974e-01	 3.3103418379e-01
 1.6025015238e+00	 8.2618009180e-01	 2.4378727272e-01
 1.5945627336e+00	 8.4140030765e-01	 1.5691574083e-01
 1.5864676417e+00	 8.5656600424e-01	 7.0583973734e-02
 1.5782167117e+00	 8.7167483014e-01	-1.5087643071e-02
 1.5698104534e+00	 8.8672443663e-01	-1.0002166864e-01
 1.5612494232e+00	 9.0171247886e-01	-1.8418214869e-01
 1.5525342233e+00	 9.1663661694e-01	-2.6757275498e-01
 1.5436655027e+00	 9.3149451705e-01	-3.5023452375e-01
 1.6333314235e+00	 7.8403457080e-01	 4.9662765426e-01
 1.6258273110e+00	 7.9947945079e-01	 4.0956011167e-01
 1.6181650112e+00	 8.1487663886e-01	 3.2236847528e-01
 1.6103448516e+00	 8.3022377049e-01	 2.3532324790e-01
 1.6023672056e+00	 8.4551848059e-01	 1.4864860995e-01
 1.5942324928e+00	 8.6075840458e-01	 6.2522667447e-02
 1.5859411792e+00	 8.7594117953e-01	-2.2921893639e-02
 1.5774937771e+00	 8.9106444524e-01	-1.0759674110e-01
 1.5688908455e+00	 9.0612584536e-01	-1.9145641529e-01
 1.5601329897e+00	 9.2112302855e-01	-2.7449643225e-01
 1.5512208618e+00	 9.3605364958e-01	-3.5675097312e-01
 1.6412867455e+00	 7.8785329820e-01	 4.8793316313e-01
 1.6337460834e+00	 8.0337340419e-01	 4.0122268500e-01
 1.6260464635e+00	 8.1884558597e-01	 3.1431812526e-01
 1.6181882149e+00	 8.3426746751e-01	 2.2751161786e-01
 1.6101717129e+00	 8.4963667220e-01	 1.4104742605e-01
 1.6019973791e+00	 8.6495082393e-01	 5.5122167999e-02
 1.5936656817e+00	 8.8020754827e-01	-3.0114538389e-02
 1.5851771357e+00	 8.9540447352e-01	-1.1455900595e-01
 1.5765323025e+00	 9.1053923186e-01	-1.9815198055e-01
 1.5677317906e+00	 9.2560946050e-01	-2.8087671449e-01
 1.5587762552e+00	 9.4061280278e-01	-3.6275661287e-01
 1.6492420990e+00	 7.9167204075e-01	 4.7950620677e-01
 1.6416648872e+00	 8.0726737304e-01	 3.9326827555e-01
 1.6339279471e+00	 8.2281454883e-01	 3.0673134951e-01
 1.6260316094e+00	 8.3831118058e-01	 2.2021422375e-01
 1.6179762512e+00	 8.5375488014e-01	 1.3398612924e-01
 1.6097622962e+00	 8.6914325991e-01	 4.8266928066e-02
 1.6013902149e+00	 8.8447393394e-01	-3.6772259074e-02
 1.5928605247e+00	 8.9974451902e-01	-1.2100798731e-01
 1.5841737898e+00	 9.1495263588e-01	-2.0436298028e-01
 1.5753306217e+00	 9.3009591025e-01	-2.8680418025e-01
 1.5663316785e+00	 9.4517197406e-01	-3.6834035730e-01
 1.6571974796e+00	 7.9549079628e-01	 4.7116690260e-01
 1.6495837179e+00	 8.1116135513e-01	 3.8553317786e-01
 1.6418094574e+00	 8.2678352519e-01	 2.9945924555e-01
 1.6338750305e+00	 8.4235490739e-01	 2.1329553435e-01
 1.6257808160e+00	 8.5787310209e-01	 1.2734106972e-01
 1.6175272397e+00	 8.7333571015e-01	 4.1843630756e-02
 1.6091147744e+00	 8.8874033411e-01	-4.2999647428e-02
 1.6005439398e+00	 9.0408457928e-01	-1.2704121925e-01
 1.5918153031e+00	 9.1936605489e-01	-2.1018161858e-01
 1.5829294785e+00	 9.3458237525e-01	-2.9236749190e-01
 1.5738871276e+00	 9.4973116085e-01	-3.7358917624e-01
 1.6651528827e+00	 7.9930956263e-01	 4.6273877105e-01
 1.6575025710e+00	 8.1505534825e-01	 3.7785677406e-01
 1.6496909901e+00	 8.3075251279e-01	 2.9235571617e-01
 1.6417184739e+00	 8.4639864566e-01	 2.0662257598e-01
 1.6335854030e+00	 8.6199133570e-01	 1.2099094347e-01
 1.6252922052e+00	 8.7752817226e-01	 3.5741130306e-02
 1.6168393557e+00	 8.9300674637e-01	-4.8899260260e-02
 1.6082273767e+00	 9.0842465183e-01	-1.3275429747e-01
 1.5994568381e+00	 9.2377948642e-01	-2.1569821691e-01
 1.5905283569e+00	 9.3906885296e-01	-2.9765344298e-01
 1.5814425980e+00	 9.5429036055e-01	-3.7858814143e-01
 1.6731083039e+00	 8.0312833764e-01	 4.5404864592e-01
 1.6654214421e+00	 8.1894935020e-01	 3.7008145172e-01
 1.6575725407e+00	 8.3472150939e-01	 2.8527739427e-01
 1.6495619350e+00	 8.5044239310e-01	 2.0006486361e-01
 1.6413900076e+00	 8.6610957865e-01	 1.1481672873e-01
 1.6330571883e+00	 8.8172064388e-01	 2.9850393450e-02
 1.6245639546e+00	 8.9727316830e-01	-5.4571673981e-02
 1.6159108311e+00	 9.1276473423e-01	-1.3824093048e-01
 1.6070983903e+00	 9.2819292795e-01	-2.2100126270e-01
 1.5981272526e+00	 9.4355534085e-01	-3.0274700504e-01
 1.5889980856e+00	 9.5884957059e-01	-3.8342047255e-01
 1.6810637386e+00	 8.0694711914e-01	 4.4492658634e-01
 1.6733403267e+00	 8.2284335877e-01	 3.6205252310e-01
 1.6654541046e+00	 8.3869051273e-01	 2.7808356870e-01
 1.6574054094e+00	 8.5448614741e-01	 1.9349433269e-01
 1.6491946255e+00	 8.7022782860e-01	 1.0870162342e-01
 1.6408221847e+00	 8.8591312262e-01	 2.4064441448e-02
 1.6322885665e+00	 9.0153959748e-01	-6.0115538587e-02
 1.6235942984e+00	 9.1710482400e-01	-1.4359299034e-01
 1.6147399556e+00	 9.3260637698e-01	-2.2617745763e-01
 1.6057261611e+00	 9.4804183636e-01	-3.0773137424e-01
 1.5965535860e+00	 9.6340878838e-01	-3.8816758286e-01
 1.6890191823e+00	 8.1076590497e-01	 4.3520579019e-01
 1.6812592202e+00	 8.2673737175e-01	 3.5361814565e-01
 1.6733356775e+00	 8.4265952057e-01	 2.7063611130e-01
 1.6652488928e+00	 8.5852990631e-01	 1.8678527209e-01
 1.6569992522e+00	 8.7434608322e-01	 1.0253098314e-01
 1.6485871898e+00	 8.9010560612e-01	 1.8278292749e-02
 1.6400131873e+00	 9.0580603150e-01	-6.5627631116e-02
 1.6312777745e+00	 9.2144491869e-01	-1.4890056293e-01
 1.6223815295e+00	 9.3701983101e-01	-2.3131176548e-01
 1.6133250783e+00	 9.5252833696e-01	-3.1268801755e-01
 1.6041090950e+00	 9.6796801134e-01	-3.9290912459e-01
 1.6969746305e+00	 8.1458469296e-01	 4.2472250899e-01
 1.6891781183e+00	 8.3063138694e-01	 3.4462924374e-01
 1.6812172549e+00	 8.4662853067e-01	 2.6279940489e-01
 1.6730923806e+00	 8.6257366750e-01	 1.7981425780e-01
 1.6648038834e+00	 8.7846434017e-01	 9.6192260091e-02
 1.6563521993e+00	 8.9429809199e-01	 1.2388906271e-02
 1.6477378124e+00	 9.1007246793e-01	-7.1202908596e-02
 1.6389612550e+00	 9.2578501584e-01	-1.5425199785e-01
 1.6300231078e+00	 9.4143328755e-01	-2.3648745966e-01
 1.6209239997e+00	 9.5701484010e-01	-3.1769671869e-01
 1.6116646083e+00	 9.7252723688e-01	-3.9772303402e-01
 1.5361101821e+00	 9.2693540778e-01	-3.4311635930e-01
 1.5271327913e+00	 9.4165235869e-01	-4.2507213802e-01
 1.5180040630e+00	 9.5629877555e-01	-5.0538208120e-01
 1.5087247831e+00	 9.7087236277e-01	-5.8409515755e-01
 1.4992957834e+00	 9.8537083540e-01	-6.6128555690e-01
 1.4897179414e+00	 9.9979192022e-01	-7.3704875059e-01
 1.4799921803e+00	 1.0141333570e+00	-8.1149722516e-01
 1.4701194682e+00	 1.0283928993e+00	-8.8475590836e-01
 1.4601008186e+00	 1.0425683162e+00	-9.5695730869e-01
 1.4499372895e+00	 1.0566573927e+00	-1.0282363920e+00
 1.4396299835e+00	 1.0706579313e+00	-1.0987252206e+00
 1.5436655027e+00	 9.3149451705e-01	-3.5023452375e-01
 1.5346439568e+00	 9.4628385293e-01	-4.3170677759e-01
 1.5254703291e+00	 9.6100230784e-01	-5.1151007546e-01
 1.5161454092e+00	 9.7564757489e-01	-5.8970573708e-01
 1.5066700332e+00	 9.9021735790e-01	-6.6638134332e-01
 1.4970450829e+00	 1.0047093725e+00	-7.4164666658e-01
 1.4872714859e+00	 1.0191213472e+00	-8.1562926308e-01
 1.4773502151e+00	 1.0334510248e+00	-8.8846974641e-01
 1.4672822890e+00	 1.0476961631e+00	-9.6031676425e-01
 1.4570687708e+00	 1.0618545364e+00	-1.0313217024e+00
 1.4467107686e+00	 1.0759239363e+00	-1.1016331425e+00
 1.5512208618e+00	 9.3605364958e-01	-3.5675097312e-01
 1.5421551607e+00	 9.5091537079e-01	-4.3776715403e-01
 1.5329366332e+00	 9.6570586411e-01	-5.1708510213e-01
 1.5235660733e+00	 9.8042281137e-01	-5.9477876654e-01
 1.5140443207e+00	 9.9506390513e-01	-6.7094943654e-01
 1.5043722618e+00	 1.0096268498e+00	-7.4572153915e-01
 1.4945508286e+00	 1.0241093629e+00	-8.1923808667e-01
 1.4845809988e+00	 1.0385091761e+00	-8.9165579433e-01
 1.4744637960e+00	 1.0528240362e+00	-9.6313989031e-01
 1.4642002885e+00	 1.0670517066e+00	-1.0338586432e+00
 1.4537915898e+00	 1.0811899682e+00	-1.1039776337e+00
 1.5587762552e+00	 9.4061280278e-01	-3.6275661287e-01
 1.5496663985e+00	 9.5554690965e-01	-4.4334339081e-01
 1.5404029713e+00	 9.7040944171e-01	-5.2219623571e-01
 1.5309867709e+00	 9.8519806950e-01	-5.9940201052e-01
 1.5214186416e+00	 9.9991047433e-01	-6.7507603795e-01
 1.5116994739e+00	 1.0145443495e+00	-7.4935776216e-01
 1.5018302042e+00	 1.0290974013e+00	-8.2240604836e-01
 1.4918118154e+00	 1.0435673503e+00	-8.9439414088e-01
 1.4816453355e+00	 1.0579519325e+00	-9.6550430270e-01
 1.4713318385e+00	 1.0722489004e+00	-1.0359221621e+00
 1.4608724430e+00	 1.0864560239e+00	-1.1058307940e+00
 1.5663316785e+00	 9.4517197406e-01	-3.6834035730e-01
 1.5571776662e+00	 9.6017846689e-01	-4.4852356912e-01
 1.5478693389e+00	 9.7511303797e-01	-5.2693045532e-01
 1.5384074980e+00	 9.8997334657e-01	-6.0366108350e-01
 1.5287929918e+00	 1.0047570627e+00	-6.7884514250e-01
 1.5190267150e+00	 1.0194618686e+00	-7.5263746533e-01
 1.5091096088e+00	 1.0340854594e+00	-8.2521317748e-01
 1.4990426606e+00	 1.0486255446e+00	-8.9676249183e-01
 1.4888269036e+00	 1.0630798492e+00	-9.6748517368e-01
 1.4784634168e+00	 1.0774461148e+00	-1.0375847023e+00
 1.4679533244e+00	 1.0917221006e+00	-1.1072621575e+00
 1.5738871276e+00	 9.4973116085e-01	-3.7358917624e-01
 1.5646889594e+00	 9.6481003987e-01	-4.5339377397e-01
 1.5553357319e+00	 9.7981665023e-01	-5.3137269033e-01
 1.5458282504e+00	 9.9474863987e-01	-6.0763949464e-01
 1.5361673670e+00	 1.0096036677e+00	-6.8233858255e-01
 1.5263539811e+00	 1.0243794045e+00	-7.5564055698e-01
 1.5163890381e+00	 1.0390735344e+00	-8.2773722193e-01
 1.5062735304e+00	 1.0536837560e+00	-8.9883621038e-01
 1.4960084961e+00	 1.0682077833e+00	-9.6915527090e-01
 1.4855950194e+00	 1.0826433468e+00	-1.0389162398e+00
 1.4750342299e+00	 1.0969881951e+00	-1.1083387281e+00
 1.5814425980e+00	 9.5429036055e-01	-3.7858814143e-01
 1.5722002739e+00	 9.6944162597e-01	-4.5803814013e-01
 1.5628021461e+00	 9.8452027581e-01	-5.3560586545e-01
 1.5532490237e+00	 9.9952394671e-01	-6.1141869216e-01
 1.5435417632e+00	 1.0144502863e+00	-6.8563607135e-01
 1.5336812679e+00	 1.0292969543e+00	-7.5844476658e-01
 1.5236684881e+00	 1.0440616236e+00	-8.3005368951e-01
 1.5135044207e+00	 1.0587419819e+00	-9.0068835719e-01
 1.5031901089e+00	 1.0733357319e+00	-9.7058499612e-01
 1.4927266421e+00	 1.0878405936e+00	-1.0399843205e+00
 1.4821151554e+00	 1.1022543046e+00	-1.1091250155e+00
 1.5889980856e+00	 9.5884957059e-01	-3.8342047255e-01
 1.5797116054e+00	 9.7407322258e-01	-4.6253889757e-01
 1.5702685772e+00	 9.8922391205e-01	-5.3971094567e-01
 1.5606698139e+00	 1.0042992644e+00	-6.1507810742e-01
 1.5509161760e+00	 1.0192969159e+00	-6.8881524631e-01
 1.5410085713e+00	 1.0342145152e+00	-7.6112568692e-01
 1.5309479545e+00	 1.0490497242e+00	-8.3223588897e-01
 1.5207353274e+00	 1.0638002191e+00	-9.0238973018e-01
 1.5103717380e+00	 1.0784636922e+00	-9.7184242356e-01
 1.4998582811e+00	 1.0930378522e+00	-1.0408540975e+00
 1.4891960970e+00	 1.1075204260e+00	-1.1096830700e+00
 1.5965535860e+00	 9.6340878838e-01	-3.8816758286e-01
 1.5872229497e+00	 9.7870482706e-01	-4.6697641662e-01
 1.5777350210e+00	 9.9392755629e-01	-5.4376698073e-01
 1.5680906167e+00	 1.0090745901e+00	-6.1869519871e-01
 1.5582906014e+00	 1.0241435538e+00	-6.9195171181e-01
 1.5483358872e+00	 1.0391320845e+00	-7.6375681594e-01
 1.5382274334e+00	 1.0540378332e+00	-8.3435497074e-01
 1.5279662463e+00	 1.0688584650e+00	-9.0400890401e-01
 1.5175533793e+00	 1.0835916612e+00	-9.7299333808e-01
 1.5069899321e+00	 1.0982351196e+00	-1.0415883672e+00
 1.4962770506e+00	 1.1127865563e+00	-1.1100725178e+00
 1.6041090950e+00	 9.6796801134e-01	-3.9290912459e-01
 1.5947343026e+00	 9.8333643678e-01	-4.7142925286e-01
 1.5852014733e+00	 9.9863120585e-01	-5.4785114936e-01
 1.5755114279e+00	 1.0138499213e+00	-6.2234549469e-01
 1.5656650352e+00	 1.0289901971e+00	-6.9511908177e-01
 1.5556632114e+00	 1.0440496594e+00	-7.6640959836e-01
 1.5455069204e+00	 1.0590259478e+00	-8.3647996742e-01
 1.5351971735e+00	 1.0739167166e+00	-9.0561226934e-01
 1.5247350288e+00	 1.0887196359e+00	-9.7410127304e-01
 1.5141215913e+00	 1.1034323929e+00	-1.0422476060e+00
 1.5033580123e+00	 1.1180526927e+00	-1.1103505957e+00
 1.6116646083e+00	 9.7252723688e-01	-3.9772303402e-01
 1.6022456596e+00	 9.8796804913e-01	-4.7597419164e-01
 1.5926679297e+00	 1.0033348581e+00	-5.5203880315e-01
 1.5829322433e+00	 1.0186252552e+00	-6.2610263753e-01
 1.5730394731e+00	 1.0338368432e+00	-6.9838902200e-01
 1.5629905397e+00	 1.0489672371e+00	-7.6915346693e-01
 1.5527864116e+00	 1.0640140653e+00	-8.3867783393e-01
 1.5424281048e+00	 1.0789749711e+00	-9.0726407177e-01
 1.5319166823e+00	 1.0938476136e+00	-9.7522754793e-01
 1.5212532544e+00	 1.1086296691e+00	-1.0428900065e+00
 1.5104389779e+00	 1.1233188320e+00	-1.1105721861e+00
 1.4396299835e+00	 1.0706579313e+00	-1.0987252206e+00
 1.4291782595e+00	 1.0845701087e+00	-1.1672828226e+00
 1.4185850537e+00	 1.0983893700e+00	-1.2327613508e+00
 1.4078516063e+00	 1.1121135673e+00	-1.2952901263e+00
 1.3969792004e+00	 1.1257405746e+00	-1.3549631331e+00
 1.3859691615e+00	 1.1392682885e+00	-1.4118326254e+00
 1.3748228572e+00	 1.1526946297e+00	-1.4659027030e+00
 1.3635416964e+00	 1.1660175436e+00	-1.5171228915e+00
 1.3521271287e+00	 1.1792350016e+00	-1.5654296270e+00
 1.3405806439e+00	 1.1923450022e+00	-1.6122660803e+00
 1.3289037716e+00	 1.2053455716e+00	-1.6586352384e+00
 1.4467107686e+00	 1.0759239363e+00	-1.1016331425e+00
 1.4362076381e+00	 1.0899045405e+00	-1.1700573037e+00
 1.4255623298e+00	 1.1037917714e+00	-1.2353677695e+00
 1.4147760902e+00	 1.1175834709e+00	-1.2976715907e+00
 1.4038502086e+00	 1.1312775022e+00	-1.3570402928e+00
 1.3927860171e+00	 1.1448717519e+00	-1.4135033230e+00
 1.3815848900e+00	 1.1583641302e+00	-1.4670414620e+00
 1.3702482431e+00	 1.1717525725e+00	-1.5175802382e+00
 1.3587775331e+00	 1.1850350403e+00	-1.5654093778e+00
 1.3471742572e+00	 1.1982095221e+00	-1.6120863083e+00
 1.3354399525e+00	 1.2112740345e+00	-1.6580740689e+00
 1.4537915898e+00	 1.0811899682e+00	-1.1039776337e+00
 1.4432370525e+00	 1.0952389994e+00	-1.1722545313e+00
 1.4325396415e+00	 1.1091942004e+00	-1.2373905659e+00
 1.4217006094e+00	 1.1230534023e+00	-1.2994739281e+00
 1.4107212519e+00	 1.1368144581e+00	-1.3585570791e+00
 1.3996029075e+00	 1.1504752439e+00	-1.4146500289e+00
 1.3883469573e+00	 1.1640336596e+00	-1.4677135753e+00
 1.3769548240e+00	 1.1774876307e+00	-1.5176571558e+00
 1.3654279714e+00	 1.1908351086e+00	-1.5653983059e+00
 1.3537679042e+00	 1.2040740719e+00	-1.6119279009e+00
 1.3419761667e+00	 1.2172025276e+00	-1.6575752089e+00
 1.4608724430e+00	 1.0864560239e+00	-1.1058307940e+00
 1.4502664987e+00	 1.1005734825e+00	-1.1739434860e+00
 1.4395169849e+00	 1.1145966539e+00	-1.2388952123e+00
 1.4286251600e+00	 1.1285233586e+00	-1.3007586884e+00
 1.4175923263e+00	 1.1423514391e+00	-1.3595706825e+00
 1.4064198288e+00	 1.1560787612e+00	-1.4153251145e+00
 1.3951090553e+00	 1.1697032148e+00	-1.4679661126e+00
 1.3836614353e+00	 1.1832227149e+00	-1.5175730027e+00
 1.3720784399e+00	 1.1966352032e+00	-1.5653258389e+00
 1.3603615810e+00	 1.2099386484e+00	-1.6117133489e+00
 1.3485124106e+00	 1.2231310476e+00	-1.6570534387e+00
 1.4679533244e+00	 1.0917221006e+00	-1.1072621575e+00
 1.4572959729e+00	 1.1059079868e+00	-1.1751905236e+00
 1.4464943559e+00	 1.1199991288e+00	-1.2399445018e+00
 1.4355497381e+00	 1.1339933365e+00	-1.3015846952e+00
 1.4244634280e+00	 1.1478884421e+00	-1.3601355270e+00
 1.4132367772e+00	 1.1616823008e+00	-1.4155781530e+00
 1.4018711800e+00	 1.1753727924e+00	-1.4678433242e+00
 1.3903680732e+00	 1.1889578219e+00	-1.5173855870e+00
 1.3787289348e+00	 1.2024353208e+00	-1.5651240365e+00
 1.3669552840e+00	 1.2158032480e+00	-1.6113678879e+00
 1.3550486804e+00	 1.2290595912e+00	-1.6564264098e+00
 1.4750342299e+00	 1.0969881951e+00	-1.1083387281e+00
 1.4643254709e+00	 1.1112425092e+00	-1.1760594090e+00
 1.4534717506e+00	 1.1254016221e+00	-1.2405985812e+00
 1.4424743398e+00	 1.1394633331e+00	-1.3020080753e+00
 1.4313345531e+00	 1.1534254639e+00	-1.3603032973e+00
 1.4200537487e+00	 1.1672858595e+00	-1.4154559435e+00
 1.4086333278e+00	 1.1810423893e+00	-1.4674447575e+00
 1.3970747339e+00	 1.1946929483e+00	-1.5170355711e+00
 1.3853794522e+00	 1.2082354581e+00	-1.5647275551e+00
 1.3735490094e+00	 1.2216678676e+00	-1.6108194601e+00
 1.3615849724e+00	 1.2349881549e+00	-1.6556146038e+00
 1.4821151554e+00	 1.1022543046e+00	-1.1091250155e+00
 1.4713549888e+00	 1.1165770467e+00	-1.1766113501e+00
 1.4604491651e+00	 1.1308041306e+00	-1.2409149819e+00
 1.4493989610e+00	 1.1449333451e+00	-1.3020822883e+00
 1.4382056976e+00	 1.1589625014e+00	-1.3601229654e+00
 1.4268707396e+00	 1.1728894340e+00	-1.4150025357e+00
 1.4153954947e+00	 1.1867120023e+00	-1.4668808967e+00
 1.4037814136e+00	 1.2004280910e+00	-1.5164660856e+00
 1.3920299886e+00	 1.2140356118e+00	-1.5640736134e+00
 1.3801427535e+00	 1.2275325039e+00	-1.6099986766e+00
 1.3681212829e+00	 1.2409167354e+00	-1.6545412926e+00
 1.4891960970e+00	 1.1075204260e+00	-1.1096830700e+00
 1.4783845227e+00	 1.1219115964e+00	-1.1769050309e+00
 1.4674265954e+00	 1.1362066515e+00	-1.2409486517e+00
 1.4563235979e+00	 1.1504033696e+00	-1.3018581559e+00
 1.4450768577e+00	 1.1644995514e+00	-1.3596408177e+00
 1.4336877458e+00	 1.1784930213e+00	-1.4142653914e+00
 1.4221576770e+00	 1.1923816281e+00	-1.4661066931e+00
 1.4104881085e+00	 1.2061632467e+00	-1.5156226955e+00
 1.3986805400e+00	 1.2198357787e+00	-1.5631019568e+00
 1.3867365125e+00	 1.2333971534e+00	-1.6088387805e+00
 1.3746576083e+00	 1.2468453293e+00	-1.6531324972e+00
 1.4962770506e+00	 1.1127865563e+00	-1.1100725178e+00
 1.4854140686e+00	 1.1272461550e+00	-1.1769966454e+00
 1.4744040376e+00	 1.1416091815e+00	-1.2407519865e+00
 1.4632482467e+00	 1.1558734033e+00	-1.3013838908e+00
 1.4519480295e+00	 1.1700366109e+00	-1.3589004816e+00
 1.4405047637e+00	 1.1840966180e+00	-1.4133302084e+00
 1.4289198707e+00	 1.1980512636e+00	-1.4650752094e+00
 1.4171948148e+00	 1.2118984122e+00	-1.5144533684e+00
 1.4053311027e+00	 1.2256359554e+00	-1.5617548227e+00
 1.3933302828e+00	 1.2392618129e+00	-1.6072756088e+00
 1.3811939448e+00	 1.2527739333e+00	-1.6513169486e+00
 1.5033580123e+00	 1.1180526927e+00	-1.1103505957e+00
 1.4924436224e+00	 1.1325807198e+00	-1.1769399302e+00
 1.4813814877e+00	 1.1470117176e+00	-1.2403748607e+00
 1.4701729032e+00	 1.1613434433e+00	-1.3007051263e+00
 1.4588192090e+00	 1.1755736766e+00	-1.3579429524e+00
 1.4473217893e+00	 1.1897002211e+00	-1.4121826365e+00
 1.4356820722e+00	 1.2037209055e+00	-1.4637418013e+00
 1.4239015287e+00	 1.2176335841e+00	-1.5129084410e+00
 1.4119816729e+00	 1.2314361387e+00	-1.5599769059e+00
 1.3999240605e+00	 1.2451264790e+00	-1.6052475557e+00
 1.3877302886e+00	 1.2587025440e+00	-1.6490260471e+00
 1.5104389779e+00	 1.1233188320e+00	-1.1105721861e+00
 1.4994731802e+00	 1.1379152875e+00	-1.1767861978e+00
 1.4883589417e+00	 1.1524142568e+00	-1.2398646591e+00
 1.4770975637e+00	 1.1668134863e+00	-1.2998649443e+00
 1.4656903925e+00	 1.1811107454e+00	-1.3568079472e+00
 1.4541388188e+00	 1.1953038274e+00	-1.4107846602e+00
 1.4424442774e+00	 1.2093905506e+00	-1.4620640866e+00
 1.4306082465e+00	 1.2233687593e+00	-1.5109405865e+00
 1.4186322469e+00	 1.2372363253e+00	-1.5577153230e+00
 1.4065178420e+00	 1.2509911485e+00	-1.6026955349e+00
 1.3942666362e+00	 1.2646311581e+00	-1.6461938231e+00
 1.3289037716e+00	 1.2053455716e+00	-1.6586352384e+00
 1.3171000940e+00	 1.2182325872e+00	-1.7038108831e+00
 1.3051692256e+00	 1.2310063719e+00	-1.7467850094e+00
 1.2931127885e+00	 1.2436650637e+00	-1.7874747837e+00
 1.2809324416e+00	 1.2562068321e+00	-1.8257994547e+00
 1.2686298794e+00	 1.2686298794e+00	-1.8616801443e+00
 1.2562068321e+00	 1.2809324416e+00	-1.8950396415e+00
 1.2436650637e+00	 1.2931127885e+00	-1.9258021996e+00
 1.2310063719e+00	 1.3051692256e+00	-1.9538933340e+00
 1.2182325872e+00	 1.3171000940e+00	-1.9792396193e+00
 1.2053455716e+00	 1.3289037716e+00	-2.0017684847e+00
 1.3354399525e+00	 1.2112740345e+00	-1.6580740689e+00
 1.3235782188e+00	 1.2242244346e+00	-1.7026496910e+00
 1.3115886688e+00	 1.2370610469e+00	-1.7448693450e+00
 1.2994729324e+00	 1.2497820000e+00	-1.7847247105e+00
 1.2872326766e+00	 1.2623854548e+00	-1.8222086865e+00
 1.2748696047e+00	 1.2748696047e+00	-1.8573150867e+00
 1.2623854548e+00	 1.2872326766e+00	-1.8900383418e+00
 1.2497820000e+00	 1.2994729324e+00	-1.9203732050e+00
 1.2370610469e+00	 1.3115886688e+00	-1.9483144610e+00
 1.2242244346e+00	 1.3235782188e+00	-1.9738566367e+00
 1.2112740345e+00	 1.3354399525e+00	-1.9969937105e+00
 1.3419761667e+00	 1.2172025276e+00	-1.6575752089e+00
 1.3300563767e+00	 1.2302163125e+00	-1.7016134844e+00
 1.3180081446e+00	 1.2431157527e+00	-1.7431483116e+00
 1.3058331086e+00	 1.2558989676e+00	-1.7822371285e+00
 1.2935329439e+00	 1.2685641091e+00	-1.8189378859e+00
 1.2811093617e+00	 1.2811093617e+00	-1.8533086614e+00
 1.2685641091e+00	 1.2935329439e+00	-1.8854072807e+00
 1.2558989676e+00	 1.3058331086e+00	-1.9152909443e+00
 1.2431157527e+00	 1.3180081446e+00	-1.9430158591e+00
 1.2302163125e+00	 1.3300563767e+00	-1.9686368729e+00
 1.2172025276e+00	 1.3419761667e+00	-1.9922071104e+00
 1.3485124106e+00	 1.2231310476e+00	-1.6570534387e+00
 1.3365345639e+00	 1.2362082176e+00	-1.7006098606e+00
 1.3244276496e+00	 1.2491704859e+00	-1.7415242644e+00
 1.3121933137e+00	 1.2620159630e+00	-1.7799112207e+00
 1.2998332396e+00	 1.2747427914e+00	-1.8158852624e+00
 1.2873491471e+00	 1.2873491471e+00	-1.8495604294e+00
 1.2747427914e+00	 1.2998332396e+00	-1.8810498206e+00
 1.2620159630e+00	 1.3121933137e+00	-1.9104651538e+00
 1.2491704859e+00	 1.3244276496e+00	-1.9379163310e+00
 1.2362082176e+00	 1.3365345639e+00	-1.9635110089e+00
 1.2231310476e+00	 1.3485124106e+00	-1.9873541714e+00
 1.3550486804e+00	 1.2290595912e+00	-1.6564264098e+00
 1.3430127768e+00	 1.2422001465e+00	-1.6995494039e+00
 1.3308471800e+00	 1.2552252432e+00	-1.7399026228e+00
 1.3185535440e+00	 1.2681329825e+00	-1.7776492712e+00
 1.3061335604e+00	 1.2809214982e+00	-1.8129521205e+00
 1.2935889571e+00	 1.2935889571e+00	-1.8459729948e+00
 1.2809214982e+00	 1.3061335604e+00	-1.8768722666e+00
 1.2681329825e+00	 1.3185535440e+00	-1.9058083612e+00
 1.2552252432e+00	 1.3308471800e+00	-1.9329372673e+00
 1.2422001465e+00	 1.3430127768e+00	-1.9584120541e+00
 1.2290595912e+00	 1.3550486804e+00	-1.9823823917e+00
 1.3615849724e+00	 1.2349881549e+00	-1.6556146038e+00
 1.3494910117e+00	 1.2481920957e+00	-1.6983456420e+00
 1.3372667322e+00	 1.2612800210e+00	-1.7381918253e+00
 1.3249137960e+00	 1.2742500229e+00	-1.7753566197e+00
 1.3124339026e+00	 1.2871002260e+00	-1.8100428139e+00
 1.2998287885e+00	 1.2998287885e+00	-1.8424519602e+00
 1.2871002260e+00	 1.3124339026e+00	-1.8727838249e+00
 1.2742500229e+00	 1.3249137960e+00	-1.9012358486e+00
 1.2612800210e+00	 1.3372667322e+00	-1.9280026141e+00
 1.2481920957e+00	 1.3494910117e+00	-1.9532753207e+00
 1.2349881549e+00	 1.3615849724e+00	-1.9772412637e+00
 1.3681212829e+00	 1.2409167354e+00	-1.6545412926e+00
 1.3559692650e+00	 1.2541840620e+00	-1.6969150030e+00
 1.3436863027e+00	 1.2673348161e+00	-1.7363032855e+00
 1.3312740660e+00	 1.2803670806e+00	-1.7729416159e+00
 1.3187342626e+00	 1.2932789713e+00	-1.8070647009e+00
 1.3060686374e+00	 1.3060686374e+00	-1.8389058836e+00
 1.2932789713e+00	 1.3187342626e+00	-1.8686965617e+00
 1.2803670806e+00	 1.3312740660e+00	-1.8966656149e+00
 1.2673348161e+00	 1.3436863027e+00	-1.9230388408e+00
 1.2541840620e+00	 1.3559692650e+00	-1.9480383982e+00
 1.2409167354e+00	 1.3681212829e+00	-1.9718822556e+00
 1.3746576083e+00	 1.2468453293e+00	-1.6531324972e+00
 1.3624475330e+00	 1.2601760418e+00	-1.6951767727e+00
 1.3501058877e+00	 1.2733896248e+00	-1.7341513466e+00
 1.3376343504e+00	 1.2864841522e+00	-1.7703155746e+00
 1.3250346370e+00	 1.2994577307e+00	-1.8039280993e+00
 1.3123085006e+00	 1.3123085006e+00	-1.8352462349e+00
 1.2994577307e+00	 1.3250346370e+00	-1.8645253631e+00
 1.2864841522e+00	 1.3376343504e+00	-1.8920183393e+00
 1.2733896248e+00	 1.3501058877e+00	-1.9179749085e+00
 1.2601760418e+00	 1.3624475330e+00	-1.9426411274e+00
 1.2468453293e+00	 1.3746576083e+00	-1.9662587937e+00
 1.3811939448e+00	 1.2527739333e+00	-1.6513169486e+00
 1.3689258119e+00	 1.2661680317e+00	-1.6930530517e+00
 1.3565254836e+00	 1.2794444438e+00	-1.7316532384e+00
 1.3439946455e+00	 1.2926012342e+00	-1.7673927307e+00
 1.3313350220e+00	 1.3056365005e+00	-1.8005462425e+00
 1.3185483743e+00	 1.3185483743e+00	-1.8313873533e+00
 1.3056365005e+00	 1.3313350220e+00	-1.8601878941e+00
 1.2926012342e+00	 1.3439946455e+00	-1.8872173443e+00
 1.2794444438e+00	 1.3565254836e+00	-1.9127422375e+00
 1.2661680317e+00	 1.3689258119e+00	-1.9370255747e+00
 1.2527739333e+00	 1.3811939448e+00	-1.9603262433e+00
 1.3877302886e+00	 1.2587025440e+00	-1.6490260471e+00
 1.3754040983e+00	 1.2721600285e+00	-1.6904687137e+00
 1.3629450867e+00	 1.2854992697e+00	-1.7287290327e+00
 1.3503549480e+00	 1.2987183231e+00	-1.7640901953e+00
 1.3376354142e+00	 1.3118152773e+00	-1.7968352352e+00
 1.3247882551e+00	 1.3247882551e+00	-1.8272464040e+00
 1.3118152773e+00	 1.3376354142e+00	-1.8556045584e+00
 1.2987183231e+00	 1.3503549480e+00	-1.8821885588e+00
 1.2854992697e+00	 1.3629450867e+00	-1.9072746758e+00
 1.2721600285e+00	 1.3754040983e+00	-1.9311360057e+00
 1.2587025440e+00	 1.3877302886e+00	-1.9540418898e+00
 1.3942666362e+00	 1.2646311581e+00	-1.6461938231e+00
 1.3818823883e+00	 1.2781520287e+00	-1.6873513631e+00
 1.3693646936e+00	 1.2915540990e+00	-1.7253016003e+00
 1.3567152540e+00	 1.3048354155e+00	-1.7603279110e+00
 1.3439358099e+00	 1.3179940577e+00	-1.7927140095e+00
 1.3310281395e+00	 1.3310281395e+00	-1.8227433364e+00
 1.3179940577e+00	 1.3439358099e+00	-1.8506984590e+00
 1.3048354155e+00	 1.3567152540e+00	-1.8768604818e+00
 1.2915540990e+00	 1.3693646936e+00	-1.9015084667e+00
 1.2781520287e+00	 1.3818823883e+00	-1.9249188592e+00
 1.2646311581e+00	 1.3942666362e+00	-1.9473649199e+00
 1.2053455716e+00	 1.3289037716e+00	-2.0017684847e+00
 1.1923450022e+00	 1.3405806439e+00	-2.0188120324e+00
 1.1792350016e+00	 1.3521271287e+00	-2.0274480252e+00
 1.1660175436e+00	 1.3635416964e+00	-2.0308445906e+00
 1.1526946297e+00	 1.3748228572e+00	-2.0358462037e+00
 1.1392682885e+00	 1.3859691615e+00	-2.0416712974e+00
 1.1257405746e+00	 1.3969792004e+00	-2.0473466041e+00
 1.1121135673e+00	 1.4078516063e+00	-2.0519563518e+00
 1.0983893700e+00	 1.4185850537e+00	-2.0546399938e+00
 1.0845701087e+00	 1.4291782595e+00	-2.0545897089e+00
 1.0706579313e+00	 1.4396299835e+00	-2.0510476997e+00
 1.2112740345e+00	 1.3354399525e+00	-1.9969937105e+00
 1.1982095221e+00	 1.3471742572e+00	-2.0151662248e+00
 1.1850350403e+00	 1.3587775331e+00	-2.0254905337e+00
 1.1717525725e+00	 1.3702482431e+00	-2.0282185030e+00
 1.1583641302e+00	 1.3815848900e+00	-2.0309895062e+00
 1.1448717519e+00	 1.3927860171e+00	-2.0351144468e+00
 1.1312775022e+00	 1.4038502086e+00	-2.0395642137e+00
 1.1175834709e+00	 1.4147760902e+00	-2.0433699624e+00
 1.1037917714e+00	 1.4255623298e+00	-2.0456207754e+00
 1.0899045405e+00	 1.4362076381e+00	-2.0454610828e+00
 1.0759239363e+00	 1.4467107686e+00	-2.0420878730e+00
 1.2172025276e+00	 1.3419761667e+00	-1.9922071104e+00
 1.2040740719e+00	 1.3537679042e+00	-2.0112859125e+00
 1.1908351086e+00	 1.3654279714e+00	-2.0230504524e+00
 1.1774876307e+00	 1.3769548240e+00	-2.0270002593e+00
 1.1640336596e+00	 1.3883469573e+00	-2.0273994291e+00
 1.1504752439e+00	 1.3996029075e+00	-2.0296572749e+00
 1.1368144581e+00	 1.4107212519e+00	-2.0327284038e+00
 1.1230534023e+00	 1.4217006094e+00	-2.0355997605e+00
 1.1091942004e+00	 1.4325396415e+00	-2.0373186113e+00
 1.0952389994e+00	 1.4432370525e+00	-2.0369898704e+00
 1.0811899682e+00	 1.4537915898e+00	-2.0337732083e+00
 1.2231310476e+00	 1.3485124106e+00	-1.9873541714e+00
 1.2099386484e+00	 1.3603615810e+00	-2.0071310858e+00
 1.1966352032e+00	 1.3720784399e+00	-2.0200985655e+00
 1.1832227149e+00	 1.3836614353e+00	-2.0257384619e+00
 1.1697032148e+00	 1.3951090553e+00	-2.0249285881e+00
 1.1560787612e+00	 1.4064198288e+00	-2.0251550678e+00
 1.1423514391e+00	 1.4175923263e+00	-2.0266927503e+00
 1.1285233586e+00	 1.4286251600e+00	-2.0284931215e+00
 1.1145966539e+00	 1.4395169849e+00	-2.0295700823e+00
 1.1005734825e+00	 1.4502664987e+00	-2.0289971640e+00
 1.0864560239e+00	 1.4608724430e+00	-2.0259045193e+00
 1.2290595912e+00	 1.3550486804e+00	-1.9823823917e+00
 1.2158032480e+00	 1.3669552840e+00	-2.0026634339e+00
 1.2024353208e+00	 1.3787289348e+00	-2.0166071146e+00
 1.1889578219e+00	 1.3903680732e+00	-2.0236875867e+00
 1.1753727924e+00	 1.4018711800e+00	-2.0234303736e+00
 1.1616823008e+00	 1.4132367772e+00	-2.0214637808e+00
 1.1478884421e+00	 1.4244634280e+00	-2.0213114643e+00
 1.1339933365e+00	 1.4355497381e+00	-2.0218980978e+00
 1.1199991288e+00	 1.4464943559e+00	-2.0222125650e+00
 1.1059079868e+00	 1.4572959729e+00	-2.0213050505e+00
 1.0917221006e+00	 1.4679533244e+00	-2.0182838979e+00
 1.2349881549e+00	 1.3615849724e+00	-1.9772412637e+00
 1.2216678676e+00	 1.3735490094e+00	-1.9978463358e+00
 1.2082354581e+00	 1.3853794522e+00	-2.0125497949e+00
 1.1946929483e+00	 1.3970747339e+00	-2.0208279414e+00
 1.1810423893e+00	 1.4086333278e+00	-2.0221710635e+00
 1.1672858595e+00	 1.4200537487e+00	-2.0184402527e+00
 1.1534254639e+00	 1.4313345531e+00	-2.0164396032e+00
 1.1394633331e+00	 1.4424743398e+00	-2.0156636222e+00
 1.1254016221e+00	 1.4534717506e+00	-2.0150844268e+00
 1.1112425092e+00	 1.4643254709e+00	-2.0137367968e+00
 1.0969881951e+00	 1.4750342299e+00	-2.0107148854e+00
 1.2409167354e+00	 1.3681212829e+00	-1.9718822556e+00
 1.2275325039e+00	 1.3801427535e+00	-1.9926448496e+00
 1.2140356118e+00	 1.3920299886e+00	-2.0079017514e+00
 1.2004280910e+00	 1.4037814136e+00	-2.0171411230e+00
 1.1867120023e+00	 1.4153954947e+00	-2.0198648294e+00
 1.1728894340e+00	 1.4268707396e+00	-2.0159424202e+00
 1.1589625014e+00	 1.4382056976e+00	-2.0119332796e+00
 1.1449333451e+00	 1.4493989610e+00	-2.0096397118e+00
 1.1308041306e+00	 1.4604491651e+00	-2.0080252213e+00
 1.1165770467e+00	 1.4713549888e+00	-2.0061170341e+00
 1.1022543046e+00	 1.4821151554e+00	-2.0030026448e+00
 1.2468453293e+00	 1.3746576083e+00	-1.9662587937e+00
 1.2333971534e+00	 1.3867365125e+00	-1.9870257022e+00
 1.2198357787e+00	 1.3986805400e+00	-2.0026395737e+00
 1.2061632467e+00	 1.4104881085e+00	-2.0126100175e+00
 1.1923816281e+00	 1.4221576770e+00	-2.0164597760e+00
 1.1784930213e+00	 1.4336877458e+00	-2.0137250491e+00
 1.1644995514e+00	 1.4450768577e+00	-2.0076498706e+00
 1.1504033696e+00	 1.4563235979e+00	-2.0036776703e+00
 1.1362066515e+00	 1.4674265954e+00	-2.0008758825e+00
 1.1219115964e+00	 1.4783845227e+00	-1.9982719417e+00
 1.1075204260e+00	 1.4891960970e+00	-1.9949541318e+00
 1.2527739333e+00	 1.3811939448e+00	-1.9603262433e+00
 1.2392618129e+00	 1.3933302828e+00	-1.9809572772e+00
 1.2256359554e+00	 1.4053311027e+00	-1.9967412903e+00
 1.2118984122e+00	 1.4171948148e+00	-2.0072187979e+00
 1.1980512636e+00	 1.4289198707e+00	-2.0119425970e+00
 1.1840966180e+00	 1.4405047637e+00	-2.0104780691e+00
 1.1700366109e+00	 1.4519480295e+00	-2.0034482257e+00
 1.1558734033e+00	 1.4632482467e+00	-1.9976302899e+00
 1.1416091815e+00	 1.4744040376e+00	-1.9934789186e+00
 1.1272461550e+00	 1.4854140686e+00	-1.9900294309e+00
 1.1127865563e+00	 1.4962770506e+00	-1.9863782663e+00
 1.2587025440e+00	 1.3877302886e+00	-1.9540418898e+00
 1.2451264790e+00	 1.3999240605e+00	-1.9744096041e+00
 1.2314361387e+00	 1.4119816729e+00	-1.9901863627e+00
 1.2176335841e+00	 1.4239015287e+00	-2.0009529223e+00
 1.2037209055e+00	 1.4356820722e+00	-2.0063011902e+00
 1.1897002211e+00	 1.4473217893e+00	-2.0058344952e+00
 1.1755736766e+00	 1.4588192090e+00	-1.9991888734e+00
 1.1613434433e+00	 1.4701729032e+00	-1.9913520525e+00
 1.1470117176e+00	 1.4813814877e+00	-1.9856786051e+00
 1.1325807198e+00	 1.4924436224e+00	-1.9812193279e+00
 1.1180526927e+00	 1.5033580123e+00	-1.9770861039e+00
 1.2646311581e+00	 1.3942666362e+00	-1.9473649199e+00
 1.2509911485e+00	 1.4065178420e+00	-1.9673543448e+00
 1.2372363253e+00	 1.4186322469e+00	-1.9829556782e+00
 1.2233687593e+00	 1.4306082465e+00	-1.9937991308e+00
 1.2093905506e+00	 1.4424442774e+00	-1.9995246575e+00
 1.1953038274e+00	 1.4541388188e+00	-1.9997821830e+00
 1.1811107454e+00	 1.4656903925e+00	-1.9942317965e+00
 1.1668134863e+00	 1.4770975637e+00	-1.9846993302e+00
 1.1524142568e+00	 1.4883589417e+00	-1.9773211775e+00
 1.1379152875e+00	 1.4994731802e+00	-1.9716735572e+00
 1.1233188320e+00	 1.5104389779e+00	-1.9668910069e+00
 1.0706579313e+00	 1.4396299835e+00	-2.0510476997e+00
 1.0566573927e+00	 1.4499372895e+00	-2.0442351410e+00
 1.0425683162e+00	 1.4601008186e+00	-2.0349089413e+00
 1.0283928993e+00	 1.4701194682e+00	-2.0231618016e+00
 1.0141333570e+00	 1.4799921803e+00	-2.0090943421e+00
 9.9979192022e-01	 1.4897179414e+00	-1.9928112195e+00
 9.8537083540e-01	 1.4992957834e+00	-1.9744172708e+00
 9.7087236277e-01	 1.5087247831e+00	-1.9540137128e+00
 9.5629877555e-01	 1.5180040630e+00	-1.9316944295e+00
 9.4165235869e-01	 1.5271327913e+00	-1.9075423727e+00
 9.2693540778e-01	 1.5361101821e+00	-1.8816261063e+00
 1.0759239363e+00	 1.4467107686e+00	-2.0420878730e+00
 1.0618545364e+00	 1.4570687708e+00	-2.0355102268e+00
 1.0476961631e+00	 1.4672822890e+00	-2.0263105514e+00
 1.0334510248e+00	 1.4773502151e+00	-2.0145939823e+00
 1.0191213472e+00	 1.4872714859e+00	-2.0004728568e+00
 1.0047093725e+00	 1.4970450829e+00	-1.9840626603e+00
 9.9021735790e-01	 1.5066700332e+00	-1.9654780017e+00
 9.7564757489e-01	 1.5161454092e+00	-1.9448286491e+00
 9.6100230784e-01	 1.5254703291e+00	-1.9222156563e+00
 9.4628385293e-01	 1.5346439568e+00	-1.8977276102e+00
 9.3149451705e-01	 1.5436655027e+00	-1.8714370274e+00
 1.0811899682e+00	 1.4537915898e+00	-2.0337732083e+00
 1.0670517066e+00	 1.4642002885e+00	-2.0274562798e+00
 1.0528240362e+00	 1.4744637960e+00	-2.0184271655e+00
 1.0385091761e+00	 1.4845809988e+00	-2.0067956267e+00
 1.0241093629e+00	 1.4945508286e+00	-1.9926783164e+00
 1.0096268498e+00	 1.5043722618e+00	-1.9761945575e+00
 9.9506390513e-01	 1.5140443207e+00	-1.9574621516e+00
 9.8042281137e-01	 1.5235660733e+00	-1.9365932515e+00
 9.6570586411e-01	 1.5329366332e+00	-1.9136903286e+00
 9.5091537079e-01	 1.5421551607e+00	-1.8888422662e+00
 9.3605364958e-01	 1.5512208618e+00	-1.8621206086e+00
 1.0864560239e+00	 1.4608724430e+00	-2.0259045193e+00
 1.0722489004e+00	 1.4713318385e+00	-2.0198537239e+00
 1.0579519325e+00	 1.4816453355e+00	-2.0110235262e+00
 1.0435673503e+00	 1.4918118154e+00	-1.9995206343e+00
 1.0290974013e+00	 1.5018302042e+00	-1.9854587423e+00
 1.0145443495e+00	 1.5116994739e+00	-1.9689541418e+00
 9.9991047433e-01	 1.5214186416e+00	-1.9501213668e+00
 9.8519806950e-01	 1.5309867709e+00	-1.9290689029e+00
 9.7040944171e-01	 1.5404029713e+00	-1.9058949970e+00
 9.5554690965e-01	 1.5496663985e+00	-1.8806835958e+00
 9.4061280278e-01	 1.5587762552e+00	-1.8535004467e+00
 1.0917221006e+00	 1.4679533244e+00	-2.0182838979e+00
 1.0774461148e+00	 1.4784634168e+00	-2.0124845383e+00
 1.0630798492e+00	 1.4888269036e+00	-2.0038661106e+00
 1.0486255446e+00	 1.4990426606e+00	-1.9925247195e+00
 1.0340854594e+00	 1.5091096088e+00	-1.9785639502e+00
 1.0194618686e+00	 1.5190267150e+00	-1.9620903163e+00
 1.0047570627e+00	 1.5287929918e+00	-1.9432087406e+00
 9.8997334657e-01	 1.5384074980e+00	-1.9220181038e+00
 9.7511303797e-01	 1.5478693389e+00	-1.8986068948e+00
 9.6017846689e-01	 1.5571776662e+00	-1.8730489954e+00
 9.4517197406e-01	 1.5663316785e+00	-1.8453996324e+00
 1.0969881951e+00	 1.4750342299e+00	-2.0107148854e+00
 1.0826433468e+00	 1.4855950194e+00	-2.0051324160e+00
 1.0682077833e+00	 1.4960084961e+00	-1.9967232783e+00
 1.0536837560e+00	 1.5062735304e+00	-1.9855655503e+00
 1.0390735344e+00	 1.5163890381e+00	-1.9717456825e+00
 1.0243794045e+00	 1.5263539811e+00	-1.9553537836e+00
 1.0096036677e+00	 1.5361673670e+00	-1.9364789389e+00
 9.9474863987e-01	 1.5458282504e+00	-1.9152045979e+00
 9.7981665023e-01	 1.5553357319e+00	-1.8916040665e+00
 9.6481003987e-01	 1.5646889594e+00	-1.8657361373e+00
 9.4973116085e-01	 1.5738871276e+00	-1.8376408912e+00
 1.1022543046e+00	 1.4821151554e+00	-2.0030026448e+00
 1.0878405936e+00	 1.4927266421e+00	-1.9975829224e+00
 1.0733357319e+00	 1.5031901089e+00	-1.9893654185e+00
 1.0587419819e+00	 1.5135044207e+00	-1.9784028871e+00
 1.0440616236e+00	 1.5236684881e+00	-1.9647577407e+00
 1.0292969543e+00	 1.5336812679e+00	-1.9484971750e+00
 1.0144502863e+00	 1.5435417632e+00	-1.9296883262e+00
 9.9952394671e-01	 1.5532490237e+00	-1.9083934983e+00
 9.8452027581e-01	 1.5628021461e+00	-1.8846654966e+00
 9.6944162597e-01	 1.5722002739e+00	-1.8585431028e+00
 9.5429036055e-01	 1.5814425980e+00	-1.8300467252e+00
 1.1075204260e+00	 1.4891960970e+00	-1.9949541318e+00
 1.0930378522e+00	 1.4998582811e+00	-1.9896236544e+00
 1.0784636922e+00	 1.5103717380e+00	-1.9815650991e+00
 1.0638002191e+00	 1.5207353274e+00	-1.9707987230e+00
 1.0490497242e+00	 1.5309479545e+00	-1.9573561185e+00
 1.0342145152e+00	 1.5410085713e+00	-1.9412751783e+00
 1.0192969159e+00	 1.5509161760e+00	-1.9225950924e+00
 1.0042992644e+00	 1.5606698139e+00	-1.9013514151e+00
 9.8922391205e-01	 1.5702685772e+00	-1.8775712394e+00
 9.7407322258e-01	 1.5797116054e+00	-1.8512685166e+00
 9.5884957059e-01	 1.5889980856e+00	-1.8224395537e+00
 1.1127865563e+00	 1.4962770506e+00	-1.9863782663e+00
 1.0982351196e+00	 1.5069899321e+00	-1.9810443994e+00
 1.0835916612e+00	 1.5175533793e+00	-1.9730972150e+00
 1.0688584650e+00	 1.5279662463e+00	-1.9625174238e+00
 1.0540378332e+00	 1.5382274334e+00	-1.9492991361e+00
 1.0391320845e+00	 1.5483358872e+00	-1.9334446683e+00
 1.0241435538e+00	 1.5582906014e+00	-1.9149593803e+00
 1.0090745901e+00	 1.5680906167e+00	-1.8938465818e+00
 9.9392755629e-01	 1.5777350210e+00	-1.8701025479e+00
 9.7870482706e-01	 1.5872229497e+00	-1.8437116809e+00
 9.6340878838e-01	 1.5965535860e+00	-1.8146418545e+00
 1.1180526927e+00	 1.5033580123e+00	-1.9770861039e+00
 1.1034323929e+00	 1.5141215913e+00	-1.9716372944e+00
 1.0887196359e+00	 1.5247350288e+00	-1.9637391370e+00
 1.0739167166e+00	 1.5351971735e+00	-1.9533258685e+00
 1.0590259478e+00	 1.5455069204e+00	-1.9403475740e+00
 1.0440496594e+00	 1.5556632114e+00	-1.9247648364e+00
 1.0289901971e+00	 1.5656650352e+00	-1.9065434134e+00
 1.0138499213e+00	 1.5755114279e+00	-1.8856489841e+00
 9.9863120585e-01	 1.5852014733e+00	-1.8620420041e+00
 9.8333643678e-01	 1.5947343026e+00	-1.8356727091e+00
 9.6796801134e-01	 1.6041090950e+00	-1.8064763041e+00
 1.1233188320e+00	 1.5104389779e+00	-1.9668910069e+00
 1.1086296691e+00	 1.5212532544e+00	-1.9611969857e+00
 1.0938476136e+00	 1.5319166823e+00	-1.9532708615e+00
 1.0789749711e+00	 1.5424281048e+00	-1.9429935909e+00
 1.0640140653e+00	 1.5527864116e+00	-1.9302648087e+00
 1.0489672371e+00	 1.5629905397e+00	-1.9149973214e+00
 1.0338368432e+00	 1.5730394731e+00	-1.8971116244e+00
 1.0186252552e+00	 1.5829322433e+00	-1.8765304874e+00
 1.0033348581e+00	 1.5926679297e+00	-1.8531736490e+00
 9.8796804913e-01	 1.6022456596e+00	-1.8269526607e+00
 9.7252723688e-01	 1.6116646083e+00	-1.7977659183e+00
 9.2693540778e-01	 1.5361101821e+00	-1.8816261063e+00
 9.1215022821e-01	 1.5449354956e+00	-1.8543929860e+00
 8.9729913487e-01	 1.5536080398e+00	-1.8261239877e+00
 8.8238445016e-01	 1.5621271689e+00	-1.7966164934e+00
 8.6740850250e-01	 1.5704922835e+00	-1.7656542903e+00
 8.5237362528e-01	 1.5787028302e+00	-1.7330054906e+00
 8.3728215572e-01	 1.5867583015e+00	-1.6984207027e+00
 8.2213643373e-01	 1.5946582360e+00	-1.6616314704e+00
 8.0693880086e-01	 1.6024022183e+00	-1.6223489908e+00
 7.9169159915e-01	 1.6099898785e+00	-1.5802631228e+00
 7.7639717010e-01	 1.6174208922e+00	-1.5350416946e+00
 9.3149451705e-01	 1.5436655027e+00	-1.8714370274e+00
 9.1663661694e-01	 1.5525342233e+00	-1.8438749514e+00
 9.0171247886e-01	 1.5612494232e+00	-1.8153902078e+00
 8.8672443663e-01	 1.5698104534e+00	-1.7857599778e+00
 8.7167483014e-01	 1.5782167117e+00	-1.7547490243e+00
 8.5656600424e-01	 1.5864676417e+00	-1.7221075066e+00
 8.4140030765e-01	 1.5945627336e+00	-1.6875690525e+00
 8.2618009180e-01	 1.6025015238e+00	-1.6508491055e+00
 8.1090770974e-01	 1.6102835947e+00	-1.6116435598e+00
 7.9558551504e-01	 1.6179085745e+00	-1.5696276940e+00
 7.8021586071e-01	 1.6253761376e+00	-1.5244554130e+00
 9.3605364958e-01	 1.5512208618e+00	-1.8621206086e+00
 9.2112302855e-01	 1.5601329897e+00	-1.8341552431e+00
 9.0612584536e-01	 1.5688908455e+00	-1.8053838117e+00
 8.9106444524e-01	 1.5774937771e+00	-1.7755669201e+00
 8.7594117953e-01	 1.5859411792e+00	-1.7444532988e+00
 8.6075840458e-01	 1.5942324928e+00	-1.7117775092e+00
 8.4551848059e-01	 1.6023672056e+00	-1.6772579160e+00
 8.3022377049e-01	 1.6103448516e+00	-1.6405949434e+00
 8.1487663886e-01	 1.6181650112e+00	-1.6014696272e+00
 7.9947945079e-01	 1.6258273110e+00	-1.5595424766e+00
 7.8403457080e-01	 1.6333314235e+00	-1.5144526539e+00
 9.4061280278e-01	 1.5587762552e+00	-1.8535004467e+00
 9.2560946050e-01	 1.5677317906e+00	-1.8250828765e+00
 9.1053923186e-01	 1.5765323025e+00	-1.7959716722e+00
 8.9540447352e-01	 1.5851771357e+00	-1.7659144769e+00
 8.8020754827e-01	 1.5936656817e+00	-1.7346469717e+00
 8.6495082393e-01	 1.6019973791e+00	-1.7018904719e+00
 8.4963667220e-01	 1.6101717129e+00	-1.6673497983e+00
 8.3426746751e-01	 1.6181882149e+00	-1.6307114419e+00
 8.1884558597e-01	 1.6260464635e+00	-1.5916420351e+00
 8.0337340419e-01	 1.6337460834e+00	-1.5497871432e+00
 7.8785329820e-01	 1.6412867455e+00	-1.5047703849e+00
 9.4517197406e-01	 1.5663316785e+00	-1.8453996324e+00
 9.3009591025e-01	 1.5753306217e+00	-1.8165057330e+00
 9.1495263588e-01	 1.5841737898e+00	-1.7870190507e+00
 8.9974451902e-01	 1.5928605247e+00	-1.7566778662e+00
 8.8447393394e-01	 1.6013902149e+00	-1.7252077877e+00
 8.6914325991e-01	 1.6097622962e+00	-1.6923192335e+00
 8.5375488014e-01	 1.6179762512e+00	-1.6577052019e+00
 8.3831118058e-01	 1.6260316094e+00	-1.6210393436e+00
 8.2281454883e-01	 1.6339279471e+00	-1.5819743531e+00
 8.0726737304e-01	 1.6416648872e+00	-1.5401406922e+00
 7.9167204075e-01	 1.6492420990e+00	-1.4951456542e+00
 9.4973116085e-01	 1.5738871276e+00	-1.8376408912e+00
 9.3458237525e-01	 1.5829294785e+00	-1.8082707090e+00
 9.1936605489e-01	 1.5918153031e+00	-1.7783897489e+00
 9.0408457928e-01	 1.6005439398e+00	-1.7477305197e+00
 8.8874033411e-01	 1.6091147744e+00	-1.7160115265e+00
 8.7333571015e-01	 1.6175272397e+00	-1.6829346392e+00
 8.5787310209e-01	 1.6257808160e+00	-1.6481827573e+00
 8.4235490739e-01	 1.6338750305e+00	-1.6114177916e+00
 8.2678352519e-01	 1.6418094574e+00	-1.5722789760e+00
 8.1116135513e-01	 1.6495837179e+00	-1.5303815242e+00
 7.9549079628e-01	 1.6571974796e+00	-1.4853156416e+00
 9.5429036055e-01	 1.5814425980e+00	-1.8300467252e+00
 9.3906885296e-01	 1.5905283569e+00	-1.8002238636e+00
 9.2377948642e-01	 1.5994568381e+00	-1.7699462606e+00
 9.0842465183e-01	 1.6082273767e+00	-1.7389442339e+00
 8.9300674637e-01	 1.6168393557e+00	-1.7069321511e+00
 8.7752817226e-01	 1.6252922052e+00	-1.6736056809e+00
 8.6199133570e-01	 1.6335854030e+00	-1.6386393526e+00
 8.4639864566e-01	 1.6417184739e+00	-1.6016844453e+00
 8.3075251279e-01	 1.6496909901e+00	-1.5623672213e+00
 8.1505534825e-01	 1.6575025710e+00	-1.5202875180e+00
 7.9930956263e-01	 1.6651528827e+00	-1.4750177101e+00
 9.5884957059e-01	 1.5889980856e+00	-1.8224395537e+00
 9.4355534085e-01	 1.5981272526e+00	-1.7922105665e+00
 9.2819292795e-01	 1.6070983903e+00	-1.7615499226e+00
 9.1276473423e-01	 1.6159108311e+00	-1.7301893210e+00
 8.9727316830e-01	 1.6245639546e+00	-1.6978419541e+00
 8.8172064388e-01	 1.6330571883e+00	-1.6641996374e+00
 8.6610957865e-01	 1.6413900076e+00	-1.6289302632e+00
 8.5044239310e-01	 1.6495619350e+00	-1.5916755959e+00
 8.3472150939e-01	 1.6575725407e+00	-1.5520494279e+00
 8.1894935020e-01	 1.6654214421e+00	-1.5096361087e+00
 8.0312833764e-01	 1.6731083039e+00	-1.4639894592e+00
 9.6340878838e-01	 1.5965535860e+00	-1.8146418545e+00
 9.4804183636e-01	 1.6057261611e+00	-1.7840756451e+00
 9.3260637698e-01	 1.6147399556e+00	-1.7530610644e+00
 9.1710482400e-01	 1.6235942984e+00	-1.7213347587e+00
 9.0153959748e-01	 1.6322885665e+00	-1.6886117042e+00
 8.8591312262e-01	 1.6408221847e+00	-1.6545822135e+00
 8.7022782860e-01	 1.6491946255e+00	-1.6189092802e+00
 8.5448614741e-01	 1.6574054094e+00	-1.5812262811e+00
 8.3869051273e-01	 1.6654541046e+00	-1.5411350540e+00
 8.2284335877e-01	 1.6733403267e+00	-1.4982043651e+00
 8.0694711914e-01	 1.6810637386e+00	-1.4519687794e+00
 9.6796801134e-01	 1.6041090950e+00	-1.8064763041e+00
 9.5252833696e-01	 1.6133250783e+00	-1.7756635311e+00
 9.3701983101e-01	 1.6223815295e+00	-1.7443391581e+00
 9.2144491869e-01	 1.6312777745e+00	-1.7122483389e+00
 9.0580603150e-01	 1.6400131873e+00	-1.6791107914e+00
 8.9010560612e-01	 1.6485871898e+00	-1.6446176780e+00
 8.7434608322e-01	 1.6569992522e+00	-1.6084288391e+00
 8.5852990631e-01	 1.6652488928e+00	-1.5701704008e+00
 8.4265952057e-01	 1.6733356775e+00	-1.5294327754e+00
 8.2673737175e-01	 1.6812592202e+00	-1.4857690686e+00
 8.1076590497e-01	 1.6890191823e+00	-1.4386939077e+00
 9.7252723688e-01	 1.6116646083e+00	-1.7977659183e+00
 9.5701484010e-01	 1.6209239997e+00	-1.7668184067e+00
 9.4143328755e-01	 1.6300231078e+00	-1.7352429667e+00
 9.2578501584e-01	 1.6389612550e+00	-1.7027968159e+00
 9.1007246793e-01	 1.6477378124e+00	-1.6692073715e+00
 8.9429809199e-01	 1.6563521993e+00	-1.6341690020e+00
 8.7846434017e-01	 1.6648038834e+00	-1.5973401473e+00
 8.6257366750e-01	 1.6730923806e+00	-1.5583408311e+00
 8.4662853067e-01	 1.6812172549e+00	-1.5167505841e+00
 8.3063138694e-01	 1.6891781183e+00	-1.4721067920e+00
 8.1458469296e-01	 1.6969746305e+00	-1.4239034840e+00
 7.7639717010e-01	 1.6174208922e+00	-1.5350416946e+00
 7.6105524190e-01	 1.6246962038e+00	-1.4891534874e+00
 7.4567074850e-01	 1.6318143016e+00	-1.4452543656e+00
 7.3024602370e-01	 1.6387749955e+00	-1.4032347522e+00
 7.1478339657e-01	 1.6455781398e+00	-1.3629621788e+00
 6.9928519036e-01	 1.6522236333e+00	-1.3242817995e+00
 6.8375372154e-01	 1.6587114185e+00	-1.2870172131e+00
 6.6819129874e-01	 1.6650414817e+00	-1.2509715855e+00
 6.5260022188e-01	 1.6712138520e+00	-1.2159290651e+00
 6.3698278107e-01	 1.6772286017e+00	-1.1816564799e+00
 6.2134125579e-01	 1.6830858451e+00	-1.1479053042e+00
 7.8021586071e-01	 1.6253761376e+00	-1.5244554130e+00
 7.6479847361e-01	 1.6326872326e+00	-1.4785881526e+00
 7.4933831195e-01	 1.6398403406e+00	-1.4346865299e+00
 7.3383772102e-01	 1.6468352705e+00	-1.3926417619e+00
 7.1829904134e-01	 1.6536718759e+00	-1.3523169879e+00
 7.0272460758e-01	 1.6603500551e+00	-1.3135478239e+00
 6.8711674760e-01	 1.6668697503e+00	-1.2761432404e+00
 6.7147778141e-01	 1.6732309477e+00	-1.2398867591e+00
 6.5581002021e-01	 1.6794336767e+00	-1.2045379577e+00
 6.4011576540e-01	 1.6854780098e+00	-1.1698342735e+00
 6.2439730766e-01	 1.6913640619e+00	-1.1354930910e+00
 7.8403457080e-01	 1.6333314235e+00	-1.5144526539e+00
 7.6854172442e-01	 1.6406783021e+00	-1.4686222598e+00
 7.5300589411e-01	 1.6478664205e+00	-1.4246942806e+00
 7.3742943666e-01	 1.6548955866e+00	-1.3825744859e+00
 7.2181470403e-01	 1.6617656533e+00	-1.3421361787e+00
 7.0616404233e-01	 1.6684765183e+00	-1.3032207565e+00
 6.9047979081e-01	 1.6750281237e+00	-1.2656386134e+00
 6.7476428084e-01	 1.6814204555e+00	-1.2291703766e+00
 6.5901983491e-01	 1.6876535434e+00	-1.1935684682e+00
 6.4324876571e-01	 1.6937274600e+00	-1.1585589803e+00
 6.2745337511e-01	 1.6996423210e+00	-1.1238438518e+00
 7.8785329820e-01	 1.6412867455e+00	-1.5047703849e+00
 7.7228499219e-01	 1.6486694079e+00	-1.4589533032e+00
 7.5667349290e-01	 1.6558925368e+00	-1.4149494901e+00
 7.4102116858e-01	 1.6629559392e+00	-1.3726927939e+00
 7.2533038267e-01	 1.6698594673e+00	-1.3320809955e+00
 7.0960349268e-01	 1.6766030184e+00	-1.2929763425e+00
 6.9384284927e-01	 1.6831865341e+00	-1.2552064433e+00
 6.7805079516e-01	 1.6896100005e+00	-1.2185655098e+00
 6.6222966416e-01	 1.6958734473e+00	-1.1828159437e+00
 6.4638178022e-01	 1.7019769476e+00	-1.1476902501e+00
 6.3050945642e-01	 1.7079206175e+00	-1.1128932690e+00
 7.9167204075e-01	 1.6492420990e+00	-1.4951456542e+00
 7.7602827481e-01	 1.6566605454e+00	-1.4492795620e+00
 7.6034110623e-01	 1.6639186849e+00	-1.4051252641e+00
 7.4461291475e-01	 1.6710163238e+00	-1.3626579881e+00
 7.2884607524e-01	 1.6779533135e+00	-1.3218140694e+00
 7.1304295667e-01	 1.6847295507e+00	-1.2824914288e+00
 6.9720592107e-01	 1.6913449769e+00	-1.2445504230e+00
 6.8133732252e-01	 1.6977995779e+00	-1.2078150641e+00
 6.6543950615e-01	 1.7040933838e+00	-1.1720745944e+00
 6.4951480716e-01	 1.7102264679e+00	-1.1370854076e+00
 6.3356554985e-01	 1.7161989469e+00	-1.1025733010e+00
 7.9549079628e-01	 1.6571974796e+00	-1.4853156416e+00
 7.7977157016e-01	 1.6646517100e+00	-1.4393001267e+00
 7.6400873204e-01	 1.6719448604e+00	-1.3948959514e+00
 7.4820467313e-01	 1.6790767358e+00	-1.3521328006e+00
 7.3236177978e-01	 1.6860471872e+00	-1.3109994106e+00
 7.1648243236e-01	 1.6928561106e+00	-1.2714439558e+00
 7.0056900431e-01	 1.6995034474e+00	-1.2333748268e+00
 6.8462386106e-01	 1.7059891832e+00	-1.1966617902e+00
 6.6864935905e-01	 1.7123133482e+00	-1.1611375226e+00
 6.5264784475e-01	 1.7184760163e+00	-1.1265995049e+00
 6.3662165367e-01	 1.7244773045e+00	-1.0928122631e+00
 7.9930956263e-01	 1.6651528827e+00	-1.4750177101e+00
 7.8351487611e-01	 1.6726428973e+00	-1.4287149279e+00
 7.6767636823e-01	 1.6799710586e+00	-1.3839371546e+00
 7.5179644169e-01	 1.6871371707e+00	-1.3407813940e+00
 7.3587749427e-01	 1.6941410838e+00	-1.2993024024e+00
 7.1992191779e-01	 1.7009826936e+00	-1.2595129536e+00
 7.0393209707e-01	 1.7076619410e+00	-1.2213845108e+00
 6.8791040891e-01	 1.7141788117e+00	-1.1848482968e+00
 6.7185922104e-01	 1.7205333360e+00	-1.1497967529e+00
 6.5578089122e-01	 1.7267255880e+00	-1.1160853743e+00
 6.3967776615e-01	 1.7327556855e+00	-1.0835349078e+00
 8.0312833764e-01	 1.6731083039e+00	-1.4639894592e+00
 7.8725819055e-01	 1.6806341027e+00	-1.4172247662e+00
 7.7134401274e-01	 1.6879972749e+00	-1.3719257436e+00
 7.5538821839e-01	 1.6951976238e+00	-1.3282693633e+00
 7.3939321673e-01	 1.7022349988e+00	-1.2863897991e+00
 7.2336141102e-01	 1.7091092950e+00	-1.2463785386e+00
 7.0729519746e-01	 1.7158204531e+00	-1.2082849172e+00
 6.9119696421e-01	 1.7223684588e+00	-1.1721170658e+00
 6.7506909032e-01	 1.7287533424e+00	-1.1378432634e+00
 6.5891394479e-01	 1.7349751784e+00	-1.1053936812e+00
 6.4273388556e-01	 1.7410340853e+00	-1.0746625043e+00
 8.0694711914e-01	 1.6810637386e+00	-1.4519687794e+00
 7.9100151136e-01	 1.6886253217e+00	-1.4045313450e+00
 7.7501166349e-01	 1.6960235049e+00	-1.3585398715e+00
 7.5898000120e-01	 1.7032580906e+00	-1.3142637408e+00
 7.4290894517e-01	 1.7103289275e+00	-1.2719297249e+00
 7.2680091010e-01	 1.7172359102e+00	-1.2317219136e+00
 7.1065830357e-01	 1.7239789791e+00	-1.1937820788e+00
 6.9448352509e-01	 1.7305581198e+00	-1.1582104678e+00
 6.7827896504e-01	 1.7369733627e+00	-1.1250670179e+00
 6.6204700368e-01	 1.7432247829e+00	-1.0943729771e+00
 6.4579001016e-01	 1.7493124992e+00	-1.0661129184e+00
 8.1076590497e-01	 1.6890191823e+00	-1.4386939077e+00
 7.9474483640e-01	 1.6966165497e+00	-1.3903373036e+00
 7.7867931839e-01	 1.7040497440e+00	-1.3434589920e+00
 7.6257178807e-01	 1.7113185666e+00	-1.2984330031e+00
 7.4642467760e-01	 1.7184228654e+00	-1.2555916761e+00
 7.3024041307e-01	 1.7253625346e+00	-1.2152253699e+00
 7.1402141348e-01	 1.7321375143e+00	-1.1775826267e+00
 6.9777008970e-01	 1.7387477900e+00	-1.1428707802e+00
 6.8148884341e-01	 1.7451933924e+00	-1.1112569991e+00
 6.6518006613e-01	 1.7514743967e+00	-1.0828697538e+00
 6.4884613823e-01	 1.7575909224e+00	-1.0578006906e+00
 8.1458469296e-01	 1.6969746305e+00	-1.4239034840e+00
 7.9848816357e-01	 1.7046077823e+00	-1.3743462532e+00
 7.8234697537e-01	 1.7120759877e+00	-1.3263638787e+00
 7.6616357699e-01	 1.7193790471e+00	-1.2804470802e+00
 7.4994041202e-01	 1.7265168079e+00	-1.2370465247e+00
 7.3367991799e-01	 1.7334891636e+00	-1.1965722906e+00
 7.1738452531e-01	 1.7402960542e+00	-1.1593937993e+00
 7.0105665617e-01	 1.7469374649e+00	-1.1258402062e+00
 6.8469872359e-01	 1.7534134267e+00	-1.0962012426e+00
 6.6831313035e-01	 1.7597240152e+00	-1.0707284962e+00
 6.5190226803e-01	 1.7658693503e+00	-1.0495030819e+00
 6.2134125579e-01	 1.6830858451e+00	-1.1479053042e+00
 6.0568057798e-01	 1.6887847827e+00	-1.1077271271e+00
 5.9000034444e-01	 1.6943266200e+00	-1.0546082632e+00
 5.7430279528e-01	 1.6997115942e+00	-9.9464830320e-01
 5.5859015640e-01	 1.7049399826e+00	-9.3698301748e-01
 5.4286463860e-01	 1.7100121024e+00	-8.8210155002e-01
 5.2712843678e-01	 1.7149283098e+00	-8.3037456159e-01
 5.1138372914e-01	 1.7196889996e+00	-7.8215477208e-01
 4.9563267639e-01	 1.7242946047e+00	-7.3778240900e-01
 4.7987742099e-01	 1.7287455951e+00	-6.9759048060e-01
 4.6412008643e-01	 1.7330424775e+00	-6.6190984646e-01
 6.2439730766e-01	 1.6913640619e+00	-1.1354930910e+00
 6.0865960318e-01	 1.6970910296e+00	-1.0946532361e+00
 5.9290224679e-01	 1.7026601243e+00	-1.0409325121e+00
 5.7712748962e-01	 1.7080715843e+00	-9.7843695357e-01
 5.6133756851e-01	 1.7133256884e+00	-9.1814591569e-01
 5.4553470513e-01	 1.7184227553e+00	-8.6113881205e-01
 5.2972110518e-01	 1.7233631430e+00	-8.0781524421e-01
 5.1389895758e-01	 1.7281472482e+00	-7.5856006894e-01
 4.9807043366e-01	 1.7327755058e+00	-7.1374893699e-01
 4.8223768642e-01	 1.7372483882e+00	-6.7375364591e-01
 4.6640284979e-01	 1.7415664048e+00	-6.3894727915e-01
 6.2745337511e-01	 1.6996423210e+00	-1.1238438518e+00
 6.1163864358e-01	 1.7053973189e+00	-1.0827068556e+00
 5.9580416395e-01	 1.7109936711e+00	-1.0289274771e+00
 5.7995219837e-01	 1.7164316171e+00	-9.6501702669e-01
 5.6408499463e-01	 1.7217114371e+00	-9.0282315324e-01
 5.4820478528e-01	 1.7268334512e+00	-8.4451587328e-01
 5.3231378681e-01	 1.7317980192e+00	-7.9049803542e-01
 5.1641419885e-01	 1.7366055398e+00	-7.4116042822e-01
 5.0050820336e-01	 1.7412564501e+00	-6.9688745710e-01
 4.8459796389e-01	 1.7457512248e+00	-6.5806262429e-01
 4.6868562480e-01	 1.7500903756e+00	-6.2507378345e-01
 6.3050945642e-01	 1.7079206175e+00	-1.1128932690e+00
 6.1461769748e-01	 1.7137036458e+00	-1.0718991993e+00
 5.9870609426e-01	 1.7193272557e+00	-1.0186676248e+00
 5.8277691993e-01	 1.7247916878e+00	-9.5453733914e-01
 5.6683243321e-01	 1.7300972237e+00	-8.9120777233e-01
 5.5087487753e-01	 1.7352441852e+00	-8.3245819993e-01
 5.3490648019e-01	 1.7402329337e+00	-7.7866934550e-01
 5.1892945152e-01	 1.7450638699e+00	-7.3021205206e-01
 5.0294598412e-01	 1.7497374329e+00	-6.8745314471e-01
 4.8695825206e-01	 1.7542540999e+00	-6.5076108499e-01
 4.7096841015e-01	 1.7586143850e+00	-6.2051138764e-01
 6.3356554985e-01	 1.7161989469e+00	-1.1025733010e+00
 6.1759676320e-01	 1.7220100057e+00	-1.0622363818e+00
 6.0160803608e-01	 1.7276608733e+00	-1.0102212009e+00
 5.8560165268e-01	 1.7331517917e+00	-9.4713736977e-01
 5.6957988268e-01	 1.7384830437e+00	-8.8348321925e-01
 5.5354498038e-01	 1.7436549525e+00	-8.2518162119e-01
 5.3749918386e-01	 1.7486678816e+00	-7.7256611567e-01
 5.2144471417e-01	 1.7535222335e+00	-7.2596204241e-01
 5.0538377454e-01	 1.7582184494e+00	-6.8569263658e-01
 4.8931854959e-01	 1.7627570088e+00	-6.5208490455e-01
 4.7325120456e-01	 1.7671384283e+00	-6.2488747933e-01
 6.3662165367e-01	 1.7244773045e+00	-1.0928122631e+00
 6.2057583905e-01	 1.7303163938e+00	-1.0537195287e+00
 6.0450998777e-01	 1.7359945193e+00	-1.0036503613e+00
 5.8842639505e-01	 1.7415119240e+00	-9.4294574528e-01
 5.7232734150e-01	 1.7468688921e+00	-8.7982338544e-01
 5.5621509230e-01	 1.7520657485e+00	-8.2289238307e-01
 5.4009189634e-01	 1.7571028582e+00	-7.7241587948e-01
 5.2395998537e-01	 1.7619806258e+00	-7.2864846496e-01
 5.0782157326e-01	 1.7666994947e+00	-6.9144438324e-01
 4.9167885515e-01	 1.7712599465e+00	-6.5796125884e-01
 4.7553400674e-01	 1.7756625005e+00	-6.2822347474e-01
 6.3967776615e-01	 1.7327556855e+00	-1.0835349078e+00
 6.2355492334e-01	 1.7386228055e+00	-1.0463448838e+00
 6.0741194768e-01	 1.7443281889e+00	-9.9901130256e-01
 5.9125114541e-01	 1.7498720800e+00	-9.4179479964e-01
 5.7507480810e-01	 1.7552547643e+00	-8.8039264549e-01
 5.5888521179e-01	 1.7604765683e+00	-8.2578719881e-01
 5.4268461617e-01	 1.7655378587e+00	-7.7836679087e-01
 5.2647526371e-01	 1.7704390421e+00	-7.3517989736e-01
 5.1025937888e-01	 1.7751805640e+00	-6.9508440916e-01
 4.9403916739e-01	 1.7797629084e+00	-6.5877028626e-01
 4.7781681538e-01	 1.7841865969e+00	-6.2695064613e-01
 6.4273388556e-01	 1.7410340853e+00	-1.0746625043e+00
 6.2653401438e-01	 1.7469292360e+00	-1.0401039159e+00
 6.1031391417e-01	 1.7526618774e+00	-9.9635438877e-01
 5.9407590218e-01	 1.7582322549e+00	-9.4357294503e-01
 5.7782228093e-01	 1.7636406555e+00	-8.8534589193e-01
 5.6155533733e-01	 1.7688874071e+00	-8.3228251866e-01
 5.4527734187e-01	 1.7739728784e+00	-7.8213977769e-01
 5.2899054774e-01	 1.7788974776e+00	-7.3536390691e-01
 5.1269719003e-01	 1.7836616526e+00	-6.9253714647e-01
 4.9639948499e-01	 1.7882658895e+00	-6.5426438396e-01
 4.8009962919e-01	 1.7927107126e+00	-6.2117430624e-01
 6.4579001016e-01	 1.7493124992e+00	-1.0661129184e+00
 6.2951311049e-01	 1.7552356806e+00	-1.0349834235e+00
 6.1321588560e-01	 1.7609955800e+00	-9.9572427729e-01
 5.9690066376e-01	 1.7665924441e+00	-9.4801293125e-01
 5.8056975843e-01	 1.7720265610e+00	-8.8940636213e-01
 5.6422546742e-01	 1.7772982603e+00	-8.3179756178e-01
 5.4787007199e-01	 1.7824079123e+00	-7.7804631258e-01
 5.3150583605e-01	 1.7873559275e+00	-7.2860518655e-01
 5.1513500533e-01	 1.7921427555e+00	-6.8394803126e-01
 4.9875980660e-01	 1.7967688850e+00	-6.4457148054e-01
 4.8238244689e-01	 1.8012348428e+00	-6.1099621362e-01
 6.4884613823e-01	 1.7575909224e+00	-1.0578006906e+00
 6.3249220997e-01	 1.7635421346e+00	-1.0309656385e+00
 6.1611786031e-01	 1.7693292921e+00	-9.9501375479e-01
 5.9972542853e-01	 1.7749526427e+00	-9.4568588193e-01
 5.8331723904e-01	 1.7804124759e+00	-8.8400773498e-01
 5.6689560052e-01	 1.7857091230e+00	-8.2266072922e-01
 5.5046280504e-01	 1.7908429559e+00	-7.6623520760e-01
 5.3402112720e-01	 1.7958143869e+00	-7.1505339408e-01
 5.1757282338e-01	 1.8006238681e+00	-6.6945834987e-01
 5.0112013088e-01	 1.8052718903e+00	-6.2981563271e-01
 4.8466526717e-01	 1.8097589826e+00	-5.9651469949e-01
 6.5190226803e-01	 1.7658693503e+00	-1.0495030819e+00
 6.3547131114e-01	 1.7718485933e+00	-1.0229392794e+00
 6.1901983667e-01	 1.7776630090e+00	-9.8384454395e-01
 6.0255019490e-01	 1.7833128461e+00	-9.3244471772e-01
 5.8606472121e-01	 1.7887983956e+00	-8.6914999328e-01
 5.6956573515e-01	 1.7941199904e+00	-8.0500665421e-01
 5.5305553956e-01	 1.7992780042e+00	-7.4685125602e-01
 5.3653641979e-01	 1.8042728512e+00	-6.9485409108e-01
 5.2001064282e-01	 1.8091049855e+00	-6.4920538994e-01
 5.0348045650e-01	 1.8137749003e+00	-6.1011716501e-01
 4.8694808875e-01	 1.8182831273e+00	-5.7782479223e-01
 4.6412008643e-01	 1.7330424775e+00	-6.6190984646e-01
 4.4836277670e-01	 1.7371857953e+00	-6.2905607241e-01
 4.3260757626e-01	 1.7411761283e+00	-5.9707789660e-01
 4.1685654864e-01	 1.7450140917e+00	-5.6590484838e-01
 4.0111173565e-01	 1.7487003345e+00	-5.3546706203e-01
 3.8537515669e-01	 1.7522355389e+00	-5.0569979371e-01
 3.6964880820e-01	 1.7556204198e+00	-4.7654762440e-01
 3.5393466308e-01	 1.7588557237e+00	-4.4796833663e-01
 3.3823467012e-01	 1.7619422282e+00	-4.1993645494e-01
 3.2255075349e-01	 1.7648807413e+00	-3.9244379609e-01
 3.0688481227e-01	 1.7676721003e+00	-3.6477146215e-01
 4.6640284979e-01	 1.7415664048e+00	-6.3894727915e-01
 4.5056803812e-01	 1.7457301014e+00	-6.0749857711e-01
 4.3473534610e-01	 1.7497400608e+00	-5.7723403550e-01
 4.1890684744e-01	 1.7535969011e+00	-5.4801621058e-01
 4.0308459397e-01	 1.7573012746e+00	-5.1971019000e-01
 3.8727061503e-01	 1.7608538668e+00	-4.9218831016e-01
 3.7146691688e-01	 1.7642553962e+00	-4.6533454459e-01
 3.5567548212e-01	 1.7675066128e+00	-4.3833940873e-01
 3.3989826912e-01	 1.7706082982e+00	-4.1015958949e-01
 3.2413721153e-01	 1.7735612643e+00	-3.8106914743e-01
 3.0839421776e-01	 1.7763663526e+00	-3.5136719004e-01
 4.6868562480e-01	 1.7500903756e+00	-6.2507378345e-01
 4.5277331079e-01	 1.7542744511e+00	-5.9589924430e-01
 4.3686312680e-01	 1.7583040369e+00	-5.6811962281e-01
 4.2095715670e-01	 1.7621797543e+00	-5.4153290769e-01
 4.0505746235e-01	 1.7659022585e+00	-5.1580574909e-01
 3.8916608304e-01	 1.7694722387e+00	-4.8902938240e-01
 3.7328503483e-01	 1.7728904166e+00	-4.6082821041e-01
 3.5741631003e-01	 1.7761575461e+00	-4.3144536355e-01
 3.4156187660e-01	 1.7792744124e+00	-4.0112982287e-01
 3.2572367766e-01	 1.7822418316e+00	-3.7013723008e-01
 3.0990363095e-01	 1.7850606492e+00	-3.3873058243e-01
 4.7096841015e-01	 1.7586143850e+00	-6.2051138764e-01
 4.5497859345e-01	 1.7628188395e+00	-5.9445439933e-01
 4.3899091715e-01	 1.7668680519e+00	-5.6945129240e-01
 4.2300747525e-01	 1.7707626464e+00	-5.4306657321e-01
 4.0703033968e-01	 1.7745032815e+00	-5.1514374790e-01
 3.9106155964e-01	 1.7780906496e+00	-4.8588026037e-01
 3.7510316102e-01	 1.7815254761e+00	-4.5547844883e-01
 3.5915714584e-01	 1.7848085185e+00	-4.2414661634e-01
 3.4322549163e-01	 1.7879405660e+00	-3.9209996682e-01
 3.2731015098e-01	 1.7909224383e+00	-3.5956141556e-01
 3.1141305098e-01	 1.7937549852e+00	-3.2676228361e-01
 4.7325120456e-01	 1.7671384283e+00	-6.2488747933e-01
 4.5718388486e-01	 1.7713632618e+00	-5.9898461877e-01
 4.4111871593e-01	 1.7754321008e+00	-5.7152013316e-01
 4.2505780194e-01	 1.7793455725e+00	-5.4265015436e-01
 4.0900322483e-01	 1.7831043386e+00	-5.1253428359e-01
 3.9295704375e-01	 1.7867090948e+00	-4.8133695909e-01
 3.7692129443e-01	 1.7901605699e+00	-4.4922866722e-01
 3.6089798855e-01	 1.7934595253e+00	-4.1638700744e-01
 3.4488911326e-01	 1.7966067538e+00	-3.8299762101e-01
 3.2889663060e-01	 1.7996030793e+00	-3.4925499320e-01
 3.1292247700e-01	 1.8024493558e+00	-3.1536313837e-01
 4.7553400674e-01	 1.7756625005e+00	-6.2822347474e-01
 4.5938918377e-01	 1.7799077132e+00	-5.9994527259e-01
 4.4324652196e-01	 1.7839961789e+00	-5.7039492667e-01
 4.2710813559e-01	 1.7879285278e+00	-5.3969686007e-01
 4.1097611669e-01	 1.7917054249e+00	-5.0798025122e-01
 3.9485253432e-01	 1.7953275692e+00	-4.7538039039e-01
 3.7873943401e-01	 1.7987956931e+00	-4.4203987776e-01
 3.6263883718e-01	 1.8021105615e+00	-4.0810967341e-01
 3.4655274055e-01	 1.8052729712e+00	-3.7375000987e-01
 3.3048311561e-01	 1.8082837500e+00	-3.3913117699e-01
 3.1443190815e-01	 1.8111437558e+00	-3.0443418904e-01
 4.7781681538e-01	 1.7841865969e+00	-6.2695064613e-01
 4.6159448893e-01	 1.7884521888e+00	-5.9706476891e-01
 4.4537433401e-01	 1.7925602812e+00	-5.6612628005e-01
 4.2915847506e-01	 1.7965115075e+00	-5.3423145492e-01
 4.1294901414e-01	 1.8003065356e+00	-5.0148273549e-01
 3.9674803025e-01	 1.8039460681e+00	-4.6799006647e-01
 3.8055757875e-01	 1.8074308407e+00	-4.3387207081e-01
 3.6437969074e-01	 1.8107616222e+00	-3.9925707576e-01
 3.4821637254e-01	 1.8139392131e+00	-3.6428400006e-01
 3.3206960512e-01	 1.8169644452e+00	-3.2910311269e-01
 3.1594134357e-01	 1.8198381805e+00	-2.9387667324e-01
 4.8009962919e-01	 1.7927107126e+00	-6.2117430624e-01
 4.6379979908e-01	 1.7969966837e+00	-5.9041863213e-01
 4.4750215088e-01	 1.8011244030e+00	-5.5876216081e-01
 4.3120881918e-01	 1.8050945065e+00	-5.2627652957e-01
 4.1492191607e-01	 1.8089076658e+00	-4.9304107778e-01
 3.9864353048e-01	 1.8125645864e+00	-4.5914415311e-01
 3.8237572761e-01	 1.8160660079e+00	-4.2468425544e-01
 3.6612054825e-01	 1.8194127026e+00	-3.8977102956e-01
 3.4988000831e-01	 1.8226054747e+00	-3.5452611815e-01
 3.3365609822e-01	 1.8256451600e+00	-3.1908388546e-01
 3.1745078242e-01	 1.8285326250e+00	-2.8359202222e-01
 4.8238244689e-01	 1.8012348428e+00	-6.1099621362e-01
 4.6600511299e-01	 1.8055411932e+00	-5.8007935631e-01
 4.4962997137e-01	 1.8096885393e+00	-5.4834799244e-01
 4.3325916678e-01	 1.8136775202e+00	-5.1585258113e-01
 4.1689482134e-01	 1.8175088106e+00	-4.8265294200e-01
 4.0053903394e-01	 1.8211831195e+00	-4.4881952225e-01
 3.8419387956e-01	 1.8247011898e+00	-4.1443449944e-01
 3.6786140872e-01	 1.8280637976e+00	-3.7959273193e-01
 3.5154364691e-01	 1.8312717510e+00	-3.4440256843e-01
 3.3524259402e-01	 1.8343258897e+00	-3.0898652778e-01
 3.1896022383e-01	 1.8372270842e+00	-2.7348185979e-01
 4.8466526717e-01	 1.8097589826e+00	-5.9651469949e-01
 4.6821042940e-01	 1.8140857124e+00	-5.6611651513e-01
 4.5175779428e-01	 1.8182526853e+00	-5.3492674843e-01
 4.3530951671e-01	 1.8222605436e+00	-5.0297809208e-01
 4.1886772886e-01	 1.8261099651e+00	-4.7031437963e-01
 4.0243453954e-01	 1.8298016623e+00	-4.3699180381e-01
 3.8601203357e-01	 1.8333363815e+00	-4.0307996909e-01
 3.6960227117e-01	 1.8367149024e+00	-3.6866279051e-01
 3.5320728740e-01	 1.8399380371e+00	-3.3383925089e-01
 3.3682909162e-01	 1.8430066292e+00	-2.9872402788e-01
 3.2046966696e-01	 1.8459215532e+00	-2.6344800190e-01
 4.8694808875e-01	 1.8182831273e+00	-5.7782479223e-01
 4.7041574706e-01	 1.8226302364e+00	-5.4859686978e-01
 4.5388561839e-01	 1.8268168362e+00	-5.1853904453e-01
 4.3735986779e-01	 1.8308435719e+00	-4.8766960806e-01
 4.2084063749e-01	 1.8347111246e+00	-4.5601989374e-01
 4.0433004622e-01	 1.8384202100e+00	-4.2363543706e-01
 3.8783018861e-01	 1.8419715781e+00	-3.9057696851e-01
 3.7134313460e-01	 1.8453660122e+00	-3.5692125175e-01
 3.5487092882e-01	 1.8486043281e+00	-3.2276177938e-01
 3.3841559011e-01	 1.8516873736e+00	-2.8820933840e-01
 3.2197911094e-01	 1.8546160272e+00	-2.5339245665e-01
 3.0688481227e-01	 1.7676721003e+00	-3.6477146215e-01
 2.9123606242e-01	 1.7703176088e+00	-3.3746842370e-01
 2.7560902069e-01	 1.7728176731e+00	-3.1150362207e-01
 2.6000551298e-01	 1.7751732139e+00	-2.8683806401e-01
 2.4442733825e-01	 1.7773851785e+00	-2.6345173976e-01
 2.2887626810e-01	 1.7794545395e+00	-2.4134407505e-01
 2.1335404644e-01	 1.7813822948e+00	-2.2053429267e-01
 1.9786238912e-01	 1.7831694663e+00	-2.0106168954e-01
 1.8240298368e-01	 1.7848170991e+00	-1.8298583494e-01
 1.6697748904e-01	 1.7863262610e+00	-1.6638669531e-01
 1.5158753522e-01	 1.7876980416e+00	-1.5136469054e-01
 3.0839421776e-01	 1.7763663526e+00	-3.5136719004e-01
 2.9266849992e-01	 1.7790248729e+00	-3.2229680496e-01
 2.7696459696e-01	 1.7815372337e+00	-2.9486001003e-01
 2.6128434378e-01	 1.7839043603e+00	-2.6899840499e-01
 2.4562954817e-01	 1.7861272043e+00	-2.4467296105e-01
 2.3000199047e-01	 1.7882067434e+00	-2.2186447757e-01
 2.1440342313e-01	 1.7901439804e+00	-2.0057394878e-01
 1.9883557047e-01	 1.7919399420e+00	-1.8082284660e-01
 1.8330012833e-01	 1.7935956786e+00	-1.6265332537e-01
 1.6779876376e-01	 1.7951122633e+00	-1.4612835390e-01
 1.5233311483e-01	 1.7964907909e+00	-1.3133177973e-01
 3.0990363095e-01	 1.7850606492e+00	-3.3873058243e-01
 2.9410094472e-01	 1.7877321814e+00	-3.0817344896e-01
 2.7832018014e-01	 1.7902568388e+00	-2.7950063605e-01
 2.6256318109e-01	 1.7926355511e+00	-2.5263636920e-01
 2.4683176423e-01	 1.7948692747e+00	-2.2752472944e-01
 2.3112771857e-01	 1.7969589920e+00	-2.0413010896e-01
 2.1545280517e-01	 1.7989057106e+00	-1.8243757734e-01
 1.9980875679e-01	 1.8007104624e+00	-1.6245316462e-01
 1.8419727754e-01	 1.8023743029e+00	-1.4420406717e-01
 1.6862004267e-01	 1.8038983104e+00	-1.2773878172e-01
 1.5307869824e-01	 1.8052835851e+00	-1.1312717251e-01
 3.1141305098e-01	 1.7937549852e+00	-3.2676228361e-01
 2.9553339601e-01	 1.7964395295e+00	-2.9498826578e-01
 2.7967576947e-01	 1.7989764835e+00	-2.6530679703e-01
 2.6384202421e-01	 1.8013667815e+00	-2.3762672990e-01
 2.4803398573e-01	 1.8036113847e+00	-2.1187735104e-01
 2.3225345178e-01	 1.8057112802e+00	-1.8800883002e-01
 2.1650219197e-01	 1.8076674805e+00	-1.6599257943e-01
 2.0078194751e-01	 1.8094810226e+00	-1.4582153288e-01
 1.8509443083e-01	 1.8111529670e+00	-1.2751034651e-01
 1.6944132531e-01	 1.8126843974e+00	-1.1109552982e-01
 1.5382428503e-01	 1.8140764192e+00	-9.6635510665e-02
 3.1292247700e-01	 1.8024493558e+00	-3.1536313837e-01
 2.9696585299e-01	 1.8051469120e+00	-2.8263161932e-01
 2.8103136417e-01	 1.8076961627e+00	-2.5216046563e-01
 2.6512087240e-01	 1.8100980466e+00	-2.2384512765e-01
 2.4923621200e-01	 1.8123535294e+00	-1.9760216131e-01
 2.3337918945e-01	 1.8144636031e+00	-1.7336966440e-01
 2.1755158294e-01	 1.8164292852e+00	-1.5110762503e-01
 2.0175514210e-01	 1.8182516175e+00	-1.3079818893e-01
 1.8599158767e-01	 1.8199316659e+00	-1.1244585149e-01
 1.7026261120e-01	 1.8214705192e+00	-9.6077580074e-02
 1.5456987478e-01	 1.8228692882e+00	-8.1742871906e-02
 3.1443190815e-01	 1.8111437558e+00	-3.0443418904e-01
 2.9839831483e-01	 1.8138543242e+00	-2.7099431561e-01
 2.8238696349e-01	 1.8164158716e+00	-2.3994427081e-01
 2.6639972493e-01	 1.8188293413e+00	-2.1116804404e-01
 2.5043844236e-01	 1.8210957038e+00	-1.8457149299e-01
 2.3450493095e-01	 1.8232159558e+00	-1.6008276176e-01
 2.1860097747e-01	 1.8251911197e+00	-1.3765261210e-01
 2.0272834000e-01	 1.8270222423e+00	-1.1725467464e-01
 1.8688874757e-01	 1.8287103947e+00	-9.8885626063e-02
 1.7108389988e-01	 1.8302566708e+00	-8.2565297879e-02
 1.5531546706e-01	 1.8316621870e+00	-6.8336722059e-02
 3.1594134357e-01	 1.8198381805e+00	-2.9387667324e-01
 2.9983078073e-01	 1.8225617610e+00	-2.5996759200e-01
 2.8374256664e-01	 1.8251356052e+00	-2.2854147947e-01
 2.6767858109e-01	 1.8275606608e+00	-1.9947277669e-01
 2.5164067613e-01	 1.8298379030e+00	-1.7265864538e-01
 2.3563067564e-01	 1.8319683333e+00	-1.4801936219e-01
 2.1965037497e-01	 1.8339529790e+00	-1.2549862723e-01
 2.0370154065e-01	 1.8357928920e+00	-1.0506379383e-01
 1.8778591000e-01	 1.8374891483e+00	-8.6706025543e-02
 1.7190519089e-01	 1.8390428474e+00	-7.0440386300e-02
 1.5606106146e-01	 1.8404551108e+00	-5.6305868828e-02
 3.1745078242e-01	 1.8285326250e+00	-2.8359202222e-01
 3.0126324989e-01	 1.8312692176e+00	-2.4944310712e-01
 2.8509817287e-01	 1.8338553585e+00	-2.1783597898e-01
 2.6895744015e-01	 1.8362920001e+00	-1.8863741532e-01
 2.5284291262e-01	 1.8385801220e+00	-1.6173785483e-01
 2.3675642288e-01	 1.8407207307e+00	-1.3705176202e-01
 2.2069977486e-01	 1.8427148581e+00	-1.1451790760e-01
 2.0467474351e-01	 1.8445635615e+00	-9.4099571271e-02
 1.8868307447e-01	 1.8462679219e+00	-7.5784673486e-02
 1.7272648376e-01	 1.8478290439e+00	-5.9585841760e-02
 1.5680665754e-01	 1.8492480545e+00	-4.5540417003e-02
 3.1896022383e-01	 1.8372270842e+00	-2.7348185979e-01
 3.0269572147e-01	 1.8399766890e+00	-2.3931293168e-01
 2.8645378140e-01	 1.8425751267e+00	-2.0771226069e-01
 2.7023630138e-01	 1.8450233542e+00	-1.7854081889e-01
 2.5404515116e-01	 1.8473223559e+00	-1.5168426641e-01
 2.3788217203e-01	 1.8494731429e+00	-1.2705328092e-01
 2.2174917652e-01	 1.8514767522e+00	-1.0458380429e-01
 2.0564794802e-01	 1.8533342459e+00	-8.4237213150e-02
 1.8958024046e-01	 1.8550467103e+00	-6.6000420082e-02
 1.7354777803e-01	 1.8566152553e+00	-4.9885911121e-02
 1.5755225489e-01	 1.8580410131e+00	-3.5931725070e-02
 3.2046966696e-01	 1.8459215532e+00	-2.6344800190e-01
 3.0412819468e-01	 1.8486841702e+00	-2.2946954003e-01
 2.8780939147e-01	 1.8512949048e+00	-1.9805540441e-01
 2.7151516407e-01	 1.8537547182e+00	-1.6906259383e-01
 2.5524739105e-01	 1.8560645997e+00	-1.4237390677e-01
 2.3900792246e-01	 1.8582255650e+00	-1.1789823022e-01
 2.2279857938e-01	 1.8602386562e+00	-9.5570746989e-02
 2.0662115364e-01	 1.8621049403e+00	-7.5353068851e-02
 1.9047740747e-01	 1.8638255088e+00	-5.7233301882e-02
 1.7436907323e-01	 1.8654014767e+00	-4.1226050162e-02
 1.5829785309e-01	 1.8668339817e+00	-2.7372363197e-02
 3.2197911094e-01	 1.8546160272e+00	-2.5339245665e-01
 3.0556066871e-01	 1.8573916564e+00	-2.1980580237e-01
 2.8916500231e-01	 1.8600146878e+00	-1.8875106369e-01
 2.7279402747e-01	 1.8624860872e+00	-1.6008307323e-01
 2.5644963163e-01	 1.8648068484e+00	-1.3368365811e-01
 2.4013367353e-01	 1.8669779921e+00	-1.0946188241e-01
 2.2384798283e-01	 1.8690005651e+00	-8.7354209872e-02
 2.0759435981e-01	 1.8708756396e+00	-6.7324594058e-02
 1.9137457499e-01	 1.8726043121e+00	-4.9364502876e-02
 1.7519036889e-01	 1.8741877030e+00	-3.3492883392e-02
 1.5904345171e-01	 1.8756269553e+00	-1.9756072538e-02
 1.5158753522e-01	 1.7876980416e+00	-1.5136469054e-01
 1.3623732356e-01	 1.7889333526e+00	-1.3792408969e-01
 1.2092577599e-01	 1.7900335688e+00	-1.2589375350e-01
 1.0565439889e-01	 1.7909998392e+00	-1.1514544698e-01
 9.0424669867e-02	 1.7918333315e+00	-1.0556700744e-01
 7.5238037701e-02	 1.7925352311e+00	-9.7062593551e-02
 6.0095922142e-02	 1.7931067405e+00	-8.9552881628e-02
 4.4999713821e-02	 1.7935490786e+00	-8.2975211270e-02
 2.9950774159e-02	 1.7938634795e+00	-7.7283682256e-02
 1.4950435288e-02	 1.7940511925e+00	-7.2449204373e-02
 0.0000000000e+00	 1.7941134805e+00	-6.8459501518e-02
 1.5233311483e-01	 1.7964907909e+00	-1.3133177973e-01
 1.3690740352e-01	 1.7977321778e+00	-1.1818374327e-01
 1.2152054649e-01	 1.7988378054e+00	-1.0644463300e-01
 1.0617405748e-01	 1.7998088284e+00	-9.5993772924e-02
 9.0869421409e-02	 1.8006464202e+00	-8.6727175778e-02
 7.5608094162e-02	 1.8013517720e+00	-7.8557774706e-02
 6.0391502475e-02	 1.8019260924e+00	-7.1415603474e-02
 4.5221043820e-02	 1.8023706061e+00	-6.5247927237e-02
 3.0098086314e-02	 1.8026865534e+00	-6.0019325730e-02
 1.5023968640e-02	 1.8028751897e+00	-5.5711730470e-02
 0.0000000000e+00	 1.8029377841e+00	-5.2324417277e-02
 1.5307869824e-01	 1.8052835851e+00	-1.1312717251e-01
 1.3757748691e-01	 1.8065310479e+00	-1.0021154440e-01
 1.2211532001e-01	 1.8076420869e+00	-8.8689361196e-02
 1.0669371872e-01	 1.8086178625e+00	-7.8449066013e-02
 9.1314175218e-02	 1.8094595538e+00	-6.9396428878e-02
 7.5978152509e-02	 1.8101683580e+00	-6.1454758536e-02
 6.0687084314e-02	 1.8107454893e+00	-5.4565064142e-02
 4.5442374947e-02	 1.8111921787e+00	-4.8686168870e-02
 3.0245399219e-02	 1.8115096724e+00	-4.3794777208e-02
 1.5097502368e-02	 1.8116992318e+00	-3.9885497491e-02
 0.0000000000e+00	 1.8117621326e+00	-3.6970820897e-02
 1.5382428503e-01	 1.8140764192e+00	-9.6635510665e-02
 1.3824757333e-01	 1.8153299579e+00	-8.3900663327e-02
 1.2271009623e-01	 1.8164464083e+00	-7.2530700197e-02
 1.0721338232e-01	 1.8174269365e+00	-6.2424716384e-02
 9.1758931044e-02	 1.8182727274e+00	-5.3499792814e-02
 7.6348212533e-02	 1.8189849839e+00	-4.5691185649e-02
 6.0982667494e-02	 1.8195649262e+00	-3.8952467086e-02
 4.5663707077e-02	 1.8200137912e+00	-3.3255619538e-02
 3.0392712793e-02	 1.8203328313e+00	-2.8591084909e-02
 1.5171036428e-02	 1.8205233140e+00	-2.4967770442e-02
 0.0000000000e+00	 1.8205865212e+00	-2.2413012298e-02
 1.5456987478e-01	 1.8228692882e+00	-8.1742871906e-02
 1.3891766241e-01	 1.8241289028e+00	-6.9145694924e-02
 1.2330487481e-01	 1.8252507647e+00	-5.7872816390e-02
 1.0773304798e-01	 1.8262360455e+00	-4.7835489570e-02
 9.2203688633e-02	 1.8270859360e+00	-3.8963632118e-02
 7.6718274025e-02	 1.8278016448e+00	-3.1205990612e-02
 6.1278251845e-02	 1.8283843981e+00	-2.4530258117e-02
 4.5885040085e-02	 1.8288354387e+00	-1.8923146722e-02
 3.0540026950e-02	 1.8291560252e+00	-1.4390416704e-02
 1.5244570780e-02	 1.8293474312e+00	-1.0956863734e-02
 0.0000000000e+00	 1.8294109448e+00	-8.6662651792e-03
 1.5531546706e-01	 1.8316621870e+00	-6.8336722059e-02
 1.3958775376e-01	 1.8329278776e+00	-5.5842611179e-02
 1.2389965541e-01	 1.8340551510e+00	-4.4621233697e-02
 1.0825271541e-01	 1.8350451845e+00	-3.4597481011e-02
 9.2648447734e-02	 1.8358991745e+00	-2.5715606037e-02
 7.7088336774e-02	 1.8366183356e+00	-1.7939360419e-02
 6.1573837201e-02	 1.8372039000e+00	-1.1252086550e-02
 4.6106373845e-02	 1.8376571162e+00	-5.6567662871e-03
 3.0687341608e-02	 1.8379792491e+00	-1.1760279629e-03
 1.5318105382e-02	 1.8381715784e+00	 2.1478869822e-03
 0.0000000000e+00	 1.8382353983e+00	 4.2531967460e-03
 1.5606106146e-01	 1.8404551108e+00	-5.6305868828e-02
 1.4025784702e-01	 1.8417268773e+00	-4.3888715156e-02
 1.2449443770e-01	 1.8428595622e+00	-3.2682788257e-02
 1.0877238431e-01	 1.8438543484e+00	-2.2628071935e-02
 9.3093208094e-02	 1.8447124380e+00	-1.3684626085e-02
 7.7458400572e-02	 1.8454350515e+00	-5.8326941828e-03
 6.1869423394e-02	 1.8460234268e+00	 9.2723251514e-04
 4.6327708232e-02	 1.8464788188e+00	 6.5743922076e-03
 3.0834656683e-02	 1.8468024981e+00	 1.1067769694e-02
 1.5391640193e-02	 1.8469957507e+00	 1.4346152182e-02
 0.0000000000e+00	 1.8470598769e+00	 1.6328222842e-02
 1.5680665754e-01	 1.8492480545e+00	-4.5540417003e-02
 1.4092794179e-01	 1.8505258970e+00	-3.3182596386e-02
 1.2508922133e-01	 1.8516639934e+00	-2.1965584488e-02
 1.0929205438e-01	 1.8526635322e+00	-1.1845886562e-02
 9.3537969462e-02	 1.8535257214e+00	-2.8008148582e-03
 7.7828465208e-02	 1.8542517873e+00	 5.1714359939e-03
 6.2165010257e-02	 1.8548429736e+00	 1.2051754826e-02
 4.6549043120e-02	 1.8553005413e+00	 1.7800119215e-02
 3.0981972092e-02	 1.8556257670e+00	 2.2355638741e-02
 1.5465175169e-02	 1.8558199429e+00	 2.5636635068e-02
 0.0000000000e+00	 1.8558843755e+00	 2.7540758002e-02
 1.5755225489e-01	 1.8580410131e+00	-3.5931725070e-02
 1.4159803770e-01	 1.8593249316e+00	-2.3624087643e-02
 1.2568400597e-01	 1.8604684395e+00	-1.2378952484e-02
 1.0981172534e-01	 1.8614727311e+00	-2.1707505952e-03
 9.3982731586e-02	 1.8623390199e+00	 7.0045339403e-03
 7.8198530473e-02	 1.8630685381e+00	 1.5129323010e-02
 6.2460597622e-02	 1.8636625355e+00	 2.2164442553e-02
 4.6770378385e-02	 1.8641222788e+00	 2.8049157936e-02
 3.1129287751e-02	 1.8644490509e+00	 3.2701245249e-02
 1.5538710271e-02	 1.8646441501e+00	 3.6017097425e-02
 0.0000000000e+00	 1.8647088891e+00	 3.7871864468e-02
 1.5829785309e-01	 1.8668339817e+00	-2.7372363197e-02
 1.4226813437e-01	 1.8681239762e+00	-1.5114223044e-02
 1.2627879129e-01	 1.8692728957e+00	-3.8334067058e-03
 1.1033139689e-01	 1.8702819399e+00	 6.4763490578e-03
 9.4427494214e-02	 1.8711523283e+00	 1.5798994294e-02
 7.8568596157e-02	 1.8718852989e+00	 2.4096161650e-02
 6.2756185322e-02	 1.8724821073e+00	 3.1307198839e-02
 4.6991713900e-02	 1.8729440263e+00	 3.7349236132e-02
 3.1276603577e-02	 1.8732723448e+00	 4.2117287546e-02
 1.5612245456e-02	 1.8734683673e+00	 4.5484384750e-02
 0.0000000000e+00	 1.8735334126e+00	 4.7301743059e-02
 1.5904345171e-01	 1.8756269553e+00	-1.9756072538e-02
 1.4293823142e-01	 1.8769230258e+00	-7.5551974524e-03
 1.2687357695e-01	 1.8780773568e+00	 3.7593940795e-03
 1.1085106873e-01	 1.8790911537e+00	 1.4173303357e-02
 9.4872257094e-02	 1.8799656418e+00	 2.3649045533e-02
 7.8938662051e-02	 1.8807020647e+00	 3.2126084399e-02
 6.3051773189e-02	 1.8813016841e+00	 3.9520901369e-02
 4.7213049540e-02	 1.8817657788e+00	 4.5727097034e-02
 3.1423919486e-02	 1.8820956438e+00	 5.0615524083e-02
 1.5685780682e-02	 1.8822925895e+00	 5.4034450687e-02
 0.0000000000e+00	 1.8823579412e+00	 5.5809753802e-02
 1.8823579412e+00	 0.0000000000e+00	 3.0596088342e+00
 1.8822925895e+00	 1.5685780682e-02	 3.0572783627e+00
 1.8820956438e+00	 3.1423919486e-02	 3.0533517351e+00
 1.8817657788e+00	 4.7213049540e-02	 3.0475528311e+00
 1.8813016841e+00	 6.3051773189e-02	 3.0396393928e+00
 1.8807020647e+00	 7.8938662051e-02	 3.0294026598e+00
 1.8799656418e+00	 9.4872257094e-02	 3.0166670172e+00
 1.8790911537e+00	 1.1085106873e-01	 3.0012896596e+00
 1.8780773568e+00	 1.2687357695e-01	 2.9831602763e+00
 1.8769230258e+00	 1.4293823142e-01	 2.9622007609e+00
 1.8756269553e+00	 1.5904345171e-01	 2.9383649503e+00
 1.8911809706e+00	 0.0000000000e+00	 3.0425886511e+00
 1.8911153126e+00	 1.5759303416e-02	 3.0403799987e+00
 1.8909174437e+00	 3.1571210368e-02	 3.0365938432e+00
 1.8905860326e+00	 4.7434347578e-02	 3.0309496749e+00
 1.8901197626e+00	 6.3347310839e-02	 3.0232003719e+00
 1.8895173326e+00	 7.9308665075e-02	 3.0131318135e+00
 1.8887774579e+00	 9.5316944414e-02	 3.0005625090e+00
 1.8878988710e+00	 1.1137065229e-01	 2.9853432445e+00
 1.8868803221e+00	 1.2746826155e-01	 2.9673567530e+00
 1.8857205806e+00	 1.4360821463e-01	 2.9465174111e+00
 1.8844184351e+00	 1.5978892366e-01	 2.9227709680e+00
 1.9000040000e+00	 0.0000000000e+00	 3.0255118567e+00
 1.8999380357e+00	 1.5832826150e-02	 3.0234405580e+00
 1.8997392437e+00	 3.1718501251e-02	 3.0197989524e+00
 1.8994062864e+00	 4.7655645616e-02	 3.0143046918e+00
 1.8989378411e+00	 6.3642848489e-02	 3.0067083517e+00
 1.8983326006e+00	 7.9678668098e-02	 2.9967930216e+00
 1.8975892741e+00	 9.5761631733e-02	 2.9843739110e+00
 1.8967065882e+00	 1.1189023584e-01	 2.9692979764e+00
 1.8956832875e+00	 1.2806294616e-01	 2.9514435733e+00
 1.8945181354e+00	 1.4427819784e-01	 2.9307201372e+00
 1.8932099149e+00	 1.6053439561e-01	 2.9070678994e+00
 1.9088270294e+00	 0.0000000000e+00	 3.0083622352e+00
 1.9087607588e+00	 1.5906348884e-02	 3.0064392817e+00
 1.9085610437e+00	 3.1865792133e-02	 3.0029420034e+00
 1.9082265403e+00	 4.7876943654e-02	 2.9975887352e+00
 1.9077559196e+00	 6.3938386140e-02	 2.9901302823e+00
 1.9071478685e+00	 8.0048671122e-02	 2.9803494842e+00
 1.9064010903e+00	 9.6206319053e-02	 2.9680607957e+00
 1.9055143055e+00	 1.1240981940e-01	 2.9531098909e+00
 1.9044862529e+00	 1.2865763077e-01	 2.9353732941e+00
 1.9033156901e+00	 1.4494818105e-01	 2.9147580429e+00
 1.9020013947e+00	 1.6127986756e-01	 2.8912013869e+00
 1.9176500588e+00	 0.0000000000e+00	 2.9911241650e+00
 1.9175834819e+00	 1.5979871618e-02	 2.9893560135e+00
 1.9173828436e+00	 3.2013083015e-02	 2.9859985493e+00
 1.9170467941e+00	 4.8098241692e-02	 2.9807732832e+00
 1.9165739981e+00	 6.4233923790e-02	 2.9734337534e+00
 1.9159631365e+00	 8.0418674146e-02	 2.9637650594e+00
 1.9152129065e+00	 9.6651006372e-02	 2.9515834159e+00
 1.9143220227e+00	 1.1292940296e-01	 2.9367357307e+00
 1.9132892182e+00	 1.2925231538e-01	 2.9190992120e+00
 1.9121132449e+00	 1.4561816426e-01	 2.8985810096e+00
 1.9107928745e+00	 1.6202533951e-01	 2.8751178953e+00
 1.9264730883e+00	 0.0000000000e+00	 2.9737826057e+00
 1.9264062049e+00	 1.6053394352e-02	 2.9721711861e+00
 1.9262046436e+00	 3.2160373898e-02	 2.9689447418e+00
 1.9258670479e+00	 4.8319539731e-02	 2.9638304247e+00
 1.9253920766e+00	 6.4529461441e-02	 2.9565869804e+00
 1.9247784044e+00	 8.0788677170e-02	 2.9470042495e+00
 1.9240247226e+00	 9.7095693692e-02	 2.9349026912e+00
 1.9231297400e+00	 1.1344898651e-01	 2.9201329325e+00
 1.9220921836e+00	 1.2984699999e-01	 2.9025753489e+00
 1.9209107996e+00	 1.4628814746e-01	 2.8821396818e+00
 1.9195843543e+00	 1.6277081146e-01	 2.8587646958e+00
 1.9352961177e+00	 0.0000000000e+00	 2.9563230842e+00
 1.9352289280e+00	 1.6126917087e-02	 2.9548658078e+00
 1.9350264435e+00	 3.2307664781e-02	 2.9517573182e+00
 1.9346873017e+00	 4.8540837769e-02	 2.9467328463e+00
 1.9342101551e+00	 6.4824999092e-02	 2.9395587915e+00
 1.9335936724e+00	 8.1158680194e-02	 2.9300321878e+00
 1.9328365388e+00	 9.7540381012e-02	 2.9179801941e+00
 1.9319374572e+00	 1.1396857007e-01	 2.9032596123e+00
 1.9308951489e+00	 1.3044168459e-01	 2.8857564385e+00
 1.9297083544e+00	 1.4695813067e-01	 2.8653854528e+00
 1.9283758340e+00	 1.6351628341e-01	 2.8420898522e+00
 1.9441191471e+00	 0.0000000000e+00	 2.9387316827e+00
 1.9440516511e+00	 1.6200439821e-02	 2.9374214499e+00
 1.9438482435e+00	 3.2454955664e-02	 2.9344135885e+00
 1.9435075555e+00	 4.8762135809e-02	 2.9294538195e+00
 1.9430282336e+00	 6.5120536743e-02	 2.9223186146e+00
 1.9424089403e+00	 8.1528683219e-02	 2.9128146255e+00
 1.9416483550e+00	 9.7985068333e-02	 2.9007781374e+00
 1.9407451745e+00	 1.1448815362e-01	 2.8860745531e+00
 1.9396981143e+00	 1.3103636920e-01	 2.8685979122e+00
 1.9385059091e+00	 1.4762811388e-01	 2.8482704506e+00
 1.9371673138e+00	 1.6426175536e-01	 2.8250422055e+00
 1.9529421765e+00	 0.0000000000e+00	 2.9209950253e+00
 1.9528743742e+00	 1.6273962556e-02	 2.9198202342e+00
 1.9526700435e+00	 3.2602246547e-02	 2.9168914232e+00
 1.9523278093e+00	 4.8983433848e-02	 2.9119671880e+00
 1.9518463121e+00	 6.5416074395e-02	 2.9048364650e+00
 1.9512242083e+00	 8.1898686244e-02	 2.8953179196e+00
 1.9504601711e+00	 9.8429755654e-02	 2.8832593614e+00
 1.9495528917e+00	 1.1500773718e-01	 2.8685371916e+00
 1.9485010797e+00	 1.3163105381e-01	 2.8510558865e+00
 1.9473034639e+00	 1.4829809709e-01	 2.8307475246e+00
 1.9459587936e+00	 1.6500722731e-01	 2.8075713606e+00
 1.9617652059e+00	 0.0000000000e+00	 2.9031002663e+00
 1.9616970973e+00	 1.6347485291e-02	 2.9020448205e+00
 1.9614918434e+00	 3.2749537431e-02	 2.8991692407e+00
 1.9611480631e+00	 4.9204731888e-02	 2.8942473562e+00
 1.9606643906e+00	 6.5711612047e-02	 2.8870829332e+00
 1.9600394762e+00	 8.2268689270e-02	 2.8775090201e+00
 1.9592719873e+00	 9.8874442976e-02	 2.8653873216e+00
 1.9583606090e+00	 1.1552732074e-01	 2.8506076057e+00
 1.9573040450e+00	 1.3222573842e-01	 2.8330871500e+00
 1.9561010187e+00	 1.4896808030e-01	 2.8127702324e+00
 1.9547502734e+00	 1.6575269926e-01	 2.7896276723e+00
 1.9705882353e+00	 0.0000000000e+00	 2.8850350781e+00
 1.9705198204e+00	 1.6421008026e-02	 2.8840783951e+00
 1.9703136434e+00	 3.2896828315e-02	 2.8812259958e+00
 1.9699683169e+00	 4.9426029929e-02	 2.8762692767e+00
 1.9694824691e+00	 6.6007149700e-02	 2.8690291729e+00
 1.9688547442e+00	 8.2638692297e-02	 2.8593554587e+00
 1.9680838035e+00	 9.9319130298e-02	 2.8471260766e+00
 1.9671683262e+00	 1.1604690430e-01	 2.8322465024e+00
 1.9661070104e+00	 1.3282042303e-01	 2.8146491506e+00
 1.9648985734e+00	 1.4963806351e-01	 2.7942928268e+00
 1.9635417532e+00	 1.6649817121e-01	 2.7711622321e+00
 1.8756269553e+00	 1.5904345171e-01	 2.9383649503e+00
 1.8741877030e+00	 1.7519036889e-01	 2.9119372601e+00
 1.8726043121e+00	 1.9137457499e-01	 2.8832257628e+00
 1.8708756396e+00	 2.0759435981e-01	 2.8522545882e+00
 1.8690005651e+00	 2.2384798283e-01	 2.8190796913e+00
 1.8669779921e+00	 2.4013367353e-01	 2.7837888657e+00
 1.8648068484e+00	 2.5644963163e-01	 2.7465018091e+00
 1.8624860872e+00	 2.7279402747e-01	 2.7073702434e+00
 1.8600146878e+00	 2.8916500231e-01	 2.6665780929e+00
 1.8573916564e+00	 3.0556066871e-01	 2.6243417226e+00
 1.8546160272e+00	 3.2197911094e-01	 2.5809102393e+00
 1.8844184351e+00	 1.5978892366e-01	 2.9227709680e+00
 1.8829724367e+00	 1.7601152503e-01	 2.8964027133e+00
 1.8813816241e+00	 1.9227159009e-01	 2.8677264531e+00
 1.8796448489e+00	 2.0856740064e-01	 2.8367647432e+00
 1.8777609856e+00	 2.2489720800e-01	 2.8035714536e+00
 1.8757289323e+00	 2.4125923334e-01	 2.7682317776e+00
 1.8735476120e+00	 2.5765166797e-01	 2.7308622951e+00
 1.8712159728e+00	 2.7407267362e-01	 2.6916110944e+00
 1.8687329894e+00	 2.9052038284e-01	 2.6506579543e+00
 1.8660976633e+00	 3.0699289937e-01	 2.6082145897e+00
 1.8633090241e+00	 3.2348829849e-01	 2.5645249635e+00
 1.8932099149e+00	 1.6053439561e-01	 2.9070678994e+00
 1.8917571704e+00	 1.7683268116e-01	 2.8807748887e+00
 1.8901589361e+00	 1.9316860519e-01	 2.8521601721e+00
 1.8884140582e+00	 2.0954044147e-01	 2.8212437496e+00
 1.8865214060e+00	 2.2594643317e-01	 2.7880763674e+00
 1.8844798725e+00	 2.4238479316e-01	 2.7527395218e+00
 1.8822883755e+00	 2.5885370430e-01	 2.7153455222e+00
 1.8799458584e+00	 2.7535131976e-01	 2.6760376143e+00
 1.8774512910e+00	 2.9187576338e-01	 2.6349901672e+00
 1.8748036702e+00	 3.0842513004e-01	 2.5924089279e+00
 1.8720020210e+00	 3.2499748604e-01	 2.5485313438e+00
 1.9020013947e+00	 1.6127986756e-01	 2.8912013869e+00
 1.9005419041e+00	 1.7765383730e-01	 2.8649959107e+00
 1.8989362481e+00	 1.9406562030e-01	 2.8364654530e+00
 1.8971832676e+00	 2.1051348230e-01	 2.8056264899e+00
 1.8952818264e+00	 2.2699565834e-01	 2.7725256175e+00
 1.8932308127e+00	 2.4351035298e-01	 2.7372395521e+00
 1.8910291390e+00	 2.6005574064e-01	 2.6998751928e+00
 1.8886757441e+00	 2.7662996591e-01	 2.6605697467e+00
 1.8861695926e+00	 2.9323114392e-01	 2.6194909225e+00
 1.8835096771e+00	 3.0985736070e-01	 2.5768371934e+00
 1.8806950179e+00	 3.2650667358e-01	 2.5328381331e+00
 1.9107928745e+00	 1.6202533951e-01	 2.8751178953e+00
 1.9093266378e+00	 1.7847499343e-01	 2.8490087774e+00
 1.9077135601e+00	 1.9496263540e-01	 2.8205817618e+00
 1.9059524769e+00	 2.1148652314e-01	 2.7898488452e+00
 1.9040422468e+00	 2.2804488351e-01	 2.7568514604e+00
 1.9019817528e+00	 2.4463591280e-01	 2.7216604736e+00
 1.8997699026e+00	 2.6125777697e-01	 2.6843762461e+00
 1.8974056297e+00	 2.7790861205e-01	 2.6451287636e+00
 1.8948878943e+00	 2.9458652446e-01	 2.6040778356e+00
 1.8922156840e+00	 3.1128959137e-01	 2.5614133691e+00
 1.8893880148e+00	 3.2801586113e-01	 2.5173557180e+00
 1.9195843543e+00	 1.6277081146e-01	 2.8587646958e+00
 1.9181113715e+00	 1.7929614957e-01	 2.8327573446e+00
 1.9164908721e+00	 1.9585965050e-01	 2.8044494802e+00
 1.9147216862e+00	 2.1245956397e-01	 2.7738476775e+00
 1.9128026673e+00	 2.2909410868e-01	 2.7409872054e+00
 1.9107326930e+00	 2.4576147262e-01	 2.7059320220e+00
 1.9085106661e+00	 2.6245981331e-01	 2.6687748365e+00
 1.9061355153e+00	 2.7918725820e-01	 2.6296372419e+00
 1.9036061959e+00	 2.9594190500e-01	 2.5886699227e+00
 1.9009216909e+00	 3.1272182203e-01	 2.5460529391e+00
 1.8980810117e+00	 3.2952504868e-01	 2.5019960909e+00
 1.9283758340e+00	 1.6351628341e-01	 2.8420898522e+00
 1.9268961052e+00	 1.8011730570e-01	 2.8161863104e+00
 1.9252681841e+00	 1.9675666560e-01	 2.7880098898e+00
 1.9234908955e+00	 2.1343260480e-01	 2.7575608128e+00
 1.9215630877e+00	 2.3014333386e-01	 2.7248671964e+00
 1.9194836332e+00	 2.4688703243e-01	 2.6899850450e+00
 1.9172514297e+00	 2.6366184964e-01	 2.6529983126e+00
 1.9148654009e+00	 2.8046590435e-01	 2.6140190415e+00
 1.9123244975e+00	 2.9729728554e-01	 2.5731875767e+00
 1.9096276978e+00	 3.1415405270e-01	 2.5306728628e+00
 1.9067740086e+00	 3.3103423623e-01	 2.4866728236e+00
 1.9371673138e+00	 1.6426175536e-01	 2.8250422055e+00
 1.9356808389e+00	 1.8093846184e-01	 2.7992412000e+00
 1.9340454961e+00	 1.9765368070e-01	 2.7712051557e+00
 1.9322601048e+00	 2.1440564563e-01	 2.7409270242e+00
 1.9303235081e+00	 2.3119255903e-01	 2.7084267943e+00
 1.9282345734e+00	 2.4801259225e-01	 2.6737514826e+00
 1.9259921932e+00	 2.6486388598e-01	 2.6369751979e+00
 1.9235952865e+00	 2.8174455049e-01	 2.5981992841e+00
 1.9210427991e+00	 2.9865266608e-01	 2.5575525444e+00
 1.9183337047e+00	 3.1558628337e-01	 2.5151915507e+00
 1.9154670055e+00	 3.3254342378e-01	 2.4713010401e+00
 1.9459587936e+00	 1.6500722731e-01	 2.8075713606e+00
 1.9444655726e+00	 1.8175961797e-01	 2.7818683515e+00
 1.9428228080e+00	 1.9855069580e-01	 2.7539783117e+00
 1.9410293141e+00	 2.1537868647e-01	 2.7238860156e+00
 1.9390839285e+00	 2.3224178420e-01	 2.6916023592e+00
 1.9369855135e+00	 2.4913815207e-01	 2.6571643492e+00
 1.9347329568e+00	 2.6606592231e-01	 2.6206351700e+00
 1.9323251722e+00	 2.8302319664e-01	 2.5821043314e+00
 1.9297611007e+00	 3.0000804662e-01	 2.5416879038e+00
 1.9270397115e+00	 3.1701851403e-01	 2.4995288401e+00
 1.9241600024e+00	 3.3405261133e-01	 2.4557973914e+00
 1.9547502734e+00	 1.6575269926e-01	 2.7896276723e+00
 1.9532503062e+00	 1.8258077411e-01	 2.7640149010e+00
 1.9516001200e+00	 1.9944771090e-01	 2.7362732449e+00
 1.9497985234e+00	 2.1635172730e-01	 2.7063784059e+00
 1.9478443490e+00	 2.3329100937e-01	 2.6743312341e+00
 1.9457364537e+00	 2.5026371189e-01	 2.6401577157e+00
 1.9434737203e+00	 2.6726795865e-01	 2.6039090422e+00
 1.9410550578e+00	 2.8430184279e-01	 2.5656617653e+00
 1.9384794024e+00	 3.0136342716e-01	 2.5255180419e+00
 1.9357457184e+00	 3.1845074470e-01	 2.4836059716e+00
 1.9328529993e+00	 3.3556179888e-01	 2.4400800302e+00
 1.9635417532e+00	 1.6649817121e-01	 2.7711622321e+00
 1.9620350399e+00	 1.8340193024e-01	 2.7456287693e+00
 1.9603774320e+00	 2.0034472601e-01	 2.7180346812e+00
 1.9585677328e+00	 2.1732476813e-01	 2.6883457134e+00
 1.9566047694e+00	 2.3434023454e-01	 2.6565517281e+00
 1.9544873939e+00	 2.5138927171e-01	 2.6226666912e+00
 1.9522144839e+00	 2.6846999499e-01	 2.5867287442e+00
 1.9497849434e+00	 2.8558048894e-01	 2.5488003670e+00
 1.9471977040e+00	 3.0271880770e-01	 2.5089686337e+00
 1.9444517253e+00	 3.1988297537e-01	 2.4673455659e+00
 1.9415459962e+00	 3.3707098643e-01	 2.4240685862e+00
 1.8546160272e+00	 3.2197911094e-01	 2.5809102393e+00
 1.8516873736e+00	 3.3841559011e-01	 2.5358191445e+00
 1.8486043281e+00	 3.5487092882e-01	 2.4883279095e+00
 1.8453660122e+00	 3.7134313460e-01	 2.4383414772e+00
 1.8419715781e+00	 3.8783018861e-01	 2.3857959678e+00
 1.8384202100e+00	 4.0433004622e-01	 2.3306598774e+00
 1.8347111246e+00	 4.2084063749e-01	 2.2729353636e+00
 1.8308435719e+00	 4.3735986779e-01	 2.2126596168e+00
 1.8268168362e+00	 4.5388561839e-01	 2.1499063152e+00
 1.8226302364e+00	 4.7041574706e-01	 2.0847871642e+00
 1.8182831273e+00	 4.8694808875e-01	 2.0174535152e+00
 1.8633090241e+00	 3.2348829849e-01	 2.5645249635e+00
 1.8603666432e+00	 3.4000181909e-01	 2.5191214745e+00
 1.8572691468e+00	 3.5653428762e-01	 2.4712632379e+00
 1.8540156522e+00	 3.7308370228e-01	 2.4208537411e+00
 1.8506053077e+00	 3.8964803478e-01	 2.3678273821e+00
 1.8470372935e+00	 4.0622523088e-01	 2.3121506958e+00
 1.8433108228e+00	 4.2281321096e-01	 2.2538236704e+00
 1.8394251420e+00	 4.3940987056e-01	 2.1928811523e+00
 1.8353795321e+00	 4.5601308101e-01	 2.1293943392e+00
 1.8311733088e+00	 4.7262069006e-01	 2.0634723591e+00
 1.8268058238e+00	 4.8923052251e-01	 1.9952639337e+00
 1.8720020210e+00	 3.2499748604e-01	 2.5485313438e+00
 1.8690459129e+00	 3.4158804806e-01	 2.5028867842e+00
 1.8659339656e+00	 3.5819764642e-01	 2.4547369389e+00
 1.8626652922e+00	 3.7482426996e-01	 2.4039866704e+00
 1.8592390372e+00	 3.9146588094e-01	 2.3505714690e+00
 1.8556543770e+00	 4.0812041554e-01	 2.2944587034e+00
 1.8519105210e+00	 4.2478578442e-01	 2.2356489646e+00
 1.8480067122e+00	 4.4145987332e-01	 2.1741775011e+00
 1.8439422280e+00	 4.5814054363e-01	 2.1101157461e+00
 1.8397163812e+00	 4.7482563307e-01	 2.0435729333e+00
 1.8353285204e+00	 4.9151295627e-01	 1.9746978007e+00
 1.8806950179e+00	 3.2650667358e-01	 2.5328381331e+00
 1.8777251825e+00	 3.4317427704e-01	 2.4870201042e+00
 1.8745987843e+00	 3.5986100522e-01	 2.4386502109e+00
 1.8713149323e+00	 3.7656483765e-01	 2.3876374729e+00
 1.8678727668e+00	 3.9328372711e-01	 2.3339212390e+00
 1.8642714605e+00	 4.1001560020e-01	 2.2774724580e+00
 1.8605102192e+00	 4.2675835788e-01	 2.2182950465e+00
 1.8565882823e+00	 4.4350987608e-01	 2.1564273516e+00
 1.8525049239e+00	 4.6026800626e-01	 2.0919437081e+00
 1.8482594536e+00	 4.7703057607e-01	 2.0249560881e+00
 1.8438512169e+00	 4.9379539003e-01	 1.9556158408e+00
 1.8893880148e+00	 3.2801586113e-01	 2.5173557180e+00
 1.8864044522e+00	 3.4476050601e-01	 2.4714282116e+00
 1.8832636031e+00	 3.6152436402e-01	 2.4229061181e+00
 1.8799645723e+00	 3.7830540533e-01	 2.3717053497e+00
 1.8765064963e+00	 3.9510157327e-01	 2.3177718321e+00
 1.8728885440e+00	 4.1191078486e-01	 2.2610827923e+00
 1.8691099174e+00	 4.2873093135e-01	 2.2016481471e+00
 1.8651698524e+00	 4.4555987884e-01	 2.1395119897e+00
 1.8610676199e+00	 4.6239546888e-01	 2.0747541731e+00
 1.8568025260e+00	 4.7923551908e-01	 2.0074919908e+00
 1.8523739134e+00	 4.9607782379e-01	 1.9378819494e+00
 1.8980810117e+00	 3.2952504868e-01	 2.5019960909e+00
 1.8950837218e+00	 3.4634673499e-01	 2.4560196000e+00
 1.8919284218e+00	 3.6318772282e-01	 2.4074095588e+00
 1.8886142123e+00	 3.8004597302e-01	 2.3560914613e+00
 1.8851402259e+00	 3.9691941944e-01	 2.3020204815e+00
 1.8815056276e+00	 4.1380596952e-01	 2.2451827754e+00
 1.8777096156e+00	 4.3070350481e-01	 2.1855968867e+00
 1.8737514226e+00	 4.4760988161e-01	 2.1233152537e+00
 1.8696303158e+00	 4.6452293151e-01	 2.0584258164e+00
 1.8653455984e+00	 4.8144046208e-01	 1.9910537238e+00
 1.8608966100e+00	 4.9836025755e-01	 1.9213631363e+00
 1.9067740086e+00	 3.3103423623e-01	 2.4866728236e+00
 1.9037629915e+00	 3.4793296396e-01	 2.4407044505e+00
 1.9005932405e+00	 3.6485108162e-01	 2.3920672346e+00
 1.8972638524e+00	 3.8178654070e-01	 2.3406988947e+00
 1.8937739555e+00	 3.9873726560e-01	 2.2865664783e+00
 1.8901227111e+00	 4.1570115418e-01	 2.2296676746e+00
 1.8863093138e+00	 4.3267607828e-01	 2.1700322338e+00
 1.8823329927e+00	 4.4965988437e-01	 2.1077234910e+00
 1.8781930117e+00	 4.6665039413e-01	 2.0428399941e+00
 1.8738886708e+00	 4.8364540509e-01	 1.9755172335e+00
 1.8694193065e+00	 5.0064269131e-01	 1.9059294718e+00
 1.9154670055e+00	 3.3254342378e-01	 2.4713010401e+00
 1.9124422611e+00	 3.4951919294e-01	 2.4253946039e+00
 1.9092580593e+00	 3.6651444042e-01	 2.3767876203e+00
 1.9059134924e+00	 3.8352710838e-01	 2.3254326310e+00
 1.9024076850e+00	 4.0055511177e-01	 2.2713111368e+00
 1.8987397946e+00	 4.1759633884e-01	 2.2144349183e+00
 1.8949090120e+00	 4.3464865175e-01	 2.1548474654e+00
 1.8909145628e+00	 4.5170988714e-01	 2.0926255153e+00
 1.8867557076e+00	 4.6877785675e-01	 2.0278806970e+00
 1.8824317432e+00	 4.8585034809e-01	 1.9607612811e+00
 1.8779420031e+00	 5.0292512507e-01	 1.8914540333e+00
 1.9241600024e+00	 3.3405261133e-01	 2.4557973914e+00
 1.9211215308e+00	 3.5110542191e-01	 2.4100035330e+00
 1.9179228780e+00	 3.6817779922e-01	 2.3614809343e+00
 1.9145631324e+00	 3.8526767607e-01	 2.3101995138e+00
 1.9110414146e+00	 4.0237295794e-01	 2.2561577608e+00
 1.9073568781e+00	 4.1949152350e-01	 2.1993840598e+00
 1.9035087102e+00	 4.3662122521e-01	 2.1399381284e+00
 1.8994961330e+00	 4.5375988990e-01	 2.0779125645e+00
 1.8953184036e+00	 4.7090531938e-01	 2.0134345055e+00
 1.8909748156e+00	 4.8805529110e-01	 1.9466673945e+00
 1.8864646996e+00	 5.0520755883e-01	 1.8778128536e+00
 1.9328529993e+00	 3.3556179888e-01	 2.4400800302e+00
 1.9298008004e+00	 3.5269165089e-01	 2.3944463155e+00
 1.9265876967e+00	 3.6984115802e-01	 2.3460591099e+00
 1.9232127724e+00	 3.8700824375e-01	 2.2949082189e+00
 1.9196751442e+00	 4.0419080410e-01	 2.2410116107e+00
 1.9159739616e+00	 4.2138670816e-01	 2.1844167424e+00
 1.9121084084e+00	 4.3859379868e-01	 2.1252020014e+00
 1.9080777031e+00	 4.5580989266e-01	 2.0634782603e+00
 1.9038810995e+00	 4.7303278200e-01	 1.9993905463e+00
 1.8995178880e+00	 4.9026023410e-01	 1.9331198210e+00
 1.8949873961e+00	 5.0748999259e-01	 1.8648848702e+00
 1.9415459962e+00	 3.3707098643e-01	 2.4240685862e+00
 1.9384800701e+00	 3.5427787987e-01	 2.3786396081e+00
 1.9352525155e+00	 3.7150451682e-01	 2.3304357674e+00
 1.9318624125e+00	 3.8874881144e-01	 2.2794692236e+00
 1.9283088737e+00	 4.0600865027e-01	 2.2257798712e+00
 1.9245910451e+00	 4.2328189282e-01	 2.1694366642e+00
 1.9207081067e+00	 4.4056637214e-01	 2.1105390579e+00
 1.9166592732e+00	 4.5785989543e-01	 2.0492185687e+00
 1.9124437954e+00	 4.7516024463e-01	 1.9856404496e+00
 1.9080609604e+00	 4.9246517711e-01	 1.9200054816e+00
 1.9035100927e+00	 5.0977242635e-01	 1.8525518762e+00
 1.8182831273e+00	 4.8694808875e-01	 2.0174535152e+00
 1.8137749003e+00	 5.0348045650e-01	 1.9482900659e+00
 1.8091049855e+00	 5.2001064282e-01	 1.8778167891e+00
 1.8042728512e+00	 5.3653641979e-01	 1.8064633502e+00
 1.7992780042e+00	 5.5305553956e-01	 1.7347205298e+00
 1.7941199904e+00	 5.6956573515e-01	 1.6631422295e+00
 1.7887983956e+00	 5.8606472121e-01	 1.5923475159e+00
 1.7833128461e+00	 6.0255019490e-01	 1.5199152638e+00
 1.7776630090e+00	 6.1901983667e-01	 1.4414201135e+00
 1.7718485933e+00	 6.3547131114e-01	 1.3573307439e+00
 1.7658693503e+00	 6.5190226803e-01	 1.2682104734e+00
 1.8268058238e+00	 4.8923052251e-01	 1.9952639337e+00
 1.8222764658e+00	 5.0584038114e-01	 1.9252521104e+00
 1.8175846620e+00	 5.2244804811e-01	 1.8541353275e+00
 1.8127298785e+00	 5.3905128506e-01	 1.7824592997e+00
 1.8077116195e+00	 5.5564783361e-01	 1.7108287663e+00
 1.8025294290e+00	 5.7223541615e-01	 1.6399093568e+00
 1.7971828907e+00	 5.8881173662e-01	 1.5704241207e+00
 1.7916716291e+00	 6.0537448139e-01	 1.4988363975e+00
 1.7859953100e+00	 6.2192132001e-01	 1.4220788966e+00
 1.7801536409e+00	 6.3844990620e-01	 1.3407938044e+00
 1.7741463719e+00	 6.5495787863e-01	 1.2556462409e+00
 1.8353285204e+00	 4.9151295627e-01	 1.9746978007e+00
 1.8307780312e+00	 5.0820030577e-01	 1.9040503919e+00
 1.8260643386e+00	 5.2488545340e-01	 1.8324696175e+00
 1.8211869057e+00	 5.4156615033e-01	 1.7605950577e+00
 1.8161452348e+00	 5.5824012766e-01	 1.6891234677e+00
 1.8109388675e+00	 5.7490509715e-01	 1.6188105360e+00
 1.8055673857e+00	 5.9155875203e-01	 1.5503124743e+00
 1.8000304122e+00	 6.0819876787e-01	 1.4792372414e+00
 1.7943276110e+00	 6.2482280336e-01	 1.4037948902e+00
 1.7884586885e+00	 6.4142850126e-01	 1.3247126007e+00
 1.7824233934e+00	 6.5801348923e-01	 1.2427376666e+00
 1.8438512169e+00	 4.9379539003e-01	 1.9556158408e+00
 1.8392795967e+00	 5.1056023041e-01	 1.8845419672e+00
 1.8345440151e+00	 5.2732285868e-01	 1.8126794104e+00
 1.8296439330e+00	 5.4408101560e-01	 1.7407397413e+00
 1.8245788501e+00	 5.6083242171e-01	 1.6694900943e+00
 1.8193483061e+00	 5.7757477815e-01	 1.5997548530e+00
 1.8139518808e+00	 5.9430576744e-01	 1.5319000814e+00
 1.8083891953e+00	 6.1102305435e-01	 1.4611129869e+00
 1.8026599120e+00	 6.2772428671e-01	 1.3866106895e+00
 1.7967637360e+00	 6.4440709632e-01	 1.3091855680e+00
 1.7907004149e+00	 6.6106909983e-01	 1.2296477534e+00
 1.8523739134e+00	 4.9607782379e-01	 1.9378819494e+00
 1.8477811622e+00	 5.1292015504e-01	 1.8665872195e+00
 1.8430236917e+00	 5.2976026397e-01	 1.7946278261e+00
 1.8381009602e+00	 5.4659588087e-01	 1.7227657588e+00
 1.8330124654e+00	 5.6342471576e-01	 1.6518171958e+00
 1.8277577446e+00	 5.8024445915e-01	 1.5826541496e+00
 1.8223363759e+00	 5.9705278285e-01	 1.5151448316e+00
 1.8167479783e+00	 6.1384734083e-01	 1.4444601367e+00
 1.8109922131e+00	 6.3062577006e-01	 1.3705694021e+00
 1.8050687836e+00	 6.4738569138e-01	 1.2943106996e+00
 1.7989774365e+00	 6.6412471043e-01	 1.2165379452e+00
 1.8608966100e+00	 4.9836025755e-01	 1.9213631363e+00
 1.8562827277e+00	 5.1528007968e-01	 1.8500497997e+00
 1.8515033682e+00	 5.3219766926e-01	 1.7781812946e+00
 1.8465579875e+00	 5.4911074614e-01	 1.7065487542e+00
 1.8414460807e+00	 5.6601700981e-01	 1.6359963602e+00
 1.8361671832e+00	 5.8291414015e-01	 1.5674229812e+00
 1.8307208709e+00	 5.9979979826e-01	 1.5000065387e+00
 1.8251067614e+00	 6.1667162732e-01	 1.4292764836e+00
 1.8193245141e+00	 6.3352725341e-01	 1.3557146450e+00
 1.8133738312e+00	 6.5036428644e-01	 1.2801855637e+00
 1.8072544580e+00	 6.6718032103e-01	 1.2035681695e+00
 1.8694193065e+00	 5.0064269131e-01	 1.9059294718e+00
 1.8647842931e+00	 5.1764000431e-01	 1.8347965694e+00
 1.8599830448e+00	 5.3463507454e-01	 1.7632094983e+00
 1.8550150148e+00	 5.5162561141e-01	 1.6919675519e+00
 1.8498796960e+00	 5.6860930386e-01	 1.6219221646e+00
 1.8445766217e+00	 5.8558382115e-01	 1.5539785750e+00
 1.8391053660e+00	 6.0254681367e-01	 1.4864469052e+00
 1.8334655445e+00	 6.1949591380e-01	 1.4155610896e+00
 1.8276568151e+00	 6.3642873675e-01	 1.3420905404e+00
 1.8216788787e+00	 6.5334288150e-01	 1.2669073210e+00
 1.8155314795e+00	 6.7023593163e-01	 1.1908968780e+00
 1.8779420031e+00	 5.0292512507e-01	 1.8914540333e+00
 1.8732858586e+00	 5.1999992895e-01	 1.8206975452e+00
 1.8684627213e+00	 5.3707247983e-01	 1.7495853163e+00
 1.8634720420e+00	 5.5414047668e-01	 1.6789041032e+00
 1.8583133113e+00	 5.7120159791e-01	 1.6094921258e+00
 1.8529860603e+00	 5.8825350215e-01	 1.5422407597e+00
 1.8474898610e+00	 6.0529382908e-01	 1.4744294884e+00
 1.8418243275e+00	 6.2232020028e-01	 1.4033142649e+00
 1.8359891162e+00	 6.3933022010e-01	 1.3297417111e+00
 1.8299839263e+00	 6.5632147656e-01	 1.2545727393e+00
 1.8238085011e+00	 6.7329154224e-01	 1.1786810852e+00
 1.8864646996e+00	 5.0520755883e-01	 1.8778128536e+00
 1.8817874241e+00	 5.2235985359e-01	 1.8076258439e+00
 1.8769423979e+00	 5.3950988512e-01	 1.7371847694e+00
 1.8719290693e+00	 5.5665534195e-01	 1.6672434335e+00
 1.8667469266e+00	 5.7379389196e-01	 1.5986066535e+00
 1.8613954988e+00	 5.9092318315e-01	 1.5320423995e+00
 1.8558743561e+00	 6.0804084449e-01	 1.4639196663e+00
 1.8501831106e+00	 6.2514448676e-01	 1.3925375470e+00
 1.8443214172e+00	 6.4223170345e-01	 1.3187132763e+00
 1.8382889739e+00	 6.5930007162e-01	 1.2432782089e+00
 1.8320855226e+00	 6.7634715284e-01	 1.1670764063e+00
 1.8949873961e+00	 5.0748999259e-01	 1.8648848702e+00
 1.8902889896e+00	 5.2471977822e-01	 1.7954576297e+00
 1.8854220744e+00	 5.4194729040e-01	 1.7258869671e+00
 1.8803860966e+00	 5.5917020722e-01	 1.6568735914e+00
 1.8751805420e+00	 5.7638618601e-01	 1.5891690034e+00
 1.8698049374e+00	 5.9359286415e-01	 1.5232343255e+00
 1.8642588511e+00	 6.1078785990e-01	 1.4548846045e+00
 1.8585418937e+00	 6.2796877325e-01	 1.3832336802e+00
 1.8526537182e+00	 6.4513318680e-01	 1.3090508466e+00
 1.8465940215e+00	 6.6227866668e-01	 1.2331197560e+00
 1.8403625441e+00	 6.7940276344e-01	 1.1562370925e+00
 1.9035100927e+00	 5.0977242635e-01	 1.8525518762e+00
 1.8987905551e+00	 5.2707970286e-01	 1.7840720618e+00
 1.8939017510e+00	 5.4438469569e-01	 1.7155740546e+00
 1.8888431238e+00	 5.6168507249e-01	 1.6476855985e+00
 1.8836141573e+00	 5.7897848006e-01	 1.5810852316e+00
 1.8782143759e+00	 5.9626254515e-01	 1.5157573438e+00
 1.8726433462e+00	 6.1353487531e-01	 1.4472932234e+00
 1.8669006767e+00	 6.3079305973e-01	 1.3754065949e+00
 1.8609860192e+00	 6.4803467015e-01	 1.3008005184e+00
 1.8548990690e+00	 6.6525726174e-01	 1.2241930559e+00
 1.8486395656e+00	 6.8245837404e-01	 1.1463160657e+00
 1.7658693503e+00	 6.5190226803e-01	 1.2682104734e+00
 1.7597240152e+00	 6.6831313035e-01	 1.1765687007e+00
 1.7534134267e+00	 6.8469872359e-01	 1.0867624854e+00
 1.7469374649e+00	 7.0105665617e-01	 9.9885917747e-01
 1.7402960542e+00	 7.1738452531e-01	 9.1276962961e-01
 1.7334891636e+00	 7.3367991799e-01	 8.2837027932e-01
 1.7265168079e+00	 7.4994041202e-01	 7.4550076515e-01
 1.7193790471e+00	 7.6616357699e-01	 6.6396189070e-01
 1.7120759877e+00	 7.8234697537e-01	 5.8351396212e-01
 1.7046077823e+00	 7.9848816357e-01	 5.0387552296e-01
 1.6969746305e+00	 8.1458469296e-01	 4.2472250899e-01
 1.7741463719e+00	 6.5495787863e-01	 1.2556462409e+00
 1.7679722322e+00	 6.7144566231e-01	 1.1669537055e+00
 1.7616320646e+00	 6.8790805846e-01	 1.0750819436e+00
 1.7551257485e+00	 7.0434266430e-01	 9.8513162785e-01
 1.7484532080e+00	 7.2074706578e-01	 8.9786596856e-01
 1.7416144121e+00	 7.3711883859e-01	 8.1303967742e-01
 1.7346093753e+00	 7.5345554916e-01	 7.3037119214e-01
 1.7274381583e+00	 7.6975475570e-01	 6.4954075822e-01
 1.7201008678e+00	 7.8601400927e-01	 5.7018889514e-01
 1.7125976573e+00	 8.0223085480e-01	 4.9191527150e-01
 1.7049287272e+00	 8.1840283220e-01	 4.1427801186e-01
 1.7824233934e+00	 6.5801348923e-01	 1.2427376666e+00
 1.7762204492e+00	 6.7457819426e-01	 1.1582982442e+00
 1.7698507024e+00	 6.9111739332e-01	 1.0708826363e+00
 1.7633140321e+00	 7.0762867243e-01	 9.7998712175e-01
 1.7566103618e+00	 7.2410960625e-01	 8.9023222556e-01
 1.7497396605e+00	 7.4055775918e-01	 8.0368197301e-01
 1.7427019428e+00	 7.5697068630e-01	 7.1997168221e-01
 1.7354972695e+00	 7.7334593442e-01	 6.3869832516e-01
 1.7281257479e+00	 7.8968104316e-01	 5.5941906003e-01
 1.7205875322e+00	 8.0597354602e-01	 4.8165018445e-01
 1.7128828239e+00	 8.2222097143e-01	 4.0486653306e-01
 1.7907004149e+00	 6.6106909983e-01	 1.2296477534e+00
 1.7844686661e+00	 6.7771072622e-01	 1.1485584471e+00
 1.7780693403e+00	 6.9432672819e-01	 1.0654449971e+00
 1.7715023157e+00	 7.1091468055e-01	 9.7955212589e-01
 1.7647675156e+00	 7.2747214673e-01	 8.9014334023e-01
 1.7578649089e+00	 7.4399667978e-01	 8.0058339988e-01
 1.7507945102e+00	 7.6048582344e-01	 7.1458613973e-01
 1.7435563806e+00	 7.7693711313e-01	 6.3170236853e-01
 1.7361506280e+00	 7.9334807706e-01	 5.5144180409e-01
 1.7285774072e+00	 8.0971623725e-01	 4.7327237849e-01
 1.7208369206e+00	 8.2603911066e-01	 3.9661966520e-01
 1.7989774365e+00	 6.6412471043e-01	 1.2165379452e+00
 1.7927168831e+00	 6.8084325817e-01	 1.1379582985e+00
 1.7862879781e+00	 6.9753606306e-01	 1.0581891845e+00
 1.7796905993e+00	 7.1420068868e-01	 9.7643482386e-01
 1.7729246694e+00	 7.3083468720e-01	 8.9191821103e-01
 1.7659901573e+00	 7.4743560037e-01	 8.0388143325e-01
 1.7588870776e+00	 7.6400096058e-01	 7.1449325577e-01
 1.7516154918e+00	 7.8052829185e-01	 6.2881571189e-01
 1.7441755081e+00	 7.9701511095e-01	 5.4649005071e-01
 1.7365672822e+00	 8.1345892847e-01	 4.6697035521e-01
 1.7287910173e+00	 8.2985724989e-01	 3.8966648356e-01
 1.8072544580e+00	 6.6718032103e-01	 1.2035681695e+00
 1.8009651001e+00	 6.8397579012e-01	 1.1267191902e+00
 1.7945066160e+00	 7.0074539792e-01	 1.0493872898e+00
 1.7878788828e+00	 7.1748669681e-01	 9.7077337427e-01
 1.7810818232e+00	 7.3419722767e-01	 8.9009657160e-01
 1.7741154057e+00	 7.5087452097e-01	 8.0659455607e-01
 1.7669796451e+00	 7.6751609772e-01	 7.1952377393e-01
 1.7596746030e+00	 7.8411947056e-01	 6.3029632422e-01
 1.7522003882e+00	 8.0068214485e-01	 5.4479238552e-01
 1.7445571572e+00	 8.1720161970e-01	 4.6292906837e-01
 1.7367451140e+00	 8.3367538912e-01	 3.8413358792e-01
 1.8155314795e+00	 6.7023593163e-01	 1.1908968780e+00
 1.8092133171e+00	 6.8710832208e-01	 1.1150599846e+00
 1.8027252539e+00	 7.0395473279e-01	 1.0393080174e+00
 1.7960671664e+00	 7.2077270493e-01	 9.6287522864e-01
 1.7892389771e+00	 7.3755976815e-01	 8.8501300619e-01
 1.7822406541e+00	 7.5431344156e-01	 8.0499014504e-01
 1.7750722125e+00	 7.7103123486e-01	 7.2209301688e-01
 1.7677337141e+00	 7.8771064928e-01	 6.3562563490e-01
 1.7602252683e+00	 8.0434917874e-01	 5.4657313928e-01
 1.7525470321e+00	 8.2094431093e-01	 4.6132998837e-01
 1.7446992107e+00	 8.3749352836e-01	 3.8014514232e-01
 1.8238085011e+00	 6.7329154224e-01	 1.1786810852e+00
 1.8174615341e+00	 6.9024085403e-01	 1.1031970776e+00
 1.8109438917e+00	 7.0716406766e-01	 1.0282167649e+00
 1.8042554500e+00	 7.2405871306e-01	 9.5304389178e-01
 1.7973961309e+00	 7.4092230862e-01	 8.7699772149e-01
 1.7903659025e+00	 7.5775236216e-01	 7.9941319847e-01
 1.7831647799e+00	 7.7454637200e-01	 7.1964100470e-01
 1.7757928253e+00	 7.9130182799e-01	 6.3704750799e-01
 1.7682501484e+00	 8.0801621264e-01	 5.5101460025e-01
 1.7605369071e+00	 8.2468700215e-01	 4.6235116400e-01
 1.7526533074e+00	 8.4131166759e-01	 3.7782291277e-01
 1.8320855226e+00	 6.7634715284e-01	 1.1670764063e+00
 1.8257097511e+00	 6.9337338599e-01	 1.0913444575e+00
 1.8191625296e+00	 7.1037340252e-01	 1.0163757008e+00
 1.8124437336e+00	 7.2734472119e-01	 9.4157901254e-01
 1.8055532847e+00	 7.4428484909e-01	 8.6637664582e-01
 1.7984911509e+00	 7.6119128276e-01	 7.9020422726e-01
 1.7912573474e+00	 7.7806150914e-01	 7.1251064405e-01
 1.7838519365e+00	 7.9489300671e-01	 6.3275781903e-01
 1.7762750285e+00	 8.1168324653e-01	 5.5042037224e-01
 1.7685267821e+00	 8.2842969338e-01	 4.6498516835e-01
 1.7606074041e+00	 8.4512980682e-01	 3.7728630304e-01
 1.8403625441e+00	 6.7940276344e-01	 1.1562370925e+00
 1.8339579680e+00	 6.9650591794e-01	 1.0797137628e+00
 1.8273811674e+00	 7.1358273739e-01	 1.0040438390e+00
 1.8206320172e+00	 7.3063072931e-01	 9.2877647149e-01
 1.8137104385e+00	 7.4764738957e-01	 8.5347152497e-01
 1.8066163993e+00	 7.6463020335e-01	 7.7769935408e-01
 1.7993499148e+00	 7.8157664628e-01	 7.0104046497e-01
 1.7919110476e+00	 7.9848418542e-01	 6.2308506100e-01
 1.7842999086e+00	 8.1535028043e-01	 5.4343247142e-01
 1.7765166570e+00	 8.3217238461e-01	 4.6169046276e-01
 1.7685615008e+00	 8.4894794605e-01	 3.7747443390e-01
 1.8486395656e+00	 6.8245837404e-01	 1.1463160657e+00
 1.8422061850e+00	 6.9963844990e-01	 1.0685143373e+00
 1.8355998053e+00	 7.1679207226e-01	 9.9147711135e-01
 1.8288203008e+00	 7.3391673744e-01	 9.1492846562e-01
 1.8218675923e+00	 7.5100993004e-01	 8.3860001483e-01
 1.8147416478e+00	 7.6806912395e-01	 7.6223040920e-01
 1.8074424822e+00	 7.8509178342e-01	 6.8556471495e-01
 1.7999701588e+00	 8.0207536413e-01	 6.0835367509e-01
 1.7923247887e+00	 8.1901731432e-01	 5.3035284938e-01
 1.7845065320e+00	 8.3591507583e-01	 4.5132163392e-01
 1.7765155975e+00	 8.5276608528e-01	 3.7102216180e-01
 1.6969746305e+00	 8.1458469296e-01	 4.2472250899e-01
 1.6891781183e+00	 8.3063138694e-01	 3.4462924374e-01
 1.6812172549e+00	 8.4662853067e-01	 2.6279940489e-01
 1.6730923806e+00	 8.6257366750e-01	 1.7981425780e-01
 1.6648038834e+00	 8.7846434017e-01	 9.6192260091e-02
 1.6563521993e+00	 8.9429809199e-01	 1.2388906271e-02
 1.6477378124e+00	 9.1007246793e-01	-7.1202908596e-02
 1.6389612550e+00	 9.2578501584e-01	-1.5425199785e-01
 1.6300231078e+00	 9.4143328755e-01	-2.3648745966e-01
 1.6209239997e+00	 9.5701484010e-01	-3.1769671869e-01
 1.6116646083e+00	 9.7252723688e-01	-3.9772303402e-01
 1.7049287272e+00	 8.1840283220e-01	 4.1427801186e-01
 1.6970956710e+00	 8.3452474059e-01	 3.3557668923e-01
 1.6890974932e+00	 8.5059686648e-01	 2.5485039836e-01
 1.6809345359e+00	 8.6661674170e-01	 1.7272614288e-01
 1.6726071886e+00	 8.8258189749e-01	 8.9765649696e-02
 1.6641158896e+00	 8.9848986561e-01	 6.4651498287e-03
 1.6554611252e+00	 9.1433817956e-01	-7.6744305907e-02
 1.6466434301e+00	 9.3012437566e-01	-1.5949598761e-01
 1.6376633878e+00	 9.4584599429e-01	-2.4148607791e-01
 1.6285216302e+00	 9.6150058104e-01	-3.2247171198e-01
 1.6192188380e+00	 9.7708568786e-01	-4.0226846697e-01
 1.7128828239e+00	 8.2222097143e-01	 4.0486653306e-01
 1.7050132237e+00	 8.3841809423e-01	 3.2709150615e-01
 1.6969777316e+00	 8.5456520229e-01	 2.4715913873e-01
 1.6887766911e+00	 8.7065981591e-01	 1.6571787008e-01
 1.6804104939e+00	 8.8669945480e-01	 8.3348756887e-02
 1.6718795800e+00	 9.0268163924e-01	 5.6522692890e-04
 1.6631844380e+00	 9.1860389118e-01	-8.2186616246e-02
 1.6543256052e+00	 9.3446373548e-01	-1.6452712878e-01
 1.6453036679e+00	 9.5025870104e-01	-2.4614169618e-01
 1.6361192607e+00	 9.6598632197e-01	-3.2677873474e-01
 1.6267730677e+00	 9.8164413885e-01	-4.0624712529e-01
 1.7208369206e+00	 8.2603911066e-01	 3.9661966520e-01
 1.7129307764e+00	 8.4231144788e-01	 3.1924061502e-01
 1.7048579700e+00	 8.5853353810e-01	 2.3973540691e-01
 1.6966188464e+00	 8.7470289011e-01	 1.5874995919e-01
 1.6882137992e+00	 8.9081701212e-01	 7.6861058973e-02
 1.6796432703e+00	 9.0687341286e-01	-5.4238747119e-03
 1.6709077508e+00	 9.2286960280e-01	-8.7666460774e-02
 1.6620077804e+00	 9.3880309530e-01	-1.6949644949e-01
 1.6529439479e+00	 9.5467140778e-01	-2.5061023352e-01
 1.6437168913e+00	 9.7047206291e-01	-3.3076877384e-01
 1.6343272974e+00	 9.8620258983e-01	-4.0979494122e-01
 1.7287910173e+00	 8.2985724989e-01	 3.8966648356e-01
 1.7208483291e+00	 8.4620480153e-01	 3.1208960091e-01
 1.7127382084e+00	 8.6250187391e-01	 2.3258869976e-01
 1.7044610017e+00	 8.7874596432e-01	 1.5178356069e-01
 1.6960171044e+00	 8.9493456943e-01	 7.0223436199e-02
 1.6874069607e+00	 9.1106518648e-01	-1.1613140786e-02
 1.6786310636e+00	 9.2713531443e-01	-9.3317964881e-02
 1.6696899555e+00	 9.4314245513e-01	-1.7455217328e-01
 1.6605842280e+00	 9.5908411453e-01	-2.5504466162e-01
 1.6513145218e+00	 9.7495780385e-01	-3.3458989789e-01
 1.6418815270e+00	 9.9076104082e-01	-4.1304513522e-01
 1.7367451140e+00	 8.3367538912e-01	 3.8413358792e-01
 1.7287658818e+00	 8.5009815518e-01	 3.0570272810e-01
 1.7206184467e+00	 8.6647020972e-01	 2.2572822072e-01
 1.7123031570e+00	 8.8278903852e-01	 1.4478042585e-01
 1.7038204097e+00	 8.9905212675e-01	 6.3358124559e-02
 1.6951706510e+00	 9.1525696011e-01	-1.8111591219e-02
 1.6863543764e+00	 9.3140102605e-01	-9.9272828926e-02
 1.6773721306e+00	 9.4748181495e-01	-1.7983979586e-01
 1.6682245080e+00	 9.6349682127e-01	-2.5959508364e-01
 1.6589121523e+00	 9.7944354479e-01	-3.3838733395e-01
 1.6494357567e+00	 9.9531949180e-01	-4.1612828637e-01
 1.7446992107e+00	 8.3749352836e-01	 3.8014514232e-01
 1.7366834345e+00	 8.5399150883e-01	 3.0014295343e-01
 1.7284986851e+00	 8.7043854553e-01	 2.1916286989e-01
 1.7201453123e+00	 8.8683211273e-01	 1.3770287656e-01
 1.7116237150e+00	 9.0316968406e-01	 5.6188668941e-02
 1.7029343414e+00	 9.1944873373e-01	-2.5026340286e-02
 1.6940776892e+00	 9.3566673768e-01	-1.0566039799e-01
 1.6850543058e+00	 9.5182117477e-01	-1.8550216071e-01
 1.6758647881e+00	 9.6790952801e-01	-2.6440881184e-01
 1.6665097828e+00	 9.8392928573e-01	-3.4230354317e-01
 1.6569899864e+00	 9.9987794279e-01	-4.1917240188e-01
 1.7526533074e+00	 8.4131166759e-01	 3.7782291277e-01
 1.7446009872e+00	 8.5788486247e-01	 2.9547193834e-01
 1.7363789235e+00	 8.7440688134e-01	 2.1290123329e-01
 1.7279874676e+00	 8.9087518693e-01	 1.3051377514e-01
 1.7194270202e+00	 9.0728724138e-01	 4.8639876583e-02
 1.7106980317e+00	 9.2364050735e-01	-3.2462656061e-02
 1.7018010020e+00	 9.3993244930e-01	-1.1260773070e-01
 1.6927364809e+00	 9.5616053459e-01	-1.9167953369e-01
 1.6835050681e+00	 9.7232223476e-01	-2.6963044407e-01
 1.6741074133e+00	 9.8841502667e-01	-3.4647829527e-01
 1.6645442161e+00	 1.0044363938e+00	-4.2230298550e-01
 1.7606074041e+00	 8.4512980682e-01	 3.7728630304e-01
 1.7525185399e+00	 8.6177821612e-01	 2.9175005961e-01
 1.7442591619e+00	 8.7837521715e-01	 2.0695157158e-01
 1.7358296229e+00	 8.9491826114e-01	 1.2317649394e-01
 1.7272303255e+00	 9.1140479869e-01	 4.0637770831e-02
 1.7184617220e+00	 9.2783228098e-01	-4.0524019201e-02
 1.7095243148e+00	 9.4419816092e-01	-1.2023966712e-01
 1.7004186560e+00	 9.6049989442e-01	-1.9850967641e-01
 1.6911453482e+00	 9.7673494150e-01	-2.7540193906e-01
 1.6817050438e+00	 9.9290076761e-01	-3.5104874193e-01
 1.6720984458e+00	 1.0089948448e+00	-4.2564310515e-01
 1.7685615008e+00	 8.4894794605e-01	 3.7747443390e-01
 1.7604360926e+00	 8.6567156977e-01	 2.8903641886e-01
 1.7521394003e+00	 8.8234355296e-01	 2.0132180802e-01
 1.7436717782e+00	 8.9896133535e-01	 1.1565488482e-01
 1.7350336307e+00	 9.1552235600e-01	 3.2109545203e-02
 1.7262254124e+00	 9.3202405460e-01	-4.9312181096e-02
 1.7172476276e+00	 9.4846387255e-01	-1.2867889575e-01
 1.7081008311e+00	 9.6483925424e-01	-2.0612791869e-01
 1.6987856282e+00	 9.8114764825e-01	-2.8186269065e-01
 1.6893026743e+00	 9.9738650855e-01	-3.5614948911e-01
 1.6796526755e+00	 1.0135532957e+00	-4.2931345947e-01
 1.7765155975e+00	 8.5276608528e-01	 3.7102216180e-01
 1.7683536454e+00	 8.6956492342e-01	 2.8635852055e-01
 1.7600196386e+00	 8.8631188877e-01	 1.9601951592e-01
 1.7515139334e+00	 9.0300440955e-01	 1.0791324852e-01
 1.7428369360e+00	 9.1963991332e-01	 2.2983517731e-02
 1.7339891027e+00	 9.3621582822e-01	-5.8927221407e-02
 1.7249709404e+00	 9.5272958417e-01	-1.3804601972e-01
 1.7157830063e+00	 9.6917861406e-01	-2.1466722995e-01
 1.7064259082e+00	 9.8556035499e-01	-2.8914960097e-01
 1.6969003048e+00	 1.0018722495e+00	-3.6191266842e-01
 1.6872069052e+00	 1.0181117467e+00	-4.3343244366e-01
 1.6116646083e+00	 9.7252723688e-01	-3.9772303402e-01
 1.6022456596e+00	 9.8796804913e-01	-4.7597419164e-01
 1.5926679297e+00	 1.0033348581e+00	-5.5203880315e-01
 1.5829322433e+00	 1.0186252552e+00	-6.2610263753e-01
 1.5730394731e+00	 1.0338368432e+00	-6.9838902200e-01
 1.5629905397e+00	 1.0489672371e+00	-7.6915346693e-01
 1.5527864116e+00	 1.0640140653e+00	-8.3867783393e-01
 1.5424281048e+00	 1.0789749711e+00	-9.0726407177e-01
 1.5319166823e+00	 1.0938476136e+00	-9.7522754793e-01
 1.5212532544e+00	 1.1086296691e+00	-1.0428900065e+00
 1.5104389779e+00	 1.1233188320e+00	-1.1105721861e+00
 1.6192188380e+00	 9.7708568786e-01	-4.0226846697e-01
 1.6097557406e+00	 9.9259887463e-01	-4.8023725487e-01
 1.6001331178e+00	 1.0080377112e+00	-5.5594441950e-01
 1.5903517980e+00	 1.0233997779e+00	-6.2958815268e-01
 1.5804126582e+00	 1.0386826659e+00	-7.0140576914e-01
 1.5703166233e+00	 1.0538839793e+00	-7.7166817497e-01
 1.5600646662e+00	 1.0690013353e+00	-8.4067386418e-01
 1.5496578076e+00	 1.0840323662e+00	-9.0874246877e-01
 1.5390971158e+00	 1.0989747202e+00	-9.7620789053e-01
 1.5283837060e+00	 1.1138260624e+00	-1.0434110464e+00
 1.5175187406e+00	 1.1285840766e+00	-1.1106922618e+00
 1.6267730677e+00	 9.8164413885e-01	-4.0624712529e-01
 1.6172658216e+00	 9.9722970013e-01	-4.8387462139e-01
 1.6075983058e+00	 1.0127405644e+00	-5.5920150528e-01
 1.5977713528e+00	 1.0281743005e+00	-6.3243278807e-01
 1.5877858433e+00	 1.0435284887e+00	-7.0381435407e-01
 1.5776427068e+00	 1.0588007215e+00	-7.7362727833e-01
 1.5673429207e+00	 1.0739886054e+00	-8.4218165695e-01
 1.5568875104e+00	 1.0890897614e+00	-9.0980997572e-01
 1.5462775492e+00	 1.1041018267e+00	-9.7686004632e-01
 1.5355141577e+00	 1.1190224557e+00	-1.0436875426e+00
 1.5245985033e+00	 1.1338493213e+00	-1.1106481722e+00
 1.6343272974e+00	 9.8620258983e-01	-4.0979494122e-01
 1.6247759026e+00	 1.0018605256e+00	-4.8700279389e-01
 1.6150634939e+00	 1.0174434175e+00	-5.6190875936e-01
 1.6051909075e+00	 1.0329488231e+00	-6.3471915096e-01
 1.5951590284e+00	 1.0483743114e+00	-7.0568309142e-01
 1.5849687903e+00	 1.0637174638e+00	-7.7508668529e-01
 1.5746211752e+00	 1.0789758754e+00	-8.4324668778e-01
 1.5641172133e+00	 1.0941471565e+00	-9.1050369647e-01
 1.5534579827e+00	 1.1092289332e+00	-9.7721489591e-01
 1.5426446093e+00	 1.1242188490e+00	-1.0437463881e+00
 1.5316782660e+00	 1.1391145659e+00	-1.1104651454e+00
 1.6418815270e+00	 9.9076104082e-01	-4.1304513522e-01
 1.6322859836e+00	 1.0064913511e+00	-4.8973584155e-01
 1.6225286819e+00	 1.0221462707e+00	-5.6416268708e-01
 1.6126104622e+00	 1.0377233457e+00	-6.3652785528e-01
 1.6025322135e+00	 1.0532201341e+00	-7.0707846185e-01
 1.5922948738e+00	 1.0686342060e+00	-7.7610058727e-01
 1.5818994297e+00	 1.0839631455e+00	-8.4391278910e-01
 1.5713469161e+00	 1.0992045516e+00	-9.1085912113e-01
 1.5606384162e+00	 1.1143560397e+00	-9.7730169003e-01
 1.5497750609e+00	 1.1294152423e+00	-1.0436127834e+00
 1.5387580287e+00	 1.1443798106e+00	-1.1101666065e+00
 1.6494357567e+00	 9.9531949180e-01	-4.1612828637e-01
 1.6397960645e+00	 1.0111221766e+00	-4.9218546241e-01
 1.6299938699e+00	 1.0268491238e+00	-5.6605765507e-01
 1.6200300169e+00	 1.0424978684e+00	-6.3793756979e-01
 1.6099053986e+00	 1.0580659568e+00	-7.0806515413e-01
 1.5996209574e+00	 1.0735509482e+00	-7.7672149574e-01
 1.5891776842e+00	 1.0889504155e+00	-8.4422218289e-01
 1.5785766189e+00	 1.1042619468e+00	-9.1091015521e-01
 1.5678188496e+00	 1.1194831462e+00	-9.7714807605e-01
 1.5569055125e+00	 1.1346116356e+00	-1.0433102612e+00
 1.5458377914e+00	 1.1496450553e+00	-1.1097742021e+00
 1.6569899864e+00	 9.9987794279e-01	-4.1917240188e-01
 1.6473061455e+00	 1.0157530021e+00	-4.9446104480e-01
 1.6374590580e+00	 1.0315519769e+00	-5.6768594547e-01
 1.6274495716e+00	 1.0472723910e+00	-6.3902506572e-01
 1.6172785837e+00	 1.0629117795e+00	-7.0870610702e-01
 1.6069470409e+00	 1.0784676904e+00	-7.7700027909e-01
 1.5964559387e+00	 1.0939376856e+00	-8.4421551323e-01
 1.5858063218e+00	 1.1093193419e+00	-9.1068914877e-01
 1.5749992831e+00	 1.1246102527e+00	-9.7678012464e-01
 1.5640359641e+00	 1.1398080289e+00	-1.0428607116e+00
 1.5529175541e+00	 1.1549102999e+00	-1.1093078246e+00
 1.6645442161e+00	 1.0044363938e+00	-4.2230298550e-01
 1.6548162265e+00	 1.0203838276e+00	-4.9666972812e-01
 1.6449242460e+00	 1.0362548301e+00	-5.6913780964e-01
 1.6348691263e+00	 1.0520469136e+00	-6.3986526405e-01
 1.6246517688e+00	 1.0677576022e+00	-7.0906255085e-01
 1.6142731244e+00	 1.0833844327e+00	-7.7698619924e-01
 1.6037341932e+00	 1.0989249556e+00	-8.4393187880e-01
 1.5930360246e+00	 1.1143767371e+00	-9.1022692562e-01
 1.5821797165e+00	 1.1297373592e+00	-9.7622235637e-01
 1.5711664157e+00	 1.1450044221e+00	-1.0422844070e+00
 1.5599973168e+00	 1.1601755446e+00	-1.1087856362e+00
 1.6720984458e+00	 1.0089948448e+00	-4.2564310515e-01
 1.6623263075e+00	 1.0250146531e+00	-4.9891646287e-01
 1.6523894341e+00	 1.0409576832e+00	-5.7050152121e-01
 1.6422886811e+00	 1.0568214363e+00	-6.4053128238e-01
 1.6320249539e+00	 1.0726034250e+00	-7.0919404884e-01
 1.6215992079e+00	 1.0883011749e+00	-7.7672694814e-01
 1.6110124477e+00	 1.1039122257e+00	-8.4340886533e-01
 1.6002657274e+00	 1.1194341322e+00	-9.0955281244e-01
 1.5893601500e+00	 1.1348644658e+00	-9.7549776847e-01
 1.5782968673e+00	 1.1502008154e+00	-1.0416000272e+00
 1.5670770795e+00	 1.1654407892e+00	-1.1082240935e+00
 1.6796526755e+00	 1.0135532957e+00	-4.2931345947e-01
 1.6698363885e+00	 1.0296454786e+00	-5.0130406987e-01
 1.6598546221e+00	 1.0456605364e+00	-5.7186342868e-01
 1.6497082358e+00	 1.0615959589e+00	-6.4109448138e-01
 1.6393981391e+00	 1.0774492477e+00	-7.0915853816e-01
 1.6289252915e+00	 1.0932179171e+00	-7.7626868418e-01
 1.6182907023e+00	 1.1088994957e+00	-8.4268257796e-01
 1.6074954302e+00	 1.1244915273e+00	-9.0869466797e-01
 1.5965405835e+00	 1.1399915723e+00	-9.7462786158e-01
 1.5854273189e+00	 1.1553972087e+00	-1.0408246844e+00
 1.5741568421e+00	 1.1707060339e+00	-1.1076379718e+00
 1.6872069052e+00	 1.0181117467e+00	-4.3343244366e-01
 1.6773464695e+00	 1.0342763041e+00	-5.0393329893e-01
 1.6673198101e+00	 1.0503633895e+00	-5.7330800740e-01
 1.6571277905e+00	 1.0663704815e+00	-6.4162451088e-01
 1.6467713242e+00	 1.0822950704e+00	-7.0901237072e-01
 1.6362513750e+00	 1.0981346594e+00	-7.7565606832e-01
 1.6255689568e+00	 1.1138867658e+00	-8.4178767358e-01
 1.6147251331e+00	 1.1295489225e+00	-9.0767891221e-01
 1.6037210169e+00	 1.1451186788e+00	-9.7363266653e-01
 1.5925577705e+00	 1.1605936020e+00	-1.0399739488e+00
 1.5812366048e+00	 1.1759712785e+00	-1.1070403899e+00
 1.5104389779e+00	 1.1233188320e+00	-1.1105721861e+00
 1.4994731802e+00	 1.1379152875e+00	-1.1767861978e+00
 1.4883589417e+00	 1.1524142568e+00	-1.2398646591e+00
 1.4770975637e+00	 1.1668134863e+00	-1.2998649443e+00
 1.4656903925e+00	 1.1811107454e+00	-1.3568079472e+00
 1.4541388188e+00	 1.1953038274e+00	-1.4107846602e+00
 1.4424442774e+00	 1.2093905506e+00	-1.4620640866e+00
 1.4306082465e+00	 1.2233687593e+00	-1.5109405865e+00
 1.4186322469e+00	 1.2372363253e+00	-1.5577153230e+00
 1.4065178420e+00	 1.2509911485e+00	-1.6026955349e+00
 1.3942666362e+00	 1.2646311581e+00	-1.6461938231e+00
 1.5175187406e+00	 1.1285840766e+00	-1.1106922618e+00
 1.5065015437e+00	 1.1432489490e+00	-1.1765473303e+00
 1.4953352104e+00	 1.1578158782e+00	-1.2392863910e+00
 1.4840210478e+00	 1.1722826001e+00	-1.2989770794e+00
 1.4725604086e+00	 1.1866468736e+00	-1.3556182838e+00
 1.4609546902e+00	 1.2009064817e+00	-1.4092653788e+00
 1.4492053338e+00	 1.2150592325e+00	-1.4602044007e+00
 1.4373138248e+00	 1.2291029602e+00	-1.5087385115e+00
 1.4252816911e+00	 1.2430355266e+00	-1.5551777216e+00
 1.4131105032e+00	 1.2568548217e+00	-1.5998381588e+00
 1.4008018734e+00	 1.2705587650e+00	-1.6430413498e+00
 1.5245985033e+00	 1.1338493213e+00	-1.1106481722e+00
 1.5135299073e+00	 1.1485826105e+00	-1.1762196082e+00
 1.5023114790e+00	 1.1632174995e+00	-1.2386917127e+00
 1.4909445319e+00	 1.1777517138e+00	-1.2981430540e+00
 1.4794304248e+00	 1.1921830018e+00	-1.3544604671e+00
 1.4677705615e+00	 1.2065091360e+00	-1.4077535517e+00
 1.4559663903e+00	 1.2207279144e+00	-1.4583281201e+00
 1.4440194031e+00	 1.2348371611e+00	-1.5064976280e+00
 1.4319311353e+00	 1.2488347278e+00	-1.5525824198e+00
 1.4197031645e+00	 1.2627184948e+00	-1.5969089897e+00
 1.4073371105e+00	 1.2764863719e+00	-1.6398092583e+00
 1.5316782660e+00	 1.1391145659e+00	-1.1104651454e+00
 1.5205582709e+00	 1.1539162720e+00	-1.1758277693e+00
 1.5092877477e+00	 1.1686191209e+00	-1.2381048442e+00
 1.4978680160e+00	 1.1832208276e+00	-1.2973370111e+00
 1.4863004409e+00	 1.1977191300e+00	-1.3532989878e+00
 1.4745864329e+00	 1.2121117903e+00	-1.4062146846e+00
 1.4627274467e+00	 1.2263965963e+00	-1.4564016414e+00
 1.4507249815e+00	 1.2405713619e+00	-1.5041850848e+00
 1.4385805794e+00	 1.2546339290e+00	-1.5498971631e+00
 1.4262958258e+00	 1.2685821679e+00	-1.5938761991e+00
 1.4138723476e+00	 1.2824139788e+00	-1.6364659589e+00
 1.5387580287e+00	 1.1443798106e+00	-1.1101666065e+00
 1.5275866344e+00	 1.1592499335e+00	-1.1753946127e+00
 1.5162640164e+00	 1.1740207423e+00	-1.2375479283e+00
 1.5047915001e+00	 1.1886899413e+00	-1.2965149941e+00
 1.4931704571e+00	 1.2032552581e+00	-1.3521005037e+00
 1.4814023042e+00	 1.2177144446e+00	-1.4046164132e+00
 1.4694885032e+00	 1.2320652782e+00	-1.4543934568e+00
 1.4574305598e+00	 1.2463055628e+00	-1.5017700931e+00
 1.4452300236e+00	 1.2604331303e+00	-1.5470917293e+00
 1.4328884870e+00	 1.2744458411e+00	-1.5907099631e+00
 1.4204075848e+00	 1.2883415856e+00	-1.6329818426e+00
 1.5458377914e+00	 1.1496450553e+00	-1.1097742021e+00
 1.5346149980e+00	 1.1645835949e+00	-1.1749410229e+00
 1.5232402850e+00	 1.1794223636e+00	-1.2370244828e+00
 1.5117149841e+00	 1.1941590551e+00	-1.2956447488e+00
 1.5000404732e+00	 1.2087913863e+00	-1.3508338076e+00
 1.4882181756e+00	 1.2233170989e+00	-1.4029284724e+00
 1.4762495596e+00	 1.2377339601e+00	-1.4522741230e+00
 1.4641361381e+00	 1.2520397637e+00	-1.4992238968e+00
 1.4518794678e+00	 1.2662323315e+00	-1.5441378994e+00
 1.4394811483e+00	 1.2803095142e+00	-1.5873824344e+00
 1.4269428219e+00	 1.2942691925e+00	-1.6293292526e+00
 1.5529175541e+00	 1.1549102999e+00	-1.1093078246e+00
 1.5416433616e+00	 1.1699172564e+00	-1.1744859936e+00
 1.5302165537e+00	 1.1848239850e+00	-1.2364489086e+00
 1.5186384682e+00	 1.1996281688e+00	-1.2946961609e+00
 1.5069104894e+00	 1.2143275145e+00	-1.3494697956e+00
 1.4950340469e+00	 1.2289197532e+00	-1.4011226647e+00
 1.4830106161e+00	 1.2434026420e+00	-1.4500162310e+00
 1.4708417165e+00	 1.2577739645e+00	-1.4965197426e+00
 1.4585289119e+00	 1.2720315327e+00	-1.5410094282e+00
 1.4460738096e+00	 1.2861731873e+00	-1.5838677131e+00
 1.4334780591e+00	 1.3001967994e+00	-1.6254824566e+00
 1.5599973168e+00	 1.1601755446e+00	-1.1087856362e+00
 1.5486717251e+00	 1.1752509179e+00	-1.1740466517e+00
 1.5371928223e+00	 1.1902256064e+00	-1.2357818787e+00
 1.5255619523e+00	 1.2050972826e+00	-1.2936412236e+00
 1.5137805055e+00	 1.2198636427e+00	-1.3479814344e+00
 1.5018499183e+00	 1.2345224075e+00	-1.3991728286e+00
 1.4897716725e+00	 1.2490713239e+00	-1.4475943751e+00
 1.4775472948e+00	 1.2635081654e+00	-1.4936328498e+00
 1.4651783561e+00	 1.2778307339e+00	-1.5376820146e+00
 1.4526664708e+00	 1.2920368605e+00	-1.5801418182e+00
 1.4400132962e+00	 1.3061244063e+00	-1.6214176190e+00
 1.5670770795e+00	 1.1654407892e+00	-1.1082240935e+00
 1.5557000887e+00	 1.1805845794e+00	-1.1735914013e+00
 1.5441690910e+00	 1.1956272277e+00	-1.2349964357e+00
 1.5324854364e+00	 1.2105663963e+00	-1.2924540046e+00
 1.5206505216e+00	 1.2253997709e+00	-1.3463437299e+00
 1.5086657896e+00	 1.2401250618e+00	-1.3970548078e+00
 1.4965327289e+00	 1.2547400058e+00	-1.4449851222e+00
 1.4842528732e+00	 1.2692423663e+00	-1.4905403802e+00
 1.4718278003e+00	 1.2836299352e+00	-1.5341332729e+00
 1.4592591321e+00	 1.2979005336e+00	-1.5761826589e+00
 1.4465485334e+00	 1.3120520132e+00	-1.6171127719e+00
 1.5741568421e+00	 1.1707060339e+00	-1.1076379718e+00
 1.5627284523e+00	 1.1859182409e+00	-1.1730051118e+00
 1.5511453597e+00	 1.2010288491e+00	-1.2340677007e+00
 1.5394089205e+00	 1.2160355101e+00	-1.2911106134e+00
 1.5275205378e+00	 1.2309358990e+00	-1.3445336946e+00
 1.5154816610e+00	 1.2457277162e+00	-1.3947464192e+00
 1.5032937854e+00	 1.2604086877e+00	-1.4421669809e+00
 1.4909584515e+00	 1.2749765672e+00	-1.4872214080e+00
 1.4784772445e+00	 1.2894291364e+00	-1.5303427023e+00
 1.4658517934e+00	 1.3037642067e+00	-1.5719700051e+00
 1.4530837705e+00	 1.3179796201e+00	-1.6125477874e+00
 1.5812366048e+00	 1.1759712785e+00	-1.1070403899e+00
 1.5697568158e+00	 1.1912519024e+00	-1.1722598721e+00
 1.5581216283e+00	 1.2064304705e+00	-1.2329728396e+00
 1.5463324046e+00	 1.2215046238e+00	-1.2895891685e+00
 1.5343905539e+00	 1.2364720272e+00	-1.3425303159e+00
 1.5222975323e+00	 1.2513303705e+00	-1.3922274212e+00
 1.5100548418e+00	 1.2660773696e+00	-1.4391203708e+00
 1.4976640298e+00	 1.2807107680e+00	-1.4836568894e+00
 1.4851266886e+00	 1.2952283376e+00	-1.5262916579e+00
 1.4724444546e+00	 1.3096278799e+00	-1.5674854590e+00
 1.4596190077e+00	 1.3239072270e+00	-1.6077043487e+00
 1.3942666362e+00	 1.2646311581e+00	-1.6461938231e+00
 1.3818823883e+00	 1.2781520287e+00	-1.6873513631e+00
 1.3693646936e+00	 1.2915540990e+00	-1.7253016003e+00
 1.3567152540e+00	 1.3048354155e+00	-1.7603279110e+00
 1.3439358099e+00	 1.3179940577e+00	-1.7927140095e+00
 1.3310281395e+00	 1.3310281395e+00	-1.8227433364e+00
 1.3179940577e+00	 1.3439358099e+00	-1.8506984590e+00
 1.3048354155e+00	 1.3567152540e+00	-1.8768604818e+00
 1.2915540990e+00	 1.3693646936e+00	-1.9015084667e+00
 1.2781520287e+00	 1.3818823883e+00	-1.9249188592e+00
 1.2646311581e+00	 1.3942666362e+00	-1.9473649199e+00
 1.4008018734e+00	 1.2705587650e+00	-1.6430413498e+00
 1.3883595777e+00	 1.2841430109e+00	-1.6839170208e+00
 1.3757832098e+00	 1.2976078997e+00	-1.7215778713e+00
 1.3630744795e+00	 1.3109514686e+00	-1.7563028106e+00
 1.3502351353e+00	 1.3241717883e+00	-1.7883716146e+00
 1.3372669638e+00	 1.3372669638e+00	-1.8180643338e+00
 1.3241717883e+00	 1.3502351353e+00	-1.8456607142e+00
 1.3109514686e+00	 1.3630744795e+00	-1.8714396275e+00
 1.2976078997e+00	 1.3757832098e+00	-1.8956785109e+00
 1.2841430109e+00	 1.3883595777e+00	-1.9186528124e+00
 1.2705587650e+00	 1.4008018734e+00	-1.9406354409e+00
 1.4073371105e+00	 1.2764863719e+00	-1.6398092583e+00
 1.3948367671e+00	 1.2901339931e+00	-1.6804051578e+00
 1.3822017260e+00	 1.3036617004e+00	-1.7177903100e+00
 1.3694337049e+00	 1.3170675218e+00	-1.7522375788e+00
 1.3565344607e+00	 1.3303495190e+00	-1.7840211453e+00
 1.3435057880e+00	 1.3435057880e+00	-1.8134159393e+00
 1.3303495190e+00	 1.3565344607e+00	-1.8406970831e+00
 1.3170675218e+00	 1.3694337049e+00	-1.8661393454e+00
 1.3036617004e+00	 1.3822017260e+00	-1.8900166033e+00
 1.2901339931e+00	 1.3948367671e+00	-1.9126013110e+00
 1.2764863719e+00	 1.4073371105e+00	-1.9341639711e+00
 1.4138723476e+00	 1.2824139788e+00	-1.6364659589e+00
 1.4013139566e+00	 1.2961249753e+00	-1.6767838051e+00
 1.3886202422e+00	 1.3097155011e+00	-1.7139055458e+00
 1.3757929304e+00	 1.3231835750e+00	-1.7480964455e+00
 1.3628337861e+00	 1.3365272496e+00	-1.7796234600e+00
 1.3497446123e+00	 1.3497446123e+00	-1.8087546936e+00
 1.3365272496e+00	 1.3628337861e+00	-1.8357588695e+00
 1.3231835750e+00	 1.3757929304e+00	-1.8609048099e+00
 1.3097155011e+00	 1.3886202422e+00	-1.8844609246e+00
 1.2961249753e+00	 1.4013139566e+00	-1.9066947056e+00
 1.2824139788e+00	 1.4138723476e+00	-1.9278722242e+00
 1.4204075848e+00	 1.2883415856e+00	-1.6329818426e+00
 1.4077911460e+00	 1.3021159575e+00	-1.6730229609e+00
 1.3950387584e+00	 1.3157693018e+00	-1.7098921800e+00
 1.3821521559e+00	 1.3292996281e+00	-1.7438456357e+00
 1.3691331115e+00	 1.3427049802e+00	-1.7751414527e+00
 1.3559834366e+00	 1.3559834366e+00	-1.8040392306e+00
 1.3427049802e+00	 1.3691331115e+00	-1.8307995439e+00
 1.3292996281e+00	 1.3821521559e+00	-1.8556834519e+00
 1.3157693018e+00	 1.3950387584e+00	-1.8789520169e+00
 1.3021159575e+00	 1.4077911460e+00	-1.9008658282e+00
 1.2883415856e+00	 1.4204075848e+00	-1.9216845285e+00
 1.4269428219e+00	 1.2942691925e+00	-1.6293292526e+00
 1.4142683354e+00	 1.3081069397e+00	-1.6690945629e+00
 1.4014572746e+00	 1.3218231025e+00	-1.7057207586e+00
 1.3885113814e+00	 1.3354156813e+00	-1.7394533418e+00
 1.3754324369e+00	 1.3488827109e+00	-1.7705400244e+00
 1.3622222609e+00	 1.3622222609e+00	-1.7992302474e+00
 1.3488827109e+00	 1.3754324369e+00	-1.8257747128e+00
 1.3354156813e+00	 1.3885113814e+00	-1.8504249263e+00
 1.3218231025e+00	 1.4014572746e+00	-1.8734327493e+00
 1.3081069397e+00	 1.4142683354e+00	-1.8950499548e+00
 1.2942691925e+00	 1.4269428219e+00	-1.9155277879e+00
 1.4334780591e+00	 1.3001967994e+00	-1.6254824566e+00
 1.4207455248e+00	 1.3140979220e+00	-1.6649724607e+00
 1.4078757908e+00	 1.3278769032e+00	-1.7013637450e+00
 1.3948706069e+00	 1.3415317345e+00	-1.7348896956e+00
 1.3817317623e+00	 1.3550604415e+00	-1.7657860550e+00
 1.3684610851e+00	 1.3684610851e+00	-1.7942904755e+00
 1.3550604415e+00	 1.3817317623e+00	-1.8206420879e+00
 1.3415317345e+00	 1.3948706069e+00	-1.8450810796e+00
 1.3278769032e+00	 1.4078757908e+00	-1.8678482832e+00
 1.3140979220e+00	 1.4207455248e+00	-1.8891847693e+00
 1.3001967994e+00	 1.4334780591e+00	-1.9093314429e+00
 1.4400132962e+00	 1.3061244063e+00	-1.6214176190e+00
 1.4272227143e+00	 1.3200889042e+00	-1.6606323881e+00
 1.4142943071e+00	 1.3339307039e+00	-1.6967954916e+00
 1.4012298324e+00	 1.3476477876e+00	-1.7301267407e+00
 1.3880310877e+00	 1.3612381722e+00	-1.7608483743e+00
 1.3746999094e+00	 1.3746999094e+00	-1.7891846508e+00
 1.3612381722e+00	 1.3880310877e+00	-1.8153614553e+00
 1.3476477876e+00	 1.4012298324e+00	-1.8396059174e+00
 1.3339307039e+00	 1.4142943071e+00	-1.8621460388e+00
 1.3200889042e+00	 1.4272227143e+00	-1.8832103271e+00
 1.3061244063e+00	 1.4400132962e+00	-1.9030274312e+00
 1.4465485334e+00	 1.3120520132e+00	-1.6171127719e+00
 1.4336999037e+00	 1.3260798864e+00	-1.6560519355e+00
 1.4207128233e+00	 1.3399845045e+00	-1.6919922130e+00
 1.4075890578e+00	 1.3537638408e+00	-1.7251384041e+00
 1.3943304130e+00	 1.3674159028e+00	-1.7556977336e+00
 1.3809387337e+00	 1.3809387337e+00	-1.7838794843e+00
 1.3674159028e+00	 1.3943304130e+00	-1.8098946450e+00
 1.3537638408e+00	 1.4075890578e+00	-1.8339555722e+00
 1.3399845045e+00	 1.4207128233e+00	-1.8562756603e+00
 1.3260798864e+00	 1.4336999037e+00	-1.8770690183e+00
 1.3120520132e+00	 1.4465485334e+00	-1.8965501499e+00
 1.4530837705e+00	 1.3179796201e+00	-1.6125477874e+00
 1.4401770931e+00	 1.3320708686e+00	-1.6512105218e+00
 1.4271313395e+00	 1.3460383052e+00	-1.6869319573e+00
 1.4139482833e+00	 1.3598798940e+00	-1.7199004682e+00
 1.4006297384e+00	 1.3735936335e+00	-1.7503067772e+00
 1.3871775580e+00	 1.3871775580e+00	-1.7783436322e+00
 1.3735936335e+00	 1.4006297384e+00	-1.8042054996e+00
 1.3598798940e+00	 1.4139482833e+00	-1.8280882714e+00
 1.3460383052e+00	 1.4271313395e+00	-1.8501889820e+00
 1.3320708686e+00	 1.4401770931e+00	-1.8707055323e+00
 1.3179796201e+00	 1.4530837705e+00	-1.8898364162e+00
 1.4596190077e+00	 1.3239072270e+00	-1.6077043487e+00
 1.4466542826e+00	 1.3380618508e+00	-1.6460893659e+00
 1.4335498557e+00	 1.3520921059e+00	-1.6815945784e+00
 1.4203075088e+00	 1.3659959471e+00	-1.7143905426e+00
 1.4069290638e+00	 1.3797713641e+00	-1.7446500130e+00
 1.3934163822e+00	 1.3934163822e+00	-1.7725476666e+00
 1.3797713641e+00	 1.4069290638e+00	-1.7982598437e+00
 1.3659959471e+00	 1.4203075088e+00	-1.8219643043e+00
 1.3520921059e+00	 1.4335498557e+00	-1.8438399946e+00
 1.3380618508e+00	 1.4466542826e+00	-1.8640668215e+00
 1.3239072270e+00	 1.4596190077e+00	-1.8828254299e+00
 1.2646311581e+00	 1.3942666362e+00	-1.9473649199e+00
 1.2509911485e+00	 1.4065178420e+00	-1.9673543448e+00
 1.2372363253e+00	 1.4186322469e+00	-1.9829556782e+00
 1.2233687593e+00	 1.4306082465e+00	-1.9937991308e+00
 1.2093905506e+00	 1.4424442774e+00	-1.9995246575e+00
 1.1953038274e+00	 1.4541388188e+00	-1.9997821830e+00
 1.1811107454e+00	 1.4656903925e+00	-1.9942317965e+00
 1.1668134863e+00	 1.4770975637e+00	-1.9846993302e+00
 1.1524142568e+00	 1.4883589417e+00	-1.9773211775e+00
 1.1379152875e+00	 1.4994731802e+00	-1.9716735572e+00
 1.1233188320e+00	 1.5104389779e+00	-1.9668910069e+00
 1.2705587650e+00	 1.4008018734e+00	-1.9406354409e+00
 1.2568548217e+00	 1.4131105032e+00	-1.9602095131e+00
 1.2430355266e+00	 1.4252816911e+00	-1.9755555214e+00
 1.2291029602e+00	 1.4373138248e+00	-1.9863573210e+00
 1.2150592325e+00	 1.4492053338e+00	-1.9923070766e+00
 1.2009064817e+00	 1.4609546902e+00	-1.9931054391e+00
 1.1866468736e+00	 1.4725604086e+00	-1.9884616926e+00
 1.1722826001e+00	 1.4840210478e+00	-1.9784914309e+00
 1.1578158782e+00	 1.4953352104e+00	-1.9692828950e+00
 1.1432489490e+00	 1.5065015437e+00	-1.9623058141e+00
 1.1285840766e+00	 1.5175187406e+00	-1.9567214494e+00
 1.2764863719e+00	 1.4073371105e+00	-1.9341639711e+00
 1.2627184948e+00	 1.4197031645e+00	-1.9533499810e+00
 1.2488347278e+00	 1.4319311353e+00	-1.9684394301e+00
 1.2348371611e+00	 1.4440194031e+00	-1.9791690916e+00
 1.2207279144e+00	 1.4559663903e+00	-1.9852828309e+00
 1.2065091360e+00	 1.4677705615e+00	-1.9865317342e+00
 1.1921830018e+00	 1.4794304248e+00	-1.9826742081e+00
 1.1777517138e+00	 1.4909445319e+00	-1.9734760467e+00
 1.1632174995e+00	 1.5023114790e+00	-1.9624169244e+00
 1.1485826105e+00	 1.5135299073e+00	-1.9540260840e+00
 1.1338493213e+00	 1.5245985033e+00	-1.9475262534e+00
 1.2824139788e+00	 1.4138723476e+00	-1.9278722242e+00
 1.2685821679e+00	 1.4262958258e+00	-1.9466897200e+00
 1.2546339290e+00	 1.4385805794e+00	-1.9615162238e+00
 1.2405713619e+00	 1.4507249815e+00	-1.9721407104e+00
 1.2263965963e+00	 1.4627274467e+00	-1.9783582460e+00
 1.2121117903e+00	 1.4745864329e+00	-1.9799700679e+00
 1.1977191300e+00	 1.4863004409e+00	-1.9767836379e+00
 1.1832208276e+00	 1.4978680160e+00	-1.9686126637e+00
 1.1686191209e+00	 1.5092877477e+00	-1.9565432848e+00
 1.1539162720e+00	 1.5205582709e+00	-1.9466695729e+00
 1.1391145659e+00	 1.5316782660e+00	-1.9391583047e+00
 1.2883415856e+00	 1.4204075848e+00	-1.9216845285e+00
 1.2744458411e+00	 1.4328884870e+00	-1.9401454333e+00
 1.2604331303e+00	 1.4452300236e+00	-1.9546975210e+00
 1.2463055628e+00	 1.4574305598e+00	-1.9651812634e+00
 1.2320652782e+00	 1.4694885032e+00	-1.9714424355e+00
 1.2177144446e+00	 1.4814023042e+00	-1.9733321489e+00
 1.2032552581e+00	 1.4931704571e+00	-1.9707068581e+00
 1.1886899413e+00	 1.5047915001e+00	-1.9634283362e+00
 1.1740207423e+00	 1.5162640164e+00	-1.9514853453e+00
 1.1592499335e+00	 1.5275866344e+00	-1.9400744027e+00
 1.1443798106e+00	 1.5387580287e+00	-1.9314729136e+00
 1.2942691925e+00	 1.4269428219e+00	-1.9155277879e+00
 1.2803095142e+00	 1.4394811483e+00	-1.9336365135e+00
 1.2662323315e+00	 1.4518794678e+00	-1.9478976972e+00
 1.2520397637e+00	 1.4641361381e+00	-1.9582026127e+00
 1.2377339601e+00	 1.4762495596e+00	-1.9644472608e+00
 1.2233170989e+00	 1.4882181756e+00	-1.9665323567e+00
 1.2087913863e+00	 1.5000404732e+00	-1.9643632899e+00
 1.1941590551e+00	 1.5117149841e+00	-1.9578500541e+00
 1.1794223636e+00	 1.5232402850e+00	-1.9469071437e+00
 1.1645835949e+00	 1.5346149980e+00	-1.9340817891e+00
 1.1496450553e+00	 1.5458377914e+00	-1.9243279976e+00
 1.3001967994e+00	 1.4334780591e+00	-1.9093314429e+00
 1.2861731873e+00	 1.4460738096e+00	-1.9270850022e+00
 1.2720315327e+00	 1.4585289119e+00	-1.9410338425e+00
 1.2577739645e+00	 1.4708417165e+00	-1.9511193542e+00
 1.2434026420e+00	 1.4830106161e+00	-1.9572872895e+00
 1.2289197532e+00	 1.4950340469e+00	-1.9594877026e+00
 1.2143275145e+00	 1.5069104894e+00	-1.9576748649e+00
 1.1996281688e+00	 1.5186384682e+00	-1.9518071486e+00
 1.1848239850e+00	 1.5302165537e+00	-1.9418468775e+00
 1.1699172564e+00	 1.5416433616e+00	-1.9285362200e+00
 1.1549102999e+00	 1.5529175541e+00	-1.9175842638e+00
 1.3061244063e+00	 1.4400132962e+00	-1.9030274312e+00
 1.2920368605e+00	 1.4526664708e+00	-1.9204155486e+00
 1.2778307339e+00	 1.4651783561e+00	-1.9340257193e+00
 1.2635081654e+00	 1.4775472948e+00	-1.9438487760e+00
 1.2490713239e+00	 1.4897716725e+00	-1.9498797549e+00
 1.2345224075e+00	 1.5018499183e+00	-1.9521177916e+00
 1.2198636427e+00	 1.5137805055e+00	-1.9505659901e+00
 1.2050972826e+00	 1.5255619523e+00	-1.9452312615e+00
 1.1902256064e+00	 1.5371928223e+00	-1.9361241289e+00
 1.1752509179e+00	 1.5486717251e+00	-1.9232856330e+00
 1.1601755446e+00	 1.5599973168e+00	-1.9111053902e+00
 1.3120520132e+00	 1.4465485334e+00	-1.8965501499e+00
 1.2979005336e+00	 1.4592591321e+00	-1.9135553690e+00
 1.2836299352e+00	 1.4718278003e+00	-1.9267957216e+00
 1.2692423663e+00	 1.4842528732e+00	-1.9363108168e+00
 1.2547400058e+00	 1.4965327289e+00	-1.9421445161e+00
 1.2401250618e+00	 1.5086657896e+00	-1.9443447841e+00
 1.2253997709e+00	 1.5206505216e+00	-1.9429635130e+00
 1.2105663963e+00	 1.5324854364e+00	-1.9380563154e+00
 1.1956272277e+00	 1.5441690910e+00	-1.9296822840e+00
 1.1805845794e+00	 1.5557000887e+00	-1.9179037114e+00
 1.1654407892e+00	 1.5670770795e+00	-1.9047582077e+00
 1.3179796201e+00	 1.4530837705e+00	-1.8898364162e+00
 1.3037642067e+00	 1.4658517934e+00	-1.9064342065e+00
 1.2894291364e+00	 1.4784772445e+00	-1.9192688329e+00
 1.2749765672e+00	 1.4909584515e+00	-1.9284280251e+00
 1.2604086877e+00	 1.5032937854e+00	-1.9340040179e+00
 1.2457277162e+00	 1.5154816610e+00	-1.9360933587e+00
 1.2309358990e+00	 1.5275205378e+00	-1.9347966871e+00
 1.2160355101e+00	 1.5394089205e+00	-1.9302184828e+00
 1.2010288491e+00	 1.5511453597e+00	-1.9224667784e+00
 1.1859182409e+00	 1.5627284523e+00	-1.9116528331e+00
 1.1707060339e+00	 1.5741568421e+00	-1.8984128806e+00
 1.3239072270e+00	 1.4596190077e+00	-1.8828254299e+00
 1.3096278799e+00	 1.4724444546e+00	-1.8989842911e+00
 1.2952283376e+00	 1.4851266886e+00	-1.9113725861e+00
 1.2807107680e+00	 1.4976640298e+00	-1.9201255180e+00
 1.2660773696e+00	 1.5100548418e+00	-1.9253832509e+00
 1.2513303705e+00	 1.5222975323e+00	-1.9272906741e+00
 1.2364720272e+00	 1.5343905539e+00	-1.9259971378e+00
 1.2215046238e+00	 1.5463324046e+00	-1.9216561560e+00
 1.2064304705e+00	 1.5581216283e+00	-1.9144250728e+00
 1.1912519024e+00	 1.5697568158e+00	-1.9044646889e+00
 1.1759712785e+00	 1.5812366048e+00	-1.8919430873e+00
 1.1233188320e+00	 1.5104389779e+00	-1.9668910069e+00
 1.1086296691e+00	 1.5212532544e+00	-1.9611969857e+00
 1.0938476136e+00	 1.5319166823e+00	-1.9532708615e+00
 1.0789749711e+00	 1.5424281048e+00	-1.9429935909e+00
 1.0640140653e+00	 1.5527864116e+00	-1.9302648087e+00
 1.0489672371e+00	 1.5629905397e+00	-1.9149973214e+00
 1.0338368432e+00	 1.5730394731e+00	-1.8971116244e+00
 1.0186252552e+00	 1.5829322433e+00	-1.8765304874e+00
 1.0033348581e+00	 1.5926679297e+00	-1.8531736490e+00
 9.8796804913e-01	 1.6022456596e+00	-1.8269526607e+00
 9.7252723688e-01	 1.6116646083e+00	-1.7977659183e+00
 1.1285840766e+00	 1.5175187406e+00	-1.9567214494e+00
 1.1138260624e+00	 1.5283837060e+00	-1.9506451404e+00
 1.0989747202e+00	 1.5390971158e+00	-1.9425918349e+00
 1.0840323662e+00	 1.5496578076e+00	-1.9323868003e+00
 1.0690013353e+00	 1.5600646662e+00	-1.9198767656e+00
 1.0538839793e+00	 1.5703166233e+00	-1.9049242550e+00
 1.0386826659e+00	 1.5804126582e+00	-1.8874019438e+00
 1.0233997779e+00	 1.5903517980e+00	-1.8671870814e+00
 1.0080377112e+00	 1.6001331178e+00	-1.8441560228e+00
 9.9259887463e-01	 1.6097557406e+00	-1.8181789111e+00
 9.7708568786e-01	 1.6192188380e+00	-1.7891145507e+00
 1.1338493213e+00	 1.5245985033e+00	-1.9475262534e+00
 1.1190224557e+00	 1.5355141577e+00	-1.9409468407e+00
 1.1041018267e+00	 1.5462775492e+00	-1.9326612288e+00
 1.0890897614e+00	 1.5568875104e+00	-1.9224408991e+00
 1.0739886054e+00	 1.5673429207e+00	-1.9100811068e+00
 1.0588007215e+00	 1.5776427068e+00	-1.8953950509e+00
 1.0435284887e+00	 1.5877858433e+00	-1.8782080645e+00
 1.0281743005e+00	 1.5977713528e+00	-1.8583518713e+00
 1.0127405644e+00	 1.6075983058e+00	-1.8356589514e+00
 9.9722970013e-01	 1.6172658216e+00	-1.8099570607e+00
 9.8164413885e-01	 1.6267730677e+00	-1.7810639443e+00
 1.1391145659e+00	 1.5316782660e+00	-1.9391583047e+00
 1.1242188490e+00	 1.5426446093e+00	-1.9319708100e+00
 1.1092289332e+00	 1.5534579827e+00	-1.9233574278e+00
 1.0941471565e+00	 1.5641172133e+00	-1.9130377756e+00
 1.0789758754e+00	 1.5746211752e+00	-1.9007570915e+00
 1.0637174638e+00	 1.5849687903e+00	-1.8862802358e+00
 1.0483743114e+00	 1.5951590284e+00	-1.8693857108e+00
 1.0329488231e+00	 1.6051909075e+00	-1.8498597475e+00
 1.0174434175e+00	 1.6150634939e+00	-1.8274905032e+00
 1.0018605256e+00	 1.6247759026e+00	-1.8020624146e+00
 9.8620258983e-01	 1.6343272974e+00	-1.7733507503e+00
 1.1443798106e+00	 1.5387580287e+00	-1.9314729136e+00
 1.1294152423e+00	 1.5497750609e+00	-1.9235877285e+00
 1.1143560397e+00	 1.5606384162e+00	-1.9145604106e+00
 1.0992045516e+00	 1.5713469161e+00	-1.9040606552e+00
 1.0839631455e+00	 1.5818994297e+00	-1.8917851652e+00
 1.0686342060e+00	 1.5922948738e+00	-1.8774514784e+00
 1.0532201341e+00	 1.6025322135e+00	-1.8607918128e+00
 1.0377233457e+00	 1.6126104622e+00	-1.8415469789e+00
 1.0221462707e+00	 1.6225286819e+00	-1.8194604060e+00
 1.0064913511e+00	 1.6322859836e+00	-1.7942723273e+00
 9.9076104082e-01	 1.6418815270e+00	-1.7657141692e+00
 1.1496450553e+00	 1.5458377914e+00	-1.9243279976e+00
 1.1346116356e+00	 1.5569055125e+00	-1.9156704200e+00
 1.1194831462e+00	 1.5678188496e+00	-1.9061519373e+00
 1.1042619468e+00	 1.5785766189e+00	-1.8953942856e+00
 1.0889504155e+00	 1.5891776842e+00	-1.8830471404e+00
 1.0735509482e+00	 1.5996209574e+00	-1.8687817640e+00
 1.0580659568e+00	 1.6099053986e+00	-1.8522846716e+00
 1.0424978684e+00	 1.6200300169e+00	-1.8332513652e+00
 1.0268491238e+00	 1.6299938699e+00	-1.8113801848e+00
 1.0111221766e+00	 1.6397960645e+00	-1.7863663235e+00
 9.9531949180e-01	 1.6494357567e+00	-1.7578960512e+00
 1.1549102999e+00	 1.5529175541e+00	-1.9175842638e+00
 1.1398080289e+00	 1.5640359641e+00	-1.9080940372e+00
 1.1246102527e+00	 1.5749992831e+00	-1.8980157359e+00
 1.1093193419e+00	 1.5858063218e+00	-1.8869251219e+00
 1.0939376856e+00	 1.5964559387e+00	-1.8744263775e+00
 1.0784676904e+00	 1.6069470409e+00	-1.8601455683e+00
 1.0629117795e+00	 1.6172785837e+00	-1.8437241237e+00
 1.0472723910e+00	 1.6274495716e+00	-1.8248123895e+00
 1.0315519769e+00	 1.6374590580e+00	-1.8030632999e+00
 1.0157530021e+00	 1.6473061455e+00	-1.7781262191e+00
 9.9987794279e-01	 1.6569899864e+00	-1.7496409984e+00
 1.1601755446e+00	 1.5599973168e+00	-1.9111053902e+00
 1.1450044221e+00	 1.5711664157e+00	-1.9007362467e+00
 1.1297373592e+00	 1.5821797165e+00	-1.8900376885e+00
 1.1143767371e+00	 1.5930360246e+00	-1.8785415107e+00
 1.0989249556e+00	 1.6037341932e+00	-1.8658079649e+00
 1.0833844327e+00	 1.6142731244e+00	-1.8514190302e+00
 1.0677576022e+00	 1.6246517688e+00	-1.8349717047e+00
 1.0520469136e+00	 1.6348691263e+00	-1.8160713708e+00
 1.0362548301e+00	 1.6449242460e+00	-1.7943252849e+00
 1.0203838276e+00	 1.6548162265e+00	-1.7693362426e+00
 1.0044363938e+00	 1.6645442161e+00	-1.7406964669e+00
 1.1654407892e+00	 1.5670770795e+00	-1.9047582077e+00
 1.1502008154e+00	 1.5782968673e+00	-1.8934774138e+00
 1.1348644658e+00	 1.5893601500e+00	-1.8821060159e+00
 1.1194341322e+00	 1.6002657274e+00	-1.8701338736e+00
 1.1039122257e+00	 1.6110124477e+00	-1.8570788978e+00
 1.0883011749e+00	 1.6215992079e+00	-1.8424801248e+00
 1.0726034250e+00	 1.6320249539e+00	-1.8258908129e+00
 1.0568214363e+00	 1.6422886811e+00	-1.8068716155e+00
 1.0409576832e+00	 1.6523894341e+00	-1.7849838848e+00
 1.0250146531e+00	 1.6623263075e+00	-1.7597831573e+00
 1.0089948448e+00	 1.6720984458e+00	-1.7308128700e+00
 1.1707060339e+00	 1.5741568421e+00	-1.8984128806e+00
 1.1553972087e+00	 1.5854273189e+00	-1.8862007862e+00
 1.1399915723e+00	 1.5965405835e+00	-1.8741114627e+00
 1.1244915273e+00	 1.6074954302e+00	-1.8615948895e+00
 1.1088994957e+00	 1.6182907023e+00	-1.8481282566e+00
 1.0932179171e+00	 1.6289252915e+00	-1.8332088351e+00
 1.0774492477e+00	 1.6393981391e+00	-1.8163468724e+00
 1.0615959589e+00	 1.6497082358e+00	-1.7970585697e+00
 1.0456605364e+00	 1.6598546221e+00	-1.7748591946e+00
 1.0296454786e+00	 1.6698363885e+00	-1.7492563831e+00
 1.0135532957e+00	 1.6796526755e+00	-1.7197436823e+00
 1.1759712785e+00	 1.5812366048e+00	-1.8919430873e+00
 1.1605936020e+00	 1.5925577705e+00	-1.8787926775e+00
 1.1451186788e+00	 1.6037210169e+00	-1.8659474805e+00
 1.1295489225e+00	 1.6147251331e+00	-1.8528196769e+00
 1.1138867658e+00	 1.6255689568e+00	-1.8388473854e+00
 1.0981346594e+00	 1.6362513750e+00	-1.8234873232e+00
 1.0822950704e+00	 1.6467713242e+00	-1.8062074955e+00
 1.0663704815e+00	 1.6571277905e+00	-1.7864799703e+00
 1.0503633895e+00	 1.6673198101e+00	-1.7637737967e+00
 1.0342763041e+00	 1.6773464695e+00	-1.7375481194e+00
 1.0181117467e+00	 1.6872069052e+00	-1.7072455446e+00
 9.7252723688e-01	 1.6116646083e+00	-1.7977659183e+00
 9.5701484010e-01	 1.6209239997e+00	-1.7668184067e+00
 9.4143328755e-01	 1.6300231078e+00	-1.7352429667e+00
 9.2578501584e-01	 1.6389612550e+00	-1.7027968159e+00
 9.1007246793e-01	 1.6477378124e+00	-1.6692073715e+00
 8.9429809199e-01	 1.6563521993e+00	-1.6341690020e+00
 8.7846434017e-01	 1.6648038834e+00	-1.5973401473e+00
 8.6257366750e-01	 1.6730923806e+00	-1.5583408311e+00
 8.4662853067e-01	 1.6812172549e+00	-1.5167505841e+00
 8.3063138694e-01	 1.6891781183e+00	-1.4721067920e+00
 8.1458469296e-01	 1.6969746305e+00	-1.4239034840e+00
 9.7708568786e-01	 1.6192188380e+00	-1.7891145507e+00
 9.6150058104e-01	 1.6285216302e+00	-1.7581268327e+00
 9.4584599429e-01	 1.6376633878e+00	-1.7263494842e+00
 9.3012437566e-01	 1.6466434301e+00	-1.6935613189e+00
 9.1433817956e-01	 1.6554611252e+00	-1.6595071520e+00
 8.9848986561e-01	 1.6641158896e+00	-1.6238944015e+00
 8.8258189749e-01	 1.6726071886e+00	-1.5863900756e+00
 8.6661674170e-01	 1.6809345359e+00	-1.5466181697e+00
 8.5059686648e-01	 1.6890974932e+00	-1.5041574925e+00
 8.3452474059e-01	 1.6970956710e+00	-1.4585399366e+00
 8.1840283220e-01	 1.7049287272e+00	-1.4092492077e+00
 9.8164413885e-01	 1.6267730677e+00	-1.7810639443e+00
 9.6598632197e-01	 1.6361192607e+00	-1.7500760888e+00
 9.5025870104e-01	 1.6453036679e+00	-1.7181127981e+00
 9.3446373548e-01	 1.6543256052e+00	-1.6849898599e+00
 9.1860389118e-01	 1.6631844380e+00	-1.6504857838e+00
 9.0268163924e-01	 1.6718795800e+00	-1.6143382142e+00
 8.8669945480e-01	 1.6804104939e+00	-1.5762407476e+00
 8.7065981591e-01	 1.6887766911e+00	-1.5358401760e+00
 8.5456520229e-01	 1.6969777316e+00	-1.4927341769e+00
 8.3841809423e-01	 1.7050132237e+00	-1.4464694671e+00
 8.2222097143e-01	 1.7128828239e+00	-1.3965404338e+00
 9.8620258983e-01	 1.6343272974e+00	-1.7733507503e+00
 9.7047206291e-01	 1.6437168913e+00	-1.7423681671e+00
 9.5467140778e-01	 1.6529439479e+00	-1.7102139543e+00
 9.3880309530e-01	 1.6620077804e+00	-1.6767560474e+00
 9.2286960280e-01	 1.6709077508e+00	-1.6418227312e+00
 9.0687341286e-01	 1.6796432703e+00	-1.6051988296e+00
 8.9081701212e-01	 1.6882137992e+00	-1.5666223136e+00
 8.7470289011e-01	 1.6966188464e+00	-1.5257813527e+00
 8.5853353810e-01	 1.7048579700e+00	-1.4823118311e+00
 8.4231144788e-01	 1.7129307764e+00	-1.4357953449e+00
 8.2603911066e-01	 1.7208369206e+00	-1.3857576963e+00
 9.9076104082e-01	 1.6418815270e+00	-1.7657141692e+00
 9.7495780385e-01	 1.6513145218e+00	-1.7347080376e+00
 9.5908411453e-01	 1.6605842280e+00	-1.7023371567e+00
 9.4314245513e-01	 1.6696899555e+00	-1.6685365831e+00
 9.2713531443e-01	 1.6786310636e+00	-1.6332002493e+00
 9.1106518648e-01	 1.6874069607e+00	-1.5961768921e+00
 8.9493456943e-01	 1.6960171044e+00	-1.5572664141e+00
 8.7874596432e-01	 1.7044610017e+00	-1.5162167058e+00
 8.6250187391e-01	 1.7127382084e+00	-1.4727209482e+00
 8.4620480153e-01	 1.7208483291e+00	-1.4264154157e+00
 8.2985724989e-01	 1.7287910173e+00	-1.3768777931e+00
 9.9531949180e-01	 1.6494357567e+00	-1.7578960512e+00
 9.7944354479e-01	 1.6589121523e+00	-1.7268037305e+00
 9.6349682127e-01	 1.6682245080e+00	-1.6941698363e+00
 9.4748181495e-01	 1.6773721306e+00	-1.6600113254e+00
 9.3140102605e-01	 1.6863543764e+00	-1.6243034455e+00
 9.1525696011e-01	 1.6951706510e+00	-1.5869753658e+00
 8.9905212675e-01	 1.7038204097e+00	-1.5479062545e+00
 8.8278903852e-01	 1.7123031570e+00	-1.5069218336e+00
 8.6647020972e-01	 1.7206184467e+00	-1.4637914292e+00
 8.5009815518e-01	 1.7287658818e+00	-1.4182255418e+00
 8.3367538912e-01	 1.7367451140e+00	-1.3698739475e+00
 9.9987794279e-01	 1.6569899864e+00	-1.7496409984e+00
 9.8392928573e-01	 1.6665097828e+00	-1.7183664200e+00
 9.6790952801e-01	 1.6758647881e+00	-1.6854027232e+00
 9.5182117477e-01	 1.6850543058e+00	-1.6508633534e+00
 9.3566673768e-01	 1.6940776892e+00	-1.6148203420e+00
 9.1944873373e-01	 1.7029343414e+00	-1.5772996008e+00
 9.0316968406e-01	 1.7116237150e+00	-1.5382766799e+00
 8.8683211273e-01	 1.7201453123e+00	-1.4976730150e+00
 8.7043854553e-01	 1.7284986851e+00	-1.4553526900e+00
 8.5399150883e-01	 1.7366834345e+00	-1.4111197338e+00
 8.3749352836e-01	 1.7446992107e+00	-1.3647159679e+00
 1.0044363938e+00	 1.6645442161e+00	-1.7406964669e+00
 9.8841502667e-01	 1.6741074133e+00	-1.7091105093e+00
 9.7232223476e-01	 1.6835050681e+00	-1.6757299188e+00
 9.5616053459e-01	 1.6927364809e+00	-1.6407790330e+00
 9.3993244930e-01	 1.7018010020e+00	-1.6044419401e+00
 9.2364050735e-01	 1.7106980317e+00	-1.5668574013e+00
 9.0728724138e-01	 1.7194270202e+00	-1.5281142508e+00
 8.9087518693e-01	 1.7279874676e+00	-1.4882472994e+00
 8.7440688134e-01	 1.7363789235e+00	-1.4472337694e+00
 8.5788486247e-01	 1.7446009872e+00	-1.4049902805e+00
 8.4131166759e-01	 1.7526533074e+00	-1.3613704059e+00
 1.0089948448e+00	 1.6720984458e+00	-1.7308128700e+00
 9.9290076761e-01	 1.6817050438e+00	-1.6987537164e+00
 9.7673494150e-01	 1.6911453482e+00	-1.6648489702e+00
 9.6049989442e-01	 1.7004186560e+00	-1.6294480839e+00
 9.4419816092e-01	 1.7095243148e+00	-1.5928622855e+00
 9.2783228098e-01	 1.7184617220e+00	-1.5553590937e+00
 9.1140479869e-01	 1.7272303255e+00	-1.5171573207e+00
 8.9491826114e-01	 1.7358296229e+00	-1.4784225963e+00
 8.7837521715e-01	 1.7442591619e+00	-1.4392634360e+00
 8.6177821612e-01	 1.7525185399e+00	-1.3997278788e+00
 8.4512980682e-01	 1.7606074041e+00	-1.3598007116e+00
 1.0135532957e+00	 1.6796526755e+00	-1.7197436823e+00
 9.9738650855e-01	 1.6893026743e+00	-1.6870171616e+00
 9.8114764825e-01	 1.6987856282e+00	-1.6524609458e+00
 9.6483925424e-01	 1.7081008311e+00	-1.6165636485e+00
 9.4846387255e-01	 1.7172476276e+00	-1.5797785359e+00
 9.3202405460e-01	 1.7262254124e+00	-1.5425175970e+00
 9.1552235600e-01	 1.7350336307e+00	-1.5051461135e+00
 8.9896133535e-01	 1.7436717782e+00	-1.4679777655e+00
 8.8234355296e-01	 1.7521394003e+00	-1.4312702960e+00
 8.6567156977e-01	 1.7604360926e+00	-1.3952217619e+00
 8.4894794605e-01	 1.7685615008e+00	-1.3587382581e+00
 1.0181117467e+00	 1.6872069052e+00	-1.7072455446e+00
 1.0018722495e+00	 1.6969003048e+00	-1.6736254557e+00
 9.8556035499e-01	 1.7064259082e+00	-1.6382705118e+00
 9.6917861406e-01	 1.7157830063e+00	-1.6018223621e+00
 9.5272958417e-01	 1.7249709404e+00	-1.5648910287e+00
 9.3621582822e-01	 1.7339891027e+00	-1.5280484939e+00
 9.1963991332e-01	 1.7428369360e+00	-1.4918228020e+00
 9.0300440955e-01	 1.7515139334e+00	-1.4566927076e+00
 8.8631188877e-01	 1.7600196386e+00	-1.4230828997e+00
 8.6956492342e-01	 1.7683536454e+00	-1.3902907012e+00
 8.5276608528e-01	 1.7765155975e+00	-1.3503612576e+00
 8.1458469296e-01	 1.6969746305e+00	-1.4239034840e+00
 7.9848816357e-01	 1.7046077823e+00	-1.3743462532e+00
 7.8234697537e-01	 1.7120759877e+00	-1.3263638787e+00
 7.6616357699e-01	 1.7193790471e+00	-1.2804470802e+00
 7.4994041202e-01	 1.7265168079e+00	-1.2370465247e+00
 7.3367991799e-01	 1.7334891636e+00	-1.1965722906e+00
 7.1738452531e-01	 1.7402960542e+00	-1.1593937993e+00
 7.0105665617e-01	 1.7469374649e+00	-1.1258402062e+00
 6.8469872359e-01	 1.7534134267e+00	-1.0962012426e+00
 6.6831313035e-01	 1.7597240152e+00	-1.0707284962e+00
 6.5190226803e-01	 1.7658693503e+00	-1.0495030819e+00
 8.1840283220e-01	 1.7049287272e+00	-1.4092492077e+00
 8.0223085480e-01	 1.7125976573e+00	-1.3586265192e+00
 7.8601400927e-01	 1.7201008678e+00	-1.3098166294e+00
 7.6975475570e-01	 1.7274381583e+00	-1.2634174141e+00
 7.5345554916e-01	 1.7346093753e+00	-1.2199880654e+00
 7.3711883859e-01	 1.7416144121e+00	-1.1800483222e+00
 7.2074706578e-01	 1.7484532080e+00	-1.1440781823e+00
 7.0434266430e-01	 1.7551257485e+00	-1.1125180903e+00
 6.8790805846e-01	 1.7616320646e+00	-1.0857695931e+00
 6.7144566231e-01	 1.7679722322e+00	-1.0631505930e+00
 6.5495787863e-01	 1.7741463719e+00	-1.0393116282e+00
 8.2222097143e-01	 1.7128828239e+00	-1.3965404338e+00
 8.0597354602e-01	 1.7205875322e+00	-1.3454790156e+00
 7.8968104316e-01	 1.7281257479e+00	-1.2966667858e+00
 7.7334593442e-01	 1.7354972695e+00	-1.2507781636e+00
 7.5697068630e-01	 1.7427019428e+00	-1.2084490059e+00
 7.4055775918e-01	 1.7497396605e+00	-1.1702756597e+00
 7.2410960625e-01	 1.7566103618e+00	-1.1368145131e+00
 7.0762867243e-01	 1.7633140321e+00	-1.1085820389e+00
 6.9111739332e-01	 1.7698507024e+00	-1.0834914203e+00
 6.7457819426e-01	 1.7762204492e+00	-1.0566962729e+00
 6.5801348923e-01	 1.7824233934e+00	-1.0288275941e+00
 8.2603911066e-01	 1.7208369206e+00	-1.3857576963e+00
 8.0971623725e-01	 1.7285774072e+00	-1.3349615717e+00
 7.9334807706e-01	 1.7361506280e+00	-1.2870315821e+00
 7.7693711313e-01	 1.7435563806e+00	-1.2426885539e+00
 7.6048582344e-01	 1.7507945102e+00	-1.2026136325e+00
 7.4399667978e-01	 1.7578649089e+00	-1.1674472125e+00
 7.2747214673e-01	 1.7647675156e+00	-1.1377880265e+00
 7.1091468055e-01	 1.7715023157e+00	-1.1097821083e+00
 6.9432672819e-01	 1.7780693403e+00	-1.0799197162e+00
 6.7771072622e-01	 1.7844686661e+00	-1.0490667344e+00
 6.6106909983e-01	 1.7907004149e+00	-1.0181117873e+00
 8.2985724989e-01	 1.7287910173e+00	-1.3768777931e+00
 8.1345892847e-01	 1.7365672822e+00	-1.3271267333e+00
 7.9701511095e-01	 1.7441755081e+00	-1.2810217643e+00
 7.8052829185e-01	 1.7516154918e+00	-1.2393004517e+00
 7.6400096058e-01	 1.7588870776e+00	-1.2026583291e+00
 7.4743560037e-01	 1.7659901573e+00	-1.1715948704e+00
 7.3083468720e-01	 1.7729246694e+00	-1.1408250143e+00
 7.1420068868e-01	 1.7796905993e+00	-1.1081125890e+00
 6.9753606306e-01	 1.7862879781e+00	-1.0743365438e+00
 6.8084325817e-01	 1.7927168831e+00	-1.0403993736e+00
 6.6412471043e-01	 1.7989774365e+00	-1.0072259700e+00
 8.3367538912e-01	 1.7367451140e+00	-1.3698739475e+00
 8.1720161970e-01	 1.7445571572e+00	-1.3220219518e+00
 8.0068214485e-01	 1.7522003882e+00	-1.2787417991e+00
 7.8411947056e-01	 1.7596746030e+00	-1.2407585868e+00
 7.6751609772e-01	 1.7669796451e+00	-1.2082816107e+00
 7.5087452097e-01	 1.7741154057e+00	-1.1751733489e+00
 7.3419722767e-01	 1.7810818232e+00	-1.1400039753e+00
 7.1748669681e-01	 1.7878788828e+00	-1.1036320282e+00
 7.0074539792e-01	 1.7945066160e+00	-1.0669396214e+00
 6.8397579012e-01	 1.8009651001e+00	-1.0308313002e+00
 6.6718032103e-01	 1.8072544580e+00	-9.9623287747e-01
 8.3749352836e-01	 1.7446992107e+00	-1.3647159679e+00
 8.2094431093e-01	 1.7525470321e+00	-1.3196897708e+00
 8.0434917874e-01	 1.7602252683e+00	-1.2802900802e+00
 7.8771064928e-01	 1.7677337141e+00	-1.2463842841e+00
 7.7103123486e-01	 1.7750722125e+00	-1.2113181148e+00
 7.5431344156e-01	 1.7822406541e+00	-1.1741201177e+00
 7.3755976815e-01	 1.7892389771e+00	-1.1355980984e+00
 7.2077270493e-01	 1.7960671664e+00	-1.0965825236e+00
 7.0395473279e-01	 1.8027252539e+00	-1.0579254413e+00
 6.8710832208e-01	 1.8092133171e+00	-1.0204993810e+00
 6.7023593163e-01	 1.8155314795e+00	-9.8519623446e-01
 8.4131166759e-01	 1.7526533074e+00	-1.3613704059e+00
 8.2468700215e-01	 1.7605369071e+00	-1.3201680099e+00
 8.0801621264e-01	 1.7682501484e+00	-1.2846656479e+00
 7.9130182799e-01	 1.7757928253e+00	-1.2478561785e+00
 7.7454637200e-01	 1.7831647799e+00	-1.2089648744e+00
 7.5775236216e-01	 1.7903659025e+00	-1.1687219479e+00
 7.4092230862e-01	 1.7973961309e+00	-1.1278782464e+00
 7.2405871306e-01	 1.8042554500e+00	-1.0872042976e+00
 7.0716406766e-01	 1.8109438917e+00	-1.0474893316e+00
 6.9024085403e-01	 1.8174615341e+00	-1.0095402824e+00
 6.7329154224e-01	 1.8238085011e+00	-9.7418077073e-01
 8.4512980682e-01	 1.7606074041e+00	-1.3598007116e+00
 8.2842969338e-01	 1.7685267821e+00	-1.3222501962e+00
 8.1168324653e-01	 1.7762750285e+00	-1.2836387269e+00
 7.9489300671e-01	 1.7838519365e+00	-1.2431811680e+00
 7.7806150914e-01	 1.7912573474e+00	-1.2015070367e+00
 7.6119128276e-01	 1.7984911509e+00	-1.1592631878e+00
 7.4428484909e-01	 1.8055532847e+00	-1.1171130386e+00
 7.2734472119e-01	 1.8124437336e+00	-1.0757357718e+00
 7.1037340252e-01	 1.8191625296e+00	-1.0358255167e+00
 6.9337338599e-01	 1.8257097511e+00	-9.9809050961e-01
 6.7634715284e-01	 1.8320855226e+00	-9.6325223456e-01
 8.4894794605e-01	 1.7685615008e+00	-1.3587382581e+00
 8.3217238461e-01	 1.7765166570e+00	-1.3178993807e+00
 8.1535028043e-01	 1.7842999086e+00	-1.2756926803e+00
 7.9848418542e-01	 1.7919110476e+00	-1.2326279254e+00
 7.8157664628e-01	 1.7993499148e+00	-1.1892274965e+00
 7.6463020335e-01	 1.8066163993e+00	-1.1460258448e+00
 7.4764738957e-01	 1.8137104385e+00	-1.1035689299e+00
 7.3063072931e-01	 1.8206320172e+00	-1.0624136372e+00
 7.1358273739e-01	 1.8273811674e+00	-1.0231271737e+00
 6.9650591794e-01	 1.8339579680e+00	-9.8628644382e-01
 6.7940276344e-01	 1.8403625441e+00	-9.5247740491e-01
 8.5276608528e-01	 1.7765155975e+00	-1.3503612576e+00
 8.3591507583e-01	 1.7845065320e+00	-1.3058250688e+00
 8.1901731432e-01	 1.7923247887e+00	-1.2610652146e+00
 8.0207536413e-01	 1.7999701588e+00	-1.2164632971e+00
 7.8509178342e-01	 1.8074424822e+00	-1.1724069699e+00
 7.6806912395e-01	 1.8147416478e+00	-1.1292896625e+00
 7.5100993004e-01	 1.8218675923e+00	-1.0875102864e+00
 7.3391673744e-01	 1.8288203008e+00	-1.0474729223e+00
 7.1679207226e-01	 1.8355998053e+00	-1.0095864864e+00
 6.9963844990e-01	 1.8422061850e+00	-9.7426437715e-01
 6.8245837404e-01	 1.8486395656e+00	-9.4192410206e-01
 6.5190226803e-01	 1.7658693503e+00	-1.0495030819e+00
 6.3547131114e-01	 1.7718485933e+00	-1.0229392794e+00
 6.1901983667e-01	 1.7776630090e+00	-9.8384454395e-01
 6.0255019490e-01	 1.7833128461e+00	-9.3244471772e-01
 5.8606472121e-01	 1.7887983956e+00	-8.6914999328e-01
 5.6956573515e-01	 1.7941199904e+00	-8.0500665421e-01
 5.5305553956e-01	 1.7992780042e+00	-7.4685125602e-01
 5.3653641979e-01	 1.8042728512e+00	-6.9485409108e-01
 5.2001064282e-01	 1.8091049855e+00	-6.4920538994e-01
 5.0348045650e-01	 1.8137749003e+00	-6.1011716501e-01
 4.8694808875e-01	 1.8182831273e+00	-5.7782479223e-01
 6.5495787863e-01	 1.7741463719e+00	-1.0393116282e+00
 6.3844990620e-01	 1.7801536409e+00	-1.0089996177e+00
 6.2192132001e-01	 1.7859953100e+00	-9.6743625837e-01
 6.0537448139e-01	 1.7916716291e+00	-9.1471922840e-01
 5.8881173662e-01	 1.7971828907e+00	-8.5097941583e-01
 5.7223541615e-01	 1.8025294290e+00	-7.8463070503e-01
 5.5564783361e-01	 1.8077116195e+00	-7.2525737917e-01
 5.3905128506e-01	 1.8127298785e+00	-6.7288851816e-01
 5.2244804811e-01	 1.8175846620e+00	-6.2756032488e-01
 5.0584038114e-01	 1.8222764658e+00	-5.8933012431e-01
 4.8923052251e-01	 1.8268058238e+00	-5.5827812362e-01
 6.5801348923e-01	 1.7824233934e+00	-1.0288275941e+00
 6.4142850126e-01	 1.7884586885e+00	-9.9563943053e-01
 6.2482280336e-01	 1.7943276110e+00	-9.5229633195e-01
 6.0819876787e-01	 1.8000304122e+00	-8.9878424701e-01
 5.9155875203e-01	 1.8055673857e+00	-8.3512002668e-01
 5.7490509715e-01	 1.8109388675e+00	-7.6709220641e-01
 5.5824012766e-01	 1.8161452348e+00	-7.0656136773e-01
 5.4156615033e-01	 1.8211869057e+00	-6.5377686258e-01
 5.2488545340e-01	 1.8260643386e+00	-6.0864004746e-01
 5.0820030577e-01	 1.8307780312e+00	-5.7107327059e-01
 4.9151295627e-01	 1.8353285204e+00	-5.4102177390e-01
 6.6106909983e-01	 1.7907004149e+00	-1.0181117873e+00
 6.4440709632e-01	 1.7967637360e+00	-9.8284138260e-01
 6.2772428671e-01	 1.8026599120e+00	-9.3834056893e-01
 6.1102305435e-01	 1.8083891953e+00	-8.8449974446e-01
 5.9430576744e-01	 1.8139518808e+00	-8.2123857566e-01
 5.7757477815e-01	 1.8193483061e+00	-7.5218240840e-01
 5.6083242171e-01	 1.8245788501e+00	-6.9053663666e-01
 5.4408101560e-01	 1.8296439330e+00	-6.3728459440e-01
 5.2732285868e-01	 1.8345440151e+00	-5.9221170273e-01
 5.1056023041e-01	 1.8392795967e+00	-5.5512476919e-01
 4.9379539003e-01	 1.8438512169e+00	-5.2585399527e-01
 6.6412471043e-01	 1.7989774365e+00	-1.0072259700e+00
 6.4738569138e-01	 1.8050687836e+00	-9.7059040066e-01
 6.3062577006e-01	 1.8109922131e+00	-9.2548813316e-01
 6.1384734083e-01	 1.8167479783e+00	-8.7172994328e-01
 5.9705278285e-01	 1.8223363759e+00	-8.0915490975e-01
 5.8024445915e-01	 1.8277577446e+00	-7.3969557182e-01
 5.6342471576e-01	 1.8330124654e+00	-6.7695985498e-01
 5.4659588087e-01	 1.8381009602e+00	-6.2318050062e-01
 5.2976026397e-01	 1.8430236917e+00	-5.7804564095e-01
 5.1292015504e-01	 1.8477811622e+00	-5.4126571013e-01
 4.9607782379e-01	 1.8523739134e+00	-5.1257552123e-01
 6.6718032103e-01	 1.8072544580e+00	-9.9623287747e-01
 6.5036428644e-01	 1.8133738312e+00	-9.5887366326e-01
 6.3352725341e-01	 1.8193245141e+00	-9.1366151364e-01
 6.1667162732e-01	 1.8251067614e+00	-8.6034326367e-01
 5.9979979826e-01	 1.8307208709e+00	-7.9869375001e-01
 5.8291414015e-01	 1.8361671832e+00	-7.2942897348e-01
 5.6601700981e-01	 1.8414460807e+00	-6.6561094015e-01
 5.4911074614e-01	 1.8465579875e+00	-6.1123667287e-01
 5.3219766926e-01	 1.8515033682e+00	-5.6591540260e-01
 5.1528007968e-01	 1.8562827277e+00	-5.2928009440e-01
 4.9836025755e-01	 1.8608966100e+00	-5.0098955794e-01
 6.7023593163e-01	 1.8155314795e+00	-9.8519623446e-01
 6.5334288150e-01	 1.8216788787e+00	-9.4768058960e-01
 6.3642873675e-01	 1.8276568151e+00	-9.0278648999e-01
 6.1949591380e-01	 1.8334655445e+00	-8.5021227002e-01
 6.0254681367e-01	 1.8391053660e+00	-7.8968462351e-01
 5.8558382115e-01	 1.8445766217e+00	-7.2118291277e-01
 5.6860930386e-01	 1.8498796960e+00	-6.5627305395e-01
 5.5162561141e-01	 1.8550150148e+00	-6.0122849667e-01
 5.3463507454e-01	 1.8599830448e+00	-5.5559770498e-01
 5.1764000431e-01	 1.8647842931e+00	-5.1895482180e-01
 5.0064269131e-01	 1.8694193065e+00	-4.9090177708e-01
 6.7329154224e-01	 1.8238085011e+00	-9.7418077073e-01
 6.5632147656e-01	 1.8299839263e+00	-9.3700282757e-01
 6.3933022010e-01	 1.8359891162e+00	-8.9279209781e-01
 6.2232020028e-01	 1.8418243275e+00	-8.4121361792e-01
 6.0529382908e-01	 1.8474898610e+00	-7.8196179625e-01
 5.8825350215e-01	 1.8529860603e+00	-7.1476064195e-01
 5.7120159791e-01	 1.8583133113e+00	-6.4873259985e-01
 5.5414047668e-01	 1.8634720420e+00	-5.9293464230e-01
 5.3707247983e-01	 1.8684627213e+00	-5.4687243052e-01
 5.1999992895e-01	 1.8732858586e+00	-5.1007968030e-01
 5.0292512507e-01	 1.8779420031e+00	-4.8212030982e-01
 6.7634715284e-01	 1.8320855226e+00	-9.6325223456e-01
 6.5930007162e-01	 1.8382889739e+00	-9.2683424105e-01
 6.4223170345e-01	 1.8443214172e+00	-8.8361059395e-01
 6.2514448676e-01	 1.8501831106e+00	-8.3322800161e-01
 6.0804084449e-01	 1.8558743561e+00	-7.7536420685e-01
 5.9092318315e-01	 1.8613954988e+00	-7.0972817848e-01
 5.7379389196e-01	 1.8667469266e+00	-6.4277922182e-01
 5.5665534195e-01	 1.8719290693e+00	-5.8613705726e-01
 5.3950988512e-01	 1.8769423979e+00	-5.3952261653e-01
 5.2235985359e-01	 1.8817874241e+00	-5.0244733684e-01
 5.0520755883e-01	 1.8864646996e+00	-4.7445574224e-01
 6.7940276344e-01	 1.8403625441e+00	-9.5247740491e-01
 6.6227866668e-01	 1.8465940215e+00	-9.1717089646e-01
 6.4513318680e-01	 1.8526537182e+00	-8.7517742166e-01
 6.2796877325e-01	 1.8585418937e+00	-8.2614010189e-01
 6.1078785990e-01	 1.8642588511e+00	-7.6973540126e-01
 5.9359286415e-01	 1.8698049374e+00	-7.0567324896e-01
 5.7638618601e-01	 1.8751805420e+00	-6.3820580453e-01
 5.5917020722e-01	 1.8803860966e+00	-5.8062096020e-01
 5.4194729040e-01	 1.8854220744e+00	-5.3333444649e-01
 5.2471977822e-01	 1.8902889896e+00	-4.9585332950e-01
 5.0748999259e-01	 1.8949873961e+00	-4.6772111182e-01
 6.8245837404e-01	 1.8486395656e+00	-9.4192410206e-01
 6.6525726174e-01	 1.8548990690e+00	-9.0801104856e-01
 6.4803467015e-01	 1.8609860192e+00	-8.6743117572e-01
 6.3079305973e-01	 1.8669006767e+00	-8.1983853445e-01
 6.1353487531e-01	 1.8726433462e+00	-7.6492346820e-01
 5.9626254515e-01	 1.8782143759e+00	-7.0241263431e-01
 5.7897848006e-01	 1.8836141573e+00	-6.3480847493e-01
 5.6168507249e-01	 1.8888431238e+00	-5.7617483623e-01
 5.4438469569e-01	 1.8939017510e+00	-5.2809724284e-01
 5.2707970286e-01	 1.8987905551e+00	-4.9009606110e-01
 5.0977242635e-01	 1.9035100927e+00	-4.6173190520e-01
 4.8694808875e-01	 1.8182831273e+00	-5.7782479223e-01
 4.7041574706e-01	 1.8226302364e+00	-5.4859686978e-01
 4.5388561839e-01	 1.8268168362e+00	-5.1853904453e-01
 4.3735986779e-01	 1.8308435719e+00	-4.8766960806e-01
 4.2084063749e-01	 1.8347111246e+00	-4.5601989374e-01
 4.0433004622e-01	 1.8384202100e+00	-4.2363543706e-01
 3.8783018861e-01	 1.8419715781e+00	-3.9057696851e-01
 3.7134313460e-01	 1.8453660122e+00	-3.5692125175e-01
 3.5487092882e-01	 1.8486043281e+00	-3.2276177938e-01
 3.3841559011e-01	 1.8516873736e+00	-2.8820933840e-01
 3.2197911094e-01	 1.8546160272e+00	-2.5339245665e-01
 4.8923052251e-01	 1.8268058238e+00	-5.5827812362e-01
 4.7262069006e-01	 1.8311733088e+00	-5.3040572623e-01
 4.5601308101e-01	 1.8353795321e+00	-5.0164538038e-01
 4.3940987056e-01	 1.8394251420e+00	-4.7200239687e-01
 4.2281321096e-01	 1.8433108228e+00	-4.4149701380e-01
 4.0622523088e-01	 1.8470372935e+00	-4.1016549496e-01
 3.8964803478e-01	 1.8506053077e+00	-3.7806105940e-01
 3.7308370228e-01	 1.8540156522e+00	-3.4525465531e-01
 3.5653428762e-01	 1.8572691468e+00	-3.1183559104e-01
 3.4000181909e-01	 1.8603666432e+00	-2.7791203576e-01
 3.2348829849e-01	 1.8633090241e+00	-2.4361140139e-01
 4.9151295627e-01	 1.8353285204e+00	-5.4102177390e-01
 4.7482563307e-01	 1.8397163812e+00	-5.1425880951e-01
 4.5814054363e-01	 1.8439422280e+00	-4.8656872809e-01
 4.4145987332e-01	 1.8480067122e+00	-4.5794338445e-01
 4.2478578442e-01	 1.8519105210e+00	-4.2839129661e-01
 4.0812041554e-01	 1.8556543770e+00	-3.9793868395e-01
 3.9146588094e-01	 1.8592390372e+00	-3.6663033517e-01
 3.7482426996e-01	 1.8626652922e+00	-3.3453031988e-01
 3.5819764642e-01	 1.8659339656e+00	-3.0172255712e-01
 3.4158804806e-01	 1.8690459129e+00	-2.6831125353e-01
 3.2499748604e-01	 1.8720020210e+00	-2.3442122359e-01
 4.9379539003e-01	 1.8438512169e+00	-5.2585399527e-01
 4.7703057607e-01	 1.8482594536e+00	-4.9997778153e-01
 4.6026800626e-01	 1.8525049239e+00	-4.7315194928e-01
 4.4350987608e-01	 1.8565882823e+00	-4.4535445729e-01
 4.2675835788e-01	 1.8605102192e+00	-4.1658151487e-01
 4.1001560020e-01	 1.8642714605e+00	-3.8684856111e-01
 3.9328372711e-01	 1.8678727668e+00	-3.5619107292e-01
 3.7656483765e-01	 1.8713149323e+00	-3.2466521629e-01
 3.5986100522e-01	 1.8745987843e+00	-2.9234835432e-01
 3.4317427704e-01	 1.8777251825e+00	-2.5933942539e-01
 3.2650667358e-01	 1.8806950179e+00	-2.2575920401e-01
 4.9607782379e-01	 1.8523739134e+00	-5.1257552123e-01
 4.7923551908e-01	 1.8568025260e+00	-4.8738628572e-01
 4.6239546888e-01	 1.8610676199e+00	-4.6123943341e-01
 4.4555987884e-01	 1.8651698524e+00	-4.3409862244e-01
 4.2873093135e-01	 1.8691099174e+00	-4.0594720086e-01
 4.1191078486e-01	 1.8728885440e+00	-3.7678912842e-01
 3.9510157327e-01	 1.8765064963e+00	-3.4664972630e-01
 3.7830540533e-01	 1.8799645723e+00	-3.1557626977e-01
 3.6152436402e-01	 1.8832636031e+00	-2.8363843779e-01
 3.4476050601e-01	 1.8864044522e+00	-2.5092863336e-01
 3.2801586113e-01	 1.8893880148e+00	-2.1756218752e-01
 4.9836025755e-01	 1.8608966100e+00	-5.0098955794e-01
 4.8144046208e-01	 1.8653455984e+00	-4.7630994491e-01
 4.6452293151e-01	 1.8696303158e+00	-4.5067710145e-01
 4.4760988161e-01	 1.8737514226e+00	-4.2404001579e-01
 4.3070350481e-01	 1.8777096156e+00	-3.9636865848e-01
 4.1380596952e-01	 1.8815056276e+00	-3.6765484775e-01
 3.9691941944e-01	 1.8851402259e+00	-3.3791294255e-01
 3.8004597302e-01	 1.8886142123e+00	-3.0718037819e-01
 3.6318772282e-01	 1.8919284218e+00	-2.7551805958e-01
 3.4634673499e-01	 1.8950837218e+00	-2.4301062580e-01
 3.2952504868e-01	 1.8980810117e+00	-2.0976659971e-01
 5.0064269131e-01	 1.8694193065e+00	-4.9090177708e-01
 4.8364540509e-01	 1.8738886708e+00	-4.6657636049e-01
 4.6665039413e-01	 1.8781930117e+00	-4.4131241024e-01
 4.4965988437e-01	 1.8823329927e+00	-4.1504391106e-01
 4.3267607828e-01	 1.8863093138e+00	-3.8772697590e-01
 4.1570115418e-01	 1.8901227111e+00	-3.5934065626e-01
 3.9873726560e-01	 1.8937739555e+00	-3.2988757972e-01
 3.8178654070e-01	 1.8972638524e+00	-2.9939443036e-01
 3.6485108162e-01	 1.9005932405e+00	-2.6791228726e-01
 3.4793296396e-01	 1.9037629915e+00	-2.3551683551e-01
 3.3103423623e-01	 1.9067740086e+00	-2.0230846361e-01
 5.0292512507e-01	 1.8779420031e+00	-4.8212030982e-01
 4.8585034809e-01	 1.8824317432e+00	-4.5801511246e-01
 4.6877785675e-01	 1.8867557076e+00	-4.3299435791e-01
 4.5170988714e-01	 1.8909145628e+00	-4.0697672939e-01
 4.3464865175e-01	 1.8949090120e+00	-3.7990403861e-01
 4.1759633884e-01	 1.8987397946e+00	-3.5174198206e-01
 4.0055511177e-01	 1.9024076850e+00	-3.2248072429e-01
 3.8352710838e-01	 1.9059134924e+00	-2.9213532462e-01
 3.6651444042e-01	 1.9092580593e+00	-2.6074602269e-01
 3.4951919294e-01	 1.9124422611e+00	-2.2837839785e-01
 3.3254342378e-01	 1.9154670055e+00	-1.9512341653e-01
 5.0520755883e-01	 1.8864646996e+00	-4.7445574224e-01
 4.8805529110e-01	 1.8909748156e+00	-4.5045776065e-01
 4.7090531938e-01	 1.8953184036e+00	-4.2557348993e-01
 4.5375988990e-01	 1.8994961330e+00	-3.9970604965e-01
 4.3662122521e-01	 1.9035087102e+00	-3.7278254308e-01
 4.1949152350e-01	 1.9073568781e+00	-3.4475476038e-01
 4.0237295794e-01	 1.9110414146e+00	-3.1559970889e-01
 3.8526767607e-01	 1.9145631324e+00	-2.8531998749e-01
 3.6817779922e-01	 1.9179228780e+00	-2.5394402081e-01
 3.5110542191e-01	 1.9211215308e+00	-2.2152616893e-01
 3.3405261133e-01	 1.9241600024e+00	-1.8814672684e-01
 5.0748999259e-01	 1.8949873961e+00	-4.6772111182e-01
 4.9026023410e-01	 1.8995178880e+00	-4.4373784682e-01
 4.7303278200e-01	 1.9038810995e+00	-4.1890190611e-01
 4.5580989266e-01	 1.9080777031e+00	-3.9310061935e-01
 4.3859379868e-01	 1.9121084084e+00	-3.6624601077e-01
 4.2138670816e-01	 1.9159739616e+00	-3.3827544997e-01
 4.0419080410e-01	 1.9196751442e+00	-3.0915213041e-01
 3.8700824375e-01	 1.9232127724e+00	-2.7886539259e-01
 3.6984115802e-01	 1.9265876967e+00	-2.4743090863e-01
 3.5269165089e-01	 1.9298008004e+00	-2.1489074395e-01
 3.3556179888e-01	 1.9328529993e+00	-1.8131331091e-01
 5.0977242635e-01	 1.9035100927e+00	-4.6173190520e-01
 4.9246517711e-01	 1.9080609604e+00	-4.3769089784e-01
 4.7516024463e-01	 1.9124437954e+00	-4.1283326827e-01
 4.5785989543e-01	 1.9166592732e+00	-3.8703036614e-01
 4.4056637214e-01	 1.9207081067e+00	-3.6017880267e-01
 4.2328189282e-01	 1.9245910451e+00	-3.3220104990e-01
 4.0600865027e-01	 1.9283088737e+00	-3.0304586820e-01
 3.8874881144e-01	 1.9318624125e+00	-2.7268857964e-01
 3.7150451682e-01	 1.9352525155e+00	-2.4113120426e-01
 3.5427787987e-01	 1.9384800701e+00	-2.0840247552e-01
 3.3707098643e-01	 1.9415459962e+00	-1.7455775006e-01
 3.2197911094e-01	 1.8546160272e+00	-2.5339245665e-01
 3.0556066871e-01	 1.8573916564e+00	-2.1980580237e-01
 2.8916500231e-01	 1.8600146878e+00	-1.8875106369e-01
 2.7279402747e-01	 1.8624860872e+00	-1.6008307323e-01
 2.5644963163e-01	 1.8648068484e+00	-1.3368365811e-01
 2.4013367353e-01	 1.8669779921e+00	-1.0946188241e-01
 2.2384798283e-01	 1.8690005651e+00	-8.7354209872e-02
 2.0759435981e-01	 1.8708756396e+00	-6.7324594058e-02
 1.9137457499e-01	 1.8726043121e+00	-4.9364502876e-02
 1.7519036889e-01	 1.8741877030e+00	-3.3492883392e-02
 1.5904345171e-01	 1.8756269553e+00	-1.9756072538e-02
 3.2348829849e-01	 1.8633090241e+00	-2.4361140139e-01
 3.0699289937e-01	 1.8660976633e+00	-2.1046469987e-01
 2.9052038284e-01	 1.8687329894e+00	-1.7980847708e-01
 2.7407267362e-01	 1.8712159728e+00	-1.5149648610e-01
 2.5765166797e-01	 1.8735476120e+00	-1.2541069037e-01
 2.4125923334e-01	 1.8757289323e+00	-1.0146145647e-01
 2.2489720800e-01	 1.8777609856e+00	-7.9587668937e-02
 2.0856740064e-01	 1.8796448489e+00	-5.9756774635e-02
 1.9227159009e-01	 1.8813816241e+00	-4.1964763495e-02
 1.7601152503e-01	 1.8829724367e+00	-2.6236091864e-02
 1.5978892366e-01	 1.8844184351e+00	-1.2623554017e-02
 3.2499748604e-01	 1.8720020210e+00	-2.3442122359e-01
 3.0842513004e-01	 1.8748036702e+00	-2.0161816875e-01
 2.9187576338e-01	 1.8774512910e+00	-1.7127320383e-01
 2.7535131976e-01	 1.8799458584e+00	-1.4323938693e-01
 2.5885370430e-01	 1.8822883755e+00	-1.1739916234e-01
 2.4238479316e-01	 1.8844798725e+00	-9.3664502470e-02
 2.2594643317e-01	 1.8865214060e+00	-7.1976973986e-02
 2.0954044147e-01	 1.8884140582e+00	-5.2307735588e-02
 1.9316860519e-01	 1.8901589361e+00	-3.4657474524e-02
 1.7683268116e-01	 1.8917571704e+00	-1.9056288108e-02
 1.6053439561e-01	 1.8932099149e+00	-5.5635158964e-03
 3.2650667358e-01	 1.8806950179e+00	-2.2575920401e-01
 3.0985736070e-01	 1.8835096771e+00	-1.9320732798e-01
 2.9323114392e-01	 1.8861695926e+00	-1.6309006855e-01
 2.7662996591e-01	 1.8886757441e+00	-1.3526017760e-01
 2.6005574064e-01	 1.8910291390e+00	-1.0960092810e-01
 2.4351035298e-01	 1.8932308127e+00	-8.6026204288e-02
 2.2699565834e-01	 1.8952818264e+00	-6.4480518093e-02
 2.1051348230e-01	 1.8971832676e+00	-4.4938959655e-02
 1.9406562030e-01	 1.8989362481e+00	-2.7407089078e-02
 1.7765383730e-01	 1.9005419041e+00	-1.1920775766e-02
 1.6127986756e-01	 1.9020013947e+00	 1.4540088930e-03
 3.2801586113e-01	 1.8893880148e+00	-2.1756218752e-01
 3.1128959137e-01	 1.8922156840e+00	-1.8517280596e-01
 2.9458652446e-01	 1.8948878943e+00	-1.5520336475e-01
 2.7790861205e-01	 1.8974056297e+00	-1.2750670259e-01
 2.6125777697e-01	 1.8997699026e+00	-1.0196727275e-01
 2.4463591280e-01	 1.9019817528e+00	-7.8501180141e-02
 2.2804488351e-01	 1.9040422468e+00	-5.7056147199e-02
 2.1148652314e-01	 1.9059524769e+00	-3.7611416399e-02
 1.9496263540e-01	 1.9077135601e+00	-2.0177596677e-02
 1.7847499343e-01	 1.9093266378e+00	-4.7964602640e-03
 1.6202533951e-01	 1.9107928745e+00	 8.4593042991e-03
 3.2952504868e-01	 1.8980810117e+00	-2.0976659971e-01
 3.1272182203e-01	 1.9009216909e+00	-1.7745475550e-01
 2.9594190500e-01	 1.9036061959e+00	-1.4755686783e-01
 2.7918725820e-01	 1.9061355153e+00	-1.1992626016e-01
 2.6245981331e-01	 1.9085106661e+00	-9.4448921557e-02
 2.4576147262e-01	 1.9107326930e+00	-7.1043489689e-02
 2.2909410868e-01	 1.9128026673e+00	-4.9661165102e-02
 2.1245956397e-01	 1.9147216862e+00	-3.0285564997e-02
 1.9585965050e-01	 1.9164908721e+00	-1.2932523784e-02
 1.7929614957e-01	 1.9181113715e+00	 2.3501529653e-03
 1.6277081146e-01	 1.9195843543e+00	 1.5482975320e-02
 3.3103423623e-01	 1.9067740086e+00	-2.0230846361e-01
 3.1415405270e-01	 1.9096276978e+00	-1.6999286868e-01
 2.9729728554e-01	 1.9123244975e+00	-1.4009384824e-01
 2.8046590435e-01	 1.9148654009e+00	-1.1246561349e-01
 2.6366184964e-01	 1.9172514297e+00	-8.6996049187e-02
 2.4688703243e-01	 1.9194836332e+00	-6.3606641250e-02
 2.3014333386e-01	 1.9215630877e+00	-4.2252338563e-02
 2.1343260480e-01	 1.9234908955e+00	-2.2921357196e-02
 1.9675666560e-01	 1.9252681841e+00	-5.6349345249e-03
 1.8011730570e-01	 1.9268961052e+00	 9.5529600545e-03
 1.6351628341e-01	 1.9283758340e+00	 2.2555951924e-02
 3.3254342378e-01	 1.9154670055e+00	-1.9512341653e-01
 3.1558628337e-01	 1.9183337047e+00	-1.6272639195e-01
 2.9865266608e-01	 1.9210427991e+00	-1.3275708465e-01
 2.8174455049e-01	 1.9235952865e+00	-1.0507100205e-01
 2.6486388598e-01	 1.9259921932e+00	-7.9558289042e-02
 2.4801259225e-01	 1.9282345734e+00	-5.6143599099e-02
 2.3119255903e-01	 1.9303235081e+00	-3.4785902532e-02
 2.1440564563e-01	 1.9322601048e+00	-1.5478240392e-02
 1.9765368070e-01	 1.9340454961e+00	 1.7525684203e-03
 1.8093846184e-01	 1.9356808389e+00	 1.6846260068e-02
 1.6426175536e-01	 1.9371673138e+00	 2.9709492737e-02
 3.3405261133e-01	 1.9241600024e+00	-1.8814672684e-01
 3.1701851403e-01	 1.9270397115e+00	-1.5559414113e-01
 3.0000804662e-01	 1.9297611007e+00	-1.2548887718e-01
 2.8302319664e-01	 1.9323251722e+00	-9.7688152877e-02
 2.6606592231e-01	 1.9347329568e+00	-7.2084742659e-02
 2.4913815207e-01	 1.9369855135e+00	-4.8606790873e-02
 2.3224178420e-01	 1.9390839285e+00	-2.7217565488e-02
 2.1537868647e-01	 1.9410293141e+00	-7.9151608616e-03
 1.9855069580e-01	 1.9428228080e+00	 9.2678427645e-03
 1.8175961797e-01	 1.9444655726e+00	 2.4264756175e-02
 1.6500722731e-01	 1.9459587936e+00	 3.6975188488e-02
 3.3556179888e-01	 1.9328529993e+00	-1.8131331091e-01
 3.1845074470e-01	 1.9357457184e+00	-1.4853451658e-01
 3.0136342716e-01	 1.9384794024e+00	-1.1823106073e-01
 2.8430184279e-01	 1.9410550578e+00	-9.0262292048e-02
 2.6726795865e-01	 1.9434737203e+00	-6.4523989199e-02
 2.5026371189e-01	 1.9457364537e+00	-4.0948115066e-02
 2.3329100937e-01	 1.9478443490e+00	-1.9502514897e-02
 2.1635172730e-01	 1.9497985234e+00	-1.9056711701e-04
 1.9944771090e-01	 1.9516001200e+00	 1.6949205399e-02
 1.8258077411e-01	 1.9532503062e+00	 3.1843556630e-02
 1.6575269926e-01	 1.9547502734e+00	 4.4384965244e-02
 3.3707098643e-01	 1.9415459962e+00	-1.7455775006e-01
 3.1988297537e-01	 1.9444517253e+00	-1.4148551840e-01
 3.0271880770e-01	 1.9471977040e+00	-1.1092501830e-01
 2.8558048894e-01	 1.9497849434e+00	-8.2738156135e-02
 2.6846999499e-01	 1.9522144839e+00	-5.6824095005e-02
 2.5138927171e-01	 1.9544873939e+00	-3.3118948612e-02
 2.3434023454e-01	 1.9566047694e+00	-1.1595422768e-02
 2.1732476813e-01	 1.9585677328e+00	 7.7375866034e-03
 2.0034472601e-01	 1.9603774320e+00	 2.4835431024e-02
 1.8340193024e-01	 1.9620350399e+00	 3.9618175570e-02
 1.6649817121e-01	 1.9635417532e+00	 5.1971087415e-02
 1.5904345171e-01	 1.8756269553e+00	-1.9756072538e-02
 1.4293823142e-01	 1.8769230258e+00	-7.5551974524e-03
 1.2687357695e-01	 1.8780773568e+00	 3.7593940795e-03
 1.1085106873e-01	 1.8790911537e+00	 1.4173303357e-02
 9.4872257094e-02	 1.8799656418e+00	 2.3649045533e-02
 7.8938662051e-02	 1.8807020647e+00	 3.2126084399e-02
 6.3051773189e-02	 1.8813016841e+00	 3.9520901369e-02
 4.7213049540e-02	 1.8817657788e+00	 4.5727097034e-02
 3.1423919486e-02	 1.8820956438e+00	 5.0615524083e-02
 1.5685780682e-02	 1.8822925895e+00	 5.4034450687e-02
 0.0000000000e+00	 1.8823579412e+00	 5.5809753802e-02
 1.5978892366e-01	 1.8844184351e+00	-1.2623554017e-02
 1.4360821463e-01	 1.8857205806e+00	-4.8926733474e-04
 1.2746826155e-01	 1.8868803221e+00	 1.0846898797e-02
 1.1137065229e-01	 1.8878988710e+00	 2.1350087791e-02
 9.5316944414e-02	 1.8887774579e+00	 3.0961623073e-02
 7.9308665075e-02	 1.8895173326e+00	 3.9599081059e-02
 6.3347310839e-02	 1.8901197626e+00	 4.7156395677e-02
 4.7434347578e-02	 1.8905860326e+00	 5.3503992927e-02
 3.1571210368e-02	 1.8909174437e+00	 5.8488954320e-02
 1.5759303416e-02	 1.8911153126e+00	 6.1935208416e-02
 0.0000000000e+00	 1.8911809706e+00	 6.3643750035e-02
 1.6053439561e-01	 1.8932099149e+00	-5.5635158964e-03
 1.4427819784e-01	 1.8945181354e+00	 6.4976132450e-03
 1.2806294616e-01	 1.8956832875e+00	 1.7838727526e-02
 1.1189023584e-01	 1.8967065882e+00	 2.8406238473e-02
 9.5761631733e-02	 1.8975892741e+00	 3.8122094068e-02
 7.9678668098e-02	 1.8983326006e+00	 4.6883886053e-02
 6.3642848489e-02	 1.8989378411e+00	 5.4564986026e-02
 4.7655645616e-02	 1.8994062864e+00	 6.1014708899e-02
 3.1718501251e-02	 1.8997392437e+00	 6.6058502677e-02
 1.5832826150e-02	 1.8999380357e+00	 6.9498163865e-02
 0.0000000000e+00	 1.9000040000e+00	 7.1112078226e-02
 1.6127986756e-01	 1.9020013947e+00	 1.4540088930e-03
 1.4494818105e-01	 1.9033156901e+00	 1.3433379912e-02
 1.2865763077e-01	 1.9044862529e+00	 2.4762041328e-02
 1.1240981940e-01	 1.9055143055e+00	 3.5369376058e-02
 9.6206319053e-02	 1.9064010903e+00	 4.5159750596e-02
 8.0048671122e-02	 1.9071478685e+00	 5.4012652800e-02
 6.3938386140e-02	 1.9077559196e+00	 6.1782855591e-02
 4.7876943654e-02	 1.9082265403e+00	 6.8300605228e-02
 3.1865792133e-02	 1.9085610437e+00	 7.3371833233e-02
 1.5906348884e-02	 1.9087607588e+00	 7.6778391388e-02
 0.0000000000e+00	 1.9088270294e+00	 7.8278309680e-02
 1.6202533951e-01	 1.9107928745e+00	 8.4593042991e-03
 1.4561816426e-01	 1.9121132449e+00	 2.0346177220e-02
 1.2925231538e-01	 1.9132892182e+00	 3.1644065275e-02
 1.1292940296e-01	 1.9143220227e+00	 4.2267003745e-02
 9.6651006372e-02	 1.9152129065e+00	 5.2103549721e-02
 8.0418674146e-02	 1.9159631365e+00	 6.1016946537e-02
 6.4233923790e-02	 1.9165739981e+00	 6.8845311114e-02
 4.8098241692e-02	 1.9170467941e+00	 7.5401842972e-02
 3.2013083015e-02	 1.9173828436e+00	 8.0475054098e-02
 1.5979871618e-02	 1.9175834819e+00	 8.3829019274e-02
 0.0000000000e+00	 1.9176500588e+00	 8.5203646821e-02
 1.6277081146e-01	 1.9195843543e+00	 1.5482975320e-02
 1.4628814746e-01	 1.9209107996e+00	 2.7264365516e-02
 1.2984699999e-01	 1.9220921836e+00	 3.8512098552e-02
 1.1344898651e-01	 1.9231297400e+00	 4.9126521154e-02
 9.7095693692e-02	 1.9240247226e+00	 5.8982131664e-02
 8.0788677170e-02	 1.9247784044e+00	 6.7927767301e-02
 6.4529461441e-02	 1.9253920766e+00	 7.5786811192e-02
 4.8319539731e-02	 1.9258670479e+00	 8.2357418038e-02
 3.2160373898e-02	 1.9262046436e+00	 8.7412757752e-02
 1.6053394352e-02	 1.9264062049e+00	 9.0701276807e-02
 0.0000000000e+00	 1.9264730883e+00	 9.1946977433e-02
 1.6351628341e-01	 1.9283758340e+00	 2.2555951924e-02
 1.4695813067e-01	 1.9297083544e+00	 3.4216527513e-02
 1.3044168459e-01	 1.9308951489e+00	 4.5393524210e-02
 1.1396857007e-01	 1.9319374572e+00	 5.5975237769e-02
 9.7540381012e-02	 1.9328365388e+00	 6.5823837441e-02
 8.1158680194e-02	 1.9335936724e+00	 7.4775572251e-02
 6.4824999092e-02	 1.9342101551e+00	 8.2640993762e-02
 4.8540837769e-02	 1.9346873017e+00	 8.9205194319e-02
 3.2307664781e-02	 1.9350264435e+00	 9.4228060270e-02
 1.6126917087e-02	 1.9352289280e+00	 9.7444540046e-02
 0.0000000000e+00	 1.9352961177e+00	 9.8564927423e-02
 1.6426175536e-01	 1.9371673138e+00	 2.9709492737e-02
 1.4762811388e-01	 1.9385059091e+00	 4.1231474578e-02
 1.3103636920e-01	 1.9396981143e+00	 5.2315818559e-02
 1.1448815362e-01	 1.9407451745e+00	 6.2840385941e-02
 9.7985068333e-02	 1.9416483550e+00	 7.2656725965e-02
 8.1528683219e-02	 1.9424089403e+00	 8.1590297345e-02
 6.5120536743e-02	 1.9430282336e+00	 8.9440702818e-02
 4.8762135809e-02	 1.9435075555e+00	 9.5981935900e-02
 3.2454955664e-02	 1.9438482435e+00	 1.0096263948e-01
 1.6200439821e-02	 1.9440516511e+00	 1.0410637635e-01
 0.0000000000e+00	 1.9441191471e+00	 1.0511191215e-01
 1.6500722731e-01	 1.9459587936e+00	 3.6975188488e-02
 1.4829809709e-01	 1.9473034639e+00	 4.8338252735e-02
 1.3163105381e-01	 1.9485010797e+00	 5.9306560228e-02
 1.1500773718e-01	 1.9495528917e+00	 6.9749133479e-02
 9.8429755654e-02	 1.9504601711e+00	 7.9508590635e-02
 8.1898686244e-02	 1.9512242083e+00	 8.8401378394e-02
 6.5416074395e-02	 1.9518463121e+00	 9.6218014393e-02
 4.8983433848e-02	 1.9523278093e+00	 1.0272333839e-01
 3.2602246547e-02	 1.9526700435e+00	 1.0765677208e-01
 1.6273962556e-02	 1.9528743742e+00	 1.1073258771e-01
 0.0000000000e+00	 1.9529421765e+00	 1.1164018636e-01
 1.6575269926e-01	 1.9547502734e+00	 4.4384965244e-02
 1.4896808030e-01	 1.9561010187e+00	 5.5566148413e-02
 1.3222573842e-01	 1.9573040450e+00	 6.6393438895e-02
 1.1552732074e-01	 1.9583606090e+00	 7.6728595835e-02
 9.8874442976e-02	 1.9592719873e+00	 8.6406975443e-02
 8.2268689270e-02	 1.9600394762e+00	 9.5237771528e-02
 6.5711612047e-02	 1.9606643906e+00	 1.0300426180e-01
 4.9204731888e-02	 1.9611480631e+00	 1.0946405941e-01
 3.2749537431e-02	 1.9614918434e+00	 1.1434936975e-01
 1.6347485291e-02	 1.9616970973e+00	 1.1736725289e-01
 0.0000000000e+00	 1.9617652059e+00	 1.1819989275e-01
 1.6649817121e-01	 1.9635417532e+00	 5.1971087415e-02
 1.4963806351e-01	 1.9648985734e+00	 6.2944693920e-02
 1.3282042303e-01	 1.9661070104e+00	 7.3604263696e-02
 1.1604690430e-01	 1.9671683262e+00	 8.3805847901e-02
 9.9319130298e-02	 1.9680838035e+00	 9.3379190584e-02
 8.2638692297e-02	 1.9688547442e+00	 1.0212797306e-01
 6.6007149700e-02	 1.9694824691e+00	 1.0983006020e-01
 4.9426029929e-02	 1.9699683169e+00	 1.1623774821e-01
 3.2896828315e-02	 1.9703136434e+00	 1.2107801426e-01
 1.6421008026e-02	 1.9705198204e+00	 1.2405276843e-01
 0.0000000000e+00	 1.9705882353e+00	 1.2483910931e-01
 1.9705882353e+00	 0.0000000000e+00	 2.8850350781e+00
 1.9705198204e+00	 1.6421008026e-02	 2.8840783951e+00
 1.9703136434e+00	 3.2896828315e-02	 2.8812259958e+00
 1.9699683169e+00	 4.9426029929e-02	 2.8762692767e+00
 1.9694824691e+00	 6.6007149700e-02	 2.8690291729e+00
 1.9688547442e+00	 8.2638692297e-02	 2.8593554587e+00
 1.9680838035e+00	 9.9319130298e-02	 2.8471260766e+00
 1.9671683262e+00	 1.1604690430e-01	 2.8322465024e+00
 1.9661070104e+00	 1.3282042303e-01	 2.8146491506e+00
 1.9648985734e+00	 1.4963806351e-01	 2.7942928268e+00
 1.9635417532e+00	 1.6649817121e-01	 2.7711622321e+00
 1.9794112647e+00	 0.0000000000e+00	 2.8669948321e+00
 1.9793425435e+00	 1.6494530761e-02	 2.8661347155e+00
 1.9791354434e+00	 3.3044119200e-02	 2.8633025810e+00
 1.9787885708e+00	 4.9647327970e-02	 2.8583076127e+00
 1.9783005476e+00	 6.6302687354e-02	 2.8509881201e+00
 1.9776700121e+00	 8.3008695325e-02	 2.8412107914e+00
 1.9768956197e+00	 9.9763817621e-02	 2.8288699785e+00
 1.9759760435e+00	 1.1656648786e-01	 2.8138870189e+00
 1.9749099758e+00	 1.3341510764e-01	 2.7962096003e+00
 1.9736961282e+00	 1.5030804672e-01	 2.7758111734e+00
 1.9723332330e+00	 1.6724364317e-01	 2.7526904198e+00
 1.9882342941e+00	 0.0000000000e+00	 2.8491825849e+00
 1.9881652666e+00	 1.6568053497e-02	 2.8484324633e+00
 1.9879572433e+00	 3.3191410085e-02	 2.8456421894e+00
 1.9876088246e+00	 4.9868626012e-02	 2.8406368809e+00
 1.9871186261e+00	 6.6598225009e-02	 2.8332703300e+00
 1.9864852801e+00	 8.3378698353e-02	 2.8234242120e+00
 1.9857074358e+00	 1.0020850495e-01	 2.8110073268e+00
 1.9847837608e+00	 1.1708607142e-01	 2.7959548800e+00
 1.9837129411e+00	 1.3400979225e-01	 2.7782278077e+00
 1.9824936829e+00	 1.5097802994e-01	 2.7578121527e+00
 1.9811247128e+00	 1.6798911512e-01	 2.7347184978e+00
 1.9970573235e+00	 0.0000000000e+00	 2.8315981381e+00
 1.9969879897e+00	 1.6641576232e-02	 2.8309628798e+00
 1.9967790433e+00	 3.3338700970e-02	 2.8282279627e+00
 1.9964290784e+00	 5.0089924054e-02	 2.8232326161e+00
 1.9959367046e+00	 6.6893762664e-02	 2.8158442548e+00
 1.9953005480e+00	 8.3748701382e-02	 2.8059576447e+00
 1.9945192520e+00	 1.0065319227e-01	 2.7934941036e+00
 1.9935914780e+00	 1.1760565498e-01	 2.7784007416e+00
 1.9925159065e+00	 1.3460447687e-01	 2.7606497493e+00
 1.9912912377e+00	 1.5164801315e-01	 2.7402377386e+00
 1.9899161926e+00	 1.6873458708e-01	 2.7171851433e+00
 2.0058803529e+00	 0.0000000000e+00	 2.8142415797e+00
 2.0058107128e+00	 1.6715098968e-02	 2.8137175727e+00
 2.0056008432e+00	 3.3485991856e-02	 2.8110434884e+00
 2.0052493322e+00	 5.0311222096e-02	 2.8060708754e+00
 2.0047547831e+00	 6.7189300319e-02	 2.7986789417e+00
 2.0041158160e+00	 8.4118704411e-02	 2.7887736787e+00
 2.0033310682e+00	 1.0109787960e-01	 2.7762870215e+00
 2.0023991953e+00	 1.1812523854e-01	 2.7611760516e+00
 2.0013188718e+00	 1.3519916148e-01	 2.7434222497e+00
 2.0000887924e+00	 1.5231799636e-01	 2.7230308031e+00
 1.9987076723e+00	 1.6948005903e-01	 2.7000299759e+00
 2.0147033823e+00	 0.0000000000e+00	 2.7971132780e+00
 2.0146334358e+00	 1.6788621704e-02	 2.7966885094e+00
 2.0144226432e+00	 3.3633282741e-02	 2.7940727900e+00
 2.0140695860e+00	 5.0532520139e-02	 2.7891282265e+00
 2.0135728616e+00	 6.7484837975e-02	 2.7817440212e+00
 2.0129310839e+00	 8.4488707440e-02	 2.7718355551e+00
 2.0121428843e+00	 1.0154256692e-01	 2.7593435099e+00
 2.0112069125e+00	 1.1864482210e-01	 2.7442330350e+00
 2.0101218372e+00	 1.3579384609e-01	 2.7264929657e+00
 2.0088863472e+00	 1.5298797958e-01	 2.7061351003e+00
 2.0074991521e+00	 1.7022553099e-01	 2.6831935407e+00
 2.0235264118e+00	 0.0000000000e+00	 2.7802138756e+00
 2.0234561589e+00	 1.6862144440e-02	 2.7798680085e+00
 2.0232444432e+00	 3.3780573627e-02	 2.7773003184e+00
 2.0228898398e+00	 5.0753818181e-02	 2.7723817384e+00
 2.0223909401e+00	 6.7780375630e-02	 2.7650096953e+00
 2.0217463519e+00	 8.4858710470e-02	 2.7551071537e+00
 2.0209547005e+00	 1.0198725425e-01	 2.7426217006e+00
 2.0200146298e+00	 1.1916440566e-01	 2.7275246782e+00
 2.0189248026e+00	 1.3638853071e-01	 2.7098103703e+00
 2.0176839020e+00	 1.5365796279e-01	 2.6894952493e+00
 2.0162906319e+00	 1.7097100294e-01	 2.6666172912e+00
 2.0323494412e+00	 0.0000000000e+00	 2.7635442831e+00
 2.0322788820e+00	 1.6935667176e-02	 2.7632487330e+00
 2.0320662431e+00	 3.3927864512e-02	 2.7607109428e+00
 2.0317100936e+00	 5.0975116224e-02	 2.7558089702e+00
 2.0312090186e+00	 6.8075913286e-02	 2.7484467260e+00
 2.0305616198e+00	 8.5228713499e-02	 2.7385529808e+00
 2.0297665167e+00	 1.0243194157e-01	 2.7260804144e+00
 2.0288223470e+00	 1.1968398923e-01	 2.7110047154e+00
 2.0277277679e+00	 1.3698321532e-01	 2.6933237375e+00
 2.0264814567e+00	 1.5432794601e-01	 2.6730567188e+00
 2.0250821117e+00	 1.7171647490e-01	 2.6502435726e+00
 2.0411724706e+00	 0.0000000000e+00	 2.7471056739e+00
 2.0411016051e+00	 1.7009189911e-02	 2.7468236826e+00
 2.0408880431e+00	 3.4075155398e-02	 2.7442899423e+00
 2.0405303474e+00	 5.1196414266e-02	 2.7393879618e+00
 2.0400270971e+00	 6.8371450941e-02	 2.7320264240e+00
 2.0393768878e+00	 8.5598716529e-02	 2.7221381567e+00
 2.0385783329e+00	 1.0287662890e-01	 2.7096791479e+00
 2.0376300643e+00	 1.2020357279e-01	 2.6946276139e+00
 2.0365307333e+00	 1.3757789993e-01	 2.6769831275e+00
 2.0352790115e+00	 1.5499792922e-01	 2.6567658112e+00
 2.0338735915e+00	 1.7246194685e-01	 2.6340156060e+00
 2.0499955000e+00	 0.0000000000e+00	 2.7308994778e+00
 2.0499243282e+00	 1.7082712647e-02	 2.7305861869e+00
 2.0497098431e+00	 3.4222446283e-02	 2.7280229974e+00
 2.0493506013e+00	 5.1417712308e-02	 2.7230972241e+00
 2.0488451756e+00	 6.8666988596e-02	 2.7157206384e+00
 2.0481921557e+00	 8.5968719558e-02	 2.7058284041e+00
 2.0473901490e+00	 1.0332131622e-01	 2.6933780604e+00
 2.0464377815e+00	 1.2072315635e-01	 2.6783485604e+00
 2.0453336986e+00	 1.3817258455e-01	 2.6607393719e+00
 2.0440765662e+00	 1.5566791243e-01	 2.6405696476e+00
 2.0426650713e+00	 1.7320741881e-01	 2.6178774727e+00
 2.0588185294e+00	 0.0000000000e+00	 2.7149273761e+00
 2.0587470513e+00	 1.7156235382e-02	 2.7145298985e+00
 2.0585316430e+00	 3.4369737168e-02	 2.7118961818e+00
 2.0581708551e+00	 5.1639010350e-02	 2.7069157296e+00
 2.0576632541e+00	 6.8962526251e-02	 2.6995017457e+00
 2.0570074237e+00	 8.6338722586e-02	 2.6895900362e+00
 2.0562019652e+00	 1.0376600355e-01	 2.6771379617e+00
 2.0552454988e+00	 1.2124273991e-01	 2.6621234477e+00
 2.0541366640e+00	 1.3876726916e-01	 2.6445440598e+00
 2.0528741210e+00	 1.5633789565e-01	 2.6244161529e+00
 2.0514565511e+00	 1.7395289077e-01	 2.6017740989e+00
 1.9635417532e+00	 1.6649817121e-01	 2.7711622321e+00
 1.9620350399e+00	 1.8340193024e-01	 2.7456287693e+00
 1.9603774320e+00	 2.0034472601e-01	 2.7180346812e+00
 1.9585677328e+00	 2.1732476813e-01	 2.6883457134e+00
 1.9566047694e+00	 2.3434023454e-01	 2.6565517281e+00
 1.9544873939e+00	 2.5138927171e-01	 2.6226666912e+00
 1.9522144839e+00	 2.6846999499e-01	 2.5867287442e+00
 1.9497849434e+00	 2.8558048894e-01	 2.5488003670e+00
 1.9471977040e+00	 3.0271880770e-01	 2.5089686337e+00
 1.9444517253e+00	 3.1988297537e-01	 2.4673455659e+00
 1.9415459962e+00	 3.3707098643e-01	 2.4240685862e+00
 1.9723332330e+00	 1.6724364317e-01	 2.7526904198e+00
 1.9708197736e+00	 1.8422308638e-01	 2.7272345171e+00
 1.9691547440e+00	 2.0124174111e-01	 2.6997866065e+00
 1.9673369421e+00	 2.1829780897e-01	 2.6703028102e+00
 1.9653651898e+00	 2.3538945972e-01	 2.6387623074e+00
 1.9632383341e+00	 2.5251483153e-01	 2.6051673201e+00
 1.9609552474e+00	 2.6967203132e-01	 2.5695431881e+00
 1.9585148290e+00	 2.8685913508e-01	 2.5319385382e+00
 1.9559160056e+00	 3.0407418824e-01	 2.4924255515e+00
 1.9531577322e+00	 3.2131520604e-01	 2.4511003316e+00
 1.9502389931e+00	 3.3858017398e-01	 2.4080833776e+00
 1.9811247128e+00	 1.6798911512e-01	 2.7347184978e+00
 1.9796045073e+00	 1.8504424252e-01	 2.7093478566e+00
 1.9779320560e+00	 2.0213875621e-01	 2.6820447421e+00
 1.9761061514e+00	 2.1927084980e-01	 2.6527571807e+00
 1.9741256102e+00	 2.3643868489e-01	 2.6214551985e+00
 1.9719892742e+00	 2.5364039135e-01	 2.5881308049e+00
 1.9696960109e+00	 2.7087406766e-01	 2.5527980683e+00
 1.9672447146e+00	 2.8813778123e-01	 2.5154932912e+00
 1.9646343072e+00	 3.0542956878e-01	 2.4762752867e+00
 1.9618637391e+00	 3.2274743671e-01	 2.4352257612e+00
 1.9589319900e+00	 3.4008936153e-01	 2.3924498057e+00
 1.9899161926e+00	 1.6873458708e-01	 2.7171851433e+00
 1.9883892410e+00	 1.8586539866e-01	 2.6919047634e+00
 1.9867093680e+00	 2.0303577132e-01	 2.6647428134e+00
 1.9848753607e+00	 2.2024389064e-01	 2.6356407303e+00
 1.9828860307e+00	 2.3748791006e-01	 2.6045608962e+00
 1.9807402144e+00	 2.5476595117e-01	 2.5714866161e+00
 1.9784367745e+00	 2.7207610400e-01	 2.5364221949e+00
 1.9759746003e+00	 2.8941642738e-01	 2.4993931156e+00
 1.9733526089e+00	 3.0678494932e-01	 2.4604463250e+00
 1.9705697460e+00	 3.2417966737e-01	 2.4196506280e+00
 1.9676249869e+00	 3.4159854908e-01	 2.3770971967e+00
 1.9987076723e+00	 1.6948005903e-01	 2.7000299759e+00
 1.9971739747e+00	 1.8668655480e-01	 2.6748421955e+00
 1.9954866800e+00	 2.0393278642e-01	 2.6478155656e+00
 1.9936445700e+00	 2.2121693148e-01	 2.6188864210e+00
 1.9916464511e+00	 2.3853713524e-01	 2.5880109861e+00
 1.9894911546e+00	 2.5589151099e-01	 2.5551653489e+00
 1.9871775380e+00	 2.7327814034e-01	 2.5203455356e+00
 1.9847044859e+00	 2.9069507353e-01	 2.4835676919e+00
 1.9820709105e+00	 3.0814032986e-01	 2.4448683752e+00
 1.9792757529e+00	 3.2561189804e-01	 2.4043049610e+00
 1.9763179838e+00	 3.4310773663e-01	 2.3619561666e+00
 2.0074991521e+00	 1.7022553099e-01	 2.6831935407e+00
 2.0059587084e+00	 1.8750771094e-01	 2.6580980752e+00
 2.0042639920e+00	 2.0482980153e-01	 2.6311987463e+00
 2.0024137793e+00	 2.2218997231e-01	 2.6024282521e+00
 2.0004068715e+00	 2.3958636041e-01	 2.5717381262e+00
 1.9982420948e+00	 2.5701707081e-01	 2.5390987045e+00
 1.9959183016e+00	 2.7448017667e-01	 2.5044991971e+00
 1.9934343715e+00	 2.9197371968e-01	 2.4679478717e+00
 1.9907892121e+00	 3.0949571040e-01	 2.4294723502e+00
 1.9879817598e+00	 3.2704412871e-01	 2.3891200257e+00
 1.9850109807e+00	 3.4461692418e-01	 2.3469586007e+00
 2.0162906319e+00	 1.7097100294e-01	 2.6666172912e+00
 2.0147434421e+00	 1.8832886708e-01	 2.6416112722e+00
 2.0130413039e+00	 2.0572681663e-01	 2.6148290871e+00
 2.0111829887e+00	 2.2316301315e-01	 2.5862012431e+00
 2.0091672920e+00	 2.4063558559e-01	 2.5556760286e+00
 2.0069930350e+00	 2.5814263063e-01	 2.5232194713e+00
 2.0046590651e+00	 2.7568221301e-01	 2.4888154064e+00
 2.0021642571e+00	 2.9325236582e-01	 2.4524656592e+00
 1.9995075137e+00	 3.1085109094e-01	 2.4141903473e+00
 1.9966877667e+00	 3.2847635937e-01	 2.3740283050e+00
 1.9937039777e+00	 3.4612611173e-01	 2.3320376351e+00
 2.0250821117e+00	 1.7171647490e-01	 2.6502435726e+00
 2.0235281758e+00	 1.8915002322e-01	 2.6253215865e+00
 2.0218186159e+00	 2.0662383174e-01	 2.5986442866e+00
 2.0199521980e+00	 2.2413605399e-01	 2.5701414157e+00
 2.0179277124e+00	 2.4168481076e-01	 2.5397594419e+00
 2.0157439751e+00	 2.5926819046e-01	 2.5074615076e+00
 2.0133998287e+00	 2.7688424935e-01	 2.4732274921e+00
 2.0108941428e+00	 2.9453101197e-01	 2.4370541928e+00
 2.0082258154e+00	 3.1220647148e-01	 2.3989556303e+00
 2.0053937736e+00	 3.2990859004e-01	 2.3589634802e+00
 2.0023969746e+00	 3.4763529928e-01	 2.3171276369e+00
 2.0338735915e+00	 1.7246194685e-01	 2.6340156060e+00
 2.0323129095e+00	 1.8997117936e-01	 2.6091697321e+00
 2.0305959279e+00	 2.0752084685e-01	 2.5825829940e+00
 2.0287214073e+00	 2.2510909482e-01	 2.5541857768e+00
 2.0266881328e+00	 2.4273403594e-01	 2.5239241336e+00
 2.0244949153e+00	 2.6039375028e-01	 2.4917597235e+00
 2.0221405922e+00	 2.7808628569e-01	 2.4576698674e+00
 2.0196240284e+00	 2.9580965812e-01	 2.4216477270e+00
 2.0169441170e+00	 3.1356185202e-01	 2.3837026109e+00
 2.0140997805e+00	 3.3134082071e-01	 2.3438604131e+00
 2.0110899715e+00	 3.4914448683e-01	 2.3021641865e+00
 2.0426650713e+00	 1.7320741881e-01	 2.6178774727e+00
 2.0410976432e+00	 1.9079233550e-01	 2.5930973207e+00
 2.0393732399e+00	 2.0841786195e-01	 2.5665847920e+00
 2.0374906166e+00	 2.2608213566e-01	 2.5382723018e+00
 2.0354485532e+00	 2.4378326111e-01	 2.5081068732e+00
 2.0332458555e+00	 2.6151931010e-01	 2.4760500636e+00
 2.0308813558e+00	 2.7928832202e-01	 2.4420780122e+00
 2.0283539140e+00	 2.9708830427e-01	 2.4061816150e+00
 2.0256624186e+00	 3.1491723256e-01	 2.3683668315e+00
 2.0228057874e+00	 3.3277305137e-01	 2.3286551277e+00
 2.0197829684e+00	 3.5065367438e-01	 2.2870840592e+00
 2.0514565511e+00	 1.7395289077e-01	 2.6017740989e+00
 2.0498823769e+00	 1.9161349164e-01	 2.5770468462e+00
 2.0481505519e+00	 2.0931487706e-01	 2.5505901816e+00
 2.0462598259e+00	 2.2705517649e-01	 2.5223399186e+00
 2.0442089737e+00	 2.4483248629e-01	 2.4922454161e+00
 2.0419967957e+00	 2.6264486992e-01	 2.4602694910e+00
 2.0396221193e+00	 2.8049035836e-01	 2.4263884564e+00
 2.0370837996e+00	 2.9836695041e-01	 2.3905922915e+00
 2.0343807202e+00	 3.1627261310e-01	 2.3528849473e+00
 2.0315117943e+00	 3.3420528204e-01	 2.3132847931e+00
 2.0284759653e+00	 3.5216286193e-01	 2.2718252076e+00
 1.9415459962e+00	 3.3707098643e-01	 2.4240685862e+00
 1.9384800701e+00	 3.5427787987e-01	 2.3786396081e+00
 1.9352525155e+00	 3.7150451682e-01	 2.3304357674e+00
 1.9318624125e+00	 3.8874881144e-01	 2.2794692236e+00
 1.9283088737e+00	 4.0600865027e-01	 2.2257798712e+00
 1.9245910451e+00	 4.2328189282e-01	 2.1694366642e+00
 1.9207081067e+00	 4.4056637214e-01	 2.1105390579e+00
 1.9166592732e+00	 4.5785989543e-01	 2.0492185687e+00
 1.9124437954e+00	 4.7516024463e-01	 1.9856404496e+00
 1.9080609604e+00	 4.9246517711e-01	 1.9200054816e+00
 1.9035100927e+00	 5.0977242635e-01	 1.8525518762e+00
 1.9502389931e+00	 3.3858017398e-01	 2.4080833776e+00
 1.9471593398e+00	 3.5586410884e-01	 2.3628728444e+00
 1.9439173342e+00	 3.7316787562e-01	 2.3148689364e+00
 1.9405120525e+00	 3.9048937912e-01	 2.2641059350e+00
 1.9369426033e+00	 4.0782649643e-01	 2.2106454047e+00
 1.9332081286e+00	 4.2517707748e-01	 2.1545775153e+00
 1.9293078049e+00	 4.4253894561e-01	 2.0960224853e+00
 1.9252408433e+00	 4.5990989819e-01	 2.0351321460e+00
 1.9210064914e+00	 4.7728770725e-01	 1.9720916252e+00
 1.9166040328e+00	 4.9467012011e-01	 1.9071211490e+00
 1.9120327892e+00	 5.1205486010e-01	 1.8404779587e+00
 1.9589319900e+00	 3.4008936153e-01	 2.3924498057e+00
 1.9558386094e+00	 3.5745033782e-01	 2.3474430835e+00
 1.9525821529e+00	 3.7483123442e-01	 2.2996272193e+00
 1.9491616925e+00	 3.9222994681e-01	 2.2490557357e+00
 1.9455763329e+00	 4.0964434260e-01	 2.1958089569e+00
 1.9418252122e+00	 4.2707226214e-01	 2.1399953324e+00
 1.9379075031e+00	 4.4451151907e-01	 2.0817528860e+00
 1.9338224135e+00	 4.6195990095e-01	 2.0212507885e+00
 1.9295691873e+00	 4.7941516987e-01	 1.9586910534e+00
 1.9251471052e+00	 4.9687506312e-01	 1.8943103536e+00
 1.9205554858e+00	 5.1433729386e-01	 1.8283819578e+00
 1.9676249869e+00	 3.4159854908e-01	 2.3770971967e+00
 1.9645178791e+00	 3.5903656679e-01	 2.3322805916e+00
 1.9612469717e+00	 3.7649459322e-01	 2.2846423676e+00
 1.9578113326e+00	 3.9397051449e-01	 2.2342524399e+00
 1.9542100624e+00	 4.1146218876e-01	 2.1812070132e+00
 1.9504422957e+00	 4.2896744680e-01	 2.1256299122e+00
 1.9465072013e+00	 4.4648409254e-01	 2.0676740390e+00
 1.9424039836e+00	 4.6400990371e-01	 2.0075229593e+00
 1.9381318832e+00	 4.8154263249e-01	 1.9453926135e+00
 1.9336901776e+00	 4.9908000612e-01	 1.8815331536e+00
 1.9290781823e+00	 5.1661972762e-01	 1.8162309018e+00
 1.9763179838e+00	 3.4310773663e-01	 2.3619561666e+00
 1.9731971487e+00	 3.6062279577e-01	 2.3173169558e+00
 1.9699117904e+00	 3.7815795202e-01	 2.2698474811e+00
 1.9664609726e+00	 3.9571108217e-01	 2.2196312316e+00
 1.9628437920e+00	 4.1328003493e-01	 2.1667774448e+00
 1.9590593792e+00	 4.3086263145e-01	 2.1114224460e+00
 1.9551068995e+00	 4.4845666600e-01	 2.0537311198e+00
 1.9509855537e+00	 4.6605990648e-01	 1.9938985114e+00
 1.9466945791e+00	 4.8367009512e-01	 1.9321515595e+00
 1.9422332501e+00	 5.0128494912e-01	 1.8687509564e+00
 1.9376008788e+00	 5.1890216138e-01	 1.8039931341e+00
 1.9850109807e+00	 3.4461692418e-01	 2.3469586007e+00
 1.9818764184e+00	 3.6220902474e-01	 2.3024850649e+00
 1.9785766092e+00	 3.7982131082e-01	 2.2551769878e+00
 1.9751106126e+00	 3.9745164986e-01	 2.2051286450e+00
 1.9714775216e+00	 4.1509788109e-01	 2.1524594887e+00
 1.9676764627e+00	 4.3275781611e-01	 2.0973155010e+00
 1.9637065977e+00	 4.5042923946e-01	 2.0398706813e+00
 1.9595671239e+00	 4.6810990924e-01	 1.9803286695e+00
 1.9552572751e+00	 4.8579755774e-01	 1.9189245026e+00
 1.9507763225e+00	 5.0348989212e-01	 1.8559265033e+00
 1.9461235754e+00	 5.2118459513e-01	 1.7916382979e+00
 1.9937039777e+00	 3.4612611173e-01	 2.3320376351e+00
 1.9905556880e+00	 3.6379525372e-01	 2.2877190891e+00
 1.9872414279e+00	 3.8148466962e-01	 2.2405666245e+00
 1.9837602527e+00	 3.9919221754e-01	 2.1906825450e+00
 1.9801112511e+00	 4.1691572725e-01	 2.1381937294e+00
 1.9762935462e+00	 4.3465300077e-01	 2.0832530009e+00
 1.9723062959e+00	 4.5240181292e-01	 2.0260406362e+00
 1.9681486940e+00	 4.7015991200e-01	 1.9667660130e+00
 1.9638199710e+00	 4.8792502036e-01	 1.9056693953e+00
 1.9593193949e+00	 5.0569483513e-01	 1.8430238541e+00
 1.9546462719e+00	 5.2346702889e-01	 1.7791373224e+00
 2.0023969746e+00	 3.4763529928e-01	 2.3171276369e+00
 1.9992349577e+00	 3.6538148269e-01	 2.2729544616e+00
 1.9959062466e+00	 3.8314802842e-01	 2.2259534178e+00
 1.9924098927e+00	 4.0093278522e-01	 2.1762321085e+00
 1.9887449807e+00	 4.1873357342e-01	 2.1239220792e+00
 1.9849106297e+00	 4.3654818543e-01	 2.0691802079e+00
 1.9809059941e+00	 4.5437438639e-01	 2.0121902387e+00
 1.9767302641e+00	 4.7220991476e-01	 1.9531644585e+00
 1.9723826669e+00	 4.9005248298e-01	 1.8923455142e+00
 1.9678624673e+00	 5.0789977813e-01	 1.8300083714e+00
 1.9631689684e+00	 5.2574946265e-01	 1.7664624085e+00
 2.0110899715e+00	 3.4914448683e-01	 2.3021641865e+00
 2.0079142273e+00	 3.6696771167e-01	 2.2581278598e+00
 2.0045710654e+00	 3.8481138722e-01	 2.2112756656e+00
 2.0010595327e+00	 4.0267335290e-01	 2.1617178058e+00
 1.9973787103e+00	 4.2055141958e-01	 2.1095877608e+00
 1.9935277133e+00	 4.3844337008e-01	 2.0550437046e+00
 1.9895056923e+00	 4.5634695985e-01	 1.9982700671e+00
 1.9853118343e+00	 4.7425991752e-01	 1.9394792425e+00
 1.9809453628e+00	 4.9217994560e-01	 1.8789134447e+00
 1.9764055397e+00	 5.1010472113e-01	 1.8168467055e+00
 1.9716916650e+00	 5.2803189640e-01	 1.7535870151e+00
 2.0197829684e+00	 3.5065367438e-01	 2.2870840592e+00
 2.0165934970e+00	 3.6855394064e-01	 2.2431771869e+00
 2.0132358841e+00	 3.8647474601e-01	 2.1964729187e+00
 2.0097091728e+00	 4.0441392058e-01	 2.1470813819e+00
 2.0060124398e+00	 4.2236926574e-01	 2.0951352882e+00
 2.0021447968e+00	 4.4033855474e-01	 2.0407913763e+00
 1.9981053905e+00	 4.5831953331e-01	 1.9842320063e+00
 1.9938934044e+00	 4.7630992028e-01	 1.9256669057e+00
 1.9895080588e+00	 4.9430740822e-01	 1.8653350646e+00
 1.9849486121e+00	 5.1230966413e-01	 1.8035067801e+00
 1.9802143615e+00	 5.3031433016e-01	 1.7404858454e+00
 2.0284759653e+00	 3.5216286193e-01	 2.2718252076e+00
 2.0252727667e+00	 3.7014016961e-01	 2.2280415546e+00
 2.0219007028e+00	 3.8813810481e-01	 2.1814859628e+00
 2.0183588128e+00	 4.0615448827e-01	 2.1322658395e+00
 2.0146461694e+00	 4.2418711190e-01	 2.0805104502e+00
 2.0107618803e+00	 4.4223373939e-01	 2.0263723935e+00
 2.0067050887e+00	 4.6029210677e-01	 1.9700292313e+00
 2.0024749745e+00	 4.7835992304e-01	 1.9116852756e+00
 1.9980707547e+00	 4.9643487084e-01	 1.8515735288e+00
 1.9934916845e+00	 5.1451460713e-01	 1.7899577770e+00
 1.9887370581e+00	 5.3259676391e-01	 1.7271348333e+00
 1.9035100927e+00	 5.0977242635e-01	 1.8525518762e+00
 1.8987905551e+00	 5.2707970286e-01	 1.7840720618e+00
 1.8939017510e+00	 5.4438469569e-01	 1.7155740546e+00
 1.8888431238e+00	 5.6168507249e-01	 1.6476855985e+00
 1.8836141573e+00	 5.7897848006e-01	 1.5810852316e+00
 1.8782143759e+00	 5.9626254515e-01	 1.5157573438e+00
 1.8726433462e+00	 6.1353487531e-01	 1.4472932234e+00
 1.8669006767e+00	 6.3079305973e-01	 1.3754065949e+00
 1.8609860192e+00	 6.4803467015e-01	 1.3008005184e+00
 1.8548990690e+00	 6.6525726174e-01	 1.2241930559e+00
 1.8486395656e+00	 6.8245837404e-01	 1.1463160657e+00
 1.9120327892e+00	 5.1205486010e-01	 1.8404779587e+00
 1.9072921205e+00	 5.2943962749e-01	 1.7729809802e+00
 1.9023814275e+00	 5.4682210098e-01	 1.7056004956e+00
 1.8973001511e+00	 5.6419993776e-01	 1.6388865772e+00
 1.8920477726e+00	 5.8157077411e-01	 1.5734401461e+00
 1.8866238145e+00	 5.9893222615e-01	 1.5086267401e+00
 1.8810278413e+00	 6.1628189072e-01	 1.4401326494e+00
 1.8752594598e+00	 6.3361734621e-01	 1.3680839405e+00
 1.8693183203e+00	 6.5093615350e-01	 1.2931132181e+00
 1.8632041166e+00	 6.6823585680e-01	 1.2158688507e+00
 1.8569165872e+00	 6.8551398464e-01	 1.1370138943e+00
 1.9205554858e+00	 5.1433729386e-01	 1.8283819578e+00
 1.9157936860e+00	 5.3179955213e-01	 1.7617568420e+00
 1.9108611041e+00	 5.4925950626e-01	 1.6953819477e+00
 1.9057571784e+00	 5.6671480303e-01	 1.6297398504e+00
 1.9004813879e+00	 5.8416306816e-01	 1.5653639121e+00
 1.8950332530e+00	 6.0160190715e-01	 1.5008858603e+00
 1.8894123363e+00	 6.1902890613e-01	 1.4323946565e+00
 1.8836182429e+00	 6.3644163270e-01	 1.3602679201e+00
 1.8776506213e+00	 6.5383763685e-01	 1.2850773792e+00
 1.8715091642e+00	 6.7121445186e-01	 1.2074111209e+00
 1.8651936087e+00	 6.8856959524e-01	 1.1278726288e+00
 1.9290781823e+00	 5.1661972762e-01	 1.8162309018e+00
 1.9242952515e+00	 5.3415947676e-01	 1.7503729282e+00
 1.9193407806e+00	 5.5169691155e-01	 1.6848955926e+00
 1.9142142056e+00	 5.6922966830e-01	 1.6202239955e+00
 1.9089150032e+00	 5.8675536221e-01	 1.5568338437e+00
 1.9034426916e+00	 6.0427158815e-01	 1.4925202570e+00
 1.8977968314e+00	 6.2177592154e-01	 1.4240576143e+00
 1.8919770259e+00	 6.3926591918e-01	 1.3519265422e+00
 1.8859829223e+00	 6.5673912020e-01	 1.2766473220e+00
 1.8798142117e+00	 6.7419304692e-01	 1.1987570235e+00
 1.8734706302e+00	 6.9162520584e-01	 1.1188086423e+00
 1.9376008788e+00	 5.1890216138e-01	 1.8039931341e+00
 1.9327968170e+00	 5.3651940139e-01	 1.7388038153e+00
 1.9278204572e+00	 5.5413431683e-01	 1.6741199336e+00
 1.9226712329e+00	 5.7174453357e-01	 1.6103189844e+00
 1.9173486185e+00	 5.8934765626e-01	 1.5478153946e+00
 1.9118521302e+00	 6.0694126915e-01	 1.4835168418e+00
 1.9061813264e+00	 6.2452293695e-01	 1.4151014435e+00
 1.9003358090e+00	 6.4209020566e-01	 1.3430296134e+00
 1.8943152234e+00	 6.5964060354e-01	 1.2677794686e+00
 1.8881192593e+00	 6.7717164198e-01	 1.1898461803e+00
 1.8817476518e+00	 6.9468081645e-01	 1.1097411968e+00
 1.9461235754e+00	 5.2118459513e-01	 1.7916382979e+00
 1.9412983825e+00	 5.3887932603e-01	 1.7270253621e+00
 1.9363001337e+00	 5.5657172212e-01	 1.6630347822e+00
 1.9311282602e+00	 5.7425939884e-01	 1.6000061694e+00
 1.9257822338e+00	 5.9193995031e-01	 1.5381901679e+00
 1.9202615687e+00	 6.0961095015e-01	 1.4738638613e+00
 1.9145658215e+00	 6.2726995236e-01	 1.4055075872e+00
 1.9086945921e+00	 6.4491449215e-01	 1.3335487033e+00
 1.9026475244e+00	 6.6254208689e-01	 1.2584323001e+00
 1.8964243069e+00	 6.8015023704e-01	 1.1806206260e+00
 1.8900246733e+00	 6.9773642705e-01	 1.1005923820e+00
 1.9546462719e+00	 5.2346702889e-01	 1.7791373224e+00
 1.9497999479e+00	 5.4123925066e-01	 1.7150146963e+00
 1.9447798103e+00	 5.5900912740e-01	 1.6516212445e+00
 1.9395852874e+00	 5.7677426411e-01	 1.5892682688e+00
 1.9342158491e+00	 5.9453224436e-01	 1.5279293404e+00
 1.9286710073e+00	 6.1228063115e-01	 1.4635508739e+00
 1.9229503165e+00	 6.3001696777e-01	 1.3952589827e+00
 1.9170533751e+00	 6.4773877863e-01	 1.3234571100e+00
 1.9109798254e+00	 6.6544357024e-01	 1.2485663147e+00
 1.9047293545e+00	 6.8312883210e-01	 1.1710247578e+00
 1.8983016948e+00	 7.0079203765e-01	 1.0912870540e+00
 1.9631689684e+00	 5.2574946265e-01	 1.7664624085e+00
 1.9583015134e+00	 5.4359917529e-01	 1.7027502016e+00
 1.9532594868e+00	 5.6144653269e-01	 1.6398617086e+00
 1.9480423147e+00	 5.7928912938e-01	 1.5780893523e+00
 1.9426494644e+00	 5.9712453841e-01	 1.5170273759e+00
 1.9370804458e+00	 6.1495031215e-01	 1.4525687259e+00
 1.9313348116e+00	 6.3276398318e-01	 1.3843400333e+00
 1.9254121582e+00	 6.5056306511e-01	 1.3127298260e+00
 1.9193121264e+00	 6.6834505359e-01	 1.2381439865e+00
 1.9130344020e+00	 6.8610742717e-01	 1.1610052851e+00
 1.9065787164e+00	 7.0384764826e-01	 1.0817527753e+00
 1.9716916650e+00	 5.2803189640e-01	 1.7535870151e+00
 1.9668030789e+00	 5.4595909993e-01	 1.6902115043e+00
 1.9617391634e+00	 5.6388393797e-01	 1.6277398309e+00
 1.9564993420e+00	 5.8180399465e-01	 1.5664548277e+00
 1.9510830797e+00	 5.9971683246e-01	 1.5054798780e+00
 1.9454898844e+00	 6.1761999316e-01	 1.4409095290e+00
 1.9397193067e+00	 6.3551099859e-01	 1.3727365805e+00
 1.9337709413e+00	 6.5338735160e-01	 1.3013435047e+00
 1.9276444275e+00	 6.7124653694e-01	 1.2271297247e+00
 1.9213394496e+00	 6.8908602223e-01	 1.1505111810e+00
 1.9148557379e+00	 7.0690325886e-01	 1.0719197565e+00
 1.9802143615e+00	 5.3031433016e-01	 1.7404858454e+00
 1.9753046444e+00	 5.4831902456e-01	 1.6773794608e+00
 1.9702188399e+00	 5.6632134326e-01	 1.6152405239e+00
 1.9649563692e+00	 5.8431885992e-01	 1.5543514266e+00
 1.9595166950e+00	 6.0230912651e-01	 1.4932835700e+00
 1.9538993229e+00	 6.2028967416e-01	 1.4285666373e+00
 1.9481038017e+00	 6.3825801400e-01	 1.3604358765e+00
 1.9421297244e+00	 6.5621163808e-01	 1.2892764271e+00
 1.9359767285e+00	 6.7414802029e-01	 1.2154898336e+00
 1.9296444972e+00	 6.9206461729e-01	 1.1394936338e+00
 1.9231327594e+00	 7.0995886946e-01	 1.0617207984e+00
 1.9887370581e+00	 5.3259676391e-01	 1.7271348333e+00
 1.9838062098e+00	 5.5067894919e-01	 1.6642361447e+00
 1.9786985165e+00	 5.6875874854e-01	 1.6023499431e+00
 1.9734133965e+00	 5.8683372519e-01	 1.5417671909e+00
 1.9679503103e+00	 6.0490142056e-01	 1.4804362759e+00
 1.9623087615e+00	 6.2295935516e-01	 1.4155346243e+00
 1.9564882968e+00	 6.4100502941e-01	 1.3474265578e+00
 1.9504885074e+00	 6.5903592457e-01	 1.2765084694e+00
 1.9443090295e+00	 6.7704950364e-01	 1.2031924735e+00
 1.9379495447e+00	 6.9504321235e-01	 1.1279059994e+00
 1.9314097810e+00	 7.1301448007e-01	 1.0510912350e+00
 1.8486395656e+00	 6.8245837404e-01	 1.1463160657e+00
 1.8422061850e+00	 6.9963844990e-01	 1.0685143373e+00
 1.8355998053e+00	 7.1679207226e-01	 9.9147711135e-01
 1.8288203008e+00	 7.3391673744e-01	 9.1492846562e-01
 1.8218675923e+00	 7.5100993004e-01	 8.3860001483e-01
 1.8147416478e+00	 7.6806912395e-01	 7.6223040920e-01
 1.8074424822e+00	 7.8509178342e-01	 6.8556471495e-01
 1.7999701588e+00	 8.0207536413e-01	 6.0835367509e-01
 1.7923247887e+00	 8.1901731432e-01	 5.3035284938e-01
 1.7845065320e+00	 8.3591507583e-01	 4.5132163392e-01
 1.7765155975e+00	 8.5276608528e-01	 3.7102216180e-01
 1.8569165872e+00	 6.8551398464e-01	 1.1370138943e+00
 1.8504544020e+00	 7.0277098185e-01	 1.0578862666e+00
 1.8438184431e+00	 7.2000140712e-01	 9.7933438950e-01
 1.8370085843e+00	 7.3720274557e-01	 9.0126053715e-01
 1.8300247461e+00	 7.5437247051e-01	 8.2357132823e-01
 1.8228668962e+00	 7.7150804454e-01	 7.4617694114e-01
 1.8155350497e+00	 7.8860692056e-01	 6.6899020722e-01
 1.8080292700e+00	 8.0566654285e-01	 5.9192557976e-01
 1.8003496688e+00	 8.2268434822e-01	 5.1489797862e-01
 1.7924964070e+00	 8.3965776706e-01	 4.3782151100e-01
 1.7844696941e+00	 8.5658422452e-01	 3.6060807043e-01
 1.8651936087e+00	 6.8856959524e-01	 1.1278726288e+00
 1.8587026190e+00	 7.0590351381e-01	 1.0477614224e+00
 1.8520370810e+00	 7.2321074199e-01	 9.6802881979e-01
 1.8451968679e+00	 7.4048875370e-01	 8.8872774609e-01
 1.8381819000e+00	 7.5773501099e-01	 8.0991275782e-01
 1.8309921446e+00	 7.7494696514e-01	 7.3163901801e-01
 1.8236276171e+00	 7.9212205770e-01	 6.5396114411e-01
 1.8160883811e+00	 8.0925772156e-01	 5.7693192742e-01
 1.8083745489e+00	 8.2635138211e-01	 5.0060092388e-01
 1.8004862819e+00	 8.4340045828e-01	 4.2501291736e-01
 1.7924237908e+00	 8.6040236375e-01	 3.5020625767e-01
 1.8734706302e+00	 6.9162520584e-01	 1.1188086423e+00
 1.8669508360e+00	 7.0903604576e-01	 1.0380376369e+00
 1.8602557188e+00	 7.2642007686e-01	 9.5744815242e-01
 1.8533851515e+00	 7.4377476183e-01	 8.7721658661e-01
 1.8463390538e+00	 7.6109755146e-01	 7.9751873248e-01
 1.8391173930e+00	 7.7838588573e-01	 7.1852855524e-01
 1.8317201845e+00	 7.9563719483e-01	 6.4041683690e-01
 1.8241474923e+00	 8.1284890028e-01	 5.6334968776e-01
 1.8163994290e+00	 8.3001841600e-01	 4.8748692483e-01
 1.8084761569e+00	 8.4714314951e-01	 4.1298031839e-01
 1.8003778875e+00	 8.6422050298e-01	 3.3997170953e-01
 1.8817476518e+00	 6.9468081645e-01	 1.1097411968e+00
 1.8751990530e+00	 7.1216857772e-01	 1.0286160149e+00
 1.8684743567e+00	 7.2962941173e-01	 9.4748364227e-01
 1.8615734351e+00	 7.4706076995e-01	 8.6661713223e-01
 1.8544962076e+00	 7.6446009194e-01	 7.8628717111e-01
 1.8472426414e+00	 7.8182480633e-01	 7.0676069861e-01
 1.8398127520e+00	 7.9915233197e-01	 6.2829939088e-01
 1.8322066034e+00	 8.1644007899e-01	 5.5115800545e-01
 1.8244243091e+00	 8.3368544990e-01	 4.7558258819e-01
 1.8164660319e+00	 8.5088584073e-01	 4.0180854382e-01
 1.8083319842e+00	 8.6803864221e-01	 3.3005857295e-01
 1.8900246733e+00	 6.9773642705e-01	 1.1005923820e+00
 1.8834472699e+00	 7.1530110968e-01	 1.0194008622e+00
 1.8766929945e+00	 7.3283874660e-01	 9.3802997088e-01
 1.8697617187e+00	 7.5034677808e-01	 8.5682295474e-01
 1.8626533614e+00	 7.6782263241e-01	 7.7611940201e-01
 1.8553678898e+00	 7.8526372693e-01	 6.9625374774e-01
 1.8479053194e+00	 8.0266746911e-01	 6.1755363683e-01
 1.8402657146e+00	 8.2003125771e-01	 5.4033814336e-01
 1.8324491893e+00	 8.3735248379e-01	 4.6491584681e-01
 1.8244559068e+00	 8.5462853196e-01	 3.9158276677e-01
 1.8162860809e+00	 8.7185678144e-01	 3.2062015925e-01
 1.8983016948e+00	 7.0079203765e-01	 1.0912870540e+00
 1.8916954869e+00	 7.1843364163e-01	 1.0102996152e+00
 1.8849116324e+00	 7.3604808146e-01	 9.2898516993e-01
 1.8779500023e+00	 7.5363278621e-01	 8.4773104469e-01
 1.8708105152e+00	 7.7118517289e-01	 7.6692008374e-01
 1.8634931382e+00	 7.8870264752e-01	 6.8692908091e-01
 1.8559978868e+00	 8.0618260625e-01	 6.0812706341e-01
 1.8483248258e+00	 8.2362243642e-01	 5.3087342644e-01
 1.8404740694e+00	 8.4101951769e-01	 4.5551591897e-01
 1.8324457818e+00	 8.5837122318e-01	 3.8238848263e-01
 1.8242401776e+00	 8.7567492067e-01	 3.1180894668e-01
 1.9065787164e+00	 7.0384764826e-01	 1.0817527753e+00
 1.8999437039e+00	 7.2156617359e-01	 1.0012227718e+00
 1.8931302703e+00	 7.3925741633e-01	 9.2025054610e-01
 1.8861382859e+00	 7.5691879434e-01	 8.3924173328e-01
 1.8789676691e+00	 7.7454771336e-01	 7.5859712746e-01
 1.8716183866e+00	 7.9214156812e-01	 6.7871108118e-01
 1.8640904543e+00	 8.0969774340e-01	 5.9996975071e-01
 1.8563839369e+00	 8.2721361514e-01	 5.2274918636e-01
 1.8484989495e+00	 8.4468655158e-01	 4.4741326800e-01
 1.8404356568e+00	 8.6211391441e-01	 3.7431148759e-01
 1.8321942743e+00	 8.7949305990e-01	 3.0377658204e-01
 1.9148557379e+00	 7.0690325886e-01	 1.0719197565e+00
 1.9081919209e+00	 7.2469870555e-01	 9.9208382385e-01
 1.9013489081e+00	 7.4246675120e-01	 9.1173060732e-01
 1.8943265694e+00	 7.6020480247e-01	 8.3125861571e-01
 1.8871248229e+00	 7.7791025384e-01	 7.5106162058e-01
 1.8797436350e+00	 7.9558048872e-01	 6.7152706376e-01
 1.8721830217e+00	 8.1321288054e-01	 5.9303430478e-01
 1.8644430481e+00	 8.3080479385e-01	 5.1595270691e-01
 1.8565238296e+00	 8.4835358548e-01	 4.4063956217e-01
 1.8484255317e+00	 8.6585660563e-01	 3.6743785693e-01
 1.8401483710e+00	 8.8331119913e-01	 2.9667388136e-01
 1.9231327594e+00	 7.0995886946e-01	 1.0617207984e+00
 1.9164401379e+00	 7.2783123751e-01	 9.8279919063e-01
 1.9095675460e+00	 7.4567608607e-01	 9.0333299044e-01
 1.9025148530e+00	 7.6349081060e-01	 8.2368847599e-01
 1.8952819767e+00	 7.8127279431e-01	 7.4422775176e-01
 1.8878688835e+00	 7.9901940931e-01	 6.6530720458e-01
 1.8802755891e+00	 8.1672801768e-01	 5.8727579318e-01
 1.8725021593e+00	 8.3439597257e-01	 5.1047316994e-01
 1.8645487097e+00	 8.5202061937e-01	 4.3522763482e-01
 1.8564154067e+00	 8.6959929686e-01	 3.6185392306e-01
 1.8481024677e+00	 8.8712933836e-01	 2.9065082970e-01
 1.9314097810e+00	 7.1301448007e-01	 1.0510912350e+00
 1.9246883549e+00	 7.3096376946e-01	 9.7328815348e-01
 1.9177861838e+00	 7.4888542094e-01	 8.9496839009e-01
 1.9107031366e+00	 7.6677681873e-01	 8.1644121296e-01
 1.9034391305e+00	 7.8463533479e-01	 7.3801273731e-01
 1.8959941319e+00	 8.0245832991e-01	 6.5998447006e-01
 1.8883681565e+00	 8.2024315482e-01	 5.8265168144e-01
 1.8805612704e+00	 8.3798715128e-01	 5.0630160203e-01
 1.8725735898e+00	 8.5568765327e-01	 4.3121144474e-01
 1.8644052817e+00	 8.7334198809e-01	 3.5764625331e-01
 1.8560565644e+00	 8.9094747759e-01	 2.8585658016e-01
 1.7765155975e+00	 8.5276608528e-01	 3.7102216180e-01
 1.7683536454e+00	 8.6956492342e-01	 2.8635852055e-01
 1.7600196386e+00	 8.8631188877e-01	 1.9601951592e-01
 1.7515139334e+00	 9.0300440955e-01	 1.0791324852e-01
 1.7428369360e+00	 9.1963991332e-01	 2.2983517731e-02
 1.7339891027e+00	 9.3621582822e-01	-5.8927221407e-02
 1.7249709404e+00	 9.5272958417e-01	-1.3804601972e-01
 1.7157830063e+00	 9.6917861406e-01	-2.1466722995e-01
 1.7064259082e+00	 9.8556035499e-01	-2.8914960097e-01
 1.6969003048e+00	 1.0018722495e+00	-3.6191266842e-01
 1.6872069052e+00	 1.0181117467e+00	-4.3343244366e-01
 1.7844696941e+00	 8.5658422452e-01	 3.6060807043e-01
 1.7762711981e+00	 8.7345827706e-01	 2.8030168061e-01
 1.7678998770e+00	 8.9028022458e-01	 1.9385162516e-01
 1.7593560887e+00	 9.0704748376e-01	 1.0318585837e-01
 1.7506402413e+00	 9.2375747063e-01	 1.6072205537e-02
 1.7417527931e+00	 9.4040760185e-01	-6.7027908976e-02
 1.7326942532e+00	 9.5699529580e-01	-1.4649253411e-01
 1.7234651814e+00	 9.7351797389e-01	-2.2276591487e-01
 1.7140661883e+00	 9.8997306174e-01	-2.9635528898e-01
 1.7044979353e+00	 1.0063579904e+00	-3.6782696202e-01
 1.6947611348e+00	 1.0226701977e+00	-4.3780166366e-01
 1.7924237908e+00	 8.6040236375e-01	 3.5020625767e-01
 1.7841887508e+00	 8.7735163071e-01	 2.7341147474e-01
 1.7757801154e+00	 8.9424856039e-01	 1.9159067487e-01
 1.7671982440e+00	 9.1109055796e-01	 1.0441889768e-01
 1.7584435465e+00	 9.2787502795e-01	 1.4401044126e-02
 1.7495164834e+00	 9.4459937547e-01	-7.1030322537e-02
 1.7404175660e+00	 9.6126100742e-01	-1.5191191935e-01
 1.7311473565e+00	 9.7785733371e-01	-2.2880388486e-01
 1.7217064683e+00	 9.9438576848e-01	-3.0232903752e-01
 1.7120955658e+00	 1.0108437314e+00	-3.7316868989e-01
 1.7023153645e+00	 1.0272286487e+00	-4.4205772500e-01
 1.8003778875e+00	 8.6422050298e-01	 3.3997170953e-01
 1.7921063035e+00	 8.8124498436e-01	 2.6591331049e-01
 1.7836603537e+00	 8.9821689620e-01	 1.8785467037e-01
 1.7750403993e+00	 9.1513363217e-01	 1.0537031809e-01
 1.7662468518e+00	 9.3199258526e-01	 1.8044998942e-02
 1.7572801737e+00	 9.4879114909e-01	-7.0672962325e-02
 1.7481408788e+00	 9.6552671904e-01	-1.5403991322e-01
 1.7388295316e+00	 9.8219669353e-01	-2.3252828072e-01
 1.7293467484e+00	 9.9879847523e-01	-3.0684401203e-01
 1.7196931963e+00	 1.0153294723e+00	-3.7775211292e-01
 1.7098695942e+00	 1.0317870997e+00	-4.4607149691e-01
 1.8083319842e+00	 8.6803864221e-01	 3.3005857295e-01
 1.8000238562e+00	 8.8513833800e-01	 2.5803055286e-01
 1.7915405921e+00	 9.0218523201e-01	 1.8292438221e-01
 1.7828825546e+00	 9.1917670637e-01	 1.0425019965e-01
 1.7740501570e+00	 9.3611014258e-01	 2.1529340314e-02
 1.7650438641e+00	 9.5298292272e-01	-6.5707108309e-02
 1.7558641916e+00	 9.6979243067e-01	-1.5261709293e-01
 1.7465117068e+00	 9.8653605336e-01	-2.3369083021e-01
 1.7369870284e+00	 1.0032111820e+00	-3.0967744462e-01
 1.7272908268e+00	 1.0198152133e+00	-3.8139476279e-01
 1.7174238239e+00	 1.0363455507e+00	-4.4971604016e-01
 1.8162860809e+00	 8.7185678144e-01	 3.2062015925e-01
 1.8079414089e+00	 8.8903169165e-01	 2.4998455212e-01
 1.7994208305e+00	 9.0615356782e-01	 1.7707759235e-01
 1.7907247099e+00	 9.2321978058e-01	 1.0138067368e-01
 1.7818534623e+00	 9.4022769989e-01	 2.2386626660e-02
 1.7728075544e+00	 9.5717469634e-01	-6.0401736546e-02
 1.7635875044e+00	 9.7405814229e-01	-1.4738879130e-01
 1.7541938819e+00	 9.9087541318e-01	-2.3204776877e-01
 1.7446273085e+00	 1.0076238887e+00	-3.1061056499e-01
 1.7348884573e+00	 1.0243009542e+00	-3.8391738888e-01
 1.7249780536e+00	 1.0409040017e+00	-4.5286657604e-01
 1.8242401776e+00	 8.7567492067e-01	 3.1180894668e-01
 1.8158589616e+00	 8.9292504530e-01	 2.4199466998e-01
 1.8073010689e+00	 9.1012190363e-01	 1.7058913940e-01
 1.7985668651e+00	 9.2726285478e-01	 9.7080182613e-02
 1.7896567675e+00	 9.4434525721e-01	 2.0966571545e-02
 1.7805712447e+00	 9.6136646996e-01	-5.8243501100e-02
 1.7713108171e+00	 9.7832385392e-01	-1.4103407454e-01
 1.7618760570e+00	 9.9521477300e-01	-2.2735976324e-01
 1.7522675885e+00	 1.0120365955e+00	-3.0942853405e-01
 1.7424860878e+00	 1.0287866951e+00	-3.8514390743e-01
 1.7325322833e+00	 1.0454624527e+00	-4.5540045693e-01
 1.8321942743e+00	 8.7949305990e-01	 3.0377658204e-01
 1.8237765143e+00	 8.9681839894e-01	 2.3427830419e-01
 1.8151813072e+00	 9.1409023944e-01	 1.6373096182e-01
 1.8064090204e+00	 9.3130592898e-01	 9.1663537140e-02
 1.7974600728e+00	 9.4846281452e-01	 1.7614738064e-02
 1.7883349351e+00	 9.6555824359e-01	-5.8868650444e-02
 1.7790341299e+00	 9.8258956554e-01	-1.3823354898e-01
 1.7695582321e+00	 9.9955413283e-01	-2.2092248878e-01
 1.7599078685e+00	 1.0164493022e+00	-3.0592038018e-01
 1.7500837184e+00	 1.0332724361e+00	-3.8490135298e-01
 1.7400865129e+00	 1.0500209036e+00	-4.5719713856e-01
 1.8401483710e+00	 8.8331119913e-01	 2.9667388136e-01
 1.8316940670e+00	 9.0071175259e-01	 2.2705091154e-01
 1.8230615456e+00	 9.1805857525e-01	 1.5677213899e-01
 1.8142511757e+00	 9.3534900319e-01	 8.5441970892e-02
 1.8052633781e+00	 9.5258037184e-01	 1.2672602432e-02
 1.7960986254e+00	 9.6975001721e-01	-6.1917813613e-02
 1.7867574427e+00	 9.8685527717e-01	-1.3870713567e-01
 1.7772404072e+00	 1.0038934927e+00	-2.1807132853e-01
 1.7675481486e+00	 1.0208620090e+00	-3.0038667120e-01
 1.7576813489e+00	 1.0377581770e+00	-3.8301983194e-01
 1.7476407426e+00	 1.0545793546e+00	-4.5813815393e-01
 1.8481024677e+00	 8.8712933836e-01	 2.9065082970e-01
 1.8396116197e+00	 9.0460510624e-01	 2.2052602951e-01
 1.8309417840e+00	 9.2202691106e-01	 1.4997893034e-01
 1.8220933310e+00	 9.3939207740e-01	 7.8723192704e-02
 1.8130666833e+00	 9.5669792915e-01	 6.4776149090e-03
 1.8038623158e+00	 9.7394179083e-01	-6.7035935315e-02
 1.7944807555e+00	 9.9112098879e-01	-1.4209473170e-01
 1.7849225824e+00	 1.0082328525e+00	-2.1897753019e-01
 1.7751884286e+00	 1.0252747157e+00	-2.9796702527e-01
 1.7652789794e+00	 1.0422439180e+00	-3.7935240591e-01
 1.7551949723e+00	 1.0591378056e+00	-4.5810708865e-01
 1.8560565644e+00	 8.9094747759e-01	 2.8585658016e-01
 1.8475291724e+00	 9.0849845989e-01	 2.1491529625e-01
 1.8388220224e+00	 9.2599524687e-01	 1.4361481244e-01
 1.8299354863e+00	 9.4343515160e-01	 7.1811436563e-02
 1.8208699886e+00	 9.6081548646e-01	-6.3674185444e-04
 1.8116260061e+00	 9.7813356446e-01	-7.3872213768e-02
 1.8022040683e+00	 9.9538670041e-01	-1.4804055918e-01
 1.7926047575e+00	 1.0125722123e+00	-2.2329308871e-01
 1.7828287087e+00	 1.0296874225e+00	-2.9978960310e-01
 1.7728766099e+00	 1.0467296589e+00	-3.7770125379e-01
 1.7627492020e+00	 1.0636962566e+00	-4.5698955791e-01
 1.6872069052e+00	 1.0181117467e+00	-4.3343244366e-01
 1.6773464695e+00	 1.0342763041e+00	-5.0393329893e-01
 1.6673198101e+00	 1.0503633895e+00	-5.7330800740e-01
 1.6571277905e+00	 1.0663704815e+00	-6.4162451088e-01
 1.6467713242e+00	 1.0822950704e+00	-7.0901237072e-01
 1.6362513750e+00	 1.0981346594e+00	-7.7565606832e-01
 1.6255689568e+00	 1.1138867658e+00	-8.4178767358e-01
 1.6147251331e+00	 1.1295489225e+00	-9.0767891221e-01
 1.6037210169e+00	 1.1451186788e+00	-9.7363266653e-01
 1.5925577705e+00	 1.1605936020e+00	-1.0399739488e+00
 1.5812366048e+00	 1.1759712785e+00	-1.1070403899e+00
 1.6947611348e+00	 1.0226701977e+00	-4.3780166366e-01
 1.6848565504e+00	 1.0389071296e+00	-5.0682037940e-01
 1.6747849982e+00	 1.0550662427e+00	-5.7497924840e-01
 1.6645473452e+00	 1.0711450041e+00	-6.4232171135e-01
 1.6541445093e+00	 1.0871408931e+00	-7.0895593778e-01
 1.6435774585e+00	 1.1030514016e+00	-7.7504799806e-01
 1.6328472113e+00	 1.1188740358e+00	-8.4081438318e-01
 1.6219548359e+00	 1.1346063176e+00	-9.0651390350e-01
 1.6109014504e+00	 1.1502457853e+00	-9.7243900227e-01
 1.5996882221e+00	 1.1657899953e+00	-1.0389065234e+00
 1.5883163675e+00	 1.1812365232e+00	-1.1061697107e+00
 1.7023153645e+00	 1.0272286487e+00	-4.4205772500e-01
 1.6923666314e+00	 1.0435379551e+00	-5.0986917843e-01
 1.6822501862e+00	 1.0597690958e+00	-5.7695509590e-01
 1.6719668999e+00	 1.0759195268e+00	-6.4336010445e-01
 1.6615176944e+00	 1.0919867158e+00	-7.0919619173e-01
 1.6509035420e+00	 1.1079681438e+00	-7.7463570783e-01
 1.6401254658e+00	 1.1238613059e+00	-8.3990369452e-01
 1.6291845387e+00	 1.1396637127e+00	-9.0526957412e-01
 1.6180818838e+00	 1.1553728918e+00	-9.7103823420e-01
 1.6068186737e+00	 1.1709863886e+00	-1.0375405490e+00
 1.5953961302e+00	 1.1865017678e+00	-1.1047563044e+00
 1.7098695942e+00	 1.0317870997e+00	-4.4607149691e-01
 1.6998767124e+00	 1.0481687806e+00	-5.1301116309e-01
 1.6897153742e+00	 1.0644719489e+00	-5.7921957657e-01
 1.6793864546e+00	 1.0806940494e+00	-6.4476792284e-01
 1.6688908795e+00	 1.0968325385e+00	-7.0979690911e-01
 1.6582296256e+00	 1.1128848861e+00	-7.7450955451e-01
 1.6474037203e+00	 1.1288485760e+00	-8.3916328739e-01
 1.6364142416e+00	 1.1447211079e+00	-9.0406138280e-01
 1.6252623173e+00	 1.1604999983e+00	-9.6954377741e-01
 1.6139491253e+00	 1.1761827819e+00	-1.0359773036e+00
 1.6024758929e+00	 1.1917670125e+00	-1.1028509337e+00
 1.7174238239e+00	 1.0363455507e+00	-4.4971604016e-01
 1.7073867934e+00	 1.0527996061e+00	-5.1617883244e-01
 1.6971805623e+00	 1.0691748021e+00	-5.8175672104e-01
 1.6868060093e+00	 1.0854685720e+00	-6.4657251237e-01
 1.6762640646e+00	 1.1016783613e+00	-7.1082023203e-01
 1.6655557091e+00	 1.1178016283e+00	-7.7475766186e-01
 1.6546819748e+00	 1.1338358460e+00	-8.3869816421e-01
 1.6436439444e+00	 1.1497785030e+00	-9.0300182685e-01
 1.6324427508e+00	 1.1656271049e+00	-9.6806596707e-01
 1.6210795769e+00	 1.1813791752e+00	-1.0342199198e+00
 1.6095556556e+00	 1.1970322572e+00	-1.1005060407e+00
 1.7249780536e+00	 1.0409040017e+00	-4.5286657604e-01
 1.7148968744e+00	 1.0574304316e+00	-5.1930571002e-01
 1.7046457503e+00	 1.0738776552e+00	-5.8455057678e-01
 1.6942255640e+00	 1.0902430947e+00	-6.4880036236e-01
 1.6836372497e+00	 1.1065241840e+00	-7.1232671242e-01
 1.6728817926e+00	 1.1227183705e+00	-7.7546597528e-01
 1.6619602293e+00	 1.1388231161e+00	-8.3861071187e-01
 1.6508736472e+00	 1.1548358982e+00	-9.0220050725e-01
 1.6396231842e+00	 1.1707542114e+00	-9.6671212309e-01
 1.6282100286e+00	 1.1865755685e+00	-1.0322292320e+00
 1.6166354183e+00	 1.2022975018e+00	-1.0977748027e+00
 1.7325322833e+00	 1.0454624527e+00	-4.5540045693e-01
 1.7224069553e+00	 1.0620612571e+00	-5.2232633742e-01
 1.7121109383e+00	 1.0785805084e+00	-5.8758522169e-01
 1.7016451188e+00	 1.0950176173e+00	-6.5147713589e-01
 1.6910104348e+00	 1.1113700067e+00	-7.1437535603e-01
 1.6802078761e+00	 1.1276351128e+00	-7.7671831605e-01
 1.6692384838e+00	 1.1438103861e+00	-8.3900076270e-01
 1.6581033501e+00	 1.1598932933e+00	-9.0176419285e-01
 1.6468036177e+00	 1.1758813179e+00	-9.6558661378e-01
 1.6353404802e+00	 1.1917719618e+00	-1.0300774667e+00
 1.6237151810e+00	 1.2075627465e+00	-1.0947111242e+00
 1.7400865129e+00	 1.0500209036e+00	-4.5719713856e-01
 1.7299170363e+00	 1.0666920826e+00	-5.2517626884e-01
 1.7195761264e+00	 1.0832833615e+00	-5.9084477806e-01
 1.7090646735e+00	 1.0997921399e+00	-6.5462770025e-01
 1.6983836199e+00	 1.1162158294e+00	-7.1702366598e-01
 1.6875339596e+00	 1.1325518550e+00	-7.7859643484e-01
 1.6765167384e+00	 1.1487976562e+00	-8.3996565458e-01
 1.6653330529e+00	 1.1649506885e+00	-9.0179688360e-01
 1.6539840511e+00	 1.1810084244e+00	-9.6470249631e-01
 1.6424709318e+00	 1.1969683551e+00	-1.0278376608e+00
 1.6307949437e+00	 1.2128279911e+00	-1.0913696287e+00
 1.7476407426e+00	 1.0545793546e+00	-4.5813815393e-01
 1.7374271173e+00	 1.0713229081e+00	-5.2779206675e-01
 1.7270413144e+00	 1.0879862147e+00	-5.9431342712e-01
 1.7164842282e+00	 1.1045666626e+00	-6.5827615735e-01
 1.7057568050e+00	 1.1210616521e+00	-7.2032768610e-01
 1.6948600432e+00	 1.1374685972e+00	-7.8118006477e-01
 1.6837949929e+00	 1.1537849262e+00	-8.4160029041e-01
 1.6725627557e+00	 1.1700080836e+00	-9.0239987298e-01
 1.6611644846e+00	 1.1861355309e+00	-9.6401026269e-01
 1.6496013834e+00	 1.2021647484e+00	-1.0255832629e+00
 1.6378747064e+00	 1.2180932358e+00	-1.0878056497e+00
 1.7551949723e+00	 1.0591378056e+00	-4.5810708865e-01
 1.7449371983e+00	 1.0759537336e+00	-5.3011129842e-01
 1.7345065024e+00	 1.0926890678e+00	-5.9797542394e-01
 1.7239037829e+00	 1.1093411852e+00	-6.6244587421e-01
 1.7131299901e+00	 1.1259074749e+00	-7.2434204396e-01
 1.7021861267e+00	 1.1423853395e+00	-7.8454697382e-01
 1.6910732474e+00	 1.1587721963e+00	-8.4399719666e-01
 1.6797924585e+00	 1.1750654787e+00	-9.0367180947e-01
 1.6683449181e+00	 1.1912626374e+00	-9.6359066238e-01
 1.6567318350e+00	 1.2073611416e+00	-1.0233881295e+00
 1.6449544691e+00	 1.2233584805e+00	-1.0840752214e+00
 1.7627492020e+00	 1.0636962566e+00	-4.5698955791e-01
 1.7524472793e+00	 1.0805845591e+00	-5.3207253347e-01
 1.7419716905e+00	 1.0973919210e+00	-6.0181511298e-01
 1.7313233376e+00	 1.1141157078e+00	-6.6715951352e-01
 1.7205031752e+00	 1.1307532976e+00	-7.2911999355e-01
 1.7095122102e+00	 1.1473020817e+00	-7.8877301666e-01
 1.6983515019e+00	 1.1637594664e+00	-8.4724658135e-01
 1.6870221614e+00	 1.1801228739e+00	-9.0564873078e-01
 1.6755253515e+00	 1.1963897440e+00	-9.6352637085e-01
 1.6638622866e+00	 1.2125575349e+00	-1.0213265228e+00
 1.6520342318e+00	 1.2286237251e+00	-1.0802350684e+00
 1.5812366048e+00	 1.1759712785e+00	-1.1070403899e+00
 1.5697568158e+00	 1.1912519024e+00	-1.1722598721e+00
 1.5581216283e+00	 1.2064304705e+00	-1.2329728396e+00
 1.5463324046e+00	 1.2215046238e+00	-1.2895891685e+00
 1.5343905539e+00	 1.2364720272e+00	-1.3425303159e+00
 1.5222975323e+00	 1.2513303705e+00	-1.3922274212e+00
 1.5100548418e+00	 1.2660773696e+00	-1.4391203708e+00
 1.4976640298e+00	 1.2807107680e+00	-1.4836568894e+00
 1.4851266886e+00	 1.2952283376e+00	-1.5262916579e+00
 1.4724444546e+00	 1.3096278799e+00	-1.5674854590e+00
 1.4596190077e+00	 1.3239072270e+00	-1.6077043487e+00
 1.5883163675e+00	 1.1812365232e+00	-1.1061697107e+00
 1.5767851794e+00	 1.1965855638e+00	-1.1711337605e+00
 1.5650978970e+00	 1.2118320918e+00	-1.2315172772e+00
 1.5532558887e+00	 1.2269737376e+00	-1.2877469896e+00
 1.5412605701e+00	 1.2420081554e+00	-1.3402604336e+00
 1.5291134037e+00	 1.2569330248e+00	-1.3895049730e+00
 1.5168158983e+00	 1.2717460515e+00	-1.4359368473e+00
 1.5043696082e+00	 1.2864449689e+00	-1.4800202475e+00
 1.4917761328e+00	 1.3010275389e+00	-1.5222264203e+00
 1.4790371159e+00	 1.3154915530e+00	-1.5630328012e+00
 1.4661542448e+00	 1.3298348339e+00	-1.6029221761e+00
 1.5953961302e+00	 1.1865017678e+00	-1.1047563044e+00
 1.5838135430e+00	 1.2019192253e+00	-1.1694377024e+00
 1.5720741657e+00	 1.2172337132e+00	-1.2295239965e+00
 1.5601793728e+00	 1.2324428513e+00	-1.2854453230e+00
 1.5481305862e+00	 1.2475442836e+00	-1.3376429594e+00
 1.5359292751e+00	 1.2625356791e+00	-1.3865683437e+00
 1.5235769547e+00	 1.2774147334e+00	-1.4326821236e+00
 1.5110751865e+00	 1.2921791698e+00	-1.4764532345e+00
 1.4984255770e+00	 1.3068267401e+00	-1.5183580075e+00
 1.4856297772e+00	 1.3213552262e+00	-1.5588793075e+00
 1.4726894820e+00	 1.3357624408e+00	-1.5985057007e+00
 1.6024758929e+00	 1.1917670125e+00	-1.1028509337e+00
 1.5908419065e+00	 1.2072528868e+00	-1.1671995191e+00
 1.5790504343e+00	 1.2226353346e+00	-1.2269991587e+00
 1.5671028568e+00	 1.2379119651e+00	-1.2826710543e+00
 1.5550006024e+00	 1.2530804118e+00	-1.3346480498e+00
 1.5427451464e+00	 1.2681383334e+00	-1.3833736683e+00
 1.5303380112e+00	 1.2830834153e+00	-1.4293011794e+00
 1.5177807649e+00	 1.2979133706e+00	-1.4728926977e+00
 1.5050750212e+00	 1.3126259413e+00	-1.5146183116e+00
 1.4922224384e+00	 1.3272188993e+00	-1.5549552432e+00
 1.4792247191e+00	 1.3416900476e+00	-1.5943870395e+00
 1.6095556556e+00	 1.1970322572e+00	-1.1005060407e+00
 1.5978702701e+00	 1.2125865483e+00	-1.1644481751e+00
 1.5860267030e+00	 1.2280369560e+00	-1.2239504311e+00
 1.5740263409e+00	 1.2433810789e+00	-1.2794128952e+00
 1.5618706185e+00	 1.2586165399e+00	-1.3312479631e+00
 1.5495610178e+00	 1.2737409877e+00	-1.3798794115e+00
 1.5370990676e+00	 1.2887520972e+00	-1.4257415022e+00
 1.5244863432e+00	 1.3036475715e+00	-1.4692781170e+00
 1.5117244653e+00	 1.3184251425e+00	-1.5109419258e+00
 1.4988150997e+00	 1.3330825724e+00	-1.5511935854e+00
 1.4857599563e+00	 1.3476176545e+00	-1.5905009703e+00
 1.6166354183e+00	 1.2022975018e+00	-1.0977748027e+00
 1.6048986337e+00	 1.2179202098e+00	-1.1612137625e+00
 1.5930029717e+00	 1.2334385773e+00	-1.2203869626e+00
 1.5809498250e+00	 1.2488501926e+00	-1.2756613526e+00
 1.5687406347e+00	 1.2641526681e+00	-1.3274170221e+00
 1.5563768891e+00	 1.2793436420e+00	-1.3760463257e+00
 1.5438601240e+00	 1.2944207791e+00	-1.4219530402e+00
 1.5311919215e+00	 1.3093817724e+00	-1.4655515547e+00
 1.5183739095e+00	 1.3242243438e+00	-1.5072660934e+00
 1.5054077610e+00	 1.3389462456e+00	-1.5475299714e+00
 1.4922951934e+00	 1.3535452614e+00	-1.5867848813e+00
 1.6237151810e+00	 1.2075627465e+00	-1.0947111242e+00
 1.6119269972e+00	 1.2232538713e+00	-1.1575274844e+00
 1.5999792403e+00	 1.2388401987e+00	-1.2163193593e+00
 1.5878733091e+00	 1.2543193064e+00	-1.2714086963e+00
 1.5756106508e+00	 1.2696887963e+00	-1.3231315760e+00
 1.5631927605e+00	 1.2849462963e+00	-1.3718374074e+00
 1.5506211805e+00	 1.3000894610e+00	-1.4178881561e+00
 1.5378974999e+00	 1.3151159732e+00	-1.4616576065e+00
 1.5250233537e+00	 1.3300235450e+00	-1.5035306569e+00
 1.5120004222e+00	 1.3448099187e+00	-1.5439026476e+00
 1.4988304306e+00	 1.3594728683e+00	-1.5831787219e+00
 1.6307949437e+00	 1.2128279911e+00	-1.0913696287e+00
 1.6189553608e+00	 1.2285875327e+00	-1.1534216377e+00
 1.6069555090e+00	 1.2442418201e+00	-1.2117596597e+00
 1.5947967932e+00	 1.2597884201e+00	-1.2666489281e+00
 1.5824806669e+00	 1.2752249245e+00	-1.3183699633e+00
 1.5700086318e+00	 1.2905489506e+00	-1.3672178554e+00
 1.5573822369e+00	 1.3057581429e+00	-1.4135015807e+00
 1.5446030782e+00	 1.3208501741e+00	-1.4575433530e+00
 1.5316727978e+00	 1.3358227462e+00	-1.4996780075e+00
 1.5185930835e+00	 1.3506735918e+00	-1.5402524193e+00
 1.5053656677e+00	 1.3654004752e+00	-1.5796249530e+00
 1.6378747064e+00	 1.2180932358e+00	-1.0878056497e+00
 1.6259837244e+00	 1.2339211942e+00	-1.1489295959e+00
 1.6139317777e+00	 1.2496434414e+00	-1.2067213097e+00
 1.6017202773e+00	 1.2652575339e+00	-1.2613777496e+00
 1.5893506831e+00	 1.2807610527e+00	-1.3131124738e+00
 1.5768245032e+00	 1.2961516049e+00	-1.3621550280e+00
 1.5641432934e+00	 1.3114268248e+00	-1.4087503668e+00
 1.5513086566e+00	 1.3265843750e+00	-1.4531583104e+00
 1.5383222420e+00	 1.3416219475e+00	-1.4956530358e+00
 1.5251857448e+00	 1.3565372650e+00	-1.5365226004e+00
 1.5119009048e+00	 1.3713280821e+00	-1.5760684983e+00
 1.6449544691e+00	 1.2233584805e+00	-1.0840752214e+00
 1.6330120879e+00	 1.2392548557e+00	-1.1440857916e+00
 1.6209080463e+00	 1.2550450628e+00	-1.2012191373e+00
 1.6086437614e+00	 1.2707266476e+00	-1.2555925303e+00
 1.5962206992e+00	 1.2862971808e+00	-1.3073413117e+00
 1.5836403745e+00	 1.3017542592e+00	-1.3566184018e+00
 1.5709043498e+00	 1.3170955067e+00	-1.4035938438e+00
 1.5580142349e+00	 1.3323185759e+00	-1.4484543834e+00
 1.5449716862e+00	 1.3474211487e+00	-1.4914030821e+00
 1.5317784060e+00	 1.3624009381e+00	-1.5326589645e+00
 1.5184361420e+00	 1.3772556890e+00	-1.5724566959e+00
 1.6520342318e+00	 1.2286237251e+00	-1.0802350684e+00
 1.6400404515e+00	 1.2445885172e+00	-1.1389256978e+00
 1.6278843150e+00	 1.2604466842e+00	-1.1952693276e+00
 1.6155672454e+00	 1.2761957614e+00	-1.2492922764e+00
 1.6030907154e+00	 1.2918333090e+00	-1.3010405581e+00
 1.5904562459e+00	 1.3073569135e+00	-1.3505795291e+00
 1.5776654063e+00	 1.3227641886e+00	-1.3979935726e+00
 1.5647198132e+00	 1.3380527767e+00	-1.4433858166e+00
 1.5516211303e+00	 1.3532203499e+00	-1.4868778874e+00
 1.5383710673e+00	 1.3682646113e+00	-1.5286096952e+00
 1.5249713791e+00	 1.3831832959e+00	-1.5687392504e+00
 1.4596190077e+00	 1.3239072270e+00	-1.6077043487e+00
 1.4466542826e+00	 1.3380618508e+00	-1.6460893659e+00
 1.4335498557e+00	 1.3520921059e+00	-1.6815945784e+00
 1.4203075088e+00	 1.3659959471e+00	-1.7143905426e+00
 1.4069290638e+00	 1.3797713641e+00	-1.7446500130e+00
 1.3934163822e+00	 1.3934163822e+00	-1.7725476666e+00
 1.3797713641e+00	 1.4069290638e+00	-1.7982598437e+00
 1.3659959471e+00	 1.4203075088e+00	-1.8219643043e+00
 1.3520921059e+00	 1.4335498557e+00	-1.8438399946e+00
 1.3380618508e+00	 1.4466542826e+00	-1.8640668215e+00
 1.3239072270e+00	 1.4596190077e+00	-1.8828254299e+00
 1.4661542448e+00	 1.3298348339e+00	-1.6029221761e+00
 1.4531314720e+00	 1.3440528330e+00	-1.6410378513e+00
 1.4399683719e+00	 1.3581459066e+00	-1.6763156914e+00
 1.4266667343e+00	 1.3721120003e+00	-1.7089123443e+00
 1.4132283892e+00	 1.3859490947e+00	-1.7389865120e+00
 1.3996552065e+00	 1.3996552065e+00	-1.7666987170e+00
 1.3859490947e+00	 1.4132283892e+00	-1.7922110870e+00
 1.3721120003e+00	 1.4266667343e+00	-1.8156871554e+00
 1.3581459066e+00	 1.4399683719e+00	-1.8372916739e+00
 1.3440528330e+00	 1.4531314720e+00	-1.8571904325e+00
 1.3298348339e+00	 1.4661542448e+00	-1.8755500834e+00
 1.4726894820e+00	 1.3357624408e+00	-1.5985057007e+00
 1.4596086614e+00	 1.3500438152e+00	-1.6363732119e+00
 1.4463868881e+00	 1.3641997073e+00	-1.6714031562e+00
 1.4330259598e+00	 1.3782280535e+00	-1.7037473928e+00
 1.4195277146e+00	 1.3921268254e+00	-1.7335597749e+00
 1.4058940308e+00	 1.4058940308e+00	-1.7609959461e+00
 1.3921268254e+00	 1.4195277146e+00	-1.7862131569e+00
 1.3782280535e+00	 1.4330259598e+00	-1.8093700980e+00
 1.3641997073e+00	 1.4463868881e+00	-1.8306267457e+00
 1.3500438152e+00	 1.4596086614e+00	-1.8501442167e+00
 1.3357624408e+00	 1.4726894820e+00	-1.8680846253e+00
 1.4792247191e+00	 1.3416900476e+00	-1.5943870395e+00
 1.4660858508e+00	 1.3560347974e+00	-1.6320317319e+00
 1.4528054044e+00	 1.3702535080e+00	-1.6667984047e+00
 1.4393851853e+00	 1.3843441066e+00	-1.6988431330e+00
 1.4258270400e+00	 1.3983045560e+00	-1.7283240087e+00
 1.4121328551e+00	 1.4121328551e+00	-1.7554009550e+00
 1.3983045560e+00	 1.4258270400e+00	-1.7802355633e+00
 1.3843441066e+00	 1.4393851853e+00	-1.8029909466e+00
 1.3702535080e+00	 1.4528054044e+00	-1.8238316071e+00
 1.3560347974e+00	 1.4660858508e+00	-1.8429233119e+00
 1.3416900476e+00	 1.4792247191e+00	-1.8604329739e+00
 1.4857599563e+00	 1.3476176545e+00	-1.5905009703e+00
 1.4725630403e+00	 1.3620257796e+00	-1.6279522648e+00
 1.4592239206e+00	 1.3763073087e+00	-1.6624453297e+00
 1.4457444107e+00	 1.3904601598e+00	-1.6941493472e+00
 1.4321263654e+00	 1.4044822867e+00	-1.7232356207e+00
 1.4183716794e+00	 1.4183716794e+00	-1.7498773971e+00
 1.4044822867e+00	 1.4321263654e+00	-1.7742497108e+00
 1.3904601598e+00	 1.4457444107e+00	-1.7965292465e+00
 1.3763073087e+00	 1.4592239206e+00	-1.8168942160e+00
 1.3620257796e+00	 1.4725630403e+00	-1.8355242446e+00
 1.3476176545e+00	 1.4857599563e+00	-1.8526002621e+00
 1.4922951934e+00	 1.3535452614e+00	-1.5867848813e+00
 1.4790402297e+00	 1.3680167618e+00	-1.6240761857e+00
 1.4656424368e+00	 1.3823611094e+00	-1.6582902396e+00
 1.4521036362e+00	 1.3965762130e+00	-1.6896181119e+00
 1.4384256908e+00	 1.4106600173e+00	-1.7182531792e+00
 1.4246105036e+00	 1.4246105036e+00	-1.7443909423e+00
 1.4106600173e+00	 1.4384256908e+00	-1.7682288674e+00
 1.3965762130e+00	 1.4521036362e+00	-1.7899662456e+00
 1.3823611094e+00	 1.4656424368e+00	-1.8098040681e+00
 1.3680167618e+00	 1.4790402297e+00	-1.8279449105e+00
 1.3535452614e+00	 1.4922951934e+00	-1.8445928229e+00
 1.4988304306e+00	 1.3594728683e+00	-1.5831787219e+00
 1.4855174191e+00	 1.3740077441e+00	-1.6203473434e+00
 1.4720609530e+00	 1.3884149101e+00	-1.6542818129e+00
 1.4584628617e+00	 1.4026922661e+00	-1.6852037566e+00
 1.4447250162e+00	 1.4168377480e+00	-1.7133373747e+00
 1.4308493279e+00	 1.4308493279e+00	-1.7389092417e+00
 1.4168377480e+00	 1.4447250162e+00	-1.7621481324e+00
 1.4026922661e+00	 1.4584628617e+00	-1.7832848671e+00
 1.3884149101e+00	 1.4720609530e+00	-1.8025521728e+00
 1.3740077441e+00	 1.4855174191e+00	-1.8201845548e+00
 1.3594728683e+00	 1.4988304306e+00	-1.8364181736e+00
 1.5053656677e+00	 1.3654004752e+00	-1.5796249530e+00
 1.4919946085e+00	 1.3799987263e+00	-1.6167120133e+00
 1.4784794692e+00	 1.3944687107e+00	-1.6503710538e+00
 1.4648220872e+00	 1.4088083193e+00	-1.6808628211e+00
 1.4510243416e+00	 1.4230154786e+00	-1.7084509809e+00
 1.4370881522e+00	 1.4370881522e+00	-1.7334018921e+00
 1.4230154786e+00	 1.4510243416e+00	-1.7559844050e+00
 1.4088083193e+00	 1.4648220872e+00	-1.7764696812e+00
 1.3944687107e+00	 1.4784794692e+00	-1.7951310294e+00
 1.3799987263e+00	 1.4919946085e+00	-1.8122437526e+00
 1.3654004752e+00	 1.5053656677e+00	-1.8280850003e+00
 1.5119009048e+00	 1.3713280821e+00	-1.5760684983e+00
 1.4984717980e+00	 1.3859897085e+00	-1.6131188507e+00
 1.4848979854e+00	 1.4005225114e+00	-1.6465112480e+00
 1.4711813127e+00	 1.4149243725e+00	-1.6765540140e+00
 1.4573236670e+00	 1.4291932092e+00	-1.7035588164e+00
 1.4433269765e+00	 1.4433269765e+00	-1.7278404008e+00
 1.4291932092e+00	 1.4573236670e+00	-1.7497163521e+00
 1.4149243725e+00	 1.4711813127e+00	-1.7695068771e+00
 1.4005225114e+00	 1.4848979854e+00	-1.7875346029e+00
 1.3859897085e+00	 1.4984717980e+00	-1.8041243885e+00
 1.3713280821e+00	 1.5119009048e+00	-1.8196031417e+00
 1.5184361420e+00	 1.3772556890e+00	-1.5724566959e+00
 1.5049489874e+00	 1.3919806907e+00	-1.6095188438e+00
 1.4913165016e+00	 1.4065763121e+00	-1.6426579177e+00
 1.4775405382e+00	 1.4210404256e+00	-1.6722381717e+00
 1.4636229924e+00	 1.4353709399e+00	-1.6986277057e+00
 1.4495658007e+00	 1.4495658007e+00	-1.7221981501e+00
 1.4353709399e+00	 1.4636229924e+00	-1.7433243772e+00
 1.4210404256e+00	 1.4775405382e+00	-1.7623842352e+00
 1.4065763121e+00	 1.4913165016e+00	-1.7797582996e+00
 1.3919806907e+00	 1.5049489874e+00	-1.7958296365e+00
 1.3772556890e+00	 1.5184361420e+00	-1.8109835727e+00
 1.5249713791e+00	 1.3831832959e+00	-1.5687392504e+00
 1.5114261768e+00	 1.3979716729e+00	-1.6058652686e+00
 1.4977350178e+00	 1.4126301128e+00	-1.6387687787e+00
 1.4838997636e+00	 1.4271564788e+00	-1.6678782163e+00
 1.4699223178e+00	 1.4415486705e+00	-1.6936264415e+00
 1.4558046250e+00	 1.4558046250e+00	-1.7164503628e+00
 1.4415486705e+00	 1.4699223178e+00	-1.7367905879e+00
 1.4271564788e+00	 1.4838997636e+00	-1.7550910988e+00
 1.4126301128e+00	 1.4977350178e+00	-1.7717989430e+00
 1.3979716729e+00	 1.5114261768e+00	-1.7873639389e+00
 1.3831832959e+00	 1.5249713791e+00	-1.8022383877e+00
 1.3239072270e+00	 1.4596190077e+00	-1.8828254299e+00
 1.3096278799e+00	 1.4724444546e+00	-1.8989842911e+00
 1.2952283376e+00	 1.4851266886e+00	-1.9113725861e+00
 1.2807107680e+00	 1.4976640298e+00	-1.9201255180e+00
 1.2660773696e+00	 1.5100548418e+00	-1.9253832509e+00
 1.2513303705e+00	 1.5222975323e+00	-1.9272906741e+00
 1.2364720272e+00	 1.5343905539e+00	-1.9259971378e+00
 1.2215046238e+00	 1.5463324046e+00	-1.9216561560e+00
 1.2064304705e+00	 1.5581216283e+00	-1.9144250728e+00
 1.1912519024e+00	 1.5697568158e+00	-1.9044646889e+00
 1.1759712785e+00	 1.5812366048e+00	-1.8919430873e+00
 1.3298348339e+00	 1.4661542448e+00	-1.8755500834e+00
 1.3154915530e+00	 1.4790371159e+00	-1.8912595024e+00
 1.3010275389e+00	 1.4917761328e+00	-1.9032055908e+00
 1.2864449689e+00	 1.5043696082e+00	-1.9115657286e+00
 1.2717460515e+00	 1.5168158983e+00	-1.9165226286e+00
 1.2569330248e+00	 1.5291134037e+00	-1.9182640660e+00
 1.2420081554e+00	 1.5412605701e+00	-1.9169825786e+00
 1.2269737376e+00	 1.5532558887e+00	-1.9128751332e+00
 1.2118320918e+00	 1.5650978970e+00	-1.9061427544e+00
 1.1965855638e+00	 1.5767851794e+00	-1.8969901124e+00
 1.1812365232e+00	 1.5883163675e+00	-1.8856250660e+00
 1.3357624408e+00	 1.4726894820e+00	-1.8680846253e+00
 1.3213552262e+00	 1.4856297772e+00	-1.8833639982e+00
 1.3068267401e+00	 1.4984255770e+00	-1.8949210153e+00
 1.2921791698e+00	 1.5110751865e+00	-1.9029653735e+00
 1.2774147334e+00	 1.5235769547e+00	-1.9077121063e+00
 1.2625356791e+00	 1.5359292751e+00	-1.9093812953e+00
 1.2475442836e+00	 1.5481305862e+00	-1.9081977516e+00
 1.2324428513e+00	 1.5601793728e+00	-1.9043906629e+00
 1.2172337132e+00	 1.5720741657e+00	-1.8981932020e+00
 1.2019192253e+00	 1.5838135430e+00	-1.8898420942e+00
 1.1865017678e+00	 1.5953961302e+00	-1.8795771377e+00
 1.3416900476e+00	 1.4792247191e+00	-1.8604329739e+00
 1.3272188993e+00	 1.4922224384e+00	-1.8753080852e+00
 1.3126259413e+00	 1.5050750212e+00	-1.8865308973e+00
 1.2979133706e+00	 1.5177807649e+00	-1.8943336986e+00
 1.2830834153e+00	 1.5303380112e+00	-1.8989537535e+00
 1.2681383334e+00	 1.5427451464e+00	-1.9006330122e+00
 1.2530804118e+00	 1.5550006024e+00	-1.8996177891e+00
 1.2379119651e+00	 1.5671028568e+00	-1.8961584078e+00
 1.2226353346e+00	 1.5790504343e+00	-1.8905088076e+00
 1.2072528868e+00	 1.5908419065e+00	-1.8829261067e+00
 1.1917670125e+00	 1.6024758929e+00	-1.8736701194e+00
 1.3476176545e+00	 1.4857599563e+00	-1.8526002621e+00
 1.3330825724e+00	 1.4988150997e+00	-1.8671031531e+00
 1.3184251425e+00	 1.5117244653e+00	-1.8780483063e+00
 1.3036475715e+00	 1.5244863432e+00	-1.8856810094e+00
 1.2887520972e+00	 1.5370990676e+00	-1.8902508041e+00
 1.2737409877e+00	 1.5495610178e+00	-1.8920112094e+00
 1.2586165399e+00	 1.5618706185e+00	-1.8912194150e+00
 1.2433810789e+00	 1.5740263409e+00	-1.8881359405e+00
 1.2280369560e+00	 1.5860267030e+00	-1.8830242564e+00
 1.2125865483e+00	 1.5978702701e+00	-1.8761503621e+00
 1.1970322572e+00	 1.6095556556e+00	-1.8677823170e+00
 1.3535452614e+00	 1.4922951934e+00	-1.8445928229e+00
 1.3389462456e+00	 1.5054077610e+00	-1.8587616623e+00
 1.3242243438e+00	 1.5183739095e+00	-1.8694873337e+00
 1.3093817724e+00	 1.5311919215e+00	-1.8770186618e+00
 1.2944207791e+00	 1.5438601240e+00	-1.8816076449e+00
 1.2793436420e+00	 1.5563768891e+00	-1.8835092078e+00
 1.2641526681e+00	 1.5687406347e+00	-1.8829809262e+00
 1.2488501926e+00	 1.5809498250e+00	-1.8802827176e+00
 1.2334385773e+00	 1.5930029717e+00	-1.8756764935e+00
 1.2179202098e+00	 1.6048986337e+00	-1.8694257699e+00
 1.2022975018e+00	 1.6166354183e+00	-1.8617952298e+00
 1.3594728683e+00	 1.4988304306e+00	-1.8364181736e+00
 1.3448099187e+00	 1.5120004222e+00	-1.8502971326e+00
 1.3300235450e+00	 1.5250233537e+00	-1.8608630830e+00
 1.3151159732e+00	 1.5378974999e+00	-1.8683590518e+00
 1.3000894610e+00	 1.5506211805e+00	-1.8730298040e+00
 1.2849462963e+00	 1.5631927605e+00	-1.8751216410e+00
 1.2696887963e+00	 1.5756106508e+00	-1.8748821723e+00
 1.2543193064e+00	 1.5878733091e+00	-1.8725600540e+00
 1.2388401987e+00	 1.5999792403e+00	-1.8684046907e+00
 1.2232538713e+00	 1.6119269972e+00	-1.8626658946e+00
 1.2075627465e+00	 1.6237151810e+00	-1.8555934981e+00
 1.3654004752e+00	 1.5053656677e+00	-1.8280850003e+00
 1.3506735918e+00	 1.5185930835e+00	-1.8417241306e+00
 1.3358227462e+00	 1.5316727978e+00	-1.8521916585e+00
 1.3208501741e+00	 1.5446030782e+00	-1.8597156042e+00
 1.3057581429e+00	 1.5573822369e+00	-1.8645239383e+00
 1.2905489506e+00	 1.5700086318e+00	-1.8668444407e+00
 1.2752249245e+00	 1.5824806669e+00	-1.8669045361e+00
 1.2597884201e+00	 1.5947967932e+00	-1.8649310975e+00
 1.2442418201e+00	 1.6069555090e+00	-1.8611502135e+00
 1.2285875327e+00	 1.6189553608e+00	-1.8557869143e+00
 1.2128279911e+00	 1.6307949437e+00	-1.8490648519e+00
 1.3713280821e+00	 1.5119009048e+00	-1.8196031417e+00
 1.3565372650e+00	 1.5251857448e+00	-1.8330582568e+00
 1.3416219475e+00	 1.5383222420e+00	-1.8434901542e+00
 1.3265843750e+00	 1.5513086566e+00	-1.8511027621e+00
 1.3114268248e+00	 1.5641432934e+00	-1.8560978208e+00
 1.2961516049e+00	 1.5768245032e+00	-1.8586748202e+00
 1.2807610527e+00	 1.5893506831e+00	-1.8590309134e+00
 1.2652575339e+00	 1.6017202773e+00	-1.8573608023e+00
 1.2496434414e+00	 1.6139317777e+00	-1.8538565878e+00
 1.2339211942e+00	 1.6259837244e+00	-1.8487075793e+00
 1.2180932358e+00	 1.6378747064e+00	-1.8421000602e+00
 1.3772556890e+00	 1.5184361420e+00	-1.8109835727e+00
 1.3624009381e+00	 1.5317784060e+00	-1.8243161322e+00
 1.3474211487e+00	 1.5449716862e+00	-1.8347766423e+00
 1.3323185759e+00	 1.5580142349e+00	-1.8425359745e+00
 1.3170955067e+00	 1.5709043498e+00	-1.8477603277e+00
 1.3017542592e+00	 1.5836403745e+00	-1.8506112589e+00
 1.2862971808e+00	 1.5962206992e+00	-1.8512456926e+00
 1.2707266476e+00	 1.6086437614e+00	-1.8498159038e+00
 1.2550450628e+00	 1.6209080463e+00	-1.8464694679e+00
 1.2392548557e+00	 1.6330120879e+00	-1.8413491718e+00
 1.2233584805e+00	 1.6449544691e+00	-1.8345928809e+00
 1.3831832959e+00	 1.5249713791e+00	-1.8022383877e+00
 1.3682646113e+00	 1.5383710673e+00	-1.8155153845e+00
 1.3532203499e+00	 1.5516211303e+00	-1.8260701606e+00
 1.3380527767e+00	 1.5647198132e+00	-1.8340316846e+00
 1.3227641886e+00	 1.5776654063e+00	-1.8395214243e+00
 1.3073569135e+00	 1.5904562459e+00	-1.8426534858e+00
 1.2918333090e+00	 1.6030907154e+00	-1.8435347345e+00
 1.2761957614e+00	 1.6155672454e+00	-1.8422648922e+00
 1.2604466842e+00	 1.6278843150e+00	-1.8389366033e+00
 1.2445885172e+00	 1.6400404515e+00	-1.8336354646e+00
 1.2286237251e+00	 1.6520342318e+00	-1.8264400112e+00
 1.1759712785e+00	 1.5812366048e+00	-1.8919430873e+00
 1.1605936020e+00	 1.5925577705e+00	-1.8787926775e+00
 1.1451186788e+00	 1.6037210169e+00	-1.8659474805e+00
 1.1295489225e+00	 1.6147251331e+00	-1.8528196769e+00
 1.1138867658e+00	 1.6255689568e+00	-1.8388473854e+00
 1.0981346594e+00	 1.6362513750e+00	-1.8234873232e+00
 1.0822950704e+00	 1.6467713242e+00	-1.8062074955e+00
 1.0663704815e+00	 1.6571277905e+00	-1.7864799703e+00
 1.0503633895e+00	 1.6673198101e+00	-1.7637737967e+00
 1.0342763041e+00	 1.6773464695e+00	-1.7375481194e+00
 1.0181117467e+00	 1.6872069052e+00	-1.7072455446e+00
 1.1812365232e+00	 1.5883163675e+00	-1.8856250660e+00
 1.1657899953e+00	 1.5996882221e+00	-1.8718689993e+00
 1.1502457853e+00	 1.6109014504e+00	-1.8582244834e+00
 1.1346063176e+00	 1.6219548359e+00	-1.8443994600e+00
 1.1188740358e+00	 1.6328472113e+00	-1.8298045656e+00
 1.1030514016e+00	 1.6435774585e+00	-1.8138677616e+00
 1.0871408931e+00	 1.6541445093e+00	-1.7960267914e+00
 1.0711450041e+00	 1.6645473452e+00	-1.7757217294e+00
 1.0550662427e+00	 1.6747849982e+00	-1.7523876786e+00
 1.0389071296e+00	 1.6848565504e+00	-1.7254476738e+00
 1.0226701977e+00	 1.6947611348e+00	-1.6943058454e+00
 1.1865017678e+00	 1.5953961302e+00	-1.8795771377e+00
 1.1709863886e+00	 1.6068186737e+00	-1.8659547362e+00
 1.1553728918e+00	 1.6180818838e+00	-1.8514471138e+00
 1.1396637127e+00	 1.6291845387e+00	-1.8368157989e+00
 1.1238613059e+00	 1.6401254658e+00	-1.8214652891e+00
 1.1079681438e+00	 1.6509035420e+00	-1.8048169800e+00
 1.0919867158e+00	 1.6615176944e+00	-1.7863013472e+00
 1.0759195268e+00	 1.6719668999e+00	-1.7653502234e+00
 1.0597690958e+00	 1.6822501862e+00	-1.7413892308e+00
 1.0435379551e+00	 1.6923666314e+00	-1.7138304266e+00
 1.0272286487e+00	 1.7023153645e+00	-1.6820652182e+00
 1.1917670125e+00	 1.6024758929e+00	-1.8736701194e+00
 1.1761827819e+00	 1.6139491253e+00	-1.8608068331e+00
 1.1604999983e+00	 1.6252623173e+00	-1.8453569401e+00
 1.1447211079e+00	 1.6364142416e+00	-1.8298057542e+00
 1.1288485760e+00	 1.6474037203e+00	-1.8135727350e+00
 1.1128848861e+00	 1.6582296256e+00	-1.7960946532e+00
 1.0968325385e+00	 1.6688908795e+00	-1.7768174535e+00
 1.0806940494e+00	 1.6793864546e+00	-1.7551882158e+00
 1.0644719489e+00	 1.6897153742e+00	-1.7306472771e+00
 1.0481687806e+00	 1.6998767124e+00	-1.7026205732e+00
 1.0317870997e+00	 1.7098695942e+00	-1.6705122589e+00
 1.1970322572e+00	 1.6095556556e+00	-1.8677823170e+00
 1.1813791752e+00	 1.6210795769e+00	-1.8558978845e+00
 1.1656271049e+00	 1.6324427508e+00	-1.8397018011e+00
 1.1497785030e+00	 1.6436439444e+00	-1.8231124761e+00
 1.1338358460e+00	 1.6546819748e+00	-1.8058757958e+00
 1.1178016283e+00	 1.6655557091e+00	-1.7874656031e+00
 1.1016783613e+00	 1.6762640646e+00	-1.7673657984e+00
 1.0854685720e+00	 1.6868060093e+00	-1.7450619410e+00
 1.0691748021e+00	 1.6971805623e+00	-1.7200330146e+00
 1.0527996061e+00	 1.7073867934e+00	-1.6917434196e+00
 1.0363455507e+00	 1.7174238239e+00	-1.6596352526e+00
 1.2022975018e+00	 1.6166354183e+00	-1.8617952298e+00
 1.1865755685e+00	 1.6282100286e+00	-1.8506826246e+00
 1.1707542114e+00	 1.6396231842e+00	-1.8342359262e+00
 1.1548358982e+00	 1.6508736472e+00	-1.8164853191e+00
 1.1388231161e+00	 1.6619602293e+00	-1.7981291917e+00
 1.1227183705e+00	 1.6728817926e+00	-1.7786999174e+00
 1.1065241840e+00	 1.6836372497e+00	-1.7577415944e+00
 1.0902430947e+00	 1.6942255640e+00	-1.7348012424e+00
 1.0738776552e+00	 1.7046457503e+00	-1.7094201661e+00
 1.0574304316e+00	 1.7148968744e+00	-1.6811255535e+00
 1.0409040017e+00	 1.7249780536e+00	-1.6494223672e+00
 1.2075627465e+00	 1.6237151810e+00	-1.8555934981e+00
 1.1917719618e+00	 1.6353404802e+00	-1.8450192634e+00
 1.1758813179e+00	 1.6468036177e+00	-1.8287200541e+00
 1.1598932933e+00	 1.6581033501e+00	-1.8096799583e+00
 1.1438103861e+00	 1.6692384838e+00	-1.7900935865e+00
 1.1276351128e+00	 1.6802078761e+00	-1.7695730689e+00
 1.1113700067e+00	 1.6910104348e+00	-1.7477447049e+00
 1.0950176173e+00	 1.7016451188e+00	-1.7242397099e+00
 1.0785805084e+00	 1.7121109383e+00	-1.6986851333e+00
 1.0620612571e+00	 1.7224069553e+00	-1.6706950154e+00
 1.0454624527e+00	 1.7325322833e+00	-1.6398618456e+00
 1.2128279911e+00	 1.6307949437e+00	-1.8490648519e+00
 1.1969683551e+00	 1.6424709318e+00	-1.8387708259e+00
 1.1810084244e+00	 1.6539840511e+00	-1.8227141556e+00
 1.1649506885e+00	 1.6653330529e+00	-1.8024585058e+00
 1.1487976562e+00	 1.6765167384e+00	-1.7815357041e+00
 1.1325518550e+00	 1.6875339596e+00	-1.7598660358e+00
 1.1162158294e+00	 1.6983836199e+00	-1.7371797713e+00
 1.0997921399e+00	 1.7090646735e+00	-1.7132148183e+00
 1.0832833615e+00	 1.7195761264e+00	-1.6877071486e+00
 1.0666920826e+00	 1.7299170363e+00	-1.6603814678e+00
 1.0500209036e+00	 1.7400865129e+00	-1.6309421955e+00
 1.2180932358e+00	 1.6378747064e+00	-1.8421000602e+00
 1.2021647484e+00	 1.6496013834e+00	-1.8318037762e+00
 1.1861355309e+00	 1.6611644846e+00	-1.8157118149e+00
 1.1700080836e+00	 1.6725627557e+00	-1.7945896290e+00
 1.1537849262e+00	 1.6837949929e+00	-1.7722284463e+00
 1.1374685972e+00	 1.6948600432e+00	-1.7493654225e+00
 1.1210616521e+00	 1.7057568050e+00	-1.7258563414e+00
 1.1045666626e+00	 1.7164842282e+00	-1.7015680657e+00
 1.0879862147e+00	 1.7270413144e+00	-1.6763684271e+00
 1.0713229081e+00	 1.7374271173e+00	-1.6501163647e+00
 1.0545793546e+00	 1.7476407426e+00	-1.6226523790e+00
 1.2233584805e+00	 1.6449544691e+00	-1.8345928809e+00
 1.2073611416e+00	 1.6567318350e+00	-1.8239879598e+00
 1.1912626374e+00	 1.6683449181e+00	-1.8075649204e+00
 1.1750654787e+00	 1.6797924585e+00	-1.7858486692e+00
 1.1587721963e+00	 1.6910732474e+00	-1.7619510112e+00
 1.1423853395e+00	 1.7021861267e+00	-1.7378635815e+00
 1.1259074749e+00	 1.7131299901e+00	-1.7135889975e+00
 1.1093411852e+00	 1.7239037829e+00	-1.6891451112e+00
 1.0926890678e+00	 1.7345065024e+00	-1.6645543182e+00
 1.0759537336e+00	 1.7449371983e+00	-1.6398331186e+00
 1.0591378056e+00	 1.7551949723e+00	-1.6149819996e+00
 1.2286237251e+00	 1.6520342318e+00	-1.8264400112e+00
 1.2125575349e+00	 1.6638622866e+00	-1.8151965468e+00
 1.1963897440e+00	 1.6755253515e+00	-1.7981330512e+00
 1.1801228739e+00	 1.6870221614e+00	-1.7759080013e+00
 1.1637594664e+00	 1.6983515019e+00	-1.7504890127e+00
 1.1473020817e+00	 1.7095122102e+00	-1.7251587357e+00
 1.1307532976e+00	 1.7205031752e+00	-1.7001974851e+00
 1.1141157078e+00	 1.7313233376e+00	-1.6757959139e+00
 1.0973919210e+00	 1.7419716905e+00	-1.6521534569e+00
 1.0805845591e+00	 1.7524472793e+00	-1.6294672686e+00
 1.0636962566e+00	 1.7627492020e+00	-1.6079214882e+00
 1.0181117467e+00	 1.6872069052e+00	-1.7072455446e+00
 1.0018722495e+00	 1.6969003048e+00	-1.6736254557e+00
 9.8556035499e-01	 1.7064259082e+00	-1.6382705118e+00
 9.6917861406e-01	 1.7157830063e+00	-1.6018223621e+00
 9.5272958417e-01	 1.7249709404e+00	-1.5648910287e+00
 9.3621582822e-01	 1.7339891027e+00	-1.5280484939e+00
 9.1963991332e-01	 1.7428369360e+00	-1.4918228020e+00
 9.0300440955e-01	 1.7515139334e+00	-1.4566927076e+00
 8.8631188877e-01	 1.7600196386e+00	-1.4230828997e+00
 8.6956492342e-01	 1.7683536454e+00	-1.3902907012e+00
 8.5276608528e-01	 1.7765155975e+00	-1.3503612576e+00
 1.0226701977e+00	 1.6947611348e+00	-1.6943058454e+00
 1.0063579904e+00	 1.7044979353e+00	-1.6598461014e+00
 9.8997306174e-01	 1.7140661883e+00	-1.6238980528e+00
 9.7351797389e-01	 1.7234651814e+00	-1.5872495144e+00
 9.5699529580e-01	 1.7326942532e+00	-1.5506601395e+00
 9.4040760185e-01	 1.7417527931e+00	-1.5148545302e+00
 9.2375747063e-01	 1.7506402413e+00	-1.4805158752e+00
 9.0704748376e-01	 1.7593560887e+00	-1.4482801471e+00
 8.9028022458e-01	 1.7678998770e+00	-1.4179359058e+00
 8.7345827706e-01	 1.7762711981e+00	-1.3817133089e+00
 8.5658422452e-01	 1.7844696941e+00	-1.3378048825e+00
 1.0272286487e+00	 1.7023153645e+00	-1.6820652182e+00
 1.0108437314e+00	 1.7120955658e+00	-1.6471616927e+00
 9.9438576848e-01	 1.7217064683e+00	-1.6112211555e+00
 9.7785733371e-01	 1.7311473565e+00	-1.5751503798e+00
 9.6126100742e-01	 1.7404175660e+00	-1.5398301046e+00
 9.4459937547e-01	 1.7495164834e+00	-1.5061077137e+00
 9.2787502795e-01	 1.7584435465e+00	-1.4747904552e+00
 9.1109055796e-01	 1.7671982440e+00	-1.4461706716e+00
 8.9424856039e-01	 1.7757801154e+00	-1.4128695538e+00
 8.7735163071e-01	 1.7841887508e+00	-1.3724900046e+00
 8.6040236375e-01	 1.7924237908e+00	-1.3255393321e+00
 1.0317870997e+00	 1.7098695942e+00	-1.6705122589e+00
 1.0153294723e+00	 1.7196931963e+00	-1.6356207802e+00
 9.9879847523e-01	 1.7293467484e+00	-1.6003308841e+00
 9.8219669353e-01	 1.7388295316e+00	-1.5656415338e+00
 9.6552671904e-01	 1.7481408788e+00	-1.5325264570e+00
 9.4879114909e-01	 1.7572801737e+00	-1.5019264379e+00
 9.3199258526e-01	 1.7662468518e+00	-1.4745691330e+00
 9.1513363217e-01	 1.7750403993e+00	-1.4438292829e+00
 8.9821689620e-01	 1.7836603537e+00	-1.4063603057e+00
 8.8124498436e-01	 1.7921063035e+00	-1.3627485228e+00
 8.6422050298e-01	 1.8003778875e+00	-1.3136068405e+00
 1.0363455507e+00	 1.7174238239e+00	-1.6596352526e+00
 1.0198152133e+00	 1.7272908268e+00	-1.6252702625e+00
 1.0032111820e+00	 1.7369870284e+00	-1.5913156198e+00
 9.8653605336e-01	 1.7465117068e+00	-1.5588361416e+00
 9.6979243067e-01	 1.7558641916e+00	-1.5288708891e+00
 9.5298292272e-01	 1.7650438641e+00	-1.5024170912e+00
 9.3611014258e-01	 1.7740501570e+00	-1.4741493485e+00
 9.1917670637e-01	 1.7828825546e+00	-1.4393365751e+00
 9.0218523201e-01	 1.7915405921e+00	-1.3986071583e+00
 8.8513833800e-01	 1.8000238562e+00	-1.3526176756e+00
 8.6803864221e-01	 1.8083319842e+00	-1.3020521465e+00
 1.0409040017e+00	 1.7249780536e+00	-1.6494223672e+00
 1.0243009542e+00	 1.7348884573e+00	-1.6161556004e+00
 1.0076238887e+00	 1.7446273085e+00	-1.5842612884e+00
 9.9087541318e-01	 1.7541938819e+00	-1.5548441926e+00
 9.7405814229e-01	 1.7635875044e+00	-1.5289814875e+00
 9.5717469634e-01	 1.7728075544e+00	-1.5031414366e+00
 9.4022769989e-01	 1.7818534623e+00	-1.4709457013e+00
 9.2321978058e-01	 1.7907247099e+00	-1.4329463730e+00
 9.0615356782e-01	 1.7994208305e+00	-1.3898090091e+00
 8.8903169165e-01	 1.8079414089e+00	-1.3422273322e+00
 8.7185678144e-01	 1.8162860809e+00	-1.2909224438e+00
 1.0454624527e+00	 1.7325322833e+00	-1.6398618456e+00
 1.0287866951e+00	 1.7424860878e+00	-1.6083210280e+00
 1.0120365955e+00	 1.7522675885e+00	-1.5792515844e+00
 9.9521477300e-01	 1.7618760570e+00	-1.5537727307e+00
 9.7832385392e-01	 1.7713108171e+00	-1.5300503198e+00
 9.6136646996e-01	 1.7805712447e+00	-1.5005114108e+00
 9.4434525721e-01	 1.7896567675e+00	-1.4652507715e+00
 9.2726285478e-01	 1.7985668651e+00	-1.4249115127e+00
 9.1012190363e-01	 1.8073010689e+00	-1.3801646567e+00
 8.9292504530e-01	 1.8158589616e+00	-1.3317083972e+00
 8.7567492067e-01	 1.8242401776e+00	-1.2802673315e+00
 1.0500209036e+00	 1.7400865129e+00	-1.6309421955e+00
 1.0332724361e+00	 1.7500837184e+00	-1.6018097625e+00
 1.0164493022e+00	 1.7599078685e+00	-1.5763681932e+00
 9.9955413283e-01	 1.7695582321e+00	-1.5542123708e+00
 9.8258956554e-01	 1.7790341299e+00	-1.5273258522e+00
 9.6555824359e-01	 1.7883349351e+00	-1.4948426446e+00
 9.4846281452e-01	 1.7974600728e+00	-1.4573555398e+00
 9.3130592898e-01	 1.8064090204e+00	-1.4154838573e+00
 9.1409023944e-01	 1.8151813072e+00	-1.3698727997e+00
 8.9681839894e-01	 1.8237765143e+00	-1.3211927870e+00
 8.7949305990e-01	 1.8321942743e+00	-1.2701387641e+00
 1.0545793546e+00	 1.7476407426e+00	-1.6226523790e+00
 1.0377581770e+00	 1.7576813489e+00	-1.5966642111e+00
 1.0208620090e+00	 1.7675481486e+00	-1.5751936425e+00
 1.0038934927e+00	 1.7772404072e+00	-1.5508013092e+00
 9.8685527717e-01	 1.7867574427e+00	-1.5210468929e+00
 9.6975001721e-01	 1.7960986254e+00	-1.4864488269e+00
 9.5258037184e-01	 1.8052633781e+00	-1.4475494115e+00
 9.3534900319e-01	 1.8142511757e+00	-1.4049143101e+00
 9.1805857525e-01	 1.8230615456e+00	-1.3591320339e+00
 9.0071175259e-01	 1.8316940670e+00	-1.3108134065e+00
 8.8331119913e-01	 1.8401483710e+00	-1.2605910008e+00
 1.0591378056e+00	 1.7551949723e+00	-1.6149819996e+00
 1.0422439180e+00	 1.7652789794e+00	-1.5929068513e+00
 1.0252747157e+00	 1.7751884286e+00	-1.5706013544e+00
 1.0082328525e+00	 1.7849225824e+00	-1.5433359488e+00
 9.9112098879e-01	 1.7944807555e+00	-1.5115347665e+00
 9.7394179083e-01	 1.8038623158e+00	-1.4756417317e+00
 9.5669792915e-01	 1.8130666833e+00	-1.4361202380e+00
 9.3939207740e-01	 1.8220933310e+00	-1.3934528253e+00
 9.2202691106e-01	 1.8309417840e+00	-1.3481408478e+00
 9.0460510624e-01	 1.8396116197e+00	-1.3007041229e+00
 8.8712933836e-01	 1.8481024677e+00	-1.2516805546e+00
 1.0636962566e+00	 1.7627492020e+00	-1.6079214882e+00
 1.0467296589e+00	 1.7728766099e+00	-1.5867507856e+00
 1.0296874225e+00	 1.7828287087e+00	-1.5614540112e+00
 1.0125722123e+00	 1.7926047575e+00	-1.5321305442e+00
 9.9538670041e-01	 1.8022040683e+00	-1.4991087948e+00
 9.7813356446e-01	 1.8116260061e+00	-1.4627312410e+00
 9.6081548646e-01	 1.8208699886e+00	-1.4233543356e+00
 9.4343515160e-01	 1.8299354863e+00	-1.3813484174e+00
 9.2599524687e-01	 1.8388220224e+00	-1.3370976159e+00
 9.0849845989e-01	 1.8475291724e+00	-1.2909997400e+00
 8.9094747759e-01	 1.8560565644e+00	-1.2434661410e+00
 8.5276608528e-01	 1.7765155975e+00	-1.3503612576e+00
 8.3591507583e-01	 1.7845065320e+00	-1.3058250688e+00
 8.1901731432e-01	 1.7923247887e+00	-1.2610652146e+00
 8.0207536413e-01	 1.7999701588e+00	-1.2164632971e+00
 7.8509178342e-01	 1.8074424822e+00	-1.1724069699e+00
 7.6806912395e-01	 1.8147416478e+00	-1.1292896625e+00
 7.5100993004e-01	 1.8218675923e+00	-1.0875102864e+00
 7.3391673744e-01	 1.8288203008e+00	-1.0474729223e+00
 7.1679207226e-01	 1.8355998053e+00	-1.0095864864e+00
 6.9963844990e-01	 1.8422061850e+00	-9.7426437715e-01
 6.8245837404e-01	 1.8486395656e+00	-9.4192410206e-01
 8.5658422452e-01	 1.7844696941e+00	-1.3378048825e+00
 8.3965776706e-01	 1.7924964070e+00	-1.2905046131e+00
 8.2268434822e-01	 1.8003496688e+00	-1.2440333480e+00
 8.0566654285e-01	 1.8080292700e+00	-1.1986398700e+00
 7.8860692056e-01	 1.8155350497e+00	-1.1545724986e+00
 7.7150804454e-01	 1.8228668962e+00	-1.1120790881e+00
 7.5437247051e-01	 1.8300247461e+00	-1.0714070102e+00
 7.3720274557e-01	 1.8370085843e+00	-1.0328031179e+00
 7.2000140712e-01	 1.8438184431e+00	-9.9651369025e-01
 7.0277098185e-01	 1.8504544020e+00	-9.6278435618e-01
 6.8551398464e-01	 1.8569165872e+00	-9.3185999932e-01
 8.6040236375e-01	 1.7924237908e+00	-1.3255393321e+00
 8.4340045828e-01	 1.8004862819e+00	-1.2762569068e+00
 8.2635138211e-01	 1.8083745489e+00	-1.2286402112e+00
 8.0925772156e-01	 1.8160883811e+00	-1.1828219639e+00
 7.9212205770e-01	 1.8236276171e+00	-1.1389290669e+00
 7.7494696514e-01	 1.8309921446e+00	-1.0970828394e+00
 7.5773501099e-01	 1.8381819000e+00	-1.0573992375e+00
 7.4048875370e-01	 1.8451968679e+00	-1.0199890552e+00
 7.2321074199e-01	 1.8520370810e+00	-9.8495810591e-01
 7.0590351381e-01	 1.8587026190e+00	-9.5240738261e-01
 6.8856959524e-01	 1.8651936087e+00	-9.2243319741e-01
 8.6422050298e-01	 1.8003778875e+00	-1.3136068405e+00
 8.4714314951e-01	 1.8084761569e+00	-1.2630399141e+00
 8.3001841600e-01	 1.8163994290e+00	-1.2147756363e+00
 8.1284890028e-01	 1.8241474923e+00	-1.1688471554e+00
 7.9563719483e-01	 1.8317201845e+00	-1.1252776008e+00
 7.7838588573e-01	 1.8391173930e+00	-1.0840805163e+00
 7.6109755146e-01	 1.8463390538e+00	-1.0452602777e+00
 7.4377476183e-01	 1.8533851515e+00	-1.0088124914e+00
 7.2642007686e-01	 1.8602557188e+00	-9.7472437220e-01
 7.0903604576e-01	 1.8669508360e+00	-9.4297509807e-01
 6.9162520584e-01	 1.8734706302e+00	-9.1353614230e-01
 8.6803864221e-01	 1.8083319842e+00	-1.3020521465e+00
 8.5088584073e-01	 1.8164660319e+00	-1.2508155060e+00
 8.3368544990e-01	 1.8244243091e+00	-1.2023344794e+00
 8.1644007899e-01	 1.8322066034e+00	-1.1565588796e+00
 7.9915233197e-01	 1.8398127520e+00	-1.1134254420e+00
 7.8182480633e-01	 1.8472426414e+00	-1.0728584189e+00
 7.6446009194e-01	 1.8544962076e+00	-1.0347701571e+00
 7.4706076995e-01	 1.8615734351e+00	-9.9906165506e-01
 7.2962941173e-01	 1.8684743567e+00	-9.6562309617e-01
 7.1216857772e-01	 1.8751990530e+00	-9.3433435730e-01
 6.9468081645e-01	 1.8817476518e+00	-9.0506549158e-01
 8.7185678144e-01	 1.8162860809e+00	-1.2909224438e+00
 8.5462853196e-01	 1.8244559068e+00	-1.2395493836e+00
 8.3735248379e-01	 1.8324491893e+00	-1.1912165208e+00
 8.2003125771e-01	 1.8402657146e+00	-1.1458063147e+00
 8.0266746911e-01	 1.8479053194e+00	-1.1031862226e+00
 7.8526372693e-01	 1.8553678898e+00	-1.0632094181e+00
 7.6782263241e-01	 1.8626533614e+00	-1.0257154918e+00
 7.5034677808e-01	 1.8697617187e+00	-9.9053112621e-01
 7.3283874660e-01	 1.8766929945e+00	-9.5747074619e-01
 7.1530110968e-01	 1.8834472699e+00	-9.2633713966e-01
 6.9773642705e-01	 1.8900246733e+00	-8.9692204966e-01
 8.7567492067e-01	 1.8242401776e+00	-1.2802673315e+00
 8.5837122318e-01	 1.8324457818e+00	-1.2292110006e+00
 8.4101951769e-01	 1.8404740694e+00	-1.1813263667e+00
 8.2362243642e-01	 1.8483248258e+00	-1.1364442681e+00
 8.0618260625e-01	 1.8559978868e+00	-1.0943797416e+00
 7.8870264752e-01	 1.8634931382e+00	-1.0549328291e+00
 7.7118517289e-01	 1.8708105152e+00	-1.0178893622e+00
 7.5363278621e-01	 1.8779500023e+00	-9.8302171824e-01
 7.3604808146e-01	 1.8849116324e+00	-9.5008954659e-01
 7.1843364163e-01	 1.8916954869e+00	-9.1884046180e-01
 7.0079203765e-01	 1.8983016948e+00	-8.8901070359e-01
 8.7949305990e-01	 1.8321942743e+00	-1.2701387641e+00
 8.6211391441e-01	 1.8404356568e+00	-1.2197734866e+00
 8.4468655158e-01	 1.8484989495e+00	-1.1725733518e+00
 8.2721361514e-01	 1.8563839369e+00	-1.1283330640e+00
 8.0969774340e-01	 1.8640904543e+00	-1.0868318435e+00
 7.9214156812e-01	 1.8716183866e+00	-1.0478342852e+00
 7.7454771336e-01	 1.8789676691e+00	-1.0110911896e+00
 7.5691879434e-01	 1.8861382859e+00	-9.7634036165e-01
 7.3925741633e-01	 1.8931302703e+00	-9.4330737381e-01
 7.2156617359e-01	 1.8999437039e+00	-9.1170629137e-01
 7.0384764826e-01	 1.9065787164e+00	-8.8124035938e-01
 8.8331119913e-01	 1.8401483710e+00	-1.2605910008e+00
 8.6585660563e-01	 1.8484255317e+00	-1.2112135707e+00
 8.4835358548e-01	 1.8565238296e+00	-1.1648714426e+00
 8.3080479385e-01	 1.8644430481e+00	-1.1213384325e+00
 8.1321288054e-01	 1.8721830217e+00	-1.0803742985e+00
 7.9558048872e-01	 1.8797436350e+00	-1.0417256150e+00
 7.7791025384e-01	 1.8871248229e+00	-1.0051266145e+00
 7.6020480247e-01	 1.8943265694e+00	-9.7029998950e-01
 7.4246675120e-01	 1.9013489081e+00	-9.3695765414e-01
 7.2469870555e-01	 1.9081919209e+00	-9.0480146194e-01
 7.0690325886e-01	 1.9148557379e+00	-8.7352387889e-01
 8.8712933836e-01	 1.8481024677e+00	-1.2516805546e+00
 8.6959929686e-01	 1.8564154067e+00	-1.2035115056e+00
 8.5202061937e-01	 1.8645487097e+00	-1.1581391420e+00
 8.3439597257e-01	 1.8725021593e+00	-1.1153313998e+00
 8.1672801768e-01	 1.8802755891e+00	-1.0748446834e+00
 7.9901940931e-01	 1.8878688835e+00	-1.0364247207e+00
 7.8127279431e-01	 1.8952819767e+00	-9.9980737709e-01
 7.6349081060e-01	 1.9025148530e+00	-9.6471942461e-01
 7.4567608607e-01	 1.9095675460e+00	-9.3087926273e-01
 7.2783123751e-01	 1.9164401379e+00	-8.9799758882e-01
 7.0995886946e-01	 1.9231327594e+00	-8.6577801733e-01
 8.9094747759e-01	 1.8560565644e+00	-1.2434661410e+00
 8.7334198809e-01	 1.8644052817e+00	-1.1966509917e+00
 8.5568765327e-01	 1.8725735898e+00	-1.1522993945e+00
 8.3798715128e-01	 1.8805612704e+00	-1.1101881800e+00
 8.2024315482e-01	 1.8883681565e+00	-1.0700862660e+00
 8.0245832991e-01	 1.8959941319e+00	-1.0317554579e+00
 7.8463533479e-01	 1.9034391305e+00	-9.9495119882e-01
 7.6677681873e-01	 1.9107031366e+00	-9.5942326835e-01
 7.4888542094e-01	 1.9177861838e+00	-9.2491642412e-01
 7.3096376946e-01	 1.9246883549e+00	-8.9117098599e-01
 7.1301448007e-01	 1.9314097810e+00	-8.5792336114e-01
 6.8245837404e-01	 1.8486395656e+00	-9.4192410206e-01
 6.6525726174e-01	 1.8548990690e+00	-9.0801104856e-01
 6.4803467015e-01	 1.8609860192e+00	-8.6743117572e-01
 6.3079305973e-01	 1.8669006767e+00	-8.1983853445e-01
 6.1353487531e-01	 1.8726433462e+00	-7.6492346820e-01
 5.9626254515e-01	 1.8782143759e+00	-7.0241263431e-01
 5.7897848006e-01	 1.8836141573e+00	-6.3480847493e-01
 5.6168507249e-01	 1.8888431238e+00	-5.7617483623e-01
 5.4438469569e-01	 1.8939017510e+00	-5.2809724284e-01
 5.2707970286e-01	 1.8987905551e+00	-4.9009606110e-01
 5.0977242635e-01	 1.9035100927e+00	-4.6173190520e-01
 6.8551398464e-01	 1.8569165872e+00	-9.3185999932e-01
 6.6823585680e-01	 1.8632041166e+00	-8.9921838039e-01
 6.5093615350e-01	 1.8693183203e+00	-8.5992591767e-01
 6.3361734621e-01	 1.8752594598e+00	-8.1365428653e-01
 6.1628189072e-01	 1.8810278413e+00	-7.6011435876e-01
 5.9893222615e-01	 1.8866238145e+00	-6.9905611425e-01
 5.8157077411e-01	 1.8920477726e+00	-6.3167963625e-01
 5.6419993776e-01	 1.8973001511e+00	-5.7192843952e-01
 5.4682210098e-01	 1.9023814275e+00	-5.2301569110e-01
 5.2943962749e-01	 1.9072921205e+00	-4.8448114742e-01
 5.1205486010e-01	 1.9120327892e+00	-4.5590854140e-01
 6.8856959524e-01	 1.8651936087e+00	-9.2243319741e-01
 6.7121445186e-01	 1.8715091642e+00	-8.9061847946e-01
 6.5383763685e-01	 1.8776506213e+00	-8.5224600238e-01
 6.3644163270e-01	 1.8836182429e+00	-8.0700412706e-01
 6.1902890613e-01	 1.8894123363e+00	-7.5462258881e-01
 6.0160190715e-01	 1.8950332530e+00	-6.9487231332e-01
 5.8416306816e-01	 1.9004813879e+00	-6.2808667683e-01
 5.6671480303e-01	 1.9057571784e+00	-5.6719232599e-01
 5.4925950626e-01	 1.9108611041e+00	-5.1746924622e-01
 5.3179955213e-01	 1.9157936860e+00	-4.7847132164e-01
 5.1433729386e-01	 1.9205554858e+00	-4.4979952048e-01
 6.9162520584e-01	 1.8734706302e+00	-9.1353614230e-01
 6.7419304692e-01	 1.8798142117e+00	-8.8215649372e-01
 6.5673912020e-01	 1.8859829223e+00	-8.4437954564e-01
 6.3926591918e-01	 1.8919770259e+00	-7.9990946470e-01
 6.2177592154e-01	 1.8977968314e+00	-7.4849325099e-01
 6.0427158815e-01	 1.9034426916e+00	-6.8992047224e-01
 5.8675536221e-01	 1.9089150032e+00	-6.2408966204e-01
 5.6922966830e-01	 1.9142142056e+00	-5.6202754715e-01
 5.5169691155e-01	 1.9193407806e+00	-5.1151066654e-01
 5.3415947676e-01	 1.9242952515e+00	-4.7210188068e-01
 5.1661972762e-01	 1.9290781823e+00	-4.4341362600e-01
 6.9468081645e-01	 1.8817476518e+00	-9.0506549158e-01
 6.7717164198e-01	 1.8881192593e+00	-8.7378074432e-01
 6.5964060354e-01	 1.8943152234e+00	-8.3631696561e-01
 6.4209020566e-01	 1.9003358090e+00	-7.9239330627e-01
 6.2452293695e-01	 1.9061813264e+00	-7.4177249747e-01
 6.0694126915e-01	 1.9118521302e+00	-6.8426051693e-01
 5.8934765626e-01	 1.9173486185e+00	-6.1970618452e-01
 5.7174453357e-01	 1.9226712329e+00	-5.5649379266e-01
 5.5413431683e-01	 1.9278204572e+00	-5.0519136412e-01
 5.3651940139e-01	 1.9327968170e+00	-4.6540695599e-01
 5.1890216138e-01	 1.9376008788e+00	-4.3675882093e-01
 6.9773642705e-01	 1.8900246733e+00	-8.9692204966e-01
 6.8015023704e-01	 1.8964243069e+00	-8.6544268515e-01
 6.6254208689e-01	 1.9026475244e+00	-8.2805096300e-01
 6.4491449215e-01	 1.9086945921e+00	-7.8448025379e-01
 6.2726995236e-01	 1.9145658215e+00	-7.3450755005e-01
 6.0961095015e-01	 1.9202615687e+00	-6.7795307796e-01
 5.9193995031e-01	 1.9257822338e+00	-6.1467983605e-01
 5.7425939884e-01	 1.9311282602e+00	-5.5064949352e-01
 5.5657172212e-01	 1.9363001337e+00	-4.9856150200e-01
 5.3887932603e-01	 1.9412983825e+00	-4.5841960132e-01
 5.2118459513e-01	 1.9461235754e+00	-4.2984232245e-01
 7.0079203765e-01	 1.8983016948e+00	-8.8901070359e-01
 6.8312883210e-01	 1.9047293545e+00	-8.5709686245e-01
 6.6544357024e-01	 1.9109798254e+00	-8.1957650076e-01
 6.4773877863e-01	 1.9170533751e+00	-7.7619650067e-01
 6.3001696777e-01	 1.9229503165e+00	-7.2674670910e-01
 6.1228063115e-01	 1.9286710073e+00	-6.7105950863e-01
 5.9453224436e-01	 1.9342158491e+00	-6.0900931312e-01
 5.7677426411e-01	 1.9395852874e+00	-5.4455192382e-01
 5.5900912740e-01	 1.9447798103e+00	-4.9167009004e-01
 5.4123925066e-01	 1.9497999479e+00	-4.5117187925e-01
 5.2346702889e-01	 1.9546462719e+00	-4.2267067576e-01
 7.0384764826e-01	 1.9065787164e+00	-8.8124035938e-01
 6.8610742717e-01	 1.9130344020e+00	-8.4870087442e-01
 6.6834505359e-01	 1.9193121264e+00	-8.1089078337e-01
 6.5056306511e-01	 1.9254121582e+00	-7.6756982695e-01
 6.3276398318e-01	 1.9313348116e+00	-7.1853936139e-01
 6.1495031215e-01	 1.9370804458e+00	-6.6364190174e-01
 5.9712453841e-01	 1.9426494644e+00	-6.0276058853e-01
 5.7928912938e-01	 1.9480423147e+00	-5.3825730110e-01
 5.6144653269e-01	 1.9532594868e+00	-4.8456507950e-01
 5.4359917529e-01	 1.9583015134e+00	-4.4369494658e-01
 5.2574946265e-01	 1.9631689684e+00	-4.1524982706e-01
 7.0690325886e-01	 1.9148557379e+00	-8.7352387889e-01
 6.8908602223e-01	 1.9213394496e+00	-8.4021533081e-01
 6.7124653694e-01	 1.9276444275e+00	-8.0199323562e-01
 6.5338735160e-01	 1.9337709413e+00	-7.5862959390e-01
 6.3551099859e-01	 1.9397193067e+00	-7.0993598681e-01
 6.1761999316e-01	 1.9454898844e+00	-6.5576310516e-01
 5.9971683246e-01	 1.9510830797e+00	-5.9600020079e-01
 5.8180399465e-01	 1.9564993420e+00	-5.3182088533e-01
 5.6388393797e-01	 1.9617391634e+00	-4.7729345632e-01
 5.4595909993e-01	 1.9668030789e+00	-4.3601913872e-01
 5.2803189640e-01	 1.9716916650e+00	-4.0758519570e-01
 7.0995886946e-01	 1.9231327594e+00	-8.6577801733e-01
 6.9206461729e-01	 1.9296444972e+00	-8.3160381256e-01
 6.7414802029e-01	 1.9359767285e+00	-7.9288548096e-01
 6.5621163808e-01	 1.9421297244e+00	-7.4940673762e-01
 6.3825801400e-01	 1.9481038017e+00	-7.0098816404e-01
 6.2028967416e-01	 1.9538993229e+00	-6.4748673606e-01
 6.0230912651e-01	 1.9595166950e+00	-5.8879527369e-01
 5.8431885992e-01	 1.9649563692e+00	-5.2529707660e-01
 5.6632134326e-01	 1.9702188399e+00	-4.6990133313e-01
 5.4831902456e-01	 1.9753046444e+00	-4.2817405286e-01
 5.3031433016e-01	 1.9802143615e+00	-3.9968174547e-01
 7.1301448007e-01	 1.9314097810e+00	-8.5792336114e-01
 6.9504321235e-01	 1.9379495447e+00	-8.2283283134e-01
 6.7704950364e-01	 1.9443090295e+00	-7.8357131945e-01
 6.5903592457e-01	 1.9504885074e+00	-7.3993376209e-01
 6.4100502941e-01	 1.9564882968e+00	-6.9174857525e-01
 6.2295935516e-01	 1.9623087615e+00	-6.3887719403e-01
 6.0490142056e-01	 1.9679503103e+00	-5.8121353454e-01
 5.8683372519e-01	 1.9734133965e+00	-5.1873951148e-01
 5.6875874854e-01	 1.9786985165e+00	-4.6243404017e-01
 5.5067894919e-01	 1.9838062098e+00	-4.2018863024e-01
 5.3259676391e-01	 1.9887370581e+00	-3.9154405514e-01
 5.0977242635e-01	 1.9035100927e+00	-4.6173190520e-01
 4.9246517711e-01	 1.9080609604e+00	-4.3769089784e-01
 4.7516024463e-01	 1.9124437954e+00	-4.1283326827e-01
 4.5785989543e-01	 1.9166592732e+00	-3.8703036614e-01
 4.4056637214e-01	 1.9207081067e+00	-3.6017880267e-01
 4.2328189282e-01	 1.9245910451e+00	-3.3220104990e-01
 4.0600865027e-01	 1.9283088737e+00	-3.0304586820e-01
 3.8874881144e-01	 1.9318624125e+00	-2.7268857964e-01
 3.7150451682e-01	 1.9352525155e+00	-2.4113120426e-01
 3.5427787987e-01	 1.9384800701e+00	-2.0840247552e-01
 3.3707098643e-01	 1.9415459962e+00	-1.7455775006e-01
 5.1205486010e-01	 1.9120327892e+00	-4.5590854140e-01
 4.9467012011e-01	 1.9166040328e+00	-4.3185245209e-01
 4.7728770725e-01	 1.9210064914e+00	-4.0701265573e-01
 4.5990989819e-01	 1.9252408433e+00	-3.8124347552e-01
 4.4253894561e-01	 1.9293078049e+00	-3.5442514197e-01
 4.2517707748e-01	 1.9332081286e+00	-3.2646433754e-01
 4.0782649643e-01	 1.9369426033e+00	-2.9729457017e-01
 3.9048937912e-01	 1.9405120525e+00	-2.6687639376e-01
 3.7316787562e-01	 1.9439173342e+00	-2.3519749336e-01
 3.5586410884e-01	 1.9471593398e+00	-2.0227265133e-01
 3.3858017398e-01	 1.9502389931e+00	-1.6814361061e-01
 5.1433729386e-01	 1.9205554858e+00	-4.4979952048e-01
 4.9687506312e-01	 1.9251471052e+00	-4.2585341476e-01
 4.7941516987e-01	 1.9295691873e+00	-4.0115166783e-01
 4.6195990095e-01	 1.9338224135e+00	-3.7552966948e-01
 4.4451151907e-01	 1.9379075031e+00	-3.4884966141e-01
 4.2707226214e-01	 1.9418252122e+00	-3.2100122042e-01
 4.0964434260e-01	 1.9455763329e+00	-2.9190157086e-01
 3.9222994681e-01	 1.9491616925e+00	-2.6149574520e-01
 3.7483123442e-01	 1.9525821529e+00	-2.2975661066e-01
 3.5745033782e-01	 1.9558386094e+00	-1.9668477901e-01
 3.4008936153e-01	 1.9589319900e+00	-1.6230841570e-01
 5.1661972762e-01	 1.9290781823e+00	-4.4341362600e-01
 4.9908000612e-01	 1.9336901776e+00	-4.1967349865e-01
 4.8154263249e-01	 1.9381318832e+00	-3.9520482553e-01
 4.6400990371e-01	 1.9424039836e+00	-3.6982218642e-01
 4.4648409254e-01	 1.9465072013e+00	-3.4336825319e-01
 4.2896744680e-01	 1.9504422957e+00	-3.1571420464e-01
 4.1146218876e-01	 1.9542100624e+00	-2.8675997091e-01
 3.9397051449e-01	 1.9578113326e+00	-2.5643432683e-01
 3.7649459322e-01	 1.9612469717e+00	-2.2469485285e-01
 3.5903656679e-01	 1.9645178791e+00	-1.9152778095e-01
 3.4159854908e-01	 1.9676249869e+00	-1.5694774226e-01
 5.1890216138e-01	 1.9376008788e+00	-4.3675882093e-01
 5.0128494912e-01	 1.9422332501e+00	-4.1329199157e-01
 4.8367009512e-01	 1.9466945791e+00	-3.8912655881e-01
 4.6605990648e-01	 1.9509855537e+00	-3.6405444635e-01
 4.4845666600e-01	 1.9551068995e+00	-3.3789720265e-01
 4.3086263145e-01	 1.9590593792e+00	-3.1050634037e-01
 4.1328003493e-01	 1.9628437920e+00	-2.8176350567e-01
 3.9571108217e-01	 1.9664609726e+00	-2.5158049714e-01
 3.7815795202e-01	 1.9699117904e+00	-2.1989915366e-01
 3.6062279577e-01	 1.9731971487e+00	-1.8669112909e-01
 3.4310773663e-01	 1.9763179838e+00	-1.5195757090e-01
 5.2118459513e-01	 1.9461235754e+00	-4.2984232245e-01
 5.0348989212e-01	 1.9507763225e+00	-4.0668781718e-01
 4.8579755774e-01	 1.9552572751e+00	-3.8287125489e-01
 4.6810990924e-01	 1.9595671239e+00	-3.5816008812e-01
 4.5042923946e-01	 1.9637065977e+00	-3.3235321606e-01
 4.3275781611e-01	 1.9676764627e+00	-3.0528124164e-01
 4.1509788109e-01	 1.9714775216e+00	-2.7680655855e-01
 3.9745164986e-01	 1.9751106126e+00	-2.4682328853e-01
 3.7982131082e-01	 1.9785766092e+00	-2.1525708877e-01
 3.6220902474e-01	 1.9818764184e+00	-1.8206484795e-01
 3.4461692418e-01	 1.9850109807e+00	-1.4723428847e-01
 5.2346702889e-01	 1.9546462719e+00	-4.2267067576e-01
 5.0569483513e-01	 1.9593193949e+00	-3.9983959511e-01
 4.8792502036e-01	 1.9638199710e+00	-3.7639330619e-01
 4.7015991200e-01	 1.9681486940e+00	-3.5207300659e-01
 4.5240181292e-01	 1.9723062959e+00	-3.2665344846e-01
 4.3465300077e-01	 1.9762935462e+00	-2.9994310635e-01
 4.1691572725e-01	 1.9801112511e+00	-2.7178417468e-01
 3.9919221754e-01	 1.9837602527e+00	-2.4205241610e-01
 3.8148466962e-01	 1.9872414279e+00	-2.1065688112e-01
 3.6379525372e-01	 1.9905556880e+00	-1.7753951800e-01
 3.4612611173e-01	 1.9937039777e+00	-1.4267469103e-01
 5.2574946265e-01	 1.9631689684e+00	-4.1524982706e-01
 5.0789977813e-01	 1.9678624673e+00	-3.9272570054e-01
 4.9005248298e-01	 1.9723826669e+00	-3.6964715798e-01
 4.7220991476e-01	 1.9767302641e+00	-3.4572738971e-01
 4.5437438639e-01	 1.9809059941e+00	-3.2071553163e-01
 4.3654818543e-01	 1.9849106297e+00	-2.9439673654e-01
 4.1873357342e-01	 1.9887449807e+00	-2.6659207487e-01
 4.0093278522e-01	 1.9924098927e+00	-2.3715828683e-01
 3.8314802842e-01	 1.9959062466e+00	-2.0598740678e-01
 3.6538148269e-01	 1.9992349577e+00	-1.7300627952e-01
 3.4763529928e-01	 2.0023969746e+00	-1.3817598720e-01
 5.2803189640e-01	 1.9716916650e+00	-4.0758519570e-01
 5.1010472113e-01	 1.9764055397e+00	-3.8532432331e-01
 4.9217994560e-01	 1.9809453628e+00	-3.6258735565e-01
 4.7425991752e-01	 1.9853118343e+00	-3.3905775550e-01
 4.5634695985e-01	 1.9895056923e+00	-3.1445760212e-01
 4.3844337008e-01	 1.9935277133e+00	-2.8854755884e-01
 4.2055141958e-01	 1.9973787103e+00	-2.6112666996e-01
 4.0267335290e-01	 2.0010595327e+00	-2.3203200915e-01
 3.8481138722e-01	 2.0045710654e+00	-2.0113820114e-01
 3.6696771167e-01	 2.0079142273e+00	-1.6835683699e-01
 3.4914448683e-01	 2.0110899715e+00	-1.3363580201e-01
 5.3031433016e-01	 1.9802143615e+00	-3.9968174547e-01
 5.1230966413e-01	 1.9849486121e+00	-3.7761352633e-01
 4.9430740822e-01	 1.9895080588e+00	-3.5516859175e-01
 4.7630992028e-01	 1.9938934044e+00	-3.3199898896e-01
 4.5831953331e-01	 1.9981053905e+00	-3.0779832933e-01
 4.4033855474e-01	 2.0021447968e+00	-2.8230164523e-01
 4.2236926574e-01	 2.0060124398e+00	-2.5528507551e-01
 4.0441392058e-01	 2.0097091728e+00	-2.2656540292e-01
 3.8647474601e-01	 2.0132358841e+00	-1.9599946560e-01
 3.6855394064e-01	 2.0165934970e+00	-1.6348346375e-01
 3.5065367438e-01	 2.0197829684e+00	-1.2895218102e-01
 5.3259676391e-01	 1.9887370581e+00	-3.9154405514e-01
 5.1451460713e-01	 1.9934916845e+00	-3.6957130360e-01
 4.9643487084e-01	 1.9980707547e+00	-3.4734575274e-01
 4.7835992304e-01	 2.0024749745e+00	-3.2448637882e-01
 4.6029210677e-01	 2.0067050887e+00	-3.0065694376e-01
 4.4223373939e-01	 2.0107618803e+00	-2.7556573388e-01
 4.2418711190e-01	 2.0146461694e+00	-2.4896512671e-01
 4.0615448827e-01	 2.0183588128e+00	-2.2065100981e-01
 3.8813810481e-01	 2.0219007028e+00	-1.9046207469e-01
 3.7014016961e-01	 2.0252727667e+00	-1.5827900720e-01
 3.5216286193e-01	 2.0284759653e+00	-1.2402359494e-01
 3.3707098643e-01	 1.9415459962e+00	-1.7455775006e-01
 3.1988297537e-01	 1.9444517253e+00	-1.4148551840e-01
 3.0271880770e-01	 1.9471977040e+00	-1.1092501830e-01
 2.8558048894e-01	 1.9497849434e+00	-8.2738156135e-02
 2.6846999499e-01	 1.9522144839e+00	-5.6824095005e-02
 2.5138927171e-01	 1.9544873939e+00	-3.3118948612e-02
 2.3434023454e-01	 1.9566047694e+00	-1.1595422768e-02
 2.1732476813e-01	 1.9585677328e+00	 7.7375866034e-03
 2.0034472601e-01	 1.9603774320e+00	 2.4835431024e-02
 1.8340193024e-01	 1.9620350399e+00	 3.9618175570e-02
 1.6649817121e-01	 1.9635417532e+00	 5.1971087415e-02
 3.3858017398e-01	 1.9502389931e+00	-1.6814361061e-01
 3.2131520604e-01	 1.9531577322e+00	-1.3475739524e-01
 3.0407418824e-01	 1.9559160056e+00	-1.0392232708e-01
 2.8685913508e-01	 1.9585148290e+00	-7.5503174998e-02
 2.6967203132e-01	 1.9609552474e+00	-4.9402705070e-02
 2.5251483153e-01	 1.9632383341e+00	-2.5561313906e-02
 2.3538945972e-01	 1.9653651898e+00	-3.9566135339e-03
 2.1829780897e-01	 1.9673369421e+00	 1.5397023128e-02
 2.0124174111e-01	 1.9691547440e+00	 3.2448948143e-02
 1.8422308638e-01	 1.9708197736e+00	 4.7112748700e-02
 1.6724364317e-01	 1.9723332330e+00	 5.9266775366e-02
 3.4008936153e-01	 1.9589319900e+00	-1.6230841570e-01
 3.2274743671e-01	 1.9618637391e+00	-1.2863757891e-01
 3.0542956878e-01	 1.9646343072e+00	-9.7554204545e-02
 2.8813778123e-01	 1.9672447146e+00	-6.8926112833e-02
 2.7087406766e-01	 1.9696960109e+00	-4.2659736276e-02
 2.5364039135e-01	 1.9719892742e+00	-1.8699693255e-02
 2.3643868489e-01	 1.9741256102e+00	 2.9716826039e-03
 2.1927084980e-01	 1.9761061514e+00	 2.2334848099e-02
 2.0213875621e-01	 1.9779320560e+00	 3.9333582983e-02
 1.8504424252e-01	 1.9796045073e+00	 5.3875542223e-02
 1.6798911512e-01	 1.9811247128e+00	 6.5832821809e-02
 3.4159854908e-01	 1.9676249869e+00	-1.5694774226e-01
 3.2417966737e-01	 1.9705697460e+00	-1.2302973593e-01
 3.0678494932e-01	 1.9733526089e+00	-9.1731253031e-02
 2.8941642738e-01	 1.9759746003e+00	-6.2923370102e-02
 2.7207610400e-01	 1.9784367745e+00	-3.6516265296e-02
 2.5476595117e-01	 1.9807402144e+00	-1.2458733005e-02
 2.3748791006e-01	 1.9828860307e+00	 9.2623412146e-03
 2.2024389064e-01	 1.9848753607e+00	 2.8622536101e-02
 2.0303577132e-01	 1.9867093680e+00	 4.5560472258e-02
 1.8586539866e-01	 1.9883892410e+00	 5.9978404637e-02
 1.6873458708e-01	 1.9899161926e+00	 7.1742823753e-02
 3.4310773663e-01	 1.9763179838e+00	-1.5195757090e-01
 3.2561189804e-01	 1.9792757529e+00	-1.1783777839e-01
 3.0814032986e-01	 1.9820709105e+00	-8.6364196137e-02
 2.9069507353e-01	 1.9847044859e+00	-5.7411378279e-02
 2.7327814034e-01	 1.9871775380e+00	-3.0893343759e-02
 2.5589151099e-01	 1.9894911546e+00	-6.7630327213e-03
 2.3853713524e-01	 1.9916464511e+00	 1.4988271988e-02
 2.2121693148e-01	 1.9936445700e+00	 3.4331548746e-02
 2.0393278642e-01	 1.9954866800e+00	 5.1200658172e-02
 1.8668655480e-01	 1.9971739747e+00	 6.5492973984e-02
 1.6948005903e-01	 1.9987076723e+00	 7.7070017483e-02
 3.4461692418e-01	 1.9850109807e+00	-1.4723428847e-01
 3.2704412871e-01	 1.9879817598e+00	-1.1296586657e-01
 3.0949571040e-01	 1.9907892121e+00	-8.1363880988e-02
 2.9197371968e-01	 1.9934343715e+00	-5.2306601255e-02
 2.7448017667e-01	 1.9959183016e+00	-2.5711998332e-02
 2.5701707081e-01	 1.9982420948e+00	-1.5371434695e-03
 2.3958636041e-01	 2.0004068715e+00	 2.0222422715e-02
 2.2218997231e-01	 2.0024137793e+00	 3.9533341364e-02
 2.0482980153e-01	 2.0042639920e+00	 5.6325098287e-02
 1.8750771094e-01	 2.0059587084e+00	 7.0490691341e-02
 1.7022553099e-01	 2.0074991521e+00	 8.1887296105e-02
 3.4612611173e-01	 1.9937039777e+00	-1.4267469103e-01
 3.2847635937e-01	 1.9966877667e+00	-1.0831841197e-01
 3.1085109094e-01	 1.9995075137e+00	-7.6641280849e-02
 2.9325236582e-01	 2.0021642571e+00	-4.7525537078e-02
 2.7568221301e-01	 2.0046590651e+00	-2.0893231115e-02
 2.5814263063e-01	 2.0069930350e+00	 3.2944335726e-03
 2.4063558559e-01	 2.0091672920e+00	 2.5037782914e-02
 2.2316301315e-01	 2.0111829887e+00	 4.4299369320e-02
 2.0572681663e-01	 2.0130413039e+00	 6.1004674946e-02
 1.8832886708e-01	 2.0147434421e+00	 7.5042813802e-02
 1.7097100294e-01	 2.0162906319e+00	 8.6267226510e-02
 3.4763529928e-01	 2.0023969746e+00	-1.3817598720e-01
 3.2990859004e-01	 2.0053937736e+00	-1.0380008071e-01
 3.1220647148e-01	 2.0082258154e+00	-7.2107498070e-02
 2.9453101197e-01	 2.0108941428e+00	-4.2984719998e-02
 2.7688424935e-01	 2.0133998287e+00	-1.6358020354e-02
 2.5926819046e-01	 2.0157439751e+00	 7.8072481865e-03
 2.4168481076e-01	 2.0179277124e+00	 2.9507387116e-02
 2.2413605399e-01	 2.0199521980e+00	 4.8701093937e-02
 2.0662383174e-01	 2.0218186159e+00	 6.5310204282e-02
 1.8915002322e-01	 2.0235281758e+00	 7.9220426965e-02
 1.7171647490e-01	 2.0250821117e+00	 9.0282065769e-02
 3.4914448683e-01	 2.0110899715e+00	-1.3363580201e-01
 3.3134082071e-01	 2.0140997805e+00	-9.9315797274e-02
 3.1356185202e-01	 2.0169441170e+00	-6.7673767353e-02
 2.9580965812e-01	 2.0196240284e+00	-3.8600722824e-02
 2.7808628569e-01	 2.0221405922e+00	-1.2027321448e-02
 2.6039375028e-01	 2.0244949153e+00	 1.2076901875e-02
 2.4273403594e-01	 2.0266881328e+00	 3.3704317822e-02
 2.2510909482e-01	 2.0287214073e+00	 5.2809988067e-02
 2.0752084685e-01	 2.0305959279e+00	 6.9312444799e-02
 1.8997117936e-01	 2.0323129095e+00	 8.3094456949e-02
 1.7246194685e-01	 2.0338735915e+00	 9.4003776977e-02
 3.5065367438e-01	 2.0197829684e+00	-1.2895218102e-01
 3.3277305137e-01	 2.0228057874e+00	-9.4770748608e-02
 3.1491723256e-01	 2.0256624186e+00	-6.3251459348e-02
 2.9708830427e-01	 2.0283539140e+00	-3.4290159578e-02
 2.7928832202e-01	 2.0308813558e+00	-7.8220682554e-03
 2.6151931010e-01	 2.0332458555e+00	 1.6179048324e-02
 2.4378326111e-01	 2.0354485532e+00	 3.7701708134e-02
 2.2608213566e-01	 2.0374906166e+00	 5.6697541299e-02
 2.0841786195e-01	 2.0393732399e+00	 7.3082105559e-02
 1.9079233550e-01	 2.0410976432e+00	 8.6735681948e-02
 1.7320741881e-01	 2.0426650713e+00	 9.7504044563e-02
 3.5216286193e-01	 2.0284759653e+00	-1.2402359494e-01
 3.3420528204e-01	 2.0315117943e+00	-9.0070388566e-02
 3.1627261310e-01	 2.0343807202e+00	-5.8752084539e-02
 2.9836695041e-01	 2.0370837996e+00	-2.9969688438e-02
 2.8049035836e-01	 2.0396221193e+00	-3.6631746745e-03
 2.6264486992e-01	 2.0419967957e+00	 2.0189393574e-02
 2.4483248629e-01	 2.0442089737e+00	 4.1572744085e-02
 2.2705517649e-01	 2.0462598259e+00	 6.0435264826e-02
 2.0931487706e-01	 2.0481505519e+00	 7.6689853976e-02
 1.9161349164e-01	 2.0498823769e+00	 9.0214743336e-02
 1.7395289077e-01	 2.0514565511e+00	 1.0085428908e-01
 1.6649817121e-01	 1.9635417532e+00	 5.1971087415e-02
 1.4963806351e-01	 1.9648985734e+00	 6.2944693920e-02
 1.3282042303e-01	 1.9661070104e+00	 7.3604263696e-02
 1.1604690430e-01	 1.9671683262e+00	 8.3805847901e-02
 9.9319130298e-02	 1.9680838035e+00	 9.3379190584e-02
 8.2638692297e-02	 1.9688547442e+00	 1.0212797306e-01
 6.6007149700e-02	 1.9694824691e+00	 1.0983006020e-01
 4.9426029929e-02	 1.9699683169e+00	 1.1623774821e-01
 3.2896828315e-02	 1.9703136434e+00	 1.2107801426e-01
 1.6421008026e-02	 1.9705198204e+00	 1.2405276843e-01
 0.0000000000e+00	 1.9705882353e+00	 1.2483910931e-01
 1.6724364317e-01	 1.9723332330e+00	 5.9266775366e-02
 1.5030804672e-01	 1.9736961282e+00	 7.0023856232e-02
 1.3341510764e-01	 1.9749099758e+00	 8.0512888275e-02
 1.1656648786e-01	 1.9759760435e+00	 9.0584864930e-02
 9.9763817621e-02	 1.9768956197e+00	 1.0006454748e-01
 8.3008695325e-02	 1.9776700121e+00	 1.0875071343e-01
 6.6302687354e-02	 1.9783005476e+00	 1.1641640278e-01
 4.9647327970e-02	 1.9787885708e+00	 1.2280916210e-01
 3.3044119200e-02	 1.9791354434e+00	 1.2765128667e-01
 1.6494530761e-02	 1.9793425435e+00	 1.3064006170e-01
 0.0000000000e+00	 1.9794112647e+00	 1.3144800410e-01
 1.6798911512e-01	 1.9811247128e+00	 6.5832821809e-02
 1.5097802994e-01	 1.9824936829e+00	 7.6383641334e-02
 1.3400979225e-01	 1.9837129411e+00	 8.6723034940e-02
 1.1708607142e-01	 1.9847837608e+00	 9.6696707154e-02
 1.0020850495e-01	 1.9857074358e+00	 1.0612407050e-01
 8.3378698353e-02	 1.9864852801e+00	 1.1479850193e-01
 6.6598225009e-02	 1.9871186261e+00	 1.2248759309e-01
 4.9868626012e-02	 1.9876088246e+00	 1.2893339448e-01
 3.3191410085e-02	 1.9879572433e+00	 1.3385265402e-01
 1.6568053497e-02	 1.9881652666e+00	 1.3693705134e-01
 0.0000000000e+00	 1.9882342941e+00	 1.3785342915e-01
 1.6873458708e-01	 1.9899161926e+00	 7.1742823753e-02
 1.5164801315e-01	 1.9912912377e+00	 8.2098431842e-02
 1.3460447687e-01	 1.9925159065e+00	 9.2306927466e-02
 1.1760565498e-01	 1.9935914780e+00	 1.0220851060e-01
 1.0065319227e-01	 1.9945192520e+00	 1.1161689721e-01
 8.3748701382e-02	 1.9953005480e+00	 1.2031958777e-01
 6.6893762664e-02	 1.9959367046e+00	 1.2807812540e-01
 5.0089924054e-02	 1.9964290784e+00	 1.3462834396e-01
 3.3338700970e-02	 1.9967790433e+00	 1.3968060684e-01
 1.6641576232e-02	 1.9969879897e+00	 1.4292003779e-01
 0.0000000000e+00	 1.9970573235e+00	 1.4400674577e-01
 1.6948005903e-01	 1.9987076723e+00	 7.7070017483e-02
 1.5231799636e-01	 2.0000887924e+00	 8.7242100140e-02
 1.3519916148e-01	 2.0013188718e+00	 9.7336165444e-02
 1.1812523854e-01	 2.0023991953e+00	 1.0718670841e-01
 1.0109787960e-01	 2.0033310682e+00	 1.1660141858e-01
 8.4118704411e-02	 2.0041158160e+00	 1.2536146454e-01
 6.7189300319e-02	 2.0047547831e+00	 1.3322176378e-01
 5.0311222096e-02	 2.0052493322e+00	 1.3991123849e-01
 3.3485991856e-02	 2.0056008432e+00	 1.4513305822e-01
 1.6715098968e-02	 2.0058107128e+00	 1.4856487098e-01
 0.0000000000e+00	 2.0058803529e+00	 1.4985902487e-01
 1.7022553099e-01	 2.0074991521e+00	 8.1887296105e-02
 1.5298797958e-01	 2.0088863472e+00	 9.1888029663e-02
 1.3579384609e-01	 2.0101218372e+00	 1.0188174820e-01
 1.1864482210e-01	 2.0112069125e+00	 1.1169705635e-01
 1.0154256692e-01	 2.0121428843e+00	 1.2113530499e-01
 8.4488707440e-02	 2.0129310839e+00	 1.2997089560e-01
 6.7484837975e-02	 2.0135728616e+00	 1.3795156574e-01
 5.0532520139e-02	 2.0140695860e+00	 1.4479865617e-01
 3.3633282741e-02	 2.0144226432e+00	 1.5020736100e-01
 1.6788621704e-02	 2.0146334358e+00	 1.5384696255e-01
 0.0000000000e+00	 2.0147033823e+00	 1.5536105325e-01
 1.7097100294e-01	 2.0162906319e+00	 8.6267226510e-02
 1.5365796279e-01	 2.0176839020e+00	 9.6109135513e-02
 1.3638853071e-01	 2.0189248026e+00	 1.0601409801e-01
 1.1916440566e-01	 2.0200146298e+00	 1.1580465751e-01
 1.0198725425e-01	 2.0209547005e+00	 1.2527553133e-01
 8.4858710470e-02	 2.0217463519e+00	 1.3419393865e-01
 6.7780375630e-02	 2.0223909401e+00	 1.4229990525e-01
 5.0753818181e-02	 2.0228898398e+00	 1.4930654567e-01
 3.3780573627e-02	 2.0232444432e+00	 1.5490032438e-01
 1.6862144440e-02	 2.0234561589e+00	 1.5874129779e-01
 0.0000000000e+00	 2.0235264118e+00	 1.6046333986e-01
 1.7171647490e-01	 2.0250821117e+00	 9.0282065769e-02
 1.5432794601e-01	 2.0264814567e+00	 9.9977884447e-02
 1.3698321532e-01	 2.0277277679e+00	 1.0980308263e-01
 1.1968398923e-01	 2.0288223470e+00	 1.1957398638e-01
 1.0243194157e-01	 2.0297665167e+00	 1.2907840163e-01
 8.5228713499e-02	 2.0305616198e+00	 1.3807596972e-01
 6.8075913286e-02	 2.0312090186e+00	 1.4629849508e-01
 5.0975116224e-02	 2.0317100936e+00	 1.5345024595e-01
 3.3927864512e-02	 2.0320662431e+00	 1.5920823008e-01
 1.6935667176e-02	 2.0322788820e+00	 1.6322244725e-01
 0.0000000000e+00	 2.0323494412e+00	 1.6511612181e-01
 1.7246194685e-01	 2.0338735915e+00	 9.4003776977e-02
 1.5499792922e-01	 2.0352790115e+00	 1.0356631423e-01
 1.3757789993e-01	 2.0365307333e+00	 1.1331803715e-01
 1.2020357279e-01	 2.0376300643e+00	 1.2306891214e-01
 1.0287662890e-01	 2.0385783329e+00	 1.3259957278e-01
 8.5598716529e-02	 2.0393768878e+00	 1.4166170646e-01
 6.8371450941e-02	 2.0400270971e+00	 1.4997840861e-01
 5.1196414266e-02	 2.0405303474e+00	 1.5724450559e-01
 3.4075155398e-02	 2.0408880431e+00	 1.6312684817e-01
 1.7009189911e-02	 2.0411016051e+00	 1.6726457801e-01
 0.0000000000e+00	 2.0411724706e+00	 1.6926937022e-01
 1.7320741881e-01	 2.0426650713e+00	 9.7504044563e-02
 1.5566791243e-01	 2.0440765662e+00	 1.0694605241e-01
 1.3817258455e-01	 2.0453336986e+00	 1.1662778519e-01
 1.2072315635e-01	 2.0464377815e+00	 1.2635272140e-01
 1.0332131622e-01	 2.0473901490e+00	 1.3589407778e-01
 8.5968719558e-02	 2.0481921557e+00	 1.4499523081e-01
 6.8666988596e-02	 2.0488451756e+00	 1.5337010104e-01
 5.1417712308e-02	 2.0493506013e+00	 1.6070350152e-01
 3.4222446283e-02	 2.0497098431e+00	 1.6665145244e-01
 1.7082712647e-02	 2.0499243282e+00	 1.7084146475e-01
 0.0000000000e+00	 2.0499955000e+00	 1.7287279598e-01
 1.7395289077e-01	 2.0514565511e+00	 1.0085428908e-01
 1.5633789565e-01	 2.0528741210e+00	 1.1018833448e-01
 1.3876726916e-01	 2.0541366640e+00	 1.1980065956e-01
 1.2124273991e-01	 2.0552454988e+00	 1.2948814021e-01
 1.0376600355e-01	 2.0562019652e+00	 1.3901634820e-01
 8.6338722586e-02	 2.0570074237e+00	 1.4812001105e-01
 6.8962526251e-02	 2.0576632541e+00	 1.5650342999e-01
 5.1639010350e-02	 2.0581708551e+00	 1.6384085727e-01
 3.4369737168e-02	 2.0585316430e+00	 1.6977683530e-01
 1.7156235382e-02	 2.0587470513e+00	 1.7392650048e-01
 0.0000000000e+00	 2.0588185294e+00	 1.7587585530e-01
 2.0588185294e+00	 0.0000000000e+00	 2.7149273761e+00
 2.0587470513e+00	 1.7156235382e-02	 2.7145298985e+00
 2.0585316430e+00	 3.4369737168e-02	 2.7118961818e+00
 2.0581708551e+00	 5.1639010350e-02	 2.7069157296e+00
 2.0576632541e+00	 6.8962526251e-02	 2.6995017457e+00
 2.0570074237e+00	 8.6338722586e-02	 2.6895900362e+00
 2.0562019652e+00	 1.0376600355e-01	 2.6771379617e+00
 2.0552454988e+00	 1.2124273991e-01	 2.6621234477e+00
 2.0541366640e+00	 1.3876726916e-01	 2.6445440598e+00
 2.0528741210e+00	 1.5633789565e-01	 2.6244161529e+00
 2.0514565511e+00	 1.7395289077e-01	 2.6017740989e+00
 2.0676430588e+00	 0.0000000000e+00	 2.6990756267e+00
 2.0675712743e+00	 1.7229770617e-02	 2.6985841245e+00
 2.0673549428e+00	 3.4517053093e-02	 2.6958726688e+00
 2.0669926084e+00	 5.1860346014e-02	 2.6908327773e+00
 2.0664828318e+00	 6.9258114149e-02	 2.6833788783e+00
 2.0658241903e+00	 8.6708788518e-02	 2.6734471783e+00
 2.0650152795e+00	 1.0421076647e-01	 2.6609945833e+00
 2.0640547134e+00	 1.2176241180e-01	 2.6459976804e+00
 2.0629411260e+00	 1.3936205487e-01	 2.6284517886e+00
 2.0616731714e+00	 1.5700799276e-01	 2.6083700849e+00
 2.0602495255e+00	 1.7469848946e-01	 2.5857828145e+00
 2.0764675882e+00	 0.0000000000e+00	 2.6832238787e+00
 2.0763954974e+00	 1.7303305852e-02	 2.6826746057e+00
 2.0761782425e+00	 3.4664369019e-02	 2.6799148296e+00
 2.0758143618e+00	 5.2081681678e-02	 2.6748393248e+00
 2.0753024094e+00	 6.9553702047e-02	 2.6673649582e+00
 2.0746409569e+00	 8.7078854450e-02	 2.6574295210e+00
 2.0738285937e+00	 1.0465552940e-01	 2.6449906163e+00
 2.0728639281e+00	 1.2228208370e-01	 2.6300246114e+00
 2.0717455879e+00	 1.3995684059e-01	 2.6125256604e+00
 2.0704722218e+00	 1.5767808988e-01	 2.5925048074e+00
 2.0690424999e+00	 1.7544408815e-01	 2.5699891758e+00
 2.0852921176e+00	 0.0000000000e+00	 2.6673564084e+00
 2.0852197204e+00	 1.7376841086e-02	 2.6667821430e+00
 2.0850015423e+00	 3.4811684943e-02	 2.6640000364e+00
 2.0846361151e+00	 5.2303017341e-02	 2.6589093510e+00
 2.0841219871e+00	 6.9849289945e-02	 2.6514305955e+00
 2.0834577236e+00	 8.7448920382e-02	 2.6415043180e+00
 2.0826419080e+00	 1.0510029232e-01	 2.6290899595e+00
 2.0816731427e+00	 1.2280175559e-01	 2.6141647729e+00
 2.0805500499e+00	 1.4055162630e-01	 2.5967228175e+00
 2.0792712723e+00	 1.5834818700e-01	 2.5767740359e+00
 2.0778354743e+00	 1.7618968684e-01	 2.5543434214e+00
 2.0941166470e+00	 0.0000000000e+00	 2.6514580284e+00
 2.0940439435e+00	 1.7450376320e-02	 2.6508880673e+00
 2.0938248420e+00	 3.4959000868e-02	 2.6481061898e+00
 2.0934578684e+00	 5.2524353004e-02	 2.6430173678e+00
 2.0929415647e+00	 7.0144877842e-02	 2.6355469433e+00
 2.0922744902e+00	 8.7818986313e-02	 2.6256393832e+00
 2.0914552223e+00	 1.0554505525e-01	 2.6132570944e+00
 2.0904823574e+00	 1.2332142749e-01	 2.5983793093e+00
 2.0893545118e+00	 1.4114641202e-01	 2.5810010497e+00
 2.0880703227e+00	 1.5901828411e-01	 2.5611321756e+00
 2.0866284488e+00	 1.7693528553e-01	 2.5387965291e+00
 2.1029411764e+00	 0.0000000000e+00	 2.6355140764e+00
 2.1028681665e+00	 1.7523911554e-02	 2.6349742281e+00
 2.1026481418e+00	 3.5106316793e-02	 2.6322117086e+00
 2.1022796218e+00	 5.2745688667e-02	 2.6271384095e+00
 2.1017611424e+00	 7.0440465740e-02	 2.6196856881e+00
 2.1010912568e+00	 8.8189052244e-02	 2.6098030797e+00
 2.1002685365e+00	 1.0598981817e-01	 2.5974570742e+00
 2.0992915720e+00	 1.2384109938e-01	 2.5826299656e+00
 2.0981589738e+00	 1.4174119773e-01	 2.5653187829e+00
 2.0968693731e+00	 1.5968838123e-01	 2.5455343099e+00
 2.0954214232e+00	 1.7768088423e-01	 2.5233002033e+00
 2.1117657059e+00	 0.0000000000e+00	 2.6195104043e+00
 2.1116923896e+00	 1.7597446789e-02	 2.6190229830e+00
 2.1114714416e+00	 3.5253632717e-02	 2.6162955186e+00
 2.1111013751e+00	 5.2967024330e-02	 2.6112480229e+00
 2.1105807201e+00	 7.0736053637e-02	 2.6038190391e+00
 2.1099080235e+00	 8.8559118175e-02	 2.5939643100e+00
 2.1090818508e+00	 1.0643458110e-01	 2.5816555140e+00
 2.1081007867e+00	 1.2436077128e-01	 2.5668790770e+00
 2.1069634357e+00	 1.4233598344e-01	 2.5496350680e+00
 2.1056684235e+00	 1.6035847835e-01	 2.5299361886e+00
 2.1042143976e+00	 1.7842648292e-01	 2.5078068629e+00
 2.1205902353e+00	 0.0000000000e+00	 2.6034333675e+00
 2.1205166126e+00	 1.7670982023e-02	 2.6030171874e+00
 2.1202947413e+00	 3.5400948642e-02	 2.6003370432e+00
 2.1199231285e+00	 5.3188359993e-02	 2.5953222572e+00
 2.1194002977e+00	 7.1031641534e-02	 2.5879197184e+00
 2.1187247901e+00	 8.8929184106e-02	 2.5780925056e+00
 2.1178951651e+00	 1.0687934402e-01	 2.5658185803e+00
 2.1169100013e+00	 1.2488044317e-01	 2.5510895583e+00
 2.1157678977e+00	 1.4293076916e-01	 2.5339095702e+00
 2.1144674740e+00	 1.6102857546e-01	 2.5142942165e+00
 2.1130073720e+00	 1.7917208161e-01	 2.4922696293e+00
 2.1294147647e+00	 0.0000000000e+00	 2.5872698143e+00
 2.1293408356e+00	 1.7744517257e-02	 2.5869401844e+00
 2.1291180411e+00	 3.5548264567e-02	 2.5843161933e+00
 2.1287448818e+00	 5.3409695656e-02	 2.5793376538e+00
 2.1282198754e+00	 7.1327229432e-02	 2.5719609513e+00
 2.1275415567e+00	 8.9299250037e-02	 2.5621576177e+00
 2.1267084793e+00	 1.0732410695e-01	 2.5499129809e+00
 2.1257192160e+00	 1.2540011506e-01	 2.5352248942e+00
 2.1245723596e+00	 1.4352555487e-01	 2.5181025583e+00
 2.1232665244e+00	 1.6169867258e-01	 2.4985654426e+00
 2.1218003465e+00	 1.7991768030e-01	 2.4766423148e+00
 2.1382392941e+00	 0.0000000000e+00	 2.5710070759e+00
 2.1381650587e+00	 1.7818052492e-02	 2.5707757949e+00
 2.1379413408e+00	 3.5695580492e-02	 2.5682133573e+00
 2.1375666352e+00	 5.3631031320e-02	 2.5632712376e+00
 2.1370394530e+00	 7.1622817330e-02	 2.5559164566e+00
 2.1363583234e+00	 8.9669315969e-02	 2.5461301072e+00
 2.1355217936e+00	 1.0776886987e-01	 2.5339059556e+00
 2.1345284306e+00	 1.2591978696e-01	 2.5192491286e+00
 2.1333768216e+00	 1.4412034059e-01	 2.5021748946e+00
 2.1320655748e+00	 1.6236876970e-01	 2.4827075491e+00
 2.1305933209e+00	 1.8066327899e-01	 2.4608794110e+00
 2.1470638235e+00	 0.0000000000e+00	 2.5546329565e+00
 2.1469892817e+00	 1.7891587727e-02	 2.5545083077e+00
 2.1467646406e+00	 3.5842896417e-02	 2.5520093922e+00
 2.1463883885e+00	 5.3852366984e-02	 2.5471005068e+00
 2.1458590307e+00	 7.1918405228e-02	 2.5397604381e+00
 2.1451750900e+00	 9.0039381901e-02	 2.5299809359e+00
 2.1443351079e+00	 1.0821363280e-01	 2.5177652668e+00
 2.1433376453e+00	 1.2643945885e-01	 2.5031268556e+00
 2.1421812835e+00	 1.4471512630e-01	 2.4860880248e+00
 2.1408646252e+00	 1.6303886681e-01	 2.4666788411e+00
 2.1393862953e+00	 1.8140887769e-01	 2.4449360782e+00
 2.0514565511e+00	 1.7395289077e-01	 2.6017740989e+00
 2.0498823769e+00	 1.9161349164e-01	 2.5770468462e+00
 2.0481505519e+00	 2.0931487706e-01	 2.5505901816e+00
 2.0462598259e+00	 2.2705517649e-01	 2.5223399186e+00
 2.0442089737e+00	 2.4483248629e-01	 2.4922454161e+00
 2.0419967957e+00	 2.6264486992e-01	 2.4602694910e+00
 2.0396221193e+00	 2.8049035836e-01	 2.4263884564e+00
 2.0370837996e+00	 2.9836695041e-01	 2.3905922915e+00
 2.0343807202e+00	 3.1627261310e-01	 2.3528849473e+00
 2.0315117943e+00	 3.3420528204e-01	 2.3132847931e+00
 2.0284759653e+00	 3.5216286193e-01	 2.2718252076e+00
 2.0602495255e+00	 1.7469848946e-01	 2.5857828145e+00
 2.0586686040e+00	 1.9243478738e-01	 2.5611116215e+00
 2.0569293561e+00	 2.1021204466e-01	 2.5347113094e+00
 2.0550305261e+00	 2.2802838276e-01	 2.5065215569e+00
 2.0529708834e+00	 2.4588188984e-01	 2.4764945118e+00
 2.0507492236e+00	 2.6377062109e-01	 2.4445946894e+00
 2.0483643689e+00	 2.8169259905e-01	 2.4107990011e+00
 2.0458151694e+00	 2.9964581394e-01	 2.3750969192e+00
 2.0431005041e+00	 3.1762822406e-01	 2.3374907809e+00
 2.0402192813e+00	 3.3563775620e-01	 2.2979962383e+00
 2.0371704401e+00	 3.5367230605e-01	 2.2566428576e+00
 2.0690424999e+00	 1.7544408815e-01	 2.5699891758e+00
 2.0674548312e+00	 1.9325608313e-01	 2.5453925573e+00
 2.0657081603e+00	 2.1110921227e-01	 2.5190672996e+00
 2.0638012263e+00	 2.2900158902e-01	 2.4909565252e+00
 2.0617327932e+00	 2.4693129339e-01	 2.4610147256e+00
 2.0595016515e+00	 2.6489637227e-01	 2.4292076460e+00
 2.0571066184e+00	 2.8289483975e-01	 2.3955123049e+00
 2.0545465392e+00	 3.0092467747e-01	 2.3599171540e+00
 2.0518202879e+00	 3.1898383503e-01	 2.3224223820e+00
 2.0489267683e+00	 3.3707023036e-01	 2.2830403688e+00
 2.0458649149e+00	 3.5518175017e-01	 2.2417962930e+00
 2.0778354743e+00	 1.7618968684e-01	 2.5543434214e+00
 2.0762410584e+00	 1.9407737887e-01	 2.5298366082e+00
 2.0744869645e+00	 2.1200637987e-01	 2.5036022709e+00
 2.0725719264e+00	 2.2997479528e-01	 2.4755865590e+00
 2.0704947030e+00	 2.4798069694e-01	 2.4457458657e+00
 2.0682540794e+00	 2.6602212344e-01	 2.4140467006e+00
 2.0658488680e+00	 2.8409708044e-01	 2.3804657009e+00
 2.0632779090e+00	 3.0220354100e-01	 2.3449897862e+00
 2.0605400717e+00	 3.2033944599e-01	 2.3076164639e+00
 2.0576342553e+00	 3.3850270451e-01	 2.2683542875e+00
 2.0545593897e+00	 3.5669119430e-01	 2.2272234744e+00
 2.0866284488e+00	 1.7693528553e-01	 2.5387965291e+00
 2.0850272856e+00	 1.9489867461e-01	 2.5143915198e+00
 2.0832657688e+00	 2.1290354748e-01	 2.4882611837e+00
 2.0813426266e+00	 2.3094800154e-01	 2.4603542838e+00
 2.0792566128e+00	 2.4903010049e-01	 2.4306286770e+00
 2.0770065074e+00	 2.6714787462e-01	 2.3990511747e+00
 2.0745911176e+00	 2.8529932113e-01	 2.3655975461e+00
 2.0720092788e+00	 3.0348240453e-01	 2.3302526701e+00
 2.0692598555e+00	 3.2169505696e-01	 2.2930108410e+00
 2.0663417423e+00	 3.3993517867e-01	 2.2538762333e+00
 2.0632538645e+00	 3.5820063842e-01	 2.2128635302e+00
 2.0954214232e+00	 1.7768088423e-01	 2.5233002033e+00
 2.0938135128e+00	 1.9571997035e-01	 2.4990058156e+00
 2.0920445730e+00	 2.1380071508e-01	 2.4729898263e+00
 2.0901133268e+00	 2.3192120780e-01	 2.4452032014e+00
 2.0880185226e+00	 2.5007950404e-01	 2.4156048267e+00
 2.0857589353e+00	 2.6827362580e-01	 2.3841613556e+00
 2.0833333671e+00	 2.8650156183e-01	 2.3508472057e+00
 2.0807406486e+00	 3.0476126806e-01	 2.3156447075e+00
 2.0779796393e+00	 3.2305066793e-01	 2.2785444125e+00
 2.0750492293e+00	 3.4136765283e-01	 2.2395455647e+00
 2.0719483393e+00	 3.5971008254e-01	 2.1986567402e+00
 2.1042143976e+00	 1.7842648292e-01	 2.5078068629e+00
 2.1025997400e+00	 1.9654126610e-01	 2.4836287847e+00
 2.1008233772e+00	 2.1469788269e-01	 2.4577348009e+00
 2.0988840269e+00	 2.3289441406e-01	 2.4300776750e+00
 2.0967804324e+00	 2.5112890760e-01	 2.4006168891e+00
 2.0945113632e+00	 2.6939937697e-01	 2.3693184818e+00
 2.0920756167e+00	 2.8770380252e-01	 2.3361550371e+00
 2.0894720184e+00	 3.0604013158e-01	 2.3011058320e+00
 2.0866994232e+00	 3.2440627889e-01	 2.2641571463e+00
 2.0837567163e+00	 3.4280012699e-01	 2.2253027427e+00
 2.0806428141e+00	 3.6121952667e-01	 2.1845445184e+00
 2.1130073720e+00	 1.7917208161e-01	 2.4922696293e+00
 2.1113859671e+00	 1.9736256184e-01	 2.4682104682e+00
 2.1096021814e+00	 2.1559505030e-01	 2.4424435111e+00
 2.1076547271e+00	 2.3386762033e-01	 2.4149229157e+00
 2.1055423421e+00	 2.5217831115e-01	 2.3856083316e+00
 2.1032637911e+00	 2.7052512815e-01	 2.3544647278e+00
 2.1008178662e+00	 2.8890604321e-01	 2.3214623752e+00
 2.0982033881e+00	 3.0731899511e-01	 2.2865769931e+00
 2.0954192070e+00	 3.2576188986e-01	 2.2497900628e+00
 2.0924642033e+00	 3.4423260114e-01	 2.2110893152e+00
 2.0893372889e+00	 3.6272897079e-01	 2.1704693969e+00
 2.1218003465e+00	 1.7991768030e-01	 2.4766423148e+00
 2.1201721943e+00	 1.9818385758e-01	 2.4527016477e+00
 2.1183809856e+00	 2.1649221790e-01	 2.4270641485e+00
 2.1164254273e+00	 2.3484082659e-01	 2.3996849691e+00
 2.1143042519e+00	 2.5322771470e-01	 2.3705235006e+00
 2.1120162190e+00	 2.7165087932e-01	 2.3395431897e+00
 2.1095601158e+00	 2.9010828391e-01	 2.3067115170e+00
 2.1069347579e+00	 3.0859785864e-01	 2.2720001414e+00
 2.1041389908e+00	 3.2711750082e-01	 2.2353852192e+00
 2.1011716903e+00	 3.4566507530e-01	 2.1968479005e+00
 2.0980317637e+00	 3.6423841491e-01	 2.1563750095e+00
 2.1305933209e+00	 1.8066327899e-01	 2.4608794110e+00
 2.1289584215e+00	 1.9900515333e-01	 2.4370538331e+00
 2.1271597898e+00	 2.1738938551e-01	 2.4115456803e+00
 2.1251961274e+00	 2.3581403285e-01	 2.3843107022e+00
 2.1230661617e+00	 2.5427711825e-01	 2.3553076076e+00
 2.1207686470e+00	 2.7277663050e-01	 2.3244978714e+00
 2.1183023654e+00	 2.9131052460e-01	 2.2918457072e+00
 2.1156661277e+00	 3.0987672217e-01	 2.2573182132e+00
 2.1128587746e+00	 3.2847311179e-01	 2.2208856948e+00
 2.1098791773e+00	 3.4709754946e-01	 2.1825221723e+00
 2.1067262385e+00	 3.6574785904e-01	 2.1422060765e+00
 2.1393862953e+00	 1.8140887769e-01	 2.4449360782e+00
 2.1377446487e+00	 1.9982644907e-01	 2.4212192507e+00
 2.1359385941e+00	 2.1828655311e-01	 2.3958378367e+00
 2.1339668276e+00	 2.3678723911e-01	 2.3687477902e+00
 2.1318280715e+00	 2.5532652180e-01	 2.3399067165e+00
 2.1295210749e+00	 2.7390238167e-01	 2.3092736702e+00
 2.1270446149e+00	 2.9251276530e-01	 2.2768091244e+00
 2.1243974975e+00	 3.1115558570e-01	 2.2424751160e+00
 2.1215785585e+00	 3.2982872276e-01	 2.2062355753e+00
 2.1185866643e+00	 3.4853002362e-01	 2.1680568444e+00
 2.1154207133e+00	 3.6725730316e-01	 2.1279083887e+00
 2.0284759653e+00	 3.5216286193e-01	 2.2718252076e+00
 2.0252727667e+00	 3.7014016961e-01	 2.2280415546e+00
 2.0219007028e+00	 3.8813810481e-01	 2.1814859628e+00
 2.0183588128e+00	 4.0615448827e-01	 2.1322658395e+00
 2.0146461694e+00	 4.2418711190e-01	 2.0805104502e+00
 2.0107618803e+00	 4.4223373939e-01	 2.0263723935e+00
 2.0067050887e+00	 4.6029210677e-01	 1.9700292313e+00
 2.0024749745e+00	 4.7835992304e-01	 1.9116852756e+00
 1.9980707547e+00	 4.9643487084e-01	 1.8515735288e+00
 1.9934916845e+00	 5.1451460713e-01	 1.7899577770e+00
 1.9887370581e+00	 5.3259676391e-01	 1.7271348333e+00
 2.0371704401e+00	 3.5367230605e-01	 2.2566428576e+00
 2.0339535119e+00	 3.7172666826e-01	 2.2129795474e+00
 2.0305669947e+00	 3.8980174639e-01	 2.1665731290e+00
 2.0270099233e+00	 4.0789535186e-01	 2.1175274647e+00
 2.0232813668e+00	 4.2600526711e-01	 2.0659675182e+00
 2.0193804288e+00	 4.4412924625e-01	 2.0120408621e+00
 2.0153062490e+00	 4.6226501559e-01	 1.9559193459e+00
 2.0110580036e+00	 4.8041027432e-01	 1.8978009248e+00
 2.0066349064e+00	 4.9856269515e-01	 1.8379116465e+00
 2.0020362093e+00	 5.1671992500e-01	 1.7765077957e+00
 1.9972612035e+00	 5.3487958570e-01	 1.7138781929e+00
 2.0458649149e+00	 3.5518175017e-01	 2.2417962930e+00
 2.0426342571e+00	 3.7331316691e-01	 2.1982537086e+00
 2.0392332865e+00	 3.9146538798e-01	 2.1519962808e+00
 2.0356610339e+00	 4.0963621545e-01	 2.1031252926e+00
 2.0319165642e+00	 4.2782342233e-01	 2.0517623401e+00
 2.0279989773e+00	 4.4602475310e-01	 1.9980508727e+00
 2.0239074092e+00	 4.6423792440e-01	 1.9421578973e+00
 2.0196410327e+00	 4.8246062560e-01	 1.8842758479e+00
 2.0151990580e+00	 5.0069051946e-01	 1.8246246182e+00
 2.0105807341e+00	 5.1892524286e-01	 1.7634537566e+00
 2.0057853490e+00	 5.3716240750e-01	 1.7010448188e+00
 2.0545593897e+00	 3.5669119430e-01	 2.2272234744e+00
 2.0513150023e+00	 3.7489966555e-01	 2.1838031174e+00
 2.0478995784e+00	 3.9312902956e-01	 2.1376956566e+00
 2.0443121444e+00	 4.1137707905e-01	 2.0890007391e+00
 2.0405517615e+00	 4.2964157754e-01	 2.0378375061e+00
 2.0366175258e+00	 4.4792025996e-01	 1.9843461640e+00
 2.0325085695e+00	 4.6621083322e-01	 1.9286897237e+00
 2.0282240618e+00	 4.8451097688e-01	 1.8710559109e+00
 2.0237632097e+00	 5.0281834376e-01	 1.8116592431e+00
 2.0191252589e+00	 5.2113056072e-01	 1.7507432735e+00
 2.0143094945e+00	 5.3944522929e-01	 1.6885829980e+00
 2.0632538645e+00	 3.5820063842e-01	 2.2128635302e+00
 2.0599957475e+00	 3.7648616420e-01	 2.1695680537e+00
 2.0565658702e+00	 3.9479267114e-01	 2.1236127321e+00
 2.0529632550e+00	 4.1311794264e-01	 2.0750964987e+00
 2.0491869589e+00	 4.3145973275e-01	 2.0241369306e+00
 2.0452360743e+00	 4.4981576681e-01	 1.9708718487e+00
 2.0411097297e+00	 4.6818374204e-01	 1.9154610929e+00
 2.0368070908e+00	 4.8656132815e-01	 1.8580884703e+00
 2.0323273614e+00	 5.0494616807e-01	 1.7989638768e+00
 2.0276697837e+00	 5.2333587859e-01	 1.7383255887e+00
 2.0228336400e+00	 5.4172805108e-01	 1.6764427233e+00
 2.0719483393e+00	 3.5971008254e-01	 2.1986567402e+00
 2.0686764927e+00	 3.7807266284e-01	 2.1554899808e+00
 2.0652321620e+00	 3.9645631273e-01	 2.1096902029e+00
 2.0616143656e+00	 4.1485880623e-01	 2.0613565265e+00
 2.0578221563e+00	 4.3327788796e-01	 2.0106058331e+00
 2.0538546228e+00	 4.5171127367e-01	 1.9575743948e+00
 2.0497108899e+00	 4.7015665086e-01	 1.9024196824e+00
 2.0453901199e+00	 4.8861167943e-01	 1.8453223520e+00
 2.0408915130e+00	 5.0707399238e-01	 1.7864884094e+00
 2.0362143085e+00	 5.2554119645e-01	 1.7261515498e+00
 2.0313577855e+00	 5.4401087287e-01	 1.6645756695e+00
 2.0806428141e+00	 3.6121952667e-01	 2.1845445184e+00
 2.0773572379e+00	 3.7965916149e-01	 2.1415115286e+00
 2.0738984539e+00	 3.9811995431e-01	 2.0958719669e+00
 2.0702654761e+00	 4.1659966983e-01	 2.0477260198e+00
 2.0664573537e+00	 4.3509604318e-01	 1.9971907207e+00
 2.0624731713e+00	 4.5360678052e-01	 1.9444016070e+00
 2.0583120502e+00	 4.7212955967e-01	 1.8895145605e+00
 2.0539731490e+00	 4.9066203071e-01	 1.8327078315e+00
 2.0494556647e+00	 5.0920181669e-01	 1.7741842452e+00
 2.0447588333e+00	 5.2774651431e-01	 1.7141735877e+00
 2.0398819309e+00	 5.4629369467e-01	 1.6529351701e+00
 2.0893372889e+00	 3.6272897079e-01	 2.1704693969e+00
 2.0860379832e+00	 3.8124566014e-01	 2.1275764768e+00
 2.0825647457e+00	 3.9978359589e-01	 2.0821031079e+00
 2.0789165867e+00	 4.1834053342e-01	 2.0341514018e+00
 2.0750925511e+00	 4.3691419839e-01	 1.9838393700e+00
 2.0710917198e+00	 4.5550228738e-01	 1.9313026079e+00
 2.0669132104e+00	 4.7410246849e-01	 1.8766961667e+00
 2.0625561781e+00	 4.9271238200e-01	 1.8201966139e+00
 2.0580198164e+00	 5.1132964100e-01	 1.7620042810e+00
 2.0533033581e+00	 5.2995183218e-01	 1.7023456954e+00
 2.0484060764e+00	 5.4857651646e-01	 1.6414761947e+00
 2.0980317637e+00	 3.6423841491e-01	 2.1563750095e+00
 2.0947187284e+00	 3.8283215878e-01	 2.1136297386e+00
 2.0912310376e+00	 4.0144723748e-01	 2.0683298785e+00
 2.0875676972e+00	 4.2008139701e-01	 2.0205803038e+00
 2.0837277484e+00	 4.3873235360e-01	 1.9705008094e+00
 2.0797102683e+00	 4.5739779424e-01	 1.9182278201e+00
 2.0755143707e+00	 4.7607537731e-01	 1.8639162931e+00
 2.0711392072e+00	 4.9476273328e-01	 1.8077418144e+00
 2.0665839680e+00	 5.1345746531e-01	 1.7499028865e+00
 2.0618478829e+00	 5.3215715004e-01	 1.6906234055e+00
 2.0569302219e+00	 5.5085933825e-01	 1.6301553260e+00
 2.1067262385e+00	 3.6574785904e-01	 2.1422060765e+00
 2.1033994736e+00	 3.8441865743e-01	 2.0996173448e+00
 2.0998973294e+00	 4.0311087906e-01	 2.0544996840e+00
 2.0962188078e+00	 4.2182226061e-01	 2.0069615491e+00
 2.0923629458e+00	 4.4055050882e-01	 1.9571253026e+00
 2.0883288168e+00	 4.5929330109e-01	 1.9051289488e+00
 2.0841155309e+00	 4.7804828613e-01	 1.8511280664e+00
 2.0797222362e+00	 4.9681308456e-01	 1.7952979393e+00
 2.0751481197e+00	 5.1558528963e-01	 1.7378358836e+00
 2.0703924078e+00	 5.3436246791e-01	 1.6789637702e+00
 2.0654543674e+00	 5.5314216005e-01	 1.6189307376e+00
 2.1154207133e+00	 3.6725730316e-01	 2.1279083887e+00
 2.1120802188e+00	 3.8600515608e-01	 2.0854864282e+00
 2.1085636212e+00	 4.0477452065e-01	 2.0405610666e+00
 2.1048699183e+00	 4.2356312421e-01	 1.9932451363e+00
 2.1009981432e+00	 4.4236866403e-01	 1.9436643311e+00
 2.0969473653e+00	 4.6118880795e-01	 1.8919589641e+00
 2.0927166911e+00	 4.8002119495e-01	 1.8382859294e+00
 2.0883052653e+00	 4.9886343584e-01	 1.7828208667e+00
 2.0837122714e+00	 5.1771311394e-01	 1.7257605274e+00
 2.0789369326e+00	 5.3656778577e-01	 1.6673253401e+00
 2.0739785129e+00	 5.5542498184e-01	 1.6077621729e+00
 1.9887370581e+00	 5.3259676391e-01	 1.7271348333e+00
 1.9838062098e+00	 5.5067894919e-01	 1.6642361447e+00
 1.9786985165e+00	 5.6875874854e-01	 1.6023499431e+00
 1.9734133965e+00	 5.8683372519e-01	 1.5417671909e+00
 1.9679503103e+00	 6.0490142056e-01	 1.4804362759e+00
 1.9623087615e+00	 6.2295935516e-01	 1.4155346243e+00
 1.9564882968e+00	 6.4100502941e-01	 1.3474265578e+00
 1.9504885074e+00	 6.5903592457e-01	 1.2765084694e+00
 1.9443090295e+00	 6.7704950364e-01	 1.2031924735e+00
 1.9379495447e+00	 6.9504321235e-01	 1.1279059994e+00
 1.9314097810e+00	 7.1301448007e-01	 1.0510912350e+00
 1.9972612035e+00	 5.3487958570e-01	 1.7138781929e+00
 1.9923092207e+00	 5.5303927503e-01	 1.6511721208e+00
 1.9871796347e+00	 5.7119656821e-01	 1.5895092414e+00
 1.9818718615e+00	 5.8934901801e-01	 1.5291809262e+00
 1.9763853595e+00	 6.0749415532e-01	 1.4674776469e+00
 1.9707196297e+00	 6.2562949003e-01	 1.4023784038e+00
 1.9648742173e+00	 6.4375251184e-01	 1.3342781961e+00
 1.9588487116e+00	 6.6186069121e-01	 1.2635872891e+00
 1.9526427471e+00	 6.7995148028e-01	 1.1907309564e+00
 1.9462560043e+00	 6.9802231381e-01	 1.1161490766e+00
 1.9396882097e+00	 7.1607061016e-01	 1.0402955754e+00
 2.0057853490e+00	 5.3716240750e-01	 1.7010448188e+00
 2.0008122315e+00	 5.5539960088e-01	 1.6385592115e+00
 1.9956607529e+00	 5.7363438788e-01	 1.5771395018e+00
 1.9903303266e+00	 5.9186431083e-01	 1.5169880261e+00
 1.9848204086e+00	 6.1008689009e-01	 1.4549312229e+00
 1.9791304980e+00	 6.2829962490e-01	 1.3896525408e+00
 1.9732601378e+00	 6.4649999427e-01	 1.3215582510e+00
 1.9672089157e+00	 6.6468545785e-01	 1.2510692442e+00
 1.9609764647e+00	 6.8285345691e-01	 1.1786207872e+00
 1.9545624638e+00	 7.0100141526e-01	 1.1046621292e+00
 1.9479666384e+00	 7.1912674025e-01	 1.0296559490e+00
 2.0143094945e+00	 5.3944522929e-01	 1.6885829980e+00
 2.0093152423e+00	 5.5775992672e-01	 1.6263468466e+00
 2.0041418710e+00	 5.7607220754e-01	 1.5651924154e+00
 1.9987887916e+00	 5.9437960365e-01	 1.5051371202e+00
 1.9932554577e+00	 6.1267962486e-01	 1.4427659496e+00
 1.9875413662e+00	 6.3096975978e-01	 1.3773313336e+00
 1.9816460583e+00	 6.4924747670e-01	 1.3092475221e+00
 1.9755691199e+00	 6.6751022449e-01	 1.2389428137e+00
 1.9693101823e+00	 6.8575543354e-01	 1.1668593316e+00
 1.9628689233e+00	 7.0398051672e-01	 1.0934526464e+00
 1.9562450671e+00	 7.2218287034e-01	 1.0191912337e+00
 2.0228336400e+00	 5.4172805108e-01	 1.6764427233e+00
 2.0178182531e+00	 5.6012025256e-01	 1.6144862349e+00
 2.0126229892e+00	 5.7851002721e-01	 1.5536215099e+00
 2.0072472567e+00	 5.9689489647e-01	 1.4935945018e+00
 2.0016905068e+00	 6.1527235962e-01	 1.4309523397e+00
 1.9959522344e+00	 6.3363989465e-01	 1.3653906137e+00
 1.9900319788e+00	 6.5199495913e-01	 1.2973282881e+00
 1.9839293240e+00	 6.7033499113e-01	 1.2271978790e+00
 1.9776438999e+00	 6.8865741017e-01	 1.1554452578e+00
 1.9711753828e+00	 7.0695961817e-01	 1.0825292958e+00
 1.9645234958e+00	 7.2523900043e-01	 1.0089213387e+00
 2.0313577855e+00	 5.4401087287e-01	 1.6645756695e+00
 2.0263212640e+00	 5.6248057841e-01	 1.6029303391e+00
 2.0211041074e+00	 5.8094784688e-01	 1.5423821239e+00
 2.0157057217e+00	 5.9941018929e-01	 1.4823280144e+00
 2.0101255559e+00	 6.1786509439e-01	 1.4194624428e+00
 2.0043631027e+00	 6.3631002952e-01	 1.3538077167e+00
 1.9984178993e+00	 6.5474244156e-01	 1.2857842766e+00
 1.9922895281e+00	 6.7315975777e-01	 1.2158256941e+00
 1.9859776175e+00	 6.9155938681e-01	 1.1443785079e+00
 1.9794818423e+00	 7.0993871962e-01	 1.0719018973e+00
 1.9728019245e+00	 7.2829513052e-01	 9.9886717923e-01
 2.0398819309e+00	 5.4629369467e-01	 1.6529351701e+00
 2.0348242748e+00	 5.6484090425e-01	 1.5916338519e+00
 2.0295852256e+00	 5.8338566655e-01	 1.5314313816e+00
 2.0241641867e+00	 6.0192548211e-01	 1.4713070225e+00
 2.0185606050e+00	 6.2045782915e-01	 1.4082698165e+00
 2.0127739709e+00	 6.3898016440e-01	 1.3425614522e+00
 2.0068038198e+00	 6.5748992399e-01	 1.2746006353e+00
 2.0006497323e+00	 6.7598452442e-01	 1.2048188570e+00
 1.9943113351e+00	 6.9446136344e-01	 1.1336602699e+00
 1.9877883018e+00	 7.1291782108e-01	 1.0615813956e+00
 1.9810803532e+00	 7.3135126060e-01	 9.8905065134e-01
 2.0484060764e+00	 5.4857651646e-01	 1.6414761947e+00
 2.0433272856e+00	 5.6720123010e-01	 1.5805531716e+00
 2.0380663437e+00	 5.8582348622e-01	 1.5207281680e+00
 2.0326226518e+00	 6.0444077494e-01	 1.4605023838e+00
 2.0269956541e+00	 6.2305056392e-01	 1.3973494972e+00
 2.0211848391e+00	 6.4165029927e-01	 1.3316320751e+00
 2.0151897403e+00	 6.6023740642e-01	 1.2637639028e+00
 2.0090099364e+00	 6.7880929106e-01	 1.1941712814e+00
 2.0026450527e+00	 6.9736334007e-01	 1.1232929501e+00
 1.9960947613e+00	 7.1589692253e-01	 1.0515798341e+00
 1.9893587819e+00	 7.3440739069e-01	 9.7949460705e-01
 2.0569302219e+00	 5.5085933825e-01	 1.6301553260e+00
 2.0518302965e+00	 5.6956155594e-01	 1.5696463787e+00
 2.0465474619e+00	 5.8826130589e-01	 1.5102330837e+00
 2.0410811168e+00	 6.0695606776e-01	 1.4498864207e+00
 2.0354307032e+00	 6.2564329869e-01	 1.3866779719e+00
 2.0295957074e+00	 6.4432043415e-01	 1.3210012569e+00
 2.0235756608e+00	 6.6298488885e-01	 1.2532619799e+00
 2.0173701406e+00	 6.8163405770e-01	 1.1838781681e+00
 2.0109787703e+00	 7.0026531671e-01	 1.1132801454e+00
 2.0044012208e+00	 7.1887602399e-01	 1.0419103285e+00
 1.9976372106e+00	 7.3746352078e-01	 9.7022282955e-01
 2.0654543674e+00	 5.5314216005e-01	 1.6189307376e+00
 2.0603333073e+00	 5.7192188179e-01	 1.5588732125e+00
 2.0550285801e+00	 5.9069912556e-01	 1.4998688031e+00
 2.0495395819e+00	 6.0947136058e-01	 1.4394328930e+00
 2.0438657523e+00	 6.2823603346e-01	 1.3762331499e+00
 2.0380065756e+00	 6.4699056902e-01	 1.3106520568e+00
 2.0319615813e+00	 6.6573237129e-01	 1.2430841014e+00
 2.0257303447e+00	 6.8445882434e-01	 1.1739359772e+00
 2.0193124879e+00	 7.0316729334e-01	 1.1036266167e+00
 2.0127076804e+00	 7.2185512544e-01	 1.0325870408e+00
 2.0059156394e+00	 7.4051965087e-01	 9.6126000850e-01
 2.0739785129e+00	 5.5542498184e-01	 1.6077621729e+00
 2.0688363181e+00	 5.7428220763e-01	 1.5481950486e+00
 2.0635096983e+00	 5.9313694523e-01	 1.4895685381e+00
 2.0579980469e+00	 6.1198665341e-01	 1.4291169708e+00
 2.0523008014e+00	 6.3082876822e-01	 1.3659943350e+00
 2.0464174439e+00	 6.4966070390e-01	 1.3005688946e+00
 2.0403475018e+00	 6.6847985372e-01	 1.2332208083e+00
 2.0340905489e+00	 6.8728359099e-01	 1.1643424008e+00
 2.0276462055e+00	 7.0606926997e-01	 1.0943382615e+00
 2.0210141399e+00	 7.2483422690e-01	 1.0236251532e+00
 2.0141940681e+00	 7.4357578096e-01	 9.5263171555e-01
 1.9314097810e+00	 7.1301448007e-01	 1.0510912350e+00
 1.9246883549e+00	 7.3096376946e-01	 9.7328815348e-01
 1.9177861838e+00	 7.4888542094e-01	 8.9496839009e-01
 1.9107031366e+00	 7.6677681873e-01	 8.1644121296e-01
 1.9034391305e+00	 7.8463533479e-01	 7.3801273731e-01
 1.8959941319e+00	 8.0245832991e-01	 6.5998447006e-01
 1.8883681565e+00	 8.2024315482e-01	 5.8265168144e-01
 1.8805612704e+00	 8.3798715128e-01	 5.0630160203e-01
 1.8725735898e+00	 8.5568765327e-01	 4.3121144474e-01
 1.8644052817e+00	 8.7334198809e-01	 3.5764625331e-01
 1.8560565644e+00	 8.9094747759e-01	 2.8585658016e-01
 1.9396882097e+00	 7.1607061016e-01	 1.0402955754e+00
 1.9329379741e+00	 7.3409683398e-01	 9.6363739078e-01
 1.9260062189e+00	 7.5209530143e-01	 8.8652129835e-01
 1.9188928123e+00	 7.7006338551e-01	 8.0919142875e-01
 1.9115976711e+00	 7.8799844693e-01	 7.3188996575e-01
 1.9041207617e+00	 8.0589783516e-01	 6.5485579337e-01
 1.8964620998e+00	 8.2375888957e-01	 5.7832296322e-01
 1.8886217517e+00	 8.4157894054e-01	 5.0251897999e-01
 1.8805998342e+00	 8.5935531060e-01	 4.2766290470e-01
 1.8723965150e+00	 8.7708531561e-01	 3.5396327665e-01
 1.8640120133e+00	 8.9476626595e-01	 2.8161585702e-01
 1.9479666384e+00	 7.1912674025e-01	 1.0296559490e+00
 1.9411875934e+00	 7.3722989850e-01	 9.5400876307e-01
 1.9342262540e+00	 7.5530518192e-01	 8.7796262862e-01
 1.9270824880e+00	 7.7334995230e-01	 8.0170479475e-01
 1.9197562117e+00	 7.9136155907e-01	 7.2542168558e-01
 1.9122473914e+00	 8.0933734041e-01	 6.4929763758e-01
 1.9045560431e+00	 8.2727462432e-01	 5.7351345025e-01
 1.8966822330e+00	 8.4517072979e-01	 4.9824474749e-01
 1.8886260786e+00	 8.6302296792e-01	 4.2366014917e-01
 1.8803877483e+00	 8.8082864313e-01	 3.4991925351e-01
 1.8719674623e+00	 8.9858505431e-01	 2.7717043316e-01
 1.9562450671e+00	 7.2218287034e-01	 1.0191912337e+00
 1.9494372126e+00	 7.4036296303e-01	 9.4443219003e-01
 1.9424462891e+00	 7.5851506241e-01	 8.6933128018e-01
 1.9352721636e+00	 7.7663651908e-01	 7.9402701175e-01
 1.9279147524e+00	 7.9472467122e-01	 7.1865810662e-01
 1.9203740212e+00	 8.1277684566e-01	 6.4336231658e-01
 1.9126499863e+00	 8.3079035907e-01	 5.6827504482e-01
 1.9047427143e+00	 8.4876251904e-01	 4.9352777080e-01
 1.8966523230e+00	 8.6669062525e-01	 4.1924627722e-01
 1.8883789816e+00	 8.8457197066e-01	 3.4554867999e-01
 1.8799229113e+00	 9.0240384266e-01	 2.7254326350e-01
 1.9645234958e+00	 7.2523900043e-01	 1.0089213387e+00
 1.9576868319e+00	 7.4349602755e-01	 9.3493847793e-01
 1.9506663242e+00	 7.6172494290e-01	 8.6066692593e-01
 1.9434618393e+00	 7.7992308587e-01	 7.8620447480e-01
 1.9360732930e+00	 7.9808778336e-01	 7.1165008924e-01
 1.9285006510e+00	 8.1621635091e-01	 6.3710278849e-01
 1.9207439296e+00	 8.3430609383e-01	 5.6266032654e-01
 1.9128031956e+00	 8.5235430830e-01	 4.8841766785e-01
 1.9046785674e+00	 8.7035828259e-01	 4.1446525716e-01
 1.8963702150e+00	 8.8831529818e-01	 3.4088708405e-01
 1.8878783602e+00	 9.0622263102e-01	 2.6775854447e-01
 1.9728019245e+00	 7.2829513052e-01	 9.9886717923e-01
 1.9659364512e+00	 7.4662909207e-01	 9.2555929589e-01
 1.9588863593e+00	 7.6493482339e-01	 8.5200998949e-01
 1.9516515150e+00	 7.8320965266e-01	 7.7828425035e-01
 1.9442318336e+00	 8.0145089550e-01	 7.0444912055e-01
 1.9366272808e+00	 8.1965585616e-01	 6.3057263017e-01
 1.9288378728e+00	 8.3782182858e-01	 5.5672252415e-01
 1.9208636769e+00	 8.5594609755e-01	 4.8296477644e-01
 1.9127048118e+00	 8.7402593992e-01	 4.0936189008e-01
 1.9043614483e+00	 8.9205862570e-01	 3.3597098350e-01
 1.8958338092e+00	 9.1004141937e-01	 2.6284166525e-01
 1.9810803532e+00	 7.3135126060e-01	 9.8905065134e-01
 1.9741860704e+00	 7.4976215659e-01	 9.1632715230e-01
 1.9671063944e+00	 7.6814470388e-01	 8.4340162230e-01
 1.9598411907e+00	 7.8649621944e-01	 7.7031405329e-01
 1.9523903742e+00	 8.0481400765e-01	 6.9710729058e-01
 1.9447539106e+00	 8.2309536141e-01	 6.2382601160e-01
 1.9369318161e+00	 8.4133756333e-01	 5.5051548732e-01
 1.9289241582e+00	 8.5953788681e-01	 4.7722012253e-01
 1.9207310563e+00	 8.7769359725e-01	 4.0398177371e-01
 1.9123526816e+00	 8.9580195323e-01	 3.3083784424e-01
 1.9037892582e+00	 9.1386020773e-01	 2.5781915955e-01
 1.9893587819e+00	 7.3440739069e-01	 9.7949460705e-01
 1.9824356897e+00	 7.5289522111e-01	 9.0727537126e-01
 1.9753264296e+00	 7.7135458437e-01	 8.3488368075e-01
 1.9680308663e+00	 7.8978278623e-01	 7.6234222400e-01
 1.9605489148e+00	 8.0817711979e-01	 6.8967726850e-01
 1.9528805404e+00	 8.2653486666e-01	 6.1691767044e-01
 1.9450257593e+00	 8.4485329808e-01	 5.4409365857e-01
 1.9369846395e+00	 8.6312967606e-01	 4.7123538861e-01
 1.9287573007e+00	 8.8136125458e-01	 3.9837126625e-01
 1.9203439150e+00	 8.9954528075e-01	 3.2552603878e-01
 1.9117447071e+00	 9.1767899609e-01	 2.5271865763e-01
 1.9976372106e+00	 7.3746352078e-01	 9.7022282955e-01
 1.9906853090e+00	 7.5602828563e-01	 8.9843806915e-01
 1.9835464647e+00	 7.7456446486e-01	 8.2649870341e-01
 1.9762205420e+00	 7.9306935301e-01	 7.5441770544e-01
 1.9687074554e+00	 8.1154023193e-01	 6.8221227880e-01
 1.9610071702e+00	 8.2997437191e-01	 6.0990288639e-01
 1.9531197026e+00	 8.4836903283e-01	 5.3751204514e-01
 1.9450451208e+00	 8.6672146532e-01	 4.6506288212e-01
 1.9367835451e+00	 8.8502891191e-01	 3.9257745051e-01
 1.9283351483e+00	 9.0328860828e-01	 3.2007480498e-01
 1.9197001561e+00	 9.2149778444e-01	 2.4756883879e-01
 2.0059156394e+00	 7.4051965087e-01	 9.6126000850e-01
 1.9989349282e+00	 7.5916135015e-01	 8.8985013122e-01
 1.9917664998e+00	 7.7777434535e-01	 8.1828988821e-01
 1.9844102177e+00	 7.9635591980e-01	 7.4659002024e-01
 1.9768659961e+00	 8.1490334408e-01	 6.7476607738e-01
 1.9691337999e+00	 8.3341387716e-01	 6.0283745574e-01
 1.9612136458e+00	 8.5188476759e-01	 5.3082619089e-01
 1.9531056021e+00	 8.7031325457e-01	 4.5875550398e-01
 1.9448097895e+00	 8.8869656924e-01	 3.8664809811e-01
 1.9363263816e+00	 9.0703193580e-01	 3.1452420503e-01
 1.9276556051e+00	 9.2531657280e-01	 2.4239938415e-01
 2.0141940681e+00	 7.4357578096e-01	 9.5263171555e-01
 2.0071845475e+00	 7.6229441467e-01	 8.8154718832e-01
 1.9999865349e+00	 7.8098422584e-01	 8.1030106967e-01
 1.9925998934e+00	 7.9964248658e-01	 7.3890924770e-01
 1.9850245367e+00	 8.1826645622e-01	 6.6739292778e-01
 1.9772604297e+00	 8.3685338241e-01	 5.9577766571e-01
 1.9693075891e+00	 8.5540050234e-01	 5.2409214827e-01
 1.9611660834e+00	 8.7390504382e-01	 4.5236671716e-01
 1.9528360339e+00	 8.9236422656e-01	 3.8063163378e-01
 1.9443176149e+00	 9.1077526332e-01	 3.0891508469e-01
 1.9356110540e+00	 9.2913536115e-01	 2.3724092978e-01
 1.8560565644e+00	 8.9094747759e-01	 2.8585658016e-01
 1.8475291724e+00	 9.0849845989e-01	 2.1491529625e-01
 1.8388220224e+00	 9.2599524687e-01	 1.4361481244e-01
 1.8299354863e+00	 9.4343515160e-01	 7.1811436563e-02
 1.8208699886e+00	 9.6081548646e-01	-6.3674185444e-04
 1.8116260061e+00	 9.7813356446e-01	-7.3872213768e-02
 1.8022040683e+00	 9.9538670041e-01	-1.4804055918e-01
 1.7926047575e+00	 1.0125722123e+00	-2.2329308871e-01
 1.7828287087e+00	 1.0296874225e+00	-2.9978960310e-01
 1.7728766099e+00	 1.0467296589e+00	-3.7770125379e-01
 1.7627492020e+00	 1.0636962566e+00	-4.5698955791e-01
 1.8640120133e+00	 8.9476626595e-01	 2.8161585702e-01
 1.8554480712e+00	 9.1239247544e-01	 2.0981880966e-01
 1.8467036004e+00	 9.2996425734e-01	 1.3762682030e-01
 1.8377789748e+00	 9.4747891317e-01	 6.5046136860e-02
 1.8286746205e+00	 9.6493374381e-01	-7.9187393909e-03
 1.8193910164e+00	 9.8232605072e-01	-8.1267724530e-02
 1.8099286942e+00	 9.9965313725e-01	-1.5500797309e-01
 1.8002882387e+00	 1.0169123099e+00	-2.2915683537e-01
 1.7904702876e+00	 1.0341008794e+00	-3.0374493493e-01
 1.7804755321e+00	 1.0512161625e+00	-3.7881934869e-01
 1.7703047160e+00	 1.0682554826e+00	-4.5444687042e-01
 1.8719674623e+00	 8.9858505431e-01	 2.7717043316e-01
 1.8633669700e+00	 9.1628649100e-01	 2.0470581043e-01
 1.8545851785e+00	 9.3393326781e-01	 1.3179378223e-01
 1.8456224633e+00	 9.5152267474e-01	 5.8572121842e-02
 1.8364792524e+00	 9.6905200115e-01	-1.4826315452e-02
 1.8271560266e+00	 9.8651853699e-01	-8.8276545621e-02
 1.8176533200e+00	 1.0039195741e+00	-1.6166456395e-01
 1.8079717198e+00	 1.0212524074e+00	-2.3489059288e-01
 1.7981118666e+00	 1.0385143364e+00	-3.0787245280e-01
 1.7880744542e+00	 1.0557026660e+00	-3.8054903743e-01
 1.7778602299e+00	 1.0728147085e+00	-4.5288387358e-01
 1.8799229113e+00	 9.0240384266e-01	 2.7254326350e-01
 1.8712858687e+00	 9.2018050656e-01	 1.9958875178e-01
 1.8624667566e+00	 9.3790227828e-01	 1.2612289084e-01
 1.8534659519e+00	 9.5556643631e-01	 5.2396805034e-02
 1.8442838843e+00	 9.7317025849e-01	-2.1346115742e-02
 1.8349210368e+00	 9.9071102326e-01	-9.4873426164e-02
 1.8253779458e+00	 1.0081860109e+00	-1.6796699514e-01
 1.8156552010e+00	 1.0255925050e+00	-2.4042651921e-01
 1.8057534456e+00	 1.0429277933e+00	-3.1207316227e-01
 1.7956733764e+00	 1.0601891696e+00	-3.8275330216e-01
 1.7854157439e+00	 1.0773739345e+00	-4.5234236327e-01
 1.8878783602e+00	 9.0622263102e-01	 2.6775854447e-01
 1.8792047675e+00	 9.2407452212e-01	 1.9448151814e-01
 1.8703483347e+00	 9.4187128875e-01	 1.2062286923e-01
 1.8613094404e+00	 9.5961019788e-01	 4.6529135469e-02
 1.8520885162e+00	 9.7728851583e-01	-2.7463343473e-02
 1.8426860471e+00	 9.9490350953e-01	-1.0103186751e-01
 1.8331025717e+00	 1.0124524478e+00	-1.7387098230e-01
 1.8233386822e+00	 1.0299326025e+00	-2.4569623355e-01
 1.8133950246e+00	 1.0473412503e+00	-3.1624805138e-01
 1.8032722986e+00	 1.0646756731e+00	-3.8529574448e-01
 1.7929712579e+00	 1.0819331605e+00	-4.5264158239e-01
 1.8958338092e+00	 9.1004141937e-01	 2.6284166525e-01
 1.8871236663e+00	 9.2796853768e-01	 1.8939937019e-01
 1.8782299128e+00	 9.4584029922e-01	 1.1530391153e-01
 1.8691529289e+00	 9.6365395945e-01	 4.0979535628e-02
 1.8598931481e+00	 9.8140677317e-01	-3.3161821992e-02
 1.8504510573e+00	 9.9909599579e-01	-1.0672418435e-01
 1.8408271975e+00	 1.0167188846e+00	-1.7933135075e-01
 1.8310221634e+00	 1.0342727001e+00	-2.5063086767e-01
 1.8210366035e+00	 1.0517547072e+00	-3.2029813369e-01
 1.8108712208e+00	 1.0691621767e+00	-3.8804061784e-01
 1.8005267719e+00	 1.0864923864e+00	-4.5360216853e-01
 1.9037892582e+00	 9.1386020773e-01	 2.5781915955e-01
 1.8950425651e+00	 9.3186255324e-01	 1.8435889030e-01
 1.8861114909e+00	 9.4980930969e-01	 1.1017762394e-01
 1.8769964175e+00	 9.6769772102e-01	 3.5759839974e-02
 1.8676977800e+00	 9.8552503052e-01	-3.8424056821e-02
 1.8582160676e+00	 1.0032884821e+00	-1.1192156525e-01
 1.8485518234e+00	 1.0209853214e+00	-1.8430209248e-01
 1.8387056445e+00	 1.0386127976e+00	-2.5516111718e-01
 1.8286781825e+00	 1.0561681642e+00	-3.2412449152e-01
 1.8184701430e+00	 1.0736486803e+00	-3.9085286029e-01
 1.8080822859e+00	 1.0910516124e+00	-4.5504617391e-01
 1.9117447071e+00	 9.1767899609e-01	 2.5271865763e-01
 1.9029614638e+00	 9.3575656880e-01	 1.7937792853e-01
 1.8939930690e+00	 9.5377832015e-01	 1.0525696639e-01
 1.8848399060e+00	 9.7174148259e-01	 3.0883234069e-02
 1.8755024119e+00	 9.8964328786e-01	-4.3231297155e-02
 1.8659810778e+00	 1.0074809683e+00	-1.1659413284e-01
 1.8562764492e+00	 1.0252517583e+00	-1.8873642279e-01
 1.8463891257e+00	 1.0429528952e+00	-2.5921729262e-01
 1.8363197615e+00	 1.0605816211e+00	-3.2762831918e-01
 1.8260690651e+00	 1.0781351838e+00	-3.9359812761e-01
 1.8156377998e+00	 1.0956108384e+00	-4.5679708599e-01
 1.9197001561e+00	 9.2149778444e-01	 2.4756883879e-01
 1.9108803626e+00	 9.3965058435e-01	 1.7447554914e-01
 1.9018746471e+00	 9.5774733062e-01	 1.0055619473e-01
 1.8926833945e+00	 9.7578524416e-01	 2.6364194271e-02
 1.8833070438e+00	 9.9376154520e-01	-4.7563596807e-02
 1.8737460881e+00	 1.0116734546e+00	-1.2071100340e-01
 1.8640010751e+00	 1.0295181951e+00	-1.9258683669e-01
 1.8540726069e+00	 1.0472929928e+00	-2.6272937035e-01
 1.8439613405e+00	 1.0649950781e+00	-3.3071096629e-01
 1.8336679873e+00	 1.0826216874e+00	-3.9614282685e-01
 1.8231933138e+00	 1.1001700644e+00	-4.5867984890e-01
 1.9276556051e+00	 9.2531657280e-01	 2.4239938415e-01
 1.9187992614e+00	 9.4354459991e-01	 1.6967197744e-01
 1.9097562252e+00	 9.6171634109e-01	 9.6090803436e-02
 1.9005268831e+00	 9.7982900573e-01	 2.2218427969e-02
 1.8911116757e+00	 9.9787980254e-01	-5.1399874626e-02
 1.8815110983e+00	 1.0158659409e+00	-1.2424034609e-01
 1.8717257009e+00	 1.0337846320e+00	-1.9580516481e-01
 1.8617560881e+00	 1.0516330903e+00	-2.6562704332e-01
 1.8516029194e+00	 1.0694085350e+00	-3.3327398122e-01
 1.8412669095e+00	 1.0871081909e+00	-3.9835415019e-01
 1.8307488278e+00	 1.1047292903e+00	-4.6052088547e-01
 1.9356110540e+00	 9.2913536115e-01	 2.3724092978e-01
 1.9267181602e+00	 9.4743861547e-01	 1.6498854727e-01
 1.9176378033e+00	 9.6568535156e-01	 9.1877468856e-02
 1.9083703716e+00	 9.8387276730e-01	 1.8462814360e-02
 1.8989163076e+00	 1.0019980599e+00	-5.4717974410e-02
 1.8892761086e+00	 1.0200584271e+00	-1.2714944166e-01
 1.8794503267e+00	 1.0380510688e+00	-1.9834262915e-01
 1.8694395692e+00	 1.0559731879e+00	-2.6783977168e-01
 1.8592444984e+00	 1.0738219920e+00	-3.3521915457e-01
 1.8488658317e+00	 1.0915946945e+00	-4.0010010915e-01
 1.8383043418e+00	 1.1092885163e+00	-4.6214812002e-01
 1.7627492020e+00	 1.0636962566e+00	-4.5698955791e-01
 1.7524472793e+00	 1.0805845591e+00	-5.3207253347e-01
 1.7419716905e+00	 1.0973919210e+00	-6.0181511298e-01
 1.7313233376e+00	 1.1141157078e+00	-6.6715951352e-01
 1.7205031752e+00	 1.1307532976e+00	-7.2911999355e-01
 1.7095122102e+00	 1.1473020817e+00	-7.8877301666e-01
 1.6983515019e+00	 1.1637594664e+00	-8.4724658135e-01
 1.6870221614e+00	 1.1801228739e+00	-9.0564873078e-01
 1.6755253515e+00	 1.1963897440e+00	-9.6352637085e-01
 1.6638622866e+00	 1.2125575349e+00	-1.0213265228e+00
 1.6520342318e+00	 1.2286237251e+00	-1.0802350684e+00
 1.7703047160e+00	 1.0682554826e+00	-4.5444687042e-01
 1.7599586370e+00	 1.0852161719e+00	-5.3161383700e-01
 1.7494381477e+00	 1.1020955736e+00	-6.0396951795e-01
 1.7387441537e+00	 1.1188910422e+00	-6.7082894687e-01
 1.7278776138e+00	 1.1355999441e+00	-7.3339998047e-01
 1.7168395392e+00	 1.1522196598e+00	-7.9295136956e-01
 1.7056309938e+00	 1.1687475843e+00	-8.5080156896e-01
 1.6942530933e+00	 1.1851811288e+00	-9.0795677119e-01
 1.6827070057e+00	 1.2015177221e+00	-9.6390988181e-01
 1.6709939504e+00	 1.2177548117e+00	-1.0197391363e+00
 1.6591151981e+00	 1.2338898649e+00	-1.0767946335e+00
 1.7778602299e+00	 1.0728147085e+00	-4.5288387358e-01
 1.7674699948e+00	 1.0898477847e+00	-5.2707450128e-01
 1.7569046049e+00	 1.1067992263e+00	-6.0249402753e-01
 1.7461649698e+00	 1.1236663765e+00	-6.7173941465e-01
 1.7352520524e+00	 1.1404465907e+00	-7.3575977821e-01
 1.7241668683e+00	 1.1571372379e+00	-7.9599178049e-01
 1.7129104857e+00	 1.1737357022e+00	-8.5392070761e-01
 1.7014840253e+00	 1.1902393838e+00	-9.1018055201e-01
 1.6898886599e+00	 1.2066457003e+00	-9.6465609526e-01
 1.6781256143e+00	 1.2229520884e+00	-1.0188150234e+00
 1.6661961644e+00	 1.2391560047e+00	-1.0741505450e+00
 1.7854157439e+00	 1.0773739345e+00	-4.5234236327e-01
 1.7749813526e+00	 1.0944793975e+00	-5.2293924490e-01
 1.7643710621e+00	 1.1115028790e+00	-5.9725424881e-01
 1.7535857859e+00	 1.1284417108e+00	-6.6972758138e-01
 1.7426264911e+00	 1.1452932372e+00	-7.3601534070e-01
 1.7314941973e+00	 1.1620548161e+00	-7.9769805953e-01
 1.7201899775e+00	 1.1787238202e+00	-8.5638139702e-01
 1.7087149572e+00	 1.1952976387e+00	-9.1212107179e-01
 1.6970703141e+00	 1.2117736785e+00	-9.6558516825e-01
 1.6852572781e+00	 1.2281493651e+00	-1.0184034824e+00
 1.6732771307e+00	 1.2444221445e+00	-1.0721915184e+00
 1.7929712579e+00	 1.0819331605e+00	-4.5264158239e-01
 1.7824927103e+00	 1.0991110103e+00	-5.2025197816e-01
 1.7718375193e+00	 1.1162065317e+00	-5.9083157178e-01
 1.7610066021e+00	 1.1332170452e+00	-6.6463263228e-01
 1.7500009297e+00	 1.1501398838e+00	-7.3398535081e-01
 1.7388215263e+00	 1.1669723942e+00	-7.9787679925e-01
 1.7274694694e+00	 1.1837119381e+00	-8.5781035530e-01
 1.7159458892e+00	 1.2003558937e+00	-9.1358438370e-01
 1.7042519683e+00	 1.2169016567e+00	-9.6652196780e-01
 1.6923889420e+00	 1.2333466419e+00	-1.0183580091e+00
 1.6803580971e+00	 1.2496882843e+00	-1.0708097805e+00
 1.8005267719e+00	 1.0864923864e+00	-4.5360216853e-01
 1.7900040681e+00	 1.1037426231e+00	-5.1878989316e-01
 1.7793039765e+00	 1.1209101843e+00	-5.8624327316e-01
 1.7684274182e+00	 1.1379923795e+00	-6.5700523760e-01
 1.7573753683e+00	 1.1549865304e+00	-7.2949117916e-01
 1.7461488554e+00	 1.1718899723e+00	-7.9633732973e-01
 1.7347489613e+00	 1.1887000561e+00	-8.5797377854e-01
 1.7231768211e+00	 1.2054141486e+00	-9.1438149163e-01
 1.7114336225e+00	 1.2220296348e+00	-9.6729597370e-01
 1.6995206058e+00	 1.2385439186e+00	-1.0185362094e+00
 1.6874390634e+00	 1.2549544241e+00	-1.0699009962e+00
 1.8080822859e+00	 1.0910516124e+00	-4.5504617391e-01
 1.7975154259e+00	 1.1083742359e+00	-5.1833232290e-01
 1.7867704336e+00	 1.1256138370e+00	-5.8323940994e-01
 1.7758482343e+00	 1.1427677139e+00	-6.5087027158e-01
 1.7647498069e+00	 1.1598331769e+00	-7.2235693953e-01
 1.7534761844e+00	 1.1768075504e+00	-7.9289123931e-01
 1.7420284532e+00	 1.1936881740e+00	-8.5667857884e-01
 1.7304077531e+00	 1.2104724036e+00	-9.1432824814e-01
 1.7186152767e+00	 1.2271576130e+00	-9.6774118301e-01
 1.7066522697e+00	 1.2437411953e+00	-1.0187997136e+00
 1.6945200297e+00	 1.2602205639e+00	-1.0693641969e+00
 1.8156377998e+00	 1.0956108384e+00	-4.5679708599e-01
 1.8050267837e+00	 1.1130058486e+00	-5.1866074953e-01
 1.7942368908e+00	 1.1303174897e+00	-5.8156675289e-01
 1.7832690504e+00	 1.1475430482e+00	-6.4665321850e-01
 1.7721242455e+00	 1.1646798235e+00	-7.1508769356e-01
 1.7608035134e+00	 1.1817251286e+00	-7.8722525612e-01
 1.7493079451e+00	 1.1986762919e+00	-8.5373658860e-01
 1.7376386850e+00	 1.2155306585e+00	-9.1324525413e-01
 1.7257969309e+00	 1.2322855912e+00	-9.6769601609e-01
 1.7137839336e+00	 1.2489384720e+00	-1.0190140930e+00
 1.7016009960e+00	 1.2654867037e+00	-1.0691017096e+00
 1.8231933138e+00	 1.1001700644e+00	-4.5867984890e-01
 1.8125381414e+00	 1.1176374614e+00	-5.1955881364e-01
 1.8017033480e+00	 1.1350211424e+00	-5.8097481085e-01
 1.7906898665e+00	 1.1523183826e+00	-6.4407692071e-01
 1.7794986842e+00	 1.1695264700e+00	-7.1004443794e-01
 1.7681308425e+00	 1.1866427067e+00	-7.7960211783e-01
 1.7565874370e+00	 1.2036644099e+00	-8.4896445893e-01
 1.7448696170e+00	 1.2205889135e+00	-9.1095776028e-01
 1.7329785851e+00	 1.2374135694e+00	-9.6700322417e-01
 1.7209155974e+00	 1.2541357488e+00	-1.0190487762e+00
 1.7086819623e+00	 1.2707528435e+00	-1.0690190866e+00
 1.8307488278e+00	 1.1047292903e+00	-4.6052088547e-01
 1.8200494992e+00	 1.1222690742e+00	-5.2081232464e-01
 1.8091698052e+00	 1.1397247950e+00	-5.8121583183e-01
 1.7981106826e+00	 1.1570937169e+00	-6.4286740508e-01
 1.7868731228e+00	 1.1743731166e+00	-7.0693460230e-01
 1.7754581715e+00	 1.1915602848e+00	-7.7354578678e-01
 1.7638669289e+00	 1.2086525278e+00	-8.4218355985e-01
 1.7521005489e+00	 1.2256471684e+00	-9.0729557007e-01
 1.7401602394e+00	 1.2425415475e+00	-9.6550979849e-01
 1.7280472613e+00	 1.2593330255e+00	-1.0187769679e+00
 1.7157629287e+00	 1.2760189833e+00	-1.0690250368e+00
 1.8383043418e+00	 1.1092885163e+00	-4.6214812002e-01
 1.8275608570e+00	 1.1269006870e+00	-5.2220927211e-01
 1.8166362624e+00	 1.1444284477e+00	-5.8204480541e-01
 1.8055314987e+00	 1.1618690513e+00	-6.4275387903e-01
 1.7942475614e+00	 1.1792197631e+00	-7.0543451420e-01
 1.7827855005e+00	 1.1964778629e+00	-7.6947549060e-01
 1.7711464208e+00	 1.2136406457e+00	-8.3505205339e-01
 1.7593314809e+00	 1.2307054234e+00	-9.0209294447e-01
 1.7473418936e+00	 1.2476695257e+00	-9.6306688081e-01
 1.7351789251e+00	 1.2645303022e+00	-1.0180755683e+00
 1.7228438950e+00	 1.2812851231e+00	-1.0690313573e+00
 1.6520342318e+00	 1.2286237251e+00	-1.0802350684e+00
 1.6400404515e+00	 1.2445885172e+00	-1.1389256978e+00
 1.6278843150e+00	 1.2604466842e+00	-1.1952693276e+00
 1.6155672454e+00	 1.2761957614e+00	-1.2492922764e+00
 1.6030907154e+00	 1.2918333090e+00	-1.3010405581e+00
 1.5904562459e+00	 1.3073569135e+00	-1.3505795291e+00
 1.5776654063e+00	 1.3227641886e+00	-1.3979935726e+00
 1.5647198132e+00	 1.3380527767e+00	-1.4433858166e+00
 1.5516211303e+00	 1.3532203499e+00	-1.4868778874e+00
 1.5383710673e+00	 1.3682646113e+00	-1.5286096952e+00
 1.5249713791e+00	 1.3831832959e+00	-1.5687392504e+00
 1.6591151981e+00	 1.2338898649e+00	-1.0767946335e+00
 1.6470700099e+00	 1.2499230855e+00	-1.1340379092e+00
 1.6348617697e+00	 1.2658492239e+00	-1.1894635119e+00
 1.6224919066e+00	 1.2816658049e+00	-1.2430113633e+00
 1.6099618995e+00	 1.2973703784e+00	-1.2946425846e+00
 1.5972732760e+00	 1.3129605203e+00	-1.3443392765e+00
 1.5844276121e+00	 1.3284338343e+00	-1.3921043373e+00
 1.5714265316e+00	 1.3437879525e+00	-1.4379613157e+00
 1.5582717050e+00	 1.3590205371e+00	-1.4819542980e+00
 1.5449648494e+00	 1.3741292813e+00	-1.5241478285e+00
 1.5315077273e+00	 1.3891119105e+00	-1.5646268598e+00
 1.6661961644e+00	 1.2391560047e+00	-1.0741505450e+00
 1.6540995684e+00	 1.2552576537e+00	-1.1299412600e+00
 1.6418392244e+00	 1.2712517636e+00	-1.1843618323e+00
 1.6294165677e+00	 1.2871358485e+00	-1.2372859415e+00
 1.6168330836e+00	 1.3029074478e+00	-1.2886095742e+00
 1.6040903061e+00	 1.3185641271e+00	-1.3382509105e+00
 1.5911898180e+00	 1.3341034799e+00	-1.3861502474e+00
 1.5781332499e+00	 1.3495231282e+00	-1.4322699597e+00
 1.5649222796e+00	 1.3648207242e+00	-1.4765944954e+00
 1.5515586315e+00	 1.3799939513e+00	-1.5191304049e+00
 1.5380440755e+00	 1.3950405252e+00	-1.5599064003e+00
 1.6732771307e+00	 1.2444221445e+00	-1.0721915184e+00
 1.6611291269e+00	 1.2605922220e+00	-1.1265667628e+00
 1.6488166791e+00	 1.2766543033e+00	-1.1799327172e+00
 1.6363412289e+00	 1.2926058921e+00	-1.2321167341e+00
 1.6237042677e+00	 1.3084445172e+00	-1.2829691888e+00
 1.6109073362e+00	 1.3241677340e+00	-1.3323634431e+00
 1.5979520239e+00	 1.3397731255e+00	-1.3801958479e+00
 1.5848399683e+00	 1.3552583039e+00	-1.4263857847e+00
 1.5715728543e+00	 1.3706209114e+00	-1.4708757436e+00
 1.5581524135e+00	 1.3858586213e+00	-1.5136314358e+00
 1.5445804237e+00	 1.4009691398e+00	-1.5546419378e+00
 1.6803580971e+00	 1.2496882843e+00	-1.0708097805e+00
 1.6681586853e+00	 1.2659267902e+00	-1.1238482076e+00
 1.6557941338e+00	 1.2820568430e+00	-1.1761467203e+00
 1.6432658900e+00	 1.2980759356e+00	-1.2275060249e+00
 1.6305754518e+00	 1.3139815865e+00	-1.2777501769e+00
 1.6177243663e+00	 1.3297713408e+00	-1.3267265940e+00
 1.6047142298e+00	 1.3454427712e+00	-1.3743061110e+00
 1.5915466866e+00	 1.3609934797e+00	-1.4203830757e+00
 1.5782234289e+00	 1.3764210985e+00	-1.4648754834e+00
 1.5647461956e+00	 1.3917232913e+00	-1.5077251474e+00
 1.5511167719e+00	 1.4068977544e+00	-1.5488979045e+00
 1.6874390634e+00	 1.2549544241e+00	-1.0699009962e+00
 1.6751882438e+00	 1.2712613585e+00	-1.1217221035e+00
 1.6627715885e+00	 1.2874593827e+00	-1.1729764765e+00
 1.6501905512e+00	 1.3035459792e+00	-1.2234576258e+00
 1.6374466359e+00	 1.3195186559e+00	-1.2729823507e+00
 1.6245413965e+00	 1.3353749476e+00	-1.3213907749e+00
 1.6114764357e+00	 1.3511124168e+00	-1.3685464262e+00
 1.5982534050e+00	 1.3667286554e+00	-1.4143363608e+00
 1.5848740035e+00	 1.3822212857e+00	-1.4586713282e+00
 1.5713399777e+00	 1.3975879614e+00	-1.5014859761e+00
 1.5576531201e+00	 1.4128263691e+00	-1.5427390909e+00
 1.6945200297e+00	 1.2602205639e+00	-1.0693641969e+00
 1.6822178022e+00	 1.2765959267e+00	-1.1201276214e+00
 1.6697490431e+00	 1.2928619224e+00	-1.1703966573e+00
 1.6571152123e+00	 1.3090160227e+00	-1.2199768433e+00
 1.6443178200e+00	 1.3250557253e+00	-1.2686965626e+00
 1.6313584266e+00	 1.3409785544e+00	-1.3164070740e+00
 1.6182386416e+00	 1.3567820624e+00	-1.3629825904e+00
 1.6049601233e+00	 1.3724638312e+00	-1.4083204043e+00
 1.5915245782e+00	 1.3880214728e+00	-1.4523410590e+00
 1.5779337598e+00	 1.4034526314e+00	-1.4949885619e+00
 1.5641894683e+00	 1.4187549837e+00	-1.5362306368e+00
 1.7016009960e+00	 1.2654867037e+00	-1.0691017096e+00
 1.6892473607e+00	 1.2819304950e+00	-1.1190065377e+00
 1.6767264978e+00	 1.2982644621e+00	-1.1683839272e+00
 1.6640398735e+00	 1.3144860663e+00	-1.2170704459e+00
 1.6511890041e+00	 1.3305927947e+00	-1.2649246812e+00
 1.6381754567e+00	 1.3465821612e+00	-1.3118272395e+00
 1.6250008475e+00	 1.3624517081e+00	-1.3576807966e+00
 1.6116668417e+00	 1.3781990069e+00	-1.4024101997e+00
 1.5981751528e+00	 1.3938216600e+00	-1.4459626186e+00
 1.5845275419e+00	 1.4093173014e+00	-1.4883077426e+00
 1.5707258165e+00	 1.4246835984e+00	-1.5294380221e+00
 1.7086819623e+00	 1.2707528435e+00	-1.0690190866e+00
 1.6962769191e+00	 1.2872650633e+00	-1.1183031777e+00
 1.6837039525e+00	 1.3036670018e+00	-1.1669168998e+00
 1.6709645346e+00	 1.3199561098e+00	-1.2147466313e+00
 1.6580601882e+00	 1.3361298640e+00	-1.2616995679e+00
 1.6449924868e+00	 1.3521857680e+00	-1.3077036628e+00
 1.6317630533e+00	 1.3681213537e+00	-1.3527076231e+00
 1.6183735600e+00	 1.3839341827e+00	-1.3966809618e+00
 1.6048257275e+00	 1.3996218471e+00	-1.4396141045e+00
 1.5911213239e+00	 1.4151819714e+00	-1.4815185461e+00
 1.5772621647e+00	 1.4306122130e+00	-1.5224270565e+00
 1.7157629287e+00	 1.2760189833e+00	-1.0690250368e+00
 1.7033064776e+00	 1.2925996315e+00	-1.1179643607e+00
 1.6906814072e+00	 1.3090695415e+00	-1.1659760941e+00
 1.6778891957e+00	 1.3254261534e+00	-1.2130149929e+00
 1.6649313724e+00	 1.3416669334e+00	-1.2590550522e+00
 1.6518095169e+00	 1.3577893748e+00	-1.3040893617e+00
 1.6385252592e+00	 1.3737909994e+00	-1.3481300212e+00
 1.6250802784e+00	 1.3896693584e+00	-1.3912081179e+00
 1.6114763021e+00	 1.4054220343e+00	-1.4333737627e+00
 1.5977151060e+00	 1.4210466414e+00	-1.4746961831e+00
 1.5837985129e+00	 1.4365408276e+00	-1.5152638693e+00
 1.7228438950e+00	 1.2812851231e+00	-1.0690313573e+00
 1.7103360360e+00	 1.2979341998e+00	-1.1179393447e+00
 1.6976588619e+00	 1.3144720812e+00	-1.1655438921e+00
 1.6848138569e+00	 1.3308961970e+00	-1.2118864873e+00
 1.6718025565e+00	 1.3472040028e+00	-1.2570259077e+00
 1.6586265470e+00	 1.3633929816e+00	-1.3010379627e+00
 1.6452874651e+00	 1.3794606450e+00	-1.3440153032e+00
 1.6317869967e+00	 1.3954045341e+00	-1.3860672989e+00
 1.6181268767e+00	 1.4112222214e+00	-1.4273199792e+00
 1.6043088881e+00	 1.4269113115e+00	-1.4679160382e+00
 1.5903348611e+00	 1.4424694423e+00	-1.5080148983e+00
 1.5249713791e+00	 1.3831832959e+00	-1.5687392504e+00
 1.5114261768e+00	 1.3979716729e+00	-1.6058652686e+00
 1.4977350178e+00	 1.4126301128e+00	-1.6387687787e+00
 1.4838997636e+00	 1.4271564788e+00	-1.6678782163e+00
 1.4699223178e+00	 1.4415486705e+00	-1.6936264415e+00
 1.4558046250e+00	 1.4558046250e+00	-1.7164503628e+00
 1.4415486705e+00	 1.4699223178e+00	-1.7367905879e+00
 1.4271564788e+00	 1.4838997636e+00	-1.7550910988e+00
 1.4126301128e+00	 1.4977350178e+00	-1.7717989430e+00
 1.3979716729e+00	 1.5114261768e+00	-1.7873639389e+00
 1.3831832959e+00	 1.5249713791e+00	-1.8022383877e+00
 1.5315077273e+00	 1.3891119105e+00	-1.5646268598e+00
 1.5179044674e+00	 1.4039636736e+00	-1.6018568089e+00
 1.5041546253e+00	 1.4186849427e+00	-1.6345744917e+00
 1.4902600703e+00	 1.4332735718e+00	-1.6632710591e+00
 1.4762227141e+00	 1.4477274514e+00	-1.6884426677e+00
 1.4620445099e+00	 1.4620445099e+00	-1.7105900451e+00
 1.4477274514e+00	 1.4762227141e+00	-1.7302180828e+00
 1.4332735718e+00	 1.4902600703e+00	-1.7478354539e+00
 1.4186849427e+00	 1.5041546253e+00	-1.7639542483e+00
 1.4039636736e+00	 1.5179044674e+00	-1.7790896215e+00
 1.3891119105e+00	 1.5315077273e+00	-1.7937594514e+00
 1.5380440755e+00	 1.3950405252e+00	-1.5599064003e+00
 1.5243827581e+00	 1.4099556744e+00	-1.5972566264e+00
 1.5105742327e+00	 1.4247397726e+00	-1.6298574610e+00
 1.4966203769e+00	 1.4393906647e+00	-1.6582517245e+00
 1.4825231104e+00	 1.4539062324e+00	-1.6829877520e+00
 1.4682843949e+00	 1.4682843949e+00	-1.7046189159e+00
 1.4539062324e+00	 1.4825231104e+00	-1.7237031777e+00
 1.4393906647e+00	 1.4966203769e+00	-1.7408026635e+00
 1.4247397726e+00	 1.5105742327e+00	-1.7564832597e+00
 1.4099556744e+00	 1.5243827581e+00	-1.7713142222e+00
 1.3950405252e+00	 1.5380440755e+00	-1.7858677930e+00
 1.5445804237e+00	 1.4009691398e+00	-1.5546419378e+00
 1.5308610487e+00	 1.4159476751e+00	-1.5921149609e+00
 1.5169938401e+00	 1.4307946025e+00	-1.6246532588e+00
 1.5029806835e+00	 1.4455077577e+00	-1.6528404122e+00
 1.4888235068e+00	 1.4600850133e+00	-1.6772659542e+00
 1.4745242798e+00	 1.4745242798e+00	-1.6985248655e+00
 1.4600850133e+00	 1.4888235068e+00	-1.7172171006e+00
 1.4455077577e+00	 1.5029806835e+00	-1.7339471384e+00
 1.4307946025e+00	 1.5169938401e+00	-1.7493235538e+00
 1.4159476751e+00	 1.5308610487e+00	-1.7639586028e+00
 1.4009691398e+00	 1.5445804237e+00	-1.7784678167e+00
 1.5511167719e+00	 1.4068977544e+00	-1.5488979045e+00
 1.5373393393e+00	 1.4219396759e+00	-1.5864826361e+00
 1.5234134475e+00	 1.4368494324e+00	-1.6189982733e+00
 1.5093409901e+00	 1.4516248506e+00	-1.6470583827e+00
 1.4951239031e+00	 1.4662637942e+00	-1.6712828495e+00
 1.4807641648e+00	 1.4807641648e+00	-1.6922973614e+00
 1.4662637942e+00	 1.4951239031e+00	-1.7107329244e+00
 1.4516248506e+00	 1.5093409901e+00	-1.7272254051e+00
 1.4368494324e+00	 1.5234134475e+00	-1.7424150933e+00
 1.4219396759e+00	 1.5373393393e+00	-1.7569462805e+00
 1.4068977544e+00	 1.5511167719e+00	-1.7714668463e+00
 1.5576531201e+00	 1.4128263691e+00	-1.5427390909e+00
 1.5438176299e+00	 1.4279316766e+00	-1.5804110470e+00
 1.5298330550e+00	 1.4429042623e+00	-1.6129296914e+00
 1.5157012967e+00	 1.4577419436e+00	-1.6409279348e+00
 1.5014242995e+00	 1.4724425751e+00	-1.6650453012e+00
 1.4870040497e+00	 1.4870040497e+00	-1.6859274165e+00
 1.4724425751e+00	 1.5014242995e+00	-1.7042255298e+00
 1.4577419436e+00	 1.5157012967e+00	-1.7205960627e+00
 1.4429042623e+00	 1.5298330550e+00	-1.7357001795e+00
 1.4279316766e+00	 1.5438176299e+00	-1.7502033746e+00
 1.4128263691e+00	 1.5576531201e+00	-1.7647750677e+00
 1.5641894683e+00	 1.4187549837e+00	-1.5362306368e+00
 1.5502959205e+00	 1.4339236773e+00	-1.5739521467e+00
 1.5362526624e+00	 1.4489590922e+00	-1.6064854813e+00
 1.5220616033e+00	 1.4638590365e+00	-1.6344723835e+00
 1.5077246958e+00	 1.4786213560e+00	-1.6585614333e+00
 1.4932439346e+00	 1.4932439346e+00	-1.6794075566e+00
 1.4786213560e+00	 1.5077246958e+00	-1.6976715676e+00
 1.4638590365e+00	 1.5220616033e+00	-1.7140197407e+00
 1.4489590922e+00	 1.5362526624e+00	-1.7291234048e+00
 1.4339236773e+00	 1.5502959205e+00	-1.7436585546e+00
 1.4187549837e+00	 1.5641894683e+00	-1.7583054714e+00
 1.5707258165e+00	 1.4246835984e+00	-1.5294380221e+00
 1.5567742111e+00	 1.4399156781e+00	-1.5671584328e+00
 1.5426722698e+00	 1.4550139221e+00	-1.5997043742e+00
 1.5284219099e+00	 1.4699761295e+00	-1.6277160373e+00
 1.5140250921e+00	 1.4848001369e+00	-1.6518406037e+00
 1.4994838196e+00	 1.4994838196e+00	-1.6727317888e+00
 1.4848001369e+00	 1.5140250921e+00	-1.6910494222e+00
 1.4699761295e+00	 1.5284219099e+00	-1.7074590574e+00
 1.4550139221e+00	 1.5426722698e+00	-1.7226316059e+00
 1.4399156781e+00	 1.5567742111e+00	-1.7372429883e+00
 1.4246835984e+00	 1.5707258165e+00	-1.7519737963e+00
 1.5772621647e+00	 1.4306122130e+00	-1.5224270565e+00
 1.5632525017e+00	 1.4459076788e+00	-1.5600829337e+00
 1.5490918772e+00	 1.4610687520e+00	-1.5926258464e+00
 1.5347822165e+00	 1.4760932225e+00	-1.6206841759e+00
 1.5203254885e+00	 1.4909789179e+00	-1.6448933761e+00
 1.5057237045e+00	 1.5057237045e+00	-1.6658955685e+00
 1.4909789179e+00	 1.5203254885e+00	-1.6843391741e+00
 1.4760932225e+00	 1.5347822165e+00	-1.7008785778e+00
 1.4610687520e+00	 1.5490918772e+00	-1.7161738173e+00
 1.4459076788e+00	 1.5632525017e+00	-1.7308902905e+00
 1.4306122130e+00	 1.5772621647e+00	-1.7456984742e+00
 1.5837985129e+00	 1.4365408276e+00	-1.5152638693e+00
 1.5697307923e+00	 1.4518996795e+00	-1.5527791935e+00
 1.5555114847e+00	 1.4671235819e+00	-1.5852901003e+00
 1.5411425232e+00	 1.4822103154e+00	-1.6134030264e+00
 1.5266258848e+00	 1.4971576988e+00	-1.6377314933e+00
 1.5119635895e+00	 1.5119635895e+00	-1.6588957681e+00
 1.4971576988e+00	 1.5266258848e+00	-1.6775225637e+00
 1.4822103154e+00	 1.5411425232e+00	-1.6942447722e+00
 1.4671235819e+00	 1.5555114847e+00	-1.7097012253e+00
 1.4518996795e+00	 1.5697307923e+00	-1.7245364730e+00
 1.4365408276e+00	 1.5837985129e+00	-1.7394005744e+00
 1.5903348611e+00	 1.4424694423e+00	-1.5080148983e+00
 1.5762090829e+00	 1.4578916803e+00	-1.5453012578e+00
 1.5619310921e+00	 1.4731784118e+00	-1.5777380456e+00
 1.5475028298e+00	 1.4883274084e+00	-1.6058997408e+00
 1.5329262812e+00	 1.5033364797e+00	-1.6303678489e+00
 1.5182034744e+00	 1.5182034744e+00	-1.6517306445e+00
 1.5033364797e+00	 1.5329262812e+00	-1.6705829541e+00
 1.4883274084e+00	 1.5475028298e+00	-1.6875259752e+00
 1.4731784118e+00	 1.5619310921e+00	-1.7031671224e+00
 1.4578916803e+00	 1.5762090829e+00	-1.7181198936e+00
 1.4424694423e+00	 1.5903348611e+00	-1.7330037494e+00
 1.3831832959e+00	 1.5249713791e+00	-1.8022383877e+00
 1.3682646113e+00	 1.5383710673e+00	-1.8155153845e+00
 1.3532203499e+00	 1.5516211303e+00	-1.8260701606e+00
 1.3380527767e+00	 1.5647198132e+00	-1.8340316846e+00
 1.3227641886e+00	 1.5776654063e+00	-1.8395214243e+00
 1.3073569135e+00	 1.5904562459e+00	-1.8426534858e+00
 1.2918333090e+00	 1.6030907154e+00	-1.8435347345e+00
 1.2761957614e+00	 1.6155672454e+00	-1.8422648922e+00
 1.2604466842e+00	 1.6278843150e+00	-1.8389366033e+00
 1.2445885172e+00	 1.6400404515e+00	-1.8336354646e+00
 1.2286237251e+00	 1.6520342318e+00	-1.8264400112e+00
 1.3891119105e+00	 1.5315077273e+00	-1.7937594514e+00
 1.3741292813e+00	 1.5449648494e+00	-1.8070345957e+00
 1.3590205371e+00	 1.5582717050e+00	-1.8176990295e+00
 1.3437879525e+00	 1.5714265316e+00	-1.8258417855e+00
 1.3284338343e+00	 1.5844276121e+00	-1.8315416858e+00
 1.3129605203e+00	 1.5972732760e+00	-1.8348675878e+00
 1.2973703784e+00	 1.6099618995e+00	-1.8358786152e+00
 1.2816658049e+00	 1.6224919066e+00	-1.8346243673e+00
 1.2658492239e+00	 1.6348617697e+00	-1.8311451001e+00
 1.2499230855e+00	 1.6470700099e+00	-1.8254718711e+00
 1.2338898649e+00	 1.6591151981e+00	-1.8176266440e+00
 1.3950405252e+00	 1.5380440755e+00	-1.7858677930e+00
 1.3799939513e+00	 1.5515586315e+00	-1.7991692231e+00
 1.3648207242e+00	 1.5649222796e+00	-1.8099034047e+00
 1.3495231282e+00	 1.5781332499e+00	-1.8181320422e+00
 1.3341034799e+00	 1.5911898180e+00	-1.8239044959e+00
 1.3185641271e+00	 1.6040903061e+00	-1.8272581167e+00
 1.3029074478e+00	 1.6168330836e+00	-1.8282185675e+00
 1.2871358485e+00	 1.6294165677e+00	-1.8268001254e+00
 1.2712517636e+00	 1.6418392244e+00	-1.8230059557e+00
 1.2552576537e+00	 1.6540995684e+00	-1.8168283527e+00
 1.2391560047e+00	 1.6661961644e+00	-1.8082489387e+00
 1.4009691398e+00	 1.5445804237e+00	-1.7784678167e+00
 1.3858586213e+00	 1.5581524135e+00	-1.7918108327e+00
 1.3706209114e+00	 1.5715728543e+00	-1.8025688049e+00
 1.3552583039e+00	 1.5848399683e+00	-1.8107885533e+00
 1.3397731255e+00	 1.5979520239e+00	-1.8165029930e+00
 1.3241677340e+00	 1.6109073362e+00	-1.8197315380e+00
 1.3084445172e+00	 1.6237042677e+00	-1.8204804945e+00
 1.2926058921e+00	 1.6363412289e+00	-1.8187434358e+00
 1.2766543033e+00	 1.6488166791e+00	-1.8145015495e+00
 1.2605922220e+00	 1.6611291269e+00	-1.8077239523e+00
 1.2444221445e+00	 1.6732771307e+00	-1.7983679632e+00
 1.4068977544e+00	 1.5511167719e+00	-1.7714668463e+00
 1.3917232913e+00	 1.5647461956e+00	-1.7848541138e+00
 1.3764210985e+00	 1.5782234289e+00	-1.7955839600e+00
 1.3609934797e+00	 1.5915466866e+00	-1.8037006055e+00
 1.3454427712e+00	 1.6047142298e+00	-1.8092333707e+00
 1.3297713408e+00	 1.6177243663e+00	-1.8121971329e+00
 1.3139815865e+00	 1.6305754518e+00	-1.8125927715e+00
 1.2980759356e+00	 1.6432658900e+00	-1.8104075961e+00
 1.2820568430e+00	 1.6557941338e+00	-1.8056157470e+00
 1.2659267902e+00	 1.6681586853e+00	-1.7981785630e+00
 1.2496882843e+00	 1.6803580971e+00	-1.7880449068e+00
 1.4128263691e+00	 1.5576531201e+00	-1.7647750677e+00
 1.3975879614e+00	 1.5713399777e+00	-1.7781968169e+00
 1.3822212857e+00	 1.5848740035e+00	-1.7888407494e+00
 1.3667286554e+00	 1.5982534050e+00	-1.7967606121e+00
 1.3511124168e+00	 1.6114764357e+00	-1.8019948201e+00
 1.3353749476e+00	 1.6245413965e+00	-1.8045669464e+00
 1.3195186559e+00	 1.6374466359e+00	-1.8044862024e+00
 1.3035459792e+00	 1.6501905512e+00	-1.8017478985e+00
 1.2874593827e+00	 1.6627715885e+00	-1.7963338787e+00
 1.2712613585e+00	 1.6751882438e+00	-1.7882129199e+00
 1.2549544241e+00	 1.6874390634e+00	-1.7773410891e+00
 1.4187549837e+00	 1.5641894683e+00	-1.7583054714e+00
 1.4034526314e+00	 1.5779337598e+00	-1.7717396938e+00
 1.3880214728e+00	 1.5915245782e+00	-1.7822341395e+00
 1.3724638312e+00	 1.6049601233e+00	-1.7898640529e+00
 1.3567820624e+00	 1.6182386416e+00	-1.7946894724e+00
 1.3409785544e+00	 1.6313584266e+00	-1.7967557357e+00
 1.3250557253e+00	 1.6443178200e+00	-1.7960939758e+00
 1.3090160227e+00	 1.6571152123e+00	-1.7927215961e+00
 1.2928619224e+00	 1.6697490431e+00	-1.7866427179e+00
 1.2765959267e+00	 1.6822178022e+00	-1.7778485925e+00
 1.2602205639e+00	 1.6945200297e+00	-1.7663179671e+00
 1.4246835984e+00	 1.5707258165e+00	-1.7519737963e+00
 1.4093173014e+00	 1.5845275419e+00	-1.7653864373e+00
 1.3938216600e+00	 1.5981751528e+00	-1.7756621231e+00
 1.3781990069e+00	 1.6116668417e+00	-1.7829094140e+00
 1.3624517081e+00	 1.6250008475e+00	-1.7872223429e+00
 1.3465821612e+00	 1.6381754567e+00	-1.7886809194e+00
 1.3305927947e+00	 1.6511890041e+00	-1.7873516218e+00
 1.3144860663e+00	 1.6640398735e+00	-1.7832878685e+00
 1.2982644621e+00	 1.6767264978e+00	-1.7765304588e+00
 1.2819304950e+00	 1.6892473607e+00	-1.7671079757e+00
 1.2654867037e+00	 1.7016009960e+00	-1.7550371426e+00
 1.4306122130e+00	 1.5772621647e+00	-1.7456984742e+00
 1.4151819714e+00	 1.5911213239e+00	-1.7590436226e+00
 1.3996218471e+00	 1.6048257275e+00	-1.7690256594e+00
 1.3839341827e+00	 1.6183735600e+00	-1.7757981288e+00
 1.3681213537e+00	 1.6317630533e+00	-1.7795012749e+00
 1.3521857680e+00	 1.6449924868e+00	-1.7802625269e+00
 1.3361298640e+00	 1.6580601882e+00	-1.7781969691e+00
 1.3199561098e+00	 1.6709645346e+00	-1.7734077894e+00
 1.3036670018e+00	 1.6837039525e+00	-1.7659866939e+00
 1.2872650633e+00	 1.6962769191e+00	-1.7560142814e+00
 1.2707528435e+00	 1.7086819623e+00	-1.7435603678e+00
 1.4365408276e+00	 1.5837985129e+00	-1.7394005744e+00
 1.4210466414e+00	 1.5977151060e+00	-1.7526206485e+00
 1.4054220343e+00	 1.6114763021e+00	-1.7622286144e+00
 1.3896693584e+00	 1.6250802784e+00	-1.7684345201e+00
 1.3737909994e+00	 1.6385252592e+00	-1.7714368852e+00
 1.3577893748e+00	 1.6518095169e+00	-1.7714231492e+00
 1.3416669334e+00	 1.6649313724e+00	-1.7685701025e+00
 1.3254261534e+00	 1.6778891957e+00	-1.7630442925e+00
 1.3090695415e+00	 1.6906814072e+00	-1.7550023926e+00
 1.2925996315e+00	 1.7033064776e+00	-1.7445915285e+00
 1.2760189833e+00	 1.7157629287e+00	-1.7319495506e+00
 1.4424694423e+00	 1.5903348611e+00	-1.7330037494e+00
 1.4269113115e+00	 1.6043088881e+00	-1.7460296800e+00
 1.4112222214e+00	 1.6181268767e+00	-1.7551777023e+00
 1.3954045341e+00	 1.6317869967e+00	-1.7607257423e+00
 1.3794606450e+00	 1.6452874651e+00	-1.7629425090e+00
 1.3633929816e+00	 1.6586265470e+00	-1.7620878892e+00
 1.3472040028e+00	 1.6718025565e+00	-1.7584133209e+00
 1.3308961970e+00	 1.6848138569e+00	-1.7521621386e+00
 1.3144720812e+00	 1.6976588619e+00	-1.7435698780e+00
 1.2979341998e+00	 1.7103360360e+00	-1.7328645337e+00
 1.2812851231e+00	 1.7228438950e+00	-1.7202667592e+00
 1.2286237251e+00	 1.6520342318e+00	-1.8264400112e+00
 1.2125575349e+00	 1.6638622866e+00	-1.8151965468e+00
 1.1963897440e+00	 1.6755253515e+00	-1.7981330512e+00
 1.1801228739e+00	 1.6870221614e+00	-1.7759080013e+00
 1.1637594664e+00	 1.6983515019e+00	-1.7504890127e+00
 1.1473020817e+00	 1.7095122102e+00	-1.7251587357e+00
 1.1307532976e+00	 1.7205031752e+00	-1.7001974851e+00
 1.1141157078e+00	 1.7313233376e+00	-1.6757959139e+00
 1.0973919210e+00	 1.7419716905e+00	-1.6521534569e+00
 1.0805845591e+00	 1.7524472793e+00	-1.6294672686e+00
 1.0636962566e+00	 1.7627492020e+00	-1.6079214882e+00
 1.2338898649e+00	 1.6591151981e+00	-1.8176266440e+00
 1.2177548117e+00	 1.6709939504e+00	-1.8055690349e+00
 1.2015177221e+00	 1.6827070057e+00	-1.7877777805e+00
 1.1851811288e+00	 1.6942530933e+00	-1.7650645203e+00
 1.1687475843e+00	 1.7056309938e+00	-1.7387120342e+00
 1.1522196598e+00	 1.7168395392e+00	-1.7124408169e+00
 1.1355999441e+00	 1.7278776138e+00	-1.6871888011e+00
 1.1188910422e+00	 1.7387441537e+00	-1.6633215643e+00
 1.1020955736e+00	 1.7494381477e+00	-1.6412176393e+00
 1.0852161719e+00	 1.7599586370e+00	-1.6212568165e+00
 1.0682554826e+00	 1.7703047160e+00	-1.6020694193e+00
 1.2391560047e+00	 1.6661961644e+00	-1.8082489387e+00
 1.2229520884e+00	 1.6781256143e+00	-1.7953980374e+00
 1.2066457003e+00	 1.6898886599e+00	-1.7770419544e+00
 1.1902393838e+00	 1.7014840253e+00	-1.7541305337e+00
 1.1737357022e+00	 1.7129104857e+00	-1.7276899384e+00
 1.1571372379e+00	 1.7241668683e+00	-1.7010879657e+00
 1.1404465907e+00	 1.7352520524e+00	-1.6762331440e+00
 1.1236663765e+00	 1.7461649698e+00	-1.6536486861e+00
 1.1067992263e+00	 1.7569046049e+00	-1.6338741477e+00
 1.0898477847e+00	 1.7674699948e+00	-1.6170498192e+00
 1.0728147085e+00	 1.7778602299e+00	-1.5954287429e+00
 1.2444221445e+00	 1.6732771307e+00	-1.7983679632e+00
 1.2281493651e+00	 1.6852572781e+00	-1.7847836696e+00
 1.2117736785e+00	 1.6970703141e+00	-1.7660537027e+00
 1.1952976387e+00	 1.7087149572e+00	-1.7432513640e+00
 1.1787238202e+00	 1.7201899775e+00	-1.7174758721e+00
 1.1620548161e+00	 1.7314941973e+00	-1.6911796957e+00
 1.1452932372e+00	 1.7426264911e+00	-1.6673931364e+00
 1.1284417108e+00	 1.7535857859e+00	-1.6468131220e+00
 1.1115028790e+00	 1.7643710621e+00	-1.6301224482e+00
 1.0944793975e+00	 1.7749813526e+00	-1.6125029939e+00
 1.0773739345e+00	 1.7854157439e+00	-1.5878983801e+00
 1.2496882843e+00	 1.6803580971e+00	-1.7880449068e+00
 1.2333466419e+00	 1.6923889420e+00	-1.7738254888e+00
 1.2169016567e+00	 1.7042519683e+00	-1.7549401026e+00
 1.2003558937e+00	 1.7159458892e+00	-1.7325709666e+00
 1.1837119381e+00	 1.7274694694e+00	-1.7079295789e+00
 1.1669723942e+00	 1.7388215263e+00	-1.6827974587e+00
 1.1501398838e+00	 1.7500009297e+00	-1.6607332666e+00
 1.1332170452e+00	 1.7610066021e+00	-1.6428526694e+00
 1.1162065317e+00	 1.7718375193e+00	-1.6274469911e+00
 1.0991110103e+00	 1.7824927103e+00	-1.6065808543e+00
 1.0819331605e+00	 1.7929712579e+00	-1.5795937023e+00
 1.2549544241e+00	 1.6874390634e+00	-1.7773410891e+00
 1.2385439186e+00	 1.6995206058e+00	-1.7626225180e+00
 1.2220296348e+00	 1.7114336225e+00	-1.7438272128e+00
 1.2054141486e+00	 1.7231768211e+00	-1.7222319719e+00
 1.1887000561e+00	 1.7347489613e+00	-1.6991453847e+00
 1.1718899723e+00	 1.7461488554e+00	-1.6760248631e+00
 1.1549865304e+00	 1.7573753683e+00	-1.6563201002e+00
 1.1379923795e+00	 1.7684274182e+00	-1.6411580045e+00
 1.1209101843e+00	 1.7793039765e+00	-1.6229886003e+00
 1.1037426231e+00	 1.7900040681e+00	-1.5994523959e+00
 1.0864923864e+00	 1.8005267719e+00	-1.5706316011e+00
 1.2602205639e+00	 1.6945200297e+00	-1.7663179671e+00
 1.2437411953e+00	 1.7066522697e+00	-1.7512732684e+00
 1.2271576130e+00	 1.7186152767e+00	-1.7328401072e+00
 1.2104724036e+00	 1.7304077531e+00	-1.7123757257e+00
 1.1936881740e+00	 1.7420284532e+00	-1.6912708236e+00
 1.1768075504e+00	 1.7534761844e+00	-1.6709474096e+00
 1.1598331769e+00	 1.7647498069e+00	-1.6542224033e+00
 1.1427677139e+00	 1.7758482343e+00	-1.6379750174e+00
 1.1256138370e+00	 1.7867704336e+00	-1.6169539095e+00
 1.1083742359e+00	 1.7975154259e+00	-1.5912872245e+00
 1.0910516124e+00	 1.8080822859e+00	-1.5611304122e+00
 1.2654867037e+00	 1.7016009960e+00	-1.7550371426e+00
 1.2489384720e+00	 1.7137839336e+00	-1.7398757602e+00
 1.2322855912e+00	 1.7257969309e+00	-1.7221029068e+00
 1.2155306585e+00	 1.7376386850e+00	-1.7031423283e+00
 1.1986762919e+00	 1.7493079451e+00	-1.6844520578e+00
 1.1817251286e+00	 1.7608035134e+00	-1.6675221921e+00
 1.1646798235e+00	 1.7721242455e+00	-1.6521052069e+00
 1.1475430482e+00	 1.7832690504e+00	-1.6328991200e+00
 1.1303174897e+00	 1.7942368908e+00	-1.6095550459e+00
 1.1130058486e+00	 1.8050267837e+00	-1.5822554955e+00
 1.0956108384e+00	 1.8156377998e+00	-1.5512098394e+00
 1.2707528435e+00	 1.7086819623e+00	-1.7435603678e+00
 1.2541357488e+00	 1.7209155974e+00	-1.7285275427e+00
 1.2374135694e+00	 1.7329785851e+00	-1.7117388100e+00
 1.2205889135e+00	 1.7448696170e+00	-1.6946706719e+00
 1.2036644099e+00	 1.7565874370e+00	-1.6788339185e+00
 1.1866427067e+00	 1.7681308425e+00	-1.6652872185e+00
 1.1695264700e+00	 1.7794986842e+00	-1.6478225091e+00
 1.1523183826e+00	 1.7906898665e+00	-1.6261750069e+00
 1.1350211424e+00	 1.8017033480e+00	-1.6010039615e+00
 1.1176374614e+00	 1.8125381414e+00	-1.5725278503e+00
 1.1001700644e+00	 1.8231933138e+00	-1.5409908784e+00
 1.2760189833e+00	 1.7157629287e+00	-1.7319495506e+00
 1.2593330255e+00	 1.7280472613e+00	-1.7173257137e+00
 1.2425415475e+00	 1.7401602394e+00	-1.7018701217e+00
 1.2256471684e+00	 1.7521005489e+00	-1.6870984766e+00
 1.2086525278e+00	 1.7638669289e+00	-1.6745599451e+00
 1.1915602848e+00	 1.7754581715e+00	-1.6611300162e+00
 1.1743731166e+00	 1.7868731228e+00	-1.6416418585e+00
 1.1570937169e+00	 1.7981106826e+00	-1.6180466366e+00
 1.1397247950e+00	 1.8091698052e+00	-1.5915123795e+00
 1.1222690742e+00	 1.8200494992e+00	-1.5622753541e+00
 1.1047292903e+00	 1.8307488278e+00	-1.5305957396e+00
 1.2812851231e+00	 1.7228438950e+00	-1.7202667592e+00
 1.2645303022e+00	 1.7351789251e+00	-1.7063669367e+00
 1.2476695257e+00	 1.7473418936e+00	-1.6926182814e+00
 1.2307054234e+00	 1.7593314809e+00	-1.6805623246e+00
 1.2136406457e+00	 1.7711464208e+00	-1.6701820926e+00
 1.1964778629e+00	 1.7827855005e+00	-1.6547357516e+00
 1.1792197631e+00	 1.7942475614e+00	-1.6338028922e+00
 1.1618690513e+00	 1.8055314987e+00	-1.6087571856e+00
 1.1444284477e+00	 1.8166362624e+00	-1.5812917414e+00
 1.1269006870e+00	 1.8275608570e+00	-1.5516694311e+00
 1.1092885163e+00	 1.8383043418e+00	-1.5201477713e+00
 1.0636962566e+00	 1.7627492020e+00	-1.6079214882e+00
 1.0467296589e+00	 1.7728766099e+00	-1.5867507856e+00
 1.0296874225e+00	 1.7828287087e+00	-1.5614540112e+00
 1.0125722123e+00	 1.7926047575e+00	-1.5321305442e+00
 9.9538670041e-01	 1.8022040683e+00	-1.4991087948e+00
 9.7813356446e-01	 1.8116260061e+00	-1.4627312410e+00
 9.6081548646e-01	 1.8208699886e+00	-1.4233543356e+00
 9.4343515160e-01	 1.8299354863e+00	-1.3813484174e+00
 9.2599524687e-01	 1.8388220224e+00	-1.3370976159e+00
 9.0849845989e-01	 1.8475291724e+00	-1.2909997400e+00
 8.9094747759e-01	 1.8560565644e+00	-1.2434661410e+00
 1.0682554826e+00	 1.7703047160e+00	-1.6020694193e+00
 1.0512161625e+00	 1.7804755321e+00	-1.5778039043e+00
 1.0341008794e+00	 1.7904702876e+00	-1.5501725288e+00
 1.0169123099e+00	 1.8002882387e+00	-1.5193915716e+00
 9.9965313725e-01	 1.8099286942e+00	-1.4856853465e+00
 9.8232605072e-01	 1.8193910164e+00	-1.4492863360e+00
 9.6493374381e-01	 1.8286746205e+00	-1.4104353459e+00
 9.4747891317e-01	 1.8377789748e+00	-1.3693816670e+00
 9.2996425734e-01	 1.8467036004e+00	-1.3263832333e+00
 9.1239247544e-01	 1.8554480712e+00	-1.2817067671e+00
 8.9476626595e-01	 1.8640120133e+00	-1.2356278991e+00
 1.0728147085e+00	 1.7778602299e+00	-1.5954287429e+00
 1.0557026660e+00	 1.7880744542e+00	-1.5684782638e+00
 1.0385143364e+00	 1.7981118666e+00	-1.5389963457e+00
 1.0212524074e+00	 1.8079717198e+00	-1.5071092505e+00
 1.0039195741e+00	 1.8176533200e+00	-1.4729459427e+00
 9.8651853699e-01	 1.8271560266e+00	-1.4366384484e+00
 9.6905200115e-01	 1.8364792524e+00	-1.3983222390e+00
 9.5152267474e-01	 1.8456224633e+00	-1.3581366241e+00
 9.3393326781e-01	 1.8545851785e+00	-1.3162251444e+00
 9.1628649100e-01	 1.8633669700e+00	-1.2727359510e+00
 8.9858505431e-01	 1.8719674623e+00	-1.2278221619e+00
 1.0773739345e+00	 1.7854157439e+00	-1.5878983801e+00
 1.0601891696e+00	 1.7956733764e+00	-1.5588344899e+00
 1.0429277933e+00	 1.8057534456e+00	-1.5279430949e+00
 1.0255925050e+00	 1.8156552010e+00	-1.4952682506e+00
 1.0081860109e+00	 1.8253779458e+00	-1.4608521852e+00
 9.9071102326e-01	 1.8349210368e+00	-1.4247358672e+00
 9.7317025849e-01	 1.8442838843e+00	-1.3869595988e+00
 9.5556643631e-01	 1.8534659519e+00	-1.3475636230e+00
 9.3790227828e-01	 1.8624667566e+00	-1.3065887296e+00
 9.2018050656e-01	 1.8712858687e+00	-1.2640768500e+00
 9.0240384266e-01	 1.8799229113e+00	-1.2200716275e+00
 1.0819331605e+00	 1.7929712579e+00	-1.5795937023e+00
 1.0646756731e+00	 1.8032722986e+00	-1.5489356580e+00
 1.0473412503e+00	 1.8133950246e+00	-1.5170335421e+00
 1.0299326025e+00	 1.8233386822e+00	-1.4838568894e+00
 1.0124524478e+00	 1.8331025717e+00	-1.4493696728e+00
 9.9490350953e-01	 1.8426860471e+00	-1.4135310623e+00
 9.7728851583e-01	 1.8520885162e+00	-1.3762962121e+00
 9.5961019788e-01	 1.8613094404e+00	-1.3376170615e+00
 9.4187128875e-01	 1.8703483347e+00	-1.2974431362e+00
 9.2407452212e-01	 1.8792047675e+00	-1.2557223369e+00
 9.0622263102e-01	 1.8878783602e+00	-1.2124017032e+00
 1.0864923864e+00	 1.8005267719e+00	-1.5706316011e+00
 1.0691621767e+00	 1.8108712208e+00	-1.5388472019e+00
 1.0517547072e+00	 1.8210366035e+00	-1.5062914842e+00
 1.0342727001e+00	 1.8310221634e+00	-1.4728670233e+00
 1.0167188846e+00	 1.8408271975e+00	-1.4384678871e+00
 9.9909599579e-01	 1.8504510573e+00	-1.4029805701e+00
 9.8140677317e-01	 1.8598931481e+00	-1.3662849563e+00
 9.6365395945e-01	 1.8691529289e+00	-1.3282552960e+00
 9.4584029922e-01	 1.8782299128e+00	-1.2887611826e+00
 9.2796853768e-01	 1.8871236663e+00	-1.2476685157e+00
 9.1004141937e-01	 1.8958338092e+00	-1.2048404369e+00
 1.0910516124e+00	 1.8080822859e+00	-1.5611304122e+00
 1.0736486803e+00	 1.8184701430e+00	-1.5286368241e+00
 1.0561681642e+00	 1.8286781825e+00	-1.4957436480e+00
 1.0386127976e+00	 1.8387056445e+00	-1.4622939386e+00
 1.0209853214e+00	 1.8485518234e+00	-1.4281200804e+00
 1.0032884821e+00	 1.8582160676e+00	-1.3930448803e+00
 9.8552503052e-01	 1.8676977800e+00	-1.3568826891e+00
 9.6769772102e-01	 1.8769964175e+00	-1.3194405359e+00
 9.4980930969e-01	 1.8861114909e+00	-1.2805192620e+00
 9.3186255324e-01	 1.8950425651e+00	-1.2399146375e+00
 9.1386020773e-01	 1.9037892582e+00	-1.1974184497e+00
 1.0956108384e+00	 1.8156377998e+00	-1.5512098394e+00
 1.0781351838e+00	 1.8260690651e+00	-1.5183744055e+00
 1.0605816211e+00	 1.8363197615e+00	-1.4854195894e+00
 1.0429528952e+00	 1.8463891257e+00	-1.4521362433e+00
 1.0252517583e+00	 1.8562764492e+00	-1.4183031632e+00
 1.0074809683e+00	 1.8659810778e+00	-1.3836883230e+00
 9.8964328786e-01	 1.8755024119e+00	-1.3480501382e+00
 9.7174148259e-01	 1.8848399060e+00	-1.3111387401e+00
 9.5377832015e-01	 1.8939930690e+00	-1.2726972474e+00
 9.3575656880e-01	 1.9029614638e+00	-1.2324630180e+00
 9.1767899609e-01	 1.9117447071e+00	-1.1901688679e+00
 1.1001700644e+00	 1.8231933138e+00	-1.5409908784e+00
 1.0826216874e+00	 1.8336679873e+00	-1.5081319150e+00
 1.0649950781e+00	 1.8439613405e+00	-1.4753515925e+00
 1.0472929928e+00	 1.8540726069e+00	-1.4423957598e+00
 1.0295181951e+00	 1.8640010751e+00	-1.4089975931e+00
 1.0116734546e+00	 1.8737460881e+00	-1.3748789570e+00
 9.9376154520e-01	 1.8833070438e+00	-1.3397517921e+00
 9.7578524416e-01	 1.8926833945e+00	-1.3033195130e+00
 9.5774733062e-01	 1.9018746471e+00	-1.2652783974e+00
 9.3965058435e-01	 1.9108803626e+00	-1.2253189546e+00
 9.2149778444e-01	 1.9197001561e+00	-1.1831272545e+00
 1.1047292903e+00	 1.8307488278e+00	-1.5305957396e+00
 1.0871081909e+00	 1.8412669095e+00	-1.4979833197e+00
 1.0694085350e+00	 1.8516029194e+00	-1.4655745702e+00
 1.0516330903e+00	 1.8617560881e+00	-1.4330774179e+00
 1.0337846320e+00	 1.8717257009e+00	-1.4001872646e+00
 1.0158659409e+00	 1.8815110983e+00	-1.3665884588e+00
 9.9787980254e-01	 1.8911116757e+00	-1.3319557924e+00
 9.7982900573e-01	 1.9005268831e+00	-1.2959560024e+00
 9.6171634109e-01	 1.9097562252e+00	-1.2582492619e+00
 9.4354459991e-01	 1.9187992614e+00	-1.2184906439e+00
 9.2531657280e-01	 1.9276556051e+00	-1.1763315422e+00
 1.1092885163e+00	 1.8383043418e+00	-1.5201477713e+00
 1.0915946945e+00	 1.8488658317e+00	-1.4880044947e+00
 1.0738219920e+00	 1.8592444984e+00	-1.4561259639e+00
 1.0559731879e+00	 1.8694395692e+00	-1.4241891485e+00
 1.0380510688e+00	 1.8794503267e+00	-1.3918593986e+00
 1.0200584271e+00	 1.8892761086e+00	-1.3587920128e+00
 1.0019980599e+00	 1.8989163076e+00	-1.3246338256e+00
 9.8387276730e-01	 1.9083703716e+00	-1.2890247976e+00
 9.6568535156e-01	 1.9176378033e+00	-1.2515995890e+00
 9.4743861547e-01	 1.9267181602e+00	-1.2119891004e+00
 9.2913536115e-01	 1.9356110540e+00	-1.1698219653e+00
 8.9094747759e-01	 1.8560565644e+00	-1.2434661410e+00
 8.7334198809e-01	 1.8644052817e+00	-1.1966509917e+00
 8.5568765327e-01	 1.8725735898e+00	-1.1522993945e+00
 8.3798715128e-01	 1.8805612704e+00	-1.1101881800e+00
 8.2024315482e-01	 1.8883681565e+00	-1.0700862660e+00
 8.0245832991e-01	 1.8959941319e+00	-1.0317554579e+00
 7.8463533479e-01	 1.9034391305e+00	-9.9495119882e-01
 7.6677681873e-01	 1.9107031366e+00	-9.5942326835e-01
 7.4888542094e-01	 1.9177861838e+00	-9.2491642412e-01
 7.3096376946e-01	 1.9246883549e+00	-8.9117098599e-01
 7.1301448007e-01	 1.9314097810e+00	-8.5792336114e-01
 8.9476626595e-01	 1.8640120133e+00	-1.2356278991e+00
 8.7708531561e-01	 1.8723965150e+00	-1.1900617453e+00
 8.5935531060e-01	 1.8805998342e+00	-1.1466157516e+00
 8.4157894054e-01	 1.8886217517e+00	-1.1050834527e+00
 8.2375888957e-01	 1.8964620998e+00	-1.0652543141e+00
 8.0589783516e-01	 1.9041207617e+00	-1.0269144634e+00
 7.8799844693e-01	 1.9115976711e+00	-9.8984736492e-01
 7.7006338551e-01	 1.9188928123e+00	-9.5383443383e-01
 7.5209530143e-01	 1.9260062189e+00	-9.1865558523e-01
 7.3409683398e-01	 1.9329379741e+00	-8.8408971814e-01
 7.1607061016e-01	 1.9396882097e+00	-8.4991513276e-01
 8.9858505431e-01	 1.8719674623e+00	-1.2278221619e+00
 8.8082864313e-01	 1.8803877483e+00	-1.1832213346e+00
 8.6302296792e-01	 1.8886260786e+00	-1.1404567095e+00
 8.4517072979e-01	 1.8966822330e+00	-1.0993395274e+00
 8.2727462432e-01	 1.9045560431e+00	-1.0596801663e+00
 8.0933734041e-01	 1.9122473914e+00	-1.0212888149e+00
 7.9136155907e-01	 1.9197562117e+00	-9.8397608041e-01
 7.7334995230e-01	 1.9270824880e+00	-9.4755352882e-01
 7.5530518192e-01	 1.9342262540e+00	-9.1183415273e-01
 7.3722989850e-01	 1.9411875934e+00	-8.7663276653e-01
 7.1912674025e-01	 1.9479666384e+00	-8.4176632772e-01
 9.0240384266e-01	 1.8799229113e+00	-1.2200716275e+00
 8.8457197066e-01	 1.8883789816e+00	-1.1761860915e+00
 8.6669062525e-01	 1.8966523230e+00	-1.1339043685e+00
 8.4876251904e-01	 1.9047427143e+00	-1.0930564185e+00
 8.3079035907e-01	 1.9126499863e+00	-1.0534739157e+00
 8.1277684566e-01	 1.9203740212e+00	-1.0149908725e+00
 7.9472467122e-01	 1.9279147524e+00	-9.7744419082e-01
 7.7663651908e-01	 1.9352721636e+00	-9.4067413914e-01
 7.5851506241e-01	 1.9424462891e+00	-9.0452474966e-01
 7.4036296303e-01	 1.9494372126e+00	-8.6884413630e-01
 7.2218287034e-01	 1.9562450671e+00	-8.3348473195e-01
 9.0622263102e-01	 1.8878783602e+00	-1.2124017032e+00
 8.8831529818e-01	 1.8963702150e+00	-1.1690144408e+00
 8.7035828259e-01	 1.9046785674e+00	-1.1270424347e+00
 8.5235430830e-01	 1.9128031956e+00	-1.0863353891e+00
 8.3430609383e-01	 1.9207439296e+00	-1.0467466752e+00
 8.1621635091e-01	 1.9285006510e+00	-1.0081339152e+00
 7.9808778336e-01	 1.9360732930e+00	-9.7035948737e-01
 7.7992308587e-01	 1.9434618393e+00	-9.3329094935e-01
 7.6172494290e-01	 1.9506663242e+00	-8.9680137642e-01
 7.4349602755e-01	 1.9576868319e+00	-8.6076961324e-01
 7.2523900043e-01	 1.9645234958e+00	-8.2508043894e-01
 9.1004141937e-01	 1.8958338092e+00	-1.2048404369e+00
 8.9205862570e-01	 1.9043614483e+00	-1.1617668476e+00
 8.7402593992e-01	 1.9127048118e+00	-1.1199561811e+00
 8.5594609755e-01	 1.9208636769e+00	-1.0792789220e+00
 8.3782182858e-01	 1.9288378728e+00	-1.0396105563e+00
 8.1965585616e-01	 1.9366272808e+00	-1.0008321252e+00
 8.0145089550e-01	 1.9442318336e+00	-9.6283069298e-01
 7.8320965266e-01	 1.9516515150e+00	-9.2549972820e-01
 7.6493482339e-01	 1.9588863593e+00	-8.8873939289e-01
 7.4662909207e-01	 1.9659364512e+00	-8.5245673979e-01
 7.2829513052e-01	 1.9728019245e+00	-8.1656581686e-01
 9.1386020773e-01	 1.9037892582e+00	-1.1974184497e+00
 8.9580195323e-01	 1.9123526816e+00	-1.1545057648e+00
 8.7769359725e-01	 1.9207310563e+00	-1.1127324082e+00
 8.5953788681e-01	 1.9289241582e+00	-1.0719906908e+00
 8.4133756333e-01	 1.9369318161e+00	-1.0321786480e+00
 8.2309536141e-01	 1.9447539106e+00	-9.9320057063e-01
 8.0481400765e-01	 1.9523903742e+00	-9.5496744753e-01
 7.8649621944e-01	 1.9598411907e+00	-9.1739731323e-01
 7.6814470388e-01	 1.9671063944e+00	-8.8041549979e-01
 7.4976215659e-01	 1.9741860704e+00	-8.4395479051e-01
 7.3135126060e-01	 1.9810803532e+00	-8.0795547562e-01
 9.1767899609e-01	 1.9117447071e+00	-1.1901688679e+00
 8.9954528075e-01	 1.9203439150e+00	-1.1472955810e+00
 8.8136125458e-01	 1.9287573007e+00	-1.1054594038e+00
 8.6312967606e-01	 1.9369846395e+00	-1.0645755299e+00
 8.4485329808e-01	 1.9450257593e+00	-1.0245649933e+00
 8.2653486666e-01	 1.9528805404e+00	-9.8535518791e-01
 8.0817711979e-01	 1.9605489148e+00	-9.4688029202e-01
 7.8978278623e-01	 1.9680308663e+00	-9.0908159449e-01
 7.7135458437e-01	 1.9753264296e+00	-8.7190771932e-01
 7.5289522111e-01	 1.9824356897e+00	-8.3531474709e-01
 7.3440739069e-01	 1.9893587819e+00	-7.9926623347e-01
 9.2149778444e-01	 1.9197001561e+00	-1.1831272545e+00
 9.0328860828e-01	 1.9283351483e+00	-1.1402025673e+00
 8.8502891191e-01	 1.9367835451e+00	-1.0982269029e+00
 8.6672146532e-01	 1.9450451208e+00	-1.0571394033e+00
 8.4836903283e-01	 1.9531197026e+00	-1.0168845666e+00
 8.2997437191e-01	 1.9610071702e+00	-9.7741276286e-01
 8.1154023193e-01	 1.9687074554e+00	-9.3868065197e-01
 7.9306935301e-01	 1.9762205420e+00	-9.0065149754e-01
 7.7456446486e-01	 1.9835464647e+00	-8.6329537516e-01
 7.5602828563e-01	 1.9906853090e+00	-8.2658927280e-01
 7.3746352078e-01	 1.9976372106e+00	-7.9051708356e-01
 9.2531657280e-01	 1.9276556051e+00	-1.1763315422e+00
 9.0703193580e-01	 1.9363263816e+00	-1.1332948240e+00
 8.8869656924e-01	 1.9448097895e+00	-1.0911260461e+00
 8.7031325457e-01	 1.9531056021e+00	-1.0497893739e+00
 8.5188476759e-01	 1.9612136458e+00	-1.0092532487e+00
 8.3341387716e-01	 1.9691337999e+00	-9.6949091108e-01
 8.1490334408e-01	 1.9768659961e+00	-9.3048081992e-01
 7.9635591980e-01	 1.9844102177e+00	-8.9220696553e-01
 7.7777434535e-01	 1.9917664998e+00	-8.5465907176e-01
 7.5916135015e-01	 1.9989349282e+00	-8.1783268652e-01
 7.4051965087e-01	 2.0059156394e+00	-7.8172916018e-01
 9.2913536115e-01	 1.9356110540e+00	-1.1698219653e+00
 9.1077526332e-01	 1.9443176149e+00	-1.1266422273e+00
 8.9236422656e-01	 1.9528360339e+00	-1.0842493388e+00
 8.7390504382e-01	 1.9611660834e+00	-1.0426335709e+00
 8.5540050234e-01	 1.9693075891e+00	-1.0017878025e+00
 8.3685338241e-01	 1.9772604297e+00	-9.6170805753e-01
 8.1826645622e-01	 1.9850245367e+00	-9.2239393707e-01
 7.9964248658e-01	 1.9925998934e+00	-8.8384894059e-01
 7.8098422584e-01	 1.9999865349e+00	-8.4608067303e-01
 7.6229441467e-01	 2.0071845475e+00	-8.0910093626e-01
 7.4357578096e-01	 2.0141940681e+00	-7.7292570481e-01
 7.1301448007e-01	 1.9314097810e+00	-8.5792336114e-01
 6.9504321235e-01	 1.9379495447e+00	-8.2283283134e-01
 6.7704950364e-01	 1.9443090295e+00	-7.8357131945e-01
 6.5903592457e-01	 1.9504885074e+00	-7.3993376209e-01
 6.4100502941e-01	 1.9564882968e+00	-6.9174857525e-01
 6.2295935516e-01	 1.9623087615e+00	-6.3887719403e-01
 6.0490142056e-01	 1.9679503103e+00	-5.8121353454e-01
 5.8683372519e-01	 1.9734133965e+00	-5.1873951148e-01
 5.6875874854e-01	 1.9786985165e+00	-4.6243404017e-01
 5.5067894919e-01	 1.9838062098e+00	-4.2018863024e-01
 5.3259676391e-01	 1.9887370581e+00	-3.9154405514e-01
 7.1607061016e-01	 1.9396882097e+00	-8.4991513276e-01
 6.9802231381e-01	 1.9462560043e+00	-8.1403172632e-01
 6.7995148028e-01	 1.9526427471e+00	-7.7433036195e-01
 6.6186069121e-01	 1.9588487116e+00	-7.3061564677e-01
 6.4375251184e-01	 1.9648742173e+00	-6.8272218804e-01
 6.2562949003e-01	 1.9707196297e+00	-6.3051414870e-01
 6.0749415532e-01	 1.9763853595e+00	-5.7388472498e-01
 5.8934901801e-01	 1.9818718615e+00	-5.1275555307e-01
 5.7119656821e-01	 1.9871796347e+00	-4.5554694074e-01
 5.5303927503e-01	 1.9923092207e+00	-4.1270820454e-01
 5.3487958570e-01	 1.9972612035e+00	-3.8379090521e-01
 7.1912674025e-01	 1.9479666384e+00	-8.4176632772e-01
 7.0100141526e-01	 1.9545624638e+00	-8.0533266786e-01
 6.8285345691e-01	 1.9609764647e+00	-7.6539943762e-01
 6.6468545785e-01	 1.9672089157e+00	-7.2177828335e-01
 6.4649999427e-01	 1.9732601378e+00	-6.7430785586e-01
 6.2829962490e-01	 1.9791304980e+00	-6.2285337657e-01
 6.1008689009e-01	 1.9848204086e+00	-5.6730612487e-01
 5.9186431083e-01	 1.9903303266e+00	-5.0758285407e-01
 5.7363438788e-01	 1.9956607529e+00	-4.4977294161e-01
 5.5539960088e-01	 2.0008122315e+00	-4.0627524504e-01
 5.3716240750e-01	 2.0057853490e+00	-3.7696682934e-01
 7.2218287034e-01	 1.9562450671e+00	-8.3348473195e-01
 7.0398051672e-01	 1.9628689233e+00	-7.9670622896e-01
 6.8575543354e-01	 1.9693101823e+00	-7.5671748555e-01
 6.6751022449e-01	 1.9755691199e+00	-7.1333457986e-01
 6.4924747670e-01	 1.9816460583e+00	-6.6639807916e-01
 6.3096975978e-01	 1.9875413662e+00	-6.1577261137e-01
 6.1267962486e-01	 1.9932554577e+00	-5.6134635645e-01
 5.9437960365e-01	 1.9987887916e+00	-5.0303046494e-01
 5.7607220754e-01	 2.0041418710e+00	-4.4497132958e-01
 5.5775992672e-01	 2.0093152423e+00	-4.0076155139e-01
 5.3944522929e-01	 2.0143094945e+00	-3.7096191902e-01
 7.2523900043e-01	 1.9645234958e+00	-8.2508043894e-01
 7.0695961817e-01	 1.9711753828e+00	-7.8812582920e-01
 6.8865741017e-01	 1.9776438999e+00	-7.4822673174e-01
 6.7033499113e-01	 1.9839293240e+00	-7.0520107244e-01
 6.5199495913e-01	 1.9900319788e+00	-6.5888922816e-01
 6.3363989465e-01	 1.9959522344e+00	-6.0915359862e-01
 6.1527235962e-01	 2.0016905068e+00	-5.5587809586e-01
 5.9689489647e-01	 2.0072472567e+00	-4.9896755887e-01
 5.7851002721e-01	 2.0126229892e+00	-4.4100406656e-01
 5.6012025256e-01	 2.0178182531e+00	-3.9604121006e-01
 5.4172805108e-01	 2.0228336400e+00	-3.6566807266e-01
 7.2829513052e-01	 1.9728019245e+00	-8.1656581686e-01
 7.0993871962e-01	 1.9794818423e+00	-7.7956769275e-01
 6.9155938681e-01	 1.9859776175e+00	-7.3987263989e-01
 6.7315975777e-01	 1.9922895281e+00	-6.9729787080e-01
 6.5474244156e-01	 1.9984178993e+00	-6.5168148508e-01
 6.3631002952e-01	 2.0043631027e+00	-6.0288203646e-01
 6.1786509439e-01	 2.0101255559e+00	-5.5077801450e-01
 5.9941018929e-01	 2.0157057217e+00	-4.9526724894e-01
 5.8094784688e-01	 2.0211041074e+00	-4.3773580980e-01
 5.6248057841e-01	 2.0263212640e+00	-3.9199061691e-01
 5.4401087287e-01	 2.0313577855e+00	-3.6097902226e-01
 7.3135126060e-01	 1.9810803532e+00	-8.0795547562e-01
 7.1291782108e-01	 1.9877883018e+00	-7.7101080641e-01
 6.9446136344e-01	 1.9943113351e+00	-7.3160386238e-01
 6.7598452442e-01	 2.0006497323e+00	-6.8954860417e-01
 6.5748992399e-01	 2.0068038198e+00	-6.4467878686e-01
 6.3898016440e-01	 2.0127739709e+00	-5.9684751703e-01
 6.2045782915e-01	 2.0185606050e+00	-5.4592672106e-01
 6.0192548211e-01	 2.0241641867e+00	-4.9180653267e-01
 5.8338566655e-01	 2.0295852256e+00	-4.3503393279e-01
 5.6484090425e-01	 2.0348242748e+00	-3.8848850008e-01
 5.4629369467e-01	 2.0398819309e+00	-3.5679036052e-01
 7.3440739069e-01	 1.9893587819e+00	-7.9926623347e-01
 7.1589692253e-01	 1.9960947613e+00	-7.6243687771e-01
 6.9736334007e-01	 2.0026450527e+00	-7.2337219166e-01
 6.7880929106e-01	 2.0090099364e+00	-6.8188036774e-01
 6.6023740642e-01	 2.0151897403e+00	-6.3778876845e-01
 6.4165029927e-01	 2.0211848391e+00	-5.9094346860e-01
 6.2305056392e-01	 2.0269956541e+00	-5.4120870428e-01
 6.0444077494e-01	 2.0326226518e+00	-4.8846623724e-01
 5.8582348622e-01	 2.0380663437e+00	-4.3276854678e-01
 5.6720123010e-01	 2.0433272856e+00	-3.8541594355e-01
 5.4857651646e-01	 2.0484060764e+00	-3.5299956823e-01
 7.3746352078e-01	 1.9976372106e+00	-7.9051708356e-01
 7.1887602399e-01	 2.0044012208e+00	-7.5383029302e-01
 7.0026531671e-01	 2.0109787703e+00	-7.1513251179e-01
 6.8163405770e-01	 2.0173701406e+00	-6.7422366940e-01
 6.6298488885e-01	 2.0235756608e+00	-6.3092270674e-01
 6.4432043415e-01	 2.0295957074e+00	-5.8506709833e-01
 6.2564329869e-01	 2.0354307032e+00	-5.3651227635e-01
 6.0695606776e-01	 2.0410811168e+00	-4.8513096540e-01
 5.8826130589e-01	 2.0465474619e+00	-4.3081243727e-01
 5.6956155594e-01	 2.0518302965e+00	-3.8265641108e-01
 5.5085933825e-01	 2.0569302219e+00	-3.4950604201e-01
 7.4051965087e-01	 2.0059156394e+00	-7.8172916018e-01
 7.2185512544e-01	 2.0127076804e+00	-7.4517807577e-01
 7.0316729334e-01	 2.0193124879e+00	-7.0684275029e-01
 6.8445882434e-01	 2.0257303447e+00	-6.6651237707e-01
 6.6573237129e-01	 2.0319615813e+00	-6.2399546496e-01
 6.4699056902e-01	 2.0380065756e+00	-5.7911933561e-01
 6.2823603346e-01	 2.0438657523e+00	-5.3172951699e-01
 6.0947136058e-01	 2.0495395819e+00	-4.8168904200e-01
 5.9069912556e-01	 2.0550285801e+00	-4.2887766234e-01
 5.7192188179e-01	 2.0603333073e+00	-3.8009577065e-01
 5.5314216005e-01	 2.0654543674e+00	-3.4621112232e-01
 7.4357578096e-01	 2.0141940681e+00	-7.7292570481e-01
 7.2483422690e-01	 2.0210141399e+00	-7.3646984460e-01
 7.0606926997e-01	 2.0276462055e+00	-6.9846383019e-01
 6.8728359099e-01	 2.0340905489e+00	-6.5868366632e-01
 6.6847985372e-01	 2.0403475018e+00	-6.1692543763e-01
 6.4966070390e-01	 2.0464174439e+00	-5.7300477607e-01
 6.3082876822e-01	 2.0523008014e+00	-5.2675621812e-01
 6.1198665341e-01	 2.0579980469e+00	-4.7803246113e-01
 5.9313694523e-01	 2.0635096983e+00	-4.2670352903e-01
 5.7428220763e-01	 2.0688363181e+00	-3.7762231939e-01
 5.5542498184e-01	 2.0739785129e+00	-3.4301812190e-01
 5.3259676391e-01	 1.9887370581e+00	-3.9154405514e-01
 5.1451460713e-01	 1.9934916845e+00	-3.6957130360e-01
 4.9643487084e-01	 1.9980707547e+00	-3.4734575274e-01
 4.7835992304e-01	 2.0024749745e+00	-3.2448637882e-01
 4.6029210677e-01	 2.0067050887e+00	-3.0065694376e-01
 4.4223373939e-01	 2.0107618803e+00	-2.7556573388e-01
 4.2418711190e-01	 2.0146461694e+00	-2.4896512671e-01
 4.0615448827e-01	 2.0183588128e+00	-2.2065100981e-01
 3.8813810481e-01	 2.0219007028e+00	-1.9046207469e-01
 3.7014016961e-01	 2.0252727667e+00	-1.5827900720e-01
 3.5216286193e-01	 2.0284759653e+00	-1.2402359494e-01
 5.3487958570e-01	 1.9972612035e+00	-3.8379090521e-01
 5.1671992500e-01	 2.0020362093e+00	-3.6178030741e-01
 4.9856269515e-01	 2.0066349064e+00	-3.3966196195e-01
 4.8041027432e-01	 2.0110580036e+00	-3.1702194433e-01
 4.6226501559e-01	 2.0153062490e+00	-2.9349434532e-01
 4.4412924625e-01	 2.0193804288e+00	-2.6876088765e-01
 4.2600526711e-01	 2.0232813668e+00	-2.4255037028e-01
 4.0789535186e-01	 2.0270099233e+00	-2.1463796504e-01
 3.8980174639e-01	 2.0305669947e+00	-1.8484438941e-01
 3.7172666826e-01	 2.0339535119e+00	-1.5303497750e-01
 3.5367230605e-01	 2.0371704401e+00	-1.1911867035e-01
 5.3716240750e-01	 2.0057853490e+00	-3.7696682934e-01
 5.1892524286e-01	 2.0105807341e+00	-3.5477989307e-01
 5.0069051946e-01	 2.0151990580e+00	-3.3264367169e-01
 4.8246062560e-01	 2.0196410327e+00	-3.1011333795e-01
 4.6423792440e-01	 2.0239074092e+00	-2.8679505372e-01
 4.4602475310e-01	 2.0279989773e+00	-2.6234546397e-01
 4.2782342233e-01	 2.0319165642e+00	-2.3647101810e-01
 4.0963621545e-01	 2.0356610339e+00	-2.0892714471e-01
 3.9146538798e-01	 2.0392332865e+00	-1.7951730374e-01
 3.7331316691e-01	 2.0426342571e+00	-1.4809193917e-01
 3.5518175017e-01	 2.0458649149e+00	-1.1454735366e-01
 5.3944522929e-01	 2.0143094945e+00	-3.7096191902e-01
 5.2113056072e-01	 2.0191252589e+00	-3.4847986537e-01
 5.0281834376e-01	 2.0237632097e+00	-3.2621746568e-01
 4.8451097688e-01	 2.0282240618e+00	-3.0370100740e-01
 4.6621083322e-01	 2.0325085695e+00	-2.8051048664e-01
 4.4792025996e-01	 2.0366175258e+00	-2.5627897835e-01
 4.2964157754e-01	 2.0405517615e+00	-2.3069183458e-01
 4.1137707905e-01	 2.0443121444e+00	-2.0348573723e-01
 3.9312902956e-01	 2.0478995784e+00	-1.7444763018e-01
 3.7489966555e-01	 2.0513150023e+00	-1.4341355458e-01
 3.5669119430e-01	 2.0545593897e+00	-1.1026740927e-01
 5.4172805108e-01	 2.0228336400e+00	-3.6566807266e-01
 5.2333587859e-01	 2.0276697837e+00	-3.4279133876e-01
 5.0494616807e-01	 2.0323273614e+00	-3.2031079712e-01
 4.8656132815e-01	 2.0368070908e+00	-2.9772588756e-01
 4.6818374204e-01	 2.0411097297e+00	-2.7459222482e-01
 4.4981576681e-01	 2.0452360743e+00	-2.5052084421e-01
 4.3145973275e-01	 2.0491869589e+00	-2.2517727614e-01
 4.1311794264e-01	 2.0529632550e+00	-1.9828047686e-01
 3.9479267114e-01	 2.0565658702e+00	-1.6960164096e-01
 3.7648616420e-01	 2.0599957475e+00	-1.3896292013e-01
 3.5820063842e-01	 2.0632538645e+00	-1.0623607058e-01
 5.4401087287e-01	 2.0313577855e+00	-3.6097902226e-01
 5.2554119645e-01	 2.0362143085e+00	-3.3762676875e-01
 5.0707399238e-01	 2.0408915130e+00	-3.1485202389e-01
 4.8861167943e-01	 2.0453901199e+00	-2.9212943819e-01
 4.7015665086e-01	 2.0497108899e+00	-2.6899205143e-01
 4.5171127367e-01	 2.0538546228e+00	-2.4503041268e-01
 4.3327788796e-01	 2.0578221563e+00	-2.1989153050e-01
 4.1485880623e-01	 2.0616143656e+00	-1.9327768143e-01
 3.9645631273e-01	 2.0652321620e+00	-1.6494510324e-01
 3.7807266284e-01	 2.0686764927e+00	-1.3470259781e-01
 3.5971008254e-01	 2.0719483393e+00	-1.0241006684e-01
 5.4629369467e-01	 2.0398819309e+00	-3.5679036052e-01
 5.2774651431e-01	 2.0447588333e+00	-3.3289998362e-01
 5.0920181669e-01	 2.0494556647e+00	-3.0977044367e-01
 4.9066203071e-01	 2.0539731490e+00	-2.8685368159e-01
 4.7212955967e-01	 2.0583120502e+00	-2.6366199117e-01
 4.5360678052e-01	 2.0624731713e+00	-2.3976701222e-01
 4.3509604318e-01	 2.0664573537e+00	-2.1479855571e-01
 4.1659966983e-01	 2.0702654761e+00	-1.8844328979e-01
 3.9811995431e-01	 2.0738984539e+00	-1.6044331389e-01
 3.7965916149e-01	 2.0773572379e+00	-1.3059464639e-01
 3.6121952667e-01	 2.0806428141e+00	-9.8745649775e-02
 5.4857651646e-01	 2.0484060764e+00	-3.5299956823e-01
 5.2995183218e-01	 2.0533033581e+00	-3.2852621613e-01
 5.1132964100e-01	 2.0580198164e+00	-3.0499632910e-01
 4.9271238200e-01	 2.0625561781e+00	-2.8184124016e-01
 4.7410246849e-01	 2.0669132104e+00	-2.5855434920e-01
 4.5550228738e-01	 2.0710917198e+00	-2.3468998788e-01
 4.3691419839e-01	 2.0750925511e+00	-2.0986211883e-01
 4.1834053342e-01	 2.0789165867e+00	-1.8374289889e-01
 3.9978359589e-01	 2.0825647457e+00	-1.5606113404e-01
 3.8124566014e-01	 2.0860379832e+00	-1.2660065246e-01
 3.6272897079e-01	 2.0893372889e+00	-9.5198620069e-02
 5.5085933825e-01	 2.0569302219e+00	-3.4950604201e-01
 5.3215715004e-01	 2.0618478829e+00	-3.2442213553e-01
 5.1345746531e-01	 2.0665839680e+00	-3.0046096298e-01
 4.9476273328e-01	 2.0711392072e+00	-2.7703537385e-01
 4.7607537731e-01	 2.0755143707e+00	-2.5362174990e-01
 4.5739779424e-01	 2.0797102683e+00	-2.2975874037e-01
 4.3873235360e-01	 2.0837277484e+00	-2.0504583435e-01
 4.2008139701e-01	 2.0875676972e+00	-1.7914180059e-01
 4.0144723748e-01	 2.0912310376e+00	-1.5176302332e-01
 3.8283215878e-01	 2.0947187284e+00	-1.2268176109e-01
 3.6423841491e-01	 2.0980317637e+00	-9.1724353605e-02
 5.5314216005e-01	 2.0654543674e+00	-3.4621112232e-01
 5.3436246791e-01	 2.0703924078e+00	-3.2050587962e-01
 5.1558528963e-01	 2.0751481197e+00	-2.9609667346e-01
 4.9681308456e-01	 2.0797222362e+00	-2.7238001749e-01
 4.7804828613e-01	 2.0841155309e+00	-2.4881717537e-01
 4.5929330109e-01	 2.0883288168e+00	-2.2493276490e-01
 4.4055050882e-01	 2.0923629458e+00	-2.0031320233e-01
 4.2182226061e-01	 2.0962188078e+00	-1.7460501820e-01
 4.0311087906e-01	 2.0998973294e+00	-1.4751307384e-01
 3.8441865743e-01	 2.1033994736e+00	-1.1879870636e-01
 3.6574785904e-01	 2.1067262385e+00	-8.8277827573e-02
 5.5542498184e-01	 2.0739785129e+00	-3.4301812190e-01
 5.3656778577e-01	 2.0789369326e+00	-3.1669708701e-01
 5.1771311394e-01	 2.0837122714e+00	-2.9183686929e-01
 4.9886343584e-01	 2.0883052653e+00	-2.6781981804e-01
 4.8002119495e-01	 2.0927166911e+00	-2.4409400383e-01
 4.6118880795e-01	 2.0969473653e+00	-2.2017168970e-01
 4.4236866403e-01	 2.1009981432e+00	-1.9562764623e-01
 4.2356312421e-01	 2.1048699183e+00	-1.7009734264e-01
 4.0477452065e-01	 2.1085636212e+00	-1.4327504382e-01
 3.8600515608e-01	 2.1120802188e+00	-1.1491184157e-01
 3.6725730316e-01	 2.1154207133e+00	-8.4813646376e-02
 3.5216286193e-01	 2.0284759653e+00	-1.2402359494e-01
 3.3420528204e-01	 2.0315117943e+00	-9.0070388566e-02
 3.1627261310e-01	 2.0343807202e+00	-5.8752084539e-02
 2.9836695041e-01	 2.0370837996e+00	-2.9969688438e-02
 2.8049035836e-01	 2.0396221193e+00	-3.6631746745e-03
 2.6264486992e-01	 2.0419967957e+00	 2.0189393574e-02
 2.4483248629e-01	 2.0442089737e+00	 4.1572744085e-02
 2.2705517649e-01	 2.0462598259e+00	 6.0435264826e-02
 2.0931487706e-01	 2.0481505519e+00	 7.6689853976e-02
 1.9161349164e-01	 2.0498823769e+00	 9.0214743336e-02
 1.7395289077e-01	 2.0514565511e+00	 1.0085428908e-01
 3.5367230605e-01	 2.0371704401e+00	-1.1911867035e-01
 3.3563775620e-01	 2.0402192813e+00	-8.5462693509e-02
 3.1762822406e-01	 2.0431005041e+00	-5.4403316077e-02
 2.9964581394e-01	 2.0458151694e+00	-2.5846721827e-02
 2.8169259905e-01	 2.0483643689e+00	 2.6237827298e-04
 2.6377062109e-01	 2.0507492236e+00	 2.3941682281e-02
 2.4588188984e-01	 2.0529708834e+00	 4.5172226234e-02
 2.2802838276e-01	 2.0550305261e+00	 6.3899295602e-02
 2.1021204466e-01	 2.0569293561e+00	 8.0033310463e-02
 1.9243478738e-01	 2.0586686040e+00	 9.3450677017e-02
 1.7469848946e-01	 2.0602495255e+00	 1.0399459942e-01
 3.5518175017e-01	 2.0458649149e+00	-1.1454735366e-01
 3.3707023036e-01	 2.0489267683e+00	-8.1227930568e-02
 3.1898383503e-01	 2.0518202879e+00	-5.0457746653e-02
 3.0092467747e-01	 2.0545465392e+00	-2.2147875015e-02
 2.8289483975e-01	 2.0571066184e+00	 3.7524730429e-03
 2.6489637227e-01	 2.0595016515e+00	 2.7256943557e-02
 2.4693129339e-01	 2.0617327932e+00	 4.8343021060e-02
 2.2900158902e-01	 2.0638012263e+00	 6.6952985044e-02
 2.1110921227e-01	 2.0657081603e+00	 8.2994832873e-02
 1.9325608313e-01	 2.0674548312e+00	 9.6343161803e-02
 1.7544408815e-01	 2.0690424999e+00	 1.0684000410e-01
 3.5669119430e-01	 2.0545593897e+00	-1.1026740927e-01
 3.3850270451e-01	 2.0576342553e+00	-7.7317373251e-02
 3.2033944599e-01	 2.0605400717e+00	-4.6861716971e-02
 3.0220354100e-01	 2.0632779090e+00	-1.8816129723e-02
 2.8409708044e-01	 2.0658488680e+00	 6.8658995572e-03
 2.6602212344e-01	 2.0682540794e+00	 3.0194140328e-02
 2.4798069694e-01	 2.0704947030e+00	 5.1142656805e-02
 2.2997479528e-01	 2.0725719264e+00	 6.9650812209e-02
 2.1200637987e-01	 2.0744869645e+00	 8.5624232024e-02
 1.9407737887e-01	 2.0762410584e+00	 9.8935718889e-02
 1.7618968684e-01	 2.0778354743e+00	 1.0942611321e-01
 3.5820063842e-01	 2.0632538645e+00	-1.0623607058e-01
 3.3993517867e-01	 2.0663417423e+00	-7.3681823950e-02
 3.2169505696e-01	 2.0692598555e+00	-4.3561145805e-02
 3.0348240453e-01	 2.0720092788e+00	-1.5794084504e-02
 2.8529932113e-01	 2.0745911176e+00	 9.6618022872e-03
 2.6714787462e-01	 2.0770065074e+00	 3.2812571348e-02
 2.4903010049e-01	 2.0792566128e+00	 5.3628988460e-02
 2.3094800154e-01	 2.0813426266e+00	 7.2047583248e-02
 2.1290354748e-01	 2.0832657688e+00	 8.7971655367e-02
 1.9489867461e-01	 2.0850272856e+00	 1.0127222466e-01
 1.7693528553e-01	 2.0866284488e+00	 1.1178891942e-01
 3.5971008254e-01	 2.0719483393e+00	-1.0241006684e-01
 3.4136765283e-01	 2.0750492293e+00	-7.0271635862e-02
 3.2305066793e-01	 2.0779796393e+00	-4.0501547476e-02
 3.0476126806e-01	 2.0807406486e+00	-1.3023968284e-02
 2.8650156183e-01	 2.0833333671e+00	 1.2199670162e-02
 2.6827362580e-01	 2.0857589353e+00	 3.5171864044e-02
 2.5007950404e-01	 2.0880185226e+00	 5.5860193052e-02
 2.3192120780e-01	 2.0901133268e+00	 7.4198428625e-02
 2.1380071508e-01	 2.0920445730e+00	 9.0087585649e-02
 1.9571997035e-01	 2.0938135128e+00	 1.0339691026e-01
 1.7768088423e-01	 2.0954214232e+00	 1.1396479795e-01
 3.6121952667e-01	 2.0806428141e+00	-9.8745649775e-02
 3.4280012699e-01	 2.0837567163e+00	-6.7036734774e-02
 3.2440627889e-01	 2.0866994232e+00	-3.7628049278e-02
 3.0604013158e-01	 2.0894720184e+00	-1.0447653899e-02
 2.8770380252e-01	 2.0920756167e+00	 1.4539326421e-02
 2.6939937697e-01	 2.0945113632e+00	 3.7331967277e-02
 2.5112890760e-01	 2.0967804324e+00	 5.7894764821e-02
 2.3289441406e-01	 2.0988840269e+00	 7.6158800213e-02
 2.1469788269e-01	 2.1008233772e+00	 9.2022839429e-02
 1.9654126610e-01	 2.1025997400e+00	 1.0535436108e-01
 1.7842648292e-01	 2.1042143976e+00	 1.1599050649e-01
 3.6272897079e-01	 2.0893372889e+00	-9.5198620069e-02
 3.4423260114e-01	 2.0924642033e+00	-6.3926640751e-02
 3.2576188986e-01	 2.0954192070e+00	-3.4885408854e-02
 3.0731899511e-01	 2.0982033881e+00	-8.0066716481e-03
 2.8890604321e-01	 2.1008178662e+00	 1.6740918414e-02
 2.7052512815e-01	 2.1032637911e+00	 3.9353144010e-02
 2.5217831115e-01	 2.1055423421e+00	 5.9791510272e-02
 2.3386762033e-01	 2.1076547271e+00	 7.7984468254e-02
 2.1559505030e-01	 2.1096021814e+00	 9.3828565456e-02
 1.9736256184e-01	 2.1113859671e+00	 1.0718951602e-01
 1.7917208161e-01	 2.1130073720e+00	 1.1790318491e-01
 3.6423841491e-01	 2.0980317637e+00	-9.1724353605e-02
 3.4566507530e-01	 2.1011716903e+00	-6.0890489701e-02
 3.2711750082e-01	 2.1041389908e+00	-3.2218031530e-02
 3.0859785864e-01	 2.1069347579e+00	-5.6422228521e-03
 2.9010828391e-01	 2.1095601158e+00	 1.8864907344e-02
 2.7165087932e-01	 2.1120162190e+00	 4.1295963889e-02
 2.5322771470e-01	 2.1143042519e+00	 6.1609543116e-02
 2.3484082659e-01	 2.1164254273e+00	 7.9731518188e-02
 2.1649221790e-01	 2.1183809856e+00	 9.5556242917e-02
 1.9818385758e-01	 2.1201721943e+00	 1.0894766671e-01
 1.7991768030e-01	 2.1218003465e+00	 1.1974035498e-01
 3.6574785904e-01	 2.1067262385e+00	-8.8277827573e-02
 3.4709754946e-01	 2.1098791773e+00	-5.7877054836e-02
 3.2847311179e-01	 2.1128587746e+00	-2.9569987601e-02
 3.0987672217e-01	 2.1156661277e+00	-3.2951934221e-03
 2.9131052460e-01	 2.1183023654e+00	 2.0972057963e-02
 2.7277663050e-01	 2.1207686470e+00	 4.3221295733e-02
 2.5427711825e-01	 2.1230661617e+00	 6.3408279108e-02
 2.3581403285e-01	 2.1251961274e+00	 8.1456347364e-02
 2.1738938551e-01	 2.1271597898e+00	 9.7257679554e-02
 1.9900515333e-01	 2.1289584215e+00	 1.1067445655e-01
 1.8066327899e-01	 2.1305933209e+00	 1.2153991983e-01
 3.6725730316e-01	 2.1154207133e+00	-8.4813646376e-02
 3.4853002362e-01	 2.1185866643e+00	-5.4834768033e-02
 3.2982872276e-01	 2.1215785585e+00	-2.6885029574e-02
 3.1115558570e-01	 2.1243974975e+00	-9.0616743281e-04
 2.9251276530e-01	 2.1270446149e+00	 2.3123428215e-02
 2.7390238167e-01	 2.1295210749e+00	 4.5190299953e-02
 2.5532652180e-01	 2.1318280715e+00	 6.5247430770e-02
 2.3678723911e-01	 2.1339668276e+00	 8.3215661624e-02
 2.1828655311e-01	 2.1359385941e+00	 9.8985009653e-02
 1.9982644907e-01	 2.1377446487e+00	 1.1241587967e-01
 1.8140887769e-01	 2.1393862953e+00	 1.2334016344e-01
 1.7395289077e-01	 2.0514565511e+00	 1.0085428908e-01
 1.5633789565e-01	 2.0528741210e+00	 1.1018833448e-01
 1.3876726916e-01	 2.0541366640e+00	 1.1980065956e-01
 1.2124273991e-01	 2.0552454988e+00	 1.2948814021e-01
 1.0376600355e-01	 2.0562019652e+00	 1.3901634820e-01
 8.6338722586e-02	 2.0570074237e+00	 1.4812001105e-01
 6.8962526251e-02	 2.0576632541e+00	 1.5650342999e-01
 5.1639010350e-02	 2.0581708551e+00	 1.6384085727e-01
 3.4369737168e-02	 2.0585316430e+00	 1.6977683530e-01
 1.7156235382e-02	 2.0587470513e+00	 1.7392650048e-01
 0.0000000000e+00	 2.0588185294e+00	 1.7587585530e-01
 1.7469848946e-01	 2.0602495255e+00	 1.0399459942e-01
 1.5700799276e-01	 2.0616731714e+00	 1.1325258182e-01
 1.3936205487e-01	 2.0629411260e+00	 1.2281282017e-01
 1.2176241180e-01	 2.0640547134e+00	 1.3246596741e-01
 1.0421076647e-01	 2.0650152795e+00	 1.4197038708e-01
 8.6708788518e-02	 2.0658241903e+00	 1.5105265048e-01
 6.9258114149e-02	 2.0664828318e+00	 1.5940798674e-01
 5.1860346014e-02	 2.0669926084e+00	 1.6670068740e-01
 3.4517053093e-02	 2.0673549428e+00	 1.7256446822e-01
 1.7229770617e-02	 2.0675712743e+00	 1.7660279125e-01
 0.0000000000e+00	 2.0676430588e+00	 1.7838915111e-01
 1.7544408815e-01	 2.0690424999e+00	 1.0684000410e-01
 1.5767808988e-01	 2.0704722218e+00	 1.1606837528e-01
 1.3995684059e-01	 2.0717455879e+00	 1.2560924216e-01
 1.2228208370e-01	 2.0728639281e+00	 1.3524789108e-01
 1.0465552940e-01	 2.0738285937e+00	 1.4473656012e-01
 8.7078854450e-02	 2.0746409569e+00	 1.5379496747e-01
 6.9553702047e-02	 2.0753024094e+00	 1.6211078718e-01
 5.2081681678e-02	 2.0758143618e+00	 1.6934007458e-01
 3.4664369019e-02	 2.0761782425e+00	 1.7510764379e-01
 1.7303305852e-02	 2.0763954974e+00	 1.7900740100e-01
 0.0000000000e+00	 2.0764675882e+00	 1.8060263760e-01
 1.7618968684e-01	 2.0778354743e+00	 1.0942611321e-01
 1.5834818700e-01	 2.0792712723e+00	 1.1866382467e-01
 1.4055162630e-01	 2.0805500499e+00	 1.2821296343e-01
 1.2280175559e-01	 2.0816731427e+00	 1.3785428962e-01
 1.0510029232e-01	 2.0826419080e+00	 1.4733498255e-01
 8.7448920382e-02	 2.0834577236e+00	 1.5636919418e-01
 6.9849289945e-02	 2.0841219871e+00	 1.6463854447e-01
 5.2303017341e-02	 2.0846361151e+00	 1.7179256079e-01
 3.4811684943e-02	 2.0850015423e+00	 1.7744906444e-01
 1.7376841086e-02	 2.0852197204e+00	 1.8119450803e-01
 0.0000000000e+00	 2.0852921176e+00	 1.8258426818e-01
 1.7693528553e-01	 2.0866284488e+00	 1.1178891942e-01
 1.5901828411e-01	 2.0880703227e+00	 1.2106742419e-01
 1.4114641202e-01	 2.0893545118e+00	 1.3064734846e-01
 1.2332142749e-01	 2.0904823574e+00	 1.4030575078e-01
 1.0554505525e-01	 2.0914552223e+00	 1.4978580253e-01
 8.7818986313e-02	 2.0922744902e+00	 1.5879736065e-01
 7.0144877842e-02	 2.0929415647e+00	 1.6701747611e-01
 5.2524353004e-02	 2.0934578684e+00	 1.7409084087e-01
 3.4959000868e-02	 2.0938248420e+00	 1.7963017654e-01
 1.7450376320e-02	 2.0940439435e+00	 1.8321656877e-01
 0.0000000000e+00	 2.0941166470e+00	 1.8439975219e-01
 1.7768088423e-01	 2.0954214232e+00	 1.1396479795e-01
 1.5968838123e-01	 2.0968693731e+00	 1.2330805305e-01
 1.4174119773e-01	 2.0981589738e+00	 1.3293609050e-01
 1.2384109938e-01	 2.0992915720e+00	 1.4262307629e-01
 1.0598981817e-01	 2.1002685365e+00	 1.5210920929e-01
 8.8189052244e-02	 2.1010912568e+00	 1.6110130708e-01
 7.0440465740e-02	 2.1017611424e+00	 1.6927332143e-01
 5.2745688667e-02	 2.1022796218e+00	 1.7626678614e-01
 3.5106316793e-02	 2.1026481418e+00	 1.8169120101e-01
 1.7523911554e-02	 2.1028681665e+00	 1.8512435617e-01
 0.0000000000e+00	 2.1029411764e+00	 1.8611260202e-01
 1.7842648292e-01	 2.1042143976e+00	 1.1599050649e-01
 1.6035847835e-01	 2.1056684235e+00	 1.2541497601e-01
 1.4233598344e-01	 2.1069634357e+00	 1.3510321360e-01
 1.2436077128e-01	 2.1081007867e+00	 1.4482728640e-01
 1.0643458110e-01	 2.1090818508e+00	 1.5432544088e-01
 8.8559118175e-02	 2.1099080235e+00	 1.6330269589e-01
 7.0736053637e-02	 2.1105807201e+00	 1.7143135873e-01
 5.2967024330e-02	 2.1111013751e+00	 1.7835146742e-01
 3.5253632717e-02	 2.1114714416e+00	 1.8367116307e-01
 1.7597446789e-02	 2.1116923896e+00	 1.8696699712e-01
 0.0000000000e+00	 2.1117657059e+00	 1.8778417897e-01
 1.7917208161e-01	 2.1130073720e+00	 1.1790318491e-01
 1.6102857546e-01	 2.1144674740e+00	 1.2741784382e-01
 1.4293076916e-01	 2.1157678977e+00	 1.3717307458e-01
 1.2488044317e-01	 2.1169100013e+00	 1.4693962415e-01
 1.0687934402e-01	 2.1178951651e+00	 1.5645479178e-01
 8.8929184106e-02	 2.1187247901e+00	 1.6542302338e-01
 7.1031641534e-02	 2.1194002977e+00	 1.7351642189e-01
 5.3188359993e-02	 2.1199231285e+00	 1.8037517744e-01
 3.5400948642e-02	 2.1202947413e+00	 1.8560792131e-01
 1.7670982023e-02	 2.1205166126e+00	 1.8879200895e-01
 0.0000000000e+00	 2.1205902353e+00	 1.8947373803e-01
 1.7991768030e-01	 2.1218003465e+00	 1.1974035498e-01
 1.6169867258e-01	 2.1232665244e+00	 1.2934669343e-01
 1.4352555487e-01	 2.1245723596e+00	 1.3917036480e-01
 1.2540011506e-01	 2.1257192160e+00	 1.4898155956e-01
 1.0732410695e-01	 2.1267084793e+00	 1.5851762024e-01
 8.9299250037e-02	 2.1275415567e+00	 1.6748363108e-01
 7.1327229432e-02	 2.1282198754e+00	 1.7555291655e-01
 5.3409695656e-02	 2.1287448818e+00	 1.8236745273e-01
 3.5548264567e-02	 2.1291180411e+00	 1.8753819604e-01
 1.7744517257e-02	 2.1293408356e+00	 1.9064533506e-01
 0.0000000000e+00	 2.1294147647e+00	 1.9123847154e-01
 1.8066327899e-01	 2.1305933209e+00	 1.2153991983e-01
 1.6236876970e-01	 2.1320655748e+00	 1.3123194832e-01
 1.4412034059e-01	 2.1333768216e+00	 1.4112011190e-01
 1.2591978696e-01	 2.1345284306e+00	 1.5097479363e-01
 1.0776886987e-01	 2.1355217936e+00	 1.6053435539e-01
 8.9669315969e-02	 2.1363583234e+00	 1.6950571686e-01
 7.1622817330e-02	 2.1370394530e+00	 1.7756483596e-01
 5.3631031320e-02	 2.1375666352e+00	 1.8435709490e-01
 3.5695580492e-02	 2.1379413408e+00	 1.8949759688e-01
 1.7818052492e-02	 2.1381650587e+00	 1.9257137953e-01
 0.0000000000e+00	 2.1382392941e+00	 1.9313355170e-01
 1.8140887769e-01	 2.1393862953e+00	 1.2334016344e-01
 1.6303886681e-01	 2.1408646252e+00	 1.3310441847e-01
 1.4471512630e-01	 2.1421812835e+00	 1.4304768131e-01
 1.2643945885e-01	 2.1433376453e+00	 1.5294126218e-01
 1.0821363280e-01	 2.1443351079e+00	 1.6252550415e-01
 9.0039381901e-02	 2.1451750900e+00	 1.7151034560e-01
 7.1918405228e-02	 2.1458590307e+00	 1.7957577626e-01
 5.3852366984e-02	 2.1463883885e+00	 1.8637219141e-01
 3.5842896417e-02	 2.1467646406e+00	 1.9152064969e-01
 1.7891587727e-02	 2.1469892817e+00	 1.9461304109e-01
 0.0000000000e+00	 2.1470638235e+00	 1.9521217216e-01
 2.1470638235e+00	 0.0000000000e+00	 2.5546329565e+00
 2.1469892817e+00	 1.7891587727e-02	 2.5545083077e+00
 2.1467646406e+00	 3.5842896417e-02	 2.5520093922e+00
 2.1463883885e+00	 5.3852366984e-02	 2.5471005068e+00
 2.1458590307e+00	 7.1918405228e-02	 2.5397604381e+00
 2.1451750900e+00	 9.0039381901e-02	 2.5299809359e+00
 2.1443351079e+00	 1.0821363280e-01	 2.5177652668e+00
 2.1433376453e+00	 1.2643945885e-01	 2.5031268556e+00
 2.1421812835e+00	 1.4471512630e-01	 2.4860880248e+00
 2.1408646252e+00	 1.6303886681e-01	 2.4666788411e+00
 2.1393862953e+00	 1.8140887769e-01	 2.4449360782e+00
 2.1558868529e+00	 0.0000000000e+00	 2.5384102758e+00
 2.1558120048e+00	 1.7965110462e-02	 2.5383960165e+00
 2.1555864406e+00	 3.5990187302e-02	 2.5359592974e+00
 2.1552086423e+00	 5.4073665026e-02	 2.5310781759e+00
 2.1546771092e+00	 7.2213942883e-02	 2.5237441217e+00
 2.1539903579e+00	 9.0409384930e-02	 2.5139604389e+00
 2.1531469241e+00	 1.0865832012e-01	 2.5017407688e+00
 2.1521453625e+00	 1.2695904241e-01	 2.4871076851e+00
 2.1509842489e+00	 1.4530981091e-01	 2.4700913898e+00
 2.1496621800e+00	 1.6370885003e-01	 2.4507285209e+00
 2.1481777751e+00	 1.8215434964e-01	 2.4290610786e+00
 2.1647098823e+00	 0.0000000000e+00	 2.5226064992e+00
 2.1646347279e+00	 1.8038633198e-02	 2.5226991584e+00
 2.1644082405e+00	 3.6137478187e-02	 2.5203175872e+00
 2.1640288961e+00	 5.4294963068e-02	 2.5154543254e+00
 2.1634951877e+00	 7.2509480538e-02	 2.5081142407e+00
 2.1628056259e+00	 9.0779387959e-02	 2.4983128958e+00
 2.1619587402e+00	 1.0910300745e-01	 2.4860750010e+00
 2.1609530798e+00	 1.2747862598e-01	 2.4714329619e+00
 2.1597872142e+00	 1.4590449553e-01	 2.4544255318e+00
 2.1584597348e+00	 1.6437883324e-01	 2.4350965780e+00
 2.1569692549e+00	 1.8289982160e-01	 2.4134939732e+00
 2.1735329117e+00	 0.0000000000e+00	 2.5072252817e+00
 2.1734574510e+00	 1.8112155933e-02	 2.5074138084e+00
 2.1732300405e+00	 3.6284769073e-02	 2.5050732738e+00
 2.1728491500e+00	 5.4516261110e-02	 2.5002114196e+00
 2.1723132662e+00	 7.2805018193e-02	 2.4928472209e+00
 2.1716208938e+00	 9.1149390988e-02	 2.4830091989e+00
 2.1707705564e+00	 1.0954769477e-01	 2.4707338219e+00
 2.1697607970e+00	 1.2799820954e-01	 2.4560640047e+00
 2.1685901796e+00	 1.4649918014e-01	 2.4390477164e+00
 2.1672572895e+00	 1.6504881646e-01	 2.4197367056e+00
 2.1657607347e+00	 1.8364529355e-01	 2.3981853547e+00
 2.1823559412e+00	 0.0000000000e+00	 2.4922704794e+00
 2.1822801741e+00	 1.8185678669e-02	 2.4925363044e+00
 2.1820518404e+00	 3.6432059958e-02	 2.4902156927e+00
 2.1816694038e+00	 5.4737559153e-02	 2.4853323032e+00
 2.1811313447e+00	 7.3100555849e-02	 2.4779199242e+00
 2.1804361618e+00	 9.1519394018e-02	 2.4680207305e+00
 2.1795823726e+00	 1.0999238210e-01	 2.4556836321e+00
 2.1785685143e+00	 1.2851779310e-01	 2.4409627242e+00
 2.1773931450e+00	 1.4709386476e-01	 2.4239158500e+00
 2.1760548443e+00	 1.6571879967e-01	 2.4046032837e+00
 2.1745522145e+00	 1.8439076551e-01	 2.3830865477e+00
 2.1911789706e+00	 0.0000000000e+00	 2.4777461454e+00
 2.1911028972e+00	 1.8259201405e-02	 2.4780632421e+00
 2.1908736404e+00	 3.6579350844e-02	 2.4757344957e+00
 2.1904896576e+00	 5.4958857195e-02	 2.4708001943e+00
 2.1899494232e+00	 7.3396093504e-02	 2.4633096410e+00
 2.1892514297e+00	 9.1889397047e-02	 2.4533193545e+00
 2.1883941887e+00	 1.1043706942e-01	 2.4408913648e+00
 2.1873762315e+00	 1.2903737666e-01	 2.4260916131e+00
 2.1861961103e+00	 1.4768854937e-01	 2.4089884683e+00
 2.1848523990e+00	 1.6638878288e-01	 2.3896513679e+00
 2.1833436942e+00	 1.8513623746e-01	 2.3681495964e+00
 2.2000020000e+00	 0.0000000000e+00	 2.4636565258e+00
 2.1999256203e+00	 1.8332724141e-02	 2.4639914703e+00
 2.1996954404e+00	 3.6726641730e-02	 2.4616196457e+00
 2.1993099114e+00	 5.5180155238e-02	 2.4565986780e+00
 2.1987675017e+00	 7.3691631160e-02	 2.4489940825e+00
 2.1980666977e+00	 9.2259400077e-02	 2.4388774077e+00
 2.1972060049e+00	 1.1088175675e-01	 2.4263244766e+00
 2.1961839488e+00	 1.2955696022e-01	 2.4114137360e+00
 2.1949990757e+00	 1.4828323398e-01	 2.3942247260e+00
 2.1936499538e+00	 1.6705876610e-01	 2.3748366778e+00
 2.1921351740e+00	 1.8588170942e-01	 2.3533272527e+00
 2.2088250294e+00	 0.0000000000e+00	 2.4500060561e+00
 2.2087483434e+00	 1.8406246877e-02	 2.4503180857e+00
 2.2085172403e+00	 3.6873932615e-02	 2.4478614104e+00
 2.2081301652e+00	 5.5401453280e-02	 2.4427116991e+00
 2.2075855802e+00	 7.3987168815e-02	 2.4349513731e+00
 2.2068819656e+00	 9.2629403106e-02	 2.4246676916e+00
 2.2060178211e+00	 1.1132644407e-01	 2.4119509384e+00
 2.2049916661e+00	 1.3007654378e-01	 2.3968927200e+00
 2.2038020411e+00	 1.4887791859e-01	 2.3795843864e+00
 2.2024475085e+00	 1.6772874931e-01	 2.3601155863e+00
 2.2009266538e+00	 1.8662718137e-01	 2.3385729652e+00
 2.2176480588e+00	 0.0000000000e+00	 2.4367993571e+00
 2.2175710665e+00	 1.8479769612e-02	 2.4370404281e+00
 2.2173390403e+00	 3.7021223500e-02	 2.4344503568e+00
 2.2169504190e+00	 5.5622751322e-02	 2.4291235561e+00
 2.2164036587e+00	 7.4282706470e-02	 2.4211600430e+00
 2.2156972336e+00	 9.2999406135e-02	 2.4106634640e+00
 2.2148296373e+00	 1.1177113140e-01	 2.3977392266e+00
 2.2137993833e+00	 1.3059612734e-01	 2.3824927446e+00
 2.2126050064e+00	 1.4947260321e-01	 2.3650278114e+00
 2.2112450633e+00	 1.6839873252e-01	 2.3454451091e+00
 2.2097181336e+00	 1.8737265333e-01	 2.3238408675e+00
 2.2264710882e+00	 0.0000000000e+00	 2.4240412316e+00
 2.2263937896e+00	 1.8553292348e-02	 2.4241560765e+00
 2.2261608403e+00	 3.7168514385e-02	 2.4213773455e+00
 2.2257706728e+00	 5.5844049364e-02	 2.4158188945e+00
 2.2252217372e+00	 7.4578244125e-02	 2.4075990211e+00
 2.2245125015e+00	 9.3369409163e-02	 2.3968384315e+00
 2.2236414534e+00	 1.1221581872e-01	 2.3836583143e+00
 2.2226071006e+00	 1.3111571090e-01	 2.3681785333e+00
 2.2214079718e+00	 1.5006728782e-01	 2.3505159513e+00
 2.2200426181e+00	 1.6906871573e-01	 2.3307828940e+00
 2.2185096134e+00	 1.8811812528e-01	 2.3090857676e+00
 2.2352941176e+00	 0.0000000000e+00	 2.4117366602e+00
 2.2352165126e+00	 1.8626815083e-02	 2.4116628434e+00
 2.2349826402e+00	 3.7315805270e-02	 2.4086335257e+00
 2.2345909267e+00	 5.6065347405e-02	 2.4027827005e+00
 2.2340398157e+00	 7.4873781778e-02	 2.3942476281e+00
 2.2333277695e+00	 9.3739412190e-02	 2.3831667416e+00
 2.2324532696e+00	 1.1266050604e-01	 2.3696776633e+00
 2.2314148178e+00	 1.3163529446e-01	 2.3539153438e+00
 2.2302109371e+00	 1.5066197243e-01	 2.3360103355e+00
 2.2288401728e+00	 1.6973869895e-01	 2.3160872107e+00
 2.2273010932e+00	 1.8886359723e-01	 2.2942631370e+00
 2.1393862953e+00	 1.8140887769e-01	 2.4449360782e+00
 2.1377446487e+00	 1.9982644907e-01	 2.4212192507e+00
 2.1359385941e+00	 2.1828655311e-01	 2.3958378367e+00
 2.1339668276e+00	 2.3678723911e-01	 2.3687477902e+00
 2.1318280715e+00	 2.5532652180e-01	 2.3399067165e+00
 2.1295210749e+00	 2.7390238167e-01	 2.3092736702e+00
 2.1270446149e+00	 2.9251276530e-01	 2.2768091244e+00
 2.1243974975e+00	 3.1115558570e-01	 2.2424751160e+00
 2.1215785585e+00	 3.2982872276e-01	 2.2062355753e+00
 2.1185866643e+00	 3.4853002362e-01	 2.1680568444e+00
 2.1154207133e+00	 3.6725730316e-01	 2.1279083887e+00
 2.1481777751e+00	 1.8215434964e-01	 2.4290610786e+00
 2.1465293824e+00	 2.0064760521e-01	 2.4054460836e+00
 2.1447159060e+00	 2.1918356822e-01	 2.3801881378e+00
 2.1427360369e+00	 2.3776027995e-01	 2.3532428727e+00
 2.1405884919e+00	 2.5637574698e-01	 2.3245662338e+00
 2.1382720151e+00	 2.7502794149e-01	 2.2941142712e+00
 2.1357853785e+00	 2.9371480163e-01	 2.2618431044e+00
 2.1331273831e+00	 3.1243423184e-01	 2.2277090699e+00
 2.1302968601e+00	 3.3118410329e-01	 2.1916690570e+00
 2.1272926712e+00	 3.4996225428e-01	 2.1536810386e+00
 2.1241137102e+00	 3.6876649071e-01	 2.1137048003e+00
 2.1569692549e+00	 1.8289982160e-01	 2.4134939732e+00
 2.1553141161e+00	 2.0146876135e-01	 2.3899734893e+00
 2.1534932180e+00	 2.2008058332e-01	 2.3648352555e+00
 2.1515052462e+00	 2.3873332078e-01	 2.3380339224e+00
 2.1493489123e+00	 2.5742497215e-01	 2.3095230868e+00
 2.1470229552e+00	 2.7615350131e-01	 2.2792550738e+00
 2.1445261420e+00	 2.9491683797e-01	 2.2471808992e+00
 2.1418572687e+00	 3.1371287799e-01	 2.2132504199e+00
 2.1390151617e+00	 3.3253948383e-01	 2.1774126778e+00
 2.1359986781e+00	 3.5139448495e-01	 2.1396164430e+00
 2.1328067071e+00	 3.7027567826e-01	 2.0998109626e+00
 2.1657607347e+00	 1.8364529355e-01	 2.3981853547e+00
 2.1640988498e+00	 2.0228991749e-01	 2.3747494058e+00
 2.1622705300e+00	 2.2097759843e-01	 2.3497249012e+00
 2.1602744555e+00	 2.3970636162e-01	 2.3230648590e+00
 2.1581093328e+00	 2.5847419733e-01	 2.2947198429e+00
 2.1557738954e+00	 2.7727906114e-01	 2.2646377379e+00
 2.1532669055e+00	 2.9611887431e-01	 2.2327637108e+00
 2.1505871544e+00	 3.1499152414e-01	 2.1990403639e+00
 2.1477334633e+00	 3.3389486437e-01	 2.1634080885e+00
 2.1447046850e+00	 3.5282671562e-01	 2.1258056220e+00
 2.1414997040e+00	 3.7178486581e-01	 2.0861708171e+00
 2.1745522145e+00	 1.8439076551e-01	 2.3830865477e+00
 2.1728835834e+00	 2.0311107363e-01	 2.3597225459e+00
 2.1710478420e+00	 2.2187461353e-01	 2.3348036037e+00
 2.1690436649e+00	 2.4067940246e-01	 2.3082804602e+00
 2.1668697532e+00	 2.5952342250e-01	 2.2800999673e+00
 2.1645248356e+00	 2.7840462096e-01	 2.2502048592e+00
 2.1620076691e+00	 2.9732091064e-01	 2.2185337127e+00
 2.1593170400e+00	 3.1627017029e-01	 2.1850211047e+00
 2.1564517649e+00	 3.3525024491e-01	 2.1495979763e+00
 2.1534106919e+00	 3.5425894628e-01	 2.1121922056e+00
 2.1501927009e+00	 3.7329405336e-01	 2.0727293976e+00
 2.1833436942e+00	 1.8513623746e-01	 2.3681495964e+00
 2.1816683171e+00	 2.0393222977e-01	 2.3448423851e+00
 2.1798251540e+00	 2.2277162864e-01	 2.3200186963e+00
 2.1778128742e+00	 2.4165244329e-01	 2.2936263488e+00
 2.1756301736e+00	 2.6057264767e-01	 2.2656078090e+00
 2.1732757758e+00	 2.7953018078e-01	 2.2358999546e+00
 2.1707484326e+00	 2.9852294698e-01	 2.2044340352e+00
 2.1680469256e+00	 3.1754881644e-01	 2.1711358355e+00
 2.1651700666e+00	 3.3660562545e-01	 2.1359260502e+00
 2.1621166988e+00	 3.5569117695e-01	 2.0987208741e+00
 2.1588856978e+00	 3.7480324091e-01	 2.0594328146e+00
 2.1921351740e+00	 1.8588170942e-01	 2.3533272527e+00
 2.1904530508e+00	 2.0475338591e-01	 2.3300591492e+00
 2.1886024660e+00	 2.2366864375e-01	 2.3053183036e+00
 2.1865820835e+00	 2.4262548413e-01	 2.2790489792e+00
 2.1843905940e+00	 2.6162187285e-01	 2.2511885874e+00
 2.1820267160e+00	 2.8065574060e-01	 2.2216674482e+00
 2.1794891962e+00	 2.9972498332e-01	 2.1904087509e+00
 2.1767768112e+00	 3.1882746258e-01	 2.1573287248e+00
 2.1738883682e+00	 3.3796100599e-01	 2.1223370254e+00
 2.1708227057e+00	 3.5712340762e-01	 2.0853373432e+00
 2.1675786947e+00	 3.7631242846e-01	 2.0462282399e+00
 2.2009266538e+00	 1.8662718137e-01	 2.3385729652e+00
 2.1992377845e+00	 2.0557454205e-01	 2.3153238021e+00
 2.1973797780e+00	 2.2456565885e-01	 2.2906513299e+00
 2.1953512928e+00	 2.4359852496e-01	 2.2644956246e+00
 2.1931510145e+00	 2.6267109802e-01	 2.2367883789e+00
 2.1907776561e+00	 2.8178130042e-01	 2.2074526577e+00
 2.1882299597e+00	 3.0092701966e-01	 2.1764028610e+00
 2.1855066969e+00	 3.2010610873e-01	 2.1435449026e+00
 2.1826066698e+00	 3.3931638653e-01	 2.1087766093e+00
 2.1795287126e+00	 3.5855563829e-01	 2.0719883489e+00
 2.1762716916e+00	 3.7782161601e-01	 2.0330638916e+00
 2.2097181336e+00	 1.8737265333e-01	 2.3238408675e+00
 2.2080225182e+00	 2.0639569819e-01	 2.3005880348e+00
 2.2061570900e+00	 2.2546267395e-01	 2.2759674459e+00
 2.2041205021e+00	 2.4457156580e-01	 2.2499143644e+00
 2.2019114349e+00	 2.6372032320e-01	 2.2223541037e+00
 2.1995285963e+00	 2.8290686024e-01	 2.1932017807e+00
 2.1969707233e+00	 3.0212905599e-01	 2.1623622811e+00
 2.1942365825e+00	 3.2138475488e-01	 2.1297304461e+00
 2.1913249715e+00	 3.4067176707e-01	 2.0951914869e+00
 2.1882347194e+00	 3.5998786895e-01	 2.0586216330e+00
 2.1849646885e+00	 3.7933080355e-01	 2.0198890196e+00
 2.2185096134e+00	 1.8811812528e-01	 2.3090857676e+00
 2.2168072519e+00	 2.0721685432e-01	 2.2858042531e+00
 2.2149344020e+00	 2.2635968906e-01	 2.2612170779e+00
 2.2128897114e+00	 2.4554460663e-01	 2.2352540716e+00
 2.2106718553e+00	 2.6476954837e-01	 2.2078335133e+00
 2.2082795365e+00	 2.8403242006e-01	 2.1788618823e+00
 2.2057114868e+00	 3.0333109233e-01	 2.1482338279e+00
 2.2029664681e+00	 3.2266340102e-01	 2.1158323656e+00
 2.2000432731e+00	 3.4202714761e-01	 2.0815293069e+00
 2.1969407263e+00	 3.6142009962e-01	 2.0451859291e+00
 2.1936576854e+00	 3.8083999110e-01	 2.0066538909e+00
 2.2273010932e+00	 1.8886359723e-01	 2.2942631370e+00
 2.2255919856e+00	 2.0803801046e-01	 2.2709255668e+00
 2.2237117139e+00	 2.2725670416e-01	 2.2463513951e+00
 2.2216589208e+00	 2.4651764747e-01	 2.2204644011e+00
 2.2194322757e+00	 2.6581877354e-01	 2.1931751776e+00
 2.2170304767e+00	 2.8515797987e-01	 2.1643808811e+00
 2.2144522504e+00	 3.0453312866e-01	 2.1339652062e+00
 2.2116963537e+00	 3.2394204717e-01	 2.1017985917e+00
 2.2087615747e+00	 3.4338252815e-01	 2.0677386678e+00
 2.2056467332e+00	 3.6285233028e-01	 2.0316309483e+00
 2.2023506823e+00	 3.8234917865e-01	 1.9933097758e+00
 2.1154207133e+00	 3.6725730316e-01	 2.1279083887e+00
 2.1120802188e+00	 3.8600515608e-01	 2.0854864282e+00
 2.1085636212e+00	 4.0477452065e-01	 2.0405610666e+00
 2.1048699183e+00	 4.2356312421e-01	 1.9932451363e+00
 2.1009981432e+00	 4.4236866403e-01	 1.9436643311e+00
 2.0969473653e+00	 4.6118880795e-01	 1.8919589641e+00
 2.0927166911e+00	 4.8002119495e-01	 1.8382859294e+00
 2.0883052653e+00	 4.9886343584e-01	 1.7828208667e+00
 2.0837122714e+00	 5.1771311394e-01	 1.7257605274e+00
 2.0789369326e+00	 5.3656778577e-01	 1.6673253401e+00
 2.0739785129e+00	 5.5542498184e-01	 1.6077621729e+00
 2.1241137102e+00	 3.6876649071e-01	 2.1137048003e+00
 2.1207594885e+00	 3.8759138505e-01	 2.0714520724e+00
 2.1172284400e+00	 4.0643787945e-01	 2.0267195032e+00
 2.1135195584e+00	 4.2530369189e-01	 1.9796249320e+00
 2.1096318728e+00	 4.4418651020e-01	 1.9302979887e+00
 2.1055644488e+00	 4.6308399261e-01	 1.8788818757e+00
 2.1013163893e+00	 4.8199376841e-01	 1.8255353575e+00
 2.0968868355e+00	 5.0091343860e-01	 1.7704349590e+00
 2.0922749673e+00	 5.1984057656e-01	 1.7137773702e+00
 2.0874800050e+00	 5.3877272878e-01	 1.6557820546e+00
 2.0825012094e+00	 5.5770741560e-01	 1.5966940601e+00
 2.1328067071e+00	 3.7027567826e-01	 2.0998109626e+00
 2.1294387581e+00	 3.8917761403e-01	 2.0577224849e+00
 2.1258932587e+00	 4.0810123824e-01	 2.0131741136e+00
 2.1221691984e+00	 4.2704425957e-01	 1.9662891608e+00
 2.1182656023e+00	 4.4600435636e-01	 1.9172016431e+00
 2.1141815323e+00	 4.6497917727e-01	 1.8660580874e+00
 2.1099160876e+00	 4.8396634188e-01	 1.8130195482e+00
 2.1054684056e+00	 5.0296344137e-01	 1.7582638396e+00
 2.1008376632e+00	 5.2196803918e-01	 1.7019879779e+00
 2.0960230774e+00	 5.4097767178e-01	 1.6444108344e+00
 2.0910239059e+00	 5.5998984936e-01	 1.5857759934e+00
 2.1414997040e+00	 3.7178486581e-01	 2.0861708171e+00
 2.1381180278e+00	 3.9076384300e-01	 2.0442433943e+00
 2.1345580774e+00	 4.0976459704e-01	 1.9998727569e+00
 2.1308188384e+00	 4.2878482725e-01	 1.9531881405e+00
 2.1268993319e+00	 4.4782220253e-01	 1.9043283836e+00
 2.1227986158e+00	 4.6687436193e-01	 1.8534437560e+00
 2.1185157858e+00	 4.8593891534e-01	 1.8006980050e+00
 2.1140499757e+00	 5.0501344413e-01	 1.7462706204e+00
 2.1094003591e+00	 5.2409550181e-01	 1.6903593160e+00
 2.1045661498e+00	 5.4318261479e-01	 1.6331827248e+00
 2.0995466025e+00	 5.6227228312e-01	 1.5749833067e+00
 2.1501927009e+00	 3.7329405336e-01	 2.0727293976e+00
 2.1467972974e+00	 3.9235007198e-01	 2.0309616456e+00
 2.1432228962e+00	 4.1142795584e-01	 1.9867644323e+00
 2.1394684784e+00	 4.3052539494e-01	 1.9402733521e+00
 2.1355330615e+00	 4.4964004869e-01	 1.8916324842e+00
 2.1314156994e+00	 4.6876954659e-01	 1.8409962441e+00
 2.1271154840e+00	 4.8791148881e-01	 1.7885314579e+00
 2.1226315458e+00	 5.0706344689e-01	 1.7344196609e+00
 2.1179630551e+00	 5.2622296443e-01	 1.6788596172e+00
 2.1131092222e+00	 5.4538755780e-01	 1.6220700587e+00
 2.1080692990e+00	 5.6455471688e-01	 1.5642926411e+00
 2.1588856978e+00	 3.7480324091e-01	 2.0594328146e+00
 2.1554765671e+00	 3.9393630095e-01	 2.0178251849e+00
 2.1518877149e+00	 4.1309131464e-01	 1.9737992636e+00
 2.1481181185e+00	 4.3226596262e-01	 1.9274974236e+00
 2.1441667910e+00	 4.5145789486e-01	 1.8790693881e+00
 2.1400327829e+00	 4.7066473125e-01	 1.8286741047e+00
 2.1357151822e+00	 4.8988406227e-01	 1.7764818482e+00
 2.1312131160e+00	 5.0911344966e-01	 1.7226765517e+00
 2.1265257510e+00	 5.2835042706e-01	 1.6674583656e+00
 2.1216522946e+00	 5.4759250080e-01	 1.6110464397e+00
 2.1165919955e+00	 5.6683715064e-01	 1.5536819281e+00
 2.1675786947e+00	 3.7631242846e-01	 2.0462282399e+00
 2.1641558367e+00	 3.9552252993e-01	 2.0047830442e+00
 2.1605525337e+00	 4.1475467344e-01	 1.9609284835e+00
 2.1567677585e+00	 4.3400653031e-01	 1.9148141144e+00
 2.1528005206e+00	 4.5327574102e-01	 1.8665956917e+00
 2.1486498664e+00	 4.7255991591e-01	 1.8164370655e+00
 2.1443148804e+00	 4.9185663574e-01	 1.7645123120e+00
 2.1397946861e+00	 5.1116345242e-01	 1.7110080985e+00
 2.1350884469e+00	 5.3047788968e-01	 1.6561262802e+00
 2.1301953670e+00	 5.4979744381e-01	 1.6000867263e+00
 2.1251146921e+00	 5.6911958440e-01	 1.5431303738e+00
 2.1762716916e+00	 3.7782161601e-01	 2.0330638916e+00
 2.1728351064e+00	 3.9710875890e-01	 1.9917853257e+00
 2.1692173524e+00	 4.1641803224e-01	 1.9481044186e+00
 2.1654173985e+00	 4.3574709799e-01	 1.9021783002e+00
 2.1614342502e+00	 4.5509358719e-01	 1.8541691292e+00
 2.1572669499e+00	 4.7445510057e-01	 1.8042460126e+00
 2.1529145786e+00	 4.9382920920e-01	 1.7525871650e+00
 2.1483762562e+00	 5.1321345518e-01	 1.6993823067e+00
 2.1436511428e+00	 5.3260535231e-01	 1.6448352993e+00
 2.1387384394e+00	 5.5200238681e-01	 1.5891670158e+00
 2.1336373886e+00	 5.7140201817e-01	 1.5326184427e+00
 2.1849646885e+00	 3.7933080355e-01	 2.0198890196e+00
 2.1815143761e+00	 3.9869498788e-01	 1.9787831875e+00
 2.1778821711e+00	 4.1808139104e-01	 1.9352804742e+00
 2.1740670386e+00	 4.3748766567e-01	 1.8895459579e+00
 2.1700679797e+00	 4.5691143335e-01	 1.8417485576e+00
 2.1658840334e+00	 4.7635028523e-01	 1.7920629760e+00
 2.1615142768e+00	 4.9580178267e-01	 1.7406718867e+00
 2.1569578264e+00	 5.1526345795e-01	 1.6877683656e+00
 2.1522138388e+00	 5.3473281493e-01	 1.6335585651e+00
 2.1472815118e+00	 5.5420732982e-01	 1.5782646287e+00
 2.1421600852e+00	 5.7368445192e-01	 1.5221278418e+00
 2.1936576854e+00	 3.8083999110e-01	 2.0066538909e+00
 2.1901936457e+00	 4.0028121685e-01	 1.9657288288e+00
 2.1865469899e+00	 4.1974474984e-01	 1.9224111199e+00
 2.1827166786e+00	 4.3922823336e-01	 1.8768741505e+00
 2.1787017093e+00	 4.5872927951e-01	 1.8292939417e+00
 2.1745011169e+00	 4.7824546988e-01	 1.7798511145e+00
 2.1701139750e+00	 4.9777435613e-01	 1.7287331059e+00
 2.1655393965e+00	 5.1731346071e-01	 1.6761366333e+00
 2.1607765347e+00	 5.3686027755e-01	 1.6222704080e+00
 2.1558245842e+00	 5.5641227282e-01	 1.5673580933e+00
 2.1506827817e+00	 5.7596688568e-01	 1.5116415053e+00
 2.2023506823e+00	 3.8234917865e-01	 1.9933097758e+00
 2.1988729154e+00	 4.0186744582e-01	 1.9525754756e+00
 2.1952118086e+00	 4.2140810864e-01	 1.9094518749e+00
 2.1913663186e+00	 4.4096880104e-01	 1.8641210131e+00
 2.1873354389e+00	 4.6054712568e-01	 1.8167663392e+00
 2.1831182005e+00	 4.8014065454e-01	 1.7675747004e+00
 2.1787136732e+00	 4.9974692960e-01	 1.7167385851e+00
 2.1741209666e+00	 5.1936346347e-01	 1.6644586220e+00
 2.1693392306e+00	 5.3898774018e-01	 1.6109463320e+00
 2.1643676566e+00	 5.5861721583e-01	 1.5564271307e+00
 2.1592054782e+00	 5.7824931944e-01	 1.5011435789e+00
 2.0739785129e+00	 5.5542498184e-01	 1.6077621729e+00
 2.0688363181e+00	 5.7428220763e-01	 1.5481950486e+00
 2.0635096983e+00	 5.9313694523e-01	 1.4895685381e+00
 2.0579980469e+00	 6.1198665341e-01	 1.4291169708e+00
 2.0523008014e+00	 6.3082876822e-01	 1.3659943350e+00
 2.0464174439e+00	 6.4966070390e-01	 1.3005688946e+00
 2.0403475018e+00	 6.6847985372e-01	 1.2332208083e+00
 2.0340905489e+00	 6.8728359099e-01	 1.1643424008e+00
 2.0276462055e+00	 7.0606926997e-01	 1.0943382615e+00
 2.0210141399e+00	 7.2483422690e-01	 1.0236251532e+00
 2.0141940681e+00	 7.4357578096e-01	 9.5263171555e-01
 2.0825012094e+00	 5.5770741560e-01	 1.5966940601e+00
 2.0773378836e+00	 5.7664213227e-01	 1.5376245119e+00
 2.0719893748e+00	 5.9557435052e-01	 1.4793200891e+00
 2.0664550742e+00	 6.1450151868e-01	 1.4188939994e+00
 2.0607344167e+00	 6.3342106228e-01	 1.3558861359e+00
 2.0548268824e+00	 6.5233038490e-01	 1.2906486170e+00
 2.0487319969e+00	 6.7122686913e-01	 1.2235453868e+00
 2.0424493319e+00	 6.9010787747e-01	 1.1549525626e+00
 2.0359785066e+00	 7.0897075332e-01	 1.0852586027e+00
 2.0293191874e+00	 7.2781282196e-01	 1.0148642782e+00
 2.0224710896e+00	 7.4663139157e-01	 9.4418243507e-01
 2.0910239059e+00	 5.5998984936e-01	 1.5857759934e+00
 2.0858394491e+00	 5.7900205690e-01	 1.5271814020e+00
 2.0804690514e+00	 5.9801175580e-01	 1.4691195121e+00
 2.0749121014e+00	 6.1701638395e-01	 1.4087281845e+00
 2.0691680320e+00	 6.3601335633e-01	 1.3458420212e+00
 2.0632363210e+00	 6.5500006590e-01	 1.2807962956e+00
 2.0571164919e+00	 6.7397388454e-01	 1.2139380528e+00
 2.0508081150e+00	 6.9293216396e-01	 1.1456265334e+00
 2.0443108076e+00	 7.1187223668e-01	 1.0762334133e+00
 2.0376242350e+00	 7.3079141703e-01	 1.0061428418e+00
 2.0307481111e+00	 7.4968700217e-01	 9.3575126235e-01
 2.0995466025e+00	 5.6227228312e-01	 1.5749833067e+00
 2.0943410145e+00	 5.8136198154e-01	 1.5168455027e+00
 2.0889487279e+00	 6.0044916109e-01	 1.4589582699e+00
 2.0833691287e+00	 6.1953124922e-01	 1.3986150517e+00
 2.0776016473e+00	 6.3860565038e-01	 1.3358615664e+00
 2.0716457595e+00	 6.5766974691e-01	 1.2710155340e+00
 2.0655009870e+00	 6.7672089996e-01	 1.2044064056e+00
 2.0591668981e+00	 6.9575645045e-01	 1.1363758676e+00
 2.0526431086e+00	 7.1477372003e-01	 1.0672781555e+00
 2.0459292826e+00	 7.3377001209e-01	 9.9748015950e-01
 2.0390251327e+00	 7.5274261278e-01	 9.2736130628e-01
 2.1080692990e+00	 5.6455471688e-01	 1.5642926411e+00
 2.1028425800e+00	 5.8372190618e-01	 1.5065979254e+00
 2.0974284045e+00	 6.0288656638e-01	 1.4488288817e+00
 2.0918261560e+00	 6.2204611450e-01	 1.3885511678e+00
 2.0860352626e+00	 6.4119794444e-01	 1.3259453713e+00
 2.0800551981e+00	 6.6033942791e-01	 1.2613109393e+00
 2.0738854820e+00	 6.7946791537e-01	 1.1949590257e+00
 2.0675256811e+00	 6.9858073693e-01	 1.1272130764e+00
 2.0609754097e+00	 7.1767520338e-01	 1.0584092203e+00
 2.0542343302e+00	 7.3674860715e-01	 9.8889644478e-01
 2.0473021542e+00	 7.5579822338e-01	 9.1903654039e-01
 2.1165919955e+00	 5.6683715064e-01	 1.5536819281e+00
 2.1113441455e+00	 5.8608183082e-01	 1.4964210921e+00
 2.1059080810e+00	 6.0532397167e-01	 1.4387249040e+00
 2.1002831832e+00	 6.2456097977e-01	 1.3785341212e+00
 2.0944688779e+00	 6.4379023849e-01	 1.3160950389e+00
 2.0884646366e+00	 6.6300910891e-01	 1.2516881020e+00
 2.0822699771e+00	 6.8221493078e-01	 1.1856054534e+00
 2.0758844642e+00	 7.0140502342e-01	 1.1181516044e+00
 2.0693077107e+00	 7.2057668673e-01	 1.0496439035e+00
 2.0625393777e+00	 7.3972720222e-01	 9.8041278479e-01
 2.0555791757e+00	 7.5885383399e-01	 9.1080177742e-01
 2.1251146921e+00	 5.6911958440e-01	 1.5431303738e+00
 2.1198457110e+00	 5.8844175545e-01	 1.4862984401e+00
 2.1143877576e+00	 6.0776137696e-01	 1.4286409108e+00
 2.1087402105e+00	 6.2707584504e-01	 1.3685625017e+00
 2.1029024933e+00	 6.4638253254e-01	 1.3063131550e+00
 2.0968740752e+00	 6.6567878992e-01	 1.2421535737e+00
 2.0906544721e+00	 6.8496194619e-01	 1.1763561668e+00
 2.0842432473e+00	 7.0422930990e-01	 1.1092058074e+00
 2.0776400117e+00	 7.2347817008e-01	 1.0410003825e+00
 2.0708444253e+00	 7.4270579728e-01	 9.7205111577e-01
 2.0638561973e+00	 7.6190944459e-01	 9.0268264393e-01
 2.1336373886e+00	 5.7140201817e-01	 1.5326184427e+00
 2.1283472765e+00	 5.9080168009e-01	 1.4761835311e+00
 2.1228674341e+00	 6.1019878225e-01	 1.4185724750e+00
 2.1171972378e+00	 6.2959071031e-01	 1.3586358813e+00
 2.1113361086e+00	 6.4897482659e-01	 1.2966032685e+00
 2.1052835137e+00	 6.6834847092e-01	 1.2327148473e+00
 2.0990389672e+00	 6.8770896161e-01	 1.1672225601e+00
 2.0926020303e+00	 7.0705359639e-01	 1.1003909299e+00
 2.0859723127e+00	 7.2637965343e-01	 1.0324976930e+00
 2.0791494729e+00	 7.4568439234e-01	 9.6383419888e-01
 2.0721332188e+00	 7.6496505519e-01	 8.9470555516e-01
 2.1421600852e+00	 5.7368445192e-01	 1.5221278418e+00
 2.1368488419e+00	 5.9316160473e-01	 1.4660456181e+00
 2.1313471107e+00	 6.1263618754e-01	 1.4085161495e+00
 2.1256542650e+00	 6.3210557559e-01	 1.3487547943e+00
 2.1197697239e+00	 6.5156712065e-01	 1.2869698707e+00
 2.1136929523e+00	 6.7101815192e-01	 1.2233803353e+00
 2.1074234623e+00	 6.9045597702e-01	 1.1582169220e+00
 2.1009608134e+00	 7.0987788287e-01	 1.0917230825e+00
 2.0943046138e+00	 7.2928113678e-01	 1.0241557057e+00
 2.0874545204e+00	 7.4866298740e-01	 9.5578559614e-01
 2.0804102403e+00	 7.6802066580e-01	 8.8689769000e-01
 2.1506827817e+00	 5.7596688568e-01	 1.5116415053e+00
 2.1453504074e+00	 5.9552152936e-01	 1.4558782357e+00
 2.1398267872e+00	 6.1507359282e-01	 1.3984694483e+00
 2.1341112923e+00	 6.3462044086e-01	 1.3389207187e+00
 2.1282033392e+00	 6.5415941470e-01	 1.2774183756e+00
 2.1221023909e+00	 6.7368783293e-01	 1.2141593498e+00
 2.1158079573e+00	 6.9320299243e-01	 1.1493524143e+00
 2.1093195965e+00	 7.1270216936e-01	 1.0832192200e+00
 2.1026369148e+00	 7.3218262013e-01	 1.0159951034e+00
 2.0957595680e+00	 7.5164158246e-01	 9.4792964647e-01
 2.0886872619e+00	 7.7107627640e-01	 8.7928696606e-01
 2.1592054782e+00	 5.7824931944e-01	 1.5011435789e+00
 2.1538519729e+00	 5.9788145400e-01	 1.4456758773e+00
 2.1483064638e+00	 6.1751099811e-01	 1.3884308283e+00
 2.1425683196e+00	 6.3713530613e-01	 1.3291360566e+00
 2.1366369545e+00	 6.5675170875e-01	 1.2679551005e+00
 2.1305118294e+00	 6.7635751393e-01	 1.2050620821e+00
 2.1241924524e+00	 6.9595000784e-01	 1.1406430514e+00
 2.1176783796e+00	 7.1552645584e-01	 1.0748971194e+00
 2.1109692158e+00	 7.3508410348e-01	 1.0080373579e+00
 2.1040646156e+00	 7.5462017753e-01	 9.4029144196e-01
 2.0969642834e+00	 7.7413188700e-01	 8.7190201491e-01
 2.0141940681e+00	 7.4357578096e-01	 9.5263171555e-01
 2.0071845475e+00	 7.6229441467e-01	 8.8154718832e-01
 1.9999865349e+00	 7.8098422584e-01	 8.1030106967e-01
 1.9925998934e+00	 7.9964248658e-01	 7.3890924770e-01
 1.9850245367e+00	 8.1826645622e-01	 6.6739292778e-01
 1.9772604297e+00	 8.3685338241e-01	 5.9577766571e-01
 1.9693075891e+00	 8.5540050234e-01	 5.2409214827e-01
 1.9611660834e+00	 8.7390504382e-01	 4.5236671716e-01
 1.9528360339e+00	 8.9236422656e-01	 3.8063163378e-01
 1.9443176149e+00	 9.1077526332e-01	 3.0891508469e-01
 1.9356110540e+00	 9.2913536115e-01	 2.3724092978e-01
 2.0224710896e+00	 7.4663139157e-01	 9.4418243507e-01
 2.0154327645e+00	 7.6542694663e-01	 8.7338662433e-01
 2.0082051727e+00	 7.8419356071e-01	 8.0240732406e-01
 2.0007881769e+00	 8.0292849471e-01	 7.3127033252e-01
 1.9931816905e+00	 8.2162899669e-01	 6.6000725374e-01
 1.9853856781e+00	 8.4029230301e-01	 5.8865451969e-01
 1.9774001565e+00	 8.5891563948e-01	 5.1725215056e-01
 1.9692251945e+00	 8.7749622254e-01	 4.4584224865e-01
 1.9608609140e+00	 8.9603126046e-01	 3.7446722342e-01
 1.9523074899e+00	 9.1451795455e-01	 3.0316774739e-01
 1.9435651507e+00	 9.3295350038e-01	 2.3198044482e-01
 2.0307481111e+00	 7.4968700217e-01	 9.3575126235e-01
 2.0236809814e+00	 7.6855947859e-01	 8.6521635532e-01
 2.0164238106e+00	 7.8740289558e-01	 7.9447124380e-01
 2.0089764605e+00	 8.0621450284e-01	 7.2355382905e-01
 2.0013388443e+00	 8.2499153717e-01	 6.5250833802e-01
 1.9935109265e+00	 8.4373122361e-01	 5.8138433148e-01
 1.9854927239e+00	 8.6243077662e-01	 5.1023544056e-01
 1.9772843057e+00	 8.8108740126e-01	 4.3911782692e-01
 1.9688857941e+00	 8.9969829436e-01	 3.6808836400e-01
 1.9602973649e+00	 9.1826064577e-01	 2.9720253898e-01
 1.9515192474e+00	 9.3677163962e-01	 2.2651207737e-01
 2.0390251327e+00	 7.5274261278e-01	 9.2736130628e-01
 2.0319291984e+00	 7.7169201055e-01	 8.5706314911e-01
 2.0246424484e+00	 7.9061223045e-01	 7.8652302416e-01
 2.0171647441e+00	 8.0950051097e-01	 7.1579309256e-01
 2.0094959981e+00	 8.2835407765e-01	 6.4493239341e-01
 2.0016361750e+00	 8.4717014421e-01	 5.7400583488e-01
 1.9935852914e+00	 8.6594591376e-01	 5.0308290358e-01
 1.9853434169e+00	 8.8467857997e-01	 4.3223608730e-01
 1.9769106742e+00	 9.0336532825e-01	 3.6153900848e-01
 1.9682872398e+00	 9.2200333700e-01	 2.9106426779e-01
 1.9594733441e+00	 9.4058977885e-01	 2.2088100013e-01
 2.0473021542e+00	 7.5579822338e-01	 9.1903654039e-01
 2.0401774154e+00	 7.7482454250e-01	 8.4895460308e-01
 2.0328610863e+00	 7.9382156532e-01	 7.7859365476e-01
 2.0253530277e+00	 8.1278651910e-01	 7.0802223780e-01
 2.0176531519e+00	 8.3171661812e-01	 6.3731635827e-01
 2.0097614234e+00	 8.5060906480e-01	 5.6655845691e-01
 2.0016778588e+00	 8.6946105090e-01	 4.9583608795e-01
 1.9934025280e+00	 8.8826975869e-01	 4.2524030076e-01
 1.9849355543e+00	 9.0703236214e-01	 3.5486372147e-01
 1.9762771148e+00	 9.2574602823e-01	 2.8479833399e-01
 1.9674274408e+00	 9.4440791808e-01	 2.1513296256e-01
 2.0555791757e+00	 7.5885383399e-01	 9.1080177742e-01
 2.0484256324e+00	 7.7795707446e-01	 8.4091911771e-01
 2.0410797241e+00	 7.9703090019e-01	 7.7071489189e-01
 2.0335413113e+00	 8.1607252723e-01	 7.0027611009e-01
 2.0258103058e+00	 8.3507915860e-01	 6.2969786629e-01
 2.0178866718e+00	 8.5404798540e-01	 5.5908228609e-01
 2.0097704262e+00	 8.7297618804e-01	 4.8853717169e-01
 2.0014616392e+00	 8.9186093740e-01	 4.1817433879e-01
 1.9929604344e+00	 9.1069939604e-01	 3.4810764230e-01
 1.9842669898e+00	 9.2948871945e-01	 2.7845069051e-01
 1.9753815375e+00	 9.4822605731e-01	 2.0931424956e-01
 2.0638561973e+00	 7.6190944459e-01	 9.0268264393e-01
 2.0566738494e+00	 7.8108960642e-01	 8.3298587021e-01
 2.0492983620e+00	 8.0024023506e-01	 7.6291923110e-01
 2.0417295949e+00	 8.1935853536e-01	 6.9259025668e-01
 2.0339674596e+00	 8.3844169907e-01	 6.2211521645e-01
 2.0260119202e+00	 8.5748690600e-01	 5.5161804092e-01
 2.0178629937e+00	 8.7649132518e-01	 4.8122892941e-01
 2.0095207504e+00	 8.9545211611e-01	 4.1108263855e-01
 2.0009853145e+00	 9.1436642993e-01	 3.4131644814e-01
 1.9922568647e+00	 9.3323141068e-01	 2.7206780412e-01
 1.9833356342e+00	 9.5204419654e-01	 2.0347164030e-01
 2.0721332188e+00	 7.6496505519e-01	 8.9470555516e-01
 2.0649220664e+00	 7.8422213838e-01	 8.2518478829e-01
 2.0575169999e+00	 8.0344956993e-01	 7.5523987980e-01
 2.0499178784e+00	 8.2264454349e-01	 6.8500089812e-01
 2.0421246134e+00	 8.4180423954e-01	 6.1460734309e-01
 2.0341371686e+00	 8.6092582659e-01	 5.4420703845e-01
 2.0259555611e+00	 8.8000646232e-01	 4.7395469923e-01
 2.0175798615e+00	 8.9904329483e-01	 4.0401016805e-01
 2.0090101946e+00	 9.1803346383e-01	 3.3453631736e-01
 2.0002467397e+00	 9.3697410190e-01	 2.6569661673e-01
 1.9912897309e+00	 9.5586233577e-01	 1.9765236731e-01
 2.0804102403e+00	 7.6802066580e-01	 8.8689769000e-01
 2.0731702834e+00	 7.8735467033e-01	 8.1754652412e-01
 2.0657356377e+00	 8.0665890480e-01	 7.4771073011e-01
 2.0581061620e+00	 8.2593055162e-01	 6.7754489984e-01
 2.0502817672e+00	 8.4516678002e-01	 6.0721378609e-01
 2.0422624170e+00	 8.6436474719e-01	 5.3689116305e-01
 2.0340481285e+00	 8.8352159946e-01	 4.6675834991e-01
 2.0256389727e+00	 9.0263447354e-01	 3.9700239156e-01
 2.0170350748e+00	 9.2170049772e-01	 3.2781389300e-01
 2.0082366147e+00	 9.4071679313e-01	 2.5938450679e-01
 1.9992438276e+00	 9.5968047500e-01	 1.9190407564e-01
 2.0886872619e+00	 7.7107627640e-01	 8.7928696606e-01
 2.0814185003e+00	 7.9048720229e-01	 8.1010242838e-01
 2.0739542756e+00	 8.0986823966e-01	 7.4036633176e-01
 2.0662944456e+00	 8.2921655974e-01	 6.7025974384e-01
 2.0584389210e+00	 8.4852932049e-01	 5.9997466125e-01
 2.0503876654e+00	 8.6780366778e-01	 5.2971283522e-01
 2.0421406960e+00	 8.8703673660e-01	 4.5968424817e-01
 2.0336980839e+00	 9.0622565226e-01	 3.9010523511e-01
 2.0250599549e+00	 9.2536753162e-01	 3.2119624639e-01
 2.0162264897e+00	 9.4445948435e-01	 2.5317925095e-01
 2.0071979243e+00	 9.6349861423e-01	 1.8627478234e-01
 2.0969642834e+00	 7.7413188700e-01	 8.7190201491e-01
 2.0896667173e+00	 7.9361973424e-01	 8.0288452444e-01
 2.0821729134e+00	 8.1307757453e-01	 7.3324186516e-01
 2.0744827292e+00	 8.3250256787e-01	 6.6318350051e-01
 2.0665960749e+00	 8.5189186097e-01	 5.9293063072e-01
 2.0585129138e+00	 8.7124258838e-01	 5.2271498063e-01
 2.0502332634e+00	 8.9055187374e-01	 4.5277722602e-01
 2.0417571950e+00	 9.0981683097e-01	 3.8336505217e-01
 2.0330848350e+00	 9.2903456551e-01	 3.1473084098e-01
 2.0242163646e+00	 9.4820217558e-01	 2.4712898577e-01
 2.0151520210e+00	 9.6731675346e-01	 1.8081283603e-01
 1.9356110540e+00	 9.2913536115e-01	 2.3724092978e-01
 1.9267181602e+00	 9.4743861547e-01	 1.6498854727e-01
 1.9176378033e+00	 9.6568535156e-01	 9.1877468856e-02
 1.9083703716e+00	 9.8387276730e-01	 1.8462814360e-02
 1.8989163076e+00	 1.0019980599e+00	-5.4717974410e-02
 1.8892761086e+00	 1.0200584271e+00	-1.2714944166e-01
 1.8794503267e+00	 1.0380510688e+00	-1.9834262915e-01
 1.8694395692e+00	 1.0559731879e+00	-2.6783977168e-01
 1.8592444984e+00	 1.0738219920e+00	-3.3521915457e-01
 1.8488658317e+00	 1.0915946945e+00	-4.0010010915e-01
 1.8383043418e+00	 1.1092885163e+00	-4.6214812002e-01
 1.9435651507e+00	 9.3295350038e-01	 2.3198044482e-01
 1.9346357129e+00	 9.5133196912e-01	 1.6026667929e-01
 1.9255180417e+00	 9.6965368737e-01	 8.7707183963e-02
 1.9162125269e+00	 9.8791584150e-01	 1.4838476834e-02
 1.9067196129e+00	 1.0061156172e+00	-5.7820771674e-02
 1.8970397989e+00	 1.0242502008e+00	-1.2977411482e-01
 1.8871736395e+00	 1.0423167804e+00	-2.0055191701e-01
 1.8771217444e+00	 1.0603125477e+00	-2.6971613260e-01
 1.8668847785e+00	 1.0782346987e+00	-3.3686525359e-01
 1.8564634622e+00	 1.0960804354e+00	-4.0163940165e-01
 1.8458585715e+00	 1.1138469673e+00	-4.6372553767e-01
 1.9515192474e+00	 9.3677163962e-01	 2.2651207737e-01
 1.9425532656e+00	 9.5522532277e-01	 1.5536170678e-01
 1.9333982801e+00	 9.7362202318e-01	 8.3389266444e-02
 1.9240546822e+00	 9.9195891571e-01	 1.1106858452e-02
 1.9145229181e+00	 1.0102331745e+00	-6.0991338922e-02
 1.9048034893e+00	 1.0284419744e+00	-1.3243350870e-01
 1.8948969523e+00	 1.0465824920e+00	-2.0277485215e-01
 1.8848039195e+00	 1.0646519075e+00	-2.7160244469e-01
 1.8745250585e+00	 1.0826474054e+00	-3.3854026790e-01
 1.8640610927e+00	 1.1005661764e+00	-4.0325439239e-01
 1.8534128012e+00	 1.1184054183e+00	-4.6545828419e-01
 1.9594733441e+00	 9.4058977885e-01	 2.2088100013e-01
 1.9504708183e+00	 9.5911867641e-01	 1.5031942844e-01
 1.9412785184e+00	 9.7759035899e-01	 7.8971225047e-02
 1.9318968375e+00	 9.9600198991e-01	 7.3183388307e-03
 1.9223262234e+00	 1.0143507318e+00	-6.4175187684e-02
 1.9125671796e+00	 1.0326337480e+00	-1.3506771065e-01
 1.9026202651e+00	 1.0508482037e+00	-2.0494470495e-01
 1.8924860946e+00	 1.0689912674e+00	-2.7342369116e-01
 1.8821653385e+00	 1.0870601122e+00	-3.4015934604e-01
 1.8716587232e+00	 1.1050519173e+00	-4.0484877069e-01
 1.8609670309e+00	 1.1229638693e+00	-4.6723688852e-01
 1.9674274408e+00	 9.4440791808e-01	 2.1513296256e-01
 1.9583883710e+00	 9.6301203006e-01	 1.4518619755e-01
 1.9491587568e+00	 9.8155869480e-01	 7.4501080661e-02
 1.9397389928e+00	 1.0000450641e+00	 3.5237462043e-03
 1.9301295287e+00	 1.0184682891e+00	-6.7317466451e-02
 1.9203308700e+00	 1.0368255216e+00	-1.3761655349e-01
 1.9103435779e+00	 1.0551139153e+00	-2.0699462360e-01
 1.9001682698e+00	 1.0733306272e+00	-2.7510489005e-01
 1.8898056186e+00	 1.0914728189e+00	-3.4163785386e-01
 1.8792563537e+00	 1.1095376583e+00	-4.0632665198e-01
 1.8685212605e+00	 1.1275223202e+00	-4.6895254160e-01
 1.9753815375e+00	 9.4822605731e-01	 2.0931424956e-01
 1.9663059237e+00	 9.6690538371e-01	 1.4000887838e-01
 1.9570389952e+00	 9.8552703061e-01	 7.0027320952e-02
 1.9475811480e+00	 1.0040881383e+00	-2.2568942007e-04
 1.9379328339e+00	 1.0225858465e+00	-7.0363008592e-02
 1.9280945603e+00	 1.0410172952e+00	-1.4001966410e-01
 1.9180668907e+00	 1.0593796269e+00	-2.0885768292e-01
 1.9078504449e+00	 1.0776699870e+00	-2.7657114273e-01
 1.8974458986e+00	 1.0958855257e+00	-3.4289142232e-01
 1.8868539842e+00	 1.1140233992e+00	-4.0759262437e-01
 1.8760754902e+00	 1.1320807712e+00	-4.7049714113e-01
 1.9833356342e+00	 9.5204419654e-01	 2.0347164030e-01
 1.9742234764e+00	 9.7079873735e-01	 1.3483480293e-01
 1.9649192336e+00	 9.8949536642e-01	 6.5598855217e-02
 1.9554233033e+00	 1.0081312125e+00	-3.8783828852e-03
 1.9457361392e+00	 1.0267034038e+00	-7.3256380077e-02
 1.9358582506e+00	 1.0452090689e+00	-1.4221651184e-01
 1.9257902035e+00	 1.0636453385e+00	-2.1046693299e-01
 1.9155326200e+00	 1.0820093468e+00	-2.7774768241e-01
 1.9050861787e+00	 1.1002982324e+00	-3.4383599527e-01
 1.8944516148e+00	 1.1185091402e+00	-4.0855179517e-01
 1.8836297199e+00	 1.1366392222e+00	-4.7176333637e-01
 1.9912897309e+00	 9.5586233577e-01	 1.9765236731e-01
 1.9821410291e+00	 9.7469209100e-01	 1.2971172778e-01
 1.9727994719e+00	 9.9346370223e-01	 6.1264969442e-02
 1.9632654586e+00	 1.0121742867e+00	-7.3824403036e-03
 1.9535394444e+00	 1.0308209611e+00	-7.5941926997e-02
 1.9436219410e+00	 1.0494008425e+00	-1.4414645675e-01
 1.9335135163e+00	 1.0679110502e+00	-2.1175544766e-01
 1.9232147951e+00	 1.0863487066e+00	-2.7855992246e-01
 1.9127264587e+00	 1.1047109392e+00	-3.4438787714e-01
 1.9020492453e+00	 1.1229948811e+00	-4.0910983750e-01
 1.8911839496e+00	 1.1411976732e+00	-4.7264457309e-01
 1.9992438276e+00	 9.5968047500e-01	 1.9190407564e-01
 1.9900585818e+00	 9.7858544465e-01	 1.2468779124e-01
 1.9806797103e+00	 9.9743203804e-01	 5.7075281570e-02
 1.9711076139e+00	 1.0162173609e+00	-1.0685705275e-02
 1.9613427497e+00	 1.0349385184e+00	-7.8363822905e-02
 1.9513856313e+00	 1.0535926161e+00	-1.4574879763e-01
 1.9412368291e+00	 1.0721767618e+00	-2.1265637295e-01
 1.9308969703e+00	 1.0906880665e+00	-2.7893350467e-01
 1.9203667388e+00	 1.1091236459e+00	-3.4446378067e-01
 1.9096468758e+00	 1.1274806220e+00	-4.0917303695e-01
 1.8987381793e+00	 1.1457561242e+00	-4.7303513868e-01
 2.0071979243e+00	 9.6349861423e-01	 1.8627478234e-01
 1.9979761345e+00	 9.8247879829e-01	 1.1981147055e-01
 1.9885599487e+00	 1.0014003738e+00	 5.3079696961e-02
 1.9789497692e+00	 1.0202604351e+00	-1.3735804912e-02
 1.9691460550e+00	 1.0390560757e+00	-8.0466115971e-02
 1.9591493217e+00	 1.0577843897e+00	-1.4696281994e-01
 1.9489601419e+00	 1.0764424734e+00	-2.1310297533e-01
 1.9385791454e+00	 1.0950274263e+00	-2.7879434748e-01
 1.9280070188e+00	 1.1135363527e+00	-3.4398087455e-01
 1.9172445063e+00	 1.1319663630e+00	-4.0864833822e-01
 1.9062924090e+00	 1.1503145752e+00	-4.7283020730e-01
 2.0151520210e+00	 9.6731675346e-01	 1.8081283603e-01
 2.0058936872e+00	 9.8637215194e-01	 1.1513153942e-01
 1.9964401871e+00	 1.0053687097e+00	 4.9328364054e-02
 1.9867919245e+00	 1.0243035093e+00	-1.6480195669e-02
 1.9769493602e+00	 1.0431736330e+00	-8.2192775954e-02
 1.9669130120e+00	 1.0619761634e+00	-1.4772784360e-01
 1.9566834547e+00	 1.0807081850e+00	-2.1302868981e-01
 1.9462613205e+00	 1.0993667861e+00	-2.7806869402e-01
 1.9356472989e+00	 1.1179490594e+00	-3.4285683106e-01
 1.9248421368e+00	 1.1364521039e+00	-4.0744339182e-01
 1.9138466387e+00	 1.1548730262e+00	-4.7192588519e-01
 1.8383043418e+00	 1.1092885163e+00	-4.6214812002e-01
 1.8275608570e+00	 1.1269006870e+00	-5.2220927211e-01
 1.8166362624e+00	 1.1444284477e+00	-5.8204480541e-01
 1.8055314987e+00	 1.1618690513e+00	-6.4275387903e-01
 1.7942475614e+00	 1.1792197631e+00	-7.0543451420e-01
 1.7827855005e+00	 1.1964778629e+00	-7.6947549060e-01
 1.7711464208e+00	 1.2136406457e+00	-8.3505205339e-01
 1.7593314809e+00	 1.2307054234e+00	-9.0209294447e-01
 1.7473418936e+00	 1.2476695257e+00	-9.6306688081e-01
 1.7351789251e+00	 1.2645303022e+00	-1.0180755683e+00
 1.7228438950e+00	 1.2812851231e+00	-1.0690313573e+00
 1.8458585715e+00	 1.1138469673e+00	-4.6372553767e-01
 1.8350709380e+00	 1.1315315125e+00	-5.2378796446e-01
 1.8241014505e+00	 1.1491313009e+00	-5.8335599825e-01
 1.8129510535e+00	 1.1666435739e+00	-6.4347716596e-01
 1.8016207465e+00	 1.1840655858e+00	-7.0496765286e-01
 1.7901115841e+00	 1.2013946052e+00	-7.6683732128e-01
 1.7784246753e+00	 1.2186279158e+00	-8.2975643662e-01
 1.7665611837e+00	 1.2357628185e+00	-8.9483080036e-01
 1.7545223270e+00	 1.2527966322e+00	-9.5893686497e-01
 1.7423093767e+00	 1.2697266955e+00	-1.0161727619e+00
 1.7299236577e+00	 1.2865503678e+00	-1.0682781904e+00
 1.8534128012e+00	 1.1184054183e+00	-4.6545828419e-01
 1.8425810190e+00	 1.1361623380e+00	-5.2564496693e-01
 1.8315666385e+00	 1.1538341540e+00	-5.8511501901e-01
 1.8203706082e+00	 1.1714180965e+00	-6.4485834306e-01
 1.8089939316e+00	 1.1889114086e+00	-7.0518809326e-01
 1.7974376676e+00	 1.2063113474e+00	-7.6516383979e-01
 1.7857029298e+00	 1.2236151859e+00	-8.2572917841e-01
 1.7737908865e+00	 1.2408202136e+00	-8.8793205459e-01
 1.7617027605e+00	 1.2579237387e+00	-9.5244178575e-01
 1.7494398283e+00	 1.2749230888e+00	-1.0123388900e+00
 1.7370034204e+00	 1.2918156124e+00	-1.0660249886e+00
 1.8609670309e+00	 1.1229638693e+00	-4.6723688852e-01
 1.8500910999e+00	 1.1407931635e+00	-5.2765723586e-01
 1.8390318265e+00	 1.1585370072e+00	-5.8718621890e-01
 1.8277901629e+00	 1.1761926191e+00	-6.4675018337e-01
 1.8163671167e+00	 1.1937572313e+00	-7.0594380932e-01
 1.8047637511e+00	 1.2112280896e+00	-7.6429710532e-01
 1.7929811843e+00	 1.2286024559e+00	-8.2280767248e-01
 1.7810205893e+00	 1.2458776088e+00	-8.8245994785e-01
 1.7688831939e+00	 1.2630508453e+00	-9.4422453465e-01
 1.7565702799e+00	 1.2801194821e+00	-1.0065191714e+00
 1.7440831831e+00	 1.2970808571e+00	-1.0622166589e+00
 1.8685212605e+00	 1.1275223202e+00	-4.6895254160e-01
 1.8576011809e+00	 1.1454239890e+00	-5.2970263124e-01
 1.8464970146e+00	 1.1632398603e+00	-5.8943507748e-01
 1.8352097176e+00	 1.1809671418e+00	-6.4891608717e-01
 1.8237403018e+00	 1.1986030540e+00	-7.0708602674e-01
 1.8120898346e+00	 1.2161448319e+00	-7.6408254291e-01
 1.8002594388e+00	 1.2335897260e+00	-8.2083277194e-01
 1.7882502922e+00	 1.2509350039e+00	-8.7825205552e-01
 1.7760636274e+00	 1.2681779518e+00	-9.3724384922e-01
 1.7637007315e+00	 1.2853158754e+00	-9.9866127593e-01
 1.7511629458e+00	 1.3023461018e+00	-1.0568005393e+00
 1.8760754902e+00	 1.1320807712e+00	-4.7049714113e-01
 1.8651112619e+00	 1.1500548145e+00	-5.3165995955e-01
 1.8539622026e+00	 1.1679427135e+00	-5.9172824377e-01
 1.8426292723e+00	 1.1857416644e+00	-6.5109898004e-01
 1.8311134869e+00	 1.2034488767e+00	-7.0846917469e-01
 1.8194159182e+00	 1.2210615741e+00	-7.6436889259e-01
 1.8075376933e+00	 1.2385769960e+00	-8.1964873607e-01
 1.7954799950e+00	 1.2559923991e+00	-8.7514942927e-01
 1.7832440609e+00	 1.2733050583e+00	-9.3170186858e-01
 1.7708311831e+00	 1.2905122687e+00	-9.9012720378e-01
 1.7582427084e+00	 1.3076113464e+00	-1.0497263426e+00
 1.8836297199e+00	 1.1366392222e+00	-4.7176333637e-01
 1.8726213429e+00	 1.1546856400e+00	-5.3340901670e-01
 1.8614273907e+00	 1.1726455666e+00	-5.9393357776e-01
 1.8500488270e+00	 1.1905161870e+00	-6.5316270600e-01
 1.8384866720e+00	 1.2082946994e+00	-7.0995083785e-01
 1.8267420017e+00	 1.2259783163e+00	-7.6500815884e-01
 1.8148159478e+00	 1.2435642661e+00	-8.1910317782e-01
 1.8027096978e+00	 1.2610497942e+00	-8.7299654274e-01
 1.7904244943e+00	 1.2784321648e+00	-9.2744124205e-01
 1.7779616348e+00	 1.2957086620e+00	-9.8318283586e-01
 1.7653224711e+00	 1.3128765911e+00	-1.0409597138e+00
 1.8911839496e+00	 1.1411976732e+00	-4.7264457309e-01
 1.8801314239e+00	 1.1593164655e+00	-5.3483063125e-01
 1.8688925787e+00	 1.1773484197e+00	-5.9591705386e-01
 1.8574683818e+00	 1.1952907097e+00	-6.5497453747e-01
 1.8458598571e+00	 1.2131405222e+00	-7.1139170900e-01
 1.8340680852e+00	 1.2308950586e+00	-7.6585556059e-01
 1.8220942023e+00	 1.2485515361e+00	-8.1904701159e-01
 1.8099394007e+00	 1.2661071893e+00	-8.7164123778e-01
 1.7976049278e+00	 1.2835592713e+00	-9.2430803262e-01
 1.7850920864e+00	 1.3009050553e+00	-9.7771219731e-01
 1.7724022338e+00	 1.3181418357e+00	-1.0325139564e+00
 1.8987381793e+00	 1.1457561242e+00	-4.7303513868e-01
 1.8876415049e+00	 1.1639472910e+00	-5.3580670780e-01
 1.8763577667e+00	 1.1820512729e+00	-5.9742499200e-01
 1.8648879365e+00	 1.2000652323e+00	-6.5640468594e-01
 1.8532330423e+00	 1.2179863449e+00	-7.1265554185e-01
 1.8413941687e+00	 1.2358118008e+00	-7.6676948167e-01
 1.8293724569e+00	 1.2535388062e+00	-8.1933440167e-01
 1.8171691035e+00	 1.2711645845e+00	-8.7093467118e-01
 1.8047853612e+00	 1.2886863779e+00	-9.2215166242e-01
 1.7922225380e+00	 1.3061014486e+00	-9.7356430834e-01
 1.7794819965e+00	 1.3234070804e+00	-1.0257496845e+00
 1.9062924090e+00	 1.1503145752e+00	-4.7283020730e-01
 1.8951515858e+00	 1.1685781165e+00	-5.3622027057e-01
 1.8838229548e+00	 1.1867541260e+00	-5.9827149259e-01
 1.8723074912e+00	 1.2048397549e+00	-6.5732625805e-01
 1.8606062274e+00	 1.2228321676e+00	-7.1360910436e-01
 1.8487202523e+00	 1.2407285430e+00	-7.6761142163e-01
 1.8366507114e+00	 1.2585260763e+00	-8.1982271107e-01
 1.8243988063e+00	 1.2762219796e+00	-8.7073126194e-01
 1.8119657947e+00	 1.2938134844e+00	-9.2082485892e-01
 1.7993529896e+00	 1.3112978419e+00	-9.7059151624e-01
 1.7865617592e+00	 1.3286723250e+00	-1.0205202347e+00
 1.9138466387e+00	 1.1548730262e+00	-4.7192588519e-01
 1.9026616668e+00	 1.1732089420e+00	-5.3595550715e-01
 1.8912881428e+00	 1.1914569792e+00	-5.9833972786e-01
 1.8797270459e+00	 1.2096142776e+00	-6.5761521201e-01
 1.8679794125e+00	 1.2276779903e+00	-7.1412213241e-01
 1.8560463358e+00	 1.2456452853e+00	-7.6824594708e-01
 1.8439289659e+00	 1.2635133463e+00	-8.2037245079e-01
 1.8316285092e+00	 1.2812793748e+00	-8.7088863902e-01
 1.8191462282e+00	 1.2989405909e+00	-9.2018360146e-01
 1.8064834412e+00	 1.3164942352e+00	-9.6864944129e-01
 1.7936415219e+00	 1.3339375697e+00	-1.0166822157e+00
 1.7228438950e+00	 1.2812851231e+00	-1.0690313573e+00
 1.7103360360e+00	 1.2979341998e+00	-1.1179393447e+00
 1.6976588619e+00	 1.3144720812e+00	-1.1655438921e+00
 1.6848138569e+00	 1.3308961970e+00	-1.2118864873e+00
 1.6718025565e+00	 1.3472040028e+00	-1.2570259077e+00
 1.6586265470e+00	 1.3633929816e+00	-1.3010379627e+00
 1.6452874651e+00	 1.3794606450e+00	-1.3440153032e+00
 1.6317869967e+00	 1.3954045341e+00	-1.3860672989e+00
 1.6181268767e+00	 1.4112222214e+00	-1.4273199792e+00
 1.6043088881e+00	 1.4269113115e+00	-1.4679160382e+00
 1.5903348611e+00	 1.4424694423e+00	-1.5080148983e+00
 1.7299236577e+00	 1.2865503678e+00	-1.0682781904e+00
 1.7173643996e+00	 1.3032678613e+00	-1.1175248352e+00
 1.7046351306e+00	 1.3198737025e+00	-1.1650059782e+00
 1.6917373410e+00	 1.3363653107e+00	-1.2108592265e+00
 1.6786725726e+00	 1.3527401310e+00	-1.2552373618e+00
 1.6654424184e+00	 1.3689956359e+00	-1.2983079566e+00
 1.6520485216e+00	 1.3851293269e+00	-1.3402530648e+00
 1.6384925751e+00	 1.4011387350e+00	-1.3812689845e+00
 1.6247763209e+00	 1.4170214227e+00	-1.4215660926e+00
 1.6109015494e+00	 1.4327749846e+00	-1.4613687480e+00
 1.5968700983e+00	 1.4483970492e+00	-1.5009152617e+00
 1.7370034204e+00	 1.2918156124e+00	-1.0660249886e+00
 1.7243927632e+00	 1.3086015228e+00	-1.1160127531e+00
 1.7116113993e+00	 1.3252753239e+00	-1.1637222358e+00
 1.6986608251e+00	 1.3418344245e+00	-1.2093877550e+00
 1.6855425888e+00	 1.3582762592e+00	-1.2532567275e+00
 1.6722582897e+00	 1.3745982903e+00	-1.2955891590e+00
 1.6588095780e+00	 1.3907980088e+00	-1.3366572135e+00
 1.6451981534e+00	 1.4068729359e+00	-1.3767448615e+00
 1.6314257651e+00	 1.4228206239e+00	-1.4161476071e+00
 1.6174942106e+00	 1.4386386577e+00	-1.4551722893e+00
 1.6034053354e+00	 1.4543246561e+00	-1.4941369567e+00
 1.7440831831e+00	 1.2970808571e+00	-1.0622166589e+00
 1.7314211267e+00	 1.3139351842e+00	-1.1133487478e+00
 1.7185876679e+00	 1.3306769453e+00	-1.1616396066e+00
 1.7055843091e+00	 1.3473035382e+00	-1.2074208571e+00
 1.6924126049e+00	 1.3638123873e+00	-1.2510351831e+00
 1.6790741611e+00	 1.3802009446e+00	-1.2928356919e+00
 1.6655706344e+00	 1.3964666907e+00	-1.3331853630e+00
 1.6519037317e+00	 1.4126071367e+00	-1.3724565813e+00
 1.6380752093e+00	 1.4286198251e+00	-1.4110307542e+00
 1.6240868719e+00	 1.4445023309e+00	-1.4492980117e+00
 1.6099405725e+00	 1.4602522630e+00	-1.4876569846e+00
 1.7511629458e+00	 1.3023461018e+00	-1.0568005393e+00
 1.7384494903e+00	 1.3192688457e+00	-1.1094808634e+00
 1.7255639366e+00	 1.3360785667e+00	-1.1587073827e+00
 1.7125077932e+00	 1.3527726520e+00	-1.2049096165e+00
 1.6992826210e+00	 1.3693485155e+00	-1.2485261458e+00
 1.6858900324e+00	 1.3858035989e+00	-1.2900038483e+00
 1.6723316909e+00	 1.4021353726e+00	-1.3297972230e+00
 1.6586093101e+00	 1.4183413376e+00	-1.3683678077e+00
 1.6447246534e+00	 1.4344190263e+00	-1.4061836871e+00
 1.6306795332e+00	 1.4503660040e+00	-1.4437190886e+00
 1.6164758097e+00	 1.4661798698e+00	-1.4814540650e+00
 1.7582427084e+00	 1.3076113464e+00	-1.0497263426e+00
 1.7454778539e+00	 1.3246025072e+00	-1.1043594830e+00
 1.7325402052e+00	 1.3414801880e+00	-1.1548771522e+00
 1.7194312773e+00	 1.3582417657e+00	-1.2018073605e+00
 1.7061526372e+00	 1.3748846437e+00	-1.2456852184e+00
 1.6927059038e+00	 1.3914062532e+00	-1.2870520404e+00
 1.6790927473e+00	 1.4078040545e+00	-1.3264545478e+00
 1.6653148884e+00	 1.4240755385e+00	-1.3644441683e+00
 1.6513740976e+00	 1.4402182276e+00	-1.4015764337e+00
 1.6372721944e+00	 1.4562296772e+00	-1.4384104720e+00
 1.6230110468e+00	 1.4721074767e+00	-1.4755085928e+00
 1.7653224711e+00	 1.3128765911e+00	-1.0409597138e+00
 1.7525062174e+00	 1.3299361687e+00	-1.0979372741e+00
 1.7395164739e+00	 1.3468818094e+00	-1.1501027438e+00
 1.7263547614e+00	 1.3637108795e+00	-1.1980696073e+00
 1.7130226533e+00	 1.3804207719e+00	-1.2424701357e+00
 1.6995217752e+00	 1.3970089075e+00	-1.2839407473e+00
 1.6858538038e+00	 1.4134727364e+00	-1.3231210865e+00
 1.6720204668e+00	 1.4298097394e+00	-1.3606532052e+00
 1.6580235418e+00	 1.4460174288e+00	-1.3971808497e+00
 1.6438648557e+00	 1.4620933503e+00	-1.4333488475e+00
 1.6295462840e+00	 1.4780350836e+00	-1.4698025953e+00
 1.7724022338e+00	 1.3181418357e+00	-1.0325139564e+00
 1.7595345810e+00	 1.3352698302e+00	-1.0901691332e+00
 1.7464927426e+00	 1.3522834308e+00	-1.1443401731e+00
 1.7332782455e+00	 1.3691799933e+00	-1.1936540120e+00
 1.7198926695e+00	 1.3859569001e+00	-1.2388407129e+00
 1.7063376465e+00	 1.4026115618e+00	-1.2806324641e+00
 1.6926148602e+00	 1.4191414183e+00	-1.3197625326e+00
 1.6787260451e+00	 1.4355439402e+00	-1.3569643270e+00
 1.6646729859e+00	 1.4518166300e+00	-1.3929705718e+00
 1.6504575170e+00	 1.4679570234e+00	-1.4285125895e+00
 1.6360815211e+00	 1.4839626905e+00	-1.4643196895e+00
 1.7794819965e+00	 1.3234070804e+00	-1.0257496845e+00
 1.7665629446e+00	 1.3406034917e+00	-1.0811282828e+00
 1.7534690112e+00	 1.3576850521e+00	-1.1375475892e+00
 1.7402017296e+00	 1.3746491070e+00	-1.1885203138e+00
 1.7267626856e+00	 1.3914930283e+00	-1.2347587929e+00
 1.7131535179e+00	 1.4082142161e+00	-1.2770916507e+00
 1.6993759167e+00	 1.4248101002e+00	-1.3163464747e+00
 1.6854316234e+00	 1.4412781411e+00	-1.3533487603e+00
 1.6713224301e+00	 1.4576158313e+00	-1.3889209715e+00
 1.6570501782e+00	 1.4738206966e+00	-1.4238817171e+00
 1.6426167583e+00	 1.4898902974e+00	-1.4590450404e+00
 1.7865617592e+00	 1.3286723250e+00	-1.0205202347e+00
 1.7735913081e+00	 1.3459371531e+00	-1.0730570148e+00
 1.7604452799e+00	 1.3630866735e+00	-1.1296852211e+00
 1.7471252137e+00	 1.3801182208e+00	-1.1826302835e+00
 1.7336327017e+00	 1.3970291564e+00	-1.2301881955e+00
 1.7199693892e+00	 1.4138168704e+00	-1.2732846817e+00
 1.7061369731e+00	 1.4304787821e+00	-1.3128423473e+00
 1.6921372018e+00	 1.4470123420e+00	-1.3497795025e+00
 1.6779718743e+00	 1.4634150325e+00	-1.3850091089e+00
 1.6636428395e+00	 1.4796843697e+00	-1.4194378496e+00
 1.6491519954e+00	 1.4958179043e+00	-1.4539653184e+00
 1.7936415219e+00	 1.3339375697e+00	-1.0166822157e+00
 1.7806196717e+00	 1.3512708146e+00	-1.0667238969e+00
 1.7674215486e+00	 1.3684882949e+00	-1.1209485087e+00
 1.7540486977e+00	 1.3855873345e+00	-1.1759476719e+00
 1.7405027179e+00	 1.4025652846e+00	-1.2250946655e+00
 1.7267852606e+00	 1.4194195247e+00	-1.2691797959e+00
 1.7128980295e+00	 1.4361474640e+00	-1.3092213820e+00
 1.6988427801e+00	 1.4527465428e+00	-1.3462312742e+00
 1.6846213184e+00	 1.4692142337e+00	-1.3812136875e+00
 1.6702355008e+00	 1.4855480428e+00	-1.4151641631e+00
 1.6556872326e+00	 1.5017455112e+00	-1.4490686577e+00
 1.5903348611e+00	 1.4424694423e+00	-1.5080148983e+00
 1.5762090829e+00	 1.4578916803e+00	-1.5453012578e+00
 1.5619310921e+00	 1.4731784118e+00	-1.5777380456e+00
 1.5475028298e+00	 1.4883274084e+00	-1.6058997408e+00
 1.5329262812e+00	 1.5033364797e+00	-1.6303678489e+00
 1.5182034744e+00	 1.5182034744e+00	-1.6517306445e+00
 1.5033364797e+00	 1.5329262812e+00	-1.6705829541e+00
 1.4883274084e+00	 1.5475028298e+00	-1.6875259752e+00
 1.4731784118e+00	 1.5619310921e+00	-1.7031671224e+00
 1.4578916803e+00	 1.5762090829e+00	-1.7181198936e+00
 1.4424694423e+00	 1.5903348611e+00	-1.7330037494e+00
 1.5968700983e+00	 1.4483970492e+00	-1.5009152617e+00
 1.5826862724e+00	 1.4638826625e+00	-1.5378932988e+00
 1.5683496083e+00	 1.4792322124e+00	-1.5701940329e+00
 1.5538620553e+00	 1.4944434615e+00	-1.5983566908e+00
 1.5392256065e+00	 1.5095142103e+00	-1.6229274211e+00
 1.5244422987e+00	 1.5244422987e+00	-1.6444591238e+00
 1.5095142103e+00	 1.5392256065e+00	-1.6635113229e+00
 1.4944434615e+00	 1.5538620553e+00	-1.6806500761e+00
 1.4792322124e+00	 1.5683496083e+00	-1.6964479142e+00
 1.4638826625e+00	 1.5826862724e+00	-1.7114838010e+00
 1.4483970492e+00	 1.5968700983e+00	-1.7263431065e+00
 1.6034053354e+00	 1.4543246561e+00	-1.4941369567e+00
 1.5891634618e+00	 1.4698736447e+00	-1.5307483845e+00
 1.5747681245e+00	 1.4852860131e+00	-1.5628437494e+00
 1.5602212807e+00	 1.5005595147e+00	-1.5909303330e+00
 1.5455249319e+00	 1.5156919410e+00	-1.6155222108e+00
 1.5306811229e+00	 1.5306811229e+00	-1.6371401656e+00
 1.5156919410e+00	 1.5455249319e+00	-1.6563116466e+00
 1.5005595147e+00	 1.5602212807e+00	-1.6735707674e+00
 1.4852860131e+00	 1.5747681245e+00	-1.6894583354e+00
 1.4698736447e+00	 1.5891634618e+00	-1.7045219027e+00
 1.4543246561e+00	 1.6034053354e+00	-1.7193158309e+00
 1.6099405725e+00	 1.4602522630e+00	-1.4876569846e+00
 1.5956406512e+00	 1.4758646269e+00	-1.5238493514e+00
 1.5811866407e+00	 1.4913398138e+00	-1.5556756813e+00
 1.5665805062e+00	 1.5066755679e+00	-1.5836145818e+00
 1.5518242573e+00	 1.5218696716e+00	-1.6081513028e+00
 1.5369199472e+00	 1.5369199472e+00	-1.6297777308e+00
 1.5218696716e+00	 1.5518242573e+00	-1.6489924317e+00
 1.5066755679e+00	 1.5665805062e+00	-1.6663007342e+00
 1.4913398138e+00	 1.5811866407e+00	-1.6822148459e+00
 1.4758646269e+00	 1.5956406512e+00	-1.6972539936e+00
 1.4602522630e+00	 1.6099405725e+00	-1.7119445764e+00
 1.6164758097e+00	 1.4661798698e+00	-1.4814540650e+00
 1.6021178406e+00	 1.4818556091e+00	-1.5171806468e+00
 1.5876051569e+00	 1.4973936145e+00	-1.5486798221e+00
 1.5729397317e+00	 1.5127916210e+00	-1.5764047600e+00
 1.5581235827e+00	 1.5280474023e+00	-1.6008150965e+00
 1.5431587715e+00	 1.5431587715e+00	-1.6223770071e+00
 1.5280474023e+00	 1.5581235827e+00	-1.6415633297e+00
 1.5127916210e+00	 1.5729397317e+00	-1.6588537311e+00
 1.4973936145e+00	 1.5876051569e+00	-1.6747349075e+00
 1.4818556091e+00	 1.6021178406e+00	-1.6897008100e+00
 1.4661798698e+00	 1.6164758097e+00	-1.7042528858e+00
 1.6230110468e+00	 1.4721074767e+00	-1.4755085928e+00
 1.6085950301e+00	 1.4878465913e+00	-1.5107282880e+00
 1.5940236731e+00	 1.5034474152e+00	-1.5418476344e+00
 1.5792989572e+00	 1.5189076742e+00	-1.5692975631e+00
 1.5644229081e+00	 1.5342251329e+00	-1.5935152730e+00
 1.5493975958e+00	 1.5493975958e+00	-1.6149443779e+00
 1.5342251329e+00	 1.5644229081e+00	-1.6340351081e+00
 1.5189076742e+00	 1.5792989572e+00	-1.6512445558e+00
 1.5034474152e+00	 1.5940236731e+00	-1.6670369583e+00
 1.4878465913e+00	 1.6085950301e+00	-1.6818840063e+00
 1.4721074767e+00	 1.6230110468e+00	-1.6962651693e+00
 1.6295462840e+00	 1.4780350836e+00	-1.4698025953e+00
 1.6150722195e+00	 1.4938375735e+00	-1.5044798219e+00
 1.6004421894e+00	 1.5095012159e+00	-1.5351720116e+00
 1.5856581827e+00	 1.5250237274e+00	-1.5622910234e+00
 1.5707222335e+00	 1.5404028635e+00	-1.5862547605e+00
 1.5556364200e+00	 1.5556364200e+00	-1.6074873903e+00
 1.5404028635e+00	 1.5707222335e+00	-1.6264196203e+00
 1.5250237274e+00	 1.5856581827e+00	-1.6434890209e+00
 1.5095012159e+00	 1.6004421894e+00	-1.6591403877e+00
 1.4938375735e+00	 1.6150722195e+00	-1.6738261308e+00
 1.4780350836e+00	 1.6295462840e+00	-1.6880066821e+00
 1.6360815211e+00	 1.4839626905e+00	-1.4643196895e+00
 1.6215494089e+00	 1.4998285557e+00	-1.4984242849e+00
 1.6068607056e+00	 1.5155550166e+00	-1.5286472401e+00
 1.5920174081e+00	 1.5311397805e+00	-1.5553844738e+00
 1.5770215589e+00	 1.5465805942e+00	-1.5790377013e+00
 1.5618752443e+00	 1.5618752443e+00	-1.6000147240e+00
 1.5465805942e+00	 1.5770215589e+00	-1.6187297768e+00
 1.5311397805e+00	 1.5920174081e+00	-1.6356039267e+00
 1.5155550166e+00	 1.6068607056e+00	-1.6510655102e+00
 1.4998285557e+00	 1.6215494089e+00	-1.6655506022e+00
 1.4839626905e+00	 1.6360815211e+00	-1.6795035023e+00
 1.6426167583e+00	 1.4898902974e+00	-1.4590450404e+00
 1.6280265984e+00	 1.5058195380e+00	-1.4925521628e+00
 1.6132792218e+00	 1.5216088173e+00	-1.5222689613e+00
 1.5983766336e+00	 1.5372558337e+00	-1.5485785126e+00
 1.5833208843e+00	 1.5527583248e+00	-1.5718694180e+00
 1.5681140686e+00	 1.5681140686e+00	-1.5925361592e+00
 1.5527583248e+00	 1.5833208843e+00	-1.6109795155e+00
 1.5372558337e+00	 1.5983766336e+00	-1.6276070334e+00
 1.5216088173e+00	 1.6132792218e+00	-1.6428335398e+00
 1.5058195380e+00	 1.6280265984e+00	-1.6570816852e+00
 1.4898902974e+00	 1.6426167583e+00	-1.6707825087e+00
 1.6491519954e+00	 1.4958179043e+00	-1.4539653184e+00
 1.6345037878e+00	 1.5118105202e+00	-1.4868553506e+00
 1.6196977380e+00	 1.5276626180e+00	-1.5160341338e+00
 1.6047358591e+00	 1.5433718869e+00	-1.5418749676e+00
 1.5896202097e+00	 1.5589360555e+00	-1.5647563799e+00
 1.5743528929e+00	 1.5743528929e+00	-1.5850625459e+00
 1.5589360555e+00	 1.5896202097e+00	-1.6031837715e+00
 1.5433718869e+00	 1.6047358591e+00	-1.6195170337e+00
 1.5276626180e+00	 1.6196977380e+00	-1.6344665642e+00
 1.5118105202e+00	 1.6345037878e+00	-1.6484444668e+00
 1.4958179043e+00	 1.6491519954e+00	-1.6618713575e+00
 1.6556872326e+00	 1.5017455112e+00	-1.4490686577e+00
 1.6409809772e+00	 1.5178015024e+00	-1.4813271134e+00
 1.6261162542e+00	 1.5337164186e+00	-1.5099409959e+00
 1.6110950846e+00	 1.5494879400e+00	-1.5352768606e+00
 1.5959195351e+00	 1.5651137861e+00	-1.5577061696e+00
 1.5805917172e+00	 1.5805917172e+00	-1.5776057713e+00
 1.5651137861e+00	 1.5959195351e+00	-1.5953584484e+00
 1.5494879400e+00	 1.6110950846e+00	-1.6113535247e+00
 1.5337164186e+00	 1.6261162542e+00	-1.6259875185e+00
 1.5178015024e+00	 1.6409809772e+00	-1.6396648313e+00
 1.5017455112e+00	 1.6556872326e+00	-1.6527984605e+00
 1.4424694423e+00	 1.5903348611e+00	-1.7330037494e+00
 1.4269113115e+00	 1.6043088881e+00	-1.7460296800e+00
 1.4112222214e+00	 1.6181268767e+00	-1.7551777023e+00
 1.3954045341e+00	 1.6317869967e+00	-1.7607257423e+00
 1.3794606450e+00	 1.6452874651e+00	-1.7629425090e+00
 1.3633929816e+00	 1.6586265470e+00	-1.7620878892e+00
 1.3472040028e+00	 1.6718025565e+00	-1.7584133209e+00
 1.3308961970e+00	 1.6848138569e+00	-1.7521621386e+00
 1.3144720812e+00	 1.6976588619e+00	-1.7435698780e+00
 1.2979341998e+00	 1.7103360360e+00	-1.7328645337e+00
 1.2812851231e+00	 1.7228438950e+00	-1.7202667592e+00
 1.4483970492e+00	 1.5968700983e+00	-1.7263431065e+00
 1.4327749846e+00	 1.6109015494e+00	-1.7391297416e+00
 1.4170214227e+00	 1.6247763209e+00	-1.7477868129e+00
 1.4011387350e+00	 1.6384925751e+00	-1.7526657047e+00
 1.3851293269e+00	 1.6520485216e+00	-1.7541111384e+00
 1.3689956359e+00	 1.6654424184e+00	-1.7524615048e+00
 1.3527401310e+00	 1.6786725726e+00	-1.7480491731e+00
 1.3363653107e+00	 1.6917373410e+00	-1.7412007656e+00
 1.3198737025e+00	 1.7046351306e+00	-1.7322373903e+00
 1.3032678613e+00	 1.7173643996e+00	-1.7214748204e+00
 1.2865503678e+00	 1.7299236577e+00	-1.7092236132e+00
 1.4543246561e+00	 1.6034053354e+00	-1.7193158309e+00
 1.4386386577e+00	 1.6174942106e+00	-1.7318509431e+00
 1.4228206239e+00	 1.6314257651e+00	-1.7400453703e+00
 1.4068729359e+00	 1.6451981534e+00	-1.7443238643e+00
 1.3907980088e+00	 1.6588095780e+00	-1.7451070163e+00
 1.3745982903e+00	 1.6722582897e+00	-1.7428115288e+00
 1.3582762592e+00	 1.6855425888e+00	-1.7378504602e+00
 1.3418344245e+00	 1.6986608251e+00	-1.7306334330e+00
 1.3252753239e+00	 1.7116113993e+00	-1.7215667932e+00
 1.3086015228e+00	 1.7243927632e+00	-1.7110537149e+00
 1.2918156124e+00	 1.7370034204e+00	-1.6994942390e+00
 1.4602522630e+00	 1.6099405725e+00	-1.7119445764e+00
 1.4445023309e+00	 1.6240868719e+00	-1.7242181834e+00
 1.4286198251e+00	 1.6380752093e+00	-1.7319797915e+00
 1.4126071367e+00	 1.6519037317e+00	-1.7357274304e+00
 1.3964666907e+00	 1.6655706344e+00	-1.7359574203e+00
 1.3802009446e+00	 1.6790741611e+00	-1.7331645853e+00
 1.3638123873e+00	 1.6924126049e+00	-1.7278424352e+00
 1.3473035382e+00	 1.7055843091e+00	-1.7204833070e+00
 1.3306769453e+00	 1.7185876679e+00	-1.7115784552e+00
 1.3139351842e+00	 1.7314211267e+00	-1.7016180816e+00
 1.2970808571e+00	 1.7440831831e+00	-1.6910912953e+00
 1.4661798698e+00	 1.6164758097e+00	-1.7042528858e+00
 1.4503660040e+00	 1.6306795332e+00	-1.7162572084e+00
 1.4344190263e+00	 1.6447246534e+00	-1.7236173098e+00
 1.4183413376e+00	 1.6586093101e+00	-1.7269044095e+00
 1.4021353726e+00	 1.6723316909e+00	-1.7266904183e+00
 1.3858035989e+00	 1.6858900324e+00	-1.7235480935e+00
 1.3693485155e+00	 1.6992826210e+00	-1.7180511607e+00
 1.3527726520e+00	 1.7125077932e+00	-1.7107743900e+00
 1.3360785667e+00	 1.7255639366e+00	-1.7022936179e+00
 1.3192688457e+00	 1.7384494903e+00	-1.6931857047e+00
 1.3023461018e+00	 1.7511629458e+00	-1.6840284180e+00
 1.4721074767e+00	 1.6230110468e+00	-1.6962651693e+00
 1.4562296772e+00	 1.6372721944e+00	-1.7079945905e+00
 1.4402182276e+00	 1.6513740976e+00	-1.7149859560e+00
 1.4240755385e+00	 1.6653148884e+00	-1.7178835884e+00
 1.4078040545e+00	 1.6790927473e+00	-1.7173348516e+00
 1.3914062532e+00	 1.6927059038e+00	-1.7139902507e+00
 1.3748846437e+00	 1.7061526372e+00	-1.7085034936e+00
 1.3582417657e+00	 1.7194312773e+00	-1.7015315048e+00
 1.3414801880e+00	 1.7325402052e+00	-1.6937343801e+00
 1.3246025072e+00	 1.7454778539e+00	-1.6857752735e+00
 1.3076113464e+00	 1.7582427084e+00	-1.6783202052e+00
 1.4780350836e+00	 1.6295462840e+00	-1.6880066821e+00
 1.4620933503e+00	 1.6438648557e+00	-1.6994577080e+00
 1.4460174288e+00	 1.6580235418e+00	-1.7061145393e+00
 1.4298097394e+00	 1.6720204668e+00	-1.7086945155e+00
 1.4134727364e+00	 1.6858538038e+00	-1.7079203184e+00
 1.3970089075e+00	 1.6995217752e+00	-1.7045200165e+00
 1.3804207719e+00	 1.7130226533e+00	-1.6992270693e+00
 1.3637108795e+00	 1.7263547614e+00	-1.6927802797e+00
 1.3468818094e+00	 1.7395164739e+00	-1.6859236834e+00
 1.3299361687e+00	 1.7525062174e+00	-1.6794063666e+00
 1.3128765911e+00	 1.7653224711e+00	-1.6739712570e+00
 1.4839626905e+00	 1.6360815211e+00	-1.6795035023e+00
 1.4679570234e+00	 1.6504575170e+00	-1.6906747245e+00
 1.4518166300e+00	 1.6646729859e+00	-1.6970326274e+00
 1.4355439402e+00	 1.6787260451e+00	-1.6993674829e+00
 1.4191414183e+00	 1.6926148602e+00	-1.6984771558e+00
 1.4026115618e+00	 1.7063376465e+00	-1.6951670957e+00
 1.3859569001e+00	 1.7198926695e+00	-1.6902502854e+00
 1.3691799933e+00	 1.7332782455e+00	-1.6845471323e+00
 1.3522834308e+00	 1.7464927426e+00	-1.6788852959e+00
 1.3352698302e+00	 1.7595345810e+00	-1.6740994370e+00
 1.3181418357e+00	 1.7724022338e+00	-1.6693536681e+00
 1.4898902974e+00	 1.6426167583e+00	-1.6707825087e+00
 1.4738206966e+00	 1.6570501782e+00	-1.6816745678e+00
 1.4576158313e+00	 1.6713224301e+00	-1.6877705275e+00
 1.4412781411e+00	 1.6854316234e+00	-1.6899335074e+00
 1.4248101002e+00	 1.6993759167e+00	-1.6890364223e+00
 1.4082142161e+00	 1.7131535179e+00	-1.6859619221e+00
 1.3914930283e+00	 1.7267626856e+00	-1.6816022854e+00
 1.3746491070e+00	 1.7402017296e+00	-1.6768592539e+00
 1.3576850521e+00	 1.7534690112e+00	-1.6726437967e+00
 1.3406034917e+00	 1.7665629446e+00	-1.6697846725e+00
 1.3234070804e+00	 1.7794819965e+00	-1.6634032280e+00
 1.4958179043e+00	 1.6491519954e+00	-1.6618713575e+00
 1.4796843697e+00	 1.6636428395e+00	-1.6724869089e+00
 1.4634150325e+00	 1.6779718743e+00	-1.6783592658e+00
 1.4470123420e+00	 1.6921372018e+00	-1.6804243122e+00
 1.4304787821e+00	 1.7061369731e+00	-1.6796298801e+00
 1.4138168704e+00	 1.7199693892e+00	-1.6769356403e+00
 1.3970291564e+00	 1.7336327017e+00	-1.6733129423e+00
 1.3801182208e+00	 1.7471252137e+00	-1.6697445928e+00
 1.3630866735e+00	 1.7604452799e+00	-1.6672245600e+00
 1.3459371531e+00	 1.7735913081e+00	-1.6647069575e+00
 1.3286723250e+00	 1.7865617592e+00	-1.6562753986e+00
 1.5017455112e+00	 1.6556872326e+00	-1.6527984605e+00
 1.4855480428e+00	 1.6702355008e+00	-1.6631421404e+00
 1.4692142337e+00	 1.6846213184e+00	-1.6688305677e+00
 1.4527465428e+00	 1.6988427801e+00	-1.6708723073e+00
 1.4361474640e+00	 1.7128980295e+00	-1.6702899768e+00
 1.4194195247e+00	 1.7267852606e+00	-1.6681200891e+00
 1.4025652846e+00	 1.7405027179e+00	-1.6654128413e+00
 1.3855873345e+00	 1.7540486977e+00	-1.6632318381e+00
 1.3684882949e+00	 1.7674215486e+00	-1.6624754370e+00
 1.3512708146e+00	 1.7806196717e+00	-1.6583021550e+00
 1.3339375697e+00	 1.7936415219e+00	-1.6481228335e+00
 1.2812851231e+00	 1.7228438950e+00	-1.7202667592e+00
 1.2645303022e+00	 1.7351789251e+00	-1.7063669367e+00
 1.2476695257e+00	 1.7473418936e+00	-1.6926182814e+00
 1.2307054234e+00	 1.7593314809e+00	-1.6805623246e+00
 1.2136406457e+00	 1.7711464208e+00	-1.6701820926e+00
 1.1964778629e+00	 1.7827855005e+00	-1.6547357516e+00
 1.1792197631e+00	 1.7942475614e+00	-1.6338028922e+00
 1.1618690513e+00	 1.8055314987e+00	-1.6087571856e+00
 1.1444284477e+00	 1.8166362624e+00	-1.5812917414e+00
 1.1269006870e+00	 1.8275608570e+00	-1.5516694311e+00
 1.1092885163e+00	 1.8383043418e+00	-1.5201477713e+00
 1.2865503678e+00	 1.7299236577e+00	-1.7092236132e+00
 1.2697266955e+00	 1.7423093767e+00	-1.6963977590e+00
 1.2527966322e+00	 1.7545223270e+00	-1.6847251867e+00
 1.2357628185e+00	 1.7665611837e+00	-1.6756395546e+00
 1.2186279158e+00	 1.7784246753e+00	-1.6639894231e+00
 1.2013946052e+00	 1.7901115841e+00	-1.6468173655e+00
 1.1840655858e+00	 1.8016207465e+00	-1.6247487848e+00
 1.1666435739e+00	 1.8129510535e+00	-1.5987235731e+00
 1.1491313009e+00	 1.8241014505e+00	-1.5706116796e+00
 1.1315315125e+00	 1.8350709380e+00	-1.5408285351e+00
 1.1138469673e+00	 1.8458585715e+00	-1.5096169944e+00
 1.2918156124e+00	 1.7370034204e+00	-1.6994942390e+00
 1.2749230888e+00	 1.7494398283e+00	-1.6881017096e+00
 1.2579237387e+00	 1.7617027605e+00	-1.6788510538e+00
 1.2408202136e+00	 1.7737908865e+00	-1.6703778781e+00
 1.2236151859e+00	 1.7857029298e+00	-1.6566585528e+00
 1.2063113474e+00	 1.7974376676e+00	-1.6379828876e+00
 1.1889114086e+00	 1.8089939316e+00	-1.6149586043e+00
 1.1714180965e+00	 1.8203706082e+00	-1.5882789242e+00
 1.1538341540e+00	 1.8315666385e+00	-1.5596758960e+00
 1.1361623380e+00	 1.8425810190e+00	-1.5298291342e+00
 1.1184054183e+00	 1.8534128012e+00	-1.4989613622e+00
 1.2970808571e+00	 1.7440831831e+00	-1.6910912953e+00
 1.2801194821e+00	 1.7565702799e+00	-1.6814869080e+00
 1.2630508453e+00	 1.7688831939e+00	-1.6744173953e+00
 1.2458776088e+00	 1.7810205893e+00	-1.6638858311e+00
 1.2286024559e+00	 1.7929811843e+00	-1.6483537228e+00
 1.2112280896e+00	 1.8047637511e+00	-1.6283952004e+00
 1.1937572313e+00	 1.8163671167e+00	-1.6045943463e+00
 1.1761926191e+00	 1.8277901629e+00	-1.5775458515e+00
 1.1585370072e+00	 1.8390318265e+00	-1.5486028401e+00
 1.1407931635e+00	 1.8500910999e+00	-1.5187861912e+00
 1.1229638693e+00	 1.8609670309e+00	-1.4882930881e+00
 1.3023461018e+00	 1.7511629458e+00	-1.6840284180e+00
 1.2853158754e+00	 1.7637007315e+00	-1.6765625124e+00
 1.2681779518e+00	 1.7760636274e+00	-1.6689380499e+00
 1.2509350039e+00	 1.7882502922e+00	-1.6563265715e+00
 1.2335897260e+00	 1.8002594388e+00	-1.6392363765e+00
 1.2161448319e+00	 1.8120898346e+00	-1.6182144283e+00
 1.1986030540e+00	 1.8237403018e+00	-1.5938152813e+00
 1.1809671418e+00	 1.8352097176e+00	-1.5666015782e+00
 1.1632398603e+00	 1.8464970146e+00	-1.5375119390e+00
 1.1454239890e+00	 1.8576011809e+00	-1.5078156887e+00
 1.1275223202e+00	 1.8685212605e+00	-1.4777254380e+00
 1.3076113464e+00	 1.7582427084e+00	-1.6783202052e+00
 1.2905122687e+00	 1.7708311831e+00	-1.6721839719e+00
 1.2733050583e+00	 1.7832440609e+00	-1.6622697993e+00
 1.2559923991e+00	 1.7954799950e+00	-1.6478604439e+00
 1.2385769960e+00	 1.8075376933e+00	-1.6294651880e+00
 1.2210615741e+00	 1.8194159182e+00	-1.6075979657e+00
 1.2034488767e+00	 1.8311134869e+00	-1.5827779820e+00
 1.1857416644e+00	 1.8426292723e+00	-1.5555303093e+00
 1.1679427135e+00	 1.8539622026e+00	-1.5265235091e+00
 1.1500548145e+00	 1.8651112619e+00	-1.4970345432e+00
 1.1320807712e+00	 1.8760754902e+00	-1.4673726476e+00
 1.3128765911e+00	 1.7653224711e+00	-1.6739712570e+00
 1.2957086620e+00	 1.7779616348e+00	-1.6665046699e+00
 1.2784321648e+00	 1.7904244943e+00	-1.6545721487e+00
 1.2610497942e+00	 1.8027096978e+00	-1.6386450088e+00
 1.2435642661e+00	 1.8148159478e+00	-1.6191960916e+00
 1.2259783163e+00	 1.8267420017e+00	-1.5967005056e+00
 1.2082946994e+00	 1.8384866720e+00	-1.5716363518e+00
 1.1905161870e+00	 1.8500488270e+00	-1.5444854275e+00
 1.1726455666e+00	 1.8614273907e+00	-1.5157586685e+00
 1.1546856400e+00	 1.8726213429e+00	-1.4865605195e+00
 1.1366392222e+00	 1.8836297199e+00	-1.4573498389e+00
 1.3181418357e+00	 1.7724022338e+00	-1.6693536681e+00
 1.3009050553e+00	 1.7850920864e+00	-1.6596518589e+00
 1.2835592713e+00	 1.7976049278e+00	-1.6460018019e+00
 1.2661071893e+00	 1.8099394007e+00	-1.6288350733e+00
 1.2485515361e+00	 1.8220942023e+00	-1.6085823110e+00
 1.2308950586e+00	 1.8340680852e+00	-1.5856740677e+00
 1.2131405222e+00	 1.8458598571e+00	-1.5605416516e+00
 1.1952907097e+00	 1.8574683818e+00	-1.5336179455e+00
 1.1773484197e+00	 1.8688925787e+00	-1.5053382000e+00
 1.1593164655e+00	 1.8801314239e+00	-1.4765121446e+00
 1.1411976732e+00	 1.8911839496e+00	-1.4477729372e+00
 1.3234070804e+00	 1.7794819965e+00	-1.6634032280e+00
 1.3061014486e+00	 1.7922225380e+00	-1.6517815669e+00
 1.2886863779e+00	 1.8047853612e+00	-1.6367126921e+00
 1.2711645845e+00	 1.8171691035e+00	-1.6185827201e+00
 1.2535388062e+00	 1.8293724569e+00	-1.5977743876e+00
 1.2358118008e+00	 1.8413941687e+00	-1.5746680266e+00
 1.2179863449e+00	 1.8532330423e+00	-1.5496425277e+00
 1.2000652323e+00	 1.8648879365e+00	-1.5230762842e+00
 1.1820512729e+00	 1.8763577667e+00	-1.4953481102e+00
 1.1639472910e+00	 1.8876415049e+00	-1.4670086217e+00
 1.1457561242e+00	 1.8987381793e+00	-1.4387585871e+00
 1.3286723250e+00	 1.7865617592e+00	-1.6562753986e+00
 1.3112978419e+00	 1.7993529896e+00	-1.6430470329e+00
 1.2938134844e+00	 1.8119657947e+00	-1.6268560122e+00
 1.2762219796e+00	 1.8243988063e+00	-1.6080373371e+00
 1.2585260763e+00	 1.8366507114e+00	-1.5869202096e+00
 1.2407285430e+00	 1.8487202523e+00	-1.5638291395e+00
 1.2228321676e+00	 1.8606062274e+00	-1.5390850390e+00
 1.2048397549e+00	 1.8723074912e+00	-1.5130062995e+00
 1.1867541260e+00	 1.8838229548e+00	-1.4859098438e+00
 1.1685781165e+00	 1.8951515858e+00	-1.4581697439e+00
 1.1503145752e+00	 1.9062924090e+00	-1.4304240694e+00
 1.3339375697e+00	 1.7936415219e+00	-1.6481228335e+00
 1.3164942352e+00	 1.8064834412e+00	-1.6335987378e+00
 1.2989405909e+00	 1.8191462282e+00	-1.6165802451e+00
 1.2812793748e+00	 1.8316285092e+00	-1.5973456467e+00
 1.2635133463e+00	 1.8439289659e+00	-1.5761650402e+00
 1.2456452853e+00	 1.8560463358e+00	-1.5533015743e+00
 1.2276779903e+00	 1.8679794125e+00	-1.5290126841e+00
 1.2096142776e+00	 1.8797270459e+00	-1.5035513093e+00
 1.1914569792e+00	 1.8912881428e+00	-1.4771670879e+00
 1.1732089420e+00	 1.9026616668e+00	-1.4501158077e+00
 1.1548730262e+00	 1.9138466387e+00	-1.4228872171e+00
 1.1092885163e+00	 1.8383043418e+00	-1.5201477713e+00
 1.0915946945e+00	 1.8488658317e+00	-1.4880044947e+00
 1.0738219920e+00	 1.8592444984e+00	-1.4561259639e+00
 1.0559731879e+00	 1.8694395692e+00	-1.4241891485e+00
 1.0380510688e+00	 1.8794503267e+00	-1.3918593986e+00
 1.0200584271e+00	 1.8892761086e+00	-1.3587920128e+00
 1.0019980599e+00	 1.8989163076e+00	-1.3246338256e+00
 9.8387276730e-01	 1.9083703716e+00	-1.2890247976e+00
 9.6568535156e-01	 1.9176378033e+00	-1.2515995890e+00
 9.4743861547e-01	 1.9267181602e+00	-1.2119891004e+00
 9.2913536115e-01	 1.9356110540e+00	-1.1698219653e+00
 1.1138469673e+00	 1.8458585715e+00	-1.5096169944e+00
 1.0960804354e+00	 1.8564634622e+00	-1.4780326263e+00
 1.0782346987e+00	 1.8668847785e+00	-1.4467346111e+00
 1.0603125477e+00	 1.8771217444e+00	-1.4153765495e+00
 1.0423167804e+00	 1.8871736395e+00	-1.3836016373e+00
 1.0242502008e+00	 1.8970397989e+00	-1.3510443167e+00
 1.0061156172e+00	 1.9067196129e+00	-1.3173319451e+00
 9.8791584150e-01	 1.9162125269e+00	-1.2820864604e+00
 9.6965368737e-01	 1.9255180417e+00	-1.2449260257e+00
 9.5133196912e-01	 1.9346357129e+00	-1.2054666348e+00
 9.3295350038e-01	 1.9435651507e+00	-1.1633236631e+00
 1.1184054183e+00	 1.8534128012e+00	-1.4989613622e+00
 1.1005661764e+00	 1.8640610927e+00	-1.4679223918e+00
 1.0826474054e+00	 1.8745250585e+00	-1.4371697778e+00
 1.0646519075e+00	 1.8848039195e+00	-1.4063419616e+00
 1.0465824920e+00	 1.8948969523e+00	-1.3750680575e+00
 1.0284419744e+00	 1.9048034893e+00	-1.3429695813e+00
 1.0102331745e+00	 1.9145229181e+00	-1.3096621937e+00
 9.9195891571e-01	 1.9240546822e+00	-1.2747574348e+00
 9.7362202318e-01	 1.9333982801e+00	-1.2378644333e+00
 9.5522532277e-01	 1.9425532656e+00	-1.1985915712e+00
 9.3677163962e-01	 1.9515192474e+00	-1.1565480877e+00
 1.1229638693e+00	 1.8609670309e+00	-1.4882930881e+00
 1.1050519173e+00	 1.8716587232e+00	-1.4577831766e+00
 1.0870601122e+00	 1.8821653385e+00	-1.4275370171e+00
 1.0689912674e+00	 1.8924860946e+00	-1.3971859958e+00
 1.0508482037e+00	 1.9026202651e+00	-1.3663531147e+00
 1.0326337480e+00	 1.9125671796e+00	-1.3346547914e+00
 1.0143507318e+00	 1.9223262234e+00	-1.3017026694e+00
 9.9600198991e-01	 1.9318968375e+00	-1.2671054166e+00
 9.7759035899e-01	 1.9412785184e+00	-1.2304704936e+00
 9.5911867641e-01	 1.9504708183e+00	-1.1914058705e+00
 9.4058977885e-01	 1.9594733441e+00	-1.1495216793e+00
 1.1275223202e+00	 1.8685212605e+00	-1.4777254380e+00
 1.1095376583e+00	 1.8792563537e+00	-1.4477254554e+00
 1.0914728189e+00	 1.8898056186e+00	-1.4179430253e+00
 1.0733306272e+00	 1.9001682698e+00	-1.3880104797e+00
 1.0551139153e+00	 1.9103435779e+00	-1.3575525748e+00
 1.0368255216e+00	 1.9203308700e+00	-1.3261883565e+00
 1.0184682891e+00	 1.9301295287e+00	-1.2935330318e+00
 1.0000450641e+00	 1.9397389928e+00	-1.2591998246e+00
 9.8155869480e-01	 1.9491587568e+00	-1.2228017968e+00
 9.6301203006e-01	 1.9583883710e+00	-1.1839536134e+00
 9.4440791808e-01	 1.9674274408e+00	-1.1422732356e+00
 1.1320807712e+00	 1.8760754902e+00	-1.4673726476e+00
 1.1140233992e+00	 1.8868539842e+00	-1.4378607113e+00
 1.0958855257e+00	 1.8974458986e+00	-1.4084955640e+00
 1.0776699870e+00	 1.9078504449e+00	-1.3789183810e+00
 1.0593796269e+00	 1.9180668907e+00	-1.3487634387e+00
 1.0410172952e+00	 1.9280945603e+00	-1.3176600377e+00
 1.0225858465e+00	 1.9379328339e+00	-1.2852344304e+00
 1.0040881383e+00	 1.9475811480e+00	-1.2511117283e+00
 9.8552703061e-01	 1.9570389952e+00	-1.2149177695e+00
 9.6690538371e-01	 1.9663059237e+00	-1.1762809269e+00
 9.4822605731e-01	 1.9753815375e+00	-1.1348338376e+00
 1.1366392222e+00	 1.8836297199e+00	-1.4573498389e+00
 1.1185091402e+00	 1.8944516148e+00	-1.4283013556e+00
 1.1002982324e+00	 1.9050861787e+00	-1.3993033817e+00
 1.0820093468e+00	 1.9155326200e+00	-1.3700137322e+00
 1.0636453385e+00	 1.9257902035e+00	-1.3400838686e+00
 1.0452090689e+00	 1.9358582506e+00	-1.3091608746e+00
 1.0267034038e+00	 1.9457361392e+00	-1.2768894322e+00
 1.0081312125e+00	 1.9554233033e+00	-1.2429137760e+00
 9.8949536642e-01	 1.9649192336e+00	-1.2068796020e+00
 9.7079873735e-01	 1.9742234764e+00	-1.1684359123e+00
 9.5204419654e-01	 1.9833356342e+00	-1.1272367758e+00
 1.1411976732e+00	 1.8911839496e+00	-1.4477729372e+00
 1.1229948811e+00	 1.9020492453e+00	-1.4191606470e+00
 1.1047109392e+00	 1.9127264587e+00	-1.3904761354e+00
 1.0863487066e+00	 1.9232147951e+00	-1.3614015534e+00
 1.0679110502e+00	 1.9335135163e+00	-1.3316131134e+00
 1.0494008425e+00	 1.9436219410e+00	-1.3007831117e+00
 1.0308209611e+00	 1.9535394444e+00	-1.2685819488e+00
 1.0121742867e+00	 1.9632654586e+00	-1.2346801233e+00
 9.9346370223e-01	 1.9727994719e+00	-1.1987501771e+00
 9.7469209100e-01	 1.9821410291e+00	-1.1604685720e+00
 9.5586233577e-01	 1.9912897309e+00	-1.1195174765e+00
 1.1457561242e+00	 1.8987381793e+00	-1.4387585871e+00
 1.1274806220e+00	 1.9096468758e+00	-1.4105526105e+00
 1.1091236459e+00	 1.9203667388e+00	-1.3821243126e+00
 1.0906880665e+00	 1.9308969703e+00	-1.3531877765e+00
 1.0721767618e+00	 1.9412368291e+00	-1.3234514333e+00
 1.0535926161e+00	 1.9513856313e+00	-1.2926201255e+00
 1.0349385184e+00	 1.9613427497e+00	-1.2603971645e+00
 1.0162173609e+00	 1.9711076139e+00	-1.2264863602e+00
 9.9743203804e-01	 1.9806797103e+00	-1.1905939973e+00
 9.7858544465e-01	 1.9900585818e+00	-1.1524307375e+00
 9.5968047500e-01	 1.9992438276e+00	-1.1117134283e+00
 1.1503145752e+00	 1.9062924090e+00	-1.4304240694e+00
 1.1319663630e+00	 1.9172445063e+00	-1.4025919569e+00
 1.1135363527e+00	 1.9280070188e+00	-1.3743591520e+00
 1.0950274263e+00	 1.9385791454e+00	-1.3454791682e+00
 1.0764424734e+00	 1.9489601419e+00	-1.3157000258e+00
 1.0577843897e+00	 1.9591493217e+00	-1.2847663504e+00
 1.0390560757e+00	 1.9691460550e+00	-1.2524214633e+00
 1.0202604351e+00	 1.9789497692e+00	-1.2184094402e+00
 1.0014003738e+00	 1.9885599487e+00	-1.1824771136e+00
 9.8247879829e-01	 1.9979761345e+00	-1.1443759968e+00
 9.6349861423e-01	 2.0071979243e+00	-1.1038641089e+00
 1.1548730262e+00	 1.9138466387e+00	-1.4228872171e+00
 1.1364521039e+00	 1.9248421368e+00	-1.3953940011e+00
 1.1179490594e+00	 1.9356472989e+00	-1.3672925651e+00
 1.0993667861e+00	 1.9462613205e+00	-1.3383832535e+00
 1.0807081850e+00	 1.9566834547e+00	-1.3084609500e+00
 1.0619761634e+00	 1.9669130120e+00	-1.2773172057e+00
 1.0431736330e+00	 1.9769493602e+00	-1.2447423566e+00
 1.0243035093e+00	 1.9867919245e+00	-1.2105276072e+00
 1.0053687097e+00	 1.9964401871e+00	-1.1744670531e+00
 9.8637215194e-01	 2.0058936872e+00	-1.1363596223e+00
 9.6731675346e-01	 2.0151520210e+00	-1.0960109116e+00
 9.2913536115e-01	 1.9356110540e+00	-1.1698219653e+00
 9.1077526332e-01	 1.9443176149e+00	-1.1266422273e+00
 8.9236422656e-01	 1.9528360339e+00	-1.0842493388e+00
 8.7390504382e-01	 1.9611660834e+00	-1.0426335709e+00
 8.5540050234e-01	 1.9693075891e+00	-1.0017878025e+00
 8.3685338241e-01	 1.9772604297e+00	-9.6170805753e-01
 8.1826645622e-01	 1.9850245367e+00	-9.2239393707e-01
 7.9964248658e-01	 1.9925998934e+00	-8.8384894059e-01
 7.8098422584e-01	 1.9999865349e+00	-8.4608067303e-01
 7.6229441467e-01	 2.0071845475e+00	-8.0910093626e-01
 7.4357578096e-01	 2.0141940681e+00	-7.7292570481e-01
 9.3295350038e-01	 1.9435651507e+00	-1.1633236631e+00
 9.1451795455e-01	 1.9523074899e+00	-1.1200512391e+00
 8.9603126046e-01	 1.9608609140e+00	-1.0774836236e+00
 8.7749622254e-01	 1.9692251945e+00	-1.0356347850e+00
 8.5891563948e-01	 1.9774001565e+00	-9.9451948352e-01
 8.4029230301e-01	 1.9853856781e+00	-9.5415383223e-01
 8.2162899669e-01	 1.9931816905e+00	-9.1455574799e-01
 8.0292849471e-01	 2.0007881769e+00	-8.7574528856e-01
 7.8419356071e-01	 2.0082051727e+00	-8.3774487170e-01
 7.6542694663e-01	 2.0154327645e+00	-8.0057937467e-01
 7.4663139157e-01	 2.0224710896e+00	-7.6427611390e-01
 9.3677163962e-01	 1.9515192474e+00	-1.1565480877e+00
 9.1826064577e-01	 1.9602973649e+00	-1.1132848445e+00
 8.9969829436e-01	 1.9688857941e+00	-1.0706488201e+00
 8.8108740126e-01	 1.9772843057e+00	-1.0286718243e+00
 8.6243077662e-01	 1.9854927239e+00	-9.8738493402e-01
 8.4373122361e-01	 1.9935109265e+00	-9.4681908319e-01
 8.2499153717e-01	 2.0013388443e+00	-9.0700553800e-01
 8.0621450284e-01	 2.0089764605e+00	-8.6797625408e-01
 7.8740289558e-01	 2.0164238106e+00	-8.2976411121e-01
 7.6855947859e-01	 2.0236809814e+00	-7.9240302384e-01
 7.4968700217e-01	 2.0307481111e+00	-7.5592792719e-01
 9.4058977885e-01	 1.9594733441e+00	-1.1495216793e+00
 9.2200333700e-01	 1.9682872398e+00	-1.1063543052e+00
 9.0336532825e-01	 1.9769106742e+00	-1.0637436044e+00
 8.8467857997e-01	 1.9853434169e+00	-1.0217334335e+00
 8.6594591376e-01	 1.9935852914e+00	-9.8036568147e-01
 8.4717014421e-01	 2.0016361750e+00	-9.3968089327e-01
 8.2835407765e-01	 2.0094959981e+00	-8.9971877482e-01
 8.0950051097e-01	 2.0171647441e+00	-8.6051857440e-01
 7.9061223045e-01	 2.0246424484e+00	-8.2211933675e-01
 7.7169201055e-01	 2.0319291984e+00	-7.8456002761e-01
 7.5274261278e-01	 2.0390251327e+00	-7.4787952855e-01
 9.4440791808e-01	 1.9674274408e+00	-1.1422732356e+00
 9.2574602823e-01	 1.9762771148e+00	-1.0992734701e+00
 9.0703236214e-01	 1.9849355543e+00	-1.0567694241e+00
 8.8826975869e-01	 1.9934025280e+00	-1.0148112669e+00
 8.6946105090e-01	 2.0016778588e+00	-9.7344625309e-01
 8.5060906480e-01	 2.0097614234e+00	-9.3271938620e-01
 8.3171661812e-01	 2.0176531519e+00	-8.9267395775e-01
 8.1278651910e-01	 2.0253530277e+00	-8.5335195760e-01
 7.9382156532e-01	 2.0328610863e+00	-8.1479435101e-01
 7.7482454250e-01	 2.0401774154e+00	-7.7704122024e-01
 7.5579822338e-01	 2.0473021542e+00	-7.4013177053e-01
 9.4822605731e-01	 1.9753815375e+00	-1.1348338376e+00
 9.2948871945e-01	 1.9842669898e+00	-1.0920586999e+00
 9.1069939604e-01	 1.9929604344e+00	-1.0497304229e+00
 8.9186093740e-01	 2.0014616392e+00	-1.0078998133e+00
 8.7297618804e-01	 2.0097704262e+00	-9.6661410242e-01
 8.5404798540e-01	 2.0178866718e+00	-9.2591765547e-01
 8.3507915860e-01	 2.0258103058e+00	-8.8585254992e-01
 8.1607252723e-01	 2.0335413113e+00	-8.4645901908e-01
 7.9703090019e-01	 2.0410797241e+00	-8.0777575579e-01
 7.7795707446e-01	 2.0484256324e+00	-7.6984007423e-01
 7.5885383399e-01	 2.0555791757e+00	-7.3268792934e-01
 9.5204419654e-01	 1.9833356342e+00	-1.1272367758e+00
 9.3323141068e-01	 1.9922568647e+00	-1.0847287921e+00
 9.1436642993e-01	 2.0009853145e+00	-1.0426333655e+00
 8.9545211611e-01	 2.0095207504e+00	-1.0009963217e+00
 8.7649132518e-01	 2.0178629937e+00	-9.5985953630e-01
 8.5748690600e-01	 2.0260119202e+00	-9.1926169372e-01
 8.3844169907e-01	 2.0339674596e+00	-8.7923891096e-01
 8.1935853536e-01	 2.0417295949e+00	-8.3982521840e-01
 8.0024023506e-01	 2.0492983620e+00	-8.0105289401e-01
 7.8108960642e-01	 2.0566738494e+00	-7.6295264838e-01
 7.6190944459e-01	 2.0638561973e+00	-7.2555365998e-01
 9.5586233577e-01	 1.9912897309e+00	-1.1195174765e+00
 9.3697410190e-01	 2.0002467397e+00	-1.0773049067e+00
 9.1803346383e-01	 2.0090101946e+00	-1.0354875624e+00
 8.9904329483e-01	 2.0175798615e+00	-9.9410072718e-01
 8.8000646232e-01	 2.0259555611e+00	-9.5317564222e-01
 8.6092582659e-01	 2.0341371686e+00	-9.1274032250e-01
 8.4180423954e-01	 2.0421246134e+00	-8.7282022997e-01
 8.2264454349e-01	 2.0499178784e+00	-8.3343879644e-01
 8.0344956993e-01	 2.0575169999e+00	-7.9461779194e-01
 7.8422213838e-01	 2.0649220664e+00	-7.5637753600e-01
 7.6496505519e-01	 2.0721332188e+00	-7.1873695130e-01
 9.5968047500e-01	 1.9992438276e+00	-1.1117134283e+00
 9.4071679313e-01	 2.0082366147e+00	-1.0698104913e+00
 9.2170049772e-01	 2.0170350748e+00	-1.0283047960e+00
 9.0263447354e-01	 2.0256389727e+00	-9.8721557694e-01
 8.8352159946e-01	 2.0340481285e+00	-9.4655821614e-01
 8.6436474719e-01	 2.0422624170e+00	-9.0634512237e-01
 8.4516678002e-01	 2.0502817672e+00	-8.6658645893e-01
 8.2593055162e-01	 2.0581061620e+00	-8.2729071293e-01
 8.0665890480e-01	 2.0657356377e+00	-7.8846510168e-01
 7.8735467033e-01	 2.0731702834e+00	-7.5011581334e-01
 7.6802066580e-01	 2.0804102403e+00	-7.1224808128e-01
 9.6349861423e-01	 2.0071979243e+00	-1.1038641089e+00
 9.4445948435e-01	 2.0162264897e+00	-1.0622712073e+00
 9.2536753162e-01	 2.0250599549e+00	-1.0210992461e+00
 9.0622565226e-01	 2.0336980839e+00	-9.8034595703e-01
 8.8703673660e-01	 2.0421406960e+00	-9.4000569059e-01
 8.6780366778e-01	 2.0503876654e+00	-9.0007036352e-01
 8.4852932049e-01	 2.0584389210e+00	-8.6053024647e-01
 8.2921655974e-01	 2.0662944456e+00	-8.2137458425e-01
 8.0986823966e-01	 2.0739542756e+00	-7.8259204395e-01
 7.9048720229e-01	 2.0814185003e+00	-7.4417098809e-01
 7.7107627640e-01	 2.0886872619e+00	-7.0609957220e-01
 9.6731675346e-01	 2.0151520210e+00	-1.0960109116e+00
 9.4820217558e-01	 2.0242163646e+00	-1.0547148561e+00
 9.2903456551e-01	 2.0330848350e+00	-1.0138874160e+00
 9.0981683097e-01	 2.0417571950e+00	-9.7349941924e-01
 8.9055187374e-01	 2.0502332634e+00	-9.3351906324e-01
 8.7124258838e-01	 2.0585129138e+00	-8.9391293660e-01
 8.5189186097e-01	 2.0665960749e+00	-8.5464687196e-01
 8.3250256787e-01	 2.0744827292e+00	-8.1568662156e-01
 8.1307757453e-01	 2.0821729134e+00	-7.7699835103e-01
 7.9361973424e-01	 2.0896667173e+00	-7.3854894814e-01
 7.7413188700e-01	 2.0969642834e+00	-7.0030614600e-01
 7.4357578096e-01	 2.0141940681e+00	-7.7292570481e-01
 7.2483422690e-01	 2.0210141399e+00	-7.3646984460e-01
 7.0606926997e-01	 2.0276462055e+00	-6.9846383019e-01
 6.8728359099e-01	 2.0340905489e+00	-6.5868366632e-01
 6.6847985372e-01	 2.0403475018e+00	-6.1692543763e-01
 6.4966070390e-01	 2.0464174439e+00	-5.7300477607e-01
 6.3082876822e-01	 2.0523008014e+00	-5.2675621812e-01
 6.1198665341e-01	 2.0579980469e+00	-4.7803246113e-01
 5.9313694523e-01	 2.0635096983e+00	-4.2670352903e-01
 5.7428220763e-01	 2.0688363181e+00	-3.7762231939e-01
 5.5542498184e-01	 2.0739785129e+00	-3.4301812190e-01
 7.4663139157e-01	 2.0224710896e+00	-7.6427611390e-01
 7.2781282196e-01	 2.0293191874e+00	-7.2784722569e-01
 7.0897075332e-01	 2.0359785066e+00	-6.9010489130e-01
 6.9010787747e-01	 2.0424493319e+00	-6.5081254287e-01
 6.7122686913e-01	 2.0487319969e+00	-6.0975458005e-01
 6.5233038490e-01	 2.0548268824e+00	-5.6673580465e-01
 6.3342106228e-01	 2.0607344167e+00	-5.2158073849e-01
 6.1450151868e-01	 2.0664550742e+00	-4.7413283393e-01
 5.9557435052e-01	 2.0719893748e+00	-4.2425358789e-01
 5.7664213227e-01	 2.0773378836e+00	-3.7518959578e-01
 5.5770741560e-01	 2.0825012094e+00	-3.3989685285e-01
 7.4968700217e-01	 2.0307481111e+00	-7.5592792719e-01
 7.3079141703e-01	 2.0376242350e+00	-7.1945931712e-01
 7.1187223668e-01	 2.0443108076e+00	-6.8190701114e-01
 6.9293216396e-01	 2.0508081150e+00	-6.4302551833e-01
 6.7397388454e-01	 2.0571164919e+00	-6.0259099300e-01
 6.5500006590e-01	 2.0632363210e+00	-5.6040063594e-01
 6.3601335633e-01	 2.0691680320e+00	-5.1627197213e-01
 6.1701638395e-01	 2.0749121014e+00	-4.7004201504e-01
 5.9801175580e-01	 2.0804690514e+00	-4.2156632837e-01
 5.7900205690e-01	 2.0858394491e+00	-3.7281440049e-01
 5.5998984936e-01	 2.0910239059e+00	-3.3686402714e-01
 7.5274261278e-01	 2.0390251327e+00	-7.4787952855e-01
 7.3377001209e-01	 2.0459292826e+00	-7.1131502333e-01
 7.1477372003e-01	 2.0526431086e+00	-6.7388708785e-01
 6.9575645045e-01	 2.0591668981e+00	-6.3534493344e-01
 6.7672089996e-01	 2.0655009870e+00	-5.9545988752e-01
 6.5766974691e-01	 2.0716457595e+00	-5.5402476065e-01
 6.3860565038e-01	 2.0776016473e+00	-5.1085308348e-01
 6.1953124922e-01	 2.0833691287e+00	-4.6577822416e-01
 6.0044916109e-01	 2.0889487279e+00	-4.1865239740e-01
 5.8136198154e-01	 2.0943410145e+00	-3.7048377620e-01
 5.6227228312e-01	 2.0995466025e+00	-3.3389713096e-01
 7.5579822338e-01	 2.0473021542e+00	-7.4013177053e-01
 7.3674860715e-01	 2.0542343302e+00	-7.0342548558e-01
 7.1767520338e-01	 2.0609754097e+00	-6.6606405960e-01
 6.9858073693e-01	 2.0675256811e+00	-6.2779500763e-01
 6.7946791537e-01	 2.0738854820e+00	-5.8838822778e-01
 6.6033942791e-01	 2.0800551981e+00	-5.4763533313e-01
 6.4119794444e-01	 2.0860352626e+00	-5.0534884742e-01
 6.2204611450e-01	 2.0918261560e+00	-4.6136127486e-01
 6.0288656638e-01	 2.0974284045e+00	-4.1552405607e-01
 5.8372190618e-01	 2.1028425800e+00	-3.6818582122e-01
 5.6455471688e-01	 2.1080692990e+00	-3.3097463732e-01
 7.5885383399e-01	 2.0555791757e+00	-7.3268792934e-01
 7.3972720222e-01	 2.0625393777e+00	-6.9580404415e-01
 7.2057668673e-01	 2.0693077107e+00	-6.5845887320e-01
 7.0140502342e-01	 2.0758844642e+00	-6.2040181326e-01
 6.8221493078e-01	 2.0822699771e+00	-5.8140470995e-01
 6.6300910891e-01	 2.0884646366e+00	-5.4126115402e-01
 6.4379023849e-01	 2.0944688779e+00	-4.9978563485e-01
 6.2456097977e-01	 2.1002831832e+00	-4.5681256219e-01
 6.0532397167e-01	 2.1059080810e+00	-4.1219516834e-01
 5.8608183082e-01	 2.1113441455e+00	-3.6590974611e-01
 5.6683715064e-01	 2.1165919955e+00	-3.2807605796e-01
 7.6190944459e-01	 2.0638561973e+00	-7.2555365998e-01
 7.4270579728e-01	 2.0708444253e+00	-6.8846620051e-01
 7.2347817008e-01	 2.0776400117e+00	-6.5109445263e-01
 7.0422930990e-01	 2.0842432473e+00	-6.1319324948e-01
 6.8496194619e-01	 2.0906544721e+00	-5.7453974078e-01
 6.6567878992e-01	 2.0968740752e+00	-5.3493265258e-01
 6.4638253254e-01	 2.1029024933e+00	-4.9419139795e-01
 6.2707584504e-01	 2.1087402105e+00	-4.5215504994e-01
 6.0776137696e-01	 2.1143877576e+00	-4.0868118949e-01
 5.8844175545e-01	 2.1198457110e+00	-3.6364464185e-01
 5.6911958440e-01	 2.1251146921e+00	-3.2518199500e-01
 7.6496505519e-01	 2.0721332188e+00	-7.1873695130e-01
 7.4568439234e-01	 2.0791494729e+00	-6.8142957949e-01
 7.2637965343e-01	 2.0859723127e+00	-6.4399566729e-01
 7.0705359639e-01	 2.0926020303e+00	-6.0619901594e-01
 6.8770896161e-01	 2.0990389672e+00	-5.6782541577e-01
 6.6834847092e-01	 2.1052835137e+00	-5.2868186862e-01
 6.4897482659e-01	 2.1113361086e+00	-4.8859565496e-01
 6.2959071031e-01	 2.1171972378e+00	-4.4741325750e-01
 6.1019878225e-01	 2.1228674341e+00	-4.0499915415e-01
 5.9080168009e-01	 2.1283472765e+00	-3.6123449453e-01
 5.7140201817e-01	 2.1336373886e+00	-3.2227419224e-01
 7.6802066580e-01	 2.0804102403e+00	-7.1224808128e-01
 7.4866298740e-01	 2.0874545204e+00	-6.7471389131e-01
 7.2928113678e-01	 2.0943046138e+00	-6.3718930017e-01
 7.0987788287e-01	 2.1009608134e+00	-5.9945058626e-01
 6.9045597702e-01	 2.1074234623e+00	-5.6129549719e-01
 6.7101815192e-01	 2.1136929523e+00	-5.2254243415e-01
 6.5156712065e-01	 2.1197697239e+00	-4.8302947471e-01
 6.3210557559e-01	 2.1256542650e+00	-4.4261324637e-01
 6.1263618754e-01	 2.1313471107e+00	-4.0116766400e-01
 5.9316160473e-01	 2.1368488419e+00	-3.5858254581e-01
 5.7368445192e-01	 2.1421600852e+00	-3.1933558629e-01
 7.7107627640e-01	 2.0886872619e+00	-7.0609957220e-01
 7.5164158246e-01	 2.0957595680e+00	-6.6834089360e-01
 7.3218262013e-01	 2.1026369148e+00	-6.3070401590e-01
 7.1270216936e-01	 2.1093195965e+00	-5.9298118125e-01
 6.9320299243e-01	 2.1158079573e+00	-5.5498539170e-01
 6.7368783293e-01	 2.1221023909e+00	-5.1654955467e-01
 6.5415941470e-01	 2.1282033392e+00	-4.7752546073e-01
 6.3462044086e-01	 2.1341112923e+00	-4.3778260634e-01
 6.1507359282e-01	 2.1398267872e+00	-3.9720687514e-01
 5.9552152936e-01	 2.1453504074e+00	-3.5569909281e-01
 5.7596688568e-01	 2.1506827817e+00	-3.1635035740e-01
 7.7413188700e-01	 2.0969642834e+00	-7.0030614600e-01
 7.5462017753e-01	 2.1040646156e+00	-6.6233435336e-01
 7.3508410348e-01	 2.1109692158e+00	-6.2457032856e-01
 7.1552645584e-01	 2.1176783796e+00	-5.8682574190e-01
 6.9595000784e-01	 2.1241924524e+00	-5.4893212775e-01
 6.7635751393e-01	 2.1305118294e+00	-5.1073999019e-01
 6.5675170875e-01	 2.1366369545e+00	-4.7211773509e-01
 6.3713530613e-01	 2.1425683196e+00	-4.3295044131e-01
 6.1751099811e-01	 2.1483064638e+00	-3.9313848513e-01
 5.9788145400e-01	 2.1538519729e+00	-3.5259603344e-01
 5.7824931944e-01	 2.1592054782e+00	-3.1330398005e-01
 5.5542498184e-01	 2.0739785129e+00	-3.4301812190e-01
 5.3656778577e-01	 2.0789369326e+00	-3.1669708701e-01
 5.1771311394e-01	 2.0837122714e+00	-2.9183686929e-01
 4.9886343584e-01	 2.0883052653e+00	-2.6781981804e-01
 4.8002119495e-01	 2.0927166911e+00	-2.4409400383e-01
 4.6118880795e-01	 2.0969473653e+00	-2.2017168970e-01
 4.4236866403e-01	 2.1009981432e+00	-1.9562764623e-01
 4.2356312421e-01	 2.1048699183e+00	-1.7009734264e-01
 4.0477452065e-01	 2.1085636212e+00	-1.4327504382e-01
 3.8600515608e-01	 2.1120802188e+00	-1.1491184157e-01
 3.6725730316e-01	 2.1154207133e+00	-8.4813646376e-02
 5.5770741560e-01	 2.0825012094e+00	-3.3989685285e-01
 5.3877272878e-01	 2.0874800050e+00	-3.1298977542e-01
 5.1984057656e-01	 2.0922749673e+00	-2.8770339076e-01
 5.0091343860e-01	 2.0968868355e+00	-2.6340643987e-01
 4.8199376841e-01	 2.1013163893e+00	-2.3953426338e-01
 4.6308399261e-01	 2.1055644488e+00	-2.1558713690e-01
 4.4418651020e-01	 2.1096318728e+00	-1.9112845424e-01
 4.2530369189e-01	 2.1135195584e+00	-1.6578279133e-01
 4.0643787945e-01	 2.1172284400e+00	-1.3923388177e-01
 3.8759138505e-01	 2.1207594885e+00	-1.1122253269e-01
 3.6876649071e-01	 2.1241137102e+00	-8.1544507929e-02
 5.5998984936e-01	 2.0910239059e+00	-3.3686402714e-01
 5.4097767178e-01	 2.0960230774e+00	-3.0940714007e-01
 5.2196803918e-01	 2.1008376632e+00	-2.8373188659e-01
 5.0296344137e-01	 2.1054684056e+00	-2.5919235126e-01
 4.8396634188e-01	 2.1099160876e+00	-2.3521015616e-01
 4.6497917727e-01	 2.1141815323e+00	-2.1127265605e-01
 4.4600435636e-01	 2.1182656023e+00	-1.8693098561e-01
 4.2704425957e-01	 2.1221691984e+00	-1.6179799231e-01
 4.0810123824e-01	 2.1258932587e+00	-1.3554608645e-01
 3.8917761403e-01	 2.1294387581e+00	-1.0790503814e-01
 3.7027567826e-01	 2.1328067071e+00	-7.8659748460e-02
 5.6227228312e-01	 2.0995466025e+00	-3.3389713096e-01
 5.4318261479e-01	 2.1045661498e+00	-3.0591633474e-01
 5.2409550181e-01	 2.1094003591e+00	-2.7988010381e-01
 5.0501344413e-01	 2.1140499757e+00	-2.5512686649e-01
 4.8593891534e-01	 2.1185157858e+00	-2.3106358445e-01
 4.6687436193e-01	 2.1227986158e+00	-2.0716380327e-01
 4.4782220253e-01	 2.1268993319e+00	-1.8296555943e-01
 4.2878482725e-01	 2.1308188384e+00	-1.5806917799e-01
 4.0976459704e-01	 2.1345580774e+00	-1.3213499336e-01
 3.9076384300e-01	 2.1381180278e+00	-1.0488102358e-01
 3.7178486581e-01	 2.1414997040e+00	-7.6080625941e-02
 5.6455471688e-01	 2.1080692990e+00	-3.3097463732e-01
 5.4538755780e-01	 2.1131092222e+00	-3.0248545150e-01
 5.2622296443e-01	 2.1179630551e+00	-2.7610667290e-01
 5.0706344689e-01	 2.1226315458e+00	-2.5116012257e-01
 4.8791148881e-01	 2.1271154840e+00	-2.2703720691e-01
 4.6876954659e-01	 2.1314156994e+00	-2.0319681931e-01
 4.4964004869e-01	 2.1355330615e+00	-1.7916310246e-01
 4.3052539494e-01	 2.1394684784e+00	-1.5452310669e-01
 4.1142795584e-01	 2.1432228962e+00	-1.2892437749e-01
 3.9235007198e-01	 2.1467972974e+00	-1.0207250324e-01
 3.7329405336e-01	 2.1501927009e+00	-7.3728651802e-02
 5.6683715064e-01	 2.1165919955e+00	-3.2807605796e-01
 5.4759250080e-01	 2.1216522946e+00	-2.9908356750e-01
 5.2835042706e-01	 2.1265257510e+00	-2.7237114991e-01
 5.0911344966e-01	 2.1312131160e+00	-2.4724311680e-01
 4.8988406227e-01	 2.1357151822e+00	-2.2307447187e-01
 4.7066473125e-01	 2.1400327829e+00	-1.9930865888e-01
 4.5145789486e-01	 2.1441667910e+00	-1.7545517491e-01
 4.3226596262e-01	 2.1481181185e+00	-1.5108708509e-01
 4.1309131464e-01	 2.1518877149e+00	-1.2583847274e-01
 3.9393630095e-01	 2.1554765671e+00	-9.9401856763e-02
 3.7480324091e-01	 2.1588856978e+00	-7.1525605479e-02
 5.6911958440e-01	 2.1251146921e+00	-3.2518199500e-01
 5.4979744381e-01	 2.1301953670e+00	-2.9568079164e-01
 5.3047788968e-01	 2.1350884469e+00	-2.6863405828e-01
 5.1116345242e-01	 2.1397946861e+00	-2.4332774422e-01
 4.9185663574e-01	 2.1443148804e+00	-2.1911965061e-01
 4.7255991591e-01	 2.1486498664e+00	-1.9543702005e-01
 4.5327574102e-01	 2.1528005206e+00	-1.7177399626e-01
 4.3400653031e-01	 2.1567677585e+00	-1.4768899075e-01
 4.1475467344e-01	 2.1605525337e+00	-1.2280199155e-01
 3.9552252993e-01	 2.1641558367e+00	-9.6791846159e-02
 3.7631242846e-01	 2.1675786947e+00	-6.9393549059e-02
 5.7140201817e-01	 2.1336373886e+00	-3.2227419224e-01
 5.5200238681e-01	 2.1387384394e+00	-2.9224831095e-01
 5.3260535231e-01	 2.1436511428e+00	-2.6485693061e-01
 5.1321345518e-01	 2.1483762562e+00	-2.3936683491e-01
 4.9382920920e-01	 2.1529145786e+00	-2.1511787055e-01
 4.7445510057e-01	 2.1572669499e+00	-1.9152037363e-01
 4.5509358719e-01	 2.1614342502e+00	-1.6805247104e-01
 4.3574709799e-01	 2.1654173985e+00	-1.4425729470e-01
 4.1641803224e-01	 2.1692173524e+00	-1.1974014448e-01
 3.9710875890e-01	 2.1728351064e+00	-9.4165632830e-02
 3.7782161601e-01	 2.1762716916e+00	-6.7254842040e-02
 5.7368445192e-01	 2.1421600852e+00	-3.1933558629e-01
 5.5420732982e-01	 2.1472815118e+00	-2.8875843685e-01
 5.3473281493e-01	 2.1522138388e+00	-2.6100235026e-01
 5.1526345795e-01	 2.1569578264e+00	-2.3531419125e-01
 4.9580178267e-01	 2.1615142768e+00	-2.1101514841e-01
 4.7635028523e-01	 2.1658840334e+00	-1.8749799249e-01
 4.5691143335e-01	 2.1700679797e+00	-1.6422421472e-01
 4.3748766567e-01	 2.1740670386e+00	-1.4072108406e-01
 4.1808139104e-01	 2.1778821711e+00	-1.1657866000e-01
 3.9869498788e-01	 2.1815143761e+00	-9.1446794709e-02
 3.7933080355e-01	 2.1849646885e+00	-6.5032156187e-02
 5.7596688568e-01	 2.1506827817e+00	-3.1635035740e-01
 5.5641227282e-01	 2.1558245842e+00	-2.8518465112e-01
 5.3686027755e-01	 2.1607765347e+00	-2.5703399279e-01
 5.1731346071e-01	 2.1655393965e+00	-2.3112462505e-01
 4.9777435613e-01	 2.1701139750e+00	-2.0675842332e-01
 4.7824546988e-01	 2.1745011169e+00	-1.8330998091e-01
 4.5872927951e-01	 2.1787017093e+00	-1.6022357952e-01
 4.3922823336e-01	 2.1827166786e+00	-1.3701008474e-01
 4.1974474984e-01	 2.1865469899e+00	-1.1324380426e-01
 4.0028121685e-01	 2.1901936457e+00	-8.8559343477e-02
 3.8083999110e-01	 2.1936576854e+00	-6.2648490490e-02
 5.7824931944e-01	 2.1592054782e+00	-3.1330398005e-01
 5.5861721583e-01	 2.1643676566e+00	-2.8150165178e-01
 5.3898774018e-01	 2.1693392306e+00	-2.5291666732e-01
 5.1936346347e-01	 2.1741209666e+00	-2.2675399467e-01
 4.9974692960e-01	 2.1787136732e+00	-2.0229558989e-01
 4.8014065454e-01	 2.1831182005e+00	-1.7889730398e-01
 4.6054712568e-01	 2.1873354389e+00	-1.5598568039e-01
 4.4096880104e-01	 2.1913663186e+00	-1.3305468414e-01
 4.2140810864e-01	 2.1952118086e+00	-1.0966240095e-01
 4.0186744582e-01	 2.1988729154e+00	-8.5427741871e-02
 3.8234917865e-01	 2.2023506823e+00	-6.0027186213e-02
 3.6725730316e-01	 2.1154207133e+00	-8.4813646376e-02
 3.4853002362e-01	 2.1185866643e+00	-5.4834768033e-02
 3.2982872276e-01	 2.1215785585e+00	-2.6885029574e-02
 3.1115558570e-01	 2.1243974975e+00	-9.0616743281e-04
 2.9251276530e-01	 2.1270446149e+00	 2.3123428215e-02
 2.7390238167e-01	 2.1295210749e+00	 4.5190299953e-02
 2.5532652180e-01	 2.1318280715e+00	 6.5247430770e-02
 2.3678723911e-01	 2.1339668276e+00	 8.3215661624e-02
 2.1828655311e-01	 2.1359385941e+00	 9.8985009653e-02
 1.9982644907e-01	 2.1377446487e+00	 1.1241587967e-01
 1.8140887769e-01	 2.1393862953e+00	 1.2334016344e-01
 3.6876649071e-01	 2.1241137102e+00	-8.1544507929e-02
 3.4996225428e-01	 2.1272926712e+00	-5.1983783197e-02
 3.3118410329e-01	 2.1302968601e+00	-2.4388767982e-02
 3.1243423184e-01	 2.1331273831e+00	 1.2952845111e-03
 2.9371480163e-01	 2.1357853785e+00	 2.5086529864e-02
 2.7502794149e-01	 2.1382720151e+00	 4.6968207183e-02
 2.5637574698e-01	 2.1405884919e+00	 6.6890225832e-02
 2.3776027995e-01	 2.1427360369e+00	 8.4770652783e-02
 2.1918356822e-01	 2.1447159060e+00	 1.0049709129e-01
 2.0064760521e-01	 2.1465293824e+00	 1.1392794350e-01
 1.8215434964e-01	 2.1481777751e+00	 1.2489355158e-01
 3.7027567826e-01	 2.1328067071e+00	-7.8659748460e-02
 3.5139448495e-01	 2.1359986781e+00	-4.9525470493e-02
 3.3253948383e-01	 2.1390151617e+00	-2.2291864310e-02
 3.1371287799e-01	 2.1418572687e+00	 3.0914523686e-03
 2.9491683797e-01	 2.1445261420e+00	 2.6638395425e-02
 2.7615350131e-01	 2.1470229552e+00	 4.8328179718e-02
 2.5742497215e-01	 2.1493489123e+00	 6.8106986929e-02
 2.3873332078e-01	 2.1515052462e+00	 8.5889524412e-02
 2.2008058332e-01	 2.1534932180e+00	 1.0156046565e-01
 2.0146876135e-01	 2.1553141161e+00	 1.1497576502e-01
 1.8289982160e-01	 2.1569692549e+00	 1.2596384141e-01
 3.7178486581e-01	 2.1414997040e+00	-7.6080625941e-02
 3.5282671562e-01	 2.1447046850e+00	-4.7381524300e-02
 3.3389486437e-01	 2.1477334633e+00	-2.0516861974e-02
 3.1499152414e-01	 2.1505871544e+00	 4.5585187343e-03
 2.9611887431e-01	 2.1532669055e+00	 2.7853497841e-02
 2.7727906114e-01	 2.1557738954e+00	 4.9342536121e-02
 2.5847419733e-01	 2.1581093328e+00	 6.8967426139e-02
 2.3970636162e-01	 2.1602744555e+00	 8.6638924297e-02
 2.2097759843e-01	 2.1622705300e+00	 1.0223825446e-01
 2.0228991749e-01	 2.1640988498e+00	 1.1561847584e-01
 1.8364529355e-01	 2.1657607347e+00	 1.2660570981e-01
 3.7329405336e-01	 2.1501927009e+00	-7.3728651802e-02
 3.5425894628e-01	 2.1534106919e+00	-4.5473800594e-02
 3.3525024491e-01	 2.1564517649e+00	-1.8986385031e-02
 3.1627017029e-01	 2.1593170400e+00	 5.7726551869e-03
 2.9732091064e-01	 2.1620076691e+00	 2.8806356947e-02
 2.7840462096e-01	 2.1645248356e+00	 5.0083687682e-02
 2.5952342250e-01	 2.1668697532e+00	 6.9541381687e-02
 2.4067940246e-01	 2.1690436649e+00	 8.7085647095e-02
 2.2187461353e-01	 2.1710478420e+00	 1.0259373403e-01
 2.0311107363e-01	 2.1728835834e+00	 1.1591535666e-01
 1.8439076551e-01	 2.1745522145e+00	 1.2687396387e-01
 3.7480324091e-01	 2.1588856978e+00	-7.1525605479e-02
 3.5569117695e-01	 2.1621166988e+00	-4.3724329382e-02
 3.3660562545e-01	 2.1651700666e+00	-1.7623148568e-02
 3.1754881644e-01	 2.1680469256e+00	 6.8100138917e-03
 2.9852294698e-01	 2.1707484326e+00	 2.9571533005e-02
 2.7953018078e-01	 2.1732757758e+00	 5.0624133826e-02
 2.6057264767e-01	 2.1756301736e+00	 6.9898815181e-02
 2.4165244329e-01	 2.1778128742e+00	 8.7296633321e-02
 2.2277162864e-01	 2.1798251540e+00	 1.0269033600e-01
 2.0393222977e-01	 2.1816683171e+00	 1.1592583970e-01
 1.8513623746e-01	 2.1833436942e+00	 1.2682354485e-01
 3.7631242846e-01	 2.1675786947e+00	-6.9393549059e-02
 3.5712340762e-01	 2.1708227057e+00	-4.2055327260e-02
 3.3796100599e-01	 2.1738883682e+00	-1.6349969219e-02
 3.1882746258e-01	 2.1767768112e+00	 7.7467190709e-03
 2.9972498332e-01	 2.1794891962e+00	 3.0223620104e-02
 2.8065574060e-01	 2.1820267160e+00	 5.1036457381e-02
 2.6162187285e-01	 2.1843905940e+00	 7.0109808679e-02
 2.4262548413e-01	 2.1865820835e+00	 8.7338968166e-02
 2.2366864375e-01	 2.1886024660e+00	 1.0259164780e-01
 2.0475338591e-01	 2.1904530508e+00	 1.1570951075e-01
 1.8588170942e-01	 2.1921351740e+00	 1.2650953185e-01
 3.7782161601e-01	 2.1762716916e+00	-6.7254842040e-02
 3.5855563829e-01	 2.1795287126e+00	-4.0389210078e-02
 3.3931638653e-01	 2.1826066698e+00	-1.5089775791e-02
 3.2010610873e-01	 2.1855066969e+00	 8.6588583465e-03
 3.0092701966e-01	 2.1882299597e+00	 3.0837239420e-02
 2.8178130042e-01	 2.1907776561e+00	 5.1393319689e-02
 2.6267109802e-01	 2.1931510145e+00	 7.0244561601e-02
 2.4359852496e-01	 2.1953512928e+00	 8.7279880146e-02
 2.2456565885e-01	 2.1973797780e+00	 1.0236141299e-01
 2.0557454205e-01	 2.1992377845e+00	 1.1532611116e-01
 1.8662718137e-01	 2.2009266538e+00	 1.2598714534e-01
 3.7933080355e-01	 2.1849646885e+00	-6.5032156187e-02
 3.5998786895e-01	 2.1882347194e+00	-3.8648605712e-02
 3.4067176707e-01	 2.1913249715e+00	-1.3765620020e-02
 3.2138475488e-01	 2.1942365825e+00	 9.6224739589e-03
 3.0212905599e-01	 2.1969707233e+00	 3.1487032335e-02
 2.8290686024e-01	 2.1995285963e+00	 5.1767455585e-02
 2.6372032320e-01	 2.2019114349e+00	 7.0373387494e-02
 2.4457156580e-01	 2.2041205021e+00	 8.7186739589e-02
 2.2546267395e-01	 2.2061570900e+00	 1.0206353142e-01
 2.0639569819e-01	 2.2080225182e+00	 1.1483553955e-01
 1.8737265333e-01	 2.2097181336e+00	 1.2531175040e-01
 3.8083999110e-01	 2.1936576854e+00	-6.2648490490e-02
 3.6142009962e-01	 2.1969407263e+00	-3.6756366951e-02
 3.4202714761e-01	 2.2000432731e+00	-1.2300687428e-02
 3.2266340102e-01	 2.2029664681e+00	 1.0713553864e-02
 3.0333109233e-01	 2.2057114868e+00	 3.2247653444e-02
 2.8403242006e-01	 2.2082795365e+00	 5.2231668227e-02
 2.6476954837e-01	 2.2106718553e+00	 7.0566710641e-02
 2.4554460663e-01	 2.2128897114e+00	 8.7127056962e-02
 2.2635968906e-01	 2.2149344020e+00	 1.0176205919e-01
 2.0721685432e-01	 2.2168072519e+00	 1.1429785342e-01
 1.8811812528e-01	 2.2185096134e+00	 1.2453885985e-01
 3.8234917865e-01	 2.2023506823e+00	-6.0027186213e-02
 3.6285233028e-01	 2.2056467332e+00	-3.4635584470e-02
 3.4338252815e-01	 2.2087615747e+00	-1.0618308298e-02
 3.2394204717e-01	 2.2116963537e+00	 1.2008022713e-02
 3.0453312866e-01	 2.2144522504e+00	 3.3193763420e-02
 2.8515797987e-01	 2.2170304767e+00	 5.2858823804e-02
 2.6581877354e-01	 2.2194322757e+00	 7.0895062533e-02
 2.4651764747e-01	 2.2216589208e+00	 8.7168481046e-02
 2.2725670416e-01	 2.2237117139e+00	 1.0152120850e-01
 2.0803801046e-01	 2.2255919856e+00	 1.1377327052e-01
 1.8886359723e-01	 2.2273010932e+00	 1.2372413716e-01
 1.8140887769e-01	 2.1393862953e+00	 1.2334016344e-01
 1.6303886681e-01	 2.1408646252e+00	 1.3310441847e-01
 1.4471512630e-01	 2.1421812835e+00	 1.4304768131e-01
 1.2643945885e-01	 2.1433376453e+00	 1.5294126218e-01
 1.0821363280e-01	 2.1443351079e+00	 1.6252550415e-01
 9.0039381901e-02	 2.1451750900e+00	 1.7151034560e-01
 7.1918405228e-02	 2.1458590307e+00	 1.7957577626e-01
 5.3852366984e-02	 2.1463883885e+00	 1.8637219141e-01
 3.5842896417e-02	 2.1467646406e+00	 1.9152064969e-01
 1.7891587727e-02	 2.1469892817e+00	 1.9461304109e-01
 0.0000000000e+00	 2.1470638235e+00	 1.9521217216e-01
 1.8215434964e-01	 2.1481777751e+00	 1.2489355158e-01
 1.6370885003e-01	 2.1496621800e+00	 1.3471367411e-01
 1.4530981091e-01	 2.1509842489e+00	 1.4470184520e-01
 1.2695904241e-01	 2.1521453625e+00	 1.5463098830e-01
 1.0865832012e-01	 2.1531469241e+00	 1.6424423527e-01
 9.0409384930e-02	 2.1539903579e+00	 1.7325546897e-01
 7.2213942883e-02	 2.1546771092e+00	 1.8134975147e-01
 5.4073665026e-02	 2.1552086423e+00	 1.8818364258e-01
 3.5990187302e-02	 2.1555864406e+00	 1.9338541481e-01
 1.7965110462e-02	 2.1558120048e+00	 1.9655517170e-01
 0.0000000000e+00	 2.1558868529e+00	 1.9726487696e-01
 1.8289982160e-01	 2.1569692549e+00	 1.2596384141e-01
 1.6437883324e-01	 2.1584597348e+00	 1.3582210584e-01
 1.4590449553e-01	 2.1597872142e+00	 1.4584366867e-01
 1.2747862598e-01	 2.1609530798e+00	 1.5580371159e-01
 1.0910300745e-01	 2.1619587402e+00	 1.6544881742e-01
 9.0779387959e-02	 2.1628056259e+00	 1.7449749236e-01
 7.2509480538e-02	 2.1634951877e+00	 1.8264056544e-01
 5.4294963068e-02	 2.1640288961e+00	 1.8954147047e-01
 3.6137478187e-02	 2.1644082405e+00	 1.9483641691e-01
 1.8038633198e-02	 2.1646347279e+00	 1.9813445706e-01
 0.0000000000e+00	 2.1647098823e+00	 1.9901745779e-01
 1.8364529355e-01	 2.1657607347e+00	 1.2660570981e-01
 1.6504881646e-01	 2.1672572895e+00	 1.3647916105e-01
 1.4649918014e-01	 2.1685901796e+00	 1.4651627901e-01
 1.2799820954e-01	 2.1697607970e+00	 1.5649514460e-01
 1.0954769477e-01	 2.1707705564e+00	 1.6616645193e-01
 9.1149390988e-02	 2.1716208938e+00	 1.7525400964e-01
 7.2805018193e-02	 2.1723132662e+00	 1.8345511069e-01
 5.4516261110e-02	 2.1728491500e+00	 1.9044077662e-01
 3.6284769073e-02	 2.1732300405e+00	 1.9585588315e-01
 1.8112155933e-02	 2.1734574510e+00	 1.9931917483e-01
 0.0000000000e+00	 2.1735329117e+00	 2.0042317765e-01
 1.8439076551e-01	 2.1745522145e+00	 1.2687396387e-01
 1.6571879967e-01	 2.1760548443e+00	 1.3673438992e-01
 1.4709386476e-01	 2.1773931450e+00	 1.4676287530e-01
 1.2851779310e-01	 2.1785685143e+00	 1.5674103712e-01
 1.0999238210e-01	 2.1795823726e+00	 1.6642433937e-01
 9.1519394018e-02	 2.1804361618e+00	 1.7554257248e-01
 7.3100555849e-02	 2.1811313447e+00	 1.8380019264e-01
 5.4737559153e-02	 2.1816694038e+00	 1.9087652736e-01
 3.6432059958e-02	 2.1820518404e+00	 1.9642585430e-01
 1.8185678669e-02	 2.1822801741e+00	 2.0007736203e-01
 0.0000000000e+00	 2.1823559412e+00	 2.0143500185e-01
 1.8513623746e-01	 2.1833436942e+00	 1.2682354485e-01
 1.6638878288e-01	 2.1848523990e+00	 1.3663745080e-01
 1.4768854937e-01	 2.1861961103e+00	 1.4662673490e-01
 1.2903737666e-01	 2.1873762315e+00	 1.5657718360e-01
 1.1043706942e-01	 2.1883941887e+00	 1.6624968751e-01
 9.1889397047e-02	 2.1892514297e+00	 1.7538069858e-01
 7.3396093504e-02	 2.1899494232e+00	 1.8368253807e-01
 5.4958857195e-02	 2.1904896576e+00	 1.9084356207e-01
 3.6579350844e-02	 2.1908736404e+00	 1.9652819244e-01
 1.8259201405e-02	 2.1911028972e+00	 2.0037682205e-01
 0.0000000000e+00	 2.1911789706e+00	 2.0200560400e-01
 1.8588170942e-01	 2.1921351740e+00	 1.2650953185e-01
 1.6705876610e-01	 2.1936499538e+00	 1.3623811525e-01
 1.4828323398e-01	 2.1949990757e+00	 1.4615121972e-01
 1.2955696022e-01	 2.1961839488e+00	 1.5603943025e-01
 1.1088175675e-01	 2.1972060049e+00	 1.6566971909e-01
 9.2259400077e-02	 2.1980666977e+00	 1.7478587989e-01
 7.3691631160e-02	 2.1987675017e+00	 1.8310880325e-01
 5.5180155238e-02	 2.1993099114e+00	 1.9033660117e-01
 3.6726641730e-02	 2.1996954404e+00	 1.9614458859e-01
 1.8332724141e-02	 2.1999256203e+00	 2.0018513147e-01
 0.0000000000e+00	 2.2000020000e+00	 2.0208737184e-01
 1.8662718137e-01	 2.2009266538e+00	 1.2598714534e-01
 1.6772874931e-01	 2.2024475085e+00	 1.3558627294e-01
 1.4887791859e-01	 2.2038020411e+00	 1.4537978224e-01
 1.3007654378e-01	 2.2049916661e+00	 1.5516368195e-01
 1.1132644407e-01	 2.2060178211e+00	 1.6471167935e-01
 9.2629403106e-02	 2.2068819656e+00	 1.7377559038e-01
 7.3987168815e-02	 2.2075855802e+00	 1.8208558196e-01
 5.5401453280e-02	 2.2081301652e+00	 1.8935025396e-01
 3.6873932615e-02	 2.2085172403e+00	 1.9525657002e-01
 1.8406246877e-02	 2.2087483434e+00	 1.9946964681e-01
 0.0000000000e+00	 2.2088250294e+00	 2.0163241299e-01
 1.8737265333e-01	 2.2097181336e+00	 1.2531175040e-01
 1.6839873252e-01	 2.2112450633e+00	 1.3473193635e-01
 1.4947260321e-01	 2.2126050064e+00	 1.4435597127e-01
 1.3059612734e-01	 2.2137993833e+00	 1.5398590895e-01
 1.1177113140e-01	 2.2148296373e+00	 1.6340284333e-01
 9.2999406135e-02	 2.2156972336e+00	 1.7236729382e-01
 7.4282706470e-02	 2.2164036587e+00	 1.8061941324e-01
 5.5622751322e-02	 2.2169504190e+00	 1.8787902620e-01
 3.7021223500e-02	 2.2173390403e+00	 1.9384550747e-01
 1.8479769612e-02	 2.2175710665e+00	 1.9819751094e-01
 0.0000000000e+00	 2.2176480588e+00	 2.0059256048e-01
 1.8811812528e-01	 2.2185096134e+00	 1.2453885985e-01
 1.6906871573e-01	 2.2200426181e+00	 1.3372524524e-01
 1.5006728782e-01	 2.2214079718e+00	 1.4312343761e-01
 1.3111571090e-01	 2.2226071006e+00	 1.5254215332e-01
 1.1221581872e-01	 2.2236414534e+00	 1.6177052293e-01
 9.3369409163e-02	 2.2245125015e+00	 1.7057845112e-01
 7.4578244125e-02	 2.2252217372e+00	 1.7871678898e-01
 5.5844049364e-02	 2.2257706728e+00	 1.8591732752e-01
 3.7168514385e-02	 2.2261608403e+00	 1.9189262217e-01
 1.8553292348e-02	 2.2263937896e+00	 1.9633565951e-01
 0.0000000000e+00	 2.2264710882e+00	 1.9891937821e-01
 1.8886359723e-01	 2.2273010932e+00	 1.2372413716e-01
 1.6973869895e-01	 2.2288401728e+00	 1.3261647088e-01
 1.5066197243e-01	 2.2302109371e+00	 1.4172593940e-01
 1.3163529446e-01	 2.2314148178e+00	 1.5086853519e-01
 1.1266050604e-01	 2.2324532696e+00	 1.5984207386e-01
 9.3739412190e-02	 2.2333277695e+00	 1.6842652767e-01
 7.4873781778e-02	 2.2340398157e+00	 1.7638416125e-01
 5.6065347405e-02	 2.2345909267e+00	 1.8345947870e-01
 3.7315805270e-02	 2.2349826402e+00	 1.8937899269e-01
 1.8626815083e-02	 2.2352165126e+00	 1.9385082715e-01
 0.0000000000e+00	 2.2352941176e+00	 1.9656416626e-01
 2.2352941176e+00	 0.0000000000e+00	 2.4117366602e+00
 2.2352165126e+00	 1.8626815083e-02	 2.4116628434e+00
 2.2349826402e+00	 3.7315805270e-02	 2.4086335257e+00
 2.2345909267e+00	 5.6065347405e-02	 2.4027827005e+00
 2.2340398157e+00	 7.4873781778e-02	 2.3942476281e+00
 2.2333277695e+00	 9.3739412190e-02	 2.3831667416e+00
 2.2324532696e+00	 1.1266050604e-01	 2.3696776633e+00
 2.2314148178e+00	 1.3163529446e-01	 2.3539153438e+00
 2.2302109371e+00	 1.5066197243e-01	 2.3360103355e+00
 2.2288401728e+00	 1.6973869895e-01	 2.3160872107e+00
 2.2273010932e+00	 1.8886359723e-01	 2.2942631370e+00
 2.2441171470e+00	 0.0000000000e+00	 2.3994130112e+00
 2.2440392357e+00	 1.8700337818e-02	 2.3991436733e+00
 2.2438044402e+00	 3.7463096154e-02	 2.3958607661e+00
 2.2434111805e+00	 5.6286645446e-02	 2.3897180275e+00
 2.2428578942e+00	 7.5169319431e-02	 2.3808712415e+00
 2.2421430375e+00	 9.4109415217e-02	 2.3694760829e+00
 2.2412650858e+00	 1.1310519337e-01	 2.3556860761e+00
 2.2402225351e+00	 1.3215487802e-01	 2.3396506802e+00
 2.2390139025e+00	 1.5125665704e-01	 2.3215135125e+00
 2.2376377276e+00	 1.7040868216e-01	 2.3014107205e+00
 2.2360925730e+00	 1.8960906919e-01	 2.2794695162e+00
 2.2529401764e+00	 0.0000000000e+00	 2.3865838641e+00
 2.2528619588e+00	 1.8773860553e-02	 2.3861702382e+00
 2.2526262402e+00	 3.7610387038e-02	 2.3826918418e+00
 2.2522314343e+00	 5.6507943486e-02	 2.3763206931e+00
 2.2516759727e+00	 7.5464857084e-02	 2.3672295572e+00
 2.2509583054e+00	 9.4479418243e-02	 2.3555897299e+00
 2.2500769020e+00	 1.1354988069e-01	 2.3415689397e+00
 2.2490302523e+00	 1.3267446158e-01	 2.3253293792e+00
 2.2478168679e+00	 1.5185134165e-01	 2.3070258793e+00
 2.2464352823e+00	 1.7107866537e-01	 2.2868042364e+00
 2.2448840528e+00	 1.9035454114e-01	 2.2647997061e+00
 2.2617632059e+00	 0.0000000000e+00	 2.3732340190e+00
 2.2616846819e+00	 1.8847383288e-02	 2.3727239823e+00
 2.2614480401e+00	 3.7757677922e-02	 2.3691048427e+00
 2.2610516881e+00	 5.6729241526e-02	 2.3625654557e+00
 2.2604940512e+00	 7.5760394736e-02	 2.3532940463e+00
 2.2597735734e+00	 9.4849421268e-02	 2.3414759321e+00
 2.2588887181e+00	 1.1399456801e-01	 2.3272913689e+00
 2.2578379696e+00	 1.3319404514e-01	 2.3109135290e+00
 2.2566198332e+00	 1.5244602626e-01	 2.2925066269e+00
 2.2552328371e+00	 1.7174864857e-01	 2.2722242026e+00
 2.2536755325e+00	 1.9110001309e-01	 2.2502075755e+00
 2.2705862353e+00	 0.0000000000e+00	 2.3593487626e+00
 2.2705074050e+00	 1.8920906022e-02	 2.3587868322e+00
 2.2702698401e+00	 3.7904968805e-02	 2.3550783429e+00
 2.2698719419e+00	 5.6950539565e-02	 2.3484275656e+00
 2.2693121297e+00	 7.6055932387e-02	 2.3390366851e+00
 2.2685888413e+00	 9.5219424293e-02	 2.3271034626e+00
 2.2677005343e+00	 1.1443925533e-01	 2.3128190250e+00
 2.2666456868e+00	 1.3371362869e-01	 2.2963657916e+00
 2.2654227986e+00	 1.5304071086e-01	 2.2779155511e+00
 2.2640303919e+00	 1.7241863178e-01	 2.2576277026e+00
 2.2624670123e+00	 1.9184548504e-01	 2.2356476707e+00
 2.2794092647e+00	 0.0000000000e+00	 2.3449138581e+00
 2.2793301281e+00	 1.8994428757e-02	 2.3443411869e+00
 2.2790916401e+00	 3.8052259688e-02	 2.3405913910e+00
 2.2786921957e+00	 5.7171837604e-02	 2.3338827557e+00
 2.2781302082e+00	 7.6351470039e-02	 2.3244299456e+00
 2.2774041093e+00	 9.5589427318e-02	 2.3124416081e+00
 2.2765123505e+00	 1.1488394265e-01	 2.2981181060e+00
 2.2754534041e+00	 1.3423321225e-01	 2.2816493928e+00
 2.2742257640e+00	 1.5363539547e-01	 2.2632130429e+00
 2.2728279466e+00	 1.7308861499e-01	 2.2429724501e+00
 2.2712584921e+00	 1.9259095699e-01	 2.2210752054e+00
 2.2882322941e+00	 0.0000000000e+00	 2.3299155367e+00
 2.2881528512e+00	 1.9067951492e-02	 2.3293699096e+00
 2.2879134400e+00	 3.8199550571e-02	 2.3256235020e+00
 2.2875124496e+00	 5.7393135643e-02	 2.3189072327e+00
 2.2869482867e+00	 7.6647007690e-02	 2.3094467872e+00
 2.2862193772e+00	 9.5959430343e-02	 2.2974601611e+00
 2.2853241667e+00	 1.1532862997e-01	 2.2831553380e+00
 2.2842611214e+00	 1.3475279581e-01	 2.2667281134e+00
 2.2830287293e+00	 1.5423008008e-01	 2.2483600787e+00
 2.2816255014e+00	 1.7375859820e-01	 2.2282167780e+00
 2.2800499719e+00	 1.9333642894e-01	 2.2064460501e+00
 2.2970553235e+00	 0.0000000000e+00	 2.3143404883e+00
 2.2969755743e+00	 1.9141474226e-02	 2.3138563185e+00
 2.2967352400e+00	 3.8346841455e-02	 2.3101546483e+00
 2.2963327034e+00	 5.7614433683e-02	 2.3034776691e+00
 2.2957663652e+00	 7.6942545342e-02	 2.2940606475e+00
 2.2950346452e+00	 9.6329433368e-02	 2.2821294102e+00
 2.2941359828e+00	 1.1577331729e-01	 2.2678979661e+00
 2.2930688386e+00	 1.3527237936e-01	 2.2515662800e+00
 2.2918316947e+00	 1.5482476469e-01	 2.2333182111e+00
 2.2904230561e+00	 1.7442858141e-01	 2.2133196292e+00
 2.2888414517e+00	 1.9408190089e-01	 2.1917167218e+00
 2.3058783529e+00	 0.0000000000e+00	 2.2981758528e+00
 2.3057982974e+00	 1.9214996961e-02	 2.2977841786e+00
 2.3055570400e+00	 3.8494132338e-02	 2.2941652516e+00
 2.3051529572e+00	 5.7835731722e-02	 2.2875711942e+00
 2.3045844437e+00	 7.7238082994e-02	 2.2782454347e+00
 2.3038499131e+00	 9.6699436393e-02	 2.2664201325e+00
 2.3029477990e+00	 1.1621800461e-01	 2.2523137460e+00
 2.3018765559e+00	 1.3579196292e-01	 2.2361287559e+00
 2.3006346601e+00	 1.5541944930e-01	 2.2180495596e+00
 2.2992206109e+00	 1.7509856462e-01	 2.1982405470e+00
 2.2976329315e+00	 1.9482737284e-01	 2.1768443738e+00
 2.3147013824e+00	 0.0000000000e+00	 2.2814092112e+00
 2.3146210205e+00	 1.9288519696e-02	 2.2811376931e+00
 2.3143788399e+00	 3.8641423222e-02	 2.2776361743e+00
 2.3139732110e+00	 5.8057029762e-02	 2.2711653865e+00
 2.3134025222e+00	 7.7533620647e-02	 2.2619755189e+00
 2.3126651811e+00	 9.7069439419e-02	 2.2503035849e+00
 2.3117596152e+00	 1.1666269193e-01	 2.2363709353e+00
 2.3106842731e+00	 1.3631154648e-01	 2.2203809328e+00
 2.3094376254e+00	 1.5601413391e-01	 2.2025168016e+00
 2.3080181656e+00	 1.7576854783e-01	 2.1829396653e+00
 2.3064244113e+00	 1.9557284479e-01	 2.1617867868e+00
 2.3235244118e+00	 0.0000000000e+00	 2.2640285780e+00
 2.3234437436e+00	 1.9362042431e-02	 2.2639014955e+00
 2.3232006399e+00	 3.8788714106e-02	 2.2605487121e+00
 2.3227934648e+00	 5.8278327803e-02	 2.2542382656e+00
 2.3222206007e+00	 7.7829158300e-02	 2.2452257245e+00
 2.3214804490e+00	 9.7439442445e-02	 2.2337514961e+00
 2.3205714314e+00	 1.1710737926e-01	 2.2200382855e+00
 2.3194919904e+00	 1.3683113004e-01	 2.2042887218e+00
 2.3182405908e+00	 1.5660881852e-01	 2.1866831637e+00
 2.3168157204e+00	 1.7643853104e-01	 2.1673777003e+00
 2.3152158911e+00	 1.9631831674e-01	 2.1465023581e+00
 2.2273010932e+00	 1.8886359723e-01	 2.2942631370e+00
 2.2255919856e+00	 2.0803801046e-01	 2.2709255668e+00
 2.2237117139e+00	 2.2725670416e-01	 2.2463513951e+00
 2.2216589208e+00	 2.4651764747e-01	 2.2204644011e+00
 2.2194322757e+00	 2.6581877354e-01	 2.1931751776e+00
 2.2170304767e+00	 2.8515797987e-01	 2.1643808811e+00
 2.2144522504e+00	 3.0453312866e-01	 2.1339652062e+00
 2.2116963537e+00	 3.2394204717e-01	 2.1017985917e+00
 2.2087615747e+00	 3.4338252815e-01	 2.0677386678e+00
 2.2056467332e+00	 3.6285233028e-01	 2.0316309483e+00
 2.2023506823e+00	 3.8234917865e-01	 1.9933097758e+00
 2.2360925730e+00	 1.8960906919e-01	 2.2794695162e+00
 2.2343767193e+00	 2.0885916660e-01	 2.2560851752e+00
 2.2324890259e+00	 2.2815371926e-01	 2.2315332991e+00
 2.2304281301e+00	 2.4749068830e-01	 2.2057315826e+00
 2.2281926962e+00	 2.6686799871e-01	 2.1785828773e+00
 2.2257814168e+00	 2.8628353969e-01	 2.1499749405e+00
 2.2231930139e+00	 3.0573516500e-01	 2.1197804144e+00
 2.2204262394e+00	 3.2522069331e-01	 2.0878570438e+00
 2.2174798763e+00	 3.4473790869e-01	 2.0540481398e+00
 2.2143527401e+00	 3.6428456095e-01	 2.0181832962e+00
 2.2110436792e+00	 3.8385836620e-01	 1.9800793642e+00
 2.2448840528e+00	 1.9035454114e-01	 2.2647997061e+00
 2.2431614530e+00	 2.0968032273e-01	 2.2414146134e+00
 2.2412663379e+00	 2.2905073436e-01	 2.2169242094e+00
 2.2391973394e+00	 2.4846372913e-01	 2.1912406447e+00
 2.2369531166e+00	 2.6791722388e-01	 2.1642595610e+00
 2.2345323570e+00	 2.8740909951e-01	 2.1358598389e+00
 2.2319337775e+00	 3.0693720133e-01	 2.1059035825e+00
 2.2291561250e+00	 3.2649933946e-01	 2.0742363474e+00
 2.2261981779e+00	 3.4609328922e-01	 2.0406876224e+00
 2.2230587470e+00	 3.6571679161e-01	 2.0050715688e+00
 2.2197366761e+00	 3.8536755374e-01	 1.9671880251e+00
 2.2536755325e+00	 1.9110001309e-01	 2.2502075755e+00
 2.2519461867e+00	 2.1050147887e-01	 2.2268655595e+00
 2.2500436499e+00	 2.2994774946e-01	 2.2024741932e+00
 2.2479665487e+00	 2.4943676996e-01	 2.1769406127e+00
 2.2457135370e+00	 2.6896644905e-01	 2.1501537709e+00
 2.2432832972e+00	 2.8853465932e-01	 2.1219841836e+00
 2.2406745410e+00	 3.0813923766e-01	 2.0922839187e+00
 2.2378860106e+00	 3.2777798560e-01	 2.0608868362e+00
 2.2349164796e+00	 3.4744866976e-01	 2.0276090857e+00
 2.2317647539e+00	 3.6714902227e-01	 1.9922498704e+00
 2.2284296730e+00	 3.8687674129e-01	 1.9545924811e+00
 2.2624670123e+00	 1.9184548504e-01	 2.2356476707e+00
 2.2607309204e+00	 2.1132263500e-01	 2.2123904075e+00
 2.2588209619e+00	 2.3084476456e-01	 2.1881340675e+00
 2.2567357580e+00	 2.5040981079e-01	 2.1627812929e+00
 2.2544739575e+00	 2.7001567422e-01	 2.1362148581e+00
 2.2520342374e+00	 2.8966021914e-01	 2.1082974150e+00
 2.2494153045e+00	 3.0934127399e-01	 2.0788714863e+00
 2.2466158962e+00	 3.2905663174e-01	 2.0477597167e+00
 2.2436347812e+00	 3.4880405029e-01	 2.0147653879e+00
 2.2404707608e+00	 3.6858125293e-01	 1.9796732057e+00
 2.2371226699e+00	 3.8838592883e-01	 1.9422503646e+00
 2.2712584921e+00	 1.9259095699e-01	 2.2210752054e+00
 2.2695156541e+00	 2.1214379113e-01	 2.1979422557e+00
 2.2675982739e+00	 2.3174177966e-01	 2.1738553879e+00
 2.2655049673e+00	 2.5138285162e-01	 2.1487132607e+00
 2.2632343779e+00	 2.7106489939e-01	 2.1223929705e+00
 2.2607851776e+00	 2.9078577895e-01	 2.0947497947e+00
 2.2581560681e+00	 3.1054331033e-01	 2.0656171905e+00
 2.2553457818e+00	 3.3033527789e-01	 2.0348070560e+00
 2.2523530828e+00	 3.5015943083e-01	 2.0021102631e+00
 2.2491767677e+00	 3.7001348360e-01	 1.9672974678e+00
 2.2458156668e+00	 3.8989511638e-01	 1.9301202059e+00
 2.2800499719e+00	 1.9333642894e-01	 2.2064460501e+00
 2.2783003878e+00	 2.1296494727e-01	 2.1834748963e+00
 2.2763755859e+00	 2.3263879476e-01	 2.1595904371e+00
 2.2742741767e+00	 2.5235589245e-01	 2.1346878492e+00
 2.2719947983e+00	 2.7211412455e-01	 2.1086390407e+00
 2.2695361177e+00	 2.9191133877e-01	 2.0812923937e+00
 2.2668968316e+00	 3.1174534666e-01	 2.0524727673e+00
 2.2640756675e+00	 3.3161392403e-01	 2.0219817700e+00
 2.2610713844e+00	 3.5151481136e-01	 1.9895983092e+00
 2.2578827746e+00	 3.7144571426e-01	 1.9550794261e+00
 2.2545086637e+00	 3.9140430392e-01	 1.9181614210e+00
 2.2888414517e+00	 1.9408190089e-01	 2.1917167218e+00
 2.2870851215e+00	 2.1378610340e-01	 2.1689428042e+00
 2.2851528979e+00	 2.3353580986e-01	 2.1452922145e+00
 2.2830433860e+00	 2.5332893328e-01	 2.1206571382e+00
 2.2807552187e+00	 2.7316334972e-01	 2.0949047751e+00
 2.2782870579e+00	 2.9303689858e-01	 2.0678770802e+00
 2.2756375952e+00	 3.1294738299e-01	 2.0393907711e+00
 2.2728055531e+00	 3.3289257017e-01	 2.0092376109e+00
 2.2697896861e+00	 3.5287019190e-01	 1.9771849760e+00
 2.2665887815e+00	 3.7287794492e-01	 1.9429767141e+00
 2.2632016606e+00	 3.9291349147e-01	 1.9063343002e+00
 2.2976329315e+00	 1.9482737284e-01	 2.1768443738e+00
 2.2958698551e+00	 2.1460725954e-01	 2.1543011271e+00
 2.2939302098e+00	 2.3443282496e-01	 2.1309144247e+00
 2.2918125953e+00	 2.5430197411e-01	 2.1065739427e+00
 2.2895156391e+00	 2.7421257489e-01	 2.0811426424e+00
 2.2870379981e+00	 2.9416245840e-01	 2.0544565089e+00
 2.2843783587e+00	 3.1414941932e-01	 2.0263245632e+00
 2.2815354387e+00	 3.3417121631e-01	 1.9965291564e+00
 2.2785079877e+00	 3.5422557243e-01	 1.9648265540e+00
 2.2752947884e+00	 3.7431017558e-01	 1.9309478185e+00
 2.2718946575e+00	 3.9442267901e-01	 1.8945999964e+00
 2.3064244113e+00	 1.9557284479e-01	 2.1617867868e+00
 2.3046545888e+00	 2.1542841567e-01	 2.1395056752e+00
 2.3027075218e+00	 2.3532984006e-01	 2.1164114675e+00
 2.3005818046e+00	 2.5527501495e-01	 2.0923918025e+00
 2.2982760596e+00	 2.7526180006e-01	 2.0673058624e+00
 2.2957889383e+00	 2.9528801822e-01	 2.0409841092e+00
 2.2931191223e+00	 3.1535145565e-01	 2.0132283011e+00
 2.2902653243e+00	 3.3544986246e-01	 1.9838117977e+00
 2.2872262893e+00	 3.5558095297e-01	 1.9524801622e+00
 2.2840007953e+00	 3.7574240624e-01	 1.9189520674e+00
 2.2805876544e+00	 3.9593186656e-01	 1.8829205139e+00
 2.3152158911e+00	 1.9631831674e-01	 2.1465023581e+00
 2.3134393225e+00	 2.1624957181e-01	 2.1245129112e+00
 2.3114848338e+00	 2.3622685516e-01	 2.1017384274e+00
 2.3093510139e+00	 2.5624805578e-01	 2.0780649714e+00
 2.3070364800e+00	 2.7631102523e-01	 2.0533483955e+00
 2.3045398784e+00	 2.9641357803e-01	 2.0274140744e+00
 2.3018598858e+00	 3.1655349199e-01	 2.0000569264e+00
 2.2989952099e+00	 3.3672850860e-01	 1.9710417287e+00
 2.2959445909e+00	 3.5693633350e-01	 1.9401037376e+00
 2.2927068022e+00	 3.7717463691e-01	 1.9069496189e+00
 2.2892806513e+00	 3.9744105410e-01	 1.8712586971e+00
 2.2023506823e+00	 3.8234917865e-01	 1.9933097758e+00
 2.1988729154e+00	 4.0186744582e-01	 1.9525754756e+00
 2.1952118086e+00	 4.2140810864e-01	 1.9094518749e+00
 2.1913663186e+00	 4.4096880104e-01	 1.8641210131e+00
 2.1873354389e+00	 4.6054712568e-01	 1.8167663392e+00
 2.1831182005e+00	 4.8014065454e-01	 1.7675747004e+00
 2.1787136732e+00	 4.9974692960e-01	 1.7167385851e+00
 2.1741209666e+00	 5.1936346347e-01	 1.6644586220e+00
 2.1693392306e+00	 5.3898774018e-01	 1.6109463320e+00
 2.1643676566e+00	 5.5861721583e-01	 1.5564271307e+00
 2.1592054782e+00	 5.7824931944e-01	 1.5011435789e+00
 2.2110436792e+00	 3.8385836620e-01	 1.9800793642e+00
 2.2075521850e+00	 4.0345367480e-01	 1.9395404225e+00
 2.2038766273e+00	 4.2307146744e-01	 1.8966130849e+00
 2.2000159587e+00	 4.4270936872e-01	 1.8514882383e+00
 2.1959691684e+00	 4.6236497184e-01	 1.8043569255e+00
 2.1917352840e+00	 4.8203583920e-01	 1.7554123558e+00
 2.1873133714e+00	 5.0171950306e-01	 1.7048521771e+00
 2.1827025368e+00	 5.2141346623e-01	 1.6528810081e+00
 2.1779019266e+00	 5.4111520280e-01	 1.5997132295e+00
 2.1729107290e+00	 5.6082215883e-01	 1.5455760310e+00
 2.1677281748e+00	 5.8053175320e-01	 1.4907127118e+00
 2.2197366761e+00	 3.8536755374e-01	 1.9671880251e+00
 2.2162314547e+00	 4.0503990377e-01	 1.9268442717e+00
 2.2125414461e+00	 4.2473482623e-01	 1.8841088921e+00
 2.2086655987e+00	 4.4444993640e-01	 1.8391816667e+00
 2.2046028980e+00	 4.6418281800e-01	 1.7922612388e+00
 2.2003523675e+00	 4.8393102385e-01	 1.7435471478e+00
 2.1959130696e+00	 5.0369207652e-01	 1.6932421300e+00
 2.1912841069e+00	 5.2346346899e-01	 1.6415546846e+00
 2.1864646225e+00	 5.4324266542e-01	 1.5887019039e+00
 2.1814538014e+00	 5.6302710183e-01	 1.5349125657e+00
 2.1762508713e+00	 5.8281418696e-01	 1.4804304838e+00
 2.2284296730e+00	 3.8687674129e-01	 1.9545924811e+00
 2.2249107243e+00	 4.0662613274e-01	 1.9144466690e+00
 2.2212062648e+00	 4.2639818503e-01	 1.8719019947e+00
 2.2173152387e+00	 4.4619050408e-01	 1.8271671660e+00
 2.2132366276e+00	 4.6600066416e-01	 1.7804484210e+00
 2.2089694510e+00	 4.8582620851e-01	 1.7319515851e+00
 2.2045127678e+00	 5.0566464998e-01	 1.6818843994e+00
 2.1998656770e+00	 5.2551347175e-01	 1.6304591210e+00
 2.1950273184e+00	 5.4537012804e-01	 1.5778953929e+00
 2.1899968738e+00	 5.6523204483e-01	 1.5244233816e+00
 2.1847735679e+00	 5.8509662071e-01	 1.4702871778e+00
 2.2371226699e+00	 3.8838592883e-01	 1.9422503646e+00
 2.2335899940e+00	 4.0821236171e-01	 1.9023081793e+00
 2.2298710835e+00	 4.2806154382e-01	 1.8599560214e+00
 2.2259648788e+00	 4.4793107176e-01	 1.8154115480e+00
 2.2218703571e+00	 4.6781851032e-01	 1.7688885749e+00
 2.2175865345e+00	 4.8772139316e-01	 1.7205991563e+00
 2.2131124661e+00	 5.0763722344e-01	 1.6707559420e+00
 2.2084472472e+00	 5.2756347451e-01	 1.6195748118e+00
 2.2035900143e+00	 5.4749759066e-01	 1.5672777854e+00
 2.1985399462e+00	 5.6743698783e-01	 1.5140962055e+00
 2.1932962644e+00	 5.8737905447e-01	 1.4602741891e+00
 2.2458156668e+00	 3.8989511638e-01	 1.9301202059e+00
 2.2422692636e+00	 4.0979859068e-01	 1.8903902746e+00
 2.2385359023e+00	 4.2972490262e-01	 1.8482355197e+00
 2.2346145188e+00	 4.4967163944e-01	 1.8038825577e+00
 2.2305040867e+00	 4.6963635648e-01	 1.7575527523e+00
 2.2262036180e+00	 4.8961657782e-01	 1.7094643175e+00
 2.2217121643e+00	 5.0960979690e-01	 1.6598347031e+00
 2.2170288173e+00	 5.2961347727e-01	 1.6088832637e+00
 2.2121527103e+00	 5.4962505327e-01	 1.5568342088e+00
 2.2070830186e+00	 5.6964193084e-01	 1.5039198313e+00
 2.2018189609e+00	 5.8966148822e-01	 1.4503766252e+00
 2.2545086637e+00	 3.9140430392e-01	 1.9181614210e+00
 2.2509485333e+00	 4.1138481965e-01	 1.8786553222e+00
 2.2472007210e+00	 4.3138826141e-01	 1.8367059439e+00
 2.2432641588e+00	 4.5141220712e-01	 1.7925488603e+00
 2.2391378163e+00	 4.7145420264e-01	 1.7464129417e+00
 2.2348207015e+00	 4.9151176247e-01	 1.6985224802e+00
 2.2303118625e+00	 5.1158237036e-01	 1.6490996046e+00
 2.2256103874e+00	 5.3166348003e-01	 1.5983669834e+00
 2.2207154062e+00	 5.5175251589e-01	 1.5465508160e+00
 2.2156260910e+00	 5.7184687384e-01	 1.4938841070e+00
 2.2103416575e+00	 5.9194392198e-01	 1.4405637035e+00
 2.2632016606e+00	 3.9291349147e-01	 1.9063343002e+00
 2.2596278029e+00	 4.1297104862e-01	 1.8670665729e+00
 2.2558655397e+00	 4.3305162021e-01	 1.8253336436e+00
 2.2519137988e+00	 4.5315277479e-01	 1.7813800307e+00
 2.2477715458e+00	 4.7327204880e-01	 1.7354420572e+00
 2.2434377850e+00	 4.9340694713e-01	 1.6877500001e+00
 2.2389115607e+00	 5.1355494382e-01	 1.6385305329e+00
 2.2341919575e+00	 5.3371348279e-01	 1.5880094652e+00
 2.2292781021e+00	 5.5387997851e-01	 1.5364147732e+00
 2.2241691634e+00	 5.7405181684e-01	 1.4839799217e+00
 2.2188643540e+00	 5.9422635573e-01	 1.4308322386e+00
 2.2718946575e+00	 3.9442267901e-01	 1.8945999964e+00
 2.2683070726e+00	 4.1455727759e-01	 1.8555881499e+00
 2.2645303585e+00	 4.3471497900e-01	 1.8140858524e+00
 2.2605634389e+00	 4.5489334247e-01	 1.7703465412e+00
 2.2564052754e+00	 4.7508989496e-01	 1.7246139269e+00
 2.2520548686e+00	 4.9530213178e-01	 1.6771241646e+00
 2.2475112589e+00	 5.1552751728e-01	 1.6281083273e+00
 2.2427735277e+00	 5.3576348554e-01	 1.5777951790e+00
 2.2378407980e+00	 5.5600744113e-01	 1.5264142475e+00
 2.2327122358e+00	 5.7625675983e-01	 1.4741991929e+00
 2.2273870506e+00	 5.9650878948e-01	 1.4211823277e+00
 2.2805876544e+00	 3.9593186656e-01	 1.8829205139e+00
 2.2769863422e+00	 4.1614350656e-01	 1.8441850372e+00
 2.2731951772e+00	 4.3637833780e-01	 1.8029306764e+00
 2.2692130789e+00	 4.5663391015e-01	 1.7594197510e+00
 2.2650390049e+00	 4.7690774112e-01	 1.7139032810e+00
 2.2606719521e+00	 4.9719731644e-01	 1.6666231822e+00
 2.2561109571e+00	 5.1750009074e-01	 1.6178147679e+00
 2.2513550978e+00	 5.3781348830e-01	 1.5677095584e+00
 2.2464034940e+00	 5.5813490375e-01	 1.5165383944e+00
 2.2412553082e+00	 5.7846170283e-01	 1.4645348538e+00
 2.2359097471e+00	 5.9879122324e-01	 1.4116148553e+00
 2.2892806513e+00	 3.9744105410e-01	 1.8712586971e+00
 2.2856656119e+00	 4.1772973553e-01	 1.8328230689e+00
 2.2818599959e+00	 4.3804169659e-01	 1.7918370836e+00
 2.2778627189e+00	 4.5837447783e-01	 1.7485718944e+00
 2.2736727345e+00	 4.7872558728e-01	 1.7032857415e+00
 2.2692890356e+00	 4.9909250109e-01	 1.6562261706e+00
 2.2647106553e+00	 5.1947266420e-01	 1.6076325647e+00
 2.2599366679e+00	 5.3986349106e-01	 1.5577389889e+00
 2.2549661899e+00	 5.6026236637e-01	 1.5067773461e+00
 2.2497983806e+00	 5.8066664583e-01	 1.4549808409e+00
 2.2444324436e+00	 6.0107365699e-01	 1.4021314786e+00
 2.1592054782e+00	 5.7824931944e-01	 1.5011435789e+00
 2.1538519729e+00	 5.9788145400e-01	 1.4456758773e+00
 2.1483064638e+00	 6.1751099811e-01	 1.3884308283e+00
 2.1425683196e+00	 6.3713530613e-01	 1.3291360566e+00
 2.1366369545e+00	 6.5675170875e-01	 1.2679551005e+00
 2.1305118294e+00	 6.7635751393e-01	 1.2050620821e+00
 2.1241924524e+00	 6.9595000784e-01	 1.1406430514e+00
 2.1176783796e+00	 7.1552645584e-01	 1.0748971194e+00
 2.1109692158e+00	 7.3508410348e-01	 1.0080373579e+00
 2.1040646156e+00	 7.5462017753e-01	 9.4029144196e-01
 2.0969642834e+00	 7.7413188700e-01	 8.7190201491e-01
 2.1677281748e+00	 5.8053175320e-01	 1.4907127118e+00
 2.1623535384e+00	 6.0024137863e-01	 1.4354940093e+00
 2.1567861403e+00	 6.1994840339e-01	 1.3784242262e+00
 2.1510253468e+00	 6.3965017140e-01	 1.3193921929e+00
 2.1450705698e+00	 6.5934400280e-01	 1.2585390670e+00
 2.1389212680e+00	 6.7902719493e-01	 1.1960166090e+00
 2.1325769474e+00	 6.9869702325e-01	 1.1319886320e+00
 2.1260371626e+00	 7.1835074232e-01	 1.0666322345e+00
 2.1193015169e+00	 7.3798558683e-01	 1.0001387920e+00
 2.1123696632e+00	 7.5759877259e-01	 9.3271468383e-01
 2.1052413049e+00	 7.7718749760e-01	 8.6458173479e-01
 2.1762508713e+00	 5.8281418696e-01	 1.4804304838e+00
 2.1708551038e+00	 6.0260130326e-01	 1.4253902243e+00
 2.1652658169e+00	 6.2238580868e-01	 1.3684752946e+00
 2.1594823741e+00	 6.4216503667e-01	 1.3096819516e+00
 2.1535041851e+00	 6.6193629684e-01	 1.2491305728e+00
 2.1473307065e+00	 6.8169687593e-01	 1.1869522148e+00
 2.1409614425e+00	 7.0144403866e-01	 1.1232901693e+00
 2.1343959457e+00	 7.2117502881e-01	 1.0583012951e+00
 2.1276338179e+00	 7.4088707018e-01	 9.9215710165e-01
 2.1206747107e+00	 7.6057736764e-01	 9.2504456011e-01
 2.1135183265e+00	 7.8024310820e-01	 8.5716661947e-01
 2.1847735679e+00	 5.8509662071e-01	 1.4702871778e+00
 2.1793566693e+00	 6.0496122789e-01	 1.4153635685e+00
 2.1737454935e+00	 6.2482321396e-01	 1.3585864106e+00
 2.1679394014e+00	 6.4467990193e-01	 1.3000112148e+00
 2.1619378004e+00	 6.6452859089e-01	 1.2397391390e+00
 2.1557401451e+00	 6.8436655692e-01	 1.1778821542e+00
 2.1493459376e+00	 7.0419105406e-01	 1.1145647072e+00
 2.1427547288e+00	 7.2399931529e-01	 1.0499251517e+00
 2.1359661189e+00	 7.4378855353e-01	 9.8411692433e-01
 2.1289797583e+00	 7.6355596270e-01	 9.1730943849e-01
 2.1217953480e+00	 7.8329871880e-01	 8.4968867501e-01
 2.1932962644e+00	 5.8737905447e-01	 1.4602741891e+00
 2.1878582348e+00	 6.0732115253e-01	 1.4054139499e+00
 2.1822251700e+00	 6.2726061925e-01	 1.3487608035e+00
 2.1763964286e+00	 6.4719476720e-01	 1.2903867017e+00
 2.1703714157e+00	 6.6712088494e-01	 1.2303751031e+00
 2.1641495836e+00	 6.8703623792e-01	 1.1688204724e+00
 2.1577304326e+00	 7.0693806947e-01	 1.1058300490e+00
 2.1511135119e+00	 7.2682360177e-01	 1.0415253790e+00
 2.1442984200e+00	 7.4669003687e-01	 9.7604358193e-01
 2.1372848059e+00	 7.6653455776e-01	 9.0953832803e-01
 2.1300723696e+00	 7.8635432940e-01	 8.4218050227e-01
 2.2018189609e+00	 5.8966148822e-01	 1.4503766252e+00
 2.1963598003e+00	 6.0968107716e-01	 1.3955421212e+00
 2.1907048466e+00	 6.2969802453e-01	 1.3390025376e+00
 2.1848534559e+00	 6.4970963247e-01	 1.2808159506e+00
 2.1788050310e+00	 6.6971317899e-01	 1.2210496004e+00
 2.1725590222e+00	 6.8970591892e-01	 1.1597819854e+00
 2.1661149277e+00	 7.0968508488e-01	 1.0971047376e+00
 2.1594722949e+00	 7.2964788825e-01	 1.0331242549e+00
 2.1526307210e+00	 7.4959152022e-01	 9.6796305920e-01
 2.1455898535e+00	 7.6951315282e-01	 9.0176085640e-01
 2.1383493911e+00	 7.8940994000e-01	 8.3467527321e-01
 2.2103416575e+00	 5.9194392198e-01	 1.4405637035e+00
 2.2048613658e+00	 6.1204100179e-01	 1.3857496639e+00
 2.1991845231e+00	 6.3213542981e-01	 1.3293164955e+00
 2.1933104832e+00	 6.5222449773e-01	 1.2713073013e+00
 2.1872386464e+00	 6.7230547303e-01	 1.2117745455e+00
 2.1809684607e+00	 6.9237559992e-01	 1.1507822612e+00
 2.1744994227e+00	 7.1243210028e-01	 1.0884080352e+00
 2.1678310780e+00	 7.3247217473e-01	 1.0247447396e+00
 2.1609630220e+00	 7.5249300356e-01	 9.5990198184e-01
 2.1538949010e+00	 7.7249174788e-01	 8.9400724720e-01
 2.1466264126e+00	 7.9246555060e-01	 8.2720670727e-01
 2.2188643540e+00	 5.9422635573e-01	 1.4308322386e+00
 2.2133629312e+00	 6.1440092642e-01	 1.3760389720e+00
 2.2076641997e+00	 6.3457283509e-01	 1.3197083604e+00
 2.2017675104e+00	 6.5473936300e-01	 1.2618698774e+00
 2.1956722617e+00	 6.7489776708e-01	 1.2025626135e+00
 2.1893778993e+00	 6.9504528091e-01	 1.1418376002e+00
 2.1828839178e+00	 7.1517911569e-01	 1.0797599032e+00
 2.1761898611e+00	 7.3529646121e-01	 1.0164104546e+00
 2.1692953231e+00	 7.5539448691e-01	 9.5188759493e-01
 2.1621999486e+00	 7.7547034294e-01	 8.8630829741e-01
 2.1549034342e+00	 7.9552116120e-01	 8.1980904794e-01
 2.2273870506e+00	 5.9650878948e-01	 1.4211823277e+00
 2.2218644967e+00	 6.1676085105e-01	 1.3664132359e+00
 2.2161438762e+00	 6.3701024038e-01	 1.3101846003e+00
 2.2102245377e+00	 6.5725422827e-01	 1.2525135688e+00
 2.2041058770e+00	 6.7749006113e-01	 1.1934272225e+00
 2.1977873378e+00	 6.9771496191e-01	 1.1329650165e+00
 2.1912684129e+00	 7.1792613110e-01	 1.0711809825e+00
 2.1845486441e+00	 7.3812074769e-01	 1.0081456623e+00
 2.1776276241e+00	 7.5829597026e-01	 9.4394774133e-01
 2.1705049962e+00	 7.7844893799e-01	 8.7869535496e-01
 2.1631804557e+00	 7.9857677180e-01	 8.1251703926e-01
 2.2359097471e+00	 5.9879122324e-01	 1.4116148553e+00
 2.2303660622e+00	 6.1912077568e-01	 1.3568764268e+00
 2.2246235528e+00	 6.3944764566e-01	 1.3007524506e+00
 2.2186815650e+00	 6.5976909353e-01	 1.2432490140e+00
 2.2125394923e+00	 6.8008235517e-01	 1.1843825145e+00
 2.2061967764e+00	 7.0038464291e-01	 1.1241822184e+00
 2.1996529079e+00	 7.2067314650e-01	 1.0626925737e+00
 2.1929074272e+00	 7.4094503417e-01	 9.9997524520e-01
 2.1859599251e+00	 7.6119745360e-01	 9.3611084027e-01
 2.1788100438e+00	 7.8142753305e-01	 8.7120029640e-01
 2.1714574772e+00	 8.0163238240e-01	 8.0536590262e-01
 2.2444324436e+00	 6.0107365699e-01	 1.4021314786e+00
 2.2388676277e+00	 6.2148070031e-01	 1.3474332808e+00
 2.2331032293e+00	 6.4188505094e-01	 1.2914198981e+00
 2.2271385922e+00	 6.6228395880e-01	 1.2340875835e+00
 2.2209731076e+00	 6.8267464922e-01	 1.1754433384e+00
 2.2146062150e+00	 7.0305432391e-01	 1.1155075903e+00
 2.2080374030e+00	 7.2342016191e-01	 1.0543166176e+00
 2.2012662103e+00	 7.4376932065e-01	 9.9192468570e-01
 2.1942922261e+00	 7.6409893695e-01	 9.2840586604e-01
 2.1871150913e+00	 7.8440612811e-01	 8.6385550461e-01
 2.1797344988e+00	 8.0468799300e-01	 7.9839131351e-01
 2.0969642834e+00	 7.7413188700e-01	 8.7190201491e-01
 2.0896667173e+00	 7.9361973424e-01	 8.0288452444e-01
 2.0821729134e+00	 8.1307757453e-01	 7.3324186516e-01
 2.0744827292e+00	 8.3250256787e-01	 6.6318350051e-01
 2.0665960749e+00	 8.5189186097e-01	 5.9293063072e-01
 2.0585129138e+00	 8.7124258838e-01	 5.2271498063e-01
 2.0502332634e+00	 8.9055187374e-01	 4.5277722602e-01
 2.0417571950e+00	 9.0981683097e-01	 3.8336505217e-01
 2.0330848350e+00	 9.2903456551e-01	 3.1473084098e-01
 2.0242163646e+00	 9.4820217558e-01	 2.4712898577e-01
 2.0151520210e+00	 9.6731675346e-01	 1.8081283603e-01
 2.1052413049e+00	 7.7718749760e-01	 8.6458173479e-01
 2.0979149343e+00	 7.9675226620e-01	 7.9573533168e-01
 2.0903915513e+00	 8.1628690940e-01	 7.2618978603e-01
 2.0826710128e+00	 8.3578857600e-01	 6.5618211610e-01
 2.0747532287e+00	 8.5525440144e-01	 5.8596191944e-01
 2.0666381623e+00	 8.7468150897e-01	 5.1579012380e-01
 2.0583258308e+00	 8.9406701088e-01	 4.4593736378e-01
 2.0498163062e+00	 9.1340800969e-01	 3.7668197678e-01
 2.0411097151e+00	 9.3270159940e-01	 3.0830761441e-01
 2.0322062396e+00	 9.5194486680e-01	 2.4110046854e-01
 2.0231061177e+00	 9.7113489269e-01	 1.7534611401e-01
 2.1135183265e+00	 7.8024310820e-01	 8.5716661947e-01
 2.1061631513e+00	 7.9988479815e-01	 7.8849914509e-01
 2.0986101891e+00	 8.1949624426e-01	 7.1906469552e-01
 2.0908592964e+00	 8.3907458413e-01	 6.4912428587e-01
 2.0829103825e+00	 8.5861694191e-01	 5.7895238297e-01
 2.0747634107e+00	 8.7812042957e-01	 5.0883562385e-01
 2.0664183983e+00	 8.9758214802e-01	 4.3907114707e-01
 2.0578754174e+00	 9.1699918840e-01	 3.6996453013e-01
 2.0491345952e+00	 9.3636863330e-01	 3.0182732892e-01
 2.0401961146e+00	 9.5568755803e-01	 2.3497421852e-01
 2.0310602143e+00	 9.7495303193e-01	 1.6971973720e-01
 2.1217953480e+00	 7.8329871880e-01	 8.4968867501e-01
 2.1144113683e+00	 8.0301733011e-01	 7.8121156360e-01
 2.1068288270e+00	 8.2270557913e-01	 7.1190583048e-01
 2.0990475800e+00	 8.4236059225e-01	 6.4205296350e-01
 2.0910675363e+00	 8.6197948239e-01	 5.7194880583e-01
 2.0828886591e+00	 8.8155935017e-01	 5.0190224664e-01
 2.0745109657e+00	 9.0109728516e-01	 4.3223351131e-01
 2.0659345285e+00	 9.2059036712e-01	 3.6327204435e-01
 2.0571594753e+00	 9.4003566719e-01	 2.9535398071e-01
 2.0481859895e+00	 9.5943024926e-01	 2.2881920466e-01
 2.0390143110e+00	 9.7877117116e-01	 1.6400799833e-01
 2.1300723696e+00	 7.8635432940e-01	 8.4218050227e-01
 2.1226595853e+00	 8.0614986206e-01	 7.7390873031e-01
 2.1150474649e+00	 8.2591491400e-01	 7.0475291579e-01
 2.1072358636e+00	 8.4564660038e-01	 6.3501152844e-01
 2.0992246901e+00	 8.6534202286e-01	 5.6499832953e-01
 2.0910139075e+00	 8.8499827076e-01	 4.9504103915e-01
 2.0826035331e+00	 9.0461242230e-01	 4.2547958965e-01
 2.0739936397e+00	 9.2418154583e-01	 3.5666395799e-01
 2.0651843554e+00	 9.4370270109e-01	 2.8895157259e-01
 2.0561758645e+00	 9.6317294048e-01	 2.2270429384e-01
 2.0469684077e+00	 9.8258931039e-01	 1.5828497017e-01
 2.1383493911e+00	 7.8940994000e-01	 8.3467527321e-01
 2.1309078023e+00	 8.0928239402e-01	 7.6662730783e-01
 2.1232661027e+00	 8.2912424886e-01	 6.9764613866e-01
 2.1154241471e+00	 8.4893260851e-01	 6.2804375931e-01
 2.1073818440e+00	 8.6870456333e-01	 5.5814842502e-01
 2.0991391559e+00	 8.8843719136e-01	 4.8830330108e-01
 2.0906961006e+00	 9.0812755944e-01	 4.1886468373e-01
 2.0820527509e+00	 9.2777272455e-01	 3.5019978585e-01
 2.0732092355e+00	 9.4736973498e-01	 2.8268408312e-01
 2.0641657395e+00	 9.6691563171e-01	 2.1669821938e-01
 2.0549225044e+00	 9.8640744962e-01	 1.5262447347e-01
 2.1466264126e+00	 7.9246555060e-01	 8.2720670727e-01
 2.1391560192e+00	 8.1241492597e-01	 7.5940445366e-01
 2.1314847406e+00	 8.3233358373e-01	 6.9062612311e-01
 2.1236124307e+00	 8.5221861663e-01	 6.2119380738e-01
 2.1155389978e+00	 8.7206710381e-01	 5.5144686521e-01
 2.1072644043e+00	 8.9187611195e-01	 4.8174055642e-01
 2.0987886680e+00	 9.1164269658e-01	 4.1244423434e-01
 2.0901118620e+00	 9.3136390326e-01	 3.4393908894e-01
 2.0812341156e+00	 9.5103676888e-01	 2.7661543576e-01
 2.0721556144e+00	 9.7065832294e-01	 2.1086954959e-01
 2.0628766011e+00	 9.9022558885e-01	 1.4710004490e-01
 2.1549034342e+00	 7.9552116120e-01	 8.1980904794e-01
 2.1474042362e+00	 8.1554745792e-01	 7.5227779576e-01
 2.1397033784e+00	 8.3554291859e-01	 6.8373390448e-01
 2.1318007143e+00	 8.5550462476e-01	 6.1450617010e-01
 2.1236961516e+00	 8.7542964428e-01	 5.4494169758e-01
 2.1153896527e+00	 8.9531503255e-01	 4.7540452510e-01
 2.1068812354e+00	 9.1515783372e-01	 4.0627379226e-01
 2.0981709732e+00	 9.3495508198e-01	 3.3794144442e-01
 2.0892589957e+00	 9.5470380277e-01	 2.7080946811e-01
 2.0801454894e+00	 9.7440101416e-01	 2.0528665619e-01
 2.0708306978e+00	 9.9404372809e-01	 1.4178490502e-01
 2.1631804557e+00	 7.9857677180e-01	 8.1251703926e-01
 2.1556524532e+00	 8.1867998988e-01	 7.4528540812e-01
 2.1479220163e+00	 8.3875225346e-01	 6.7701090410e-01
 2.1399889979e+00	 8.5879063289e-01	 6.0802566478e-01
 2.1318533054e+00	 8.7879218475e-01	 5.3868121684e-01
 2.1235149012e+00	 8.9875395314e-01	 4.6934709475e-01
 2.1149738029e+00	 9.1867297086e-01	 4.0040898902e-01
 2.1062300844e+00	 9.3854626069e-01	 3.3226641556e-01
 2.0972838758e+00	 9.5837083667e-01	 2.6532990104e-01
 2.0881353644e+00	 9.7814370539e-01	 2.0001768292e-01
 2.0787847945e+00	 9.9786186732e-01	 1.3675192607e-01
 2.1714574772e+00	 8.0163238240e-01	 8.0536590262e-01
 2.1639006702e+00	 8.2181252183e-01	 7.3846578652e-01
 2.1561406541e+00	 8.4196158833e-01	 6.7049890392e-01
 2.1481772815e+00	 8.6207664101e-01	 6.0179740226e-01
 2.1400104593e+00	 8.8215472523e-01	 5.3271393763e-01
 2.1316401496e+00	 9.0219287374e-01	 4.6362029247e-01
 2.1230663703e+00	 9.2218810800e-01	 3.9490550785e-01
 2.1142891955e+00	 9.4213743941e-01	 3.2697352175e-01
 2.1053087559e+00	 9.6203787056e-01	 2.6024030795e-01
 2.0961252394e+00	 9.8188639661e-01	 1.9513051392e-01
 2.0867388912e+00	 1.0016800066e+00	 1.3207359995e-01
 2.1797344988e+00	 8.0468799300e-01	 7.9839131351e-01
 2.1721488872e+00	 8.2494505378e-01	 7.3185782428e-01
 2.1643592920e+00	 8.4517092319e-01	 6.6424002139e-01
 2.1563655651e+00	 8.6536264914e-01	 5.9586676073e-01
 2.1481676131e+00	 8.8551726570e-01	 5.2708856739e-01
 2.1397653980e+00	 9.0563179433e-01	 4.5827625665e-01
 2.1311589378e+00	 9.2570324514e-01	 3.8981905452e-01
 2.1223483067e+00	 9.4572861812e-01	 3.2212220859e-01
 2.1133336360e+00	 9.6570490446e-01	 2.5560408399e-01
 2.1041151143e+00	 9.8562908784e-01	 1.9069274232e-01
 2.0946929879e+00	 1.0054981458e+00	 1.2782200597e-01
 2.0151520210e+00	 9.6731675346e-01	 1.8081283603e-01
 2.0058936872e+00	 9.8637215194e-01	 1.1513153942e-01
 1.9964401871e+00	 1.0053687097e+00	 4.9328364054e-02
 1.9867919245e+00	 1.0243035093e+00	-1.6480195669e-02
 1.9769493602e+00	 1.0431736330e+00	-8.2192775954e-02
 1.9669130120e+00	 1.0619761634e+00	-1.4772784360e-01
 1.9566834547e+00	 1.0807081850e+00	-2.1302868981e-01
 1.9462613205e+00	 1.0993667861e+00	-2.7806869402e-01
 1.9356472989e+00	 1.1179490594e+00	-3.4285683106e-01
 1.9248421368e+00	 1.1364521039e+00	-4.0744339182e-01
 1.9138466387e+00	 1.1548730262e+00	-4.7192588519e-01
 2.0231061177e+00	 9.7113489269e-01	 1.7534611401e-01
 2.0138112399e+00	 9.9026550559e-01	 1.1042047846e-01
 2.0043204254e+00	 1.0093370455e+00	 4.5526659701e-02
 1.9946340798e+00	 1.0283465836e+00	-1.9286583035e-02
 1.9847526655e+00	 1.0472911903e+00	-8.3984895863e-02
 1.9746767024e+00	 1.0661679370e+00	-1.4855304455e-01
 1.9644067675e+00	 1.0849738967e+00	-2.1299993324e-01
 1.9539434956e+00	 1.1037061459e+00	-2.7736390332e-01
 1.9432875789e+00	 1.1223617662e+00	-3.4171828540e-01
 1.9324397673e+00	 1.1409378449e+00	-4.0617717390e-01
 1.9214008684e+00	 1.1594314772e+00	-4.7090139127e-01
 2.0310602143e+00	 9.7495303193e-01	 1.6971973720e-01
 2.0217287927e+00	 9.9415885924e-01	 1.0547119127e-01
 2.0122006638e+00	 1.0133053813e+00	 4.1402325347e-02
 2.0024762350e+00	 1.0323896578e+00	-2.2499694819e-02
 1.9925559707e+00	 1.0514087477e+00	-8.6261396717e-02
 1.9824403927e+00	 1.0703597106e+00	-1.4992774090e-01
 1.9721300803e+00	 1.0892396083e+00	-2.1356717613e-01
 1.9616256708e+00	 1.1080455058e+00	-2.7727698520e-01
 1.9509278590e+00	 1.1267744729e+00	-3.4118889375e-01
 1.9400373978e+00	 1.1454235858e+00	-4.0547491120e-01
 1.9289550980e+00	 1.1639899281e+00	-4.7035336989e-01
 2.0390143110e+00	 9.7877117116e-01	 1.6400799833e-01
 2.0296463454e+00	 9.9805221288e-01	 1.0036304930e-01
 2.0200809022e+00	 1.0172737171e+00	 3.7038899049e-02
 2.0103183903e+00	 1.0364327320e+00	-2.6032803434e-02
 2.0003592760e+00	 1.0555263050e+00	-8.8933402159e-02
 1.9902040830e+00	 1.0745514842e+00	-1.5176201067e-01
 1.9798533931e+00	 1.0935053199e+00	-2.1464061513e-01
 1.9693078459e+00	 1.1123848656e+00	-2.7771947897e-01
 1.9585681390e+00	 1.1311871796e+00	-3.4118282071e-01
 1.9476350283e+00	 1.1499093267e+00	-4.0525473351e-01
 1.9365093277e+00	 1.1685483791e+00	-4.7020531193e-01
 2.0469684077e+00	 9.8258931039e-01	 1.5828497017e-01
 2.0375638981e+00	 1.0019455665e+00	 9.5175086409e-02
 2.0279611406e+00	 1.0212420529e+00	 3.2519474642e-02
 2.0181605456e+00	 1.0404758062e+00	-2.9799719794e-02
 2.0081625813e+00	 1.0596438623e+00	-9.1912654886e-02
 1.9979677734e+00	 1.0787432579e+00	-1.5396661636e-01
 1.9875767059e+00	 1.0977710315e+00	-2.1613118032e-01
 1.9769900210e+00	 1.1167242254e+00	-2.7860368846e-01
 1.9662084191e+00	 1.1355998864e+00	-3.4161500713e-01
 1.9552326588e+00	 1.1543950677e+00	-4.0543553792e-01
 1.9440635574e+00	 1.1731068301e+00	-4.7038144459e-01
 2.0549225044e+00	 9.8640744962e-01	 1.5262447347e-01
 2.0454814508e+00	 1.0058389202e+00	 8.9985966202e-02
 2.0358413790e+00	 1.0252103887e+00	 2.7926668192e-02
 2.0260027009e+00	 1.0445188804e+00	-3.3714828056e-02
 2.0159658865e+00	 1.0637614196e+00	-9.5111552903e-02
 2.0057314637e+00	 1.0829350315e+00	-1.5645304312e-01
 1.9953000187e+00	 1.1020367432e+00	-2.1795057554e-01
 1.9846721962e+00	 1.1210635852e+00	-2.7984272488e-01
 1.9738486991e+00	 1.1400125931e+00	-3.4240121601e-01
 1.9628302893e+00	 1.1588808086e+00	-4.0593703813e-01
 1.9516177871e+00	 1.1776652811e+00	-4.7080162351e-01
 2.0628766011e+00	 9.9022558885e-01	 1.4710004490e-01
 2.0533990035e+00	 1.0097322738e+00	 8.4873949355e-02
 2.0437216173e+00	 1.0291787245e+00	 2.3342584377e-02
 2.0338448562e+00	 1.0485619546e+00	-3.7693120448e-02
 2.0237691918e+00	 1.0678789769e+00	-9.8443185876e-02
 2.0134951541e+00	 1.0871268051e+00	-1.5913353685e-01
 2.0030233315e+00	 1.1063024548e+00	-2.2001131881e-01
 1.9923543713e+00	 1.1254029451e+00	-2.8135054980e-01
 1.9814889792e+00	 1.1444252999e+00	-3.4345807840e-01
 1.9704279198e+00	 1.1633665496e+00	-4.0667981367e-01
 1.9591720168e+00	 1.1822237321e+00	-4.7128515868e-01
 2.0708306978e+00	 9.9404372809e-01	 1.4178490502e-01
 2.0613165562e+00	 1.0136256275e+00	 7.9916860844e-02
 2.0516018557e+00	 1.0331470603e+00	 1.8848782810e-02
 2.0416870115e+00	 1.0526050288e+00	-4.1650232163e-02
 2.0315724971e+00	 1.0719965342e+00	-1.0182137154e-01
 2.0212588444e+00	 1.0913185787e+00	-1.6192114257e-01
 2.0107466443e+00	 1.1105681664e+00	-2.2222678272e-01
 2.0000365464e+00	 1.1297423049e+00	-2.8304201815e-01
 1.9891292592e+00	 1.1488380066e+00	-3.4470313926e-01
 1.9780255504e+00	 1.1678522905e+00	-4.0758535915e-01
 1.9667262465e+00	 1.1867821831e+00	-4.7172593280e-01
 2.0787847945e+00	 9.9786186732e-01	 1.3675192607e-01
 2.0692341089e+00	 1.0175189811e+00	 7.5192057164e-02
 2.0594820941e+00	 1.0371153961e+00	 1.4526244299e-02
 2.0495291668e+00	 1.0566481030e+00	-4.5502476329e-02
 2.0393758023e+00	 1.0761140915e+00	-1.0516069221e-01
 2.0290225348e+00	 1.0955103524e+00	-1.6472974266e-01
 2.0184699571e+00	 1.1148338780e+00	-2.2451123499e-01
 2.0077187215e+00	 1.1340816647e+00	-2.8483292121e-01
 1.9967695393e+00	 1.1532507134e+00	-3.4605490347e-01
 1.9856231809e+00	 1.1723380314e+00	-4.0857613345e-01
 1.9742804762e+00	 1.1913406340e+00	-4.7206485253e-01
 2.0867388912e+00	 1.0016800066e+00	 1.3207359995e-01
 2.0771516616e+00	 1.0214123348e+00	 7.0776393480e-02
 2.0673623325e+00	 1.0410837320e+00	 1.0455337039e-02
 2.0573713221e+00	 1.0606911772e+00	-4.9166879044e-02
 2.0471791076e+00	 1.0802316489e+00	-1.0837653133e-01
 2.0367862251e+00	 1.0997021260e+00	-1.6747409531e-01
 2.0261932699e+00	 1.1190995897e+00	-2.2677987901e-01
 2.0154008967e+00	 1.1384210245e+00	-2.8664002972e-01
 2.0044098193e+00	 1.1576634201e+00	-3.4743288167e-01
 1.9932208114e+00	 1.1768237724e+00	-4.0957525362e-01
 1.9818347058e+00	 1.1958990850e+00	-4.7224459497e-01
 2.0946929879e+00	 1.0054981458e+00	 1.2782200597e-01
 2.0850692143e+00	 1.0253056884e+00	 6.6746190745e-02
 2.0752425708e+00	 1.0450520678e+00	 6.7157827602e-03
 2.0652134774e+00	 1.0647342514e+00	-5.2561214487e-02
 2.0549824128e+00	 1.0843492062e+00	-1.1138511009e-01
 2.0445499154e+00	 1.1038938996e+00	-1.7006987299e-01
 2.0339165827e+00	 1.1233653013e+00	-2.2894889446e-01
 2.0230830718e+00	 1.1427603843e+00	-2.8838113695e-01
 2.0120500994e+00	 1.1620761269e+00	-3.4875763627e-01
 2.0008184419e+00	 1.1813095133e+00	-4.1043063122e-01
 1.9893889355e+00	 1.2004575360e+00	-4.7220958182e-01
 1.9138466387e+00	 1.1548730262e+00	-4.7192588519e-01
 1.9026616668e+00	 1.1732089420e+00	-5.3595550715e-01
 1.8912881428e+00	 1.1914569792e+00	-5.9833972786e-01
 1.8797270459e+00	 1.2096142776e+00	-6.5761521201e-01
 1.8679794125e+00	 1.2276779903e+00	-7.1412213241e-01
 1.8560463358e+00	 1.2456452853e+00	-7.6824594708e-01
 1.8439289659e+00	 1.2635133463e+00	-8.2037245079e-01
 1.8316285092e+00	 1.2812793748e+00	-8.7088863902e-01
 1.8191462282e+00	 1.2989405909e+00	-9.2018360146e-01
 1.8064834412e+00	 1.3164942352e+00	-9.6864944129e-01
 1.7936415219e+00	 1.3339375697e+00	-1.0166822157e+00
 1.9214008684e+00	 1.1594314772e+00	-4.7090139127e-01
 1.9101717478e+00	 1.1778397675e+00	-5.3551015866e-01
 1.8987533309e+00	 1.1961598323e+00	-5.9804395394e-01
 1.8871466006e+00	 1.2143888002e+00	-6.5756598049e-01
 1.8753525976e+00	 1.2325238130e+00	-7.1435621209e-01
 1.8633724193e+00	 1.2505620275e+00	-7.6869612765e-01
 1.8512072204e+00	 1.2685006164e+00	-8.2086972719e-01
 1.8388582120e+00	 1.2863367699e+00	-8.7116458045e-01
 1.8263266616e+00	 1.3040676974e+00	-9.1987290442e-01
 1.8136138928e+00	 1.3216906284e+00	-9.6729266548e-01
 1.8007212846e+00	 1.3392028144e+00	-1.0137287016e+00
 1.9289550980e+00	 1.1639899281e+00	-4.7035336989e-01
 1.9176818288e+00	 1.1824705930e+00	-5.3529570340e-01
 1.9062185189e+00	 1.2008626855e+00	-5.9783767416e-01
 1.8945661553e+00	 1.2191633228e+00	-6.5751954206e-01
 1.8827257827e+00	 1.2373696358e+00	-7.1452465022e-01
 1.8706985028e+00	 1.2554787697e+00	-7.6903968945e-01
 1.8584854749e+00	 1.2734878864e+00	-8.2125588585e-01
 1.8460879148e+00	 1.2913941650e+00	-8.7137022091e-01
 1.8335070951e+00	 1.3091948039e+00	-9.1958667986e-01
 1.8207443444e+00	 1.3268870217e+00	-9.6611752386e-01
 1.8078010473e+00	 1.3444680590e+00	-1.0111845812e+00
 1.9365093277e+00	 1.1685483791e+00	-4.7020531193e-01
 1.9251919098e+00	 1.1871014185e+00	-5.3520585411e-01
 1.9136837069e+00	 1.2055655386e+00	-5.9766624733e-01
 1.9019857101e+00	 1.2239378454e+00	-6.5742505354e-01
 1.8900989678e+00	 1.2422154585e+00	-7.1457822111e-01
 1.8780245864e+00	 1.2603955120e+00	-7.6922673301e-01
 1.8657637294e+00	 1.2784751565e+00	-8.2147795281e-01
 1.8533176176e+00	 1.2964515602e+00	-8.7144700294e-01
 1.8406875285e+00	 1.3143219104e+00	-9.1925817093e-01
 1.8278747960e+00	 1.3320834150e+00	-9.6504633888e-01
 1.8148808100e+00	 1.3497333037e+00	-1.0089584310e+00
 1.9440635574e+00	 1.1731068301e+00	-4.7038144459e-01
 1.9327019908e+00	 1.1917322440e+00	-5.3518189507e-01
 1.9211488950e+00	 1.2102683917e+00	-5.9747674818e-01
 1.9094052648e+00	 1.2287123681e+00	-6.5723334325e-01
 1.8974721529e+00	 1.2470612812e+00	-7.1446935973e-01
 1.8853506699e+00	 1.2653122542e+00	-7.6920904414e-01
 1.8730419839e+00	 1.2834624265e+00	-8.2148470111e-01
 1.8605473205e+00	 1.3015089553e+00	-8.7133821672e-01
 1.8478679620e+00	 1.3194490169e+00	-9.1882260971e-01
 1.8350052476e+00	 1.3372798083e+00	-9.6400360551e-01
 1.8219605727e+00	 1.3549985483e+00	-1.0069612278e+00
 1.9516177871e+00	 1.1776652811e+00	-4.7080162351e-01
 1.9402120717e+00	 1.1963630695e+00	-5.3516687886e-01
 1.9286140830e+00	 1.2149712449e+00	-5.9721794443e-01
 1.9168248195e+00	 1.2334868907e+00	-6.5689688838e-01
 1.9048453380e+00	 1.2519071039e+00	-7.1415213885e-01
 1.8926767534e+00	 1.2702289964e+00	-7.6894007013e-01
 1.8803202384e+00	 1.2884496966e+00	-8.2122662545e-01
 1.8677770233e+00	 1.3065663505e+00	-8.7098897248e-01
 1.8550483954e+00	 1.3245761235e+00	-9.1821718655e-01
 1.8421356992e+00	 1.3424762016e+00	-9.6291595670e-01
 1.8290403354e+00	 1.3602637930e+00	-1.0051063088e+00
 1.9591720168e+00	 1.1822237321e+00	-4.7128515868e-01
 1.9477221527e+00	 1.2009938950e+00	-5.3510560227e-01
 1.9360792710e+00	 1.2196740980e+00	-5.9684027365e-01
 1.9242443742e+00	 1.2382614133e+00	-6.5636979225e-01
 1.9122185231e+00	 1.2567529266e+00	-7.1358224607e-01
 1.9000028369e+00	 1.2751457386e+00	-7.6837489586e-01
 1.8875984929e+00	 1.2934369666e+00	-8.2065591675e-01
 1.8750067261e+00	 1.3116237456e+00	-8.7034617274e-01
 1.8622288289e+00	 1.3297032300e+00	-9.1738101934e-01
 1.8492661508e+00	 1.3476725949e+00	-9.6171212895e-01
 1.8361200981e+00	 1.3655290376e+00	-1.0033093333e+00
 1.9667262465e+00	 1.1867821831e+00	-4.7172593280e-01
 1.9552322337e+00	 1.2056247205e+00	-5.3494458220e-01
 1.9435444591e+00	 1.2243769512e+00	-5.9629581996e-01
 1.9316639289e+00	 1.2430359359e+00	-6.5560776136e-01
 1.9195917082e+00	 1.2615987493e+00	-7.1271696054e-01
 1.9073289205e+00	 1.2800624809e+00	-7.6747021975e-01
 1.8948767475e+00	 1.2984242367e+00	-8.1972643655e-01
 1.8822364290e+00	 1.3166811407e+00	-8.6935848457e-01
 1.8694092624e+00	 1.3348303365e+00	-9.1625512279e-01
 1.8563966024e+00	 1.3528689882e+00	-9.6032292787e-01
 1.8431998607e+00	 1.3707942823e+00	-1.0014882437e+00
 1.9742804762e+00	 1.1913406340e+00	-4.7206485253e-01
 1.9627423147e+00	 1.2102555460e+00	-5.3463203123e-01
 1.9510096471e+00	 1.2290798043e+00	-5.9553829063e-01
 1.9390834836e+00	 1.2478104586e+00	-6.5456808227e-01
 1.9269648933e+00	 1.2664445720e+00	-7.1151512969e-01
 1.9146550040e+00	 1.2849792231e+00	-7.6618432950e-01
 1.9021550020e+00	 1.3034115067e+00	-8.1839369125e-01
 1.8894661318e+00	 1.3217385359e+00	-8.6797631159e-01
 1.8765896958e+00	 1.3399574430e+00	-9.1478237762e-01
 1.8635270540e+00	 1.3580653815e+00	-9.5868119378e-01
 1.8502796234e+00	 1.3760595269e+00	-9.9956322628e-01
 1.9818347058e+00	 1.1958990850e+00	-4.7224459497e-01
 1.9702523957e+00	 1.2148863715e+00	-5.3411783330e-01
 1.9584748352e+00	 1.2337826575e+00	-5.9452299245e-01
 1.9465030383e+00	 1.2525849812e+00	-6.5320959832e-01
 1.9343380784e+00	 1.2712903948e+00	-7.0993714561e-01
 1.9219810875e+00	 1.2898959653e+00	-7.6447707769e-01
 1.9094332565e+00	 1.3083987768e+00	-8.1661480623e-01
 1.8966958346e+00	 1.3267959310e+00	-8.6615176600e-01
 1.8837701293e+00	 1.3450845495e+00	-9.1290749976e-01
 1.8706575056e+00	 1.3632617747e+00	-9.5672176738e-01
 1.8573593861e+00	 1.3813247716e+00	-9.9745667320e-01
 1.9893889355e+00	 1.2004575360e+00	-4.7220958182e-01
 1.9777624767e+00	 1.2195171970e+00	-5.3335351913e-01
 1.9659400232e+00	 1.2384855106e+00	-5.9320680804e-01
 1.9539225930e+00	 1.2573595038e+00	-6.5149268618e-01
 1.9417112635e+00	 1.2761362175e+00	-7.0794492136e-01
 1.9293071710e+00	 1.2948127076e+00	-7.6230985725e-01
 1.9167115110e+00	 1.3133860468e+00	-8.1434849986e-01
 1.9039255374e+00	 1.3318533261e+00	-8.6383864046e-01
 1.8909505627e+00	 1.3502116560e+00	-9.1057700943e-01
 1.8777879572e+00	 1.3684581680e+00	-9.5438145544e-01
 1.8644391488e+00	 1.3865900162e+00	-9.9509314367e-01
 1.7936415219e+00	 1.3339375697e+00	-1.0166822157e+00
 1.7806196717e+00	 1.3512708146e+00	-1.0667238969e+00
 1.7674215486e+00	 1.3684882949e+00	-1.1209485087e+00
 1.7540486977e+00	 1.3855873345e+00	-1.1759476719e+00
 1.7405027179e+00	 1.4025652846e+00	-1.2250946655e+00
 1.7267852606e+00	 1.4194195247e+00	-1.2691797959e+00
 1.7128980295e+00	 1.4361474640e+00	-1.3092213820e+00
 1.6988427801e+00	 1.4527465428e+00	-1.3462312742e+00
 1.6846213184e+00	 1.4692142337e+00	-1.3812136875e+00
 1.6702355008e+00	 1.4855480428e+00	-1.4151641631e+00
 1.6556872326e+00	 1.5017455112e+00	-1.4490686577e+00
 1.8007212846e+00	 1.3392028144e+00	-1.0137287016e+00
 1.7876480353e+00	 1.3566044761e+00	-1.0615938764e+00
 1.7743978172e+00	 1.3738899163e+00	-1.1131426991e+00
 1.7609721818e+00	 1.3910564483e+00	-1.1680636480e+00
 1.7473727340e+00	 1.4081014128e+00	-1.2191124963e+00
 1.7336011319e+00	 1.4250221790e+00	-1.2644676476e+00
 1.7196590860e+00	 1.4418161459e+00	-1.3052384715e+00
 1.7055483585e+00	 1.4584807437e+00	-1.3425258215e+00
 1.6912707626e+00	 1.4750134349e+00	-1.3774207606e+00
 1.6768281620e+00	 1.4914117160e+00	-1.4110034226e+00
 1.6622224697e+00	 1.5076731181e+00	-1.4443420072e+00
 1.8078010473e+00	 1.3444680590e+00	-1.0111845812e+00
 1.7946763988e+00	 1.3619381376e+00	-1.0571528809e+00
 1.7813740859e+00	 1.3792915376e+00	-1.1063258587e+00
 1.7678956659e+00	 1.3965255620e+00	-1.1588723643e+00
 1.7542427502e+00	 1.4136375410e+00	-1.2118703476e+00
 1.7404170033e+00	 1.4306248333e+00	-1.2588274392e+00
 1.7264201424e+00	 1.4474848278e+00	-1.3006327055e+00
 1.7122539368e+00	 1.4642149446e+00	-1.3384662837e+00
 1.6979202068e+00	 1.4808126362e+00	-1.3734965996e+00
 1.6834208233e+00	 1.4972753891e+00	-1.4068791427e+00
 1.6687577069e+00	 1.5136007250e+00	-1.4397553820e+00
 1.8148808100e+00	 1.3497333037e+00	-1.0089584310e+00
 1.8017047624e+00	 1.3672717991e+00	-1.0532953222e+00
 1.7883503545e+00	 1.3846931590e+00	-1.1003803784e+00
 1.7748191500e+00	 1.4019946758e+00	-1.1504343617e+00
 1.7611127663e+00	 1.4191736692e+00	-1.2033283823e+00
 1.7472328746e+00	 1.4362274876e+00	-1.2522131130e+00
 1.7331811989e+00	 1.4531535097e+00	-1.2953544695e+00
 1.7189595151e+00	 1.4699491454e+00	-1.3340022714e+00
 1.7045696510e+00	 1.4866118374e+00	-1.3693929381e+00
 1.6900134846e+00	 1.5031390623e+00	-1.4027481919e+00
 1.6752929440e+00	 1.5195283319e+00	-1.4352739085e+00
 1.8219605727e+00	 1.3549985483e+00	-1.0069612278e+00
 1.8087331259e+00	 1.3726054606e+00	-1.0499182462e+00
 1.7953266232e+00	 1.3900947804e+00	-1.0951914840e+00
 1.7817426341e+00	 1.4074637895e+00	-1.1430429145e+00
 1.7679827825e+00	 1.4247097973e+00	-1.1937460645e+00
 1.7540487460e+00	 1.4418301419e+00	-1.2445805842e+00
 1.7399422553e+00	 1.4588221916e+00	-1.2893561577e+00
 1.7256650935e+00	 1.4756833463e+00	-1.3290853985e+00
 1.7112190951e+00	 1.4924110386e+00	-1.3650634646e+00
 1.6966061458e+00	 1.5090027354e+00	-1.3985693000e+00
 1.6818281812e+00	 1.5254559387e+00	-1.4308644335e+00
 1.8290403354e+00	 1.3602637930e+00	-1.0051063088e+00
 1.8157614895e+00	 1.3779391220e+00	-1.0469212891e+00
 1.8023028919e+00	 1.3954964017e+00	-1.0906471880e+00
 1.7886661182e+00	 1.4129329033e+00	-1.1365766081e+00
 1.7748527986e+00	 1.4302459255e+00	-1.1850133113e+00
 1.7608646173e+00	 1.4474327962e+00	-1.2358876866e+00
 1.7467033117e+00	 1.4644908735e+00	-1.2825921185e+00
 1.7323706718e+00	 1.4814175472e+00	-1.3236692278e+00
 1.7178685393e+00	 1.4982102399e+00	-1.3604637688e+00
 1.7031988071e+00	 1.5148664085e+00	-1.3943030058e+00
 1.6883634183e+00	 1.5313835456e+00	-1.4264954756e+00
 1.8361200981e+00	 1.3655290376e+00	-1.0033093333e+00
 1.8227898531e+00	 1.3832727835e+00	-1.0442066335e+00
 1.8092791605e+00	 1.4008980231e+00	-1.0866382421e+00
 1.7955896022e+00	 1.4184020170e+00	-1.1309169260e+00
 1.7817228147e+00	 1.4357820537e+00	-1.1773664013e+00
 1.7676804887e+00	 1.4530354505e+00	-1.2263227327e+00
 1.7534643682e+00	 1.4701595554e+00	-1.2750186002e+00
 1.7390762501e+00	 1.4871517480e+00	-1.3177092166e+00
 1.7245179835e+00	 1.5040094411e+00	-1.3555512878e+00
 1.7097914684e+00	 1.5207300817e+00	-1.3899116062e+00
 1.6948986554e+00	 1.5373111525e+00	-1.4221371760e+00
 1.8431998607e+00	 1.3707942823e+00	-1.0014882437e+00
 1.8298182166e+00	 1.3886064450e+00	-1.0416789652e+00
 1.8162554292e+00	 1.4062996445e+00	-1.0830580904e+00
 1.8025130863e+00	 1.4238711308e+00	-1.1259481997e+00
 1.7885928309e+00	 1.4413181819e+00	-1.1706827964e+00
 1.7744963600e+00	 1.4586381048e+00	-1.2176077320e+00
 1.7602254246e+00	 1.4758282373e+00	-1.2665936969e+00
 1.7457818285e+00	 1.4928859489e+00	-1.3111626629e+00
 1.7311674276e+00	 1.5098086423e+00	-1.3502852540e+00
 1.7163841296e+00	 1.5265937548e+00	-1.3853591046e+00
 1.7014338926e+00	 1.5432387594e+00	-1.4177612508e+00
 1.8502796234e+00	 1.3760595269e+00	-9.9956322628e-01
 1.8368465802e+00	 1.3939401065e+00	-1.0392454299e+00
 1.8232316979e+00	 1.4117012658e+00	-1.0798028218e+00
 1.8094365704e+00	 1.4293402445e+00	-1.1215575587e+00
 1.7954628470e+00	 1.4468543100e+00	-1.1648428750e+00
 1.7813122314e+00	 1.4642407591e+00	-1.2100045500e+00
 1.7669864811e+00	 1.4814969192e+00	-1.2574023679e+00
 1.7524874068e+00	 1.4986201498e+00	-1.3039886524e+00
 1.7378168718e+00	 1.5156078435e+00	-1.3446266423e+00
 1.7229767909e+00	 1.5324574279e+00	-1.3806111606e+00
 1.7079691297e+00	 1.5491663663e+00	-1.4133409428e+00
 1.8573593861e+00	 1.3813247716e+00	-9.9745667320e-01
 1.8438749438e+00	 1.3992737680e+00	-1.0368155904e+00
 1.8302079665e+00	 1.4171028872e+00	-1.0767711236e+00
 1.8163600545e+00	 1.4348093583e+00	-1.1176348803e+00
 1.8023328632e+00	 1.4523904382e+00	-1.1597298800e+00
 1.7881281027e+00	 1.4698434134e+00	-1.2033920784e+00
 1.7737475375e+00	 1.4871656011e+00	-1.2489718859e+00
 1.7591929851e+00	 1.5043543506e+00	-1.2961480052e+00
 1.7444663160e+00	 1.5214070448e+00	-1.3385381179e+00
 1.7295694522e+00	 1.5383211011e+00	-1.3756350400e+00
 1.7145043669e+00	 1.5550939732e+00	-1.4088509741e+00
 1.8644391488e+00	 1.3865900162e+00	-9.9509314367e-01
 1.8509033073e+00	 1.4046074294e+00	-1.0343013836e+00
 1.8371842352e+00	 1.4225045086e+00	-1.0738642352e+00
 1.8232835386e+00	 1.4402784720e+00	-1.1140727408e+00
 1.8092028793e+00	 1.4579265664e+00	-1.1552298669e+00
 1.7949439741e+00	 1.4754460677e+00	-1.1976521013e+00
 1.7805085939e+00	 1.4928342830e+00	-1.2416710439e+00
 1.7658985635e+00	 1.5100885515e+00	-1.2876349848e+00
 1.7511157601e+00	 1.5272062460e+00	-1.3319839857e+00
 1.7361621134e+00	 1.5441847742e+00	-1.3703995646e+00
 1.7210396040e+00	 1.5610215801e+00	-1.4042674986e+00
 1.6556872326e+00	 1.5017455112e+00	-1.4490686577e+00
 1.6409809772e+00	 1.5178015024e+00	-1.4813271134e+00
 1.6261162542e+00	 1.5337164186e+00	-1.5099409959e+00
 1.6110950846e+00	 1.5494879400e+00	-1.5352768606e+00
 1.5959195351e+00	 1.5651137861e+00	-1.5577061696e+00
 1.5805917172e+00	 1.5805917172e+00	-1.5776057713e+00
 1.5651137861e+00	 1.5959195351e+00	-1.5953584484e+00
 1.5494879400e+00	 1.6110950846e+00	-1.6113535247e+00
 1.5337164186e+00	 1.6261162542e+00	-1.6259875185e+00
 1.5178015024e+00	 1.6409809772e+00	-1.6396648313e+00
 1.5017455112e+00	 1.6556872326e+00	-1.6527984605e+00
 1.6622224697e+00	 1.5076731181e+00	-1.4443420072e+00
 1.6474581666e+00	 1.5237924846e+00	-1.4759820455e+00
 1.6325347704e+00	 1.5397702193e+00	-1.5040166016e+00
 1.6174543101e+00	 1.5556039932e+00	-1.5288117126e+00
 1.6022188605e+00	 1.5712915168e+00	-1.5507379815e+00
 1.5868305414e+00	 1.5868305414e+00	-1.5701711103e+00
 1.5712915168e+00	 1.6022188605e+00	-1.5874925056e+00
 1.5556039932e+00	 1.6174543101e+00	-1.6030899446e+00
 1.5397702193e+00	 1.6325347704e+00	-1.6173582915e+00
 1.5237924846e+00	 1.6474581666e+00	-1.6307002507e+00
 1.5076731181e+00	 1.6622224697e+00	-1.6435271460e+00
 1.6687577069e+00	 1.5136007250e+00	-1.4397553820e+00
 1.6539353561e+00	 1.5297834668e+00	-1.4708211055e+00
 1.6389532867e+00	 1.5458240200e+00	-1.4982777612e+00
 1.6238135356e+00	 1.5617200464e+00	-1.5225002387e+00
 1.6085181859e+00	 1.5774692474e+00	-1.5438676389e+00
 1.5930693657e+00	 1.5930693657e+00	-1.5627638500e+00
 1.5774692474e+00	 1.6085181859e+00	-1.5795781977e+00
 1.5617200464e+00	 1.6238135356e+00	-1.5947061607e+00
 1.5458240200e+00	 1.6389532867e+00	-1.6085501374e+00
 1.5297834668e+00	 1.6539353561e+00	-1.6215202533e+00
 1.5136007250e+00	 1.6687577069e+00	-1.6340351951e+00
 1.6752929440e+00	 1.5195283319e+00	-1.4352739085e+00
 1.6604125455e+00	 1.5357744490e+00	-1.4658193026e+00
 1.6453718029e+00	 1.5518778207e+00	-1.4927093554e+00
 1.6301727611e+00	 1.5678360995e+00	-1.5163370754e+00
 1.6148175113e+00	 1.5836469781e+00	-1.5370993146e+00
 1.5993081900e+00	 1.5993081900e+00	-1.5553973747e+00
 1.5836469781e+00	 1.6148175113e+00	-1.5716376917e+00
 1.5678360995e+00	 1.6301727611e+00	-1.5862325884e+00
 1.5518778207e+00	 1.6453718029e+00	-1.5996010814e+00
 1.5357744490e+00	 1.6604125455e+00	-1.6121697311e+00
 1.5195283319e+00	 1.6752929440e+00	-1.6243735201e+00
 1.6818281812e+00	 1.5254559387e+00	-1.4308644335e+00
 1.6668897349e+00	 1.5417654312e+00	-1.4609532022e+00
 1.6517903191e+00	 1.5579316214e+00	-1.4872976589e+00
 1.6365319865e+00	 1.5739521527e+00	-1.5103180947e+00
 1.6211168367e+00	 1.5898247087e+00	-1.5304382627e+00
 1.6055470143e+00	 1.6055470143e+00	-1.5480860024e+00
 1.5898247087e+00	 1.6211168367e+00	-1.5636939482e+00
 1.5739521527e+00	 1.6365319865e+00	-1.5777003066e+00
 1.5579316214e+00	 1.6517903191e+00	-1.5905496934e+00
 1.5417654312e+00	 1.6668897349e+00	-1.6026940145e+00
 1.5254559387e+00	 1.6818281812e+00	-1.6145933786e+00
 1.6883634183e+00	 1.5313835456e+00	-1.4264954756e+00
 1.6733669244e+00	 1.5477564134e+00	-1.4562008809e+00
 1.6582088353e+00	 1.5639854221e+00	-1.4820302983e+00
 1.6428912120e+00	 1.5800682059e+00	-1.5044403648e+00
 1.6274161620e+00	 1.5960024393e+00	-1.5238907827e+00
 1.6117858385e+00	 1.6117858385e+00	-1.5408449528e+00
 1.5960024393e+00	 1.6274161620e+00	-1.5557706933e+00
 1.5800682059e+00	 1.6428912120e+00	-1.5691410329e+00
 1.5639854221e+00	 1.6582088353e+00	-1.5814350654e+00
 1.5477564134e+00	 1.6733669244e+00	-1.5931388518e+00
 1.5313835456e+00	 1.6883634183e+00	-1.6047463562e+00
 1.6948986554e+00	 1.5373111525e+00	-1.4221371760e+00
 1.6798441138e+00	 1.5537473956e+00	-1.4515418805e+00
 1.6646273515e+00	 1.5700392228e+00	-1.4768962103e+00
 1.6492504375e+00	 1.5861842590e+00	-1.4987021116e+00
 1.6337154874e+00	 1.6021801700e+00	-1.5174641849e+00
 1.6180246628e+00	 1.6180246628e+00	-1.5336903148e+00
 1.6021801700e+00	 1.6337154874e+00	-1.5478923892e+00
 1.5861842590e+00	 1.6492504375e+00	-1.5605870967e+00
 1.5700392228e+00	 1.6646273515e+00	-1.5722967883e+00
 1.5537473956e+00	 1.6798441138e+00	-1.5835503892e+00
 1.5373111525e+00	 1.6948986554e+00	-1.5948843483e+00
 1.7014338926e+00	 1.5432387594e+00	-1.4177612508e+00
 1.6863213032e+00	 1.5597383779e+00	-1.4469571634e+00
 1.6710458677e+00	 1.5760930235e+00	-1.4718855999e+00
 1.6556096630e+00	 1.5923003122e+00	-1.4931026807e+00
 1.6400148128e+00	 1.6083579006e+00	-1.5111667549e+00
 1.6242634871e+00	 1.6242634871e+00	-1.5266390149e+00
 1.6083579006e+00	 1.6400148128e+00	-1.5400842055e+00
 1.5923003122e+00	 1.6556096630e+00	-1.5520714141e+00
 1.5760930235e+00	 1.6710458677e+00	-1.5631749287e+00
 1.5597383779e+00	 1.6863213032e+00	-1.5739751501e+00
 1.5432387594e+00	 1.7014338926e+00	-1.5850595425e+00
 1.7079691297e+00	 1.5491663663e+00	-1.4133409428e+00
 1.6927984926e+00	 1.5657293601e+00	-1.4424290679e+00
 1.6774643839e+00	 1.5821468241e+00	-1.4669898987e+00
 1.6619688885e+00	 1.5984163654e+00	-1.4876424986e+00
 1.6463141382e+00	 1.6145356313e+00	-1.5050077184e+00
 1.6305023114e+00	 1.6305023114e+00	-1.5197087852e+00
 1.6145356313e+00	 1.6463141382e+00	-1.5323719902e+00
 1.5984163654e+00	 1.6619688885e+00	-1.5436274611e+00
 1.5821468241e+00	 1.6774643839e+00	-1.5541100059e+00
 1.5657293601e+00	 1.6927984926e+00	-1.5644600141e+00
 1.5491663663e+00	 1.7079691297e+00	-1.5753243997e+00
 1.7145043669e+00	 1.5550939732e+00	-1.4088509741e+00
 1.6992756821e+00	 1.5717203423e+00	-1.4379412637e+00
 1.6838829001e+00	 1.5882006248e+00	-1.4622017239e+00
 1.6683281139e+00	 1.6045324185e+00	-1.4823230347e+00
 1.6526134636e+00	 1.6207133619e+00	-1.4989972060e+00
 1.6367411356e+00	 1.6367411356e+00	-1.5129181310e+00
 1.6207133619e+00	 1.6526134636e+00	-1.5247822406e+00
 1.6045324185e+00	 1.6683281139e+00	-1.5352892480e+00
 1.5882006248e+00	 1.6838829001e+00	-1.5451429680e+00
 1.5717203423e+00	 1.6992756821e+00	-1.5550521965e+00
 1.5550939732e+00	 1.7145043669e+00	-1.5657316358e+00
 1.7210396040e+00	 1.5610215801e+00	-1.4042674986e+00
 1.7057528715e+00	 1.5777113245e+00	-1.4334787074e+00
 1.6903014164e+00	 1.5942544255e+00	-1.4575148370e+00
 1.6746873394e+00	 1.6106484717e+00	-1.4771467632e+00
 1.6589127890e+00	 1.6268910925e+00	-1.4931462189e+00
 1.6429799599e+00	 1.6429799599e+00	-1.5062862992e+00
 1.6268910925e+00	 1.6589127890e+00	-1.5173420740e+00
 1.6106484717e+00	 1.6746873394e+00	-1.5270912927e+00
 1.5942544255e+00	 1.6903014164e+00	-1.5363151684e+00
 1.5777113245e+00	 1.7057528715e+00	-1.5457992269e+00
 1.5610215801e+00	 1.7210396040e+00	-1.5563342025e+00
 1.5017455112e+00	 1.6556872326e+00	-1.6527984605e+00
 1.4855480428e+00	 1.6702355008e+00	-1.6631421404e+00
 1.4692142337e+00	 1.6846213184e+00	-1.6688305677e+00
 1.4527465428e+00	 1.6988427801e+00	-1.6708723073e+00
 1.4361474640e+00	 1.7128980295e+00	-1.6702899768e+00
 1.4194195247e+00	 1.7267852606e+00	-1.6681200891e+00
 1.4025652846e+00	 1.7405027179e+00	-1.6654128413e+00
 1.3855873345e+00	 1.7540486977e+00	-1.6632318381e+00
 1.3684882949e+00	 1.7674215486e+00	-1.6624754370e+00
 1.3512708146e+00	 1.7806196717e+00	-1.6583021550e+00
 1.3339375697e+00	 1.7936415219e+00	-1.6481228335e+00
 1.5076731181e+00	 1.6622224697e+00	-1.6435271460e+00
 1.4914117160e+00	 1.6768281620e+00	-1.6536215155e+00
 1.4750134349e+00	 1.6912707626e+00	-1.6591929577e+00
 1.4584807437e+00	 1.7055483585e+00	-1.6613189269e+00
 1.4418161459e+00	 1.7196590860e+00	-1.6610929089e+00
 1.4250221790e+00	 1.7336011319e+00	-1.6596242230e+00
 1.4081014128e+00	 1.7473727340e+00	-1.6580377666e+00
 1.3910564483e+00	 1.7609721818e+00	-1.6574736918e+00
 1.3738899163e+00	 1.7743978172e+00	-1.6568559662e+00
 1.3566044761e+00	 1.7876480353e+00	-1.6508388913e+00
 1.3392028144e+00	 1.8007212846e+00	-1.6391787409e+00
 1.5136007250e+00	 1.6687577069e+00	-1.6340351951e+00
 1.4972753891e+00	 1.6834208233e+00	-1.6439223668e+00
 1.4808126362e+00	 1.6979202068e+00	-1.6494714914e+00
 1.4642149446e+00	 1.7122539368e+00	-1.6518214706e+00
 1.4474848278e+00	 1.7264201424e+00	-1.6521290147e+00
 1.4306248333e+00	 1.7404170033e+00	-1.6515684158e+00
 1.4136375410e+00	 1.7542427502e+00	-1.6513312619e+00
 1.3965255620e+00	 1.7678956659e+00	-1.6524017362e+00
 1.3792915376e+00	 1.7813740859e+00	-1.6501957248e+00
 1.3619381376e+00	 1.7946763988e+00	-1.6425739808e+00
 1.3444680590e+00	 1.8078010473e+00	-1.6296577114e+00
 1.5195283319e+00	 1.6752929440e+00	-1.6243735201e+00
 1.5031390623e+00	 1.6900134846e+00	-1.6340999534e+00
 1.4866118374e+00	 1.7045696510e+00	-1.6397233990e+00
 1.4699491454e+00	 1.7189595151e+00	-1.6424368514e+00
 1.4531535097e+00	 1.7331811989e+00	-1.6434526893e+00
 1.4362274876e+00	 1.7472328746e+00	-1.6440024338e+00
 1.4191736692e+00	 1.7611127663e+00	-1.6453364446e+00
 1.4019946758e+00	 1.7748191500e+00	-1.6465096031e+00
 1.3846931590e+00	 1.7883503545e+00	-1.6426380755e+00
 1.3672717991e+00	 1.8017047624e+00	-1.6336403148e+00
 1.3497333037e+00	 1.8148808100e+00	-1.6196806347e+00
 1.5254559387e+00	 1.6818281812e+00	-1.6145933786e+00
 1.5090027354e+00	 1.6966061458e+00	-1.6242098136e+00
 1.4924110386e+00	 1.7112190951e+00	-1.6300061617e+00
 1.4756833463e+00	 1.7256650935e+00	-1.6332222401e+00
 1.4588221916e+00	 1.7399422553e+00	-1.6351186271e+00
 1.4418301419e+00	 1.7540487460e+00	-1.6369764169e+00
 1.4247097973e+00	 1.7679827825e+00	-1.6398817511e+00
 1.4074637895e+00	 1.7817426341e+00	-1.6396335803e+00
 1.3900947804e+00	 1.7953266232e+00	-1.6343236880e+00
 1.3726054606e+00	 1.8087331259e+00	-1.6241682680e+00
 1.3549985483e+00	 1.8219605727e+00	-1.6093660845e+00
 1.5313835456e+00	 1.6883634183e+00	-1.6047463562e+00
 1.5148664085e+00	 1.7031988071e+00	-1.6143077495e+00
 1.4982102399e+00	 1.7178685393e+00	-1.6203774968e+00
 1.4814175472e+00	 1.7323706718e+00	-1.6242350520e+00
 1.4644908735e+00	 1.7467033117e+00	-1.6271818086e+00
 1.4474327962e+00	 1.7608646173e+00	-1.6305408645e+00
 1.4302459255e+00	 1.7748527986e+00	-1.6336328425e+00
 1.4129329033e+00	 1.7886661182e+00	-1.6319202216e+00
 1.3954964017e+00	 1.8023028919e+00	-1.6253905701e+00
 1.3779391220e+00	 1.8157614895e+00	-1.6142857256e+00
 1.3602637930e+00	 1.8290403354e+00	-1.5988303418e+00
 1.5373111525e+00	 1.6948986554e+00	-1.5948843483e+00
 1.5207300817e+00	 1.7097914684e+00	-1.6044498113e+00
 1.5040094411e+00	 1.7245179835e+00	-1.6108953439e+00
 1.4871517480e+00	 1.7390762501e+00	-1.6155329329e+00
 1.4701595554e+00	 1.7534643682e+00	-1.6196974865e+00
 1.4530354505e+00	 1.7676804887e+00	-1.6245861216e+00
 1.4357820537e+00	 1.7817228147e+00	-1.6264765826e+00
 1.4184020170e+00	 1.7955896022e+00	-1.6235133052e+00
 1.4008980231e+00	 1.8092791605e+00	-1.6159740984e+00
 1.3832727835e+00	 1.8227898531e+00	-1.6041181115e+00
 1.3655290376e+00	 1.8361200981e+00	-1.5881874194e+00
 1.5432387594e+00	 1.7014338926e+00	-1.5850595425e+00
 1.5265937548e+00	 1.7163841296e+00	-1.5946922809e+00
 1.5098086423e+00	 1.7311674276e+00	-1.6016178498e+00
 1.4928859489e+00	 1.7457818285e+00	-1.6071737452e+00
 1.4758282373e+00	 1.7602254246e+00	-1.6127211719e+00
 1.4586381048e+00	 1.7744963600e+00	-1.6179404539e+00
 1.4413181819e+00	 1.7885928309e+00	-1.6185606494e+00
 1.4238711308e+00	 1.8025130863e+00	-1.6145538668e+00
 1.4062996445e+00	 1.8162554292e+00	-1.6062070489e+00
 1.3886064450e+00	 1.8298182166e+00	-1.5937884151e+00
 1.3707942823e+00	 1.8431998607e+00	-1.5775490853e+00
 1.5491663663e+00	 1.7079691297e+00	-1.5753243997e+00
 1.5324574279e+00	 1.7229767909e+00	-1.5850916560e+00
 1.5156078435e+00	 1.7378168718e+00	-1.5926033531e+00
 1.4986201498e+00	 1.7524874068e+00	-1.5992155533e+00
 1.4814969192e+00	 1.7669864811e+00	-1.6062235646e+00
 1.4642407591e+00	 1.7813122314e+00	-1.6104805525e+00
 1.4468543100e+00	 1.7954628470e+00	-1.6100298978e+00
 1.4293402445e+00	 1.8094365704e+00	-1.6051802326e+00
 1.4117012658e+00	 1.8232316979e+00	-1.5962196274e+00
 1.3939401065e+00	 1.8368465802e+00	-1.5834172195e+00
 1.3760595269e+00	 1.8502796234e+00	-1.5670248865e+00
 1.5550939732e+00	 1.7145043669e+00	-1.5657316358e+00
 1.5383211011e+00	 1.7295694522e+00	-1.5757046324e+00
 1.5214070448e+00	 1.7444663160e+00	-1.5839103694e+00
 1.5043543506e+00	 1.7591929851e+00	-1.5917166089e+00
 1.4871656011e+00	 1.7737475375e+00	-1.5992063513e+00
 1.4698434134e+00	 1.7881281027e+00	-1.6023532473e+00
 1.4523904382e+00	 1.8023328632e+00	-1.6010263943e+00
 1.4348093583e+00	 1.8163600545e+00	-1.5955280522e+00
 1.4171028872e+00	 1.8302079665e+00	-1.5861395001e+00
 1.3992737680e+00	 1.8438749438e+00	-1.5731227278e+00
 1.3813247716e+00	 1.8573593861e+00	-1.5567221733e+00
 1.5610215801e+00	 1.7210396040e+00	-1.5563342025e+00
 1.5441847742e+00	 1.7361621134e+00	-1.5665880878e+00
 1.5272062460e+00	 1.7511157601e+00	-1.5755975745e+00
 1.5100885515e+00	 1.7658985635e+00	-1.5847144574e+00
 1.4928342830e+00	 1.7805085939e+00	-1.5914813581e+00
 1.4754460677e+00	 1.7949439741e+00	-1.5937025305e+00
 1.4579265664e+00	 1.8092028793e+00	-1.5916894515e+00
 1.4402784720e+00	 1.8232835386e+00	-1.5857303313e+00
 1.4225045086e+00	 1.8371842352e+00	-1.5760918232e+00
 1.4046074294e+00	 1.8509033073e+00	-1.5630207911e+00
 1.3865900162e+00	 1.8644391488e+00	-1.5467461223e+00
 1.3339375697e+00	 1.7936415219e+00	-1.6481228335e+00
 1.3164942352e+00	 1.8064834412e+00	-1.6335987378e+00
 1.2989405909e+00	 1.8191462282e+00	-1.6165802451e+00
 1.2812793748e+00	 1.8316285092e+00	-1.5973456467e+00
 1.2635133463e+00	 1.8439289659e+00	-1.5761650402e+00
 1.2456452853e+00	 1.8560463358e+00	-1.5533015743e+00
 1.2276779903e+00	 1.8679794125e+00	-1.5290126841e+00
 1.2096142776e+00	 1.8797270459e+00	-1.5035513093e+00
 1.1914569792e+00	 1.8912881428e+00	-1.4771670879e+00
 1.1732089420e+00	 1.9026616668e+00	-1.4501158077e+00
 1.1548730262e+00	 1.9138466387e+00	-1.4228872171e+00
 1.3392028144e+00	 1.8007212846e+00	-1.6391787409e+00
 1.3216906284e+00	 1.8136138928e+00	-1.6236104558e+00
 1.3040676974e+00	 1.8263266616e+00	-1.6059802009e+00
 1.2863367699e+00	 1.8388582120e+00	-1.5865095677e+00
 1.2685006164e+00	 1.8512072204e+00	-1.5654096590e+00
 1.2505620275e+00	 1.8633724193e+00	-1.5428824730e+00
 1.2325238130e+00	 1.8753525976e+00	-1.5191222785e+00
 1.2143888002e+00	 1.8871466006e+00	-1.4943169739e+00
 1.1961598323e+00	 1.8987533309e+00	-1.4686494233e+00
 1.1778397675e+00	 1.9101717478e+00	-1.4422987602e+00
 1.1594314772e+00	 1.9214008684e+00	-1.4155689391e+00
 1.3444680590e+00	 1.8078010473e+00	-1.6296577114e+00
 1.3268870217e+00	 1.8207443444e+00	-1.6132309430e+00
 1.3091948039e+00	 1.8335070951e+00	-1.5951206652e+00
 1.2913941650e+00	 1.8460879148e+00	-1.5754972915e+00
 1.2734878864e+00	 1.8584854749e+00	-1.5545186291e+00
 1.2554787697e+00	 1.8706985028e+00	-1.5323313926e+00
 1.2373696358e+00	 1.8827257827e+00	-1.5090727120e+00
 1.2191633228e+00	 1.8945661553e+00	-1.4848716236e+00
 1.2008626855e+00	 1.9062185189e+00	-1.4598505386e+00
 1.1824705930e+00	 1.9176818288e+00	-1.4341266799e+00
 1.1639899281e+00	 1.9289550980e+00	-1.4078621377e+00
 1.3497333037e+00	 1.8148808100e+00	-1.6196806347e+00
 1.3320834150e+00	 1.8278747960e+00	-1.6025695004e+00
 1.3143219104e+00	 1.8406875285e+00	-1.5841015889e+00
 1.2964515602e+00	 1.8533176176e+00	-1.5644015856e+00
 1.2784751565e+00	 1.8657637294e+00	-1.5435796267e+00
 1.2603955120e+00	 1.8780245864e+00	-1.5217329363e+00
 1.2422154585e+00	 1.8900989678e+00	-1.4989474569e+00
 1.2239378454e+00	 1.9019857101e+00	-1.4752994647e+00
 1.2055655386e+00	 1.9136837069e+00	-1.4508571611e+00
 1.1871014185e+00	 1.9251919098e+00	-1.4256822344e+00
 1.1685483791e+00	 1.9365093277e+00	-1.3998437106e+00
 1.3549985483e+00	 1.8219605727e+00	-1.6093660845e+00
 1.3372798083e+00	 1.8350052476e+00	-1.5917333078e+00
 1.3194490169e+00	 1.8478679620e+00	-1.5730209625e+00
 1.3015089553e+00	 1.8605473205e+00	-1.5533133842e+00
 1.2834624265e+00	 1.8730419839e+00	-1.5326785910e+00
 1.2653122542e+00	 1.8853506699e+00	-1.5111700353e+00
 1.2470612812e+00	 1.8974721529e+00	-1.4888283489e+00
 1.2287123681e+00	 1.9094052648e+00	-1.4656830736e+00
 1.2102683917e+00	 1.9211488950e+00	-1.4417543682e+00
 1.1917322440e+00	 1.9327019908e+00	-1.4170546839e+00
 1.1731068301e+00	 1.9440635574e+00	-1.3915914254e+00
 1.3602637930e+00	 1.8290403354e+00	-1.5988303418e+00
 1.3424762016e+00	 1.8421356992e+00	-1.5808274436e+00
 1.3245761235e+00	 1.8550483954e+00	-1.5619748329e+00
 1.3065663505e+00	 1.8677770233e+00	-1.5423218035e+00
 1.2884496966e+00	 1.8803202384e+00	-1.5218997369e+00
 1.2702289964e+00	 1.8926767534e+00	-1.5007239601e+00
 1.2519071039e+00	 1.9048453380e+00	-1.4787955975e+00
 1.2334868907e+00	 1.9168248195e+00	-1.4561034079e+00
 1.2149712449e+00	 1.9286140830e+00	-1.4326255980e+00
 1.1963630695e+00	 1.9402120717e+00	-1.4083316039e+00
 1.1776652811e+00	 1.9516177871e+00	-1.3831838332e+00
 1.3655290376e+00	 1.8361200981e+00	-1.5881874194e+00
 1.3476725949e+00	 1.8492661508e+00	-1.5699549054e+00
 1.3297032300e+00	 1.8622288289e+00	-1.5510573205e+00
 1.3116237456e+00	 1.8750067261e+00	-1.5315141561e+00
 1.2934369666e+00	 1.8875984929e+00	-1.5113255679e+00
 1.2751457386e+00	 1.9000028369e+00	-1.4904743325e+00
 1.2567529266e+00	 1.9122185231e+00	-1.4689277974e+00
 1.2382614133e+00	 1.9242443742e+00	-1.4466398165e+00
 1.2196740980e+00	 1.9360792710e+00	-1.4235526608e+00
 1.2009938950e+00	 1.9477221527e+00	-1.3995988973e+00
 1.1822237321e+00	 1.9591720168e+00	-1.3747032276e+00
 1.3707942823e+00	 1.8431998607e+00	-1.5775490853e+00
 1.3528689882e+00	 1.8563966024e+00	-1.5592166300e+00
 1.3348303365e+00	 1.8694092624e+00	-1.5403606371e+00
 1.3166811407e+00	 1.8822364290e+00	-1.5209759662e+00
 1.2984242367e+00	 1.8948767475e+00	-1.5010368892e+00
 1.2800624809e+00	 1.9073289205e+00	-1.4804991370e+00
 1.2615987493e+00	 1.9195917082e+00	-1.4593019396e+00
 1.2430359359e+00	 1.9316639289e+00	-1.4373700510e+00
 1.2243769512e+00	 1.9435444591e+00	-1.4146157499e+00
 1.2056247205e+00	 1.9552322337e+00	-1.3909408062e+00
 1.1867821831e+00	 1.9667262465e+00	-1.3662384075e+00
 1.3760595269e+00	 1.8502796234e+00	-1.5670248865e+00
 1.3580653815e+00	 1.8635270540e+00	-1.5487115142e+00
 1.3399574430e+00	 1.8765896958e+00	-1.5299751029e+00
 1.3217385359e+00	 1.8894661318e+00	-1.5107909847e+00
 1.3034115067e+00	 1.9021550020e+00	-1.4911128216e+00
 1.2849792231e+00	 1.9146550040e+00	-1.4708747338e+00
 1.2664445720e+00	 1.9269648933e+00	-1.4499934227e+00
 1.2478104586e+00	 1.9390834836e+00	-1.4283702770e+00
 1.2290798043e+00	 1.9510096471e+00	-1.4058934537e+00
 1.2102555460e+00	 1.9627423147e+00	-1.3824399246e+00
 1.1913406340e+00	 1.9742804762e+00	-1.3578774817e+00
 1.3813247716e+00	 1.8573593861e+00	-1.5567221733e+00
 1.3632617747e+00	 1.8706575056e+00	-1.5385364344e+00
 1.3450845495e+00	 1.8837701293e+00	-1.5199891639e+00
 1.3267959310e+00	 1.8966958346e+00	-1.5010412045e+00
 1.3083987768e+00	 1.9094332565e+00	-1.4816308142e+00
 1.2898959653e+00	 1.9219810875e+00	-1.4616758703e+00
 1.2712903948e+00	 1.9343380784e+00	-1.4410760650e+00
 1.2525849812e+00	 1.9465030383e+00	-1.4197150856e+00
 1.2337826575e+00	 1.9584748352e+00	-1.3974627670e+00
 1.2148863715e+00	 1.9702523957e+00	-1.3741772106e+00
 1.1958990850e+00	 1.9818347058e+00	-1.3497068576e+00
 1.3865900162e+00	 1.8644391488e+00	-1.5467461223e+00
 1.3684581680e+00	 1.8777879572e+00	-1.5287862678e+00
 1.3502116560e+00	 1.8909505627e+00	-1.5104894102e+00
 1.3318533261e+00	 1.9039255374e+00	-1.4918068758e+00
 1.3133860468e+00	 1.9167115110e+00	-1.4726666593e+00
 1.2948127076e+00	 1.9293071710e+00	-1.4529756945e+00
 1.2761362175e+00	 1.9417112635e+00	-1.4326221161e+00
 1.2573595038e+00	 1.9539225930e+00	-1.4114775047e+00
 1.2384855106e+00	 1.9659400232e+00	-1.3893991035e+00
 1.2195171970e+00	 1.9777624767e+00	-1.3662319988e+00
 1.2004575360e+00	 1.9893889355e+00	-1.3418112558e+00
 1.1548730262e+00	 1.9138466387e+00	-1.4228872171e+00
 1.1364521039e+00	 1.9248421368e+00	-1.3953940011e+00
 1.1179490594e+00	 1.9356472989e+00	-1.3672925651e+00
 1.0993667861e+00	 1.9462613205e+00	-1.3383832535e+00
 1.0807081850e+00	 1.9566834547e+00	-1.3084609500e+00
 1.0619761634e+00	 1.9669130120e+00	-1.2773172057e+00
 1.0431736330e+00	 1.9769493602e+00	-1.2447423566e+00
 1.0243035093e+00	 1.9867919245e+00	-1.2105276072e+00
 1.0053687097e+00	 1.9964401871e+00	-1.1744670531e+00
 9.8637215194e-01	 2.0058936872e+00	-1.1363596223e+00
 9.6731675346e-01	 2.0151520210e+00	-1.0960109116e+00
 1.1594314772e+00	 1.9214008684e+00	-1.4155689391e+00
 1.1409378449e+00	 1.9324397673e+00	-1.3883777103e+00
 1.1223617662e+00	 1.9432875789e+00	-1.3603672487e+00
 1.1037061459e+00	 1.9539434956e+00	-1.3313865017e+00
 1.0849738967e+00	 1.9644067675e+00	-1.3012789040e+00
 1.0661679370e+00	 1.9746767024e+00	-1.2698845368e+00
 1.0472911903e+00	 1.9847526655e+00	-1.2370422755e+00
 1.0283465836e+00	 1.9946340798e+00	-1.2025918986e+00
 1.0093370455e+00	 2.0043204254e+00	-1.1663761342e+00
 9.9026550559e-01	 2.0138112399e+00	-1.1282426194e+00
 9.7113489269e-01	 2.0231061177e+00	-1.0880457506e+00
 1.1639899281e+00	 1.9289550980e+00	-1.4078621377e+00
 1.1454235858e+00	 1.9400373978e+00	-1.3809372849e+00
 1.1267744729e+00	 1.9509278590e+00	-1.3530045156e+00
 1.1080455058e+00	 1.9616256708e+00	-1.3239576113e+00
 1.0892396083e+00	 1.9721300803e+00	-1.2936847456e+00
 1.0703597106e+00	 1.9824403927e+00	-1.2620706843e+00
 1.0514087477e+00	 1.9925559707e+00	-1.2289989713e+00
 1.0323896578e+00	 2.0024762350e+00	-1.1943540733e+00
 1.0133053813e+00	 2.0122006638e+00	-1.1580234583e+00
 9.9415885924e-01	 2.0217287927e+00	-1.1198995815e+00
 9.7495303193e-01	 2.0310602143e+00	-1.0798817589e+00
 1.1685483791e+00	 1.9365093277e+00	-1.3998437106e+00
 1.1499093267e+00	 1.9476350283e+00	-1.3731519952e+00
 1.1311871796e+00	 1.9585681390e+00	-1.3452853579e+00
 1.1123848656e+00	 1.9693078459e+00	-1.3161786798e+00
 1.0935053199e+00	 1.9798533931e+00	-1.2857610962e+00
 1.0745514842e+00	 1.9902040830e+00	-1.2539582465e+00
 1.0555263050e+00	 2.0003592760e+00	-1.2206945080e+00
 1.0364327320e+00	 2.0103183903e+00	-1.1858951853e+00
 1.0172737171e+00	 2.0200809022e+00	-1.1494886298e+00
 9.9805221288e-01	 2.0296463454e+00	-1.1114082614e+00
 9.7877117116e-01	 2.0390143110e+00	-1.0715944727e+00
 1.1731068301e+00	 1.9440635574e+00	-1.3915914254e+00
 1.1543950677e+00	 1.9552326588e+00	-1.3651019705e+00
 1.1355998864e+00	 1.9662084191e+00	-1.3372916283e+00
 1.1167242254e+00	 1.9769900210e+00	-1.3081326783e+00
 1.0977710315e+00	 1.9875767059e+00	-1.2775914734e+00
 1.0787432579e+00	 1.9979677734e+00	-1.2456307494e+00
 1.0596438623e+00	 2.0081625813e+00	-1.2122119161e+00
 1.0404758062e+00	 2.0181605456e+00	-1.1772973008e+00
 1.0212420529e+00	 2.0279611406e+00	-1.1408523166e+00
 1.0019455665e+00	 2.0375638981e+00	-1.1028475304e+00
 9.8258931039e-01	 2.0469684077e+00	-1.0632606054e+00
 1.1776652811e+00	 1.9516177871e+00	-1.3831838332e+00
 1.1588808086e+00	 1.9628302893e+00	-1.3568681063e+00
 1.1400125931e+00	 1.9738486991e+00	-1.3291059510e+00
 1.1210635852e+00	 1.9846721962e+00	-1.2999033655e+00
 1.1020367432e+00	 1.9953000187e+00	-1.2692602084e+00
 1.0829350315e+00	 2.0057314637e+00	-1.2371725676e+00
 1.0637614196e+00	 2.0159658865e+00	-1.2036351175e+00
 1.0445188804e+00	 2.0260027009e+00	-1.1686434257e+00
 1.0252103887e+00	 2.0358413790e+00	-1.1321961806e+00
 1.0058389202e+00	 2.0454814508e+00	-1.0942973123e+00
 9.8640744962e-01	 2.0549225044e+00	-1.0549579836e+00
 1.1822237321e+00	 1.9591720168e+00	-1.3747032276e+00
 1.1633665496e+00	 1.9704279198e+00	-1.3485319712e+00
 1.1444252999e+00	 1.9814889792e+00	-1.3208116327e+00
 1.1254029451e+00	 1.9923543713e+00	-1.2915752024e+00
 1.1063024548e+00	 2.0030233315e+00	-1.2608523646e+00
 1.0871268051e+00	 2.0134951541e+00	-1.2286688460e+00
 1.0678789769e+00	 2.0237691918e+00	-1.1950488496e+00
 1.0485619546e+00	 2.0338448562e+00	-1.1600174339e+00
 1.0291787245e+00	 2.0437216173e+00	-1.1236028082e+00
 1.0097322738e+00	 2.0533990035e+00	-1.0858385163e+00
 9.9022558885e-01	 2.0628766011e+00	-1.0467654839e+00
 1.1867821831e+00	 1.9667262465e+00	-1.3662384075e+00
 1.1678522905e+00	 1.9780255504e+00	-1.3401757143e+00
 1.1488380066e+00	 1.9891292592e+00	-1.3124925730e+00
 1.1297423049e+00	 2.0000365464e+00	-1.2832332670e+00
 1.1105681664e+00	 2.0107466443e+00	-1.2524536551e+00
 1.0913185787e+00	 2.0212588444e+00	-1.2202054207e+00
 1.0719965342e+00	 2.0315724971e+00	-1.1865385901e+00
 1.0526050288e+00	 2.0416870115e+00	-1.1515039944e+00
 1.0331470603e+00	 2.0516018557e+00	-1.1151556414e+00
 1.0136256275e+00	 2.0613165562e+00	-1.0775529711e+00
 9.9404372809e-01	 2.0708306978e+00	-1.0387629687e+00
 1.1913406340e+00	 1.9742804762e+00	-1.3578774817e+00
 1.1723380314e+00	 1.9856231809e+00	-1.3318819722e+00
 1.1532507134e+00	 1.9967695393e+00	-1.3042331763e+00
 1.1340816647e+00	 2.0077187215e+00	-1.2749631685e+00
 1.1148338780e+00	 2.0184699571e+00	-1.2441503613e+00
 1.0955103524e+00	 2.0290225348e+00	-1.2118687408e+00
 1.0761140915e+00	 2.0393758023e+00	-1.1781904816e+00
 1.0566481030e+00	 2.0495291668e+00	-1.1431884990e+00
 1.0371153961e+00	 2.0594820941e+00	-1.1069389076e+00
 1.0175189811e+00	 2.0692341089e+00	-1.0695233580e+00
 9.9786186732e-01	 2.0787847945e+00	-1.0310312229e+00
 1.1958990850e+00	 1.9818347058e+00	-1.3497068576e+00
 1.1768237724e+00	 1.9932208114e+00	-1.3237338221e+00
 1.1576634201e+00	 2.0044098193e+00	-1.2961182619e+00
 1.1384210245e+00	 2.0154008967e+00	-1.2668509626e+00
 1.1190995897e+00	 2.0261932699e+00	-1.2360292506e+00
 1.0997021260e+00	 2.0367862251e+00	-1.2037457899e+00
 1.0802316489e+00	 2.0471791076e+00	-1.1700912562e+00
 1.0606911772e+00	 2.0573713221e+00	-1.1351569900e+00
 1.0410837320e+00	 2.0673623325e+00	-1.0990375511e+00
 1.0214123348e+00	 2.0771516616e+00	-1.0618331444e+00
 1.0016800066e+00	 2.0867388912e+00	-1.0236518898e+00
 1.2004575360e+00	 1.9893889355e+00	-1.3418112558e+00
 1.1813095133e+00	 2.0008184419e+00	-1.3158257737e+00
 1.1620761269e+00	 2.0120500994e+00	-1.2882329763e+00
 1.1427603843e+00	 2.0230830718e+00	-1.2589830656e+00
 1.1233653013e+00	 2.0339165827e+00	-1.2281774945e+00
 1.1038938996e+00	 2.0445499154e+00	-1.1959240068e+00
 1.0843492062e+00	 2.0549824128e+00	-1.1623281598e+00
 1.0647342514e+00	 2.0652134774e+00	-1.1274960880e+00
 1.0450520678e+00	 2.0752425708e+00	-1.0915371628e+00
 1.0253056884e+00	 2.0850692143e+00	-1.0545665174e+00
 1.0054981458e+00	 2.0946929879e+00	-1.0167074076e+00
 9.6731675346e-01	 2.0151520210e+00	-1.0960109116e+00
 9.4820217558e-01	 2.0242163646e+00	-1.0547148561e+00
 9.2903456551e-01	 2.0330848350e+00	-1.0138874160e+00
 9.0981683097e-01	 2.0417571950e+00	-9.7349941924e-01
 8.9055187374e-01	 2.0502332634e+00	-9.3351906324e-01
 8.7124258838e-01	 2.0585129138e+00	-8.9391293660e-01
 8.5189186097e-01	 2.0665960749e+00	-8.5464687196e-01
 8.3250256787e-01	 2.0744827292e+00	-8.1568662156e-01
 8.1307757453e-01	 2.0821729134e+00	-7.7699835103e-01
 7.9361973424e-01	 2.0896667173e+00	-7.3854894814e-01
 7.7413188700e-01	 2.0969642834e+00	-7.0030614600e-01
 9.7113489269e-01	 2.0231061177e+00	-1.0880457506e+00
 9.5194486680e-01	 2.0322062396e+00	-1.0470445612e+00
 9.3270159940e-01	 2.0411097151e+00	-1.0065682655e+00
 9.1340800969e-01	 2.0498163062e+00	-9.6655953514e-01
 8.9406701088e-01	 2.0583258308e+00	-9.2695928721e-01
 8.7468150897e-01	 2.0666381623e+00	-8.8770778339e-01
 8.5525440144e-01	 2.0747532287e+00	-8.4874554960e-01
 8.3578857600e-01	 2.0826710128e+00	-8.1001410885e-01
 8.1628690940e-01	 2.0903915513e+00	-7.7145652184e-01
 7.9675226620e-01	 2.0979149343e+00	-7.3301773230e-01
 7.7718749760e-01	 2.1052413049e+00	-6.9464471623e-01
 9.7495303193e-01	 2.0310602143e+00	-1.0798817589e+00
 9.5568755803e-01	 2.0401961146e+00	-1.0391918438e+00
 9.3636863330e-01	 2.0491345952e+00	-9.9907450074e-01
 9.1699918840e-01	 2.0578754174e+00	-9.5944708145e-01
 8.9758214802e-01	 2.0664183983e+00	-9.2022603240e-01
 8.7812042957e-01	 2.0747634107e+00	-8.8132807033e-01
 8.5861694191e-01	 2.0829103825e+00	-8.4267116814e-01
 8.3907458413e-01	 2.0908592964e+00	-8.0417534387e-01
 8.1949624426e-01	 2.0986101891e+00	-7.6576324692e-01
 7.9988479815e-01	 2.1061631513e+00	-7.2736053859e-01
 7.8024310820e-01	 2.1135183265e+00	-6.8889606584e-01
 9.7877117116e-01	 2.0390143110e+00	-1.0715944727e+00
 9.5943024926e-01	 2.0481859895e+00	-1.0312296276e+00
 9.4003566719e-01	 2.0571594753e+00	-9.9147595567e-01
 9.2059036712e-01	 2.0659345285e+00	-9.5222828678e-01
 9.0109728516e-01	 2.0745109657e+00	-9.1338136972e-01
 8.8155935017e-01	 2.0828886591e+00	-8.7483112307e-01
 8.6197948239e-01	 2.0910675363e+00	-8.3647568666e-01
 8.4236059225e-01	 2.0990475800e+00	-7.9821626561e-01
 8.2270557913e-01	 2.1068288270e+00	-7.5995776113e-01
 8.0301733011e-01	 2.1144113683e+00	-7.2160918485e-01
 7.8329871880e-01	 2.1217953480e+00	-6.8308385566e-01
 9.8258931039e-01	 2.0469684077e+00	-1.0632606054e+00
 9.6317294048e-01	 2.0561758645e+00	-1.0232320751e+00
 9.4370270109e-01	 2.0651843554e+00	-9.8384376817e-01
 9.2418154583e-01	 2.0739936397e+00	-9.4497075289e-01
 9.0461242230e-01	 2.0826035331e+00	-9.0648881659e-01
 8.8499827076e-01	 2.0910139075e+00	-8.6827579136e-01
 8.6534202286e-01	 2.0992246901e+00	-8.3021267027e-01
 8.4564660038e-01	 2.1072358636e+00	-7.9218450561e-01
 8.2591491400e-01	 2.1150474649e+00	-7.5408108308e-01
 8.0614986206e-01	 2.1226595853e+00	-7.1579736873e-01
 7.8635432940e-01	 2.1300723696e+00	-6.7723372739e-01
 9.8640744962e-01	 2.0549225044e+00	-1.0549579836e+00
 9.6691563171e-01	 2.0641657395e+00	-1.0152745263e+00
 9.4736973498e-01	 2.0732092355e+00	-9.7625032160e-01
 9.2777272455e-01	 2.0820527509e+00	-9.3774339874e-01
 9.0812755944e-01	 2.0906961006e+00	-8.9961328333e-01
 8.8843719136e-01	 2.0991391559e+00	-8.6172239761e-01
 8.6870456333e-01	 2.1073818440e+00	-8.2393724073e-01
 8.4893260851e-01	 2.1154241471e+00	-7.8612934028e-01
 8.2912424886e-01	 2.1232661027e+00	-7.4817596898e-01
 8.0928239402e-01	 2.1309078023e+00	-7.0996062287e-01
 7.8940994000e-01	 2.1383493911e+00	-6.7137325994e-01
 9.9022558885e-01	 2.0628766011e+00	-1.0467654839e+00
 9.7065832294e-01	 2.0721556144e+00	-1.0074334378e+00
 9.5103676888e-01	 2.0812341156e+00	-9.6876918651e-01
 9.3136390326e-01	 2.0901118620e+00	-9.3061640467e-01
 9.1164269658e-01	 2.0987886680e+00	-8.9282101960e-01
 8.9187611195e-01	 2.1072644043e+00	-8.5523268543e-01
 8.7206710381e-01	 2.1155389978e+00	-8.1770602683e-01
 8.5221861663e-01	 2.1236124307e+00	-7.8010164316e-01
 8.3233358373e-01	 2.1314847406e+00	-7.4228686651e-01
 8.1241492597e-01	 2.1391560192e+00	-7.0413627011e-01
 7.9246555060e-01	 2.1466264126e+00	-6.6553192577e-01
 9.9404372809e-01	 2.0708306978e+00	-1.0387629687e+00
 9.7440101416e-01	 2.0801454894e+00	-9.9978632201e-01
 9.5470380277e-01	 2.0892589957e+00	-9.6147506214e-01
 9.3495508198e-01	 2.0981709732e+00	-9.2366115634e-01
 9.1515783372e-01	 2.1068812354e+00	-8.8617956065e-01
 8.9531503255e-01	 2.1153896527e+00	-8.4886976802e-01
 8.7542964428e-01	 2.1236961516e+00	-8.1157711487e-01
 8.5550462476e-01	 2.1318007143e+00	-7.7415383708e-01
 8.3554291859e-01	 2.1397033784e+00	-7.3645986858e-01
 8.1554745792e-01	 2.1474042362e+00	-6.9836337873e-01
 7.9552116120e-01	 2.1549034342e+00	-6.5974104736e-01
 9.9786186732e-01	 2.0787847945e+00	-1.0310312229e+00
 9.7814370539e-01	 2.0881353644e+00	-9.9241168575e-01
 9.5837083667e-01	 2.0972838758e+00	-9.5444371801e-01
 9.3854626069e-01	 2.1062300844e+00	-9.1695018873e-01
 9.1867297086e-01	 2.1149738029e+00	-8.7975767364e-01
 8.9875395314e-01	 2.1235149012e+00	-8.4269807666e-01
 8.7879218475e-01	 2.1318533054e+00	-8.0560999904e-01
 8.5879063289e-01	 2.1399889979e+00	-7.6833984642e-01
 8.3875225346e-01	 2.1479220163e+00	-7.3074266716e-01
 8.1867998988e-01	 2.1556524532e+00	-6.9268271766e-01
 7.9857677180e-01	 2.1631804557e+00	-6.5403375357e-01
 1.0016800066e+00	 2.0867388912e+00	-1.0236518898e+00
 9.8188639661e-01	 2.0961252394e+00	-9.8538896945e-01
 9.6203787056e-01	 2.1053087559e+00	-9.4775193534e-01
 9.4213743941e-01	 2.1142891955e+00	-9.1055713006e-01
 9.2218810800e-01	 2.1230663703e+00	-8.7362530380e-01
 9.0219287374e-01	 2.1316401496e+00	-8.3678330901e-01
 8.8215472523e-01	 2.1400104593e+00	-7.9986553174e-01
 8.6207664101e-01	 2.1481772815e+00	-7.6271504923e-01
 8.4196158833e-01	 2.1561406541e+00	-7.2518450711e-01
 8.2181252183e-01	 2.1639006702e+00	-6.8713671168e-01
 8.0163238240e-01	 2.1714574772e+00	-6.4844493614e-01
 1.0054981458e+00	 2.0946929879e+00	-1.0167074076e+00
 9.8562908784e-01	 2.1041151143e+00	-9.7879848590e-01
 9.6570490446e-01	 2.1133336360e+00	-9.4147744846e-01
 9.4572861812e-01	 2.1223483067e+00	-9.0455664562e-01
 9.2570324514e-01	 2.1311589378e+00	-8.6785352061e-01
 9.0563179433e-01	 2.1397653980e+00	-8.3119237745e-01
 8.8551726570e-01	 2.1481676131e+00	-7.9440587392e-01
 8.6536264914e-01	 2.1563655651e+00	-7.5733622936e-01
 8.4517092319e-01	 2.1643592920e+00	-7.1983613988e-01
 8.2494505378e-01	 2.1721488872e+00	-6.8176939670e-01
 8.0468799300e-01	 2.1797344988e+00	-6.4301120615e-01
 7.7413188700e-01	 2.0969642834e+00	-7.0030614600e-01
 7.5462017753e-01	 2.1040646156e+00	-6.6233435336e-01
 7.3508410348e-01	 2.1109692158e+00	-6.2457032856e-01
 7.1552645584e-01	 2.1176783796e+00	-5.8682574190e-01
 6.9595000784e-01	 2.1241924524e+00	-5.4893212775e-01
 6.7635751393e-01	 2.1305118294e+00	-5.1073999019e-01
 6.5675170875e-01	 2.1366369545e+00	-4.7211773509e-01
 6.3713530613e-01	 2.1425683196e+00	-4.3295044131e-01
 6.1751099811e-01	 2.1483064638e+00	-3.9313848513e-01
 5.9788145400e-01	 2.1538519729e+00	-3.5259603344e-01
 5.7824931944e-01	 2.1592054782e+00	-3.1330398005e-01
 7.7718749760e-01	 2.1052413049e+00	-6.9464471623e-01
 7.5759877259e-01	 2.1123696632e+00	-6.5649339282e-01
 7.3798558683e-01	 2.1193015169e+00	-6.1861923630e-01
 7.1835074232e-01	 2.1260371626e+00	-5.8085429841e-01
 6.9869702325e-01	 2.1325769474e+00	-5.4304956598e-01
 6.7902719493e-01	 2.1389212680e+00	-5.0507402667e-01
 6.5934400280e-01	 2.1450705698e+00	-4.6681355481e-01
 6.3965017140e-01	 2.1510253468e+00	-4.2816963041e-01
 6.1994840339e-01	 2.1567861403e+00	-3.8905790610e-01
 6.0024137863e-01	 2.1623535384e+00	-3.4940663751e-01
 5.8053175320e-01	 2.1677281748e+00	-3.1034691137e-01
 7.8024310820e-01	 2.1135183265e+00	-6.8889606584e-01
 7.6057736764e-01	 2.1206747107e+00	-6.5060955224e-01
 7.4088707018e-01	 2.1276338179e+00	-6.1266468575e-01
 7.2117502881e-01	 2.1343959457e+00	-5.7491237243e-01
 7.0144403866e-01	 2.1409614425e+00	-5.3722164338e-01
 6.8169687593e-01	 2.1473307065e+00	-4.9947868076e-01
 6.6193629684e-01	 2.1535041851e+00	-4.6158565731e-01
 6.4216503667e-01	 2.1594823741e+00	-4.2345940278e-01
 6.2238580868e-01	 2.1652658169e+00	-3.8502991226e-01
 6.0260130326e-01	 2.1708551038e+00	-3.4623871283e-01
 5.8281418696e-01	 2.1762508713e+00	-3.0761123472e-01
 7.8329871880e-01	 2.1217953480e+00	-6.8308385566e-01
 7.6355596270e-01	 2.1289797583e+00	-6.4469829236e-01
 7.4378855353e-01	 2.1359661189e+00	-6.0671462133e-01
 7.2399931529e-01	 2.1427547288e+00	-5.6900109979e-01
 7.0419105406e-01	 2.1493459376e+00	-5.3144341923e-01
 6.8436655692e-01	 2.1557401451e+00	-4.9394369206e-01
 6.6452859089e-01	 2.1619378004e+00	-4.5641924468e-01
 6.4467990193e-01	 2.1679394014e+00	-4.1880123077e-01
 6.2482321396e-01	 2.1737454935e+00	-3.8103308029e-01
 6.0496122789e-01	 2.1793566693e+00	-3.4306880092e-01
 5.8509662071e-01	 2.1847735679e+00	-3.0505730277e-01
 7.8635432940e-01	 2.1300723696e+00	-6.7723372739e-01
 7.6653455776e-01	 2.1372848059e+00	-6.3877714984e-01
 7.4669003687e-01	 2.1442984200e+00	-6.0077914107e-01
 7.2682360177e-01	 2.1511135119e+00	-5.6312382961e-01
 7.0693806947e-01	 2.1577304326e+00	-5.2571220734e-01
 6.8703623792e-01	 2.1641495836e+00	-4.8846107710e-01
 6.6712088494e-01	 2.1703714157e+00	-4.5130179906e-01
 6.4719476720e-01	 2.1763964286e+00	-4.1417885045e-01
 6.2726061925e-01	 2.1822251700e+00	-3.7704821421e-01
 6.0732115253e-01	 2.1878582348e+00	-3.3987561401e-01
 5.8737905447e-01	 2.1932962644e+00	-3.0264741799e-01
 7.8940994000e-01	 2.1383493911e+00	-6.7137325994e-01
 7.6951315282e-01	 2.1455898535e+00	-6.3286569478e-01
 7.4959152022e-01	 2.1526307210e+00	-5.9487045533e-01
 7.2964788825e-01	 2.1594722949e+00	-5.5728608451e-01
 7.0968508488e-01	 2.1661149277e+00	-5.2002753807e-01
 6.8970591892e-01	 2.1725590222e+00	-4.8302509334e-01
 6.6971317899e-01	 2.1788050310e+00	-4.4622304892e-01
 6.4970963247e-01	 2.1848534559e+00	-4.0957823015e-01
 6.2969802453e-01	 2.1907048466e+00	-3.7305831657e-01
 6.0968107716e-01	 2.1963598003e+00	-3.3664000917e-01
 5.8966148822e-01	 2.2018189609e+00	-3.0030705662e-01
 7.9246555060e-01	 2.1466264126e+00	-6.6553192577e-01
 7.7249174788e-01	 2.1538949010e+00	-6.2698548817e-01
 7.5249300356e-01	 2.1609630220e+00	-5.8900284570e-01
 7.3247217473e-01	 2.1678310780e+00	-5.5149552112e-01
 7.1243210028e-01	 2.1744994227e+00	-5.1439112049e-01
 6.9237559992e-01	 2.1809684607e+00	-4.7763220329e-01
 6.7230547303e-01	 2.1872386464e+00	-4.4117493526e-01
 6.5222449773e-01	 2.1933104832e+00	-4.0498753909e-01
 6.3213542981e-01	 2.1991845231e+00	-3.6904855967e-01
 6.1204100179e-01	 2.2048613658e+00	-3.3334496228e-01
 5.9194392198e-01	 2.2103416575e+00	-2.9787008336e-01
 7.9552116120e-01	 2.1549034342e+00	-6.5974104736e-01
 7.7547034294e-01	 2.1621999486e+00	-6.2116003953e-01
 7.5539448691e-01	 2.1692953231e+00	-5.8319262391e-01
 7.3529646121e-01	 2.1761898611e+00	-5.4576189048e-01
 7.1517911569e-01	 2.1828839178e+00	-5.0880680460e-01
 6.9504528091e-01	 2.1893778993e+00	-4.7228103867e-01
 6.7489776708e-01	 2.1956722617e+00	-4.3615157800e-01
 6.5473936300e-01	 2.2017675104e+00	-4.0039711611e-01
 6.3457283509e-01	 2.2076641997e+00	-3.6500625686e-01
 6.1440092642e-01	 2.2133629312e+00	-3.2997554214e-01
 5.9422635573e-01	 2.2188643540e+00	-2.9530732544e-01
 7.9857677180e-01	 2.1631804557e+00	-6.5403375357e-01
 7.7844893799e-01	 2.1705049962e+00	-6.1541476448e-01
 7.5829597026e-01	 2.1776276241e+00	-5.7745809082e-01
 7.3812074769e-01	 2.1845486441e+00	-5.4009699868e-01
 7.1792613110e-01	 2.1912684129e+00	-5.0328054369e-01
 6.9771496191e-01	 2.1977873378e+00	-4.6697236470e-01
 6.7749006113e-01	 2.2041058770e+00	-4.3114924234e-01
 6.5725422827e-01	 2.2102245377e+00	-3.9579943844e-01
 6.3701024038e-01	 2.2161438762e+00	-3.6092083390e-01
 6.1676085105e-01	 2.2218644967e+00	-3.2651888459e-01
 5.9650878948e-01	 2.2273870506e+00	-2.9260441599e-01
 8.0163238240e-01	 2.1714574772e+00	-6.4844493614e-01
 7.8142753305e-01	 2.1788100438e+00	-6.0977694244e-01
 7.6119745360e-01	 2.1859599251e+00	-5.7181949554e-01
 7.4094503417e-01	 2.1929074272e+00	-5.3451466742e-01
 7.2067314650e-01	 2.1996529079e+00	-4.9782035670e-01
 7.0038464291e-01	 2.2061967764e+00	-4.6170904445e-01
 6.8008235517e-01	 2.2125394923e+00	-4.2616630536e-01
 6.5976909353e-01	 2.2186815650e+00	-3.9118909055e-01
 6.3944764566e-01	 2.2246235528e+00	-3.5678380030e-01
 6.1912077568e-01	 2.2303660622e+00	-3.2296416664e-01
 5.9879122324e-01	 2.2359097471e+00	-2.8974896723e-01
 8.0468799300e-01	 2.1797344988e+00	-6.4301120615e-01
 7.8440612811e-01	 2.1871150913e+00	-6.0427567432e-01
 7.6409893695e-01	 2.1942922261e+00	-5.6629899447e-01
 7.4376932065e-01	 2.2012662103e+00	-5.2903069479e-01
 7.2342016191e-01	 2.2080374030e+00	-4.9243629074e-01
 7.0305432391e-01	 2.2146062150e+00	-4.5649600330e-01
 6.8267464922e-01	 2.2209731076e+00	-4.2120322251e-01
 6.6228395880e-01	 2.2271385922e+00	-3.8656273305e-01
 6.4188505094e-01	 2.2331032293e+00	-3.5258872080e-01
 6.2148070031e-01	 2.2388676277e+00	-3.1930258061e-01
 6.0107365699e-01	 2.2444324436e+00	-2.8673054764e-01
 5.7824931944e-01	 2.1592054782e+00	-3.1330398005e-01
 5.5861721583e-01	 2.1643676566e+00	-2.8150165178e-01
 5.3898774018e-01	 2.1693392306e+00	-2.5291666732e-01
 5.1936346347e-01	 2.1741209666e+00	-2.2675399467e-01
 4.9974692960e-01	 2.1787136732e+00	-2.0229558989e-01
 4.8014065454e-01	 2.1831182005e+00	-1.7889730398e-01
 4.6054712568e-01	 2.1873354389e+00	-1.5598568039e-01
 4.4096880104e-01	 2.1913663186e+00	-1.3305468414e-01
 4.2140810864e-01	 2.1952118086e+00	-1.0966240095e-01
 4.0186744582e-01	 2.1988729154e+00	-8.5427741871e-02
 3.8234917865e-01	 2.2023506823e+00	-6.0027186213e-02
 5.8053175320e-01	 2.1677281748e+00	-3.1034691137e-01
 5.6082215883e-01	 2.1729107290e+00	-2.7788776261e-01
 5.4111520280e-01	 2.1779019266e+00	-2.4885215556e-01
 5.2141346623e-01	 2.1827025368e+00	-2.2242364877e-01
 5.0171950306e-01	 2.1873133714e+00	-1.9786412584e-01
 4.8203583920e-01	 2.1917352840e+00	-1.7451051945e-01
 4.6236497184e-01	 2.1959691684e+00	-1.5177143177e-01
 4.4270936872e-01	 2.2000159587e+00	-1.2912369321e-01
 4.2307146744e-01	 2.2038766273e+00	-1.0610889878e-01
 4.0345367480e-01	 2.2075521850e+00	-8.2329958500e-02
 3.8385836620e-01	 2.2110436792e+00	-5.7447695188e-02
 5.8281418696e-01	 2.1762508713e+00	-3.0761123472e-01
 5.6302710183e-01	 2.1814538014e+00	-2.7451073178e-01
 5.4324266542e-01	 2.1864646225e+00	-2.4503852530e-01
 5.2346346899e-01	 2.1912841069e+00	-2.1835714558e-01
 5.0369207652e-01	 2.1959130696e+00	-1.9370870254e-01
 4.8393102385e-01	 2.2003523675e+00	-1.7041142304e-01
 4.6418281800e-01	 2.2046028980e+00	-1.4785609067e-01
 4.4444993640e-01	 2.2086655987e+00	-1.2550243102e-01
 4.2473482623e-01	 2.2125414461e+00	-1.0287548257e-01
 4.0503990377e-01	 2.2162314547e+00	-7.9561990321e-02
 3.8536755374e-01	 2.2197366761e+00	-5.5206856602e-02
 5.8509662071e-01	 2.1847735679e+00	-3.0505730277e-01
 5.6523204483e-01	 2.1899968738e+00	-2.7133156335e-01
 5.4537012804e-01	 2.1950273184e+00	-2.4143692486e-01
 5.2551347175e-01	 2.1998656770e+00	-2.1451531912e-01
 5.0566464998e-01	 2.2045127678e+00	-1.8978942894e-01
 4.8582620851e-01	 2.2089694510e+00	-1.6655903472e-01
 4.6600066416e-01	 2.2132366276e+00	-1.4419727013e-01
 4.4619050408e-01	 2.2173152387e+00	-1.2214683056e-01
 4.2639818503e-01	 2.2212062648e+00	-9.9916175609e-02
 4.0662613274e-01	 2.2249107243e+00	-7.7075763603e-02
 3.8687674129e-01	 2.2284296730e+00	-5.3254353143e-02
 5.8737905447e-01	 2.1932962644e+00	-3.0264741799e-01
 5.6743698783e-01	 2.1985399462e+00	-2.6831293298e-01
 5.4749759066e-01	 2.2035900143e+00	-2.3800991371e-01
 5.2756347451e-01	 2.2084472472e+00	-2.1086017228e-01
 5.0763722344e-01	 2.2131124661e+00	-1.8606735908e-01
 4.8772139316e-01	 2.2175865345e+00	-1.6291311478e-01
 4.6781851032e-01	 2.2218703571e+00	-1.4075313800e-01
 4.4793107176e-01	 2.2259648788e+00	-1.1901321365e-01
 4.2806154382e-01	 2.2298710835e+00	-9.7185244009e-02
 4.0821236171e-01	 2.2335899940e+00	-7.4823321504e-02
 3.8838592883e-01	 2.2371226699e+00	-5.1539878839e-02
 5.8966148822e-01	 2.2018189609e+00	-3.0030705662e-01
 5.6964193084e-01	 2.2070830186e+00	-2.6541922759e-01
 5.4962505327e-01	 2.2121527103e+00	-2.3472150099e-01
 5.2961347727e-01	 2.2170288173e+00	-2.0735491392e-01
 5.0960979690e-01	 2.2217121643e+00	-1.8250452773e-01
 4.8961657782e-01	 2.2262036180e+00	-1.5943419771e-01
 4.6963635648e-01	 2.2305040867e+00	-1.3748244894e-01
 4.4967163944e-01	 2.2346145188e+00	-1.1605832097e-01
 4.2972490262e-01	 2.2385359023e+00	-9.4637224504e-02
 4.0979859068e-01	 2.2422692636e+00	-7.2756849594e-02
 3.8989511638e-01	 2.2458156668e+00	-5.0013162139e-02
 5.9194392198e-01	 2.2103416575e+00	-2.9787008336e-01
 5.7184687384e-01	 2.2156260910e+00	-2.6261658500e-01
 5.5175251589e-01	 2.2207154062e+00	-2.3153718389e-01
 5.3166348003e-01	 2.2256103874e+00	-2.0396399595e-01
 5.1158237036e-01	 2.2303118625e+00	-1.7906398588e-01
 4.9151176247e-01	 2.2348207015e+00	-1.5608362600e-01
 4.7145420264e-01	 2.2391378163e+00	-1.3434457631e-01
 4.5141220712e-01	 2.2432641588e+00	-1.1323934197e-01
 4.3138826141e-01	 2.2472007210e+00	-9.2226952197e-02
 4.1138481965e-01	 2.2509485333e+00	-7.0828701280e-02
 3.9140430392e-01	 2.2545086637e+00	-4.8623988899e-02
 5.9422635573e-01	 2.2188643540e+00	-2.9530732544e-01
 5.7405181684e-01	 2.2241691634e+00	-2.5987293356e-01
 5.5387997851e-01	 2.2292781021e+00	-2.2842398607e-01
 5.3371348279e-01	 2.2341919575e+00	-2.0065315033e-01
 5.1355494382e-01	 2.2389115607e+00	-1.7570983617e-01
 4.9340694713e-01	 2.2434377850e+00	-1.5282358382e-01
 4.7327204880e-01	 2.2477715458e+00	-1.3129954403e-01
 4.5315277479e-01	 2.2519137988e+00	-1.1051394459e-01
 4.3305162021e-01	 2.2558655397e+00	-8.9909588160e-02
 4.1297104862e-01	 2.2596278029e+00	-6.8991423116e-02
 3.9291349147e-01	 2.2632016606e+00	-4.7322225281e-02
 5.9650878948e-01	 2.2273870506e+00	-2.9260441599e-01
 5.7625675983e-01	 2.2327122358e+00	-2.5715803167e-01
 5.5600744113e-01	 2.2378407980e+00	-2.2535049600e-01
 5.3576348554e-01	 2.2427735277e+00	-1.9738942596e-01
 5.1552751728e-01	 2.2475112589e+00	-1.7240726820e-01
 4.9530213178e-01	 2.2520548686e+00	-1.4961713062e-01
 4.7508989496e-01	 2.2564052754e+00	-1.2830805826e-01
 4.5489334247e-01	 2.2605634389e+00	-1.0784030499e-01
 4.3471497900e-01	 2.2645303585e+00	-8.7640646940e-02
 4.1455727759e-01	 2.2683070726e+00	-6.7197780022e-02
 3.9442267901e-01	 2.2718946575e+00	-4.6057840553e-02
 5.9879122324e-01	 2.2359097471e+00	-2.8974896723e-01
 5.7846170283e-01	 2.2412553082e+00	-2.5444350735e-01
 5.5813490375e-01	 2.2464034940e+00	-2.2228690515e-01
 5.3781348830e-01	 2.2513550978e+00	-1.9414122545e-01
 5.1750009074e-01	 2.2561109571e+00	-1.6912259374e-01
 4.9719731644e-01	 2.2606719521e+00	-1.4642823457e-01
 4.7690774112e-01	 2.2650390049e+00	-1.2533153893e-01
 4.5663391015e-01	 2.2692130789e+00	-1.0517713708e-01
 4.3637833780e-01	 2.2731951772e+00	-8.5376023955e-02
 4.1614350656e-01	 2.2769863422e+00	-6.5400780393e-02
 3.9593186656e-01	 2.2805876544e+00	-4.4780929815e-02
 6.0107365699e-01	 2.2444324436e+00	-2.8673054764e-01
 5.8066664583e-01	 2.2497983806e+00	-2.5170289770e-01
 5.6026236637e-01	 2.2549661899e+00	-2.1920504625e-01
 5.3986349106e-01	 2.2599366679e+00	-1.9087834196e-01
 5.1947266420e-01	 2.2647106553e+00	-1.6582328188e-01
 4.9909250109e-01	 2.2692890356e+00	-1.4322180597e-01
 4.7872558728e-01	 2.2736727345e+00	-1.2233215127e-01
 4.5837447783e-01	 2.2778627189e+00	-1.0248372192e-01
 4.3804169659e-01	 2.2818599959e+00	-8.3072022779e-02
 4.1772973553e-01	 2.2856656119e+00	-6.3553701120e-02
 3.9744105410e-01	 2.2892806513e+00	-4.3441736631e-02
 3.8234917865e-01	 2.2023506823e+00	-6.0027186213e-02
 3.6285233028e-01	 2.2056467332e+00	-3.4635584470e-02
 3.4338252815e-01	 2.2087615747e+00	-1.0618308298e-02
 3.2394204717e-01	 2.2116963537e+00	 1.2008022713e-02
 3.0453312866e-01	 2.2144522504e+00	 3.3193763420e-02
 2.8515797987e-01	 2.2170304767e+00	 5.2858823804e-02
 2.6581877354e-01	 2.2194322757e+00	 7.0895062533e-02
 2.4651764747e-01	 2.2216589208e+00	 8.7168481046e-02
 2.2725670416e-01	 2.2237117139e+00	 1.0152120850e-01
 2.0803801046e-01	 2.2255919856e+00	 1.1377327052e-01
 1.8886359723e-01	 2.2273010932e+00	 1.2372413716e-01
 3.8385836620e-01	 2.2110436792e+00	-5.7447695188e-02
 3.6428456095e-01	 2.2143527401e+00	-3.2564858893e-02
 3.4473790869e-01	 2.2174798763e+00	-8.9932770480e-03
 3.2522069331e-01	 2.2204262394e+00	 1.3238280421e-02
 3.0573516500e-01	 2.2231930139e+00	 3.4068759352e-02
 2.8628353969e-01	 2.2257814168e+00	 5.3407515630e-02
 2.6686799871e-01	 2.2281926962e+00	 7.1136809376e-02
 2.4749068830e-01	 2.2304281301e+00	 8.7114086610e-02
 2.2815371926e-01	 2.2324890259e+00	 1.0117403868e-01
 2.0885916660e-01	 2.2343767193e+00	 1.1313043246e-01
 1.8960906919e-01	 2.2360925730e+00	 1.2277770694e-01
 3.8536755374e-01	 2.2197366761e+00	-5.5206856602e-02
 3.6571679161e-01	 2.2230587470e+00	-3.0839195959e-02
 3.4609328922e-01	 2.2261981779e+00	-7.7160648105e-03
 3.2649933946e-01	 2.2291561250e+00	 1.4121517953e-02
 3.0693720133e-01	 2.2319337775e+00	 3.4601029947e-02
 2.8740909951e-01	 2.2345323570e+00	 5.3621255675e-02
 2.6791722388e-01	 2.2369531166e+00	 7.1054883480e-02
 2.4846372913e-01	 2.2391973394e+00	 8.6750876539e-02
 2.2905073436e-01	 2.2412663379e+00	 1.0053660818e-01
 2.0968032273e-01	 2.2431614530e+00	 1.1221975461e-01
 1.9035454114e-01	 2.2448840528e+00	 1.2158994070e-01
 3.8687674129e-01	 2.2284296730e+00	-5.3254353143e-02
 3.6714902227e-01	 2.2317647539e+00	-2.9406406999e-02
 3.4744866976e-01	 2.2349164796e+00	-6.7334953060e-03
 3.2777798560e-01	 2.2378860106e+00	 1.4710989450e-02
 3.0813923766e-01	 2.2406745410e+00	 3.4842973681e-02
 2.8853465932e-01	 2.2432832972e+00	 5.3550631704e-02
 2.6896644905e-01	 2.2457135370e+00	 7.0697087628e-02
 2.4943676996e-01	 2.2479665487e+00	 8.6122877459e-02
 2.2994774946e-01	 2.2500436499e+00	 9.9648161727e-02
 2.1050147887e-01	 2.2519461867e+00	 1.1107468176e-01
 1.9110001309e-01	 2.2536755325e+00	 1.2018745545e-01
 3.8838592883e-01	 2.2371226699e+00	-5.1539878839e-02
 3.6858125293e-01	 2.2404707608e+00	-2.8214222219e-02
 3.4880405029e-01	 2.2436347812e+00	-5.9922245672e-03
 3.2905663174e-01	 2.2466158962e+00	 1.5060197120e-02
 3.0934127399e-01	 2.2494153045e+00	 3.4847311029e-02
 2.8966021914e-01	 2.2520342374e+00	 5.3246620744e-02
 2.7001567422e-01	 2.2544739575e+00	 7.0111674250e-02
 2.5040981079e-01	 2.2567357580e+00	 8.5274618970e-02
 2.3084476456e-01	 2.2588209619e+00	 9.8548493123e-02
 2.1132263500e-01	 2.2607309204e+00	 1.0972924661e-01
 1.9184548504e-01	 2.2624670123e+00	 1.1859748746e-01
 3.8989511638e-01	 2.2458156668e+00	-5.0013162139e-02
 3.7001348360e-01	 2.2491767677e+00	-2.7210311351e-02
 3.5015943083e-01	 2.2523530828e+00	-5.4387593325e-03
 3.3033527789e-01	 2.2553457818e+00	 1.5222874927e-02
 3.1054331033e-01	 2.2581560681e+00	 3.4667070070e-02
 2.9078577895e-01	 2.2607851776e+00	 5.2760576415e-02
 2.7106489939e-01	 2.2632343779e+00	 6.9347334300e-02
 2.5138285162e-01	 2.2655049673e+00	 8.4251123884e-02
 2.3174177966e-01	 2.2675982739e+00	 9.7277936681e-02
 2.1214379113e-01	 2.2695156541e+00	 1.0821806214e-01
 1.9259095699e-01	 2.2712584921e+00	 1.1684788539e-01
 3.9140430392e-01	 2.2545086637e+00	-4.8623988899e-02
 3.7144571426e-01	 2.2578827746e+00	-2.6342304233e-02
 3.5151481136e-01	 2.2610713844e+00	-5.0194753737e-03
 3.3161392403e-01	 2.2640756675e+00	 1.5252972343e-02
 3.1174534666e-01	 2.2668968316e+00	 3.4355572136e-02
 2.9191133877e-01	 2.2695361177e+00	 5.2144216306e-02
 2.7211412455e-01	 2.2719947983e+00	 6.8453186173e-02
 2.5235589245e-01	 2.2742741767e+00	 8.3097898496e-02
 2.3263879476e-01	 2.2763755859e+00	 9.5877358657e-02
 2.1296494727e-01	 2.2783003878e+00	 1.0657631398e-01
 1.9333642894e-01	 2.2800499719e+00	 1.1496710354e-01
 3.9291349147e-01	 2.2632016606e+00	-4.7322225281e-02
 3.7287794492e-01	 2.2665887815e+00	-2.5557811296e-02
 3.5287019190e-01	 2.2697896861e+00	-4.6806357576e-03
 3.3289257017e-01	 2.2728055531e+00	 1.5204638150e-02
 3.1294738299e-01	 2.2756375952e+00	 3.3966417511e-02
 2.9303689858e-01	 2.2782870579e+00	 5.1449609391e-02
 2.7316334972e-01	 2.2807552187e+00	 6.7478764658e-02
 2.5332893328e-01	 2.2830433860e+00	 8.1860922901e-02
 2.3353580986e-01	 2.2851528979e+00	 9.4388148737e-02
 2.1378610340e-01	 2.2870851215e+00	 1.0483975297e-01
 1.9408190089e-01	 2.2888414517e+00	 1.1298419510e-01
 3.9442267901e-01	 2.2718946575e+00	-4.6057840553e-02
 3.7431017558e-01	 2.2752947884e+00	-2.4804443996e-02
 3.5422557243e-01	 2.2785079877e+00	-4.3684090447e-03
 3.3417121631e-01	 2.2815354387e+00	 1.5132204299e-02
 3.1414941932e-01	 2.2843783587e+00	 3.3553471174e-02
 2.9416245840e-01	 2.2870379981e+00	 5.0729163485e-02
 2.7421257489e-01	 2.2895156391e+00	 6.6474009932e-02
 2.5430197411e-01	 2.2918125953e+00	 8.0586641333e-02
 2.3443282496e-01	 2.2939302098e+00	 9.2852211550e-02
 2.1460725954e-01	 2.2958698551e+00	 1.0304468757e-01
 1.9482737284e-01	 2.2976329315e+00	 1.1092880542e-01
 3.9593186656e-01	 2.2805876544e+00	-4.4780929815e-02
 3.7574240624e-01	 2.2840007953e+00	-2.4029835151e-02
 3.5558095297e-01	 2.2872262893e+00	-4.0288874260e-03
 3.3544986246e-01	 2.2902653243e+00	 1.5090169822e-02
 3.1535145565e-01	 2.2931191223e+00	 3.3170848590e-02
 2.9528801822e-01	 2.2957889383e+00	 5.0035612739e-02
 2.7526180006e-01	 2.2982760596e+00	 6.5489256582e-02
 2.5527501495e-01	 2.3005818046e+00	 7.9321952547e-02
 2.3532984006e-01	 2.3027075218e+00	 9.1311958221e-02
 2.1542841567e-01	 2.3046545888e+00	 1.0122797645e-01
 1.9557284479e-01	 2.3064244113e+00	 1.0883116538e-01
 3.9744105410e-01	 2.2892806513e+00	-4.3441736631e-02
 3.7717463691e-01	 2.2927068022e+00	-2.3181659229e-02
 3.5693633350e-01	 2.2959445909e+00	-3.6081048001e-03
 3.3672850860e-01	 2.2989952099e+00	 1.5133184787e-02
 3.1655349199e-01	 2.3018598858e+00	 3.2872901535e-02
 2.9641357803e-01	 2.3045398784e+00	 4.9422005168e-02
 2.7631102523e-01	 2.3070364800e+00	 6.4575222669e-02
 2.5624805578e-01	 2.3093510139e+00	 7.8114200231e-02
 2.3622685516e-01	 2.3114848338e+00	 8.9810297952e-02
 2.1624957181e-01	 2.3134393225e+00	 9.9427021064e-02
 1.9631831674e-01	 2.3152158911e+00	 1.0672208477e-01
 1.8886359723e-01	 2.2273010932e+00	 1.2372413716e-01
 1.6973869895e-01	 2.2288401728e+00	 1.3261647088e-01
 1.5066197243e-01	 2.2302109371e+00	 1.4172593940e-01
 1.3163529446e-01	 2.2314148178e+00	 1.5086853519e-01
 1.1266050604e-01	 2.2324532696e+00	 1.5984207386e-01
 9.3739412190e-02	 2.2333277695e+00	 1.6842652767e-01
 7.4873781778e-02	 2.2340398157e+00	 1.7638416125e-01
 5.6065347405e-02	 2.2345909267e+00	 1.8345947870e-01
 3.7315805270e-02	 2.2349826402e+00	 1.8937899269e-01
 1.8626815083e-02	 2.2352165126e+00	 1.9385082715e-01
 0.0000000000e+00	 2.2352941176e+00	 1.9656416626e-01
 1.8960906919e-01	 2.2360925730e+00	 1.2277770694e-01
 1.7040868216e-01	 2.2376377276e+00	 1.3136315241e-01
 1.5125665704e-01	 2.2390139025e+00	 1.4017327577e-01
 1.3215487802e-01	 2.2402225351e+00	 1.4903066006e-01
 1.1310519337e-01	 2.2412650858e+00	 1.5774130013e-01
 9.4109415217e-02	 2.2421430375e+00	 1.6609490688e-01
 7.5169319431e-02	 2.2428578942e+00	 1.7386500318e-01
 5.6286645446e-02	 2.2434111805e+00	 1.8080882100e-01
 3.7463096154e-02	 2.2438044402e+00	 1.8666701108e-01
 1.8700337818e-02	 2.2440392357e+00	 1.9116317732e-01
 0.0000000000e+00	 2.2441171470e+00	 1.9400324928e-01
 1.9035454114e-01	 2.2448840528e+00	 1.2158994070e-01
 1.7107866537e-01	 2.2464352823e+00	 1.2990252196e-01
 1.5185134165e-01	 2.2478168679e+00	 1.3845664460e-01
 1.3267446158e-01	 2.2490302523e+00	 1.4707951064e-01
 1.1354988069e-01	 2.2500769020e+00	 1.5558364573e-01
 9.4479418243e-02	 2.2509583054e+00	 1.6376716932e-01
 7.5464857084e-02	 2.2516759727e+00	 1.7141384537e-01
 5.6507943486e-02	 2.2522314343e+00	 1.7829292375e-01
 3.7610387038e-02	 2.2526262402e+00	 1.8415878415e-01
 1.8773860553e-02	 2.2528619588e+00	 1.8875039548e-01
 0.0000000000e+00	 2.2529401764e+00	 1.9179060466e-01
 1.9110001309e-01	 2.2536755325e+00	 1.2018745545e-01
 1.7174864857e-01	 2.2552328371e+00	 1.2825495836e-01
 1.5244602626e-01	 2.2566198332e+00	 1.3659240687e-01
 1.3319404514e-01	 2.2578379696e+00	 1.4502966595e-01
 1.1399456801e-01	 2.2588887181e+00	 1.5338415923e-01
 9.4849421268e-02	 2.2597735734e+00	 1.6146110030e-01
 7.5760394736e-02	 2.2604940512e+00	 1.6905349286e-01
 5.6729241526e-02	 2.2610516881e+00	 1.7594191053e-01
 3.7757677922e-02	 2.2614480401e+00	 1.8189406877e-01
 1.8847383288e-02	 2.2616846819e+00	 1.8666420237e-01
 0.0000000000e+00	 2.2617632059e+00	 1.8999226354e-01
 1.9184548504e-01	 2.2624670123e+00	 1.1859748746e-01
 1.7241863178e-01	 2.2640303919e+00	 1.2644145831e-01
 1.5304071086e-01	 2.2654227986e+00	 1.3459748185e-01
 1.3371362869e-01	 2.2666456868e+00	 1.4289614518e-01
 1.1443925533e-01	 2.2677005343e+00	 1.5115815245e-01
 9.5219424293e-02	 2.2685888413e+00	 1.5919451252e-01
 7.6055932387e-02	 2.2693121297e+00	 1.6680648313e-01
 5.6950539565e-02	 2.2698719419e+00	 1.7378528330e-01
 3.7904968805e-02	 2.2702698401e+00	 1.7991158684e-01
 1.8920906022e-02	 2.2705074050e+00	 1.8495481135e-01
 0.0000000000e+00	 2.2705862353e+00	 1.8867221816e-01
 1.9259095699e-01	 2.2712584921e+00	 1.1684788539e-01
 1.7308861499e-01	 2.2728279466e+00	 1.2448363061e-01
 1.5363539547e-01	 2.2742257640e+00	 1.3248934315e-01
 1.3423321225e-01	 2.2754534041e+00	 1.4069440636e-01
 1.1488394265e-01	 2.2765123505e+00	 1.4892120263e-01
 9.5589427318e-02	 2.2774041093e+00	 1.5698525247e-01
 7.6351470039e-02	 2.2781302082e+00	 1.6469509751e-01
 5.7171837604e-02	 2.2786921957e+00	 1.7185193950e-01
 3.8052259688e-02	 2.2790916401e+00	 1.7824904912e-01
 1.8994428757e-02	 2.2793301281e+00	 1.8367095959e-01
 0.0000000000e+00	 2.2794092647e+00	 1.8789246133e-01
 1.9333642894e-01	 2.2800499719e+00	 1.1496710354e-01
 1.7375859820e-01	 2.2816255014e+00	 1.2240369047e-01
 1.5423008008e-01	 2.2830287293e+00	 1.3028601488e-01
 1.3475279581e-01	 2.2842611214e+00	 1.3844034514e-01
 1.1532862997e-01	 2.2853241667e+00	 1.4668915445e-01
 9.5959430343e-02	 2.2862193772e+00	 1.5485120658e-01
 7.6647007690e-02	 2.2869482867e+00	 1.6274137227e-01
 5.7393135643e-02	 2.2875124496e+00	 1.7017018895e-01
 3.8199550571e-02	 2.2879134400e+00	 1.7694317848e-01
 1.9067951492e-02	 2.2881528512e+00	 1.8285993860e-01
 0.0000000000e+00	 2.2882322941e+00	 1.8771302495e-01
 1.9408190089e-01	 2.2888414517e+00	 1.1298419510e-01
 1.7442858141e-01	 2.2904230561e+00	 1.2022445378e-01
 1.5482476469e-01	 2.2918316947e+00	 1.2800606775e-01
 1.3527237936e-01	 2.2930688386e+00	 1.3615029344e-01
 1.1577331729e-01	 2.2941359828e+00	 1.4447812209e-01
 9.6329433368e-02	 2.2950346452e+00	 1.5281030732e-01
 7.6942545342e-02	 2.2957663652e+00	 1.6096710946e-01
 5.7614433683e-02	 2.2963327034e+00	 1.6876777017e-01
 3.8346841455e-02	 2.2967352400e+00	 1.7602973267e-01
 1.9141474226e-02	 2.2969755743e+00	 1.8256762407e-01
 0.0000000000e+00	 2.2970553235e+00	 1.8819201770e-01
 1.9482737284e-01	 2.2976329315e+00	 1.1092880542e-01
 1.7509856462e-01	 2.2992206109e+00	 1.1796933152e-01
 1.5541944930e-01	 2.3006346601e+00	 1.2566861520e-01
 1.3579196292e-01	 2.3018765559e+00	 1.3384101807e-01
 1.1621800461e-01	 2.3029477990e+00	 1.4230449107e-01
 9.6699436393e-02	 2.3038499131e+00	 1.5088053904e-01
 7.7238082994e-02	 2.3045844437e+00	 1.5939388754e-01
 5.7835731722e-02	 2.3051529572e+00	 1.6767186651e-01
 3.8494132338e-02	 2.3055570400e+00	 1.7554352646e-01
 1.9214996961e-02	 2.3057982974e+00	 1.8283850498e-01
 0.0000000000e+00	 2.3058783529e+00	 1.8938566180e-01
 1.9557284479e-01	 2.3064244113e+00	 1.0883116538e-01
 1.7576854783e-01	 2.3080181656e+00	 1.1566232415e-01
 1.5601413391e-01	 2.3094376254e+00	 1.2329330962e-01
 1.3631154648e-01	 2.3106842731e+00	 1.3152971943e-01
 1.1666269193e-01	 2.3117596152e+00	 1.4018492010e-01
 9.7069439419e-02	 2.3126651811e+00	 1.4907994366e-01
 7.7533620647e-02	 2.3134025222e+00	 1.5804307164e-01
 5.8057029762e-02	 2.3139732110e+00	 1.6690912169e-01
 3.8641423222e-02	 2.3143788399e+00	 1.7551845343e-01
 1.9288519696e-02	 2.3146210205e+00	 1.8371571206e-01
 0.0000000000e+00	 2.3147013824e+00	 1.9134832901e-01
 1.9631831674e-01	 2.3152158911e+00	 1.0672208477e-01
 1.7643853104e-01	 2.3168157204e+00	 1.1332801603e-01
 1.5660881852e-01	 2.3182405908e+00	 1.2090033848e-01
 1.3683113004e-01	 2.3194919904e+00	 1.2923403009e-01
 1.1710737926e-01	 2.3205714314e+00	 1.3813634280e-01
 9.7439442445e-02	 2.3214804490e+00	 1.4742662628e-01
 7.7829158300e-02	 2.3222206007e+00	 1.5693582367e-01
 5.8278327803e-02	 2.3227934648e+00	 1.6650565515e-01
 3.8788714106e-02	 2.3232006399e+00	 1.7598750707e-01
 1.9362042431e-02	 2.3234437436e+00	 1.8524104563e-01
 0.0000000000e+00	 2.3235244118e+00	 1.9413257572e-01
 2.3235244118e+00	 0.0000000000e+00	 2.2640285780e+00
 2.3234437436e+00	 1.9362042431e-02	 2.2639014955e+00
 2.3232006399e+00	 3.8788714106e-02	 2.2605487121e+00
 2.3227934648e+00	 5.8278327803e-02	 2.2542382656e+00
 2.3222206007e+00	 7.7829158300e-02	 2.2452257245e+00
 2.3214804490e+00	 9.7439442445e-02	 2.2337514961e+00
 2.3205714314e+00	 1.1710737926e-01	 2.2200382855e+00
 2.3194919904e+00	 1.3683113004e-01	 2.2042887218e+00
 2.3182405908e+00	 1.5660881852e-01	 2.1866831637e+00
 2.3168157204e+00	 1.7643853104e-01	 2.1673777003e+00
 2.3152158911e+00	 1.9631831674e-01	 2.1465023581e+00
 2.3323489408e+00	 0.0000000000e+00	 2.2488744756e+00
 2.3322679662e+00	 1.9435577662e-02	 2.2485248231e+00
 2.3320239393e+00	 3.8936030025e-02	 2.2450027467e+00
 2.3316152178e+00	 5.8499663457e-02	 2.2385795051e+00
 2.3310401780e+00	 7.8124746184e-02	 2.2295118065e+00
 2.3302972153e+00	 9.7809508360e-02	 2.2180390590e+00
 2.3293847452e+00	 1.1755214216e-01	 2.2043807790e+00
 2.3283012046e+00	 1.3735080190e-01	 2.1887341711e+00
 2.3270450523e+00	 1.5720360420e-01	 2.1712718934e+00
 2.3256147704e+00	 1.7710862812e-01	 2.1521400231e+00
 2.3240088651e+00	 1.9706391539e-01	 2.1314562364e+00
 2.3411734673e+00	 0.0000000000e+00	 2.2388113245e+00
 2.3410921864e+00	 1.9509112873e-02	 2.2374817455e+00
 2.3408472361e+00	 3.9083345902e-02	 2.2331232895e+00
 2.3404369682e+00	 5.8720999048e-02	 2.2260036109e+00
 2.3398597527e+00	 7.8420333985e-02	 2.2163735020e+00
 2.3391139790e+00	 9.8179574170e-02	 2.2044640911e+00
 2.3381980566e+00	 1.1799690494e-01	 2.1904842041e+00
 2.3371104164e+00	 1.3787047363e-01	 2.1746179023e+00
 2.3358495114e+00	 1.5779838972e-01	 2.1570222133e+00
 2.3344138179e+00	 1.7777872501e-01	 2.1378250681e+00
 2.3328018366e+00	 1.9780951384e-01	 2.1171234581e+00
 2.3499979888e+00	 0.0000000000e+00	 2.2338542916e+00
 2.3499164015e+00	 1.9582648042e-02	 2.2307855095e+00
 2.3496705279e+00	 3.9230661696e-02	 2.2249207779e+00
 2.3492587136e+00	 5.8942334515e-02	 2.2165174050e+00
 2.3486793225e+00	 7.8715921619e-02	 2.2058132969e+00
 2.3479307377e+00	 9.8549639771e-02	 2.1930241072e+00
 2.3470113629e+00	 1.1844166747e-01	 2.1783405554e+00
 2.3459196231e+00	 1.3839014506e-01	 2.1619259294e+00
 2.3446539654e+00	 1.5839317490e-01	 2.1439137855e+00
 2.3432128605e+00	 1.7844882153e-01	 2.1244058629e+00
 2.3415948031e+00	 1.9855511186e-01	 2.1034702248e+00
 2.3588225028e+00	 0.0000000000e+00	 2.2325931969e+00
 2.3587406091e+00	 1.9656183149e-02	 2.2271919486e+00
 2.3584938123e+00	 3.9377977365e-02	 2.2193672092e+00
 2.3580804516e+00	 5.9163669793e-02	 2.2093329107e+00
 2.3574988847e+00	 7.9011509003e-02	 2.1972806690e+00
 2.3567474889e+00	 9.8919705058e-02	 2.1833794083e+00
 2.3558246618e+00	 1.1888642962e-01	 2.1677749868e+00
 2.3547288224e+00	 1.3890981604e-01	 2.1505898184e+00
 2.3534584120e+00	 1.5898795958e-01	 2.1319224907e+00
 2.3520118955e+00	 1.7911891748e-01	 2.1118558263e+00
 2.3503877622e+00	 1.9930070925e-01	 2.0904632332e+00
 2.3676470068e+00	 0.0000000000e+00	 2.2304621211e+00
 2.3675648068e+00	 1.9729718173e-02	 2.2225436189e+00
 2.3673170866e+00	 3.9525292868e-02	 2.2126781254e+00
 2.3669021795e+00	 5.9385004822e-02	 2.2010255614e+00
 2.3663184370e+00	 7.9307096051e-02	 2.1877220312e+00
 2.3655642302e+00	 9.9289769926e-02	 2.1728794927e+00
 2.3646379507e+00	 1.1933119126e-01	 2.1565854304e+00
 2.3635380116e+00	 1.3942948644e-01	 2.1389025274e+00
 2.3622628486e+00	 1.5958274358e-01	 2.1198683358e+00
 2.3608109206e+00	 1.7978901266e-01	 2.0994949417e+00
 2.3591807113e+00	 2.0004630580e-01	 2.0777686227e+00
 2.3764714982e+00	 0.0000000000e+00	 2.2271190149e+00
 2.3763889919e+00	 1.9803253093e-02	 2.2165165883e+00
 2.3761403485e+00	 3.9672608162e-02	 2.2045142212e+00
 2.3757238949e+00	 5.9606339536e-02	 2.1912107687e+00
 2.3751379767e+00	 7.9602682682e-02	 2.1766795856e+00
 2.3743809589e+00	 9.9659834270e-02	 2.1609682477e+00
 2.3734512271e+00	 1.1977595228e-01	 2.1440982777e+00
 2.3723471884e+00	 1.3994915611e-01	 2.1260648739e+00
 2.3710672727e+00	 1.6017752674e-01	 2.1068366384e+00
 2.3696099332e+00	 1.8045910690e-01	 2.0863553035e+00
 2.3679736479e+00	 2.0079190129e-01	 2.0645354527e+00
 2.3852959747e+00	 0.0000000000e+00	 2.2225666115e+00
 2.3852131620e+00	 1.9876787888e-02	 2.2091175252e+00
 2.3849635953e+00	 3.9819923205e-02	 2.1948849178e+00
 2.3845455954e+00	 5.9827673875e-02	 2.1798995995e+00
 2.3839575015e+00	 7.9898268809e-02	 2.1641650152e+00
 2.3831976727e+00	 1.0002989798e-01	 2.1476570213e+00
 2.3822644885e+00	 1.2022071254e-01	 2.1303236711e+00
 2.3811563502e+00	 1.4046882489e-01	 2.1120850053e+00
 2.3798716818e+00	 1.6077230889e-01	 2.0928328445e+00
 2.3784089309e+00	 1.8112920000e-01	 2.0724305841e+00
 2.3767665696e+00	 2.0153749551e-01	 2.0507129848e+00
 2.3941204337e+00	 0.0000000000e+00	 2.2168076622e+00
 2.3940373146e+00	 1.9950322536e-02	 2.2003530846e+00
 2.3937868247e+00	 3.9967237957e-02	 2.1837996076e+00
 2.3933672783e+00	 6.0049007775e-02	 2.1671030915e+00
 2.3927770088e+00	 8.0193854351e-02	 2.1501899865e+00
 2.3920143689e+00	 1.0039996097e-01	 2.1329571702e+00
 2.3910777324e+00	 1.2066547192e-01	 2.1152717977e+00
 2.3899654946e+00	 1.4098849264e-01	 2.0969711594e+00
 2.3886760735e+00	 1.6136708986e-01	 2.0778625454e+00
 2.3872079111e+00	 1.8179929177e-01	 2.0577231137e+00
 2.3855594738e+00	 2.0228308825e-01	 2.0362997588e+00
 2.4029448727e+00	 0.0000000000e+00	 2.2098449370e+00
 2.4028614472e+00	 2.0023857018e-02	 2.1902299093e+00
 2.4026100340e+00	 4.0114552374e-02	 2.1712676550e+00
 2.4021889412e+00	 6.0270341172e-02	 2.1528322534e+00
 2.4015964960e+00	 8.0489439222e-02	 2.1347661497e+00
 2.4008310452e+00	 1.0077002311e-01	 2.1168800594e+00
 2.3998909564e+00	 1.2111023029e-01	 2.0989528880e+00
 2.3987746190e+00	 1.4150815921e-01	 2.0807316629e+00
 2.3974804453e+00	 1.6196186948e-01	 2.0619314745e+00
 2.3960068713e+00	 1.8246938203e-01	 2.0422354254e+00
 2.3943523582e+00	 2.0302867931e-01	 2.0212945832e+00
 2.4117692892e+00	 0.0000000000e+00	 2.2016812235e+00
 2.4116855573e+00	 2.0097391313e-02	 2.1787546293e+00
 2.4114332208e+00	 4.0261866415e-02	 2.1572983971e+00
 2.4110105817e+00	 6.0491674005e-02	 2.1370980656e+00
 2.4104159608e+00	 8.0785023340e-02	 2.1179051386e+00
 2.4096476990e+00	 1.0114008431e-01	 2.0994370614e+00
 2.4087041578e+00	 1.2155498752e-01	 2.0813772153e+00
 2.4075837209e+00	 1.4202782445e-01	 2.0633749290e+00
 2.4062847945e+00	 1.6255664758e-01	 2.0450455040e+00
 2.4048058091e+00	 1.8313947057e-01	 2.0259702501e+00
 2.4031452201e+00	 2.0377426846e-01	 2.0056965298e+00
 2.3152158911e+00	 1.9631831674e-01	 2.1465023581e+00
 2.3134393225e+00	 2.1624957181e-01	 2.1245129112e+00
 2.3114848338e+00	 2.3622685516e-01	 2.1017384274e+00
 2.3093510139e+00	 2.5624805578e-01	 2.0780649714e+00
 2.3070364800e+00	 2.7631102523e-01	 2.0533483955e+00
 2.3045398784e+00	 2.9641357803e-01	 2.0274140744e+00
 2.3018598858e+00	 3.1655349199e-01	 2.0000569264e+00
 2.2989952099e+00	 3.3672850860e-01	 1.9710417287e+00
 2.2959445909e+00	 3.5693633350e-01	 1.9401037376e+00
 2.2927068022e+00	 3.7717463691e-01	 1.9069496189e+00
 2.2892806513e+00	 3.9744105410e-01	 1.8712586971e+00
 2.3240088651e+00	 1.9706391539e-01	 2.1314562364e+00
 2.3222255493e+00	 2.1707086751e-01	 2.1096827484e+00
 2.3202636376e+00	 2.3712402272e-01	 2.0871640685e+00
 2.3181217137e+00	 2.5722126199e-01	 2.0637844266e+00
 2.3157983894e+00	 2.7736042873e-01	 2.0393960788e+00
 2.3132923059e+00	 2.9753932915e-01	 2.0138190420e+00
 2.3106021349e+00	 3.1775573262e-01	 1.9868411200e+00
 2.3077265793e+00	 3.3800737207e-01	 1.9582182315e+00
 2.3046643743e+00	 3.5829194440e-01	 1.9276750487e+00
 2.3014142887e+00	 3.7860711100e-01	 1.8949059537e+00
 2.2979751257e+00	 3.9895049815e-01	 1.8595763196e+00
 2.3328018366e+00	 1.9780951384e-01	 2.1171234581e+00
 2.3310117736e+00	 2.1789216298e-01	 2.0953818410e+00
 2.3290424389e+00	 2.3802119003e-01	 2.0729610419e+00
 2.3268924109e+00	 2.5819446793e-01	 2.0497424836e+00
 2.3245602962e+00	 2.7840983194e-01	 2.0255738576e+00
 2.3220447310e+00	 2.9866507996e-01	 2.0002688587e+00
 2.3193443816e+00	 3.1895797292e-01	 1.9736072193e+00
 2.3164579462e+00	 3.3928623517e-01	 1.9453350523e+00
 2.3133841553e+00	 3.5964755492e-01	 1.9151655104e+00
 2.3101217729e+00	 3.8003958468e-01	 1.8827797709e+00
 2.3066695976e+00	 4.0045994178e-01	 1.8478283521e+00
 2.3415948031e+00	 1.9855511186e-01	 2.1034702248e+00
 2.3397979929e+00	 2.1871345799e-01	 2.0815699959e+00
 2.3378212353e+00	 2.3891835683e-01	 2.0590837597e+00
 2.3356631032e+00	 2.5916767332e-01	 2.0358891693e+00
 2.3333221982e+00	 2.7945923455e-01	 2.0118283897e+00
 2.3307971510e+00	 2.9979083012e-01	 1.9867078365e+00
 2.3280866233e+00	 3.2016021254e-01	 1.9602982200e+00
 2.3251893082e+00	 3.4056509756e-01	 1.9323349053e+00
 2.3221039313e+00	 3.6100316467e-01	 1.9025185949e+00
 2.3188292521e+00	 3.8147205756e-01	 1.8705163444e+00
 2.3153640646e+00	 4.0196938455e-01	 1.8359629165e+00
 2.3503877622e+00	 1.9930070925e-01	 2.0904632332e+00
 2.3485842047e+00	 2.1953475230e-01	 2.0682076170e+00
 2.3466000241e+00	 2.3981552287e-01	 2.0454873249e+00
 2.3444337881e+00	 2.6014087788e-01	 2.0221752844e+00
 2.3420840926e+00	 2.8050863627e-01	 1.9981071801e+00
 2.3395495637e+00	 3.0091657933e-01	 1.9730811978e+00
 2.3368288576e+00	 3.2136245113e-01	 1.9468580810e+00
 2.3339206627e+00	 3.4184395885e-01	 1.9191615099e+00
 2.3308236998e+00	 3.6235877327e-01	 1.8896788107e+00
 2.3275367238e+00	 3.8290452922e-01	 1.8580620042e+00
 2.3240585242e+00	 4.0347882604e-01	 1.8239291999e+00
 2.3591807113e+00	 2.0004630580e-01	 2.0777686227e+00
 2.3573704066e+00	 2.2035604567e-01	 2.0551572178e+00
 2.3553788031e+00	 2.4071268789e-01	 2.0321131573e+00
 2.3532044630e+00	 2.6111408134e-01	 2.0085524039e+00
 2.3508459772e+00	 2.8155803680e-01	 1.9843585693e+00
 2.3483019664e+00	 3.0204232727e-01	 1.9593350627e+00
 2.3455710820e+00	 3.2256468836e-01	 1.9332317105e+00
 2.3426520073e+00	 3.4312281870e-01	 1.9057595763e+00
 2.3395434585e+00	 3.6371438034e-01	 1.8765916880e+00
 2.3362441858e+00	 3.8433699925e-01	 1.8453641217e+00
 2.3327529740e+00	 4.0498826582e-01	 1.8116774392e+00
 2.3679736479e+00	 2.0079190129e-01	 2.0645354527e+00
 2.3661565960e+00	 2.2117733789e-01	 2.0418200786e+00
 2.3641575696e+00	 2.4160985164e-01	 2.0186724360e+00
 2.3619751254e+00	 2.6208728342e-01	 1.9949895632e+00
 2.3596078493e+00	 2.8260743584e-01	 1.9706471519e+00
 2.3570543567e+00	 3.0316807361e-01	 1.9454993766e+00
 2.3543132940e+00	 3.2376692389e-01	 1.9193787023e+00
 2.3513833396e+00	 3.4440167673e-01	 1.8920747911e+00
 2.3482632049e+00	 3.6506998548e-01	 1.8632037635e+00
 2.3449516353e+00	 3.8576946725e-01	 1.8323710948e+00
 2.3414474114e+00	 4.0649770346e-01	 1.7991589066e+00
 2.3767665696e+00	 2.0153749551e-01	 2.0507129848e+00
 2.3749427705e+00	 2.2199862871e-01	 2.0280969008e+00
 2.3729363211e+00	 2.4250701387e-01	 2.0050598407e+00
 2.3707457730e+00	 2.6306048385e-01	 1.9814789062e+00
 2.3683697065e+00	 2.8365683310e-01	 1.9572103143e+00
 2.3658067321e+00	 3.0429381804e-01	 1.9320892661e+00
 2.3630554911e+00	 3.2496915738e-01	 1.9059297918e+00
 2.3601146570e+00	 3.4568053260e-01	 1.8785245687e+00
 2.3569829364e+00	 3.6642558832e-01	 1.8496447115e+00
 2.3536590701e+00	 3.8720193283e-01	 1.8190395317e+00
 2.3501418341e+00	 4.0800713853e-01	 1.7863258948e+00
 2.3855594738e+00	 2.0228308825e-01	 2.0362997588e+00
 2.3837289275e+00	 2.2281991790e-01	 2.0139824829e+00
 2.3817150553e+00	 2.4340417432e-01	 1.9912670082e+00
 2.3795164032e+00	 2.6403368235e-01	 1.9680094968e+00
 2.3771315464e+00	 2.8470622828e-01	 1.9440457404e+00
 2.3745590902e+00	 3.0541956023e-01	 1.9191910698e+00
 2.3717976709e+00	 3.2617138848e-01	 1.8932402396e+00
 2.3688459571e+00	 3.4695938592e-01	 1.8659672855e+00
 2.3657026506e+00	 3.6778118847e-01	 1.8371253510e+00
 2.3623664876e+00	 3.8863439555e-01	 1.8064464825e+00
 2.3588362395e+00	 4.0951657061e-01	 1.7736413896e+00
 2.3943523582e+00	 2.0302867931e-01	 2.0212945832e+00
 2.3925150647e+00	 2.2364120523e-01	 1.9994719558e+00
 2.3904937695e+00	 2.4430133273e-01	 1.9772859602e+00
 2.3882870135e+00	 2.6500687864e-01	 1.9545708266e+00
 2.3858933664e+00	 2.8575562108e-01	 1.9311409798e+00
 2.3833114284e+00	 3.0654529987e-01	 1.9067909933e+00
 2.3805398309e+00	 3.2737361686e-01	 1.8812955155e+00
 2.3775772374e+00	 3.4823823635e-01	 1.8544091683e+00
 2.3744223451e+00	 3.6913678555e-01	 1.8258664136e+00
 2.3710738854e+00	 3.9006685504e-01	 1.7953813856e+00
 2.3675306252e+00	 4.1102599927e-01	 1.7626476877e+00
 2.4031452201e+00	 2.0377426846e-01	 2.0056965298e+00
 2.4013011794e+00	 2.2446249046e-01	 1.9845607755e+00
 2.3992724614e+00	 2.4519848886e-01	 1.9631090957e+00
 2.3970576014e+00	 2.6598007245e-01	 1.9411528052e+00
 2.3946551640e+00	 2.8680501121e-01	 1.9184840307e+00
 2.3920637443e+00	 3.0767103664e-01	 1.8948757105e+00
 2.3892819685e+00	 3.2857584217e-01	 1.8700815656e+00
 2.3863084955e+00	 3.4951708351e-01	 1.8438360417e+00
 2.3831420173e+00	 3.7049237917e-01	 1.8158542174e+00
 2.3797812609e+00	 3.9149931087e-01	 1.7858316772e+00
 2.3762249887e+00	 4.1253542408e-01	 1.7534443461e+00
 2.2892806513e+00	 3.9744105410e-01	 1.8712586971e+00
 2.2856656119e+00	 4.1772973553e-01	 1.8328230689e+00
 2.2818599959e+00	 4.3804169659e-01	 1.7918370836e+00
 2.2778627189e+00	 4.5837447783e-01	 1.7485718944e+00
 2.2736727345e+00	 4.7872558728e-01	 1.7032857415e+00
 2.2692890356e+00	 4.9909250109e-01	 1.6562261706e+00
 2.2647106553e+00	 5.1947266420e-01	 1.6076325647e+00
 2.2599366679e+00	 5.3986349106e-01	 1.5577389889e+00
 2.2549661899e+00	 5.6026236637e-01	 1.5067773461e+00
 2.2497983806e+00	 5.8066664583e-01	 1.4549808409e+00
 2.2444324436e+00	 6.0107365699e-01	 1.4021314786e+00
 2.2979751257e+00	 3.9895049815e-01	 1.8595763196e+00
 2.2943463567e+00	 4.1931623410e-01	 1.8214679242e+00
 2.2905262874e+00	 4.3970533810e-01	 1.7807806926e+00
 2.2865138291e+00	 4.6011534134e-01	 1.7377930069e+00
 2.2823079315e+00	 4.8054374241e-01	 1.6927686733e+00
 2.2779075837e+00	 5.0098800786e-01	 1.6459591661e+00
 2.2733118151e+00	 5.2144557292e-01	 1.5976061914e+00
 2.2685196966e+00	 5.4191384224e-01	 1.5479445702e+00
 2.2635303412e+00	 5.6239019058e-01	 1.4972054377e+00
 2.2583429051e+00	 5.8287196359e-01	 1.4456197587e+00
 2.2529565887e+00	 6.0335647868e-01	 1.3928201152e+00
 2.3066695976e+00	 4.0045994178e-01	 1.8478283521e+00
 2.3030270990e+00	 4.2090273223e-01	 1.8100787285e+00
 2.2991925764e+00	 4.4136897913e-01	 1.7697309561e+00
 2.2951649368e+00	 4.6185620436e-01	 1.7270675059e+00
 2.2909431260e+00	 4.8236189702e-01	 1.6823545531e+00
 2.2865261293e+00	 5.0288351409e-01	 1.6358442508e+00
 2.2819129725e+00	 5.2341848109e-01	 1.5877773293e+00
 2.2771027228e+00	 5.4396419285e-01	 1.5383860219e+00
 2.2720944900e+00	 5.6451801418e-01	 1.4878973131e+00
 2.2668874270e+00	 5.8507728073e-01	 1.4365365087e+00
 2.2614807314e+00	 6.0563929971e-01	 1.3837730794e+00
 2.3153640646e+00	 4.0196938455e-01	 1.8359629165e+00
 2.3117078365e+00	 4.2248922945e-01	 1.7986071360e+00
 2.3078588604e+00	 4.4303261922e-01	 1.7586433965e+00
 2.3038160396e+00	 4.6359706640e-01	 1.7163551426e+00
 2.2995783156e+00	 4.8418005061e-01	 1.6720077459e+00
 2.2951446701e+00	 5.0477901924e-01	 1.6258508123e+00
 2.2905141251e+00	 5.2539138814e-01	 1.5781208216e+00
 2.2856857442e+00	 5.4601454229e-01	 1.5290440999e+00
 2.2806586340e+00	 5.6664583658e-01	 1.4788401215e+00
 2.2754319442e+00	 5.8728259661e-01	 1.4277251379e+00
 2.2700048692e+00	 6.0792211946e-01	 1.3749949246e+00
 2.3240585242e+00	 4.0347882604e-01	 1.8239291999e+00
 2.3203885665e+00	 4.2407572533e-01	 1.7870058681e+00
 2.3165251371e+00	 4.4469625790e-01	 1.7474746053e+00
 2.3124671350e+00	 4.6533792695e-01	 1.7056167377e+00
 2.3082134979e+00	 4.8599820264e-01	 1.6616936843e+00
 2.3037632036e+00	 5.0667452279e-01	 1.6159493015e+00
 2.2991152703e+00	 5.2736429351e-01	 1.5686125674e+00
 2.2942687583e+00	 5.4806488999e-01	 1.5199006050e+00
 2.2892227707e+00	 5.6877365718e-01	 1.4700220417e+00
 2.2839764541e+00	 5.8948791062e-01	 1.4191768736e+00
 2.2785289998e+00	 6.1020493726e-01	 1.3664909214e+00
 2.3327529740e+00	 4.0498826582e-01	 1.8116774392e+00
 2.3290692867e+00	 4.2566221941e-01	 1.7752286992e+00
 2.3251914040e+00	 4.4635989470e-01	 1.7361822286e+00
 2.3211182206e+00	 4.6707878553e-01	 1.6948141666e+00
 2.3168486704e+00	 4.8781635262e-01	 1.6513788539e+00
 2.3123817272e+00	 5.0857002419e-01	 1.6061112183e+00
 2.3077164057e+00	 5.2933719665e-01	 1.5592295079e+00
 2.3028517627e+00	 5.5011523536e-01	 1.5109383691e+00
 2.2977868977e+00	 5.7090147536e-01	 1.4614322694e+00
 2.2925209543e+00	 5.9169322214e-01	 1.4108723763e+00
 2.2870531207e+00	 6.1248775248e-01	 1.3582670428e+00
 2.3414474114e+00	 4.0649770346e-01	 1.7991589066e+00
 2.3377499946e+00	 4.2724871124e-01	 1.7632304416e+00
 2.3338576586e+00	 4.4802352914e-01	 1.7247249524e+00
 2.3297692940e+00	 4.6881964165e-01	 1.6839103456e+00
 2.3254838307e+00	 4.8963450003e-01	 1.6410307799e+00
 2.3210002387e+00	 5.1046552290e-01	 1.5963090982e+00
 2.3163175290e+00	 5.3131009699e-01	 1.5499496124e+00
 2.3114347549e+00	 5.5216557783e-01	 1.5021412422e+00
 2.3063510126e+00	 5.7302929053e-01	 1.4530610036e+00
 2.3010654424e+00	 5.9389853053e-01	 1.4028098864e+00
 2.2955772296e+00	 6.1477056446e-01	 1.3503299504e+00
 2.3501418341e+00	 4.0800713853e-01	 1.7863258948e+00
 2.3464306878e+00	 4.2883520038e-01	 1.7509669315e+00
 2.3425238984e+00	 4.4968716075e-01	 1.7130624890e+00
 2.3384203527e+00	 4.7056049481e-01	 1.6728692173e+00
 2.3341189763e+00	 4.9145264434e-01	 1.6306180125e+00
 2.3296187355e+00	 5.1236101839e-01	 1.5865164978e+00
 2.3249186377e+00	 5.3328299398e-01	 1.5407518655e+00
 2.3200177325e+00	 5.5421591682e-01	 1.4934940793e+00
 2.3149151129e+00	 5.7515710208e-01	 1.4448994346e+00
 2.3096099159e+00	 5.9610383517e-01	 1.3949904582e+00
 2.3041013239e+00	 6.1705337257e-01	 1.3426869806e+00
 2.3588362395e+00	 4.0951657061e-01	 1.7736413896e+00
 2.3551113637e+00	 4.3042168637e-01	 1.7384729521e+00
 2.3511901211e+00	 4.5135078906e-01	 1.7011555624e+00
 2.3470713942e+00	 4.7230134451e-01	 1.6616557373e+00
 2.3427541048e+00	 4.9327078505e-01	 1.6201101138e+00
 2.3382372152e+00	 5.1425651012e-01	 1.5767079824e+00
 2.3335197293e+00	 5.3525588706e-01	 1.5316162534e+00
 2.3286006931e+00	 5.5626625174e-01	 1.4849827273e+00
 2.3234791962e+00	 5.7728490941e-01	 1.4369397308e+00
 2.3181543725e+00	 5.9830913543e-01	 1.3874158652e+00
 2.3126254014e+00	 6.1933617614e-01	 1.3353461305e+00
 2.3675306252e+00	 4.1102599927e-01	 1.7626476877e+00
 2.3637920200e+00	 4.3200816876e-01	 1.7273826155e+00
 2.3598563242e+00	 4.5301441360e-01	 1.6898132602e+00
 2.3557224161e+00	 4.7404219027e-01	 1.6503852548e+00
 2.3513892137e+00	 4.9508892163e-01	 1.6094776440e+00
 2.3468556754e+00	 5.1615199756e-01	 1.5668591119e+00
 2.3421208014e+00	 5.3722877566e-01	 1.5225237511e+00
 2.3371836342e+00	 5.5831658201e-01	 1.4765940122e+00
 2.3320432601e+00	 5.7941271192e-01	 1.4291750263e+00
 2.3266988098e+00	 6.0051443070e-01	 1.3800885862e+00
 2.3211494595e+00	 6.2161897455e-01	 1.3283160442e+00
 2.3762249887e+00	 4.1253542408e-01	 1.7534443461e+00
 2.3724726541e+00	 4.3359464711e-01	 1.7183575204e+00
 2.3685225051e+00	 4.5467803390e-01	 1.6807517792e+00
 2.3643734159e+00	 4.7578303159e-01	 1.6410638882e+00
 2.3600243005e+00	 4.9690705358e-01	 1.5997103222e+00
 2.3554741136e+00	 5.1804748016e-01	 1.5570858373e+00
 2.3507218515e+00	 5.3920165923e-01	 1.5134563091e+00
 2.3457665534e+00	 5.6036690706e-01	 1.4683157266e+00
 2.3406073021e+00	 5.8154050900e-01	 1.4215994088e+00
 2.3352432252e+00	 6.0271972034e-01	 1.3730117914e+00
 2.3296734959e+00	 6.2390176713e-01	 1.3216059995e+00
 2.2444324436e+00	 6.0107365699e-01	 1.4021314786e+00
 2.2388676277e+00	 6.2148070031e-01	 1.3474332808e+00
 2.2331032293e+00	 6.4188505094e-01	 1.2914198981e+00
 2.2271385922e+00	 6.6228395880e-01	 1.2340875835e+00
 2.2209731076e+00	 6.8267464922e-01	 1.1754433384e+00
 2.2146062150e+00	 7.0305432391e-01	 1.1155075903e+00
 2.2080374030e+00	 7.2342016191e-01	 1.0543166176e+00
 2.2012662103e+00	 7.4376932065e-01	 9.9192468570e-01
 2.1942922261e+00	 7.6409893695e-01	 9.2840586604e-01
 2.1871150913e+00	 7.8440612811e-01	 8.6385550461e-01
 2.1797344988e+00	 8.0468799300e-01	 7.9839131351e-01
 2.2529565887e+00	 6.0335647868e-01	 1.3928201152e+00
 2.2473706381e+00	 6.2384102604e-01	 1.3381648420e+00
 2.2415843471e+00	 6.4432287049e-01	 1.2822541099e+00
 2.2355970569e+00	 6.6479925150e-01	 1.2250766340e+00
 2.2294081563e+00	 6.8526738386e-01	 1.1666323675e+00
 2.2230170828e+00	 7.0572445865e-01	 1.1069352991e+00
 2.2164233231e+00	 7.2616764421e-01	 1.0460159869e+00
 2.2096264140e+00	 7.4659408716e-01	 9.8392379713e-01
 2.2026259434e+00	 7.6700091344e-01	 9.2072881279e-01
 2.1954215505e+00	 7.8738522942e-01	 8.5652338281e-01
 2.1880129271e+00	 8.0774412295e-01	 7.9142328110e-01
 2.2614807314e+00	 6.0563929971e-01	 1.3837730794e+00
 2.2558736461e+00	 6.2620135111e-01	 1.3291589003e+00
 2.2500654625e+00	 6.4676068935e-01	 1.2733310096e+00
 2.2440555191e+00	 6.6731454349e-01	 1.2162739369e+00
 2.2378432026e+00	 6.8786011777e-01	 1.1579839825e+00
 2.2314279483e+00	 7.0839459264e-01	 1.0984721305e+00
 2.2248092408e+00	 7.2891512573e-01	 1.0377666918e+00
 2.2179866154e+00	 7.4941885286e-01	 9.7591564027e-01
 2.2109596582e+00	 7.6990288911e-01	 9.1298861030e-01
 2.2037280072e+00	 7.9036432989e-01	 8.4907852172e-01
 2.1962913531e+00	 8.1080025202e-01	 7.8430280325e-01
 2.2700048692e+00	 6.0792211946e-01	 1.3749949246e+00
 2.2643766493e+00	 6.2856167483e-01	 1.3204265822e+00
 2.2585465730e+00	 6.4919850683e-01	 1.2646679906e+00
 2.2525139766e+00	 6.6982983405e-01	 1.2077027841e+00
 2.2462782442e+00	 6.9045285021e-01	 1.1495269420e+00
 2.2398388090e+00	 7.1106472512e-01	 1.0901518173e+00
 2.2331951538e+00	 7.3166260569e-01	 1.0296068853e+00
 2.2263468121e+00	 7.5224361697e-01	 9.6794217601e-01
 2.2192933683e+00	 7.7280486314e-01	 9.0523035621e-01
 2.2120344593e+00	 7.9334342867e-01	 8.4156842800e-01
 2.2045697743e+00	 8.1385637937e-01	 7.7707901248e-01
 2.2785289998e+00	 6.1020493726e-01	 1.3664909214e+00
 2.2728796453e+00	 6.3092199655e-01	 1.3119796671e+00
 2.2670276764e+00	 6.5163632224e-01	 1.2562830371e+00
 2.2609724268e+00	 6.7234512248e-01	 1.1993869965e+00
 2.2547132785e+00	 6.9304558044e-01	 1.1412904743e+00
 2.2482496625e+00	 7.1373485532e-01	 1.0820085046e+00
 2.2415810597e+00	 7.3441008332e-01	 1.0215750793e+00
 2.2347070016e+00	 7.5506837867e-01	 9.6004567377e-01
 2.2276270714e+00	 7.7570683470e-01	 8.9749941129e-01
 2.2203409043e+00	 7.9632252491e-01	 8.3404083137e-01
 2.2128481886e+00	 8.1691250411e-01	 7.6980123038e-01
 2.2870531207e+00	 6.1248775248e-01	 1.3582670428e+00
 2.2813826316e+00	 6.3328231559e-01	 1.3038305743e+00
 2.2755087702e+00	 6.5407413489e-01	 1.2481947098e+00
 2.2694308675e+00	 6.7486040805e-01	 1.1913509101e+00
 2.2631483033e+00	 6.9563830774e-01	 1.1333042628e+00
 2.2566605065e+00	 7.1640498251e-01	 1.0740767352e+00
 2.2499669560e+00	 7.3715755784e-01	 1.0137101287e+00
 2.2430671817e+00	 7.5789313717e-01	 9.5226869553e-01
 2.2359607650e+00	 7.7860880297e-01	 8.8984138255e-01
 2.2286473399e+00	 7.9930161779e-01	 8.2654366652e-01
 2.2211265934e+00	 8.1996862540e-01	 7.6251894806e-01
 2.2955772296e+00	 6.1477056446e-01	 1.3503299504e+00
 2.2898856059e+00	 6.3564263130e-01	 1.2959923482e+00
 2.2839898519e+00	 6.5651194408e-01	 1.2404221323e+00
 2.2778892962e+00	 6.7737569007e-01	 1.1836193620e+00
 2.2715833162e+00	 6.9823103136e-01	 1.1255984320e+00
 2.2650713386e+00	 7.1907510590e-01	 1.0663914353e+00
 2.2583528405e+00	 7.3990502846e-01	 1.0060512168e+00
 2.2514273499e+00	 7.6071789168e-01	 9.4465407995e-01
 2.2442944468e+00	 7.8151076713e-01	 8.8230210633e-01
 2.2369537637e+00	 8.0228070644e-01	 8.1912505507e-01
 2.2294049866e+00	 8.2302474235e-01	 7.5528180673e-01
 2.3041013239e+00	 6.1705337257e-01	 1.3426869806e+00
 2.2983885658e+00	 6.3800294299e-01	 1.2884786450e+00
 2.2924709192e+00	 6.5894974913e-01	 1.2329849772e+00
 2.2863477105e+00	 6.7989096780e-01	 1.1762176767e+00
 2.2800183147e+00	 7.0082375058e-01	 1.1182035334e+00
 2.2734821564e+00	 7.2174522476e-01	 1.0589878993e+00
 2.2667387107e+00	 7.4265249441e-01	 9.9863783983e-01
 2.2597875039e+00	 7.6354264138e-01	 9.3724492646e-01
 2.2526281144e+00	 7.8441272636e-01	 8.7492763145e-01
 2.2452601734e+00	 8.0525979002e-01	 8.1183328747e-01
 2.2376833656e+00	 8.2608085411e-01	 7.4813957815e-01
 2.3126254014e+00	 6.1933617614e-01	 1.3353461305e+00
 2.3068915087e+00	 6.4036324999e-01	 1.2813037191e+00
 2.3009519697e+00	 6.6138754934e-01	 1.2259034526e+00
 2.2948061081e+00	 6.8240624055e-01	 1.1691716519e+00
 2.2884532965e+00	 7.0341646466e-01	 1.1111505313e+00
 2.2818929575e+00	 7.2441533833e-01	 1.0519017763e+00
 2.2751245643e+00	 7.4539995492e-01	 9.9150979191e-01
 2.2681476413e+00	 7.6636738547e-01	 9.3008457931e-01
 2.2609617655e+00	 7.8731467983e-01	 8.6776420228e-01
 2.2535665666e+00	 8.0823886770e-01	 8.0471680489e-01
 2.2459617283e+00	 8.2913695981e-01	 7.4114214521e-01
 2.3211494595e+00	 6.2161897455e-01	 1.3283160442e+00
 2.3153944324e+00	 6.4272355165e-01	 1.2744824091e+00
 2.3094330010e+00	 6.6382534403e-01	 1.2191982881e+00
 2.3032644864e+00	 6.8492150760e-01	 1.1625075452e+00
 2.2968882592e+00	 7.0600917285e-01	 1.1044707886e+00
 2.2903037396e+00	 7.2708544584e-01	 1.0451690546e+00
 2.2835103988e+00	 7.4814740919e-01	 9.8470715001e-01
 2.2765077598e+00	 7.6919212317e-01	 9.2321661168e-01
 2.2692953977e+00	 7.9021662672e-01	 8.6085824189e-01
 2.2618729410e+00	 8.1121793862e-01	 7.9782418124e-01
 2.2542400721e+00	 8.3219305857e-01	 7.3433948240e-01
 2.3296734959e+00	 6.2390176713e-01	 1.3216059995e+00
 2.3238973344e+00	 6.4508384729e-01	 1.2680301244e+00
 2.3179140106e+00	 6.6626313250e-01	 1.2128907217e+00
 2.3117228432e+00	 6.8743676824e-01	 1.1562520600e+00
 2.3053232003e+00	 7.0860187444e-01	 1.0981960532e+00
 2.2987145002e+00	 7.2975554654e-01	 1.0388260477e+00
 2.2918962120e+00	 7.5089485646e-01	 9.7827025876e-01
 2.2848678569e+00	 7.7201685366e-01	 9.1668480981e-01
 2.2776290086e+00	 7.9311856621e-01	 8.5425633512e-01
 2.2701792942e+00	 8.1419700195e-01	 7.9120410501e-01
 2.2625183949e+00	 8.3524914955e-01	 7.2778163638e-01
 2.1797344988e+00	 8.0468799300e-01	 7.9839131351e-01
 2.1721488872e+00	 8.2494505378e-01	 7.3185782428e-01
 2.1643592920e+00	 8.4517092319e-01	 6.6424002139e-01
 2.1563655651e+00	 8.6536264914e-01	 5.9586676073e-01
 2.1481676131e+00	 8.8551726570e-01	 5.2708856739e-01
 2.1397653980e+00	 9.0563179433e-01	 4.5827625665e-01
 2.1311589378e+00	 9.2570324514e-01	 3.8981905452e-01
 2.1223483067e+00	 9.4572861812e-01	 3.2212220859e-01
 2.1133336360e+00	 9.6570490446e-01	 2.5560408399e-01
 2.1041151143e+00	 9.8562908784e-01	 1.9069274232e-01
 2.0946929879e+00	 1.0054981458e+00	 1.2782200597e-01
 2.1880129271e+00	 8.0774412295e-01	 7.9142328110e-01
 2.1803985061e+00	 8.2807811815e-01	 7.2526129386e-01
 2.1725793267e+00	 8.4838080353e-01	 6.5800644039e-01
 2.1645552404e+00	 8.6864921577e-01	 5.8998122588e-01
 2.1563261533e+00	 8.8888037768e-01	 5.2153103841e-01
 2.1478920274e+00	 9.0907129942e-01	 4.5302277741e-01
 2.1392528806e+00	 9.2921897972e-01	 3.8484296633e-01
 2.1304087876e+00	 9.4932040720e-01	 3.1739533976e-01
 2.1213598801e+00	 9.6937256161e-01	 2.5109789948e-01
 2.1121063473e+00	 9.8937241519e-01	 1.8637943744e-01
 2.1026484365e+00	 1.0093169340e+00	 1.2367552766e-01
 2.1962913531e+00	 8.1080025202e-01	 7.8430280325e-01
 2.1886481226e+00	 8.3121118164e-01	 7.1848559466e-01
 2.1807993591e+00	 8.5159068295e-01	 6.5157874439e-01
 2.1727449133e+00	 8.7193578146e-01	 5.8389558813e-01
 2.1644846912e+00	 8.9224348871e-01	 5.1577362285e-01
 2.1560186545e+00	 9.1251080353e-01	 4.4757314696e-01
 2.1473468212e+00	 9.3273471331e-01	 3.7967536870e-01
 2.1384692662e+00	 9.5291219527e-01	 3.1247997284e-01
 2.1293861218e+00	 9.7304021773e-01	 2.4640213989e-01
 2.1200975780e+00	 9.9311574147e-01	 1.8186901563e-01
 2.1106038828e+00	 1.0131357210e+00	 1.1931563282e-01
 2.2045697743e+00	 8.1385637937e-01	 7.7707901248e-01
 2.1968977345e+00	 8.3434424334e-01	 7.1158116271e-01
 2.1890193868e+00	 8.5480056056e-01	 6.4500886277e-01
 2.1809345817e+00	 8.7522234530e-01	 5.7766348440e-01
 2.1726432245e+00	 8.9560659783e-01	 5.0987190516e-01
 2.1641452770e+00	 9.1595030569e-01	 4.4198516427e-01
 2.1554407572e+00	 9.3625044490e-01	 3.7437657042e-01
 2.1465297403e+00	 9.5650398129e-01	 3.0743925136e-01
 2.1374123590e+00	 9.7670787176e-01	 2.4158313919e-01
 2.1280888041e+00	 9.9685906563e-01	 1.7723138892e-01
 2.1185593247e+00	 1.0169545060e+00	 1.1481623228e-01
 2.2128481886e+00	 8.1691250411e-01	 7.6980123038e-01
 2.2051473393e+00	 8.3747730239e-01	 7.0459858818e-01
 2.1972394076e+00	 8.5801043544e-01	 6.3834883553e-01
 2.1891242430e+00	 8.7850890634e-01	 5.7133860981e-01
 2.1808017509e+00	 8.9896970409e-01	 5.0388146628e-01
 2.1722718926e+00	 9.1938980493e-01	 4.3631655357e-01
 2.1635346863e+00	 9.3976617351e-01	 3.6900672447e-01
 2.1545902075e+00	 9.6009576427e-01	 3.0233607183e-01
 2.1454385894e+00	 9.8037552268e-01	 2.3670688272e-01
 2.1360800235e+00	 1.0006023866e+00	 1.7253600860e-01
 2.1265147597e+00	 1.0207732877e+00	 1.1025065325e-01
 2.2211265934e+00	 8.1996862540e-01	 7.6251894806e-01
 2.2133969348e+00	 8.4061035788e-01	 6.9758859437e-01
 2.2054594190e+00	 8.6122030668e-01	 6.3165079081e-01
 2.1973138951e+00	 8.8179546365e-01	 5.6497469378e-01
 2.1889602680e+00	 9.0233280655e-01	 4.9785785845e-01
 2.1803984990e+00	 9.2282930027e-01	 4.3062493779e-01
 2.1716286062e+00	 9.4328189813e-01	 3.6362580022e-01
 2.1626506656e+00	 9.6368754317e-01	 2.9723305482e-01
 2.1534648107e+00	 9.8404316944e-01	 2.3183897736e-01
 2.1440712338e+00	 1.0043457033e+00	 1.6785183447e-01
 2.1344701858e+00	 1.0245920650e+00	 1.0569160772e-01
 2.2294049866e+00	 8.2302474235e-01	 7.5528180673e-01
 2.2216465186e+00	 8.4374340893e-01	 6.9060201670e-01
 2.2136794188e+00	 8.6443017337e-01	 6.2496692245e-01
 2.2055035356e+00	 8.8508201631e-01	 5.5862547618e-01
 2.1971187736e+00	 9.0569590423e-01	 4.9185657988e-01
 2.1885250938e+00	 9.2626879073e-01	 4.2496781209e-01
 2.1797225147e+00	 9.4679761777e-01	 3.5829355575e-01
 2.1707111122e+00	 9.6727931699e-01	 2.9219251618e-01
 2.1614910207e+00	 9.8771081101e-01	 2.2704462164e-01
 2.1520624328e+00	 1.0080890148e+00	 1.6324730399e-01
 2.1424256006e+00	 1.0284108369e+00	 1.0121116094e-01
 2.2376833656e+00	 8.2608085411e-01	 7.4813957815e-01
 2.2298960884e+00	 8.4687645466e-01	 6.8368978169e-01
 2.2218994046e+00	 8.6764003461e-01	 6.1834946750e-01
 2.2136931621e+00	 8.8836856338e-01	 5.5234468338e-01
 2.2052772652e+00	 9.0905899620e-01	 4.8593304961e-01
 2.1966516749e+00	 9.2970827535e-01	 4.1940251727e-01
 2.1878164094e+00	 9.5031333143e-01	 3.5306951008e-01
 2.1787715452e+00	 9.7087108470e-01	 2.8727643811e-01
 2.1695172169e+00	 9.9137844633e-01	 2.2238857583e-01
 2.1600536182e+00	 1.0118323198e+00	 1.5879030153e-01
 2.1503810018e+00	 1.0322296024e+00	 9.6880699688e-02
 2.2459617283e+00	 8.2913695981e-01	 7.4114214521e-01
 2.2381456418e+00	 8.5000949417e-01	 6.7690288604e-01
 2.2301193741e+00	 8.7084988948e-01	 6.1185068380e-01
 2.2218827725e+00	 8.9165510393e-01	 5.4618600446e-01
 2.2134357407e+00	 9.1242208150e-01	 4.8014258222e-01
 2.2047782398e+00	 9.3314775314e-01	 4.1398621334e-01
 2.1959102881e+00	 9.5382903812e-01	 3.4801291548e-01
 2.1868319622e+00	 9.7446284528e-01	 2.8254644038e-01
 2.1775433973e+00	 9.9504607439e-01	 2.1793513208e-01
 2.1680447877e+00	 1.0155756175e+00	 1.5454812749e-01
 2.1583363873e+00	 1.0360483603e+00	 9.2770900670e-02
 2.2542400721e+00	 8.3219305857e-01	 7.3433948240e-01
 2.2463951765e+00	 8.5314252659e-01	 6.7029237563e-01
 2.2383393250e+00	 8.7405973707e-01	 6.0552282757e-01
 2.2300723642e+00	 8.9494163704e-01	 5.4020306739e-01
 2.2215941978e+00	 9.1578515917e-01	 4.7454036273e-01
 2.2129047863e+00	 9.3658722314e-01	 4.0877585300e-01
 2.2040041484e+00	 9.5734473684e-01	 3.4318272975e-01
 2.1948923609e+00	 9.7805459772e-01	 2.7806375142e-01
 2.1855695595e+00	 9.9871369413e-01	 2.1374808449e-01
 2.1760359392e+00	 1.0193189067e+00	 1.5058746742e-01
 2.1662917548e+00	 1.0398671095e+00	 8.8951698772e-02
 2.2625183949e+00	 8.3524914955e-01	 7.2778163638e-01
 2.2546446902e+00	 8.5627555101e-01	 6.6390932456e-01
 2.2465592549e+00	 8.7726957648e-01	 5.9941813096e-01
 2.2382619351e+00	 8.9822816176e-01	 5.3444941513e-01
 2.2297526340e+00	 9.1914822827e-01	 4.6918142134e-01
 2.2210313121e+00	 9.4002668437e-01	 4.0382815519e-01
 2.2120979880e+00	 9.6086042659e-01	 3.3863758853e-01
 2.2029527390e+00	 9.8164634100e-01	 2.7388917952e-01
 2.1935957011e+00	 1.0023813045e+00	 2.0989069922e-01
 2.1840270702e+00	 1.0230621863e+00	 1.4697436121e-01
 2.1742471019e+00	 1.0436858490e+00	 8.5492255337e-02
 2.0946929879e+00	 1.0054981458e+00	 1.2782200597e-01
 2.0850692143e+00	 1.0253056884e+00	 6.6746190745e-02
 2.0752425708e+00	 1.0450520678e+00	 6.7157827602e-03
 2.0652134774e+00	 1.0647342514e+00	-5.2561214487e-02
 2.0549824128e+00	 1.0843492062e+00	-1.1138511009e-01
 2.0445499154e+00	 1.1038938996e+00	-1.7006987299e-01
 2.0339165827e+00	 1.1233653013e+00	-2.2894889446e-01
 2.0230830718e+00	 1.1427603843e+00	-2.8838113695e-01
 2.0120500994e+00	 1.1620761269e+00	-3.4875763627e-01
 2.0008184419e+00	 1.1813095133e+00	-4.1043063122e-01
 1.9893889355e+00	 1.2004575360e+00	-4.7220958182e-01
 2.1026484365e+00	 1.0093169340e+00	 1.2367552766e-01
 2.0929881127e+00	 1.0291997038e+00	 6.2787596808e-02
 2.0831241486e+00	 1.0490210780e+00	 3.0044877787e-03
 2.0730569655e+00	 1.0687780128e+00	-5.5975982996e-02
 2.0627870444e+00	 1.0884674633e+00	-1.1446365941e-01
 2.0523149253e+00	 1.1080863857e+00	-1.7278151782e-01
 2.0416412082e+00	 1.1276317379e+00	-2.3127156858e-01
 2.0307665526e+00	 1.1471004817e+00	-2.9030115737e-01
 2.0196916780e+00	 1.1664895836e+00	-3.5026963254e-01
 2.0084173637e+00	 1.1857960167e+00	-4.1133447828e-01
 1.9969444491e+00	 1.2050167618e+00	-4.7222282605e-01
 2.1106038828e+00	 1.0131357210e+00	 1.1931563282e-01
 2.1009070089e+00	 1.0330937181e+00	 5.8589651731e-02
 2.0910057241e+00	 1.0529900872e+00	-9.7888705560e-04
 2.0809004515e+00	 1.0728217730e+00	-5.9698991545e-02
 2.0705916737e+00	 1.0925857193e+00	-1.1788667952e-01
 2.0600799330e+00	 1.1122788705e+00	-1.7587058374e-01
 2.0493658315e+00	 1.1318981733e+00	-2.3399800103e-01
 2.0384500312e+00	 1.1514405778e+00	-2.9264135495e-01
 2.0273332544e+00	 1.1709030391e+00	-3.5220503753e-01
 2.0160162834e+00	 1.1902825187e+00	-4.1253663345e-01
 2.0044999606e+00	 1.2095759862e+00	-4.7254186970e-01
 2.1185593247e+00	 1.0169545060e+00	 1.1481623228e-01
 2.1088259006e+00	 1.0369877301e+00	 5.4230137916e-02
 2.0988872951e+00	 1.0569590941e+00	-5.1534028929e-03
 2.0887439330e+00	 1.0768655310e+00	-6.3646887097e-02
 2.0783962986e+00	 1.0967039729e+00	-1.2156917116e-01
 2.0678449363e+00	 1.1164713531e+00	-1.7925121751e-01
 2.0570904504e+00	 1.1361646064e+00	-2.3704229977e-01
 2.0461335055e+00	 1.1557806715e+00	-2.9531663568e-01
 2.0349748265e+00	 1.1753164921e+00	-3.5448041236e-01
 2.0236151987e+00	 1.1947690183e+00	-4.1397065962e-01
 2.0120554678e+00	 1.2141352081e+00	-4.7310550521e-01
 2.1265147597e+00	 1.0207732877e+00	 1.1025065325e-01
 2.1167447855e+00	 1.0408817389e+00	 4.9786129036e-02
 2.1067688594e+00	 1.0609280976e+00	-9.4389477743e-03
 2.0965874078e+00	 1.0809092855e+00	-6.7737253897e-02
 2.0862009169e+00	 1.1008222231e+00	-1.2542717412e-01
 2.0756099330e+00	 1.1206638320e+00	-1.8283869729e-01
 2.0648150627e+00	 1.1404310357e+00	-2.4031978622e-01
 2.0538169733e+00	 1.1601207615e+00	-2.9824318983e-01
 2.0426163921e+00	 1.1797299413e+00	-3.5698271371e-01
 2.0312141076e+00	 1.1992555140e+00	-4.1557198663e-01
 2.0196109686e+00	 1.2186944261e+00	-4.7385432315e-01
 2.1344701858e+00	 1.0245920650e+00	 1.0569160772e-01
 2.1246636615e+00	 1.0447757432e+00	 4.5333957643e-02
 2.1146504148e+00	 1.0648970967e+00	-1.3756270037e-02
 2.1044308737e+00	 1.0849530354e+00	-7.1888648100e-02
 2.0940055263e+00	 1.1049404686e+00	-1.2937780335e-01
 2.0833749208e+00	 1.1248563062e+00	-1.8654947038e-01
 2.0725396663e+00	 1.1446974603e+00	-2.4374703483e-01
 2.0615004323e+00	 1.1644608465e+00	-3.0133853378e-01
 2.0502579491e+00	 1.1841433856e+00	-3.5955747827e-01
 2.0388130079e+00	 1.2037420046e+00	-4.1727788155e-01
 2.0271664608e+00	 1.2232536390e+00	-4.7473068321e-01
 2.1424256006e+00	 1.0284108369e+00	 1.0121116094e-01
 2.1325825262e+00	 1.0486697420e+00	 4.0949182737e-02
 2.1225319590e+00	 1.0688660901e+00	-1.8027011787e-02
 2.1122743285e+00	 1.0889967796e+00	-7.6020632481e-02
 2.1018101246e+00	 1.1090587082e+00	-1.3333928508e-01
 2.0911398977e+00	 1.1290487744e+00	-1.9030119104e-01
 2.0802642590e+00	 1.1489638788e+00	-2.4724191289e-01
 2.0691838805e+00	 1.1688009254e+00	-3.0452155182e-01
 2.0578994952e+00	 1.1885568235e+00	-3.6213523987e-01
 2.0464118975e+00	 1.2082284889e+00	-4.1902741913e-01
 2.0347219423e+00	 1.2278128453e+00	-4.7567868518e-01
 2.1503810018e+00	 1.0322296024e+00	 9.6880699688e-02
 2.1405013775e+00	 1.0525637342e+00	 3.6706557268e-02
 2.1304134899e+00	 1.0728350767e+00	-2.2173742433e-02
 2.1201177700e+00	 1.0930405169e+00	-8.0053811213e-02
 2.1096147097e+00	 1.1131769409e+00	-1.3723099305e-01
 2.0989048614e+00	 1.1332412356e+00	-1.9401275837e-01
 2.0879888385e+00	 1.1532302900e+00	-2.5072362018e-01
 2.0768673155e+00	 1.1731409969e+00	-3.0771253802e-01
 2.0655410284e+00	 1.1929702540e+00	-3.6465272257e-01
 2.0540107741e+00	 1.2127149656e+00	-4.2076145211e-01
 2.0422774110e+00	 1.2323720440e+00	-4.7664413988e-01
 2.1583363873e+00	 1.0360483603e+00	 9.2770900670e-02
 2.1484202131e+00	 1.0564577187e+00	 3.2679995595e-02
 2.1382950050e+00	 1.0768040555e+00	-2.6119992288e-02
 2.1279611960e+00	 1.0970842462e+00	-8.3909864716e-02
 2.1174192793e+00	 1.1172951653e+00	-1.4097348484e-01
 2.1066698097e+00	 1.1374336884e+00	-1.9760435430e-01
 2.0957134027e+00	 1.1574966928e+00	-2.5411272894e-01
 2.0845507354e+00	 1.1774810599e+00	-3.1083078397e-01
 2.0731825464e+00	 1.1973836758e+00	-3.6704845282e-01
 2.0616096356e+00	 1.2172014333e+00	-4.2242258171e-01
 2.0498328647e+00	 1.2369312335e+00	-4.7757454018e-01
 2.1662917548e+00	 1.0398671095e+00	 8.8951698772e-02
 2.1563390307e+00	 1.0603516944e+00	 2.8942540897e-02
 2.1461765024e+00	 1.0807730253e+00	-2.9790286226e-02
 2.1358046041e+00	 1.1011279663e+00	-8.7511584577e-02
 2.1252238313e+00	 1.1214133805e+00	-1.4448853821e-01
 2.1144347404e+00	 1.1416261317e+00	-2.0099748159e-01
 2.1034379494e+00	 1.1617630859e+00	-2.5733122366e-01
 2.0922341378e+00	 1.1818211130e+00	-3.1373771741e-01
 2.0808240470e+00	 1.2017970875e+00	-3.6926272958e-01
 2.0692084799e+00	 1.2216878909e+00	-4.2395512801e-01
 2.0573883012e+00	 1.2414904128e+00	-4.7841903193e-01
 2.1742471019e+00	 1.0436858490e+00	 8.5492255337e-02
 2.1642578281e+00	 1.0642456601e+00	 2.5566332533e-02
 2.1540579796e+00	 1.0847419850e+00	-3.3110177402e-02
 2.1436479923e+00	 1.1051716761e+00	-9.0782908532e-02
 2.1330283633e+00	 1.1255315851e+00	-1.4769918758e-01
 2.1221996512e+00	 1.1458185643e+00	-2.0411500197e-01
 2.1111624763e+00	 1.1660294682e+00	-2.6030254114e-01
 2.0999175207e+00	 1.1861611550e+00	-3.1634171597e-01
 2.0884655282e+00	 1.2062104879e+00	-3.7123759454e-01
 2.0768073048e+00	 1.2261743371e+00	-4.2530510044e-01
 2.0649437185e+00	 1.2460495804e+00	-4.7912838492e-01
 1.9893889355e+00	 1.2004575360e+00	-4.7220958182e-01
 1.9777624767e+00	 1.2195171970e+00	-5.3335351913e-01
 1.9659400232e+00	 1.2384855106e+00	-5.9320680804e-01
 1.9539225930e+00	 1.2573595038e+00	-6.5149268618e-01
 1.9417112635e+00	 1.2761362175e+00	-7.0794492136e-01
 1.9293071710e+00	 1.2948127076e+00	-7.6230985725e-01
 1.9167115110e+00	 1.3133860468e+00	-8.1434849986e-01
 1.9039255374e+00	 1.3318533261e+00	-8.6383864046e-01
 1.8909505627e+00	 1.3502116560e+00	-9.1057700943e-01
 1.8777879572e+00	 1.3684581680e+00	-9.5438145544e-01
 1.8644391488e+00	 1.3865900162e+00	-9.9509314367e-01
 1.9969444491e+00	 1.2050167618e+00	-4.7222282605e-01
 1.9852738341e+00	 1.2241488096e+00	-5.3261615658e-01
 1.9734064800e+00	 1.2431891631e+00	-5.9188291396e-01
 1.9613434088e+00	 1.2621348379e+00	-6.4972615142e-01
 1.9490857018e+00	 1.2809828638e+00	-7.0585991763e-01
 1.9366344997e+00	 1.2997302855e+00	-7.6001135889e-01
 1.9239910025e+00	 1.3183741645e+00	-8.1192286355e-01
 1.9111564690e+00	 1.3369115809e+00	-8.6135424393e-01
 1.8981322166e+00	 1.3553396340e+00	-9.0808495041e-01
 1.8849196207e+00	 1.3736554445e+00	-9.5191631207e-01
 1.8715201148e+00	 1.3918561558e+00	-9.9267379731e-01
 2.0044999606e+00	 1.2095759862e+00	-4.7254186970e-01
 1.9927851894e+00	 1.2287804208e+00	-5.3217648642e-01
 1.9808729348e+00	 1.2478928142e+00	-5.9083789610e-01
 1.9687642225e+00	 1.2669101707e+00	-6.4821258423e-01
 1.9564601380e+00	 1.2858295088e+00	-7.0399843959e-01
 1.9439618263e+00	 1.3046478620e+00	-7.5790690752e-01
 1.9312704920e+00	 1.3233622808e+00	-8.0966518681e-01
 1.9183873986e+00	 1.3419698341e+00	-8.5901846538e-01
 1.9053138684e+00	 1.3604676104e+00	-9.0573218946e-01
 1.8920512822e+00	 1.3788527195e+00	-9.4959436055e-01
 1.8786010788e+00	 1.3971222939e+00	-9.9041785364e-01
 2.0120554678e+00	 1.2141352081e+00	-4.7310550521e-01
 2.0002965404e+00	 1.2334120295e+00	-5.3197862017e-01
 1.9883393853e+00	 1.2525964626e+00	-5.9002043144e-01
 1.9761850319e+00	 1.2716855008e+00	-6.4690443265e-01
 1.9638345700e+00	 1.2906761510e+00	-7.0231587145e-01
 1.9512891488e+00	 1.3095654357e+00	-7.5595394849e-01
 1.9385499774e+00	 1.3283503943e+00	-8.0753406126e-01
 1.9256183241e+00	 1.3470280845e+00	-8.5679008838e-01
 1.9124955162e+00	 1.3655955840e+00	-9.0347670865e-01
 1.8991829397e+00	 1.3840499916e+00	-9.4737174940e-01
 1.8856820388e+00	 1.4023884289e+00	-9.8827855731e-01
 2.0196109686e+00	 1.2186944261e+00	-4.7385432315e-01
 2.0078078850e+00	 1.2380436342e+00	-5.3196839712e-01
 1.9958058294e+00	 1.2573001071e+00	-5.8938086547e-01
 1.9836058351e+00	 1.2764608268e+00	-6.4575576576e-01
 1.9712089957e+00	 1.2955227890e+00	-7.0076918357e-01
 1.9586164650e+00	 1.3144830052e+00	-7.5411149155e-01
 1.9458294565e+00	 1.3333385035e+00	-8.0548963510e-01
 1.9328492434e+00	 1.3520863306e+00	-8.5462945979e-01
 1.9196771578e+00	 1.3707235532e+00	-9.0127807532e-01
 1.9063145911e+00	 1.3892472592e+00	-9.4520625015e-01
 1.8927629927e+00	 1.4076545595e+00	-9.8621083017e-01
 2.0271664608e+00	 1.2232536390e+00	-4.7473068321e-01
 2.0153192212e+00	 1.2426752336e+00	-5.3209335599e-01
 2.0032722651e+00	 1.2620037462e+00	-5.8887118431e-01
 1.9910266298e+00	 1.2812361474e+00	-6.4472224617e-01
 1.9785834131e+00	 1.3003694216e+00	-6.9931690497e-01
 1.9659437729e+00	 1.3194005692e+00	-7.5234008335e-01
 1.9531089275e+00	 1.3383266071e+00	-8.0349358525e-01
 1.9400801545e+00	 1.3571445710e+00	-8.5249846137e-01
 1.9268587914e+00	 1.3758515166e+00	-8.9909741281e-01
 1.9134462344e+00	 1.3944445210e+00	-9.4305722707e-01
 1.8998439386e+00	 1.4129206842e+00	-9.8417123973e-01
 2.0347219423e+00	 1.2278128453e+00	-4.7567868518e-01
 2.0228305467e+00	 1.2473068265e+00	-5.3230270652e-01
 2.0107386902e+00	 1.2667073787e+00	-5.8844498685e-01
 1.9984474140e+00	 1.2860114612e+00	-6.4376110238e-01
 1.9859578200e+00	 1.3052160474e+00	-6.9791909586e-01
 1.9732710705e+00	 1.3243181262e+00	-7.5060177977e-01
 1.9603883881e+00	 1.3433147036e+00	-8.0150908942e-01
 1.9473110554e+00	 1.3622028042e+00	-8.5036048128e-01
 1.9340404147e+00	 1.3809794728e+00	-8.9689737120e-01
 1.9205778676e+00	 1.3996417754e+00	-9.4088560683e-01
 1.9069248745e+00	 1.4181868013e+00	-9.8211796748e-01
 2.0422774110e+00	 1.2323720440e+00	-4.7664413988e-01
 2.0303418594e+00	 1.2519384115e+00	-5.3254730108e-01
 2.0182051026e+00	 1.2714110031e+00	-5.8805745676e-01
 2.0058681856e+00	 1.2907867669e+00	-6.4283110113e-01
 1.9933322144e+00	 1.3100626649e+00	-6.9653732006e-01
 1.9805983556e+00	 1.3292356748e+00	-7.4886011824e-01
 1.9676678363e+00	 1.3483027916e+00	-7.9950079805e-01
 1.9545419440e+00	 1.3672610288e+00	-8.4818038547e-01
 1.9412220258e+00	 1.3861074202e+00	-8.9464209793e-01
 1.9277094887e+00	 1.4048390209e+00	-9.3865384812e-01
 1.9140057984e+00	 1.4234529095e+00	-9.8001077731e-01
 2.0498328647e+00	 1.2369312335e+00	-4.7757454018e-01
 2.0378531572e+00	 1.2565699873e+00	-5.3277960628e-01
 2.0256715002e+00	 1.2761146183e+00	-5.8766533452e-01
 2.0132889425e+00	 1.2955620631e+00	-6.4189251962e-01
 2.0007065942e+00	 1.3149092727e+00	-6.9513461728e-01
 1.9879256261e+00	 1.3341532137e+00	-7.4708008996e-01
 1.9749472701e+00	 1.3532908697e+00	-7.9743480620e-01
 1.9617728182e+00	 1.3723192434e+00	-8.4592448904e-01
 1.9484036227e+00	 1.3912353574e+00	-8.9229720833e-01
 1.9348410956e+00	 1.4100362562e+00	-9.3632591115e-01
 1.9210867082e+00	 1.4287190073e+00	-9.7781098370e-01
 2.0573883012e+00	 1.2414904128e+00	-4.7841903193e-01
 2.0453644380e+00	 1.2612015526e+00	-5.3295367443e-01
 2.0331378809e+00	 1.2808182228e+00	-5.8722688937e-01
 2.0207096826e+00	 1.3003373485e+00	-6.4090711777e-01
 2.0080809572e+00	 1.3197558696e+00	-6.9367547544e-01
 1.9952528801e+00	 1.3390707414e+00	-7.4522811198e-01
 1.9822266874e+00	 1.3582789366e+00	-7.9527862531e-01
 1.9690036761e+00	 1.3773774465e+00	-8.4356052742e-01
 1.9555852033e+00	 1.3963632831e+00	-8.8982975613e-01
 1.9419726864e+00	 1.4152334797e+00	-9.3386722718e-01
 1.9281676020e+00	 1.4339850932e+00	-9.7548142005e-01
 2.0649437185e+00	 1.2460495804e+00	-4.7912838492e-01
 2.0528756997e+00	 1.2658331062e+00	-5.3302511512e-01
 2.0406042425e+00	 1.2855218152e+00	-5.8670189121e-01
 2.0281304037e+00	 1.3051126218e+00	-6.3983811029e-01
 2.0154553015e+00	 1.3246024542e+00	-6.9212580279e-01
 2.0025801153e+00	 1.3439882566e+00	-7.4327199926e-01
 1.9895060861e+00	 1.3632669907e+00	-7.9300115493e-01
 1.9762345155e+00	 1.3824356367e+00	-8.4105762758e-01
 1.9627667656e+00	 1.4014911956e+00	-8.8720820382e-01
 1.9491042590e+00	 1.4204306899e+00	-9.3124466792e-01
 1.9352484777e+00	 1.4392511656e+00	-9.7298640683e-01
 1.8644391488e+00	 1.3865900162e+00	-9.9509314367e-01
 1.8509033073e+00	 1.4046074294e+00	-1.0343013836e+00
 1.8371842352e+00	 1.4225045086e+00	-1.0738642352e+00
 1.8232835386e+00	 1.4402784720e+00	-1.1140727408e+00
 1.8092028793e+00	 1.4579265664e+00	-1.1552298669e+00
 1.7949439741e+00	 1.4754460677e+00	-1.1976521013e+00
 1.7805085939e+00	 1.4928342830e+00	-1.2416710439e+00
 1.7658985635e+00	 1.5100885515e+00	-1.2876349848e+00
 1.7511157601e+00	 1.5272062460e+00	-1.3319839857e+00
 1.7361621134e+00	 1.5441847742e+00	-1.3703995646e+00
 1.7210396040e+00	 1.5610215801e+00	-1.4042674986e+00
 1.8715201148e+00	 1.3918561558e+00	-9.9267379731e-01
 1.8579328654e+00	 1.4099419974e+00	-1.0318330951e+00
 1.8441616895e+00	 1.4279070480e+00	-1.0711310040e+00
 1.8302081994e+00	 1.4457485153e+00	-1.1108325115e+00
 1.8160740631e+00	 1.4634636355e+00	-1.1512151574e+00
 1.8017610039e+00	 1.4810496743e+00	-1.1925707106e+00
 1.7872707995e+00	 1.4985039284e+00	-1.2352068417e+00
 1.7726052815e+00	 1.5158237270e+00	-1.2794487837e+00
 1.7577663345e+00	 1.5330064329e+00	-1.3246311948e+00
 1.7427558952e+00	 1.5500494440e+00	-1.3645384871e+00
 1.7275759519e+00	 1.5669501944e+00	-1.3992146112e+00
 1.8786010788e+00	 1.3971222939e+00	-9.9041785364e-01
 1.8649624216e+00	 1.4152765639e+00	-1.0295652361e+00
 1.8511391419e+00	 1.4333095859e+00	-1.0686498052e+00
 1.8371328582e+00	 1.4512185571e+00	-1.1079094734e+00
 1.8229452449e+00	 1.4690007031e+00	-1.1475953853e+00
 1.8085780317e+00	 1.4866532792e+00	-1.1879736768e+00
 1.7940330032e+00	 1.5041735722e+00	-1.2293272320e+00
 1.7793119977e+00	 1.5215589008e+00	-1.2719574276e+00
 1.7644169069e+00	 1.5388066181e+00	-1.3161841287e+00
 1.7493496751e+00	 1.5559141120e+00	-1.3577193007e+00
 1.7341122980e+00	 1.5728788071e+00	-1.3933452357e+00
 1.8856820388e+00	 1.4023884289e+00	-9.8827855731e-01
 1.8719919737e+00	 1.4206111274e+00	-1.0274478405e+00
 1.8581165904e+00	 1.4387121208e+00	-1.0663679517e+00
 1.8440575132e+00	 1.4566885957e+00	-1.1052487158e+00
 1.8298164229e+00	 1.4745377675e+00	-1.1443139215e+00
 1.8153950557e+00	 1.4922568810e+00	-1.1838031652e+00
 1.8007952030e+00	 1.5098432127e+00	-1.2239736929e+00
 1.7860187100e+00	 1.5272940714e+00	-1.2651022321e+00
 1.7710674756e+00	 1.5446068001e+00	-1.3074868006e+00
 1.7559434513e+00	 1.5617787768e+00	-1.3499603705e+00
 1.7406486403e+00	 1.5788074164e+00	-1.3866779765e+00
 1.8927629927e+00	 1.4076545595e+00	-9.8621083017e-01
 1.8790215199e+00	 1.4259456863e+00	-1.0254326790e+00
 1.8650940329e+00	 1.4441146510e+00	-1.0642345453e+00
 1.8509821622e+00	 1.4621586297e+00	-1.1027971626e+00
 1.8366875950e+00	 1.4800748272e+00	-1.1413160103e+00
 1.8222120739e+00	 1.4978604780e+00	-1.1800032452e+00
 1.8075573971e+00	 1.5155128484e+00	-1.2190896308e+00
 1.7927254166e+00	 1.5330292371e+00	-1.2588264575e+00
 1.7777180386e+00	 1.5504069771e+00	-1.2994874410e+00
 1.7625372218e+00	 1.5676434366e+00	-1.3412807481e+00
 1.7471849771e+00	 1.5847360207e+00	-1.3792321106e+00
 1.8998439386e+00	 1.4129206842e+00	-9.8417123973e-01
 1.8860510581e+00	 1.4312802392e+00	-1.0234732259e+00
 1.8720714675e+00	 1.4495171752e+00	-1.0622004429e+00
 1.8579068034e+00	 1.4676286575e+00	-1.1005035369e+00
 1.8435587593e+00	 1.4856118806e+00	-1.1385487327e+00
 1.8290290844e+00	 1.5034640687e+00	-1.1765198542e+00
 1.8143195835e+00	 1.5211824777e+00	-1.2146203435e+00
 1.7994321157e+00	 1.5387643964e+00	-1.2530752721e+00
 1.7843685941e+00	 1.5562071475e+00	-1.2921333302e+00
 1.7691309849e+00	 1.5735080897e+00	-1.3320687862e+00
 1.7537213064e+00	 1.5906646183e+00	-1.3710275531e+00
 1.9069248745e+00	 1.4181868013e+00	-9.8211796748e-01
 1.8930805864e+00	 1.4366147846e+00	-1.0215246257e+00
 1.8790488922e+00	 1.4549196916e+00	-1.0602182218e+00
 1.8648314348e+00	 1.4730986776e+00	-1.0983183262e+00
 1.8504299139e+00	 1.4911489262e+00	-1.1359609709e+00
 1.8358460853e+00	 1.5090676514e+00	-1.1733007603e+00
 1.8210817603e+00	 1.5268520990e+00	-1.2105129829e+00
 1.8061388052e+00	 1.5444995475e+00	-1.2477957143e+00
 1.7910191401e+00	 1.5620073097e+00	-1.2853719010e+00
 1.7757247387e+00	 1.5793727345e+00	-1.3234914123e+00
 1.7602576265e+00	 1.5965932074e+00	-1.3620848217e+00
 1.9140057984e+00	 1.4234529095e+00	-9.8001077731e-01
 1.9001101027e+00	 1.4419493208e+00	-1.0195436610e+00
 1.8860263050e+00	 1.4603221989e+00	-1.0582421460e+00
 1.8717560544e+00	 1.4785686883e+00	-1.0961937470e+00
 1.8573010568e+00	 1.4966859623e+00	-1.1335033721e+00
 1.8426630745e+00	 1.5146712247e+00	-1.1702955264e+00
 1.8278439256e+00	 1.5325217106e+00	-1.2067165181e+00
 1.8128454833e+00	 1.5502346888e+00	-1.2429366558e+00
 1.7976696749e+00	 1.5678074621e+00	-1.2791524281e+00
 1.7823184812e+00	 1.5852373694e+00	-1.3155886512e+00
 1.7667939355e+00	 1.6025217865e+00	-1.3525005742e+00
 1.9210867082e+00	 1.4287190073e+00	-9.7781098370e-01
 1.9071396050e+00	 1.4472838465e+00	-1.0174887188e+00
 1.8930037041e+00	 1.4657246955e+00	-1.0562281319e+00
 1.8786806603e+00	 1.4840386882e+00	-1.0940837098e+00
 1.8641721861e+00	 1.5022229875e+00	-1.1311283128e+00
 1.8494800502e+00	 1.5202747867e+00	-1.1674554734e+00
 1.8346060775e+00	 1.5381913110e+00	-1.2031816985e+00
 1.8195521481e+00	 1.5559698188e+00	-1.2384487640e+00
 1.8043201965e+00	 1.5736076030e+00	-1.2734259909e+00
 1.7889122106e+00	 1.5911019926e+00	-1.3083124920e+00
 1.7733302316e+00	 1.6084503539e+00	-1.3433393737e+00
 1.9281676020e+00	 1.4339850932e+00	-9.7548142005e-01
 1.9141690914e+00	 1.4526183601e+00	-1.0153197575e+00
 1.8999810872e+00	 1.4711271799e+00	-1.0541337142e+00
 1.8856052505e+00	 1.4895086757e+00	-1.0919437841e+00
 1.8710432998e+00	 1.5077600002e+00	-1.1287898629e+00
 1.8562970105e+00	 1.5258783361e+00	-1.1647336437e+00
 1.8413682141e+00	 1.5438608986e+00	-1.1998610170e+00
 1.8262587978e+00	 1.5617049357e+00	-1.2342844649e+00
 1.8109707030e+00	 1.5794077307e+00	-1.2681454364e+00
 1.7955059252e+00	 1.5969666025e+00	-1.3016166936e+00
 1.7798665128e+00	 1.6143789077e+00	-1.3349046142e+00
 1.9352484777e+00	 1.4392511656e+00	-9.7298640683e-01
 1.9211985599e+00	 1.4579528601e+00	-1.0129982744e+00
 1.9069584527e+00	 1.4765296504e+00	-1.0519180119e+00
 1.8925298230e+00	 1.4949786493e+00	-1.0897311633e+00
 1.8779143959e+00	 1.5132969987e+00	-1.1264437500e+00
 1.8631139533e+00	 1.5314818712e+00	-1.1620847647e+00
 1.8481303335e+00	 1.5495304716e+00	-1.1967086728e+00
 1.8329654303e+00	 1.5674400381e+00	-1.2303979062e+00
 1.8176211925e+00	 1.5852078436e+00	-1.2632653414e+00
 1.8020996229e+00	 1.6028311975e+00	-1.2954567472e+00
 1.7864027773e+00	 1.6203074465e+00	-1.3271531888e+00
 1.7210396040e+00	 1.5610215801e+00	-1.4042674986e+00
 1.7057528715e+00	 1.5777113245e+00	-1.4334787074e+00
 1.6903014164e+00	 1.5942544255e+00	-1.4575148370e+00
 1.6746873394e+00	 1.6106484717e+00	-1.4771467632e+00
 1.6589127890e+00	 1.6268910925e+00	-1.4931462189e+00
 1.6429799599e+00	 1.6429799599e+00	-1.5062862992e+00
 1.6268910925e+00	 1.6589127890e+00	-1.5173420740e+00
 1.6106484717e+00	 1.6746873394e+00	-1.5270912927e+00
 1.5942544255e+00	 1.6903014164e+00	-1.5363151684e+00
 1.5777113245e+00	 1.7057528715e+00	-1.5457992269e+00
 1.5610215801e+00	 1.7210396040e+00	-1.5563342025e+00
 1.7275759519e+00	 1.5669501944e+00	-1.3992146112e+00
 1.7122311618e+00	 1.5837033249e+00	-1.4286805772e+00
 1.6967210235e+00	 1.6003092551e+00	-1.4526036182e+00
 1.6810476457e+00	 1.6167655644e+00	-1.4718385134e+00
 1.6652131850e+00	 1.6330698732e+00	-1.4872404010e+00
 1.6492198446e+00	 1.6492198446e+00	-1.4996652319e+00
 1.6330698732e+00	 1.6652131850e+00	-1.5099703345e+00
 1.6167655644e+00	 1.6810476457e+00	-1.5190150778e+00
 1.6003092551e+00	 1.6967210235e+00	-1.5276616160e+00
 1.5837033249e+00	 1.7122311618e+00	-1.5367757029e+00
 1.5669501944e+00	 1.7275759519e+00	-1.5472275559e+00
 1.7341122980e+00	 1.5728788071e+00	-1.3933452357e+00
 1.7187094503e+00	 1.5896953237e+00	-1.4232093265e+00
 1.7031406288e+00	 1.6063640830e+00	-1.4471601678e+00
 1.6874079503e+00	 1.6228826553e+00	-1.4661353212e+00
 1.6715135793e+00	 1.6392486520e+00	-1.4810721747e+00
 1.6554597274e+00	 1.6554597274e+00	-1.4929083477e+00
 1.6392486520e+00	 1.6715135793e+00	-1.5025822123e+00
 1.6228826553e+00	 1.6874079503e+00	-1.5110335154e+00
 1.6063640830e+00	 1.7031406288e+00	-1.5192040889e+00
 1.5896953237e+00	 1.7187094503e+00	-1.5280386316e+00
 1.5728788071e+00	 1.7341122980e+00	-1.5384855450e+00
 1.7406486403e+00	 1.5788074164e+00	-1.3866779765e+00
 1.7251877351e+00	 1.5956873191e+00	-1.4170840062e+00
 1.7095602304e+00	 1.6124189075e+00	-1.4412038027e+00
 1.6937682512e+00	 1.6289997428e+00	-1.4600566023e+00
 1.6778139700e+00	 1.6454274274e+00	-1.4746609007e+00
 1.6616996068e+00	 1.6616996068e+00	-1.4860348125e+00
 1.6454274274e+00	 1.6778139700e+00	-1.4951965504e+00
 1.6289997428e+00	 1.6937682512e+00	-1.5031650110e+00
 1.6124189075e+00	 1.7095602304e+00	-1.5109604528e+00
 1.5956873191e+00	 1.7251877351e+00	-1.5196052483e+00
 1.5788074164e+00	 1.7406486403e+00	-1.5301246962e+00
 1.7471849771e+00	 1.5847360207e+00	-1.3792321106e+00
 1.7316660144e+00	 1.6016793093e+00	-1.4103243260e+00
 1.7159798267e+00	 1.6184737268e+00	-1.4347544890e+00
 1.7001285467e+00	 1.6351168250e+00	-1.4536224167e+00
 1.6841143553e+00	 1.6516061975e+00	-1.4680265840e+00
 1.6679394808e+00	 1.6679394808e+00	-1.4790644395e+00
 1.6516061975e+00	 1.6841143553e+00	-1.4878328467e+00
 1.6351168250e+00	 1.7001285467e+00	-1.4954286361e+00
 1.6184737268e+00	 1.7159798267e+00	-1.5029492528e+00
 1.6016793093e+00	 1.7316660144e+00	-1.5114934845e+00
 1.5847360207e+00	 1.7471849771e+00	-1.5221622513e+00
 1.7537213064e+00	 1.5906646183e+00	-1.3710275531e+00
 1.7381442863e+00	 1.6076712928e+00	-1.4029506193e+00
 1.7223994156e+00	 1.6245285393e+00	-1.4278328077e+00
 1.7064888350e+00	 1.6412339004e+00	-1.4468534352e+00
 1.6904147335e+00	 1.6577849607e+00	-1.4611898400e+00
 1.6741793478e+00	 1.6741793478e+00	-1.4720176567e+00
 1.6577849607e+00	 1.6904147335e+00	-1.4805112220e+00
 1.6412339004e+00	 1.7064888350e+00	-1.4878440956e+00
 1.6245285393e+00	 1.7223994156e+00	-1.4951896822e+00
 1.6076712928e+00	 1.7381442863e+00	-1.5037219368e+00
 1.5906646183e+00	 1.7537213064e+00	-1.5146161365e+00
 1.7602576265e+00	 1.5965932074e+00	-1.3620848217e+00
 1.7446225491e+00	 1.6136632678e+00	-1.3949838094e+00
 1.7288189954e+00	 1.6305833431e+00	-1.4204599211e+00
 1.7128491142e+00	 1.6473509670e+00	-1.4397709058e+00
 1.6967151028e+00	 1.6639637150e+00	-1.4541718621e+00
 1.6804192059e+00	 1.6804192059e+00	-1.4649154746e+00
 1.6639637150e+00	 1.6967151028e+00	-1.4732523872e+00
 1.6473509670e+00	 1.7128491142e+00	-1.4804316967e+00
 1.6305833431e+00	 1.7288189954e+00	-1.4877015510e+00
 1.6136632678e+00	 1.7446225491e+00	-1.4963098360e+00
 1.5965932074e+00	 1.7602576265e+00	-1.5075049321e+00
 1.7667939355e+00	 1.6025217865e+00	-1.3525005742e+00
 1.7511008008e+00	 1.6196552326e+00	-1.3864453742e+00
 1.7352385643e+00	 1.6366381367e+00	-1.4126575382e+00
 1.7192093827e+00	 1.6534680233e+00	-1.4323966203e+00
 1.7030154613e+00	 1.6701424589e+00	-1.4469943882e+00
 1.6866590534e+00	 1.6866590534e+00	-1.4577794529e+00
 1.6701424589e+00	 1.7030154613e+00	-1.4660776116e+00
 1.6534680233e+00	 1.7192093827e+00	-1.4732123168e+00
 1.6366381367e+00	 1.7352385643e+00	-1.4805052546e+00
 1.6196552326e+00	 1.7511008008e+00	-1.4892770161e+00
 1.6025217865e+00	 1.7667939355e+00	-1.5008040946e+00
 1.7733302316e+00	 1.6084503539e+00	-1.3433393737e+00
 1.7575790397e+00	 1.6256471855e+00	-1.3773573124e+00
 1.7416581205e+00	 1.6426929183e+00	-1.4044478815e+00
 1.7255696386e+00	 1.6595850674e+00	-1.4247528804e+00
 1.7093158074e+00	 1.6763211905e+00	-1.4396796677e+00
 1.6928988885e+00	 1.6928988885e+00	-1.4506316683e+00
 1.6763211905e+00	 1.7093158074e+00	-1.4590086903e+00
 1.6595850674e+00	 1.7255696386e+00	-1.4662073716e+00
 1.6426929183e+00	 1.7416581205e+00	-1.4736217424e+00
 1.6256471855e+00	 1.7575790397e+00	-1.4826438833e+00
 1.6084503539e+00	 1.7733302316e+00	-1.4939366513e+00
 1.7798665128e+00	 1.6143789077e+00	-1.3349046142e+00
 1.7640572640e+00	 1.6316391248e+00	-1.3677421089e+00
 1.7480776622e+00	 1.6487476861e+00	-1.3958536522e+00
 1.7319298800e+00	 1.6657020977e+00	-1.4168624646e+00
 1.7156161392e+00	 1.6824999081e+00	-1.4322504283e+00
 1.6991387095e+00	 1.6991387095e+00	-1.4434946818e+00
 1.6824999081e+00	 1.7156161392e+00	-1.4520679121e+00
 1.6657020977e+00	 1.7319298800e+00	-1.4594387835e+00
 1.6487476861e+00	 1.7480776622e+00	-1.4670724860e+00
 1.6316391248e+00	 1.7640572640e+00	-1.4764313850e+00
 1.6143789077e+00	 1.7798665128e+00	-1.4867814890e+00
 1.7864027773e+00	 1.6203074465e+00	-1.3271531888e+00
 1.7705354717e+00	 1.6376310489e+00	-1.3581549454e+00
 1.7544971874e+00	 1.6548024385e+00	-1.3868979970e+00
 1.7382901052e+00	 1.6718191124e+00	-1.4087485946e+00
 1.7219164549e+00	 1.6886786099e+00	-1.4247298435e+00
 1.7053785146e+00	 1.7053785146e+00	-1.4363915059e+00
 1.6886786099e+00	 1.7219164549e+00	-1.4452780273e+00
 1.6718191124e+00	 1.7382901052e+00	-1.4529289495e+00
 1.6548024385e+00	 1.7544971874e+00	-1.4608794485e+00
 1.6376310489e+00	 1.7705354717e+00	-1.4703698144e+00
 1.6203074465e+00	 1.7864027773e+00	-1.4794190088e+00
 1.5610215801e+00	 1.7210396040e+00	-1.5563342025e+00
 1.5441847742e+00	 1.7361621134e+00	-1.5665880878e+00
 1.5272062460e+00	 1.7511157601e+00	-1.5755975745e+00
 1.5100885515e+00	 1.7658985635e+00	-1.5847144574e+00
 1.4928342830e+00	 1.7805085939e+00	-1.5914813581e+00
 1.4754460677e+00	 1.7949439741e+00	-1.5937025305e+00
 1.4579265664e+00	 1.8092028793e+00	-1.5916894515e+00
 1.4402784720e+00	 1.8232835386e+00	-1.5857303313e+00
 1.4225045086e+00	 1.8371842352e+00	-1.5760918232e+00
 1.4046074294e+00	 1.8509033073e+00	-1.5630207911e+00
 1.3865900162e+00	 1.8644391488e+00	-1.5467461223e+00
 1.5669501944e+00	 1.7275759519e+00	-1.5472275559e+00
 1.5500494440e+00	 1.7427558952e+00	-1.5578356501e+00
 1.5330064329e+00	 1.7577663345e+00	-1.5677356266e+00
 1.5158237270e+00	 1.7726052815e+00	-1.5774055648e+00
 1.4985039284e+00	 1.7872707995e+00	-1.5831111309e+00
 1.4810496743e+00	 1.8017610039e+00	-1.5845268020e+00
 1.4634636355e+00	 1.8160740631e+00	-1.5819469386e+00
 1.4457485153e+00	 1.8302081994e+00	-1.5756418793e+00
 1.4279070480e+00	 1.8441616895e+00	-1.5658597337e+00
 1.4099419974e+00	 1.8579328654e+00	-1.5528282325e+00
 1.3918561558e+00	 1.8715201148e+00	-1.5367566225e+00
 1.5728788071e+00	 1.7341122980e+00	-1.5384855450e+00
 1.5559141120e+00	 1.7493496751e+00	-1.5495160362e+00
 1.5388066181e+00	 1.7644169069e+00	-1.5603679900e+00
 1.5215589008e+00	 1.7793119977e+00	-1.5694192785e+00
 1.5041735722e+00	 1.7940330032e+00	-1.5741274310e+00
 1.4866532792e+00	 1.8085780317e+00	-1.5747952344e+00
 1.4690007031e+00	 1.8229452449e+00	-1.5716999514e+00
 1.4512185571e+00	 1.8371328582e+00	-1.5650940315e+00
 1.4333095859e+00	 1.8511391419e+00	-1.5552069870e+00
 1.4152765639e+00	 1.8649624216e+00	-1.5422473274e+00
 1.3971222939e+00	 1.8786010788e+00	-1.5264045375e+00
 1.5788074164e+00	 1.7406486403e+00	-1.5301246962e+00
 1.5617787768e+00	 1.7559434513e+00	-1.5416448844e+00
 1.5446068001e+00	 1.7710674756e+00	-1.5529904560e+00
 1.5272940714e+00	 1.7860187100e+00	-1.5608493554e+00
 1.5098432127e+00	 1.8007952030e+00	-1.5646232356e+00
 1.4922568810e+00	 1.8153950557e+00	-1.5645998087e+00
 1.4745377675e+00	 1.8298164229e+00	-1.5610392552e+00
 1.4566885957e+00	 1.8440575132e+00	-1.5541761141e+00
 1.4387121208e+00	 1.8581165904e+00	-1.5442212438e+00
 1.4206111274e+00	 1.8719919737e+00	-1.5313638414e+00
 1.4023884289e+00	 1.8856820388e+00	-1.5157735059e+00
 1.5847360207e+00	 1.7471849771e+00	-1.5221622513e+00
 1.5676434366e+00	 1.7625372218e+00	-1.5342385704e+00
 1.5504069771e+00	 1.7777180386e+00	-1.5450529006e+00
 1.5330292371e+00	 1.7927254166e+00	-1.5517874652e+00
 1.5155128484e+00	 1.8075573971e+00	-1.5546894571e+00
 1.4978604780e+00	 1.8222120739e+00	-1.5540304679e+00
 1.4800748272e+00	 1.8366875950e+00	-1.5500536077e+00
 1.4621586297e+00	 1.8509821622e+00	-1.5429754801e+00
 1.4441146510e+00	 1.8650940329e+00	-1.5329882298e+00
 1.4259456863e+00	 1.8790215199e+00	-1.5202616476e+00
 1.4076545595e+00	 1.8927629927e+00	-1.5049453202e+00
 1.5906646183e+00	 1.7537213064e+00	-1.5146161365e+00
 1.5735080897e+00	 1.7691309849e+00	-1.5270914617e+00
 1.5562071475e+00	 1.7843685941e+00	-1.5366443651e+00
 1.5387643964e+00	 1.7994321157e+00	-1.5423232129e+00
 1.5211824777e+00	 1.8143195835e+00	-1.5444149654e+00
 1.5034640687e+00	 1.8290290844e+00	-1.5431751389e+00
 1.4856118806e+00	 1.8435587593e+00	-1.5388297805e+00
 1.4676286575e+00	 1.8579068034e+00	-1.5315775304e+00
 1.4495171752e+00	 1.8720714675e+00	-1.5215917564e+00
 1.4312802392e+00	 1.8860510581e+00	-1.5090227464e+00
 1.4129206842e+00	 1.8998439386e+00	-1.4939999456e+00
 1.5965932074e+00	 1.7602576265e+00	-1.5075049321e+00
 1.5793727345e+00	 1.7757247387e+00	-1.5195408630e+00
 1.5620073097e+00	 1.7910191401e+00	-1.5278529249e+00
 1.5444995475e+00	 1.8061388052e+00	-1.5325441617e+00
 1.5268520990e+00	 1.8210817603e+00	-1.5338866112e+00
 1.5090676514e+00	 1.8358460853e+00	-1.5321197549e+00
 1.4911489262e+00	 1.8504299139e+00	-1.5274525813e+00
 1.4730986776e+00	 1.8648314348e+00	-1.5200657354e+00
 1.4549196916e+00	 1.8790488922e+00	-1.5101137417e+00
 1.4366147846e+00	 1.8930805864e+00	-1.4977272857e+00
 1.4181868013e+00	 1.9069248745e+00	-1.4830155393e+00
 1.6025217865e+00	 1.7667939355e+00	-1.5008040946e+00
 1.5852373694e+00	 1.7823184812e+00	-1.5116183448e+00
 1.5678074621e+00	 1.7976696749e+00	-1.5187646181e+00
 1.5502346888e+00	 1.8128454833e+00	-1.5225358559e+00
 1.5325217106e+00	 1.8278439256e+00	-1.5231892477e+00
 1.5146712247e+00	 1.8426630745e+00	-1.5209482778e+00
 1.4966859623e+00	 1.8573010568e+00	-1.5160048759e+00
 1.4785686883e+00	 1.8717560544e+00	-1.5085216564e+00
 1.4603221989e+00	 1.8860263050e+00	-1.4986342313e+00
 1.4419493208e+00	 1.9001101027e+00	-1.4864535810e+00
 1.4234529095e+00	 1.9140057984e+00	-1.4720684698e+00
 1.6084503539e+00	 1.7733302316e+00	-1.4939366513e+00
 1.5911019926e+00	 1.7889122106e+00	-1.5034082173e+00
 1.5736076030e+00	 1.8043201965e+00	-1.5094634683e+00
 1.5559698188e+00	 1.8195521481e+00	-1.5123818434e+00
 1.5381913110e+00	 1.8346060775e+00	-1.5124057543e+00
 1.5202747867e+00	 1.8494800502e+00	-1.5097427205e+00
 1.5022229875e+00	 1.8641721861e+00	-1.5045676097e+00
 1.4840386882e+00	 1.8786806603e+00	-1.4970249670e+00
 1.4657246955e+00	 1.8930037041e+00	-1.4872314189e+00
 1.4472838465e+00	 1.9071396050e+00	-1.4752781354e+00
 1.4287190073e+00	 1.9210867082e+00	-1.4612333366e+00
 1.6143789077e+00	 1.7798665128e+00	-1.4867814890e+00
 1.5969666025e+00	 1.7955059252e+00	-1.4949927851e+00
 1.5794077307e+00	 1.8109707030e+00	-1.5000315079e+00
 1.5617049357e+00	 1.8262587978e+00	-1.5021636988e+00
 1.5438608986e+00	 1.8413682141e+00	-1.5016170581e+00
 1.5258783361e+00	 1.8562970105e+00	-1.4985831692e+00
 1.5077600002e+00	 1.8710432998e+00	-1.4932198302e+00
 1.4895086757e+00	 1.8856052505e+00	-1.4856534746e+00
 1.4711271799e+00	 1.8999810872e+00	-1.4759816675e+00
 1.4526183601e+00	 1.9141690914e+00	-1.4642756605e+00
 1.4339850932e+00	 1.9281676020e+00	-1.4505829895e+00
 1.6203074465e+00	 1.7864027773e+00	-1.4794190088e+00
 1.6028311975e+00	 1.8020996229e+00	-1.4864523693e+00
 1.5852078436e+00	 1.8176211925e+00	-1.4905488005e+00
 1.5674400381e+00	 1.8329654303e+00	-1.4919610465e+00
 1.5495304716e+00	 1.8481303335e+00	-1.4909021576e+00
 1.5314818712e+00	 1.8631139533e+00	-1.4875478060e+00
 1.5132969987e+00	 1.8779143959e+00	-1.4820387087e+00
 1.4949786493e+00	 1.8925298230e+00	-1.4744831420e+00
 1.4765296504e+00	 1.9069584527e+00	-1.4649595305e+00
 1.4579528601e+00	 1.9211985599e+00	-1.4535190959e+00
 1.4392511656e+00	 1.9352484777e+00	-1.4401885485e+00
 1.3865900162e+00	 1.8644391488e+00	-1.5467461223e+00
 1.3684581680e+00	 1.8777879572e+00	-1.5287862678e+00
 1.3502116560e+00	 1.8909505627e+00	-1.5104894102e+00
 1.3318533261e+00	 1.9039255374e+00	-1.4918068758e+00
 1.3133860468e+00	 1.9167115110e+00	-1.4726666593e+00
 1.2948127076e+00	 1.9293071710e+00	-1.4529756945e+00
 1.2761362175e+00	 1.9417112635e+00	-1.4326221161e+00
 1.2573595038e+00	 1.9539225930e+00	-1.4114775047e+00
 1.2384855106e+00	 1.9659400232e+00	-1.3893991035e+00
 1.2195171970e+00	 1.9777624767e+00	-1.3662319988e+00
 1.2004575360e+00	 1.9893889355e+00	-1.3418112558e+00
 1.3918561558e+00	 1.8715201148e+00	-1.5367566225e+00
 1.3736554445e+00	 1.8849196207e+00	-1.5190778910e+00
 1.3553396340e+00	 1.8981322166e+00	-1.5010642743e+00
 1.3369115809e+00	 1.9111564690e+00	-1.4826607444e+00
 1.3183741645e+00	 1.9239910025e+00	-1.4637883017e+00
 1.2997302855e+00	 1.9366344997e+00	-1.4443463072e+00
 1.2809828638e+00	 1.9490857018e+00	-1.4242148058e+00
 1.2621348379e+00	 1.9613434088e+00	-1.4032568311e+00
 1.2431891631e+00	 1.9734064800e+00	-1.3813206806e+00
 1.2241488096e+00	 1.9852738341e+00	-1.3582421538e+00
 1.2050167618e+00	 1.9969444491e+00	-1.3338467435e+00
 1.3971222939e+00	 1.8786010788e+00	-1.5264045375e+00
 1.3788527195e+00	 1.8920512822e+00	-1.5090245330e+00
 1.3604676104e+00	 1.9053138684e+00	-1.4913030002e+00
 1.3419698341e+00	 1.9183873986e+00	-1.4731799403e+00
 1.3233622808e+00	 1.9312704920e+00	-1.4545707893e+00
 1.3046478620e+00	 1.9439618263e+00	-1.4353688107e+00
 1.2858295088e+00	 1.9564601380e+00	-1.4154474777e+00
 1.2669101707e+00	 1.9687642225e+00	-1.3946628360e+00
 1.2478928142e+00	 1.9808729348e+00	-1.3728558360e+00
 1.2287804208e+00	 1.9927851894e+00	-1.3498546261e+00
 1.2095759862e+00	 2.0044999606e+00	-1.3254767969e+00
 1.4023884289e+00	 1.8856820388e+00	-1.5157735059e+00
 1.3840499916e+00	 1.8991829397e+00	-1.4987079005e+00
 1.3655955840e+00	 1.9124955162e+00	-1.4812859709e+00
 1.3470280845e+00	 1.9256183241e+00	-1.4634441116e+00
 1.3283503943e+00	 1.9385499774e+00	-1.4450936048e+00
 1.3095654357e+00	 1.9512891488e+00	-1.4261230709e+00
 1.2906761510e+00	 1.9638345700e+00	-1.4064009095e+00
 1.2716855008e+00	 1.9761850319e+00	-1.3857777172e+00
 1.2525964626e+00	 1.9883393853e+00	-1.3640886751e+00
 1.2334120295e+00	 2.0002965404e+00	-1.3411558949e+00
 1.2141352081e+00	 2.0120554678e+00	-1.3167907147e+00
 1.4076545595e+00	 1.8927629927e+00	-1.5049453202e+00
 1.3892472592e+00	 1.9063145911e+00	-1.4882078971e+00
 1.3707235532e+00	 1.9196771578e+00	-1.4710918015e+00
 1.3520863306e+00	 1.9328492434e+00	-1.4535311654e+00
 1.3333385035e+00	 1.9458294565e+00	-1.4354345077e+00
 1.3144830052e+00	 1.9586164650e+00	-1.4166872414e+00
 1.2955227890e+00	 1.9712089957e+00	-1.3971541696e+00
 1.2764608268e+00	 1.9836058351e+00	-1.3766819588e+00
 1.2573001071e+00	 1.9958058294e+00	-1.3551015780e+00
 1.2380436342e+00	 2.0078078850e+00	-1.3322306966e+00
 1.2186944261e+00	 2.0196109686e+00	-1.3078760290e+00
 1.4129206842e+00	 1.8998439386e+00	-1.4939999456e+00
 1.3944445210e+00	 1.9134462344e+00	-1.4776026424e+00
 1.3758515166e+00	 1.9268587914e+00	-1.4607973569e+00
 1.3571445710e+00	 1.9400801545e+00	-1.4435172845e+00
 1.3383266071e+00	 1.9531089275e+00	-1.4256695518e+00
 1.3194005692e+00	 1.9659437729e+00	-1.4071377797e+00
 1.3003694216e+00	 1.9785834131e+00	-1.3877846334e+00
 1.2812361474e+00	 1.9910266298e+00	-1.3674543474e+00
 1.2620037462e+00	 2.0032722651e+00	-1.3459752164e+00
 1.2426752336e+00	 2.0153192212e+00	-1.3231620414e+00
 1.2232536390e+00	 2.0271664608e+00	-1.2988185216e+00
 1.4181868013e+00	 1.9069248745e+00	-1.4830155393e+00
 1.3996417754e+00	 1.9205778676e+00	-1.4669684897e+00
 1.3809794728e+00	 1.9340404147e+00	-1.4504777701e+00
 1.3622028042e+00	 1.9473110554e+00	-1.4334769451e+00
 1.3433147036e+00	 1.9603883881e+00	-1.4158731015e+00
 1.3243181262e+00	 1.9732710705e+00	-1.3975494645e+00
 1.3052160474e+00	 1.9859578200e+00	-1.3783679995e+00
 1.2860114612e+00	 1.9984474140e+00	-1.3581719887e+00
 1.2667073787e+00	 2.0107386902e+00	-1.3367885699e+00
 1.2473068265e+00	 2.0228305467e+00	-1.3140312298e+00
 1.2278128453e+00	 2.0347219423e+00	-1.2897022414e+00
 1.4234529095e+00	 1.9140057984e+00	-1.4720684698e+00
 1.4048390209e+00	 1.9277094887e+00	-1.4563800455e+00
 1.3861074202e+00	 1.9412220258e+00	-1.4402064597e+00
 1.3672610288e+00	 1.9545419440e+00	-1.4234829343e+00
 1.3483027916e+00	 1.9676678363e+00	-1.4061178496e+00
 1.3292356748e+00	 1.9805983556e+00	-1.3879954120e+00
 1.3100626649e+00	 1.9933322144e+00	-1.3689783072e+00
 1.2907867669e+00	 2.0058681856e+00	-1.3489103244e+00
 1.2714110031e+00	 2.0182051026e+00	-1.3276189429e+00
 1.2519384115e+00	 2.0303418594e+00	-1.3049178700e+00
 1.2323720440e+00	 2.0422774110e+00	-1.2806095214e+00
 1.4287190073e+00	 1.9210867082e+00	-1.4612333366e+00
 1.4100362562e+00	 1.9348410956e+00	-1.4459101877e+00
 1.3912353574e+00	 1.9484036227e+00	-1.4300551484e+00
 1.3723192434e+00	 1.9617728182e+00	-1.4136063676e+00
 1.3532908697e+00	 1.9749472701e+00	-1.3964748336e+00
 1.3341532137e+00	 1.9879256261e+00	-1.3785470931e+00
 1.3149092727e+00	 2.0007065942e+00	-1.3596879522e+00
 1.2955620631e+00	 2.0132889425e+00	-1.3397431483e+00
 1.2761146183e+00	 2.0256715002e+00	-1.3185419812e+00
 1.2565699873e+00	 2.0378531572e+00	-1.2958998943e+00
 1.2369312335e+00	 2.0498328647e+00	-1.2716209954e+00
 1.4339850932e+00	 1.9281676020e+00	-1.4505829895e+00
 1.4152334797e+00	 1.9419726864e+00	-1.4356300842e+00
 1.3963632831e+00	 1.9555852033e+00	-1.4200938808e+00
 1.3773774465e+00	 1.9690036761e+00	-1.4039167064e+00
 1.3582789366e+00	 1.9822266874e+00	-1.3870134541e+00
 1.3390707414e+00	 1.9952528801e+00	-1.3692743505e+00
 1.3197558696e+00	 2.0080809572e+00	-1.3505677046e+00
 1.3003373485e+00	 2.0207096826e+00	-1.3307426238e+00
 1.2808182228e+00	 2.0331378809e+00	-1.3096316890e+00
 1.2612015526e+00	 2.0453644380e+00	-1.2870535760e+00
 1.2414904128e+00	 2.0573883012e+00	-1.2628156158e+00
 1.4392511656e+00	 1.9352484777e+00	-1.4401885485e+00
 1.4204306899e+00	 1.9491042590e+00	-1.4256092125e+00
 1.4014911956e+00	 1.9627667656e+00	-1.4103910422e+00
 1.3824356367e+00	 1.9762345155e+00	-1.3944817763e+00
 1.3632669907e+00	 1.9895060861e+00	-1.3778014912e+00
 1.3439882566e+00	 2.0025801153e+00	-1.3602454157e+00
 1.3246024542e+00	 2.0154553015e+00	-1.3416867250e+00
 1.3051126218e+00	 2.0281304037e+00	-1.3219793004e+00
 1.2855218152e+00	 2.0406042425e+00	-1.3009604456e+00
 1.2658331062e+00	 2.0528756997e+00	-1.2784535470e+00
 1.2460495804e+00	 2.0649437185e+00	-1.2542706705e+00
 1.2004575360e+00	 1.9893889355e+00	-1.3418112558e+00
 1.1813095133e+00	 2.0008184419e+00	-1.3158257737e+00
 1.1620761269e+00	 2.0120500994e+00	-1.2882329763e+00
 1.1427603843e+00	 2.0230830718e+00	-1.2589830656e+00
 1.1233653013e+00	 2.0339165827e+00	-1.2281774945e+00
 1.1038938996e+00	 2.0445499154e+00	-1.1959240068e+00
 1.0843492062e+00	 2.0549824128e+00	-1.1623281598e+00
 1.0647342514e+00	 2.0652134774e+00	-1.1274960880e+00
 1.0450520678e+00	 2.0752425708e+00	-1.0915371628e+00
 1.0253056884e+00	 2.0850692143e+00	-1.0545665174e+00
 1.0054981458e+00	 2.0946929879e+00	-1.0167074076e+00
 1.2050167618e+00	 1.9969444491e+00	-1.3338467435e+00
 1.1857960167e+00	 2.0084173637e+00	-1.3078347812e+00
 1.1664895836e+00	 2.0196916780e+00	-1.2802487155e+00
 1.1471004817e+00	 2.0307665526e+00	-1.2510336973e+00
 1.1276317379e+00	 2.0416412082e+00	-1.2202695120e+00
 1.1080863857e+00	 2.0523149253e+00	-1.1880763161e+00
 1.0884674633e+00	 2.0627870444e+00	-1.1545718584e+00
 1.0687780128e+00	 2.0730569655e+00	-1.1198743624e+00
 1.0490210780e+00	 2.0831241486e+00	-1.0841052992e+00
 1.0291997038e+00	 2.0929881127e+00	-1.0473920191e+00
 1.0093169340e+00	 2.1026484365e+00	-1.0098702123e+00
 1.2095759862e+00	 2.0044999606e+00	-1.3254767969e+00
 1.1902825187e+00	 2.0160162834e+00	-1.2994365703e+00
 1.1709030391e+00	 2.0273332544e+00	-1.2718424166e+00
 1.1514405778e+00	 2.0384500312e+00	-1.2426809049e+00
 1.1318981733e+00	 2.0493658315e+00	-1.2119818864e+00
 1.1122788705e+00	 2.0600799330e+00	-1.1798761754e+00
 1.0925857193e+00	 2.0705916737e+00	-1.1464919314e+00
 1.0728217730e+00	 2.0809004515e+00	-1.1119576677e+00
 1.0529900872e+00	 2.0910057241e+00	-1.0764051449e+00
 1.0330937181e+00	 2.1009070089e+00	-1.0399721160e+00
 1.0131357210e+00	 2.1106038828e+00	-1.0028048933e+00
 1.2141352081e+00	 2.0120554678e+00	-1.3167907147e+00
 1.1947690183e+00	 2.0236151987e+00	-1.2907232505e+00
 1.1753164921e+00	 2.0349748265e+00	-1.2631037729e+00
 1.1557806715e+00	 2.0461335055e+00	-1.2340131854e+00
 1.1361646064e+00	 2.0570904504e+00	-1.2034014950e+00
 1.1164713531e+00	 2.0678449363e+00	-1.1714084207e+00
 1.0967039729e+00	 2.0783962986e+00	-1.1381707553e+00
 1.0768655310e+00	 2.0887439330e+00	-1.1038255066e+00
 1.0569590941e+00	 2.0988872951e+00	-1.0685129188e+00
 1.0369877301e+00	 2.1088259006e+00	-1.0323793381e+00
 1.0169545060e+00	 2.1185593247e+00	-9.9557989272e-01
 1.2186944261e+00	 2.0196109686e+00	-1.3078760290e+00
 1.1992555140e+00	 2.0312141076e+00	-1.2817851410e+00
 1.1797299413e+00	 2.0426163921e+00	-1.2541299042e+00
 1.1601207615e+00	 2.0538169733e+00	-1.2251190426e+00
 1.1404310357e+00	 2.0648150627e+00	-1.1946153162e+00
 1.1206638320e+00	 2.0756099330e+00	-1.1627580911e+00
 1.1008222231e+00	 2.0862009169e+00	-1.1296910177e+00
 1.0809092855e+00	 2.0965874078e+00	-1.0955578061e+00
 1.0609280976e+00	 2.1067688594e+00	-1.0605053818e+00
 1.0408817389e+00	 2.1167447855e+00	-1.0246868792e+00
 1.0207732877e+00	 2.1265147597e+00	-9.8826444133e-01
 1.2232536390e+00	 2.0271664608e+00	-1.2988185216e+00
 1.2037420046e+00	 2.0388130079e+00	-1.2727107875e+00
 1.1841433856e+00	 2.0502579491e+00	-1.2450302508e+00
 1.1644608465e+00	 2.0615004323e+00	-1.2160869019e+00
 1.1446974603e+00	 2.0725396663e+00	-1.1857103477e+00
 1.1248563062e+00	 2.0833749208e+00	-1.1540103488e+00
 1.1049404686e+00	 2.0940055263e+00	-1.1211356396e+00
 1.0849530354e+00	 2.1044308737e+00	-1.0872348423e+00
 1.0648970967e+00	 2.1146504148e+00	-1.0524597641e+00
 1.0447757432e+00	 2.1246636615e+00	-1.0169685265e+00
 1.0245920650e+00	 2.1344701858e+00	-9.8092849046e-01
 1.2278128453e+00	 2.0347219423e+00	-1.2897022414e+00
 1.2082284889e+00	 2.0464118975e+00	-1.2635869797e+00
 1.1885568235e+00	 2.0578994952e+00	-1.2358949236e+00
 1.1688009254e+00	 2.0691838805e+00	-1.2070050258e+00
 1.1489638788e+00	 2.0802642590e+00	-1.1767735240e+00
 1.1290487744e+00	 2.0911398977e+00	-1.1452503997e+00
 1.1090587082e+00	 2.1018101246e+00	-1.1125876984e+00
 1.0889967796e+00	 2.1122743285e+00	-1.0789371653e+00
 1.0688660901e+00	 2.1225319590e+00	-1.0444536925e+00
 1.0486697420e+00	 2.1325825262e+00	-1.0092985896e+00
 1.0284108369e+00	 2.1424256006e+00	-9.7364264297e-01
 1.2323720440e+00	 2.0422774110e+00	-1.2806095214e+00
 1.2127149656e+00	 2.0540107741e+00	-1.2544987684e+00
 1.1929702540e+00	 2.0655410284e+00	-1.2268112812e+00
 1.1731409969e+00	 2.0768673155e+00	-1.1979614287e+00
 1.1532302900e+00	 2.0879888385e+00	-1.1678916342e+00
 1.1332412356e+00	 2.0989048614e+00	-1.1365634135e+00
 1.1131769409e+00	 2.1096147097e+00	-1.1041303501e+00
 1.0930405169e+00	 2.1201177700e+00	-1.0707455243e+00
 1.0728350767e+00	 2.1304134899e+00	-1.0365651170e+00
 1.0525637342e+00	 2.1405013775e+00	-1.0017518299e+00
 1.0322296024e+00	 2.1503810018e+00	-9.6647808472e-01
 1.2369312335e+00	 2.0498328647e+00	-1.2716209954e+00
 1.2172014333e+00	 2.0616096356e+00	-1.2455294828e+00
 1.1973836758e+00	 2.0731825464e+00	-1.2178649442e+00
 1.1774810599e+00	 2.0845507354e+00	-1.1890445707e+00
 1.1574966928e+00	 2.0957134027e+00	-1.1591512402e+00
 1.1374336884e+00	 2.1066698097e+00	-1.1280344441e+00
 1.1172951653e+00	 2.1174192793e+00	-1.0958467525e+00
 1.0970842462e+00	 2.1279611960e+00	-1.0627407925e+00
 1.0768040555e+00	 2.1382950050e+00	-1.0288722388e+00
 1.0564577187e+00	 2.1484202131e+00	-9.9440339006e-01
 1.0360483603e+00	 2.1583363873e+00	-9.5950651598e-01
 1.2414904128e+00	 2.0573883012e+00	-1.2628156158e+00
 1.2216878909e+00	 2.0692084799e+00	-1.2367607481e+00
 1.2017970875e+00	 2.0808240470e+00	-1.2091398130e+00
 1.1818211130e+00	 2.0922341378e+00	-1.1803618535e+00
 1.1617630859e+00	 2.1034379494e+00	-1.1506385940e+00
 1.1416261317e+00	 2.1144347404e+00	-1.1197483497e+00
 1.1214133805e+00	 2.1252238313e+00	-1.0878199876e+00
 1.1011279663e+00	 2.1358046041e+00	-1.0550038924e+00
 1.0807730253e+00	 2.1461765024e+00	-1.0214534371e+00
 1.0603516944e+00	 2.1563390307e+00	-9.8732872320e-01
 1.0398671095e+00	 2.1662917548e+00	-9.5280008287e-01
 1.2460495804e+00	 2.0649437185e+00	-1.2542706705e+00
 1.2261743371e+00	 2.0768073048e+00	-1.2282725028e+00
 1.2062104879e+00	 2.0884655282e+00	-1.2007180853e+00
 1.1861611550e+00	 2.0999175207e+00	-1.1720067397e+00
 1.1660294682e+00	 2.1111624763e+00	-1.1424395561e+00
 1.1458185643e+00	 2.1221996512e+00	-1.1117897138e+00
 1.1255315851e+00	 2.1330283633e+00	-1.0801329845e+00
 1.1051716761e+00	 2.1436479923e+00	-1.0476157203e+00
 1.0847419850e+00	 2.1540579796e+00	-1.0143871963e+00
 1.0642456601e+00	 2.1642578281e+00	-9.8060352268e-01
 1.0436858490e+00	 2.1742471019e+00	-9.4643130891e-01
 1.0054981458e+00	 2.0946929879e+00	-1.0167074076e+00
 9.8562908784e-01	 2.1041151143e+00	-9.7879848590e-01
 9.6570490446e-01	 2.1133336360e+00	-9.4147744846e-01
 9.4572861812e-01	 2.1223483067e+00	-9.0455664562e-01
 9.2570324514e-01	 2.1311589378e+00	-8.6785352061e-01
 9.0563179433e-01	 2.1397653980e+00	-8.3119237745e-01
 8.8551726570e-01	 2.1481676131e+00	-7.9440587392e-01
 8.6536264914e-01	 2.1563655651e+00	-7.5733622936e-01
 8.4517092319e-01	 2.1643592920e+00	-7.1983613988e-01
 8.2494505378e-01	 2.1721488872e+00	-6.8176939670e-01
 8.0468799300e-01	 2.1797344988e+00	-6.4301120615e-01
 1.0093169340e+00	 2.1026484365e+00	-1.0098702123e+00
 9.8937241519e-01	 2.1121063473e+00	-9.7232018514e-01
 9.6937256161e-01	 2.1213598801e+00	-9.3531120224e-01
 9.4932040720e-01	 2.1304087876e+00	-8.9865382160e-01
 9.2921897972e-01	 2.1392528806e+00	-8.6216441118e-01
 9.0907129942e-01	 2.1478920274e+00	-8.2566698964e-01
 8.8888037768e-01	 2.1563261533e+00	-7.8899478057e-01
 8.6864921577e-01	 2.1645552404e+00	-7.5199146955e-01
 8.4838080353e-01	 2.1725793267e+00	-7.1451215635e-01
 8.2807811815e-01	 2.1803985061e+00	-6.7642399788e-01
 8.0774412295e-01	 2.1880129271e+00	-6.3760654033e-01
 1.0131357210e+00	 2.1106038828e+00	-1.0028048933e+00
 9.9311574147e-01	 2.1200975780e+00	-9.6562467625e-01
 9.7304021773e-01	 2.1293861218e+00	-9.2893394354e-01
 9.5291219527e-01	 2.1384692662e+00	-8.9254333036e-01
 9.3273471331e-01	 2.1473468212e+00	-8.5627007715e-01
 9.1251080353e-01	 2.1560186545e+00	-8.1993994290e-01
 8.9224348871e-01	 2.1644846912e+00	-7.8338881989e-01
 8.7193578146e-01	 2.1727449133e+00	-7.4646403878e-01
 8.5159068295e-01	 2.1807993591e+00	-7.0902535635e-01
 8.3121118164e-01	 2.1886481226e+00	-6.7094562123e-01
 8.1080025202e-01	 2.1962913531e+00	-6.3211111600e-01
 1.0169545060e+00	 2.1185593247e+00	-9.9557989272e-01
 9.9685906563e-01	 2.1280888041e+00	-9.5877636328e-01
 9.7670787176e-01	 2.1374123590e+00	-9.2240651265e-01
 9.5650398129e-01	 2.1465297403e+00	-8.8628288929e-01
 9.3625044490e-01	 2.1554407572e+00	-8.5022552152e-01
 9.1595030569e-01	 2.1641452770e+00	-8.1406390288e-01
 8.9560659783e-01	 2.1726432245e+00	-7.7763866654e-01
 8.7522234530e-01	 2.1809345817e+00	-7.4080293747e-01
 8.5480056056e-01	 2.1890193868e+00	-7.0342335429e-01
 8.3434424334e-01	 2.1968977345e+00	-6.6538075600e-01
 8.1385637937e-01	 2.2045697743e+00	-6.2657053191e-01
 1.0207732877e+00	 2.1265147597e+00	-9.8826444133e-01
 1.0006023866e+00	 2.1360800235e+00	-9.5184056032e-01
 9.8037552268e-01	 2.1454385894e+00	-9.1579076973e-01
 9.6009576427e-01	 2.1545902075e+00	-8.7993133442e-01
 9.3976617351e-01	 2.1635346863e+00	-8.4408695358e-01
 9.1938980493e-01	 2.1722718926e+00	-8.0809281788e-01
 8.9896970409e-01	 2.1808017509e+00	-7.7179634302e-01
 8.7850890634e-01	 2.1891242430e+00	-7.3505856794e-01
 8.5801043544e-01	 2.1972394076e+00	-6.9775520946e-01
 8.3747730239e-01	 2.2051473393e+00	-6.5977736823e-01
 8.1691250411e-01	 2.2128481886e+00	-6.2103188454e-01
 1.0245920650e+00	 2.1344701858e+00	-9.8092849046e-01
 1.0043457033e+00	 2.1440712338e+00	-9.4488342475e-01
 9.8404316944e-01	 2.1534648107e+00	-9.0914953037e-01
 9.6368754317e-01	 2.1626506656e+00	-8.7354855833e-01
 9.4328189813e-01	 2.1716286062e+00	-8.3791172919e-01
 9.2282930027e-01	 2.1803984990e+00	-8.0208186181e-01
 9.0233280655e-01	 2.1889602680e+00	-7.6591516541e-01
 8.8179546365e-01	 2.1973138951e+00	-7.2928268302e-01
 8.6122030668e-01	 2.2054594190e+00	-6.9207137750e-01
 8.4061035788e-01	 2.2133969348e+00	-6.5418485525e-01
 8.1996862540e-01	 2.2211265934e+00	-6.1554372567e-01
 1.0284108369e+00	 2.1424256006e+00	-9.7364264297e-01
 1.0080890148e+00	 2.1520624328e+00	-9.3797189064e-01
 9.8771081101e-01	 2.1614910207e+00	-9.0254650113e-01
 9.6727931699e-01	 2.1707111122e+00	-8.6719544804e-01
 9.4679761777e-01	 2.1797225147e+00	-8.3175829127e-01
 9.2626879073e-01	 2.1885250938e+00	-7.9608737725e-01
 9.0569590423e-01	 2.1971187736e+00	-7.6004968914e-01
 8.8508201631e-01	 2.2055035356e+00	-7.2352833456e-01
 8.6443017337e-01	 2.2136794188e+00	-6.8642366192e-01
 8.4374340893e-01	 2.2216465186e+00	-6.4865400014e-01
 8.2302474235e-01	 2.2294049866e+00	-6.1015601998e-01
 1.0322296024e+00	 2.1503810018e+00	-9.6647808472e-01
 1.0118323198e+00	 2.1600536182e+00	-9.3117360220e-01
 9.9137844633e-01	 2.1695172169e+00	-8.9604621525e-01
 9.7087108470e-01	 2.1787715452e+00	-8.6093382307e-01
 9.5031333143e-01	 2.1878164094e+00	-8.2568611024e-01
 9.2970827535e-01	 2.1966516749e+00	-7.9016681853e-01
 9.0905899620e-01	 2.2052772652e+00	-7.5425565477e-01
 8.8836856338e-01	 2.2136931621e+00	-7.1784982211e-01
 8.6764003461e-01	 2.2218994046e+00	-6.8086516557e-01
 8.4687645466e-01	 2.2298960884e+00	-6.4323692624e-01
 8.2608085411e-01	 2.2376833656e+00	-6.0492010258e-01
 1.0360483603e+00	 2.1583363873e+00	-9.5950651598e-01
 1.0155756175e+00	 2.1680447877e+00	-9.2455684724e-01
 9.9504607439e-01	 2.1775433973e+00	-8.8971396832e-01
 9.7446284528e-01	 2.1868319622e+00	-8.5482637346e-01
 9.5382903812e-01	 2.1959102881e+00	-8.1975562463e-01
 9.3314775314e-01	 2.2047782398e+00	-7.8437869491e-01
 9.1242208150e-01	 2.2134357407e+00	-7.4858993384e-01
 8.9165510393e-01	 2.2218827725e+00	-7.1230264153e-01
 8.7084988948e-01	 2.2301193741e+00	-6.7545024223e-01
 8.5000949417e-01	 2.2381456418e+00	-6.3798705171e-01
 8.2913695981e-01	 2.2459617283e+00	-5.9988863660e-01
 1.0398671095e+00	 2.1662917548e+00	-9.5280008287e-01
 1.0193189067e+00	 2.1760359392e+00	-9.1819049077e-01
 9.9871369413e-01	 2.1855695595e+00	-8.8361575411e-01
 9.7805459772e-01	 2.1948923609e+00	-8.4893659797e-01
 9.5734473684e-01	 2.2040041484e+00	-8.1402818165e-01
 9.3658722314e-01	 2.2129047863e+00	-7.7878251376e-01
 9.1578515917e-01	 2.2215941978e+00	-7.4311047484e-01
 8.9494163704e-01	 2.2300723642e+00	-7.0694343371e-01
 8.7405973707e-01	 2.2383393250e+00	-6.7023444816e-01
 8.5314252659e-01	 2.2463951765e+00	-6.3295904400e-01
 8.3219305857e-01	 2.2542400721e+00	-5.9511557069e-01
 1.0436858490e+00	 2.1742471019e+00	-9.4643130891e-01
 1.0230621863e+00	 2.1840270702e+00	-9.1214390859e-01
 1.0023813045e+00	 2.1935957011e+00	-8.7781820038e-01
 9.8164634100e-01	 2.2029527390e+00	-8.4332874227e-01
 9.6086042659e-01	 2.2120979880e+00	-8.0856597793e-01
 9.4002668437e-01	 2.2210313121e+00	-7.7343872386e-01
 9.1914822827e-01	 2.2297526340e+00	-7.3787624909e-01
 8.9822816176e-01	 2.2382619351e+00	-7.0182993331e-01
 8.7726957648e-01	 2.2465592549e+00	-6.6527449371e-01
 8.5627555101e-01	 2.2546446902e+00	-6.2820877439e-01
 8.3524914955e-01	 2.2625183949e+00	-5.9065609658e-01
 8.0468799300e-01	 2.1797344988e+00	-6.4301120615e-01
 7.8440612811e-01	 2.1871150913e+00	-6.0427567432e-01
 7.6409893695e-01	 2.1942922261e+00	-5.6629899447e-01
 7.4376932065e-01	 2.2012662103e+00	-5.2903069479e-01
 7.2342016191e-01	 2.2080374030e+00	-4.9243629074e-01
 7.0305432391e-01	 2.2146062150e+00	-4.5649600330e-01
 6.8267464922e-01	 2.2209731076e+00	-4.2120322251e-01
 6.6228395880e-01	 2.2271385922e+00	-3.8656273305e-01
 6.4188505094e-01	 2.2331032293e+00	-3.5258872080e-01
 6.2148070031e-01	 2.2388676277e+00	-3.1930258061e-01
 6.0107365699e-01	 2.2444324436e+00	-2.8673054764e-01
 8.0774412295e-01	 2.1880129271e+00	-6.3760654033e-01
 7.8738522942e-01	 2.1954215505e+00	-5.9881809285e-01
 7.6700091344e-01	 2.2026259434e+00	-5.6083873837e-01
 7.4659408716e-01	 2.2096264140e+00	-5.2362285038e-01
 7.2616764421e-01	 2.2164233231e+00	-4.8714104206e-01
 7.0572445865e-01	 2.2230170828e+00	-4.5137884953e-01
 6.8526738386e-01	 2.2294081563e+00	-4.1633514979e-01
 6.6479925150e-01	 2.2355970569e+00	-3.8202033090e-01
 6.4432287049e-01	 2.2415843471e+00	-3.4845423347e-01
 6.2384102604e-01	 2.2473706381e+00	-3.1566388459e-01
 6.0335647868e-01	 2.2529565887e+00	-2.8368104693e-01
 8.1080025202e-01	 2.1962913531e+00	-6.3211111600e-01
 7.9036432989e-01	 2.2037280072e+00	-5.9332182287e-01
 7.6990288911e-01	 2.2109596582e+00	-5.5539497254e-01
 7.4941885286e-01	 2.2179866154e+00	-5.1828593091e-01
 7.2891512573e-01	 2.2248092408e+00	-4.8196661618e-01
 7.0839459264e-01	 2.2314279483e+00	-4.4642415190e-01
 6.8786011777e-01	 2.2378432026e+00	-4.1165924395e-01
 6.6731454349e-01	 2.2440555191e+00	-3.7768429915e-01
 6.4676068935e-01	 2.2500654625e+00	-3.4452130528e-01
 6.2620135111e-01	 2.2558736461e+00	-3.1219949431e-01
 6.0563929971e-01	 2.2614807314e+00	-2.8075281203e-01
 8.1385637937e-01	 2.2045697743e+00	-6.2657053191e-01
 7.9334342867e-01	 2.2120344593e+00	-5.8783143671e-01
 7.7280486314e-01	 2.2192933683e+00	-5.5001078689e-01
 7.5224361697e-01	 2.2263468121e+00	-5.1306113946e-01
 7.3166260569e-01	 2.2331951538e+00	-4.7695197773e-01
 7.1106472512e-01	 2.2398388090e+00	-4.4166833908e-01
 6.9045285021e-01	 2.2462782442e+00	-4.0720915527e-01
 6.6982983405e-01	 2.2525139766e+00	-3.7358532350e-01
 6.4919850683e-01	 2.2585465730e+00	-3.4081752856e-01
 6.2856167483e-01	 2.2643766493e+00	-3.0893383824e-01
 6.0792211946e-01	 2.2700048692e+00	-2.7796709620e-01
 8.1691250411e-01	 2.2128481886e+00	-6.2103188454e-01
 7.9632252491e-01	 2.2203409043e+00	-5.8239301973e-01
 7.7570683470e-01	 2.2276270714e+00	-5.4473079853e-01
 7.5506837867e-01	 2.2347070016e+00	-5.0799121841e-01
 7.3441008332e-01	 2.2415810597e+00	-4.7213763980e-01
 7.1373485532e-01	 2.2482496625e+00	-4.3714939337e-01
 6.9304558044e-01	 2.2547132785e+00	-4.0302008809e-01
 6.7234512248e-01	 2.2609724268e+00	-3.6975563863e-01
 6.5163632224e-01	 2.2670276764e+00	-3.3737203299e-01
 6.3092199655e-01	 2.2728796453e+00	-3.0589286329e-01
 6.1020493726e-01	 2.2785289998e+00	-2.7534664429e-01
 8.1996862540e-01	 2.2211265934e+00	-6.1554372567e-01
 7.9930161779e-01	 2.2286473399e+00	-5.7705413094e-01
 7.7860880297e-01	 2.2359607650e+00	-5.3960111532e-01
 7.5789313717e-01	 2.2430671817e+00	-5.0312041584e-01
 7.3715755784e-01	 2.2499669560e+00	-4.6756563302e-01
 7.1640498251e-01	 2.2566605065e+00	-4.3290682254e-01
 6.9563830774e-01	 2.2631483033e+00	-3.9912877530e-01
 6.7486040805e-01	 2.2694308675e+00	-3.6622900506e-01
 6.5407413489e-01	 2.2755087702e+00	-3.3421546499e-01
 6.3328231559e-01	 2.2813826316e+00	-3.0310401672e-01
 6.1248775248e-01	 2.2870531207e+00	-2.7291567708e-01
 8.2302474235e-01	 2.2294049866e+00	-6.1015601998e-01
 8.0228070644e-01	 2.2369537637e+00	-5.7186376361e-01
 7.8151076713e-01	 2.2442944468e+00	-5.3466929945e-01
 7.6071789168e-01	 2.2514273499e+00	-4.9849445195e-01
 7.3990502846e-01	 2.2583528405e+00	-4.6327947477e-01
 7.1907510590e-01	 2.2650713386e+00	-4.2898163161e-01
 6.9823103136e-01	 2.2715833162e+00	-3.9557345263e-01
 6.7737569007e-01	 2.2778892962e+00	-3.6304068605e-01
 6.5651194408e-01	 2.2839898519e+00	-3.3137996704e-01
 6.3564263130e-01	 2.2898856059e+00	-3.0059622786e-01
 6.1477056446e-01	 2.2955772296e+00	-2.7069987538e-01
 8.2608085411e-01	 2.2376833656e+00	-6.0492010258e-01
 8.0525979002e-01	 2.2452601734e+00	-5.6687230588e-01
 7.8441272636e-01	 2.2526281144e+00	-5.2998433096e-01
 7.6354264138e-01	 2.2597875039e+00	-4.9416048535e-01
 7.4265249441e-01	 2.2667387107e+00	-4.5932413811e-01
 7.2174522476e-01	 2.2734821564e+00	-4.2541629448e-01
 7.0082375058e-01	 2.2800183147e+00	-3.9239383287e-01
 6.7989096780e-01	 2.2863477105e+00	-3.6022742430e-01
 6.5894974913e-01	 2.2924709192e+00	-3.2889915683e-01
 6.3800294299e-01	 2.2983885658e+00	-2.9839988972e-01
 6.1705337257e-01	 2.3041013239e+00	-2.6872636404e-01
 8.2913695981e-01	 2.2459617283e+00	-5.9988863660e-01
 8.0823886770e-01	 2.2535665666e+00	-5.6213150134e-01
 7.8731467983e-01	 2.2609617655e+00	-5.2559657115e-01
 7.6636738547e-01	 2.2681476413e+00	-4.9016707931e-01
 7.4539995492e-01	 2.2751245643e+00	-4.5574602079e-01
 7.2441533833e-01	 2.2818929575e+00	-4.2225472549e-01
 7.0341646466e-01	 2.2884532965e+00	-3.8963107998e-01
 6.8240624055e-01	 2.2948061081e+00	-3.5782741853e-01
 6.6138754934e-01	 2.3009519697e+00	-3.2680810631e-01
 6.4036324999e-01	 2.3068915087e+00	-2.9654684039e-01
 6.1933617614e-01	 2.3126254014e+00	-2.6702369573e-01
 8.3219305857e-01	 2.2542400721e+00	-5.9511557069e-01
 8.1121793862e-01	 2.2618729410e+00	-5.5769440951e-01
 7.9021662672e-01	 2.2692953977e+00	-5.2155772602e-01
 7.6919212317e-01	 2.2765077598e+00	-4.8656416791e-01
 7.4814740919e-01	 2.2835103988e+00	-4.5259291406e-01
 7.2708544584e-01	 2.2903037396e+00	-4.1954225087e-01
 7.0600917285e-01	 2.2968882592e+00	-3.8732778307e-01
 6.8492150760e-01	 2.3032644864e+00	-3.5588029994e-01
 6.6382534403e-01	 2.3094330010e+00	-3.2514332056e-01
 6.4272355165e-01	 2.3153944324e+00	-2.9507034430e-01
 6.2161897455e-01	 2.3211494595e+00	-2.6562183456e-01
 8.3524914955e-01	 2.2625183949e+00	-5.9065609658e-01
 8.1419700195e-01	 2.2701792942e+00	-5.5361536638e-01
 7.9311856621e-01	 2.2776290086e+00	-5.1792080960e-01
 7.7201685366e-01	 2.2848678569e+00	-4.8340302223e-01
 7.5089485646e-01	 2.2918962120e+00	-4.4991397151e-01
 7.2975554654e-01	 2.2987145002e+00	-4.1732558016e-01
 7.0860187444e-01	 2.3053232003e+00	-3.8552793031e-01
 6.8743676824e-01	 2.3117228432e+00	-3.5442710858e-01
 6.6626313250e-01	 2.3179140106e+00	-3.2394271655e-01
 6.4508384729e-01	 2.3238973344e+00	-2.9400507340e-01
 6.2390176713e-01	 2.3296734959e+00	-2.6455213959e-01
 6.0107365699e-01	 2.2444324436e+00	-2.8673054764e-01
 5.8066664583e-01	 2.2497983806e+00	-2.5170289770e-01
 5.6026236637e-01	 2.2549661899e+00	-2.1920504625e-01
 5.3986349106e-01	 2.2599366679e+00	-1.9087834196e-01
 5.1947266420e-01	 2.2647106553e+00	-1.6582328188e-01
 4.9909250109e-01	 2.2692890356e+00	-1.4322180597e-01
 4.7872558728e-01	 2.2736727345e+00	-1.2233215127e-01
 4.5837447783e-01	 2.2778627189e+00	-1.0248372192e-01
 4.3804169659e-01	 2.2818599959e+00	-8.3072022779e-02
 4.1772973553e-01	 2.2856656119e+00	-6.3553701120e-02
 3.9744105410e-01	 2.2892806513e+00	-4.3441736631e-02
 6.0335647868e-01	 2.2529565887e+00	-2.8368104693e-01
 5.8287196359e-01	 2.2583429051e+00	-2.4904529384e-01
 5.6239019058e-01	 2.2635303412e+00	-2.1619632358e-01
 5.4191384224e-01	 2.2685196966e+00	-1.8766780977e-01
 5.2144557292e-01	 2.2733118151e+00	-1.6254769723e-01
 5.0098800786e-01	 2.2779075837e+00	-1.4000554917e-01
 4.8054374241e-01	 2.2823079315e+00	-1.1928718201e-01
 4.6011534134e-01	 2.2865138291e+00	-9.9709326713e-02
 4.3970533810e-01	 2.2905262874e+00	-8.0654365546e-02
 4.1931623410e-01	 2.2943463567e+00	-6.1565189539e-02
 3.9895049815e-01	 2.2979751257e+00	-4.1940217864e-02
 6.0563929971e-01	 2.2614807314e+00	-2.8075281203e-01
 5.8507728073e-01	 2.2668874270e+00	-2.4659869183e-01
 5.6451801418e-01	 2.2720944900e+00	-2.1336867442e-01
 5.4396419285e-01	 2.2771027228e+00	-1.8459004533e-01
 5.2341848109e-01	 2.2819129725e+00	-1.5934362834e-01
 5.0288351409e-01	 2.2865261293e+00	-1.3679179928e-01
 4.8236189702e-01	 2.2909431260e+00	-1.1617289350e-01
 4.6185620436e-01	 2.2951649368e+00	-9.6795651124e-02
 4.4136897913e-01	 2.2991925764e+00	-7.8033750429e-02
 4.2090273223e-01	 2.3030270990e+00	-5.9320475152e-02
 4.0045994178e-01	 2.3066695976e+00	-4.0143558054e-02
 6.0792211946e-01	 2.2700048692e+00	-2.7796709620e-01
 5.8728259661e-01	 2.2754319442e+00	-2.4436630075e-01
 5.6664583658e-01	 2.2806586340e+00	-2.1071950458e-01
 5.4601454229e-01	 2.2856857442e+00	-1.8163526583e-01
 5.2539138814e-01	 2.2905141251e+00	-1.5619272017e-01
 5.0477901924e-01	 2.2951446701e+00	-1.3355224716e-01
 4.8418005061e-01	 2.2995783156e+00	-1.1294964221e-01
 4.6359706640e-01	 2.3038160396e+00	-9.3690338480e-02
 4.4303261922e-01	 2.3078588604e+00	-7.5143729988e-02
 4.2248922945e-01	 2.3117078365e+00	-5.6737642901e-02
 4.0196938455e-01	 2.3153640646e+00	-3.7952997974e-02
 6.1020493726e-01	 2.2785289998e+00	-2.7534664429e-01
 5.8948791062e-01	 2.2839764541e+00	-2.4233046635e-01
 5.6877365718e-01	 2.2892227707e+00	-2.0824772277e-01
 5.4806488999e-01	 2.2942687583e+00	-1.7879499987e-01
 5.2736429351e-01	 2.2991152703e+00	-1.5307777176e-01
 5.0667452279e-01	 2.3037632036e+00	-1.3025961574e-01
 4.8599820264e-01	 2.3082134979e+00	-1.0957873125e-01
 4.6533792695e-01	 2.3124671350e+00	-9.0341930866e-02
 4.4469625790e-01	 2.3165251371e+00	-7.1918746321e-02
 4.2407572533e-01	 2.3203885665e+00	-5.3735697691e-02
 4.0347882604e-01	 2.3240585242e+00	-3.5270769359e-02
 6.1248775248e-01	 2.2870531207e+00	-2.7291567708e-01
 5.9169322214e-01	 2.2925209543e+00	-2.4040422544e-01
 5.7090147536e-01	 2.2977868977e+00	-2.0595378441e-01
 5.5011523536e-01	 2.3028517627e+00	-1.7606212846e-01
 5.2933719665e-01	 2.3077164057e+00	-1.4998277400e-01
 5.0857002419e-01	 2.3123817272e+00	-1.2688769417e-01
 4.8781635262e-01	 2.3168486704e+00	-1.0602244035e-01
 4.6707878553e-01	 2.3211182206e+00	-8.6699894507e-02
 4.4635989470e-01	 2.3251914040e+00	-6.8294151351e-02
 4.2566221941e-01	 2.3290692867e+00	-5.0234579093e-02
 4.0498826582e-01	 2.3327529740e+00	-3.2000103549e-02
 6.1477056446e-01	 2.2955772296e+00	-2.7069987538e-01
 5.9389853053e-01	 2.3010654424e+00	-2.3859707693e-01
 5.7302929053e-01	 2.3063510126e+00	-2.0383973516e-01
 5.5216557783e-01	 2.3114347549e+00	-1.7343092588e-01
 5.3131009699e-01	 2.3163175290e+00	-1.4689294731e-01
 5.1046552290e-01	 2.3210002387e+00	-1.2341137185e-01
 4.8963450003e-01	 2.3254838307e+00	-1.0224405574e-01
 4.6881964165e-01	 2.3297692940e+00	-8.2714645130e-02
 4.4802352914e-01	 2.3338576586e+00	-6.4206227170e-02
 4.2724871124e-01	 2.3377499946e+00	-4.6155176190e-02
 4.0649770346e-01	 2.3414474114e+00	-2.8045240354e-02
 6.1705337257e-01	 2.3041013239e+00	-2.6872636404e-01
 5.9610383517e-01	 2.3096099159e+00	-2.3693200680e-01
 5.7515710208e-01	 2.3149151129e+00	-2.0190925436e-01
 5.5421591682e-01	 2.3200177325e+00	-1.7089710030e-01
 5.3328299398e-01	 2.3249186377e+00	-1.4379477911e-01
 5.1236101839e-01	 2.3296187355e+00	-1.1980667229e-01
 4.9145264434e-01	 2.3341189763e+00	-9.8207900070e-02
 4.7056049481e-01	 2.3384203527e+00	-7.8337573311e-02
 4.4968716075e-01	 2.3425238984e+00	-5.9592206426e-02
 4.2883520038e-01	 2.3464306878e+00	-4.1419342554e-02
 4.0800713853e-01	 2.3501418341e+00	-2.3311437148e-02
 6.1933617614e-01	 2.3126254014e+00	-2.6702369573e-01
 5.9830913543e-01	 2.3181543725e+00	-2.3543341581e-01
 5.7728490941e-01	 2.3234791962e+00	-2.0016769819e-01
 5.5626625174e-01	 2.3286006931e+00	-1.6845783430e-01
 5.3525588706e-01	 2.3335197293e+00	-1.4067606120e-01
 5.1425651012e-01	 2.3382372152e+00	-1.1605078691e-01
 4.9327078505e-01	 2.3427541048e+00	-9.3879362129e-02
 4.7230134451e-01	 2.3470713942e+00	-7.3521069810e-02
 4.5135078906e-01	 2.3511901211e+00	-5.4390292778e-02
 4.3042168637e-01	 2.3551113637e+00	-3.6041411582e-02
 4.0951657061e-01	 2.3588362395e+00	-1.8311667871e-02
 6.2161897455e-01	 2.3211494595e+00	-2.6562183456e-01
 6.0051443070e-01	 2.3266988098e+00	-2.3412710528e-01
 5.7941271192e-01	 2.3320432601e+00	-1.9862214277e-01
 5.5831658201e-01	 2.3371836342e+00	-1.6611182521e-01
 5.3722877566e-01	 2.3421208014e+00	-1.3752592694e-01
 5.1615199756e-01	 2.3468556754e+00	-1.1212210874e-01
 4.9508892163e-01	 2.3513892137e+00	-8.9224926585e-02
 4.7404219027e-01	 2.3557224161e+00	-6.8391271327e-02
 4.5301441360e-01	 2.3598563242e+00	-4.9528319874e-02
 4.3200816876e-01	 2.3637920200e+00	-3.1924452093e-02
 4.1102599927e-01	 2.3675306252e+00	-1.4863320057e-02
 6.2390176713e-01	 2.3296734959e+00	-2.6455213959e-01
 6.0271972034e-01	 2.3352432252e+00	-2.3304026266e-01
 5.8154050900e-01	 2.3406073021e+00	-1.9728142698e-01
 5.6036690706e-01	 2.3457665534e+00	-1.6385932525e-01
 5.3920165923e-01	 2.3507218515e+00	-1.3433488833e-01
 5.1804748016e-01	 2.3554741136e+00	-1.0815988662e-01
 4.9690705358e-01	 2.3600243005e+00	-8.5385383496e-02
 4.7578303159e-01	 2.3643734159e+00	-6.5272722746e-02
 4.5467803390e-01	 2.3685225051e+00	-4.7015612247e-02
 4.3359464711e-01	 2.3724726541e+00	-2.9857378638e-02
 4.1253542408e-01	 2.3762249887e+00	-1.3088012197e-02
 3.9744105410e-01	 2.2892806513e+00	-4.3441736631e-02
 3.7717463691e-01	 2.2927068022e+00	-2.3181659229e-02
 3.5693633350e-01	 2.2959445909e+00	-3.6081048001e-03
 3.3672850860e-01	 2.2989952099e+00	 1.5133184787e-02
 3.1655349199e-01	 2.3018598858e+00	 3.2872901535e-02
 2.9641357803e-01	 2.3045398784e+00	 4.9422005168e-02
 2.7631102523e-01	 2.3070364800e+00	 6.4575222669e-02
 2.5624805578e-01	 2.3093510139e+00	 7.8114200231e-02
 2.3622685516e-01	 2.3114848338e+00	 8.9810297952e-02
 2.1624957181e-01	 2.3134393225e+00	 9.9427021064e-02
 1.9631831674e-01	 2.3152158911e+00	 1.0672208477e-01
 3.9895049815e-01	 2.2979751257e+00	-4.1940217864e-02
 3.7860711100e-01	 2.3014142887e+00	-2.2161863738e-02
 3.5829194440e-01	 2.3046643743e+00	-3.0216102208e-03
 3.3800737207e-01	 2.3077265793e+00	 1.5320592249e-02
 3.1775573262e-01	 2.3106021349e+00	 3.2682337858e-02
 2.9753932915e-01	 2.3132923059e+00	 4.8862742549e-02
 2.7736042873e-01	 2.3157983894e+00	 6.3646069924e-02
 2.5722126199e-01	 2.3181217137e+00	 7.6804992528e-02
 2.3712402272e-01	 2.3202636376e+00	 8.8103478896e-02
 2.1707086751e-01	 2.3222255493e+00	 9.7299300223e-02
 1.9706391539e-01	 2.3240088651e+00	 1.0414615398e-01
 4.0045994178e-01	 2.3066695976e+00	-4.0143558054e-02
 3.8003958468e-01	 2.3101217729e+00	-2.0830834581e-02
 3.5964755492e-01	 2.3133841553e+00	-2.1367039952e-03
 3.3928623517e-01	 2.3164579462e+00	 1.5764580401e-02
 3.1895797292e-01	 2.3193443816e+00	 3.2677228443e-02
 2.9866507996e-01	 2.3220447310e+00	 4.8388042159e-02
 2.7840983194e-01	 2.3245602962e+00	 6.2670176388e-02
 2.5819446793e-01	 2.3268924109e+00	 7.5286517497e-02
 2.3802119003e-01	 2.3290424389e+00	 8.5992670558e-02
 2.1789216298e-01	 2.3310117736e+00	 9.4539548979e-02
 1.9780951384e-01	 2.3328018366e+00	 1.0067556409e-01
 4.0196938455e-01	 2.3153640646e+00	-3.7952997974e-02
 3.8147205756e-01	 2.3188292521e+00	-1.9074282762e-02
 3.6100316467e-01	 2.3221039313e+00	-8.2759345381e-04
 3.4056509756e-01	 2.3251893082e+00	 1.6598400694e-02
 3.2016021254e-01	 2.3280866233e+00	 3.2994224188e-02
 2.9979083012e-01	 2.3307971510e+00	 4.8133884905e-02
 2.7945923455e-01	 2.3333221982e+00	 6.1778777794e-02
 2.5916767332e-01	 2.3356631032e+00	 7.3681189081e-02
 2.3891835683e-01	 2.3378212353e+00	 8.3587391360e-02
 2.1871345799e-01	 2.3397979929e+00	 9.1240323646e-02
 1.9855511186e-01	 2.3415948031e+00	 9.6381854081e-02
 4.0347882604e-01	 2.3240585242e+00	-3.5270769359e-02
 3.8290452922e-01	 2.3275367238e+00	-1.6778982426e-02
 3.6235877327e-01	 2.3308236998e+00	 1.0304173026e-03
 3.4184395885e-01	 2.3339206627e+00	 1.7954212260e-02
 3.2136245113e-01	 2.3368288576e+00	 3.3768925720e-02
 3.0091657933e-01	 2.3395495637e+00	 4.8235280604e-02
 2.8050863627e-01	 2.3420840926e+00	 6.1102254612e-02
 2.6014087788e-01	 2.3444337881e+00	 7.2110717979e-02
 2.3981552287e-01	 2.3466000241e+00	 8.0996644217e-02
 2.1953475230e-01	 2.3485842047e+00	 8.7493888025e-02
 1.9930070925e-01	 2.3503877622e+00	 9.1336528241e-02
 4.0498826582e-01	 2.3327529740e+00	-3.2000103549e-02
 3.8433699925e-01	 2.3362441858e+00	-1.3832773686e-02
 3.6371438034e-01	 2.3395434585e+00	 3.5609293913e-03
 3.4312281870e-01	 2.3426520073e+00	 1.9963087701e-02
 3.2256468836e-01	 2.3455710820e+00	 3.5135891983e-02
 3.0204232727e-01	 2.3483019664e+00	 4.8826278356e-02
 2.8155803680e-01	 2.3508459772e+00	 6.0770143217e-02
 2.6111408134e-01	 2.3532044630e+00	 7.0695938806e-02
 2.4071268789e-01	 2.3553788031e+00	 7.8332038165e-02
 2.2035604567e-01	 2.3573704066e+00	 8.3456682673e-02
 2.0004630580e-01	 2.3591807113e+00	 8.5850805934e-02
 4.0649770346e-01	 2.3414474114e+00	-2.8045240354e-02
 3.8576946725e-01	 2.3449516353e+00	-1.0124565759e-02
 3.6506998548e-01	 2.3482632049e+00	 6.8864507433e-03
 3.4440167673e-01	 2.3513833396e+00	 2.2755018437e-02
 3.2376692389e-01	 2.3543132940e+00	 3.7210299016e-02
 3.0316807361e-01	 2.3570543567e+00	 4.9918446674e-02
 2.8260743584e-01	 2.3596078493e+00	 6.0699373013e-02
 2.6208728342e-01	 2.3619751254e+00	 6.9373844818e-02
 2.4160985164e-01	 2.3641575696e+00	 7.5739646461e-02
 2.2117733789e-01	 2.3661565960e+00	 7.9574070405e-02
 2.0079190129e-01	 2.3679736479e+00	 8.0636288003e-02
 4.0800713853e-01	 2.3501418341e+00	-2.3311437148e-02
 3.8720193283e-01	 2.3536590701e+00	-5.5530129942e-03
 3.6642558832e-01	 2.3569829364e+00	 1.0903731090e-02
 3.4568053260e-01	 2.3601146570e+00	 2.5858434420e-02
 3.2496915738e-01	 2.3630554911e+00	 3.9205108433e-02
 3.0429381804e-01	 2.3658067321e+00	 5.0804546951e-02
 2.8365683310e-01	 2.3683697065e+00	 6.0487266100e-02
 2.6306048385e-01	 2.3707457730e+00	 6.8056311839e-02
 2.4250701387e-01	 2.3729363211e+00	 7.3289939865e-02
 2.2199862871e-01	 2.3749427705e+00	 7.5944172511e-02
 2.0153749551e-01	 2.3767665696e+00	 7.5755236969e-02
 4.0951657061e-01	 2.3588362395e+00	-1.8311667871e-02
 3.8863439555e-01	 2.3623664876e+00	-1.3744895998e-03
 3.6778118847e-01	 2.3657026506e+00	 1.4162371223e-02
 3.4695938592e-01	 2.3688459571e+00	 2.8220018030e-02
 3.2617138848e-01	 2.3717976709e+00	 4.0680922233e-02
 3.0541956023e-01	 2.3745590902e+00	 5.1392067637e-02
 2.8470622828e-01	 2.3771315464e+00	 6.0167958796e-02
 2.6403368235e-01	 2.3795164032e+00	 6.6793498303e-02
 2.4340417432e-01	 2.3817150553e+00	 7.1026737798e-02
 2.2281991790e-01	 2.3837289275e+00	 7.2601507267e-02
 2.0228308825e-01	 2.3855594738e+00	 7.1229926939e-02
 4.1102599927e-01	 2.3675306252e+00	-1.4863320057e-02
 3.9006685504e-01	 2.3710738854e+00	 1.4741378663e-03
 3.6913678555e-01	 2.3744223451e+00	 1.6410312029e-02
 3.4823823635e-01	 2.3775772374e+00	 2.9857756032e-02
 3.2737361686e-01	 2.3805398309e+00	 4.1687781445e-02
 3.0654529987e-01	 2.3833114284e+00	 5.1733674293e-02
 2.8575562108e-01	 2.3858933664e+00	 5.9793777087e-02
 2.6500687864e-01	 2.3882870135e+00	 6.5634441378e-02
 2.4430133273e-01	 2.3904937695e+00	 6.8992855613e-02
 2.2364120523e-01	 2.3925150647e+00	 6.9579752809e-02
 2.0302867931e-01	 2.3943523582e+00	 6.7082002315e-02
 4.1253542408e-01	 2.3762249887e+00	-1.3088012197e-02
 3.9149931087e-01	 2.3797812609e+00	 3.0163079632e-03
 3.7049237917e-01	 2.3831420173e+00	 1.7682419898e-02
 3.4951708351e-01	 2.3863084955e+00	 3.0814989312e-02
 3.2857584217e-01	 2.3892819685e+00	 4.2274558498e-02
 3.0767103664e-01	 2.3920637443e+00	 5.1880839822e-02
 2.8680501121e-01	 2.3946551640e+00	 5.9415876617e-02
 2.6598007245e-01	 2.3970576014e+00	 6.4627076467e-02
 2.4519848886e-01	 2.3992724614e+00	 6.7230121594e-02
 2.2446249046e-01	 2.4013011794e+00	 6.6911760839e-02
 2.0377426846e-01	 2.4031452201e+00	 6.3332487434e-02
 1.9631831674e-01	 2.3152158911e+00	 1.0672208477e-01
 1.7643853104e-01	 2.3168157204e+00	 1.1332801603e-01
 1.5660881852e-01	 2.3182405908e+00	 1.2090033848e-01
 1.3683113004e-01	 2.3194919904e+00	 1.2923403009e-01
 1.1710737926e-01	 2.3205714314e+00	 1.3813634280e-01
 9.7439442445e-02	 2.3214804490e+00	 1.4742662628e-01
 7.7829158300e-02	 2.3222206007e+00	 1.5693582367e-01
 5.8278327803e-02	 2.3227934648e+00	 1.6650565515e-01
 3.8788714106e-02	 2.3232006399e+00	 1.7598750707e-01
 1.9362042431e-02	 2.3234437436e+00	 1.8524104563e-01
 0.0000000000e+00	 2.3235244118e+00	 1.9413257572e-01
 1.9706391539e-01	 2.3240088651e+00	 1.0414615398e-01
 1.7710862812e-01	 2.3256147704e+00	 1.1038429926e-01
 1.5720360420e-01	 2.3270450523e+00	 1.1776569523e-01
 1.3735080190e-01	 2.3283012046e+00	 1.2606953393e-01
 1.1755214216e-01	 2.3293847452e+00	 1.3509206982e-01
 9.7809508360e-02	 2.3302972153e+00	 1.4464637094e-01
 7.8124746184e-02	 2.3310401780e+00	 1.5456172593e-01
 5.8499663457e-02	 2.3316152178e+00	 1.6468272354e-01
 3.8936030025e-02	 2.3320239393e+00	 1.7486802323e-01
 1.9435577662e-02	 2.3322679662e+00	 1.8498883685e-01
 0.0000000000e+00	 2.3323489408e+00	 1.9492714284e-01
 1.9780951384e-01	 2.3328018366e+00	 1.0067556409e-01
 1.7777872501e-01	 2.3344138179e+00	 1.0626515042e-01
 1.5779838972e-01	 2.3358495114e+00	 1.1316823415e-01
 1.3787047363e-01	 2.3371104164e+00	 1.2113980057e-01
 1.1799690494e-01	 2.3381980566e+00	 1.2995692597e-01
 9.8179574170e-02	 2.3391139790e+00	 1.3941846156e-01
 7.8420333985e-02	 2.3398597527e+00	 1.4934435625e-01
 5.8720999048e-02	 2.3404369682e+00	 1.5957463592e-01
 3.9083345902e-02	 2.3408472361e+00	 1.6996805870e-01
 1.9509112873e-02	 2.3410921864e+00	 1.8040046708e-01
 0.0000000000e+00	 2.3411734673e+00	 1.9076285929e-01
 1.9855511186e-01	 2.3415948031e+00	 9.6381854081e-02
 1.7844882153e-01	 2.3432128605e+00	 1.0101869614e-01
 1.5839317490e-01	 2.3446539654e+00	 1.0713197677e-01
 1.3839014506e-01	 2.3459196231e+00	 1.1444414397e-01
 1.1844166747e-01	 2.3470113629e+00	 1.2270500686e-01
 9.8549639771e-02	 2.3479307377e+00	 1.3169135739e-01
 7.8715921619e-02	 2.3486793225e+00	 1.4120621339e-01
 5.8942334515e-02	 2.3492587136e+00	 1.5107770136e-01
 3.9230661696e-02	 2.3496705279e+00	 1.6115759946e-01
 1.9582648042e-02	 2.3499164015e+00	 1.7131956243e-01
 0.0000000000e+00	 2.3499979888e+00	 1.8145705196e-01
 1.9930070925e-01	 2.3503877622e+00	 9.1336528241e-02
 1.7911891748e-01	 2.3520118955e+00	 9.4693295900e-02
 1.5898795958e-01	 2.3534584120e+00	 9.9685143064e-02
 1.3890981604e-01	 2.3547288224e+00	 1.0603389161e-01
 1.1888642962e-01	 2.3558246618e+00	 1.1347137830e-01
 9.8919705058e-02	 2.3567474889e+00	 1.2174305415e-01
 7.9011509003e-02	 2.3574988847e+00	 1.3061624278e-01
 5.9163669793e-02	 2.3580804516e+00	 1.3988093440e-01
 3.9377977365e-02	 2.3584938123e+00	 1.4935047369e-01
 1.9656183149e-02	 2.3587406091e+00	 1.5886214546e-01
 0.0000000000e+00	 2.3588225028e+00	 1.6827766194e-01
 2.0004630580e-01	 2.3591807113e+00	 8.5850805934e-02
 1.7978901266e-01	 2.3608109206e+00	 8.7904453624e-02
 1.5958274358e-01	 2.3622628486e+00	 9.1908250797e-02
 1.3942948644e-01	 2.3635380116e+00	 9.7499204057e-02
 1.1933119126e-01	 2.3646379507e+00	 1.0433772400e-01
 9.9289769926e-02	 2.3655642302e+00	 1.1210864647e-01
 7.9307096051e-02	 2.3663184370e+00	 1.2052213513e-01
 5.9385004822e-02	 2.3669021795e+00	 1.2931447007e-01
 3.9525292868e-02	 2.3673170866e+00	 1.3824872672e-01
 1.9729718173e-02	 2.3675648068e+00	 1.4711534935e-01
 0.0000000000e+00	 2.3676470068e+00	 1.5573262290e-01
 2.0079190129e-01	 2.3679736479e+00	 8.0636288003e-02
 1.8045910690e-01	 2.3696099332e+00	 8.1508499523e-02
 1.6017752674e-01	 2.3710672727e+00	 8.4635822112e-02
 1.3994915611e-01	 2.3723471884e+00	 8.9579346990e-02
 1.1977595228e-01	 2.3734512271e+00	 9.5927157455e-02
 9.9659834270e-02	 2.3743809589e+00	 1.0329535863e-01
 7.9602682682e-02	 2.3751379767e+00	 1.1132898463e-01
 5.9606339536e-02	 2.3757238949e+00	 1.1970278781e-01
 3.9672608162e-02	 2.3761403485e+00	 1.2812191470e-01
 1.9803253093e-02	 2.3763889919e+00	 1.3632247281e-01
 0.0000000000e+00	 2.3764714982e+00	 1.4407199240e-01
 2.0153749551e-01	 2.3767665696e+00	 7.5755236969e-02
 1.8112920000e-01	 2.3784089309e+00	 7.5521819990e-02
 1.6077230889e-01	 2.3798716818e+00	 7.7863193993e-02
 1.4046882489e-01	 2.3811563502e+00	 8.2256233099e-02
 1.2022071254e-01	 2.3822644885e+00	 8.8208522876e-02
 1.0002989798e-01	 2.3831976727e+00	 9.5259405333e-02
 7.9898268809e-02	 2.3839575015e+00	 1.0298089704e-01
 5.9827673875e-02	 2.3845455954e+00	 1.1097848525e-01
 3.9819923205e-02	 2.3849635953e+00	 1.1889180663e-01
 1.9876787888e-02	 2.3852131620e+00	 1.2639521294e-01
 0.0000000000e+00	 2.3852959747e+00	 1.3319822796e-01
 2.0228308825e-01	 2.3855594738e+00	 7.1229926939e-02
 1.8179929177e-01	 2.3872079111e+00	 6.9953046931e-02
 1.6136708986e-01	 2.3886760735e+00	 7.1585542165e-02
 1.4098849264e-01	 2.3899654946e+00	 7.5511852568e-02
 1.2066547192e-01	 2.3910777324e+00	 8.1150978823e-02
 1.0039996097e-01	 2.3920143689e+00	 8.7957549284e-02
 8.0193854351e-02	 2.3927770088e+00	 9.5422755474e-02
 6.0049007775e-02	 2.3933672783e+00	 1.0307516114e-01
 3.9967237957e-02	 2.3937868247e+00	 1.1048138962e-01
 1.9950322536e-02	 2.3940373146e+00	 1.1724669394e-01
 0.0000000000e+00	 2.3941204337e+00	 1.2301541404e-01
 2.0302867931e-01	 2.3943523582e+00	 6.7082002315e-02
 1.8246938203e-01	 2.3960068713e+00	 6.4810416861e-02
 1.6196186948e-01	 2.3974804453e+00	 6.5797881908e-02
 1.4150815921e-01	 2.3987746190e+00	 6.9328269496e-02
 1.2111023029e-01	 2.3998909564e+00	 7.4723990318e-02
 1.0077002311e-01	 2.4008310452e+00	 8.1347089208e-02
 8.0489439222e-02	 2.4015964960e+00	 8.8600204373e-02
 6.0270341172e-02	 2.4021889412e+00	 9.5927395472e-02
 4.0114552374e-02	 2.4026100340e+00	 1.0281484537e-01
 2.0023857018e-02	 2.4028614472e+00	 1.0879144018e-01
 0.0000000000e+00	 2.4029448727e+00	 1.1342923201e-01
 2.0377426846e-01	 2.4031452201e+00	 6.3332487434e-02
 1.8313947057e-01	 2.4048058091e+00	 6.0101776099e-02
 1.6255664758e-01	 2.4062847945e+00	 6.0495068873e-02
 1.4202782445e-01	 2.4075837209e+00	 6.3687618414e-02
 1.2155498752e-01	 2.4087041578e+00	 6.8897321176e-02
 1.0114008431e-01	 2.4096476990e+00	 7.5385848089e-02
 8.0785023340e-02	 2.4104159608e+00	 8.2459633856e-02
 6.0491674005e-02	 2.4110105817e+00	 8.9470730088e-02
 4.0261866415e-02	 2.4114332208e+00	 9.5817527229e-02
 2.0097391313e-02	 2.4116855573e+00	 1.0094534999e-01
 0.0000000000e+00	 2.4117692892e+00	 1.0434693075e-01
 2.4117692892e+00	 0.0000000000e+00	 2.2016812235e+00
 2.4116855573e+00	 2.0097391313e-02	 2.1787546293e+00
 2.4114332208e+00	 4.0261866415e-02	 2.1572983971e+00
 2.4110105817e+00	 6.0491674005e-02	 2.1370980656e+00
 2.4104159608e+00	 8.0785023340e-02	 2.1179051386e+00
 2.4096476990e+00	 1.0114008431e-01	 2.0994370614e+00
 2.4087041578e+00	 1.2155498752e-01	 2.0813772153e+00
 2.4075837209e+00	 1.4202782445e-01	 2.0633749290e+00
 2.4062847945e+00	 1.6255664758e-01	 2.0450455040e+00
 2.4048058091e+00	 1.8313947057e-01	 2.0259702501e+00
 2.4031452201e+00	 2.0377426846e-01	 2.0056965298e+00
 2.4205921840e+00	 0.0000000000e+00	 2.1939411482e+00
 2.4205081459e+00	 2.0170912927e-02	 2.1672042256e+00
 2.4202548862e+00	 4.0409155054e-02	 2.1429245027e+00
 2.4198307010e+00	 6.0712968673e-02	 2.1207735217e+00
 2.4192339048e+00	 8.1080556488e-02	 2.1003864960e+00
 2.4184628325e+00	 1.0151008169e-01	 2.0813623923e+00
 2.4175158396e+00	 1.2199966806e-01	 2.0632640370e+00
 2.4163913038e+00	 1.4254740009e-01	 2.0456182436e+00
 2.4150876256e+00	 1.6315132313e-01	 2.0279159583e+00
 2.4136032297e+00	 1.8380944356e-01	 2.0096124209e+00
 2.4119365657e+00	 2.0451972904e-01	 1.9901273388e+00
 2.4294150713e+00	 0.0000000000e+00	 2.1884460439e+00
 2.4293307269e+00	 2.0244434479e-02	 2.1569832109e+00
 2.4290765441e+00	 4.0556443568e-02	 2.1292464551e+00
 2.4286508127e+00	 6.0934263151e-02	 2.1047494335e+00
 2.4280518413e+00	 8.1376089384e-02	 2.0829675659e+00
 2.4272779585e+00	 1.0188007876e-01	 2.0633382891e+00
 2.4263275139e+00	 1.2244434823e-01	 2.0452613405e+00
 2.4251988792e+00	 1.4306697529e-01	 2.0280990681e+00
 2.4238904492e+00	 1.6374599816e-01	 2.0111767654e+00
 2.4224006428e+00	 1.8447941599e-01	 1.9937830258e+00
 2.4207279040e+00	 2.0526518900e-01	 1.9751701159e+00
 2.4382379687e+00	 0.0000000000e+00	 2.1854949398e+00
 2.4381533179e+00	 2.0317956114e-02	 2.1482934931e+00
 2.4378982120e+00	 4.0703732248e-02	 2.1163815292e+00
 2.4374709345e+00	 6.1155557880e-02	 2.0890714373e+00
 2.4368697878e+00	 8.1671622614e-02	 2.0656358463e+00
 2.4360930945e+00	 1.0225007625e-01	 2.0453081143e+00
 2.4351391981e+00	 1.2288902890e-01	 2.0272828552e+00
 2.4340064646e+00	 1.4358655107e-01	 2.0107164986e+00
 2.4326932828e+00	 1.6434067388e-01	 1.9947278807e+00
 2.4311980659e+00	 1.8514938917e-01	 1.9783988612e+00
 2.4295192521e+00	 2.0601064979e-01	 1.9607749650e+00
 2.4470608935e+00	 0.0000000000e+00	 2.1853825256e+00
 2.4469759364e+00	 2.0391477977e-02	 2.1413340793e+00
 2.4467199074e+00	 4.0851021386e-02	 2.1044453523e+00
 2.4462910838e+00	 6.1376853298e-02	 2.0737845838e+00
 2.4456877618e+00	 8.1967156765e-02	 2.0483791122e+00
 2.4449082579e+00	 1.0262007490e-01	 2.0272161641e+00
 2.4439509099e+00	 1.2333371095e-01	 2.0092436890e+00
 2.4428140775e+00	 1.4410612847e-01	 1.9933712349e+00
 2.4414961438e+00	 1.6493535144e-01	 1.9784708627e+00
 2.4399955163e+00	 1.8581936445e-01	 1.9633780940e+00
 2.4383106277e+00	 2.0675611291e-01	 1.9468928898e+00
 2.4558838633e+00	 0.0000000000e+00	 2.1883992271e+00
 2.4557985999e+00	 2.0465000216e-02	 2.1363011265e+00
 2.4555416478e+00	 4.0998311275e-02	 2.0935519328e+00
 2.4551112780e+00	 6.1598149844e-02	 2.0589333471e+00
 2.4545057808e+00	 8.2262692423e-02	 2.0311854091e+00
 2.4537234664e+00	 1.0299007542e-01	 2.0090076505e+00
 2.4527626665e+00	 1.2377839527e-01	 1.9910603018e+00
 2.4516217353e+00	 1.4462570852e-01	 1.9759655501e+00
 2.4502990498e+00	 1.6553003204e-01	 1.9623088431e+00
 2.4487930117e+00	 1.8648934314e-01	 1.9486402358e+00
 2.4471020481e+00	 2.0750157984e-01	 1.9334757750e+00
 2.4647068957e+00	 0.0000000000e+00	 2.1948312815e+00
 2.4646213259e+00	 2.0538522974e-02	 2.1333879908e+00
 2.4643634507e+00	 4.1145602207e-02	 2.0838136878e+00
 2.4639315348e+00	 6.1819447957e-02	 2.0445616337e+00
 2.4633238622e+00	 8.2558230173e-02	 2.0140430471e+00
 2.4625387372e+00	 1.0336007857e-01	 1.9906286835e+00
 2.4615744856e+00	 1.2422308274e-01	 1.9726504804e+00
 2.4604294554e+00	 1.4514529225e-01	 1.9584032613e+00
 2.4591020180e+00	 1.6612471684e-01	 1.9461464968e+00
 2.4575905694e+00	 1.8715932657e-01	 1.9341061170e+00
 2.4558935309e+00	 2.0824705204e-01	 1.9204763696e+00
 2.4735300080e+00	 0.0000000000e+00	 2.2049608098e+00
 2.4734441320e+00	 2.0612046399e-02	 2.1327852760e+00
 2.4731853336e+00	 4.1292894474e-02	 2.0753414700e+00
 2.4727518715e+00	 6.2040748075e-02	 2.0307127919e+00
 2.4721420236e+00	 8.2853770602e-02	 1.9969405948e+00
 2.4713540880e+00	 1.0373008508e-01	 1.9720262541e+00
 2.4703863846e+00	 1.2466777424e-01	 1.9539333132e+00
 2.4692372555e+00	 1.4566488070e-01	 1.9405897007e+00
 2.4679050661e+00	 1.6671940704e-01	 1.9298900135e+00
 2.4663882068e+00	 1.8782931608e-01	 1.9196978617e+00
 2.4646850933e+00	 2.0899253100e-01	 1.9078482689e+00
 2.4823532178e+00	 0.0000000000e+00	 2.2190658878e+00
 2.4822670355e+00	 2.0685570636e-02	 2.1346808808e+00
 2.4820073140e+00	 4.1440188367e-02	 2.0682445940e+00
 2.4815723057e+00	 6.2262050637e-02	 2.0174296199e+00
 2.4809602824e+00	 8.3149314295e-02	 1.9798668739e+00
 2.4801695363e+00	 1.0410009566e-01	 1.9531482171e+00
 2.4791983810e+00	 1.2511247065e-01	 1.9348291661e+00
 2.4780451528e+00	 1.4618447488e-01	 1.9224316872e+00
 2.4767082115e+00	 1.6731410382e-01	 1.9134470685e+00
 2.4751859415e+00	 1.8849931299e-01	 1.9053388629e+00
 2.4734767528e+00	 2.0973801820e-01	 1.8955458983e+00
 2.4911765427e+00	 0.0000000000e+00	 2.2374206163e+00
 2.4910900540e+00	 2.0759095830e-02	 2.1392600449e+00
 2.4908294093e+00	 4.1587484179e-02	 2.0626308625e+00
 2.4903928548e+00	 6.2483356083e-02	 2.0047543745e+00
 2.4897786561e+00	 8.3444861838e-02	 1.9628109535e+00
 2.4889850994e+00	 1.0447011108e-01	 1.9339432755e+00
 2.4880104922e+00	 1.2555717286e-01	 1.9152596588e+00
 2.4868531650e+00	 1.4670407583e-01	 1.9038374993e+00
 2.4855114716e+00	 1.6790880834e-01	 1.8967267958e+00
 2.4839837908e+00	 1.8916931864e-01	 1.8909537588e+00
 2.4822685270e+00	 2.1048351511e-01	 1.8835244961e+00
 2.5000000000e+00	 0.0000000000e+00	 2.2602951890e+00
 2.4999132050e+00	 2.0832622128e-02	 2.1467053949e+00
 2.4996516371e+00	 4.1734782201e-02	 2.0586065914e+00
 2.4992135364e+00	 6.2704664850e-02	 1.9927287799e+00
 2.4985971623e+00	 8.3740413818e-02	 1.9457621443e+00
 2.4978007949e+00	 1.0484013204e-01	 1.9143609634e+00
 2.4968227358e+00	 1.2600188175e-01	 1.8951476413e+00
 2.4956613094e+00	 1.4722368459e-01	 1.8847168473e+00
 2.4943148639e+00	 1.6850352179e-01	 1.8796397606e+00
 2.4927817722e+00	 1.8983933434e-01	 1.8764684091e+00
 2.4910604332e+00	 2.1122902322e-01	 1.8717400982e+00
 2.4031452201e+00	 2.0377426846e-01	 2.0056965298e+00
 2.4013011794e+00	 2.2446249046e-01	 1.9845607755e+00
 2.3992724614e+00	 2.4519848886e-01	 1.9631090957e+00
 2.3970576014e+00	 2.6598007245e-01	 1.9411528052e+00
 2.3946551640e+00	 2.8680501121e-01	 1.9184840307e+00
 2.3920637443e+00	 3.0767103664e-01	 1.8948757105e+00
 2.3892819685e+00	 3.2857584217e-01	 1.8700815656e+00
 2.3863084955e+00	 3.4951708351e-01	 1.8438360417e+00
 2.3831420173e+00	 3.7049237917e-01	 1.8158542174e+00
 2.3797812609e+00	 3.9149931087e-01	 1.7858316772e+00
 2.3762249887e+00	 4.1253542408e-01	 1.7534443461e+00
 2.4119365657e+00	 2.0451972904e-01	 1.9901273388e+00
 2.4100857791e+00	 2.2528363408e-01	 1.9697581917e+00
 2.4080496395e+00	 2.4609549028e-01	 1.9490885513e+00
 2.4058266769e+00	 2.6695309844e-01	 1.9279163573e+00
 2.4034154508e+00	 2.8785422038e-01	 1.9060208942e+00
 2.4008145510e+00	 3.0879657930e-01	 1.8831628231e+00
 2.3980225988e+00	 3.2977786017e-01	 1.8590841845e+00
 2.3950382479e+00	 3.5079571016e-01	 1.8335083685e+00
 2.3918601860e+00	 3.7184773904e-01	 1.8061400512e+00
 2.3884871350e+00	 3.9293151969e-01	 1.7766650928e+00
 2.3849178530e+00	 4.1404458862e-01	 1.7447503957e+00
 2.4207279040e+00	 2.0526518900e-01	 1.9751701159e+00
 2.4188703713e+00	 2.2610477700e-01	 1.9555637057e+00
 2.4168268101e+00	 2.4699249095e-01	 1.9355914199e+00
 2.4145957450e+00	 2.6792612361e-01	 1.9150577172e+00
 2.4121757302e+00	 2.8890342866e-01	 1.8937487164e+00
 2.4095653503e+00	 3.0992212099e-01	 1.8714322306e+00
 2.4067632215e+00	 3.3097987716e-01	 1.8478577698e+00
 2.4037679930e+00	 3.5207433572e-01	 1.8227565109e+00
 2.4005783472e+00	 3.7320309775e-01	 1.7958412292e+00
 2.3971930017e+00	 3.9436372730e-01	 1.7668061914e+00
 2.3936107099e+00	 4.1555375187e-01	 1.7353270052e+00
 2.4295192521e+00	 2.0601064979e-01	 1.9607749650e+00
 2.4276549735e+00	 2.2692592085e-01	 1.9419663624e+00
 2.4256039907e+00	 2.4788949262e-01	 1.9226399975e+00
 2.4233648231e+00	 2.6889914988e-01	 1.9026265146e+00
 2.4209360195e+00	 2.8995263813e-01	 1.8817383164e+00
 2.4183161594e+00	 3.1104766397e-01	 1.8597695711e+00
 2.4155038542e+00	 3.3218189550e-01	 1.8364961859e+00
 2.4124977479e+00	 3.5335296273e-01	 1.8116757445e+00
 2.4092965183e+00	 3.7455845801e-01	 1.7850474048e+00
 2.4058988783e+00	 3.9579593653e-01	 1.7563317539e+00
 2.4023035767e+00	 4.1706291683e-01	 1.7252306187e+00
 2.4383106277e+00	 2.0675611291e-01	 1.9468928898e+00
 2.4364396031e+00	 2.2774706725e-01	 1.9289555522e+00
 2.4343811987e+00	 2.4878649710e-01	 1.9102564535e+00
 2.4321339285e+00	 2.6987217919e-01	 1.8906718639e+00
 2.4296963361e+00	 2.9100185087e-01	 1.8700596958e+00
 2.4270669959e+00	 3.1217321045e-01	 1.8482594537e+00
 2.4242445142e+00	 3.3338391759e-01	 1.8250921490e+00
 2.4212275301e+00	 3.5463159372e-01	 1.8003601743e+00
 2.4180147166e+00	 3.7591382248e-01	 1.7738471367e+00
 2.4146047820e+00	 3.9722815022e-01	 1.7453176443e+00
 2.4109964706e+00	 4.1857208649e-01	 1.7145170459e+00
 2.4471020481e+00	 2.0750157984e-01	 1.9334757750e+00
 2.4452242775e+00	 2.2856821785e-01	 1.9165210033e+00
 2.4431584514e+00	 2.4968350615e-01	 1.8984628303e+00
 2.4409030786e+00	 2.7084521345e-01	 1.8792423707e+00
 2.4384566973e+00	 2.9205106896e-01	 1.8587820510e+00
 2.4358178770e+00	 3.1329876267e-01	 1.8369854742e+00
 2.4329852187e+00	 3.3458594582e-01	 1.8137372450e+00
 2.4299573567e+00	 3.5591023124e-01	 1.7889027520e+00
 2.4267329594e+00	 3.7726919388e-01	 1.7623279047e+00
 2.4233107301e+00	 3.9866037122e-01	 1.7338388220e+00
 2.4196894088e+00	 4.2008126385e-01	 1.7032414688e+00
 2.4558935309e+00	 2.0824705204e-01	 1.9204763696e+00
 2.4540090141e+00	 2.2938937426e-01	 1.9046527734e+00
 2.4519357663e+00	 2.5058052155e-01	 1.8872810438e+00
 2.4496722908e+00	 2.7181825461e-01	 1.8683861384e+00
 2.4472171207e+00	 2.9310029448e-01	 1.8479737849e+00
 2.4445688201e+00	 3.1442432287e-01	 1.8260302301e+00
 2.4417259852e+00	 3.3578798255e-01	 1.8025219467e+00
 2.4386872453e+00	 3.5718887781e-01	 1.7773952933e+00
 2.4354512639e+00	 3.7862457487e-01	 1.7505761252e+00
 2.4320167399e+00	 4.0009260236e-01	 1.7219693535e+00
 2.4283824086e+00	 4.2159045190e-01	 1.6914584485e+00
 2.4646850933e+00	 2.0899253100e-01	 1.9078482689e+00
 2.4627938304e+00	 2.3021053812e-01	 1.8933412420e+00
 2.4607131608e+00	 2.5147754509e-01	 1.8767328831e+00
 2.4584415825e+00	 2.7279130460e-01	 1.8581507752e+00
 2.4559776234e+00	 2.9414952952e-01	 1.8377025185e+00
 2.4533198425e+00	 3.1554989327e-01	 1.8154753355e+00
 2.4504668309e+00	 3.3699003019e-01	 1.7915356300e+00
 2.4474172129e+00	 3.5846753598e-01	 1.7659284947e+00
 2.4441696475e+00	 3.7997996815e-01	 1.7386771664e+00
 2.4407228286e+00	 4.0152484649e-01	 1.7097824246e+00
 2.4370754872e+00	 4.2309965364e-01	 1.6792219313e+00
 2.4734767528e+00	 2.0973801820e-01	 1.8955458983e+00
 2.4715787437e+00	 2.3103171105e-01	 1.8825771023e+00
 2.4694906523e+00	 2.5237457853e-01	 1.8668400108e+00
 2.4672109712e+00	 2.7376436533e-01	 1.8485834001e+00
 2.4647382230e+00	 2.9519877615e-01	 1.8280351019e+00
 2.4620709616e+00	 3.1667547611e-01	 1.8054014358e+00
 2.4592077732e+00	 3.3819209111e-01	 1.7808665903e+00
 2.4561472771e+00	 3.5974620828e-01	 1.7545919499e+00
 2.4528881274e+00	 3.8133537641e-01	 1.7267153631e+00
 2.4494290136e+00	 4.0295710645e-01	 1.6973503516e+00
 2.4457686619e+00	 4.2460887205e-01	 1.6665852554e+00
 2.4822685270e+00	 2.1048351511e-01	 1.8835244961e+00
 2.4803637715e+00	 2.3185289468e-01	 1.8723513543e+00
 2.4782682582e+00	 2.5327162367e-01	 1.8576239630e+00
 2.4759804741e+00	 2.7473743875e-01	 1.8397306492e+00
 2.4734989368e+00	 2.9624803646e-01	 1.8190376257e+00
 2.4708221948e+00	 3.1780107362e-01	 1.7958882218e+00
 2.4679488294e+00	 3.3939416770e-01	 1.7706020589e+00
 2.4648774550e+00	 3.6102489724e-01	 1.7434741656e+00
 2.4616067209e+00	 3.8269080233e-01	 1.7147740308e+00
 2.4581353120e+00	 4.0438938508e-01	 1.6847445923e+00
 2.4544619498e+00	 4.2611811014e-01	 1.6536011568e+00
 2.4910604332e+00	 2.1122902322e-01	 1.8717400982e+00
 2.4891489313e+00	 2.3267409065e-01	 1.8626552967e+00
 2.4870459959e+00	 2.5416868228e-01	 1.8491061491e+00
 2.4847501087e+00	 2.7571052678e-01	 1.8316386819e+00
 2.4822597821e+00	 2.9729731252e-01	 1.8107754312e+00
 2.4795735594e+00	 3.1892668803e-01	 1.7870144439e+00
 2.4766900169e+00	 3.4059626234e-01	 1.7608282179e+00
 2.4736077640e+00	 3.6230360541e-01	 1.7326625774e+00
 2.4703254454e+00	 3.8404624861e-01	 1.7029354805e+00
 2.4668417411e+00	 4.0582168521e-01	 1.6720357572e+00
 2.4631553684e+00	 4.2762737088e-01	 1.6403217752e+00
 2.3762249887e+00	 4.1253542408e-01	 1.7534443461e+00
 2.3724726541e+00	 4.3359464711e-01	 1.7183575204e+00
 2.3685225051e+00	 4.5467803390e-01	 1.6807517792e+00
 2.3643734159e+00	 4.7578303159e-01	 1.6410638882e+00
 2.3600243005e+00	 4.9690705358e-01	 1.5997103222e+00
 2.3554741136e+00	 5.1804748016e-01	 1.5570858373e+00
 2.3507218515e+00	 5.3920165923e-01	 1.5134563091e+00
 2.3457665534e+00	 5.6036690706e-01	 1.4683157266e+00
 2.3406073021e+00	 5.8154050900e-01	 1.4215994088e+00
 2.3352432252e+00	 6.0271972034e-01	 1.3730117914e+00
 2.3296734959e+00	 6.2390176713e-01	 1.3216059995e+00
 2.3849178530e+00	 4.1404458862e-01	 1.7447503957e+00
 2.3811517914e+00	 4.3518085189e-01	 1.7100102268e+00
 2.3771871917e+00	 4.5634136733e-01	 1.6725694664e+00
 2.3730229240e+00	 4.7752357273e-01	 1.6328492558e+00
 2.3686578984e+00	 4.9872487202e-01	 1.5912505609e+00
 2.3640910657e+00	 5.1994263591e-01	 1.5481527501e+00
 2.3593214186e+00	 5.4117420261e-01	 1.5039121002e+00
 2.3543479926e+00	 5.6241687855e-01	 1.4588602355e+00
 2.3491698675e+00	 5.8366793917e-01	 1.4129717839e+00
 2.3437861673e+00	 6.0492462972e-01	 1.3650531589e+00
 2.3381960624e+00	 6.2618416607e-01	 1.3141979673e+00
 2.3936107099e+00	 4.1555375187e-01	 1.7353270052e+00
 2.3898309212e+00	 4.3676705532e-01	 1.7009787108e+00
 2.3858518709e+00	 4.5800469934e-01	 1.6638233299e+00
 2.3816724248e+00	 4.7926411239e-01	 1.6242554143e+00
 2.3772914890e+00	 5.0054268891e-01	 1.5826495690e+00
 2.3727080104e+00	 5.2183779006e-01	 1.5393590500e+00
 2.3679209783e+00	 5.4314674432e-01	 1.4947142901e+00
 2.3629294246e+00	 5.6446684831e-01	 1.4490213538e+00
 2.3577324255e+00	 5.8579536754e-01	 1.4025603228e+00
 2.3523291022e+00	 6.0712953722e-01	 1.3550360423e+00
 2.3467186217e+00	 6.2846656308e-01	 1.3050297859e+00
 2.4023035767e+00	 4.1706291683e-01	 1.7252306187e+00
 2.3985100610e+00	 4.3835326056e-01	 1.6912964462e+00
 2.3945165599e+00	 4.5966803325e-01	 1.6545262864e+00
 2.3903219353e+00	 4.8100465402e-01	 1.6152772607e+00
 2.3859250893e+00	 5.0236050787e-01	 1.5738868839e+00
 2.3813249650e+00	 5.2373294635e-01	 1.5306716986e+00
 2.3765205478e+00	 5.4511928825e-01	 1.4859258368e+00
 2.3715108663e+00	 5.6651682039e-01	 1.4399195073e+00
 2.3662949932e+00	 5.8792279832e-01	 1.3928974130e+00
 2.3608720467e+00	 6.0933444722e-01	 1.3444420527e+00
 2.3552411907e+00	 6.3074896268e-01	 1.2941839970e+00
 2.4109964706e+00	 4.1857208649e-01	 1.7145170459e+00
 2.4071892278e+00	 4.3993947073e-01	 1.6809965899e+00
 2.4031812759e+00	 4.6133137233e-01	 1.6446912154e+00
 2.3989714728e+00	 4.8274520107e-01	 1.6059098946e+00
 2.3945587165e+00	 5.0417833249e-01	 1.5649424448e+00
 2.3899419463e+00	 5.2562810855e-01	 1.5220582159e+00
 2.3851201440e+00	 5.4709183834e-01	 1.4775047030e+00
 2.3800923347e+00	 5.6856679885e-01	 1.4315060834e+00
 2.3748575877e+00	 5.9005023573e-01	 1.3842569213e+00
 2.3694150178e+00	 6.1153936410e-01	 1.3352133828e+00
 2.3637637862e+00	 6.3303136939e-01	 1.2841196857e+00
 2.4196894088e+00	 4.2008126385e-01	 1.7032414688e+00
 2.4158684388e+00	 4.4152568900e-01	 1.6701119824e+00
 2.4118460362e+00	 4.6299471990e-01	 1.6343309539e+00
 2.4076210544e+00	 4.8448575701e-01	 1.5961486085e+00
 2.4031923878e+00	 5.0599616639e-01	 1.5557965791e+00
 2.3985589717e+00	 5.2752328041e-01	 1.5134866632e+00
 2.3937197842e+00	 5.4906439849e-01	 1.4694095023e+00
 2.3886738469e+00	 5.7061678778e-01	 1.4237331857e+00
 2.3834202258e+00	 5.9217768399e-01	 1.3765809557e+00
 2.3779580325e+00	 6.1374429222e-01	 1.3273077589e+00
 2.3722864252e+00	 6.3531378774e-01	 1.2757352330e+00
 2.4283824086e+00	 4.2159045190e-01	 1.6914584485e+00
 2.4245477113e+00	 4.4311191851e-01	 1.6586751482e+00
 2.4205108578e+00	 4.6465807926e-01	 1.6234582918e+00
 2.4162706973e+00	 4.8622632527e-01	 1.5859888784e+00
 2.4118261202e+00	 5.0781401316e-01	 1.5464299887e+00
 2.4071760580e+00	 5.2941846571e-01	 1.5049256261e+00
 2.4023194852e+00	 5.5103697261e-01	 1.4615994801e+00
 2.3972554198e+00	 5.7266679123e-01	 1.4165536118e+00
 2.3919829245e+00	 5.9430514733e-01	 1.3698207543e+00
 2.3865011078e+00	 6.1594923596e-01	 1.3206752734e+00
 2.3808091246e+00	 6.3759622226e-01	 1.2689827185e+00
 2.4370754872e+00	 4.2309965364e-01	 1.6792219313e+00
 2.4332270626e+00	 4.4469816239e-01	 1.6467182966e+00
 2.4291757579e+00	 4.6632145369e-01	 1.6120859670e+00
 2.4249204187e+00	 4.8796690932e-01	 1.5754263544e+00
 2.4204599309e+00	 5.0963187641e-01	 1.5368237363e+00
 2.4157932225e+00	 5.3131366818e-01	 1.4963441977e+00
 2.4109192643e+00	 5.5300956462e-01	 1.4540344938e+00
 2.4058370706e+00	 5.7471681326e-01	 1.4099208332e+00
 2.4005457009e+00	 5.9643262995e-01	 1.3639281627e+00
 2.3950442605e+00	 6.1815419969e-01	 1.3152664964e+00
 2.3893319012e+00	 6.3987867747e-01	 1.2638146411e+00
 2.4457686619e+00	 4.2460887205e-01	 1.6665852554e+00
 2.4419065097e+00	 4.4628442381e-01	 1.6342733222e+00
 2.4378407539e+00	 4.6798484651e-01	 1.6002266609e+00
 2.4335702356e+00	 4.8970751260e-01	 1.5644568513e+00
 2.4290938370e+00	 5.1144975975e-01	 1.5269592326e+00
 2.4244104823e+00	 5.3320889160e-01	 1.4877119624e+00
 2.4195191383e+00	 5.5498217842e-01	 1.4466749941e+00
 2.4144188162e+00	 5.7676685794e-01	 1.4037889740e+00
 2.4091085720e+00	 5.9856013608e-01	 1.3588555028e+00
 2.4035875076e+00	 6.2035918778e-01	 1.3110324619e+00
 2.3978547720e+00	 6.4216115791e-01	 1.2601839069e+00
 2.4544619498e+00	 4.2611811014e-01	 1.6536011568e+00
 2.4505860700e+00	 4.4787070589e-01	 1.6213718050e+00
 2.4465058627e+00	 4.6964826100e-01	 1.5878929937e+00
 2.4422201652e+00	 4.9144813856e-01	 1.5530763397e+00
 2.4377278557e+00	 5.1326766678e-01	 1.5168182234e+00
 2.4330278543e+00	 5.3510413971e-01	 1.4789989798e+00
 2.4281191245e+00	 5.5695481794e-01	 1.4394820066e+00
 2.4230006737e+00	 5.7881692935e-01	 1.3981127910e+00
 2.4176715546e+00	 6.0068766994e-01	 1.3545555585e+00
 2.4121308660e+00	 6.2256420462e-01	 1.3079246541e+00
 2.4063777539e+00	 6.4444366809e-01	 1.2580438161e+00
 2.4631553684e+00	 4.2762737088e-01	 1.6403217752e+00
 2.4592657606e+00	 4.4945701180e-01	 1.6080450114e+00
 2.4551711017e+00	 4.7131170048e-01	 1.5750975198e+00
 2.4508702248e+00	 4.9318879066e-01	 1.5412809368e+00
 2.4463620040e+00	 5.1508560111e-01	 1.5063827766e+00
 2.4416453558e+00	 5.3699941629e-01	 1.4701757688e+00
 2.4367192398e+00	 5.5892748707e-01	 1.4324171136e+00
 2.4315826600e+00	 5.8086703153e-01	 1.3928476535e+00
 2.4262346658e+00	 6.0281523574e-01	 1.3509815619e+00
 2.4206743528e+00	 6.2476925456e-01	 1.3058949938e+00
 2.4149008638e+00	 6.4672621255e-01	 1.2573480510e+00
 2.3296734959e+00	 6.2390176713e-01	 1.3216059995e+00
 2.3238973344e+00	 6.4508384729e-01	 1.2680301244e+00
 2.3179140106e+00	 6.6626313250e-01	 1.2128907217e+00
 2.3117228432e+00	 6.8743676824e-01	 1.1562520600e+00
 2.3053232003e+00	 7.0860187444e-01	 1.0981960532e+00
 2.2987145002e+00	 7.2975554654e-01	 1.0388260477e+00
 2.2918962120e+00	 7.5089485646e-01	 9.7827025876e-01
 2.2848678569e+00	 7.7201685366e-01	 9.1668480981e-01
 2.2776290086e+00	 7.9311856621e-01	 8.5425633512e-01
 2.2701792942e+00	 8.1419700195e-01	 7.9120410501e-01
 2.2625183949e+00	 8.3524914955e-01	 7.2778163638e-01
 2.3381960624e+00	 6.2618416607e-01	 1.3141979673e+00
 2.3323987702e+00	 6.4744373593e-01	 1.2610477239e+00
 2.3263935578e+00	 6.6870050062e-01	 1.2062017695e+00
 2.3201797415e+00	 6.8995159515e-01	 1.1497449825e+00
 2.3137566870e+00	 7.1119412895e-01	 1.0917808361e+00
 2.3071238104e+00	 7.3242518682e-01	 1.0324352926e+00
 2.3002805792e+00	 7.5364182997e-01	 9.7186033421e-01
 2.2932265125e+00	 7.7484109706e-01	 9.1023708522e-01
 2.2859611825e+00	 7.9602000531e-01	 8.4777848267e-01
 2.2784842151e+00	 8.1717555158e-01	 7.8473145503e-01
 2.2707952902e+00	 8.3830471354e-01	 7.2137857039e-01
 2.3467186217e+00	 6.2846656308e-01	 1.3050297859e+00
 2.3409001988e+00	 6.4980362257e-01	 1.2525932954e+00
 2.3348730978e+00	 6.7113786665e-01	 1.1983112915e+00
 2.3286366326e+00	 6.9246641992e-01	 1.1422868568e+00
 2.3221901665e+00	 7.1378638126e-01	 1.0846426673e+00
 2.3155331136e+00	 7.3509482484e-01	 1.0255249992e+00
 2.3086649392e+00	 7.5638880115e-01	 9.6510736110e-01
 2.3015851609e+00	 7.7766533807e-01	 9.0359370329e-01
 2.2942933494e+00	 7.9892144194e-01	 8.4122116222e-01
 2.2867891289e+00	 8.2015409868e-01	 7.7826229734e-01
 2.2790721784e+00	 8.4136027494e-01	 7.1502678139e-01
 2.3552411907e+00	 6.3074896268e-01	 1.2941839970e+00
 2.3494016370e+00	 6.5216351188e-01	 1.2426227127e+00
 2.3433526474e+00	 6.7357523546e-01	 1.1891832089e+00
 2.3370935332e+00	 6.9498124755e-01	 1.1338497849e+00
 2.3306236555e+00	 7.1637863651e-01	 1.0767619630e+00
 2.3239424262e+00	 7.3776446588e-01	 1.0180840338e+00
 2.3170493087e+00	 7.5913577544e-01	 9.5800879412e-01
 2.3099438189e+00	 7.8048958228e-01	 8.9676084994e-01
 2.3026255257e+00	 8.0182288185e-01	 8.3459943938e-01
 2.2950940522e+00	 8.2313264915e-01	 7.7182073280e-01
 2.2873490761e+00	 8.4441583981e-01	 7.0875956965e-01
 2.3637637862e+00	 6.3303136939e-01	 1.2841196857e+00
 2.3579031017e+00	 6.5452340855e-01	 1.2317180882e+00
 2.3518322235e+00	 6.7601261186e-01	 1.1787826650e+00
 2.3455504602e+00	 6.9749608302e-01	 1.1244069851e+00
 2.3390571709e+00	 7.1897089984e-01	 1.0681201437e+00
 2.3323517651e+00	 7.4043411524e-01	 1.0101021470e+00
 2.3254337044e+00	 7.6188275830e-01	 9.5056284488e-01
 2.3183025029e+00	 7.8331383529e-01	 8.8974533252e-01
 2.3109577280e+00	 8.0472433082e-01	 8.2792885753e-01
 2.3033990013e+00	 8.2611120891e-01	 7.6543118799e-01
 2.2956259995e+00	 8.4747141419e-01	 7.0261040041e-01
 2.3722864252e+00	 6.3531378774e-01	 1.2757352330e+00
 2.3664046098e+00	 6.5688331725e-01	 1.2225237915e+00
 2.3603118427e+00	 6.7845000069e-01	 1.1684598209e+00
 2.3540074304e+00	 7.0001093131e-01	 1.1139634166e+00
 2.3474907292e+00	 7.2156317639e-01	 1.0586996077e+00
 2.3407611469e+00	 7.4310377822e-01	 1.0015699480e+00
 2.3338181429e+00	 7.6462975516e-01	 9.4276845642e-01
 2.3266612295e+00	 7.8613810271e-01	 8.8255455503e-01
 2.3192899727e+00	 8.0762579458e-01	 8.2122541374e-01
 2.3117039928e+00	 8.2908978386e-01	 7.5911839174e-01
 2.3039029651e+00	 8.5052700417e-01	 6.9661288115e-01
 2.3808091246e+00	 6.3759622226e-01	 1.2689827185e+00
 2.3749061781e+00	 6.5924324268e-01	 1.2153035818e+00
 2.3687915221e+00	 6.8088740679e-01	 1.1603945943e+00
 2.3624644605e+00	 7.0252579742e-01	 1.1047150910e+00
 2.3559243474e+00	 7.2415547130e-01	 1.0487141350e+00
 2.3491705882e+00	 7.4577346011e-01	 9.9247887818e-01
 2.3422026407e+00	 7.6737677149e-01	 9.3462527813e-01
 2.3350200153e+00	 7.8896239013e-01	 8.7519649358e-01
 2.3276222765e+00	 8.1052727889e-01	 8.1450553478e-01
 2.3200090431e+00	 8.3206837992e-01	 7.5290735187e-01
 2.3121799894e+00	 8.5358261579e-01	 6.9080073902e-01
 2.3893319012e+00	 6.3987867747e-01	 1.2638146411e+00
 2.3834078235e+00	 6.6160318950e-01	 1.2100135892e+00
 2.3772712784e+00	 6.8332483499e-01	 1.1545761095e+00
 2.3709215672e+00	 7.0504068633e-01	 1.0979995865e+00
 2.3643580419e+00	 7.2674778972e-01	 1.0407716631e+00
 2.3575801058e+00	 7.4844316621e-01	 9.8337103684e-01
 2.3505872146e+00	 7.7012381272e-01	 9.2613364079e-01
 2.3433788770e+00	 7.9178670316e-01	 8.6767967204e-01
 2.3359546559e+00	 8.1342878952e-01	 8.0778605339e-01
 2.3283141687e+00	 8.3504700298e-01	 7.4682333201e-01
 2.3204570887e+00	 8.5663825511e-01	 6.8520779827e-01
 2.3978547720e+00	 6.4216115791e-01	 1.2601839069e+00
 2.3919095628e+00	 6.6396316239e-01	 1.2066102706e+00
 2.3857511283e+00	 6.8576229012e-01	 1.1509645098e+00
 2.3793787674e+00	 7.0755560303e-01	 1.0937808870e+00
 2.3727918297e+00	 7.2934013679e-01	 1.0355844599e+00
 2.3659897163e+00	 7.5111290181e-01	 9.7689182680e-01
 2.3589718811e+00	 7.7287088431e-01	 9.1821193040e-01
 2.3517378310e+00	 7.9461104741e-01	 8.6001313790e-01
 2.3442871273e+00	 8.1633033221e-01	 8.0108418471e-01
 2.3366193862e+00	 8.3802565895e-01	 7.4089182861e-01
 2.3287342795e+00	 8.5969392821e-01	 6.7986795790e-01
 2.4063777539e+00	 6.4444366809e-01	 1.2580438161e+00
 2.4004114129e+00	 6.6632316605e-01	 1.2050503982e+00
 2.3942310888e+00	 6.8819977702e-01	 1.1495201751e+00
 2.3878360779e+00	 7.1007055251e-01	 1.0920231324e+00
 2.3812257274e+00	 7.3193251764e-01	 1.0331205960e+00
 2.3743994365e+00	 7.5378267220e-01	 9.7336592559e-01
 2.3673566569e+00	 7.7561799170e-01	 9.1330527015e-01
 2.3600968939e+00	 7.9743542846e-01	 8.5347838540e-01
 2.3526197073e+00	 8.1923191271e-01	 7.9441750283e-01
 2.3449247118e+00	 8.4100435376e-01	 7.3513854804e-01
 2.3370115782e+00	 8.6274964113e-01	 6.7481516925e-01
 2.4149008638e+00	 6.4672621255e-01	 1.2573480510e+00
 2.4089133907e+00	 6.6868320514e-01	 1.2052910498e+00
 2.4027111766e+00	 6.9063730053e-01	 1.1502037122e+00
 2.3962935153e+00	 7.1258553976e-01	 1.0926906113e+00
 2.3896597517e+00	 7.3452493742e-01	 1.0333482108e+00
 2.3828092829e+00	 7.5645248269e-01	 9.7276551011e-01
 2.3757415586e+00	 7.7836514035e-01	 9.1152475137e-01
 2.3684560824e+00	 8.0025985193e-01	 8.5020219034e-01
 2.3609524125e+00	 8.2213353680e-01	 7.8936893489e-01
 2.3532301622e+00	 8.4398309329e-01	 7.2959185223e-01
 2.3452890012e+00	 8.6580539994e-01	 6.7008341384e-01
 2.2625183949e+00	 8.3524914955e-01	 7.2778163638e-01
 2.2546446902e+00	 8.5627555101e-01	 6.6390932456e-01
 2.2465592549e+00	 8.7726957648e-01	 5.9941813096e-01
 2.2382619351e+00	 8.9822816176e-01	 5.3444941513e-01
 2.2297526340e+00	 9.1914822827e-01	 4.6918142134e-01
 2.2210313121e+00	 9.4002668437e-01	 4.0382815519e-01
 2.2120979880e+00	 9.6086042659e-01	 3.3863758853e-01
 2.2029527390e+00	 9.8164634100e-01	 2.7388917952e-01
 2.1935957011e+00	 1.0023813045e+00	 2.0989069922e-01
 2.1840270702e+00	 1.0230621863e+00	 1.4697436121e-01
 2.1742471019e+00	 1.0436858490e+00	 8.5492255337e-02
 2.2707952902e+00	 8.3830471354e-01	 7.2137857039e-01
 2.2628927814e+00	 8.5940803518e-01	 6.5767775617e-01
 2.2547777674e+00	 8.8047886239e-01	 5.9345656516e-01
 2.2464500938e+00	 9.0151411976e-01	 5.2882650805e-01
 2.2379096633e+00	 9.2251071746e-01	 4.6393788657e-01
 2.2291564366e+00	 9.4346555251e-01	 3.9897871230e-01
 2.2201904320e+00	 9.6437551011e-01	 3.3417293438e-01
 2.2110117272e+00	 9.8523746494e-01	 2.6977796259e-01
 2.2016204588e+00	 1.0060482825e+00	 2.0608147684e-01
 2.1920168233e+00	 1.0268048204e+00	 1.4339751936e-01
 2.1822010773e+00	 1.0475039300e+00	 8.2061870417e-02
 2.2790721784e+00	 8.4136027494e-01	 7.1502678139e-01
 2.2711408655e+00	 8.6254051669e-01	 6.5151364571e-01
 2.2629962729e+00	 8.8368814558e-01	 5.8755490042e-01
 2.2546382455e+00	 9.0480007497e-01	 5.2323681764e-01
 2.2460666858e+00	 9.2587320378e-01	 4.5868641205e-01
 2.2372815541e+00	 9.4690441773e-01	 3.9407039540e-01
 2.2282828691e+00	 9.6789059065e-01	 3.2959342019e-01
 2.2190707086e+00	 9.8882858582e-01	 2.6549559829e-01
 2.2096452097e+00	 1.0097152573e+00	 2.0204928548e-01
 2.2000065696e+00	 1.0305474514e+00	 1.3955512761e-01
 2.1901550459e+00	 1.0513220077e+00	 7.8337369532e-02
 2.2873490761e+00	 8.4441583981e-01	 7.0875956965e-01
 2.2793889591e+00	 8.6567300176e-01	 6.4545920684e-01
 2.2712147877e+00	 8.8689743241e-01	 5.8176347923e-01
 2.2628264065e+00	 9.0808603391e-01	 5.1773797371e-01
 2.2542237175e+00	 9.2923569392e-01	 4.5349101811e-01
 2.2454066809e+00	 9.5034328684e-01	 3.8917266520e-01
 2.2363753154e+00	 9.7140567517e-01	 3.2497294529e-01
 2.2271296991e+00	 9.9241971078e-01	 2.6111937310e-01
 2.2176699697e+00	 1.0133822363e+00	 1.9787369939e-01
 2.2079963250e+00	 1.0342900865e+00	 1.3552790276e-01
 2.1981090235e+00	 1.0551400898e+00	 7.4399422766e-02
 2.2956259995e+00	 8.4747141419e-01	 7.0261040041e-01
 2.2876370783e+00	 8.6880549659e-01	 6.3955665523e-01
 2.2794333281e+00	 8.9010672924e-01	 5.7613248804e-01
 2.2710145930e+00	 9.1137200309e-01	 5.1238729767e-01
 2.2623807746e+00	 9.3259819454e-01	 4.4841527098e-01
 2.2535318330e+00	 9.5378216668e-01	 3.8435438993e-01
 2.2444677870e+00	 9.7492077064e-01	 3.2038468639e-01
 2.2351887148e+00	 9.9601084693e-01	 2.5672572985e-01
 2.2256947547e+00	 1.0170492267e+00	 1.9363333823e-01
 2.2159861053e+00	 1.0380327334e+00	 1.3139550696e-01
 2.2060630259e+00	 1.0589581837e+00	 7.0327557388e-02
 2.3039029651e+00	 8.5052700417e-01	 6.9661288115e-01
 2.2958852396e+00	 8.7193800740e-01	 6.3384818648e-01
 2.2876519105e+00	 8.9331604244e-01	 5.7071193565e-01
 2.2792028213e+00	 9.1465798904e-01	 5.0724178121e-01
 2.2705378734e+00	 9.3596071231e-01	 4.4352226134e-01
 2.2616570266e+00	 9.5722106406e-01	 3.7968382364e-01
 2.2525602997e+00	 9.7843588405e-01	 3.1590107537e-01
 2.2432477715e+00	 9.9960200140e-01	 2.5239024475e-01
 2.2337195806e+00	 1.0207162359e+00	 1.8940584299e-01
 2.2239759263e+00	 1.0417753994e+00	 1.2723652234e-01
 2.2140170689e+00	 1.0627762972e+00	 6.6200130835e-02
 2.3121799894e+00	 8.5358261579e-01	 6.9080073902e-01
 2.3041334593e+00	 8.7507054039e-01	 6.2837595415e-01
 2.2958705511e+00	 8.9652537837e-01	 5.6555163158e-01
 2.2873911076e+00	 9.1794399826e-01	 5.0235806483e-01
 2.2786950299e+00	 9.3932325391e-01	 4.3887458286e-01
 2.2697822777e+00	 9.6065998580e-01	 3.7522858444e-01
 2.2606528699e+00	 9.8195102236e-01	 3.1159377704e-01
 2.2513068854e+00	 1.0031931813e+00	 2.4818760438e-01
 2.2417444634e+00	 1.0243832710e+00	 1.8526785193e-01
 2.2319658039e+00	 1.0455180918e+00	 1.2312842552e-01
 2.2219711682e+00	 1.0665944377e+00	 6.2094303558e-02
 2.3204570887e+00	 8.5663825511e-01	 6.8520779827e-01
 2.3123817538e+00	 8.7820310180e-01	 6.2318204776e-01
 2.3040892662e+00	 8.9973474341e-01	 5.6070116451e-01
 2.2955794682e+00	 9.2123003728e-01	 4.9779241643e-01
 2.2868522604e+00	 9.4268582599e-01	 4.3453431073e-01
 2.2779076024e+00	 9.6409893872e-01	 3.7105563274e-01
 2.2687455134e+00	 9.8546619255e-01	 3.0753366673e-01
 2.2593660723e+00	 1.0067843938e+00	 2.4419158244e-01
 2.2497694189e+00	 1.0280503394e+00	 1.8129497625e-01
 2.2399557540e+00	 1.0492608182e+00	 1.1914756198e-01
 2.2299253397e+00	 1.0704126128e+00	 5.8086011722e-02
 2.3287342795e+00	 8.5969392821e-01	 6.7986795790e-01
 2.3206301395e+00	 8.8133569782e-01	 6.1830847093e-01
 2.3123080721e+00	 9.0294414392e-01	 5.5620988071e-01
 2.3037679192e+00	 9.2451611261e-01	 4.9360070985e-01
 2.2950095810e+00	 9.4604843524e-01	 4.3056298008e-01
 2.2860330170e+00	 9.6753792965e-01	 3.6723124932e-01
 2.2768382463e+00	 9.8898140158e-01	 3.0379080785e-01
 2.2674253482e+00	 1.0103756459e+00	 2.4047501647e-01
 2.2577944631e+00	 1.0317174483e+00	 1.7756177569e-01
 2.2479457923e+00	 1.0530035860e+00	 1.1536912024e-01
 2.2378795990e+00	 1.0742308301e+00	 5.4249939754e-02
 2.3370115782e+00	 8.6274964113e-01	 6.7481516925e-01
 2.3288786326e+00	 8.8446833467e-01	 6.1379711950e-01
 2.3205269851e+00	 9.0615358625e-01	 5.5212686243e-01
 2.3119564770e+00	 9.2780223078e-01	 4.8983840338e-01
 2.3031670080e+00	 9.4941108831e-01	 4.2702156433e-01
 2.2941585375e+00	 9.7097696541e-01	 3.6382101336e-01
 2.2849310847e+00	 9.9249665643e-01	 3.0043442928e-01
 2.2754847292e+00	 1.0139669449e+00	 2.3710978445e-01
 2.2658196119e+00	 1.0353846049e+00	 1.7414173401e-01
 2.2559359348e+00	 1.0567464026e+00	 1.1186710597e-01
 2.2458339620e+00	 1.0780490972e+00	 5.0659492758e-02
 2.3452890012e+00	 8.6580539994e-01	 6.7008341384e-01
 2.3371272496e+00	 8.8760101857e-01	 6.0968975977e-01
 2.3287460216e+00	 9.0936307679e-01	 5.4850090641e-01
 2.3201451577e+00	 9.3108839829e-01	 4.8656051823e-01
 2.3113245574e+00	 9.5277379189e-01	 4.2397045358e-01
 2.3022841800e+00	 9.7441605281e-01	 3.6088978035e-01
 2.2930240446e+00	 9.9601196407e-01	 2.9753290271e-01
 2.2835442313e+00	 1.0175582978e+00	 2.3416678117e-01
 2.2738448812e+00	 1.0390518167e+00	 1.7110723428e-01
 2.2639261973e+00	 1.0604892753e+00	 1.0871431591e-01
 2.2537884445e+00	 1.0818674217e+00	 4.7386768776e-02
 2.1742471019e+00	 1.0436858490e+00	 8.5492255337e-02
 2.1642578281e+00	 1.0642456601e+00	 2.5566332533e-02
 2.1540579796e+00	 1.0847419850e+00	-3.3110177402e-02
 2.1436479923e+00	 1.1051716761e+00	-9.0782908532e-02
 2.1330283633e+00	 1.1255315851e+00	-1.4769918758e-01
 2.1221996512e+00	 1.1458185643e+00	-2.0411500197e-01
 2.1111624763e+00	 1.1660294682e+00	-2.6030254114e-01
 2.0999175207e+00	 1.1861611550e+00	-3.1634171597e-01
 2.0884655282e+00	 1.2062104879e+00	-3.7123759454e-01
 2.0768073048e+00	 1.2261743371e+00	-4.2530510044e-01
 2.0649437185e+00	 1.2460495804e+00	-4.7912838492e-01
 2.1822010773e+00	 1.0475039300e+00	 8.2061870417e-02
 2.1721752601e+00	 1.0681389543e+00	 2.2213741791e-02
 2.1619380978e+00	 1.0887102603e+00	-3.6413435826e-02
 2.1514900279e+00	 1.1092146886e+00	-9.4045245897e-02
 2.1408315495e+00	 1.1296490796e+00	-1.5090825067e-01
 2.1299632231e+00	 1.1500102740e+00	-2.0723716409e-01
 2.1188856713e+00	 1.1702951147e+00	-2.6328261600e-01
 2.1075995786e+00	 1.1905004486e+00	-3.1888913984e-01
 2.0961056917e+00	 1.2106231274e+00	-3.7319921731e-01
 2.0844048195e+00	 1.2306600096e+00	-4.2668321972e-01
 2.0724978330e+00	 1.2506079619e+00	-4.7990474989e-01
 2.1901550459e+00	 1.0513220077e+00	 7.8337369532e-02
 2.1800926853e+00	 1.0720322453e+00	 1.8552321718e-02
 2.1698182093e+00	 1.0926785322e+00	-4.0030659967e-02
 2.1593320570e+00	 1.1132576977e+00	-9.7618470403e-02
 2.1486347291e+00	 1.1337665706e+00	-1.5441823040e-01
 2.1377267885e+00	 1.1542019801e+00	-2.1064466650e-01
 2.1266088598e+00	 1.1745607577e+00	-2.6652810045e-01
 2.1152816300e+00	 1.1948397385e+00	-3.2162683426e-01
 2.1037458487e+00	 1.2150357631e+00	-3.7537318548e-01
 2.0920023276e+00	 1.2351456783e+00	-4.2829798028e-01
 2.0800519410e+00	 1.2551663394e+00	-4.8094579051e-01
 2.1981090235e+00	 1.0551400898e+00	 7.4399422766e-02
 2.1880101195e+00	 1.0759255406e+00	 1.4662002075e-02
 2.1776983297e+00	 1.0966468086e+00	-4.3882811155e-02
 2.1671740948e+00	 1.1173007114e+00	-1.0142455560e-01
 2.1564379176e+00	 1.1378840663e+00	-1.5815220263e-01
 2.1454903626e+00	 1.1583936909e+00	-2.1426174513e-01
 2.1343320569e+00	 1.1788264054e+00	-2.6995341168e-01
 2.1229636902e+00	 1.1991790334e+00	-3.2449575828e-01
 2.1113860144e+00	 1.2194484037e+00	-3.7770231926e-01
 2.0995998444e+00	 1.2396313521e+00	-4.3009394933e-01
 2.0876060576e+00	 1.2597247222e+00	-4.8219769175e-01
 2.2060630259e+00	 1.0589581837e+00	 7.0327557388e-02
 2.1959275783e+00	 1.0798188481e+00	 1.0621486734e-02
 2.1855784746e+00	 1.1006150974e+00	-4.7892162006e-02
 2.1750161572e+00	 1.1213437377e+00	-1.0538687398e-01
 2.1642411303e+00	 1.1420015748e+00	-1.6203473203e-01
 2.1532539609e+00	 1.1625854149e+00	-2.1801421670e-01
 2.1420552782e+00	 1.1830920665e+00	-2.7343555579e-01
 2.1306457742e+00	 1.2035183418e+00	-3.2743860294e-01
 2.1190262039e+00	 1.2238610582e+00	-3.8013114519e-01
 2.1071973849e+00	 1.2441170398e+00	-4.3201737634e-01
 2.0951601978e+00	 1.2642831191e+00	-4.8360829860e-01
 2.2140170689e+00	 1.0627762972e+00	 6.6200130835e-02
 2.2038450776e+00	 1.0837121755e+00	 6.5082248289e-03
 2.1934586598e+00	 1.1045834064e+00	-5.1982327141e-02
 2.1828582595e+00	 1.1253867846e+00	-1.0943022962e-01
 2.1720443829e+00	 1.1461191043e+00	-1.6599190664e-01
 2.1610175988e+00	 1.1667771602e+00	-2.2182951516e-01
 2.1497785389e+00	 1.1873577493e+00	-2.7690884315e-01
 2.1383278975e+00	 1.2078576723e+00	-3.3039976008e-01
 2.1266664324e+00	 1.2282737351e+00	-3.8260586467e-01
 2.1147949641e+00	 1.2486027505e+00	-4.3401616118e-01
 2.1027143765e+00	 1.2688415393e+00	-4.8512708383e-01
 2.2219711682e+00	 1.0665944377e+00	 6.2094303558e-02
 2.2117626329e+00	 1.0876055305e+00	 2.3983817731e-03
 2.2013389008e+00	 1.1085517435e+00	-5.6078294032e-02
 2.1907004174e+00	 1.1294298602e+00	-1.1348089089e-01
 2.1798476908e+00	 1.1502366630e+00	-1.6995137247e-01
 2.1687812918e+00	 1.1709689352e+00	-2.2563672833e-01
 2.1575018542e+00	 1.1916234624e+00	-2.8031745659e-01
 2.1460100752e+00	 1.2121970336e+00	-3.3332529133e-01
 2.1343067149e+00	 1.2326864433e+00	-3.8507432259e-01
 2.1223925971e+00	 1.2530884929e+00	-4.3603982241e-01
 2.1102686087e+00	 1.2733999918e+00	-4.8670511594e-01
 2.2299253397e+00	 1.0704126128e+00	 5.8086011722e-02
 2.2196802600e+00	 1.0914989207e+00	-1.6331898748e-03
 2.2092192132e+00	 1.1125201166e+00	-6.0106454003e-02
 2.1985426464e+00	 1.1334729724e+00	-1.1746662337e-01
 2.1876510694e+00	 1.1543542590e+00	-1.7384236837e-01
 2.1765450551e+00	 1.1751607482e+00	-2.2936663457e-01
 2.1652252396e+00	 1.1958892141e+00	-2.8360724568e-01
 2.1536923225e+00	 1.2165364342e+00	-3.3616289721e-01
 2.1419470668e+00	 1.2370991916e+00	-3.8748597609e-01
 2.1299902990e+00	 1.2575742760e+00	-4.3803946568e-01
 2.1178229093e+00	 1.2779584857e+00	-4.8829502717e-01
 2.2378795990e+00	 1.0742308301e+00	 5.4249939754e-02
 2.2275979746e+00	 1.0953923540e+00	-5.5129796847e-03
 2.2170996128e+00	 1.1164885336e+00	-6.3994633364e-02
 2.2063849620e+00	 1.1375161293e+00	-1.2131672286e-01
 2.1954545342e+00	 1.1584719005e+00	-1.7759576092e-01
 2.1843089042e+00	 1.1793526076e+00	-2.3293939921e-01
 2.1729487103e+00	 1.2001550129e+00	-2.8672569628e-01
 2.1613746547e+00	 1.2208758827e+00	-3.3886188639e-01
 2.1495875031e+00	 1.2415119885e+00	-3.8979186339e-01
 2.1375880849e+00	 1.2620601087e+00	-4.3996775222e-01
 2.1253772935e+00	 1.2825170299e+00	-4.8985098168e-01
 2.2458339620e+00	 1.0780490972e+00	 5.0659492758e-02
 2.2355157924e+00	 1.0992858380e+00	-9.1688487741e-03
 2.2249801150e+00	 1.1204570023e+00	-6.7672124697e-02
 2.2142273799e+00	 1.1415593388e+00	-1.2496204859e-01
 2.2032581007e+00	 1.1625895957e+00	-1.8114407957e-01
 2.1920728544e+00	 1.1835445216e+00	-2.3625699011e-01
 2.1806722817e+00	 1.2044208674e+00	-2.8962190027e-01
 2.1690570871e+00	 1.2252153879e+00	-3.4137314499e-01
 2.1572280389e+00	 1.2459248430e+00	-3.9194457283e-01
 2.1451859698e+00	 1.2665459998e+00	-4.4177886749e-01
 2.1329317761e+00	 1.2870756335e+00	-4.9132864371e-01
 2.2537884445e+00	 1.0818674217e+00	 4.7386768776e-02
 2.2434337292e+00	 1.1031793805e+00	-1.2530059369e-02
 2.2328607355e+00	 1.1244255306e+00	-7.1069718277e-02
 2.2220699155e+00	 1.1456026092e+00	-1.2833505646e-01
 2.2110617844e+00	 1.1667073527e+00	-1.8442155181e-01
 2.1998369213e+00	 1.1877364985e+00	-2.3926526599e-01
 2.1883959691e+00	 1.2086867859e+00	-2.9224652541e-01
 2.1767396348e+00	 1.2295549582e+00	-3.4364910605e-01
 2.1648686895e+00	 1.2503377638e+00	-3.9389821192e-01
 2.1527839688e+00	 1.2710319583e+00	-4.4342848983e-01
 2.1404863722e+00	 1.2916343056e+00	-4.9268514602e-01
 2.0649437185e+00	 1.2460495804e+00	-4.7912838492e-01
 2.0528756997e+00	 1.2658331062e+00	-5.3302511512e-01
 2.0406042425e+00	 1.2855218152e+00	-5.8670189121e-01
 2.0281304037e+00	 1.3051126218e+00	-6.3983811029e-01
 2.0154553015e+00	 1.3246024542e+00	-6.9212580279e-01
 2.0025801153e+00	 1.3439882566e+00	-7.4327199926e-01
 1.9895060861e+00	 1.3632669907e+00	-7.9300115493e-01
 1.9762345155e+00	 1.3824356367e+00	-8.4105762758e-01
 1.9627667656e+00	 1.4014911956e+00	-8.8720820382e-01
 1.9491042590e+00	 1.4204306899e+00	-9.3124466792e-01
 1.9352484777e+00	 1.4392511656e+00	-9.7298640683e-01
 2.0724978330e+00	 1.2506079619e+00	-4.7990474989e-01
 2.0603856661e+00	 1.2704638610e+00	-5.3319520543e-01
 2.0480693167e+00	 1.2902245966e+00	-5.8629637939e-01
 2.0355498453e+00	 1.3098870716e+00	-6.3889976013e-01
 2.0228283741e+00	 1.3294482030e+00	-6.9070941785e-01
 2.0099060871e+00	 1.3489049238e+00	-7.4144437719e-01
 1.9967842296e+00	 1.3682541846e+00	-7.9084104984e-01
 1.9834641080e+00	 1.3874929547e+00	-8.3865572263e-01
 1.9699470896e+00	 1.4066182239e+00	-8.8466709648e-01
 1.9562346018e+00	 1.4256270039e+00	-9.2867887025e-01
 1.9423281324e+00	 1.4445163299e+00	-9.7052236322e-01
 2.0800519410e+00	 1.2551663394e+00	-4.8094579051e-01
 2.0678956261e+00	 1.2750946119e+00	-5.3365849272e-01
 2.0555343845e+00	 1.2949273741e+00	-5.8620812385e-01
 2.0429692805e+00	 1.3146615173e+00	-6.3829726028e-01
 2.0302014405e+00	 1.3342939476e+00	-6.8964104357e-01
 2.0172320527e+00	 1.3538215869e+00	-7.3996956025e-01
 2.0040623669e+00	 1.3732413744e+00	-7.8903028360e-01
 1.9906936944e+00	 1.3925502684e+00	-8.3659057342e-01
 1.9771274074e+00	 1.4117452479e+00	-8.8244022887e-01
 1.9633649386e+00	 1.4308233135e+00	-9.2639408874e-01
 1.9494077810e+00	 1.4497814898e+00	-9.6829467281e-01
 2.0876060576e+00	 1.2597247222e+00	-4.8219769175e-01
 2.0754055947e+00	 1.2797253681e+00	-5.3436288669e-01
 2.0629994608e+00	 1.2996301568e+00	-5.8638712075e-01
 2.0503887242e+00	 1.3194359685e+00	-6.3798306744e-01
 2.0375745152e+00	 1.3391396978e+00	-6.8887598326e-01
 2.0245580265e+00	 1.3587382555e+00	-7.3880609577e-01
 2.0113405125e+00	 1.3782285698e+00	-7.8753105599e-01
 1.9979232890e+00	 1.3976075879e+00	-8.3482845104e-01
 1.9843077334e+00	 1.4168722776e+00	-8.8049837219e-01
 1.9704952835e+00	 1.4360196290e+00	-9.2436603288e-01
 1.9564874378e+00	 1.4550466556e+00	-9.6628443032e-01
 2.0951601978e+00	 1.2642831191e+00	-4.8360829860e-01
 2.0829155867e+00	 1.2843561387e+00	-5.3525793332e-01
 2.0704645604e+00	 1.3043329542e+00	-5.8678497386e-01
 2.0578081910e+00	 1.3242104345e+00	-6.3791121222e-01
 2.0449476129e+00	 1.3439854631e+00	-6.8837107520e-01
 2.0318840232e+00	 1.3636549395e+00	-7.3791402203e-01
 2.0186186807e+00	 1.3832157807e+00	-7.8630700851e-01
 2.0051529062e+00	 1.4026649231e+00	-8.3333701380e-01
 1.9914880817e+00	 1.4219993234e+00	-8.7881362500e-01
 1.9776256506e+00	 1.4412159607e+00	-9.2257167421e-01
 1.9635671165e+00	 1.4603118379e+00	-9.6447392171e-01
 2.1027143765e+00	 1.2688415393e+00	-4.8512708383e-01
 2.0904256169e+00	 1.2889869330e+00	-5.3629478241e-01
 2.0779296980e+00	 1.3090357756e+00	-5.8735486186e-01
 2.0652276956e+00	 1.3289849249e+00	-6.3803726630e-01
 2.0523207483e+00	 1.3488312531e+00	-6.8808466004e-01
 2.0392100573e+00	 1.3685716485e+00	-7.3725483587e-01
 2.0258968861e+00	 1.3882030171e+00	-7.8532319228e-01
 2.0123825602e+00	 1.4077222841e+00	-8.3208527554e-01
 1.9986684667e+00	 1.4271263953e+00	-8.7735938212e-01
 1.9847560540e+00	 1.4464123189e+00	-9.2098921603e-01
 1.9706468314e+00	 1.4655770470e+00	-9.6284659488e-01
 2.1102686087e+00	 1.2733999918e+00	-4.8670511594e-01
 2.0979357004e+00	 1.2936177600e+00	-5.3742615518e-01
 2.0853948885e+00	 1.3137386303e+00	-5.8805150580e-01
 2.0726472528e+00	 1.3337594491e+00	-6.3831830988e-01
 2.0596939358e+00	 1.3536770774e+00	-6.8797654815e-01
 2.0465361432e+00	 1.3734883924e+00	-7.3679146022e-01
 2.0331751430e+00	 1.3931902888e+00	-7.8454603595e-01
 2.0196122654e+00	 1.4127796809e+00	-8.3104357408e-01
 2.0058489026e+00	 1.4322535035e+00	-8.7611030368e-01
 1.9918865080e+00	 1.4516087140e+00	-9.1959806312e-01
 1.9777265965e+00	 1.4708422934e+00	-9.6138703025e-01
 2.1178229093e+00	 1.2779584857e+00	-4.8829502717e-01
 2.1054458520e+00	 1.2982486290e+00	-5.3860631196e-01
 2.0928601467e+00	 1.3184415276e+00	-5.8883113659e-01
 2.0800668772e+00	 1.3385340166e+00	-6.3871289906e-01
 2.0670671902e+00	 1.3585229457e+00	-6.8800798718e-01
 2.0538622956e+00	 1.3784051808e+00	-7.3648821185e-01
 2.0404534659e+00	 1.3981776057e+00	-7.8394331372e-01
 2.0268420362e+00	 1.4178371236e+00	-8.3018353958e-01
 2.0130294035e+00	 1.4373806582e+00	-8.7504228409e-01
 1.9990170267e+00	 1.4568051561e+00	-9.1837879149e-01
 1.9848064257e+00	 1.4761075875e+00	-9.6008091132e-01
 2.1253772935e+00	 1.2825170299e+00	-4.8985098168e-01
 2.1129560865e+00	 1.3028795492e+00	-5.3979102005e-01
 2.1003254874e+00	 1.3231444770e+00	-5.8965146263e-01
 2.0874865836e+00	 1.3433086369e+00	-6.3918103341e-01
 2.0744405261e+00	 1.3633688675e+00	-6.8814162958e-01
 2.0611885290e+00	 1.3833220236e+00	-7.3631076901e-01
 2.0477318693e+00	 1.4031649778e+00	-7.8348411328e-01
 2.0340718869e+00	 1.4228946221e+00	-8.2947806302e-01
 2.0202099838e+00	 1.4425078696e+00	-8.7413242101e-01
 2.0061476241e+00	 1.4620016556e+00	-9.1731311804e-01
 1.9918863332e+00	 1.4813729399e+00	-9.5891499522e-01
 2.1329317761e+00	 1.2870756335e+00	-4.9132864371e-01
 2.1204664190e+00	 1.3075105298e+00	-5.4093752162e-01
 2.1077909254e+00	 1.3278474876e+00	-5.9047163753e-01
 2.0949063868e+00	 1.3480833194e+00	-6.3968412355e-01
 2.0818139581e+00	 1.3682148525e+00	-6.8834150027e-01
 2.0685148578e+00	 1.3882389304e+00	-7.3622613928e-01
 2.0550103675e+00	 1.4081524148e+00	-7.8313880394e-01
 2.0413018318e+00	 1.4279521866e+00	-8.2890126461e-01
 2.0273906577e+00	 1.4476351478e+00	-8.7335898439e-01
 2.0132783144e+00	 1.4671982229e+00	-9.1638387022e-01
 1.9989663329e+00	 1.4866383608e+00	-9.5787708317e-01
 2.1404863722e+00	 1.2916343056e+00	-4.9268514602e-01
 2.1279768642e+00	 1.3121415799e+00	-5.4200450169e-01
 2.1152564755e+00	 1.3325505688e+00	-5.9125222785e-01
 2.1023263013e+00	 1.3528580736e+00	-6.4018495889e-01
 2.0891875008e+00	 1.3730609102e+00	-6.8857296429e-01
 2.0758412966e+00	 1.3931559111e+00	-7.3620262739e-01
 2.0622889750e+00	 1.4131399268e+00	-7.8287900470e-01
 2.0485318853e+00	 1.4330098270e+00	-8.2842846231e-01
 2.0345714394e+00	 1.4527625030e+00	-8.7270138541e-01
 2.0204091119e+00	 1.4723948682e+00	-9.1557495568e-01
 2.0060464390e+00	 1.4919038608e+00	-9.5695599088e-01
 1.9352484777e+00	 1.4392511656e+00	-9.7298640683e-01
 1.9211985599e+00	 1.4579528601e+00	-1.0129982744e+00
 1.9069584527e+00	 1.4765296504e+00	-1.0519180119e+00
 1.8925298230e+00	 1.4949786493e+00	-1.0897311633e+00
 1.8779143959e+00	 1.5132969987e+00	-1.1264437500e+00
 1.8631139533e+00	 1.5314818712e+00	-1.1620847647e+00
 1.8481303335e+00	 1.5495304716e+00	-1.1967086728e+00
 1.8329654303e+00	 1.5674400381e+00	-1.2303979062e+00
 1.8176211925e+00	 1.5852078436e+00	-1.2632653414e+00
 1.8020996229e+00	 1.6028311975e+00	-1.2954567472e+00
 1.7864027773e+00	 1.6203074465e+00	-1.3271531888e+00
 1.9423281324e+00	 1.4445163299e+00	-9.7052236322e-01
 1.9282268163e+00	 1.4632864402e+00	-1.0106856448e+00
 1.9139346149e+00	 1.4819311894e+00	-1.0496989229e+00
 1.8994532015e+00	 1.5004476796e+00	-1.0875143969e+00
 1.8847843073e+00	 1.5188330424e+00	-1.1241058017e+00
 1.8699297207e+00	 1.5370844401e+00	-1.1594709992e+00
 1.8548912868e+00	 1.5551990671e+00	-1.1936345774e+00
 1.8396709063e+00	 1.5731741515e+00	-1.2266504448e+00
 1.8242705352e+00	 1.5910069564e+00	-1.2586044079e+00
 1.8086921836e+00	 1.6086947811e+00	-1.2896167195e+00
 1.7929379148e+00	 1.6262349630e+00	-1.3198445840e+00
 1.9494077810e+00	 1.4497814898e+00	-9.6829467281e-01
 1.9352550667e+00	 1.4686200158e+00	-1.0085576250e+00
 1.9209107712e+00	 1.4873327238e+00	-1.0476132464e+00
 1.9063765741e+00	 1.5059167053e+00	-1.0853845128e+00
 1.8916542128e+00	 1.5243690814e+00	-1.1218169118e+00
 1.8767454823e+00	 1.5426870042e+00	-1.1568811275e+00
 1.8616522344e+00	 1.5608676577e+00	-1.1905757323e+00
 1.8463763767e+00	 1.5789082600e+00	-1.2229298759e+00
 1.8309198723e+00	 1.5968060642e+00	-1.2540059585e+00
 1.8152847387e+00	 1.6145583599e+00	-1.2839022744e+00
 1.7994730467e+00	 1.6321624744e+00	-1.3127556142e+00
 1.9564874378e+00	 1.4550466556e+00	-9.6628443032e-01
 1.9422833250e+00	 1.4739535975e+00	-1.0066005059e+00
 1.9278869355e+00	 1.4927342643e+00	-1.0456516079e+00
 1.9132999545e+00	 1.5113857372e+00	-1.0833355626e+00
 1.8985241261e+00	 1.5299051268e+00	-1.1195736051e+00
 1.8835612516e+00	 1.5482895746e+00	-1.1543131494e+00
 1.8684131896e+00	 1.5665362547e+00	-1.1875305697e+00
 1.8530818547e+00	 1.5846423750e+00	-1.2192339777e+00
 1.8375692170e+00	 1.6026051786e+00	-1.2494659869e+00
 1.8218773012e+00	 1.6204219452e+00	-1.2783064475e+00
 1.8060081860e+00	 1.6380899926e+00	-1.3058751403e+00
 1.9635671165e+00	 1.4603118379e+00	-9.6447392171e-01
 1.9493116053e+00	 1.4792871957e+00	-1.0048017030e+00
 1.9348631214e+00	 1.4981358216e+00	-1.0438057031e+00
 1.9202233566e+00	 1.5168547861e+00	-1.0813626289e+00
 1.9053940608e+00	 1.5354411893e+00	-1.1173734123e+00
 1.8903770422e+00	 1.5538921625e+00	-1.1517660616e+00
 1.8751741659e+00	 1.5722048695e+00	-1.1844985254e+00
 1.8597873535e+00	 1.5903765079e+00	-1.2155615548e+00
 1.8442185823e+00	 1.6084043111e+00	-1.2449815532e+00
 1.8284698844e+00	 1.6262855489e+00	-1.2728233983e+00
 1.8125433457e+00	 1.6440175292e+00	-1.2991932230e+00
 1.9706468314e+00	 1.4655770470e+00	-9.6284659488e-01
 1.9563399214e+00	 1.4846208212e+00	-1.0031497276e+00
 1.9418393430e+00	 1.5035374065e+00	-1.0420682708e+00
 1.9271467939e+00	 1.5223238629e+00	-1.0794617982e+00
 1.9122640306e+00	 1.5409772801e+00	-1.1152148438e+00
 1.8971928675e+00	 1.5594947790e+00	-1.1492398306e+00
 1.8819351767e+00	 1.5778735131e+00	-1.1814800111e+00
 1.8664928866e+00	 1.5961106701e+00	-1.2119124103e+00
 1.8508679816e+00	 1.6142034732e+00	-1.2405507554e+00
 1.8350625011e+00	 1.6321491824e+00	-1.2674483807e+00
 1.8190785387e+00	 1.6499450961e+00	-1.2927010917e+00
 1.9777265965e+00	 1.4708422934e+00	-9.6138703025e-01
 1.9633682873e+00	 1.4899544845e+00	-1.0016341579e+00
 1.9488156140e+00	 1.5089390297e+00	-1.0404330649e+00
 1.9340702803e+00	 1.5277929785e+00	-1.0776301334e+00
 1.9191340490e+00	 1.5465134101e+00	-1.1130973623e+00
 1.9040087412e+00	 1.5650974351e+00	-1.1467353659e+00
 1.8886962354e+00	 1.5835421969e+00	-1.1784763880e+00
 1.8731984671e+00	 1.6018448729e+00	-1.2082873186e+00
 1.8575174280e+00	 1.6200026763e+00	-1.2361727011e+00
 1.8416551646e+00	 1.6380128575e+00	-1.2621777140e+00
 1.8256137780e+00	 1.6558727049e+00	-1.2863911145e+00
 1.9848064257e+00	 1.4761075875e+00	-9.6008091132e-01
 1.9703967169e+00	 1.4952881961e+00	-1.0002456112e+00
 1.9557919482e+00	 1.5143407018e+00	-1.0388948264e+00
 1.9409938295e+00	 1.5332621437e+00	-1.0758656469e+00
 1.9260041297e+00	 1.5520495904e+00	-1.1110213556e+00
 1.9108246766e+00	 1.5707001421e+00	-1.1442544930e+00
 1.8954573554e+00	 1.5892109321e+00	-1.1754899386e+00
 1.8799041085e+00	 1.6075791276e+00	-1.2046879976e+00
 1.8641669346e+00	 1.6258019321e+00	-1.2318474796e+00
 1.8482478878e+00	 1.6438765857e+00	-1.2570087540e+00
 1.8321490766e+00	 1.6618003675e+00	-1.2802567680e+00
 1.9918863332e+00	 1.4813729399e+00	-9.5891499522e-01
 1.9774252242e+00	 1.5006219666e+00	-9.9897571460e-01
 1.9627683595e+00	 1.5197424337e+00	-1.0374492555e+00
 1.9479174551e+00	 1.5387313693e+00	-1.0741672722e+00
 1.9328742864e+00	 1.5575858317e+00	-1.1089881093e+00
 1.9176406873e+00	 1.5763029110e+00	-1.1417999260e+00
 1.9022185501e+00	 1.5948797299e+00	-1.1725238401e+00
 1.8866098240e+00	 1.6133134458e+00	-1.2011170807e+00
 1.8708165148e+00	 1.6316012519e+00	-1.2275761331e+00
 1.8548406839e+00	 1.6497403788e+00	-1.2519398633e+00
 1.8386844474e+00	 1.6677280956e+00	-1.2742926066e+00
 1.9989663329e+00	 1.4866383608e+00	-9.5787708317e-01
 1.9844538231e+00	 1.5059558067e+00	-9.9781707640e-01
 1.9697448618e+00	 1.5251442359e+00	-1.0360929831e+00
 1.9548411710e+00	 1.5442006662e+00	-1.0725348370e+00
 1.9397445325e+00	 1.5631221453e+00	-1.1069997796e+00
 1.9244567869e+00	 1.5819057529e+00	-1.1393752399e+00
 1.9089798329e+00	 1.6005486016e+00	-1.1695821365e+00
 1.8933156268e+00	 1.6190478386e+00	-1.1975780894e+00
 1.8774661816e+00	 1.6374006473e+00	-1.2233606284e+00
 1.8614335659e+00	 1.6556042483e+00	-1.2469703820e+00
 1.8452199034e+00	 1.6736559010e+00	-1.2684942319e+00
 2.0060464390e+00	 1.4919038608e+00	-9.5695599088e-01
 1.9914825276e+00	 1.5112897269e+00	-9.9676325752e-01
 1.9767214688e+00	 1.5305461193e+00	-1.0348235433e+00
 1.9617649909e+00	 1.5496700452e+00	-1.0709690349e+00
 1.9466148819e+00	 1.5686585420e+00	-1.1050593655e+00
 1.9312729888e+00	 1.5875086789e+00	-1.1369848441e+00
 1.9157412173e+00	 1.6062175584e+00	-1.1666697109e+00
 1.9000215304e+00	 1.6247823176e+00	-1.1940754046e+00
 1.8841159483e+00	 1.6432001298e+00	-1.2192038282e+00
 1.8680265469e+00	 1.6614682058e+00	-1.2421005985e+00
 1.8517554575e+00	 1.6795837954e+00	-1.2628582628e+00
 1.7864027773e+00	 1.6203074465e+00	-1.3271531888e+00
 1.7705354717e+00	 1.6376310489e+00	-1.3581549454e+00
 1.7544971874e+00	 1.6548024385e+00	-1.3868979970e+00
 1.7382901052e+00	 1.6718191124e+00	-1.4087485946e+00
 1.7219164549e+00	 1.6886786099e+00	-1.4247298435e+00
 1.7053785146e+00	 1.7053785146e+00	-1.4363915059e+00
 1.6886786099e+00	 1.7219164549e+00	-1.4452780273e+00
 1.6718191124e+00	 1.7382901052e+00	-1.4529289495e+00
 1.6548024385e+00	 1.7544971874e+00	-1.4608794485e+00
 1.6376310489e+00	 1.7705354717e+00	-1.4703698144e+00
 1.6203074465e+00	 1.7864027773e+00	-1.4794190088e+00
 1.7929379148e+00	 1.6262349630e+00	-1.3198445840e+00
 1.7770125623e+00	 1.6436219397e+00	-1.3491430064e+00
 1.7609156057e+00	 1.6608561469e+00	-1.3773850805e+00
 1.7446492337e+00	 1.6779350722e+00	-1.4002175030e+00
 1.7282156842e+00	 1.6948562463e+00	-1.4169317785e+00
 1.7116172437e+00	 1.7116172437e+00	-1.4291471776e+00
 1.6948562463e+00	 1.7282156842e+00	-1.4384767744e+00
 1.6779350722e+00	 1.7446492337e+00	-1.4465278502e+00
 1.6608561469e+00	 1.7609156057e+00	-1.4549024272e+00
 1.6436219397e+00	 1.7770125623e+00	-1.4639338298e+00
 1.6262349630e+00	 1.7929379148e+00	-1.4717712067e+00
 1.7994730467e+00	 1.6321624744e+00	-1.3127556142e+00
 1.7834896474e+00	 1.6496128254e+00	-1.3404714942e+00
 1.7673340186e+00	 1.6669098501e+00	-1.3672250999e+00
 1.7510083568e+00	 1.6840510269e+00	-1.3910788686e+00
 1.7345149081e+00	 1.7010338775e+00	-1.4086700420e+00
 1.7178559675e+00	 1.7178559675e+00	-1.4215833480e+00
 1.7010338775e+00	 1.7345149081e+00	-1.4314954023e+00
 1.6840510269e+00	 1.7510083568e+00	-1.4400761498e+00
 1.6669098501e+00	 1.7673340186e+00	-1.4489379854e+00
 1.6496128254e+00	 1.7834896474e+00	-1.4570251008e+00
 1.6321624744e+00	 1.7994730467e+00	-1.4637411351e+00
 1.8060081860e+00	 1.6380899926e+00	-1.3058751403e+00
 1.7899667399e+00	 1.6556037180e+00	-1.3321244611e+00
 1.7737524387e+00	 1.6729635601e+00	-1.3573130546e+00
 1.7573674870e+00	 1.6901669885e+00	-1.3813657370e+00
 1.7408141392e+00	 1.7072115157e+00	-1.3999721045e+00
 1.7240946984e+00	 1.7240946984e+00	-1.4137221548e+00
 1.7072115157e+00	 1.7408141392e+00	-1.4243510088e+00
 1.6901669885e+00	 1.7573674870e+00	-1.4335862495e+00
 1.6729635601e+00	 1.7737524387e+00	-1.4425557898e+00
 1.6556037180e+00	 1.7899667399e+00	-1.4496995549e+00
 1.6380899926e+00	 1.8060081860e+00	-1.4553818688e+00
 1.8125433457e+00	 1.6440175292e+00	-1.2991932230e+00
 1.7964438525e+00	 1.6615946292e+00	-1.3240872438e+00
 1.7801708789e+00	 1.6790172891e+00	-1.3478388563e+00
 1.7637266372e+00	 1.6962829692e+00	-1.3711113324e+00
 1.7471133899e+00	 1.7133891731e+00	-1.3908656962e+00
 1.7303334488e+00	 1.7303334488e+00	-1.4055860758e+00
 1.7133891731e+00	 1.7471133899e+00	-1.4170611106e+00
 1.6962829692e+00	 1.7637266372e+00	-1.4270710452e+00
 1.6790172891e+00	 1.7801708789e+00	-1.4357035403e+00
 1.6615946292e+00	 1.7964438525e+00	-1.4420114537e+00
 1.6440175292e+00	 1.8125433457e+00	-1.4467448660e+00
 1.8190785387e+00	 1.6499450961e+00	-1.2927010917e+00
 1.8029209982e+00	 1.6675855709e+00	-1.3163464320e+00
 1.7865893517e+00	 1.6850710489e+00	-1.3387844639e+00
 1.7700858197e+00	 1.7023989811e+00	-1.3607207075e+00
 1.7534126728e+00	 1.7195668620e+00	-1.3813787758e+00
 1.7365722309e+00	 1.7365722309e+00	-1.3971978966e+00
 1.7195668620e+00	 1.7534126728e+00	-1.4096436100e+00
 1.7023989811e+00	 1.7700858197e+00	-1.4203635491e+00
 1.6850710489e+00	 1.7865893517e+00	-1.4284371509e+00
 1.6675855709e+00	 1.8029209982e+00	-1.4340134119e+00
 1.6499450961e+00	 1.8190785387e+00	-1.4378799873e+00
 1.8256137780e+00	 1.6558727049e+00	-1.2863911145e+00
 1.8093981898e+00	 1.6735765551e+00	-1.3088898367e+00
 1.7930078701e+00	 1.6911248516e+00	-1.3301331408e+00
 1.7764450473e+00	 1.7085150363e+00	-1.3508511176e+00
 1.7597120003e+00	 1.7257445947e+00	-1.3715394984e+00
 1.7428110573e+00	 1.7428110573e+00	-1.3885806785e+00
 1.7257445947e+00	 1.7597120003e+00	-1.4021167614e+00
 1.7085150363e+00	 1.7764450473e+00	-1.4131846159e+00
 1.6911248516e+00	 1.7930078701e+00	-1.4208108529e+00
 1.6735765551e+00	 1.8093981898e+00	-1.4257564174e+00
 1.6558727049e+00	 1.8256137780e+00	-1.4288355145e+00
 1.8321490766e+00	 1.6618003675e+00	-1.2802567680e+00
 1.8158754401e+00	 1.6795675937e+00	-1.3017064586e+00
 1.7994264466e+00	 1.6971787092e+00	-1.3218694219e+00
 1.7828043326e+00	 1.7146311469e+00	-1.3414952209e+00
 1.7660113849e+00	 1.7319223834e+00	-1.3613960726e+00
 1.7490499402e+00	 1.7490499402e+00	-1.3797577253e+00
 1.7319223834e+00	 1.7660113849e+00	-1.3944900882e+00
 1.7146311469e+00	 1.7828043326e+00	-1.4055843371e+00
 1.6971787092e+00	 1.7994264466e+00	-1.4128772158e+00
 1.6795675937e+00	 1.8158754401e+00	-1.4172898502e+00
 1.6618003675e+00	 1.8321490766e+00	-1.4196581699e+00
 1.8386844474e+00	 1.6677280956e+00	-1.2742926066e+00
 1.8223527620e+00	 1.6855586984e+00	-1.2947864563e+00
 1.8058450941e+00	 1.7032326337e+00	-1.3139790805e+00
 1.7891636881e+00	 1.7207473252e+00	-1.3326344637e+00
 1.7723108391e+00	 1.7381002404e+00	-1.3515799098e+00
 1.7552888920e+00	 1.7552888920e+00	-1.3707525520e+00
 1.7381002404e+00	 1.7723108391e+00	-1.3865118225e+00
 1.7207473252e+00	 1.7891636881e+00	-1.3976172538e+00
 1.7032326337e+00	 1.8058450941e+00	-1.4046871673e+00
 1.6855586984e+00	 1.8223527620e+00	-1.4086615027e+00
 1.6677280956e+00	 1.8386844474e+00	-1.4103931346e+00
 1.8452199034e+00	 1.6736559010e+00	-1.2684942319e+00
 1.8288301683e+00	 1.6915498812e+00	-1.2881211148e+00
 1.8122638252e+00	 1.7092866371e+00	-1.3064490957e+00
 1.7955231265e+00	 1.7268635831e+00	-1.3242515769e+00
 1.7786103754e+00	 1.7442781779e+00	-1.3423659557e+00
 1.7615279252e+00	 1.7615279252e+00	-1.3615888512e+00
 1.7442781779e+00	 1.7786103754e+00	-1.3781022447e+00
 1.7268635831e+00	 1.7955231265e+00	-1.3893362262e+00
 1.7092866371e+00	 1.8122638252e+00	-1.3962900135e+00
 1.6915498812e+00	 1.8288301683e+00	-1.3999175988e+00
 1.6736559010e+00	 1.8452199034e+00	-1.4010840685e+00
 1.8517554575e+00	 1.6795837954e+00	-1.2628582628e+00
 1.8353076719e+00	 1.6975411540e+00	-1.2817028137e+00
 1.8186826527e+00	 1.7153407314e+00	-1.2992676195e+00
 1.8018826604e+00	 1.7329799329e+00	-1.3163305426e+00
 1.7849100063e+00	 1.7504562081e+00	-1.3337341257e+00
 1.7677670521e+00	 1.7677670521e+00	-1.3523470549e+00
 1.7504562081e+00	 1.7849100063e+00	-1.3693164723e+00
 1.7329799329e+00	 1.8018826604e+00	-1.3807924552e+00
 1.7153407314e+00	 1.8186826527e+00	-1.3877334590e+00
 1.6975411540e+00	 1.8353076719e+00	-1.3911028136e+00
 1.6795837954e+00	 1.8517554575e+00	-1.3917731285e+00
 1.6203074465e+00	 1.7864027773e+00	-1.4794190088e+00
 1.6028311975e+00	 1.8020996229e+00	-1.4864523693e+00
 1.5852078436e+00	 1.8176211925e+00	-1.4905488005e+00
 1.5674400381e+00	 1.8329654303e+00	-1.4919610465e+00
 1.5495304716e+00	 1.8481303335e+00	-1.4909021576e+00
 1.5314818712e+00	 1.8631139533e+00	-1.4875478060e+00
 1.5132969987e+00	 1.8779143959e+00	-1.4820387087e+00
 1.4949786493e+00	 1.8925298230e+00	-1.4744831420e+00
 1.4765296504e+00	 1.9069584527e+00	-1.4649595305e+00
 1.4579528601e+00	 1.9211985599e+00	-1.4535190959e+00
 1.4392511656e+00	 1.9352484777e+00	-1.4401885485e+00
 1.6262349630e+00	 1.7929379148e+00	-1.4717712067e+00
 1.6086947811e+00	 1.8086921836e+00	-1.4777013974e+00
 1.5910069564e+00	 1.8242705352e+00	-1.4809153237e+00
 1.5731741515e+00	 1.8396709063e+00	-1.4816539245e+00
 1.5551990671e+00	 1.8548912868e+00	-1.4801170988e+00
 1.5370844401e+00	 1.8699297207e+00	-1.4764661103e+00
 1.5188330424e+00	 1.8847843073e+00	-1.4708261021e+00
 1.5004476796e+00	 1.8994532015e+00	-1.4632887029e+00
 1.4819311894e+00	 1.9139346149e+00	-1.4539147084e+00
 1.4632864402e+00	 1.9282268163e+00	-1.4427368227e+00
 1.4445163299e+00	 1.9423281324e+00	-1.4297624422e+00
 1.6321624744e+00	 1.7994730467e+00	-1.4637411351e+00
 1.6145583599e+00	 1.8152847387e+00	-1.4686335346e+00
 1.5968060642e+00	 1.8309198723e+00	-1.4710091483e+00
 1.5789082600e+00	 1.8463763767e+00	-1.4710999698e+00
 1.5608676577e+00	 1.8616522344e+00	-1.4690956553e+00
 1.5426870042e+00	 1.8767454823e+00	-1.4651460149e+00
 1.5243690814e+00	 1.8916542128e+00	-1.4593636153e+00
 1.5059167053e+00	 1.9063765741e+00	-1.4518264745e+00
 1.4873327238e+00	 1.9209107712e+00	-1.4425808328e+00
 1.4686200158e+00	 1.9352550667e+00	-1.4316439827e+00
 1.4497814898e+00	 1.9494077810e+00	-1.4190071423e+00
 1.6380899926e+00	 1.8060081860e+00	-1.4553818688e+00
 1.6204219452e+00	 1.8218773012e+00	-1.4592996662e+00
 1.6026051786e+00	 1.8375692170e+00	-1.4608796819e+00
 1.5846423750e+00	 1.8530818547e+00	-1.4603477891e+00
 1.5665362547e+00	 1.8684131896e+00	-1.4578862740e+00
 1.5482895746e+00	 1.8835612516e+00	-1.4536364123e+00
 1.5299051268e+00	 1.8985241261e+00	-1.4477011552e+00
 1.5113857372e+00	 1.9132999545e+00	-1.4401479109e+00
 1.4927342643e+00	 1.9278869355e+00	-1.4310114007e+00
 1.4739535975e+00	 1.9422833250e+00	-1.4202965754e+00
 1.4550466556e+00	 1.9564874378e+00	-1.4079815732e+00
 1.6440175292e+00	 1.8125433457e+00	-1.4467448660e+00
 1.6262855489e+00	 1.8284698844e+00	-1.4497491018e+00
 1.6084043111e+00	 1.8442185823e+00	-1.4505747882e+00
 1.5903765079e+00	 1.8597873535e+00	-1.4494444675e+00
 1.5722048695e+00	 1.8751741659e+00	-1.4465358945e+00
 1.5538921625e+00	 1.8903770422e+00	-1.4419846929e+00
 1.5354411893e+00	 1.9053940608e+00	-1.4358871246e+00
 1.5168547861e+00	 1.9202233566e+00	-1.4283029523e+00
 1.4981358216e+00	 1.9348631214e+00	-1.4192583792e+00
 1.4792871957e+00	 1.9493116053e+00	-1.4087490473e+00
 1.4603118379e+00	 1.9635671165e+00	-1.3967430776e+00
 1.6499450961e+00	 1.8190785387e+00	-1.4378799873e+00
 1.6321491824e+00	 1.8350625011e+00	-1.4400295938e+00
 1.6142034732e+00	 1.8508679816e+00	-1.4401408048e+00
 1.5961106701e+00	 1.8664928866e+00	-1.4384355869e+00
 1.5778735131e+00	 1.8819351767e+00	-1.4350899662e+00
 1.5594947790e+00	 1.8971928675e+00	-1.4302367633e+00
 1.5409772801e+00	 1.9122640306e+00	-1.4239684403e+00
 1.5223238629e+00	 1.9271467939e+00	-1.4163400440e+00
 1.5035374065e+00	 1.9418393430e+00	-1.4073722242e+00
 1.4846208212e+00	 1.9563399214e+00	-1.3970543114e+00
 1.4655770470e+00	 1.9706468314e+00	-1.3853474361e+00
 1.6558727049e+00	 1.8256137780e+00	-1.4288355145e+00
 1.6380128575e+00	 1.8416551646e+00	-1.4301873561e+00
 1.6200026763e+00	 1.8575174280e+00	-1.4296225616e+00
 1.6018448729e+00	 1.8731984671e+00	-1.4273652430e+00
 1.5835421969e+00	 1.8886962354e+00	-1.4235924669e+00
 1.5650974351e+00	 1.9040087412e+00	-1.4184370635e+00
 1.5465134101e+00	 1.9191340490e+00	-1.4119905511e+00
 1.5277929785e+00	 1.9340702803e+00	-1.4043061541e+00
 1.5089390297e+00	 1.9488156140e+00	-1.3954018987e+00
 1.4899544845e+00	 1.9633682873e+00	-1.3852637661e+00
 1.4708422934e+00	 1.9777265965e+00	-1.3738488870e+00
 1.6618003675e+00	 1.8321490766e+00	-1.4196581699e+00
 1.6438765857e+00	 1.8482478878e+00	-1.4202670821e+00
 1.6258019321e+00	 1.8641669346e+00	-1.4190633986e+00
 1.6075791276e+00	 1.8799041085e+00	-1.4162760642e+00
 1.5892109321e+00	 1.8954573554e+00	-1.4120859200e+00
 1.5707001421e+00	 1.9108246766e+00	-1.4066285856e+00
 1.5520495904e+00	 1.9260041297e+00	-1.3999974559e+00
 1.5332621437e+00	 1.9409938295e+00	-1.3922467924e+00
 1.5143407018e+00	 1.9557919482e+00	-1.3833948922e+00
 1.4952881961e+00	 1.9703967169e+00	-1.3734273144e+00
 1.4761075875e+00	 1.9848064257e+00	-1.3623001460e+00
 1.6677280956e+00	 1.8386844474e+00	-1.4103931346e+00
 1.6497403788e+00	 1.8548406839e+00	-1.4103119639e+00
 1.6316012519e+00	 1.8708165148e+00	-1.4085051848e+00
 1.6133134458e+00	 1.8866098240e+00	-1.4052092289e+00
 1.5948797299e+00	 1.9022185501e+00	-1.4006114131e+00
 1.5763029110e+00	 1.9176406873e+00	-1.3948528914e+00
 1.5575858317e+00	 1.9328742864e+00	-1.3880317219e+00
 1.5387313693e+00	 1.9479174551e+00	-1.3802060283e+00
 1.5197424337e+00	 1.9627683595e+00	-1.3713972390e+00
 1.5006219666e+00	 1.9774252242e+00	-1.3615933832e+00
 1.4813729399e+00	 1.9918863332e+00	-1.3507524257e+00
 1.6736559010e+00	 1.8452199034e+00	-1.4010840685e+00
 1.6556042483e+00	 1.8614335659e+00	-1.4003637104e+00
 1.6374006473e+00	 1.8774661816e+00	-1.3979883358e+00
 1.6190478386e+00	 1.8933156268e+00	-1.3942044841e+00
 1.6005486016e+00	 1.9089798329e+00	-1.3892086157e+00
 1.5819057529e+00	 1.9244567869e+00	-1.3831501308e+00
 1.5631221453e+00	 1.9397445325e+00	-1.3761345031e+00
 1.5442006662e+00	 1.9548411710e+00	-1.3682265099e+00
 1.5251442359e+00	 1.9697448618e+00	-1.3594535371e+00
 1.5059558067e+00	 1.9844538231e+00	-1.3498089423e+00
 1.4866383608e+00	 1.9989663329e+00	-1.3392554554e+00
 1.6795837954e+00	 1.8517554575e+00	-1.3917731285e+00
 1.6614682058e+00	 1.8680265469e+00	-1.3904625660e+00
 1.6432001298e+00	 1.8841159483e+00	-1.3875518326e+00
 1.6247823176e+00	 1.9000215304e+00	-1.3833001635e+00
 1.6062175584e+00	 1.9157412173e+00	-1.3779157976e+00
 1.5875086789e+00	 1.9312729888e+00	-1.3715590595e+00
 1.5686585420e+00	 1.9466148819e+00	-1.3643455585e+00
 1.5496700452e+00	 1.9617649909e+00	-1.3563494823e+00
 1.5305461193e+00	 1.9767214688e+00	-1.3476069673e+00
 1.5112897269e+00	 1.9914825276e+00	-1.3381195241e+00
 1.4919038608e+00	 2.0060464390e+00	-1.3278575011e+00
 1.4392511656e+00	 1.9352484777e+00	-1.4401885485e+00
 1.4204306899e+00	 1.9491042590e+00	-1.4256092125e+00
 1.4014911956e+00	 1.9627667656e+00	-1.4103910422e+00
 1.3824356367e+00	 1.9762345155e+00	-1.3944817763e+00
 1.3632669907e+00	 1.9895060861e+00	-1.3778014912e+00
 1.3439882566e+00	 2.0025801153e+00	-1.3602454157e+00
 1.3246024542e+00	 2.0154553015e+00	-1.3416867250e+00
 1.3051126218e+00	 2.0281304037e+00	-1.3219793004e+00
 1.2855218152e+00	 2.0406042425e+00	-1.3009604456e+00
 1.2658331062e+00	 2.0528756997e+00	-1.2784535470e+00
 1.2460495804e+00	 2.0649437185e+00	-1.2542706705e+00
 1.4445163299e+00	 1.9423281324e+00	-1.4297624422e+00
 1.4256270039e+00	 1.9562346018e+00	-1.4155508759e+00
 1.4066182239e+00	 1.9699470896e+00	-1.4006471280e+00
 1.3874929547e+00	 1.9834641080e+00	-1.3850042797e+00
 1.3682541846e+00	 1.9967842296e+00	-1.3685475266e+00
 1.3489049238e+00	 2.0099060871e+00	-1.3511770411e+00
 1.3294482030e+00	 2.0228283741e+00	-1.3327708126e+00
 1.3098870716e+00	 2.0355498453e+00	-1.3131874510e+00
 1.2902245966e+00	 2.0480693167e+00	-1.2922689440e+00
 1.2704638610e+00	 2.0603856661e+00	-1.2698433577e+00
 1.2506079619e+00	 2.0724978330e+00	-1.2457274698e+00
 1.4497814898e+00	 1.9494077810e+00	-1.4190071423e+00
 1.4308233135e+00	 1.9633649386e+00	-1.4051516066e+00
 1.4117452479e+00	 1.9771274074e+00	-1.3905584405e+00
 1.3925502684e+00	 1.9906936944e+00	-1.3751847178e+00
 1.3732413744e+00	 2.0040623669e+00	-1.3589593692e+00
 1.3538215869e+00	 2.0172320527e+00	-1.3417860949e+00
 1.3342939476e+00	 2.0302014405e+00	-1.3235462536e+00
 1.3146615173e+00	 2.0429692805e+00	-1.3041017122e+00
 1.2949273741e+00	 2.0555343845e+00	-1.2832976482e+00
 1.2750946119e+00	 2.0678956261e+00	-1.2609652911e+00
 1.2551663394e+00	 2.0800519410e+00	-1.2369245960e+00
 1.4550466556e+00	 1.9564874378e+00	-1.4079815732e+00
 1.4360196290e+00	 1.9704952835e+00	-1.3944732810e+00
 1.4168722776e+00	 1.9843077334e+00	-1.3801894730e+00
 1.3976075879e+00	 1.9979232890e+00	-1.3650898789e+00
 1.3782285698e+00	 2.0113405125e+00	-1.3491057930e+00
 1.3587382555e+00	 2.0245580265e+00	-1.3321430409e+00
 1.3391396978e+00	 2.0375745152e+00	-1.3140849193e+00
 1.3194359685e+00	 2.0503887242e+00	-1.2947950951e+00
 1.2996301568e+00	 2.0629994608e+00	-1.2741204549e+00
 1.2797253681e+00	 2.0754055947e+00	-1.2518938907e+00
 1.2597247222e+00	 2.0876060576e+00	-1.2279370155e+00
 1.4603118379e+00	 1.9635671165e+00	-1.3967430776e+00
 1.4412159607e+00	 1.9776256506e+00	-1.3835761644e+00
 1.4219993234e+00	 1.9914880817e+00	-1.3696030837e+00
 1.4026649231e+00	 2.0051529062e+00	-1.3547848964e+00
 1.3832157807e+00	 2.0186186807e+00	-1.3390539019e+00
 1.3636549395e+00	 2.0318840232e+00	-1.3223166619e+00
 1.3439854631e+00	 2.0449476129e+00	-1.3044569932e+00
 1.3242104345e+00	 2.0578081910e+00	-1.2853389199e+00
 1.3043329542e+00	 2.0704645604e+00	-1.2648095710e+00
 1.2843561387e+00	 2.0829155867e+00	-1.2427020146e+00
 1.2642831191e+00	 2.0951601978e+00	-1.2188380168e+00
 1.4655770470e+00	 1.9706468314e+00	-1.3853474361e+00
 1.4464123189e+00	 1.9847560540e+00	-1.3725189313e+00
 1.4271263953e+00	 1.9986684667e+00	-1.3588605161e+00
 1.4077222841e+00	 2.0123825602e+00	-1.3443332695e+00
 1.3882030171e+00	 2.0258968861e+00	-1.3288691506e+00
 1.3685716485e+00	 2.0392100573e+00	-1.3123740805e+00
 1.3488312531e+00	 2.0523207483e+00	-1.2947309920e+00
 1.3289849249e+00	 2.0652276956e+00	-1.2758028366e+00
 1.3090357756e+00	 2.0779296980e+00	-1.2554355338e+00
 1.2889869330e+00	 2.0904256169e+00	-1.2334608554e+00
 1.2688415393e+00	 2.1027143765e+00	-1.2096992311e+00
 1.4708422934e+00	 1.9777265965e+00	-1.3738488870e+00
 1.4516087140e+00	 1.9918865080e+00	-1.3613586860e+00
 1.4322535035e+00	 2.0058489026e+00	-1.3480214193e+00
 1.4127796809e+00	 2.0196122654e+00	-1.3337968841e+00
 1.3931902888e+00	 2.0331751430e+00	-1.3186153655e+00
 1.3734883924e+00	 2.0465361432e+00	-1.3023807802e+00
 1.3536770774e+00	 2.0596939358e+00	-1.2849737863e+00
 1.3337594491e+00	 2.0726472528e+00	-1.2662548462e+00
 1.3137386303e+00	 2.0853948885e+00	-1.2460672321e+00
 1.2936177600e+00	 2.0979357004e+00	-1.2242399611e+00
 1.2733999918e+00	 2.1102686087e+00	-1.2005906514e+00
 1.4761075875e+00	 1.9848064257e+00	-1.3623001460e+00
 1.4568051561e+00	 1.9990170267e+00	-1.3501509819e+00
 1.4373806582e+00	 2.0130294035e+00	-1.3371438689e+00
 1.4178371236e+00	 2.0268420362e+00	-1.3232360334e+00
 1.3981776057e+00	 2.0404534659e+00	-1.3083547655e+00
 1.3784051808e+00	 2.0538622956e+00	-1.2924006266e+00
 1.3585229457e+00	 2.0670671902e+00	-1.2752506215e+00
 1.3385340166e+00	 2.0800668772e+00	-1.2567613215e+00
 1.3184415276e+00	 2.0928601467e+00	-1.2367719263e+00
 1.2982486290e+00	 2.1054458520e+00	-1.2151072550e+00
 1.2779584857e+00	 2.1178229093e+00	-1.1915806531e+00
 1.4813729399e+00	 1.9918863332e+00	-1.3507524257e+00
 1.4620016556e+00	 2.0061476241e+00	-1.3389498424e+00
 1.4425078696e+00	 2.0202099838e+00	-1.3262843874e+00
 1.4228946221e+00	 2.0340718869e+00	-1.3127094391e+00
 1.4031649778e+00	 2.0477318693e+00	-1.2981479834e+00
 1.3833220236e+00	 2.0611885290e+00	-1.2824958879e+00
 1.3633688675e+00	 2.0744405261e+00	-1.2656251391e+00
 1.3433086369e+00	 2.0874865836e+00	-1.2473870273e+00
 1.3231444770e+00	 2.1003254874e+00	-1.2276152694e+00
 1.3028795492e+00	 2.1129560865e+00	-1.2061290559e+00
 1.2825170299e+00	 2.1253772935e+00	-1.1827360134e+00
 1.4866383608e+00	 1.9989663329e+00	-1.3392554554e+00
 1.4671982229e+00	 2.0132783144e+00	-1.3278077809e+00
 1.4476351478e+00	 2.0273906577e+00	-1.3154979646e+00
 1.4279521866e+00	 2.0413018318e+00	-1.3022742716e+00
 1.4081524148e+00	 2.0550103675e+00	-1.2880540862e+00
 1.3882389304e+00	 2.0685148578e+00	-1.2727272562e+00
 1.3682148525e+00	 2.0818139581e+00	-1.2561593971e+00
 1.3480833194e+00	 2.0949063868e+00	-1.2381951420e+00
 1.3278474876e+00	 2.1077909254e+00	-1.2186613272e+00
 1.3075105298e+00	 2.1204664190e+00	-1.1973700985e+00
 1.2870756335e+00	 2.1329317761e+00	-1.1741219312e+00
 1.4919038608e+00	 2.0060464390e+00	-1.3278575011e+00
 1.4723948682e+00	 2.0204091119e+00	-1.3167758209e+00
 1.4527625030e+00	 2.0345714394e+00	-1.3048380782e+00
 1.4330098270e+00	 2.0485318853e+00	-1.2919861710e+00
 1.4131399268e+00	 2.0622889750e+00	-1.2781305965e+00
 1.3931559111e+00	 2.0758412966e+00	-1.2631538685e+00
 1.3730609102e+00	 2.0891875008e+00	-1.2469138912e+00
 1.3528580736e+00	 2.1023263013e+00	-1.2292472777e+00
 1.3325505688e+00	 2.1152564755e+00	-1.2099725989e+00
 1.3121415799e+00	 2.1279768642e+00	-1.1888935536e+00
 1.2916343056e+00	 2.1404863722e+00	-1.1658020469e+00
 1.2460495804e+00	 2.0649437185e+00	-1.2542706705e+00
 1.2261743371e+00	 2.0768073048e+00	-1.2282725028e+00
 1.2062104879e+00	 2.0884655282e+00	-1.2007180853e+00
 1.1861611550e+00	 2.0999175207e+00	-1.1720067397e+00
 1.1660294682e+00	 2.1111624763e+00	-1.1424395561e+00
 1.1458185643e+00	 2.1221996512e+00	-1.1117897138e+00
 1.1255315851e+00	 2.1330283633e+00	-1.0801329845e+00
 1.1051716761e+00	 2.1436479923e+00	-1.0476157203e+00
 1.0847419850e+00	 2.1540579796e+00	-1.0143871963e+00
 1.0642456601e+00	 2.1642578281e+00	-9.8060352268e-01
 1.0436858490e+00	 2.1742471019e+00	-9.4643130891e-01
 1.2506079619e+00	 2.0724978330e+00	-1.2457274698e+00
 1.2306600096e+00	 2.0844048195e+00	-1.2197974539e+00
 1.2106231274e+00	 2.0961056917e+00	-1.1923186235e+00
 1.1905004486e+00	 2.1075995786e+00	-1.1636810415e+00
 1.1702951147e+00	 2.1188856713e+00	-1.1342391965e+00
 1.1500102740e+00	 2.1299632231e+00	-1.1038239058e+00
 1.1296490796e+00	 2.1408315495e+00	-1.0724342907e+00
 1.1092146886e+00	 2.1514900279e+00	-1.0402129134e+00
 1.0887102603e+00	 2.1619380978e+00	-1.0073051867e+00
 1.0681389543e+00	 2.1721752601e+00	-9.7386346225e-01
 1.0475039300e+00	 2.1822010773e+00	-9.4005086134e-01
 1.2551663394e+00	 2.0800519410e+00	-1.2369245960e+00
 1.2351456783e+00	 2.0920023276e+00	-1.2110640720e+00
 1.2150357631e+00	 2.1037458487e+00	-1.1836548320e+00
 1.1948397385e+00	 2.1152816300e+00	-1.1550801442e+00
 1.1745607577e+00	 2.1266088598e+00	-1.1257165621e+00
 1.1542019801e+00	 2.1377267885e+00	-1.0955098974e+00
 1.1337665706e+00	 2.1486347291e+00	-1.0643658535e+00
 1.1132576977e+00	 2.1593320570e+00	-1.0324254470e+00
 1.0926785322e+00	 2.1698182093e+00	-9.9983246288e-01
 1.0720322453e+00	 2.1800926853e+00	-9.6673772156e-01
 1.0513220077e+00	 2.1901550459e+00	-9.3330307840e-01
 1.2597247222e+00	 2.0876060576e+00	-1.2279370155e+00
 1.2396313521e+00	 2.0995998444e+00	-1.2021476675e+00
 1.2194484037e+00	 2.1113860144e+00	-1.1748024027e+00
 1.1991790334e+00	 2.1229636902e+00	-1.1462801301e+00
 1.1788264054e+00	 2.1343320569e+00	-1.1169558006e+00
 1.1583936909e+00	 2.1454903626e+00	-1.0869259971e+00
 1.1378840663e+00	 2.1564379176e+00	-1.0560040786e+00
 1.1173007114e+00	 2.1671740948e+00	-1.0243276477e+00
 1.0966468086e+00	 2.1776983297e+00	-9.9204104891e-01
 1.0759255406e+00	 2.1880101195e+00	-9.5929575205e-01
 1.0551400898e+00	 2.1981090235e+00	-9.2625452302e-01
 1.2642831191e+00	 2.0951601978e+00	-1.2188380168e+00
 1.2441170398e+00	 2.1071973849e+00	-1.1931218823e+00
 1.2238610582e+00	 2.1190262039e+00	-1.1658353679e+00
 1.2035183418e+00	 2.1306457742e+00	-1.1373554313e+00
 1.1830920665e+00	 2.1420552782e+00	-1.1080548146e+00
 1.1625854149e+00	 2.1532539609e+00	-1.0781499377e+00
 1.1420015748e+00	 2.1642411303e+00	-1.0474249346e+00
 1.1213437377e+00	 2.1750161572e+00	-1.0159935459e+00
 1.1006150974e+00	 2.1855784746e+00	-9.8400281465e-01
 1.0798188481e+00	 2.1959275783e+00	-9.5160699439e-01
 1.0589581837e+00	 2.2060630259e+00	-9.1897189237e-01
 1.2688415393e+00	 2.1027143765e+00	-1.2096992311e+00
 1.2486027505e+00	 2.1147949641e+00	-1.1840587097e+00
 1.2282737351e+00	 2.1266664324e+00	-1.1568261197e+00
 1.2078576723e+00	 2.1383278975e+00	-1.1283788481e+00
 1.1873577493e+00	 2.1497785389e+00	-1.0990897974e+00
 1.1667771602e+00	 2.1610175988e+00	-1.0692587972e+00
 1.1461191043e+00	 2.1720443829e+00	-1.0387038766e+00
 1.1253867846e+00	 2.1828582595e+00	-1.0074968009e+00
 1.1045834064e+00	 2.1934586598e+00	-9.7578940332e-01
 1.0837121755e+00	 2.2038450776e+00	-9.4374080839e-01
 1.0627762972e+00	 2.2140170689e+00	-9.1152194974e-01
 1.2733999918e+00	 2.1102686087e+00	-1.2005906514e+00
 1.2530884929e+00	 2.1223925971e+00	-1.1750285134e+00
 1.2326864433e+00	 2.1343067149e+00	-1.1478454287e+00
 1.2121970336e+00	 2.1460100752e+00	-1.1194215678e+00
 1.1916234624e+00	 2.1575018542e+00	-1.0901323354e+00
 1.1709689352e+00	 2.1687812918e+00	-1.0603289201e+00
 1.1502366630e+00	 2.1798476908e+00	-1.0299157694e+00
 1.1294298602e+00	 2.1907004174e+00	-9.9891062665e-01
 1.1085517435e+00	 2.2013389008e+00	-9.6747215932e-01
 1.0876055305e+00	 2.2117626329e+00	-9.3576640282e-01
 1.0665944377e+00	 2.2219711682e+00	-9.0397145650e-01
 1.2779584857e+00	 2.1178229093e+00	-1.1915806531e+00
 1.2575742760e+00	 2.1299902990e+00	-1.1661000470e+00
 1.2370991916e+00	 2.1419470668e+00	-1.1389624632e+00
 1.2165364342e+00	 2.1536923225e+00	-1.1105531827e+00
 1.1958892141e+00	 2.1652252396e+00	-1.0812524287e+00
 1.1751607482e+00	 2.1765450551e+00	-1.0514358389e+00
 1.1543542590e+00	 2.1876510694e+00	-1.0211348112e+00
 1.1334729724e+00	 2.1985426464e+00	-9.9030771784e-01
 1.1125201166e+00	 2.2092192132e+00	-9.5912205613e-01
 1.0914989207e+00	 2.2196802600e+00	-9.2775276549e-01
 1.0704126128e+00	 2.2299253397e+00	-8.9638710414e-01
 1.2825170299e+00	 2.1253772935e+00	-1.1827360134e+00
 1.2620601087e+00	 2.1375880849e+00	-1.1573404737e+00
 1.2415119885e+00	 2.1495875031e+00	-1.1302448081e+00
 1.2208758827e+00	 2.1613746547e+00	-1.1018417092e+00
 1.2001550129e+00	 2.1729487103e+00	-1.0725185089e+00
 1.1793526076e+00	 2.1843089042e+00	-1.0426588066e+00
 1.1584719005e+00	 2.1954545342e+00	-1.0124344569e+00
 1.1375161293e+00	 2.2063849620e+00	-9.8176017515e-01
 1.1164885336e+00	 2.2170996128e+00	-9.5080962414e-01
 1.0953923540e+00	 2.2275979746e+00	-9.1976859320e-01
 1.0742308301e+00	 2.2378795990e+00	-8.8883544638e-01
 1.2870756335e+00	 2.1329317761e+00	-1.1741219312e+00
 1.2665459998e+00	 2.1451859698e+00	-1.1488153856e+00
 1.2459248430e+00	 2.1572280389e+00	-1.1217584841e+00
 1.2252153879e+00	 2.1690570871e+00	-1.0933536061e+00
 1.2044208674e+00	 2.1806722817e+00	-1.0639974571e+00
 1.1835445216e+00	 2.1920728544e+00	-1.0340827152e+00
 1.1625895957e+00	 2.2032581007e+00	-1.0038873419e+00
 1.1415593388e+00	 2.2142273799e+00	-9.7333943121e-01
 1.1204570023e+00	 2.2249801150e+00	-9.4260487867e-01
 1.0992858380e+00	 2.2355157924e+00	-9.1188222186e-01
 1.0780490972e+00	 2.2458339620e+00	-8.8138283136e-01
 1.2916343056e+00	 2.1404863722e+00	-1.1658020469e+00
 1.2710319583e+00	 2.1527839688e+00	-1.1405888228e+00
 1.2503377638e+00	 2.1648686895e+00	-1.1135679661e+00
 1.2295549582e+00	 2.1767396348e+00	-1.0851537930e+00
 1.2086867859e+00	 2.1883959691e+00	-1.0557546222e+00
 1.1877364985e+00	 2.1998369213e+00	-1.0257744369e+00
 1.1667073527e+00	 2.2110617844e+00	-9.9556520549e-01
 1.1456026092e+00	 2.2220699155e+00	-9.6511617634e-01
 1.1244255306e+00	 2.2328607355e+00	-9.3457724790e-01
 1.1031793805e+00	 2.2434337292e+00	-9.0416155663e-01
 1.0818674217e+00	 2.2537884445e+00	-8.7409533385e-01
 1.0436858490e+00	 2.1742471019e+00	-9.4643130891e-01
 1.0230621863e+00	 2.1840270702e+00	-9.1214390859e-01
 1.0023813045e+00	 2.1935957011e+00	-8.7781820038e-01
 9.8164634100e-01	 2.2029527390e+00	-8.4332874227e-01
 9.6086042659e-01	 2.2120979880e+00	-8.0856597793e-01
 9.4002668437e-01	 2.2210313121e+00	-7.7343872386e-01
 9.1914822827e-01	 2.2297526340e+00	-7.3787624909e-01
 8.9822816176e-01	 2.2382619351e+00	-7.0182993331e-01
 8.7726957648e-01	 2.2465592549e+00	-6.6527449371e-01
 8.5627555101e-01	 2.2546446902e+00	-6.2820877439e-01
 8.3524914955e-01	 2.2625183949e+00	-5.9065609658e-01
 1.0475039300e+00	 2.1822010773e+00	-9.4005086134e-01
 1.0268048204e+00	 2.1920168233e+00	-9.0609514724e-01
 1.0060482825e+00	 2.2016204588e+00	-8.7203626129e-01
 9.8523746494e-01	 2.2110117272e+00	-8.3775988194e-01
 9.6437551011e-01	 2.2201904320e+00	-8.0316917072e-01
 9.4346555251e-01	 2.2291564366e+00	-7.6818733681e-01
 9.2251071746e-01	 2.2379096633e+00	-7.3275977864e-01
 9.0151411976e-01	 2.2464500938e+00	-6.9685578804e-01
 8.8047886239e-01	 2.2547777674e+00	-6.6046980688e-01
 8.5940803518e-01	 2.2628927814e+00	-6.2362223002e-01
 8.3830471354e-01	 2.2707952902e+00	-5.8635975253e-01
 1.0513220077e+00	 2.1901550459e+00	-9.3330307840e-01
 1.0305474514e+00	 2.2000065696e+00	-8.9971624608e-01
 1.0097152573e+00	 2.2096452097e+00	-8.6597954079e-01
 9.8882858582e-01	 2.2190707086e+00	-8.3198280062e-01
 9.6789059065e-01	 2.2282828691e+00	-7.9763515083e-01
 9.4690441773e-01	 2.2372815541e+00	-7.6286765633e-01
 9.2587320378e-01	 2.2460666858e+00	-7.2763553489e-01
 9.0480007497e-01	 2.2546382455e+00	-6.9191991632e-01
 8.8368814558e-01	 2.2629962729e+00	-6.5572913719e-01
 8.6254051669e-01	 2.2711408655e+00	-6.1909956470e-01
 8.4136027494e-01	 2.2790721784e+00	-5.8209594771e-01
 1.0551400898e+00	 2.1981090235e+00	-9.2625452302e-01
 1.0342900865e+00	 2.2079963250e+00	-8.9307114679e-01
 1.0133822363e+00	 2.2176699697e+00	-8.5971027826e-01
 9.9241971078e-01	 2.2271296991e+00	-8.2605901113e-01
 9.7140567517e-01	 2.2363753154e+00	-7.9202573704e-01
 9.5034328684e-01	 2.2454066809e+00	-7.5754289645e-01
 9.2923569392e-01	 2.2542237175e+00	-7.2256927323e-01
 9.0808603391e-01	 2.2628264065e+00	-6.8709181790e-01
 8.8689743241e-01	 2.2712147877e+00	-6.5112698868e-01
 8.6567300176e-01	 2.2793889591e+00	-6.1472160383e-01
 8.4441583981e-01	 2.2873490761e+00	-5.7795320314e-01
 1.0589581837e+00	 2.2060630259e+00	-9.1897189237e-01
 1.0380327334e+00	 2.2159861053e+00	-8.8622406252e-01
 1.0170492267e+00	 2.2256947547e+00	-8.5329110403e-01
 9.9601084693e-01	 2.2351887148e+00	-8.2005051759e-01
 9.7492077064e-01	 2.2444677870e+00	-7.8640331929e-01
 9.5378216668e-01	 2.2535318330e+00	-7.5227690040e-01
 9.3259819454e-01	 2.2623807746e+00	-7.1762741318e-01
 9.1137200309e-01	 2.2710145930e+00	-6.8244166725e-01
 8.9010672924e-01	 2.2794333281e+00	-6.4673852521e-01
 8.6880549659e-01	 2.2876370783e+00	-6.1056979096e-01
 8.4747141419e-01	 2.2956259995e+00	-5.7402058843e-01
 1.0627762972e+00	 2.2140170689e+00	-9.1152194974e-01
 1.0417753994e+00	 2.2239759263e+00	-8.7923941194e-01
 1.0207162359e+00	 2.2337195806e+00	-8.4678497582e-01
 9.9960200140e-01	 2.2432477715e+00	-8.1401975452e-01
 9.7843588405e-01	 2.2525602997e+00	-7.8083080069e-01
 9.5722106406e-01	 2.2616570266e+00	-7.4713408583e-01
 9.3596071231e-01	 2.2705378734e+00	-7.1287698720e-01
 9.1465798904e-01	 2.2792028213e+00	-6.7804026627e-01
 8.9331604244e-01	 2.2876519105e+00	-6.4263952734e-01
 8.7193800740e-01	 2.2958852396e+00	-6.0672614931e-01
 8.5052700417e-01	 2.3039029651e+00	-5.7038768841e-01
 1.0665944377e+00	 2.2219711682e+00	-9.0397145650e-01
 1.0455180918e+00	 2.2319658039e+00	-8.7218175330e-01
 1.0243832710e+00	 2.2417444634e+00	-8.4025511522e-01
 1.0031931813e+00	 2.2513068854e+00	-8.0802952594e-01
 9.8195102236e-01	 2.2606528699e+00	-7.7537153959e-01
 9.6065998580e-01	 2.2697822777e+00	-7.4217939022e-01
 9.3932325391e-01	 2.2786950299e+00	-7.0838558961e-01
 9.1794399826e-01	 2.2873911076e+00	-6.7395899709e-01
 8.9652537837e-01	 2.2958705511e+00	-6.3890634936e-01
 8.7507054039e-01	 2.3041334593e+00	-6.0327324332e-01
 8.5358261579e-01	 2.3121799894e+00	-5.6714456950e-01
 1.0704126128e+00	 2.2299253397e+00	-8.9638710414e-01
 1.0492608182e+00	 2.2399557540e+00	-8.6511571864e-01
 1.0280503394e+00	 2.2497694189e+00	-8.3376494426e-01
 1.0067843938e+00	 2.2593660723e+00	-8.0214294466e-01
 9.8546619255e-01	 2.2687455134e+00	-7.7008929180e-01
 9.6409893872e-01	 2.2779076024e+00	-7.3747821617e-01
 9.4268582599e-01	 2.2868522604e+00	-7.0422132545e-01
 9.2123003728e-01	 2.2955794682e+00	-6.7026977476e-01
 8.9973474341e-01	 2.3040892662e+00	-6.3561587617e-01
 8.7820310180e-01	 2.3123817538e+00	-6.0029414005e-01
 8.5663825511e-01	 2.3204570887e+00	-5.6438174603e-01
 1.0742308301e+00	 2.2378795990e+00	-8.8883544638e-01
 1.0530035860e+00	 2.2479457923e+00	-8.5810594806e-01
 1.0317174483e+00	 2.2577944631e+00	-8.2737802208e-01
 1.0103756459e+00	 2.2674253482e+00	-7.9642337157e-01
 9.8898140158e-01	 2.2768382463e+00	-7.6504815282e-01
 9.6753792965e-01	 2.2860330170e+00	-7.3309637695e-01
 9.4604843524e-01	 2.2950095810e+00	-7.0045275947e-01
 9.2451611261e-01	 2.3037679192e+00	-6.6704500008e-01
 9.0294414392e-01	 2.3123080721e+00	-6.3284548019e-01
 8.8133569782e-01	 2.3206301395e+00	-5.9787237055e-01
 8.5969392821e-01	 2.3287342795e+00	-5.6219014637e-01
 1.0780490972e+00	 2.2458339620e+00	-8.8138283136e-01
 1.0567464026e+00	 2.2559359348e+00	-8.5121702408e-01
 1.0353846049e+00	 2.2658196119e+00	-8.2115798171e-01
 1.0139669449e+00	 2.2754847292e+00	-7.9093435508e-01
 9.9249665643e-01	 2.2849310847e+00	-7.6031250014e-01
 9.7097696541e-01	 2.2941585375e+00	-7.2910004198e-01
 9.4941108831e-01	 2.3031670080e+00	-6.9714886515e-01
 9.2780223078e-01	 2.3119564770e+00	-6.6435751231e-01
 9.0615358625e-01	 2.3205269851e+00	-6.3067297822e-01
 8.8446833467e-01	 2.3288786326e+00	-5.9609189114e-01
 8.6274964113e-01	 2.3370115782e+00	-5.6066107898e-01
 1.0818674217e+00	 2.2537884445e+00	-8.7409533385e-01
 1.0604892753e+00	 2.2639261973e+00	-8.4451340602e-01
 1.0390518167e+00	 2.2738448812e+00	-8.1516846690e-01
 1.0175582978e+00	 2.2835442313e+00	-7.8573957059e-01
 9.9601196407e-01	 2.2930240446e+00	-7.5594693570e-01
 9.7441605281e-01	 2.3022841800e+00	-7.2555568242e-01
 9.5277379189e-01	 2.3113245574e+00	-6.9437897370e-01
 9.3108839829e-01	 2.3201451577e+00	-6.6228054204e-01
 9.0936307679e-01	 2.3287460216e+00	-6.2917658831e-01
 8.8760101857e-01	 2.3371272496e+00	-5.9503704461e-01
 8.6580539994e-01	 2.3452890012e+00	-5.5988619834e-01
 8.3524914955e-01	 2.2625183949e+00	-5.9065609658e-01
 8.1419700195e-01	 2.2701792942e+00	-5.5361536638e-01
 7.9311856621e-01	 2.2776290086e+00	-5.1792080960e-01
 7.7201685366e-01	 2.2848678569e+00	-4.8340302223e-01
 7.5089485646e-01	 2.2918962120e+00	-4.4991397151e-01
 7.2975554654e-01	 2.2987145002e+00	-4.1732558016e-01
 7.0860187444e-01	 2.3053232003e+00	-3.8552793031e-01
 6.8743676824e-01	 2.3117228432e+00	-3.5442710858e-01
 6.6626313250e-01	 2.3179140106e+00	-3.2394271655e-01
 6.4508384729e-01	 2.3238973344e+00	-2.9400507340e-01
 6.2390176713e-01	 2.3296734959e+00	-2.6455213959e-01
 8.3830471354e-01	 2.2707952902e+00	-5.8635975253e-01
 8.1717555158e-01	 2.2784842151e+00	-5.4968146465e-01
 7.9602000531e-01	 2.2859611825e+00	-5.1438741989e-01
 7.7484109706e-01	 2.2932265125e+00	-4.8028171592e-01
 7.5364182997e-01	 2.3002805792e+00	-4.4719047438e-01
 7.3242518682e-01	 2.3071238104e+00	-4.1496043539e-01
 7.1119412895e-01	 2.3137566870e+00	-3.8345715697e-01
 6.8995159515e-01	 2.3201797415e+00	-3.5256284114e-01
 6.6870050062e-01	 2.3263935578e+00	-3.2217381174e-01
 6.4744373593e-01	 2.3323987702e+00	-2.9219767127e-01
 6.2618416607e-01	 2.3381960624e+00	-2.6255016631e-01
 8.4136027494e-01	 2.2790721784e+00	-5.8209594771e-01
 8.2015409868e-01	 2.2867891289e+00	-5.4570433916e-01
 7.9892144194e-01	 2.2942933494e+00	-5.1068535075e-01
 7.7766533807e-01	 2.3015851609e+00	-4.7682308012e-01
 7.5638880115e-01	 2.3086649392e+00	-4.4392385902e-01
 7.3509482484e-01	 2.3155331136e+00	-4.1181485853e-01
 7.1378638126e-01	 2.3221901665e+00	-3.8034228434e-01
 6.9246641992e-01	 2.3286366326e+00	-3.4936918479e-01
 6.7113786665e-01	 2.3348730978e+00	-3.1877289705e-01
 6.4980362257e-01	 2.3409001988e+00	-2.8844215940e-01
 6.2846656308e-01	 2.3467186217e+00	-2.5827392001e-01
 8.4441583981e-01	 2.2873490761e+00	-5.7795320314e-01
 8.2313264915e-01	 2.2950940522e+00	-5.4177844158e-01
 8.0182288185e-01	 2.3026255257e+00	-5.0691000772e-01
 7.8048958228e-01	 2.3099438189e+00	-4.7311844530e-01
 7.5913577544e-01	 2.3170493087e+00	-4.4019630523e-01
 7.3776446588e-01	 2.3239424262e+00	-4.0795676167e-01
 7.1637863651e-01	 2.3306236555e+00	-3.7623180381e-01
 6.9498124755e-01	 2.3370935332e+00	-3.4487002654e-01
 6.7357523546e-01	 2.3433526474e+00	-3.1373404596e-01
 6.5216351188e-01	 2.3494016370e+00	-2.8269756842e-01
 6.3074896268e-01	 2.3552411907e+00	-2.5179493998e-01
 8.4747141419e-01	 2.2956259995e+00	-5.7402058843e-01
 8.2611120891e-01	 2.3033990013e+00	-5.3799871987e-01
 8.0472433082e-01	 2.3109577280e+00	-5.0315730348e-01
 7.8331383529e-01	 2.3183025029e+00	-4.6925972358e-01
 7.6188275830e-01	 2.3254337044e+00	-4.3609071301e-01
 7.4043411524e-01	 2.3323517651e+00	-4.0345498021e-01
 7.1897089984e-01	 2.3390571709e+00	-3.7117539807e-01
 6.9749608302e-01	 2.3455504602e+00	-3.3909077792e-01
 6.7601261186e-01	 2.3518322235e+00	-3.0705325536e-01
 6.5452340855e-01	 2.3579031017e+00	-2.7563543003e-01
 6.3303136939e-01	 2.3637637862e+00	-2.4589129929e-01
 8.5052700417e-01	 2.3039029651e+00	-5.7038768841e-01
 8.2908978386e-01	 2.3117039928e+00	-5.3446058941e-01
 8.0762579458e-01	 2.3192899727e+00	-4.9952363221e-01
 7.8613810271e-01	 2.3266612295e+00	-4.6533938504e-01
 7.6462975516e-01	 2.3338181429e+00	-4.3169067953e-01
 7.4310377822e-01	 2.3407611469e+00	-3.9837924913e-01
 7.2156317639e-01	 2.3474907292e+00	-3.6522391537e-01
 7.0001093131e-01	 2.3540074304e+00	-3.3209321878e-01
 6.7845000069e-01	 2.3603118427e+00	-3.0030273514e-01
 6.5688331725e-01	 2.3664046098e+00	-2.7028111582e-01
 6.3531378774e-01	 2.3722864252e+00	-2.4158653250e-01
 8.5358261579e-01	 2.3121799894e+00	-5.6714456950e-01
 8.3206837992e-01	 2.3200090431e+00	-5.3125990387e-01
 8.1052727889e-01	 2.3276222765e+00	-4.9610584372e-01
 7.8896239013e-01	 2.3350200153e+00	-4.6145043380e-01
 7.6737677149e-01	 2.3422026407e+00	-4.2708047598e-01
 7.4577346011e-01	 2.3491705882e+00	-3.9280017923e-01
 7.2415547130e-01	 2.3559243474e+00	-3.5869203685e-01
 7.0252579742e-01	 2.3624644605e+00	-3.2643594061e-01
 6.8088740679e-01	 2.3687915221e+00	-2.9601073644e-01
 6.5924324268e-01	 2.3749061781e+00	-2.6696755219e-01
 6.3759622226e-01	 2.3808091246e+00	-2.3883214511e-01
 8.5663825511e-01	 2.3204570887e+00	-5.6438174603e-01
 8.3504700298e-01	 2.3283141687e+00	-5.2849292592e-01
 8.1342878952e-01	 2.3359546559e+00	-4.9300121740e-01
 7.9178670316e-01	 2.3433788770e+00	-4.5768638397e-01
 7.7012381272e-01	 2.3505872146e+00	-4.2234502414e-01
 7.4844316621e-01	 2.3575801058e+00	-3.8741750744e-01
 7.2674778972e-01	 2.3643580419e+00	-3.5462840173e-01
 7.0504068633e-01	 2.3709215672e+00	-3.2371220456e-01
 6.8332483499e-01	 2.3772712784e+00	-2.9422093867e-01
 6.6160318950e-01	 2.3834078235e+00	-2.6567837374e-01
 6.3987867747e-01	 2.3893319012e+00	-2.3758013044e-01
 8.5969392821e-01	 2.3287342795e+00	-5.6219014637e-01
 8.3802565895e-01	 2.3366193862e+00	-5.2625629782e-01
 8.1633033221e-01	 2.3442871273e+00	-4.9030743593e-01
 7.9461104741e-01	 2.3517378310e+00	-4.5414123533e-01
 7.7287088431e-01	 2.3589718811e+00	-4.1862085421e-01
 7.5111290181e-01	 2.3659897163e+00	-3.8533914891e-01
 7.2934013679e-01	 2.3727918297e+00	-3.5392930335e-01
 7.0755560303e-01	 2.3793787674e+00	-3.2395381220e-01
 6.8576229012e-01	 2.3857511283e+00	-2.9494340297e-01
 6.6396316239e-01	 2.3919095628e+00	-2.6639720483e-01
 6.4216115791e-01	 2.3978547720e+00	-2.3778295323e-01
 8.6274964113e-01	 2.3370115782e+00	-5.6066107898e-01
 8.4100435376e-01	 2.3449247118e+00	-5.2464701174e-01
 8.1923191271e-01	 2.3526197073e+00	-4.8812255888e-01
 7.9743542846e-01	 2.3600968939e+00	-4.5237088490e-01
 7.7561799170e-01	 2.3673566569e+00	-4.1879834646e-01
 7.5378267220e-01	 2.3743994365e+00	-3.8702752204e-01
 7.3193251764e-01	 2.3812257274e+00	-3.5664258524e-01
 7.1007055251e-01	 2.3878360779e+00	-3.2719180438e-01
 6.8819977702e-01	 2.3942310888e+00	-2.9818776770e-01
 6.6632316605e-01	 2.4004114129e+00	-2.6910765231e-01
 6.4444366809e-01	 2.4063777539e+00	-2.3939353383e-01
 8.6580539994e-01	 2.3452890012e+00	-5.5988619834e-01
 8.4398309329e-01	 2.3532301622e+00	-5.2376523470e-01
 8.2213353680e-01	 2.3609524125e+00	-4.8834906021e-01
 8.0025985193e-01	 2.3684560824e+00	-4.5490682604e-01
 7.7836514035e-01	 2.3757415586e+00	-4.2309807650e-01
 7.5645248269e-01	 2.3828092829e+00	-3.9254148525e-01
 7.3452493742e-01	 2.3896597517e+00	-3.6281507090e-01
 7.1258553976e-01	 2.3962935153e+00	-3.3345646767e-01
 6.9063730053e-01	 2.4027111766e+00	-3.0396324864e-01
 6.6868320514e-01	 2.4089133907e+00	-2.7379329854e-01
 6.4672621255e-01	 2.4149008638e+00	-2.4236523275e-01
 6.2390176713e-01	 2.3296734959e+00	-2.6455213959e-01
 6.0271972034e-01	 2.3352432252e+00	-2.3304026266e-01
 5.8154050900e-01	 2.3406073021e+00	-1.9728142698e-01
 5.6036690706e-01	 2.3457665534e+00	-1.6385932525e-01
 5.3920165923e-01	 2.3507218515e+00	-1.3433488833e-01
 5.1804748016e-01	 2.3554741136e+00	-1.0815988662e-01
 4.9690705358e-01	 2.3600243005e+00	-8.5385383496e-02
 4.7578303159e-01	 2.3643734159e+00	-6.5272722746e-02
 4.5467803390e-01	 2.3685225051e+00	-4.7015612247e-02
 4.3359464711e-01	 2.3724726541e+00	-2.9857378638e-02
 4.1253542408e-01	 2.3762249887e+00	-1.3088012197e-02
 6.2618416607e-01	 2.3381960624e+00	-2.6255016631e-01
 6.0492462972e-01	 2.3437861673e+00	-2.3081026926e-01
 5.8366793917e-01	 2.3491698675e+00	-1.9468657691e-01
 5.6241687855e-01	 2.3543479926e+00	-1.6022419097e-01
 5.4117420261e-01	 2.3593214186e+00	-1.3055825011e-01
 5.1994263591e-01	 2.3640910657e+00	-1.0510927376e-01
 4.9872487202e-01	 2.3686578984e+00	-8.2980739669e-02
 4.7752357273e-01	 2.3730229240e+00	-6.3330806116e-02
 4.5634136733e-01	 2.3771871917e+00	-4.5369033836e-02
 4.3518085189e-01	 2.3811517914e+00	-2.8353278048e-02
 4.1404458862e-01	 2.3849178530e+00	-1.1586742796e-02
 6.2846656308e-01	 2.3467186217e+00	-2.5827392001e-01
 6.0712953722e-01	 2.3523291022e+00	-2.2597493005e-01
 5.8579536754e-01	 2.3577324255e+00	-1.8989413556e-01
 5.6446684831e-01	 2.3629294246e+00	-1.5603523651e-01
 5.4314674432e-01	 2.3679209783e+00	-1.2711180637e-01
 5.2183779006e-01	 2.3727080104e+00	-1.0219534129e-01
 5.0054268891e-01	 2.3772914890e+00	-8.0415137109e-02
 4.7926411239e-01	 2.3816724248e+00	-6.0954806754e-02
 4.5800469934e-01	 2.3858518709e+00	-4.3048977973e-02
 4.3676705532e-01	 2.3898309212e+00	-2.5980163359e-02
 4.1555375187e-01	 2.3936107099e+00	-9.0757947166e-03
 6.3074896268e-01	 2.3552411907e+00	-2.5179493998e-01
 6.0933444722e-01	 2.3608720467e+00	-2.2016759463e-01
 5.8792279832e-01	 2.3662949932e+00	-1.8571647424e-01
 5.6651682039e-01	 2.3715108663e+00	-1.5250309911e-01
 5.4511928825e-01	 2.3765205478e+00	-1.2400381900e-01
 5.2373294635e-01	 2.3813249650e+00	-9.9322482303e-02
 5.0236050787e-01	 2.3859250893e+00	-7.7621392682e-02
 4.8100465402e-01	 2.3903219353e+00	-5.8117772432e-02
 4.5966803325e-01	 2.3945165599e+00	-4.0080407984e-02
 4.3835326056e-01	 2.3985100610e+00	-2.2826469308e-02
 4.1706291683e-01	 2.4023035767e+00	-5.7184950684e-03
 6.3303136939e-01	 2.3637637862e+00	-2.4589129929e-01
 6.1153936410e-01	 2.3694150178e+00	-2.1556506895e-01
 5.9005023573e-01	 2.3748575877e+00	-1.8238991268e-01
 5.6856679885e-01	 2.3800923347e+00	-1.4951322776e-01
 5.4709183834e-01	 2.3851201440e+00	-1.2112415627e-01
 5.2562810855e-01	 2.3899419463e+00	-9.6396841657e-02
 5.0417833249e-01	 2.3945587165e+00	-7.4533677228e-02
 4.8274520107e-01	 2.3989714728e+00	-5.4793534782e-02
 4.6133137233e-01	 2.4031812759e+00	-3.6488330086e-02
 4.3993947073e-01	 2.4071892278e+00	-1.8979763245e-02
 4.1857208649e-01	 2.4109964706e+00	-1.6762256186e-03
 6.3531378774e-01	 2.3722864252e+00	-2.4158653250e-01
 6.1374429222e-01	 2.3779580325e+00	-2.1209845831e-01
 5.9217768399e-01	 2.3834202258e+00	-1.7976286210e-01
 5.7061678778e-01	 2.3886738469e+00	-1.4695304938e-01
 5.4906439849e-01	 2.3937197842e+00	-1.1836461718e-01
 5.2752328041e-01	 2.3985589717e+00	-9.3326275891e-02
 5.0599616639e-01	 2.4031923878e+00	-7.1087483647e-02
 4.8448575701e-01	 2.4076210544e+00	-5.0956688621e-02
 4.6299471990e-01	 2.4118460362e+00	-3.2297786975e-02
 4.4152568900e-01	 2.4158684388e+00	-1.4526755966e-02
 4.2008126385e-01	 2.4196894088e+00	 2.8915461961e-03
 6.3759622226e-01	 2.3808091246e+00	-2.3883214511e-01
 6.1594923596e-01	 2.3865011078e+00	-2.0969060151e-01
 5.9430514733e-01	 2.3919829245e+00	-1.7774047981e-01
 5.7266679123e-01	 2.3972554198e+00	-1.4471192238e-01
 5.5103697261e-01	 2.4023194852e+00	-1.1561888699e-01
 5.2941846571e-01	 2.4071760580e+00	-9.0020313836e-02
 5.0781401316e-01	 2.4118261202e+00	-6.7219595537e-02
 4.8622632527e-01	 2.4162706973e+00	-4.6582571598e-02
 4.6465807926e-01	 2.4205108578e+00	-2.7533851424e-02
 4.4311191851e-01	 2.4245477113e+00	-9.5533121736e-03
 4.2159045190e-01	 2.4283824086e+00	 7.8272370416e-03
 6.3987867747e-01	 2.3893319012e+00	-2.3758013044e-01
 6.1815419969e-01	 2.3950442605e+00	-2.0826526699e-01
 5.9643262995e-01	 2.4005457009e+00	-1.7622989982e-01
 5.7471681326e-01	 2.4058370706e+00	-1.4268109113e-01
 5.5300956462e-01	 2.4109192643e+00	-1.1278249369e-01
 5.3131366818e-01	 2.4157932225e+00	-8.6390117932e-02
 5.0963187641e-01	 2.4204599309e+00	-6.2868056378e-02
 4.8796690932e-01	 2.4249204187e+00	-4.1647244148e-02
 4.6632145369e-01	 2.4291757579e+00	-2.2221619900e-02
 4.4469816239e-01	 2.4332270626e+00	-4.1444606217e-03
 4.2309965364e-01	 2.4370754872e+00	 1.2975118219e-02
 6.4216115791e-01	 2.3978547720e+00	-2.3778295323e-01
 6.2035918778e-01	 2.4035875076e+00	-2.0774712850e-01
 5.9856013608e-01	 2.4091085720e+00	-1.7513943119e-01
 5.7676685794e-01	 2.4144188162e+00	-1.4075364126e-01
 5.5498217842e-01	 2.4195191383e+00	-1.0975276515e-01
 5.3320889160e-01	 2.4244104823e+00	-8.2348446233e-02
 5.1144975975e-01	 2.4290938370e+00	-5.7972139238e-02
 4.8970751260e-01	 2.4335702356e+00	-3.6127469762e-02
 4.6798484651e-01	 2.4378407539e+00	-1.6386206206e-02
 4.4628442381e-01	 2.4419065097e+00	 1.6155960881e-03
 4.2460887205e-01	 2.4457686619e+00	 1.8181286938e-02
 6.4444366809e-01	 2.4063777539e+00	-2.3939353383e-01
 6.2256420462e-01	 2.4121308660e+00	-2.0806174153e-01
 6.0068766994e-01	 2.4176715546e+00	-1.7437852964e-01
 5.7881692935e-01	 2.4230006737e+00	-1.3882445563e-01
 5.5695481794e-01	 2.4281191245e+00	-1.0642878704e-01
 5.3510413971e-01	 2.4330278543e+00	-7.7809615078e-02
 5.1326766678e-01	 2.4377278557e+00	-5.2472316995e-02
 4.9144813856e-01	 2.4422201652e+00	-3.0000695540e-02
 4.6964826100e-01	 2.4465058627e+00	-1.0052735136e-02
 4.4787070589e-01	 2.4505860700e+00	 7.6434720241e-03
 4.2611811014e-01	 2.4544619498e+00	 2.3293638319e-02
 6.4672621255e-01	 2.4149008638e+00	-2.4236523275e-01
 6.2476925456e-01	 2.4206743528e+00	-2.0913552028e-01
 6.0281523574e-01	 2.4262346658e+00	-1.7385776975e-01
 5.8086703153e-01	 2.4315826600e+00	-1.3679017122e-01
 5.5892748707e-01	 2.4367192398e+00	-1.0271136154e-01
 5.3699941629e-01	 2.4416453558e+00	-7.2689462420e-02
 5.1508560111e-01	 2.4463620040e+00	-4.6310233062e-02
 4.9318879066e-01	 2.4508702248e+00	-2.3245033039e-02
 4.7131170048e-01	 2.4551711017e+00	-3.2463361437e-03
 4.4945701180e-01	 2.4592657606e+00	 1.3856588760e-02
 4.2762737088e-01	 2.4631553684e+00	 2.8161838093e-02
 4.1253542408e-01	 2.3762249887e+00	-1.3088012197e-02
 3.9149931087e-01	 2.3797812609e+00	 3.0163079632e-03
 3.7049237917e-01	 2.3831420173e+00	 1.7682419898e-02
 3.4951708351e-01	 2.3863084955e+00	 3.0814989312e-02
 3.2857584217e-01	 2.3892819685e+00	 4.2274558498e-02
 3.0767103664e-01	 2.3920637443e+00	 5.1880839822e-02
 2.8680501121e-01	 2.3946551640e+00	 5.9415876617e-02
 2.6598007245e-01	 2.3970576014e+00	 6.4627076467e-02
 2.4519848886e-01	 2.3992724614e+00	 6.7230121594e-02
 2.2446249046e-01	 2.4013011794e+00	 6.6911760839e-02
 2.0377426846e-01	 2.4031452201e+00	 6.3332487434e-02
 4.1404458862e-01	 2.3849178530e+00	-1.1586742796e-02
 3.9293151969e-01	 2.3884871350e+00	 4.5292548244e-03
 3.7184773904e-01	 2.3918601860e+00	 1.9103408625e-02
 3.5079571016e-01	 2.3950382479e+00	 3.2037258938e-02
 3.2977786017e-01	 2.3980225988e+00	 4.3186374630e-02
 3.0879657930e-01	 2.4008145510e+00	 5.2363693545e-02
 2.8785422038e-01	 2.4034154508e+00	 5.9342731685e-02
 2.6695309844e-01	 2.4058266769e+00	 6.3860666170e-02
 2.4609549028e-01	 2.4080496395e+00	 6.5621296712e-02
 2.2528363408e-01	 2.4100857791e+00	 6.4297890096e-02
 2.0451972904e-01	 2.4119365657e+00	 5.9535911863e-02
 4.1555375187e-01	 2.3936107099e+00	-9.0757947166e-03
 3.9436372730e-01	 2.3971930017e+00	 7.1208039552e-03
 3.7320309775e-01	 2.4005783472e+00	 2.1595682504e-02
 3.5207433572e-01	 2.4037679930e+00	 3.4255987386e-02
 3.3097987716e-01	 2.4067632215e+00	 4.4963370581e-02
 3.0992212099e-01	 2.4095653503e+00	 5.3537312283e-02
 2.8890342866e-01	 2.4121757302e+00	 5.9758312365e-02
 2.6792612361e-01	 2.4145957450e+00	 6.3370955795e-02
 2.4699249095e-01	 2.4168268101e+00	 6.4086856946e-02
 2.2610477700e-01	 2.4188703713e+00	 6.1587487383e-02
 2.0526518900e-01	 2.4207279040e+00	 5.5526891466e-02
 4.1706291683e-01	 2.4023035767e+00	-5.7184950684e-03
 3.9579593653e-01	 2.4058988783e+00	 1.0561426998e-02
 3.7455845801e-01	 2.4092965183e+00	 2.4892136142e-02
 3.5335296273e-01	 2.4124977479e+00	 3.7194933764e-02
 3.3218189550e-01	 2.4155038542e+00	 4.7348412535e-02
 3.1104766397e-01	 2.4183161594e+00	 5.5191697036e-02
 2.8995263813e-01	 2.4209360195e+00	 6.0527551878e-02
 2.6889914988e-01	 2.4233648231e+00	 6.3125362801e-02
 2.4788949262e-01	 2.4256039907e+00	 6.2723995951e-02
 2.2692592085e-01	 2.4276549735e+00	 5.9034540219e-02
 2.0601064979e-01	 2.4295192521e+00	 5.1742937201e-02
 4.1857208649e-01	 2.4109964706e+00	-1.6762256186e-03
 3.9722815022e-01	 2.4146047820e+00	 1.4624496807e-02
 3.7591382248e-01	 2.4180147166e+00	 2.8729111792e-02
 3.5463159372e-01	 2.4212275301e+00	 4.0581444504e-02
 3.3338391759e-01	 2.4242445142e+00	 5.0087689809e-02
 3.1217321045e-01	 2.4270669959e+00	 5.7119506940e-02
 2.9100185087e-01	 2.4296963361e+00	 6.1516979055e-02
 2.6987217919e-01	 2.4321339285e+00	 6.3091443623e-02
 2.4878649710e-01	 2.4343811987e+00	 6.1628199237e-02
 2.2774706725e-01	 2.4364396031e+00	 5.6889094155e-02
 2.0675611291e-01	 2.4383106277e+00	 4.8615001472e-02
 4.2008126385e-01	 2.4196894088e+00	 2.8915461961e-03
 3.9866037122e-01	 2.4233107301e+00	 1.9086238506e-02
 3.7726919388e-01	 2.4267329594e+00	 3.2846339897e-02
 3.5591023124e-01	 2.4299573567e+00	 4.4146390770e-02
 3.3458594582e-01	 2.4329852187e+00	 5.2930656442e-02
 3.1329876267e-01	 2.4358178770e+00	 5.9116012310e-02
 2.9205106896e-01	 2.4384566973e+00	 6.2594690025e-02
 2.7084521345e-01	 2.4409030786e+00	 6.3236891155e-02
 2.4968350615e-01	 2.4431584514e+00	 6.0893274522e-02
 2.2856821785e-01	 2.4452242775e+00	 5.5397322994e-02
 2.0750157984e-01	 2.4471020481e+00	 4.6567595154e-02
 4.2159045190e-01	 2.4283824086e+00	 7.8272370416e-03
 4.0009260236e-01	 2.4320167399e+00	 2.3725681718e-02
 3.7862457487e-01	 2.4354512639e+00	 3.6986881030e-02
 3.5718887781e-01	 2.4386872453e+00	 4.7624107315e-02
 3.3578798255e-01	 2.4417259852e+00	 5.5629974130e-02
 3.1442432287e-01	 2.4445688201e+00	 6.0979048763e-02
 2.9310029448e-01	 2.4472171207e+00	 6.3630320568e-02
 2.7181825461e-01	 2.4496722908e+00	 6.3529532322e-02
 2.5058052155e-01	 2.4519357663e+00	 6.0611381439e-02
 2.2938937426e-01	 2.4540090141e+00	 5.4801597488e-02
 2.0824705204e-01	 2.4558935309e+00	 4.6018902055e-02
 4.2309965364e-01	 2.4370754872e+00	 1.2975118219e-02
 4.0152484649e-01	 2.4407228286e+00	 2.8324613920e-02
 3.7997996815e-01	 2.4441696475e+00	 4.0897069180e-02
 3.5846753598e-01	 2.4474172129e+00	 5.0752332749e-02
 3.3699003019e-01	 2.4504668309e+00	 5.7941456478e-02
 3.1554989327e-01	 2.4533198425e+00	 6.2508972393e-02
 2.9414952952e-01	 2.4559776234e+00	 6.4495019126e-02
 2.7279130460e-01	 2.4584415825e+00	 6.3937325745e-02
 2.5147754509e-01	 2.4607131608e+00	 6.0873060626e-02
 2.3021053812e-01	 2.4627938304e+00	 5.5340552555e-02
 2.0899253100e-01	 2.4646850933e+00	 4.7380890882e-02
 4.2460887205e-01	 2.4457686619e+00	 1.8181286938e-02
 4.0295710645e-01	 2.4494290136e+00	 3.2667534918e-02
 3.8133537641e-01	 2.4528881274e+00	 4.4326456352e-02
 3.5974620828e-01	 2.4561472771e+00	 5.3272151171e-02
 3.3819209111e-01	 2.4592077732e+00	 5.9624014520e-02
 3.1667547611e-01	 2.4620709616e+00	 6.3508615985e-02
 2.9519877615e-01	 2.4647382230e+00	 6.5061420432e-02
 2.7376436533e-01	 2.4672109712e+00	 6.4428359489e-02
 2.5237457853e-01	 2.4694906523e+00	 6.1767262209e-02
 2.3103171105e-01	 2.4715787437e+00	 5.7249153048e-02
 2.0973801820e-01	 2.4734767528e+00	 5.1059424792e-02
 4.2611811014e-01	 2.4544619498e+00	 2.3293638319e-02
 4.0438938508e-01	 2.4581353120e+00	 3.6541612383e-02
 3.8269080233e-01	 2.4616067209e+00	 4.7027758458e-02
 3.6102489724e-01	 2.4648774550e+00	 5.4927935150e-02
 3.3939416770e-01	 2.4679488294e+00	 6.0439603487e-02
 3.1780107362e-01	 2.4708221948e+00	 6.3783246220e-02
 2.9624803646e-01	 2.4734989368e+00	 6.5203619769e-02
 2.7473743875e-01	 2.4759804741e+00	 6.4970848890e-02
 2.5327162367e-01	 2.4782682582e+00	 6.3381373689e-02
 2.3185289468e-01	 2.4803637715e+00	 6.0758758113e-02
 2.1048351511e-01	 2.4822685270e+00	 5.7454368557e-02
 4.2762737088e-01	 2.4631553684e+00	 2.8161838093e-02
 4.0582168521e-01	 2.4668417411e+00	 3.9736638459e-02
 3.8404624861e-01	 2.4703254454e+00	 4.8756802446e-02
 3.6230360541e-01	 2.4736077640e+00	 5.5467290003e-02
 3.4059626234e-01	 2.4766900169e+00	 6.0153170788e-02
 3.1892668803e-01	 2.4795735594e+00	 6.3140521870e-02
 2.9729731252e-01	 2.4822597821e+00	 6.4797147817e-02
 2.7571052678e-01	 2.4847501087e+00	 6.5533134476e-02
 2.5416868228e-01	 2.4870459959e+00	 6.5801247255e-02
 2.3267409065e-01	 2.4891489313e+00	 6.6097184173e-02
 2.1122902322e-01	 2.4910604332e+00	 6.6959693435e-02
 2.0377426846e-01	 2.4031452201e+00	 6.3332487434e-02
 1.8313947057e-01	 2.4048058091e+00	 6.0101776099e-02
 1.6255664758e-01	 2.4062847945e+00	 6.0495068873e-02
 1.4202782445e-01	 2.4075837209e+00	 6.3687618414e-02
 1.2155498752e-01	 2.4087041578e+00	 6.8897321176e-02
 1.0114008431e-01	 2.4096476990e+00	 7.5385848089e-02
 8.0785023340e-02	 2.4104159608e+00	 8.2459633856e-02
 6.0491674005e-02	 2.4110105817e+00	 8.9470730088e-02
 4.0261866415e-02	 2.4114332208e+00	 9.5817527229e-02
 2.0097391313e-02	 2.4116855573e+00	 1.0094534999e-01
 0.0000000000e+00	 2.4117692892e+00	 1.0434693075e-01
 2.0451972904e-01	 2.4119365657e+00	 5.9535911863e-02
 1.8380944356e-01	 2.4136032297e+00	 5.5274689142e-02
 1.6315132313e-01	 2.4150876256e+00	 5.5047075321e-02
 1.4254740009e-01	 2.4163913038e+00	 5.7904716394e-02
 1.2199966806e-01	 2.4175158396e+00	 6.2942755977e-02
 1.0151008169e-01	 2.4184628325e+00	 6.9301100864e-02
 8.1080556488e-02	 2.4192339048e+00	 7.6165541572e-02
 6.0712968673e-02	 2.4198307010e+00	 8.2768733016e-02
 4.0409155054e-02	 2.4202548862e+00	 8.8391040181e-02
 2.0170912927e-02	 2.4205081459e+00	 9.2361253462e-02
 0.0000000000e+00	 2.4205921840e+00	 9.4057178046e-02
 2.0526518900e-01	 2.4207279040e+00	 5.5526891466e-02
 1.8447941599e-01	 2.4224006428e+00	 5.0168708891e-02
 1.6374599816e-01	 2.4238904492e+00	 4.9269901989e-02
 1.4306697529e-01	 2.4251988792e+00	 5.1736850066e-02
 1.2244434823e-01	 2.4263275139e+00	 5.6513687136e-02
 1.0188007876e-01	 2.4272779585e+00	 6.2583894337e-02
 8.1376089384e-02	 2.4280518413e+00	 6.8971746927e-02
 6.0934263151e-02	 2.4286508127e+00	 7.4743620582e-02
 4.0556443568e-02	 2.4290765441e+00	 7.9009161403e-02
 2.0244434479e-02	 2.4293307269e+00	 8.0922323876e-02
 0.0000000000e+00	 2.4294150713e+00	 7.9682280715e-02
 2.0601064979e-01	 2.4295192521e+00	 5.1742937201e-02
 1.8514938917e-01	 2.4311980659e+00	 4.5375012015e-02
 1.6434067388e-01	 2.4326932828e+00	 4.3822540342e-02
 1.4358655107e-01	 2.4340064646e+00	 4.5825502503e-02
 1.2288902890e-01	 2.4351391981e+00	 5.0149339723e-02
 1.0225007625e-01	 2.4360930945e+00	 5.5587064113e-02
 8.1671622614e-02	 2.4368697878e+00	 6.0961226083e-02
 6.1155557880e-02	 2.4374709345e+00	 6.5125743051e-02
 4.0703732248e-02	 2.4378982120e+00	 6.6967593089e-02
 2.0317956114e-02	 2.4381533179e+00	 6.5408376918e-02
 0.0000000000e+00	 2.4382379687e+00	 5.9405751423e-02
 2.0675611291e-01	 2.4383106277e+00	 4.8615001472e-02
 1.8581936445e-01	 2.4399955163e+00	 4.1476033227e-02
 1.6493535144e-01	 2.4414961438e+00	 3.9354297370e-02
 1.4410612847e-01	 2.4428140775e+00	 4.0802763395e-02
 1.2333371095e-01	 2.4439509099e+00	 4.4381062235e-02
 1.0262007490e-01	 2.4449082579e+00	 4.8658303309e-02
 8.1967156765e-02	 2.4456877618e+00	 5.2215755038e-02
 6.1376853298e-02	 2.4462910838e+00	 5.3649391522e-02
 4.0851021386e-02	 2.4467199074e+00	 5.1572307841e-02
 2.0391477977e-02	 2.4469759364e+00	 4.4617006229e-02
 0.0000000000e+00	 2.4470608935e+00	 3.1437555181e-02
 2.0750157984e-01	 2.4471020481e+00	 4.6567595154e-02
 1.8648934314e-01	 2.4487930117e+00	 3.9045621382e-02
 1.6553003204e-01	 2.4502990498e+00	 3.6504968564e-02
 1.4462570852e-01	 2.4516217353e+00	 3.7291496814e-02
 1.2377839527e-01	 2.4527626665e+00	 3.9732467235e-02
 1.0299007542e-01	 2.4537234664e+00	 4.2140254284e-02
 8.2262692423e-02	 2.4545057808e+00	 4.2815930860e-02
 6.1598149844e-02	 2.4551112780e+00	 4.0052727254e-02
 4.0998311275e-02	 2.4555416478e+00	 3.2139364864e-02
 2.0465000216e-02	 2.4557985999e+00	 1.7363265443e-02
 0.0000000000e+00	 2.4558838633e+00	-5.9863635665e-03
 2.0824705204e-01	 2.4558935309e+00	 4.6018902055e-02
 1.8715932657e-01	 2.4575905694e+00	 3.8649192161e-02
 1.6612471684e-01	 2.4591020180e+00	 3.5905007086e-02
 1.4514529225e-01	 2.4604294554e+00	 3.5905505294e-02
 1.2422308274e-01	 2.4615744856e+00	 3.6719568890e-02
 1.0336007857e-01	 2.4625387372e+00	 3.6370598354e-02
 8.2558230173e-02	 2.4633238622e+00	 3.2841192456e-02
 6.1819447957e-02	 2.4639315348e+00	 2.4077712542e-02
 4.1145602207e-02	 2.4643634507e+00	 7.9947302024e-03
 2.0538522974e-02	 2.4646213259e+00	-1.7520642774e-02
 0.0000000000e+00	 2.4647068957e+00	-5.4604543448e-02
 2.0899253100e-01	 2.4646850933e+00	 4.7380890882e-02
 1.8782931608e-01	 2.4663882068e+00	 4.0843877414e-02
 1.6671940704e-01	 2.4679050661e+00	 3.8175689243e-02
 1.4566488070e-01	 2.4692372555e+00	 3.7249690319e-02
 1.2466777424e-01	 2.4703863846e+00	 3.5850917499e-02
 1.0373008508e-01	 2.4713540880e+00	 3.1682143541e-02
 8.2853770602e-02	 2.4721420236e+00	 2.2369840883e-02
 6.2040748075e-02	 2.4727518715e+00	 5.4700431155e-03
 4.1292894474e-02	 2.4731853336e+00	-2.1525899077e-02
 2.0612046399e-02	 2.4734441320e+00	-6.1185670862e-02
 0.0000000000e+00	 2.4735300080e+00	-1.1613045852e-01
 2.0973801820e-01	 2.4734767528e+00	 5.1059424792e-02
 1.8849931299e-01	 2.4751859415e+00	 4.6178671255e-02
 1.6731410382e-01	 2.4767082115e+00	 4.3929276362e-02
 1.4618447488e-01	 2.4780451528e+00	 4.1920209309e-02
 1.2511247065e-01	 2.4791983810e+00	 3.7627731088e-02
 1.0410009566e-01	 2.4801695363e+00	 2.8402910412e-02
 8.3149314295e-02	 2.4809602824e+00	 1.1479059223e-02
 6.2262050637e-02	 2.4815723057e+00	-1.6020917985e-02
 4.1440188367e-02	 2.4820073140e+00	-5.7077266863e-02
 2.0685570636e-02	 2.4822670355e+00	-1.1476622386e-01
 0.0000000000e+00	 2.4823532178e+00	-1.9225296076e-01
 2.1048351511e-01	 2.4822685270e+00	 5.7454368557e-02
 1.8916931864e-01	 2.4839837908e+00	 5.5194572992e-02
 1.6790880834e-01	 2.4855114716e+00	 5.3769173132e-02
 1.4670407583e-01	 2.4868531650e+00	 5.0504629199e-02
 1.2555717286e-01	 2.4880104922e+00	 4.2544024142e-02
 1.0447011108e-01	 2.4889850994e+00	 2.6856216042e-02
 8.3444861838e-02	 2.4897786561e+00	 2.4493202246e-04
 6.2483356083e-02	 2.4903928548e+00	-4.0642205096e-02
 4.1587484179e-02	 2.4908294093e+00	-9.9304726236e-02
 2.0759095830e-02	 2.4910900540e+00	-1.7938045042e-01
 0.0000000000e+00	 2.4911765427e+00	-2.8463671287e-01
 2.1122902322e-01	 2.4910604332e+00	 6.6959693435e-02
 1.8983933434e-01	 2.4927817722e+00	 6.8424726962e-02
 1.6850352179e-01	 2.4943148639e+00	 6.8290082542e-02
 1.4722368459e-01	 2.4956613094e+00	 6.3582076689e-02
 1.2600188175e-01	 2.4968227358e+00	 5.1086733550e-02
 1.0484013204e-01	 2.4978007949e+00	 2.7360756164e-02
 8.3740413818e-02	 2.4985971623e+00	-1.1257535688e-02
 6.2704664850e-02	 2.4992135364e+00	-6.8637313213e-02
 4.1734782201e-02	 2.4996516371e+00	-1.4884440404e-01
 2.0832622128e-02	 2.4999132050e+00	-2.5613052751e-01
 0.0000000000e+00	 2.5000000000e+00	-3.9492261174e-01
